coord_x,coord_y,stress_xx,stress_yy,tau_xy,velocity_x,velocity_y,stress_1,eps,damage,lx,ly
5.0e+0, 1.2499334e+2, -1719946.3, -1724224.6, 0.000040592513, 0.00000000022328253, 0.00001759783, -1719946.3, -4880.965, 0.0, 10.0, 9.994328 
5.0e+0, 1.349876e+2, -1622565.8, -1627434.9, 0.00004065472, 0.00000000021680988, -0.00006840359, -1622565.8, -5444.1772, 0.0, 10.0, 9.993545 
5.0e+0, 1.4497513e+2, -1534464.4, -1548146.3, 0.000038938604, 0.00000000021318575, 0.00007091612, -1534464.4, -15220.685, 0.0, 10.0, 9.981865 
5.0e+0, 1.5495701e+2, -1436736.6, -1450821.9, 0.000029102372, 0.00000000021240848, -0.00005698151, -1436736.6, -15315.503, 0.0, 10.0, 9.981333 
5.0e+0, 1.6493228e+2, -1348685.8, -1371952.4, 0.000027609005, 0.00000000021140913, 0.00004734127, -1348685.8, -25021.996, 0.0, 10.0, 9.969248 
5.0e+0, 1.7490156e+2, -1250727.6, -1274310.1, 0.000024790068, 0.00000000021018297, -0.000073832365, -1250727.6, -24762.975, 0.0, 10.0, 9.968835 
5.0e+0, 1.8486421e+2, -1162646.8, -1195720.1, 0.000023716588, 0.00000000020894354, 0.00006614319, -1162646.8, -34316.027, 0.0, 10.0, 9.956395 
5.0e+0, 1.9482064e+2, -1064497.0, -1097833.0, 0.000012713338, 0.00000000020769007, -0.000057657944, -1064497.0, -33739.363, 0.0, 10.0, 9.956052 
5.0e+0, 2.0477042e+2, -976333.0, -1019435.0, 0.000011625617, 0.00000000020670281, 0.00006807674, -976333.0, -43083.11, 0.0, 10.0, 9.943291 
5.0e+0, 2.1471375e+2, -878046.0, -921409.9, 0.000009496187, 0.00000000020600371, -0.00012682882, -878046.0, -42240.69, 0.0, 10.0, 9.942949 
5.0e+0, 2.2465037e+2, -789759.9, -843144.9, 0.000009673232, 0.00000000020465508, 0.000120878365, -789759.9, -51333.586, 0.0, 10.0, 9.929908 
5.0e+0, 2.3458035e+2, -691326.4, -744966.44, -0.000000038447194, 0.00000000020257096, -0.0000888192, -691326.4, -50213.82, 0.0, 10.0, 9.929577 
5.0e+0, 2.4450338e+2, -603002.3, -667018.8, -0.00000044919273, 0.00000000020225015, 0.00007470807, -603002.3, -59135.418, 0.0, 10.0, 9.916136 
5.0e+0, 2.5441962e+2, -504249.63, -568343.3, -0.0000031665543, 0.00000000020403619, -0.000106737534, -504249.63, -57562.08, 0.0, 10.0, 9.916036 
5.0e+0, 2.643288e+2, -416014.22, -490987.88, -0.0000008136111, 0.00000000020348323, 0.00014059343, -416014.22, -66436.55, 0.0, 10.0, 9.901964 
5.0e+0, 2.742313e+2, -316729.0, -391374.78, -0.00000868834, 0.00000000019994832, -0.00020344478, -316729.0, -64195.996, 0.0, 10.0, 9.902385 
5.0e+0, 2.841256e+2, -230255.75, -318081.25, -0.000008709351, 0.00000000019844759, 0.00022904525, -230255.75, -74686.77, 0.0, 10.0, 9.885439 
5.0e+0, 2.940121e+2, -130549.6, -217765.02, -0.000013708295, 0.00000000019974442, -0.00025334352, -130549.6, -71868.21, 0.0, 10.0, 9.886217 
5.0e+0, 3.0392656e+2, -40805.59, -84750.16, -0.00000911932, 0.00000000020095092, 0.00017313573, -40805.59, -40805.59, 0.0, 10.0, 9.942173 
5.0e+0, 3.138706e+2, -39727.58, -82511.21, -0.000010517806, 0.00000000020199706, -0.00005514293, -39727.58, -39727.58, 0.0, 10.0, 9.943685 
1.5e+1, 1.2499334e+2, -1719946.3, -1724224.6, -0.000054847023, 0.00000000066984757, 0.000017597846, -1719946.3, -4880.965, 0.0, 10.0, 9.994328 
1.5e+1, 1.349876e+2, -1622565.8, -1627434.9, -0.000054807995, 0.00000000065042965, -0.00006840359, -1622565.8, -5444.1772, 0.0, 10.0, 9.993545 
1.5e+1, 1.4497513e+2, -1534464.4, -1548146.3, -0.00005061229, 0.00000000063955724, 0.00007091612, -1534464.4, -15220.685, 0.0, 10.0, 9.981865 
1.5e+1, 1.5495701e+2, -1436736.6, -1450821.9, -0.000060439757, 0.00000000063722544, -0.000056981495, -1436736.6, -15315.503, 0.0, 10.0, 9.981333 
1.5e+1, 1.6493228e+2, -1348685.8, -1371952.4, -0.000052482934, 0.00000000063422734, 0.00004734128, -1348685.8, -25021.996, 0.0, 10.0, 9.969248 
1.5e+1, 1.7490156e+2, -1250727.6, -1274310.1, -0.0000552527, 0.0000000006305489, -0.00007383237, -1250727.6, -24762.975, 0.0, 10.0, 9.968835 
1.5e+1, 1.8486421e+2, -1162646.8, -1195720.1, -0.000045056204, 0.00000000062683064, 0.00006614318, -1162646.8, -34316.027, 0.0, 10.0, 9.956395 
1.5e+1, 1.9482064e+2, -1064497.0, -1097833.0, -0.000055929708, 0.0000000006230702, -0.000057657933, -1064497.0, -33739.363, 0.0, 10.0, 9.956052 
1.5e+1, 2.0477042e+2, -976333.0, -1019435.0, -0.000045732773, 0.0000000006201084, 0.000068076755, -976333.0, -43083.11, 0.0, 10.0, 9.943291 
1.5e+1, 2.1471375e+2, -878046.0, -921409.9, -0.000047629896, 0.00000000061801114, -0.00012682882, -878046.0, -42240.69, 0.0, 10.0, 9.942949 
1.5e+1, 2.2465037e+2, -789759.9, -843144.9, -0.000035613575, 0.00000000061396527, 0.00012087836, -789759.9, -51333.586, 0.0, 10.0, 9.929908 
1.5e+1, 2.3458035e+2, -691326.4, -744966.44, -0.000044938777, 0.0000000006077129, -0.0000888192, -691326.4, -50213.82, 0.0, 10.0, 9.929577 
1.5e+1, 2.4450338e+2, -603002.3, -667018.8, -0.000032722273, 0.0000000006067504, 0.000074708085, -603002.3, -59135.418, 0.0, 10.0, 9.916136 
1.5e+1, 2.5441962e+2, -504249.63, -568343.3, -0.000034833705, 0.0000000006121086, -0.00010673753, -504249.63, -57562.08, 0.0, 10.0, 9.916036 
1.5e+1, 2.643288e+2, -416014.22, -490987.88, -0.000017079201, 0.0000000006104497, 0.00014059343, -416014.22, -66436.55, 0.0, 10.0, 9.901964 
1.5e+1, 2.742313e+2, -316729.0, -391374.78, -0.000023922295, 0.00000000059984495, -0.00020344478, -316729.0, -64195.996, 0.0, 10.0, 9.902385 
1.5e+1, 2.841256e+2, -230255.75, -318081.25, -0.000009466082, 0.0000000005953428, 0.00022904525, -230255.75, -74686.77, 0.0, 10.0, 9.885439 
1.5e+1, 2.940121e+2, -130549.6, -217765.02, -0.000013161615, 0.0000000005992333, -0.00025334352, -130549.6, -71868.21, 0.0, 10.0, 9.886217 
1.5e+1, 3.0392656e+2, -40805.59, -84750.16, 0.000008921087, 0.00000000060285277, 0.00017313573, -40805.59, -40805.59, 0.0, 10.0, 9.942173 
1.5e+1, 3.138706e+2, -39727.58, -82511.21, 0.000009575148, 0.0000000006059912, -0.000055142948, -39727.58, -39727.58, 0.0, 10.0, 9.943685 
2.5e+1, 1.2499334e+2, -1719946.3, -1724224.6, 0.00004769471, 0.0000000011096104, 0.000017597851, -1719946.3, -4880.965, 0.0, 10.0, 9.994328 
2.5e+1, 1.349876e+2, -1622565.8, -1627434.9, 0.000029381456, 0.0000000010848338, -0.000068403584, -1622565.8, -5444.1772, 0.0, 10.0, 9.993545 
2.5e+1, 1.4497513e+2, -1534464.4, -1548146.3, 0.000026721003, 0.000000001070023, 0.00007091613, -1534464.4, -15220.685, 0.0, 10.0, 9.981865 
2.5e+1, 1.5495701e+2, -1436736.6, -1450821.9, 0.0000035882908, 0.0000000010651453, -0.000056981484, -1436736.6, -15315.503, 0.0, 10.0, 9.981333 
2.5e+1, 1.6493228e+2, -1348685.8, -1371952.4, 0.0000072807798, 0.0000000010588967, 0.000047341287, -1348685.8, -25021.996, 0.0, 10.0, 9.969248 
2.5e+1, 1.7490156e+2, -1250727.6, -1274310.1, -0.000009357217, 0.0000000010512484, -0.00007383237, -1250727.6, -24762.975, 0.0, 10.0, 9.968835 
2.5e+1, 1.8486421e+2, -1162646.8, -1195720.1, -0.0000019170775, 0.0000000010446239, 0.00006614318, -1162646.8, -34316.027, 0.0, 10.0, 9.956395 
2.5e+1, 1.9482064e+2, -1064497.0, -1097833.0, -0.00002579236, 0.0000000010390698, -0.000057657922, -1064497.0, -33739.363, 0.0, 10.0, 9.956052 
2.5e+1, 2.0477042e+2, -976333.0, -1019435.0, -0.000017377037, 0.0000000010340052, 0.00006807676, -976333.0, -43083.11, 0.0, 10.0, 9.943291 
2.5e+1, 2.1471375e+2, -878046.0, -921409.9, -0.000032712513, 0.00000000102947, -0.00012682882, -878046.0, -42240.69, 0.0, 10.0, 9.942949 
2.5e+1, 2.2465037e+2, -789759.9, -843144.9, -0.000021191594, 0.000000001023849, 0.00012087836, -789759.9, -51333.586, 0.0, 10.0, 9.929908 
2.5e+1, 2.3458035e+2, -691326.4, -744966.44, -0.00004168728, 0.0000000010169982, -0.00008881919, -691326.4, -50213.82, 0.0, 10.0, 9.929577 
2.5e+1, 2.4450338e+2, -603002.3, -667018.8, -0.000028779597, 0.0000000010141167, 0.000074708085, -603002.3, -59135.418, 0.0, 10.0, 9.916136 
2.5e+1, 2.5441962e+2, -504249.63, -568343.3, -0.000044117784, 0.000000001015977, -0.00010673753, -504249.63, -57562.08, 0.0, 10.0, 9.916036 
2.5e+1, 2.643288e+2, -416014.22, -490987.88, -0.00002438128, 0.0000000010130716, 0.00014059345, -416014.22, -66436.55, 0.0, 10.0, 9.901964 
2.5e+1, 2.742313e+2, -316729.0, -391374.78, -0.000040860294, 0.0000000010040893, -0.00020344478, -316729.0, -64195.996, 0.0, 10.0, 9.902385 
2.5e+1, 2.841256e+2, -230255.75, -318081.25, -0.000022750553, 0.0000000009996316, 0.00022904525, -230255.75, -74686.77, 0.0, 10.0, 9.885439 
2.5e+1, 2.940121e+2, -130549.6, -217765.02, -0.00003723266, 0.0000000010013936, -0.00025334352, -130549.6, -71868.21, 0.0, 10.0, 9.886217 
2.5e+1, 3.0392656e+2, -40805.59, -84750.16, -0.000010241387, 0.0000000010045029, 0.00017313575, -40805.59, -40805.59, 0.0, 10.0, 9.942173 
2.5e+1, 3.138706e+2, -39727.58, -82511.21, -0.000018715766, 0.0000000010095538, -0.00005514296, -39727.58, -39727.58, 0.0, 10.0, 9.943685 
3.5e+1, 1.2499334e+2, -1719946.3, -1724224.6, -0.000051708004, 0.0000000015425708, 0.000017597848, -1719946.3, -4880.965, 0.0, 10.0, 9.994328 
3.5e+1, 1.349876e+2, -1622565.8, -1627434.9, -0.00007004522, 0.0000000015200224, -0.00006840358, -1622565.8, -5444.1772, 0.0, 10.0, 9.993545 
3.5e+1, 1.4497513e+2, -1534464.4, -1548146.3, -0.00006142717, 0.000000001504583, 0.000070916154, -1534464.4, -15220.685, 0.0, 10.0, 9.981865 
3.5e+1, 1.5495701e+2, -1436736.6, -1450822.0, -0.00008454288, 0.000000001496168, -0.000056981477, -1436736.6, -15315.503, 0.0, 10.0, 9.981333 
3.5e+1, 1.6493228e+2, -1348685.8, -1371952.4, -0.000072283714, 0.0000000014854173, 0.000047341287, -1348685.8, -25021.996, 0.0, 10.0, 9.969248 
3.5e+1, 1.7490156e+2, -1250727.6, -1274310.1, -0.00008887719, 0.0000000014722816, -0.000073832365, -1250727.6, -24762.975, 0.0, 10.0, 9.968835 
3.5e+1, 1.8486421e+2, -1162646.8, -1195720.1, -0.00007173913, 0.0000000014623234, 0.00006614319, -1162646.8, -34316.027, 0.0, 10.0, 9.956395 
3.5e+1, 1.9482064e+2, -1064497.0, -1097833.0, -0.000095502844, 0.000000001455689, -0.000057657922, -1064497.0, -33739.363, 0.0, 10.0, 9.956052 
3.5e+1, 2.0477042e+2, -976333.0, -1019435.0, -0.00007562511, 0.0000000014483933, 0.00006807677, -976333.0, -43083.11, 0.0, 10.0, 9.943291 
3.5e+1, 2.1471375e+2, -878046.0, -921409.9, -0.00009072463, 0.0000000014403801, -0.0001268288, -878046.0, -42240.69, 0.0, 10.0, 9.942949 
3.5e+1, 2.2465037e+2, -789759.9, -843144.9, -0.00006700202, 0.0000000014343062, 0.000120878365, -789759.9, -51333.586, 0.0, 10.0, 9.929908 
3.5e+1, 2.3458035e+2, -691326.4, -744966.44, -0.000087099346, 0.0000000014304268, -0.00008881919, -691326.4, -50213.82, 0.0, 10.0, 9.929577 
3.5e+1, 2.4450338e+2, -603002.3, -667018.8, -0.000060443792, 0.0000000014243488, 0.000074708085, -603002.3, -59135.418, 0.0, 10.0, 9.916136 
3.5e+1, 2.5441962e+2, -504249.63, -568343.3, -0.000075122225, 0.0000000014156413, -0.00010673751, -504249.63, -57562.08, 0.0, 10.0, 9.916036 
3.5e+1, 2.643288e+2, -416014.22, -490987.88, -0.000042054475, 0.0000000014113493, 0.00014059345, -416014.22, -66436.55, 0.0, 10.0, 9.901964 
3.5e+1, 2.742313e+2, -316729.0, -391374.78, -0.000057640653, 0.0000000014126813, -0.00020344478, -316729.0, -64195.996, 0.0, 10.0, 9.902385 
3.5e+1, 2.841256e+2, -230255.75, -318081.25, -0.000024171737, 0.0000000014113142, 0.00022904524, -230255.75, -74686.77, 0.0, 10.0, 9.885439 
3.5e+1, 2.940121e+2, -130549.6, -217765.02, -0.000037270987, 0.0000000014062256, -0.00025334352, -130549.6, -71868.21, 0.0, 10.0, 9.886217 
3.5e+1, 3.0392656e+2, -40805.59, -84750.16, 0.000004746837, 0.0000000014059015, 0.00017313575, -40805.59, -40805.59, 0.0, 10.0, 9.942173 
3.5e+1, 3.138706e+2, -39727.58, -82511.21, -0.0000019646398, 0.0000000014126849, -0.000055142962, -39727.58, -39727.58, 0.0, 10.0, 9.943685 
4.5e+1, 1.2499334e+2, -1719946.3, -1724224.6, 0.000069026835, 0.0000000019768402, 0.000017597848, -1719946.3, -4880.9644, 0.0, 10.0, 9.994328 
4.5e+1, 1.349876e+2, -1622565.8, -1627434.9, 0.000018548335, 0.0000000019534474, -0.00006840357, -1622565.8, -5444.177, 0.0, 10.0, 9.993545 
4.5e+1, 1.4497513e+2, -1534464.4, -1548146.3, 0.000018661907, 0.0000000019368094, 0.00007091618, -1534464.4, -15220.685, 0.0, 10.0, 9.981865 
4.5e+1, 1.5495701e+2, -1436736.6, -1450821.9, -0.0000122760885, 0.0000000019268058, -0.000056981477, -1436736.6, -15315.502, 0.0, 10.0, 9.981333 
4.5e+1, 1.6493228e+2, -1348685.8, -1371952.4, -0.000005924768, 0.0000000019133297, 0.000047341287, -1348685.8, -25021.996, 0.0, 10.0, 9.969248 
4.5e+1, 1.7490156e+2, -1250727.6, -1274310.1, -0.000047049954, 0.0000000018963073, -0.00007383234, -1250727.6, -24762.975, 0.0, 10.0, 9.968835 
4.5e+1, 1.8486421e+2, -1162646.8, -1195720.1, -0.00003358212, 0.000000001883182, 0.00006614321, -1162646.8, -34316.027, 0.0, 10.0, 9.956395 
4.5e+1, 1.9482064e+2, -1064497.0, -1097833.0, -0.00005940536, 0.0000000018741335, -0.000057657922, -1064497.0, -33739.363, 0.0, 10.0, 9.956052 
4.5e+1, 2.0477042e+2, -976333.0, -1019435.0, -0.000040233244, 0.0000000018642403, 0.00006807676, -976333.0, -43083.11, 0.0, 10.0, 9.943291 
4.5e+1, 2.1471375e+2, -878046.0, -921409.9, -0.00007843302, 0.0000000018534313, -0.00012682879, -878046.0, -42240.69, 0.0, 10.0, 9.942949 
4.5e+1, 2.2465037e+2, -789759.9, -843144.9, -0.000057016277, 0.0000000018462074, 0.00012087838, -789759.9, -51333.586, 0.0, 10.0, 9.929908 
4.5e+1, 2.3458035e+2, -691326.4, -744966.44, -0.00008132063, 0.0000000018430409, -0.00008881919, -691326.4, -50213.82, 0.0, 10.0, 9.929577 
4.5e+1, 2.4450338e+2, -603002.3, -667018.8, -0.00005121209, 0.0000000018347334, 0.000074708085, -603002.3, -59135.418, 0.0, 10.0, 9.916136 
4.5e+1, 2.5441962e+2, -504249.63, -568343.3, -0.00008395575, 0.0000000018202794, -0.00010673751, -504249.63, -57562.08, 0.0, 10.0, 9.916036 
4.5e+1, 2.643288e+2, -416014.22, -490987.88, -0.0000525862, 0.0000000018149298, 0.00014059346, -416014.22, -66436.55, 0.0, 10.0, 9.901964 
4.5e+1, 2.742313e+2, -316729.0, -391374.78, -0.00007497509, 0.0000000018211799, -0.00020344478, -316729.0, -64195.996, 0.0, 10.0, 9.902385 
4.5e+1, 2.841256e+2, -230255.73, -318081.25, -0.000034491666, 0.0000000018212514, 0.00022904524, -230255.73, -74686.77, 0.0, 10.0, 9.885439 
4.5e+1, 2.940121e+2, -130549.6, -217765.02, -0.000058574326, 0.0000000018128117, -0.00025334352, -130549.6, -71868.21, 0.0, 10.0, 9.886217 
4.5e+1, 3.0392656e+2, -40805.59, -84750.16, -0.000016336062, 0.0000000018090895, 0.00017313575, -40805.59, -40805.59, 0.0, 10.0, 9.942173 
4.5e+1, 3.138706e+2, -39727.58, -82511.21, -0.000041926698, 0.0000000018124514, -0.00005514295, -39727.58, -39727.58, 0.0, 10.0, 9.943685 
5.5e+1, 1.2499334e+2, -1719946.3, -1724224.6, -0.000033922573, 0.0000000024124187, 0.00001759785, -1719946.3, -4880.9644, 0.0, 10.0, 9.994328 
5.5e+1, 1.349876e+2, -1622565.8, -1627434.9, -0.000084426094, 0.000000002385109, -0.000068403555, -1622565.8, -5444.1772, 0.0, 10.0, 9.993545 
5.5e+1, 1.4497513e+2, -1534464.4, -1548146.3, -0.00007333006, 0.0000000023667022, 0.00007091621, -1534464.4, -15220.685, 0.0, 10.0, 9.981865 
5.5e+1, 1.5495701e+2, -1436736.6, -1450821.9, -0.000104251405, 0.000000002357059, -0.00005698148, -1436736.6, -15315.502, 0.0, 10.0, 9.981333 
5.5e+1, 1.6493228e+2, -1348685.8, -1371952.4, -0.00008677578, 0.0000000023426339, 0.000047341284, -1348685.8, -25021.996, 0.0, 10.0, 9.969248 
5.5e+1, 1.7490156e+2, -1250727.6, -1274310.1, -0.00012784301, 0.0000000023233255, -0.00007383231, -1250727.6, -24762.975, 0.0, 10.0, 9.968835 
5.5e+1, 1.8486421e+2, -1162646.8, -1195720.1, -0.000104679304, 0.0000000023072, 0.00006614324, -1162646.8, -34316.027, 0.0, 10.0, 9.956395 
5.5e+1, 1.9482064e+2, -1064497.0, -1097833.0, -0.000130391, 0.0000000022944031, -0.000057657926, -1064497.0, -33739.363, 0.0, 10.0, 9.956052 
5.5e+1, 2.0477042e+2, -976333.0, -1019435.0, -0.00009996067, 0.0000000022815465, 0.000068076755, -976333.0, -43083.11, 0.0, 10.0, 9.943291 
5.5e+1, 2.1471375e+2, -878046.0, -921409.9, -0.00013792871, 0.0000000022686235, -0.00012682877, -878046.0, -42240.69, 0.0, 10.0, 9.942949 
5.5e+1, 2.2465037e+2, -789759.9, -843144.9, -0.00010452527, 0.0000000022595528, 0.00012087841, -789759.9, -51333.586, 0.0, 10.0, 9.929908 
5.5e+1, 2.3458035e+2, -691326.4, -744966.44, -0.0001284383, 0.0000000022548405, -0.00008881919, -691326.4, -50213.82, 0.0, 10.0, 9.929577 
5.5e+1, 2.4450338e+2, -603002.3, -667018.8, -0.00008334467, 0.0000000022452704, 0.00007470808, -603002.3, -59135.418, 0.0, 10.0, 9.916136 
5.5e+1, 2.5441962e+2, -504249.63, -568343.3, -0.00011536911, 0.0000000022298912, -0.000106737505, -504249.63, -57562.08, 0.0, 10.0, 9.916036 
5.5e+1, 2.643288e+2, -416014.22, -490987.88, -0.00007307421, 0.0000000022238134, 0.00014059346, -416014.22, -66436.55, 0.0, 10.0, 9.901964 
5.5e+1, 2.742313e+2, -316729.0, -391374.78, -0.0000947316, 0.000000002229585, -0.00020344477, -316729.0, -64195.996, 0.0, 10.0, 9.902385 
5.5e+1, 2.841256e+2, -230255.73, -318081.25, -0.00003623831, 0.000000002229443, 0.00022904525, -230255.73, -74686.77, 0.0, 10.0, 9.885439 
5.5e+1, 2.940121e+2, -130549.6, -217765.02, -0.000058699286, 0.0000000022211517, -0.00025334352, -130549.6, -71868.21, 0.0, 10.0, 9.886217 
5.5e+1, 3.0392656e+2, -40805.59, -84750.16, -0.00000003674587, 0.0000000022140672, 0.00017313573, -40805.59, -40805.59, 0.0, 10.0, 9.942173 
5.5e+1, 3.138706e+2, -39727.58, -82511.21, -0.000023700433, 0.0000000022088538, -0.000055142922, -39727.58, -39727.58, 0.0, 10.0, 9.943685 
6.5e+1, 1.2499334e+2, -1719946.3, -1724224.6, 0.000056322835, 0.0000000028632632, 0.000017597895, -1719946.3, -4880.964, 0.0, 10.0, 9.994328 
6.5e+1, 1.349876e+2, -1622565.8, -1627434.9, 0.00000389194, 0.0000000028226868, -0.000068403555, -1622565.8, -5444.1763, 0.0, 10.0, 9.993545 
6.5e+1, 1.4497513e+2, -1534464.4, -1548146.3, 0.000013519634, 0.0000000027973959, 0.00007091623, -1534464.4, -15220.684, 0.0, 10.0, 9.981865 
6.5e+1, 1.5495701e+2, -1436736.6, -1450821.9, -0.000037316004, 0.0000000027872615, -0.000056981462, -1436736.6, -15315.502, 0.0, 10.0, 9.981333 
6.5e+1, 1.6493228e+2, -1348685.8, -1371952.4, -0.00002433392, 0.0000000027723261, 0.000047341306, -1348685.8, -25021.994, 0.0, 10.0, 9.969248 
6.5e+1, 1.7490156e+2, -1250727.6, -1274310.1, -0.00007666776, 0.0000000027524878, -0.00007383229, -1250727.6, -24762.975, 0.0, 10.0, 9.968835 
6.5e+1, 1.8486421e+2, -1162646.8, -1195720.1, -0.000056444416, 0.0000000027341196, 0.00006614326, -1162646.8, -34316.027, 0.0, 10.0, 9.956395 
6.5e+1, 1.9482064e+2, -1064497.0, -1097833.0, -0.00009971342, 0.0000000027172877, -0.000057657908, -1064497.0, -33739.36, 0.0, 10.0, 9.956052 
6.5e+1, 2.0477042e+2, -976333.0, -1019435.0, -0.00007108422, 0.000000002701804, 0.00006807677, -976333.0, -43083.105, 0.0, 10.0, 9.943291 
6.5e+1, 2.1471375e+2, -878046.0, -921409.9, -0.00011725157, 0.0000000026877784, -0.00012682876, -878046.0, -42240.69, 0.0, 10.0, 9.942949 
6.5e+1, 2.2465037e+2, -789759.9, -843144.9, -0.00008423638, 0.000000002675773, 0.000120878416, -789759.9, -51333.586, 0.0, 10.0, 9.929908 
6.5e+1, 2.3458035e+2, -691326.4, -744966.44, -0.00012559186, 0.0000000026660516, -0.00008881918, -691326.4, -50213.82, 0.0, 10.0, 9.929577 
6.5e+1, 2.4450338e+2, -603002.3, -667018.8, -0.00007991987, 0.0000000026563767, 0.00007470809, -603002.3, -59135.418, 0.0, 10.0, 9.916136 
6.5e+1, 2.5441962e+2, -504249.63, -568343.3, -0.00011804855, 0.000000002646753, -0.000106737505, -504249.63, -57562.08, 0.0, 10.0, 9.916036 
6.5e+1, 2.643288e+2, -416014.22, -490987.88, -0.00007296234, 0.0000000026398486, 0.00014059346, -416014.22, -66436.55, 0.0, 10.0, 9.901964 
6.5e+1, 2.742313e+2, -316729.0, -391374.78, -0.00011113712, 0.000000002636402, -0.00020344477, -316729.0, -64195.996, 0.0, 10.0, 9.902385 
6.5e+1, 2.841256e+2, -230255.73, -318081.25, -0.000051755116, 0.0000000026325968, 0.00022904525, -230255.73, -74686.766, 0.0, 10.0, 9.885439 
6.5e+1, 2.940121e+2, -130549.6, -217765.02, -0.00008462812, 0.0000000026282827, -0.00025334352, -130549.6, -71868.21, 0.0, 10.0, 9.886217 
6.5e+1, 3.0392656e+2, -40805.59, -84750.16, -0.000019221712, 0.0000000026223075, 0.00017313575, -40805.59, -40805.59, 0.0, 10.0, 9.942173 
6.5e+1, 3.138706e+2, -39727.58, -82511.21, -0.000051146984, 0.0000000026138751, -0.00005514292, -39727.58, -39727.58, 0.0, 10.0, 9.943685 
7.5e+1, 1.2499334e+2, -1719946.3, -1724224.6, -0.000046842033, 0.0000000033293737, 0.000017597988, -1719946.3, -4880.964, 0.0, 10.0, 9.994328 
7.5e+1, 1.349876e+2, -1622565.8, -1627434.9, -0.00009929805, 0.0000000032661804, -0.00006840356, -1622565.8, -5444.1763, 0.0, 10.0, 9.993545 
7.5e+1, 1.4497513e+2, -1534464.4, -1548146.3, -0.000082658866, 0.0000000032288905, 0.000070916234, -1534464.4, -15220.684, 0.0, 10.0, 9.981865 
7.5e+1, 1.5495701e+2, -1436736.6, -1450821.9, -0.00013348414, 0.0000000032174141, -0.00005698142, -1436736.6, -15315.502, 0.0, 10.0, 9.981333 
7.5e+1, 1.6493228e+2, -1348685.8, -1371952.4, -0.00010997551, 0.0000000032024068, 0.000047341346, -1348685.8, -25021.994, 0.0, 10.0, 9.969248 
7.5e+1, 1.7490156e+2, -1250727.6, -1274310.1, -0.00016225448, 0.000000003183794, -0.0000738323, -1250727.6, -24762.975, 0.0, 10.0, 9.968835 
7.5e+1, 1.8486421e+2, -1162646.8, -1195720.1, -0.00012936721, 0.0000000031639407, 0.00006614325, -1162646.8, -34316.027, 0.0, 10.0, 9.956395 
7.5e+1, 1.9482064e+2, -1064497.0, -1097833.0, -0.00017249036, 0.0000000031427874, -0.00005765787, -1064497.0, -33739.36, 0.0, 10.0, 9.956052 
7.5e+1, 2.0477042e+2, -976333.0, -1019435.0, -0.00013270244, 0.0000000031250127, 0.000068076806, -976333.0, -43083.105, 0.0, 10.0, 9.943291 
7.5e+1, 2.1471375e+2, -878046.0, -921409.9, -0.00017864005, 0.000000003110896, -0.00012682877, -878046.0, -42240.69, 0.0, 10.0, 9.942949 
7.5e+1, 2.2465037e+2, -789759.9, -843144.9, -0.00013309326, 0.0000000030948681, 0.0001208784, -789759.9, -51333.586, 0.0, 10.0, 9.929908 
7.5e+1, 2.3458035e+2, -691326.4, -744966.44, -0.00017403965, 0.0000000030766738, -0.00008881916, -691326.4, -50213.82, 0.0, 10.0, 9.929577 
7.5e+1, 2.4450338e+2, -603002.3, -667018.8, -0.000116842275, 0.0000000030680523, 0.00007470812, -603002.3, -59135.418, 0.0, 10.0, 9.916136 
7.5e+1, 2.5441962e+2, -504249.63, -568343.3, -0.000154418, 0.0000000030708651, -0.000106737505, -504249.63, -57562.08, 0.0, 10.0, 9.916036 
7.5e+1, 2.643288e+2, -416014.22, -490987.88, -0.000091925016, 0.0000000030630352, 0.00014059345, -416014.22, -66436.55, 0.0, 10.0, 9.901964 
7.5e+1, 2.742313e+2, -316729.0, -391374.78, -0.00012893378, 0.000000003041631, -0.00020344475, -316729.0, -64195.996, 0.0, 10.0, 9.902385 
7.5e+1, 2.841256e+2, -230255.73, -318081.25, -0.00005551621, 0.0000000030307123, 0.00022904527, -230255.73, -74686.766, 0.0, 10.0, 9.885439 
7.5e+1, 2.940121e+2, -130549.6, -217765.02, -0.00008712566, 0.0000000030342042, -0.00025334352, -130549.6, -71868.21, 0.0, 10.0, 9.886217 
7.5e+1, 3.0392656e+2, -40805.59, -84750.16, -0.000002882206, 0.00000000303381, 0.00017313575, -40805.59, -40805.59, 0.0, 10.0, 9.942173 
7.5e+1, 3.138706e+2, -39727.58, -82511.21, -0.00003259731, 0.000000003027516, -0.00005514294, -39727.58, -39727.58, 0.0, 10.0, 9.943685 
8.5e+1, 1.2499334e+2, -1719946.3, -1724224.6, 0.000037728747, 0.000000003794828, 0.000017598053, -1719946.3, -4880.963, 0.0, 10.0, 9.994328 
8.5e+1, 1.349876e+2, -1622565.8, -1627434.9, -0.000012574358, 0.0000000037190186, -0.00006840356, -1622565.8, -5444.176, 0.0, 10.0, 9.993545 
8.5e+1, 1.4497513e+2, -1534464.4, -1548146.3, 0.000001614296, 0.0000000036729884, 0.000070916256, -1534464.4, -15220.683, 0.0, 10.0, 9.981865 
8.5e+1, 1.5495701e+2, -1436736.6, -1450821.9, -0.000071728384, 0.0000000036566423, -0.000056981375, -1436736.6, -15315.501, 0.0, 10.0, 9.981333 
8.5e+1, 1.6493228e+2, -1348685.8, -1371952.4, -0.000049683542, 0.0000000036374912, 0.00004734138, -1348685.8, -25021.994, 0.0, 10.0, 9.969248 
8.5e+1, 1.7490156e+2, -1250727.6, -1274310.1, -0.000100794765, 0.0000000036154755, -0.0000738323, -1250727.6, -24762.975, 0.0, 10.0, 9.968835 
8.5e+1, 1.8486421e+2, -1162646.8, -1195720.1, -0.00006982511, 0.0000000035934216, 0.00006614325, -1162646.8, -34316.027, 0.0, 10.0, 9.956395 
8.5e+1, 1.9482064e+2, -1064497.0, -1097833.0, -0.00014313395, 0.000000003571325, -0.000057657835, -1064497.0, -33739.36, 0.0, 10.0, 9.956052 
8.5e+1, 2.0477042e+2, -976333.0, -1019435.0, -0.00010741933, 0.000000003551968, 0.00006807684, -976333.0, -43083.105, 0.0, 10.0, 9.943291 
8.5e+1, 2.1471375e+2, -878046.0, -921409.9, -0.00015354298, 0.0000000035355763, -0.00012682876, -878046.0, -42240.69, 0.0, 10.0, 9.942949 
8.5e+1, 2.2465037e+2, -789759.9, -843144.9, -0.00010516148, 0.0000000035172811, 0.0001208784, -789759.9, -51333.586, 0.0, 10.0, 9.929908 
8.5e+1, 2.3458035e+2, -691326.4, -744966.44, -0.00016716767, 0.0000000034968282, -0.000088819135, -691326.4, -50213.82, 0.0, 10.0, 9.929577 
8.5e+1, 2.4450338e+2, -603002.3, -667018.8, -0.00011375339, 0.0000000034867884, 0.00007470814, -603002.3, -59135.418, 0.0, 10.0, 9.916136 
8.5e+1, 2.5441962e+2, -504249.63, -568343.3, -0.0001588516, 0.0000000034891865, -0.0001067375, -504249.63, -57562.074, 0.0, 10.0, 9.916036 
8.5e+1, 2.643288e+2, -416014.22, -490987.88, -0.000089187626, 0.000000003479592, 0.00014059345, -416014.22, -66436.55, 0.0, 10.0, 9.901964 
8.5e+1, 2.742313e+2, -316729.0, -391374.78, -0.00014011227, 0.000000003454702, -0.00020344475, -316729.0, -64195.996, 0.0, 10.0, 9.902385 
8.5e+1, 2.841256e+2, -230255.73, -318081.25, -0.000067941415, 0.000000003441721, 0.00022904528, -230255.73, -74686.766, 0.0, 10.0, 9.885439 
8.5e+1, 2.940121e+2, -130549.6, -217765.02, -0.00011043563, 0.0000000034451053, -0.0002533435, -130549.6, -71868.21, 0.0, 10.0, 9.886217 
8.5e+1, 3.0392656e+2, -40805.59, -84750.16, -0.000014744131, 0.0000000034478915, 0.00017313575, -40805.59, -40805.59, 0.0, 10.0, 9.942173 
8.5e+1, 3.138706e+2, -39727.58, -82511.21, -0.000039795097, 0.0000000034496397, -0.000055142966, -39727.58, -39727.58, 0.0, 10.0, 9.943685 
9.5e+1, 1.2499334e+2, -1719946.3, -1724224.6, -0.00006584827, 0.000000004259626, 0.000017598093, -1719946.3, -4880.963, 0.0, 10.0, 9.994328 
9.5e+1, 1.349876e+2, -1622565.8, -1627434.9, -0.000116176496, 0.0000000041812016, -0.00006840354, -1622565.8, -5444.176, 0.0, 10.0, 9.993545 
9.5e+1, 1.4497513e+2, -1534464.4, -1548146.3, -0.000094475305, 0.00000000412969, 0.000070916314, -1534464.4, -15220.684, 0.0, 10.0, 9.981865 
9.5e+1, 1.5495701e+2, -1436736.6, -1450822.0, -0.0001678068, 0.0000000041049466, -0.00005698133, -1436736.6, -15315.501, 0.0, 10.0, 9.981333 
9.5e+1, 1.6493228e+2, -1348685.8, -1371952.4, -0.0001382416, 0.0000000040775796, 0.000047341404, -1348685.8, -25021.994, 0.0, 10.0, 9.969248 
9.5e+1, 1.7490156e+2, -1250727.6, -1274310.1, -0.00018931384, 0.0000000040475325, -0.0000738323, -1250727.6, -24762.975, 0.0, 10.0, 9.968835 
9.5e+1, 1.8486421e+2, -1162646.8, -1195720.1, -0.00014708041, 0.0000000040225623, 0.00006614326, -1162646.8, -34316.027, 0.0, 10.0, 9.956395 
9.5e+1, 1.9482064e+2, -1064497.0, -1097833.0, -0.00022025958, 0.0000000040029007, -0.00005765781, -1064497.0, -33739.36, 0.0, 10.0, 9.956052 
9.5e+1, 2.0477042e+2, -976333.0, -1019435.0, -0.00017234714, 0.0000000039826697, 0.00006807688, -976333.0, -43083.105, 0.0, 10.0, 9.943291 
9.5e+1, 2.1471375e+2, -878046.0, -921409.9, -0.00021821965, 0.0000000039618193, -0.00012682875, -878046.0, -42240.69, 0.0, 10.0, 9.942949 
9.5e+1, 2.2465037e+2, -789759.9, -843144.9, -0.00015655384, 0.000000003943012, 0.00012087841, -789759.9, -51333.586, 0.0, 10.0, 9.929908 
9.5e+1, 2.3458035e+2, -691326.4, -744966.44, -0.0002181263, 0.0000000039265147, -0.00008881913, -691326.4, -50213.82, 0.0, 10.0, 9.929577 
9.5e+1, 2.4450338e+2, -603002.3, -667018.8, -0.00015328905, 0.0000000039125854, 0.00007470815, -603002.3, -59135.418, 0.0, 10.0, 9.916136 
9.5e+1, 2.5441962e+2, -504249.63, -568343.3, -0.00019783928, 0.000000003901717, -0.000106737476, -504249.63, -57562.074, 0.0, 10.0, 9.916036 
9.5e+1, 2.643288e+2, -416014.22, -490987.88, -0.00010905616, 0.000000003889519, 0.00014059347, -416014.22, -66436.55, 0.0, 10.0, 9.901964 
9.5e+1, 2.742313e+2, -316729.0, -391374.78, -0.0001587, 0.0000000038756154, -0.00020344475, -316729.0, -64195.996, 0.0, 10.0, 9.902385 
9.5e+1, 2.841256e+2, -230255.73, -318081.25, -0.00007539113, 0.0000000038656225, 0.00022904528, -230255.73, -74686.766, 0.0, 10.0, 9.885439 
9.5e+1, 2.940121e+2, -130549.6, -217765.02, -0.00011688293, 0.0000000038609858, -0.0002533435, -130549.6, -71868.21, 0.0, 10.0, 9.886217 
9.5e+1, 3.0392656e+2, -40805.59, -84750.16, -0.0000054745856, 0.0000000038645522, 0.00017313575, -40805.59, -40805.59, 0.0, 10.0, 9.942173 
9.5e+1, 3.138706e+2, -39727.58, -82511.21, -0.00002868174, 0.0000000038802463, -0.000055143, -39727.58, -39727.58, 0.0, 10.0, 9.943685 
1.05e+2, 1.2499334e+2, -1719946.3, -1724224.6, 0.0000804162, 0.0000000047115263, 0.000017598084, -1719946.3, -4880.962, 0.0, 10.0, 9.994328 
1.05e+2, 1.349876e+2, -1622565.8, -1627434.9, -0.0000181443, 0.000000004636876, -0.00006840351, -1622565.8, -5444.175, 0.0, 10.0, 9.993545 
1.05e+2, 1.4497513e+2, -1534464.4, -1548146.3, -0.000010529843, 0.0000000045857926, 0.000070916394, -1534464.4, -15220.683, 0.0, 10.0, 9.981865 
1.05e+2, 1.5495701e+2, -1436736.6, -1450821.9, -0.000085820684, 0.0000000045580864, -0.000056981316, -1436736.6, -15315.5, 0.0, 10.0, 9.981333 
1.05e+2, 1.6493228e+2, -1348685.8, -1371952.4, -0.000060638653, 0.0000000045250084, 0.000047341407, -1348685.8, -25021.994, 0.0, 10.0, 9.969248 
1.05e+2, 1.7490156e+2, -1250727.6, -1274310.1, -0.00013958616, 0.0000000044864445, -0.00007383225, -1250727.6, -24762.973, 0.0, 10.0, 9.968835 
1.05e+2, 1.8486421e+2, -1162646.8, -1195720.1, -0.000101539925, 0.000000004457372, 0.0000661433, -1162646.8, -34316.027, 0.0, 10.0, 9.956395 
1.05e+2, 1.9482064e+2, -1064497.0, -1097833.0, -0.00017277231, 0.0000000044382276, -0.000057657802, -1064497.0, -33739.36, 0.0, 10.0, 9.956052 
1.05e+2, 2.0477042e+2, -976333.0, -1019435.0, -0.0001250378, 0.0000000044162487, 0.00006807687, -976333.0, -43083.105, 0.0, 10.0, 9.943291 
1.05e+2, 2.1471375e+2, -878046.0, -921409.9, -0.00019942167, 0.0000000043911967, -0.00012682872, -878046.0, -42240.69, 0.0, 10.0, 9.942949 
1.05e+2, 2.2465037e+2, -789759.9, -843144.9, -0.00014033436, 0.0000000043720836, 0.00012087844, -789759.9, -51333.586, 0.0, 10.0, 9.929908 
1.05e+2, 2.3458035e+2, -691326.4, -744966.44, -0.00020263123, 0.0000000043596917, -0.00008881913, -691326.4, -50213.82, 0.0, 10.0, 9.929577 
1.05e+2, 2.4450338e+2, -603002.3, -667018.8, -0.00013439529, 0.000000004341704, 0.00007470815, -603002.3, -59135.418, 0.0, 10.0, 9.916136 
1.05e+2, 2.5441962e+2, -504249.63, -568343.3, -0.00020259008, 0.000000004317021, -0.000106737454, -504249.63, -57562.074, 0.0, 10.0, 9.916036 
1.05e+2, 2.643288e+2, -416014.22, -490987.88, -0.00011602168, 0.0000000043032657, 0.00014059349, -416014.22, -66436.55, 0.0, 10.0, 9.901964 
1.05e+2, 2.742313e+2, -316729.0, -391374.78, -0.00016781196, 0.0000000043034283, -0.00020344474, -316729.0, -64195.996, 0.0, 10.0, 9.902385 
1.05e+2, 2.841256e+2, -230255.73, -318081.25, -0.00007522581, 0.000000004298256, 0.00022904527, -230255.73, -74686.766, 0.0, 10.0, 9.885439 
1.05e+2, 2.940121e+2, -130549.6, -217765.02, -0.00012763507, 0.000000004285714, -0.0002533435, -130549.6, -71868.21, 0.0, 10.0, 9.886217 
1.05e+2, 3.0392656e+2, -40805.59, -84750.16, -0.00001731267, 0.0000000042842268, 0.00017313575, -40805.59, -40805.59, 0.0, 10.0, 9.942173 
1.05e+2, 3.138706e+2, -39727.58, -82511.21, -0.0000616993, 0.000000004299219, -0.000055142988, -39727.58, -39727.58, 0.0, 10.0, 9.943685 
1.15e+2, 1.2499334e+2, -1719946.3, -1724224.6, -0.00003449788, 0.0000000051505284, 0.000017598026, -1719946.3, -4880.962, 0.0, 10.0, 9.994328 
1.15e+2, 1.349876e+2, -1622565.8, -1627434.9, -0.00013308652, 0.0000000050860427, -0.00006840347, -1622565.8, -5444.175, 0.0, 10.0, 9.993545 
1.15e+2, 1.4497513e+2, -1534464.4, -1548146.3, -0.00011163213, 0.000000005041296, 0.000070916496, -1534464.4, -15220.683, 0.0, 10.0, 9.981865 
1.15e+2, 1.5495701e+2, -1436736.6, -1450822.0, -0.0001869017, 0.000000005016061, -0.00005698133, -1436736.6, -15315.5, 0.0, 10.0, 9.981333 
1.15e+2, 1.6493228e+2, -1348685.8, -1371952.4, -0.00014921474, 0.0000000049797775, 0.000047341386, -1348685.8, -25021.994, 0.0, 10.0, 9.969248 
1.15e+2, 1.7490156e+2, -1250727.6, -1274310.1, -0.00022809701, 0.000000004932211, -0.00007383217, -1250727.6, -24762.973, 0.0, 10.0, 9.968835 
1.15e+2, 1.8486421e+2, -1162646.8, -1195720.1, -0.00018352851, 0.0000000048978506, 0.00006614339, -1162646.8, -34316.027, 0.0, 10.0, 9.956395 
1.15e+2, 1.9482064e+2, -1064497.0, -1097833.0, -0.0002546861, 0.000000004877305, -0.000057657824, -1064497.0, -33739.36, 0.0, 10.0, 9.956052 
1.15e+2, 2.0477042e+2, -976333.0, -1019435.0, -0.00019444832, 0.000000004852704, 0.00006807684, -976333.0, -43083.105, 0.0, 10.0, 9.943291 
1.15e+2, 2.1471375e+2, -878046.0, -921409.9, -0.00026857475, 0.0000000048237077, -0.00012682867, -878046.0, -42240.69, 0.0, 10.0, 9.942949 
1.15e+2, 2.2465037e+2, -789759.9, -843144.9, -0.00019665614, 0.0000000048044964, 0.0001208785, -789759.9, -51333.586, 0.0, 10.0, 9.929908 
1.15e+2, 2.3458035e+2, -691326.4, -744966.44, -0.00025853413, 0.0000000047963593, -0.00008881912, -691326.4, -50213.82, 0.0, 10.0, 9.929577 
1.15e+2, 2.4450338e+2, -603002.3, -667018.8, -0.00017184915, 0.000000004774144, 0.000074708136, -603002.3, -59135.418, 0.0, 10.0, 9.916136 
1.15e+2, 2.5441962e+2, -504249.63, -568343.3, -0.00023915834, 0.0000000047350976, -0.00010673743, -504249.63, -57562.074, 0.0, 10.0, 9.916036 
1.15e+2, 2.643288e+2, -416014.22, -490987.88, -0.00014630317, 0.0000000047208326, 0.00014059353, -416014.22, -66436.55, 0.0, 10.0, 9.901964 
1.15e+2, 2.742313e+2, -316729.0, -391374.78, -0.00019767304, 0.000000004738141, -0.00020344474, -316729.0, -64195.996, 0.0, 10.0, 9.902385 
1.15e+2, 2.841256e+2, -230255.73, -318081.25, -0.00008390337, 0.000000004739621, 0.00022904527, -230255.73, -74686.766, 0.0, 10.0, 9.885439 
1.15e+2, 2.940121e+2, -130549.6, -217765.02, -0.00013440511, 0.00000000471929, -0.00025334352, -130549.6, -71868.21, 0.0, 10.0, 9.886217 
1.15e+2, 3.0392656e+2, -40805.59, -84750.16, -0.000008873782, 0.000000004706915, 0.00017313575, -40805.59, -40805.59, 0.0, 10.0, 9.942173 
1.15e+2, 3.138706e+2, -39727.58, -82511.21, -0.000051476294, 0.0000000047065583, -0.000055142933, -39727.58, -39727.58, 0.0, 10.0, 9.943684 
1.25e+2, 1.2499334e+2, -1719946.3, -1724224.6, 0.00009798734, 0.0000000056105502, 0.00001759806, -1719946.3, -4880.961, 0.0, 10.0, 9.994328 
1.25e+2, 1.349876e+2, -1622565.8, -1627434.9, -0.00002307768, 0.000000005536463, -0.00006840345, -1622565.8, -5444.1733, 0.0, 10.0, 9.993545 
1.25e+2, 1.4497513e+2, -1534464.4, -1548146.3, -0.000007945924, 0.000000005488772, 0.000070916554, -1534464.4, -15220.681, 0.0, 10.0, 9.981865 
1.25e+2, 1.5495701e+2, -1436736.6, -1450821.9, -0.00009617635, 0.000000005467282, -0.000056981316, -1436736.6, -15315.499, 0.0, 10.0, 9.981333 
1.25e+2, 1.6493228e+2, -1348685.8, -1371952.4, -0.000066081535, 0.0000000054334945, 0.0000473414, -1348685.8, -25021.992, 0.0, 10.0, 9.969248 
1.25e+2, 1.7490156e+2, -1250727.6, -1274310.1, -0.00017581272, 0.000000005387149, -0.00007383211, -1250727.6, -24762.97, 0.0, 10.0, 9.968835 
1.25e+2, 1.8486421e+2, -1162646.8, -1195720.1, -0.00013631444, 0.0000000053497704, 0.000066143446, -1162646.8, -34316.023, 0.0, 10.0, 9.956395 
1.25e+2, 1.9482064e+2, -1064497.0, -1097833.0, -0.00020603123, 0.0000000053217715, -0.00005765781, -1064497.0, -33739.36, 0.0, 10.0, 9.956052 
1.25e+2, 2.0477042e+2, -976333.0, -1019435.0, -0.00014406806, 0.0000000052932, 0.00006807684, -976333.0, -43083.105, 0.0, 10.0, 9.943291 
1.25e+2, 2.1471375e+2, -878046.0, -921409.9, -0.00024094015, 0.000000005264005, -0.00012682864, -878046.0, -42240.69, 0.0, 10.0, 9.942949 
1.25e+2, 2.2465037e+2, -789759.9, -843144.9, -0.00017299344, 0.000000005241902, 0.00012087854, -789759.9, -51333.586, 0.0, 10.0, 9.929908 
1.25e+2, 2.3458035e+2, -691326.4, -744966.44, -0.00024532908, 0.0000000052278244, -0.000088819106, -691326.4, -50213.816, 0.0, 10.0, 9.929577 
1.25e+2, 2.4450338e+2, -603002.3, -667018.8, -0.00015321356, 0.00000000520555, 0.00007470815, -603002.3, -59135.414, 0.0, 10.0, 9.916136 
1.25e+2, 2.5441962e+2, -504249.63, -568343.3, -0.00023007244, 0.0000000051734723, -0.000106737425, -504249.63, -57562.074, 0.0, 10.0, 9.916036 
1.25e+2, 2.643288e+2, -416014.22, -490987.88, -0.00013994105, 0.0000000051594324, 0.00014059353, -416014.22, -66436.55, 0.0, 10.0, 9.901964 
1.25e+2, 2.742313e+2, -316729.0, -391374.78, -0.0002070711, 0.000000005168366, -0.00020344472, -316729.0, -64195.992, 0.0, 10.0, 9.902385 
1.25e+2, 2.841256e+2, -230255.73, -318081.25, -0.00008835308, 0.0000000051665365, 0.00022904527, -230255.73, -74686.766, 0.0, 10.0, 9.885439 
1.25e+2, 2.940121e+2, -130549.6, -217765.02, -0.00015099156, 0.0000000051498663, -0.00025334352, -130549.6, -71868.2, 0.0, 10.0, 9.886217 
1.25e+2, 3.0392656e+2, -40805.586, -84750.16, -0.00002717342, 0.0000000051345435, 0.00017313575, -40805.586, -40805.586, 0.0, 10.0, 9.942173 
1.25e+2, 3.138706e+2, -39727.58, -82511.21, -0.00009585477, 0.0000000051213664, -0.000055142904, -39727.58, -39727.58, 0.0, 10.0, 9.943684 
1.35e+2, 1.2499334e+2, -1719946.3, -1724224.6, -0.000022561411, 0.0000000060915912, 0.000017598188, -1719946.3, -4880.961, 0.0, 10.0, 9.994328 
1.35e+2, 1.349876e+2, -1622565.8, -1627434.9, -0.00014365619, 0.000000005988136, -0.00006840347, -1622565.8, -5444.174, 0.0, 10.0, 9.993545 
1.35e+2, 1.4497513e+2, -1534464.4, -1548146.3, -0.00012050837, 0.0000000059282215, 0.00007091657, -1534464.4, -15220.682, 0.0, 10.0, 9.981865 
1.35e+2, 1.5495701e+2, -1436736.6, -1450821.9, -0.00020872681, 0.0000000059117498, -0.000056981266, -1436736.6, -15315.499, 0.0, 10.0, 9.981333 
1.35e+2, 1.6493228e+2, -1348685.8, -1371952.4, -0.00016350285, 0.000000005886159, 0.00004734145, -1348685.8, -25021.992, 0.0, 10.0, 9.969248 
1.35e+2, 1.7490156e+2, -1250727.6, -1274310.1, -0.0002731548, 0.000000005851257, -0.00007383209, -1250727.6, -24762.973, 0.0, 10.0, 9.968835 
1.35e+2, 1.8486421e+2, -1162646.8, -1195720.1, -0.0002206187, 0.000000005813131, 0.00006614347, -1162646.8, -34316.027, 0.0, 10.0, 9.956395 
1.35e+2, 1.9482064e+2, -1064497.0, -1097833.0, -0.0002901853, 0.000000005771628, -0.00005765776, -1064497.0, -33739.36, 0.0, 10.0, 9.956052 
1.35e+2, 2.0477042e+2, -976333.0, -1019435.0, -0.00021725075, 0.000000005737737, 0.00006807689, -976333.0, -43083.105, 0.0, 10.0, 9.943291 
1.35e+2, 2.1471375e+2, -878046.0, -921409.9, -0.00031389704, 0.0000000057120872, -0.00012682864, -878046.0, -42240.69, 0.0, 10.0, 9.942949 
1.35e+2, 2.2465037e+2, -789759.9, -843144.9, -0.0002325405, 0.0000000056843, 0.00012087854, -789759.9, -51333.586, 0.0, 10.0, 9.929908 
1.35e+2, 2.3458035e+2, -691326.4, -744966.44, -0.00030443835, 0.000000005654087, -0.00008881906, -691326.4, -50213.816, 0.0, 10.0, 9.929577 
1.35e+2, 2.4450338e+2, -603002.3, -667018.8, -0.00019901444, 0.0000000056359215, 0.00007470819, -603002.3, -59135.414, 0.0, 10.0, 9.916136 
1.35e+2, 2.5441962e+2, -504249.63, -568343.3, -0.00027523478, 0.000000005632145, -0.00010673743, -504249.63, -57562.074, 0.0, 10.0, 9.916036 
1.35e+2, 2.643288e+2, -416014.22, -490987.88, -0.00017107508, 0.0000000056190643, 0.00014059352, -416014.22, -66436.55, 0.0, 10.0, 9.901964 
1.35e+2, 2.742313e+2, -316729.0, -391374.78, -0.00023726576, 0.000000005594104, -0.00020344471, -316729.0, -64195.992, 0.0, 10.0, 9.902385 
1.35e+2, 2.841256e+2, -230255.73, -318081.25, -0.00009911334, 0.000000005579002, 0.00022904531, -230255.73, -74686.766, 0.0, 10.0, 9.885439 
1.35e+2, 2.940121e+2, -130549.6, -217765.02, -0.00016000196, 0.000000005577443, -0.0002533435, -130549.6, -71868.2, 0.0, 10.0, 9.886217 
1.35e+2, 3.0392656e+2, -40805.586, -84750.16, -0.000015820156, 0.000000005567112, 0.00017313576, -40805.586, -40805.586, 0.0, 10.0, 9.942173 
1.35e+2, 3.138706e+2, -39727.58, -82511.21, -0.000082112325, 0.000000005543643, -0.000055142897, -39727.58, -39727.58, 0.0, 10.0, 9.943684 
1.45e+2, 1.2499334e+2, -1719946.3, -1724224.6, 0.000038395974, 0.0000000065899415, 0.000017598346, -1719946.3, -4880.9595, 0.0, 10.0, 9.994328 
1.45e+2, 1.349876e+2, -1622565.8, -1627434.9, -0.000046439192, 0.0000000064655956, -0.00006840347, -1622565.8, -5444.1724, 0.0, 10.0, 9.993545 
1.45e+2, 1.4497513e+2, -1534464.4, -1548146.3, -0.000016509235, 0.0000000063923062, 0.0000709166, -1534464.4, -15220.68, 0.0, 10.0, 9.981865 
1.45e+2, 1.5495701e+2, -1436736.6, -1450821.9, -0.00014061628, 0.000000006370014, -0.000056981185, -1436736.6, -15315.498, 0.0, 10.0, 9.981333 
1.45e+2, 1.6493228e+2, -1348685.8, -1371952.4, -0.000095187665, 0.000000006343466, 0.00004734152, -1348685.8, -25021.99, 0.0, 10.0, 9.969248 
1.45e+2, 1.7490156e+2, -1250727.6, -1274310.1, -0.00018885604, 0.0000000063125736, -0.000073832096, -1250727.6, -24762.97, 0.0, 10.0, 9.968835 
1.45e+2, 1.8486421e+2, -1162646.8, -1195720.1, -0.00013599316, 0.000000006274026, 0.00006614346, -1162646.8, -34316.023, 0.0, 10.0, 9.956395 
1.45e+2, 1.9482064e+2, -1064497.0, -1097833.0, -0.00025479484, 0.0000000062274643, -0.00005765769, -1064497.0, -33739.355, 0.0, 10.0, 9.956052 
1.45e+2, 2.0477042e+2, -976333.0, -1019435.0, -0.00018919044, 0.000000006190786, 0.000068076966, -976333.0, -43083.1, 0.0, 10.0, 9.943291 
1.45e+2, 2.1471375e+2, -878046.0, -921409.9, -0.0002720322, 0.000000006164809, -0.00012682863, -878046.0, -42240.688, 0.0, 10.0, 9.942949 
1.45e+2, 2.2465037e+2, -789759.9, -843144.9, -0.00018389405, 0.000000006133441, 0.00012087853, -789759.9, -51333.582, 0.0, 10.0, 9.929908 
1.45e+2, 2.3458035e+2, -691326.4, -744966.44, -0.00028613413, 0.0000000060959624, -0.00008881903, -691326.4, -50213.816, 0.0, 10.0, 9.929577 
1.45e+2, 2.4450338e+2, -603002.3, -667018.8, -0.00018761451, 0.0000000060787033, 0.00007470823, -603002.3, -59135.414, 0.0, 10.0, 9.916136 
1.45e+2, 2.5441962e+2, -504249.63, -568343.3, -0.00026450882, 0.000000006085599, -0.000106737425, -504249.63, -57562.074, 0.0, 10.0, 9.916036 
1.45e+2, 2.643288e+2, -416014.22, -490987.88, -0.00014964191, 0.0000000060704317, 0.00014059352, -416014.22, -66436.55, 0.0, 10.0, 9.901964 
1.45e+2, 2.742313e+2, -316729.0, -391374.78, -0.00023884891, 0.000000006027124, -0.0002034447, -316729.0, -64195.992, 0.0, 10.0, 9.902385 
1.45e+2, 2.841256e+2, -230255.73, -318081.25, -0.00010809488, 0.0000000060042007, 0.00022904533, -230255.73, -74686.766, 0.0, 10.0, 9.885439 
1.45e+2, 2.940121e+2, -130549.6, -217765.02, -0.00018136819, 0.000000006009299, -0.00025334346, -130549.6, -71868.2, 0.0, 10.0, 9.886217 
1.45e+2, 3.0392656e+2, -40805.586, -84750.16, -0.000020356036, 0.000000006006558, 0.00017313578, -40805.586, -40805.586, 0.0, 10.0, 9.942173 
1.45e+2, 3.138706e+2, -39727.574, -82511.21, -0.00006982934, 0.000000005991929, -0.00005514294, -39727.574, -39727.574, 0.0, 10.0, 9.943684 
1.55e+2, 1.2499334e+2, -1719946.3, -1724224.6, -0.00007918286, 0.0000000071056006, 0.000017598533, -1719946.3, -4880.9595, 0.0, 10.0, 9.994328 
1.55e+2, 1.349876e+2, -1622565.8, -1627434.9, -0.00016404678, 0.0000000069688406, -0.00006840347, -1622565.8, -5444.1724, 0.0, 10.0, 9.993545 
1.55e+2, 1.4497513e+2, -1534464.4, -1548146.3, -0.00013023271, 0.0000000068810273, 0.00007091664, -1534464.4, -15220.68, 0.0, 10.0, 9.981865 
1.55e+2, 1.5495701e+2, -1436736.6, -1450821.9, -0.00025433424, 0.000000006842074, -0.00005698107, -1436736.6, -15315.498, 0.0, 10.0, 9.981333 
1.55e+2, 1.6493228e+2, -1348685.8, -1371952.4, -0.0002038716, 0.0000000068054153, 0.00004734161, -1348685.8, -25021.99, 0.0, 10.0, 9.969248 
1.55e+2, 1.7490156e+2, -1250727.6, -1274310.1, -0.00029751408, 0.000000006771099, -0.00007383213, -1250727.6, -24762.97, 0.0, 10.0, 9.968835 
1.55e+2, 1.8486421e+2, -1162646.8, -1195720.1, -0.00022598573, 0.000000006732456, 0.00006614342, -1162646.8, -34316.023, 0.0, 10.0, 9.956395 
1.55e+2, 1.9482064e+2, -1064497.0, -1097833.0, -0.000344572, 0.000000006689281, -0.000057657606, -1064497.0, -33739.36, 0.0, 10.0, 9.956052 
1.55e+2, 2.0477042e+2, -976333.0, -1019435.0, -0.0002667107, 0.0000000066523476, 0.00006807707, -976333.0, -43083.105, 0.0, 10.0, 9.943291 
1.55e+2, 2.1471375e+2, -878046.0, -921409.9, -0.00034930016, 0.0000000066221704, -0.00012682861, -878046.0, -42240.688, 0.0, 10.0, 9.942949 
1.55e+2, 2.2465037e+2, -789759.9, -843144.9, -0.00024718183, 0.000000006589324, 0.00012087851, -789759.9, -51333.582, 0.0, 10.0, 9.929908 
1.55e+2, 2.3458035e+2, -691326.4, -744966.44, -0.00034896552, 0.00000000655345, -0.000088819004, -691326.4, -50213.816, 0.0, 10.0, 9.929577 
1.55e+2, 2.4450338e+2, -603002.3, -667018.8, -0.000243292, 0.000000006533896, 0.00007470827, -603002.3, -59135.414, 0.0, 10.0, 9.916136 
1.55e+2, 2.5441962e+2, -504249.63, -568343.3, -0.00031984362, 0.000000006533835, -0.0001067374, -504249.63, -57562.074, 0.0, 10.0, 9.916036 
1.55e+2, 2.643288e+2, -416014.22, -490987.88, -0.00017511692, 0.0000000065135355, 0.00014059353, -416014.22, -66436.55, 0.0, 10.0, 9.901964 
1.55e+2, 2.742313e+2, -316729.0, -391374.78, -0.00026232313, 0.0000000064674275, -0.0002034447, -316729.0, -64195.992, 0.0, 10.0, 9.902385 
1.55e+2, 2.841256e+2, -230255.73, -318081.25, -0.00012613376, 0.0000000064421317, 0.00022904534, -230255.73, -74686.766, 0.0, 10.0, 9.885439 
1.55e+2, 2.940121e+2, -130549.6, -217765.02, -0.0001989187, 0.000000006445433, -0.00025334343, -130549.6, -71868.2, 0.0, 10.0, 9.886217 
1.55e+2, 3.0392656e+2, -40805.586, -84750.16, -0.00002063624, 0.000000006452882, 0.00017313579, -40805.586, -40805.586, 0.0, 10.0, 9.942173 
1.55e+2, 3.138706e+2, -39727.574, -82511.21, -0.000068083595, 0.0000000064662244, -0.000055143028, -39727.574, -39727.574, 0.0, 10.0, 9.943684 
1.65e+2, 1.2499334e+2, -1719946.3, -1724224.6, 0.00006686212, 0.00000000760085, 0.000017598582, -1719946.3, -4880.958, 0.0, 10.0, 9.994328 
1.65e+2, 1.349876e+2, -1622565.8, -1627434.9, -0.00006121885, 0.000000007471511, -0.00006840342, -1622565.8, -5444.1704, 0.0, 10.0, 9.993545 
1.65e+2, 1.4497513e+2, -1534464.4, -1548146.3, -0.00003843264, 0.0000000073832984, 0.00007091676, -1534464.4, -15220.678, 0.0, 10.0, 9.981865 
1.65e+2, 1.5495701e+2, -1436736.6, -1450821.9, -0.00016535624, 0.000000007336065, -0.000056981018, -1436736.6, -15315.496, 0.0, 10.0, 9.981333 
1.65e+2, 1.6493228e+2, -1348685.8, -1371952.4, -0.0001145773, 0.0000000072862747, 0.000047341644, -1348685.8, -25021.99, 0.0, 10.0, 9.969248 
1.65e+2, 1.7490156e+2, -1250727.6, -1274310.1, -0.00022174281, 0.0000000072338717, -0.00007383209, -1250727.6, -24762.969, 0.0, 10.0, 9.968835 
1.65e+2, 1.8486421e+2, -1162646.8, -1195720.1, -0.00015159942, 0.000000007190537, 0.00006614346, -1162646.8, -34316.023, 0.0, 10.0, 9.956395 
1.65e+2, 1.9482064e+2, -1064497.0, -1097833.0, -0.00028227715, 0.0000000071566872, -0.000057657577, -1064497.0, -33739.355, 0.0, 10.0, 9.956052 
1.65e+2, 2.0477042e+2, -976333.0, -1019435.0, -0.00020769457, 0.0000000071212622, 0.0000680771, -976333.0, -43083.1, 0.0, 10.0, 9.943291 
1.65e+2, 2.1471375e+2, -878046.0, -921409.9, -0.0003135633, 0.000000007084128, -0.00012682857, -878046.0, -42240.688, 0.0, 10.0, 9.942949 
1.65e+2, 2.2465037e+2, -789759.9, -843144.9, -0.00021137767, 0.000000007051438, 0.000120878554, -789759.9, -51333.582, 0.0, 10.0, 9.929908 
1.65e+2, 2.3458035e+2, -691326.4, -744966.44, -0.00031571087, 0.0000000070237753, -0.00008881899, -691326.4, -50213.816, 0.0, 10.0, 9.929577 
1.65e+2, 2.4450338e+2, -603002.3, -667018.8, -0.00021050018, 0.0000000069978374, 0.00007470828, -603002.3, -59135.414, 0.0, 10.0, 9.916136 
1.65e+2, 2.5441962e+2, -504249.63, -568343.3, -0.00031630817, 0.000000006973949, -0.00010673737, -504249.63, -57562.07, 0.0, 10.0, 9.916036 
1.65e+2, 2.643288e+2, -416014.22, -490987.88, -0.00017066028, 0.0000000069501715, 0.00014059356, -416014.22, -66436.54, 0.0, 10.0, 9.901964 
1.65e+2, 2.742313e+2, -316729.0, -391374.78, -0.00025645853, 0.000000006926523, -0.00020344468, -316729.0, -64195.992, 0.0, 10.0, 9.902385 
1.65e+2, 2.841256e+2, -230255.73, -318081.25, -0.000111346686, 0.0000000069096373, 0.00022904534, -230255.73, -74686.766, 0.0, 10.0, 9.885439 
1.65e+2, 2.940121e+2, -130549.6, -217765.02, -0.00019259483, 0.000000006902001, -0.00025334343, -130549.6, -71868.2, 0.0, 10.0, 9.886217 
1.65e+2, 3.0392656e+2, -40805.586, -84750.16, -0.000008958704, 0.0000000069058004, 0.00017313578, -40805.586, -40805.586, 0.0, 10.0, 9.942173 
1.65e+2, 3.138706e+2, -39727.574, -82511.21, -0.00006644663, 0.000000006926491, -0.000055143046, -39727.574, -39727.574, 0.0, 10.0, 9.943684 
1.75e+2, 1.2499334e+2, -1719946.3, -1724224.6, -0.000067939436, 0.000000008075689, 0.000017598495, -1719946.3, -4880.958, 0.0, 10.0, 9.994328 
1.75e+2, 1.349876e+2, -1622565.8, -1627434.9, -0.00019605349, 0.000000007973608, -0.00006840334, -1622565.8, -5444.171, 0.0, 10.0, 9.993545 
1.75e+2, 1.4497513e+2, -1534464.4, -1548146.3, -0.00015396294, 0.0000000078991205, 0.00007091694, -1534464.4, -15220.679, 0.0, 10.0, 9.981865 
1.75e+2, 1.5495703e+2, -1436736.6, -1450821.9, -0.00028085656, 0.000000007851987, -0.00005698102, -1436736.6, -15315.496, 0.0, 10.0, 9.981333 
1.75e+2, 1.6493228e+2, -1348685.8, -1371952.4, -0.00021913012, 0.000000007786044, 0.000047341615, -1348685.8, -25021.99, 0.0, 10.0, 9.969248 
1.75e+2, 1.7490156e+2, -1250727.6, -1274310.1, -0.00032623857, 0.0000000077008915, -0.000073831965, -1250727.6, -24762.969, 0.0, 10.0, 9.968835 
1.75e+2, 1.8486421e+2, -1162646.8, -1195720.1, -0.0002525666, 0.00000000764827, 0.000066143584, -1162646.8, -34316.023, 0.0, 10.0, 9.956395 
1.75e+2, 1.9482064e+2, -1064497.0, -1097833.0, -0.00038320417, 0.000000007629682, -0.000057657602, -1064497.0, -33739.355, 0.0, 10.0, 9.956052 
1.75e+2, 2.0477042e+2, -976333.0, -1019435.0, -0.00029285857, 0.00000000759753, 0.00006807705, -976333.0, -43083.1, 0.0, 10.0, 9.943291 
1.75e+2, 2.1471375e+2, -878046.0, -921409.9, -0.0003984026, 0.000000007550681, -0.0001268285, -878046.0, -42240.688, 0.0, 10.0, 9.942949 
1.75e+2, 2.2465037e+2, -789759.9, -843144.9, -0.0002827546, 0.000000007519782, 0.00012087864, -789759.9, -51333.582, 0.0, 10.0, 9.929908 
1.75e+2, 2.3458035e+2, -691326.4, -744966.44, -0.00038664835, 0.000000007506938, -0.00008881899, -691326.4, -50213.816, 0.0, 10.0, 9.929577 
1.75e+2, 2.4450338e+2, -603002.3, -667018.8, -0.00025949196, 0.000000007470527, 0.00007470826, -603002.3, -59135.414, 0.0, 10.0, 9.916136 
1.75e+2, 2.5441962e+2, -504249.63, -568343.3, -0.00036424646, 0.0000000074059416, -0.00010673732, -504249.63, -57562.07, 0.0, 10.0, 9.916036 
1.75e+2, 2.643288e+2, -416014.22, -490987.88, -0.00021346705, 0.00000000738034, 0.00014059362, -416014.22, -66436.55, 0.0, 10.0, 9.901964 
1.75e+2, 2.742313e+2, -316729.0, -391374.78, -0.00029892253, 0.00000000740441, -0.00020344467, -316729.0, -64195.992, 0.0, 10.0, 9.902385 
1.75e+2, 2.841256e+2, -230255.73, -318081.25, -0.00013390902, 0.000000007406717, 0.00022904531, -230255.73, -74686.766, 0.0, 10.0, 9.885439 
1.75e+2, 2.940121e+2, -130549.6, -217765.02, -0.00021336542, 0.000000007379003, -0.00025334346, -130549.6, -71868.2, 0.0, 10.0, 9.886217 
1.75e+2, 3.0392656e+2, -40805.586, -84750.16, -0.000014724955, 0.000000007365314, 0.00017313576, -40805.586, -40805.586, 0.0, 10.0, 9.942173 
1.75e+2, 3.138706e+2, -39727.574, -82511.21, -0.000070453076, 0.0000000073727278, -0.000055142995, -39727.574, -39727.574, 0.0, 10.0, 9.943684 
1.85e+2, 1.2499334e+2, -1719946.3, -1724224.6, 0.0001464729, 0.000000008571735, 0.000017598477, -1719946.3, -4880.956, 0.0, 10.0, 9.994328 
1.85e+2, 1.349876e+2, -1622565.8, -1627434.9, -0.00004894857, 0.000000008460086, -0.00006840329, -1622565.8, -5444.169, 0.0, 10.0, 9.993545 
1.85e+2, 1.4497513e+2, -1534464.4, -1548146.3, -0.000023823412, 0.000000008386018, 0.00007091707, -1534464.4, -15220.677, 0.0, 10.0, 9.981865 
1.85e+2, 1.5495703e+2, -1436736.6, -1450821.9, -0.0001500183, 0.000000008349362, -0.000056981018, -1436736.6, -15315.494, 0.0, 10.0, 9.981333 
1.85e+2, 1.6493228e+2, -1348685.8, -1371952.4, -0.000100503894, 0.000000008285515, 0.00004734161, -1348685.8, -25021.988, 0.0, 10.0, 9.969248 
1.85e+2, 1.7490156e+2, -1250727.6, -1274310.1, -0.0002684927, 0.000000008193901, -0.000073831856, -1250727.6, -24762.967, 0.0, 10.0, 9.968835 
1.85e+2, 1.8486421e+2, -1162646.8, -1195720.1, -0.00020482941, 0.000000008135023, 0.0000661437, -1162646.8, -34316.02, 0.0, 10.0, 9.956395 
1.85e+2, 1.9482064e+2, -1064497.0, -1097833.0, -0.0003037294, 0.000000008110396, -0.000057657595, -1064497.0, -33739.355, 0.0, 10.0, 9.956052 
1.85e+2, 2.0477042e+2, -976333.0, -1019435.0, -0.0002028983, 0.000000008074577, 0.00006807703, -976333.0, -43083.1, 0.0, 10.0, 9.943291 
1.85e+2, 2.1471375e+2, -878046.0, -921409.9, -0.00035144764, 0.000000008026629, -0.00012682845, -878046.0, -42240.684, 0.0, 10.0, 9.942949 
1.85e+2, 2.2465037e+2, -789759.9, -843144.9, -0.00024801894, 0.000000007993318, 0.00012087871, -789759.9, -51333.58, 0.0, 10.0, 9.929908 
1.85e+2, 2.3458035e+2, -691326.4, -744966.44, -0.0003590604, 0.000000007976574, -0.00008881895, -691326.4, -50213.813, 0.0, 10.0, 9.929577 
1.85e+2, 2.4450338e+2, -603002.3, -667018.8, -0.00022137699, 0.000000007938462, 0.00007470828, -603002.3, -59135.41, 0.0, 10.0, 9.916136 
1.85e+2, 2.5441962e+2, -504249.63, -568343.3, -0.00033808715, 0.000000007874803, -0.0001067373, -504249.63, -57562.07, 0.0, 10.0, 9.916036 
1.85e+2, 2.643288e+2, -416014.22, -490987.88, -0.00019483583, 0.000000007851193, 0.00014059365, -416014.22, -66436.54, 0.0, 10.0, 9.901964 
1.85e+2, 2.742313e+2, -316729.0, -391374.78, -0.00029148688, 0.0000000078786035, -0.00020344465, -316729.0, -64195.99, 0.0, 10.0, 9.902385 
1.85e+2, 2.841256e+2, -230255.73, -318081.25, -0.000115588846, 0.000000007881686, 0.00022904533, -230255.73, -74686.766, 0.0, 10.0, 9.885439 
1.85e+2, 2.940121e+2, -130549.6, -217765.0, -0.0002095733, 0.0000000078512326, -0.00025334346, -130549.6, -71868.2, 0.0, 10.0, 9.886217 
1.85e+2, 3.0392656e+2, -40805.582, -84750.16, -0.000023740993, 0.00000000782875, 0.00017313576, -40805.582, -40805.582, 0.0, 10.0, 9.942173 
1.85e+2, 3.138706e+2, -39727.574, -82511.21, -0.00013022481, 0.0000000078184215, -0.000055142933, -39727.574, -39727.574, 0.0, 10.0, 9.943684 
1.95e+2, 1.2499334e+2, -1719946.3, -1724224.6, -0.00000082501464, 0.000000009088991, 0.000017598528, -1719946.3, -4880.9565, 0.0, 10.0, 9.994328 
1.95e+2, 1.349876e+2, -1622565.8, -1627434.9, -0.0001962832, 0.000000008930943, -0.00006840329, -1622565.8, -5444.1694, 0.0, 10.0, 9.993545 
1.95e+2, 1.4497513e+2, -1534464.4, -1548146.3, -0.0001586928, 0.000000008843991, 0.000070917136, -1534464.4, -15220.677, 0.0, 10.0, 9.981865 
1.95e+2, 1.5495703e+2, -1436736.6, -1450821.9, -0.0002848685, 0.0000000088281915, -0.000056981007, -1436736.6, -15315.495, 0.0, 10.0, 9.981333 
1.95e+2, 1.6493228e+2, -1348685.8, -1371952.4, -0.00021227717, 0.0000000087846885, 0.000047341633, -1348685.8, -25021.988, 0.0, 10.0, 9.969248 
1.95e+2, 1.7490156e+2, -1250727.6, -1274310.1, -0.00038014486, 0.000000008712898, -0.000073831754, -1250727.6, -24762.967, 0.0, 10.0, 9.968835 
1.95e+2, 1.8486421e+2, -1162646.8, -1195720.1, -0.00030927538, 0.0000000086507965, 0.00006614381, -1162646.8, -34316.02, 0.0, 10.0, 9.956395 
1.95e+2, 1.9482064e+2, -1064497.0, -1097833.0, -0.00040809275, 0.000000008598828, -0.00005765756, -1064497.0, -33739.355, 0.0, 10.0, 9.956052 
1.95e+2, 2.0477042e+2, -976333.0, -1019435.0, -0.00029442244, 0.000000008552402, 0.00006807704, -976333.0, -43083.1, 0.0, 10.0, 9.943291 
1.95e+2, 2.1471375e+2, -878046.0, -921409.9, -0.00044270745, 0.0000000085119725, -0.00012682844, -878046.0, -42240.688, 0.0, 10.0, 9.942949 
1.95e+2, 2.2465037e+2, -789759.9, -843144.9, -0.00032462, 0.000000008472046, 0.00012087875, -789759.9, -51333.582, 0.0, 10.0, 9.929908 
1.95e+2, 2.3458035e+2, -691326.4, -744966.44, -0.0004351829, 0.000000008432684, -0.000088818895, -691326.4, -50213.813, 0.0, 10.0, 9.929577 
1.95e+2, 2.4450338e+2, -603002.3, -667018.8, -0.00027886353, 0.000000008401642, 0.00007470833, -603002.3, -59135.41, 0.0, 10.0, 9.916136 
1.95e+2, 2.5441962e+2, -504249.63, -568343.3, -0.00039467926, 0.000000008380534, -0.0001067373, -504249.63, -57562.07, 0.0, 10.0, 9.916036 
1.95e+2, 2.643288e+2, -416014.22, -490987.88, -0.00024741565, 0.00000000836273, 0.00014059362, -416014.22, -66436.54, 0.0, 10.0, 9.901964 
1.95e+2, 2.742313e+2, -316729.0, -391374.78, -0.00034379907, 0.000000008349104, -0.00020344462, -316729.0, -64195.99, 0.0, 10.0, 9.902385 
1.95e+2, 2.841256e+2, -230255.73, -318081.25, -0.00013896599, 0.0000000083345455, 0.00022904536, -230255.73, -74686.766, 0.0, 10.0, 9.885439 
1.95e+2, 2.940121e+2, -130549.6, -217765.02, -0.0002303448, 0.00000000831869, -0.00025334346, -130549.6, -71868.2, 0.0, 10.0, 9.886217 
1.95e+2, 3.0392656e+2, -40805.586, -84750.16, -0.000022143908, 0.000000008296109, 0.00017313579, -40805.586, -40805.586, 0.0, 10.0, 9.942173 
1.95e+2, 3.138706e+2, -39727.574, -82511.21, -0.00012600349, 0.000000008263571, -0.00005514286, -39727.574, -39727.574, 0.0, 10.0, 9.943684 
2.05e+2, 1.2499334e+2, -1719946.3, -1724224.6, 0.00009053858, 0.0000000096289, 0.000017598712, -1719946.3, -4880.954, 0.0, 10.0, 9.994328 
2.05e+2, 1.349876e+2, -1622565.8, -1627434.9, -0.000056639972, 0.000000009436164, -0.0000684033, -1622565.8, -5444.167, 0.0, 10.0, 9.993545 
2.05e+2, 1.4497513e+2, -1534464.4, -1548146.3, -0.000013508037, 0.000000009331076, 0.00007091719, -1534464.4, -15220.675, 0.0, 10.0, 9.981865 
2.05e+2, 1.5495703e+2, -1436736.6, -1450821.9, -0.00018777502, 0.000000009313811, -0.000056980905, -1436736.6, -15315.492, 0.0, 10.0, 9.981333 
2.05e+2, 1.6493228e+2, -1348685.8, -1371952.4, -0.00011828741, 0.000000009280337, 0.000047341724, -1348685.8, -25021.986, 0.0, 10.0, 9.969248 
2.05e+2, 1.7490156e+2, -1250727.6, -1274310.1, -0.00027100721, 0.000000009230316, -0.00007383174, -1250727.6, -24762.965, 0.0, 10.0, 9.968835 
2.05e+2, 1.8486421e+2, -1162646.8, -1195720.1, -0.00019881713, 0.000000009169185, 0.000066143824, -1162646.8, -34316.02, 0.0, 10.0, 9.956395 
2.05e+2, 1.9482064e+2, -1064497.0, -1097833.0, -0.0003530469, 0.000000009096426, -0.000057657468, -1064497.0, -33739.35, 0.0, 10.0, 9.956052 
2.05e+2, 2.0477042e+2, -976333.0, -1019435.0, -0.0002478075, 0.000000009041497, 0.00006807713, -976333.0, -43083.098, 0.0, 10.0, 9.943291 
2.05e+2, 2.1471375e+2, -878046.0, -921409.9, -0.00037749435, 0.000000009005877, -0.00012682841, -878046.0, -42240.684, 0.0, 10.0, 9.942949 
2.05e+2, 2.2465037e+2, -789759.9, -843144.9, -0.0002513049, 0.000000008961894, 0.00012087876, -789759.9, -51333.58, 0.0, 10.0, 9.929908 
2.05e+2, 2.3458035e+2, -691326.4, -744966.44, -0.00039590686, 0.000000008908433, -0.000088818844, -691326.4, -50213.813, 0.0, 10.0, 9.929577 
2.05e+2, 2.4450338e+2, -603002.3, -667018.8, -0.0002453726, 0.000000008882147, 0.000074708376, -603002.3, -59135.41, 0.0, 10.0, 9.916136 
2.05e+2, 2.5441962e+2, -504249.63, -568343.3, -0.0003559378, 0.000000008888321, -0.000106737294, -504249.63, -57562.066, 0.0, 10.0, 9.916036 
2.05e+2, 2.643288e+2, -416014.22, -490987.88, -0.00019878335, 0.000000008869729, 0.00014059362, -416014.22, -66436.54, 0.0, 10.0, 9.901964 
2.05e+2, 2.742313e+2, -316729.0, -391374.78, -0.00032986, 0.000000008819533, -0.00020344461, -316729.0, -64195.99, 0.0, 10.0, 9.902385 
2.05e+2, 2.841256e+2, -230255.73, -318081.25, -0.0001390058, 0.000000008788962, 0.00022904538, -230255.73, -74686.76, 0.0, 10.0, 9.885439 
2.05e+2, 2.940121e+2, -130549.59, -217765.0, -0.00024983732, 0.000000008785387, -0.0002533434, -130549.59, -71868.2, 0.0, 10.0, 9.886217 
2.05e+2, 3.0392656e+2, -40805.582, -84750.16, -0.000027852477, 0.000000008773432, 0.00017313582, -40805.582, -40805.582, 0.0, 10.0, 9.942173 
2.05e+2, 3.138706e+2, -39727.57, -82511.21, -0.000113525486, 0.000000008748801, -0.00005514289, -39727.57, -39727.57, 0.0, 10.0, 9.943684 
2.15e+2, 1.2499334e+2, -1719946.3, -1724224.6, -0.00004868856, 0.000000010191463, 0.00001759903, -1719946.3, -4880.9546, 0.0, 10.0, 9.994328 
2.15e+2, 1.349876e+2, -1622565.8, -1627434.9, -0.00019590135, 0.000000009975747, -0.00006840333, -1622565.8, -5444.1675, 0.0, 10.0, 9.993545 
2.15e+2, 1.4497513e+2, -1534464.4, -1548146.3, -0.00015604167, 0.000000009847273, 0.00007091721, -1534464.4, -15220.675, 0.0, 10.0, 9.981865 
2.15e+2, 1.5495703e+2, -1436736.6, -1450821.9, -0.00033031445, 0.00000000980622, -0.000056980716, -1436736.6, -15315.493, 0.0, 10.0, 9.981333 
2.15e+2, 1.6493228e+2, -1348685.8, -1371952.4, -0.00025741008, 0.000000009772462, 0.000047341884, -1348685.8, -25021.986, 0.0, 10.0, 9.969248 
2.15e+2, 1.7490156e+2, -1250727.6, -1274310.1, -0.0004101125, 0.000000009746154, -0.00007383181, -1250727.6, -24762.967, 0.0, 10.0, 9.968835 
2.15e+2, 1.8486421e+2, -1162646.8, -1195720.1, -0.00030470654, 0.00000000969019, 0.00006614374, -1162646.8, -34316.02, 0.0, 10.0, 9.956395 
2.15e+2, 1.9482064e+2, -1064497.0, -1097833.0, -0.00045855247, 0.000000009603187, -0.00005765733, -1064497.0, -33739.35, 0.0, 10.0, 9.956052 
2.15e+2, 2.0477042e+2, -976333.0, -1019435.0, -0.0003434278, 0.000000009541861, 0.000068077316, -976333.0, -43083.098, 0.0, 10.0, 9.943291 
2.15e+2, 2.1471375e+2, -878046.0, -921409.9, -0.00047291134, 0.000000009508343, -0.00012682838, -878046.0, -42240.684, 0.0, 10.0, 9.942949 
2.15e+2, 2.2465037e+2, -789759.9, -843144.9, -0.00033319413, 0.000000009462862, 0.00012087872, -789759.9, -51333.58, 0.0, 10.0, 9.929908 
2.15e+2, 2.3458035e+2, -691326.4, -744966.44, -0.00047735457, 0.0000000094038235, -0.00008881882, -691326.4, -50213.813, 0.0, 10.0, 9.929577 
2.15e+2, 2.4450338e+2, -603002.3, -667018.8, -0.0003242922, 0.000000009379975, 0.00007470843, -603002.3, -59135.41, 0.0, 10.0, 9.916136 
2.15e+2, 2.5441962e+2, -504249.63, -568343.3, -0.00043473716, 0.000000009398167, -0.00010673727, -504249.63, -57562.07, 0.0, 10.0, 9.916036 
2.15e+2, 2.643288e+2, -416014.22, -490987.88, -0.0002359168, 0.000000009372189, 0.00014059363, -416014.22, -66436.54, 0.0, 10.0, 9.901964 
2.15e+2, 2.742313e+2, -316729.0, -391374.78, -0.00036420135, 0.000000009289892, -0.0002034446, -316729.0, -64195.99, 0.0, 10.0, 9.902385 
2.15e+2, 2.841256e+2, -230255.73, -318081.25, -0.00017093777, 0.000000009244933, 0.00022904543, -230255.73, -74686.76, 0.0, 10.0, 9.885439 
2.15e+2, 2.940121e+2, -130549.59, -217765.02, -0.00028155386, 0.000000009251323, -0.00025334334, -130549.59, -71868.2, 0.0, 10.0, 9.886217 
2.15e+2, 3.0392656e+2, -40805.582, -84750.16, -0.000042399082, 0.000000009260719, 0.00017313585, -40805.582, -40805.582, 0.0, 10.0, 9.942173 
2.15e+2, 3.138706e+2, -39727.57, -82511.21, -0.00012605828, 0.0000000092741095, -0.000055143017, -39727.57, -39727.57, 0.0, 10.0, 9.943684 
2.25e+2, 1.2499334e+2, -1719946.3, -1724224.6, 0.0000666038, 0.00000001072703, 0.000017599203, -1719946.3, -4880.9517, 0.0, 10.0, 9.994328 
2.25e+2, 1.349876e+2, -1622565.8, -1627434.9, -0.00009031116, 0.0000000105374465, -0.000068403286, -1622565.8, -5444.165, 0.0, 10.0, 9.993545 
2.25e+2, 1.4497513e+2, -1534464.4, -1548146.3, -0.000048660062, 0.000000010412176, 0.00007091733, -1534464.4, -15220.672, 0.0, 10.0, 9.981865 
2.25e+2, 1.5495703e+2, -1436736.6, -1450821.9, -0.00023577713, 0.000000010351266, -0.000056980596, -1436736.6, -15315.49, 0.0, 10.0, 9.981333 
2.25e+2, 1.6493228e+2, -1348685.8, -1371952.4, -0.00015334338, 0.000000010295935, 0.000047341968, -1348685.8, -25021.984, 0.0, 10.0, 9.969248 
2.25e+2, 1.7490156e+2, -1250727.6, -1274310.1, -0.00028642168, 0.000000010246299, -0.0000738318, -1250727.6, -24762.963, 0.0, 10.0, 9.968835 
2.25e+2, 1.8486421e+2, -1162646.8, -1195720.1, -0.00017385013, 0.000000010187732, 0.00006614375, -1162646.8, -34316.016, 0.0, 10.0, 9.956395 
2.25e+2, 1.9482064e+2, -1064497.0, -1097833.0, -0.00037540475, 0.000000010119813, -0.000057657257, -1064497.0, -33739.35, 0.0, 10.0, 9.956052 
2.25e+2, 2.0477042e+2, -976333.0, -1019435.0, -0.00027586124, 0.000000010064078, 0.0000680774, -976333.0, -43083.098, 0.0, 10.0, 9.943291 
2.25e+2, 2.1471375e+2, -878046.0, -921409.9, -0.00041614316, 0.000000010021532, -0.00012682832, -878046.0, -42240.684, 0.0, 10.0, 9.942949 
2.25e+2, 2.2465037e+2, -789759.9, -843144.9, -0.00026656457, 0.000000009975319, 0.00012087876, -789759.9, -51333.58, 0.0, 10.0, 9.929908 
2.25e+2, 2.3458035e+2, -691326.4, -744966.44, -0.0004079767, 0.000000009924942, -0.00008881881, -691326.4, -50213.81, 0.0, 10.0, 9.929577 
2.25e+2, 2.4450338e+2, -603002.3, -667018.8, -0.0002603722, 0.00000000989267, 0.00007470844, -603002.3, -59135.406, 0.0, 10.0, 9.916136 
2.25e+2, 2.5441962e+2, -504249.63, -568343.3, -0.00041416934, 0.000000009882021, -0.00010673723, -504249.63, -57562.066, 0.0, 10.0, 9.916036 
2.25e+2, 2.643288e+2, -416014.22, -490987.88, -0.00021383214, 0.000000009849582, 0.0001405937, -416014.22, -66436.54, 0.0, 10.0, 9.901964 
2.25e+2, 2.742313e+2, -316729.0, -391374.78, -0.00033953114, 0.000000009789346, -0.00020344458, -316729.0, -64195.984, 0.0, 10.0, 9.902385 
2.25e+2, 2.841256e+2, -230255.73, -318081.25, -0.00013907351, 0.000000009754387, 0.00022904544, -230255.73, -74686.76, 0.0, 10.0, 9.885439 
2.25e+2, 2.940121e+2, -130549.59, -217765.0, -0.00025371637, 0.000000009754136, -0.0002533433, -130549.59, -71868.195, 0.0, 10.0, 9.886217 
2.25e+2, 3.0392656e+2, -40805.582, -84750.16, 0.0000017445687, 0.0000000097634105, 0.00017313585, -40805.582, -40805.582, 0.0, 10.0, 9.942173 
2.25e+2, 3.138706e+2, -39727.57, -82511.21, -0.00007130336, 0.0000000097865085, -0.00005514308, -39727.57, -39727.57, 0.0, 10.0, 9.943684 
2.35e+2, 1.2499334e+2, -1719946.3, -1724224.6, -0.000102066675, 0.000000011235603, 0.000017599232, -1719946.3, -4880.952, 0.0, 10.0, 9.994328 
2.35e+2, 1.349876e+2, -1622565.8, -1627434.9, -0.000259023, 0.0000000111212595, -0.00006840317, -1622565.8, -5444.165, 0.0, 10.0, 9.993545 
2.35e+2, 1.4497513e+2, -1534464.4, -1548146.3, -0.00018912322, 0.000000011025786, 0.00007091756, -1534464.4, -15220.673, 0.0, 10.0, 9.981865 
2.35e+2, 1.5495703e+2, -1436736.6, -1450821.9, -0.0003761961, 0.000000010948949, -0.00005698054, -1436736.6, -15315.491, 0.0, 10.0, 9.981333 
2.35e+2, 1.6493228e+2, -1348685.8, -1371952.4, -0.00028557688, 0.000000010850755, 0.00004734198, -1348685.8, -25021.984, 0.0, 10.0, 9.969248 
2.35e+2, 1.7490156e+2, -1250727.6, -1274310.1, -0.00041861262, 0.000000010730749, -0.000073831696, -1250727.6, -24762.963, 0.0, 10.0, 9.968835 
2.35e+2, 1.8486421e+2, -1162646.8, -1195720.1, -0.00029942614, 0.000000010661812, 0.00006614385, -1162646.8, -34316.016, 0.0, 10.0, 9.956395 
2.35e+2, 1.9482064e+2, -1064497.0, -1097833.0, -0.0005009049, 0.000000010646305, -0.000057657253, -1064497.0, -33739.35, 0.0, 10.0, 9.956052 
2.35e+2, 2.0477042e+2, -976333.0, -1019435.0, -0.00038277172, 0.000000010608146, 0.0000680774, -976333.0, -43083.098, 0.0, 10.0, 9.943291 
2.35e+2, 2.1471375e+2, -878046.0, -921409.9, -0.00052267057, 0.000000010545446, -0.00012682824, -878046.0, -42240.684, 0.0, 10.0, 9.942949 
2.35e+2, 2.2465037e+2, -789759.9, -843144.9, -0.000358044, 0.0000000104992655, 0.00012087885, -789759.9, -51333.58, 0.0, 10.0, 9.929908 
2.35e+2, 2.3458035e+2, -691326.4, -744966.44, -0.000498965, 0.000000010471787, -0.00008881881, -691326.4, -50213.81, 0.0, 10.0, 9.929577 
2.35e+2, 2.4450338e+2, -603002.3, -667018.8, -0.00032805916, 0.000000010420231, 0.000074708434, -603002.3, -59135.406, 0.0, 10.0, 9.916136 
2.35e+2, 2.5441962e+2, -504249.63, -568343.3, -0.00048073783, 0.000000010339888, -0.00010673715, -504249.63, -57562.066, 0.0, 10.0, 9.916036 
2.35e+2, 2.643288e+2, -416014.22, -490987.88, -0.0002708964, 0.000000010301907, 0.00014059378, -416014.22, -66436.54, 0.0, 10.0, 9.901964 
2.35e+2, 2.742313e+2, -316729.0, -391374.78, -0.00039595965, 0.000000010317894, -0.00020344455, -316729.0, -64195.99, 0.0, 10.0, 9.902385 
2.35e+2, 2.841256e+2, -230255.73, -318081.25, -0.00018109352, 0.00000001031732, 0.00022904541, -230255.73, -74686.76, 0.0, 10.0, 9.885439 
2.35e+2, 2.940121e+2, -130549.59, -217765.02, -0.0002944399, 0.0000000102938245, -0.00025334337, -130549.59, -71868.2, 0.0, 10.0, 9.886217 
2.35e+2, 3.0392656e+2, -40805.582, -84750.16, -0.000023454524, 0.000000010281505, 0.0001731358, -40805.582, -40805.582, 0.0, 10.0, 9.942173 
2.35e+2, 3.138706e+2, -39727.57, -82511.21, -0.000094681964, 0.000000010285997, -0.00005514308, -39727.57, -39727.57, 0.0, 10.0, 9.943684 
2.45e+2, 1.2499334e+2, -1719946.3, -1724224.6, 0.00014383855, 0.000000011800773, 0.000017599248, -1719946.3, -4880.949, 0.0, 10.0, 9.994328 
2.45e+2, 1.349876e+2, -1622565.8, -1627434.9, -0.0000952639, 0.000000011679849, -0.00006840309, -1622565.8, -5444.162, 0.0, 10.0, 9.993545 
2.45e+2, 1.4497513e+2, -1534464.4, -1548146.3, -0.000031096777, 0.000000011585576, 0.00007091775, -1534464.4, -15220.67, 0.0, 10.0, 9.981865 
2.45e+2, 1.5495703e+2, -1436736.6, -1450821.9, -0.00020262845, 0.000000011517783, -0.00005698054, -1436736.6, -15315.488, 0.0, 10.0, 9.981333 
2.45e+2, 1.6493228e+2, -1348685.8, -1371952.4, -0.00012365724, 0.000000011411736, 0.000047341968, -1348685.8, -25021.98, 0.0, 10.0, 9.969248 
2.45e+2, 1.7490156e+2, -1250727.6, -1274310.1, -0.0003399646, 0.0000000112666205, -0.000073831536, -1250727.6, -24762.96, 0.0, 10.0, 9.968835 
2.45e+2, 1.8486421e+2, -1162646.8, -1195720.1, -0.00023683939, 0.000000011189228, 0.00006614402, -1162646.8, -34316.016, 0.0, 10.0, 9.956395 
2.45e+2, 1.9482064e+2, -1064497.0, -1097833.0, -0.0003831506, 0.000000011182693, -0.000057657242, -1064497.0, -33739.348, 0.0, 10.0, 9.956052 
2.45e+2, 2.0477042e+2, -976333.0, -1019435.0, -0.00024159848, 0.00000001114453, 0.000068077374, -976333.0, -43083.094, 0.0, 10.0, 9.943291 
2.45e+2, 2.1471375e+2, -878046.0, -921409.9, -0.00043389702, 0.000000011072102, -0.00012682819, -878046.0, -42240.68, 0.0, 10.0, 9.942949 
2.45e+2, 2.2465037e+2, -789759.9, -843144.9, -0.00029131933, 0.00000001102269, 0.00012087893, -789759.9, -51333.574, 0.0, 10.0, 9.929908 
2.45e+2, 2.3458035e+2, -691326.4, -744966.44, -0.00045516583, 0.000000010999337, -0.00008881874, -691326.4, -50213.81, 0.0, 10.0, 9.929577 
2.45e+2, 2.4450338e+2, -603002.3, -667018.8, -0.00027538583, 0.00000001094407, 0.00007470848, -603002.3, -59135.406, 0.0, 10.0, 9.916136 
2.45e+2, 2.5441962e+2, -504249.63, -568343.3, -0.00043296564, 0.000000010850641, -0.000106737105, -504249.63, -57562.063, 0.0, 10.0, 9.916036 
2.45e+2, 2.643288e+2, -416014.22, -490987.88, -0.00022720685, 0.000000010814517, 0.00014059381, -416014.22, -66436.54, 0.0, 10.0, 9.901964 
2.45e+2, 2.742313e+2, -316729.0, -391374.78, -0.00035651462, 0.000000010851399, -0.00020344454, -316729.0, -64195.984, 0.0, 10.0, 9.902385 
2.45e+2, 2.841256e+2, -230255.73, -318081.25, -0.00012597193, 0.000000010858954, 0.00022904541, -230255.73, -74686.76, 0.0, 10.0, 9.885439 
2.45e+2, 2.940121e+2, -130549.59, -217765.0, -0.0002549588, 0.000000010826026, -0.0002533434, -130549.59, -71868.195, 0.0, 10.0, 9.886217 
2.45e+2, 3.0392656e+2, -40805.58, -84750.16, -0.0000031967784, 0.000000010799784, 0.00017313579, -40805.58, -40805.58, 0.0, 10.0, 9.942173 
2.45e+2, 3.138706e+2, -39727.566, -82511.21, -0.00014317986, 0.000000010783851, -0.000055143006, -39727.566, -39727.566, 0.0, 10.0, 9.943684 
2.55e+2, 1.2499334e+2, -1719946.3, -1724224.6, -0.000044154684, 0.00000001242254, 0.00001759925, -1719946.3, -4880.9497, 0.0, 10.0, 9.994328 
2.55e+2, 1.349876e+2, -1622565.8, -1627434.9, -0.00028330405, 0.000000012213215, -0.00006840304, -1622565.8, -5444.163, 0.0, 10.0, 9.993545 
2.55e+2, 1.4497513e+2, -1534464.4, -1548146.3, -0.000193253, 0.000000012091547, 0.00007091789, -1534464.4, -15220.671, 0.0, 10.0, 9.981865 
2.55e+2, 1.5495703e+2, -1436736.6, -1450821.9, -0.00036474413, 0.000000012057768, -0.00005698059, -1436736.6, -15315.488, 0.0, 10.0, 9.981333 
2.55e+2, 1.6493228e+2, -1348685.8, -1371952.4, -0.00025196763, 0.000000011978875, 0.000047341942, -1348685.8, -25021.982, 0.0, 10.0, 9.969248 
2.55e+2, 1.7490156e+2, -1250727.6, -1274310.1, -0.0004680972, 0.000000011853914, -0.000073831325, -1250727.6, -24762.96, 0.0, 10.0, 9.968835 
2.55e+2, 1.8486421e+2, -1162646.8, -1195720.1, -0.00037315246, 0.000000011769983, 0.000066144254, -1162646.8, -34316.016, 0.0, 10.0, 9.956395 
2.55e+2, 1.9482064e+2, -1064497.0, -1097833.0, -0.00051955925, 0.000000011728977, -0.000057657227, -1064497.0, -33739.348, 0.0, 10.0, 9.956052 
2.55e+2, 2.0477042e+2, -976333.0, -1019435.0, -0.00035784408, 0.000000011673227, 0.00006807731, -976333.0, -43083.094, 0.0, 10.0, 9.943291 
2.55e+2, 2.1471375e+2, -878046.0, -921409.9, -0.0005497271, 0.000000011601499, -0.00012682819, -878046.0, -42240.68, 0.0, 10.0, 9.942949 
2.55e+2, 2.2465037e+2, -789759.9, -843144.9, -0.0003890709, 0.000000011545593, 0.000120879, -789759.9, -51333.574, 0.0, 10.0, 9.929908 
2.55e+2, 2.3458035e+2, -691326.4, -744966.44, -0.0005523271, 0.000000011507594, -0.00008881862, -691326.4, -50213.81, 0.0, 10.0, 9.929577 
2.55e+2, 2.4450338e+2, -603002.3, -667018.8, -0.00034771726, 0.000000011464184, 0.00007470859, -603002.3, -59135.406, 0.0, 10.0, 9.916136 
2.55e+2, 2.5441962e+2, -504249.63, -568343.3, -0.0005041052, 0.000000011414283, -0.00010673711, -504249.63, -57562.066, 0.0, 10.0, 9.916036 
2.55e+2, 2.643288e+2, -416014.22, -490987.88, -0.00030611694, 0.000000011387414, 0.00014059377, -416014.22, -66436.54, 0.0, 10.0, 9.901964 
2.55e+2, 2.742313e+2, -316729.0, -391374.78, -0.00043594735, 0.000000011389861, -0.00020344452, -316729.0, -64195.984, 0.0, 10.0, 9.902385 
2.55e+2, 2.841256e+2, -230255.73, -318081.25, -0.00016910139, 0.000000011379285, 0.00022904544, -230255.73, -74686.76, 0.0, 10.0, 9.885439 
2.55e+2, 2.940121e+2, -130549.59, -217765.02, -0.00029481904, 0.000000011350741, -0.0002533434, -130549.59, -71868.195, 0.0, 10.0, 9.886217 
2.55e+2, 3.0392656e+2, -40805.58, -84750.16, -0.000016662616, 0.000000011318246, 0.00017313582, -40805.58, -40805.58, 0.0, 10.0, 9.942173 
2.55e+2, 3.138706e+2, -39727.566, -82511.21, -0.00015354925, 0.000000011280073, -0.00005514286, -39727.566, -39727.566, 0.0, 10.0, 9.943684 
2.65e+2, 1.2499334e+2, -1719946.3, -1724224.6, 0.00015434872, 0.000000013053521, 0.00001759936, -1719946.3, -4880.947, 0.0, 10.0, 9.994328 
2.65e+2, 1.349876e+2, -1622565.8, -1627434.9, -0.00007217831, 0.000000012766602, -0.00006840304, -1622565.8, -5444.1597, 0.0, 10.0, 9.993545 
2.65e+2, 1.4497513e+2, -1534464.4, -1548146.3, 0.000006962265, 0.0000000126111255, 0.00007091801, -1534464.4, -15220.667, 0.0, 10.0, 9.981865 
2.65e+2, 1.5495703e+2, -1436736.6, -1450821.9, -0.00021106521, 0.0000000125876225, -0.000056980505, -1436736.6, -15315.485, 0.0, 10.0, 9.981333 
2.65e+2, 1.6493228e+2, -1348685.6, -1371952.4, -0.00011167246, 0.000000012536336, 0.000047342015, -1348685.6, -25021.979, 0.0, 10.0, 9.969248 
2.65e+2, 1.7490156e+2, -1250727.6, -1274310.1, -0.0003427457, 0.000000012456681, -0.00007383123, -1250727.6, -24762.959, 0.0, 10.0, 9.968835 
2.65e+2, 1.8486421e+2, -1162646.8, -1195720.1, -0.00024705823, 0.000000012371759, 0.00006614434, -1162646.8, -34316.01, 0.0, 10.0, 9.956395 
2.65e+2, 1.9482064e+2, -1064497.0, -1097833.0, -0.00042178307, 0.000000012281317, -0.000057657155, -1064497.0, -33739.344, 0.0, 10.0, 9.956052 
2.65e+2, 2.0477042e+2, -976333.0, -1019435.0, -0.00026025958, 0.000000012205278, 0.00006807737, -976333.0, -43083.094, 0.0, 10.0, 9.943291 
2.65e+2, 2.1471375e+2, -878046.0, -921409.9, -0.00044993925, 0.000000012144829, -0.00012682813, -878046.0, -42240.676, 0.0, 10.0, 9.942949 
2.65e+2, 2.2465037e+2, -789759.9, -843144.9, -0.00029005657, 0.000000012089211, 0.000120879056, -789759.9, -51333.57, 0.0, 10.0, 9.929908 
2.65e+2, 2.3458035e+2, -691326.4, -744966.44, -0.000487351, 0.000000012039047, -0.00008881856, -691326.4, -50213.805, 0.0, 10.0, 9.929577 
2.65e+2, 2.4450338e+2, -603002.3, -667018.8, -0.00028105112, 0.000000012004167, 0.00007470863, -603002.3, -59135.402, 0.0, 10.0, 9.916136 
2.65e+2, 2.5441962e+2, -504249.63, -568343.3, -0.00042425925, 0.000000011987531, -0.0001067371, -504249.63, -57562.063, 0.0, 10.0, 9.916036 
2.65e+2, 2.643288e+2, -416014.22, -490987.88, -0.00022010176, 0.000000011961877, 0.00014059377, -416014.22, -66436.53, 0.0, 10.0, 9.901964 
2.65e+2, 2.742313e+2, -316729.0, -391374.78, -0.0003959405, 0.000000011924693, -0.00020344449, -316729.0, -64195.98, 0.0, 10.0, 9.902385 
2.65e+2, 2.841256e+2, -230255.73, -318081.25, -0.0001477759, 0.0000000118934596, 0.00022904549, -230255.73, -74686.76, 0.0, 10.0, 9.885439 
2.65e+2, 2.940121e+2, -130549.59, -217765.0, -0.00030267026, 0.000000011870411, -0.00025334334, -130549.59, -71868.195, 0.0, 10.0, 9.886217 
2.65e+2, 3.0392656e+2, -40805.58, -84750.16, -0.00002378968, 0.000000011845252, 0.00017313586, -40805.58, -40805.58, 0.0, 10.0, 9.942173 
2.65e+2, 3.138706e+2, -39727.566, -82511.21, -0.00015862784, 0.000000011816908, -0.00005514284, -39727.566, -39727.566, 0.0, 10.0, 9.943684 
2.75e+2, 1.2499334e+2, -1719946.3, -1724224.6, -0.0000064946657, 0.0000000136937155, 0.000017599574, -1719946.3, -4880.9473, 0.0, 10.0, 9.994328 
2.75e+2, 1.349876e+2, -1622565.8, -1627434.9, -0.00023306094, 0.000000013340007, -0.00006840308, -1622565.8, -5444.16, 0.0, 10.0, 9.993545 
2.75e+2, 1.4497513e+2, -1534464.4, -1548146.3, -0.00016967107, 0.0000000131443105, 0.0000709181, -1534464.4, -15220.668, 0.0, 10.0, 9.981865 
2.75e+2, 1.5495703e+2, -1436736.6, -1450821.9, -0.00038772405, 0.000000013107346, -0.000056980294, -1436736.6, -15315.486, 0.0, 10.0, 9.981333 
2.75e+2, 1.6493228e+2, -1348685.6, -1371952.4, -0.0002883919, 0.000000013084119, 0.00004734219, -1348685.6, -25021.979, 0.0, 10.0, 9.969248 
2.75e+2, 1.7490156e+2, -1250727.6, -1274310.1, -0.00051946606, 0.000000013074921, -0.00007383127, -1250727.6, -24762.959, 0.0, 10.0, 9.968835 
2.75e+2, 1.8486421e+2, -1162646.8, -1195720.1, -0.0003721295, 0.0000000129945565, 0.00006614429, -1162646.8, -34316.01, 0.0, 10.0, 9.956395 
2.75e+2, 1.9482064e+2, -1064497.0, -1097833.0, -0.00054625707, 0.000000012839714, -0.000057657024, -1064497.0, -33739.348, 0.0, 10.0, 9.956052 
2.75e+2, 2.0477042e+2, -976333.0, -1019435.0, -0.0003784898, 0.000000012740682, 0.000068077556, -976333.0, -43083.094, 0.0, 10.0, 9.943291 
2.75e+2, 2.1471375e+2, -878046.0, -921409.9, -0.0005680415, 0.000000012702093, -0.00012682803, -878046.0, -42240.676, 0.0, 10.0, 9.942949 
2.75e+2, 2.2465037e+2, -789759.9, -843144.9, -0.00039860455, 0.000000012653546, 0.00012087909, -789759.9, -51333.57, 0.0, 10.0, 9.929908 
2.75e+2, 2.3458035e+2, -691326.4, -744966.44, -0.0005955876, 0.000000012593696, -0.00008881856, -691326.4, -50213.805, 0.0, 10.0, 9.929577 
2.75e+2, 2.4450338e+2, -603002.3, -667018.8, -0.00038534682, 0.000000012564018, 0.00007470862, -603002.3, -59135.402, 0.0, 10.0, 9.916136 
2.75e+2, 2.5441962e+2, -504249.63, -568343.3, -0.00052836706, 0.000000012570386, -0.00010673708, -504249.63, -57562.063, 0.0, 10.0, 9.916036 
2.75e+2, 2.643288e+2, -416014.22, -490987.88, -0.00027750336, 0.000000012537907, 0.00014059381, -416014.22, -66436.53, 0.0, 10.0, 9.901964 
2.75e+2, 2.742313e+2, -316729.0, -391374.78, -0.00045021236, 0.000000012455896, -0.00020344445, -316729.0, -64195.98, 0.0, 10.0, 9.902385 
2.75e+2, 2.841256e+2, -230255.73, -318081.25, -0.00019520303, 0.000000012401477, 0.00022904554, -230255.73, -74686.76, 0.0, 10.0, 9.885439 
2.75e+2, 2.940121e+2, -130549.59, -217765.02, -0.00034948264, 0.000000012385038, -0.00025334326, -130549.59, -71868.195, 0.0, 10.0, 9.886217 
2.75e+2, 3.0392656e+2, -40805.58, -84750.16, -0.000057843077, 0.000000012380803, 0.00017313591, -40805.58, -40805.58, 0.0, 10.0, 9.942173 
2.75e+2, 3.138706e+2, -39727.566, -82511.21, -0.00019118567, 0.000000012394356, -0.000055142933, -39727.566, -39727.566, 0.0, 10.0, 9.943684 
2.85e+2, 1.2499334e+2, -1719946.3, -1724224.6, 0.00016858375, 0.000000014248471, 0.00001759977, -1719946.3, -4880.944, 0.0, 10.0, 9.994328 
2.85e+2, 1.349876e+2, -1622565.8, -1627434.9, -0.00007629823, 0.000000013951691, -0.00006840307, -1622565.8, -5444.1567, 0.0, 10.0, 9.993545 
2.85e+2, 1.4497513e+2, -1534464.4, -1548146.3, -0.000027169192, 0.00000001377422, 0.00007091824, -1534464.4, -15220.664, 0.0, 10.0, 9.981865 
2.85e+2, 1.5495703e+2, -1436736.6, -1450821.9, -0.00027243144, 0.000000013716572, -0.000056980105, -1436736.6, -15315.482, 0.0, 10.0, 9.981333 
2.85e+2, 1.6493228e+2, -1348685.6, -1371952.4, -0.00015490774, 0.000000013669523, 0.000047342324, -1348685.6, -25021.977, 0.0, 10.0, 9.969248 
2.85e+2, 1.7490156e+2, -1250727.6, -1274310.1, -0.0003351378, 0.0000000136333, -0.00007383128, -1250727.6, -24762.955, 0.0, 10.0, 9.968835 
2.85e+2, 1.8486421e+2, -1162646.8, -1195720.1, -0.0001685939, 0.000000013550347, 0.00006614426, -1162646.8, -34316.008, 0.0, 10.0, 9.956395 
2.85e+2, 1.9482064e+2, -1064497.0, -1097833.0, -0.00042788213, 0.000000013418486, -0.000057656915, -1064497.0, -33739.344, 0.0, 10.0, 9.956052 
2.85e+2, 2.0477042e+2, -976333.0, -1019435.0, -0.00029987673, 0.000000013331406, 0.00006807771, -976333.0, -43083.09, 0.0, 10.0, 9.943291 
2.85e+2, 2.1471375e+2, -878045.94, -921409.9, -0.0005036024, 0.000000013292823, -0.00012682792, -878045.94, -42240.676, 0.0, 10.0, 9.942949 
2.85e+2, 2.2465037e+2, -789759.9, -843144.9, -0.0003051186, 0.000000013240904, 0.00012087915, -789759.9, -51333.57, 0.0, 10.0, 9.929908 
2.85e+2, 2.3458035e+2, -691326.4, -744966.44, -0.0004580974, 0.000000013173864, -0.000088818575, -691326.4, -50213.805, 0.0, 10.0, 9.929577 
2.85e+2, 2.4450338e+2, -603002.3, -667018.8, -0.00024858108, 0.000000013132059, 0.0000747086, -603002.3, -59135.402, 0.0, 10.0, 9.916136 
2.85e+2, 2.5441962e+2, -504249.63, -568343.3, -0.00047398295, 0.000000013120406, -0.000106737025, -504249.63, -57562.06, 0.0, 10.0, 9.916036 
2.85e+2, 2.643288e+2, -416014.22, -490987.88, -0.0002411672, 0.000000013082831, 0.0001405939, -416014.22, -66436.53, 0.0, 10.0, 9.901964 
2.85e+2, 2.742313e+2, -316729.0, -391374.78, -0.00041454958, 0.000000013012181, -0.00020344439, -316729.0, -64195.98, 0.0, 10.0, 9.902385 
2.85e+2, 2.841256e+2, -230255.72, -318081.25, -0.00014614176, 0.000000012966305, 0.00022904557, -230255.72, -74686.75, 0.0, 10.0, 9.885439 
2.85e+2, 2.940121e+2, -130549.586, -217765.0, -0.00029213668, 0.000000012954477, -0.00025334323, -130549.586, -71868.195, 0.0, 10.0, 9.886217 
2.85e+2, 3.0392656e+2, -40805.574, -84750.16, 0.000024094343, 0.000000012952204, 0.00017313591, -40805.574, -40805.574, 0.0, 10.0, 9.942173 
2.85e+2, 3.138706e+2, -39727.563, -82511.21, -0.0000919594, 0.000000012963817, -0.00005514302, -39727.563, -39727.563, 0.0, 10.0, 9.943684 
2.95e+2, 1.2499334e+2, -1719946.3, -1724224.6, -0.000043752454, 0.000000014717789, 0.000017599947, -1719946.3, -4880.9443, 0.0, 10.0, 9.994328 
2.95e+2, 1.349876e+2, -1622565.8, -1627434.9, -0.00028868654, 0.000000014601655, -0.00006840299, -1622565.8, -5444.1577, 0.0, 10.0, 9.993545 
2.95e+2, 1.4497513e+2, -1534464.4, -1548146.3, -0.0002083416, 0.000000014500855, 0.00007091847, -1534464.4, -15220.665, 0.0, 10.0, 9.981865 
2.95e+2, 1.5495703e+2, -1436736.6, -1450821.9, -0.0004535549, 0.000000014415298, -0.000056979938, -1436736.6, -15315.483, 0.0, 10.0, 9.981333 
2.95e+2, 1.6493228e+2, -1348685.6, -1371952.4, -0.00032366024, 0.000000014292549, 0.00004734242, -1348685.6, -25021.977, 0.0, 10.0, 9.969248 
2.95e+2, 1.7490156e+2, -1250727.6, -1274310.1, -0.00050382566, 0.000000014131819, -0.000073831274, -1250727.6, -24762.957, 0.0, 10.0, 9.968835 
2.95e+2, 1.8486421e+2, -1162646.8, -1195720.1, -0.00032073833, 0.000000014039132, 0.00006614427, -1162646.8, -34316.01, 0.0, 10.0, 9.956395 
2.95e+2, 1.9482064e+2, -1064497.0, -1097833.0, -0.0005798358, 0.0000000140176315, -0.000057656827, -1064497.0, -33739.344, 0.0, 10.0, 9.956052 
2.95e+2, 2.0477042e+2, -976333.0, -1019435.0, -0.0004358518, 0.00000001397745, 0.00006807784, -976333.0, -43083.09, 0.0, 10.0, 9.943291 
2.95e+2, 2.1471375e+2, -878045.94, -921409.9, -0.00063924846, 0.000000013917022, -0.0001268278, -878045.94, -42240.676, 0.0, 10.0, 9.942949 
2.95e+2, 2.2465037e+2, -789759.9, -843144.9, -0.00041867854, 0.000000013851289, 0.000120879224, -789759.9, -51333.57, 0.0, 10.0, 9.929908 
2.95e+2, 2.3458035e+2, -691326.4, -744966.44, -0.00057093607, 0.000000013779552, -0.000088818604, -691326.4, -50213.805, 0.0, 10.0, 9.929577 
2.95e+2, 2.4450338e+2, -603002.3, -667018.8, -0.0003400009, 0.0000000137082905, 0.00007470858, -603002.3, -59135.402, 0.0, 10.0, 9.916136 
2.95e+2, 2.5441962e+2, -504249.63, -568343.3, -0.000564375, 0.000000013637594, -0.00010673692, -504249.63, -57562.06, 0.0, 10.0, 9.916036 
2.95e+2, 2.643288e+2, -416014.22, -490987.88, -0.00031955415, 0.000000013596647, 0.00014059403, -416014.22, -66436.53, 0.0, 10.0, 9.901964 
2.95e+2, 2.742313e+2, -316729.0, -391374.78, -0.0004921334, 0.000000013593547, -0.00020344435, -316729.0, -64195.98, 0.0, 10.0, 9.902385 
2.95e+2, 2.841256e+2, -230255.72, -318081.25, -0.0002077464, 0.000000013587942, 0.00022904557, -230255.72, -74686.75, 0.0, 10.0, 9.885439 
2.95e+2, 2.940121e+2, -130549.586, -217765.02, -0.0003523037, 0.000000013578727, -0.00025334329, -130549.586, -71868.195, 0.0, 10.0, 9.886217 
2.95e+2, 3.0392656e+2, -40805.574, -84750.16, -0.00001832095, 0.000000013559453, 0.00017313584, -40805.574, -40805.574, 0.0, 10.0, 9.942173 
2.95e+2, 3.138706e+2, -39727.563, -82511.21, -0.0001322932, 0.000000013525291, -0.000055143097, -39727.563, -39727.563, 0.0, 10.0, 9.943684 
3.05e+2, 1.2499334e+2, -1719946.3, -1724224.6, 0.00010503654, 0.00000001534264, 0.000017600201, -1719946.3, -4880.9404, 0.0, 10.0, 9.994328 
3.05e+2, 1.349876e+2, -1622565.8, -1627434.9, -0.00013557484, 0.000000015254523, -0.0000684029, -1622565.8, -5444.154, 0.0, 10.0, 9.993545 
3.05e+2, 1.4497513e+2, -1534464.4, -1548146.3, -0.000010611981, 0.000000015162746, 0.000070918635, -1534464.4, -15220.661, 0.0, 10.0, 9.981865 
3.05e+2, 1.5495703e+2, -1436736.6, -1450821.9, -0.00025078334, 0.000000015067114, -0.000056979872, -1436736.6, -15315.4795, 0.0, 10.0, 9.981333 
3.05e+2, 1.6493228e+2, -1348685.6, -1371952.4, -0.00011857718, 0.000000014916994, 0.000047342466, -1348685.6, -25021.973, 0.0, 10.0, 9.969248 
3.05e+2, 1.7490156e+2, -1250727.6, -1274310.1, -0.00036338685, 0.0000000147112305, -0.00007383115, -1250727.6, -24762.953, 0.0, 10.0, 9.968835 
3.05e+2, 1.8486421e+2, -1162646.8, -1195720.1, -0.00020711757, 0.000000014616395, 0.00006614441, -1162646.8, -34316.008, 0.0, 10.0, 9.956395 
3.05e+2, 1.9482064e+2, -1064497.0, -1097833.0, -0.0004401, 0.000000014637623, -0.00005765673, -1064497.0, -33739.34, 0.0, 10.0, 9.956052 
3.05e+2, 2.0477042e+2, -976333.0, -1019435.0, -0.0002603746, 0.000000014605115, 0.00006807788, -976333.0, -43083.086, 0.0, 10.0, 9.943291 
3.05e+2, 2.1471375e+2, -878045.94, -921409.9, -0.00047254632, 0.000000014514395, -0.00012682781, -878045.94, -42240.67, 0.0, 10.0, 9.942949 
3.05e+2, 2.2465037e+2, -789759.9, -843144.9, -0.0002729158, 0.0000000144367975, 0.00012087923, -789759.9, -51333.566, 0.0, 10.0, 9.929908 
3.05e+2, 2.3458035e+2, -691326.4, -744966.44, -0.00051198143, 0.000000014374071, -0.00008881847, -691326.4, -50213.8, 0.0, 10.0, 9.929577 
3.05e+2, 2.4450338e+2, -603002.3, -667018.8, -0.00029468388, 0.000000014305428, 0.00007470873, -603002.3, -59135.4, 0.0, 10.0, 9.916136 
3.05e+2, 2.5441962e+2, -504249.63, -568343.3, -0.00048824924, 0.000000014229689, -0.00010673687, -504249.63, -57562.06, 0.0, 10.0, 9.916036 
3.05e+2, 2.643288e+2, -416014.22, -490987.88, -0.00022150163, 0.0000000141856225, 0.00014059403, -416014.22, -66436.53, 0.0, 10.0, 9.901964 
3.05e+2, 2.742313e+2, -316728.97, -391374.78, -0.00039974376, 0.0000000141818655, -0.00020344435, -316728.97, -64195.977, 0.0, 10.0, 9.902385 
3.05e+2, 2.841256e+2, -230255.72, -318081.25, -0.000112351685, 0.000000014179808, 0.00022904557, -230255.72, -74686.75, 0.0, 10.0, 9.885439 
3.05e+2, 2.940121e+2, -130549.586, -217765.0, -0.00028324756, 0.000000014179882, -0.00025334326, -130549.586, -71868.19, 0.0, 10.0, 9.886217 
3.05e+2, 3.0392656e+2, -40805.57, -84750.16, 0.00003975873, 0.000000014165592, 0.00017313585, -40805.57, -40805.57, 0.0, 10.0, 9.942173 
3.05e+2, 3.138706e+2, -39727.56, -82511.21, -0.0001189559, 0.000000014129961, -0.000055143097, -39727.56, -39727.56, 0.0, 10.0, 9.943684 
3.15e+2, 1.2499334e+2, -1719946.3, -1724224.6, -0.00014135224, 0.000000016123023, 0.000017600536, -1719946.3, -4880.9414, 0.0, 10.0, 9.994328 
3.15e+2, 1.349876e+2, -1622565.8, -1627434.9, -0.00038202488, 0.000000015910299, -0.00006840282, -1622565.8, -5444.1543, 0.0, 10.0, 9.993545 
3.15e+2, 1.4497513e+2, -1534464.4, -1548146.3, -0.0002100959, 0.000000015759895, 0.00007091875, -1534464.4, -15220.662, 0.0, 10.0, 9.981865 
3.15e+2, 1.5495703e+2, -1436736.6, -1450821.9, -0.0004501933, 0.00000001567202, -0.000056979912, -1436736.6, -15315.48, 0.0, 10.0, 9.981333 
3.15e+2, 1.6493228e+2, -1348685.6, -1371952.4, -0.00026849002, 0.000000015542858, 0.000047342466, -1348685.6, -25021.975, 0.0, 10.0, 9.969248 
3.15e+2, 1.7490156e+2, -1250727.6, -1274310.1, -0.0005130391, 0.000000015371535, -0.00007383091, -1250727.6, -24762.953, 0.0, 10.0, 9.968835 
3.15e+2, 1.8486421e+2, -1162646.8, -1195720.1, -0.00038755857, 0.000000015282138, 0.00006614469, -1162646.8, -34316.008, 0.0, 10.0, 9.956395 
3.15e+2, 1.9482064e+2, -1064497.0, -1097833.0, -0.0006208985, 0.000000015278458, -0.000057656627, -1064497.0, -33739.34, 0.0, 10.0, 9.956052 
3.15e+2, 2.0477042e+2, -976333.0, -1019435.0, -0.00040558024, 0.000000015214402, 0.00006807784, -976333.0, -43083.086, 0.0, 10.0, 9.943291 
3.15e+2, 2.1471375e+2, -878045.94, -921409.9, -0.00061701785, 0.000000015084941, -0.00012682796, -878045.94, -42240.67, 0.0, 10.0, 9.942949 
3.15e+2, 2.2465037e+2, -789759.9, -843144.9, -0.00039083214, 0.00000001499743, 0.00012087918, -789759.9, -51333.566, 0.0, 10.0, 9.929908 
3.15e+2, 2.3458035e+2, -691326.4, -744966.44, -0.00062903034, 0.000000014957422, -0.00008881819, -691326.4, -50213.8, 0.0, 10.0, 9.929577 
3.15e+2, 2.4450338e+2, -603002.3, -667018.8, -0.00039288632, 0.00000001492347, 0.00007470905, -603002.3, -59135.4, 0.0, 10.0, 9.916136 
3.15e+2, 2.5441962e+2, -504249.63, -568343.3, -0.00058554753, 0.000000014896691, -0.00010673687, -504249.63, -57562.06, 0.0, 10.0, 9.916036 
3.15e+2, 2.643288e+2, -416014.22, -490987.88, -0.0003161641, 0.000000014849755, 0.00014059388, -416014.22, -66436.53, 0.0, 10.0, 9.901964 
3.15e+2, 2.742313e+2, -316728.97, -391374.78, -0.00049423147, 0.000000014777136, -0.00020344439, -316728.97, -64195.977, 0.0, 10.0, 9.902385 
3.15e+2, 2.841256e+2, -230255.72, -318081.25, -0.00018726214, 0.000000014741904, 0.00022904559, -230255.72, -74686.75, 0.0, 10.0, 9.885439 
3.15e+2, 2.940121e+2, -130549.586, -217765.02, -0.00035639622, 0.000000014757943, -0.0002533432, -130549.586, -71868.19, 0.0, 10.0, 9.886217 
3.15e+2, 3.0392656e+2, -40805.57, -84750.16, 0.0000015383429, 0.000000014770619, 0.00017313592, -40805.57, -40805.57, 0.0, 10.0, 9.942173 
3.15e+2, 3.138706e+2, -39727.563, -82511.21, -0.00015307842, 0.000000014777827, -0.00005514302, -39727.563, -39727.563, 0.0, 10.0, 9.943684 
3.25e+2, 1.2499334e+2, -1719946.3, -1724224.6, 0.000120433855, 0.000000016924574, 0.000017600649, -1719946.3, -4880.9375, 0.0, 10.0, 9.994328 
3.25e+2, 1.349876e+2, -1622565.8, -1627434.9, -0.00013016188, 0.00000001656459, -0.00006840276, -1622565.8, -5444.1504, 0.0, 10.0, 9.993545 
3.25e+2, 1.4497513e+2, -1534464.4, -1548146.3, 0.000036485886, 0.00000001634487, 0.000070918955, -1534464.4, -15220.658, 0.0, 10.0, 9.981865 
3.25e+2, 1.5495703e+2, -1436736.6, -1450821.9, -0.00023228124, 0.000000016266101, -0.00005697985, -1436736.6, -15315.477, 0.0, 10.0, 9.981333 
3.25e+2, 1.6493228e+2, -1348685.6, -1371952.4, -0.00007622231, 0.000000016179314, 0.000047342524, -1348685.6, -25021.97, 0.0, 10.0, 9.969248 
3.25e+2, 1.7490156e+2, -1250727.6, -1274310.1, -0.00037463589, 0.000000016084337, -0.00007383072, -1250727.6, -24762.95, 0.0, 10.0, 9.968835 
3.25e+2, 1.8486421e+2, -1162646.8, -1195720.1, -0.00024504506, 0.000000015992029, 0.00006614487, -1162646.8, -34316.004, 0.0, 10.0, 9.956395 
3.25e+2, 1.9482064e+2, -1064497.0, -1097833.0, -0.00045804903, 0.000000015902502, -0.00005765658, -1064497.0, -33739.336, 0.0, 10.0, 9.956052 
3.25e+2, 2.0477042e+2, -976333.0, -1019435.0, -0.00021902907, 0.000000015799094, 0.00006807785, -976333.0, -43083.082, 0.0, 10.0, 9.943291 
3.25e+2, 2.1471375e+2, -878045.94, -921409.9, -0.00045047695, 0.000000015680639, -0.0001268279, -878045.94, -42240.668, 0.0, 10.0, 9.942949 
3.25e+2, 2.2465037e+2, -789759.9, -843144.9, -0.0002524485, 0.000000015606947, 0.00012087927, -789759.9, -51333.563, 0.0, 10.0, 9.929908 
3.25e+2, 2.3458035e+2, -691326.3, -744966.44, -0.0005492939, 0.000000015583916, -0.00008881808, -691326.3, -50213.797, 0.0, 10.0, 9.929577 
3.25e+2, 2.4450338e+2, -603002.3, -667018.8, -0.00030914633, 0.00000001555965, 0.00007470914, -603002.3, -59135.395, 0.0, 10.0, 9.916136 
3.25e+2, 2.5441962e+2, -504249.63, -568343.3, -0.0004662184, 0.000000015533843, -0.00010673685, -504249.63, -57562.055, 0.0, 10.0, 9.916036 
3.25e+2, 2.643288e+2, -416014.22, -490987.88, -0.00017272493, 0.000000015485107, 0.00014059388, -416014.22, -66436.52, 0.0, 10.0, 9.901964 
3.25e+2, 2.742313e+2, -316728.97, -391374.78, -0.00039736653, 0.000000015407178, -0.00020344438, -316728.97, -64195.973, 0.0, 10.0, 9.902385 
3.25e+2, 2.841256e+2, -230255.72, -318081.25, -0.00012861255, 0.0000000153586, 0.00022904562, -230255.72, -74686.75, 0.0, 10.0, 9.885439 
3.25e+2, 2.940121e+2, -130549.586, -217765.0, -0.0003486176, 0.000000015350306, -0.00025334317, -130549.586, -71868.19, 0.0, 10.0, 9.886217 
3.25e+2, 3.0392656e+2, -40805.57, -84750.16, -0.000008059805, 0.000000015363506, 0.00017313598, -40805.57, -40805.57, 0.0, 10.0, 9.942173 
3.25e+2, 3.138706e+2, -39727.56, -82511.21, -0.00016686744, 0.000000015408249, -0.000055142966, -39727.56, -39727.56, 0.0, 10.0, 9.943684 
3.35e+2, 1.2499334e+2, -1719946.3, -1724224.6, -0.00006088638, 0.000000017747297, 0.00001760054, -1719946.3, -4880.938, 0.0, 10.0, 9.994328 
3.35e+2, 1.349876e+2, -1622565.8, -1627434.9, -0.00031152484, 0.000000017217399, -0.00006840275, -1622565.8, -5444.1514, 0.0, 10.0, 9.993545 
3.35e+2, 1.4497513e+2, -1534464.4, -1548146.3, -0.00016593956, 0.000000016917676, 0.000070919246, -1534464.4, -15220.658, 0.0, 10.0, 9.981865 
3.35e+2, 1.5495703e+2, -1436736.6, -1450821.9, -0.0004347406, 0.000000016849361, -0.000056979683, -1436736.6, -15315.477, 0.0, 10.0, 9.981333 
3.35e+2, 1.6493228e+2, -1348685.6, -1371952.4, -0.00029898903, 0.000000016826363, 0.000047342637, -1348685.6, -25021.97, 0.0, 10.0, 9.969248 
3.35e+2, 1.7490156e+2, -1250727.6, -1274310.1, -0.0005975105, 0.000000016849638, -0.0000738306, -1250727.6, -24762.951, 0.0, 10.0, 9.968835 
3.35e+2, 1.8486421e+2, -1162646.8, -1195720.1, -0.00039481392, 0.00000001674607, 0.00006614496, -1162646.8, -34316.004, 0.0, 10.0, 9.956395 
3.35e+2, 1.9482064e+2, -1064497.0, -1097833.0, -0.00060697226, 0.000000016509757, -0.000057656587, -1064497.0, -33739.336, 0.0, 10.0, 9.956052 
3.35e+2, 2.0477042e+2, -976333.0, -1019435.0, -0.0003590784, 0.00000001635919, 0.00006807789, -976333.0, -43083.082, 0.0, 10.0, 9.943291 
3.35e+2, 2.1471375e+2, -878045.94, -921409.9, -0.00059034413, 0.00000001630149, -0.00012682765, -878045.94, -42240.668, 0.0, 10.0, 9.942949 
3.35e+2, 2.2465037e+2, -789759.9, -843144.9, -0.00039965854, 0.000000016265346, 0.0001208795, -789759.9, -51333.563, 0.0, 10.0, 9.929908 
3.35e+2, 2.3458035e+2, -691326.3, -744966.44, -0.0006967455, 0.000000016253553, -0.00008881815, -691326.3, -50213.797, 0.0, 10.0, 9.929577 
3.35e+2, 2.4450338e+2, -603002.3, -667018.8, -0.00043575367, 0.000000016213965, 0.000074708994, -603002.3, -59135.395, 0.0, 10.0, 9.916136 
3.35e+2, 2.5441962e+2, -504249.63, -568343.3, -0.00059182575, 0.000000016141144, -0.0001067368, -504249.63, -57562.055, 0.0, 10.0, 9.916036 
3.35e+2, 2.643288e+2, -416014.22, -490987.88, -0.00025060662, 0.000000016091676, 0.00014059401, -416014.22, -66436.52, 0.0, 10.0, 9.901964 
3.35e+2, 2.742313e+2, -316728.97, -391374.78, -0.0004720504, 0.000000016071992, -0.0002034443, -316728.97, -64195.973, 0.0, 10.0, 9.902385 
3.35e+2, 2.841256e+2, -230255.72, -318081.25, -0.00020064399, 0.000000016029896, 0.00022904566, -230255.72, -74686.75, 0.0, 10.0, 9.885439 
3.35e+2, 2.940121e+2, -130549.586, -217765.02, -0.00042041246, 0.000000015956969, -0.0002533431, -130549.586, -71868.19, 0.0, 10.0, 9.886217 
3.35e+2, 3.0392656e+2, -40805.57, -84750.16, -0.000081483806, 0.000000015944252, 0.00017313604, -40805.57, -40805.57, 0.0, 10.0, 9.942173 
3.35e+2, 3.138706e+2, -39727.56, -82511.21, -0.00024048545, 0.000000016021225, -0.00005514293, -39727.56, -39727.56, 0.0, 10.0, 9.943684 
3.45e+2, 1.2499334e+2, -1719946.3, -1724224.6, 0.00041542496, 0.00000001833873, 0.000017600467, -1719946.3, -4880.933, 0.0, 10.0, 9.994328 
3.45e+2, 1.349876e+2, -1622565.8, -1627434.9, -0.000011212364, 0.000000017870804, -0.00006840274, -1622565.8, -5444.1465, 0.0, 10.0, 9.993545 
3.45e+2, 1.4497513e+2, -1534464.4, -1548146.3, 0.000035630146, 0.000000017611889, 0.00007091952, -1534464.4, -15220.654, 0.0, 10.0, 9.981865 
3.45e+2, 1.5495703e+2, -1436736.6, -1450821.9, -0.00025521172, 0.000000017563123, -0.00005697948, -1436736.6, -15315.473, 0.0, 10.0, 9.981333 
3.45e+2, 1.6493228e+2, -1348685.6, -1371952.4, -0.000104182, 0.000000017525199, 0.00004734276, -1348685.6, -25021.967, 0.0, 10.0, 9.969248 
3.45e+2, 1.7490156e+2, -1250727.6, -1274310.1, -0.00036454902, 0.000000017498353, -0.00007383056, -1250727.6, -24762.947, 0.0, 10.0, 9.968835 
3.45e+2, 1.8486421e+2, -1162646.8, -1195720.1, -0.00012826597, 0.000000017374592, 0.000066144974, -1162646.8, -34316.0, 0.0, 10.0, 9.956395 
3.45e+2, 1.9482064e+2, -1064497.0, -1097833.0, -0.0004139717, 0.000000017149405, -0.00005765652, -1064497.0, -33739.332, 0.0, 10.0, 9.956052 
3.45e+2, 2.0477042e+2, -976333.0, -1019435.0, -0.00024049696, 0.000000017025044, 0.000068078036, -976333.0, -43083.08, 0.0, 10.0, 9.943291 
3.45e+2, 2.1471375e+2, -878045.94, -921409.9, -0.00055652746, 0.000000017009878, -0.00012682738, -878045.94, -42240.664, 0.0, 10.0, 9.942949 
3.45e+2, 2.2465037e+2, -789759.9, -843144.9, -0.00031397212, 0.00000001697187, 0.00012087969, -789759.9, -51333.56, 0.0, 10.0, 9.929908 
3.45e+2, 2.3458035e+2, -691326.3, -744966.44, -0.00044542455, 0.000000016907956, -0.00008881827, -691326.3, -50213.793, 0.0, 10.0, 9.929577 
3.45e+2, 2.4450338e+2, -603002.25, -667018.8, -0.00015483117, 0.00000001683248, 0.00007470883, -603002.25, -59135.39, 0.0, 10.0, 9.916136 
3.45e+2, 2.5441962e+2, -504249.63, -568343.3, -0.00049040787, 0.000000016743213, -0.00010673671, -504249.63, -57562.05, 0.0, 10.0, 9.916036 
3.45e+2, 2.643288e+2, -416014.2, -490987.88, -0.00023250582, 0.000000016709588, 0.0001405942, -416014.2, -66436.52, 0.0, 10.0, 9.901964 
3.45e+2, 2.742313e+2, -316728.97, -391374.78, -0.00044247456, 0.000000016746796, -0.0002034442, -316728.97, -64195.973, 0.0, 10.0, 9.902385 
3.45e+2, 2.841256e+2, -230255.72, -318081.25, -0.00011673868, 0.00000001672869, 0.00022904569, -230255.72, -74686.74, 0.0, 10.0, 9.885439 
3.45e+2, 2.940121e+2, -130549.58, -217765.0, -0.00030037938, 0.000000016634543, -0.00025334314, -130549.58, -71868.19, 0.0, 10.0, 9.886217 
3.45e+2, 3.0392656e+2, -40805.566, -84750.16, 0.000040953695, 0.000000016579481, 0.00017313601, -40805.566, -40805.566, 0.0, 10.0, 9.942173 
3.45e+2, 3.138706e+2, -39727.555, -82511.21, -0.00017736955, 0.000000016583192, -0.000055142897, -39727.555, -39727.555, 0.0, 10.0, 9.943684 
3.55e+2, 1.2499334e+2, -1719946.3, -1724224.6, 0.0001594899, 0.000000018698875, 0.00001760043, -1719946.3, -4880.9346, 0.0, 10.0, 9.994328 
3.55e+2, 1.349876e+2, -1622565.8, -1627434.9, -0.00026720983, 0.000000018524805, -0.00006840276, -1622565.8, -5444.148, 0.0, 10.0, 9.993545 
3.55e+2, 1.4497513e+2, -1534464.4, -1548146.3, -0.00020019803, 0.000000018427508, 0.00007091979, -1534464.4, -15220.655, 0.0, 10.0, 9.981865 
3.55e+2, 1.5495703e+2, -1436736.6, -1450821.9, -0.00049100857, 0.000000018407382, -0.000056979232, -1436736.6, -15315.474, 0.0, 10.0, 9.981333 
3.55e+2, 1.6493228e+2, -1348685.6, -1371952.4, -0.00030636517, 0.000000018275824, 0.000047342895, -1348685.6, -25021.967, 0.0, 10.0, 9.969248 
3.55e+2, 1.7490156e+2, -1250727.6, -1274310.1, -0.0005665556, 0.000000018030478, -0.00007383062, -1250727.6, -24762.947, 0.0, 10.0, 9.968835 
3.55e+2, 1.8486421e+2, -1162646.8, -1195720.1, -0.00030502045, 0.000000017877596, 0.000066144916, -1162646.8, -34316.0, 0.0, 10.0, 9.956395 
3.55e+2, 1.9482064e+2, -1064497.0, -1097833.0, -0.00059043465, 0.000000017821453, -0.000057656383, -1064497.0, -33739.336, 0.0, 10.0, 9.956052 
3.55e+2, 2.0477042e+2, -976333.0, -1019435.0, -0.0004177183, 0.000000017796658, 0.00006807829, -976333.0, -43083.082, 0.0, 10.0, 9.943291 
3.55e+2, 2.1471375e+2, -878045.94, -921409.9, -0.0007337657, 0.000000017805801, -0.00012682712, -878045.94, -42240.668, 0.0, 10.0, 9.942949 
3.55e+2, 2.2465037e+2, -789759.9, -843144.9, -0.00044555977, 0.000000017726517, 0.00012087983, -789759.9, -51333.56, 0.0, 10.0, 9.929908 
3.55e+2, 2.3458035e+2, -691326.3, -744966.44, -0.0005755203, 0.000000017547123, -0.00008881843, -691326.3, -50213.793, 0.0, 10.0, 9.929577 
3.55e+2, 2.4450338e+2, -603002.25, -667018.8, -0.0002644057, 0.000000017415196, 0.000074708645, -603002.25, -59135.39, 0.0, 10.0, 9.916136 
3.55e+2, 2.5441962e+2, -504249.63, -568343.3, -0.0005989979, 0.000000017340051, -0.00010673658, -504249.63, -57562.05, 0.0, 10.0, 9.916036 
3.55e+2, 2.643288e+2, -416014.2, -490987.88, -0.00036292558, 0.000000017338847, 0.00014059446, -416014.2, -66436.52, 0.0, 10.0, 9.901964 
3.55e+2, 2.742313e+2, -316728.97, -391374.78, -0.00057436, 0.000000017431589, -0.00020344408, -316728.97, -64195.973, 0.0, 10.0, 9.902385 
3.55e+2, 2.841256e+2, -230255.72, -318081.25, -0.0001842588, 0.000000017454981, 0.00022904569, -230255.72, -74686.74, 0.0, 10.0, 9.885439 
3.55e+2, 2.940121e+2, -130549.58, -217765.02, -0.00036210238, 0.000000017383027, -0.00025334326, -130549.58, -71868.19, 0.0, 10.0, 9.886217 
3.55e+2, 3.0392656e+2, -40805.566, -84750.16, -0.00000081384854, 0.000000017269196, 0.00017313588, -40805.566, -40805.566, 0.0, 10.0, 9.942173 
3.55e+2, 3.138706e+2, -39727.555, -82511.21, -0.00021679737, 0.00000001709415, -0.000055142867, -39727.555, -39727.555, 0.0, 10.0, 9.943684 
3.65e+2, 1.2499334e+2, -1719946.3, -1724224.6, 0.00018064564, 0.000000019314713, 0.00001760095, -1719946.3, -4880.929, 0.0, 10.0, 9.994328 
3.65e+2, 1.349876e+2, -1622565.8, -1627434.9, -0.000083696745, 0.00000001925622, -0.00006840273, -1622565.8, -5444.143, 0.0, 10.0, 9.993545 
3.65e+2, 1.4497513e+2, -1534464.4, -1548146.3, 0.00008136534, 0.000000019198913, 0.0000709199, -1534464.4, -15220.65, 0.0, 10.0, 9.981865 
3.65e+2, 1.5495703e+2, -1436736.6, -1450821.9, -0.00025948667, 0.000000019142743, -0.00005697909, -1436736.6, -15315.469, 0.0, 10.0, 9.981333 
3.65e+2, 1.6493228e+2, -1348685.6, -1371952.4, -0.00004747488, 0.000000018967539, 0.00004734302, -1348685.6, -25021.963, 0.0, 10.0, 9.969248 
3.65e+2, 1.7490156e+2, -1250727.6, -1274310.1, -0.00031861372, 0.000000018670784, -0.00007383057, -1250727.6, -24762.941, 0.0, 10.0, 9.968835 
3.65e+2, 1.8486421e+2, -1162646.6, -1195720.1, -0.0001029401, 0.000000018532761, 0.000066144996, -1162646.6, -34315.996, 0.0, 10.0, 9.956395 
3.65e+2, 1.9482064e+2, -1064497.0, -1097833.0, -0.00045036915, 0.000000018560819, -0.00005765616, -1064497.0, -33739.33, 0.0, 10.0, 9.956052 
3.65e+2, 2.0477042e+2, -976333.0, -1019435.0, -0.0002438615, 0.00000001854864, 0.000068078465, -976333.0, -43083.08, 0.0, 10.0, 9.943291 
3.65e+2, 2.1471375e+2, -878045.94, -921409.9, -0.00047239207, 0.00000001849286, -0.00012682719, -878045.94, -42240.66, 0.0, 10.0, 9.942949 
3.65e+2, 2.2465037e+2, -789759.8, -843144.9, -0.00017596337, 0.000000018383027, 0.00012087975, -789759.8, -51333.555, 0.0, 10.0, 9.929908 
3.65e+2, 2.3458035e+2, -691326.3, -744966.44, -0.0004856773, 0.000000018212019, -0.00008881825, -691326.3, -50213.79, 0.0, 10.0, 9.929577 
3.65e+2, 2.4450338e+2, -603002.25, -667018.8, -0.00022763797, 0.000000018108242, 0.00007470888, -603002.25, -59135.387, 0.0, 10.0, 9.916136 
3.65e+2, 2.5441962e+2, -504249.6, -568343.3, -0.0004718806, 0.00000001808482, -0.00010673654, -504249.6, -57562.047, 0.0, 10.0, 9.916036 
3.65e+2, 2.643288e+2, -416014.2, -490987.88, -0.00018516959, 0.000000018067615, 0.00014059442, -416014.2, -66436.516, 0.0, 10.0, 9.901964 
3.65e+2, 2.742313e+2, -316728.97, -391374.78, -0.00042731635, 0.000000018058117, -0.00020344408, -316728.97, -64195.97, 0.0, 10.0, 9.902385 
3.65e+2, 2.841256e+2, -230255.72, -318081.25, -0.00005235163, 0.000000018052182, 0.00022904572, -230255.72, -74686.74, 0.0, 10.0, 9.885439 
3.65e+2, 2.940121e+2, -130549.58, -217765.0, -0.0002846534, 0.000000018051082, -0.0002533432, -130549.58, -71868.18, 0.0, 10.0, 9.886217 
3.65e+2, 3.0392656e+2, -40805.563, -84750.16, 0.000078475015, 0.000000017980776, 0.00017313591, -40805.563, -40805.563, 0.0, 10.0, 9.942173 
3.65e+2, 3.138706e+2, -39727.55, -82511.21, -0.00012626994, 0.000000017807732, -0.00005514294, -39727.55, -39727.55, 0.0, 10.0, 9.943684 
3.75e+2, 1.2499334e+2, -1719946.3, -1724224.6, -0.00013976505, 0.000000020186244, 0.00001760203, -1719946.3, -4880.93, 0.0, 10.0, 9.994328 
3.75e+2, 1.349876e+2, -1622565.8, -1627434.9, -0.00040418678, 0.000000020065048, -0.00006840266, -1622565.8, -5444.1436, 0.0, 10.0, 9.993545 
3.75e+2, 1.4497513e+2, -1534464.4, -1548146.3, -0.00017865638, 0.000000019926102, 0.00007091984, -1534464.4, -15220.651, 0.0, 10.0, 9.981865 
3.75e+2, 1.5495703e+2, -1436736.6, -1450821.9, -0.00051941315, 0.000000019769201, -0.00005697905, -1436736.6, -15315.47, 0.0, 10.0, 9.981333 
3.75e+2, 1.6493228e+2, -1348685.6, -1371952.4, -0.00022662978, 0.000000019600343, 0.000047343132, -1348685.6, -25021.963, 0.0, 10.0, 9.969248 
3.75e+2, 1.7490156e+2, -1250727.6, -1274310.1, -0.000497343, 0.00000001941927, -0.00007383041, -1250727.6, -24762.943, 0.0, 10.0, 9.968835 
3.75e+2, 1.8486421e+2, -1162646.6, -1195720.1, -0.00032875934, 0.000000019340085, 0.00006614522, -1162646.6, -34315.996, 0.0, 10.0, 9.956395 
3.75e+2, 1.9482064e+2, -1064497.0, -1097833.0, -0.00067673484, 0.000000019367507, -0.00005765586, -1064497.0, -33739.332, 0.0, 10.0, 9.956052 
3.75e+2, 2.0477042e+2, -976333.0, -1019435.0, -0.00042262566, 0.00000001928099, 0.00006807856, -976333.0, -43083.08, 0.0, 10.0, 9.943291 
3.75e+2, 2.1471375e+2, -878045.94, -921409.9, -0.00065017433, 0.000000019071056, -0.0001268276, -878045.94, -42240.664, 0.0, 10.0, 9.942949 
3.75e+2, 2.2465037e+2, -789759.8, -843144.9, -0.0003078712, 0.000000018941398, 0.00012087945, -789759.8, -51333.56, 0.0, 10.0, 9.929908 
3.75e+2, 2.3458035e+2, -691326.3, -744966.44, -0.00061608583, 0.00000001890264, -0.000088817724, -691326.3, -50213.79, 0.0, 10.0, 9.929577 
3.75e+2, 2.4450338e+2, -603002.25, -667018.8, -0.0003700582, 0.00000001891162, 0.00007470953, -603002.25, -59135.387, 0.0, 10.0, 9.916136 
3.75e+2, 2.5441962e+2, -504249.63, -568343.3, -0.0006148799, 0.000000018977518, -0.000106736574, -504249.63, -57562.047, 0.0, 10.0, 9.916036 
3.75e+2, 2.643288e+2, -416014.2, -490987.88, -0.0002802743, 0.000000018895895, 0.00014059407, -416014.2, -66436.516, 0.0, 10.0, 9.901964 
3.75e+2, 2.742313e+2, -316728.97, -391374.78, -0.0005192122, 0.00000001862638, -0.00020344422, -316728.97, -64195.97, 0.0, 10.0, 9.902385 
3.75e+2, 2.841256e+2, -230255.72, -318081.25, -0.00015582572, 0.000000018520291, 0.00022904579, -230255.72, -74686.74, 0.0, 10.0, 9.885439 
3.75e+2, 2.940121e+2, -130549.58, -217765.02, -0.00038917328, 0.00000001863871, -0.00025334297, -130549.58, -71868.18, 0.0, 10.0, 9.886217 
3.75e+2, 3.0392656e+2, -40805.563, -84750.16, 0.000022697182, 0.000000018714221, 0.0001731361, -40805.563, -40805.563, 0.0, 10.0, 9.942173 
3.75e+2, 3.138706e+2, -39727.55, -82511.21, -0.00017632858, 0.000000018723938, -0.000055143115, -39727.55, -39727.55, 0.0, 10.0, 9.943684 
3.85e+2, 1.2499334e+2, -1719946.1, -1724224.6, -0.00003593361, 0.00000002116796, 0.000017602404, -1719946.1, -4880.926, 0.0, 10.0, 9.994328 
3.85e+2, 1.349876e+2, -1622565.8, -1627434.9, -0.00024727054, 0.000000020888077, -0.00006840246, -1622565.8, -5444.1387, 0.0, 10.0, 9.993545 
3.85e+2, 1.4497513e+2, -1534464.4, -1548146.3, 0.000062681494, 0.000000020643546, 0.00007092015, -1534464.4, -15220.646, 0.0, 10.0, 9.981865 
3.85e+2, 1.5495703e+2, -1436736.6, -1450821.9, -0.00024919846, 0.000000020434413, -0.00005697903, -1436736.6, -15315.465, 0.0, 10.0, 9.981333 
3.85e+2, 1.6493228e+2, -1348685.6, -1371952.4, 0.000016791175, 0.000000020300012, 0.000047343146, -1348685.6, -25021.959, 0.0, 10.0, 9.969248 
3.85e+2, 1.7490156e+2, -1250727.6, -1274310.1, -0.000348344, 0.000000020241918, -0.0000738301, -1250727.6, -24762.938, 0.0, 10.0, 9.968835 
3.85e+2, 1.8486421e+2, -1162646.6, -1195720.1, -0.00016065995, 0.000000020180996, 0.00006614553, -1162646.6, -34315.992, 0.0, 10.0, 9.956395 
3.85e+2, 1.9482064e+2, -1064497.0, -1097833.0, -0.00042408504, 0.000000020117106, -0.00005765585, -1064497.0, -33739.324, 0.0, 10.0, 9.956052 
3.85e+2, 2.0477042e+2, -976333.0, -1019435.0, -0.00010381452, 0.000000019961844, 0.00006807847, -976333.0, -43083.07, 0.0, 10.0, 9.943291 
3.85e+2, 2.1471375e+2, -878045.94, -921409.9, -0.0003793672, 0.000000019707613, -0.00012682758, -878045.94, -42240.656, 0.0, 10.0, 9.942949 
3.85e+2, 2.2465037e+2, -789759.8, -843144.9, -0.00012331983, 0.000000019607029, 0.000120879566, -789759.8, -51333.55, 0.0, 10.0, 9.929908 
3.85e+2, 2.3458035e+2, -691326.3, -744966.44, -0.00053823955, 0.00000001968038, -0.00008881752, -691326.3, -50213.785, 0.0, 10.0, 9.929577 
3.85e+2, 2.4450338e+2, -603002.25, -667018.8, -0.00028556626, 0.00000001971501, 0.000074709715, -603002.25, -59135.383, 0.0, 10.0, 9.916136 
3.85e+2, 2.5441962e+2, -504249.6, -568343.3, -0.00045968092, 0.000000019703197, -0.00010673657, -504249.6, -57562.043, 0.0, 10.0, 9.916036 
3.85e+2, 2.643288e+2, -416014.2, -490987.88, -0.00005956311, 0.000000019585912, 0.00014059403, -416014.2, -66436.516, 0.0, 10.0, 9.901964 
3.85e+2, 2.742313e+2, -316728.97, -391374.78, -0.00035363404, 0.000000019334486, -0.00020344419, -316728.97, -64195.965, 0.0, 10.0, 9.902385 
3.85e+2, 2.841256e+2, -230255.7, -318081.25, -0.00006743206, 0.000000019228455, 0.00022904587, -230255.7, -74686.734, 0.0, 10.0, 9.885439 
3.85e+2, 2.940121e+2, -130549.57, -217765.0, -0.00034661154, 0.000000019322002, -0.00025334288, -130549.57, -71868.18, 0.0, 10.0, 9.886217 
3.85e+2, 3.0392656e+2, -40805.56, -84750.16, 0.00007533646, 0.000000019424473, 0.00017313614, -40805.56, -40805.56, 0.0, 10.0, 9.942173 
3.85e+2, 3.138706e+2, -39727.547, -82511.21, -0.00006844073, 0.000000019538314, -0.00005514318, -39727.547, -39727.547, 0.0, 10.0, 9.943684 
3.95e+2, 1.2499334e+2, -1719946.1, -1724224.6, -0.00027174887, 0.00000002225986, 0.000017602077, -1719946.1, -4880.9263, 0.0, 10.0, 9.994328 
3.95e+2, 1.349876e+2, -1622565.8, -1627434.9, -0.00048313872, 0.000000021725308, -0.00006840214, -1622565.8, -5444.1396, 0.0, 10.0, 9.993545 
3.95e+2, 1.4497513e+2, -1534464.4, -1548146.3, -0.0001488889, 0.000000021351243, 0.00007092082, -1534464.4, -15220.647, 0.0, 10.0, 9.981865 
3.95e+2, 1.5495703e+2, -1436736.6, -1450821.9, -0.00046073107, 0.000000021138376, -0.00005697904, -1436736.6, -15315.466, 0.0, 10.0, 9.981333 
3.95e+2, 1.6493228e+2, -1348685.6, -1371952.4, -0.00026719586, 0.000000021066548, 0.000047343066, -1348685.6, -25021.959, 0.0, 10.0, 9.969248 
3.95e+2, 1.7490156e+2, -1250727.6, -1274310.1, -0.0006327145, 0.00000002113873, -0.00007382966, -1250727.6, -24762.94, 0.0, 10.0, 9.968835 
3.95e+2, 1.8486421e+2, -1162646.6, -1195720.1, -0.00034709068, 0.000000021055497, 0.00006614591, -1162646.6, -34315.992, 0.0, 10.0, 9.956395 
3.95e+2, 1.9482064e+2, -1064497.0, -1097833.0, -0.00060938275, 0.000000020809619, -0.00005765614, -1064497.0, -33739.33, 0.0, 10.0, 9.956052 
3.95e+2, 2.0477042e+2, -976333.0, -1019435.0, -0.0002475618, 0.000000020591205, 0.00006807818, -976333.0, -43083.074, 0.0, 10.0, 9.943291 
3.95e+2, 2.1471375e+2, -878045.94, -921409.9, -0.0005222577, 0.000000020402533, -0.00012682713, -878045.94, -42240.656, 0.0, 10.0, 9.942949 
3.95e+2, 2.2465037e+2, -789759.8, -843144.9, -0.0003349485, 0.00000002037992, 0.0001208801, -789759.8, -51333.555, 0.0, 10.0, 9.929908 
3.95e+2, 2.3458035e+2, -691326.3, -744966.44, -0.0007521186, 0.00000002054524, -0.00008881764, -691326.3, -50213.79, 0.0, 10.0, 9.929577 
3.95e+2, 2.4450338e+2, -603002.25, -667018.8, -0.00042239367, 0.000000020518412, 0.00007470942, -603002.25, -59135.383, 0.0, 10.0, 9.916136 
3.95e+2, 2.5441962e+2, -504249.6, -568343.3, -0.00059280754, 0.000000020261862, -0.000106736494, -504249.6, -57562.043, 0.0, 10.0, 9.916036 
3.95e+2, 2.643288e+2, -416014.2, -490987.88, -0.00013754252, 0.000000020137666, 0.00014059427, -416014.2, -66436.516, 0.0, 10.0, 9.901964 
3.95e+2, 2.742313e+2, -316728.97, -391374.78, -0.0004279182, 0.000000020182432, -0.00020344401, -316728.97, -64195.965, 0.0, 10.0, 9.902385 
3.95e+2, 2.841256e+2, -230255.7, -318081.25, -0.00018129776, 0.000000020176671, 0.00022904592, -230255.7, -74686.734, 0.0, 10.0, 9.885439 
3.95e+2, 2.940121e+2, -130549.57, -217765.02, -0.0004640465, 0.000000020100954, -0.00025334297, -130549.57, -71868.18, 0.0, 10.0, 9.886217 
3.95e+2, 3.0392656e+2, -40805.56, -84750.16, -0.000058912014, 0.000000020111532, 0.00017313602, -40805.56, -40805.56, 0.0, 10.0, 9.942173 
3.95e+2, 3.138706e+2, -39727.547, -82511.21, -0.00020466617, 0.000000020250859, -0.00005514314, -39727.547, -39727.547, 0.0, 10.0, 9.943684 
4.05e+2, 1.2499334e+2, -1719946.1, -1724224.6, 0.00061593263, 0.000000023058739, 0.000017601671, -1719946.1, -4880.9204, 0.0, 10.0, 9.994328 
4.05e+2, 1.349876e+2, -1622565.8, -1627434.9, -0.000037308164, 0.00000002245327, -0.00006840211, -1622565.8, -5444.1343, 0.0, 10.0, 9.993545 
4.05e+2, 1.4497513e+2, -1534464.3, -1548146.3, 0.00010788345, 0.000000022105496, 0.00007092129, -1534464.3, -15220.642, 0.0, 10.0, 9.981865 
4.05e+2, 1.5495703e+2, -1436736.6, -1450821.9, -0.00016361462, 0.000000022016701, -0.00005697889, -1436736.6, -15315.461, 0.0, 10.0, 9.981333 
4.05e+2, 1.6493228e+2, -1348685.6, -1371952.4, 0.00003033226, 0.000000021949699, 0.00004734311, -1348685.6, -25021.955, 0.0, 10.0, 9.969248 
4.05e+2, 1.7490156e+2, -1250727.6, -1274310.1, -0.00038270728, 0.000000021904956, -0.00007382949, -1250727.6, -24762.934, 0.0, 10.0, 9.968835 
4.05e+2, 1.8486421e+2, -1162646.6, -1195720.1, -0.000061372084, 0.000000021756655, 0.00006614606, -1162646.6, -34315.99, 0.0, 10.0, 9.956395 
4.05e+2, 1.9482064e+2, -1064496.9, -1097833.0, -0.00031271068, 0.000000021499972, -0.000057656154, -1064496.9, -33739.32, 0.0, 10.0, 9.956052 
4.05e+2, 2.0477042e+2, -976332.94, -1019435.0, -0.000031898995, 0.000000021342052, 0.00006807825, -976332.94, -43083.066, 0.0, 10.0, 9.943291 
4.05e+2, 2.1471375e+2, -878045.94, -921409.9, -0.0005148885, 0.00000002129109, -0.00012682674, -878045.94, -42240.652, 0.0, 10.0, 9.942949 
4.05e+2, 2.2465037e+2, -789759.8, -843144.9, -0.00028656432, 0.000000021267358, 0.00012088044, -789759.8, -51333.547, 0.0, 10.0, 9.929908 
4.05e+2, 2.3458035e+2, -691326.3, -744966.44, -0.00039618494, 0.00000002127439, -0.0000888178, -691326.3, -50213.78, 0.0, 10.0, 9.929577 
4.05e+2, 2.4450338e+2, -603002.25, -667018.8, 0.00002555828, 0.00000002115855, 0.00007470914, -603002.25, -59135.38, 0.0, 10.0, 9.916136 
4.05e+2, 2.5441962e+2, -504249.6, -568343.3, -0.00042479494, 0.000000020895891, -0.0001067364, -504249.6, -57562.04, 0.0, 10.0, 9.916036 
4.05e+2, 2.643288e+2, -416014.2, -490987.88, -0.0001416184, 0.00000002084204, 0.00014059454, -416014.2, -66436.51, 0.0, 10.0, 9.901964 
4.05e+2, 2.742313e+2, -316728.97, -391374.78, -0.00040731693, 0.000000021054255, -0.00020344385, -316728.97, -64195.96, 0.0, 10.0, 9.902385 
4.05e+2, 2.841256e+2, -230255.7, -318081.25, -0.000044000044, 0.000000021107454, 0.00022904595, -230255.7, -74686.734, 0.0, 10.0, 9.885439 
4.05e+2, 2.940121e+2, -130549.57, -217765.0, -0.00022006048, 0.000000020941773, -0.0002533431, -130549.57, -71868.17, 0.0, 10.0, 9.886217 
4.05e+2, 3.0392656e+2, -40805.555, -84750.16, 0.00015844165, 0.000000020844237, 0.0001731359, -40805.555, -40805.555, 0.0, 10.0, 9.942173 
4.05e+2, 3.138706e+2, -39727.543, -82511.21, -0.00021186857, 0.000000020849935, -0.000055142962, -39727.543, -39727.543, 0.0, 10.0, 9.943684 
4.15e+2, 1.2499334e+2, -1719946.1, -1724224.6, 0.00032231672, 0.000000023564596, 0.000017601185, -1719946.1, -4880.9224, 0.0, 10.0, 9.994328 
4.15e+2, 1.349876e+2, -1622565.8, -1627434.9, -0.00033099452, 0.000000023071966, -0.00006840235, -1622565.8, -5444.1357, 0.0, 10.0, 9.993545 
4.15e+2, 1.4497513e+2, -1534464.3, -1548146.3, -0.00018732296, 0.000000022906308, 0.00007092158, -1534464.3, -15220.643, 0.0, 10.0, 9.981865 
4.15e+2, 1.5495703e+2, -1436736.6, -1450821.9, -0.00045882433, 0.000000023069385, -0.000056978584, -1436736.6, -15315.461, 0.0, 10.0, 9.981333 
4.15e+2, 1.6493228e+2, -1348685.6, -1371952.4, -0.00018798382, 0.000000022949468, 0.000047343277, -1348685.6, -25021.955, 0.0, 10.0, 9.969248 
4.15e+2, 1.7490156e+2, -1250727.6, -1274310.1, -0.00060061866, 0.000000022540595, -0.000073829615, -1250727.6, -24762.936, 0.0, 10.0, 9.968835 
4.15e+2, 1.8486421e+2, -1162646.6, -1195720.1, -0.00026959102, 0.000000022284471, 0.000066145956, -1162646.6, -34315.99, 0.0, 10.0, 9.956395 
4.15e+2, 1.9482064e+2, -1064496.9, -1097833.0, -0.00052081863, 0.000000022188166, -0.0000576559, -1064496.9, -33739.32, 0.0, 10.0, 9.956052 
4.15e+2, 2.0477042e+2, -976332.94, -1019435.0, -0.0002565997, 0.000000022214387, 0.000068078654, -976332.94, -43083.07, 0.0, 10.0, 9.943291 
4.15e+2, 2.1471375e+2, -878045.94, -921409.9, -0.00073993334, 0.000000022373282, -0.00012682639, -878045.94, -42240.656, 0.0, 10.0, 9.942949 
4.15e+2, 2.2465037e+2, -789759.8, -843144.9, -0.000428003, 0.00000002226934, 0.000120880584, -789759.8, -51333.547, 0.0, 10.0, 9.929908 
4.15e+2, 2.3458035e+2, -691326.3, -744966.44, -0.00053489034, 0.000000021867834, -0.000088818015, -691326.3, -50213.78, 0.0, 10.0, 9.929577 
4.15e+2, 2.4450338e+2, -603002.25, -667018.8, -0.00008735198, 0.000000021635424, 0.00007470889, -603002.25, -59135.38, 0.0, 10.0, 9.916136 
4.15e+2, 2.5441962e+2, -504249.6, -568343.3, -0.0005364675, 0.000000021605285, -0.00010673628, -504249.6, -57562.04, 0.0, 10.0, 9.916036 
4.15e+2, 2.643288e+2, -416014.2, -490987.88, -0.0003596477, 0.000000021699034, 0.0001405948, -416014.2, -66436.51, 0.0, 10.0, 9.901964 
4.15e+2, 2.742313e+2, -316728.97, -391374.78, -0.0006324795, 0.000000021949958, -0.0002034437, -316728.97, -64195.96, 0.0, 10.0, 9.902385 
4.15e+2, 2.841256e+2, -230255.7, -318081.25, -0.000114425064, 0.000000022020798, 0.00022904595, -230255.7, -74686.734, 0.0, 10.0, 9.885439 
4.15e+2, 2.940121e+2, -130549.57, -217765.02, -0.00027654562, 0.00000002184446, -0.0002533433, -130549.57, -71868.17, 0.0, 10.0, 9.886217 
4.15e+2, 3.0392656e+2, -40805.555, -84750.16, 0.00013407704, 0.000000021622592, 0.00017313575, -40805.555, -40805.555, 0.0, 10.0, 9.942173 
4.15e+2, 3.138706e+2, -39727.543, -82511.21, -0.00023246561, 0.000000021335543, -0.000055142656, -39727.543, -39727.543, 0.0, 10.0, 9.943684 
4.25e+2, 1.2499334e+2, -1719946.1, -1724224.6, 0.00035143184, 0.000000024288465, 0.000017601897, -1719946.1, -4880.916, 0.0, 10.0, 9.994327 
4.25e+2, 1.349876e+2, -1622565.8, -1627434.9, 0.00007548543, 0.000000023877371, -0.00006840263, -1622565.8, -5444.13, 0.0, 10.0, 9.993545 
4.25e+2, 1.4497513e+2, -1534464.3, -1548146.3, 0.00028858084, 0.00000002374306, 0.000070921466, -1534464.3, -15220.637, 0.0, 10.0, 9.981865 
4.25e+2, 1.5495703e+2, -1436736.6, -1450821.9, -0.0002216586, 0.000000023886964, -0.000056978188, -1436736.6, -15315.456, 0.0, 10.0, 9.981333 
4.25e+2, 1.6493228e+2, -1348685.6, -1371952.4, 0.000092362294, 0.000000023745743, 0.000047343656, -1348685.6, -25021.95, 0.0, 10.0, 9.969248 
4.25e+2, 1.7490156e+2, -1250727.6, -1274310.1, -0.00018840324, 0.00000002331339, -0.0000738298, -1250727.6, -24762.93, 0.0, 10.0, 9.968835 
4.25e+2, 1.8486421e+2, -1162646.6, -1195720.1, 0.00007876461, 0.00000002307041, 0.0000661458, -1162646.6, -34315.984, 0.0, 10.0, 9.956395 
4.25e+2, 1.9482064e+2, -1064496.9, -1097833.0, -0.0004266295, 0.000000023025569, -0.000057655427, -1064496.9, -33739.316, 0.0, 10.0, 9.956052 
4.25e+2, 2.0477042e+2, -976332.94, -1019435.0, -0.00016065607, 0.000000023067392, 0.00006807914, -976332.94, -43083.063, 0.0, 10.0, 9.943291 
4.25e+2, 2.1471375e+2, -878045.94, -921409.9, -0.00036232357, 0.00000002320304, -0.00012682656, -878045.94, -42240.65, 0.0, 10.0, 9.942949 
4.25e+2, 2.2465037e+2, -789759.8, -843144.9, 0.00004095125, 0.000000023053659, 0.00012088029, -789759.8, -51333.543, 0.0, 10.0, 9.929908 
4.25e+2, 2.3458035e+2, -691326.3, -744966.44, -0.00040370732, 0.000000022581606, -0.000088817804, -691326.3, -50213.777, 0.0, 10.0, 9.929577 
4.25e+2, 2.4450338e+2, -603002.25, -667018.8, -0.000090689326, 0.000000022402848, 0.00007470925, -603002.25, -59135.375, 0.0, 10.0, 9.916136 
4.25e+2, 2.5441962e+2, -504249.6, -568343.3, -0.00033670908, 0.000000022574737, -0.00010673621, -504249.6, -57562.035, 0.0, 10.0, 9.916036 
4.25e+2, 2.643288e+2, -416014.2, -490987.88, -0.000046457688, 0.000000022662096, 0.00014059471, -416014.2, -66436.51, 0.0, 10.0, 9.901964 
4.25e+2, 2.742313e+2, -316728.97, -391374.78, -0.00038166944, 0.000000022641045, -0.00020344382, -316728.97, -64195.953, 0.0, 10.0, 9.902385 
4.25e+2, 2.841256e+2, -230255.7, -318081.25, 0.000058346974, 0.00000002260472, 0.00022904592, -230255.7, -74686.73, 0.0, 10.0, 9.885439 
4.25e+2, 2.940121e+2, -130549.56, -217765.0, -0.00030944412, 0.000000022548003, -0.00025334308, -130549.56, -71868.17, 0.0, 10.0, 9.886217 
4.25e+2, 3.0392656e+2, -40805.55, -84750.16, 0.000051909028, 0.000000022435584, 0.00017313601, -40805.55, -40805.55, 0.0, 10.0, 9.942173 
4.25e+2, 3.138706e+2, -39727.54, -82511.21, -0.00019962231, 0.000000022240755, -0.000055142733, -39727.54, -39727.54, 0.0, 10.0, 9.943684 
4.35e+2, 1.2499334e+2, -1719946.1, -1724224.6, 0.000017676495, 0.00000002523034, 0.000017603803, -1719946.1, -4880.917, 0.0, 10.0, 9.994327 
4.35e+2, 1.349876e+2, -1622565.8, -1627434.9, -0.00025835098, 0.000000024869488, -0.00006840296, -1622565.8, -5444.1304, 0.0, 10.0, 9.993545 
4.35e+2, 1.4497513e+2, -1534464.3, -1548146.3, -0.00004963986, 0.000000024615758, 0.00007092096, -1534464.3, -15220.638, 0.0, 10.0, 9.981865 
4.35e+2, 1.5495703e+2, -1436736.6, -1450821.9, -0.0005598873, 0.000000024469438, -0.000056977697, -1436736.6, -15315.457, 0.0, 10.0, 9.981333 
4.35e+2, 1.6493228e+2, -1348685.6, -1371952.4, -0.00012713057, 0.000000024338524, 0.00004734424, -1348685.6, -25021.951, 0.0, 10.0, 9.969248 
4.35e+2, 1.7490156e+2, -1250727.6, -1274310.1, -0.00040727045, 0.000000024223342, -0.00007383004, -1250727.6, -24762.93, 0.0, 10.0, 9.968835 
4.35e+2, 1.8486421e+2, -1162646.6, -1195720.1, -0.00016697224, 0.000000024114469, 0.000066145585, -1162646.6, -34315.984, 0.0, 10.0, 9.956395 
4.35e+2, 1.9482064e+2, -1064496.9, -1097833.0, -0.000672679, 0.000000024012186, -0.00005765473, -1064496.9, -33739.316, 0.0, 10.0, 9.956052 
4.35e+2, 2.0477042e+2, -976332.94, -1019435.0, -0.00039376388, 0.000000023901064, 0.00006807971, -976332.94, -43083.063, 0.0, 10.0, 9.943291 
4.35e+2, 2.1471375e+2, -878045.94, -921409.9, -0.00059516577, 0.000000023780364, -0.00012682725, -878045.94, -42240.65, 0.0, 10.0, 9.942949 
4.35e+2, 2.2465037e+2, -789759.8, -843144.9, -0.00007604363, 0.000000023620315, 0.00012087958, -789759.8, -51333.543, 0.0, 10.0, 9.929908 
4.35e+2, 2.3458035e+2, -691326.3, -744966.44, -0.0005169139, 0.00000002341571, -0.00008881716, -691326.3, -50213.777, 0.0, 10.0, 9.929577 
4.35e+2, 2.4450338e+2, -603002.25, -667018.8, -0.00031445714, 0.000000023460819, 0.0000747102, -603002.25, -59135.375, 0.0, 10.0, 9.916136 
4.35e+2, 2.5441962e+2, -504249.6, -568343.3, -0.0005657923, 0.000000023804246, -0.00010673618, -504249.6, -57562.035, 0.0, 10.0, 9.916036 
4.35e+2, 2.643288e+2, -416014.2, -490987.88, -0.000119088676, 0.00000002373123, 0.00014059425, -416014.2, -66436.51, 0.0, 10.0, 9.901964 
4.35e+2, 2.742313e+2, -316728.97, -391374.78, -0.0004438135, 0.000000023127514, -0.00020344422, -316728.97, -64195.957, 0.0, 10.0, 9.902385 
4.35e+2, 2.841256e+2, -230255.7, -318081.25, -0.000065285276, 0.00000002285922, 0.0002290459, -230255.7, -74686.73, 0.0, 10.0, 9.885439 
4.35e+2, 2.940121e+2, -130549.56, -217765.02, -0.00043861932, 0.000000023052399, -0.00025334238, -130549.56, -71868.17, 0.0, 10.0, 9.886217 
4.35e+2, 3.0392656e+2, -40805.55, -84750.16, -0.000047616933, 0.000000023283214, 0.0001731367, -40805.55, -40805.55, 0.0, 10.0, 9.942173 
4.35e+2, 3.138706e+2, -39727.54, -82511.21, -0.00029567064, 0.000000023565573, -0.0000551432, -39727.54, -39727.54, 0.0, 10.0, 9.943684 
4.45e+2, 1.2499334e+2, -1719946.1, -1724224.6, -0.000048016173, 0.000000026199281, 0.00001760444, -1719946.1, -4880.911, 0.0, 10.0, 9.994327 
4.45e+2, 1.349876e+2, -1622565.8, -1627434.9, -0.00021063328, 0.000000025900821, -0.00006840271, -1622565.8, -5444.1245, 0.0, 10.0, 9.993545 
4.45e+2, 1.4497513e+2, -1534464.3, -1548146.3, 0.00015102999, 0.000000025575613, 0.00007092135, -1534464.3, -15220.633, 0.0, 10.0, 9.981865 
4.45e+2, 1.5495703e+2, -1436736.6, -1450821.9, -0.00030091524, 0.00000002522294, -0.00005697754, -1436736.6, -15315.451, 0.0, 10.0, 9.981333 
4.45e+2, 1.6493228e+2, -1348685.6, -1371952.4, 0.000117977695, 0.000000025073167, 0.000047344358, -1348685.6, -25021.943, 0.0, 10.0, 9.969248 
4.45e+2, 1.7490156e+2, -1250727.6, -1274310.1, -0.0002055545, 0.00000002513057, -0.00007382977, -1250727.6, -24762.924, 0.0, 10.0, 9.968835 
4.45e+2, 1.8486421e+2, -1162646.6, -1195720.1, 0.00011041513, 0.000000025095236, 0.00006614582, -1162646.6, -34315.98, 0.0, 10.0, 9.956395 
4.45e+2, 1.9482064e+2, -1064496.9, -1097833.0, -0.00030183958, 0.000000024962851, -0.000057654735, -1064496.9, -33739.313, 0.0, 10.0, 9.956052 
4.45e+2, 2.0477042e+2, -976332.94, -1019435.0, 0.000028098855, 0.000000024745011, 0.00006807965, -976332.94, -43083.06, 0.0, 10.0, 9.943291 
4.45e+2, 2.1471375e+2, -878045.94, -921409.9, -0.0002836365, 0.000000024434623, -0.00012682716, -878045.94, -42240.645, 0.0, 10.0, 9.942949 
4.45e+2, 2.2465037e+2, -789759.8, -843144.9, 0.00014093664, 0.000000024320801, 0.000120879726, -789759.8, -51333.54, 0.0, 10.0, 9.929908 
4.45e+2, 2.3458035e+2, -691326.3, -744966.44, -0.00033119155, 0.000000024429486, -0.00008881705, -691326.3, -50213.773, 0.0, 10.0, 9.929577 
4.45e+2, 2.4450338e+2, -603002.25, -667018.8, -0.00014317199, 0.000000024528457, 0.00007471032, -603002.25, -59135.37, 0.0, 10.0, 9.916136 
4.45e+2, 2.5441962e+2, -504249.6, -568343.3, -0.0004524597, 0.00000002461559, -0.00010673604, -504249.6, -57562.03, 0.0, 10.0, 9.916036 
4.45e+2, 2.643288e+2, -416014.2, -490987.88, 0.00007690834, 0.000000024430497, 0.00014059435, -416014.2, -66436.5, 0.0, 10.0, 9.901964 
4.45e+2, 2.742313e+2, -316728.97, -391374.78, -0.00022426728, 0.000000023898963, -0.00020344419, -316728.97, -64195.95, 0.0, 10.0, 9.902385 
4.45e+2, 2.841256e+2, -230255.7, -318081.25, 0.00007218989, 0.000000023673541, 0.0002290459, -230255.7, -74686.73, 0.0, 10.0, 9.885439 
4.45e+2, 2.940121e+2, -130549.56, -217765.0, -0.00033286973, 0.00000002386861, -0.0002533423, -130549.56, -71868.164, 0.0, 10.0, 9.886217 
4.45e+2, 3.0392656e+2, -40805.547, -84750.16, 0.000092616756, 0.000000024137618, 0.00017313672, -40805.547, -40805.547, 0.0, 10.0, 9.942173 
4.45e+2, 3.138706e+2, -39727.535, -82511.21, -0.0000150528585, 0.000000024512405, -0.00005514341, -39727.535, -39727.535, 0.0, 10.0, 9.943684 
4.55e+2, 1.2499334e+2, -1719946.1, -1724224.6, -0.0003786669, 0.00000002719528, 0.000017603807, -1719946.1, -4880.9116, 0.0, 10.0, 9.994327 
4.55e+2, 1.349876e+2, -1622565.8, -1627434.9, -0.00054135465, 0.000000026971373, -0.0000684019, -1622565.8, -5444.1255, 0.0, 10.0, 9.993545 
4.55e+2, 1.4497513e+2, -1534464.3, -1548146.3, -0.000043196345, 0.000000026622624, 0.00007092264, -1534464.3, -15220.634, 0.0, 10.0, 9.981865 
4.55e+2, 1.5495703e+2, -1436736.6, -1450821.9, -0.0004949266, 0.000000026147468, -0.000056977722, -1436736.6, -15315.452, 0.0, 10.0, 9.981333 
4.55e+2, 1.6493228e+2, -1348685.6, -1371952.4, -0.00024108036, 0.00000002594967, 0.000047343994, -1348685.6, -25021.945, 0.0, 10.0, 9.969248 
4.55e+2, 1.7490156e+2, -1250727.6, -1274310.1, -0.0005654852, 0.000000026035076, -0.00007382899, -1250727.6, -24762.926, 0.0, 10.0, 9.968835 
4.55e+2, 1.8486421e+2, -1162646.6, -1195720.1, -0.0001200629, 0.000000026012714, 0.0000661465, -1162646.6, -34315.98, 0.0, 10.0, 9.956395 
4.55e+2, 1.9482064e+2, -1064496.9, -1097833.0, -0.00053082005, 0.000000025877567, -0.00005765543, -1064496.9, -33739.313, 0.0, 10.0, 9.956052 
4.55e+2, 2.0477042e+2, -976332.94, -1019435.0, -0.000104623185, 0.000000025599231, 0.000068078974, -976332.94, -43083.06, 0.0, 10.0, 9.943291 
4.55e+2, 2.1471375e+2, -878045.94, -921409.9, -0.0004143722, 0.000000025165818, -0.0001268263, -878045.94, -42240.645, 0.0, 10.0, 9.942949 
4.55e+2, 2.2465037e+2, -789759.8, -843144.9, -0.00014992175, 0.000000025155119, 0.00012088074, -789759.8, -51333.54, 0.0, 10.0, 9.929908 
4.55e+2, 2.3458035e+2, -691326.3, -744966.44, -0.0006272903, 0.000000025622937, -0.00008881745, -691326.3, -50213.773, 0.0, 10.0, 9.929577 
4.55e+2, 2.4450338e+2, -603002.25, -667018.8, -0.0002723332, 0.000000025605763, 0.00007470959, -603002.25, -59135.37, 0.0, 10.0, 9.916136 
4.55e+2, 2.5441962e+2, -504249.6, -568343.3, -0.0005736009, 0.000000025008768, -0.000106735795, -504249.6, -57562.03, 0.0, 10.0, 9.916036 
4.55e+2, 2.643288e+2, -416014.2, -490987.88, 0.000015272857, 0.000000024759895, 0.00014059503, -416014.2, -66436.5, 0.0, 10.0, 9.901964 
4.55e+2, 2.742313e+2, -316728.97, -391374.78, -0.0002819152, 0.000000024955392, -0.00020344376, -316728.97, -64195.95, 0.0, 10.0, 9.902385 
4.55e+2, 2.841256e+2, -230255.7, -318081.25, -0.000088650035, 0.000000025047685, 0.00022904592, -230255.7, -74686.73, 0.0, 10.0, 9.885439 
4.55e+2, 2.940121e+2, -130549.56, -217765.02, -0.0005030108, 0.000000024996632, -0.00025334282, -130549.56, -71868.164, 0.0, 10.0, 9.886217 
4.55e+2, 3.0392656e+2, -40805.547, -84750.16, -0.000117257616, 0.0000000249988, 0.00017313613, -40805.547, -40805.547, 0.0, 10.0, 9.942173 
4.55e+2, 3.138706e+2, -39727.535, -82511.21, -0.00022959516, 0.00000002508125, -0.000055143366, -39727.535, -39727.535, 0.0, 10.0, 9.943684 
4.65e+2, 1.2499334e+2, -1719946.1, -1724224.6, 0.0008179223, 0.000000028077402, 0.000017603094, -1719946.1, -4880.9043, 0.0, 10.0, 9.994327 
4.65e+2, 1.349876e+2, -1622565.6, -1627434.9, -0.00010371058, 0.000000027757594, -0.00006840159, -1622565.6, -5444.118, 0.0, 10.0, 9.993545 
4.65e+2, 1.4497513e+2, -1534464.3, -1548146.3, 0.0002096771, 0.000000027485783, 0.00007092349, -1534464.3, -15220.627, 0.0, 10.0, 9.981865 
4.65e+2, 1.5495703e+2, -1436736.6, -1450821.9, -0.000002354099, 0.000000027261333, -0.000056977853, -1436736.6, -15315.446, 0.0, 10.0, 9.981333 
4.65e+2, 1.6493228e+2, -1348685.6, -1371952.4, 0.0002501521, 0.000000027068673, 0.000047343725, -1348685.6, -25021.94, 0.0, 10.0, 9.969248 
4.65e+2, 1.7490156e+2, -1250727.6, -1274310.1, -0.00033329736, 0.00000002690847, -0.00007382854, -1250727.6, -24762.92, 0.0, 10.0, 9.968835 
4.65e+2, 1.8486421e+2, -1162646.6, -1195720.1, 0.000107474734, 0.000000026781708, 0.000066147004, -1162646.6, -34315.973, 0.0, 10.0, 9.956395 
4.65e+2, 1.9482064e+2, -1064496.9, -1097833.0, -0.0001171417, 0.00000002668992, -0.00005765558, -1064496.9, -33739.31, 0.0, 10.0, 9.956052 
4.65e+2, 2.0477042e+2, -976332.94, -1019435.0, 0.000290626, 0.000000026501647, 0.00006807878, -976332.94, -43083.055, 0.0, 10.0, 9.943291 
4.65e+2, 2.1471375e+2, -878045.94, -921409.9, -0.0003712675, 0.000000026208866, -0.00012682588, -878045.94, -42240.64, 0.0, 10.0, 9.942949 
4.65e+2, 2.2465037e+2, -789759.8, -843144.9, -0.0001571944, 0.000000026189944, 0.00012088124, -789759.8, -51333.535, 0.0, 10.0, 9.929908 
4.65e+2, 2.3458035e+2, -691326.3, -744966.44, -0.00025883445, 0.000000026481032, -0.00008881749, -691326.3, -50213.77, 0.0, 10.0, 9.929577 
4.65e+2, 2.4450338e+2, -603002.25, -667018.8, 0.0002979834, 0.00000002633921, 0.00007470935, -603002.25, -59135.367, 0.0, 10.0, 9.916136 
4.65e+2, 2.5441962e+2, -504249.6, -568343.3, -0.00029353512, 0.00000002567994, -0.000106735824, -504249.6, -57562.023, 0.0, 10.0, 9.916036 
4.65e+2, 2.643288e+2, -416014.2, -490987.88, 0.000020064024, 0.000000025537155, 0.00014059519, -416014.2, -66436.49, 0.0, 10.0, 9.901964 
4.65e+2, 2.742313e+2, -316728.94, -391374.78, -0.00030030374, 0.000000026052863, -0.00020344344, -316728.94, -64195.945, 0.0, 10.0, 9.902385 
4.65e+2, 2.841256e+2, -230255.69, -318081.25, 0.000097661934, 0.00000002627555, 0.0002290461, -230255.69, -74686.72, 0.0, 10.0, 9.885439 
4.65e+2, 2.940121e+2, -130549.555, -217765.0, -0.000015641921, 0.000000026094147, -0.00025334326, -130549.555, -71868.16, 0.0, 10.0, 9.886217 
4.65e+2, 3.0392656e+2, -40805.54, -84750.16, 0.00037294527, 0.00000002587198, 0.00017313566, -40805.54, -40805.54, 0.0, 10.0, 9.942173 
4.65e+2, 3.138706e+2, -39727.527, -82511.21, -0.00024664047, 0.000000025593094, -0.00005514304, -39727.527, -39727.527, 0.0, 10.0, 9.943684 
4.75e+2, 1.2499334e+2, -1719946.1, -1724224.6, 0.0004276872, 0.00000002884564, 0.000017602306, -1719946.1, -4880.9067, 0.0, 10.0, 9.994327 
4.75e+2, 1.349876e+2, -1622565.8, -1627434.9, -0.0004940391, 0.000000028259484, -0.00006840177, -1622565.8, -5444.1206, 0.0, 10.0, 9.993545 
4.75e+2, 1.4497513e+2, -1534464.3, -1548146.3, -0.00016595275, 0.000000028165086, 0.00007092391, -1534464.3, -15220.628, 0.0, 10.0, 9.981865 
4.75e+2, 1.5495703e+2, -1436736.6, -1450821.9, -0.00037796207, 0.000000028564532, -0.000056977926, -1436736.6, -15315.446, 0.0, 10.0, 9.981333 
4.75e+2, 1.6493228e+2, -1348685.6, -1371952.4, 0.00004693589, 0.000000028430168, 0.000047343547, -1348685.6, -25021.941, 0.0, 10.0, 9.969248 
4.75e+2, 1.7490156e+2, -1250727.6, -1274310.1, -0.00053560553, 0.000000027750751, -0.00007382842, -1250727.6, -24762.92, 0.0, 10.0, 9.968835 
4.75e+2, 1.8486421e+2, -1162646.6, -1195720.1, -0.00015195229, 0.00000002740222, 0.00006614732, -1162646.6, -34315.973, 0.0, 10.0, 9.956395 
4.75e+2, 1.9482064e+2, -1064496.9, -1097833.0, -0.00037723203, 0.000000027399906, -0.00005765519, -1064496.9, -33739.31, 0.0, 10.0, 9.956052 
4.75e+2, 2.0477042e+2, -976332.94, -1019435.0, 0.000039596183, 0.000000027452261, 0.000068079076, -976332.94, -43083.055, 0.0, 10.0, 9.943291 
4.75e+2, 2.1471375e+2, -878045.94, -921409.9, -0.0006221118, 0.000000027563773, -0.00012682586, -878045.94, -42240.64, 0.0, 10.0, 9.942949 
4.75e+2, 2.2465037e+2, -789759.8, -843144.9, -0.00032734813, 0.00000002742528, 0.00012088124, -789759.8, -51333.535, 0.0, 10.0, 9.929908 
4.75e+2, 2.3458035e+2, -691326.3, -744966.44, -0.0004263509, 0.000000027003773, -0.00008881718, -691326.3, -50213.77, 0.0, 10.0, 9.929577 
4.75e+2, 2.4450338e+2, -603002.25, -667018.8, 0.00022228717, 0.000000026728797, 0.00007470959, -603002.25, -59135.367, 0.0, 10.0, 9.916136 
4.75e+2, 2.5441962e+2, -504249.6, -568343.3, -0.00036482056, 0.000000026629104, -0.00010673612, -504249.6, -57562.027, 0.0, 10.0, 9.916036 
4.75e+2, 2.643288e+2, -416014.2, -490987.88, -0.0003153198, 0.000000026762274, 0.00014059484, -416014.2, -66436.5, 0.0, 10.0, 9.901964 
4.75e+2, 2.742313e+2, -316728.94, -391374.78, -0.0006533971, 0.000000027191376, -0.00020344321, -316728.94, -64195.945, 0.0, 10.0, 9.902385 
4.75e+2, 2.841256e+2, -230255.69, -318081.25, 0.000026673462, 0.000000027357139, 0.0002290464, -230255.69, -74686.72, 0.0, 10.0, 9.885439 
4.75e+2, 2.940121e+2, -130549.555, -217765.0, -0.00006121413, 0.000000027161155, -0.00025334358, -130549.555, -71868.16, 0.0, 10.0, 9.886217 
4.75e+2, 3.0392656e+2, -40805.543, -84750.16, 0.0004507443, 0.000000026757162, 0.00017313534, -40805.543, -40805.543, 0.0, 10.0, 9.942173 
4.75e+2, 3.138706e+2, -39727.53, -82511.21, -0.0001543613, 0.00000002604793, -0.000055142424, -39727.53, -39727.53, 0.0, 10.0, 9.943684 
4.85e+2, 1.2499334e+2, -1719946.1, -1724224.6, 0.00040838256, 0.00000002984259, 0.000017603232, -1719946.1, -4880.9, 0.0, 10.0, 9.994327 
4.85e+2, 1.349876e+2, -1622565.6, -1627434.9, 0.00015071798, 0.000000029166491, -0.000068402216, -1622565.6, -5444.1133, 0.0, 10.0, 9.993545 
4.85e+2, 1.4497514e+2, -1534464.3, -1548146.3, 0.00056407927, 0.000000029034391, 0.000070923656, -1534464.3, -15220.62, 0.0, 10.0, 9.981865 
4.85e+2, 1.5495703e+2, -1436736.6, -1450821.9, -0.0000653317, 0.000000029448548, -0.00005697757, -1436736.6, -15315.439, 0.0, 10.0, 9.981333 
4.85e+2, 1.6493228e+2, -1348685.6, -1371952.4, 0.00039527196, 0.00000002935762, 0.000047343954, -1348685.6, -25021.934, 0.0, 10.0, 9.969248 
4.85e+2, 1.7490156e+2, -1250727.6, -1274310.1, -0.000023149898, 0.000000028750971, -0.000073828545, -1250727.6, -24762.914, 0.0, 10.0, 9.968835 
4.85e+2, 1.8486421e+2, -1162646.6, -1195720.1, 0.00025826102, 0.000000028397787, 0.000066147244, -1162646.6, -34315.97, 0.0, 10.0, 9.956395 
4.85e+2, 1.9482064e+2, -1064496.9, -1097833.0, -0.0003268883, 0.000000028309808, -0.000057654575, -1064496.9, -33739.3, 0.0, 10.0, 9.956052 
4.85e+2, 2.0477042e+2, -976332.94, -1019435.0, 0.000124516, 0.000000028373236, 0.00006807961, -976332.94, -43083.047, 0.0, 10.0, 9.943291 
4.85e+2, 2.1471375e+2, -878045.94, -921409.9, -0.000031219275, 0.000000028600597, -0.00012682624, -878045.94, -42240.633, 0.0, 10.0, 9.942949 
4.85e+2, 2.2465037e+2, -789759.8, -843144.9, 0.00036401371, 0.000000028406554, 0.00012088082, -789759.8, -51333.527, 0.0, 10.0, 9.929908 
4.85e+2, 2.3458035e+2, -691326.3, -744966.44, -0.00039888764, 0.000000027735444, -0.0000888167, -691326.3, -50213.76, 0.0, 10.0, 9.929577 
4.85e+2, 2.4450338e+2, -603002.25, -667018.8, 0.000057633497, 0.000000027534327, 0.000074710224, -603002.25, -59135.36, 0.0, 10.0, 9.916136 
4.85e+2, 2.5441962e+2, -504249.6, -568343.3, 0.00002622789, 0.000000027895073, -0.00010673624, -504249.6, -57562.02, 0.0, 10.0, 9.916036 
4.85e+2, 2.643288e+2, -416014.16, -490987.88, 0.0003143487, 0.000000028069568, 0.0001405944, -416014.16, -66436.49, 0.0, 10.0, 9.901964 
4.85e+2, 2.742313e+2, -316728.94, -391374.78, -0.0002753255, 0.000000028005708, -0.00020344344, -316728.94, -64195.94, 0.0, 10.0, 9.902385 
4.85e+2, 2.841256e+2, -230255.69, -318081.25, 0.0001475719, 0.000000027929023, 0.00022904649, -230255.69, -74686.71, 0.0, 10.0, 9.885439 
4.85e+2, 2.940121e+2, -130549.55, -217765.0, -0.0003811855, 0.000000027835906, -0.000253343, -130549.55, -71868.16, 0.0, 10.0, 9.886217 
4.85e+2, 3.0392656e+2, -40805.535, -84750.16, 0.000059239355, 0.000000027646669, 0.00017313591, -40805.535, -40805.535, 0.0, 10.0, 9.942173 
4.85e+2, 3.138706e+2, -39727.523, -82511.21, -0.00017974264, 0.000000027315057, -0.0000551426, -39727.523, -39727.523, 0.0, 10.0, 9.943684 
4.95e+2, 1.2499334e+2, -1719946.1, -1724224.6, 0.000081313905, 0.000000031068247, 0.000017605877, -1719946.1, -4880.901, 0.0, 10.0, 9.994327 
4.95e+2, 1.349876e+2, -1622565.6, -1627434.9, -0.0001764269, 0.000000030478617, -0.00006840293, -1622565.6, -5444.1143, 0.0, 10.0, 9.993545 
4.95e+2, 1.4497514e+2, -1534464.3, -1548146.3, 0.00013650839, 0.000000030093698, 0.00007092272, -1534464.3, -15220.621, 0.0, 10.0, 9.981865 
4.95e+2, 1.5495703e+2, -1436736.6, -1450821.9, -0.0004930638, 0.00000002991338, -0.000056976776, -1436736.6, -15315.44, 0.0, 10.0, 9.981333 
4.95e+2, 1.6493228e+2, -1348685.6, -1371952.4, 0.00012442395, 0.00000002985103, 0.000047344944, -1348685.6, -25021.936, 0.0, 10.0, 9.969248 
4.95e+2, 1.7490156e+2, -1250727.6, -1274310.1, -0.00029317132, 0.00000002990913, -0.00007382893, -1250727.6, -24762.914, 0.0, 10.0, 9.968835 
4.95e+2, 1.8486421e+2, -1162646.6, -1195720.1, 0.000021392088, 0.000000029768414, 0.00006614679, -1162646.6, -34315.97, 0.0, 10.0, 9.956395 
4.95e+2, 1.9482064e+2, -1064496.9, -1097833.0, -0.00056337554, 0.000000029419628, -0.00005765374, -1064496.9, -33739.3, 0.0, 10.0, 9.956052 
4.95e+2, 2.0477042e+2, -976332.94, -1019435.0, -0.00016449971, 0.000000029264573, 0.000068080386, -976332.94, -43083.047, 0.0, 10.0, 9.943291 
4.95e+2, 2.1471375e+2, -878045.94, -921409.9, -0.0003213223, 0.000000029319343, -0.00012682697, -878045.94, -42240.633, 0.0, 10.0, 9.942949 
4.95e+2, 2.2465037e+2, -789759.8, -843144.9, 0.00027752088, 0.00000002913377, 0.000120879966, -789759.8, -51333.53, 0.0, 10.0, 9.929908 
4.95e+2, 2.3458035e+2, -691326.3, -744966.44, -0.00047872105, 0.000000028676043, -0.00008881606, -691326.3, -50213.76, 0.0, 10.0, 9.929577 
4.95e+2, 2.4450338e+2, -603002.25, -667018.8, -0.0002787052, 0.000000028755796, 0.00007471124, -603002.25, -59135.36, 0.0, 10.0, 9.916136 
4.95e+2, 2.5441962e+2, -504249.6, -568343.3, -0.00032244017, 0.000000029477842, -0.00010673616, -504249.6, -57562.02, 0.0, 10.0, 9.916036 
4.95e+2, 2.643288e+2, -416014.2, -490987.88, 0.00029699723, 0.000000029459038, 0.00014059388, -416014.2, -66436.49, 0.0, 10.0, 9.901964 
4.95e+2, 2.742313e+2, -316728.94, -391374.78, -0.0002704662, 0.00000002849586, -0.00020344413, -316728.94, -64195.94, 0.0, 10.0, 9.902385 
4.95e+2, 2.841256e+2, -230255.69, -318081.25, 0.000026489657, 0.000000027991208, 0.00022904637, -230255.69, -74686.71, 0.0, 10.0, 9.885439 
4.95e+2, 2.940121e+2, -130549.55, -217765.0, -0.000513618, 0.000000028118404, -0.00025334154, -130549.55, -71868.16, 0.0, 10.0, 9.886217 
4.95e+2, 3.0392656e+2, -40805.535, -84750.16, -0.00010496387, 0.000000028540502, 0.00017313733, -40805.535, -40805.535, 0.0, 10.0, 9.942173 
4.95e+2, 3.138706e+2, -39727.523, -82511.21, -0.00034767835, 0.000000029394474, -0.00005514356, -39727.523, -39727.523, 0.0, 10.0, 9.943684 
5.05e+2, 1.2499334e+2, -1719946.1, -1724224.6, 0.000015167966, 0.000000032190687, 0.00001760663, -1719946.1, -4880.8936, 0.0, 10.0, 9.994327 
5.05e+2, 1.349876e+2, -1622565.6, -1627434.9, -0.00019338517, 0.000000031805477, -0.00006840265, -1622565.6, -5444.1074, 0.0, 10.0, 9.993545 
5.05e+2, 1.4497514e+2, -1534464.3, -1548146.3, 0.00028214807, 0.000000031326287, 0.00007092326, -1534464.3, -15220.615, 0.0, 10.0, 9.981865 
5.05e+2, 1.5495703e+2, -1436736.6, -1450821.9, -0.00026379555, 0.00000003075082, -0.00005697645, -1436736.6, -15315.434, 0.0, 10.0, 9.981333 
5.05e+2, 1.6493228e+2, -1348685.6, -1371952.4, 0.00034625144, 0.000000030608874, 0.000047345166, -1348685.6, -25021.926, 0.0, 10.0, 9.969248 
5.05e+2, 1.7490156e+2, -1250727.6, -1274310.1, -0.000014833201, 0.00000003090959, -0.00007382869, -1250727.6, -24762.908, 0.0, 10.0, 9.968835 
5.05e+2, 1.8486421e+2, -1162646.6, -1195720.1, 0.00047380026, 0.000000030902672, 0.0000661469, -1162646.6, -34315.96, 0.0, 10.0, 9.956395 
5.05e+2, 1.9482064e+2, -1064496.9, -1097833.0, -0.000020346051, 0.00000003057383, -0.00005765391, -1064496.9, -33739.297, 0.0, 10.0, 9.956052 
5.05e+2, 2.0477042e+2, -976332.94, -1019435.0, 0.00031486296, 0.000000030300512, 0.00006808035, -976332.94, -43083.043, 0.0, 10.0, 9.943291 
5.05e+2, 2.1471375e+2, -878045.94, -921409.9, -0.0001876712, 0.000000030087353, -0.00012682643, -878045.94, -42240.625, 0.0, 10.0, 9.942949 
5.05e+2, 2.2465037e+2, -789759.8, -843144.9, 0.00041486605, 0.000000029962752, 0.00012088042, -789759.8, -51333.523, 0.0, 10.0, 9.929908 
5.05e+2, 2.3458035e+2, -691326.3, -744966.44, 0.00008004424, 0.000000029938338, -0.00008881647, -691326.3, -50213.758, 0.0, 10.0, 9.929577 
5.05e+2, 2.4450338e+2, -603002.25, -667018.8, 0.0002271055, 0.000000030056313, 0.00007471079, -603002.25, -59135.355, 0.0, 10.0, 9.916136 
5.05e+2, 2.5441962e+2, -504249.56, -568343.3, -0.0004088535, 0.000000030344264, -0.00010673565, -504249.56, -57562.01, 0.0, 10.0, 9.916036 
5.05e+2, 2.643288e+2, -416014.16, -490987.88, 0.000205793, 0.000000030165687, 0.00014059462, -416014.16, -66436.484, 0.0, 10.0, 9.901964 
5.05e+2, 2.742313e+2, -316728.94, -391374.78, -0.00005208896, 0.00000002939295, -0.00020344411, -316728.94, -64195.934, 0.0, 10.0, 9.902385 
5.05e+2, 2.841256e+2, -230255.67, -318081.25, 0.00029265546, 0.000000028992003, 0.0002290461, -230255.67, -74686.71, 0.0, 10.0, 9.885439 
5.05e+2, 2.940121e+2, -130549.54, -217765.0, -0.00023763214, 0.000000029102553, -0.00025334154, -130549.54, -71868.15, 0.0, 10.0, 9.886217 
5.05e+2, 3.0392656e+2, -40805.527, -84750.16, 0.00017705905, 0.000000029570865, 0.00017313736, -40805.527, -40805.527, 0.0, 10.0, 9.942173 
5.05e+2, 3.138706e+2, -39727.52, -82511.21, 0.00010777795, 0.000000030565403, -0.00005514388, -39727.52, -39727.52, 0.0, 10.0, 9.943684 
5.15e+2, 1.2499334e+2, -1719946.1, -1724224.6, -0.00040755473, 0.000000033209908, 0.000017605495, -1719946.1, -4880.894, 0.0, 10.0, 9.994327 
5.15e+2, 1.349876e+2, -1622565.6, -1627434.9, -0.000616192, 0.000000033147064, -0.00006840141, -1622565.6, -5444.1084, 0.0, 10.0, 9.993545 
5.15e+2, 1.4497514e+2, -1534464.3, -1548146.3, 0.00015063993, 0.000000032732164, 0.000070925285, -1534464.3, -15220.617, 0.0, 10.0, 9.981865 
5.15e+2, 1.5495703e+2, -1436736.6, -1450821.9, -0.0003948443, 0.000000031960862, -0.00005697659, -1436736.6, -15315.435, 0.0, 10.0, 9.981333 
5.15e+2, 1.6493228e+2, -1348685.6, -1371952.4, -0.000099814126, 0.000000031631156, 0.000047344623, -1348685.6, -25021.928, 0.0, 10.0, 9.969248 
5.15e+2, 1.7490156e+2, -1250727.6, -1274310.1, -0.00046256412, 0.000000031752343, -0.00007382783, -1250727.6, -24762.908, 0.0, 10.0, 9.968835 
5.15e+2, 1.8486421e+2, -1162646.6, -1195720.1, 0.00019217256, 0.000000031800564, 0.00006614758, -1162646.6, -34315.965, 0.0, 10.0, 9.956395 
5.15e+2, 1.9482064e+2, -1064496.9, -1097833.0, -0.00030005234, 0.000000031772416, -0.00005765509, -1064496.9, -33739.297, 0.0, 10.0, 9.956052 
5.15e+2, 2.0477042e+2, -976332.94, -1019435.0, 0.0001960458, 0.000000031481054, 0.0000680795, -976332.94, -43083.043, 0.0, 10.0, 9.943291 
5.15e+2, 2.1471375e+2, -878045.94, -921409.9, -0.0003031677, 0.00000003090463, -0.0001268246, -878045.94, -42240.63, 0.0, 10.0, 9.942949 
5.15e+2, 2.2465037e+2, -789759.8, -843144.9, 0.000075145545, 0.000000030893503, 0.00012088217, -789759.8, -51333.523, 0.0, 10.0, 9.929908 
5.15e+2, 2.3458035e+2, -691326.3, -744966.44, -0.000267014, 0.000000031522333, -0.00008881794, -691326.3, -50213.758, 0.0, 10.0, 9.929577 
5.15e+2, 2.4450338e+2, -603002.25, -667018.8, 0.00010475508, 0.000000031435874, 0.00007470887, -603002.25, -59135.355, 0.0, 10.0, 9.916136 
5.15e+2, 2.5441962e+2, -504249.56, -568343.3, -0.00052040804, 0.000000030494334, -0.00010673471, -504249.56, -57562.016, 0.0, 10.0, 9.916036 
5.15e+2, 2.643288e+2, -416014.16, -490987.88, 0.00015712917, 0.00000003018951, 0.0001405966, -416014.16, -66436.484, 0.0, 10.0, 9.901964 
5.15e+2, 2.742313e+2, -316728.94, -391374.78, -0.00009653789, 0.00000003069698, -0.00020344339, -316728.94, -64195.934, 0.0, 10.0, 9.902385 
5.15e+2, 2.841256e+2, -230255.69, -318081.25, 0.000103831364, 0.00000003093141, 0.00022904566, -230255.69, -74686.71, 0.0, 10.0, 9.885439 
5.15e+2, 2.940121e+2, -130549.55, -217765.02, -0.00043946813, 0.000000030788357, -0.00025334302, -130549.55, -71868.15, 0.0, 10.0, 9.886217 
5.15e+2, 3.0392656e+2, -40805.53, -84750.16, -0.00014288232, 0.00000003073776, 0.00017313598, -40805.53, -40805.53, 0.0, 10.0, 9.942173 
5.15e+2, 3.138706e+2, -39727.52, -82511.21, -0.00022603199, 0.00000003082784, -0.000055143555, -39727.52, -39727.52, 0.0, 10.0, 9.943684 
5.25e+2, 1.2499334e+2, -1719946.1, -1724224.6, 0.001019331, 0.000000034293734, 0.000017604669, -1719946.1, -4880.8857, 0.0, 10.0, 9.994327 
5.25e+2, 1.349876e+2, -1622565.6, -1627434.9, -0.00017676085, 0.000000033989345, -0.000068401016, -1622565.6, -5444.0996, 0.0, 10.0, 9.993545 
5.25e+2, 1.4497514e+2, -1534464.3, -1548146.3, 0.0003873234, 0.00000003368385, 0.000070926384, -1534464.3, -15220.608, 0.0, 10.0, 9.981865 
5.25e+2, 1.5495703e+2, -1436736.6, -1450821.9, 0.0002077909, 0.00000003337477, -0.000056976678, -1436736.6, -15315.428, 0.0, 10.0, 9.981333 
5.25e+2, 1.6493228e+2, -1348685.6, -1371952.4, 0.0005289872, 0.000000033071757, 0.000047344307, -1348685.6, -25021.922, 0.0, 10.0, 9.969248 
5.25e+2, 1.7490156e+2, -1250727.6, -1274310.1, -0.00016277755, 0.000000032774935, -0.0000738274, -1250727.6, -24762.9, 0.0, 10.0, 9.968835 
5.25e+2, 1.8486421e+2, -1162646.6, -1195720.1, 0.0004506523, 0.000000032655432, 0.000066148095, -1162646.6, -34315.953, 0.0, 10.0, 9.956395 
5.25e+2, 1.9482064e+2, -1064496.9, -1097833.0, 0.00016391667, 0.000000032721445, -0.000057655176, -1064496.9, -33739.29, 0.0, 10.0, 9.956052 
5.25e+2, 2.0477042e+2, -976332.94, -1019435.0, 0.0006819811, 0.000000032538818, 0.000068079346, -976332.94, -43083.035, 0.0, 10.0, 9.943291 
5.25e+2, 2.1471375e+2, -878045.94, -921409.9, -0.00015563586, 0.000000032086877, -0.00012682422, -878045.94, -42240.62, 0.0, 10.0, 9.942949 
5.25e+2, 2.2465037e+2, -789759.8, -843144.9, 0.000114525756, 0.0000000320851, 0.000120882614, -789759.8, -51333.516, 0.0, 10.0, 9.929908 
5.25e+2, 2.3458035e+2, -691326.3, -744966.44, 0.00006799197, 0.000000032592958, -0.00008881792, -691326.3, -50213.75, 0.0, 10.0, 9.929577 
5.25e+2, 2.4450338e+2, -603002.25, -667018.8, 0.0007107585, 0.0000000323603, 0.00007470872, -603002.25, -59135.348, 0.0, 10.0, 9.916136 
5.25e+2, 2.5441962e+2, -504249.56, -568343.3, -0.00014950833, 0.00000003124255, -0.00010673474, -504249.56, -57562.008, 0.0, 10.0, 9.916036 
5.25e+2, 2.643288e+2, -416014.16, -490987.88, 0.00017229124, 0.00000003103063, 0.00014059676, -416014.16, -66436.48, 0.0, 10.0, 9.901964 
5.25e+2, 2.742313e+2, -316728.94, -391374.78, -0.00011928361, 0.00000003197356, -0.00020344295, -316728.94, -64195.93, 0.0, 10.0, 9.902385 
5.25e+2, 2.841256e+2, -230255.67, -318081.25, 0.00039663306, 0.000000032439004, 0.00022904584, -230255.67, -74686.7, 0.0, 10.0, 9.885439 
5.25e+2, 2.940121e+2, -130549.54, -217765.0, 0.00033816963, 0.000000032245616, -0.00025334384, -130549.54, -71868.14, 0.0, 10.0, 9.886217 
5.25e+2, 3.0392656e+2, -40805.523, -84750.16, 0.00061348785, 0.000000031855098, 0.00017313515, -40805.523, -40805.523, 0.0, 10.0, 9.942173 
5.25e+2, 3.138706e+2, -39727.51, -82511.21, -0.00041062324, 0.000000031178104, -0.000055142857, -39727.51, -39727.51, 0.0, 10.0, 9.943684 
5.35e+2, 1.2499334e+2, -1719946.1, -1724224.6, 0.00060285674, 0.00000003544216, 0.000017604152, -1719946.1, -4880.8887, 0.0, 10.0, 9.994327 
5.35e+2, 1.349876e+2, -1622565.6, -1627434.9, -0.0005933334, 0.000000034332313, -0.00006840149, -1622565.6, -5444.103, 0.0, 10.0, 9.993545 
5.35e+2, 1.4497514e+2, -1534464.3, -1548146.3, -0.000101598635, 0.00000003418135, 0.00007092656, -1534464.3, -15220.609, 0.0, 10.0, 9.981865 
5.35e+2, 1.5495703e+2, -1436736.6, -1450821.9, -0.0002812484, 0.000000034992542, -0.00005697671, -1436736.6, -15315.429, 0.0, 10.0, 9.981333 
5.35e+2, 1.6493228e+2, -1348685.6, -1371952.4, 0.00035807997, 0.000000034930675, 0.000047344216, -1348685.6, -25021.924, 0.0, 10.0, 9.969248 
5.35e+2, 1.7490156e+2, -1250727.6, -1274310.1, -0.0003320087, 0.00000003397737, -0.000073827396, -1250727.6, -24762.902, 0.0, 10.0, 9.968835 
5.35e+2, 1.8486421e+2, -1162646.6, -1195720.1, 0.00016657794, 0.00000003346727, 0.00006614846, -1162646.6, -34315.957, 0.0, 10.0, 9.956395 
5.35e+2, 1.9482064e+2, -1064496.9, -1097833.0, -0.000121490375, 0.000000033420925, -0.000057654175, -1064496.9, -33739.29, 0.0, 10.0, 9.956052 
5.35e+2, 2.0477042e+2, -976332.94, -1019435.0, 0.00038832478, 0.00000003347381, 0.00006807989, -976332.94, -43083.04, 0.0, 10.0, 9.943291 
5.35e+2, 2.1471375e+2, -878045.94, -921409.9, -0.00044946463, 0.0000000336341, -0.00012682533, -878045.94, -42240.625, 0.0, 10.0, 9.942949 
5.35e+2, 2.2465037e+2, -789759.8, -843144.9, -0.00009049137, 0.000000033537546, 0.000120881756, -789759.8, -51333.516, 0.0, 10.0, 9.929908 
5.35e+2, 2.3458035e+2, -691326.3, -744966.44, -0.00013412297, 0.000000033150215, -0.0000888164, -691326.3, -50213.75, 0.0, 10.0, 9.929577 
5.35e+2, 2.4450338e+2, -603002.25, -667018.8, 0.00072104734, 0.000000032829593, 0.00007471034, -603002.25, -59135.35, 0.0, 10.0, 9.916136 
5.35e+2, 2.5441962e+2, -504249.56, -568343.3, -0.00012901342, 0.000000032588915, -0.00010673573, -504249.56, -57562.008, 0.0, 10.0, 9.916036 
5.35e+2, 2.643288e+2, -416014.16, -490987.88, -0.00028640885, 0.000000032689037, 0.0001405951, -416014.16, -66436.48, 0.0, 10.0, 9.901964 
5.35e+2, 2.742313e+2, -316728.94, -391374.78, -0.0006101149, 0.000000033222687, -0.00020344279, -316728.94, -64195.93, 0.0, 10.0, 9.902385 
5.35e+2, 2.841256e+2, -230255.67, -318081.25, 0.00030712213, 0.000000033514784, 0.00022904664, -230255.67, -74686.7, 0.0, 10.0, 9.885439 
5.35e+2, 2.940121e+2, -130549.54, -217765.0, 0.00028481716, 0.00000003347433, -0.000253344, -130549.54, -71868.14, 0.0, 10.0, 9.886217 
5.35e+2, 3.0392656e+2, -40805.523, -84750.164, 0.00086064066, 0.000000032922888, 0.0001731349, -40805.523, -40805.523, 0.0, 10.0, 9.942173 
5.35e+2, 3.138706e+2, -39727.51, -82511.21, -0.00012819473, 0.00000003161619, -0.000055141783, -39727.51, -39727.51, 0.0, 10.0, 9.943684 
5.45e+2, 1.2499334e+2, -1719946.1, -1724224.6, 0.00050099887, 0.000000036616626, 0.000017605462, -1719946.1, -4880.8804, 0.0, 10.0, 9.994327 
5.45e+2, 1.349876e+2, -1622565.6, -1627434.9, 0.00036635704, 0.00000003542678, -0.00006840236, -1622565.6, -5444.094, 0.0, 10.0, 9.993545 
5.45e+2, 1.4497514e+2, -1534464.3, -1548146.3, 0.00093002047, 0.000000035221117, 0.00007092593, -1534464.3, -15220.6, 0.0, 10.0, 9.981865 
5.45e+2, 1.5495703e+2, -1436736.6, -1450821.9, 0.00005181591, 0.000000036002707, -0.000056976187, -1436736.6, -15315.42, 0.0, 10.0, 9.981333 
5.45e+2, 1.6493228e+2, -1348685.6, -1371952.4, 0.0007012361, 0.00000003600561, 0.000047344893, -1348685.6, -25021.914, 0.0, 10.0, 9.969248 
5.45e+2, 1.7490156e+2, -1250727.6, -1274310.1, 0.00021833036, 0.000000035213443, -0.00007382759, -1250727.6, -24762.895, 0.0, 10.0, 9.968835 
5.45e+2, 1.8486421e+2, -1162646.6, -1195720.1, 0.0005927867, 0.000000034699873, 0.000066148335, -1162646.6, -34315.95, 0.0, 10.0, 9.956395 
5.45e+2, 1.9482064e+2, -1064496.9, -1097833.0, -0.00013422706, 0.0000000344778, -0.00005765323, -1064496.9, -33739.28, 0.0, 10.0, 9.956052 
5.45e+2, 2.0477042e+2, -976332.94, -1019435.0, 0.00048439595, 0.000000034536523, 0.00006808061, -976332.94, -43083.027, 0.0, 10.0, 9.943291 
5.45e+2, 2.1471375e+2, -878045.9, -921409.9, 0.00048553504, 0.0000000348993, -0.00012682623, -878045.9, -42240.617, 0.0, 10.0, 9.942949 
5.45e+2, 2.2465037e+2, -789759.8, -843144.9, 0.0009115986, 0.00000003470558, 0.0001208809, -789759.8, -51333.508, 0.0, 10.0, 9.929908 
5.45e+2, 2.3458035e+2, -691326.3, -744966.44, -0.00037984626, 0.00000003388182, -0.00008881532, -691326.3, -50213.742, 0.0, 10.0, 9.929577 
5.45e+2, 2.4450338e+2, -603002.25, -667018.8, 0.00021559131, 0.000000033679264, 0.00007471166, -603002.25, -59135.34, 0.0, 10.0, 9.916136 
5.45e+2, 2.5441962e+2, -504249.56, -568343.3, 0.0005469514, 0.000000034219347, -0.0001067362, -504249.56, -57562.0, 0.0, 10.0, 9.916036 
5.45e+2, 2.643288e+2, -416014.16, -490987.88, 0.0008214215, 0.000000034417425, 0.00014059398, -416014.16, -66436.48, 0.0, 10.0, 9.901964 
5.45e+2, 2.742313e+2, -316728.94, -391374.78, -0.000115708455, 0.0000000341785, -0.00020344314, -316728.94, -64195.92, 0.0, 10.0, 9.902385 
5.45e+2, 2.841256e+2, -230255.67, -318081.25, 0.00024004247, 0.000000034053674, 0.00022904701, -230255.67, -74686.695, 0.0, 10.0, 9.885439 
5.45e+2, 2.940121e+2, -130549.53, -217765.0, -0.00050508213, 0.000000034087037, -0.00025334297, -130549.53, -71868.13, 0.0, 10.0, 9.886217 
5.45e+2, 3.0392656e+2, -40805.516, -84750.16, 0.000048154092, 0.00000003387985, 0.00017313584, -40805.516, -40805.516, 0.0, 10.0, 9.942173 
5.45e+2, 3.138706e+2, -39727.508, -82511.21, -0.00014118273, 0.000000033314286, -0.000055142194, -39727.508, -39727.508, 0.0, 10.0, 9.943684 
5.55e+2, 1.2499334e+2, -1719946.1, -1724224.6, 0.00015821158, 0.000000037817134, 0.0000176086, -1719946.1, -4880.8813, 0.0, 10.0, 9.994327 
5.55e+2, 1.349876e+2, -1622565.6, -1627434.9, 0.00002349452, 0.00000003727275, -0.000068403635, -1622565.6, -5444.0947, 0.0, 10.0, 9.993545 
5.55e+2, 1.4497514e+2, -1534464.3, -1548146.3, 0.00042603232, 0.00000003680315, 0.0000709245, -1534464.3, -15220.603, 0.0, 10.0, 9.981865 
5.55e+2, 1.5495703e+2, -1436736.6, -1450821.9, -0.00045243144, 0.000000036405257, -0.0000569751, -1436736.6, -15315.422, 0.0, 10.0, 9.981333 
5.55e+2, 1.6493228e+2, -1348685.6, -1371952.4, 0.00039891747, 0.000000036296562, 0.000047346337, -1348685.6, -25021.916, 0.0, 10.0, 9.969248 
5.55e+2, 1.7490156e+2, -1250727.6, -1274310.1, -0.00008292493, 0.00000003648317, -0.00007382799, -1250727.6, -24762.896, 0.0, 10.0, 9.968835 
5.55e+2, 1.8486421e+2, -1162646.6, -1195720.1, 0.00037202635, 0.000000036353242, 0.00006614773, -1162646.6, -34315.95, 0.0, 10.0, 9.956395 
5.55e+2, 1.9482064e+2, -1064496.9, -1097833.0, -0.00035405855, 0.000000035892075, -0.000057652338, -1064496.9, -33739.285, 0.0, 10.0, 9.956052 
5.55e+2, 2.0477042e+2, -976332.94, -1019435.0, 0.00013995025, 0.000000035726952, 0.00006808151, -976332.94, -43083.03, 0.0, 10.0, 9.943291 
5.55e+2, 2.1471375e+2, -878045.9, -921409.9, 0.000138512, 0.000000035882476, -0.00012682694, -878045.9, -42240.617, 0.0, 10.0, 9.942949 
5.55e+2, 2.2465037e+2, -789759.8, -843144.9, 0.00088538585, 0.0000000355892, 0.00012088003, -789759.8, -51333.51, 0.0, 10.0, 9.929908 
5.55e+2, 2.3458035e+2, -691326.3, -744966.44, -0.00039556526, 0.00000003478777, -0.0000888147, -691326.3, -50213.746, 0.0, 10.0, 9.929577 
5.55e+2, 2.4450338e+2, -603002.25, -667018.8, -0.00024246723, 0.000000034909313, 0.00007471266, -603002.25, -59135.34, 0.0, 10.0, 9.916136 
5.55e+2, 2.5441962e+2, -504249.56, -568343.3, 0.00006763262, 0.000000036133848, -0.00010673616, -504249.56, -57562.0, 0.0, 10.0, 9.916036 
5.55e+2, 2.643288e+2, -416014.16, -490987.88, 0.0008856988, 0.000000036215788, 0.00014059337, -416014.16, -66436.48, 0.0, 10.0, 9.901964 
5.55e+2, 2.742313e+2, -316728.94, -391374.78, -0.000014987766, 0.000000034841, -0.00020344401, -316728.94, -64195.92, 0.0, 10.0, 9.902385 
5.55e+2, 2.841256e+2, -230255.67, -318081.25, 0.00014773937, 0.00000003405567, 0.00022904699, -230255.67, -74686.695, 0.0, 10.0, 9.885439 
5.55e+2, 2.940121e+2, -130549.53, -217765.0, -0.0006147791, 0.000000034083737, -0.00025334064, -130549.53, -71868.13, 0.0, 10.0, 9.886217 
5.55e+2, 3.0392656e+2, -40805.516, -84750.16, -0.0001926602, 0.000000034725986, 0.00017313796, -40805.516, -40805.516, 0.0, 10.0, 9.942173 
5.55e+2, 3.138706e+2, -39727.508, -82511.21, -0.00039739136, 0.000000036272393, -0.000055144093, -39727.508, -39727.508, 0.0, 10.0, 9.943684 
5.65e+2, 1.2499334e+2, -1719946.1, -1724224.6, 0.0002643384, 0.000000039023835, 0.000017609238, -1719946.1, -4880.872, 0.0, 10.0, 9.994327 
5.65e+2, 1.349876e+2, -1622565.6, -1627434.9, -0.00005746659, 0.00000003892564, -0.00006840332, -1622565.6, -5444.087, 0.0, 10.0, 9.993545 
5.65e+2, 1.4497514e+2, -1534464.3, -1548146.3, 0.0005308391, 0.00000003836143, 0.00007092528, -1534464.3, -15220.595, 0.0, 10.0, 9.981865 
5.65e+2, 1.5495703e+2, -1436736.6, -1450821.9, -0.00014970229, 0.00000003732417, -0.000056974746, -1436736.6, -15315.412, 0.0, 10.0, 9.981333 
5.65e+2, 1.6493228e+2, -1348685.6, -1371952.4, 0.0006881532, 0.000000037057152, 0.00004734651, -1348685.6, -25021.906, 0.0, 10.0, 9.969248 
5.65e+2, 1.7490156e+2, -1250727.6, -1274310.1, 0.00027859965, 0.000000037576605, -0.00007382774, -1250727.6, -24762.887, 0.0, 10.0, 9.968835 
5.65e+2, 1.8486421e+2, -1162646.6, -1195720.1, 0.0009519625, 0.000000037688903, 0.0000661478, -1162646.6, -34315.94, 0.0, 10.0, 9.956395 
5.65e+2, 1.9482064e+2, -1064496.9, -1097833.0, 0.0003541656, 0.00000003737513, -0.00005765273, -1064496.9, -33739.277, 0.0, 10.0, 9.956052 
5.65e+2, 2.0477042e+2, -976332.94, -1019435.0, 0.00066991313, 0.0000000370555, 0.00006808145, -976332.94, -43083.02, 0.0, 10.0, 9.943291 
5.65e+2, 2.1471375e+2, -878045.9, -921409.9, -0.000093829396, 0.00000003672956, -0.0001268258, -878045.9, -42240.605, 0.0, 10.0, 9.942949 
5.65e+2, 2.2465037e+2, -789759.8, -843144.9, 0.0007690165, 0.00000003647377, 0.000120880926, -789759.8, -51333.504, 0.0, 10.0, 9.929908 
5.65e+2, 2.3458035e+2, -691326.25, -744966.44, 0.00067292963, 0.00000003629735, -0.00008881568, -691326.25, -50213.74, 0.0, 10.0, 9.929577 
5.65e+2, 2.4450338e+2, -603002.25, -667018.8, 0.0007644289, 0.000000036495962, 0.00007471154, -603002.25, -59135.332, 0.0, 10.0, 9.916136 
5.65e+2, 2.5441962e+2, -504249.56, -568343.3, -0.00029205336, 0.000000037142463, -0.000106735344, -504249.56, -57561.992, 0.0, 10.0, 9.916036 
5.65e+2, 2.643288e+2, -416014.16, -490987.88, 0.00039398318, 0.000000037012782, 0.0001405947, -416014.16, -66436.47, 0.0, 10.0, 9.901964 
5.65e+2, 2.742313e+2, -316728.9, -391374.78, 0.00017490388, 0.000000035894207, -0.00020344398, -316728.9, -64195.914, 0.0, 10.0, 9.902385 
5.65e+2, 2.841256e+2, -230255.66, -318081.25, 0.0005886203, 0.00000003524915, 0.00022904646, -230255.66, -74686.69, 0.0, 10.0, 9.885439 
5.65e+2, 2.940121e+2, -130549.52, -217765.0, -0.000018550403, 0.000000035256623, -0.0002533407, -130549.52, -71868.125, 0.0, 10.0, 9.886217 
5.65e+2, 3.0392656e+2, -40805.508, -84750.16, 0.00040075384, 0.00000003597712, 0.00017313793, -40805.508, -40805.508, 0.0, 10.0, 9.942173 
5.65e+2, 3.138706e+2, -39727.5, -82511.21, 0.00035753188, 0.000000037749885, -0.000055144777, -39727.5, -39727.5, 0.0, 10.0, 9.943684 
5.75e+2, 1.2499334e+2, -1719946.1, -1724224.6, -0.00028649814, 0.000000040236728, 0.000017607375, -1719946.1, -4880.873, 0.0, 10.0, 9.994327 
5.75e+2, 1.349876e+2, -1622565.6, -1627434.9, -0.00060840696, 0.000000040385455, -0.00006840142, -1622565.6, -5444.088, 0.0, 10.0, 9.993545 
5.75e+2, 1.4497514e+2, -1534464.3, -1548146.3, 0.0005019847, 0.000000039895955, 0.00007092827, -1534464.3, -15220.597, 0.0, 10.0, 9.981865 
5.75e+2, 1.5495703e+2, -1436736.6, -1450821.9, -0.0001777332, 0.00000003875944, -0.00005697513, -1436736.6, -15315.414, 0.0, 10.0, 9.981333 
5.75e+2, 1.6493228e+2, -1348685.6, -1371952.4, 0.00015605397, 0.000000038287375, 0.000047345417, -1348685.6, -25021.906, 0.0, 10.0, 9.969248 
5.75e+2, 1.7490156e+2, -1250727.6, -1274310.1, -0.0002561645, 0.000000038493756, -0.000073826835, -1250727.6, -24762.889, 0.0, 10.0, 9.968835 
5.75e+2, 1.8486421e+2, -1162646.6, -1195720.1, 0.00057077484, 0.000000038706855, 0.00006614853, -1162646.6, -34315.94, 0.0, 10.0, 9.956395 
5.75e+2, 1.9482064e+2, -1064496.9, -1097833.0, -0.000025246947, 0.000000038926963, -0.00005765441, -1064496.9, -33739.277, 0.0, 10.0, 9.956052 
5.75e+2, 2.0477042e+2, -976332.94, -1019435.0, 0.0006554442, 0.00000003852216, 0.00006808044, -976332.94, -43083.023, 0.0, 10.0, 9.943291 
5.75e+2, 2.1471375e+2, -878045.9, -921409.9, -0.000100763595, 0.000000037440554, -0.00012682281, -878045.9, -42240.61, 0.0, 10.0, 9.942949 
5.75e+2, 2.2465037e+2, -789759.8, -843144.9, 0.00037546604, 0.00000003735929, 0.00012088358, -789759.8, -51333.504, 0.0, 10.0, 9.929908 
5.75e+2, 2.3458035e+2, -691326.25, -744966.44, 0.00026672822, 0.00000003841055, -0.00008881828, -691326.25, -50213.74, 0.0, 10.0, 9.929577 
5.75e+2, 2.4450338e+2, -603002.25, -667018.8, 0.0006163516, 0.000000038439214, 0.00007470829, -603002.25, -59135.336, 0.0, 10.0, 9.916136 
5.75e+2, 2.5441962e+2, -504249.56, -568343.3, -0.00042772925, 0.000000037245197, -0.00010673376, -504249.56, -57561.996, 0.0, 10.0, 9.916036 
5.75e+2, 2.643288e+2, -416014.16, -490987.88, 0.00040421617, 0.0000000368084, 0.00014059797, -416014.16, -66436.47, 0.0, 10.0, 9.901964 
5.75e+2, 2.742313e+2, -316728.9, -391374.78, 0.00019491863, 0.000000037338122, -0.00020344307, -316728.9, -64195.914, 0.0, 10.0, 9.902385 
5.75e+2, 2.841256e+2, -230255.66, -318081.25, 0.0003877248, 0.000000037634113, 0.00022904543, -230255.66, -74686.69, 0.0, 10.0, 9.885439 
5.75e+2, 2.940121e+2, -130549.52, -217765.02, -0.00023935334, 0.00000003760569, -0.0002533431, -130549.52, -71868.125, 0.0, 10.0, 9.886217 
5.75e+2, 3.0392656e+2, -40805.508, -84750.16, -0.000027686498, 0.000000037633246, 0.00017313576, -40805.508, -40805.508, 0.0, 10.0, 9.942173 
5.75e+2, 3.138706e+2, -39727.5, -82511.21, -0.00009528724, 0.000000037746762, -0.00005514425, -39727.5, -39727.5, 0.0, 10.0, 9.943684 
5.85e+2, 1.2499334e+2, -1719946.1, -1724224.6, 0.0011412717, 0.000000041557243, 0.000017606493, -1719946.1, -4880.8633, 0.0, 10.0, 9.994327 
5.85e+2, 1.349876e+2, -1622565.6, -1627434.9, -0.00032561936, 0.00000004120795, -0.000068400725, -1622565.6, -5444.077, 0.0, 10.0, 9.993545 
5.85e+2, 1.4497514e+2, -1534464.3, -1548146.3, 0.00061359815, 0.0000000408602, 0.00007092981, -1534464.3, -15220.586, 0.0, 10.0, 9.981865 
5.85e+2, 1.5495703e+2, -1436736.6, -1450821.9, 0.00049712916, 0.000000040508596, -0.000056975332, -1436736.6, -15315.406, 0.0, 10.0, 9.981333 
5.85e+2, 1.6493228e+2, -1348685.6, -1371952.4, 0.00091951655, 0.00000004015466, 0.000047344853, -1348685.6, -25021.9, 0.0, 10.0, 9.969248 
5.85e+2, 1.7490156e+2, -1250727.6, -1274310.1, 0.00011346149, 0.00000003979834, -0.00007382634, -1250727.6, -24762.879, 0.0, 10.0, 9.968835 
5.85e+2, 1.8486421e+2, -1162646.6, -1195720.1, 0.0008749503, 0.000000039701476, 0.00006614921, -1162646.6, -34315.934, 0.0, 10.0, 9.956395 
5.85e+2, 1.9482064e+2, -1064496.9, -1097833.0, 0.00046562016, 0.000000039876078, -0.000057654477, -1064496.9, -33739.266, 0.0, 10.0, 9.956052 
5.85e+2, 2.0477042e+2, -976332.94, -1019435.0, 0.0012510457, 0.000000039593417, 0.000068080204, -976332.94, -43083.01, 0.0, 10.0, 9.943291 
5.85e+2, 2.1471375e+2, -878045.9, -921409.9, 0.00029161142, 0.000000038815486, -0.00012682259, -878045.9, -42240.6, 0.0, 10.0, 9.942949 
5.85e+2, 2.2465037e+2, -789759.75, -843144.9, 0.0005130088, 0.000000038866588, 0.00012088396, -789759.75, -51333.492, 0.0, 10.0, 9.929908 
5.85e+2, 2.3458035e+2, -691326.25, -744966.44, 0.0003929924, 0.00000003985625, -0.00008881809, -691326.25, -50213.727, 0.0, 10.0, 9.929577 
5.85e+2, 2.4450338e+2, -603002.2, -667018.8, 0.0011092005, 0.000000039653166, 0.000074708325, -603002.2, -59135.33, 0.0, 10.0, 9.916136 
5.85e+2, 2.5441962e+2, -504249.53, -568343.3, 0.00011687384, 0.00000003802435, -0.00010673384, -504249.53, -57561.984, 0.0, 10.0, 9.916036 
5.85e+2, 2.643288e+2, -416014.13, -490987.88, 0.0006138001, 0.00000003762769, 0.000140598, -416014.13, -66436.45, 0.0, 10.0, 9.901964 
5.85e+2, 2.742313e+2, -316728.9, -391374.78, 0.00025358459, 0.000000038802433, -0.00020344263, -316728.9, -64195.906, 0.0, 10.0, 9.902385 
5.85e+2, 2.841256e+2, -230255.66, -318081.25, 0.0006962402, 0.000000039485062, 0.00022904559, -230255.66, -74686.68, 0.0, 10.0, 9.885439 
5.85e+2, 2.940121e+2, -130549.516, -217765.0, 0.00057069346, 0.000000039486906, -0.00025334413, -130549.516, -71868.12, 0.0, 10.0, 9.886217 
5.85e+2, 3.0392656e+2, -40805.5, -84750.16, 0.00071250857, 0.00000003906436, 0.00017313482, -40805.5, -40805.5, 0.0, 10.0, 9.942173 
5.85e+2, 3.138706e+2, -39727.49, -82511.21, -0.00059682305, 0.000000038018094, -0.00005514323, -39727.49, -39727.49, 0.0, 10.0, 9.943684 
5.95e+2, 1.2499334e+2, -1719946.1, -1724224.6, 0.0007699061, 0.000000042985388, 0.00001760659, -1719946.1, -4880.867, 0.0, 10.0, 9.994327 
5.95e+2, 1.349876e+2, -1622565.6, -1627434.9, -0.00069706957, 0.000000041393136, -0.000068401234, -1622565.6, -5444.081, 0.0, 10.0, 9.993545 
5.95e+2, 1.4497514e+2, -1534464.3, -1548146.3, -0.000035564848, 0.000000041254168, 0.00007092991, -1534464.3, -15220.587, 0.0, 10.0, 9.981865 
5.95e+2, 1.5495703e+2, -1436736.6, -1450821.9, -0.00015247874, 0.000000042571642, -0.00005697536, -1436736.6, -15315.407, 0.0, 10.0, 9.981333 
5.95e+2, 1.6493228e+2, -1348685.6, -1371952.4, 0.0007657693, 0.000000042659003, 0.000047344816, -1348685.6, -25021.902, 0.0, 10.0, 9.969248 
5.95e+2, 1.7490156e+2, -1250727.6, -1274310.1, -0.00003767348, 0.000000041490363, -0.00007382626, -1250727.6, -24762.88, 0.0, 10.0, 9.968835 
5.95e+2, 1.8486421e+2, -1162646.6, -1195720.1, 0.0006577083, 0.00000004067277, 0.00006614981, -1162646.6, -34315.934, 0.0, 10.0, 9.956395 
5.95e+2, 1.9482064e+2, -1064496.9, -1097833.0, 0.00024760846, 0.000000040222467, -0.000057652927, -1064496.9, -33739.27, 0.0, 10.0, 9.956052 
5.95e+2, 2.0477042e+2, -976332.94, -1019435.0, 0.00087664137, 0.000000040269263, 0.00006808076, -976332.94, -43083.016, 0.0, 10.0, 9.943291 
5.95e+2, 2.1471375e+2, -878045.9, -921409.9, -0.00008602585, 0.000000040854353, -0.00012682514, -878045.9, -42240.6, 0.0, 10.0, 9.942949 
5.95e+2, 2.2465037e+2, -789759.75, -843144.9, 0.00023423975, 0.00000004099566, 0.000120882054, -789759.75, -51333.496, 0.0, 10.0, 9.929908 
5.95e+2, 2.3458035e+2, -691326.25, -744966.44, 0.000117453405, 0.000000040634443, -0.00008881511, -691326.25, -50213.73, 0.0, 10.0, 9.929577 
5.95e+2, 2.4450338e+2, -603002.2, -667018.8, 0.0012815633, 0.000000040137817, 0.00007471164, -603002.2, -59135.33, 0.0, 10.0, 9.916136 
5.95e+2, 2.5441962e+2, -504249.56, -568343.3, 0.0003107605, 0.00000003947993, -0.000106735584, -504249.56, -57561.99, 0.0, 10.0, 9.916036 
5.95e+2, 2.643288e+2, -416014.13, -490987.88, 0.0000648833, 0.000000039470642, 0.0001405948, -416014.13, -66436.45, 0.0, 10.0, 9.901964 
5.95e+2, 2.742313e+2, -316728.9, -391374.78, -0.00034513703, 0.00000004028714, -0.00020344267, -316728.9, -64195.906, 0.0, 10.0, 9.902385 
5.95e+2, 2.841256e+2, -230255.66, -318081.25, 0.0005531938, 0.000000040802, 0.00022904697, -230255.66, -74686.68, 0.0, 10.0, 9.885439 
5.95e+2, 2.940121e+2, -130549.516, -217765.0, 0.00046870383, 0.00000004090026, -0.00025334372, -130549.516, -71868.125, 0.0, 10.0, 9.886217 
5.95e+2, 3.0392656e+2, -40805.504, -84750.164, 0.0011319079, 0.00000004027046, 0.00017313512, -40805.504, -40805.504, 0.0, 10.0, 9.942173 
5.95e+2, 3.138706e+2, -39727.492, -82511.21, -0.00011621521, 0.000000038563883, -0.000055141725, -39727.492, -39727.492, 0.0, 10.0, 9.943684 
6.05e+2, 1.2499334e+2, -1719946.1, -1724224.6, 0.00057953503, 0.000000044261867, 0.000017608249, -1719946.1, -4880.857, 0.0, 10.0, 9.994327 
6.05e+2, 1.349876e+2, -1622565.6, -1627434.9, 0.00053720333, 0.000000042757154, -0.00006840238, -1622565.6, -5444.0713, 0.0, 10.0, 9.993545 
6.05e+2, 1.4497514e+2, -1534464.3, -1548146.3, 0.0012487713, 0.000000042609166, 0.00007092906, -1534464.3, -15220.576, 0.0, 10.0, 9.981865 
6.05e+2, 1.5495703e+2, -1436736.5, -1450821.9, 0.00016497711, 0.00000004381979, -0.000056974804, -1436736.5, -15315.396, 0.0, 10.0, 9.981333 
6.05e+2, 1.6493228e+2, -1348685.6, -1371952.4, 0.0010727146, 0.00000004391825, 0.00004734565, -1348685.6, -25021.89, 0.0, 10.0, 9.969248 
6.05e+2, 1.7490156e+2, -1250727.6, -1274310.1, 0.0004379156, 0.000000042881137, -0.000073826304, -1250727.6, -24762.871, 0.0, 10.0, 9.968835 
6.05e+2, 1.8486421e+2, -1162646.6, -1195720.1, 0.001026545, 0.00000004205615, 0.00006614985, -1162646.6, -34315.926, 0.0, 10.0, 9.956395 
6.05e+2, 1.9482064e+2, -1064496.9, -1097833.0, 0.00024101637, 0.000000041453088, -0.000057651807, -1064496.9, -33739.258, 0.0, 10.0, 9.956052 
6.05e+2, 2.0477042e+2, -976332.9, -1019435.0, 0.0009844301, 0.000000041593708, 0.00006808147, -976332.9, -43083.008, 0.0, 10.0, 9.943291 
6.05e+2, 2.1471375e+2, -878045.9, -921409.9, 0.0010795181, 0.000000042539693, -0.00012682645, -878045.9, -42240.594, 0.0, 10.0, 9.942949 
6.05e+2, 2.2465037e+2, -789759.75, -843144.9, 0.0015334476, 0.000000042484643, 0.0001208809, -789759.75, -51333.484, 0.0, 10.0, 9.929908 
6.05e+2, 2.3458035e+2, -691326.25, -744966.44, -0.00026456345, 0.0000000412962, -0.000088813664, -691326.25, -50213.72, 0.0, 10.0, 9.929577 
6.05e+2, 2.4450338e+2, -603002.2, -667018.8, 0.0005293974, 0.00000004087012, 0.00007471343, -603002.2, -59135.316, 0.0, 10.0, 9.916136 
6.05e+2, 2.5441962e+2, -504249.53, -568343.3, 0.0010756345, 0.000000041355808, -0.00010673617, -504249.53, -57561.98, 0.0, 10.0, 9.916036 
6.05e+2, 2.643288e+2, -416014.13, -490987.88, 0.0013033845, 0.000000041620737, 0.00014059334, -416014.13, -66436.45, 0.0, 10.0, 9.901964 
6.05e+2, 2.742313e+2, -316728.9, -391374.78, 0.00012582625, 0.00000004160256, -0.00020344308, -316728.9, -64195.9, 0.0, 10.0, 9.902385 
6.05e+2, 2.841256e+2, -230255.64, -318081.25, 0.00037843606, 0.000000041570317, 0.0002290475, -230255.64, -74686.67, 0.0, 10.0, 9.885439 
6.05e+2, 2.940121e+2, -130549.51, -217765.0, -0.0006160701, 0.000000041520167, -0.00025334247, -130549.51, -71868.11, 0.0, 10.0, 9.886217 
6.05e+2, 3.0392656e+2, -40805.492, -84750.16, 0.000040288785, 0.000000041214385, 0.00017313623, -40805.492, -40805.492, 0.0, 10.0, 9.942173 
6.05e+2, 3.138706e+2, -39727.484, -82511.21, -0.00014629142, 0.000000040529503, -0.000055142053, -39727.484, -39727.484, 0.0, 10.0, 9.943684 
6.15e+2, 1.2499334e+2, -1719946.1, -1724224.6, 0.00012035268, 0.000000045386678, 0.000017611472, -1719946.1, -4880.8574, 0.0, 10.0, 9.994327 
6.15e+2, 1.349876e+2, -1622565.6, -1627434.9, 0.00007792236, 0.00000004530001, -0.00006840419, -1622565.6, -5444.0713, 0.0, 10.0, 9.993545 
6.15e+2, 1.4497514e+2, -1534464.3, -1548146.3, 0.00069084973, 0.000000044925184, 0.000070927264, -1534464.3, -15220.579, 0.0, 10.0, 9.981865 
6.15e+2, 1.5495703e+2, -1436736.5, -1450821.9, -0.0003931075, 0.000000044253035, -0.00005697367, -1436736.5, -15315.399, 0.0, 10.0, 9.981333 
6.15e+2, 1.6493228e+2, -1348685.6, -1371952.4, 0.00080770045, 0.000000043932395, 0.00004734735, -1348685.6, -25021.893, 0.0, 10.0, 9.969248 
6.15e+2, 1.7490156e+2, -1250727.6, -1274310.1, 0.00017444404, 0.000000043970662, -0.00007382647, -1250727.6, -24762.873, 0.0, 10.0, 9.968835 
6.15e+2, 1.8486421e+2, -1162646.6, -1195720.1, 0.0008083265, 0.000000043851625, 0.000066149325, -1162646.6, -34315.926, 0.0, 10.0, 9.956395 
6.15e+2, 1.9482064e+2, -1064496.9, -1097833.0, 0.000023317234, 0.000000043567944, -0.00005765112, -1064496.9, -33739.26, 0.0, 10.0, 9.956052 
6.15e+2, 2.0477042e+2, -976332.9, -1019435.0, 0.00052267255, 0.00000004356675, 0.000068082336, -976332.9, -43083.008, 0.0, 10.0, 9.943291 
6.15e+2, 2.1471375e+2, -878045.9, -921409.9, 0.00061271427, 0.00000004387151, -0.00012682652, -878045.9, -42240.594, 0.0, 10.0, 9.942949 
6.15e+2, 2.2465037e+2, -789759.75, -843144.9, 0.0016841489, 0.00000004333354, 0.000120880475, -789759.75, -51333.49, 0.0, 10.0, 9.929908 
6.15e+2, 2.3458035e+2, -691326.25, -744966.44, -0.00009366164, 0.00000004184152, -0.00008881373, -691326.25, -50213.723, 0.0, 10.0, 9.929577 
6.15e+2, 2.4450338e+2, -603002.2, -667018.8, -0.000025320529, 0.00000004185007, 0.000074713695, -603002.2, -59135.316, 0.0, 10.0, 9.916136 
6.15e+2, 2.5441962e+2, -504249.53, -568343.3, 0.00048604264, 0.000000043651983, -0.000106735606, -504249.53, -57561.977, 0.0, 10.0, 9.916036 
6.15e+2, 2.643288e+2, -416014.13, -490987.88, 0.0013558214, 0.000000044077975, 0.00014059362, -416014.13, -66436.45, 0.0, 10.0, 9.901964 
6.15e+2, 2.742313e+2, -316728.9, -391374.78, 0.00022130636, 0.00000004274869, -0.00020344384, -316728.9, -64195.9, 0.0, 10.0, 9.902385 
6.15e+2, 2.841256e+2, -230255.64, -318081.25, 0.0003957252, 0.000000041790017, 0.00022904715, -230255.64, -74686.67, 0.0, 10.0, 9.885439 
6.15e+2, 2.940121e+2, -130549.51, -217765.0, -0.0006058262, 0.000000041346624, -0.0002533404, -130549.51, -71868.11, 0.0, 10.0, 9.886217 
6.15e+2, 3.0392656e+2, -40805.492, -84750.16, -0.00025564324, 0.000000041896133, 0.0001731381, -40805.492, -40805.492, 0.0, 10.0, 9.942173 
6.15e+2, 3.138706e+2, -39727.484, -82511.21, -0.00047816717, 0.00000004391496, -0.00005514422, -39727.484, -39727.484, 0.0, 10.0, 9.943684 
6.25e+2, 1.2499334e+2, -1719946.1, -1724224.6, 0.00057027175, 0.00000004692448, 0.000017611848, -1719946.1, -4880.847, 0.0, 10.0, 9.994327 
6.25e+2, 1.349876e+2, -1622565.6, -1627434.9, 0.00005911142, 0.000000047315968, -0.000068403904, -1622565.6, -5444.062, 0.0, 10.0, 9.993545 
6.25e+2, 1.4497514e+2, -1534464.3, -1548146.3, 0.0008792443, 0.00000004674302, 0.000070928276, -1534464.3, -15220.57, 0.0, 10.0, 9.981865 
6.25e+2, 1.5495703e+2, -1436736.5, -1450821.9, 0.00007090854, 0.00000004519131, -0.00005697335, -1436736.5, -15315.388, 0.0, 10.0, 9.981333 
6.25e+2, 1.6493228e+2, -1348685.6, -1371952.4, 0.0012481653, 0.000000044665992, 0.00004734741, -1348685.6, -25021.88, 0.0, 10.0, 9.969248 
6.25e+2, 1.7490156e+2, -1250727.5, -1274310.1, 0.0007027077, 0.000000045188674, -0.00007382622, -1250727.5, -24762.861, 0.0, 10.0, 9.968835 
6.25e+2, 1.8486421e+2, -1162646.6, -1195720.1, 0.0014892898, 0.00000004550913, 0.00006614936, -1162646.6, -34315.918, 0.0, 10.0, 9.956395 
6.25e+2, 1.9482064e+2, -1064496.9, -1097833.0, 0.0008017588, 0.00000004561796, -0.00005765173, -1064496.9, -33739.254, 0.0, 10.0, 9.956052 
6.25e+2, 2.0477042e+2, -976332.9, -1019435.0, 0.001057343, 0.000000045336733, 0.00006808228, -976332.9, -43082.996, 0.0, 10.0, 9.943291 
6.25e+2, 2.1471375e+2, -878045.9, -921409.9, -0.000046776535, 0.0000000446331, -0.00012682473, -878045.9, -42240.582, 0.0, 10.0, 9.942949 
6.25e+2, 2.2465037e+2, -789759.75, -843144.9, 0.0012310246, 0.00000004403742, 0.000120881894, -789759.75, -51333.477, 0.0, 10.0, 9.929908 
6.25e+2, 2.3458035e+2, -691326.25, -744966.44, 0.0014057794, 0.00000004356405, -0.000088815206, -691326.25, -50213.715, 0.0, 10.0, 9.929577 
6.25e+2, 2.4450338e+2, -603002.2, -667018.75, 0.0014113515, 0.00000004386181, 0.0000747119, -603002.2, -59135.31, 0.0, 10.0, 9.916136 
6.25e+2, 2.5441962e+2, -504249.53, -568343.3, -0.0000887818, 0.000000045080533, -0.00010673464, -504249.53, -57561.97, 0.0, 10.0, 9.916036 
6.25e+2, 2.643288e+2, -416014.13, -490987.88, 0.00056232937, 0.00000004519264, 0.00014059541, -416014.13, -66436.44, 0.0, 10.0, 9.901964 
6.25e+2, 2.742313e+2, -316728.9, -391374.78, 0.00037658526, 0.000000043894257, -0.00020344369, -316728.9, -64195.89, 0.0, 10.0, 9.902385 
6.25e+2, 2.841256e+2, -230255.63, -318081.25, 0.0010491115, 0.000000043012868, 0.00022904648, -230255.63, -74686.664, 0.0, 10.0, 9.885439 
6.25e+2, 2.940121e+2, -130549.5, -217765.0, 0.0004447413, 0.000000042708606, -0.00025334072, -130549.5, -71868.1, 0.0, 10.0, 9.886217 
6.25e+2, 3.0392656e+2, -40805.484, -84750.16, 0.00073532405, 0.00000004339371, 0.0001731378, -40805.484, -40805.484, 0.0, 10.0, 9.942173 
6.25e+2, 3.138706e+2, -39727.473, -82511.21, 0.00039203948, 0.00000004554219, -0.00005514499, -39727.473, -39727.473, 0.0, 10.0, 9.943684 
6.35e+2, 1.2499334e+2, -1719946.1, -1724224.6, -0.00004557744, 0.000000048875275, 0.000017609378, -1719946.1, -4880.8486, 0.0, 10.0, 9.994327 
6.35e+2, 1.349876e+2, -1622565.6, -1627434.9, -0.0005568443, 0.000000048805035, -0.000068401525, -1622565.6, -5444.064, 0.0, 10.0, 9.993545 
6.35e+2, 1.4497514e+2, -1534464.3, -1548146.3, 0.00097101997, 0.000000048062663, 0.00007093209, -1534464.3, -15220.572, 0.0, 10.0, 9.981865 
6.35e+2, 1.5495703e+2, -1436736.5, -1450821.9, 0.00016379938, 0.000000046634614, -0.00005697385, -1436736.5, -15315.39, 0.0, 10.0, 9.981333 
6.35e+2, 1.6493228e+2, -1348685.6, -1371952.4, 0.00063098356, 0.000000046119045, 0.000047345842, -1348685.6, -25021.88, 0.0, 10.0, 9.969248 
6.35e+2, 1.7490156e+2, -1250727.5, -1274310.1, 0.00008177111, 0.000000046535167, -0.00007382553, -1250727.5, -24762.863, 0.0, 10.0, 9.968835 
6.35e+2, 1.8486421e+2, -1162646.6, -1195720.1, 0.00093804154, 0.00000004702867, 0.000066149965, -1162646.6, -34315.918, 0.0, 10.0, 9.956395 
6.35e+2, 1.9482064e+2, -1064496.9, -1097833.0, 0.00025131213, 0.000000047603134, -0.00005765364, -1064496.9, -33739.254, 0.0, 10.0, 9.956052 
6.35e+2, 2.0477042e+2, -976332.9, -1019435.0, 0.0013086341, 0.00000004690366, 0.00006808129, -976332.9, -43083.0, 0.0, 10.0, 9.943291 
6.35e+2, 2.1471375e+2, -878045.9, -921409.9, 0.00022107046, 0.000000044824468, -0.00012682108, -878045.9, -42240.582, 0.0, 10.0, 9.942949 
6.35e+2, 2.2465037e+2, -789759.75, -843144.9, 0.0007410145, 0.00000004459629, 0.00012088514, -789759.75, -51333.477, 0.0, 10.0, 9.929908 
6.35e+2, 2.3458035e+2, -691326.25, -744966.44, 0.00089097244, 0.000000046463786, -0.00008881809, -691326.25, -50213.715, 0.0, 10.0, 9.929577 
6.35e+2, 2.4450338e+2, -603002.2, -667018.8, 0.0011755354, 0.000000046905345, 0.000074708056, -603002.2, -59135.313, 0.0, 10.0, 9.916136 
6.35e+2, 2.5441962e+2, -504249.53, -568343.3, -0.00031119384, 0.000000045641453, -0.00010673327, -504249.53, -57561.973, 0.0, 10.0, 9.916036 
6.35e+2, 2.643288e+2, -416014.13, -490987.88, 0.00070798333, 0.000000044964732, 0.00014059871, -416014.13, -66436.445, 0.0, 10.0, 9.901964 
6.35e+2, 2.742313e+2, -316728.9, -391374.78, 0.00054691685, 0.00000004503925, -0.00020344264, -316728.9, -64195.89, 0.0, 10.0, 9.902385 
6.35e+2, 2.841256e+2, -230255.64, -318081.25, 0.0008748012, 0.00000004523887, 0.00022904549, -230255.64, -74686.664, 0.0, 10.0, 9.885439 
6.35e+2, 2.940121e+2, -130549.5, -217765.0, 0.00023937637, 0.000000045606114, -0.00025334346, -130549.5, -71868.1, 0.0, 10.0, 9.886217 
6.35e+2, 3.0392656e+2, -40805.484, -84750.16, 0.000325216, 0.000000045707125, 0.0001731353, -40805.484, -40805.484, 0.0, 10.0, 9.942173 
6.35e+2, 3.138706e+2, -39727.477, -82511.21, -0.000042105796, 0.000000045411195, -0.00005514436, -39727.477, -39727.477, 0.0, 10.0, 9.943684 
6.45e+2, 1.2499334e+2, -1719946.1, -1724224.6, 0.0011838669, 0.00000005058391, 0.00001760868, -1719946.1, -4880.8374, 0.0, 10.0, 9.994327 
6.45e+2, 1.349876e+2, -1622565.6, -1627434.9, -0.0005280978, 0.00000004967172, -0.00006840059, -1622565.6, -5444.051, 0.0, 10.0, 9.993545 
6.45e+2, 1.4497514e+2, -1534464.3, -1548146.3, 0.00084480405, 0.000000049046392, 0.00007093405, -1534464.3, -15220.56, 0.0, 10.0, 9.981865 
6.45e+2, 1.5495703e+2, -1436736.5, -1450821.9, 0.00075291964, 0.000000048699405, -0.00005697393, -1436736.5, -15315.38, 0.0, 10.0, 9.981333 
6.45e+2, 1.6493228e+2, -1348685.6, -1371952.4, 0.0013564581, 0.000000048463935, 0.00004734523, -1348685.6, -25021.873, 0.0, 10.0, 9.969248 
6.45e+2, 1.7490156e+2, -1250727.5, -1274310.1, 0.0004892415, 0.000000048342347, -0.00007382513, -1250727.5, -24762.854, 0.0, 10.0, 9.968835 
6.45e+2, 1.8486421e+2, -1162646.6, -1195720.1, 0.001345352, 0.000000048309552, 0.00006615059, -1162646.6, -34315.906, 0.0, 10.0, 9.956395 
6.45e+2, 1.9482064e+2, -1064496.9, -1097833.0, 0.0007348322, 0.000000048369643, -0.000057653608, -1064496.9, -33739.24, 0.0, 10.0, 9.956052 
6.45e+2, 2.0477042e+2, -976332.9, -1019435.0, 0.002015933, 0.00000004778975, 0.00006808112, -976332.9, -43082.99, 0.0, 10.0, 9.943291 
6.45e+2, 2.1471375e+2, -878045.9, -921409.9, 0.0009881273, 0.00000004651671, -0.00012682103, -878045.9, -42240.574, 0.0, 10.0, 9.942949 
6.45e+2, 2.2465037e+2, -789759.75, -843144.9, 0.0010255844, 0.000000046677336, 0.00012088536, -789759.75, -51333.47, 0.0, 10.0, 9.929908 
6.45e+2, 2.3458035e+2, -691326.25, -744966.44, 0.0007048859, 0.00000004846099, -0.00008881775, -691326.25, -50213.703, 0.0, 10.0, 9.929577 
6.45e+2, 2.4450338e+2, -603002.2, -667018.8, 0.0014989699, 0.000000048488456, 0.000074708245, -603002.2, -59135.3, 0.0, 10.0, 9.916136 
6.45e+2, 2.5441962e+2, -504249.53, -568343.3, 0.00056843867, 0.000000046416485, -0.00010673354, -504249.53, -57561.957, 0.0, 10.0, 9.916036 
6.45e+2, 2.643288e+2, -416014.1, -490987.88, 0.0013375735, 0.000000045666532, 0.00014059848, -416014.1, -66436.43, 0.0, 10.0, 9.901964 
6.45e+2, 2.742313e+2, -316728.88, -391374.75, 0.000622886, 0.000000046603915, -0.00020344219, -316728.88, -64195.88, 0.0, 10.0, 9.902385 
6.45e+2, 2.841256e+2, -230255.63, -318081.25, 0.00083379634, 0.000000047355286, 0.00022904587, -230255.63, -74686.66, 0.0, 10.0, 9.885439 
6.45e+2, 2.940121e+2, -130549.49, -217765.0, 0.0005532, 0.000000047844225, -0.00025334416, -130549.49, -71868.09, 0.0, 10.0, 9.886217 
6.45e+2, 3.0392656e+2, -40805.473, -84750.16, 0.00071926607, 0.00000004750971, 0.00017313455, -40805.473, -40805.473, 0.0, 10.0, 9.942173 
6.45e+2, 3.138706e+2, -39727.46, -82511.21, -0.0005243424, 0.00000004595507, -0.000055143628, -39727.46, -39727.46, 0.0, 10.0, 9.943684 
6.55e+2, 1.2499334e+2, -1719946.1, -1724224.6, 0.00093449774, 0.000000052050385, 0.000017609756, -1719946.1, -4880.842, 0.0, 10.0, 9.994327 
6.55e+2, 1.349876e+2, -1622565.6, -1627434.9, -0.0007775145, 0.000000049916018, -0.000068401096, -1622565.6, -5444.055, 0.0, 10.0, 9.993545 
6.55e+2, 1.4497514e+2, -1534464.3, -1548146.3, 0.00007010642, 0.0000000496942, 0.000070934155, -1534464.3, -15220.56, 0.0, 10.0, 9.981865 
6.55e+2, 1.5495703e+2, -1436736.5, -1450821.9, -0.000022618862, 0.00000005138568, -0.00005697359, -1436736.5, -15315.381, 0.0, 10.0, 9.981333 
6.55e+2, 1.6493228e+2, -1348685.6, -1371952.4, 0.0011491961, 0.000000051700667, 0.00004734558, -1348685.6, -25021.875, 0.0, 10.0, 9.969248 
6.55e+2, 1.7490156e+2, -1250727.5, -1274310.1, 0.00028497112, 0.000000050610215, -0.00007382502, -1250727.5, -24762.855, 0.0, 10.0, 9.968835 
6.55e+2, 1.8486421e+2, -1162646.6, -1195720.1, 0.001319684, 0.000000049351776, 0.00006615124, -1162646.6, -34315.91, 0.0, 10.0, 9.956395 
6.55e+2, 1.9482064e+2, -1064496.9, -1097833.0, 0.0007112262, 0.00000004791748, -0.00005765163, -1064496.9, -33739.242, 0.0, 10.0, 9.956052 
6.55e+2, 2.0477042e+2, -976332.9, -1019435.0, 0.0015020295, 0.00000004799501, 0.00006808177, -976332.9, -43082.99, 0.0, 10.0, 9.943291 
6.55e+2, 2.1471375e+2, -878045.9, -921409.9, 0.00046409338, 0.000000049709826, -0.00012682458, -878045.9, -42240.574, 0.0, 10.0, 9.942949 
6.55e+2, 2.2465037e+2, -789759.75, -843144.9, 0.00066198385, 0.00000005028055, 0.00012088255, -789759.75, -51333.47, 0.0, 10.0, 9.929908 
6.55e+2, 2.3458035e+2, -691326.25, -744966.44, 0.00034652825, 0.00000004955566, -0.0000888142, -691326.25, -50213.703, 0.0, 10.0, 9.929577 
6.55e+2, 2.4450338e+2, -603002.2, -667018.8, 0.0018984952, 0.000000048611152, 0.000074712465, -603002.2, -59135.305, 0.0, 10.0, 9.916136 
6.55e+2, 2.5441962e+2, -504249.53, -568343.3, 0.0010043852, 0.00000004740563, -0.00010673546, -504249.53, -57561.96, 0.0, 10.0, 9.916036 
6.55e+2, 2.643288e+2, -416014.1, -490987.88, 0.00077164534, 0.000000047298034, 0.00014059471, -416014.1, -66436.43, 0.0, 10.0, 9.901964 
6.55e+2, 2.742313e+2, -316728.88, -391374.78, -0.000010215488, 0.000000048588245, -0.00020344237, -316728.88, -64195.883, 0.0, 10.0, 9.902385 
6.55e+2, 2.841256e+2, -230255.63, -318081.25, 0.0006325139, 0.000000049362125, 0.00022904763, -230255.63, -74686.66, 0.0, 10.0, 9.885439 
6.55e+2, 2.940121e+2, -130549.49, -217765.0, 0.00039082632, 0.000000049422937, -0.00025334282, -130549.49, -71868.09, 0.0, 10.0, 9.886217 
6.55e+2, 3.0392656e+2, -40805.477, -84750.164, 0.0012432087, 0.00000004880147, 0.00017313556, -40805.477, -40805.477, 0.0, 10.0, 9.942173 
6.55e+2, 3.138706e+2, -39727.465, -82511.21, 0.00008017362, 0.000000047173813, -0.0000551428, -39727.465, -39727.465, 0.0, 10.0, 9.943684 
6.65e+2, 1.2499334e+2, -1719946.1, -1724224.6, 0.00073938153, 0.00000005337129, 0.00001761173, -1719946.1, -4880.8286, 0.0, 10.0, 9.994327 
6.65e+2, 1.349876e+2, -1622565.6, -1627434.9, 0.00074680976, 0.00000005160588, -0.000068402594, -1622565.6, -5444.0435, 0.0, 10.0, 9.993545 
6.65e+2, 1.4497514e+2, -1534464.3, -1548146.3, 0.0015912658, 0.000000051510238, 0.00007093306, -1534464.3, -15220.549, 0.0, 10.0, 9.981865 
6.65e+2, 1.5495703e+2, -1436736.5, -1450821.9, 0.00030220766, 0.00000005308254, -0.000056972996, -1436736.5, -15315.368, 0.0, 10.0, 9.981333 
6.65e+2, 1.6493228e+2, -1348685.6, -1371952.4, 0.0014168607, 0.000000053283202, 0.00004734659, -1348685.6, -25021.863, 0.0, 10.0, 9.969248 
6.65e+2, 1.7490156e+2, -1250727.5, -1274310.1, 0.0006234713, 0.00000005208337, -0.00007382487, -1250727.5, -24762.844, 0.0, 10.0, 9.968835 
6.65e+2, 1.8486421e+2, -1162646.6, -1195720.1, 0.0016274081, 0.000000050786138, 0.00006615144, -1162646.6, -34315.895, 0.0, 10.0, 9.956395 
6.65e+2, 1.9482064e+2, -1064496.9, -1097833.0, 0.00074166927, 0.000000049386923, -0.000057650403, -1064496.9, -33739.23, 0.0, 10.0, 9.956052 
6.65e+2, 2.0477042e+2, -976332.9, -1019435.0, 0.0014637025, 0.00000004972195, 0.000068082474, -976332.9, -43082.977, 0.0, 10.0, 9.943291 
6.65e+2, 2.1471375e+2, -878045.9, -921409.9, 0.001555957, 0.000000051935164, -0.00012682607, -878045.9, -42240.566, 0.0, 10.0, 9.942949 
6.65e+2, 2.2465037e+2, -789759.75, -843144.9, 0.0021659257, 0.000000052176194, 0.0001208812, -789759.75, -51333.457, 0.0, 10.0, 9.929908 
6.65e+2, 2.3458035e+2, -691326.25, -744966.44, 0.0001322023, 0.000000050184177, -0.000088812776, -691326.25, -50213.69, 0.0, 10.0, 9.929577 
6.65e+2, 2.4450338e+2, -603002.2, -667018.8, 0.0011241245, 0.000000049201653, 0.00007471442, -603002.2, -59135.29, 0.0, 10.0, 9.916136 
6.65e+2, 2.5441962e+2, -504249.5, -568343.3, 0.0013739464, 0.000000049427225, -0.00010673566, -504249.5, -57561.95, 0.0, 10.0, 9.916036 
6.65e+2, 2.643288e+2, -416014.1, -490987.88, 0.0014795898, 0.000000049809394, 0.00014059359, -416014.1, -66436.42, 0.0, 10.0, 9.901964 
6.65e+2, 2.742313e+2, -316728.88, -391374.78, 0.00043947913, 0.00000005038797, -0.00020344285, -316728.88, -64195.87, 0.0, 10.0, 9.902385 
6.65e+2, 2.841256e+2, -230255.61, -318081.25, 0.000821998, 0.000000050570275, 0.00022904779, -230255.61, -74686.64, 0.0, 10.0, 9.885439 
6.65e+2, 2.940121e+2, -130549.48, -217765.0, -0.00034294522, 0.000000050209398, -0.00025334198, -130549.48, -71868.08, 0.0, 10.0, 9.886217 
6.65e+2, 3.0392656e+2, -40805.465, -84750.16, 0.00037565673, 0.0000000498514, 0.00017313643, -40805.465, -40805.465, 0.0, 10.0, 9.942173 
6.65e+2, 3.138706e+2, -39727.453, -82511.21, 0.000049659007, 0.000000049502898, -0.00005514286, -39727.453, -39727.453, 0.0, 10.0, 9.943684 
6.75e+2, 1.2499334e+2, -1719946.1, -1724224.6, 0.00015153941, 0.000000054546625, 0.0000176146, -1719946.1, -4880.829, 0.0, 10.0, 9.994327 
6.75e+2, 1.349876e+2, -1622565.6, -1627434.9, 0.00015884187, 0.000000054741303, -0.000068405105, -1622565.6, -5444.044, 0.0, 10.0, 9.993545 
6.75e+2, 1.4497514e+2, -1534464.3, -1548146.3, 0.0009766099, 0.000000054494492, 0.00007093079, -1534464.3, -15220.552, 0.0, 10.0, 9.981865 
6.75e+2, 1.5495703e+2, -1436736.5, -1450821.9, -0.0003125015, 0.00000005378999, -0.000056972156, -1436736.5, -15315.372, 0.0, 10.0, 9.981333 
6.75e+2, 1.6493228e+2, -1348685.6, -1371952.4, 0.0012586986, 0.00000005321155, 0.000047348265, -1348685.6, -25021.865, 0.0, 10.0, 9.969248 
6.75e+2, 1.7490156e+2, -1250727.5, -1274310.1, 0.00046771156, 0.00000005276181, -0.000073824696, -1250727.5, -24762.846, 0.0, 10.0, 9.968835 
6.75e+2, 1.8486421e+2, -1162646.6, -1195720.1, 0.0014308372, 0.00000005261264, 0.0000661512, -1162646.6, -34315.9, 0.0, 10.0, 9.956395 
6.75e+2, 1.9482064e+2, -1064496.9, -1097833.0, 0.00054461934, 0.00000005277796, -0.000057649933, -1064496.9, -33739.23, 0.0, 10.0, 9.956052 
6.75e+2, 2.0477042e+2, -976332.9, -1019435.0, 0.0008142565, 0.00000005297057, 0.00006808322, -976332.9, -43082.977, 0.0, 10.0, 9.943291 
6.75e+2, 2.1471375e+2, -878045.9, -921409.9, 0.0008971588, 0.000000053192725, -0.0001268255, -878045.9, -42240.566, 0.0, 10.0, 9.942949 
6.75e+2, 2.2465037e+2, -789759.75, -843144.9, 0.0025789917, 0.000000052364264, 0.000120881305, -789759.75, -51333.46, 0.0, 10.0, 9.929908 
6.75e+2, 2.3458035e+2, -691326.25, -744966.44, 0.0005803338, 0.000000050346546, -0.00008881348, -691326.25, -50213.695, 0.0, 10.0, 9.929577 
6.75e+2, 2.4450338e+2, -603002.2, -667018.8, 0.0005464377, 0.00000005025996, 0.00007471411, -603002.2, -59135.29, 0.0, 10.0, 9.916136 
6.75e+2, 2.5441962e+2, -504249.5, -568343.3, 0.00074695953, 0.000000052481266, -0.00010673413, -504249.5, -57561.95, 0.0, 10.0, 9.916036 
6.75e+2, 2.643288e+2, -416014.1, -490987.88, 0.0014485208, 0.00000005320061, 0.0001405951, -416014.1, -66436.42, 0.0, 10.0, 9.901964 
6.75e+2, 2.742313e+2, -316728.88, -391374.78, 0.00044836244, 0.000000052003095, -0.00020344366, -316728.88, -64195.87, 0.0, 10.0, 9.902385 
6.75e+2, 2.841256e+2, -230255.61, -318081.25, 0.0009611568, 0.000000050979747, 0.00022904636, -230255.61, -74686.65, 0.0, 10.0, 9.885439 
6.75e+2, 2.940121e+2, -130549.48, -217765.0, -0.00019204507, 0.000000050203607, -0.00025334166, -130549.48, -71868.086, 0.0, 10.0, 9.886217 
6.75e+2, 3.0392656e+2, -40805.465, -84750.16, 0.000015051436, 0.0000000506595, 0.00017313716, -40805.465, -40805.465, 0.0, 10.0, 9.942173 
6.75e+2, 3.138706e+2, -39727.457, -82511.21, -0.00037099214, 0.000000052942326, -0.00005514381, -39727.457, -39727.457, 0.0, 10.0, 9.943684 
6.85e+2, 1.2499334e+2, -1719946.1, -1724224.6, 0.0011049955, 0.00000005636801, 0.000017614644, -1719946.1, -4880.8174, 0.0, 10.0, 9.994327 
6.85e+2, 1.349876e+2, -1622565.6, -1627434.9, 0.00032719772, 0.000000057163096, -0.00006840508, -1622565.6, -5444.0327, 0.0, 10.0, 9.993545 
6.85e+2, 1.4497514e+2, -1534464.3, -1548146.3, 0.0013455614, 0.000000056649384, 0.00007093184, -1534464.3, -15220.541, 0.0, 10.0, 9.981865 
6.85e+2, 1.5495703e+2, -1436736.5, -1450821.9, 0.00037532978, 0.000000054803937, -0.000056971916, -1436736.5, -15315.357, 0.0, 10.0, 9.981333 
6.85e+2, 1.6493228e+2, -1348685.5, -1371952.4, 0.0019172826, 0.000000053924392, 0.000047348272, -1348685.5, -25021.85, 0.0, 10.0, 9.969248 
6.85e+2, 1.7490156e+2, -1250727.5, -1274310.1, 0.0010966223, 0.00000005403105, -0.000073824325, -1250727.5, -24762.832, 0.0, 10.0, 9.968835 
6.85e+2, 1.8486421e+2, -1162646.6, -1195720.1, 0.0020215665, 0.00000005460674, 0.0000661513, -1162646.6, -34315.887, 0.0, 10.0, 9.956395 
6.85e+2, 1.9482064e+2, -1064496.9, -1097833.0, 0.0013582266, 0.0000000556732, -0.000057650766, -1064496.9, -33739.223, 0.0, 10.0, 9.956052 
6.85e+2, 2.0477042e+2, -976332.9, -1019435.0, 0.0015633128, 0.000000055424735, 0.00006808299, -976332.9, -43082.97, 0.0, 10.0, 9.943291 
6.85e+2, 2.1471375e+2, -878045.8, -921409.9, 0.00013090945, 0.000000053752157, -0.00012682348, -878045.8, -42240.55, 0.0, 10.0, 9.942949 
6.85e+2, 2.2465037e+2, -789759.75, -843144.9, 0.0018299927, 0.000000052658617, 0.00012088309, -789759.75, -51333.445, 0.0, 10.0, 9.929908 
6.85e+2, 2.3458035e+2, -691326.25, -744966.44, 0.0019315059, 0.000000052220972, -0.00008881477, -691326.25, -50213.684, 0.0, 10.0, 9.929577 
6.85e+2, 2.4450338e+2, -603002.2, -667018.75, 0.0019286633, 0.000000052796914, 0.00007471226, -603002.2, -59135.277, 0.0, 10.0, 9.916136 
6.85e+2, 2.5441962e+2, -504249.5, -568343.3, 0.00039602906, 0.000000054582845, -0.00010673355, -504249.5, -57561.938, 0.0, 10.0, 9.916036 
6.85e+2, 2.643288e+2, -416014.1, -490987.88, 0.0010151787, 0.000000054877688, 0.00014059654, -416014.1, -66436.414, 0.0, 10.0, 9.901964 
6.85e+2, 2.742313e+2, -316728.88, -391374.75, 0.00062758755, 0.000000053272096, -0.00020344341, -316728.88, -64195.86, 0.0, 10.0, 9.902385 
6.85e+2, 2.841256e+2, -230255.6, -318081.25, 0.0015184574, 0.000000052183776, 0.00022904592, -230255.6, -74686.63, 0.0, 10.0, 9.885439 
6.85e+2, 2.940121e+2, -130549.46, -217765.0, 0.0009084084, 0.00000005181209, -0.0002533421, -130549.46, -71868.07, 0.0, 10.0, 9.886217 
6.85e+2, 3.0392656e+2, -40805.453, -84750.16, 0.00091504154, 0.000000052457686, 0.00017313674, -40805.453, -40805.453, 0.0, 10.0, 9.942173 
6.85e+2, 3.138706e+2, -39727.44, -82511.21, -0.000077814395, 0.000000054606947, -0.000055144126, -39727.44, -39727.44, 0.0, 10.0, 9.943684 
6.95e+2, 1.2499334e+2, -1719946.1, -1724224.6, 0.00040888964, 0.000000058835436, 0.000017611865, -1719946.1, -4880.82, 0.0, 10.0, 9.994327 
6.95e+2, 1.349876e+2, -1622565.6, -1627434.9, -0.000369024, 0.000000058871255, -0.00006840253, -1622565.6, -5444.035, 0.0, 10.0, 9.993545 
6.95e+2, 1.4497514e+2, -1534464.3, -1548146.3, 0.0015457913, 0.00000005797491, 0.000070936214, -1534464.3, -15220.544, 0.0, 10.0, 9.981865 
6.95e+2, 1.5495703e+2, -1436736.5, -1450821.9, 0.0005769697, 0.00000005612438, -0.000056972276, -1436736.5, -15315.36, 0.0, 10.0, 9.981333 
6.95e+2, 1.6493228e+2, -1348685.5, -1371952.4, 0.0013058314, 0.000000055421722, 0.00004734662, -1348685.5, -25021.852, 0.0, 10.0, 9.969248 
6.95e+2, 1.7490156e+2, -1250727.5, -1274310.1, 0.00048086938, 0.000000055891096, -0.00007382376, -1250727.5, -24762.834, 0.0, 10.0, 9.968835 
6.95e+2, 1.8486421e+2, -1162646.6, -1195720.1, 0.0011754644, 0.000000056768425, 0.00006615174, -1162646.6, -34315.89, 0.0, 10.0, 9.956395 
6.95e+2, 1.9482064e+2, -1064496.9, -1097833.0, 0.00050944835, 0.000000058072647, -0.000057652902, -1064496.9, -33739.227, 0.0, 10.0, 9.956052 
6.95e+2, 2.0477042e+2, -976332.9, -1019435.0, 0.0022627427, 0.00000005708445, 0.00006808176, -976332.9, -43082.973, 0.0, 10.0, 9.943291 
6.95e+2, 2.1471375e+2, -878045.8, -921409.9, 0.00086231256, 0.000000053613462, -0.00012682003, -878045.8, -42240.555, 0.0, 10.0, 9.942949 
6.95e+2, 2.2465037e+2, -789759.75, -843144.9, 0.0011790367, 0.000000053059253, 0.00012088653, -789759.75, -51333.445, 0.0, 10.0, 9.929908 
6.95e+2, 2.3458035e+2, -691326.25, -744966.44, 0.0012353215, 0.000000055807458, -0.00008881664, -691326.25, -50213.684, 0.0, 10.0, 9.929577 
6.95e+2, 2.4450338e+2, -603002.2, -667018.8, 0.0015771495, 0.000000056812517, 0.00007470887, -603002.2, -59135.28, 0.0, 10.0, 9.916136 
6.95e+2, 2.5441962e+2, -504249.5, -568343.3, 0.00006107569, 0.000000055731967, -0.00010673391, -504249.5, -57561.94, 0.0, 10.0, 9.916036 
6.95e+2, 2.643288e+2, -416014.1, -490987.88, 0.0013495423, 0.00000005484063, 0.00014059787, -416014.1, -66436.414, 0.0, 10.0, 9.901964 
6.95e+2, 2.742313e+2, -316728.88, -391374.78, 0.0010068278, 0.000000054194977, -0.0002034421, -316728.88, -64195.86, 0.0, 10.0, 9.902385 
6.95e+2, 2.841256e+2, -230255.61, -318081.25, 0.0013841515, 0.000000054182372, 0.00022904646, -230255.61, -74686.63, 0.0, 10.0, 9.885439 
6.95e+2, 2.940121e+2, -130549.47, -217765.0, 0.0007278314, 0.00000005503485, -0.00025334334, -130549.47, -71868.07, 0.0, 10.0, 9.886217 
6.95e+2, 3.0392656e+2, -40805.453, -84750.164, 0.0006685322, 0.000000055245955, 0.00017313517, -40805.453, -40805.453, 0.0, 10.0, 9.942173 
6.95e+2, 3.138706e+2, -39727.445, -82511.21, -0.000332061, 0.00000005449676, -0.000055143802, -39727.445, -39727.445, 0.0, 10.0, 9.943684 
7.05e+2, 1.2499334e+2, -1719946.0, -1724224.6, 0.0009974247, 0.00000006111177, 0.000017611843, -1719946.0, -4880.8066, 0.0, 10.0, 9.994327 
7.05e+2, 1.349876e+2, -1622565.6, -1627434.9, -0.000766204, 0.0000000598621, -0.00006840147, -1622565.6, -5444.0195, 0.0, 10.0, 9.993545 
7.05e+2, 1.4497514e+2, -1534464.1, -1548146.3, 0.0011079948, 0.000000058939104, 0.00007093847, -1534464.1, -15220.527, 0.0, 10.0, 9.981865 
7.05e+2, 1.5495703e+2, -1436736.5, -1450821.9, 0.0008135311, 0.00000005832717, -0.000056971872, -1436736.5, -15315.348, 0.0, 10.0, 9.981333 
7.05e+2, 1.6493228e+2, -1348685.5, -1371952.4, 0.0017151143, 0.00000005816937, 0.000047346264, -1348685.5, -25021.842, 0.0, 10.0, 9.969248 
7.05e+2, 1.7490156e+2, -1250727.5, -1274310.1, 0.0009865258, 0.00000005847529, -0.00007382376, -1250727.5, -24762.822, 0.0, 10.0, 9.968835 
7.05e+2, 1.8486421e+2, -1162646.5, -1195720.1, 0.0018332928, 0.000000058583584, 0.000066151944, -1162646.5, -34315.875, 0.0, 10.0, 9.956395 
7.05e+2, 1.9482064e+2, -1064496.9, -1097833.0, 0.00089154794, 0.000000058485064, -0.000057652644, -1064496.9, -33739.207, 0.0, 10.0, 9.956052 
7.05e+2, 2.0477042e+2, -976332.9, -1019435.0, 0.002876762, 0.00000005758813, 0.000068082, -976332.9, -43082.953, 0.0, 10.0, 9.943291 
7.05e+2, 2.1471375e+2, -878045.8, -921409.9, 0.0017339449, 0.000000055826476, -0.00012681988, -878045.8, -42240.543, 0.0, 10.0, 9.942949 
7.05e+2, 2.2465037e+2, -789759.7, -843144.9, 0.0015098095, 0.000000055997813, 0.00012088663, -789759.7, -51333.438, 0.0, 10.0, 9.929908 
7.05e+2, 2.3458035e+2, -691326.2, -744966.44, 0.0011207053, 0.000000058357433, -0.0000888165, -691326.2, -50213.67, 0.0, 10.0, 9.929577 
7.05e+2, 2.4450338e+2, -603002.1, -667018.8, 0.0020964001, 0.000000058662586, 0.000074708856, -603002.1, -59135.27, 0.0, 10.0, 9.916136 
7.05e+2, 2.5441962e+2, -504249.47, -568343.3, 0.0011725506, 0.000000056511432, -0.00010673432, -504249.47, -57561.926, 0.0, 10.0, 9.916036 
7.05e+2, 2.643288e+2, -416014.06, -490987.88, 0.0021365848, 0.000000055496002, 0.00014059755, -416014.06, -66436.4, 0.0, 10.0, 9.901964 
7.05e+2, 2.742313e+2, -316728.84, -391374.75, 0.0008502923, 0.00000005593165, -0.00020344171, -316728.84, -64195.848, 0.0, 10.0, 9.902385 
7.05e+2, 2.841256e+2, -230255.6, -318081.25, 0.0006931189, 0.000000056571665, 0.00022904712, -230255.6, -74686.625, 0.0, 10.0, 9.885439 
7.05e+2, 2.940121e+2, -130549.45, -217765.0, 0.000143649, 0.000000057484545, -0.00025334305, -130549.45, -71868.06, 0.0, 10.0, 9.886217 
7.05e+2, 3.0392656e+2, -40805.44, -84750.16, 0.00053805276, 0.000000057331427, 0.00017313512, -40805.44, -40805.44, 0.0, 10.0, 9.942173 
7.05e+2, 3.138706e+2, -39727.43, -82511.21, -0.0001887782, 0.000000055593052, -0.00005514418, -39727.43, -39727.43, 0.0, 10.0, 9.943684 
7.15e+2, 1.2499334e+2, -1719946.0, -1724224.6, 0.00087434746, 0.00000006319701, 0.000017614579, -1719946.0, -4880.811, 0.0, 10.0, 9.994327 
7.15e+2, 1.349876e+2, -1622565.6, -1627434.9, -0.0008892836, 0.00000006013565, -0.00006840189, -1622565.6, -5444.024, 0.0, 10.0, 9.993545 
7.15e+2, 1.4497514e+2, -1534464.1, -1548146.3, 0.0003263212, 0.00000005954197, 0.0000709386, -1534464.1, -15220.528, 0.0, 10.0, 9.981865 
7.15e+2, 1.5495703e+2, -1436736.5, -1450821.9, 0.000030800544, 0.00000006141231, -0.000056970704, -1436736.5, -15315.35, 0.0, 10.0, 9.981333 
7.15e+2, 1.6493228e+2, -1348685.5, -1371952.4, 0.0013090759, 0.00000006216733, 0.000047347206, -1348685.5, -25021.844, 0.0, 10.0, 9.969248 
7.15e+2, 1.7490156e+2, -1250727.5, -1274310.1, 0.00058246334, 0.00000006178362, -0.00007382434, -1250727.5, -24762.826, 0.0, 10.0, 9.968835 
7.15e+2, 1.8486421e+2, -1162646.5, -1195720.1, 0.0021311159, 0.000000060052216, 0.00006615191, -1162646.5, -34315.88, 0.0, 10.0, 9.956395 
7.15e+2, 1.9482064e+2, -1064496.9, -1097833.0, 0.0011974896, 0.00000005691046, -0.00005764999, -1064496.9, -33739.21, 0.0, 10.0, 9.956052 
7.15e+2, 2.0477042e+2, -976332.9, -1019435.0, 0.0021431022, 0.00000005693579, 0.000068083704, -976332.9, -43082.957, 0.0, 10.0, 9.943291 
7.15e+2, 2.1471375e+2, -878045.8, -921409.9, 0.0009788082, 0.00000006039119, -0.00012682308, -878045.8, -42240.547, 0.0, 10.0, 9.942949 
7.15e+2, 2.2465037e+2, -789759.7, -843144.9, 0.001185186, 0.0000000614743, 0.00012088337, -789759.7, -51333.438, 0.0, 10.0, 9.929908 
7.15e+2, 2.3458035e+2, -691326.2, -744966.44, 0.00081015856, 0.0000000598709, -0.000088814355, -691326.2, -50213.67, 0.0, 10.0, 9.929577 
7.15e+2, 2.4450338e+2, -603002.1, -667018.8, 0.002663424, 0.000000058347126, 0.00007471222, -603002.1, -59135.273, 0.0, 10.0, 9.916136 
7.15e+2, 2.5441962e+2, -504249.5, -568343.3, 0.001781748, 0.00000005692124, -0.00010673476, -504249.5, -57561.93, 0.0, 10.0, 9.916036 
7.15e+2, 2.643288e+2, -416014.06, -490987.88, 0.0016052524, 0.000000056843806, 0.00014059558, -416014.06, -66436.4, 0.0, 10.0, 9.901964 
7.15e+2, 2.742313e+2, -316728.84, -391374.78, 0.00024249277, 0.00000005848211, -0.00020344227, -316728.84, -64195.85, 0.0, 10.0, 9.902385 
7.15e+2, 2.841256e+2, -230255.6, -318081.25, 0.00051580503, 0.000000059351652, 0.00022904786, -230255.6, -74686.625, 0.0, 10.0, 9.885439 
7.15e+2, 2.940121e+2, -130549.45, -217765.0, 0.0000051264483, 0.000000059161184, -0.0002533412, -130549.45, -71868.06, 0.0, 10.0, 9.886217 
7.15e+2, 3.0392656e+2, -40805.445, -84750.164, 0.0010349564, 0.0000000587141, 0.0001731366, -40805.445, -40805.445, 0.0, 10.0, 9.942173 
7.15e+2, 3.138706e+2, -39727.43, -82511.21, 0.0003827291, 0.00000005789582, -0.00005514527, -39727.43, -39727.43, 0.0, 10.0, 9.943684 
7.25e+2, 1.2499334e+2, -1719946.0, -1724224.6, 0.00087389274, 0.00000006464182, 0.000017616445, -1719946.0, -4880.7954, 0.0, 10.0, 9.994327 
7.25e+2, 1.349876e+2, -1622565.6, -1627434.9, 0.0008017539, 0.00000006206946, -0.000068403264, -1622565.6, -5444.0103, 0.0, 10.0, 9.993545 
7.25e+2, 1.4497514e+2, -1534464.1, -1548146.3, 0.0019110464, 0.000000061796065, 0.00007093781, -1534464.1, -15220.516, 0.0, 10.0, 9.981865 
7.25e+2, 1.5495703e+2, -1436736.5, -1450821.9, 0.00059596554, 0.000000063815385, -0.000056970457, -1436736.5, -15315.336, 0.0, 10.0, 9.981333 
7.25e+2, 1.6493228e+2, -1348685.5, -1371952.4, 0.0017949019, 0.00000006432505, 0.00004734785, -1348685.5, -25021.83, 0.0, 10.0, 9.969248 
7.25e+2, 1.7490156e+2, -1250727.5, -1274310.1, 0.0007904377, 0.00000006329333, -0.000073823954, -1250727.5, -24762.81, 0.0, 10.0, 9.968835 
7.25e+2, 1.8486421e+2, -1162646.5, -1195720.1, 0.0023916655, 0.000000061426256, 0.00006615254, -1162646.5, -34315.863, 0.0, 10.0, 9.956395 
7.25e+2, 1.9482064e+2, -1064496.8, -1097833.0, 0.0012253398, 0.000000058684947, -0.000057648573, -1064496.8, -33739.195, 0.0, 10.0, 9.956052 
7.25e+2, 2.0477042e+2, -976332.8, -1019435.0, 0.0017735832, 0.000000059121714, 0.00006808441, -976332.8, -43082.945, 0.0, 10.0, 9.943291 
7.25e+2, 2.1471375e+2, -878045.8, -921409.9, 0.0018867836, 0.00000006300042, -0.00012682471, -878045.8, -42240.53, 0.0, 10.0, 9.942949 
7.25e+2, 2.2465037e+2, -789759.7, -843144.9, 0.0028600143, 0.000000063695005, 0.0001208818, -789759.7, -51333.426, 0.0, 10.0, 9.929908 
7.25e+2, 2.3458035e+2, -691326.2, -744966.44, 0.000718393, 0.00000006078415, -0.000088813125, -691326.2, -50213.656, 0.0, 10.0, 9.929577 
7.25e+2, 2.4450338e+2, -603002.1, -667018.75, 0.00171148, 0.000000059164385, 0.000074714335, -603002.1, -59135.254, 0.0, 10.0, 9.916136 
7.25e+2, 2.5441962e+2, -504249.47, -568343.3, 0.0012719334, 0.000000059090517, -0.00010673402, -504249.47, -57561.914, 0.0, 10.0, 9.916036 
7.25e+2, 2.643288e+2, -416014.06, -490987.88, 0.001424182, 0.000000059547002, 0.00014059532, -416014.06, -66436.39, 0.0, 10.0, 9.901964 
7.25e+2, 2.742313e+2, -316728.84, -391374.75, 0.0010104346, 0.000000060674715, -0.0002034431, -316728.84, -64195.836, 0.0, 10.0, 9.902385 
7.25e+2, 2.841256e+2, -230255.58, -318081.25, 0.0017676275, 0.000000061031635, 0.00022904701, -230255.58, -74686.61, 0.0, 10.0, 9.885439 
7.25e+2, 2.940121e+2, -130549.44, -217765.0, 0.00035079848, 0.00000006033063, -0.0002533413, -130549.44, -71868.05, 0.0, 10.0, 9.886217 
7.25e+2, 3.0392656e+2, -40805.43, -84750.16, 0.0008646708, 0.000000060077014, 0.00017313691, -40805.43, -40805.43, 0.0, 10.0, 9.942173 
7.25e+2, 3.138706e+2, -39727.418, -82511.21, 0.00021257468, 0.00000006049743, -0.000055144978, -39727.418, -39727.418, 0.0, 10.0, 9.943684 
7.35e+2, 1.2499334e+2, -1719946.0, -1724224.6, 0.0003463328, 0.00000006544619, 0.00001761744, -1719946.0, -4880.7964, 0.0, 10.0, 9.994327 
7.35e+2, 1.349876e+2, -1622565.6, -1627434.9, 0.0002740829, 0.000000065663535, -0.0000684056, -1622565.6, -5444.0107, 0.0, 10.0, 9.993545 
7.35e+2, 1.4497514e+2, -1534464.1, -1548146.3, 0.0011350412, 0.00000006570138, 0.000070936076, -1534464.1, -15220.519, 0.0, 10.0, 9.981865 
7.35e+2, 1.5495703e+2, -1436736.5, -1450821.9, -0.00018045018, 0.00000006553639, -0.00005697113, -1436736.5, -15315.34, 0.0, 10.0, 9.981333 
7.35e+2, 1.6493228e+2, -1348685.5, -1371952.4, 0.0017867137, 0.00000006464253, 0.0000473482, -1348685.5, -25021.834, 0.0, 10.0, 9.969248 
7.35e+2, 1.7490156e+2, -1250727.5, -1274310.1, 0.00078629196, 0.00000006300441, -0.00007382261, -1250727.5, -24762.813, 0.0, 10.0, 9.968835 
7.35e+2, 1.8486421e+2, -1162646.5, -1195720.1, 0.0023076301, 0.0000000627057, 0.00006615385, -1162646.5, -34315.867, 0.0, 10.0, 9.956395 
7.35e+2, 1.9482064e+2, -1064496.8, -1097833.0, 0.0011403711, 0.000000063808514, -0.000057648387, -1064496.8, -33739.2, 0.0, 10.0, 9.956052 
7.35e+2, 2.0477042e+2, -976332.8, -1019435.0, 0.000936017, 0.000000064145894, 0.00006808411, -976332.8, -43082.945, 0.0, 10.0, 9.943291 
7.35e+2, 2.1471375e+2, -878045.8, -921409.9, 0.0010336607, 0.00000006365418, -0.0001268248, -878045.8, -42240.53, 0.0, 10.0, 9.942949 
7.35e+2, 2.2465037e+2, -789759.7, -843144.9, 0.0034063878, 0.00000006265994, 0.000120881916, -789759.7, -51333.43, 0.0, 10.0, 9.929908 
7.35e+2, 2.3458035e+2, -691326.2, -744966.44, 0.001310551, 0.0000000610972, -0.00008881283, -691326.2, -50213.66, 0.0, 10.0, 9.929577 
7.35e+2, 2.4450338e+2, -603002.1, -667018.8, 0.0012631222, 0.00000006111436, 0.000074715215, -603002.1, -59135.258, 0.0, 10.0, 9.916136 
7.35e+2, 2.5441962e+2, -504249.47, -568343.3, 0.0007735703, 0.00000006301926, -0.00010673208, -504249.47, -57561.918, 0.0, 10.0, 9.916036 
7.35e+2, 2.643288e+2, -416014.06, -490987.88, 0.0013676601, 0.00000006360558, 0.00014059673, -416014.06, -66436.39, 0.0, 10.0, 9.901964 
7.35e+2, 2.742313e+2, -316728.84, -391374.78, 0.000983536, 0.00000006250945, -0.00020344422, -316728.84, -64195.836, 0.0, 10.0, 9.902385 
7.35e+2, 2.841256e+2, -230255.58, -318081.25, 0.0019306103, 0.0000000616116, 0.00022904458, -230255.58, -74686.61, 0.0, 10.0, 9.885439 
7.35e+2, 2.940121e+2, -130549.445, -217765.0, 0.00053089706, 0.000000060992875, -0.0002533434, -130549.445, -71868.05, 0.0, 10.0, 9.886217 
7.35e+2, 3.0392656e+2, -40805.43, -84750.16, 0.0005009577, 0.00000006142016, 0.00017313607, -40805.43, -40805.43, 0.0, 10.0, 9.942173 
7.35e+2, 3.138706e+2, -39727.42, -82511.21, -0.00021497245, 0.000000063397884, -0.000055143315, -39727.42, -39727.42, 0.0, 10.0, 9.943684 
7.45e+2, 1.2499334e+2, -1719946.0, -1724224.6, 0.002054449, 0.00000006712698, 0.000017617038, -1719946.0, -4880.781, 0.0, 10.0, 9.994327 
7.45e+2, 1.349876e+2, -1622565.5, -1627434.9, 0.00073328736, 0.00000006866036, -0.00006840598, -1622565.5, -5443.998, 0.0, 10.0, 9.993545 
7.45e+2, 1.4497514e+2, -1534464.1, -1548146.3, 0.0017485823, 0.0000000685711, 0.00007093708, -1534464.1, -15220.506, 0.0, 10.0, 9.981865 
7.45e+2, 1.5495703e+2, -1436736.5, -1450821.9, 0.000730288, 0.000000066825166, -0.00005697103, -1436736.5, -15315.322, 0.0, 10.0, 9.981333 
7.45e+2, 1.6493228e+2, -1348685.5, -1371952.4, 0.0026729472, 0.00000006533092, 0.000047348243, -1348685.5, -25021.814, 0.0, 10.0, 9.969248 
7.45e+2, 1.7490156e+2, -1250727.5, -1274310.1, 0.0012430764, 0.00000006409359, -0.00007382177, -1250727.5, -24762.795, 0.0, 10.0, 9.968835 
7.45e+2, 1.8486421e+2, -1162646.5, -1195720.1, 0.00240945, 0.00000006485423, 0.000066154294, -1162646.5, -34315.85, 0.0, 10.0, 9.956395 
7.45e+2, 1.9482064e+2, -1064496.8, -1097833.0, 0.0021052507, 0.000000067705535, -0.00005764956, -1064496.8, -33739.19, 0.0, 10.0, 9.956052 
7.45e+2, 2.0477042e+2, -976332.8, -1019435.0, 0.0023842999, 0.00000006759449, 0.000068083325, -976332.8, -43082.934, 0.0, 10.0, 9.943291 
7.45e+2, 2.1471375e+2, -878045.8, -921409.9, 0.00060534413, 0.00000006427499, -0.00012682303, -878045.8, -42240.51, 0.0, 10.0, 9.942949 
7.45e+2, 2.2465037e+2, -789759.7, -843144.9, 0.0024754968, 0.000000062654124, 0.00012088389, -789759.7, -51333.41, 0.0, 10.0, 9.929908 
7.45e+2, 2.3458035e+2, -691326.2, -744966.44, 0.0020757029, 0.0000000629571, -0.000088813336, -691326.2, -50213.645, 0.0, 10.0, 9.929577 
7.45e+2, 2.4450338e+2, -603002.1, -667018.75, 0.00230997, 0.00000006393334, 0.00007471381, -603002.1, -59135.242, 0.0, 10.0, 9.916136 
7.45e+2, 2.5441962e+2, -504249.47, -568343.3, 0.0011987064, 0.00000006571174, -0.00010673249, -504249.47, -57561.902, 0.0, 10.0, 9.916036 
7.45e+2, 2.643288e+2, -416014.06, -490987.88, 0.0018251697, 0.000000065939474, 0.00014059705, -416014.06, -66436.375, 0.0, 10.0, 9.901964 
7.45e+2, 2.742313e+2, -316728.8, -391374.75, 0.0008159545, 0.00000006419195, -0.00020344352, -316728.8, -64195.82, 0.0, 10.0, 9.902385 
7.45e+2, 2.841256e+2, -230255.56, -318081.25, 0.0015983043, 0.000000063107954, 0.00022904508, -230255.56, -74686.59, 0.0, 10.0, 9.885439 
7.45e+2, 2.940121e+2, -130549.43, -217765.0, 0.0010407628, 0.0000000629411, -0.00025334387, -130549.43, -71868.03, 0.0, 10.0, 9.886217 
7.45e+2, 3.0392656e+2, -40805.414, -84750.16, 0.00090220146, 0.000000063425, 0.00017313546, -40805.414, -40805.414, 0.0, 10.0, 9.942173 
7.45e+2, 3.138706e+2, -39727.402, -82511.21, -0.00080792984, 0.00000006486672, -0.000055142802, -39727.402, -39727.402, 0.0, 10.0, 9.943684 
7.55e+2, 1.2499334e+2, -1719946.0, -1724224.6, 0.00089649693, 0.00000006968419, 0.000017615243, -1719946.0, -4880.784, 0.0, 10.0, 9.994327 
7.55e+2, 1.349876e+2, -1622565.5, -1627434.9, -0.00042489188, 0.00000007105995, -0.000068404406, -1622565.5, -5444.0015, 0.0, 10.0, 9.993545 
7.55e+2, 1.4497514e+2, -1534464.1, -1548146.3, 0.002102047, 0.00000007040523, 0.000070940805, -1534464.1, -15220.509, 0.0, 10.0, 9.981865 
7.55e+2, 1.5495703e+2, -1436736.5, -1450821.9, 0.0010861303, 0.000000067681704, -0.00005697014, -1436736.5, -15315.325, 0.0, 10.0, 9.981333 
7.55e+2, 1.6493228e+2, -1348685.5, -1371952.4, 0.002331371, 0.00000006639022, 0.000047347985, -1348685.5, -25021.818, 0.0, 10.0, 9.969248 
7.55e+2, 1.7490156e+2, -1250727.5, -1274310.1, 0.00089780556, 0.00000006656088, -0.000073821444, -1250727.5, -24762.799, 0.0, 10.0, 9.968835 
7.55e+2, 1.8486421e+2, -1162646.5, -1195720.1, 0.0010218262, 0.00000006787183, 0.000066153894, -1162646.5, -34315.85, 0.0, 10.0, 9.956395 
7.55e+2, 1.9482064e+2, -1064496.8, -1097833.0, 0.0007055423, 0.00000007037601, -0.00005765209, -1064496.8, -33739.19, 0.0, 10.0, 9.956052 
7.55e+2, 2.0477042e+2, -976332.8, -1019435.0, 0.0036089984, 0.000000069467504, 0.000068082045, -976332.8, -43082.938, 0.0, 10.0, 9.943291 
7.55e+2, 2.1471375e+2, -878045.8, -921409.9, 0.0018842435, 0.00000006486288, -0.00012681939, -878045.8, -42240.516, 0.0, 10.0, 9.942949 
7.55e+2, 2.2465037e+2, -789759.7, -843144.9, 0.0017722293, 0.00000006367754, 0.00012088773, -789759.7, -51333.41, 0.0, 10.0, 9.929908 
7.55e+2, 2.3458035e+2, -691326.2, -744966.44, 0.0013075834, 0.00000006636386, -0.00008881464, -691326.2, -50213.65, 0.0, 10.0, 9.929577 
7.55e+2, 2.4450338e+2, -603002.1, -667018.8, 0.0018276037, 0.00000006762133, 0.00007471012, -603002.1, -59135.246, 0.0, 10.0, 9.916136 
7.55e+2, 2.5441962e+2, -504249.47, -568343.3, 0.00073006935, 0.000000067167974, -0.00010673526, -504249.47, -57561.906, 0.0, 10.0, 9.916036 
7.55e+2, 2.643288e+2, -416014.06, -490987.88, 0.0022441787, 0.000000066548665, 0.00014059625, -416014.06, -66436.375, 0.0, 10.0, 9.901964 
7.55e+2, 2.742313e+2, -316728.8, -391374.78, 0.0012944806, 0.000000065722205, -0.000203441, -316728.8, -64195.824, 0.0, 10.0, 9.902385 
7.55e+2, 2.841256e+2, -230255.56, -318081.25, 0.0016152322, 0.00000006552069, 0.00022904853, -230255.56, -74686.59, 0.0, 10.0, 9.885439 
7.55e+2, 2.940121e+2, -130549.43, -217765.0, 0.0010161042, 0.00000006617528, -0.00025334273, -130549.43, -71868.04, 0.0, 10.0, 9.886217 
7.55e+2, 3.0392656e+2, -40805.418, -84750.164, 0.0009771143, 0.00000006609154, 0.0001731351, -40805.418, -40805.418, 0.0, 10.0, 9.942173 
7.55e+2, 3.138706e+2, -39727.406, -82511.22, -0.00072131783, 0.000000064903944, -0.00005514345, -39727.406, -39727.406, 0.0, 10.0, 9.943684 
7.65e+2, 1.2499334e+2, -1719946.0, -1724224.6, 0.00022059279, 0.00000007324112, 0.000017616549, -1719946.0, -4880.7715, 0.0, 10.0, 9.994327 
7.65e+2, 1.349876e+2, -1622565.5, -1627434.9, -0.0009967024, 0.00000007220675, -0.000068403664, -1622565.5, -5443.9824, 0.0, 10.0, 9.993545 
7.65e+2, 1.4497514e+2, -1534464.1, -1548146.3, 0.001755074, 0.00000007098998, 0.000070942886, -1534464.1, -15220.488, 0.0, 10.0, 9.981865 
7.65e+2, 1.5495703e+2, -1436736.5, -1450821.9, 0.0006022057, 0.00000006956195, -0.000056968725, -1436736.5, -15315.309, 0.0, 10.0, 9.981333 
7.65e+2, 1.6493228e+2, -1348685.5, -1371952.4, 0.0019894883, 0.0000000693785, 0.00004734841, -1348685.5, -25021.805, 0.0, 10.0, 9.969248 
7.65e+2, 1.7490156e+2, -1250727.5, -1274310.1, 0.0019226018, 0.00000007046589, -0.00007382235, -1250727.5, -24762.787, 0.0, 10.0, 9.968835 
7.65e+2, 1.8486421e+2, -1162646.5, -1195720.1, 0.0024555044, 0.00000007081826, 0.00006615306, -1162646.5, -34315.84, 0.0, 10.0, 9.956395 
7.65e+2, 1.9482064e+2, -1064496.8, -1097833.0, 0.00072968466, 0.00000007040149, -0.00005765137, -1064496.8, -33739.168, 0.0, 10.0, 9.956052 
7.65e+2, 2.0477042e+2, -976332.8, -1019435.0, 0.003432814, 0.00000006934023, 0.00006808329, -976332.8, -43082.914, 0.0, 10.0, 9.943291 
7.65e+2, 2.1471375e+2, -878045.8, -921409.9, 0.0021398491, 0.00000006758099, -0.00012681875, -878045.8, -42240.504, 0.0, 10.0, 9.942949 
7.65e+2, 2.2465037e+2, -789759.7, -843144.9, 0.0018815228, 0.00000006754859, 0.000120887846, -789759.7, -51333.4, 0.0, 10.0, 9.929908 
7.65e+2, 2.3458035e+2, -691326.2, -744966.44, 0.001750741, 0.00000006947104, -0.00008881495, -691326.2, -50213.633, 0.0, 10.0, 9.929577 
7.65e+2, 2.4450338e+2, -603002.1, -667018.75, 0.002920561, 0.00000006977407, 0.00007470961, -603002.1, -59135.23, 0.0, 10.0, 9.916136 
7.65e+2, 2.5441962e+2, -504249.44, -568343.3, 0.0016741705, 0.00000006814067, -0.00010673569, -504249.44, -57561.887, 0.0, 10.0, 9.916036 
7.65e+2, 2.643288e+2, -416014.03, -490987.88, 0.0026332545, 0.000000067351614, 0.00014059608, -416014.03, -66436.36, 0.0, 10.0, 9.901964 
7.65e+2, 2.742313e+2, -316728.8, -391374.75, 0.00087939884, 0.000000067641594, -0.00020344068, -316728.8, -64195.81, 0.0, 10.0, 9.902385 
7.65e+2, 2.841256e+2, -230255.55, -318081.25, 0.00059948204, 0.000000068073085, 0.00022904936, -230255.55, -74686.58, 0.0, 10.0, 9.885439 
7.65e+2, 2.940121e+2, -130549.414, -217765.0, -0.0002823263, 0.00000006869315, -0.0002533414, -130549.414, -71868.02, 0.0, 10.0, 9.886217 
7.65e+2, 3.0392656e+2, -40805.402, -84750.16, 0.0004316005, 0.00000006840362, 0.00017313578, -40805.402, -40805.402, 0.0, 10.0, 9.942173 
7.65e+2, 3.138706e+2, -39727.39, -82511.21, 0.00032169002, 0.000000066762055, -0.000055145083, -39727.39, -39727.39, 0.0, 10.0, 9.943684 
7.75e+2, 1.2499334e+2, -1719946.0, -1724224.6, 0.0005509979, 0.000000077797765, 0.000017620954, -1719946.0, -4880.775, 0.0, 10.0, 9.994327 
7.75e+2, 1.349876e+2, -1622565.5, -1627434.9, -0.00066616567, 0.00000007210078, -0.00006840375, -1622565.5, -5443.986, 0.0, 10.0, 9.993545 
7.75e+2, 1.4497514e+2, -1534464.1, -1548146.3, 0.0010564928, 0.00000007032535, 0.00007094331, -1534464.1, -15220.491, 0.0, 10.0, 9.981865 
7.75e+2, 1.5495703e+2, -1436736.5, -1450821.9, -0.00009802457, 0.000000072465895, -0.00005696677, -1436736.5, -15315.312, 0.0, 10.0, 9.981333 
7.75e+2, 1.6493228e+2, -1348685.5, -1371952.4, 0.0010566455, 0.00000007429576, 0.00004734952, -1348685.5, -25021.805, 0.0, 10.0, 9.969248 
7.75e+2, 1.7490156e+2, -1250727.5, -1274310.1, 0.0009885121, 0.000000075808614, -0.0000738245, -1250727.5, -24762.79, 0.0, 10.0, 9.968835 
7.75e+2, 1.8486421e+2, -1162646.5, -1195720.1, 0.0033515757, 0.00000007369352, 0.0000661518, -1162646.5, -34315.844, 0.0, 10.0, 9.956395 
7.75e+2, 1.9482064e+2, -1064496.8, -1097833.0, 0.0016469362, 0.000000067782004, -0.000057647398, -1064496.8, -33739.17, 0.0, 10.0, 9.956052 
7.75e+2, 2.0477042e+2, -976332.8, -1019435.0, 0.002390104, 0.00000006721268, 0.00006808704, -976332.8, -43082.918, 0.0, 10.0, 9.943291 
7.75e+2, 2.1471375e+2, -878045.8, -921409.9, 0.001056651, 0.00000007242931, -0.0001268211, -878045.8, -42240.508, 0.0, 10.0, 9.942949 
7.75e+2, 2.2465037e+2, -789759.7, -843144.9, 0.0017045861, 0.00000007426726, 0.00012088425, -789759.7, -51333.4, 0.0, 10.0, 9.929908 
7.75e+2, 2.3458035e+2, -691326.2, -744966.44, 0.0016034435, 0.000000072278645, -0.00008881427, -691326.2, -50213.633, 0.0, 10.0, 9.929577 
7.75e+2, 2.4450338e+2, -603002.1, -667018.8, 0.0035577968, 0.00000007039158, 0.000074712276, -603002.1, -59135.234, 0.0, 10.0, 9.916136 
7.75e+2, 2.5441962e+2, -504249.44, -568343.3, 0.0023491094, 0.00000006862983, -0.0001067338, -504249.44, -57561.89, 0.0, 10.0, 9.916036 
7.75e+2, 2.643288e+2, -416014.03, -490987.88, 0.0022036878, 0.000000068348314, 0.00014059653, -416014.03, -66436.36, 0.0, 10.0, 9.901964 
7.75e+2, 2.742313e+2, -316728.8, -391374.78, 0.000375784, 0.00000006995012, -0.00020344253, -316728.8, -64195.813, 0.0, 10.0, 9.902385 
7.75e+2, 2.841256e+2, -230255.55, -318081.25, 0.0005216332, 0.00000007076515, 0.00022904757, -230255.55, -74686.586, 0.0, 10.0, 9.885439 
7.75e+2, 2.940121e+2, -130549.414, -217765.0, -0.0003218045, 0.000000070494686, -0.0002533399, -130549.414, -71868.02, 0.0, 10.0, 9.886217 
7.75e+2, 3.0392656e+2, -40805.402, -84750.16, 0.0008473882, 0.000000070361246, 0.00017313751, -40805.402, -40805.402, 0.0, 10.0, 9.942173 
7.75e+2, 3.138706e+2, -39727.39, -82511.21, 0.00079093705, 0.00000007044105, -0.0000551477, -39727.39, -39727.39, 0.0, 10.0, 9.943684 
7.85e+2, 1.2499334e+2, -1719946.0, -1724224.6, 0.0014645468, 0.0000000791891, 0.00001762162, -1719946.0, -4880.7554, 0.0, 10.0, 9.994327 
7.85e+2, 1.349876e+2, -1622565.5, -1627434.9, 0.00050379895, 0.00000007431115, -0.00006840381, -1622565.5, -5443.969, 0.0, 10.0, 9.993545 
7.85e+2, 1.4497514e+2, -1534464.1, -1548146.3, 0.0018129187, 0.000000073237786, 0.00007094409, -1534464.1, -15220.477, 0.0, 10.0, 9.981865 
7.85e+2, 1.5495703e+2, -1436736.5, -1450821.9, 0.0012632018, 0.000000075960706, -0.000056967754, -1436736.5, -15315.299, 0.0, 10.0, 9.981333 
7.85e+2, 1.6493228e+2, -1348685.5, -1371952.4, 0.002384631, 0.00000007728, 0.00004734865, -1348685.5, -25021.791, 0.0, 10.0, 9.969248 
7.85e+2, 1.7490156e+2, -1250727.5, -1274310.1, 0.0005699366, 0.00000007716626, -0.00007382335, -1250727.5, -24762.768, 0.0, 10.0, 9.968835 
7.85e+2, 1.8486421e+2, -1162646.5, -1195720.1, 0.0030297374, 0.000000074795096, 0.00006615374, -1162646.5, -34315.824, 0.0, 10.0, 9.956395 
7.85e+2, 1.9482064e+2, -1064496.8, -1097833.0, 0.0018044886, 0.00000007006162, -0.000057645957, -1064496.8, -33739.156, 0.0, 10.0, 9.956052 
7.85e+2, 2.0477042e+2, -976332.8, -1019435.0, 0.002152366, 0.000000070078514, 0.00006808719, -976332.8, -43082.902, 0.0, 10.0, 9.943291 
7.85e+2, 2.1471375e+2, -878045.75, -921409.9, 0.0023326718, 0.000000075240315, -0.00012682311, -878045.75, -42240.492, 0.0, 10.0, 9.942949 
7.85e+2, 2.2465037e+2, -789759.7, -843144.9, 0.0036812562, 0.000000076646344, 0.00012088249, -789759.7, -51333.383, 0.0, 10.0, 9.929908 
7.85e+2, 2.3458035e+2, -691326.1, -744966.44, 0.0010194875, 0.00000007379921, -0.00008881306, -691326.1, -50213.617, 0.0, 10.0, 9.929577 
7.85e+2, 2.4450338e+2, -603002.1, -667018.75, 0.0018362708, 0.00000007187629, 0.000074714735, -603002.1, -59135.215, 0.0, 10.0, 9.916136 
7.85e+2, 2.5441962e+2, -504249.44, -568343.3, 0.0010657042, 0.00000007106176, -0.00010673214, -504249.44, -57561.875, 0.0, 10.0, 9.916036 
7.85e+2, 2.643288e+2, -416014.03, -490987.88, 0.0015893797, 0.00000007113577, 0.00014059701, -416014.03, -66436.34, 0.0, 10.0, 9.901964 
7.85e+2, 2.742313e+2, -316728.78, -391374.75, 0.0016945242, 0.00000007233781, -0.00020344372, -316728.78, -64195.793, 0.0, 10.0, 9.902385 
7.85e+2, 2.841256e+2, -230255.53, -318081.25, 0.0028519009, 0.00000007277395, 0.00022904568, -230255.53, -74686.56, 0.0, 10.0, 9.885439 
7.85e+2, 2.940121e+2, -130549.4, -217765.0, 0.0011662928, 0.00000007215667, -0.0002533412, -130549.4, -71868.01, 0.0, 10.0, 9.886217 
7.85e+2, 3.0392656e+2, -40805.387, -84750.16, 0.001368366, 0.000000072245165, 0.00017313707, -40805.387, -40805.387, 0.0, 10.0, 9.942173 
7.85e+2, 3.138706e+2, -39727.375, -82511.21, 0.00017913278, 0.00000007339098, -0.0000551469, -39727.375, -39727.375, 0.0, 10.0, 9.943684 
7.95e+2, 1.2499334e+2, -1719946.0, -1724224.6, 0.0011111452, 0.00000007741515, 0.000017618546, -1719946.0, -4880.758, 0.0, 10.0, 9.994327 
7.95e+2, 1.349876e+2, -1622565.5, -1627434.9, 0.00015032134, 0.000000078837864, -0.00006840385, -1622565.5, -5443.9717, 0.0, 10.0, 9.993545 
7.95e+2, 1.4497514e+2, -1534464.1, -1548146.3, 0.0007943174, 0.00000007972727, 0.00007094521, -1534464.1, -15220.479, 0.0, 10.0, 9.981865 
7.95e+2, 1.5495703e+2, -1436736.5, -1450821.9, 0.00024351924, 0.000000080046384, -0.000056971672, -1436736.5, -15315.3, 0.0, 10.0, 9.981333 
7.95e+2, 1.6493228e+2, -1348685.5, -1371952.4, 0.0026375207, 0.00000007833122, 0.000047345802, -1348685.5, -25021.795, 0.0, 10.0, 9.969248 
7.95e+2, 1.7490156e+2, -1250727.5, -1274310.1, 0.00082952436, 0.00000007453884, -0.00007381889, -1250727.5, -24762.773, 0.0, 10.0, 9.968835 
7.95e+2, 1.8486421e+2, -1162646.5, -1195720.1, 0.0029866712, 0.000000074123, 0.00006615889, -1162646.5, -34315.83, 0.0, 10.0, 9.956395 
7.95e+2, 1.9482064e+2, -1064496.8, -1097833.0, 0.0017579076, 0.000000077240315, -0.000057647045, -1064496.8, -33739.16, 0.0, 10.0, 9.956052 
7.95e+2, 2.0477042e+2, -976332.8, -1019435.0, 0.0013052196, 0.00000007793772, 0.000068083726, -976332.8, -43082.902, 0.0, 10.0, 9.943291 
7.95e+2, 2.1471375e+2, -878045.75, -921409.9, 0.0014689727, 0.00000007601401, -0.00012682479, -878045.75, -42240.492, 0.0, 10.0, 9.942949 
7.95e+2, 2.2465037e+2, -789759.7, -843144.9, 0.0040943003, 0.000000074685836, 0.000120882556, -789759.7, -51333.39, 0.0, 10.0, 9.929908 
7.95e+2, 2.3458035e+2, -691326.2, -744966.44, 0.0014743006, 0.000000074032734, -0.000088811335, -691326.2, -50213.62, 0.0, 10.0, 9.929577 
7.95e+2, 2.4450338e+2, -603002.1, -667018.8, 0.0016760257, 0.0000000742282, 0.00007471699, -603002.1, -59135.215, 0.0, 10.0, 9.916136 
7.95e+2, 2.5441962e+2, -504249.44, -568343.3, 0.0008759009, 0.00000007543647, -0.00010673072, -504249.44, -57561.875, 0.0, 10.0, 9.916036 
7.95e+2, 2.643288e+2, -416014.03, -490987.88, 0.0016330341, 0.000000075714, 0.00014059752, -416014.03, -66436.34, 0.0, 10.0, 9.901964 
7.95e+2, 2.742313e+2, -316728.78, -391374.75, 0.0017538322, 0.00000007480468, -0.00020344422, -316728.78, -64195.793, 0.0, 10.0, 9.902385 
7.95e+2, 2.841256e+2, -230255.53, -318081.25, 0.0029480364, 0.000000074099496, 0.00022904368, -230255.53, -74686.57, 0.0, 10.0, 9.885439 
7.95e+2, 2.940121e+2, -130549.4, -217765.0, 0.0012657584, 0.000000073679104, -0.0002533453, -130549.4, -71868.01, 0.0, 10.0, 9.886217 
7.95e+2, 3.0392656e+2, -40805.387, -84750.16, 0.0010568366, 0.00000007405537, 0.00017313445, -40805.387, -40805.387, 0.0, 10.0, 9.942173 
7.95e+2, 3.138706e+2, -39727.38, -82511.21, -0.00018063145, 0.00000007561184, -0.000055142686, -39727.38, -39727.38, 0.0, 10.0, 9.943684 
8.05e+2, 1.2499334e+2, -1719946.0, -1724224.6, 0.0029741824, 0.00000007860011, 0.000017618677, -1719946.0, -4880.7363, 0.0, 10.0, 9.994327 
8.05e+2, 1.349876e+2, -1622565.5, -1627434.9, 0.0013361588, 0.00000008258214, -0.00006840555, -1622565.5, -5443.958, 0.0, 10.0, 9.993545 
8.05e+2, 1.4497514e+2, -1534464.1, -1548146.3, 0.0022173875, 0.00000008368987, 0.00007094515, -1534464.1, -15220.464, 0.0, 10.0, 9.981865 
8.05e+2, 1.5495703e+2, -1436736.4, -1450821.9, 0.00080730306, 0.00000008186971, -0.00005697102, -1436736.4, -15315.279, 0.0, 10.0, 9.981333 
8.05e+2, 1.6493228e+2, -1348685.5, -1371952.4, 0.0031671715, 0.00000007912315, 0.000047346854, -1348685.5, -25021.773, 0.0, 10.0, 9.969248 
8.05e+2, 1.7490156e+2, -1250727.5, -1274310.1, 0.0012918283, 0.0000000754305, -0.00007381775, -1250727.5, -24762.752, 0.0, 10.0, 9.968834 
8.05e+2, 1.8486421e+2, -1162646.5, -1195720.1, 0.0027864247, 0.00000007630661, 0.000066159155, -1162646.5, -34315.81, 0.0, 10.0, 9.956395 
8.05e+2, 1.9482064e+2, -1064496.8, -1097833.0, 0.0028383664, 0.00000008196349, -0.00005764867, -1064496.8, -33739.15, 0.0, 10.0, 9.956052 
8.05e+2, 2.0477042e+2, -976332.75, -1019435.0, 0.003324707, 0.00000008242206, 0.000068082576, -976332.75, -43082.89, 0.0, 10.0, 9.943291 
8.05e+2, 2.1471375e+2, -878045.75, -921409.9, 0.0010179488, 0.00000007725037, -0.0001268229, -878045.75, -42240.47, 0.0, 10.0, 9.942949 
8.05e+2, 2.2465037e+2, -789759.6, -843144.9, 0.0028792424, 0.00000007487695, 0.000120884826, -789759.6, -51333.367, 0.0, 10.0, 9.929908 
8.05e+2, 2.3458035e+2, -691326.1, -744966.44, 0.002388163, 0.00000007567303, -0.00008881168, -691326.1, -50213.6, 0.0, 10.0, 9.929577 
8.05e+2, 2.4450338e+2, -603002.06, -667018.75, 0.0031867416, 0.000000076864204, 0.0000747154, -603002.06, -59135.2, 0.0, 10.0, 9.916136 
8.05e+2, 2.5441962e+2, -504249.4, -568343.3, 0.0019876221, 0.00000007852389, -0.000106731924, -504249.4, -57561.86, 0.0, 10.0, 9.916036 
8.05e+2, 2.643288e+2, -416014.0, -490987.88, 0.0023821972, 0.00000007875899, 0.00014059726, -416014.0, -66436.33, 0.0, 10.0, 9.901964 
8.05e+2, 2.742313e+2, -316728.78, -391374.75, 0.00066258013, 0.000000077180076, -0.00020344283, -316728.78, -64195.777, 0.0, 10.0, 9.902385 
8.05e+2, 2.841256e+2, -230255.52, -318081.25, 0.0012456026, 0.000000076213105, 0.00022904524, -230255.52, -74686.555, 0.0, 10.0, 9.885439 
8.05e+2, 2.940121e+2, -130549.38, -217765.0, 0.0009317739, 0.00000007609193, -0.00025334558, -130549.38, -71867.99, 0.0, 10.0, 9.886217 
8.05e+2, 3.0392656e+2, -40805.37, -84750.16, 0.0010380127, 0.00000007629786, 0.00017313374, -40805.37, -40805.37, 0.0, 10.0, 9.942173 
8.05e+2, 3.138706e+2, -39727.355, -82511.21, -0.0011881178, 0.00000007698191, -0.000055141787, -39727.355, -39727.355, 0.0, 10.0, 9.943684 
8.15e+2, 1.2499334e+2, -1719946.0, -1724224.6, 0.0008622092, 0.00000008274397, 0.000017622015, -1719946.0, -4880.7407, 0.0, 10.0, 9.994327 
8.15e+2, 1.349876e+2, -1622565.5, -1627434.9, -0.000776285, 0.00000008554399, -0.00006840891, -1622565.5, -5443.9624, 0.0, 10.0, 9.993545 
8.15e+2, 1.4497514e+2, -1534464.1, -1548146.3, 0.0027725098, 0.00000008512557, 0.00007094392, -1534464.1, -15220.468, 0.0, 10.0, 9.981865 
8.15e+2, 1.5495703e+2, -1436736.4, -1450821.9, 0.0013666259, 0.000000081430684, -0.000056965797, -1436736.4, -15315.283, 0.0, 10.0, 9.981333 
8.15e+2, 1.6493228e+2, -1348685.5, -1371952.4, 0.0033227818, 0.000000079655784, 0.000047351805, -1348685.5, -25021.777, 0.0, 10.0, 9.969248 
8.15e+2, 1.7490156e+2, -1250727.5, -1274310.1, 0.0014452902, 0.000000079841236, -0.00007381994, -1250727.5, -24762.756, 0.0, 10.0, 9.968834 
8.15e+2, 1.8486421e+2, -1162646.5, -1195720.1, 0.0007218129, 0.00000008134594, 0.00006615453, -1162646.5, -34315.81, 0.0, 10.0, 9.956395 
8.15e+2, 1.9482064e+2, -1064496.8, -1097833.0, 0.00074804656, 0.00000008423114, -0.000057650825, -1064496.8, -33739.15, 0.0, 10.0, 9.956052 
8.15e+2, 2.0477042e+2, -976332.8, -1019435.0, 0.004952492, 0.00000008353154, 0.000068083755, -976332.8, -43082.9, 0.0, 10.0, 9.943291 
8.15e+2, 2.1471375e+2, -878045.75, -921409.9, 0.0027225246, 0.00000007894939, -0.00012681745, -878045.75, -42240.477, 0.0, 10.0, 9.942949 
8.15e+2, 2.2465037e+2, -789759.6, -843144.9, 0.0024362078, 0.000000077219674, 0.0001208893, -789759.6, -51333.367, 0.0, 10.0, 9.929908 
8.15e+2, 2.3458035e+2, -691326.1, -744966.44, 0.0018748621, 0.000000078720085, -0.000088814086, -691326.1, -50213.6, 0.0, 10.0, 9.929577 
8.15e+2, 2.4450338e+2, -603002.06, -667018.8, 0.002481248, 0.00000007978431, 0.00007470996, -603002.06, -59135.203, 0.0, 10.0, 9.916136 
8.15e+2, 2.5441962e+2, -504249.4, -568343.3, 0.0012728908, 0.00000008032405, -0.00010673578, -504249.4, -57561.863, 0.0, 10.0, 9.916036 
8.15e+2, 2.643288e+2, -416014.0, -490987.88, 0.0027889248, 0.000000080270745, 0.0001405962, -416014.0, -66436.336, 0.0, 10.0, 9.901964 
8.15e+2, 2.742313e+2, -316728.78, -391374.75, 0.001144504, 0.000000079463994, -0.00020343957, -316728.78, -64195.78, 0.0, 10.0, 9.902385 
8.15e+2, 2.841256e+2, -230255.52, -318081.25, 0.0015050089, 0.00000007911477, 0.00022905035, -230255.52, -74686.555, 0.0, 10.0, 9.885439 
8.15e+2, 2.940121e+2, -130549.38, -217765.0, 0.0011711407, 0.00000007939516, -0.00025334203, -130549.38, -71867.99, 0.0, 10.0, 9.886217 
8.15e+2, 3.0392656e+2, -40805.375, -84750.164, 0.0014517922, 0.000000078972604, 0.0001731349, -40805.375, -40805.375, 0.0, 10.0, 9.942173 
8.15e+2, 3.138706e+2, -39727.363, -82511.22, -0.00075384375, 0.0000000775012, -0.000055144203, -39727.363, -39727.363, 0.0, 10.0, 9.943684 
8.25e+2, 1.2499334e+2, -1719946.0, -1724224.6, -0.0010085923, 0.000000088527194, 0.0000176245, -1719946.0, -4880.7314, 0.0, 10.0, 9.994327 
8.25e+2, 1.349876e+2, -1622565.5, -1627434.9, -0.0011221617, 0.000000086821466, -0.00006840879, -1622565.5, -5443.9375, 0.0, 10.0, 9.993545 
8.25e+2, 1.4497514e+2, -1534464.1, -1548146.3, 0.0028571954, 0.000000084872454, 0.00007094555, -1534464.1, -15220.441, 0.0, 10.0, 9.981865 
8.25e+2, 1.5495703e+2, -1436736.4, -1450821.9, 0.0002262936, 0.00000008263792, -0.000056963432, -1436736.4, -15315.262, 0.0, 10.0, 9.981333 
8.25e+2, 1.6493228e+2, -1348685.5, -1371952.4, 0.002215543, 0.0000000828205, 0.000047353045, -1348685.5, -25021.76, 0.0, 10.0, 9.969248 
8.25e+2, 1.7490156e+2, -1250727.4, -1274310.1, 0.0031305836, 0.00000008547119, -0.00007382173, -1250727.4, -24762.746, 0.0, 10.0, 9.968834 
8.25e+2, 1.8486421e+2, -1162646.5, -1195720.1, 0.00311252, 0.00000008587852, 0.000066152716, -1162646.5, -34315.797, 0.0, 10.0, 9.956395 
8.25e+2, 1.9482064e+2, -1064496.8, -1097833.0, 0.00021869253, 0.00000008393835, -0.000057649486, -1064496.8, -33739.12, 0.0, 10.0, 9.956052 
8.25e+2, 2.0477042e+2, -976332.75, -1019435.0, 0.0035354644, 0.00000008259474, 0.00006808607, -976332.75, -43082.867, 0.0, 10.0, 9.943291 
8.25e+2, 2.1471375e+2, -878045.75, -921409.9, 0.002286285, 0.00000008189735, -0.0001268165, -878045.75, -42240.46, 0.0, 10.0, 9.942949 
8.25e+2, 2.2465037e+2, -789759.6, -843144.9, 0.0023038015, 0.000000081876045, 0.00012088942, -789759.6, -51333.355, 0.0, 10.0, 9.929908 
8.25e+2, 2.3458035e+2, -691326.1, -744966.44, 0.0020463255, 0.000000082619714, -0.00008881419, -691326.1, -50213.59, 0.0, 10.0, 9.929577 
8.25e+2, 2.4450338e+2, -603002.06, -667018.75, 0.0031443425, 0.0000000825927, 0.00007470971, -603002.06, -59135.184, 0.0, 10.0, 9.916136 
8.25e+2, 2.5441962e+2, -504249.4, -568343.3, 0.0018381833, 0.00000008164429, -0.000106736086, -504249.4, -57561.84, 0.0, 10.0, 9.916036 
8.25e+2, 2.643288e+2, -416014.0, -490987.88, 0.003116803, 0.00000008125247, 0.00014059588, -416014.0, -66436.31, 0.0, 10.0, 9.901964 
8.25e+2, 2.742313e+2, -316728.75, -391374.75, 0.0012085967, 0.000000081571116, -0.00020343985, -316728.75, -64195.76, 0.0, 10.0, 9.902385 
8.25e+2, 2.841256e+2, -230255.5, -318081.22, 0.0009765625, 0.00000008183463, 0.00022905081, -230255.5, -74686.53, 0.0, 10.0, 9.885439 
8.25e+2, 2.940121e+2, -130549.37, -217765.0, -0.00061115006, 0.00000008201933, -0.00025333988, -130549.37, -71867.98, 0.0, 10.0, 9.886217 
8.25e+2, 3.0392656e+2, -40805.355, -84750.16, 0.00025314986, 0.00000008159228, 0.00017313645, -40805.355, -40805.355, 0.0, 10.0, 9.942173 
8.25e+2, 3.138706e+2, -39727.344, -82511.21, 0.00068923197, 0.00000008025803, -0.000055146586, -39727.344, -39727.344, 0.0, 10.0, 9.943684 
8.35e+2, 1.2499334e+2, -1719946.0, -1724224.6, 0.00041525465, 0.00000009594979, 0.000017626131, -1719946.0, -4880.7324, 0.0, 10.0, 9.994327 
8.35e+2, 1.349876e+2, -1622565.5, -1627434.9, 0.00030210713, 0.00000008641457, -0.00006840519, -1622565.5, -5443.9385, 0.0, 10.0, 9.993545 
8.35e+2, 1.4497514e+2, -1534464.1, -1548146.3, 0.0021630484, 0.000000082930526, 0.00007095004, -1534464.1, -15220.447, 0.0, 10.0, 9.981865 
8.35e+2, 1.5495703e+2, -1436736.4, -1450821.9, -0.00047123362, 0.00000008549141, -0.00005696392, -1436736.4, -15315.268, 0.0, 10.0, 9.981333 
8.35e+2, 1.6493228e+2, -1348685.5, -1371952.4, 0.00046737288, 0.000000088617284, 0.000047350568, -1348685.5, -25021.758, 0.0, 10.0, 9.969248 
8.35e+2, 1.7490156e+2, -1250727.4, -1274310.1, 0.0013768387, 0.00000009232036, -0.00007382313, -1250727.4, -24762.744, 0.0, 10.0, 9.968834 
8.35e+2, 1.8486421e+2, -1162646.5, -1195720.1, 0.0049699233, 0.00000008990436, 0.00006615373, -1162646.5, -34315.8, 0.0, 10.0, 9.956395 
8.35e+2, 1.9482064e+2, -1064496.8, -1097833.0, 0.002117897, 0.00000008108515, -0.00005764466, -1064496.8, -33739.125, 0.0, 10.0, 9.956052 
8.35e+2, 2.0477042e+2, -976332.75, -1019435.0, 0.0020581288, 0.000000079611674, 0.000068089525, -976332.75, -43082.87, 0.0, 10.0, 9.943291 
8.35e+2, 2.1471375e+2, -878045.75, -921409.9, 0.0007391988, 0.00000008609423, -0.00012682004, -878045.75, -42240.46, 0.0, 10.0, 9.942949 
8.35e+2, 2.2465037e+2, -789759.6, -843144.9, 0.0021771563, 0.00000008884605, 0.00012088518, -789759.6, -51333.355, 0.0, 10.0, 9.929908 
8.35e+2, 2.3458035e+2, -691326.1, -744966.44, 0.0019661398, 0.000000087371916, -0.00008881199, -691326.1, -50213.59, 0.0, 10.0, 9.929577 
8.35e+2, 2.4450338e+2, -603002.06, -667018.8, 0.0039981673, 0.00000008528938, 0.00007471464, -603002.06, -59135.188, 0.0, 10.0, 9.916136 
8.35e+2, 2.5441962e+2, -504249.4, -568343.3, 0.002736895, 0.0000000824846, -0.000106732856, -504249.4, -57561.844, 0.0, 10.0, 9.916036 
8.35e+2, 2.643288e+2, -416014.0, -490987.88, 0.00277555, 0.000000081704165, 0.00014059628, -416014.0, -66436.31, 0.0, 10.0, 9.901964 
8.35e+2, 2.742313e+2, -316728.75, -391374.78, 0.00078421726, 0.000000083501455, -0.00020344365, -316728.75, -64195.766, 0.0, 10.0, 9.902385 
8.35e+2, 2.841256e+2, -230255.5, -318081.25, 0.00095673767, 0.00000008437268, 0.00022904662, -230255.5, -74686.54, 0.0, 10.0, 9.885439 
8.35e+2, 2.940121e+2, -130549.37, -217765.0, -0.0005945091, 0.00000008396446, -0.00025333918, -130549.37, -71867.98, 0.0, 10.0, 9.886217 
8.35e+2, 3.0392656e+2, -40805.355, -84750.16, 0.00061340304, 0.000000084156895, 0.00017313837, -40805.355, -40805.355, 0.0, 10.0, 9.942173 
8.35e+2, 3.138706e+2, -39727.344, -82511.21, 0.0010898444, 0.000000085252424, -0.00005514894, -39727.344, -39727.344, 0.0, 10.0, 9.943684 
8.45e+2, 1.2499334e+2, -1719946.0, -1724224.6, 0.002969142, 0.00000009678814, 0.000017624763, -1719946.0, -4880.7046, 0.0, 10.0, 9.994327 
8.45e+2, 1.349876e+2, -1622565.5, -1627434.9, -0.00030423998, 0.00000008910334, -0.00006840257, -1622565.5, -5443.92, 0.0, 10.0, 9.993545 
8.45e+2, 1.4497514e+2, -1534464.1, -1548146.3, 0.0007262352, 0.00000008694575, 0.00007095383, -1534464.1, -15220.432, 0.0, 10.0, 9.981865 
8.45e+2, 1.5495703e+2, -1436736.4, -1450821.9, 0.0021987802, 0.00000009030357, -0.000056966717, -1436736.4, -15315.254, 0.0, 10.0, 9.981333 
8.45e+2, 1.6493228e+2, -1348685.4, -1371952.4, 0.003302111, 0.0000000923593, 0.00004734729, -1348685.4, -25021.74, 0.0, 10.0, 9.969248 
8.45e+2, 1.7490156e+2, -1250727.4, -1274310.1, -0.00041913803, 0.00000009308571, -0.00007382066, -1250727.4, -24762.717, 0.0, 10.0, 9.968834 
8.45e+2, 1.8486421e+2, -1162646.5, -1195720.1, 0.0031861193, 0.000000090470266, 0.00006615769, -1162646.5, -34315.773, 0.0, 10.0, 9.956395 
8.45e+2, 1.9482064e+2, -1064496.8, -1097833.0, 0.0027755236, 0.000000084357694, -0.000057643665, -1064496.8, -33739.11, 0.0, 10.0, 9.956052 
8.45e+2, 2.0477042e+2, -976332.75, -1019435.0, 0.0029129905, 0.00000008374501, 0.000068088455, -976332.75, -43082.855, 0.0, 10.0, 9.943291 
8.45e+2, 2.1471375e+2, -878045.75, -921409.9, 0.0027570936, 0.00000008908903, -0.00012682218, -878045.75, -42240.44, 0.0, 10.0, 9.942949 
8.45e+2, 2.2465037e+2, -789759.6, -843144.9, 0.00447128, 0.00000009108002, 0.00012088358, -789759.6, -51333.336, 0.0, 10.0, 9.929908 
8.45e+2, 2.3458035e+2, -691326.1, -744966.44, 0.0012962442, 0.00000008927335, -0.000088811226, -691326.1, -50213.566, 0.0, 10.0, 9.929577 
8.45e+2, 2.4450338e+2, -603002.06, -667018.75, 0.0020809993, 0.00000008741856, 0.00007471673, -603002.06, -59135.164, 0.0, 10.0, 9.916136 
8.45e+2, 2.5441962e+2, -504249.38, -568343.3, 0.0010615233, 0.00000008551028, -0.00010673069, -504249.38, -57561.824, 0.0, 10.0, 9.916036 
8.45e+2, 2.643288e+2, -416013.97, -490987.88, 0.0017534108, 0.000000084954124, 0.00014059753, -416013.97, -66436.3, 0.0, 10.0, 9.901964 
8.45e+2, 2.742313e+2, -316728.75, -391374.75, 0.0019036763, 0.00000008611865, -0.00020344462, -316728.75, -64195.746, 0.0, 10.0, 9.902385 
8.45e+2, 2.841256e+2, -230255.48, -318081.22, 0.0034261832, 0.000000086587136, 0.00022904434, -230255.48, -74686.516, 0.0, 10.0, 9.885439 
8.45e+2, 2.940121e+2, -130549.34, -217765.0, 0.0017775667, 0.00000008609495, -0.00025334154, -130549.34, -71867.95, 0.0, 10.0, 9.886217 
8.45e+2, 3.0392656e+2, -40805.336, -84750.15, 0.0018089613, 0.000000086546216, 0.00017313714, -40805.336, -40805.336, 0.0, 10.0, 9.942173 
8.45e+2, 3.138706e+2, -39727.324, -82511.2, -0.00031339447, 0.000000088406516, -0.0000551473, -39727.324, -39727.324, 0.0, 10.0, 9.943684 
8.55e+2, 1.2499334e+2, -1719946.0, -1724224.6, 0.0023396933, 0.000000091042295, 0.000017620396, -1719946.0, -4880.713, 0.0, 10.0, 9.994327 
8.55e+2, 1.349876e+2, -1622565.5, -1627434.9, -0.00093384867, 0.00000009488775, -0.00006840093, -1622565.5, -5443.9277, 0.0, 10.0, 9.993545 
8.55e+2, 1.4497514e+2, -1534464.1, -1548146.3, -0.00035896178, 0.00000009691809, 0.00007095692, -1534464.1, -15220.429, 0.0, 10.0, 9.981865 
8.55e+2, 1.5495703e+2, -1436736.4, -1450821.9, 0.0011128186, 0.000000097074405, -0.000056971818, -1436736.4, -15315.251, 0.0, 10.0, 9.981333 
8.55e+2, 1.6493228e+2, -1348685.5, -1371952.4, 0.00400132, 0.000000094046555, 0.00004734321, -1348685.5, -25021.75, 0.0, 10.0, 9.969248 
8.55e+2, 1.7490156e+2, -1250727.4, -1274310.1, 0.00028946894, 0.00000008776725, -0.00007381431, -1250727.4, -24762.727, 0.0, 10.0, 9.968834 
8.55e+2, 1.8486421e+2, -1162646.5, -1195720.1, 0.002691626, 0.00000008757623, 0.000066164605, -1162646.5, -34315.777, 0.0, 10.0, 9.956395 
8.55e+2, 1.9482064e+2, -1064496.8, -1097833.0, 0.002267084, 0.000000093755965, -0.000057646514, -1064496.8, -33739.113, 0.0, 10.0, 9.956052 
8.55e+2, 2.0477042e+2, -976332.75, -1019435.0, 0.0024954642, 0.00000009499472, 0.00006808287, -976332.75, -43082.855, 0.0, 10.0, 9.943291 
8.55e+2, 2.1471375e+2, -878045.75, -921409.9, 0.0023414227, 0.00000009088175, -0.00012682292, -878045.75, -42240.44, 0.0, 10.0, 9.942949 
8.55e+2, 2.2465037e+2, -789759.6, -843144.9, 0.004710348, 0.00000008857796, 0.00012088462, -789759.6, -51333.34, 0.0, 10.0, 9.929908 
8.55e+2, 2.3458035e+2, -691326.1, -744966.44, 0.0015567323, 0.000000088324036, -0.000088811896, -691326.1, -50213.574, 0.0, 10.0, 9.929577 
8.55e+2, 2.4450338e+2, -603002.06, -667018.75, 0.0019839203, 0.00000008898025, 0.00007471598, -603002.06, -59135.168, 0.0, 10.0, 9.916136 
8.55e+2, 2.5441962e+2, -504249.38, -568343.3, 0.00094726146, 0.00000009072132, -0.00010672958, -504249.38, -57561.83, 0.0, 10.0, 9.916036 
8.55e+2, 2.643288e+2, -416013.97, -490987.88, 0.0020277142, 0.00000009100233, 0.00014059959, -416013.97, -66436.3, 0.0, 10.0, 9.901964 
8.55e+2, 2.742313e+2, -316728.75, -391374.75, 0.0022040352, 0.0000000894227, -0.00020344279, -316728.75, -64195.746, 0.0, 10.0, 9.902385 
8.55e+2, 2.841256e+2, -230255.48, -318081.25, 0.003585528, 0.00000008847801, 0.00022904394, -230255.48, -74686.516, 0.0, 10.0, 9.885439 
8.55e+2, 2.940121e+2, -130549.35, -217765.0, 0.0019242232, 0.000000088410815, -0.00025334695, -130549.35, -71867.96, 0.0, 10.0, 9.886217 
8.55e+2, 3.0392656e+2, -40805.34, -84750.164, 0.0015377179, 0.000000088760245, 0.00017313276, -40805.34, -40805.34, 0.0, 10.0, 9.942173 
8.55e+2, 3.138706e+2, -39727.33, -82511.21, -0.0006336739, 0.00000008972032, -0.00005514167, -39727.33, -39727.33, 0.0, 10.0, 9.943684 
8.65e+2, 1.2499334e+2, -1719945.9, -1724224.6, 0.0025681914, 0.00000009199057, 0.000017623084, -1719945.9, -4880.686, 0.0, 10.0, 9.994327 
8.65e+2, 1.349876e+2, -1622565.5, -1627434.9, 0.002292746, 0.000000099249334, -0.00006840549, -1622565.5, -5443.9106, 0.0, 10.0, 9.993545 
8.65e+2, 1.4497514e+2, -1534464.0, -1548146.3, 0.0034890878, 0.00000010179951, 0.000070954084, -1534464.0, -15220.411, 0.0, 10.0, 9.981865 
8.65e+2, 1.5495703e+2, -1436736.4, -1450821.9, 0.000118160686, 0.00000009956186, -0.000056969067, -1436736.4, -15315.227, 0.0, 10.0, 9.981333 
8.65e+2, 1.6493228e+2, -1348685.4, -1371952.4, 0.0028563775, 0.000000095336425, 0.000047346966, -1348685.4, -25021.725, 0.0, 10.0, 9.969248 
8.65e+2, 1.7490156e+2, -1250727.4, -1274310.1, 0.0021299575, 0.00000008908103, -0.00007381423, -1250727.4, -24762.701, 0.0, 10.0, 9.968834 
8.65e+2, 1.8486421e+2, -1162646.4, -1195720.1, 0.003830793, 0.00000009007836, 0.000066162946, -1162646.4, -34315.754, 0.0, 10.0, 9.956395 
8.65e+2, 1.9482064e+2, -1064496.8, -1097833.0, 0.002868654, 0.00000009866499, -0.00005764788, -1064496.8, -33739.098, 0.0, 10.0, 9.956052 
8.65e+2, 2.0477042e+2, -976332.75, -1019435.0, 0.0036327387, 0.00000009983751, 0.00006808282, -976332.75, -43082.84, 0.0, 10.0, 9.943291 
8.65e+2, 2.1471375e+2, -878045.7, -921409.9, 0.0009789995, 0.00000009297974, -0.00012682051, -878045.7, -42240.418, 0.0, 10.0, 9.942949 
8.65e+2, 2.2465037e+2, -789759.56, -843144.9, 0.0028850292, 0.00000008960368, 0.00012088697, -789759.56, -51333.316, 0.0, 10.0, 9.929908 
8.65e+2, 2.3458035e+2, -691326.06, -744966.44, 0.0029615853, 0.00000009017163, -0.000088812456, -691326.06, -50213.55, 0.0, 10.0, 9.929577 
8.65e+2, 2.4450338e+2, -603002.0, -667018.75, 0.0043399557, 0.000000091582, 0.00007471402, -603002.0, -59135.145, 0.0, 10.0, 9.916136 
8.65e+2, 2.5441962e+2, -504249.38, -568343.3, 0.0023708523, 0.00000009399433, -0.000106731124, -504249.38, -57561.81, 0.0, 10.0, 9.916036 
8.65e+2, 2.643288e+2, -416013.94, -490987.88, 0.002645053, 0.00000009443063, 0.00014059921, -416013.94, -66436.28, 0.0, 10.0, 9.901964 
8.65e+2, 2.742313e+2, -316728.72, -391374.75, 0.0004408817, 0.00000009234996, -0.00020344106, -316728.72, -64195.727, 0.0, 10.0, 9.902385 
8.65e+2, 2.841256e+2, -230255.47, -318081.22, 0.000800744, 0.000000091234796, 0.00022904617, -230255.47, -74686.5, 0.0, 10.0, 9.885439 
8.65e+2, 2.940121e+2, -130549.33, -217765.0, 0.00045449552, 0.00000009145263, -0.0002533464, -130549.33, -71867.94, 0.0, 10.0, 9.886217 
8.65e+2, 3.0392656e+2, -40805.316, -84750.16, 0.0009947462, 0.00000009146459, 0.00017313242, -40805.316, -40805.316, 0.0, 10.0, 9.942173 
8.65e+2, 3.138706e+2, -39727.305, -82511.21, -0.0010340074, 0.00000009115918, -0.000055141707, -39727.305, -39727.305, 0.0, 10.0, 9.943684 
8.75e+2, 1.2499334e+2, -1719945.9, -1724224.6, -0.00030736785, 0.00000009963294, 0.000017632829, -1719945.9, -4880.6875, 0.0, 10.0, 9.994327 
8.75e+2, 1.349876e+2, -1622565.5, -1627434.9, -0.0005834943, 0.00000010218808, -0.00006841626, -1622565.5, -5443.912, 0.0, 10.0, 9.993545 
8.75e+2, 1.4497514e+2, -1534464.1, -1548146.3, 0.0041033747, 0.00000010159001, 0.0000709453, -1534464.1, -15220.42, 0.0, 10.0, 9.981865 
8.75e+2, 1.5495703e+2, -1436736.4, -1450821.9, 0.0007379449, 0.000000097765955, -0.000056958466, -1436736.4, -15315.234, 0.0, 10.0, 9.981333 
8.75e+2, 1.6493228e+2, -1348685.4, -1371952.4, 0.00335202, 0.00000009622892, 0.000047358564, -1348685.4, -25021.727, 0.0, 10.0, 9.969248 
8.75e+2, 1.7490156e+2, -1250727.4, -1274310.1, 0.0026249192, 0.00000009702702, -0.00007382041, -1250727.4, -24762.705, 0.0, 10.0, 9.968834 
8.75e+2, 1.8486421e+2, -1162646.4, -1195720.1, 0.0015667155, 0.000000097976624, 0.00006615272, -1162646.4, -34315.758, 0.0, 10.0, 9.956395 
8.75e+2, 1.9482064e+2, -1064496.8, -1097833.0, 0.0005725961, 0.00000009908478, -0.000057647765, -1064496.8, -33739.098, 0.0, 10.0, 9.956052 
8.75e+2, 2.0477042e+2, -976332.75, -1019435.0, 0.00528371, 0.00000009827338, 0.00006808834, -976332.75, -43082.848, 0.0, 10.0, 9.943291 
8.75e+2, 2.1471375e+2, -878045.7, -921409.9, 0.0027114898, 0.000000095383, -0.00012681496, -878045.7, -42240.426, 0.0, 10.0, 9.942949 
8.75e+2, 2.2465037e+2, -789759.56, -843144.9, 0.0027041326, 0.00000009415716, 0.00012089062, -789759.56, -51333.316, 0.0, 10.0, 9.929908 
8.75e+2, 2.3458035e+2, -691326.06, -744966.44, 0.0027180808, 0.00000009481614, -0.000088812914, -691326.06, -50213.55, 0.0, 10.0, 9.929577 
8.75e+2, 2.4450338e+2, -603002.0, -667018.75, 0.0036291624, 0.00000009522383, 0.00007471086, -603002.0, -59135.15, 0.0, 10.0, 9.916136 
8.75e+2, 2.5441962e+2, -504249.38, -568343.3, 0.0016376039, 0.000000095329305, -0.000106735315, -504249.38, -57561.813, 0.0, 10.0, 9.916036 
8.75e+2, 2.643288e+2, -416013.97, -490987.88, 0.0030707084, 0.000000095239045, 0.00014059638, -416013.97, -66436.28, 0.0, 10.0, 9.901964 
8.75e+2, 2.742313e+2, -316728.72, -391374.75, 0.0009442493, 0.000000094900415, -0.00020343946, -316728.72, -64195.73, 0.0, 10.0, 9.902385 
8.75e+2, 2.841256e+2, -230255.47, -318081.25, 0.0011175622, 0.000000094857484, 0.00022905103, -230255.47, -74686.5, 0.0, 10.0, 9.885439 
8.75e+2, 2.940121e+2, -130549.33, -217765.0, 0.0007545198, 0.000000095220386, -0.0002533399, -130549.33, -71867.94, 0.0, 10.0, 9.886217 
8.75e+2, 3.0392656e+2, -40805.32, -84750.164, 0.0018322105, 0.00000009465927, 0.0001731361, -40805.32, -40805.32, 0.0, 10.0, 9.942173 
8.75e+2, 3.138706e+2, -39727.31, -82511.22, -0.0001334199, 0.00000009272311, -0.000055147415, -39727.31, -39727.31, 0.0, 10.0, 9.943684 
8.85e+2, 1.2499334e+2, -1719945.9, -1724224.6, -0.0008181312, 0.000000107469866, 0.000017634087, -1719945.9, -4880.68, 0.0, 10.0, 9.994327 
8.85e+2, 1.349876e+2, -1622565.4, -1627434.9, -0.0014028548, 0.00000010374324, -0.00006841555, -1622565.4, -5443.882, 0.0, 10.0, 9.993545 
8.85e+2, 1.4497514e+2, -1534464.0, -1548146.3, 0.0035155367, 0.000000100799774, 0.000070947826, -1534464.0, -15220.387, 0.0, 10.0, 9.981864 
8.85e+2, 1.5495703e+2, -1436736.4, -1450821.9, 0.00064418564, 0.0000000985879, -0.000056957055, -1436736.4, -15315.208, 0.0, 10.0, 9.981333 
8.85e+2, 1.6493228e+2, -1348685.4, -1371952.4, 0.003127232, 0.00000009961049, 0.000047358822, -1348685.4, -25021.703, 0.0, 10.0, 9.969248 
8.85e+2, 1.7490156e+2, -1250727.4, -1274310.1, 0.003327143, 0.00000010393582, -0.00007382133, -1250727.4, -24762.691, 0.0, 10.0, 9.968834 
8.85e+2, 1.8486421e+2, -1162646.4, -1195720.1, 0.0028925107, 0.00000010375084, 0.00006615221, -1162646.4, -34315.742, 0.0, 10.0, 9.956395 
8.85e+2, 1.9482064e+2, -1064496.6, -1097833.0, -0.00005254687, 0.0000000988462, -0.00005764621, -1064496.6, -33739.066, 0.0, 10.0, 9.956052 
8.85e+2, 2.0477042e+2, -976332.7, -1019435.0, 0.003961775, 0.00000009708264, 0.00006809018, -976332.7, -43082.813, 0.0, 10.0, 9.943291 
8.85e+2, 2.1471375e+2, -878045.7, -921409.9, 0.0028292614, 0.00000009872125, -0.00012681475, -878045.7, -42240.406, 0.0, 10.0, 9.942949 
8.85e+2, 2.2465037e+2, -789759.56, -843144.9, 0.0029225417, 0.00000009951477, 0.00012089053, -789759.56, -51333.3, 0.0, 10.0, 9.929908 
8.85e+2, 2.3458035e+2, -691326.06, -744966.44, 0.0013090183, 0.00000009935032, -0.000088811816, -691326.06, -50213.53, 0.0, 10.0, 9.929577 
8.85e+2, 2.4450338e+2, -603002.0, -667018.75, 0.0022304803, 0.00000009854291, 0.00007471207, -603002.0, -59135.13, 0.0, 10.0, 9.916136 
8.85e+2, 2.5441962e+2, -504249.34, -568343.3, 0.0016217954, 0.00000009696847, -0.00010673528, -504249.34, -57561.785, 0.0, 10.0, 9.916036 
8.85e+2, 2.643288e+2, -416013.94, -490987.88, 0.0037152488, 0.000000096561116, 0.00014059563, -416013.94, -66436.26, 0.0, 10.0, 9.901964 
8.85e+2, 2.742313e+2, -316728.72, -391374.75, 0.001882787, 0.00000009764074, -0.00020344052, -316728.72, -64195.707, 0.0, 10.0, 9.902385 
8.85e+2, 2.841256e+2, -230255.44, -318081.22, 0.0017054118, 0.000000098174745, 0.0002290507, -230255.44, -74686.48, 0.0, 10.0, 9.885439 
8.85e+2, 2.940121e+2, -130549.305, -217765.0, -0.0006737019, 0.000000097955066, -0.0002533381, -130549.305, -71867.914, 0.0, 10.0, 9.886217 
8.85e+2, 3.0392656e+2, -40805.3, -84750.16, 0.00039459034, 0.00000009741136, 0.00017313774, -40805.3, -40805.3, 0.0, 10.0, 9.942173 
8.85e+2, 3.138706e+2, -39727.29, -82511.21, 0.0009403909, 0.00000009639379, -0.00005514933, -39727.29, -39727.29, 0.0, 10.0, 9.943684 
8.95e+2, 1.2499334e+2, -1719945.9, -1724224.6, 0.0016412328, 0.00000011550134, 0.000017626859, -1719945.9, -4880.682, 0.0, 10.0, 9.994327 
8.95e+2, 1.349876e+2, -1622565.4, -1627434.9, 0.0010571879, 0.00000010391483, -0.00006840337, -1622565.4, -5443.884, 0.0, 10.0, 9.993545 
8.95e+2, 1.4497514e+2, -1534464.0, -1548146.3, 0.0027688176, 0.00000009942881, 0.00007096167, -1534464.0, -15220.395, 0.0, 10.0, 9.981864 
8.95e+2, 1.5495703e+2, -1436736.4, -1450821.9, -0.000107646054, 0.000000102027684, -0.00005696484, -1436736.4, -15315.215, 0.0, 10.0, 9.981333 
8.95e+2, 1.6493228e+2, -1348685.4, -1371952.4, 0.00081577594, 0.000000105481114, 0.000047347745, -1348685.4, -25021.703, 0.0, 10.0, 9.969248 
8.95e+2, 1.7490156e+2, -1250727.4, -1274310.1, 0.0010074162, 0.00000010980744, -0.000073816984, -1250727.4, -24762.691, 0.0, 10.0, 9.968834 
8.95e+2, 1.8486421e+2, -1162646.4, -1195720.1, 0.0055349893, 0.00000010740103, 0.00006616141, -1162646.4, -34315.75, 0.0, 10.0, 9.956395 
8.95e+2, 1.9482064e+2, -1064496.6, -1097833.0, 0.0026473752, 0.00000009794926, -0.00005764323, -1064496.6, -33739.07, 0.0, 10.0, 9.956052 
8.95e+2, 2.0477042e+2, -976332.7, -1019435.0, 0.0019831366, 0.000000096265275, 0.00006808835, -976332.7, -43082.813, 0.0, 10.0, 9.943291 
8.95e+2, 2.1471375e+2, -878045.7, -921409.9, 0.000753973, 0.000000102994484, -0.00012681985, -878045.7, -42240.406, 0.0, 10.0, 9.942949 
8.95e+2, 2.2465037e+2, -789759.56, -843144.9, 0.002948357, 0.00000010567651, 0.00012088671, -789759.56, -51333.305, 0.0, 10.0, 9.929908 
8.95e+2, 2.3458035e+2, -691326.06, -744966.44, 0.0014035635, 0.00000010377419, -0.00008880915, -691326.06, -50213.535, 0.0, 10.0, 9.929577 
8.95e+2, 2.4450338e+2, -603002.0, -667018.75, 0.0033536933, 0.00000010153924, 0.00007471766, -603002.0, -59135.133, 0.0, 10.0, 9.916136 
8.95e+2, 2.5441962e+2, -504249.34, -568343.3, 0.0027944439, 0.00000009891182, -0.000106731015, -504249.34, -57561.785, 0.0, 10.0, 9.916036 
8.95e+2, 2.643288e+2, -416013.94, -490987.88, 0.0032363257, 0.00000009839684, 0.00014059692, -416013.94, -66436.26, 0.0, 10.0, 9.901964 
8.95e+2, 2.742313e+2, -316728.72, -391374.78, 0.0012931443, 0.00000010057095, -0.00020344424, -316728.72, -64195.71, 0.0, 10.0, 9.902385 
8.95e+2, 2.841256e+2, -230255.45, -318081.25, 0.0019642448, 0.00000010118657, 0.00022904518, -230255.45, -74686.484, 0.0, 10.0, 9.885439 
8.95e+2, 2.940121e+2, -130549.31, -217765.0, -0.0003383956, 0.00000009965668, -0.00025334102, -130549.31, -71867.92, 0.0, 10.0, 9.886217 
8.95e+2, 3.0392656e+2, -40805.3, -84750.16, 0.00055801973, 0.00000009972087, 0.00017313735, -40805.3, -40805.3, 0.0, 10.0, 9.942173 
8.95e+2, 3.138706e+2, -39727.29, -82511.21, 0.0010836715, 0.000000102171214, -0.000055147444, -39727.29, -39727.29, 0.0, 10.0, 9.943684 
9.05e+2, 1.2499334e+2, -1719945.9, -1724224.6, 0.0036966652, 0.000000116014945, 0.000017625713, -1719945.9, -4880.6455, 0.0, 10.0, 9.994327 
9.05e+2, 1.349876e+2, -1622565.4, -1627434.9, -0.0010668407, 0.00000010728874, -0.000068399044, -1622565.4, -5443.863, 0.0, 10.0, 9.993545 
9.05e+2, 1.4497514e+2, -1534464.0, -1548146.3, -0.00025954793, 0.000000104545414, 0.00007096727, -1534464.0, -15220.375, 0.0, 10.0, 9.981864 
9.05e+2, 1.5495703e+2, -1436736.4, -1450821.9, 0.0023699591, 0.00000010776003, -0.000056967743, -1436736.4, -15315.196, 0.0, 10.0, 9.981333 
9.05e+2, 1.6493228e+2, -1348685.4, -1371952.4, 0.0037996485, 0.00000010962911, 0.00004734379, -1348685.4, -25021.684, 0.0, 10.0, 9.969248 
9.05e+2, 1.7490156e+2, -1250727.4, -1274310.1, -0.0010506024, 0.000000110124525, -0.00007381438, -1250727.4, -24762.658, 0.0, 10.0, 9.968834 
9.05e+2, 1.8486421e+2, -1162646.4, -1195720.1, 0.0036266227, 0.00000010790012, 0.00006616559, -1162646.4, -34315.715, 0.0, 10.0, 9.956395 
9.05e+2, 1.9482064e+2, -1064496.6, -1097833.0, 0.0037301304, 0.00000010282949, -0.000057642694, -1064496.6, -33739.055, 0.0, 10.0, 9.956052 
9.05e+2, 2.0477042e+2, -976332.7, -1019435.0, 0.0033367903, 0.00000010205264, 0.00006808701, -976332.7, -43082.8, 0.0, 10.0, 9.943291 
9.05e+2, 2.1471375e+2, -878045.7, -921409.9, 0.0022559436, 0.00000010592622, -0.00012682118, -878045.7, -42240.383, 0.0, 10.0, 9.942949 
9.05e+2, 2.2465037e+2, -789759.56, -843144.9, 0.004893595, 0.00000010729607, 0.00012088569, -789759.56, -51333.273, 0.0, 10.0, 9.929908 
9.05e+2, 2.3458035e+2, -691326.06, -744966.44, 0.0024536785, 0.00000010583007, -0.00008880956, -691326.06, -50213.508, 0.0, 10.0, 9.929577 
9.05e+2, 2.4450338e+2, -603002.0, -667018.75, 0.0034472179, 0.00000010441412, 0.000074718155, -603002.0, -59135.105, 0.0, 10.0, 9.916136 
9.05e+2, 2.5441962e+2, -504249.3, -568343.3, 0.0012965965, 0.000000103060934, -0.00010672924, -504249.3, -57561.766, 0.0, 10.0, 9.916036 
9.05e+2, 2.643288e+2, -416013.9, -490987.88, 0.001395246, 0.000000102586945, 0.00014059865, -416013.9, -66436.24, 0.0, 10.0, 9.901964 
9.05e+2, 2.742313e+2, -316728.7, -391374.75, 0.0011717168, 0.00000010323155, -0.00020344424, -316728.7, -64195.684, 0.0, 10.0, 9.902385 
9.05e+2, 2.841256e+2, -230255.42, -318081.22, 0.003397731, 0.00000010326233, 0.00022904367, -230255.42, -74686.45, 0.0, 10.0, 9.885439 
9.05e+2, 2.940121e+2, -130549.29, -217765.0, 0.0021924386, 0.0000001024477, -0.00025334366, -130549.29, -71867.9, 0.0, 10.0, 9.886217 
9.05e+2, 3.0392656e+2, -40805.273, -84750.15, 0.001965953, 0.000000102873706, 0.00017313569, -40805.273, -40805.273, 0.0, 10.0, 9.942173 
9.05e+2, 3.138706e+2, -39727.26, -82511.2, -0.0015841018, 0.00000010514909, -0.00005514491, -39727.26, -39727.26, 0.0, 10.0, 9.943684 
9.15e+2, 1.2499334e+2, -1719945.9, -1724224.6, 0.0026273632, 0.00000010901073, 0.000017630651, -1719945.9, -4880.6577, 0.0, 10.0, 9.994327 
9.15e+2, 1.349876e+2, -1622565.4, -1627434.9, -0.0021364365, 0.00000011386497, -0.000068402565, -1622565.4, -5443.8745, 0.0, 10.0, 9.993545 
9.15e+2, 1.4497514e+2, -1534464.0, -1548146.3, -0.0012061106, 0.000000116149565, 0.00007096461, -1534464.0, -15220.37, 0.0, 10.0, 9.981864 
9.15e+2, 1.5495703e+2, -1436736.4, -1450821.9, 0.0014235327, 0.000000115784935, -0.000056965775, -1436736.4, -15315.191, 0.0, 10.0, 9.981333 
9.15e+2, 1.6493228e+2, -1348685.4, -1371952.4, 0.0048198705, 0.00000011205451, 0.00004734696, -1348685.4, -25021.695, 0.0, 10.0, 9.969248 
9.15e+2, 1.7490156e+2, -1250727.4, -1274310.1, -0.000020028558, 0.00000010488712, -0.000073813506, -1250727.4, -24762.67, 0.0, 10.0, 9.968834 
9.15e+2, 1.8486421e+2, -1162646.4, -1195720.1, 0.0022631388, 0.000000105248134, 0.00006616476, -1162646.4, -34315.715, 0.0, 10.0, 9.956395 
9.15e+2, 1.9482064e+2, -1064496.6, -1097833.0, 0.0023388998, 0.00000011348686, -0.00005764461, -1064496.6, -33739.055, 0.0, 10.0, 9.956052 
9.15e+2, 2.0477042e+2, -976332.7, -1019435.0, 0.0038909486, 0.00000011444469, 0.00006808614, -976332.7, -43082.805, 0.0, 10.0, 9.943291 
9.15e+2, 2.1471375e+2, -878045.7, -921409.9, 0.002850259, 0.00000010751647, -0.00012681869, -878045.7, -42240.387, 0.0, 10.0, 9.942949 
9.15e+2, 2.2465037e+2, -789759.56, -843144.9, 0.0049379426, 0.00000010437346, 0.00012088748, -789759.56, -51333.28, 0.0, 10.0, 9.929908 
9.15e+2, 2.3458035e+2, -691326.06, -744966.44, 0.0024800329, 0.000000105517955, -0.00008881305, -691326.06, -50213.516, 0.0, 10.0, 9.929576 
9.15e+2, 2.4450338e+2, -603002.0, -667018.75, 0.0029940822, 0.00000010716754, 0.000074713564, -603002.0, -59135.11, 0.0, 10.0, 9.916136 
9.15e+2, 2.5441962e+2, -504249.3, -568343.3, 0.000820421, 0.0000001094158, -0.00010672995, -504249.3, -57561.77, 0.0, 10.0, 9.916036 
9.15e+2, 2.643288e+2, -416013.9, -490987.88, 0.0021724105, 0.00000010913143, 0.00014060081, -416013.9, -66436.24, 0.0, 10.0, 9.901964 
9.15e+2, 2.742313e+2, -316728.7, -391374.75, 0.0020329207, 0.00000010562254, -0.00020344053, -316728.7, -64195.688, 0.0, 10.0, 9.902385 
9.15e+2, 2.841256e+2, -230255.42, -318081.25, 0.0035853025, 0.00000010440203, 0.0002290462, -230255.42, -74686.46, 0.0, 10.0, 9.885439 
9.15e+2, 2.940121e+2, -130549.29, -217765.0, 0.0023193362, 0.00000010632814, -0.0002533461, -130549.29, -71867.9, 0.0, 10.0, 9.886217 
9.15e+2, 3.0392656e+2, -40805.28, -84750.164, 0.0020574266, 0.00000010686986, 0.00017313275, -40805.28, -40805.28, 0.0, 10.0, 9.942173 
9.15e+2, 3.138706e+2, -39727.27, -82511.22, -0.0014967513, 0.000000105327445, -0.00005514172, -39727.27, -39727.27, 0.0, 10.0, 9.943684 
9.25e+2, 1.2499335e+2, -1719945.9, -1724224.6, 0.0015030582, 0.00000011014285, 0.000017634988, -1719945.9, -4880.627, 0.0, 10.0, 9.994327 
9.25e+2, 1.349876e+2, -1622565.4, -1627434.9, 0.0030563057, 0.00000011878924, -0.00006840925, -1622565.4, -5443.852, 0.0, 10.0, 9.993545 
9.25e+2, 1.4497514e+2, -1534464.0, -1548146.3, 0.0048554684, 0.00000012180989, 0.00007095982, -1534464.0, -15220.349, 0.0, 10.0, 9.981864 
9.25e+2, 1.5495703e+2, -1436736.3, -1450821.9, -0.00087638554, 0.000000119103554, -0.00005696132, -1436736.3, -15315.164, 0.0, 10.0, 9.981333 
9.25e+2, 1.6493228e+2, -1348685.4, -1371952.4, 0.0021227887, 0.00000011432552, 0.000047352623, -1348685.4, -25021.666, 0.0, 10.0, 9.969248 
9.25e+2, 1.7490156e+2, -1250727.4, -1274310.1, 0.0032428156, 0.0000001074318, -0.000073814845, -1250727.4, -24762.645, 0.0, 10.0, 9.968834 
9.25e+2, 1.8486421e+2, -1162646.4, -1195720.1, 0.0049020895, 0.00000010843468, 0.00006616138, -1162646.4, -34315.69, 0.0, 10.0, 9.956395 
9.25e+2, 1.9482064e+2, -1064496.6, -1097833.0, 0.0018498397, 0.00000011770061, -0.000057644836, -1064496.6, -33739.03, 0.0, 10.0, 9.956052 
9.25e+2, 2.0477042e+2, -976332.7, -1019435.0, 0.0034798821, 0.00000011865383, 0.00006808783, -976332.7, -43082.777, 0.0, 10.0, 9.943291 
9.25e+2, 2.1471375e+2, -878045.6, -921409.9, 0.0012650009, 0.00000011060351, -0.00012681642, -878045.6, -42240.36, 0.0, 10.0, 9.942949 
9.25e+2, 2.2465037e+2, -789759.5, -843144.9, 0.002679721, 0.00000010701091, 0.00012088931, -789759.5, -51333.254, 0.0, 10.0, 9.929908 
9.25e+2, 2.3458035e+2, -691326.0, -744966.44, 0.0021543496, 0.00000010846749, -0.00008881282, -691326.0, -50213.49, 0.0, 10.0, 9.929576 
9.25e+2, 2.4450338e+2, -603001.94, -667018.75, 0.003906332, 0.00000011025448, 0.000074712705, -603001.94, -59135.086, 0.0, 10.0, 9.916136 
9.25e+2, 2.5441962e+2, -504249.3, -568343.3, 0.002325436, 0.000000112430705, -0.0001067313, -504249.3, -57561.746, 0.0, 10.0, 9.916036 
9.25e+2, 2.643288e+2, -416013.88, -490987.88, 0.0035259237, 0.00000011224687, 0.00014060008, -416013.88, -66436.21, 0.0, 10.0, 9.901964 
9.25e+2, 2.742313e+2, -316728.66, -391374.75, 0.00063835894, 0.00000010905869, -0.00020343924, -316728.66, -64195.66, 0.0, 10.0, 9.902385 
9.25e+2, 2.841256e+2, -230255.4, -318081.22, 0.00031938855, 0.00000010798201, 0.00022904848, -230255.4, -74686.44, 0.0, 10.0, 9.885439 
9.25e+2, 2.940121e+2, -130549.266, -217765.0, -0.00077571283, 0.00000010980892, -0.00025334425, -130549.266, -71867.875, 0.0, 10.0, 9.886217 
9.25e+2, 3.0392656e+2, -40805.258, -84750.16, 0.00070457114, 0.0000001100106, 0.00017313323, -40805.258, -40805.258, 0.0, 10.0, 9.942173 
9.25e+2, 3.138706e+2, -39727.242, -82511.21, 0.00032017526, 0.00000010777304, -0.000055143973, -39727.242, -39727.242, 0.0, 10.0, 9.943684 
9.35e+2, 1.2499335e+2, -1719945.9, -1724224.6, -0.001508028, 0.00000011941127, 0.00001763872, -1719945.9, -4880.624, 0.0, 10.0, 9.994327 
9.35e+2, 1.349876e+2, -1622565.4, -1627434.9, 0.00004447065, 0.00000012206156, -0.00006841911, -1622565.4, -5443.849, 0.0, 10.0, 9.993545 
9.35e+2, 1.4497514e+2, -1534464.0, -1548146.3, 0.005410641, 0.00000012152641, 0.0000709529, -1534464.0, -15220.362, 0.0, 10.0, 9.981864 
9.35e+2, 1.5495703e+2, -1436736.4, -1450821.9, -0.00031559853, 0.000000117715906, -0.00005695438, -1436736.4, -15315.178, 0.0, 10.0, 9.981333 
9.35e+2, 1.6493228e+2, -1348685.4, -1371952.4, 0.002512529, 0.00000011644216, 0.00004736078, -1348685.4, -25021.664, 0.0, 10.0, 9.969248 
9.35e+2, 1.7490156e+2, -1250727.4, -1274310.1, 0.0036316146, 0.000000117758546, -0.00007381838, -1250727.4, -24762.643, 0.0, 10.0, 9.968834 
9.35e+2, 1.8486421e+2, -1162646.4, -1195720.1, 0.0033511976, 0.000000117459756, 0.000066155466, -1162646.4, -34315.7, 0.0, 10.0, 9.956395 
9.35e+2, 1.9482064e+2, -1064496.6, -1097833.0, 0.00027645245, 0.00000011547075, -0.00005764337, -1064496.6, -33739.04, 0.0, 10.0, 9.956052 
9.35e+2, 2.0477042e+2, -976332.7, -1019435.0, 0.0045199576, 0.00000011468009, 0.00006809208, -976332.7, -43082.785, 0.0, 10.0, 9.943291 
9.35e+2, 2.1471375e+2, -878045.6, -921409.9, 0.0023590482, 0.000000115187326, -0.00012681437, -878045.6, -42240.363, 0.0, 10.0, 9.942949 
9.35e+2, 2.2465037e+2, -789759.5, -843144.9, 0.002448482, 0.0000001152084, 0.00012089117, -789759.5, -51333.254, 0.0, 10.0, 9.929908 
9.35e+2, 2.3458035e+2, -691326.0, -744966.44, 0.0018797389, 0.00000011467864, -0.00008880887, -691326.0, -50213.49, 0.0, 10.0, 9.929576 
9.35e+2, 2.4450338e+2, -603001.94, -667018.75, 0.003898637, 0.00000011367496, 0.00007471558, -603001.94, -59135.09, 0.0, 10.0, 9.916136 
9.35e+2, 2.5441962e+2, -504249.3, -568343.3, 0.0023305705, 0.00000011210565, -0.00010673327, -504249.3, -57561.75, 0.0, 10.0, 9.916036 
9.35e+2, 2.643288e+2, -416013.9, -490987.88, 0.0037571122, 0.000000111933296, 0.00014059649, -416013.9, -66436.22, 0.0, 10.0, 9.901964 
9.35e+2, 2.742313e+2, -316728.66, -391374.75, 0.00088472164, 0.00000011354, -0.00020344036, -316728.66, -64195.668, 0.0, 10.0, 9.902385 
9.35e+2, 2.841256e+2, -230255.4, -318081.25, 0.00059280545, 0.000000114002276, 0.00022905052, -230255.4, -74686.44, 0.0, 10.0, 9.885439 
9.35e+2, 2.940121e+2, -130549.266, -217765.0, -0.0004998381, 0.00000011289005, -0.0002533381, -130549.266, -71867.875, 0.0, 10.0, 9.886217 
9.35e+2, 3.0392656e+2, -40805.258, -84750.164, 0.0016560798, 0.000000112295936, 0.00017313716, -40805.258, -40805.258, 0.0, 10.0, 9.942173 
9.35e+2, 3.138706e+2, -39727.242, -82511.21, 0.00135104, 0.000000112485864, -0.00005515166, -39727.242, -39727.242, 0.0, 10.0, 9.943684 
9.45e+2, 1.2499335e+2, -1719945.9, -1724224.6, 0.0016375937, 0.00000012835527, 0.000017637043, -1719945.9, -4880.613, 0.0, 10.0, 9.994327 
9.45e+2, 1.349876e+2, -1622565.4, -1627434.9, -0.0019845194, 0.00000012389337, -0.00006841692, -1622565.4, -5443.814, 0.0, 10.0, 9.993545 
9.45e+2, 1.4497514e+2, -1534464.0, -1548146.3, 0.0031735334, 0.0000001208293, 0.00007095718, -1534464.0, -15220.324, 0.0, 10.0, 9.981864 
9.45e+2, 1.5495703e+2, -1436736.3, -1450821.9, 0.0021727262, 0.00000011909829, -0.000056955523, -1436736.3, -15315.1455, 0.0, 10.0, 9.981333 
9.45e+2, 1.6493228e+2, -1348685.4, -1371952.4, 0.004778671, 0.0000001203727, 0.000047358742, -1348685.4, -25021.635, 0.0, 10.0, 9.969248 
9.45e+2, 1.7490156e+2, -1250727.3, -1274310.1, 0.0018429422, 0.00000012471604, -0.00007381668, -1250727.3, -24762.623, 0.0, 10.0, 9.968834 
9.45e+2, 1.8486421e+2, -1162646.4, -1195720.1, 0.0016490254, 0.00000012338512, 0.000066158136, -1162646.4, -34315.68, 0.0, 10.0, 9.956395 
9.45e+2, 1.9482064e+2, -1064496.6, -1097833.0, 0.00048201808, 0.0000001161165, -0.00005764263, -1064496.6, -33739.004, 0.0, 10.0, 9.956052 
9.45e+2, 2.0477042e+2, -976332.6, -1019435.0, 0.004933525, 0.00000011463889, 0.000068091795, -976332.6, -43082.746, 0.0, 10.0, 9.943291 
9.45e+2, 2.1471375e+2, -878045.6, -921409.9, 0.0031815341, 0.00000011943345, -0.00012681469, -878045.6, -42240.34, 0.0, 10.0, 9.942949 
9.45e+2, 2.2465037e+2, -789759.5, -843144.9, 0.0034709815, 0.00000012099694, 0.00012089124, -789759.5, -51333.234, 0.0, 10.0, 9.929908 
9.45e+2, 2.3458035e+2, -691326.0, -744966.44, 0.0011736961, 0.000000118900715, -0.00008880793, -691326.0, -50213.465, 0.0, 10.0, 9.929576 
9.45e+2, 2.4450338e+2, -603001.94, -667018.75, 0.0023495778, 0.00000011674743, 0.00007471686, -603001.94, -59135.063, 0.0, 10.0, 9.916136 
9.45e+2, 2.5441962e+2, -504249.28, -568343.3, 0.0009009317, 0.00000011452977, -0.00010673227, -504249.28, -57561.72, 0.0, 10.0, 9.916036 
9.45e+2, 2.643288e+2, -416013.88, -490987.88, 0.0028717797, 0.0000001145068, 0.00014059666, -416013.88, -66436.19, 0.0, 10.0, 9.901964 
9.45e+2, 2.742313e+2, -316728.63, -391374.75, 0.002040036, 0.000000117276855, -0.00020344167, -316728.63, -64195.64, 0.0, 10.0, 9.902385 
9.45e+2, 2.841256e+2, -230255.38, -318081.22, 0.0030045854, 0.00000011802688, 0.00022904892, -230255.38, -74686.414, 0.0, 10.0, 9.885439 
9.45e+2, 2.940121e+2, -130549.24, -217765.0, 0.0005510368, 0.00000011599936, -0.00025333837, -130549.24, -71867.85, 0.0, 10.0, 9.886217 
9.45e+2, 3.0392656e+2, -40805.23, -84750.15, 0.0012736307, 0.00000011528643, 0.00017313771, -40805.23, -40805.23, 0.0, 10.0, 9.942173 
9.45e+2, 3.138706e+2, -39727.22, -82511.2, -0.00018146477, 0.00000011655108, -0.000055151053, -39727.22, -39727.22, 0.0, 10.0, 9.943684 
9.55e+2, 1.2499335e+2, -1719945.9, -1724224.6, 0.0041747126, 0.00000013697482, 0.000017629955, -1719945.9, -4880.622, 0.0, 10.0, 9.994327 
9.55e+2, 1.349876e+2, -1622565.4, -1627434.9, 0.00055325247, 0.00000012428471, -0.00006840268, -1622565.4, -5443.823, 0.0, 10.0, 9.993545 
9.55e+2, 1.4497514e+2, -1534464.0, -1548146.3, 0.0022292696, 0.00000011971855, 0.00007097269, -1534464.0, -15220.327, 0.0, 10.0, 9.981864 
9.55e+2, 1.5495703e+2, -1436736.3, -1450821.9, 0.001222899, 0.00000012325067, -0.00005696475, -1436736.3, -15315.148, 0.0, 10.0, 9.981333 
9.55e+2, 1.6493228e+2, -1348685.4, -1371952.4, 0.002765318, 0.00000012611716, 0.000047346515, -1348685.4, -25021.643, 0.0, 10.0, 9.969248 
9.55e+2, 1.7490156e+2, -1250727.3, -1274310.1, -0.00017606645, 0.00000012830426, -0.00007380973, -1250727.3, -24762.63, 0.0, 10.0, 9.968834 
9.55e+2, 1.8486421e+2, -1162646.4, -1195720.1, 0.0040510665, 0.00000012621078, 0.0000661694, -1162646.4, -34315.684, 0.0, 10.0, 9.956395 
9.55e+2, 1.9482064e+2, -1064496.6, -1097833.0, 0.002935229, 0.00000011963786, -0.00005764261, -1064496.6, -33739.004, 0.0, 10.0, 9.956052 
9.55e+2, 2.0477042e+2, -976332.6, -1019435.0, 0.0028040824, 0.00000011853021, 0.00006808699, -976332.6, -43082.75, 0.0, 10.0, 9.943291 
9.55e+2, 2.1471375e+2, -878045.6, -921409.9, 0.00095741503, 0.00000012334186, -0.00012681737, -878045.6, -42240.344, 0.0, 10.0, 9.942949 
9.55e+2, 2.2465037e+2, -789759.5, -843144.9, 0.0041540456, 0.00000012437657, 0.00012088953, -789759.5, -51333.242, 0.0, 10.0, 9.929908 
9.55e+2, 2.3458035e+2, -691326.0, -744966.44, 0.0019518636, 0.00000012113372, -0.000088810004, -691326.0, -50213.47, 0.0, 10.0, 9.929576 
9.55e+2, 2.4450338e+2, -603001.94, -667018.75, 0.0029900928, 0.0000001194719, 0.00007471655, -603001.94, -59135.066, 0.0, 10.0, 9.916136 
9.55e+2, 2.5441962e+2, -504249.28, -568343.3, 0.0015348345, 0.00000011970306, -0.0001067283, -504249.28, -57561.723, 0.0, 10.0, 9.916036 
9.55e+2, 2.643288e+2, -416013.88, -490987.88, 0.0024242604, 0.00000011996735, 0.00014060063, -416013.88, -66436.195, 0.0, 10.0, 9.901964 
9.55e+2, 2.742313e+2, -316728.66, -391374.75, 0.0015200222, 0.00000012026926, -0.00020344318, -316728.66, -64195.645, 0.0, 10.0, 9.902385 
9.55e+2, 2.841256e+2, -230255.39, -318081.25, 0.0037565646, 0.00000012005583, 0.00022904364, -230255.39, -74686.414, 0.0, 10.0, 9.885438 
9.55e+2, 2.940121e+2, -130549.24, -217765.0, 0.0014176586, 0.00000011913685, -0.00025334506, -130549.24, -71867.85, 0.0, 10.0, 9.886217 
9.55e+2, 3.0392656e+2, -40805.234, -84750.16, 0.0012156434, 0.00000011898209, 0.00017313489, -40805.234, -40805.234, 0.0, 10.0, 9.942173 
9.55e+2, 3.138706e+2, -39727.223, -82511.21, -0.00034796033, 0.00000011996867, -0.000055142154, -39727.223, -39727.223, 0.0, 10.0, 9.943684 
9.65e+2, 1.2499335e+2, -1719945.9, -1724224.6, 0.0014083539, 0.00000013840427, 0.00001763306, -1719945.9, -4880.5815, 0.0, 10.0, 9.994327 
9.65e+2, 1.349876e+2, -1622565.4, -1627434.9, -0.0008518583, 0.00000012857775, -0.00006839954, -1622565.4, -5443.798, 0.0, 10.0, 9.993545 
9.65e+2, 1.4497514e+2, -1534464.0, -1548146.3, 0.00035877293, 0.00000012541129, 0.00007097678, -1534464.0, -15220.303, 0.0, 10.0, 9.981864 
9.65e+2, 1.5495703e+2, -1436736.3, -1450821.9, 0.00038029152, 0.00000012886764, -0.000056964567, -1436736.3, -15315.124, 0.0, 10.0, 9.981333 
9.65e+2, 1.6493228e+2, -1348685.3, -1371952.4, 0.002786415, 0.00000013019138, 0.000047345515, -1348685.3, -25021.617, 0.0, 10.0, 9.969248 
9.65e+2, 1.7490156e+2, -1250727.3, -1274310.1, 0.000080577236, 0.0000001293377, -0.00007380912, -1250727.3, -24762.594, 0.0, 10.0, 9.968834 
9.65e+2, 1.8486421e+2, -1162646.4, -1195720.1, 0.0051567713, 0.0000001279269, 0.00006617065, -1162646.4, -34315.645, 0.0, 10.0, 9.956395 
9.65e+2, 1.9482064e+2, -1064496.6, -1097833.0, 0.0036038659, 0.00000012593297, -0.000057641726, -1064496.6, -33738.984, 0.0, 10.0, 9.956052 
9.65e+2, 2.0477042e+2, -976332.6, -1019435.0, 0.0026743826, 0.00000012518447, 0.00006808734, -976332.6, -43082.734, 0.0, 10.0, 9.943291 
9.65e+2, 2.1471375e+2, -878045.56, -921409.9, 0.0010337371, 0.00000012578482, -0.00012681771, -878045.56, -42240.313, 0.0, 10.0, 9.942949 
9.65e+2, 2.2465037e+2, -789759.5, -843144.9, 0.004907404, 0.0000001255015, 0.000120889046, -789759.5, -51333.203, 0.0, 10.0, 9.929908 
9.65e+2, 2.3458035e+2, -691326.0, -744966.44, 0.0030022534, 0.00000012421734, -0.00008880997, -691326.0, -50213.44, 0.0, 10.0, 9.929576 
9.65e+2, 2.4450338e+2, -603001.94, -667018.75, 0.0040357593, 0.00000012388179, 0.00007471673, -603001.94, -59135.04, 0.0, 10.0, 9.916136 
9.65e+2, 2.5441962e+2, -504249.25, -568343.3, 0.002050929, 0.0000001246804, -0.00010672844, -504249.25, -57561.7, 0.0, 10.0, 9.916036 
9.65e+2, 2.643288e+2, -416013.84, -490987.88, 0.0022894454, 0.00000012444306, 0.00014060069, -416013.84, -66436.17, 0.0, 10.0, 9.901964 
9.65e+2, 2.742313e+2, -316728.63, -391374.75, 0.00021148518, 0.00000012288457, -0.00020344224, -316728.63, -64195.613, 0.0, 10.0, 9.902385 
9.65e+2, 2.841256e+2, -230255.34, -318081.22, 0.0022031586, 0.00000012223713, 0.00022904451, -230255.34, -74686.38, 0.0, 10.0, 9.885438 
9.65e+2, 2.940121e+2, -130549.22, -217765.0, 0.0009571952, 0.00000012284251, -0.00025334556, -130549.22, -71867.83, 0.0, 10.0, 9.886217 
9.65e+2, 3.0392656e+2, -40805.207, -84750.16, 0.0009260983, 0.00000012311611, 0.00017313426, -40805.207, -40805.207, 0.0, 10.0, 9.942173 
9.65e+2, 3.138706e+2, -39727.19, -82511.2, -0.0021002293, 0.00000012288567, -0.00005514107, -39727.19, -39727.19, 0.0, 10.0, 9.943684 
9.75e+2, 1.2499335e+2, -1719945.9, -1724224.6, 0.0004844788, 0.00000013264365, 0.00001764636, -1719945.9, -4880.5874, 0.0, 10.0, 9.994327 
9.75e+2, 1.349876e+2, -1622565.4, -1627434.9, -0.0017760351, 0.00000013677251, -0.0000684075, -1622565.4, -5443.8037, 0.0, 10.0, 9.993545 
9.75e+2, 1.4497514e+2, -1534464.0, -1548146.3, -0.00040005904, 0.00000013790748, 0.00007096946, -1534464.0, -15220.304, 0.0, 10.0, 9.981864 
9.75e+2, 1.5495703e+2, -1436736.3, -1450821.9, -0.00037834476, 0.00000013594922, -0.00005695498, -1436736.3, -15315.125, 0.0, 10.0, 9.981333 
9.75e+2, 1.6493228e+2, -1348685.3, -1371952.4, 0.003542838, 0.00000013259539, 0.00004735575, -1348685.3, -25021.623, 0.0, 10.0, 9.969248 
9.75e+2, 1.7490156e+2, -1250727.3, -1274310.1, 0.00084495917, 0.00000012781638, -0.00007381485, -1250727.3, -24762.6, 0.0, 10.0, 9.968834 
9.75e+2, 1.8486421e+2, -1162646.4, -1195720.1, 0.0033914659, 0.0000001285335, 0.0000661619, -1162646.4, -34315.65, 0.0, 10.0, 9.956395 
9.75e+2, 1.9482064e+2, -1064496.6, -1097833.0, 0.0018092352, 0.0000001350018, -0.000057639973, -1064496.6, -33738.99, 0.0, 10.0, 9.956052 
9.75e+2, 2.0477042e+2, -976332.6, -1019435.0, 0.004119968, 0.00000013460166, 0.00006809286, -976332.6, -43082.74, 0.0, 10.0, 9.943291 
9.75e+2, 2.1471375e+2, -878045.56, -921409.9, 0.0025462247, 0.00000012676233, -0.00012681575, -878045.56, -42240.316, 0.0, 10.0, 9.942949 
9.75e+2, 2.2465037e+2, -789759.5, -843144.9, 0.0043647652, 0.00000012437178, 0.00012088979, -789759.5, -51333.207, 0.0, 10.0, 9.929908 
9.75e+2, 2.3458035e+2, -691326.0, -744966.44, 0.0023923744, 0.00000012815154, -0.00008880782, -691326.0, -50213.445, 0.0, 10.0, 9.929576 
9.75e+2, 2.4450338e+2, -603001.94, -667018.75, 0.0037260607, 0.00000012997708, 0.00007471739, -603001.94, -59135.043, 0.0, 10.0, 9.916136 
9.75e+2, 2.5441962e+2, -504249.25, -568343.3, 0.0017556575, 0.0000001294618, -0.000106732696, -504249.25, -57561.703, 0.0, 10.0, 9.916036 
9.75e+2, 2.643288e+2, -416013.84, -490987.88, 0.0034148835, 0.0000001279339, 0.00014059687, -416013.84, -66436.17, 0.0, 10.0, 9.901964 
9.75e+2, 2.742313e+2, -316728.63, -391374.75, 0.0014321918, 0.00000012512278, -0.00020343883, -316728.63, -64195.617, 0.0, 10.0, 9.902385 
9.75e+2, 2.841256e+2, -230255.36, -318081.25, 0.0021253156, 0.00000012457079, 0.00022905155, -230255.36, -74686.39, 0.0, 10.0, 9.885438 
9.75e+2, 2.940121e+2, -130549.22, -217765.0, 0.00076237286, 0.00000012711634, -0.00025333985, -130549.22, -71867.83, 0.0, 10.0, 9.886217 
9.75e+2, 3.0392656e+2, -40805.21, -84750.164, 0.0018656118, 0.00000012768848, 0.00017313582, -40805.21, -40805.21, 0.0, 10.0, 9.942173 
9.75e+2, 3.138706e+2, -39727.2, -82511.22, -0.0010275024, 0.00000012530207, -0.00005514781, -39727.2, -39727.2, 0.0, 10.0, 9.943684 
9.85e+2, 1.2499335e+2, -1719945.8, -1724224.6, 0.0030812335, 0.00000013401106, 0.000017647568, -1719945.8, -4880.5503, 0.0, 10.0, 9.994327 
9.85e+2, 1.349876e+2, -1622565.4, -1627434.9, 0.0022033665, 0.00000014239015, -0.00006841193, -1622565.4, -5443.776, 0.0, 10.0, 9.993545 
9.85e+2, 1.4497514e+2, -1534463.9, -1548146.3, 0.0041375374, 0.00000014449587, 0.00007096741, -1534463.9, -15220.279, 0.0, 10.0, 9.981864 
9.85e+2, 1.5495703e+2, -1436736.3, -1450821.9, -0.00018649868, 0.00000014020586, -0.000056952314, -1436736.3, -15315.094, 0.0, 10.0, 9.981333 
9.85e+2, 1.6493228e+2, -1348685.3, -1371952.4, 0.0029803407, 0.00000013593954, 0.00004735892, -1348685.3, -25021.59, 0.0, 10.0, 9.969248 
9.85e+2, 1.7490156e+2, -1250727.3, -1274310.1, 0.002619333, 0.00000013169712, -0.000073815456, -1250727.3, -24762.57, 0.0, 10.0, 9.968834 
9.85e+2, 1.8486421e+2, -1162646.3, -1195720.1, 0.0041571297, 0.00000013247363, 0.000066160384, -1162646.3, -34315.62, 0.0, 10.0, 9.956395 
9.85e+2, 1.9482064e+2, -1064496.5, -1097832.9, 0.0008573862, 0.00000013850193, -0.000057639383, -1064496.5, -33738.957, 0.0, 10.0, 9.956052 
9.85e+2, 2.0477042e+2, -976332.56, -1019435.0, 0.0039635208, 0.0000001381826, 0.00006809457, -976332.56, -43082.703, 0.0, 10.0, 9.943291 
9.85e+2, 2.1471375e+2, -878045.56, -921409.9, 0.0020142125, 0.0000001309881, -0.00012681399, -878045.56, -42240.285, 0.0, 10.0, 9.942949 
9.85e+2, 2.2465037e+2, -789759.44, -843144.9, 0.0024842047, 0.00000012877001, 0.00012089108, -789759.44, -51333.18, 0.0, 10.0, 9.929908 
9.85e+2, 2.3458035e+2, -691325.94, -744966.44, 0.000615438, 0.00000013218735, -0.00008880758, -691325.94, -50213.418, 0.0, 10.0, 9.929576 
9.85e+2, 2.4450338e+2, -603001.9, -667018.75, 0.002770028, 0.00000013353204, 0.00007471738, -603001.9, -59135.01, 0.0, 10.0, 9.916136 
9.85e+2, 2.5441962e+2, -504249.22, -568343.3, 0.0011527099, 0.00000013239494, -0.000106732, -504249.22, -57561.668, 0.0, 10.0, 9.916036 
9.85e+2, 2.643288e+2, -416013.8, -490987.88, 0.0031156177, 0.00000013104763, 0.00014059775, -416013.8, -66436.14, 0.0, 10.0, 9.901964 
9.85e+2, 2.742313e+2, -316728.6, -391374.75, 0.0007914224, 0.00000012943855, -0.0002034384, -316728.6, -64195.59, 0.0, 10.0, 9.902385 
9.85e+2, 2.841256e+2, -230255.33, -318081.22, 0.00083933334, 0.00000012913962, 0.00022905202, -230255.33, -74686.36, 0.0, 10.0, 9.885438 
9.85e+2, 2.940121e+2, -130549.19, -217765.0, -0.0010220523, 0.00000013063476, -0.00025333872, -130549.19, -71867.8, 0.0, 10.0, 9.886217 
9.85e+2, 3.0392656e+2, -40805.18, -84750.16, 0.001349587, 0.00000013094593, 0.00017313624, -40805.18, -40805.18, 0.0, 10.0, 9.942173 
9.85e+2, 3.138706e+2, -39727.168, -82511.21, 0.0015216668, 0.00000012948267, -0.000055150216, -39727.168, -39727.168, 0.0, 10.0, 9.943684 
9.95e+2, 1.2499335e+2, -1719945.8, -1724224.6, -0.000043182627, 0.00000014250648, 0.000017636683, -1719945.8, -4880.553, 0.0, 10.0, 9.994327 
9.95e+2, 1.349876e+2, -1622565.4, -1627434.9, -0.00092186034, 0.00000014543065, -0.000068412846, -1622565.4, -5443.779, 0.0, 10.0, 9.993545 
9.95e+2, 1.4497514e+2, -1534463.9, -1548146.3, 0.0048804763, 0.00000014517649, 0.000070970644, -1534463.9, -15220.29, 0.0, 10.0, 9.981864 
9.95e+2, 1.5495703e+2, -1436736.3, -1450821.9, 0.0005625199, 0.00000014163757, -0.00005695657, -1436736.3, -15315.1045, 0.0, 10.0, 9.981333 
9.95e+2, 1.6493228e+2, -1348685.3, -1371952.4, 0.002799077, 0.00000014022382, 0.00004735504, -1348685.3, -25021.592, 0.0, 10.0, 9.969248 
9.95e+2, 1.7490156e+2, -1250727.3, -1274310.1, 0.0024331103, 0.00000014097992, -0.00007381094, -1250727.3, -24762.572, 0.0, 10.0, 9.968834 
9.95e+2, 1.8486421e+2, -1162646.3, -1195720.1, 0.0037442606, 0.00000013974727, 0.00006616611, -1162646.3, -34315.63, 0.0, 10.0, 9.956395 
9.95e+2, 1.9482064e+2, -1064496.5, -1097833.0, 0.0004418583, 0.0000001364334, -0.00005763996, -1064496.5, -33738.965, 0.0, 10.0, 9.956052 
9.95e+2, 2.0477042e+2, -976332.56, -1019435.0, 0.0040697814, 0.0000001359273, 0.00006809247, -976332.56, -43082.707, 0.0, 10.0, 9.943291 
9.95e+2, 2.1471375e+2, -878045.56, -921409.9, 0.0021312346, 0.00000013846213, -0.00012681242, -878045.56, -42240.293, 0.0, 10.0, 9.942949 
9.95e+2, 2.2465037e+2, -789759.44, -843144.9, 0.002273258, 0.00000013869618, 0.000120892946, -789759.44, -51333.188, 0.0, 10.0, 9.929908 
9.95e+2, 2.3458035e+2, -691325.94, -744966.44, 0.00039374697, 0.00000013632476, -0.00008880924, -691325.94, -50213.42, 0.0, 10.0, 9.929576 
9.95e+2, 2.4450338e+2, -603001.9, -667018.75, 0.0034457005, 0.00000013454667, 0.00007471669, -603001.9, -59135.016, 0.0, 10.0, 9.916136 
9.95e+2, 2.5441962e+2, -504249.22, -568343.3, 0.0018715096, 0.00000013347986, -0.00010672636, -504249.22, -57561.67, 0.0, 10.0, 9.916036 
9.95e+2, 2.643288e+2, -416013.8, -490987.88, 0.002978524, 0.00000013378424, 0.00014060337, -416013.8, -66436.15, 0.0, 10.0, 9.901964 
9.95e+2, 2.742313e+2, -316728.6, -391374.75, 0.0005969625, 0.00000013583187, -0.00020344093, -316728.6, -64195.594, 0.0, 10.0, 9.902385 
9.95e+2, 2.841256e+2, -230255.33, -318081.25, 0.0014841125, 0.0000001359436, 0.0002290459, -230255.33, -74686.37, 0.0, 10.0, 9.885438 
9.95e+2, 2.940121e+2, -130549.195, -217765.0, -0.0003016282, 0.00000013339778, -0.00025334215, -130549.195, -71867.805, 0.0, 10.0, 9.886217 
9.95e+2, 3.0392656e+2, -40805.184, -84750.16, 0.0015529264, 0.00000013288847, 0.00017313552, -40805.184, -40805.184, 0.0, 10.0, 9.942173 
9.95e+2, 3.138706e+2, -39727.17, -82511.21, 0.0016643441, 0.00000013542748, -0.000055148288, -39727.17, -39727.17, 0.0, 10.0, 9.943684 
1.005e+3, 1.2499335e+2, -1719945.8, -1724224.6, 0.0022225888, 0.00000015149487, 0.000017636094, -1719945.8, -4880.534, 0.0, 10.0, 9.994327 
1.005e+3, 1.349876e+2, -1622565.3, -1627434.9, -0.0017333878, 0.00000014748889, -0.0000684118, -1622565.3, -5443.738, 0.0, 10.0, 9.993545 
1.005e+3, 1.4497514e+2, -1534463.9, -1548146.3, 0.0040885718, 0.00000014529779, 0.00007097345, -1534463.9, -15220.244, 0.0, 10.0, 9.981864 
1.005e+3, 1.5495703e+2, -1436736.3, -1450821.9, 0.0026910198, 0.00000014484338, -0.000056957546, -1436736.3, -15315.068, 0.0, 10.0, 9.981333 
1.005e+3, 1.6493228e+2, -1348685.3, -1371952.4, 0.004637074, 0.00000014538266, 0.000047354, -1348685.3, -25021.56, 0.0, 10.0, 9.969248 
1.005e+3, 1.7490156e+2, -1250727.3, -1274310.1, 0.00065403385, 0.00000014693661, -0.00007380824, -1250727.3, -24762.543, 0.0, 10.0, 9.968834 
1.005e+3, 1.8486421e+2, -1162646.3, -1195720.1, 0.0020078772, 0.00000014478564, 0.00006616924, -1162646.3, -34315.598, 0.0, 10.0, 9.956395 
1.005e+3, 1.9482064e+2, -1064496.5, -1097832.9, 0.0012434305, 0.00000013875763, -0.00005763988, -1064496.5, -33738.926, 0.0, 10.0, 9.956052 
1.005e+3, 2.0477042e+2, -976332.56, -1019435.0, 0.0050075487, 0.00000013828328, 0.000068091416, -976332.56, -43082.67, 0.0, 10.0, 9.94329 
1.005e+3, 2.1471375e+2, -878045.56, -921409.9, 0.0025301864, 0.00000014382391, -0.00012681253, -878045.56, -42240.26, 0.0, 10.0, 9.942949 
1.005e+3, 2.2465037e+2, -789759.44, -843144.9, 0.0037419845, 0.00000014454528, 0.00012089325, -789759.44, -51333.156, 0.0, 10.0, 9.929908 
1.005e+3, 2.3458035e+2, -691325.94, -744966.44, 0.0021484452, 0.0000001398093, -0.00008880909, -691325.94, -50213.387, 0.0, 10.0, 9.929576 
1.005e+3, 2.4450338e+2, -603001.9, -667018.75, 0.004180859, 0.00000013728469, 0.000074716896, -603001.9, -59134.98, 0.0, 10.0, 9.916136 
1.005e+3, 2.5441962e+2, -504249.2, -568343.3, 0.0009742124, 0.00000013740708, -0.00010672585, -504249.2, -57561.64, 0.0, 10.0, 9.916036 
1.005e+3, 2.643288e+2, -416013.78, -490987.88, 0.0019534433, 0.0000001382774, 0.0001406036, -416013.78, -66436.12, 0.0, 10.0, 9.901964 
1.005e+3, 2.742313e+2, -316728.56, -391374.75, 0.0014795797, 0.00000014009319, -0.00020344171, -316728.56, -64195.563, 0.0, 10.0, 9.902385 
1.005e+3, 2.841256e+2, -230255.3, -318081.22, 0.0038190596, 0.00000014005455, 0.00022904457, -230255.3, -74686.336, 0.0, 10.0, 9.885438 
1.005e+3, 2.940121e+2, -130549.164, -217765.0, 0.0015267323, 0.00000013747365, -0.00025334334, -130549.164, -71867.77, 0.0, 10.0, 9.886217 
1.005e+3, 3.0392656e+2, -40805.15, -84750.15, 0.001179152, 0.00000013679804, 0.00017313537, -40805.15, -40805.15, 0.0, 10.0, 9.942173 
1.005e+3, 3.138706e+2, -39727.137, -82511.2, -0.0028243966, 0.00000013897501, -0.000055145974, -39727.137, -39727.137, 0.0, 10.0, 9.943684 
1.015e+3, 1.2499335e+2, -1719945.8, -1724224.6, 0.0042505497, 0.00000016097624, 0.0000176458, -1719945.8, -4880.5444, 0.0, 10.0, 9.994327 
1.015e+3, 1.349876e+2, -1622565.3, -1627434.9, 0.0002949752, 0.00000014856488, -0.0000684088, -1622565.3, -5443.7476, 0.0, 10.0, 9.993545 
1.015e+3, 1.4497514e+2, -1534463.9, -1548146.3, 0.0024726535, 0.0000001448598, 0.00007097584, -1534463.9, -15220.248, 0.0, 10.0, 9.981864 
1.015e+3, 1.5495703e+2, -1436736.3, -1450821.9, 0.001069267, 0.00000014982328, -0.000056955243, -1436736.3, -15315.072, 0.0, 10.0, 9.981333 
1.015e+3, 1.6493228e+2, -1348685.3, -1371952.4, 0.0039734915, 0.00000015141603, 0.000047355807, -1348685.3, -25021.57, 0.0, 10.0, 9.969248 
1.015e+3, 1.7490156e+2, -1250727.3, -1274310.1, -0.0000045355105, 0.0000001495672, -0.00007380735, -1250727.3, -24762.553, 0.0, 10.0, 9.968834 
1.015e+3, 1.8486421e+2, -1162646.3, -1195720.1, 0.0029038093, 0.00000014758875, 0.00006616976, -1162646.3, -34315.6, 0.0, 10.0, 9.956395 
1.015e+3, 1.9482064e+2, -1064496.5, -1097833.0, 0.0021573284, 0.00000014547456, -0.00005763914, -1064496.5, -33738.93, 0.0, 10.0, 9.956052 
1.015e+3, 2.0477042e+2, -976332.56, -1019435.0, 0.0035297524, 0.00000014525052, 0.00006809141, -976332.56, -43082.676, 0.0, 10.0, 9.94329 
1.015e+3, 2.1471375e+2, -878045.56, -921409.9, 0.001002964, 0.00000014707348, -0.00012681434, -878045.56, -42240.27, 0.0, 10.0, 9.942949 
1.015e+3, 2.2465037e+2, -789759.44, -843144.9, 0.004999803, 0.00000014631733, 0.00012089201, -789759.44, -51333.16, 0.0, 10.0, 9.929908 
1.015e+3, 2.3458035e+2, -691325.94, -744966.44, 0.003497368, 0.00000014264099, -0.00008880713, -691325.94, -50213.39, 0.0, 10.0, 9.929576 
1.015e+3, 2.4450338e+2, -603001.9, -667018.75, 0.0037874684, 0.00000014174611, 0.000074717995, -603001.9, -59134.99, 0.0, 10.0, 9.916136 
1.015e+3, 2.5441962e+2, -504249.2, -568343.3, 0.00049709843, 0.00000014417662, -0.00010673046, -504249.2, -57561.65, 0.0, 10.0, 9.916036 
1.015e+3, 2.643288e+2, -416013.78, -490987.88, 0.0022128155, 0.0000001445271, 0.00014059847, -416013.78, -66436.12, 0.0, 10.0, 9.901964 
1.015e+3, 2.742313e+2, -316728.56, -391374.75, 0.0017883383, 0.00000014222252, -0.00020344074, -316728.56, -64195.563, 0.0, 10.0, 9.902385 
1.015e+3, 2.841256e+2, -230255.3, -318081.25, 0.0044344696, 0.0000001414725, 0.00022904803, -230255.3, -74686.336, 0.0, 10.0, 9.885438 
1.015e+3, 2.940121e+2, -130549.164, -217765.0, 0.0021698044, 0.00000014286239, -0.00025334235, -130549.164, -71867.77, 0.0, 10.0, 9.886217 
1.015e+3, 3.0392656e+2, -40805.156, -84750.164, 0.0019255886, 0.00000014267461, 0.00017313579, -40805.156, -40805.156, 0.0, 10.0, 9.942173 
1.015e+3, 3.138706e+2, -39727.145, -82511.22, -0.0020657766, 0.00000014012527, -0.00005514328, -39727.145, -39727.145, 0.0, 10.0, 9.943684 
1.025e+3, 1.2499335e+2, -1719945.8, -1724224.6, 0.000029620565, 0.0000001642974, 0.00001765075, -1719945.8, -4880.502, 0.0, 10.0, 9.994327 
1.025e+3, 1.349876e+2, -1622565.3, -1627434.9, -0.0004952859, 0.00000015402613, -0.00006840698, -1622565.3, -5443.717, 0.0, 10.0, 9.993545 
1.025e+3, 1.4497514e+2, -1534463.9, -1548146.3, 0.0010428895, 0.0000001507403, 0.00007097861, -1534463.9, -15220.219, 0.0, 10.0, 9.981864 
1.025e+3, 1.5495703e+2, -1436736.1, -1450821.9, -0.0017411526, 0.00000015438918, -0.0000569529, -1436736.1, -15315.038, 0.0, 10.0, 9.981333 
1.025e+3, 1.6493228e+2, -1348685.3, -1371952.4, 0.0023665258, 0.00000015513858, 0.00004735705, -1348685.3, -25021.533, 0.0, 10.0, 9.969248 
1.025e+3, 1.7490156e+2, -1250727.3, -1274310.1, 0.0014241361, 0.00000015292746, -0.000073807896, -1250727.3, -24762.514, 0.0, 10.0, 9.968834 
1.025e+3, 1.8486421e+2, -1162646.3, -1195720.1, 0.005303614, 0.00000015181381, 0.00006616918, -1162646.3, -34315.563, 0.0, 10.0, 9.956395 
1.025e+3, 1.9482064e+2, -1064496.5, -1097832.9, 0.0021962856, 0.0000001518485, -0.000057637924, -1064496.5, -33738.902, 0.0, 10.0, 9.956052 
1.025e+3, 2.0477042e+2, -976332.5, -1019435.0, 0.0023252075, 0.00000015111041, 0.000068092915, -976332.5, -43082.65, 0.0, 10.0, 9.94329 
1.025e+3, 2.1471375e+2, -878045.5, -921409.9, 0.00036246574, 0.00000014953523, -0.00012681418, -878045.5, -42240.23, 0.0, 10.0, 9.942949 
1.025e+3, 2.2465037e+2, -789759.4, -843144.8, 0.0042701885, 0.00000014838524, 0.00012089232, -789759.4, -51333.12, 0.0, 10.0, 9.929908 
1.025e+3, 2.3458035e+2, -691325.9, -744966.44, 0.0010169335, 0.0000001477167, -0.00008880493, -691325.9, -50213.36, 0.0, 10.0, 9.929576 
1.025e+3, 2.4450338e+2, -603001.8, -667018.75, 0.0017598645, 0.00000014779, 0.00007471983, -603001.8, -59134.957, 0.0, 10.0, 9.916136 
1.025e+3, 2.5441962e+2, -504249.16, -568343.3, 0.0018855726, 0.00000014874885, -0.000106731684, -504249.16, -57561.617, 0.0, 10.0, 9.916036 
1.025e+3, 2.643288e+2, -416013.75, -490987.88, 0.004063833, 0.00000014822773, 0.00014059688, -416013.75, -66436.08, 0.0, 10.0, 9.901964 
1.025e+3, 2.742313e+2, -316728.53, -391374.75, -0.0004457354, 0.00000014582093, -0.00020343927, -316728.53, -64195.527, 0.0, 10.0, 9.902385 
1.025e+3, 2.841256e+2, -230255.27, -318081.22, 0.00011407167, 0.00000014517998, 0.00022905087, -230255.27, -74686.305, 0.0, 10.0, 9.885438 
1.025e+3, 2.940121e+2, -130549.13, -217765.0, -0.0014680345, 0.00000014696441, -0.00025334052, -130549.13, -71867.74, 0.0, 10.0, 9.886217 
1.025e+3, 3.0392656e+2, -40805.125, -84750.16, 0.0005580284, 0.00000014698134, 0.00017313616, -40805.125, -40805.125, 0.0, 10.0, 9.942173 
1.025e+3, 3.138706e+2, -39727.113, -82511.21, 0.0005221921, 0.000000144352, -0.000055145047, -39727.113, -39727.113, 0.0, 10.0, 9.943684 
1.035e+3, 1.2499335e+2, -1719945.8, -1724224.6, -0.000517503, 0.00000016145837, 0.000017650942, -1719945.8, -4880.504, 0.0, 10.0, 9.994327 
1.035e+3, 1.349876e+2, -1622565.3, -1627434.9, -0.0010426623, 0.0000001638726, -0.00006840634, -1622565.3, -5443.7188, 0.0, 10.0, 9.993545 
1.035e+3, 1.4497514e+2, -1534463.9, -1548146.3, 0.00079142465, 0.00000016293927, 0.000070981754, -1534463.9, -15220.227, 0.0, 10.0, 9.981864 
1.035e+3, 1.5495703e+2, -1436736.1, -1450821.9, -0.0019922163, 0.00000015854113, -0.00005695052, -1436736.1, -15315.045, 0.0, 10.0, 9.981333 
1.035e+3, 1.6493228e+2, -1348685.3, -1371952.4, 0.0019672252, 0.0000001565503, 0.000047357727, -1348685.3, -25021.535, 0.0, 10.0, 9.969248 
1.035e+3, 1.7490156e+2, -1250727.3, -1274310.1, 0.0010240033, 0.00000015701737, -0.00007380987, -1250727.3, -24762.518, 0.0, 10.0, 9.968834 
1.035e+3, 1.8486421e+2, -1162646.3, -1195720.1, 0.004484997, 0.0000001574608, 0.00006616751, -1162646.3, -34315.57, 0.0, 10.0, 9.956395 
1.035e+3, 1.9482064e+2, -1064496.5, -1097833.0, 0.001372788, 0.00000015787943, -0.00005763623, -1064496.5, -33738.906, 0.0, 10.0, 9.956052 
1.035e+3, 2.0477042e+2, -976332.5, -1019435.0, 0.0033276621, 0.00000015586296, 0.00006809592, -976332.5, -43082.652, 0.0, 10.0, 9.94329 
1.035e+3, 2.1471375e+2, -878045.5, -921409.9, 0.0014026104, 0.00000015120919, -0.00012681208, -878045.5, -42240.234, 0.0, 10.0, 9.942949 
1.035e+3, 2.2465037e+2, -789759.4, -843144.9, 0.0033973856, 0.00000015074902, 0.000120894205, -789759.4, -51333.13, 0.0, 10.0, 9.929908 
1.035e+3, 2.3458035e+2, -691325.9, -744966.44, 0.00008154161, 0.00000015503647, -0.000088802495, -691325.9, -50213.367, 0.0, 10.0, 9.929576 
1.035e+3, 2.4450338e+2, -603001.8, -667018.75, 0.002295606, 0.00000015541637, 0.00007472238, -603001.8, -59134.96, 0.0, 10.0, 9.916136 
1.035e+3, 2.5441962e+2, -504249.16, -568343.3, 0.0024920036, 0.00000015112377, -0.00010672952, -504249.16, -57561.617, 0.0, 10.0, 9.916036 
1.035e+3, 2.643288e+2, -416013.75, -490987.88, 0.0046167234, 0.00000014937926, 0.00014059883, -416013.75, -66436.09, 0.0, 10.0, 9.901964 
1.035e+3, 2.742313e+2, -316728.53, -391374.78, 0.000103590035, 0.00000015088841, -0.00020343729, -316728.53, -64195.54, 0.0, 10.0, 9.902385 
1.035e+3, 2.841256e+2, -230255.27, -318081.25, 0.00040832278, 0.00000015117699, 0.00022905307, -230255.27, -74686.305, 0.0, 10.0, 9.885438 
1.035e+3, 2.940121e+2, -130549.13, -217765.0, -0.0011967426, 0.00000014977971, -0.00025333784, -130549.13, -71867.74, 0.0, 10.0, 9.886217 
1.035e+3, 3.0392656e+2, -40805.125, -84750.16, 0.0011883522, 0.0000001497182, 0.00017313646, -40805.125, -40805.125, 0.0, 10.0, 9.942173 
1.035e+3, 3.138706e+2, -39727.113, -82511.21, 0.0011947087, 0.00000015165519, -0.000055151286, -39727.113, -39727.113, 0.0, 10.0, 9.943684 
1.045e+3, 1.2499335e+2, -1719945.6, -1724224.6, 0.0052315155, 0.00000016388535, 0.000017649341, -1719945.6, -4880.4604, 0.0, 10.000001, 9.994327 
1.045e+3, 1.349876e+2, -1622565.3, -1627434.9, 0.0005221349, 0.00000016982324, -0.00006840655, -1622565.3, -5443.6836, 0.0, 10.0, 9.993545 
1.045e+3, 1.4497514e+2, -1534463.9, -1548146.3, 0.0025295813, 0.00000016987887, 0.00007098375, -1534463.9, -15220.192, 0.0, 10.0, 9.981864 
1.045e+3, 1.5495703e+2, -1436736.1, -1450821.9, 0.0013221008, 0.00000016391718, -0.000056950754, -1436736.1, -15315.009, 0.0, 10.0, 9.981333 
1.045e+3, 1.6493228e+2, -1348685.1, -1371952.4, 0.0043546017, 0.0000001610646, 0.000047357156, -1348685.1, -25021.5, 0.0, 10.0, 9.969248 
1.045e+3, 1.7490156e+2, -1250727.1, -1274310.1, 0.00073586736, 0.00000016138644, -0.000073808864, -1250727.1, -24762.48, 0.0, 10.0, 9.968834 
1.045e+3, 1.8486421e+2, -1162646.3, -1195720.1, 0.0031087135, 0.00000016180569, 0.00006616902, -1162646.3, -34315.535, 0.0, 10.0, 9.956395 
1.045e+3, 1.9482064e+2, -1064496.5, -1097832.9, 0.00085015345, 0.00000016232676, -0.00005763532, -1064496.5, -33738.87, 0.0, 10.0, 9.956052 
1.045e+3, 2.0477042e+2, -976332.5, -1019435.0, 0.0040795114, 0.00000016042227, 0.00006809678, -976332.5, -43082.613, 0.0, 10.0, 9.94329 
1.045e+3, 2.1471375e+2, -878045.5, -921409.8, 0.0015894335, 0.00000015589079, -0.00012681067, -878045.5, -42240.2, 0.0, 10.0, 9.942949 
1.045e+3, 2.2465037e+2, -789759.4, -843144.9, 0.0029808772, 0.00000015544745, 0.00012089478, -789759.4, -51333.094, 0.0, 10.0, 9.929908 
1.045e+3, 2.3458035e+2, -691325.9, -744966.44, 0.0017010698, 0.00000015963244, -0.000088804314, -691325.9, -50213.33, 0.0, 10.0, 9.929576 
1.045e+3, 2.4450338e+2, -603001.8, -667018.75, 0.0041241925, 0.0000001598225, 0.00007472113, -603001.8, -59134.92, 0.0, 10.0, 9.916136 
1.045e+3, 2.5441962e+2, -504249.13, -568343.25, -0.0005712402, 0.00000015523582, -0.000106726686, -504249.13, -57561.58, 0.0, 10.0, 9.916036 
1.045e+3, 2.643288e+2, -416013.72, -490987.88, 0.0004315537, 0.00000015352262, 0.00014060225, -416013.72, -66436.055, 0.0, 10.0, 9.901964 
1.045e+3, 2.742313e+2, -316728.5, -391374.75, 0.00057981216, 0.00000015547745, -0.00020343777, -316728.5, -64195.504, 0.0, 10.0, 9.902385 
1.045e+3, 2.841256e+2, -230255.23, -318081.22, 0.0034009754, 0.00000015591566, 0.00022905074, -230255.23, -74686.27, 0.0, 10.0, 9.885438 
1.045e+3, 2.940121e+2, -130549.1, -217764.98, 0.0009933815, 0.0000001542609, -0.00025333915, -130549.1, -71867.71, 0.0, 10.0, 9.886217 
1.045e+3, 3.0392656e+2, -40805.09, -84750.15, 0.0016199641, 0.00000015405232, 0.00017313637, -40805.09, -40805.09, 0.0, 10.0, 9.942173 
1.045e+3, 3.138706e+2, -39727.08, -82511.2, -0.001986728, 0.00000015600986, -0.000055149878, -39727.08, -39727.08, 0.0, 10.000001, 9.943684 
1.055e+3, 1.2499335e+2, -1719945.8, -1724224.6, 0.0028365792, 0.00000017157825, 0.000017645947, -1719945.8, -4880.4727, 0.0, 10.000001, 9.994327 
1.055e+3, 1.349876e+2, -1622565.3, -1627434.9, -0.0018735249, 0.00000017187804, -0.00006840761, -1622565.3, -5443.6953, 0.0, 10.0, 9.993545 
1.055e+3, 1.4497514e+2, -1534463.9, -1548146.3, 0.002809442, 0.00000017155914, 0.00007098458, -1534463.9, -15220.196, 0.0, 10.0, 9.981864 
1.055e+3, 1.5495703e+2, -1436736.1, -1450821.9, 0.0016061332, 0.00000017051735, -0.000056953595, -1436736.1, -15315.013, 0.0, 10.0, 9.981333 
1.055e+3, 1.6493228e+2, -1348685.1, -1371952.4, 0.0039684554, 0.00000016868148, 0.00004735533, -1348685.1, -25021.508, 0.0, 10.0, 9.969248 
1.055e+3, 1.7490156e+2, -1250727.1, -1274310.1, 0.00034613357, 0.00000016603467, -0.000073804884, -1250727.1, -24762.49, 0.0, 10.0, 9.968834 
1.055e+3, 1.8486421e+2, -1162646.3, -1195720.1, 0.002865727, 0.00000016484846, 0.00006617372, -1162646.3, -34315.54, 0.0, 10.0, 9.956395 
1.055e+3, 1.9482064e+2, -1064496.5, -1097833.0, 0.0006088307, 0.00000016519051, -0.000057635196, -1064496.5, -33738.875, 0.0, 10.0, 9.956052 
1.055e+3, 2.0477042e+2, -976332.5, -1019435.0, 0.0042337636, 0.00000016478836, 0.00006809549, -976332.5, -43082.62, 0.0, 10.0, 9.94329 
1.055e+3, 2.1471375e+2, -878045.5, -921409.9, 0.0017518344, 0.00000016357998, -0.00012680996, -878045.5, -42240.203, 0.0, 10.0, 9.942949 
1.055e+3, 2.2465037e+2, -789759.4, -843144.9, 0.0025293154, 0.00000016248052, 0.00012089405, -789759.4, -51333.098, 0.0, 10.0, 9.929908 
1.055e+3, 2.3458035e+2, -691325.9, -744966.44, 0.0012294037, 0.0000001615046, -0.00008881038, -691325.9, -50213.332, 0.0, 10.0, 9.929576 
1.055e+3, 2.4450338e+2, -603001.8, -667018.75, 0.004834254, 0.00000016100842, 0.00007471606, -603001.8, -59134.934, 0.0, 10.0, 9.916136 
1.055e+3, 2.5441962e+2, -504249.13, -568343.3, 0.00019562193, 0.00000016108498, -0.00010672317, -504249.13, -57561.59, 0.0, 10.0, 9.916036 
1.055e+3, 2.643288e+2, -416013.72, -490987.88, 0.00047809217, 0.0000001606578, 0.00014060712, -416013.72, -66436.055, 0.0, 10.0, 9.901964 
1.055e+3, 2.742313e+2, -316728.5, -391374.75, 0.0005780608, 0.00000015958807, -0.00020344072, -316728.5, -64195.504, 0.0, 10.0, 9.902385 
1.055e+3, 2.841256e+2, -230255.25, -318081.25, 0.0039172233, 0.00000015939598, 0.0002290439, -230255.25, -74686.28, 0.0, 10.0, 9.885438 
1.055e+3, 2.940121e+2, -130549.11, -217765.0, 0.0015563315, 0.00000016040799, -0.00025334442, -130549.11, -71867.72, 0.0, 10.0, 9.886217 
1.055e+3, 3.0392656e+2, -40805.098, -84750.164, 0.0022623716, 0.00000015998366, 0.00017313591, -40805.098, -40805.098, 0.0, 10.0, 9.942172 
1.055e+3, 3.138706e+2, -39727.086, -82511.22, -0.0013349437, 0.00000015741604, -0.000055140823, -39727.086, -39727.086, 0.0, 10.000001, 9.943684 
1.065e+3, 1.2499335e+2, -1719945.6, -1724224.6, 0.00045957926, 0.00000017866162, 0.000017648863, -1719945.6, -4880.438, 0.0, 10.000001, 9.994327 
1.065e+3, 1.349876e+2, -1622565.1, -1627434.9, -0.00073801784, 0.00000017569003, -0.000068409114, -1622565.1, -5443.651, 0.0, 10.000001, 9.993545 
1.065e+3, 1.4497514e+2, -1534463.8, -1548146.3, 0.0049101673, 0.00000017469905, 0.000070984395, -1534463.8, -15220.15, 0.0, 10.000001, 9.981864 
1.065e+3, 1.5495703e+2, -1436736.1, -1450821.9, 0.0005092217, 0.00000017559871, -0.00005695153, -1436736.1, -15314.973, 0.0, 10.000001, 9.981333 
1.065e+3, 1.6493228e+2, -1348685.1, -1371952.4, 0.0024502587, 0.00000017451198, 0.000047357935, -1348685.1, -25021.47, 0.0, 10.000001, 9.969248 
1.065e+3, 1.7490156e+2, -1250727.1, -1274310.1, 0.0004800688, 0.00000017139693, -0.00007380349, -1250727.1, -24762.45, 0.0, 10.000001, 9.968834 
1.065e+3, 1.8486421e+2, -1162646.1, -1195720.1, 0.0033838921, 0.00000016946733, 0.00006617444, -1162646.1, -34315.5, 0.0, 10.000001, 9.956395 
1.065e+3, 1.9482064e+2, -1064496.4, -1097832.9, 0.0006798741, 0.00000016877799, -0.000057634596, -1064496.4, -33738.836, 0.0, 10.000001, 9.956052 
1.065e+3, 2.0477042e+2, -976332.44, -1019435.0, 0.0041849907, 0.00000016904809, 0.0000680959, -976332.44, -43082.582, 0.0, 10.000001, 9.94329 
1.065e+3, 2.1471375e+2, -878045.44, -921409.8, 0.0020263614, 0.00000017035708, -0.0001268098, -878045.44, -42240.17, 0.0, 10.000001, 9.942949 
1.065e+3, 2.2465037e+2, -789759.3, -843144.8, 0.0029932782, 0.00000016904967, 0.00012089469, -789759.3, -51333.063, 0.0, 10.000001, 9.929908 
1.065e+3, 2.3458035e+2, -691325.8, -744966.44, -0.00014681494, 0.00000016478027, -0.00008880841, -691325.8, -50213.29, 0.0, 10.000001, 9.929576 
1.065e+3, 2.4450338e+2, -603001.75, -667018.75, 0.0034683016, 0.00000016366208, 0.000074717434, -603001.75, -59134.89, 0.0, 10.000001, 9.916136 
1.065e+3, 2.5441962e+2, -504249.1, -568343.3, 0.0025898574, 0.00000016631083, -0.000106724685, -504249.1, -57561.555, 0.0, 10.000001, 9.916036 
1.065e+3, 2.643288e+2, -416013.7, -490987.88, 0.0039785258, 0.00000016680177, 0.00014060506, -416013.7, -66436.02, 0.0, 10.000001, 9.901964 
1.065e+3, 2.742313e+2, -316728.47, -391374.75, 0.00027901473, 0.00000016453757, -0.00020344039, -316728.47, -64195.465, 0.0, 10.000001, 9.902385 
1.065e+3, 2.841256e+2, -230255.2, -318081.22, 0.0013287837, 0.00000016363458, 0.00022904547, -230255.2, -74686.24, 0.0, 10.000001, 9.885438 
1.065e+3, 2.940121e+2, -130549.07, -217764.98, -0.001122206, 0.00000016460739, -0.00025334326, -130549.07, -71867.68, 0.0, 10.000001, 9.886217 
1.065e+3, 3.0392656e+2, -40805.063, -84750.16, 0.00070938637, 0.00000016432557, 0.00017313623, -40805.063, -40805.063, 0.0, 10.000001, 9.942172 
1.065e+3, 3.138706e+2, -39727.047, -82511.2, -0.0005690388, 0.00000016216423, -0.000055141954, -39727.047, -39727.047, 0.0, 10.000001, 9.943684 
1.075e+3, 1.2499335e+2, -1719945.6, -1724224.6, 0.0003345102, 0.00000018513546, 0.000017658092, -1719945.6, -4880.442, 0.0, 10.000001, 9.994327 
1.075e+3, 1.349876e+2, -1622565.3, -1627434.9, -0.000863353, 0.00000018125921, -0.00006841106, -1622565.3, -5443.655, 0.0, 10.000001, 9.993545 
1.075e+3, 1.4497514e+2, -1534463.8, -1548146.3, 0.0036850753, 0.00000017929861, 0.00007098321, -1534463.8, -15220.161, 0.0, 10.000001, 9.981864 
1.075e+3, 1.5495703e+2, -1436736.1, -1450821.9, -0.0007176768, 0.00000017916126, -0.00005694456, -1436736.1, -15314.983, 0.0, 10.000001, 9.981333 
1.075e+3, 1.6493228e+2, -1348685.1, -1371952.4, 0.0026612729, 0.0000001785561, 0.000047364967, -1348685.1, -25021.477, 0.0, 10.000001, 9.969248 
1.075e+3, 1.7490156e+2, -1250727.1, -1274310.1, 0.00069862226, 0.00000017747325, -0.000073804666, -1250727.1, -24762.455, 0.0, 10.000001, 9.968834 
1.075e+3, 1.8486421e+2, -1162646.1, -1195720.1, 0.0029653509, 0.00000017566225, 0.00006617118, -1162646.1, -34315.508, 0.0, 10.000001, 9.956395 
1.075e+3, 1.9482064e+2, -1064496.4, -1097833.0, 0.0002539173, 0.00000017308915, -0.000057633522, -1064496.4, -33738.84, 0.0, 10.000001, 9.956052 
1.075e+3, 2.0477042e+2, -976332.44, -1019435.0, 0.003273788, 0.00000017320146, 0.000068098016, -976332.44, -43082.586, 0.0, 10.000001, 9.94329 
1.075e+3, 2.1471375e+2, -878045.44, -921409.9, 0.001105111, 0.00000017622207, -0.0001268102, -878045.44, -42240.176, 0.0, 10.000001, 9.942949 
1.075e+3, 2.2465037e+2, -789759.3, -843144.9, 0.004469619, 0.0000001751549, 0.00012089671, -789759.3, -51333.07, 0.0, 10.000001, 9.929908 
1.075e+3, 2.3458035e+2, -691325.8, -744966.44, 0.0014079537, 0.00000016945947, -0.0000887984, -691325.8, -50213.297, 0.0, 10.000001, 9.929576 
1.075e+3, 2.4450338e+2, -603001.75, -667018.75, 0.00245669, 0.0000001677835, 0.000074725256, -603001.75, -59134.895, 0.0, 10.000001, 9.916136 
1.075e+3, 2.5441962e+2, -504249.1, -568343.3, 0.00145491, 0.00000017091338, -0.000106731226, -504249.1, -57561.555, 0.0, 10.000001, 9.916036 
1.075e+3, 2.643288e+2, -416013.7, -490987.88, 0.00487717, 0.00000017195451, 0.00014059604, -416013.7, -66436.03, 0.0, 10.000001, 9.901964 
1.075e+3, 2.742313e+2, -316728.47, -391374.75, 0.001314018, 0.00000017032598, -0.00020343675, -316728.47, -64195.473, 0.0, 10.000001, 9.902385 
1.075e+3, 2.841256e+2, -230255.2, -318081.25, 0.0018213706, 0.00000016863146, 0.00022905545, -230255.2, -74686.24, 0.0, 10.000001, 9.885438 
1.075e+3, 2.940121e+2, -130549.07, -217765.0, -0.0006784703, 0.0000001668591, -0.00025333566, -130549.07, -71867.68, 0.0, 10.000001, 9.886217 
1.075e+3, 3.0392656e+2, -40805.066, -84750.164, 0.0014968753, 0.00000016707806, 0.00017313736, -40805.066, -40805.066, 0.0, 10.000001, 9.942172 
1.075e+3, 3.138706e+2, -39727.05, -82511.21, 0.00025885392, 0.0000001702544, -0.000055153276, -39727.05, -39727.05, 0.0, 10.000001, 9.943684 
1.085e+3, 1.2499335e+2, -1719945.6, -1724224.6, 0.0028100074, 0.00000019227022, 0.000017659737, -1719945.6, -4880.4014, 0.0, 10.000001, 9.994327 
1.085e+3, 1.349876e+2, -1622565.1, -1627434.9, -0.0008811304, 0.00000018623687, -0.00006840938, -1622565.1, -5443.613, 0.0, 10.000001, 9.993545 
1.085e+3, 1.4497514e+2, -1534463.8, -1548146.3, 0.0024088775, 0.00000018338747, 0.000070986134, -1534463.8, -15220.119, 0.0, 10.000001, 9.981864 
1.085e+3, 1.5495703e+2, -1436736.1, -1450821.9, -0.0001836545, 0.0000001836357, -0.0000569435, -1436736.1, -15314.938, 0.0, 10.000001, 9.981333 
1.085e+3, 1.6493228e+2, -1348685.1, -1371952.4, 0.0039982335, 0.00000018360203, 0.000047365284, -1348685.1, -25021.432, 0.0, 10.000001, 9.969248 
1.085e+3, 1.7490156e+2, -1250727.1, -1274310.1, 0.0012263849, 0.00000018328052, -0.00007380394, -1250727.1, -24762.416, 0.0, 10.000001, 9.968834 
1.085e+3, 1.8486421e+2, -1162646.1, -1195720.1, 0.003737541, 0.00000018170029, 0.00006617197, -1162646.1, -34315.47, 0.0, 10.000001, 9.956395 
1.085e+3, 1.9482064e+2, -1064496.4, -1097832.9, 0.0011157362, 0.0000001788028, -0.000057633053, -1064496.4, -33738.8, 0.0, 10.000001, 9.956052 
1.085e+3, 2.0477042e+2, -976332.44, -1019435.0, 0.0029158373, 0.0000001780721, 0.00006809863, -976332.44, -43082.543, 0.0, 10.000001, 9.94329 
1.085e+3, 2.1471375e+2, -878045.4, -921409.8, -0.0005940349, 0.00000017968809, -0.00012680897, -878045.4, -42240.13, 0.0, 10.000001, 9.942949 
1.085e+3, 2.2465037e+2, -789759.3, -843144.8, 0.0034327835, 0.00000017912913, 0.0001208981, -789759.3, -51333.027, 0.0, 10.000001, 9.929908 
1.085e+3, 2.3458035e+2, -691325.8, -744966.44, 0.0011331575, 0.00000017610726, -0.00008879741, -691325.8, -50213.26, 0.0, 10.000001, 9.929576 
1.085e+3, 2.4450338e+2, -603001.75, -667018.75, 0.0012799624, 0.00000017465568, 0.00007472614, -603001.75, -59134.86, 0.0, 10.000001, 9.916136 
1.085e+3, 2.5441962e+2, -504249.06, -568343.25, -0.0014920047, 0.00000017508223, -0.000106730135, -504249.06, -57561.51, 0.0, 10.000001, 9.916036 
1.085e+3, 2.643288e+2, -416013.66, -490987.88, 0.0018740626, 0.00000017534221, 0.00014059727, -416013.66, -66435.984, 0.0, 10.000001, 9.901964 
1.085e+3, 2.742313e+2, -316728.44, -391374.75, -0.0004894027, 0.00000017538554, -0.00020343545, -316728.44, -64195.434, 0.0, 10.000001, 9.902385 
1.085e+3, 2.841256e+2, -230255.17, -318081.22, 0.0012789163, 0.00000017436047, 0.00022905636, -230255.17, -74686.2, 0.0, 10.000001, 9.885438 
1.085e+3, 2.940121e+2, -130549.03, -217764.98, -0.00042628363, 0.00000017187409, -0.00025333575, -130549.03, -71867.64, 0.0, 10.000001, 9.886217 
1.085e+3, 3.0392656e+2, -40805.023, -84750.15, 0.0016529098, 0.00000017179278, 0.00017313701, -40805.023, -40805.023, 0.0, 10.000001, 9.942172 
1.085e+3, 3.138706e+2, -39727.016, -82511.2, -0.00049487187, 0.0000001752958, -0.00005515276, -39727.016, -39727.016, 0.0, 10.000001, 9.943684 
1.095e+3, 1.2499335e+2, -1719945.6, -1724224.6, 0.0030380848, 0.0000002000659, 0.000017653796, -1719945.6, -4880.4106, 0.0, 10.000001, 9.994327 
1.095e+3, 1.349876e+2, -1622565.1, -1627434.9, -0.0006532147, 0.00000019062307, -0.00006840409, -1622565.1, -5443.622, 0.0, 10.000001, 9.993545 
1.095e+3, 1.4497514e+2, -1534463.8, -1548146.3, 0.0019210662, 0.00000018696564, 0.000070993185, -1534463.8, -15220.126, 0.0, 10.000001, 9.981864 
1.095e+3, 1.5495703e+2, -1436736.1, -1450821.9, -0.00067266537, 0.00000018902203, -0.000056948353, -1436736.1, -15314.945, 0.0, 10.000001, 9.981333 
1.095e+3, 1.6493228e+2, -1348685.1, -1371952.4, 0.0026376925, 0.00000018964973, 0.000047358888, -1348685.1, -25021.438, 0.0, 10.000001, 9.969248 
1.095e+3, 1.7490156e+2, -1250727.1, -1274310.1, -0.0001388098, 0.0000001888187, -0.0000738013, -1250727.1, -24762.422, 0.0, 10.000001, 9.968834 
1.095e+3, 1.8486421e+2, -1162646.1, -1195720.1, 0.0042434433, 0.00000018758143, 0.000066176806, -1162646.1, -34315.477, 0.0, 10.000001, 9.956395 
1.095e+3, 1.9482064e+2, -1064496.4, -1097832.9, 0.0016432725, 0.0000001859189, -0.000057633188, -1064496.4, -33738.81, 0.0, 10.000001, 9.956052 
1.095e+3, 2.0477042e+2, -976332.44, -1019435.0, 0.0026740748, 0.00000018366, 0.000068097725, -976332.44, -43082.55, 0.0, 10.000001, 9.94329 
1.095e+3, 2.1471375e+2, -878045.44, -921409.9, -0.0008517106, 0.00000018075514, -0.00012680609, -878045.44, -42240.137, 0.0, 10.000001, 9.942949 
1.095e+3, 2.2465037e+2, -789759.3, -843144.9, 0.0028389932, 0.00000018097238, 0.00012089886, -789759.3, -51333.03, 0.0, 10.000001, 9.929908 
1.095e+3, 2.3458035e+2, -691325.8, -744966.44, 0.00052835984, 0.00000018472363, -0.000088805435, -691325.8, -50213.27, 0.0, 10.000001, 9.929576 
1.095e+3, 2.4450338e+2, -603001.75, -667018.75, 0.0022367584, 0.0000001842786, 0.00007472006, -603001.75, -59134.863, 0.0, 10.000001, 9.916136 
1.095e+3, 2.5441962e+2, -504249.06, -568343.3, -0.00046017053, 0.00000017881742, -0.00010672141, -504249.06, -57561.52, 0.0, 10.000001, 9.916036 
1.095e+3, 2.643288e+2, -416013.66, -490987.88, 0.0017091897, 0.00000017696483, 0.00014060877, -416013.66, -66435.99, 0.0, 10.000001, 9.901964 
1.095e+3, 2.742313e+2, -316728.44, -391374.75, -0.000734498, 0.00000017971628, -0.00020343652, -316728.44, -64195.44, 0.0, 10.000001, 9.902385 
1.095e+3, 2.841256e+2, -230255.17, -318081.22, 0.0020975305, 0.00000018082157, 0.00022904818, -230255.17, -74686.21, 0.0, 10.000001, 9.885438 
1.095e+3, 2.940121e+2, -130549.04, -217765.0, 0.0004881938, 0.00000017965236, -0.00025334355, -130549.04, -71867.65, 0.0, 10.000001, 9.886217 
1.095e+3, 3.0392656e+2, -40805.03, -84750.16, 0.0018259789, 0.00000017846975, 0.00017313521, -40805.03, -40805.03, 0.0, 10.000001, 9.942172 
1.095e+3, 3.138706e+2, -39727.02, -82511.21, -0.00040880268, 0.00000017728843, -0.000055140397, -39727.02, -39727.02, 0.0, 10.000001, 9.943684 
1.105e+3, 1.2499335e+2, -1719945.6, -1724224.6, 0.002253281, 0.00000020427201, 0.000017655919, -1719945.6, -4880.3633, 0.0, 10.000001, 9.994327 
1.105e+3, 1.349876e+2, -1622565.1, -1627434.9, -0.0008082034, 0.00000019696871, -0.00006840122, -1622565.1, -5443.5767, 0.0, 10.000001, 9.993545 
1.105e+3, 1.4497514e+2, -1534463.8, -1548146.3, 0.001539994, 0.00000019402411, 0.00007099672, -1534463.8, -15220.081, 0.0, 10.000001, 9.981864 
1.105e+3, 1.5495703e+2, -1436736.0, -1450821.9, -0.00033311127, 0.00000019535685, -0.000056948014, -1436736.0, -15314.904, 0.0, 10.000001, 9.981333 
1.105e+3, 1.6493228e+2, -1348685.1, -1371952.4, 0.003239642, 0.00000019513837, 0.00004735857, -1348685.1, -25021.396, 0.0, 10.000001, 9.969248 
1.105e+3, 1.7490156e+2, -1250727.0, -1274310.1, -0.0005521865, 0.00000019333599, -0.000073799674, -1250727.0, -24762.375, 0.0, 10.000001, 9.968834 
1.105e+3, 1.8486421e+2, -1162646.1, -1195720.0, 0.0033868283, 0.00000019242553, 0.00006617917, -1162646.1, -34315.43, 0.0, 10.000001, 9.956395 
1.105e+3, 1.9482064e+2, -1064496.4, -1097832.9, 0.0006638596, 0.00000019244825, -0.000057631343, -1064496.4, -33738.766, 0.0, 10.000001, 9.956052 
1.105e+3, 2.0477042e+2, -976332.4, -1019435.0, 0.0030451138, 0.00000019021498, 0.0000680988, -976332.4, -43082.51, 0.0, 10.000001, 9.94329 
1.105e+3, 2.1471375e+2, -878045.4, -921409.8, 0.0010828467, 0.00000018553821, -0.00012680606, -878045.4, -42240.094, 0.0, 10.000001, 9.942949 
1.105e+3, 2.2465037e+2, -789759.25, -843144.8, 0.004379148, 0.00000018526886, 0.00012089839, -789759.25, -51332.99, 0.0, 10.000001, 9.929908 
1.105e+3, 2.3458035e+2, -691325.75, -744966.44, 0.001488612, 0.00000018998905, -0.00008880581, -691325.75, -50213.223, 0.0, 10.000001, 9.929576 
1.105e+3, 2.4450338e+2, -603001.7, -667018.75, 0.004005027, 0.00000019003198, 0.000074720076, -603001.7, -59134.82, 0.0, 10.000001, 9.916136 
1.105e+3, 2.5441962e+2, -504249.03, -568343.25, 0.00076050445, 0.0000001844827, -0.00010672065, -504249.03, -57561.477, 0.0, 10.000001, 9.916036 
1.105e+3, 2.643288e+2, -416013.63, -490987.88, 0.0021921392, 0.00000018228036, 0.0001406094, -416013.63, -66435.945, 0.0, 10.000001, 9.901964 
1.105e+3, 2.742313e+2, -316728.4, -391374.75, 0.00019137695, 0.00000018435043, -0.00020343716, -316728.4, -64195.395, 0.0, 10.000001, 9.902385 
1.105e+3, 2.841256e+2, -230255.14, -318081.22, 0.0029503393, 0.00000018553716, 0.00022904725, -230255.14, -74686.164, 0.0, 10.000001, 9.885438 
1.105e+3, 2.940121e+2, -130549.0, -217764.98, -0.00015846016, 0.00000018549497, -0.0002533434, -130549.0, -71867.61, 0.0, 10.000001, 9.886217 
1.105e+3, 3.0392656e+2, -40804.992, -84750.15, 0.0002417313, 0.00000018428459, 0.00017313608, -40804.992, -40804.992, 0.0, 10.000001, 9.942172 
1.105e+3, 3.138706e+2, -39726.973, -82511.2, -0.003556742, 0.00000018135147, -0.00005513927, -39726.973, -39726.973, 0.0, 10.000001, 9.943684 
1.115e+3, 1.2499335e+2, -1719945.6, -1724224.6, 0.001998971, 0.00000020488861, 0.000017666105, -1719945.6, -4880.371, 0.0, 10.000001, 9.994327 
1.115e+3, 1.349876e+2, -1622565.1, -1627434.9, -0.0010629193, 0.00000020527382, -0.00006840077, -1622565.1, -5443.585, 0.0, 10.000001, 9.993545 
1.115e+3, 1.4497514e+2, -1534463.8, -1548146.3, 0.00019619601, 0.00000020456287, 0.000070996735, -1534463.8, -15220.086, 0.0, 10.000001, 9.981864 
1.115e+3, 1.5495703e+2, -1436736.0, -1450821.9, -0.001678713, 0.00000020264015, -0.00005694248, -1436736.0, -15314.909, 0.0, 10.000001, 9.981333 
1.115e+3, 1.6493228e+2, -1348685.1, -1371952.4, 0.003559641, 0.00000020006796, 0.000047364338, -1348685.1, -25021.406, 0.0, 10.000001, 9.969248 
1.115e+3, 1.7490156e+2, -1250727.0, -1274310.1, -0.00022344185, 0.00000019683237, -0.00007379906, -1250727.0, -24762.385, 0.0, 10.000001, 9.968834 
1.115e+3, 1.8486421e+2, -1162646.1, -1195720.1, 0.0021221226, 0.0000001962326, 0.00006617906, -1162646.1, -34315.434, 0.0, 10.000001, 9.956395 
1.115e+3, 1.9482064e+2, -1064496.4, -1097832.9, -0.00061933463, 0.00000019839084, -0.000057627523, -1064496.4, -33738.773, 0.0, 10.000001, 9.956052 
1.115e+3, 2.0477042e+2, -976332.4, -1019435.0, 0.003876998, 0.00000019773701, 0.00006810185, -976332.4, -43082.52, 0.0, 10.000001, 9.94329 
1.115e+3, 2.1471375e+2, -878045.4, -921409.9, 0.0019583935, 0.00000019403731, -0.00012680887, -878045.4, -42240.098, 0.0, 10.000001, 9.942949 
1.115e+3, 2.2465037e+2, -789759.25, -843144.9, 0.0036578302, 0.00000019201856, 0.00012089668, -789759.25, -51332.992, 0.0, 10.000001, 9.929908 
1.115e+3, 2.3458035e+2, -691325.75, -744966.44, 0.0007150342, 0.00000019190355, -0.00008879855, -691325.75, -50213.23, 0.0, 10.000001, 9.929576 
1.115e+3, 2.4450338e+2, -603001.7, -667018.75, 0.0044362866, 0.00000019191587, 0.00007472617, -603001.7, -59134.83, 0.0, 10.000001, 9.916136 
1.115e+3, 2.5441962e+2, -504249.03, -568343.3, 0.0012496663, 0.00000019207809, -0.00010672784, -504249.03, -57561.484, 0.0, 10.000001, 9.916036 
1.115e+3, 2.643288e+2, -416013.63, -490987.88, 0.0026640354, 0.00000019128878, 0.00014059915, -416013.63, -66435.95, 0.0, 10.000001, 9.901964 
1.115e+3, 2.742313e+2, -316728.4, -391374.75, 0.00066211284, 0.00000018928797, -0.00020343739, -316728.4, -64195.402, 0.0, 10.000001, 9.902385 
1.115e+3, 2.841256e+2, -230255.14, -318081.25, 0.0029304004, 0.00000018850727, 0.00022905356, -230255.14, -74686.17, 0.0, 10.000001, 9.885438 
1.115e+3, 2.940121e+2, -130549.01, -217765.0, -0.00022259368, 0.0000001894019, -0.00025333534, -130549.01, -71867.62, 0.0, 10.000001, 9.886217 
1.115e+3, 3.0392656e+2, -40805.0, -84750.164, 0.002149654, 0.0000001892373, 0.00017313968, -40805.0, -40805.0, 0.0, 10.000001, 9.942172 
1.115e+3, 3.138706e+2, -39726.98, -82511.22, -0.0014172543, 0.00000018748487, -0.000055149372, -39726.98, -39726.98, 0.0, 10.000001, 9.943684 
1.125e+3, 1.2499335e+2, -1719945.5, -1724224.6, 0.0037862845, 0.00000020791158, 0.000017667471, -1719945.5, -4880.313, 0.0, 10.000001, 9.994327 
1.125e+3, 1.349876e+2, -1622565.1, -1627434.9, 0.00046206033, 0.00000021317967, -0.000068402245, -1622565.1, -5443.544, 0.0, 10.000001, 9.993545 
1.125e+3, 1.4497514e+2, -1534463.6, -1548146.3, 0.002808836, 0.00000021331536, 0.00007099666, -1534463.6, -15220.048, 0.0, 10.000001, 9.981864 
1.125e+3, 1.5495703e+2, -1436736.0, -1450821.9, -0.0011640567, 0.00000020817741, -0.000056939905, -1436736.0, -15314.859, 0.0, 10.000001, 9.981333 
1.125e+3, 1.6493228e+2, -1348685.0, -1371952.3, 0.003275354, 0.00000020471646, 0.000047367048, -1348685.0, -25021.355, 0.0, 10.000001, 9.969248 
1.125e+3, 1.7490156e+2, -1250727.0, -1274310.1, 0.0008738262, 0.00000020296751, -0.00007379879, -1250727.0, -24762.34, 0.0, 10.000001, 9.968834 
1.125e+3, 1.8486421e+2, -1162646.0, -1195720.0, 0.003248934, 0.00000020245471, 0.000066178625, -1162646.0, -34315.39, 0.0, 10.000001, 9.956395 
1.125e+3, 1.9482064e+2, -1064496.3, -1097832.9, -0.00037417968, 0.00000020323525, -0.000057626876, -1064496.3, -33738.723, 0.0, 10.000001, 9.956052 
1.125e+3, 2.0477042e+2, -976332.3, -1019435.0, 0.0036829063, 0.0000002028035, 0.00006810331, -976332.3, -43082.47, 0.0, 10.000001, 9.94329 
1.125e+3, 2.1471375e+2, -878045.3, -921409.8, 0.00021368623, 0.00000020105864, -0.00012680686, -878045.3, -42240.06, 0.0, 10.000001, 9.942949 
1.125e+3, 2.2465037e+2, -789759.2, -843144.8, 0.00082127634, 0.00000019901037, 0.00012089877, -789759.2, -51332.953, 0.0, 10.000001, 9.929908 
1.125e+3, 2.3458035e+2, -691325.7, -744966.44, -0.0023585043, 0.00000019661907, -0.00008879687, -691325.7, -50213.184, 0.0, 10.000001, 9.929576 
1.125e+3, 2.4450338e+2, -603001.6, -667018.75, 0.002014848, 0.00000019613728, 0.00007472732, -603001.6, -59134.78, 0.0, 10.000001, 9.916136 
1.125e+3, 2.5441962e+2, -504249.0, -568343.25, 0.0004090593, 0.00000019793652, -0.00010672737, -504249.0, -57561.44, 0.0, 10.000001, 9.916036 
1.125e+3, 2.643288e+2, -416013.6, -490987.88, 0.0024332185, 0.0000001977761, 0.0001405995, -416013.6, -66435.914, 0.0, 10.000001, 9.901964 
1.125e+3, 2.742313e+2, -316728.34, -391374.75, -0.0013368017, 0.00000019511623, -0.00020343647, -316728.34, -64195.36, 0.0, 10.000001, 9.902385 
1.125e+3, 2.841256e+2, -230255.1, -318081.22, -0.000006930783, 0.00000019366503, 0.0002290549, -230255.1, -74686.13, 0.0, 10.000001, 9.885438 
1.125e+3, 2.940121e+2, -130548.96, -217764.98, -0.00250662, 0.00000019387954, -0.0002533338, -130548.96, -71867.56, 0.0, 10.000001, 9.886217 
1.125e+3, 3.0392656e+2, -40804.953, -84750.15, 0.0021847824, 0.00000019406784, 0.00017314017, -40804.953, -40804.953, 0.0, 10.000001, 9.942172 
1.125e+3, 3.138706e+2, -39726.945, -82511.2, 0.0023465392, 0.00000019420206, -0.000055151733, -39726.945, -39726.945, 0.0, 10.000001, 9.943684 
1.135e+3, 1.2499335e+2, -1719945.5, -1724224.6, -0.00050292374, 0.00000021334095, 0.000017660015, -1719945.5, -4880.322, 0.0, 10.000001, 9.994327 
1.135e+3, 1.349876e+2, -1622565.1, -1627434.9, -0.0038285, 0.00000022068629, -0.00006840566, -1622565.1, -5443.5522, 0.0, 10.000001, 9.993545 
1.135e+3, 1.4497514e+2, -1534463.6, -1548146.3, 0.0041233036, 0.00000022028159, 0.0000709965, -1534463.6, -15220.058, 0.0, 10.000001, 9.981864 
1.135e+3, 1.5495703e+2, -1436736.0, -1450821.9, 0.00015922308, 0.00000021196865, -0.000056940284, -1436736.0, -15314.869, 0.0, 10.000001, 9.981333 
1.135e+3, 1.6493228e+2, -1348685.0, -1371952.4, 0.0020921426, 0.00000020908385, 0.000047366706, -1348685.0, -25021.361, 0.0, 10.000001, 9.969248 
1.135e+3, 1.7490156e+2, -1250727.0, -1274310.1, -0.0003226646, 0.00000021174137, -0.00007379883, -1250727.0, -24762.346, 0.0, 10.000001, 9.968834 
1.135e+3, 1.8486421e+2, -1162646.0, -1195720.1, 0.0031373824, 0.00000021109183, 0.00006617787, -1162646.0, -34315.4, 0.0, 10.000001, 9.956395 
1.135e+3, 1.9482064e+2, -1064496.4, -1097832.9, -0.0004732016, 0.0000002069815, -0.000057629393, -1064496.4, -33738.734, 0.0, 10.000001, 9.956052 
1.135e+3, 2.0477042e+2, -976332.4, -1019435.0, 0.0030056895, 0.00000020541451, 0.0000681032, -976332.4, -43082.477, 0.0, 10.000001, 9.94329 
1.135e+3, 2.1471375e+2, -878045.3, -921409.9, -0.00047549236, 0.00000020660222, -0.00012680006, -878045.3, -42240.066, 0.0, 10.000001, 9.942949 
1.135e+3, 2.2465037e+2, -789759.25, -843144.9, 0.0014403417, 0.00000020624428, 0.000120904646, -789759.25, -51332.96, 0.0, 10.000001, 9.929908 
1.135e+3, 2.3458035e+2, -691325.7, -744966.44, -0.0016966534, 0.00000020413556, -0.00008880078, -691325.7, -50213.19, 0.0, 10.000001, 9.929576 
1.135e+3, 2.4450338e+2, -603001.6, -667018.75, 0.0016072566, 0.00000020269617, 0.000074723524, -603001.6, -59134.785, 0.0, 10.000001, 9.916136 
1.135e+3, 2.5441962e+2, -504249.0, -568343.3, -0.000049943377, 0.00000020205796, -0.000106719235, -504249.0, -57561.445, 0.0, 10.000001, 9.916036 
1.135e+3, 2.643288e+2, -416013.6, -490987.88, 0.0030287276, 0.00000020174237, 0.00014061043, -416013.6, -66435.92, 0.0, 10.000001, 9.901964 
1.135e+3, 2.742313e+2, -316728.38, -391374.75, -0.00067058654, 0.00000020183519, -0.0002034344, -316728.38, -64195.367, 0.0, 10.000001, 9.902385 
1.135e+3, 2.841256e+2, -230255.1, -318081.25, 0.00082511426, 0.00000020101042, 0.00022905125, -230255.1, -74686.13, 0.0, 10.000001, 9.885438 
1.135e+3, 2.940121e+2, -130548.96, -217765.0, -0.0016596242, 0.00000019892786, -0.0002533388, -130548.96, -71867.57, 0.0, 10.000001, 9.886217 
1.135e+3, 3.0392656e+2, -40804.953, -84750.16, 0.0018744547, 0.00000019877618, 0.00017313758, -40804.953, -40804.953, 0.0, 10.000001, 9.942172 
1.135e+3, 3.138706e+2, -39726.945, -82511.21, 0.001900376, 0.00000020150301, -0.000055146356, -39726.945, -39726.945, 0.0, 10.000001, 9.943684 
1.145e+3, 1.2499335e+2, -1719945.5, -1724224.6, 0.0021470746, 0.00000022452814, 0.00001766062, -1719945.5, -4880.2856, 0.0, 10.000001, 9.994327 
1.145e+3, 1.349876e+2, -1622565.0, -1627434.8, -0.0015833863, 0.00000022407333, -0.000068405454, -1622565.0, -5443.4907, 0.0, 10.000001, 9.993545 
1.145e+3, 1.4497514e+2, -1534463.6, -1548146.3, 0.006767489, 0.00000022208897, 0.000070997456, -1534463.6, -15219.993, 0.0, 10.000001, 9.981864 
1.145e+3, 1.5495703e+2, -1436736.0, -1450821.9, 0.0023851313, 0.00000021845504, -0.000056939592, -1436736.0, -15314.82, 0.0, 10.000001, 9.981333 
1.145e+3, 1.6493228e+2, -1348685.0, -1371952.3, 0.0033229901, 0.00000021726012, 0.000047367674, -1348685.0, -25021.316, 0.0, 10.000001, 9.969248 
1.145e+3, 1.7490156e+2, -1250727.0, -1274310.1, -0.00029192222, 0.00000021855556, -0.00007379705, -1250727.0, -24762.297, 0.0, 10.000001, 9.968834 
1.145e+3, 1.8486421e+2, -1162646.0, -1195720.0, 0.0034007255, 0.00000021688528, 0.0000661796, -1162646.0, -34315.348, 0.0, 10.000001, 9.956395 
1.145e+3, 1.9482064e+2, -1064496.3, -1097832.9, 0.00026505353, 0.00000021211137, -0.000057628607, -1064496.3, -33738.684, 0.0, 10.000001, 9.956052 
1.145e+3, 2.0477042e+2, -976332.3, -1019435.0, 0.0035127585, 0.0000002107279, 0.00006810353, -976332.3, -43082.426, 0.0, 10.000001, 9.94329 
1.145e+3, 2.1471375e+2, -878045.3, -921409.8, 0.00034865583, 0.00000021301653, -0.00012679966, -878045.3, -42240.016, 0.0, 10.000001, 9.942949 
1.145e+3, 2.2465037e+2, -789759.2, -843144.8, 0.0039526178, 0.0000002128965, 0.00012090483, -789759.2, -51332.91, 0.0, 10.000001, 9.929908 
1.145e+3, 2.3458035e+2, -691325.7, -744966.4, 0.0016870011, 0.0000002100485, -0.000088801185, -691325.7, -50213.145, 0.0, 10.000001, 9.929576 
1.145e+3, 2.4450338e+2, -603001.6, -667018.75, 0.0033889716, 0.00000020826461, 0.00007472339, -603001.6, -59134.74, 0.0, 10.000001, 9.916136 
1.145e+3, 2.5441962e+2, -504248.94, -568343.25, -0.0016387475, 0.00000020775447, -0.00010671805, -504248.94, -57561.4, 0.0, 10.000001, 9.916036 
1.145e+3, 2.643288e+2, -416013.53, -490987.88, 0.001196639, 0.00000020755624, 0.0001406119, -416013.53, -66435.87, 0.0, 10.000001, 9.901964 
1.145e+3, 2.742313e+2, -316728.3, -391374.75, -0.000026494516, 0.0000002077517, -0.00020343394, -316728.3, -64195.316, 0.0, 10.000001, 9.902385 
1.145e+3, 2.841256e+2, -230255.06, -318081.22, 0.0028724247, 0.00000020697941, 0.00022905074, -230255.06, -74686.09, 0.0, 10.000001, 9.885438 
1.145e+3, 2.940121e+2, -130548.92, -217764.98, -0.0000091264355, 0.00000020488082, -0.0002533402, -130548.92, -71867.53, 0.0, 10.000001, 9.886217 
1.145e+3, 3.0392656e+2, -40804.91, -84750.14, 0.000835693, 0.00000020456093, 0.0001731371, -40804.91, -40804.91, 0.0, 10.000001, 9.942172 
1.145e+3, 3.138706e+2, -39726.895, -82511.195, -0.0047303364, 0.00000020689443, -0.00005514324, -39726.895, -39726.895, 0.0, 10.000001, 9.943684 
1.155e+3, 1.2499335e+2, -1719945.5, -1724224.6, 0.0037829387, 0.0000002414731, 0.000017669285, -1719945.5, -4880.2954, 0.0, 10.000001, 9.994327 
1.155e+3, 1.349876e+2, -1622565.0, -1627434.9, 0.000052402214, 0.00000022334083, -0.000068401634, -1622565.0, -5443.5005, 0.0, 10.000001, 9.993545 
1.155e+3, 1.4497514e+2, -1534463.6, -1548146.3, 0.004405164, 0.00000021873755, 0.00007099952, -1534463.6, -15220.004, 0.0, 10.000001, 9.981864 
1.155e+3, 1.5495703e+2, -1436736.0, -1450821.9, 0.000016415128, 0.00000022763655, -0.000056937824, -1436736.0, -15314.831, 0.0, 10.000001, 9.981333 
1.155e+3, 1.6493228e+2, -1348685.0, -1371952.4, 0.0030690534, 0.00000022924523, 0.000047369947, -1348685.0, -25021.324, 0.0, 10.000001, 9.969248 
1.155e+3, 1.7490156e+2, -1250727.0, -1274310.1, -0.0005347459, 0.00000022341011, -0.00007379344, -1250727.0, -24762.305, 0.0, 10.000001, 9.968834 
1.155e+3, 1.8486421e+2, -1162646.0, -1195720.1, 0.0033066887, 0.00000021983507, 0.000066183835, -1162646.0, -34315.355, 0.0, 10.000001, 9.956395 
1.155e+3, 1.9482064e+2, -1064496.3, -1097832.9, 0.00017271162, 0.00000021862485, -0.000057624515, -1064496.3, -33738.69, 0.0, 10.000001, 9.956052 
1.155e+3, 2.0477042e+2, -976332.3, -1019435.0, 0.0027272264, 0.0000002187437, 0.00006810431, -976332.3, -43082.434, 0.0, 10.000001, 9.94329 
1.155e+3, 2.1471375e+2, -878045.3, -921409.9, -0.00045121685, 0.00000022030154, -0.00012680562, -878045.3, -42240.023, 0.0, 10.000001, 9.942949 
1.155e+3, 2.2465037e+2, -789759.2, -843144.8, 0.0040781084, 0.000000218967, 0.000120899305, -789759.2, -51332.914, 0.0, 10.000001, 9.929908 
1.155e+3, 2.3458035e+2, -691325.7, -744966.44, 0.0018427426, 0.00000021435788, -0.0000887981, -691325.7, -50213.15, 0.0, 10.000001, 9.929576 
1.155e+3, 2.4450338e+2, -603001.6, -667018.75, 0.0035307168, 0.0000002128426, 0.00007472693, -603001.6, -59134.75, 0.0, 10.000001, 9.916136 
1.155e+3, 2.5441962e+2, -504248.97, -568343.3, -0.0014976762, 0.00000021502599, -0.000106723804, -504248.97, -57561.406, 0.0, 10.000001, 9.916036 
1.155e+3, 2.643288e+2, -416013.53, -490987.88, 0.0014201396, 0.0000002152177, 0.00014060392, -416013.53, -66435.875, 0.0, 10.000001, 9.901964 
1.155e+3, 2.742313e+2, -316728.3, -391374.75, 0.00020251136, 0.00000021286573, -0.00020343509, -316728.3, -64195.32, 0.0, 10.000001, 9.902385 
1.155e+3, 2.841256e+2, -230255.06, -318081.22, 0.0032478273, 0.00000021157199, 0.00022905337, -230255.06, -74686.09, 0.0, 10.000001, 9.885438 
1.155e+3, 2.940121e+2, -130548.93, -217765.0, 0.0003794719, 0.0000002117384, -0.00025333802, -130548.93, -71867.53, 0.0, 10.000001, 9.886217 
1.155e+3, 3.0392656e+2, -40804.92, -84750.164, 0.0020102365, 0.00000021142208, 0.00017313872, -40804.92, -40804.92, 0.0, 10.000001, 9.942172 
1.155e+3, 3.138706e+2, -39726.906, -82511.22, -0.003463481, 0.00000021037631, -0.000055142384, -39726.906, -39726.906, 0.0, 10.000001, 9.943684 
1.165e+3, 1.2499335e+2, -1719945.5, -1724224.6, 0.001032712, 0.00000024860626, 0.000017673749, -1719945.5, -4880.2373, 0.0, 10.000001, 9.994327 
1.165e+3, 1.349876e+2, -1622565.0, -1627434.8, -0.0025653648, 0.00000023004647, -0.00006839701, -1622565.0, -5443.4497, 0.0, 10.000001, 9.993545 
1.165e+3, 1.4497514e+2, -1534463.6, -1548146.3, 0.00006229886, 0.00000022521476, 0.00007100366, -1534463.6, -15219.954, 0.0, 10.000001, 9.981864 
1.165e+3, 1.5495703e+2, -1436735.9, -1450821.9, -0.002635222, 0.00000023408613, -0.000056935925, -1436735.9, -15314.776, 0.0, 10.000001, 9.981333 
1.165e+3, 1.6493228e+2, -1348685.0, -1371952.3, 0.0024049266, 0.00000023552717, 0.000047371163, -1348685.0, -25021.27, 0.0, 10.000001, 9.969248 
1.165e+3, 1.7490156e+2, -1250726.9, -1274310.1, -0.0014003407, 0.00000022938137, -0.00007379132, -1250726.9, -24762.252, 0.0, 10.000001, 9.968834 
1.165e+3, 1.8486421e+2, -1162646.0, -1195720.0, 0.0026188663, 0.00000022623578, 0.00006618608, -1162646.0, -34315.305, 0.0, 10.000001, 9.956395 
1.165e+3, 1.9482064e+2, -1064496.3, -1097832.9, -0.00044093194, 0.00000022622945, -0.000057622925, -1064496.3, -33738.64, 0.0, 10.000001, 9.956052 
1.165e+3, 2.0477042e+2, -976332.25, -1019435.0, 0.0018355951, 0.00000022605316, 0.000068105466, -976332.25, -43082.387, 0.0, 10.000001, 9.94329 
1.165e+3, 2.1471375e+2, -878045.25, -921409.8, -0.001360749, 0.00000022569235, -0.00012680466, -878045.25, -42239.973, 0.0, 10.000001, 9.942949 
1.165e+3, 2.2465037e+2, -789759.1, -843144.8, 0.0028654695, 0.00000022409624, 0.00012090075, -789759.1, -51332.863, 0.0, 10.000001, 9.929908 
1.165e+3, 2.3458035e+2, -691325.6, -744966.4, -0.0017192308, 0.00000022110183, -0.00008879539, -691325.6, -50213.098, 0.0, 10.000001, 9.929576 
1.165e+3, 2.4450338e+2, -603001.56, -667018.75, 0.0003952967, 0.0000002200013, 0.0000747291, -603001.56, -59134.7, 0.0, 10.000001, 9.916136 
1.165e+3, 2.5441962e+2, -504248.9, -568343.25, -0.00010726234, 0.00000022116417, -0.00010672434, -504248.9, -57561.36, 0.0, 10.000001, 9.916036 
1.165e+3, 2.643288e+2, -416013.5, -490987.84, 0.004031955, 0.00000022090539, 0.00014060271, -416013.5, -66435.83, 0.0, 10.000001, 9.901964 
1.165e+3, 2.742313e+2, -316728.28, -391374.75, -0.00117947, 0.00000021883179, -0.0002034344, -316728.28, -64195.273, 0.0, 10.000001, 9.902385 
1.165e+3, 2.841256e+2, -230255.02, -318081.22, -0.00012828458, 0.00000021779294, 0.00022905521, -230255.02, -74686.05, 0.0, 10.000001, 9.885438 
1.165e+3, 2.940121e+2, -130548.875, -217764.98, -0.002654413, 0.00000021817873, -0.00025333607, -130548.875, -71867.484, 0.0, 10.000001, 9.886217 
1.165e+3, 3.0392656e+2, -40804.87, -84750.16, 0.0016212044, 0.00000021766712, 0.00017313934, -40804.87, -40804.87, 0.0, 10.000001, 9.942172 
1.165e+3, 3.138706e+2, -39726.86, -82511.21, 0.0016513405, 0.00000021581083, -0.000055145152, -39726.86, -39726.86, 0.0, 10.000001, 9.943684 
1.175e+3, 1.2499335e+2, -1719945.5, -1724224.6, 0.001077779, 0.0000002459277, 0.000017674016, -1719945.5, -4880.2466, 0.0, 10.000001, 9.994327 
1.175e+3, 1.349876e+2, -1622565.0, -1627434.9, -0.0025207875, 0.00000024419015, -0.00006839158, -1622565.0, -5443.459, 0.0, 10.000001, 9.993545 
1.175e+3, 1.4497514e+2, -1534463.6, -1548146.3, -0.0011532885, 0.0000002415205, 0.000071009876, -1534463.6, -15219.961, 0.0, 10.000001, 9.981864 
1.175e+3, 1.5495703e+2, -1436735.9, -1450821.9, -0.003852883, 0.00000023780382, -0.000056933895, -1436735.9, -15314.783, 0.0, 10.000001, 9.981333 
1.175e+3, 1.6493228e+2, -1348685.0, -1371952.4, 0.0015399182, 0.00000023610598, 0.00004737131, -1348685.0, -25021.28, 0.0, 10.000001, 9.969248 
1.175e+3, 1.7490156e+2, -1250726.9, -1274310.1, -0.0022635218, 0.00000023646936, -0.0000737907, -1250726.9, -24762.262, 0.0, 10.000001, 9.968834 
1.175e+3, 1.8486421e+2, -1162646.0, -1195720.1, 0.0021074817, 0.00000023608733, 0.00006618636, -1162646.0, -34315.313, 0.0, 10.000001, 9.956395 
1.175e+3, 1.9482064e+2, -1064496.3, -1097832.9, -0.00094827294, 0.00000023492514, -0.000057623838, -1064496.3, -33738.65, 0.0, 10.000001, 9.956052 
1.175e+3, 2.0477042e+2, -976332.25, -1019435.0, 0.0014037048, 0.0000002326563, 0.000068106994, -976332.25, -43082.395, 0.0, 10.000001, 9.94329 
1.175e+3, 2.1471375e+2, -878045.25, -921409.9, -0.0017911026, 0.00000022918894, -0.00012679676, -878045.25, -42239.98, 0.0, 10.000001, 9.942949 
1.175e+3, 2.2465037e+2, -789759.1, -843144.9, 0.003146085, 0.0000002282842, 0.000120909186, -789759.1, -51332.875, 0.0, 10.000001, 9.929908 
1.175e+3, 2.3458035e+2, -691325.6, -744966.44, -0.0014153635, 0.00000023028034, -0.00008879306, -691325.6, -50213.11, 0.0, 10.000001, 9.929576 
1.175e+3, 2.4450338e+2, -603001.56, -667018.75, 0.000042167703, 0.0000002297407, 0.00007472988, -603001.56, -59134.7, 0.0, 10.000001, 9.916136 
1.175e+3, 2.5441962e+2, -504248.9, -568343.25, -0.0004920024, 0.00000022616898, -0.00010671965, -504248.9, -57561.36, 0.0, 10.000001, 9.916036 
1.175e+3, 2.643288e+2, -416013.5, -490987.88, 0.004430174, 0.00000022461931, 0.00014060826, -416013.5, -66435.836, 0.0, 10.000001, 9.901964 
1.175e+3, 2.742313e+2, -316728.28, -391374.75, -0.0007287601, 0.00000022564983, -0.0002034319, -316728.28, -64195.285, 0.0, 10.000001, 9.902385 
1.175e+3, 2.841256e+2, -230255.02, -318081.22, 0.00061088643, 0.00000022564225, 0.00022905623, -230255.02, -74686.055, 0.0, 10.000001, 9.885438 
1.175e+3, 2.940121e+2, -130548.88, -217765.0, -0.0018892578, 0.00000022420183, -0.00025333438, -130548.88, -71867.49, 0.0, 10.000001, 9.886217 
1.175e+3, 3.0392656e+2, -40804.875, -84750.16, 0.0019967668, 0.00000022329607, 0.00017313901, -40804.875, -40804.875, 0.0, 10.000001, 9.942172 
1.175e+3, 3.138706e+2, -39726.863, -82511.21, 0.001981184, 0.00000022319796, -0.000055151544, -39726.863, -39726.863, 0.0, 10.000001, 9.943684 
1.185e+3, 1.2499335e+2, -1719945.4, -1724224.6, 0.0054203817, 0.0000002498055, 0.00001767523, -1719945.4, -4880.18, 0.0, 10.000001, 9.994327 
1.185e+3, 1.349876e+2, -1622564.9, -1627434.8, 0.0011653675, 0.00000025315495, -0.00006839024, -1622564.9, -5443.406, 0.0, 10.000001, 9.993545 
1.185e+3, 1.4497514e+2, -1534463.5, -1548146.3, 0.0024665564, 0.00000025165508, 0.00007101126, -1534463.5, -15219.91, 0.0, 10.000001, 9.981864 
1.185e+3, 1.5495703e+2, -1436735.9, -1450821.9, -0.0011765794, 0.000000245168, -0.000056932517, -1436735.9, -15314.729, 0.0, 10.000001, 9.981333 
1.185e+3, 1.6493228e+2, -1348684.9, -1371952.3, 0.0038188582, 0.00000024212434, 0.000047372338, -1348684.9, -25021.223, 0.0, 10.000001, 9.969248 
1.185e+3, 1.7490156e+2, -1250726.9, -1274310.1, 0.00024620435, 0.00000024259649, -0.00007379038, -1250726.9, -24762.205, 0.0, 10.000001, 9.968834 
1.185e+3, 1.8486421e+2, -1162645.9, -1195720.0, 0.0040523885, 0.00000024282465, 0.000066186694, -1162645.9, -34315.258, 0.0, 10.000001, 9.956395 
1.185e+3, 1.9482064e+2, -1064496.1, -1097832.9, -0.00006471374, 0.0000002427973, -0.00005762274, -1064496.1, -33738.594, 0.0, 10.000001, 9.956052 
1.185e+3, 2.0477042e+2, -976332.2, -1019435.0, 0.002582474, 0.00000024010785, 0.000068108566, -976332.2, -43082.34, 0.0, 10.000001, 9.94329 
1.185e+3, 2.1471375e+2, -878045.2, -921409.8, -0.001602076, 0.00000023453516, -0.00012679503, -878045.2, -42239.92, 0.0, 10.000001, 9.942949 
1.185e+3, 2.2465037e+2, -789759.06, -843144.8, 0.002643517, 0.00000023360948, 0.000120910154, -789759.06, -51332.816, 0.0, 10.000001, 9.929908 
1.185e+3, 2.3458035e+2, -691325.56, -744966.4, 0.00072356244, 0.00000023794468, -0.00008879387, -691325.56, -50213.06, 0.0, 10.000001, 9.929576 
1.185e+3, 2.4450338e+2, -603001.5, -667018.75, 0.0028057792, 0.00000023781001, 0.00007472948, -603001.5, -59134.652, 0.0, 10.000001, 9.916136 
1.185e+3, 2.5441962e+2, -504248.84, -568343.25, -0.003202683, 0.00000023233056, -0.00010671699, -504248.84, -57561.305, 0.0, 10.000001, 9.916036 
1.185e+3, 2.643288e+2, -416013.44, -490987.84, -0.00031313417, 0.00000023005508, 0.0001406114, -416013.44, -66435.78, 0.0, 10.000001, 9.901964 
1.185e+3, 2.742313e+2, -316728.22, -391374.75, -0.0013586663, 0.00000023186934, -0.00020343158, -316728.22, -64195.23, 0.0, 10.000001, 9.902385 
1.185e+3, 2.841256e+2, -230254.97, -318081.22, 0.0023323603, 0.00000023241695, 0.00022905532, -230254.97, -74686.0, 0.0, 10.000001, 9.885438 
1.185e+3, 2.940121e+2, -130548.836, -217764.98, -0.001287573, 0.00000023121184, -0.00025333426, -130548.836, -71867.445, 0.0, 10.000001, 9.886217 
1.185e+3, 3.0392656e+2, -40804.83, -84750.14, 0.00060030527, 0.0000002300926, 0.00017314022, -40804.83, -40804.83, 0.0, 10.000001, 9.942172 
1.185e+3, 3.138706e+2, -39726.81, -82511.195, -0.004213921, 0.00000022911765, -0.000055149154, -39726.81, -39726.81, 0.0, 10.000001, 9.943684 
1.195e+3, 1.2499335e+2, -1719945.4, -1724224.6, 0.0024980018, 0.00000026023963, 0.000017677394, -1719945.4, -4880.1914, 0.0, 10.000001, 9.994327 
1.195e+3, 1.349876e+2, -1622564.9, -1627434.9, -0.0017583027, 0.0000002569409, -0.000068392976, -1622564.9, -5443.4165, 0.0, 10.000001, 9.993545 
1.195e+3, 1.4497514e+2, -1534463.5, -1548146.3, 0.0022484725, 0.00000025561857, 0.0000710078, -1534463.5, -15219.92, 0.0, 10.000001, 9.981864 
1.195e+3, 1.5495703e+2, -1436735.9, -1450821.9, -0.0013904291, 0.0000002561786, -0.000056931793, -1436735.9, -15314.738, 0.0, 10.000001, 9.981333 
1.195e+3, 1.6493228e+2, -1348684.9, -1371952.4, 0.003170038, 0.00000025358224, 0.00004737424, -1348684.9, -25021.23, 0.0, 10.000001, 9.969248 
1.195e+3, 1.7490156e+2, -1250726.9, -1274310.1, -0.00040494688, 0.00000024776278, -0.00007379037, -1250726.9, -24762.213, 0.0, 10.000001, 9.968834 
1.195e+3, 1.8486421e+2, -1162645.9, -1195720.1, 0.0027022422, 0.00000024644774, 0.00006618707, -1162645.9, -34315.266, 0.0, 10.000001, 9.956395 
1.195e+3, 1.9482064e+2, -1064496.1, -1097832.9, -0.0014229702, 0.000000249846, -0.000057619633, -1064496.1, -33738.605, 0.0, 10.000001, 9.956052 
1.195e+3, 2.0477042e+2, -976332.25, -1019435.0, 0.0038110819, 0.0000002484078, 0.00006811018, -976332.25, -43082.35, 0.0, 10.000001, 9.94329 
1.195e+3, 2.1471375e+2, -878045.2, -921409.8, -0.00032004912, 0.00000024173102, -0.00012679947, -878045.2, -42239.93, 0.0, 10.000001, 9.942949 
1.195e+3, 2.2465037e+2, -789759.06, -843144.8, 0.00039449116, 0.0000002400721, 0.00012090368, -789759.06, -51332.82, 0.0, 10.000001, 9.929908 
1.195e+3, 2.3458035e+2, -691325.56, -744966.44, -0.0016410138, 0.00000024409485, -0.00008879785, -691325.56, -50213.066, 0.0, 10.000001, 9.929576 
1.195e+3, 2.4450338e+2, -603001.56, -667018.75, 0.004457336, 0.00000024420922, 0.0000747279, -603001.56, -59134.664, 0.0, 10.000001, 9.916136 
1.195e+3, 2.5441962e+2, -504248.88, -568343.3, -0.0013581397, 0.0000002396489, -0.00010671634, -504248.88, -57561.316, 0.0, 10.000001, 9.916036 
1.195e+3, 2.643288e+2, -416013.44, -490987.88, -0.0007119963, 0.00000023721263, 0.00014061213, -416013.44, -66435.78, 0.0, 10.000001, 9.901964 
1.195e+3, 2.742313e+2, -316728.22, -391374.75, -0.001907975, 0.0000002374903, -0.00020343349, -316728.22, -64195.234, 0.0, 10.000001, 9.902385 
1.195e+3, 2.841256e+2, -230254.98, -318081.22, 0.0023310578, 0.00000023811702, 0.00022905249, -230254.98, -74686.01, 0.0, 10.000001, 9.885438 
1.195e+3, 2.940121e+2, -130548.84, -217765.0, -0.0012395093, 0.00000023920873, -0.00025333572, -130548.84, -71867.45, 0.0, 10.000001, 9.886217 
1.195e+3, 3.0392656e+2, -40804.836, -84750.164, 0.0023643728, 0.00000023805671, 0.00017314298, -40804.836, -40804.836, 0.0, 10.000001, 9.942172 
1.195e+3, 3.138706e+2, -39726.816, -82511.21, -0.0022483703, 0.0000002335699, -0.00005513798, -39726.816, -39726.816, 0.0, 10.000001, 9.943684 
1.205e+3, 1.2499335e+2, -1719945.4, -1724224.6, 0.0024454063, 0.00000026748228, 0.000017678733, -1719945.4, -4880.133, 0.0, 10.000001, 9.994327 
1.205e+3, 1.349876e+2, -1622564.9, -1627434.8, -0.0017587756, 0.00000026462052, -0.00006839216, -1622564.9, -5443.3535, 0.0, 10.000001, 9.993545 
1.205e+3, 1.4497514e+2, -1534463.5, -1548146.3, 0.0035376127, 0.00000026327126, 0.00007100834, -1534463.5, -15219.856, 0.0, 10.000001, 9.981864 
1.205e+3, 1.5495703e+2, -1436735.8, -1450821.9, -0.00086453866, 0.00000026333944, -0.000056929897, -1436735.8, -15314.679, 0.0, 10.000001, 9.981333 
1.205e+3, 1.6493228e+2, -1348684.9, -1371952.3, 0.003157653, 0.0000002609186, 0.000047376678, -1348684.9, -25021.174, 0.0, 10.000001, 9.969248 
1.205e+3, 1.7490156e+2, -1250726.9, -1274310.1, -0.0010703985, 0.00000025595597, -0.000073788215, -1250726.9, -24762.156, 0.0, 10.000001, 9.968834 
1.205e+3, 1.8486421e+2, -1162645.9, -1195720.0, 0.0014948825, 0.00000025392293, 0.00006618898, -1162645.9, -34315.207, 0.0, 10.000001, 9.956395 
1.205e+3, 1.9482064e+2, -1064496.1, -1097832.9, -0.0024559412, 0.0000002549552, -0.00005761796, -1064496.1, -33738.543, 0.0, 10.000001, 9.956052 
1.205e+3, 2.0477042e+2, -976332.2, -1019434.94, 0.0041688583, 0.00000025415437, 0.00006811145, -976332.2, -43082.29, 0.0, 10.000001, 9.94329 
1.205e+3, 2.1471375e+2, -878045.1, -921409.8, 0.0015437887, 0.00000025136782, -0.00012679881, -878045.1, -42239.883, 0.0, 10.000001, 9.942949 
1.205e+3, 2.2465037e+2, -789759.06, -843144.8, 0.001519158, 0.00000024956145, 0.000120904435, -789759.06, -51332.773, 0.0, 10.000001, 9.929908 
1.205e+3, 2.3458035e+2, -691325.5, -744966.4, -0.0037972482, 0.00000024886518, -0.000088796165, -691325.5, -50213.0, 0.0, 10.000001, 9.929576 
1.205e+3, 2.4450338e+2, -603001.5, -667018.75, 0.0027365845, 0.0000002481937, 0.00007472934, -603001.5, -59134.598, 0.0, 10.000001, 9.916136 
1.205e+3, 2.5441962e+2, -504248.8, -568343.25, 0.0012875929, 0.00000024755033, -0.000106716536, -504248.8, -57561.266, 0.0, 10.000001, 9.916036 
1.205e+3, 2.643288e+2, -416013.4, -490987.84, 0.002969622, 0.0000002463275, 0.00014061153, -416013.4, -66435.734, 0.0, 10.000001, 9.901964 
1.205e+3, 2.742313e+2, -316728.2, -391374.75, -0.0020585658, 0.0000002443668, -0.00020343295, -316728.2, -64195.18, 0.0, 10.000001, 9.902385 
1.205e+3, 2.841256e+2, -230254.92, -318081.22, 0.00012601668, 0.0000002437545, 0.0002290536, -230254.92, -74685.95, 0.0, 10.000001, 9.885438 
1.205e+3, 2.940121e+2, -130548.78, -217764.98, -0.0032613538, 0.00000024499093, -0.00025333485, -130548.78, -71867.39, 0.0, 10.000001, 9.886217 
1.205e+3, 3.0392656e+2, -40804.78, -84750.15, 0.0020224084, 0.0000002444565, 0.00017314329, -40804.78, -40804.78, 0.0, 10.000001, 9.942172 
1.205e+3, 3.138706e+2, -39726.77, -82511.2, 0.00058604474, 0.0000002412767, -0.000055138767, -39726.77, -39726.77, 0.0, 10.000001, 9.943684 
1.215e+3, 1.2499335e+2, -1719945.4, -1724224.6, 0.0006190936, 0.00000027153345, 0.000017679244, -1719945.4, -4880.144, 0.0, 10.000001, 9.994327 
1.215e+3, 1.349876e+2, -1622564.9, -1627434.9, -0.00358621, 0.00000027619382, -0.00006838778, -1622564.9, -5443.3643, 0.0, 10.000001, 9.993545 
1.215e+3, 1.4497514e+2, -1534463.5, -1548146.3, 0.0022829936, 0.00000027461314, 0.00007101288, -1534463.5, -15219.867, 0.0, 10.000001, 9.981864 
1.215e+3, 1.5495703e+2, -1436735.8, -1450821.9, -0.0021182934, 0.0000002666506, -0.000056926827, -1436735.8, -15314.69, 0.0, 10.000001, 9.981333 
1.215e+3, 1.6493228e+2, -1348684.9, -1371952.4, 0.002679129, 0.0000002641334, 0.000047379657, -1348684.9, -25021.186, 0.0, 10.000001, 9.969248 
1.215e+3, 1.7490156e+2, -1250726.9, -1274310.1, -0.001544845, 0.00000026717606, -0.00007378392, -1250726.9, -24762.166, 0.0, 10.000001, 9.968834 
1.215e+3, 1.8486421e+2, -1162645.9, -1195720.0, 0.0011327907, 0.00000026525018, 0.00006619239, -1162645.9, -34315.215, 0.0, 10.000001, 9.956395 
1.215e+3, 1.9482064e+2, -1064496.1, -1097832.9, -0.0028167486, 0.00000025812494, -0.000057617715, -1064496.1, -33738.55, 0.0, 10.000001, 9.956052 
1.215e+3, 2.0477042e+2, -976332.2, -1019435.0, 0.0023837935, 0.0000002573476, 0.00006811236, -976332.2, -43082.297, 0.0, 10.000001, 9.94329 
1.215e+3, 2.1471375e+2, -878045.1, -921409.8, -0.00027071382, 0.0000002634456, -0.00012679306, -878045.1, -42239.887, 0.0, 10.000001, 9.942949 
1.215e+3, 2.2465037e+2, -789759.06, -843144.9, 0.0032329834, 0.00000026207752, 0.000120912446, -789759.06, -51332.785, 0.0, 10.000001, 9.929908 
1.215e+3, 2.3458035e+2, -691325.56, -744966.44, -0.0019680057, 0.0000002522557, -0.00008878882, -691325.56, -50213.01, 0.0, 10.000001, 9.929576 
1.215e+3, 2.4450338e+2, -603001.5, -667018.75, 0.0010460629, 0.00000024976345, 0.00007473381, -603001.5, -59134.6, 0.0, 10.000001, 9.916136 
1.215e+3, 2.5441962e+2, -504248.8, -568343.25, -0.0005721162, 0.0000002560349, -0.00010671757, -504248.8, -57561.27, 0.0, 10.000001, 9.916036 
1.215e+3, 2.643288e+2, -416013.4, -490987.88, 0.003899082, 0.00000025739956, 0.00014060958, -416013.4, -66435.74, 0.0, 10.000001, 9.901964 
1.215e+3, 2.742313e+2, -316728.2, -391374.75, -0.00094213284, 0.0000002524988, -0.00020342995, -316728.2, -64195.19, 0.0, 10.000001, 9.902385 
1.215e+3, 2.841256e+2, -230254.92, -318081.22, 0.0009254599, 0.00000024932936, 0.00022905867, -230254.92, -74685.96, 0.0, 10.000001, 9.885438 
1.215e+3, 2.940121e+2, -130548.79, -217765.0, -0.0024905019, 0.0000002485584, -0.00025333161, -130548.79, -71867.4, 0.0, 10.000001, 9.886217 
1.215e+3, 3.0392656e+2, -40804.785, -84750.16, 0.001630317, 0.00000024929196, 0.00017314113, -40804.785, -40804.785, 0.0, 10.000001, 9.942172 
1.215e+3, 3.138706e+2, -39726.773, -82511.21, 0.000057433874, 0.00000025223798, -0.000055151508, -39726.773, -39726.773, 0.0, 10.000001, 9.943684 
1.225e+3, 1.2499335e+2, -1719945.3, -1724224.6, 0.0038770381, 0.0000002812065, 0.000017680975, -1719945.3, -4880.0796, 0.0, 10.000001, 9.994327 
1.225e+3, 1.349876e+2, -1622564.9, -1627434.8, -0.0006176568, 0.00000028362126, -0.0000683864, -1622564.9, -5443.301, 0.0, 10.000001, 9.993545 
1.225e+3, 1.4497514e+2, -1534463.4, -1548146.3, 0.005798531, 0.00000028099984, 0.00007101332, -1534463.4, -15219.804, 0.0, 10.000001, 9.981864 
1.225e+3, 1.5495703e+2, -1436735.8, -1450821.9, 0.00028842327, 0.00000027321119, -0.00005692504, -1436735.8, -15314.621, 0.0, 10.000001, 9.981333 
1.225e+3, 1.6493228e+2, -1348684.8, -1371952.3, 0.0038673042, 0.00000027131256, 0.00004738186, -1348684.8, -25021.115, 0.0, 10.000001, 9.969248 
1.225e+3, 1.7490156e+2, -1250726.8, -1274310.1, -0.000322745, 0.00000027542788, -0.000073782256, -1250726.8, -24762.105, 0.0, 10.000001, 9.968834 
1.225e+3, 1.8486421e+2, -1162645.8, -1195720.0, 0.003500342, 0.00000027361463, 0.00006619362, -1162645.8, -34315.16, 0.0, 10.000001, 9.956395 
1.225e+3, 1.9482064e+2, -1064496.1, -1097832.9, -0.0005291769, 0.00000026559738, -0.00005761681, -1064496.1, -33738.492, 0.0, 10.000001, 9.956052 
1.225e+3, 2.0477042e+2, -976332.1, -1019434.94, 0.0021245484, 0.00000026429103, 0.00006811359, -976332.1, -43082.234, 0.0, 10.000001, 9.94329 
1.225e+3, 2.1471375e+2, -878045.06, -921409.8, -0.0036138573, 0.00000027025317, -0.00012679081, -878045.06, -42239.82, 0.0, 10.000001, 9.942949 
1.225e+3, 2.2465037e+2, -789759.0, -843144.8, 0.0013313448, 0.0000002692705, 0.000120914745, -789759.0, -51332.72, 0.0, 10.000001, 9.929907 
1.225e+3, 2.3458035e+2, -691325.5, -744966.4, -0.00075285893, 0.0000002604239, -0.0000887876, -691325.5, -50212.957, 0.0, 10.000001, 9.929576 
1.225e+3, 2.4450338e+2, -603001.44, -667018.75, 0.0012266383, 0.0000002578943, 0.00007473471, -603001.44, -59134.55, 0.0, 10.000001, 9.916136 
1.225e+3, 2.5441962e+2, -504248.75, -568343.25, -0.004123661, 0.00000026291835, -0.00010671607, -504248.75, -57561.207, 0.0, 10.000001, 9.916036 
1.225e+3, 2.643288e+2, -416013.34, -490987.84, 0.00043129222, 0.00000026386434, 0.00014061117, -416013.34, -66435.68, 0.0, 10.000001, 9.901964 
1.225e+3, 2.742313e+2, -316728.13, -391374.75, -0.001830627, 0.00000025960233, -0.00020342894, -316728.13, -64195.13, 0.0, 10.000001, 9.902385 
1.225e+3, 2.841256e+2, -230254.88, -318081.22, 0.0015138895, 0.00000025687334, 0.00022905922, -230254.88, -74685.91, 0.0, 10.000001, 9.885438 
1.225e+3, 2.940121e+2, -130548.74, -217764.98, -0.0017105256, 0.00000025626647, -0.00025333138, -130548.74, -71867.34, 0.0, 10.000001, 9.886217 
1.225e+3, 3.0392656e+2, -40804.73, -84750.14, 0.0016034747, 0.0000002567387, 0.00017314118, -40804.73, -40804.73, 0.0, 10.000001, 9.942172 
1.225e+3, 3.138706e+2, -39726.715, -82511.195, -0.002155692, 0.0000002587943, -0.000055151417, -39726.715, -39726.715, 0.0, 10.000001, 9.943684 
1.235e+3, 1.2499335e+2, -1719945.3, -1724224.6, 0.0018793959, 0.0000002965013, 0.000017683928, -1719945.3, -4880.092, 0.0, 10.000001, 9.994327 
1.235e+3, 1.349876e+2, -1622564.9, -1627434.9, -0.0026164716, 0.00000028690292, -0.000068388006, -1622564.9, -5443.3125, 0.0, 10.000001, 9.993545 
1.235e+3, 1.4497514e+2, -1534463.4, -1548146.3, 0.0056962194, 0.00000028243144, 0.00007100966, -1534463.4, -15219.817, 0.0, 10.000001, 9.981864 
1.235e+3, 1.5495703e+2, -1436735.8, -1450821.9, 0.0001891131, 0.0000002830212, -0.00005692453, -1436735.8, -15314.635, 0.0, 10.000001, 9.981333 
1.235e+3, 1.6493228e+2, -1348684.8, -1371952.3, 0.0016292694, 0.000000282456, 0.00004738329, -1348684.8, -25021.127, 0.0, 10.000001, 9.969248 
1.235e+3, 1.7490156e+2, -1250726.8, -1274310.1, -0.0025720813, 0.00000028071153, -0.000073783216, -1250726.8, -24762.115, 0.0, 10.000001, 9.968834 
1.235e+3, 1.8486421e+2, -1162645.9, -1195720.0, 0.003469875, 0.00000027901632, 0.00006619267, -1162645.9, -34315.168, 0.0, 10.000001, 9.956395 
1.235e+3, 1.9482064e+2, -1064496.1, -1097832.9, -0.00053395046, 0.0000002773725, -0.00005761524, -1064496.1, -33738.5, 0.0, 10.000001, 9.956052 
1.235e+3, 2.0477042e+2, -976332.1, -1019435.0, 0.0014756046, 0.00000027498461, 0.00006811514, -976332.1, -43082.246, 0.0, 10.000001, 9.94329 
1.235e+3, 2.1471375e+2, -878045.1, -921409.9, -0.0042760973, 0.0000002717906, -0.00012679202, -878045.1, -42239.836, 0.0, 10.000001, 9.942949 
1.235e+3, 2.2465037e+2, -789759.0, -843144.8, 0.00042241305, 0.0000002711404, 0.00012091135, -789759.0, -51332.727, 0.0, 10.000001, 9.929907 
1.235e+3, 2.3458035e+2, -691325.5, -744966.44, -0.0016698907, 0.00000027336972, -0.00008879251, -691325.5, -50212.96, 0.0, 10.000001, 9.929576 
1.235e+3, 2.4450338e+2, -603001.44, -667018.75, 0.0017651714, 0.0000002725862, 0.00007473203, -603001.44, -59134.563, 0.0, 10.000001, 9.916136 
1.235e+3, 2.5441962e+2, -504248.78, -568343.3, -0.003515219, 0.00000026820072, -0.00010671204, -504248.78, -57561.22, 0.0, 10.000001, 9.916036 
1.235e+3, 2.643288e+2, -416013.34, -490987.88, 0.00037097666, 0.00000026572178, 0.00014061629, -416013.34, -66435.69, 0.0, 10.000001, 9.901964 
1.235e+3, 2.742313e+2, -316728.13, -391374.75, -0.0019358291, 0.00000026567733, -0.00020342988, -316728.13, -64195.137, 0.0, 10.000001, 9.902385 
1.235e+3, 2.841256e+2, -230254.88, -318081.22, 0.0016007215, 0.0000002663864, 0.00022905525, -230254.88, -74685.914, 0.0, 10.000001, 9.885438 
1.235e+3, 2.940121e+2, -130548.74, -217765.0, -0.0016064337, 0.00000026811514, -0.00025333418, -130548.74, -71867.35, 0.0, 10.000001, 9.886217 
1.235e+3, 3.0392656e+2, -40804.74, -84750.16, 0.0027984027, 0.00000026679666, 0.00017314342, -40804.74, -40804.74, 0.0, 10.000001, 9.942172 
1.235e+3, 3.138706e+2, -39726.723, -82511.21, -0.0008327097, 0.0000002609457, -0.00005513849, -39726.723, -39726.723, 0.0, 10.000001, 9.943684 
1.245e+3, 1.2499335e+2, -1719945.3, -1724224.6, 0.000622641, 0.00000030729083, 0.000017687105, -1719945.3, -4880.0317, 0.0, 10.000001, 9.994327 
1.245e+3, 1.349876e+2, -1622564.8, -1627434.8, -0.0043232795, 0.00000029331355, -0.00006838228, -1622564.8, -5443.237, 0.0, 10.000001, 9.993545 
1.245e+3, 1.4497514e+2, -1534463.4, -1548146.3, 0.003046433, 0.00000028827435, 0.00007101355, -1534463.4, -15219.74, 0.0, 10.000001, 9.981864 
1.245e+3, 1.5495703e+2, -1436735.6, -1450821.9, -0.00081873743, 0.00000029213408, -0.000056922345, -1436735.6, -15314.572, 0.0, 10.000001, 9.981333 
1.245e+3, 1.6493228e+2, -1348684.8, -1371952.3, 0.0016551461, 0.0000002920355, 0.000047384863, -1348684.8, -25021.066, 0.0, 10.000001, 9.969248 
1.245e+3, 1.7490156e+2, -1250726.8, -1274310.1, -0.0030809266, 0.00000028789518, -0.00007378115, -1250726.8, -24762.047, 0.0, 10.000001, 9.968834 
1.245e+3, 1.8486421e+2, -1162645.8, -1195720.0, 0.0029478525, 0.00000028586663, 0.000066195025, -1162645.8, -34315.098, 0.0, 10.000001, 9.956395 
1.245e+3, 1.9482064e+2, -1064496.0, -1097832.9, -0.0016205148, 0.00000028604768, -0.00005761282, -1064496.0, -33738.438, 0.0, 10.000001, 9.956052 
1.245e+3, 2.0477042e+2, -976332.06, -1019434.94, 0.0017291503, 0.00000028389925, 0.00006811684, -976332.06, -43082.184, 0.0, 10.000001, 9.94329 
1.245e+3, 2.1471375e+2, -878045.06, -921409.8, -0.00059381884, 0.00000027922746, -0.00012679193, -878045.06, -42239.773, 0.0, 10.000001, 9.942949 
1.245e+3, 2.2465037e+2, -789758.94, -843144.8, 0.0043507284, 0.00000027817492, 0.00012091119, -789758.94, -51332.664, 0.0, 10.000001, 9.929907 
1.245e+3, 2.3458035e+2, -691325.44, -744966.4, -0.001627418, 0.00000028121985, -0.00008879142, -691325.44, -50212.9, 0.0, 10.000001, 9.929576 
1.245e+3, 2.4450338e+2, -603001.4, -667018.75, 0.0012975623, 0.00000028068337, 0.000074733434, -603001.4, -59134.496, 0.0, 10.000001, 9.916136 
1.245e+3, 2.5441962e+2, -504248.72, -568343.25, -0.0013661011, 0.0000002758645, -0.00010671144, -504248.72, -57561.16, 0.0, 10.000001, 9.916036 
1.245e+3, 2.643288e+2, -416013.3, -490987.84, 0.0029698075, 0.00000027326308, 0.00014061658, -416013.3, -66435.625, 0.0, 10.000001, 9.901964 
1.245e+3, 2.742313e+2, -316728.06, -391374.72, -0.0016525504, 0.00000027349358, -0.00020342926, -316728.06, -64195.08, 0.0, 10.000001, 9.902385 
1.245e+3, 2.841256e+2, -230254.81, -318081.22, 0.0007043148, 0.0000002741935, 0.00022905598, -230254.81, -74685.85, 0.0, 10.000001, 9.885438 
1.245e+3, 2.940121e+2, -130548.68, -217764.98, -0.0032049348, 0.00000027552238, -0.00025333374, -130548.68, -71867.29, 0.0, 10.000001, 9.886217 
1.245e+3, 3.0392656e+2, -40804.676, -84750.14, 0.0009998531, 0.00000027408194, 0.00017314391, -40804.676, -40804.676, 0.0, 10.000001, 9.942172 
1.245e+3, 3.138706e+2, -39726.668, -82511.195, -0.0022502176, 0.0000002685253, -0.000055137418, -39726.668, -39726.668, 0.0, 10.000001, 9.943684 
1.255e+3, 1.2499335e+2, -1719945.3, -1724224.6, 0.0022929634, 0.00000031357513, 0.000017690507, -1719945.3, -4880.0444, 0.0, 10.000001, 9.994327 
1.255e+3, 1.349876e+2, -1622564.8, -1627434.9, -0.0026534374, 0.0000003028531, -0.000068369205, -1622564.8, -5443.2495, 0.0, 10.000001, 9.993545 
1.255e+3, 1.4497514e+2, -1534463.4, -1548146.3, -0.00024661302, 0.00000029852848, 0.00007102498, -1534463.4, -15219.751, 0.0, 10.000001, 9.981864 
1.255e+3, 1.5495703e+2, -1436735.8, -1450821.9, -0.0041196444, 0.00000030054986, -0.000056918478, -1436735.8, -15314.582, 0.0, 10.000001, 9.981333 
1.255e+3, 1.6493228e+2, -1348684.8, -1371952.3, 0.0014231004, 0.00000030005106, 0.00004738658, -1348684.8, -25021.078, 0.0, 10.000001, 9.969248 
1.255e+3, 1.7490156e+2, -1250726.8, -1274310.1, -0.0032967718, 0.0000002969788, -0.00007377605, -1250726.8, -24762.059, 0.0, 10.000001, 9.968834 
1.255e+3, 1.8486421e+2, -1162645.8, -1195720.0, 0.0015918196, 0.00000029416555, 0.000066200686, -1162645.8, -34315.11, 0.0, 10.000001, 9.956395 
1.255e+3, 1.9482064e+2, -1064496.0, -1097832.9, -0.002989737, 0.00000029162297, -0.000057609544, -1064496.0, -33738.445, 0.0, 10.000001, 9.956052 
1.255e+3, 2.0477042e+2, -976332.06, -1019435.0, 0.0009895338, 0.00000029103495, 0.00006811867, -976332.06, -43082.19, 0.0, 10.000001, 9.94329 
1.255e+3, 2.1471375e+2, -878045.06, -921409.8, -0.0013204315, 0.00000029256364, -0.0001267905, -878045.06, -42239.777, 0.0, 10.000001, 9.942949 
1.255e+3, 2.2465037e+2, -789758.94, -843144.8, 0.004341277, 0.00000029037392, 0.000120914265, -789758.94, -51332.676, 0.0, 10.000001, 9.929907 
1.255e+3, 2.3458035e+2, -691325.44, -744966.44, -0.0016134196, 0.00000028397432, -0.000088784334, -691325.44, -50212.91, 0.0, 10.000001, 9.929576 
1.255e+3, 2.4450338e+2, -603001.4, -667018.75, 0.00072130596, 0.00000028218588, 0.00007473892, -603001.4, -59134.504, 0.0, 10.000001, 9.916136 
1.255e+3, 2.5441962e+2, -504248.72, -568343.25, -0.0019707768, 0.0000002859096, -0.00010671429, -504248.72, -57561.164, 0.0, 10.000001, 9.916036 
1.255e+3, 2.643288e+2, -416013.3, -490987.88, 0.0030357414, 0.00000028648816, 0.00014061204, -416013.3, -66435.64, 0.0, 10.000001, 9.901964 
1.255e+3, 2.742313e+2, -316728.1, -391374.75, -0.0015417222, 0.000000283051, -0.00020342703, -316728.1, -64195.086, 0.0, 10.000001, 9.902385 
1.255e+3, 2.841256e+2, -230254.83, -318081.22, 0.0015870342, 0.0000002802946, 0.00022906138, -230254.83, -74685.86, 0.0, 10.000001, 9.885438 
1.255e+3, 2.940121e+2, -130548.69, -217765.0, -0.0022527326, 0.00000027848824, -0.00025333007, -130548.69, -71867.3, 0.0, 10.000001, 9.886217 
1.255e+3, 3.0392656e+2, -40804.684, -84750.16, 0.0009883775, 0.00000027859457, 0.00017314269, -40804.684, -40804.684, 0.0, 10.000001, 9.942172 
1.255e+3, 3.138706e+2, -39726.676, -82511.21, -0.0023748518, 0.000000281533, -0.0000551482, -39726.676, -39726.676, 0.0, 10.000001, 9.943684 
1.265e+3, 1.2499335e+2, -1719945.1, -1724224.6, 0.005210302, 0.00000031939624, 0.000017693565, -1719945.1, -4879.956, 0.0, 10.000001, 9.994327 
1.265e+3, 1.349876e+2, -1622564.8, -1627434.8, -0.00012652196, 0.00000031295883, -0.00006836566, -1622564.8, -5443.186, 0.0, 10.000001, 9.993545 
1.265e+3, 1.4497514e+2, -1534463.3, -1548146.1, 0.0012195623, 0.00000030974033, 0.0000710262, -1534463.3, -15219.69, 0.0, 10.000001, 9.981864 
1.265e+3, 1.5495703e+2, -1436735.6, -1450821.9, -0.003282462, 0.00000030967337, -0.000056916044, -1436735.6, -15314.509, 0.0, 10.000001, 9.981333 
1.265e+3, 1.6493228e+2, -1348684.6, -1371952.3, 0.0027448665, 0.00000030804466, 0.000047389232, -1348684.6, -25021.002, 0.0, 10.000001, 9.969248 
1.265e+3, 1.7490156e+2, -1250726.6, -1274310.1, -0.0018961042, 0.00000030482104, -0.0000737742, -1250726.6, -24761.988, 0.0, 10.000001, 9.968834 
1.265e+3, 1.8486421e+2, -1162645.8, -1195720.0, 0.002968441, 0.00000030243123, 0.000066201996, -1162645.8, -34315.043, 0.0, 10.000001, 9.956395 
1.265e+3, 1.9482064e+2, -1064496.0, -1097832.9, -0.0012521899, 0.00000030091354, -0.000057608497, -1064496.0, -33738.38, 0.0, 10.000001, 9.956052 
1.265e+3, 2.0477042e+2, -976332.0, -1019434.94, 0.0016369728, 0.00000030012467, 0.00006812021, -976332.0, -43082.12, 0.0, 10.000001, 9.94329 
1.265e+3, 2.1471375e+2, -878045.0, -921409.8, -0.004904975, 0.00000030012492, -0.00012678767, -878045.0, -42239.707, 0.0, 10.000001, 9.942949 
1.265e+3, 2.2465037e+2, -789758.9, -843144.8, -0.000021565116, 0.00000029774554, 0.00012091712, -789758.9, -51332.605, 0.0, 10.000001, 9.929907 
1.265e+3, 2.3458035e+2, -691325.4, -744966.4, -0.0024983876, 0.0000002926721, -0.00008878296, -691325.4, -50212.848, 0.0, 10.000001, 9.929576 
1.265e+3, 2.4450338e+2, -603001.3, -667018.75, 0.0010627473, 0.0000002911362, 0.00007473975, -603001.3, -59134.44, 0.0, 10.000001, 9.916136 
1.265e+3, 2.5441962e+2, -504248.66, -568343.25, -0.004092944, 0.00000029382844, -0.00010671288, -504248.66, -57561.098, 0.0, 10.000001, 9.916036 
1.265e+3, 2.643288e+2, -416013.25, -490987.84, 0.00007557967, 0.00000029397557, 0.00014061357, -416013.25, -66435.57, 0.0, 10.000001, 9.901964 
1.265e+3, 2.742313e+2, -316728.03, -391374.75, -0.0033726015, 0.00000029087363, -0.00020342592, -316728.03, -64195.02, 0.0, 10.000001, 9.902385 
1.265e+3, 2.841256e+2, -230254.77, -318081.22, 0.0011497028, 0.0000002884832, 0.00022906234, -230254.77, -74685.8, 0.0, 10.000001, 9.885438 
1.265e+3, 2.940121e+2, -130548.63, -217764.98, -0.002183177, 0.00000028708126, -0.00025332888, -130548.63, -71867.234, 0.0, 10.000001, 9.886217 
1.265e+3, 3.0392656e+2, -40804.625, -84750.14, 0.0014711926, 0.00000028697914, 0.00017314343, -40804.625, -40804.625, 0.0, 10.000001, 9.942172 
1.265e+3, 3.138706e+2, -39726.61, -82511.195, -0.001577061, 0.00000028879884, -0.00005514888, -39726.61, -39726.61, 0.0, 10.000001, 9.943684 
1.275e+3, 1.2499335e+2, -1719945.1, -1724224.6, 0.0011717612, 0.00000032475415, 0.000017696279, -1719945.1, -4879.9697, 0.0, 10.000001, 9.994327 
1.275e+3, 1.349876e+2, -1622564.8, -1627434.9, -0.004166915, 0.00000032363073, -0.000068371635, -1622564.8, -5443.1997, 0.0, 10.000001, 9.993545 
1.275e+3, 1.4497514e+2, -1534463.3, -1548146.3, 0.0010217242, 0.00000032190985, 0.0000710172, -1534463.3, -15219.702, 0.0, 10.000001, 9.981864 
1.275e+3, 1.5495703e+2, -1436735.6, -1450821.9, -0.0034742001, 0.0000003195046, -0.000056915043, -1436735.6, -15314.5205, 0.0, 10.000001, 9.981333 
1.275e+3, 1.6493228e+2, -1348684.6, -1371952.3, 0.0010034868, 0.00000031601635, 0.00004739282, -1348684.6, -25021.014, 0.0, 10.000001, 9.969248 
1.275e+3, 1.7490156e+2, -1250726.6, -1274310.1, -0.0036456487, 0.0000003114219, -0.00007377559, -1250726.6, -24762.0, 0.0, 10.000001, 9.968834 
1.275e+3, 1.8486421e+2, -1162645.8, -1195720.0, 0.0018671881, 0.00000031066364, 0.00006619897, -1162645.8, -34315.05, 0.0, 10.000001, 9.956395 
1.275e+3, 1.9482064e+2, -1064496.0, -1097832.9, -0.0023459087, 0.0000003139194, -0.000057609675, -1064496.0, -33738.39, 0.0, 10.000001, 9.956052 
1.275e+3, 2.0477042e+2, -976332.0, -1019435.0, 0.0014171238, 0.00000031116832, 0.00006812145, -976332.0, -43082.137, 0.0, 10.000001, 9.94329 
1.275e+3, 2.1471375e+2, -878045.0, -921409.8, -0.005106757, 0.00000030191134, -0.00012678337, -878045.0, -42239.723, 0.0, 10.000001, 9.942949 
1.275e+3, 2.2465037e+2, -789758.9, -843144.8, -0.0012248268, 0.00000030028977, 0.00012091974, -789758.9, -51332.613, 0.0, 10.000001, 9.929907 
1.275e+3, 2.3458035e+2, -691325.4, -744966.44, -0.0037344175, 0.0000003073131, -0.00008878731, -691325.4, -50212.85, 0.0, 10.000001, 9.929576 
1.275e+3, 2.4450338e+2, -603001.3, -667018.75, 0.001330761, 0.0000003075342, 0.00007473592, -603001.3, -59134.453, 0.0, 10.000001, 9.916136 
1.275e+3, 2.5441962e+2, -504248.66, -568343.25, -0.003752712, 0.00000029962095, -0.00010670723, -504248.66, -57561.11, 0.0, 10.000001, 9.916036 
1.275e+3, 2.643288e+2, -416013.25, -490987.88, -0.00011068709, 0.0000002957253, 0.0001406212, -416013.25, -66435.58, 0.0, 10.000001, 9.901964 
1.275e+3, 2.742313e+2, -316728.03, -391374.75, -0.0035942467, 0.00000029696145, -0.00020342594, -316728.03, -64195.027, 0.0, 10.000001, 9.902385 
1.275e+3, 2.841256e+2, -230254.77, -318081.22, 0.001257573, 0.0000002987592, 0.00022905883, -230254.77, -74685.805, 0.0, 10.000001, 9.885438 
1.275e+3, 2.940121e+2, -130548.64, -217765.0, -0.0020457332, 0.00000030130136, -0.00025333016, -130548.64, -71867.24, 0.0, 10.000001, 9.886217 
1.275e+3, 3.0392656e+2, -40804.633, -84750.16, 0.0025977704, 0.0000002992356, 0.00017314617, -40804.633, -40804.633, 0.0, 10.000001, 9.942172 
1.275e+3, 3.138706e+2, -39726.617, -82511.21, -0.00033444885, 0.00000029032284, -0.00005513947, -39726.617, -39726.617, 0.0, 10.000001, 9.943684 
1.285e+3, 1.2499335e+2, -1719945.1, -1724224.6, 0.0037366475, 0.00000033395636, 0.000017697317, -1719945.1, -4879.899, 0.0, 10.000001, 9.994327 
1.285e+3, 1.349876e+2, -1622564.6, -1627434.8, -0.0011550674, 0.00000033274836, -0.000068369365, -1622564.6, -5443.117, 0.0, 10.000001, 9.993545 
1.285e+3, 1.4497514e+2, -1534463.3, -1548146.1, 0.0048283604, 0.00000033109706, 0.00007101694, -1534463.3, -15219.62, 0.0, 10.000001, 9.981864 
1.285e+3, 1.5495703e+2, -1436735.5, -1450821.9, -0.00093385275, 0.00000032892086, -0.000056913286, -1436735.5, -15314.449, 0.0, 10.000001, 9.981333 
1.285e+3, 1.6493228e+2, -1348684.6, -1371952.3, 0.0032812923, 0.00000032540012, 0.000047395217, -1348684.6, -25020.945, 0.0, 10.000001, 9.969248 
1.285e+3, 1.7490156e+2, -1250726.6, -1274310.1, -0.0016751674, 0.0000003205062, -0.00007377396, -1250726.6, -24761.926, 0.0, 10.000001, 9.968834 
1.285e+3, 1.8486421e+2, -1162645.6, -1195720.0, 0.00251917, 0.00000031941843, 0.00006620054, -1162645.6, -34314.977, 0.0, 10.000001, 9.956395 
1.285e+3, 1.9482064e+2, -1064495.9, -1097832.9, -0.003089053, 0.00000032231324, -0.00005760741, -1064495.9, -33738.316, 0.0, 10.000001, 9.956052 
1.285e+3, 2.0477042e+2, -976331.94, -1019434.94, 0.0028729355, 0.00000031966414, 0.00006812339, -976331.94, -43082.066, 0.0, 10.000001, 9.94329 
1.285e+3, 2.1471375e+2, -878044.94, -921409.8, 0.00013551627, 0.00000031101038, -0.00012678288, -878044.94, -42239.652, 0.0, 10.000001, 9.942949 
1.285e+3, 2.2465037e+2, -789758.8, -843144.8, 0.0035803427, 0.00000030940484, 0.000120919845, -789758.8, -51332.543, 0.0, 10.000001, 9.929907 
1.285e+3, 2.3458035e+2, -691325.3, -744966.4, -0.002703615, 0.0000003157794, -0.0000887864, -691325.3, -50212.78, 0.0, 10.000001, 9.929576 
1.285e+3, 2.4450338e+2, -603001.25, -667018.75, 0.0019473052, 0.00000031573558, 0.000074737276, -603001.25, -59134.38, 0.0, 10.000001, 9.916136 
1.285e+3, 2.5441962e+2, -504248.6, -568343.25, -0.0020303675, 0.00000030801647, -0.000106705855, -504248.6, -57561.04, 0.0, 10.000001, 9.916036 
1.285e+3, 2.643288e+2, -416013.2, -490987.84, 0.0013882531, 0.00000030426986, 0.00014062237, -416013.2, -66435.51, 0.0, 10.000001, 9.901964 
1.285e+3, 2.742313e+2, -316727.97, -391374.72, -0.0030029227, 0.0000003055965, -0.00020342522, -316727.97, -64194.96, 0.0, 10.000001, 9.902385 
1.285e+3, 2.841256e+2, -230254.7, -318081.22, 0.0012782943, 0.00000030732244, 0.00022905933, -230254.7, -74685.734, 0.0, 10.000001, 9.885438 
1.285e+3, 2.940121e+2, -130548.57, -217764.98, -0.0034995128, 0.000000309571, -0.00025332955, -130548.57, -71867.17, 0.0, 10.000001, 9.886216 
1.285e+3, 3.0392656e+2, -40804.566, -84750.14, 0.0001681379, 0.0000003074828, 0.00017314721, -40804.566, -40804.566, 0.0, 10.000001, 9.942172 
1.285e+3, 3.138706e+2, -39726.55, -82511.195, -0.0040768147, 0.00000029895193, -0.000055137538, -39726.55, -39726.55, 0.0, 10.000001, 9.943684 
1.295e+3, 1.2499335e+2, -1719945.1, -1724224.6, 0.0023908375, 0.00000034700278, 0.000017696679, -1719945.1, -4879.9116, 0.0, 10.000001, 9.994327 
1.295e+3, 1.349876e+2, -1622564.6, -1627434.8, -0.0025022512, 0.00000034031174, -0.00006835886, -1622564.6, -5443.13, 0.0, 10.000001, 9.993545 
1.295e+3, 1.4497514e+2, -1534463.3, -1548146.3, 0.002015878, 0.00000033730197, 0.0000710254, -1534463.3, -15219.635, 0.0, 10.000001, 9.981864 
1.295e+3, 1.5495703e+2, -1436735.6, -1450821.9, -0.0037486835, 0.00000033792213, -0.000056910776, -1436735.6, -15314.464, 0.0, 10.000001, 9.981333 
1.295e+3, 1.6493228e+2, -1348684.6, -1371952.3, 0.0030636345, 0.00000033619594, 0.000047396425, -1348684.6, -25020.957, 0.0, 10.000001, 9.969248 
1.295e+3, 1.7490156e+2, -1250726.6, -1274310.1, -0.0018790832, 0.00000033207388, -0.000073769304, -1250726.6, -24761.938, 0.0, 10.000001, 9.968834 
1.295e+3, 1.8486421e+2, -1162645.6, -1195720.0, 0.000691371, 0.00000032869556, 0.000066206725, -1162645.6, -34314.99, 0.0, 10.000001, 9.956395 
1.295e+3, 1.9482064e+2, -1064495.9, -1097832.9, -0.004935605, 0.00000032609515, -0.0000576017, -1064495.9, -33738.33, 0.0, 10.000001, 9.956052 
1.295e+3, 2.0477042e+2, -976331.94, -1019435.0, 0.0023823965, 0.00000032561215, 0.000068126, -976331.94, -43082.074, 0.0, 10.000001, 9.94329 
1.295e+3, 2.1471375e+2, -878044.94, -921409.8, -0.00032696762, 0.00000032742196, -0.0001267862, -878044.94, -42239.66, 0.0, 10.000001, 9.942949 
1.295e+3, 2.2465037e+2, -789758.8, -843144.8, 0.0027279123, 0.00000032509064, 0.000120917415, -789758.8, -51332.56, 0.0, 10.000001, 9.929907 
1.295e+3, 2.3458035e+2, -691325.3, -744966.44, -0.0035688113, 0.0000003180711, -0.00008878024, -691325.3, -50212.793, 0.0, 10.000001, 9.929576 
1.295e+3, 2.4450338e+2, -603001.25, -667018.75, 0.0018801476, 0.00000031574035, 0.00007474382, -603001.25, -59134.39, 0.0, 10.000001, 9.916136 
1.295e+3, 2.5441962e+2, -504248.6, -568343.25, -0.0020592138, 0.0000003190149, -0.00010670875, -504248.6, -57561.05, 0.0, 10.000001, 9.916036 
1.295e+3, 2.643288e+2, -416013.2, -490987.88, 0.0010176684, 0.00000031960914, 0.00014061714, -416013.2, -66435.52, 0.0, 10.000001, 9.901964 
1.295e+3, 2.742313e+2, -316727.97, -391374.75, -0.0033965094, 0.0000003167787, -0.00020342377, -316727.97, -64194.97, 0.0, 10.000001, 9.902385 
1.295e+3, 2.841256e+2, -230254.72, -318081.25, 0.0017198018, 0.00000031417292, 0.00022906382, -230254.72, -74685.74, 0.0, 10.000001, 9.885438 
1.295e+3, 2.940121e+2, -130548.58, -217765.0, -0.002982919, 0.0000003118902, -0.00025332705, -130548.58, -71867.18, 0.0, 10.000001, 9.886216 
1.295e+3, 3.0392656e+2, -40804.574, -84750.16, 0.0006132894, 0.0000003117207, 0.00017314656, -40804.574, -40804.574, 0.0, 10.000001, 9.942172 
1.295e+3, 3.138706e+2, -39726.563, -82511.21, -0.0036401555, 0.00000031468596, -0.000055143093, -39726.563, -39726.563, 0.0, 10.000001, 9.943684 
1.305e+3, 1.2499335e+2, -1719945.0, -1724224.6, 0.00527881, 0.00000035737094, 0.000017698769, -1719945.0, -4879.826, 0.0, 10.000001, 9.994327 
1.305e+3, 1.349876e+2, -1622564.5, -1627434.8, -0.0011103651, 0.00000035037942, -0.000068355024, -1622564.5, -5443.053, 0.0, 10.000001, 9.993545 
1.305e+3, 1.4497514e+2, -1534463.1, -1548146.1, 0.0033330026, 0.00000034666581, 0.00007102581, -1534463.1, -15219.558, 0.0, 10.000001, 9.981864 
1.305e+3, 1.5495703e+2, -1436735.5, -1450821.9, -0.0022963712, 0.00000034618122, -0.00005690854, -1436735.5, -15314.378, 0.0, 10.000001, 9.981333 
1.305e+3, 1.6493228e+2, -1348684.5, -1371952.3, 0.0044461857, 0.00000034475846, 0.000047399408, -1348684.5, -25020.871, 0.0, 10.000001, 9.969248 
1.305e+3, 1.7490156e+2, -1250726.5, -1274310.1, -0.0013230916, 0.00000034237783, -0.00007376668, -1250726.5, -24761.863, 0.0, 10.000001, 9.968834 
1.305e+3, 1.8486421e+2, -1162645.5, -1195720.0, 0.0017811729, 0.00000033902043, 0.00006620876, -1162645.5, -34314.918, 0.0, 10.000001, 9.956395 
1.305e+3, 1.9482064e+2, -1064495.9, -1097832.9, -0.0027079966, 0.0000003346405, -0.000057600497, -1064495.9, -33738.25, 0.0, 10.000001, 9.956052 
1.305e+3, 2.0477042e+2, -976331.9, -1019434.94, 0.0030071605, 0.00000033391544, 0.00006812735, -976331.9, -43081.992, 0.0, 10.000001, 9.94329 
1.305e+3, 2.1471375e+2, -878044.9, -921409.8, -0.0040642377, 0.00000033714835, -0.00012678363, -878044.9, -42239.586, 0.0, 10.000001, 9.942949 
1.305e+3, 2.2465037e+2, -789758.75, -843144.8, -0.0012399217, 0.0000003349685, 0.00012092029, -789758.75, -51332.484, 0.0, 10.000001, 9.929907 
1.305e+3, 2.3458035e+2, -691325.25, -744966.4, -0.004748364, 0.00000032666026, -0.00008877806, -691325.25, -50212.72, 0.0, 10.000001, 9.929576 
1.305e+3, 2.4450338e+2, -603001.2, -667018.75, 0.0015500514, 0.0000003240425, 0.000074745316, -603001.2, -59134.313, 0.0, 10.000001, 9.916136 
1.305e+3, 2.5441962e+2, -504248.53, -568343.25, -0.0032840488, 0.00000032822808, -0.00010670793, -504248.53, -57560.977, 0.0, 10.000001, 9.916036 
1.305e+3, 2.643288e+2, -416013.13, -490987.84, -0.00027843664, 0.00000032907352, 0.00014061788, -416013.13, -66435.45, 0.0, 10.000001, 9.901964 
1.305e+3, 2.742313e+2, -316727.9, -391374.72, -0.004901581, 0.00000032565188, -0.00020342236, -316727.9, -64194.9, 0.0, 10.000001, 9.902384 
1.305e+3, 2.841256e+2, -230254.64, -318081.22, 0.00090081093, 0.0000003227451, 0.00022906541, -230254.64, -74685.67, 0.0, 10.000001, 9.885438 
1.305e+3, 2.940121e+2, -130548.51, -217764.98, -0.002506466, 0.00000032056255, -0.00025332597, -130548.51, -71867.11, 0.0, 10.000001, 9.886216 
1.305e+3, 3.0392656e+2, -40804.504, -84750.14, 0.002358452, 0.00000032058466, 0.0001731469, -40804.504, -40804.504, 0.0, 10.000001, 9.942172 
1.305e+3, 3.138706e+2, -39726.492, -82511.195, -0.0007709178, 0.0000003238734, -0.00005514376, -39726.492, -39726.492, 0.0, 10.000001, 9.943684 
1.315e+3, 1.2499335e+2, -1719945.0, -1724224.6, 0.0019655745, 0.00000036506083, 0.000017703589, -1719945.0, -4879.843, 0.0, 10.000001, 9.994327 
1.315e+3, 1.349876e+2, -1622564.6, -1627434.9, -0.004425415, 0.0000003629513, -0.00006835786, -1622564.6, -5443.0693, 0.0, 10.000001, 9.993545 
1.315e+3, 1.4497514e+2, -1534463.1, -1548146.3, 0.0026861841, 0.00000035918853, 0.00007101817, -1534463.1, -15219.572, 0.0, 10.000001, 9.981864 
1.315e+3, 1.5495703e+2, -1436735.5, -1450821.9, -0.0029390128, 0.00000035369814, -0.000056906578, -1436735.5, -15314.392, 0.0, 10.000001, 9.981333 
1.315e+3, 1.6493228e+2, -1348684.5, -1371952.3, 0.0017352287, 0.00000035108772, 0.000047404166, -1348684.5, -25020.885, 0.0, 10.000001, 9.969248 
1.315e+3, 1.7490156e+2, -1250726.5, -1274310.1, -0.004044916, 0.000000351418, -0.00007376608, -1250726.5, -24761.877, 0.0, 10.000001, 9.968834 
1.315e+3, 1.8486421e+2, -1162645.6, -1195720.0, 0.001482752, 0.00000035039295, 0.00006620665, -1162645.6, -34314.926, 0.0, 10.000001, 9.956395 
1.315e+3, 1.9482064e+2, -1064495.9, -1097832.9, -0.0029782746, 0.00000034794928, -0.000057603804, -1064495.9, -33738.26, 0.0, 10.000001, 9.956052 
1.315e+3, 2.0477042e+2, -976331.9, -1019435.0, 0.0011628508, 0.00000034457398, 0.000068127425, -976331.9, -43082.008, 0.0, 10.000001, 9.94329 
1.315e+3, 2.1471375e+2, -878044.9, -921409.8, -0.0059409677, 0.00000034018962, -0.00012677522, -878044.9, -42239.6, 0.0, 10.000001, 9.942949 
1.315e+3, 2.2465037e+2, -789758.75, -843144.8, -0.0011228693, 0.00000033903848, 0.00012092845, -789758.75, -51332.492, 0.0, 10.000001, 9.929907 
1.315e+3, 2.3458035e+2, -691325.25, -744966.4, -0.004566041, 0.00000034154684, -0.00008877986, -691325.25, -50212.727, 0.0, 10.000001, 9.929576 
1.315e+3, 2.4450338e+2, -603001.2, -667018.75, 0.00042314947, 0.00000034064186, 0.00007474177, -603001.2, -59134.324, 0.0, 10.000001, 9.916136 
1.315e+3, 2.5441962e+2, -504248.53, -568343.25, -0.004473932, 0.00000033565595, -0.00010670338, -504248.53, -57560.99, 0.0, 10.000001, 9.916036 
1.315e+3, 2.643288e+2, -416013.13, -490987.88, -0.000054951695, 0.00000033266312, 0.0001406246, -416013.13, -66435.46, 0.0, 10.000001, 9.901964 
1.315e+3, 2.742313e+2, -316727.9, -391374.75, -0.004583436, 0.000000332216, -0.00020342096, -316727.9, -64194.906, 0.0, 10.000001, 9.902384 
1.315e+3, 2.841256e+2, -230254.66, -318081.22, 0.0009771165, 0.00000033303894, 0.0002290641, -230254.66, -74685.68, 0.0, 10.000001, 9.885438 
1.315e+3, 2.940121e+2, -130548.516, -217765.0, -0.0024521898, 0.00000033558788, -0.00025332638, -130548.516, -71867.12, 0.0, 10.000001, 9.886216 
1.315e+3, 3.0392656e+2, -40804.51, -84750.16, 0.002620164, 0.0000003340746, 0.00017314822, -40804.51, -40804.51, 0.0, 10.000001, 9.942172 
1.315e+3, 3.138706e+2, -39726.5, -82511.21, -0.00048507814, 0.00000032651423, -0.000055139542, -39726.5, -39726.5, 0.0, 10.000001, 9.943684 
1.325e+3, 1.2499335e+2, -1719945.0, -1724224.6, 0.003160644, 0.0000003765373, 0.00001770625, -1719945.0, -4879.764, 0.0, 10.000001, 9.994327 
1.325e+3, 1.3498761e+2, -1622564.5, -1627434.8, -0.001991592, 0.00000037246338, -0.000068351976, -1622564.5, -5442.9775, 0.0, 10.000001, 9.993545 
1.325e+3, 1.4497514e+2, -1534463.1, -1548146.1, 0.005103962, 0.00000036825668, 0.00007101989, -1534463.1, -15219.4795, 0.0, 10.000001, 9.981864 
1.325e+3, 1.5495703e+2, -1436735.4, -1450821.9, -0.001341019, 0.0000003638579, -0.000056903784, -1436735.4, -15314.312, 0.0, 10.000001, 9.981333 
1.325e+3, 1.6493228e+2, -1348684.5, -1371952.3, 0.003317725, 0.00000036141768, 0.000047407015, -1348684.5, -25020.807, 0.0, 10.000001, 9.969248 
1.325e+3, 1.7490156e+2, -1250726.5, -1274310.1, -0.002012714, 0.00000036097734, -0.000073764226, -1250726.5, -24761.79, 0.0, 10.000001, 9.968834 
1.325e+3, 1.8486421e+2, -1162645.5, -1195720.0, 0.0033732394, 0.00000035992522, 0.00006620847, -1162645.5, -34314.84, 0.0, 10.000001, 9.956395 
1.325e+3, 1.9482064e+2, -1064495.8, -1097832.9, -0.0029805407, 0.0000003582325, -0.00005760101, -1064495.8, -33738.184, 0.0, 10.000001, 9.956052 
1.325e+3, 2.0477042e+2, -976331.8, -1019434.94, 0.0021477074, 0.00000035466573, 0.00006813, -976331.8, -43081.934, 0.0, 10.000001, 9.94329 
1.325e+3, 2.1471375e+2, -878044.75, -921409.8, -0.0013949322, 0.0000003490691, -0.00012677415, -878044.75, -42239.52, 0.0, 10.000001, 9.942949 
1.325e+3, 2.2465037e+2, -789758.7, -843144.8, 0.0040374477, 0.00000034791572, 0.00012092897, -789758.7, -51332.41, 0.0, 10.000001, 9.929907 
1.325e+3, 2.3458035e+2, -691325.2, -744966.4, -0.00238497, 0.0000003517919, -0.00008877885, -691325.2, -50212.652, 0.0, 10.000001, 9.929576 
1.325e+3, 2.4450338e+2, -603001.1, -667018.75, 0.001451372, 0.00000035108076, 0.00007474314, -603001.1, -59134.25, 0.0, 10.000001, 9.916136 
1.325e+3, 2.5441962e+2, -504248.47, -568343.25, -0.00332707, 0.00000034488505, -0.00010670182, -504248.47, -57560.91, 0.0, 10.000001, 9.916036 
1.325e+3, 2.643288e+2, -416013.06, -490987.84, 0.0014258268, 0.00000034148147, 0.00014062597, -416013.06, -66435.375, 0.0, 10.000001, 9.901964 
1.325e+3, 2.742313e+2, -316727.84, -391374.72, -0.0031662434, 0.00000034164407, -0.00020342032, -316727.84, -64194.83, 0.0, 10.000001, 9.902384 
1.325e+3, 2.841256e+2, -230254.58, -318081.22, 0.001627209, 0.00000034271432, 0.00022906436, -230254.58, -74685.6, 0.0, 10.000001, 9.885438 
1.325e+3, 2.940121e+2, -130548.445, -217764.98, -0.0036551626, 0.00000034500974, -0.00025332603, -130548.445, -71867.05, 0.0, 10.000001, 9.886216 
1.325e+3, 3.0392656e+2, -40804.44, -84750.13, 0.00019864878, 0.000000343362, 0.000173149, -40804.44, -40804.44, 0.0, 10.000001, 9.942172 
1.325e+3, 3.138706e+2, -39726.426, -82511.19, -0.0046520308, 0.00000033584809, -0.000055137873, -39726.426, -39726.426, 0.0, 10.000001, 9.943684 
1.335e+3, 1.2499335e+2, -1719945.0, -1724224.6, 0.0029803163, 0.00000039180017, 0.000017706752, -1719945.0, -4879.778, 0.0, 10.000001, 9.994327 
1.335e+3, 1.3498761e+2, -1622564.5, -1627434.8, -0.0021732668, 0.0000003789157, -0.00006833737, -1622564.5, -5442.991, 0.0, 10.000001, 9.993545 
1.335e+3, 1.4497514e+2, -1534463.1, -1548146.3, 0.0017730865, 0.00000037387022, 0.00007103095, -1534463.1, -15219.496, 0.0, 10.000001, 9.981864 
1.335e+3, 1.5495703e+2, -1436735.4, -1450821.9, -0.0046769395, 0.00000037666044, -0.000056900157, -1436735.4, -15314.327, 0.0, 10.000001, 9.981333 
1.335e+3, 1.6493228e+2, -1348684.5, -1371952.3, 0.0023883332, 0.00000037574833, 0.000047407957, -1348684.5, -25020.82, 0.0, 10.000001, 9.969248 
1.335e+3, 1.7490156e+2, -1250726.5, -1274310.1, -0.0029292784, 0.0000003710558, -0.00007376111, -1250726.5, -24761.803, 0.0, 10.000001, 9.968834 
1.335e+3, 1.8486421e+2, -1162645.5, -1195720.0, 0.0011269327, 0.00000036761725, 0.00006621423, -1162645.5, -34314.855, 0.0, 10.000001, 9.956395 
1.335e+3, 1.9482064e+2, -1064495.8, -1097832.9, -0.0052421014, 0.00000036549025, -0.000057592122, -1064495.8, -33738.2, 0.0, 10.000001, 9.956052 
1.335e+3, 2.0477042e+2, -976331.8, -1019434.94, 0.0019946743, 0.0000003641907, 0.00006813508, -976331.8, -43081.94, 0.0, 10.000001, 9.94329 
1.335e+3, 2.1471375e+2, -878044.8, -921409.8, -0.0015042962, 0.0000003637867, -0.0001267804, -878044.8, -42239.527, 0.0, 10.000001, 9.942949 
1.335e+3, 2.2465037e+2, -789758.7, -843144.8, 0.0021458387, 0.00000036160023, 0.00012092183, -789758.7, -51332.42, 0.0, 10.000001, 9.929907 
1.335e+3, 2.3458035e+2, -691325.2, -744966.44, -0.004334808, 0.0000003573955, -0.00008877503, -691325.2, -50212.664, 0.0, 10.000001, 9.929576 
1.335e+3, 2.4450338e+2, -603001.1, -667018.75, 0.0016582551, 0.00000035535928, 0.00007474943, -603001.1, -59134.26, 0.0, 10.000001, 9.916136 
1.335e+3, 2.5441962e+2, -504248.47, -568343.25, -0.0030165606, 0.00000035591526, -0.00010670323, -504248.47, -57560.918, 0.0, 10.000001, 9.916036 
1.335e+3, 2.643288e+2, -416013.06, -490987.88, 0.0009418284, 0.00000035552847, 0.00014062195, -416013.06, -66435.39, 0.0, 10.000001, 9.901964 
1.335e+3, 2.742313e+2, -316727.84, -391374.75, -0.0037036703, 0.00000035393603, -0.00020342044, -316727.84, -64194.84, 0.0, 10.000001, 9.902384 
1.335e+3, 2.841256e+2, -230254.6, -318081.22, 0.0014539461, 0.00000035177123, 0.0002290662, -230254.6, -74685.62, 0.0, 10.000001, 9.885438 
1.335e+3, 2.940121e+2, -130548.45, -217765.0, -0.0037958587, 0.00000034882822, -0.0002533249, -130548.45, -71867.055, 0.0, 10.000001, 9.886216 
1.335e+3, 3.0392656e+2, -40804.45, -84750.16, 0.0010550874, 0.00000034844686, 0.00017314922, -40804.45, -40804.45, 0.0, 10.000001, 9.942172 
1.335e+3, 3.138706e+2, -39726.438, -82511.21, -0.0036788618, 0.0000003518748, -0.00005513875, -39726.438, -39726.438, 0.0, 10.000001, 9.943684 
1.345e+3, 1.2499335e+2, -1719944.9, -1724224.5, 0.0056309626, 0.00000040131354, 0.00001770971, -1719944.9, -4879.6777, 0.0, 10.000001, 9.994327 
1.345e+3, 1.3498761e+2, -1622564.4, -1627434.8, -0.0020900054, 0.0000003901603, -0.000068331094, -1622564.4, -5442.905, 0.0, 10.000001, 9.993545 
1.345e+3, 1.4497514e+2, -1534463.0, -1548146.1, 0.00054853363, 0.000000385553, 0.000071032184, -1534463.0, -15219.411, 0.0, 10.000001, 9.981864 
1.345e+3, 1.5495703e+2, -1436735.4, -1450821.9, -0.0044110506, 0.00000038748743, -0.000056897345, -1436735.4, -15314.236, 0.0, 10.000001, 9.981333 
1.345e+3, 1.6493228e+2, -1348684.4, -1371952.3, 0.0037662964, 0.00000038614388, 0.000047411348, -1348684.4, -25020.729, 0.0, 10.000001, 9.969248 
1.345e+3, 1.7490156e+2, -1250726.4, -1274310.1, -0.0027116556, 0.00000038145302, -0.000073758165, -1250726.4, -24761.717, 0.0, 10.000001, 9.968834 
1.345e+3, 1.8486421e+2, -1162645.4, -1195720.0, 0.0012503809, 0.00000037787484, 0.00006621668, -1162645.4, -34314.77, 0.0, 10.000001, 9.956395 
1.345e+3, 1.9482064e+2, -1064495.6, -1097832.9, -0.003931815, 0.00000037546042, -0.000057590223, -1064495.6, -33738.11, 0.0, 10.000001, 9.956052 
1.345e+3, 2.0477042e+2, -976331.7, -1019434.94, 0.0027205006, 0.00000037432628, 0.000068137015, -976331.7, -43081.85, 0.0, 10.000001, 9.94329 
1.345e+3, 2.1471375e+2, -878044.7, -921409.8, -0.0043797554, 0.000000374578, -0.0001267778, -878044.7, -42239.445, 0.0, 10.000001, 9.942949 
1.345e+3, 2.2465037e+2, -789758.6, -843144.8, -0.0014335079, 0.0000003722746, 0.00012092451, -789758.6, -51332.344, 0.0, 10.000001, 9.929907 
1.345e+3, 2.3458035e+2, -691325.1, -744966.4, -0.005730414, 0.00000036707826, -0.00008877294, -691325.1, -50212.58, 0.0, 10.000001, 9.929576 
1.345e+3, 2.4450338e+2, -603001.06, -667018.75, 0.0014493696, 0.00000036482936, 0.00007475102, -603001.06, -59134.176, 0.0, 10.000001, 9.916136 
1.345e+3, 2.5441962e+2, -504248.38, -568343.25, -0.0037850072, 0.00000036610396, -0.00010670201, -504248.38, -57560.84, 0.0, 10.000001, 9.916036 
1.345e+3, 2.643288e+2, -416012.97, -490987.84, 0.000106471016, 0.0000003660616, 0.00014062309, -416012.97, -66435.31, 0.0, 10.000001, 9.901964 
1.345e+3, 2.742313e+2, -316727.75, -391374.72, -0.004916684, 0.00000036433528, -0.000203419, -316727.75, -64194.76, 0.0, 10.000001, 9.902384 
1.345e+3, 2.841256e+2, -230254.5, -318081.22, 0.0008204356, 0.00000036174924, 0.0002290676, -230254.5, -74685.54, 0.0, 10.000001, 9.885438 
1.345e+3, 2.940121e+2, -130548.375, -217764.98, -0.0030138206, 0.00000035799425, -0.000253324, -130548.375, -71866.98, 0.0, 10.000001, 9.886216 
1.345e+3, 3.0392656e+2, -40804.37, -84750.14, 0.0033049874, 0.000000357658, 0.00017314953, -40804.37, -40804.37, 0.0, 10.000001, 9.942172 
1.345e+3, 3.138706e+2, -39726.36, -82511.19, -0.00039234667, 0.00000036240675, -0.000055139215, -39726.36, -39726.36, 0.0, 10.000001, 9.943684 
1.355e+3, 1.2499335e+2, -1719944.9, -1724224.6, 0.0023156155, 0.00000040507743, 0.000017715125, -1719944.9, -4879.6978, 0.0, 10.000001, 9.994327 
1.355e+3, 1.3498761e+2, -1622564.4, -1627434.8, -0.0054076244, 0.00000040619707, -0.00006833312, -1622564.4, -5442.9243, 0.0, 10.000001, 9.993545 
1.355e+3, 1.4497514e+2, -1534463.0, -1548146.3, -0.0011504582, 0.00000040330488, 0.000071023605, -1534463.0, -15219.425, 0.0, 10.000001, 9.981864 
1.355e+3, 1.5495703e+2, -1436735.4, -1450821.9, -0.0061075254, 0.00000039633886, -0.000056895344, -1436735.4, -15314.249, 0.0, 10.000001, 9.981333 
1.355e+3, 1.6493228e+2, -1348684.4, -1371952.3, 0.0015166558, 0.00000039260436, 0.000047417187, -1348684.4, -25020.744, 0.0, 10.000001, 9.969248 
1.355e+3, 1.7490156e+2, -1250726.4, -1274310.1, -0.0049639894, 0.00000039216903, -0.00007375538, -1250726.4, -24761.732, 0.0, 10.000001, 9.968834 
1.355e+3, 1.8486421e+2, -1162645.4, -1195720.0, 0.00016502236, 0.000000390698, 0.000066215835, -1162645.4, -34314.785, 0.0, 10.000001, 9.956395 
1.355e+3, 1.9482064e+2, -1064495.8, -1097832.9, -0.005003405, 0.00000038814292, -0.00005759531, -1064495.8, -33738.12, 0.0, 10.000001, 9.956052 
1.355e+3, 2.0477042e+2, -976331.75, -1019434.94, 0.0005862593, 0.00000038507247, 0.0000681358, -976331.75, -43081.87, 0.0, 10.000001, 9.94329 
1.355e+3, 2.1471375e+2, -878044.75, -921409.8, -0.0065356772, 0.00000038144296, -0.00012676635, -878044.75, -42239.465, 0.0, 10.000001, 9.942949 
1.355e+3, 2.2465037e+2, -789758.6, -843144.8, -0.0014015133, 0.00000037993885, 0.000120937, -789758.6, -51332.355, 0.0, 10.000001, 9.929907 
1.355e+3, 2.3458035e+2, -691325.1, -744966.4, -0.0056267506, 0.0000003808401, -0.000088772584, -691325.1, -50212.586, 0.0, 10.000001, 9.929576 
1.355e+3, 2.4450338e+2, -603001.06, -667018.75, -0.00008595848, 0.0000003794909, 0.00007474792, -603001.06, -59134.188, 0.0, 10.000001, 9.916136 
1.355e+3, 2.5441962e+2, -504248.4, -568343.25, -0.0053990865, 0.0000003754511, -0.000106698186, -504248.4, -57560.85, 0.0, 10.000001, 9.916036 
1.355e+3, 2.643288e+2, -416013.0, -490987.88, 0.00015715943, 0.0000003730809, 0.00014062937, -416013.0, -66435.32, 0.0, 10.000001, 9.901964 
1.355e+3, 2.742313e+2, -316727.78, -391374.75, -0.0047545223, 0.00000037284178, -0.00020341598, -316727.78, -64194.773, 0.0, 10.000001, 9.902384 
1.355e+3, 2.841256e+2, -230254.52, -318081.22, 0.0010775538, 0.0000003726483, 0.00022906861, -230254.52, -74685.55, 0.0, 10.000001, 9.885438 
1.355e+3, 2.940121e+2, -130548.38, -217765.0, -0.0027484994, 0.0000003725077, -0.00025332326, -130548.38, -71866.984, 0.0, 10.000001, 9.886216 
1.355e+3, 3.0392656e+2, -40804.38, -84750.16, 0.003055144, 0.0000003709953, 0.0001731499, -40804.38, -40804.38, 0.0, 10.000001, 9.942172 
1.355e+3, 3.138706e+2, -39726.37, -82511.21, -0.0007030994, 0.00000036744385, -0.000055139266, -39726.37, -39726.37, 0.0, 10.000001, 9.943684 
1.365e+3, 1.2499335e+2, -1719944.8, -1724224.5, 0.005067079, 0.000000415348, 0.000017716908, -1719944.8, -4879.6006, 0.0, 10.000001, 9.994327 
1.365e+3, 1.3498761e+2, -1622564.4, -1627434.8, 0.000051129497, 0.00000041821158, -0.00006832856, -1622564.4, -5442.827, 0.0, 10.000001, 9.993545 
1.365e+3, 1.4497514e+2, -1534462.9, -1548146.1, 0.005487143, 0.0000004155254, 0.000071022616, -1534462.9, -15219.329, 0.0, 10.000001, 9.981864 
1.365e+3, 1.5495703e+2, -1436735.3, -1450821.9, -0.002380044, 0.00000040722585, -0.000056892753, -1436735.3, -15314.156, 0.0, 10.000001, 9.981333 
1.365e+3, 1.6493228e+2, -1348684.3, -1371952.3, 0.004133764, 0.00000040309254, 0.000047420835, -1348684.3, -25020.652, 0.0, 10.000001, 9.969248 
1.365e+3, 1.7490156e+2, -1250726.3, -1274310.1, -0.0017792875, 0.00000040321225, -0.000073753225, -1250726.3, -24761.639, 0.0, 10.000001, 9.968834 
1.365e+3, 1.8486421e+2, -1162645.4, -1195720.0, 0.0030549201, 0.00000040188087, 0.000066217566, -1162645.4, -34314.69, 0.0, 10.000001, 9.956395 
1.365e+3, 1.9482064e+2, -1064495.6, -1097832.9, -0.0037057907, 0.000000399031, -0.000057592853, -1064495.6, -33738.035, 0.0, 10.000001, 9.956052 
1.365e+3, 2.0477042e+2, -976331.6, -1019434.94, 0.002627135, 0.00000039577347, 0.000068138186, -976331.6, -43081.78, 0.0, 10.000001, 9.94329 
1.365e+3, 2.1471375e+2, -878044.6, -921409.8, -0.0021211342, 0.00000039207376, -0.0001267649, -878044.6, -42239.37, 0.0, 10.000001, 9.942949 
1.365e+3, 2.2465037e+2, -789758.5, -843144.8, 0.0033295269, 0.0000003906478, 0.00012093807, -789758.5, -51332.26, 0.0, 10.000001, 9.929907 
1.365e+3, 2.3458035e+2, -691325.0, -744966.4, -0.0033376534, 0.000000391795, -0.00008877123, -691325.0, -50212.504, 0.0, 10.000001, 9.929576 
1.365e+3, 2.4450338e+2, -603001.0, -667018.75, 0.0012629941, 0.0000003903293, 0.00007474951, -603001.0, -59134.105, 0.0, 10.000001, 9.916136 
1.365e+3, 2.5441962e+2, -504248.3, -568343.25, -0.0041822894, 0.00000038573995, -0.000106696425, -504248.3, -57560.76, 0.0, 10.000001, 9.916036 
1.365e+3, 2.643288e+2, -416012.9, -490987.84, 0.0014089275, 0.00000038332206, 0.00014063102, -416012.9, -66435.234, 0.0, 10.000001, 9.901964 
1.365e+3, 2.742313e+2, -316727.7, -391374.72, -0.0038023763, 0.00000038367492, -0.00020341479, -316727.7, -64194.684, 0.0, 10.000001, 9.902384 
1.365e+3, 2.841256e+2, -230254.44, -318081.22, 0.0013442659, 0.00000038359377, 0.00022906956, -230254.44, -74685.46, 0.0, 10.000001, 9.885438 
1.365e+3, 2.940121e+2, -130548.305, -217764.98, -0.004471338, 0.00000038290645, -0.00025332227, -130548.305, -71866.91, 0.0, 10.000001, 9.886216 
1.365e+3, 3.0392656e+2, -40804.3, -84750.13, 0.000035129277, 0.00000038115954, 0.00017315107, -40804.3, -40804.3, 0.0, 10.000001, 9.942172 
1.365e+3, 3.138706e+2, -39726.285, -82511.19, -0.0049093906, 0.0000003778431, -0.000055137796, -39726.285, -39726.285, 0.0, 10.000001, 9.943684 
1.375e+3, 1.2499335e+2, -1719944.8, -1724224.6, 0.0018442286, 0.00000043212512, 0.000017715063, -1719944.8, -4879.6147, 0.0, 10.000001, 9.994327 
1.375e+3, 1.3498761e+2, -1622564.4, -1627434.8, -0.0031745224, 0.00000042620388, -0.00006831741, -1622564.4, -5442.841, 0.0, 10.000001, 9.993545 
1.375e+3, 1.4497514e+2, -1534463.0, -1548146.3, 0.003140514, 0.00000042221453, 0.00007102923, -1534463.0, -15219.349, 0.0, 10.000001, 9.981864 
1.375e+3, 1.5495703e+2, -1436735.3, -1450821.9, -0.004724969, 0.00000042014827, -0.000056889574, -1436735.3, -15314.176, 0.0, 10.000001, 9.981333 
1.375e+3, 1.6493228e+2, -1348684.3, -1371952.3, 0.0024830648, 0.0000004176082, 0.0000474223, -1348684.3, -25020.666, 0.0, 10.000001, 9.969248 
1.375e+3, 1.7490156e+2, -1250726.3, -1274310.1, -0.00342591, 0.00000041458267, -0.000073751726, -1250726.3, -24761.652, 0.0, 10.000001, 9.968834 
1.375e+3, 1.8486421e+2, -1162645.4, -1195720.0, 0.0006040355, 0.0000004114234, 0.00006622187, -1162645.4, -34314.707, 0.0, 10.000001, 9.956394 
1.375e+3, 1.9482064e+2, -1064495.6, -1097832.9, -0.0061656805, 0.0000004081246, -0.000057582856, -1064495.6, -33738.05, 0.0, 10.000001, 9.956052 
1.375e+3, 2.0477042e+2, -976331.6, -1019434.94, 0.0020938294, 0.00000040642922, 0.00006814415, -976331.6, -43081.793, 0.0, 10.000001, 9.94329 
1.375e+3, 2.1471375e+2, -878044.6, -921409.8, -0.0026143035, 0.00000040647032, -0.00012677349, -878044.6, -42239.38, 0.0, 10.000001, 9.942949 
1.375e+3, 2.2465037e+2, -789758.5, -843144.8, 0.0010306349, 0.00000040440148, 0.000120927725, -789758.5, -51332.277, 0.0, 10.000001, 9.929907 
1.375e+3, 2.3458035e+2, -691325.06, -744966.4, -0.005695344, 0.00000039994288, -0.00008876888, -691325.06, -50212.52, 0.0, 10.000001, 9.929576 
1.375e+3, 2.4450338e+2, -603001.0, -667018.75, 0.0014611904, 0.0000003973445, 0.00007475577, -603001.0, -59134.117, 0.0, 10.000001, 9.916136 
1.375e+3, 2.5441962e+2, -504248.3, -568343.25, -0.0038612315, 0.00000039697045, -0.000106696745, -504248.3, -57560.773, 0.0, 10.000001, 9.916036 
1.375e+3, 2.643288e+2, -416012.9, -490987.84, 0.00057330215, 0.00000039678497, 0.00014062804, -416012.9, -66435.24, 0.0, 10.000001, 9.901964 
1.375e+3, 2.742313e+2, -316727.7, -391374.75, -0.0047157137, 0.00000039683462, -0.00020341542, -316727.7, -64194.695, 0.0, 10.000001, 9.902384 
1.375e+3, 2.841256e+2, -230254.45, -318081.22, 0.0010291121, 0.0000003945857, 0.00022907044, -230254.45, -74685.48, 0.0, 10.000001, 9.885438 
1.375e+3, 2.940121e+2, -130548.32, -217765.0, -0.0047330507, 0.00000038919046, -0.000253321, -130548.32, -71866.914, 0.0, 10.000001, 9.886216 
1.375e+3, 3.0392656e+2, -40804.313, -84750.16, 0.0010426344, 0.0000003881507, 0.000173153, -40804.313, -40804.313, 0.0, 10.000001, 9.942172 
1.375e+3, 3.138706e+2, -39726.297, -82511.21, -0.0037535168, 0.00000039360432, -0.000055134802, -39726.297, -39726.297, 0.0, 10.000001, 9.943684 
1.385e+3, 1.2499335e+2, -1719944.6, -1724224.5, 0.0054863114, 0.00000044496872, 0.000017716879, -1719944.6, -4879.5107, 0.0, 10.000001, 9.994327 
1.385e+3, 1.3498761e+2, -1622564.3, -1627434.8, -0.0036503766, 0.00000043784144, -0.00006831099, -1622564.3, -5442.74, 0.0, 10.000001, 9.993545 
1.385e+3, 1.4497514e+2, -1534462.9, -1548146.1, 0.0031147276, 0.00000043322657, 0.000071029346, -1534462.9, -15219.248, 0.0, 10.000001, 9.981864 
1.385e+3, 1.5495703e+2, -1436735.1, -1450821.9, -0.0028801078, 0.00000043112672, -0.00005688669, -1436735.1, -15314.073, 0.0, 10.000001, 9.981333 
1.385e+3, 1.6493228e+2, -1348684.3, -1371952.3, 0.004131943, 0.00000042897665, 0.000047426176, -1348684.3, -25020.564, 0.0, 10.000001, 9.969248 
1.385e+3, 1.7490156e+2, -1250726.3, -1274310.1, -0.0031661722, 0.00000042677314, -0.000073748684, -1250726.3, -24761.559, 0.0, 10.000001, 9.968834 
1.385e+3, 1.8486422e+2, -1162645.3, -1195720.0, 0.0012916249, 0.0000004234098, 0.000066224326, -1162645.3, -34314.613, 0.0, 10.000001, 9.956394 
1.385e+3, 1.9482064e+2, -1064495.5, -1097832.9, -0.004700857, 0.00000041883285, -0.000057580728, -1064495.5, -33737.95, 0.0, 10.000001, 9.956052 
1.385e+3, 2.0477042e+2, -976331.56, -1019434.94, 0.0027366611, 0.00000041715597, 0.000068146284, -976331.56, -43081.695, 0.0, 10.000001, 9.94329 
1.385e+3, 2.1471375e+2, -878044.56, -921409.8, -0.0044966806, 0.00000041862052, -0.00012677099, -878044.56, -42239.293, 0.0, 10.000001, 9.942949 
1.385e+3, 2.2465037e+2, -789758.44, -843144.8, -0.0009679297, 0.000000416565, 0.000120930286, -789758.44, -51332.188, 0.0, 10.000001, 9.929907 
1.385e+3, 2.3458035e+2, -691324.94, -744966.4, -0.006339219, 0.00000041052382, -0.00008876659, -691324.94, -50212.42, 0.0, 10.000001, 9.929576 
1.385e+3, 2.4450338e+2, -603000.9, -667018.75, 0.0015018152, 0.00000040754074, 0.00007475766, -603000.9, -59134.02, 0.0, 10.000001, 9.916136 
1.385e+3, 2.5441962e+2, -504248.22, -568343.25, -0.0043431534, 0.00000040821487, -0.000106695414, -504248.22, -57560.688, 0.0, 10.000001, 9.916036 
1.385e+3, 2.643288e+2, -416012.84, -490987.84, 0.000083724284, 0.0000004085519, 0.00014062923, -416012.84, -66435.16, 0.0, 10.000001, 9.901964 
1.385e+3, 2.742313e+2, -316727.63, -391374.72, -0.0053880094, 0.00000040845163, -0.00020341383, -316727.63, -64194.61, 0.0, 10.000001, 9.902384 
1.385e+3, 2.841256e+2, -230254.36, -318081.22, 0.0012400849, 0.00000040572024, 0.00022907204, -230254.36, -74685.38, 0.0, 10.000001, 9.885438 
1.385e+3, 2.940121e+2, -130548.23, -217764.98, -0.003225643, 0.00000039939022, -0.00025331994, -130548.23, -71866.82, 0.0, 10.000001, 9.886216 
1.385e+3, 3.0392656e+2, -40804.223, -84750.13, 0.0034520454, 0.00000039843385, 0.00017315359, -40804.223, -40804.223, 0.0, 10.000001, 9.942172 
1.385e+3, 3.138706e+2, -39726.215, -82511.19, -0.0011705147, 0.00000040548625, -0.000055134526, -39726.215, -39726.215, 0.0, 10.000001, 9.943684 
1.395e+3, 1.2499335e+2, -1719944.8, -1724224.6, 0.0015583836, 0.0000004538789, 0.00001772236, -1719944.8, -4879.534, 0.0, 10.000001, 9.994327 
1.395e+3, 1.3498761e+2, -1622564.3, -1627434.8, -0.007581694, 0.00000045312413, -0.0000683093, -1622564.3, -5442.7637, 0.0, 10.000001, 9.993545 
1.395e+3, 1.4497514e+2, -1534462.9, -1548146.1, 0.0014650526, 0.00000044856142, 0.00007102296, -1534462.9, -15219.264, 0.0, 10.000001, 9.981864 
1.395e+3, 1.5495703e+2, -1436735.1, -1450821.9, -0.0045253835, 0.0000004401613, -0.000056884095, -1436735.1, -15314.089, 0.0, 10.000001, 9.981333 
1.395e+3, 1.6493228e+2, -1348684.3, -1371952.3, 0.0008644264, 0.00000043719788, 0.000047432462, -1348684.3, -25020.584, 0.0, 10.000001, 9.969248 
1.395e+3, 1.7490156e+2, -1250726.3, -1274310.1, -0.0064417077, 0.0000004397836, -0.00007374411, -1250726.3, -24761.576, 0.0, 10.000001, 9.968834 
1.395e+3, 1.8486422e+2, -1162645.3, -1195720.0, 0.0003340549, 0.00000043784, 0.00006622493, -1162645.3, -34314.625, 0.0, 10.000001, 9.956394 
1.395e+3, 1.9482064e+2, -1064495.5, -1097832.9, -0.0056309453, 0.00000043115563, -0.000057586472, -1064495.5, -33737.965, 0.0, 10.000001, 9.956052 
1.395e+3, 2.0477042e+2, -976331.56, -1019434.94, -0.00015628338, 0.0000004279536, 0.000068144574, -976331.56, -43081.71, 0.0, 10.000001, 9.94329 
1.395e+3, 2.1471375e+2, -878044.56, -921409.8, -0.0074298573, 0.00000042852426, -0.00012675743, -878044.56, -42239.31, 0.0, 10.000001, 9.942949 
1.395e+3, 2.2465037e+2, -789758.44, -843144.8, -0.00088980276, 0.00000042713836, 0.000120945755, -789758.44, -51332.2, 0.0, 10.000001, 9.929907 
1.395e+3, 2.3458035e+2, -691324.94, -744966.4, -0.006162352, 0.00000042353767, -0.00008876436, -691324.94, -50212.434, 0.0, 10.000001, 9.929576 
1.395e+3, 2.4450338e+2, -603000.9, -667018.75, -0.0004849049, 0.0000004209179, 0.00007475517, -603000.9, -59134.03, 0.0, 10.000001, 9.916136 
1.395e+3, 2.5441962e+2, -504248.25, -568343.25, -0.006433802, 0.00000041947314, -0.000106692445, -504248.25, -57560.7, 0.0, 10.000001, 9.916036 
1.395e+3, 2.643288e+2, -416012.84, -490987.84, -0.000085285275, 0.00000041862282, 0.0001406346, -416012.84, -66435.17, 0.0, 10.000001, 9.901964 
1.395e+3, 2.742313e+2, -316727.63, -391374.75, -0.0054283673, 0.00000041852584, -0.00020341, -316727.63, -64194.62, 0.0, 10.000001, 9.902384 
1.395e+3, 2.841256e+2, -230254.38, -318081.22, 0.001550738, 0.00000041699715, 0.00022907434, -230254.38, -74685.39, 0.0, 10.000001, 9.885438 
1.395e+3, 2.940121e+2, -130548.234, -217765.0, -0.0028838413, 0.00000041350557, -0.00025331916, -130548.234, -71866.836, 0.0, 10.000001, 9.886216 
1.395e+3, 3.0392656e+2, -40804.234, -84750.16, 0.0027419652, 0.00000041200897, 0.00017315282, -40804.234, -40804.234, 0.0, 10.000001, 9.942172 
1.395e+3, 3.138706e+2, -39726.227, -82511.21, -0.0020047885, 0.00000041348878, -0.00005513697, -39726.227, -39726.227, 0.0, 10.000001, 9.943684 
1.405e+3, 1.2499335e+2, -1719944.6, -1724224.5, 0.0035921184, 0.0000004673383, 0.000017725186, -1719944.6, -4879.4287, 0.0, 10.000001, 9.994327 
1.405e+3, 1.3498761e+2, -1622564.1, -1627434.8, -0.00195288, 0.00000046503368, -0.000068301895, -1622564.1, -5442.653, 0.0, 10.000001, 9.993545 
1.405e+3, 1.4497514e+2, -1534462.8, -1548146.1, 0.008487019, 0.00000046004152, 0.00007102295, -1534462.8, -15219.154, 0.0, 10.000001, 9.981864 
1.405e+3, 1.5495703e+2, -1436735.1, -1450821.9, -0.00045979014, 0.00000045234617, -0.0000568808, -1436735.1, -15313.985, 0.0, 10.000001, 9.981333 
1.405e+3, 1.6493228e+2, -1348684.1, -1371952.3, 0.003253483, 0.00000044961112, 0.000047436584, -1348684.1, -25020.48, 0.0, 10.000001, 9.969248 
1.405e+3, 1.7490156e+2, -1250726.1, -1274310.1, -0.0032344214, 0.00000045193823, -0.00007374169, -1250726.1, -24761.47, 0.0, 10.000001, 9.968834 
1.405e+3, 1.8486422e+2, -1162645.1, -1195720.0, 0.004465405, 0.0000004499503, 0.00006622684, -1162645.1, -34314.523, 0.0, 10.000001, 9.956394 
1.405e+3, 1.9482064e+2, -1064495.4, -1097832.9, -0.0028991213, 0.00000044344648, -0.000057583802, -1064495.4, -33737.867, 0.0, 10.000001, 9.956052 
1.405e+3, 2.0477042e+2, -976331.5, -1019434.94, 0.0021943224, 0.00000044002726, 0.00006814728, -976331.5, -43081.613, 0.0, 10.000001, 9.94329 
1.405e+3, 2.1471375e+2, -878044.44, -921409.8, -0.003808097, 0.00000043994933, -0.00012675548, -878044.44, -42239.203, 0.0, 10.000001, 9.942948 
1.405e+3, 2.2465037e+2, -789758.4, -843144.8, 0.0034056983, 0.00000043859217, 0.00012094739, -789758.4, -51332.098, 0.0, 10.000001, 9.929907 
1.405e+3, 2.3458035e+2, -691324.9, -744966.4, -0.0036523168, 0.00000043578763, -0.00008876254, -691324.9, -50212.34, 0.0, 10.000001, 9.929576 
1.405e+3, 2.4450338e+2, -603000.8, -667018.75, 0.000979007, 0.00000043323914, 0.000074757016, -603000.8, -59133.94, 0.0, 10.000001, 9.916136 
1.405e+3, 2.5441962e+2, -504248.16, -568343.25, -0.00502053, 0.0000004309995, -0.000106690735, -504248.16, -57560.6, 0.0, 10.000001, 9.916036 
1.405e+3, 2.643288e+2, -416012.75, -490987.8, 0.0016496608, 0.00000042989865, 0.00014063614, -416012.75, -66435.07, 0.0, 10.000001, 9.901964 
1.405e+3, 2.742313e+2, -316727.53, -391374.72, -0.0044498704, 0.00000043024602, -0.00020340864, -316727.53, -64194.523, 0.0, 10.000001, 9.902384 
1.405e+3, 2.841256e+2, -230254.28, -318081.2, 0.0015561113, 0.00000042891443, 0.00022907561, -230254.28, -74685.3, 0.0, 10.000001, 9.885438 
1.405e+3, 2.940121e+2, -130548.15, -217764.97, -0.0046896897, 0.00000042527813, -0.00025331788, -130548.15, -71866.74, 0.0, 10.000001, 9.886216 
1.405e+3, 3.0392656e+2, -40804.145, -84750.13, -0.000062306084, 0.0000004236396, 0.00017315403, -40804.145, -40804.145, 0.0, 10.000001, 9.942172 
1.405e+3, 3.138706e+2, -39726.13, -82511.18, -0.0051639294, 0.00000042498436, -0.000055135944, -39726.13, -39726.13, 0.0, 10.000001, 9.943684 
1.415e+3, 1.2499335e+2, -1719944.6, -1724224.6, 0.0008252819, 0.00000048534673, 0.00001772537, -1719944.6, -4879.444, 0.0, 10.000001, 9.994327 
1.415e+3, 1.3498761e+2, -1622564.1, -1627434.8, -0.0047232225, 0.00000047357008, -0.00006828878, -1622564.1, -5442.668, 0.0, 10.000001, 9.993545 
1.415e+3, 1.4497514e+2, -1534462.8, -1548146.1, 0.005515372, 0.00000046766684, 0.00007102933, -1534462.8, -15219.177, 0.0, 10.000001, 9.981864 
1.415e+3, 1.5495703e+2, -1436735.1, -1450821.9, -0.003430514, 0.0000004676811, -0.000056876797, -1436735.1, -15314.007, 0.0, 10.000001, 9.981332 
1.415e+3, 1.6493228e+2, -1348684.1, -1371952.3, 0.0007058627, 0.00000046621628, 0.000047438538, -1348684.1, -25020.496, 0.0, 10.000001, 9.969248 
1.415e+3, 1.7490156e+2, -1250726.1, -1274310.1, -0.005779094, 0.00000046323694, -0.00007374143, -1250726.1, -24761.486, 0.0, 10.000001, 9.968834 
1.415e+3, 1.8486422e+2, -1162645.1, -1195720.0, 0.0019624857, 0.00000045974065, 0.00006623008, -1162645.1, -34314.54, 0.0, 10.000001, 9.956394 
1.415e+3, 1.9482064e+2, -1064495.5, -1097832.9, -0.005400843, 0.00000045570536, -0.000057572714, -1064495.5, -33737.883, 0.0, 10.000001, 9.956052 
1.415e+3, 2.0477042e+2, -976331.5, -1019434.94, 0.0011190248, 0.00000045337683, 0.0000681544, -976331.5, -43081.63, 0.0, 10.000001, 9.94329 
1.415e+3, 2.1471375e+2, -878044.5, -921409.8, -0.0048532737, 0.00000045289553, -0.00012676514, -878044.5, -42239.22, 0.0, 10.000001, 9.942948 
1.415e+3, 2.2465037e+2, -789758.4, -843144.8, 0.0010086121, 0.00000045092634, 0.0001209352, -789758.4, -51332.113, 0.0, 10.000001, 9.929907 
1.415e+3, 2.3458035e+2, -691324.9, -744966.4, -0.006093434, 0.00000044727355, -0.000088761146, -691324.9, -50212.355, 0.0, 10.000001, 9.929576 
1.415e+3, 2.4450338e+2, -603000.8, -667018.75, 0.0006143259, 0.00000044450425, 0.000074763215, -603000.8, -59133.953, 0.0, 10.000001, 9.916136 
1.415e+3, 2.5441962e+2, -504248.16, -568343.25, -0.005285597, 0.00000044279383, -0.00010669028, -504248.16, -57560.613, 0.0, 10.000001, 9.916036 
1.415e+3, 2.643288e+2, -416012.75, -490987.84, 0.00085014355, 0.0000004423793, 0.00014063389, -416012.75, -66435.086, 0.0, 10.000001, 9.901964 
1.415e+3, 2.742313e+2, -316727.53, -391374.75, -0.0052855085, 0.0000004436121, -0.00020340973, -316727.53, -64194.54, 0.0, 10.000001, 9.902384 
1.415e+3, 2.841256e+2, -230254.28, -318081.22, 0.0008944532, 0.00000044147205, 0.00022907583, -230254.28, -74685.31, 0.0, 10.000001, 9.885438 
1.415e+3, 2.940121e+2, -130548.164, -217765.0, -0.0053362334, 0.00000043470786, -0.00025331613, -130548.164, -71866.76, 0.0, 10.000001, 9.886216 
1.415e+3, 3.0392656e+2, -40804.156, -84750.16, 0.0007890465, 0.00000043332568, 0.0001731572, -40804.156, -40804.156, 0.0, 10.000001, 9.942172 
1.415e+3, 3.138706e+2, -39726.14, -82511.21, -0.004137566, 0.00000043997295, -0.00005513145, -39726.14, -39726.14, 0.0, 10.000001, 9.943684 
1.425e+3, 1.2499335e+2, -1719944.5, -1724224.5, 0.0052026086, 0.00000049910335, 0.000017728245, -1719944.5, -4879.3286, 0.0, 10.000002, 9.994327 
1.425e+3, 1.3498761e+2, -1622564.0, -1627434.8, -0.0052197953, 0.00000048581813, -0.00006827986, -1622564.0, -5442.5537, 0.0, 10.000002, 9.993544 
1.425e+3, 1.4497514e+2, -1534462.6, -1548146.1, 0.0034879097, 0.00000047997116, 0.00007102989, -1534462.6, -15219.063, 0.0, 10.000002, 9.981864 
1.425e+3, 1.5495703e+2, -1436735.0, -1450821.9, -0.0025507968, 0.00000048161917, -0.000056873425, -1436735.0, -15313.897, 0.0, 10.000002, 9.981332 
1.425e+3, 1.6493228e+2, -1348684.0, -1371952.3, 0.0030821238, 0.00000048017995, 0.000047442823, -1348684.0, -25020.389, 0.0, 10.000002, 9.969248 
1.425e+3, 1.7490156e+2, -1250726.0, -1274310.1, -0.0048633227, 0.00000047558513, -0.00007373819, -1250726.0, -24761.379, 0.0, 10.000002, 9.968834 
1.425e+3, 1.8486422e+2, -1162645.1, -1195720.0, 0.002630573, 0.00000047171483, 0.00006623278, -1162645.1, -34314.434, 0.0, 10.000001, 9.956394 
1.425e+3, 1.9482064e+2, -1064495.4, -1097832.9, -0.0043913, 0.00000046860518, -0.000057570032, -1064495.4, -33737.773, 0.0, 10.000001, 9.956052 
1.425e+3, 2.0477042e+2, -976331.4, -1019434.94, 0.0019556615, 0.00000046648708, 0.00006815699, -976331.4, -43081.52, 0.0, 10.000001, 9.94329 
1.425e+3, 2.1471375e+2, -878044.4, -921409.8, -0.0054102987, 0.0000004654418, -0.00012676274, -878044.4, -42239.117, 0.0, 10.000001, 9.942948 
1.425e+3, 2.2465037e+2, -789758.25, -843144.8, 0.0005623935, 0.00000046322413, 0.000120937446, -789758.25, -51332.01, 0.0, 10.000001, 9.929907 
1.425e+3, 2.3458035e+2, -691324.75, -744966.4, -0.005741367, 0.00000045967988, -0.00008875902, -691324.75, -50212.25, 0.0, 10.000001, 9.929576 
1.425e+3, 2.4450338e+2, -603000.7, -667018.7, 0.0011501434, 0.00000045688358, 0.00007476514, -603000.7, -59133.848, 0.0, 10.000001, 9.916136 
1.425e+3, 2.5441962e+2, -504248.06, -568343.25, -0.0057033557, 0.00000045498294, -0.000106688625, -504248.06, -57560.516, 0.0, 10.000001, 9.916036 
1.425e+3, 2.643288e+2, -416012.66, -490987.8, 0.00060937094, 0.00000045464284, 0.00014063543, -416012.66, -66434.984, 0.0, 10.000001, 9.901964 
1.425e+3, 2.742313e+2, -316727.44, -391374.72, -0.005232714, 0.00000045628744, -0.00020340813, -316727.44, -64194.438, 0.0, 10.000001, 9.902384 
1.425e+3, 2.841256e+2, -230254.19, -318081.2, 0.0017444864, 0.00000045402882, 0.0002290773, -230254.19, -74685.21, 0.0, 10.000001, 9.885438 
1.425e+3, 2.940121e+2, -130548.06, -217764.97, -0.00338892, 0.00000044641854, -0.0002533151, -130548.06, -71866.66, 0.0, 10.000001, 9.886216 
1.425e+3, 3.0392656e+2, -40804.06, -84750.13, 0.003539033, 0.00000044502664, 0.00017315793, -40804.06, -40804.06, 0.0, 10.000001, 9.942172 
1.425e+3, 3.138706e+2, -39726.05, -82511.18, -0.002018323, 0.0000004529122, -0.000055130833, -39726.05, -39726.05, 0.0, 10.000001, 9.943684 
1.435e+3, 1.24993354e+2, -1719944.5, -1724224.6, 0.0023797238, 0.0000005086088, 0.000017733815, -1719944.5, -4879.3555, 0.0, 10.000002, 9.994327 
1.435e+3, 1.3498761e+2, -1622564.0, -1627434.8, -0.008046241, 0.00000050177783, -0.00006827514, -1622564.0, -5442.58, 0.0, 10.000002, 9.993544 
1.435e+3, 1.4497514e+2, -1534462.6, -1548146.1, -0.00021059843, 0.00000049695427, 0.00007102463, -1534462.6, -15219.079, 0.0, 10.000002, 9.981864 
1.435e+3, 1.5495703e+2, -1436735.0, -1450821.9, -0.0062496467, 0.00000049416025, -0.000056870675, -1436735.0, -15313.913, 0.0, 10.000002, 9.981332 
1.435e+3, 1.6493228e+2, -1348684.0, -1371952.3, 0.00044086858, 0.00000049150213, 0.00004744943, -1348684.0, -25020.408, 0.0, 10.000002, 9.969248 
1.435e+3, 1.7490156e+2, -1250726.0, -1274310.1, -0.007497792, 0.0000004889826, -0.00007373197, -1250726.0, -24761.398, 0.0, 10.000002, 9.968834 
1.435e+3, 1.8486422e+2, -1162645.1, -1195720.0, 0.0006135734, 0.00000048587265, 0.00006623494, -1162645.1, -34314.45, 0.0, 10.000001, 9.956394 
1.435e+3, 1.9482066e+2, -1064495.4, -1097832.9, -0.0064005316, 0.00000048214565, -0.000057575755, -1064495.4, -33737.79, 0.0, 10.000001, 9.956052 
1.435e+3, 2.0477042e+2, -976331.4, -1019434.94, -0.00084847905, 0.00000047935765, 0.000068155045, -976331.4, -43081.54, 0.0, 10.000001, 9.94329 
1.435e+3, 2.1471375e+2, -878044.4, -921409.8, -0.008230275, 0.0000004775879, -0.00012674826, -878044.4, -42239.133, 0.0, 10.000001, 9.942948 
1.435e+3, 2.2465037e+2, -789758.25, -843144.8, 0.00006614728, 0.00000047548542, 0.00012095415, -789758.25, -51332.027, 0.0, 10.000001, 9.929907 
1.435e+3, 2.3458035e+2, -691324.75, -744966.4, -0.006161253, 0.00000047300642, -0.00008875617, -691324.75, -50212.26, 0.0, 10.000001, 9.929576 
1.435e+3, 2.4450338e+2, -603000.75, -667018.75, -0.0009664488, 0.00000047037696, 0.00007476281, -603000.75, -59133.863, 0.0, 10.000001, 9.916136 
1.435e+3, 2.5441962e+2, -504248.06, -568343.25, -0.00790155, 0.00000046756674, -0.00010668578, -504248.06, -57560.53, 0.0, 10.000001, 9.916036 
1.435e+3, 2.643288e+2, -416012.66, -490987.84, 0.00015505152, 0.00000046668913, 0.00014064074, -416012.66, -66435.0, 0.0, 10.000001, 9.901964 
1.435e+3, 2.742313e+2, -316727.44, -391374.75, -0.005570669, 0.00000046827196, -0.0002034038, -316727.44, -64194.453, 0.0, 10.000001, 9.902384 
1.435e+3, 2.841256e+2, -230254.2, -318081.22, 0.0016133797, 0.00000046658465, 0.00022908, -230254.2, -74685.23, 0.0, 10.000001, 9.885438 
1.435e+3, 2.940121e+2, -130548.07, -217765.0, -0.0035020711, 0.0000004604101, -0.00025331482, -130548.07, -71866.664, 0.0, 10.000001, 9.886216 
1.435e+3, 3.0392656e+2, -40804.07, -84750.16, 0.0028547016, 0.00000045874233, 0.00017315616, -40804.07, -40804.07, 0.0, 10.000001, 9.942172 
1.435e+3, 3.138706e+2, -39726.063, -82511.21, -0.0027706316, 0.00000046380205, -0.000055134085, -39726.063, -39726.063, 0.0, 10.000001, 9.943684 
1.445e+3, 1.24993354e+2, -1719944.4, -1724224.5, 0.0055408115, 0.00000052158197, 0.000017736278, -1719944.4, -4879.2324, 0.0, 10.000002, 9.994327 
1.445e+3, 1.3498761e+2, -1622563.9, -1627434.8, -0.00022000856, 0.00000051590587, -0.000068267225, -1622563.9, -5442.461, 0.0, 10.000002, 9.993544 
1.445e+3, 1.4497514e+2, -1534462.5, -1548146.1, 0.007607913, 0.0000005114599, 0.00007102317, -1534462.5, -15218.962, 0.0, 10.000002, 9.981864 
1.445e+3, 1.5495703e+2, -1436734.9, -1450821.9, -0.00217583, 0.0000005082593, -0.000056867448, -1436734.9, -15313.797, 0.0, 10.000002, 9.981332 
1.445e+3, 1.6493228e+2, -1348683.9, -1371952.3, 0.00409453, 0.00000050513194, 0.000047454156, -1348683.9, -25020.291, 0.0, 10.000002, 9.969248 
1.445e+3, 1.7490156e+2, -1250725.9, -1274310.1, -0.0033315045, 0.0000005020834, -0.00007372901, -1250725.9, -24761.281, 0.0, 10.000002, 9.968834 
1.445e+3, 1.8486422e+2, -1162645.0, -1195720.0, 0.004650048, 0.0000004990353, 0.00006623723, -1162645.0, -34314.336, 0.0, 10.000002, 9.956394 
1.445e+3, 1.9482066e+2, -1064495.3, -1097832.9, -0.0031046441, 0.0000004959884, -0.000057573, -1064495.3, -33737.68, 0.0, 10.000002, 9.956052 
1.445e+3, 2.0477042e+2, -976331.25, -1019434.94, 0.0025753842, 0.000000493126, 0.00006815783, -976331.25, -43081.426, 0.0, 10.000002, 9.94329 
1.445e+3, 2.1471375e+2, -878044.25, -921409.8, -0.0047076745, 0.00000049046434, -0.0001267459, -878044.25, -42239.02, 0.0, 10.000002, 9.942948 
1.445e+3, 2.2465037e+2, -789758.2, -843144.75, 0.0036812734, 0.0000004882019, 0.00012095625, -789758.2, -51331.914, 0.0, 10.000002, 9.929907 
1.445e+3, 2.3458035e+2, -691324.7, -744966.4, -0.0038445932, 0.00000048639123, -0.00008875412, -691324.7, -50212.156, 0.0, 10.000002, 9.929576 
1.445e+3, 2.4450338e+2, -603000.6, -667018.7, 0.00077481335, 0.0000004838047, 0.00007476475, -603000.6, -59133.758, 0.0, 10.000002, 9.916135 
1.445e+3, 2.5441962e+2, -504247.97, -568343.25, -0.0058102747, 0.00000048028915, -0.000106684, -504247.97, -57560.42, 0.0, 10.000002, 9.916036 
1.445e+3, 2.643288e+2, -416012.56, -490987.8, 0.0025957595, 0.0000004792709, 0.00014064234, -416012.56, -66434.89, 0.0, 10.000002, 9.901964 
1.445e+3, 2.742313e+2, -316727.34, -391374.72, -0.0043505677, 0.00000048143266, -0.0002034024, -316727.34, -64194.344, 0.0, 10.000002, 9.902384 
1.445e+3, 2.841256e+2, -230254.1, -318081.2, 0.0015556519, 0.0000004798786, 0.00022908128, -230254.1, -74685.125, 0.0, 10.000002, 9.885438 
1.445e+3, 2.940121e+2, -130547.97, -217764.97, -0.005305948, 0.0000004732239, -0.0002533136, -130547.97, -71866.56, 0.0, 10.000002, 9.886216 
1.445e+3, 3.0392656e+2, -40803.973, -84750.125, 0.00055593665, 0.00000047139736, 0.00017315727, -40803.973, -40803.973, 0.0, 10.000002, 9.942172 
1.445e+3, 3.138706e+2, -39725.957, -82511.18, -0.004832799, 0.00000047678066, -0.000055133165, -39725.957, -39725.957, 0.0, 10.000002, 9.943684 
1.455e+3, 1.24993354e+2, -1719944.4, -1724224.5, 0.0018846466, 0.0000005380217, 0.000017735681, -1719944.4, -4879.2485, 0.0, 10.000002, 9.994327 
1.455e+3, 1.3498761e+2, -1622564.0, -1627434.8, -0.0038800421, 0.0000005282018, -0.000068256115, -1622564.0, -5442.4766, 0.0, 10.000002, 9.993544 
1.455e+3, 1.4497514e+2, -1534462.6, -1548146.1, 0.0037928864, 0.00000052348787, 0.00007102549, -1534462.6, -15218.987, 0.0, 10.000002, 9.981864 
1.455e+3, 1.5495703e+2, -1436734.9, -1450821.9, -0.005989923, 0.00000052391624, -0.000056863748, -1436734.9, -15313.821, 0.0, 10.000002, 9.981332 
1.455e+3, 1.6493228e+2, -1348684.0, -1371952.3, 0.0016369432, 0.0000005210695, 0.000047456997, -1348684.0, -25020.31, 0.0, 10.000002, 9.969248 
1.455e+3, 1.7490156e+2, -1250725.9, -1274310.1, -0.005780967, 0.00000051488723, -0.000073729294, -1250725.9, -24761.299, 0.0, 10.000002, 9.968834 
1.455e+3, 1.8486422e+2, -1162645.0, -1195720.0, 0.0014966443, 0.00000051120236, 0.000066239656, -1162645.0, -34314.35, 0.0, 10.000002, 9.956394 
1.455e+3, 1.9482066e+2, -1064495.3, -1097832.9, -0.0062651746, 0.00000051013313, -0.00005756177, -1064495.3, -33737.7, 0.0, 10.000002, 9.956052 
1.455e+3, 2.0477042e+2, -976331.3, -1019434.94, 0.0011217004, 0.0000005077919, 0.00006816535, -976331.3, -43081.445, 0.0, 10.000002, 9.94329 
1.455e+3, 2.1471375e+2, -878044.3, -921409.8, -0.006125677, 0.00000050407084, -0.00012675568, -878044.3, -42239.035, 0.0, 10.000002, 9.942948 
1.455e+3, 2.2465037e+2, -789758.2, -843144.8, 0.0012396416, 0.0000005013734, 0.00012094375, -789758.2, -51331.93, 0.0, 10.000002, 9.929907 
1.455e+3, 2.3458035e+2, -691324.7, -744966.4, -0.006319764, 0.00000049983424, -0.00008875287, -691324.7, -50212.176, 0.0, 10.000002, 9.929576 
1.455e+3, 2.4450338e+2, -603000.6, -667018.75, -0.00005304722, 0.0000004971667, 0.00007477098, -603000.6, -59133.773, 0.0, 10.000002, 9.916135 
1.455e+3, 2.5441962e+2, -504247.97, -568343.25, -0.0065592797, 0.0000004931501, -0.00010668329, -504247.97, -57560.434, 0.0, 10.000002, 9.916036 
1.455e+3, 2.643288e+2, -416012.56, -490987.84, 0.0014999902, 0.00000049238815, 0.00014064022, -416012.56, -66434.91, 0.0, 10.000002, 9.901964 
1.455e+3, 2.742313e+2, -316727.38, -391374.75, -0.0054699965, 0.00000049576954, -0.00020340389, -316727.38, -64194.36, 0.0, 10.000002, 9.902384 
1.455e+3, 2.841256e+2, -230254.11, -318081.22, 0.0006215175, 0.0000004939107, 0.00022908111, -230254.11, -74685.14, 0.0, 10.000002, 9.885438 
1.455e+3, 2.940121e+2, -130547.984, -217765.0, -0.006224138, 0.00000048485987, -0.00025331147, -130547.984, -71866.58, 0.0, 10.000002, 9.886216 
1.455e+3, 3.0392656e+2, -40803.984, -84750.16, 0.0011297913, 0.0000004829917, 0.00017316121, -40803.984, -40803.984, 0.0, 10.000002, 9.942172 
1.455e+3, 3.138706e+2, -39725.97, -82511.21, -0.0040846313, 0.00000049184786, -0.00005512807, -39725.97, -39725.97, 0.0, 10.000002, 9.943684 
1.465e+3, 1.24993354e+2, -1719944.3, -1724224.5, 0.0075116195, 0.0000005531694, 0.000017737439, -1719944.3, -4879.12, 0.0, 10.000002, 9.994327 
1.465e+3, 1.3498761e+2, -1622563.9, -1627434.8, -0.0038951365, 0.00000054246266, -0.000068247304, -1622563.9, -5442.352, 0.0, 10.000002, 9.993544 
1.465e+3, 1.4497514e+2, -1534462.4, -1548146.1, 0.0027753904, 0.0000005375196, 0.000071023926, -1534462.4, -15218.863, 0.0, 10.000002, 9.981864 
1.465e+3, 1.5495703e+2, -1436734.8, -1450821.9, -0.004210751, 0.00000053838363, -0.000056860437, -1436734.8, -15313.695, 0.0, 10.000002, 9.981332 
1.465e+3, 1.6493228e+2, -1348683.9, -1371952.3, 0.0048029963, 0.00000053556215, 0.000047461923, -1348683.9, -25020.186, 0.0, 10.000002, 9.969248 
1.465e+3, 1.7490156e+2, -1250725.8, -1274310.0, -0.004088614, 0.00000052898685, -0.000073726085, -1250725.8, -24761.18, 0.0, 10.000002, 9.968834 
1.465e+3, 1.8486422e+2, -1162644.9, -1195720.0, 0.0024492831, 0.0000005251322, 0.000066242144, -1162644.9, -34314.234, 0.0, 10.000002, 9.956394 
1.465e+3, 1.9482066e+2, -1064495.1, -1097832.9, -0.005517612, 0.0000005241265, -0.000057558955, -1064495.1, -33737.58, 0.0, 10.000002, 9.956052 
1.465e+3, 2.0477042e+2, -976331.2, -1019434.94, 0.00214855, 0.0000005218005, 0.000068168265, -976331.2, -43081.324, 0.0, 10.000002, 9.94329 
1.465e+3, 2.1471375e+2, -878044.2, -921409.75, -0.0057894513, 0.0000005180413, -0.00012675289, -878044.2, -42238.92, 0.0, 10.000002, 9.942948 
1.465e+3, 2.2465037e+2, -789758.06, -843144.75, 0.0015701959, 0.0000005152919, 0.00012094636, -789758.06, -51331.816, 0.0, 10.000002, 9.929907 
1.465e+3, 2.3458035e+2, -691324.56, -744966.4, -0.005587705, 0.00000051368306, -0.00008875049, -691324.56, -50212.055, 0.0, 10.000002, 9.929576 
1.465e+3, 2.4450338e+2, -603000.5, -667018.7, 0.00087585143, 0.0000005108897, 0.00007477311, -603000.5, -59133.656, 0.0, 10.000002, 9.916135 
1.465e+3, 2.5441962e+2, -504247.88, -568343.25, -0.0067501585, 0.0000005066809, -0.00010668146, -504247.88, -57560.324, 0.0, 10.000002, 9.916036 
1.465e+3, 2.643288e+2, -416012.47, -490987.8, 0.0013693785, 0.00000050603506, 0.00014064185, -416012.47, -66434.8, 0.0, 10.000002, 9.901964 
1.465e+3, 2.742313e+2, -316727.25, -391374.72, -0.004850835, 0.0000005099248, -0.0002034024, -316727.25, -64194.25, 0.0, 10.000002, 9.902384 
1.465e+3, 2.841256e+2, -230254.0, -318081.2, 0.0022746152, 0.00000050789293, 0.00022908243, -230254.0, -74685.02, 0.0, 10.000002, 9.885438 
1.465e+3, 2.940121e+2, -130547.875, -217764.97, -0.0037500248, 0.00000049773445, -0.00025331043, -130547.875, -71866.47, 0.0, 10.000002, 9.886216 
1.465e+3, 3.0392656e+2, -40803.875, -84750.125, 0.004163464, 0.00000049577875, 0.00017316206, -40803.875, -40803.875, 0.0, 10.000002, 9.942172 
1.465e+3, 3.138706e+2, -39725.863, -82511.18, -0.0023221576, 0.00000050607036, -0.000055127344, -39725.863, -39725.863, 0.0, 10.000002, 9.943684 
1.475e+3, 1.24993354e+2, -1719944.3, -1724224.5, 0.0030587649, 0.00000056702413, 0.000017741635, -1719944.3, -4879.1494, 0.0, 10.000002, 9.994327 
1.475e+3, 1.3498761e+2, -1622563.9, -1627434.8, -0.008351753, 0.0000005586883, -0.00006824079, -1622563.9, -5442.381, 0.0, 10.000002, 9.993544 
1.475e+3, 1.4497514e+2, -1534462.5, -1548146.1, -0.0006616282, 0.000000553555, 0.00007101847, -1534462.5, -15218.882, 0.0, 10.000002, 9.981864 
1.475e+3, 1.5495703e+2, -1436734.8, -1450821.9, -0.007644519, 0.00000055166083, -0.00005685752, -1436734.8, -15313.714, 0.0, 10.000002, 9.981332 
1.475e+3, 1.6493228e+2, -1348683.9, -1371952.3, 0.0013899348, 0.0000005486089, 0.000047468933, -1348683.9, -25020.207, 0.0, 10.000002, 9.969248 
1.475e+3, 1.7490156e+2, -1250725.9, -1274310.1, -0.0074995537, 0.000000544382, -0.000073719384, -1250725.9, -24761.201, 0.0, 10.000002, 9.968834 
1.475e+3, 1.8486422e+2, -1162644.9, -1195720.0, -0.00004569134, 0.00000054082483, 0.0000662447, -1162644.9, -34314.254, 0.0, 10.000002, 9.956394 
1.475e+3, 1.9482066e+2, -1064495.1, -1097832.9, -0.008001575, 0.00000053796833, -0.00005756456, -1064495.1, -33737.598, 0.0, 10.000002, 9.956052 
1.475e+3, 2.0477042e+2, -976331.2, -1019434.94, -0.00060864224, 0.0000005351512, 0.00006816659, -976331.2, -43081.344, 0.0, 10.000002, 9.94329 
1.475e+3, 2.1471375e+2, -878044.2, -921409.8, -0.008552696, 0.0000005323756, -0.00012673752, -878044.2, -42238.94, 0.0, 10.000002, 9.942948 
1.475e+3, 2.2465037e+2, -789758.06, -843144.8, 0.00018712065, 0.00000052995756, 0.0001209641, -789758.06, -51331.832, 0.0, 10.000002, 9.929907 
1.475e+3, 2.3458035e+2, -691324.56, -744966.4, -0.006925734, 0.0000005279375, -0.000088746965, -691324.56, -50212.074, 0.0, 10.000002, 9.929576 
1.475e+3, 2.4450338e+2, -603000.56, -667018.75, -0.0011196042, 0.0000005249736, 0.00007477113, -603000.56, -59133.67, 0.0, 10.000002, 9.916135 
1.475e+3, 2.5441962e+2, -504247.88, -568343.25, -0.008777793, 0.00000052088143, -0.0001066785, -504247.88, -57560.34, 0.0, 10.000002, 9.916036 
1.475e+3, 2.643288e+2, -416012.47, -490987.84, 0.00045043812, 0.0000005202115, 0.0001406472, -416012.47, -66434.81, 0.0, 10.000002, 9.901964 
1.475e+3, 2.742313e+2, -316727.25, -391374.75, -0.005696035, 0.0000005238984, -0.00020339788, -316727.25, -64194.26, 0.0, 10.000002, 9.902384 
1.475e+3, 2.841256e+2, -230254.02, -318081.22, 0.0017831787, 0.00000052182537, 0.00022908524, -230254.02, -74685.04, 0.0, 10.000002, 9.885438 
1.475e+3, 2.940121e+2, -130547.89, -217765.0, -0.004210182, 0.00000051184765, -0.00025331049, -130547.89, -71866.484, 0.0, 10.000002, 9.886216 
1.475e+3, 3.0392656e+2, -40803.89, -84750.16, 0.0035433138, 0.00000050975854, 0.00017315977, -40803.89, -40803.89, 0.0, 10.000002, 9.942172 
1.475e+3, 3.138706e+2, -39725.88, -82511.21, -0.0029618372, 0.000000519448, -0.000055130986, -39725.88, -39725.88, 0.0, 10.000002, 9.943684 
1.485e+3, 1.24993354e+2, -1719944.1, -1724224.5, 0.006134879, 0.0000005827783, 0.000017743552, -1719944.1, -4879.014, 0.0, 10.000002, 9.994327 
1.485e+3, 1.3498761e+2, -1622563.8, -1627434.8, -0.00054422003, 0.00000057404856, -0.000068230365, -1622563.8, -5442.2476, 0.0, 10.000002, 9.993544 
1.485e+3, 1.4497514e+2, -1534462.4, -1548146.1, 0.008709879, 0.00000056847836, 0.000071016104, -1534462.4, -15218.75, 0.0, 10.000002, 9.981864 
1.485e+3, 1.5495703e+2, -1436734.6, -1450821.8, -0.0023354797, 0.0000005661206, -0.000056853874, -1436734.6, -15313.583, 0.0, 10.000002, 9.981332 
1.485e+3, 1.6493228e+2, -1348683.8, -1371952.3, 0.0048868125, 0.0000005631951, 0.000047474467, -1348683.8, -25020.078, 0.0, 10.000002, 9.969248 
1.485e+3, 1.7490156e+2, -1250725.8, -1274310.0, -0.0034148553, 0.00000055969497, -0.000073716175, -1250725.8, -24761.072, 0.0, 10.000002, 9.968834 
1.485e+3, 1.8486422e+2, -1162644.8, -1195720.0, 0.0047540315, 0.0000005560617, 0.00006624703, -1162644.8, -34314.125, 0.0, 10.000002, 9.956394 
1.485e+3, 1.9482066e+2, -1064495.0, -1097832.9, -0.0039013685, 0.00000055228253, -0.000057561592, -1064495.0, -33737.473, 0.0, 10.000002, 9.956052 
1.485e+3, 2.0477042e+2, -976331.06, -1019434.9, 0.003263962, 0.00000054925107, 0.00006816969, -976331.06, -43081.22, 0.0, 10.000002, 9.94329 
1.485e+3, 2.1471375e+2, -878044.06, -921409.75, -0.005045023, 0.0000005470277, -0.00012673486, -878044.06, -42238.813, 0.0, 10.000002, 9.942948 
1.485e+3, 2.2465037e+2, -789757.94, -843144.75, 0.0034673363, 0.0000005448223, 0.00012096651, -789757.94, -51331.707, 0.0, 10.000002, 9.929907 
1.485e+3, 2.3458035e+2, -691324.44, -744966.4, -0.0047671557, 0.00000054263006, -0.00008874459, -691324.44, -50211.953, 0.0, 10.000002, 9.929576 
1.485e+3, 2.4450338e+2, -603000.44, -667018.7, 0.00089430815, 0.00000053951067, 0.000074773365, -603000.44, -59133.555, 0.0, 10.000002, 9.916135 
1.485e+3, 2.5441962e+2, -504247.75, -568343.25, -0.0063495478, 0.00000053528225, -0.000106676525, -504247.75, -57560.22, 0.0, 10.000002, 9.916036 
1.485e+3, 2.643288e+2, -416012.34, -490987.8, 0.002949569, 0.0000005346229, 0.00014064899, -416012.34, -66434.69, 0.0, 10.000002, 9.901964 
1.485e+3, 2.742313e+2, -316727.16, -391374.72, -0.004838223, 0.0000005385076, -0.0002033962, -316727.16, -64194.145, 0.0, 10.000002, 9.902384 
1.485e+3, 2.841256e+2, -230253.89, -318081.2, 0.0013608471, 0.00000053633914, 0.00022908683, -230253.89, -74684.92, 0.0, 10.000002, 9.885438 
1.485e+3, 2.940121e+2, -130547.77, -217764.97, -0.0061838836, 0.0000005258634, -0.000253309, -130547.77, -71866.37, 0.0, 10.000002, 9.886216 
1.485e+3, 3.0392656e+2, -40803.777, -84750.125, 0.001291833, 0.000000523668, 0.00017316097, -40803.777, -40803.777, 0.0, 10.000002, 9.942172 
1.485e+3, 3.138706e+2, -39725.766, -82511.18, -0.0044597904, 0.00000053383593, -0.000055130262, -39725.766, -39725.766, 0.0, 10.000002, 9.943684 
1.495e+3, 1.24993354e+2, -1719944.1, -1724224.5, 0.0012838169, 0.00000060043556, 0.000017743881, -1719944.1, -4879.0327, 0.0, 10.000002, 9.994327 
1.495e+3, 1.3498761e+2, -1622563.8, -1627434.8, -0.0053991238, 0.0000005885446, -0.000068216024, -1622563.8, -5442.266, 0.0, 10.000002, 9.993544 
1.495e+3, 1.4497514e+2, -1534462.4, -1548146.1, 0.0051834956, 0.00000058228875, 0.00007101683, -1534462.4, -15218.778, 0.0, 10.000002, 9.981864 
1.495e+3, 1.5495703e+2, -1436734.6, -1450821.9, -0.0058562965, 0.0000005817629, -0.000056849505, -1436734.6, -15313.61, 0.0, 10.000002, 9.981332 
1.495e+3, 1.6493228e+2, -1348683.8, -1371952.3, 0.0012169982, 0.00000057932044, 0.000047478527, -1348683.8, -25020.098, 0.0, 10.000002, 9.969248 
1.495e+3, 1.7490156e+2, -1250725.8, -1274310.1, -0.007081778, 0.00000057492366, -0.00007371647, -1250725.8, -24761.094, 0.0, 10.000002, 9.968834 
1.495e+3, 1.8486422e+2, -1162644.8, -1195720.0, 0.00165828, 0.00000057084117, 0.00006624913, -1162644.8, -34314.15, 0.0, 10.000002, 9.956394 
1.495e+3, 1.9482066e+2, -1064495.0, -1097832.9, -0.0069907336, 0.0000005670691, -0.00005755005, -1064495.0, -33737.492, 0.0, 10.000002, 9.956052 
1.495e+3, 2.0477042e+2, -976331.06, -1019434.94, 0.0010542596, 0.0000005641004, 0.00006817755, -976331.06, -43081.24, 0.0, 10.000002, 9.94329 
1.495e+3, 2.1471375e+2, -878044.06, -921409.8, -0.0072382884, 0.00000056199735, -0.00012674488, -878044.06, -42238.832, 0.0, 10.000002, 9.942948 
1.495e+3, 2.2465037e+2, -789758.0, -843144.8, 0.00087022403, 0.00000055988573, 0.00012095361, -789758.0, -51331.727, 0.0, 10.000002, 9.929907 
1.495e+3, 2.3458035e+2, -691324.5, -744966.4, -0.0073779766, 0.00000055776076, -0.00008874336, -691324.5, -50211.973, 0.0, 10.000002, 9.929576 
1.495e+3, 2.4450338e+2, -603000.44, -667018.75, -0.0004934038, 0.000000554501, 0.000074779804, -603000.44, -59133.57, 0.0, 10.000002, 9.916135 
1.495e+3, 2.5441962e+2, -504247.78, -568343.25, -0.0076786084, 0.0000005498832, -0.00010667554, -504247.78, -57560.234, 0.0, 10.000002, 9.916036 
1.495e+3, 2.643288e+2, -416012.38, -490987.84, 0.0016561812, 0.0000005492694, 0.00014064719, -416012.38, -66434.71, 0.0, 10.000002, 9.901964 
1.495e+3, 2.742313e+2, -316727.16, -391374.75, -0.006129615, 0.00000055375244, -0.00020339733, -316727.16, -64194.16, 0.0, 10.000002, 9.902384 
1.495e+3, 2.841256e+2, -230253.92, -318081.22, 0.00043038343, 0.000000551434, 0.00022908718, -230253.92, -74684.94, 0.0, 10.000002, 9.885438 
1.495e+3, 2.940121e+2, -130547.79, -217765.0, -0.007082249, 0.00000053978175, -0.00025330606, -130547.79, -71866.38, 0.0, 10.000002, 9.886216 
1.495e+3, 3.0392656e+2, -40803.79, -84750.16, 0.0012673151, 0.0000005375071, 0.00017316565, -40803.79, -40803.79, 0.0, 10.000002, 9.942172 
1.495e+3, 3.138706e+2, -39725.777, -82511.21, -0.0043821638, 0.000000549234, -0.000055125165, -39725.777, -39725.777, 0.0, 10.000002, 9.943684 
1.5050001e+3, 1.24993354e+2, -1719944.0, -1724224.5, 0.007410255, 0.00000061730435, 0.00001774574, -1719944.0, -4878.891, 0.0, 10.000002, 9.994327 
1.5050001e+3, 1.3498761e+2, -1622563.6, -1627434.8, -0.0053401706, 0.00000060409656, -0.00006820266, -1622563.6, -5442.124, 0.0, 10.000002, 9.993544 
1.5050001e+3, 1.4497514e+2, -1534462.3, -1548146.1, 0.0045537148, 0.00000059750715, 0.00007101391, -1534462.3, -15218.637, 0.0, 10.000002, 9.981864 
1.5050001e+3, 1.5495703e+2, -1436734.5, -1450821.8, -0.0034772228, 0.0000005976454, -0.0000568455, -1436734.5, -15313.474, 0.0, 10.000002, 9.981332 
1.5050001e+3, 1.6493228e+2, -1348683.6, -1371952.3, 0.0046399226, 0.0000005953435, 0.000047484766, -1348683.6, -25019.963, 0.0, 10.000002, 9.969248 
1.5050001e+3, 1.7490156e+2, -1250725.6, -1274310.0, -0.0050668446, 0.0000005905557, -0.000073712734, -1250725.6, -24760.957, 0.0, 10.000002, 9.968834 
1.505e+3, 1.8486422e+2, -1162644.6, -1195720.0, 0.0032675192, 0.0000005862603, 0.00006625182, -1162644.6, -34314.01, 0.0, 10.000002, 9.956394 
1.505e+3, 1.9482066e+2, -1064494.9, -1097832.9, -0.0058492734, 0.0000005824541, -0.00005754684, -1064494.9, -33737.36, 0.0, 10.000002, 9.956052 
1.505e+3, 2.0477042e+2, -976330.94, -1019434.9, 0.0023840847, 0.0000005794636, 0.00006818075, -976330.94, -43081.105, 0.0, 10.000002, 9.94329 
1.505e+3, 2.1471375e+2, -878043.94, -921409.75, -0.006186257, 0.00000057735105, -0.00012674223, -878043.94, -42238.703, 0.0, 10.000002, 9.942948 
1.505e+3, 2.2465037e+2, -789757.8, -843144.75, 0.0020547442, 0.00000057524073, 0.00012095597, -789757.8, -51331.598, 0.0, 10.000002, 9.929907 
1.505e+3, 2.3458035e+2, -691324.4, -744966.4, -0.0059991735, 0.0000005731306, -0.00008874097, -691324.4, -50211.844, 0.0, 10.000002, 9.929576 
1.505e+3, 2.4450338e+2, -603000.3, -667018.7, 0.0009942474, 0.0000005697918, 0.00007478212, -603000.3, -59133.44, 0.0, 10.000002, 9.916135 
1.505e+3, 2.5441962e+2, -504247.66, -568343.25, -0.0076679047, 0.0000005649822, -0.00010667345, -504247.66, -57560.11, 0.0, 10.000002, 9.916036 
1.505e+3, 2.643288e+2, -416012.25, -490987.8, 0.0015415293, 0.00000056435147, 0.00014064915, -416012.25, -66434.586, 0.0, 10.000002, 9.901964 
1.505e+3, 2.742313e+2, -316727.03, -391374.72, -0.0053584934, 0.00000056904, -0.00020339541, -316727.03, -64194.04, 0.0, 10.000002, 9.902384 
1.505e+3, 2.841256e+2, -230253.8, -318081.2, 0.0024089033, 0.0000005666554, 0.00022908897, -230253.8, -74684.81, 0.0, 10.000002, 9.885438 
1.505e+3, 2.940121e+2, -130547.664, -217764.97, -0.0043519707, 0.000000554564, -0.00025330455, -130547.664, -71866.26, 0.0, 10.000002, 9.886216 
1.505e+3, 3.0392656e+2, -40803.668, -84750.125, 0.0043228464, 0.00000055224086, 0.00017316685, -40803.668, -40803.668, 0.0, 10.000002, 9.942172 
1.505e+3, 3.138706e+2, -39725.66, -82511.17, -0.002921145, 0.0000005645027, -0.00005512428, -39725.66, -39725.66, 0.0, 10.000002, 9.943684 
1.5150002e+3, 1.24993354e+2, -1719944.0, -1724224.5, 0.0027922662, 0.0000006333746, 0.000017749744, -1719944.0, -4878.9243, 0.0, 10.000002, 9.994327 
1.5150002e+3, 1.3498761e+2, -1622563.6, -1627434.8, -0.0099595785, 0.0000006207015, -0.00006819028, -1622563.6, -5442.1563, 0.0, 10.000002, 9.993544 
1.5150002e+3, 1.4497514e+2, -1534462.3, -1548146.1, 0.00026063694, 0.00000061413215, 0.00007100734, -1534462.3, -15218.658, 0.0, 10.000002, 9.981864 
1.5150002e+3, 1.5495703e+2, -1436734.5, -1450821.9, -0.007770676, 0.00000061376375, -0.00005684186, -1436734.5, -15313.494, 0.0, 10.000002, 9.981332 
1.5150002e+3, 1.6493228e+2, -1348683.6, -1371952.3, 0.0009146703, 0.0000006112595, 0.000047493184, -1348683.6, -25019.986, 0.0, 10.000002, 9.969248 
1.5150002e+3, 1.7490156e+2, -1250725.6, -1274310.1, -0.008789556, 0.0000006065911, -0.00007370499, -1250725.6, -24760.98, 0.0, 10.000002, 9.968834 
1.5150002e+3, 1.8486422e+2, -1162644.6, -1195720.0, 0.000055119694, 0.00000060231895, 0.00006625511, -1162644.6, -34314.035, 0.0, 10.000002, 9.956394 
1.5150002e+3, 1.9482066e+2, -1064494.9, -1097832.9, -0.009055878, 0.00000059843677, -0.000057551966, -1064494.9, -33737.38, 0.0, 10.000002, 9.956051 
1.5150002e+3, 2.0477042e+2, -976330.94, -1019434.94, -0.0005731711, 0.00000059533977, 0.0000681793, -976330.94, -43081.125, 0.0, 10.000002, 9.94329 
1.5150002e+3, 2.1471375e+2, -878043.94, -921409.8, -0.009138517, 0.00000059308866, -0.00012672693, -878043.94, -42238.723, 0.0, 10.000002, 9.942948 
1.5150002e+3, 2.2465037e+2, -789757.9, -843144.8, -0.00011609618, 0.00000059088717, 0.0001209736, -789757.9, -51331.617, 0.0, 10.000002, 9.929907 
1.5150002e+3, 2.3458035e+2, -691324.4, -744966.4, -0.008144541, 0.0000005887394, -0.000088737404, -691324.4, -50211.86, 0.0, 10.000002, 9.929576 
1.5150002e+3, 2.4450338e+2, -603000.3, -667018.75, -0.0010069194, 0.0000005853828, 0.000074780306, -603000.3, -59133.46, 0.0, 10.000002, 9.916135 
1.5150002e+3, 2.5441962e+2, -504247.66, -568343.25, -0.009662228, 0.00000058057907, -0.00010667024, -504247.66, -57560.13, 0.0, 10.000002, 9.916036 
1.5150002e+3, 2.643288e+2, -416012.28, -490987.84, 0.0001892681, 0.0000005798691, 0.00014065485, -416012.28, -66434.6, 0.0, 10.000002, 9.901964 
1.5150002e+3, 2.742313e+2, -316727.06, -391374.75, -0.0066677746, 0.00000058437035, -0.00020339042, -316727.06, -64194.055, 0.0, 10.000002, 9.902384 
1.5150002e+3, 2.841256e+2, -230253.81, -318081.22, 0.0015277566, 0.0000005820032, 0.00022909218, -230253.81, -74684.83, 0.0, 10.000002, 9.885438 
1.5150002e+3, 2.940121e+2, -130547.68, -217765.0, -0.0051946198, 0.00000057021003, -0.00025330452, -130547.68, -71866.27, 0.0, 10.000002, 9.886216 
1.5150002e+3, 3.0392656e+2, -40803.688, -84750.16, 0.0038316501, 0.0000005678693, 0.00017316458, -40803.688, -40803.688, 0.0, 10.000002, 9.942172 
1.5150002e+3, 3.138706e+2, -39725.676, -82511.21, -0.0033711647, 0.0000005796419, -0.000055127613, -39725.676, -39725.676, 0.0, 10.000002, 9.943684 
1.5250002e+3, 1.24993354e+2, -1719943.9, -1724224.5, 0.0066776164, 0.00000064930214, 0.00001775234, -1719943.9, -4878.775, 0.0, 10.000002, 9.994327 
1.5250002e+3, 1.3498761e+2, -1622563.5, -1627434.8, -0.0009591008, 0.0000006379332, -0.00006817719, -1622563.5, -5442.007, 0.0, 10.000002, 9.993544 
1.5250002e+3, 1.4497514e+2, -1534462.1, -1548146.1, 0.009703724, 0.0000006316001, 0.00007100463, -1534462.1, -15218.51, 0.0, 10.000002, 9.981864 
1.5250002e+3, 1.5495703e+2, -1436734.4, -1450821.8, -0.0023292555, 0.00000063037515, -0.000056837715, -1436734.4, -15313.35, 0.0, 10.000002, 9.981332 
1.5250002e+3, 1.6493228e+2, -1348683.5, -1371952.3, 0.0054817367, 0.0000006274962, 0.000047499518, -1348683.5, -25019.842, 0.0, 10.000002, 9.969247 
1.5250002e+3, 1.7490156e+2, -1250725.5, -1274310.0, -0.0038695366, 0.00000062294663, -0.000073701194, -1250725.5, -24760.838, 0.0, 10.000002, 9.968834 
1.5250002e+3, 1.8486422e+2, -1162644.5, -1195720.0, 0.0052401777, 0.0000006187625, 0.00006625788, -1162644.5, -34313.89, 0.0, 10.000002, 9.956394 
1.5250002e+3, 1.9482066e+2, -1064494.8, -1097832.9, -0.004287121, 0.000000614942, -0.00005754861, -1064494.8, -33737.242, 0.0, 10.000002, 9.956051 
1.5250002e+3, 2.0477042e+2, -976330.8, -1019434.9, 0.004039039, 0.00000061176604, 0.00006818268, -976330.8, -43080.99, 0.0, 10.000002, 9.94329 
1.5250002e+3, 2.1471375e+2, -878043.8, -921409.75, -0.0052527953, 0.0000006092857, -0.00012672413, -878043.8, -42238.586, 0.0, 10.000002, 9.942948 
1.5250002e+3, 2.2465037e+2, -789757.75, -843144.75, 0.0036082228, 0.00000060690485, 0.000120976096, -789757.75, -51331.48, 0.0, 10.000002, 9.929907 
1.5250002e+3, 2.3458035e+2, -691324.25, -744966.3, -0.0055363583, 0.00000060463213, -0.000088734865, -691324.25, -50211.727, 0.0, 10.000002, 9.929576 
1.5250002e+3, 2.4450338e+2, -603000.2, -667018.7, 0.0014842815, 0.0000006012689, 0.00007478274, -603000.2, -59133.33, 0.0, 10.000002, 9.916135 
1.5250002e+3, 2.5441962e+2, -504247.53, -568343.25, -0.0065445933, 0.0000005966004, -0.00010666806, -504247.53, -57559.996, 0.0, 10.000002, 9.916035 
1.5250002e+3, 2.643288e+2, -416012.13, -490987.8, 0.003431729, 0.0000005958289, 0.00014065686, -416012.13, -66434.47, 0.0, 10.000002, 9.901964 
1.5250002e+3, 2.742313e+2, -316726.94, -391374.7, -0.005227355, 0.00000060001827, -0.00020338847, -316726.94, -64193.92, 0.0, 10.000002, 9.902384 
1.5250002e+3, 2.841256e+2, -230253.67, -318081.2, 0.0017099739, 0.0000005976752, 0.00022909399, -230253.67, -74684.7, 0.0, 10.000002, 9.885438 
1.5250002e+3, 2.940121e+2, -130547.555, -217764.97, -0.0066495733, 0.000000586367, -0.00025330298, -130547.555, -71866.14, 0.0, 10.000002, 9.886216 
1.5250002e+3, 3.0392656e+2, -40803.56, -84750.125, 0.0020001668, 0.0000005840421, 0.00017316578, -40803.56, -40803.56, 0.0, 10.000002, 9.942172 
1.5250002e+3, 3.138706e+2, -39725.55, -82511.17, -0.004469059, 0.00000059512996, -0.000055126755, -39725.55, -39725.55, 0.0, 10.000002, 9.943684 
1.535e+3, 1.24993354e+2, -1719943.9, -1724224.5, 0.0022678373, 0.0000006650763, 0.000017752496, -1719943.9, -4878.7964, 0.0, 10.000002, 9.994327 
1.535e+3, 1.3498761e+2, -1622563.5, -1627434.8, -0.005363922, 0.00000065578877, -0.00006816338, -1622563.5, -5442.028, 0.0, 10.000002, 9.993544 
1.535e+3, 1.4497514e+2, -1534462.1, -1548146.1, 0.004677281, 0.00000064990974, 0.00007100578, -1534462.1, -15218.54, 0.0, 10.000002, 9.981864 
1.535e+3, 1.5495703e+2, -1436734.4, -1450821.9, -0.007357568, 0.00000064747553, -0.000056833054, -1436734.4, -15313.38, 0.0, 10.000002, 9.981332 
1.535e+3, 1.6493228e+2, -1348683.5, -1371952.3, 0.0017831267, 0.00000064404924, 0.000047503774, -1348683.5, -25019.865, 0.0, 10.000002, 9.969247 
1.535e+3, 1.7490156e+2, -1250725.5, -1274310.1, -0.007564075, 0.0000006396222, -0.00007370134, -1250725.5, -24760.861, 0.0, 10.000002, 9.968834 
1.535e+3, 1.8486422e+2, -1162644.5, -1195720.0, 0.0015615699, 0.0000006355908, 0.00006626016, -1162644.5, -34313.914, 0.0, 10.000002, 9.956394 
1.535e+3, 1.9482066e+2, -1064494.8, -1097832.9, -0.007965179, 0.00000063196893, -0.00005753677, -1064494.8, -33737.26, 0.0, 10.000002, 9.956051 
1.535e+3, 2.0477042e+2, -976330.9, -1019434.94, 0.00089682324, 0.0000006287417, 0.00006819088, -976330.9, -43081.01, 0.0, 10.000002, 9.94329 
1.535e+3, 2.1471375e+2, -878043.9, -921409.8, -0.0083823055, 0.00000062594205, -0.00012673387, -878043.9, -42238.61, 0.0, 10.000002, 9.942948 
1.535e+3, 2.2465037e+2, -789757.75, -843144.8, 0.0011907325, 0.0000006232935, 0.000120963465, -789757.75, -51331.504, 0.0, 10.000002, 9.929907 
1.535e+3, 2.3458035e+2, -691324.25, -744966.4, -0.00793017, 0.00000062080863, -0.00008873336, -691324.25, -50211.746, 0.0, 10.000002, 9.929576 
1.535e+3, 2.4450338e+2, -603000.2, -667018.75, -0.00062971696, 0.00000061744987, 0.00007478943, -603000.2, -59133.344, 0.0, 10.000002, 9.916135 
1.535e+3, 2.5441962e+2, -504247.56, -568343.25, -0.0086451145, 0.00000061304615, -0.00010666692, -504247.56, -57560.01, 0.0, 10.000002, 9.916035 
1.535e+3, 2.643288e+2, -416012.16, -490987.84, 0.001834513, 0.0000006122308, 0.00014065516, -416012.16, -66434.484, 0.0, 10.000002, 9.901964 
1.535e+3, 2.742313e+2, -316726.94, -391374.75, -0.006790509, 0.0000006159838, -0.00020338954, -316726.94, -64193.94, 0.0, 10.000002, 9.902384 
1.535e+3, 2.841256e+2, -230253.7, -318081.22, 0.00074279774, 0.00000061367143, 0.00022909437, -230253.7, -74684.72, 0.0, 10.000002, 9.885438 
1.535e+3, 2.940121e+2, -130547.57, -217765.0, -0.0075627603, 0.00000060303483, -0.00025329998, -130547.57, -71866.164, 0.0, 10.000002, 9.886216 
1.535e+3, 3.0392656e+2, -40803.574, -84750.16, 0.0014000294, 0.0000006007593, 0.00017317048, -40803.574, -40803.574, 0.0, 10.000002, 9.942172 
1.535e+3, 3.138706e+2, -39725.566, -82511.21, -0.0050321687, 0.0000006109669, -0.000055121705, -39725.566, -39725.566, 0.0, 10.000002, 9.943684 
1.5450001e+3, 1.24993354e+2, -1719943.8, -1724224.5, 0.00893439, 0.0000006827082, 0.000017755427, -1719943.8, -4878.6377, 0.0, 10.000002, 9.994326 
1.5450001e+3, 1.3498761e+2, -1622563.4, -1627434.8, -0.0044849007, 0.0000006730993, -0.000068153444, -1622563.4, -5441.8726, 0.0, 10.000002, 9.993544 
1.5450001e+3, 1.4497514e+2, -1534461.9, -1548146.1, 0.004057355, 0.00000066735026, 0.00007100426, -1534461.9, -15218.387, 0.0, 10.000002, 9.981864 
1.5450001e+3, 1.5495703e+2, -1436734.3, -1450821.8, -0.004856897, 0.0000006654774, -0.000056828994, -1436734.3, -15313.226, 0.0, 10.000002, 9.981332 
1.5450001e+3, 1.6493228e+2, -1348683.4, -1371952.3, 0.006009212, 0.0000006618408, 0.000047509577, -1348683.4, -25019.713, 0.0, 10.000002, 9.969247 
1.5450001e+3, 1.7490156e+2, -1250725.4, -1274310.0, -0.0047949445, 0.0000006564131, -0.000073697745, -1250725.4, -24760.71, 0.0, 10.000002, 9.968834 
1.5450001e+3, 1.8486422e+2, -1162644.4, -1195720.0, 0.003716816, 0.00000065228676, 0.00006626291, -1162644.4, -34313.766, 0.0, 10.000002, 9.956394 
1.5450001e+3, 1.9482066e+2, -1064494.6, -1097832.9, -0.006190191, 0.00000064952593, -0.000057533434, -1064494.6, -33737.117, 0.0, 10.000002, 9.956051 
1.5450001e+3, 2.0477042e+2, -976330.7, -1019434.9, 0.002824922, 0.00000064638215, 0.000068194335, -976330.7, -43080.863, 0.0, 10.000002, 9.94329 
1.5450001e+3, 2.1471375e+2, -878043.7, -921409.75, -0.0069401218, 0.00000064282364, -0.0001267308, -878043.7, -42238.46, 0.0, 10.000002, 9.942948 
1.5450001e+3, 2.2465037e+2, -789757.6, -843144.75, 0.0028882155, 0.00000063986175, 0.00012096629, -789757.6, -51331.36, 0.0, 10.000002, 9.929907 
1.5450001e+3, 2.3458035e+2, -691324.1, -744966.3, -0.00602665, 0.0000006375686, -0.00008873062, -691324.1, -50211.605, 0.0, 10.000002, 9.929576 
1.5450001e+3, 2.4450338e+2, -603000.06, -667018.7, 0.0013696005, 0.00000063429695, 0.000074791955, -603000.06, -59133.203, 0.0, 10.000002, 9.916135 
1.5450001e+3, 2.5441962e+2, -504247.4, -568343.2, -0.008098537, 0.00000062985583, -0.000106664746, -504247.4, -57559.87, 0.0, 10.000002, 9.916035 
1.5450001e+3, 2.643288e+2, -416012.0, -490987.8, 0.0022572032, 0.00000062891047, 0.0001406571, -416012.0, -66434.34, 0.0, 10.000002, 9.901964 
1.5450001e+3, 2.742313e+2, -316726.8, -391374.7, -0.00554878, 0.00000063241555, -0.00020338774, -316726.8, -64193.8, 0.0, 10.000002, 9.902384 
1.5450001e+3, 2.841256e+2, -230253.56, -318081.2, 0.0032685024, 0.00000063016216, 0.00022909605, -230253.56, -74684.58, 0.0, 10.000002, 9.885438 
1.5450001e+3, 2.940121e+2, -130547.44, -217764.97, -0.004355422, 0.0000006200055, -0.00025329844, -130547.44, -71866.02, 0.0, 10.000002, 9.886216 
1.5450001e+3, 3.0392656e+2, -40803.44, -84750.12, 0.0048076315, 0.00000061778076, 0.00017317175, -40803.44, -40803.44, 0.0, 10.000002, 9.942172 
1.5450001e+3, 3.138706e+2, -39725.43, -82511.17, -0.0032796839, 0.0000006273985, -0.000055120952, -39725.43, -39725.43, 0.0, 10.000002, 9.943684 
1.5550001e+3, 1.24993354e+2, -1719943.8, -1724224.5, 0.0038332518, 0.0000007022017, 0.000017760502, -1719943.8, -4878.673, 0.0, 10.000002, 9.994326 
1.5550001e+3, 1.3498761e+2, -1622563.4, -1627434.8, -0.009583952, 0.0000006898661, -0.00006814738, -1622563.4, -5441.9067, 0.0, 10.000002, 9.993544 
1.5550001e+3, 1.4497514e+2, -1534462.0, -1548146.1, -0.0007144131, 0.00000068392086, 0.00007100007, -1534462.0, -15218.41, 0.0, 10.000002, 9.981864 
1.5550001e+3, 1.5495703e+2, -1436734.3, -1450821.9, -0.009629616, 0.00000068438055, -0.000056825527, -1436734.3, -15313.249, 0.0, 10.000002, 9.981332 
1.5550001e+3, 1.6493228e+2, -1348683.4, -1371952.3, 0.0016008078, 0.0000006808706, 0.00004751692, -1348683.4, -25019.74, 0.0, 10.000002, 9.969247 
1.5550001e+3, 1.7490156e+2, -1250725.4, -1274310.1, -0.009203279, 0.0000006733168, -0.00007369041, -1250725.4, -24760.736, 0.0, 10.000002, 9.968834 
1.5550001e+3, 1.8486422e+2, -1162644.4, -1195720.0, -0.000099497534, 0.00000066884866, 0.00006626613, -1162644.4, -34313.79, 0.0, 10.000002, 9.956394 
1.5550001e+3, 1.9482066e+2, -1064494.6, -1097832.9, -0.010000009, 0.0000006676128, -0.0000575386, -1064494.6, -33737.14, 0.0, 10.000002, 9.956051 
1.5550001e+3, 2.0477042e+2, -976330.75, -1019434.94, -0.00036586868, 0.00000066468743, 0.00006819305, -976330.75, -43080.887, 0.0, 10.000002, 9.94329 
1.5550001e+3, 2.1471375e+2, -878043.75, -921409.8, -0.010117589, 0.00000065993027, -0.00012671492, -878043.75, -42238.484, 0.0, 10.000002, 9.942948 
1.5550001e+3, 2.2465037e+2, -789757.6, -843144.8, -0.00016415013, 0.0000006566091, 0.00012098456, -789757.6, -51331.38, 0.0, 10.000002, 9.929907 
1.5550001e+3, 2.3458035e+2, -691324.1, -744966.4, -0.009074951, 0.00000065491184, -0.000088726665, -691324.1, -50211.625, 0.0, 10.000002, 9.929576 
1.5550001e+3, 2.4450338e+2, -603000.06, -667018.75, -0.000649951, 0.00000065181007, 0.00007479032, -603000.06, -59133.227, 0.0, 10.000002, 9.916135 
1.5550001e+3, 2.5441962e+2, -504247.44, -568343.25, -0.010068089, 0.00000064702954, -0.00010666154, -504247.44, -57559.895, 0.0, 10.000002, 9.916035 
1.5550001e+3, 2.643288e+2, -416012.03, -490987.84, 0.00049048493, 0.00000064586783, 0.00014066265, -416012.03, -66434.37, 0.0, 10.000002, 9.901964 
1.5550001e+3, 2.742313e+2, -316726.8, -391374.72, -0.0073014465, 0.0000006493134, -0.00020338301, -316726.8, -64193.82, 0.0, 10.000002, 9.902384 
1.5550001e+3, 2.841256e+2, -230253.58, -318081.22, 0.0020060923, 0.00000064714743, 0.00022909905, -230253.58, -74684.6, 0.0, 10.000002, 9.885438 
1.5550001e+3, 2.940121e+2, -130547.45, -217765.0, -0.0055732, 0.00000063727896, -0.00025329835, -130547.45, -71866.05, 0.0, 10.000002, 9.886216 
1.5550001e+3, 3.0392656e+2, -40803.457, -84750.16, 0.0044112294, 0.0000006351064, 0.00017316955, -40803.457, -40803.457, 0.0, 10.000002, 9.942172 
1.5550001e+3, 3.138706e+2, -39725.45, -82511.21, -0.0035790496, 0.00000064442474, -0.000055124496, -39725.45, -39725.45, 0.0, 10.000002, 9.943684 
1.5650001e+3, 1.24993354e+2, -1719943.6, -1724224.5, 0.007942167, 0.000000720756, 0.000017763627, -1719943.6, -4878.5054, 0.0, 10.000002, 9.994326 
1.5650001e+3, 1.3498761e+2, -1622563.1, -1627434.8, -0.0008806177, 0.0000007084604, -0.0000681388, -1622563.1, -5441.7437, 0.0, 10.000002, 9.993544 
1.5650001e+3, 1.4497514e+2, -1534461.8, -1548146.1, 0.009293936, 0.00000070230544, 0.000071000424, -1534461.8, -15218.248, 0.0, 10.000002, 9.981864 
1.5650001e+3, 1.5495703e+2, -1436734.1, -1450821.8, -0.0033991875, 0.0000007022955, -0.000056821424, -1436734.1, -15313.087, 0.0, 10.000002, 9.981332 
1.5650001e+3, 1.6493228e+2, -1348683.1, -1371952.3, 0.006151959, 0.0000006987632, 0.000047522248, -1348683.1, -25019.578, 0.0, 10.000002, 9.969247 
1.5650001e+3, 1.7490156e+2, -1250725.1, -1274310.0, -0.0041649537, 0.000000691641, -0.00007368645, -1250725.1, -24760.58, 0.0, 10.000002, 9.968834 
1.5650001e+3, 1.8486422e+2, -1162644.3, -1195720.0, 0.0058674864, 0.0000006871529, 0.00006626946, -1162644.3, -34313.633, 0.0, 10.000002, 9.956394 
1.5650001e+3, 1.9482066e+2, -1064494.5, -1097832.9, -0.004735029, 0.00000068542346, -0.00005753514, -1064494.5, -33736.984, 0.0, 10.000002, 9.956051 
1.5650001e+3, 2.0477043e+2, -976330.56, -1019434.9, 0.0045391154, 0.0000006823366, 0.000068196525, -976330.56, -43080.73, 0.0, 10.000002, 9.94329 
1.5650001e+3, 2.1471375e+2, -878043.56, -921409.75, -0.0054930015, 0.0000006777775, -0.00012671156, -878043.56, -42238.332, 0.0, 10.000002, 9.942948 
1.5650001e+3, 2.2465037e+2, -789757.44, -843144.75, 0.0044309, 0.0000006744703, 0.0001209877, -789757.44, -51331.227, 0.0, 10.000002, 9.929907 
1.5650001e+3, 2.3458035e+2, -691324.0, -744966.3, -0.0058847354, 0.00000067258094, -0.00008872387, -691324.0, -50211.473, 0.0, 10.000002, 9.929576 
1.5650001e+3, 2.4450338e+2, -602999.94, -667018.7, 0.0023370713, 0.00000066946797, 0.00007479283, -602999.94, -59133.074, 0.0, 10.000002, 9.916135 
1.5650001e+3, 2.5441962e+2, -504247.28, -568343.2, -0.0067560333, 0.00000066489184, -0.00010665926, -504247.28, -57559.746, 0.0, 10.000002, 9.916035 
1.5650001e+3, 2.643288e+2, -416011.88, -490987.78, 0.003728061, 0.00000066358234, 0.00014066469, -416011.88, -66434.22, 0.0, 10.000002, 9.901963 
1.5650001e+3, 2.742313e+2, -316726.7, -391374.7, -0.0058623496, 0.00000066643145, -0.00020338122, -316726.7, -64193.676, 0.0, 10.000002, 9.902384 
1.5650001e+3, 2.841256e+2, -230253.42, -318081.2, 0.0023197327, 0.00000066432426, 0.0002291006, -230253.42, -74684.45, 0.0, 10.000002, 9.885438 
1.5650001e+3, 2.940121e+2, -130547.305, -217764.95, -0.006918949, 0.0000006554136, -0.0002532971, -130547.305, -71865.9, 0.0, 10.000002, 9.886216 
1.5650001e+3, 3.0392656e+2, -40803.316, -84750.12, 0.0025095977, 0.0000006532707, 0.00017317057, -40803.316, -40803.316, 0.0, 10.000002, 9.942172 
1.5650001e+3, 3.138706e+2, -39725.31, -82511.17, -0.004876895, 0.0000006612327, -0.00005512364, -39725.31, -39725.31, 0.0, 10.000002, 9.943684 
1.5750001e+3, 1.24993354e+2, -1719943.6, -1724224.5, 0.0019536593, 0.0000007383703, 0.000017764729, -1719943.6, -4878.53, 0.0, 10.000002, 9.994326 
1.5750001e+3, 1.3498761e+2, -1622563.3, -1627434.8, -0.006867949, 0.00000072888196, -0.00006812768, -1622563.3, -5441.768, 0.0, 10.000002, 9.993544 
1.5750001e+3, 1.4497514e+2, -1534461.9, -1548146.1, 0.0046638953, 0.000000722504, 0.00007100532, -1534461.9, -15218.281, 0.0, 10.000002, 9.981864 
1.5750001e+3, 1.5495703e+2, -1436734.1, -1450821.9, -0.008027962, 0.00000071922153, -0.00005681669, -1436734.1, -15313.119, 0.0, 10.000002, 9.981332 
1.5750001e+3, 1.6493228e+2, -1348683.3, -1371952.3, 0.0010946279, 0.00000071551784, 0.000047525547, -1348683.3, -25019.605, 0.0, 10.000002, 9.969247 
1.5750001e+3, 1.7490156e+2, -1250725.3, -1274310.1, -0.009225452, 0.0000007113856, -0.00007368587, -1250725.3, -24760.605, 0.0, 10.000002, 9.968834 
1.5750001e+3, 1.8486422e+2, -1162644.3, -1195720.0, 0.0022240805, 0.00000070719955, 0.00006627289, -1162644.3, -34313.66, 0.0, 10.000002, 9.956394 
1.5750001e+3, 1.9482066e+2, -1064494.5, -1097832.9, -0.008362881, 0.00000070295744, -0.00005752305, -1064494.5, -33737.008, 0.0, 10.000002, 9.956051 
1.5750001e+3, 2.0477043e+2, -976330.56, -1019434.94, 0.00054175063, 0.000000699329, 0.00006820476, -976330.56, -43080.754, 0.0, 10.000002, 9.94329 
1.5750001e+3, 2.1471375e+2, -878043.56, -921409.8, -0.009498457, 0.0000006963653, -0.0001267207, -878043.56, -42238.355, 0.0, 10.000002, 9.942948 
1.5750001e+3, 2.2465037e+2, -789757.5, -843144.8, 0.0018410484, 0.00000069344543, 0.00012097572, -789757.5, -51331.254, 0.0, 10.000002, 9.929907 
1.5750001e+3, 2.3458035e+2, -691324.0, -744966.4, -0.008428151, 0.0000006905757, -0.000088722234, -691324.0, -50211.496, 0.0, 10.000002, 9.929576 
1.5750001e+3, 2.445034e+2, -602999.94, -667018.7, -0.00039054744, 0.00000068727036, 0.00007479947, -602999.94, -59133.094, 0.0, 10.000002, 9.916135 
1.5750001e+3, 2.5441962e+2, -504247.3, -568343.25, -0.009492311, 0.0000006834427, -0.0001066579, -504247.3, -57559.766, 0.0, 10.000002, 9.916035 
1.5750001e+3, 2.643288e+2, -416011.9, -490987.84, 0.0018784548, 0.00000068205384, 0.00014066324, -416011.9, -66434.24, 0.0, 10.000002, 9.901963 
1.5750001e+3, 2.742313e+2, -316726.7, -391374.75, -0.0076521686, 0.0000006837697, -0.00020338234, -316726.7, -64193.695, 0.0, 10.000002, 9.902384 
1.5750001e+3, 2.841256e+2, -230253.45, -318081.22, 0.0013499508, 0.00000068169254, 0.00022910065, -230253.45, -74684.48, 0.0, 10.000002, 9.885438 
1.5750001e+3, 2.940121e+2, -130547.33, -217765.0, -0.007814182, 0.00000067440953, -0.0002532947, -130547.33, -71865.914, 0.0, 10.000002, 9.886216 
1.5750001e+3, 3.0392656e+2, -40803.332, -84750.16, 0.0012419806, 0.00000067227364, 0.00017317479, -40803.332, -40803.332, 0.0, 10.000002, 9.942172 
1.5750001e+3, 3.138706e+2, -39725.33, -82511.21, -0.006187514, 0.0000006778224, -0.00005511839, -39725.33, -39725.33, 0.0, 10.000002, 9.943683 
1.5850002e+3, 1.24993354e+2, -1719943.5, -1724224.5, 0.009146833, 0.0000007588471, 0.000017769406, -1719943.5, -4878.3525, 0.0, 10.000002, 9.994326 
1.5850002e+3, 1.3498761e+2, -1622563.0, -1627434.6, -0.0055569904, 0.00000074805956, -0.00006811976, -1622563.0, -5441.595, 0.0, 10.000002, 9.993544 
1.5850002e+3, 1.4497514e+2, -1534461.6, -1548146.1, 0.0060191974, 0.00000074104383, 0.000071006805, -1534461.6, -15218.11, 0.0, 10.000002, 9.981863 
1.5850002e+3, 1.5495703e+2, -1436734.0, -1450821.8, -0.0039852057, 0.00000073778614, -0.00005681227, -1436734.0, -15312.95, 0.0, 10.000002, 9.981332 
1.5850002e+3, 1.6493228e+2, -1348683.0, -1371952.1, 0.005536142, 0.0000007343826, 0.00004753085, -1348683.0, -25019.438, 0.0, 10.000002, 9.969247 
1.5850002e+3, 1.7490156e+2, -1250725.0, -1274310.0, -0.0063026547, 0.000000730828, -0.00007368178, -1250725.0, -24760.438, 0.0, 10.000002, 9.968833 
1.5850002e+3, 1.8486422e+2, -1162644.1, -1195719.9, 0.005150363, 0.0000007264864, 0.00006627642, -1162644.1, -34313.492, 0.0, 10.000002, 9.956394 
1.5850002e+3, 1.9482066e+2, -1064494.4, -1097832.9, -0.0057284213, 0.0000007213209, -0.0000575194, -1064494.4, -33736.848, 0.0, 10.000002, 9.956051 
1.5850002e+3, 2.0477043e+2, -976330.44, -1019434.9, 0.0030416658, 0.00000071759234, 0.000068208275, -976330.44, -43080.594, 0.0, 10.000002, 9.94329 
1.5850002e+3, 2.1471375e+2, -878043.44, -921409.75, -0.008062583, 0.00000071542075, -0.00012671761, -878043.44, -42238.19, 0.0, 10.000002, 9.942948 
1.5850002e+3, 2.2465037e+2, -789757.3, -843144.75, 0.003191782, 0.0000007125809, 0.00012097853, -789757.3, -51331.09, 0.0, 10.000002, 9.929907 
1.5850002e+3, 2.3458035e+2, -691323.8, -744966.3, -0.0066177384, 0.0000007089847, -0.00008871951, -691323.8, -50211.34, 0.0, 10.000002, 9.929576 
1.5850002e+3, 2.445034e+2, -602999.8, -667018.7, 0.0019649612, 0.00000070553335, 0.000074802025, -602999.8, -59132.94, 0.0, 10.000002, 9.916135 
1.5850002e+3, 2.5441962e+2, -504247.16, -568343.2, -0.0085841045, 0.0000007022544, -0.00010665561, -504247.16, -57559.61, 0.0, 10.000002, 9.916035 
1.5850002e+3, 2.643288e+2, -416011.75, -490987.78, 0.0023766265, 0.00000070091863, 0.0001406653, -416011.75, -66434.08, 0.0, 10.000002, 9.901963 
1.5850002e+3, 2.742313e+2, -316726.53, -391374.7, -0.0066235317, 0.000000702056, -0.00020338045, -316726.53, -64193.54, 0.0, 10.000002, 9.902384 
1.5850002e+3, 2.841256e+2, -230253.3, -318081.2, 0.0037505154, 0.0000006998024, 0.0002291024, -230253.3, -74684.32, 0.0, 10.000002, 9.885438 
1.5850002e+3, 2.940121e+2, -130547.18, -217764.95, -0.0045798, 0.00000069289604, -0.00025329305, -130547.18, -71865.766, 0.0, 10.000002, 9.886216 
1.5850002e+3, 3.0392656e+2, -40803.184, -84750.12, 0.0047913897, 0.00000069082836, 0.00017317622, -40803.184, -40803.184, 0.0, 10.000002, 9.942172 
1.5850002e+3, 3.138706e+2, -39725.176, -82511.164, -0.0040397057, 0.00000069598275, -0.00005511728, -39725.176, -39725.176, 0.0, 10.000002, 9.943683 
1.5950002e+3, 1.24993354e+2, -1719943.5, -1724224.5, 0.0022631383, 0.00000078218505, 0.000017777615, -1719943.5, -4878.391, 0.0, 10.000002, 9.994326 
1.5950002e+3, 1.3498761e+2, -1622563.0, -1627434.8, -0.012438996, 0.0000007659929, -0.000068115056, -1622563.0, -5441.633, 0.0, 10.000002, 9.993544 
1.5950002e+3, 1.4497514e+2, -1534461.6, -1548146.1, 0.0010752288, 0.0000007579248, 0.00007100488, -1534461.6, -15218.137, 0.0, 10.000002, 9.981863 
1.5950002e+3, 1.5495703e+2, -1436734.0, -1450821.9, -0.008927205, 0.0000007579892, -0.000056808163, -1436734.0, -15312.977, 0.0, 10.000002, 9.981332 
1.5950002e+3, 1.6493228e+2, -1348683.0, -1371952.3, 0.0005596529, 0.00000075535735, 0.000047538153, -1348683.0, -25019.467, 0.0, 10.000002, 9.969247 
1.5950002e+3, 1.7490156e+2, -1250725.1, -1274310.0, -0.011280504, 0.000000749968, -0.00007367419, -1250725.1, -24760.467, 0.0, 10.000002, 9.968833 
1.5950002e+3, 1.8486422e+2, -1162644.1, -1195720.0, 0.0005725295, 0.00000074501315, 0.00006628005, -1162644.1, -34313.52, 0.0, 10.000002, 9.956394 
1.5950002e+3, 1.9482066e+2, -1064494.4, -1097832.9, -0.010302322, 0.00000074051326, -0.000057524187, -1064494.4, -33736.87, 0.0, 10.000002, 9.956051 
1.5950002e+3, 2.0477043e+2, -976330.44, -1019434.94, -0.000118802825, 0.0000007371265, 0.00006820705, -976330.44, -43080.62, 0.0, 10.000002, 9.94329 
1.5950002e+3, 2.1471375e+2, -878043.44, -921409.8, -0.011194461, 0.0000007349437, -0.0001267023, -878043.44, -42238.22, 0.0, 10.000002, 9.942948 
1.5950002e+3, 2.2465037e+2, -789757.3, -843144.75, -0.00083203433, 0.0000007318764, 0.00012099615, -789757.3, -51331.113, 0.0, 10.000002, 9.929907 
1.5950002e+3, 2.3458035e+2, -691323.9, -744966.4, -0.010671064, 0.00000072780796, -0.0000887157, -691323.9, -50211.363, 0.0, 10.000002, 9.929576 
1.5950002e+3, 2.445034e+2, -602999.8, -667018.7, 0.000026587593, 0.000000724257, 0.00007480049, -602999.8, -59132.965, 0.0, 10.000002, 9.916135 
1.5950002e+3, 2.5441962e+2, -504247.16, -568343.25, -0.010420792, 0.0000007213269, -0.00010665236, -504247.16, -57559.633, 0.0, 10.000002, 9.916035 
1.5950002e+3, 2.643288e+2, -416011.78, -490987.84, 0.000039419425, 0.0000007201766, 0.00014067092, -416011.78, -66434.1, 0.0, 10.000002, 9.901963 
1.5950002e+3, 2.742313e+2, -316726.56, -391374.72, -0.008993756, 0.0000007212903, -0.00020337553, -316726.56, -64193.563, 0.0, 10.000002, 9.902384 
1.5950002e+3, 2.841256e+2, -230253.31, -318081.22, 0.0020300276, 0.00000071865367, 0.00022910583, -230253.31, -74684.34, 0.0, 10.000002, 9.885438 
1.5950002e+3, 2.940121e+2, -130547.195, -217765.0, -0.006241164, 0.0000007108731, -0.0002532922, -130547.195, -71865.79, 0.0, 10.000002, 9.886216 
1.5950002e+3, 3.0392656e+2, -40803.207, -84750.16, 0.0045003733, 0.0000007089347, 0.00017317488, -40803.207, -40803.207, 0.0, 10.000002, 9.942172 
1.5950002e+3, 3.138706e+2, -39725.195, -82511.21, -0.004169001, 0.00000071571355, -0.000055120312, -39725.195, -39725.195, 0.0, 10.000002, 9.943683 
1.605e+3, 1.24993354e+2, -1719943.3, -1724224.5, 0.008045322, 0.00000080171674, 0.000017783083, -1719943.3, -4878.2075, 0.0, 10.000003, 9.994326 
1.605e+3, 1.3498761e+2, -1622562.9, -1627434.6, -0.0024883957, 0.0000007874643, -0.00006810649, -1622562.9, -5441.448, 0.0, 10.000003, 9.993544 
1.605e+3, 1.4497514e+2, -1534461.5, -1548146.1, 0.012248852, 0.00000077930775, 0.00007100901, -1534461.5, -15217.953, 0.0, 10.000003, 9.981863 
1.605e+3, 1.5495703e+2, -1436733.9, -1450821.8, -0.0018308852, 0.00000077723473, -0.000056803157, -1436733.9, -15312.798, 0.0, 10.000003, 9.981332 
1.605e+3, 1.6493228e+2, -1348682.9, -1371952.1, 0.006405255, 0.00000077428354, 0.000047543264, -1348682.9, -25019.291, 0.0, 10.000003, 9.969247 
1.605e+3, 1.7490156e+2, -1250724.9, -1274310.0, -0.005064129, 0.00000077043086, -0.00007366978, -1250724.9, -24760.291, 0.0, 10.000003, 9.968833 
1.605e+3, 1.8486422e+2, -1162643.9, -1195719.9, 0.006799292, 0.00000076569404, 0.000066284076, -1162643.9, -34313.344, 0.0, 10.000002, 9.956394 
1.605e+3, 1.9482066e+2, -1064494.3, -1097832.8, -0.005279111, 0.0000007600321, -0.000057520243, -1064494.3, -33736.7, 0.0, 10.000002, 9.956051 
1.605e+3, 2.0477043e+2, -976330.25, -1019434.9, 0.0052041304, 0.00000075634904, 0.00006821079, -976330.25, -43080.445, 0.0, 10.000002, 9.94329 
1.605e+3, 2.1471375e+2, -878043.25, -921409.75, -0.0054907063, 0.00000075480744, -0.0001266989, -878043.25, -42238.05, 0.0, 10.000002, 9.942948 
1.605e+3, 2.246504e+2, -789757.2, -843144.75, 0.004653466, 0.000000751849, 0.0001209993, -789757.2, -51330.945, 0.0, 10.000002, 9.929907 
1.605e+3, 2.3458035e+2, -691323.7, -744966.3, -0.0070497105, 0.0000007472866, -0.000088712724, -691323.7, -50211.19, 0.0, 10.000002, 9.929576 
1.605e+3, 2.445034e+2, -602999.6, -667018.7, 0.0034726793, 0.00000074361805, 0.000074803225, -602999.6, -59132.793, 0.0, 10.000002, 9.916135 
1.605e+3, 2.5441962e+2, -504247.0, -568343.2, -0.0066529824, 0.0000007410214, -0.00010664994, -504247.0, -57559.47, 0.0, 10.000002, 9.916035 
1.605e+3, 2.643288e+2, -416011.6, -490987.78, 0.0036933739, 0.0000007397981, 0.00014067316, -416011.6, -66433.94, 0.0, 10.000002, 9.901963 
1.605e+3, 2.742313e+2, -316726.4, -391374.7, -0.006807058, 0.0000007403199, -0.00020337335, -316726.4, -64193.4, 0.0, 10.000002, 9.902384 
1.605e+3, 2.841256e+2, -230253.16, -318081.2, 0.0032162927, 0.0000007376643, 0.0002291078, -230253.16, -74684.18, 0.0, 10.000002, 9.885438 
1.605e+3, 2.940121e+2, -130547.03, -217764.95, -0.0070346026, 0.0000007306516, -0.0002532907, -130547.03, -71865.625, 0.0, 10.000002, 9.886216 
1.605e+3, 3.0392656e+2, -40803.047, -84750.11, 0.003004844, 0.00000072871427, 0.000173176, -40803.047, -40803.047, 0.0, 10.000002, 9.942172 
1.605e+3, 3.138706e+2, -39725.04, -82511.164, -0.005572411, 0.00000073434893, -0.0000551195, -39725.04, -39725.04, 0.0, 10.000002, 9.943683 
1.615e+3, 1.24993354e+2, -1719943.4, -1724224.5, 0.0015882798, 0.0000008174427, 0.000017785807, -1719943.4, -4878.237, 0.0, 10.000003, 9.994326 
1.615e+3, 1.3498761e+2, -1622562.9, -1627434.8, -0.008944108, 0.00000081247373, -0.00006809408, -1622562.9, -5441.477, 0.0, 10.000003, 9.993544 
1.615e+3, 1.4497514e+2, -1534461.5, -1548146.1, 0.006102605, 0.0000008051924, 0.00007101919, -1534461.5, -15217.989, 0.0, 10.000003, 9.981863 
1.615e+3, 1.5495703e+2, -1436733.9, -1450821.9, -0.007977877, 0.0000007955227, -0.000056797246, -1436733.9, -15312.834, 0.0, 10.000003, 9.981332 
1.615e+3, 1.6493228e+2, -1348682.9, -1371952.3, 0.0014960972, 0.000000791161, 0.000047546182, -1348682.9, -25019.32, 0.0, 10.000003, 9.969247 
1.615e+3, 1.7490156e+2, -1250724.9, -1274310.0, -0.009967494, 0.00000079221627, -0.00007366853, -1250724.9, -24760.32, 0.0, 10.000003, 9.968833 
1.615e+3, 1.8486422e+2, -1162644.0, -1195720.0, 0.0022647104, 0.0000007885289, 0.00006628849, -1162644.0, -34313.375, 0.0, 10.000002, 9.956394 
1.615e+3, 1.9482066e+2, -1064494.3, -1097832.9, -0.009810171, 0.000000779877, -0.000057507576, -1064494.3, -33736.727, 0.0, 10.000002, 9.956051 
1.615e+3, 2.0477043e+2, -976330.3, -1019434.9, 0.00071752816, 0.0000007752596, 0.000068219495, -976330.3, -43080.473, 0.0, 10.000002, 9.94329 
1.615e+3, 2.1471375e+2, -878043.3, -921409.75, -0.009977053, 0.0000007750117, -0.0001267074, -878043.3, -42238.08, 0.0, 10.000002, 9.942948 
1.615e+3, 2.246504e+2, -789757.2, -843144.75, 0.0019457024, 0.0000007724985, 0.00012098798, -789757.2, -51330.973, 0.0, 10.000002, 9.929907 
1.615e+3, 2.3458035e+2, -691323.7, -744966.4, -0.009699497, 0.00000076742043, -0.00008871059, -691323.7, -50211.22, 0.0, 10.000002, 9.929575 
1.615e+3, 2.445034e+2, -602999.7, -667018.7, 0.00010948055, 0.0000007636164, 0.00007481023, -602999.7, -59132.816, 0.0, 10.000002, 9.916135 
1.615e+3, 2.5441962e+2, -504247.03, -568343.25, -0.010050317, 0.0000007613378, -0.00010664833, -504247.03, -57559.49, 0.0, 10.000002, 9.916035 
1.615e+3, 2.643288e+2, -416011.63, -490987.84, 0.0015188288, 0.00000075978295, 0.000140672, -416011.63, -66433.97, 0.0, 10.000002, 9.901963 
1.615e+3, 2.742313e+2, -316726.4, -391374.72, -0.008899466, 0.0000007591446, -0.00020337389, -316726.4, -64193.42, 0.0, 10.000002, 9.902384 
1.615e+3, 2.841256e+2, -230253.17, -318081.22, 0.0019020952, 0.0000007568343, 0.00022910831, -230253.17, -74684.2, 0.0, 10.000002, 9.885438 
1.615e+3, 2.940121e+2, -130547.055, -217765.0, -0.008278201, 0.0000007522315, -0.0002532885, -130547.055, -71865.65, 0.0, 10.000002, 9.886216 
1.615e+3, 3.0392656e+2, -40803.066, -84750.16, 0.0013944953, 0.000000750167, 0.00017317958, -40803.066, -40803.066, 0.0, 10.000002, 9.942172 
1.615e+3, 3.138706e+2, -39725.063, -82511.21, -0.0072250767, 0.00000075188876, -0.000055114848, -39725.063, -39725.063, 0.0, 10.000002, 9.943683 
1.6250001e+3, 1.2499336e+2, -1719943.1, -1724224.4, 0.009790355, 0.00000083814734, 0.000017791454, -1719943.1, -4878.045, 0.0, 10.000003, 9.994326 
1.6250001e+3, 1.3498761e+2, -1622562.8, -1627434.6, -0.0055296393, 0.0000008342107, -0.000068087706, -1622562.8, -5441.2827, 0.0, 10.000003, 9.993544 
1.6250001e+3, 1.4497516e+2, -1534461.4, -1548146.0, 0.0077101965, 0.00000082725865, 0.00007102301, -1534461.4, -15217.797, 0.0, 10.000003, 9.981863 
1.6250001e+3, 1.5495703e+2, -1436733.6, -1450821.8, -0.004208789, 0.0000008171982, -0.000056792218, -1436733.6, -15312.6455, 0.0, 10.000003, 9.981332 
1.6250001e+3, 1.6493228e+2, -1348682.8, -1371952.1, 0.0072527365, 0.0000008123862, 0.000047551293, -1348682.8, -25019.133, 0.0, 10.000003, 9.969247 
1.6250001e+3, 1.7490156e+2, -1250724.8, -1274310.0, -0.0059386436, 0.0000008129311, -0.000073664494, -1250724.8, -24760.133, 0.0, 10.000003, 9.968833 
1.6250001e+3, 1.8486422e+2, -1162643.8, -1195719.9, 0.005283221, 0.000000809092, 0.00006629217, -1162643.8, -34313.19, 0.0, 10.000003, 9.956394 
1.6250001e+3, 1.9482066e+2, -1064494.1, -1097832.8, -0.0065272413, 0.0000008006632, -0.000057503552, -1064494.1, -33736.547, 0.0, 10.000003, 9.956051 
1.6250001e+3, 2.0477043e+2, -976330.1, -1019434.9, 0.004430857, 0.0000007961862, 0.00006822338, -976330.1, -43080.293, 0.0, 10.000003, 9.943289 
1.6250001e+3, 2.1471375e+2, -878043.1, -921409.75, -0.008434607, 0.0000007959898, -0.00012670418, -878043.1, -42237.895, 0.0, 10.000003, 9.942948 
1.6250001e+3, 2.246504e+2, -789757.0, -843144.75, 0.0027806412, 0.0000007932701, 0.00012099087, -789757.0, -51330.79, 0.0, 10.000003, 9.929907 
1.6250001e+3, 2.3458035e+2, -691323.56, -744966.3, -0.007877283, 0.000000787693, -0.000088707624, -691323.56, -50211.047, 0.0, 10.000003, 9.929575 
1.6250001e+3, 2.445034e+2, -602999.5, -667018.7, 0.0029837606, 0.0000007838057, 0.0000748131, -602999.5, -59132.65, 0.0, 10.000003, 9.916135 
1.6250001e+3, 2.5441962e+2, -504246.84, -568343.2, -0.008409262, 0.0000007819395, -0.0001066458, -504246.84, -57559.316, 0.0, 10.000003, 9.916035 
1.6250001e+3, 2.643288e+2, -416011.44, -490987.78, 0.0027250915, 0.00000078043917, 0.00014067425, -416011.44, -66433.79, 0.0, 10.000003, 9.901963 
1.6250001e+3, 2.742313e+2, -316726.25, -391374.7, -0.0075753797, 0.0000007793986, -0.00020337182, -316726.25, -64193.25, 0.0, 10.000003, 9.902384 
1.6250001e+3, 2.841256e+2, -230253.0, -318081.16, 0.004282272, 0.0000007769292, 0.00022911024, -230253.0, -74684.03, 0.0, 10.000003, 9.885437 
1.6250001e+3, 2.940121e+2, -130546.89, -217764.95, -0.0049980646, 0.00000077250246, -0.00025328665, -130546.89, -71865.48, 0.0, 10.000003, 9.886216 
1.6250001e+3, 3.0392656e+2, -40802.902, -84750.11, 0.0055518807, 0.00000077050925, 0.00017318121, -40802.902, -40802.902, 0.0, 10.000003, 9.942172 
1.6250001e+3, 3.138706e+2, -39724.89, -82511.164, -0.0039212597, 0.0000007721443, -0.000055113713, -39724.89, -39724.89, 0.0, 10.000003, 9.943683 
1.6350001e+3, 1.2499336e+2, -1719943.1, -1724224.5, 0.0040420094, 0.00000086383034, 0.000017800014, -1719943.1, -4878.086, 0.0, 10.000003, 9.994326 
1.6350001e+3, 1.3498761e+2, -1622562.8, -1627434.8, -0.01127674, 0.00000085267544, -0.00006808737, -1622562.8, -5441.3228, 0.0, 10.000003, 9.993544 
1.6350001e+3, 1.4497516e+2, -1534461.4, -1548146.1, 0.00065436395, 0.0000008455064, 0.00007102046, -1534461.4, -15217.828, 0.0, 10.000003, 9.981863 
1.6350001e+3, 1.5495703e+2, -1436733.8, -1450821.8, -0.011267588, 0.00000084226104, -0.000056788074, -1436733.8, -15312.677, 0.0, 10.000003, 9.981332 
1.6350001e+3, 1.6493228e+2, -1348682.8, -1371952.3, 0.0024106782, 0.00000083795885, 0.000047558595, -1348682.8, -25019.166, 0.0, 10.000003, 9.969247 
1.6350001e+3, 1.7490156e+2, -1250724.8, -1274310.0, -0.010769563, 0.0000008325754, -0.00007365764, -1250724.8, -24760.166, 0.0, 10.000003, 9.968833 
1.6350001e+3, 1.8486422e+2, -1162643.8, -1195720.0, -0.0004635879, 0.0000008273832, 0.0000662951, -1162643.8, -34313.22, 0.0, 10.000003, 9.956394 
1.6350001e+3, 1.9482066e+2, -1064494.1, -1097832.9, -0.012285364, 0.0000008223905, -0.000057508172, -1064494.1, -33736.58, 0.0, 10.000003, 9.956051 
1.6350001e+3, 2.0477043e+2, -976330.1, -1019434.9, 0.0012772675, 0.00000081912884, 0.00006822244, -976330.1, -43080.324, 0.0, 10.000003, 9.943289 
1.6350001e+3, 2.1471375e+2, -878043.1, -921409.75, -0.011534729, 0.00000081774164, -0.00012668928, -878043.1, -42237.92, 0.0, 10.000003, 9.942948 
1.6350001e+3, 2.246504e+2, -789757.06, -843144.75, -0.002126823, 0.0000008141637, 0.00012100797, -789757.06, -51330.816, 0.0, 10.000003, 9.929907 
1.6350001e+3, 2.3458035e+2, -691323.56, -744966.4, -0.012844226, 0.0000008081041, -0.00008870381, -691323.56, -50211.07, 0.0, 10.000003, 9.929575 
1.6350001e+3, 2.445034e+2, -602999.5, -667018.7, 0.0008949419, 0.0000008041857, 0.000074811825, -602999.5, -59132.67, 0.0, 10.000003, 9.916135 
1.6350001e+3, 2.5441962e+2, -504246.88, -568343.25, -0.010359937, 0.00000080282643, -0.00010664235, -504246.88, -57559.34, 0.0, 10.000003, 9.916035 
1.6350001e+3, 2.643288e+2, -416011.47, -490987.8, 0.000013387128, 0.0000008017667, 0.00014067993, -416011.47, -66433.81, 0.0, 10.000003, 9.901963 
1.6350001e+3, 2.742313e+2, -316726.28, -391374.72, -0.010338018, 0.0000008010818, -0.00020336713, -316726.28, -64193.273, 0.0, 10.000003, 9.902384 
1.6350001e+3, 2.841256e+2, -230253.03, -318081.22, 0.0019932652, 0.0000007979489, 0.0002291136, -230253.03, -74684.055, 0.0, 10.000003, 9.885437 
1.6350001e+3, 2.940121e+2, -130546.914, -217765.0, -0.007244003, 0.0000007914645, -0.00025328508, -130546.914, -71865.5, 0.0, 10.000003, 9.886216 
1.6350001e+3, 3.0392656e+2, -40802.926, -84750.16, 0.005302944, 0.000000789741, 0.00017318087, -40802.926, -40802.926, 0.0, 10.000003, 9.942172 
1.6350001e+3, 3.138706e+2, -39724.914, -82511.21, -0.0039351266, 0.0000007951153, -0.000055116107, -39724.914, -39724.914, 0.0, 10.000003, 9.943683 
1.6450001e+3, 1.2499336e+2, -1719943.0, -1724224.4, 0.010479441, 0.000000886186, 0.000017805129, -1719943.0, -4877.88, 0.0, 10.000003, 9.994326 
1.6450001e+3, 1.3498761e+2, -1622562.5, -1627434.6, -0.0017578125, 0.0000008750358, -0.000068082, -1622562.5, -5441.1216, 0.0, 10.000003, 9.993544 
1.6450001e+3, 1.4497516e+2, -1534461.1, -1548146.0, 0.009815142, 0.0000008680086, 0.000071025286, -1534461.1, -15217.628, 0.0, 10.000003, 9.981863 
1.6450001e+3, 1.5495704e+2, -1436733.5, -1450821.8, -0.004866279, 0.0000008650298, -0.00005678321, -1436733.5, -15312.476, 0.0, 10.000003, 9.981332 
1.6450001e+3, 1.6493228e+2, -1348682.5, -1371952.1, 0.008834349, 0.0000008603854, 0.00004756353, -1348682.5, -25018.967, 0.0, 10.000003, 9.969247 
1.6450001e+3, 1.7490156e+2, -1250724.5, -1274310.0, -0.0040165926, 0.00000085403855, -0.0000736526, -1250724.5, -24759.973, 0.0, 10.000003, 9.968833 
1.6450001e+3, 1.8486422e+2, -1162643.6, -1195719.9, 0.006125168, 0.0000008488801, 0.00006629976, -1162643.6, -34313.027, 0.0, 10.000003, 9.956394 
1.6450001e+3, 1.9482066e+2, -1064493.9, -1097832.8, -0.007358069, 0.00000084496537, -0.00005750439, -1064493.9, -33736.38, 0.0, 10.000003, 9.956051 
1.6450001e+3, 2.0477043e+2, -976329.94, -1019434.8, 0.0068741627, 0.00000084151594, 0.00006822598, -976329.94, -43080.13, 0.0, 10.000003, 9.943289 
1.6450001e+3, 2.1471375e+2, -878042.94, -921409.7, -0.00443161, 0.00000083856963, -0.00012668528, -878042.94, -42237.74, 0.0, 10.000003, 9.942948 
1.6450001e+3, 2.246504e+2, -789756.9, -843144.7, 0.005128022, 0.00000083486884, 0.00012101196, -789756.9, -51330.633, 0.0, 10.000003, 9.929907 
1.6450001e+3, 2.3458035e+2, -691323.4, -744966.3, -0.008057869, 0.00000083031205, -0.00008870033, -691323.4, -50210.88, 0.0, 10.000003, 9.929575 
1.6450001e+3, 2.445034e+2, -602999.3, -667018.6, 0.0049380274, 0.00000082670755, 0.000074814794, -602999.3, -59132.48, 0.0, 10.000003, 9.916135 
1.6450001e+3, 2.5441962e+2, -504246.7, -568343.2, -0.0064753154, 0.0000008242405, -0.00010663988, -504246.7, -57559.16, 0.0, 10.000003, 9.916035 
1.6450001e+3, 2.643288e+2, -416011.28, -490987.78, 0.0039630323, 0.00000082256184, 0.00014068218, -416011.28, -66433.63, 0.0, 10.000003, 9.901963 
1.6450001e+3, 2.742313e+2, -316726.1, -391374.7, -0.0073827514, 0.0000008218841, -0.00020336473, -316726.1, -64193.094, 0.0, 10.000003, 9.902384 
1.6450001e+3, 2.841256e+2, -230252.84, -318081.16, 0.0039061678, 0.0000008191661, 0.00022911582, -230252.84, -74683.87, 0.0, 10.000003, 9.885437 
1.6450001e+3, 2.940121e+2, -130546.73, -217764.95, -0.007526006, 0.00000081365164, -0.0002532835, -130546.73, -71865.32, 0.0, 10.000003, 9.886216 
1.6450001e+3, 3.0392656e+2, -40802.746, -84750.11, 0.0041645304, 0.00000081180804, 0.00017318194, -40802.746, -40802.746, 0.0, 10.000003, 9.942171 
1.6450001e+3, 3.138706e+2, -39724.742, -82511.164, -0.0058045564, 0.00000081543885, -0.00005511534, -39724.742, -39724.742, 0.0, 10.000003, 9.943683 
1.6550002e+3, 1.2499336e+2, -1719943.0, -1724224.5, 0.003709849, 0.0000009052145, 0.000017806802, -1719943.0, -4877.9136, 0.0, 10.000003, 9.994326 
1.6550002e+3, 1.3498761e+2, -1622562.5, -1627434.8, -0.008526853, 0.00000090129174, -0.000068071604, -1622562.5, -5441.1553, 0.0, 10.000003, 9.993544 
1.6550002e+3, 1.4497516e+2, -1534461.1, -1548146.1, 0.00322208, 0.00000089476515, 0.00007103748, -1534461.1, -15217.667, 0.0, 10.000003, 9.981863 
1.6550002e+3, 1.5495704e+2, -1436733.5, -1450821.8, -0.01145941, 0.0000008855045, -0.000056777622, -1436733.5, -15312.513, 0.0, 10.000003, 9.981332 
1.6550002e+3, 1.6493228e+2, -1348682.6, -1371952.3, 0.0024800831, 0.0000008796659, 0.000047566107, -1348682.6, -25019.0, 0.0, 10.000003, 9.969247 
1.6550002e+3, 1.7490157e+2, -1250724.6, -1274310.0, -0.0103701325, 0.0000008773205, -0.00007364936, -1250724.6, -24760.006, 0.0, 10.000003, 9.968833 
1.6550002e+3, 1.8486422e+2, -1162643.6, -1195720.0, 0.0015962792, 0.0000008735827, 0.000066306166, -1162643.6, -34313.063, 0.0, 10.000003, 9.956394 
1.6550002e+3, 1.9482066e+2, -1064493.9, -1097832.9, -0.011866181, 0.0000008683876, -0.000057492205, -1064493.9, -33736.414, 0.0, 10.000003, 9.956051 
1.6550002e+3, 2.0477043e+2, -976329.94, -1019434.9, 0.0013566657, 0.00000086334745, 0.000068233996, -976329.94, -43080.16, 0.0, 10.000003, 9.943289 
1.6550002e+3, 2.1471375e+2, -878043.0, -921409.75, -0.009970449, 0.0000008584738, -0.00012669222, -878043.0, -42237.766, 0.0, 10.000003, 9.942948 
1.6550002e+3, 2.246504e+2, -789756.9, -843144.75, 0.002384208, 0.00000085538545, 0.000121002835, -789756.9, -51330.664, 0.0, 10.000003, 9.929907 
1.6550002e+3, 2.3458035e+2, -691323.4, -744966.4, -0.010710595, 0.0000008543167, -0.00008869719, -691323.4, -50210.91, 0.0, 10.000003, 9.929575 
1.6550002e+3, 2.445034e+2, -602999.4, -667018.7, 0.00076260144, 0.00000085137117, 0.00007482201, -602999.4, -59132.508, 0.0, 10.000003, 9.916135 
1.6550002e+3, 2.5441962e+2, -504246.72, -568343.25, -0.01072403, 0.0000008461815, -0.0001066384, -504246.72, -57559.184, 0.0, 10.000003, 9.916035 
1.6550002e+3, 2.643288e+2, -416011.3, -490987.8, 0.0016881925, 0.0000008428246, 0.00014068102, -416011.3, -66433.664, 0.0, 10.000003, 9.901963 
1.6550002e+3, 2.742313e+2, -316726.13, -391374.72, -0.009525168, 0.0000008418053, -0.0002033646, -316726.13, -64193.117, 0.0, 10.000003, 9.902384 
1.6550002e+3, 2.841256e+2, -230252.88, -318081.22, 0.002260061, 0.0000008405804, 0.0002291169, -230252.88, -74683.9, 0.0, 10.000003, 9.885437 
1.6550002e+3, 2.940121e+2, -130546.76, -217765.0, -0.009127021, 0.0000008390638, -0.00025328196, -130546.76, -71865.34, 0.0, 10.000003, 9.886216 
1.6550002e+3, 3.0392656e+2, -40802.77, -84750.16, 0.0022088352, 0.00000083671006, 0.00017318438, -40802.77, -40802.77, 0.0, 10.000003, 9.942171 
1.6550002e+3, 3.138706e+2, -39724.766, -82511.21, -0.007801342, 0.0000008331149, -0.000055111417, -39724.766, -39724.766, 0.0, 10.000003, 9.943683 
1.6650002e+3, 1.2499336e+2, -1719942.8, -1724224.4, 0.011845328, 0.000000930627, 0.00001781325, -1719942.8, -4877.697, 0.0, 10.000003, 9.994326 
1.6650002e+3, 1.3498761e+2, -1622562.4, -1627434.6, -0.0043622404, 0.00000092390445, -0.00006806754, -1622562.4, -5440.942, 0.0, 10.000003, 9.993544 
1.6650002e+3, 1.4497516e+2, -1534461.0, -1548146.0, 0.0065631573, 0.0000009166621, 0.00007104253, -1534461.0, -15217.456, 0.0, 10.000003, 9.981863 
1.6650002e+3, 1.5495704e+2, -1436733.3, -1450821.8, -0.0063728583, 0.00000090876836, -0.000056772402, -1436733.3, -15312.306, 0.0, 10.000003, 9.981332 
1.6650002e+3, 1.649323e+2, -1348682.4, -1371952.1, 0.008380437, 0.00000090336886, 0.00004757111, -1348682.4, -25018.793, 0.0, 10.000003, 9.969247 
1.6650002e+3, 1.7490157e+2, -1250724.4, -1274310.0, -0.0060952213, 0.00000090051583, -0.00007364497, -1250724.4, -24759.797, 0.0, 10.000003, 9.968833 
1.6650002e+3, 1.8486422e+2, -1162643.4, -1195719.9, 0.00617759, 0.00000089649086, 0.00006631037, -1162643.4, -34312.855, 0.0, 10.000003, 9.956394 
1.6650002e+3, 1.9482066e+2, -1064493.8, -1097832.8, -0.0067673326, 0.00000089123887, -0.000057487716, -1064493.8, -33736.215, 0.0, 10.000003, 9.956051 
1.6650002e+3, 2.0477043e+2, -976329.75, -1019434.8, 0.0056292424, 0.00000088619635, 0.00006823816, -976329.75, -43079.96, 0.0, 10.000003, 9.943289 
1.6650002e+3, 2.1471375e+2, -878042.75, -921409.7, -0.009077408, 0.0000008813793, -0.00012668906, -878042.75, -42237.563, 0.0, 10.000003, 9.942948 
1.6650002e+3, 2.246504e+2, -789756.7, -843144.7, 0.00298954, 0.0000008781365, 0.00012100554, -789756.7, -51330.46, 0.0, 10.000003, 9.929907 
1.6650002e+3, 2.3458035e+2, -691323.2, -744966.3, -0.008561289, 0.00000087667485, -0.000088694345, -691323.2, -50210.72, 0.0, 10.000003, 9.929575 
1.6650002e+3, 2.445034e+2, -602999.2, -667018.6, 0.0038350804, 0.000000873721, 0.00007482492, -602999.2, -59132.32, 0.0, 10.000003, 9.916135 
1.6650002e+3, 2.5441962e+2, -504246.53, -568343.2, -0.008659368, 0.00000086898234, -0.0001066355, -504246.53, -57558.99, 0.0, 10.000003, 9.916035 
1.6650002e+3, 2.643288e+2, -416011.13, -490987.78, 0.0036168832, 0.000000865592, 0.00014068367, -416011.13, -66433.46, 0.0, 10.000003, 9.901963 
1.6650002e+3, 2.742313e+2, -316725.94, -391374.66, -0.008076114, 0.0000008639212, -0.00020336245, -316725.94, -64192.926, 0.0, 10.000003, 9.902384 
1.6650002e+3, 2.841256e+2, -230252.69, -318081.16, 0.004499794, 0.00000086253624, 0.00022911876, -230252.69, -74683.71, 0.0, 10.000003, 9.885437 
1.6650002e+3, 2.940121e+2, -130546.57, -217764.95, -0.0058393828, 0.0000008615345, -0.00025328007, -130546.57, -71865.16, 0.0, 10.000003, 9.886216 
1.6650002e+3, 3.0392656e+2, -40802.586, -84750.11, 0.006564929, 0.0000008593526, 0.0001731862, -40802.586, -40802.586, 0.0, 10.000003, 9.942171 
1.6650002e+3, 3.138706e+2, -39724.574, -82511.16, -0.003549368, 0.0000008554138, -0.00005510981, -39724.574, -39724.574, 0.0, 10.000003, 9.943683 
1.6750002e+3, 1.2499336e+2, -1719942.8, -1724224.5, 0.004335318, 0.0000009624232, 0.000017824474, -1719942.8, -4877.74, 0.0, 10.000003, 9.994326 
1.6750002e+3, 1.3498761e+2, -1622562.4, -1627434.8, -0.011872353, 0.00000094287424, -0.0000680698, -1622562.4, -5440.985, 0.0, 10.000003, 9.993544 
1.6750002e+3, 1.4497516e+2, -1534461.0, -1548146.1, -0.0005673983, 0.0000009336996, 0.00007104044, -1534461.0, -15217.49, 0.0, 10.000003, 9.981863 
1.6750002e+3, 1.5495704e+2, -1436733.4, -1450821.8, -0.0135029275, 0.00000093482106, -0.000056767545, -1436733.4, -15312.34, 0.0, 10.000003, 9.981332 
1.6750002e+3, 1.649323e+2, -1348682.4, -1371952.3, 0.002427392, 0.00000093149396, 0.00004757853, -1348682.4, -25018.83, 0.0, 10.000003, 9.969247 
1.6750002e+3, 1.7490157e+2, -1250724.4, -1274310.0, -0.012042357, 0.0000009236245, -0.00007363945, -1250724.4, -24759.834, 0.0, 10.000003, 9.968833 
1.6750002e+3, 1.8486422e+2, -1162643.5, -1195720.0, 0.00014155729, 0.00000091760467, 0.00006631238, -1162643.5, -34312.887, 0.0, 10.000003, 9.956394 
1.6750002e+3, 1.9482066e+2, -1064493.8, -1097832.9, -0.012804785, 0.00000091351916, -0.00005749092, -1064493.8, -33736.246, 0.0, 10.000003, 9.956051 
1.6750002e+3, 2.0477043e+2, -976329.8, -1019434.9, 0.0016212097, 0.0000009100625, 0.00006823846, -976329.8, -43079.996, 0.0, 10.000003, 9.943289 
1.6750002e+3, 2.1471377e+2, -878042.8, -921409.75, -0.013043844, 0.000000907286, -0.00012667579, -878042.8, -42237.598, 0.0, 10.000003, 9.942948 
1.6750002e+3, 2.246504e+2, -789756.7, -843144.75, -0.0021908944, 0.000000903122, 0.000121020064, -789756.7, -51330.492, 0.0, 10.000003, 9.929906 
1.6750002e+3, 2.3458035e+2, -691323.25, -744966.4, -0.013781622, 0.0000008973866, -0.0000886918, -691323.25, -50210.746, 0.0, 10.000003, 9.929575 
1.6750002e+3, 2.445034e+2, -602999.2, -667018.7, 0.0012335947, 0.0000008937568, 0.00007482354, -602999.2, -59132.348, 0.0, 10.000003, 9.916135 
1.6750002e+3, 2.5441962e+2, -504246.53, -568343.25, -0.01113511, 0.0000008926431, -0.0001066312, -504246.53, -57559.02, 0.0, 10.000003, 9.916035 
1.6750002e+3, 2.643288e+2, -416011.16, -490987.8, 0.00048980373, 0.0000008908638, 0.00014069016, -416011.16, -66433.49, 0.0, 10.000003, 9.901963 
1.6750002e+3, 2.742313e+2, -316725.94, -391374.72, -0.011246847, 0.0000008882317, -0.00020335829, -316725.94, -64192.953, 0.0, 10.000003, 9.902384 
1.6750002e+3, 2.841256e+2, -230252.7, -318081.22, 0.0021569976, 0.00000088503356, 0.0002291214, -230252.7, -74683.734, 0.0, 10.000003, 9.885437 
1.6750002e+3, 2.940121e+2, -130546.59, -217765.0, -0.008107392, 0.0000008810639, -0.00025327786, -130546.59, -71865.18, 0.0, 10.000003, 9.886216 
1.6750002e+3, 3.0392656e+2, -40802.61, -84750.16, 0.005870876, 0.0000008797357, 0.00017318738, -40802.61, -40802.61, 0.0, 10.000003, 9.942171 
1.6750002e+3, 3.138706e+2, -39724.598, -82511.21, -0.004058332, 0.00000088233537, -0.000055110515, -39724.598, -39724.598, 0.0, 10.000003, 9.943683 
1.685e+3, 1.2499336e+2, -1719942.5, -1724224.4, 0.012715135, 0.0000009877606, 0.000017832474, -1719942.5, -4877.5083, 0.0, 10.000003, 9.994326 
1.685e+3, 1.3498761e+2, -1622562.1, -1627434.6, -0.0017774405, 0.0000009675095, -0.000068063935, -1622562.1, -5440.7637, 0.0, 10.000003, 9.993544 
1.685e+3, 1.4497516e+2, -1534460.8, -1548146.0, 0.010938935, 0.0000009579545, 0.00007104884, -1534460.8, -15217.271, 0.0, 10.000003, 9.981863 
1.685e+3, 1.5495704e+2, -1436733.1, -1450821.8, -0.004947704, 0.0000009590062, -0.000056761677, -1436733.1, -15312.118, 0.0, 10.000003, 9.981332 
1.685e+3, 1.649323e+2, -1348682.1, -1371952.1, 0.009780982, 0.0000009556986, 0.000047583366, -1348682.1, -25018.61, 0.0, 10.000003, 9.969247 
1.685e+3, 1.7490157e+2, -1250724.1, -1274310.0, -0.0045177303, 0.00000094794007, -0.00007363412, -1250724.1, -24759.62, 0.0, 10.000003, 9.968833 
1.685e+3, 1.8486422e+2, -1162643.3, -1195719.9, 0.007614522, 0.0000009419485, 0.000066317545, -1162643.3, -34312.676, 0.0, 10.000003, 9.956394 
1.685e+3, 1.9482066e+2, -1064493.5, -1097832.8, -0.0076086004, 0.0000009378049, -0.000057486624, -1064493.5, -33736.03, 0.0, 10.000003, 9.956051 
1.685e+3, 2.0477043e+2, -976329.56, -1019434.8, 0.0073983218, 0.00000093407357, 0.00006824255, -976329.56, -43079.78, 0.0, 10.000003, 9.943289 
1.685e+3, 2.1471377e+2, -878042.6, -921409.7, -0.0046700058, 0.0000009307882, -0.00012667118, -878042.6, -42237.395, 0.0, 10.000003, 9.942948 
1.685e+3, 2.246504e+2, -789756.5, -843144.7, 0.006903042, 0.00000092663703, 0.00012102457, -789756.5, -51330.29, 0.0, 10.000003, 9.929906 
1.685e+3, 2.3458035e+2, -691323.0, -744966.25, -0.007948353, 0.00000092150503, -0.00008868814, -691323.0, -50210.535, 0.0, 10.000003, 9.929575 
1.685e+3, 2.445034e+2, -602999.0, -667018.6, 0.005769649, 0.00000091790406, 0.00007482658, -602999.0, -59132.137, 0.0, 10.000003, 9.916135 
1.685e+3, 2.5441962e+2, -504246.34, -568343.2, -0.006931102, 0.00000091613225, -0.0001066285, -504246.34, -57558.816, 0.0, 10.000003, 9.916035 
1.685e+3, 2.643288e+2, -416010.94, -490987.75, 0.0047897613, 0.000000913994, 0.00014069266, -416010.94, -66433.3, 0.0, 10.000003, 9.901963 
1.685e+3, 2.742313e+2, -316725.75, -391374.66, -0.0076746684, 0.0000009113847, -0.0002033558, -316725.75, -64192.754, 0.0, 10.000003, 9.902384 
1.685e+3, 2.841256e+2, -230252.5, -318081.16, 0.0050674463, 0.0000009085203, 0.00022912363, -230252.5, -74683.53, 0.0, 10.000003, 9.885437 
1.685e+3, 2.940121e+2, -130546.39, -217764.94, -0.007530037, 0.00000090530784, -0.00025327623, -130546.39, -71864.98, 0.0, 10.000003, 9.886216 
1.685e+3, 3.0392656e+2, -40802.41, -84750.1, 0.004996583, 0.0000009038801, 0.0001731883, -40802.41, -40802.41, 0.0, 10.000003, 9.942171 
1.685e+3, 3.138706e+2, -39724.406, -82511.16, -0.006512544, 0.00000090510514, -0.00005511054, -39724.406, -39724.406, 0.0, 10.000003, 9.943683 
1.6950001e+3, 1.2499336e+2, -1719942.6, -1724224.5, 0.0028170275, 0.0000010066396, 0.000017837245, -1719942.6, -4877.5483, 0.0, 10.000003, 9.994326 
1.6950001e+3, 1.3498761e+2, -1622562.1, -1627434.8, -0.011676503, 0.00000099781, -0.00006804993, -1622562.1, -5440.803, 0.0, 10.000003, 9.993544 
1.6950001e+3, 1.4497516e+2, -1534460.8, -1548146.1, 0.004619231, 0.0000009894268, 0.000071067734, -1534460.8, -15217.313, 0.0, 10.000003, 9.981863 
1.6950001e+3, 1.5495704e+2, -1436733.1, -1450821.8, -0.01126177, 0.0000009813239, -0.000056754798, -1436733.1, -15312.159, 0.0, 10.000003, 9.981332 
1.6950001e+3, 1.649323e+2, -1348682.3, -1371952.1, 0.0026391149, 0.000000975983, 0.00004758561, -1348682.3, -25018.646, 0.0, 10.000003, 9.969247 
1.6950001e+3, 1.7490157e+2, -1250724.3, -1274310.0, -0.011664212, 0.0000009734623, -0.00007362897, -1250724.3, -24759.656, 0.0, 10.000003, 9.968833 
1.6950001e+3, 1.8486422e+2, -1162643.3, -1195720.0, 0.0024458796, 0.0000009695223, 0.00006632587, -1162643.3, -34312.71, 0.0, 10.000003, 9.956394 
1.6950001e+3, 1.9482066e+2, -1064493.5, -1097832.9, -0.012754572, 0.000000964096, -0.000057474826, -1064493.5, -33736.066, 0.0, 10.000003, 9.956051 
1.6950001e+3, 2.0477043e+2, -976329.6, -1019434.9, 0.0012325784, 0.0000009582295, 0.00006825044, -976329.6, -43079.813, 0.0, 10.000003, 9.943289 
1.6950001e+3, 2.1471377e+2, -878042.6, -921409.75, -0.010857069, 0.0000009518859, -0.00012667521, -878042.6, -42237.42, 0.0, 10.000003, 9.942948 
1.6950001e+3, 2.246504e+2, -789756.5, -843144.75, 0.003631034, 0.0000009486817, 0.00012101903, -789756.5, -51330.324, 0.0, 10.000003, 9.929906 
1.6950001e+3, 2.3458035e+2, -691323.06, -744966.3, -0.011125164, 0.00000094903, -0.00008868338, -691323.06, -50210.57, 0.0, 10.000003, 9.929575 
1.6950001e+3, 2.445034e+2, -602999.0, -667018.7, 0.0012491195, 0.0000009461626, 0.000074834046, -602999.0, -59132.168, 0.0, 10.000003, 9.916135 
1.6950001e+3, 2.5441962e+2, -504246.38, -568343.25, -0.011516295, 0.00000093945, -0.00010662739, -504246.38, -57558.848, 0.0, 10.000003, 9.916035 
1.6950001e+3, 2.643288e+2, -416010.97, -490987.8, 0.0020839202, 0.0000009349824, 0.00014069119, -416010.97, -66433.32, 0.0, 10.000003, 9.901963 
1.6950001e+3, 2.742313e+2, -316725.78, -391374.72, -0.010254472, 0.00000093338014, -0.00020335501, -316725.78, -64192.78, 0.0, 10.000003, 9.902384 
1.6950001e+3, 2.841256e+2, -230252.53, -318081.22, 0.003212499, 0.0000009329964, 0.00022912542, -230252.53, -74683.56, 0.0, 10.000003, 9.885437 
1.6950001e+3, 2.940121e+2, -130546.42, -217765.0, -0.009319518, 0.00000093426604, -0.00025327512, -130546.42, -71865.01, 0.0, 10.000003, 9.886216 
1.6950001e+3, 3.0392656e+2, -40802.438, -84750.16, 0.0029713623, 0.00000093178573, 0.00017318896, -40802.438, -40802.438, 0.0, 10.000003, 9.942171 
1.6950001e+3, 3.138706e+2, -39724.434, -82511.21, -0.008565193, 0.0000009237231, -0.000055109882, -39724.434, -39724.434, 0.0, 10.000003, 9.943683 
1.7050001e+3, 1.2499336e+2, -1719942.4, -1724224.4, 0.012400703, 0.0000010312244, 0.000017845041, -1719942.4, -4877.319, 0.0, 10.000003, 9.994326 
1.7050001e+3, 1.3498761e+2, -1622561.9, -1627434.6, -0.004439703, 0.0000010242803, -0.00006804573, -1622561.9, -5440.5615, 0.0, 10.000003, 9.993544 
1.7050001e+3, 1.4497516e+2, -1534460.5, -1548146.0, 0.011472738, 0.0000010163717, 0.000071076356, -1534460.5, -15217.072, 0.0, 10.000003, 9.981863 
1.7050001e+3, 1.5495704e+2, -1436732.9, -1450821.8, -0.004361529, 0.0000010073118, -0.000056748973, -1436732.9, -15311.93, 0.0, 10.000003, 9.981332 
1.7050001e+3, 1.649323e+2, -1348682.0, -1371952.1, 0.009878592, 0.0000010014854, 0.000047590136, -1348682.0, -25018.42, 0.0, 10.000003, 9.969247 
1.7050001e+3, 1.7490157e+2, -1250724.0, -1274310.0, -0.0060690017, 0.000000998961, -0.000073624215, -1250724.0, -24759.424, 0.0, 10.000003, 9.968833 
1.7050001e+3, 1.8486422e+2, -1162643.0, -1195719.9, 0.008003619, 0.0000009948011, 0.00006633087, -1162643.0, -34312.48, 0.0, 10.000003, 9.956394 
1.7050001e+3, 1.9482066e+2, -1064493.4, -1097832.8, -0.006193714, 0.0000009889291, -0.00005746957, -1064493.4, -33735.848, 0.0, 10.000003, 9.956051 
1.7050001e+3, 2.0477043e+2, -976329.4, -1019434.8, 0.007082458, 0.0000009832602, 0.000068255096, -976329.4, -43079.594, 0.0, 10.000003, 9.943289 
1.7050001e+3, 2.1471377e+2, -878042.4, -921409.7, -0.009703429, 0.0000009778107, -0.00012667208, -878042.4, -42237.195, 0.0, 10.000003, 9.942948 
1.7050001e+3, 2.246504e+2, -789756.3, -843144.7, 0.0038483131, 0.000000974386, 0.0001210216, -789756.3, -51330.098, 0.0, 10.000003, 9.929906 
1.7050001e+3, 2.3458035e+2, -691322.8, -744966.25, -0.008907661, 0.0000009732521, -0.00008868028, -691322.8, -50210.355, 0.0, 10.000003, 9.929575 
1.7050001e+3, 2.445034e+2, -602998.8, -667018.6, 0.004842968, 0.0000009701182, 0.00007483733, -602998.8, -59131.957, 0.0, 10.000003, 9.916135 
1.7050001e+3, 2.5441962e+2, -504246.16, -568343.2, -0.009046522, 0.0000009645927, -0.00010662436, -504246.16, -57558.63, 0.0, 10.000003, 9.916035 
1.7050001e+3, 2.643288e+2, -416010.75, -490987.75, 0.004089887, 0.0000009604919, 0.00014069375, -416010.75, -66433.1, 0.0, 10.000003, 9.901963 
1.7050001e+3, 2.742313e+2, -316725.56, -391374.66, -0.00916079, 0.000000958209, -0.0002033532, -316725.56, -64192.566, 0.0, 10.000003, 9.902383 
1.7050001e+3, 2.841256e+2, -230252.33, -318081.16, 0.005044102, 0.0000009574538, 0.00022912683, -230252.33, -74683.35, 0.0, 10.000003, 9.885437 
1.7050001e+3, 2.940121e+2, -130546.21, -217764.94, -0.0065827374, 0.0000009587803, -0.0002532737, -130546.21, -71864.805, 0.0, 10.000003, 9.886215 
1.7050001e+3, 3.0392656e+2, -40802.23, -84750.1, 0.0068439636, 0.0000009563813, 0.00017319055, -40802.23, -40802.23, 0.0, 10.000003, 9.942171 
1.7050001e+3, 3.138706e+2, -39724.223, -82511.16, -0.004122062, 0.0000009484327, -0.000055107925, -39724.223, -39724.223, 0.0, 10.000003, 9.943683 
1.7150001e+3, 1.2499336e+2, -1719942.4, -1724224.5, 0.0055698794, 0.0000010615145, 0.000017855864, -1719942.4, -4877.365, 0.0, 10.000003, 9.994326 
1.7150001e+3, 1.3498761e+2, -1622562.0, -1627434.6, -0.0112709515, 0.0000010469205, -0.00006805135, -1622562.0, -5440.6064, 0.0, 10.000003, 9.993544 
1.7150001e+3, 1.4497516e+2, -1534460.6, -1548146.1, 0.002540411, 0.0000010387897, 0.0000710747, -1534460.6, -15217.114, 0.0, 10.000003, 9.981863 
1.7150001e+3, 1.5495704e+2, -1436733.0, -1450821.8, -0.013297244, 0.0000010369698, -0.000056744204, -1436733.0, -15311.971, 0.0, 10.000003, 9.981332 
1.7150001e+3, 1.649323e+2, -1348682.0, -1371952.1, 0.0039675394, 0.0000010322058, 0.000047596946, -1348682.0, -25018.46, 0.0, 10.000003, 9.969247 
1.7150001e+3, 1.7490157e+2, -1250724.0, -1274310.0, -0.011964244, 0.000001024436, -0.00007361985, -1250724.0, -24759.465, 0.0, 10.000003, 9.968833 
1.7150001e+3, 1.8486422e+2, -1162643.1, -1195719.9, 0.00071135367, 0.0000010177852, 0.00006633254, -1162643.1, -34312.52, 0.0, 10.000003, 9.956394 
1.7150001e+3, 1.9482066e+2, -1064493.4, -1097832.9, -0.013502364, 0.0000010123043, -0.000057470854, -1064493.4, -33735.883, 0.0, 10.000003, 9.956051 
1.7150001e+3, 2.0477043e+2, -976329.44, -1019434.9, 0.0027932287, 0.0000010091655, 0.00006825652, -976329.44, -43079.633, 0.0, 10.000003, 9.943289 
1.7150001e+3, 2.1471377e+2, -878042.44, -921409.75, -0.013930453, 0.0000010085623, -0.0001266618, -878042.44, -42237.234, 0.0, 10.000003, 9.942948 
1.7150001e+3, 2.246504e+2, -789756.3, -843144.75, -0.002033211, 0.0000010037498, 0.00012103225, -789756.3, -51330.13, 0.0, 10.000003, 9.929906 
1.7150001e+3, 2.3458035e+2, -691322.9, -744966.3, -0.0148434965, 0.0000009941714, -0.00008867883, -691322.9, -50210.387, 0.0, 10.000003, 9.929575 
1.7150001e+3, 2.445034e+2, -602998.8, -667018.7, 0.0018624096, 0.000000989771, 0.00007483643, -602998.8, -59131.992, 0.0, 10.000003, 9.916135 
1.7150001e+3, 2.5441962e+2, -504246.2, -568343.25, -0.011885119, 0.0000009915601, -0.00010661938, -504246.2, -57558.66, 0.0, 10.000003, 9.916035 
1.7150001e+3, 2.643288e+2, -416010.78, -490987.8, 0.0005562301, 0.0000009905223, 0.00014070037, -416010.78, -66433.13, 0.0, 10.000003, 9.901963 
1.7150001e+3, 2.742313e+2, -316725.6, -391374.72, -0.012741081, 0.000000985871, -0.00020335034, -316725.6, -64192.598, 0.0, 10.000003, 9.902383 
1.7150001e+3, 2.841256e+2, -230252.34, -318081.22, 0.0025947709, 0.0000009818925, 0.00022912782, -230252.34, -74683.38, 0.0, 10.000003, 9.885437 
1.7150001e+3, 2.940121e+2, -130546.24, -217765.0, -0.008930077, 0.0000009788508, -0.00025327192, -130546.24, -71864.83, 0.0, 10.000003, 9.886215 
1.7150001e+3, 3.0392656e+2, -40802.258, -84750.16, 0.005718138, 0.0000009776669, 0.00017319308, -40802.258, -40802.258, 0.0, 10.000003, 9.942171 
1.7150001e+3, 3.138706e+2, -39724.25, -82511.21, -0.0051044133, 0.0000009792336, -0.000055104665, -39724.25, -39724.25, 0.0, 10.000003, 9.943683 
1.7250001e+3, 1.2499336e+2, -1719942.1, -1724224.4, 0.013588303, 0.0000010890327, 0.000017863405, -1719942.1, -4877.1104, 0.0, 10.000004, 9.994326 
1.7250001e+3, 1.3498762e+2, -1622561.8, -1627434.6, -0.0031089727, 0.0000010733861, -0.00006804957, -1622561.8, -5440.3633, 0.0, 10.000004, 9.993543 
1.7250001e+3, 1.4497516e+2, -1534460.4, -1548146.0, 0.010484313, 0.0000010653893, 0.0000710827, -1534460.4, -15216.872, 0.0, 10.000004, 9.981863 
1.7250001e+3, 1.5495704e+2, -1436732.8, -1450821.6, -0.006237765, 0.0000010648855, -0.000056738718, -1436732.8, -15311.721, 0.0, 10.000004, 9.981332 
1.7250001e+3, 1.649323e+2, -1348681.8, -1371952.1, 0.011208026, 0.0000010598262, 0.000047601712, -1348681.8, -25018.213, 0.0, 10.000004, 9.969247 
1.7250001e+3, 1.7490157e+2, -1250723.8, -1274309.9, -0.0047723423, 0.0000010501152, -0.000073613955, -1250723.8, -24759.229, 0.0, 10.000003, 9.968833 
1.7250001e+3, 1.8486422e+2, -1162642.9, -1195719.9, 0.0076932725, 0.0000010434171, 0.00006633813, -1162642.9, -34312.285, 0.0, 10.000003, 9.956393 
1.7250001e+3, 1.9482066e+2, -1064493.1, -1097832.8, -0.008982523, 0.0000010398709, -0.00005746707, -1064493.1, -33735.64, 0.0, 10.000003, 9.956051 
1.7250001e+3, 2.0477043e+2, -976329.2, -1019434.8, 0.008585304, 0.0000010366635, 0.00006826008, -976329.2, -43079.395, 0.0, 10.000003, 9.943289 
1.7250001e+3, 2.1471377e+2, -878042.2, -921409.7, -0.004601425, 0.0000010338224, -0.00012665676, -878042.2, -42237.008, 0.0, 10.000003, 9.942948 
1.7250001e+3, 2.246504e+2, -789756.1, -843144.7, 0.0078532435, 0.0000010287469, 0.000121037585, -789756.1, -51329.902, 0.0, 10.000003, 9.929906 
1.7250001e+3, 2.3458035e+2, -691322.6, -744966.25, -0.008788915, 0.0000010211415, -0.000088674584, -691322.6, -50210.152, 0.0, 10.000003, 9.929575 
1.7250001e+3, 2.445034e+2, -602998.56, -667018.6, 0.0068073515, 0.000001017108, 0.000074839736, -602998.56, -59131.758, 0.0, 10.000003, 9.916135 
1.7250001e+3, 2.5441962e+2, -504245.97, -568343.1, -0.0072411033, 0.000001017343, -0.000106616855, -504245.97, -57558.438, 0.0, 10.000003, 9.916035 
1.7250001e+3, 2.643288e+2, -416010.56, -490987.75, 0.005360392, 0.0000010157438, 0.0001407027, -416010.56, -66432.914, 0.0, 10.000003, 9.901963 
1.7250001e+3, 2.742313e+2, -316725.38, -391374.66, -0.008501082, 0.0000010117994, -0.00020334747, -316725.38, -64192.375, 0.0, 10.000003, 9.902383 
1.7250001e+3, 2.841256e+2, -230252.13, -318081.16, 0.0061430614, 0.0000010082003, 0.0002291307, -230252.13, -74683.16, 0.0, 10.000003, 9.885437 
1.7250001e+3, 2.940121e+2, -130546.016, -217764.94, -0.0077637397, 0.0000010050841, -0.00025326977, -130546.016, -71864.61, 0.0, 10.000003, 9.886215 
1.7250001e+3, 3.0392656e+2, -40802.04, -84750.09, 0.0054899342, 0.0000010035843, 0.00017319432, -40802.04, -40802.04, 0.0, 10.000003, 9.942171 
1.7250001e+3, 3.138706e+2, -39724.035, -82511.15, -0.0073803025, 0.0000010044816, -0.000055104625, -39724.035, -39724.035, 0.0, 10.000003, 9.943683 
1.7350002e+3, 1.2499336e+2, -1719942.1, -1724224.4, 0.004284327, 0.0000011137789, 0.000017867667, -1719942.1, -4877.1563, 0.0, 10.000004, 9.994326 
1.7350002e+3, 1.3498762e+2, -1622561.8, -1627434.6, -0.012413956, 0.0000011036769, -0.00006804039, -1622561.8, -5440.4087, 0.0, 10.000004, 9.993543 
1.7350002e+3, 1.4497516e+2, -1534460.4, -1548146.0, 0.0035090977, 0.0000010961702, 0.000071100374, -1534460.4, -15216.917, 0.0, 10.000004, 9.981863 
1.7350002e+3, 1.5495704e+2, -1436732.8, -1450821.8, -0.013209371, 0.0000010910593, -0.00005673252, -1436732.8, -15311.765, 0.0, 10.000004, 9.981331 
1.7350002e+3, 1.649323e+2, -1348681.8, -1371952.1, 0.0024510543, 0.0000010843466, 0.000047604433, -1348681.8, -25018.254, 0.0, 10.000004, 9.969247 
1.7350002e+3, 1.7490157e+2, -1250723.8, -1274310.0, -0.013538892, 0.0000010759985, -0.00007360655, -1250723.8, -24759.27, 0.0, 10.000003, 9.968833 
1.7350002e+3, 1.8486422e+2, -1162642.9, -1195719.9, 0.0023031645, 0.0000010716968, 0.00006634762, -1162642.9, -34312.324, 0.0, 10.000003, 9.956393 
1.7350002e+3, 1.9482066e+2, -1064493.1, -1097832.8, -0.014333682, 0.0000010716284, -0.000057458223, -1064493.1, -33735.684, 0.0, 10.000003, 9.956051 
1.7350002e+3, 2.0477043e+2, -976329.2, -1019434.9, 0.0019048635, 0.0000010657542, 0.00006826578, -976329.2, -43079.426, 0.0, 10.000003, 9.943289 
1.7350002e+3, 2.1471377e+2, -878042.25, -921409.75, -0.011309541, 0.0000010535912, -0.00012665693, -878042.25, -42237.04, 0.0, 10.000003, 9.942948 
1.7350002e+3, 2.246504e+2, -789756.1, -843144.75, 0.003698347, 0.0000010493771, 0.0001210376, -789756.1, -51329.94, 0.0, 10.000003, 9.929906 
1.7350002e+3, 2.3458035e+2, -691322.7, -744966.3, -0.012860343, 0.0000010541621, -0.000088667526, -691322.7, -50210.19, 0.0, 10.000003, 9.929575 
1.7350002e+3, 2.445034e+2, -602998.6, -667018.7, 0.0020283808, 0.0000010521289, 0.000074847245, -602998.6, -59131.793, 0.0, 10.000003, 9.916135 
1.7350002e+3, 2.5441962e+2, -504246.0, -568343.2, -0.01205417, 0.0000010419413, -0.000106616775, -504246.0, -57558.47, 0.0, 10.000003, 9.916035 
1.7350002e+3, 2.643288e+2, -416010.6, -490987.8, 0.002440392, 0.0000010361568, 0.00014070074, -416010.6, -66432.945, 0.0, 10.000003, 9.901963 
1.7350002e+3, 2.742313e+2, -316725.4, -391374.72, -0.011294203, 0.0000010359943, -0.0002033446, -316725.4, -64192.406, 0.0, 10.000003, 9.902383 
1.7350002e+3, 2.841256e+2, -230252.16, -318081.22, 0.0035462487, 0.0000010363772, 0.00022913543, -230252.16, -74683.19, 0.0, 10.000003, 9.885437 
1.7350002e+3, 2.940121e+2, -130546.05, -217765.0, -0.010342822, 0.0000010374798, -0.00025326727, -130546.05, -71864.64, 0.0, 10.000003, 9.886215 
1.7350002e+3, 3.0392656e+2, -40802.07, -84750.16, 0.0036150527, 0.0000010341333, 0.00017319425, -40802.07, -40802.07, 0.0, 10.000003, 9.942171 
1.7350002e+3, 3.138706e+2, -39724.066, -82511.21, -0.009172521, 0.0000010241771, -0.000055107805, -39724.066, -39724.066, 0.0, 10.000003, 9.943683 
1.7450002e+3, 1.2499337e+2, -1719941.9, -1724224.4, 0.013448781, 0.0000011434637, 0.000017875593, -1719941.9, -4876.896, 0.0, 10.000004, 9.994326 
1.7450002e+3, 1.3498762e+2, -1622561.5, -1627434.6, -0.0047840727, 0.000001131833, -0.00006803914, -1622561.5, -5440.143, 0.0, 10.000004, 9.993543 
1.7450002e+3, 1.4497516e+2, -1534460.1, -1548146.0, 0.010647191, 0.0000011235692, 0.000071109724, -1534460.1, -15216.653, 0.0, 10.000004, 9.981863 
1.7450002e+3, 1.5495704e+2, -1436732.5, -1450821.6, -0.0061108293, 0.000001118467, -0.0000567265, -1436732.5, -15311.514, 0.0, 10.000004, 9.981331 
1.7450002e+3, 1.649323e+2, -1348681.5, -1371952.1, 0.009503619, 0.0000011120243, 0.00004760891, -1348681.5, -25018.006, 0.0, 10.000004, 9.969247 
1.7450002e+3, 1.7490157e+2, -1250723.5, -1274309.9, -0.0075749527, 0.0000011042127, -0.00007360177, -1250723.5, -24759.014, 0.0, 10.000004, 9.968833 
1.7450002e+3, 1.8486422e+2, -1162642.6, -1195719.9, 0.009686411, 0.0000010998942, 0.00006635274, -1162642.6, -34312.07, 0.0, 10.000004, 9.956393 
1.7450002e+3, 1.9482066e+2, -1064492.9, -1097832.8, -0.006293891, 0.0000010992298, -0.00005745272, -1064492.9, -33735.434, 0.0, 10.000004, 9.956051 
1.7450002e+3, 2.0477043e+2, -976328.94, -1019434.75, 0.0075776996, 0.0000010931622, 0.00006827073, -976328.94, -43079.184, 0.0, 10.000004, 9.943289 
1.7450002e+3, 2.1471377e+2, -878042.0, -921409.7, -0.010811365, 0.0000010812416, -0.00012665354, -878042.0, -42236.793, 0.0, 10.000004, 9.942947 
1.7450002e+3, 2.246504e+2, -789755.9, -843144.7, 0.004702877, 0.0000010770054, 0.000121040255, -789755.9, -51329.695, 0.0, 10.000004, 9.929906 
1.7450002e+3, 2.3458035e+2, -691322.44, -744966.25, -0.009101159, 0.0000010814687, -0.00008866467, -691322.44, -50209.95, 0.0, 10.000004, 9.929575 
1.7450002e+3, 2.445034e+2, -602998.4, -667018.6, 0.0061814967, 0.0000010793594, 0.00007485039, -602998.4, -59131.55, 0.0, 10.000004, 9.916135 
1.7450002e+3, 2.5441962e+2, -504245.75, -568343.1, -0.009713036, 0.0000010693898, -0.00010661327, -504245.75, -57558.23, 0.0, 10.000004, 9.916035 
1.7450002e+3, 2.643288e+2, -416010.34, -490987.75, 0.0050723464, 0.000001063594, 0.000140704, -416010.34, -66432.71, 0.0, 10.000004, 9.901963 
1.7450002e+3, 2.742313e+2, -316725.16, -391374.66, -0.009205837, 0.0000010631278, -0.00020334238, -316725.16, -64192.17, 0.0, 10.000004, 9.902383 
1.7450002e+3, 2.841256e+2, -230251.92, -318081.16, 0.0059546367, 0.0000010633848, 0.00022913713, -230251.92, -74682.95, 0.0, 10.000004, 9.885437 
1.7450002e+3, 2.940121e+2, -130545.81, -217764.92, -0.007291827, 0.0000010646061, -0.0002532654, -130545.81, -71864.41, 0.0, 10.000004, 9.886215 
1.7450002e+3, 3.0392656e+2, -40801.84, -84750.09, 0.007743716, 0.0000010612481, 0.00017319633, -40801.84, -40801.84, 0.0, 10.000004, 9.942171 
1.7450002e+3, 3.138706e+2, -39723.836, -82511.15, -0.004557743, 0.0000010510853, -0.00005510539, -39723.836, -39723.836, 0.0, 10.000004, 9.943683 
1.755e+3, 1.2499337e+2, -1719942.0, -1724224.4, 0.0055383863, 0.0000011780866, 0.000017887181, -1719942.0, -4876.946, 0.0, 10.000004, 9.994326 
1.755e+3, 1.3498762e+2, -1622561.5, -1627434.6, -0.012695305, 0.0000011578541, -0.00006804582, -1622561.5, -5440.192, 0.0, 10.000004, 9.993543 
1.755e+3, 1.4497516e+2, -1534460.1, -1548146.0, 0.0009329449, 0.0000011475867, 0.00007111074, -1534460.1, -15216.698, 0.0, 10.000004, 9.981863 
1.755e+3, 1.5495704e+2, -1436732.5, -1450821.8, -0.015828075, 0.0000011471088, -0.000056720673, -1436732.5, -15311.558, 0.0, 10.000004, 9.981331 
1.755e+3, 1.649323e+2, -1348681.5, -1371952.1, 0.0025274192, 0.000001142859, 0.000047615144, -1348681.5, -25018.049, 0.0, 10.000004, 9.969247 
1.755e+3, 1.7490157e+2, -1250723.6, -1274310.0, -0.014536826, 0.0000011347577, -0.00007359963, -1250723.6, -24759.059, 0.0, 10.000004, 9.968833 
1.755e+3, 1.8486422e+2, -1162642.6, -1195719.9, 0.002615167, 0.0000011280092, 0.00006635348, -1162642.6, -34312.113, 0.0, 10.000004, 9.956393 
1.755e+3, 1.9482066e+2, -1064493.0, -1097832.8, -0.013366568, 0.0000011226755, -0.000057450554, -1064493.0, -33735.473, 0.0, 10.000004, 9.956051 
1.755e+3, 2.0477043e+2, -976329.0, -1019434.9, 0.0013268514, 0.0000011188876, 0.000068274945, -976329.0, -43079.227, 0.0, 10.000004, 9.943289 
1.755e+3, 2.1471377e+2, -878042.0, -921409.75, -0.017045315, 0.0000011167732, -0.00012664658, -878042.0, -42236.84, 0.0, 10.000004, 9.942947 
1.755e+3, 2.246504e+2, -789755.94, -843144.75, -0.00012588549, 0.0000011116314, 0.00012104555, -789755.94, -51329.73, 0.0, 10.000004, 9.929906 
1.755e+3, 2.3458035e+2, -691322.44, -744966.3, -0.013884133, 0.0000011030613, -0.00008866599, -691322.44, -50209.984, 0.0, 10.000004, 9.929575 
1.755e+3, 2.445034e+2, -602998.44, -667018.7, 0.0015487566, 0.0000010987999, 0.000074849166, -602998.44, -59131.59, 0.0, 10.000004, 9.916135 
1.755e+3, 2.5441962e+2, -504245.78, -568343.2, -0.014338603, 0.0000010996881, -0.00010660634, -504245.78, -57558.27, 0.0, 10.000004, 9.916035 
1.755e+3, 2.643288e+2, -416010.38, -490987.8, 0.0016910387, 0.0000010980549, 0.00014071248, -416010.38, -66432.74, 0.0, 10.000004, 9.901963 
1.755e+3, 2.742313e+2, -316725.2, -391374.72, -0.012503786, 0.0000010931999, -0.00020334077, -316725.2, -64192.203, 0.0, 10.000004, 9.902383 
1.755e+3, 2.841256e+2, -230251.95, -318081.22, 0.0033028885, 0.0000010892234, 0.00022913581, -230251.95, -74682.984, 0.0, 10.000004, 9.885437 
1.755e+3, 2.940121e+2, -130545.84, -217764.98, -0.009885387, 0.000001086463, -0.00025326424, -130545.84, -71864.44, 0.0, 10.000004, 9.886215 
1.755e+3, 3.0392656e+2, -40801.867, -84750.16, 0.005671538, 0.0000010849288, 0.00017320053, -40801.867, -40801.867, 0.0, 10.000004, 9.942171 
1.755e+3, 3.138706e+2, -39723.863, -82511.21, -0.0065687834, 0.0000010852061, -0.000055097375, -39723.863, -39723.863, 0.0, 10.000004, 9.943683 
1.7650001e+3, 1.2499337e+2, -1719941.6, -1724224.4, 0.015185102, 0.000001210214, 0.000017898541, -1719941.6, -4876.6543, 0.0, 10.000004, 9.994326 
1.7650001e+3, 1.3498762e+2, -1622561.3, -1627434.6, -0.0038503697, 0.0000011868508, -0.00006804281, -1622561.3, -5439.9263, 0.0, 10.000004, 9.993543 
1.7650001e+3, 1.4497516e+2, -1534459.9, -1548146.0, 0.011311895, 0.0000011755712, 0.00007112277, -1534459.9, -15216.437, 0.0, 10.000004, 9.981863 
1.7650001e+3, 1.5495704e+2, -1436732.3, -1450821.6, -0.006538409, 0.0000011762023, -0.00005671388, -1436732.3, -15311.285, 0.0, 10.000004, 9.981331 
1.7650001e+3, 1.649323e+2, -1348681.3, -1371952.0, 0.011106264, 0.000001172601, 0.00004761986, -1348681.3, -25017.775, 0.0, 10.000004, 9.969247 
1.7650001e+3, 1.7490157e+2, -1250723.4, -1274309.9, -0.0069955355, 0.0000011646779, -0.00007359378, -1250723.4, -24758.795, 0.0, 10.000004, 9.968833 
1.7650001e+3, 1.8486422e+2, -1162642.4, -1195719.9, 0.009785344, 0.0000011573946, 0.00006635932, -1162642.4, -34311.85, 0.0, 10.000004, 9.956393 
1.7650001e+3, 1.9482066e+2, -1064492.6, -1097832.8, -0.008131768, 0.0000011507798, -0.000057445945, -1064492.6, -33735.215, 0.0, 10.000004, 9.956051 
1.7650001e+3, 2.0477043e+2, -976328.75, -1019434.75, 0.007813849, 0.0000011470398, 0.00006827942, -976328.75, -43078.965, 0.0, 10.000004, 9.943289 
1.7650001e+3, 2.1471377e+2, -878041.75, -921409.6, -0.007105724, 0.0000011464128, -0.00012664107, -878041.75, -42236.58, 0.0, 10.000004, 9.942947 
1.7650001e+3, 2.246504e+2, -789755.7, -843144.6, 0.010566671, 0.0000011413537, 0.00012105103, -789755.7, -51329.473, 0.0, 10.000004, 9.929906 
1.7650001e+3, 2.3458035e+2, -691322.2, -744966.25, -0.007829323, 0.0000011312759, -0.00008866176, -691322.2, -50209.73, 0.0, 10.000004, 9.929575 
1.7650001e+3, 2.445034e+2, -602998.2, -667018.6, 0.0061668684, 0.0000011266461, 0.00007485264, -602998.2, -59131.34, 0.0, 10.000004, 9.916134 
1.7650001e+3, 2.5441962e+2, -504245.53, -568343.1, -0.008752182, 0.0000011285282, -0.000106603016, -504245.53, -57558.016, 0.0, 10.000004, 9.916035 
1.7650001e+3, 2.643288e+2, -416010.13, -490987.72, 0.008112047, 0.0000011271896, 0.00014071555, -416010.13, -66432.49, 0.0, 10.000004, 9.901963 
1.7650001e+3, 2.742313e+2, -316724.94, -391374.63, -0.0077078296, 0.0000011217361, -0.00020333809, -316724.94, -64191.957, 0.0, 10.000004, 9.902383 
1.7650001e+3, 2.841256e+2, -230251.7, -318081.13, 0.006921926, 0.0000011173331, 0.00022913833, -230251.7, -74682.734, 0.0, 10.000004, 9.885437 
1.7650001e+3, 2.940121e+2, -130545.6, -217764.92, -0.007865789, 0.0000011143859, -0.00025326156, -130545.6, -71864.195, 0.0, 10.000004, 9.886215 
1.7650001e+3, 3.0392656e+2, -40801.63, -84750.09, 0.007023002, 0.0000011130803, 0.00017320242, -40801.63, -40801.63, 0.0, 10.000004, 9.942171 
1.7650001e+3, 3.138706e+2, -39723.62, -82511.15, -0.0069974144, 0.000001114201, -0.00005509769, -39723.62, -39723.62, 0.0, 10.000004, 9.943683 
1.7750001e+3, 1.2499337e+2, -1719941.8, -1724224.4, 0.0015974174, 0.0000012398463, 0.000017909673, -1719941.8, -4876.707, 0.0, 10.000004, 9.994326 
1.7750001e+3, 1.3498762e+2, -1622561.3, -1627434.6, -0.017440222, 0.000001218823, -0.000068030124, -1622561.3, -5439.9775, 0.0, 10.000004, 9.993543 
1.7750001e+3, 1.4497516e+2, -1534459.9, -1548146.0, 0.0044003767, 0.0000012075227, 0.0000711458, -1534459.9, -15216.484, 0.0, 10.000004, 9.981863 
1.7750001e+3, 1.5495704e+2, -1436732.3, -1450821.8, -0.013439526, 0.0000012057476, -0.00005670612, -1436732.3, -15311.332, 0.0, 10.000004, 9.981331 
1.7750001e+3, 1.649323e+2, -1348681.4, -1371952.1, 0.002095811, 0.0000012012503, 0.000047623053, -1348681.4, -25017.822, 0.0, 10.000004, 9.969247 
1.7750001e+3, 1.7490157e+2, -1250723.4, -1274310.0, -0.016017247, 0.0000011939734, -0.000073584204, -1250723.4, -24758.84, 0.0, 10.000004, 9.968833 
1.7750001e+3, 1.8486422e+2, -1162642.4, -1195719.9, 0.0030240298, 0.0000011880502, 0.00006637025, -1162642.4, -34311.9, 0.0, 10.000004, 9.956393 
1.7750001e+3, 1.9482066e+2, -1064492.8, -1097832.8, -0.014867042, 0.0000011835425, -0.000057438883, -1064492.8, -33735.258, 0.0, 10.000004, 9.956051 
1.7750001e+3, 2.0477043e+2, -976328.75, -1019434.8, 0.0014279168, 0.0000011776189, 0.00006828415, -976328.75, -43079.004, 0.0, 10.000004, 9.943289 
1.7750001e+3, 2.1471377e+2, -878041.8, -921409.7, -0.013484637, 0.0000011701607, -0.000126637, -878041.8, -42236.617, 0.0, 10.000004, 9.942947 
1.7750001e+3, 2.246504e+2, -789755.7, -843144.7, 0.004924307, 0.0000011661725, 0.0001210567, -789755.7, -51329.52, 0.0, 10.000004, 9.929906 
1.7750001e+3, 2.3458035e+2, -691322.25, -744966.3, -0.013447651, 0.0000011661123, -0.00008865199, -691322.25, -50209.773, 0.0, 10.000004, 9.929575 
1.7750001e+3, 2.445034e+2, -602998.2, -667018.7, 0.0017160649, 0.0000011628975, 0.00007486081, -602998.2, -59131.375, 0.0, 10.000004, 9.916134 
1.7750001e+3, 2.5441965e+2, -504245.56, -568343.2, -0.013146999, 0.0000011559102, -0.00010660329, -504245.56, -57558.05, 0.0, 10.000004, 9.916035 
1.7750001e+3, 2.643288e+2, -416010.16, -490987.8, 0.004516145, 0.0000011509986, 0.00014071321, -416010.16, -66432.53, 0.0, 10.000004, 9.901963 
1.7750001e+3, 2.742313e+2, -316724.97, -391374.72, -0.011250232, 0.0000011487365, -0.00020333435, -316724.97, -64191.992, 0.0, 10.000004, 9.902383 
1.7750001e+3, 2.841256e+2, -230251.73, -318081.2, 0.003677289, 0.0000011477139, 0.00022914467, -230251.73, -74682.77, 0.0, 10.000004, 9.885437 
1.7750001e+3, 2.940121e+2, -130545.63, -217764.98, -0.011083675, 0.0000011483742, -0.0002532574, -130545.63, -71864.23, 0.0, 10.000004, 9.886215 
1.7750001e+3, 3.0392656e+2, -40801.66, -84750.16, 0.005537078, 0.0000011457024, 0.00017320197, -40801.66, -40801.66, 0.0, 10.000004, 9.942171 
1.7750001e+3, 3.138706e+2, -39723.656, -82511.21, -0.008280143, 0.0000011380705, -0.000055106335, -39723.656, -39723.656, 0.0, 10.000004, 9.943683 
1.7850001e+3, 1.2499337e+2, -1719941.4, -1724224.3, 0.01461739, 0.0000012678247, 0.000017920096, -1719941.4, -4876.43, 0.0, 10.000004, 9.994326 
1.7850001e+3, 1.3498762e+2, -1622561.0, -1627434.5, -0.004743111, 0.0000012525163, -0.0000680267, -1622561.0, -5439.6797, 0.0, 10.000004, 9.993543 
1.7850001e+3, 1.4497516e+2, -1534459.6, -1548145.9, 0.017550306, 0.0000012419816, 0.000071160335, -1534459.6, -15216.186, 0.0, 10.000004, 9.981863 
1.7850001e+3, 1.5495704e+2, -1436732.0, -1450821.6, -0.0029927534, 0.0000012359823, -0.000056699428, -1436732.0, -15311.053, 0.0, 10.000004, 9.981331 
1.7850001e+3, 1.649323e+2, -1348681.0, -1371952.0, 0.011846245, 0.0000012304677, 0.000047627007, -1348681.0, -25017.547, 0.0, 10.000004, 9.969246 
1.7850001e+3, 1.7490157e+2, -1250723.1, -1274309.9, -0.0070316116, 0.0000012254478, -0.00007357779, -1250723.1, -24758.559, 0.0, 10.000004, 9.968833 
1.7850001e+3, 1.8486422e+2, -1162642.1, -1195719.8, 0.011890976, 0.0000012197403, 0.00006637739, -1162642.1, -34311.613, 0.0, 10.000004, 9.956393 
1.7850001e+3, 1.9482066e+2, -1064492.5, -1097832.8, -0.0061664945, 0.0000012133122, -0.000057432862, -1064492.5, -33734.984, 0.0, 10.000004, 9.95605 
1.7850001e+3, 2.0477043e+2, -976328.5, -1019434.75, 0.009205824, 0.0000012070775, 0.00006828889, -976328.5, -43078.734, 0.0, 10.000004, 9.943289 
1.7850001e+3, 2.1471377e+2, -878041.5, -921409.6, -0.010660038, 0.0000012010515, -0.0001266337, -878041.5, -42236.344, 0.0, 10.000004, 9.942947 
1.7850001e+3, 2.246504e+2, -789755.44, -843144.6, 0.0067824093, 0.0000011972062, 0.00012105964, -789755.44, -51329.246, 0.0, 10.000004, 9.929906 
1.7850001e+3, 2.3458035e+2, -691321.94, -744966.25, -0.008901755, 0.0000011958283, -0.00008864813, -691321.94, -50209.508, 0.0, 10.000004, 9.929575 
1.7850001e+3, 2.445034e+2, -602997.94, -667018.56, 0.007376489, 0.0000011922667, 0.00007486474, -602997.94, -59131.11, 0.0, 10.000004, 9.916134 
1.7850001e+3, 2.5441965e+2, -504245.28, -568343.1, -0.010571105, 0.0000011860933, -0.00010660029, -504245.28, -57557.79, 0.0, 10.000004, 9.916035 
1.7850001e+3, 2.643288e+2, -416009.9, -490987.72, 0.0064182742, 0.0000011813598, 0.00014071567, -416009.9, -66432.266, 0.0, 10.000004, 9.901963 
1.7850001e+3, 2.742313e+2, -316724.72, -391374.63, -0.008855167, 0.0000011784641, -0.00020333193, -316724.72, -64191.734, 0.0, 10.000004, 9.902383 
1.7850001e+3, 2.841256e+2, -230251.48, -318081.13, 0.0068676146, 0.0000011771801, 0.00022914683, -230251.48, -74682.516, 0.0, 10.000004, 9.885437 
1.7850001e+3, 2.940121e+2, -130545.375, -217764.92, -0.008257108, 0.0000011780925, -0.00025325583, -130545.375, -71863.97, 0.0, 10.000004, 9.886215 
1.7850001e+3, 3.0392656e+2, -40801.402, -84750.086, 0.008854712, 0.000001175588, 0.00017320339, -40801.402, -40801.402, 0.0, 10.000004, 9.942171 
1.7850001e+3, 3.138706e+2, -39723.402, -82511.15, -0.005500058, 0.0000011679927, -0.00005510446, -39723.402, -39723.402, 0.0, 10.000004, 9.943683 
1.7950001e+3, 1.2499337e+2, -1719941.5, -1724224.4, 0.0062649525, 0.0000012941495, 0.000017929813, -1719941.5, -4876.484, 0.0, 10.000004, 9.994325 
1.7950001e+3, 1.3498762e+2, -1622561.0, -1627434.6, -0.013096673, 0.0000012879307, -0.00006803253, -1622561.0, -5439.7324, 0.0, 10.000004, 9.993543 
1.7950001e+3, 1.4497516e+2, -1534459.6, -1548146.0, 0.0063400646, 0.0000012789479, 0.00007116637, -1534459.6, -15216.24, 0.0, 10.000004, 9.981863 
1.7950001e+3, 1.5495704e+2, -1436732.0, -1450821.8, -0.014207617, 0.0000012669063, -0.0000566938, -1436732.0, -15311.106, 0.0, 10.000004, 9.981331 
1.7950001e+3, 1.649323e+2, -1348681.1, -1371952.1, 0.0047597475, 0.0000012602529, 0.00004763171, -1348681.1, -25017.598, 0.0, 10.000004, 9.969246 
1.7950001e+3, 1.7490157e+2, -1250723.1, -1274310.0, -0.0140964575, 0.000001259101, -0.00007357452, -1250723.1, -24758.605, 0.0, 10.000004, 9.968833 
1.7950001e+3, 1.8486422e+2, -1162642.1, -1195719.9, 0.003201427, 0.0000012524649, 0.00006638072, -1162642.1, -34311.66, 0.0, 10.000004, 9.956393 
1.7950001e+3, 1.9482066e+2, -1064492.5, -1097832.8, -0.014874997, 0.000001240089, -0.000057427882, -1064492.5, -33735.03, 0.0, 10.000004, 9.95605 
1.7950001e+3, 2.0477043e+2, -976328.56, -1019434.8, 0.00318303, 0.000001235416, 0.000068293644, -976328.56, -43078.78, 0.0, 10.000004, 9.943289 
1.7950001e+3, 2.1471377e+2, -878041.56, -921409.7, -0.016627451, 0.0000012390853, -0.0001266312, -878041.56, -42236.39, 0.0, 10.000004, 9.942947 
1.7950001e+3, 2.246504e+2, -789755.44, -843144.7, 0.0008984584, 0.0000012344544, 0.000121059864, -789755.44, -51329.285, 0.0, 10.000004, 9.929906 
1.7950001e+3, 2.3458035e+2, -691322.0, -744966.3, -0.014783139, 0.0000012204243, -0.00008865019, -691322.0, -50209.543, 0.0, 10.000004, 9.929575 
1.7950001e+3, 2.445034e+2, -602997.94, -667018.7, 0.0024353713, 0.0000012147538, 0.00007486444, -602997.94, -59131.15, 0.0, 10.000004, 9.916134 
1.7950001e+3, 2.5441965e+2, -504245.34, -568343.2, -0.015467103, 0.0000012190773, -0.000106594016, -504245.34, -57557.83, 0.0, 10.000004, 9.916035 
1.7950001e+3, 2.643288e+2, -416009.94, -490987.78, 0.0024801905, 0.0000012182732, 0.00014072291, -416009.94, -66432.305, 0.0, 10.000004, 9.901963 
1.7950001e+3, 2.742313e+2, -316724.75, -391374.7, -0.012729162, 0.0000012109189, -0.00020333084, -316724.75, -64191.77, 0.0, 10.000004, 9.902383 
1.7950001e+3, 2.841256e+2, -230251.52, -318081.2, 0.0040918654, 0.000001205732, 0.00022914476, -230251.52, -74682.55, 0.0, 10.000004, 9.885437 
1.7950001e+3, 2.940121e+2, -130545.41, -217764.98, -0.010934019, 0.000001203541, -0.00025325688, -130545.41, -71864.0, 0.0, 10.000004, 9.886215 
1.7950001e+3, 3.0392656e+2, -40801.438, -84750.16, 0.0065973434, 0.000001202737, 0.00017320664, -40801.438, -40801.438, 0.0, 10.000004, 9.942171 
1.7950001e+3, 3.138706e+2, -39723.434, -82511.22, -0.0077083264, 0.0000012039673, -0.000055092063, -39723.434, -39723.434, 0.0, 10.000004, 9.943683 
1.8050002e+3, 1.2499337e+2, -1719941.1, -1724224.3, 0.015826631, 0.0000013267261, 0.000017939123, -1719941.1, -4876.175, 0.0, 10.000004, 9.994325 
1.8050002e+3, 1.3498762e+2, -1622560.8, -1627434.5, -0.005589992, 0.0000013201101, -0.00006803459, -1622560.8, -5439.433, 0.0, 10.000004, 9.993543 
1.8050002e+3, 1.4497516e+2, -1534459.4, -1548145.9, 0.012415275, 0.0000013115715, 0.00007117759, -1534459.4, -15215.941, 0.0, 10.000004, 9.981863 
1.8050002e+3, 1.5495704e+2, -1436731.8, -1450821.6, -0.0071672015, 0.0000013008112, -0.000056687106, -1436731.8, -15310.802, 0.0, 10.000004, 9.981331 
1.8050002e+3, 1.649323e+2, -1348680.8, -1371952.0, 0.013610932, 0.0000012936309, 0.000047636695, -1348680.8, -25017.293, 0.0, 10.000004, 9.969246 
1.8050002e+3, 1.7490157e+2, -1250722.8, -1274309.9, -0.006468697, 0.0000012901063, -0.00007356838, -1250722.8, -24758.316, 0.0, 10.000004, 9.968833 
1.8050002e+3, 1.8486422e+2, -1162641.9, -1195719.8, 0.009743758, 0.0000012832476, 0.00006638675, -1162641.9, -34311.37, 0.0, 10.000004, 9.956393 
1.8050002e+3, 1.9482066e+2, -1064492.1, -1097832.6, -0.00977204, 0.0000012728989, -0.00005742333, -1064492.1, -33734.74, 0.0, 10.000004, 9.95605 
1.8050002e+3, 2.0477043e+2, -976328.25, -1019434.75, 0.010636554, 0.0000012685013, 0.00006829818, -976328.25, -43078.492, 0.0, 10.000004, 9.943289 
1.8050002e+3, 2.1471377e+2, -878041.25, -921409.6, -0.0069676726, 0.0000012705488, -0.00012662513, -878041.25, -42236.105, 0.0, 10.000004, 9.942947 
1.8050002e+3, 2.246504e+2, -789755.2, -843144.6, 0.009418274, 0.0000012653339, 0.000121065896, -789755.2, -51329.0, 0.0, 10.000004, 9.929906 
1.8050002e+3, 2.3458037e+2, -691321.7, -744966.2, -0.010112642, 0.0000012518958, -0.00008864602, -691321.7, -50209.266, 0.0, 10.000004, 9.929575 
1.8050002e+3, 2.445034e+2, -602997.7, -667018.56, 0.008068131, 0.0000012464217, 0.00007486774, -602997.7, -59130.875, 0.0, 10.000004, 9.916134 
1.8050002e+3, 2.5441965e+2, -504245.06, -568343.1, -0.008278387, 0.0000012504677, -0.000106590385, -504245.06, -57557.55, 0.0, 10.000004, 9.916034 
1.8050002e+3, 2.643288e+2, -416009.66, -490987.72, 0.009135102, 0.0000012495647, 0.00014072655, -416009.66, -66432.02, 0.0, 10.000004, 9.901963 
1.8050002e+3, 2.742313e+2, -316724.47, -391374.63, -0.008811752, 0.0000012423396, -0.00020332764, -316724.47, -64191.492, 0.0, 10.000004, 9.902383 
1.8050002e+3, 2.841256e+2, -230251.23, -318081.13, 0.0071806083, 0.0000012371252, 0.00022914741, -230251.23, -74682.28, 0.0, 10.000004, 9.885437 
1.8050002e+3, 2.940121e+2, -130545.13, -217764.9, -0.009179246, 0.0000012346904, -0.000253255, -130545.13, -71863.734, 0.0, 10.000004, 9.886215 
1.8050002e+3, 3.0392656e+2, -40801.17, -84750.086, 0.008557227, 0.0000012337575, 0.00017320778, -40801.17, -40801.17, 0.0, 10.000004, 9.942171 
1.8050002e+3, 3.138706e+2, -39723.164, -82511.14, -0.005874501, 0.0000012350312, -0.00005509153, -39723.164, -39723.164, 0.0, 10.000004, 9.943683 
1.8150002e+3, 1.2499337e+2, -1719941.1, -1724224.4, 0.0053606015, 0.0000013655543, 0.000017948025, -1719941.1, -4876.234, 0.0, 10.000004, 9.994325 
1.8150002e+3, 1.3498762e+2, -1622560.8, -1627434.6, -0.016057584, 0.0000013490546, -0.00006803286, -1622560.8, -5439.491, 0.0, 10.000004, 9.993543 
1.8150002e+3, 1.4497516e+2, -1534459.4, -1548146.0, 0.0029681055, 0.0000013398526, 0.00007119398, -1534459.4, -15215.995, 0.0, 10.000004, 9.981862 
1.8150002e+3, 1.5495704e+2, -1436731.8, -1450821.8, -0.01661287, 0.0000013376965, -0.00005667935, -1436731.8, -15310.854, 0.0, 10.000004, 9.981331 
1.8150002e+3, 1.649323e+2, -1348680.9, -1371952.1, 0.0038186177, 0.0000013306015, 0.000047641952, -1348680.9, -25017.346, 0.0, 10.000004, 9.969246 
1.8150002e+3, 1.7490157e+2, -1250722.9, -1274310.0, -0.016262962, 0.0000013184637, -0.00007355936, -1250722.9, -24758.367, 0.0, 10.000004, 9.968833 
1.8150002e+3, 1.8486422e+2, -1162641.9, -1195719.9, 0.001998662, 0.0000013120881, 0.000066395456, -1162641.9, -34311.42, 0.0, 10.000004, 9.956393 
1.8150002e+3, 1.9482066e+2, -1064492.3, -1097832.8, -0.017493542, 0.0000013117415, -0.000057419213, -1064492.3, -33734.79, 0.0, 10.000004, 9.95605 
1.8150002e+3, 2.0477043e+2, -976328.25, -1019434.8, 0.004289083, 0.0000013063333, 0.000068302485, -976328.25, -43078.535, 0.0, 10.000004, 9.943289 
1.8150002e+3, 2.1471377e+2, -878041.3, -921409.7, -0.013286924, 0.0000012954422, -0.00012661546, -878041.3, -42236.15, 0.0, 10.000004, 9.942947 
1.8150002e+3, 2.246504e+2, -789755.2, -843144.7, 0.001943862, 0.0000012898453, 0.000121077734, -789755.2, -51329.047, 0.0, 10.000004, 9.929906 
1.8150002e+3, 2.3458037e+2, -691321.75, -744966.3, -0.017624933, 0.0000012902424, -0.00008863563, -691321.75, -50209.313, 0.0, 10.000004, 9.929575 
1.8150002e+3, 2.445034e+2, -602997.7, -667018.6, 0.0043507675, 0.0000012872698, 0.000074874646, -602997.7, -59130.914, 0.0, 10.000004, 9.916134 
1.8150002e+3, 2.5441965e+2, -504245.1, -568343.2, -0.011813557, 0.0000012802648, -0.0001065894, -504245.1, -57557.59, 0.0, 10.000004, 9.916034 
1.8150002e+3, 2.643288e+2, -416009.7, -490987.78, 0.0042816647, 0.0000012752348, 0.00014072655, -416009.7, -66432.06, 0.0, 10.000004, 9.901962 
1.8150002e+3, 2.742313e+2, -316724.5, -391374.7, -0.013753659, 0.0000012727266, -0.00020332231, -316724.5, -64191.535, 0.0, 10.000004, 9.902383 
1.8150002e+3, 2.841256e+2, -230251.28, -318081.2, 0.0038217215, 0.0000012713593, 0.00022915473, -230251.28, -74682.32, 0.0, 10.000004, 9.885437 
1.8150002e+3, 2.940121e+2, -130545.17, -217764.98, -0.012395645, 0.0000012715404, -0.00025325027, -130545.17, -71863.77, 0.0, 10.000004, 9.886215 
1.8150002e+3, 3.0392656e+2, -40801.207, -84750.16, 0.007366385, 0.0000012686492, 0.0001732068, -40801.207, -40801.207, 0.0, 10.000004, 9.942171 
1.8150002e+3, 3.138706e+2, -39723.2, -82511.21, -0.0068277684, 0.0000012611847, -0.000055102853, -39723.2, -39723.2, 0.0, 10.000004, 9.943683 
1.825e+3, 1.2499338e+2, -1719940.9, -1724224.3, 0.017518625, 0.0000014015974, 0.000017959417, -1719940.9, -4875.9126, 0.0, 10.000005, 9.994325 
1.825e+3, 1.3498762e+2, -1622560.4, -1627434.5, -0.00395511, 0.0000013826398, -0.00006803382, -1622560.4, -5439.17, 0.0, 10.000005, 9.993543 
1.825e+3, 1.4497516e+2, -1534459.0, -1548145.9, 0.014353861, 0.000001372617, 0.00007120771, -1534459.0, -15215.676, 0.0, 10.000005, 9.981862 
1.825e+3, 1.5495704e+2, -1436731.5, -1450821.6, -0.0066637844, 0.000001371278, -0.00005667169, -1436731.5, -15310.543, 0.0, 10.000005, 9.981331 
1.825e+3, 1.649323e+2, -1348680.5, -1371952.0, 0.013792629, 0.0000013643202, 0.000047647085, -1348680.5, -25017.04, 0.0, 10.000005, 9.969246 
1.825e+3, 1.7490157e+2, -1250722.5, -1274309.9, -0.006634487, 0.0000013516251, -0.000073553114, -1250722.5, -24758.059, 0.0, 10.000005, 9.968832 
1.825e+3, 1.8486424e+2, -1162641.6, -1195719.8, 0.0126170665, 0.0000013456731, 0.00006640219, -1162641.6, -34311.113, 0.0, 10.000005, 9.956393 
1.825e+3, 1.9482066e+2, -1064491.9, -1097832.6, -0.008172048, 0.000001346776, -0.00005741259, -1064491.9, -33734.48, 0.0, 10.000005, 9.95605 
1.825e+3, 2.0477043e+2, -976327.94, -1019434.7, 0.011574118, 0.000001340529, 0.00006830826, -976327.94, -43078.23, 0.0, 10.000004, 9.943289 
1.825e+3, 2.1471377e+2, -878041.0, -921409.6, -0.008616777, 0.0000013263208, -0.00012661131, -878041.0, -42235.855, 0.0, 10.000004, 9.942947 
1.825e+3, 2.246504e+2, -789754.94, -843144.6, 0.008082142, 0.0000013208928, 0.00012108143, -789754.94, -51328.758, 0.0, 10.000004, 9.929906 
1.825e+3, 2.3458037e+2, -691321.44, -744966.2, -0.010078825, 0.0000013254056, -0.00008863106, -691321.44, -50209.008, 0.0, 10.000004, 9.929575 
1.825e+3, 2.445034e+2, -602997.44, -667018.56, 0.01064327, 0.0000013229744, 0.00007487907, -602997.44, -59130.61, 0.0, 10.000004, 9.916134 
1.825e+3, 2.5441965e+2, -504244.78, -568343.1, -0.009841617, 0.0000013122375, -0.00010658634, -504244.78, -57557.3, 0.0, 10.000004, 9.916034 
1.825e+3, 2.643288e+2, -416009.4, -490987.72, 0.006086678, 0.0000013059805, 0.00014072885, -416009.4, -66431.78, 0.0, 10.000004, 9.901962 
1.825e+3, 2.742313e+2, -316724.22, -391374.63, -0.0101875365, 0.0000013054434, -0.00020332001, -316724.22, -64191.246, 0.0, 10.000004, 9.902383 
1.825e+3, 2.841256e+2, -230250.98, -318081.13, 0.008656116, 0.0000013051246, 0.00022915713, -230250.98, -74682.02, 0.0, 10.000004, 9.885437 
1.825e+3, 2.940121e+2, -130544.88, -217764.9, -0.008922699, 0.0000013050767, -0.00025324762, -130544.88, -71863.48, 0.0, 10.000004, 9.886215 
1.825e+3, 3.0392656e+2, -40800.918, -84750.08, 0.009405846, 0.0000013015771, 0.00017320894, -40800.918, -40800.918, 0.0, 10.000004, 9.942171 
1.825e+3, 3.138706e+2, -39722.92, -82511.14, -0.0076239645, 0.0000012929528, -0.00005510235, -39722.92, -39722.92, 0.0, 10.000004, 9.943682 
1.835e+3, 1.2499338e+2, -1719940.9, -1724224.4, 0.0073380284, 0.0000014348552, 0.000017973298, -1719940.9, -4875.9727, 0.0, 10.000005, 9.994325 
1.835e+3, 1.3498762e+2, -1622560.5, -1627434.6, -0.014137331, 0.0000014208653, -0.000068037465, -1622560.5, -5439.2285, 0.0, 10.000005, 9.993543 
1.835e+3, 1.4497516e+2, -1534459.1, -1548146.0, 0.0031049582, 0.0000014098646, 0.000071218776, -1534459.1, -15215.732, 0.0, 10.000005, 9.981862 
1.835e+3, 1.5495704e+2, -1436731.5, -1450821.6, -0.017914467, 0.000001401556, -0.000056664136, -1436731.5, -15310.599, 0.0, 10.000005, 9.981331 
1.835e+3, 1.649323e+2, -1348680.5, -1371952.1, 0.004645211, 0.0000013947872, 0.000047652095, -1348680.5, -25017.092, 0.0, 10.000005, 9.969246 
1.835e+3, 1.7490157e+2, -1250722.6, -1274309.9, -0.01577094, 0.0000013895905, -0.000073549665, -1250722.6, -24758.111, 0.0, 10.000005, 9.968832 
1.835e+3, 1.8486424e+2, -1162641.6, -1195719.9, 0.0049648983, 0.0000013840021, 0.000066406974, -1162641.6, -34311.164, 0.0, 10.000005, 9.956393 
1.835e+3, 1.9482066e+2, -1064492.0, -1097832.8, -0.015807152, 0.0000013780027, -0.000057403475, -1064492.0, -33734.53, 0.0, 10.000005, 9.95605 
1.835e+3, 2.0477043e+2, -976328.0, -1019434.8, 0.0022880523, 0.000001371089, 0.00006831551, -976328.0, -43078.28, 0.0, 10.000004, 9.943289 
1.835e+3, 2.1471377e+2, -878041.06, -921409.7, -0.017937068, 0.0000013631842, -0.00012661266, -878041.06, -42235.906, 0.0, 10.000004, 9.942947 
1.835e+3, 2.246504e+2, -789754.94, -843144.7, 0.0043170135, 0.0000013584761, 0.000121077, -789754.94, -51328.8, 0.0, 10.000004, 9.929906 
1.835e+3, 2.3458037e+2, -691321.5, -744966.25, -0.013662395, 0.0000013573857, -0.00008863231, -691321.5, -50209.05, 0.0, 10.000004, 9.929575 
1.835e+3, 2.445034e+2, -602997.44, -667018.6, 0.0031626753, 0.0000013535359, 0.00007488101, -602997.44, -59130.656, 0.0, 10.000004, 9.916134 
1.835e+3, 2.5441965e+2, -504244.84, -568343.2, -0.017509548, 0.0000013463856, -0.000106581196, -504244.84, -57557.348, 0.0, 10.000004, 9.916034 
1.835e+3, 2.643288e+2, -416009.44, -490987.78, 0.002754684, 0.0000013418016, 0.00014073343, -416009.44, -66431.82, 0.0, 10.000004, 9.901962 
1.835e+3, 2.742313e+2, -316724.25, -391374.7, -0.013229034, 0.0000013404899, -0.00020332076, -316724.25, -64191.285, 0.0, 10.000004, 9.902383 
1.835e+3, 2.841256e+2, -230251.03, -318081.2, 0.0057930183, 0.000001338421, 0.00022915458, -230251.03, -74682.06, 0.0, 10.000004, 9.885437 
1.835e+3, 2.940121e+2, -130544.92, -217764.98, -0.011769867, 0.0000013352994, -0.00025324707, -130544.92, -71863.516, 0.0, 10.000004, 9.886215 
1.835e+3, 3.0392656e+2, -40800.96, -84750.164, 0.0058725295, 0.0000013325413, 0.0001732142, -40800.96, -40800.96, 0.0, 10.000004, 9.942171 
1.835e+3, 3.138706e+2, -39722.96, -82511.23, -0.011237995, 0.000001330335, -0.000055090022, -39722.96, -39722.96, 0.0, 10.000004, 9.943682 
1.8450001e+3, 1.2499338e+2, -1719940.5, -1724224.3, 0.017414188, 0.0000014738811, 0.000017985607, -1719940.5, -4875.625, 0.0, 10.000005, 9.994325 
1.8450001e+3, 1.3498762e+2, -1622560.1, -1627434.5, -0.005419203, 0.0000014552028, -0.00006803719, -1622560.1, -5438.9, 0.0, 10.000005, 9.993543 
1.8450001e+3, 1.4497517e+2, -1534458.8, -1548145.9, 0.012726788, 0.0000014429797, 0.00007123508, -1534458.8, -15215.408, 0.0, 10.000005, 9.981862 
1.8450001e+3, 1.5495704e+2, -1436731.1, -1450821.6, -0.00869522, 0.000001436927, -0.000056656907, -1436731.1, -15310.269, 0.0, 10.000005, 9.981331 
1.8450001e+3, 1.649323e+2, -1348680.3, -1371952.0, 0.013634603, 0.0000014312322, 0.00004765582, -1348680.3, -25016.762, 0.0, 10.000005, 9.969246 
1.8450001e+3, 1.7490157e+2, -1250722.3, -1274309.9, -0.008732462, 0.0000014259031, -0.00007354376, -1250722.3, -24757.785, 0.0, 10.000005, 9.968832 
1.8450001e+3, 1.8486424e+2, -1162641.4, -1195719.8, 0.012280627, 0.000001419214, 0.00006641351, -1162641.4, -34310.844, 0.0, 10.000005, 9.956393 
1.8450001e+3, 1.9482066e+2, -1064491.6, -1097832.6, -0.008362197, 0.0000014111007, -0.000057397945, -1064491.6, -33734.215, 0.0, 10.000005, 9.95605 
1.8450001e+3, 2.0477043e+2, -976327.7, -1019434.7, 0.009872971, 0.0000014047368, 0.000068320725, -976327.7, -43077.965, 0.0, 10.000005, 9.943288 
1.8450001e+3, 2.1471377e+2, -878040.7, -921409.56, -0.010975666, 0.0000014002671, -0.000126607, -878040.7, -42235.582, 0.0, 10.000005, 9.942947 
1.8450001e+3, 2.246504e+2, -789754.6, -843144.56, 0.011483772, 0.0000013954508, 0.00012108195, -789754.6, -51328.48, 0.0, 10.000005, 9.929906 
1.8450001e+3, 2.3458037e+2, -691321.2, -744966.2, -0.009870642, 0.0000013902403, -0.000088629364, -691321.2, -50208.75, 0.0, 10.000005, 9.929574 
1.8450001e+3, 2.445034e+2, -602997.1, -667018.56, 0.0065563903, 0.0000013855466, 0.000074883974, -602997.1, -59130.36, 0.0, 10.000005, 9.916134 
1.8450001e+3, 2.5441965e+2, -504244.53, -568343.1, -0.010496846, 0.0000013814698, -0.00010657579, -504244.53, -57557.04, 0.0, 10.000005, 9.916034 
1.8450001e+3, 2.643288e+2, -416009.13, -490987.7, 0.011631883, 0.000001377948, 0.0001407389, -416009.13, -66431.51, 0.0, 10.000005, 9.901962 
1.8450001e+3, 2.742313e+2, -316723.94, -391374.6, -0.009184685, 0.0000013751298, -0.00020331828, -316723.94, -64190.98, 0.0, 10.000005, 9.902383 
1.8450001e+3, 2.841256e+2, -230250.72, -318081.1, 0.0076693427, 0.0000013720338, 0.00022915586, -230250.72, -74681.766, 0.0, 10.000005, 9.885437 
1.8450001e+3, 2.940121e+2, -130544.625, -217764.9, -0.009499199, 0.0000013685528, -0.00025324457, -130544.625, -71863.23, 0.0, 10.000005, 9.886215 
1.8450001e+3, 3.0392656e+2, -40800.664, -84750.08, 0.00991276, 0.0000013661677, 0.0001732172, -40800.664, -40800.664, 0.0, 10.000005, 9.942171 
1.8450001e+3, 3.138706e+2, -39722.66, -82511.14, -0.004666171, 0.0000013654154, -0.00005508767, -39722.66, -39722.66, 0.0, 10.000005, 9.943682 
1.8550001e+3, 1.2499338e+2, -1719940.6, -1724224.4, 0.0032034356, 0.0000015186745, 0.000017996344, -1719940.6, -4875.6885, 0.0, 10.000005, 9.994325 
1.8550001e+3, 1.3498762e+2, -1622560.3, -1627434.6, -0.019632583, 0.0000014856525, -0.00006803298, -1622560.3, -5438.9624, 0.0, 10.000005, 9.993543 
1.8550001e+3, 1.4497517e+2, -1534458.9, -1548146.0, 0.003062325, 0.0000014719627, 0.00007125663, -1534458.9, -15215.466, 0.0, 10.000005, 9.981862 
1.8550001e+3, 1.5495704e+2, -1436731.3, -1450821.6, -0.018352611, 0.0000014773907, -0.000056650002, -1436731.3, -15310.325, 0.0, 10.000005, 9.981331 
1.8550001e+3, 1.649323e+2, -1348680.3, -1371952.1, 0.0036679546, 0.000001473655, 0.000047658254, -1348680.3, -25016.82, 0.0, 10.000005, 9.969246 
1.8550001e+3, 1.7490157e+2, -1250722.3, -1274309.9, -0.01870086, 0.0000014605629, -0.00007353538, -1250722.3, -24757.842, 0.0, 10.000005, 9.968832 
1.8550001e+3, 1.8486424e+2, -1162641.4, -1195719.9, 0.0031939512, 0.0000014513089, 0.00006642181, -1162641.4, -34310.9, 0.0, 10.000005, 9.956393 
1.8550001e+3, 1.9482067e+2, -1064491.6, -1097832.8, -0.017438808, 0.0000014460697, -0.000057396002, -1064491.6, -33734.27, 0.0, 10.000005, 9.95605 
1.8550001e+3, 2.0477043e+2, -976327.75, -1019434.8, 0.0031327899, 0.0000014414726, 0.00006832391, -976327.75, -43078.02, 0.0, 10.000005, 9.943288 
1.8550001e+3, 2.1471377e+2, -878040.75, -921409.7, -0.017667739, 0.0000014375696, -0.00012659433, -878040.75, -42235.633, 0.0, 10.000005, 9.942947 
1.8550001e+3, 2.246504e+2, -789754.7, -843144.7, 0.003472992, 0.0000014318168, 0.000121096295, -789754.7, -51328.53, 0.0, 10.000005, 9.929906 
1.8550001e+3, 2.3458037e+2, -691321.25, -744966.25, -0.017924672, 0.0000014239694, -0.000088622226, -691321.25, -50208.8, 0.0, 10.000005, 9.929574 
1.8550001e+3, 2.445034e+2, -602997.2, -667018.6, 0.0020060183, 0.0000014190064, 0.00007488796, -602997.2, -59130.402, 0.0, 10.000005, 9.916134 
1.8550001e+3, 2.5441965e+2, -504244.56, -568343.2, -0.014879079, 0.0000014174899, -0.00010657013, -504244.56, -57557.08, 0.0, 10.000005, 9.916034 
1.8550001e+3, 2.643288e+2, -416009.2, -490987.78, 0.0068541607, 0.0000014144199, 0.00014074522, -416009.2, -66431.555, 0.0, 10.000005, 9.901962 
1.8550001e+3, 2.742313e+2, -316724.0, -391374.7, -0.013989017, 0.0000014093633, -0.00020331258, -316724.0, -64191.027, 0.0, 10.000005, 9.902383 
1.8550001e+3, 2.841256e+2, -230250.77, -318081.2, 0.00377803, 0.0000014059628, 0.00022916094, -230250.77, -74681.805, 0.0, 10.000005, 9.885436 
1.8550001e+3, 2.940121e+2, -130544.664, -217764.98, -0.013308447, 0.0000014048368, -0.00025324008, -130544.664, -71863.266, 0.0, 10.000005, 9.886215 
1.8550001e+3, 3.0392656e+2, -40800.7, -84750.16, 0.008041478, 0.0000014024561, 0.00017321794, -40800.7, -40800.7, 0.0, 10.000005, 9.942171 
1.8550001e+3, 3.138706e+2, -39722.695, -82511.21, -0.006310255, 0.0000013981943, -0.00005509529, -39722.695, -39722.695, 0.0, 10.000005, 9.943682 
1.8650001e+3, 1.2499338e+2, -1719940.3, -1724224.3, 0.020425728, 0.0000015537547, 0.00001800986, -1719940.3, -4875.337, 0.0, 10.000005, 9.994325 
1.8650001e+3, 1.3498762e+2, -1622559.9, -1627434.5, -0.00421357, 0.000001524633, -0.00006803147, -1622559.9, -5438.608, 0.0, 10.000005, 9.993543 
1.8650001e+3, 1.4497517e+2, -1534458.5, -1548145.9, 0.019556807, 0.0000015117246, 0.00007127565, -1534458.5, -15215.112, 0.0, 10.000005, 9.981862 
1.8650001e+3, 1.5495706e+2, -1436730.9, -1450821.5, -0.0049275467, 0.0000015147878, -0.00005664254, -1436730.9, -15309.979, 0.0, 10.000005, 9.981331 
1.8650001e+3, 1.649323e+2, -1348679.9, -1371952.0, 0.015449978, 0.0000015101386, 0.000047662143, -1348679.9, -25016.477, 0.0, 10.000005, 9.969246 
1.8650001e+3, 1.7490157e+2, -1250722.0, -1274309.8, -0.0075048013, 0.0000014976154, -0.000073526906, -1250722.0, -24757.502, 0.0, 10.000005, 9.968832 
1.8650001e+3, 1.8486424e+2, -1162641.0, -1195719.8, 0.014078623, 0.0000014882892, 0.00006643106, -1162641.0, -34310.56, 0.0, 10.000005, 9.956393 
1.8650001e+3, 1.9482067e+2, -1064491.4, -1097832.6, -0.008505621, 0.0000014823072, -0.00005738997, -1064491.4, -33733.93, 0.0, 10.000005, 9.95605 
1.8650001e+3, 2.0477043e+2, -976327.4, -1019434.7, 0.012509394, 0.000001477635, 0.00006832865, -976327.4, -43077.684, 0.0, 10.000005, 9.943288 
1.8650001e+3, 2.1471377e+2, -878040.44, -921409.56, -0.009388716, 0.00000147438, -0.0001265888, -878040.44, -42235.305, 0.0, 10.000005, 9.942947 
1.8650001e+3, 2.246504e+2, -789754.3, -843144.56, 0.011567436, 0.0000014686115, 0.000121102414, -789754.3, -51328.203, 0.0, 10.000005, 9.929906 
1.8650001e+3, 2.3458037e+2, -691320.9, -744966.2, -0.00852139, 0.0000014599965, -0.00008861574, -691320.9, -50208.47, 0.0, 10.000005, 9.929574 
1.8650001e+3, 2.445034e+2, -602996.9, -667018.5, 0.011616229, 0.0000014547365, 0.00007489322, -602996.9, -59130.07, 0.0, 10.000005, 9.916134 
1.8650001e+3, 2.5441965e+2, -504244.25, -568343.06, -0.011356296, 0.000001453486, -0.00010656797, -504244.25, -57556.754, 0.0, 10.000005, 9.916034 
1.8650001e+3, 2.6432884e+2, -416008.84, -490987.7, 0.008475482, 0.0000014505404, 0.00014074663, -416008.84, -66431.24, 0.0, 10.000005, 9.901962 
1.8650001e+3, 2.742313e+2, -316723.7, -391374.6, -0.009353106, 0.0000014454267, -0.00020330893, -316723.7, -64190.71, 0.0, 10.000005, 9.902383 
1.8650001e+3, 2.841256e+2, -230250.44, -318081.1, 0.010656073, 0.0000014419254, 0.00022916529, -230250.44, -74681.49, 0.0, 10.000005, 9.885436 
1.8650001e+3, 2.940121e+2, -130544.34, -217764.89, -0.008187769, 0.0000014406395, -0.0002532372, -130544.34, -71862.945, 0.0, 10.000005, 9.886215 
1.8650001e+3, 3.0392656e+2, -40800.383, -84750.07, 0.010566105, 0.0000014382248, 0.00017321906, -40800.383, -40800.383, 0.0, 10.000005, 9.94217 
1.8650001e+3, 3.138706e+2, -39722.383, -82511.125, -0.010236881, 0.0000014341166, -0.000055096316, -39722.383, -39722.383, 0.0, 10.000005, 9.943682 
1.8750001e+3, 1.2499338e+2, -1719940.3, -1724224.3, 0.0071271383, 0.0000015791226, 0.000018026156, -1719940.3, -4875.4053, 0.0, 10.000005, 9.994325 
1.8750001e+3, 1.3498762e+2, -1622559.9, -1627434.6, -0.017514588, 0.0000015721437, -0.000068032634, -1622559.9, -5438.6753, 0.0, 10.000005, 9.993543 
1.8750001e+3, 1.4497517e+2, -1534458.5, -1548145.9, 0.008604505, 0.0000015622649, 0.00007129213, -1534458.5, -15215.179, 0.0, 10.000005, 9.981862 
1.8750001e+3, 1.5495706e+2, -1436730.9, -1450821.6, -0.015876224, 0.0000015491185, -0.000056634522, -1436730.9, -15310.043, 0.0, 10.000005, 9.981331 
1.8750001e+3, 1.649323e+2, -1348680.0, -1371952.0, 0.0051087453, 0.0000015406838, 0.000047667487, -1348680.0, -25016.537, 0.0, 10.000005, 9.969246 
1.8750001e+3, 1.7490157e+2, -1250722.0, -1274309.9, -0.017842943, 0.0000015370603, -0.00007351833, -1250722.0, -24757.56, 0.0, 10.000005, 9.968832 
1.8750001e+3, 1.8486424e+2, -1162641.1, -1195719.9, 0.0046509476, 0.0000015301546, 0.00006644126, -1162641.1, -34310.613, 0.0, 10.000005, 9.956393 
1.8750001e+3, 1.9482067e+2, -1064491.4, -1097832.8, -0.0179229, 0.000001519813, -0.00005737985, -1064491.4, -33733.99, 0.0, 10.000005, 9.95605 
1.8750001e+3, 2.0477043e+2, -976327.44, -1019434.75, 0.004689517, 0.000001513224, 0.00006833493, -976327.44, -43077.74, 0.0, 10.000005, 9.943288 
1.8750001e+3, 2.1471377e+2, -878040.5, -921409.7, -0.017175753, 0.0000015106986, -0.00012659044, -878040.5, -42235.36, 0.0, 10.000005, 9.942947 
1.8750001e+3, 2.246504e+2, -789754.4, -843144.7, 0.0046268664, 0.0000015058347, 0.00012110029, -789754.4, -51328.254, 0.0, 10.000005, 9.929906 
1.8750001e+3, 2.3458037e+2, -691320.94, -744966.25, -0.015434459, 0.0000014983218, -0.00008860992, -691320.94, -50208.516, 0.0, 10.000005, 9.929574 
1.8750001e+3, 2.445034e+2, -602996.9, -667018.6, 0.0057315836, 0.0000014927374, 0.00007489978, -602996.9, -59130.125, 0.0, 10.000005, 9.916134 
1.8750001e+3, 2.5441965e+2, -504244.28, -568343.2, -0.017191615, 0.0000014894582, -0.00010656931, -504244.28, -57556.81, 0.0, 10.000005, 9.916034 
1.8750001e+3, 2.6432884e+2, -416008.9, -490987.78, 0.0035116575, 0.0000014863095, 0.00014074314, -416008.9, -66431.28, 0.0, 10.000005, 9.901962 
1.8750001e+3, 2.742313e+2, -316723.72, -391374.7, -0.0142587405, 0.0000014833199, -0.0002033073, -316723.72, -64190.754, 0.0, 10.000005, 9.902383 
1.8750001e+3, 2.841256e+2, -230250.48, -318081.2, 0.0073357606, 0.0000014799214, 0.0002291689, -230250.48, -74681.53, 0.0, 10.000005, 9.885436 
1.8750001e+3, 2.940121e+2, -130544.38, -217764.98, -0.011365444, 0.000001475961, -0.00025323592, -130544.38, -71862.99, 0.0, 10.000005, 9.886215 
1.8750001e+3, 3.0392656e+2, -40800.434, -84750.17, 0.007995042, 0.000001473474, 0.00017322057, -40800.434, -40800.434, 0.0, 10.000005, 9.94217 
1.8750001e+3, 3.138706e+2, -39722.434, -82511.23, -0.012736874, 0.0000014731821, -0.000055090746, -39722.434, -39722.434, 0.0, 10.000005, 9.943682 
1.8850003e+3, 1.2499338e+2, -1719939.9, -1724224.1, 0.017213143, 0.0000016160924, 0.000018038521, -1719939.9, -4875.0444, 0.0, 10.000006, 9.994325 
1.8850003e+3, 1.3498764e+2, -1622559.5, -1627434.5, -0.00759946, 0.0000016132493, -0.000068037574, -1622559.5, -5438.2983, 0.0, 10.000005, 9.993543 
1.8850003e+3, 1.4497517e+2, -1534458.1, -1548145.8, 0.017251857, 0.0000016039496, 0.00007130715, -1534458.1, -15214.8, 0.0, 10.000005, 9.981862 
1.8850003e+3, 1.5495706e+2, -1436730.5, -1450821.5, -0.007188155, 0.0000015877955, -0.00005662626, -1436730.5, -15309.68, 0.0, 10.000005, 9.981331 
1.8850002e+3, 1.6493231e+2, -1348679.6, -1371951.9, 0.015773984, 0.0000015781436, 0.000047672907, -1348679.6, -25016.18, 0.0, 10.000005, 9.969246 
1.8850002e+3, 1.7490157e+2, -1250721.6, -1274309.8, -0.007981491, 0.0000015751308, -0.00007351174, -1250721.6, -24757.203, 0.0, 10.000005, 9.968832 
1.8850002e+3, 1.8486424e+2, -1162640.8, -1195719.8, 0.014107554, 0.0000015689373, 0.000066448294, -1162640.8, -34310.258, 0.0, 10.000005, 9.956393 
1.8850002e+3, 1.9482067e+2, -1064491.0, -1097832.6, -0.009851281, 0.0000015594143, -0.00005737311, -1064491.0, -33733.633, 0.0, 10.000005, 9.95605 
1.8850002e+3, 2.0477043e+2, -976327.06, -1019434.6, 0.012995244, 0.0000015523756, 0.00006834091, -976327.06, -43077.387, 0.0, 10.000005, 9.943288 
1.8850002e+3, 2.1471377e+2, -878040.1, -921409.56, -0.010208254, 0.0000015480272, -0.00012658573, -878040.1, -42235.008, 0.0, 10.000005, 9.942947 
1.8850002e+3, 2.246504e+2, -789754.06, -843144.56, 0.010082748, 0.0000015427698, 0.00012110419, -789754.06, -51327.906, 0.0, 10.000005, 9.929905 
1.8850002e+3, 2.3458037e+2, -691320.56, -744966.2, -0.012953707, 0.0000015364817, -0.00008860631, -691320.56, -50208.176, 0.0, 10.000005, 9.929574 
1.8850002e+3, 2.445034e+2, -602996.56, -667018.5, 0.009601375, 0.000001531325, 0.00007490358, -602996.56, -59129.785, 0.0, 10.000005, 9.916134 
1.8850002e+3, 2.5441965e+2, -504243.94, -568343.06, -0.010098283, 0.0000015275198, -0.0001065647, -504243.94, -57556.47, 0.0, 10.000005, 9.916034 
1.8850002e+3, 2.6432884e+2, -416008.56, -490987.66, 0.011144791, 0.0000015239477, 0.00014074748, -416008.56, -66430.945, 0.0, 10.000005, 9.901962 
1.8850002e+3, 2.742313e+2, -316723.38, -391374.6, -0.011091478, 0.0000015206679, -0.00020330457, -316723.38, -64190.414, 0.0, 10.000005, 9.902383 
1.8850002e+3, 2.841256e+2, -230250.14, -318081.1, 0.008536053, 0.0000015171391, 0.00022917053, -230250.14, -74681.195, 0.0, 10.000005, 9.885436 
1.8850002e+3, 2.940121e+2, -130544.055, -217764.89, -0.01148508, 0.0000015132672, -0.00025323467, -130544.055, -71862.66, 0.0, 10.000005, 9.886215 
1.8850002e+3, 3.0392656e+2, -40800.105, -84750.08, 0.010491891, 0.0000015109199, 0.00017322236, -40800.105, -40800.105, 0.0, 10.000005, 9.94217 
1.8850002e+3, 3.138706e+2, -39722.1, -82511.13, -0.005011082, 0.0000015108419, -0.000055087054, -39722.1, -39722.1, 0.0, 10.000005, 9.943682 
1.8950002e+3, 1.24993384e+2, -1719940.0, -1724224.3, 0.007930693, 0.0000016646634, 0.000018046958, -1719940.0, -4875.114, 0.0, 10.000006, 9.994325 
1.8950002e+3, 1.3498764e+2, -1622559.5, -1627434.5, -0.016883519, 0.0000016479504, -0.00006804627, -1622559.5, -5438.366, 0.0, 10.000005, 9.993543 
1.8950002e+3, 1.4497517e+2, -1534458.1, -1548145.9, 0.0031174354, 0.0000016367794, 0.00007132069, -1534458.1, -15214.866, 0.0, 10.000005, 9.981862 
1.8950002e+3, 1.5495706e+2, -1436730.6, -1450821.6, -0.021330329, 0.0000016308186, -0.00005661776, -1436730.6, -15309.745, 0.0, 10.000005, 9.981331 
1.8950002e+3, 1.6493231e+2, -1348679.6, -1371952.0, 0.005643527, 0.0000016225176, 0.00004767841, -1348679.6, -25016.242, 0.0, 10.000005, 9.969246 
1.8950002e+3, 1.7490159e+2, -1250721.6, -1274309.9, -0.018090937, 0.0000016118271, -0.00007350716, -1250721.6, -24757.264, 0.0, 10.000005, 9.968832 
1.8950002e+3, 1.8486424e+2, -1162640.8, -1195719.8, 0.0043776687, 0.0000016046376, 0.00006645216, -1162640.8, -34310.32, 0.0, 10.000005, 9.956393 
1.8950002e+3, 1.9482067e+2, -1064491.1, -1097832.8, -0.019576905, 0.0000016011106, -0.000057369747, -1064491.1, -33733.695, 0.0, 10.000005, 9.95605 
1.8950002e+3, 2.0477043e+2, -976327.1, -1019434.75, 0.004819693, 0.0000015950894, 0.00006834659, -976327.1, -43077.445, 0.0, 10.000005, 9.943288 
1.8950002e+3, 2.1471377e+2, -878040.2, -921409.6, -0.018351933, 0.0000015863661, -0.00012657467, -878040.2, -42235.066, 0.0, 10.000005, 9.942947 
1.8950002e+3, 2.246504e+2, -789754.06, -843144.6, 0.0022606472, 0.000001579417, 0.000121114106, -789754.06, -51327.965, 0.0, 10.000005, 9.929905 
1.8950002e+3, 2.3458037e+2, -691320.6, -744966.25, -0.02076544, 0.0000015744764, -0.000088604924, -691320.6, -50208.23, 0.0, 10.000005, 9.929574 
1.8950002e+3, 2.445034e+2, -602996.6, -667018.6, 0.0038864606, 0.0000015704995, 0.000074904645, -602996.6, -59129.836, 0.0, 10.000005, 9.916134 
1.8950002e+3, 2.5441965e+2, -504243.97, -568343.2, -0.015712675, 0.0000015676704, -0.000106554166, -504243.97, -57556.516, 0.0, 10.000005, 9.916034 
1.8950002e+3, 2.6432884e+2, -416008.6, -490987.75, 0.006094278, 0.0000015634549, 0.00014075966, -416008.6, -66430.99, 0.0, 10.000005, 9.901962 
1.8950002e+3, 2.742313e+2, -316723.4, -391374.7, -0.016104333, 0.0000015574707, -0.00020330073, -316723.4, -64190.465, 0.0, 10.000005, 9.902383 
1.8950002e+3, 2.841256e+2, -230250.19, -318081.2, 0.0044053807, 0.000001553579, 0.0002291702, -230250.19, -74681.25, 0.0, 10.000005, 9.885436 
1.8950002e+3, 2.940121e+2, -130544.09, -217764.98, -0.015536492, 0.0000015525579, -0.00025323345, -130544.09, -71862.7, 0.0, 10.000005, 9.886214 
1.8950002e+3, 3.0392656e+2, -40800.145, -84750.16, 0.008748192, 0.0000015505625, 0.00017322446, -40800.145, -40800.145, 0.0, 10.000005, 9.94217 
1.8950002e+3, 3.138706e+2, -39722.14, -82511.22, -0.006484217, 0.000001547096, -0.00005508524, -39722.14, -39722.14, 0.0, 10.000005, 9.943682 
1.9050002e+3, 1.24993384e+2, -1719939.5, -1724224.1, 0.021684265, 0.0000017110505, 0.000018061295, -1719939.5, -4874.7056, 0.0, 10.000006, 9.994325 
1.9050002e+3, 1.3498764e+2, -1622559.1, -1627434.4, -0.0048213685, 0.000001686479, -0.000068049274, -1622559.1, -5437.9897, 0.0, 10.000006, 9.993542 
1.9050002e+3, 1.4497517e+2, -1534457.8, -1548145.8, 0.014810216, 0.0000016735871, 0.00007133915, -1534457.8, -15214.495, 0.0, 10.000006, 9.981862 
1.9050002e+3, 1.5495706e+2, -1436730.1, -1450821.5, -0.009621412, 0.0000016720726, -0.000056608445, -1436730.1, -15309.359, 0.0, 10.000006, 9.98133 
1.9050002e+3, 1.6493231e+2, -1348679.3, -1371951.9, 0.017395712, 0.0000016649506, 0.00004768381, -1348679.3, -25015.855, 0.0, 10.000006, 9.969246 
1.9050002e+3, 1.7490159e+2, -1250721.3, -1274309.8, -0.008570575, 0.0000016521033, -0.00007350032, -1250721.3, -24756.889, 0.0, 10.000006, 9.968832 
1.9050002e+3, 1.8486424e+2, -1162640.4, -1195719.6, 0.014317451, 0.0000016443674, 0.0000664592, -1162640.4, -34309.95, 0.0, 10.000006, 9.956392 
1.9050002e+3, 1.9482067e+2, -1064490.8, -1097832.6, -0.010305957, 0.0000016419791, -0.000057363806, -1064490.8, -33733.32, 0.0, 10.000006, 9.95605 
1.9050002e+3, 2.0477045e+2, -976326.75, -1019434.6, 0.0139958365, 0.0000016355988, 0.00006835263, -976326.75, -43077.074, 0.0, 10.000006, 9.943288 
1.9050002e+3, 2.1471377e+2, -878039.8, -921409.56, -0.009245453, 0.0000016248941, -0.00012656725, -878039.8, -42234.703, 0.0, 10.000006, 9.942947 
1.9050002e+3, 2.246504e+2, -789753.7, -843144.56, 0.0131557295, 0.0000016180371, 0.000121121346, -789753.7, -51327.605, 0.0, 10.000006, 9.929905 
1.9050002e+3, 2.3458037e+2, -691320.25, -744966.1, -0.0101975575, 0.0000016155362, -0.00008859964, -691320.25, -50207.867, 0.0, 10.000005, 9.929574 
1.9050002e+3, 2.445034e+2, -602996.25, -667018.5, 0.012972489, 0.0000016117451, 0.00007490893, -602996.25, -59129.47, 0.0, 10.000005, 9.916134 
1.9050002e+3, 2.5441965e+2, -504243.63, -568343.06, -0.010919706, 0.0000016064071, -0.000106549734, -504243.63, -57556.16, 0.0, 10.000005, 9.916034 
1.9050002e+3, 2.6432884e+2, -416008.25, -490987.66, 0.01047124, 0.0000016013245, 0.00014076385, -416008.25, -66430.64, 0.0, 10.000005, 9.901962 
1.9050002e+3, 2.742313e+2, -316723.06, -391374.56, -0.010214143, 0.0000015965693, -0.00020329728, -316723.06, -64190.113, 0.0, 10.000005, 9.902382 
1.9050002e+3, 2.841256e+2, -230249.84, -318081.06, 0.011796566, 0.0000015935581, 0.00022917359, -230249.84, -74680.89, 0.0, 10.000005, 9.885436 
1.9050002e+3, 2.940121e+2, -130543.74, -217764.88, -0.009373009, 0.0000015929303, -0.00025322923, -130543.74, -71862.35, 0.0, 10.000005, 9.886214 
1.9050002e+3, 3.0392656e+2, -40799.793, -84750.06, 0.012115273, 0.0000015903903, 0.00017322724, -40799.793, -40799.793, 0.0, 10.000005, 9.94217 
1.9050002e+3, 3.138706e+2, -39721.8, -82511.125, -0.009232746, 0.0000015849914, -0.0000550873, -39721.8, -39721.8, 0.0, 10.000005, 9.943682 
1.9150002e+3, 1.24993384e+2, -1719939.6, -1724224.3, 0.0054738964, 0.0000017552537, 0.000018081539, -1719939.6, -4874.78, 0.0, 10.000006, 9.994325 
1.9150002e+3, 1.3498764e+2, -1622559.3, -1627434.5, -0.021034919, 0.000001728835, -0.000068046575, -1622559.3, -5438.062, 0.0, 10.000006, 9.993542 
1.9150002e+3, 1.4497517e+2, -1534457.9, -1548145.9, 0.0042812587, 0.0000017143724, 0.00007136252, -1534457.9, -15214.5625, 0.0, 10.000006, 9.981862 
1.9150002e+3, 1.5495706e+2, -1436730.3, -1450821.6, -0.020141533, 0.0000017115575, -0.000056598332, -1436730.3, -15309.426, 0.0, 10.000006, 9.98133 
1.9150002e+3, 1.6493231e+2, -1348679.3, -1371952.0, 0.0050365874, 0.0000017054427, 0.000047689107, -1348679.3, -25015.924, 0.0, 10.000006, 9.969246 
1.9150002e+3, 1.7490159e+2, -1250721.4, -1274309.9, -0.020939527, 0.000001695959, -0.000073491225, -1250721.4, -24756.955, 0.0, 10.000006, 9.968832 
1.9150002e+3, 1.8486424e+2, -1162640.4, -1195719.8, 0.0052754213, 0.0000016881262, 0.00006646941, -1162640.4, -34310.01, 0.0, 10.000006, 9.956392 
1.9150002e+3, 1.9482067e+2, -1064490.8, -1097832.8, -0.019309621, 0.0000016820197, -0.000057355282, -1064490.8, -33733.383, 0.0, 10.000006, 9.95605 
1.9150002e+3, 2.0477045e+2, -976326.8, -1019434.75, 0.003950656, 0.000001673904, 0.00006835901, -976326.8, -43077.133, 0.0, 10.000006, 9.943288 
1.9150002e+3, 2.1471377e+2, -878039.9, -921409.6, -0.019312358, 0.0000016636112, -0.00012656348, -878039.9, -42234.758, 0.0, 10.000006, 9.942946 
1.9150002e+3, 2.246504e+2, -789753.75, -843144.6, 0.006697733, 0.0000016586301, 0.0001211259, -789753.75, -51327.66, 0.0, 10.000006, 9.929905 
1.9150002e+3, 2.3458037e+2, -691320.3, -744966.25, -0.016537668, 0.000001659661, -0.00008859047, -691320.3, -50207.92, 0.0, 10.000005, 9.929574 
1.9150002e+3, 2.445034e+2, -602996.3, -667018.6, 0.0058461367, 0.0000016550616, 0.00007491644, -602996.3, -59129.527, 0.0, 10.000005, 9.916134 
1.9150002e+3, 2.5441965e+2, -504243.7, -568343.2, -0.01808401, 0.0000016437295, -0.000106551415, -504243.7, -57556.215, 0.0, 10.000005, 9.916034 
1.9150002e+3, 2.6432884e+2, -416008.28, -490987.75, 0.005456255, 0.0000016375566, 0.00014076004, -416008.28, -66430.695, 0.0, 10.000005, 9.901962 
1.9150002e+3, 2.742313e+2, -316723.13, -391374.66, -0.015085276, 0.0000016379638, -0.0002032942, -316723.13, -64190.164, 0.0, 10.000005, 9.902382 
1.9150002e+3, 2.841256e+2, -230249.89, -318081.2, 0.008433808, 0.0000016370761, 0.0002291807, -230249.89, -74680.945, 0.0, 10.000005, 9.885436 
1.9150002e+3, 2.940121e+2, -130543.79, -217764.97, -0.012600067, 0.0000016343841, -0.00025322198, -130543.79, -71862.4, 0.0, 10.000005, 9.886214 
1.9150002e+3, 3.0392656e+2, -40799.844, -84750.164, 0.0077757332, 0.0000016304033, 0.00017323073, -40799.844, -40799.844, 0.0, 10.000005, 9.94217 
1.9150002e+3, 3.138706e+2, -39721.85, -82511.23, -0.013703129, 0.000001624528, -0.00005509325, -39721.85, -39721.85, 0.0, 10.000005, 9.943682 
1.9250003e+3, 1.24993384e+2, -1719939.3, -1724224.1, 0.022804307, 0.0000017978, 0.000018095689, -1719939.3, -4874.3735, 0.0, 10.000006, 9.994325 
1.9250003e+3, 1.3498764e+2, -1622558.8, -1627434.4, -0.005917699, 0.0000017724784, -0.00006804623, -1622558.8, -5437.649, 0.0, 10.000006, 9.993542 
1.9250003e+3, 1.4497517e+2, -1534457.4, -1548145.8, 0.019962734, 0.0000017578801, 0.00007138559, -1534457.4, -15214.149, 0.0, 10.000006, 9.981862 
1.9250003e+3, 1.5495706e+2, -1436729.9, -1450821.5, -0.007282853, 0.0000017536807, -0.00005659092, -1436729.9, -15309.028, 0.0, 10.000006, 9.98133 
1.9250003e+3, 1.6493231e+2, -1348678.9, -1371951.9, 0.01709044, 0.0000017475531, 0.00004769168, -1348678.9, -25015.531, 0.0, 10.000006, 9.969246 
1.9250003e+3, 1.7490159e+2, -1250721.0, -1274309.8, -0.009456191, 0.0000017394574, -0.000073482435, -1250721.0, -24756.557, 0.0, 10.000006, 9.968832 
1.9250003e+3, 1.8486424e+2, -1162640.0, -1195719.6, 0.01705789, 0.0000017310357, 0.00006648003, -1162640.0, -34309.613, 0.0, 10.000006, 9.956392 
1.9250003e+3, 1.9482067e+2, -1064490.4, -1097832.5, -0.0084753, 0.0000017222716, -0.000057347446, -1064490.4, -33732.996, 0.0, 10.000006, 9.95605 
1.9250003e+3, 2.0477045e+2, -976326.44, -1019434.6, 0.013722317, 0.000001714296, 0.00006836497, -976326.44, -43076.75, 0.0, 10.000006, 9.943288 
1.9250003e+3, 2.1471377e+2, -878039.44, -921409.5, -0.013045392, 0.0000017071737, -0.00012655843, -878039.44, -42234.37, 0.0, 10.000006, 9.942946 
1.9250003e+3, 2.246504e+2, -789753.4, -843144.5, 0.012639417, 0.0000017023776, 0.000121130346, -789753.4, -51327.273, 0.0, 10.000006, 9.929905 
1.9250003e+3, 2.3458037e+2, -691319.94, -744966.1, -0.011461976, 0.000001700213, -0.00008858626, -691319.94, -50207.543, 0.0, 10.000006, 9.929574 
1.9250003e+3, 2.445034e+2, -602995.94, -667018.5, 0.010852839, 0.000001694628, 0.000074920674, -602995.94, -59129.152, 0.0, 10.000006, 9.916134 
1.9250003e+3, 2.5441965e+2, -504243.28, -568343.06, -0.012787809, 0.0000016849539, -0.00010654682, -504243.28, -57555.84, 0.0, 10.000006, 9.916034 
1.9250003e+3, 2.6432884e+2, -416007.9, -490987.63, 0.011349634, 0.0000016796887, 0.0001407642, -416007.9, -66430.32, 0.0, 10.000006, 9.901962 
1.9250003e+3, 2.742313e+2, -316722.75, -391374.56, -0.012152032, 0.0000016800427, -0.0002032915, -316722.75, -64189.79, 0.0, 10.000006, 9.902382 
1.9250003e+3, 2.841256e+2, -230249.52, -318081.06, 0.010812493, 0.0000016785658, 0.00022918235, -230249.52, -74680.58, 0.0, 10.000006, 9.885436 
1.9250003e+3, 2.940121e+2, -130543.42, -217764.88, -0.009844777, 0.0000016745555, -0.00025322082, -130543.42, -71862.04, 0.0, 10.000006, 9.886214 
1.9250003e+3, 3.0392656e+2, -40799.48, -84750.07, 0.011938645, 0.0000016705212, 0.00017323246, -40799.48, -40799.48, 0.0, 10.000006, 9.94217 
1.9250003e+3, 3.138706e+2, -39721.477, -82511.125, -0.008618225, 0.0000016664774, -0.000055089382, -39721.477, -39721.477, 0.0, 10.000006, 9.943682 
1.9350003e+3, 1.24993384e+2, -1719939.3, -1724224.3, 0.008540633, 0.0000018386893, 0.00001810375, -1719939.3, -4874.453, 0.0, 10.000006, 9.994325 
1.9350003e+3, 1.3498764e+2, -1622558.9, -1627434.5, -0.020184178, 0.0000018174097, -0.000068048255, -1622558.9, -5437.7275, 0.0, 10.000006, 9.993542 
1.9350003e+3, 1.4497517e+2, -1534457.5, -1548145.9, 0.006046925, 0.0000018041102, 0.00007140838, -1534457.5, -15214.224, 0.0, 10.000006, 9.981862 
1.9350003e+3, 1.5495706e+2, -1436729.9, -1450821.6, -0.021198263, 0.000001798442, -0.000056586214, -1436729.9, -15309.101, 0.0, 10.000006, 9.98133 
1.9350003e+3, 1.6493231e+2, -1348679.0, -1371952.0, 0.0067200135, 0.0000017912819, 0.000047691527, -1348679.0, -25015.602, 0.0, 10.000006, 9.969246 
1.9350003e+3, 1.7490159e+2, -1250721.0, -1274309.9, -0.019808061, 0.0000017825988, -0.00007347394, -1250721.0, -24756.625, 0.0, 10.000006, 9.968832 
1.9350003e+3, 1.8486424e+2, -1162640.1, -1195719.8, 0.0053939978, 0.0000017730962, 0.000066491055, -1162640.1, -34309.68, 0.0, 10.000006, 9.956392 
1.9350003e+3, 1.9482067e+2, -1064490.4, -1097832.6, -0.020154567, 0.0000017627347, -0.000057340287, -1064490.4, -33733.063, 0.0, 10.000006, 9.95605 
1.9350003e+3, 2.0477045e+2, -976326.5, -1019434.75, 0.0052396483, 0.0000017567749, 0.0000683705, -976326.5, -43076.816, 0.0, 10.000006, 9.943288 
1.9350003e+3, 2.1471377e+2, -878039.5, -921409.6, -0.021462169, 0.0000017555814, -0.00012655211, -878039.5, -42234.438, 0.0, 10.000006, 9.942946 
1.9350003e+3, 2.246504e+2, -789753.44, -843144.6, 0.0045111957, 0.0000017492794, 0.00012113469, -789753.44, -51327.332, 0.0, 10.000006, 9.929905 
1.9350003e+3, 2.3458037e+2, -691320.0, -744966.25, -0.01958099, 0.0000017371924, -0.000088587025, -691320.0, -50207.6, 0.0, 10.000006, 9.929574 
1.9350003e+3, 2.445034e+2, -602995.94, -667018.56, 0.0040778858, 0.0000017304448, 0.000074921656, -602995.94, -59129.21, 0.0, 10.000006, 9.916133 
1.9350003e+3, 2.5441965e+2, -504243.34, -568343.1, -0.019498356, 0.0000017300796, -0.000106535925, -504243.34, -57555.9, 0.0, 10.000006, 9.916034 
1.9350003e+3, 2.6432884e+2, -416007.97, -490987.75, 0.0060112476, 0.0000017277201, 0.00014077632, -416007.97, -66430.375, 0.0, 10.000006, 9.901962 
1.9350003e+3, 2.742313e+2, -316722.78, -391374.66, -0.017398665, 0.0000017228059, -0.00020328921, -316722.78, -64189.844, 0.0, 10.000006, 9.902382 
1.9350003e+3, 2.841256e+2, -230249.56, -318081.16, 0.006232371, 0.0000017180273, 0.0002291785, -230249.56, -74680.625, 0.0, 10.000006, 9.885436 
1.9350003e+3, 2.9401213e+2, -130543.47, -217764.97, -0.0143651385, 0.0000017134446, -0.00025322573, -130543.47, -71862.086, 0.0, 10.000006, 9.886214 
1.9350003e+3, 3.0392656e+2, -40799.53, -84750.17, 0.010498251, 0.0000017107441, 0.00017323245, -40799.53, -40799.53, 0.0, 10.000006, 9.94217 
1.9350003e+3, 3.138706e+2, -39721.523, -82511.23, -0.009697325, 0.0000017108395, -0.0000550757, -39721.523, -39721.523, 0.0, 10.000006, 9.943682 
1.9450003e+3, 1.2499339e+2, -1719938.9, -1724224.1, 0.021286422, 0.0000018826013, 0.000018120356, -1719938.9, -4874.023, 0.0, 10.000006, 9.994324 
1.9450003e+3, 1.3498764e+2, -1622558.4, -1627434.4, -0.006284907, 0.0000018628757, -0.00006805324, -1622558.4, -5437.3013, 0.0, 10.000006, 9.993542 
1.9450003e+3, 1.4497517e+2, -1534457.0, -1548145.8, 0.020549033, 0.0000018501262, 0.00007142804, -1534457.0, -15213.799, 0.0, 10.000006, 9.981862 
1.9450003e+3, 1.5495706e+2, -1436729.5, -1450821.4, -0.009008299, 0.0000018439902, -0.00005657623, -1436729.5, -15308.674, 0.0, 10.000006, 9.98133 
1.9450003e+3, 1.6493231e+2, -1348678.5, -1371951.9, 0.018902108, 0.0000018359726, 0.000047697376, -1348678.5, -25015.178, 0.0, 10.000006, 9.969245 
1.9450003e+3, 1.7490159e+2, -1250720.6, -1274309.8, -0.008647616, 0.0000018260343, -0.00007346655, -1250720.6, -24756.215, 0.0, 10.000006, 9.968832 
1.9450003e+3, 1.8486424e+2, -1162639.6, -1195719.6, 0.015801433, 0.0000018163696, 0.000066498906, -1162639.6, -34309.27, 0.0, 10.000006, 9.956392 
1.9450003e+3, 1.9482067e+2, -1064490.0, -1097832.5, -0.011927071, 0.0000018069898, -0.000057333098, -1064490.0, -33732.65, 0.0, 10.000006, 9.956049 
1.9450003e+3, 2.0477045e+2, -976326.06, -1019434.56, 0.015180031, 0.0000018014672, 0.00006837704, -976326.06, -43076.406, 0.0, 10.000006, 9.943288 
1.9450003e+3, 2.1471377e+2, -878039.1, -921409.5, -0.010302463, 0.0000018001209, -0.0001265462, -878039.1, -42234.03, 0.0, 10.000006, 9.942946 
1.9450003e+3, 2.246504e+2, -789753.0, -843144.5, 0.014828862, 0.0000017929539, 0.000121140794, -789753.0, -51326.93, 0.0, 10.000006, 9.929905 
1.9450003e+3, 2.3458037e+2, -691319.56, -744966.1, -0.012228724, 0.0000017791956, -0.000088579785, -691319.56, -50207.207, 0.0, 10.000006, 9.929574 
1.9450003e+3, 2.445034e+2, -602995.56, -667018.44, 0.012321571, 0.0000017726244, 0.000074928226, -602995.56, -59128.816, 0.0, 10.000006, 9.916133 
1.9450003e+3, 2.5441965e+2, -504242.94, -568343.0, -0.011223858, 0.0000017746437, -0.00010653218, -504242.94, -57555.5, 0.0, 10.000006, 9.916034 
1.9450003e+3, 2.6432884e+2, -416007.56, -490987.63, 0.014101609, 0.0000017725774, 0.00014077913, -416007.56, -66429.98, 0.0, 10.000006, 9.901962 
1.9450003e+3, 2.742313e+2, -316722.4, -391374.56, -0.010956377, 0.00000176529, -0.00020328494, -316722.4, -64189.457, 0.0, 10.000006, 9.902382 
1.9450003e+3, 2.841256e+2, -230249.17, -318081.06, 0.011633791, 0.0000017595962, 0.00022918332, -230249.17, -74680.234, 0.0, 10.000006, 9.885436 
1.9450003e+3, 2.9401213e+2, -130543.08, -217764.86, -0.0120938085, 0.0000017561065, -0.00025322157, -130543.08, -71861.695, 0.0, 10.000006, 9.886214 
1.9450003e+3, 3.0392656e+2, -40799.145, -84750.06, 0.0122695295, 0.0000017539332, 0.00017323521, -40799.145, -40799.145, 0.0, 10.000006, 9.94217 
1.9450003e+3, 3.138706e+2, -39721.15, -82511.125, -0.008613953, 0.0000017536976, -0.000055075412, -39721.15, -39721.15, 0.0, 10.000006, 9.943682 
1.9550003e+3, 1.2499339e+2, -1719938.9, -1724224.3, 0.006433826, 0.000001929536, 0.000018145505, -1719938.9, -4874.101, 0.0, 10.000006, 9.994324 
1.9550003e+3, 1.3498764e+2, -1622558.5, -1627434.5, -0.02114049, 0.0000019088766, -0.00006806118, -1622558.5, -5437.378, 0.0, 10.000006, 9.993542 
1.9550003e+3, 1.4497517e+2, -1534457.1, -1548145.9, 0.0075663165, 0.0000018959283, 0.000071444556, -1534457.1, -15213.879, 0.0, 10.000006, 9.981862 
1.9550003e+3, 1.5495706e+2, -1436729.5, -1450821.5, -0.021988142, 0.0000018903252, -0.00005656098, -1436729.5, -15308.752, 0.0, 10.000006, 9.98133 
1.9550003e+3, 1.6493231e+2, -1348678.6, -1371952.0, 0.0056049693, 0.0000018816254, 0.000047709233, -1348678.6, -25015.25, 0.0, 10.000006, 9.969245 
1.9550003e+3, 1.7490159e+2, -1250720.6, -1274309.9, -0.021946613, 0.0000018697641, -0.00007346026, -1250720.6, -24756.287, 0.0, 10.000006, 9.968832 
1.9550003e+3, 1.8486424e+2, -1162639.8, -1195719.8, 0.0053918697, 0.0000018608561, 0.00006650359, -1162639.8, -34309.344, 0.0, 10.000006, 9.956392 
1.9550003e+3, 1.9482067e+2, -1064490.0, -1097832.6, -0.022303352, 0.0000018550368, -0.000057325873, -1064490.0, -33732.72, 0.0, 10.000006, 9.956049 
1.9550003e+3, 2.0477045e+2, -976326.1, -1019434.7, 0.0060925744, 0.0000018483729, 0.0000683846, -976326.1, -43076.47, 0.0, 10.000006, 9.943288 
1.9550003e+3, 2.1471377e+2, -878039.1, -921409.6, -0.019363528, 0.000001840793, -0.00012654069, -878039.1, -42234.094, 0.0, 10.000006, 9.942946 
1.9550003e+3, 2.246504e+2, -789753.06, -843144.6, 0.0052211815, 0.0000018334014, 0.000121148674, -789753.06, -51326.996, 0.0, 10.000006, 9.929905 
1.9550003e+3, 2.3458037e+2, -691319.6, -744966.25, -0.021854432, 0.0000018262223, -0.00008856454, -691319.6, -50207.27, 0.0, 10.000006, 9.929574 
1.9550003e+3, 2.445034e+2, -602995.6, -667018.56, 0.006363812, 0.0000018211667, 0.00007494039, -602995.6, -59128.875, 0.0, 10.000006, 9.916133 
1.9550003e+3, 2.5441965e+2, -504243.0, -568343.1, -0.017005673, 0.0000018186461, -0.00010653557, -504243.0, -57555.56, 0.0, 10.000006, 9.916034 
1.9550003e+3, 2.6432884e+2, -416007.63, -490987.75, 0.008076866, 0.0000018142608, 0.00014077261, -416007.63, -66430.04, 0.0, 10.000006, 9.901962 
1.9550003e+3, 2.742313e+2, -316722.44, -391374.66, -0.016997583, 0.0000018074949, -0.00020327875, -316722.44, -64189.516, 0.0, 10.000006, 9.902382 
1.9550003e+3, 2.841256e+2, -230249.22, -318081.16, 0.007456102, 0.0000018032727, 0.0002291968, -230249.22, -74680.3, 0.0, 10.000006, 9.885436 
1.9550003e+3, 2.9401213e+2, -130543.13, -217764.97, -0.016103849, 0.0000018025411, -0.00025320833, -130543.13, -71861.75, 0.0, 10.000006, 9.886214 
1.9550003e+3, 3.0392656e+2, -40799.195, -84750.164, 0.008894172, 0.0000018000886, 0.00017324075, -40799.195, -40799.195, 0.0, 10.000006, 9.94217 
1.9550003e+3, 3.138706e+2, -39721.2, -82511.23, -0.011915145, 0.0000017950518, -0.000055088516, -39721.2, -39721.2, 0.0, 10.000006, 9.943682 
1.9650002e+3, 1.2499339e+2, -1719938.4, -1724224.0, 0.024647048, 0.0000019764302, 0.000018162133, -1719938.4, -4873.6514, 0.0, 10.000007, 9.994324 
1.9650002e+3, 1.3498764e+2, -1622558.0, -1627434.4, -0.0076635648, 0.0000019571723, -0.000068066234, -1622558.0, -5436.9263, 0.0, 10.000007, 9.993542 
1.9650002e+3, 1.4497517e+2, -1534456.6, -1548145.6, 0.019909952, 0.0000019439683, 0.00007146609, -1534456.6, -15213.429, 0.0, 10.000007, 9.981861 
1.9650002e+3, 1.5495706e+2, -1436729.1, -1450821.4, -0.008327589, 0.000001936434, -0.00005655082, -1436729.1, -15308.312, 0.0, 10.000007, 9.98133 
1.9650002e+3, 1.6493231e+2, -1348678.1, -1371951.9, 0.01975483, 0.000001927049, 0.000047715133, -1348678.1, -25014.813, 0.0, 10.000007, 9.969245 
1.9650002e+3, 1.7490159e+2, -1250720.3, -1274309.6, -0.010165705, 0.0000019157749, -0.000073451345, -1250720.3, -24755.848, 0.0, 10.000007, 9.968831 
1.9650002e+3, 1.8486424e+2, -1162639.3, -1195719.6, 0.01761075, 0.0000019076524, 0.00006651285, -1162639.3, -34308.906, 0.0, 10.000007, 9.956392 
1.9650002e+3, 1.9482067e+2, -1064489.6, -1097832.5, -0.0110720415, 0.000001902826, -0.00005731909, -1064489.6, -33732.29, 0.0, 10.000007, 9.956049 
1.9650002e+3, 2.0477045e+2, -976325.7, -1019434.56, 0.016426018, 0.0000018949142, 0.00006839077, -976325.7, -43076.043, 0.0, 10.000007, 9.943288 
1.9650002e+3, 2.1471378e+2, -878038.75, -921409.5, -0.011885195, 0.0000018836595, -0.00012653312, -878038.75, -42233.676, 0.0, 10.000006, 9.942946 
1.9650002e+3, 2.2465041e+2, -789752.6, -843144.5, 0.013182604, 0.0000018765833, 0.000121155856, -789752.6, -51326.58, 0.0, 10.000006, 9.929905 
1.9650002e+3, 2.3458037e+2, -691319.2, -744966.06, -0.012476178, 0.0000018742369, -0.00008855976, -691319.2, -50206.848, 0.0, 10.000006, 9.929574 
1.9650002e+3, 2.445034e+2, -602995.2, -667018.44, 0.015320518, 0.0000018697483, 0.000074944124, -602995.2, -59128.45, 0.0, 10.000006, 9.916133 
1.9650002e+3, 2.5441965e+2, -504242.6, -568343.0, -0.013778118, 0.0000018626947, -0.00010653124, -504242.6, -57555.145, 0.0, 10.000006, 9.916033 
1.9650002e+3, 2.6432884e+2, -416007.22, -490987.63, 0.010295191, 0.0000018567428, 0.00014077693, -416007.22, -66429.63, 0.0, 10.000006, 9.901962 
1.9650002e+3, 2.742313e+2, -316722.03, -391374.53, -0.012636362, 0.000001852197, -0.0002032752, -316722.03, -64189.105, 0.0, 10.000006, 9.902382 
1.9650002e+3, 2.841256e+2, -230248.81, -318081.03, 0.014068506, 0.0000018491808, 0.00022919987, -230248.81, -74679.88, 0.0, 10.000006, 9.885436 
1.9650002e+3, 2.9401213e+2, -130542.73, -217764.84, -0.010109597, 0.0000018482499, -0.00025320533, -130542.73, -71861.34, 0.0, 10.000006, 9.886214 
1.9650002e+3, 3.0392656e+2, -40798.793, -84750.055, 0.013975608, 0.0000018453838, 0.00017324288, -40798.793, -40798.793, 0.0, 10.000006, 9.94217 
1.9650002e+3, 3.138706e+2, -39720.797, -82511.12, -0.009783442, 0.0000018396285, -0.00005508848, -39720.797, -39720.797, 0.0, 10.000006, 9.943682 
1.9750002e+3, 1.2499339e+2, -1719938.5, -1724224.1, 0.010602855, 0.0000020232844, 0.000018170243, -1719938.5, -4873.7407, 0.0, 10.000007, 9.994324 
1.9750002e+3, 1.3498764e+2, -1622558.1, -1627434.5, -0.021710474, 0.0000020077628, -0.000068068424, -1622558.1, -5437.014, 0.0, 10.000007, 9.993542 
1.9750002e+3, 1.4497519e+2, -1534456.8, -1548145.8, 0.0050481674, 0.000001994246, 0.00007149266, -1534456.8, -15213.507, 0.0, 10.000007, 9.981861 
1.9750002e+3, 1.5495706e+2, -1436729.1, -1450821.5, -0.023190854, 0.0000019823167, -0.000056545752, -1436729.1, -15308.388, 0.0, 10.000007, 9.98133 
1.9750002e+3, 1.6493231e+2, -1348678.3, -1371952.0, 0.0070742797, 0.0000019722436, 0.000047715075, -1348678.3, -25014.893, 0.0, 10.000007, 9.969245 
1.9750002e+3, 1.7490159e+2, -1250720.3, -1274309.8, -0.02283489, 0.0000019640665, -0.000073439805, -1250720.3, -24755.926, 0.0, 10.000007, 9.968831 
1.9750002e+3, 1.8486424e+2, -1162639.4, -1195719.8, 0.0062303366, 0.0000019567583, 0.00006652666, -1162639.4, -34308.98, 0.0, 10.000007, 9.956392 
1.9750002e+3, 1.9482067e+2, -1064489.6, -1097832.6, -0.022437727, 0.0000019503577, -0.00005731274, -1064489.6, -33732.36, 0.0, 10.000007, 9.956049 
1.9750002e+3, 2.0477045e+2, -976325.75, -1019434.7, 0.0056796432, 0.0000019410913, 0.00006839556, -976325.75, -43076.113, 0.0, 10.000007, 9.943288 
1.9750002e+3, 2.1471378e+2, -878038.8, -921409.56, -0.02261898, 0.0000019287202, -0.00012652349, -878038.8, -42233.746, 0.0, 10.000006, 9.942946 
1.9750002e+3, 2.2465041e+2, -789752.7, -843144.56, 0.005644809, 0.0000019224992, 0.000121162346, -789752.7, -51326.645, 0.0, 10.000006, 9.929905 
1.9750002e+3, 2.3458037e+2, -691319.25, -744966.2, -0.0199097, 0.0000019232393, -0.00008856545, -691319.25, -50206.91, 0.0, 10.000006, 9.929574 
1.9750002e+3, 2.445034e+2, -602995.25, -667018.56, 0.007062158, 0.0000019183694, 0.00007493944, -602995.25, -59128.52, 0.0, 10.000006, 9.916133 
1.9750002e+3, 2.5441965e+2, -504242.66, -568343.1, -0.022076238, 0.0000019067896, -0.000106519175, -504242.66, -57555.215, 0.0, 10.000006, 9.916033 
1.9750002e+3, 2.6432884e+2, -416007.25, -490987.72, 0.0048732525, 0.0000019000231, 0.00014079211, -416007.25, -66429.69, 0.0, 10.000006, 9.901961 
1.9750002e+3, 2.742313e+2, -316722.1, -391374.66, -0.017865846, 0.0000018993961, -0.00020327429, -316722.1, -64189.16, 0.0, 10.000006, 9.902382 
1.9750002e+3, 2.841256e+2, -230248.86, -318081.16, 0.00962965, 0.0000018973208, 0.00022919253, -230248.86, -74679.945, 0.0, 10.000006, 9.885436 
1.9750002e+3, 2.9401213e+2, -130542.78, -217764.97, -0.014477479, 0.0000018932329, -0.00025321255, -130542.78, -71861.41, 0.0, 10.000006, 9.886214 
1.9750002e+3, 3.0392656e+2, -40798.848, -84750.17, 0.010712623, 0.0000018898191, 0.0001732416, -40798.848, -40798.848, 0.0, 10.000006, 9.94217 
1.9750002e+3, 3.138706e+2, -39720.85, -82511.234, -0.012917001, 0.0000018874271, -0.00005507531, -39720.85, -39720.85, 0.0, 10.000006, 9.943681 
1.9850002e+3, 1.2499339e+2, -1719938.0, -1724224.0, 0.023898667, 0.0000020760715, 0.00001818417, -1719938.0, -4873.2563, 0.0, 10.000007, 9.994324 
1.9850002e+3, 1.3498764e+2, -1622557.6, -1627434.3, -0.007210693, 0.000002055054, -0.00006807182, -1622557.6, -5436.546, 0.0, 10.000007, 9.993542 
1.9850002e+3, 1.4497519e+2, -1534456.3, -1548145.6, 0.019765075, 0.000002040227, 0.00007151816, -1534456.3, -15213.042, 0.0, 10.000007, 9.981861 
1.9850002e+3, 1.5495706e+2, -1436728.6, -1450821.4, -0.011186304, 0.0000020311907, -0.0000565373, -1436728.6, -15307.925, 0.0, 10.000007, 9.98133 
1.9850002e+3, 1.6493231e+2, -1348677.8, -1371951.8, 0.019666651, 0.0000020222556, 0.000047717906, -1348677.8, -25014.432, 0.0, 10.000007, 9.969245 
1.9850002e+3, 1.7490159e+2, -1250719.8, -1274309.6, -0.010459129, 0.0000020134244, -0.000073430914, -1250719.8, -24755.469, 0.0, 10.000007, 9.968831 
1.9850002e+3, 1.8486424e+2, -1162638.9, -1195719.6, 0.019074623, 0.0000020050495, 0.000066537454, -1162638.9, -34308.523, 0.0, 10.000007, 9.956392 
1.9850002e+3, 1.9482067e+2, -1064489.3, -1097832.5, -0.01106067, 0.0000019971505, -0.00005730439, -1064489.3, -33731.91, 0.0, 10.000007, 9.956049 
1.9850002e+3, 2.0477045e+2, -976325.25, -1019434.56, 0.016422627, 0.000001988152, 0.00006840259, -976325.25, -43075.664, 0.0, 10.000007, 9.943288 
1.9850002e+3, 2.1471378e+2, -878038.3, -921409.44, -0.013079337, 0.0000019779618, -0.00012651656, -878038.3, -42233.297, 0.0, 10.000007, 9.942946 
1.9850002e+3, 2.2465041e+2, -789752.25, -843144.44, 0.015365538, 0.0000019716963, 0.00012116839, -789752.25, -51326.2, 0.0, 10.000007, 9.929905 
1.9850002e+3, 2.3458037e+2, -691318.8, -744966.06, -0.014232126, 0.000001969873, -0.00008856115, -691318.8, -50206.473, 0.0, 10.000007, 9.929573 
1.9850002e+3, 2.445034e+2, -602994.8, -667018.44, 0.012662415, 0.000001964311, 0.000074943906, -602994.8, -59128.086, 0.0, 10.000007, 9.916133 
1.9850002e+3, 2.5441965e+2, -504242.2, -568343.0, -0.012328288, 0.0000019542774, -0.000106512234, -504242.2, -57554.777, 0.0, 10.000007, 9.916033 
1.9850002e+3, 2.6432884e+2, -416006.8, -490987.6, 0.015819358, 0.0000019481074, 0.0001407989, -416006.8, -66429.25, 0.0, 10.000007, 9.901961 
1.9850002e+3, 2.742313e+2, -316721.66, -391374.53, -0.013474356, 0.0000019468628, -0.000203271, -316721.66, -64188.73, 0.0, 10.000007, 9.902382 
1.9850002e+3, 2.841256e+2, -230248.44, -318081.03, 0.011384045, 0.000001944432, 0.00022919373, -230248.44, -74679.516, 0.0, 10.000007, 9.885436 
1.9850002e+3, 2.9401213e+2, -130542.35, -217764.84, -0.013036756, 0.0000019403528, -0.00025321156, -130542.35, -71860.98, 0.0, 10.000007, 9.886214 
1.9850002e+3, 3.0392656e+2, -40798.426, -84750.055, 0.013575239, 0.0000019366482, 0.00017324329, -40798.426, -40798.426, 0.0, 10.000007, 9.94217 
1.9850002e+3, 3.138706e+2, -39720.426, -82511.12, -0.009229109, 0.0000019335175, -0.00005507154, -39720.426, -39720.426, 0.0, 10.000007, 9.943681 
1.9950002e+3, 1.249934e+2, -1719938.0, -1724224.1, 0.006481512, 0.0000021347914, 0.00001820392, -1719938.0, -4873.344, 0.0, 10.000007, 9.994324 
1.9950002e+3, 1.3498764e+2, -1622557.8, -1627434.4, -0.024631497, 0.0000020990462, -0.00006807643, -1622557.8, -5436.632, 0.0, 10.000007, 9.993542 
1.9950002e+3, 1.4497519e+2, -1534456.3, -1548145.8, 0.0049507553, 0.0000020819114, 0.00007154261, -1534456.3, -15213.127, 0.0, 10.000007, 9.981861 
1.9950002e+3, 1.5495707e+2, -1436728.8, -1450821.5, -0.025996689, 0.0000020830557, -0.000056525474, -1436728.8, -15308.008, 0.0, 10.000007, 9.98133 
1.9950002e+3, 1.6493231e+2, -1348677.8, -1371951.9, 0.0066973683, 0.0000020770847, 0.000047723614, -1348677.8, -25014.512, 0.0, 10.000007, 9.969245 
1.9950002e+3, 1.7490159e+2, -1250719.9, -1274309.8, -0.023418946, 0.0000020638488, -0.000073424686, -1250719.9, -24755.547, 0.0, 10.000007, 9.968831 
1.9950002e+3, 1.8486425e+2, -1162638.9, -1195719.8, 0.00732149, 0.0000020525265, 0.00006654522, -1162638.9, -34308.6, 0.0, 10.000007, 9.956392 
1.9950002e+3, 1.9482067e+2, -1064489.3, -1097832.6, -0.022800013, 0.0000020432049, -0.00005729404, -1064489.3, -33731.984, 0.0, 10.000007, 9.956049 
1.9950002e+3, 2.0477045e+2, -976325.3, -1019434.7, 0.005394112, 0.0000020360965, 0.00006841186, -976325.3, -43075.74, 0.0, 10.000007, 9.943287 
1.9950002e+3, 2.1471378e+2, -878038.4, -921409.56, -0.024093378, 0.0000020313837, -0.00012651236, -878038.4, -42233.37, 0.0, 10.000007, 9.942946 
1.9950002e+3, 2.2465041e+2, -789752.3, -843144.56, 0.006584453, 0.0000020241746, 0.000121173995, -789752.3, -51326.273, 0.0, 10.000007, 9.929905 
1.9950002e+3, 2.3458037e+2, -691318.9, -744966.2, -0.022940382, 0.000002014138, -0.00008854687, -691318.9, -50206.543, 0.0, 10.000007, 9.929573 
1.9950002e+3, 2.445034e+2, -602994.9, -667018.56, 0.005293655, 0.0000020075734, 0.00007495755, -602994.9, -59128.15, 0.0, 10.000007, 9.916133 
1.9950002e+3, 2.5441965e+2, -504242.25, -568343.1, -0.019633016, 0.0000020051577, -0.00010651041, -504242.25, -57554.836, 0.0, 10.000007, 9.916033 
1.9950002e+3, 2.6432884e+2, -416006.88, -490987.72, 0.009152192, 0.000002000995, 0.0001407973, -416006.88, -66429.32, 0.0, 10.000007, 9.901961 
1.9950002e+3, 2.742313e+2, -316721.72, -391374.66, -0.020098954, 0.0000019945971, -0.0002032653, -316721.72, -64188.8, 0.0, 10.000007, 9.902382 
1.9950002e+3, 2.841256e+2, -230248.5, -318081.16, 0.006752043, 0.0000019905146, 0.00022920342, -230248.5, -74679.58, 0.0, 10.000007, 9.885435 
1.9950002e+3, 2.9401213e+2, -130542.41, -217764.95, -0.017489567, 0.0000019896092, -0.00025320242, -130542.41, -71861.04, 0.0, 10.000007, 9.886214 
1.9950002e+3, 3.0392656e+2, -40798.48, -84750.17, 0.010957121, 0.0000019858708, 0.00017324794, -40798.48, -40798.48, 0.0, 10.000007, 9.94217 
1.9950002e+3, 3.138706e+2, -39720.48, -82511.23, -0.011632248, 0.0000019779002, -0.000055077177, -39720.48, -39720.48, 0.0, 10.000007, 9.943681 
2.0050003e+3, 1.249934e+2, -1719937.5, -1724224.0, 0.028166287, 0.000002186107, 0.00001822642, -1719937.5, -4872.8447, 0.0, 10.000008, 9.994324 
2.0050003e+3, 1.3498765e+2, -1622557.1, -1627434.3, -0.006299115, 0.000002150972, -0.000068080786, -1622557.1, -5436.139, 0.0, 10.000008, 9.993542 
2.0050003e+3, 1.4497519e+2, -1534455.8, -1548145.6, 0.02389487, 0.0000021338017, 0.00007156736, -1534455.8, -15212.636, 0.0, 10.000007, 9.981861 
2.0050003e+3, 1.5495707e+2, -1436728.3, -1450821.4, -0.009049601, 0.0000021342523, -0.000056513818, -1436728.3, -15307.518, 0.0, 10.000007, 9.98133 
2.0050003e+3, 1.6493231e+2, -1348677.3, -1371951.8, 0.022256654, 0.0000021280057, 0.00004772975, -1348677.3, -25014.025, 0.0, 10.000007, 9.969245 
2.0050003e+3, 1.7490159e+2, -1250719.4, -1274309.6, -0.011353778, 0.000002114921, -0.000073416326, -1250719.4, -24755.066, 0.0, 10.000007, 9.968831 
2.0050003e+3, 1.8486425e+2, -1162638.5, -1195719.5, 0.018332371, 0.0000021030155, 0.00006655459, -1162638.5, -34308.125, 0.0, 10.000007, 9.956392 
2.0050003e+3, 1.9482067e+2, -1064488.8, -1097832.5, -0.012273509, 0.0000020923417, -0.000057284946, -1064488.8, -33731.516, 0.0, 10.000007, 9.956049 
2.0050003e+3, 2.0477045e+2, -976324.9, -1019434.5, 0.017426362, 0.0000020855612, 0.00006841962, -976324.9, -43075.27, 0.0, 10.000007, 9.943287 
2.0050003e+3, 2.1471378e+2, -878037.94, -921409.44, -0.013050583, 0.0000020829964, -0.00012650708, -878037.94, -42232.9, 0.0, 10.000007, 9.942946 
2.0050003e+3, 2.2465041e+2, -789751.9, -843144.44, 0.017468836, 0.0000020755365, 0.00012117977, -789751.9, -51325.8, 0.0, 10.000007, 9.929905 
2.0050003e+3, 2.3458037e+2, -691318.44, -744966.06, -0.012589533, 0.0000020625334, -0.000088537236, -691318.44, -50206.082, 0.0, 10.000007, 9.929573 
2.0050003e+3, 2.4450341e+2, -602994.4, -667018.4, 0.015205491, 0.0000020553173, 0.00007496631, -602994.4, -59127.69, 0.0, 10.000007, 9.916133 
2.0050003e+3, 2.5441965e+2, -504241.78, -568343.0, -0.014728352, 0.0000020550178, -0.00010650817, -504241.78, -57554.383, 0.0, 10.000007, 9.916033 
2.0050003e+3, 2.6432884e+2, -416006.44, -490987.6, 0.013544632, 0.0000020516109, 0.00014079781, -416006.44, -66428.87, 0.0, 10.000007, 9.901961 
2.0050003e+3, 2.742313e+2, -316721.25, -391374.53, -0.012738244, 0.000002044231, -0.00020326044, -316721.25, -64188.344, 0.0, 10.000007, 9.902382 
2.0050003e+3, 2.841256e+2, -230248.03, -318081.03, 0.015984567, 0.0000020393634, 0.00022921053, -230248.03, -74679.125, 0.0, 10.000007, 9.885435 
2.0050003e+3, 2.9401213e+2, -130541.95, -217764.83, -0.011365985, 0.0000020379512, -0.00025319596, -130541.95, -71860.586, 0.0, 10.000007, 9.886214 
2.0050003e+3, 3.0392656e+2, -40798.035, -84750.05, 0.014736904, 0.0000020344135, 0.00017325197, -40798.035, -40798.035, 0.0, 10.000007, 9.942169 
2.0050003e+3, 3.138706e+2, -39720.043, -82511.11, -0.0122186085, 0.0000020276925, -0.000055078108, -39720.043, -39720.043, 0.0, 10.000007, 9.943681 
2.0150003e+3, 1.249934e+2, -1719937.6, -1724224.1, 0.009683383, 0.0000022300192, 0.00001825167, -1719937.6, -4872.9414, 0.0, 10.000008, 9.994324 
2.0150003e+3, 1.3498765e+2, -1622557.3, -1627434.4, -0.024785781, 0.0000022108306, -0.00006808488, -1622557.3, -5436.234, 0.0, 10.000008, 9.993542 
2.0150003e+3, 1.4497519e+2, -1534455.9, -1548145.8, 0.009227523, 0.0000021958967, 0.00007159242, -1534455.9, -15212.727, 0.0, 10.000007, 9.981861 
2.0150003e+3, 1.5495707e+2, -1436728.3, -1450821.5, -0.023711147, 0.0000021847807, -0.000056502333, -1436728.3, -15307.606, 0.0, 10.000007, 9.98133 
2.0150003e+3, 1.6493233e+2, -1348677.4, -1371951.9, 0.008322237, 0.000002175019, 0.000047736317, -1348677.4, -25014.113, 0.0, 10.000007, 9.969245 
2.0150003e+3, 1.7490159e+2, -1250719.5, -1274309.8, -0.025284484, 0.0000021666413, -0.00007340583, -1250719.5, -24755.152, 0.0, 10.000007, 9.968831 
2.0150003e+3, 1.8486425e+2, -1162638.5, -1195719.6, 0.005035427, 0.000002156516, 0.00006656556, -1162638.5, -34308.203, 0.0, 10.000007, 9.956392 
2.0150003e+3, 1.9482067e+2, -1064488.9, -1097832.6, -0.025563402, 0.0000021445608, -0.000057277102, -1064488.9, -33731.594, 0.0, 10.000007, 9.956049 
2.0150003e+3, 2.0477045e+2, -976324.94, -1019434.6, 0.007830952, 0.0000021365468, 0.00006842588, -976324.94, -43075.348, 0.0, 10.000007, 9.943287 
2.0150003e+3, 2.1471378e+2, -878038.0, -921409.56, -0.022569949, 0.0000021328, -0.00012650072, -878038.0, -42232.973, 0.0, 10.000007, 9.942946 
2.0150003e+3, 2.2465041e+2, -789751.94, -843144.56, 0.006911176, 0.0000021257822, 0.00012118572, -789751.94, -51325.875, 0.0, 10.000007, 9.929904 
2.0150003e+3, 2.3458037e+2, -691318.5, -744966.2, -0.02318138, 0.0000021150586, -0.00008853225, -691318.5, -50206.156, 0.0, 10.000007, 9.929573 
2.0150003e+3, 2.4450341e+2, -602994.44, -667018.56, 0.0075491867, 0.0000021075418, 0.0000749702, -602994.44, -59127.76, 0.0, 10.000007, 9.916133 
2.0150003e+3, 2.5441965e+2, -504241.88, -568343.1, -0.022243848, 0.000002103858, -0.00010650552, -504241.88, -57554.453, 0.0, 10.000007, 9.916033 
2.0150003e+3, 2.6432884e+2, -416006.5, -490987.72, 0.00748972, 0.0000020999555, 0.0001408004, -416006.5, -66428.94, 0.0, 10.000007, 9.901961 
2.0150003e+3, 2.742313e+2, -316721.3, -391374.63, -0.018695584, 0.000002095764, -0.0002032564, -316721.3, -64188.41, 0.0, 10.000007, 9.902382 
2.0150003e+3, 2.841256e+2, -230248.1, -318081.16, 0.011043056, 0.0000020909781, 0.00022921507, -230248.1, -74679.19, 0.0, 10.000007, 9.885435 
2.0150003e+3, 2.9401213e+2, -130542.016, -217764.95, -0.016216258, 0.0000020853781, -0.00025319224, -130542.016, -71860.65, 0.0, 10.000007, 9.886214 
2.0150003e+3, 3.0392656e+2, -40798.1, -84750.18, 0.011123872, 0.0000020822763, 0.0001732554, -40798.1, -40798.1, 0.0, 10.000007, 9.942169 
2.0150003e+3, 3.138706e+2, -39720.105, -82511.24, -0.015686648, 0.0000020828943, -0.00005507433, -39720.105, -39720.105, 0.0, 10.000007, 9.943681 
2.0250003e+3, 1.249934e+2, -1719937.1, -1724224.0, 0.025229318, 0.0000022806823, 0.000018267134, -1719937.1, -4872.431, 0.0, 10.000008, 9.994324 
2.0250003e+3, 1.3498765e+2, -1622556.8, -1627434.3, -0.008891038, 0.0000022670663, -0.000068090754, -1622556.8, -5435.7085, 0.0, 10.000008, 9.993541 
2.0250003e+3, 1.4497519e+2, -1534455.4, -1548145.5, 0.024591638, 0.0000022532122, 0.00007161944, -1534455.4, -15212.199, 0.0, 10.000008, 9.981861 
2.0250003e+3, 1.5495707e+2, -1436727.8, -1450821.3, -0.0109742135, 0.0000022386473, -0.00005649263, -1436727.8, -15307.093, 0.0, 10.000008, 9.981329 
2.0250003e+3, 1.6493233e+2, -1348676.9, -1371951.8, 0.022023669, 0.0000022267902, 0.000047740625, -1348676.9, -25013.605, 0.0, 10.000008, 9.969245 
2.0250003e+3, 1.749016e+2, -1250718.9, -1274309.6, -0.010090193, 0.0000022176985, -0.00007339474, -1250718.9, -24754.652, 0.0, 10.000008, 9.968831 
2.0250003e+3, 1.8486425e+2, -1162638.0, -1195719.5, 0.020714367, 0.0000022087802, 0.000066577646, -1162638.0, -34307.703, 0.0, 10.000008, 9.956392 
2.0250003e+3, 1.9482069e+2, -1064488.4, -1097832.4, -0.013803914, 0.000002200042, -0.000057270096, -1064488.4, -33731.094, 0.0, 10.000008, 9.956049 
2.0250003e+3, 2.0477045e+2, -976324.44, -1019434.5, 0.018553924, 0.0000021912842, 0.00006843189, -976324.44, -43074.85, 0.0, 10.000008, 9.943287 
2.0250003e+3, 2.1471378e+2, -878037.5, -921409.4, -0.014140482, 0.0000021825047, -0.00012649129, -878037.5, -42232.49, 0.0, 10.000008, 9.942946 
2.0250003e+3, 2.2465041e+2, -789751.44, -843144.4, 0.014783328, 0.0000021748485, 0.00012119441, -789751.44, -51325.395, 0.0, 10.000008, 9.929904 
2.0250003e+3, 2.3458037e+2, -691318.0, -744966.0, -0.0156816, 0.0000021684627, -0.00008852902, -691318.0, -50205.668, 0.0, 10.000008, 9.929573 
2.0250003e+3, 2.4450341e+2, -602994.0, -667018.4, 0.01608699, 0.00000216202, 0.000074972624, -602994.0, -59127.277, 0.0, 10.000008, 9.916133 
2.0250003e+3, 2.5441965e+2, -504241.38, -568342.94, -0.014603151, 0.0000021555065, -0.000106498315, -504241.38, -57553.977, 0.0, 10.000007, 9.916033 
2.0250003e+3, 2.6432884e+2, -416006.0, -490987.56, 0.014960339, 0.00000215023, 0.0001408083, -416006.0, -66428.46, 0.0, 10.000007, 9.901961 
2.0250003e+3, 2.742313e+2, -316720.84, -391374.5, -0.014825286, 0.000002146526, -0.000203253, -316720.84, -64187.934, 0.0, 10.000007, 9.902382 
2.0250003e+3, 2.841256e+2, -230247.63, -318081.0, 0.013611446, 0.000002142198, 0.00022921586, -230247.63, -74678.72, 0.0, 10.000007, 9.885435 
2.0250003e+3, 2.9401213e+2, -130541.55, -217764.81, -0.0139552, 0.0000021370067, -0.00025319145, -130541.55, -71860.18, 0.0, 10.000007, 9.886213 
2.0250003e+3, 3.0392656e+2, -40797.633, -84750.05, 0.015665151, 0.0000021339522, 0.00017325694, -40797.633, -40797.633, 0.0, 10.000007, 9.942169 
2.0250003e+3, 3.138706e+2, -39719.637, -82511.11, -0.008421059, 0.000002134081, -0.00005507088, -39719.637, -39719.637, 0.0, 10.000007, 9.943681 
2.0350002e+3, 1.249934e+2, -1719937.1, -1724224.1, 0.0107346475, 0.0000023380953, 0.00001827281, -1719937.1, -4872.5273, 0.0, 10.000008, 9.994324 
2.0350002e+3, 1.3498765e+2, -1622556.8, -1627434.4, -0.023388654, 0.0000023196792, -0.000068098394, -1622556.8, -5435.803, 0.0, 10.000008, 9.993541 
2.0350002e+3, 1.4497519e+2, -1534455.4, -1548145.8, 0.007336077, 0.000002305749, 0.00007164845, -1534455.4, -15212.297, 0.0, 10.000008, 9.981861 
2.0350002e+3, 1.5495707e+2, -1436727.9, -1450821.5, -0.028234217, 0.000002295852, -0.0000564847, -1436727.9, -15307.1875, 0.0, 10.000008, 9.981329 
2.0350002e+3, 1.6493233e+2, -1348676.9, -1371951.9, 0.0070240223, 0.0000022833183, 0.000047742673, -1348676.9, -25013.691, 0.0, 10.000008, 9.969245 
2.0350002e+3, 1.749016e+2, -1250719.0, -1274309.8, -0.02507824, 0.0000022680929, -0.000073383046, -1250719.0, -24754.736, 0.0, 10.000008, 9.968831 
2.0350002e+3, 1.8486425e+2, -1162638.1, -1195719.6, 0.00824305, 0.0000022598083, 0.00006659083, -1162638.1, -34307.793, 0.0, 10.000008, 9.956391 
2.0350002e+3, 1.9482069e+2, -1064488.4, -1097832.6, -0.026246268, 0.000002258785, -0.00005726393, -1064488.4, -33731.18, 0.0, 10.000008, 9.956049 
2.0350002e+3, 2.0477045e+2, -976324.5, -1019434.6, 0.0065692235, 0.0000022497738, 0.00006843764, -976324.5, -43074.934, 0.0, 10.000008, 9.943287 
2.0350002e+3, 2.1471378e+2, -878037.56, -921409.56, -0.02611597, 0.0000022321103, -0.00012647879, -878037.56, -42232.57, 0.0, 10.000008, 9.942946 
2.0350002e+3, 2.2465041e+2, -789751.5, -843144.56, 0.0054943464, 0.000002222736, 0.00012120582, -789751.5, -51325.47, 0.0, 10.000008, 9.929904 
2.0350002e+3, 2.3458037e+2, -691318.06, -744966.1, -0.024882998, 0.000002222746, -0.00008852756, -691318.06, -50205.742, 0.0, 10.000008, 9.929573 
2.0350002e+3, 2.4450341e+2, -602994.06, -667018.5, 0.007257848, 0.000002218752, 0.000074973585, -602994.06, -59127.35, 0.0, 10.000008, 9.916133 
2.0350002e+3, 2.5441965e+2, -504241.44, -568343.06, -0.023414694, 0.0000022099634, -0.00010648658, -504241.44, -57554.047, 0.0, 10.000007, 9.916033 
2.0350002e+3, 2.6432884e+2, -416006.06, -490987.7, 0.008639531, 0.0000022024342, 0.00014082149, -416006.06, -66428.53, 0.0, 10.000007, 9.901961 
2.0350002e+3, 2.742313e+2, -316720.9, -391374.63, -0.020979404, 0.0000021965166, -0.00020325025, -316720.9, -64188.004, 0.0, 10.000007, 9.902381 
2.0350002e+3, 2.841256e+2, -230247.69, -318081.13, 0.008436066, 0.0000021930227, 0.00022921289, -230247.69, -74678.78, 0.0, 10.000007, 9.885435 
2.0350002e+3, 2.9401213e+2, -130541.61, -217764.95, -0.019042727, 0.0000021928363, -0.00025319363, -130541.61, -71860.25, 0.0, 10.000007, 9.886213 
2.0350002e+3, 3.0392656e+2, -40797.69, -84750.17, 0.0124683725, 0.0000021894405, 0.00017325665, -40797.69, -40797.69, 0.0, 10.000007, 9.942169 
2.0350002e+3, 3.138706e+2, -39719.695, -82511.234, -0.011396364, 0.000002181253, -0.00005506775, -39719.695, -39719.695, 0.0, 10.000007, 9.943681 
2.0450002e+3, 1.24993406e+2, -1719936.6, -1724223.9, 0.029000055, 0.000002399919, 0.000018293078, -1719936.6, -4871.9644, 0.0, 10.000008, 9.994324 
2.0450002e+3, 1.3498765e+2, -1622556.3, -1627434.3, -0.009529445, 0.0000023729103, -0.000068107176, -1622556.3, -5435.265, 0.0, 10.000008, 9.993541 
2.0450002e+3, 1.4497519e+2, -1534454.9, -1548145.5, 0.020889709, 0.0000023569487, 0.00007167414, -1534454.9, -15211.765, 0.0, 10.000008, 9.981861 
2.0450002e+3, 1.5495707e+2, -1436727.3, -1450821.3, -0.011949821, 0.000002351613, -0.000056471858, -1436727.3, -15306.652, 0.0, 10.000008, 9.981329 
2.0450002e+3, 1.6493233e+2, -1348676.4, -1371951.6, 0.023769744, 0.000002340995, 0.000047749658, -1348676.4, -25013.158, 0.0, 10.000008, 9.969245 
2.0450002e+3, 1.749016e+2, -1250718.5, -1274309.5, -0.013199732, 0.0000023249845, -0.00007337477, -1250718.5, -24754.207, 0.0, 10.000008, 9.968831 
2.0450002e+3, 1.8486425e+2, -1162637.5, -1195719.5, 0.020759873, 0.0000023152595, 0.00006660002, -1162637.5, -34307.266, 0.0, 10.000008, 9.956391 
2.0450002e+3, 1.9482069e+2, -1064487.9, -1097832.4, -0.013126076, 0.0000023121102, -0.00005725424, -1064487.9, -33730.656, 0.0, 10.000008, 9.956049 
2.0450002e+3, 2.0477045e+2, -976323.94, -1019434.44, 0.019539906, 0.0000023030525, 0.00006844687, -976323.94, -43074.41, 0.0, 10.000008, 9.943287 
2.0450002e+3, 2.1471378e+2, -878037.06, -921409.4, -0.014061092, 0.0000022875945, -0.00012647106, -878037.06, -42232.055, 0.0, 10.000008, 9.9429455 
2.0450002e+3, 2.2465041e+2, -789750.94, -843144.4, 0.018585822, 0.0000022786478, 0.00012121302, -789750.94, -51324.957, 0.0, 10.000008, 9.929904 
2.0450002e+3, 2.3458037e+2, -691317.56, -744966.0, -0.014771259, 0.0000022770726, -0.0000885198, -691317.56, -50205.234, 0.0, 10.000008, 9.929573 
2.0450002e+3, 2.4450341e+2, -602993.5, -667018.4, 0.016327072, 0.0000022723846, 0.000074980715, -602993.5, -59126.848, 0.0, 10.000008, 9.916133 
2.0450002e+3, 2.5441965e+2, -504240.94, -568342.94, -0.015662486, 0.0000022639697, -0.00010648147, -504240.94, -57553.543, 0.0, 10.000008, 9.916033 
2.0450002e+3, 2.6432884e+2, -416005.56, -490987.56, 0.01629089, 0.0000022564739, 0.00014082572, -416005.56, -66428.02, 0.0, 10.000008, 9.901961 
2.0450002e+3, 2.742313e+2, -316720.4, -391374.5, -0.014505068, 0.0000022501545, -0.00020324546, -316720.4, -64187.508, 0.0, 10.000008, 9.902381 
2.0450002e+3, 2.841256e+2, -230247.19, -318081.0, 0.015596861, 0.0000022467284, 0.0002292179, -230247.19, -74678.29, 0.0, 10.000008, 9.885435 
2.0450002e+3, 2.9401213e+2, -130541.11, -217764.81, -0.01310012, 0.000002247254, -0.0002531889, -130541.11, -71859.76, 0.0, 10.000008, 9.886213 
2.0450002e+3, 3.0392656e+2, -40797.203, -84750.04, 0.016535325, 0.0000022435463, 0.00017325977, -40797.203, -40797.203, 0.0, 10.000008, 9.942169 
2.0450002e+3, 3.138706e+2, -39719.207, -82511.1, -0.013271271, 0.00000223352, -0.000055068176, -39719.207, -39719.207, 0.0, 10.000008, 9.943681 
2.0550002e+3, 1.24993406e+2, -1719936.6, -1724224.0, 0.00910435, 0.0000024661522, 0.000018327937, -1719936.6, -4872.072, 0.0, 10.000008, 9.994323 
2.0550002e+3, 1.3498765e+2, -1622556.4, -1627434.4, -0.02942921, 0.00000242676, -0.0000681171, -1622556.4, -5435.3706, 0.0, 10.000008, 9.993541 
2.0550002e+3, 1.4497519e+2, -1534455.0, -1548145.6, 0.0047051553, 0.0000024068122, 0.00007169653, -1534455.0, -15211.856, 0.0, 10.000008, 9.981861 
2.0550002e+3, 1.5495707e+2, -1436727.4, -1450821.4, -0.028128875, 0.00000240593, -0.0000564541, -1436727.4, -15306.742, 0.0, 10.000008, 9.981329 
2.0550002e+3, 1.6493233e+2, -1348676.5, -1371951.9, 0.008156731, 0.0000023998198, 0.00004776158, -1348676.5, -25013.256, 0.0, 10.000008, 9.969244 
2.0550002e+3, 1.749016e+2, -1250718.5, -1274309.8, -0.028809965, 0.0000023883726, -0.0000733699, -1250718.5, -24754.303, 0.0, 10.000008, 9.968831 
2.0550002e+3, 1.8486425e+2, -1162637.6, -1195719.6, 0.008217127, 0.0000023751338, 0.00006660521, -1162637.6, -34307.355, 0.0, 10.000008, 9.956391 
2.0550002e+3, 1.9482069e+2, -1064488.0, -1097832.5, -0.025633596, 0.0000023600187, -0.000057241035, -1064488.0, -33730.742, 0.0, 10.000008, 9.956049 
2.0550002e+3, 2.0477045e+2, -976324.06, -1019434.56, 0.006429577, 0.000002351121, 0.00006845958, -976324.06, -43074.496, 0.0, 10.000008, 9.943287 
2.0550002e+3, 2.1471378e+2, -878037.1, -921409.5, -0.027184132, 0.0000023489565, -0.00012646808, -878037.1, -42232.137, 0.0, 10.000008, 9.9429455 
2.0550002e+3, 2.2465041e+2, -789751.06, -843144.5, 0.008580952, 0.0000023425835, 0.00012121602, -789751.06, -51325.043, 0.0, 10.000008, 9.929904 
2.0550002e+3, 2.3458038e+2, -691317.6, -744966.1, -0.024674442, 0.0000023314424, -0.00008850577, -691317.6, -50205.316, 0.0, 10.000008, 9.929573 
2.0550002e+3, 2.4450341e+2, -602993.6, -667018.5, 0.008471645, 0.000002322919, 0.00007499402, -602993.6, -59126.926, 0.0, 10.000008, 9.916132 
2.0550002e+3, 2.5441965e+2, -504241.0, -568343.06, -0.023419777, 0.0000023175255, -0.000106483, -504241.0, -57553.617, 0.0, 10.000008, 9.916033 
2.0550002e+3, 2.6432884e+2, -416005.63, -490987.7, 0.008396662, 0.0000023123491, 0.00014082098, -416005.63, -66428.1, 0.0, 10.000008, 9.901961 
2.0550002e+3, 2.742313e+2, -316720.47, -391374.63, -0.022408802, 0.0000023074394, -0.00020323861, -316720.47, -64187.582, 0.0, 10.000008, 9.902381 
2.0550002e+3, 2.841256e+2, -230247.25, -318081.13, 0.01062424, 0.0000023033147, 0.0002292309, -230247.25, -74678.36, 0.0, 10.000008, 9.885435 
2.0550002e+3, 2.9401213e+2, -130541.17, -217764.94, -0.017809043, 0.0000023002603, -0.00025317725, -130541.17, -71859.82, 0.0, 10.000008, 9.886213 
2.0550002e+3, 3.0392656e+2, -40797.273, -84750.18, 0.013002392, 0.0000022962695, 0.00017326635, -40797.273, -40797.273, 0.0, 10.000008, 9.942169 
2.0550002e+3, 3.138706e+2, -39719.277, -82511.24, -0.01666645, 0.0000022908816, -0.000055072156, -39719.277, -39719.277, 0.0, 10.000008, 9.943681 
2.0650002e+3, 1.24993406e+2, -1719936.1, -1724223.9, 0.031579636, 0.0000025249021, 0.0000183507, -1719936.1, -4871.4937, 0.0, 10.000009, 9.994323 
2.0650002e+3, 1.3498765e+2, -1622555.8, -1627434.1, -0.007094403, 0.000002486957, -0.00006812027, -1622555.8, -5434.8, 0.0, 10.000009, 9.993541 
2.0650002e+3, 1.4497519e+2, -1534454.4, -1548145.5, 0.027564263, 0.0000024664434, 0.00007172842, -1534454.4, -15211.287, 0.0, 10.000009, 9.981861 
2.0650002e+3, 1.5495707e+2, -1436726.8, -1450821.3, -0.011427654, 0.0000024629596, -0.00005644374, -1436726.8, -15306.182, 0.0, 10.000009, 9.981329 
2.0650002e+3, 1.6493233e+2, -1348675.9, -1371951.6, 0.023656134, 0.0000024567366, 0.00004776501, -1348675.9, -25012.7, 0.0, 10.000009, 9.969244 
2.0650002e+3, 1.749016e+2, -1250718.0, -1274309.5, -0.013733474, 0.0000024477176, -0.00007335849, -1250718.0, -24753.742, 0.0, 10.000009, 9.968831 
2.0650002e+3, 1.8486425e+2, -1162637.0, -1195719.4, 0.022346787, 0.0000024341784, 0.00006661893, -1162637.0, -34306.797, 0.0, 10.000009, 9.956391 
2.0650002e+3, 1.9482069e+2, -1064487.4, -1097832.4, -0.0137678655, 0.0000024159078, -0.000057230915, -1064487.4, -33730.203, 0.0, 10.000008, 9.956048 
2.0650002e+3, 2.0477046e+2, -976323.5, -1019434.44, 0.019090323, 0.000002406759, 0.00006846703, -976323.5, -43073.96, 0.0, 10.000008, 9.943287 
2.0650002e+3, 2.1471378e+2, -878036.56, -921409.3, -0.016185118, 0.0000024074889, -0.00012646227, -878036.56, -42231.594, 0.0, 10.000008, 9.9429455 
2.0650002e+3, 2.2465041e+2, -789750.5, -843144.3, 0.018761821, 0.0000024013816, 0.00012122184, -789750.5, -51324.496, 0.0, 10.000008, 9.929904 
2.0650002e+3, 2.3458038e+2, -691317.06, -744966.0, -0.016914142, 0.0000023875305, -0.00008849801, -691317.06, -50204.78, 0.0, 10.000008, 9.929573 
2.0650002e+3, 2.4450341e+2, -602993.06, -667018.3, 0.0163501, 0.0000023779332, 0.000075001786, -602993.06, -59126.395, 0.0, 10.000008, 9.916132 
2.0650002e+3, 2.5441965e+2, -504240.47, -568342.94, -0.01611106, 0.0000023734237, -0.00010647749, -504240.47, -57553.098, 0.0, 10.000008, 9.916033 
2.0650002e+3, 2.6432884e+2, -416005.1, -490987.53, 0.016443875, 0.0000023690436, 0.00014082533, -416005.1, -66427.58, 0.0, 10.000008, 9.901961 
2.0650002e+3, 2.742313e+2, -316719.94, -391374.47, -0.015489542, 0.0000023648136, -0.00020323397, -316719.94, -64187.06, 0.0, 10.000008, 9.902381 
2.0650002e+3, 2.841256e+2, -230246.72, -318080.97, 0.01711529, 0.0000023602124, 0.00022923532, -230246.72, -74677.836, 0.0, 10.000008, 9.885435 
2.0650002e+3, 2.9401213e+2, -130540.66, -217764.8, -0.014576705, 0.0000023551006, -0.00025317376, -130540.66, -71859.305, 0.0, 10.000008, 9.886213 
2.0650002e+3, 3.0392656e+2, -40796.758, -84750.04, 0.01640782, 0.0000023509767, 0.00017326936, -40796.758, -40796.758, 0.0, 10.000008, 9.942169 
2.0650002e+3, 3.138706e+2, -39718.766, -82511.1, -0.011773457, 0.0000023483285, -0.000055068893, -39718.766, -39718.766, 0.0, 10.000008, 9.943681 
2.0750003e+3, 1.24993406e+2, -1719936.1, -1724224.0, 0.010465571, 0.0000025761694, 0.000018361377, -1719936.1, -4871.6025, 0.0, 10.000009, 9.994323 
2.0750003e+3, 1.3498765e+2, -1622555.9, -1627434.4, -0.02821287, 0.0000025535012, -0.0000681167, -1622555.9, -5434.9067, 0.0, 10.000009, 9.993541 
2.0750003e+3, 1.449752e+2, -1534454.5, -1548145.6, 0.009870103, 0.0000025358413, 0.00007176981, -1534454.5, -15211.394, 0.0, 10.000009, 9.98186 
2.0750003e+3, 1.5495707e+2, -1436726.9, -1450821.4, -0.029116694, 0.0000025227016, -0.000056440767, -1436726.9, -15306.286, 0.0, 10.000009, 9.981329 
2.0750003e+3, 1.6493233e+2, -1348676.0, -1371951.8, 0.0095121795, 0.0000025117456, 0.00004775995, -1348676.0, -25012.799, 0.0, 10.000009, 9.969244 
2.0750003e+3, 1.749016e+2, -1250718.0, -1274309.6, -0.027858945, 0.00000250302, -0.00007334055, -1250718.0, -24753.84, 0.0, 10.000009, 9.96883 
2.0750003e+3, 1.8486425e+2, -1162637.1, -1195719.6, 0.0057753515, 0.0000024923938, 0.000066641194, -1162637.1, -34306.89, 0.0, 10.000009, 9.956391 
2.0750003e+3, 1.9482069e+2, -1064487.5, -1097832.5, -0.030367928, 0.0000024797769, -0.000057223875, -1064487.5, -33730.293, 0.0, 10.000008, 9.956048 
2.0750003e+3, 2.0477046e+2, -976323.56, -1019434.56, 0.008563826, 0.0000024699655, 0.00006846923, -976323.56, -43074.05, 0.0, 10.000008, 9.943287 
2.0750003e+3, 2.1471378e+2, -878036.6, -921409.5, -0.026586523, 0.0000024631918, -0.00012645365, -878036.6, -42231.68, 0.0, 10.000008, 9.9429455 
2.0750003e+3, 2.2465041e+2, -789750.56, -843144.5, 0.0076254746, 0.0000024550434, 0.0001212305, -789750.56, -51324.586, 0.0, 10.000008, 9.929904 
2.0750003e+3, 2.3458038e+2, -691317.1, -744966.1, -0.028074736, 0.0000024453366, -0.000088496556, -691317.1, -50204.867, 0.0, 10.000008, 9.929573 
2.0750003e+3, 2.4450341e+2, -602993.1, -667018.5, 0.0065592257, 0.0000024374272, 0.00007500402, -602993.1, -59126.473, 0.0, 10.000008, 9.916132 
2.0750003e+3, 2.5441965e+2, -504240.53, -568343.06, -0.025836505, 0.0000024316646, -0.00010646496, -504240.53, -57553.176, 0.0, 10.000008, 9.916032 
2.0750003e+3, 2.6432884e+2, -416005.2, -490987.7, 0.010056665, 0.0000024265573, 0.00014083879, -416005.2, -66427.66, 0.0, 10.000008, 9.901961 
2.0750003e+3, 2.742313e+2, -316720.03, -391374.63, -0.021653323, 0.000002422277, -0.00020323152, -316720.03, -64187.133, 0.0, 10.000008, 9.902381 
2.0750003e+3, 2.841256e+2, -230246.8, -318081.13, 0.011377829, 0.000002417422, 0.00022923115, -230246.8, -74677.914, 0.0, 10.000008, 9.885435 
2.0750003e+3, 2.9401213e+2, -130540.73, -217764.94, -0.020276062, 0.0000024117744, -0.00025317844, -130540.73, -71859.375, 0.0, 10.000008, 9.886213 
2.0750003e+3, 3.0392656e+2, -40796.83, -84750.18, 0.01307285, 0.0000024076678, 0.00017326883, -40796.83, -40796.83, 0.0, 10.000008, 9.942169 
2.0750003e+3, 3.138706e+2, -39718.832, -82511.24, -0.014831289, 0.0000024058604, -0.000055058386, -39718.832, -39718.832, 0.0, 10.000008, 9.943681 
2.0850003e+3, 1.2499341e+2, -1719935.6, -1724223.8, 0.029003605, 0.0000026337534, 0.000018379018, -1719935.6, -4871.0137, 0.0, 10.000009, 9.994323 
2.0850003e+3, 1.3498767e+2, -1622555.3, -1627434.1, -0.0095746135, 0.0000026164626, -0.000068124216, -1622555.3, -5434.303, 0.0, 10.000009, 9.993541 
2.0850003e+3, 1.449752e+2, -1534453.9, -1548145.4, 0.028203843, 0.0000026006462, 0.00007180185, -1534453.9, -15210.79, 0.0, 10.000009, 9.98186 
2.0850003e+3, 1.5495707e+2, -1436726.3, -1450821.1, -0.013510175, 0.0000025857844, -0.00005642903, -1436726.3, -15305.688, 0.0, 10.000009, 9.981329 
2.0850003e+3, 1.6493233e+2, -1348675.4, -1371951.6, 0.025982922, 0.000002572061, 0.00004776474, -1348675.4, -25012.207, 0.0, 10.000009, 9.969244 
2.0850003e+3, 1.749016e+2, -1250717.5, -1274309.5, -0.011192601, 0.0000025595004, -0.00007332904, -1250717.5, -24753.268, 0.0, 10.000009, 9.96883 
2.0850003e+3, 1.8486425e+2, -1162636.5, -1195719.4, 0.022455733, 0.0000025501, 0.00006665396, -1162636.5, -34306.32, 0.0, 10.000009, 9.956391 
2.0850003e+3, 1.9482069e+2, -1064486.9, -1097832.4, -0.016722646, 0.0000025440038, -0.00005721554, -1064486.9, -33729.71, 0.0, 10.000009, 9.956048 
2.0850003e+3, 2.0477046e+2, -976323.0, -1019434.4, 0.021654526, 0.000002534304, 0.00006847683, -976323.0, -43073.47, 0.0, 10.000009, 9.943287 
2.0850003e+3, 2.1471378e+2, -878036.06, -921409.3, -0.016659586, 0.0000025207005, -0.00012644278, -878036.06, -42231.117, 0.0, 10.000009, 9.9429455 
2.0850003e+3, 2.2465041e+2, -789750.0, -843144.3, 0.017661262, 0.0000025105658, 0.000121240984, -789750.0, -51324.027, 0.0, 10.000009, 9.929904 
2.0850003e+3, 2.3458038e+2, -691316.56, -744965.94, -0.016530823, 0.0000025043576, -0.000088490575, -691316.56, -50204.31, 0.0, 10.000009, 9.929573 
2.0850003e+3, 2.4450341e+2, -602992.56, -667018.3, 0.018892627, 0.000002498151, 0.000075008575, -602992.56, -59125.918, 0.0, 10.000009, 9.916132 
2.0850003e+3, 2.5441965e+2, -504239.97, -568342.9, -0.017207885, 0.0000024919398, -0.00010645814, -504239.97, -57552.617, 0.0, 10.000009, 9.916032 
2.0850003e+3, 2.6432884e+2, -416004.63, -490987.5, 0.017649265, 0.0000024859062, 0.00014084566, -416004.63, -66427.1, 0.0, 10.000009, 9.90196 
2.0850003e+3, 2.742313e+2, -316719.47, -391374.44, -0.017010996, 0.000002480096, -0.00020322744, -316719.47, -64186.586, 0.0, 10.000009, 9.902381 
2.0850003e+3, 2.841256e+2, -230246.25, -318080.97, 0.015576163, 0.0000024750643, 0.0002292338, -230246.25, -74677.37, 0.0, 10.000009, 9.885435 
2.0850003e+3, 2.9401213e+2, -130540.18, -217764.78, -0.015577728, 0.0000024710941, -0.0002531754, -130540.18, -71858.836, 0.0, 10.000009, 9.886213 
2.0850003e+3, 3.0392656e+2, -40796.29, -84750.03, 0.018651798, 0.000002466989, 0.00017327169, -40796.29, -40796.29, 0.0, 10.000009, 9.942169 
2.0850003e+3, 3.138706e+2, -39718.297, -82511.09, -0.011427123, 0.000002462677, -0.000055056556, -39718.297, -39718.297, 0.0, 10.000009, 9.94368 
2.0950003e+3, 1.2499341e+2, -1719935.6, -1724224.0, 0.0118615255, 0.0000026976534, 0.000018403629, -1719935.6, -4871.1235, 0.0, 10.000009, 9.994323 
2.0950003e+3, 1.3498767e+2, -1622555.3, -1627434.3, -0.026720254, 0.0000026758419, -0.000068142836, -1622555.3, -5434.411, 0.0, 10.000009, 9.993541 
2.0950003e+3, 1.449752e+2, -1534453.9, -1548145.6, 0.009473414, 0.0000026608589, 0.00007182453, -1534453.9, -15210.903, 0.0, 10.000009, 9.98186 
2.0950003e+3, 1.5495709e+2, -1436726.4, -1450821.4, -0.032243147, 0.0000026522077, -0.000056408535, -1436726.4, -15305.8, 0.0, 10.000009, 9.981329 
2.0950003e+3, 1.6493233e+2, -1348675.5, -1371951.8, 0.00785659, 0.0000026376822, 0.000047779387, -1348675.5, -25012.307, 0.0, 10.000009, 9.969244 
2.0950003e+3, 1.749016e+2, -1250717.5, -1274309.6, -0.029316189, 0.000002617159, -0.00007332399, -1250717.5, -24753.365, 0.0, 10.000009, 9.96883 
2.0950003e+3, 1.8486425e+2, -1162636.6, -1195719.5, 0.009437903, 0.000002607297, 0.00006665724, -1162636.6, -34306.42, 0.0, 10.000009, 9.956391 
2.0950003e+3, 1.9482069e+2, -1064487.0, -1097832.5, -0.029681595, 0.0000026085884, -0.0000572059, -1064487.0, -33729.813, 0.0, 10.000009, 9.956048 
2.0950003e+3, 2.0477046e+2, -976323.06, -1019434.56, 0.0076382114, 0.0000025997747, 0.00006848983, -976323.06, -43073.566, 0.0, 10.000009, 9.943286 
2.0950003e+3, 2.1471378e+2, -878036.1, -921409.5, -0.03069799, 0.0000025800148, -0.00012642967, -878036.1, -42231.21, 0.0, 10.000009, 9.9429455 
2.0950003e+3, 2.2465041e+2, -789750.06, -843144.44, 0.006503086, 0.0000025679487, 0.000121253295, -789750.06, -51324.113, 0.0, 10.000009, 9.929904 
2.0950003e+3, 2.3458038e+2, -691316.6, -744966.1, -0.027595209, 0.0000025645936, -0.00008848009, -691316.6, -50204.395, 0.0, 10.000009, 9.929572 
2.0950003e+3, 2.4450341e+2, -602992.6, -667018.5, 0.00975411, 0.0000025601043, 0.00007501544, -602992.6, -59126.008, 0.0, 10.000009, 9.916132 
2.0950003e+3, 2.5441965e+2, -504240.06, -568343.06, -0.026254175, 0.0000025542495, -0.00010645704, -504240.06, -57552.703, 0.0, 10.000009, 9.916032 
2.0950003e+3, 2.6432884e+2, -416004.7, -490987.66, 0.0100834975, 0.00000254709, 0.00014084594, -416004.7, -66427.19, 0.0, 10.000009, 9.90196 
2.0950003e+3, 2.742313e+2, -316719.53, -391374.6, -0.024477815, 0.0000025382712, -0.0002032217, -316719.53, -64186.67, 0.0, 10.000009, 9.902381 
2.0950003e+3, 2.841256e+2, -230246.33, -318081.13, 0.00998449, 0.0000025331397, 0.00022924326, -230246.33, -74677.445, 0.0, 10.000009, 9.885435 
2.0950003e+3, 2.9401213e+2, -130540.25, -217764.92, -0.021000873, 0.0000025330598, -0.00025316462, -130540.25, -71858.914, 0.0, 10.000009, 9.886213 
2.0950003e+3, 3.0392656e+2, -40796.36, -84750.18, 0.0142808175, 0.0000025289394, 0.00017327798, -40796.36, -40796.36, 0.0, 10.000009, 9.942169 
2.0950003e+3, 3.138706e+2, -39718.37, -82511.25, -0.015675072, 0.0000025187785, -0.0000550634, -39718.37, -39718.37, 0.0, 10.000009, 9.94368 
2.1050003e+3, 1.2499341e+2, -1719935.0, -1724223.8, 0.034260962, 0.0000027674248, 0.000018430877, -1719935.0, -4870.4785, 0.0, 10.00001, 9.994323 
2.1050003e+3, 1.3498767e+2, -1622554.6, -1627434.0, -0.012041988, 0.0000027373928, -0.000068155416, -1622554.6, -5433.788, 0.0, 10.00001, 9.993541 
2.1050003e+3, 1.449752e+2, -1534453.3, -1548145.4, 0.023705093, 0.0000027201327, 0.00007185216, -1534453.3, -15210.284, 0.0, 10.00001, 9.98186 
2.1050003e+3, 1.5495709e+2, -1436725.8, -1450821.1, -0.012736845, 0.0000027151737, -0.00005639242, -1436725.8, -15305.183, 0.0, 10.00001, 9.981329 
2.1050003e+3, 1.6493233e+2, -1348674.9, -1371951.5, 0.027510708, 0.000002703033, 0.00004778923, -1348674.9, -25011.693, 0.0, 10.00001, 9.969244 
2.1050003e+3, 1.749016e+2, -1250716.9, -1274309.5, -0.016446143, 0.0000026835603, -0.00007331507, -1250716.9, -24752.752, 0.0, 10.000009, 9.96883 
2.1050003e+3, 1.8486427e+2, -1162636.0, -1195719.4, 0.023167172, 0.0000026716605, 0.00006666644, -1162636.0, -34305.813, 0.0, 10.000009, 9.956391 
2.1050003e+3, 1.9482069e+2, -1064486.4, -1097832.3, -0.015447493, 0.0000026676826, -0.000057195157, -1064486.4, -33729.21, 0.0, 10.000009, 9.956048 
2.1050003e+3, 2.0477046e+2, -976322.44, -1019434.4, 0.022004602, 0.0000026584435, 0.000068500536, -976322.44, -43072.973, 0.0, 10.000009, 9.943286 
2.1050003e+3, 2.1471378e+2, -878035.56, -921409.3, -0.016260143, 0.0000026435046, -0.00012642072, -878035.56, -42230.617, 0.0, 10.000009, 9.9429455 
2.1050003e+3, 2.2465041e+2, -789749.44, -843144.25, 0.021241413, 0.000002633078, 0.000121261415, -789749.44, -51323.52, 0.0, 10.000009, 9.929904 
2.1050003e+3, 2.3458038e+2, -691316.06, -744965.94, -0.018048268, 0.0000026277603, -0.000088471745, -691316.06, -50203.805, 0.0, 10.000009, 9.929572 
2.1050003e+3, 2.4450341e+2, -602992.06, -667018.3, 0.018157516, 0.0000026217594, 0.00007502265, -602992.06, -59125.42, 0.0, 10.000009, 9.916132 
2.1050003e+3, 2.5441965e+2, -504239.47, -568342.9, -0.018865077, 0.0000026149362, -0.00010645257, -504239.47, -57552.12, 0.0, 10.000009, 9.916032 
2.1050003e+3, 2.6432884e+2, -416004.1, -490987.5, 0.017921964, 0.0000026075297, 0.00014084982, -416004.1, -66426.61, 0.0, 10.000009, 9.90196 
2.1050003e+3, 2.742313e+2, -316718.97, -391374.44, -0.016519966, 0.0000025993807, -0.00020321565, -316718.97, -64186.098, 0.0, 10.000009, 9.902381 
2.1050003e+3, 2.841256e+2, -230245.75, -318080.94, 0.018942725, 0.000002594508, 0.00022925038, -230245.75, -74676.875, 0.0, 10.000009, 9.885434 
2.1050003e+3, 2.9401213e+2, -130539.68, -217764.77, -0.014804677, 0.0000025941201, -0.00025315792, -130539.68, -71858.34, 0.0, 10.000009, 9.886213 
2.1050003e+3, 3.0392656e+2, -40795.797, -84750.03, 0.018810868, 0.0000025901147, 0.00017328233, -40795.797, -40795.797, 0.0, 10.000009, 9.942168 
2.1050003e+3, 3.138706e+2, -39717.8, -82511.09, -0.014865541, 0.0000025807014, -0.000055064218, -39717.8, -39717.8, 0.0, 10.000009, 9.94368 
2.1150002e+3, 1.2499342e+2, -1719935.1, -1724224.0, 0.012561231, 0.000002843067, 0.000018460769, -1719935.1, -4870.6074, 0.0, 10.00001, 9.994323 
2.1150002e+3, 1.3498767e+2, -1622554.8, -1627434.3, -0.033745926, 0.0000028011154, -0.00006816198, -1622554.8, -5433.914, 0.0, 10.00001, 9.99354 
2.1150002e+3, 1.449752e+2, -1534453.4, -1548145.5, 0.005045431, 0.0000027784683, 0.00007188473, -1534453.4, -15210.387, 0.0, 10.00001, 9.98186 
2.1150002e+3, 1.5495709e+2, -1436725.8, -1450821.3, -0.03139229, 0.0000027746828, -0.000056380683, -1436725.8, -15305.283, 0.0, 10.00001, 9.981329 
2.1150002e+3, 1.6493234e+2, -1348674.9, -1371951.8, 0.009740459, 0.0000027681135, 0.000047794267, -1348674.9, -25011.81, 0.0, 10.00001, 9.969244 
2.1150002e+3, 1.749016e+2, -1250717.0, -1274309.6, -0.034211848, 0.0000027587034, -0.00007330228, -1250717.0, -24752.867, 0.0, 10.000009, 9.96883 
2.1150002e+3, 1.8486427e+2, -1162636.1, -1195719.5, 0.008376224, 0.0000027431897, 0.000066681576, -1162636.1, -34305.914, 0.0, 10.000009, 9.956391 
2.1150002e+3, 1.9482069e+2, -1064486.5, -1097832.5, -0.030204443, 0.000002721287, -0.000057183304, -1064486.5, -33729.31, 0.0, 10.000009, 9.956048 
2.1150002e+3, 2.0477046e+2, -976322.56, -1019434.5, 0.00787775, 0.0000027103113, 0.00006850894, -976322.56, -43073.07, 0.0, 10.000009, 9.943286 
2.1150002e+3, 2.147138e+2, -878035.6, -921409.44, -0.030374315, 0.000002711169, -0.00012641594, -878035.6, -42230.715, 0.0, 10.000009, 9.9429455 
2.1150002e+3, 2.2465041e+2, -789749.56, -843144.44, 0.009572221, 0.0000027059532, 0.00012126535, -789749.56, -51323.617, 0.0, 10.000009, 9.929903 
2.1150002e+3, 2.3458038e+2, -691316.1, -744966.06, -0.029637812, 0.000002693857, -0.00008846555, -691316.1, -50203.902, 0.0, 10.000009, 9.929572 
2.1150002e+3, 2.4450341e+2, -602992.1, -667018.44, 0.009028044, 0.0000026831162, 0.000075030206, -602992.1, -59125.516, 0.0, 10.000009, 9.916132 
2.1150002e+3, 2.5441965e+2, -504239.53, -568343.06, -0.027876653, 0.0000026740004, -0.00010644476, -504239.53, -57552.21, 0.0, 10.000009, 9.916032 
2.1150002e+3, 2.6432884e+2, -416004.2, -490987.66, 0.00944081, 0.0000026672258, 0.0001408573, -416004.2, -66426.695, 0.0, 10.000009, 9.90196 
2.1150002e+3, 2.742313e+2, -316719.03, -391374.6, -0.024965992, 0.0000026634243, -0.00020320927, -316719.03, -64186.18, 0.0, 10.000009, 9.902381 
2.1150002e+3, 2.841256e+2, -230245.83, -318081.1, 0.012942913, 0.000002659169, 0.00022925518, -230245.83, -74676.95, 0.0, 10.000009, 9.885434 
2.1150002e+3, 2.9401213e+2, -130539.75, -217764.92, -0.020584527, 0.0000026542757, -0.00025315533, -130539.75, -71858.42, 0.0, 10.000009, 9.886213 
2.1150002e+3, 3.0392656e+2, -40795.875, -84750.195, 0.015580224, 0.000002650515, 0.00017328473, -40795.875, -40795.875, 0.0, 10.000009, 9.942168 
2.1150002e+3, 3.138706e+2, -39717.88, -82511.26, -0.01779723, 0.000002648445, -0.00005505901, -39717.88, -39717.88, 0.0, 10.000009, 9.94368 
2.1250002e+3, 1.2499342e+2, -1719934.4, -1724223.8, 0.033374056, 0.0000029108166, 0.000018482053, -1719934.4, -4869.938, 0.0, 10.00001, 9.994323 
2.1250002e+3, 1.3498767e+2, -1622554.1, -1627434.0, -0.00839524, 0.000002869728, -0.00006816536, -1622554.1, -5433.2573, 0.0, 10.00001, 9.99354 
2.1250002e+3, 1.449752e+2, -1534452.8, -1548145.3, 0.031187266, 0.0000028461543, 0.00007192373, -1534452.8, -15209.734, 0.0, 10.00001, 9.98186 
2.1250002e+3, 1.5495709e+2, -1436725.1, -1450821.1, -0.015274746, 0.0000028396296, -0.000056371715, -1436725.1, -15304.64, 0.0, 10.00001, 9.981328 
2.1250002e+3, 1.6493234e+2, -1348674.3, -1371951.5, 0.025216, 0.0000028327584, 0.000047795013, -1348674.3, -25011.168, 0.0, 10.00001, 9.969244 
2.1250002e+3, 1.7490162e+2, -1250716.4, -1274309.4, -0.015286254, 0.0000028255347, -0.000073287476, -1250716.4, -24752.22, 0.0, 10.00001, 9.96883 
2.1250002e+3, 1.8486427e+2, -1162635.4, -1195719.3, 0.026815988, 0.0000028102663, 0.00006670003, -1162635.4, -34305.27, 0.0, 10.00001, 9.95639 
2.1250002e+3, 1.9482069e+2, -1064485.8, -1097832.3, -0.01673211, 0.0000027865779, -0.00005717213, -1064485.8, -33728.684, 0.0, 10.00001, 9.956048 
2.1250002e+3, 2.0477046e+2, -976321.9, -1019434.3, 0.020974007, 0.0000027750248, 0.00006851602, -976321.9, -43072.45, 0.0, 10.00001, 9.943286 
2.1250002e+3, 2.147138e+2, -878035.0, -921409.25, -0.019491693, 0.0000027766137, -0.00012640952, -878035.0, -42230.09, 0.0, 10.00001, 9.9429455 
2.1250002e+3, 2.2465043e+2, -789748.94, -843144.25, 0.020308832, 0.0000027712972, 0.000121271914, -789748.94, -51322.996, 0.0, 10.00001, 9.929903 
2.1250002e+3, 2.3458038e+2, -691315.5, -744965.9, -0.020132076, 0.0000027581582, -0.00008845791, -691315.5, -50203.28, 0.0, 10.00001, 9.929572 
2.1250002e+3, 2.4450341e+2, -602991.5, -667018.25, 0.019132087, 0.0000027468843, 0.000075038915, -602991.5, -59124.9, 0.0, 10.00001, 9.916132 
2.1250002e+3, 2.5441965e+2, -504238.94, -568342.9, -0.018258752, 0.0000027378446, -0.00010643497, -504238.94, -57551.605, 0.0, 10.00001, 9.916032 
2.1250002e+3, 2.6432884e+2, -416003.6, -490987.47, 0.019464476, 0.0000027314356, 0.00014086576, -416003.6, -66426.09, 0.0, 10.00001, 9.90196 
2.1250002e+3, 2.7423134e+2, -316718.44, -391374.4, -0.018166624, 0.0000027283663, -0.00020320523, -316718.44, -64185.58, 0.0, 10.00001, 9.90238 
2.1250002e+3, 2.841256e+2, -230245.22, -318080.94, 0.01835039, 0.0000027239869, 0.00022925642, -230245.22, -74676.35, 0.0, 10.00001, 9.885434 
2.1250002e+3, 2.9401213e+2, -130539.15, -217764.75, -0.01812292, 0.0000027177964, -0.00025315475, -130539.15, -71857.83, 0.0, 10.00001, 9.886212 
2.1250002e+3, 3.0392656e+2, -40795.28, -84750.02, 0.018984014, 0.0000027136025, 0.00017328643, -40795.28, -40795.28, 0.0, 10.00001, 9.942168 
2.1250002e+3, 3.138706e+2, -39717.293, -82511.09, -0.0120950425, 0.0000027123933, -0.00005505356, -39717.293, -39717.293, 0.0, 10.00001, 9.94368 
2.1350005e+3, 1.2499342e+2, -1719934.5, -1724223.9, 0.009388859, 0.0000029706748, 0.000018494738, -1719934.5, -4870.057, 0.0, 10.00001, 9.994323 
2.1350005e+3, 1.3498767e+2, -1622554.1, -1627434.3, -0.032385625, 0.0000029432297, -0.00006816558, -1622554.1, -5433.3745, 0.0, 10.00001, 9.99354 
2.1350005e+3, 1.449752e+2, -1534452.8, -1548145.5, 0.010950982, 0.0000029231892, 0.00007196916, -1534452.8, -15209.861, 0.0, 10.00001, 9.98186 
2.1350002e+3, 1.5495709e+2, -1436725.3, -1450821.3, -0.035505332, 0.0000029100136, -0.000056365523, -1436725.3, -15304.764, 0.0, 10.00001, 9.981328 
2.1350002e+3, 1.6493234e+2, -1348674.4, -1371951.8, 0.009408842, 0.0000028969678, 0.000047791465, -1348674.4, -25011.277, 0.0, 10.00001, 9.969244 
2.1350002e+3, 1.7490162e+2, -1250716.4, -1274309.6, -0.031070564, 0.0000028840554, -0.00007327064, -1250716.4, -24752.326, 0.0, 10.00001, 9.96883 
2.1350002e+3, 1.8486427e+2, -1162635.5, -1195719.5, 0.008244384, 0.0000028728912, 0.00006672178, -1162635.5, -34305.383, 0.0, 10.00001, 9.95639 
2.1350002e+3, 1.948207e+2, -1064485.9, -1097832.5, -0.035336196, 0.0000028635538, -0.000057161633, -1064485.9, -33728.797, 0.0, 10.00001, 9.956048 
2.1350002e+3, 2.0477046e+2, -976322.0, -1019434.5, 0.0082055805, 0.0000028525822, 0.00006852176, -976322.0, -43072.55, 0.0, 10.00001, 9.943286 
2.1350002e+3, 2.147138e+2, -878035.06, -921409.44, -0.03214007, 0.0000028398388, -0.00012640149, -878035.06, -42230.19, 0.0, 10.00001, 9.942945 
2.1350002e+3, 2.2465043e+2, -789749.0, -843144.44, 0.008429879, 0.0000028291113, 0.000121281126, -789749.0, -51323.098, 0.0, 10.00001, 9.929903 
2.1350002e+3, 2.3458038e+2, -691315.6, -744966.06, -0.031986125, 0.0000028206646, -0.00008844883, -691315.6, -50203.383, 0.0, 10.00001, 9.929572 
2.1350002e+3, 2.4450341e+2, -602991.56, -667018.44, 0.007809875, 0.0000028130637, 0.00007504878, -602991.56, -59124.992, 0.0, 10.00001, 9.916132 
2.1350002e+3, 2.5441965e+2, -504239.0, -568343.0, -0.029555889, 0.0000028064687, -0.00010642322, -504239.0, -57551.7, 0.0, 10.00001, 9.916032 
2.1350002e+3, 2.6432884e+2, -416003.66, -490987.66, 0.011924231, 0.0000028001587, 0.00014087517, -416003.66, -66426.19, 0.0, 10.00001, 9.90196 
2.1350002e+3, 2.7423134e+2, -316718.5, -391374.6, -0.0254554, 0.0000027942062, -0.0002032035, -316718.5, -64185.668, 0.0, 10.00001, 9.90238 
2.1350002e+3, 2.841256e+2, -230245.3, -318081.1, 0.012264813, 0.0000027889619, 0.00022925406, -230245.3, -74676.445, 0.0, 10.00001, 9.885434 
2.1350002e+3, 2.9401213e+2, -130539.234, -217764.92, -0.02410042, 0.0000027846816, -0.0002531562, -130539.234, -71857.914, 0.0, 10.00001, 9.886212 
2.1350002e+3, 3.0392656e+2, -40795.36, -84750.19, 0.014542108, 0.000002779377, 0.00017328744, -40795.36, -40795.36, 0.0, 10.00001, 9.942168 
2.1350002e+3, 3.138706e+2, -39717.367, -82511.25, -0.016357321, 0.0000027725478, -0.00005504787, -39717.367, -39717.367, 0.0, 10.00001, 9.94368 
2.1450005e+3, 1.2499343e+2, -1719933.8, -1724223.6, 0.0363614, 0.0000030367119, 0.000018518114, -1719933.8, -4869.376, 0.0, 10.0000105, 9.994322 
2.1450005e+3, 1.3498767e+2, -1622553.5, -1627434.0, -0.011331076, 0.0000030143726, -0.000068176596, -1622553.5, -5432.6807, 0.0, 10.0000105, 9.99354 
2.1450005e+3, 1.4497522e+2, -1534452.1, -1548145.3, 0.03109281, 0.0000029963041, 0.000072004834, -1534452.1, -15209.167, 0.0, 10.0000105, 9.98186 
2.1450005e+3, 1.5495709e+2, -1436724.5, -1450821.0, -0.014513655, 0.0000029819348, -0.000056349443, -1436724.5, -15304.075, 0.0, 10.0000105, 9.981328 
2.1450005e+3, 1.6493234e+2, -1348673.6, -1371951.5, 0.03080507, 0.0000029659418, 0.000047799145, -1348673.6, -25010.596, 0.0, 10.0000105, 9.969243 
2.1450005e+3, 1.7490162e+2, -1250715.8, -1274309.4, -0.015082264, 0.0000029482915, -0.00007325992, -1250715.8, -24751.668, 0.0, 10.0000105, 9.96883 
2.1450005e+3, 1.8486427e+2, -1162634.9, -1195719.3, 0.023454601, 0.0000029383307, 0.00006673342, -1162634.9, -34304.727, 0.0, 10.00001, 9.95639 
2.1450005e+3, 1.948207e+2, -1064485.3, -1097832.3, -0.01891819, 0.000002936414, -0.000057151316, -1064485.3, -33728.125, 0.0, 10.00001, 9.956048 
2.1450002e+3, 2.0477046e+2, -976321.3, -1019434.25, 0.025585964, 0.0000029259786, 0.000068532245, -976321.3, -43071.883, 0.0, 10.00001, 9.943286 
2.1450002e+3, 2.147138e+2, -878034.4, -921409.2, -0.01939534, 0.0000029063158, -0.00012638923, -878034.4, -42229.54, 0.0, 10.00001, 9.942945 
2.1450002e+3, 2.2465043e+2, -789748.4, -843144.25, 0.020792818, 0.0000028929428, 0.00012129285, -789748.4, -51322.45, 0.0, 10.00001, 9.929903 
2.1450002e+3, 2.3458038e+2, -691314.94, -744965.9, -0.018814335, 0.0000028866912, -0.000088440254, -691314.94, -50202.742, 0.0, 10.00001, 9.929572 
2.1450002e+3, 2.4450341e+2, -602990.94, -667018.25, 0.021179771, 0.0000028808108, 0.00007505499, -602990.94, -59124.35, 0.0, 10.00001, 9.916131 
2.1450002e+3, 2.5441965e+2, -504238.38, -568342.8, -0.0207122, 0.0000028753645, -0.000106418476, -504238.38, -57551.06, 0.0, 10.00001, 9.916032 
2.1450002e+3, 2.6432884e+2, -416003.0, -490987.44, 0.019609306, 0.0000028688403, 0.00014087971, -416003.0, -66425.55, 0.0, 10.00001, 9.90196 
2.1450002e+3, 2.7423134e+2, -316717.88, -391374.4, -0.019780427, 0.0000028609406, -0.00020319757, -316717.88, -64185.035, 0.0, 10.00001, 9.90238 
2.1450002e+3, 2.841256e+2, -230244.67, -318080.9, 0.018890945, 0.0000028550512, 0.00022926067, -230244.67, -74675.81, 0.0, 10.00001, 9.885434 
2.1450002e+3, 2.9401213e+2, -130538.6, -217764.73, -0.016381482, 0.0000028519166, -0.00025314992, -130538.6, -71857.29, 0.0, 10.00001, 9.886212 
2.1450002e+3, 3.0392656e+2, -40794.74, -84750.016, 0.021564426, 0.0000028462982, 0.00017329199, -40794.74, -40794.74, 0.0, 10.00001, 9.942168 
2.1450002e+3, 3.138706e+2, -39716.746, -82511.08, -0.016141491, 0.0000028369727, -0.000055047156, -39716.746, -39716.746, 0.0, 10.00001, 9.94368 
2.1550004e+3, 1.2499343e+2, -1719933.9, -1724223.9, 0.015956933, 0.0000031089276, 0.000018552186, -1719933.9, -4869.5107, 0.0, 10.0000105, 9.994322 
2.1550004e+3, 1.3498768e+2, -1622553.6, -1627434.1, -0.03173955, 0.0000030831575, -0.00006819841, -1622553.6, -5432.8125, 0.0, 10.0000105, 9.99354 
2.1550004e+3, 1.4497522e+2, -1534452.1, -1548145.5, 0.010015474, 0.0000030654994, 0.00007203076, -1534452.1, -15209.292, 0.0, 10.0000105, 9.98186 
2.1550004e+3, 1.5495709e+2, -1436724.6, -1450821.3, -0.03559231, 0.0000030553936, -0.000056323483, -1436724.6, -15304.198, 0.0, 10.0000105, 9.981328 
2.1550004e+3, 1.6493234e+2, -1348673.8, -1371951.6, 0.010423447, 0.0000030396805, 0.000047818045, -1348673.8, -25010.719, 0.0, 10.0000105, 9.969243 
2.1550004e+3, 1.7490162e+2, -1250715.9, -1274309.5, -0.03546057, 0.0000030182425, -0.000073255316, -1250715.9, -24751.787, 0.0, 10.0000105, 9.96883 
2.1550004e+3, 1.8486427e+2, -1162635.0, -1195719.5, 0.008534205, 0.000003006585, 0.00006673492, -1162635.0, -34304.84, 0.0, 10.00001, 9.95639 
2.1550004e+3, 1.948207e+2, -1064485.4, -1097832.4, -0.03377588, 0.000003005159, -0.000057141177, -1064485.4, -33728.234, 0.0, 10.00001, 9.956047 
2.1550004e+3, 2.0477046e+2, -976321.4, -1019434.44, 0.009908341, 0.000002995215, 0.000068547466, -976321.4, -43071.996, 0.0, 10.00001, 9.943286 
2.1550004e+3, 2.147138e+2, -878034.5, -921409.4, -0.035090122, 0.0000029760442, -0.00012637276, -878034.5, -42229.65, 0.0, 10.00001, 9.942945 
2.1550004e+3, 2.2465043e+2, -789748.44, -843144.4, 0.007711349, 0.000002962791, 0.00012130708, -789748.44, -51322.55, 0.0, 10.00001, 9.929903 
2.1550004e+3, 2.3458038e+2, -691315.0, -744966.06, -0.031810872, 0.0000029562377, -0.00008843217, -691315.0, -50202.84, 0.0, 10.00001, 9.929572 
2.1550004e+3, 2.4450341e+2, -602991.06, -667018.44, 0.011289314, 0.000002950126, 0.00007505753, -602991.06, -59124.457, 0.0, 10.00001, 9.916131 
2.1550004e+3, 2.5441965e+2, -504238.47, -568343.0, -0.030453717, 0.0000029445328, -0.00010642073, -504238.47, -57551.156, 0.0, 10.00001, 9.916032 
2.1550004e+3, 2.6432884e+2, -416003.1, -490987.63, 0.010776665, 0.000002937481, 0.00014087938, -416003.1, -66425.64, 0.0, 10.00001, 9.90196 
2.1550004e+3, 2.7423134e+2, -316717.97, -391374.6, -0.028552542, 0.0000029285693, -0.00020318746, -316717.97, -64185.13, 0.0, 10.00001, 9.90238 
2.1550004e+3, 2.841256e+2, -230244.75, -318081.1, 0.012437175, 0.000002922255, 0.00022927621, -230244.75, -74675.91, 0.0, 10.00001, 9.885434 
2.1550003e+3, 2.9401213e+2, -130538.68, -217764.9, -0.022626922, 0.0000029195012, -0.0002531359, -130538.68, -71857.375, 0.0, 10.00001, 9.886212 
2.1550003e+3, 3.0392656e+2, -40794.824, -84750.195, 0.017221574, 0.000002914366, 0.00017330011, -40794.824, -40794.824, 0.0, 10.00001, 9.942168 
2.1550003e+3, 3.138706e+2, -39716.836, -82511.266, -0.020261342, 0.000002905668, -0.000055051416, -39716.836, -39716.836, 0.0, 10.00001, 9.94368 
2.1650004e+3, 1.2499343e+2, -1719933.1, -1724223.6, 0.037236642, 0.0000031875045, 0.000018582494, -1719933.1, -4868.773, 0.0, 10.0000105, 9.994322 
2.1650004e+3, 1.3498768e+2, -1622552.9, -1627433.9, -0.012869891, 0.0000031537404, -0.000068211986, -1622552.9, -5432.093, 0.0, 10.0000105, 9.99354 
2.1650004e+3, 1.4497522e+2, -1534451.5, -1548145.3, 0.02897643, 0.0000031336367, 0.00007206465, -1534451.5, -15208.575, 0.0, 10.0000105, 9.981859 
2.1650004e+3, 1.549571e+2, -1436723.9, -1450821.0, -0.01619741, 0.0000031266543, -0.000056306442, -1436723.9, -15303.485, 0.0, 10.0000105, 9.981328 
2.1650004e+3, 1.6493234e+2, -1348673.0, -1371951.4, 0.029976787, 0.0000031138086, 0.000047827478, -1348673.0, -25010.012, 0.0, 10.0000105, 9.969243 
2.1650004e+3, 1.7490162e+2, -1250715.1, -1274309.4, -0.017882323, 0.0000030949768, -0.00007324404, -1250715.1, -24751.082, 0.0, 10.0000105, 9.968829 
2.1650004e+3, 1.8486427e+2, -1162634.3, -1195719.3, 0.027356755, 0.0000030807694, 0.000066746994, -1162634.3, -34304.137, 0.0, 10.0000105, 9.95639 
2.1650004e+3, 1.948207e+2, -1064484.6, -1097832.1, -0.019401625, 0.0000030713984, -0.000057129426, -1064484.6, -33727.543, 0.0, 10.0000105, 9.956047 
2.1650004e+3, 2.0477046e+2, -976320.7, -1019434.25, 0.023289513, 0.0000030606755, 0.00006855868, -976320.7, -43071.313, 0.0, 10.0000105, 9.943286 
2.1650004e+3, 2.147138e+2, -878033.8, -921409.2, -0.019740174, 0.0000030484866, -0.00012636233, -878033.8, -42228.965, 0.0, 10.0000105, 9.942945 
2.1650004e+3, 2.2465043e+2, -789747.75, -843144.2, 0.023611058, 0.0000030378185, 0.000121316516, -789747.75, -51321.867, 0.0, 10.0000105, 9.929903 
2.1650004e+3, 2.3458038e+2, -691314.3, -744965.8, -0.022311315, 0.0000030288704, -0.000088423985, -691314.3, -50202.16, 0.0, 10.0000105, 9.929572 
2.1650004e+3, 2.4450341e+2, -602990.4, -667018.2, 0.020071678, 0.0000030206475, 0.000075064534, -602990.4, -59123.78, 0.0, 10.0000105, 9.916131 
2.1650004e+3, 2.5441965e+2, -504237.78, -568342.8, -0.021264652, 0.0000030132867, -0.00010641483, -504237.78, -57550.49, 0.0, 10.0000105, 9.916031 
2.1650004e+3, 2.6432884e+2, -416002.44, -490987.44, 0.021043953, 0.0000030056613, 0.00014088508, -416002.44, -66424.98, 0.0, 10.0000105, 9.90196 
2.1650004e+3, 2.7423134e+2, -316717.28, -391374.38, -0.01941791, 0.000002997694, -0.00020318078, -316717.28, -64184.47, 0.0, 10.0000105, 9.90238 
2.1650004e+3, 2.8412563e+2, -230244.08, -318080.88, 0.021008134, 0.0000029917185, 0.0002292834, -230244.08, -74675.24, 0.0, 10.0000105, 9.885434 
2.1650004e+3, 2.9401213e+2, -130538.02, -217764.72, -0.018834772, 0.0000029884673, -0.00025312885, -130538.02, -71856.72, 0.0, 10.0000105, 9.886212 
2.1650004e+3, 3.0392656e+2, -40794.176, -84750.016, 0.020850616, 0.0000029839184, 0.00017330519, -40794.176, -40794.176, 0.0, 10.0000105, 9.942168 
2.1650004e+3, 3.138706e+2, -39716.184, -82511.086, -0.015028375, 0.0000029774235, -0.000055050983, -39716.184, -39716.184, 0.0, 10.0000105, 9.943679 
2.1750005e+3, 1.24993436e+2, -1719933.3, -1724223.8, 0.013257724, 0.0000032724422, 0.000018609051, -1719933.3, -4868.914, 0.0, 10.0000105, 9.994322 
2.1750005e+3, 1.3498768e+2, -1622553.0, -1627434.1, -0.03685351, 0.0000032261214, -0.000068217334, -1622553.0, -5432.2314, 0.0, 10.0000105, 9.99354 
2.1750005e+3, 1.4497522e+2, -1534451.5, -1548145.4, 0.0076505058, 0.0000032007165, 0.0000721065, -1534451.5, -15208.701, 0.0, 10.0000105, 9.981859 
2.1750005e+3, 1.549571e+2, -1436724.0, -1450821.1, -0.03751968, 0.000003195718, -0.000056298326, -1436724.0, -15303.608, 0.0, 10.0000105, 9.981328 
2.1750005e+3, 1.6493234e+2, -1348673.1, -1371951.6, 0.009605103, 0.0000031883264, 0.000047827445, -1348673.1, -25010.139, 0.0, 10.0000105, 9.969243 
2.1750005e+3, 1.7490162e+2, -1250715.3, -1274309.5, -0.038249295, 0.0000031784934, -0.00007322608, -1250715.3, -24751.207, 0.0, 10.0000105, 9.968829 
2.1750005e+3, 1.8486427e+2, -1162634.4, -1195719.4, 0.0102617005, 0.0000031608834, 0.00006676963, -1162634.4, -34304.258, 0.0, 10.0000105, 9.95639 
2.1750005e+3, 1.948207e+2, -1064484.8, -1097832.4, -0.036459237, 0.0000031351326, -0.00005711606, -1064484.8, -33727.664, 0.0, 10.0000105, 9.956047 
2.1750005e+3, 2.0477048e+2, -976320.8, -1019434.44, 0.007719934, 0.0000031223603, 0.00006856588, -976320.8, -43071.42, 0.0, 10.0000105, 9.943286 
2.1750005e+3, 2.147138e+2, -878033.9, -921409.4, -0.035279498, 0.0000031236427, -0.00012635793, -878033.9, -42229.074, 0.0, 10.0000105, 9.942945 
2.1750005e+3, 2.2465043e+2, -789747.8, -843144.4, 0.010387933, 0.0000031180248, 0.00012132115, -789747.8, -51321.98, 0.0, 10.0000105, 9.929903 
2.1750005e+3, 2.3458038e+2, -691314.44, -744966.0, -0.035458997, 0.0000031045893, -0.00008841568, -691314.44, -50202.273, 0.0, 10.0000105, 9.929572 
2.1750005e+3, 2.4450342e+2, -602990.44, -667018.4, 0.009085791, 0.0000030923754, 0.000075076, -602990.44, -59123.883, 0.0, 10.0000105, 9.916131 
2.1750005e+3, 2.5441965e+2, -504237.88, -568343.0, -0.032147154, 0.0000030816268, -0.000106400796, -504237.88, -57550.59, 0.0, 10.0000105, 9.916031 
2.1750005e+3, 2.6432884e+2, -416002.53, -490987.63, 0.012053345, 0.0000030733813, 0.00014089681, -416002.53, -66425.08, 0.0, 10.0000105, 9.901959 
2.1750005e+3, 2.7423134e+2, -316717.38, -391374.56, -0.028282134, 0.000003068315, -0.00020317754, -316717.38, -64184.566, 0.0, 10.0000105, 9.90238 
2.1750005e+3, 2.8412563e+2, -230244.17, -318081.06, 0.014197801, 0.0000030634415, 0.00022928223, -230244.17, -74675.336, 0.0, 10.0000105, 9.885434 
2.1750005e+3, 2.9401213e+2, -130538.11, -217764.9, -0.025460504, 0.0000030588142, -0.00025312882, -130538.11, -71856.81, 0.0, 10.0000105, 9.886212 
2.1750005e+3, 3.0392656e+2, -40794.26, -84750.195, 0.017049473, 0.0000030549554, 0.00017330721, -40794.26, -40794.26, 0.0, 10.0000105, 9.942168 
2.1750005e+3, 3.138706e+2, -39716.27, -82511.266, -0.018498419, 0.0000030522392, -0.000055045857, -39716.27, -39716.27, 0.0, 10.0000105, 9.943679 
2.1850005e+3, 1.24993436e+2, -1719932.5, -1724223.5, 0.037856113, 0.0000033487304, 0.000018633, -1719932.5, -4868.145, 0.0, 10.000011, 9.994322 
2.1850005e+3, 1.3498768e+2, -1622552.1, -1627433.9, -0.011700997, 0.0000033039819, -0.00006822322, -1622552.1, -5431.4756, 0.0, 10.000011, 9.99354 
2.1850005e+3, 1.4497522e+2, -1534450.8, -1548145.1, 0.033339307, 0.0000032782173, 0.000072150746, -1534450.8, -15207.953, 0.0, 10.000011, 9.981859 
2.1850005e+3, 1.549571e+2, -1436723.3, -1450820.9, -0.01781466, 0.0000032709006, -0.000056288485, -1436723.3, -15302.869, 0.0, 10.000011, 9.981328 
2.1850005e+3, 1.6493234e+2, -1348672.4, -1371951.4, 0.029049702, 0.000003262391, 0.000047828005, -1348672.4, -25009.4, 0.0, 10.000011, 9.969243 
2.1850005e+3, 1.7490162e+2, -1250714.5, -1274309.3, -0.01864225, 0.0000032526646, -0.00007320914, -1250714.5, -24750.465, 0.0, 10.000011, 9.968829 
2.1850005e+3, 1.8486427e+2, -1162633.6, -1195719.1, 0.029588427, 0.0000032356945, 0.00006679082, -1162633.6, -34303.52, 0.0, 10.000011, 9.95639 
2.1850005e+3, 1.948207e+2, -1064484.0, -1097832.1, -0.019831147, 0.000003211142, -0.000057103305, -1064484.0, -33726.94, 0.0, 10.000011, 9.956047 
2.1850005e+3, 2.0477048e+2, -976320.06, -1019434.2, 0.024270998, 0.000003197986, 0.00006857385, -976320.06, -43070.703, 0.0, 10.0000105, 9.943285 
2.1850005e+3, 2.147138e+2, -878033.2, -921409.1, -0.022781562, 0.000003197172, -0.0001263508, -878033.2, -42228.355, 0.0, 10.0000105, 9.942945 
2.1850005e+3, 2.2465043e+2, -789747.1, -843144.1, 0.022804923, 0.0000031907334, 0.00012132878, -789747.1, -51321.27, 0.0, 10.0000105, 9.929903 
2.1850005e+3, 2.3458038e+2, -691313.7, -744965.8, -0.022561433, 0.0000031779223, -0.00008840605, -691313.7, -50201.563, 0.0, 10.0000105, 9.929571 
2.1850005e+3, 2.4450342e+2, -602989.75, -667018.2, 0.022397341, 0.0000031658558, 0.000075087126, -602989.75, -59123.176, 0.0, 10.0000105, 9.916131 
2.1850005e+3, 2.5441965e+2, -504237.16, -568342.75, -0.0224408, 0.0000031546838, -0.00010638879, -504237.16, -57549.89, 0.0, 10.0000105, 9.916031 
2.1850005e+3, 2.6432884e+2, -416001.8, -490987.4, 0.021336928, 0.000003146358, 0.00014090668, -416001.8, -66424.38, 0.0, 10.0000105, 9.901959 
2.1850005e+3, 2.7423134e+2, -316716.7, -391374.38, -0.021135109, 0.0000031416496, -0.00020317365, -316716.7, -64183.87, 0.0, 10.0000105, 9.90238 
2.1850005e+3, 2.8412563e+2, -230243.47, -318080.88, 0.02125417, 0.0000031368475, 0.0002292826, -230243.47, -74674.65, 0.0, 10.0000105, 9.885433 
2.1850005e+3, 2.9401213e+2, -130537.42, -217764.7, -0.01986841, 0.000003131898, -0.0002531285, -130537.42, -71856.125, 0.0, 10.0000105, 9.886212 
2.1850005e+3, 3.0392656e+2, -40793.58, -84750.01, 0.022861613, 0.00000312749, 0.0001733088, -40793.58, -40793.58, 0.0, 10.0000105, 9.942167 
2.1850005e+3, 3.138706e+2, -39715.594, -82511.08, -0.014215891, 0.0000031238915, -0.00005504102, -39715.594, -39715.594, 0.0, 10.0000105, 9.943679 
2.1950005e+3, 1.24993436e+2, -1719932.6, -1724223.8, 0.011396656, 0.0000034163704, 0.000018654358, -1719932.6, -4868.2856, 0.0, 10.000011, 9.994322 
2.1950005e+3, 1.3498768e+2, -1622552.3, -1627434.1, -0.03816607, 0.0000033873214, -0.00006822965, -1622552.3, -5431.6143, 0.0, 10.000011, 9.993539 
2.1950005e+3, 1.4497522e+2, -1534450.9, -1548145.4, 0.010473129, 0.000003366138, 0.00007219738, -1534450.9, -15208.094, 0.0, 10.000011, 9.981859 
2.1950005e+3, 1.549571e+2, -1436723.4, -1450821.1, -0.040675495, 0.000003352202, -0.00005627692, -1436723.4, -15303.007, 0.0, 10.000011, 9.981328 
2.1950005e+3, 1.6493236e+2, -1348672.5, -1371951.6, 0.010440318, 0.0000033360022, 0.000047829155, -1348672.5, -25009.53, 0.0, 10.000011, 9.969243 
2.1950005e+3, 1.7490162e+2, -1250714.6, -1274309.5, -0.03722983, 0.0000033174915, -0.00007319323, -1250714.6, -24750.59, 0.0, 10.000011, 9.968829 
2.1950005e+3, 1.8486428e+2, -1162633.6, -1195719.4, 0.009472964, 0.0000033052036, 0.00006681057, -1162633.6, -34303.65, 0.0, 10.000011, 9.95639 
2.1950005e+3, 1.948207e+2, -1064484.1, -1097832.4, -0.03996454, 0.0000032994244, -0.000057091154, -1064484.1, -33727.066, 0.0, 10.000011, 9.956047 
2.1950005e+3, 2.0477048e+2, -976320.2, -1019434.4, 0.009097702, 0.0000032875507, 0.00006858259, -976320.2, -43070.824, 0.0, 10.0000105, 9.943285 
2.1950005e+3, 2.147138e+2, -878033.25, -921409.3, -0.037852988, 0.0000032690748, -0.00012634092, -878033.25, -42228.473, 0.0, 10.0000105, 9.942945 
2.1950005e+3, 2.2465043e+2, -789747.2, -843144.4, 0.009104447, 0.0000032559458, 0.00012133941, -789747.2, -51321.383, 0.0, 10.0000105, 9.929902 
2.1950005e+3, 2.345804e+2, -691313.8, -744966.0, -0.036217466, 0.0000032488695, -0.00008839508, -691313.8, -50201.676, 0.0, 10.0000105, 9.929571 
2.1950005e+3, 2.4450342e+2, -602989.8, -667018.4, 0.010169536, 0.0000032410885, 0.000075097916, -602989.8, -59123.29, 0.0, 10.0000105, 9.916131 
2.1950005e+3, 2.5441965e+2, -504237.25, -568342.94, -0.03460044, 0.0000032324572, -0.00010637881, -504237.25, -57550.0, 0.0, 10.0000105, 9.916031 
2.1950005e+3, 2.6432884e+2, -416001.9, -490987.6, 0.012502121, 0.0000032245907, 0.00014091466, -416001.9, -66424.484, 0.0, 10.0000105, 9.901959 
2.1950005e+3, 2.7423134e+2, -316716.78, -391374.56, -0.029747538, 0.0000032176972, -0.00020316915, -316716.78, -64183.973, 0.0, 10.0000105, 9.90238 
2.1950005e+3, 2.8412563e+2, -230243.56, -318081.06, 0.014349445, 0.0000032119365, 0.0002292845, -230243.56, -74674.75, 0.0, 10.0000105, 9.885433 
2.1950005e+3, 2.9401213e+2, -130537.516, -217764.9, -0.026619675, 0.0000032077185, -0.00025312795, -130537.516, -71856.22, 0.0, 10.0000105, 9.886212 
2.1950005e+3, 3.0392656e+2, -40793.668, -84750.195, 0.01734792, 0.000003201522, 0.00017330993, -40793.668, -40793.668, 0.0, 10.0000105, 9.942167 
2.1950005e+3, 3.138706e+2, -39715.684, -82511.266, -0.019585034, 0.000003192381, -0.000055036468, -39715.684, -39715.684, 0.0, 10.0000105, 9.943679 
2.2050005e+3, 1.2499344e+2, -1719931.8, -1724223.5, 0.043093238, 0.0000034931745, 0.000018682544, -1719931.8, -4867.4937, 0.0, 10.000012, 9.994322 
2.2050005e+3, 1.3498768e+2, -1622551.5, -1627433.8, -0.012940828, 0.0000034681107, -0.00006824355, -1622551.5, -5430.8184, 0.0, 10.000011, 9.993539 
2.2050005e+3, 1.4497523e+2, -1534450.1, -1548145.1, 0.034767557, 0.0000034481882, 0.000072238225, -1534450.1, -15207.297, 0.0, 10.000011, 9.981859 
2.2050005e+3, 1.549571e+2, -1436722.5, -1450820.9, -0.016623849, 0.000003432757, -0.00005625811, -1436722.5, -15302.218, 0.0, 10.000011, 9.981327 
2.2050005e+3, 1.6493236e+2, -1348671.6, -1371951.3, 0.03455575, 0.0000034141071, 0.000047838337, -1348671.6, -25008.75, 0.0, 10.000011, 9.969243 
2.2050005e+3, 1.7490163e+2, -1250713.8, -1274309.3, -0.019394858, 0.0000033921717, -0.000073180985, -1250713.8, -24749.828, 0.0, 10.000011, 9.968829 
2.2050005e+3, 1.8486428e+2, -1162632.9, -1195719.1, 0.026060294, 0.0000033809422, 0.00006682351, -1162632.9, -34302.887, 0.0, 10.000011, 9.956389 
2.2050005e+3, 1.948207e+2, -1064483.3, -1097832.1, -0.021616708, 0.0000033809124, -0.000057079997, -1064483.3, -33726.3, 0.0, 10.000011, 9.956047 
2.2050005e+3, 2.0477048e+2, -976319.4, -1019434.1, 0.029014414, 0.0000033693943, 0.00006859409, -976319.4, -43070.063, 0.0, 10.000011, 9.943285 
2.2050005e+3, 2.147138e+2, -878032.5, -921409.06, -0.022747353, 0.000003345432, -0.00012632676, -878032.5, -42227.723, 0.0, 10.000011, 9.942945 
2.2050005e+3, 2.2465043e+2, -789746.44, -843144.1, 0.023226347, 0.0000033298525, 0.00012135291, -789746.44, -51320.637, 0.0, 10.000011, 9.929902 
2.2050005e+3, 2.345804e+2, -691313.06, -744965.75, -0.023403302, 0.0000033237636, -0.00008838599, -691313.06, -50200.934, 0.0, 10.000011, 9.929571 
2.2050005e+3, 2.4450342e+2, -602989.06, -667018.1, 0.023284633, 0.0000033172782, 0.00007510386, -602989.06, -59122.55, 0.0, 10.000011, 9.916131 
2.2050005e+3, 2.5441965e+2, -504236.5, -568342.75, -0.023719894, 0.0000033103072, -0.00010637449, -504236.5, -57549.26, 0.0, 10.000011, 9.916031 
2.2050005e+3, 2.6432884e+2, -416001.16, -490987.38, 0.022805046, 0.0000033027434, 0.00014091957, -416001.16, -66423.75, 0.0, 10.000011, 9.901959 
2.2050005e+3, 2.7423134e+2, -316716.03, -391374.34, -0.022839556, 0.0000032944242, -0.00020316085, -316716.03, -64183.25, 0.0, 10.000011, 9.902379 
2.2050005e+3, 2.8412563e+2, -230242.84, -318080.84, 0.021680206, 0.0000032878806, 0.00022929395, -230242.84, -74674.03, 0.0, 10.000011, 9.885433 
2.2050005e+3, 2.9401213e+2, -130536.79, -217764.69, -0.01895081, 0.000003283768, -0.0002531205, -130536.79, -71855.5, 0.0, 10.000011, 9.886211 
2.2050005e+3, 3.0392656e+2, -40792.953, -84750.0, 0.02420061, 0.0000032769444, 0.00017331491, -40792.953, -40792.953, 0.0, 10.000011, 9.942167 
2.2050005e+3, 3.138706e+2, -39714.965, -82511.07, -0.019602478, 0.000003266081, -0.000055034634, -39714.965, -39714.965, 0.0, 10.000011, 9.943679 
2.2150005e+3, 1.2499344e+2, -1719931.9, -1724223.8, 0.018047122, 0.0000035791409, 0.000018717568, -1719931.9, -4867.651, 0.0, 10.000012, 9.994321 
2.2150005e+3, 1.349877e+2, -1622551.6, -1627434.0, -0.03799169, 0.0000035463506, -0.00006826491, -1622551.6, -5430.973, 0.0, 10.000011, 9.993539 
2.2150005e+3, 1.4497523e+2, -1534450.1, -1548145.3, 0.010778497, 0.000003524369, 0.00007227329, -1534450.1, -15207.438, 0.0, 10.000011, 9.981859 
2.2150005e+3, 1.549571e+2, -1436722.6, -1450821.1, -0.040611777, 0.0000035125659, -0.000056232064, -1436722.6, -15302.357, 0.0, 10.000011, 9.981327 
2.2150005e+3, 1.6493236e+2, -1348671.8, -1371951.5, 0.012702423, 0.0000034967054, 0.00004785555, -1348671.8, -25008.893, 0.0, 10.000011, 9.969243 
2.2150005e+3, 1.7490163e+2, -1250713.9, -1274309.5, -0.0412372, 0.0000034767036, -0.00007317241, -1250713.9, -24749.969, 0.0, 10.000011, 9.968829 
2.2150005e+3, 1.8486428e+2, -1162633.0, -1195719.4, 0.007812471, 0.0000034629093, 0.00006682964, -1162633.0, -34303.01, 0.0, 10.000011, 9.956389 
2.2150005e+3, 1.948207e+2, -1064483.4, -1097832.3, -0.03982365, 0.0000034556076, -0.00005706983, -1064483.4, -33726.426, 0.0, 10.000011, 9.956047 
2.2150005e+3, 2.0477048e+2, -976319.5, -1019434.4, 0.011650252, 0.0000034435188, 0.000068608366, -976319.5, -43070.19, 0.0, 10.000011, 9.943285 
2.2150005e+3, 2.1471381e+2, -878032.6, -921409.3, -0.04009435, 0.0000034262434, -0.00012630831, -878032.6, -42227.85, 0.0, 10.000011, 9.942944 
2.2150005e+3, 2.2465043e+2, -789746.56, -843144.3, 0.008860437, 0.0000034124519, 0.00012136928, -789746.56, -51320.754, 0.0, 10.000011, 9.929902 
2.2150005e+3, 2.345804e+2, -691313.2, -744965.94, -0.037672333, 0.0000034026039, -0.00008837879, -691313.2, -50201.047, 0.0, 10.000011, 9.929571 
2.2150005e+3, 2.4450342e+2, -602989.2, -667018.4, 0.01167468, 0.0000033944252, 0.00007510496, -602989.2, -59122.668, 0.0, 10.000011, 9.916131 
2.2150005e+3, 2.5441965e+2, -504236.63, -568342.94, -0.03520247, 0.000003388234, -0.00010637583, -504236.63, -57549.375, 0.0, 10.000011, 9.916031 
2.2150005e+3, 2.6432884e+2, -416001.28, -490987.6, 0.012451917, 0.0000033808162, 0.0001409214, -416001.28, -66423.87, 0.0, 10.000011, 9.901959 
2.2150005e+3, 2.7423134e+2, -316716.16, -391374.53, -0.033117447, 0.0000033718302, -0.00020314872, -316716.16, -64183.36, 0.0, 10.000011, 9.902379 
2.2150005e+3, 2.8412563e+2, -230242.94, -318081.06, 0.014429616, 0.0000033646802, 0.00022931093, -230242.94, -74674.13, 0.0, 10.000011, 9.885433 
2.2150005e+3, 2.9401213e+2, -130536.88, -217764.88, -0.02592933, 0.0000033600468, -0.00025310615, -130536.88, -71855.6, 0.0, 10.000011, 9.886211 
2.2150005e+3, 3.0392656e+2, -40793.055, -84750.21, 0.020243485, 0.000003353757, 0.00017332373, -40793.055, -40793.055, 0.0, 10.000011, 9.942167 
2.2150005e+3, 3.138706e+2, -39715.066, -82511.28, -0.023205217, 0.0000033449908, -0.00005503552, -39715.066, -39715.066, 0.0, 10.000011, 9.943679 
2.2250006e+3, 1.2499344e+2, -1719931.0, -1724223.4, 0.040139172, 0.0000036681047, 0.000018750103, -1719931.0, -4866.8145, 0.0, 10.000012, 9.994321 
2.2250006e+3, 1.349877e+2, -1622550.8, -1627433.8, -0.013854589, 0.0000036268527, -0.00006827974, -1622550.8, -5430.143, 0.0, 10.000012, 9.993539 
2.2250006e+3, 1.4497523e+2, -1534449.4, -1548145.0, 0.03518861, 0.0000036021527, 0.00007231473, -1534449.4, -15206.611, 0.0, 10.000012, 9.981859 
2.2250006e+3, 1.549571e+2, -1436721.8, -1450820.8, -0.020492556, 0.0000035933922, -0.000056213918, -1436721.8, -15301.534, 0.0, 10.000012, 9.981327 
2.2250006e+3, 1.6493236e+2, -1348671.0, -1371951.3, 0.03294036, 0.0000035806383, 0.00004786416, -1348671.0, -25008.076, 0.0, 10.000012, 9.969242 
2.2250006e+3, 1.7490163e+2, -1250713.1, -1274309.1, -0.0192551, 0.0000035638084, -0.000073159266, -1250713.1, -24749.162, 0.0, 10.000012, 9.968829 
2.2250006e+3, 1.8486428e+2, -1162632.1, -1195719.1, 0.03127487, 0.0000035472765, 0.00006684458, -1162632.1, -34302.21, 0.0, 10.000012, 9.956389 
2.2250006e+3, 1.9482073e+2, -1064482.6, -1097832.0, -0.024341324, 0.0000035310534, -0.000057055953, -1064482.6, -33725.63, 0.0, 10.000012, 9.956046 
2.2250006e+3, 2.0477048e+2, -976318.7, -1019434.1, 0.025040923, 0.0000035181356, 0.00006862116, -976318.7, -43069.4, 0.0, 10.000012, 9.943285 
2.2250006e+3, 2.1471381e+2, -878031.8, -921409.06, -0.024037171, 0.0000035087958, -0.00012629663, -878031.8, -42227.066, 0.0, 10.000012, 9.942944 
2.2250006e+3, 2.2465043e+2, -789745.75, -843144.06, 0.026400367, 0.0000034977202, 0.00012137995, -789745.75, -51319.973, 0.0, 10.000012, 9.929902 
2.2250006e+3, 2.345804e+2, -691312.4, -744965.75, -0.02609881, 0.0000034846762, -0.000088369066, -691312.4, -50200.273, 0.0, 10.000012, 9.929571 
2.2250006e+3, 2.4450342e+2, -602988.4, -667018.1, 0.02251264, 0.0000034741308, 0.00007511372, -602988.4, -59121.895, 0.0, 10.000012, 9.91613 
2.2250006e+3, 2.5441965e+2, -504235.84, -568342.7, -0.024632845, 0.0000034665693, -0.00010636804, -504235.84, -57548.61, 0.0, 10.000011, 9.916031 
2.2250006e+3, 2.6432884e+2, -416000.5, -490987.34, 0.023952559, 0.0000034586888, 0.00014092834, -416000.5, -66423.1, 0.0, 10.000011, 9.901959 
2.2250006e+3, 2.7423134e+2, -316715.38, -391374.3, -0.023098886, 0.000003450392, -0.00020314247, -316715.38, -64182.598, 0.0, 10.000011, 9.902379 
2.2250006e+3, 2.8412563e+2, -230242.17, -318080.8, 0.023447827, 0.0000034434424, 0.00022931739, -230242.17, -74673.37, 0.0, 10.000011, 9.885433 
2.2250006e+3, 2.9401213e+2, -130536.12, -217764.66, -0.022966959, 0.0000034383356, -0.00025309826, -130536.12, -71854.84, 0.0, 10.000011, 9.886211 
2.2250006e+3, 3.0392656e+2, -40792.31, -84750.01, 0.023471303, 0.000003432719, 0.00017333032, -40792.31, -40792.31, 0.0, 10.000011, 9.942167 
2.2250006e+3, 3.138706e+2, -39714.324, -82511.08, -0.016318921, 0.000003426334, -0.00005503437, -39714.324, -39714.324, 0.0, 10.000011, 9.943679 
2.2350004e+3, 1.2499345e+2, -1719931.1, -1724223.6, 0.014287379, 0.0000037600653, 0.000018780165, -1719931.1, -4866.9683, 0.0, 10.000012, 9.994321 
2.2350004e+3, 1.349877e+2, -1622550.9, -1627434.0, -0.03971163, 0.0000037096172, -0.000068288035, -1622550.9, -5430.2944, 0.0, 10.000012, 9.993539 
2.2350004e+3, 1.4497523e+2, -1534449.5, -1548145.3, 0.010814173, 0.0000036815388, 0.00007236256, -1534449.5, -15206.765, 0.0, 10.000012, 9.981858 
2.2350004e+3, 1.5495712e+2, -1436722.0, -1450821.0, -0.04486496, 0.0000036752363, -0.000056203666, -1436722.0, -15301.685, 0.0, 10.000012, 9.981327 
2.2350004e+3, 1.6493236e+2, -1348671.1, -1371951.5, 0.009093157, 0.0000036659062, 0.000047864174, -1348671.1, -25008.217, 0.0, 10.000012, 9.969242 
2.2350004e+3, 1.7490163e+2, -1250713.3, -1274309.4, -0.04310019, 0.0000036534861, -0.000073141564, -1250713.3, -24749.3, 0.0, 10.000012, 9.968828 
2.2350004e+3, 1.8486428e+2, -1162632.3, -1195719.3, 0.01264453, 0.0000036340437, 0.00006686832, -1162632.3, -34302.355, 0.0, 10.000012, 9.956389 
2.2350004e+3, 1.9482073e+2, -1064482.8, -1097832.3, -0.04291165, 0.0000036072497, -0.000057038375, -1064482.8, -33725.77, 0.0, 10.000012, 9.956046 
2.2350004e+3, 2.0477048e+2, -976318.8, -1019434.3, 0.0071020806, 0.0000035932449, 0.00006863247, -976318.8, -43069.527, 0.0, 10.000012, 9.943285 
2.2350004e+3, 2.1471381e+2, -878031.94, -921409.25, -0.04196362, 0.000003593089, -0.00012629169, -878031.94, -42227.188, 0.0, 10.000012, 9.942944 
2.2350004e+3, 2.2465044e+2, -789745.9, -843144.3, 0.011143575, 0.0000035856567, 0.0001213849, -789745.9, -51320.1, 0.0, 10.000012, 9.929902 
2.2350004e+3, 2.345804e+2, -691312.5, -744965.94, -0.04126864, 0.0000035699802, -0.000088356835, -691312.5, -50200.4, 0.0, 10.000012, 9.929571 
2.2350004e+3, 2.4450342e+2, -602988.5, -667018.3, 0.0100517245, 0.0000035563949, 0.00007513015, -602988.5, -59122.01, 0.0, 10.000012, 9.91613 
2.2350004e+3, 2.5441965e+2, -504235.94, -568342.94, -0.036964264, 0.0000035453133, -0.00010635112, -504235.94, -57548.723, 0.0, 10.000011, 9.91603 
2.2350004e+3, 2.6432884e+2, -416000.6, -490987.56, 0.014073474, 0.0000035363612, 0.00014094039, -416000.6, -66423.22, 0.0, 10.000011, 9.901959 
2.2350004e+3, 2.7423134e+2, -316715.47, -391374.53, -0.032814033, 0.0000035301096, -0.0002031421, -316715.47, -64182.71, 0.0, 10.000011, 9.902379 
2.2350004e+3, 2.8412563e+2, -230242.27, -318081.03, 0.015727561, 0.0000035241678, 0.00022931333, -230242.27, -74673.48, 0.0, 10.000011, 9.885433 
2.2350004e+3, 2.9401213e+2, -130536.23, -217764.88, -0.030507946, 0.0000035186347, -0.00025309678, -130536.23, -71854.95, 0.0, 10.000011, 9.886211 
2.2350004e+3, 3.0392656e+2, -40792.406, -84750.21, 0.018423477, 0.0000035138307, 0.00017333466, -40792.406, -40792.406, 0.0, 10.000011, 9.942167 
2.2350004e+3, 3.138706e+2, -39714.418, -82511.28, -0.021074781, 0.00000351011, -0.00005503118, -39714.418, -39714.418, 0.0, 10.000011, 9.943679 
2.2450005e+3, 1.2499345e+2, -1719930.3, -1724223.4, 0.04541043, 0.0000038451694, 0.000018808916, -1719930.3, -4866.082, 0.0, 10.000013, 9.994321 
2.2450005e+3, 1.349877e+2, -1622550.0, -1627433.8, -0.015582675, 0.000003797952, -0.000068297224, -1622550.0, -5429.4277, 0.0, 10.000013, 9.993539 
2.2450005e+3, 1.4497523e+2, -1534448.6, -1548145.0, 0.034859397, 0.0000037704453, 0.00007241245, -1534448.6, -15205.906, 0.0, 10.000013, 9.981858 
2.2450005e+3, 1.5495712e+2, -1436721.0, -1450820.8, -0.019632008, 0.0000037620212, -0.000056191107, -1436721.0, -15300.834, 0.0, 10.000013, 9.981327 
2.2450005e+3, 1.6493236e+2, -1348670.3, -1371951.3, 0.034424905, 0.000003750561, 0.00004786598, -1348670.3, -25007.367, 0.0, 10.000013, 9.969242 
2.2450005e+3, 1.7490163e+2, -1250712.4, -1274309.1, -0.023565808, 0.0000037360028, -0.00007312337, -1250712.4, -24748.445, 0.0, 10.000013, 9.968828 
2.2450005e+3, 1.8486428e+2, -1162631.5, -1195719.0, 0.03190675, 0.0000037174848, 0.000066890854, -1162631.5, -34301.508, 0.0, 10.000012, 9.956389 
2.2450005e+3, 1.9482073e+2, -1064481.9, -1097832.0, -0.022655208, 0.00000369482, -0.000057024117, -1064481.9, -33724.94, 0.0, 10.000012, 9.956046 
2.2450005e+3, 2.0477048e+2, -976317.94, -1019434.06, 0.028272172, 0.0000036806343, 0.00006864218, -976317.94, -43068.703, 0.0, 10.000012, 9.943285 
2.2450005e+3, 2.1471381e+2, -878031.06, -921409.0, -0.0265244, 0.0000036756303, -0.0001262825, -878031.06, -42226.363, 0.0, 10.000012, 9.942944 
2.2450005e+3, 2.2465044e+2, -789745.06, -843144.0, 0.025798175, 0.0000036668218, 0.00012139425, -789745.06, -51319.28, 0.0, 10.000012, 9.929902 
2.2450005e+3, 2.345804e+2, -691311.7, -744965.7, -0.025896871, 0.0000036537017, -0.000088346584, -691311.7, -50199.586, 0.0, 10.000012, 9.929571 
2.2450005e+3, 2.4450342e+2, -602987.7, -667018.06, 0.025571931, 0.0000036410163, 0.000075141616, -602987.7, -59121.2, 0.0, 10.000012, 9.91613 
2.2450005e+3, 2.5441968e+2, -504235.13, -568342.7, -0.027140431, 0.0000036288523, -0.00010633805, -504235.13, -57547.92, 0.0, 10.000012, 9.91603 
2.2450005e+3, 2.6432884e+2, -415999.78, -490987.34, 0.02326287, 0.0000036191643, 0.00014095171, -415999.78, -66422.414, 0.0, 10.000012, 9.901958 
2.2450005e+3, 2.7423134e+2, -316714.7, -391374.28, -0.024707252, 0.0000036126232, -0.00020313685, -316714.7, -64181.914, 0.0, 10.000012, 9.902379 
2.2450005e+3, 2.8412563e+2, -230241.47, -318080.8, 0.02489913, 0.0000036067595, 0.00022931484, -230241.47, -74672.69, 0.0, 10.000012, 9.885433 
2.2450005e+3, 2.9401213e+2, -130535.43, -217764.66, -0.021367721, 0.0000036018048, -0.00025309582, -130535.43, -71854.164, 0.0, 10.000012, 9.886211 
2.2450005e+3, 3.0392656e+2, -40791.62, -84749.99, 0.027132459, 0.000003596673, 0.00017333652, -40791.62, -40791.62, 0.0, 10.000012, 9.942167 
2.2450005e+3, 3.138706e+2, -39713.64, -82511.06, -0.017486798, 0.0000035912738, -0.000055026383, -39713.64, -39713.64, 0.0, 10.000012, 9.943678 
2.2550005e+3, 1.2499346e+2, -1719930.4, -1724223.6, 0.015759071, 0.000003923418, 0.000018836377, -1719930.4, -4866.254, 0.0, 10.000013, 9.994321 
2.2550005e+3, 1.349877e+2, -1622550.1, -1627434.0, -0.04523987, 0.000003891857, -0.00006830729, -1622550.1, -5429.596, 0.0, 10.000013, 9.993538 
2.2550005e+3, 1.4497523e+2, -1534448.8, -1548145.1, 0.009170042, 0.0000038688704, 0.000072464376, -1534448.8, -15206.059, 0.0, 10.000013, 9.981858 
2.2550005e+3, 1.5495712e+2, -1436721.1, -1450821.0, -0.045315847, 0.000003853746, -0.000056176246, -1436721.1, -15300.983, 0.0, 10.000013, 9.981327 
2.2550005e+3, 1.6493237e+2, -1348670.4, -1371951.4, 0.012727092, 0.0000038346034, 0.00004786957, -1348670.4, -25007.521, 0.0, 10.000013, 9.969242 
2.2550005e+3, 1.7490163e+2, -1250712.5, -1274309.4, -0.045243092, 0.0000038113599, -0.00007310469, -1250712.5, -24748.598, 0.0, 10.000013, 9.968828 
2.2550005e+3, 1.8486428e+2, -1162631.5, -1195719.3, 0.0092735095, 0.0000037976004, 0.00006691217, -1162631.5, -34301.652, 0.0, 10.000012, 9.956389 
2.2550005e+3, 1.9482073e+2, -1064482.0, -1097832.3, -0.045300014, 0.0000037937618, -0.00005701318, -1064482.0, -33725.082, 0.0, 10.000012, 9.956046 
2.2550005e+3, 2.0477049e+2, -976318.06, -1019434.25, 0.01116958, 0.0000037803018, 0.00006865028, -976318.06, -43068.84, 0.0, 10.000012, 9.943284 
2.2550005e+3, 2.1471381e+2, -878031.2, -921409.25, -0.043513164, 0.0000037564193, -0.00012626903, -878031.2, -42226.5, 0.0, 10.000012, 9.942944 
2.2550005e+3, 2.2465044e+2, -789745.1, -843144.25, 0.009957766, 0.000003741217, 0.00012140799, -789745.1, -51319.41, 0.0, 10.000012, 9.929902 
2.2550005e+3, 2.345804e+2, -691311.75, -744965.94, -0.04170022, 0.0000037358411, -0.00008833832, -691311.75, -50199.71, 0.0, 10.000012, 9.92957 
2.2550005e+3, 2.4450342e+2, -602987.8, -667018.3, 0.011767413, 0.000003727995, 0.000075148135, -602987.8, -59121.33, 0.0, 10.000012, 9.91613 
2.2550005e+3, 2.5441968e+2, -504235.25, -568342.94, -0.04084939, 0.000003717185, -0.000106328815, -504235.25, -57548.047, 0.0, 10.000012, 9.91603 
2.2550005e+3, 2.6432884e+2, -415999.9, -490987.56, 0.013370441, 0.0000037070974, 0.00014096228, -415999.9, -66422.54, 0.0, 10.000012, 9.901958 
2.2550005e+3, 2.7423134e+2, -316714.78, -391374.5, -0.034344498, 0.0000036979327, -0.00020312672, -316714.78, -64182.027, 0.0, 10.000012, 9.902379 
2.2550005e+3, 2.8412563e+2, -230241.58, -318081.03, 0.016923614, 0.0000036912172, 0.00022932193, -230241.58, -74672.805, 0.0, 10.000012, 9.885432 
2.2550005e+3, 2.9401213e+2, -130535.53, -217764.88, -0.02919404, 0.0000036878462, -0.00025309532, -130535.53, -71854.27, 0.0, 10.000012, 9.886211 
2.2550005e+3, 3.0392656e+2, -40791.727, -84750.21, 0.020863239, 0.0000036812455, 0.0001733359, -40791.727, -40791.727, 0.0, 10.000012, 9.942166 
2.2550005e+3, 3.138706e+2, -39713.746, -82511.29, -0.023573937, 0.000003669826, -0.000055019977, -39713.746, -39713.746, 0.0, 10.000012, 9.943678 
2.2650005e+3, 1.2499346e+2, -1719929.4, -1724223.3, 0.047484733, 0.000004012601, 0.000018869869, -1719929.4, -4865.3364, 0.0, 10.000014, 9.994321 
2.2650005e+3, 1.349877e+2, -1622549.1, -1627433.6, -0.014014049, 0.000003983218, -0.00006832507, -1622549.1, -5428.684, 0.0, 10.000013, 9.993538 
2.2650005e+3, 1.4497524e+2, -1534447.8, -1548144.9, 0.040284242, 0.000003960582, 0.00007251055, -1534447.8, -15205.1455, 0.0, 10.000013, 9.981858 
2.2650005e+3, 1.5495712e+2, -1436720.3, -1450820.6, -0.020920953, 0.00000394395, -0.00005615484, -1436720.3, -15300.081, 0.0, 10.000013, 9.981326 
2.2650005e+3, 1.6493237e+2, -1348669.4, -1371951.1, 0.03693574, 0.000003923285, 0.000047880254, -1348669.4, -25006.63, 0.0, 10.000013, 9.969242 
2.2650005e+3, 1.7490163e+2, -1250711.5, -1274309.1, -0.022412807, 0.000003898503, -0.00007309038, -1250711.5, -24747.719, 0.0, 10.000013, 9.968828 
2.2650005e+3, 1.848643e+2, -1162630.6, -1195719.0, 0.030987233, 0.000003885276, 0.00006692721, -1162630.6, -34300.77, 0.0, 10.000013, 9.956389 
2.2650005e+3, 1.9482073e+2, -1064481.1, -1097831.9, -0.0258512, 0.0000038841363, -0.00005700047, -1064481.1, -33724.2, 0.0, 10.000013, 9.956046 
2.2650005e+3, 2.0477049e+2, -976317.2, -1019434.0, 0.031352993, 0.0000038706844, 0.00006866291, -976317.2, -43067.97, 0.0, 10.000013, 9.943284 
2.2650005e+3, 2.1471381e+2, -878030.3, -921408.94, -0.02723839, 0.000003843895, -0.00012625406, -878030.3, -42225.64, 0.0, 10.000013, 9.942944 
2.2650005e+3, 2.2465044e+2, -789744.25, -843144.0, 0.025606757, 0.00000382704, 0.0001214225, -789744.25, -51318.555, 0.0, 10.000013, 9.929901 
2.2650005e+3, 2.345804e+2, -691310.9, -744965.6, -0.028018178, 0.0000038214316, -0.00008832747, -691310.9, -50198.86, 0.0, 10.000013, 9.92957 
2.2650005e+3, 2.4450342e+2, -602986.94, -667018.06, 0.026182847, 0.0000038140822, 0.00007515578, -602986.94, -59120.48, 0.0, 10.000013, 9.91613 
2.2650005e+3, 2.5441968e+2, -504234.38, -568342.6, -0.027499715, 0.0000038046383, -0.000106323845, -504234.38, -57547.203, 0.0, 10.000013, 9.91603 
2.2650005e+3, 2.6432884e+2, -415999.06, -490987.28, 0.026369356, 0.000003795009, 0.00014096772, -415999.06, -66421.695, 0.0, 10.000013, 9.901958 
2.2650005e+3, 2.7423134e+2, -316713.94, -391374.28, -0.026242798, 0.0000037851462, -0.0002031168, -316713.94, -64181.2, 0.0, 10.000013, 9.902379 
2.2650005e+3, 2.8412563e+2, -230240.75, -318080.78, 0.024235329, 0.0000037779112, 0.00022933316, -230240.75, -74671.98, 0.0, 10.000013, 9.885432 
2.2650005e+3, 2.9401213e+2, -130534.7, -217764.63, -0.02304123, 0.0000037742705, -0.00025308714, -130534.7, -71853.45, 0.0, 10.000013, 9.886211 
2.2650005e+3, 3.0392656e+2, -40790.906, -84749.984, 0.027066143, 0.0000037668945, 0.00017334102, -40790.906, -40790.906, 0.0, 10.000013, 9.942166 
2.2650005e+3, 3.138706e+2, -39712.918, -82511.06, -0.02146974, 0.0000037539467, -0.000055017787, -39712.918, -39712.918, 0.0, 10.000013, 9.943678 
2.2750005e+3, 1.24993466e+2, -1719929.5, -1724223.5, 0.017411847, 0.0000041127164, 0.00001890941, -1719929.5, -4865.5107, 0.0, 10.000014, 9.99432 
2.2750005e+3, 1.3498771e+2, -1622549.3, -1627433.9, -0.044092767, 0.000004072037, -0.00006835055, -1622549.3, -5428.8555, 0.0, 10.000013, 9.993538 
2.2750005e+3, 1.4497524e+2, -1534447.9, -1548145.1, 0.012943716, 0.0000040455816, 0.00007255097, -1534447.9, -15205.314, 0.0, 10.000013, 9.981858 
2.2750005e+3, 1.5495712e+2, -1436720.4, -1450820.9, -0.04825775, 0.000004032634, -0.00005612689, -1436720.4, -15300.247, 0.0, 10.000013, 9.981326 
2.2750005e+3, 1.6493237e+2, -1348669.5, -1371951.4, 0.013196954, 0.0000040166046, 0.000047898026, -1348669.5, -25006.791, 0.0, 10.000013, 9.969242 
2.2750005e+3, 1.7490166e+2, -1250711.8, -1274309.4, -0.046133123, 0.00000399743, -0.00007308042, -1250711.8, -24747.875, 0.0, 10.000013, 9.968828 
2.2750005e+3, 1.848643e+2, -1162630.8, -1195719.3, 0.0094214585, 0.0000039805104, 0.00006693597, -1162630.8, -34300.92, 0.0, 10.000013, 9.956388 
2.2750005e+3, 1.9482073e+2, -1064481.3, -1097832.1, -0.047392786, 0.0000039659453, -0.00005698598, -1064481.3, -33724.348, 0.0, 10.000013, 9.956046 
2.2750005e+3, 2.0477049e+2, -976317.3, -1019434.25, 0.011725042, 0.0000039517836, 0.00006868006, -976317.3, -43068.117, 0.0, 10.000013, 9.943284 
2.2750005e+3, 2.1471381e+2, -878030.44, -921409.2, -0.04682715, 0.000003938056, -0.00012623757, -878030.44, -42225.79, 0.0, 10.000013, 9.942943 
2.2750005e+3, 2.2465044e+2, -789744.4, -843144.2, 0.009601219, 0.0000039242886, 0.00012143777, -789744.4, -51318.69, 0.0, 10.000013, 9.929901 
2.2750005e+3, 2.345804e+2, -691311.0, -744965.9, -0.04390734, 0.000003910473, -0.00008831403, -691311.0, -50198.992, 0.0, 10.000013, 9.92957 
2.2750005e+3, 2.4450342e+2, -602987.06, -667018.3, 0.01290576, 0.0000038992785, 0.00007516454, -602987.06, -59120.613, 0.0, 10.000013, 9.91613 
2.2750005e+3, 2.5441968e+2, -504234.5, -568342.9, -0.040651713, 0.0000038912117, -0.00010632314, -504234.5, -57547.332, 0.0, 10.000013, 9.91603 
2.2750005e+3, 2.6432884e+2, -415999.16, -490987.53, 0.014320642, 0.0000038828994, 0.00014096804, -415999.16, -66421.82, 0.0, 10.000013, 9.901958 
2.2750005e+3, 2.7423134e+2, -316714.06, -391374.5, -0.03821812, 0.0000038742633, -0.00020310706, -316714.06, -64181.324, 0.0, 10.000013, 9.902378 
2.2750005e+3, 2.8412563e+2, -230240.86, -318081.0, 0.015942622, 0.000003866841, 0.00022934854, -230240.86, -74672.09, 0.0, 10.000013, 9.885432 
2.2750005e+3, 2.9401213e+2, -130534.81, -217764.86, -0.031002946, 0.0000038610783, -0.0002530713, -130534.81, -71853.57, 0.0, 10.000013, 9.88621 
2.2750005e+3, 3.0392656e+2, -40791.023, -84750.23, 0.023161838, 0.0000038536195, 0.00017335192, -40791.023, -40791.023, 0.0, 10.000013, 9.942166 
2.2750005e+3, 3.138706e+2, -39713.035, -82511.3, -0.024898142, 0.0000038436347, -0.00005501981, -39713.035, -39713.035, 0.0, 10.000013, 9.943678 
2.2850005e+3, 1.24993466e+2, -1719928.6, -1724223.3, 0.0461443, 0.0000042128113, 0.000018944052, -1719928.6, -4864.561, 0.0, 10.000014, 9.99432 
2.2850005e+3, 1.3498771e+2, -1622548.3, -1627433.6, -0.016090438, 0.000004163932, -0.00006836687, -1622548.3, -5427.9004, 0.0, 10.000014, 9.993538 
2.2850005e+3, 1.4497524e+2, -1534446.9, -1548144.8, 0.040617175, 0.0000041347425, 0.00007260102, -1534446.9, -15204.361, 0.0, 10.000014, 9.981858 
2.2850005e+3, 1.5495715e+2, -1436719.4, -1450820.6, -0.023580156, 0.000004124541, -0.000056108194, -1436719.4, -15299.3, 0.0, 10.000014, 9.981326 
2.2850005e+3, 1.6493237e+2, -1348668.6, -1371951.1, 0.037803568, 0.000004111286, 0.000047905174, -1348668.6, -25005.85, 0.0, 10.000014, 9.969241 
2.2850005e+3, 1.7490166e+2, -1250710.8, -1274309.0, -0.022969592, 0.000004094916, -0.000073064584, -1250710.8, -24746.953, 0.0, 10.000014, 9.968828 
2.2850005e+3, 1.848643e+2, -1162629.9, -1195718.9, 0.033671897, 0.0000040755126, 0.000066954955, -1162629.9, -34300.008, 0.0, 10.000014, 9.956388 
2.2850005e+3, 1.9482073e+2, -1064480.3, -1097831.9, -0.028994177, 0.000004052932, -0.000056969668, -1064480.3, -33723.43, 0.0, 10.000014, 9.956045 
2.2850005e+3, 2.0477049e+2, -976316.4, -1019433.94, 0.028710376, 0.0000040381515, 0.00006869417, -976316.4, -43067.203, 0.0, 10.000014, 9.943284 
2.2850005e+3, 2.1471381e+2, -878029.5, -921408.94, -0.027920911, 0.0000040318155, -0.00012622515, -878029.5, -42224.883, 0.0, 10.000014, 9.942943 
2.2850005e+3, 2.2465044e+2, -789743.5, -843143.94, 0.029727055, 0.000004020111, 0.00012144951, -789743.5, -51317.793, 0.0, 10.000014, 9.929901 
2.2850005e+3, 2.345804e+2, -691310.1, -744965.6, -0.031250883, 0.000004002325, -0.00008830182, -691310.1, -50198.1, 0.0, 10.000014, 9.92957 
2.2850005e+3, 2.4450342e+2, -602986.1, -667018.0, 0.024425587, 0.0000039888514, 0.00007517621, -602986.1, -59119.727, 0.0, 10.000014, 9.916129 
2.2850005e+3, 2.5441968e+2, -504233.6, -568342.6, -0.028801072, 0.000003980532, -0.00010631322, -504233.6, -57546.45, 0.0, 10.000013, 9.91603 
2.2850005e+3, 2.6432884e+2, -415998.28, -490987.28, 0.027324278, 0.0000039723495, 0.00014097602, -415998.28, -66420.945, 0.0, 10.000013, 9.901958 
2.2850005e+3, 2.7423134e+2, -316713.2, -391374.25, -0.02694503, 0.0000039643264, -0.0002031013, -316713.2, -64180.45, 0.0, 10.000013, 9.902378 
2.2850005e+3, 2.8412563e+2, -230239.97, -318080.75, 0.02662405, 0.0000039567185, 0.00022935415, -230239.97, -74671.22, 0.0, 10.000013, 9.885432 
2.2850005e+3, 2.9401213e+2, -130533.94, -217764.61, -0.026644845, 0.000003949675, -0.00025306307, -130533.94, -71852.695, 0.0, 10.000013, 9.88621 
2.2850005e+3, 3.0392656e+2, -40790.16, -84749.984, 0.027138395, 0.0000039426413, 0.0001733595, -40790.16, -40790.16, 0.0, 10.000013, 9.942166 
2.2850005e+3, 3.138706e+2, -39712.184, -82511.07, -0.018800339, 0.000003935624, -0.000055017772, -39712.184, -39712.184, 0.0, 10.000013, 9.943678 
2.2950006e+3, 1.24993466e+2, -1719928.8, -1724223.5, 0.018113159, 0.0000043128857, 0.000018973824, -1719928.8, -4864.739, 0.0, 10.000014, 9.99432 
2.2950006e+3, 1.3498771e+2, -1622548.5, -1627433.9, -0.04412722, 0.000004258902, -0.000068374036, -1622548.5, -5428.0747, 0.0, 10.000014, 9.993538 
2.2950006e+3, 1.4497524e+2, -1534447.0, -1548145.1, 0.012649374, 0.000004228065, 0.0000726607, -1534447.0, -15204.539, 0.0, 10.000014, 9.981857 
2.2950006e+3, 1.5495715e+2, -1436719.5, -1450820.9, -0.05154808, 0.0000042196716, -0.000056098754, -1436719.5, -15299.473, 0.0, 10.000014, 9.981326 
2.2950006e+3, 1.6493237e+2, -1348668.8, -1371951.4, 0.010326384, 0.0000042073307, 0.000047901693, -1348668.8, -25006.014, 0.0, 10.000014, 9.969241 
2.2950006e+3, 1.7490166e+2, -1250710.9, -1274309.3, -0.05044503, 0.000004190961, -0.000073042866, -1250710.9, -24747.115, 0.0, 10.000014, 9.968827 
2.2950006e+3, 1.848643e+2, -1162630.0, -1195719.1, 0.013238722, 0.000004170284, 0.00006698415, -1162630.0, -34300.168, 0.0, 10.000014, 9.956388 
2.2950006e+3, 1.9482075e+2, -1064480.4, -1097832.1, -0.04934626, 0.0000041450958, -0.00005695154, -1064480.4, -33723.59, 0.0, 10.000014, 9.956045 
2.2950006e+3, 2.0477049e+2, -976316.5, -1019434.2, 0.0077458234, 0.0000041297862, 0.000068705245, -976316.5, -43067.348, 0.0, 10.000014, 9.943284 
2.2950006e+3, 2.1471381e+2, -878029.6, -921409.2, -0.048898943, 0.0000041251733, -0.0001262168, -878029.6, -42225.023, 0.0, 10.000014, 9.942943 
2.2950006e+3, 2.2465044e+2, -789743.6, -843144.2, 0.012489906, 0.000004114509, 0.000121457735, -789743.6, -51317.945, 0.0, 10.000014, 9.929901 
2.2950006e+3, 2.3458041e+2, -691310.25, -744965.9, -0.048365988, 0.0000040969885, -0.00008829084, -691310.25, -50198.254, 0.0, 10.000014, 9.92957 
2.2950006e+3, 2.4450344e+2, -602986.25, -667018.25, 0.010380432, 0.000004082801, 0.00007519078, -602986.25, -59119.863, 0.0, 10.000014, 9.916129 
2.2950006e+3, 2.5441968e+2, -504233.72, -568342.9, -0.042699642, 0.000004072598, -0.00010629408, -504233.72, -57546.582, 0.0, 10.000013, 9.91603 
2.2950006e+3, 2.6432887e+2, -415998.4, -490987.53, 0.015882444, 0.00000406336, 0.00014099163, -415998.4, -66421.08, 0.0, 10.000013, 9.901958 
2.2950006e+3, 2.7423134e+2, -316713.28, -391374.5, -0.038222685, 0.0000040553355, -0.0002030995, -316713.28, -64180.582, 0.0, 10.000013, 9.902378 
2.2950006e+3, 2.8412563e+2, -230240.1, -318081.0, 0.01804973, 0.0000040475434, 0.00022934999, -230240.1, -74671.34, 0.0, 10.000013, 9.885432 
2.2950006e+3, 2.9401213e+2, -130534.055, -217764.84, -0.034976084, 0.0000040400605, -0.00025306243, -130534.055, -71852.83, 0.0, 10.000013, 9.88621 
2.2950006e+3, 3.0392656e+2, -40790.273, -84750.22, 0.020666992, 0.0000040339596, 0.00017336379, -40790.273, -40790.273, 0.0, 10.000013, 9.942166 
2.2950006e+3, 3.138706e+2, -39712.297, -82511.3, -0.02505435, 0.0000040299146, -0.00005501167, -39712.297, -39712.297, 0.0, 10.000013, 9.943678 
2.3050004e+3, 1.2499347e+2, -1719927.6, -1724223.1, 0.052816164, 0.0000044087105, 0.000019008703, -1719927.6, -4863.7183, 0.0, 10.000015, 9.99432 
2.3050004e+3, 1.3498771e+2, -1622547.4, -1627433.5, -0.018649261, 0.0000043589007, -0.0000683869, -1622547.4, -5427.083, 0.0, 10.000015, 9.993538 
2.3050004e+3, 1.4497524e+2, -1534446.0, -1548144.8, 0.037917536, 0.0000043290884, 0.000072717325, -1534446.0, -15203.555, 0.0, 10.000015, 9.981857 
2.3050004e+3, 1.5495715e+2, -1436718.5, -1450820.5, -0.022818368, 0.0000043185314, -0.000056082223, -1436718.5, -15298.495, 0.0, 10.000015, 9.981326 
2.3050004e+3, 1.6493237e+2, -1348667.8, -1371951.0, 0.039642677, 0.000004303489, 0.000047905476, -1348667.8, -25005.04, 0.0, 10.000015, 9.969241 
2.3050004e+3, 1.7490166e+2, -1250709.9, -1274309.0, -0.027986009, 0.000004283868, -0.0000730239, -1250709.9, -24746.133, 0.0, 10.000015, 9.968827 
2.3050004e+3, 1.848643e+2, -1162629.0, -1195718.9, 0.035608042, 0.0000042644847, 0.00006700714, -1162629.0, -34299.195, 0.0, 10.000015, 9.956388 
2.3050004e+3, 1.9482075e+2, -1064479.4, -1097831.9, -0.026135648, 0.000004245347, -0.000056936227, -1064479.4, -33722.645, 0.0, 10.000015, 9.956045 
2.3050004e+3, 2.0477049e+2, -976315.56, -1019433.9, 0.03165737, 0.0000042296897, 0.00006871705, -976315.56, -43066.41, 0.0, 10.000014, 9.943284 
2.3050004e+3, 2.1471383e+2, -878028.7, -921408.9, -0.03195401, 0.0000042178, -0.00012620399, -878028.7, -42224.08, 0.0, 10.000014, 9.942943 
2.3050004e+3, 2.2465044e+2, -789742.6, -843143.9, 0.028890118, 0.000004205357, 0.000121469995, -789742.6, -51316.996, 0.0, 10.000014, 9.929901 
2.3050004e+3, 2.3458041e+2, -691309.3, -744965.56, -0.029287305, 0.0000041922835, -0.000088280874, -691309.3, -50197.313, 0.0, 10.000014, 9.92957 
2.3050004e+3, 2.4450344e+2, -602985.3, -667017.94, 0.029753689, 0.000004179844, 0.00007520076, -602985.3, -59118.93, 0.0, 10.000014, 9.916129 
2.3050004e+3, 2.5441968e+2, -504232.78, -568342.56, -0.031700645, 0.0000041681596, -0.00010628131, -504232.78, -57545.664, 0.0, 10.000014, 9.916029 
2.3050004e+3, 2.6432887e+2, -415997.47, -490987.25, 0.02563509, 0.0000041574394, 0.00014100395, -415997.47, -66420.164, 0.0, 10.000014, 9.9019575 
2.3050004e+3, 2.7423134e+2, -316712.38, -391374.22, -0.029222276, 0.0000041479398, -0.00020309175, -316712.38, -64179.668, 0.0, 10.000014, 9.902378 
2.3050004e+3, 2.8412563e+2, -230239.17, -318080.75, 0.028623762, 0.0000041401154, 0.00022935453, -230239.17, -74670.44, 0.0, 10.000014, 9.885432 
2.3050004e+3, 2.9401213e+2, -130533.14, -217764.6, -0.023722757, 0.000004134574, -0.00025305914, -130533.14, -71851.92, 0.0, 10.000014, 9.88621 
2.3050004e+3, 3.0392656e+2, -40789.375, -84749.97, 0.031099215, 0.0000041285302, 0.00017336718, -40789.375, -40789.375, 0.0, 10.000014, 9.942166 
2.3050004e+3, 3.138706e+2, -39711.4, -82511.055, -0.021971365, 0.0000041217268, -0.000055006112, -39711.4, -39711.4, 0.0, 10.000014, 9.943677 
2.3150004e+3, 1.2499347e+2, -1719927.9, -1724223.4, 0.018982673, 0.0000045002876, 0.000019048712, -1719927.9, -4863.919, 0.0, 10.000015, 9.99432 
2.3150004e+3, 1.3498773e+2, -1622547.6, -1627433.8, -0.052489, 0.000004463926, -0.00006840546, -1622547.6, -5427.28, 0.0, 10.000015, 9.993537 
2.3150004e+3, 1.4497526e+2, -1534446.1, -1548145.0, 0.009162869, 0.000004437811, 0.00007277089, -1534446.1, -15203.725, 0.0, 10.000015, 9.981857 
2.3150004e+3, 1.5495715e+2, -1436718.8, -1450820.8, -0.051566195, 0.0000044211206, -0.00005605861, -1436718.8, -15298.663, 0.0, 10.000015, 9.981326 
2.3150004e+3, 1.6493239e+2, -1348667.9, -1371951.3, 0.014603423, 0.0000043997616, 0.000047916517, -1348667.9, -25005.219, 0.0, 10.000015, 9.969241 
2.3150004e+3, 1.7490166e+2, -1250710.0, -1274309.3, -0.053006057, 0.0000043736372, -0.000073007664, -1250710.0, -24746.31, 0.0, 10.000015, 9.968827 
2.3150004e+3, 1.848643e+2, -1162629.1, -1195719.1, 0.009382702, 0.000004358116, 0.000067023924, -1162629.1, -34299.355, 0.0, 10.000015, 9.956388 
2.3150004e+3, 1.9482075e+2, -1064479.5, -1097832.1, -0.05237576, 0.0000043536847, -0.000056923735, -1064479.5, -33722.805, 0.0, 10.000015, 9.956045 
2.3150004e+3, 2.0477049e+2, -976315.7, -1019434.2, 0.013113339, 0.000004337861, 0.000068729576, -976315.7, -43066.57, 0.0, 10.000014, 9.943283 
2.3150004e+3, 2.1471383e+2, -878028.8, -921409.1, -0.05033976, 0.000004309696, -0.00012618673, -878028.8, -42224.24, 0.0, 10.000014, 9.942943 
2.3150004e+3, 2.2465046e+2, -789742.75, -843144.1, 0.010527549, 0.000004292656, 0.00012148631, -789742.75, -51317.145, 0.0, 10.000014, 9.929901 
2.3150004e+3, 2.3458041e+2, -691309.44, -744965.8, -0.047649812, 0.00000428821, -0.00008827191, -691309.44, -50197.457, 0.0, 10.000014, 9.929569 
2.3150004e+3, 2.4450344e+2, -602985.44, -667018.25, 0.013598723, 0.000004279981, 0.000075206175, -602985.44, -59119.082, 0.0, 10.000014, 9.916129 
2.3150004e+3, 2.5441968e+2, -504232.94, -568342.9, -0.047750026, 0.000004267216, -0.00010627489, -504232.94, -57545.813, 0.0, 10.000014, 9.916029 
2.3150004e+3, 2.6432887e+2, -415997.6, -490987.5, 0.014938664, 0.000004254587, 0.00014101296, -415997.6, -66420.305, 0.0, 10.000014, 9.9019575 
2.3150004e+3, 2.7423134e+2, -316712.5, -391374.47, -0.039560687, 0.0000042421393, -0.0002030781, -316712.5, -64179.8, 0.0, 10.000014, 9.902378 
2.3150004e+3, 2.8412563e+2, -230239.3, -318080.97, 0.01931468, 0.000004234434, 0.00022936775, -230239.3, -74670.56, 0.0, 10.000014, 9.885431 
2.3150004e+3, 2.9401213e+2, -130533.266, -217764.84, -0.0329398, 0.0000042332144, -0.00025305324, -130533.266, -71852.05, 0.0, 10.000014, 9.88621 
2.3150004e+3, 3.0392656e+2, -40789.5, -84750.23, 0.024332337, 0.0000042263523, 0.0001733697, -40789.5, -40789.5, 0.0, 10.000014, 9.942165 
2.3150004e+3, 3.138706e+2, -39711.523, -82511.31, -0.028451167, 0.000004211061, -0.000055001092, -39711.523, -39711.523, 0.0, 10.000014, 9.943677 
2.3250008e+3, 1.2499349e+2, -1719926.8, -1724223.0, 0.051643293, 0.0000046024807, 0.000019087449, -1719926.8, -4862.866, 0.0, 10.000016, 9.99432 
2.3250005e+3, 1.3498773e+2, -1622546.5, -1627433.4, -0.016078642, 0.0000045669985, -0.00006842741, -1622546.5, -5426.234, 0.0, 10.000016, 9.993537 
2.3250005e+3, 1.4497526e+2, -1534445.1, -1548144.6, 0.046102017, 0.0000045407487, 0.0000728237, -1534445.1, -15202.682, 0.0, 10.000016, 9.981857 
2.3250005e+3, 1.5495715e+2, -1436717.6, -1450820.4, -0.026095422, 0.0000045228817, -0.000056034616, -1436717.6, -15297.633, 0.0, 10.000016, 9.981325 
2.3250005e+3, 1.6493239e+2, -1348666.9, -1371950.9, 0.039592154, 0.0000045009133, 0.000047928104, -1348666.9, -25004.201, 0.0, 10.000016, 9.969241 
2.3250005e+3, 1.7490168e+2, -1250709.0, -1274308.9, -0.025488403, 0.0000044747594, -0.000072991716, -1250709.0, -24745.303, 0.0, 10.000015, 9.968827 
2.3250005e+3, 1.8486431e+2, -1162628.1, -1195718.8, 0.036215942, 0.0000044586664, 0.0000670413, -1162628.1, -34298.35, 0.0, 10.000015, 9.956388 
2.3250005e+3, 1.9482075e+2, -1064478.5, -1097831.8, -0.031609077, 0.0000044530966, -0.000056908015, -1064478.5, -33721.79, 0.0, 10.000015, 9.956045 
2.3250005e+3, 2.0477049e+2, -976314.6, -1019433.8, 0.03402345, 0.000004437197, 0.000068744564, -976314.6, -43065.566, 0.0, 10.000015, 9.943283 
2.3250005e+3, 2.1471383e+2, -878027.8, -921408.8, -0.031691443, 0.0000044101066, -0.00012617148, -878027.8, -42223.254, 0.0, 10.000015, 9.942943 
2.3250005e+3, 2.2465046e+2, -789741.8, -843143.8, 0.028452722, 0.0000043928007, 0.000121501114, -789741.8, -51316.168, 0.0, 10.000015, 9.9299 
2.3250005e+3, 2.3458041e+2, -691308.44, -744965.5, -0.03362532, 0.00000438657, -0.00008825837, -691308.44, -50196.484, 0.0, 10.000015, 9.929569 
2.3250005e+3, 2.4450344e+2, -602984.44, -667017.94, 0.02861295, 0.000004377395, 0.000075217315, -602984.44, -59118.113, 0.0, 10.000015, 9.916129 
2.3250005e+3, 2.5441968e+2, -504231.94, -568342.56, -0.032452755, 0.0000043646883, -0.00010626752, -504231.94, -57544.84, 0.0, 10.000015, 9.916029 
2.3250005e+3, 2.6432887e+2, -415996.63, -490987.2, 0.030491827, 0.0000043524833, 0.00014101973, -415996.63, -66419.33, 0.0, 10.000015, 9.9019575 
2.3250005e+3, 2.7423134e+2, -316711.53, -391374.2, -0.029893868, 0.0000043409214, -0.00020306795, -316711.53, -64178.848, 0.0, 10.000015, 9.902378 
2.3250005e+3, 2.8412563e+2, -230238.33, -318080.72, 0.02689131, 0.000004333305, 0.00022937899, -230238.33, -74669.62, 0.0, 10.000015, 9.885431 
2.3250005e+3, 2.9401213e+2, -130532.31, -217764.56, -0.028429974, 0.0000043310806, -0.00025304416, -130532.31, -71851.11, 0.0, 10.000015, 9.88621 
2.3250005e+3, 3.0392656e+2, -40788.563, -84749.98, 0.030312518, 0.0000043233704, 0.0001733756, -40788.563, -40788.563, 0.0, 10.000015, 9.942165 
2.3250005e+3, 3.138706e+2, -39710.58, -82511.055, -0.021836802, 0.000004307473, -0.000054999873, -39710.58, -39710.58, 0.0, 10.000015, 9.943677 
2.3350008e+3, 1.2499349e+2, -1719926.9, -1724223.4, 0.017209485, 0.000004715289, 0.000019124942, -1719926.9, -4863.06, 0.0, 10.000016, 9.994319 
2.3350008e+3, 1.3498773e+2, -1622546.6, -1627433.8, -0.050519384, 0.000004668119, -0.00006845275, -1622546.6, -5426.424, 0.0, 10.000016, 9.993537 
2.3350008e+3, 1.4497526e+2, -1534445.3, -1548144.9, 0.014982452, 0.0000046379027, 0.000072875744, -1534445.3, -15202.88, 0.0, 10.000016, 9.981857 
2.3350008e+3, 1.5495716e+2, -1436717.8, -1450820.8, -0.05721018, 0.0000046238147, -0.00005601025, -1436717.8, -15297.827, 0.0, 10.000016, 9.981325 
2.3350008e+3, 1.6493239e+2, -1348667.0, -1371951.3, 0.012686369, 0.0000046069435, 0.000047940226, -1348667.0, -25004.377, 0.0, 10.000016, 9.969241 
2.3350008e+3, 1.7490168e+2, -1250709.1, -1274309.1, -0.052373018, 0.000004587232, -0.000072976065, -1250709.1, -24745.477, 0.0, 10.000015, 9.968827 
2.3350005e+3, 1.8486431e+2, -1162628.3, -1195719.0, 0.012273613, 0.000004566135, 0.00006705924, -1162628.3, -34298.527, 0.0, 10.000015, 9.9563875 
2.3350005e+3, 1.9482075e+2, -1064478.6, -1097832.0, -0.05551794, 0.0000045435845, -0.00005688907, -1064478.6, -33721.965, 0.0, 10.000015, 9.956045 
2.3350005e+3, 2.047705e+2, -976314.8, -1019434.1, 0.011068532, 0.0000045276993, 0.00006876202, -976314.8, -43065.734, 0.0, 10.000015, 9.943283 
2.3350005e+3, 2.1471383e+2, -878027.94, -921409.1, -0.054627173, 0.000004519031, -0.00012615821, -878027.94, -42223.418, 0.0, 10.000015, 9.942942 
2.3350005e+3, 2.2465046e+2, -789741.94, -843144.1, 0.010076151, 0.000004505788, 0.000121514415, -789741.94, -51316.324, 0.0, 10.000015, 9.9299 
2.3350005e+3, 2.3458041e+2, -691308.56, -744965.8, -0.051853772, 0.000004487362, -0.00008824025, -691308.56, -50196.637, 0.0, 10.000015, 9.929569 
2.3350005e+3, 2.4450344e+2, -602984.6, -667018.2, 0.014196927, 0.000004472087, 0.00007523417, -602984.6, -59118.266, 0.0, 10.000015, 9.916129 
2.3350005e+3, 2.5441968e+2, -504232.06, -568342.8, -0.04668615, 0.000004460578, -0.00010625919, -504232.06, -57544.99, 0.0, 10.000015, 9.916029 
2.3350005e+3, 2.6432887e+2, -415996.75, -490987.47, 0.016425446, 0.000004451128, 0.00014102423, -415996.75, -66419.48, 0.0, 10.000015, 9.9019575 
2.3350005e+3, 2.7423134e+2, -316711.66, -391374.47, -0.043949645, 0.0000044442854, -0.00020306127, -316711.66, -64178.992, 0.0, 10.000015, 9.902377 
2.3350005e+3, 2.8412563e+2, -230238.47, -318080.97, 0.01732195, 0.000004436727, 0.00022938823, -230238.47, -74669.76, 0.0, 10.000015, 9.885431 
2.3350005e+3, 2.9401213e+2, -130532.44, -217764.83, -0.037596, 0.0000044281733, -0.00025303187, -130532.44, -71851.24, 0.0, 10.000015, 9.8862095 
2.3350005e+3, 3.0392656e+2, -40788.688, -84750.234, 0.02566345, 0.0000044195845, 0.0001733849, -40788.688, -40788.688, 0.0, 10.000015, 9.942165 
2.3350005e+3, 3.138706e+2, -39710.703, -82511.31, -0.025956426, 0.00000441096, -0.000055002456, -39710.703, -39710.703, 0.0, 10.000015, 9.943677 
2.3450008e+3, 1.24993496e+2, -1719925.8, -1724223.0, 0.055331916, 0.000004827548, 0.000019161622, -1719925.8, -4861.972, 0.0, 10.000017, 9.994319 
2.3450008e+3, 1.3498773e+2, -1622545.5, -1627433.4, -0.019162966, 0.000004772612, -0.0000684709, -1622545.5, -5425.3296, 0.0, 10.000017, 9.993537 
2.3450008e+3, 1.4497526e+2, -1534444.1, -1548144.5, 0.045245387, 0.0000047399, 0.000072935465, -1534444.1, -15201.787, 0.0, 10.000017, 9.981856 
2.3450008e+3, 1.5495716e+2, -1436716.6, -1450820.4, -0.025643231, 0.0000047285944, -0.000055991863, -1436716.6, -15296.743, 0.0, 10.000016, 9.981325 
2.3450008e+3, 1.6493239e+2, -1348665.9, -1371950.9, 0.044119712, 0.0000047137023, 0.00004794533, -1348665.9, -25003.299, 0.0, 10.000016, 9.96924 
2.3450008e+3, 1.7490168e+2, -1250708.0, -1274308.8, -0.02899052, 0.000004695151, -0.000072955576, -1250708.0, -24744.418, 0.0, 10.000016, 9.968827 
2.3450008e+3, 1.8486431e+2, -1162627.1, -1195718.8, 0.03583427, 0.000004672251, 0.00006708409, -1162627.1, -34297.477, 0.0, 10.000016, 9.9563875 
2.3450008e+3, 1.9482075e+2, -1064477.6, -1097831.8, -0.032965492, 0.000004644797, -0.00005687143, -1064477.6, -33720.918, 0.0, 10.000016, 9.956044 
2.3450008e+3, 2.047705e+2, -976313.75, -1019433.75, 0.033452503, 0.000004628636, 0.00006877581, -976313.75, -43064.69, 0.0, 10.000016, 9.943283 
2.3450008e+3, 2.1471383e+2, -878026.9, -921408.75, -0.032431744, 0.0000046247023, -0.00012614463, -878026.9, -42222.383, 0.0, 10.000016, 9.942942 
2.3450008e+3, 2.2465046e+2, -789740.9, -843143.75, 0.033405002, 0.0000046120736, 0.00012152784, -789740.9, -51315.297, 0.0, 10.000016, 9.9299 
2.3450008e+3, 2.3458041e+2, -691307.5, -744965.44, -0.036436148, 0.000004589596, -0.00008822695, -691307.5, -50195.613, 0.0, 10.000016, 9.929569 
2.3450008e+3, 2.4450344e+2, -602983.56, -667017.9, 0.027721673, 0.000004572836, 0.00007524724, -602983.56, -59117.242, 0.0, 10.000016, 9.916128 
2.3450005e+3, 2.5441968e+2, -504231.06, -568342.5, -0.034043547, 0.0000045629145, -0.00010624648, -504231.06, -57543.98, 0.0, 10.000016, 9.916029 
2.3450005e+3, 2.6432887e+2, -415995.75, -490987.2, 0.02992212, 0.000004554253, 0.0001410349, -415995.75, -66418.484, 0.0, 10.000016, 9.9019575 
2.3450005e+3, 2.7423134e+2, -316710.66, -391374.16, -0.031131105, 0.000004547175, -0.00020305479, -316710.66, -64177.992, 0.0, 10.000016, 9.902377 
2.3450005e+3, 2.8412563e+2, -230237.45, -318080.7, 0.03150293, 0.000004538797, 0.00022939297, -230237.45, -74668.76, 0.0, 10.000016, 9.885431 
2.3450005e+3, 2.9401213e+2, -130531.44, -217764.53, -0.028652992, 0.000004528628, -0.00025302544, -130531.44, -71850.24, 0.0, 10.000016, 9.8862095 
2.3450005e+3, 3.0392656e+2, -40787.7, -84749.96, 0.03228147, 0.0000045200136, 0.00017339169, -40787.7, -40787.7, 0.0, 10.000016, 9.942165 
2.3450005e+3, 3.138706e+2, -39709.727, -82511.05, -0.023451427, 0.0000045137317, -0.000054997305, -39709.727, -39709.727, 0.0, 10.000016, 9.943677 
2.3550007e+3, 1.24993496e+2, -1719926.0, -1724223.3, 0.023405535, 0.0000049392575, 0.000019197518, -1719926.0, -4862.183, 0.0, 10.000017, 9.994319 
2.3550007e+3, 1.3498774e+2, -1622545.8, -1627433.6, -0.05109534, 0.0000048804777, -0.000068481866, -1622545.8, -5425.537, 0.0, 10.000017, 9.993537 
2.3550007e+3, 1.4497527e+2, -1534444.3, -1548144.9, 0.013019541, 0.0000048467396, 0.00007300287, -1534444.3, -15201.984, 0.0, 10.000017, 9.981856 
2.3550007e+3, 1.5495716e+2, -1436716.9, -1450820.6, -0.05787015, 0.00000483722, -0.000055979464, -1436716.9, -15296.937, 0.0, 10.000016, 9.981325 
2.3550007e+3, 1.6493239e+2, -1348666.0, -1371951.1, 0.013784317, 0.000004821191, 0.000047943417, -1348666.0, -25003.494, 0.0, 10.000016, 9.96924 
2.3550007e+3, 1.7490168e+2, -1250708.3, -1274309.1, -0.059316617, 0.0000047985177, -0.000072930234, -1250708.3, -24744.61, 0.0, 10.000016, 9.968826 
2.3550007e+3, 1.8486431e+2, -1162627.4, -1195719.0, 0.011977361, 0.0000047770145, 0.000067115834, -1162627.4, -34297.66, 0.0, 10.000016, 9.9563875 
2.3550007e+3, 1.9482076e+2, -1064477.8, -1097832.0, -0.0567483, 0.0000047567323, -0.0000568551, -1064477.8, -33721.094, 0.0, 10.000016, 9.956044 
2.3550007e+3, 2.047705e+2, -976313.9, -1019434.06, 0.009441501, 0.0000047400035, 0.000068785936, -976313.9, -43064.86, 0.0, 10.000016, 9.943283 
2.3550007e+3, 2.1471383e+2, -878027.06, -921409.06, -0.05644844, 0.0000047271224, -0.00012613072, -878027.06, -42222.55, 0.0, 10.000016, 9.942942 
2.3550007e+3, 2.2465046e+2, -789741.0, -843144.06, 0.014640989, 0.0000047116596, 0.00012154137, -789741.0, -51315.473, 0.0, 10.000016, 9.9299 
2.3550007e+3, 2.3458041e+2, -691307.7, -744965.75, -0.05502869, 0.000004693271, -0.000088218476, -691307.7, -50195.785, 0.0, 10.000016, 9.929569 
2.3550007e+3, 2.4450344e+2, -602983.7, -667018.1, 0.011094749, 0.0000046796417, 0.00007525652, -602983.7, -59117.4, 0.0, 10.000016, 9.916128 
2.3550007e+3, 2.5441968e+2, -504231.2, -568342.8, -0.050577037, 0.0000046716964, -0.00010622939, -504231.2, -57544.13, 0.0, 10.000016, 9.916028 
2.3550007e+3, 2.6432887e+2, -415995.88, -490987.44, 0.016602313, 0.0000046618575, 0.00014105173, -415995.88, -66418.63, 0.0, 10.000016, 9.9019575 
2.3550007e+3, 2.7423134e+2, -316710.78, -391374.44, -0.044236295, 0.000004649591, -0.00020304852, -316710.78, -64178.14, 0.0, 10.000016, 9.902377 
2.3550007e+3, 2.8412563e+2, -230237.6, -318080.97, 0.022100188, 0.0000046395153, 0.00022939325, -230237.6, -74668.91, 0.0, 10.000016, 9.885431 
2.3550007e+3, 2.9401213e+2, -130531.57, -217764.81, -0.037722725, 0.0000046324444, -0.00025302486, -130531.57, -71850.39, 0.0, 10.000016, 9.8862095 
2.3550007e+3, 3.0392656e+2, -40787.832, -84750.234, 0.024685653, 0.0000046246573, 0.00017339597, -40787.832, -40787.832, 0.0, 10.000016, 9.942165 
2.3550007e+3, 3.138706e+2, -39709.863, -82511.32, -0.030875135, 0.0000046157866, -0.00005498442, -39709.863, -39709.863, 0.0, 10.000016, 9.943676 
2.3650007e+3, 1.249935e+2, -1719924.8, -1724222.9, 0.058037985, 0.0000050482868, 0.0000192411, -1719924.8, -4861.0176, 0.0, 10.000018, 9.994319 
2.3650007e+3, 1.3498774e+2, -1622544.5, -1627433.3, -0.020529639, 0.0000049937817, -0.00006850067, -1622544.5, -5424.4023, 0.0, 10.000017, 9.993536 
2.3650007e+3, 1.4497527e+2, -1534443.1, -1548144.5, 0.043759253, 0.0000049606933, 0.000073065516, -1534443.1, -15200.855, 0.0, 10.000017, 9.981856 
2.3650007e+3, 1.5495716e+2, -1436715.6, -1450820.3, -0.028694673, 0.000004948152, -0.0000559569, -1436715.6, -15295.812, 0.0, 10.000017, 9.981325 
2.3650007e+3, 1.649324e+2, -1348664.9, -1371950.8, 0.04389872, 0.0000049294226, 0.000047951184, -1348664.9, -25002.377, 0.0, 10.000017, 9.96924 
2.3650007e+3, 1.7490168e+2, -1250707.0, -1274308.8, -0.030897206, 0.0000049043774, -0.00007291142, -1250707.0, -24743.49, 0.0, 10.000017, 9.968826 
2.3650007e+3, 1.8486431e+2, -1162626.1, -1195718.6, 0.04085868, 0.000004884619, 0.00006713789, -1162626.1, -34296.547, 0.0, 10.000017, 9.9563875 
2.3650007e+3, 1.9482076e+2, -1064476.6, -1097831.6, -0.031304028, 0.000004870388, -0.000056837966, -1064476.6, -33720.01, 0.0, 10.000017, 9.956044 
2.3650007e+3, 2.047705e+2, -976312.75, -1019433.7, 0.034527082, 0.0000048527277, 0.00006880103, -976312.75, -43063.785, 0.0, 10.000017, 9.943282 
2.3650007e+3, 2.1471384e+2, -878025.94, -921408.7, -0.038369834, 0.0000048313523, -0.00012611452, -878025.94, -42221.46, 0.0, 10.000017, 9.942942 
2.3650007e+3, 2.2465046e+2, -789739.94, -843143.75, 0.032261543, 0.000004814131, 0.0001215568, -789739.94, -51314.383, 0.0, 10.000017, 9.9299 
2.3650007e+3, 2.3458041e+2, -691306.56, -744965.44, -0.03419705, 0.00000480161, -0.00008820594, -691306.56, -50194.715, 0.0, 10.000017, 9.929568 
2.3650007e+3, 2.4450344e+2, -602982.6, -667017.8, 0.033249516, 0.0000047901653, 0.00007526725, -602982.6, -59116.34, 0.0, 10.000017, 9.916128 
2.3650007e+3, 2.5441968e+2, -504230.13, -568342.44, -0.035547514, 0.000004779998, -0.00010621918, -504230.13, -57543.08, 0.0, 10.000017, 9.916028 
2.3650007e+3, 2.6432887e+2, -415994.8, -490987.13, 0.03032295, 0.000004768084, 0.00014106183, -415994.8, -66417.586, 0.0, 10.000017, 9.901957 
2.3650007e+3, 2.7423134e+2, -316709.72, -391374.13, -0.03475357, 0.0000047539406, -0.00020303803, -316709.72, -64177.09, 0.0, 10.000017, 9.902377 
2.3650007e+3, 2.8412563e+2, -230236.53, -318080.66, 0.03107012, 0.000004743917, 0.0002294033, -230236.53, -74667.85, 0.0, 10.000017, 9.885431 
2.3650007e+3, 2.9401213e+2, -130530.52, -217764.52, -0.02862734, 0.0000047395383, -0.00025301645, -130530.52, -71849.35, 0.0, 10.000016, 9.8862095 
2.3650007e+3, 3.0392656e+2, -40786.805, -84749.96, 0.03438913, 0.0000047319936, 0.00017340246, -40786.805, -40786.805, 0.0, 10.000016, 9.942164 
2.3650007e+3, 3.138706e+2, -39708.832, -82511.04, -0.025529288, 0.000004719704, -0.000054980257, -39708.832, -39708.832, 0.0, 10.000016, 9.943676 
2.3750007e+3, 1.2499351e+2, -1719924.9, -1724223.1, 0.019851321, 0.0000051546363, 0.000019292405, -1719924.9, -4861.2397, 0.0, 10.000018, 9.994319 
2.3750007e+3, 1.3498774e+2, -1622544.8, -1627433.6, -0.058723472, 0.0000051125226, -0.00006852732, -1622544.8, -5424.6206, 0.0, 10.000017, 9.993536 
2.3750007e+3, 1.4497527e+2, -1534443.3, -1548144.8, 0.011561939, 0.0000050817594, 0.00007312341, -1534443.3, -15201.058, 0.0, 10.000017, 9.981856 
2.3750007e+3, 1.5495716e+2, -1436715.9, -1450820.6, -0.060883686, 0.00000506139, -0.00005592418, -1436715.9, -15296.01, 0.0, 10.000017, 9.981324 
2.3750007e+3, 1.649324e+2, -1348665.0, -1371951.1, 0.014687151, 0.000005038398, 0.000047968628, -1348665.0, -25002.576, 0.0, 10.000017, 9.96924 
2.3750007e+3, 1.749017e+2, -1250707.3, -1274309.0, -0.06009369, 0.0000050127305, -0.000072899136, -1250707.3, -24743.688, 0.0, 10.000017, 9.968826 
2.3750007e+3, 1.8486433e+2, -1162626.4, -1195718.9, 0.010976818, 0.0000049950636, 0.000067150264, -1162626.4, -34296.734, 0.0, 10.000017, 9.9563875 
2.3750007e+3, 1.9482076e+2, -1064476.8, -1097831.9, -0.06119478, 0.0000049857636, -0.000056820023, -1064476.8, -33720.195, 0.0, 10.000017, 9.956044 
2.3750007e+3, 2.047705e+2, -976312.94, -1019434.0, 0.014322031, 0.000004966808, 0.00006882111, -976312.94, -43063.97, 0.0, 10.000017, 9.943282 
2.3750007e+3, 2.1471384e+2, -878026.06, -921409.0, -0.05837559, 0.000004937392, -0.00012609604, -878026.06, -42221.645, 0.0, 10.000017, 9.942942 
2.3750007e+3, 2.2465046e+2, -789740.06, -843144.0, 0.010487319, 0.000004919487, 0.00012157411, -789740.06, -51314.55, 0.0, 10.000017, 9.929899 
2.3750007e+3, 2.3458043e+2, -691306.75, -744965.75, -0.05603002, 0.000004914611, -0.00008818933, -691306.75, -50194.88, 0.0, 10.000017, 9.929568 
2.3750007e+3, 2.4450344e+2, -602982.75, -667018.1, 0.015044471, 0.0000049044065, 0.00007527944, -602982.75, -59116.508, 0.0, 10.000017, 9.916128 
2.3750007e+3, 2.5441968e+2, -504230.28, -568342.75, -0.053578954, 0.00000488782, -0.000106215855, -504230.28, -57543.246, 0.0, 10.000017, 9.916028 
2.3750007e+3, 2.6432887e+2, -415994.97, -490987.44, 0.018444456, 0.0000048729344, 0.00014106519, -415994.97, -66417.74, 0.0, 10.000017, 9.901957 
2.3750007e+3, 2.7423134e+2, -316709.88, -391374.44, -0.04622037, 0.0000048602237, -0.00020302329, -316709.88, -64177.246, 0.0, 10.000017, 9.902377 
2.3750007e+3, 2.8412563e+2, -230236.67, -318080.94, 0.020042583, 0.0000048520023, 0.00022942312, -230236.67, -74668.01, 0.0, 10.000017, 9.88543 
2.3750007e+3, 2.9401213e+2, -130530.664, -217764.8, -0.039616227, 0.0000048499096, -0.0002530002, -130530.664, -71849.49, 0.0, 10.000016, 9.8862095 
2.3750007e+3, 3.0392656e+2, -40786.945, -84750.25, 0.027383337, 0.0000048420225, 0.00017341117, -40786.945, -40786.945, 0.0, 10.000016, 9.942164 
2.3750007e+3, 3.138706e+2, -39708.973, -82511.336, -0.03206806, 0.0000048254833, -0.00005498482, -39708.973, -39708.973, 0.0, 10.000016, 9.943676 
2.3850007e+3, 1.2499351e+2, -1719923.6, -1724222.8, 0.05910782, 0.0000052709506, 0.000019333736, -1719923.6, -4860.036, 0.0, 10.000019, 9.994318 
2.3850007e+3, 1.3498774e+2, -1622543.5, -1627433.1, -0.020384781, 0.000005228586, -0.00006855081, -1622543.5, -5423.4233, 0.0, 10.000018, 9.993536 
2.3850007e+3, 1.4497527e+2, -1534442.1, -1548144.4, 0.050481215, 0.0000051974, 0.00007318752, -1534442.1, -15199.865, 0.0, 10.000018, 9.981856 
2.3850007e+3, 1.5495718e+2, -1436714.6, -1450820.1, -0.029846849, 0.0000051764096, -0.000055899527, -1436714.6, -15294.834, 0.0, 10.000018, 9.981324 
2.3850007e+3, 1.649324e+2, -1348663.9, -1371950.8, 0.04485551, 0.000005153664, 0.000047977977, -1348663.9, -25001.412, 0.0, 10.000018, 9.96924 
2.3850007e+3, 1.749017e+2, -1250706.0, -1274308.6, -0.030446954, 0.0000051291286, -0.00007288041, -1250706.0, -24742.537, 0.0, 10.000018, 9.968826 
2.3850007e+3, 1.8486433e+2, -1162625.1, -1195718.5, 0.040139843, 0.000005109639, 0.00006717226, -1162625.1, -34295.586, 0.0, 10.000018, 9.956387 
2.3850007e+3, 1.9482076e+2, -1064475.6, -1097831.5, -0.03782882, 0.000005095425, -0.00005680117, -1064475.6, -33719.035, 0.0, 10.000018, 9.956044 
2.3850007e+3, 2.047705e+2, -976311.75, -1019433.6, 0.03816494, 0.0000050763465, 0.00006883818, -976311.75, -43062.813, 0.0, 10.000018, 9.943282 
2.3850007e+3, 2.1471384e+2, -878024.94, -921408.6, -0.036068864, 0.0000050519966, -0.00012607929, -878024.94, -42220.52, 0.0, 10.000018, 9.942941 
2.3850007e+3, 2.2465046e+2, -789738.94, -843143.7, 0.031867616, 0.000005035296, 0.00012158984, -789738.94, -51313.44, 0.0, 10.000018, 9.929899 
2.3850007e+3, 2.3458043e+2, -691305.6, -744965.4, -0.03977068, 0.0000050272524, -0.000088175424, -691305.6, -50193.766, 0.0, 10.000018, 9.929568 
2.3850007e+3, 2.4450345e+2, -602981.6, -667017.8, 0.03170111, 0.0000050147687, 0.0000752922, -602981.6, -59115.395, 0.0, 10.000018, 9.916128 
2.3850007e+3, 2.5441968e+2, -504229.13, -568342.44, -0.038916703, 0.000004996969, -0.00010620343, -504229.13, -57542.13, 0.0, 10.000018, 9.916028 
2.3850007e+3, 2.6432887e+2, -415993.84, -490987.1, 0.033498675, 0.0000049823634, 0.00014107673, -415993.84, -66416.63, 0.0, 10.000017, 9.901957 
2.3850007e+3, 2.7423134e+2, -316708.78, -391374.1, -0.03408805, 0.00000497183, -0.00020301329, -316708.78, -64176.156, 0.0, 10.000017, 9.902376 
2.3850007e+3, 2.8412563e+2, -230235.58, -318080.63, 0.031356763, 0.0000049640635, 0.00022943196, -230235.58, -74666.92, 0.0, 10.000017, 9.88543 
2.3850007e+3, 2.9401213e+2, -130529.57, -217764.48, -0.032902844, 0.000004960059, -0.00025299194, -130529.57, -71848.414, 0.0, 10.000017, 9.886209 
2.3850007e+3, 3.0392656e+2, -40785.87, -84749.95, 0.035182722, 0.0000049516234, 0.00017341736, -40785.87, -40785.87, 0.0, 10.000017, 9.942164 
2.3850007e+3, 3.138706e+2, -39707.9, -82511.04, -0.022786321, 0.000004936582, -0.00005498291, -39707.9, -39707.9, 0.0, 10.000017, 9.943676 
2.3950008e+3, 1.2499352e+2, -1719923.9, -1724223.1, 0.020476326, 0.0000053972276, 0.000019365138, -1719923.9, -4860.2627, 0.0, 10.000019, 9.994318 
2.3950008e+3, 1.3498776e+2, -1622543.6, -1627433.5, -0.05902381, 0.0000053419717, -0.000068571164, -1622543.6, -5423.6455, 0.0, 10.000018, 9.993536 
2.3950008e+3, 1.4497529e+2, -1534442.3, -1548144.6, 0.015447411, 0.0000053076164, 0.00007325784, -1534442.3, -15200.088, 0.0, 10.000018, 9.981855 
2.3950008e+3, 1.5495718e+2, -1436714.8, -1450820.5, -0.06487559, 0.0000052932105, -0.00005588294, -1436714.8, -15295.051, 0.0, 10.000018, 9.981324 
2.3950008e+3, 1.649324e+2, -1348664.0, -1371951.0, 0.01333401, 0.0000052752193, 0.000047979236, -1348664.0, -25001.615, 0.0, 10.000018, 9.969239 
2.3950008e+3, 1.749017e+2, -1250706.3, -1274309.0, -0.06195126, 0.0000052535697, -0.00007285523, -1250706.3, -24742.736, 0.0, 10.000018, 9.968825 
2.3950008e+3, 1.8486433e+2, -1162625.4, -1195718.9, 0.01430566, 0.000005228345, 0.000067203866, -1162625.4, -34295.79, 0.0, 10.000018, 9.956387 
2.3950008e+3, 1.9482076e+2, -1064475.8, -1097831.9, -0.063597985, 0.0000051993743, -0.00005678141, -1064475.8, -33719.234, 0.0, 10.000018, 9.956043 
2.3950008e+3, 2.0477052e+2, -976311.94, -1019433.94, 0.011039558, 0.0000051813454, 0.00006885224, -976311.94, -43063.004, 0.0, 10.000018, 9.943282 
2.3950008e+3, 2.1471384e+2, -878025.1, -921408.94, -0.06322297, 0.000005175164, -0.00012606426, -878025.1, -42220.707, 0.0, 10.000018, 9.942941 
2.3950008e+3, 2.2465047e+2, -789739.06, -843144.0, 0.010990652, 0.0000051615557, 0.000121604, -789739.06, -51313.62, 0.0, 10.000018, 9.929899 
2.3950008e+3, 2.3458043e+2, -691305.75, -744965.7, -0.06044345, 0.000005139534, -0.000088164204, -691305.75, -50193.945, 0.0, 10.000018, 9.929568 
2.3950008e+3, 2.4450345e+2, -602981.8, -667018.1, 0.015663894, 0.000005121253, 0.00007530554, -602981.8, -59115.57, 0.0, 10.000018, 9.916127 
2.3950008e+3, 2.5441968e+2, -504229.28, -568342.75, -0.054731913, 0.000005107445, -0.000106181906, -504229.28, -57542.3, 0.0, 10.000018, 9.916028 
2.3950008e+3, 2.6432887e+2, -415994.0, -490987.4, 0.01733504, 0.00000509637, 0.00014109646, -415994.0, -66416.8, 0.0, 10.000017, 9.901957 
2.3950008e+3, 2.7423134e+2, -316708.9, -391374.4, -0.050275765, 0.0000050887584, -0.00020300807, -316708.9, -64176.32, 0.0, 10.000017, 9.902376 
2.3950008e+3, 2.8412563e+2, -230235.72, -318080.9, 0.0206326, 0.0000050800995, 0.00022942982, -230235.72, -74667.086, 0.0, 10.000017, 9.88543 
2.3950008e+3, 2.9401213e+2, -130529.72, -217764.78, -0.043135695, 0.000005069987, -0.00025299168, -130529.72, -71848.57, 0.0, 10.000017, 9.886209 
2.3950008e+3, 3.0392656e+2, -40786.01, -84750.24, 0.028437972, 0.0000050607973, 0.00017342102, -40786.01, -40786.01, 0.0, 10.000017, 9.942164 
2.3950008e+3, 3.138706e+2, -39708.04, -82511.336, -0.029122896, 0.0000050529998, -0.000054974527, -39708.04, -39708.04, 0.0, 10.000017, 9.943676 
2.4050008e+3, 1.2499352e+2, -1719922.5, -1724222.6, 0.0636117, 0.0000055219875, 0.000019407855, -1719922.5, -4859.012, 0.0, 10.000019, 9.994318 
2.4050008e+3, 1.3498776e+2, -1622542.4, -1627433.1, -0.02176534, 0.000005460305, -0.000068593996, -1622542.4, -5422.3945, 0.0, 10.000019, 9.993536 
2.4050008e+3, 1.4497529e+2, -1534441.0, -1548144.3, 0.05151908, 0.000005424543, 0.000073325675, -1534441.0, -15198.839, 0.0, 10.000019, 9.981855 
2.4050008e+3, 1.5495718e+2, -1436713.5, -1450820.1, -0.029022474, 0.000005413755, -0.000055862536, -1436713.5, -15293.816, 0.0, 10.000019, 9.981324 
2.4050008e+3, 1.6493241e+2, -1348662.8, -1371950.6, 0.04911802, 0.000005396332, 0.000047985024, -1348662.8, -25000.39, 0.0, 10.000019, 9.969239 
2.4050008e+3, 1.749017e+2, -1250705.0, -1274308.6, -0.035383653, 0.0000053721387, -0.00007283055, -1250705.0, -24741.518, 0.0, 10.000019, 9.968825 
2.4050008e+3, 1.8486433e+2, -1162624.1, -1195718.5, 0.04070875, 0.0000053457, 0.000067233115, -1162624.1, -34294.58, 0.0, 10.000019, 9.956387 
2.4050008e+3, 1.9482078e+2, -1064474.5, -1097831.5, -0.036863703, 0.0000053169088, -0.000056762594, -1064474.5, -33718.043, 0.0, 10.000019, 9.956043 
2.4050008e+3, 2.0477052e+2, -976310.7, -1019433.56, 0.037728917, 0.0000052994283, 0.00006886611, -976310.7, -43061.82, 0.0, 10.000019, 9.943282 
2.4050008e+3, 2.1471384e+2, -878023.9, -921408.56, -0.03847311, 0.000005294195, -0.0001260494, -878023.9, -42219.523, 0.0, 10.000019, 9.942941 
2.4050008e+3, 2.2465047e+2, -789737.9, -843143.6, 0.037399694, 0.000005279323, 0.00012161925, -789737.9, -51312.44, 0.0, 10.000019, 9.929899 
2.4050008e+3, 2.3458043e+2, -691304.56, -744965.3, -0.041198414, 0.000005253533, -0.00008814925, -691304.56, -50192.77, 0.0, 10.000019, 9.929568 
2.4050008e+3, 2.4450345e+2, -602980.6, -667017.75, 0.032866053, 0.00000523479, 0.00007532008, -602980.6, -59114.402, 0.0, 10.000018, 9.916127 
2.4050008e+3, 2.5441968e+2, -504228.13, -568342.4, -0.03933693, 0.0000052244727, -0.00010616792, -504228.13, -57541.152, 0.0, 10.000018, 9.916027 
2.4050008e+3, 2.6432887e+2, -415992.84, -490987.06, 0.03322655, 0.0000052145933, 0.00014110851, -415992.84, -66415.66, 0.0, 10.000018, 9.901956 
2.4050008e+3, 2.7423134e+2, -316707.75, -391374.06, -0.035808638, 0.0000052052474, -0.00020299971, -316707.75, -64175.18, 0.0, 10.000018, 9.902376 
2.4050008e+3, 2.8412563e+2, -230234.58, -318080.6, 0.036942713, 0.000005195309, 0.00022943577, -230234.58, -74665.94, 0.0, 10.000018, 9.88543 
2.4050008e+3, 2.9401213e+2, -130528.57, -217764.45, -0.030840976, 0.0000051845527, -0.00025298633, -130528.57, -71847.44, 0.0, 10.000018, 9.886209 
2.4050008e+3, 3.0392656e+2, -40784.883, -84749.94, 0.03727617, 0.0000051749053, 0.00017342698, -40784.883, -40784.883, 0.0, 10.000018, 9.942164 
2.4050008e+3, 3.138706e+2, -39706.914, -82511.02, -0.029546166, 0.000005166921, -0.00005496625, -39706.914, -39706.914, 0.0, 10.000018, 9.943675 
2.4150008e+3, 1.24993525e+2, -1719922.8, -1724223.0, 0.026283257, 0.0000056452313, 0.000019461933, -1719922.8, -4859.2544, 0.0, 10.000019, 9.994318 
2.4150008e+3, 1.3498776e+2, -1622542.5, -1627433.5, -0.059100624, 0.000005583585, -0.000068619316, -1622542.5, -5422.6323, 0.0, 10.000019, 9.993535 
2.4150008e+3, 1.4497529e+2, -1534441.1, -1548144.6, 0.013995467, 0.0000055481787, 0.00007339101, -1534441.1, -15199.063, 0.0, 10.000019, 9.981855 
2.4150008e+3, 1.5495719e+2, -1436713.8, -1450820.4, -0.0665474, 0.0000055380424, -0.00005583831, -1436713.8, -15294.037, 0.0, 10.000019, 9.981324 
2.4150008e+3, 1.6493241e+2, -1348662.9, -1371951.0, 0.016975995, 0.000005517004, 0.000047995338, -1348662.9, -25000.615, 0.0, 10.000019, 9.969239 
2.4150008e+3, 1.749017e+2, -1250705.1, -1274309.0, -0.06749792, 0.0000054848374, -0.00007280636, -1250705.1, -24741.738, 0.0, 10.000019, 9.968825 
2.4150008e+3, 1.8486433e+2, -1162624.3, -1195718.8, 0.011509022, 0.0000054617067, 0.00006726, -1162624.3, -34294.78, 0.0, 10.000019, 9.956387 
2.4150008e+3, 1.9482078e+2, -1064474.8, -1097831.9, -0.06603076, 0.000005448025, -0.000056744724, -1064474.8, -33718.242, 0.0, 10.000019, 9.956043 
2.4150008e+3, 2.0477052e+2, -976310.9, -1019433.9, 0.011135398, 0.000005430592, 0.00006887977, -976310.9, -43062.016, 0.0, 10.000019, 9.943281 
2.4150008e+3, 2.1471384e+2, -878024.06, -921408.9, -0.06501466, 0.0000054090915, -0.0001260347, -878024.06, -42219.715, 0.0, 10.000019, 9.942941 
2.4150008e+3, 2.2465047e+2, -789738.06, -843143.94, 0.016617255, 0.0000053886006, 0.00012163559, -789738.06, -51312.637, 0.0, 10.000019, 9.929899 
2.4150008e+3, 2.3458043e+2, -691304.75, -744965.6, -0.06179305, 0.0000053692493, -0.00008813056, -691304.75, -50192.96, 0.0, 10.000019, 9.929567 
2.4150008e+3, 2.4450345e+2, -602980.75, -667018.06, 0.013141534, 0.0000053553795, 0.00007533582, -602980.75, -59114.582, 0.0, 10.000018, 9.916127 
2.4150008e+3, 2.5441968e+2, -504228.28, -568342.7, -0.059020523, 0.0000053480517, -0.00010616146, -504228.28, -57541.33, 0.0, 10.000018, 9.916027 
2.4150008e+3, 2.6432887e+2, -415993.0, -490987.38, 0.018246045, 0.0000053370327, 0.00014111289, -415993.0, -66415.83, 0.0, 10.000018, 9.901956 
2.4150008e+3, 2.7423134e+2, -316707.9, -391374.38, -0.050475128, 0.0000053212966, -0.00020298823, -316707.9, -64175.344, 0.0, 10.000018, 9.902376 
2.4150008e+3, 2.8412563e+2, -230234.73, -318080.9, 0.025839696, 0.000005309691, 0.00022944986, -230234.73, -74666.11, 0.0, 10.000018, 9.88543 
2.4150008e+3, 2.9401213e+2, -130528.73, -217764.78, -0.04162365, 0.000005303755, -0.00025297588, -130528.73, -71847.6, 0.0, 10.000018, 9.886209 
2.4150008e+3, 3.0392656e+2, -40785.043, -84750.266, 0.029604146, 0.0000052939467, 0.00017343518, -40785.043, -40785.043, 0.0, 10.000018, 9.942163 
2.4150008e+3, 3.138706e+2, -39707.074, -82511.35, -0.036853712, 0.0000052783466, -0.00005495807, -39707.074, -39707.074, 0.0, 10.000018, 9.943675 
2.4250007e+3, 1.2499353e+2, -1719921.4, -1724222.5, 0.06512044, 0.0000057698226, 0.000019512581, -1719921.4, -4857.9297, 0.0, 10.00002, 9.994317 
2.4250007e+3, 1.3498776e+2, -1622541.3, -1627433.0, -0.022359274, 0.000005712069, -0.00006864518, -1622541.3, -5421.336, 0.0, 10.00002, 9.993535 
2.4250007e+3, 1.4497529e+2, -1534439.8, -1548144.1, 0.050638087, 0.0000056761955, 0.00007346074, -1534439.8, -15197.771, 0.0, 10.00002, 9.981855 
2.4250007e+3, 1.5495719e+2, -1436712.4, -1450820.0, -0.03522088, 0.000005661175, -0.000055810604, -1436712.4, -15292.743, 0.0, 10.00002, 9.981323 
2.4250007e+3, 1.6493241e+2, -1348661.6, -1371950.5, 0.049476694, 0.000005638106, 0.000048006194, -1348661.6, -24999.328, 0.0, 10.00002, 9.969239 
2.4250007e+3, 1.7490171e+2, -1250703.9, -1274308.5, -0.034137294, 0.0000056068225, -0.00007278663, -1250703.9, -24740.469, 0.0, 10.00002, 9.968825 
2.4250007e+3, 1.8486434e+2, -1162623.0, -1195718.4, 0.04507744, 0.0000055857204, 0.00006728271, -1162623.0, -34293.52, 0.0, 10.00002, 9.956386 
2.4250007e+3, 1.9482078e+2, -1064473.5, -1097831.4, -0.03812778, 0.000005575267, -0.00005672524, -1064473.5, -33717.0, 0.0, 10.00002, 9.956043 
2.4250007e+3, 2.0477052e+2, -976309.6, -1019433.5, 0.038677577, 0.000005555998, 0.00006889797, -976309.6, -43060.777, 0.0, 10.00002, 9.943281 
2.4250007e+3, 2.1471386e+2, -878022.75, -921408.5, -0.044513565, 0.0000055271794, -0.00012601572, -878022.75, -42218.47, 0.0, 10.00002, 9.942941 
2.4250007e+3, 2.2465047e+2, -789736.8, -843143.56, 0.03579825, 0.000005505605, 0.00012165418, -789736.8, -51311.395, 0.0, 10.00002, 9.929898 
2.4250007e+3, 2.3458043e+2, -691303.5, -744965.25, -0.041788895, 0.0000054922293, -0.000088113746, -691303.5, -50191.742, 0.0, 10.000019, 9.929567 
2.4250007e+3, 2.4450345e+2, -602979.56, -667017.7, 0.035065282, 0.000005480134, 0.00007534951, -602979.56, -59113.375, 0.0, 10.000019, 9.916127 
2.4250007e+3, 2.5441968e+2, -504227.06, -568342.3, -0.04034549, 0.0000054695543, -0.00010615251, -504227.06, -57540.125, 0.0, 10.000019, 9.916027 
2.4250007e+3, 2.6432887e+2, -415991.78, -490987.03, 0.036378976, 0.000005456474, 0.00014112117, -415991.78, -66414.63, 0.0, 10.000019, 9.901956 
2.4250007e+3, 2.7423137e+2, -316706.7, -391374.03, -0.040727153, 0.000005440203, -0.00020297547, -316706.7, -64174.15, 0.0, 10.000019, 9.902376 
2.4250007e+3, 2.8412563e+2, -230233.52, -318080.56, 0.03290995, 0.0000054287984, 0.0002294646, -230233.52, -74664.91, 0.0, 10.000019, 9.885429 
2.4250007e+3, 2.9401213e+2, -130527.53, -217764.44, -0.035326373, 0.0000054240627, -0.00025296258, -130527.53, -71846.41, 0.0, 10.000019, 9.886209 
2.4250007e+3, 3.0392656e+2, -40783.867, -84749.94, 0.038652778, 0.0000054142683, 0.00017344461, -40783.867, -40783.867, 0.0, 10.000019, 9.942163 
2.4250007e+3, 3.138706e+2, -39705.902, -82511.04, -0.026880192, 0.0000053969125, -0.000054956072, -39705.902, -39705.902, 0.0, 10.000019, 9.943675 
2.4350007e+3, 1.2499353e+2, -1719921.6, -1724222.9, 0.022241982, 0.000005895762, 0.000019559851, -1719921.6, -4858.178, 0.0, 10.00002, 9.994317 
2.4350007e+3, 1.3498777e+2, -1622541.4, -1627433.4, -0.065245934, 0.0000058457576, -0.0000686716, -1622541.4, -5421.58, 0.0, 10.00002, 9.993535 
2.4350007e+3, 1.449753e+2, -1534440.0, -1548144.5, 0.01480524, 0.0000058085916, 0.00007353486, -1534440.0, -15198.01, 0.0, 10.00002, 9.981855 
2.4350007e+3, 1.5495719e+2, -1436712.6, -1450820.4, -0.07104354, 0.000005783153, -0.00005577942, -1436712.6, -15292.977, 0.0, 10.00002, 9.981323 
2.4350007e+3, 1.6493241e+2, -1348661.8, -1371950.9, 0.014857925, 0.000005759639, 0.0000480176, -1348661.8, -24999.555, 0.0, 10.00002, 9.969238 
2.4350007e+3, 1.7490171e+2, -1250704.0, -1274308.9, -0.06875072, 0.000005738091, -0.00007277135, -1250704.0, -24740.69, 0.0, 10.00002, 9.968825 
2.4350007e+3, 1.8486434e+2, -1162623.1, -1195718.8, 0.012339764, 0.0000057177404, 0.000067301225, -1162623.1, -34293.74, 0.0, 10.00002, 9.956386 
2.4350007e+3, 1.9482078e+2, -1064473.6, -1097831.8, -0.07084485, 0.0000056986355, -0.00005670414, -1064473.6, -33717.215, 0.0, 10.00002, 9.956042 
2.4350007e+3, 2.0477052e+2, -976309.8, -1019433.9, 0.015180676, 0.00000567565, 0.000068920686, -976309.8, -43060.99, 0.0, 10.00002, 9.943281 
2.4350007e+3, 2.1471386e+2, -878022.94, -921408.9, -0.0678209, 0.000005648458, -0.00012599242, -878022.94, -42218.68, 0.0, 10.00002, 9.94294 
2.4350007e+3, 2.2465047e+2, -789736.94, -843143.9, 0.010774639, 0.0000056303343, 0.00012167502, -789736.94, -51311.594, 0.0, 10.00002, 9.929898 
2.4350007e+3, 2.3458043e+2, -691303.6, -744965.6, -0.066869535, 0.000005622472, -0.000088098794, -691303.6, -50191.934, 0.0, 10.000019, 9.929567 
2.4350007e+3, 2.4450345e+2, -602979.7, -667018.0, 0.01498161, 0.000005609053, 0.00007536117, -602979.7, -59113.563, 0.0, 10.000019, 9.916127 
2.4350007e+3, 2.5441968e+2, -504227.22, -568342.7, -0.06019038, 0.0000055889814, -0.00010614106, -504227.22, -57540.31, 0.0, 10.000019, 9.916027 
2.4350007e+3, 2.6432887e+2, -415991.94, -490987.38, 0.022016339, 0.000005572918, 0.00014113332, -415991.94, -66414.82, 0.0, 10.000019, 9.901956 
2.4350007e+3, 2.7423137e+2, -316706.88, -391374.38, -0.054722775, 0.0000055619653, -0.00020296146, -316706.88, -64174.332, 0.0, 10.000019, 9.902375 
2.4350007e+3, 2.8412563e+2, -230233.67, -318080.88, 0.020812934, 0.000005552629, 0.00022948, -230233.67, -74665.08, 0.0, 10.000019, 9.885429 
2.4350007e+3, 2.9401213e+2, -130527.69, -217764.75, -0.047253553, 0.000005545475, -0.0002529464, -130527.69, -71846.58, 0.0, 10.000019, 9.886208 
2.4350007e+3, 3.0392656e+2, -40784.023, -84750.266, 0.030245641, 0.00000553587, 0.0001734553, -40784.023, -40784.023, 0.0, 10.000019, 9.942163 
2.4350007e+3, 3.138706e+2, -39706.06, -82511.36, -0.034875106, 0.0000055226164, -0.00005496025, -39706.06, -39706.06, 0.0, 10.000019, 9.943675 
2.4450007e+3, 1.2499354e+2, -1719920.1, -1724222.5, 0.06736047, 0.0000060288266, 0.000019605417, -1719920.1, -4856.807, 0.0, 10.000022, 9.994317 
2.4450007e+3, 1.3498777e+2, -1622540.0, -1627432.9, -0.025661353, 0.0000059759905, -0.0000686958, -1622540.0, -5420.2104, 0.0, 10.000021, 9.993535 
2.4450007e+3, 1.449753e+2, -1534438.6, -1548144.0, 0.05501302, 0.000005937701, 0.00007361257, -1534438.6, -15196.6455, 0.0, 10.000021, 9.981854 
2.4450007e+3, 1.5495719e+2, -1436711.3, -1450819.9, -0.03356366, 0.000005912829, -0.000055754055, -1436711.3, -15291.634, 0.0, 10.000021, 9.981323 
2.4450007e+3, 1.6493243e+2, -1348660.4, -1371950.4, 0.051254362, 0.0000058903693, 0.000048024038, -1348660.4, -24998.225, 0.0, 10.000021, 9.969238 
2.4450007e+3, 1.7490171e+2, -1250702.6, -1274308.4, -0.03657637, 0.0000058703768, -0.00007274967, -1250702.6, -24739.373, 0.0, 10.000021, 9.968824 
2.4450007e+3, 1.8486434e+2, -1162621.8, -1195718.3, 0.04473535, 0.000005847628, 0.00006732825, -1162621.8, -34292.426, 0.0, 10.000021, 9.956386 
2.4450007e+3, 1.9482078e+2, -1064472.3, -1097831.4, -0.043848872, 0.00000582199, -0.00005668213, -1064472.3, -33715.887, 0.0, 10.000021, 9.956042 
2.4450007e+3, 2.0477054e+2, -976308.44, -1019433.44, 0.04232752, 0.000005798507, 0.000068940026, -976308.44, -43059.67, 0.0, 10.000021, 9.943281 
2.4450007e+3, 2.1471386e+2, -878021.6, -921408.44, -0.0421609, 0.000005777355, -0.00012597322, -878021.6, -42217.395, 0.0, 10.000021, 9.94294 
2.4450007e+3, 2.2465047e+2, -789735.7, -843143.5, 0.03664739, 0.000005761173, 0.00012169201, -789735.7, -51310.32, 0.0, 10.000021, 9.929898 
2.4450007e+3, 2.3458044e+2, -691302.4, -744965.2, -0.04410339, 0.000005750612, -0.00008808631, -691302.4, -50190.664, 0.0, 10.000021, 9.929567 
2.4450007e+3, 2.4450345e+2, -602978.44, -667017.6, 0.037531756, 0.0000057348625, 0.00007537344, -602978.44, -59112.293, 0.0, 10.00002, 9.916126 
2.4450007e+3, 2.544197e+2, -504225.94, -568342.25, -0.045880526, 0.000005712905, -0.000106123836, -504225.94, -57539.035, 0.0, 10.00002, 9.916026 
2.4450007e+3, 2.6432887e+2, -415990.66, -490986.97, 0.035602618, 0.000005696389, 0.0001411501, -415990.66, -66413.555, 0.0, 10.00002, 9.901956 
2.4450007e+3, 2.7423137e+2, -316705.6, -391374.0, -0.038782366, 0.0000056868066, -0.000202952, -316705.6, -64173.086, 0.0, 10.00002, 9.902375 
2.4450007e+3, 2.8412563e+2, -230232.42, -318080.5, 0.03869826, 0.0000056779677, 0.00022948596, -230232.42, -74663.84, 0.0, 10.00002, 9.885429 
2.4450007e+3, 2.9401213e+2, -130526.44, -217764.4, -0.035679616, 0.0000056701087, -0.00025293874, -130526.44, -71845.34, 0.0, 10.00002, 9.886208 
2.4450007e+3, 3.0392656e+2, -40782.797, -84749.93, 0.03997012, 0.000005660569, 0.00017346283, -40782.797, -40782.797, 0.0, 10.00002, 9.942163 
2.4450007e+3, 3.138706e+2, -39704.83, -82511.02, -0.02870801, 0.0000056485333, -0.00005495561, -39704.83, -39704.83, 0.0, 10.00002, 9.943674 
2.455001e+3, 1.2499354e+2, -1719920.4, -1724222.9, 0.02533401, 0.0000061690143, 0.000019649333, -1719920.4, -4857.0713, 0.0, 10.000022, 9.994317 
2.4550007e+3, 1.3498777e+2, -1622540.3, -1627433.3, -0.06769555, 0.00000610277, -0.00006871779, -1622540.3, -5420.4697, 0.0, 10.000021, 9.993534 
2.4550007e+3, 1.449753e+2, -1534438.8, -1548144.4, 0.015091907, 0.000006063526, 0.000073693904, -1534438.8, -15196.892, 0.0, 10.000021, 9.981854 
2.4550007e+3, 1.549572e+2, -1436711.4, -1450820.3, -0.073482454, 0.0000060501993, -0.000055734512, -1436711.4, -15291.875, 0.0, 10.000021, 9.981323 
2.4550007e+3, 1.6493243e+2, -1348660.6, -1371950.8, 0.014570789, 0.0000060302955, 0.000048025515, -1348660.6, -24998.46, 0.0, 10.000021, 9.969238 
2.4550007e+3, 1.7490171e+2, -1250702.9, -1274308.8, -0.07324425, 0.0000060036787, -0.0000727216, -1250702.9, -24739.605, 0.0, 10.000021, 9.968824 
2.4550007e+3, 1.8486434e+2, -1162622.0, -1195718.6, 0.015975086, 0.0000059753847, 0.00006736376, -1162622.0, -34292.656, 0.0, 10.000021, 9.956386 
2.4550007e+3, 1.9482079e+2, -1064472.5, -1097831.8, -0.07251842, 0.0000059453305, -0.000056659213, -1064472.5, -33716.113, 0.0, 10.000021, 9.956042 
2.4550007e+3, 2.0477054e+2, -976308.6, -1019433.8, 0.011638433, 0.000005924569, 0.000068955975, -976308.6, -43059.887, 0.0, 10.000021, 9.94328 
2.4550007e+3, 2.1471386e+2, -878021.8, -921408.8, -0.07289257, 0.000005913868, -0.00012595815, -878021.8, -42217.605, 0.0, 10.000021, 9.94294 
2.4550007e+3, 2.2465049e+2, -789735.8, -843143.8, 0.012433875, 0.0000058981195, 0.000121705176, -789735.8, -51310.523, 0.0, 10.000021, 9.929898 
2.4550007e+3, 2.3458044e+2, -691302.56, -744965.56, -0.06810522, 0.0000058766504, -0.00008807629, -691302.56, -50190.863, 0.0, 10.000021, 9.929566 
2.4550007e+3, 2.4450347e+2, -602978.6, -667018.0, 0.019064527, 0.0000058575633, 0.00007538635, -602978.6, -59112.496, 0.0, 10.00002, 9.916126 
2.4550007e+3, 2.544197e+2, -504226.13, -568342.6, -0.06408235, 0.0000058413243, -0.00010610084, -504226.13, -57539.24, 0.0, 10.00002, 9.916026 
2.4550007e+3, 2.6432887e+2, -415990.8, -490987.3, 0.01792979, 0.0000058268856, 0.0001411715, -415990.8, -66413.734, 0.0, 10.00002, 9.901955 
2.4550007e+3, 2.7423137e+2, -316705.78, -391374.34, -0.056420993, 0.000005814726, -0.00020294709, -316705.78, -64173.266, 0.0, 10.00002, 9.902375 
2.4550007e+3, 2.8412563e+2, -230232.6, -318080.84, 0.02588978, 0.000005804815, 0.00022948242, -230232.6, -74664.02, 0.0, 10.00002, 9.885429 
2.4550007e+3, 2.9401216e+2, -130526.61, -217764.75, -0.048053853, 0.000005797964, -0.0002529396, -130526.61, -71845.52, 0.0, 10.00002, 9.886208 
2.4550007e+3, 3.0392656e+2, -40782.96, -84750.27, 0.03199205, 0.0000057883644, 0.00017346724, -40782.96, -40782.96, 0.0, 10.00002, 9.9421625 
2.4550007e+3, 3.138706e+2, -39704.996, -82511.37, -0.03617127, 0.0000057746643, -0.000054942153, -39704.996, -39704.996, 0.0, 10.00002, 9.943674 
2.465001e+3, 1.2499355e+2, -1719918.9, -1724222.4, 0.07197631, 0.0000063052685, 0.000019699411, -1719918.9, -4855.628, 0.0, 10.000023, 9.994316 
2.465001e+3, 1.3498779e+2, -1622538.8, -1627432.8, -0.024445694, 0.000006237688, -0.00006874639, -1622538.8, -5419.0464, 0.0, 10.000023, 9.993534 
2.465001e+3, 1.4497532e+2, -1534437.4, -1548143.9, 0.057596225, 0.0000061991827, 0.000073771014, -1534437.4, -15195.476, 0.0, 10.000022, 9.981854 
2.465001e+3, 1.549572e+2, -1436710.0, -1450819.8, -0.03478637, 0.0000061886517, -0.000055710167, -1436710.0, -15290.474, 0.0, 10.000022, 9.981322 
2.465001e+3, 1.6493243e+2, -1348659.1, -1371950.4, 0.05326987, 0.000006167177, 0.000048033075, -1348659.1, -24997.066, 0.0, 10.000022, 9.969238 
2.465001e+3, 1.7490172e+2, -1250701.4, -1274308.4, -0.04194651, 0.000006134532, -0.00007269407, -1250701.4, -24738.207, 0.0, 10.000022, 9.968824 
2.4650007e+3, 1.8486437e+2, -1162620.5, -1195718.3, 0.047030114, 0.0000061052756, 0.00006739601, -1162620.5, -34291.266, 0.0, 10.000022, 9.956385 
2.4650007e+3, 1.9482079e+2, -1064471.1, -1097831.3, -0.042160142, 0.0000060795583, -0.00005663822, -1064471.1, -33714.754, 0.0, 10.000022, 9.956042 
2.4650007e+3, 2.0477054e+2, -976307.25, -1019433.3, 0.042207506, 0.000006060504, 0.000068971494, -976307.25, -43058.54, 0.0, 10.000022, 9.94328 
2.4650007e+3, 2.1471386e+2, -878020.44, -921408.4, -0.04487811, 0.000006048661, -0.00012594183, -878020.44, -42216.258, 0.0, 10.000022, 9.94294 
2.4650007e+3, 2.2465049e+2, -789734.44, -843143.4, 0.04088587, 0.0000060302987, 0.000121722594, -789734.44, -51309.18, 0.0, 10.000022, 9.929897 
2.4650007e+3, 2.3458044e+2, -691301.2, -744965.1, -0.049256258, 0.0000060045513, -0.000088057364, -691301.2, -50189.52, 0.0, 10.000022, 9.929566 
2.4650007e+3, 2.4450347e+2, -602977.25, -667017.56, 0.036617126, 0.000005985227, 0.00007540443, -602977.25, -59111.16, 0.0, 10.000021, 9.916126 
2.4650007e+3, 2.544197e+2, -504224.78, -568342.25, -0.04429561, 0.0000059735785, -0.00010608642, -504224.78, -57537.926, 0.0, 10.000021, 9.916026 
2.4650007e+3, 2.6432887e+2, -415989.5, -490986.94, 0.03924225, 0.000005960788, 0.00014118353, -415989.5, -66412.43, 0.0, 10.000021, 9.901955 
2.4650007e+3, 2.7423137e+2, -316704.47, -391373.97, -0.04167613, 0.000005946519, -0.00020293584, -316704.47, -64171.96, 0.0, 10.000021, 9.902375 
2.4650007e+3, 2.8412563e+2, -230231.28, -318080.47, 0.039897095, 0.0000059350396, 0.00022949203, -230231.28, -74662.72, 0.0, 10.000021, 9.885428 
2.4650007e+3, 2.9401216e+2, -130525.305, -217764.38, -0.036389086, 0.0000059273766, -0.00025293283, -130525.305, -71844.23, 0.0, 10.000021, 9.886208 
2.4650007e+3, 3.0392656e+2, -40781.67, -84749.914, 0.043264464, 0.000005917131, 0.00017347297, -40781.67, -40781.67, 0.0, 10.000021, 9.9421625 
2.4650007e+3, 3.138706e+2, -39703.71, -82511.016, -0.030702533, 0.000005903026, -0.000054934782, -39703.71, -39703.71, 0.0, 10.000021, 9.943674 
2.4750009e+3, 1.24993555e+2, -1719919.1, -1724222.8, 0.026527995, 0.0000064375913, 0.000019755711, -1719919.1, -4855.902, 0.0, 10.000023, 9.994316 
2.4750009e+3, 1.3498779e+2, -1622539.0, -1627433.3, -0.06990253, 0.0000063807433, -0.0000687816, -1622539.0, -5419.316, 0.0, 10.000023, 9.993534 
2.4750009e+3, 1.4497532e+2, -1534437.5, -1548144.3, 0.015353188, 0.000006344669, 0.000073843905, -1534437.5, -15195.733, 0.0, 10.000022, 9.981854 
2.4750009e+3, 1.549572e+2, -1436710.1, -1450820.1, -0.077025734, 0.000006328186, -0.000055681016, -1436710.1, -15290.726, 0.0, 10.000022, 9.981322 
2.4750009e+3, 1.6493243e+2, -1348659.4, -1371950.8, 0.018639624, 0.0000063010166, 0.00004804672, -1348659.4, -24997.322, 0.0, 10.000022, 9.969237 
2.4750009e+3, 1.7490172e+2, -1250701.6, -1274308.8, -0.07653751, 0.000006262939, -0.00007266708, -1250701.6, -24738.457, 0.0, 10.000022, 9.968824 
2.4750009e+3, 1.8486437e+2, -1162620.8, -1195718.6, 0.012061953, 0.0000062373, 0.000067425, -1162620.8, -34291.5, 0.0, 10.000022, 9.956385 
2.4750009e+3, 1.9482079e+2, -1064471.3, -1097831.6, -0.07713385, 0.0000062246704, -0.000056619145, -1064471.3, -33714.984, 0.0, 10.000022, 9.956041 
2.4750009e+3, 2.0477054e+2, -976307.44, -1019433.7, 0.012618443, 0.0000062063086, 0.00006898658, -976307.44, -43058.766, 0.0, 10.000022, 9.94328 
2.4750009e+3, 2.1471387e+2, -878020.6, -921408.75, -0.074357495, 0.000006181735, -0.00012592433, -878020.6, -42216.477, 0.0, 10.000022, 9.942939 
2.4750009e+3, 2.2465049e+2, -789734.7, -843143.8, 0.017421462, 0.000006157713, 0.000121744284, -789734.7, -51309.402, 0.0, 10.000022, 9.929897 
2.4750009e+3, 2.3458044e+2, -691301.4, -744965.5, -0.07252448, 0.000006134315, -0.00008802952, -691301.4, -50189.74, 0.0, 10.000022, 9.929566 
2.4750009e+3, 2.4450347e+2, -602977.44, -667017.94, 0.013798694, 0.0000061178516, 0.000075427684, -602977.44, -59111.363, 0.0, 10.000021, 9.916126 
2.4750008e+3, 2.544197e+2, -504224.97, -568342.6, -0.067093775, 0.000006109667, -0.00010608058, -504224.97, -57538.125, 0.0, 10.000021, 9.916026 
2.4750008e+3, 2.6432887e+2, -415989.7, -490987.3, 0.022340974, 0.000006098094, 0.00014118617, -415989.7, -66412.63, 0.0, 10.000021, 9.901955 
2.4750008e+3, 2.7423137e+2, -316704.63, -391374.3, -0.058183324, 0.0000060821853, -0.00020291828, -316704.63, -64172.156, 0.0, 10.000021, 9.902374 
2.4750008e+3, 2.8412563e+2, -230231.45, -318080.84, 0.02704257, 0.0000060686407, 0.00022951476, -230231.45, -74662.914, 0.0, 10.000021, 9.885428 
2.4750008e+3, 2.9401216e+2, -130525.48, -217764.73, -0.04891548, 0.0000060583466, -0.00025291843, -130525.48, -71844.41, 0.0, 10.000021, 9.886207 
2.4750008e+3, 3.039266e+2, -40781.848, -84750.28, 0.034343537, 0.0000060468697, 0.00017348003, -40781.848, -40781.848, 0.0, 10.000021, 9.9421625 
2.4750008e+3, 3.138706e+2, -39703.887, -82511.38, -0.039201345, 0.000006033619, -0.00005493349, -39703.887, -39703.887, 0.0, 10.000021, 9.943674 
2.485001e+3, 1.2499356e+2, -1719917.5, -1724222.3, 0.075592406, 0.0000065819518, 0.000019811925, -1719917.5, -4854.4033, 0.0, 10.000024, 9.994316 
2.485001e+3, 1.3498779e+2, -1622537.4, -1627432.8, -0.024542524, 0.0000065239965, -0.00006881642, -1622537.4, -5417.8306, 0.0, 10.000024, 9.993533 
2.485001e+3, 1.4497532e+2, -1534436.0, -1548143.8, 0.06013522, 0.0000064856754, 0.00007392095, -1534436.0, -15194.25, 0.0, 10.000024, 9.9818535 
2.485001e+3, 1.5495722e+2, -1436708.6, -1450819.6, -0.03941722, 0.000006465766, -0.00005564963, -1436708.6, -15289.243, 0.0, 10.000023, 9.981322 
2.485001e+3, 1.6493244e+2, -1348657.9, -1371950.3, 0.056949828, 0.0000064382434, 0.00004805975, -1348657.9, -24995.852, 0.0, 10.000023, 9.969237 
2.485001e+3, 1.7490172e+2, -1250700.1, -1274308.3, -0.038752433, 0.000006402949, -0.00007264451, -1250700.1, -24737.016, 0.0, 10.000023, 9.968823 
2.485001e+3, 1.8486437e+2, -1162619.3, -1195718.1, 0.049150527, 0.0000063787606, 0.000067450535, -1162619.3, -34290.066, 0.0, 10.000023, 9.956385 
2.485001e+3, 1.9482079e+2, -1064469.8, -1097831.1, -0.04529258, 0.000006366187, -0.000056597517, -1064469.8, -33713.563, 0.0, 10.000023, 9.956041 
2.485001e+3, 2.0477055e+2, -976306.0, -1019433.25, 0.044111956, 0.0000063454913, 0.000069006936, -976306.0, -43057.344, 0.0, 10.000023, 9.94328 
2.485001e+3, 2.1471387e+2, -878019.2, -921408.3, -0.05135656, 0.0000063159973, -0.00012590238, -878019.2, -42215.06, 0.0, 10.000023, 9.942939 
2.485001e+3, 2.2465049e+2, -789733.25, -843143.3, 0.040126916, 0.000006291584, 0.00012176568, -789733.25, -51307.992, 0.0, 10.000023, 9.929897 
2.485001e+3, 2.3458044e+2, -691299.94, -744965.06, -0.047588583, 0.000006272921, -0.0000880111, -691299.94, -50188.35, 0.0, 10.000023, 9.929566 
2.485001e+3, 2.4450347e+2, -602976.0, -667017.5, 0.039586525, 0.000006257463, 0.000075442724, -602976.0, -59109.984, 0.0, 10.000023, 9.916125 
2.485001e+3, 2.544197e+2, -504223.56, -568342.2, -0.04837169, 0.000006245823, -0.00010606941, -504223.56, -57536.746, 0.0, 10.000023, 9.916025 
2.485001e+3, 2.6432887e+2, -415988.28, -490986.88, 0.039892063, 0.0000062326685, 0.00014119672, -415988.28, -66411.26, 0.0, 10.000022, 9.901955 
2.485001e+3, 2.7423137e+2, -316703.25, -391373.94, -0.046093307, 0.0000062175727, -0.00020290418, -316703.25, -64170.793, 0.0, 10.000022, 9.902374 
2.485001e+3, 2.841257e+2, -230230.08, -318080.44, 0.038599078, 0.0000062044464, 0.00022953023, -230230.08, -74661.55, 0.0, 10.000022, 9.885428 
2.485001e+3, 2.9401216e+2, -130524.11, -217764.34, -0.039451096, 0.00000619402, -0.00025290455, -130524.11, -71843.055, 0.0, 10.000022, 9.886207 
2.485001e+3, 3.039266e+2, -40780.504, -84749.914, 0.044148583, 0.0000061818496, 0.00017349073, -40780.504, -40780.504, 0.0, 10.000022, 9.9421625 
2.485001e+3, 3.138706e+2, -39702.547, -82511.016, -0.032911915, 0.000006167078, -0.000054928256, -39702.547, -39702.547, 0.0, 10.000022, 9.943673 
2.495001e+3, 1.2499356e+2, -1719917.8, -1724222.6, 0.028276999, 0.0000067383467, 0.000019868117, -1719917.8, -4854.6885, 0.0, 10.000024, 9.994316 
2.495001e+3, 1.349878e+2, -1622537.6, -1627433.1, -0.07186662, 0.000006667449, -0.000068850866, -1622537.6, -5418.111, 0.0, 10.000024, 9.993533 
2.495001e+3, 1.4497533e+2, -1534436.3, -1548144.3, 0.018908557, 0.0000066222037, 0.00007400216, -1534436.3, -15194.525, 0.0, 10.000024, 9.9818535 
2.495001e+3, 1.5495722e+2, -1436708.9, -1450820.1, -0.080635175, 0.000006601394, -0.000055616005, -1436708.9, -15289.514, 0.0, 10.000023, 9.981322 
2.495001e+3, 1.6493244e+2, -1348658.1, -1371950.6, 0.016971458, 0.0000065788563, 0.00004807216, -1348658.1, -24996.11, 0.0, 10.000023, 9.969237 
2.495001e+3, 1.7490172e+2, -1250700.4, -1274308.6, -0.078725465, 0.0000065545582, -0.00007262635, -1250700.4, -24737.27, 0.0, 10.000023, 9.968823 
2.495001e+3, 1.8486437e+2, -1162619.5, -1195718.5, 0.013507291, 0.0000065296535, 0.00006747264, -1162619.5, -34290.316, 0.0, 10.000023, 9.956385 
2.495001e+3, 1.948208e+2, -1064470.0, -1097831.5, -0.08088712, 0.000006504109, -0.000056573335, -1064470.0, -33713.805, 0.0, 10.000023, 9.956041 
2.495001e+3, 2.0477055e+2, -976306.2, -1019433.7, 0.015873391, 0.0000064780556, 0.00006903256, -976306.2, -43057.586, 0.0, 10.000023, 9.943279 
2.495001e+3, 2.1471387e+2, -878019.4, -921408.7, -0.079444036, 0.000006451449, -0.00012587599, -878019.4, -42215.297, 0.0, 10.000023, 9.942939 
2.495001e+3, 2.2465049e+2, -789733.44, -843143.75, 0.01235459, 0.00000643191, 0.0001217868, -789733.44, -51308.215, 0.0, 10.000023, 9.929897 
2.495001e+3, 2.3458044e+2, -691300.1, -744965.44, -0.07535196, 0.0000064203673, -0.00008800209, -691300.1, -50188.566, 0.0, 10.000023, 9.929565 
2.495001e+3, 2.4450347e+2, -602976.2, -667017.9, 0.017041491, 0.0000064040596, 0.00007544955, -602976.2, -59110.203, 0.0, 10.000023, 9.916125 
2.495001e+3, 2.544197e+2, -504223.75, -568342.56, -0.07066716, 0.000006382048, -0.000106052925, -504223.75, -57536.96, 0.0, 10.000023, 9.916025 
2.495001e+3, 2.643289e+2, -415988.5, -490987.28, 0.022338623, 0.0000063645125, 0.00014121519, -415988.5, -66411.48, 0.0, 10.000022, 9.901954 
2.495001e+3, 2.7423137e+2, -316703.44, -391374.3, -0.06332979, 0.0000063526822, -0.00020289356, -316703.44, -64171.0, 0.0, 10.000022, 9.902374 
2.495001e+3, 2.841257e+2, -230230.27, -318080.8, 0.02522993, 0.000006342457, 0.00022953845, -230230.27, -74661.74, 0.0, 10.000022, 9.885428 
2.495001e+3, 2.9401216e+2, -130524.29, -217764.7, -0.052473336, 0.0000063343955, -0.00025289122, -130524.29, -71843.24, 0.0, 10.000022, 9.886207 
2.495001e+3, 3.039266e+2, -40780.688, -84750.3, 0.034721453, 0.0000063220696, 0.00017350508, -40780.688, -40780.688, 0.0, 10.000022, 9.942162 
2.495001e+3, 3.138706e+2, -39702.73, -82511.4, -0.041917916, 0.0000063034026, -0.000054919074, -39702.73, -39702.73, 0.0, 10.000022, 9.943673 
2.5050008e+3, 1.2499357e+2, -1719916.1, -1724222.1, 0.07320707, 0.0000068899117, 0.0000199225, -1719916.1, -4853.1304, 0.0, 10.000025, 9.994315 
2.5050008e+3, 1.349878e+2, -1622536.0, -1627432.6, -0.0310354, 0.0000068142226, -0.00006887619, -1622536.0, -5416.548, 0.0, 10.000025, 9.993533 
2.5050008e+3, 1.4497533e+2, -1534434.6, -1548143.6, 0.059954118, 0.0000067668566, 0.00007409447, -1534434.6, -15192.968, 0.0, 10.000025, 9.9818535 
2.5050008e+3, 1.5495722e+2, -1436707.3, -1450819.5, -0.040535886, 0.00000674658, -0.000055587676, -1436707.3, -15287.981, 0.0, 10.000025, 9.981321 
2.5050008e+3, 1.6493244e+2, -1348656.5, -1371950.1, 0.05722295, 0.000006725481, 0.00004807774, -1348656.5, -24994.592, 0.0, 10.000024, 9.969237 
2.5050008e+3, 1.7490174e+2, -1250698.8, -1274308.1, -0.042971257, 0.0000067035453, -0.00007260139, -1250698.8, -24735.764, 0.0, 10.000024, 9.968823 
2.5050008e+3, 1.8486439e+2, -1162618.0, -1195718.0, 0.050342757, 0.0000066767184, 0.00006750446, -1162618.0, -34288.816, 0.0, 10.000024, 9.956384 
2.5050008e+3, 1.948208e+2, -1064468.5, -1097831.1, -0.050551616, 0.0000066447665, -0.00005654777, -1064468.5, -33712.297, 0.0, 10.000024, 9.956041 
2.5050008e+3, 2.0477055e+2, -976304.7, -1019433.2, 0.04633779, 0.0000066175057, 0.00006905436, -976304.7, -43056.09, 0.0, 10.000024, 9.943279 
2.5050008e+3, 2.1471387e+2, -878017.9, -921408.25, -0.04885754, 0.0000065953227, -0.00012585525, -878017.9, -42213.83, 0.0, 10.000024, 9.942939 
2.5050008e+3, 2.246505e+2, -789731.94, -843143.25, 0.043013707, 0.0000065776853, 0.00012180553, -789731.94, -51306.758, 0.0, 10.000024, 9.929896 
2.5050008e+3, 2.3458046e+2, -691298.6, -744965.0, -0.05134798, 0.0000065651875, -0.00008798644, -691298.6, -50187.117, 0.0, 10.000024, 9.929565 
2.5050008e+3, 2.4450347e+2, -602974.75, -667017.44, 0.04128428, 0.000006547281, 0.00007546469, -602974.75, -59108.754, 0.0, 10.000024, 9.916125 
2.5050008e+3, 2.544197e+2, -504222.28, -568342.1, -0.0504669, 0.0000065229056, -0.00010603523, -504222.28, -57535.51, 0.0, 10.000024, 9.916025 
2.5050008e+3, 2.643289e+2, -415987.03, -490986.84, 0.042803545, 0.0000065041168, 0.00014123156, -415987.03, -66410.03, 0.0, 10.000024, 9.901954 
2.5050008e+3, 2.7423137e+2, -316702.0, -391373.88, -0.044451203, 0.000006492447, -0.00020288344, -316702.0, -64169.574, 0.0, 10.000024, 9.902374 
2.5050008e+3, 2.841257e+2, -230228.83, -318080.38, 0.043713223, 0.000006482539, 0.00022954635, -230228.83, -74660.32, 0.0, 10.000024, 9.885427 
2.5050008e+3, 2.9401216e+2, -130522.87, -217764.3, -0.041714013, 0.0000064750016, -0.00025287998, -130522.87, -71841.836, 0.0, 10.000023, 9.886207 
2.5050008e+3, 3.039266e+2, -40779.29, -84749.91, 0.044691723, 0.0000064632454, 0.00017351547, -40779.29, -40779.29, 0.0, 10.000023, 9.942162 
2.5050008e+3, 3.138706e+2, -39701.332, -82511.016, -0.032289725, 0.0000064452147, -0.000054915803, -39701.332, -39701.332, 0.0, 10.000023, 9.943673 
2.515001e+3, 1.2499358e+2, -1719916.4, -1724222.5, 0.028283527, 0.0000070366495, 0.000019975143, -1719916.4, -4853.4272, 0.0, 10.000025, 9.994315 
2.515001e+3, 1.349878e+2, -1622536.3, -1627433.0, -0.07596752, 0.000006964318, -0.0000688924, -1622536.3, -5416.84, 0.0, 10.000025, 9.993533 
2.515001e+3, 1.4497533e+2, -1534434.9, -1548144.1, 0.014030215, 0.000006919632, 0.00007419789, -1534434.9, -15193.248, 0.0, 10.000025, 9.981853 
2.515001e+3, 1.5495722e+2, -1436707.5, -1450820.0, -0.08646229, 0.0000069013217, -0.00005556464, -1436707.5, -15288.256, 0.0, 10.000025, 9.981321 
2.515001e+3, 1.6493246e+2, -1348656.8, -1371950.5, 0.015395028, 0.0000068781146, 0.000048076494, -1348656.8, -24994.861, 0.0, 10.000024, 9.969236 
2.515001e+3, 1.7490174e+2, -1250699.0, -1274308.6, -0.084779315, 0.0000068499126, -0.00007256962, -1250699.0, -24736.03, 0.0, 10.000024, 9.9688225 
2.515001e+3, 1.8486439e+2, -1162618.1, -1195718.5, 0.01704238, 0.0000068199565, 0.00006754599, -1162618.1, -34289.08, 0.0, 10.000024, 9.956384 
2.515001e+3, 1.948208e+2, -1064468.8, -1097831.5, -0.0837545, 0.0000067881583, -0.000056520817, -1064468.8, -33712.56, 0.0, 10.000024, 9.95604 
2.515001e+3, 2.0477055e+2, -976304.9, -1019433.56, 0.0125160385, 0.0000067638393, 0.00006907235, -976304.9, -43056.336, 0.0, 10.000024, 9.943279 
2.515001e+3, 2.1471387e+2, -878018.1, -921408.6, -0.08269343, 0.0000067476158, -0.00012584015, -878018.1, -42214.066, 0.0, 10.000024, 9.942938 
2.515001e+3, 2.246505e+2, -789732.1, -843143.7, 0.014968952, 0.0000067289084, 0.00012182189, -789732.1, -51306.996, 0.0, 10.000024, 9.929896 
2.515001e+3, 2.3458046e+2, -691298.9, -744965.44, -0.079204686, 0.0000067073825, -0.000087964145, -691298.9, -50187.348, 0.0, 10.000024, 9.929565 
2.515001e+3, 2.4450348e+2, -602974.94, -667017.9, 0.019721184, 0.0000066871294, 0.00007548814, -602974.94, -59108.984, 0.0, 10.000024, 9.916124 
2.515001e+3, 2.544197e+2, -504222.5, -568342.5, -0.071728826, 0.000006668395, -0.00010601632, -504222.5, -57535.74, 0.0, 10.000024, 9.916025 
2.515001e+3, 2.643289e+2, -415987.22, -490987.25, 0.023529276, 0.000006651479, 0.00014124585, -415987.22, -66410.25, 0.0, 10.000024, 9.901954 
2.515001e+3, 2.7423137e+2, -316702.2, -391374.28, -0.063593395, 0.0000066368666, -0.00020287384, -316702.2, -64169.785, 0.0, 10.000024, 9.902373 
2.515001e+3, 2.841257e+2, -230229.02, -318080.78, 0.028565401, 0.000006624693, 0.00022955392, -230229.02, -74660.53, 0.0, 10.000024, 9.885427 
2.515001e+3, 2.9401216e+2, -130523.06, -217764.7, -0.056502927, 0.0000066158386, -0.0002528708, -130523.06, -71842.04, 0.0, 10.000023, 9.886206 
2.515001e+3, 3.039266e+2, -40779.473, -84750.3, 0.03555804, 0.000006605378, 0.00017352191, -40779.473, -40779.473, 0.0, 10.000023, 9.942162 
2.515001e+3, 3.138706e+2, -39701.516, -82511.4, -0.040761203, 0.000006592513, -0.000054918437, -39701.516, -39701.516, 0.0, 10.000023, 9.943673 
2.525001e+3, 1.24993585e+2, -1719914.6, -1724222.0, 0.08571166, 0.000007183562, 0.000020029636, -1719914.6, -4851.761, 0.0, 10.000026, 9.994315 
2.525001e+3, 1.3498782e+2, -1622534.6, -1627432.5, -0.027614117, 0.0000071194377, -0.00006892559, -1622534.6, -5415.228, 0.0, 10.000026, 9.993532 
2.525001e+3, 1.4497536e+2, -1534433.3, -1548143.5, 0.062002197, 0.000007078075, 0.000074288255, -1534433.3, -15191.648, 0.0, 10.000026, 9.981853 
2.525001e+3, 1.5495723e+2, -1436705.9, -1450819.4, -0.04041756, 0.0000070581405, -0.000055537632, -1436705.9, -15286.659, 0.0, 10.000026, 9.981321 
2.525001e+3, 1.6493246e+2, -1348655.1, -1371950.0, 0.061014038, 0.000007030961, 0.00004808288, -1348655.1, -24993.271, 0.0, 10.000026, 9.969236 
2.525001e+3, 1.7490174e+2, -1250697.4, -1274308.0, -0.04799745, 0.000006996389, -0.000072540206, -1250697.4, -24734.438, 0.0, 10.000026, 9.9688225 
2.525001e+3, 1.8486439e+2, -1162616.5, -1195717.9, 0.053342257, 0.0000069660246, 0.00006758128, -1162616.5, -34287.496, 0.0, 10.000025, 9.956384 
2.525001e+3, 1.948208e+2, -1064467.1, -1097831.0, -0.048437003, 0.0000069400567, -0.000056497636, -1064467.1, -33711.008, 0.0, 10.000025, 9.95604 
2.525001e+3, 2.0477055e+2, -976303.3, -1019433.06, 0.04770286, 0.00000691753, 0.00006909042, -976303.3, -43054.797, 0.0, 10.000025, 9.943279 
2.525001e+3, 2.1471389e+2, -878016.56, -921408.1, -0.053514123, 0.0000068987265, -0.00012581961, -878016.56, -42212.53, 0.0, 10.000025, 9.942938 
2.525001e+3, 2.246505e+2, -789730.56, -843143.2, 0.0436528, 0.0000068772547, 0.000121842815, -789730.56, -51305.457, 0.0, 10.000025, 9.929896 
2.525001e+3, 2.3458046e+2, -691297.3, -744964.94, -0.056003917, 0.0000068527565, -0.000087945155, -691297.3, -50185.82, 0.0, 10.000025, 9.929565 
2.525001e+3, 2.4450348e+2, -602973.4, -667017.4, 0.04239694, 0.000006832412, 0.000075506316, -602973.4, -59107.465, 0.0, 10.000025, 9.916124 
2.525001e+3, 2.544197e+2, -504220.97, -568342.06, -0.053360373, 0.0000068170266, -0.00010599761, -504220.97, -57534.24, 0.0, 10.000025, 9.916024 
2.525001e+3, 2.643289e+2, -415985.72, -490986.78, 0.04172718, 0.000006801209, 0.00014126334, -415985.72, -66408.76, 0.0, 10.000025, 9.901953 
2.525001e+3, 2.7423137e+2, -316700.7, -391373.84, -0.04878575, 0.000006784824, -0.00020285978, -316700.7, -64168.3, 0.0, 10.000025, 9.902373 
2.525001e+3, 2.841257e+2, -230227.52, -318080.34, 0.044918433, 0.0000067714104, 0.00022956442, -230227.52, -74659.055, 0.0, 10.000025, 9.885427 
2.525001e+3, 2.9401216e+2, -130521.57, -217764.27, -0.040974066, 0.0000067620595, -0.000252864, -130521.57, -71840.56, 0.0, 10.000025, 9.886206 
2.525001e+3, 3.039266e+2, -40778.004, -84749.89, 0.051151503, 0.0000067511414, 0.00017352775, -40778.004, -40778.004, 0.0, 10.000025, 9.942162 
2.525001e+3, 3.138706e+2, -39700.055, -82510.99, -0.033275213, 0.00000673787, -0.00005490957, -39700.055, -39700.055, 0.0, 10.000025, 9.943672 
2.535001e+3, 1.24993585e+2, -1719915.0, -1724222.4, 0.02952714, 0.000007330649, 0.000020086056, -1719915.0, -4852.082, 0.0, 10.000026, 9.994314 
2.535001e+3, 1.3498782e+2, -1622534.9, -1627433.0, -0.08380844, 0.0000072795806, -0.000068975765, -1622534.9, -5415.543, 0.0, 10.000026, 9.993532 
2.535001e+3, 1.4497536e+2, -1534433.5, -1548144.0, 0.016640516, 0.0000072421844, 0.000074365584, -1534433.5, -15191.936, 0.0, 10.000026, 9.981853 
2.535001e+3, 1.5495723e+2, -1436706.1, -1450819.9, -0.08576469, 0.000007217037, -0.000055506647, -1436706.1, -15286.94, 0.0, 10.000026, 9.98132 
2.535001e+3, 1.6493246e+2, -1348655.4, -1371950.5, 0.021015145, 0.0000071840213, 0.000048096896, -1348655.4, -24993.563, 0.0, 10.000026, 9.969236 
2.535001e+3, 1.7490175e+2, -1250697.6, -1274308.5, -0.08796893, 0.0000071429754, -0.00007251313, -1250697.6, -24734.725, 0.0, 10.000026, 9.9688225 
2.535001e+3, 1.8486439e+2, -1162616.8, -1195718.4, 0.013617052, 0.000007114922, 0.00006761032, -1162616.8, -34287.766, 0.0, 10.000025, 9.956384 
2.535001e+3, 1.9482082e+2, -1064467.4, -1097831.4, -0.088160895, 0.000007100458, -0.00005647822, -1064467.4, -33711.27, 0.0, 10.000025, 9.95604 
2.535001e+3, 2.0477057e+2, -976303.5, -1019433.5, 0.014880363, 0.0000070785754, 0.00006910857, -976303.5, -43055.055, 0.0, 10.000025, 9.943278 
2.535001e+3, 2.1471389e+2, -878016.75, -921408.56, -0.08619555, 0.0000070486562, -0.00012579365, -878016.75, -42212.785, 0.0, 10.000025, 9.942938 
2.535001e+3, 2.246505e+2, -789730.8, -843143.6, 0.015637262, 0.000007022726, 0.00012186832, -789730.8, -51305.71, 0.0, 10.000025, 9.929896 
2.535001e+3, 2.3458046e+2, -691297.5, -744965.4, -0.08386794, 0.0000070013098, -0.00008792947, -691297.5, -50186.066, 0.0, 10.000025, 9.929564 
2.535001e+3, 2.4450348e+2, -602973.6, -667017.8, 0.017208673, 0.0000069831276, 0.00007551921, -602973.6, -59107.703, 0.0, 10.000025, 9.916124 
2.535001e+3, 2.544197e+2, -504221.2, -568342.5, -0.07842132, 0.0000069687994, -0.00010597911, -504221.2, -57534.473, 0.0, 10.000025, 9.916024 
2.535001e+3, 2.643289e+2, -415985.9, -490987.22, 0.02238556, 0.000006953307, 0.00014128404, -415985.9, -66408.984, 0.0, 10.000025, 9.901953 
2.535001e+3, 2.7423137e+2, -316700.9, -391374.25, -0.0677456, 0.0000069363186, -0.00020284129, -316700.9, -64168.52, 0.0, 10.000025, 9.902373 
2.535001e+3, 2.841257e+2, -230227.72, -318080.75, 0.030044125, 0.0000069226908, 0.00022957787, -230227.72, -74659.266, 0.0, 10.000025, 9.8854265 
2.535001e+3, 2.9401216e+2, -130521.766, -217764.67, -0.05548167, 0.000006913663, -0.00025285952, -130521.766, -71840.77, 0.0, 10.000025, 9.886206 
2.535001e+3, 3.039266e+2, -40778.207, -84750.305, 0.040137146, 0.0000069005346, 0.00017353296, -40778.207, -40778.207, 0.0, 10.000025, 9.942161 
2.535001e+3, 3.138706e+2, -39700.258, -82511.414, -0.0438809, 0.000006881288, -0.000054889202, -39700.258, -39700.258, 0.0, 10.000025, 9.943672 
2.545001e+3, 1.2499359e+2, -1719913.3, -1724221.9, 0.082559176, 0.000007496958, 0.000020150745, -1719913.3, -4850.3916, 0.0, 10.000028, 9.994314 
2.545001e+3, 1.3498785e+2, -1622533.1, -1627432.4, -0.027740683, 0.0000074378686, -0.00006902209, -1622533.1, -5413.8394, 0.0, 10.000027, 9.993532 
2.545001e+3, 1.4497536e+2, -1534431.6, -1548143.4, 0.07375752, 0.0000073971564, 0.00007444908, -1534431.6, -15190.23, 0.0, 10.000027, 9.981853 
2.545001e+3, 1.5495725e+2, -1436704.4, -1450819.3, -0.043499757, 0.000007373391, -0.00005547058, -1436704.4, -15285.258, 0.0, 10.000027, 9.98132 
2.545001e+3, 1.6493247e+2, -1348653.6, -1371949.9, 0.062046975, 0.000007341533, 0.000048113645, -1348653.6, -24991.896, 0.0, 10.000027, 9.969235 
2.545001e+3, 1.7490175e+2, -1250696.0, -1274308.0, -0.04561882, 0.0000073014176, -0.000072486975, -1250696.0, -24733.078, 0.0, 10.000027, 9.9688225 
2.545001e+3, 1.848644e+2, -1162615.1, -1195717.8, 0.055171486, 0.0000072730445, 0.000067639434, -1162615.1, -34286.125, 0.0, 10.000027, 9.956383 
2.545001e+3, 1.9482082e+2, -1064465.6, -1097830.9, -0.053483743, 0.0000072569514, -0.000056452915, -1064465.6, -33709.64, 0.0, 10.000027, 9.95604 
2.545001e+3, 2.0477057e+2, -976301.9, -1019433.0, 0.050194893, 0.0000072339926, 0.00006913158, -976301.9, -43053.434, 0.0, 10.000027, 9.943278 
2.545001e+3, 2.1471389e+2, -878015.1, -921408.06, -0.05611679, 0.0000072035946, -0.00012577132, -878015.1, -42211.176, 0.0, 10.000026, 9.942937 
2.545001e+3, 2.246505e+2, -789729.1, -843143.1, 0.046183087, 0.000007177134, 0.000121890174, -789729.1, -51304.11, 0.0, 10.000026, 9.929895 
2.545001e+3, 2.3458046e+2, -691295.9, -744964.9, -0.0557776, 0.0000071551294, -0.00008790791, -691295.9, -50184.477, 0.0, 10.000026, 9.929564 
2.545001e+3, 2.4450348e+2, -602972.0, -667017.3, 0.04533366, 0.000007136635, 0.00007553776, -602972.0, -59106.12, 0.0, 10.000026, 9.916124 
2.545001e+3, 2.544197e+2, -504219.56, -568342.0, -0.05391713, 0.000007122324, -0.00010596679, -504219.56, -57532.902, 0.0, 10.000026, 9.916024 
2.545001e+3, 2.643289e+2, -415984.34, -490986.75, 0.047110833, 0.00000710684, 0.00014129463, -415984.34, -66407.42, 0.0, 10.000026, 9.901953 
2.545001e+3, 2.7423137e+2, -316699.3, -391373.78, -0.050551075, 0.000007089847, -0.00020282668, -316699.3, -64166.965, 0.0, 10.000026, 9.902372 
2.545001e+3, 2.841257e+2, -230226.16, -318080.3, 0.04481518, 0.000007075904, 0.00022959417, -230226.16, -74657.72, 0.0, 10.000026, 9.8854265 
2.545001e+3, 2.9401216e+2, -130520.21, -217764.23, -0.045677274, 0.0000070661363, -0.00025284474, -130520.21, -71839.234, 0.0, 10.000026, 9.886205 
2.545001e+3, 3.039266e+2, -40776.676, -84749.89, 0.04897285, 0.0000070521114, 0.00017354493, -40776.676, -40776.676, 0.0, 10.000026, 9.942161 
2.545001e+3, 3.138706e+2, -39698.723, -82511.0, -0.0394054, 0.0000070317424, -0.000054881937, -39698.723, -39698.723, 0.0, 10.000026, 9.943672 
2.555001e+3, 1.249936e+2, -1719913.5, -1724222.3, 0.030954083, 0.000007682481, 0.000020223786, -1719913.5, -4850.708, 0.0, 10.000028, 9.994314 
2.555001e+3, 1.3498785e+2, -1622533.4, -1627432.9, -0.07935585, 0.0000075943026, -0.00006906457, -1622533.4, -5414.15, 0.0, 10.000027, 9.993531 
2.555001e+3, 1.4497538e+2, -1534432.0, -1548143.9, 0.024675392, 0.0000075429957, 0.00007453873, -1534432.0, -15190.555, 0.0, 10.000027, 9.981852 
2.555001e+3, 1.5495725e+2, -1436704.6, -1450819.8, -0.09257826, 0.0000075272037, -0.000055429424, -1436704.6, -15285.574, 0.0, 10.000027, 9.98132 
2.555001e+3, 1.6493247e+2, -1348653.9, -1371950.4, 0.018512262, 0.0000075034964, 0.00004813313, -1348653.9, -24992.188, 0.0, 10.000027, 9.969235 
2.555001e+3, 1.7490175e+2, -1250696.1, -1274308.4, -0.08912617, 0.000007471712, -0.000072461735, -1250696.1, -24733.365, 0.0, 10.000027, 9.968822 
2.555001e+3, 1.848644e+2, -1162615.4, -1195718.3, 0.014833625, 0.0000074403883, 0.0000676686, -1162615.4, -34286.41, 0.0, 10.000027, 9.956383 
2.555001e+3, 1.9482082e+2, -1064465.9, -1097831.4, -0.09378627, 0.00000740954, -0.00005642173, -1064465.9, -33709.92, 0.0, 10.000027, 9.956039 
2.555001e+3, 2.0477057e+2, -976302.06, -1019433.44, 0.016238635, 0.0000073837846, 0.00006915943, -976302.06, -43053.707, 0.0, 10.000027, 9.943278 
2.555001e+3, 2.1471389e+2, -878015.3, -921408.5, -0.089943364, 0.00000736354, -0.00012575257, -878015.3, -42211.44, 0.0, 10.000026, 9.942937 
2.555001e+3, 2.2465052e+2, -789729.4, -843143.56, 0.016455557, 0.0000073404763, 0.00012190839, -789729.4, -51304.367, 0.0, 10.000026, 9.929895 
2.555001e+3, 2.3458047e+2, -691296.1, -744965.3, -0.08537263, 0.000007314214, -0.000087880486, -691296.1, -50184.73, 0.0, 10.000026, 9.929564 
2.555001e+3, 2.4450348e+2, -602972.25, -667017.75, 0.019093782, 0.0000072929333, 0.00007556197, -602972.25, -59106.367, 0.0, 10.000026, 9.916123 
2.555001e+3, 2.544197e+2, -504219.78, -568342.44, -0.07999704, 0.0000072775997, -0.00010596066, -504219.78, -57533.145, 0.0, 10.000026, 9.916024 
2.555001e+3, 2.643289e+2, -415984.56, -490987.2, 0.026657443, 0.000007261807, 0.00014129512, -415984.56, -66407.664, 0.0, 10.000026, 9.901953 
2.555001e+3, 2.7423137e+2, -316699.53, -391374.22, -0.07062862, 0.0000072454086, -0.00020281597, -316699.53, -64167.203, 0.0, 10.000026, 9.902372 
2.555001e+3, 2.841257e+2, -230226.36, -318080.75, 0.029244542, 0.00000723105, 0.00022961333, -230226.36, -74657.94, 0.0, 10.000026, 9.8854265 
2.555001e+3, 2.9401216e+2, -130520.414, -217764.66, -0.060843416, 0.0000072194794, -0.00025281962, -130520.414, -71839.45, 0.0, 10.000026, 9.886205 
2.555001e+3, 3.039266e+2, -40776.887, -84750.33, 0.03916483, 0.000007205873, 0.0001735637, -40776.887, -40776.887, 0.0, 10.000026, 9.942161 
2.555001e+3, 3.138706e+2, -39698.934, -82511.44, -0.04858528, 0.0000071892314, -0.000054887765, -39698.934, -39698.934, 0.0, 10.000026, 9.943671 
2.5650012e+3, 1.2499361e+2, -1719911.6, -1724221.6, 0.08432793, 0.000007856024, 0.00002028476, -1719911.6, -4848.9346, 0.0, 10.000029, 9.994313 
2.5650012e+3, 1.3498785e+2, -1622531.5, -1627432.3, -0.03704586, 0.000007759157, -0.00006909271, -1622531.5, -5412.376, 0.0, 10.000029, 9.993531 
2.5650012e+3, 1.4497538e+2, -1534430.1, -1548143.3, 0.06474765, 0.000007703846, 0.000074646865, -1534430.1, -15188.784, 0.0, 10.000029, 9.981852 
2.5650012e+3, 1.5495725e+2, -1436702.8, -1450819.1, -0.04766145, 0.000007688728, -0.000055398716, -1436702.8, -15283.819, 0.0, 10.000028, 9.981319 
2.5650012e+3, 1.6493247e+2, -1348652.1, -1371949.8, 0.06576488, 0.000007667242, 0.000048137437, -1348652.1, -24990.447, 0.0, 10.000028, 9.969235 
2.5650012e+3, 1.7490177e+2, -1250694.4, -1274307.9, -0.050288845, 0.000007639259, -0.000072431714, -1250694.4, -24731.652, 0.0, 10.000028, 9.968822 
2.565001e+3, 1.848644e+2, -1162613.6, -1195717.8, 0.05488355, 0.0000076069764, 0.000067706365, -1162613.6, -34284.71, 0.0, 10.000028, 9.956383 
2.565001e+3, 1.9482082e+2, -1064464.1, -1097830.8, -0.057700414, 0.0000075701887, -0.000056395038, -1064464.1, -33708.21, 0.0, 10.000028, 9.956039 
2.565001e+3, 2.0477058e+2, -976300.4, -1019432.9, 0.051070195, 0.0000075421603, 0.00006918175, -976300.4, -43052.004, 0.0, 10.000028, 9.943277 
2.565001e+3, 2.147139e+2, -878013.6, -921407.94, -0.05926887, 0.0000075236157, -0.00012572738, -878013.6, -42209.766, 0.0, 10.000028, 9.942937 
2.565001e+3, 2.2465052e+2, -789727.7, -843143.0, 0.047723055, 0.0000075022053, 0.00012193283, -789727.7, -51302.703, 0.0, 10.000028, 9.929895 
2.565001e+3, 2.3458047e+2, -691294.44, -744964.8, -0.060240332, 0.000007477543, -0.00008786088, -691294.44, -50183.08, 0.0, 10.000028, 9.9295635 
2.565001e+3, 2.4450348e+2, -602970.56, -667017.25, 0.04352191, 0.0000074555323, 0.00007557959, -602970.56, -59104.72, 0.0, 10.000028, 9.916123 
2.565001e+3, 2.544197e+2, -504218.13, -568341.94, -0.05892793, 0.0000074366867, -0.00010594161, -504218.13, -57531.5, 0.0, 10.000027, 9.916023 
2.565001e+3, 2.643289e+2, -415982.9, -490986.7, 0.04892581, 0.000007419173, 0.00014131286, -415982.9, -66406.02, 0.0, 10.000027, 9.901952 
2.565001e+3, 2.7423137e+2, -316697.9, -391373.75, -0.051905867, 0.000007403339, -0.00020280304, -316697.9, -64165.58, 0.0, 10.000027, 9.902372 
2.565001e+3, 2.841257e+2, -230224.72, -318080.25, 0.048221044, 0.000007389263, 0.00022962439, -230224.72, -74656.32, 0.0, 10.000027, 9.8854265 
2.565001e+3, 2.9401216e+2, -130518.79, -217764.19, -0.047416434, 0.0000073775773, -0.00025280632, -130518.79, -71837.84, 0.0, 10.000027, 9.886205 
2.565001e+3, 3.039266e+2, -40775.285, -84749.88, 0.053358033, 0.0000073642823, 0.00017357497, -40775.285, -40775.285, 0.0, 10.000027, 9.94216 
2.565001e+3, 3.138706e+2, -39697.348, -82511.0, -0.03300655, 0.00000734859, -0.000054884902, -39697.348, -39697.348, 0.0, 10.000027, 9.943671 
2.575001e+3, 1.24993615e+2, -1719911.9, -1724222.3, 0.03439404, 0.000008017596, 0.000020333766, -1719911.9, -4849.2793, 0.0, 10.000029, 9.994313 
2.575001e+3, 1.3498786e+2, -1622531.8, -1627432.8, -0.08698864, 0.000007932428, -0.000069106536, -1622531.8, -5412.715, 0.0, 10.000029, 9.993531 
2.575001e+3, 1.449754e+2, -1534430.4, -1548143.8, 0.013673211, 0.000007879702, 0.00007477346, -1534430.4, -15189.1, 0.0, 10.000029, 9.981852 
2.575001e+3, 1.5495726e+2, -1436703.0, -1450819.6, -0.09873899, 0.000007857962, -0.00005537845, -1436703.0, -15284.128, 0.0, 10.000028, 9.981319 
2.575001e+3, 1.6493249e+2, -1348652.4, -1371950.3, 0.016811686, 0.000007832771, 0.000048126567, -1348652.4, -24990.76, 0.0, 10.000028, 9.969234 
2.575001e+3, 1.7490177e+2, -1250694.6, -1274308.4, -0.09923249, 0.000007804061, -0.00007239692, -1250694.6, -24731.959, 0.0, 10.000028, 9.968822 
2.575001e+3, 1.8486442e+2, -1162613.9, -1195718.1, 0.017383272, 0.000007772811, 0.00006775271, -1162613.9, -34285.004, 0.0, 10.000028, 9.956382 
2.575001e+3, 1.9482084e+2, -1064464.4, -1097831.3, -0.09506987, 0.000007738895, -0.000056372835, -1064464.4, -33708.5, 0.0, 10.000028, 9.956039 
2.575001e+3, 2.0477058e+2, -976300.56, -1019433.4, 0.0127353035, 0.000007709118, 0.00006919852, -976300.56, -43052.29, 0.0, 10.000028, 9.943277 
2.575001e+3, 2.147139e+2, -878013.9, -921408.44, -0.09762515, 0.000007683822, -0.00012569576, -878013.9, -42210.043, 0.0, 10.000028, 9.942936 
2.575001e+3, 2.2465052e+2, -789727.94, -843143.5, 0.016521446, 0.000007662323, 0.000121963494, -789727.94, -51302.977, 0.0, 10.000028, 9.929894 
2.575001e+3, 2.3458047e+2, -691294.7, -744965.25, -0.091209196, 0.000007645115, -0.00008784908, -691294.7, -50183.344, 0.0, 10.000028, 9.9295635 
2.575001e+3, 2.445035e+2, -602970.75, -667017.7, 0.017635707, 0.000007624431, 0.000075590644, -602970.75, -59104.977, 0.0, 10.000028, 9.916123 
2.575001e+3, 2.5441974e+2, -504218.34, -568342.4, -0.084572054, 0.000007599585, -0.000105909654, -504218.34, -57531.75, 0.0, 10.000027, 9.916023 
2.575001e+3, 2.643289e+2, -415983.13, -490987.16, 0.027180713, 0.000007578938, 0.0001413478, -415983.13, -66406.27, 0.0, 10.000027, 9.901952 
2.575001e+3, 2.7423137e+2, -316698.13, -391374.22, -0.073390685, 0.0000075636385, -0.00020278795, -316698.13, -64165.824, 0.0, 10.000027, 9.902371 
2.575001e+3, 2.841257e+2, -230224.94, -318080.72, 0.031993967, 0.0000075505423, 0.00022962736, -230224.94, -74656.56, 0.0, 10.000027, 9.885426 
2.575001e+3, 2.9401216e+2, -130519.01, -217764.64, -0.063171215, 0.000007540429, -0.00025280484, -130519.01, -71838.07, 0.0, 10.000027, 9.886205 
2.575001e+3, 3.039266e+2, -40775.496, -84750.32, 0.04078751, 0.0000075273397, 0.00017357872, -40775.496, -40775.496, 0.0, 10.000027, 9.94216 
2.575001e+3, 3.138706e+2, -39697.555, -82511.44, -0.045205746, 0.0000075098164, -0.00005487335, -39697.555, -39697.555, 0.0, 10.000027, 9.943671 
2.5850013e+3, 1.2499362e+2, -1719909.9, -1724221.5, 0.095536575, 0.000008181842, 0.000020398547, -1719909.9, -4847.3833, 0.0, 10.00003, 9.994313 
2.5850013e+3, 1.3498786e+2, -1622529.9, -1627432.1, -0.031339932, 0.00000810735, -0.00006914373, -1622529.9, -5410.8765, 0.0, 10.00003, 9.99353 
2.5850013e+3, 1.449754e+2, -1534428.5, -1548143.1, 0.06856725, 0.000008058939, 0.000074878735, -1534428.5, -15187.274, 0.0, 10.00003, 9.981851 
2.5850013e+3, 1.5495726e+2, -1436701.1, -1450819.0, -0.048156515, 0.000008035075, -0.00005534704, -1436701.1, -15282.316, 0.0, 10.00003, 9.981319 
2.5850013e+3, 1.6493249e+2, -1348650.5, -1371949.6, 0.06763655, 0.000008004979, 0.000048132588, -1348650.5, -24988.957, 0.0, 10.00003, 9.969234 
2.5850013e+3, 1.7490177e+2, -1250692.9, -1274307.8, -0.054283284, 0.000007968524, -0.000072366754, -1250692.9, -24730.146, 0.0, 10.00003, 9.968821 
2.5850013e+3, 1.8486442e+2, -1162612.0, -1195717.5, 0.062010035, 0.000007937203, 0.00006779029, -1162612.0, -34283.2, 0.0, 10.000029, 9.956382 
2.5850013e+3, 1.9482084e+2, -1064462.6, -1097830.6, -0.055498127, 0.000007911244, -0.000056345354, -1064462.6, -33706.74, 0.0, 10.000029, 9.956038 
2.5850013e+3, 2.0477058e+2, -976298.8, -1019432.8, 0.052741073, 0.000007882482, 0.000069221016, -976298.8, -43050.54, 0.0, 10.000029, 9.943277 
2.5850013e+3, 2.147139e+2, -878012.06, -921407.9, -0.06244934, 0.00000785068, -0.00012567271, -878012.06, -42208.28, 0.0, 10.000029, 9.942936 
2.5850013e+3, 2.2465052e+2, -789726.1, -843142.94, 0.05088463, 0.000007826836, 0.000121985366, -789726.1, -51301.22, 0.0, 10.000029, 9.929894 
2.5850013e+3, 2.3458047e+2, -691292.94, -744964.7, -0.0597192, 0.000007811995, -0.00008783037, -691292.94, -50181.613, 0.0, 10.000029, 9.9295635 
2.5850013e+3, 2.445035e+2, -602969.0, -667017.2, 0.050160304, 0.000007792091, 0.00007560892, -602969.0, -59103.26, 0.0, 10.000029, 9.916122 
2.5850013e+3, 2.5441974e+2, -504216.63, -568341.9, -0.062263403, 0.000007766125, -0.00010588857, -504216.63, -57530.04, 0.0, 10.000029, 9.916023 
2.5850013e+3, 2.643289e+2, -415981.38, -490986.63, 0.046455182, 0.000007744414, 0.00014136835, -415981.38, -66404.57, 0.0, 10.000029, 9.901952 
2.5850013e+3, 2.7423137e+2, -316696.4, -391373.72, -0.05546377, 0.000007728126, -0.0002027722, -316696.4, -64164.125, 0.0, 10.000029, 9.902371 
2.5850013e+3, 2.841257e+2, -230223.23, -318080.22, 0.05207307, 0.000007715222, 0.00022963928, -230223.23, -74654.87, 0.0, 10.000029, 9.885426 
2.5850013e+3, 2.9401216e+2, -130517.32, -217764.16, -0.04645483, 0.000007706918, -0.0002527954, -130517.32, -71836.4, 0.0, 10.000029, 9.886204 
2.5850013e+3, 3.039266e+2, -40773.832, -84749.86, 0.055145726, 0.000007693318, 0.00017358782, -40773.832, -40773.832, 0.0, 10.000029, 9.94216 
2.5850013e+3, 3.138706e+2, -39695.883, -82510.98, -0.04383997, 0.000007671828, -0.00005486141, -39695.883, -39695.883, 0.0, 10.000028, 9.94367 
2.5950012e+3, 1.2499363e+2, -1719910.3, -1724222.1, 0.033823125, 0.000008348761, 0.000020479203, -1719910.3, -4847.744, 0.0, 10.00003, 9.994312 
2.5950012e+3, 1.3498788e+2, -1622530.1, -1627432.6, -0.09306425, 0.000008283926, -0.00006920429, -1622530.1, -5411.2305, 0.0, 10.00003, 9.99353 
2.5950012e+3, 1.449754e+2, -1534428.8, -1548143.6, 0.015786992, 0.000008241555, 0.00007496271, -1534428.8, -15187.603, 0.0, 10.00003, 9.981851 
2.5950012e+3, 1.5495726e+2, -1436701.5, -1450819.5, -0.10092556, 0.000008220063, -0.000055304503, -1436701.5, -15282.638, 0.0, 10.00003, 9.981319 
2.5950012e+3, 1.6493249e+2, -1348650.8, -1371950.1, 0.02295916, 0.0000081838625, 0.00004815549, -1348650.8, -24989.285, 0.0, 10.00003, 9.969234 
2.5950012e+3, 1.7490178e+2, -1250693.1, -1274308.3, -0.0989193, 0.00000813265, -0.00007234121, -1250693.1, -24730.469, 0.0, 10.00003, 9.968821 
2.5950012e+3, 1.8486442e+2, -1162612.3, -1195718.0, 0.015888883, 0.000008100154, 0.00006781911, -1162612.3, -34283.508, 0.0, 10.000029, 9.956382 
2.5950012e+3, 1.9482084e+2, -1064462.9, -1097831.1, -0.10163814, 0.000008087237, -0.000056312605, -1064462.9, -33707.043, 0.0, 10.000029, 9.956038 
2.5950012e+3, 2.0477058e+2, -976299.06, -1019433.25, 0.018093823, 0.00000806225, 0.000069249225, -976299.06, -43050.836, 0.0, 10.000029, 9.943276 
2.5950012e+3, 2.147139e+2, -878012.3, -921408.4, -0.09686082, 0.000008024188, -0.00012565822, -878012.3, -42208.574, 0.0, 10.000029, 9.942936 
2.5950012e+3, 2.2465053e+2, -789726.4, -843143.4, 0.015371879, 0.0000079957435, 0.000121998455, -789726.4, -51301.5, 0.0, 10.000029, 9.929894 
2.5950012e+3, 2.3458047e+2, -691293.1, -744965.2, -0.09527, 0.000007978184, -0.000087804736, -691293.1, -50181.887, 0.0, 10.000029, 9.929563 
2.5950012e+3, 2.445035e+2, -602969.25, -667017.7, 0.024119884, 0.000007958514, 0.00007563442, -602969.25, -59103.54, 0.0, 10.000029, 9.916122 
2.5950012e+3, 2.5441974e+2, -504216.84, -568342.4, -0.087847605, 0.000007936307, -0.000105878345, -504216.84, -57530.313, 0.0, 10.000029, 9.916022 
2.5950012e+3, 2.643289e+2, -415981.63, -490987.1, 0.023892343, 0.0000079156, 0.00014137452, -415981.63, -66404.82, 0.0, 10.000029, 9.901951 
2.5950012e+3, 2.742314e+2, -316696.63, -391374.16, -0.07782634, 0.000007896799, -0.0002027558, -316696.63, -64164.375, 0.0, 10.000029, 9.902371 
2.5950012e+3, 2.841257e+2, -230223.47, -318080.7, 0.03346552, 0.000007883301, 0.00022966016, -230223.47, -74655.12, 0.0, 10.000029, 9.885426 
2.5950012e+3, 2.9401216e+2, -130517.54, -217764.61, -0.06472572, 0.000007877043, -0.00025277803, -130517.54, -71836.64, 0.0, 10.000029, 9.886204 
2.5950012e+3, 3.039266e+2, -40774.066, -84750.34, 0.04518558, 0.000007862218, 0.00017360225, -40774.066, -40774.066, 0.0, 10.000029, 9.942159 
2.5950012e+3, 3.138706e+2, -39696.117, -82511.46, -0.052825313, 0.000007834625, -0.000054849086, -39696.117, -39696.117, 0.0, 10.000028, 9.94367 
2.6050013e+3, 1.2499364e+2, -1719908.3, -1724221.4, 0.095424764, 0.000008529243, 0.000020550036, -1719908.3, -4845.803, 0.0, 10.000031, 9.994312 
2.6050013e+3, 1.3498788e+2, -1622528.3, -1627432.0, -0.03132265, 0.000008465244, -0.000069259295, -1622528.3, -5409.3027, 0.0, 10.000031, 9.99353 
2.6050013e+3, 1.4497541e+2, -1534426.8, -1548142.9, 0.07972974, 0.000008421511, 0.00007505837, -1534426.8, -15185.68, 0.0, 10.0000305, 9.981851 
2.6050013e+3, 1.5495728e+2, -1436699.5, -1450818.9, -0.05172006, 0.000008396402, -0.000055264947, -1436699.5, -15280.726, 0.0, 10.0000305, 9.981318 
2.6050013e+3, 1.649325e+2, -1348648.9, -1371949.5, 0.07018793, 0.000008359818, 0.00004817311, -1348648.9, -24987.389, 0.0, 10.0000305, 9.9692335 
2.6050013e+3, 1.7490178e+2, -1250691.1, -1274307.6, -0.053439923, 0.000008311521, -0.00007231059, -1250691.1, -24728.598, 0.0, 10.0000305, 9.968821 
2.6050013e+3, 1.8486443e+2, -1162610.4, -1195717.5, 0.059433606, 0.000008278029, 0.00006785388, -1162610.4, -34281.65, 0.0, 10.0000305, 9.956381 
2.6050013e+3, 1.9482085e+2, -1064460.9, -1097830.5, -0.064342424, 0.00000826002, -0.000056282963, -1064460.9, -33705.18, 0.0, 10.0000305, 9.956038 
2.6050013e+3, 2.047706e+2, -976297.2, -1019432.7, 0.057523586, 0.00000823515, 0.000069275266, -976297.2, -43048.984, 0.0, 10.0000305, 9.943276 
2.6050013e+3, 2.1471392e+2, -878010.44, -921407.75, -0.061374504, 0.000008202845, -0.00012563412, -878010.44, -42206.758, 0.0, 10.0000305, 9.942935 
2.6050013e+3, 2.2465053e+2, -789724.5, -843142.8, 0.049224943, 0.000008173771, 0.00012202251, -789724.5, -51299.69, 0.0, 10.00003, 9.9298935 
2.6050013e+3, 2.3458049e+2, -691291.3, -744964.6, -0.07048822, 0.000008148352, -0.00008777859, -691291.3, -50180.07, 0.0, 10.00003, 9.929563 
2.6050013e+3, 2.445035e+2, -602967.44, -667017.1, 0.049533427, 0.000008126604, 0.000075658216, -602967.44, -59101.723, 0.0, 10.00003, 9.916122 
2.6050013e+3, 2.5441974e+2, -504215.03, -568341.8, -0.05986203, 0.000008109232, -0.00010586221, -504215.03, -57528.527, 0.0, 10.00003, 9.916022 
2.6050013e+3, 2.643289e+2, -415979.8, -490986.56, 0.054106973, 0.000008090671, 0.00014138746, -415979.8, -66403.055, 0.0, 10.00003, 9.901951 
2.6050013e+3, 2.742314e+2, -316694.84, -391373.66, -0.057987794, 0.000008070579, -0.00020274038, -316694.84, -64162.613, 0.0, 10.00003, 9.902371 
2.6050013e+3, 2.841257e+2, -230221.69, -318080.16, 0.049598187, 0.00000805533, 0.00022967687, -230221.69, -74653.35, 0.0, 10.00003, 9.885425 
2.6050013e+3, 2.9401216e+2, -130515.766, -217764.11, -0.05393002, 0.000008046709, -0.00025276165, -130515.766, -71834.875, 0.0, 10.00003, 9.886204 
2.6050013e+3, 3.039266e+2, -40772.316, -84749.87, 0.058611814, 0.000008031512, 0.00017361503, -40772.316, -40772.316, 0.0, 10.00003, 9.942159 
2.6050013e+3, 3.138706e+2, -39694.387, -82510.99, -0.03639112, 0.000008006505, -0.000054844746, -39694.387, -39694.387, 0.0, 10.00003, 9.94367 
2.6150012e+3, 1.24993645e+2, -1719908.5, -1724221.9, 0.032303747, 0.00000872328, 0.000020611169, -1719908.5, -4846.1665, 0.0, 10.000031, 9.994312 
2.6150012e+3, 1.3498789e+2, -1622528.5, -1627432.5, -0.09445592, 0.0000086513055, -0.00006930874, -1622528.5, -5409.6597, 0.0, 10.000031, 9.993529 
2.6150012e+3, 1.4497541e+2, -1534427.1, -1548143.5, 0.02605659, 0.000008598806, 0.00007516573, -1534427.1, -15186.044, 0.0, 10.0000305, 9.98185 
2.6150012e+3, 1.5495728e+2, -1436699.8, -1450819.4, -0.10537936, 0.000008564099, -0.00005522837, -1436699.8, -15281.082, 0.0, 10.0000305, 9.981318 
2.6150012e+3, 1.649325e+2, -1348649.1, -1371950.0, 0.020708052, 0.0000085328475, 0.000048185462, -1348649.1, -24987.723, 0.0, 10.0000305, 9.9692335 
2.6150012e+3, 1.7490178e+2, -1250691.4, -1274308.1, -0.10289994, 0.000008505132, -0.0000722749, -1250691.4, -24728.926, 0.0, 10.0000305, 9.96882 
2.6150012e+3, 1.8486443e+2, -1162610.6, -1195718.0, 0.015090194, 0.00000847082, 0.00006789458, -1162610.6, -34281.973, 0.0, 10.0000305, 9.956381 
2.6150012e+3, 1.9482085e+2, -1064461.3, -1097831.1, -0.10862806, 0.000008429597, -0.000056256435, -1064461.3, -33705.5, 0.0, 10.0000305, 9.9560375 
2.6150012e+3, 2.047706e+2, -976297.44, -1019433.2, 0.016064577, 0.000008401186, 0.00006929914, -976297.44, -43049.29, 0.0, 10.0000305, 9.943276 
2.6150012e+3, 2.1471392e+2, -878010.7, -921408.25, -0.10277732, 0.000008386648, -0.00012560042, -878010.7, -42207.06, 0.0, 10.0000305, 9.942935 
2.6150012e+3, 2.2465053e+2, -789724.8, -843143.4, 0.018283632, 0.000008360915, 0.00012205751, -789724.8, -51299.996, 0.0, 10.00003, 9.9298935 
2.6150012e+3, 2.3458049e+2, -691291.56, -744965.1, -0.101088434, 0.000008322498, -0.00008775194, -691291.56, -50180.363, 0.0, 10.00003, 9.929563 
2.6150012e+3, 2.445035e+2, -602967.7, -667017.56, 0.01829915, 0.000008296362, 0.0000756803, -602967.7, -59102.0, 0.0, 10.00003, 9.9161215 
2.6150012e+3, 2.5441974e+2, -504215.28, -568342.3, -0.09112923, 0.0000082849, -0.000105840154, -504215.28, -57528.797, 0.0, 10.00003, 9.916022 
2.6150012e+3, 2.643289e+2, -415980.06, -490987.06, 0.030740712, 0.000008269627, 0.00014140716, -415980.06, -66403.33, 0.0, 10.00003, 9.901951 
2.6150012e+3, 2.742314e+2, -316695.1, -391374.16, -0.0808255, 0.000008249462, -0.00020272598, -316695.1, -64162.883, 0.0, 10.00003, 9.90237 
2.6150012e+3, 2.841257e+2, -230221.92, -318080.66, 0.032647222, 0.000008231307, 0.00022968941, -230221.92, -74653.61, 0.0, 10.00003, 9.885425 
2.6150012e+3, 2.9401216e+2, -130516.0, -217764.6, -0.07035243, 0.0000082159195, -0.00025274628, -130516.0, -71835.125, 0.0, 10.00003, 9.886203 
2.6150012e+3, 3.039266e+2, -40772.547, -84750.34, 0.044645343, 0.000008201201, 0.00017362615, -40772.547, -40772.547, 0.0, 10.00003, 9.942159 
2.6150012e+3, 3.138706e+2, -39694.617, -82511.47, -0.050071675, 0.000008187466, -0.00005484839, -39694.617, -39694.617, 0.0, 10.00003, 9.943669 
2.625001e+3, 1.2499365e+2, -1719906.4, -1724221.3, 0.09742632, 0.000008921465, 0.00002067856, -1719906.4, -4844.162, 0.0, 10.000032, 9.994311 
2.625001e+3, 1.3498789e+2, -1622526.4, -1627431.8, -0.039825857, 0.000008834979, -0.00006934907, -1622526.4, -5407.6377, 0.0, 10.000032, 9.993529 
2.625001e+3, 1.4497542e+2, -1534425.0, -1548142.8, 0.08070297, 0.000008776704, 0.000075283366, -1534425.0, -15184.021, 0.0, 10.000032, 9.98185 
2.625001e+3, 1.549573e+2, -1436697.8, -1450818.8, -0.050220087, 0.000008744968, -0.000055194003, -1436697.8, -15279.082, 0.0, 10.000032, 9.9813175 
2.625001e+3, 1.6493252e+2, -1348647.0, -1371949.4, 0.07515172, 0.00000871688, 0.000048191632, -1348647.0, -24985.74, 0.0, 10.000032, 9.9692335 
2.625001e+3, 1.749018e+2, -1250689.4, -1274307.5, -0.057236392, 0.00000869252, -0.00007224067, -1250689.4, -24726.977, 0.0, 10.000032, 9.96882 
2.625001e+3, 1.8486443e+2, -1162608.6, -1195717.4, 0.06300825, 0.000008657659, 0.00006793628, -1162608.6, -34280.035, 0.0, 10.000031, 9.956381 
2.625001e+3, 1.9482085e+2, -1064459.3, -1097830.4, -0.063718475, 0.000008611803, -0.000056228837, -1064459.3, -33703.566, 0.0, 10.000031, 9.9560375 
2.625001e+3, 2.047706e+2, -976295.44, -1019432.56, 0.057677057, 0.000008580862, 0.00006932228, -976295.44, -43047.363, 0.0, 10.000031, 9.943275 
2.625001e+3, 2.1471392e+2, -878008.75, -921407.6, -0.07040666, 0.0000085660695, -0.0001255713, -878008.75, -42205.137, 0.0, 10.000031, 9.942935 
2.625001e+3, 2.2465053e+2, -789722.8, -843142.75, 0.05378065, 0.0000085411875, 0.00012208619, -789722.8, -51298.086, 0.0, 10.000031, 9.9298935 
2.625001e+3, 2.3458049e+2, -691289.6, -744964.56, -0.06531577, 0.000008504873, -0.00008773099, -691289.6, -50178.49, 0.0, 10.000031, 9.929562 
2.625001e+3, 2.4450351e+2, -602965.75, -667017.0, 0.051814705, 0.000008478717, 0.000075698284, -602965.75, -59100.133, 0.0, 10.000031, 9.9161215 
2.625001e+3, 2.5441974e+2, -504213.38, -568341.75, -0.06927833, 0.000008464702, -0.000105819454, -504213.38, -57526.93, 0.0, 10.000031, 9.916021 
2.625001e+3, 2.6432893e+2, -415978.2, -490986.5, 0.05236834, 0.00000844786, 0.00014142746, -415978.2, -66401.47, 0.0, 10.000031, 9.90195 
2.625001e+3, 2.742314e+2, -316693.22, -391373.6, -0.059091553, 0.000008427383, -0.00020271006, -316693.22, -64161.035, 0.0, 10.000031, 9.90237 
2.625001e+3, 2.841257e+2, -230220.06, -318080.1, 0.05736238, 0.000008409273, 0.00022970246, -230220.06, -74651.77, 0.0, 10.0000305, 9.885425 
2.625001e+3, 2.9401216e+2, -130514.16, -217764.06, -0.050836384, 0.000008394408, -0.00025273397, -130514.16, -71833.305, 0.0, 10.0000305, 9.886203 
2.625001e+3, 3.039266e+2, -40770.734, -84749.84, 0.060260694, 0.0000083795385, 0.00017363751, -40770.734, -40770.734, 0.0, 10.0000305, 9.942158 
2.625001e+3, 3.1387064e+2, -39692.797, -82510.97, -0.044985242, 0.000008364648, -0.000054838325, -39692.797, -39692.797, 0.0, 10.0000305, 9.943669 
2.6350015e+3, 1.2499366e+2, -1719906.8, -1724221.8, 0.040156767, 0.000009123799, 0.000020752335, -1719906.8, -4844.553, 0.0, 10.000032, 9.994311 
2.6350012e+3, 1.3498789e+2, -1622526.8, -1627432.4, -0.0971055, 0.000009016268, -0.00006938031, -1622526.8, -5408.022, 0.0, 10.000032, 9.993529 
2.6350012e+3, 1.4497542e+2, -1534425.3, -1548143.4, 0.023525773, 0.000008955205, 0.00007541128, -1534425.3, -15184.388, 0.0, 10.000032, 9.98185 
2.6350012e+3, 1.549573e+2, -1436698.0, -1450819.3, -0.10739828, 0.000008939008, -0.000055161836, -1436698.0, -15279.44, 0.0, 10.000032, 9.9813175 
2.6350012e+3, 1.6493252e+2, -1348647.4, -1371949.9, 0.02003748, 0.000008911909, 0.000048191632, -1348647.4, -24986.096, 0.0, 10.000032, 9.969233 
2.6350012e+3, 1.749018e+2, -1250689.8, -1274308.0, -0.11234141, 0.000008873688, -0.0000722079, -1250689.8, -24727.326, 0.0, 10.000032, 9.96882 
2.6350012e+3, 1.8486445e+2, -1162608.9, -1195717.9, 0.018865274, 0.000008838551, 0.00006797897, -1162608.9, -34280.367, 0.0, 10.000031, 9.95638 
2.6350012e+3, 1.9482087e+2, -1064459.5, -1097831.0, -0.107736826, 0.000008806636, -0.00005620017, -1064459.5, -33703.895, 0.0, 10.000031, 9.9560375 
2.6350012e+3, 2.0477061e+2, -976295.75, -1019433.1, 0.015946355, 0.000008774173, 0.000069344685, -976295.75, -43047.69, 0.0, 10.000031, 9.943275 
2.6350012e+3, 2.1471392e+2, -878009.06, -921408.2, -0.11209127, 0.000008741113, -0.00012554675, -878009.06, -42205.46, 0.0, 10.000031, 9.942934 
2.6350012e+3, 2.2465055e+2, -789723.1, -843143.25, 0.017386729, 0.000008714594, 0.00012210855, -789723.1, -51298.39, 0.0, 10.000031, 9.929893 
2.6350012e+3, 2.3458049e+2, -691289.9, -744965.06, -0.1015391, 0.000008695473, -0.00008771572, -691289.9, -50178.785, 0.0, 10.000031, 9.929562 
2.6350012e+3, 2.4450351e+2, -602966.06, -667017.56, 0.022071198, 0.000008673666, 0.00007571217, -602966.06, -59100.434, 0.0, 10.000031, 9.9161215 
2.6350012e+3, 2.5441974e+2, -504213.66, -568342.25, -0.09871171, 0.000008648636, -0.000105800114, -504213.66, -57527.227, 0.0, 10.000031, 9.916021 
2.6350012e+3, 2.6432893e+2, -415978.44, -490987.03, 0.027841775, 0.0000086253685, 0.00014144833, -415978.44, -66401.75, 0.0, 10.000031, 9.90195 
2.6350012e+3, 2.742314e+2, -316693.47, -391374.13, -0.08329172, 0.000008604344, -0.00020269265, -316693.47, -64161.31, 0.0, 10.000031, 9.9023695 
2.6350012e+3, 2.841257e+2, -230220.31, -318080.63, 0.038063634, 0.000008589225, 0.00022971604, -230220.31, -74652.04, 0.0, 10.0000305, 9.885424 
2.6350012e+3, 2.9401216e+2, -130514.41, -217764.58, -0.06969517, 0.000008582171, -0.00025272468, -130514.41, -71833.57, 0.0, 10.0000305, 9.886203 
2.6350012e+3, 3.039266e+2, -40770.984, -84750.37, 0.04759049, 0.000008566522, 0.00017364911, -40770.984, -40770.984, 0.0, 10.0000305, 9.942158 
2.6350012e+3, 3.1387064e+2, -39693.047, -82511.49, -0.056930497, 0.000008538053, -0.000054814558, -39693.047, -39693.047, 0.0, 10.0000305, 9.943669 
2.6450014e+3, 1.2499367e+2, -1719904.5, -1724221.0, 0.100683324, 0.000009315172, 0.00002082927, -1719904.5, -4842.42, 0.0, 10.000034, 9.994311 
2.6450014e+3, 1.349879e+2, -1622524.5, -1627431.6, -0.042548228, 0.000009209392, -0.00006941972, -1622524.5, -5405.923, 0.0, 10.000034, 9.993528 
2.6450014e+3, 1.4497544e+2, -1534423.1, -1548142.6, 0.07534424, 0.000009150275, 0.00007553603, -1534423.1, -15182.299, 0.0, 10.000034, 9.981849 
2.6450014e+3, 1.549573e+2, -1436695.9, -1450818.5, -0.057321876, 0.000009136181, -0.000055123768, -1436695.9, -15277.379, 0.0, 10.000033, 9.9813175 
2.6450014e+3, 1.6493252e+2, -1348645.3, -1371949.3, 0.07322631, 0.000009106592, 0.000048198617, -1348645.3, -24984.05, 0.0, 10.000033, 9.969233 
2.6450014e+3, 1.7490181e+2, -1250687.6, -1274307.4, -0.0635701, 0.000009061188, -0.00007217518, -1250687.6, -24725.273, 0.0, 10.000033, 9.968819 
2.645001e+3, 1.8486445e+2, -1162606.8, -1195717.1, 0.068000525, 0.000009025129, 0.00006802059, -1162606.8, -34278.32, 0.0, 10.000033, 9.95638 
2.645001e+3, 1.9482087e+2, -1064457.4, -1097830.3, -0.066624925, 0.000008998837, -0.000056167242, -1064457.4, -33701.88, 0.0, 10.000033, 9.956037 
2.645001e+3, 2.0477061e+2, -976293.7, -1019432.44, 0.058037087, 0.000008966677, 0.00006937212, -976293.7, -43045.695, 0.0, 10.000033, 9.943275 
2.645001e+3, 2.1471393e+2, -878007.0, -921407.56, -0.07073557, 0.0000089281575, -0.00012552133, -878007.0, -42203.47, 0.0, 10.000033, 9.942934 
2.645001e+3, 2.2465055e+2, -789721.06, -843142.6, 0.0576683, 0.000008900321, 0.00012213286, -789721.06, -51296.406, 0.0, 10.000033, 9.929893 
2.645001e+3, 2.345805e+2, -691287.9, -744964.44, -0.071754046, 0.0000088845745, -0.00008769153, -691287.9, -50176.816, 0.0, 10.000032, 9.929562 
2.645001e+3, 2.4450351e+2, -602964.06, -667016.94, 0.052900705, 0.000008863219, 0.000075734984, -602964.06, -59098.477, 0.0, 10.000032, 9.916121 
2.645001e+3, 2.5441974e+2, -504211.7, -568341.7, -0.06824728, 0.000008835145, -0.00010578019, -504211.7, -57525.28, 0.0, 10.000032, 9.916021 
2.645001e+3, 2.6432893e+2, -415976.47, -490986.44, 0.058180887, 0.00000881015, 0.00014146673, -415976.47, -66399.81, 0.0, 10.000032, 9.90195 
2.645001e+3, 2.742314e+2, -316691.53, -391373.53, -0.06365031, 0.000008789081, -0.00020267404, -316691.53, -64159.383, 0.0, 10.000032, 9.9023695 
2.645001e+3, 2.841257e+2, -230218.36, -318080.06, 0.054789215, 0.000008774338, 0.00022973375, -230218.36, -74650.12, 0.0, 10.000032, 9.885424 
2.645001e+3, 2.9401216e+2, -130512.48, -217764.02, -0.05661232, 0.000008768227, -0.00025270946, -130512.48, -71831.66, 0.0, 10.000032, 9.886202 
2.645001e+3, 3.039266e+2, -40769.086, -84749.84, 0.06277883, 0.000008752274, 0.00017366114, -40769.086, -40769.086, 0.0, 10.000032, 9.942158 
2.645001e+3, 3.1387064e+2, -39691.156, -82510.98, -0.04350244, 0.000008721647, -0.00005480674, -39691.156, -39691.156, 0.0, 10.000032, 9.943668 
2.6550016e+3, 1.24993674e+2, -1719904.9, -1724221.6, 0.037286997, 0.000009495591, 0.0000209095, -1719904.9, -4842.8276, 0.0, 10.000034, 9.99431 
2.6550016e+3, 1.349879e+2, -1622524.9, -1627432.3, -0.10595562, 0.000009414345, -0.000069467314, -1622524.9, -5406.323, 0.0, 10.000034, 9.993528 
2.6550016e+3, 1.4497544e+2, -1534423.4, -1548143.1, 0.013577026, 0.000009361906, 0.00007565764, -1534423.4, -15182.672, 0.0, 10.000034, 9.981849 
2.6550016e+3, 1.5495731e+2, -1436696.1, -1450819.1, -0.11908929, 0.000009336489, -0.000055079807, -1436696.1, -15277.744, 0.0, 10.000033, 9.981317 
2.6550016e+3, 1.6493253e+2, -1348645.5, -1371949.9, 0.021271467, 0.0000093009285, 0.000048212583, -1348645.5, -24984.42, 0.0, 10.000033, 9.969233 
2.6550016e+3, 1.7490181e+2, -1250687.9, -1274307.9, -0.115475215, 0.000009255021, -0.000072142524, -1250687.9, -24725.637, 0.0, 10.000033, 9.968819 
2.6550016e+3, 1.8486445e+2, -1162607.1, -1195717.8, 0.017838022, 0.00000921739, 0.00006806116, -1162607.1, -34278.676, 0.0, 10.000033, 9.95638 
2.6550016e+3, 1.9482087e+2, -1064457.8, -1097830.9, -0.11676907, 0.00000918841, -0.00005613005, -1064457.8, -33702.227, 0.0, 10.000033, 9.956037 
2.6550016e+3, 2.0477061e+2, -976293.94, -1019433.0, 0.016370643, 0.000009158378, 0.00006940459, -976293.94, -43046.027, 0.0, 10.000033, 9.9432745 
2.6550016e+3, 2.1471393e+2, -878007.25, -921408.1, -0.112229295, 0.000009127198, -0.00012549503, -878007.25, -42203.797, 0.0, 10.000033, 9.942934 
2.6550016e+3, 2.2465055e+2, -789721.4, -843143.2, 0.01918137, 0.000009098364, 0.0001221591, -789721.4, -51296.734, 0.0, 10.000033, 9.929893 
2.6550016e+3, 2.345805e+2, -691288.2, -744965.0, -0.11014408, 0.000009072178, -0.00008765841, -691288.2, -50177.133, 0.0, 10.000032, 9.929561 
2.6550016e+3, 2.4450351e+2, -602964.3, -667017.5, 0.022007493, 0.0000090473795, 0.00007576673, -602964.3, -59098.78, 0.0, 10.000032, 9.916121 
2.6550013e+3, 2.5441974e+2, -504211.94, -568342.2, -0.098782904, 0.000009024228, -0.00010575969, -504211.94, -57525.58, 0.0, 10.000032, 9.91602 
2.6550013e+3, 2.6432893e+2, -415976.75, -490987.0, 0.032620072, 0.0000090022, 0.00014148265, -415976.75, -66400.11, 0.0, 10.000032, 9.901949 
2.6550013e+3, 2.742314e+2, -316691.78, -391374.1, -0.08887878, 0.000008981592, -0.0002026542, -316691.78, -64159.676, 0.0, 10.000032, 9.9023695 
2.6550013e+3, 2.8412572e+2, -230218.63, -318080.6, 0.034781158, 0.000008964611, 0.00022975556, -230218.63, -74650.4, 0.0, 10.000032, 9.885424 
2.6550013e+3, 2.9401216e+2, -130512.73, -217764.55, -0.07615234, 0.000008952578, -0.0002526883, -130512.73, -71831.93, 0.0, 10.000032, 9.886202 
2.6550013e+3, 3.039266e+2, -40769.34, -84750.375, 0.04875619, 0.000008936797, 0.00017367362, -40769.34, -40769.34, 0.0, 10.000032, 9.942157 
2.6550013e+3, 3.1387064e+2, -39691.414, -82511.51, -0.056879528, 0.000008915422, -0.000054814864, -39691.414, -39691.414, 0.0, 10.000032, 9.943668 
2.6650015e+3, 1.2499368e+2, -1719902.5, -1724220.9, 0.11207056, 0.00000969255, 0.000020988255, -1719902.5, -4840.599, 0.0, 10.000036, 9.99431 
2.6650015e+3, 1.3498792e+2, -1622522.6, -1627431.5, -0.03393295, 0.000009619105, -0.00006952686, -1622522.6, -5404.145, 0.0, 10.000035, 9.993527 
2.6650015e+3, 1.4497545e+2, -1534421.1, -1548142.4, 0.08561573, 0.000009568105, 0.00007577099, -1534421.1, -15180.506, 0.0, 10.000035, 9.981848 
2.6650015e+3, 1.5495731e+2, -1436693.9, -1450818.4, -0.05974793, 0.000009537683, -0.00005503911, -1436693.9, -15275.578, 0.0, 10.000035, 9.981317 
2.6650015e+3, 1.6493253e+2, -1348643.4, -1371949.1, 0.07877365, 0.000009499347, 0.00004822683, -1348643.4, -24982.266, 0.0, 10.000035, 9.969232 
2.6650015e+3, 1.7490181e+2, -1250685.8, -1274307.3, -0.06331575, 0.000009452937, -0.00007210753, -1250685.8, -24723.506, 0.0, 10.000035, 9.968818 
2.6650015e+3, 1.8486446e+2, -1162604.9, -1195717.0, 0.068311274, 0.000009414728, 0.00006810257, -1162604.9, -34276.56, 0.0, 10.000035, 9.956379 
2.6650015e+3, 1.9482088e+2, -1064455.6, -1097830.1, -0.071566425, 0.00000938509, -0.00005609724, -1064455.6, -33700.12, 0.0, 10.000035, 9.956036 
2.6650015e+3, 2.0477062e+2, -976291.8, -1019432.3, 0.061901502, 0.000009355284, 0.000069432775, -976291.8, -43043.93, 0.0, 10.000034, 9.9432745 
2.6650015e+3, 2.1471393e+2, -878005.2, -921407.44, -0.07522837, 0.000009325291, -0.00012546715, -878005.2, -42201.72, 0.0, 10.000034, 9.942933 
2.6650015e+3, 2.2465056e+2, -789719.25, -843142.5, 0.055347864, 0.000009295485, 0.00012218594, -789719.25, -51294.67, 0.0, 10.000034, 9.929892 
2.6650015e+3, 2.345805e+2, -691286.06, -744964.4, -0.076344974, 0.000009265887, -0.0000876334, -691286.06, -50175.082, 0.0, 10.000034, 9.929561 
2.6650015e+3, 2.4450353e+2, -602962.25, -667016.8, 0.05634315, 0.00000923965, 0.00007579082, -602962.25, -59096.734, 0.0, 10.000034, 9.916121 
2.6650015e+3, 2.5441974e+2, -504209.88, -568341.56, -0.07496834, 0.000009217424, -0.0001057354, -504209.88, -57523.543, 0.0, 10.000034, 9.91602 
2.6650015e+3, 2.6432893e+2, -415974.7, -490986.38, 0.055417016, 0.000009196129, 0.0001415044, -415974.7, -66398.086, 0.0, 10.000034, 9.901949 
2.6650015e+3, 2.742314e+2, -316689.75, -391373.5, -0.06541883, 0.000009176, -0.00020263846, -316689.75, -64157.67, 0.0, 10.000034, 9.902369 
2.6650015e+3, 2.8412572e+2, -230216.61, -318080.0, 0.06127318, 0.000009158681, 0.00022976869, -230216.61, -74648.4, 0.0, 10.000034, 9.885423 
2.6650015e+3, 2.940122e+2, -130510.72, -217763.97, -0.056911834, 0.000009145192, -0.00025267314, -130510.72, -71829.94, 0.0, 10.000034, 9.886201 
2.6650015e+3, 3.039266e+2, -40767.363, -84749.83, 0.065920584, 0.000009128455, 0.00017368761, -40767.363, -40767.363, 0.0, 10.000034, 9.942157 
2.6650015e+3, 3.1387064e+2, -39689.438, -82510.96, -0.046175264, 0.000009106877, -0.00005480682, -39689.438, -39689.438, 0.0, 10.000033, 9.943668 
2.6750013e+3, 1.2499369e+2, -1719902.9, -1724221.5, 0.038827974, 0.000009906038, 0.000021065689, -1719902.9, -4841.0166, 0.0, 10.000036, 9.994309 
2.6750013e+3, 1.3498792e+2, -1622523.0, -1627432.1, -0.107189156, 0.000009823674, -0.00006959834, -1622523.0, -5404.555, 0.0, 10.000035, 9.993527 
2.6750013e+3, 1.4497545e+2, -1534421.5, -1548143.0, 0.025558338, 0.000009768876, 0.000075876094, -1534421.5, -15180.91, 0.0, 10.000035, 9.981848 
2.6750013e+3, 1.5495732e+2, -1436694.3, -1450819.0, -0.11978657, 0.000009739764, -0.000055001663, -1436694.3, -15275.975, 0.0, 10.000035, 9.981317 
2.6750013e+3, 1.6493255e+2, -1348643.6, -1371949.6, 0.022876207, 0.000009701845, 0.000048241356, -1348643.6, -24982.648, 0.0, 10.000035, 9.969232 
2.6750013e+3, 1.7490183e+2, -1250686.0, -1274307.8, -0.11919362, 0.0000096549375, -0.0000720702, -1250686.0, -24723.883, 0.0, 10.000035, 9.968818 
2.6750013e+3, 1.8486446e+2, -1162605.3, -1195717.6, 0.017503964, 0.0000096171425, 0.000068144815, -1162605.3, -34276.926, 0.0, 10.000035, 9.956379 
2.6750013e+3, 1.9482088e+2, -1064455.9, -1097830.8, -0.122316875, 0.0000095888745, -0.000056068806, -1064455.9, -33700.48, 0.0, 10.000035, 9.956036 
2.6750013e+3, 2.0477062e+2, -976292.1, -1019432.9, 0.016713295, 0.000009557397, 0.00006945669, -976292.1, -43044.28, 0.0, 10.000034, 9.943274 
2.6750013e+3, 2.1471395e+2, -878005.44, -921408.0, -0.12030362, 0.000009522439, -0.0001254377, -878005.44, -42202.066, 0.0, 10.000034, 9.942933 
2.6750013e+3, 2.2465056e+2, -789719.56, -843143.1, 0.016784206, 0.000009491689, 0.00012221339, -789719.56, -51295.004, 0.0, 10.000034, 9.929892 
2.6750013e+3, 2.3458052e+2, -691286.4, -744964.94, -0.11469809, 0.000009465697, -0.000087616514, -691286.4, -50175.406, 0.0, 10.000034, 9.929561 
2.6750013e+3, 2.4450353e+2, -602962.5, -667017.44, 0.023808932, 0.000009440028, 0.00007580726, -602962.5, -59097.063, 0.0, 10.000034, 9.91612 
2.6750013e+3, 2.5441977e+2, -504210.16, -568342.2, -0.107224405, 0.0000094147335, -0.00010570734, -504210.16, -57523.863, 0.0, 10.000034, 9.916019 
2.6750013e+3, 2.6432893e+2, -415974.97, -490986.94, 0.027713314, 0.000009391936, 0.00014153199, -415974.97, -66398.39, 0.0, 10.000034, 9.901948 
2.6750013e+3, 2.742314e+2, -316690.03, -391374.06, -0.09282013, 0.000009372307, -0.0002026268, -316690.03, -64157.97, 0.0, 10.000034, 9.902369 
2.6750013e+3, 2.8412572e+2, -230216.88, -318080.56, 0.040510107, 0.0000093565495, 0.00022977313, -230216.88, -74648.695, 0.0, 10.000034, 9.885423 
2.6750013e+3, 2.940122e+2, -130510.99, -217764.52, -0.07707887, 0.000009346065, -0.00025266397, -130510.99, -71830.23, 0.0, 10.000034, 9.886201 
2.6750013e+3, 3.039266e+2, -40767.633, -84750.38, 0.051933896, 0.000009327244, 0.00017370314, -40767.633, -40767.633, 0.0, 10.000034, 9.942156 
2.6750013e+3, 3.1387064e+2, -39689.703, -82511.516, -0.059438754, 0.000009296014, -0.000054782624, -39689.703, -39689.703, 0.0, 10.000033, 9.943667 
2.6850015e+3, 1.249937e+2, -1719900.5, -1724220.8, 0.110003814, 0.000010124083, 0.000021142587, -1719900.5, -4838.7397, 0.0, 10.000037, 9.994309 
2.6850015e+3, 1.3498794e+2, -1622520.6, -1627431.4, -0.043731697, 0.000010031357, -0.0000696519, -1622520.6, -5402.259, 0.0, 10.000037, 9.993527 
2.6850015e+3, 1.4497547e+2, -1534419.1, -1548142.3, 0.0899891, 0.000009972226, 0.00007600465, -1534419.1, -15178.616, 0.0, 10.000037, 9.981848 
2.6850015e+3, 1.5495732e+2, -1436691.9, -1450818.3, -0.060232677, 0.000009944801, -0.00005496168, -1436691.9, -15273.713, 0.0, 10.000037, 9.981316 
2.6850015e+3, 1.6493255e+2, -1348641.4, -1371948.9, 0.082474805, 0.0000099083845, 0.00004825093, -1348641.4, -24980.408, 0.0, 10.000037, 9.969231 
2.6850015e+3, 1.7490183e+2, -1250683.8, -1274307.0, -0.066896245, 0.000009862796, -0.0000720316, -1250683.8, -24721.662, 0.0, 10.000037, 9.968818 
2.6850015e+3, 1.8486448e+2, -1162603.0, -1195716.9, 0.06911187, 0.000009824566, 0.00006819079, -1162603.0, -34274.715, 0.0, 10.000036, 9.956378 
2.6850015e+3, 1.9482088e+2, -1064453.6, -1097830.0, -0.07518383, 0.000009794027, -0.000056038098, -1064453.6, -33698.29, 0.0, 10.000036, 9.956036 
2.6850015e+3, 2.0477062e+2, -976289.9, -1019432.2, 0.065548874, 0.000009761294, 0.00006948203, -976289.9, -43042.1, 0.0, 10.000036, 9.943274 
2.6850015e+3, 2.1471395e+2, -878003.25, -921407.3, -0.07641415, 0.000009726178, -0.000125407, -878003.25, -42199.9, 0.0, 10.000036, 9.942933 
2.6850015e+3, 2.2465056e+2, -789717.3, -843142.44, 0.060673904, 0.0000096946, 0.00012224472, -789717.3, -51292.848, 0.0, 10.000036, 9.929891 
2.6850015e+3, 2.3458052e+2, -691284.2, -744964.25, -0.079496585, 0.000009667018, -0.00008758994, -691284.2, -50173.26, 0.0, 10.000036, 9.92956 
2.6850015e+3, 2.4450353e+2, -602960.4, -667016.75, 0.058253005, 0.000009641205, 0.0000758299, -602960.4, -59094.926, 0.0, 10.000036, 9.91612 
2.6850015e+3, 2.5441977e+2, -504208.0, -568341.5, -0.07396138, 0.000009617492, -0.00010568766, -504208.0, -57521.754, 0.0, 10.000036, 9.916019 
2.6850015e+3, 2.6432893e+2, -415972.84, -490986.3, 0.061961234, 0.000009594787, 0.00014155048, -415972.84, -66396.29, 0.0, 10.000035, 9.901948 
2.6850015e+3, 2.742314e+2, -316687.9, -391373.44, -0.06903999, 0.000009573354, -0.00020260723, -316687.9, -64155.875, 0.0, 10.000035, 9.902369 
2.6850015e+3, 2.8412572e+2, -230214.77, -318079.94, 0.06221548, 0.000009556349, 0.00022979175, -230214.77, -74646.6, 0.0, 10.000035, 9.885422 
2.6850015e+3, 2.940122e+2, -130508.89, -217763.92, -0.06013483, 0.000009545391, -0.0002526491, -130508.89, -71828.15, 0.0, 10.000035, 9.886201 
2.6850015e+3, 3.039266e+2, -40765.566, -84749.82, 0.06803814, 0.0000095263595, 0.00017371555, -40765.566, -40765.566, 0.0, 10.000035, 9.942156 
2.6850015e+3, 3.1387064e+2, -39687.65, -82510.96, -0.04958636, 0.000009495307, -0.00005477069, -39687.65, -39687.65, 0.0, 10.000035, 9.943667 
2.6950014e+3, 1.24993704e+2, -1719900.9, -1724221.4, 0.04322544, 0.000010346684, 0.00002121912, -1719900.9, -4839.1787, 0.0, 10.000037, 9.994309 
2.6950014e+3, 1.3498795e+2, -1622520.9, -1627432.0, -0.11052236, 0.000010242155, -0.000069687536, -1622520.9, -5402.6904, 0.0, 10.000037, 9.993526 
2.6950014e+3, 1.4497547e+2, -1534419.5, -1548142.9, 0.023979187, 0.0000101781525, 0.000076156655, -1534419.5, -15179.035, 0.0, 10.000037, 9.981847 
2.6950014e+3, 1.5495734e+2, -1436692.3, -1450818.9, -0.12624285, 0.000010152789, -0.00005491916, -1436692.3, -15274.124, 0.0, 10.000037, 9.981316 
2.6950014e+3, 1.6493258e+2, -1348641.6, -1371949.5, 0.024042668, 0.000010118966, 0.000048255562, -1348641.6, -24980.81, 0.0, 10.000037, 9.969231 
2.6950014e+3, 1.7490184e+2, -1250684.1, -1274307.6, -0.12529059, 0.000010076514, -0.00007199173, -1250684.1, -24722.057, 0.0, 10.000037, 9.968817 
2.6950014e+3, 1.8486448e+2, -1162603.3, -1195717.5, 0.015680337, 0.000010036999, 0.00006824051, -1162603.3, -34275.098, 0.0, 10.000036, 9.956378 
2.6950014e+3, 1.948209e+2, -1064453.9, -1097830.6, -0.1285603, 0.000010000551, -0.000056005127, -1064453.9, -33698.664, 0.0, 10.000036, 9.956035 
2.6950014e+3, 2.0477064e+2, -976290.2, -1019432.8, 0.019113068, 0.000009966976, 0.00006950878, -976290.2, -43042.47, 0.0, 10.000036, 9.943274 
2.6950014e+3, 2.1471395e+2, -878003.56, -921407.94, -0.12270928, 0.00000993651, -0.00012537507, -878003.56, -42200.258, 0.0, 10.000036, 9.942932 
2.6950014e+3, 2.2465056e+2, -789717.6, -843143.0, 0.021162475, 0.000009904217, 0.0001222799, -789717.6, -51293.2, 0.0, 10.000036, 9.929891 
2.6950014e+3, 2.3458052e+2, -691284.5, -744964.9, -0.11878768, 0.000009869851, -0.000087553686, -691284.5, -50173.61, 0.0, 10.000036, 9.92956 
2.6950014e+3, 2.4450353e+2, -602960.6, -667017.3, 0.022228573, 0.00000984318, 0.00007585874, -602960.6, -59095.26, 0.0, 10.000036, 9.916119 
2.6950014e+3, 2.5441977e+2, -504208.3, -568342.1, -0.1098314, 0.000009825697, -0.00010567636, -504208.3, -57522.08, 0.0, 10.000036, 9.916019 
2.6950014e+3, 2.6432893e+2, -415973.13, -490986.9, 0.034268774, 0.000009804681, 0.00014155991, -415973.13, -66396.62, 0.0, 10.000035, 9.901948 
2.6950014e+3, 2.742314e+2, -316688.2, -391374.03, -0.09618654, 0.00000977914, -0.00020257971, -316688.2, -64156.19, 0.0, 10.000035, 9.902368 
2.6950014e+3, 2.8412572e+2, -230215.05, -318080.53, 0.041069277, 0.000009758081, 0.00022982457, -230215.05, -74646.91, 0.0, 10.000035, 9.885422 
2.6950014e+3, 2.940122e+2, -130509.164, -217764.5, -0.08074249, 0.00000974317, -0.00025262855, -130509.164, -71828.445, 0.0, 10.000035, 9.8862 
2.6950014e+3, 3.039266e+2, -40765.848, -84750.4, 0.05222183, 0.000009725803, 0.00017372484, -40765.848, -40765.848, 0.0, 10.000035, 9.942156 
2.6950014e+3, 3.1387064e+2, -39687.93, -82511.54, -0.06484242, 0.000009704751, -0.000054771015, -39687.93, -39687.93, 0.0, 10.000035, 9.943666 
2.7050018e+3, 1.2499371e+2, -1719898.4, -1724220.5, 0.117494546, 0.000010566548, 0.00002130406, -1719898.4, -4836.767, 0.0, 10.000039, 9.994308 
2.7050018e+3, 1.3498795e+2, -1622518.5, -1627431.1, -0.04534829, 0.0000104590745, -0.00006973823, -1622518.5, -5400.3135, 0.0, 10.000039, 9.993526 
2.7050015e+3, 1.4497548e+2, -1534417.0, -1548142.0, 0.08705761, 0.000010393485, 0.00007629551, -1534417.0, -15176.665, 0.0, 10.000039, 9.981847 
2.7050015e+3, 1.5495734e+2, -1436689.9, -1450818.0, -0.065819465, 0.000010367858, -0.000054876313, -1436689.9, -15271.765, 0.0, 10.000039, 9.981315 
2.7050015e+3, 1.6493258e+2, -1348639.3, -1371948.8, 0.08608865, 0.00001033426, 0.0000482636, -1348639.3, -24978.47, 0.0, 10.000039, 9.969231 
2.7050015e+3, 1.7490184e+2, -1250681.8, -1274306.9, -0.0687137, 0.0000102925305, -0.00007195598, -1250681.8, -24719.748, 0.0, 10.000038, 9.968817 
2.7050015e+3, 1.8486448e+2, -1162600.9, -1195716.8, 0.07363001, 0.000010252009, 0.00006828573, -1162600.9, -34272.797, 0.0, 10.000038, 9.956378 
2.7050015e+3, 1.948209e+2, -1064451.6, -1097829.9, -0.07831465, 0.000010212741, -0.000055969533, -1064451.6, -33696.367, 0.0, 10.000038, 9.956035 
2.7050015e+3, 2.0477064e+2, -976287.9, -1019432.06, 0.066445656, 0.000010177312, 0.0000695397, -976287.9, -43040.184, 0.0, 10.000038, 9.943273 
2.7050015e+3, 2.1471396e+2, -878001.25, -921407.2, -0.0848001, 0.000010146037, -0.00012534345, -878001.25, -42197.992, 0.0, 10.000038, 9.942932 
2.7050015e+3, 2.2465058e+2, -789715.4, -843142.3, 0.058949273, 0.000010114696, 0.0001223104, -789715.4, -51290.95, 0.0, 10.000038, 9.929891 
2.7050015e+3, 2.3458052e+2, -691282.2, -744964.2, -0.082900666, 0.000010083272, -0.000087526394, -691282.2, -50171.383, 0.0, 10.000038, 9.929559 
2.7050015e+3, 2.4450354e+2, -602958.4, -667016.6, 0.05961881, 0.000010056144, 0.00007588327, -602958.4, -59093.047, 0.0, 10.000037, 9.916119 
2.7050015e+3, 2.5441977e+2, -504206.06, -568341.44, -0.0810159, 0.00001003414, -0.00010565406, -504206.06, -57519.863, 0.0, 10.000037, 9.9160185 
2.7050015e+3, 2.6432893e+2, -415970.88, -490986.25, 0.061582558, 0.00001001093, 0.000141581, -415970.88, -66394.414, 0.0, 10.000037, 9.901947 
2.7050015e+3, 2.742314e+2, -316685.97, -391373.38, -0.07490523, 0.00000998616, -0.00020255856, -316685.97, -64154.004, 0.0, 10.000037, 9.902368 
2.7050015e+3, 2.8412572e+2, -230212.84, -318079.88, 0.062854655, 0.000009965915, 0.000229845, -230212.84, -74644.73, 0.0, 10.000037, 9.885422 
2.7050015e+3, 2.940122e+2, -130506.984, -217763.86, -0.06289271, 0.000009951859, -0.00025260996, -130506.984, -71826.28, 0.0, 10.000037, 9.8862 
2.7050015e+3, 3.0392662e+2, -40763.7, -84749.81, 0.07112657, 0.000009934185, 0.00017373986, -40763.7, -40763.7, 0.0, 10.000037, 9.942155 
2.7050015e+3, 3.1387064e+2, -39685.78, -82510.95, -0.050495733, 0.0000099110985, -0.000054762168, -39685.78, -39685.78, 0.0, 10.000037, 9.943666 
2.7150017e+3, 1.2499372e+2, -1719898.8, -1724221.3, 0.04466587, 0.000010783679, 0.000021397589, -1719898.8, -4837.231, 0.0, 10.000039, 9.994308 
2.7150017e+3, 1.3498797e+2, -1622518.9, -1627431.9, -0.11818914, 0.0000106821135, -0.000069803966, -1622518.9, -5400.7695, 0.0, 10.000039, 9.9935255 
2.7150017e+3, 1.4497548e+2, -1534417.4, -1548142.6, 0.020430198, 0.000010618219, 0.00007642123, -1534417.4, -15177.094, 0.0, 10.000039, 9.981846 
2.7150017e+3, 1.5495735e+2, -1436690.1, -1450818.6, -0.1324399, 0.0000105900035, -0.000054833137, -1436690.1, -15272.185, 0.0, 10.000039, 9.981315 
2.7150017e+3, 1.649326e+2, -1348639.6, -1371949.4, 0.022676395, 0.000010554264, 0.000048275044, -1348639.6, -24978.89, 0.0, 10.000039, 9.96923 
2.7150017e+3, 1.7490186e+2, -1250682.0, -1274307.5, -0.13211143, 0.000010510849, -0.00007192436, -1250682.0, -24720.158, 0.0, 10.000038, 9.968816 
2.7150017e+3, 1.8486449e+2, -1162601.3, -1195717.4, 0.020691693, 0.000010469596, 0.00006832645, -1162601.3, -34273.195, 0.0, 10.000038, 9.956377 
2.7150014e+3, 1.9482091e+2, -1064451.9, -1097830.5, -0.13113458, 0.000010430595, -0.00005593132, -1064451.9, -33696.76, 0.0, 10.000038, 9.956034 
2.7150014e+3, 2.0477064e+2, -976288.2, -1019432.7, 0.017619459, 0.000010392299, 0.0000695748, -976288.2, -43040.574, 0.0, 10.000038, 9.943273 
2.7150014e+3, 2.1471396e+2, -878001.56, -921407.9, -0.1335448, 0.0000103547645, -0.00012531212, -878001.56, -42198.375, 0.0, 10.000038, 9.942931 
2.7150014e+3, 2.2465058e+2, -789715.7, -843142.94, 0.0148457885, 0.000010326038, 0.00012233622, -789715.7, -51291.313, 0.0, 10.000038, 9.92989 
2.7150014e+3, 2.3458053e+2, -691282.5, -744964.75, -0.12685558, 0.000010307276, -0.00008750805, -691282.5, -50171.74, 0.0, 10.000038, 9.929559 
2.7150014e+3, 2.4450354e+2, -602958.7, -667017.25, 0.025356036, 0.0000102800905, 0.000075903496, -602958.7, -59093.4, 0.0, 10.000037, 9.916119 
2.7150014e+3, 2.5441977e+2, -504206.38, -568342.06, -0.114815325, 0.000010242826, -0.00010562076, -504206.38, -57520.21, 0.0, 10.000037, 9.9160185 
2.7150014e+3, 2.6432893e+2, -415971.2, -490986.84, 0.031893726, 0.000010213538, 0.00014161374, -415971.2, -66394.75, 0.0, 10.000037, 9.901947 
2.7150014e+3, 2.7423143e+2, -316686.28, -391374.0, -0.10432025, 0.000010194416, -0.00020254371, -316686.28, -64154.336, 0.0, 10.000037, 9.902367 
2.7150014e+3, 2.8412572e+2, -230213.13, -318080.47, 0.03933385, 0.000010179848, 0.00022985307, -230213.13, -74645.05, 0.0, 10.000037, 9.885421 
2.7150014e+3, 2.940122e+2, -130507.27, -217764.45, -0.085885726, 0.000010171453, -0.00025259328, -130507.27, -71826.586, 0.0, 10.000037, 9.886199 
2.7150014e+3, 3.0392662e+2, -40763.99, -84750.414, 0.055859912, 0.000010151502, 0.0001737606, -40763.99, -40763.99, 0.0, 10.000037, 9.942155 
2.7150014e+3, 3.1387064e+2, -39686.07, -82511.56, -0.06485798, 0.000010114352, -0.000054744156, -39686.07, -39686.07, 0.0, 10.000037, 9.943666 
2.7250016e+3, 1.24993734e+2, -1719896.1, -1724220.3, 0.120706536, 0.000011006498, 0.00002148681, -1719896.1, -4834.7217, 0.0, 10.000041, 9.9943075 
2.7250016e+3, 1.3498797e+2, -1622516.3, -1627431.0, -0.044317108, 0.000010909586, -0.000069864785, -1622516.3, -5398.2847, 0.0, 10.000041, 9.9935255 
2.7250016e+3, 1.449755e+2, -1534414.9, -1548141.8, 0.09441197, 0.000010847118, 0.00007655835, -1534414.9, -15174.621, 0.0, 10.000041, 9.981846 
2.7250016e+3, 1.5495735e+2, -1436687.6, -1450817.9, -0.06763529, 0.000010817038, -0.000054789343, -1436687.6, -15269.743, 0.0, 10.000041, 9.981314 
2.7250016e+3, 1.649326e+2, -1348637.1, -1371948.6, 0.08656645, 0.0000107784135, 0.000048285918, -1348637.1, -24976.463, 0.0, 10.00004, 9.96923 
2.7250016e+3, 1.7490186e+2, -1250679.5, -1274306.8, -0.0753315, 0.000010731072, -0.00007188467, -1250679.5, -24717.73, 0.0, 10.00004, 9.968816 
2.7250016e+3, 1.8486449e+2, -1162598.8, -1195716.6, 0.076411664, 0.000010688733, 0.000068375964, -1162598.8, -34270.78, 0.0, 10.00004, 9.956377 
2.7250016e+3, 1.9482091e+2, -1064449.5, -1097829.8, -0.08363111, 0.000010651617, -0.00005589185, -1064449.5, -33694.38, 0.0, 10.00004, 9.956034 
2.7250016e+3, 2.0477065e+2, -976285.75, -1019431.94, 0.06774217, 0.000010614143, 0.000069607166, -976285.75, -43038.203, 0.0, 10.00004, 9.943272 
2.7250016e+3, 2.1471396e+2, -877999.1, -921407.06, -0.08195219, 0.000010576278, -0.00012528367, -877999.1, -42196.023, 0.0, 10.00004, 9.942931 
2.7250016e+3, 2.2465058e+2, -789713.25, -843142.2, 0.06686564, 0.000010546046, 0.0001223627, -789713.25, -51288.97, 0.0, 10.000039, 9.92989 
2.7250016e+3, 2.3458053e+2, -691280.1, -744964.06, -0.08759648, 0.000010524444, -0.00008748128, -691280.1, -50169.406, 0.0, 10.000039, 9.929558 
2.7250016e+3, 2.4450354e+2, -602956.3, -667016.56, 0.06298253, 0.000010496318, 0.00007593091, -602956.3, -59091.074, 0.0, 10.000039, 9.916118 
2.7250016e+3, 2.5441977e+2, -504204.03, -568341.4, -0.083066106, 0.000010460382, -0.00010559227, -504204.03, -57517.91, 0.0, 10.000039, 9.916018 
2.7250016e+3, 2.6432896e+2, -415968.88, -490986.16, 0.06458699, 0.000010431417, 0.00014163888, -415968.88, -66392.46, 0.0, 10.000039, 9.901946 
2.7250016e+3, 2.7423143e+2, -316683.97, -391373.3, -0.0736991, 0.00001041133, -0.00020252756, -316683.97, -64152.06, 0.0, 10.000039, 9.902367 
2.7250016e+3, 2.8412572e+2, -230210.83, -318079.8, 0.07004785, 0.000010395758, 0.00022986557, -230210.83, -74642.77, 0.0, 10.000039, 9.885421 
2.7250016e+3, 2.940122e+2, -130504.99, -217763.8, -0.06554014, 0.000010386312, -0.00025257716, -130504.99, -71824.33, 0.0, 10.000039, 9.886199 
2.7250016e+3, 3.0392662e+2, -40761.742, -84749.8, 0.07374279, 0.000010366319, 0.00017377638, -40761.742, -40761.742, 0.0, 10.000039, 9.942154 
2.7250016e+3, 3.1387064e+2, -39683.832, -82510.945, -0.052976836, 0.000010330626, -0.000054734744, -39683.832, -39683.832, 0.0, 10.000039, 9.9436655 
2.7350017e+3, 1.2499374e+2, -1719896.5, -1724221.0, 0.044260915, 0.000011235005, 0.000021571937, -1719896.5, -4835.1943, 0.0, 10.000041, 9.9943075 
2.7350017e+3, 1.3498798e+2, -1622516.6, -1627431.6, -0.12077737, 0.000011141492, -0.00006992068, -1622516.6, -5398.7495, 0.0, 10.000041, 9.993525 
2.7350017e+3, 1.449755e+2, -1534415.3, -1548142.5, 0.022623986, 0.000011080181, 0.00007670688, -1534415.3, -15175.074, 0.0, 10.000041, 9.981845 
2.7350017e+3, 1.5495737e+2, -1436688.0, -1450818.5, -0.13941842, 0.000011048961, -0.000054744938, -1436688.0, -15270.187, 0.0, 10.000041, 9.981314 
2.7350017e+3, 1.6493261e+2, -1348637.5, -1371949.3, 0.025489515, 0.0000110067085, 0.000048296224, -1348637.5, -24976.9, 0.0, 10.00004, 9.969229 
2.7350017e+3, 1.7490187e+2, -1250679.9, -1274307.4, -0.13635479, 0.000010953198, -0.000071836934, -1250679.9, -24718.16, 0.0, 10.00004, 9.968815 
2.7350017e+3, 1.848645e+2, -1162599.1, -1195717.3, 0.017658988, 0.000010909418, 0.00006843426, -1162599.1, -34271.203, 0.0, 10.00004, 9.956376 
2.7350017e+3, 1.9482093e+2, -1064449.9, -1097830.5, -0.142359, 0.000010875806, -0.000055851124, -1064449.9, -33694.79, 0.0, 10.00004, 9.956033 
2.7350017e+3, 2.0477065e+2, -976286.1, -1019432.56, 0.017088287, 0.000010842842, 0.0000696368, -976286.1, -43038.594, 0.0, 10.00004, 9.943272 
2.7350017e+3, 2.1471398e+2, -877999.5, -921407.75, -0.13244344, 0.000010810573, -0.0001252581, -877999.5, -42196.402, 0.0, 10.00004, 9.94293 
2.7350017e+3, 2.2465059e+2, -789713.6, -843142.9, 0.022770334, 0.000010774714, 0.00012238989, -789713.6, -51289.36, 0.0, 10.000039, 9.929889 
2.7350017e+3, 2.3458053e+2, -691280.5, -744964.7, -0.13148384, 0.000010734782, -0.00008744609, -691280.5, -50169.785, 0.0, 10.000039, 9.929558 
2.7350017e+3, 2.4450354e+2, -602956.7, -667017.2, 0.025533576, 0.0000107048345, 0.0000759655, -602956.7, -59091.44, 0.0, 10.000039, 9.916118 
2.7350017e+3, 2.5441977e+2, -504204.34, -568342.0, -0.12020825, 0.0000106868065, -0.00010556858, -504204.34, -57518.266, 0.0, 10.000039, 9.916018 
2.7350017e+3, 2.6432896e+2, -415969.2, -490986.8, 0.033998266, 0.0000106645575, 0.00014165643, -415969.2, -66392.805, 0.0, 10.000039, 9.901946 
2.7350017e+3, 2.7423143e+2, -316684.28, -391373.94, -0.10385158, 0.000010636899, -0.00020251007, -316684.28, -64152.395, 0.0, 10.000039, 9.902366 
2.7350017e+3, 2.8412572e+2, -230211.14, -318080.44, 0.04576635, 0.000010613648, 0.0002298825, -230211.14, -74643.11, 0.0, 10.000039, 9.88542 
2.7350017e+3, 2.940122e+2, -130505.3, -217764.44, -0.08929455, 0.000010596443, -0.0002525615, -130505.3, -71824.66, 0.0, 10.000039, 9.886199 
2.7350017e+3, 3.0392662e+2, -40762.047, -84750.43, 0.056730974, 0.000010578639, 0.00017378721, -40762.047, -40762.047, 0.0, 10.000039, 9.942154 
2.7350017e+3, 3.1387064e+2, -39684.137, -82511.58, -0.06920016, 0.000010559913, -0.000054733926, -39684.137, -39684.137, 0.0, 10.000039, 9.9436655 
2.7450016e+3, 1.2499375e+2, -1719893.9, -1724220.1, 0.13028371, 0.000011470623, 0.000021659469, -1719893.9, -4832.5767, 0.0, 10.000043, 9.994307 
2.7450016e+3, 1.3498798e+2, -1622514.0, -1627430.8, -0.046316158, 0.000011377806, -0.00006998673, -1622514.0, -5396.17, 0.0, 10.000043, 9.993525 
2.7450016e+3, 1.4497551e+2, -1534412.5, -1548141.6, 0.096852124, 0.00001131503, 0.000076849974, -1534412.5, -15172.503, 0.0, 10.000043, 9.981845 
2.7450016e+3, 1.5495737e+2, -1436685.4, -1450817.6, -0.07223685, 0.000011280127, -0.000054698932, -1436685.4, -15267.618, 0.0, 10.000043, 9.981314 
2.7450016e+3, 1.6493261e+2, -1348634.9, -1371948.4, 0.092509076, 0.000011236448, 0.000048308568, -1348634.9, -24974.348, 0.0, 10.000042, 9.969229 
2.7450016e+3, 1.7490187e+2, -1250677.4, -1274306.6, -0.07730467, 0.000011183817, -0.00007179346, -1250677.4, -24715.643, 0.0, 10.000042, 9.968815 
2.7450016e+3, 1.848645e+2, -1162596.5, -1195716.4, 0.076154836, 0.000011140371, 0.00006848472, -1162596.5, -34268.7, 0.0, 10.000042, 9.956376 
2.7450016e+3, 1.9482093e+2, -1064447.3, -1097829.6, -0.08580418, 0.000011106522, -0.000055818986, -1064447.3, -33692.305, 0.0, 10.000042, 9.956033 
2.7450016e+3, 2.0477067e+2, -976283.56, -1019431.75, 0.07262461, 0.00001107291, 0.00006966424, -976283.56, -43036.12, 0.0, 10.000042, 9.943271 
2.7450016e+3, 2.1471398e+2, -877997.0, -921406.94, -0.09379558, 0.000011039547, -0.0001252206, -877997.0, -42193.95, 0.0, 10.000042, 9.94293 
2.7450016e+3, 2.2465059e+2, -789711.1, -843142.06, 0.059991196, 0.000011002013, 0.00012242862, -789711.1, -51286.914, 0.0, 10.000041, 9.929889 
2.7450016e+3, 2.3458055e+2, -691278.0, -744963.94, -0.09386153, 0.0000109597495, -0.0000874161, -691278.0, -50167.35, 0.0, 10.000041, 9.929558 
2.7450016e+3, 2.4450356e+2, -602954.2, -667016.44, 0.06473777, 0.000010929426, 0.00007599003, -602954.2, -59089.02, 0.0, 10.000041, 9.916117 
2.7450016e+3, 2.5441977e+2, -504201.9, -568341.25, -0.08804813, 0.00001091336, -0.000105545565, -504201.9, -57515.87, 0.0, 10.000041, 9.916017 
2.7450016e+3, 2.6432896e+2, -415966.78, -490986.1, 0.066160165, 0.000010891801, 0.00014167915, -415966.78, -66390.43, 0.0, 10.000041, 9.901946 
2.7450016e+3, 2.7423143e+2, -316681.88, -391373.25, -0.08086786, 0.0000108632075, -0.00020248612, -316681.88, -64150.027, 0.0, 10.000041, 9.902366 
2.7450016e+3, 2.8412572e+2, -230208.75, -318079.75, 0.06888818, 0.000010838713, 0.00022990472, -230208.75, -74640.74, 0.0, 10.000041, 9.88542 
2.7450016e+3, 2.940122e+2, -130502.92, -217763.75, -0.06715557, 0.000010819853, -0.0002525451, -130502.92, -71822.305, 0.0, 10.000041, 9.886198 
2.7450016e+3, 3.0392662e+2, -40759.703, -84749.78, 0.08041684, 0.000010801237, 0.00017379977, -40759.703, -40759.703, 0.0, 10.000041, 9.942153 
2.7450016e+3, 3.1387064e+2, -39681.8, -82510.94, -0.052511767, 0.000010782953, -0.000054722204, -39681.8, -39681.8, 0.0, 10.000041, 9.943665 
2.7550018e+3, 1.2499376e+2, -1719894.3, -1724220.9, 0.04717314, 0.000011713348, 0.000021749638, -1719894.3, -4833.0806, 0.0, 10.000043, 9.994307 
2.7550018e+3, 1.34988e+2, -1622514.4, -1627431.5, -0.12944102, 0.000011618527, -0.00007006293, -1622514.4, -5396.6646, 0.0, 10.000043, 9.993524 
2.7550018e+3, 1.4497553e+2, -1534412.9, -1548142.3, 0.026550988, 0.000011551666, 0.00007698765, -1534412.9, -15172.976, 0.0, 10.000043, 9.981844 
2.7550018e+3, 1.5495738e+2, -1436685.8, -1450818.4, -0.14252098, 0.000011510539, -0.000054651322, -1436685.8, -15268.081, 0.0, 10.000043, 9.981313 
2.7550018e+3, 1.6493262e+2, -1348635.3, -1371949.1, 0.025621714, 0.000011467635, 0.00004832295, -1348635.3, -24974.807, 0.0, 10.000042, 9.969228 
2.7550018e+3, 1.7490189e+2, -1250677.8, -1274307.3, -0.14417592, 0.000011422923, -0.00007175423, -1250677.8, -24716.092, 0.0, 10.000042, 9.968814 
2.7550018e+3, 1.8486452e+2, -1162596.9, -1195717.1, 0.015455688, 0.000011381584, 0.00006852734, -1162596.9, -34269.13, 0.0, 10.000042, 9.956375 
2.7550018e+3, 1.9482093e+2, -1064447.6, -1097830.3, -0.14643522, 0.000011343761, -0.000055795434, -1064447.6, -33692.727, 0.0, 10.000042, 9.956033 
2.7550018e+3, 2.0477067e+2, -976283.94, -1019432.5, 0.019742604, 0.000011304348, 0.00006968949, -976283.94, -43036.547, 0.0, 10.000042, 9.943271 
2.7550018e+3, 2.1471399e+2, -877997.3, -921407.6, -0.1465188, 0.000011263204, -0.00012517117, -877997.3, -42194.367, 0.0, 10.000042, 9.942929 
2.7550018e+3, 2.2465059e+2, -789711.44, -843142.75, 0.015556173, 0.000011227945, 0.00012247893, -789711.44, -51287.31, 0.0, 10.000041, 9.929888 
2.7550018e+3, 2.3458055e+2, -691278.3, -744964.6, -0.13802874, 0.000011199337, -0.0000873913, -691278.3, -50167.734, 0.0, 10.000041, 9.929557 
2.7550018e+3, 2.4450356e+2, -602954.56, -667017.1, 0.023292536, 0.000011170084, 0.000076004515, -602954.56, -59089.402, 0.0, 10.000041, 9.916117 
2.7550018e+3, 2.544198e+2, -504202.25, -568341.94, -0.1293648, 0.000011140045, -0.00010552323, -504202.25, -57516.246, 0.0, 10.000041, 9.916017 
2.7550018e+3, 2.6432896e+2, -415967.1, -490986.75, 0.034604296, 0.000011113153, 0.00014170702, -415967.1, -66390.79, 0.0, 10.000041, 9.901945 
2.7550018e+3, 2.7423143e+2, -316682.22, -391373.9, -0.11177251, 0.0000110902565, -0.00020245569, -316682.22, -64150.387, 0.0, 10.000041, 9.902366 
2.7550018e+3, 2.8412572e+2, -230209.06, -318080.4, 0.044588823, 0.0000110709525, 0.00022993222, -230209.06, -74641.086, 0.0, 10.000041, 9.885419 
2.7550018e+3, 2.940122e+2, -130503.23, -217764.39, -0.09086331, 0.000011056537, -0.000252528, -130503.23, -71822.64, 0.0, 10.000041, 9.886198 
2.7550018e+3, 3.0392662e+2, -40760.023, -84750.445, 0.062065307, 0.000011034107, 0.00017381404, -40760.023, -40760.023, 0.0, 10.000041, 9.942153 
2.7550018e+3, 3.1387064e+2, -39682.12, -82511.6, -0.07023772, 0.000010999754, -0.000054699587, -39682.12, -39682.12, 0.0, 10.000041, 9.943665 
2.765002e+3, 1.2499377e+2, -1719891.4, -1724219.9, 0.12690653, 0.0000119661845, 0.000021845914, -1719891.4, -4830.384, 0.0, 10.000045, 9.994306 
2.765002e+3, 1.3498801e+2, -1622511.5, -1627430.6, -0.05249823, 0.000011858249, -0.000070127455, -1622511.5, -5393.9497, 0.0, 10.000045, 9.993524 
2.765002e+3, 1.4497553e+2, -1534410.1, -1548141.4, 0.103443585, 0.000011786977, 0.00007714078, -1534410.1, -15170.264, 0.0, 10.000045, 9.981844 
2.7650017e+3, 1.549574e+2, -1436683.0, -1450817.4, -0.07455672, 0.000011750147, -0.00005460186, -1436683.0, -15265.413, 0.0, 10.000045, 9.981313 
2.7650017e+3, 1.6493262e+2, -1348632.5, -1371948.3, 0.09340671, 0.0000117103, 0.000048333924, -1348632.5, -24972.166, 0.0, 10.000044, 9.969228 
2.7650017e+3, 1.7490189e+2, -1250675.0, -1274306.4, -0.07982215, 0.000011667381, -0.000071715156, -1250675.0, -24713.477, 0.0, 10.000044, 9.968814 
2.7650017e+3, 1.8486452e+2, -1162594.3, -1195716.3, 0.08059545, 0.00001162383, 0.000068576905, -1162594.3, -34266.52, 0.0, 10.000044, 9.956375 
2.7650017e+3, 1.9482094e+2, -1064445.0, -1097829.5, -0.09334126, 0.000011579606, -0.000055753804, -1064445.0, -33690.125, 0.0, 10.000044, 9.956032 
2.7650017e+3, 2.0477067e+2, -976281.25, -1019431.6, 0.072824866, 0.000011537942, 0.00006972524, -976281.25, -43033.96, 0.0, 10.000044, 9.943271 
2.7650017e+3, 2.1471399e+2, -877994.7, -921406.8, -0.09328346, 0.000011499045, -0.00012513906, -877994.7, -42191.8, 0.0, 10.000044, 9.942929 
2.7650017e+3, 2.246506e+2, -789708.9, -843141.94, 0.070720196, 0.000011465511, 0.0001225094, -789708.9, -51284.758, 0.0, 10.000043, 9.929888 
2.7650017e+3, 2.3458055e+2, -691275.75, -744963.8, -0.094114296, 0.0000114380355, -0.000087360204, -691275.75, -50165.22, 0.0, 10.000043, 9.929557 
2.7650017e+3, 2.4450356e+2, -602952.0, -667016.4, 0.065788515, 0.000011407407, 0.00007603359, -602952.0, -59086.9, 0.0, 10.000043, 9.916116 
2.7650017e+3, 2.544198e+2, -504199.7, -568341.2, -0.0916673, 0.000011372998, -0.00010549934, -504199.7, -57513.74, 0.0, 10.000043, 9.916016 
2.7650017e+3, 2.6432896e+2, -415964.56, -490986.0, 0.072196156, 0.000011344425, 0.00014172835, -415964.56, -66388.29, 0.0, 10.000043, 9.901945 
2.7650017e+3, 2.7423143e+2, -316679.7, -391373.2, -0.08277476, 0.000011323275, -0.00020243357, -316679.7, -64147.91, 0.0, 10.000043, 9.902365 
2.7650017e+3, 2.8412572e+2, -230206.58, -318079.66, 0.07153231, 0.000011304749, 0.00022995446, -230206.58, -74638.62, 0.0, 10.000043, 9.885419 
2.7650017e+3, 2.940122e+2, -130500.76, -217763.69, -0.07361926, 0.000011289767, -0.00025250655, -130500.76, -71820.19, 0.0, 10.000043, 9.886197 
2.7650017e+3, 3.0392662e+2, -40757.59, -84749.77, 0.076703794, 0.00001126646, 0.00017383283, -40757.59, -40757.59, 0.0, 10.000043, 9.942153 
2.7650017e+3, 3.1387064e+2, -39679.684, -82510.94, -0.06253171, 0.000011230781, -0.00005468617, -39679.684, -39679.684, 0.0, 10.000043, 9.943664 
2.7750018e+3, 1.2499378e+2, -1719891.9, -1724220.6, 0.05037475, 0.000012229127, 0.00002194855, -1719891.9, -4830.8984, 0.0, 10.000045, 9.994306 
2.7750018e+3, 1.3498801e+2, -1622512.0, -1627431.4, -0.129045, 0.000012096976, -0.000070180315, -1622512.0, -5394.455, 0.0, 10.000045, 9.993523 
2.7750018e+3, 1.4497554e+2, -1534410.5, -1548142.1, 0.024984764, 0.000012020965, 0.000077309356, -1534410.5, -15170.761, 0.0, 10.000045, 9.981844 
2.7750018e+3, 1.549574e+2, -1436683.4, -1450818.1, -0.15301944, 0.000011998947, -0.00005455054, -1436683.4, -15265.899, 0.0, 10.000045, 9.981312 
2.7750018e+3, 1.6493264e+2, -1348632.9, -1371949.0, 0.022995815, 0.000011964439, 0.0000483415, -1348632.9, -24972.637, 0.0, 10.000044, 9.969227 
2.7750018e+3, 1.749019e+2, -1250675.4, -1274307.1, -0.15019411, 0.000011917189, -0.00007167623, -1250675.4, -24713.938, 0.0, 10.000044, 9.968814 
2.7750018e+3, 1.8486454e+2, -1162594.6, -1195717.0, 0.020385379, 0.000011867109, 0.000068633424, -1162594.6, -34266.977, 0.0, 10.000044, 9.956374 
2.7750018e+3, 1.9482094e+2, -1064445.4, -1097830.1, -0.15343598, 0.000011814057, -0.000055694112, -1064445.4, -33690.574, 0.0, 10.000044, 9.956032 
2.7750018e+3, 2.0477068e+2, -976281.6, -1019432.3, 0.017016705, 0.000011773694, 0.00006977147, -976281.6, -43034.39, 0.0, 10.000044, 9.94327 
2.7750018e+3, 2.1471399e+2, -877995.06, -921407.56, -0.14900571, 0.0000117470645, -0.00012512428, -877995.06, -42192.223, 0.0, 10.000044, 9.942929 
2.7750018e+3, 2.246506e+2, -789709.2, -843142.6, 0.020748876, 0.000011714706, 0.00012252002, -789709.2, -51285.176, 0.0, 10.000043, 9.929887 
2.7750018e+3, 2.3458056e+2, -691276.1, -744964.5, -0.14390011, 0.000011675849, -0.00008732281, -691276.1, -50165.63, 0.0, 10.000043, 9.929556 
2.7750018e+3, 2.4450357e+2, -602952.3, -667017.06, 0.027163923, 0.0000116414, 0.00007607725, -602952.3, -59087.293, 0.0, 10.000043, 9.916116 
2.7750018e+3, 2.544198e+2, -504200.03, -568341.9, -0.12975858, 0.000011612216, -0.000105473904, -504200.03, -57514.125, 0.0, 10.000043, 9.916016 
2.7750018e+3, 2.6432896e+2, -415964.9, -490986.7, 0.037391394, 0.00001158561, 0.00014174313, -415964.9, -66388.68, 0.0, 10.000043, 9.901944 
2.7750018e+3, 2.7423143e+2, -316680.03, -391373.88, -0.11736132, 0.000011562262, -0.00020241976, -316680.03, -64148.285, 0.0, 10.000043, 9.902365 
2.7750018e+3, 2.8412575e+2, -230206.9, -318080.34, 0.04501759, 0.000011540104, 0.00022997144, -230206.9, -74638.984, 0.0, 10.000043, 9.885418 
2.7750018e+3, 2.940122e+2, -130501.086, -217764.36, -0.09941001, 0.000011519546, -0.00025248082, -130501.086, -71820.54, 0.0, 10.000043, 9.886197 
2.7750018e+3, 3.0392662e+2, -40757.92, -84750.47, 0.059772313, 0.000011498299, 0.00017385613, -40757.92, -40757.92, 0.0, 10.000043, 9.942152 
2.7750018e+3, 3.1387064e+2, -39680.016, -82511.625, -0.07842609, 0.000011476028, -0.00005468195, -39680.016, -39680.016, 0.0, 10.000043, 9.943664 
2.785002e+3, 1.2499379e+2, -1719888.9, -1724219.6, 0.13790783, 0.000012478401, 0.000022046774, -1719888.9, -4828.0376, 0.0, 10.000047, 9.994305 
2.785002e+3, 1.3498802e+2, -1622509.1, -1627430.4, -0.054312646, 0.000012351834, -0.00007024485, -1622509.1, -5391.6567, 0.0, 10.000047, 9.993523 
2.785002e+3, 1.4497554e+2, -1534407.6, -1548141.1, 0.097959615, 0.000012277169, 0.000077471326, -1534407.6, -15167.978, 0.0, 10.000047, 9.981843 
2.785002e+3, 1.5495741e+2, -1436680.5, -1450817.3, -0.0802404, 0.000012252188, -0.000054504606, -1436680.5, -15263.124, 0.0, 10.000047, 9.981312 
2.785002e+3, 1.6493264e+2, -1348630.0, -1371948.0, 0.09649018, 0.000012214415, 0.000048348047, -1348630.0, -24969.873, 0.0, 10.000047, 9.969227 
2.785002e+3, 1.749019e+2, -1250672.5, -1274306.3, -0.0891941, 0.000012163589, -0.00007163076, -1250672.5, -24711.195, 0.0, 10.000046, 9.968813 
2.785002e+3, 1.8486454e+2, -1162591.8, -1195716.0, 0.08200811, 0.000012113148, 0.000068691115, -1162591.8, -34264.25, 0.0, 10.000046, 9.956374 
2.785002e+3, 1.9482096e+2, -1064442.6, -1097829.3, -0.096649505, 0.000012063096, -0.000055652134, -1064442.6, -33687.875, 0.0, 10.000046, 9.956031 
2.785002e+3, 2.0477068e+2, -976278.9, -1019431.44, 0.07233354, 0.00001202297, 0.00006980544, -976278.9, -43031.707, 0.0, 10.000046, 9.94327 
2.785002e+3, 2.14714e+2, -877992.3, -921406.7, -0.102145605, 0.000011993587, -0.00012508998, -877992.3, -42189.56, 0.0, 10.000046, 9.942928 
2.785002e+3, 2.2465062e+2, -789706.5, -843141.8, 0.06736574, 0.000011959225, 0.0001225535, -789706.5, -51282.527, 0.0, 10.000045, 9.929887 
2.785002e+3, 2.3458056e+2, -691273.44, -744963.7, -0.1046579, 0.0000119192155, -0.00008729154, -691273.44, -50162.984, 0.0, 10.000045, 9.929556 
2.785002e+3, 2.4450357e+2, -602949.6, -667016.25, 0.06649395, 0.00001188478, 0.000076107826, -602949.6, -59084.66, 0.0, 10.000045, 9.916115 
2.785002e+3, 2.544198e+2, -504197.4, -568341.06, -0.0985438, 0.000011856999, -0.00010544226, -504197.4, -57511.523, 0.0, 10.000045, 9.916016 
2.785002e+3, 2.6432896e+2, -415962.28, -490985.94, 0.06948934, 0.000011830121, 0.00014177166, -415962.28, -66386.09, 0.0, 10.000045, 9.901944 
2.785002e+3, 2.7423143e+2, -316677.44, -391373.13, -0.08759869, 0.000011804367, -0.00020239965, -316677.44, -64145.707, 0.0, 10.000045, 9.902364 
2.785002e+3, 2.8412575e+2, -230204.3, -318079.6, 0.07751467, 0.000011780559, 0.00022998784, -230204.3, -74636.41, 0.0, 10.000045, 9.885418 
2.7850017e+3, 2.940122e+2, -130498.5, -217763.63, -0.073327355, 0.000011759401, -0.00025246167, -130498.5, -71817.98, 0.0, 10.000045, 9.886196 
2.7850017e+3, 3.0392662e+2, -40755.375, -84749.766, 0.08646415, 0.000011738753, 0.00017387338, -40755.375, -40755.375, 0.0, 10.000045, 9.942152 
2.7850017e+3, 3.1387064e+2, -39677.492, -82510.94, -0.055062782, 0.0000117188565, -0.000054673554, -39677.492, -39677.492, 0.0, 10.000045, 9.943663 
2.795002e+3, 1.2499381e+2, -1719889.4, -1724220.5, 0.04939993, 0.000012714022, 0.00002214088, -1719889.4, -4828.586, 0.0, 10.000047, 9.994305 
2.795002e+3, 1.3498804e+2, -1622509.5, -1627431.3, -0.14283639, 0.000012622813, -0.00007032107, -1622509.5, -5392.1953, 0.0, 10.000047, 9.993522 
2.795002e+3, 1.4497556e+2, -1534408.0, -1548141.9, 0.020187851, 0.000012555573, 0.00007762669, -1534408.0, -15168.4795, 0.0, 10.000047, 9.981843 
2.795002e+3, 1.5495741e+2, -1436680.9, -1450818.0, -0.15799913, 0.000012509869, -0.000054464053, -1436680.9, -15263.615, 0.0, 10.000047, 9.981311 
2.795002e+3, 1.6493265e+2, -1348630.5, -1371948.8, 0.024007613, 0.000012460232, 0.000048353573, -1348630.5, -24970.375, 0.0, 10.000047, 9.969226 
2.795002e+3, 1.7490192e+2, -1250673.0, -1274307.0, -0.16165084, 0.000012406587, -0.00007157877, -1250673.0, -24711.688, 0.0, 10.000046, 9.968812 
2.795002e+3, 1.8486455e+2, -1162592.3, -1195716.9, 0.017663538, 0.000012361947, 0.00006874998, -1162592.3, -34264.723, 0.0, 10.000046, 9.956373 
2.795002e+3, 1.9482096e+2, -1064443.0, -1097830.0, -0.16090254, 0.000012326713, -0.000055627857, -1064443.0, -33688.336, 0.0, 10.000046, 9.956031 
2.795002e+3, 2.047707e+2, -976279.25, -1019432.2, 0.013623373, 0.000012285763, 0.000069827154, -976279.25, -43032.156, 0.0, 10.000046, 9.943269 
2.795002e+3, 2.14714e+2, -877992.75, -921407.44, -0.1607445, 0.000012238616, -0.00012503615, -877992.75, -42190.0, 0.0, 10.000046, 9.942928 
2.795002e+3, 2.2465062e+2, -789706.9, -843142.56, 0.018254537, 0.000012199074, 0.00012260977, -789706.9, -51282.96, 0.0, 10.000045, 9.929886 
2.795002e+3, 2.3458056e+2, -691273.8, -744964.44, -0.15346086, 0.000012168133, -0.00008726637, -691273.8, -50163.41, 0.0, 10.000045, 9.929555 
2.795002e+3, 2.4450357e+2, -602950.0, -667016.94, 0.022292696, 0.000012137541, 0.00007612531, -602950.0, -59085.074, 0.0, 10.000045, 9.916115 
2.795002e+3, 2.544198e+2, -504197.75, -568341.8, -0.1425274, 0.000012107345, -0.000105404426, -504197.75, -57511.93, 0.0, 10.000045, 9.916015 
2.795002e+3, 2.6432896e+2, -415962.66, -490986.66, 0.035552025, 0.000012077959, 0.00014181393, -415962.66, -66386.484, 0.0, 10.000045, 9.901943 
2.795002e+3, 2.7423143e+2, -316677.78, -391373.8, -0.12086611, 0.000012049588, -0.00020237327, -316677.78, -64146.094, 0.0, 10.000045, 9.902364 
2.795002e+3, 2.8412575e+2, -230204.64, -318080.3, 0.050357368, 0.000012026114, 0.00023000364, -230204.64, -74636.78, 0.0, 10.000045, 9.885418 
2.795002e+3, 2.9401222e+2, -130498.84, -217764.33, -0.0999373, 0.0000120093255, -0.00025244907, -130498.84, -71818.34, 0.0, 10.000045, 9.886196 
2.795002e+3, 3.0392662e+2, -40755.715, -84750.47, 0.065059565, 0.0000119878205, 0.00017388462, -40755.715, -40755.715, 0.0, 10.000045, 9.942151 
2.795002e+3, 3.1387064e+2, -39677.832, -82511.64, -0.07586094, 0.0000119592705, -0.00005466098, -39677.832, -39677.832, 0.0, 10.000045, 9.943663 
2.805002e+3, 1.24993816e+2, -1719886.3, -1724219.4, 0.14382526, 0.000012974972, 0.00002224082, -1719886.3, -4825.6245, 0.0, 10.00005, 9.994304 
2.805002e+3, 1.3498804e+2, -1622506.5, -1627430.1, -0.05190288, 0.000012886576, -0.00007039985, -1622506.5, -5389.2666, 0.0, 10.000049, 9.993522 
2.805002e+3, 1.4497557e+2, -1534405.0, -1548140.9, 0.11352898, 0.00001281971, 0.00007778691, -1534405.0, -15165.562, 0.0, 10.000049, 9.981842 
2.805002e+3, 1.5495743e+2, -1436678.0, -1450817.0, -0.08020671, 0.00001277188, -0.000054412023, -1436678.0, -15260.723, 0.0, 10.000049, 9.981311 
2.805002e+3, 1.6493265e+2, -1348627.5, -1371947.9, 0.09914118, 0.000012719368, 0.000048367034, -1348627.5, -24967.502, 0.0, 10.000049, 9.969226 
2.805002e+3, 1.7490192e+2, -1250670.0, -1274306.0, -0.09111786, 0.00001266208, -0.00007153273, -1250670.0, -24708.824, 0.0, 10.000049, 9.968812 
2.805002e+3, 1.8486455e+2, -1162589.3, -1195715.9, 0.086857945, 0.000012617457, 0.00006880435, -1162589.3, -34261.875, 0.0, 10.000048, 9.956373 
2.805002e+3, 1.9482097e+2, -1064440.1, -1097829.1, -0.09892507, 0.0000125860715, -0.000055590514, -1064440.1, -33685.53, 0.0, 10.000048, 9.95603 
2.805002e+3, 2.047707e+2, -976276.44, -1019431.3, 0.07773545, 0.000012545103, 0.000069859496, -976276.44, -43029.367, 0.0, 10.000048, 9.943269 
2.805002e+3, 2.1471402e+2, -877989.9, -921406.5, -0.10649745, 0.0000124937515, -0.00012499579, -877989.9, -42187.215, 0.0, 10.000048, 9.942927 
2.805002e+3, 2.2465062e+2, -789704.06, -843141.6, 0.07139094, 0.0000124520575, 0.00012264976, -789704.06, -51280.184, 0.0, 10.000048, 9.929886 
2.805002e+3, 2.3458058e+2, -691271.0, -744963.56, -0.10413215, 0.000012421291, -0.00008723633, -691271.0, -50160.664, 0.0, 10.000048, 9.929555 
2.805002e+3, 2.4450359e+2, -602947.25, -667016.1, 0.07210424, 0.000012390499, 0.00007615071, -602947.25, -59082.348, 0.0, 10.000047, 9.916114 
2.805002e+3, 2.544198e+2, -504195.0, -568340.94, -0.102736786, 0.0000123596565, -0.00010537737, -504195.0, -57509.215, 0.0, 10.000047, 9.916015 
2.805002e+3, 2.64329e+2, -415959.9, -490985.8, 0.07388495, 0.000012330049, 0.00014184152, -415959.9, -66383.78, 0.0, 10.000047, 9.901943 
2.805002e+3, 2.7423146e+2, -316675.06, -391373.03, -0.091979474, 0.000012302, -0.00020234661, -316675.06, -64143.406, 0.0, 10.000047, 9.902363 
2.805002e+3, 2.8412575e+2, -230201.94, -318079.53, 0.07776199, 0.000012278533, 0.00023002755, -230201.94, -74634.11, 0.0, 10.000047, 9.885417 
2.805002e+3, 2.9401222e+2, -130496.16, -217763.56, -0.07801249, 0.000012261316, -0.0002524304, -130496.16, -71815.695, 0.0, 10.000047, 9.886195 
2.805002e+3, 3.0392662e+2, -40753.074, -84749.75, 0.08538571, 0.000012238421, 0.00017390016, -40753.074, -40753.074, 0.0, 10.000047, 9.942151 
2.805002e+3, 3.1387064e+2, -39675.176, -82510.914, -0.067302704, 0.000012207051, -0.00005464535, -39675.176, -39675.176, 0.0, 10.000047, 9.943662 
2.8150022e+3, 1.2499383e+2, -1719886.8, -1724220.3, 0.0501496, 0.000013261234, 0.000022346903, -1719886.8, -4826.1855, 0.0, 10.00005, 9.994304 
2.8150022e+3, 1.3498805e+2, -1622506.9, -1627431.0, -0.145597, 0.000013143127, -0.00007048121, -1622506.9, -5389.818, 0.0, 10.000049, 9.993521 
2.815002e+3, 1.4497557e+2, -1534405.5, -1548141.8, 0.032104854, 0.000013069592, 0.000077952005, -1534405.5, -15166.103, 0.0, 10.000049, 9.981841 
2.815002e+3, 1.5495744e+2, -1436678.4, -1450817.8, -0.16161343, 0.000013038221, -0.00005434853, -1436678.4, -15261.253, 0.0, 10.000049, 9.98131 
2.815002e+3, 1.6493267e+2, -1348627.9, -1371948.6, 0.02675564, 0.000012991814, 0.00004838842, -1348627.9, -24968.018, 0.0, 10.000049, 9.969225 
2.815002e+3, 1.7490193e+2, -1250670.5, -1274306.9, -0.16345818, 0.000012930061, -0.000071492665, -1250670.5, -24709.33, 0.0, 10.000049, 9.968811 
2.815002e+3, 1.8486457e+2, -1162589.6, -1195716.6, 0.014891251, 0.000012879676, 0.000068854235, -1162589.6, -34262.367, 0.0, 10.000048, 9.956372 
2.815002e+3, 1.9482097e+2, -1064440.5, -1097829.9, -0.17089023, 0.0000128411775, -0.000055540113, -1064440.5, -33686.01, 0.0, 10.000048, 9.95603 
2.815002e+3, 2.0477071e+2, -976276.8, -1019432.06, 0.021090224, 0.000012800997, 0.00006990247, -976276.8, -43029.844, 0.0, 10.000048, 9.943268 
2.815002e+3, 2.1471402e+2, -877990.25, -921407.3, -0.1628288, 0.0000127589865, -0.00012496885, -877990.25, -42187.68, 0.0, 10.000048, 9.942926 
2.815002e+3, 2.2465064e+2, -789704.44, -843142.44, 0.017259538, 0.0000127181665, 0.00012267345, -789704.44, -51280.633, 0.0, 10.000048, 9.929885 
2.815002e+3, 2.3458058e+2, -691271.4, -744964.3, -0.15819506, 0.000012678688, -0.0000872014, -691271.4, -50161.1, 0.0, 10.000048, 9.929554 
2.815002e+3, 2.4450359e+2, -602947.6, -667016.9, 0.027666641, 0.000012643658, 0.000076184006, -602947.6, -59082.785, 0.0, 10.000047, 9.916114 
2.815002e+3, 2.544198e+2, -504195.38, -568341.75, -0.14671417, 0.000012613934, -0.00010536108, -504195.38, -57509.64, 0.0, 10.000047, 9.916014 
2.815002e+3, 2.64329e+2, -415960.28, -490986.6, 0.03692345, 0.000012586391, 0.00014185444, -415960.28, -66384.195, 0.0, 10.000047, 9.901942 
2.815002e+3, 2.7423146e+2, -316675.44, -391373.78, -0.1284746, 0.000012561601, -0.00020231964, -316675.44, -64143.813, 0.0, 10.000047, 9.902363 
2.815002e+3, 2.8412575e+2, -230202.3, -318080.25, 0.048481923, 0.000012537815, 0.00023005957, -230202.3, -74634.5, 0.0, 10.000047, 9.885417 
2.815002e+3, 2.9401222e+2, -130496.516, -217764.3, -0.10664625, 0.0000125153765, -0.0002524057, -130496.516, -71816.08, 0.0, 10.000047, 9.886195 
2.815002e+3, 3.0392662e+2, -40753.438, -84750.5, 0.066802755, 0.000012490555, 0.00017392001, -40753.438, -40753.438, 0.0, 10.000047, 9.94215 
2.815002e+3, 3.1387064e+2, -39675.543, -82511.67, -0.08470902, 0.000012462198, -0.000054626656, -39675.543, -39675.543, 0.0, 10.000047, 9.943662 
2.825002e+3, 1.2499384e+2, -1719883.5, -1724219.1, 0.14298916, 0.000013545641, 0.000022455768, -1719883.5, -4823.1357, 0.0, 10.0000515, 9.994303 
2.825002e+3, 1.3498807e+2, -1622503.8, -1627430.0, -0.06287965, 0.000013411224, -0.000070558955, -1622503.8, -5386.751, 0.0, 10.0000515, 9.993521 
2.825002e+3, 1.4497559e+2, -1534402.3, -1548140.6, 0.11244152, 0.000013331747, 0.00007812299, -1534402.3, -15163.037, 0.0, 10.0000515, 9.981841 
2.825002e+3, 1.5495744e+2, -1436675.3, -1450816.8, -0.08815239, 0.000013304813, -0.000054292697, -1436675.3, -15258.226, 0.0, 10.000051, 9.981309 
2.825002e+3, 1.6493268e+2, -1348624.9, -1371947.6, 0.10174608, 0.000013262871, 0.00004840203, -1348624.9, -24965.021, 0.0, 10.000051, 9.969225 
2.825002e+3, 1.7490193e+2, -1250667.4, -1274305.9, -0.0949311, 0.000013205614, -0.000071446775, -1250667.4, -24706.383, 0.0, 10.000051, 9.968811 
2.825002e+3, 1.8486457e+2, -1162586.6, -1195715.6, 0.083769344, 0.000013151878, 0.00006891119, -1162586.6, -34259.426, 0.0, 10.000051, 9.956372 
2.825002e+3, 1.9482099e+2, -1064437.5, -1097828.9, -0.111749165, 0.000013101818, -0.000055494314, -1064437.5, -33683.055, 0.0, 10.00005, 9.956029 
2.825002e+3, 2.0477071e+2, -976273.8, -1019431.1, 0.0784021, 0.0000130596745, 0.00006994126, -976273.8, -43026.902, 0.0, 10.00005, 9.943268 
2.825002e+3, 2.1471404e+2, -877987.3, -921406.4, -0.111940116, 0.000013026098, -0.00012493256, -877987.3, -42184.797, 0.0, 10.00005, 9.942926 
2.825002e+3, 2.2465064e+2, -789701.5, -843141.5, 0.06915036, 0.00001298757, 0.00012270952, -789701.5, -51277.77, 0.0, 10.00005, 9.929885 
2.825002e+3, 2.3458058e+2, -691268.44, -744963.44, -0.11679073, 0.000012943427, -0.00008716297, -691268.44, -50158.242, 0.0, 10.00005, 9.929554 
2.825002e+3, 2.4450359e+2, -602944.75, -667016.0, 0.06921867, 0.000012905237, 0.000076219585, -602944.75, -59079.93, 0.0, 10.00005, 9.916113 
2.825002e+3, 2.5441983e+2, -504192.5, -568340.9, -0.10722728, 0.000012874153, -0.000105334584, -504192.5, -57506.81, 0.0, 10.00005, 9.916013 
2.825002e+3, 2.64329e+2, -415957.4, -490985.72, 0.078150146, 0.000012846653, 0.00014187658, -415957.4, -66381.38, 0.0, 10.000049, 9.901942 
2.825002e+3, 2.7423146e+2, -316672.6, -391372.94, -0.09686344, 0.0000128236825, -0.00020229584, -316672.6, -64141.02, 0.0, 10.000049, 9.902362 
2.825002e+3, 2.8412575e+2, -230199.48, -318079.44, 0.079475254, 0.000012799873, 0.0002300841, -230199.48, -74631.71, 0.0, 10.000049, 9.885416 
2.825002e+3, 2.9401222e+2, -130493.7, -217763.48, -0.08303443, 0.00001277488, -0.00025238178, -130493.7, -71813.3, 0.0, 10.000049, 9.886194 
2.825002e+3, 3.0392662e+2, -40750.676, -84749.74, 0.09170823, 0.000012749148, 0.00017394019, -40750.676, -40750.676, 0.0, 10.000049, 9.942149 
2.825002e+3, 3.1387064e+2, -39672.797, -82510.92, -0.062412303, 0.0000127223475, -0.00005461477, -39672.797, -39672.797, 0.0, 10.000049, 9.943661 
2.8350022e+3, 1.2499385e+2, -1719884.0, -1724220.0, 0.055987824, 0.0000138281985, 0.00002256775, -1719884.0, -4823.725, 0.0, 10.0000515, 9.994303 
2.8350022e+3, 1.3498807e+2, -1622504.3, -1627430.9, -0.1498968, 0.000013690859, -0.00007063308, -1622504.3, -5387.33, 0.0, 10.0000515, 9.99352 
2.8350022e+3, 1.449756e+2, -1534402.8, -1548141.5, 0.024655351, 0.000013606169, 0.00007829988, -1534402.8, -15163.598, 0.0, 10.0000515, 9.98184 
2.8350022e+3, 1.5495746e+2, -1436675.8, -1450817.6, -0.17594051, 0.000013571657, -0.000054244516, -1436675.8, -15258.775, 0.0, 10.000051, 9.981309 
2.8350022e+3, 1.6493268e+2, -1348625.3, -1371948.5, 0.020667318, 0.000013532542, 0.00004840787, -1348625.3, -24965.557, 0.0, 10.000051, 9.969224 
2.8350022e+3, 1.7490195e+2, -1250667.9, -1274306.8, -0.17597811, 0.000013488736, -0.000071395065, -1250667.9, -24706.906, 0.0, 10.000051, 9.96881 
2.8350022e+3, 1.8486458e+2, -1162587.1, -1195716.5, 0.018610122, 0.000013434058, 0.00006897521, -1162587.1, -34259.94, 0.0, 10.000051, 9.956371 
2.8350022e+3, 1.9482099e+2, -1064437.9, -1097829.8, -0.17672715, 0.0000133679905, -0.000055453114, -1064437.9, -33683.563, 0.0, 10.00005, 9.956028 
2.8350022e+3, 2.0477074e+2, -976274.25, -1019431.94, 0.010348393, 0.000013321138, 0.00006997589, -976274.25, -43027.395, 0.0, 10.00005, 9.943267 
2.8350022e+3, 2.1471404e+2, -877987.75, -921407.2, -0.18005955, 0.000013295086, -0.0001248869, -877987.75, -42185.28, 0.0, 10.00005, 9.942925 
2.8350022e+3, 2.2465065e+2, -789701.94, -843142.3, 0.017337602, 0.000013260266, 0.00012275798, -789701.94, -51278.242, 0.0, 10.00005, 9.929884 
2.8350022e+3, 2.3458059e+2, -691268.9, -744964.25, -0.16807371, 0.0000132155055, -0.000087121036, -691268.9, -50158.703, 0.0, 10.00005, 9.929553 
2.8350022e+3, 2.445036e+2, -602945.1, -667016.8, 0.02206159, 0.00001317523, 0.000076257435, -602945.1, -59080.375, 0.0, 10.00005, 9.916113 
2.8350022e+3, 2.5441983e+2, -504192.88, -568341.6, -0.15419018, 0.000013140313, -0.000105297884, -504192.88, -57507.242, 0.0, 10.00005, 9.916013 
2.835002e+3, 2.64329e+2, -415957.8, -490986.53, 0.038730785, 0.000013110833, 0.00014190795, -415957.8, -66381.81, 0.0, 10.000049, 9.901941 
2.835002e+3, 2.7423146e+2, -316673.0, -391373.75, -0.13578005, 0.000013088246, -0.00020227514, -316673.0, -64141.445, 0.0, 10.000049, 9.902362 
2.835002e+3, 2.8412575e+2, -230199.86, -318080.22, 0.05021595, 0.0000130647095, 0.00023010117, -230199.86, -74632.12, 0.0, 10.000049, 9.885415 
2.835002e+3, 2.9401222e+2, -130494.08, -217764.25, -0.11142833, 0.000013039825, -0.00025235864, -130494.08, -71813.695, 0.0, 10.000049, 9.886194 
2.835002e+3, 3.0392662e+2, -40751.047, -84750.516, 0.06947574, 0.000013014197, 0.00017396075, -40751.047, -40751.047, 0.0, 10.000049, 9.942149 
2.835002e+3, 3.1387067e+2, -39673.168, -82511.695, -0.08392639, 0.000012987497, -0.00005460969, -39673.168, -39673.168, 0.0, 10.000049, 9.943661 
2.845002e+3, 1.2499387e+2, -1719880.6, -1724218.9, 0.15355532, 0.000014107966, 0.000022676422, -1719880.6, -4820.501, 0.0, 10.000054, 9.994302 
2.845002e+3, 1.3498808e+2, -1622501.0, -1627429.8, -0.06029955, 0.000013975985, -0.000070705726, -1622501.0, -5384.1597, 0.0, 10.000053, 9.99352 
2.845002e+3, 1.4497562e+2, -1534399.5, -1548140.4, 0.11297995, 0.000013892028, 0.00007848568, -1534399.5, -15160.443, 0.0, 10.000053, 9.98184 
2.845002e+3, 1.5495747e+2, -1436672.5, -1450816.5, -0.09005863, 0.000013853537, -0.000054195054, -1436672.5, -15255.636, 0.0, 10.000053, 9.981308 
2.845002e+3, 1.649327e+2, -1348622.0, -1371947.4, 0.105996825, 0.000013810582, 0.000048411584, -1348622.0, -24962.432, 0.0, 10.000052, 9.969224 
2.845002e+3, 1.7490196e+2, -1250664.6, -1274305.6, -0.104541086, 0.000013763082, -0.00007134456, -1250664.6, -24703.797, 0.0, 10.000052, 9.96881 
2.845002e+3, 1.8486458e+2, -1162583.9, -1195715.5, 0.09125738, 0.000013709659, 0.00006904031, -1162583.9, -34256.855, 0.0, 10.000052, 9.956371 
2.845002e+3, 1.94821e+2, -1064434.8, -1097828.8, -0.10988536, 0.000013650022, -0.000055407112, -1064434.8, -33680.527, 0.0, 10.000052, 9.956028 
2.845002e+3, 2.0477074e+2, -976271.1, -1019430.94, 0.07629181, 0.000013601987, 0.00007001256, -976271.1, -43024.37, 0.0, 10.000052, 9.943266 
2.845002e+3, 2.1471404e+2, -877984.6, -921406.2, -0.12037874, 0.000013566513, -0.00012484899, -877984.6, -42182.246, 0.0, 10.0000515, 9.942925 
2.845002e+3, 2.2465065e+2, -789698.8, -843141.4, 0.07863588, 0.0000135289565, 0.0001227949, -789698.8, -51275.22, 0.0, 10.0000515, 9.929884 
2.845002e+3, 2.3458059e+2, -691265.8, -744963.3, -0.11630993, 0.0000134890315, -0.00008708766, -691265.8, -50155.727, 0.0, 10.0000515, 9.929553 
2.845002e+3, 2.445036e+2, -602942.1, -667015.9, 0.07120904, 0.000013450874, 0.00007628984, -602942.1, -59077.418, 0.0, 10.0000515, 9.916112 
2.845002e+3, 2.5441983e+2, -504189.9, -568340.75, -0.11630909, 0.000013414817, -0.00010526337, -504189.9, -57504.305, 0.0, 10.0000515, 9.916012 
2.845002e+3, 2.64329e+2, -415954.8, -490985.66, 0.07690288, 0.0000133833555, 0.0001419399, -415954.8, -66378.88, 0.0, 10.0000515, 9.90194 
2.845002e+3, 2.7423146e+2, -316670.03, -391372.88, -0.10058592, 0.000013357723, -0.00020225171, -316670.03, -64138.523, 0.0, 10.0000515, 9.902361 
2.845002e+3, 2.8412575e+2, -230196.9, -318079.34, 0.086848125, 0.000013332776, 0.00023012022, -230196.9, -74629.21, 0.0, 10.0000515, 9.885415 
2.845002e+3, 2.9401222e+2, -130491.164, -217763.42, -0.0849641, 0.000013308723, -0.0002523383, -130491.164, -71810.805, 0.0, 10.000051, 9.886193 
2.845002e+3, 3.0392662e+2, -40748.176, -84749.73, 0.09228442, 0.000013283729, 0.00017398025, -40748.176, -40748.176, 0.0, 10.000051, 9.942148 
2.845002e+3, 3.1387067e+2, -39670.3, -82510.914, -0.071617216, 0.000013257342, -0.00005459425, -39670.3, -39670.3, 0.0, 10.000051, 9.94366 
2.8550023e+3, 1.24993876e+2, -1719881.1, -1724219.8, 0.056799266, 0.000014384949, 0.000022782175, -1719881.1, -4821.1133, 0.0, 10.000054, 9.994301 
2.8550023e+3, 1.349881e+2, -1622501.4, -1627430.6, -0.15707421, 0.0000142665995, -0.00007077689, -1622501.4, -5384.7617, 0.0, 10.000053, 9.993519 
2.8550023e+3, 1.4497562e+2, -1534400.0, -1548141.3, 0.024058398, 0.000014189316, 0.00007868038, -1534400.0, -15161.016, 0.0, 10.000053, 9.981839 
2.8550023e+3, 1.5495747e+2, -1436672.9, -1450817.4, -0.17897101, 0.0000141504415, -0.000054144308, -1436672.9, -15256.196, 0.0, 10.000053, 9.981308 
2.8550023e+3, 1.6493271e+2, -1348622.5, -1371948.3, 0.02471508, 0.000014096986, 0.000048413178, -1348622.5, -24963.002, 0.0, 10.000052, 9.969223 
2.8550023e+3, 1.7490196e+2, -1250665.1, -1274306.5, -0.18578434, 0.000014028663, -0.000071295275, -1250665.1, -24704.355, 0.0, 10.000052, 9.968809 
2.8550023e+3, 1.848646e+2, -1162584.4, -1195716.4, 0.015883565, 0.000013978688, 0.000069106485, -1162584.4, -34257.387, 0.0, 10.000052, 9.95637 
2.8550023e+3, 1.94821e+2, -1064435.3, -1097829.6, -0.18519449, 0.0000139479, -0.000055356308, -1064435.3, -33681.05, 0.0, 10.000052, 9.956027 
2.8550023e+3, 2.0477076e+2, -976271.56, -1019431.8, 0.013855939, 0.00001390221, 0.00007005127, -976271.56, -43024.883, 0.0, 10.000052, 9.943266 
2.8550023e+3, 2.1471405e+2, -877985.06, -921407.06, -0.18255287, 0.0000138403775, -0.00012481879, -877985.06, -42182.746, 0.0, 10.0000515, 9.9429245 
2.8550023e+3, 2.2465067e+2, -789699.25, -843142.2, 0.018756563, 0.000013793648, 0.00012282029, -789699.25, -51275.715, 0.0, 10.0000515, 9.929883 
2.8550023e+3, 2.345806e+2, -691266.25, -744964.1, -0.17611645, 0.000013764008, -0.00008706284, -691266.25, -50156.21, 0.0, 10.0000515, 9.929552 
2.8550023e+3, 2.445036e+2, -602942.5, -667016.7, 0.022811327, 0.000013732164, 0.0000763168, -602942.5, -59077.89, 0.0, 10.0000515, 9.916112 
2.8550023e+3, 2.5441983e+2, -504190.3, -568341.56, -0.16416292, 0.00001369766, -0.000105231025, -504190.3, -57504.766, 0.0, 10.0000515, 9.916012 
2.8550023e+3, 2.64329e+2, -415955.22, -490986.47, 0.037765704, 0.000013664216, 0.00014197246, -415955.22, -66379.33, 0.0, 10.0000515, 9.90194 
2.8550023e+3, 2.7423146e+2, -316670.4, -391373.7, -0.13914354, 0.000013632112, -0.00020222552, -316670.4, -64138.957, 0.0, 10.0000515, 9.90236 
2.8550023e+3, 2.8412575e+2, -230197.3, -318080.16, 0.05422619, 0.0000136040735, 0.00023014126, -230197.3, -74629.64, 0.0, 10.0000515, 9.885414 
2.8550023e+3, 2.9401222e+2, -130491.55, -217764.23, -0.11705446, 0.000013581576, -0.00025232075, -130491.55, -71811.23, 0.0, 10.000051, 9.886193 
2.8550023e+3, 3.0392665e+2, -40748.57, -84750.54, 0.070055604, 0.00001355774, 0.0001739987, -40748.57, -40748.57, 0.0, 10.000051, 9.942148 
2.8550023e+3, 3.1387067e+2, -39670.69, -82511.73, -0.09269273, 0.000013531882, -0.000054568456, -39670.69, -39670.69, 0.0, 10.000051, 9.943659 
2.8650025e+3, 1.2499389e+2, -1719877.6, -1724218.6, 0.16082184, 0.000014674687, 0.00002289666, -1719877.6, -4817.757, 0.0, 10.000056, 9.994301 
2.8650025e+3, 1.3498811e+2, -1622498.0, -1627429.5, -0.064364724, 0.00001456087, -0.00007086751, -1622498.0, -5381.456, 0.0, 10.000056, 9.993518 
2.8650025e+3, 1.4497563e+2, -1534396.5, -1548140.1, 0.11622269, 0.000014485228, 0.00007886212, -1534396.5, -15157.723, 0.0, 10.000056, 9.981839 
2.8650022e+3, 1.5495749e+2, -1436669.5, -1450816.3, -0.09931851, 0.000014445031, -0.000054083317, -1436669.5, -15252.928, 0.0, 10.000055, 9.981307 
2.8650022e+3, 1.6493271e+2, -1348619.1, -1371947.1, 0.10522287, 0.000014388029, 0.00004842917, -1348619.1, -24959.756, 0.0, 10.000055, 9.969222 
2.8650022e+3, 1.7490198e+2, -1250661.8, -1274305.5, -0.108608566, 0.000014313887, -0.00007124689, -1250661.8, -24701.127, 0.0, 10.000055, 9.968809 
2.8650022e+3, 1.8486461e+2, -1162581.0, -1195715.3, 0.09062859, 0.000014262919, 0.00006916468, -1162581.0, -34254.17, 0.0, 10.000055, 9.956369 
2.8650022e+3, 1.9482102e+2, -1064431.9, -1097828.5, -0.121244885, 0.000014236183, -0.00005531195, -1064431.9, -33677.863, 0.0, 10.000054, 9.956027 
2.8650022e+3, 2.0477076e+2, -976268.3, -1019430.75, 0.07966277, 0.000014191277, 0.00007009128, -976268.3, -43021.72, 0.0, 10.000054, 9.943265 
2.8650022e+3, 2.1471405e+2, -877981.9, -921406.06, -0.12842333, 0.000014126684, -0.00012477287, -877981.9, -42179.613, 0.0, 10.000054, 9.9429245 
2.8650022e+3, 2.2465067e+2, -789696.06, -843141.2, 0.070537016, 0.0000140778175, 0.00012286453, -789696.06, -51272.594, 0.0, 10.000054, 9.929883 
2.8650022e+3, 2.345806e+2, -691263.06, -744963.2, -0.12678795, 0.000014046747, -0.00008702891, -691263.06, -50153.1, 0.0, 10.000054, 9.929551 
2.8650022e+3, 2.4450362e+2, -602939.4, -667015.75, 0.075337216, 0.000014014077, 0.00007634558, -602939.4, -59074.793, 0.0, 10.000053, 9.916111 
2.8650022e+3, 2.5441983e+2, -504187.2, -568340.6, -0.12099042, 0.000013979469, -0.00010520123, -504187.2, -57501.7, 0.0, 10.000053, 9.916011 
2.8650022e+3, 2.64329e+2, -415952.13, -490985.53, 0.08025832, 0.000013945943, 0.00014200264, -415952.13, -66376.28, 0.0, 10.000053, 9.901939 
2.8650022e+3, 2.7423146e+2, -316667.34, -391372.78, -0.1081381, 0.000013913783, -0.00020219575, -316667.34, -64135.93, 0.0, 10.000053, 9.90236 
2.8650022e+3, 2.8412578e+2, -230194.25, -318079.25, 0.08385964, 0.000013885208, 0.00023016894, -230194.25, -74626.62, 0.0, 10.000053, 9.885414 
2.8650022e+3, 2.9401222e+2, -130488.51, -217763.36, -0.09014318, 0.000013861518, -0.00025229747, -130488.51, -71808.21, 0.0, 10.000053, 9.886192 
2.8650022e+3, 3.0392665e+2, -40745.574, -84749.72, 0.10024633, 0.000013836696, 0.00017401684, -40745.574, -40745.574, 0.0, 10.000053, 9.942147 
2.8650022e+3, 3.1387067e+2, -39667.71, -82510.914, -0.06894783, 0.00001381017, -0.000054556556, -39667.71, -39667.71, 0.0, 10.000053, 9.943659 
2.8750023e+3, 1.24993905e+2, -1719878.3, -1724219.6, 0.05503241, 0.0000149771695, 0.000023020259, -1719878.3, -4818.401, 0.0, 10.000056, 9.9943 
2.8750023e+3, 1.3498813e+2, -1622498.5, -1627430.5, -0.17017187, 0.000014858798, -0.00007097756, -1622498.5, -5382.0884, 0.0, 10.000056, 9.993518 
2.8750023e+3, 1.4497565e+2, -1534397.0, -1548141.0, 0.024458459, 0.000014779769, 0.00007903092, -1534397.0, -15158.327, 0.0, 10.000056, 9.981838 
2.8750023e+3, 1.549575e+2, -1436670.0, -1450817.1, -0.19106467, 0.000014737311, -0.00005401209, -1436670.0, -15253.52, 0.0, 10.000055, 9.981307 
2.8750023e+3, 1.6493273e+2, -1348619.6, -1371948.1, 0.022785388, 0.0000146837065, 0.000048459555, -1348619.6, -24960.338, 0.0, 10.000055, 9.969222 
2.8750023e+3, 1.7490198e+2, -1250662.3, -1274306.4, -0.19099918, 0.000014618739, -0.00007119941, -1250662.3, -24701.697, 0.0, 10.000055, 9.968808 
2.8750023e+3, 1.8486461e+2, -1162581.5, -1195716.1, 0.010788154, 0.000014562339, 0.000069214904, -1162581.5, -34254.73, 0.0, 10.000055, 9.956369 
2.8750023e+3, 1.9482103e+2, -1064432.4, -1097829.5, -0.20105915, 0.000014514884, -0.000055274028, -1064432.4, -33678.414, 0.0, 10.000054, 9.956026 
2.8750023e+3, 2.0477077e+2, -976268.75, -1019431.6, 0.012747452, 0.000014469199, 0.00007013258, -976268.75, -43022.258, 0.0, 10.000054, 9.943265 
2.8750023e+3, 2.1471407e+2, -877982.3, -921406.94, -0.1950763, 0.000014425424, -0.0001247112, -877982.3, -42180.14, 0.0, 10.000054, 9.942924 
2.8750023e+3, 2.2465067e+2, -789696.5, -843142.06, 0.011441779, 0.000014381453, 0.00012292761, -789696.5, -51273.098, 0.0, 10.000054, 9.929882 
2.8750023e+3, 2.3458062e+2, -691263.5, -744964.0, -0.18564114, 0.000014337246, -0.000086985856, -691263.5, -50153.594, 0.0, 10.000054, 9.929551 
2.8750023e+3, 2.4450362e+2, -602939.8, -667016.6, 0.022643266, 0.000014296616, 0.00007637619, -602939.8, -59075.285, 0.0, 10.000053, 9.91611 
2.8750023e+3, 2.5441983e+2, -504187.63, -568341.5, -0.17339195, 0.000014260249, -0.00010517398, -504187.63, -57502.18, 0.0, 10.000053, 9.916011 
2.8750023e+3, 2.6432902e+2, -415952.56, -490986.4, 0.038917605, 0.00001422854, 0.00014203046, -415952.56, -66376.75, 0.0, 10.000053, 9.901939 
2.8750023e+3, 2.7423146e+2, -316667.78, -391373.63, -0.1487416, 0.000014202732, -0.00020216238, -316667.78, -64136.39, 0.0, 10.000053, 9.902359 
2.8750023e+3, 2.8412578e+2, -230194.64, -318080.1, 0.05097769, 0.000014176174, 0.00023020325, -230194.64, -74627.055, 0.0, 10.000053, 9.885413 
2.8750023e+3, 2.9401222e+2, -130488.91, -217764.17, -0.12233485, 0.000014148543, -0.00025226848, -130488.91, -71808.64, 0.0, 10.000053, 9.886192 
2.8750023e+3, 3.0392665e+2, -40745.98, -84750.555, 0.07598608, 0.000014120595, 0.00017403463, -40745.98, -40745.98, 0.0, 10.000053, 9.942147 
2.8750023e+3, 3.1387067e+2, -39668.117, -82511.76, -0.09228117, 0.000014092203, -0.000054558535, -39668.117, -39668.117, 0.0, 10.000053, 9.943658 
2.8850025e+3, 1.2499391e+2, -1719874.6, -1724218.4, 0.16224551, 0.000015293786, 0.00002313834, -1719874.6, -4814.949, 0.0, 10.000059, 9.9943 
2.8850025e+3, 1.3498813e+2, -1622495.0, -1627429.3, -0.06527006, 0.00001515759, -0.00007106982, -1622495.0, -5378.624, 0.0, 10.000058, 9.993517 
2.8850025e+3, 1.4497566e+2, -1534393.5, -1548139.8, 0.12882394, 0.00001507265, 0.00007922051, -1534393.5, -15154.868, 0.0, 10.000058, 9.981837 
2.8850025e+3, 1.5495752e+2, -1436666.5, -1450816.0, -0.10148379, 0.000015036223, -0.000053953063, -1436666.5, -15250.103, 0.0, 10.000058, 9.981306 
2.8850025e+3, 1.6493274e+2, -1348616.1, -1371946.9, 0.10977921, 0.000014987201, 0.000048472462, -1348616.1, -24956.951, 0.0, 10.000058, 9.969221 
2.8850025e+3, 1.7490199e+2, -1250658.9, -1274305.3, -0.11264511, 0.000014925338, -0.000071146365, -1250658.9, -24698.357, 0.0, 10.000057, 9.968807 
2.8850025e+3, 1.8486463e+2, -1162578.1, -1195715.0, 0.08974785, 0.000014864759, 0.00006928055, -1162578.1, -34251.406, 0.0, 10.000057, 9.956368 
2.8850025e+3, 1.9482103e+2, -1064429.0, -1097828.4, -0.13049628, 0.000014805499, -0.00005522461, -1064429.0, -33675.082, 0.0, 10.000057, 9.956026 
2.8850025e+3, 2.0477077e+2, -976265.4, -1019430.56, 0.082300685, 0.000014758321, 0.00007017299, -976265.4, -43018.94, 0.0, 10.000057, 9.943264 
2.8850025e+3, 2.1471407e+2, -877978.94, -921405.9, -0.1319239, 0.000014724217, -0.00012467198, -877978.94, -42176.87, 0.0, 10.000057, 9.942924 
2.8850025e+3, 2.2465068e+2, -789693.2, -843141.0, 0.07575083, 0.000014682814, 0.00012296722, -789693.2, -51269.855, 0.0, 10.000056, 9.929881 
2.8850025e+3, 2.3458062e+2, -691260.25, -744963.0, -0.13528202, 0.0000146331295, -0.000086944085, -691260.25, -50150.37, 0.0, 10.000056, 9.92955 
2.8850025e+3, 2.4450363e+2, -602936.5, -667015.6, 0.070866935, 0.000014588333, 0.00007641601, -602936.5, -59072.074, 0.0, 10.000056, 9.91611 
2.8850025e+3, 2.5441986e+2, -504184.34, -568340.5, -0.12997288, 0.0000145493705, -0.00010514106, -504184.34, -57498.977, 0.0, 10.000056, 9.91601 
2.8850025e+3, 2.6432902e+2, -415949.3, -490985.44, 0.08410252, 0.000014517946, 0.00014205833, -415949.3, -66373.56, 0.0, 10.000056, 9.901938 
2.8850025e+3, 2.742315e+2, -316664.56, -391372.72, -0.110807575, 0.000014496083, -0.00020213725, -316664.56, -64133.234, 0.0, 10.000056, 9.902359 
2.8850025e+3, 2.8412578e+2, -230191.47, -318079.16, 0.088931814, 0.00001447028, 0.00023022707, -230191.47, -74623.914, 0.0, 10.000055, 9.885413 
2.8850025e+3, 2.9401222e+2, -130485.75, -217763.27, -0.09669998, 0.000014439022, -0.0002522441, -130485.75, -71805.516, 0.0, 10.000055, 9.886191 
2.8850025e+3, 3.0392665e+2, -40742.87, -84749.7, 0.09887736, 0.000014409076, 0.00017405656, -40742.87, -40742.87, 0.0, 10.000055, 9.942146 
2.8850025e+3, 3.1387067e+2, -39665.008, -82510.91, -0.07556308, 0.0000143811485, -0.000054543634, -39665.008, -39665.008, 0.0, 10.000055, 9.943658 
2.8950024e+3, 1.2499393e+2, -1719875.1, -1724219.4, 0.06250591, 0.00001562453, 0.000023251772, -1719875.1, -4815.604, 0.0, 10.000059, 9.994299 
2.8950024e+3, 1.3498814e+2, -1622495.5, -1627430.3, -0.1650268, 0.00001545725, -0.00007114429, -1622495.5, -5379.2676, 0.0, 10.000058, 9.993516 
2.8950024e+3, 1.4497566e+2, -1534394.0, -1548140.8, 0.030078162, 0.000015363874, 0.00007943087, -1534394.0, -15155.512, 0.0, 10.000058, 9.981837 
2.8950024e+3, 1.5495752e+2, -1436667.0, -1450817.0, -0.2002262, 0.000015341764, -0.000053906228, -1436667.0, -15250.732, 0.0, 10.000058, 9.981305 
2.8950024e+3, 1.6493274e+2, -1348616.6, -1371947.9, 0.01926777, 0.000015298509, 0.000048467904, -1348616.6, -24957.555, 0.0, 10.000058, 9.969221 
2.8950024e+3, 1.74902e+2, -1250659.3, -1274306.1, -0.20311591, 0.000015233682, -0.000071087765, -1250659.3, -24698.951, 0.0, 10.000057, 9.968807 
2.8950024e+3, 1.8486464e+2, -1162578.6, -1195716.0, 0.014340636, 0.000015170177, 0.000069361595, -1162578.6, -34251.99, 0.0, 10.000057, 9.956368 
2.8950024e+3, 1.9482104e+2, -1064429.5, -1097829.3, -0.20573302, 0.000015108021, -0.000055163702, -1064429.5, -33675.652, 0.0, 10.000057, 9.956025 
2.8950024e+3, 2.0477079e+2, -976265.9, -1019431.5, 0.0065346207, 0.000015058637, 0.0000702125, -976265.9, -43019.496, 0.0, 10.000057, 9.943263 
2.8950024e+3, 2.1471408e+2, -877979.44, -921406.8, -0.20770636, 0.000015023068, -0.00012465518, -877979.44, -42177.418, 0.0, 10.000057, 9.942923 
2.8950024e+3, 2.2465068e+2, -789693.7, -843141.94, 0.014398297, 0.000014981907, 0.00012298337, -789693.7, -51270.395, 0.0, 10.000056, 9.929881 
2.8950024e+3, 2.3458062e+2, -691260.7, -744963.94, -0.19616732, 0.000014934396, -0.00008690359, -691260.7, -50150.895, 0.0, 10.000056, 9.92955 
2.8950024e+3, 2.4450363e+2, -602937.0, -667016.5, 0.019295305, 0.000014889221, 0.00007646502, -602937.0, -59072.582, 0.0, 10.000056, 9.916109 
2.8950024e+3, 2.5441986e+2, -504184.78, -568341.4, -0.18110162, 0.000014846829, -0.00010510247, -504184.78, -57499.47, 0.0, 10.000056, 9.916009 
2.8950024e+3, 2.6432902e+2, -415949.75, -490986.3, 0.037540413, 0.000014814157, 0.00014208622, -415949.75, -66374.05, 0.0, 10.000056, 9.901938 
2.8950024e+3, 2.742315e+2, -316665.0, -391373.6, -0.15706761, 0.000014793835, -0.00020212031, -316665.0, -64133.71, 0.0, 10.000056, 9.902358 
2.8950024e+3, 2.8412578e+2, -230191.89, -318080.03, 0.05457405, 0.000014767527, 0.0002302404, -230191.89, -74624.375, 0.0, 10.000055, 9.885412 
2.8950024e+3, 2.9401222e+2, -130486.17, -217764.14, -0.1299895, 0.000014732954, -0.00025222424, -130486.17, -71805.97, 0.0, 10.000055, 9.88619 
2.8950024e+3, 3.0392665e+2, -40743.29, -84750.57, 0.07486101, 0.00001470214, 0.00017408261, -40743.29, -40743.29, 0.0, 10.000055, 9.942145 
2.8950024e+3, 3.1387067e+2, -39665.426, -82511.77, -0.098496675, 0.000014677002, -0.000054511875, -39665.426, -39665.426, 0.0, 10.000055, 9.943657 
2.9050028e+3, 1.2499394e+2, -1719871.4, -1724218.0, 0.17202814, 0.000015940754, 0.000023374594, -1719871.4, -4811.9746, 0.0, 10.000061, 9.994298 
2.9050028e+3, 1.3498816e+2, -1622491.8, -1627429.0, -0.07536631, 0.000015773565, -0.00007122551, -1622491.8, -5375.6797, 0.0, 10.000061, 9.993516 
2.9050025e+3, 1.4497568e+2, -1534390.3, -1548139.5, 0.11507504, 0.000015679223, 0.00007963939, -1534390.3, -15151.937, 0.0, 10.000061, 9.981836 
2.9050025e+3, 1.5495753e+2, -1436663.4, -1450815.8, -0.1106118, 0.000015655032, -0.000053850745, -1436663.4, -15247.185, 0.0, 10.000061, 9.981305 
2.9050025e+3, 1.6493276e+2, -1348613.0, -1371946.6, 0.11324098, 0.0000156088, 0.000048472328, -1348613.0, -24954.031, 0.0, 10.00006, 9.96922 
2.9050025e+3, 1.7490202e+2, -1250655.8, -1274305.0, -0.12538593, 0.000015540088, -0.00007103018, -1250655.8, -24695.443, 0.0, 10.00006, 9.968806 
2.9050025e+3, 1.8486464e+2, -1162575.0, -1195714.8, 0.09132276, 0.000015478221, 0.0000694345, -1162575.0, -34248.5, 0.0, 10.00006, 9.9563675 
2.9050025e+3, 1.9482104e+2, -1064425.9, -1097828.1, -0.13452238, 0.00001542347, -0.00005511507, -1064425.9, -33672.223, 0.0, 10.00006, 9.956024 
2.9050025e+3, 2.0477079e+2, -976262.4, -1019430.4, 0.07763488, 0.000015372327, 0.00007025085, -976262.4, -43016.086, 0.0, 10.000059, 9.943263 
2.9050025e+3, 2.147141e+2, -877975.94, -921405.7, -0.14556913, 0.000015325082, -0.00012461198, -877975.94, -42174.0, 0.0, 10.000059, 9.942922 
2.9050025e+3, 2.246507e+2, -789690.2, -843140.9, 0.0775002, 0.000015280428, 0.00012302687, -789690.2, -51266.99, 0.0, 10.000059, 9.92988 
2.9050025e+3, 2.3458064e+2, -691257.25, -744962.9, -0.14169188, 0.000015238691, -0.000086864995, -691257.25, -50147.527, 0.0, 10.000059, 9.929549 
2.9050025e+3, 2.4450363e+2, -602933.56, -667015.44, 0.07335758, 0.000015196282, 0.00007650056, -602933.56, -59069.234, 0.0, 10.000059, 9.916109 
2.9050025e+3, 2.5441986e+2, -504181.44, -568340.4, -0.13753885, 0.000015153051, -0.00010506774, -504181.44, -57496.156, 0.0, 10.000058, 9.916009 
2.9050025e+3, 2.6432902e+2, -415946.4, -490985.34, 0.08000557, 0.000015118315, 0.00014211894, -415946.4, -66370.76, 0.0, 10.000058, 9.9019375 
2.9050025e+3, 2.742315e+2, -316661.66, -391372.63, -0.12171472, 0.0000150943715, -0.00020209115, -316661.66, -64130.42, 0.0, 10.000058, 9.902357 
2.9050025e+3, 2.8412578e+2, -230188.56, -318079.06, 0.092903554, 0.000015066565, 0.00023026638, -230188.56, -74621.09, 0.0, 10.000058, 9.885411 
2.9050025e+3, 2.9401225e+2, -130482.875, -217763.19, -0.09759555, 0.0000150334035, -0.000252201, -130482.875, -71802.7, 0.0, 10.000058, 9.88619 
2.9050025e+3, 3.0392665e+2, -40740.047, -84749.69, 0.10580297, 0.000015002668, 0.00017410405, -40740.047, -40740.047, 0.0, 10.000058, 9.942145 
2.9050025e+3, 3.1387067e+2, -39662.195, -82510.89, -0.08085919, 0.000014975602, -0.000054490978, -39662.195, -39662.195, 0.0, 10.000058, 9.943656 
2.9150027e+3, 1.2499396e+2, -1719872.0, -1724219.1, 0.06568768, 0.000016242466, 0.000023507871, -1719872.0, -4812.6807, 0.0, 10.000061, 9.994298 
2.9150027e+3, 1.3498817e+2, -1622492.3, -1627430.0, -0.18172157, 0.000016106518, -0.00007131348, -1622492.3, -5376.3735, 0.0, 10.000061, 9.993515 
2.9150027e+3, 1.4497569e+2, -1534390.8, -1548140.5, 0.012830789, 0.000016018676, 0.000079846046, -1534390.8, -15152.574, 0.0, 10.000061, 9.981836 
2.9150027e+3, 1.5495755e+2, -1436663.9, -1450816.6, -0.21285638, 0.00001597602, -0.000053786633, -1436663.9, -15247.809, 0.0, 10.000061, 9.981304 
2.9150027e+3, 1.6493277e+2, -1348613.6, -1371947.6, 0.022052802, 0.000015918082, 0.000048485723, -1348613.6, -24954.676, 0.0, 10.00006, 9.969219 
2.9150027e+3, 1.7490202e+2, -1250656.3, -1274306.0, -0.21651849, 0.000015844567, -0.00007097362, -1250656.3, -24696.076, 0.0, 10.00006, 9.968805 
2.9150027e+3, 1.8486466e+2, -1162575.5, -1195715.8, 0.0052817613, 0.00001578889, 0.00006949926, -1162575.5, -34249.1, 0.0, 10.00006, 9.956367 
2.9150027e+3, 1.9482106e+2, -1064426.4, -1097829.1, -0.22051002, 0.000015751832, -0.000055078697, -1064426.4, -33672.81, 0.0, 10.00006, 9.956024 
2.9150024e+3, 2.047708e+2, -976262.9, -1019431.3, 0.0060638436, 0.000015699385, 0.00007028801, -976262.9, -43016.664, 0.0, 10.000059, 9.943262 
2.9150024e+3, 2.147141e+2, -877976.44, -921406.6, -0.21684799, 0.000015630261, -0.00012454239, -877976.44, -42174.566, 0.0, 10.000059, 9.942922 
2.9150024e+3, 2.246507e+2, -789690.7, -843141.8, 0.011107076, 0.000015578382, 0.00012309766, -789690.7, -51267.547, 0.0, 10.000059, 9.92988 
2.9150024e+3, 2.3458064e+2, -691257.75, -744963.8, -0.2079281, 0.000015546017, -0.000086828324, -691257.75, -50148.07, 0.0, 10.000059, 9.929548 
2.9150024e+3, 2.4450365e+2, -602934.0, -667016.4, 0.016073653, 0.000015509513, 0.00007652265, -602934.0, -59069.766, 0.0, 10.000059, 9.916108 
2.9150024e+3, 2.5441986e+2, -504181.88, -568341.3, -0.19439723, 0.000015468035, -0.00010503686, -504181.88, -57496.676, 0.0, 10.000058, 9.916008 
2.9150024e+3, 2.6432902e+2, -415946.88, -490986.25, 0.03484056, 0.000015430413, 0.00014215645, -415946.88, -66371.26, 0.0, 10.000058, 9.901937 
2.9150024e+3, 2.742315e+2, -316662.13, -391373.53, -0.16610143, 0.000015397694, -0.00020204978, -316662.13, -64130.918, 0.0, 10.000058, 9.902357 
2.9150024e+3, 2.8412578e+2, -230189.02, -318079.97, 0.056634072, 0.000015367395, 0.00023030496, -230189.02, -74621.57, 0.0, 10.000058, 9.885411 
2.9150024e+3, 2.9401225e+2, -130483.305, -217764.1, -0.13313812, 0.000015340367, -0.00025217427, -130483.305, -71803.17, 0.0, 10.000058, 9.886189 
2.9150024e+3, 3.0392665e+2, -40740.492, -84750.61, 0.07920243, 0.000015310658, 0.00017412088, -40740.492, -40740.492, 0.0, 10.000058, 9.942144 
2.9150024e+3, 3.1387067e+2, -39662.645, -82511.82, -0.10641297, 0.000015276952, -0.000054480926, -39662.645, -39662.645, 0.0, 10.000058, 9.943656 
2.9250026e+3, 1.2499397e+2, -1719868.0, -1724217.8, 0.17926763, 0.000016560332, 0.000023637265, -1719868.0, -4808.8804, 0.0, 10.000064, 9.994297 
2.9250026e+3, 1.3498819e+2, -1622488.5, -1627428.8, -0.067308165, 0.000016440163, -0.0000714141, -1622488.5, -5372.651, 0.0, 10.000064, 9.993514 
2.9250026e+3, 1.449757e+2, -1534387.0, -1548139.1, 0.12939334, 0.000016354414, 0.00008005206, -1534387.0, -15148.869, 0.0, 10.000064, 9.981835 
2.9250026e+3, 1.5495756e+2, -1436660.0, -1450815.4, -0.11810648, 0.000016300013, -0.000053719807, -1436660.0, -15244.112, 0.0, 10.000063, 9.981303 
2.9250026e+3, 1.6493279e+2, -1348609.8, -1371946.4, 0.11373459, 0.000016237194, 0.000048500657, -1348609.8, -24951.002, 0.0, 10.000063, 9.969219 
2.9250026e+3, 1.7490204e+2, -1250652.5, -1274304.8, -0.12580541, 0.000016165808, -0.000070921364, -1250652.5, -24692.438, 0.0, 10.000063, 9.968805 
2.9250026e+3, 1.8486467e+2, -1162571.8, -1195714.5, 0.09474941, 0.000016110638, 0.00006956381, -1162571.8, -34245.48, 0.0, 10.000063, 9.956367 
2.9250026e+3, 1.9482107e+2, -1064422.8, -1097827.9, -0.14541684, 0.0000160724, -0.00005502808, -1064422.8, -33669.215, 0.0, 10.000062, 9.956023 
2.9250026e+3, 2.0477082e+2, -976259.2, -1019430.2, 0.08253363, 0.000016018352, 0.000070333954, -976259.2, -43013.09, 0.0, 10.000062, 9.943262 
2.9250026e+3, 2.1471411e+2, -877972.8, -921405.5, -0.15270707, 0.000015947177, -0.0001244911, -877972.8, -42171.02, 0.0, 10.000062, 9.942921 
2.9250026e+3, 2.2465071e+2, -789687.06, -843140.7, 0.07078554, 0.000015894517, 0.00012314648, -789687.06, -51264.02, 0.0, 10.000062, 9.929879 
2.9250026e+3, 2.3458065e+2, -691254.1, -744962.7, -0.1523916, 0.000015862806, -0.00008679083, -691254.1, -50144.58, 0.0, 10.000062, 9.929548 
2.9250026e+3, 2.4450365e+2, -602930.5, -667015.3, 0.07675638, 0.000015825663, 0.00007655481, -602930.5, -59066.29, 0.0, 10.000061, 9.916107 
2.9250026e+3, 2.5441986e+2, -504178.38, -568340.25, -0.14308906, 0.000015781996, -0.000105002866, -504178.38, -57493.21, 0.0, 10.000061, 9.916008 
2.9250026e+3, 2.6432902e+2, -415943.34, -490985.22, 0.08445384, 0.000015742713, 0.00014219068, -415943.34, -66367.81, 0.0, 10.000061, 9.901937 
2.9250026e+3, 2.742315e+2, -316658.66, -391372.5, -0.1298496, 0.000015709005, -0.00020201743, -316658.66, -64127.492, 0.0, 10.000061, 9.902356 
2.9250026e+3, 2.8412578e+2, -230185.56, -318078.97, 0.089247875, 0.000015678606, 0.0002303356, -230185.56, -74618.164, 0.0, 10.000061, 9.88541 
2.9250026e+3, 2.9401225e+2, -130479.88, -217763.11, -0.10925054, 0.00001565269, -0.00025214514, -130479.88, -71799.79, 0.0, 10.000061, 9.8861885 
2.9250026e+3, 3.0392665e+2, -40737.13, -84749.69, 0.10664047, 0.000015622809, 0.00017414434, -40737.13, -40737.13, 0.0, 10.000061, 9.942143 
2.9250026e+3, 3.1387067e+2, -39659.277, -82510.9, -0.08051322, 0.000015587026, -0.00005446934, -39659.277, -39659.277, 0.0, 10.000061, 9.943655 
2.9350027e+3, 1.2499398e+2, -1719868.6, -1724218.8, 0.05808247, 0.00001689433, 0.000023762268, -1719868.6, -4809.5903, 0.0, 10.000064, 9.994296 
2.9350027e+3, 1.349882e+2, -1622489.0, -1627429.8, -0.18851176, 0.000016774498, -0.00007152735, -1622489.0, -5373.3486, 0.0, 10.000064, 9.993514 
2.9350027e+3, 1.4497572e+2, -1534387.5, -1548140.3, 0.028302958, 0.00001668645, 0.00008025743, -1534387.5, -15149.5625, 0.0, 10.000064, 9.981834 
2.9350027e+3, 1.5495758e+2, -1436660.6, -1450816.4, -0.21916944, 0.00001662701, -0.000053650267, -1436660.6, -15244.791, 0.0, 10.000063, 9.981303 
2.9350027e+3, 1.6493279e+2, -1348610.3, -1371947.5, 0.017655779, 0.000016566128, 0.00004851713, -1348610.3, -24951.654, 0.0, 10.000063, 9.969218 
2.9350027e+3, 1.7490205e+2, -1250653.0, -1274305.8, -0.22186655, 0.000016503798, -0.00007087341, -1250653.0, -24693.078, 0.0, 10.000063, 9.968804 
2.9350027e+3, 1.8486467e+2, -1162572.4, -1195715.6, 0.005339625, 0.00001644346, 0.00006962813, -1162572.4, -34246.113, 0.0, 10.000063, 9.956366 
2.9350027e+3, 1.9482107e+2, -1064423.3, -1097829.0, -0.23475327, 0.000016385182, -0.00005496322, -1064423.3, -33669.84, 0.0, 10.000062, 9.956022 
2.9350027e+3, 2.0477082e+2, -976259.7, -1019431.2, 0.007890631, 0.00001632924, 0.00007038867, -976259.7, -43013.7, 0.0, 10.000062, 9.943261 
2.9350027e+3, 2.1471411e+2, -877973.3, -921406.5, -0.22704846, 0.00001627582, -0.00012445808, -877973.3, -42171.617, 0.0, 10.000062, 9.94292 
2.9350027e+3, 2.2465071e+2, -789687.56, -843141.6, -0.0006244086, 0.000016228818, 0.00012317335, -789687.56, -51264.59, 0.0, 10.000062, 9.929878 
2.9350027e+3, 2.3458065e+2, -691254.6, -744963.7, -0.22371079, 0.000016189055, -0.000086752516, -691254.6, -50145.137, 0.0, 10.000062, 9.929547 
2.9350027e+3, 2.4450366e+2, -602931.0, -667016.3, 0.019814583, 0.000016144731, 0.00007659703, -602931.0, -59066.844, 0.0, 10.000061, 9.916107 
2.9350027e+3, 2.544199e+2, -504178.84, -568341.25, -0.19934511, 0.000016094942, -0.00010496575, -504178.84, -57493.754, 0.0, 10.000061, 9.916007 
2.9350027e+3, 2.6432905e+2, -415943.84, -490986.2, 0.03598871, 0.000016055219, 0.00014222159, -415943.84, -66368.34, 0.0, 10.000061, 9.901936 
2.9350027e+3, 2.742315e+2, -316659.13, -391373.47, -0.17779465, 0.000016028303, -0.00020199409, -316659.13, -64128.016, 0.0, 10.000061, 9.902355 
2.9350027e+3, 2.8412578e+2, -230186.02, -318079.9, 0.049567126, 0.000016000193, 0.00023035829, -230186.02, -74618.664, 0.0, 10.000061, 9.885409 
2.9350027e+3, 2.9401225e+2, -130480.336, -217764.05, -0.14819163, 0.000015970367, -0.0002521136, -130480.336, -71800.28, 0.0, 10.000061, 9.8861885 
2.9350027e+3, 3.0392665e+2, -40737.58, -84750.625, 0.08063539, 0.000015939126, 0.00017417439, -40737.58, -40737.58, 0.0, 10.000061, 9.942143 
2.9350027e+3, 3.1387067e+2, -39659.727, -82511.836, -0.10500569, 0.00001590582, -0.000054456217, -39659.727, -39659.727, 0.0, 10.000061, 9.943654 
2.945003e+3, 1.24993995e+2, -1719864.5, -1724217.4, 0.18354361, 0.000017243821, 0.00002389225, -1719864.5, -4805.695, 0.0, 10.000067, 9.994295 
2.945003e+3, 1.3498822e+2, -1622485.0, -1627428.4, -0.08310124, 0.000017108478, -0.00007163617, -1622485.0, -5369.437, 0.0, 10.000067, 9.993513 
2.945003e+3, 1.4497574e+2, -1534383.5, -1548138.9, 0.13329923, 0.000017015935, 0.00008047382, -1534383.5, -15145.655, 0.0, 10.000067, 9.981833 
2.9450026e+3, 1.5495758e+2, -1436656.6, -1450815.1, -0.11853144, 0.000016963002, -0.000053585645, -1436656.6, -15240.942, 0.0, 10.000066, 9.981302 
2.9450026e+3, 1.649328e+2, -1348606.4, -1371946.1, 0.116345935, 0.000016905384, 0.00004852853, -1348606.4, -24947.844, 0.0, 10.000066, 9.969217 
2.9450026e+3, 1.7490205e+2, -1250649.1, -1274304.5, -0.13882096, 0.000016843003, -0.000070814574, -1250649.1, -24689.305, 0.0, 10.000066, 9.968803 
2.9450026e+3, 1.8486468e+2, -1162568.5, -1195714.4, 0.08783542, 0.00001677718, 0.00006970231, -1162568.5, -34242.35, 0.0, 10.000066, 9.956365 
2.9450026e+3, 1.9482109e+2, -1064419.4, -1097827.8, -0.16013117, 0.00001670774, -0.000054907265, -1064419.4, -33666.08, 0.0, 10.000065, 9.956022 
2.9450026e+3, 2.0477083e+2, -976255.9, -1019429.94, 0.08245971, 0.000016652473, 0.0000704342, -976255.9, -43009.96, 0.0, 10.000065, 9.94326 
2.9450026e+3, 2.1471412e+2, -877969.56, -921405.3, -0.15768883, 0.000016612546, -0.00012441451, -877969.56, -42167.95, 0.0, 10.000065, 9.94292 
2.9450026e+3, 2.2465073e+2, -789683.8, -843140.5, 0.07153186, 0.000016566719, 0.00012321594, -789683.8, -51260.945, 0.0, 10.000065, 9.929878 
2.9450026e+3, 2.3458067e+2, -691250.94, -744962.5, -0.16535646, 0.00001651419, -0.000086709784, -691250.94, -50141.484, 0.0, 10.000064, 9.929546 
2.9450026e+3, 2.4450366e+2, -602927.25, -667015.2, 0.074771225, 0.000016464883, 0.000076639044, -602927.25, -59063.203, 0.0, 10.000064, 9.916106 
2.9450026e+3, 2.544199e+2, -504175.2, -568340.1, -0.15544116, 0.000016419423, -0.00010492547, -504175.2, -57490.156, 0.0, 10.000064, 9.916006 
2.9450026e+3, 2.6432905e+2, -415940.22, -490985.1, 0.08234516, 0.000016381691, 0.00014225717, -415940.22, -66364.766, 0.0, 10.000064, 9.901935 
2.9450026e+3, 2.7423152e+2, -316655.53, -391372.44, -0.13252106, 0.000016353773, -0.00020196698, -316655.53, -64124.465, 0.0, 10.000064, 9.902355 
2.9450026e+3, 2.841258e+2, -230182.42, -318078.88, 0.09922918, 0.00001632419, 0.00023038079, -230182.42, -74615.12, 0.0, 10.000064, 9.885409 
2.9450026e+3, 2.9401225e+2, -130476.766, -217763.02, -0.10867133, 0.00001629226, -0.00025209042, -130476.766, -71796.74, 0.0, 10.000064, 9.886188 
2.9450026e+3, 3.0392665e+2, -40734.066, -84749.66, 0.11670742, 0.000016260554, 0.00017419686, -40734.066, -40734.066, 0.0, 10.000064, 9.9421425 
2.9450026e+3, 3.1387067e+2, -39656.24, -82510.89, -0.08342063, 0.00001622922, -0.00005443653, -39656.24, -39656.24, 0.0, 10.000063, 9.943654 
2.9550028e+3, 1.2499401e+2, -1719865.1, -1724218.5, 0.06944711, 0.0000176088, 0.000024027815, -1719865.1, -4806.4575, 0.0, 10.000067, 9.994295 
2.9550028e+3, 1.3498823e+2, -1622485.6, -1627429.5, -0.19720925, 0.000017442107, -0.00007174057, -1622485.6, -5370.1865, 0.0, 10.000067, 9.993512 
2.9550028e+3, 1.4497575e+2, -1534384.0, -1548139.9, 0.02179457, 0.000017342876, 0.000080701226, -1534384.0, -15146.363, 0.0, 10.000067, 9.981833 
2.9550028e+3, 1.5495759e+2, -1436657.1, -1450816.1, -0.23003915, 0.000017307988, -0.00005352593, -1436657.1, -15241.636, 0.0, 10.000066, 9.981301 
2.9550028e+3, 1.6493282e+2, -1348607.0, -1371947.3, 0.014926818, 0.000017254957, 0.00004853487, -1348607.0, -24948.537, 0.0, 10.000066, 9.969217 
2.9550028e+3, 1.7490207e+2, -1250649.8, -1274305.6, -0.24019313, 0.000017183425, -0.00007074488, -1250649.8, -24689.984, 0.0, 10.000066, 9.968803 
2.9550028e+3, 1.848647e+2, -1162569.0, -1195715.4, 0.00171142, 0.000017111803, 0.00006978635, -1162569.0, -34243.008, 0.0, 10.000066, 9.956365 
2.9550028e+3, 1.948211e+2, -1064420.0, -1097828.8, -0.24608345, 0.000017040067, -0.000054860193, -1064420.0, -33666.72, 0.0, 10.000065, 9.956021 
2.9550028e+3, 2.0477085e+2, -976256.4, -1019431.0, -0.0056373244, 0.00001698804, 0.000070470574, -976256.4, -43010.586, 0.0, 10.000065, 9.943259 
2.9550028e+3, 2.1471412e+2, -877970.06, -921406.4, -0.2458348, 0.000016957349, -0.00012436039, -877970.06, -42168.56, 0.0, 10.000065, 9.942919 
2.9550028e+3, 2.2465074e+2, -789684.3, -843141.5, 0.004254722, 0.000016908221, 0.00012327425, -789684.3, -51261.547, 0.0, 10.000065, 9.929877 
2.9550028e+3, 2.3458067e+2, -691251.44, -744963.56, -0.23195665, 0.000016838214, -0.00008666264, -691251.44, -50142.074, 0.0, 10.000064, 9.929546 
2.9550028e+3, 2.4450368e+2, -602927.75, -667016.2, 0.012287693, 0.00001678612, 0.00007668085, -602927.75, -59063.785, 0.0, 10.000064, 9.916105 
2.9550028e+3, 2.544199e+2, -504175.7, -568341.1, -0.21772937, 0.00001675543, -0.000104882034, -504175.7, -57490.723, 0.0, 10.000064, 9.916006 
2.9550028e+3, 2.6432905e+2, -415940.7, -490986.1, 0.030983645, 0.000016722122, 0.0001422974, -415940.7, -66365.31, 0.0, 10.000064, 9.901935 
2.9550028e+3, 2.7423152e+2, -316656.0, -391373.4, -0.18315697, 0.000016685413, -0.0002019361, -316656.0, -64124.992, 0.0, 10.000064, 9.902354 
2.9550028e+3, 2.841258e+2, -230182.9, -318079.84, 0.059688237, 0.000016650596, 0.00023040308, -230182.9, -74615.64, 0.0, 10.000064, 9.885408 
2.9550028e+3, 2.9401225e+2, -130477.24, -217764.0, -0.14721654, 0.000016618367, -0.00025207567, -130477.24, -71797.26, 0.0, 10.000064, 9.886187 
2.9550028e+3, 3.0392665e+2, -40734.543, -84750.65, 0.08574286, 0.00001658709, 0.00017421173, -40734.543, -40734.543, 0.0, 10.000064, 9.942142 
2.9550028e+3, 3.1387067e+2, -39656.72, -82511.88, -0.11349925, 0.00001655722, -0.00005441028, -39656.72, -39656.72, 0.0, 10.000063, 9.943653 
2.965003e+3, 1.24994025e+2, -1719860.9, -1724217.1, 0.18601483, 0.000017966759, 0.000024171006, -1719860.9, -4802.3696, 0.0, 10.000071, 9.994294 
2.965003e+3, 1.3498823e+2, -1622481.4, -1627428.1, -0.0805566, 0.000017791497, -0.00007185027, -1622481.4, -5366.1367, 0.0, 10.00007, 9.993512 
2.965003e+3, 1.4497577e+2, -1534379.9, -1548138.5, 0.13528422, 0.00001768954, 0.0000809323, -1534379.9, -15142.329, 0.0, 10.00007, 9.9818325 
2.965003e+3, 1.549576e+2, -1436653.0, -1450814.8, -0.13086024, 0.000017657732, -0.00005345855, -1436653.0, -15237.632, 0.0, 10.00007, 9.981301 
2.965003e+3, 1.6493283e+2, -1348602.9, -1371945.9, 0.114191964, 0.000017602906, 0.00004854515, -1348602.9, -24944.555, 0.0, 10.000069, 9.969216 
2.965003e+3, 1.7490208e+2, -1250645.6, -1274304.3, -0.14923078, 0.000017524599, -0.00007068283, -1250645.6, -24686.027, 0.0, 10.000069, 9.968802 
2.965003e+3, 1.848647e+2, -1162565.0, -1195714.0, 0.09519682, 0.000017453769, 0.00006986364, -1162565.0, -34239.08, 0.0, 10.000069, 9.956364 
2.965003e+3, 1.948211e+2, -1064416.0, -1097827.5, -0.16059326, 0.000017390745, -0.000054805896, -1064416.0, -33662.855, 0.0, 10.000068, 9.95602 
2.965003e+3, 2.0477085e+2, -976252.44, -1019429.7, 0.07605423, 0.000017337677, 0.00007051427, -976252.44, -43006.74, 0.0, 10.000068, 9.943259 
2.965003e+3, 2.1471414e+2, -877966.1, -921405.1, -0.1770761, 0.000017295384, -0.00012431388, -877966.1, -42164.707, 0.0, 10.000068, 9.942918 
2.965003e+3, 2.2465074e+2, -789680.44, -843140.3, 0.075561605, 0.000017242146, 0.00012332271, -789680.44, -51257.707, 0.0, 10.000068, 9.929876 
2.965003e+3, 2.345807e+2, -691247.56, -744962.4, -0.17207034, 0.000017176511, -0.0000866132, -691247.56, -50138.285, 0.0, 10.000067, 9.929545 
2.965003e+3, 2.4450368e+2, -602923.94, -667015.0, 0.07010591, 0.000017126576, 0.00007672557, -602923.94, -59060.016, 0.0, 10.000067, 9.916105 
2.965003e+3, 2.544199e+2, -504171.88, -568340.0, -0.16354465, 0.000017095395, -0.00010484884, -504171.88, -57486.984, 0.0, 10.000067, 9.916005 
2.965003e+3, 2.6432905e+2, -415936.9, -490984.97, 0.087566964, 0.000017060602, 0.0001423267, -415936.9, -66361.59, 0.0, 10.000067, 9.901934 
2.965003e+3, 2.7423152e+2, -316652.25, -391372.3, -0.14436239, 0.000017021152, -0.00020190098, -316652.25, -64121.293, 0.0, 10.000067, 9.902353 
2.965003e+3, 2.841258e+2, -230179.17, -318078.75, 0.09470291, 0.000016985006, 0.00023043892, -230179.17, -74611.945, 0.0, 10.000067, 9.885407 
2.965003e+3, 2.9401225e+2, -130473.54, -217762.94, -0.11901828, 0.000016953387, -0.0002520461, -130473.54, -71793.59, 0.0, 10.000067, 9.886187 
2.9650027e+3, 3.0392668e+2, -40730.9, -84749.66, 0.11523551, 0.000016921464, 0.00017423488, -40730.9, -40730.9, 0.0, 10.000066, 9.942142 
2.9650027e+3, 3.1387067e+2, -39653.074, -82510.89, -0.09037875, 0.000016889073, -0.000054393622, -39653.074, -39653.074, 0.0, 10.000066, 9.943652 
2.9750028e+3, 1.2499405e+2, -1719861.5, -1724218.3, 0.06660905, 0.000018317716, 0.000024322659, -1719861.5, -4803.1377, 0.0, 10.000071, 9.994293 
2.9750028e+3, 1.3498825e+2, -1622482.0, -1627429.3, -0.19998226, 0.000018156634, -0.00007196526, -1622482.0, -5366.8916, 0.0, 10.00007, 9.993511 
2.9750028e+3, 1.4497577e+2, -1534380.5, -1548139.6, 0.020054026, 0.000018055902, 0.00008116704, -1534380.5, -15143.075, 0.0, 10.00007, 9.981832 
2.9750028e+3, 1.5495762e+2, -1436653.6, -1450815.9, -0.24608734, 0.000018012235, -0.000053383505, -1436653.6, -15238.363, 0.0, 10.00007, 9.9813 
2.9750028e+3, 1.6493285e+2, -1348603.4, -1371947.0, 0.010821011, 0.00001794924, 0.000048559366, -1348603.4, -24945.271, 0.0, 10.000069, 9.969215 
2.9750028e+3, 1.749021e+2, -1250646.3, -1274305.4, -0.25254536, 0.000017866529, -0.00007062842, -1250646.3, -24686.729, 0.0, 10.000069, 9.9688015 
2.9750028e+3, 1.8486471e+2, -1162565.5, -1195715.1, -0.002757839, 0.000017803077, 0.0000699342, -1162565.5, -34239.758, 0.0, 10.000069, 9.956363 
2.9750028e+3, 1.9482112e+2, -1064416.5, -1097828.5, -0.25849244, 0.000017759758, -0.00005474439, -1064416.5, -33663.52, 0.0, 10.000068, 9.95602 
2.9750028e+3, 2.0477086e+2, -976253.0, -1019430.8, -0.007204103, 0.000017701374, 0.000070565264, -976253.0, -43007.395, 0.0, 10.000068, 9.943258 
2.9750028e+3, 2.1471415e+2, -877966.7, -921406.2, -0.26003766, 0.000017626666, -0.00012427497, -877966.7, -42165.35, 0.0, 10.000068, 9.942918 
2.9750028e+3, 2.2465076e+2, -789680.94, -843141.4, 0.0011055019, 0.000017568507, 0.00012336136, -789680.94, -51258.34, 0.0, 10.000068, 9.929875 
2.9750028e+3, 2.345807e+2, -691248.1, -744963.44, -0.24625155, 0.000017529072, -0.00008656147, -691248.1, -50138.902, 0.0, 10.000067, 9.929544 
2.9750028e+3, 2.4450369e+2, -602924.44, -667016.06, 0.0035230916, 0.000017486238, 0.00007677319, -602924.44, -59060.61, 0.0, 10.000067, 9.916104 
2.9750028e+3, 2.544199e+2, -504172.4, -568341.06, -0.22976889, 0.000017439314, -0.00010482589, -504172.4, -57487.563, 0.0, 10.000067, 9.916004 
2.9750028e+3, 2.6432905e+2, -415937.44, -490986.03, 0.03530104, 0.000017397137, 0.00014234504, -415937.44, -66362.17, 0.0, 10.000067, 9.901933 
2.9750028e+3, 2.7423152e+2, -316652.75, -391373.34, -0.19569674, 0.000017360991, -0.00020186165, -316652.75, -64121.86, 0.0, 10.000067, 9.902353 
2.9750028e+3, 2.841258e+2, -230179.66, -318079.78, 0.05220783, 0.000017327417, 0.0002304883, -230179.66, -74612.484, 0.0, 10.000067, 9.885407 
2.9750028e+3, 2.9401225e+2, -130474.02, -217763.94, -0.1607218, 0.000017297314, -0.00025200177, -130474.02, -71794.12, 0.0, 10.000067, 9.886186 
2.9750028e+3, 3.0392668e+2, -40731.395, -84750.68, 0.08514795, 0.000017263674, 0.00017426633, -40731.395, -40731.395, 0.0, 10.000066, 9.942141 
2.9750028e+3, 3.138707e+2, -39653.566, -82511.92, -0.119107276, 0.000017224776, -0.00005438654, -39653.566, -39653.566, 0.0, 10.000066, 9.943652 
2.9850033e+3, 1.2499406e+2, -1719857.1, -1724216.8, 0.2003844, 0.00001867989, 0.000024464738, -1719857.1, -4798.8677, 0.0, 10.000073, 9.994293 
2.9850033e+3, 1.3498826e+2, -1622477.6, -1627427.8, -0.08899926, 0.000018524064, -0.00007207945, -1622477.6, -5362.681, 0.0, 10.0000725, 9.99351 
2.9850033e+3, 1.4497578e+2, -1534376.1, -1548138.1, 0.12697037, 0.000018422272, 0.00008141372, -1534376.1, -15138.882, 0.0, 10.0000725, 9.981832 
2.9850033e+3, 1.5495764e+2, -1436649.4, -1450814.5, -0.14261313, 0.000018371124, -0.000053312488, -1436649.4, -15234.189, 0.0, 10.0000725, 9.981299 
2.9850033e+3, 1.6493286e+2, -1348599.1, -1371945.6, 0.11653244, 0.000018306266, 0.000048567133, -1348599.1, -24941.13, 0.0, 10.000072, 9.969214 
2.985003e+3, 1.7490211e+2, -1250642.0, -1274304.0, -0.15726955, 0.00001822742, -0.00007056909, -1250642.0, -24682.637, 0.0, 10.000072, 9.9688015 
2.985003e+3, 1.8486473e+2, -1162561.4, -1195713.8, 0.08948285, 0.000018164468, 0.00007001056, -1162561.4, -34235.688, 0.0, 10.000072, 9.956362 
2.985003e+3, 1.9482113e+2, -1064412.4, -1097827.3, -0.17962153, 0.000018118126, -0.00005468716, -1064412.4, -33659.473, 0.0, 10.000072, 9.956019 
2.985003e+3, 2.0477088e+2, -976248.9, -1019429.5, 0.074164905, 0.000018055785, 0.00007061555, -976248.9, -43003.363, 0.0, 10.000071, 9.943257 
2.985003e+3, 2.1471415e+2, -877962.56, -921404.9, -0.18910205, 0.000017976112, -0.00012421842, -877962.56, -42161.344, 0.0, 10.000071, 9.942917 
2.985003e+3, 2.2465076e+2, -789676.9, -843140.06, 0.06985399, 0.00001791849, 0.00012341485, -789676.9, -51254.36, 0.0, 10.000071, 9.929875 
2.985003e+3, 2.3458071e+2, -691244.06, -744962.2, -0.1822921, 0.000017885819, -0.00008652156, -691244.06, -50134.973, 0.0, 10.000071, 9.929544 
2.985003e+3, 2.4450369e+2, -602920.5, -667014.8, 0.070869006, 0.000017842887, 0.00007680843, -602920.5, -59056.7, 0.0, 10.00007, 9.916103 
2.985003e+3, 2.5441992e+2, -504168.44, -568339.8, -0.1781247, 0.000017787657, -0.00010478465, -504168.44, -57483.656, 0.0, 10.00007, 9.916003 
2.985003e+3, 2.6432908e+2, -415933.5, -490984.84, 0.084715255, 0.000017741912, 0.00014238614, -415933.5, -66358.28, 0.0, 10.00007, 9.901933 
2.985003e+3, 2.7423152e+2, -316648.84, -391372.22, -0.1530197, 0.00001770825, -0.00020182852, -316648.84, -64118.01, 0.0, 10.00007, 9.902352 
2.985003e+3, 2.841258e+2, -230175.78, -318078.66, 0.09737669, 0.000017675844, 0.00023051753, -230175.78, -74608.65, 0.0, 10.00007, 9.8854065 
2.985003e+3, 2.9401228e+2, -130470.17, -217762.83, -0.12493585, 0.000017645089, -0.00025197084, -130470.17, -71790.305, 0.0, 10.00007, 9.886185 
2.985003e+3, 3.0392668e+2, -40727.6, -84749.64, 0.12089849, 0.000017610222, 0.00017429463, -40727.6, -40727.6, 0.0, 10.00007, 9.94214 
2.985003e+3, 3.138707e+2, -39649.793, -82510.89, -0.09159348, 0.00001756926, -0.000054367374, -39649.793, -39649.793, 0.0, 10.000069, 9.943651 
2.9950032e+3, 1.2499408e+2, -1719857.8, -1724218.0, 0.07076324, 0.000019053272, 0.00002459811, -1719857.8, -4799.6953, 0.0, 10.000073, 9.994292 
2.9950032e+3, 1.3498828e+2, -1622478.3, -1627429.0, -0.21863513, 0.000018893792, -0.00007219284, -1622478.3, -5363.4946, 0.0, 10.0000725, 9.993509 
2.9950032e+3, 1.449758e+2, -1534376.8, -1548139.3, 0.010301558, 0.000018788653, 0.000081672304, -1534376.8, -15139.642, 0.0, 10.0000725, 9.981831 
2.9950032e+3, 1.5495765e+2, -1436650.0, -1450815.6, -0.25926977, 0.000018734403, -0.000053245483, -1436650.0, -15234.934, 0.0, 10.0000725, 9.981298 
2.9950032e+3, 1.6493288e+2, -1348599.8, -1371946.8, 0.005335203, 0.000018673976, 0.00004856846, -1348599.8, -24941.873, 0.0, 10.000072, 9.969214 
2.9950032e+3, 1.7490211e+2, -1250642.6, -1274305.1, -0.26844433, 0.000018607256, -0.000070504844, -1250642.6, -24683.367, 0.0, 10.000072, 9.968801 
2.9950032e+3, 1.8486474e+2, -1162561.9, -1195714.9, -0.01021317, 0.000018537932, 0.00007009272, -1162561.9, -34236.402, 0.0, 10.000072, 9.956362 
2.9950032e+3, 1.9482115e+2, -1064413.0, -1097828.4, -0.2791909, 0.000018465867, -0.000054634205, -1064413.0, -33660.17, 0.0, 10.000072, 9.956018 
2.9950032e+3, 2.0477088e+2, -976249.44, -1019430.6, -0.01160814, 0.000018400931, 0.00007066512, -976249.44, -43004.047, 0.0, 10.000071, 9.943257 
2.9950032e+3, 2.1471417e+2, -877963.1, -921406.0, -0.27459562, 0.000018343704, -0.00012414427, -877963.1, -42162.016, 0.0, 10.000071, 9.942916 
2.9950032e+3, 2.2465077e+2, -789677.44, -843141.2, -0.013240951, 0.000018292072, 0.00012348319, -789677.44, -51255.008, 0.0, 10.000071, 9.929874 
2.9950032e+3, 2.3458071e+2, -691244.6, -744963.3, -0.26531485, 0.000018246757, -0.000086493455, -691244.6, -50135.605, 0.0, 10.000071, 9.9295435 
2.995003e+3, 2.445037e+2, -602921.0, -667015.94, 0.006548781, 0.000018196533, 0.00007683131, -602921.0, -59057.33, 0.0, 10.00007, 9.916102 
2.995003e+3, 2.5441992e+2, -504168.97, -568340.94, -0.24155205, 0.000018140427, -0.000104725135, -504168.97, -57484.27, 0.0, 10.00007, 9.916003 
2.995003e+3, 2.6432908e+2, -415934.03, -490985.94, 0.027065484, 0.000018094925, 0.00014245, -415934.03, -66358.88, 0.0, 10.00007, 9.901932 
2.995003e+3, 2.7423152e+2, -316649.38, -391373.3, -0.21028584, 0.00001806292, -0.00020180157, -316649.38, -64118.598, 0.0, 10.00007, 9.902351 
2.995003e+3, 2.841258e+2, -230176.3, -318079.72, 0.052859202, 0.000018030287, 0.00023052667, -230176.3, -74609.21, 0.0, 10.00007, 9.885406 
2.995003e+3, 2.9401228e+2, -130470.67, -217763.88, -0.16831163, 0.000017996714, -0.00025195323, -130470.67, -71790.85, 0.0, 10.00007, 9.886185 
2.995003e+3, 3.0392668e+2, -40728.113, -84750.695, 0.087456204, 0.000017961107, 0.00017431982, -40728.113, -40728.113, 0.0, 10.00007, 9.942139 
2.995003e+3, 3.138707e+2, -39650.305, -82511.95, -0.123876005, 0.000017922517, -0.000054336146, -39650.305, -39650.305, 0.0, 10.000069, 9.94365 
3.005003e+3, 1.2499409e+2, -1719853.1, -1724216.4, 0.20255676, 0.000019429963, 0.000024751447, -1719853.1, -4795.256, 0.0, 10.000076, 9.994291 
3.005003e+3, 1.3498831e+2, -1622473.8, -1627427.5, -0.08927268, 0.000019271612, -0.00007231882, -1622473.8, -5359.101, 0.0, 10.000076, 9.993508 
3.005003e+3, 1.4497581e+2, -1534372.3, -1548137.8, 0.14296119, 0.000019166468, 0.0000819222, -1534372.3, -15135.266, 0.0, 10.000075, 9.98183 
3.005003e+3, 1.5495767e+2, -1436645.5, -1450814.1, -0.14378786, 0.000019111008, -0.0000531747, -1436645.5, -15230.606, 0.0, 10.000075, 9.981298 
3.005003e+3, 1.6493288e+2, -1348595.4, -1371945.3, 0.11540016, 0.000019049457, 0.000048576556, -1348595.4, -24937.582, 0.0, 10.000075, 9.9692135 
3.005003e+3, 1.7490213e+2, -1250638.3, -1274303.8, -0.16933027, 0.000018981696, -0.000070440525, -1250638.3, -24679.102, 0.0, 10.000074, 9.9688 
3.005003e+3, 1.8486476e+2, -1162557.5, -1195713.5, 0.08997512, 0.000018908398, 0.00007017578, -1162557.5, -34232.15, 0.0, 10.000074, 9.956361 
3.005003e+3, 1.9482115e+2, -1064408.6, -1097827.0, -0.1900523, 0.000018829287, -0.000054571618, -1064408.6, -33655.94, 0.0, 10.000074, 9.9560175 
3.005003e+3, 2.047709e+2, -976245.1, -1019429.25, 0.077204116, 0.000018765197, 0.000070715614, -976245.1, -42999.848, 0.0, 10.000074, 9.943256 
3.005003e+3, 2.1471418e+2, -877958.94, -921404.7, -0.19434024, 0.000018717366, -0.00012409678, -877958.94, -42157.88, 0.0, 10.000073, 9.942915 
3.005003e+3, 2.2465079e+2, -789673.25, -843139.9, 0.065473266, 0.00001866555, 0.00012353003, -789673.25, -51250.895, 0.0, 10.000073, 9.929873 
3.005003e+3, 2.3458073e+2, -691240.44, -744962.0, -0.20071124, 0.000018609204, -0.00008644459, -691240.44, -50131.496, 0.0, 10.000073, 9.929543 
3.005003e+3, 2.445037e+2, -602916.9, -667014.7, 0.07262264, 0.000018554874, 0.00007687928, -602916.9, -59053.234, 0.0, 10.000073, 9.916102 
3.005003e+3, 2.5441992e+2, -504164.84, -568339.7, -0.18574426, 0.000018502944, -0.00010468156, -504164.84, -57480.223, 0.0, 10.0000725, 9.916002 
3.005003e+3, 2.6432908e+2, -415929.94, -490984.72, 0.08219833, 0.000018458411, 0.00014248802, -415929.94, -66354.85, 0.0, 10.0000725, 9.901931 
3.005003e+3, 2.7423155e+2, -316645.3, -391372.1, -0.1612966, 0.000018423269, -0.00020177054, -316645.3, -64114.59, 0.0, 10.0000725, 9.902351 
3.005003e+3, 2.8412583e+2, -230172.25, -318078.53, 0.10360873, 0.000018389279, 0.00023055464, -230172.25, -74605.23, 0.0, 10.0000725, 9.885406 
3.005003e+3, 2.9401228e+2, -130466.67, -217762.73, -0.13207945, 0.000018356808, -0.00025192284, -130466.67, -71786.89, 0.0, 10.0000725, 9.886184 
3.005003e+3, 3.0392668e+2, -40724.17, -84749.62, 0.12025161, 0.000018319899, 0.00017434894, -40724.17, -40724.17, 0.0, 10.0000725, 9.942139 
3.005003e+3, 3.138707e+2, -39646.36, -82510.875, -0.10440388, 0.000018276414, -0.000054313747, -39646.36, -39646.36, 0.0, 10.0000725, 9.943649 
3.0150035e+3, 1.2499411e+2, -1719853.9, -1724217.6, 0.066118345, 0.000019809964, 0.000024925686, -1719853.9, -4796.0957, 0.0, 10.000076, 9.99429 
3.0150035e+3, 1.3498832e+2, -1622474.4, -1627428.8, -0.22573179, 0.000019657518, -0.000072457384, -1622474.4, -5359.9263, 0.0, 10.000076, 9.993508 
3.0150035e+3, 1.4497584e+2, -1534372.9, -1548139.0, 0.018534139, 0.00001955571, 0.00008216341, -1534372.9, -15136.071, 0.0, 10.000075, 9.981829 
3.0150035e+3, 1.5495768e+2, -1436646.1, -1450815.3, -0.26820192, 0.000019500932, -0.000053100135, -1436646.1, -15231.3955, 0.0, 10.000075, 9.9812975 
3.0150032e+3, 1.6493289e+2, -1348596.0, -1371946.5, 0.0018717045, 0.000019432704, 0.000048591406, -1348596.0, -24938.355, 0.0, 10.000075, 9.969213 
3.0150032e+3, 1.7490214e+2, -1250638.9, -1274304.9, -0.28280848, 0.000019350755, -0.00007037614, -1250638.9, -24679.861, 0.0, 10.000074, 9.968799 
3.0150032e+3, 1.8486476e+2, -1162558.1, -1195714.8, -0.011669778, 0.000019275876, 0.00007025975, -1162558.1, -34232.89, 0.0, 10.000074, 9.95636 
3.0150032e+3, 1.9482116e+2, -1064409.3, -1097828.1, -0.29156595, 0.00001920837, -0.000054499415, -1064409.3, -33656.67, 0.0, 10.000074, 9.956017 
3.0150032e+3, 2.0477091e+2, -976245.75, -1019430.4, -0.019653713, 0.000019148567, 0.000070767026, -976245.75, -43000.555, 0.0, 10.000074, 9.943255 
3.0150032e+3, 2.1471418e+2, -877959.5, -921405.8, -0.29110757, 0.000019097099, -0.00012407592, -877959.5, -42158.57, 0.0, 10.000073, 9.942914 
3.0150032e+3, 2.2465079e+2, -789673.8, -843141.06, -0.014833491, 0.000019038927, 0.00012355542, -789673.8, -51251.574, 0.0, 10.000073, 9.9298725 
3.0150032e+3, 2.3458074e+2, -691241.0, -744963.1, -0.28048736, 0.00001897316, -0.00008637499, -691241.0, -50132.16, 0.0, 10.000073, 9.929542 
3.0150032e+3, 2.4450372e+2, -602917.44, -667015.8, 0.0020089275, 0.000018917906, 0.0000769523, -602917.44, -59053.887, 0.0, 10.000073, 9.916101 
3.0150032e+3, 2.5441992e+2, -504165.4, -568340.8, -0.25592095, 0.000018875206, -0.0001046539, -504165.4, -57480.86, 0.0, 10.0000725, 9.916001 
3.0150032e+3, 2.6432908e+2, -415930.47, -490985.84, 0.022337666, 0.000018832363, 0.00014250027, -415930.47, -66355.47, 0.0, 10.0000725, 9.90193 
3.0150032e+3, 2.7423155e+2, -316645.88, -391373.22, -0.22047421, 0.000018789293, -0.00020173549, -316645.88, -64115.19, 0.0, 10.0000725, 9.90235 
3.0150032e+3, 2.8412583e+2, -230172.8, -318079.66, 0.05533227, 0.000018752822, 0.00023060142, -230172.8, -74605.82, 0.0, 10.0000725, 9.885405 
3.0150032e+3, 2.9401228e+2, -130467.21, -217763.84, -0.1793775, 0.000018725368, -0.00025187974, -130467.21, -71787.47, 0.0, 10.0000725, 9.886183 
3.0150032e+3, 3.0392668e+2, -40724.71, -84750.74, 0.08831381, 0.000018686593, 0.00017438197, -40724.71, -40724.71, 0.0, 10.0000725, 9.942138 
3.0150032e+3, 3.138707e+2, -39646.9, -82511.99, -0.13454261, 0.000018630957, -0.000054300166, -39646.9, -39646.9, 0.0, 10.0000725, 9.943649 
3.0250034e+3, 1.2499414e+2, -1719849.0, -1724216.0, 0.20932078, 0.000020204634, 0.000025082592, -1719849.0, -4791.4937, 0.0, 10.00008, 9.994289 
3.0250034e+3, 1.3498834e+2, -1622469.6, -1627427.1, -0.09894851, 0.000020050797, -0.00007259323, -1622469.6, -5355.359, 0.0, 10.000079, 9.993507 
3.0250034e+3, 1.4497586e+2, -1534368.1, -1548137.4, 0.14416334, 0.000019947045, 0.00008242293, -1534368.1, -15131.52, 0.0, 10.000079, 9.981828 
3.0250034e+3, 1.549577e+2, -1436641.5, -1450813.8, -0.15259069, 0.000019889701, -0.00005302512, -1436641.5, -15226.881, 0.0, 10.000079, 9.981297 
3.0250034e+3, 1.649329e+2, -1348591.4, -1371945.0, 0.11795181, 0.000019818599, 0.00004860164, -1348591.4, -24933.871, 0.0, 10.000078, 9.969212 
3.0250034e+3, 1.7490216e+2, -1250634.3, -1274303.4, -0.180423, 0.000019733465, -0.000070308386, -1250634.3, -24675.408, 0.0, 10.000078, 9.968798 
3.0250034e+3, 1.8486477e+2, -1162553.6, -1195713.3, 0.08779401, 0.00001965833, 0.00007034478, -1162553.6, -34228.47, 0.0, 10.000078, 9.956359 
3.0250034e+3, 1.9482118e+2, -1064404.8, -1097826.8, -0.20180728, 0.000019593634, -0.000054439257, -1064404.8, -33652.305, 0.0, 10.000077, 9.956017 
3.0250034e+3, 2.0477091e+2, -976241.3, -1019429.0, 0.07055092, 0.000019533734, 0.000070816546, -976241.3, -42996.21, 0.0, 10.000077, 9.943254 
3.025003e+3, 2.147142e+2, -877955.06, -921404.44, -0.21125042, 0.000019479021, -0.00012402161, -877955.06, -42154.242, 0.0, 10.000077, 9.942914 
3.025003e+3, 2.246508e+2, -789669.44, -843139.7, 0.066296734, 0.000019416764, 0.00012361063, -789669.44, -51247.266, 0.0, 10.000076, 9.9298725 
3.025003e+3, 2.3458074e+2, -691236.7, -744961.8, -0.21504873, 0.000019345962, -0.00008632329, -691236.7, -50127.887, 0.0, 10.000076, 9.929541 
3.025003e+3, 2.4450372e+2, -602913.1, -667014.5, 0.064580075, 0.000019290605, 0.00007699907, -602913.1, -59049.633, 0.0, 10.000076, 9.9161005 
3.025003e+3, 2.5441995e+2, -504161.13, -568339.56, -0.19719099, 0.000019253692, -0.00010461375, -504161.13, -57476.656, 0.0, 10.000076, 9.916 
3.025003e+3, 2.6432908e+2, -415926.25, -490984.6, 0.08439628, 0.000019211875, 0.00014253803, -415926.25, -66351.29, 0.0, 10.000076, 9.901929 
3.025003e+3, 2.7423155e+2, -316641.66, -391372.0, -0.17671858, 0.000019163755, -0.00020169473, -316641.66, -64111.03, 0.0, 10.000075, 9.902349 
3.025003e+3, 2.8412583e+2, -230168.6, -318078.4, 0.09724779, 0.000019123205, 0.00023064064, -230168.6, -74601.664, 0.0, 10.000075, 9.885404 
3.025003e+3, 2.9401228e+2, -130463.03, -217762.64, -0.14107336, 0.000019093019, -0.0002518483, -130463.03, -71783.336, 0.0, 10.000075, 9.886182 
3.025003e+3, 3.0392668e+2, -40720.605, -84749.61, 0.13216682, 0.000019054753, 0.00017440593, -40720.605, -40720.605, 0.0, 10.000075, 9.942137 
3.025003e+3, 3.138707e+2, -39642.832, -82510.88, -0.094361626, 0.000019004425, -0.00005428316, -39642.832, -39642.832, 0.0, 10.000075, 9.943648 
3.0350035e+3, 1.2499415e+2, -1719849.8, -1724217.4, 0.06882307, 0.000020613958, 0.000025223218, -1719849.8, -4792.379, 0.0, 10.00008, 9.994288 
3.0350035e+3, 1.3498835e+2, -1622470.4, -1627428.5, -0.2394657, 0.000020451445, -0.00007272637, -1622470.4, -5356.2285, 0.0, 10.000079, 9.993506 
3.0350035e+3, 1.4497587e+2, -1534368.9, -1548138.6, 0.014622861, 0.000020340482, 0.000082700724, -1534368.9, -15132.3545, 0.0, 10.000079, 9.981828 
3.0350035e+3, 1.5495771e+2, -1436642.1, -1450815.0, -0.2821211, 0.000020277324, -0.000052949657, -1436642.1, -15227.699, 0.0, 10.000079, 9.981296 
3.0350035e+3, 1.6493292e+2, -1348592.0, -1371946.3, 0.0011072924, 0.000020207146, 0.000048607264, -1348592.0, -24934.682, 0.0, 10.000078, 9.969211 
3.0350035e+3, 1.7490217e+2, -1250634.9, -1274304.8, -0.29720572, 0.000020129813, -0.00007023727, -1250634.9, -24676.203, 0.0, 10.000078, 9.968798 
3.0350035e+3, 1.8486479e+2, -1162554.3, -1195714.5, -0.024043946, 0.000020055748, 0.00007043085, -1162554.3, -34229.24, 0.0, 10.000078, 9.956359 
3.0350035e+3, 1.948212e+2, -1064405.4, -1097827.9, -0.3135942, 0.00001998508, -0.000054391137, -1064405.4, -33653.06, 0.0, 10.000077, 9.956016 
3.0350035e+3, 2.0477092e+2, -976241.94, -1019430.2, -0.02564746, 0.000019920706, 0.00007086418, -976241.94, -42996.945, 0.0, 10.000077, 9.9432535 
3.0350035e+3, 2.1471421e+2, -877955.7, -921405.6, -0.3071358, 0.000019863137, -0.0001239339, -877955.7, -42154.96, 0.0, 10.000077, 9.942913 
3.0350035e+3, 2.246508e+2, -789670.06, -843140.9, -0.018024627, 0.00001979906, 0.00012369562, -789670.06, -51247.98, 0.0, 10.000076, 9.929872 
3.0350035e+3, 2.3458076e+2, -691237.25, -744963.0, -0.29899344, 0.0000197276, -0.00008628948, -691237.25, -50128.586, 0.0, 10.000076, 9.929541 
3.0350035e+3, 2.4450374e+2, -602913.7, -667015.6, -0.013597721, 0.00001967296, 0.00007701962, -602913.7, -59050.3, 0.0, 10.000076, 9.9161 
3.0350035e+3, 2.5441995e+2, -504161.72, -568340.7, -0.27510226, 0.000019638397, -0.00010456112, -504161.72, -57477.305, 0.0, 10.000076, 9.916 
3.0350035e+3, 2.643291e+2, -415926.8, -490985.78, 0.023671558, 0.000019596944, 0.00014260128, -415926.8, -66351.945, 0.0, 10.000076, 9.901929 
3.0350035e+3, 2.7423155e+2, -316642.22, -391373.16, -0.23629513, 0.000019546655, -0.00020164828, -316642.22, -64111.67, 0.0, 10.000075, 9.9023485 
3.0350035e+3, 2.8412583e+2, -230169.14, -318079.56, 0.048548628, 0.000019500425, 0.0002306723, -230169.14, -74602.27, 0.0, 10.000075, 9.885403 
3.0350035e+3, 2.9401228e+2, -130463.57, -217763.77, -0.18879993, 0.00001945977, -0.00025182855, -130463.57, -71783.93, 0.0, 10.000075, 9.886182 
3.0350035e+3, 3.0392668e+2, -40721.152, -84750.75, 0.09144258, 0.000019424384, 0.00017442083, -40721.152, -40721.152, 0.0, 10.000075, 9.942136 
3.0350035e+3, 3.138707e+2, -39643.383, -82512.03, -0.134273, 0.000019396799, -0.000054262728, -39643.383, -39643.383, 0.0, 10.000075, 9.943647 
3.0450037e+3, 1.24994166e+2, -1719844.8, -1724215.6, 0.21632883, 0.00002103313, 0.00002538393, -1719844.8, -4787.605, 0.0, 10.000083, 9.994288 
3.0450037e+3, 1.3498837e+2, -1622465.5, -1627426.8, -0.10172967, 0.000020853407, -0.00007286108, -1622465.5, -5351.4673, 0.0, 10.000083, 9.9935055 
3.0450037e+3, 1.4497589e+2, -1534363.9, -1548137.0, 0.14733598, 0.000020735952, 0.00008298076, -1534363.9, -15127.601, 0.0, 10.000083, 9.981827 
3.0450034e+3, 1.5495773e+2, -1436637.3, -1450813.4, -0.16497752, 0.000020677006, -0.000052871943, -1436637.3, -15222.99, 0.0, 10.000082, 9.981295 
3.0450034e+3, 1.6493294e+2, -1348587.3, -1371944.6, 0.11770084, 0.000020609015, 0.000048615082, -1348587.3, -24930.018, 0.0, 10.000082, 9.969211 
3.0450034e+3, 1.7490219e+2, -1250630.1, -1274303.1, -0.18822774, 0.000020531807, -0.00007016409, -1250630.1, -24671.602, 0.0, 10.000081, 9.968797 
3.0450034e+3, 1.848648e+2, -1162549.5, -1195712.9, 0.086357296, 0.000020456268, 0.000070521724, -1162549.5, -34224.66, 0.0, 10.000081, 9.956358 
3.0450034e+3, 1.9482121e+2, -1064400.8, -1097826.4, -0.21511963, 0.000020382458, -0.00005433248, -1064400.8, -33648.496, 0.0, 10.000081, 9.956015 
3.0450034e+3, 2.0477094e+2, -976237.25, -1019428.7, 0.070037365, 0.00002031378, 0.00007091395, -976237.25, -42992.402, 0.0, 10.000081, 9.9432535 
3.0450034e+3, 2.1471421e+2, -877951.06, -921404.2, -0.23064461, 0.000020250649, -0.00012386777, -877951.06, -42150.457, 0.0, 10.00008, 9.942912 
3.0450034e+3, 2.2465082e+2, -789665.5, -843139.44, 0.05997697, 0.000020187841, 0.00012376116, -789665.5, -51243.51, 0.0, 10.00008, 9.929871 
3.0450034e+3, 2.3458076e+2, -691232.75, -744961.6, -0.21827511, 0.000020125379, -0.00008624377, -691232.75, -50124.168, 0.0, 10.00008, 9.92954 
3.0450034e+3, 2.4450374e+2, -602909.2, -667014.3, 0.069369376, 0.00002006989, 0.00007705761, -602909.2, -59045.906, 0.0, 10.000079, 9.9161 
3.0450034e+3, 2.5441998e+2, -504157.25, -568339.4, -0.21522146, 0.000020022717, -0.00010451642, -504157.25, -57472.918, 0.0, 10.000079, 9.915999 
3.0450034e+3, 2.643291e+2, -415922.38, -490984.44, 0.08137291, 0.000019976715, 0.00014264655, -415922.38, -66347.57, 0.0, 10.000079, 9.901928 
3.0450034e+3, 2.7423155e+2, -316637.84, -391371.88, -0.1819069, 0.000019932164, -0.0002016103, -316637.84, -64107.344, 0.0, 10.000079, 9.902348 
3.0450034e+3, 2.8412583e+2, -230164.78, -318078.28, 0.10641467, 0.000019889221, 0.00023070502, -230164.78, -74597.96, 0.0, 10.000079, 9.885402 
3.0450034e+3, 2.940123e+2, -130459.26, -217762.53, -0.14430445, 0.000019848454, -0.0002517983, -130459.26, -71779.66, 0.0, 10.000079, 9.886181 
3.0450034e+3, 3.039267e+2, -40716.906, -84749.586, 0.13028052, 0.000019809926, 0.00017444899, -40716.906, -40716.906, 0.0, 10.000078, 9.942135 
3.0450034e+3, 3.138707e+2, -39639.117, -82510.86, -0.11432907, 0.00001977474, -0.000054235967, -39639.117, -39639.117, 0.0, 10.000078, 9.943646 
3.0550036e+3, 1.2499419e+2, -1719845.5, -1724217.0, 0.07715732, 0.000021462145, 0.000025565794, -1719845.5, -4788.5205, 0.0, 10.000083, 9.9942875 
3.0550036e+3, 1.3498838e+2, -1622466.1, -1627428.1, -0.2409233, 0.00002125669, -0.000072997376, -1622466.1, -5352.3667, 0.0, 10.000083, 9.993505 
3.0550036e+3, 1.449759e+2, -1534364.6, -1548138.3, 0.011231397, 0.00002113346, 0.00008326305, -1534364.6, -15128.478, 0.0, 10.000083, 9.981826 
3.0550036e+3, 1.5495774e+2, -1436638.0, -1450814.8, -0.3010772, 0.000021088737, -0.000052791976, -1436638.0, -15223.849, 0.0, 10.000082, 9.981294 
3.0550036e+3, 1.6493295e+2, -1348587.9, -1371945.9, -0.009985056, 0.000021024196, 0.000048625097, -1348587.9, -24930.85, 0.0, 10.000082, 9.96921 
3.0550036e+3, 1.749022e+2, -1250630.9, -1274304.4, -0.3158787, 0.000020939442, -0.00007008885, -1250630.9, -24672.42, 0.0, 10.000081, 9.968796 
3.0550036e+3, 1.8486482e+2, -1162550.3, -1195714.1, -0.024893155, 0.000020859892, 0.00007061739, -1162550.3, -34225.46, 0.0, 10.000081, 9.956357 
3.0550036e+3, 1.9482121e+2, -1064401.4, -1097827.8, -0.3261863, 0.000020785765, -0.00005426329, -1064401.4, -33649.28, 0.0, 10.000081, 9.956014 
3.0550036e+3, 2.0477095e+2, -976237.94, -1019430.0, -0.0320189, 0.000020712954, 0.00007096585, -976237.94, -42993.184, 0.0, 10.000081, 9.943253 
3.0550033e+3, 2.1471423e+2, -877951.75, -921405.44, -0.33251807, 0.000020641559, -0.00012382319, -877951.75, -42151.223, 0.0, 10.00008, 9.942911 
3.0550033e+3, 2.2465083e+2, -789666.06, -843140.7, -0.03287684, 0.000020583104, 0.00012380724, -789666.06, -51244.227, 0.0, 10.00008, 9.92987 
3.0550033e+3, 2.3458077e+2, -691233.4, -744962.8, -0.31084633, 0.00002053928, -0.00008618616, -691233.4, -50124.867, 0.0, 10.00008, 9.929539 
3.0550033e+3, 2.4450375e+2, -602909.8, -667015.56, -0.0064686104, 0.000020481386, 0.000077113, -602909.8, -59046.62, 0.0, 10.000079, 9.916099 
3.0550033e+3, 2.5441998e+2, -504157.88, -568340.6, -0.29025778, 0.000020406658, -0.00010447962, -504157.88, -57473.617, 0.0, 10.000079, 9.915998 
3.0550033e+3, 2.643291e+2, -415922.97, -490985.66, 0.01422423, 0.0000203512, 0.00014267389, -415922.97, -66348.24, 0.0, 10.000079, 9.901927 
3.0550033e+3, 2.742316e+2, -316638.44, -391373.1, -0.24853623, 0.000020320287, -0.00020158074, -316638.44, -64107.996, 0.0, 10.000079, 9.902347 
3.0550033e+3, 2.8412583e+2, -230165.36, -318079.47, 0.051957686, 0.000020289586, 0.00023073878, -230165.36, -74598.6, 0.0, 10.000079, 9.885402 
3.0550033e+3, 2.940123e+2, -130459.83, -217763.72, -0.19767173, 0.000020259044, -0.00025175765, -130459.83, -71780.28, 0.0, 10.000079, 9.88618 
3.0550033e+3, 3.039267e+2, -40717.492, -84750.8, 0.09410644, 0.000020211362, 0.00017449041, -40717.492, -40717.492, 0.0, 10.000078, 9.942135 
3.0550033e+3, 3.138707e+2, -39639.703, -82512.08, -0.14848989, 0.000020138272, -0.000054202887, -39639.703, -39639.703, 0.0, 10.000078, 9.9436455 
3.0650038e+3, 1.249942e+2, -1719840.4, -1724215.3, 0.22522043, 0.000021882885, 0.000025737832, -1719840.4, -4783.5195, 0.0, 10.000087, 9.994287 
3.0650038e+3, 1.349884e+2, -1622461.0, -1627426.4, -0.112665944, 0.000021676275, -0.0000731314, -1622461.0, -5347.4204, 0.0, 10.000087, 9.993504 
3.0650038e+3, 1.4497592e+2, -1534359.5, -1548136.5, 0.13363773, 0.000021552667, 0.000083559564, -1534359.5, -15123.549, 0.0, 10.000086, 9.981825 
3.0650038e+3, 1.5495776e+2, -1436632.9, -1450813.0, -0.17652357, 0.000021508265, -0.00005271614, -1436632.9, -15218.978, 0.0, 10.000086, 9.981294 
3.0650038e+3, 1.6493297e+2, -1348582.9, -1371944.3, 0.11865984, 0.000021441598, 0.000048626145, -1348582.9, -24926.027, 0.0, 10.000086, 9.969209 
3.0650038e+3, 1.7490222e+2, -1250625.9, -1274302.9, -0.20823653, 0.000021352223, -0.00007001358, -1250625.9, -24667.62, 0.0, 10.000085, 9.968795 
3.0650038e+3, 1.8486483e+2, -1162545.3, -1195712.6, 0.08096386, 0.000021269647, 0.000070716436, -1162545.3, -34220.67, 0.0, 10.000085, 9.956356 
3.0650038e+3, 1.9482122e+2, -1064396.5, -1097826.1, -0.22999421, 0.000021194155, -0.000054193275, -1064396.5, -33644.54, 0.0, 10.000085, 9.956013 
3.0650038e+3, 2.0477097e+2, -976233.06, -1019428.44, 0.06769717, 0.000021121014, 0.00007102044, -976233.06, -42988.48, 0.0, 10.000084, 9.943252 
3.0650038e+3, 2.1471424e+2, -877946.94, -921403.94, -0.23547816, 0.000021050408, -0.00012376926, -877946.94, -42146.563, 0.0, 10.000084, 9.94291 
3.0650038e+3, 2.2465084e+2, -789661.4, -843139.2, 0.061261375, 0.000020990616, 0.00012386154, -789661.4, -51239.59, 0.0, 10.000084, 9.929869 
3.0650038e+3, 2.3458079e+2, -691228.6, -744961.4, -0.24467465, 0.000020943047, -0.000086130305, -691228.6, -50120.254, 0.0, 10.000083, 9.929538 
3.0650038e+3, 2.4450377e+2, -602905.1, -667014.1, 0.059600558, 0.000020883017, 0.00007716697, -602905.1, -59042.027, 0.0, 10.000083, 9.916098 
3.0650038e+3, 2.5441998e+2, -504153.25, -568339.25, -0.22248653, 0.000020808075, -0.00010443165, -504153.25, -57469.066, 0.0, 10.000083, 9.9159975 
3.0650038e+3, 2.643291e+2, -415918.38, -490984.28, 0.0839666, 0.000020751972, 0.00014271706, -415918.38, -66343.72, 0.0, 10.000083, 9.901926 
3.0650038e+3, 2.742316e+2, -316633.88, -391371.75, -0.1964765, 0.000020719857, -0.00020154078, -316633.88, -64103.508, 0.0, 10.000083, 9.902347 
3.0650038e+3, 2.8412586e+2, -230160.83, -318078.16, 0.102711216, 0.000020687918, 0.00023077577, -230160.83, -74594.12, 0.0, 10.000082, 9.885401 
3.0650038e+3, 2.940123e+2, -130455.32, -217762.4, -0.15754111, 0.000020656087, -0.00025172328, -130455.32, -71775.82, 0.0, 10.000082, 9.886179 
3.0650035e+3, 3.039267e+2, -40713.06, -84749.586, 0.13790263, 0.00002060722, 0.00017452179, -40713.06, -40713.06, 0.0, 10.000082, 9.942134 
3.0650035e+3, 3.138707e+2, -39635.3, -82510.88, -0.108581886, 0.000020533093, -0.00005417509, -39635.3, -39635.3, 0.0, 10.000082, 9.943645 
3.075004e+3, 1.24994226e+2, -1719841.1, -1724216.6, 0.077705376, 0.000022295366, 0.000025901307, -1719841.1, -4784.4873, 0.0, 10.000087, 9.994286 
3.075004e+3, 1.3498843e+2, -1622461.9, -1627427.9, -0.26019812, 0.000022112145, -0.00007326315, -1622461.9, -5348.3716, 0.0, 10.000087, 9.993503 
3.075004e+3, 1.4497593e+2, -1534360.3, -1548137.9, -0.012133081, 0.000021993546, 0.00008387029, -1534360.3, -15124.428, 0.0, 10.000086, 9.981824 
3.075004e+3, 1.5495779e+2, -1436633.6, -1450814.4, -0.32230252, 0.000021935584, -0.000052644424, -1436633.6, -15219.839, 0.0, 10.000086, 9.981293 
3.0750036e+3, 1.6493298e+2, -1348583.6, -1371945.6, -0.009928607, 0.000021861224, 0.000048618243, -1348583.6, -24926.912, 0.0, 10.000086, 9.969208 
3.0750036e+3, 1.7490223e+2, -1250626.6, -1274304.3, -0.3367382, 0.000021770153, -0.00006993828, -1250626.6, -24668.488, 0.0, 10.000085, 9.968794 
3.0750036e+3, 1.8486485e+2, -1162546.0, -1195713.9, -0.0374644, 0.00002168553, 0.00007081885, -1162546.0, -34221.5, 0.0, 10.000085, 9.956355 
3.0750036e+3, 1.9482124e+2, -1064397.1, -1097827.4, -0.3483142, 0.000021607628, -0.00005412243, -1064397.1, -33645.35, 0.0, 10.000085, 9.956012 
3.0750036e+3, 2.0477097e+2, -976233.75, -1019429.75, -0.04066255, 0.000021537953, 0.00007107773, -976233.75, -42989.27, 0.0, 10.000084, 9.943251 
3.0750036e+3, 2.1471426e+2, -877947.6, -921405.25, -0.3436418, 0.000021477175, -0.000123706, -877947.6, -42147.336, 0.0, 10.000084, 9.942909 
3.0750036e+3, 2.2465084e+2, -789662.0, -843140.5, -0.033132885, 0.000021410364, 0.00012392404, -789662.0, -51240.367, 0.0, 10.000084, 9.929868 
3.0750036e+3, 2.3458079e+2, -691229.3, -744962.7, -0.33862054, 0.000021336704, -0.000086076194, -691229.3, -50121.016, 0.0, 10.000083, 9.929537 
3.0750036e+3, 2.4450377e+2, -602905.75, -667015.4, -0.022115795, 0.000021274807, 0.00007721952, -602905.75, -59042.746, 0.0, 10.000083, 9.916097 
3.0750036e+3, 2.5442e+2, -504153.84, -568340.5, -0.30362794, 0.00002122695, -0.00010437251, -504153.84, -57469.77, 0.0, 10.000083, 9.915997 
3.0750036e+3, 2.6432914e+2, -415919.0, -490985.56, 0.012959792, 0.000021178996, 0.00014277609, -415919.0, -66344.42, 0.0, 10.000083, 9.901925 
3.0750036e+3, 2.742316e+2, -316634.5, -391373.03, -0.26680908, 0.000021130863, -0.00020149043, -316634.5, -64104.195, 0.0, 10.000083, 9.902346 
3.0750036e+3, 2.8412586e+2, -230161.44, -318079.4, 0.047997687, 0.000021084226, 0.00023081599, -230161.44, -74594.78, 0.0, 10.000082, 9.8854 
3.0750036e+3, 2.940123e+2, -130455.914, -217763.64, -0.21085468, 0.000021039608, -0.00025169516, -130455.914, -71776.46, 0.0, 10.000082, 9.886178 
3.0750036e+3, 3.039267e+2, -40713.652, -84750.83, 0.0952333, 0.00002099751, 0.00017454315, -40713.652, -40713.652, 0.0, 10.000082, 9.942133 
3.0750036e+3, 3.1387073e+2, -39635.9, -82512.125, -0.15001184, 0.000020959165, -0.000054152566, -39635.9, -39635.9, 0.0, 10.000082, 9.943644 
3.0850038e+3, 1.2499425e+2, -1719835.8, -1724214.8, 0.23889369, 0.000022726648, 0.000026091697, -1719835.8, -4779.258, 0.0, 10.000091, 9.994285 
3.0850038e+3, 1.3498844e+2, -1622456.5, -1627426.1, -0.09968248, 0.000022554312, -0.00007343351, -1622456.5, -5343.2607, 0.0, 10.000091, 9.993502 
3.0850038e+3, 1.4497595e+2, -1534355.0, -1548136.1, 0.14959231, 0.000022436574, 0.0000841509, -1534355.0, -15119.345, 0.0, 10.00009, 9.981823 
3.0850038e+3, 1.549578e+2, -1436628.4, -1450812.5, -0.1889637, 0.000022369317, -0.00005255059, -1436628.4, -15214.76, 0.0, 10.00009, 9.981292 
3.0850038e+3, 1.64933e+2, -1348578.5, -1371944.0, 0.11994066, 0.000022288084, 0.00004864022, -1348578.5, -24921.865, 0.0, 10.000089, 9.969207 
3.0850038e+3, 1.7490225e+2, -1250621.5, -1274302.5, -0.21045475, 0.000022192611, -0.00006987077, -1250621.5, -24663.49, 0.0, 10.000089, 9.968793 
3.0850038e+3, 1.8486486e+2, -1162540.9, -1195712.3, 0.08798033, 0.00002210855, 0.000070902875, -1162540.9, -34216.53, 0.0, 10.000089, 9.956354 
3.0850038e+3, 1.9482125e+2, -1064392.1, -1097825.8, -0.23993981, 0.000022036402, -0.00005405227, -1064392.1, -33640.44, 0.0, 10.000088, 9.956012 
3.0850038e+3, 2.0477098e+2, -976228.75, -1019428.1, 0.06433324, 0.000021965976, 0.0000711417, -976228.75, -42984.39, 0.0, 10.000088, 9.94325 
3.0850038e+3, 2.1471426e+2, -877942.6, -921403.7, -0.25798738, 0.000021897406, -0.00012363991, -877942.6, -42142.477, 0.0, 10.000088, 9.942909 
3.0850038e+3, 2.2465086e+2, -789657.06, -843138.94, 0.05450812, 0.00002182613, 0.00012398677, -789657.06, -51235.527, 0.0, 10.000087, 9.929868 
3.0850038e+3, 2.345808e+2, -691224.44, -744961.2, -0.24859817, 0.000021751775, -0.00008602306, -691224.44, -50116.22, 0.0, 10.000087, 9.929536 
3.0850038e+3, 2.4450378e+2, -602900.94, -667013.9, 0.069492236, 0.000021691043, 0.00007726789, -602900.94, -59037.99, 0.0, 10.000087, 9.916096 
3.0850038e+3, 2.5442e+2, -504149.06, -568339.06, -0.23774844, 0.000021646569, -0.000104323124, -504149.06, -57465.055, 0.0, 10.000087, 9.915996 
3.0850038e+3, 2.6432914e+2, -415914.25, -490984.16, 0.07540136, 0.000021597174, 0.00014282424, -415914.25, -66339.73, 0.0, 10.000086, 9.901924 
3.0850038e+3, 2.742316e+2, -316629.75, -391371.63, -0.2099744, 0.000021541457, -0.00020144644, -316629.75, -64099.516, 0.0, 10.000086, 9.902345 
3.0850038e+3, 2.8412586e+2, -230156.7, -318078.0, 0.10881663, 0.000021491303, 0.00023085684, -230156.7, -74590.11, 0.0, 10.000086, 9.885399 
3.0850038e+3, 2.940123e+2, -130451.24, -217762.3, -0.1595142, 0.000021448765, -0.00025165608, -130451.24, -71771.84, 0.0, 10.000086, 9.886177 
3.0850038e+3, 3.039267e+2, -40709.066, -84749.57, 0.14486298, 0.000021408856, 0.00017457557, -40709.066, -40709.066, 0.0, 10.000086, 9.942132 
3.0850038e+3, 3.1387073e+2, -39631.32, -82510.88, -0.11782309, 0.00002137281, -0.000054134067, -39631.32, -39631.32, 0.0, 10.000086, 9.943644 
3.095004e+3, 1.2499426e+2, -1719836.5, -1724216.3, 0.06824623, 0.000023176714, 0.00002631025, -1719836.5, -4780.236, 0.0, 10.000091, 9.994284 
3.095004e+3, 1.3498846e+2, -1622457.3, -1627427.5, -0.27035692, 0.000023002773, -0.00007364242, -1622457.3, -5344.2217, 0.0, 10.000091, 9.993501 
3.095004e+3, 1.4497599e+2, -1534355.8, -1548137.5, 0.0071154633, 0.000022881755, 0.00008440145, -1534355.8, -15120.296, 0.0, 10.00009, 9.981822 
3.095004e+3, 1.5495782e+2, -1436629.1, -1450814.0, -0.33140454, 0.000022809465, -0.00005243467, -1436629.1, -15215.692, 0.0, 10.00009, 9.981291 
3.095004e+3, 1.6493301e+2, -1348579.1, -1371945.4, -0.01554809, 0.000022722174, 0.00004869202, -1348579.1, -24922.766, 0.0, 10.000089, 9.969206 
3.095004e+3, 1.7490226e+2, -1250622.1, -1274303.9, -0.3459122, 0.000022619599, -0.000069811045, -1250622.1, -24664.375, 0.0, 10.000089, 9.968792 
3.095004e+3, 1.8486488e+2, -1162541.6, -1195713.6, -0.039970033, 0.000022538703, 0.000070968534, -1162541.6, -34217.402, 0.0, 10.000089, 9.956353 
3.095004e+3, 1.9482127e+2, -1064392.9, -1097827.3, -0.36781093, 0.00002248046, -0.0000539828, -1064392.9, -33641.297, 0.0, 10.000088, 9.956011 
3.095004e+3, 2.04771e+2, -976229.44, -1019429.56, -0.044675644, 0.000022405076, 0.000071212344, -976229.44, -42985.227, 0.0, 10.000088, 9.943249 
3.095004e+3, 2.1471427e+2, -877943.3, -921405.06, -0.36661273, 0.000022311116, -0.00012357096, -877943.3, -42143.297, 0.0, 10.000088, 9.942908 
3.095004e+3, 2.2465087e+2, -789657.75, -843140.25, -0.04590555, 0.000022237931, 0.00012404975, -789657.75, -51236.31, 0.0, 10.000087, 9.929867 
3.095004e+3, 2.3458081e+2, -691225.06, -744962.5, -0.3487557, 0.000022188238, -0.000085970896, -691225.06, -50116.984, 0.0, 10.000087, 9.929535 
3.095004e+3, 2.445038e+2, -602901.6, -667015.25, -0.01897868, 0.000022131699, 0.00007731209, -602901.6, -59038.76, 0.0, 10.000087, 9.916095 
3.095004e+3, 2.5442e+2, -504149.72, -568340.4, -0.32566065, 0.000022066939, -0.000104283456, -504149.72, -57465.813, 0.0, 10.000087, 9.915995 
3.095004e+3, 2.6432914e+2, -415914.88, -490985.47, 0.0049174284, 0.000022006529, 0.00014286152, -415914.88, -66340.45, 0.0, 10.000086, 9.901924 
3.095004e+3, 2.7423164e+2, -316630.38, -391372.94, -0.27930114, 0.000021951646, -0.00020140881, -316630.38, -64100.223, 0.0, 10.000086, 9.902344 
3.095004e+3, 2.8412586e+2, -230157.33, -318079.28, 0.04735768, 0.000021909142, 0.0002308983, -230157.33, -74590.8, 0.0, 10.000086, 9.885398 
3.095004e+3, 2.940123e+2, -130451.85, -217763.58, -0.22027332, 0.000021883525, -0.00025160605, -130451.85, -71772.51, 0.0, 10.000086, 9.886176 
3.095004e+3, 3.039267e+2, -40709.695, -84750.88, 0.10018862, 0.00002184123, 0.00017461905, -40709.695, -40709.695, 0.0, 10.000086, 9.942131 
3.095004e+3, 3.1387073e+2, -39631.953, -82512.195, -0.1606128, 0.000021774054, -0.000054119584, -39631.953, -39631.953, 0.0, 10.000086, 9.943643 
3.105004e+3, 1.24994285e+2, -1719830.9, -1724214.4, 0.23854925, 0.0000236388, 0.000026481453, -1719830.9, -4774.887, 0.0, 10.000094, 9.994283 
3.105004e+3, 1.3498849e+2, -1622451.8, -1627425.6, -0.11795324, 0.000023452003, -0.0000738025, -1622451.8, -5338.845, 0.0, 10.000094, 9.993501 
3.105004e+3, 1.44976e+2, -1534350.3, -1548135.6, 0.15894644, 0.000023324712, 0.00008471809, -1534350.3, -15114.941, 0.0, 10.000093, 9.981821 
3.105004e+3, 1.5495785e+2, -1436623.6, -1450812.1, -0.19490755, 0.00002325271, -0.000052343283, -1436623.6, -15210.418, 0.0, 10.000093, 9.98129 
3.105004e+3, 1.6493304e+2, -1348573.8, -1371943.5, 0.11858338, 0.000023167546, 0.00004870276, -1348573.8, -24917.531, 0.0, 10.000093, 9.969205 
3.1050038e+3, 1.7490229e+2, -1250616.9, -1274302.1, -0.22331594, 0.000023068971, -0.00006973326, -1250616.9, -24659.19, 0.0, 10.0000925, 9.968791 
3.1050038e+3, 1.848649e+2, -1162536.3, -1195711.9, 0.08142275, 0.00002298419, 0.00007106853, -1162536.3, -34212.25, 0.0, 10.0000925, 9.956352 
3.1050038e+3, 1.9482128e+2, -1064387.6, -1097825.5, -0.2601742, 0.00002291381, -0.000053907523, -1064387.6, -33636.168, 0.0, 10.000092, 9.95601 
3.1050038e+3, 2.0477101e+2, -976224.25, -1019427.9, 0.06680969, 0.000022836177, 0.0000712749, -976224.25, -42980.125, 0.0, 10.000092, 9.943248 
3.1050038e+3, 2.1471429e+2, -877938.2, -921403.44, -0.2612695, 0.000022750673, -0.0001235081, -877938.2, -42138.26, 0.0, 10.000092, 9.942907 
3.1050038e+3, 2.2465089e+2, -789652.6, -843138.7, 0.057443883, 0.000022678469, 0.00012411237, -789652.6, -51231.305, 0.0, 10.000091, 9.929866 
3.1050038e+3, 2.3458081e+2, -691220.0, -744960.94, -0.27043682, 0.000022621294, -0.00008590914, -691220.0, -50112.008, 0.0, 10.000091, 9.929535 
3.1050038e+3, 2.445038e+2, -602896.56, -667013.7, 0.057622585, 0.000022560165, 0.00007737058, -602896.56, -59033.805, 0.0, 10.000091, 9.916094 
3.1050038e+3, 2.5442e+2, -504144.72, -568338.9, -0.24765475, 0.000022494281, -0.00010423111, -504144.72, -57460.887, 0.0, 10.000091, 9.915994 
3.1050038e+3, 2.6432914e+2, -415909.9, -490984.0, 0.08976797, 0.000022434511, 0.00014290778, -415909.9, -66335.56, 0.0, 10.00009, 9.901923 
3.1050038e+3, 2.7423164e+2, -316625.47, -391371.5, -0.2134164, 0.00002238251, -0.00020136854, -316625.47, -64095.383, 0.0, 10.00009, 9.902343 
3.1050038e+3, 2.8412586e+2, -230152.44, -318077.88, 0.1076808, 0.000022339313, 0.00023093639, -230152.44, -74585.98, 0.0, 10.00009, 9.885397 
3.1050038e+3, 2.9401234e+2, -130446.99, -217762.17, -0.1743602, 0.000022308102, -0.00025156487, -130446.99, -71767.7, 0.0, 10.00009, 9.886176 
3.1050038e+3, 3.039267e+2, -40704.914, -84749.56, 0.14807047, 0.000022263572, 0.00017465689, -40704.914, -40704.914, 0.0, 10.00009, 9.94213 
3.1050038e+3, 3.1387073e+2, -39627.207, -82510.9, -0.111175135, 0.000022199187, -0.00005409467, -39627.207, -39627.207, 0.0, 10.000089, 9.943642 
3.115004e+3, 1.2499431e+2, -1719831.8, -1724215.9, 0.079073355, 0.000024112902, 0.000026607077, -1719831.8, -4775.9146, 0.0, 10.000094, 9.994282 
3.115004e+3, 1.3498852e+2, -1622452.5, -1627427.1, -0.2774556, 0.000023902012, -0.00007391382, -1622452.5, -5339.856, 0.0, 10.000094, 9.9935 
3.115004e+3, 1.4497602e+2, -1534351.0, -1548137.1, 0.0019789778, 0.000023765457, 0.000085100735, -1534351.0, -15115.936, 0.0, 10.000093, 9.98182 
3.115004e+3, 1.5495786e+2, -1436624.5, -1450813.6, -0.35186887, 0.000023699058, -0.00005227639, -1436624.5, -15211.392, 0.0, 10.000093, 9.981289 
3.115004e+3, 1.6493306e+2, -1348574.5, -1371945.0, -0.024390614, 0.000023624189, 0.0000486725, -1348574.5, -24918.465, 0.0, 10.000093, 9.969204 
3.115004e+3, 1.749023e+2, -1250617.6, -1274303.6, -0.36622694, 0.000023540695, -0.00006963744, -1250617.6, -24660.107, 0.0, 10.0000925, 9.96879 
3.115004e+3, 1.8486491e+2, -1162537.0, -1195713.4, -0.04723797, 0.000023444994, 0.00007120281, -1162537.0, -34213.16, 0.0, 10.0000925, 9.956351 
3.115004e+3, 1.948213e+2, -1064388.3, -1097827.0, -0.38867518, 0.000023336475, -0.000053826458, -1064388.3, -33637.055, 0.0, 10.000092, 9.956009 
3.115004e+3, 2.0477103e+2, -976224.94, -1019429.25, -0.053400718, 0.0000232593, 0.00007132939, -976224.94, -42980.98, 0.0, 10.000092, 9.943247 
3.115004e+3, 2.147143e+2, -877938.9, -921404.8, -0.38132146, 0.000023216044, -0.0001234513, -877938.9, -42139.1, 0.0, 10.000092, 9.942906 
3.115004e+3, 2.2465089e+2, -789653.3, -843140.1, -0.045244046, 0.000023147708, 0.00012417464, -789653.3, -51232.145, 0.0, 10.000091, 9.929865 
3.115004e+3, 2.3458083e+2, -691220.7, -744962.3, -0.3725614, 0.000023050954, -0.00008583779, -691220.7, -50112.83, 0.0, 10.000091, 9.929534 
3.115004e+3, 2.4450381e+2, -602897.25, -667015.06, -0.033593282, 0.000022976472, 0.000077443336, -602897.25, -59034.586, 0.0, 10.000091, 9.916093 
3.115004e+3, 2.5442004e+2, -504145.38, -568340.25, -0.33835986, 0.000022928594, -0.000104166116, -504145.38, -57461.65, 0.0, 10.000091, 9.915994 
3.115004e+3, 2.6432917e+2, -415910.6, -490985.38, 0.010913056, 0.000022881108, 0.00014296299, -415910.6, -66336.32, 0.0, 10.00009, 9.901922 
3.115004e+3, 2.7423164e+2, -316626.16, -391372.88, -0.2914815, 0.000022834027, -0.00020132566, -316626.16, -64096.13, 0.0, 10.00009, 9.902342 
3.115004e+3, 2.841259e+2, -230153.1, -318079.22, 0.045875173, 0.000022781805, 0.00023097113, -230153.1, -74586.695, 0.0, 10.00009, 9.885396 
3.115004e+3, 2.9401234e+2, -130447.64, -217763.5, -0.23470962, 0.000022722523, -0.0002515325, -130447.64, -71768.41, 0.0, 10.00009, 9.886175 
3.115004e+3, 3.0392674e+2, -40705.547, -84750.875, 0.09610825, 0.000022675902, 0.0001746891, -40705.547, -40705.547, 0.0, 10.00009, 9.942129 
3.115004e+3, 3.1387073e+2, -39627.84, -82512.21, -0.16216967, 0.000022648179, -0.000054059346, -39627.84, -39627.84, 0.0, 10.00009, 9.943641 
3.1250045e+3, 1.2499433e+2, -1719825.9, -1724213.9, 0.26134822, 0.000024583995, 0.000026791105, -1719825.9, -4770.275, 0.0, 10.000099, 9.994281 
3.1250045e+3, 1.3498853e+2, -1622446.8, -1627425.3, -0.124843806, 0.000024361805, -0.00007406403, -1622446.8, -5334.3, 0.0, 10.000098, 9.993499 
3.1250042e+3, 1.4497603e+2, -1534345.3, -1548135.3, 0.15025298, 0.000024223307, 0.000085438376, -1534345.3, -15110.395, 0.0, 10.000098, 9.981819 
3.1250042e+3, 1.5495788e+2, -1436618.8, -1450811.8, -0.19907485, 0.000024164316, -0.000052197673, -1436618.8, -15205.888, 0.0, 10.000097, 9.981288 
3.1250042e+3, 1.6493307e+2, -1348568.9, -1371943.1, 0.1293464, 0.00002408989, 0.00004866734, -1348568.9, -24913.016, 0.0, 10.000097, 9.969203 
3.1250042e+3, 1.7490232e+2, -1250612.0, -1274301.8, -0.23880282, 0.000023999735, -0.00006954765, -1250612.0, -24654.725, 0.0, 10.000096, 9.968789 
3.1250042e+3, 1.8486492e+2, -1162531.5, -1195711.5, 0.082270876, 0.000023901173, 0.000071320224, -1162531.5, -34207.8, 0.0, 10.000096, 9.95635 
3.1250042e+3, 1.9482131e+2, -1064382.9, -1097825.1, -0.2640807, 0.000023793758, -0.00005375189, -1064382.9, -33631.734, 0.0, 10.000096, 9.956008 
3.1250042e+3, 2.0477104e+2, -976219.5, -1019427.56, 0.06717952, 0.000023714378, 0.000071386195, -976219.5, -42975.69, 0.0, 10.000095, 9.943246 
3.1250042e+3, 2.1471432e+2, -877933.5, -921403.1, -0.28197697, 0.00002366533, -0.00012338509, -877933.5, -42133.848, 0.0, 10.000095, 9.942905 
3.1250042e+3, 2.246509e+2, -789648.0, -843138.44, 0.057078633, 0.00002359566, 0.00012424347, -789648.0, -51226.92, 0.0, 10.000095, 9.929864 
3.1250042e+3, 2.3458084e+2, -691215.44, -744960.7, -0.2730849, 0.000023502615, -0.000085774074, -691215.44, -50107.66, 0.0, 10.000094, 9.929533 
3.1250042e+3, 2.4450383e+2, -602892.0, -667013.5, 0.06598735, 0.000023427148, 0.00007750256, -602892.0, -59029.45, 0.0, 10.000094, 9.916092 
3.1250042e+3, 2.5442004e+2, -504140.2, -568338.7, -0.26471093, 0.000023372677, -0.00010411065, -504140.2, -57456.543, 0.0, 10.000094, 9.915993 
3.1250042e+3, 2.6432917e+2, -415905.44, -490983.84, 0.07971927, 0.000023322393, 0.00014301462, -415905.44, -66331.24, 0.0, 10.000093, 9.901921 
3.1250042e+3, 2.7423164e+2, -316621.03, -391371.38, -0.22578217, 0.000023277364, -0.00020127796, -316621.03, -64091.082, 0.0, 10.000093, 9.902341 
3.1250042e+3, 2.841259e+2, -230148.0, -318077.72, 0.11952242, 0.000023225964, 0.00023101475, -230148.0, -74581.67, 0.0, 10.000093, 9.885395 
3.1250042e+3, 2.9401234e+2, -130442.6, -217762.06, -0.17220293, 0.000023165796, -0.00025149318, -130442.6, -71763.42, 0.0, 10.000093, 9.886174 
3.1250042e+3, 3.0392674e+2, -40700.594, -84749.52, 0.14954874, 0.000023114064, 0.00017472879, -40700.594, -40700.594, 0.0, 10.000093, 9.942128 
3.1250042e+3, 3.1387073e+2, -39622.87, -82510.86, -0.14152138, 0.00002307498, -0.00005401234, -39622.87, -39622.87, 0.0, 10.000093, 9.94364 
3.1350043e+3, 1.2499435e+2, -1719826.8, -1724215.5, 0.0872391, 0.000025052086, 0.000027034568, -1719826.8, -4771.381, 0.0, 10.000099, 9.99428 
3.1350043e+3, 1.3498855e+2, -1622447.6, -1627426.9, -0.29896587, 0.000024831372, -0.00007425307, -1622447.6, -5335.386, 0.0, 10.000098, 9.993497 
3.1350043e+3, 1.4497606e+2, -1534346.1, -1548136.8, -0.011245622, 0.000024698244, 0.0000857311, -1534346.1, -15111.386, 0.0, 10.000098, 9.981818 
3.1350043e+3, 1.5495789e+2, -1436619.6, -1450813.3, -0.360567, 0.000024648454, -0.000052107152, -1436619.6, -15206.86, 0.0, 10.000097, 9.981287 
3.1350043e+3, 1.6493309e+2, -1348569.8, -1371944.8, -0.024164582, 0.000024564637, 0.00004868724, -1348569.8, -24914.016, 0.0, 10.000097, 9.969202 
3.1350043e+3, 1.7490233e+2, -1250612.9, -1274303.4, -0.39227435, 0.00002444612, -0.00006946387, -1250612.9, -24655.705, 0.0, 10.000096, 9.968788 
3.1350043e+3, 1.8486494e+2, -1162532.3, -1195713.0, -0.050593466, 0.000024352745, 0.000071420785, -1162532.3, -34208.727, 0.0, 10.000096, 9.956349 
3.1350043e+3, 1.9482133e+2, -1064383.6, -1097826.6, -0.3967199, 0.000024285615, -0.00005368381, -1064383.6, -33632.645, 0.0, 10.000096, 9.956007 
3.135004e+3, 2.0477106e+2, -976220.3, -1019429.0, -0.05718056, 0.000024201367, 0.00007144531, -976220.3, -42976.598, 0.0, 10.000095, 9.943245 
3.135004e+3, 2.1471433e+2, -877934.25, -921404.6, -0.4061692, 0.000024098568, -0.00012330947, -877934.25, -42134.74, 0.0, 10.000095, 9.942904 
3.135004e+3, 2.2465092e+2, -789648.75, -843139.9, -0.053732544, 0.000024022367, 0.00012431883, -789648.75, -51227.773, 0.0, 10.000095, 9.929863 
3.135004e+3, 2.3458086e+2, -691216.1, -744962.1, -0.3834722, 0.00002397625, -0.00008571798, -691216.1, -50108.492, 0.0, 10.000094, 9.929532 
3.135004e+3, 2.4450383e+2, -602892.7, -667014.94, -0.028346796, 0.00002391215, 0.00007754828, -602892.7, -59030.28, 0.0, 10.000094, 9.916091 
3.135004e+3, 2.5442004e+2, -504140.9, -568340.1, -0.35827625, 0.000023826522, -0.0001040647, -504140.9, -57457.36, 0.0, 10.000094, 9.915992 
3.135004e+3, 2.6432917e+2, -415906.13, -490985.25, -0.00306766, 0.00002375839, 0.00014306269, -415906.13, -66332.016, 0.0, 10.000093, 9.90192 
3.135004e+3, 2.7423167e+2, -316621.7, -391372.75, -0.30786067, 0.000023712546, -0.00020122544, -316621.7, -64091.84, 0.0, 10.000093, 9.90234 
3.135004e+3, 2.841259e+2, -230148.67, -318079.13, 0.05100542, 0.000023671797, 0.00023106723, -230148.67, -74582.414, 0.0, 10.000093, 9.885394 
3.135004e+3, 2.9401234e+2, -130443.266, -217763.45, -0.23950736, 0.000023637884, -0.0002514469, -130443.266, -71764.15, 0.0, 10.000093, 9.886173 
3.135004e+3, 3.0392674e+2, -40701.29, -84750.96, 0.10096913, 0.000023578028, 0.00017477595, -40701.29, -40701.29, 0.0, 10.000093, 9.942127 
3.135004e+3, 3.1387073e+2, -39623.566, -82512.305, -0.18790449, 0.000023479635, -0.000053953674, -39623.566, -39623.566, 0.0, 10.000093, 9.943639 
3.1450045e+3, 1.24994375e+2, -1719820.8, -1724213.4, 0.24650975, 0.000025535039, 0.000027258286, -1719820.8, -4765.554, 0.0, 10.000103, 9.994279 
3.1450045e+3, 1.3498858e+2, -1622441.8, -1627424.9, -0.12620154, 0.000025319336, -0.00007442899, -1622441.8, -5329.6055, 0.0, 10.000103, 9.993496 
3.1450045e+3, 1.4497608e+2, -1534340.1, -1548134.6, 0.16370375, 0.000025185562, 0.00008606111, -1534340.1, -15105.628, 0.0, 10.000102, 9.981817 
3.1450045e+3, 1.5495792e+2, -1436613.8, -1450811.3, -0.21506388, 0.000025129344, -0.000052005533, -1436613.8, -15201.174, 0.0, 10.000102, 9.981286 
3.1450045e+3, 1.649331e+2, -1348563.9, -1371942.8, 0.12154504, 0.000025040257, 0.000048705006, -1348563.9, -24908.377, 0.0, 10.000101, 9.969201 
3.1450045e+3, 1.7490236e+2, -1250607.0, -1274301.5, -0.24782836, 0.000024917656, -0.0000693823, -1250607.0, -24650.08, 0.0, 10.000101, 9.968787 
3.1450045e+3, 1.8486495e+2, -1162526.5, -1195711.1, 0.09402992, 0.000024824762, 0.00007152585, -1162526.5, -34203.125, 0.0, 10.0001, 9.956348 
3.1450045e+3, 1.9482134e+2, -1064377.9, -1097824.9, -0.2763848, 0.000024762896, -0.00005359746, -1064377.9, -33627.125, 0.0, 10.0001, 9.956006 
3.1450045e+3, 2.0477107e+2, -976214.7, -1019427.25, 0.065279454, 0.000024677196, 0.00007151988, -976214.7, -42971.12, 0.0, 10.000099, 9.943244 
3.1450045e+3, 2.1471435e+2, -877928.7, -921402.9, -0.28523222, 0.00002456567, -0.00012323917, -877928.7, -42129.29, 0.0, 10.000099, 9.9429035 
3.1450045e+3, 2.2465093e+2, -789643.2, -843138.1, 0.06670734, 0.000024485289, 0.00012438683, -789643.2, -51222.348, 0.0, 10.000099, 9.929862 
3.1450045e+3, 2.3458087e+2, -691210.6, -744960.44, -0.2890566, 0.000024440142, -0.00008565003, -691210.6, -50103.1, 0.0, 10.000098, 9.929531 
3.1450045e+3, 2.4450384e+2, -602887.25, -667013.25, 0.06605859, 0.000024376553, 0.00007761173, -602887.25, -59024.926, 0.0, 10.000098, 9.91609 
3.1450045e+3, 2.5442007e+2, -504135.5, -568338.5, -0.26233894, 0.000024290888, -0.00010401103, -504135.5, -57452.06, 0.0, 10.000098, 9.915991 
3.1450045e+3, 2.643292e+2, -415900.75, -490983.66, 0.09676147, 0.000024220459, 0.00014311238, -415900.75, -66326.75, 0.0, 10.000098, 9.901919 
3.1450042e+3, 2.7423167e+2, -316616.38, -391371.22, -0.23358773, 0.00002416944, -0.00020117231, -316616.38, -64086.6, 0.0, 10.000097, 9.902339 
3.1450042e+3, 2.841259e+2, -230143.38, -318077.56, 0.11698522, 0.000024125678, 0.00023112092, -230143.38, -74577.18, 0.0, 10.000097, 9.885393 
3.1450042e+3, 2.9401234e+2, -130438.01, -217761.94, -0.1873232, 0.00002409173, -0.00025139662, -130438.01, -71758.95, 0.0, 10.000097, 9.886172 
3.1450042e+3, 3.0392674e+2, -40696.125, -84749.555, 0.16052952, 0.000024030478, 0.00017481593, -40696.125, -40696.125, 0.0, 10.000097, 9.942126 
3.1450042e+3, 3.1387073e+2, -39618.453, -82510.92, -0.12066351, 0.000023928647, -0.000053934258, -39618.453, -39618.453, 0.0, 10.000097, 9.943638 
3.1550047e+3, 1.249944e+2, -1719821.6, -1724215.0, 0.06685615, 0.000026032823, 0.000027464992, -1719821.6, -4766.637, 0.0, 10.000103, 9.994278 
3.1550047e+3, 1.3498859e+2, -1622442.5, -1627426.4, -0.30588776, 0.000025825671, -0.00007459179, -1622442.5, -5330.67, 0.0, 10.000103, 9.993495 
3.1550047e+3, 1.4497611e+2, -1534341.0, -1548136.3, -0.009957631, 0.00002568525, 0.000086428336, -1534341.0, -15106.695, 0.0, 10.000102, 9.981816 
3.1550047e+3, 1.5495794e+2, -1436614.5, -1450812.9, -0.3887183, 0.000025606996, -0.000051892835, -1436614.5, -15202.22, 0.0, 10.000102, 9.981285 
3.1550047e+3, 1.6493313e+2, -1348564.8, -1371944.4, -0.030011643, 0.000025516754, 0.000048720634, -1348564.8, -24909.389, 0.0, 10.000101, 9.9692 
3.1550044e+3, 1.7490238e+2, -1250607.9, -1274303.0, -0.3992834, 0.000025414309, -0.000069302914, -1250607.9, -24651.072, 0.0, 10.000101, 9.968786 
3.1550044e+3, 1.8486497e+2, -1162527.4, -1195712.8, -0.053878795, 0.000025317198, 0.00007163541, -1162527.4, -34204.113, 0.0, 10.0001, 9.956347 
3.1550044e+3, 1.9482137e+2, -1064378.8, -1097826.4, -0.42425638, 0.000025225641, -0.000053492877, -1064378.8, -33628.094, 0.0, 10.0001, 9.956005 
3.1550044e+3, 2.0477109e+2, -976215.44, -1019428.75, -0.06072911, 0.000025141893, 0.00007160986, -976215.44, -42972.043, 0.0, 10.000099, 9.943243 
3.1550044e+3, 2.1471438e+2, -877929.44, -921404.4, -0.41080353, 0.000025066587, -0.00012317418, -877929.44, -42130.188, 0.0, 10.000099, 9.942903 
3.1550044e+3, 2.2465095e+2, -789643.94, -843139.7, -0.04777319, 0.000024984374, 0.00012444751, -789643.94, -51223.258, 0.0, 10.000099, 9.929861 
3.1550044e+3, 2.3458087e+2, -691211.44, -744962.0, -0.40317497, 0.000024894316, -0.000085570246, -691211.44, -50103.992, 0.0, 10.000098, 9.92953 
3.1550044e+3, 2.4450386e+2, -602888.0, -667014.75, -0.03719847, 0.000024820407, 0.000077692894, -602888.0, -59025.766, 0.0, 10.000098, 9.916089 
3.1550044e+3, 2.5442007e+2, -504136.22, -568339.94, -0.36509058, 0.000024765772, -0.000103949664, -504136.22, -57452.88, 0.0, 10.000098, 9.91599 
3.1550044e+3, 2.643292e+2, -415901.5, -490985.16, 0.012201017, 0.000024708565, 0.00014316369, -415901.5, -66327.58, 0.0, 10.000098, 9.901918 
3.1550044e+3, 2.7423167e+2, -316617.13, -391372.72, -0.31693342, 0.000024648018, -0.00020111859, -316617.13, -64087.414, 0.0, 10.000097, 9.902338 
3.1550044e+3, 2.8412592e+2, -230144.08, -318079.03, 0.045810446, 0.00002458761, 0.00023117583, -230144.08, -74577.96, 0.0, 10.000097, 9.885392 
3.1550044e+3, 2.9401237e+2, -130438.7, -217763.38, -0.25740817, 0.000024527375, -0.00025134228, -130438.7, -71759.71, 0.0, 10.000097, 9.886171 
3.1550044e+3, 3.0392674e+2, -40696.81, -84750.98, 0.10199653, 0.000024471445, 0.00017484873, -40696.81, -40696.81, 0.0, 10.000097, 9.942125 
3.1550044e+3, 3.1387076e+2, -39619.137, -82512.34, -0.17785391, 0.00002442195, -0.000053954027, -39619.137, -39619.137, 0.0, 10.000097, 9.943637 
3.1650046e+3, 1.2499442e+2, -1719815.3, -1724212.9, 0.28026605, 0.00002654591, 0.000027670127, -1719815.3, -4760.5586, 0.0, 10.000108, 9.994277 
3.1650046e+3, 1.3498862e+2, -1622436.4, -1627424.4, -0.13067766, 0.000026329746, -0.000074774274, -1622436.4, -5324.696, 0.0, 10.000107, 9.993494 
3.1650046e+3, 1.4497612e+2, -1534334.8, -1548134.1, 0.1624038, 0.000026183454, 0.00008678821, -1534334.8, -15100.748, 0.0, 10.000107, 9.981815 
3.1650046e+3, 1.5495795e+2, -1436608.4, -1450810.8, -0.21963227, 0.000026102385, -0.00005178742, -1436608.4, -15196.278, 0.0, 10.000106, 9.981284 
3.1650046e+3, 1.6493315e+2, -1348558.6, -1371942.3, 0.13982013, 0.000026011563, 0.00004873514, -1348558.6, -24903.49, 0.0, 10.000106, 9.969199 
3.1650046e+3, 1.749024e+2, -1250601.9, -1274301.0, -0.25049555, 0.000025910822, -0.000069212314, -1250601.9, -24645.268, 0.0, 10.000105, 9.968785 
3.1650046e+3, 1.8486498e+2, -1162521.4, -1195710.8, 0.094911955, 0.000025810492, 0.000071748786, -1162521.4, -34198.344, 0.0, 10.000105, 9.9563465 
3.1650046e+3, 1.9482139e+2, -1064372.9, -1097824.5, -0.28149852, 0.000025710573, -0.00005341255, -1064372.9, -33622.336, 0.0, 10.000104, 9.956004 
3.1650046e+3, 2.047711e+2, -976209.56, -1019426.9, 0.08042737, 0.000025624902, 0.00007167948, -976209.56, -42966.31, 0.0, 10.000104, 9.943242 
3.1650046e+3, 2.147144e+2, -877923.6, -921402.5, -0.29916185, 0.000025554642, -0.00012309106, -877923.6, -42124.523, 0.0, 10.000104, 9.942902 
3.1650046e+3, 2.2465096e+2, -789638.2, -843137.9, 0.06359682, 0.000025472273, 0.00012452959, -789638.2, -51217.633, 0.0, 10.000103, 9.92986 
3.1650043e+3, 2.3458089e+2, -691205.7, -744960.25, -0.28824165, 0.000025376166, -0.000085505715, -691205.7, -50098.414, 0.0, 10.000103, 9.929529 
3.1650043e+3, 2.4450386e+2, -602882.3, -667013.0, 0.07909094, 0.0000252984, 0.00007775063, -602882.3, -59020.215, 0.0, 10.000103, 9.916088 
3.1650043e+3, 2.5442007e+2, -504130.6, -568338.25, -0.2793424, 0.000025242523, -0.00010388587, -504130.6, -57447.355, 0.0, 10.000102, 9.915989 
3.1650043e+3, 2.643292e+2, -415895.9, -490983.5, 0.09430204, 0.000025184068, 0.00014322759, -415895.9, -66322.086, 0.0, 10.000102, 9.901917 
3.1650043e+3, 2.7423167e+2, -316611.6, -391371.1, -0.23814154, 0.000025122257, -0.0002010622, -316611.6, -64081.97, 0.0, 10.000102, 9.902337 
3.1650043e+3, 2.8412592e+2, -230138.58, -318077.4, 0.13145295, 0.000025060315, 0.00023122612, -230138.58, -74572.54, 0.0, 10.000102, 9.885391 
3.1650043e+3, 2.9401237e+2, -130433.266, -217761.81, -0.1782416, 0.00002499818, -0.00025129612, -130433.266, -71754.336, 0.0, 10.000101, 9.88617 
3.1650043e+3, 3.0392674e+2, -40691.473, -84749.51, 0.17925617, 0.000024942066, 0.00017488711, -40691.473, -40691.473, 0.0, 10.000101, 9.942124 
3.1650043e+3, 3.1387076e+2, -39613.813, -82510.88, -0.12241188, 0.000024894944, -0.000053928827, -39613.813, -39613.813, 0.0, 10.000101, 9.943636 
3.175005e+3, 1.2499445e+2, -1719816.3, -1724214.6, 0.08171798, 0.000027074286, 0.000027876004, -1719816.3, -4761.74, 0.0, 10.000108, 9.994276 
3.175005e+3, 1.3498864e+2, -1622437.3, -1627426.1, -0.32924318, 0.000026831578, -0.00007497641, -1622437.3, -5325.857, 0.0, 10.000107, 9.993493 
3.175005e+3, 1.4497614e+2, -1534335.6, -1548135.8, -0.007832778, 0.000026680185, 0.00008714076, -1534335.6, -15101.832, 0.0, 10.000107, 9.981814 
3.1750047e+3, 1.5495798e+2, -1436609.3, -1450812.4, -0.38984206, 0.00002661549, -0.00005168927, -1436609.3, -15197.34, 0.0, 10.000106, 9.981283 
3.1750047e+3, 1.6493316e+2, -1348559.5, -1371944.0, -0.028356383, 0.000026524664, 0.000048748516, -1348559.5, -24904.557, 0.0, 10.000106, 9.969198 
3.1750047e+3, 1.7490241e+2, -1250602.8, -1274302.8, -0.41866747, 0.000026407204, -0.00006911051, -1250602.8, -24646.314, 0.0, 10.000105, 9.968784 
3.1750047e+3, 1.8486501e+2, -1162522.3, -1195712.4, -0.050652444, 0.000026304651, 0.00007186597, -1162522.3, -34199.35, 0.0, 10.000105, 9.956346 
3.1750047e+3, 1.948214e+2, -1064373.6, -1097826.1, -0.4268144, 0.000026217664, -0.00005335643, -1064373.6, -33623.32, 0.0, 10.000104, 9.956003 
3.1750047e+3, 2.0477112e+2, -976210.4, -1019428.5, -0.0563179, 0.000026126198, 0.00007172879, -976210.4, -42967.297, 0.0, 10.000104, 9.943241 
3.1750047e+3, 2.147144e+2, -877924.44, -921404.1, -0.43573058, 0.000026029866, -0.00012298982, -877924.44, -42125.49, 0.0, 10.000104, 9.942901 
3.1750047e+3, 2.2465096e+2, -789639.0, -843139.44, -0.057038818, 0.000025949012, 0.000124633, -789639.0, -51218.543, 0.0, 10.000103, 9.929859 
3.1750047e+3, 2.345809e+2, -691206.5, -744961.75, -0.40837473, 0.000025885654, -0.00008545641, -691206.5, -50099.305, 0.0, 10.000103, 9.929528 
3.1750047e+3, 2.4450387e+2, -602883.1, -667014.56, -0.025460823, 0.00002581048, 0.00007778498, -602883.1, -59021.117, 0.0, 10.000103, 9.916087 
3.1750047e+3, 2.544201e+2, -504131.38, -568339.8, -0.38314766, 0.00002572115, -0.00010381966, -504131.38, -57448.242, 0.0, 10.000102, 9.915987 
3.1750047e+3, 2.6432922e+2, -415896.66, -490985.03, 0.0027792547, 0.000025647001, 0.00014330405, -415896.66, -66322.93, 0.0, 10.000102, 9.9019165 
3.1750047e+3, 2.742317e+2, -316612.3, -391372.6, -0.32885414, 0.000025592175, -0.00020100315, -316612.3, -64082.793, 0.0, 10.000102, 9.902336 
3.1750047e+3, 2.8412592e+2, -230139.3, -318078.9, 0.052414514, 0.000025543786, 0.00023127183, -230139.3, -74573.33, 0.0, 10.000102, 9.88539 
3.1750047e+3, 2.9401237e+2, -130433.98, -217763.28, -0.2562418, 0.00002550409, -0.0002512581, -130433.98, -71755.11, 0.0, 10.000101, 9.886169 
3.1750047e+3, 3.0392677e+2, -40692.2, -84751.016, 0.117040314, 0.0000254423, 0.00017493108, -40692.2, -40692.2, 0.0, 10.000101, 9.942123 
3.1750047e+3, 3.1387076e+2, -39614.543, -82512.4, -0.18278533, 0.000025347676, -0.00005385874, -39614.543, -39614.543, 0.0, 10.000101, 9.943635 
3.185005e+3, 1.2499447e+2, -1719809.8, -1724212.4, 0.28646323, 0.000027597185, 0.000028085447, -1719809.8, -4755.471, 0.0, 10.000112, 9.994274 
3.185005e+3, 1.3498867e+2, -1622430.8, -1627423.9, -0.12596568, 0.000027347482, -0.000075166645, -1622430.8, -5319.582, 0.0, 10.000112, 9.993492 
3.185005e+3, 1.4497617e+2, -1534329.3, -1548133.6, 0.19392559, 0.000027193739, 0.000087520704, -1534329.3, -15095.581, 0.0, 10.000111, 9.981813 
3.185005e+3, 1.54958e+2, -1436602.9, -1450810.3, -0.21669647, 0.000027131275, -0.00005158094, -1436602.9, -15191.216, 0.0, 10.000111, 9.981282 
3.185005e+3, 1.6493317e+2, -1348553.3, -1371941.9, 0.14362226, 0.000027039747, 0.000048761623, -1348553.3, -24898.488, 0.0, 10.00011, 9.969197 
3.185005e+3, 1.7490242e+2, -1250596.5, -1274300.6, -0.25417587, 0.000026918591, -0.00006901247, -1250596.5, -24640.254, 0.0, 10.00011, 9.968783 
3.185005e+3, 1.8486504e+2, -1162516.0, -1195710.4, 0.11458229, 0.000026812193, 0.000071992145, -1162516.0, -34193.313, 0.0, 10.000109, 9.956345 
3.185005e+3, 1.9482142e+2, -1064367.5, -1097824.1, -0.283152, 0.000026721204, -0.00005326157, -1064367.5, -33617.36, 0.0, 10.000109, 9.956001 
3.185005e+3, 2.0477113e+2, -976204.3, -1019426.56, 0.09014856, 0.000026628342, 0.0000718058, -976204.3, -42961.38, 0.0, 10.000109, 9.94324 
3.1850046e+3, 2.1471441e+2, -877918.44, -921402.25, -0.28715053, 0.000026533438, -0.00012291606, -877918.44, -42119.613, 0.0, 10.000108, 9.9429 
3.1850046e+3, 2.2465098e+2, -789633.0, -843137.56, 0.09366249, 0.00002645102, 0.00012470766, -789633.0, -51212.69, 0.0, 10.000108, 9.929858 
3.1850046e+3, 2.3458092e+2, -691200.5, -744959.94, -0.2921509, 0.00002638271, -0.00008537619, -691200.5, -50093.49, 0.0, 10.000108, 9.929526 
3.1850046e+3, 2.4450389e+2, -602877.2, -667012.8, 0.08558026, 0.000026304577, 0.0000778628, -602877.2, -59015.332, 0.0, 10.000107, 9.916086 
3.1850046e+3, 2.544201e+2, -504125.53, -568338.06, -0.27125245, 0.000026214675, -0.00010375376, -504125.53, -57442.51, 0.0, 10.000107, 9.915986 
3.1850046e+3, 2.6432922e+2, -415890.88, -490983.3, 0.11897535, 0.00002613995, 0.00014336094, -415890.88, -66317.234, 0.0, 10.000107, 9.901916 
3.1850046e+3, 2.742317e+2, -316606.6, -391370.94, -0.23397964, 0.00002608453, -0.00020095147, -316606.6, -64077.145, 0.0, 10.000106, 9.902335 
3.1850046e+3, 2.8412592e+2, -230133.6, -318077.22, 0.13823462, 0.000026034451, 0.00023132117, -230133.6, -74567.695, 0.0, 10.000106, 9.885389 
3.1850046e+3, 2.9401237e+2, -130428.305, -217761.64, -0.1924587, 0.000025991554, -0.00025120712, -130428.305, -71749.51, 0.0, 10.000106, 9.8861685 
3.1850046e+3, 3.0392677e+2, -40686.63, -84749.49, 0.17285596, 0.000025927115, 0.00017498259, -40686.63, -40686.63, 0.0, 10.000106, 9.942122 
3.1850046e+3, 3.1387076e+2, -39609.008, -82510.9, -0.14108779, 0.000025830677, -0.00005380834, -39609.008, -39609.008, 0.0, 10.000105, 9.943634 
3.195005e+3, 1.24994494e+2, -1719810.6, -1724214.1, 0.094774656, 0.000028114622, 0.000028301214, -1719810.6, -4756.666, 0.0, 10.000112, 9.994273 
3.195005e+3, 1.3498868e+2, -1622431.8, -1627425.6, -0.31768563, 0.00002787744, -0.00007534502, -1622431.8, -5320.757, 0.0, 10.000112, 9.993491 
3.1950048e+3, 1.4497618e+2, -1534330.1, -1548135.4, -0.0009129152, 0.000027724094, 0.000087928, -1534330.1, -15096.74, 0.0, 10.000111, 9.9818125 
3.1950048e+3, 1.5495801e+2, -1436603.9, -1450812.0, -0.41153947, 0.000027649745, -0.000051462455, -1436603.9, -15192.351, 0.0, 10.000111, 9.981281 
3.1950048e+3, 1.6493322e+2, -1348554.1, -1371943.6, -0.020801367, 0.00002755682, 0.000048774466, -1348554.1, -24899.578, 0.0, 10.00011, 9.969196 
3.1950048e+3, 1.7490245e+2, -1250597.4, -1274302.4, -0.41845715, 0.000027444967, -0.0000689182, -1250597.4, -24641.324, 0.0, 10.00011, 9.968782 
3.1950048e+3, 1.8486506e+2, -1162516.9, -1195712.0, -0.043413732, 0.000027333108, 0.00007212729, -1162516.9, -34194.375, 0.0, 10.000109, 9.956344 
3.1950048e+3, 1.9482143e+2, -1064368.4, -1097825.8, -0.44107988, 0.00002722121, -0.000053128053, -1064368.4, -33618.402, 0.0, 10.000109, 9.956 
3.1950048e+3, 2.0477115e+2, -976205.1, -1019428.1, -0.051363192, 0.000027131344, 0.000071910465, -976205.1, -42962.37, 0.0, 10.000109, 9.943239 
3.1950048e+3, 2.1471442e+2, -877919.25, -921403.9, -0.42834225, 0.00002706532, -0.00012286972, -877919.25, -42120.586, 0.0, 10.000108, 9.942899 
3.1950048e+3, 2.24651e+2, -789633.8, -843139.2, -0.029829903, 0.00002697826, 0.0001247536, -789633.8, -51213.68, 0.0, 10.000108, 9.929857 
3.1950048e+3, 2.3458093e+2, -691201.4, -744961.56, -0.41506672, 0.000026867367, -0.0000852651, -691201.4, -50094.457, 0.0, 10.000108, 9.929525 
3.1950048e+3, 2.445039e+2, -602878.0, -667014.4, -0.026514249, 0.000026780737, 0.00007798403, -602878.0, -59016.25, 0.0, 10.000107, 9.916085 
3.1950048e+3, 2.544201e+2, -504126.3, -568339.6, -0.3828427, 0.000026723083, -0.00010368817, -504126.3, -57443.402, 0.0, 10.000107, 9.915985 
3.1950048e+3, 2.6432922e+2, -415891.66, -490984.9, 0.021690184, 0.000026662869, 0.00014339836, -415891.66, -66318.13, 0.0, 10.000107, 9.901914 
3.1950048e+3, 2.742317e+2, -316607.38, -391372.53, -0.33031228, 0.000026599297, -0.00020090716, -316607.38, -64078.02, 0.0, 10.000106, 9.902334 
3.1950048e+3, 2.8412595e+2, -230134.36, -318078.8, 0.056163, 0.000026532305, 0.00023137416, -230134.36, -74568.54, 0.0, 10.000106, 9.885388 
3.1950048e+3, 2.9401237e+2, -130429.055, -217763.2, -0.2732563, 0.000026460613, -0.0002511432, -130429.055, -71750.336, 0.0, 10.000106, 9.886168 
3.1950048e+3, 3.0392677e+2, -40687.387, -84751.06, 0.10356873, 0.00002639655, 0.00017504166, -40687.387, -40687.387, 0.0, 10.000106, 9.9421215 
3.1950048e+3, 3.1387076e+2, -39609.766, -82512.47, -0.20903592, 0.000026343907, -0.000053777596, -39609.766, -39609.766, 0.0, 10.000105, 9.943632 
3.2050052e+3, 1.24994524e+2, -1719803.9, -1724211.8, 0.31433102, 0.000028651028, 0.000028537956, -1719803.9, -4750.0864, 0.0, 10.000117, 9.994272 
3.2050052e+3, 1.3498871e+2, -1622425.0, -1627423.4, -0.12700586, 0.000028416767, -0.00007554034, -1622425.0, -5314.318, 0.0, 10.000116, 9.99349 
3.2050052e+3, 1.4497621e+2, -1534323.5, -1548133.0, 0.190911, 0.000028260256, 0.000088319306, -1534323.5, -15090.325, 0.0, 10.000115, 9.981812 
3.2050052e+3, 1.5495804e+2, -1436597.3, -1450809.8, -0.21856607, 0.000028176546, -0.000051360876, -1436597.3, -15185.925, 0.0, 10.000115, 9.981279 
3.2050052e+3, 1.6493323e+2, -1348547.6, -1371941.4, 0.17547631, 0.000028080167, 0.000048780596, -1348547.6, -24893.203, 0.0, 10.000114, 9.969195 
3.2050052e+3, 1.7490247e+2, -1250590.9, -1274300.3, -0.24991938, 0.000027970887, -0.00006880913, -1250590.9, -24635.066, 0.0, 10.000114, 9.968781 
3.2050052e+3, 1.8486507e+2, -1162510.5, -1195710.0, 0.12628715, 0.000027860113, 0.00007226552, -1162510.5, -34188.164, 0.0, 10.0001135, 9.956343 
3.2050052e+3, 1.9482146e+2, -1064362.0, -1097823.8, -0.27608994, 0.000027747745, -0.000053037897, -1064362.0, -33612.215, 0.0, 10.0001135, 9.955999 
3.205005e+3, 2.0477116e+2, -976198.8, -1019426.1, 0.110862866, 0.000027653758, 0.00007198504, -976198.8, -42956.203, 0.0, 10.000113, 9.943238 
3.205005e+3, 2.1471445e+2, -877912.94, -921401.9, -0.29906723, 0.000027579661, -0.00012277554, -877912.94, -42114.457, 0.0, 10.000113, 9.942897 
3.205005e+3, 2.2465101e+2, -789627.6, -843137.25, 0.09695046, 0.000027489836, 0.00012484875, -789627.6, -51207.594, 0.0, 10.000113, 9.929855 
3.205005e+3, 2.3458095e+2, -691195.2, -744959.7, -0.2865783, 0.000027382184, -0.00008519006, -691195.2, -50088.438, 0.0, 10.000112, 9.929524 
3.205005e+3, 2.4450392e+2, -602871.9, -667012.5, 0.10652323, 0.000027295837, 0.00007805096, -602871.9, -59010.26, 0.0, 10.000112, 9.916084 
3.205005e+3, 2.5442013e+2, -504120.25, -568337.8, -0.27596045, 0.00002723493, -0.00010361495, -504120.25, -57437.445, 0.0, 10.000112, 9.915984 
3.205005e+3, 2.6432925e+2, -415885.63, -490983.13, 0.12284282, 0.000027172213, 0.00014347021, -415885.63, -66312.2, 0.0, 10.000111, 9.901913 
3.205005e+3, 2.7423173e+2, -316601.4, -391370.78, -0.23552099, 0.000027107106, -0.0002008464, -316601.4, -64072.14, 0.0, 10.000111, 9.902333 
3.205005e+3, 2.8412595e+2, -230128.42, -318077.06, 0.15685576, 0.000027038554, 0.00023142889, -230128.42, -74562.69, 0.0, 10.000111, 9.885387 
3.205005e+3, 2.940124e+2, -130423.17, -217761.52, -0.18606548, 0.00002696526, -0.00025108753, -130423.17, -71744.52, 0.0, 10.000111, 9.886167 
3.205005e+3, 3.0392677e+2, -40681.598, -84749.48, 0.18492934, 0.000026895694, 0.00017509636, -40681.598, -40681.598, 0.0, 10.00011, 9.942121 
3.205005e+3, 3.1387076e+2, -39603.99, -82510.9, -0.14461105, 0.000026831764, -0.000053726853, -39603.99, -39603.99, 0.0, 10.00011, 9.943631 
3.2150054e+3, 1.24994546e+2, -1719804.9, -1724213.6, 0.09572968, 0.000029206372, 0.000028798213, -1719804.9, -4751.359, 0.0, 10.000117, 9.994271 
3.2150054e+3, 1.3498873e+2, -1622426.0, -1627425.3, -0.34562498, 0.00002896545, -0.00007575257, -1622426.0, -5315.5684, 0.0, 10.000116, 9.993488 
3.215005e+3, 1.4497624e+2, -1534324.4, -1548134.9, 0.0037974087, 0.000028802227, 0.00008869466, -1534324.4, -15091.491, 0.0, 10.000115, 9.981811 
3.215005e+3, 1.5495805e+2, -1436598.1, -1450811.5, -0.40564457, 0.000028711676, -0.000051276158, -1436598.1, -15187.067, 0.0, 10.000115, 9.981278 
3.215005e+3, 1.6493326e+2, -1348548.5, -1371943.3, -0.010800725, 0.00002860979, 0.00004878003, -1348548.5, -24894.365, 0.0, 10.000114, 9.969193 
3.215005e+3, 1.7490248e+2, -1250591.9, -1274302.0, -0.4361963, 0.00002849636, -0.000068685295, -1250591.9, -24636.207, 0.0, 10.000114, 9.9687805 
3.215005e+3, 1.8486509e+2, -1162511.4, -1195711.6, -0.032345206, 0.000028393208, 0.000072406816, -1162511.4, -34189.242, 0.0, 10.0001135, 9.956342 
3.215005e+3, 1.9482148e+2, -1064362.9, -1097825.5, -0.43441927, 0.000028300768, -0.000052991014, -1064362.9, -33613.273, 0.0, 10.0001135, 9.955998 
3.215005e+3, 2.0477118e+2, -976199.7, -1019427.9, -0.033991605, 0.000028195558, 0.000072029594, -976199.7, -42957.273, 0.0, 10.000113, 9.943237 
3.215005e+3, 2.1471447e+2, -877913.9, -921403.6, -0.44364718, 0.000028076509, -0.00012263359, -877913.9, -42115.504, 0.0, 10.000113, 9.942896 
3.215005e+3, 2.2465104e+2, -789628.44, -843138.94, -0.037486497, 0.00002798579, 0.00012499306, -789628.44, -51208.586, 0.0, 10.000113, 9.929854 
3.215005e+3, 2.3458096e+2, -691196.06, -744961.4, -0.42069826, 0.000027927113, -0.00008515101, -691196.06, -50089.41, 0.0, 10.000112, 9.929523 
3.215005e+3, 2.4450392e+2, -602872.75, -667014.2, -0.007589249, 0.000027849814, 0.00007806371, -602872.75, -59011.234, 0.0, 10.000112, 9.916083 
3.215005e+3, 2.5442013e+2, -504121.1, -568339.5, -0.38912222, 0.000027750219, -0.000103534105, -504121.1, -57438.4, 0.0, 10.000112, 9.915983 
3.215005e+3, 2.6432925e+2, -415886.44, -490984.75, 0.019180095, 0.000027668022, 0.00014357649, -415886.44, -66313.12, 0.0, 10.000111, 9.901912 
3.2150048e+3, 2.7423173e+2, -316602.2, -391372.4, -0.33856413, 0.000027607986, -0.00020076924, -316602.2, -64073.03, 0.0, 10.000111, 9.902332 
3.2150048e+3, 2.8412595e+2, -230129.2, -318078.7, 0.07080049, 0.000027553191, 0.00023148535, -230129.2, -74563.56, 0.0, 10.000111, 9.885386 
3.2150048e+3, 2.940124e+2, -130423.95, -217763.14, -0.27059942, 0.000027505432, -0.00025104004, -130423.95, -71745.375, 0.0, 10.000111, 9.886165 
3.2150048e+3, 3.0392677e+2, -40682.387, -84751.125, 0.11339638, 0.000027424496, 0.0001751467, -40682.387, -40682.387, 0.0, 10.00011, 9.942119 
3.2150048e+3, 3.138708e+2, -39604.777, -82512.55, -0.21462978, 0.000027294309, -0.000053656146, -39604.777, -39604.777, 0.0, 10.00011, 9.94363 
3.2250053e+3, 1.24994576e+2, -1719797.9, -1724211.3, 0.30138883, 0.000029780475, 0.000029060524, -1719797.9, -4744.61, 0.0, 10.000122, 9.99427 
3.2250053e+3, 1.3498875e+2, -1622419.1, -1627422.9, -0.13799989, 0.000029518449, -0.000075952084, -1622419.1, -5308.833, 0.0, 10.000121, 9.993487 
3.2250053e+3, 1.4497626e+2, -1534317.5, -1548132.4, 0.22096625, 0.000029347942, 0.00008910918, -1534317.5, -15084.776, 0.0, 10.00012, 9.98181 
3.2250053e+3, 1.5495808e+2, -1436591.3, -1450809.1, -0.21087128, 0.000029263932, -0.000051148374, -1436591.3, -15180.472, 0.0, 10.00012, 9.981277 
3.2250053e+3, 1.6493328e+2, -1348541.8, -1371941.0, 0.18652427, 0.000029160065, 0.000048802416, -1348541.8, -24887.84, 0.0, 10.000119, 9.9691925 
3.2250053e+3, 1.7490251e+2, -1250585.1, -1274299.8, -0.2435691, 0.000029035955, -0.00006858312, -1250585.1, -24629.68, 0.0, 10.000119, 9.968779 
3.2250053e+3, 1.8486512e+2, -1162504.8, -1195709.5, 0.16329835, 0.000028929577, 0.000072537834, -1162504.8, -34182.727, 0.0, 10.000118, 9.956341 
3.2250053e+3, 1.9482149e+2, -1064356.3, -1097823.3, -0.26375017, 0.000028841703, -0.000052884494, -1064356.3, -33606.844, 0.0, 10.000118, 9.955997 
3.2250053e+3, 2.0477119e+2, -976193.2, -1019425.8, 0.14300749, 0.000028736016, 0.00007212268, -976193.2, -42950.906, 0.0, 10.000117, 9.943236 
3.2250053e+3, 2.1471448e+2, -877907.4, -921401.56, -0.26598272, 0.00002861102, -0.00012254194, -877907.4, -42109.184, 0.0, 10.000117, 9.942895 
3.2250053e+3, 2.2465105e+2, -789622.0, -843136.94, 0.14229152, 0.000028517827, 0.0001250822, -789622.0, -51202.28, 0.0, 10.000117, 9.929853 
3.2250053e+3, 2.3458096e+2, -691189.6, -744959.4, -0.26447305, 0.0000284606, -0.000085065585, -691189.6, -50083.13, 0.0, 10.000116, 9.9295225 
3.2250053e+3, 2.4450393e+2, -602866.4, -667012.25, 0.14578564, 0.000028382643, 0.00007814106, -602866.4, -59004.996, 0.0, 10.000116, 9.916082 
3.2250053e+3, 2.5442016e+2, -504114.78, -568337.6, -0.24848576, 0.000028279872, -0.00010347004, -504114.78, -57432.223, 0.0, 10.000116, 9.915982 
3.2250053e+3, 2.6432925e+2, -415880.2, -490982.9, 0.15483817, 0.000028193082, 0.0001436399, -415880.2, -66306.97, 0.0, 10.000115, 9.901911 
3.2250053e+3, 2.7423173e+2, -316595.97, -391370.6, -0.23101014, 0.000028126651, -0.00020069037, -316595.97, -64066.91, 0.0, 10.000115, 9.902331 
3.2250053e+3, 2.8412598e+2, -230123.02, -318076.88, 0.16909751, 0.000028070594, 0.00023156527, -230123.02, -74557.45, 0.0, 10.000115, 9.8853855 
3.2250053e+3, 2.940124e+2, -130417.83, -217761.38, -0.1831425, 0.000028028599, -0.00025097886, -130417.83, -71739.32, 0.0, 10.000114, 9.886164 
3.2250053e+3, 3.039268e+2, -40676.383, -84749.484, 0.20017283, 0.000027947872, 0.00017518956, -40676.383, -40676.383, 0.0, 10.000114, 9.942118 
3.2250053e+3, 3.138708e+2, -39598.8, -82510.93, -0.14268228, 0.000027809583, -0.00005363073, -39598.8, -39598.8, 0.0, 10.000114, 9.943629 
3.2350057e+3, 1.249946e+2, -1719798.9, -1724213.1, 0.08558313, 0.000030373312, 0.000029327837, -1719798.9, -4745.888, 0.0, 10.000122, 9.994269 
3.2350057e+3, 1.3498878e+2, -1622420.1, -1627424.8, -0.35383543, 0.000030075771, -0.00007613891, -1622420.1, -5310.0903, 0.0, 10.000121, 9.993486 
3.2350054e+3, 1.4497629e+2, -1534318.5, -1548134.3, 0.011194532, 0.000029897408, 0.00008956278, -1534318.5, -15086.004, 0.0, 10.00012, 9.981808 
3.2350054e+3, 1.5495811e+2, -1436592.3, -1450811.0, -0.42064533, 0.000029833293, -0.000050977615, -1436592.3, -15181.676, 0.0, 10.00012, 9.9812765 
3.2350054e+3, 1.6493331e+2, -1348542.8, -1371942.8, 0.006605234, 0.000029730962, 0.000048847705, -1348542.8, -24889.021, 0.0, 10.000119, 9.969192 
3.2350054e+3, 1.7490253e+2, -1250586.1, -1274301.6, -0.42333874, 0.000029589653, -0.00006850255, -1250586.1, -24630.84, 0.0, 10.000119, 9.968778 
3.2350054e+3, 1.8486513e+2, -1162505.6, -1195711.3, -0.010397943, 0.000029469227, 0.00007265859, -1162505.6, -34183.87, 0.0, 10.000118, 9.956339 
3.2350054e+3, 1.948215e+2, -1064357.3, -1097825.1, -0.43738827, 0.00002937059, -0.000052718453, -1064357.3, -33607.965, 0.0, 10.000118, 9.9559965 
3.2350054e+3, 2.0477122e+2, -976194.06, -1019427.56, -0.0071964287, 0.000029275145, 0.0000722642, -976194.06, -42951.984, 0.0, 10.000117, 9.943234 
3.2350054e+3, 2.147145e+2, -877908.25, -921403.3, -0.41572198, 0.00002918313, -0.00012250051, -877908.25, -42110.24, 0.0, 10.000117, 9.942894 
3.2350054e+3, 2.2465107e+2, -789622.9, -843138.7, 0.0071150796, 0.000029085879, 0.00012511629, -789622.9, -51203.33, 0.0, 10.000117, 9.9298525 
3.2350054e+3, 2.3458098e+2, -691190.5, -744961.1, -0.39918643, 0.000028982677, -0.00008493387, -691190.5, -50084.156, 0.0, 10.000116, 9.929522 
3.2350054e+3, 2.4450395e+2, -602867.25, -667014.0, 0.02225622, 0.000028894381, 0.000078282894, -602867.25, -59006.004, 0.0, 10.000116, 9.916081 
3.2350054e+3, 2.5442016e+2, -504115.66, -568339.4, -0.37148494, 0.000028823873, -0.000103422724, -504115.66, -57433.207, 0.0, 10.000116, 9.915981 
3.235005e+3, 2.6432928e+2, -415881.06, -490984.66, 0.051604297, 0.000028747343, 0.00014366057, -415881.06, -66307.945, 0.0, 10.000115, 9.90191 
3.235005e+3, 2.7423176e+2, -316596.84, -391372.34, -0.33293077, 0.000028663082, -0.00020060978, -316596.84, -64067.863, 0.0, 10.000115, 9.902329 
3.235005e+3, 2.8412598e+2, -230123.83, -318078.56, 0.073989, 0.000028590768, 0.0002316686, -230123.83, -74558.36, 0.0, 10.000115, 9.885385 
3.235005e+3, 2.940124e+2, -130418.63, -217763.03, -0.27764702, 0.000028534803, -0.00025090404, -130418.63, -71740.2, 0.0, 10.000114, 9.886163 
3.235005e+3, 3.039268e+2, -40677.203, -84751.19, 0.12254562, 0.000028465842, 0.00017522495, -40677.203, -40677.203, 0.0, 10.000114, 9.942117 
3.235005e+3, 3.138708e+2, -39599.625, -82512.64, -0.21833412, 0.000028377492, -0.000053650525, -39599.625, -39599.625, 0.0, 10.000114, 9.943628 
3.2450056e+3, 1.2499463e+2, -1719791.5, -1724210.6, 0.34849924, 0.00003095822, 0.00002957416, -1719791.5, -4738.822, 0.0, 10.000127, 9.994267 
3.2450056e+3, 1.3498881e+2, -1622412.9, -1627422.4, -0.120063305, 0.000030652674, -0.00007636291, -1622412.9, -5303.149, 0.0, 10.000126, 9.993485 
3.2450056e+3, 1.4497632e+2, -1534311.3, -1548131.9, 0.23878263, 0.000030468545, 0.000089987574, -1534311.3, -15079.108, 0.0, 10.000126, 9.981807 
3.2450056e+3, 1.5495813e+2, -1436585.1, -1450808.6, -0.21231401, 0.00003040082, -0.000050841583, -1436585.1, -15174.809, 0.0, 10.000125, 9.981276 
3.2450056e+3, 1.6493332e+2, -1348535.6, -1371940.4, 0.22349991, 0.000030297337, 0.00004887612, -1348535.6, -24882.195, 0.0, 10.000125, 9.969191 
3.2450056e+3, 1.7490256e+2, -1250579.1, -1274299.4, -0.2176081, 0.000030157391, -0.00006839669, -1250579.1, -24624.104, 0.0, 10.000124, 9.968777 
3.2450056e+3, 1.8486515e+2, -1162498.8, -1195709.0, 0.19804035, 0.000030030486, 0.000072793424, -1162498.8, -34177.18, 0.0, 10.000124, 9.956338 
3.2450053e+3, 1.9482154e+2, -1064350.4, -1097822.9, -0.2453455, 0.00002991716, -0.000052605406, -1064350.4, -33601.28, 0.0, 10.000123, 9.955996 
3.2450053e+3, 2.0477124e+2, -976187.2, -1019425.4, 0.17891216, 0.000029821427, 0.00007236265, -976187.2, -42945.316, 0.0, 10.000123, 9.9432335 
3.2450053e+3, 2.1471451e+2, -877901.5, -921401.2, -0.25580594, 0.000029744719, -0.00012240886, -877901.5, -42103.656, 0.0, 10.000122, 9.942893 
3.2450053e+3, 2.2465108e+2, -789616.2, -843136.6, 0.16515844, 0.0000296486, 0.00012520747, -789616.2, -51196.8, 0.0, 10.000122, 9.929852 
3.2450053e+3, 2.34581e+2, -691183.9, -744959.06, -0.25889182, 0.000029530484, -0.00008483598, -691183.9, -50077.664, 0.0, 10.000121, 9.929521 
3.2450053e+3, 2.4450396e+2, -602860.6, -667012.0, 0.16120754, 0.000029435103, 0.00007838095, -602860.6, -58999.52, 0.0, 10.000121, 9.9160795 
3.2450053e+3, 2.5442016e+2, -504109.06, -568337.4, -0.24055853, 0.000029366864, -0.00010333231, -504109.06, -57426.758, 0.0, 10.000121, 9.91598 
3.2450053e+3, 2.6432928e+2, -415874.53, -490982.75, 0.187231, 0.00002929268, 0.0001437403, -415874.53, -66301.55, 0.0, 10.00012, 9.901909 
3.2450053e+3, 2.7423176e+2, -316590.4, -391370.47, -0.21056078, 0.000029210834, -0.00020054457, -316590.4, -64061.53, 0.0, 10.00012, 9.9023285 
3.2450053e+3, 2.8412598e+2, -230117.4, -318076.7, 0.19481014, 0.000029135641, 0.00023172844, -230117.4, -74552.03, 0.0, 10.00012, 9.885384 
3.2450053e+3, 2.9401243e+2, -130412.26, -217761.19, -0.16814208, 0.00002906955, -0.00025083707, -130412.26, -71733.914, 0.0, 10.00012, 9.886162 
3.2450053e+3, 3.039268e+2, -40670.95, -84749.47, 0.23191944, 0.000029001474, 0.00017528706, -40670.95, -40670.95, 0.0, 10.000119, 9.942116 
3.2450053e+3, 3.138708e+2, -39593.434, -82510.945, -0.1116335, 0.00002893042, -0.00005361117, -39593.434, -39593.434, 0.0, 10.000119, 9.943626 
3.2550058e+3, 1.2499466e+2, -1719792.6, -1724212.6, 0.109745726, 0.000031535223, 0.000029802632, -1719792.6, -4740.18, 0.0, 10.000127, 9.9942665 
3.2550058e+3, 1.3498883e+2, -1622414.0, -1627424.4, -0.35884437, 0.00003124913, -0.000076624, -1622414.0, -5304.4844, 0.0, 10.000126, 9.993484 
3.2550055e+3, 1.4497633e+2, -1534312.4, -1548133.8, 0.027944611, 0.000031061318, 0.00009038363, -1534312.4, -15080.391, 0.0, 10.000126, 9.981806 
3.2550055e+3, 1.5495816e+2, -1436586.1, -1450810.5, -0.42311597, 0.000030966534, -0.000050740207, -1436586.1, -15176.065, 0.0, 10.000125, 9.981274 
3.2550055e+3, 1.6493335e+2, -1348536.6, -1371942.4, 0.028722342, 0.000030859213, 0.0000488877, -1348536.6, -24883.412, 0.0, 10.000125, 9.96919 
3.2550055e+3, 1.7490257e+2, -1250580.1, -1274301.3, -0.41232234, 0.000030739153, -0.00006826558, -1250580.1, -24625.299, 0.0, 10.000124, 9.968776 
3.2550055e+3, 1.8486518e+2, -1162499.8, -1195710.9, 0.028498247, 0.00003061332, 0.00007294229, -1162499.8, -34178.37, 0.0, 10.000124, 9.956337 
3.2550055e+3, 1.9482155e+2, -1064351.3, -1097824.8, -0.41460305, 0.000030481393, -0.000052545234, -1064351.3, -33602.45, 0.0, 10.000123, 9.955994 
3.2550055e+3, 2.0477125e+2, -976188.2, -1019427.2, 0.015255574, 0.000030374866, 0.000072418115, -976188.2, -42946.46, 0.0, 10.000123, 9.943233 
3.2550055e+3, 2.1471453e+2, -877902.44, -921403.06, -0.41935283, 0.000030295821, -0.00012226713, -877902.44, -42104.773, 0.0, 10.000122, 9.942891 
3.2550055e+3, 2.2465111e+2, -789617.1, -843138.44, 0.027116477, 0.000030206013, 0.00012535561, -789617.1, -51197.9, 0.0, 10.000122, 9.929851 
3.2550055e+3, 2.3458101e+2, -691184.8, -744960.94, -0.39611337, 0.000030103982, -0.00008477185, -691184.8, -50078.74, 0.0, 10.000121, 9.929519 
3.2550055e+3, 2.4450399e+2, -602861.5, -667013.75, 0.036530606, 0.000030004756, 0.00007843534, -602861.5, -59000.55, 0.0, 10.000121, 9.916079 
3.2550055e+3, 2.544202e+2, -504109.97, -568339.1, -0.3646545, 0.000029908864, -0.000103198894, -504109.97, -57427.766, 0.0, 10.000121, 9.915978 
3.2550055e+3, 2.6432928e+2, -415875.44, -490984.53, 0.073498845, 0.000029829125, 0.00014387899, -415875.44, -66302.555, 0.0, 10.00012, 9.901907 
3.2550055e+3, 2.7423176e+2, -316591.28, -391372.28, -0.3236022, 0.000029769897, -0.00020049469, -316591.28, -64062.52, 0.0, 10.00012, 9.902328 
3.2550055e+3, 2.8412598e+2, -230118.25, -318078.4, 0.0971547, 0.000029705172, 0.00023174487, -230118.25, -74552.97, 0.0, 10.00012, 9.885382 
3.2550055e+3, 2.9401243e+2, -130413.086, -217762.9, -0.26443645, 0.000029632794, -0.0002507779, -130413.086, -71734.83, 0.0, 10.00012, 9.886161 
3.2550055e+3, 3.039268e+2, -40671.777, -84751.19, 0.14071198, 0.000029554747, 0.00017537587, -40671.777, -40671.777, 0.0, 10.000119, 9.942115 
3.2550055e+3, 3.138708e+2, -39594.26, -82512.67, -0.20227228, 0.00002946841, -0.00005351278, -39594.26, -39594.26, 0.0, 10.000119, 9.943625 
3.265006e+3, 1.2499469e+2, -1719785.0, -1724210.0, 0.36642373, 0.000032129527, 0.000030050902, -1719785.0, -4732.902, 0.0, 10.000133, 9.994266 
3.265006e+3, 1.3498886e+2, -1622406.5, -1627421.8, -0.1155131, 0.0000318422, -0.00007682839, -1622406.5, -5297.252, 0.0, 10.000132, 9.993483 
3.265006e+3, 1.4497636e+2, -1534304.9, -1548131.1, 0.28272277, 0.000031651274, 0.00009085027, -1534304.9, -15073.182, 0.0, 10.000131, 9.981805 
3.265006e+3, 1.5495819e+2, -1436578.8, -1450808.0, -0.17902571, 0.000031551357, -0.000050628183, -1436578.8, -15168.945, 0.0, 10.000131, 9.981273 
3.265006e+3, 1.6493337e+2, -1348529.4, -1371939.9, 0.27424663, 0.000031439893, 0.000048889593, -1348529.4, -24876.355, 0.0, 10.00013, 9.969188 
3.265006e+3, 1.749026e+2, -1250572.9, -1274298.8, -0.19845493, 0.000031316697, -0.00006812414, -1250572.9, -24618.287, 0.0, 10.00013, 9.968774 
3.265006e+3, 1.8486519e+2, -1162492.5, -1195708.5, 0.24439432, 0.000031192045, 0.00007312009, -1162492.5, -34171.4, 0.0, 10.000129, 9.956336 
3.2650056e+3, 1.9482157e+2, -1064344.3, -1097822.5, -0.20380393, 0.000031065814, -0.000052439056, -1064344.3, -33595.566, 0.0, 10.000129, 9.955993 
3.2650056e+3, 2.0477127e+2, -976181.1, -1019424.94, 0.2379946, 0.000030954998, 0.00007250031, -976181.1, -42939.605, 0.0, 10.000128, 9.943232 
3.2650056e+3, 2.1471454e+2, -877895.4, -921400.8, -0.20268099, 0.000030860854, -0.00012215733, -877895.4, -42097.914, 0.0, 10.000128, 9.94289 
3.2650056e+3, 2.2465113e+2, -789610.1, -843136.25, 0.2491012, 0.000030767093, 0.00012546855, -789610.1, -51191.066, 0.0, 10.000127, 9.929849 
3.2650056e+3, 2.3458104e+2, -691177.9, -744958.8, -0.19178078, 0.000030673735, -0.00008468349, -691177.9, -50071.977, 0.0, 10.000127, 9.929518 
3.2650056e+3, 2.44504e+2, -602854.6, -667011.7, 0.23234509, 0.000030576524, 0.000078516634, -602854.6, -58993.832, 0.0, 10.000126, 9.916078 
3.2650056e+3, 2.544202e+2, -504103.16, -568337.1, -0.20197305, 0.000030474686, -0.000103103695, -504103.16, -57421.086, 0.0, 10.000126, 9.9159775 
3.2650056e+3, 2.643293e+2, -415868.66, -490982.53, 0.22688606, 0.000030392064, 0.00014397198, -415868.66, -66295.9, 0.0, 10.000126, 9.901906 
3.2650056e+3, 2.742318e+2, -316584.56, -391370.3, -0.17199755, 0.000030333867, -0.00020042446, -316584.56, -64055.91, 0.0, 10.000125, 9.902327 
3.2650056e+3, 2.84126e+2, -230111.58, -318076.47, 0.24690911, 0.000030269857, 0.00023180527, -230111.58, -74546.39, 0.0, 10.000125, 9.885381 
3.2650056e+3, 2.9401243e+2, -130406.47, -217761.02, -0.15241538, 0.000030197738, -0.00025070956, -130406.47, -71728.3, 0.0, 10.000125, 9.886159 
3.2650056e+3, 3.0392683e+2, -40665.266, -84749.414, 0.21707341, 0.000030113888, 0.00017545332, -40665.266, -40665.266, 0.0, 10.000125, 9.942113 
3.2650056e+3, 3.1387082e+2, -39587.74, -82510.9, -0.17396626, 0.000030012763, -0.000053424712, -39587.74, -39587.74, 0.0, 10.000124, 9.9436245 
3.275006e+3, 1.2499472e+2, -1719786.1, -1724212.0, 0.123446874, 0.000032741085, 0.000030323952, -1719786.1, -4734.3037, 0.0, 10.000133, 9.994264 
3.275006e+3, 1.3498889e+2, -1622407.5, -1627423.9, -0.3585179, 0.000032431908, -0.00007697622, -1622407.5, -5298.631, 0.0, 10.000132, 9.993482 
3.2750058e+3, 1.4497639e+2, -1534305.9, -1548133.1, 0.056660794, 0.00003223844, 0.00009138732, -1534305.9, -15074.501, 0.0, 10.000131, 9.981803 
3.2750058e+3, 1.549582e+2, -1436579.9, -1450810.0, -0.4050663, 0.000032155265, -0.00005050553, -1436579.9, -15170.237, 0.0, 10.000131, 9.981272 
3.2750058e+3, 1.649334e+2, -1348530.4, -1371941.9, 0.07514801, 0.000032039345, 0.000048881822, -1348530.4, -24877.654, 0.0, 10.00013, 9.969187 
3.2750058e+3, 1.7490262e+2, -1250573.9, -1274300.8, -0.39742312, 0.000031890057, -0.00006797238, -1250573.9, -24619.563, 0.0, 10.00013, 9.968773 
3.2750058e+3, 1.8486522e+2, -1162493.5, -1195710.5, 0.060066737, 0.00003176669, 0.00007332675, -1162493.5, -34172.61, 0.0, 10.000129, 9.956334 
3.2750058e+3, 1.948216e+2, -1064345.3, -1097824.4, -0.38797638, 0.000031670395, -0.000052286978, -1064345.3, -33596.754, 0.0, 10.000129, 9.955992 
3.2750058e+3, 2.047713e+2, -976182.1, -1019426.9, 0.08182096, 0.000031561776, 0.00007260917, -976182.1, -42940.77, 0.0, 10.000128, 9.94323 
3.2750058e+3, 2.1471457e+2, -877896.4, -921402.7, -0.35830137, 0.000031439795, -0.00012207936, -877896.4, -42099.055, 0.0, 10.000128, 9.942889 
3.2750058e+3, 2.2465114e+2, -789611.06, -843138.2, 0.10056306, 0.000031331852, 0.00012554639, -789611.06, -51192.207, 0.0, 10.000127, 9.929848 
3.2750058e+3, 2.3458105e+2, -691178.8, -744960.7, -0.34009013, 0.000031239768, -0.00008457096, -691178.8, -50073.098, 0.0, 10.000127, 9.929517 
3.2750058e+3, 2.4450402e+2, -602855.6, -667013.6, 0.103327766, 0.00003115042, 0.000078624784, -602855.6, -58994.94, 0.0, 10.000126, 9.916077 
3.2750058e+3, 2.5442022e+2, -504104.1, -568339.0, -0.33006933, 0.000031064297, -0.00010304663, -504104.1, -57422.17, 0.0, 10.000126, 9.915977 
3.2750055e+3, 2.643293e+2, -415869.56, -490984.34, 0.10839966, 0.000030981457, 0.00014401936, -415869.56, -66296.93, 0.0, 10.000126, 9.901905 
3.2750055e+3, 2.742318e+2, -316585.44, -391372.13, -0.28986973, 0.000030902753, -0.00020033393, -316585.44, -64056.91, 0.0, 10.000125, 9.902325 
3.2750055e+3, 2.84126e+2, -230112.48, -318078.34, 0.1438193, 0.00003082972, 0.00023190954, -230112.48, -74547.41, 0.0, 10.000125, 9.88538 
3.2750055e+3, 2.9401246e+2, -130407.37, -217762.88, -0.25417247, 0.000030764393, -0.00025063203, -130407.37, -71729.29, 0.0, 10.000125, 9.886158 
3.2750055e+3, 3.0392683e+2, -40666.184, -84751.32, 0.1295036, 0.0000306789, 0.00017551942, -40666.184, -40666.184, 0.0, 10.000125, 9.942112 
3.2750055e+3, 3.1387082e+2, -39588.66, -82512.81, -0.25987244, 0.000030563475, -0.00005334695, -39588.66, -39588.66, 0.0, 10.000124, 9.943624 
3.285006e+3, 1.2499475e+2, -1719778.3, -1724209.4, 0.38020876, 0.000033354103, 0.000030619543, -1719778.3, -4726.763, 0.0, 10.000137, 9.994263 
3.285006e+3, 1.3498892e+2, -1622399.8, -1627421.3, -0.122277565, 0.00003304594, -0.000077211946, -1622399.8, -5291.179, 0.0, 10.000137, 9.99348 
3.285006e+3, 1.4497642e+2, -1534298.1, -1548130.5, 0.30046833, 0.000032848988, 0.00009185385, -1534298.1, -15067.059, 0.0, 10.000136, 9.981802 
3.285006e+3, 1.5495823e+2, -1436572.1, -1450807.4, -0.16901562, 0.000032757674, -0.00005035989, -1436572.1, -15162.849, 0.0, 10.000135, 9.981271 
3.285006e+3, 1.6493343e+2, -1348522.9, -1371939.4, 0.32895246, 0.000032637465, 0.000048911057, -1348522.9, -24870.346, 0.0, 10.000135, 9.969186 
3.285006e+3, 1.7490265e+2, -1250566.4, -1274298.4, -0.15277678, 0.000032487813, -0.00006785075, -1250566.4, -24612.326, 0.0, 10.000134, 9.968772 
3.285006e+3, 1.8486524e+2, -1162486.1, -1195708.0, 0.30928883, 0.00003236394, 0.00007347899, -1162486.1, -34165.387, 0.0, 10.000134, 9.956333 
3.285006e+3, 1.9482161e+2, -1064337.8, -1097822.0, -0.15974437, 0.000032267002, -0.00005216881, -1064337.8, -33589.563, 0.0, 10.0001335, 9.95599 
3.285006e+3, 2.0477131e+2, -976174.75, -1019424.5, 0.30598933, 0.000032156448, 0.000072718794, -976174.75, -42933.637, 0.0, 10.0001335, 9.943229 
3.285006e+3, 2.1471459e+2, -877889.1, -921400.4, -0.17321306, 0.00003203114, -0.00012195062, -877889.1, -42091.98, 0.0, 10.000133, 9.942888 
3.285006e+3, 2.2465116e+2, -789603.9, -843135.9, 0.27612665, 0.000031920958, 0.00012567443, -789603.9, -51185.15, 0.0, 10.000133, 9.929847 
3.285006e+3, 2.3458107e+2, -691171.6, -744958.44, -0.16542223, 0.000031827865, -0.000084466046, -691171.6, -50066.063, 0.0, 10.000132, 9.929515 
3.285006e+3, 2.4450403e+2, -602848.44, -667011.44, 0.2920068, 0.000031738815, 0.00007871373, -602848.44, -58987.945, 0.0, 10.000132, 9.916075 
3.285006e+3, 2.5442022e+2, -504097.0, -568336.9, -0.14472705, 0.000031654545, -0.00010296505, -504097.0, -57415.234, 0.0, 10.000132, 9.915975 
3.285006e+3, 2.6432934e+2, -415862.5, -490982.28, 0.28557447, 0.000031568394, 0.00014410459, -415862.5, -66290.016, 0.0, 10.000131, 9.901904 
3.285006e+3, 2.742318e+2, -316578.44, -391370.06, -0.15920185, 0.000031479794, -0.00020023106, -316578.44, -64050.02, 0.0, 10.000131, 9.902324 
3.285006e+3, 2.84126e+2, -230105.5, -318076.3, 0.26180905, 0.000031403317, 0.0002320133, -230105.5, -74540.516, 0.0, 10.000131, 9.885379 
3.285006e+3, 2.9401246e+2, -130400.44, -217760.88, -0.1285697, 0.000031343396, -0.0002505503, -130400.44, -71722.445, 0.0, 10.00013, 9.886157 
3.285006e+3, 3.0392683e+2, -40659.39, -84749.48, 0.2700749, 0.000031257583, 0.00017558206, -40659.39, -40659.39, 0.0, 10.00013, 9.942111 
3.285006e+3, 3.1387082e+2, -39581.918, -82511.0, -0.112674356, 0.00003113326, -0.000053298696, -39581.918, -39581.918, 0.0, 10.00013, 9.943622 
3.2950065e+3, 1.24994785e+2, -1719779.4, -1724211.5, 0.123238124, 0.000033968587, 0.000030942272, -1719779.4, -4728.226, 0.0, 10.000137, 9.994262 
3.2950065e+3, 1.3498895e+2, -1622401.0, -1627423.4, -0.37925652, 0.000033684253, -0.00007753538, -1622401.0, -5292.6167, 0.0, 10.000137, 9.993479 
3.2950065e+3, 1.4497645e+2, -1534299.3, -1548132.5, 0.067908436, 0.000033482876, 0.00009225003, -1534299.3, -15068.407, 0.0, 10.000136, 9.981801 
3.2950062e+3, 1.5495826e+2, -1436573.3, -1450809.4, -0.40156433, 0.00003335861, -0.000050191316, -1436573.3, -15164.171, 0.0, 10.000135, 9.981269 
3.2950062e+3, 1.6493344e+2, -1348524.0, -1371941.5, 0.11985647, 0.00003323428, 0.00004897721, -1348524.0, -24871.678, 0.0, 10.000135, 9.969184 
3.2950062e+3, 1.7490268e+2, -1250567.5, -1274300.4, -0.36175424, 0.00003310993, -0.000067759174, -1250567.5, -24613.633, 0.0, 10.000134, 9.96877 
3.2950062e+3, 1.8486527e+2, -1162487.1, -1195710.0, 0.12286019, 0.000032983764, 0.00007357693, -1162487.1, -34166.652, 0.0, 10.000134, 9.956332 
3.2950062e+3, 1.9482164e+2, -1064338.9, -1097824.0, -0.3459333, 0.000032855663, -0.000052084462, -1064338.9, -33590.805, 0.0, 10.0001335, 9.955989 
3.2950062e+3, 2.0477132e+2, -976175.8, -1019426.56, 0.14171079, 0.000032739055, 0.0000728292, -976175.8, -42934.895, 0.0, 10.0001335, 9.943228 
3.2950062e+3, 2.147146e+2, -877890.1, -921402.44, -0.3370352, 0.000032634875, -0.00012177123, -877890.1, -42093.215, 0.0, 10.000133, 9.942886 
3.2950062e+3, 2.2465117e+2, -789604.8, -843137.8, 0.12771417, 0.000032534375, 0.00012585254, -789604.8, -51186.305, 0.0, 10.000133, 9.929845 
3.2950062e+3, 2.3458108e+2, -691172.56, -744960.4, -0.31335774, 0.000032437998, -0.000084368745, -691172.56, -50067.19, 0.0, 10.000132, 9.929514 
3.2950062e+3, 2.4450405e+2, -602849.44, -667013.4, 0.15614958, 0.000032341693, 0.00007878354, -602849.44, -58989.07, 0.0, 10.000132, 9.916074 
3.2950062e+3, 2.5442025e+2, -504097.97, -568338.8, -0.28002498, 0.00003224545, -0.000102859005, -504097.97, -57416.332, 0.0, 10.000132, 9.915974 
3.2950062e+3, 2.6432934e+2, -415863.5, -490984.28, 0.16884078, 0.000032152893, 0.00014422757, -415863.5, -66291.14, 0.0, 10.000131, 9.901902 
3.295006e+3, 2.7423182e+2, -316579.4, -391372.06, -0.27469224, 0.000032064996, -0.00020011586, -316579.4, -64051.117, 0.0, 10.000131, 9.902323 
3.295006e+3, 2.8412604e+2, -230106.39, -318078.16, 0.15394002, 0.000031990636, 0.00023211661, -230106.39, -74541.52, 0.0, 10.000131, 9.885377 
3.295006e+3, 2.9401246e+2, -130401.32, -217762.72, -0.23577867, 0.00003193474, -0.00025046445, -130401.32, -71723.43, 0.0, 10.00013, 9.886156 
3.295006e+3, 3.0392683e+2, -40660.297, -84751.37, 0.17136024, 0.000031849922, 0.00017564122, -40660.297, -40660.297, 0.0, 10.00013, 9.942109 
3.295006e+3, 3.1387082e+2, -39582.83, -82512.9, -0.21041276, 0.000031722077, -0.00005327988, -39582.83, -39582.83, 0.0, 10.00013, 9.943621 
3.3050063e+3, 1.24994814e+2, -1719771.4, -1724208.6, 0.39464876, 0.000034613822, 0.00003124589, -1719771.4, -4720.4277, 0.0, 10.000143, 9.99426 
3.3050063e+3, 1.3498898e+2, -1622393.0, -1627420.6, -0.09690565, 0.00003430986, -0.00007779157, -1622393.0, -5284.9204, 0.0, 10.000143, 9.993478 
3.3050063e+3, 1.4497648e+2, -1534291.3, -1548129.8, 0.3690722, 0.000034103145, 0.00009273406, -1534291.3, -15060.762, 0.0, 10.000142, 9.981799 
3.3050063e+3, 1.549583e+2, -1436565.4, -1450806.8, -0.13851948, 0.000033987813, -0.000050027524, -1436565.4, -15156.566, 0.0, 10.000141, 9.981268 
3.3050063e+3, 1.6493347e+2, -1348516.1, -1371938.8, 0.38509688, 0.00003386322, 0.00004901916, -1348516.1, -24864.107, 0.0, 10.000141, 9.969183 
3.3050063e+3, 1.7490269e+2, -1250559.8, -1274297.9, -0.09795747, 0.00003372922, -0.00006763648, -1250559.8, -24606.125, 0.0, 10.00014, 9.968769 
3.3050063e+3, 1.848653e+2, -1162479.4, -1195707.5, 0.40113932, 0.000033595403, 0.00007373407, -1162479.4, -34159.184, 0.0, 10.000139, 9.95633 
3.3050063e+3, 1.9482166e+2, -1064331.1, -1097821.5, -0.09602115, 0.000033461736, -0.00005194133, -1064331.1, -33583.355, 0.0, 10.000139, 9.955988 
3.3050063e+3, 2.0477137e+2, -976168.2, -1019424.1, 0.3991961, 0.000033345874, 0.000072954055, -976168.2, -42927.465, 0.0, 10.000138, 9.943226 
3.305006e+3, 2.1471463e+2, -877882.56, -921400.06, -0.06606091, 0.00003324927, -0.000121669254, -877882.56, -42085.86, 0.0, 10.000138, 9.942885 
3.305006e+3, 2.246512e+2, -789597.3, -843135.5, 0.40740487, 0.000033150645, 0.00012595055, -789597.3, -51178.99, 0.0, 10.000138, 9.929844 
3.305006e+3, 2.345811e+2, -691165.1, -744958.06, -0.07267733, 0.000033049695, -0.000084253305, -691165.1, -50059.918, 0.0, 10.000137, 9.929513 
3.305006e+3, 2.4450406e+2, -602842.0, -667011.1, 0.37875664, 0.000032948235, 0.000078905585, -602842.0, -58981.813, 0.0, 10.000137, 9.916073 
3.305006e+3, 2.5442025e+2, -504090.56, -568336.56, -0.08745055, 0.000032846143, -0.00010274331, -504090.56, -57409.082, 0.0, 10.000136, 9.915973 
3.305006e+3, 2.6432937e+2, -415856.16, -490982.1, 0.35752967, 0.000032752123, 0.00014433014, -415856.16, -66283.914, 0.0, 10.000136, 9.901901 
3.305006e+3, 2.7423182e+2, -316572.13, -391369.97, -0.08171169, 0.000032668333, -0.000200035, -316572.13, -64043.965, 0.0, 10.000136, 9.902321 
3.305006e+3, 2.8412604e+2, -230099.16, -318076.03, 0.34289232, 0.000032595406, 0.00023219008, -230099.16, -74534.39, 0.0, 10.000135, 9.885376 
3.305006e+3, 2.940125e+2, -130394.14, -217760.64, -0.08529557, 0.000032537242, -0.00025037868, -130394.14, -71716.34, 0.0, 10.000135, 9.886154 
3.305006e+3, 3.0392686e+2, -40653.246, -84749.43, 0.29210693, 0.000032450414, 0.00017572142, -40653.246, -40653.246, 0.0, 10.000135, 9.942108 
3.305006e+3, 3.1387085e+2, -39575.797, -82510.984, -0.12082706, 0.000032320964, -0.00005323195, -39575.797, -39575.797, 0.0, 10.000134, 9.94362 
3.3150065e+3, 1.2499485e+2, -1719772.5, -1724210.8, 0.12088654, 0.000035289748, 0.00003153534, -1719772.5, -4721.8784, 0.0, 10.000143, 9.994259 
3.3150065e+3, 1.3498901e+2, -1622394.1, -1627422.8, -0.37071964, 0.000034922814, -0.00007798069, -1622394.1, -5286.348, 0.0, 10.000143, 9.993476 
3.3150065e+3, 1.4497651e+2, -1534292.5, -1548132.0, 0.13302027, 0.000034709847, 0.000093305716, -1534292.5, -15062.211, 0.0, 10.000142, 9.981798 
3.3150065e+3, 1.5495832e+2, -1436566.5, -1450808.9, -0.3745061, 0.000034645225, -0.000049868504, -1436566.5, -15157.986, 0.0, 10.000141, 9.981267 
3.3150065e+3, 1.649335e+2, -1348517.3, -1371940.9, 0.16789912, 0.00003452422, 0.000049036964, -1348517.3, -24865.453, 0.0, 10.000141, 9.969182 
3.3150065e+3, 1.7490272e+2, -1250560.8, -1274299.9, -0.31508565, 0.0000343457, -0.000067482746, -1250560.8, -24607.447, 0.0, 10.00014, 9.968768 
3.3150065e+3, 1.8486531e+2, -1162480.5, -1195709.6, 0.21771932, 0.000034198893, 0.00007395028, -1162480.5, -34160.527, 0.0, 10.00014, 9.956329 
3.3150065e+3, 1.9482169e+2, -1064332.3, -1097823.6, -0.2790554, 0.000034085195, -0.00005173956, -1064332.3, -33584.67, 0.0, 10.000139, 9.955986 
3.3150065e+3, 2.0477138e+2, -976169.2, -1019426.1, 0.22448039, 0.000033976863, 0.00007309332, -976169.2, -42928.707, 0.0, 10.000138, 9.943225 
3.3150065e+3, 2.1471465e+2, -877883.56, -921402.06, -0.24063054, 0.000033874316, -0.000121644516, -877883.56, -42087.074, 0.0, 10.000138, 9.942884 
3.3150065e+3, 2.2465122e+2, -789598.4, -843137.56, 0.25571886, 0.000033769782, 0.00012596865, -789598.4, -51180.234, 0.0, 10.000138, 9.929843 
3.3150065e+3, 2.3458111e+2, -691166.2, -744960.1, -0.22362956, 0.00003366297, -0.00008411976, -691166.2, -50061.137, 0.0, 10.000137, 9.929511 
3.3150065e+3, 2.4450408e+2, -602843.06, -667013.1, 0.24884199, 0.00003355845, 0.00007907975, -602843.06, -58983.008, 0.0, 10.000137, 9.916071 
3.3150065e+3, 2.5442028e+2, -504091.6, -568338.6, -0.21636225, 0.00003345662, -0.00010261798, -504091.6, -57410.25, 0.0, 10.000136, 9.915971 
3.3150065e+3, 2.6432937e+2, -415857.13, -490984.1, 0.23189324, 0.00003336606, 0.00014441235, -415857.13, -66285.04, 0.0, 10.000136, 9.901899 
3.3150065e+3, 2.7423185e+2, -316573.1, -391371.94, -0.20714845, 0.000033289787, -0.00019998841, -316573.1, -64045.063, 0.0, 10.000136, 9.90232 
3.3150065e+3, 2.8412607e+2, -230100.13, -318078.03, 0.22852334, 0.000033217602, 0.00023223383, -230100.13, -74535.48, 0.0, 10.000135, 9.885375 
3.3150065e+3, 2.940125e+2, -130395.1, -217762.64, -0.19867945, 0.0000331509, -0.000250293, -130395.1, -71717.41, 0.0, 10.000135, 9.886153 
3.3150062e+3, 3.0392686e+2, -40654.215, -84751.445, 0.18909381, 0.00003305906, 0.0001758226, -40654.215, -40654.215, 0.0, 10.000135, 9.942107 
3.3150062e+3, 3.1387085e+2, -39576.77, -82513.0, -0.22263627, 0.000032929922, -0.00005315498, -39576.77, -39576.77, 0.0, 10.000134, 9.943618 
3.325007e+3, 1.2499488e+2, -1719764.1, -1724207.9, 0.44214043, 0.000035937526, 0.00003180695, -1719764.1, -4713.862, 0.0, 10.00015, 9.994257 
3.3250067e+3, 1.3498904e+2, -1622385.8, -1627419.9, -0.10662556, 0.000035564102, -0.000078206955, -1622385.8, -5278.365, 0.0, 10.000149, 9.993475 
3.3250067e+3, 1.4497654e+2, -1534284.1, -1548129.1, 0.40636167, 0.00003535037, 0.00009385481, -1534284.1, -15054.249, 0.0, 10.000148, 9.981797 
3.3250067e+3, 1.5495834e+2, -1436558.4, -1450806.1, -0.0845661, 0.00003529063, -0.000049731134, -1436558.4, -15150.133, 0.0, 10.000147, 9.981265 
3.3250067e+3, 1.6493353e+2, -1348509.1, -1371938.1, 0.4777172, 0.000035167806, 0.000049043578, -1348509.1, -24857.662, 0.0, 10.000147, 9.96918 
3.3250067e+3, 1.7490275e+2, -1250552.8, -1274297.3, -0.04789152, 0.000034980636, -0.000067319954, -1250552.8, -24599.66, 0.0, 10.000146, 9.968766 
3.3250067e+3, 1.8486534e+2, -1162472.5, -1195707.0, 0.48852792, 0.000034831126, 0.000074158124, -1162472.5, -34152.766, 0.0, 10.000146, 9.956328 
3.3250067e+3, 1.948217e+2, -1064324.4, -1097821.0, -0.0052658045, 0.000034720942, -0.000051602947, -1064324.4, -33577.0, 0.0, 10.000145, 9.955985 
3.3250067e+3, 2.0477141e+2, -976161.3, -1019423.56, 0.50219995, 0.000034613324, 0.00007320142, -976161.3, -42921.066, 0.0, 10.000144, 9.943224 
3.3250067e+3, 2.1471466e+2, -877875.75, -921399.56, 0.002103526, 0.00003450846, -0.00012151864, -877875.75, -42079.445, 0.0, 10.000144, 9.942883 
3.3250067e+3, 2.2465123e+2, -789590.56, -843135.1, 0.4970548, 0.000034397985, 0.00012610019, -789590.56, -51172.62, 0.0, 10.000144, 9.929841 
3.3250064e+3, 2.3458113e+2, -691158.4, -744957.75, 0.0012755403, 0.000034281136, -0.00008399627, -691158.4, -50053.523, 0.0, 10.000143, 9.92951 
3.3250064e+3, 2.4450411e+2, -602835.25, -667010.75, 0.47033888, 0.000034176282, 0.00007919727, -602835.25, -58975.414, 0.0, 10.000143, 9.91607 
3.3250064e+3, 2.5442028e+2, -504083.94, -568336.3, -0.0020746419, 0.00003408572, -0.00010250396, -504083.94, -57402.758, 0.0, 10.000142, 9.91597 
3.3250064e+3, 2.643294e+2, -415849.53, -490981.84, 0.4444849, 0.000034000353, 0.00014451813, -415849.53, -66277.59, 0.0, 10.000142, 9.901898 
3.3250064e+3, 2.7423185e+2, -316565.53, -391369.72, -0.021839073, 0.000033921522, -0.00019989695, -316565.53, -64037.625, 0.0, 10.000142, 9.902319 
3.3250064e+3, 2.8412607e+2, -230092.56, -318075.84, 0.40231448, 0.000033844455, 0.0002323193, -230092.56, -74528.04, 0.0, 10.000141, 9.885373 
3.3250064e+3, 2.940125e+2, -130387.58, -217760.48, -0.03866987, 0.000033769727, -0.0002502021, -130387.58, -71709.99, 0.0, 10.000141, 9.886152 
3.3250064e+3, 3.0392686e+2, -40646.82, -84749.42, 0.33248705, 0.00003367383, 0.00017591467, -40646.82, -40646.82, 0.0, 10.000141, 9.942105 
3.3250064e+3, 3.1387085e+2, -39569.445, -82511.016, -0.09603268, 0.000033546563, -0.000053068066, -39569.445, -39569.445, 0.0, 10.00014, 9.943617 
3.3350068e+3, 1.2499491e+2, -1719765.4, -1724210.3, 0.16788585, 0.00003655724, 0.00003206639, -1719765.4, -4715.46, 0.0, 10.00015, 9.994256 
3.3350068e+3, 1.3498907e+2, -1622387.0, -1627422.3, -0.3808827, 0.00003623367, -0.00007847029, -1622387.0, -5279.9365, 0.0, 10.000149, 9.993473 
3.3350068e+3, 1.4497657e+2, -1534285.3, -1548131.3, 0.15136302, 0.00003602465, 0.00009438143, -1534285.3, -15055.675, 0.0, 10.000148, 9.981795 
3.3350068e+3, 1.5495837e+2, -1436559.5, -1450808.3, -0.33956555, 0.000035924073, -0.000049615355, -1436559.5, -15151.529, 0.0, 10.000147, 9.981264 
3.3350068e+3, 1.6493356e+2, -1348510.3, -1371940.4, 0.26672667, 0.000035794037, 0.000049039034, -1348510.3, -24859.115, 0.0, 10.000147, 9.969179 
3.3350068e+3, 1.7490277e+2, -1250553.9, -1274299.5, -0.25865486, 0.00003563399, -0.000067148125, -1250553.9, -24601.09, 0.0, 10.000146, 9.968765 
3.3350065e+3, 1.8486537e+2, -1162473.6, -1195709.1, 0.29016912, 0.000035492045, 0.00007435763, -1162473.6, -34154.113, 0.0, 10.000146, 9.9563265 
3.3350065e+3, 1.9482173e+2, -1064325.4, -1097823.1, -0.2035023, 0.000035368965, -0.000051531315, -1064325.4, -33578.324, 0.0, 10.000145, 9.955984 
3.3350065e+3, 2.0477143e+2, -976162.44, -1019425.75, 0.33225363, 0.000035255267, 0.000073278454, -976162.44, -42922.395, 0.0, 10.000144, 9.943222 
3.3350065e+3, 2.1471469e+2, -877876.8, -921401.7, -0.1672807, 0.000035151697, -0.000121291894, -877876.8, -42080.746, 0.0, 10.000144, 9.942882 
3.3350065e+3, 2.2465126e+2, -789591.7, -843137.3, 0.3536504, 0.00003503525, 0.00012634488, -789591.7, -51173.914, 0.0, 10.000144, 9.92984 
3.3350065e+3, 2.3458116e+2, -691159.44, -744959.9, -0.14128087, 0.0000349042, -0.0000838828, -691159.44, -50054.79, 0.0, 10.000143, 9.929509 
3.3350065e+3, 2.4450412e+2, -602836.3, -667012.9, 0.32369345, 0.00003480174, 0.00007925827, -602836.3, -58976.633, 0.0, 10.000143, 9.916068 
3.3350065e+3, 2.544203e+2, -504084.97, -568338.44, -0.14894015, 0.00003473341, -0.0001024012, -504084.97, -57403.95, 0.0, 10.000142, 9.915969 
3.3350065e+3, 2.643294e+2, -415850.56, -490983.94, 0.32225215, 0.00003465496, 0.0001446474, -415850.56, -66278.78, 0.0, 10.000142, 9.901897 
3.3350065e+3, 2.7423188e+2, -316566.56, -391371.8, -0.14244409, 0.000034563527, -0.00019976073, -316566.56, -64038.785, 0.0, 10.000142, 9.902317 
3.3350065e+3, 2.8412607e+2, -230093.58, -318077.9, 0.29054725, 0.00003447597, 0.00023244639, -230093.58, -74529.164, 0.0, 10.000141, 9.885372 
3.3350065e+3, 2.9401252e+2, -130388.57, -217762.53, -0.1496569, 0.000034393728, -0.00025010607, -130388.57, -71711.086, 0.0, 10.000141, 9.88615 
3.3350065e+3, 3.039269e+2, -40647.82, -84751.5, 0.21486758, 0.00003429473, 0.00017599764, -40647.82, -40647.82, 0.0, 10.000141, 9.942104 
3.3350065e+3, 3.1387085e+2, -39570.445, -82513.1, -0.2144544, 0.000034170887, -0.000052971223, -39570.445, -39570.445, 0.0, 10.00014, 9.943615 
3.345007e+3, 1.2499495e+2, -1719756.8, -1724207.3, 0.47694242, 0.000037210568, 0.000032391134, -1719756.8, -4707.16, 0.0, 10.000155, 9.994254 
3.345007e+3, 1.3498911e+2, -1622378.5, -1627419.4, -0.052755494, 0.00003689925, -0.00007874857, -1622378.5, -5271.764, 0.0, 10.0001545, 9.993472 
3.345007e+3, 1.449766e+2, -1534276.8, -1548128.3, 0.5032428, 0.00003668828, 0.00009490888, -1534276.8, -15047.498, 0.0, 10.000154, 9.981794 
3.3450067e+3, 1.5495843e+2, -1436551.0, -1450805.3, -0.03333495, 0.000036571317, -0.000049446717, -1436551.0, -15143.338, 0.0, 10.000154, 9.981262 
3.3450067e+3, 1.6493359e+2, -1348501.9, -1371937.6, 0.5811087, 0.00003644015, 0.000049079677, -1348501.9, -24850.992, 0.0, 10.000153, 9.969177 
3.3450067e+3, 1.749028e+2, -1250545.6, -1274296.8, 0.05976217, 0.000036294547, -0.00006699974, -1250545.6, -24593.088, 0.0, 10.000152, 9.968763 
3.3450067e+3, 1.8486539e+2, -1162465.4, -1195706.4, 0.62466854, 0.000036157264, 0.00007453768, -1162465.4, -34146.14, 0.0, 10.000152, 9.956326 
3.3450067e+3, 1.9482176e+2, -1064317.1, -1097820.4, 0.103438474, 0.00003602862, -0.000051399216, -1064317.1, -33570.35, 0.0, 10.000151, 9.955982 
3.3450067e+3, 2.0477146e+2, -976154.25, -1019423.1, 0.6428355, 0.000035905716, 0.00007340355, -976154.25, -42914.438, 0.0, 10.000151, 9.943221 
3.3450067e+3, 2.147147e+2, -877868.6, -921399.06, 0.118057676, 0.000035789006, -0.00012112946, -877868.6, -42072.785, 0.0, 10.00015, 9.94288 
3.3450067e+3, 2.2465128e+2, -789583.5, -843134.7, 0.6384067, 0.000035675726, 0.0001265067, -789583.5, -51165.98, 0.0, 10.00015, 9.929838 
3.3450067e+3, 2.3458117e+2, -691151.44, -744957.4, 0.14621256, 0.000035566296, -0.000083764586, -691151.44, -50046.977, 0.0, 10.000149, 9.929507 
3.3450067e+3, 2.4450414e+2, -602828.4, -667010.44, 0.61645925, 0.000035466637, 0.00007935612, -602828.4, -58968.86, 0.0, 10.000149, 9.916067 
3.3450067e+3, 2.544203e+2, -504076.97, -568336.0, 0.11117873, 0.000035378613, -0.00010229595, -504076.97, -57396.11, 0.0, 10.000149, 9.915967 
3.3450067e+3, 2.6432943e+2, -415842.56, -490981.56, 0.5604562, 0.000035291483, 0.00014476066, -415842.56, -66270.93, 0.0, 10.000148, 9.9018955 
3.3450067e+3, 2.7423188e+2, -316558.66, -391369.5, 0.0646161, 0.000035205416, -0.00019963879, -316558.66, -64031.0, 0.0, 10.000148, 9.902316 
3.3450067e+3, 2.841261e+2, -230085.69, -318075.63, 0.47827145, 0.00003512394, 0.0002325645, -230085.69, -74521.414, 0.0, 10.000148, 9.88537 
3.3450067e+3, 2.9401252e+2, -130380.78, -217760.3, 0.01717683, 0.00003504869, -0.00025000892, -130380.78, -71703.414, 0.0, 10.000147, 9.886149 
3.3450067e+3, 3.039269e+2, -40640.16, -84749.42, 0.35719994, 0.00003494148, 0.00017608354, -40640.16, -40640.16, 0.0, 10.000147, 9.942102 
3.3450067e+3, 3.1387088e+2, -39562.74, -82511.01, -0.10553859, 0.000034786855, -0.000052881976, -39562.74, -39562.74, 0.0, 10.000147, 9.943614 
3.3550075e+3, 1.24994986e+2, -1719757.9, -1724209.5, 0.18038462, 0.00003789742, 0.000032785643, -1719757.9, -4708.7295, 0.0, 10.000155, 9.994253 
3.3550072e+3, 1.3498916e+2, -1622379.8, -1627421.6, -0.3493431, 0.00003756087, -0.00007904174, -1622379.8, -5273.3076, 0.0, 10.0001545, 9.99347 
3.3550072e+3, 1.4497665e+2, -1534278.0, -1548130.6, 0.25855264, 0.000037341313, 0.00009543718, -1534278.0, -15049.043, 0.0, 10.000154, 9.981792 
3.3550072e+3, 1.5495846e+2, -1436552.1, -1450807.6, -0.27794504, 0.00003723235, -0.000049225364, -1436552.1, -15144.852, 0.0, 10.000154, 9.981261 
3.3550072e+3, 1.6493362e+2, -1348503.0, -1371939.9, 0.34864423, 0.00003710611, 0.00004916538, -1348503.0, -24852.453, 0.0, 10.000153, 9.969176 
3.3550072e+3, 1.7490283e+2, -1250546.8, -1274298.9, -0.17265676, 0.00003696231, -0.00006687472, -1250546.8, -24594.523, 0.0, 10.000152, 9.968762 
3.3550072e+3, 1.8486542e+2, -1162466.5, -1195708.6, 0.43255967, 0.000036826794, 0.00007469834, -1162466.5, -34147.563, 0.0, 10.000152, 9.956324 
3.3550072e+3, 1.9482177e+2, -1064318.4, -1097822.6, -0.088225536, 0.000036699897, -0.000051206807, -1064318.4, -33571.746, 0.0, 10.000151, 9.955981 
3.3550072e+3, 2.0477149e+2, -976155.4, -1019425.4, 0.48148295, 0.000036564677, 0.00007357657, -976155.4, -42915.832, 0.0, 10.000151, 9.943219 
3.355007e+3, 2.1471474e+2, -877869.8, -921401.3, -0.04267046, 0.000036420428, -0.00012103117, -877869.8, -42074.152, 0.0, 10.00015, 9.942879 
3.355007e+3, 2.2465129e+2, -789584.6, -843136.9, 0.47352573, 0.00003631943, 0.00012658586, -789584.6, -51167.277, 0.0, 10.00015, 9.929837 
3.355007e+3, 2.3458119e+2, -691152.5, -744959.5, -0.018835533, 0.000036267345, -0.00008364163, -691152.5, -50048.246, 0.0, 10.000149, 9.929506 
3.355007e+3, 2.4450415e+2, -602829.44, -667012.7, 0.49153617, 0.000036170884, 0.0000794907, -602829.44, -58970.152, 0.0, 10.000149, 9.916065 
3.355007e+3, 2.5442034e+2, -504078.06, -568338.2, -0.011831385, 0.000036021363, -0.00010218819, -504078.06, -57397.38, 0.0, 10.000149, 9.915966 
3.355007e+3, 2.6432943e+2, -415843.66, -490983.8, 0.43239233, 0.000035909983, 0.00014485794, -415843.66, -66272.19, 0.0, 10.000148, 9.901895 
3.355007e+3, 2.742319e+2, -316559.72, -391371.72, -0.06379511, 0.00003584721, -0.00019953109, -316559.72, -64032.23, 0.0, 10.000148, 9.902314 
3.355007e+3, 2.841261e+2, -230086.73, -318077.78, 0.3550109, 0.00003578834, 0.00023267366, -230086.73, -74522.586, 0.0, 10.000148, 9.885369 
3.355007e+3, 2.9401252e+2, -130381.805, -217762.42, -0.105639145, 0.00003573455, -0.0002499107, -130381.805, -71704.555, 0.0, 10.000147, 9.8861475 
3.355007e+3, 3.039269e+2, -40641.22, -84751.63, 0.25097597, 0.00003561403, 0.00017617234, -40641.22, -40641.22, 0.0, 10.000147, 9.9421015 
3.355007e+3, 3.1387088e+2, -39563.805, -82513.23, -0.20983025, 0.00003539451, -0.0000528003, -39563.805, -39563.805, 0.0, 10.000147, 9.943612 
3.3650073e+3, 1.2499502e+2, -1719749.1, -1724206.5, 0.48779565, 0.000038579365, 0.00003314503, -1719749.1, -4700.2764, 0.0, 10.000161, 9.994251 
3.3650073e+3, 1.3498919e+2, -1622370.9, -1627418.6, -0.0659081, 0.00003823661, -0.00007930997, -1622370.9, -5264.8184, 0.0, 10.000161, 9.993469 
3.3650073e+3, 1.4497668e+2, -1534269.3, -1548127.5, 0.5669803, 0.000038018006, 0.000096008735, -1534269.3, -15040.577, 0.0, 10.00016, 9.9817915 
3.3650073e+3, 1.5495849e+2, -1436543.5, -1450804.6, 0.037499215, 0.000037917038, -0.00004904442, -1436543.5, -15136.514, 0.0, 10.000159, 9.981259 
3.3650073e+3, 1.6493365e+2, -1348494.5, -1371937.0, 0.68845546, 0.000037790353, 0.00004920503, -1348494.5, -24844.16, 0.0, 10.000158, 9.969174 
3.365007e+3, 1.7490286e+2, -1250538.1, -1274296.1, 0.14649004, 0.000037637474, -0.000066721805, -1250538.1, -24586.209, 0.0, 10.000158, 9.9687605 
3.365007e+3, 1.8486544e+2, -1162457.9, -1195705.8, 0.7669652, 0.000037495975, 0.00007489693, -1162457.9, -34139.25, 0.0, 10.000157, 9.956323 
3.365007e+3, 1.948218e+2, -1064309.8, -1097819.9, 0.22376852, 0.000037366335, -0.000051033312, -1064309.8, -33563.453, 0.0, 10.000157, 9.955979 
3.365007e+3, 2.047715e+2, -976146.9, -1019422.6, 0.8037199, 0.000037236256, 0.00007372375, -976146.9, -42907.582, 0.0, 10.000156, 9.943218 
3.365007e+3, 2.1471475e+2, -877861.44, -921398.7, 0.28130847, 0.000037105674, -0.000120911594, -877861.44, -42066.004, 0.0, 10.000156, 9.942877 
3.365007e+3, 2.2465132e+2, -789576.25, -843134.25, 0.79635894, 0.000037003832, 0.00012670204, -789576.25, -51159.137, 0.0, 10.000155, 9.929835 
3.365007e+3, 2.3458122e+2, -691144.1, -744956.9, 0.26030445, 0.000036934474, -0.00008350141, -691144.1, -50040.027, 0.0, 10.000155, 9.929504 
3.365007e+3, 2.4450418e+2, -602821.06, -667010.1, 0.7605557, 0.000036834164, 0.00007963722, -602821.06, -58961.938, 0.0, 10.000155, 9.916064 
3.365007e+3, 2.5442037e+2, -504069.75, -568335.7, 0.2423241, 0.000036696838, -0.000102056605, -504069.75, -57389.254, 0.0, 10.0001545, 9.915964 
3.365007e+3, 2.6432946e+2, -415835.44, -490981.38, 0.6797145, 0.000036589052, 0.00014497548, -415835.44, -66264.11, 0.0, 10.0001545, 9.901893 
3.365007e+3, 2.742319e+2, -316551.5, -391369.3, 0.17350781, 0.00003651889, -0.00019942646, -316551.5, -64024.15, 0.0, 10.000154, 9.902313 
3.365007e+3, 2.8412613e+2, -230078.48, -318075.34, 0.5811835, 0.000036453876, 0.00023277405, -230078.48, -74514.48, 0.0, 10.000154, 9.885367 
3.3650067e+3, 2.9401255e+2, -130373.586, -217760.05, 0.0961282, 0.00003639568, -0.00024980266, -130373.586, -71696.45, 0.0, 10.000154, 9.886147 
3.3650067e+3, 3.0392691e+2, -40633.156, -84749.43, 0.4287813, 0.000036274218, 0.00017627428, -40633.156, -40633.156, 0.0, 10.000153, 9.9421 
3.3650067e+3, 3.1387088e+2, -39555.85, -82511.09, -0.0512101, 0.000036058867, -0.00005272487, -39555.85, -39555.85, 0.0, 10.000153, 9.94361 
3.3750075e+3, 1.2499506e+2, -1719750.4, -1724208.9, 0.20745233, 0.00003925644, 0.00003347795, -1719750.4, -4701.916, 0.0, 10.000161, 9.99425 
3.3750075e+3, 1.3498922e+2, -1622372.1, -1627421.0, -0.34627217, 0.000038926453, -0.00007955335, -1622372.1, -5266.4316, 0.0, 10.000161, 9.993467 
3.3750075e+3, 1.4497672e+2, -1534270.4, -1548129.8, 0.29938677, 0.000038718314, 0.000096623444, -1534270.4, -15042.121, 0.0, 10.00016, 9.98179 
3.3750072e+3, 1.5495852e+2, -1436544.8, -1450806.9, -0.23008946, 0.000038625338, -0.000048903774, -1436544.8, -15138.026, 0.0, 10.000159, 9.981258 
3.3750072e+3, 1.6493368e+2, -1348495.6, -1371939.3, 0.468258, 0.00003849283, 0.00004919876, -1348495.6, -24845.68, 0.0, 10.000158, 9.969173 
3.3750072e+3, 1.7490289e+2, -1250539.4, -1274298.4, -0.07348225, 0.00003832004, -0.00006654105, -1250539.4, -24587.703, 0.0, 10.000158, 9.96876 
3.3750072e+3, 1.8486547e+2, -1162459.1, -1195708.1, 0.5781843, 0.00003816483, 0.00007513334, -1162459.1, -34140.734, 0.0, 10.000157, 9.956321 
3.3750072e+3, 1.9482183e+2, -1064311.0, -1097822.1, 0.035337765, 0.000038027974, -0.000050878672, -1064311.0, -33564.906, 0.0, 10.000157, 9.955978 
3.3750072e+3, 2.0477153e+2, -976148.06, -1019424.9, 0.62547415, 0.00003792044, 0.00007384518, -976148.06, -42908.99, 0.0, 10.000156, 9.943216 
3.3750072e+3, 2.1471478e+2, -877862.56, -921400.94, 0.10324949, 0.00003784462, -0.000120770805, -877862.56, -42067.383, 0.0, 10.000156, 9.942876 
3.3750072e+3, 2.2465134e+2, -789577.44, -843136.56, 0.6576614, 0.00003772884, 0.00012685516, -789577.44, -51160.535, 0.0, 10.000155, 9.929834 
3.3750072e+3, 2.3458123e+2, -691145.25, -744959.2, 0.12287562, 0.0000375678, -0.000083343955, -691145.25, -50041.4, 0.0, 10.000155, 9.929503 
3.3750072e+3, 2.445042e+2, -602822.2, -667012.4, 0.623251, 0.00003745661, 0.00007979564, -602822.2, -58963.277, 0.0, 10.000155, 9.916062 
3.3750072e+3, 2.5442037e+2, -504070.88, -568338.0, 0.10501051, 0.00003740497, -0.00010190124, -504070.88, -57390.563, 0.0, 10.0001545, 9.915962 
3.3750072e+3, 2.6432946e+2, -415836.53, -490983.66, 0.5584149, 0.000037328544, 0.00014511321, -415836.53, -66265.4, 0.0, 10.0001545, 9.901892 
3.3750072e+3, 2.7423194e+2, -316552.6, -391371.6, 0.053257354, 0.000037220405, -0.00019932486, -316552.6, -64025.41, 0.0, 10.000154, 9.902311 
3.3750072e+3, 2.8412613e+2, -230079.58, -318077.6, 0.46387905, 0.000037120564, 0.00023286574, -230079.58, -74515.7, 0.0, 10.000154, 9.885366 
3.3750072e+3, 2.9401255e+2, -130374.66, -217762.28, -0.020934176, 0.000037032176, -0.00024968488, -130374.66, -71697.65, 0.0, 10.000154, 9.886145 
3.3750072e+3, 3.0392691e+2, -40634.254, -84751.72, 0.29926518, 0.000036922094, 0.00017638931, -40634.254, -40634.254, 0.0, 10.000153, 9.942098 
3.3750072e+3, 3.138709e+2, -39556.953, -82513.38, -0.18220386, 0.000036779795, -0.000052655658, -39556.953, -39556.953, 0.0, 10.000153, 9.943609 
3.3850077e+3, 1.24995105e+2, -1719741.1, -1724205.6, 0.5718637, 0.00003995038, 0.000033799563, -1719741.1, -4693.0806, 0.0, 10.000168, 9.994248 
3.3850077e+3, 1.3498926e+2, -1622363.3, -1627417.9, 0.0028397683, 0.0000396262, -0.00007983755, -1622363.3, -5257.7974, 0.0, 10.000167, 9.993466 
3.3850077e+3, 1.4497675e+2, -1534261.5, -1548126.8, 0.6726501, 0.000039421284, 0.00009722925, -1534261.5, -15033.517, 0.0, 10.000166, 9.981789 
3.3850077e+3, 1.5495855e+2, -1436535.8, -1450803.8, 0.12454789, 0.000039328792, -0.000048733335, -1436535.8, -15129.388, 0.0, 10.000166, 9.9812565 
3.3850077e+3, 1.6493371e+2, -1348486.8, -1371936.3, 0.8456594, 0.000039191873, 0.00004922512, -1348486.8, -24837.059, 0.0, 10.000165, 9.969172 
3.3850077e+3, 1.7490293e+2, -1250530.5, -1274295.4, 0.28276968, 0.000039009665, -0.00006636138, -1250530.5, -24579.105, 0.0, 10.000165, 9.968758 
3.3850077e+3, 1.848655e+2, -1162450.3, -1195705.3, 0.94699574, 0.000038856975, 0.00007535816, -1162450.3, -34132.164, 0.0, 10.000164, 9.95632 
3.3850077e+3, 1.9482186e+2, -1064302.1, -1097819.4, 0.3962853, 0.00003873511, -0.00005072186, -1064302.1, -33556.402, 0.0, 10.000163, 9.9559765 
3.3850074e+3, 2.0477156e+2, -976139.25, -1019422.06, 0.99224955, 0.000038630053, 0.000073977506, -976139.25, -42900.473, 0.0, 10.000163, 9.943215 
3.3850074e+3, 2.1471481e+2, -877853.75, -921398.06, 0.4411255, 0.000038543163, -0.00012061583, -877853.75, -42058.83, 0.0, 10.000162, 9.942874 
3.3850074e+3, 2.2465137e+2, -789568.6, -843133.8, 1.0025562, 0.000038422208, 0.00012701482, -789568.6, -51152.0, 0.0, 10.000162, 9.929832 
3.3850074e+3, 2.3458126e+2, -691136.56, -744956.5, 0.4499573, 0.000038262668, -0.00008319998, -691136.56, -50032.9, 0.0, 10.000162, 9.929502 
3.3850074e+3, 2.4450421e+2, -602813.5, -667009.75, 0.93511695, 0.00003815493, 0.00007993219, -602813.5, -58954.78, 0.0, 10.000161, 9.916061 
3.3850074e+3, 2.544204e+2, -504062.22, -568335.4, 0.3982474, 0.000038109058, -0.00010176224, -504062.22, -57382.086, 0.0, 10.000161, 9.915961 
3.3850074e+3, 2.643295e+2, -415827.9, -490981.1, 0.84558994, 0.000038033988, 0.00014524416, -415827.9, -66256.93, 0.0, 10.000161, 9.90189 
3.3850074e+3, 2.7423194e+2, -316544.0, -391369.06, 0.31073555, 0.000037921596, -0.00019921534, -316544.0, -64016.96, 0.0, 10.00016, 9.902309 
3.3850074e+3, 2.8412616e+2, -230071.0, -318075.1, 0.6896999, 0.000037819125, 0.00023296934, -230071.0, -74507.26, 0.0, 10.00016, 9.885365 
3.3850074e+3, 2.9401258e+2, -130366.14, -217759.83, 0.17362532, 0.000037730355, -0.00024956596, -130366.14, -71689.266, 0.0, 10.00016, 9.886143 
3.3850074e+3, 3.0392691e+2, -40625.863, -84749.42, 0.45619145, 0.0000376146, 0.00017650305, -40625.863, -40625.863, 0.0, 10.000159, 9.942097 
3.3850074e+3, 3.138709e+2, -39548.543, -82511.086, -0.047665667, 0.000037458776, -0.00005257779, -39548.543, -39548.543, 0.0, 10.000159, 9.943607 
3.3950078e+3, 1.2499514e+2, -1719742.5, -1724208.0, 0.25281176, 0.00004066116, 0.000034118213, -1719742.5, -4694.7725, 0.0, 10.000168, 9.994247 
3.3950078e+3, 1.3498929e+2, -1622364.5, -1627420.4, -0.3162369, 0.00004033584, -0.000080162434, -1622364.5, -5259.462, 0.0, 10.000167, 9.993464 
3.3950078e+3, 1.4497678e+2, -1534262.8, -1548129.0, 0.42010203, 0.000040126928, 0.00009782619, -1534262.8, -15035.119, 0.0, 10.000166, 9.981787 
3.3950078e+3, 1.5495858e+2, -1436537.0, -1450806.1, -0.12792687, 0.000040027437, -0.00004853318, -1436537.0, -15130.958, 0.0, 10.000166, 9.981256 
3.3950078e+3, 1.6493374e+2, -1348488.0, -1371938.6, 0.6285069, 0.00003988751, 0.00004928402, -1348488.0, -24838.643, 0.0, 10.000165, 9.969171 
3.3950076e+3, 1.7490296e+2, -1250531.8, -1274297.8, 0.06579004, 0.00003970636, -0.0000661828, -1250531.8, -24580.66, 0.0, 10.000165, 9.968757 
3.3950076e+3, 1.8486553e+2, -1162451.5, -1195707.5, 0.75103295, 0.00003957237, 0.00007557143, -1162451.5, -34133.68, 0.0, 10.000164, 9.956318 
3.3950076e+3, 1.948219e+2, -1064303.4, -1097821.6, 0.20054765, 0.000039487633, -0.000050562885, -1064303.4, -33557.887, 0.0, 10.000163, 9.955976 
3.3950076e+3, 2.0477158e+2, -976140.5, -1019424.44, 0.8318618, 0.000039365044, 0.0000741207, -976140.5, -42901.953, 0.0, 10.000163, 9.943213 
3.3950076e+3, 2.1471483e+2, -877854.94, -921400.44, 0.28143728, 0.000039201444, -0.000120446704, -877854.94, -42060.277, 0.0, 10.000162, 9.942873 
3.3950076e+3, 2.246514e+2, -789569.9, -843136.25, 0.86384463, 0.00003908405, 0.000127181, -789569.9, -51153.45, 0.0, 10.000162, 9.9298315 
3.3950076e+3, 2.3458128e+2, -691137.75, -744958.94, 0.31192526, 0.000039018923, -0.000083069426, -691137.75, -50034.32, 0.0, 10.000162, 9.9295 
3.3950076e+3, 2.4450424e+2, -602814.7, -667012.1, 0.8016092, 0.00003892892, 0.00008004696, -602814.7, -58956.17, 0.0, 10.000161, 9.9160595 
3.3950076e+3, 2.544204e+2, -504063.38, -568337.7, 0.26492903, 0.000038809132, -0.00010163954, -504063.38, -57383.445, 0.0, 10.000161, 9.915959 
3.3950076e+3, 2.643295e+2, -415829.1, -490983.5, 0.72981113, 0.00003870551, 0.00014536837, -415829.1, -66258.29, 0.0, 10.000161, 9.901888 
3.3950076e+3, 2.7423197e+2, -316545.16, -391371.44, 0.19611482, 0.00003862249, -0.00019909789, -316545.16, -64018.29, 0.0, 10.00016, 9.902308 
3.3950073e+3, 2.8412616e+2, -230072.14, -318077.47, 0.5681484, 0.000038549493, 0.00023308482, -230072.14, -74508.555, 0.0, 10.00016, 9.885364 
3.3950073e+3, 2.9401258e+2, -130367.27, -217762.19, 0.051434595, 0.000038490063, -0.00024944587, -130367.27, -71690.53, 0.0, 10.00016, 9.886142 
3.3950073e+3, 3.0392694e+2, -40627.004, -84751.79, 0.33214322, 0.00003835164, 0.00017661546, -40627.004, -40627.004, 0.0, 10.000159, 9.942095 
3.3950073e+3, 3.138709e+2, -39549.684, -82513.46, -0.17196272, 0.00003809595, -0.000052491287, -39549.684, -39549.684, 0.0, 10.000159, 9.943606 
3.405008e+3, 1.2499518e+2, -1719733.1, -1724204.9, 0.6349979, 0.00004139704, 0.000034473647, -1719733.1, -4685.861, 0.0, 10.0001745, 9.994246 
3.405008e+3, 1.3498934e+2, -1622355.1, -1627417.1, 0.04449054, 0.000041051062, -0.00008046694, -1622355.1, -5250.4956, 0.0, 10.000174, 9.9934635 
3.405008e+3, 1.4497682e+2, -1534253.4, -1548125.8, 0.81178766, 0.000040828098, 0.00009844535, -1534253.4, -15026.109, 0.0, 10.000173, 9.981786 
3.4050077e+3, 1.5495862e+2, -1436527.6, -1450803.0, 0.23844469, 0.00004072103, -0.000048345897, -1436527.6, -15122.008, 0.0, 10.000173, 9.981254 
3.4050077e+3, 1.6493377e+2, -1348478.8, -1371935.5, 1.0129791, 0.000040592946, 0.000049325565, -1348478.8, -24829.764, 0.0, 10.000172, 9.969169 
3.4050077e+3, 1.7490299e+2, -1250522.6, -1274294.8, 0.4387395, 0.00004044347, -0.00006599481, -1250522.6, -24571.844, 0.0, 10.000171, 9.968755 
3.4050077e+3, 1.8486556e+2, -1162442.4, -1195704.5, 1.1434444, 0.000040315128, 0.00007579955, -1162442.4, -34124.855, 0.0, 10.000171, 9.956317 
3.4050077e+3, 1.9482192e+2, -1064294.3, -1097818.6, 0.57635045, 0.000040208826, -0.000050405873, -1064294.3, -33549.03, 0.0, 10.00017, 9.955974 
3.4050077e+3, 2.0477161e+2, -976131.3, -1019421.5, 1.2182696, 0.000040076487, 0.000074260664, -976131.3, -42893.09, 0.0, 10.00017, 9.9432125 
3.4050077e+3, 2.1471485e+2, -877845.8, -921397.56, 0.6374354, 0.00003991594, -0.00012026524, -877845.8, -42051.406, 0.0, 10.000169, 9.942871 
3.4050077e+3, 2.2465141e+2, -789560.75, -843133.4, 1.2151666, 0.000039809365, 0.00012736322, -789560.75, -51144.582, 0.0, 10.000169, 9.92983 
3.4050074e+3, 2.3458132e+2, -691128.7, -744956.1, 0.65916437, 0.000039763836, -0.00008293258, -691128.7, -50025.51, 0.0, 10.000169, 9.929499 
3.4050074e+3, 2.4450426e+2, -602805.7, -667009.4, 1.1505303, 0.000039673996, 0.000080164544, -602805.7, -58947.37, 0.0, 10.000168, 9.916058 
3.4050074e+3, 2.5442043e+2, -504054.3, -568335.0, 0.5792023, 0.000039531147, -0.00010150997, -504054.3, -57374.582, 0.0, 10.000168, 9.915958 
3.4050074e+3, 2.6432952e+2, -415820.03, -490980.78, 1.0199176, 0.000039420516, 0.00014550303, -415820.03, -66249.414, 0.0, 10.000168, 9.901887 
3.4050074e+3, 2.7423197e+2, -316536.2, -391368.8, 0.46560815, 0.00003935096, -0.000198967, -316536.2, -64009.465, 0.0, 10.000167, 9.902307 
3.4050074e+3, 2.841262e+2, -230063.17, -318074.84, 0.8173678, 0.00003928555, 0.00023320652, -230063.17, -74499.74, 0.0, 10.000167, 9.885362 
3.4050074e+3, 2.940126e+2, -130358.336, -217759.61, 0.28188327, 0.000039225564, -0.00024934078, -130358.336, -71681.73, 0.0, 10.000167, 9.88614 
3.4050074e+3, 3.0392694e+2, -40618.195, -84749.38, 0.5250696, 0.00003907822, 0.00017671165, -40618.195, -40618.195, 0.0, 10.000166, 9.942093 
3.4050074e+3, 3.1387094e+2, -39540.895, -82511.07, -0.020779781, 0.000038801256, -0.00005239249, -39540.895, -39540.895, 0.0, 10.000166, 9.943604 
3.4150082e+3, 1.24995224e+2, -1719734.5, -1724207.4, 0.33676016, 0.000042157935, 0.000034874298, -1719734.5, -4687.62, 0.0, 10.0001745, 9.994245 
3.4150082e+3, 1.3498937e+2, -1622356.5, -1627419.6, -0.2537576, 0.000041771873, -0.00008075115, -1622356.5, -5252.227, 0.0, 10.000174, 9.993462 
3.4150082e+3, 1.4497685e+2, -1534254.6, -1548128.3, 0.5528428, 0.000041524832, 0.000099086676, -1534254.6, -15027.786, 0.0, 10.000173, 9.981784 
3.4150082e+3, 1.5495865e+2, -1436528.9, -1450805.4, -0.020432621, 0.000041409603, -0.00004817143, -1436528.9, -15123.651, 0.0, 10.000173, 9.981253 
3.4150082e+3, 1.6493382e+2, -1348480.0, -1371938.0, 0.7893685, 0.000041308173, 0.000049349805, -1348480.0, -24831.389, 0.0, 10.000172, 9.969167 
3.4150082e+3, 1.7490304e+2, -1250523.9, -1274297.3, 0.21528804, 0.000041220894, -0.00006579743, -1250523.9, -24573.44, 0.0, 10.000171, 9.968754 
3.4150082e+3, 1.848656e+2, -1162443.6, -1195707.0, 0.96356446, 0.0000410852, 0.00007604251, -1162443.6, -34126.426, 0.0, 10.000171, 9.956315 
3.4150082e+3, 1.9482195e+2, -1064295.5, -1097821.1, 0.3969505, 0.00004089881, -0.00005025081, -1064295.5, -33550.57, 0.0, 10.00017, 9.955972 
3.415008e+3, 2.0477164e+2, -976132.6, -1019424.0, 1.0694389, 0.000040764484, 0.00007439741, -976132.6, -42894.65, 0.0, 10.00017, 9.943211 
3.415008e+3, 2.1471488e+2, -877847.06, -921400.0, 0.48922065, 0.000040686497, -0.00012007147, -877847.06, -42052.934, 0.0, 10.000169, 9.942869 
3.415008e+3, 2.2465144e+2, -789561.94, -843135.75, 1.0713208, 0.000040597974, 0.00012756143, -789561.94, -51146.06, 0.0, 10.000169, 9.929828 
3.415008e+3, 2.3458134e+2, -691129.94, -744958.5, 0.5154359, 0.000040497474, -0.00008278946, -691129.94, -50026.953, 0.0, 10.000169, 9.929497 
3.415008e+3, 2.4450429e+2, -602806.94, -667011.9, 1.0402657, 0.000040390274, 0.00008028495, -602806.94, -58948.84, 0.0, 10.000168, 9.916057 
3.415008e+3, 2.5442046e+2, -504055.56, -568337.5, 0.47052467, 0.00004027506, -0.00010137354, -504055.56, -57376.023, 0.0, 10.000168, 9.9159565 
3.415008e+3, 2.6432955e+2, -415821.25, -490983.28, 0.90120655, 0.0000401789, 0.00014564811, -415821.25, -66250.82, 0.0, 10.000168, 9.901885 
3.415008e+3, 2.74232e+2, -316537.38, -391371.28, 0.3461982, 0.00004010696, -0.00019882269, -316537.38, -64010.844, 0.0, 10.000167, 9.902305 
3.415008e+3, 2.841262e+2, -230064.36, -318077.28, 0.70142454, 0.000040027313, 0.00023333442, -230064.36, -74501.086, 0.0, 10.000167, 9.88536 
3.415008e+3, 2.940126e+2, -130359.51, -217762.03, 0.16623038, 0.00003993696, -0.00024925065, -130359.51, -71683.04, 0.0, 10.000167, 9.886139 
3.415008e+3, 3.0392697e+2, -40619.402, -84751.91, 0.39891517, 0.000039794388, 0.00017679165, -40619.402, -40619.402, 0.0, 10.000166, 9.942091 
3.415008e+3, 3.1387094e+2, -39542.11, -82513.61, -0.14819658, 0.00003957452, -0.000052281426, -39542.11, -39542.11, 0.0, 10.000166, 9.943603 
3.4250084e+3, 1.2499526e+2, -1719724.9, -1724204.0, 0.67306715, 0.00004291098, 0.000035297347, -1719724.9, -4678.385, 0.0, 10.000181, 9.994243 
3.4250084e+3, 1.3498941e+2, -1622347.0, -1627416.4, 0.08188257, 0.000042504886, -0.00008104215, -1622347.0, -5243.0605, 0.0, 10.00018, 9.99346 
3.4250084e+3, 1.449769e+2, -1534245.1, -1548124.9, 0.9380441, 0.000042255062, 0.00009974217, -1534245.1, -15018.614, 0.0, 10.000179, 9.981783 
3.4250084e+3, 1.549587e+2, -1436519.4, -1450802.1, 0.37434494, 0.000042154184, -0.000047976253, -1436519.4, -15114.505, 0.0, 10.000179, 9.981251 
3.4250084e+3, 1.6493386e+2, -1348470.6, -1371934.9, 1.2193918, 0.000042054264, 0.00004938399, -1348470.6, -24822.28, 0.0, 10.000178, 9.969166 
3.4250084e+3, 1.7490306e+2, -1250514.4, -1274294.0, 0.6207087, 0.0000419554, -0.00006561861, -1250514.4, -24564.313, 0.0, 10.000178, 9.968752 
3.425008e+3, 1.8486562e+2, -1162434.1, -1195703.8, 1.3917522, 0.000041816635, 0.00007627499, -1162434.1, -34117.254, 0.0, 10.000177, 9.956313 
3.425008e+3, 1.9482198e+2, -1064286.0, -1097817.9, 0.8035325, 0.000041636074, -0.000050059847, -1064286.0, -33541.367, 0.0, 10.000177, 9.955971 
3.425008e+3, 2.0477167e+2, -976123.2, -1019420.94, 1.4807129, 0.000041512656, 0.00007456344, -976123.2, -42885.48, 0.0, 10.000176, 9.943209 
3.425008e+3, 2.1471491e+2, -877837.7, -921397.06, 0.8881942, 0.000041451072, -0.000119912365, -877837.7, -42043.816, 0.0, 10.000176, 9.942868 
3.425008e+3, 2.2465147e+2, -789552.56, -843132.8, 1.4714231, 0.00004136237, 0.00012771857, -789552.56, -51136.906, 0.0, 10.000175, 9.929827 
3.425008e+3, 2.3458137e+2, -691120.44, -744955.5, 0.8852077, 0.000041242918, -0.00008262868, -691120.44, -50017.715, 0.0, 10.000175, 9.929495 
3.425008e+3, 2.445043e+2, -602797.44, -667009.0, 1.403386, 0.000041135256, 0.00008043883, -602797.44, -58939.598, 0.0, 10.000175, 9.916055 
3.425008e+3, 2.544205e+2, -504046.16, -568334.6, 0.8130179, 0.000041041676, -0.00010123915, -504046.16, -57366.82, 0.0, 10.0001745, 9.915955 
3.425008e+3, 2.6432955e+2, -415811.84, -490980.5, 1.215392, 0.000040949988, 0.0001457755, -415811.84, -66241.625, 0.0, 10.0001745, 9.901883 
3.425008e+3, 2.74232e+2, -316527.97, -391368.53, 0.62582976, 0.000040860632, -0.0001986864, -316527.97, -64001.62, 0.0, 10.0001745, 9.902304 
3.425008e+3, 2.8412622e+2, -230054.94, -318074.53, 0.9489907, 0.000040774, 0.00023346783, -230054.94, -74491.82, 0.0, 10.0001745, 9.885358 
3.4250078e+3, 2.9401264e+2, -130350.12, -217759.31, 0.38599285, 0.000040691033, -0.00024913636, -130350.12, -71673.8, 0.0, 10.000174, 9.886137 
3.4250078e+3, 3.0392697e+2, -40610.176, -84749.41, 0.5726851, 0.000040552924, 0.00017689208, -40610.176, -40610.176, 0.0, 10.000174, 9.94209 
3.4250078e+3, 3.1387094e+2, -39532.875, -82511.12, -0.014867671, 0.000040333038, -0.000052186857, -39532.875, -39532.875, 0.0, 10.000174, 9.943601 
3.4350085e+3, 1.24995306e+2, -1719726.3, -1724206.5, 0.36738974, 0.000043656215, 0.000035755973, -1719726.3, -4680.1626, 0.0, 10.000181, 9.994241 
3.4350085e+3, 1.3498946e+2, -1622348.3, -1627418.9, -0.22380713, 0.000043250093, -0.00008133989, -1622348.3, -5244.809, 0.0, 10.00018, 9.993459 
3.4350085e+3, 1.4497694e+2, -1534246.4, -1548127.4, 0.68055, 0.000043018696, 0.0001004118, -1534246.4, -15020.286, 0.0, 10.000179, 9.981781 
3.4350085e+3, 1.5495872e+2, -1436520.6, -1450804.5, 0.11688789, 0.000042954613, -0.000047760415, -1436520.6, -15116.145, 0.0, 10.000179, 9.98125 
3.4350082e+3, 1.6493389e+2, -1348471.9, -1371937.4, 1.0089998, 0.000042831147, 0.000049428094, -1348471.9, -24823.975, 0.0, 10.000178, 9.969164 
3.4350082e+3, 1.749031e+2, -1250515.8, -1274296.6, 0.41056034, 0.00004264716, -0.00006545829, -1250515.8, -24565.979, 0.0, 10.000178, 9.96875 
3.4350082e+3, 1.8486567e+2, -1162435.4, -1195706.4, 1.2275517, 0.00004250959, 0.00007649705, -1162435.4, -34118.883, 0.0, 10.000177, 9.956312 
3.4350082e+3, 1.9482203e+2, -1064287.3, -1097820.5, 0.6398291, 0.000042420503, -0.0000498331, -1064287.3, -33542.97, 0.0, 10.000177, 9.955969 
3.4350082e+3, 2.047717e+2, -976124.44, -1019423.5, 1.3282164, 0.00004232084, 0.00007475868, -976124.44, -42887.082, 0.0, 10.000176, 9.943208 
3.4350082e+3, 2.1471494e+2, -877839.0, -921399.56, 0.73592573, 0.00004220971, -0.000119787815, -877839.0, -42045.387, 0.0, 10.000176, 9.942866 
3.4350082e+3, 2.2465149e+2, -789553.8, -843135.4, 1.3567923, 0.000042102656, 0.00012783478, -789553.8, -51138.453, 0.0, 10.000175, 9.929825 
3.4350082e+3, 2.345814e+2, -691121.7, -744958.06, 0.7717648, 0.000042000167, -0.00008245028, -691121.7, -50019.23, 0.0, 10.000175, 9.929494 
3.4350082e+3, 2.4450433e+2, -602798.75, -667011.56, 1.2940048, 0.000041908886, 0.000080626094, -602798.75, -58941.125, 0.0, 10.000175, 9.916053 
3.435008e+3, 2.544205e+2, -504047.4, -568337.25, 0.7038232, 0.00004183095, -0.00010110679, -504047.4, -57368.316, 0.0, 10.0001745, 9.915953 
3.435008e+3, 2.6432958e+2, -415813.16, -490983.1, 1.1114042, 0.00004173377, 0.00014588523, -415813.16, -66243.11, 0.0, 10.0001745, 9.901881 
3.435008e+3, 2.7423203e+2, -316529.25, -391371.13, 0.5221633, 0.00004161202, -0.00019855807, -316529.25, -64003.074, 0.0, 10.0001745, 9.902302 
3.435008e+3, 2.8412622e+2, -230056.17, -318077.06, 0.8381649, 0.000041525633, 0.00023360673, -230056.17, -74493.23, 0.0, 10.0001745, 9.885357 
3.435008e+3, 2.9401264e+2, -130351.336, -217761.84, 0.27449462, 0.000041487685, -0.000248998, -130351.336, -71675.164, 0.0, 10.000174, 9.886135 
3.435008e+3, 3.03927e+2, -40611.457, -84752.08, 0.45124075, 0.000041353716, 0.00017701287, -40611.457, -40611.457, 0.0, 10.000174, 9.942088 
3.435008e+3, 3.1387097e+2, -39534.164, -82513.805, -0.13749091, 0.000041076884, -0.00005210872, -39534.164, -39534.164, 0.0, 10.000174, 9.943599 
3.4450087e+3, 1.2499535e+2, -1719716.4, -1724203.0, 0.76682854, 0.00004442526, 0.000036149228, -1719716.4, -4670.7046, 0.0, 10.000188, 9.99424 
3.4450087e+3, 1.3498949e+2, -1622338.5, -1627415.5, 0.16400088, 0.00004401977, -0.00008169645, -1622338.5, -5235.422, 0.0, 10.000188, 9.993457 
3.4450084e+3, 1.4497697e+2, -1534236.6, -1548123.9, 1.0981909, 0.00004378552, 0.00010107242, -1534236.6, -15010.911, 0.0, 10.000187, 9.981779 
3.4450084e+3, 1.5495877e+2, -1436511.0, -1450801.1, 0.49600646, 0.00004371488, -0.00004752351, -1436511.0, -15106.79, 0.0, 10.000186, 9.981248 
3.4450084e+3, 1.6493393e+2, -1348462.3, -1371934.1, 1.434665, 0.000043582033, 0.00004950065, -1348462.3, -24814.604, 0.0, 10.000185, 9.969162 
3.4450084e+3, 1.7490314e+2, -1250505.9, -1274293.3, 0.84195936, 0.000043385775, -0.00006528527, -1250505.9, -24556.508, 0.0, 10.000185, 9.968749 
3.4450084e+3, 1.8486571e+2, -1162425.6, -1195703.1, 1.673435, 0.000043257405, 0.000076716846, -1162425.6, -34109.414, 0.0, 10.000184, 9.95631 
3.4450084e+3, 1.9482206e+2, -1064277.5, -1097817.3, 1.0536621, 0.000043199983, -0.0000496227, -1064277.5, -33533.566, 0.0, 10.000184, 9.955967 
3.4450084e+3, 2.0477173e+2, -976114.75, -1019420.4, 1.7557821, 0.000043106866, 0.000074945114, -976114.75, -42877.652, 0.0, 10.000184, 9.943206 
3.4450084e+3, 2.1471497e+2, -877829.2, -921396.44, 1.1607189, 0.000042975087, -0.000119641074, -877829.2, -42035.863, 0.0, 10.000183, 9.942864 
3.4450084e+3, 2.2465152e+2, -789544.0, -843132.3, 1.7884887, 0.0000428619, 0.000127978, -789544.0, -51128.906, 0.0, 10.000183, 9.929823 
3.4450084e+3, 2.3458141e+2, -691111.9, -744955.0, 1.1577917, 0.00004276972, -0.00008226962, -691111.9, -50009.664, 0.0, 10.000183, 9.929492 
3.4450084e+3, 2.4450435e+2, -602788.94, -667008.56, 1.6525477, 0.00004269027, 0.00008081086, -602788.94, -58931.527, 0.0, 10.000182, 9.916052 
3.4450084e+3, 2.5442052e+2, -504037.6, -568334.25, 1.0522568, 0.000042625958, -0.00010095777, -504037.6, -57358.723, 0.0, 10.000182, 9.915952 
3.4450084e+3, 2.643296e+2, -415803.34, -490980.22, 1.4516997, 0.000042529464, 0.00014600922, -415803.34, -66233.53, 0.0, 10.000182, 9.90188 
3.4450084e+3, 2.7423206e+2, -316519.44, -391368.25, 0.8305002, 0.00004239194, -0.00019844543, -316519.44, -63993.453, 0.0, 10.000182, 9.9023 
3.4450084e+3, 2.8412625e+2, -230046.31, -318074.2, 1.1034659, 0.000042300126, 0.00023372528, -230046.31, -74483.54, 0.0, 10.000181, 9.885355 
3.4450084e+3, 2.9401267e+2, -130341.484, -217758.97, 0.5038276, 0.00004227097, -0.00024885003, -130341.484, -71665.47, 0.0, 10.000181, 9.886133 
3.4450084e+3, 3.03927e+2, -40601.754, -84749.43, 0.6323515, 0.000042149015, 0.00017714244, -40601.754, -40601.754, 0.0, 10.000181, 9.942086 
3.4450084e+3, 3.1387097e+2, -39524.492, -82511.19, 0.026271248, 0.00004188882, -0.000052068648, -39524.492, -39524.492, 0.0, 10.00018, 9.943597 
3.4550092e+3, 1.24995396e+2, -1719717.8, -1724205.6, 0.45365953, 0.000045218054, 0.000036490404, -1719717.8, -4672.5264, 0.0, 10.000188, 9.994238 
3.455009e+3, 1.3498953e+2, -1622339.9, -1627418.1, -0.14918752, 0.00004481387, -0.00008211166, -1622339.9, -5237.215, 0.0, 10.000188, 9.993455 
3.455009e+3, 1.4497702e+2, -1534238.0, -1548126.5, 0.8435239, 0.000044555552, 0.0001017241, -1534238.0, -15012.6875, 0.0, 10.000187, 9.981778 
3.455009e+3, 1.549588e+2, -1436512.3, -1450803.8, 0.2414092, 0.000044435143, -0.0000472656, -1436512.3, -15108.531, 0.0, 10.000186, 9.981246 
3.455009e+3, 1.6493396e+2, -1348463.5, -1371936.6, 1.2567624, 0.000044307028, 0.00004960157, -1348463.5, -24816.305, 0.0, 10.000185, 9.969161 
3.455009e+3, 1.7490317e+2, -1250507.3, -1274295.9, 0.6644153, 0.000044171113, -0.000065099586, -1250507.3, -24558.178, 0.0, 10.000185, 9.968747 
3.455009e+3, 1.8486574e+2, -1162427.0, -1195705.8, 1.5019976, 0.000044059936, 0.00007693442, -1162427.0, -34111.13, 0.0, 10.000184, 9.956308 
3.455009e+3, 1.9482209e+2, -1064278.9, -1097819.9, 0.88229764, 0.000043974564, -0.0000494286, -1064278.9, -33535.25, 0.0, 10.000184, 9.955966 
3.4550086e+3, 2.0477176e+2, -976116.06, -1019422.94, 1.6346577, 0.00004387083, 0.00007512278, -976116.06, -42879.273, 0.0, 10.000184, 9.943204 
3.4550086e+3, 2.1471499e+2, -877830.44, -921399.0, 1.0405811, 0.0000437472, -0.00011947222, -877830.44, -42037.453, 0.0, 10.000183, 9.942863 
3.4550086e+3, 2.2465155e+2, -789545.4, -843135.0, 1.6889955, 0.00004364007, 0.00012814817, -789545.4, -51130.566, 0.0, 10.000183, 9.929821 
3.4550086e+3, 2.3458144e+2, -691113.25, -744957.75, 1.058969, 0.000043551572, -0.00008208669, -691113.25, -50011.293, 0.0, 10.000183, 9.92949 
3.4550086e+3, 2.4450438e+2, -602790.25, -667011.2, 1.5522112, 0.000043479413, 0.000080993144, -602790.25, -58933.09, 0.0, 10.000182, 9.91605 
3.4550086e+3, 2.5442055e+2, -504038.9, -568336.9, 0.95180815, 0.00004342671, -0.00010079214, -504038.9, -57360.25, 0.0, 10.000182, 9.91595 
3.4550086e+3, 2.643296e+2, -415804.72, -490982.97, 1.3672484, 0.000043337062, 0.00014614739, -415804.72, -66235.086, 0.0, 10.000182, 9.901878 
3.4550086e+3, 2.7423206e+2, -316520.78, -391371.0, 0.74711317, 0.000043200333, -0.0001983484, -316520.78, -63994.98, 0.0, 10.000182, 9.902298 
3.4550086e+3, 2.8412625e+2, -230047.63, -318076.88, 1.0057708, 0.000043097432, 0.00023382354, -230047.63, -74485.016, 0.0, 10.000181, 9.885353 
3.4550086e+3, 2.9401267e+2, -130342.77, -217761.64, 0.40480414, 0.000043040975, -0.00024869252, -130342.77, -71666.91, 0.0, 10.000181, 9.886131 
3.4550086e+3, 3.03927e+2, -40603.066, -84752.164, 0.5078388, 0.000042938867, 0.00017728076, -40603.066, -40603.066, 0.0, 10.000181, 9.942084 
3.4550086e+3, 3.1387097e+2, -39525.81, -82513.94, -0.10125949, 0.000042768646, -0.000052066513, -39525.81, -39525.81, 0.0, 10.00018, 9.943595 
3.465009e+3, 1.2499544e+2, -1719707.6, -1724202.1, 0.867087, 0.000046017303, 0.000036862537, -1719707.6, -4662.8564, 0.0, 10.0001955, 9.994236 
3.465009e+3, 1.3498957e+2, -1622329.9, -1627414.6, 0.23807898, 0.000045594174, -0.00008245831, -1622329.9, -5227.6157, 0.0, 10.000195, 9.993454 
3.465009e+3, 1.4497706e+2, -1534227.9, -1548123.0, 1.2919793, 0.000045318677, 0.000102428916, -1534227.9, -15003.052, 0.0, 10.000194, 9.981776 
3.465009e+3, 1.5495884e+2, -1436502.1, -1450800.3, 0.6790198, 0.000045182667, -0.000047083235, -1436502.1, -15098.794, 0.0, 10.000194, 9.981245 
3.465009e+3, 1.6493401e+2, -1348453.4, -1371933.3, 1.7243729, 0.0000450625, 0.000049616603, -1348453.4, -24806.572, 0.0, 10.000193, 9.969159 
3.465009e+3, 1.749032e+2, -1250497.3, -1274292.5, 1.0954058, 0.000044958575, -0.000064889326, -1250497.3, -24548.557, 0.0, 10.000192, 9.968745 
3.4650087e+3, 1.8486577e+2, -1162417.0, -1195702.5, 1.9523697, 0.000044853474, 0.00007719838, -1162417.0, -34101.516, 0.0, 10.000192, 9.956307 
3.4650087e+3, 1.9482212e+2, -1064268.8, -1097816.6, 1.3380355, 0.000044747074, -0.000049259, -1064268.8, -33525.508, 0.0, 10.000192, 9.955964 
3.4650087e+3, 2.0477179e+2, -976105.9, -1019419.6, 2.112297, 0.000044638986, 0.00007526709, -976105.9, -42869.45, 0.0, 10.000191, 9.943202 
3.4650087e+3, 2.1471505e+2, -877820.25, -921395.7, 1.4697388, 0.000044529046, -0.000119278404, -877820.25, -42027.58, 0.0, 10.000191, 9.942862 
3.4650087e+3, 2.2465158e+2, -789535.25, -843131.9, 2.1060295, 0.000044435536, 0.00012834503, -789535.25, -51120.7, 0.0, 10.000191, 9.92982 
3.4650087e+3, 2.3458147e+2, -691103.1, -744954.6, 1.4746108, 0.000044360586, -0.00008193938, -691103.1, -50001.434, 0.0, 10.00019, 9.929488 
3.4650087e+3, 2.445044e+2, -602780.06, -667008.06, 1.9589558, 0.000044287135, 0.00008113056, -602780.06, -58923.18, 0.0, 10.00019, 9.916048 
3.4650087e+3, 2.5442058e+2, -504028.66, -568333.75, 1.3125038, 0.000044215427, -0.00010061722, -504028.66, -57350.234, 0.0, 10.00019, 9.915948 
3.4650087e+3, 2.6432964e+2, -415794.44, -490979.9, 1.7032521, 0.000044126245, 0.00014631734, -415794.44, -66225.02, 0.0, 10.00019, 9.901876 
3.4650087e+3, 2.742321e+2, -316510.53, -391367.97, 1.0746278, 0.000044014778, -0.0001982376, -316510.53, -63984.92, 0.0, 10.00019, 9.902296 
3.4650084e+3, 2.8412628e+2, -230037.38, -318073.9, 1.2977703, 0.000043925756, 0.00023391368, -230037.38, -74474.945, 0.0, 10.000189, 9.885351 
3.4650084e+3, 2.940127e+2, -130332.516, -217758.7, 0.6479102, 0.000043867487, -0.0002485701, -130332.516, -71656.82, 0.0, 10.000189, 9.886129 
3.4650084e+3, 3.0392703e+2, -40592.895, -84749.375, 0.68132645, 0.000043769232, 0.00017740589, -40592.895, -40592.895, 0.0, 10.000189, 9.942082 
3.4650084e+3, 3.13871e+2, -39515.563, -82511.11, 0.033306863, 0.000043611424, -0.000051982996, -39515.563, -39515.563, 0.0, 10.000189, 9.943593 
3.4750092e+3, 1.2499549e+2, -1719709.1, -1724204.8, 0.5464399, 0.000046823003, 0.00003727828, -1719709.1, -4664.7583, 0.0, 10.0001955, 9.994235 
3.4750092e+3, 1.3498962e+2, -1622331.3, -1627417.4, -0.08256923, 0.000046360758, -0.00008273665, -1622331.3, -5229.488, 0.0, 10.000195, 9.993452 
3.4750092e+3, 1.4497711e+2, -1534229.3, -1548125.6, 1.0691826, 0.00004607495, 0.000103186714, -1534229.3, -15004.871, 0.0, 10.000194, 9.981774 
3.4750092e+3, 1.5495889e+2, -1436503.5, -1450802.9, 0.45637864, 0.00004595739, -0.000046976143, -1436503.5, -15100.577, 0.0, 10.000194, 9.981243 
3.4750092e+3, 1.6493404e+2, -1348454.9, -1371935.9, 1.5295727, 0.00004584838, 0.000049546055, -1348454.9, -24808.37, 0.0, 10.000193, 9.969157 
3.475009e+3, 1.7490324e+2, -1250498.6, -1274295.1, 0.9007337, 0.00004574818, -0.00006465457, -1250498.6, -24550.324, 0.0, 10.000192, 9.968743 
3.475009e+3, 1.8486582e+2, -1162418.4, -1195705.1, 1.8201833, 0.00004563808, 0.00007750857, -1162418.4, -34103.24, 0.0, 10.000192, 9.9563055 
3.475009e+3, 1.9482216e+2, -1064270.1, -1097819.3, 1.2065244, 0.000045517554, -0.000049113813, -1064270.1, -33527.195, 0.0, 10.000192, 9.955962 
3.475009e+3, 2.0477183e+2, -976107.3, -1019422.4, 2.0134993, 0.000045411347, 0.000075378164, -976107.3, -42871.188, 0.0, 10.000191, 9.9432 
3.475009e+3, 2.1471508e+2, -877821.7, -921398.44, 1.3716036, 0.00004532062, -0.00011905972, -877821.7, -42029.285, 0.0, 10.000191, 9.94286 
3.475009e+3, 2.246516e+2, -789536.6, -843134.6, 2.0144823, 0.00004524828, 0.0001285685, -789536.6, -51122.375, 0.0, 10.000191, 9.929818 
3.475009e+3, 2.345815e+2, -691104.5, -744957.4, 1.383259, 0.000045196695, -0.00008182755, -691104.5, -50003.074, 0.0, 10.00019, 9.929486 
3.475009e+3, 2.4450442e+2, -602781.5, -667010.94, 1.89299, 0.0000451134, 0.00008122327, -602781.5, -58924.84, 0.0, 10.00019, 9.916046 
3.475009e+3, 2.5442058e+2, -504030.06, -568336.56, 1.2477263, 0.000044992194, -0.000100433026, -504030.06, -57351.863, 0.0, 10.00019, 9.915946 
3.475009e+3, 2.6432967e+2, -415795.8, -490982.7, 1.6306585, 0.000044897104, 0.00014651894, -415795.8, -66226.62, 0.0, 10.00019, 9.901875 
3.475009e+3, 2.7423212e+2, -316511.88, -391370.72, 1.0014733, 0.00004483529, -0.00019811306, -316511.88, -63986.477, 0.0, 10.00019, 9.902294 
3.475009e+3, 2.841263e+2, -230038.77, -318076.75, 1.2154425, 0.000044785025, 0.00023399577, -230038.77, -74476.52, 0.0, 10.000189, 9.885349 
3.475009e+3, 2.940127e+2, -130333.89, -217761.56, 0.5647485, 0.000044750348, -0.00024848268, -130333.89, -71658.36, 0.0, 10.000189, 9.886127 
3.475009e+3, 3.0392703e+2, -40594.277, -84752.25, 0.5775789, 0.000044640015, 0.00017751788, -40594.277, -40594.277, 0.0, 10.000189, 9.9420805 
3.475009e+3, 3.13871e+2, -39516.945, -82514.0, -0.07291807, 0.00004441731, -0.000051818366, -39516.945, -39516.945, 0.0, 10.000189, 9.943591 
3.4850097e+3, 1.2499554e+2, -1719698.9, -1724201.3, 0.8639252, 0.000047636295, 0.000037701102, -1719698.9, -4654.9897, 0.0, 10.000202, 9.994233 
3.4850097e+3, 1.3498966e+2, -1622320.9, -1627413.8, 0.2364951, 0.000047125654, -0.00008307127, -1622320.9, -5219.584, 0.0, 10.000202, 9.99345 
3.4850097e+3, 1.4497715e+2, -1534218.9, -1548122.0, 1.4647127, 0.00004683712, 0.000103937426, -1534218.9, -14994.908, 0.0, 10.000201, 9.981773 
3.4850094e+3, 1.5495893e+2, -1436493.3, -1450799.3, 0.8665315, 0.00004676255, -0.000046778347, -1436493.3, -15090.736, 0.0, 10.0002, 9.981241 
3.4850094e+3, 1.6493408e+2, -1348444.6, -1371932.5, 2.0012727, 0.00004666428, 0.000049550774, -1348444.6, -24798.58, 0.0, 10.0002, 9.969156 
3.4850094e+3, 1.7490329e+2, -1250488.3, -1274291.8, 1.3580819, 0.00004654191, -0.000064475564, -1250488.3, -24540.39, 0.0, 10.000199, 9.968742 
3.4850094e+3, 1.8486585e+2, -1162408.0, -1195701.6, 2.3066435, 0.0000464166, 0.00007774966, -1162408.0, -34093.184, 0.0, 10.000199, 9.956304 
3.4850094e+3, 1.9482219e+2, -1064259.6, -1097815.8, 1.6525463, 0.000046288136, -0.000048928054, -1064259.6, -33517.063, 0.0, 10.000199, 9.95596 
3.4850094e+3, 2.0477186e+2, -976096.9, -1019419.06, 2.455022, 0.00004619448, 0.00007554705, -976096.9, -42861.06, 0.0, 10.000198, 9.943199 
3.4850094e+3, 2.1471511e+2, -877811.25, -921395.1, 1.8053875, 0.00004613848, -0.00011886607, -877811.25, -42019.188, 0.0, 10.000198, 9.942858 
3.4850094e+3, 2.2465163e+2, -789526.2, -843131.3, 2.462439, 0.000046079935, 0.00012875722, -789526.2, -51112.227, 0.0, 10.000198, 9.929816 
3.485009e+3, 2.3458153e+2, -691093.94, -744954.06, 1.8101388, 0.000046018446, -0.00008167735, -691093.94, -49992.785, 0.0, 10.000198, 9.929485 
3.485009e+3, 2.4450445e+2, -602770.9, -667007.7, 2.309875, 0.00004592829, 0.00008135661, -602770.9, -58914.492, 0.0, 10.000198, 9.916044 
3.485009e+3, 2.5442064e+2, -504019.4, -568333.4, 1.6329293, 0.000045803867, -0.000100290636, -504019.4, -57341.465, 0.0, 10.000197, 9.915944 
3.485009e+3, 2.643297e+2, -415785.13, -490979.5, 1.9671849, 0.00004571649, 0.00014667402, -415785.13, -66216.164, 0.0, 10.000197, 9.901873 
3.485009e+3, 2.7423212e+2, -316501.2, -391367.6, 1.2925011, 0.00004567628, -0.00019794071, -316501.2, -63976.008, 0.0, 10.000197, 9.902292 
3.485009e+3, 2.841263e+2, -230028.05, -318073.66, 1.4771023, 0.00004564258, 0.0002341507, -230028.05, -74466.0, 0.0, 10.000197, 9.885347 
3.485009e+3, 2.9401273e+2, -130323.11, -217758.45, 0.81519747, 0.000045617522, -0.00024839267, -130323.11, -71647.75, 0.0, 10.000197, 9.886126 
3.485009e+3, 3.0392706e+2, -40583.56, -84749.35, 0.76764065, 0.000045507768, 0.00017759351, -40583.56, -40583.56, 0.0, 10.000197, 9.942079 
3.485009e+3, 3.1387103e+2, -39506.11, -82511.055, 0.041187335, 0.000045272267, -0.00005168161, -39506.11, -39506.11, 0.0, 10.000197, 9.943589 
3.4950098e+3, 1.2499558e+2, -1719700.3, -1724203.9, 0.58429706, 0.00004845717, 0.000038150985, -1719700.3, -4656.9033, 0.0, 10.000202, 9.994231 
3.4950098e+3, 1.3498971e+2, -1622322.4, -1627416.5, -0.04313328, 0.000047888898, -0.00008346193, -1622322.4, -5221.468, 0.0, 10.000202, 9.993448 
3.4950095e+3, 1.449772e+2, -1534220.3, -1548124.6, 1.2214823, 0.000047605212, 0.00010468108, -1534220.3, -14996.712, 0.0, 10.000201, 9.981771 
3.4950095e+3, 1.5495896e+2, -1436494.6, -1450801.9, 0.6232861, 0.000047598074, -0.00004649018, -1436494.6, -15092.504, 0.0, 10.0002, 9.981239 
3.4950095e+3, 1.6493413e+2, -1348446.1, -1371935.3, 1.8499297, 0.00004751012, 0.000049630482, -1348446.1, -24800.428, 0.0, 10.0002, 9.969154 
3.4950095e+3, 1.7490332e+2, -1250489.8, -1274294.5, 1.2072141, 0.00004733978, -0.00006435209, -1250489.8, -24542.205, 0.0, 10.000199, 9.96874 
3.4950095e+3, 1.8486589e+2, -1162409.4, -1195704.5, 2.2036188, 0.000047189085, 0.000077921904, -1162409.4, -34095.008, 0.0, 10.000199, 9.956302 
3.4950095e+3, 1.9482222e+2, -1064261.1, -1097818.5, 1.5500524, 0.000047058853, -0.000048701866, -1064261.1, -33518.85, 0.0, 10.000199, 9.955958 
3.4950095e+3, 2.0477189e+2, -976098.3, -1019421.9, 2.3586295, 0.00004698838, 0.00007577352, -976098.3, -42862.83, 0.0, 10.000198, 9.943197 
3.4950092e+3, 2.1471514e+2, -877812.7, -921397.94, 1.7090958, 0.000046982565, -0.00011869735, -877812.7, -42020.926, 0.0, 10.000198, 9.942856 
3.4950092e+3, 2.2465168e+2, -789527.6, -843134.2, 2.414343, 0.00004693046, 0.00012891136, -789527.6, -51113.96, 0.0, 10.000198, 9.929814 
3.4950092e+3, 2.3458156e+2, -691095.3, -744956.9, 1.7635809, 0.000046825924, -0.00008148891, -691095.3, -49994.49, 0.0, 10.000198, 9.929483 
3.4950092e+3, 2.4450448e+2, -602772.3, -667010.6, 2.2688324, 0.000046731875, 0.00008153043, -602772.3, -58916.23, 0.0, 10.000198, 9.916042 
3.4950092e+3, 2.5442067e+2, -504020.84, -568336.3, 1.5921433, 0.000046650366, -0.000100189885, -504020.84, -57343.168, 0.0, 10.000197, 9.915942 
3.4950092e+3, 2.643297e+2, -415786.56, -490982.47, 1.9100704, 0.000046584268, 0.00014678277, -415786.56, -66217.85, 0.0, 10.000197, 9.901871 
3.4950092e+3, 2.7423215e+2, -316502.63, -391370.53, 1.2342467, 0.00004653771, -0.00019772068, -316502.63, -63977.656, 0.0, 10.000197, 9.90229 
3.4950092e+3, 2.8412634e+2, -230029.47, -318076.56, 1.4279675, 0.00004649847, 0.00023437824, -230029.47, -74467.61, 0.0, 10.000197, 9.885345 
3.4950092e+3, 2.9401273e+2, -130324.51, -217761.36, 0.76686215, 0.000046469107, -0.00024830006, -130324.51, -71649.32, 0.0, 10.000197, 9.886124 
3.4950092e+3, 3.039271e+2, -40585.066, -84752.484, 0.6983586, 0.00004637254, 0.00017763293, -40585.066, -40585.066, 0.0, 10.000197, 9.942077 
3.4950092e+3, 3.1387103e+2, -39507.633, -82514.23, -0.030574607, 0.000046176174, -0.000051572628, -39507.633, -39507.633, 0.0, 10.000197, 9.943587 
3.50501e+3, 1.24995634e+2, -1719689.8, -1724200.3, 1.0118787, 0.000049215578, 0.000038497637, -1719689.8, -4646.821, 0.0, 10.00021, 9.994229 
3.50501e+3, 1.3498977e+2, -1622312.0, -1627412.9, 0.36447492, 0.00004869555, -0.0000839245, -1622312.0, -5211.516, 0.0, 10.000209, 9.993447 
3.5050097e+3, 1.4497724e+2, -1534209.8, -1548121.0, 1.6589528, 0.000048427733, 0.00010539356, -1534209.8, -14986.724, 0.0, 10.000209, 9.98177 
3.5050097e+3, 1.5495901e+2, -1436484.0, -1450798.1, 0.99465734, 0.000048403715, -0.00004624836, -1436484.0, -15082.345, 0.0, 10.000208, 9.981238 
3.5050097e+3, 1.6493417e+2, -1348435.4, -1371931.6, 2.2683313, 0.000048304493, 0.000049696682, -1348435.4, -24790.182, 0.0, 10.000208, 9.969152 
3.5050097e+3, 1.7490336e+2, -1250479.0, -1274290.9, 1.6346228, 0.00004812862, -0.00006416029, -1250479.0, -24531.941, 0.0, 10.000207, 9.968739 
3.5050097e+3, 1.8486592e+2, -1162398.8, -1195701.0, 2.6796153, 0.000047994912, 0.000078148034, -1162398.8, -34084.76, 0.0, 10.000207, 9.9563 
3.5050097e+3, 1.9482227e+2, -1064250.5, -1097815.1, 2.0126083, 0.00004790522, -0.000048536927, -1064250.5, -33508.57, 0.0, 10.000207, 9.955957 
3.5050094e+3, 2.0477192e+2, -976087.56, -1019418.4, 2.8278236, 0.000047839007, 0.000075916105, -976087.56, -42852.44, 0.0, 10.000206, 9.943195 
3.5050094e+3, 2.1471517e+2, -877801.75, -921394.44, 2.1523395, 0.00004779817, -0.00011853504, -877801.75, -42010.344, 0.0, 10.000206, 9.942854 
3.5050094e+3, 2.2465171e+2, -789516.6, -843130.7, 2.8554487, 0.00004773657, 0.00012908425, -789516.6, -51103.293, 0.0, 10.000206, 9.929812 
3.5050094e+3, 2.3458157e+2, -691084.4, -744953.44, 2.1706219, 0.000047651425, -0.00008131583, -691084.4, -49983.81, 0.0, 10.000206, 9.9294815 
3.5050094e+3, 2.4450451e+2, -602761.4, -667007.3, 2.6655521, 0.0000475831, 0.0000816886, -602761.4, -58905.54, 0.0, 10.000206, 9.91604 
3.5050094e+3, 2.5442067e+2, -504009.84, -568332.94, 1.9791528, 0.000047534853, -0.000100064666, -504009.84, -57332.41, 0.0, 10.000206, 9.91594 
3.5050094e+3, 2.6432973e+2, -415775.5, -490979.22, 2.2631822, 0.000047474226, 0.00014690342, -415775.5, -66207.02, 0.0, 10.000206, 9.901869 
3.5050094e+3, 2.7423218e+2, -316491.44, -391367.25, 1.5343735, 0.000047397767, -0.00019756846, -316491.44, -63966.684, 0.0, 10.000206, 9.902288 
3.5050094e+3, 2.8412637e+2, -230018.13, -318073.22, 1.6861964, 0.0000473484, 0.00023453578, -230018.13, -74456.47, 0.0, 10.000206, 9.885344 
3.5050094e+3, 2.9401276e+2, -130313.125, -217758.0, 0.99736196, 0.000047336125, -0.00024817334, -130313.125, -71638.12, 0.0, 10.000206, 9.886122 
3.5050094e+3, 3.039271e+2, -40573.844, -84749.48, 0.876445, 0.000047271085, 0.00017773398, -40573.844, -40573.844, 0.0, 10.000206, 9.942074 
3.5050094e+3, 3.1387106e+2, -39496.33, -82511.2, 0.11729486, 0.000047127407, -0.000051489264, -39496.33, -39496.33, 0.0, 10.000206, 9.943585 
3.5150102e+3, 1.2499568e+2, -1719691.3, -1724203.0, 0.7111662, 0.0000499118, 0.000038760583, -1719691.3, -4648.798, 0.0, 10.00021, 9.994228 
3.51501e+3, 1.3498981e+2, -1622313.4, -1627415.6, 0.063759565, 0.000049545466, -0.000084458705, -1622313.4, -5213.463, 0.0, 10.000209, 9.993445 
3.51501e+3, 1.449773e+2, -1534211.3, -1548123.9, 1.4644012, 0.000049304505, 0.000106075, -1534211.3, -14988.693, 0.0, 10.000209, 9.981768 
3.51501e+3, 1.5495907e+2, -1436485.5, -1450801.0, 0.8002905, 0.000049179627, -0.000046052697, -1436485.5, -15084.275, 0.0, 10.000208, 9.981236 
3.51501e+3, 1.649342e+2, -1348436.9, -1371934.4, 2.1318896, 0.000049047638, 0.00004974943, -1348436.9, -24792.025, 0.0, 10.000208, 9.969151 
3.51501e+3, 1.7490341e+2, -1250480.5, -1274293.5, 1.4983985, 0.000048908492, -0.0000639004, -1250480.5, -24533.752, 0.0, 10.000207, 9.968737 
3.51501e+3, 1.8486597e+2, -1162400.3, -1195703.9, 2.5947719, 0.000048833983, 0.000078427845, -1162400.3, -34086.633, 0.0, 10.000207, 9.956298 
3.51501e+3, 1.948223e+2, -1064251.9, -1097818.0, 1.9283553, 0.00004882698, -0.000048433, -1064251.9, -33510.406, 0.0, 10.000207, 9.9559555 
3.51501e+3, 2.0477197e+2, -976089.06, -1019421.3, 2.7878902, 0.00004874617, 0.00007597514, -976089.06, -42854.285, 0.0, 10.000206, 9.943193 
3.51501e+3, 2.147152e+2, -877803.25, -921397.3, 2.1132867, 0.000048585443, -0.000118379096, -877803.25, -42012.15, 0.0, 10.000206, 9.942852 
3.51501e+3, 2.2465174e+2, -789518.1, -843133.7, 2.8222995, 0.000048498467, 0.00012927581, -789518.1, -51105.113, 0.0, 10.000206, 9.929811 
3.51501e+3, 2.345816e+2, -691085.8, -744956.4, 2.1376336, 0.000048494916, -0.00008115803, -691085.8, -49985.59, 0.0, 10.000206, 9.92948 
3.51501e+3, 2.4450454e+2, -602762.9, -667010.3, 2.6514785, 0.000048481823, 0.00008183119, -602762.9, -58907.313, 0.0, 10.000206, 9.9160385 
3.51501e+3, 2.544207e+2, -504011.3, -568335.94, 1.9659606, 0.000048457223, -0.000099915065, -504011.3, -57334.145, 0.0, 10.000206, 9.915938 
3.51501e+3, 2.6432976e+2, -415777.06, -490982.38, 2.2538886, 0.00004838632, 0.00014703593, -415777.06, -66208.81, 0.0, 10.000206, 9.901867 
3.51501e+3, 2.7423218e+2, -316492.97, -391370.4, 1.5253501, 0.000048256497, -0.00019748377, -316492.97, -63968.44, 0.0, 10.000206, 9.902287 
3.51501e+3, 2.8412637e+2, -230019.6, -318076.25, 1.6662582, 0.000048192436, 0.00023462357, -230019.6, -74458.14, 0.0, 10.000206, 9.885342 
3.5150096e+3, 2.9401278e+2, -130314.58, -217761.02, 0.9763662, 0.000048218564, -0.0002480126, -130314.58, -71639.74, 0.0, 10.000206, 9.88612 
3.5150096e+3, 3.0392712e+2, -40575.402, -84752.73, 0.83216447, 0.000048203317, 0.00017789642, -40575.402, -40575.402, 0.0, 10.000206, 9.942072 
3.5150096e+3, 3.1387106e+2, -39497.902, -82514.484, 0.070273735, 0.00004812583, -0.00005143142, -39497.902, -39497.902, 0.0, 10.000206, 9.943583 
3.5250103e+3, 1.2499574e+2, -1719680.5, -1724199.3, 1.0065997, 0.000050649312, 0.00003915743, -1719680.5, -4638.6445, 0.0, 10.000217, 9.994226 
3.5250103e+3, 1.3498986e+2, -1622302.8, -1627412.0, 0.34609166, 0.000050367125, -0.00008481484, -1622302.8, -5203.2915, 0.0, 10.0002165, 9.9934435 
3.5250103e+3, 1.4497735e+2, -1534200.6, -1548120.1, 1.8754929, 0.000050155235, 0.000106872096, -1534200.6, -14978.438, 0.0, 10.000216, 9.981767 
3.5250103e+3, 1.5495911e+2, -1436474.8, -1450797.3, 1.246956, 0.00005000386, -0.000045978664, -1436474.8, -15073.909, 0.0, 10.000216, 9.981235 
3.5250103e+3, 1.6493425e+2, -1348426.0, -1371930.8, 2.6237822, 0.000049855462, 0.00004963189, -1348426.0, -24781.578, 0.0, 10.000216, 9.969149 
3.5250103e+3, 1.7490344e+2, -1250469.5, -1274289.9, 1.9139832, 0.0000497102, -0.000063667045, -1250469.5, -24523.154, 0.0, 10.000215, 9.968735 
3.52501e+3, 1.84866e+2, -1162389.1, -1195700.1, 3.0060368, 0.000049652095, 0.000078752506, -1162389.1, -34075.95, 0.0, 10.000215, 9.956297 
3.52501e+3, 1.9482234e+2, -1064240.9, -1097814.3, 2.343024, 0.000049685044, -0.000048288537, -1064240.9, -33499.734, 0.0, 10.000215, 9.955954 
3.52501e+3, 2.0477201e+2, -976078.0, -1019417.8, 3.256314, 0.000049623453, 0.0000760569, -976078.0, -42843.59, 0.0, 10.000215, 9.943192 
3.52501e+3, 2.1471524e+2, -877792.06, -921393.75, 2.5542824, 0.000049459515, -0.00011823283, -877792.06, -42001.3, 0.0, 10.000215, 9.94285 
3.52501e+3, 2.2465177e+2, -789506.9, -843130.1, 3.24005, 0.00004936676, 0.00012944931, -789506.9, -51094.137, 0.0, 10.000215, 9.929809 
3.52501e+3, 2.3458165e+2, -691074.4, -744952.8, 2.521946, 0.000049354545, -0.00008099954, -691074.4, -49974.453, 0.0, 10.000215, 9.929478 
3.52501e+3, 2.4450456e+2, -602751.3, -667006.75, 3.0081558, 0.00004934965, 0.0000819878, -602751.3, -58896.074, 0.0, 10.000215, 9.916037 
3.52501e+3, 2.5442073e+2, -503999.8, -568332.44, 2.2937918, 0.00004935339, -0.00009974463, -503999.8, -57322.887, 0.0, 10.000215, 9.915936 
3.52501e+3, 2.643298e+2, -415765.53, -490978.97, 2.5893037, 0.000049301238, 0.00014718216, -415765.53, -66197.516, 0.0, 10.000215, 9.901865 
3.5250098e+3, 2.742322e+2, -316481.3, -391366.97, 1.8689517, 0.00004917793, -0.00019741016, -316481.3, -63956.992, 0.0, 10.000215, 9.902285 
3.5250098e+3, 2.841264e+2, -230007.8, -318072.8, 1.9666699, 0.00004911778, 0.00023468483, -230007.8, -74446.55, 0.0, 10.000215, 9.88534 
3.5250098e+3, 2.9401278e+2, -130302.68, -217757.58, 1.1946192, 0.00004914434, -0.00024788102, -130302.68, -71628.03, 0.0, 10.000215, 9.886118 
3.5250098e+3, 3.0392712e+2, -40563.58, -84749.5, 0.95995176, 0.000049144754, 0.0001780397, -40563.58, -40563.58, 0.0, 10.000215, 9.94207 
3.5250098e+3, 3.138711e+2, -39486.008, -82511.24, 0.17687704, 0.000049105543, -0.00005136421, -39486.008, -39486.008, 0.0, 10.000215, 9.943581 
3.5350105e+3, 1.2499579e+2, -1719682.0, -1724202.1, 0.71974045, 0.000051427978, 0.000039708022, -1719682.0, -4640.669, 0.0, 10.000217, 9.994225 
3.5350105e+3, 1.3498992e+2, -1622304.3, -1627414.8, 0.059291072, 0.000051160674, -0.00008499365, -1622304.3, -5205.2856, 0.0, 10.0002165, 9.993442 
3.5350105e+3, 1.4497739e+2, -1534202.0, -1548122.8, 1.7154083, 0.000050980063, 0.00010778439, -1534202.0, -14980.345, 0.0, 10.000216, 9.981765 
3.5350105e+3, 1.5495916e+2, -1436476.1, -1450800.0, 1.0870826, 0.00005087625, -0.000046025758, -1436476.1, -15075.775, 0.0, 10.000216, 9.981233 
3.5350105e+3, 1.6493429e+2, -1348427.5, -1371933.8, 2.5334864, 0.000050727733, 0.000049344755, -1348427.5, -24783.604, 0.0, 10.000216, 9.969147 
3.5350102e+3, 1.7490348e+2, -1250471.0, -1274292.9, 1.8240077, 0.00005053369, -0.00006346011, -1250471.0, -24525.146, 0.0, 10.000215, 9.968733 
3.5350102e+3, 1.8486604e+2, -1162390.6, -1195703.0, 2.92906, 0.00005044937, 0.00007912184, -1162390.6, -34077.83, 0.0, 10.000215, 9.956295 
3.5350102e+3, 1.9482237e+2, -1064242.4, -1097817.1, 2.2661676, 0.0000504797, -0.000048103702, -1064242.4, -33501.574, 0.0, 10.000215, 9.955952 
3.5350102e+3, 2.0477206e+2, -976079.56, -1019420.8, 3.26449, 0.000050471015, 0.00007616129, -976079.56, -42845.504, 0.0, 10.000215, 9.94319 
3.5350102e+3, 2.1471527e+2, -877793.56, -921396.75, 2.5641558, 0.00005042008, -0.0001180962, -877793.56, -42003.18, 0.0, 10.000215, 9.942848 
3.5350102e+3, 2.2465181e+2, -789508.44, -843133.25, 3.257346, 0.000050341074, 0.00012960481, -789508.44, -51096.035, 0.0, 10.000215, 9.929807 
3.5350102e+3, 2.3458168e+2, -691075.94, -744955.94, 2.5394976, 0.000050230294, -0.00008084034, -691075.94, -49976.313, 0.0, 10.000215, 9.929476 
3.5350102e+3, 2.4450459e+2, -602752.9, -667009.9, 3.0126028, 0.000050186758, 0.00008215838, -602752.9, -58897.914, 0.0, 10.000215, 9.916035 
3.5350102e+3, 2.5442076e+2, -504001.34, -568335.5, 2.2975526, 0.000050223505, -0.00009955345, -504001.34, -57324.688, 0.0, 10.000215, 9.915935 
3.53501e+3, 2.6432982e+2, -415767.06, -490982.1, 2.6288104, 0.000050219016, 0.00014734206, -415767.06, -66199.305, 0.0, 10.000215, 9.901862 
3.53501e+3, 2.7423224e+2, -316482.8, -391370.1, 1.91081, 0.000050161852, -0.00019734757, -316482.8, -63958.746, 0.0, 10.000215, 9.902283 
3.53501e+3, 2.8412643e+2, -230009.42, -318076.16, 1.9909991, 0.000050124163, 0.00023471967, -230009.42, -74448.37, 0.0, 10.000215, 9.885337 
3.53501e+3, 2.940128e+2, -130304.28, -217760.89, 1.217386, 0.000050113333, -0.0002477785, -130304.28, -71629.82, 0.0, 10.000215, 9.886116 
3.53501e+3, 3.0392715e+2, -40565.18, -84752.836, 0.93972087, 0.0000500954, 0.00017816387, -40565.18, -40565.18, 0.0, 10.000215, 9.942067 
3.53501e+3, 3.138711e+2, -39487.613, -82514.586, 0.15153354, 0.00005006667, -0.000051287676, -39487.613, -39487.613, 0.0, 10.000215, 9.943579 
3.5450107e+3, 1.2499584e+2, -1719671.8, -1724198.5, 0.9008527, 0.000052336294, 0.000040225743, -1719671.8, -4630.824, 0.0, 10.000225, 9.994223 
3.5450107e+3, 1.3498996e+2, -1622293.5, -1627411.0, 0.2696149, 0.000051952095, -0.000085412095, -1622293.5, -5194.9746, 0.0, 10.000224, 9.99344 
3.5450107e+3, 1.4497744e+2, -1534190.9, -1548118.8, 2.0413227, 0.000051744344, 0.00010855751, -1534190.9, -14969.681, 0.0, 10.000224, 9.981763 
3.5450107e+3, 1.549592e+2, -1436464.9, -1450795.9, 1.4493984, 0.000051703417, -0.000045866705, -1436464.9, -15065.029, 0.0, 10.000223, 9.981232 
3.5450104e+3, 1.6493434e+2, -1348416.5, -1371930.3, 2.9638245, 0.00005160665, 0.00004929177, -1348416.5, -24773.053, 0.0, 10.000223, 9.969145 
3.5450104e+3, 1.7490353e+2, -1250460.0, -1274289.4, 2.2248304, 0.000051453007, -0.000063314765, -1250460.0, -24514.572, 0.0, 10.000223, 9.968731 
3.5450104e+3, 1.8486609e+2, -1162379.4, -1195699.3, 3.3609753, 0.000051344537, 0.00007933336, -1162379.4, -34066.938, 0.0, 10.000223, 9.956293 
3.5450104e+3, 1.9482242e+2, -1064230.6, -1097813.1, 2.6716404, 0.00005128323, -0.00004796427, -1064230.6, -33490.28, 0.0, 10.000223, 9.95595 
3.5450104e+3, 2.0477208e+2, -976067.8, -1019417.06, 3.6643252, 0.00005127098, 0.000076286575, -976067.8, -42834.14, 0.0, 10.000223, 9.943188 
3.5450104e+3, 2.147153e+2, -877781.94, -921393.06, 2.919369, 0.000051311796, -0.00011792232, -877781.94, -41991.89, 0.0, 10.000223, 9.942846 
3.5450104e+3, 2.2465184e+2, -789496.75, -843129.6, 3.6202755, 0.00005129063, 0.00012976739, -789496.75, -51084.723, 0.0, 10.000223, 9.929805 
3.5450104e+3, 2.3458171e+2, -691064.25, -744952.25, 2.9144292, 0.000051199288, -0.00008075684, -691064.25, -49964.92, 0.0, 10.000223, 9.929474 
3.5450104e+3, 2.4450463e+2, -602741.06, -667006.3, 3.3855245, 0.000051136427, 0.00008222429, -602741.06, -58886.387, 0.0, 10.000223, 9.916033 
3.5450104e+3, 2.544208e+2, -503989.2, -568331.8, 2.6114235, 0.00005110761, -0.000099431665, -503989.2, -57312.824, 0.0, 10.000224, 9.915933 
3.5450104e+3, 2.6432985e+2, -415754.78, -490978.38, 2.8795855, 0.000051106326, 0.00014749728, -415754.78, -66187.266, 0.0, 10.000224, 9.90186 
3.5450104e+3, 2.7423227e+2, -316470.6, -391366.44, 2.1146, 0.000051139945, -0.0001971876, -316470.6, -63946.758, 0.0, 10.000224, 9.902281 
3.5450104e+3, 2.8412643e+2, -229997.2, -318072.63, 2.1790736, 0.0000511535, 0.00023484786, -229997.2, -74436.37, 0.0, 10.000224, 9.885335 
3.5450104e+3, 2.940128e+2, -130291.95, -217757.36, 1.4171251, 0.00005113941, -0.00024773192, -130291.95, -71617.68, 0.0, 10.000224, 9.886114 
3.5450104e+3, 3.0392715e+2, -40552.83, -84749.49, 1.0904125, 0.00005109917, 0.00017819228, -40552.83, -40552.83, 0.0, 10.000224, 9.942065 
3.5450104e+3, 3.1387112e+2, -39474.92, -82511.086, 0.22617723, 0.000051020335, -0.000051182753, -39474.92, -39474.92, 0.0, 10.000225, 9.943576 
3.555011e+3, 1.24995895e+2, -1719673.1, -1724201.3, 0.7322706, 0.00005337373, 0.000040737374, -1719673.1, -4632.7905, 0.0, 10.000225, 9.994221 
3.555011e+3, 1.3499e+2, -1622294.9, -1627413.8, 0.10103991, 0.000052741434, -0.00008606922, -1622294.9, -5196.9097, 0.0, 10.000224, 9.993439 
3.555011e+3, 1.449775e+2, -1534192.3, -1548121.3, 1.9098723, 0.00005244838, 0.000109192064, -1534192.3, -14971.514, 0.0, 10.000224, 9.981761 
3.555011e+3, 1.5495926e+2, -1436466.3, -1450798.4, 1.3178009, 0.000052485586, -0.00004550236, -1436466.3, -15066.831, 0.0, 10.000223, 9.98123 
3.555011e+3, 1.6493438e+2, -1348418.3, -1371933.4, 2.8891, 0.000052492225, 0.00004947196, -1348418.3, -24775.16, 0.0, 10.000223, 9.969143 
3.555011e+3, 1.7490359e+2, -1250461.6, -1274292.5, 2.1504865, 0.00005246778, -0.000063230735, -1250461.6, -24516.64, 0.0, 10.000223, 9.968729 
3.555011e+3, 1.8486613e+2, -1162380.9, -1195702.3, 3.3903687, 0.000052337233, 0.00007938774, -1162380.9, -34068.883, 0.0, 10.000223, 9.956291 
3.555011e+3, 1.9482246e+2, -1064232.1, -1097816.1, 2.7021608, 0.000052095653, -0.00004787003, -1064232.1, -33492.19, 0.0, 10.000223, 9.955948 
3.555011e+3, 2.0477213e+2, -976069.44, -1019420.25, 3.6682458, 0.000052023595, 0.00007643268, -976069.44, -42836.16, 0.0, 10.000223, 9.943186 
3.555011e+3, 2.1471535e+2, -877783.56, -921396.3, 2.9227402, 0.000052134987, -0.00011771136, -877783.56, -41993.87, 0.0, 10.000223, 9.942844 
3.555011e+3, 2.2465187e+2, -789498.3, -843132.7, 3.6674178, 0.000052215568, 0.000129937, -789498.3, -51086.61, 0.0, 10.000223, 9.929803 
3.555011e+3, 2.3458174e+2, -691065.75, -744955.3, 2.962962, 0.000052261184, -0.00008074872, -691065.75, -49966.77, 0.0, 10.000223, 9.929471 
3.5550106e+3, 2.4450466e+2, -602742.75, -667009.6, 3.4835587, 0.000052198244, 0.00008218595, -602742.75, -58888.348, 0.0, 10.000223, 9.91603 
3.5550106e+3, 2.5442082e+2, -503990.84, -568335.2, 2.7118132, 0.000052005707, -0.000099378994, -503990.84, -57314.75, 0.0, 10.000224, 9.91593 
3.5550106e+3, 2.6432985e+2, -415756.4, -490981.72, 2.9247947, 0.00005196334, 0.00014764786, -415756.4, -66189.16, 0.0, 10.000224, 9.901858 
3.5550106e+3, 2.742323e+2, -316472.22, -391369.75, 2.1560585, 0.000052112275, -0.00019693066, -316472.22, -63948.605, 0.0, 10.000224, 9.902278 
3.5550106e+3, 2.8412646e+2, -229998.81, -318075.94, 2.2495997, 0.000052205738, 0.000235069, -229998.81, -74438.19, 0.0, 10.000224, 9.885333 
3.5550106e+3, 2.9401284e+2, -130293.53, -217760.63, 1.4902631, 0.00005222239, -0.00024774112, -130293.53, -71619.445, 0.0, 10.000224, 9.886111 
3.5550106e+3, 3.0392718e+2, -40554.55, -84753.08, 1.1572045, 0.00005215589, 0.00017812528, -40554.55, -40554.55, 0.0, 10.000224, 9.942062 
3.5550106e+3, 3.1387112e+2, -39476.664, -82514.72, 0.29216626, 0.000051966632, -0.000051049563, -39476.664, -39476.664, 0.0, 10.000225, 9.943574 
3.5650113e+3, 1.2499595e+2, -1719662.4, -1724197.4, 1.2244028, 0.000054151642, 0.000040968705, -1719662.4, -4622.5063, 0.0, 10.000232, 9.99422 
3.5650113e+3, 1.3499007e+2, -1622283.9, -1627409.9, 0.5685428, 0.000053550593, -0.000086888824, -1622283.9, -5186.388, 0.0, 10.000232, 9.993437 
3.5650113e+3, 1.4497754e+2, -1534181.1, -1548117.5, 2.3080273, 0.00005328538, 0.00010978788, -1534181.1, -14960.861, 0.0, 10.000232, 9.981759 
3.5650113e+3, 1.549593e+2, -1436454.9, -1450794.5, 1.5296326, 0.000053346812, -0.000045113153, -1436454.9, -15055.961, 0.0, 10.000232, 9.981228 
3.565011e+3, 1.6493443e+2, -1348406.8, -1371929.5, 3.0979843, 0.000053362543, 0.00004967738, -1348406.8, -24764.13, 0.0, 10.000232, 9.969141 
3.565011e+3, 1.7490363e+2, -1250450.0, -1274288.6, 2.4431202, 0.00005333176, -0.0000631856, -1250450.0, -24505.467, 0.0, 10.000232, 9.968727 
3.565011e+3, 1.8486618e+2, -1162369.3, -1195698.4, 3.7975786, 0.000053222968, 0.000079417216, -1162369.3, -34057.633, 0.0, 10.000232, 9.956289 
3.565011e+3, 1.9482249e+2, -1064220.4, -1097812.3, 3.0583334, 0.000053032527, -0.000047705067, -1064220.4, -33480.86, 0.0, 10.000232, 9.955946 
3.565011e+3, 2.0477216e+2, -976057.6, -1019416.5, 3.9925683, 0.000052968, 0.00007662317, -976057.6, -42824.727, 0.0, 10.000232, 9.943184 
3.565011e+3, 2.1471538e+2, -877771.5, -921392.44, 3.2399967, 0.000053039726, -0.00011761436, -877771.5, -41982.156, 0.0, 10.000232, 9.9428425 
3.565011e+3, 2.246519e+2, -789486.0, -843128.7, 3.9901018, 0.000053111886, 0.00013001512, -789486.0, -51074.637, 0.0, 10.000232, 9.929801 
3.5650107e+3, 2.3458177e+2, -691053.4, -744951.3, 3.2503948, 0.00005318444, -0.00008060502, -691053.4, -49954.676, 0.0, 10.000233, 9.929469 
3.5650107e+3, 2.4450469e+2, -602730.4, -667005.9, 3.7860417, 0.000053163665, 0.00008231748, -602730.4, -58876.27, 0.0, 10.000233, 9.916028 
3.5650107e+3, 2.5442085e+2, -503978.44, -568331.44, 2.9973602, 0.00005303144, -0.00009935256, -503978.44, -57302.613, 0.0, 10.000233, 9.915928 
3.5650107e+3, 2.6432988e+2, -415743.88, -490978.03, 3.1453657, 0.0000530005, 0.00014766335, -415743.88, -66176.875, 0.0, 10.000234, 9.901856 
3.5650107e+3, 2.742323e+2, -316459.44, -391365.97, 2.314668, 0.000053098644, -0.00019680613, -316459.44, -63936.04, 0.0, 10.000234, 9.902276 
3.5650107e+3, 2.841265e+2, -229985.75, -318072.0, 2.3761184, 0.00005317916, 0.00023522037, -229985.75, -74425.34, 0.0, 10.000234, 9.885331 
3.5650107e+3, 2.9401287e+2, -130280.41, -217756.69, 1.6059536, 0.000053234933, -0.00024767593, -130280.41, -71606.516, 0.0, 10.000235, 9.886109 
3.5650107e+3, 3.0392718e+2, -40541.63, -84749.63, 1.2366246, 0.00005321024, 0.00017813273, -40541.63, -40541.63, 0.0, 10.000235, 9.94206 
3.5650107e+3, 3.1387115e+2, -39463.61, -82511.25, 0.30973807, 0.00005306626, -0.000051056504, -39463.61, -39463.61, 0.0, 10.000235, 9.943571 
3.5750115e+3, 1.24996e+2, -1719663.9, -1724200.3, 1.1208414, 0.000054671204, 0.00004094839, -1719663.9, -4624.542, 0.0, 10.000232, 9.994218 
3.5750115e+3, 1.3499011e+2, -1622285.4, -1627412.6, 0.46498787, 0.000054379532, -0.00008787017, -1622285.4, -5188.395, 0.0, 10.000232, 9.993435 
3.5750115e+3, 1.4497758e+2, -1534182.9, -1548120.9, 2.236543, 0.000054254808, 0.000110345165, -1534182.9, -14963.13, 0.0, 10.000232, 9.981757 
3.5750112e+3, 1.5495935e+2, -1436456.6, -1450797.9, 1.4582306, 0.000054286793, -0.000044699198, -1436456.6, -15058.1875, 0.0, 10.000232, 9.981226 
3.5750112e+3, 1.6493449e+2, -1348408.3, -1371932.3, 3.0683746, 0.000054217715, 0.000049907896, -1348408.3, -24766.063, 0.0, 10.000232, 9.969139 
3.5750112e+3, 1.7490368e+2, -1250451.5, -1274291.4, 2.4136825, 0.000054045635, -0.00006317919, -1250451.5, -24507.361, 0.0, 10.000232, 9.968726 
3.5750112e+3, 1.848662e+2, -1162370.9, -1195701.5, 3.8572521, 0.00005400226, 0.0000794219, -1162370.9, -34059.7, 0.0, 10.000232, 9.956287 
3.5750112e+3, 1.9482253e+2, -1064222.0, -1097815.5, 3.118928, 0.000054093365, -0.000047469686, -1064222.0, -33482.89, 0.0, 10.000232, 9.955944 
3.5750112e+3, 2.047722e+2, -976059.3, -1019419.75, 4.0754366, 0.000054103417, 0.00007685784, -976059.3, -42826.77, 0.0, 10.000232, 9.943181 
3.5750112e+3, 2.1471542e+2, -877773.1, -921395.7, 3.32336, 0.000054025717, -0.00011763085, -877773.1, -41984.156, 0.0, 10.000232, 9.942841 
3.575011e+3, 2.2465195e+2, -789487.6, -843131.94, 4.0804863, 0.00005397976, 0.00013000215, -789487.6, -51076.6, 0.0, 10.000232, 9.929798 
3.575011e+3, 2.345818e+2, -691054.94, -744954.5, 3.3408723, 0.000053969692, -0.0000803263, -691054.94, -49956.6, 0.0, 10.000233, 9.929467 
3.575011e+3, 2.4450472e+2, -602732.06, -667009.3, 3.9126127, 0.00005403315, 0.00008261816, -602732.06, -58878.277, 0.0, 10.000233, 9.916026 
3.575011e+3, 2.5442088e+2, -503980.13, -568334.9, 3.1257372, 0.00005418432, -0.00009935225, -503980.13, -57304.582, 0.0, 10.000233, 9.915926 
3.575011e+3, 2.6432994e+2, -415745.63, -490981.6, 3.2720442, 0.000054217096, 0.00014754433, -415745.63, -66178.88, 0.0, 10.000234, 9.901854 
3.575011e+3, 2.7423233e+2, -316461.16, -391369.53, 2.4411967, 0.00005409904, -0.00019681343, -316461.16, -63938.004, 0.0, 10.000234, 9.902274 
3.575011e+3, 2.8412652e+2, -229987.39, -318075.34, 2.4882717, 0.000054074153, 0.00023530227, -229987.39, -74427.19, 0.0, 10.000234, 9.885328 
3.575011e+3, 2.9401287e+2, -130282.0, -217760.02, 1.7166913, 0.000054177395, -0.0002475367, -130282.0, -71608.305, 0.0, 10.000235, 9.886107 
3.575011e+3, 3.039272e+2, -40543.453, -84753.44, 1.3443886, 0.00005426228, 0.0001782143, -40543.453, -40543.453, 0.0, 10.000235, 9.942058 
3.575011e+3, 3.1387115e+2, -39465.465, -82515.11, 0.41724673, 0.000054318636, -0.000051203, -39465.465, -39465.465, 0.0, 10.000235, 9.943568 
3.5850117e+3, 1.2499606e+2, -1719652.3, -1724196.0, 1.3214487, 0.00005515125, 0.00004123315, -1719652.3, -4613.4478, 0.0, 10.00024, 9.994216 
3.5850117e+3, 1.3499016e+2, -1622274.1, -1627408.6, 0.6267714, 0.000055212808, -0.00008845846, -1622274.1, -5177.6006, 0.0, 10.00024, 9.993433 
3.5850117e+3, 1.4497764e+2, -1534171.8, -1548117.3, 2.4925942, 0.000055243974, 0.0001111079, -1534171.8, -14952.551, 0.0, 10.000239, 9.981755 
3.5850114e+3, 1.549594e+2, -1436445.4, -1450794.3, 1.7496418, 0.00005523334, -0.000044601577, -1436445.4, -15047.352, 0.0, 10.000239, 9.981224 
3.5850114e+3, 1.6493453e+2, -1348396.4, -1371928.1, 3.4339507, 0.0000550922, 0.000049742295, -1348396.4, -24754.648, 0.0, 10.000239, 9.969137 
3.5850114e+3, 1.7490372e+2, -1250439.1, -1274287.0, 2.7430983, 0.00005481802, -0.00006319782, -1250439.1, -24495.443, 0.0, 10.00024, 9.968724 
3.5850114e+3, 1.8486625e+2, -1162358.6, -1195697.6, 4.1317253, 0.000054809705, 0.00007954387, -1162358.6, -34047.863, 0.0, 10.00024, 9.9562845 
3.5850114e+3, 1.9482258e+2, -1064210.0, -1097811.6, 3.3099062, 0.00005507928, -0.000047213893, -1064210.0, -33471.27, 0.0, 10.00024, 9.955942 
3.5850114e+3, 2.0477223e+2, -976047.2, -1019415.9, 4.319168, 0.00005515646, 0.000077052566, -976047.2, -42815.03, 0.0, 10.00024, 9.943179 
3.5850114e+3, 2.1471545e+2, -877760.75, -921391.6, 3.5993452, 0.00005502538, -0.00011770806, -877760.75, -41972.133, 0.0, 10.000241, 9.942839 
3.5850114e+3, 2.2465198e+2, -789475.06, -843128.06, 4.333578, 0.00005492696, 0.00012991457, -789475.06, -51064.395, 0.0, 10.000241, 9.929796 
3.5850114e+3, 2.3458183e+2, -691042.06, -744950.5, 3.46872, 0.000054865533, -0.000080128295, -691042.06, -49944.02, 0.0, 10.000242, 9.929465 
3.5850114e+3, 2.4450475e+2, -602718.94, -667005.2, 3.9752276, 0.00005496363, 0.00008288233, -602718.94, -58865.47, 0.0, 10.000242, 9.916023 
3.5850114e+3, 2.544209e+2, -503967.16, -568330.8, 3.2497761, 0.000055252116, -0.00009928417, -503967.16, -57291.91, 0.0, 10.000242, 9.915924 
3.5850114e+3, 2.6432997e+2, -415732.72, -490977.84, 3.4791827, 0.00005533267, 0.00014748074, -415732.72, -66166.26, 0.0, 10.000243, 9.901852 
3.5850114e+3, 2.7423236e+2, -316447.9, -391365.66, 2.617771, 0.000055148274, -0.00019692615, -316447.9, -63924.984, 0.0, 10.000243, 9.902271 
3.5850114e+3, 2.8412652e+2, -229973.81, -318071.34, 2.5525737, 0.000055083015, 0.00023525626, -229973.81, -74413.82, 0.0, 10.000244, 9.885326 
3.5850114e+3, 2.940129e+2, -130268.28, -217755.98, 1.6569141, 0.00005518196, -0.00024735794, -130268.28, -71594.77, 0.0, 10.000245, 9.886105 
3.5850114e+3, 3.039272e+2, -40529.84, -84749.66, 1.218286, 0.000055319284, 0.00017839375, -40529.84, -40529.84, 0.0, 10.000245, 9.942055 
3.5850114e+3, 3.1387115e+2, -39451.855, -82511.35, 0.36402956, 0.000055511915, -0.00005135689, -39451.855, -39451.855, 0.0, 10.000245, 9.943566 
3.5950118e+3, 1.2499611e+2, -1719653.8, -1724199.0, 1.1584593, 0.000055591998, 0.000041858497, -1719653.8, -4615.5864, 0.0, 10.00024, 9.994214 
3.5950118e+3, 1.3499022e+2, -1622275.6, -1627411.6, 0.46385032, 0.000056050445, -0.000088655535, -1622275.6, -5179.7085, 0.0, 10.00024, 9.993431 
3.5950118e+3, 1.4497769e+2, -1534173.4, -1548120.5, 2.4885824, 0.00005625283, 0.00011207514, -1534173.4, -14954.749, 0.0, 10.000239, 9.981753 
3.5950118e+3, 1.5495944e+2, -1436447.0, -1450797.4, 1.7460409, 0.000056186458, -0.000044818844, -1436447.0, -15049.502, 0.0, 10.000239, 9.981222 
3.5950118e+3, 1.6493459e+2, -1348397.9, -1371931.1, 3.5357425, 0.00005598595, 0.00004918237, -1348397.9, -24756.664, 0.0, 10.000239, 9.969136 
3.5950118e+3, 1.7490377e+2, -1250440.6, -1274289.9, 2.8452895, 0.00005564871, -0.00006324135, -1250440.6, -24497.426, 0.0, 10.00024, 9.968722 
3.5950118e+3, 1.8486631e+2, -1162360.4, -1195701.1, 4.1528764, 0.00005564524, 0.00007978259, -1162360.4, -34050.117, 0.0, 10.00024, 9.956283 
3.5950118e+3, 1.9482264e+2, -1064211.9, -1097815.1, 3.3301394, 0.000055990648, -0.00004693778, -1064211.9, -33473.48, 0.0, 10.00024, 9.955939 
3.5950118e+3, 2.0477228e+2, -976048.75, -1019419.0, 4.4792657, 0.000056127526, 0.000077207544, -976048.75, -42817.01, 0.0, 10.00024, 9.943177 
3.5950118e+3, 2.1471548e+2, -877762.3, -921394.75, 3.7622893, 0.00005603869, -0.00011784573, -877762.3, -41974.074, 0.0, 10.000241, 9.942837 
3.5950115e+3, 2.24652e+2, -789476.94, -843131.75, 4.528362, 0.000055953195, 0.0001297527, -789476.94, -51066.61, 0.0, 10.000241, 9.929794 
3.5950115e+3, 2.3458186e+2, -691043.94, -744954.25, 3.6645417, 0.000055871536, -0.00008001066, -691043.94, -49946.2, 0.0, 10.000242, 9.929462 
3.5950115e+3, 2.4450478e+2, -602720.56, -667008.4, 4.085113, 0.0000559549, 0.00008311016, -602720.56, -58867.363, 0.0, 10.000242, 9.916021 
3.5950115e+3, 2.5442094e+2, -503968.72, -568334.0, 3.3554056, 0.000056235247, -0.00009914861, -503968.72, -57293.754, 0.0, 10.000242, 9.915921 
3.5950115e+3, 2.6433e+2, -415734.53, -490981.53, 3.7124286, 0.000056347722, 0.00014747234, -415734.53, -66168.32, 0.0, 10.000243, 9.901849 
3.5950115e+3, 2.742324e+2, -316449.7, -391369.34, 2.8595946, 0.000056246176, -0.00019714382, -316449.7, -63927.016, 0.0, 10.000243, 9.902268 
3.5950115e+3, 2.8412655e+2, -229975.66, -318075.16, 2.7265565, 0.00005620531, 0.00023508289, -229975.66, -74415.88, 0.0, 10.000244, 9.885324 
3.5950115e+3, 2.9401293e+2, -130270.11, -217759.78, 1.8247417, 0.00005624843, -0.00024713986, -130270.11, -71596.79, 0.0, 10.000245, 9.886103 
3.5950115e+3, 3.0392724e+2, -40531.56, -84753.234, 1.3333697, 0.000056381286, 0.00017867064, -40531.56, -40531.56, 0.0, 10.000245, 9.942053 
3.5950115e+3, 3.1387118e+2, -39453.566, -82514.914, 0.47285056, 0.000056646415, -0.00005151814, -39453.566, -39453.566, 0.0, 10.000245, 9.943563 
3.6050123e+3, 1.2499617e+2, -1719643.0, -1724195.4, 0.9625226, 0.000056483008, 0.000042394575, -1719643.0, -4605.3877, 0.0, 10.000248, 9.994212 
3.6050123e+3, 1.3499026e+2, -1622264.3, -1627407.6, 0.29075044, 0.00005688231, -0.00008896833, -1622264.3, -5168.821, 0.0, 10.000248, 9.993429 
3.6050123e+3, 1.4497775e+2, -1534161.5, -1548116.1, 2.5164397, 0.00005704653, 0.00011299664, -1534161.5, -14943.333, 0.0, 10.000248, 9.981751 
3.605012e+3, 1.549595e+2, -1436434.8, -1450793.0, 1.9309679, 0.000056962956, -0.00004497049, -1436434.8, -15037.802, 0.0, 10.000248, 9.98122 
3.605012e+3, 1.6493464e+2, -1348385.9, -1371927.0, 3.800596, 0.000056851997, 0.000048768317, -1348385.9, -24745.07, 0.0, 10.000248, 9.969133 
3.605012e+3, 1.7490381e+2, -1250428.8, -1274286.0, 2.9965267, 0.000056713223, -0.00006309055, -1250428.8, -24485.973, 0.0, 10.000249, 9.96872 
3.605012e+3, 1.8486635e+2, -1162348.4, -1195697.4, 4.2692323, 0.00005671996, 0.000080100435, -1162348.4, -34038.53, 0.0, 10.000249, 9.956281 
3.605012e+3, 1.9482267e+2, -1064199.1, -1097811.1, 3.4449818, 0.00005687875, -0.000046868863, -1064199.1, -33461.15, 0.0, 10.00025, 9.955937 
3.605012e+3, 2.0477232e+2, -976035.44, -1019414.44, 4.6356387, 0.00005695223, 0.00007718374, -976035.44, -42804.105, 0.0, 10.00025, 9.943175 
3.605012e+3, 2.1471553e+2, -877749.06, -921390.25, 3.9018652, 0.000056933353, -0.00011779314, -877749.06, -41961.18, 0.0, 10.000251, 9.942835 
3.6050117e+3, 2.2465205e+2, -789464.06, -843127.94, 4.672975, 0.000056952893, 0.0001298013, -789464.06, -51054.066, 0.0, 10.000251, 9.929791 
3.6050117e+3, 2.345819e+2, -691031.2, -744950.56, 3.8086636, 0.000057015888, -0.000080057085, -691031.2, -49933.813, 0.0, 10.000252, 9.929461 
3.6050117e+3, 2.4450481e+2, -602707.5, -667004.3, 4.185655, 0.000057088102, 0.00008307519, -602707.44, -58854.59, 0.0, 10.000252, 9.916019 
3.6050117e+3, 2.5442097e+2, -503954.97, -568329.6, 3.3281462, 0.000057171263, -0.0000990449, -503954.97, -57280.28, 0.0, 10.000253, 9.915919 
3.6050117e+3, 2.6433003e+2, -415720.56, -490977.28, 3.6540532, 0.00005725342, 0.0001475773, -415720.56, -66154.6, 0.0, 10.000254, 9.901847 
3.6050117e+3, 2.742324e+2, -316435.9, -391365.22, 2.828638, 0.00005733426, -0.00019721275, -316435.9, -63913.44, 0.0, 10.000254, 9.9022665 
3.6050117e+3, 2.8412658e+2, -229961.97, -318071.34, 2.6611784, 0.000057388694, 0.00023495588, -229961.97, -74402.39, 0.0, 10.000255, 9.885322 
3.6050117e+3, 2.9401293e+2, -130256.25, -217755.92, 1.709004, 0.000057407004, -0.0002471657, -130256.25, -71583.11, 0.0, 10.000256, 9.8861 
3.6050117e+3, 3.0392727e+2, -40517.402, -84749.22, 1.1474578, 0.000057483936, 0.00017868534, -40517.402, -40517.402, 0.0, 10.000256, 9.94205 
3.6050117e+3, 3.1387118e+2, -39438.81, -82510.6, 0.20659018, 0.000057648056, -0.00005155431, -39438.81, -39438.81, 0.0, 10.000257, 9.943561 
3.6150125e+3, 1.2499622e+2, -1719644.6, -1724198.3, 0.970878, 0.00005782213, 0.000042881227, -1719644.6, -4607.4688, 0.0, 10.000248, 9.99421 
3.6150125e+3, 1.3499032e+2, -1622265.8, -1627410.5, 0.29913282, 0.000057708465, -0.00008939633, -1622265.8, -5170.871, 0.0, 10.000248, 9.993427 
3.6150125e+3, 1.449778e+2, -1534162.9, -1548118.8, 2.5890965, 0.000057626155, 0.00011387262, -1534162.9, -14945.175, 0.0, 10.000248, 9.9817505 
3.6150122e+3, 1.5495954e+2, -1436436.1, -1450795.5, 2.0034935, 0.000057563724, -0.00004505682, -1436436.1, -15039.607, 0.0, 10.000248, 9.981218 
3.6150122e+3, 1.6493468e+2, -1348387.6, -1371930.5, 3.880878, 0.00005769053, 0.000048499445, -1348387.6, -24747.342, 0.0, 10.000248, 9.969131 
3.6150122e+3, 1.7490385e+2, -1250430.5, -1274289.4, 3.0767925, 0.000058010486, -0.00006274635, -1250430.5, -24488.207, 0.0, 10.000249, 9.968718 
3.6150122e+3, 1.848664e+2, -1162350.3, -1195700.9, 4.478429, 0.00005803277, 0.00008049702, -1162350.3, -34040.79, 0.0, 10.000249, 9.956278 
3.6150122e+3, 1.9482271e+2, -1064200.9, -1097814.6, 3.6557593, 0.000057743753, -0.00004700619, -1064200.9, -33463.36, 0.0, 10.00025, 9.9559355 
3.6150122e+3, 2.0477235e+2, -976037.1, -1019417.6, 4.808982, 0.00005763132, 0.00007698198, -976037.1, -42806.12, 0.0, 10.00025, 9.943173 
3.6150122e+3, 2.1471556e+2, -877750.7, -921393.44, 4.074237, 0.000057709985, -0.000117551164, -877750.7, -41963.156, 0.0, 10.000251, 9.942832 
3.6150122e+3, 2.2465208e+2, -789465.94, -843131.6, 4.843627, 0.00005792623, 0.00013005937, -789465.94, -51056.29, 0.0, 10.000251, 9.92979 
3.615012e+3, 2.3458193e+2, -691033.06, -744954.25, 3.979316, 0.00005829799, -0.00008026683, -691033.06, -49935.992, 0.0, 10.000252, 9.929458 
3.615012e+3, 2.4450484e+2, -602709.3, -667008.0, 4.4730215, 0.00005836262, 0.000082778635, -602709.3, -58856.727, 0.0, 10.000252, 9.916017 
3.615012e+3, 2.5442097e+2, -503956.78, -568333.3, 3.6210666, 0.000058060443, -0.000098972894, -503956.78, -57282.37, 0.0, 10.000253, 9.915917 
3.615012e+3, 2.6433006e+2, -415722.34, -490980.88, 3.8809187, 0.000058050344, 0.00014779507, -415722.34, -66156.63, 0.0, 10.000254, 9.901844 
3.615012e+3, 2.7423242e+2, -316437.63, -391368.8, 3.0510283, 0.00005841262, -0.00019713363, -316437.63, -63915.418, 0.0, 10.000254, 9.902265 
3.615012e+3, 2.8412658e+2, -229963.89, -318075.3, 2.8948667, 0.00005863294, 0.00023487503, -229963.89, -74404.52, 0.0, 10.000255, 9.885319 
3.615012e+3, 2.9401296e+2, -130258.164, -217759.9, 1.9437522, 0.00005865732, -0.00024743436, -130258.164, -71585.2, 0.0, 10.000256, 9.886097 
3.615012e+3, 3.0392727e+2, -40519.26, -84753.1, 1.4076514, 0.000058627105, 0.00017843902, -40519.26, -40519.26, 0.0, 10.000256, 9.942047 
3.615012e+3, 3.138712e+2, -39440.668, -82514.47, 0.4696235, 0.000058517533, -0.000051465995, -39440.668, -39440.668, 0.0, 10.000257, 9.943559 
3.6250126e+3, 1.24996275e+2, -1719633.8, -1724194.5, 1.3248485, 0.000058864644, 0.00004300821, -1719633.8, -4597.219, 0.0, 10.000256, 9.994208 
3.6250126e+3, 1.3499036e+2, -1622254.3, -1627406.5, 0.6181979, 0.000058566846, -0.000090325964, -1622254.3, -5159.8345, 0.0, 10.000256, 9.993425 
3.6250126e+3, 1.4497784e+2, -1534150.8, -1548114.4, 2.8095775, 0.000058407488, 0.00011440913, -1534150.8, -14933.568, 0.0, 10.000257, 9.981749 
3.6250123e+3, 1.5495959e+2, -1436423.8, -1450791.0, 2.046544, 0.000058375557, -0.000045058503, -1436423.8, -15027.71, 0.0, 10.000257, 9.981216 
3.6250123e+3, 1.6493472e+2, -1348375.3, -1371926.6, 3.8159485, 0.000058570815, 0.000048413473, -1348375.3, -24735.502, 0.0, 10.0002575, 9.96913 
3.6250123e+3, 1.749039e+2, -1250418.0, -1274285.4, 2.9631016, 0.000058997943, -0.00006245336, -1250418.0, -24476.1, 0.0, 10.0002575, 9.968716 
3.6250123e+3, 1.8486644e+2, -1162337.4, -1195696.6, 4.4975963, 0.00005905025, 0.00008074049, -1162337.4, -34028.367, 0.0, 10.000258, 9.956276 
3.6250123e+3, 1.9482276e+2, -1064187.9, -1097810.4, 3.7671704, 0.0000587106, -0.000047260302, -1064187.9, -33450.793, 0.0, 10.000258, 9.955933 
3.6250123e+3, 2.047724e+2, -976024.06, -1019413.5, 4.8633013, 0.000058588328, 0.00007670497, -976024.06, -42793.45, 0.0, 10.000259, 9.9431715 
3.6250123e+3, 2.147156e+2, -877737.4, -921389.2, 3.9545197, 0.00005870131, -0.00011733734, -877737.4, -41950.22, 0.0, 10.00026, 9.94283 
3.6250123e+3, 2.2465211e+2, -789452.44, -843127.44, 4.648267, 0.000058929847, 0.00013035658, -789452.44, -51043.117, 0.0, 10.000261, 9.929787 
3.6250123e+3, 2.3458198e+2, -691019.3, -744949.94, 3.8207724, 0.000059288974, -0.00008034734, -691019.3, -49922.535, 0.0, 10.000261, 9.929456 
3.6250123e+3, 2.4450487e+2, -602695.44, -667003.8, 4.402125, 0.00005936472, 0.00008256487, -602695.44, -58843.16, 0.0, 10.000262, 9.916015 
3.6250123e+3, 2.54421e+2, -503942.97, -568329.1, 3.5212183, 0.000059102025, -0.000099027624, -503942.97, -57268.81, 0.0, 10.000263, 9.915915 
3.6250123e+3, 2.6433006e+2, -415708.4, -490976.7, 3.6970413, 0.000059137787, 0.0001478201, -415708.4, -66142.94, 0.0, 10.000264, 9.901842 
3.6250123e+3, 2.7423245e+2, -316423.5, -391364.56, 2.8096867, 0.000059553975, -0.00019713036, -316423.5, -63901.51, 0.0, 10.000265, 9.902262 
3.6250123e+3, 2.841266e+2, -229949.6, -318071.22, 2.6641781, 0.00005978105, 0.00023478089, -229949.6, -74390.42, 0.0, 10.000265, 9.885316 
3.6250123e+3, 2.9401296e+2, -130243.516, -217755.7, 1.7436452, 0.000059747654, -0.00024772892, -130243.516, -71570.72, 0.0, 10.000266, 9.886094 
3.6250123e+3, 3.039273e+2, -40504.43, -84749.03, 1.2052625, 0.000059674025, 0.00017817535, -40504.43, -40504.43, 0.0, 10.000267, 9.942045 
3.6250123e+3, 3.138712e+2, -39425.39, -82510.21, 0.14234242, 0.000059542985, -0.000051354502, -39425.39, -39425.39, 0.0, 10.000268, 9.943556 
3.6350128e+3, 1.2499633e+2, -1719635.4, -1724197.5, 1.5261681, 0.000059612055, 0.000042826232, -1719635.4, -4599.383, 0.0, 10.000256, 9.994206 
3.6350128e+3, 1.3499044e+2, -1622255.9, -1627409.5, 0.8195743, 0.000059457343, -0.00009175477, -1622255.9, -5161.966, 0.0, 10.000256, 9.993423 
3.6350128e+3, 1.4497791e+2, -1534152.5, -1548117.6, 2.9607456, 0.00005938959, 0.00011460789, -1534152.5, -14935.8125, 0.0, 10.000257, 9.981747 
3.6350128e+3, 1.5495963e+2, -1436425.5, -1450794.3, 2.1975715, 0.00005939747, -0.00004497596, -1436425.5, -15029.912, 0.0, 10.000257, 9.981215 
3.6350128e+3, 1.6493477e+2, -1348377.3, -1371930.3, 3.9714043, 0.000059492697, 0.000048509468, -1348377.3, -24737.879, 0.0, 10.0002575, 9.969127 
3.6350128e+3, 1.7490394e+2, -1250419.9, -1274289.0, 3.118648, 0.000059677153, -0.00006221135, -1250419.9, -24478.434, 0.0, 10.0002575, 9.968714 
3.6350128e+3, 1.8486649e+2, -1162339.0, -1195699.9, 4.752229, 0.000059773898, 0.00008083158, -1162339.0, -34030.42, 0.0, 10.000258, 9.956274 
3.6350128e+3, 1.9482279e+2, -1064189.5, -1097813.5, 4.022821, 0.000059778853, -0.000047630623, -1064189.5, -33452.81, 0.0, 10.000258, 9.955931 
3.6350128e+3, 2.0477243e+2, -976026.06, -1019417.4, 5.1145787, 0.000059821956, 0.00007635307, -976026.06, -42795.82, 0.0, 10.000259, 9.943169 
3.6350128e+3, 2.1471563e+2, -877739.3, -921393.06, 4.2056766, 0.000059906335, -0.000117151554, -877739.3, -41952.547, 0.0, 10.00026, 9.942827 
3.6350128e+3, 2.2465214e+2, -789454.25, -843131.06, 4.9017158, 0.000059963655, 0.00013069269, -789454.25, -51045.266, 0.0, 10.000261, 9.929785 
3.6350128e+3, 2.34582e+2, -691021.06, -744953.5, 4.0742445, 0.000059990318, -0.00008029926, -691021.06, -49924.633, 0.0, 10.000261, 9.929453 
3.6350125e+3, 2.445049e+2, -602697.4, -667007.6, 4.7060337, 0.000060095786, 0.00008243346, -602697.4, -58845.348, 0.0, 10.000262, 9.916012 
3.6350125e+3, 2.5442103e+2, -503944.84, -568332.94, 3.8275099, 0.00006029534, -0.00009920849, -503944.84, -57270.953, 0.0, 10.000263, 9.915912 
3.6350125e+3, 2.643301e+2, -415710.28, -490980.53, 3.988725, 0.00006051441, 0.0001476533, -415710.28, -66145.055, 0.0, 10.000264, 9.901839 
3.6350125e+3, 2.7423248e+2, -316425.38, -391368.38, 3.100377, 0.000060758077, -0.00019720258, -316425.38, -63903.582, 0.0, 10.000265, 9.902259 
3.6350125e+3, 2.8412664e+2, -229951.47, -318075.1, 3.00841, 0.000060833554, 0.00023467354, -229951.47, -74392.5, 0.0, 10.000265, 9.885313 
3.6350125e+3, 2.94013e+2, -130245.375, -217759.56, 2.092606, 0.000060678834, -0.00024804924, -130245.375, -71572.75, 0.0, 10.000266, 9.886092 
3.6350125e+3, 3.039273e+2, -40506.5, -84753.35, 1.583431, 0.00006062523, 0.00017789438, -40506.5, -40506.5, 0.0, 10.000267, 9.942041 
3.6350125e+3, 3.1387123e+2, -39427.49, -82514.586, 0.52380955, 0.00006072375, -0.00005121997, -39427.49, -39427.49, 0.0, 10.000268, 9.943553 
3.6450133e+3, 1.24996394e+2, -1719623.1, -1724193.1, 1.4922642, 0.000060187285, 0.00004295061, -1719623.1, -4587.6387, 0.0, 10.000264, 9.9942045 
3.6450133e+3, 1.3499048e+2, -1622244.0, -1627405.4, 0.76942474, 0.000060317612, -0.00009269371, -1622244.0, -5150.5713, 0.0, 10.000264, 9.9934225 
3.6450133e+3, 1.4497796e+2, -1534140.8, -1548113.9, 2.9065864, 0.000060405935, 0.00011520881, -1534140.8, -14924.573, 0.0, 10.000265, 9.981744 
3.6450133e+3, 1.5495971e+2, -1436413.4, -1450790.3, 2.0796254, 0.00006044022, -0.000044885895, -1436413.4, -15018.272, 0.0, 10.000265, 9.981213 
3.645013e+3, 1.6493481e+2, -1348364.6, -1371926.1, 3.8954911, 0.000060459515, 0.000048386846, -1348364.6, -24725.719, 0.0, 10.000266, 9.969125 
3.645013e+3, 1.7490399e+2, -1250406.5, -1274284.6, 3.0900679, 0.00006046368, -0.00006224225, -1250406.5, -24465.49, 0.0, 10.000267, 9.968711 
3.645013e+3, 1.8486652e+2, -1162325.3, -1195695.1, 4.688734, 0.000060552906, 0.00008077206, -1162325.3, -34017.06, 0.0, 10.000268, 9.956272 
3.645013e+3, 1.9482283e+2, -1064176.0, -1097808.9, 3.8690693, 0.00006073097, -0.000047844656, -1064176.0, -33439.625, 0.0, 10.000269, 9.955929 
3.645013e+3, 2.0477247e+2, -976012.8, -1019413.5, 4.927799, 0.000060890765, 0.000076208984, -976012.8, -42782.99, 0.0, 10.000269, 9.943166 
3.645013e+3, 2.1471569e+2, -877726.06, -921389.2, 3.9872608, 0.000061030765, -0.000116982774, -877726.06, -41939.605, 0.0, 10.00027, 9.942825 
3.645013e+3, 2.2465219e+2, -789440.5, -843126.75, 4.7027097, 0.00006105318, 0.00013084325, -789440.5, -51031.832, 0.0, 10.000271, 9.929782 
3.645013e+3, 2.3458204e+2, -691006.75, -744948.94, 3.8298094, 0.00006094257, -0.00008054147, -691006.75, -49910.605, 0.0, 10.000272, 9.929451 
3.645013e+3, 2.4450493e+2, -602682.94, -667003.25, 4.376684, 0.00006101489, 0.000082097315, -602682.94, -58831.188, 0.0, 10.000273, 9.91601 
3.6450127e+3, 2.5442106e+2, -503930.63, -568328.7, 3.4607935, 0.000061305705, -0.00009928143, -503930.63, -57256.99, 0.0, 10.000274, 9.91591 
3.6450127e+3, 2.6433012e+2, -415696.03, -490976.28, 3.6336112, 0.00006160036, 0.0001476979, -415696.03, -66131.04, 0.0, 10.000275, 9.901836 
3.6450127e+3, 2.7423248e+2, -316410.84, -391364.06, 2.7283497, 0.00006189938, -0.0001972266, -316410.84, -63889.277, 0.0, 10.000276, 9.902257 
3.6450127e+3, 2.8412664e+2, -229936.69, -318070.84, 2.6663644, 0.00006199209, 0.00023453038, -229936.69, -74377.9, 0.0, 10.000277, 9.885311 
3.6450127e+3, 2.94013e+2, -130230.15, -217755.16, 1.6779774, 0.000061802544, -0.00024837983, -130230.15, -71557.68, 0.0, 10.0002775, 9.886089 
3.6450127e+3, 3.039273e+2, -40491.227, -84749.41, 1.0969818, 0.000061709216, 0.00017761889, -40491.227, -40491.227, 0.0, 10.000279, 9.942039 
3.6450127e+3, 3.1387123e+2, -39411.855, -82510.516, -0.07686545, 0.00006176125, -0.000051079758, -39411.855, -39411.855, 0.0, 10.00028, 9.943549 
3.6550134e+3, 1.24996446e+2, -1719624.8, -1724196.3, 1.6229994, 0.000060591254, 0.00004344087, -1719624.8, -4589.8384, 0.0, 10.000264, 9.994203 
3.6550134e+3, 1.3499054e+2, -1622245.6, -1627408.5, 0.9001546, 0.000061147846, -0.00009314533, -1622245.6, -5152.7393, 0.0, 10.000264, 9.99342 
3.6550134e+3, 1.4497802e+2, -1534142.6, -1548117.4, 3.160061, 0.00006145636, 0.00011620981, -1534142.6, -14926.959, 0.0, 10.000265, 9.981742 
3.6550134e+3, 1.5495975e+2, -1436415.1, -1450793.9, 2.3333995, 0.000061503706, -0.000044788372, -1436415.1, -15020.607, 0.0, 10.000265, 9.981211 
3.6550134e+3, 1.6493486e+2, -1348366.4, -1371929.6, 4.2482557, 0.00006147109, 0.000048046702, -1348366.4, -24727.98, 0.0, 10.000266, 9.969123 
3.655013e+3, 1.7490403e+2, -1250408.3, -1274288.0, 3.4433517, 0.00006135705, -0.00006254467, -1250408.3, -24467.71, 0.0, 10.000267, 9.968709 
3.655013e+3, 1.8486656e+2, -1162327.0, -1195698.6, 4.914818, 0.00006138707, 0.00008056268, -1162327.0, -34019.3, 0.0, 10.000268, 9.95627 
3.655013e+3, 1.9482288e+2, -1064177.8, -1097812.4, 4.0935774, 0.0000615676, -0.00004790322, -1064177.8, -33441.824, 0.0, 10.000269, 9.955927 
3.655013e+3, 2.047725e+2, -976014.9, -1019417.5, 5.217085, 0.00006179563, 0.00007627163, -976014.9, -42785.418, 0.0, 10.000269, 9.943164 
3.655013e+3, 2.1471572e+2, -877728.06, -921393.2, 4.27775, 0.00006207505, -0.000116830925, -877728.06, -41941.992, 0.0, 10.00027, 9.942822 
3.655013e+3, 2.2465222e+2, -789442.4, -843130.5, 5.1107454, 0.000062198196, 0.0001308092, -789442.4, -51034.06, 0.0, 10.000271, 9.92978 
3.655013e+3, 2.3458207e+2, -691008.6, -744952.7, 4.2419662, 0.000062144536, -0.00008107254, -691008.6, -49912.78, 0.0, 10.000272, 9.929448 
3.655013e+3, 2.4450496e+2, -602684.9, -667007.2, 4.656031, 0.00006212116, 0.00008155744, -602684.9, -58833.434, 0.0, 10.000273, 9.916007 
3.655013e+3, 2.544211e+2, -503932.56, -568332.6, 3.7333724, 0.0000621341, -0.00009924702, -503932.56, -57259.188, 0.0, 10.000274, 9.915907 
3.655013e+3, 2.6433015e+2, -415697.94, -490980.2, 4.0042734, 0.00006239716, 0.00014795277, -415697.94, -66133.18, 0.0, 10.000275, 9.9018345 
3.655013e+3, 2.742325e+2, -316412.75, -391367.94, 3.1055427, 0.00006297828, -0.00019720265, -316412.75, -63891.367, 0.0, 10.000276, 9.902254 
3.6550128e+3, 2.8412667e+2, -229938.72, -318075.03, 3.1449304, 0.00006325619, 0.0002343516, -229938.72, -74380.09, 0.0, 10.000277, 9.885308 
3.6550128e+3, 2.9401302e+2, -130232.164, -217759.34, 2.165926, 0.0000631179, -0.0002487207, -130232.164, -71559.836, 0.0, 10.0002775, 9.886086 
3.6550128e+3, 3.0392733e+2, -40493.508, -84754.16, 1.5814615, 0.000062925414, 0.00017734876, -40493.508, -40493.508, 0.0, 10.000279, 9.942036 
3.6550128e+3, 3.1387123e+2, -39414.17, -82515.34, 0.40721872, 0.00006265629, -0.000050933937, -39414.17, -39414.17, 0.0, 10.00028, 9.943546 
3.6650136e+3, 1.249965e+2, -1719613.1, -1724192.3, 1.1756873, 0.00006140034, 0.000043693766, -1719613.1, -4578.7275, 0.0, 10.000272, 9.994201 
3.6650136e+3, 1.3499059e+2, -1622233.3, -1627404.1, 0.39905497, 0.00006196727, -0.000093747476, -1622233.3, -5140.852, 0.0, 10.000273, 9.993418 
3.6650136e+3, 1.4497806e+2, -1534129.8, -1548113.0, 2.7382529, 0.00006229697, 0.000117105, -1534129.8, -14914.62, 0.0, 10.000274, 9.98174 
3.6650136e+3, 1.549598e+2, -1436402.1, -1450789.4, 1.9989892, 0.00006237637, -0.00004482738, -1436402.1, -15007.987, 0.0, 10.000275, 9.981209 
3.6650136e+3, 1.649349e+2, -1348353.3, -1371925.3, 4.01659, 0.00006242695, 0.000047633774, -1348353.3, -24715.303, 0.0, 10.000276, 9.969121 
3.6650136e+3, 1.7490408e+2, -1250395.3, -1274283.8, 3.219297, 0.00006244827, -0.000062759835, -1250395.3, -24455.123, 0.0, 10.000277, 9.968707 
3.6650133e+3, 1.848666e+2, -1162313.9, -1195694.5, 4.628669, 0.00006248896, 0.000080455706, -1162313.9, -34006.484, 0.0, 10.0002775, 9.956267 
3.6650133e+3, 1.948229e+2, -1064163.6, -1097807.9, 3.6982257, 0.000062549814, -0.000047995716, -1064163.6, -33428.13, 0.0, 10.000278, 9.955924 
3.6650133e+3, 2.0477255e+2, -976000.6, -1019413.25, 4.678568, 0.000062708226, 0.00007626471, -976000.6, -42771.496, 0.0, 10.000279, 9.943161 
3.6650133e+3, 2.1471575e+2, -877713.8, -921389.0, 3.6363738, 0.000062972205, -0.0001166753, -877713.8, -41928.043, 0.0, 10.00028, 9.94282 
3.6650133e+3, 2.2465225e+2, -789427.8, -843125.56, 4.5851336, 0.000063186875, 0.00013081625, -789427.8, -51019.81, 0.0, 10.000281, 9.929777 
3.6650133e+3, 2.345821e+2, -690994.44, -744947.94, 3.9377346, 0.000063345695, -0.00008156601, -690994.44, -49898.89, 0.0, 10.000282, 9.929446 
3.6650133e+3, 2.4450499e+2, -602671.06, -667003.6, 4.3567696, 0.00006333771, 0.000080980964, -602671.06, -58819.887, 0.0, 10.000283, 9.916004 
3.6650133e+3, 2.5442111e+2, -503917.8, -568328.7, 3.1186578, 0.000063130654, -0.00009940778, -503917.8, -57244.664, 0.0, 10.000285, 9.915904 
3.6650133e+3, 2.6433015e+2, -415682.44, -490975.47, 3.1459036, 0.000063277104, 0.00014807354, -415682.44, -66117.88, 0.0, 10.000286, 9.901832 
3.6650133e+3, 2.7423254e+2, -316397.47, -391363.3, 2.2015777, 0.00006387367, -0.00019697219, -316397.47, -63876.258, 0.0, 10.000287, 9.902251 
3.6650133e+3, 2.8412667e+2, -229923.52, -318070.4, 2.4137952, 0.000064270964, 0.00023446741, -229923.52, -74365.04, 0.0, 10.000288, 9.885305 
3.6650133e+3, 2.9401302e+2, -130217.05, -217754.8, 1.6445613, 0.000064393615, -0.00024902562, -130217.05, -71544.84, 0.0, 10.000289, 9.886084 
3.6650133e+3, 3.0392733e+2, -40478.652, -84750.52, 1.2980822, 0.000064345215, 0.00017677278, -40478.652, -40478.652, 0.0, 10.000291, 9.942033 
3.6650133e+3, 3.1387123e+2, -39398.49, -82511.39, 0.1574699, 0.00006404526, -0.000051555686, -39398.49, -39398.49, 0.0, 10.000293, 9.943543 
3.6750138e+3, 1.2499655e+2, -1719614.9, -1724195.6, 1.4989815, 0.00006261234, 0.00004377552, -1719614.9, -4581.03, 0.0, 10.000272, 9.994199 
3.6750138e+3, 1.3499063e+2, -1622235.0, -1627407.5, 0.7223941, 0.000062776, -0.00009449939, -1622235.0, -5143.1206, 0.0, 10.000273, 9.993416 
3.6750138e+3, 1.449781e+2, -1534131.4, -1548116.1, 3.0679958, 0.00006292894, 0.000117894924, -1534131.4, -14916.786, 0.0, 10.000274, 9.981738 
3.6750138e+3, 1.5495984e+2, -1436403.8, -1450792.5, 2.3286288, 0.0000630593, -0.000045002223, -1436403.8, -15010.108, 0.0, 10.000275, 9.981206 
3.6750138e+3, 1.6493495e+2, -1348355.1, -1371928.6, 4.3600626, 0.000063327454, 0.000047148424, -1348355.1, -24717.531, 0.0, 10.000276, 9.969118 
3.6750138e+3, 1.7490411e+2, -1250397.0, -1274287.1, 3.5624952, 0.00006373633, -0.00006288823, -1250397.0, -24457.313, 0.0, 10.000277, 9.968705 
3.6750138e+3, 1.8486664e+2, -1162315.9, -1195698.4, 5.0759983, 0.00006385719, 0.00008045056, -1162315.9, -34008.94, 0.0, 10.0002775, 9.9562645 
3.6750138e+3, 1.9482295e+2, -1064165.8, -1097811.8, 4.1468825, 0.00006367691, -0.000048121987, -1064165.8, -33430.543, 0.0, 10.000278, 9.955922 
3.6750138e+3, 2.0477258e+2, -976002.9, -1019417.7, 4.992014, 0.00006362859, 0.00007618857, -976002.9, -42774.12, 0.0, 10.000279, 9.943158 
3.6750138e+3, 2.1471578e+2, -877716.06, -921393.44, 3.9470563, 0.00006372308, -0.00011651598, -877716.06, -41930.613, 0.0, 10.00028, 9.942817 
3.6750138e+3, 2.2465228e+2, -789429.3, -843128.5, 4.9178557, 0.000064020096, 0.00013086411, -789429.3, -51021.58, 0.0, 10.000281, 9.929775 
3.6750138e+3, 2.3458213e+2, -690995.9, -744950.8, 4.2708106, 0.00006454609, -0.000082022074, -690995.9, -49900.6, 0.0, 10.000282, 9.929444 
3.6750138e+3, 2.44505e+2, -602673.6, -667008.75, 4.884998, 0.00006466401, 0.00008036809, -602673.6, -58822.703, 0.0, 10.000283, 9.916 
3.6750138e+3, 2.5442111e+2, -503920.4, -568333.9, 3.6566832, 0.000064294574, -0.000099762736, -503920.4, -57247.47, 0.0, 10.000285, 9.9159 
3.6750138e+3, 2.6433018e+2, -415684.47, -490979.6, 3.4991117, 0.000064239866, 0.00014806082, -415684.47, -66120.11, 0.0, 10.000286, 9.901829 
3.6750138e+3, 2.7423254e+2, -316399.44, -391367.34, 2.5421607, 0.00006458659, -0.00019653632, -316399.44, -63878.4, 0.0, 10.000287, 9.902249 
3.6750138e+3, 2.841267e+2, -229925.19, -318073.88, 2.8880336, 0.00006503775, 0.00023487628, -229925.19, -74366.87, 0.0, 10.000288, 9.8853035 
3.6750138e+3, 2.9401305e+2, -130218.68, -217758.2, 2.1308303, 0.00006562995, -0.00024929486, -130218.68, -71546.6, 0.0, 10.000289, 9.886082 
3.6750138e+3, 3.0392733e+2, -40480.86, -84755.125, 1.9873166, 0.00006596762, 0.0001758925, -40480.86, -40480.86, 0.0, 10.000291, 9.942029 
3.6750138e+3, 3.1387126e+2, -39400.766, -82516.13, 0.8708908, 0.000065925706, -0.000052941017, -39400.766, -39400.766, 0.0, 10.000293, 9.94354 
3.6850145e+3, 1.249966e+2, -1719603.0, -1724191.6, 1.4291078, 0.00006355469, 0.000043802484, -1719603.0, -4569.6084, 0.0, 10.00028, 9.994197 
3.6850142e+3, 1.3499069e+2, -1622222.5, -1627403.3, 0.6163877, 0.00006376744, -0.00009546998, -1622222.5, -5131.179, 0.0, 10.000282, 9.993414 
3.6850142e+3, 1.4497815e+2, -1534118.4, -1548111.6, 2.9323022, 0.00006393184, 0.00011839063, -1534118.4, -14904.185, 0.0, 10.000283, 9.981736 
3.6850142e+3, 1.5495989e+2, -1436390.0, -1450787.6, 2.1049094, 0.00006403592, -0.0000454636, -1436390.0, -14996.762, 0.0, 10.000284, 9.981204 
3.6850142e+3, 1.64935e+2, -1348341.1, -1371924.1, 3.928483, 0.000064300715, 0.000046500518, -1348341.1, -24703.965, 0.0, 10.000286, 9.969116 
3.6850142e+3, 1.7490415e+2, -1250382.8, -1274282.5, 2.8745108, 0.00006472959, -0.00006293655, -1250382.8, -24443.432, 0.0, 10.000287, 9.968702 
3.6850142e+3, 1.8486668e+2, -1162301.5, -1195693.8, 4.3324327, 0.000064986096, 0.000080611, -1162301.5, -33994.953, 0.0, 10.000288, 9.956263 
3.6850142e+3, 1.9482298e+2, -1064151.6, -1097807.3, 3.498967, 0.000065062355, -0.00004816141, -1064151.6, -33416.844, 0.0, 10.000289, 9.955919 
3.685014e+3, 2.047726e+2, -975988.9, -1019413.75, 4.3977246, 0.000064936394, 0.000075831194, -975988.9, -42760.47, 0.0, 10.00029, 9.943155 
3.685014e+3, 2.1471581e+2, -877701.2, -921389.06, 3.3437228, 0.00006459162, -0.00011731904, -877701.2, -41916.03, 0.0, 10.000292, 9.942814 
3.685014e+3, 2.2465232e+2, -789413.5, -843123.0, 4.0698543, 0.00006472559, 0.0001303163, -789413.5, -51006.074, 0.0, 10.000293, 9.929773 
3.685014e+3, 2.3458214e+2, -690980.25, -744945.44, 3.1385884, 0.00006540106, -0.00008152174, -690980.25, -49885.246, 0.0, 10.000294, 9.929442 
3.685014e+3, 2.4450503e+2, -602659.0, -667004.75, 3.8670418, 0.00006582136, 0.000080910904, -602659.0, -58808.316, 0.0, 10.000295, 9.9159975 
3.685014e+3, 2.5442114e+2, -503906.56, -568330.4, 2.9725142, 0.00006593651, -0.000100378704, -503906.56, -57233.85, 0.0, 10.000296, 9.915897 
3.685014e+3, 2.643302e+2, -415670.34, -490975.88, 3.0010962, 0.00006579676, 0.00014703898, -415670.34, -66106.15, 0.0, 10.000297, 9.901826 
3.685014e+3, 2.7423257e+2, -316383.78, -391362.9, 1.8591152, 0.000065333465, -0.00019700358, -316383.78, -63862.89, 0.0, 10.0002985, 9.902246 
3.685014e+3, 2.841267e+2, -229908.4, -318068.25, 1.9838157, 0.000065471395, 0.00023484432, -229908.4, -74350.2, 0.0, 10.0003, 9.885301 
3.685014e+3, 2.9401305e+2, -130202.336, -217752.78, 1.2020285, 0.00006643327, -0.00024905909, -130202.336, -71530.36, 0.0, 10.000301, 9.88608 
3.685014e+3, 3.0392736e+2, -40465.7, -84750.9, 1.3016948, 0.00006740707, 0.00017587902, -40465.7, -40465.7, 0.0, 10.000302, 9.942026 
3.685014e+3, 3.1387126e+2, -39386.73, -82512.52, 0.48758698, 0.00006839009, -0.0000539695, -39386.73, -39386.73, 0.0, 10.000303, 9.943537 
3.6950147e+3, 1.24996655e+2, -1719604.9, -1724195.1, 1.8833394, 0.00006422896, 0.000043858767, -1719604.9, -4571.9824, 0.0, 10.00028, 9.994195 
3.6950147e+3, 1.3499074e+2, -1622224.4, -1627406.8, 1.0707031, 0.00006494061, -0.000096658085, -1622224.4, -5133.515, 0.0, 10.000282, 9.993412 
3.6950144e+3, 1.4497821e+2, -1534120.3, -1548115.1, 3.4470396, 0.00006530362, 0.00011859377, -1534120.3, -14906.533, 0.0, 10.000283, 9.981733 
3.6950144e+3, 1.5495993e+2, -1436391.8, -1450791.1, 2.6198375, 0.00006530466, -0.000046209912, -1436391.8, -14999.061, 0.0, 10.000284, 9.981202 
3.6950144e+3, 1.6493504e+2, -1348343.4, -1371928.6, 4.359715, 0.00006534639, 0.00004569093, -1348343.4, -24706.734, 0.0, 10.000286, 9.969113 
3.6950144e+3, 1.7490421e+2, -1250385.1, -1274287.0, 3.3052027, 0.000065429755, -0.00006290529, -1250385.1, -24446.154, 0.0, 10.000287, 9.968699 
3.6950144e+3, 1.8486673e+2, -1162303.4, -1195697.3, 4.7226477, 0.00006587707, 0.00008093604, -1162303.4, -33997.184, 0.0, 10.000288, 9.956261 
3.6950144e+3, 1.9482301e+2, -1064153.5, -1097810.8, 3.888651, 0.00006670477, -0.00004811451, -1064153.5, -33419.027, 0.0, 10.000289, 9.955917 
3.6950144e+3, 2.0477265e+2, -975991.2, -1019418.25, 4.9442415, 0.000066629545, 0.0000751941, -975991.2, -42763.08, 0.0, 10.00029, 9.943152 
3.6950144e+3, 2.1471584e+2, -877703.44, -921393.56, 3.8939056, 0.00006557727, -0.000119079246, -877703.44, -41918.59, 0.0, 10.000292, 9.942811 
3.6950144e+3, 2.2465234e+2, -789415.56, -843127.0, 4.387656, 0.00006530415, 0.00012917609, -789415.56, -51008.37, 0.0, 10.000293, 9.92977 
3.695014e+3, 2.3458217e+2, -690982.25, -744949.44, 3.4478788, 0.000065912594, -0.00008007033, -690982.25, -49887.504, 0.0, 10.000294, 9.92944 
3.695014e+3, 2.4450505e+2, -602660.94, -667008.7, 4.2252645, 0.00006681076, 0.000082602994, -602660.94, -58810.5, 0.0, 10.000295, 9.915996 
3.695014e+3, 2.5442117e+2, -503908.5, -568334.25, 3.3338535, 0.00006805388, -0.00010125427, -503908.5, -57235.97, 0.0, 10.000296, 9.915895 
3.695014e+3, 2.643302e+2, -415672.7, -490980.66, 3.7243927, 0.00006794456, 0.00014501353, -415672.7, -66108.65, 0.0, 10.000297, 9.901823 
3.695014e+3, 2.7423257e+2, -316386.13, -391367.72, 2.606727, 0.000066114204, -0.00019836909, -316386.13, -63865.363, 0.0, 10.0002985, 9.902243 
3.695014e+3, 2.8412673e+2, -229910.14, -318071.84, 2.4007277, 0.00006557384, 0.00023437393, -229910.14, -74352.05, 0.0, 10.0003, 9.885299 
3.695014e+3, 2.9401305e+2, -130204.0, -217756.23, 1.5882466, 0.00006680603, -0.0002483211, -130204.0, -71532.12, 0.0, 10.000301, 9.886077 
3.695014e+3, 3.0392736e+2, -40467.42, -84754.49, 1.7269791, 0.00006866461, 0.00017672754, -40467.42, -40467.42, 0.0, 10.000302, 9.942024 
3.695014e+3, 3.1387126e+2, -39388.465, -82516.14, 0.9173604, 0.00007143524, -0.00005464305, -39388.465, -39388.465, 0.0, 10.000303, 9.943535 
3.705015e+3, 1.24996714e+2, -1719592.3, -1724190.9, 1.0294498, 0.000065160035, 0.000044253477, -1719592.3, -4559.921, 0.0, 10.00029, 9.994193 
3.705015e+3, 1.3499078e+2, -1622211.3, -1627402.3, 0.20902786, 0.00006601875, -0.000097422286, -1622211.3, -5120.834, 0.0, 10.000291, 9.99341 
3.705015e+3, 1.4497826e+2, -1534106.5, -1548110.3, 2.6532924, 0.00006654309, 0.00011930199, -1534106.5, -14893.258, 0.0, 10.000293, 9.981731 
3.7050146e+3, 1.5495998e+2, -1436377.6, -1450786.1, 1.8876064, 0.00006671991, -0.000046358575, -1436377.6, -14985.308, 0.0, 10.000295, 9.9812 
3.7050146e+3, 1.6493507e+2, -1348329.1, -1371924.5, 3.596502, 0.00006669908, 0.000045113677, -1348329.1, -24692.879, 0.0, 10.000297, 9.9691105 
3.7050146e+3, 1.7490424e+2, -1250369.8, -1274282.4, 2.4479156, 0.00006647684, -0.00006347406, -1250369.8, -24431.23, 0.0, 10.0002985, 9.968697 
3.7050146e+3, 1.8486676e+2, -1162287.3, -1195691.6, 3.573955, 0.00006683669, 0.00008067129, -1162287.3, -33981.387, 0.0, 10.000299, 9.956258 
3.7050146e+3, 1.9482306e+2, -1064137.8, -1097805.4, 2.671222, 0.00006780495, -0.00004776637, -1064137.8, -33403.586, 0.0, 10.0003, 9.9559145 
3.7050146e+3, 2.0477268e+2, -975975.8, -1019413.1, 4.000201, 0.000067938534, 0.00007510541, -975975.8, -42748.023, 0.0, 10.000301, 9.94315 
3.7050146e+3, 2.1471587e+2, -877688.44, -921388.6, 3.2667432, 0.00006716893, -0.0001207406, -877688.44, -41903.836, 0.0, 10.000302, 9.942809 
3.7050146e+3, 2.2465236e+2, -789401.1, -843123.6, 3.5065885, 0.000066801025, 0.00012767948, -789401.1, -50994.164, 0.0, 10.000304, 9.929768 
3.7050146e+3, 2.345822e+2, -690967.06, -744945.7, 1.8874255, 0.00006688775, -0.000079436715, -690967.06, -49872.523, 0.0, 10.000305, 9.929437 
3.7050146e+3, 2.4450508e+2, -602644.3, -667002.44, 2.436748, 0.0000675765, 0.000083725274, -602644.3, -58794.055, 0.0, 10.000306, 9.915994 
3.7050146e+3, 2.5442117e+2, -503892.22, -568328.2, 2.060188, 0.0000689834, -0.0001016048, -503892.22, -57219.863, 0.0, 10.000307, 9.915894 
3.7050146e+3, 2.6433024e+2, -415657.66, -490976.56, 3.1351452, 0.00006911339, 0.00014379015, -415657.66, -66093.766, 0.0, 10.000308, 9.90182 
3.7050146e+3, 2.7423257e+2, -316371.6, -391364.0, 2.136358, 0.00006761754, -0.00019969771, -316371.6, -63850.957, 0.0, 10.00031, 9.90224 
3.7050146e+3, 2.8412673e+2, -229895.53, -318068.25, 1.5355273, 0.00006712538, 0.00023356428, -229895.53, -74337.52, 0.0, 10.000312, 9.885295 
3.7050146e+3, 2.9401308e+2, -130188.39, -217752.23, 0.026896164, 0.00006801373, -0.00024776152, -130188.39, -71516.56, 0.0, 10.000314, 9.886074 
3.7050146e+3, 3.0392736e+2, -40450.62, -84749.35, -0.25581476, 0.00006965801, 0.00017782602, -40450.62, -40450.62, 0.0, 10.000316, 9.942021 
3.7050146e+3, 3.1387126e+2, -39370.8, -82510.51, -1.1850721, 0.00007241037, -0.000054246466, -39370.8, -39370.8, 0.0, 10.000317, 9.943532 
3.715015e+3, 1.2499676e+2, -1719594.1, -1724194.4, 1.6397722, 0.000066346416, 0.00004508667, -1719594.1, -4562.28, 0.0, 10.00029, 9.99419 
3.715015e+3, 1.3499083e+2, -1622213.1, -1627405.8, 0.81899154, 0.00006700248, -0.000097765165, -1622213.1, -5123.154, 0.0, 10.000291, 9.993407 
3.715015e+3, 1.449783e+2, -1534108.3, -1548113.6, 3.2912195, 0.00006765108, 0.00012051233, -1534108.3, -14895.434, 0.0, 10.000293, 9.9817295 
3.715015e+3, 1.5496002e+2, -1436379.4, -1450789.4, 2.5252876, 0.00006828085, -0.00004591309, -1436379.4, -14987.44, 0.0, 10.000295, 9.981198 
3.715015e+3, 1.6493513e+2, -1348331.8, -1371929.4, 4.292562, 0.00006835708, 0.00004476736, -1348331.8, -24695.824, 0.0, 10.000297, 9.969108 
3.7150148e+3, 1.7490429e+2, -1250372.3, -1274287.3, 3.1447997, 0.00006786894, -0.00006463946, -1250372.3, -24434.113, 0.0, 10.0002985, 9.968694 
3.7150148e+3, 1.8486679e+2, -1162289.3, -1195695.5, 3.897336, 0.000067864654, 0.00007982009, -1162289.3, -33983.715, 0.0, 10.000299, 9.956256 
3.7150148e+3, 1.9482309e+2, -1064139.8, -1097809.1, 2.9895031, 0.00006836605, -0.000047118792, -1064139.8, -33405.867, 0.0, 10.0003, 9.955913 
3.7150148e+3, 2.0477271e+2, -975977.44, -1019416.4, 4.484082, 0.00006886563, 0.00007556192, -975977.44, -42749.953, 0.0, 10.000301, 9.943148 
3.7150148e+3, 2.147159e+2, -877690.0, -921391.8, 3.7543051, 0.0000693632, -0.00012230368, -877690.0, -41905.715, 0.0, 10.000302, 9.942807 
3.7150148e+3, 2.2465238e+2, -789404.44, -843130.3, 4.0247755, 0.000069211026, 0.00012582853, -789404.44, -50997.766, 0.0, 10.000304, 9.929763 
3.7150148e+3, 2.3458222e+2, -690970.44, -744952.44, 2.4073024, 0.000068323956, -0.00007961636, -690970.44, -49876.098, 0.0, 10.000305, 9.929432 
3.7150148e+3, 2.4450509e+2, -602645.3, -667004.5, 2.7276747, 0.00006811992, 0.000084280866, -602645.3, -58795.23, 0.0, 10.000306, 9.915992 
3.7150148e+3, 2.544212e+2, -503893.13, -568330.0, 2.3391826, 0.000068731926, -0.00010143331, -503893.13, -57220.91, 0.0, 10.000307, 9.915892 
3.7150148e+3, 2.6433024e+2, -415659.78, -490980.84, 3.762171, 0.000069308895, 0.00014336426, -415659.78, -66096.01, 0.0, 10.000308, 9.901817 
3.7150148e+3, 2.742326e+2, -316373.75, -391368.4, 2.7870317, 0.000069839414, -0.00020098964, -316373.75, -63853.223, 0.0, 10.00031, 9.902237 
3.7150148e+3, 2.8412673e+2, -229898.47, -318074.3, 2.2014115, 0.000070117836, 0.00023241728, -229898.47, -74340.52, 0.0, 10.000312, 9.885291 
3.7150148e+3, 2.9401308e+2, -130191.35, -217758.38, 0.69457126, 0.0000700517, -0.0002473794, -130191.35, -71519.56, 0.0, 10.000314, 9.88607 
3.7150148e+3, 3.0392736e+2, -40452.676, -84753.64, 0.39042097, 0.00007038888, 0.0001791729, -40452.676, -40452.676, 0.0, 10.000316, 9.9420185 
3.7150148e+3, 3.1387126e+2, -39372.75, -82514.586, -0.5415065, 0.00007132734, -0.000052785977, -39372.75, -39372.75, 0.0, 10.000317, 9.943529 
3.7250155e+3, 1.249968e+2, -1719581.9, -1724190.8, 1.2402104, 0.00006762742, 0.0000451419, -1719581.9, -4550.4277, 0.0, 10.0002985, 9.994188 
3.7250155e+3, 1.3499087e+2, -1622199.3, -1627401.4, 0.11767256, 0.00006802185, -0.00009926082, -1622199.3, -5109.629, 0.0, 10.000301, 9.993405 
3.7250155e+3, 1.4497833e+2, -1534093.0, -1548108.1, 2.2100036, 0.000068608126, 0.00012082816, -1534093.0, -14880.657, 0.0, 10.000303, 9.981728 
3.7250155e+3, 1.5496005e+2, -1436363.8, -1450783.8, 1.236229, 0.00006937604, -0.00004543735, -1436363.8, -14972.296, 0.0, 10.000305, 9.981195 
3.7250155e+3, 1.6493516e+2, -1348316.4, -1371924.3, 3.0584562, 0.0000696852, 0.000044668162, -1348316.4, -24680.795, 0.0, 10.000307, 9.969105 
3.7250155e+3, 1.7490432e+2, -1250357.1, -1274282.3, 2.2462468, 0.00006952669, -0.00006606282, -1250357.1, -24419.213, 0.0, 10.000309, 9.968691 
3.7250155e+3, 1.8486682e+2, -1162273.9, -1195691.1, 2.69336, 0.000069341346, 0.00007844696, -1162273.9, -33968.633, 0.0, 10.000311, 9.956252 
3.7250152e+3, 1.9482312e+2, -1064122.9, -1097804.1, 1.188731, 0.00006912784, -0.000047005098, -1064122.9, -33389.336, 0.0, 10.000313, 9.955909 
3.7250152e+3, 2.0477274e+2, -975959.56, -1019409.2, 2.257577, 0.00006963962, 0.00007611972, -975959.56, -42732.293, 0.0, 10.000314, 9.943146 
3.7250152e+3, 2.1471591e+2, -877673.7, -921385.5, 1.7036049, 0.00007093615, -0.00012243005, -877673.7, -41889.633, 0.0, 10.000314, 9.942805 
3.7250152e+3, 2.2465241e+2, -789390.4, -843127.3, 2.5313365, 0.000071109236, 0.00012501008, -789390.4, -50983.863, 0.0, 10.000315, 9.929759 
3.7250152e+3, 2.3458223e+2, -690956.2, -744949.5, 1.3927968, 0.00007001139, -0.00008113544, -690956.2, -49861.973, 0.0, 10.000317, 9.929428 
3.7250152e+3, 2.445051e+2, -602628.94, -666998.7, 1.5955329, 0.000069319954, 0.000083026294, -602628.94, -58778.977, 0.0, 10.000319, 9.91599 
3.7250152e+3, 2.544212e+2, -503875.13, -568323.3, 0.54126024, 0.00006911489, -0.00010127132, -503875.13, -57203.055, 0.0, 10.00032, 9.91589 
3.7250152e+3, 2.6433024e+2, -415642.38, -490975.1, 1.5673, 0.000069750175, 0.0001440109, -415642.38, -66078.71, 0.0, 10.000321, 9.901814 
3.7250152e+3, 2.742326e+2, -316358.78, -391363.97, 0.8103681, 0.00007145319, -0.0002010463, -316358.78, -63838.31, 0.0, 10.000321, 9.902234 
3.7250152e+3, 2.8412673e+2, -229885.05, -318071.78, 0.9075261, 0.00007223503, 0.00023189468, -229885.05, -74327.14, 0.0, 10.000322, 9.885288 
3.7250152e+3, 2.9401308e+2, -130176.836, -217755.47, -0.25234017, 0.00007175192, -0.0002480377, -130176.836, -71505.05, 0.0, 10.000325, 9.886066 
3.7250152e+3, 3.0392736e+2, -40435.81, -84748.8, -0.18894926, 0.000071354014, 0.00017859197, -40435.81, -40435.81, 0.0, 10.000328, 9.942016 
3.7250152e+3, 3.1387126e+2, -39352.71, -82508.11, -1.1790025, 0.00007109409, -0.000052976196, -39352.71, -39352.71, 0.0, 10.000332, 9.943526 
3.735016e+3, 1.2499685e+2, -1719584.4, -1724195.5, 2.248644, 0.00006900245, 0.00004454299, -1719584.4, -4553.446, 0.0, 10.0002985, 9.9941845 
3.7350157e+3, 1.349909e+2, -1622201.8, -1627406.1, 1.1270489, 0.00006907672, -0.00010190238, -1622201.8, -5112.587, 0.0, 10.000301, 9.993402 
3.7350157e+3, 1.4497837e+2, -1534095.3, -1548112.4, 2.9493713, 0.00006941524, 0.00012025481, -1534095.3, -14883.246, 0.0, 10.000303, 9.981725 
3.7350157e+3, 1.549601e+2, -1436366.0, -1450788.0, 1.9745809, 0.00007000835, -0.000044931654, -1436366.0, -14974.838, 0.0, 10.000305, 9.981193 
3.7350157e+3, 1.649352e+2, -1348318.1, -1371927.8, 3.7357457, 0.00007068548, 0.000044814493, -1348318.1, -24682.953, 0.0, 10.000307, 9.969103 
3.7350157e+3, 1.7490435e+2, -1250358.9, -1274285.8, 2.9233258, 0.00007144855, -0.00006774262, -1250358.9, -24421.322, 0.0, 10.000309, 9.968689 
3.7350157e+3, 1.8486685e+2, -1162277.1, -1195697.5, 3.3771741, 0.00007126415, 0.000076555014, -1162277.1, -33972.18, 0.0, 10.000311, 9.956248 
3.7350157e+3, 1.9482313e+2, -1064126.1, -1097810.5, 1.8727423, 0.00007008924, -0.000047422214, -1064126.1, -33392.824, 0.0, 10.000313, 9.955905 
3.7350157e+3, 2.0477276e+2, -975960.8, -1019411.75, 2.3846452, 0.00007026153, 0.00007677807, -975960.8, -42733.805, 0.0, 10.000314, 9.943145 
3.7350157e+3, 2.1471594e+2, -877674.94, -921387.94, 1.8185557, 0.00007189153, -0.000121128425, -877674.94, -41891.086, 0.0, 10.000314, 9.942803 
3.7350157e+3, 2.2465242e+2, -789392.75, -843132.1, 3.1079974, 0.00007249873, 0.00012521788, -789392.75, -50986.465, 0.0, 10.000315, 9.929756 
3.7350157e+3, 2.3458225e+2, -690958.56, -744954.3, 1.9854447, 0.00007194858, -0.00008398599, -690958.56, -49864.53, 0.0, 10.000317, 9.929425 
3.7350154e+3, 2.445051e+2, -602631.2, -667003.2, 2.2795205, 0.00007117276, 0.00007997234, -602631.2, -58781.332, 0.0, 10.000319, 9.915987 
3.7350154e+3, 2.5442123e+2, -503877.34, -568327.8, 1.2292134, 0.000070128706, -0.00010111887, -503877.34, -57205.367, 0.0, 10.00032, 9.915887 
3.7350154e+3, 2.6433027e+2, -415644.13, -490978.72, 1.674716, 0.00007043595, 0.00014572353, -415644.13, -66080.56, 0.0, 10.000321, 9.901813 
3.7350154e+3, 2.742326e+2, -316360.5, -391367.5, 0.87888825, 0.00007246253, -0.00019987517, -316360.5, -63840.08, 0.0, 10.000321, 9.902232 
3.7350154e+3, 2.8412673e+2, -229887.39, -318076.63, 1.8165798, 0.00007348214, 0.00023199269, -229887.39, -74329.51, 0.0, 10.000322, 9.885284 
3.7350154e+3, 2.9401308e+2, -130179.22, -217760.4, 0.73314565, 0.000073116404, -0.00024973025, -130179.22, -71507.41, 0.0, 10.000325, 9.886063 
3.7350154e+3, 3.0392736e+2, -40437.945, -84753.25, 1.2143134, 0.00007255212, 0.00017609466, -40437.945, -40437.945, 0.0, 10.000328, 9.942013 
3.7350154e+3, 3.1387123e+2, -39354.832, -82512.516, 0.27350578, 0.00007170579, -0.000054807355, -39354.832, -39354.832, 0.0, 10.000332, 9.943523 
3.7450162e+3, 1.2499689e+2, -1719571.6, -1724191.3, 1.1954583, 0.000070149355, 0.00004595666, -1719571.6, -4541.055, 0.0, 10.000308, 9.994183 
3.7450162e+3, 1.3499095e+2, -1622187.8, -1627401.4, 0.5992205, 0.00007027178, -0.00010389961, -1622187.8, -5099.0156, 0.0, 10.000311, 9.9934 
3.7450162e+3, 1.449784e+2, -1534080.8, -1548108.4, 2.2323964, 0.00007042956, 0.000119572534, -1534080.8, -14869.087, 0.0, 10.000314, 9.981722 
3.745016e+3, 1.5496013e+2, -1436350.0, -1450783.1, 0.8097487, 0.00007061212, -0.00004460818, -1436350.0, -14959.148, 0.0, 10.000318, 9.98119 
3.745016e+3, 1.6493523e+2, -1348300.8, -1371921.1, 2.0464966, 0.00007141765, 0.000045198314, -1348300.8, -24665.898, 0.0, 10.0003195, 9.9691 
3.745016e+3, 1.7490438e+2, -1250342.1, -1274279.4, 1.2700762, 0.0000728588, -0.00006826235, -1250342.1, -24404.885, 0.0, 10.00032, 9.968686 
3.745016e+3, 1.8486688e+2, -1162262.3, -1195694.3, 1.8351139, 0.0000729507, 0.00007539811, -1162262.3, -33957.535, 0.0, 10.000322, 9.956244 
3.745016e+3, 1.9482316e+2, -1064111.4, -1097807.4, 0.39947155, 0.00007163218, -0.000048938018, -1064111.4, -33378.285, 0.0, 10.000324, 9.955901 
3.745016e+3, 2.0477279e+2, -975944.0, -1019405.6, 0.36224213, 0.000071418726, 0.00007586984, -975944.0, -42717.145, 0.0, 10.000326, 9.943142 
3.745016e+3, 2.1471596e+2, -877656.44, -921381.0, -0.70733595, 0.000072401046, -0.00012038339, -877656.44, -41872.754, 0.0, 10.000327, 9.942801 
3.745016e+3, 2.2465244e+2, -789374.3, -843125.3, 0.64501995, 0.00007304342, 0.00012576976, -789374.3, -50968.164, 0.0, 10.000328, 9.929754 
3.745016e+3, 2.3458226e+2, -690942.0, -744948.56, 0.14237292, 0.00007330082, -0.000085715896, -690942.0, -49848.055, 0.0, 10.000329, 9.929422 
3.745016e+3, 2.4450512e+2, -602616.8, -666999.6, 0.8260253, 0.000073021954, 0.0000777623, -602616.8, -58767.023, 0.0, 10.000329, 9.915984 
3.745016e+3, 2.5442123e+2, -503864.13, -568324.9, -0.46207318, 0.00007210337, -0.00010165638, -503864.13, -57192.215, 0.0, 10.000331, 9.915884 
3.745016e+3, 2.6433027e+2, -415629.6, -490974.25, -0.266886, 0.00007207548, 0.0001460985, -415629.6, -66066.055, 0.0, 10.000332, 9.90181 
3.745016e+3, 2.742326e+2, -316342.84, -391361.5, -1.129517, 0.00007318194, -0.00019955951, -316342.84, -63822.457, 0.0, 10.000335, 9.902229 
3.745016e+3, 2.8412673e+2, -229868.64, -318070.3, 0.32012475, 0.00007381894, 0.00023182153, -229868.64, -74310.74, 0.0, 10.000337, 9.885282 
3.745016e+3, 2.9401305e+2, -130161.766, -217754.78, -0.20097911, 0.00007380854, -0.00025096856, -130161.766, -71489.914, 0.0, 10.000339, 9.886061 
3.745016e+3, 3.0392733e+2, -40422.465, -84748.79, 0.9655498, 0.000073808646, 0.00017453228, -40422.465, -40422.465, 0.0, 10.00034, 9.94201 
3.745016e+3, 3.1387123e+2, -39341.836, -82509.27, 0.262281, 0.00007382996, -0.000055585202, -39341.836, -39341.836, 0.0, 10.000342, 9.943521 
3.7550163e+3, 1.2499693e+2, -1719573.0, -1724193.9, 2.4849188, 0.000071069604, 0.000049510225, -1719573.0, -4542.827, 0.0, 10.000308, 9.994181 
3.7550163e+3, 1.3499098e+2, -1622189.1, -1627403.9, 1.8901402, 0.000071606206, -0.0001052566, -1622189.1, -5100.7417, 0.0, 10.000311, 9.993398 
3.7550163e+3, 1.4497845e+2, -1534083.9, -1548114.4, 3.341237, 0.00007164985, 0.00011878208, -1534083.9, -14872.649, 0.0, 10.000314, 9.981718 
3.7550163e+3, 1.5496016e+2, -1436353.1, -1450789.3, 1.9178847, 0.000071187635, -0.000044465836, -1436353.1, -14962.634, 0.0, 10.000318, 9.981186 
3.7550163e+3, 1.6493526e+2, -1348302.5, -1371924.5, 2.5934467, 0.00007188351, 0.00004581805, -1348302.5, -24667.916, 0.0, 10.0003195, 9.969098 
3.7550163e+3, 1.7490439e+2, -1250343.9, -1274282.8, 1.8141478, 0.0000737607, -0.000067629335, -1250343.9, -24406.863, 0.0, 10.00032, 9.968684 
3.755016e+3, 1.8486689e+2, -1162265.4, -1195700.3, 2.501025, 0.000074402546, 0.00007497156, -1162265.4, -33960.89, 0.0, 10.000322, 9.956241 
3.755016e+3, 1.9482318e+2, -1064114.5, -1097813.4, 1.068004, 0.00007375306, -0.000051545703, -1064114.5, -33381.563, 0.0, 10.000324, 9.955897 
3.755016e+3, 2.047728e+2, -975946.3, -1019410.2, 0.9050508, 0.00007310793, 0.00007340471, -975946.3, -42719.61, 0.0, 10.000326, 9.943139 
3.755016e+3, 2.1471597e+2, -877658.7, -921385.5, -0.16736509, 0.00007246762, -0.000120191646, -877658.7, -41875.16, 0.0, 10.000327, 9.942799 
3.755016e+3, 2.2465245e+2, -789375.5, -843127.75, 0.8141819, 0.00007274871, 0.00012666345, -789375.5, -50969.49, 0.0, 10.000328, 9.929752 
3.755016e+3, 2.3458226e+2, -690943.1, -744950.9, 0.29909572, 0.000074071824, -0.00008633216, -690943.1, -49849.31, 0.0, 10.000329, 9.929421 
3.755016e+3, 2.4450512e+2, -602619.44, -667004.94, 1.2310966, 0.000074867596, 0.000076390905, -602619.44, -58769.758, 0.0, 10.000329, 9.91598 
3.755016e+3, 2.5442123e+2, -503866.84, -568330.4, -0.0443296, 0.000075032876, -0.000102879596, -503866.84, -57194.95, 0.0, 10.000331, 9.91588 
3.755016e+3, 2.6433027e+2, -415631.5, -490978.16, 0.5720251, 0.000074662836, 0.00014514399, -415631.5, -66067.96, 0.0, 10.000332, 9.901807 
3.755016e+3, 2.742326e+2, -316344.7, -391365.25, -0.26247802, 0.00007361336, -0.00020009412, -316344.7, -63824.277, 0.0, 10.000335, 9.902227 
3.755016e+3, 2.8412673e+2, -229870.06, -318073.25, 1.0123982, 0.00007325131, 0.00023138277, -229870.06, -74312.125, 0.0, 10.000337, 9.88528 
3.755016e+3, 2.9401305e+2, -130163.13, -217757.63, 0.47498992, 0.00007383265, -0.0002517554, -130163.13, -71491.22, 0.0, 10.000339, 9.886059 
3.755016e+3, 3.0392733e+2, -40424.156, -84752.31, 1.7585421, 0.00007512331, 0.00017389904, -40424.156, -40424.156, 0.0, 10.00034, 9.942007 
3.755016e+3, 3.1387123e+2, -39343.566, -82512.88, 1.068353, 0.000077457065, -0.000055316235, -39343.566, -39343.566, 0.0, 10.000342, 9.943518 
3.7650165e+3, 1.2499697e+2, -1719561.3, -1724188.1, -0.090773396, 0.00007201945, 0.000049746708, -1719561.3, -4531.4854, 0.0, 10.000315, 9.994181 
3.7650165e+3, 1.3499102e+2, -1622174.4, -1627396.6, 0.113903195, 0.00007280068, -0.00010758982, -1622174.4, -5086.291, 0.0, 10.00032, 9.993398 
3.7650165e+3, 1.4497848e+2, -1534069.9, -1548111.8, 1.4586991, 0.000072871466, 0.00011778721, -1534069.9, -14858.905, 0.0, 10.000325, 9.981713 
3.7650165e+3, 1.5496019e+2, -1436337.4, -1450785.8, -0.28431317, 0.00007221812, -0.000045236902, -1436337.4, -14947.107, 0.0, 10.000329, 9.981182 
3.7650165e+3, 1.6493528e+2, -1348284.1, -1371917.3, -0.5776984, 0.00007273252, 0.00004569049, -1348284.1, -24649.777, 0.0, 10.000332, 9.969096 
3.7650165e+3, 1.7490442e+2, -1250325.5, -1274275.6, -1.4365492, 0.00007443807, -0.000066685054, -1250325.5, -24388.71, 0.0, 10.000334, 9.968682 
3.7650165e+3, 1.8486692e+2, -1162248.3, -1195694.6, -0.5009183, 0.00007527894, 0.000075306976, -1162248.3, -33944.004, 0.0, 10.000335, 9.956238 
3.7650165e+3, 1.9482319e+2, -1064099.0, -1097808.6, -1.1841507, 0.00007521593, -0.000053576066, -1064099.0, -33366.23, 0.0, 10.000336, 9.955894 
3.7650165e+3, 2.047728e+2, -975931.8, -1019406.25, -0.97223353, 0.00007470832, 0.00007120285, -975931.8, -42705.207, 0.0, 10.000337, 9.943136 
3.7650165e+3, 2.1471597e+2, -877644.1, -921381.56, -2.2080307, 0.00007371974, -0.000120190736, -877644.1, -41860.67, 0.0, 10.000339, 9.942796 
3.7650165e+3, 2.2465245e+2, -789359.4, -843121.6, -1.6878185, 0.00007378744, 0.00012733335, -789359.4, -50953.45, 0.0, 10.0003395, 9.92975 
3.7650165e+3, 2.3458226e+2, -690925.94, -744944.25, -2.4622595, 0.00007504987, -0.00008672884, -690925.94, -49832.16, 0.0, 10.00034, 9.9294195 
3.7650165e+3, 2.4450514e+2, -602602.5, -666999.7, -1.3318743, 0.000075886644, 0.00007541714, -602602.5, -58752.793, 0.0, 10.000342, 9.9159775 
3.7650165e+3, 2.5442123e+2, -503849.88, -568325.2, -2.116185, 0.00007621413, -0.00010384437, -503849.88, -57177.992, 0.0, 10.000343, 9.915877 
3.7650165e+3, 2.6433027e+2, -415614.9, -490972.72, -1.0036533, 0.000075973694, 0.00014429695, -415614.9, -66051.336, 0.0, 10.000344, 9.901805 
3.7650165e+3, 2.742326e+2, -316329.66, -391360.63, -1.8253657, 0.0000750121, -0.00020068645, -316329.66, -63809.19, 0.0, 10.000345, 9.902225 
3.7650165e+3, 2.8412673e+2, -229855.56, -318068.8, -0.63402075, 0.000074638745, 0.00023085739, -229855.56, -74297.555, 0.0, 10.000347, 9.885278 
3.7650165e+3, 2.9401305e+2, -130148.01, -217752.92, -1.5356451, 0.00007507331, -0.00025247125, -130148.01, -71476.0, 0.0, 10.00035, 9.886056 
3.7650165e+3, 3.0392733e+2, -40408.688, -84748.15, -0.4377123, 0.000076330725, 0.00017360965, -40408.688, -40408.688, 0.0, 10.000352, 9.942004 
3.7650165e+3, 3.138712e+2, -39326.92, -82508.22, -1.540403, 0.00007880104, -0.000054261516, -39326.92, -39326.92, 0.0, 10.000355, 9.943515 
3.775017e+3, 1.24997e+2, -1719560.8, -1724187.3, 1.9420812, 0.00007299864, 0.000046856632, -1719560.8, -4531.2427, 0.0, 10.000315, 9.994182 
3.775017e+3, 1.3499105e+2, -1622173.9, -1627395.8, 2.1447418, 0.00007385618, -0.00011089315, -1622173.9, -5086.083, 0.0, 10.00032, 9.993398 
3.775017e+3, 1.449785e+2, -1534073.8, -1548119.3, 2.9901733, 0.000074094496, 0.00011658908, -1534073.8, -14863.105, 0.0, 10.000325, 9.981709 
3.775017e+3, 1.549602e+2, -1436341.3, -1450793.1, 1.2475094, 0.000073700685, -0.000046915626, -1436341.3, -14951.207, 0.0, 10.000329, 9.981177 
3.775017e+3, 1.6493529e+2, -1348286.0, -1371921.0, -0.0062948577, 0.00007396227, 0.0000448203, -1348286.0, -24651.86, 0.0, 10.000332, 9.969093 
3.775017e+3, 1.7490444e+2, -1250327.4, -1274279.3, -0.8693698, 0.00007489249, -0.00006543174, -1250327.4, -24390.76, 0.0, 10.000334, 9.96868 
3.775017e+3, 1.8486694e+2, -1162249.8, -1195697.5, -0.19338715, 0.00007558373, 0.00007639923, -1162249.8, -33945.668, 0.0, 10.000335, 9.956236 
3.775017e+3, 1.9482319e+2, -1064100.5, -1097811.5, -0.87867004, 0.00007602513, -0.00005503293, -1064100.5, -33367.84, 0.0, 10.000336, 9.955893 
3.775017e+3, 2.0477282e+2, -975934.44, -1019411.4, -0.40192413, 0.000076220516, 0.00006926248, -975934.44, -42707.926, 0.0, 10.000337, 9.943133 
3.775017e+3, 2.1471599e+2, -877646.75, -921386.75, -1.6325092, 0.00007614977, -0.00012037948, -877646.75, -41863.355, 0.0, 10.000339, 9.942792 
3.775017e+3, 2.2465247e+2, -789361.1, -843125.06, -1.2405264, 0.000076150995, 0.00012778082, -789361.1, -50955.207, 0.0, 10.0003395, 9.929749 
3.775017e+3, 2.3458228e+2, -690927.6, -744947.56, -2.0187807, 0.0000762337, -0.00008690751, -690927.6, -49833.848, 0.0, 10.00034, 9.929418 
3.775017e+3, 2.4450512e+2, -602604.25, -667003.2, -0.890835, 0.00007608457, 0.000074838266, -602604.25, -58754.543, 0.0, 10.000342, 9.915976 
3.775017e+3, 2.5442123e+2, -503851.63, -568328.75, -1.6756155, 0.00007565859, -0.00010455244, -503851.63, -57179.7, 0.0, 10.000343, 9.915875 
3.775017e+3, 2.6433024e+2, -415616.75, -490976.53, -0.51930004, 0.00007601643, 0.00014355671, -415616.75, -66053.15, 0.0, 10.000344, 9.901802 
3.775017e+3, 2.742326e+2, -316331.5, -391364.4, -1.3377309, 0.00007737191, -0.00020133618, -316331.5, -63810.96, 0.0, 10.000345, 9.902222 
3.775017e+3, 2.841267e+2, -229857.64, -318073.1, 0.1939167, 0.00007796857, 0.00023024589, -229857.64, -74299.53, 0.0, 10.000347, 9.885275 
3.775017e+3, 2.9401302e+2, -130150.086, -217757.22, -0.6767178, 0.00007752265, -0.00025311665, -130150.086, -71477.945, 0.0, 10.00035, 9.886053 
3.775017e+3, 3.039273e+2, -40411.18, -84753.336, 0.6613734, 0.000077431694, 0.0001736617, -40411.18, -40411.18, 0.0, 10.000352, 9.942001 
3.775017e+3, 3.138712e+2, -39329.465, -82513.516, -0.41315392, 0.00007787683, -0.000052426396, -39329.465, -39329.465, 0.0, 10.000355, 9.943512 
3.7850174e+3, 1.2499701e+2, -1719544.3, -1724179.6, 0.4293217, 0.000069859285, 0.000040795363, -1719544.3, -4514.8716, 0.0, 10.000326, 9.99418 
3.7850174e+3, 1.3499106e+2, -1622156.4, -1627387.8, -0.6294191, 0.00007473319, -0.000111376205, -1622156.4, -5068.8086, 0.0, 10.000332, 9.993397 
3.7850174e+3, 1.4497854e+2, -1534057.6, -1548115.1, -0.6516717, 0.00007714396, 0.00011851569, -1534057.6, -14847.205, 0.0, 10.000338, 9.981705 
3.7850174e+3, 1.5496022e+2, -1436324.1, -1450788.5, -1.841279, 0.0000770703, -0.000050745435, -1436324.1, -14934.275, 0.0, 10.000342, 9.9811735 
3.7850174e+3, 1.649353e+2, -1348267.4, -1371913.4, -3.8935494, 0.00007672831, 0.000040146944, -1348267.4, -24633.332, 0.0, 10.000344, 9.969091 
3.7850174e+3, 1.7490445e+2, -1250310.0, -1274272.3, -4.4512887, 0.000076112905, -0.000065938344, -1250310.0, -24373.504, 0.0, 10.000345, 9.968678 
3.7850174e+3, 1.8486695e+2, -1162232.4, -1195689.9, -3.4726017, 0.000076101074, 0.000076891585, -1162232.4, -33928.414, 0.0, 10.000346, 9.956235 
3.7850174e+3, 1.948232e+2, -1064083.0, -1097803.9, -3.6374183, 0.000076720025, -0.000056852834, -1064083.0, -33350.496, 0.0, 10.000347, 9.955892 
3.785017e+3, 2.0477282e+2, -975919.06, -1019407.4, -2.7706943, 0.00007712866, 0.00006721937, -975919.06, -42692.62, 0.0, 10.000348, 9.94313 
3.785017e+3, 2.1471599e+2, -877632.06, -921383.2, -4.104878, 0.00007730968, -0.000120385186, -877632.06, -41848.7, 0.0, 10.000349, 9.942788 
3.785017e+3, 2.2465247e+2, -789345.44, -843119.25, -3.7004445, 0.00007741473, 0.00012840582, -789345.44, -50939.523, 0.0, 10.000351, 9.929747 
3.785017e+3, 2.3458226e+2, -690911.6, -744941.6, -4.2671947, 0.0000774339, -0.00008724362, -690911.6, -49817.87, 0.0, 10.000352, 9.929416 
3.785017e+3, 2.4450512e+2, -602588.56, -666998.2, -3.1323714, 0.00007728236, 0.00007402364, -602588.56, -58738.813, 0.0, 10.000354, 9.915973 
3.785017e+3, 2.544212e+2, -503835.78, -568323.7, -4.1228538, 0.0000769271, -0.000105267834, -503835.78, -57163.785, 0.0, 10.000355, 9.915873 
3.785017e+3, 2.6433024e+2, -415600.63, -490971.0, -2.997909, 0.0000773221, 0.0001429042, -415600.63, -66036.914, 0.0, 10.000356, 9.9018 
3.785017e+3, 2.7423257e+2, -316315.53, -391359.03, -3.606954, 0.00007867186, -0.00020197337, -316315.53, -63794.88, 0.0, 10.000358, 9.90222 
3.785017e+3, 2.841267e+2, -229841.92, -318068.2, -1.487169, 0.00007925278, 0.00022956308, -229841.92, -74283.68, 0.0, 10.00036, 9.885272 
3.7850174e+3, 2.9401302e+2, -130134.29, -217752.38, -2.0797942, 0.00007877761, -0.00025392824, -130134.29, -71461.99, 0.0, 10.000361, 9.88605 
3.7850174e+3, 3.039273e+2, -40395.902, -84749.81, -0.28719667, 0.000078603356, 0.00017300072, -40395.902, -40395.902, 0.0, 10.000364, 9.941998 
3.7850174e+3, 3.1387118e+2, -39313.816, -82509.93, -1.2957996, 0.000078885176, -0.000052521442, -39313.816, -39313.816, 0.0, 10.000367, 9.943508 
3.7950176e+3, 1.2499703e+2, -1719546.6, -1724184.1, 2.6853626, 0.00006262948, 0.000031778214, -1719546.6, -4517.409, 0.0, 10.000326, 9.994177 
3.7950176e+3, 1.349911e+2, -1622158.8, -1627392.3, 1.6242155, 0.00007543302, -0.00010905786, -1622158.8, -5071.3994, 0.0, 10.000332, 9.993394 
3.7950176e+3, 1.4497855e+2, -1534060.4, -1548120.3, 1.105847, 0.00008200757, 0.00012354595, -1534060.4, -14850.073, 0.0, 10.000338, 9.981702 
3.7950176e+3, 1.5496022e+2, -1436326.9, -1450793.6, -0.074842766, 0.000082314335, -0.000056711768, -1436326.9, -14937.019, 0.0, 10.000342, 9.981171 
3.7950176e+3, 1.649353e+2, -1348268.6, -1371915.6, -3.6018856, 0.00008102041, 0.000031696105, -1348268.6, -24634.596, 0.0, 10.000344, 9.96909 
3.7950176e+3, 1.7490445e+2, -1250311.3, -1274274.6, -4.1644874, 0.000078094236, -0.00006819306, -1250311.3, -24374.762, 0.0, 10.000345, 9.968677 
3.7950176e+3, 1.8486695e+2, -1162232.8, -1195690.6, -3.1287684, 0.00007682959, 0.000076787976, -1162232.8, -33928.863, 0.0, 10.000346, 9.956234 
3.7950176e+3, 1.948232e+2, -1064083.4, -1097804.6, -3.2913496, 0.000077301476, -0.00005903345, -1064083.4, -33350.91, 0.0, 10.000347, 9.955892 
3.7950176e+3, 2.0477282e+2, -975921.9, -1019412.94, -2.3330007, 0.00007743692, 0.00006507406, -975921.9, -42695.47, 0.0, 10.000348, 9.943126 
3.7950176e+3, 2.1471599e+2, -877634.9, -921388.75, -3.6655734, 0.00007720812, -0.000120209246, -877634.9, -41851.527, 0.0, 10.000349, 9.942785 
3.7950176e+3, 2.2465245e+2, -789346.75, -843121.8, -3.1786547, 0.00007758608, 0.00012920701, -789346.75, -50940.79, 0.0, 10.000351, 9.929745 
3.7950176e+3, 2.3458226e+2, -690912.9, -744944.06, -3.7430212, 0.00007865042, -0.000087736174, -690912.9, -49819.055, 0.0, 10.000352, 9.929414 
3.7950176e+3, 2.4450512e+2, -602590.7, -667002.44, -2.6219635, 0.00007947334, 0.00007297482, -602590.7, -58740.867, 0.0, 10.000354, 9.91597 
3.7950176e+3, 2.544212e+2, -503837.94, -568328.06, -3.6127508, 0.000080007456, -0.00010599064, -503837.9, -57165.832, 0.0, 10.000355, 9.91587 
3.7950176e+3, 2.6433024e+2, -415602.13, -490974.06, -2.5304606, 0.00007988227, 0.00014233871, -415602.13, -66038.29, 0.0, 10.000356, 9.901798 
3.7950176e+3, 2.7423257e+2, -316316.97, -391361.97, -3.142513, 0.00007891919, -0.00020259822, -316316.97, -63796.168, 0.0, 10.000358, 9.902218 
3.7950176e+3, 2.8412667e+2, -229843.53, -318071.53, -0.61749613, 0.000078505254, 0.00022880938, -229843.53, -74285.125, 0.0, 10.00036, 9.88527 
3.7950176e+3, 2.94013e+2, -130135.91, -217755.72, -1.1738678, 0.00007884632, -0.00025490488, -130135.91, -71463.414, 0.0, 10.000361, 9.886048 
3.7950176e+3, 3.0392727e+2, -40398.297, -84754.79, 0.92100143, 0.00007984531, 0.00017163153, -40398.297, -40398.297, 0.0, 10.000364, 9.941995 
3.7950176e+3, 3.1387115e+2, -39316.305, -82515.11, -0.05132759, 0.00008181307, -0.000054533604, -39316.305, -39316.305, 0.0, 10.000367, 9.943504 
3.805018e+3, 1.2499702e+2, -1719517.6, -1724174.1, -11.527413, 0.00006010043, 0.00002913694, -1719517.6, -4488.396, 0.0, 10.000346, 9.994173 
3.805018e+3, 1.3499108e+2, -1622139.3, -1627387.3, -14.030378, 0.00007570717, -0.000104431805, -1622139.3, -5051.764, 0.0, 10.000346, 9.993389 
3.805018e+3, 1.4497855e+2, -1534040.9, -1548105.3, -12.706027, 0.00008443842, 0.00012913278, -1534040.9, -14830.496, 0.0, 10.000347, 9.981706 
3.805018e+3, 1.5496022e+2, -1436313.0, -1450781.6, -8.506973, 0.00008625277, -0.000061322404, -1436313.0, -14923.156, 0.0, 10.000348, 9.981174 
3.805018e+3, 1.649353e+2, -1348259.1, -1371910.1, -9.062242, 0.000084743995, 0.000024628927, -1348259.1, -24624.998, 0.0, 10.00035, 9.96909 
3.805018e+3, 1.7490445e+2, -1250298.5, -1274267.4, -8.198927, 0.00007984645, -0.00006982258, -1250298.5, -24362.041, 0.0, 10.000353, 9.9686775 
3.8050178e+3, 1.8486695e+2, -1162217.1, -1195681.6, -6.060569, 0.00007753215, 0.00007718222, -1162217.1, -33913.26, 0.0, 10.000356, 9.956235 
3.8050178e+3, 1.948232e+2, -1064065.8, -1097794.5, -5.2970653, 0.00007791778, -0.000060183847, -1064065.8, -33333.266, 0.0, 10.000359, 9.955892 
3.8050178e+3, 2.0477282e+2, -975906.4, -1019409.1, -3.9845543, 0.00007797652, 0.000063580934, -975906.4, -42679.926, 0.0, 10.0003605, 9.943122 
3.8050178e+3, 2.1471597e+2, -877618.7, -921384.75, -5.440273, 0.00007768122, -0.00012074427, -877618.7, -41835.26, 0.0, 10.000361, 9.942781 
3.8050178e+3, 2.2465245e+2, -789329.25, -843115.06, -5.269611, 0.0000782498, 0.00012929273, -789329.25, -50923.227, 0.0, 10.000363, 9.929743 
3.8050178e+3, 2.3458225e+2, -690896.7, -744937.94, -6.00916, 0.00007979552, -0.000087411805, -690896.7, -49802.773, 0.0, 10.000363, 9.929412 
3.8050178e+3, 2.445051e+2, -602576.06, -666997.94, -4.84014, 0.00008099461, 0.00007292687, -602576.06, -58726.15, 0.0, 10.000364, 9.915967 
3.8050178e+3, 2.544212e+2, -503824.1, -568324.0, -5.6187696, 0.00008177903, -0.00010713976, -503824.1, -57151.863, 0.0, 10.000365, 9.915867 
3.8050178e+3, 2.643302e+2, -415587.47, -490969.13, -4.1823673, 0.00008149256, 0.00014078313, -415587.47, -66023.47, 0.0, 10.000367, 9.901796 
3.8050178e+3, 2.7423254e+2, -316300.38, -391356.06, -4.853729, 0.00007984497, -0.00020367507, -316300.38, -63779.395, 0.0, 10.000369, 9.902216 
3.8050178e+3, 2.8412667e+2, -229826.42, -318065.78, -2.3660018, 0.00007915756, 0.00022817882, -229826.42, -74267.82, 0.0, 10.000372, 9.885268 
3.8050178e+3, 2.9401296e+2, -130119.77, -217750.53, -3.0383108, 0.00007978981, -0.00025513768, -130119.77, -71447.06, 0.0, 10.000374, 9.886046 
3.805018e+3, 3.0392724e+2, -40383.777, -84750.92, -0.57385147, 0.000081146456, 0.00017135763, -40383.777, -40383.777, 0.0, 10.000376, 9.941992 
3.805018e+3, 3.1387112e+2, -39303.406, -82512.08, -1.0338222, 0.000083565166, -0.00005549963, -39303.406, -39303.406, 0.0, 10.000378, 9.943501 
3.8150182e+3, 1.24997005e+2, -1719523.4, -1724184.9, -11.383856, 0.000062239276, 0.00003299886, -1719523.4, -4493.935, 0.0, 10.000346, 9.994166 
3.8150182e+3, 1.3499106e+2, -1622145.0, -1627398.0, -13.883961, 0.000075558724, -0.00009751642, -1622144.9, -5057.168, 0.0, 10.000346, 9.993382 
3.8150182e+3, 1.4497851e+2, -1534031.4, -1548087.4, -12.2229395, 0.000084453575, 0.00013527067, -1534031.4, -14820.727, 0.0, 10.000347, 9.981717 
3.8150182e+3, 1.549602e+2, -1436303.6, -1450763.9, -8.031447, 0.00008889465, -0.00006458754, -1436303.6, -14913.582, 0.0, 10.000348, 9.981185 
3.8150182e+3, 1.6493529e+2, -1348257.1, -1371906.3, -7.992074, 0.00008790296, 0.000018935467, -1348257.1, -24622.908, 0.0, 10.00035, 9.969093 
3.8150182e+3, 1.7490444e+2, -1250296.5, -1274263.8, -7.1316304, 0.00008137115, -0.00007083153, -1250296.5, -24360.045, 0.0, 10.000353, 9.968679 
3.8150182e+3, 1.8486695e+2, -1162215.5, -1195678.4, -5.192663, 0.00007820899, 0.00007807068, -1162215.5, -33911.594, 0.0, 10.000356, 9.956237 
3.8150182e+3, 1.948232e+2, -1064064.1, -1097791.4, -4.4330754, 0.00007856873, -0.00006031126, -1064064.1, -33331.64, 0.0, 10.000359, 9.9558935 
3.8150182e+3, 2.0477282e+2, -975909.4, -1019415.06, -3.3380806, 0.00007874591, 0.00006273546, -975909.4, -42682.945, 0.0, 10.0003605, 9.943119 
3.8150182e+3, 2.1471597e+2, -877621.75, -921390.9, -4.7969728, 0.000078725105, -0.000121985286, -877621.75, -41838.285, 0.0, 10.000361, 9.942778 
3.8150182e+3, 2.2465244e+2, -789330.94, -843118.4, -5.038333, 0.00007940256, 0.00012866792, -789330.94, -50924.77, 0.0, 10.000363, 9.929741 
3.8150182e+3, 2.3458225e+2, -690898.3, -744941.1, -5.791809, 0.00008086981, -0.00008627636, -690898.25, -49804.242, 0.0, 10.000363, 9.92941 
3.8150182e+3, 2.4450509e+2, -602577.8, -667001.44, -4.5054, 0.00008185091, 0.000073872674, -602577.8, -58727.758, 0.0, 10.000364, 9.915965 
3.8150182e+3, 2.5442117e+2, -503825.8, -568327.5, -5.27789, 0.00008225098, -0.000108712244, -503825.8, -57153.414, 0.0, 10.000365, 9.915865 
3.8150182e+3, 2.6433018e+2, -415589.1, -490972.44, -3.2459674, 0.00008215961, 0.00013824434, -415589.1, -66024.89, 0.0, 10.000367, 9.9017935 
3.8150182e+3, 2.742325e+2, -316301.97, -391359.34, -3.8777382, 0.00008144452, -0.00020520078, -316301.97, -63780.773, 0.0, 10.000369, 9.902214 
3.8150182e+3, 2.8412664e+2, -229828.28, -318069.6, -1.6564144, 0.00008120001, 0.00022767045, -229828.28, -74269.445, 0.0, 10.000372, 9.885265 
3.8150182e+3, 2.9401296e+2, -130121.62, -217754.36, -2.3526037, 0.000081602055, -0.000254632, -130121.62, -71448.664, 0.0, 10.000374, 9.886044 
3.8150182e+3, 3.039272e+2, -40385.375, -84754.24, 0.243196, 0.00008250644, 0.00017217116, -40385.37, -40385.37, 0.0, 10.000376, 9.941989 
3.8150182e+3, 3.138711e+2, -39304.977, -82515.35, -0.20187877, 0.0000841497, -0.0000554269, -39304.977, -39304.977, 0.0, 10.000378, 9.9435 
3.8250187e+3, 1.2499699e+2, -1719503.6, -1724179.8, -0.5078164, 0.0000674915, 0.000023412897, -1719503.6, -4474.083, 0.0, 10.0003605, 9.994162 
3.8250187e+3, 1.3499105e+2, -1622126.5, -1627393.6, -1.6064354, 0.00007615525, -0.00009170412, -1622126.5, -5038.5776, 0.0, 10.0003605, 9.993378 
3.8250187e+3, 1.4497851e+2, -1534006.3, -1548067.8, -1.2269025, 0.00008312244, 0.00014444612, -1534006.3, -14795.544, 0.0, 10.00036, 9.981722 
3.8250187e+3, 1.5496019e+2, -1436281.6, -1450746.0, -1.316448, 0.000088377325, -0.00006874495, -1436281.6, -14891.499, 0.0, 10.00036, 9.981191 
3.8250184e+3, 1.6493528e+2, -1348242.0, -1371900.4, -3.848596, 0.00008792804, 0.000010145772, -1348242.0, -24607.705, 0.0, 10.0003605, 9.969091 
3.8250184e+3, 1.7490444e+2, -1250280.0, -1274257.3, -6.110808, 0.00008166195, -0.00007538095, -1250280.0, -24343.441, 0.0, 10.000364, 9.9686775 
3.8250184e+3, 1.8486694e+2, -1162196.6, -1195667.8, -6.70169, 0.00007870803, 0.000076598975, -1162196.6, -33892.617, 0.0, 10.000367, 9.956238 
3.8250184e+3, 1.9482319e+2, -1064046.3, -1097781.3, -6.8681865, 0.00007921596, -0.000059920472, -1064046.3, -33313.633, 0.0, 10.000369, 9.955894 
3.8250184e+3, 2.047728e+2, -975895.44, -1019411.25, -6.167359, 0.00007961567, 0.0000635102, -975895.44, -42668.9, 0.0, 10.000371, 9.943115 
3.8250184e+3, 2.1471596e+2, -877608.94, -921387.7, -6.9386845, 0.00007989785, -0.00012242614, -877608.94, -41825.344, 0.0, 10.000372, 9.942775 
3.8250184e+3, 2.2465242e+2, -789317.56, -843114.3, -7.068616, 0.00008066828, 0.0001283805, -789317.56, -50911.273, 0.0, 10.000373, 9.929739 
3.8250184e+3, 2.3458223e+2, -690883.56, -744936.44, -8.102472, 0.00008199097, -0.00008486147, -690883.56, -49789.383, 0.0, 10.000375, 9.929407 
3.8250184e+3, 2.4450508e+2, -602561.3, -666995.3, -6.7033563, 0.0000828121, 0.00007512587, -602561.3, -58711.07, 0.0, 10.000376, 9.915963 
3.8250184e+3, 2.5442114e+2, -503807.8, -568320.6, -7.180574, 0.00008303403, -0.000109847366, -503807.8, -57135.2, 0.0, 10.000378, 9.915863 
3.8250184e+3, 2.6433018e+2, -415571.7, -490966.3, -4.9396076, 0.00008305143, 0.00013615859, -415571.7, -66007.26, 0.0, 10.00038, 9.901792 
3.8250184e+3, 2.742325e+2, -316287.22, -391354.66, -5.676735, 0.0000828101, -0.00020640339, -316287.22, -63765.793, 0.0, 10.0003805, 9.902211 
3.8250184e+3, 2.841266e+2, -229814.98, -318065.84, -3.4207168, 0.00008277309, 0.00022707772, -229814.98, -74255.9, 0.0, 10.000381, 9.8852625 
3.8250187e+3, 2.9401293e+2, -130107.98, -217750.48, -4.0562525, 0.00008301676, -0.00025499729, -130107.98, -71434.74, 0.0, 10.000384, 9.886041 
3.8250187e+3, 3.0392718e+2, -40371.035, -84750.19, -1.246496, 0.00008371516, 0.00017197854, -40371.035, -40371.035, 0.0, 10.000386, 9.941987 
3.8250187e+3, 3.1387106e+2, -39289.063, -82510.54, -1.9308218, 0.00008508518, -0.000055525034, -39289.063, -39289.063, 0.0, 10.00039, 9.943497 
3.8350192e+3, 1.2499697e+2, -1719506.3, -1724184.5, -0.6486171, 0.000075834236, 0.0000006056642, -1719506.3, -4476.536, 0.0, 10.0003605, 9.994159 
3.8350192e+3, 1.3499106e+2, -1622129.0, -1627398.4, -1.7467117, 0.00007749144, -0.00008698494, -1622129.0, -5041.1387, 0.0, 10.0003605, 9.993375 
3.8350192e+3, 1.4497854e+2, -1534006.4, -1548068.1, -1.4601976, 0.00008045502, 0.00015663849, -1534006.4, -14795.828, 0.0, 10.00036, 9.981722 
3.8350192e+3, 1.5496019e+2, -1436281.8, -1450746.4, -1.550466, 0.00008472394, -0.00007378736, -1436281.8, -14891.676, 0.0, 10.00036, 9.981191 
3.8350192e+3, 1.6493526e+2, -1348246.9, -1371909.9, -2.4304888, 0.00008484216, -0.0000017172655, -1348246.9, -24612.574, 0.0, 10.0003605, 9.969086 
3.8350192e+3, 1.7490442e+2, -1250284.9, -1274266.6, -4.682591, 0.000080727965, -0.000083444946, -1250284.9, -24348.236, 0.0, 10.000364, 9.968672 
3.8350192e+3, 1.8486694e+2, -1162197.0, -1195668.5, -6.0283847, 0.00007903068, 0.00007278418, -1162197.0, -33892.9, 0.0, 10.000367, 9.956237 
3.8350192e+3, 1.9482319e+2, -1064046.6, -1097782.0, -6.2045555, 0.000079859565, -0.00005901559, -1064046.5, -33313.895, 0.0, 10.000369, 9.955894 
3.8350192e+3, 2.047728e+2, -975897.06, -1019414.44, -5.765659, 0.00008058509, 0.00006589304, -975897.06, -42670.44, 0.0, 10.000371, 9.943113 
3.8350192e+3, 2.1471594e+2, -877610.6, -921390.94, -6.5433035, 0.00008119849, -0.00012207271, -877610.6, -41826.85, 0.0, 10.000372, 9.942772 
3.8350192e+3, 2.2465241e+2, -789319.7, -843118.6, -6.5049777, 0.00008204609, 0.000128428, -789319.7, -50913.26, 0.0, 10.000373, 9.929736 
3.8350192e+3, 2.3458222e+2, -690885.75, -744940.7, -7.533642, 0.000083158666, -0.00008316929, -690885.75, -49791.344, 0.0, 10.000375, 9.929405 
3.8350192e+3, 2.4450505e+2, -602562.5, -666997.75, -5.9734216, 0.000083877494, 0.00007668407, -602562.5, -58712.074, 0.0, 10.000376, 9.915961 
3.8350192e+3, 2.5442114e+2, -503808.97, -568323.0, -6.4429817, 0.00008412611, -0.00011054838, -503808.97, -57136.13, 0.0, 10.000378, 9.915861 
3.8350192e+3, 2.6433015e+2, -415573.47, -490969.97, -4.587431, 0.00008416659, 0.00013452249, -415573.47, -66008.805, 0.0, 10.00038, 9.901789 
3.8350192e+3, 2.7423248e+2, -316289.03, -391358.34, -5.350103, 0.00008394343, -0.00020728538, -316289.03, -63767.336, 0.0, 10.0003805, 9.902209 
3.8350192e+3, 2.8412658e+2, -229816.75, -318069.5, -2.657108, 0.000083880164, 0.00022640111, -229816.75, -74257.37, 0.0, 10.000381, 9.885261 
3.8350192e+3, 2.940129e+2, -130109.72, -217754.11, -3.2532861, 0.00008403682, -0.00025622715, -130109.72, -71436.16, 0.0, 10.000384, 9.886039 
3.8350192e+3, 3.0392715e+2, -40373.074, -84754.44, -0.047226615, 0.00008477376, 0.00017078708, -40373.074, -40373.074, 0.0, 10.000386, 9.941984 
3.8350192e+3, 3.1387103e+2, -39291.145, -82514.875, -0.6849961, 0.000086369204, -0.00005579297, -39291.145, -39291.145, 0.0, 10.00039, 9.943494 
3.8450196e+3, 1.2499697e+2, -1719493.4, -1724180.6, -1.4554858, 0.000081107275, -0.0000043488158, -1719493.4, -4463.7305, 0.0, 10.00037, 9.994156 
3.8450196e+3, 1.3499106e+2, -1622110.3, -1627391.4, -2.3330743, 0.000079365316, -0.00007905785, -1622110.3, -5022.4487, 0.0, 10.000374, 9.993373 
3.8450193e+3, 1.4497854e+2, -1533981.1, -1548055.4, -2.4234798, 0.00008002358, 0.0001677484, -1533981.1, -14770.547, 0.0, 10.000376, 9.981722 
3.8450193e+3, 1.5496019e+2, -1436252.5, -1450731.6, -2.8501873, 0.00008308651, -0.000073572046, -1436252.5, -14862.442, 0.0, 10.000378, 9.98119 
3.8450193e+3, 1.6493526e+2, -1348221.5, -1371901.8, -2.8091826, 0.00008320699, -0.000006263835, -1348221.5, -24587.074, 0.0, 10.00038, 9.969081 
3.8450193e+3, 1.749044e+2, -1250264.5, -1274261.3, -4.0458, 0.00008032741, -0.00008650011, -1250264.5, -24327.7, 0.0, 10.00038, 9.968667 
3.8450193e+3, 1.8486692e+2, -1162177.5, -1195659.8, -5.5870385, 0.000079363876, 0.00007119397, -1162177.5, -33873.176, 0.0, 10.0003805, 9.956236 
3.8450193e+3, 1.9482318e+2, -1064029.1, -1097774.4, -6.33646, 0.000080403, -0.000059168575, -1064029.1, -33296.402, 0.0, 10.0003805, 9.955893 
3.8450193e+3, 2.0477279e+2, -975881.75, -1019409.7, -6.364211, 0.000081358485, 0.000066162356, -975881.75, -42655.004, 0.0, 10.000381, 9.94311 
3.8450193e+3, 2.1471593e+2, -877594.7, -921386.0, -7.6580014, 0.00008222328, -0.00012247931, -877594.7, -41810.777, 0.0, 10.000383, 9.942769 
3.8450193e+3, 2.246524e+2, -789303.75, -843113.9, -7.9132915, 0.000083208404, 0.00012835182, -789303.75, -50897.117, 0.0, 10.000384, 9.929733 
3.8450193e+3, 2.3458219e+2, -690870.1, -744936.2, -9.085305, 0.00008432969, -0.00008177649, -690870.1, -49775.523, 0.0, 10.000386, 9.929401 
3.8450193e+3, 2.4450503e+2, -602546.9, -666991.75, -7.6434827, 0.00008523037, 0.000077917706, -602546.9, -58696.21, 0.0, 10.000387, 9.91596 
3.8450193e+3, 2.5442111e+2, -503795.13, -568317.8, -8.141895, 0.00008586769, -0.00011141864, -503795.13, -57122.05, 0.0, 10.000388, 9.91586 
3.8450196e+3, 2.6433012e+2, -415560.06, -490965.8, -6.1195483, 0.0000858517, 0.00013260297, -415560.06, -65995.11, 0.0, 10.000389, 9.901787 
3.8450196e+3, 2.7423245e+2, -316273.16, -391353.1, -6.742338, 0.00008500536, -0.00020890824, -316273.16, -63751.17, 0.0, 10.000392, 9.902206 
3.8450196e+3, 2.8412655e+2, -229799.66, -318063.75, -3.8690534, 0.0000845647, 0.00022530743, -229799.66, -74239.96, 0.0, 10.000395, 9.885258 
3.8450196e+3, 2.9401284e+2, -130093.04, -217748.63, -4.4269886, 0.000084682775, -0.00025647992, -130093.04, -71419.13, 0.0, 10.000397, 9.886036 
3.8450196e+3, 3.0392712e+2, -40358.027, -84750.3, -1.0056446, 0.00008564735, 0.00017084778, -40358.027, -40358.027, 0.0, 10.000398, 9.941981 
3.8450196e+3, 3.1387097e+2, -39278.535, -82511.98, -1.5623229, 0.000087862456, -0.00005620501, -39278.535, -39278.535, 0.0, 10.0004, 9.943491 
3.8550198e+3, 1.2499699e+2, -1719495.4, -1724184.4, -0.19741976, 0.0000833339, 0.000008563513, -1719495.4, -4465.815, 0.0, 10.00037, 9.994153 
3.8550198e+3, 1.3499108e+2, -1622112.1, -1627395.1, -1.0730699, 0.000081772865, -0.00006794792, -1622112.1, -5024.476, 0.0, 10.000374, 9.99337 
3.8550198e+3, 1.4497855e+2, -1533982.0, -1548057.3, -1.7031233, 0.000081811246, 0.00017778354, -1533982.0, -14771.52, 0.0, 10.000376, 9.98172 
3.8550198e+3, 1.5496019e+2, -1436253.5, -1450733.5, -2.131312, 0.00008344994, -0.00006813948, -1436253.5, -14863.39, 0.0, 10.000378, 9.981189 
3.8550198e+3, 1.6493526e+2, -1348224.1, -1371907.0, -2.5479481, 0.00008301178, -0.0000035497565, -1348224.1, -24589.777, 0.0, 10.00038, 9.969078 
3.8550198e+3, 1.749044e+2, -1250267.3, -1274266.5, -3.7884357, 0.00008045639, -0.000084584324, -1250267.3, -24330.338, 0.0, 10.00038, 9.968664 
3.8550198e+3, 1.8486689e+2, -1162179.0, -1195662.9, -5.4479604, 0.00007970761, 0.0000718118, -1162179.0, -33874.688, 0.0, 10.0003805, 9.956234 
3.8550198e+3, 1.9482316e+2, -1064030.8, -1097777.4, -6.195687, 0.00008084707, -0.000060371207, -1064030.8, -33297.848, 0.0, 10.0003805, 9.955891 
3.8550198e+3, 2.0477277e+2, -975884.5, -1019415.06, -5.8043914, 0.000081937396, 0.00006433425, -975884.5, -42657.586, 0.0, 10.000381, 9.943108 
3.8550198e+3, 2.1471591e+2, -877597.44, -921391.4, -7.0891013, 0.00008297443, -0.0001236402, -877597.44, -41813.32, 0.0, 10.000383, 9.942766 
3.8550198e+3, 2.2465236e+2, -789306.25, -843118.75, -7.4041724, 0.00008415697, 0.00012815281, -789306.25, -50899.38, 0.0, 10.000384, 9.929729 
3.8550198e+3, 2.3458217e+2, -690872.56, -744941.06, -8.578383, 0.00008550416, -0.000080680846, -690872.56, -49777.727, 0.0, 10.000386, 9.929399 
3.8550198e+3, 2.44505e+2, -602548.1, -666994.3, -7.33866, 0.00008686862, 0.000078829195, -602548.1, -58697.22, 0.0, 10.000387, 9.915958 
3.8550198e+3, 2.544211e+2, -503796.34, -568320.25, -7.8465595, 0.0000882537, -0.00011245693, -503796.34, -57122.97, 0.0, 10.000388, 9.915858 
3.8550198e+3, 2.643301e+2, -415561.63, -490969.0, -5.18076, 0.00008810233, 0.0001304021, -415561.63, -65996.35, 0.0, 10.000389, 9.901785 
3.8550198e+3, 2.7423242e+2, -316274.72, -391356.28, -5.760867, 0.00008599655, -0.0002112664, -316274.72, -63752.4, 0.0, 10.000392, 9.9022045 
3.8550198e+3, 2.8412652e+2, -229801.36, -318067.25, -3.1247032, 0.000084830135, 0.00022379978, -229801.36, -74241.31, 0.0, 10.000395, 9.885256 
3.8550198e+3, 2.940128e+2, -130094.73, -217752.14, -3.7054188, 0.00008495767, -0.00025576307, -130094.73, -71420.47, 0.0, 10.000397, 9.886034 
3.85502e+3, 3.0392706e+2, -40359.957, -84754.32, -0.376248, 0.000086337444, 0.00017215105, -40359.957, -40359.957, 0.0, 10.000398, 9.941978 
3.85502e+3, 3.1387094e+2, -39280.496, -82516.06, -0.9428933, 0.000089563204, -0.000056760044, -39280.496, -39280.496, 0.0, 10.0004, 9.943488 
3.8650203e+3, 1.2499699e+2, -1719470.1, -1724172.1, -2.306262, 0.00008541451, 0.000008503008, -1719470.1, -4440.547, 0.0, 10.000386, 9.994152 
3.8650203e+3, 1.3499108e+2, -1622087.3, -1627383.1, -2.3114913, 0.0000846281, -0.000063679225, -1622087.3, -4999.5737, 0.0, 10.000389, 9.993369 
3.8650203e+3, 1.4497855e+2, -1533958.8, -1548047.0, -3.4998417, 0.00008397305, 0.00018303965, -1533958.8, -14748.291, 0.0, 10.000391, 9.981718 
3.8650203e+3, 1.5496017e+2, -1436232.3, -1450724.4, -4.4359503, 0.00008344335, -0.00006934873, -1436232.3, -14842.09, 0.0, 10.000392, 9.981187 
3.8650203e+3, 1.6493525e+2, -1348207.4, -1371903.3, -6.0804324, 0.00008250548, -0.0000061035853, -1348207.4, -24572.887, 0.0, 10.000392, 9.969073 
3.8650203e+3, 1.7490439e+2, -1250253.0, -1274264.1, -8.181111, 0.00008115217, -0.000083261635, -1250253.0, -24316.037, 0.0, 10.000391, 9.968659 
3.8650203e+3, 1.8486688e+2, -1162161.6, -1195653.9, -9.151143, 0.000081054015, 0.000074541655, -1162161.6, -33857.17, 0.0, 10.000392, 9.956234 
3.8650203e+3, 1.9482315e+2, -1064011.6, -1097767.4, -8.398064, 0.000082267674, -0.00005881544, -1064011.6, -33278.52, 0.0, 10.000393, 9.955891 
3.8650203e+3, 2.0477276e+2, -975867.25, -1019409.6, -7.0003014, 0.00008346179, 0.000064990185, -975867.25, -42640.184, 0.0, 10.000395, 9.943105 
3.8650203e+3, 2.147159e+2, -877581.1, -921386.56, -7.9900455, 0.00008463475, -0.00012358742, -877581.1, -41796.85, 0.0, 10.000396, 9.942763 
3.8650203e+3, 2.2465235e+2, -789290.8, -843114.7, -8.209581, 0.00008582378, 0.00012830831, -789290.8, -50883.723, 0.0, 10.000397, 9.929727 
3.8650203e+3, 2.3458214e+2, -690857.56, -744937.25, -9.504377, 0.000087031105, -0.00007962445, -690857.56, -49762.453, 0.0, 10.000398, 9.929396 
3.8650203e+3, 2.4450497e+2, -602531.44, -666987.6, -8.300502, 0.00008815803, 0.0000795795, -602531.44, -58680.215, 0.0, 10.000399, 9.9159565 
3.8650203e+3, 2.5442106e+2, -503778.38, -568312.94, -8.712764, 0.000089189096, -0.00011345448, -503778.38, -57104.707, 0.0, 10.000401, 9.915857 
3.8650203e+3, 2.6433006e+2, -415544.34, -490962.97, -5.7732224, 0.000088990564, 0.00012838477, -415544.34, -65978.76, 0.0, 10.000402, 9.901783 
3.8650203e+3, 2.7423236e+2, -316259.2, -391351.22, -6.5067506, 0.00008722817, -0.00021337409, -316259.2, -63736.523, 0.0, 10.000403, 9.902203 
3.8650203e+3, 2.8412646e+2, -229787.44, -318064.06, -4.3269267, 0.00008617947, 0.00022242498, -229787.44, -74227.016, 0.0, 10.000405, 9.885253 
3.8650203e+3, 2.9401278e+2, -130080.836, -217749.11, -5.657528, 0.00008611418, -0.00025528297, -130080.836, -71406.18, 0.0, 10.000407, 9.886031 
3.8650203e+3, 3.0392703e+2, -40345.0, -84749.7, -2.5502987, 0.000087198816, 0.0001733547, -40345.0, -40345.0, 0.0, 10.000409, 9.941976 
3.8650203e+3, 3.1387088e+2, -39264.332, -82510.73, -2.7077694, 0.00008998062, -0.000056523302, -39264.332, -39264.332, 0.0, 10.000412, 9.943486 
3.8750204e+3, 1.2499696e+2, -1719470.1, -1724172.1, -1.0765954, 0.000087350265, -0.000004314276, -1719470.1, -4440.3237, 0.0, 10.000386, 9.994152 
3.8750204e+3, 1.3499106e+2, -1622087.3, -1627383.1, -1.0828344, 0.000087927656, -0.00006619765, -1622087.3, -4999.4775, 0.0, 10.000389, 9.993369 
3.8750204e+3, 1.4497854e+2, -1533960.9, -1548051.0, -3.2049909, 0.000086506174, 0.0001835545, -1533960.9, -14750.328, 0.0, 10.000391, 9.981716 
3.8750204e+3, 1.5496016e+2, -1436234.4, -1450728.3, -4.142981, 0.000083069724, -0.00007714725, -1436234.4, -14844.025, 0.0, 10.000392, 9.981184 
3.8750204e+3, 1.6493522e+2, -1348212.0, -1371912.0, -6.410421, 0.00008169055, -0.000013883928, -1348212.0, -24577.314, 0.0, 10.000392, 9.969068 
3.8750204e+3, 1.7490438e+2, -1250257.6, -1274272.9, -8.512407, 0.00008241019, -0.00008252808, -1250257.6, -24320.404, 0.0, 10.000391, 9.968654 
3.8750204e+3, 1.8486686e+2, -1162160.1, -1195650.8, -8.553037, 0.000083395105, 0.00007936614, -1162160.1, -33855.387, 0.0, 10.000392, 9.956236 
3.8750204e+3, 1.9482313e+2, -1064009.9, -1097764.3, -7.7938538, 0.00008465718, -0.00005452334, -1064009.9, -33276.723, 0.0, 10.000393, 9.9558935 
3.8750204e+3, 2.0477273e+2, -975869.3, -1019413.7, -6.6287785, 0.00008592433, 0.000068110516, -975869.3, -42642.086, 0.0, 10.000395, 9.943102 
3.8750204e+3, 2.1471587e+2, -877583.25, -921390.7, -7.6249123, 0.000087197106, -0.00012233052, -877583.25, -41798.76, 0.0, 10.000396, 9.94276 
3.8750204e+3, 2.2465232e+2, -789293.5, -843120.06, -7.7857995, 0.000088203196, 0.00012881555, -789293.5, -50886.18, 0.0, 10.000397, 9.929723 
3.8750204e+3, 2.3458211e+2, -690860.25, -744942.6, -9.077539, 0.000088907764, -0.000078607016, -690860.25, -49764.863, 0.0, 10.000398, 9.929392 
3.8750204e+3, 2.4450494e+2, -602532.5, -666989.8, -7.693096, 0.00008910142, 0.00008016984, -602532.5, -58681.01, 0.0, 10.000399, 9.915956 
3.8750204e+3, 2.5442103e+2, -503779.4, -568315.0, -8.097765, 0.00008868554, -0.0001144116, -503779.4, -57105.4, 0.0, 10.000401, 9.915855 
3.8750204e+3, 2.6433e+2, -415546.2, -490966.75, -5.199862, 0.000088527355, 0.00012654957, -415546.2, -65980.27, 0.0, 10.000402, 9.90178 
3.8750204e+3, 2.7423233e+2, -316261.1, -391355.1, -5.9357767, 0.000088698325, -0.00021523335, -316261.1, -63738.055, 0.0, 10.000403, 9.9022 
3.8750207e+3, 2.8412643e+2, -229790.48, -318070.34, -3.5900395, 0.000088604065, 0.0002211819, -229790.48, -74229.664, 0.0, 10.000405, 9.885248 
3.8750207e+3, 2.9401273e+2, -130083.945, -217755.55, -4.904712, 0.0000881453, -0.00025503797, -130083.945, -71408.85, 0.0, 10.000407, 9.886026 
3.8750207e+3, 3.0392697e+2, -40346.387, -84752.6, -1.6515846, 0.00008823019, 0.00017445923, -40346.387, -40346.387, 0.0, 10.000409, 9.941974 
3.8750207e+3, 3.1387085e+2, -39265.523, -82513.22, -1.7933024, 0.00008912512, -0.000055501194, -39265.523, -39265.523, 0.0, 10.000412, 9.943484 
3.885021e+3, 1.2499696e+2, -1719436.3, -1724154.9, 2.6312568, 0.000088677974, -0.0000030978401, -1719436.3, -4406.4565, 0.0, 10.000407, 9.994151 
3.885021e+3, 1.3499108e+2, -1622063.9, -1627371.6, 2.034396, 0.00009033028, -0.000062369, -1622063.9, -4976.0547, 0.0, 10.000404, 9.993368 
3.885021e+3, 1.4497854e+2, -1533944.6, -1548045.6, -0.30805856, 0.00008894479, 0.00018723412, -1533944.6, -14734.014, 0.0, 10.000403, 9.981713 
3.885021e+3, 1.5496016e+2, -1436218.4, -1450723.1, -1.5810431, 0.00008450062, -0.00008023373, -1436218.4, -14827.946, 0.0, 10.000403, 9.981181 
3.885021e+3, 1.6493522e+2, -1348196.3, -1371908.8, -3.903529, 0.00008310182, -0.000018020617, -1348196.3, -24561.428, 0.0, 10.000404, 9.969064 
3.885021e+3, 1.7490436e+2, -1250239.6, -1274268.5, -5.1435413, 0.000084809515, -0.000081887185, -1250239.6, -24302.244, 0.0, 10.000405, 9.96865 
3.885021e+3, 1.8486685e+2, -1162138.8, -1195640.6, -5.2750125, 0.000086156775, 0.000081533995, -1162138.8, -33833.824, 0.0, 10.000405, 9.956235 
3.885021e+3, 1.9482312e+2, -1063989.9, -1097754.9, -6.637926, 0.00008712713, -0.000054226606, -1063989.9, -33256.53, 0.0, 10.000406, 9.955893 
3.885021e+3, 2.0477271e+2, -975852.75, -1019409.44, -7.150633, 0.0000880966, 0.00006773645, -975852.75, -42625.324, 0.0, 10.000407, 9.943098 
3.885021e+3, 2.1471585e+2, -877567.6, -921387.0, -8.992349, 0.000089065295, -0.00012207674, -877567.56, -41782.844, 0.0, 10.000407, 9.942757 
3.885021e+3, 2.246523e+2, -789277.2, -843114.94, -9.128069, 0.000089807414, 0.00012934995, -789277.2, -50869.6, 0.0, 10.000408, 9.92972 
3.885021e+3, 2.3458208e+2, -690843.4, -744937.2, -9.867441, 0.00009029333, -0.000078185236, -690843.4, -49747.72, 0.0, 10.00041, 9.929389 
3.885021e+3, 2.4450491e+2, -602514.7, -666983.2, -8.262321, 0.000090150716, 0.00008022933, -602514.7, -58662.85, 0.0, 10.000412, 9.915954 
3.885021e+3, 2.5442097e+2, -503761.25, -568308.2, -9.163444, 0.00008925803, -0.00011501221, -503761.25, -57086.902, 0.0, 10.000414, 9.9158535 
3.885021e+3, 2.6432997e+2, -415528.5, -490960.53, -6.666656, 0.000089117, 0.00012563249, -415528.5, -65962.22, 0.0, 10.000415, 9.901778 
3.885021e+3, 2.742323e+2, -316244.4, -391349.47, -7.232573, 0.000089933776, -0.00021602909, -316244.38, -63720.973, 0.0, 10.000416, 9.902198 
3.885021e+3, 2.841264e+2, -229775.38, -318066.88, -4.3403177, 0.00009015, 0.00022029383, -229775.38, -74214.14, 0.0, 10.000417, 9.885245 
3.885021e+3, 2.940127e+2, -130069.35, -217752.5, -5.1133933, 0.000089540095, -0.00025631275, -130069.35, -71393.805, 0.0, 10.000419, 9.886023 
3.8850212e+3, 3.0392694e+2, -40331.45, -84748.336, -1.6043131, 0.00008921798, 0.00017363447, -40331.45, -40331.45, 0.0, 10.000421, 9.941971 
3.8850212e+3, 3.138708e+2, -39250.47, -82508.766, -2.3566432, 0.000089330555, -0.00005463157, -39250.47, -39250.47, 0.0, 10.000423, 9.943481 
3.8950214e+3, 1.2499699e+2, -1719437.6, -1724157.4, 1.4628726, 0.00008940283, 0.000012163581, -1719437.6, -4407.9277, 0.0, 10.000407, 9.99415 
3.8950214e+3, 1.3499108e+2, -1622065.3, -1627374.1, 0.8660901, 0.00009184333, -0.000052245006, -1622065.3, -4977.496, 0.0, 10.000404, 9.993366 
3.8950214e+3, 1.4497854e+2, -1533947.5, -1548051.0, -0.08022926, 0.000091289534, 0.00019405257, -1533947.5, -14736.929, 0.0, 10.000403, 9.9817095 
3.8950214e+3, 1.5496016e+2, -1436221.1, -1450728.5, -1.3524284, 0.0000877211, -0.00007864686, -1436221.1, -14830.76, 0.0, 10.000403, 9.981178 
3.8950214e+3, 1.649352e+2, -1348199.0, -1371914.0, -3.6905055, 0.00008672099, -0.000018543244, -1348199.0, -24564.078, 0.0, 10.000404, 9.96906 
3.8950214e+3, 1.7490435e+2, -1250242.3, -1274273.8, -4.929822, 0.00008834096, -0.00008133742, -1250242.3, -24304.834, 0.0, 10.000405, 9.968646 
3.8950214e+3, 1.8486683e+2, -1162141.6, -1195646.4, -4.9898, 0.00008933576, 0.00008106781, -1162141.6, -33836.645, 0.0, 10.000405, 9.956231 
3.8950214e+3, 1.948231e+2, -1063992.9, -1097760.5, -6.3498445, 0.000089676956, -0.000057892164, -1063992.9, -33259.266, 0.0, 10.000406, 9.955889 
3.8950214e+3, 2.0477268e+2, -975856.6, -1019417.06, -6.964934, 0.000089981026, 0.00006389658, -975856.6, -42628.992, 0.0, 10.000407, 9.943093 
3.8950214e+3, 2.1471582e+2, -877571.44, -921394.6, -8.808042, 0.000090245085, -0.00012281809, -877571.44, -41786.445, 0.0, 10.000407, 9.942752 
3.8950214e+3, 2.2465226e+2, -789278.9, -843118.25, -8.56049, 0.00009064287, 0.0001299111, -789278.9, -50870.965, 0.0, 10.000408, 9.929718 
3.8950214e+3, 2.3458205e+2, -690844.94, -744940.4, -9.287172, 0.000091191934, -0.00007835424, -690844.94, -49748.97, 0.0, 10.00041, 9.929387 
3.8950214e+3, 2.4450488e+2, -602516.7, -666987.25, -7.550876, 0.000091305126, 0.00007976231, -602516.7, -58664.535, 0.0, 10.000412, 9.915951 
3.8950214e+3, 2.5442094e+2, -503763.25, -568312.25, -8.4472, 0.000090897774, -0.00011525935, -503763.25, -57088.56, 0.0, 10.000414, 9.915851 
3.8950214e+3, 2.6432994e+2, -415530.1, -490963.75, -6.2952876, 0.00009075093, 0.00012562584, -415530.1, -65963.42, 0.0, 10.000415, 9.901775 
3.8950214e+3, 2.7423224e+2, -316245.94, -391352.6, -6.884758, 0.00009093658, -0.00021577024, -316245.94, -63722.105, 0.0, 10.000416, 9.902195 
3.8950214e+3, 2.8412634e+2, -229777.47, -318071.2, -3.7065852, 0.000090824644, 0.00021975784, -229777.47, -74215.805, 0.0, 10.000417, 9.885242 
3.8950214e+3, 2.9401264e+2, -130071.47, -217756.9, -4.4528775, 0.00009030392, -0.00025909455, -130071.47, -71395.45, 0.0, 10.000419, 9.88602 
3.8950214e+3, 3.039269e+2, -40333.81, -84753.24, -0.70537853, 0.000090162604, 0.00017089648, -40333.81, -40333.81, 0.0, 10.000421, 9.941968 
3.8950214e+3, 3.1387073e+2, -39252.863, -82513.74, -1.4304744, 0.000090588124, -0.00005391329, -39252.863, -39252.863, 0.0, 10.000423, 9.943479 
3.9050218e+3, 1.2499699e+2, -1719412.8, -1724146.0, -2.088412, 0.00009001911, 0.000012254659, -1719412.8, -4383.0444, 0.0, 10.000423, 9.994148 
3.9050218e+3, 1.3499108e+2, -1622043.0, -1627364.3, -2.7558265, 0.00009353575, -0.000054677144, -1622043.0, -4955.2544, 0.0, 10.000419, 9.993365 
3.9050218e+3, 1.4497854e+2, -1533928.4, -1548045.6, -2.2662, 0.00009391557, 0.00019146556, -1533928.4, -14717.85, 0.0, 10.000417, 9.981706 
3.9050218e+3, 1.5496014e+2, -1436201.9, -1450723.0, -4.054922, 0.00009113777, -0.0000826088, -1436201.9, -14811.348, 0.0, 10.000418, 9.981174 
3.9050218e+3, 1.6493519e+2, -1348179.0, -1371906.8, -6.6734886, 0.0000902416, -0.000020944044, -1348179.0, -24543.943, 0.0, 10.000419, 9.969057 
3.9050218e+3, 1.7490433e+2, -1250223.3, -1274267.0, -7.6078515, 0.00009126512, -0.000079184414, -1250223.3, -24285.658, 0.0, 10.000419, 9.968643 
3.9050218e+3, 1.8486682e+2, -1162122.6, -1195639.1, -6.856565, 0.00009183663, 0.00008370639, -1162122.6, -33817.45, 0.0, 10.000419, 9.956229 
3.9050218e+3, 1.9482307e+2, -1063973.6, -1097753.3, -7.2744823, 0.00009193552, -0.000059020815, -1063973.6, -33239.89, 0.0, 10.00042, 9.955886 
3.9050218e+3, 2.0477267e+2, -975838.7, -1019412.9, -7.283473, 0.00009175567, 0.000061941464, -975838.7, -42610.793, 0.0, 10.000421, 9.943089 
3.9050218e+3, 2.147158e+2, -877552.9, -921390.25, -8.795217, 0.00009127428, -0.00012241784, -877552.9, -41767.563, 0.0, 10.000422, 9.942747 
3.9050218e+3, 2.2465223e+2, -789258.2, -843109.9, -8.081763, 0.00009145351, 0.00013099295, -789258.2, -50849.96, 0.0, 10.0004225, 9.929716 
3.9050218e+3, 2.3458202e+2, -690824.75, -744932.25, -8.687949, 0.00009238003, -0.00007848532, -690824.75, -49728.453, 0.0, 10.000424, 9.929385 
3.9050218e+3, 2.4450485e+2, -602498.75, -666982.2, -7.2060995, 0.00009271407, 0.00007879964, -602498.75, -58646.258, 0.0, 10.000425, 9.915947 
3.9050218e+3, 2.544209e+2, -503747.0, -568308.2, -8.799949, 0.00009233999, -0.00011659656, -503747.0, -57071.918, 0.0, 10.000426, 9.915848 
3.9050218e+3, 2.6432985e+2, -415513.72, -490958.44, -7.2677712, 0.000092057664, 0.00012455902, -415513.72, -65946.63, 0.0, 10.000427, 9.901773 
3.9050218e+3, 2.742322e+2, -316229.16, -391347.03, -8.121326, 0.00009189362, -0.00021574725, -316229.16, -63704.914, 0.0, 10.000428, 9.902193 
3.9050218e+3, 2.841263e+2, -229760.58, -318065.47, -4.699477, 0.000091654954, 0.00021989789, -229760.58, -74198.47, 0.0, 10.000429, 9.88524 
3.9050218e+3, 2.940126e+2, -130055.04, -217751.44, -4.9389367, 0.00009131348, -0.00026017218, -130055.04, -71378.55, 0.0, 10.000431, 9.886018 
3.9050218e+3, 3.0392683e+2, -40319.37, -84750.31, -0.91557413, 0.00009144703, 0.00016973184, -40319.37, -40319.37, 0.0, 10.000432, 9.941964 
3.9050218e+3, 3.138707e+2, -39240.164, -82511.836, -1.9233123, 0.00009228636, -0.00005347433, -39240.164, -39240.164, 0.0, 10.000434, 9.943475 
3.9150223e+3, 1.2499697e+2, -1719414.3, -1724148.9, -3.8267179, 0.000090527625, -0.000002595699, -1719414.3, -4384.443, 0.0, 10.000423, 9.994146 
3.9150223e+3, 1.3499106e+2, -1622044.5, -1627367.1, -4.494215, 0.000095406096, -0.0000695583, -1622044.5, -4956.6353, 0.0, 10.000419, 9.993363 
3.9150223e+3, 1.4497851e+2, -1533932.4, -1548053.3, -1.9361801, 0.000096820615, 0.00017955292, -1533932.4, -14721.742, 0.0, 10.000417, 9.981701 
3.9150223e+3, 1.5496013e+2, -1436205.8, -1450730.6, -3.7248023, 0.00009474913, -0.00009207246, -1436205.8, -14815.158, 0.0, 10.000418, 9.98117 
3.9150223e+3, 1.6493517e+2, -1348181.0, -1371910.6, -6.652554, 0.00009366456, -0.000025207308, -1348181.0, -24545.799, 0.0, 10.000419, 9.969055 
3.9150223e+3, 1.7490432e+2, -1250225.3, -1274270.9, -7.5882487, 0.000093587216, -0.00007544248, -1250225.3, -24287.504, 0.0, 10.000419, 9.968641 
3.9150223e+3, 1.848668e+2, -1162123.5, -1195641.0, -6.505343, 0.0000936652, 0.00008942269, -1162123.5, -33818.215, 0.0, 10.000419, 9.956228 
3.9150223e+3, 1.9482306e+2, -1063974.5, -1097755.1, -6.9217114, 0.000093905415, -0.00005763447, -1063974.5, -33240.605, 0.0, 10.00042, 9.955885 
3.9150223e+3, 2.0477262e+2, -975841.9, -1019419.06, -6.910267, 0.00009342158, 0.00006185501, -975841.9, -42613.74, 0.0, 10.000421, 9.943085 
3.9150223e+3, 2.1471576e+2, -877556.0, -921396.5, -8.42488, 0.00009215429, -0.00012088559, -877556.0, -41770.473, 0.0, 10.000422, 9.942743 
3.9150223e+3, 2.246522e+2, -789259.56, -843112.7, -7.620109, 0.000092239665, 0.00013259123, -789259.56, -50851.08, 0.0, 10.0004225, 9.929714 
3.9150223e+3, 2.3458199e+2, -690826.06, -744934.94, -8.2217865, 0.000093855306, -0.00007857865, -690826.06, -49729.484, 0.0, 10.000424, 9.929383 
3.9150223e+3, 2.4450481e+2, -602502.1, -666988.94, -6.8655777, 0.00009437553, 0.00007734565, -602502.1, -58649.273, 0.0, 10.000425, 9.915943 
3.9150223e+3, 2.5442088e+2, -503750.4, -568315.06, -8.464523, 0.00009358642, -0.00011901452, -503750.4, -57074.93, 0.0, 10.000426, 9.915843 
3.9150223e+3, 2.6432982e+2, -415515.84, -490962.78, -6.814768, 0.000093040035, 0.00012244108, -415515.84, -65948.336, 0.0, 10.000427, 9.901771 
3.9150223e+3, 2.7423215e+2, -316231.2, -391351.22, -7.661419, 0.00009280537, -0.0002159582, -316231.2, -63706.496, 0.0, 10.000428, 9.90219 
3.9150223e+3, 2.8412625e+2, -229761.84, -318068.1, -4.143703, 0.00009263969, 0.00022070804, -229761.84, -74199.27, 0.0, 10.000429, 9.885238 
3.9150223e+3, 2.9401255e+2, -130056.23, -217753.9, -4.3754444, 0.00009256678, -0.00025956024, -130056.23, -71379.26, 0.0, 10.000431, 9.886016 
3.9150223e+3, 3.039268e+2, -40322.133, -84756.06, -0.40702832, 0.000093068404, 0.00017012702, -40322.133, -40322.133, 0.0, 10.000432, 9.94196 
3.9150223e+3, 3.1387064e+2, -39243.113, -82517.97, -1.4201617, 0.00009442144, -0.00005331232, -39243.113, -39243.113, 0.0, 10.000434, 9.943471 
3.9250228e+3, 1.2499697e+2, -1719395.6, -1724141.0, 0.005898519, 0.00009212212, -0.0000027819299, -1719395.6, -4365.926, 0.0, 10.000436, 9.994144 
3.9250228e+3, 1.3499106e+2, -1622019.1, -1627355.8, -0.7578823, 0.00009679517, -0.000073475116, -1622019.1, -4931.361, 0.0, 10.000436, 9.993361 
3.9250228e+3, 1.4497851e+2, -1533908.9, -1548047.9, 2.1622248, 0.00009834858, 0.00017516119, -1533908.9, -14698.111, 0.0, 10.000435, 9.981695 
3.9250228e+3, 1.5496011e+2, -1436184.9, -1450726.8, -0.7513387, 0.00009676204, -0.0000970058, -1436184.9, -14794.141, 0.0, 10.000434, 9.981163 
3.9250228e+3, 1.6493516e+2, -1348158.3, -1371901.5, -4.2145944, 0.00009563641, -0.000027230462, -1348158.3, -24522.873, 0.0, 10.000434, 9.969052 
3.9250228e+3, 1.749043e+2, -1250202.5, -1274261.8, -5.0995774, 0.00009498166, -0.00007103719, -1250202.5, -24264.654, 0.0, 10.000434, 9.968638 
3.9250228e+3, 1.8486679e+2, -1162100.9, -1195632.0, -4.131987, 0.000095141826, 0.000093687515, -1162100.9, -33795.43, 0.0, 10.000435, 9.956225 
3.9250228e+3, 1.9482304e+2, -1063952.0, -1097746.1, -5.5360255, 0.000096153664, -0.000060377046, -1063952.0, -33217.793, 0.0, 10.000436, 9.955883 
3.9250228e+3, 2.047726e+2, -975822.06, -1019415.75, -6.7539515, 0.000095443495, 0.000057359397, -975822.06, -42593.73, 0.0, 10.000437, 9.943079 
3.9250228e+3, 2.1471573e+2, -877536.4, -921393.4, -9.788422, 0.00009286997, -0.000121448895, -877536.4, -41750.547, 0.0, 10.000438, 9.942738 
3.9250228e+3, 2.2465217e+2, -789237.06, -843102.44, -9.657428, 0.00009257656, 0.00013419244, -789237.06, -50828.254, 0.0, 10.000438, 9.929713 
3.9250228e+3, 2.3458196e+2, -690805.7, -744925.56, -9.614728, 0.000094862866, -0.00007681495, -690805.7, -49708.785, 0.0, 10.000438, 9.929382 
3.9250228e+3, 2.4450478e+2, -602485.0, -666984.6, -7.528591, 0.000095801435, 0.00007804546, -602485.0, -58631.816, 0.0, 10.000439, 9.915939 
3.9250228e+3, 2.5442082e+2, -503733.03, -568310.9, -8.680638, 0.00009512833, -0.00012084064, -503733.03, -57057.16, 0.0, 10.00044, 9.915839 
3.9250228e+3, 2.643298e+2, -415498.03, -490957.7, -6.958272, 0.000094439725, 0.0001199063, -415498.03, -65930.08, 0.0, 10.000441, 9.901767 
3.9250228e+3, 2.7423212e+2, -316213.88, -391346.38, -8.221672, 0.00009373513, -0.00021688659, -316213.88, -63688.715, 0.0, 10.000442, 9.902187 
3.9250228e+3, 2.8412622e+2, -229744.64, -318062.22, -5.1406264, 0.00009351518, 0.00022107949, -229744.64, -74181.59, 0.0, 10.0004425, 9.885236 
3.9250228e+3, 2.940125e+2, -130040.35, -217748.64, -5.8109016, 0.00009395821, -0.00025831908, -130040.35, -71362.88, 0.0, 10.0004425, 9.886014 
3.925023e+3, 3.0392674e+2, -40308.27, -84753.15, -1.8672405, 0.000094860945, 0.00017127999, -40308.27, -40308.27, 0.0, 10.000443, 9.941957 
3.925023e+3, 3.1387058e+2, -39229.977, -82515.57, -2.39875, 0.000096439064, -0.000053666034, -39229.977, -39229.977, 0.0, 10.000444, 9.943467 
3.9350232e+3, 1.24997e+2, -1719397.4, -1724144.4, -0.14029586, 0.000094792405, 0.000011706116, -1719397.4, -4367.86, 0.0, 10.000436, 9.994143 
3.935023e+3, 1.3499108e+2, -1622020.9, -1627359.0, -0.9089155, 0.00009770741, -0.000066524444, -1622020.9, -4933.221, 0.0, 10.000436, 9.99336 
3.935023e+3, 1.4497851e+2, -1533915.4, -1548060.4, 1.8739564, 0.00009851193, 0.00017822429, -1533915.4, -14704.75, 0.0, 10.000435, 9.981687 
3.935023e+3, 1.5496011e+2, -1436191.4, -1450739.1, -1.0361595, 0.00009719061, -0.0000974487, -1436191.4, -14800.603, 0.0, 10.000434, 9.981155 
3.935023e+3, 1.6493516e+2, -1348160.1, -1371905.1, -4.1898193, 0.00009616992, -0.000027033164, -1348160.1, -24524.715, 0.0, 10.000434, 9.96905 
3.935023e+3, 1.749043e+2, -1250204.4, -1274265.4, -5.0776916, 0.00009545678, -0.00006597398, -1250204.4, -24266.455, 0.0, 10.000434, 9.9686365 
3.935023e+3, 1.8486677e+2, -1162103.9, -1195637.9, -3.7697654, 0.00009626974, 0.000096514326, -1162103.9, -33798.348, 0.0, 10.000435, 9.956222 
3.935023e+3, 1.9482301e+2, -1063955.0, -1097752.1, -5.1691422, 0.00009867788, -0.0000672115, -1063955.0, -33220.61, 0.0, 10.000436, 9.955879 
3.935023e+3, 2.0477258e+2, -975828.44, -1019428.2, -6.3783727, 0.00009781839, 0.000048493846, -975828.44, -42599.813, 0.0, 10.000437, 9.943071 
3.9350232e+3, 2.147157e+2, -877542.75, -921405.9, -9.408651, 0.000093423005, -0.00012408949, -877542.75, -41756.57, 0.0, 10.000438, 9.942729 
3.9350232e+3, 2.2465213e+2, -789237.25, -843102.8, -9.697084, 0.00009246835, 0.00013579613, -789237.25, -50828.105, 0.0, 10.000438, 9.929713 
3.9350232e+3, 2.345819e+2, -690805.7, -744925.6, -9.670294, 0.00009540692, -0.00007321092, -690805.7, -49708.46, 0.0, 10.000438, 9.929382 
3.9350232e+3, 2.4450475e+2, -602487.44, -666989.56, -7.1025734, 0.000096993885, 0.000080879916, -602487.44, -58633.918, 0.0, 10.000439, 9.9159355 
3.9350232e+3, 2.544208e+2, -503735.56, -568316.0, -8.231383, 0.00009696318, -0.00012208014, -503735.56, -57059.29, 0.0, 10.00044, 9.915835 
3.9350232e+3, 2.6432973e+2, -415500.88, -490963.53, -6.6009555, 0.000096253185, 0.00011695844, -415500.88, -65932.49, 0.0, 10.000441, 9.901763 
3.9350232e+3, 2.7423206e+2, -316216.72, -391352.22, -7.870293, 0.000094682866, -0.00021852597, -316216.72, -63691.08, 0.0, 10.000442, 9.902184 
3.9350232e+3, 2.8412616e+2, -229746.75, -318066.56, -4.8958755, 0.00009428246, 0.00022101612, -229746.75, -74183.19, 0.0, 10.0004425, 9.885233 
3.9350232e+3, 2.9401246e+2, -130042.37, -217752.83, -5.576445, 0.000095486605, -0.00025645448, -130042.37, -71364.375, 0.0, 10.0004425, 9.886011 
3.9350232e+3, 3.0392668e+2, -40310.3, -84757.39, -1.5367659, 0.000096823154, 0.00017318377, -40310.3, -40310.3, 0.0, 10.000443, 9.941955 
3.9350235e+3, 3.1387052e+2, -39232.02, -82519.82, -2.056616, 0.0000983403, -0.000054530792, -39232.02, -39232.02, 0.0, 10.000444, 9.943464 
3.9450234e+3, 1.2499701e+2, -1719376.8, -1724139.0, 1.5051363, 0.00009669662, 0.000013161835, -1719376.8, -4347.3735, 0.0, 10.000451, 9.994138 
3.9450234e+3, 1.3499108e+2, -1621996.3, -1627351.6, -1.4617851, 0.00009784441, -0.00006475024, -1621996.3, -4908.601, 0.0, 10.000454, 9.993355 
3.9450234e+3, 1.4497851e+2, -1533890.1, -1548053.5, 0.14693055, 0.00009852297, 0.0001798791, -1533890.1, -14679.489, 0.0, 10.000454, 9.981681 
3.9450234e+3, 1.549601e+2, -1436167.6, -1450733.3, -1.2897213, 0.00009872504, -0.00009944093, -1436167.6, -14776.849, 0.0, 10.000452, 9.98115 
3.9450234e+3, 1.6493514e+2, -1348135.0, -1371897.6, -3.7971747, 0.000098101846, -0.000029144676, -1348135.0, -24499.436, 0.0, 10.000452, 9.969046 
3.9450234e+3, 1.7490429e+2, -1250176.1, -1274256.3, -6.6176457, 0.000096638025, -0.00006461042, -1250176.1, -24238.135, 0.0, 10.000454, 9.968632 
3.9450234e+3, 1.8486676e+2, -1162074.6, -1195626.5, -6.600086, 0.00009713585, 0.0000979597, -1162074.6, -33768.918, 0.0, 10.000455, 9.956219 
3.9450234e+3, 1.94823e+2, -1063929.1, -1097742.6, -7.7229457, 0.00009968422, -0.00006923233, -1063929.1, -33194.613, 0.0, 10.000454, 9.955875 
3.9450234e+3, 2.0477255e+2, -975807.5, -1019423.94, -7.8488774, 0.0000989006, 0.000045454963, -975807.5, -42578.613, 0.0, 10.000453, 9.943066 
3.9450234e+3, 2.1471567e+2, -877524.4, -921403.0, -9.138798, 0.00009451137, -0.00012549813, -877524.4, -41737.895, 0.0, 10.000452, 9.942723 
3.9450234e+3, 2.246521e+2, -789216.5, -843093.9, -8.977617, 0.00009349919, 0.00013623427, -789216.5, -50806.973, 0.0, 10.000452, 9.929711 
3.9450234e+3, 2.3458187e+2, -690784.06, -744916.1, -9.912615, 0.00009630832, -0.00007068267, -690784.06, -49686.492, 0.0, 10.000453, 9.929381 
3.9450234e+3, 2.445047e+2, -602467.44, -666983.1, -7.6134925, 0.000097920434, 0.00008291054, -602467.44, -58613.56, 0.0, 10.000453, 9.915933 
3.9450237e+3, 2.5442073e+2, -503716.94, -568310.4, -8.690882, 0.00009809945, -0.00012363699, -503716.94, -57040.23, 0.0, 10.000453, 9.9158325 
3.9450237e+3, 2.6432967e+2, -415483.63, -490959.13, -7.044803, 0.00009759611, 0.00011411727, -415483.63, -65914.76, 0.0, 10.000454, 9.901759 
3.9450237e+3, 2.7423203e+2, -316200.34, -391348.3, -8.220442, 0.000096228156, -0.0002197144, -316200.34, -63674.223, 0.0, 10.000454, 9.90218 
3.9450237e+3, 2.841261e+2, -229730.75, -318062.3, -5.393586, 0.00009600407, 0.00022124396, -229730.75, -74166.68, 0.0, 10.000455, 9.88523 
3.9450237e+3, 2.940124e+2, -130026.98, -217748.89, -6.3717937, 0.00009734896, -0.00025514758, -130026.98, -71348.445, 0.0, 10.000455, 9.886008 
3.9450237e+3, 3.0392662e+2, -40295.12, -84753.08, -2.2837586, 0.000098538716, 0.00017428516, -40295.12, -40295.12, 0.0, 10.000455, 9.941952 
3.945024e+3, 3.1387046e+2, -39216.953, -82515.5, -2.6174648, 0.000099482546, -0.000055539385, -39216.953, -39216.953, 0.0, 10.000456, 9.943461 
3.955024e+3, 1.2499702e+2, -1719383.6, -1724151.8, 2.321343, 0.00009784181, 0.0000018748834, -1719383.6, -4354.2754, 0.0, 10.000451, 9.99413 
3.955024e+3, 1.349911e+2, -1622003.0, -1627364.3, -0.6399305, 0.00009721357, -0.000068105204, -1622003.0, -4915.399, 0.0, 10.000454, 9.993346 
3.955024e+3, 1.4497851e+2, -1533893.4, -1548059.6, -0.4920743, 0.00009838333, 0.0001801381, -1533893.4, -14682.7295, 0.0, 10.000454, 9.981677 
3.955024e+3, 1.549601e+2, -1436170.9, -1450739.4, -1.9307312, 0.0001013552, -0.00010296784, -1436170.9, -14779.993, 0.0, 10.000452, 9.981146 
3.955024e+3, 1.6493513e+2, -1348141.1, -1371909.4, -3.0352778, 0.00010141934, -0.000033543223, -1348141.1, -24505.514, 0.0, 10.000452, 9.969038 
3.955024e+3, 1.7490427e+2, -1250182.3, -1274268.0, -5.8449655, 0.00009851916, -0.00006691263, -1250182.3, -24244.086, 0.0, 10.000454, 9.968624 
3.955024e+3, 1.8486674e+2, -1162077.1, -1195631.4, -7.021791, 0.00009774293, 0.00009803583, -1162077.1, -33771.188, 0.0, 10.000455, 9.956215 
3.955024e+3, 1.9482297e+2, -1063931.6, -1097747.4, -8.157337, 0.0000991869, -0.00006648444, -1063931.6, -33196.813, 0.0, 10.000454, 9.955873 
3.955024e+3, 2.0477252e+2, -975810.25, -1019429.3, -8.073965, 0.000098702134, 0.00004818884, -975810.25, -42581.11, 0.0, 10.000453, 9.943062 
3.955024e+3, 2.1471563e+2, -877527.1, -921408.4, -9.359899, 0.00009613016, -0.0001256859, -877527.1, -41740.305, 0.0, 10.000452, 9.94272 
3.955024e+3, 2.2465207e+2, -789218.5, -843097.9, -8.832546, 0.00009565862, 0.000135518, -789218.5, -50808.652, 0.0, 10.000452, 9.9297085 
3.955024e+3, 2.3458184e+2, -690786.06, -744920.06, -9.756538, 0.000097563934, -0.000069220165, -690786.06, -49688.117, 0.0, 10.000453, 9.9293785 
3.955024e+3, 2.4450468e+2, -602469.94, -666988.06, -7.459939, 0.0000985837, 0.000084144725, -602469.94, -58615.64, 0.0, 10.000453, 9.91593 
3.955024e+3, 2.544207e+2, -503719.38, -568315.4, -8.536535, 0.00009854373, -0.00012550829, -503719.38, -57042.254, 0.0, 10.000453, 9.915829 
3.9550242e+3, 2.6432964e+2, -415486.28, -490964.56, -6.8936896, 0.00009847292, 0.000111381785, -415486.28, -65916.97, 0.0, 10.000454, 9.901756 
3.9550242e+3, 2.7423197e+2, -316203.0, -391353.78, -8.068946, 0.000098365526, -0.00022045609, -316203.0, -63676.387, 0.0, 10.000454, 9.902176 
3.9550242e+3, 2.8412604e+2, -229733.36, -318067.7, -5.293331, 0.000098671204, 0.00022176033, -229733.36, -74168.76, 0.0, 10.000455, 9.885226 
3.9550242e+3, 2.9401234e+2, -130029.54, -217754.22, -6.275951, 0.00009954224, -0.00025439315, -130029.54, -71350.45, 0.0, 10.000455, 9.886004 
3.9550242e+3, 3.0392656e+2, -40296.92, -84756.836, -2.0006974, 0.00010000998, 0.00017459157, -40296.92, -40296.92, 0.0, 10.000455, 9.941949 
3.9550242e+3, 3.138704e+2, -39218.67, -82519.086, -2.313316, 0.00009987296, -0.000056690464, -39218.67, -39218.67, 0.0, 10.000456, 9.9434595 
3.9650244e+3, 1.2499703e+2, -1719363.8, -1724146.6, -3.6813533, 0.00010134936, 0.000003868942, -1719363.8, -4334.4463, 0.0, 10.000466, 9.994125 
3.9650244e+3, 1.349911e+2, -1621979.4, -1627357.3, -4.3642917, 0.00009748627, -0.00006652112, -1621979.4, -4891.8228, 0.0, 10.000471, 9.993341 
3.9650244e+3, 1.4497851e+2, -1533866.9, -1548050.3, -4.965442, 0.000097611235, 0.00018143684, -1533866.9, -14656.201, 0.0, 10.000472, 9.981673 
3.9650244e+3, 1.5496008e+2, -1436143.8, -1450729.6, -6.5352235, 0.000101739046, -0.00010469126, -1436143.8, -14752.783, 0.0, 10.000471, 9.981142 
3.9650244e+3, 1.649351e+2, -1348115.9, -1371902.4, -5.8826694, 0.000102688035, -0.000035616147, -1348115.9, -24480.135, 0.0, 10.000471, 9.969032 
3.9650244e+3, 1.7490426e+2, -1250159.1, -1274262.1, -7.1689887, 0.00010039633, -0.00006661322, -1250159.1, -24220.723, 0.0, 10.000472, 9.968618 
3.9650244e+3, 1.8486673e+2, -1162052.9, -1195621.8, -8.4155655, 0.000099138, 0.00009965512, -1162052.9, -33746.71, 0.0, 10.000472, 9.956213 
3.9650244e+3, 1.9482294e+2, -1063907.9, -1097738.0, -9.217359, 0.000098959856, -0.00006464693, -1063907.8, -33172.797, 0.0, 10.00047, 9.95587 
3.9650244e+3, 2.0477249e+2, -975788.1, -1019422.06, -8.906642, 0.00009860376, 0.000048952417, -975788.1, -42558.742, 0.0, 10.000469, 9.943058 
3.9650244e+3, 2.147156e+2, -877506.3, -921401.9, -10.32293, 0.00009805508, -0.00012739595, -877506.3, -41719.18, 0.0, 10.000467, 9.942717 
3.9650244e+3, 2.2465202e+2, -789198.25, -843091.1, -9.6152315, 0.00009822736, 0.00013373322, -789198.25, -50788.03, 0.0, 10.000467, 9.929706 
3.9650244e+3, 2.345818e+2, -690766.44, -744913.7, -10.923559, 0.000099215446, -0.00006836647, -690766.44, -49668.125, 0.0, 10.000467, 9.929376 
3.9650244e+3, 2.4450463e+2, -602450.9, -666981.6, -8.72937, 0.00009967064, 0.000085697015, -602450.9, -58596.17, 0.0, 10.000467, 9.915927 
3.9650244e+3, 2.5442064e+2, -503701.3, -568309.44, -9.447266, 0.000099488716, -0.00012557687, -503701.3, -57023.746, 0.0, 10.000466, 9.915826 
3.9650244e+3, 2.6432958e+2, -415469.2, -490959.66, -7.399595, 0.00009955252, 0.00011065859, -415469.2, -65899.39, 0.0, 10.000466, 9.901752 
3.9650247e+3, 2.742319e+2, -316186.2, -391349.1, -8.290485, 0.00009993054, -0.00022059919, -316186.2, -63659.074, 0.0, 10.000467, 9.902173 
3.9650247e+3, 2.84126e+2, -229716.75, -318063.38, -5.3241777, 0.000100458405, 0.00022195633, -229716.75, -74151.64, 0.0, 10.000467, 9.885222 
3.9650247e+3, 2.9401228e+2, -130012.91, -217749.94, -6.2005415, 0.000101189864, -0.0002541936, -130012.91, -71333.266, 0.0, 10.000467, 9.886001 
3.9650247e+3, 3.039265e+2, -40280.36, -84752.14, -1.9224579, 0.00010141771, 0.00017447825, -40280.36, -40280.36, 0.0, 10.000468, 9.941946 
3.9650247e+3, 3.1387034e+2, -39202.82, -82514.67, -2.5830898, 0.00010089523, -0.000057583147, -39202.82, -39202.82, 0.0, 10.000468, 9.943457 
3.9750248e+3, 1.24997035e+2, -1719365.3, -1724149.6, -1.9484265, 0.000107196516, 0.000019150164, -1719365.3, -4336.018, 0.0, 10.000466, 9.994123 
3.9750248e+3, 1.349911e+2, -1621980.9, -1627360.3, -2.638585, 0.00009865406, -0.000060045677, -1621980.9, -4893.3145, 0.0, 10.000471, 9.99334 
3.9750248e+3, 1.4497851e+2, -1533870.4, -1548056.9, -5.4140787, 0.000096212825, 0.00018376525, -1533870.4, -14659.622, 0.0, 10.000472, 9.981669 
3.9750248e+3, 1.5496007e+2, -1436147.3, -1450736.3, -6.9877224, 0.00009989804, -0.000104628874, -1436147.3, -14756.105, 0.0, 10.000471, 9.981138 
3.9750248e+3, 1.6493508e+2, -1348118.8, -1371907.9, -5.57187, 0.00010192753, -0.00003538619, -1348118.8, -24482.787, 0.0, 10.000471, 9.969029 
3.9750248e+3, 1.7490424e+2, -1250162.0, -1274267.6, -6.8510313, 0.000102269645, -0.00006373725, -1250162.0, -24223.342, 0.0, 10.000472, 9.968616 
3.9750248e+3, 1.848667e+2, -1162054.6, -1195625.1, -8.9268, 0.00010131366, 0.0001028029, -1162054.6, -33748.22, 0.0, 10.000472, 9.95621 
3.9750248e+3, 1.9482292e+2, -1063909.5, -1097741.3, -9.74273, 0.00009900067, -0.0000637108, -1063909.5, -33174.24, 0.0, 10.00047, 9.955868 
3.9750248e+3, 2.0477246e+2, -975791.2, -1019427.94, -9.415883, 0.00009860466, 0.000047764785, -975791.2, -42561.457, 0.0, 10.000469, 9.943055 
3.9750248e+3, 2.1471557e+2, -877509.3, -921407.75, -10.828909, 0.00010028327, -0.00013061373, -877509.3, -41721.832, 0.0, 10.000467, 9.942713 
3.9750248e+3, 2.2465199e+2, -789201.06, -843096.7, -9.606842, 0.00010120155, 0.00013088998, -789201.06, -50790.48, 0.0, 10.000467, 9.929702 
3.9750248e+3, 2.3458177e+2, -690769.25, -744919.25, -10.896057, 0.00010125919, -0.00006811601, -690769.25, -49670.523, 0.0, 10.000467, 9.929372 
3.9750248e+3, 2.4450457e+2, -602452.6, -666985.25, -8.790883, 0.000101177284, 0.00008756415, -602452.6, -58597.563, 0.0, 10.000467, 9.915924 
3.9750248e+3, 2.544206e+2, -503703.03, -568312.94, -9.515712, 0.00010092969, -0.0001238601, -503703.03, -57025.043, 0.0, 10.000466, 9.915824 
3.9750248e+3, 2.6432955e+2, -415471.3, -490963.97, -7.303035, 0.00010083302, 0.00011192842, -415471.28, -65901.05, 0.0, 10.000466, 9.90175 
3.9750248e+3, 2.7423188e+2, -316188.3, -391353.44, -8.183129, 0.00010092879, -0.0002201494, -316188.3, -63660.695, 0.0, 10.000467, 9.90217 
3.975025e+3, 2.8412595e+2, -229719.13, -318068.25, -5.1954618, 0.00010137423, 0.00022183511, -229719.13, -74153.48, 0.0, 10.000467, 9.88522 
3.975025e+3, 2.9401222e+2, -130015.266, -217754.84, -6.069124, 0.00010229724, -0.0002545436, -130015.266, -71335.06, 0.0, 10.000467, 9.885998 
3.975025e+3, 3.039264e+2, -40282.74, -84757.11, -1.8102903, 0.000102762606, 0.00017394933, -40282.74, -40282.74, 0.0, 10.000468, 9.941942 
3.975025e+3, 3.1387028e+2, -39205.207, -82519.66, -2.4727354, 0.00010254319, -0.000058220023, -39205.207, -39205.207, 0.0, 10.000468, 9.943453 
3.9850253e+3, 1.24997035e+2, -1719344.0, -1724144.9, 4.0517383, 0.00011357217, 0.00002525531, -1719343.9, -4314.6904, 0.0, 10.000483, 9.994118 
3.9850253e+3, 1.3499108e+2, -1621958.5, -1627355.0, 0.37345293, 0.00010125772, -0.00006266802, -1621958.5, -4870.829, 0.0, 10.000487, 9.993334 
3.9850253e+3, 1.449785e+2, -1533845.0, -1548049.1, -6.0982637, 0.000095837066, 0.0001813473, -1533845.0, -14634.193, 0.0, 10.000491, 9.981665 
3.9850253e+3, 1.5496005e+2, -1436118.9, -1450726.9, -8.219273, 0.00009733929, -0.00010049374, -1436118.9, -14727.603, 0.0, 10.000491, 9.9811325 
3.9850253e+3, 1.6493507e+2, -1348089.4, -1371894.3, -6.789025, 0.00009942899, -0.000030038203, -1348089.4, -24453.21, 0.0, 10.00049, 9.9690275 
3.9850253e+3, 1.7490421e+2, -1250139.0, -1274257.5, -6.7243257, 0.00010211886, -0.000062625935, -1250139.0, -24200.225, 0.0, 10.000487, 9.968614 
3.9850253e+3, 1.8486668e+2, -1162036.9, -1195621.1, -8.988441, 0.00010265268, 0.000101858095, -1162036.9, -33730.285, 0.0, 10.000485, 9.956206 
3.9850253e+3, 1.9482289e+2, -1063890.9, -1097736.9, -11.718083, 0.0001009326, -0.00006443388, -1063890.9, -33155.273, 0.0, 10.000484, 9.955863 
3.9850253e+3, 2.0477243e+2, -975769.75, -1019419.6, -11.876816, 0.0001007905, 0.00004733988, -975769.75, -42539.754, 0.0, 10.0004835, 9.943052 
3.9850253e+3, 2.1471553e+2, -877487.25, -921399.1, -12.167607, 0.00010235633, -0.00013065942, -877487.25, -41699.453, 0.0, 10.000483, 9.94271 
3.9850253e+3, 2.2465196e+2, -789179.8, -843088.5, -9.746809, 0.00010299157, 0.00013110021, -789179.8, -50768.875, 0.0, 10.000482, 9.9297 
3.9850253e+3, 2.3458172e+2, -690750.44, -744912.3, -10.050142, 0.000102573664, -0.00006778999, -690750.44, -49651.33, 0.0, 10.000481, 9.92937 
3.9850253e+3, 2.4450453e+2, -602435.94, -666980.94, -7.636057, 0.000102418766, 0.00008776728, -602435.94, -58580.434, 0.0, 10.00048, 9.91592 
3.9850253e+3, 2.5442055e+2, -503685.9, -568308.56, -9.405333, 0.00010257895, -0.00012406557, -503685.9, -57007.465, 0.0, 10.00048, 9.91582 
3.9850253e+3, 2.643295e+2, -415453.47, -490958.63, -7.7512608, 0.000102602, 0.00011174346, -415453.47, -65882.74, 0.0, 10.00048, 9.901747 
3.9850253e+3, 2.7423182e+2, -316170.53, -391348.13, -8.776804, 0.00010244988, -0.00021976724, -316170.53, -63642.43, 0.0, 10.000481, 9.902166 
3.9850256e+3, 2.841259e+2, -229701.4, -318062.78, -5.756986, 0.00010271145, 0.00022254765, -229701.4, -74135.23, 0.0, 10.000481, 9.885217 
3.9850256e+3, 2.9401216e+2, -129997.914, -217749.58, -6.3145895, 0.000103539904, -0.0002538272, -129997.914, -71317.16, 0.0, 10.000481, 9.885995 
3.9850256e+3, 3.0392635e+2, -40265.793, -84752.32, -1.7347977, 0.00010385808, 0.0001739655, -40265.793, -40265.793, 0.0, 10.000481, 9.941939 
3.9850256e+3, 3.138702e+2, -39188.09, -82514.81, -2.159258, 0.00010341271, -0.000059946142, -39188.09, -39188.09, 0.0, 10.000482, 9.94345 
3.9950258e+3, 1.2499704e+2, -1719352.4, -1724160.6, 6.032316, 0.000120470715, 0.000022401566, -1719352.4, -4323.1587, 0.0, 10.000483, 9.994108 
3.9950258e+3, 1.3499106e+2, -1621966.9, -1627370.8, 2.3549554, 0.00010528299, -0.000074297124, -1621966.9, -4879.0835, 0.0, 10.000487, 9.993324 
3.9950258e+3, 1.4497848e+2, -1533849.9, -1548058.1, -5.7981153, 0.000096473916, 0.0001742301, -1533849.9, -14638.795, 0.0, 10.000491, 9.981659 
3.9950258e+3, 1.5496005e+2, -1436123.6, -1450735.9, -7.9164205, 0.000094070296, -0.00009232645, -1436123.6, -14732.19, 0.0, 10.000491, 9.981128 
3.9950258e+3, 1.6493505e+2, -1348089.3, -1371894.0, -7.9815664, 0.00009521001, -0.00001962295, -1348089.3, -24452.963, 0.0, 10.00049, 9.9690275 
3.9950258e+3, 1.749042e+2, -1250138.9, -1274257.3, -7.92437, 0.000099964105, -0.000063261294, -1250138.9, -24199.895, 0.0, 10.000487, 9.968614 
3.9950258e+3, 1.8486665e+2, -1162042.8, -1195632.4, -9.254797, 0.00010316321, 0.00009686165, -1162042.8, -33735.824, 0.0, 10.000485, 9.956199 
3.9950258e+3, 1.9482286e+2, -1063896.6, -1097748.1, -11.971935, 0.0001047368, -0.000066799985, -1063896.6, -33160.742, 0.0, 10.000484, 9.955856 
3.9950258e+3, 2.047724e+2, -975770.56, -1019421.1, -12.192992, 0.00010513969, 0.000047669655, -975770.56, -42540.168, 0.0, 10.0004835, 9.943051 
3.9950258e+3, 2.147155e+2, -877487.94, -921400.44, -12.485343, 0.00010427608, -0.00012756477, -877487.94, -41699.777, 0.0, 10.000483, 9.94271 
3.9950258e+3, 2.2465192e+2, -789180.6, -843090.06, -10.2876835, 0.00010360941, 0.0001343337, -789180.6, -50769.336, 0.0, 10.000482, 9.929699 
3.9950258e+3, 2.345817e+2, -690751.2, -744913.9, -10.599877, 0.000103166116, -0.000067388784, -690751.2, -49651.754, 0.0, 10.000481, 9.929369 
3.9950258e+3, 2.445045e+2, -602439.7, -666988.5, -7.5961256, 0.000103397644, 0.00008632333, -602439.7, -58583.777, 0.0, 10.00048, 9.9159155 
3.9950258e+3, 2.5442052e+2, -503689.75, -568316.3, -9.335881, 0.00010443448, -0.00012617408, -503689.75, -57010.848, 0.0, 10.00048, 9.915815 
3.9950258e+3, 2.6432943e+2, -415456.0, -490963.75, -7.6418357, 0.00010485471, 0.00011011811, -415456.0, -65884.766, 0.0, 10.00048, 9.901744 
3.9950258e+3, 2.7423176e+2, -316172.94, -391353.06, -8.66412, 0.000104488696, -0.00021945218, -316172.94, -63644.316, 0.0, 10.000481, 9.9021635 
3.995026e+3, 2.8412583e+2, -229703.23, -318066.56, -5.6896243, 0.00010446594, 0.0002240855, -229703.23, -74136.516, 0.0, 10.000481, 9.885214 
3.995026e+3, 2.9401213e+2, -129999.664, -217753.23, -6.2529387, 0.00010491654, -0.0002520552, -129999.664, -71318.35, 0.0, 10.000481, 9.885992 
3.995026e+3, 3.039263e+2, -40267.72, -84756.34, -1.585695, 0.00010470671, 0.00017452132, -40267.72, -40267.72, 0.0, 10.000481, 9.9419365 
3.995026e+3, 3.1387013e+2, -39190.043, -82518.89, -1.9999021, 0.00010351179, -0.000062750376, -39190.043, -39190.043, 0.0, 10.000482, 9.943447 
4.0050262e+3, 1.2499704e+2, -1719311.1, -1724149.5, 1.7796224, 0.00012228829, 0.000026669111, -1719311.1, -4282.0234, 0.0, 10.000513, 9.994099 
4.0050262e+3, 1.3499105e+2, -1621941.9, -1627368.3, -1.6688112, 0.00010868898, -0.00008179078, -1621941.9, -4853.8906, 0.0, 10.000508, 9.993315 
4.0050262e+3, 1.4497845e+2, -1533829.1, -1548050.6, -9.013613, 0.00009906583, 0.00016870323, -1533829.1, -14617.89, 0.0, 10.000505, 9.981656 
4.0050262e+3, 1.5496004e+2, -1436106.5, -1450730.4, -9.251147, 0.00009343387, -0.000084513704, -1436106.5, -14714.941, 0.0, 10.000504, 9.981124 
4.0050262e+3, 1.6493504e+2, -1348069.6, -1371883.6, -9.054156, 0.000094039846, -0.000009599188, -1348069.6, -24433.18, 0.0, 10.000503, 9.9690275 
4.0050262e+3, 1.7490417e+2, -1250116.0, -1274245.1, -9.03487, 0.00010100817, -0.00006237855, -1250116.0, -24176.752, 0.0, 10.000502, 9.968614 
4.0050262e+3, 1.8486662e+2, -1162023.8, -1195629.5, -9.637508, 0.00010535608, 0.00009394897, -1162023.8, -33716.645, 0.0, 10.000501, 9.956193 
4.0050262e+3, 1.9482283e+2, -1063878.9, -1097746.1, -11.62283, 0.000106964566, -0.000067921166, -1063878.9, -33142.76, 0.0, 10.000499, 9.95585 
4.0050262e+3, 2.0477237e+2, -975750.44, -1019411.94, -11.708123, 0.000107294116, 0.000048186885, -975750.44, -42519.73, 0.0, 10.000497, 9.94305 
4.0050262e+3, 2.1471547e+2, -877470.0, -921392.4, -12.110906, 0.00010624006, -0.00012557625, -877470.0, -41681.57, 0.0, 10.000495, 9.942709 
4.0050262e+3, 2.2465189e+2, -789162.7, -843083.06, -9.732842, 0.00010550741, 0.0001360272, -789162.7, -50751.094, 0.0, 10.000494, 9.929697 
4.0050262e+3, 2.3458165e+2, -690729.3, -744904.94, -10.668417, 0.000105138926, -0.000067988905, -690729.3, -49629.496, 0.0, 10.000496, 9.929367 
4.0050262e+3, 2.4450445e+2, -602418.4, -666982.7, -7.925151, 0.000105146406, 0.00008487939, -602418.4, -58562.086, 0.0, 10.000496, 9.915912 
4.0050262e+3, 2.5442046e+2, -503670.47, -568311.75, -9.213132, 0.00010560217, -0.00012672973, -503670.47, -56991.133, 0.0, 10.000495, 9.915811 
4.0050262e+3, 2.643294e+2, -415436.97, -490957.7, -6.963665, 0.00010583437, 0.00011037869, -415436.97, -65865.266, 0.0, 10.000494, 9.90174 
4.0050262e+3, 2.7423173e+2, -316154.56, -391347.25, -7.717851, 0.00010578115, -0.00021847116, -316154.56, -63625.418, 0.0, 10.000494, 9.902161 
4.0050265e+3, 2.841258e+2, -229685.31, -318061.4, -4.788247, 0.000105889376, 0.00022524217, -229685.31, -74118.07, 0.0, 10.000494, 9.885211 
4.0050265e+3, 2.9401204e+2, -129981.52, -217748.05, -5.9650855, 0.00010621979, -0.00025146786, -129981.52, -71299.65, 0.0, 10.000495, 9.885989 
4.0050265e+3, 3.0392623e+2, -40249.94, -84750.95, -1.8323667, 0.00010585531, 0.00017427106, -40249.94, -40249.94, 0.0, 10.000495, 9.941934 
4.0050265e+3, 3.1387004e+2, -39173.89, -82514.23, -2.3088062, 0.0001044569, -0.00006422938, -39173.89, -39173.89, 0.0, 10.000494, 9.943444 
4.015027e+3, 1.2499705e+2, -1719319.1, -1724164.4, 0.07201179, 0.000119077784, 0.00003806203, -1719319.1, -4289.955, 0.0, 10.000513, 9.994089 
4.015027e+3, 1.3499103e+2, -1621949.6, -1627383.0, -3.368211, 0.00011148218, -0.00008519288, -1621949.6, -4861.6133, 0.0, 10.000508, 9.993306 
4.015027e+3, 1.4497843e+2, -1533829.6, -1548051.6, -9.516786, 0.000103592334, 0.00016474893, -1533829.6, -14618.214, 0.0, 10.000505, 9.981655 
4.015027e+3, 1.5496002e+2, -1436107.0, -1450731.4, -9.763538, 0.00009540242, -0.000077052086, -1436107.0, -14715.275, 0.0, 10.000504, 9.981124 
4.015027e+3, 1.6493504e+2, -1348069.5, -1371883.5, -9.424151, 0.00009588675, 0.000000037193747, -1348069.5, -24432.96, 0.0, 10.000503, 9.9690275 
4.015027e+3, 1.7490414e+2, -1250115.9, -1274245.0, -9.405839, 0.000105218125, -0.000059993643, -1250115.9, -24176.506, 0.0, 10.000502, 9.968614 
4.015027e+3, 1.848666e+2, -1162028.0, -1195637.8, -10.154704, 0.00010921413, 0.000093098366, -1162028.0, -33720.656, 0.0, 10.000501, 9.956187 
4.015027e+3, 1.948228e+2, -1063883.1, -1097754.4, -12.141048, 0.00010763238, -0.000067810135, -1063883.1, -33146.71, 0.0, 10.000499, 9.955845 
4.015027e+3, 2.0477234e+2, -975751.4, -1019413.8, -12.550676, 0.00010727645, 0.000048889935, -975751.4, -42520.36, 0.0, 10.000497, 9.943049 
4.015027e+3, 2.1471544e+2, -877470.9, -921394.06, -12.961837, 0.00010824761, -0.00012468226, -877470.9, -41682.113, 0.0, 10.000495, 9.942707 
4.015027e+3, 2.2465186e+2, -789164.75, -843087.2, -9.299657, 0.0001086722, 0.00013619666, -789164.75, -50752.832, 0.0, 10.000494, 9.929694 
4.015027e+3, 2.3458162e+2, -690731.4, -744909.1, -10.193465, 0.00010847803, -0.000069580165, -690731.4, -49631.215, 0.0, 10.000496, 9.929364 
4.015027e+3, 2.445044e+2, -602421.3, -666988.56, -8.271266, 0.00010765741, 0.00008343529, -602421.3, -58564.6, 0.0, 10.000496, 9.915908 
4.015027e+3, 2.5442043e+2, -503673.38, -568317.7, -9.59905, 0.00010608932, -0.00012574861, -503673.38, -56993.62, 0.0, 10.000495, 9.915807 
4.015027e+3, 2.6432934e+2, -415438.97, -490961.75, -7.0218124, 0.0001055542, 0.00011250583, -415438.97, -65866.8, 0.0, 10.000494, 9.901738 
4.015027e+3, 2.7423167e+2, -316156.44, -391351.16, -7.755135, 0.00010633504, -0.00021683089, -316156.44, -63626.836, 0.0, 10.000494, 9.902158 
4.015027e+3, 2.8412575e+2, -229688.19, -318067.34, -4.6510205, 0.00010698529, 0.00022602183, -229688.19, -74120.43, 0.0, 10.000494, 9.885207 
4.015027e+3, 2.9401198e+2, -129984.45, -217754.14, -5.8111753, 0.000107450614, -0.0002520528, -129984.45, -71302.01, 0.0, 10.000495, 9.885985 
4.015027e+3, 3.0392617e+2, -40252.06, -84755.375, -2.056953, 0.0001073009, 0.00017322299, -40252.06, -40252.06, 0.0, 10.000495, 9.941931 
4.015027e+3, 3.1386998e+2, -39175.918, -82518.47, -2.5782006, 0.00010623915, -0.00006439706, -39175.918, -39175.918, 0.0, 10.000494, 9.943441 
4.0250275e+3, 1.2499706e+2, -1719284.0, -1724151.5, 4.6271653, 0.000115566916, 0.000042674474, -1719284.0, -4254.9, 0.0, 10.000537, 9.994084 
4.0250275e+3, 1.3499103e+2, -1621923.6, -1627375.1, 4.1525393, 0.000113180446, -0.000094399686, -1621923.6, -4835.56, 0.0, 10.000527, 9.9933 
4.0250275e+3, 1.4497842e+2, -1533809.9, -1548048.1, -0.50867665, 0.00010800067, 0.00015529113, -1533809.9, -14598.435, 0.0, 10.000521, 9.981649 
4.0250275e+3, 1.5496e+2, -1436089.6, -1450729.0, -4.7844486, 0.00010000979, -0.00007535692, -1436089.6, -14697.741, 0.0, 10.000518, 9.981117 
4.0250275e+3, 1.6493502e+2, -1348049.1, -1371873.9, -6.442812, 0.00010054213, 0.000005773073, -1348049.1, -24412.432, 0.0, 10.000516, 9.969027 
4.0250275e+3, 1.7490412e+2, -1250095.9, -1274235.5, -7.1233015, 0.000109767214, -0.00005747136, -1250095.9, -24156.326, 0.0, 10.000515, 9.968613 
4.0250275e+3, 1.8486658e+2, -1162011.3, -1195634.8, -8.18445, 0.00011257005, 0.00009382368, -1162011.3, -33703.758, 0.0, 10.000514, 9.9561825 
4.0250275e+3, 1.9482277e+2, -1063866.1, -1097751.3, -9.957091, 0.00010865873, -0.00006740153, -1063866.1, -33129.453, 0.0, 10.000512, 9.95584 
4.0250275e+3, 2.0477231e+2, -975730.5, -1019405.44, -10.597481, 0.00010805596, 0.000049127742, -975730.5, -42499.203, 0.0, 10.000512, 9.943048 
4.0250275e+3, 2.147154e+2, -877447.25, -921384.25, -11.673905, 0.00011103417, -0.00012445789, -877447.25, -41658.18, 0.0, 10.000511, 9.942705 
4.0250275e+3, 2.2465183e+2, -789141.2, -843078.3, -7.6606874, 0.000111955575, 0.0001358936, -789141.2, -50728.938, 0.0, 10.000511, 9.929691 
4.0250275e+3, 2.3458157e+2, -690709.8, -744901.3, -8.575825, 0.00011054885, -0.000070992966, -690709.8, -49609.3, 0.0, 10.000511, 9.929361 
4.0250275e+3, 2.4450438e+2, -602401.6, -666983.25, -7.305976, 0.00010879985, 0.00008224583, -602401.6, -58544.543, 0.0, 10.000511, 9.915904 
4.0250275e+3, 2.5442037e+2, -503653.5, -568312.4, -8.830961, 0.00010664446, -0.0001251233, -503653.5, -56973.31, 0.0, 10.00051, 9.915803 
4.0250275e+3, 2.643293e+2, -415418.28, -490955.06, -6.2522893, 0.000106053616, 0.00011399531, -415418.28, -65845.66, 0.0, 10.000509, 9.901734 
4.0250275e+3, 2.742316e+2, -316135.88, -391344.53, -7.3856854, 0.00010745413, -0.00021569048, -316135.88, -63605.78, 0.0, 10.000509, 9.902155 
4.0250275e+3, 2.841257e+2, -229668.6, -318061.72, -4.3535557, 0.00010837591, 0.0002266034, -229668.6, -74100.31, 0.0, 10.000509, 9.885203 
4.0250275e+3, 2.9401192e+2, -129966.305, -217749.34, -5.1658745, 0.00010863319, -0.00025231147, -129966.305, -71283.305, 0.0, 10.000508, 9.885982 
4.0250275e+3, 3.039261e+2, -40234.504, -84750.31, -1.4796958, 0.000108433545, 0.00017263107, -40234.504, -40234.504, 0.0, 10.000508, 9.941928 
4.0250275e+3, 3.1386992e+2, -39158.344, -82513.32, -2.122404, 0.000107560954, -0.00006456655, -39158.344, -39158.344, 0.0, 10.000507, 9.943439 
4.035028e+3, 1.24997064e+2, -1719285.0, -1724153.5, 0.82971734, 0.00011175915, 0.0000406284, -1719285.0, -4256.119, 0.0, 10.000537, 9.994082 
4.035028e+3, 1.3499103e+2, -1621924.8, -1627377.1, 0.3457062, 0.000113795715, -0.000109346925, -1621924.8, -4836.6816, 0.0, 10.000527, 9.9932995 
4.035028e+3, 1.449784e+2, -1533819.5, -1548066.3, -1.5524685, 0.000112292066, 0.0001403908, -1533819.5, -14608.043, 0.0, 10.000521, 9.981638 
4.035028e+3, 1.5496e+2, -1436099.1, -1450747.1, -5.8172746, 0.00010722754, -0.00007936579, -1436099.1, -14707.17, 0.0, 10.000518, 9.981107 
4.035028e+3, 1.6493501e+2, -1348050.6, -1371876.8, -6.871638, 0.000107975626, 0.00000765024, -1348050.6, -24413.824, 0.0, 10.000516, 9.969025 
4.035028e+3, 1.7490412e+2, -1250097.4, -1274238.4, -7.55107, 0.000114651746, -0.00005481308, -1250097.4, -24157.686, 0.0, 10.000515, 9.968611 
4.035028e+3, 1.8486656e+2, -1162015.1, -1195642.0, -8.600207, 0.00011542918, 0.00009610828, -1162015.1, -33707.406, 0.0, 10.000514, 9.956178 
4.035028e+3, 1.9482276e+2, -1063869.9, -1097758.6, -10.37729, 0.00011003965, -0.00006669822, -1063869.9, -33133.004, 0.0, 10.000512, 9.955835 
4.035028e+3, 2.0477228e+2, -975732.8, -1019409.94, -10.758496, 0.00010962407, 0.000048905586, -975732.8, -42501.25, 0.0, 10.000512, 9.943045 
4.035028e+3, 2.1471538e+2, -877449.5, -921388.7, -11.827494, 0.0001145916, -0.00012489587, -877449.5, -41660.15, 0.0, 10.000511, 9.942702 
4.035028e+3, 2.246518e+2, -789143.4, -843082.7, -7.650055, 0.00011535651, 0.00013512315, -789143.4, -50730.84, 0.0, 10.000511, 9.929688 
4.035028e+3, 2.3458154e+2, -690712.0, -744905.7, -8.5607815, 0.00011136509, -0.00007222904, -690712.0, -49611.15, 0.0, 10.000511, 9.9293585 
4.035028e+3, 2.4450433e+2, -602404.9, -666989.8, -7.581899, 0.00010858844, 0.00008130852, -602404.9, -58547.43, 0.0, 10.000511, 9.915899 
4.035028e+3, 2.5442034e+2, -503656.75, -568319.0, -9.121595, 0.00010726695, -0.00012484982, -503656.75, -56976.156, 0.0, 10.00051, 9.915798 
4.035028e+3, 2.6432925e+2, -415421.03, -490960.75, -6.314192, 0.00010732434, 0.000114854054, -415421.03, -65847.984, 0.0, 10.000509, 9.901731 
4.0350282e+3, 2.7423155e+2, -316138.6, -391350.1, -7.431664, 0.00010913251, -0.00021504467, -316138.6, -63608.01, 0.0, 10.000509, 9.902151 
4.0350282e+3, 2.841256e+2, -229670.92, -318066.56, -4.5254087, 0.00011005822, 0.00022698895, -229670.92, -74102.125, 0.0, 10.000509, 9.8852005 
4.0350282e+3, 2.9401186e+2, -129968.57, -217754.06, -5.349606, 0.00010976813, -0.00025224738, -129968.57, -71285.03, 0.0, 10.000508, 9.885979 
4.0350282e+3, 3.0392605e+2, -40236.71, -84754.93, -1.7441636, 0.000109256696, 0.0001724905, -40236.71, -40236.71, 0.0, 10.000508, 9.941925 
4.0350282e+3, 3.1386986e+2, -39160.55, -82517.94, -2.3974636, 0.00010842743, -0.00006473771, -39160.55, -39160.55, 0.0, 10.000507, 9.943436 
4.0450287e+3, 1.2499709e+2, -1719267.0, -1724150.5, 3.3361466, 0.00011142717, 0.000043707867, -1719267.0, -4238.361, 0.0, 10.000551, 9.994077 
4.0450287e+3, 1.3499103e+2, -1621899.8, -1627370.5, -0.49367672, 0.000115605915, -0.00011922722, -1621899.8, -4811.8203, 0.0, 10.0005455, 9.993294 
4.0450287e+3, 1.449784e+2, -1533792.5, -1548061.1, -0.739696, 0.000115774325, 0.00013072383, -1533792.5, -14581.01, 0.0, 10.000542, 9.98163 
4.0450284e+3, 1.5496e+2, -1436071.1, -1450741.5, -2.4612682, 0.000111909714, -0.00007758108, -1436071.1, -14679.191, 0.0, 10.00054, 9.981098 
4.0450284e+3, 1.6493501e+2, -1348021.0, -1371864.3, -2.8185978, 0.0001124457, 0.000012642646, -1348021.0, -24384.096, 0.0, 10.000536, 9.969022 
4.0450284e+3, 1.7490411e+2, -1250073.9, -1274229.3, -4.190475, 0.00011746953, -0.00005502101, -1250073.9, -24134.178, 0.0, 10.000531, 9.968609 
4.0450284e+3, 1.8486655e+2, -1161996.8, -1195640.4, -5.2986207, 0.00011771832, 0.00009416332, -1161996.8, -33688.96, 0.0, 10.000528, 9.956171 
4.0450284e+3, 1.9482274e+2, -1063848.8, -1097755.5, -8.747416, 0.000112974696, -0.00006676001, -1063848.8, -33111.59, 0.0, 10.000529, 9.955829 
4.0450284e+3, 2.0477226e+2, -975706.2, -1019398.5, -9.761491, 0.000112302, 0.000049849532, -975706.2, -42474.387, 0.0, 10.00053, 9.943042 
4.0450284e+3, 2.1471535e+2, -877423.0, -921377.25, -10.116943, 0.00011603507, -0.00012389607, -877423.0, -41633.383, 0.0, 10.000529, 9.9427 
4.0450284e+3, 2.2465177e+2, -789119.06, -843073.94, -5.8032327, 0.00011618593, 0.00013524164, -789119.06, -50706.223, 0.0, 10.000528, 9.929686 
4.0450284e+3, 2.3458152e+2, -690690.0, -744898.25, -7.0483513, 0.000112282534, -0.0000740523, -690690.0, -49588.82, 0.0, 10.000527, 9.929356 
4.0450284e+3, 2.445043e+2, -602384.44, -666984.8, -6.2231026, 0.000109634304, 0.00007948931, -602384.44, -58526.645, 0.0, 10.000526, 9.9158945 
4.0450284e+3, 2.544203e+2, -503634.88, -568313.4, -8.055001, 0.00010848868, -0.00012434128, -503634.88, -56953.902, 0.0, 10.000526, 9.915794 
4.0450287e+3, 2.6432922e+2, -415398.22, -490953.34, -5.492076, 0.00010872046, 0.000116553485, -415398.22, -65824.74, 0.0, 10.000526, 9.901728 
4.0450287e+3, 2.742315e+2, -316117.6, -391343.56, -6.418392, 0.00011070107, -0.00021360633, -316117.6, -63586.54, 0.0, 10.000525, 9.902148 
4.0450287e+3, 2.8412557e+2, -229651.1, -318060.63, -3.422587, 0.00011161979, 0.0002279025, -229651.1, -74081.805, 0.0, 10.000524, 9.885197 
4.0450287e+3, 2.940118e+2, -129949.17, -217748.4, -4.421027, 0.00011107714, -0.0002522128, -129949.17, -71265.09, 0.0, 10.000524, 9.885975 
4.0450287e+3, 3.03926e+2, -40218.16, -84750.03, -1.2275345, 0.00011030913, 0.00017200857, -40218.16, -40218.16, 0.0, 10.000523, 9.941921 
4.0450287e+3, 3.138698e+2, -39142.742, -82513.44, -2.3040876, 0.00010921975, -0.00006519428, -39142.742, -39142.742, 0.0, 10.000521, 9.943432 
4.0550292e+3, 1.24997124e+2, -1719275.9, -1724167.0, 1.1789576, 0.00011453155, 0.000051941795, -1719275.9, -4247.5376, 0.0, 10.000551, 9.994067 
4.0550292e+3, 1.3499105e+2, -1621908.5, -1627386.9, -2.646387, 0.000118597825, -0.0001240978, -1621908.5, -4820.687, 0.0, 10.0005455, 9.993283 
4.0550292e+3, 1.4497842e+2, -1533796.4, -1548068.4, -1.5246327, 0.000118456715, 0.0001262306, -1533796.4, -14584.945, 0.0, 10.000542, 9.981626 
4.0550292e+3, 1.5496002e+2, -1436075.0, -1450748.8, -3.2455719, 0.00011408479, -0.00007006694, -1436075.0, -14683.123, 0.0, 10.00054, 9.981094 
4.0550292e+3, 1.6493502e+2, -1348024.0, -1371870.1, -4.7109375, 0.000113985516, 0.000020716563, -1348024.0, -24387.186, 0.0, 10.000536, 9.969019 
4.0550292e+3, 1.7490411e+2, -1250076.9, -1274235.0, -6.091556, 0.00011824335, -0.00005806275, -1250076.9, -24137.105, 0.0, 10.000531, 9.968605 
4.0550292e+3, 1.8486655e+2, -1162004.1, -1195654.8, -5.011777, 0.000119443546, 0.000088035995, -1162004.1, -33696.23, 0.0, 10.000528, 9.956162 
4.0550292e+3, 1.9482273e+2, -1063856.1, -1097769.9, -8.431543, 0.00011744668, -0.00006757864, -1063856.1, -33118.766, 0.0, 10.000529, 9.955819 
4.055029e+3, 2.0477223e+2, -975707.06, -1019400.3, -9.907121, 0.00011607771, 0.000051946383, -975707.06, -42475.06, 0.0, 10.00053, 9.943041 
4.055029e+3, 2.1471533e+2, -877423.75, -921378.8, -10.274047, 0.00011538837, -0.00012147435, -877423.75, -41633.92, 0.0, 10.000529, 9.942699 
4.055029e+3, 2.2465174e+2, -789121.9, -843079.56, -6.3113937, 0.00011447257, 0.0001362395, -789121.9, -50708.81, 0.0, 10.000528, 9.929682 
4.0550292e+3, 2.3458149e+2, -690692.8, -744904.0, -7.569541, 0.00011330003, -0.00007645605, -690692.8, -49591.367, 0.0, 10.000527, 9.929352 
4.0550292e+3, 2.4450427e+2, -602388.25, -666992.56, -6.141149, 0.00011192347, 0.00007679809, -602388.25, -58530.152, 0.0, 10.000526, 9.91589 
4.0550292e+3, 2.5442025e+2, -503638.75, -568321.2, -7.943737, 0.00011030321, -0.00012360033, -503638.75, -56957.38, 0.0, 10.000526, 9.915789 
4.0550292e+3, 2.643292e+2, -415400.66, -490958.3, -5.9423532, 0.00011024083, 0.000119084296, -415400.66, -65826.77, 0.0, 10.000526, 9.901724 
4.0550292e+3, 2.7423146e+2, -316119.9, -391348.34, -6.906627, 0.000112161135, -0.00021138419, -316119.9, -63588.418, 0.0, 10.000525, 9.902144 
4.0550292e+3, 2.841255e+2, -229653.7, -318066.03, -3.7028935, 0.00011306201, 0.00022933833, -229653.7, -74083.945, 0.0, 10.000524, 9.885194 
4.0550292e+3, 2.9401177e+2, -129951.77, -217753.83, -4.683745, 0.00011255843, -0.00025220722, -129951.77, -71267.19, 0.0, 10.000524, 9.885971 
4.0550292e+3, 3.0392596e+2, -40221.086, -84756.15, -1.6679413, 0.00011158844, 0.00017118917, -40221.086, -40221.086, 0.0, 10.000523, 9.941917 
4.0550292e+3, 3.1386974e+2, -39145.707, -82519.63, -2.7645311, 0.00010993879, -0.000065933105, -39145.707, -39145.707, 0.0, 10.000521, 9.943427 
4.0650296e+3, 1.24997154e+2, -1719252.1, -1724164.1, 1.349567, 0.0001185302, 0.00005380598, -1719252.1, -4224.1294, 0.0, 10.00057, 9.994059 
4.0650296e+3, 1.3499106e+2, -1621882.6, -1627382.9, -1.2264019, 0.00011929732, -0.00012436551, -1621882.6, -4795.059, 0.0, 10.0005665, 9.993275 
4.0650296e+3, 1.4497843e+2, -1533768.4, -1548059.3, 1.044556, 0.000118802476, 0.00012772868, -1533768.4, -14557.156, 0.0, 10.000562, 9.981621 
4.0650296e+3, 1.5496004e+2, -1436051.1, -1450741.8, -0.90703094, 0.00011703657, -0.00006461518, -1436051.1, -14659.458, 0.0, 10.000557, 9.981089 
4.0650296e+3, 1.6493502e+2, -1347998.8, -1371862.8, -2.7651923, 0.00011731676, 0.000025347828, -1347998.8, -24362.0, 0.0, 10.000555, 9.969013 
4.0650296e+3, 1.7490411e+2, -1250044.0, -1274223.8, -5.298748, 0.000119683245, -0.00005912123, -1250044.0, -24104.309, 0.0, 10.000554, 9.968599 
4.0650296e+3, 1.8486653e+2, -1161972.4, -1195646.5, -3.6060646, 0.000120364144, 0.000085809166, -1161972.4, -33664.406, 0.0, 10.000553, 9.956155 
4.0650296e+3, 1.9482271e+2, -1063830.9, -1097765.1, -5.592757, 0.00011928223, -0.000066247354, -1063830.9, -33093.473, 0.0, 10.000549, 9.955812 
4.0650296e+3, 2.0477222e+2, -975681.1, -1019389.2, -6.3494253, 0.000117783435, 0.000054454747, -975681.1, -42448.938, 0.0, 10.000547, 9.943039 
4.0650296e+3, 2.1471532e+2, -877397.8, -921367.7, -7.4069457, 0.000115833434, -0.00012036597, -877397.8, -41607.867, 0.0, 10.000547, 9.942698 
4.0650296e+3, 2.2465172e+2, -789097.4, -843072.1, -4.24731, 0.0001147266, 0.00013567426, -789097.4, -50684.07, 0.0, 10.000546, 9.929678 
4.0650296e+3, 2.3458146e+2, -690666.94, -744896.0, -6.1068807, 0.0001145735, -0.00007900391, -690666.94, -49565.22, 0.0, 10.000546, 9.929347 
4.0650296e+3, 2.4450423e+2, -602363.25, -666985.56, -4.8621664, 0.00011361439, 0.00007467211, -602363.25, -58504.813, 0.0, 10.0005455, 9.915885 
4.0650296e+3, 2.5442022e+2, -503616.63, -568315.75, -6.550531, 0.00011169153, -0.0001224336, -503616.63, -56934.906, 0.0, 10.000544, 9.915784 
4.0650296e+3, 2.6432914e+2, -415379.0, -490951.38, -4.7679114, 0.000111514484, 0.00012162026, -415379.0, -65804.7, 0.0, 10.000543, 9.901721 
4.0650296e+3, 2.7423143e+2, -316098.28, -391341.38, -5.8635902, 0.000113560964, -0.00020993329, -316098.28, -63566.367, 0.0, 10.000541, 9.902142 
4.0650296e+3, 2.8412548e+2, -229633.08, -318060.53, -2.7830236, 0.000114583825, 0.00022989025, -229633.08, -74062.84, 0.0, 10.00054, 9.885189 
4.0650296e+3, 2.940117e+2, -129932.09, -217748.92, -4.168446, 0.00011419535, -0.00025228824, -129932.09, -71247.0, 0.0, 10.000539, 9.885967 
4.06503e+3, 3.039259e+2, -40201.867, -84751.19, -1.383026, 0.000113118964, 0.00017091715, -40201.867, -40201.867, 0.0, 10.000537, 9.941914 
4.06503e+3, 3.1386968e+2, -39126.49, -82514.63, -2.211295, 0.00011103411, -0.00006574197, -39126.49, -39126.49, 0.0, 10.000536, 9.943423 
4.0750304e+3, 1.2499718e+2, -1719258.1, -1724175.3, -0.29180843, 0.00012341255, 0.000049525843, -1719258.1, -4230.375, 0.0, 10.00057, 9.994052 
4.07503e+3, 1.349911e+2, -1621888.5, -1627394.0, -2.866422, 0.00011773119, -0.000120083, -1621888.5, -4801.2036, 0.0, 10.0005665, 9.993268 
4.07503e+3, 1.4497846e+2, -1533772.8, -1548067.5, -0.6946903, 0.00011683876, 0.00013514917, -1533772.8, -14561.779, 0.0, 10.000562, 9.981615 
4.07503e+3, 1.5496005e+2, -1436055.5, -1450750.1, -2.648372, 0.00012075558, -0.00006120165, -1436055.5, -14663.942, 0.0, 10.000557, 9.981084 
4.07503e+3, 1.6493504e+2, -1348004.3, -1371873.4, -2.8409448, 0.00012241829, 0.00002657636, -1348004.3, -24367.64, 0.0, 10.000555, 9.969007 
4.07503e+3, 1.7490411e+2, -1250049.5, -1274234.4, -5.3614264, 0.00012178199, -0.000058219634, -1250049.5, -24109.842, 0.0, 10.000554, 9.968593 
4.07503e+3, 1.8486653e+2, -1161976.8, -1195654.9, -4.8311963, 0.00012049005, 0.00008743765, -1161976.8, -33668.754, 0.0, 10.000553, 9.95615 
4.07503e+3, 1.9482271e+2, -1063835.3, -1097773.5, -6.8339367, 0.00011851197, -0.00006279041, -1063835.3, -33097.707, 0.0, 10.000549, 9.955807 
4.07503e+3, 2.0477222e+2, -975683.4, -1019393.7, -6.5357566, 0.000117442985, 0.000057370635, -975683.4, -42451.094, 0.0, 10.000547, 9.943036 
4.07503e+3, 2.147153e+2, -877400.06, -921372.06, -7.5717597, 0.00011735758, -0.00012055544, -877400.06, -41609.91, 0.0, 10.000547, 9.942695 
4.07503e+3, 2.246517e+2, -789101.4, -843080.2, -4.3849316, 0.00011692543, 0.00013356407, -789101.4, -50687.92, 0.0, 10.000546, 9.929672 
4.07503e+3, 2.3458143e+2, -690671.0, -744904.1, -6.2432046, 0.000116100324, -0.00008169414, -690671.0, -49569.03, 0.0, 10.000546, 9.929342 
4.07503e+3, 2.445042e+2, -602366.94, -666993.0, -5.4225554, 0.00011471433, 0.00007310498, -602366.94, -58508.21, 0.0, 10.0005455, 9.91588 
4.07503e+3, 2.544202e+2, -503620.25, -568323.1, -7.1305175, 0.000112658694, -0.00012084591, -503620.25, -56938.207, 0.0, 10.000544, 9.915779 
4.07503e+3, 2.643291e+2, -415381.63, -490956.78, -5.259448, 0.00011254431, 0.00012416144, -415381.63, -65806.98, 0.0, 10.000543, 9.901717 
4.07503e+3, 2.7423137e+2, -316100.8, -391346.6, -6.3498535, 0.000114901384, -0.00020924455, -316100.8, -63568.492, 0.0, 10.000541, 9.902138 
4.07503e+3, 2.8412542e+2, -229636.44, -318067.47, -3.2494516, 0.000116184485, 0.00022956861, -229636.44, -74065.75, 0.0, 10.00054, 9.885185 
4.0750304e+3, 2.9401165e+2, -129935.484, -217755.98, -4.6331306, 0.000115986215, -0.0002524549, -129935.484, -71249.89, 0.0, 10.000539, 9.8859625 
4.0750304e+3, 3.0392584e+2, -40204.4, -84756.48, -1.8457268, 0.000114897906, 0.0001711861, -40204.4, -40204.4, 0.0, 10.000537, 9.94191 
4.0750304e+3, 3.1386963e+2, -39128.92, -82519.73, -2.6739302, 0.000112501475, -0.00006463156, -39128.92, -39128.92, 0.0, 10.000536, 9.94342 
4.085031e+3, 1.2499722e+2, -1719237.6, -1724171.3, 0.23041406, 0.0001262715, 0.000050167477, -1719237.6, -4210.263, 0.0, 10.0005865, 9.994045 
4.085031e+3, 1.3499112e+2, -1621861.3, -1627386.4, -1.7530599, 0.00011761088, -0.00012050729, -1621861.3, -4774.244, 0.0, 10.0005865, 9.993262 
4.085031e+3, 1.4497848e+2, -1533741.8, -1548058.5, -0.46112975, 0.00011685434, 0.00013608143, -1533741.8, -14530.937, 0.0, 10.000585, 9.981609 
4.085031e+3, 1.5496007e+2, -1436022.9, -1450740.3, -3.354433, 0.00012403731, -0.00005803386, -1436022.9, -14631.575, 0.0, 10.000581, 9.981077 
4.0850306e+3, 1.6493505e+2, -1347970.8, -1371861.3, -2.0914319, 0.0001258864, 0.000029114019, -1347970.8, -24334.264, 0.0, 10.000578, 9.969002 
4.0850306e+3, 1.7490412e+2, -1250018.6, -1274223.6, -3.099719, 0.00012229568, -0.000059234902, -1250018.6, -24078.986, 0.0, 10.000576, 9.968588 
4.0850306e+3, 1.8486653e+2, -1161949.5, -1195648.4, -3.333756, 0.00011987128, 0.00008578223, -1161949.5, -33641.535, 0.0, 10.000573, 9.956143 
4.0850306e+3, 1.948227e+2, -1063809.6, -1097768.0, -6.329141, 0.00011866532, -0.000062040985, -1063809.6, -33072.125, 0.0, 10.000569, 9.9558 
4.0850306e+3, 2.047722e+2, -975654.56, -1019382.25, -5.030919, 0.00011836749, 0.000058959045, -975654.56, -42422.207, 0.0, 10.000567, 9.943033 
4.0850306e+3, 2.1471529e+2, -877368.9, -921359.4, -6.111503, 0.000119052085, -0.000119822784, -877368.9, -41578.61, 0.0, 10.000568, 9.942692 
4.0850306e+3, 2.2465168e+2, -789072.7, -843071.25, -3.6824946, 0.000118556054, 0.00013315155, -789072.7, -50659.03, 0.0, 10.000567, 9.929667 
4.0850306e+3, 2.3458141e+2, -690646.7, -744897.6, -5.4439635, 0.00011672373, -0.00008357881, -690646.7, -49544.477, 0.0, 10.000565, 9.929337 
4.0850306e+3, 2.4450418e+2, -602344.6, -666986.94, -4.4005613, 0.000115360905, 0.000071906616, -602344.6, -58485.633, 0.0, 10.000563, 9.915875 
4.0850306e+3, 2.5442016e+2, -503598.3, -568317.25, -5.868276, 0.00011455978, -0.00011878063, -503598.3, -56915.96, 0.0, 10.000561, 9.915774 
4.0850306e+3, 2.6432908e+2, -415359.22, -490949.9, -3.7927628, 0.00011488003, 0.00012725304, -415359.22, -65784.23, 0.0, 10.000559, 9.901713 
4.0850306e+3, 2.7423134e+2, -316078.13, -391339.63, -5.091579, 0.00011662564, -0.0002079797, -316078.13, -63545.438, 0.0, 10.000558, 9.902134 
4.085031e+3, 2.841254e+2, -229614.77, -318062.06, -2.274188, 0.00011755119, 0.00022959635, -229614.77, -74043.65, 0.0, 10.000557, 9.88518 
4.085031e+3, 2.9401162e+2, -129915.086, -217751.38, -3.693185, 0.00011734774, -0.00025284424, -129915.086, -71229.016, 0.0, 10.000555, 9.885958 
4.085031e+3, 3.0392578e+2, -40184.117, -84750.76, -0.83450454, 0.00011641342, 0.00017091529, -40184.117, -40184.117, 0.0, 10.000553, 9.941906 
4.085031e+3, 3.1386957e+2, -39108.633, -82513.86, -1.6986389, 0.00011440413, -0.0000639957, -39108.633, -39108.633, 0.0, 10.000551, 9.943417 
4.0950313e+3, 1.2499726e+2, -1719242.1, -1724179.8, 0.19453293, 0.00012713052, 0.000055756766, -1719242.1, -4215.205, 0.0, 10.0005865, 9.9940405 
4.0950313e+3, 1.3499115e+2, -1621865.8, -1627394.9, -1.7933061, 0.0001189191, -0.00012558143, -1621865.8, -4779.015, 0.0, 10.0005865, 9.993257 
4.0950313e+3, 1.4497851e+2, -1533748.3, -1548070.8, -1.8189733, 0.0001188258, 0.00013060345, -1533748.3, -14537.651, 0.0, 10.000585, 9.981602 
4.0950313e+3, 1.549601e+2, -1436029.4, -1450752.5, -4.7053146, 0.0001268872, -0.000055109005, -1436029.4, -14638.195, 0.0, 10.000581, 9.98107 
4.0950313e+3, 1.6493507e+2, -1347973.0, -1371865.5, -2.7326748, 0.00012774082, 0.000032945038, -1347973.0, -24336.65, 0.0, 10.000578, 9.968999 
4.0950313e+3, 1.7490412e+2, -1250020.9, -1274227.9, -3.7416642, 0.00012124345, -0.00006214349, -1250020.9, -24081.275, 0.0, 10.000576, 9.968586 
4.0950313e+3, 1.8486653e+2, -1161956.0, -1195660.9, -4.9396033, 0.00011851676, 0.00008088291, -1161956.0, -33647.99, 0.0, 10.000573, 9.956136 
4.0950313e+3, 1.948227e+2, -1063816.1, -1097780.4, -7.9412746, 0.000119731114, -0.00006396672, -1063816.0, -33078.457, 0.0, 10.000569, 9.955792 
4.0950313e+3, 2.047722e+2, -975657.06, -1019387.1, -4.617462, 0.00012054189, 0.00005923555, -975657.06, -42424.563, 0.0, 10.000567, 9.94303 
4.0950313e+3, 2.1471527e+2, -877371.2, -921364.06, -5.656913, 0.000120915356, -0.00011817915, -877371.2, -41580.87, 0.0, 10.000568, 9.942689 
4.0950313e+3, 2.2465166e+2, -789076.5, -843078.9, -4.8021774, 0.00011962574, 0.0001344164, -789076.5, -50662.715, 0.0, 10.000567, 9.929663 
4.0950313e+3, 2.3458138e+2, -690650.5, -744905.25, -6.616072, 0.000116454576, -0.00008466757, -690650.5, -49548.082, 0.0, 10.000565, 9.929332 
4.0950313e+3, 2.4450415e+2, -602347.9, -666993.44, -5.0679793, 0.000115559444, 0.000071072674, -602347.9, -58488.594, 0.0, 10.000563, 9.915872 
4.0950313e+3, 2.5442013e+2, -503601.44, -568323.6, -6.5131474, 0.00011738366, -0.000116243355, -503601.44, -56918.832, 0.0, 10.000561, 9.915771 
4.0950313e+3, 2.6432905e+2, -415362.22, -490956.06, -4.2041426, 0.000118506185, 0.00013088858, -415362.22, -65786.93, 0.0, 10.000559, 9.90171 
4.0950313e+3, 2.742313e+2, -316081.1, -391345.72, -5.4870005, 0.00011872933, -0.00020614553, -316081.1, -63548.043, 0.0, 10.000558, 9.90213 
4.0950313e+3, 2.8412533e+2, -229618.19, -318069.16, -2.991688, 0.00011868693, 0.00022996933, -229618.19, -74046.67, 0.0, 10.000557, 9.885176 
4.0950313e+3, 2.9401156e+2, -129918.516, -217758.52, -4.438426, 0.000118285236, -0.00025345353, -129918.516, -71231.984, 0.0, 10.000555, 9.885953 
4.0950313e+3, 3.0392575e+2, -40186.73, -84756.234, -1.3413767, 0.00011766882, 0.00017011129, -40186.73, -40186.73, 0.0, 10.000553, 9.941902 
4.0950313e+3, 3.138695e+2, -39111.16, -82519.15, -2.1786304, 0.00011673693, -0.00006382856, -39111.16, -39111.16, 0.0, 10.000551, 9.943413 
4.1050318e+3, 1.2499731e+2, -1719209.6, -1724170.9, 0.08645665, 0.00012810704, 0.000058869562, -1719209.6, -4183.1294, 0.0, 10.00061, 9.994033 
4.1050318e+3, 1.3499118e+2, -1621836.3, -1627387.8, -3.4941833, 0.00012131932, -0.0001257626, -1621836.3, -4749.7417, 0.0, 10.000608, 9.99325 
4.1050318e+3, 1.4497854e+2, -1533717.1, -1548058.8, -3.8970299, 0.00012124048, 0.00013147817, -1533717.1, -14506.708, 0.0, 10.000606, 9.981598 
4.1050318e+3, 1.5496011e+2, -1435998.0, -1450740.6, -4.0115604, 0.00012790032, -0.000050115817, -1435998.0, -14607.085, 0.0, 10.000603, 9.981066 
4.1050318e+3, 1.6493508e+2, -1347943.4, -1371855.1, -0.9315148, 0.00012805889, 0.000037158396, -1347943.4, -24307.14, 0.0, 10.000599, 9.968995 
4.1050318e+3, 1.7490414e+2, -1249993.8, -1274218.9, -3.3037374, 0.00012158685, -0.00006370592, -1249993.8, -24054.303, 0.0, 10.000596, 9.968581 
4.1050318e+3, 1.8486653e+2, -1161929.1, -1195653.8, -4.587525, 0.00011920508, 0.000078365185, -1161929.1, -33621.15, 0.0, 10.000593, 9.956129 
4.1050318e+3, 1.948227e+2, -1063784.5, -1097771.0, -6.1703033, 0.00012109846, -0.000062400526, -1063784.5, -33046.85, 0.0, 10.000592, 9.955786 
4.1050318e+3, 2.047722e+2, -975623.75, -1019373.6, -1.4609364, 0.0001221172, 0.00006204999, -975623.75, -42391.25, 0.0, 10.00059, 9.943027 
4.1050318e+3, 2.1471527e+2, -877344.4, -921353.9, -2.5752459, 0.00012218881, -0.00011718565, -877344.4, -41553.945, 0.0, 10.000587, 9.942686 
4.1050318e+3, 2.2465166e+2, -789053.94, -843073.56, -2.546822, 0.000120732875, 0.00013397964, -789053.94, -50640.082, 0.0, 10.000586, 9.929657 
4.1050318e+3, 2.3458137e+2, -690626.3, -744899.25, -4.7812185, 0.00011754887, -0.000086091415, -690626.3, -49523.71, 0.0, 10.000584, 9.929326 
4.1050318e+3, 2.4450412e+2, -602322.6, -666986.4, -3.4964688, 0.00011704616, 0.00007033088, -602322.6, -58463.16, 0.0, 10.000581, 9.915867 
4.1050318e+3, 2.544201e+2, -503577.03, -568317.0, -5.4930673, 0.00011974654, -0.00011431071, -503577.03, -56894.156, 0.0, 10.000579, 9.915766 
4.1050318e+3, 2.6432902e+2, -415338.1, -490948.6, -3.2911756, 0.00012116741, 0.00013363904, -415338.1, -65762.5, 0.0, 10.000577, 9.901706 
4.1050318e+3, 2.7423128e+2, -316058.25, -391338.84, -4.4914174, 0.00012095252, -0.00020494452, -316058.25, -63524.855, 0.0, 10.000575, 9.902126 
4.1050318e+3, 2.841253e+2, -229596.19, -318063.06, -1.9239023, 0.00012057003, 0.00023003248, -229596.19, -74024.27, 0.0, 10.000573, 9.885172 
4.1050318e+3, 2.9401153e+2, -129896.4, -217752.45, -2.9653602, 0.0001199657, -0.00025395403, -129896.4, -71209.44, 0.0, 10.000571, 9.885949 
4.1050318e+3, 3.039257e+2, -40165.008, -84750.27, 0.30493006, 0.0001191072, 0.0001696889, -40165.008, -40165.008, 0.0, 10.000569, 9.941898 
4.1050318e+3, 3.1386948e+2, -39090.477, -82513.67, -0.8599426, 0.0001178737, -0.00006322465, -39090.477, -39090.477, 0.0, 10.000567, 9.943409 
4.115033e+3, 1.2499735e+2, -1719217.9, -1724186.3, -0.58143765, 0.0001291997, 0.000059675793, -1719217.9, -4191.7305, 0.0, 10.00061, 9.994023 
4.115033e+3, 1.3499121e+2, -1621844.4, -1627403.0, -4.1541786, 0.0001247981, -0.000121112855, -1621844.4, -4758.183, 0.0, 10.000608, 9.99324 
4.1150323e+3, 1.4497857e+2, -1533717.3, -1548059.3, -5.1555266, 0.00012409272, 0.00013862534, -1533717.3, -14507.2, 0.0, 10.000606, 9.981597 
4.1150323e+3, 1.5496014e+2, -1435998.3, -1450741.0, -5.2781625, 0.00012709944, -0.000043079395, -1435998.3, -14607.57, 0.0, 10.000603, 9.981066 
4.1150323e+3, 1.6493513e+2, -1347948.5, -1371865.1, -2.156065, 0.0001268596, 0.00004175029, -1347948.5, -24312.592, 0.0, 10.000599, 9.968988 
4.1150323e+3, 1.7490415e+2, -1249999.0, -1274228.9, -4.527739, 0.00012330826, -0.00006393924, -1249998.9, -24059.621, 0.0, 10.000596, 9.968575 
4.1150323e+3, 1.8486655e+2, -1161932.5, -1195660.4, -5.0262923, 0.00012191073, 0.00007819896, -1161932.5, -33624.64, 0.0, 10.000593, 9.956125 
4.1150323e+3, 1.9482271e+2, -1063787.8, -1097777.6, -6.601229, 0.00012276406, -0.00005738549, -1063787.8, -33050.277, 0.0, 10.000592, 9.955782 
4.1150323e+3, 2.047722e+2, -975626.4, -1019378.75, -2.5373476, 0.0001231013, 0.00006737146, -975626.4, -42393.88, 0.0, 10.00059, 9.943024 
4.1150323e+3, 2.1471527e+2, -877346.9, -921358.94, -3.6664994, 0.00012287963, -0.00011683379, -877346.9, -41556.47, 0.0, 10.000587, 9.942682 
4.1150323e+3, 2.2465163e+2, -789058.56, -843082.75, -3.2765749, 0.000121876736, 0.0001318627, -789058.56, -50644.625, 0.0, 10.000586, 9.929651 
4.1150323e+3, 2.3458135e+2, -690630.94, -744908.5, -5.4989805, 0.00011998984, -0.00008784591, -690630.94, -49528.207, 0.0, 10.000584, 9.92932 
4.1150323e+3, 2.4450411e+2, -602327.0, -666995.06, -4.307715, 0.00011980541, 0.00006968034, -602327.0, -58467.305, 0.0, 10.000582, 9.915861 
4.1150323e+3, 2.544201e+2, -503581.3, -568325.7, -6.3067703, 0.00012165439, -0.00011297511, -503581.3, -56898.18, 0.0, 10.000579, 9.91576 
4.1150323e+3, 2.64329e+2, -415341.03, -490954.6, -3.9940662, 0.0001228758, 0.00013551534, -415341.03, -65765.16, 0.0, 10.000577, 9.901702 
4.1150323e+3, 2.7423126e+2, -316061.06, -391344.66, -5.18737, 0.0001232938, -0.0002043688, -316061.06, -63527.344, 0.0, 10.000575, 9.9021225 
4.1150323e+3, 2.8412527e+2, -229598.86, -318068.63, -2.604267, 0.00012319129, 0.00022978977, -229598.86, -74026.58, 0.0, 10.000573, 9.885168 
4.1150323e+3, 2.9401147e+2, -129899.016, -217757.94, -3.645611, 0.00012238008, -0.00025434687, -129899.016, -71211.66, 0.0, 10.000571, 9.885945 
4.1150323e+3, 3.0392566e+2, -40168.105, -84756.76, -0.44229123, 0.00012072654, 0.0001696436, -40168.105, -40168.105, 0.0, 10.000569, 9.941894 
4.115033e+3, 3.1386942e+2, -39093.633, -82520.29, -1.6140136, 0.00011782955, -0.00006218938, -39093.633, -39093.633, 0.0, 10.000567, 9.943404 
4.1250333e+3, 1.24997385e+2, -1719183.9, -1724175.4, 2.0997543, 0.00012963926, 0.00005859926, -1719183.9, -4158.069, 0.0, 10.000634, 9.994018 
4.1250333e+3, 1.3499126e+2, -1621815.8, -1627395.1, 0.86242867, 0.00012778328, -0.000119717646, -1621815.8, -4729.929, 0.0, 10.000629, 9.993234 
4.1250333e+3, 1.4497861e+2, -1533687.9, -1548047.5, 0.16748522, 0.000127017, 0.00014112047, -1533687.9, -14478.058, 0.0, 10.000626, 9.981594 
4.1250333e+3, 1.5496017e+2, -1435966.9, -1450728.4, -2.2549307, 0.00012734372, -0.000041941268, -1435966.9, -14576.505, 0.0, 10.000624, 9.981062 
4.1250333e+3, 1.6493514e+2, -1347919.0, -1371856.9, -0.54173356, 0.00012672569, 0.000041516396, -1347919.0, -24283.285, 0.0, 10.000621, 9.968983 
4.1250333e+3, 1.7490417e+2, -1249970.1, -1274221.1, -2.8834684, 0.00012514381, -0.00006556055, -1249970.1, -24031.01, 0.0, 10.000617, 9.968569 
4.1250327e+3, 1.8486656e+2, -1161903.1, -1195650.5, -2.7562578, 0.00012426195, 0.000077303666, -1161903.1, -33595.426, 0.0, 10.000615, 9.9561205 
4.1250327e+3, 1.9482271e+2, -1063759.4, -1097768.1, -4.6645107, 0.00012411106, -0.000055345507, -1063759.4, -33021.91, 0.0, 10.000613, 9.955777 
4.1250327e+3, 2.047722e+2, -975598.1, -1019368.75, -1.6483493, 0.00012424613, 0.00006978819, -975598.1, -42365.664, 0.0, 10.00061, 9.94302 
4.1250327e+3, 2.1471527e+2, -877319.25, -921349.3, -3.3364081, 0.00012469031, -0.00011680921, -877319.25, -41528.83, 0.0, 10.0006075, 9.942678 
4.1250327e+3, 2.2465163e+2, -789033.25, -843076.6, -2.9133358, 0.00012403124, 0.00013072921, -789033.25, -50619.242, 0.0, 10.000605, 9.929646 
4.1250327e+3, 2.3458135e+2, -690606.75, -744903.06, -5.0891175, 0.00012212347, -0.00008874011, -690606.75, -49503.9, 0.0, 10.000602, 9.929315 
4.1250327e+3, 2.445041e+2, -602302.56, -666988.3, -3.5631485, 0.000121877485, 0.000069970134, -602302.56, -58442.688, 0.0, 10.0006, 9.915856 
4.1250327e+3, 2.5442007e+2, -503556.88, -568318.94, -4.944568, 0.00012361672, -0.0001103749, -503556.88, -56873.54, 0.0, 10.000598, 9.915755 
4.1250327e+3, 2.64329e+2, -415316.16, -490946.8, -2.2649822, 0.0001248985, 0.00013855266, -415316.16, -65740.02, 0.0, 10.000596, 9.901697 
4.1250327e+3, 2.7423123e+2, -316036.5, -391337.06, -3.5906165, 0.00012559342, -0.00020328078, -316036.5, -63502.47, 0.0, 10.000593, 9.902119 
4.1250327e+3, 2.8412524e+2, -229574.78, -318061.5, -1.2673811, 0.00012539928, 0.00022949235, -229574.78, -74002.17, 0.0, 10.000591, 9.885163 
4.1250333e+3, 2.9401144e+2, -129875.54, -217751.2, -2.7276237, 0.00012399089, -0.0002552471, -129875.54, -71187.8, 0.0, 10.000589, 9.8859415 
4.1250333e+3, 3.039256e+2, -40145.17, -84750.26, 0.2769456, 0.00012205651, 0.00016886285, -40145.17, -40145.17, 0.0, 10.000587, 9.94189 
4.1250333e+3, 3.138694e+2, -39071.004, -82513.92, -0.60438293, 0.000119353375, -0.00006178451, -39071.004, -39071.004, 0.0, 10.000586, 9.9434 
4.1350338e+3, 1.2499743e+2, -1719186.6, -1724180.8, 0.1912455, 0.00012943387, 0.00005578236, -1719186.6, -4161.357, 0.0, 10.000634, 9.994014 
4.1350338e+3, 1.349913e+2, -1621818.5, -1627400.5, -1.0507345, 0.0001302811, -0.00012153328, -1621818.5, -4733.1675, 0.0, 10.000629, 9.993231 
4.1350338e+3, 1.4497864e+2, -1533693.3, -1548057.9, -0.62692267, 0.00013001227, 0.00013902508, -1533693.3, -14483.892, 0.0, 10.000626, 9.981587 
4.1350338e+3, 1.549602e+2, -1435972.3, -1450738.6, -3.0448973, 0.0001286194, -0.00004662506, -1435972.3, -14582.196, 0.0, 10.000624, 9.981056 
4.1350338e+3, 1.6493517e+2, -1347924.3, -1371866.8, -1.9107238, 0.00012764323, 0.000036518926, -1347924.3, -24288.71, 0.0, 10.000621, 9.968976 
4.1350338e+3, 1.749042e+2, -1249975.3, -1274231.0, -4.2541265, 0.00012709209, -0.00006855145, -1249975.3, -24036.326, 0.0, 10.000617, 9.968562 
4.1350338e+3, 1.8486658e+2, -1161907.4, -1195658.5, -3.3721795, 0.00012626335, 0.0000756893, -1161907.4, -33599.72, 0.0, 10.000615, 9.956116 
4.1350338e+3, 1.9482273e+2, -1063763.5, -1097776.1, -5.27127, 0.00012514347, -0.00005624211, -1063763.5, -33026.094, 0.0, 10.000613, 9.955772 
4.1350338e+3, 2.0477222e+2, -975601.8, -1019376.1, -2.8374724, 0.00012554953, 0.00006933752, -975601.8, -42369.457, 0.0, 10.00061, 9.943015 
4.1350338e+3, 2.1471527e+2, -877322.94, -921356.6, -4.5368743, 0.00012760662, -0.00011710789, -877322.94, -41532.527, 0.0, 10.0006075, 9.942674 
4.1350338e+3, 2.2465162e+2, -789037.8, -843085.7, -3.8697965, 0.0001271836, 0.00013056629, -789037.8, -50623.785, 0.0, 10.000605, 9.92964 
4.1350338e+3, 2.3458134e+2, -690611.3, -744912.2, -6.03864, 0.00012395378, -0.00008878525, -690611.3, -49508.348, 0.0, 10.000602, 9.929309 
4.1350338e+3, 2.4450408e+2, -602305.7, -666994.7, -4.3600607, 0.00012327125, 0.000071188064, -602305.7, -58445.68, 0.0, 10.0006, 9.915852 
4.1350338e+3, 2.5442004e+2, -503559.9, -568325.1, -5.7347264, 0.00012563294, -0.000106526226, -503559.9, -56876.4, 0.0, 10.000598, 9.915751 
4.1350338e+3, 2.6432896e+2, -415319.28, -490953.2, -3.0156972, 0.00012723163, 0.00014273621, -415319.28, -65742.94, 0.0, 10.000596, 9.901693 
4.1350338e+3, 2.742312e+2, -316039.6, -391343.4, -4.3393903, 0.00012785214, -0.00020168687, -316039.6, -63505.297, 0.0, 10.000593, 9.902114 
4.1350338e+3, 2.841252e+2, -229578.22, -318068.63, -2.0551205, 0.0001271995, 0.00022914108, -229578.22, -74005.29, 0.0, 10.000591, 9.885159 
4.1350338e+3, 2.940114e+2, -129878.945, -217758.33, -3.519069, 0.0001248087, -0.00025664823, -129878.945, -71190.836, 0.0, 10.000589, 9.885937 
4.1350338e+3, 3.0392557e+2, -40147.836, -84755.87, -0.5534161, 0.000123101, 0.0001673562, -40147.836, -40147.836, 0.0, 10.000587, 9.941886 
4.1350338e+3, 3.1386933e+2, -39073.586, -82519.36, -1.4399042, 0.000122425, -0.00006200161, -39073.586, -39073.586, 0.0, 10.000586, 9.943397 
4.1450346e+3, 1.2499748e+2, -1719155.3, -1724169.8, 0.7944159, 0.00013075105, 0.0000559314, -1719155.3, -4130.4077, 0.0, 10.000657, 9.994009 
4.1450343e+3, 1.3499135e+2, -1621787.8, -1627389.9, -1.8133115, 0.00013276089, -0.00012277895, -1621787.8, -4702.82, 0.0, 10.000651, 9.993225 
4.1450343e+3, 1.4497869e+2, -1533663.1, -1548048.0, -0.5109554, 0.00013253548, 0.00013802202, -1533663.1, -14454.087, 0.0, 10.000648, 9.981582 
4.1450343e+3, 1.5496023e+2, -1435942.3, -1450729.0, -2.1566377, 0.00013006135, -0.000046609064, -1435942.3, -14552.511, 0.0, 10.000646, 9.9810505 
4.1450343e+3, 1.649352e+2, -1347894.8, -1371857.9, -1.0727586, 0.00012880648, 0.000036695008, -1347894.8, -24259.563, 0.0, 10.000643, 9.96897 
4.1450343e+3, 1.7490423e+2, -1249946.3, -1274222.4, -3.0694873, 0.00012879493, -0.000069090645, -1249946.3, -24007.576, 0.0, 10.000639, 9.968556 
4.1450343e+3, 1.8486659e+2, -1161878.4, -1195649.1, -1.2435768, 0.00012838689, 0.00007555688, -1161878.4, -33570.906, 0.0, 10.000635, 9.95611 
4.1450343e+3, 1.9482274e+2, -1063735.5, -1097767.3, -2.9805093, 0.00012756337, -0.00005479458, -1063735.5, -32998.285, 0.0, 10.000633, 9.955768 
4.1450343e+3, 2.0477222e+2, -975574.3, -1019367.06, -0.89858115, 0.00012784282, 0.00007101394, -975574.3, -42342.016, 0.0, 10.00063, 9.94301 
4.1450343e+3, 2.1471527e+2, -877295.9, -921347.9, -2.450709, 0.00012931552, -0.00011666457, -877295.9, -41505.51, 0.0, 10.0006275, 9.94267 
4.1450343e+3, 2.2465162e+2, -789012.4, -843079.9, -1.5398812, 0.00012900034, 0.00013037732, -789012.4, -50598.336, 0.0, 10.000625, 9.929633 
4.1450343e+3, 2.3458134e+2, -690585.94, -744906.56, -4.009561, 0.00012666163, -0.0000889261, -690585.94, -49482.9, 0.0, 10.000622, 9.929302 
4.1450343e+3, 2.4450406e+2, -602278.9, -666986.2, -2.4545448, 0.00012615827, 0.00007173631, -602278.9, -58418.773, 0.0, 10.00062, 9.915848 
4.1450343e+3, 2.5442004e+2, -503533.3, -568316.7, -4.0151844, 0.00012784815, -0.00010452426, -503533.3, -56849.664, 0.0, 10.000617, 9.915747 
4.1450343e+3, 2.6432893e+2, -415293.44, -490945.44, -1.5647398, 0.00012887025, 0.00014481998, -415293.44, -65716.92, 0.0, 10.000615, 9.901689 
4.1450343e+3, 2.7423117e+2, -316014.9, -391336.3, -3.1282134, 0.00012903723, -0.00020126883, -316014.9, -63480.375, 0.0, 10.000612, 9.90211 
4.1450343e+3, 2.8412518e+2, -229554.1, -318062.22, -0.8355722, 0.00012828106, 0.00022868204, -229554.1, -73980.87, 0.0, 10.00061, 9.885154 
4.1450343e+3, 2.9401138e+2, -129854.18, -217751.72, -2.3694634, 0.00012626503, -0.00025689692, -129854.18, -71165.734, 0.0, 10.000608, 9.885932 
4.1450343e+3, 3.0392554e+2, -40122.063, -84747.914, 0.37869057, 0.00012500843, 0.00016755525, -40122.063, -40122.063, 0.0, 10.000607, 9.941882 
4.1450343e+3, 3.138693e+2, -39047.227, -82511.016, -0.70500404, 0.00012489215, -0.000061012015, -39047.227, -39047.227, 0.0, 10.000605, 9.943393 
4.155035e+3, 1.2499754e+2, -1719161.3, -1724181.0, -1.2190839, 0.00013356957, 0.000059074977, -1719161.3, -4136.967, 0.0, 10.000657, 9.994002 
4.155035e+3, 1.3499139e+2, -1621793.6, -1627401.1, -3.825107, 0.00013522283, -0.00012346273, -1621793.6, -4709.2017, 0.0, 10.000651, 9.993218 
4.155035e+3, 1.4497873e+2, -1533666.8, -1548055.0, -1.2886728, 0.00013459295, 0.00013809538, -1533666.8, -14458.185, 0.0, 10.000648, 9.981578 
4.155035e+3, 1.5496027e+2, -1435945.9, -1450735.9, -2.9353466, 0.0001316672, -0.00004195628, -1435945.9, -14556.567, 0.0, 10.000646, 9.981046 
4.1550347e+3, 1.6493523e+2, -1347899.1, -1371866.4, -2.5082996, 0.00013021172, 0.00004197584, -1347899.1, -24264.332, 0.0, 10.000643, 9.968965 
4.1550347e+3, 1.7490426e+2, -1249950.6, -1274230.9, -4.5113645, 0.00013025544, -0.000067210975, -1249950.6, -24012.21, 0.0, 10.000639, 9.968552 
4.1550347e+3, 1.8486662e+2, -1161882.1, -1195656.5, -2.0744772, 0.00013063087, 0.00007688653, -1161882.1, -33574.938, 0.0, 10.000636, 9.956106 
4.1550347e+3, 1.9482276e+2, -1063739.3, -1097774.6, -3.8048215, 0.00013135209, -0.000051034258, -1063739.3, -33002.246, 0.0, 10.000633, 9.955763 
4.1550347e+3, 2.0477223e+2, -975577.7, -1019373.75, -2.1735091, 0.00013111271, 0.00007478924, -975577.7, -42345.586, 0.0, 10.00063, 9.9430065 
4.1550347e+3, 2.1471529e+2, -877299.25, -921354.56, -3.7370818, 0.00012983325, -0.00011548878, -877299.25, -41508.977, 0.0, 10.0006275, 9.942665 
4.1550347e+3, 2.2465163e+2, -789017.56, -843090.25, -2.4784102, 0.00012949943, 0.00013016301, -789017.56, -50603.57, 0.0, 10.000625, 9.929626 
4.1550347e+3, 2.3458132e+2, -690591.06, -744916.94, -4.9358554, 0.00013023539, -0.00008916101, -690591.06, -49488.055, 0.0, 10.000622, 9.929296 
4.1550347e+3, 2.4450406e+2, -602282.44, -666993.3, -3.2818947, 0.00013051867, 0.000071624076, -602282.44, -58422.22, 0.0, 10.00062, 9.915843 
4.1550347e+3, 2.5442004e+2, -503536.72, -568323.6, -4.836954, 0.00013025988, -0.00010434416, -503536.72, -56852.95, 0.0, 10.000617, 9.915742 
4.1550347e+3, 2.6432893e+2, -415297.03, -490952.75, -2.554156, 0.00012982383, 0.00014483204, -415297.03, -65720.32, 0.0, 10.000615, 9.901684 
4.1550347e+3, 2.7423114e+2, -316018.44, -391343.6, -4.1296616, 0.00012916322, -0.00020201091, -316018.44, -63483.688, 0.0, 10.000612, 9.902105 
4.1550347e+3, 2.8412515e+2, -229557.69, -318069.7, -1.4544415, 0.00012865366, 0.00022811675, -229557.69, -73984.2, 0.0, 10.00061, 9.885149 
4.1550347e+3, 2.9401135e+2, -129857.75, -217759.17, -2.9531758, 0.00012835152, -0.00025600853, -129857.75, -71169.0, 0.0, 10.000608, 9.885926 
4.1550347e+3, 3.0392548e+2, -40125.06, -84754.21, -0.30695578, 0.0001277675, 0.00016943732, -40125.06, -40125.06, 0.0, 10.000607, 9.941877 
4.1550347e+3, 3.1386927e+2, -39050.168, -82517.19, -1.4010762, 0.00012676328, -0.000058832018, -39050.168, -39050.168, 0.0, 10.000605, 9.943389 
4.1650358e+3, 1.249976e+2, -1719130.8, -1724172.1, 2.7243235, 0.00013657694, 0.000059306727, -1719130.8, -4107.105, 0.0, 10.000679, 9.993996 
4.1650358e+3, 1.3499145e+2, -1621760.8, -1627391.0, 0.4463443, 0.0001369119, -0.00012348259, -1621760.8, -4676.8438, 0.0, 10.000675, 9.993212 
4.1650358e+3, 1.4497878e+2, -1533633.4, -1548043.4, 3.3635647, 0.00013604728, 0.00013849713, -1533633.4, -14425.231, 0.0, 10.000671, 9.981572 
4.1650358e+3, 1.5496033e+2, -1435916.0, -1450726.1, 1.0613457, 0.00013397529, -0.000041102547, -1435916.0, -14527.112, 0.0, 10.000667, 9.981041 
4.1650358e+3, 1.6493528e+2, -1347871.3, -1371859.3, 0.6659945, 0.00013273809, 0.000042706226, -1347871.3, -24236.85, 0.0, 10.000664, 9.968959 
4.1650358e+3, 1.7490429e+2, -1249921.3, -1274222.9, -2.243335, 0.00013235217, -0.00006718952, -1249921.3, -23983.13, 0.0, 10.000661, 9.968545 
4.1650358e+3, 1.8486664e+2, -1161851.5, -1195646.1, -0.12636338, 0.0001327676, 0.00007730058, -1161851.5, -33544.594, 0.0, 10.000658, 9.956101 
4.1650358e+3, 1.9482279e+2, -1063710.6, -1097765.4, -1.9757295, 0.00013401976, -0.000049075737, -1063710.6, -32973.83, 0.0, 10.000654, 9.955758 
4.1650358e+3, 2.0477226e+2, -975550.1, -1019365.44, -0.8955855, 0.00013376793, 0.00007655011, -975550.1, -42318.188, 0.0, 10.000651, 9.943001 
4.1650352e+3, 2.147153e+2, -877271.3, -921346.1, -3.1313574, 0.00013188785, -0.00011581086, -877271.3, -41481.19, 0.0, 10.000648, 9.94266 
4.1650352e+3, 2.2465163e+2, -788990.4, -843083.7, -1.8036934, 0.00013143962, 0.00012927335, -788990.4, -50576.445, 0.0, 10.000646, 9.929621 
4.1650352e+3, 2.3458132e+2, -690563.9, -744910.5, -4.025186, 0.00013261134, -0.00008890287, -690563.9, -49460.844, 0.0, 10.000643, 9.929289 
4.1650352e+3, 2.4450406e+2, -602253.9, -666983.8, -2.1267376, 0.0001329114, 0.000072670744, -602253.9, -58393.59, 0.0, 10.000641, 9.915838 
4.1650352e+3, 2.5442e+2, -503508.75, -568314.44, -3.4534907, 0.00013216844, -0.000102939695, -503508.75, -56824.89, 0.0, 10.000638, 9.915738 
4.1650352e+3, 2.643289e+2, -415269.78, -490944.94, -1.1692004, 0.00013139976, 0.00014589854, -415269.78, -65692.96, 0.0, 10.000635, 9.901679 
4.1650352e+3, 2.7423114e+2, -315990.78, -391335.72, -2.9800715, 0.00013060047, -0.00020216654, -315990.78, -63455.836, 0.0, 10.000633, 9.9021 
4.1650352e+3, 2.8412512e+2, -229529.97, -318061.44, -0.18282008, 0.00013010482, 0.00022754977, -229529.97, -73956.24, 0.0, 10.000631, 9.885144 
4.1650358e+3, 2.9401132e+2, -129831.27, -217751.58, -1.4894288, 0.00013002448, -0.00025587308, -129831.27, -71142.234, 0.0, 10.000628, 9.885922 
4.1650358e+3, 3.0392545e+2, -40099.33, -84745.89, 1.2907517, 0.00012946465, 0.00017017007, -40099.33, -40099.33, 0.0, 10.000627, 9.941874 
4.1650358e+3, 3.138692e+2, -39025.723, -82509.35, 0.64567745, 0.0001281892, -0.000057668363, -39025.723, -39025.723, 0.0, 10.000624, 9.943385 
4.1750365e+3, 1.24997675e+2, -1719136.0, -1724182.0, 1.2946566, 0.00013976985, 0.000056719513, -1719136.0, -4113.03, 0.0, 10.000679, 9.993989 
4.1750365e+3, 1.3499151e+2, -1621765.9, -1627400.8, -0.98212045, 0.00013783888, -0.0001228471, -1621765.9, -4682.6646, 0.0, 10.000675, 9.993206 
4.1750363e+3, 1.4497884e+2, -1533638.5, -1548053.1, 1.7699248, 0.00013690697, 0.00013922372, -1533638.5, -14430.994, 0.0, 10.000671, 9.981566 
4.1750363e+3, 1.5496038e+2, -1435921.1, -1450736.0, -0.53261244, 0.00013697533, -0.00004399421, -1435921.1, -14532.7295, 0.0, 10.000667, 9.981035 
4.1750363e+3, 1.6493532e+2, -1347877.6, -1371871.5, -0.38891798, 0.00013636952, 0.000038950013, -1347877.6, -24243.678, 0.0, 10.000664, 9.968951 
4.1750363e+3, 1.7490432e+2, -1249927.6, -1274235.1, -3.2915087, 0.00013507628, -0.00006900036, -1249927.6, -23989.824, 0.0, 10.000661, 9.968537 
4.1750363e+3, 1.8486667e+2, -1161855.6, -1195654.1, -1.3894274, 0.00013479879, 0.00007681177, -1161855.6, -33548.98, 0.0, 10.000658, 9.956096 
4.1750363e+3, 1.9482282e+2, -1063714.6, -1097773.3, -3.241153, 0.00013558203, -0.000048893915, -1063714.6, -32978.098, 0.0, 10.000654, 9.955753 
4.1750363e+3, 2.0477228e+2, -975554.94, -1019374.9, -2.0635283, 0.00013581695, 0.00007632458, -975554.94, -42323.184, 0.0, 10.000651, 9.942995 
4.1750363e+3, 2.1471532e+2, -877276.06, -921355.56, -4.296285, 0.00013545807, -0.00011761011, -877276.06, -41486.07, 0.0, 10.000648, 9.942655 
4.1750363e+3, 2.2465163e+2, -788995.2, -843093.2, -2.687266, 0.00013480103, 0.00012771749, -788995.2, -50581.29, 0.0, 10.000646, 9.929614 
4.1750363e+3, 2.3458134e+2, -690568.6, -744919.94, -4.89883, 0.00013380633, -0.000088158624, -690568.6, -49465.59, 0.0, 10.000643, 9.929283 
4.1750363e+3, 2.4450406e+2, -602256.94, -666990.06, -3.0728853, 0.00013336394, 0.00007486023, -602256.94, -58396.645, 0.0, 10.000641, 9.915834 
4.1750363e+3, 2.5442e+2, -503511.7, -568320.44, -4.4046893, 0.00013358092, -0.00010032769, -503511.7, -56827.79, 0.0, 10.000638, 9.915734 
4.1750363e+3, 2.643289e+2, -415273.75, -490953.06, -2.015758, 0.00013358952, 0.00014800503, -415273.75, -65696.83, 0.0, 10.000635, 9.901674 
4.1750363e+3, 2.742311e+2, -315994.75, -391343.94, -3.8192556, 0.00013333106, -0.00020174377, -315994.75, -63459.656, 0.0, 10.000633, 9.902095 
4.1750363e+3, 2.841251e+2, -229533.28, -318068.34, -1.0499918, 0.0001326199, 0.00022698118, -229533.28, -73959.35, 0.0, 10.000631, 9.885139 
4.1750363e+3, 2.940113e+2, -129834.5, -217758.33, -2.3600252, 0.00013128998, -0.0002564802, -129834.5, -71145.2, 0.0, 10.000628, 9.885918 
4.1750363e+3, 3.0392542e+2, -40101.504, -84750.484, 0.2530198, 0.00013011487, 0.00016976958, -40101.504, -40101.504, 0.0, 10.000627, 9.941871 
4.1750363e+3, 3.1386918e+2, -39027.78, -82513.7, -0.41508347, 0.00012917626, -0.000057506448, -39027.78, -39027.78, 0.0, 10.000624, 9.943382 
4.185037e+3, 1.2499774e+2, -1719105.8, -1724172.4, 0.11104099, 0.00014236748, 0.00005680642, -1719105.8, -4083.5159, 0.0, 10.0007, 9.993984 
4.185037e+3, 1.3499157e+2, -1621734.3, -1627390.4, -1.8470157, 0.00013939857, -0.00012239144, -1621734.3, -4651.6597, 0.0, 10.000698, 9.9932 
4.185037e+3, 1.449789e+2, -1533606.6, -1548043.5, 0.67523557, 0.00013838625, 0.00013969571, -1533606.6, -14399.705, 0.0, 10.000694, 9.98156 
4.185037e+3, 1.5496044e+2, -1435889.1, -1450726.4, -1.7538998, 0.00013933555, -0.000044353117, -1435889.1, -14501.323, 0.0, 10.00069, 9.981029 
4.185037e+3, 1.6493537e+2, -1347846.3, -1371862.3, -0.76253444, 0.00013907113, 0.000038746348, -1347846.3, -24212.768, 0.0, 10.000687, 9.968945 
4.1850367e+3, 1.7490436e+2, -1249897.5, -1274226.6, -2.5889423, 0.00013756927, -0.00006804191, -1249897.5, -23960.125, 0.0, 10.000683, 9.968531 
4.1850367e+3, 1.8486671e+2, -1161825.4, -1195644.1, -0.28204834, 0.00013715877, 0.00007818352, -1161825.4, -33519.15, 0.0, 10.000679, 9.956091 
4.1850367e+3, 1.9482285e+2, -1063685.3, -1097763.6, -2.116614, 0.00013788774, -0.00004789162, -1063685.3, -32948.992, 0.0, 10.000675, 9.955748 
4.1850367e+3, 2.0477231e+2, -975525.9, -1019366.44, -0.46259096, 0.00013810022, 0.00007694719, -975525.9, -42294.363, 0.0, 10.000672, 9.942989 
4.1850367e+3, 2.1471533e+2, -877245.8, -921346.56, -2.4303324, 0.00013775339, -0.00011737811, -877245.8, -41455.996, 0.0, 10.00067, 9.942649 
4.1850367e+3, 2.2465166e+2, -788965.4, -843084.7, -0.7112663, 0.00013694269, 0.00012781746, -788965.4, -50551.65, 0.0, 10.000668, 9.929608 
4.1850367e+3, 2.3458134e+2, -690541.06, -744912.6, -2.712613, 0.00013560665, -0.00008789735, -690541.06, -49438.137, 0.0, 10.000664, 9.929277 
4.1850367e+3, 2.4450406e+2, -602228.94, -666981.2, -0.59805554, 0.0001349944, 0.00007539341, -602228.94, -58368.688, 0.0, 10.000661, 9.91583 
4.1850367e+3, 2.5442e+2, -503482.25, -568310.8, -2.3631516, 0.00013524653, -0.0000993907, -503482.25, -56798.33, 0.0, 10.00066, 9.9157295 
4.1850367e+3, 2.643289e+2, -415244.13, -490944.3, -0.2754932, 0.00013524684, 0.00014892881, -415244.13, -65667.12, 0.0, 10.000658, 9.901669 
4.1850367e+3, 2.742311e+2, -315965.3, -391335.4, -2.026512, 0.00013492424, -0.00020136377, -315965.3, -63430.082, 0.0, 10.000655, 9.902089 
4.1850367e+3, 2.841251e+2, -229504.36, -318059.66, 0.43011186, 0.00013417256, 0.0002269748, -229504.36, -73930.24, 0.0, 10.000653, 9.885135 
4.1850367e+3, 2.9401127e+2, -129807.5, -217750.63, -1.1693003, 0.00013283473, -0.00025665518, -129807.5, -71117.98, 0.0, 10.000649, 9.885913 
4.1850367e+3, 3.039254e+2, -40075.414, -84742.74, 0.9235883, 0.00013179547, 0.00016968904, -40075.414, -40075.414, 0.0, 10.000647, 9.941867 
4.1850367e+3, 3.1386915e+2, -39001.445, -82505.77, -0.74379736, 0.00013120584, -0.000057103593, -39001.445, -39001.445, 0.0, 10.000644, 9.9433775 
4.195038e+3, 1.2499782e+2, -1719110.3, -1724180.8, -0.92855424, 0.00014437766, 0.000059481714, -1719110.3, -4088.7092, 0.0, 10.000701, 9.9939785 
4.1950375e+3, 1.3499163e+2, -1621738.8, -1627398.9, -2.8892825, 0.00014158155, -0.00012211321, -1621738.8, -4656.734, 0.0, 10.000698, 9.993195 
4.1950375e+3, 1.4497896e+2, -1533612.1, -1548053.9, -0.8551372, 0.00014047584, 0.00013991608, -1533612.1, -14405.744, 0.0, 10.000694, 9.981554 
4.1950375e+3, 1.5496048e+2, -1435894.6, -1450736.6, -3.2823539, 0.00014106467, -0.000042216787, -1435894.6, -14507.253, 0.0, 10.00069, 9.981022 
4.1950375e+3, 1.6493541e+2, -1347850.4, -1371870.0, -2.0687537, 0.00014085573, 0.000042043346, -1347850.4, -24217.281, 0.0, 10.000687, 9.96894 
4.1950375e+3, 1.749044e+2, -1249901.5, -1274234.4, -3.897058, 0.00013983417, -0.00006435414, -1249901.5, -23964.533, 0.0, 10.000683, 9.968526 
4.1950375e+3, 1.8486674e+2, -1161829.5, -1195651.9, -1.695336, 0.00013984248, 0.000081389204, -1161829.5, -33523.547, 0.0, 10.000679, 9.956086 
4.1950375e+3, 1.9482288e+2, -1063689.1, -1097771.5, -3.5315058, 0.00014092599, -0.00004608054, -1063689.1, -32953.28, 0.0, 10.000675, 9.955743 
4.1950375e+3, 2.0477234e+2, -975530.1, -1019374.8, -1.3058511, 0.00014061421, 0.00007840584, -975530.1, -42298.89, 0.0, 10.000672, 9.942985 
4.1950375e+3, 2.1471535e+2, -877250.0, -921354.94, -3.2623296, 0.00013879244, -0.00011514387, -877250.0, -41460.445, 0.0, 10.00067, 9.942643 
4.1950375e+3, 2.246517e+2, -788969.75, -843093.3, -2.089821, 0.00013788244, 0.00012954981, -788969.75, -50556.152, 0.0, 10.000668, 9.929603 
4.1950372e+3, 2.3458135e+2, -690545.4, -744921.25, -4.1105466, 0.00013800361, -0.000088111665, -690545.4, -49442.508, 0.0, 10.000664, 9.929272 
4.1950372e+3, 2.4450406e+2, -602232.9, -666989.06, -1.1936209, 0.00013778589, 0.00007429446, -602232.9, -58372.637, 0.0, 10.000661, 9.915825 
4.1950372e+3, 2.5442e+2, -503486.1, -568318.7, -2.917726, 0.00013716196, -0.00010010454, -503486.1, -56802.18, 0.0, 10.00066, 9.915725 
4.1950372e+3, 2.643289e+2, -415248.03, -490952.34, -1.0942702, 0.00013637975, 0.00014868689, -415248.03, -65670.99, 0.0, 10.000658, 9.901663 
4.1950372e+3, 2.7423108e+2, -315969.2, -391343.4, -2.8640676, 0.00013539671, -0.00020102586, -315969.2, -63433.867, 0.0, 10.000655, 9.902084 
4.1950372e+3, 2.8412506e+2, -229508.16, -318067.5, -0.86401117, 0.00013477691, 0.00022752272, -229508.16, -73933.89, 0.0, 10.000653, 9.88513 
4.1950372e+3, 2.9401127e+2, -129811.23, -217758.42, -2.505296, 0.00013465487, -0.00025640393, -129811.23, -71121.51, 0.0, 10.000649, 9.885907 
4.1950372e+3, 3.039254e+2, -40079.324, -84750.96, -0.110753916, 0.0001344918, 0.00016992402, -40079.324, -40079.324, 0.0, 10.000647, 9.941861 
4.1950375e+3, 3.1386912e+2, -39005.387, -82514.055, -1.7393764, 0.00013426327, -0.00005646368, -39005.387, -39005.387, 0.0, 10.000644, 9.943372 
4.2050385e+3, 1.2499789e+2, -1719077.3, -1724170.4, 2.7363834, 0.00014613468, 0.000061512845, -1719077.3, -4056.445, 0.0, 10.000724, 9.993972 
4.2050385e+3, 1.3499172e+2, -1621705.9, -1627388.6, -0.044932067, 0.0001438798, -0.000121111, -1621705.9, -4624.566, 0.0, 10.000721, 9.993189 
4.2050385e+3, 1.4497901e+2, -1533579.4, -1548043.0, 1.2521722, 0.0001428269, 0.00014077255, -1533579.4, -14373.702, 0.0, 10.000717, 9.981548 
4.2050385e+3, 1.5496054e+2, -1435863.4, -1450726.6, -0.5537491, 0.00014297702, -0.000040936422, -1435863.4, -14476.644, 0.0, 10.000712, 9.981016 
4.205038e+3, 1.6493547e+2, -1347819.9, -1371860.9, 1.0355273, 0.00014282149, 0.000043443782, -1347819.9, -24187.32, 0.0, 10.000709, 9.968934 
4.205038e+3, 1.7490445e+2, -1249870.4, -1274225.0, -1.6461645, 0.00014235555, -0.00006314246, -1249870.4, -23933.877, 0.0, 10.000706, 9.96852 
4.205038e+3, 1.8486679e+2, -1161797.0, -1195641.0, -0.051395945, 0.00014239836, 0.0000825463, -1161797.0, -33491.453, 0.0, 10.000703, 9.95608 
4.205038e+3, 1.948229e+2, -1063656.0, -1097760.3, -2.0559711, 0.00014297136, -0.000044838107, -1063656.0, -32920.457, 0.0, 10.000699, 9.955738 
4.205038e+3, 2.0477237e+2, -975498.2, -1019364.7, 0.17132965, 0.00014236751, 0.000079240584, -975498.2, -42267.293, 0.0, 10.000696, 9.942979 
4.205038e+3, 2.1471538e+2, -877221.0, -921346.4, -1.9059328, 0.00014049013, -0.000115249764, -877221.0, -41431.68, 0.0, 10.000692, 9.942637 
4.205038e+3, 2.2465171e+2, -788941.06, -843085.75, -0.7921408, 0.0001397301, 0.00012925846, -788941.06, -50527.656, 0.0, 10.0006895, 9.929597 
4.205038e+3, 2.3458137e+2, -690513.2, -744912.0, -3.2762756, 0.00014023375, -0.00008773313, -690513.2, -49410.48, 0.0, 10.000688, 9.929266 
4.205038e+3, 2.4450408e+2, -602199.06, -666977.0, -0.38546497, 0.00013996674, 0.000075033146, -602199.06, -58338.94, 0.0, 10.000686, 9.91582 
4.205038e+3, 2.5442e+2, -503456.03, -568308.44, -1.4717892, 0.00013877769, -0.00009937611, -503456.03, -56772.152, 0.0, 10.000682, 9.91572 
4.205038e+3, 2.643289e+2, -415221.22, -490945.28, 0.7086392, 0.0001376282, 0.00014914779, -415221.22, -65644.17, 0.0, 10.000678, 9.901658 
4.205038e+3, 2.7423108e+2, -315942.97, -391336.84, -1.3350245, 0.00013653077, -0.00020115849, -315942.97, -63407.59, 0.0, 10.000676, 9.902079 
4.205038e+3, 2.8412506e+2, -229481.31, -318060.56, 0.23723446, 0.00013613532, 0.0002271707, -229481.31, -73906.94, 0.0, 10.000673, 9.885124 
4.205038e+3, 2.9401124e+2, -129782.555, -217750.64, -1.6558955, 0.00013670005, -0.00025646185, -129782.555, -71092.664, 0.0, 10.000671, 9.885902 
4.205038e+3, 3.0392537e+2, -40049.383, -84741.586, 0.9125572, 0.0001369454, 0.00017051681, -40049.383, -40049.383, 0.0, 10.000669, 9.941856 
4.205038e+3, 3.1386912e+2, -38976.08, -82504.87, 0.15009272, 0.00013670712, -0.00005469545, -38976.08, -38976.08, 0.0, 10.000666, 9.943368 
4.215039e+3, 1.2499798e+2, -1719083.6, -1724182.4, 1.6839222, 0.00014764059, 0.00006292056, -1719083.6, -4063.6597, 0.0, 10.000724, 9.993965 
4.215039e+3, 1.349918e+2, -1621712.3, -1627400.5, -1.0949581, 0.0001462912, -0.00011939613, -1621712.3, -4631.6455, 0.0, 10.000721, 9.993181 
4.215039e+3, 1.4497909e+2, -1533583.5, -1548050.8, -0.59717906, 0.00014543542, 0.00014225504, -1533583.5, -14378.45, 0.0, 10.000717, 9.981544 
4.215039e+3, 1.5496062e+2, -1435867.4, -1450734.3, -2.406279, 0.00014506896, -0.000040498548, -1435867.4, -14481.279, 0.0, 10.000712, 9.981011 
4.215039e+3, 1.6493553e+2, -1347825.8, -1371872.3, -0.09540149, 0.00014496486, 0.000042976753, -1347825.8, -24193.8, 0.0, 10.000709, 9.968926 
4.215039e+3, 1.749045e+2, -1249876.3, -1274236.3, -2.7701998, 0.00014512955, -0.00006436946, -1249876.3, -23940.219, 0.0, 10.000706, 9.968513 
4.215039e+3, 1.8486683e+2, -1161801.4, -1195649.5, -1.2603116, 0.0001448285, 0.000081685495, -1161801.4, -33496.277, 0.0, 10.000703, 9.956076 
4.215039e+3, 1.9482295e+2, -1063660.4, -1097768.6, -3.2648032, 0.00014403909, -0.000044155706, -1063660.4, -32925.18, 0.0, 10.000699, 9.955732 
4.2150387e+3, 2.047724e+2, -975502.7, -1019373.56, -1.3213817, 0.00014337176, 0.00007946081, -975502.7, -42272.15, 0.0, 10.000696, 9.942973 
4.2150387e+3, 2.147154e+2, -877225.44, -921355.2, -3.4062061, 0.00014283649, -0.00011766072, -877225.44, -41436.395, 0.0, 10.000692, 9.942632 
4.2150387e+3, 2.2465172e+2, -788946.3, -843096.25, -1.3143506, 0.00014247207, 0.0001269737, -788946.3, -50533.125, 0.0, 10.0006895, 9.92959 
4.2150387e+3, 2.3458138e+2, -690518.44, -744922.5, -3.7623196, 0.00014230011, -0.00008677082, -690518.44, -49415.875, 0.0, 10.000688, 9.929259 
4.2150387e+3, 2.4450408e+2, -602201.8, -666982.56, -1.7921828, 0.00014154673, 0.000077581855, -602201.8, -58341.78, 0.0, 10.000686, 9.915817 
4.2150387e+3, 2.5442004e+2, -503458.6, -568313.7, -2.926363, 0.00014009845, -0.000097226766, -503458.6, -56774.8, 0.0, 10.000682, 9.915717 
4.2150387e+3, 2.643289e+2, -415225.56, -490954.22, -0.2624388, 0.00013899048, 0.00015030135, -415225.56, -65648.555, 0.0, 10.000678, 9.901652 
4.2150387e+3, 2.7423108e+2, -315947.38, -391345.94, -2.274393, 0.0001383167, -0.00020175442, -315947.38, -63411.97, 0.0, 10.000676, 9.902072 
4.2150387e+3, 2.8412506e+2, -229485.56, -318069.38, -0.5951713, 0.00013823678, 0.00022593224, -229485.56, -73911.08, 0.0, 10.000673, 9.8851185 
4.2150387e+3, 2.940112e+2, -129786.734, -217759.36, -2.4767342, 0.0001389674, -0.00025682448, -129786.734, -71096.69, 0.0, 10.000671, 9.885897 
4.2150387e+3, 3.0392534e+2, -40051.887, -84746.86, -0.23408951, 0.00013916034, 0.00017146204, -40051.887, -40051.887, 0.0, 10.000669, 9.941853 
4.2150387e+3, 3.138691e+2, -38978.383, -82509.74, -1.0377291, 0.00013854679, -0.000051815157, -38978.383, -38978.383, 0.0, 10.000666, 9.943364 
4.22504e+3, 1.2499806e+2, -1719047.8, -1724170.6, 1.4781746, 0.000149301, 0.00006321762, -1719047.8, -4028.6638, 0.0, 10.00075, 9.993958 
4.22504e+3, 1.3499187e+2, -1621680.3, -1627390.9, -0.606905, 0.00014843745, -0.00011853503, -1621680.3, -4600.4805, 0.0, 10.000745, 9.993175 
4.22504e+3, 1.4497915e+2, -1533551.5, -1548040.4, -0.13407153, 0.00014775338, 0.00014318503, -1533551.5, -14347.141, 0.0, 10.00074, 9.981538 
4.22504e+3, 1.5496068e+2, -1435832.6, -1450722.5, -2.6713681, 0.00014724313, -0.000040413768, -1435832.6, -14447.167, 0.0, 10.000737, 9.981006 
4.2250395e+3, 1.6493559e+2, -1347790.8, -1371860.8, -0.15017436, 0.00014712274, 0.000043108645, -1347790.8, -24159.34, 0.0, 10.000734, 9.968921 
4.2250395e+3, 1.7490456e+2, -1249842.9, -1274225.9, -2.0427594, 0.00014739989, -0.00006327777, -1249842.9, -23907.443, 0.0, 10.00073, 9.968507 
4.2250395e+3, 1.8486688e+2, -1161768.5, -1195638.3, 0.002422452, 0.00014682637, 0.00008282588, -1161768.5, -33463.906, 0.0, 10.000726, 9.95607 
4.2250395e+3, 1.94823e+2, -1063628.4, -1097757.9, -1.7471582, 0.000145362, -0.000043918822, -1063628.4, -32893.7, 0.0, 10.000723, 9.955728 
4.2250395e+3, 2.0477243e+2, -975471.1, -1019364.5, 0.21550547, 0.0001447578, 0.00007923742, -975471.1, -42240.918, 0.0, 10.000719, 9.942966 
4.2250395e+3, 2.1471544e+2, -877191.5, -921345.06, -2.358747, 0.00014508405, -0.00011786317, -877191.5, -41402.76, 0.0, 10.000717, 9.942626 
4.2250395e+3, 2.2465175e+2, -788912.3, -843085.06, 0.1648305, 0.00014470457, 0.00012724451, -788912.3, -50499.406, 0.0, 10.000714, 9.9295845 
4.2250395e+3, 2.345814e+2, -690488.7, -744913.56, -1.1889472, 0.00014352567, -0.000085514686, -690488.7, -49386.367, 0.0, 10.00071, 9.929254 
4.2250395e+3, 2.4450411e+2, -602172.9, -666973.4, 0.80095166, 0.00014268479, 0.000078820914, -602172.9, -58313.008, 0.0, 10.000707, 9.9158125 
4.2250395e+3, 2.5442004e+2, -503427.44, -568303.44, -1.2987283, 0.00014224791, -0.00009720183, -503427.44, -56743.77, 0.0, 10.000705, 9.915712 
4.2250395e+3, 2.643289e+2, -415194.75, -490945.97, 0.82396424, 0.00014164664, 0.00014983561, -415194.75, -65617.805, 0.0, 10.000702, 9.901646 
4.2250395e+3, 2.7423108e+2, -315917.63, -391338.44, -1.4471214, 0.00014083473, -0.00020178682, -315917.63, -63382.22, 0.0, 10.000699, 9.902066 
4.2250395e+3, 2.8412503e+2, -229456.25, -318060.94, 0.30558816, 0.00014049608, 0.0002264476, -229456.25, -73881.7, 0.0, 10.000696, 9.885114 
4.2250395e+3, 2.940112e+2, -129759.06, -217751.7, -1.1008832, 0.0001408059, -0.00025560905, -129759.06, -71068.9, 0.0, 10.000692, 9.885891 
4.2250395e+3, 3.0392534e+2, -40024.406, -84738.516, 1.0769877, 0.00014089402, 0.00017274464, -40024.406, -40024.406, 0.0, 10.0006895, 9.941849 
4.2250395e+3, 3.1386906e+2, -38949.727, -82500.72, -0.48541817, 0.00014064663, -0.000051406885, -38949.727, -38949.727, 0.0, 10.000688, 9.94336 
4.235041e+3, 1.2499815e+2, -1719052.6, -1724179.6, -0.42806226, 0.00015111249, 0.00006217917, -1719052.6, -4034.2825, 0.0, 10.00075, 9.993953 
4.2350405e+3, 1.3499196e+2, -1621685.0, -1627399.9, -2.515954, 0.00015032245, -0.00011851447, -1621685.0, -4605.9956, 0.0, 10.000745, 9.99317 
4.2350405e+3, 1.4497924e+2, -1533557.1, -1548051.1, -1.2874671, 0.00014978541, 0.00014357052, -1533557.1, -14353.565, 0.0, 10.00074, 9.981531 
4.2350405e+3, 1.5496075e+2, -1435838.3, -1450733.3, -3.8218207, 0.00014949827, -0.00004067667, -1435838.3, -14453.456, 0.0, 10.000737, 9.980999 
4.2350405e+3, 1.6493565e+2, -1347794.9, -1371868.9, -1.6355023, 0.00014929425, 0.00004382994, -1347794.9, -24164.133, 0.0, 10.000734, 9.968916 
4.2350405e+3, 1.7490461e+2, -1249847.0, -1274233.9, -3.5315614, 0.00014917413, -0.000059903254, -1249847.0, -23912.152, 0.0, 10.00073, 9.968502 
4.2350405e+3, 1.8486695e+2, -1161772.3, -1195645.6, -1.3928039, 0.00014839844, 0.00008593674, -1161772.3, -33468.254, 0.0, 10.000726, 9.956066 
4.23504e+3, 1.9482304e+2, -1063632.1, -1097765.4, -3.1446648, 0.00014693604, -0.000044120115, -1063632.1, -32897.926, 0.0, 10.000723, 9.955723 
4.23504e+3, 2.0477247e+2, -975476.6, -1019375.4, -0.6735427, 0.00014651974, 0.000078577614, -975476.6, -42246.836, 0.0, 10.000719, 9.94296 
4.23504e+3, 2.1471547e+2, -877197.0, -921355.94, -3.2333548, 0.00014723491, -0.0001158914, -877197.0, -41408.605, 0.0, 10.000717, 9.942618 
4.23504e+3, 2.2465178e+2, -788915.44, -843091.3, -1.3204451, 0.00014643604, 0.0001300313, -788915.44, -50502.832, 0.0, 10.000714, 9.929581 
4.23504e+3, 2.3458143e+2, -690491.7, -744919.56, -2.6993454, 0.00014392342, -0.000083968676, -690491.7, -49389.625, 0.0, 10.0007105, 9.92925 
4.23504e+3, 2.4450412e+2, -602177.3, -666982.4, -0.09703706, 0.0001433876, 0.00007877124, -602177.3, -58317.668, 0.0, 10.000707, 9.915806 
4.23504e+3, 2.5442004e+2, -503431.94, -568312.56, -2.1656532, 0.00014521365, -0.00009926835, -503431.94, -56748.38, 0.0, 10.000705, 9.915707 
4.23504e+3, 2.643289e+2, -415199.72, -490956.13, -0.3063134, 0.00014557729, 0.00014777544, -415199.72, -65622.836, 0.0, 10.000702, 9.901639 
4.23504e+3, 2.7423108e+2, -315922.56, -391348.6, -2.5926006, 0.00014407409, -0.00020126453, -315922.56, -63387.168, 0.0, 10.000699, 9.90206 
4.23504e+3, 2.8412503e+2, -229459.7, -318068.1, -0.9035113, 0.00014291113, 0.00022868977, -229459.7, -73885.12, 0.0, 10.000696, 9.885109 
4.23504e+3, 2.940112e+2, -129762.33, -217758.56, -2.31815, 0.00014222231, -0.00025283956, -129762.33, -71072.09, 0.0, 10.000692, 9.885886 
4.23504e+3, 3.039253e+2, -40028.082, -84746.24, 0.14900802, 0.00014215398, 0.00017435965, -40028.082, -40028.082, 0.0, 10.0006895, 9.941843 
4.23504e+3, 3.1386906e+2, -38953.457, -82508.56, -1.3799064, 0.00014300302, -0.000053432716, -38953.457, -38953.457, 0.0, 10.000688, 9.943355 
4.2450416e+3, 1.2499824e+2, -1719017.4, -1724168.3, 2.4965487, 0.00015277024, 0.00006270011, -1719017.4, -4000.022, 0.0, 10.000774, 9.993946 
4.2450416e+3, 1.3499203e+2, -1621649.8, -1627388.6, -0.32882643, 0.00015253901, -0.0001186166, -1621649.8, -4571.617, 0.0, 10.00077, 9.993163 
4.2450416e+3, 1.4497933e+2, -1533522.0, -1548039.4, 1.4210292, 0.00015211693, 0.00014374283, -1533522.0, -14319.165, 0.0, 10.000766, 9.981524 
4.2450416e+3, 1.5496081e+2, -1435804.1, -1450722.3, -0.5877913, 0.00015149829, -0.00003963203, -1435804.1, -14420.103, 0.0, 10.000762, 9.980993 
4.245041e+3, 1.6493571e+2, -1347761.1, -1371857.6, 1.4222026, 0.00015106644, 0.000045151348, -1347761.1, -24131.014, 0.0, 10.000758, 9.96891 
4.245041e+3, 1.7490467e+2, -1249813.4, -1274222.8, -0.93605745, 0.00015082325, -0.00005890667, -1249813.4, -23879.143, 0.0, 10.000754, 9.968496 
4.245041e+3, 1.8486701e+2, -1161738.3, -1195634.8, 0.81821036, 0.00015019687, 0.000086435335, -1161738.3, -33434.758, 0.0, 10.000751, 9.956059 
4.245041e+3, 1.9482309e+2, -1063596.8, -1097753.8, -1.8189573, 0.00014916854, -0.00004429985, -1063596.8, -32863.05, 0.0, 10.000748, 9.955717 
4.245041e+3, 2.0477252e+2, -975442.0, -1019364.06, 0.5976308, 0.000148593, 0.00007850966, -975442.0, -42212.64, 0.0, 10.000745, 9.942954 
4.245041e+3, 2.1471551e+2, -877165.75, -921346.44, -1.0122068, 0.00014850692, -0.00011499064, -877165.75, -41377.707, 0.0, 10.00074, 9.942613 
4.245041e+3, 2.2465181e+2, -788884.94, -843082.3, 0.8096121, 0.00014772365, 0.0001311146, -788884.94, -50472.68, 0.0, 10.000736, 9.929575 
4.245041e+3, 2.3458146e+2, -690459.3, -744909.7, -1.9039428, 0.00014615088, -0.0000835923, -690459.3, -49357.504, 0.0, 10.000734, 9.929244 
4.245041e+3, 2.4450414e+2, -602144.44, -666972.06, 0.32750294, 0.00014592064, 0.00007883182, -602144.44, -58284.98, 0.0, 10.000731, 9.915801 
4.245041e+3, 2.5442007e+2, -503400.56, -568303.1, -1.396206, 0.00014729395, -0.000099054945, -503400.56, -56717.19, 0.0, 10.000728, 9.915701 
4.2450404e+3, 2.6432893e+2, -415169.6, -490947.78, 0.8011908, 0.00014758375, 0.00014822495, -415169.6, -65592.836, 0.0, 10.000725, 9.901633 
4.2450404e+3, 2.7423108e+2, -315892.84, -391340.56, -0.88081056, 0.00014649062, -0.00020047331, -315892.84, -63357.5, 0.0, 10.000722, 9.902054 
4.2450404e+3, 2.8412503e+2, -229429.69, -318059.5, 0.9197134, 0.00014556939, 0.00022951231, -229429.69, -73855.1, 0.0, 10.000718, 9.885103 
4.2450404e+3, 2.940112e+2, -129732.055, -217749.86, -1.1147219, 0.00014488958, -0.0002524111, -129732.055, -71041.77, 0.0, 10.000715, 9.885881 
4.2450404e+3, 3.039253e+2, -39998.25, -84738.11, 1.0444485, 0.00014457483, 0.00017459973, -39998.25, -39998.25, 0.0, 10.000712, 9.941837 
4.2450404e+3, 3.1386903e+2, -38924.152, -82500.71, -0.70482826, 0.0001448004, -0.00005307129, -38924.152, -38924.152, 0.0, 10.0007105, 9.943349 
4.2550424e+3, 1.24998346e+2, -1719023.9, -1724180.5, 0.63332814, 0.0001542759, 0.000064825974, -1719023.9, -4007.5112, 0.0, 10.000774, 9.993938 
4.255042e+3, 1.3499212e+2, -1621656.1, -1627400.8, -2.1893866, 0.00015508203, -0.0001188397, -1621656.1, -4578.9263, 0.0, 10.00077, 9.9931555 
4.255042e+3, 1.449794e+2, -1533526.5, -1548048.0, 0.04677284, 0.00015474255, 0.00014370581, -1533526.5, -14324.495, 0.0, 10.000766, 9.98152 
4.255042e+3, 1.549609e+2, -1435808.6, -1450730.8, -1.9634383, 0.00015324657, -0.000037300244, -1435808.6, -14425.348, 0.0, 10.000762, 9.980988 
4.255042e+3, 1.649358e+2, -1347766.3, -1371867.6, -0.0713098, 0.0001524452, 0.00004706398, -1347766.3, -24136.95, 0.0, 10.000758, 9.968904 
4.255042e+3, 1.7490473e+2, -1249818.5, -1274232.6, -2.4307039, 0.0001523492, -0.000060249306, -1249818.5, -23884.932, 0.0, 10.000754, 9.96849 
4.255042e+3, 1.8486707e+2, -1161744.0, -1195645.9, -0.22137952, 0.00015221824, 0.00008436386, -1161744.0, -33441.074, 0.0, 10.000751, 9.956053 
4.255042e+3, 1.9482315e+2, -1063602.5, -1097764.9, -2.849474, 0.00015204947, -0.000044458702, -1063602.5, -32869.258, 0.0, 10.000748, 9.955709 
4.2550415e+3, 2.0477256e+2, -975445.56, -1019371.1, -1.0418891, 0.00015097305, 0.00007902387, -975445.56, -42216.7, 0.0, 10.000745, 9.942949 
4.2550415e+3, 2.1471556e+2, -877169.2, -921353.4, -2.6687841, 0.00014891416, -0.000115143084, -877169.2, -41381.625, 0.0, 10.00074, 9.942609 
4.2550415e+3, 2.2465186e+2, -788890.7, -843093.7, -0.2071537, 0.00014857447, 0.00013052234, -788890.7, -50478.777, 0.0, 10.000736, 9.929567 
4.2550415e+3, 2.3458149e+2, -690465.06, -744921.2, -2.8957446, 0.00015017932, -0.00008436708, -690465.06, -49363.527, 0.0, 10.000734, 9.929236 
4.2550415e+3, 2.4450417e+2, -602148.4, -666980.06, -0.8694097, 0.00015025525, 0.000079000405, -602148.4, -58289.152, 0.0, 10.000731, 9.915795 
4.2550415e+3, 2.544201e+2, -503404.38, -568310.9, -2.6027372, 0.00014850331, -0.00009659818, -503404.38, -56721.203, 0.0, 10.000728, 9.915695 
4.2550415e+3, 2.6432893e+2, -415173.4, -490955.56, -0.39611447, 0.00014769695, 0.00015114424, -415173.4, -65596.78, 0.0, 10.000725, 9.9016285 
4.2550415e+3, 2.742311e+2, -315896.6, -391348.28, -2.0816057, 0.00014809771, -0.00019941709, -315896.6, -63361.33, 0.0, 10.000722, 9.902048 
4.2550415e+3, 2.8412503e+2, -229434.13, -318068.72, -0.20489198, 0.00014846721, 0.00022893827, -229434.13, -73859.58, 0.0, 10.000719, 9.885097 
4.2550415e+3, 2.940112e+2, -129736.5, -217759.16, -2.2313735, 0.0001487881, -0.00025428616, -129736.5, -71046.18, 0.0, 10.000715, 9.885875 
4.2550415e+3, 3.039253e+2, -40002.45, -84746.92, 0.010336006, 0.00014813851, 0.00017348675, -40002.45, -40002.45, 0.0, 10.000712, 9.941832 
4.2550415e+3, 3.1386903e+2, -38928.332, -82509.484, -1.7257495, 0.0001460481, -0.000050360697, -38928.33, -38928.33, 0.0, 10.0007105, 9.943343 
4.2650428e+3, 1.2499845e+2, -1718988.8, -1724169.5, 1.6359379, 0.00015660805, 0.000064459666, -1718988.8, -3973.3098, 0.0, 10.0008, 9.993932 
4.2650428e+3, 1.3499223e+2, -1621620.1, -1627389.5, -0.70878804, 0.00015708938, -0.00011830221, -1621620.1, -4543.816, 0.0, 10.000795, 9.993149 
4.2650428e+3, 1.4497949e+2, -1533489.6, -1548035.3, 1.8271858, 0.00015665889, 0.0001445927, -1533489.6, -14288.54, 0.0, 10.000792, 9.981514 
4.2650428e+3, 1.5496099e+2, -1435772.8, -1450718.6, -0.6152014, 0.00015530743, -0.00003694127, -1435772.8, -14390.341, 0.0, 10.000788, 9.980982 
4.2650428e+3, 1.6493587e+2, -1347731.1, -1371856.6, 1.0320631, 0.00015458287, 0.000047156907, -1347731.1, -24102.555, 0.0, 10.000784, 9.968897 
4.2650425e+3, 1.7490481e+2, -1249782.6, -1274221.5, -1.5651515, 0.00015449445, -0.00006015006, -1249782.6, -23849.78, 0.0, 10.00078, 9.968483 
4.2650425e+3, 1.8486713e+2, -1161708.4, -1195634.1, 1.0281882, 0.00015424659, 0.00008458508, -1161708.4, -33406.113, 0.0, 10.000776, 9.956047 
4.2650425e+3, 1.948232e+2, -1063569.4, -1097754.5, -0.7137576, 0.00015383073, -0.00004399376, -1063569.4, -32836.75, 0.0, 10.000772, 9.955704 
4.2650425e+3, 2.0477262e+2, -975413.0, -1019361.25, 0.90538645, 0.00015279265, 0.00007936881, -975413.0, -42184.645, 0.0, 10.000769, 9.942944 
4.2650425e+3, 2.147156e+2, -877134.94, -921342.7, -1.8858546, 0.00015108085, -0.000115310046, -877134.94, -41347.79, 0.0, 10.000766, 9.942602 
4.2650425e+3, 2.2465189e+2, -788856.2, -843083.25, 0.6720707, 0.00015095943, 0.00013047505, -788856.2, -50444.69, 0.0, 10.000762, 9.929562 
4.2650425e+3, 2.3458152e+2, -690431.9, -744911.5, -1.0889072, 0.00015263673, -0.00008357997, -690431.9, -49330.68, 0.0, 10.000759, 9.929231 
4.2650425e+3, 2.445042e+2, -602115.7, -666969.4, 1.2137673, 0.00015265678, 0.00008014671, -602115.7, -58256.766, 0.0, 10.000755, 9.915791 
4.2650425e+3, 2.544201e+2, -503373.34, -568301.0, -0.4873926, 0.00015069579, -0.0000956601, -503373.34, -56690.387, 0.0, 10.000751, 9.91569 
4.265042e+3, 2.6432896e+2, -415143.75, -490948.06, 1.6324984, 0.00014980091, 0.00015181744, -415143.75, -65567.31, 0.0, 10.000748, 9.901622 
4.265042e+3, 2.742311e+2, -315865.84, -391340.44, -1.0874692, 0.00015026686, -0.00019907898, -315865.84, -63330.72, 0.0, 10.000746, 9.902042 
4.265042e+3, 2.8412506e+2, -229402.39, -318059.9, 0.17842647, 0.00015072363, 0.00022900153, -229402.39, -73827.89, 0.0, 10.000743, 9.885091 
4.265042e+3, 2.940112e+2, -129704.89, -217750.45, -1.6888595, 0.00015116125, -0.00025441512, -129704.89, -71014.555, 0.0, 10.00074, 9.885869 
4.265042e+3, 3.039253e+2, -39970.848, -84737.17, 0.92614055, 0.00015058772, 0.00017357596, -39970.848, -39970.848, 0.0, 10.000737, 9.941827 
4.265042e+3, 3.13869e+2, -38897.734, -82500.086, 0.03054928, 0.00014851255, -0.000049444436, -38897.734, -38897.734, 0.0, 10.000733, 9.943338 
4.275044e+3, 1.2499855e+2, -1718994.1, -1724179.6, 0.012351888, 0.00015975212, 0.000061603314, -1718994.1, -3979.7136, 0.0, 10.0008, 9.993926 
4.275044e+3, 1.3499233e+2, -1621625.5, -1627399.5, -2.332925, 0.00015857, -0.0001170177, -1621625.5, -4550.122, 0.0, 10.000796, 9.993142 
4.275044e+3, 1.4497958e+2, -1533495.1, -1548045.6, 0.25688457, 0.00015787859, 0.00014638815, -1533495.1, -14294.949, 0.0, 10.000792, 9.981507 
4.2750433e+3, 1.5496108e+2, -1435778.3, -1450729.0, -2.1841187, 0.00015767575, -0.00003852209, -1435778.3, -14396.598, 0.0, 10.000788, 9.980975 
4.2750433e+3, 1.6493595e+2, -1347736.9, -1371867.6, -0.2502272, 0.00015746664, 0.000045460278, -1347736.9, -24109.053, 0.0, 10.000784, 9.96889 
4.2750433e+3, 1.749049e+2, -1249788.4, -1274232.5, -2.843091, 0.00015724916, -0.000058633115, -1249788.4, -23856.17, 0.0, 10.00078, 9.968476 
4.2750433e+3, 1.848672e+2, -1161712.3, -1195641.6, -0.56221724, 0.00015628217, 0.00008706098, -1161712.3, -33410.633, 0.0, 10.000776, 9.956042 
4.2750433e+3, 1.9482328e+2, -1063573.1, -1097761.9, -2.3118594, 0.00015453064, -0.00004291466, -1063573.1, -32841.15, 0.0, 10.000772, 9.955699 
4.2750433e+3, 2.047727e+2, -975418.94, -1019373.0, -0.29361644, 0.00015406114, 0.000079547935, -975418.94, -42191.164, 0.0, 10.000769, 9.942936 
4.275043e+3, 2.1471566e+2, -877140.8, -921354.44, -3.0731313, 0.00015497826, -0.00011549161, -877140.8, -41354.195, 0.0, 10.000766, 9.9425955 
4.275043e+3, 2.2465193e+2, -788860.2, -843091.2, -0.5914914, 0.00015485361, 0.00013096322, -788860.2, -50449.074, 0.0, 10.000762, 9.929556 
4.275043e+3, 2.3458156e+2, -690435.75, -744919.25, -2.3569052, 0.00015354954, -0.00008125658, -690435.75, -49334.926, 0.0, 10.000759, 9.929225 
4.275043e+3, 2.4450423e+2, -602119.44, -666977.0, -0.3554392, 0.00015315753, 0.00008225517, -602119.44, -58260.875, 0.0, 10.000755, 9.915786 
4.275043e+3, 2.5442013e+2, -503377.03, -568308.56, -2.0733945, 0.00015385533, -0.00009621511, -503377.03, -56694.367, 0.0, 10.0007515, 9.915686 
4.275043e+3, 2.6432896e+2, -415149.47, -490959.78, 0.7191258, 0.00015386287, 0.0001502819, -415149.47, -65573.24, 0.0, 10.000748, 9.901614 
4.275043e+3, 2.742311e+2, -315871.66, -391352.38, -1.9515393, 0.00015298915, -0.00019944721, -315871.66, -63336.645, 0.0, 10.000746, 9.902034 
4.275043e+3, 2.8412506e+2, -229406.7, -318068.88, -0.90606225, 0.00015234969, 0.0002296913, -229406.7, -73832.27, 0.0, 10.000743, 9.885085 
4.275043e+3, 2.940112e+2, -129709.016, -217759.1, -2.7928348, 0.0001520347, -0.00025282695, -129709.016, -71018.7, 0.0, 10.00074, 9.885863 
4.275043e+3, 3.0392528e+2, -39973.586, -84742.95, -0.3579102, 0.00015194123, 0.00017484755, -39973.586, -39973.586, 0.0, 10.000737, 9.941823 
4.275043e+3, 3.13869e+2, -38900.305, -82505.53, -1.279612, 0.0001521739, -0.000050292467, -38900.305, -38900.305, 0.0, 10.000733, 9.943335 
4.285045e+3, 1.2499867e+2, -1718957.6, -1724167.3, 1.8158466, 0.00016236179, 0.0000619587, -1718957.6, -3944.383, 0.0, 10.000826, 9.993919 
4.2850444e+3, 1.3499244e+2, -1621588.6, -1627387.0, -0.46833703, 0.0001605192, -0.00011661222, -1621588.6, -4514.308, 0.0, 10.000822, 9.993136 
4.2850444e+3, 1.4497969e+2, -1533458.5, -1548033.9, 2.094416, 0.00015977709, 0.0001469243, -1533458.5, -14259.252, 0.0, 10.000818, 9.981501 
4.2850444e+3, 1.5496117e+2, -1435741.6, -1450717.3, -0.47544056, 0.00016013563, -0.00003816585, -1435741.6, -14360.876, 0.0, 10.0008135, 9.980968 
4.2850444e+3, 1.6493604e+2, -1347700.5, -1371855.8, 1.7942555, 0.0001599693, 0.00004593876, -1347700.5, -24073.492, 0.0, 10.00081, 9.9688835 
4.2850444e+3, 1.7490497e+2, -1249753.1, -1274221.3, -0.29598072, 0.0001592666, -0.000057720263, -1249753.1, -23821.758, 0.0, 10.000806, 9.968471 
4.285044e+3, 1.8486726e+2, -1161677.5, -1195630.5, 1.5775479, 0.00015823435, 0.00008776079, -1161677.5, -33376.57, 0.0, 10.000802, 9.956036 
4.285044e+3, 1.9482334e+2, -1063538.3, -1097750.9, -1.2526649, 0.00015685643, -0.00004310412, -1063538.3, -32806.844, 0.0, 10.000798, 9.955693 
4.285044e+3, 2.0477276e+2, -975384.25, -1019362.6, 0.92190653, 0.00015657149, 0.000079321784, -975384.25, -42157.035, 0.0, 10.000794, 9.942929 
4.285044e+3, 2.1471572e+2, -877106.25, -921344.25, -1.1212575, 0.0001574687, -0.000114830495, -877106.25, -41320.156, 0.0, 10.000792, 9.942589 
4.285044e+3, 2.2465198e+2, -788826.06, -843080.3, 1.1730249, 0.0001571729, 0.00013214246, -788826.06, -50415.453, 0.0, 10.000787, 9.92955 
4.285044e+3, 2.345816e+2, -690404.0, -744909.6, -1.097949, 0.00015552656, -0.000079976926, -690404.0, -49303.633, 0.0, 10.000782, 9.929219 
4.285044e+3, 2.4450427e+2, -602087.44, -666967.44, 0.76700485, 0.00015525997, 0.00008307695, -602087.44, -58229.23, 0.0, 10.000779, 9.91578 
4.285044e+3, 2.5442016e+2, -503341.53, -568297.4, -1.5608405, 0.00015664182, -0.00009651693, -503341.53, -56659.16, 0.0, 10.000777, 9.91568 
4.285044e+3, 2.64329e+2, -415113.94, -490949.56, 1.1623571, 0.00015672641, 0.00014974207, -415113.94, -65537.97, 0.0, 10.000774, 9.9016075 
4.285044e+3, 2.7423114e+2, -315839.38, -391343.94, -0.5866873, 0.00015515607, -0.0001990961, -315839.38, -63304.55, 0.0, 10.000771, 9.902027 
4.2850435e+3, 2.8412506e+2, -229375.67, -318060.06, 1.1623108, 0.00015412418, 0.00023077475, -229375.67, -73801.37, 0.0, 10.000767, 9.885079 
4.2850435e+3, 2.940112e+2, -129678.31, -217750.44, -0.6099804, 0.0001538367, -0.0002512335, -129678.31, -70988.06, 0.0, 10.000763, 9.885858 
4.2850435e+3, 3.039253e+2, -39941.992, -84733.72, 1.5317298, 0.00015400338, 0.00017585706, -39941.992, -39941.992, 0.0, 10.000761, 9.941817 
4.2850435e+3, 3.13869e+2, -38865.805, -82494.86, -0.6152445, 0.00015483778, -0.000051489285, -38865.805, -38865.805, 0.0, 10.000759, 9.94333 
4.2950454e+3, 1.2499878e+2, -1718962.9, -1724177.1, 0.336823, 0.00016444542, 0.00006512127, -1718962.9, -3950.761, 0.0, 10.000826, 9.993914 
4.2950454e+3, 1.3499254e+2, -1621593.8, -1627396.8, -1.9500235, 0.00016292924, -0.00011707031, -1621593.8, -4520.5425, 0.0, 10.000822, 9.99313 
4.2950454e+3, 1.449798e+2, -1533464.3, -1548044.9, 0.55830777, 0.00016234253, 0.0001462224, -1533464.3, -14266.016, 0.0, 10.000818, 9.981494 
4.2950454e+3, 1.5496126e+2, -1435747.3, -1450728.3, -2.0081499, 0.00016268538, -0.00003590583, -1435747.3, -14367.532, 0.0, 10.0008135, 9.980962 
4.2950448e+3, 1.6493613e+2, -1347705.1, -1371864.6, 0.2690255, 0.00016209735, 0.000048555066, -1347705.1, -24079.006, 0.0, 10.00081, 9.968879 
4.2950448e+3, 1.7490506e+2, -1249757.8, -1274230.0, -1.8244971, 0.0001605596, -0.0000574003, -1249757.8, -23827.143, 0.0, 10.000806, 9.968465 
4.2950448e+3, 1.8486734e+2, -1161683.6, -1195642.5, 0.06454852, 0.00016010483, 0.00008671568, -1161683.6, -33383.465, 0.0, 10.000802, 9.956029 
4.2950448e+3, 1.9482341e+2, -1063544.3, -1097762.8, -2.7618728, 0.00016078037, -0.000044540637, -1063544.3, -32813.6, 0.0, 10.000798, 9.955686 
4.2950448e+3, 2.0477282e+2, -975388.7, -1019371.44, -0.26106504, 0.00016030268, 0.000078697, -975388.7, -42162.133, 0.0, 10.000794, 9.942924 
4.2950448e+3, 2.1471578e+2, -877110.7, -921352.94, -2.298536, 0.00015857679, -0.00011334075, -877110.7, -41325.137, 0.0, 10.000792, 9.942583 
4.2950448e+3, 2.2465204e+2, -788831.0, -843090.06, -0.62642884, 0.00015794468, 0.00013400147, -788831.0, -50420.883, 0.0, 10.000788, 9.929544 
4.2950445e+3, 2.3458165e+2, -690408.9, -744919.4, -2.9178536, 0.00015854962, -0.00007972302, -690408.9, -49308.92, 0.0, 10.000782, 9.929214 
4.2950445e+3, 2.445043e+2, -602092.44, -666977.56, 0.06044651, 0.00015893675, 0.000082633924, -602092.44, -58234.617, 0.0, 10.000779, 9.915773 
4.2950445e+3, 2.544202e+2, -503346.5, -568307.5, -2.212699, 0.00015906227, -0.000096570184, -503346.5, -56664.45, 0.0, 10.000777, 9.915673 
4.2950445e+3, 2.6432902e+2, -415118.03, -490957.94, -0.4073541, 0.00015841282, 0.0001501807, -415118.03, -65542.33, 0.0, 10.000774, 9.901602 
4.2950445e+3, 2.7423117e+2, -315843.34, -391352.13, -2.2194443, 0.0001567775, -0.00019803777, -315843.34, -63308.734, 0.0, 10.000771, 9.902022 
4.2950445e+3, 2.841251e+2, -229379.64, -318068.34, -0.036330514, 0.00015604474, 0.00023224558, -229379.64, -73805.5, 0.0, 10.000767, 9.885074 
4.2950445e+3, 2.940112e+2, -129682.23, -217758.66, -1.7702368, 0.00015655153, -0.00024963432, -129682.23, -70992.086, 0.0, 10.000764, 9.885852 
4.2950445e+3, 3.039253e+2, -39946.797, -84743.82, 0.9142443, 0.0001567623, 0.00017660926, -39946.797, -39946.797, 0.0, 10.000761, 9.941811 
4.2950445e+3, 3.13869e+2, -38870.734, -82505.2, -1.1671154, 0.00015652191, -0.00005302923, -38870.734, -38870.734, 0.0, 10.000759, 9.943322 
4.3050465e+3, 1.24998905e+2, -1718924.9, -1724164.9, 2.1824796, 0.00016682663, 0.00006597163, -1718924.9, -3913.991, 0.0, 10.000853, 9.993907 
4.3050465e+3, 1.3499266e+2, -1621555.8, -1627384.5, -0.796879, 0.00016534433, -0.00011629956, -1621555.8, -4483.634, 0.0, 10.000849, 9.993123 
4.3050465e+3, 1.4497991e+2, -1533425.8, -1548031.3, 1.5099342, 0.00016472979, 0.0001469849, -1533425.8, -14228.572, 0.0, 10.000845, 9.981487 
4.305046e+3, 1.5496136e+2, -1435709.9, -1450715.3, -0.40090618, 0.00016498333, -0.00003507843, -1435709.9, -14331.092, 0.0, 10.00084, 9.980956 
4.305046e+3, 1.6493621e+2, -1347668.9, -1371853.3, 1.9037935, 0.00016436775, 0.000049247432, -1347668.9, -24043.719, 0.0, 10.000836, 9.968872 
4.305046e+3, 1.7490515e+2, -1249721.8, -1274218.9, -1.0417379, 0.00016286582, -0.00005704448, -1249721.8, -23791.975, 0.0, 10.000832, 9.968458 
4.305046e+3, 1.8486743e+2, -1161647.4, -1195631.3, 0.8428974, 0.00016255336, 0.00008691433, -1161647.4, -33348.008, 0.0, 10.000828, 9.956022 
4.305046e+3, 1.9482349e+2, -1063507.6, -1097751.4, -1.3002989, 0.00016348263, -0.000044311044, -1063507.6, -32777.625, 0.0, 10.000825, 9.955679 
4.3050453e+3, 2.0477287e+2, -975352.5, -1019359.6, 1.373593, 0.00016286196, 0.000079071186, -975352.5, -42126.57, 0.0, 10.00082, 9.942918 
4.3050453e+3, 2.1471584e+2, -877077.2, -921342.6, -0.9341392, 0.00016056378, -0.000112698144, -877077.2, -41292.24, 0.0, 10.000815, 9.942577 
4.3050453e+3, 2.246521e+2, -788797.44, -843080.44, 0.71133626, 0.00016005173, 0.00013474241, -788797.44, -50387.906, 0.0, 10.000813, 9.929538 
4.3050453e+3, 2.345817e+2, -690371.5, -744907.9, -1.7022775, 0.00016155998, -0.000079075864, -690371.5, -49272.074, 0.0, 10.00081, 9.929207 
4.3050453e+3, 2.4450435e+2, -602054.94, -666965.8, 1.428808, 0.00016186346, 0.00008310867, -602054.94, -58197.52, 0.0, 10.000807, 9.915767 
4.3050453e+3, 2.5442025e+2, -503313.56, -568298.1, -0.5933308, 0.00016072612, -0.0000963612, -503313.56, -56631.855, 0.0, 10.000802, 9.915667 
4.3050453e+3, 2.6432905e+2, -415086.5, -490949.0, 1.0354478, 0.00015971009, 0.00015043828, -415086.5, -65511.09, 0.0, 10.000798, 9.901596 
4.3050453e+3, 2.742312e+2, -315809.97, -391342.34, -1.1740625, 0.00015885143, -0.00019733093, -315809.97, -63275.582, 0.0, 10.000795, 9.902017 
4.3050453e+3, 2.841251e+2, -229344.53, -318057.63, 1.049172, 0.00015859072, 0.00023300464, -229344.53, -73770.56, 0.0, 10.0007925, 9.885068 
4.3050453e+3, 2.9401124e+2, -129645.94, -217747.47, -0.8936852, 0.00015914727, -0.00024936846, -129645.94, -70955.93, 0.0, 10.000791, 9.885846 
4.3050453e+3, 3.039253e+2, -39911.805, -84734.164, 1.7844957, 0.00015909268, 0.00017661418, -39911.805, -39911.805, 0.0, 10.000788, 9.941804 
4.3050453e+3, 3.13869e+2, -38838.863, -82497.15, 0.039890885, 0.00015812284, -0.000052934924, -38838.863, -38838.863, 0.0, 10.000785, 9.9433155 
4.3150473e+3, 1.24999024e+2, -1718931.8, -1724177.8, 0.7636206, 0.00016950056, 0.00006473691, -1718931.8, -3922.0237, 0.0, 10.000853, 9.993898 
4.3150473e+3, 1.3499276e+2, -1621562.5, -1627397.4, -2.2109964, 0.00016776493, -0.000114322116, -1621562.5, -4491.5396, 0.0, 10.000849, 9.993115 
4.315047e+3, 1.4498001e+2, -1533430.0, -1548039.4, -0.22160299, 0.00016694245, 0.00014918446, -1533430.0, -14233.933, 0.0, 10.000845, 9.9814825 
4.315047e+3, 1.5496147e+2, -1435714.1, -1450723.4, -2.1374412, 0.00016703432, -0.00003565759, -1435714.1, -14336.334, 0.0, 10.00084, 9.980951 
4.315047e+3, 1.6493632e+2, -1347675.4, -1371865.8, 0.37722328, 0.00016677822, 0.000048050842, -1347675.4, -24051.158, 0.0, 10.000836, 9.9688635 
4.315047e+3, 1.7490523e+2, -1249728.1, -1274231.4, -2.563176, 0.00016616735, -0.000056653796, -1249728.1, -23799.28, 0.0, 10.000833, 9.968451 
4.3150464e+3, 1.848675e+2, -1161652.0, -1195640.4, -0.50798786, 0.0001655699, 0.00008833397, -1161652.0, -33353.52, 0.0, 10.000829, 9.956016 
4.3150464e+3, 1.9482356e+2, -1063512.3, -1097760.5, -2.651493, 0.00016498553, -0.000042444783, -1063512.3, -32783.02, 0.0, 10.000825, 9.955673 
4.3150464e+3, 2.0477295e+2, -975357.5, -1019369.5, -0.417957, 0.00016427069, 0.000080426995, -975357.5, -42132.293, 0.0, 10.00082, 9.942912 
4.3150464e+3, 2.147159e+2, -877082.1, -921352.44, -2.735146, 0.00016341414, -0.000112887596, -877082.1, -41297.82, 0.0, 10.000815, 9.942571 
4.3150464e+3, 2.2465216e+2, -788802.6, -843090.75, -0.14342593, 0.00016347037, 0.00013438509, -788802.6, -50393.645, 0.0, 10.000813, 9.929531 
4.3150464e+3, 2.3458174e+2, -690376.6, -744918.2, -2.5252452, 0.00016455859, -0.00007804243, -690376.6, -49277.71, 0.0, 10.000811, 9.9292 
4.3150464e+3, 2.4450439e+2, -602059.5, -666975.06, -0.28184286, 0.00016405423, 0.00008448507, -602059.5, -58202.54, 0.0, 10.000807, 9.915761 
4.3150464e+3, 2.5442028e+2, -503318.03, -568307.25, -2.347228, 0.00016164697, -0.000095894306, -503318.03, -56636.72, 0.0, 10.000802, 9.915661 
4.3150458e+3, 2.6432908e+2, -415091.25, -490958.78, -0.11987931, 0.00016062509, 0.00015051836, -415091.25, -65516.176, 0.0, 10.000798, 9.901589 
4.3150458e+3, 2.7423123e+2, -315814.66, -391352.06, -2.2894151, 0.00016137012, -0.00019696931, -315814.66, -63280.566, 0.0, 10.000795, 9.90201 
4.3150458e+3, 2.8412512e+2, -229348.98, -318066.88, 0.21675041, 0.00016175157, 0.00023306439, -229348.98, -73775.23, 0.0, 10.0007925, 9.885062 
4.3150458e+3, 2.9401124e+2, -129650.32, -217756.64, -1.701281, 0.0001616268, -0.0002504124, -129650.32, -70960.45, 0.0, 10.000791, 9.88584 
4.3150458e+3, 3.039253e+2, -39916.1, -84743.19, 0.48791215, 0.00016100277, 0.000175885, -39916.1, -39916.1, 0.0, 10.000788, 9.941798 
4.3150458e+3, 3.13869e+2, -38843.152, -82506.164, -1.3119419, 0.00015964215, -0.00005123504, -38843.152, -38843.152, 0.0, 10.000785, 9.94331 
4.3250483e+3, 1.2499915e+2, -1718891.1, -1724163.6, 1.89461, 0.00017174312, 0.00006466986, -1718891.1, -3882.6528, 0.0, 10.000881, 9.993892 
4.3250477e+3, 1.3499288e+2, -1621524.0, -1627384.5, -0.12447305, 0.0001701721, -0.00011295129, -1621524.0, -4454.248, 0.0, 10.000876, 9.993109 
4.3250477e+3, 1.4498012e+2, -1533392.0, -1548026.8, 1.8494258, 0.00016938857, 0.00015056574, -1533392.0, -14197.11, 0.0, 10.000872, 9.981476 
4.3250477e+3, 1.5496157e+2, -1435675.5, -1450710.4, -1.0965014, 0.00016939317, -0.000035698635, -1435675.5, -14298.805, 0.0, 10.000868, 9.980945 
4.3250477e+3, 1.6493642e+2, -1347636.9, -1371853.3, 1.4037049, 0.00016917808, 0.00004778645, -1347636.8, -24013.6, 0.0, 10.000864, 9.968857 
4.3250474e+3, 1.7490533e+2, -1249689.9, -1274219.1, -0.7085671, 0.00016873913, -0.000055918317, -1249689.9, -23762.037, 0.0, 10.000859, 9.968444 
4.3250474e+3, 1.848676e+2, -1161614.6, -1195628.4, 1.5302523, 0.00016801526, 0.00008938801, -1161614.6, -33316.98, 0.0, 10.000855, 9.95601 
4.3250474e+3, 1.9482364e+2, -1063476.5, -1097749.4, -1.1402749, 0.00016699276, -0.00004178322, -1063476.5, -32748.105, 0.0, 10.000851, 9.955667 
4.3250474e+3, 2.0477302e+2, -975321.5, -1019358.5, 0.7928075, 0.0001664394, 0.00008080601, -975321.5, -42097.047, 0.0, 10.000847, 9.942905 
4.3250474e+3, 2.1471597e+2, -877043.75, -921340.3, -1.7034866, 0.000166393, -0.000112671834, -877043.75, -41260.137, 0.0, 10.000844, 9.942564 
4.3250474e+3, 2.2465222e+2, -788764.4, -843078.6, 1.1518103, 0.0001663883, 0.00013471582, -788764.4, -50356.0, 0.0, 10.00084, 9.929524 
4.3250468e+3, 2.345818e+2, -690341.56, -744907.75, -1.0521772, 0.0001664301, -0.000077281606, -690341.56, -49243.203, 0.0, 10.000836, 9.9291935 
4.3250468e+3, 2.4450444e+2, -602025.2, -666964.9, 0.8911017, 0.0001656038, 0.00008525462, -602025.2, -58168.734, 0.0, 10.000833, 9.915754 
4.3250468e+3, 2.544203e+2, -503282.1, -568296.4, -1.3903317, 0.00016374052, -0.000095619296, -503282.1, -56601.207, 0.0, 10.000829, 9.915655 
4.3250468e+3, 2.643291e+2, -415054.6, -490947.9, 1.0932069, 0.00016301427, 0.00015067281, -415054.6, -65479.87, 0.0, 10.000826, 9.901584 
4.3250468e+3, 2.7423126e+2, -315778.06, -391341.38, -1.1355772, 0.00016373684, -0.00019645809, -315778.06, -63244.258, 0.0, 10.000823, 9.902003 
4.3250468e+3, 2.8412515e+2, -229313.08, -318056.47, 1.2852658, 0.00016397552, 0.00023368376, -229313.08, -73739.56, 0.0, 10.00082, 9.885056 
4.3250468e+3, 2.9401127e+2, -129616.48, -217747.31, -0.8324189, 0.00016354477, -0.00025002751, -129616.48, -70926.77, 0.0, 10.000816, 9.885834 
4.3250468e+3, 3.0392534e+2, -39882.727, -84733.34, 1.2465682, 0.00016284335, 0.00017612027, -39882.727, -39882.727, 0.0, 10.0008135, 9.9417925 
4.3250468e+3, 3.13869e+2, -38808.637, -82495.664, -0.1348645, 0.00016174655, -0.000051019982, -38808.637, -38808.637, 0.0, 10.000811, 9.943304 
4.3350488e+3, 1.24999285e+2, -1718895.8, -1724172.4, 0.031007828, 0.00017356288, 0.00006574805, -1718895.8, -3888.5535, 0.0, 10.000881, 9.993887 
4.3350488e+3, 1.3499303e+2, -1621528.6, -1627393.1, -1.9931667, 0.0001725665, -0.00011217495, -1621528.6, -4460.0415, 0.0, 10.000876, 9.993103 
4.3350488e+3, 1.4498024e+2, -1533398.6, -1548039.3, 0.31098333, 0.0001720639, 0.00015114476, -1533398.6, -14204.883, 0.0, 10.000872, 9.981468 
4.3350488e+3, 1.5496169e+2, -1435682.0, -1450722.9, -2.6306303, 0.00017205448, -0.00003521176, -1435682.0, -14306.426, 0.0, 10.000868, 9.980937 
4.3350482e+3, 1.6493653e+2, -1347641.5, -1371862.3, -0.1573233, 0.00017156791, 0.00004843643, -1347641.5, -24019.29, 0.0, 10.000864, 9.968851 
4.3350482e+3, 1.7490542e+2, -1249694.5, -1274228.0, -2.2730956, 0.00017059523, -0.00005484407, -1249694.5, -23767.621, 0.0, 10.00086, 9.968438 
4.3350482e+3, 1.848677e+2, -1161620.4, -1195639.6, -0.18422851, 0.00016990046, 0.0000900838, -1161620.4, -33323.695, 0.0, 10.000855, 9.956002 
4.3350482e+3, 1.9482373e+2, -1063482.3, -1097760.6, -2.8554335, 0.00016949516, -0.00004230401, -1063482.3, -32754.674, 0.0, 10.000851, 9.95566 
4.3350482e+3, 2.047731e+2, -975326.9, -1019369.1, -0.38527632, 0.00016935419, 0.00008022608, -975326.9, -42103.203, 0.0, 10.000847, 9.942899 
4.335048e+3, 2.1471603e+2, -877049.06, -921350.9, -2.8696349, 0.00016949869, -0.000112058326, -877049.06, -41266.17, 0.0, 10.000844, 9.942557 
4.335048e+3, 2.2465228e+2, -788769.2, -843088.25, -0.40046328, 0.00016881544, 0.00013572208, -788769.2, -50361.492, 0.0, 10.00084, 9.929519 
4.335048e+3, 2.3458186e+2, -690346.4, -744917.3, -2.6180387, 0.00016719541, -0.00007678824, -690346.4, -49248.55, 0.0, 10.000836, 9.929188 
4.335048e+3, 2.445045e+2, -602030.1, -666974.9, -0.413865, 0.00016652404, 0.000085428575, -602030.1, -58174.17, 0.0, 10.000833, 9.915749 
4.335048e+3, 2.5442037e+2, -503286.94, -568306.25, -2.683069, 0.00016698579, -0.000095532705, -503286.94, -56606.527, 0.0, 10.000829, 9.915648 
4.335048e+3, 2.6432917e+2, -415059.53, -490958.03, 0.00568207, 0.00016685121, 0.00015090023, -415059.53, -65485.195, 0.0, 10.000826, 9.901577 
4.335048e+3, 2.7423128e+2, -315782.94, -391351.47, -2.2090013, 0.00016595495, -0.00019579986, -315782.94, -63249.473, 0.0, 10.000823, 9.901997 
4.335048e+3, 2.8412518e+2, -229317.9, -318066.5, 0.018574532, 0.00016528017, 0.00023485265, -229317.9, -73744.66, 0.0, 10.00082, 9.885049 
4.335048e+3, 2.940113e+2, -129621.234, -217757.28, -2.1150687, 0.00016491167, -0.00024823993, -129621.234, -70931.74, 0.0, 10.000816, 9.885827 
4.335048e+3, 3.0392534e+2, -39886.316, -84740.91, 0.15814641, 0.00016461594, 0.0001773023, -39886.316, -39886.316, 0.0, 10.0008135, 9.941787 
4.335048e+3, 3.13869e+2, -38812.098, -82502.97, -1.2054565, 0.00016442593, -0.000052262334, -38812.098, -38812.098, 0.0, 10.000811, 9.943299 
4.34505e+3, 1.2499942e+2, -1718855.8, -1724158.8, 2.1952534, 0.00017555617, 0.00006682374, -1718855.8, -3849.883, 0.0, 10.00091, 9.99388 
4.34505e+3, 1.3499315e+2, -1621487.9, -1627379.3, -0.8994162, 0.00017507409, -0.00011189656, -1621487.9, -4420.556, 0.0, 10.000905, 9.993096 
4.34505e+3, 1.4498036e+2, -1533357.8, -1548025.4, 1.4197097, 0.00017469056, 0.0001513159, -1533357.8, -14165.217, 0.0, 10.000901, 9.981462 
4.3450493e+3, 1.5496181e+2, -1435641.9, -1450709.5, -0.75369966, 0.00017440354, -0.000034454795, -1435641.9, -14267.379, 0.0, 10.000896, 9.98093 
4.3450493e+3, 1.6493663e+2, -1347602.0, -1371849.0, 1.6676247, 0.0001737562, 0.000049290316, -1347602.0, -23980.926, 0.0, 10.000892, 9.968845 
4.3450493e+3, 1.7490554e+2, -1249656.4, -1274215.6, -1.1544465, 0.00017274196, -0.000054391086, -1249656.4, -23730.459, 0.0, 10.000887, 9.968431 
4.3450493e+3, 1.848678e+2, -1161582.4, -1195627.8, 0.8576778, 0.00017217358, 0.000090353875, -1161582.4, -33286.55, 0.0, 10.000883, 9.955996 
4.3450493e+3, 1.9482382e+2, -1063442.5, -1097748.1, -1.6483623, 0.00017207031, -0.000041988682, -1063442.5, -32715.857, 0.0, 10.00088, 9.955652 
4.345049e+3, 2.0477317e+2, -975287.06, -1019356.1, 1.0850784, 0.00017193102, 0.00008067257, -975287.06, -42064.145, 0.0, 10.000876, 9.942892 
4.345049e+3, 2.147161e+2, -877011.3, -921339.0, -1.2254775, 0.00017175234, -0.00011138739, -877011.3, -41229.15, 0.0, 10.000872, 9.942551 
4.345049e+3, 2.2465236e+2, -788732.44, -843077.0, 1.0989083, 0.0001708756, 0.00013640561, -788732.44, -50325.402, 0.0, 10.000868, 9.929512 
4.345049e+3, 2.3458192e+2, -690309.5, -744906.1, -1.3809526, 0.00016920884, -0.000076331475, -690309.5, -49212.297, 0.0, 10.000864, 9.929181 
4.345049e+3, 2.4450456e+2, -601992.94, -666963.7, 0.9599593, 0.00016866816, 0.00008561491, -601992.94, -58137.527, 0.0, 10.00086, 9.915742 
4.345049e+3, 2.5442043e+2, -503249.2, -568294.9, -1.4023694, 0.00016947226, -0.000095668525, -503249.2, -56569.246, 0.0, 10.000857, 9.915642 
4.345049e+3, 2.643292e+2, -415022.0, -490946.88, 1.2074727, 0.00016934902, 0.00015080645, -415022.0, -65448.1, 0.0, 10.0008545, 9.90157 
4.3450484e+3, 2.742313e+2, -315746.88, -391341.13, -0.98345035, 0.00016804237, -0.00019538797, -315746.88, -63213.76, 0.0, 10.000851, 9.90199 
4.3450484e+3, 2.841252e+2, -229282.33, -318056.13, 1.3681583, 0.0001672107, 0.00023577466, -229282.33, -73709.375, 0.0, 10.000847, 9.885043 
4.3450484e+3, 2.940113e+2, -129585.58, -217746.94, -0.4917213, 0.00016703425, -0.00024680383, -129585.58, -70896.33, 0.0, 10.000844, 9.885821 
4.3450484e+3, 3.0392537e+2, -39851.03, -84731.08, 1.6135863, 0.00016690495, 0.00017834608, -39851.03, -39851.03, 0.0, 10.000841, 9.941781 
4.3450484e+3, 3.1386903e+2, -38776.902, -82493.2, -0.8629854, 0.00016684011, -0.000052956886, -38776.902, -38776.902, 0.0, 10.000838, 9.943293 
4.355051e+3, 1.2499957e+2, -1718862.9, -1724172.1, 0.5510099, 0.00017771998, 0.00006789743, -1718862.9, -3858.365, 0.0, 10.00091, 9.993872 
4.355051e+3, 1.3499328e+2, -1621494.9, -1627392.5, -2.5404541, 0.00017769315, -0.00011210693, -1621494.9, -4428.8677, 0.0, 10.000905, 9.993088 
4.355051e+3, 1.449805e+2, -1533362.6, -1548034.6, -0.2227606, 0.0001772701, 0.00015108655, -1533362.6, -14171.306, 0.0, 10.000901, 9.981456 
4.3550503e+3, 1.5496193e+2, -1435646.6, -1450718.8, -2.3991272, 0.00017644689, -0.00003343247, -1435646.6, -14273.37, 0.0, 10.000896, 9.980925 
4.3550503e+3, 1.6493675e+2, -1347608.3, -1371861.0, -0.14901844, 0.00017574725, 0.000050344675, -1347608.3, -23988.26, 0.0, 10.000892, 9.968838 
4.3550503e+3, 1.7490564e+2, -1249662.5, -1274227.5, -2.9708254, 0.00017517393, -0.0000545475, -1249662.5, -23737.635, 0.0, 10.000887, 9.968424 
4.3550503e+3, 1.8486789e+2, -1161587.8, -1195638.5, -0.41993046, 0.00017482747, 0.00009020612, -1161587.8, -33292.973, 0.0, 10.000883, 9.955989 
4.3550497e+3, 1.9482392e+2, -1063447.9, -1097758.6, -2.9203815, 0.00017471741, -0.000040853196, -1063447.9, -32722.16, 0.0, 10.00088, 9.955646 
4.3550497e+3, 2.0477328e+2, -975292.06, -1019366.06, -0.5371223, 0.00017417694, 0.00008212601, -975292.06, -42070.03, 0.0, 10.000876, 9.942885 
4.3550497e+3, 2.147162e+2, -877016.25, -921348.9, -2.8555021, 0.00017317048, -0.000110659945, -877016.25, -41234.9, 0.0, 10.000872, 9.942545 
4.3550497e+3, 2.2465242e+2, -788737.75, -843087.7, -0.39644194, 0.00017257598, 0.00013677268, -788737.75, -50331.46, 0.0, 10.000868, 9.929505 
4.3550497e+3, 2.34582e+2, -690314.75, -744916.75, -2.8722396, 0.00017244708, -0.00007591057, -690314.75, -49218.234, 0.0, 10.000864, 9.929174 
4.3550494e+3, 2.4450463e+2, -601998.06, -666974.06, -0.15448327, 0.00017201336, 0.000085813444, -601998.06, -58143.258, 0.0, 10.00086, 9.915735 
4.3550494e+3, 2.5442046e+2, -503254.25, -568305.25, -2.4988954, 0.00017121485, -0.00009602237, -503254.25, -56574.848, 0.0, 10.000857, 9.915635 
4.3550494e+3, 2.6432925e+2, -415026.9, -490956.94, -0.16305922, 0.00017053356, 0.0001503977, -415026.9, -65453.46, 0.0, 10.0008545, 9.901564 
4.3550494e+3, 2.7423134e+2, -315751.72, -391351.1, -2.3718143, 0.00017000195, -0.00019521778, -315751.72, -63218.977, 0.0, 10.000851, 9.901983 
4.3550494e+3, 2.8412524e+2, -229286.67, -318065.16, 0.13777514, 0.00016975563, 0.00023645448, -229286.67, -73714.04, 0.0, 10.000847, 9.885036 
4.3550494e+3, 2.9401132e+2, -129589.81, -217755.81, -1.7095562, 0.0001698987, -0.00024571214, -129589.81, -70900.836, 0.0, 10.000844, 9.885816 
4.3550494e+3, 3.0392537e+2, -39856.473, -84742.5, 0.51337695, 0.00016970116, 0.00017925457, -39856.473, -39856.473, 0.0, 10.000841, 9.941773 
4.3550494e+3, 3.1386903e+2, -38782.492, -82504.94, -1.9465262, 0.00016899445, -0.000053114338, -38782.492, -38782.492, 0.0, 10.000838, 9.943285 
4.3650517e+3, 1.2499971e+2, -1718820.3, -1724157.9, 2.0269823, 0.00018016326, 0.000067888104, -1718820.3, -3817.215, 0.0, 10.00094, 9.993864 
4.3650517e+3, 1.3499342e+2, -1621453.4, -1627379.0, -0.49990287, 0.0001800233, -0.00011114872, -1621453.4, -4388.7607, 0.0, 10.000935, 9.993081 
4.3650514e+3, 1.4498062e+2, -1533321.3, -1548020.3, 1.8676021, 0.00017949127, 0.0001521013, -1533321.3, -14131.169, 0.0, 10.00093, 9.981449 
4.3650514e+3, 1.5496205e+2, -1435605.9, -1450704.8, -0.90465915, 0.00017856307, -0.0000332758, -1435605.9, -14233.792, 0.0, 10.000926, 9.980918 
4.3650514e+3, 1.6493687e+2, -1347567.6, -1371848.0, 1.1941746, 0.00017796495, 0.00005030281, -1347567.6, -23948.842, 0.0, 10.000921, 9.96883 
4.3650514e+3, 1.7490575e+2, -1249620.8, -1274214.0, -1.4376552, 0.00017770368, -0.000054115535, -1249620.8, -23696.955, 0.0, 10.000917, 9.968416 
4.3650508e+3, 1.84868e+2, -1161546.1, -1195624.6, 1.2834214, 0.00017736321, 0.00009087566, -1161546.1, -33252.383, 0.0, 10.000914, 9.955982 
4.3650508e+3, 1.9482401e+2, -1063408.6, -1097746.1, -1.3177193, 0.00017693941, -0.000040192615, -1063408.6, -32683.818, 0.0, 10.000909, 9.955639 
4.3650508e+3, 2.0477337e+2, -975253.5, -1019353.7, 0.9068024, 0.00017621998, 0.00008269012, -975253.5, -42032.36, 0.0, 10.000904, 9.942879 
4.3650508e+3, 2.1471629e+2, -876977.4, -921336.5, -1.5826038, 0.00017518042, -0.000110286695, -876977.4, -41196.824, 0.0, 10.0009, 9.942538 
4.3650508e+3, 2.246525e+2, -788698.7, -843075.8, 0.92532086, 0.00017480676, 0.00013703275, -788698.7, -50293.117, 0.0, 10.000896, 9.929499 
4.3650502e+3, 2.3458207e+2, -690275.0, -744904.6, -1.6451263, 0.00017518591, -0.00007567562, -690275.0, -49179.145, 0.0, 10.000894, 9.929167 
4.3650502e+3, 2.4450469e+2, -601958.9, -666962.1, 0.9959895, 0.00017474627, 0.000086022024, -601958.9, -58104.652, 0.0, 10.00089, 9.915729 
4.3650502e+3, 2.5442052e+2, -503217.44, -568294.6, -1.4197546, 0.00017332796, -0.00009584158, -503217.44, -56538.574, 0.0, 10.000885, 9.915628 
4.3650502e+3, 2.6432928e+2, -414990.84, -490946.38, 0.9932086, 0.00017245513, 0.00015069086, -414990.84, -65417.875, 0.0, 10.000881, 9.901557 
4.3650502e+3, 2.742314e+2, -315715.06, -391340.3, -1.1413246, 0.00017227823, -0.00019463377, -315715.06, -63182.75, 0.0, 10.000878, 9.901977 
4.3650502e+3, 2.8412527e+2, -229249.6, -318054.2, 1.3391354, 0.00017227161, 0.00023696998, -229249.6, -73677.32, 0.0, 10.000875, 9.885031 
4.3650502e+3, 2.9401135e+2, -129552.81, -217744.98, -0.88323164, 0.00017249436, -0.0002457578, -129552.81, -70864.125, 0.0, 10.000872, 9.885809 
4.3650502e+3, 3.039254e+2, -39820.234, -84733.04, 1.4212039, 0.00017224964, 0.00017922425, -39820.234, -39820.234, 0.0, 10.000869, 9.941766 
4.3650502e+3, 3.1386906e+2, -38746.1, -82495.5, -0.5188437, 0.00017130884, -0.00005226826, -38746.1, -38746.1, 0.0, 10.000866, 9.943277 
4.3750528e+3, 1.24999866e+2, -1718826.0, -1724168.8, 0.1754942, 0.00018288096, 0.000066817556, -1718826.0, -3824.456, 0.0, 10.00094, 9.993857 
4.3750528e+3, 1.3499358e+2, -1621459.1, -1627389.9, -2.3519318, 0.00018207084, -0.00010904476, -1621459.1, -4395.89, 0.0, 10.000936, 9.993074 
4.3750522e+3, 1.4498076e+2, -1533327.4, -1548032.0, 0.12561823, 0.00018136157, 0.00015433559, -1533327.4, -14138.721, 0.0, 10.000931, 9.9814415 
4.3750522e+3, 1.5496218e+2, -1435612.0, -1450716.5, -2.6471245, 0.000180751, -0.00003396755, -1435612.0, -14241.179, 0.0, 10.000926, 9.98091 
4.3750522e+3, 1.6493699e+2, -1347573.5, -1371859.1, -0.2850966, 0.00018040523, 0.00004918657, -1347573.5, -23955.813, 0.0, 10.000921, 9.968823 
4.3750522e+3, 1.7490587e+2, -1249626.5, -1274225.1, -2.9153802, 0.00018032992, -0.00005310661, -1249626.5, -23703.809, 0.0, 10.000917, 9.96841 
4.375052e+3, 1.848681e+2, -1161551.9, -1195635.8, -0.49429026, 0.00017978376, 0.000092346505, -1161551.9, -33259.117, 0.0, 10.000914, 9.955975 
4.375052e+3, 1.9482411e+2, -1063414.3, -1097757.1, -3.0992131, 0.00017874509, -0.000039997394, -1063414.3, -32690.404, 0.0, 10.000909, 9.955632 
4.375052e+3, 2.0477346e+2, -975258.9, -1019364.3, -0.5952428, 0.00017806445, 0.000082382605, -975258.9, -42038.656, 0.0, 10.000904, 9.942872 
4.375052e+3, 2.1471637e+2, -876982.7, -921347.0, -3.0794907, 0.0001777709, -0.00011026055, -876982.7, -41202.992, 0.0, 10.0009, 9.942532 
4.3750513e+3, 2.2465259e+2, -788704.25, -843086.9, -0.34886885, 0.00017755799, 0.00013718796, -788704.25, -50299.457, 0.0, 10.000896, 9.929491 
4.3750513e+3, 2.3458214e+2, -690280.5, -744915.7, -2.9116704, 0.00017743574, -0.000075622855, -690280.5, -49185.36, 0.0, 10.000894, 9.92916 
4.3750513e+3, 2.4450475e+2, -601964.1, -666972.9, -0.63200796, 0.00017687948, 0.000086240536, -601964.1, -58110.6, 0.0, 10.00089, 9.915721 
4.3750513e+3, 2.5442058e+2, -503222.66, -568305.25, -3.0640213, 0.00017580466, -0.00009513671, -503222.66, -56544.375, 0.0, 10.000885, 9.915621 
4.3750513e+3, 2.6432934e+2, -414995.63, -490956.2, -0.2242444, 0.00017509949, 0.00015167211, -414995.63, -65423.168, 0.0, 10.000881, 9.90155 
4.3750513e+3, 2.7423143e+2, -315719.75, -391350.0, -2.3322644, 0.0001748655, -0.0001936439, -315719.75, -63187.9, 0.0, 10.000878, 9.901971 
4.3750513e+3, 2.8412533e+2, -229254.58, -318064.56, 0.15676689, 0.00017475976, 0.00023732458, -229254.58, -73682.71, 0.0, 10.000875, 9.885024 
4.3750513e+3, 2.9401138e+2, -129557.77, -217755.38, -2.0652459, 0.00017482688, -0.00024691867, -129557.77, -70869.4, 0.0, 10.000872, 9.885802 
4.3750507e+3, 3.0392542e+2, -39824.895, -84742.836, 0.3768555, 0.00017455567, 0.00017827345, -39824.895, -39824.895, 0.0, 10.000869, 9.941759 
4.3750507e+3, 3.1386906e+2, -38750.74, -82505.24, -1.5459685, 0.00017378075, -0.000050437946, -38750.74, -38750.74, 0.0, 10.000866, 9.943271 
4.3850538e+3, 1.2500001e+2, -1718783.6, -1724154.1, 1.9299005, 0.00018540195, 0.00006728062, -1718783.6, -3783.6135, 0.0, 10.00097, 9.993851 
4.3850538e+3, 1.3499372e+2, -1621416.1, -1627375.0, -0.7399113, 0.00018426222, -0.00010833497, -1621416.1, -4354.4395, 0.0, 10.000965, 9.993067 
4.3850532e+3, 1.449809e+2, -1533284.8, -1548018.1, 1.6525431, 0.00018354961, 0.00015497065, -1533284.8, -14097.385, 0.0, 10.000961, 9.981435 
4.3850532e+3, 1.5496232e+2, -1435569.1, -1450702.6, -1.274216, 0.00018326326, -0.000033730124, -1435569.1, -14199.691, 0.0, 10.000957, 9.980903 
4.3850532e+3, 1.6493712e+2, -1347530.8, -1371844.8, 1.1228299, 0.00018290868, 0.000049406568, -1347530.8, -23914.344, 0.0, 10.000952, 9.968817 
4.3850526e+3, 1.7490599e+2, -1249585.1, -1274211.5, -1.4649634, 0.00018248525, -0.000052516334, -1249585.1, -23663.688, 0.0, 10.000947, 9.968403 
4.3850526e+3, 1.8486822e+2, -1161511.1, -1195622.8, 0.8606568, 0.0001818629, 0.00009306729, -1161511.1, -33219.504, 0.0, 10.000943, 9.955968 
4.3850526e+3, 1.9482422e+2, -1063373.0, -1097744.0, -1.8494998, 0.00018103213, -0.000039396553, -1063373.0, -32650.244, 0.0, 10.000938, 9.955625 
4.3850526e+3, 2.0477356e+2, -975217.44, -1019350.94, 0.7252403, 0.00018054234, 0.00008281288, -975217.44, -41998.156, 0.0, 10.000935, 9.942865 
4.3850526e+3, 2.1471646e+2, -876941.6, -921333.94, -1.877787, 0.00018042125, -0.00011005541, -876941.6, -41162.81, 0.0, 10.00093, 9.942524 
4.3850523e+3, 2.2465266e+2, -788664.25, -843074.56, 0.87341994, 0.00018007922, 0.00013736653, -788664.25, -50260.285, 0.0, 10.000926, 9.929484 
4.3850523e+3, 2.3458222e+2, -690242.25, -744904.44, -1.6370525, 0.00017948683, -0.00007524618, -690242.25, -49147.883, 0.0, 10.000922, 9.9291525 
4.3850523e+3, 2.4450482e+2, -601926.06, -666961.3, 0.73649096, 0.0001789488, 0.00008668332, -601926.06, -58073.184, 0.0, 10.000917, 9.915714 
4.3850523e+3, 2.5442067e+2, -503183.47, -568293.25, -1.5180978, 0.00017847556, -0.000094785464, -503183.47, -56505.816, 0.0, 10.000915, 9.915614 
4.3850523e+3, 2.643294e+2, -414956.4, -490944.56, 1.4181671, 0.00017801998, 0.00015198292, -414956.4, -65384.508, 0.0, 10.000911, 9.901544 
4.3850523e+3, 2.742315e+2, -315681.53, -391339.03, -1.1188662, 0.00017758635, -0.00019330798, -315681.53, -63150.176, 0.0, 10.000907, 9.901963 
4.3850517e+3, 2.8412536e+2, -229217.16, -318054.2, 1.1275809, 0.00017730956, 0.00023764846, -229217.16, -73645.695, 0.0, 10.000903, 9.885016 
4.3850517e+3, 2.9401144e+2, -129520.84, -217745.36, -1.2363575, 0.00017724682, -0.000246658, -129520.84, -70832.82, 0.0, 10.0009, 9.885795 
4.3850517e+3, 3.0392545e+2, -39788.176, -84732.32, 1.2979282, 0.00017690615, 0.00017852285, -39788.176, -39788.176, 0.0, 10.000897, 9.941752 
4.3850517e+3, 3.138691e+2, -38714.266, -82494.766, -0.44494578, 0.0001761513, -0.000050122, -38714.266, -38714.266, 0.0, 10.000895, 9.943265 
4.3950546e+3, 1.2500018e+2, -1718789.8, -1724165.6, 0.25847483, 0.00018773074, 0.00006924524, -1718789.8, -3791.285, 0.0, 10.00097, 9.993843 
4.3950546e+3, 1.3499387e+2, -1621422.3, -1627386.4, -2.4136279, 0.00018659493, -0.00010899036, -1621422.3, -4361.9556, 0.0, 10.000965, 9.99306 
4.3950543e+3, 1.4498104e+2, -1533291.3, -1548030.6, -0.019148063, 0.0001860494, 0.00015403992, -1533291.3, -14105.342, 0.0, 10.000961, 9.981426 
4.3950543e+3, 1.5496245e+2, -1435575.6, -1450715.0, -2.9438071, 0.00018609376, -0.000032582568, -1435575.6, -14207.515, 0.0, 10.000957, 9.980895 
4.3950543e+3, 1.6493726e+2, -1347536.4, -1371855.8, -0.6364617, 0.00018547455, 0.00005093519, -1347536.4, -23921.316, 0.0, 10.000952, 9.968809 
4.3950537e+3, 1.7490612e+2, -1249590.8, -1274222.4, -3.2264705, 0.00018417976, -0.000052336018, -1249590.8, -23670.514, 0.0, 10.000947, 9.968395 
4.3950537e+3, 1.8486834e+2, -1161517.0, -1195634.3, -0.7534614, 0.00018360808, 0.00009305359, -1161517.0, -33226.52, 0.0, 10.000943, 9.95596 
4.3950537e+3, 1.9482432e+2, -1063378.9, -1097755.4, -3.4617395, 0.00018379123, -0.000038398306, -1063378.9, -32657.13, 0.0, 10.000938, 9.955618 
4.3950537e+3, 2.0477366e+2, -975223.06, -1019362.06, -0.81168306, 0.00018364126, 0.00008396588, -975223.06, -42004.793, 0.0, 10.000935, 9.942858 
4.395053e+3, 2.1471655e+2, -876947.2, -921345.0, -3.4134815, 0.00018313079, -0.000109674846, -876947.2, -41169.3, 0.0, 10.000931, 9.942517 
4.395053e+3, 2.2465275e+2, -788669.7, -843085.5, -0.7718209, 0.00018237563, 0.00013756807, -788669.7, -50266.594, 0.0, 10.000926, 9.929477 
4.395053e+3, 2.3458229e+2, -690247.6, -744915.25, -3.2859075, 0.00018134357, -0.00007455215, -690247.6, -49154.055, 0.0, 10.000922, 9.929146 
4.395053e+3, 2.445049e+2, -601931.0, -666971.4, -0.6032063, 0.0001809559, 0.00008734591, -601931.0, -58078.848, 0.0, 10.000917, 9.915708 
4.395053e+3, 2.5442073e+2, -503188.34, -568303.2, -2.8456378, 0.00018133732, -0.00009478037, -503188.34, -56511.336, 0.0, 10.000915, 9.915608 
4.395053e+3, 2.6432946e+2, -414961.97, -490956.0, 0.03150507, 0.00018121158, 0.00015163723, -414961.97, -65390.668, 0.0, 10.000911, 9.901536 
4.3950528e+3, 2.7423155e+2, -315687.06, -391350.47, -2.5070064, 0.00018043854, -0.0001936127, -315687.06, -63156.234, 0.0, 10.000907, 9.901957 
4.3950528e+3, 2.841254e+2, -229222.47, -318065.25, -0.13446392, 0.00017992017, 0.00023794222, -229222.47, -73651.46, 0.0, 10.000904, 9.885009 
4.3950528e+3, 2.9401147e+2, -129526.08, -217756.33, -2.4855478, 0.00017975288, -0.00024500457, -129526.08, -70838.44, 0.0, 10.0009, 9.885788 
4.3950528e+3, 3.0392548e+2, -39792.58, -84741.59, 0.18134315, 0.00017930068, 0.0001799482, -39792.58, -39792.58, 0.0, 10.000897, 9.941747 
4.3950528e+3, 3.1386912e+2, -38718.58, -82503.85, -1.5509554, 0.00017842292, -0.000051289644, -38718.58, -38718.58, 0.0, 10.000895, 9.943258 
4.4050556e+3, 1.2500034e+2, -1718745.1, -1724150.6, 2.207974, 0.00019022317, 0.000069935064, -1718745.1, -3748.2327, 0.0, 10.001001, 9.993835 
4.4050556e+3, 1.3499403e+2, -1621378.0, -1627371.8, -0.94390804, 0.00018915137, -0.000108693544, -1621378.0, -4319.2754, 0.0, 10.000997, 9.9930525 
4.405055e+3, 1.449812e+2, -1533247.1, -1548015.5, 1.3742081, 0.00018859707, 0.00015433194, -1533247.1, -14062.669, 0.0, 10.000992, 9.98142 
4.405055e+3, 1.549626e+2, -1435532.1, -1450700.4, -1.1970786, 0.00018855954, -0.00003190568, -1435532.1, -14165.399, 0.0, 10.000987, 9.980887 
4.405055e+3, 1.6493739e+2, -1347493.4, -1371841.5, 1.0785666, 0.0001879027, 0.00005164062, -1347493.4, -23879.564, 0.0, 10.000983, 9.968802 
4.4050547e+3, 1.7490624e+2, -1249548.0, -1274208.5, -1.8615975, 0.00018661536, -0.00005196513, -1249548.0, -23628.936, 0.0, 10.000978, 9.968389 
4.4050547e+3, 1.8486845e+2, -1161474.4, -1195620.3, 0.58836544, 0.00018609366, 0.00009336695, -1161474.4, -33185.008, 0.0, 10.000974, 9.955954 
4.4050547e+3, 1.9482444e+2, -1063336.5, -1097741.8, -2.0925963, 0.00018637122, -0.000037852984, -1063336.5, -32615.898, 0.0, 10.000969, 9.95561 
4.4050547e+3, 2.0477375e+2, -975181.2, -1019348.75, 0.5711996, 0.00018618815, 0.00008454338, -975181.2, -41963.926, 0.0, 10.000965, 9.942851 
4.4050542e+3, 2.1471666e+2, -876906.0, -921332.1, -2.1087766, 0.00018550661, -0.000109281274, -876906.0, -41129.082, 0.0, 10.00096, 9.94251 
4.4050542e+3, 2.2465284e+2, -788628.8, -843072.75, 0.42207175, 0.00018475867, 0.00013796742, -788628.8, -50226.645, 0.0, 10.000957, 9.92947 
4.4050542e+3, 2.3458238e+2, -690207.06, -744902.75, -2.1295042, 0.00018393552, -0.00007393227, -690207.06, -49114.336, 0.0, 10.000952, 9.929139 
4.4050542e+3, 2.4450497e+2, -601890.9, -666959.3, 0.5795874, 0.00018361308, 0.00008786811, -601890.9, -58039.49, 0.0, 10.000948, 9.915701 
4.4050542e+3, 2.544208e+2, -503148.75, -568291.56, -2.1820846, 0.00018388804, -0.000094735864, -503148.75, -56472.44, 0.0, 10.000944, 9.915601 
4.405054e+3, 2.6432952e+2, -414922.63, -490944.34, 0.55817777, 0.00018375626, 0.00015151539, -414922.63, -65351.918, 0.0, 10.00094, 9.901529 
4.405054e+3, 2.742316e+2, -315648.0, -391339.06, -1.5591068, 0.00018310532, -0.0001935038, -315648.0, -63117.703, 0.0, 10.0009365, 9.901949 
4.405054e+3, 2.8412545e+2, -229183.53, -318053.94, 1.3172691, 0.00018260306, 0.00023842855, -229183.53, -73613.0, 0.0, 10.000933, 9.885002 
4.405054e+3, 2.940115e+2, -129487.39, -217745.23, -0.73586553, 0.0001823062, -0.00024394192, -129487.39, -70800.17, 0.0, 10.00093, 9.88578 
4.405054e+3, 3.039255e+2, -39754.61, -84731.6, 1.8235329, 0.00018180616, 0.00018079848, -39754.61, -39754.61, 0.0, 10.000927, 9.941739 
4.405054e+3, 3.1386915e+2, -38680.44, -82493.85, -0.90039486, 0.00018100328, -0.000051824616, -38680.44, -38680.44, 0.0, 10.000924, 9.943251 
4.4150567e+3, 1.250005e+2, -1718752.3, -1724164.3, 0.4818008, 0.00019287638, 0.00006937818, -1718752.3, -3757.0947, 0.0, 10.001001, 9.993828 
4.4150567e+3, 1.3499418e+2, -1621385.1, -1627385.3, -2.666721, 0.00019192726, -0.000107464984, -1621385.1, -4327.9834, 0.0, 10.000997, 9.993044 
4.415056e+3, 1.4498135e+2, -1533252.9, -1548026.5, -0.38757238, 0.00019119207, 0.0001558202, -1533252.9, -14069.915, 0.0, 10.000992, 9.981413 
4.415056e+3, 1.5496273e+2, -1435537.8, -1450711.3, -2.9617658, 0.00019066893, -0.000031689142, -1435537.8, -14172.508, 0.0, 10.000988, 9.980881 
4.415056e+3, 1.6493753e+2, -1347499.9, -1371854.0, -0.6888439, 0.00019019665, 0.000051540886, -1347499.9, -23887.383, 0.0, 10.000983, 9.968794 
4.4150558e+3, 1.7490637e+2, -1249554.4, -1274220.9, -3.6279209, 0.00018977684, -0.00005140759, -1249554.4, -23636.607, 0.0, 10.000978, 9.968381 
4.4150558e+3, 1.8486857e+2, -1161480.1, -1195631.6, -1.0538706, 0.00018930437, 0.000094000425, -1161480.1, -33192.05, 0.0, 10.000974, 9.955946 
4.4150558e+3, 1.9482456e+2, -1063342.3, -1097753.1, -3.734515, 0.00018877642, -0.00003775078, -1063342.3, -32622.797, 0.0, 10.000969, 9.955604 
4.4150558e+3, 2.0477387e+2, -975186.94, -1019360.2, -1.0842825, 0.00018819523, 0.00008455781, -975186.94, -41970.793, 0.0, 10.000965, 9.942843 
4.4150552e+3, 2.1471675e+2, -876911.75, -921343.5, -3.7641232, 0.0001875563, -0.00010887488, -876911.75, -41135.813, 0.0, 10.00096, 9.942503 
4.4150552e+3, 2.2465295e+2, -788634.4, -843083.8, -1.2444655, 0.00018722708, 0.00013856048, -788634.4, -50233.1, 0.0, 10.000957, 9.929462 
4.4150552e+3, 2.3458247e+2, -690212.56, -744913.75, -3.797378, 0.00018724772, -0.00007338476, -690212.56, -49120.645, 0.0, 10.000952, 9.9291315 
4.4150552e+3, 2.4450505e+2, -601896.8, -666971.4, -0.8354116, 0.00018690711, 0.00008825303, -601896.8, -58046.24, 0.0, 10.000948, 9.915693 
4.4150552e+3, 2.5442088e+2, -503154.7, -568303.6, -3.5829132, 0.0001861347, -0.000094652925, -503154.7, -56479.07, 0.0, 10.000944, 9.915593 
4.4150546e+3, 2.6432958e+2, -414927.47, -490954.3, -0.8435828, 0.00018566805, 0.00015161246, -414927.47, -65357.402, 0.0, 10.00094, 9.901523 
4.4150546e+3, 2.7423167e+2, -315652.72, -391348.8, -2.963362, 0.00018559111, -0.00019298999, -315652.72, -63122.996, 0.0, 10.0009365, 9.901942 
4.4150546e+3, 2.841255e+2, -229188.27, -318063.8, 0.043310624, 0.00018535725, 0.0002391036, -229188.27, -73618.266, 0.0, 10.000934, 9.884995 
4.4150546e+3, 2.9401156e+2, -129492.07, -217755.06, -1.9997526, 0.0001849063, -0.0002434572, -129492.07, -70805.305, 0.0, 10.00093, 9.885774 
4.4150546e+3, 3.0392554e+2, -39760.66, -84744.3, 0.75338167, 0.00018442071, 0.00018108616, -39760.66, -39760.66, 0.0, 10.000927, 9.9417305 
4.4150546e+3, 3.1386918e+2, -38686.66, -82506.9, -1.9432831, 0.00018388647, -0.0000517404, -38686.66, -38686.66, 0.0, 10.000924, 9.943242 
4.4250575e+3, 1.2500069e+2, -1718706.4, -1724148.5, 1.8687862, 0.00019548119, 0.000069289985, -1718706.4, -3712.9092, 0.0, 10.001034, 9.99382 
4.4250575e+3, 1.3499436e+2, -1621339.5, -1627369.9, -0.75178874, 0.00019456701, -0.000106422616, -1621339.5, -4284.01, 0.0, 10.001029, 9.993036 
4.4250572e+3, 1.4498152e+2, -1533207.6, -1548011.3, 1.4314768, 0.00019380619, 0.00015694763, -1533207.6, -14026.228, 0.0, 10.001024, 9.981405 
4.4250572e+3, 1.549629e+2, -1435493.4, -1450696.5, -1.686086, 0.00019319651, -0.000031526033, -1435493.4, -14129.508, 0.0, 10.0010195, 9.980873 
4.4250572e+3, 1.6493767e+2, -1347455.6, -1371839.5, 0.5080413, 0.00019277424, 0.000051515188, -1347455.6, -23844.594, 0.0, 10.001015, 9.968786 
4.4250566e+3, 1.749065e+2, -1249510.0, -1274206.4, -2.26227, 0.0001925436, -0.000050831957, -1249510.0, -23593.62, 0.0, 10.00101, 9.968373 
4.4250566e+3, 1.8486871e+2, -1161436.1, -1195617.4, 0.2977803, 0.00019206286, 0.0000947572, -1161436.1, -33149.23, 0.0, 10.001005, 9.955938 
4.4250566e+3, 1.9482468e+2, -1063299.1, -1097739.4, -2.593887, 0.00019132037, -0.000037251742, -1063299.1, -32580.84, 0.0, 10.001, 9.955596 
4.4250566e+3, 2.0477399e+2, -975144.4, -1019346.56, -0.015003855, 0.00019063376, 0.000084948784, -975144.4, -41929.355, 0.0, 10.000996, 9.942837 
4.4250563e+3, 2.1471685e+2, -876869.94, -921330.44, -2.6425018, 0.00019000744, -0.00010843003, -876869.94, -41095.063, 0.0, 10.000991, 9.942495 
4.4250563e+3, 2.2465305e+2, -788592.6, -843071.0, -0.0008537828, 0.00018977899, 0.00013897006, -788592.6, -50192.336, 0.0, 10.000987, 9.929456 
4.4250563e+3, 2.3458256e+2, -690170.0, -744900.6, -2.747608, 0.00019000005, -0.0000731113, -690170.0, -49078.99, 0.0, 10.000983, 9.929125 
4.4250563e+3, 2.4450514e+2, -601854.5, -666958.56, 0.23927785, 0.00018966066, 0.000088604065, -601854.5, -58004.73, 0.0, 10.000979, 9.915686 
4.4250563e+3, 2.5442094e+2, -503113.88, -568291.6, -2.1654208, 0.00018865155, -0.00009396907, -503113.88, -56439.016, 0.0, 10.000975, 9.9155855 
4.4250557e+3, 2.6432964e+2, -414887.25, -490942.3, 0.72798574, 0.00018809468, 0.00015236562, -414887.25, -65317.88, 0.0, 10.000971, 9.901516 
4.4250557e+3, 2.7423173e+2, -315612.72, -391337.03, -1.8416342, 0.00018811441, -0.0001925032, -315612.72, -63083.605, 0.0, 10.000967, 9.901936 
4.4250557e+3, 2.8412557e+2, -229148.22, -318052.06, 0.9290755, 0.00018793576, 0.00023921636, -229148.22, -73578.75, 0.0, 10.000963, 9.884989 
4.4250557e+3, 2.940116e+2, -129451.875, -217743.36, -1.4612652, 0.00018748236, -0.00024386433, -129451.875, -70765.58, 0.0, 10.00096, 9.885767 
4.4250557e+3, 3.039256e+2, -39721.28, -84733.914, 1.4827138, 0.00018698674, 0.00018083458, -39721.28, -39721.28, 0.0, 10.0009575, 9.941723 
4.4250557e+3, 3.138692e+2, -38647.68, -82496.8, -0.41799355, 0.00018643175, -0.000050831717, -38647.68, -38647.68, 0.0, 10.000955, 9.943234 
4.4350585e+3, 1.2500086e+2, -1718712.4, -1724159.8, 0.1382241, 0.00019803923, 0.00006965976, -1718712.4, -3720.6174, 0.0, 10.001034, 9.993813 
4.4350585e+3, 1.3499454e+2, -1621345.4, -1627381.0, -2.4847217, 0.00019707433, -0.000105561965, -1621345.4, -4291.595, 0.0, 10.001029, 9.99303 
4.4350582e+3, 1.4498167e+2, -1533214.5, -1548024.5, -0.45756343, 0.00019643968, 0.0001577227, -1533214.5, -14034.796, 0.0, 10.001024, 9.981397 
4.4350582e+3, 1.5496305e+2, -1435500.3, -1450709.8, -3.5744128, 0.00019613355, -0.000031415155, -1435500.3, -14137.905, 0.0, 10.0010195, 9.9808655 
4.4350582e+3, 1.6493782e+2, -1347461.8, -1371851.3, -1.1698122, 0.00019562963, 0.000051561787, -1347461.8, -23852.107, 0.0, 10.001015, 9.96878 
4.4350576e+3, 1.7490664e+2, -1249516.0, -1274218.0, -3.9398277, 0.00019492496, -0.000050238457, -1249516.0, -23600.998, 0.0, 10.00101, 9.968366 
4.4350576e+3, 1.8486884e+2, -1161442.4, -1195629.6, -1.5101786, 0.00019437978, 0.00009563476, -1161442.4, -33156.81, 0.0, 10.001005, 9.955931 
4.4350576e+3, 1.948248e+2, -1063305.4, -1097751.5, -4.4027596, 0.00019400065, -0.00003636461, -1063305.4, -32588.264, 0.0, 10.001, 9.955588 
4.4350576e+3, 2.0477411e+2, -975150.06, -1019357.8, -1.7991596, 0.00019349475, 0.000085707994, -975150.06, -41936.188, 0.0, 10.000996, 9.942829 
4.435057e+3, 2.1471699e+2, -876875.56, -921341.56, -4.428154, 0.00019285164, -0.00010794738, -876875.56, -41101.742, 0.0, 10.000992, 9.942489 
4.435057e+3, 2.2465315e+2, -788598.56, -843082.8, -1.4193758, 0.00019241305, 0.00013920036, -788598.56, -50199.246, 0.0, 10.000987, 9.929448 
4.435057e+3, 2.3458266e+2, -690175.8, -744912.4, -4.1538105, 0.00019220545, -0.0000731059, -690175.8, -49085.77, 0.0, 10.000983, 9.929117 
4.435057e+3, 2.4450521e+2, -601859.8, -666969.3, -1.4731514, 0.00019188624, 0.00008892201, -601859.8, -58010.906, 0.0, 10.000979, 9.915679 
4.435057e+3, 2.5442103e+2, -503119.1, -568302.3, -3.8934438, 0.00019143325, -0.000092697104, -503119.1, -56445.03, 0.0, 10.000975, 9.915579 
4.4350567e+3, 2.6432973e+2, -414892.9, -490953.9, -0.69360214, 0.00019102535, 0.00015376094, -414892.9, -65324.246, 0.0, 10.000971, 9.901508 
4.4350567e+3, 2.7423182e+2, -315618.3, -391348.63, -3.2421777, 0.00019067487, -0.00019204267, -315618.3, -63089.848, 0.0, 10.000967, 9.901928 
4.4350567e+3, 2.8412563e+2, -229153.67, -318063.4, -0.25225118, 0.00019034291, 0.00023877904, -229153.67, -73584.766, 0.0, 10.000963, 9.884981 
4.4350567e+3, 2.9401165e+2, -129457.24, -217754.61, -2.6229498, 0.00019003551, -0.0002451442, -129457.24, -70771.43, 0.0, 10.00096, 9.885759 
4.4350567e+3, 3.0392563e+2, -39726.074, -84744.0, 0.3481288, 0.00018950588, 0.00018005533, -39726.074, -39726.074, 0.0, 10.0009575, 9.941716 
4.4350567e+3, 3.1386924e+2, -38652.414, -82506.766, -1.5501442, 0.0001886469, -0.000049116003, -38652.414, -38652.414, 0.0, 10.000955, 9.943228 
4.4450596e+3, 1.2500104e+2, -1718664.4, -1724142.8, 2.2335086, 0.00020074756, 0.00007036576, -1718664.4, -3674.3452, 0.0, 10.001067, 9.993805 
4.4450596e+3, 1.349947e+2, -1621298.8, -1627365.0, -0.84965235, 0.0001996998, -0.00010522451, -1621298.8, -4246.6694, 0.0, 10.001062, 9.993022 
4.4450596e+3, 1.4498185e+2, -1533168.8, -1548009.6, 1.0685456, 0.00019908955, 0.0001580107, -1533168.8, -13990.674, 0.0, 10.001057, 9.981389 
4.445059e+3, 1.5496321e+2, -1435454.0, -1450694.6, -1.9492384, 0.0001989154, -0.00003085647, -1435454.0, -14093.265, 0.0, 10.001053, 9.980857 
4.445059e+3, 1.6493797e+2, -1347415.4, -1371835.6, 0.44092378, 0.00019840998, 0.000052145024, -1347415.4, -23807.287, 0.0, 10.001048, 9.968772 
4.445059e+3, 1.749068e+2, -1249471.0, -1274203.3, -2.4714665, 0.00019756785, -0.000049881306, -1249471.0, -23557.436, 0.0, 10.001042, 9.968358 
4.4450587e+3, 1.8486898e+2, -1161398.1, -1195615.4, -0.0536193, 0.00019696023, 0.000096023105, -1161398.1, -33113.902, 0.0, 10.001038, 9.955923 
4.4450587e+3, 1.9482493e+2, -1063261.1, -1097737.5, -2.8783658, 0.00019659699, -0.000035676367, -1063261.1, -32545.361, 0.0, 10.001033, 9.955581 
4.4450587e+3, 2.0477423e+2, -975105.7, -1019343.75, -0.32682335, 0.00019620126, 0.00008633951, -975105.7, -41892.99, 0.0, 10.001028, 9.9428215 
4.445058e+3, 2.1471709e+2, -876830.75, -921327.44, -3.3237126, 0.00019577022, -0.000107758206, -876830.75, -41058.082, 0.0, 10.001024, 9.942481 
4.445058e+3, 2.2465324e+2, -788554.5, -843069.0, -0.43269792, 0.00019520195, 0.00013935547, -788554.5, -50156.223, 0.0, 10.0010195, 9.9294405 
4.445058e+3, 2.3458275e+2, -690134.0, -744899.8, -3.1244035, 0.00019447834, -0.000072523144, -690134.0, -49044.883, 0.0, 10.001015, 9.92911 
4.445058e+3, 2.4450532e+2, -601818.25, -666956.6, -0.39476252, 0.00019407604, 0.000089575726, -601818.25, -57970.254, 0.0, 10.00101, 9.915671 
4.445058e+3, 2.5442111e+2, -503076.34, -568289.1, -2.9950185, 0.00019405707, -0.00009239854, -503076.34, -56403.11, 0.0, 10.001006, 9.915571 
4.4450575e+3, 2.643298e+2, -414849.94, -490941.1, 0.22643997, 0.00019381454, 0.00015391922, -414849.94, -65282.023, 0.0, 10.001003, 9.901501 
4.4450575e+3, 2.7423188e+2, -315575.94, -391336.25, -2.2604835, 0.00019328656, -0.00019175034, -315575.94, -63048.164, 0.0, 10.0009985, 9.90192 
4.4450575e+3, 2.8412572e+2, -229112.03, -318051.47, 0.9040276, 0.00019283367, 0.00023917787, -229112.03, -73543.73, 0.0, 10.000995, 9.884974 
4.4450575e+3, 2.940117e+2, -129416.75, -217743.34, -1.4947524, 0.00019248438, -0.00024467788, -129416.75, -70731.47, 0.0, 10.000992, 9.885752 
4.4450575e+3, 3.039257e+2, -39686.316, -84732.66, 1.4556117, 0.00019195623, 0.00018038729, -39686.316, -39686.316, 0.0, 10.000988, 9.941709 
4.4450575e+3, 3.1386927e+2, -38612.96, -82495.5, -0.58962834, 0.00019116259, -0.00004921751, -38612.96, -38612.96, 0.0, 10.000985, 9.94322 
4.4550607e+3, 1.2500124e+2, -1718671.4, -1724156.1, 0.22589062, 0.0002036035, 0.000071400544, -1718671.4, -3683.231, 0.0, 10.001067, 9.993797 
4.4550607e+3, 1.349949e+2, -1621305.8, -1627378.1, -2.8571305, 0.00020244118, -0.00010539812, -1621305.8, -4255.382, 0.0, 10.001062, 9.993013 
4.4550607e+3, 1.4498203e+2, -1533175.5, -1548022.4, -0.6584513, 0.0002017559, 0.00015782296, -1533175.5, -13999.082, 0.0, 10.001058, 9.98138 
4.45506e+3, 1.5496337e+2, -1435460.6, -1450707.5, -3.6754851, 0.00020154634, -0.000029860035, -1435460.6, -14101.532, 0.0, 10.001053, 9.980849 
4.45506e+3, 1.6493812e+2, -1347421.8, -1371847.9, -1.4952366, 0.00020111777, 0.00005325281, -1347421.8, -23815.21, 0.0, 10.001048, 9.968764 
4.45506e+3, 1.7490694e+2, -1249477.4, -1274215.5, -4.4097805, 0.00020046683, -0.00004975499, -1249477.4, -23565.197, 0.0, 10.001042, 9.96835 
4.4550595e+3, 1.8486911e+2, -1161404.3, -1195627.4, -1.8260038, 0.00019979863, 0.00009593358, -1161404.3, -33121.4, 0.0, 10.001038, 9.955915 
4.4550595e+3, 1.9482507e+2, -1063267.3, -1097749.4, -4.649959, 0.00019911185, -0.000035182165, -1063267.3, -32552.715, 0.0, 10.001033, 9.955573 
4.4550595e+3, 2.0477435e+2, -975112.1, -1019356.44, -1.9611036, 0.00019875742, 0.00008684652, -975112.1, -41900.664, 0.0, 10.001028, 9.942814 
4.4550595e+3, 2.1471721e+2, -876837.1, -921340.06, -4.9538746, 0.00019876225, -0.000107855776, -876837.1, -41065.605, 0.0, 10.001024, 9.942472 
4.4550592e+3, 2.2465336e+2, -788560.3, -843080.75, -2.3181386, 0.00019814294, 0.0001394371, -788560.3, -50163.14, 0.0, 10.0010195, 9.929433 
4.4550592e+3, 2.3458286e+2, -690139.75, -744911.44, -5.018359, 0.00019681761, -0.00007137596, -690139.75, -49051.64, 0.0, 10.001015, 9.929102 
4.4550592e+3, 2.4450542e+2, -601823.94, -666968.1, -1.7856653, 0.00019623122, 0.00009055775, -601823.94, -57976.836, 0.0, 10.00101, 9.915664 
4.4550592e+3, 2.5442117e+2, -503081.94, -568300.5, -4.3637486, 0.00019652715, -0.000093051414, -503081.94, -56409.54, 0.0, 10.001007, 9.915564 
4.4550586e+3, 2.6432988e+2, -414855.5, -490952.5, -1.2563573, 0.0001964662, 0.00015286835, -414855.5, -65288.355, 0.0, 10.001003, 9.901493 
4.4550586e+3, 2.7423194e+2, -315581.44, -391347.6, -3.7498705, 0.00019594897, -0.00019162233, -315581.44, -63054.36, 0.0, 10.0009985, 9.901913 
4.4550586e+3, 2.8412578e+2, -229117.53, -318062.94, -0.49904662, 0.00019540676, 0.00024039422, -229117.53, -73549.87, 0.0, 10.000995, 9.884966 
4.4550586e+3, 2.9401177e+2, -129422.19, -217754.75, -2.8890164, 0.00019483184, -0.00024250436, -129422.19, -70737.48, 0.0, 10.000992, 9.885744 
4.4550586e+3, 3.0392572e+2, -39691.367, -84743.305, 0.21983196, 0.0001943399, 0.00018180565, -39691.367, -39691.367, 0.0, 10.000988, 9.941702 
4.4550586e+3, 3.1386933e+2, -38617.98, -82506.08, -1.8112744, 0.0001939725, -0.000051095452, -38617.98, -38617.98, 0.0, 10.000985, 9.943213 
4.465062e+3, 1.2500143e+2, -1718622.8, -1724139.6, 1.8444191, 0.00020623609, 0.000071873445, -1718622.8, -3636.494, 0.0, 10.0011015, 9.993789 
4.4650614e+3, 1.3499507e+2, -1621256.8, -1627361.5, -1.2885289, 0.0002053224, -0.000105061044, -1621256.8, -4208.1465, 0.0, 10.001097, 9.993005 
4.4650614e+3, 1.4498219e+2, -1533126.6, -1548005.6, 0.9678914, 0.00020464996, 0.00015817597, -1533126.6, -13951.956, 0.0, 10.001092, 9.981373 
4.4650614e+3, 1.5496355e+2, -1435413.3, -1450691.6, -2.0092766, 0.00020421656, -0.000029338744, -1435413.3, -14055.801, 0.0, 10.001086, 9.980842 
4.465061e+3, 1.6493827e+2, -1347375.0, -1371832.6, 0.07812049, 0.00020374065, 0.000053818465, -1347375.0, -23770.049, 0.0, 10.001081, 9.968756 
4.465061e+3, 1.7490709e+2, -1249430.4, -1274200.3, -3.0622418, 0.00020322217, -0.000049271235, -1249430.4, -23519.75, 0.0, 10.001077, 9.968342 
4.465061e+3, 1.8486926e+2, -1161357.3, -1195611.9, -0.62478215, 0.00020263018, 0.0000963031, -1161357.3, -33075.87, 0.0, 10.001072, 9.955908 
4.4650605e+3, 1.9482522e+2, -1063221.0, -1097734.4, -3.6477084, 0.00020196087, -0.000034960576, -1063221.0, -32507.8, 0.0, 10.001066, 9.9555645 
4.4650605e+3, 2.0477448e+2, -975066.75, -1019342.1, -0.8740921, 0.00020146286, 0.000087059394, -975066.75, -41856.51, 0.0, 10.001061, 9.942805 
4.4650605e+3, 2.1471733e+2, -876792.8, -921326.44, -3.6700895, 0.00020114996, -0.00010750113, -876792.8, -41022.46, 0.0, 10.001057, 9.942465 
4.46506e+3, 2.2465347e+2, -788515.94, -843066.8, -0.98179394, 0.00020056822, 0.00013990355, -788515.94, -50119.84, 0.0, 10.001052, 9.929425 
4.46506e+3, 2.3458296e+2, -690094.56, -744897.25, -3.7429335, 0.00019968212, -0.00007083158, -690094.56, -49007.49, 0.0, 10.001048, 9.929094 
4.46506e+3, 2.4450551e+2, -601779.25, -666954.6, -0.48070672, 0.00019913174, 0.00009106819, -601779.25, -57933.094, 0.0, 10.001043, 9.915656 
4.46506e+3, 2.544213e+2, -503038.84, -568287.94, -3.403797, 0.00019898206, -0.00009270839, -503038.84, -56367.336, 0.0, 10.001039, 9.915556 
4.46506e+3, 2.6433e+2, -414812.8, -490939.6, -0.36154407, 0.0001987373, 0.00015308477, -414812.8, -65246.5, 0.0, 10.001035, 9.901485 
4.4650596e+3, 2.7423203e+2, -315538.88, -391334.8, -2.7023282, 0.0001983704, -0.0001914802, -315538.88, -63012.543, 0.0, 10.001031, 9.901906 
4.4650596e+3, 2.8412583e+2, -229075.1, -318050.38, 0.79655844, 0.00019793841, 0.00024067148, -229075.1, -73508.09, 0.0, 10.001027, 9.884959 
4.4650596e+3, 2.9401183e+2, -129379.94, -217742.44, -1.41473, 0.00019741736, -0.00024180573, -129379.94, -70695.82, 0.0, 10.001023, 9.885737 
4.4650596e+3, 3.0392578e+2, -39649.98, -84732.47, 1.6206958, 0.00019700153, 0.00018245325, -39649.98, -39649.98, 0.0, 10.00102, 9.941693 
4.4650596e+3, 3.1386936e+2, -38576.375, -82495.24, -1.2078618, 0.00019674379, -0.000051202827, -38576.375, -38576.375, 0.0, 10.001018, 9.943205 
4.475063e+3, 1.2500162e+2, -1718629.9, -1724153.1, -0.004197536, 0.00020865131, 0.00007179812, -1718629.9, -3645.5674, 0.0, 10.0011015, 9.99378 
4.475063e+3, 1.3499525e+2, -1621263.8, -1627375.0, -3.1363773, 0.00020834096, -0.00010422533, -1621263.8, -4217.068, 0.0, 10.001097, 9.992997 
4.4750625e+3, 1.4498238e+2, -1533133.3, -1548018.4, -1.044722, 0.00020776707, 0.00015905699, -1533133.3, -13960.367, 0.0, 10.001092, 9.981365 
4.4750625e+3, 1.5496372e+2, -1435419.9, -1450704.3, -4.023769, 0.0002069257, -0.000029281096, -1435419.9, -14064.051, 0.0, 10.001086, 9.980833 
4.475062e+3, 1.6493845e+2, -1347381.9, -1371845.9, -1.7507774, 0.0002062812, 0.000053855118, -1347381.9, -23778.54, 0.0, 10.001081, 9.968748 
4.475062e+3, 1.7490725e+2, -1249437.3, -1274213.4, -4.8891697, 0.00020583798, -0.000048438356, -1249437.3, -23528.09, 0.0, 10.001077, 9.968334 
4.475062e+3, 1.8486941e+2, -1161363.9, -1195624.8, -2.497654, 0.00020545583, 0.00009712084, -1161363.9, -33083.88, 0.0, 10.001072, 9.9559 
4.4750616e+3, 1.9482535e+2, -1063227.4, -1097747.1, -5.521587, 0.00020513688, -0.00003500519, -1063227.4, -32515.643, 0.0, 10.001066, 9.955557 
4.4750616e+3, 2.0477462e+2, -975072.75, -1019354.06, -2.7088492, 0.00020431461, 0.00008698512, -975072.75, -41863.848, 0.0, 10.001061, 9.942798 
4.4750616e+3, 2.1471745e+2, -876798.75, -921338.25, -5.5053434, 0.00020294808, -0.00010670471, -876798.75, -41029.652, 0.0, 10.001057, 9.942457 
4.4750616e+3, 2.246536e+2, -788521.9, -843078.7, -2.6293077, 0.00020249054, 0.00014074601, -788521.9, -50126.94, 0.0, 10.001052, 9.929418 
4.475061e+3, 2.3458306e+2, -690100.44, -744909.06, -5.38535, 0.00020306035, -0.00007087567, -690100.44, -49014.438, 0.0, 10.001048, 9.929087 
4.475061e+3, 2.4450561e+2, -601785.56, -666967.5, -2.1872551, 0.00020276086, 0.000091118316, -601785.56, -57940.434, 0.0, 10.001043, 9.9156475 
4.475061e+3, 2.5442138e+2, -503045.13, -568300.8, -5.11078, 0.00020142268, -0.000091392634, -503045.13, -56374.543, 0.0, 10.0010395, 9.915547 
4.475061e+3, 2.6433006e+2, -414818.16, -490950.53, -1.8352469, 0.00020063725, 0.00015453888, -414818.16, -65252.664, 0.0, 10.001035, 9.901479 
4.4750604e+3, 2.742321e+2, -315544.06, -391345.56, -4.163985, 0.00020055698, -0.00019132426, -315544.06, -63018.504, 0.0, 10.001031, 9.901898 
4.4750604e+3, 2.841259e+2, -229080.27, -318061.16, -0.5927287, 0.00020043025, 0.00024003167, -229080.27, -73513.96, 0.0, 10.001027, 9.884952 
4.4750604e+3, 2.940119e+2, -129385.04, -217753.16, -2.798766, 0.00020023603, -0.00024254729, -129385.04, -70701.55, 0.0, 10.001023, 9.88573 
4.4750604e+3, 3.0392584e+2, -39656.383, -84745.92, 0.45144486, 0.00019993533, 0.00018234833, -39656.383, -39656.383, 0.0, 10.00102, 9.941685 
4.4750604e+3, 3.1386942e+2, -38582.94, -82509.03, -2.3456929, 0.00019947799, -0.00004958088, -38582.94, -38582.94, 0.0, 10.001018, 9.943195 
4.4850639e+3, 1.2500183e+2, -1718578.9, -1724135.4, 1.9211113, 0.00021162641, 0.0000722339, -1718578.9, -3596.6123, 0.0, 10.001138, 9.9937725 
4.4850639e+3, 1.3499545e+2, -1621213.9, -1627357.9, -1.160062, 0.00021102393, -0.00010344921, -1621213.9, -4169.0435, 0.0, 10.001132, 9.992989 
4.4850636e+3, 1.4498256e+2, -1533083.9, -1548001.8, 0.7657211, 0.00021039514, 0.00015979153, -1533083.9, -13912.721, 0.0, 10.001127, 9.981357 
4.4850636e+3, 1.549639e+2, -1435370.3, -1450687.6, -2.5370858, 0.00020973674, -0.000028971375, -1435370.3, -14016.268, 0.0, 10.0011215, 9.980825 
4.4850636e+3, 1.6493861e+2, -1347332.6, -1371829.4, -0.28482535, 0.00020911799, 0.00005406912, -1347332.6, -23730.906, 0.0, 10.001117, 9.9687395 
4.485063e+3, 1.7490742e+2, -1249388.9, -1274197.5, -3.2786937, 0.0002085405, -0.000047984857, -1249388.9, -23481.342, 0.0, 10.001111, 9.968326 
4.485063e+3, 1.8486957e+2, -1161316.1, -1195609.4, -0.82266533, 0.00020810861, 0.0000976783, -1161316.1, -33037.688, 0.0, 10.001106, 9.955892 
4.485063e+3, 1.9482549e+2, -1063180.0, -1097732.1, -3.9563317, 0.00020782815, -0.000034485347, -1063180.0, -32469.646, 0.0, 10.0011015, 9.955548 
4.4850624e+3, 2.0477475e+2, -975025.6, -1019338.9, -1.3449908, 0.00020703457, 0.00008742829, -975025.6, -41818.047, 0.0, 10.001096, 9.94279 
4.4850624e+3, 2.1471758e+2, -876752.56, -921323.7, -4.3746433, 0.00020568607, -0.00010638035, -876752.56, -40984.707, 0.0, 10.001091, 9.942449 
4.4850624e+3, 2.2465372e+2, -788476.2, -843064.5, -1.4267466, 0.00020519867, 0.00014095014, -788476.2, -50082.43, 0.0, 10.001086, 9.92941 
4.485062e+3, 2.3458318e+2, -690054.94, -744895.06, -4.3669677, 0.00020568457, -0.00007079341, -690054.94, -48970.04, 0.0, 10.001081, 9.929078 
4.485062e+3, 2.4450572e+2, -601740.25, -666953.6, -1.1868002, 0.00020538326, 0.00009133915, -601740.25, -57896.16, 0.0, 10.001078, 9.91564 
4.485062e+3, 2.5442147e+2, -503000.34, -568287.3, -3.7080781, 0.0002041412, -0.000090722366, -503000.34, -56330.723, 0.0, 10.001073, 9.91554 
4.485062e+3, 2.6433015e+2, -414773.94, -490937.53, -0.25505713, 0.00020334571, 0.00015529778, -414773.94, -65209.348, 0.0, 10.001068, 9.90147 
4.485062e+3, 2.7423218e+2, -315500.63, -391333.06, -3.1753676, 0.00020312023, -0.0001909363, -315500.63, -62975.86, 0.0, 10.001064, 9.901891 
4.4850615e+3, 2.8412598e+2, -229036.94, -318048.38, 0.08361757, 0.00020296666, 0.00024004222, -229036.94, -73471.36, 0.0, 10.00106, 9.884944 
4.4850615e+3, 2.9401195e+2, -129341.88, -217740.53, -2.3733704, 0.00020290817, -0.00024292093, -129341.88, -70659.04, 0.0, 10.001057, 9.885722 
4.4850615e+3, 3.039259e+2, -39614.15, -84734.39, 1.2560328, 0.00020263079, 0.00018226527, -39614.15, -39614.15, 0.0, 10.001053, 9.941676 
4.4850615e+3, 3.1386945e+2, -38541.27, -82497.83, -0.50412506, 0.00020202837, -0.0000483712, -38541.27, -38541.27, 0.0, 10.001049, 9.943188 
4.4950655e+3, 1.2500204e+2, -1718586.0, -1724148.6, -0.10102877, 0.00021514817, 0.000073168216, -1718586.0, -3605.6682, 0.0, 10.001138, 9.993764 
4.495065e+3, 1.3499565e+2, -1621220.8, -1627371.1, -3.183066, 0.00021338026, -0.00010273093, -1621220.8, -4177.9375, 0.0, 10.001132, 9.99298 
4.495065e+3, 1.4498276e+2, -1533091.1, -1548015.8, -1.1735109, 0.00021254699, 0.00016038351, -1533091.1, -13921.952, 0.0, 10.001127, 9.981348 
4.4950643e+3, 1.5496407e+2, -1435377.6, -1450701.6, -4.4758744, 0.00021264798, -0.000028415696, -1435377.6, -14025.329, 0.0, 10.0011215, 9.980816 
4.4950643e+3, 1.649388e+2, -1347339.1, -1371842.0, -2.2801263, 0.00021224453, 0.000054456188, -1347339.1, -23739.16, 0.0, 10.001117, 9.968732 
4.4950643e+3, 1.7490758e+2, -1249395.4, -1274210.1, -5.275937, 0.00021132824, -0.000047901158, -1249395.4, -23489.441, 0.0, 10.001111, 9.968318 
4.495064e+3, 1.8486972e+2, -1161322.9, -1195622.6, -2.7040238, 0.00021059337, 0.0000979822, -1161322.9, -33046.01, 0.0, 10.001106, 9.955883 
4.495064e+3, 1.9482563e+2, -1063186.8, -1097745.3, -5.8352976, 0.00021004729, -0.00003341459, -1063186.8, -32477.818, 0.0, 10.0011015, 9.95554 
4.495064e+3, 2.047749e+2, -975032.1, -1019351.8, -3.3439121, 0.00020962676, 0.000088376444, -975032.1, -41825.957, 0.0, 10.001096, 9.942781 
4.4950634e+3, 2.1471772e+2, -876759.0, -921336.5, -6.3769627, 0.00020934171, -0.00010651638, -876759.0, -40992.438, 0.0, 10.001091, 9.942441 
4.4950634e+3, 2.2465384e+2, -788482.5, -843077.2, -3.0635154, 0.00020867406, 0.00014053166, -788482.5, -50089.99, 0.0, 10.001086, 9.929401 
4.4950634e+3, 2.345833e+2, -690061.2, -744907.75, -5.991278, 0.00020757367, -0.00007058785, -690061.2, -48977.45, 0.0, 10.001081, 9.92907 
4.495063e+3, 2.4450582e+2, -601745.8, -666964.94, -2.956909, 0.00020702402, 0.00009172656, -601745.8, -57902.805, 0.0, 10.001078, 9.915632 
4.495063e+3, 2.544216e+2, -503005.8, -568298.5, -5.487952, 0.00020713158, -0.00009068168, -503005.8, -56337.184, 0.0, 10.001073, 9.915532 
4.495063e+3, 2.6433024e+2, -414780.34, -490950.63, -1.8559802, 0.00020684386, 0.00015537869, -414780.34, -65216.65, 0.0, 10.001068, 9.901462 
4.495063e+3, 2.7423227e+2, -315507.0, -391346.22, -4.7616544, 0.00020605166, -0.00019032173, -315507.0, -62983.06, 0.0, 10.001064, 9.901882 
4.495063e+3, 2.8412604e+2, -229042.67, -318060.3, -1.2932698, 0.00020554716, 0.00024068741, -229042.67, -73477.84, 0.0, 10.00106, 9.884936 
4.4950625e+3, 2.94012e+2, -129347.484, -217752.3, -3.7318337, 0.00020543799, -0.0002429358, -129347.484, -70665.31, 0.0, 10.001057, 9.885715 
4.4950625e+3, 3.0392596e+2, -39618.87, -84744.36, -0.029217035, 0.00020509431, 0.00018220338, -39618.87, -39618.87, 0.0, 10.001053, 9.941669 
4.4950625e+3, 3.138695e+2, -38545.9, -82507.6, -1.7854979, 0.00020439988, -0.000047563208, -38545.9, -38545.9, 0.0, 10.001049, 9.943181 
4.5050663e+3, 1.2500225e+2, -1718533.8, -1724130.5, 1.8408035, 0.00021802398, 0.00007390482, -1718533.8, -3555.5173, 0.0, 10.001174, 9.993755 
4.5050663e+3, 1.3499586e+2, -1621168.6, -1627353.1, -1.4477928, 0.00021622115, -0.00010240177, -1621168.6, -4127.8623, 0.0, 10.001169, 9.992972 
4.505066e+3, 1.4498295e+2, -1533039.6, -1547998.5, 0.49092612, 0.00021534822, 0.00016068098, -1533039.6, -13872.37, 0.0, 10.0011635, 9.981339 
4.505066e+3, 1.5496427e+2, -1435326.8, -1450684.9, -2.80721, 0.00021540478, -0.000027773114, -1435326.8, -13976.333, 0.0, 10.001159, 9.980807 
4.5050654e+3, 1.6493899e+2, -1347288.6, -1371825.0, -0.7940301, 0.00021500776, 0.00005509382, -1347288.6, -23690.309, 0.0, 10.001153, 9.968723 
4.5050654e+3, 1.7490774e+2, -1249345.4, -1274193.5, -4.0840154, 0.00021414968, -0.00004762493, -1249345.4, -23441.102, 0.0, 10.001147, 9.968309 
4.5050654e+3, 1.8486989e+2, -1161273.5, -1195606.4, -1.5266645, 0.00021335471, 0.00009816644, -1161273.5, -32998.22, 0.0, 10.001142, 9.955875 
4.505065e+3, 1.9482578e+2, -1063138.4, -1097729.6, -4.514289, 0.00021262505, -0.00003304104, -1063138.4, -32431.014, 0.0, 10.001137, 9.955532 
4.505065e+3, 2.0477504e+2, -974984.2, -1019336.8, -1.9329597, 0.00021229692, 0.00008881362, -974984.2, -41779.42, 0.0, 10.001131, 9.942773 
4.505065e+3, 2.1471785e+2, -876710.3, -921321.3, -5.149443, 0.00021240265, -0.00010615151, -876710.3, -40945.105, 0.0, 10.001126, 9.942432 
4.5050645e+3, 2.2465396e+2, -788434.25, -843061.9, -1.9193745, 0.00021172517, 0.00014091069, -788434.25, -50042.996, 0.0, 10.0011215, 9.929394 
4.5050645e+3, 2.3458342e+2, -690015.44, -744893.8, -4.7752, 0.000210162, -0.00007009682, -690015.44, -48932.883, 0.0, 10.001116, 9.929062 
4.5050645e+3, 2.4450594e+2, -601700.94, -666951.4, -1.6613412, 0.00020949845, 0.00009211557, -601700.94, -57858.99, 0.0, 10.001111, 9.915625 
4.505064e+3, 2.5442168e+2, -502960.16, -568284.7, -4.650129, 0.00020990893, -0.00009065014, -502960.16, -56292.55, 0.0, 10.001106, 9.9155245 
4.505064e+3, 2.6433036e+2, -414734.6, -490937.16, -1.0823808, 0.00020976644, 0.000155382, -414734.6, -65171.867, 0.0, 10.001102, 9.901454 
4.505064e+3, 2.7423236e+2, -315461.88, -391333.2, -3.5977557, 0.00020891789, -0.00018992728, -315461.88, -62938.8, 0.0, 10.001098, 9.901874 
4.505064e+3, 2.8412613e+2, -228998.13, -318047.4, 0.20854789, 0.00020832988, 0.00024134271, -228998.13, -73434.09, 0.0, 10.001094, 9.884929 
4.505064e+3, 2.9401213e+2, -129304.164, -217740.08, -2.2851143, 0.00020810096, -0.0002422, -129304.164, -70622.7, 0.0, 10.001089, 9.885707 
4.5050636e+3, 3.0392602e+2, -39576.387, -84732.48, 1.2296767, 0.00020770494, 0.00018268691, -39576.387, -39576.387, 0.0, 10.001085, 9.941662 
4.5050636e+3, 3.1386957e+2, -38503.273, -82495.625, -1.2994392, 0.0002070587, -0.000047824014, -38503.273, -38503.273, 0.0, 10.001082, 9.943173 
4.5150673e+3, 1.2500247e+2, -1718541.3, -1724144.6, -0.15531918, 0.00022027135, 0.000074449075, -1718541.3, -3565.1443, 0.0, 10.001174, 9.993747 
4.5150673e+3, 1.3499607e+2, -1621176.1, -1627367.3, -3.444407, 0.00021953502, -0.00010245157, -1621176.1, -4137.3145, 0.0, 10.001169, 9.992963 
4.5150673e+3, 1.4498316e+2, -1533047.0, -1548012.5, -1.5428544, 0.00021878295, 0.00016069165, -1533047.0, -13881.674, 0.0, 10.0011635, 9.98133 
4.515067e+3, 1.5496446e+2, -1435334.0, -1450698.9, -4.8401937, 0.00021801177, -0.000027045551, -1435334.0, -13985.476, 0.0, 10.001159, 9.980799 
4.515067e+3, 1.6493917e+2, -1347295.8, -1371839.0, -2.8660343, 0.0002174177, 0.00005597586, -1347295.8, -23699.303, 0.0, 10.001153, 9.968715 
4.5150664e+3, 1.7490792e+2, -1249352.5, -1274207.4, -6.155843, 0.0002170048, -0.000047161044, -1249352.5, -23449.922, 0.0, 10.001147, 9.968301 
4.5150664e+3, 1.8487005e+2, -1161280.0, -1195619.0, -3.5978856, 0.00021638643, 0.000098234064, -1161280.0, -33006.31, 0.0, 10.001142, 9.955867 
4.5150664e+3, 1.9482596e+2, -1063144.8, -1097742.3, -6.5880723, 0.00021555294, -0.00003334682, -1063144.8, -32438.941, 0.0, 10.001137, 9.955524 
4.5150658e+3, 2.047752e+2, -974991.06, -1019350.44, -3.6999147, 0.00021504369, 0.00008875304, -974991.06, -41787.78, 0.0, 10.001131, 9.942764 
4.5150658e+3, 2.1471798e+2, -876717.1, -921334.9, -6.9082417, 0.00021488479, -0.000105298226, -876717.1, -40953.32, 0.0, 10.001126, 9.942424 
4.5150658e+3, 2.246541e+2, -788440.44, -843074.3, -4.087473, 0.00021436364, 0.00014206729, -788440.44, -50050.51, 0.0, 10.0011215, 9.929385 
4.5150656e+3, 2.3458356e+2, -690021.56, -744906.1, -6.9581347, 0.00021343262, -0.00006932717, -690021.56, -48940.21, 0.0, 10.001116, 9.929054 
4.5150656e+3, 2.4450606e+2, -601707.4, -666964.44, -3.218813, 0.00021278611, 0.00009250645, -601707.4, -57866.586, 0.0, 10.001111, 9.915616 
4.5150656e+3, 2.544218e+2, -502966.56, -568297.75, -6.177157, 0.00021247922, -0.00009062757, -502966.56, -56300.01, 0.0, 10.001106, 9.915516 
4.515065e+3, 2.6433045e+2, -414740.3, -490948.9, -2.7425873, 0.00021212862, 0.00015530952, -414740.3, -65178.566, 0.0, 10.001102, 9.901446 
4.515065e+3, 2.7423245e+2, -315467.47, -391344.78, -5.268648, 0.00021172133, -0.00018974728, -315467.47, -62945.31, 0.0, 10.001098, 9.901866 
4.515065e+3, 2.8412622e+2, -229003.9, -318059.44, -1.4093322, 0.00021131047, 0.00024200825, -229003.9, -73440.7, 0.0, 10.001094, 9.88492 
4.515065e+3, 2.940122e+2, -129309.88, -217752.1, -3.8976789, 0.00021089434, -0.00024073166, -129309.88, -70629.18, 0.0, 10.001089, 9.885699 
4.515065e+3, 3.0392608e+2, -39582.453, -84745.26, -0.0495806, 0.00021045958, 0.00018370262, -39582.453, -39582.453, 0.0, 10.001085, 9.941653 
4.515065e+3, 3.1386963e+2, -38509.4, -82508.516, -2.5398884, 0.00020999838, -0.00004912746, -38509.395, -38509.395, 0.0, 10.001082, 9.943165 
4.5250687e+3, 1.250027e+2, -1718487.1, -1724126.0, 1.7097371, 0.00022319099, 0.00007512257, -1718487.1, -3513.315, 0.0, 10.001212, 9.993738 
4.5250684e+3, 1.349963e+2, -1621122.4, -1627348.9, -1.7316154, 0.00022248096, -0.00010207999, -1621122.4, -4085.7227, 0.0, 10.001207, 9.992954 
4.5250684e+3, 1.4498335e+2, -1532993.6, -1547994.3, 0.017729593, 0.00022168337, 0.00016099932, -1532993.6, -13830.323, 0.0, 10.001202, 9.981321 
4.5250678e+3, 1.5496466e+2, -1435281.6, -1450681.1, -3.2119215, 0.00022079446, -0.00002656315, -1435281.6, -13935.04, 0.0, 10.001196, 9.98079 
4.5250678e+3, 1.6493934e+2, -1347244.0, -1371821.9, -1.149956, 0.00022018503, 0.000056598496, -1347244.0, -23649.432, 0.0, 10.00119, 9.968706 
4.5250678e+3, 1.7490812e+2, -1249301.1, -1274190.5, -4.4257483, 0.000219861, -0.0000464333, -1249301.1, -23400.309, 0.0, 10.001184, 9.968292 
4.5250675e+3, 1.8487023e+2, -1161228.9, -1195602.3, -2.0751984, 0.00021932616, 0.000098820696, -1161228.9, -32956.84, 0.0, 10.001179, 9.955858 
4.5250675e+3, 1.9482611e+2, -1063094.1, -1097725.9, -5.4827228, 0.00021857063, -0.000033158303, -1063094.1, -32389.904, 0.0, 10.001173, 9.955516 
4.5250675e+3, 2.0477535e+2, -974941.4, -1019334.44, -2.5391743, 0.00021792046, 0.00008890981, -974941.4, -41739.613, 0.0, 10.001167, 9.942757 
4.525067e+3, 2.1471813e+2, -876669.4, -921320.0, -5.4783154, 0.00021738412, -0.00010477718, -876669.4, -40906.977, 0.0, 10.001162, 9.942415 
4.525067e+3, 2.2465424e+2, -788392.9, -843059.7, -2.634158, 0.00021695682, 0.00014267094, -788392.9, -50004.3, 0.0, 10.001157, 9.929377 
4.525067e+3, 2.3458368e+2, -689972.5, -744890.8, -5.775594, 0.00021665236, -0.00006895943, -689972.5, -48892.445, 0.0, 10.001152, 9.929046 
4.5250663e+3, 2.4450618e+2, -601658.7, -666949.56, -2.0006073, 0.00021610191, 0.00009281409, -601658.7, -57819.074, 0.0, 10.001147, 9.915607 
4.5250663e+3, 2.5442192e+2, -502920.3, -568284.25, -4.8980885, 0.00021525756, -0.00009016997, -502920.3, -56254.875, 0.0, 10.001142, 9.915507 
4.5250663e+3, 2.6433054e+2, -414695.1, -490935.6, -1.4042786, 0.00021468122, 0.00015575733, -414695.1, -65134.367, 0.0, 10.001137, 9.901438 
4.5250663e+3, 2.7423254e+2, -315422.3, -391331.6, -4.2149987, 0.0002144461, -0.00018951295, -315422.3, -62901.1, 0.0, 10.001132, 9.901858 
4.525066e+3, 2.841263e+2, -228958.55, -318046.13, -0.4089362, 0.00021416739, 0.0002421954, -228958.55, -73396.2, 0.0, 10.001128, 9.8849125 
4.525066e+3, 2.9401228e+2, -129264.35, -217738.81, -2.8327236, 0.00021382676, -0.00024036336, -129264.35, -70584.44, 0.0, 10.001124, 9.885691 
4.525066e+3, 3.0392617e+2, -39537.957, -84733.555, 1.2079101, 0.00021339007, 0.00018414008, -39537.957, -39537.957, 0.0, 10.001121, 9.941645 
4.525066e+3, 3.1386968e+2, -38465.53, -82497.234, -1.3320824, 0.00021281258, -0.000048789054, -38465.53, -38465.53, 0.0, 10.001117, 9.943156 
4.5350698e+3, 1.2500292e+2, -1718495.0, -1724140.9, -0.29355675, 0.00022676567, 0.00007592204, -1718495.0, -3523.382, 0.0, 10.001212, 9.993729 
4.5350698e+3, 1.349965e+2, -1621130.1, -1627363.6, -3.7345617, 0.00022506955, -0.000101298065, -1621130.1, -4095.6196, 0.0, 10.001207, 9.992945 
4.5350695e+3, 1.4498356e+2, -1533000.9, -1548008.0, -2.1822014, 0.00022406458, 0.00016159625, -1533000.9, -13839.566, 0.0, 10.001202, 9.981313 
4.5350695e+3, 1.5496486e+2, -1435288.8, -1450694.8, -5.413954, 0.00022374908, -0.000026319272, -1435288.8, -13944.112, 0.0, 10.001196, 9.980782 
4.5350695e+3, 1.6493954e+2, -1347251.3, -1371835.6, -3.239488, 0.00022330103, 0.000056968853, -1347251.3, -23658.479, 0.0, 10.00119, 9.968698 
4.535069e+3, 1.749083e+2, -1249308.1, -1274204.4, -6.5147595, 0.00022271897, -0.00004544823, -1249308.1, -23409.195, 0.0, 10.001184, 9.968284 
4.535069e+3, 1.848704e+2, -1161236.3, -1195616.6, -4.204144, 0.00022217716, 0.00009991301, -1161236.3, -32965.92, 0.0, 10.001179, 9.95585 
4.5350683e+3, 1.9482628e+2, -1063101.4, -1097740.1, -7.6110234, 0.00022167669, -0.00003248842, -1063101.4, -32398.81, 0.0, 10.001173, 9.955506 
4.5350683e+3, 2.047755e+2, -974947.75, -1019347.06, -4.6978087, 0.00022092469, 0.00008927825, -974947.75, -41747.504, 0.0, 10.001167, 9.942748 
4.5350683e+3, 2.147183e+2, -876675.6, -921332.5, -7.6404834, 0.00021990071, -0.00010457937, -876675.6, -40914.695, 0.0, 10.001162, 9.942408 
4.535068e+3, 2.2465439e+2, -788399.6, -843073.1, -4.3984537, 0.00021950643, 0.00014273643, -788399.6, -50012.41, 0.0, 10.001157, 9.929368 
4.535068e+3, 2.3458381e+2, -689979.2, -744904.25, -7.5260763, 0.0002198235, -0.00006898307, -689979.2, -48900.41, 0.0, 10.001152, 9.929037 
4.535068e+3, 2.445063e+2, -601665.06, -666962.56, -4.0629115, 0.00021944611, 0.00009304069, -601665.06, -57826.676, 0.0, 10.001147, 9.915599 
4.5350674e+3, 2.5442204e+2, -502926.63, -568297.06, -6.975334, 0.00021823919, -0.00008928823, -502926.6, -56262.3, 0.0, 10.001142, 9.9155 
4.5350674e+3, 2.6433066e+2, -414701.34, -490948.44, -3.0566545, 0.0002174198, 0.00015671231, -414701.34, -65141.67, 0.0, 10.001137, 9.90143 
4.5350674e+3, 2.7423263e+2, -315428.5, -391344.34, -5.839567, 0.00021709484, -0.00018922557, -315428.5, -62908.24, 0.0, 10.001132, 9.90185 
4.5350674e+3, 2.841264e+2, -228964.27, -318058.06, -1.9202831, 0.00021690455, 0.00024191647, -228964.27, -73402.81, 0.0, 10.001128, 9.884905 
4.5350668e+3, 2.9401234e+2, -129269.96, -217750.58, -4.335109, 0.00021689541, -0.00024106674, -129269.96, -70590.86, 0.0, 10.001124, 9.885683 
4.5350668e+3, 3.0392623e+2, -39544.14, -84746.58, -0.18964691, 0.00021649268, 0.00018401434, -39544.14, -39544.14, 0.0, 10.001121, 9.941635 
4.5350668e+3, 3.1386974e+2, -38471.793, -82510.414, -2.7146037, 0.00021550515, -0.000046850593, -38471.793, -38471.793, 0.0, 10.001117, 9.943147 
4.5450714e+3, 1.2500316e+2, -1718438.4, -1724121.1, 1.9231845, 0.00022984778, 0.000076533164, -1718438.4, -3469.0066, 0.0, 10.001252, 9.993719 
4.5450708e+3, 1.3499674e+2, -1621075.1, -1627345.0, -1.5516055, 0.00022797336, -0.000100501886, -1621075.1, -4042.8591, 0.0, 10.001246, 9.992936 
4.5450708e+3, 1.449838e+2, -1532946.6, -1547989.5, -0.19314842, 0.0002269535, 0.00016233858, -1532946.6, -13787.429, 0.0, 10.00124, 9.981304 
4.5450702e+3, 1.5496507e+2, -1435234.6, -1450676.6, -3.759461, 0.00022678694, -0.000025870444, -1435234.6, -13892.094, 0.0, 10.001234, 9.980773 
4.5450702e+3, 1.6493975e+2, -1347197.4, -1371817.5, -1.7389028, 0.00022632928, 0.00005728907, -1347197.4, -23606.646, 0.0, 10.001228, 9.968688 
4.5450702e+3, 1.7490847e+2, -1249255.4, -1274186.8, -5.0520153, 0.00022557622, -0.000045088735, -1249255.4, -23358.22, 0.0, 10.001223, 9.968275 
4.54507e+3, 1.8487057e+2, -1161184.3, -1195599.9, -2.6907258, 0.00022500081, 0.00010039583, -1161184.3, -32915.707, 0.0, 10.001217, 9.95584 
4.54507e+3, 1.9482647e+2, -1063050.0, -1097723.9, -5.9780226, 0.0002246101, -0.000031794618, -1063050.0, -32349.08, 0.0, 10.00121, 9.955498 
4.5450693e+3, 2.0477566e+2, -974896.5, -1019330.56, -3.2269752, 0.00022394341, 0.00008993708, -974896.5, -41697.86, 0.0, 10.0012045, 9.9427395 
4.5450693e+3, 2.1471845e+2, -876624.8, -921316.4, -6.6271353, 0.00022297825, -0.00010422131, -876624.8, -40865.402, 0.0, 10.001199, 9.942399 
4.5450693e+3, 2.2465453e+2, -788349.6, -843057.44, -3.303749, 0.00022248775, 0.00014297829, -788349.6, -49963.848, 0.0, 10.001193, 9.929359 
4.5450687e+3, 2.3458396e+2, -689930.7, -744889.5, -6.3173003, 0.00022253343, -0.000068648784, -689930.7, -48853.273, 0.0, 10.001188, 9.9290285 
4.5450687e+3, 2.4450642e+2, -601617.06, -666948.0, -2.8856049, 0.00022216128, 0.00009343638, -601617.06, -57779.93, 0.0, 10.001183, 9.91559 
4.5450687e+3, 2.5442213e+2, -502878.22, -568282.5, -5.8315263, 0.00022128971, -0.000088868364, -502878.22, -56215.09, 0.0, 10.001178, 9.915491 
4.5450684e+3, 2.6433077e+2, -414653.28, -490934.25, -1.7308698, 0.00022055637, 0.000157146, -414653.28, -65094.69, 0.0, 10.001173, 9.901422 
4.5450684e+3, 2.7423272e+2, -315381.6, -391330.9, -4.6122108, 0.00021999968, -0.0001887911, -315381.6, -62862.344, 0.0, 10.001168, 9.901841 
4.5450684e+3, 2.841265e+2, -228917.88, -318044.47, -0.6647016, 0.000219677, 0.00024223013, -228917.88, -73357.36, 0.0, 10.0011635, 9.884896 
4.5450684e+3, 2.9401243e+2, -129224.22, -217737.42, -3.2711015, 0.00021967282, -0.00024104021, -129224.22, -70545.96, 0.0, 10.001159, 9.885675 
4.5450684e+3, 3.0392632e+2, -39499.324, -84734.29, 1.0226092, 0.00021928182, 0.00018412738, -39499.324, -39499.324, 0.0, 10.001155, 9.9416275 
4.5450678e+3, 3.1386983e+2, -38427.105, -82498.23, -1.0874354, 0.00021831486, -0.00004609445, -38427.105, -38427.105, 0.0, 10.001151, 9.943138 
4.5550722e+3, 1.250034e+2, -1718446.3, -1724136.1, -0.41125867, 0.00023245206, 0.000076961485, -1718446.3, -3479.2659, 0.0, 10.001252, 9.9937105 
4.5550722e+3, 1.3499697e+2, -1621083.0, -1627359.9, -3.8858442, 0.00023118455, -0.00009969152, -1621083.0, -4052.9346, 0.0, 10.001246, 9.992927 
4.555072e+3, 1.44984e+2, -1532954.5, -1548004.8, -2.3748426, 0.00023033688, 0.0001632226, -1532954.5, -13797.525, 0.0, 10.00124, 9.981295 
4.555072e+3, 1.5496528e+2, -1435242.5, -1450691.8, -5.9408865, 0.00022990658, -0.000025222052, -1435242.5, -13902.009, 0.0, 10.001234, 9.980763 
4.555072e+3, 1.6493994e+2, -1347204.6, -1371831.5, -3.9817972, 0.00022927308, 0.000057560654, -1347204.6, -23615.863, 0.0, 10.001228, 9.968679 
4.5550713e+3, 1.7490868e+2, -1249262.5, -1274200.6, -7.2966185, 0.00022843367, -0.000045337678, -1249262.5, -23367.266, 0.0, 10.001223, 9.968266 
4.5550713e+3, 1.8487078e+2, -1161191.3, -1195613.8, -4.891157, 0.00022779866, 0.000100285935, -1161191.3, -32924.613, 0.0, 10.001217, 9.955832 
4.5550707e+3, 1.9482663e+2, -1063057.0, -1097737.6, -8.178105, 0.00022737632, -0.000031077085, -1063057.0, -32357.82, 0.0, 10.001211, 9.955488 
4.5550707e+3, 2.0477584e+2, -974903.8, -1019345.0, -5.4258585, 0.00022697706, 0.00009087882, -974903.8, -41706.793, 0.0, 10.0012045, 9.94273 
4.5550704e+3, 2.147186e+2, -876632.0, -921330.7, -8.824758, 0.00022660258, -0.000103707294, -876632.0, -40874.156, 0.0, 10.001199, 9.9423895 
4.5550704e+3, 2.2465467e+2, -788356.1, -843070.56, -5.3628144, 0.00022589, 0.00014339174, -788356.1, -49971.84, 0.0, 10.001193, 9.929351 
4.5550704e+3, 2.345841e+2, -689937.1, -744902.44, -8.373415, 0.00022479512, -0.00006796594, -689937.1, -48861.09, 0.0, 10.001188, 9.92902 
4.5550698e+3, 2.4450657e+2, -601623.44, -666961.0, -4.804781, 0.00022426486, 0.00009399689, -601623.44, -57787.65, 0.0, 10.001183, 9.915583 
4.5550698e+3, 2.5442228e+2, -502884.56, -568295.44, -7.745114, 0.00022440814, -0.000088897876, -502884.56, -56222.64, 0.0, 10.001178, 9.9154825 
4.5550698e+3, 2.6433086e+2, -414659.72, -490947.53, -3.5846572, 0.0002240812, 0.0001570725, -414659.72, -65102.277, 0.0, 10.001173, 9.901412 
4.5550698e+3, 2.7423283e+2, -315387.97, -391344.13, -6.4611807, 0.00022315452, -0.00018821318, -315387.97, -62869.773, 0.0, 10.001168, 9.901833 
4.5550692e+3, 2.8412658e+2, -228923.97, -318057.2, -2.2855165, 0.00022248445, 0.0002431209, -228923.97, -73364.414, 0.0, 10.0011635, 9.884889 
4.5550692e+3, 2.9401252e+2, -129230.2, -217750.0, -4.871526, 0.00022216738, -0.00024030311, -129230.2, -70552.836, 0.0, 10.001159, 9.885667 
4.5550692e+3, 3.0392638e+2, -39504.863, -84745.984, -0.4065814, 0.00022176649, 0.00018447291, -39504.863, -39504.863, 0.0, 10.001155, 9.941619 
4.5550692e+3, 3.138699e+2, -38432.605, -82509.83, -2.499998, 0.00022123934, -0.000046488956, -38432.605, -38432.605, 0.0, 10.001151, 9.9431305 
4.5650738e+3, 1.2500365e+2, -1718389.3, -1724116.3, 1.6523782, 0.00023533353, 0.00007764422, -1718389.3, -3424.6682, 0.0, 10.001292, 9.993701 
4.5650738e+3, 1.349972e+2, -1621025.5, -1627340.0, -1.8778352, 0.00023431006, -0.00009935893, -1621025.5, -3997.8037, 0.0, 10.0012865, 9.992917 
4.5650733e+3, 1.4498423e+2, -1532897.5, -1547985.4, -0.43749475, 0.00023353421, 0.00016356775, -1532897.5, -13742.716, 0.0, 10.001281, 9.981285 
4.5650733e+3, 1.549655e+2, -1435186.6, -1450673.1, -4.0438437, 0.00023300292, -0.000024500952, -1435186.6, -13848.21, 0.0, 10.001274, 9.980754 
4.5650727e+3, 1.6494015e+2, -1347149.4, -1371813.0, -2.2800636, 0.00023232223, 0.000058298403, -1347149.4, -23562.682, 0.0, 10.001268, 9.968671 
4.5650727e+3, 1.7490888e+2, -1249208.4, -1274182.9, -5.835714, 0.00023149038, -0.00004494893, -1249208.4, -23315.117, 0.0, 10.001262, 9.968257 
4.5650724e+3, 1.8487096e+2, -1161137.8, -1195596.1, -3.4638598, 0.00023080625, 0.00010057029, -1161137.8, -32872.953, 0.0, 10.001255, 9.955823 
4.5650724e+3, 1.9482681e+2, -1063004.1, -1097720.4, -6.803023, 0.00023027556, -0.000030641837, -1063004.1, -32306.682, 0.0, 10.001249, 9.95548 
4.5650718e+3, 2.0477602e+2, -974851.4, -1019328.4, -3.9647217, 0.00022990278, 0.00009142491, -974851.4, -41656.074, 0.0, 10.001244, 9.942721 
4.5650718e+3, 2.1471876e+2, -876579.9, -921314.4, -7.2240005, 0.00022970047, -0.0001030937, -876579.9, -40823.645, 0.0, 10.001237, 9.94238 
4.5650718e+3, 2.2465482e+2, -788304.5, -843054.25, -3.7744546, 0.00022898063, 0.0001440025, -788304.5, -49921.69, 0.0, 10.001231, 9.929342 
4.5650712e+3, 2.3458424e+2, -689886.75, -744886.94, -7.026124, 0.00022767566, -0.00006743746, -689886.75, -48812.133, 0.0, 10.001225, 9.929011 
4.5650712e+3, 2.445067e+2, -601573.8, -666945.94, -3.413877, 0.00022706392, 0.00009442129, -601573.8, -57739.36, 0.0, 10.00122, 9.915573 
4.5650712e+3, 2.544224e+2, -502835.3, -568280.7, -6.5127964, 0.00022727938, -0.000088603534, -502835.3, -56174.664, 0.0, 10.001215, 9.915474 
4.565071e+3, 2.6433098e+2, -414610.78, -490932.94, -2.3526688, 0.00022700882, 0.00015733491, -414610.78, -65054.504, 0.0, 10.001209, 9.901403 
4.565071e+3, 2.7423298e+2, -315339.53, -391329.94, -5.132554, 0.00022611803, -0.00018785778, -315339.53, -62822.434, 0.0, 10.0012045, 9.901824 
4.565071e+3, 2.8412667e+2, -228876.03, -318043.16, -0.73484707, 0.00022542222, 0.00024359651, -228876.03, -73317.484, 0.0, 10.0012, 9.88488 
4.565071e+3, 2.940126e+2, -129183.27, -217736.6, -3.3343594, 0.00022499516, -0.00023967071, -129183.27, -70506.83, 0.0, 10.001195, 9.885658 
4.5650703e+3, 3.039265e+2, -39459.063, -84733.45, 1.089583, 0.00022452022, 0.00018493827, -39459.063, -39459.063, 0.0, 10.00119, 9.94161 
4.5650703e+3, 3.1386998e+2, -38387.094, -82497.46, -1.512287, 0.0002239733, -0.000046671306, -38387.094, -38387.094, 0.0, 10.001186, 9.943122 
4.5750752e+3, 1.250039e+2, -1718397.3, -1724131.5, -0.505501, 0.00023848494, 0.00007857423, -1718397.3, -3435.1462, 0.0, 10.001292, 9.993691 
4.5750746e+3, 1.3499744e+2, -1621033.5, -1627355.1, -4.03806, 0.00023735338, -0.00009949026, -1621033.5, -4008.104, 0.0, 10.0012865, 9.992908 
4.5750746e+3, 1.4498447e+2, -1532905.5, -1548000.8, -2.809235, 0.00023655192, 0.00016338966, -1532905.5, -13753.006, 0.0, 10.001281, 9.981276 
4.5750743e+3, 1.5496573e+2, -1435194.5, -1450688.4, -6.414199, 0.00023607757, -0.000023708872, -1435194.5, -13858.321, 0.0, 10.001274, 9.980744 
4.5750743e+3, 1.6494037e+2, -1347157.1, -1371828.0, -4.719543, 0.00023547458, 0.00005948942, -1347157.1, -23572.535, 0.0, 10.001268, 9.968661 
4.5750737e+3, 1.7490909e+2, -1249216.0, -1274197.8, -8.275356, 0.00023474163, -0.000043940214, -1249216.0, -23324.783, 0.0, 10.001262, 9.968247 
4.5750737e+3, 1.8487115e+2, -1161145.0, -1195610.1, -5.7380247, 0.00023401852, 0.00010123796, -1161145.0, -32882.06, 0.0, 10.001255, 9.955813 
4.575073e+3, 1.9482699e+2, -1063011.3, -1097734.5, -9.077056, 0.00023330498, -0.00003048089, -1063011.1, -32315.611, 0.0, 10.001249, 9.955471 
4.575073e+3, 2.0477618e+2, -974858.4, -1019342.25, -6.1654415, 0.00023272443, 0.00009158662, -974858.4, -41664.8, 0.0, 10.001244, 9.942713 
4.575073e+3, 2.1471894e+2, -876586.8, -921328.1, -9.424002, 0.00023228742, -0.000102382866, -876586.8, -40832.203, 0.0, 10.001238, 9.942371 
4.5750728e+3, 2.24655e+2, -788311.5, -843068.3, -6.075033, 0.00023176918, 0.00014480548, -788311.5, -49930.258, 0.0, 10.001231, 9.929334 
4.5750728e+3, 2.3458439e+2, -689893.6, -744900.9, -9.329611, 0.00023115875, -0.00006705883, -689893.6, -48820.52, 0.0, 10.001225, 9.929003 
4.5750722e+3, 2.4450684e+2, -601580.56, -666959.7, -5.3707066, 0.00023053994, 0.000094713505, -601580.56, -57747.496, 0.0, 10.00122, 9.915565 
4.5750722e+3, 2.5442255e+2, -502842.0, -568294.3, -8.453163, 0.00022991096, -0.0000879941, -502841.97, -56182.633, 0.0, 10.001215, 9.915464 
4.5750722e+3, 2.643311e+2, -414617.06, -490945.9, -4.2634206, 0.00022935646, 0.0001579242, -414617.06, -65062.016, 0.0, 10.001209, 9.901396 
4.5750722e+3, 2.7423307e+2, -315345.72, -391342.78, -7.0427566, 0.00022889633, -0.00018771857, -315345.72, -62829.754, 0.0, 10.0012045, 9.901815 
4.5750716e+3, 2.841268e+2, -228882.16, -318055.94, -2.5353544, 0.00022848755, 0.00024366869, -228882.16, -73324.66, 0.0, 10.0012, 9.8848715 
4.5750716e+3, 2.9401273e+2, -129189.305, -217749.3, -5.124797, 0.00022814775, -0.00023913973, -129189.305, -70513.83, 0.0, 10.001195, 9.88565 
4.5750716e+3, 3.039266e+2, -39465.5, -84747.02, -0.4201343, 0.00022753635, 0.0001855205, -39465.5, -39465.5, 0.0, 10.00119, 9.941602 
4.5750716e+3, 3.1387004e+2, -38393.594, -82511.16, -2.9885623, 0.0002265227, -0.00004664738, -38393.59, -38393.59, 0.0, 10.001186, 9.943112 
4.5850763e+3, 1.2500416e+2, -1718336.5, -1724110.5, 1.8605986, 0.00024185347, 0.00007942212, -1718336.5, -3376.9878, 0.0, 10.001335, 9.993682 
4.5850763e+3, 1.349977e+2, -1620974.9, -1627335.4, -2.0695617, 0.00024047136, -0.00009913146, -1620974.9, -3951.9475, 0.0, 10.001328, 9.992898 
4.5850757e+3, 1.449847e+2, -1532847.8, -1547980.9, -1.0042483, 0.00023954715, 0.00016366092, -1532847.8, -13697.576, 0.0, 10.001322, 9.981266 
4.5850757e+3, 1.5496595e+2, -1435137.4, -1450669.0, -4.4677653, 0.00023907803, -0.000023122768, -1435137.4, -13803.49, 0.0, 10.001315, 9.980735 
4.585075e+3, 1.6494058e+2, -1347100.5, -1371809.1, -2.7123682, 0.00023855566, 0.000060237217, -1347100.5, -23518.047, 0.0, 10.001308, 9.968652 
4.585075e+3, 1.749093e+2, -1249159.5, -1274179.1, -6.291934, 0.0002379801, -0.000043186534, -1249159.5, -23270.383, 0.0, 10.001302, 9.968238 
4.5850748e+3, 1.8487135e+2, -1161089.0, -1195591.8, -3.861724, 0.00023726528, 0.00010188344, -1161089.0, -32828.098, 0.0, 10.001296, 9.955805 
4.5850748e+3, 1.948272e+2, -1062956.6, -1097716.9, -7.4627733, 0.00023640448, -0.000030062693, -1062956.6, -32262.912, 0.0, 10.001288, 9.9554615 
4.5850748e+3, 2.0477636e+2, -974804.6, -1019324.94, -4.620708, 0.00023568234, 0.000091961156, -974804.6, -41612.883, 0.0, 10.001283, 9.942703 
4.5850742e+3, 2.1471912e+2, -876534.06, -921311.5, -8.013468, 0.00023510988, -0.00010185357, -876534.06, -40781.137, 0.0, 10.001276, 9.942363 
4.5850742e+3, 2.2465515e+2, -788259.06, -843051.94, -4.6885047, 0.00023464716, 0.00014534601, -788259.06, -49879.438, 0.0, 10.00127, 9.929324 
4.5850736e+3, 2.3458456e+2, -689841.06, -744884.6, -7.9311576, 0.000234308, -0.000066669294, -689841.06, -48769.44, 0.0, 10.001265, 9.928993 
4.5850736e+3, 2.4450698e+2, -601528.44, -666943.7, -3.8367693, 0.00023368982, 0.00009509418, -601528.44, -57696.816, 0.0, 10.001259, 9.915556 
4.5850736e+3, 2.5442266e+2, -502791.44, -568279.25, -6.946548, 0.00023273834, -0.000087452536, -502791.44, -56133.43, 0.0, 10.001252, 9.915456 
4.5850733e+3, 2.6433128e+2, -414567.38, -490931.16, -2.7044277, 0.00023206364, 0.00015846503, -414567.38, -65013.582, 0.0, 10.001246, 9.901386 
4.5850733e+3, 2.742332e+2, -315296.5, -391328.38, -5.6978946, 0.00023174126, -0.0001873843, -315296.5, -62781.703, 0.0, 10.001242, 9.901807 
4.5850733e+3, 2.8412688e+2, -228833.03, -318041.38, -1.187501, 0.00023142088, 0.00024391236, -228833.03, -73276.625, 0.0, 10.001237, 9.884863 
4.5850733e+3, 2.940128e+2, -129140.56, -217735.03, -3.761081, 0.00023110077, -0.00023882712, -129140.56, -70466.1, 0.0, 10.001232, 9.885641 
4.5850727e+3, 3.0392668e+2, -39418.152, -84734.375, 1.1305943, 0.00023044882, 0.0001858896, -39418.152, -39418.152, 0.0, 10.001227, 9.941592 
4.5850727e+3, 3.1387016e+2, -38347.14, -82499.03, -1.3582448, 0.0002293059, -0.00004624142, -38347.14, -38347.14, 0.0, 10.001223, 9.943104 
4.5950776e+3, 1.2500443e+2, -1718345.5, -1724127.4, -0.7159898, 0.00024543388, 0.000080190825, -1718345.5, -3388.513, 0.0, 10.001335, 9.993671 
4.5950776e+3, 1.3499793e+2, -1620983.6, -1627352.1, -4.6436667, 0.0002436627, -0.00009829679, -1620983.6, -3963.2654, 0.0, 10.001328, 9.9928875 
4.595077e+3, 1.4498496e+2, -1532855.4, -1547995.6, -3.4608023, 0.00024252138, 0.0001643684, -1532855.4, -13707.638, 0.0, 10.001322, 9.981257 
4.595077e+3, 1.5496619e+2, -1435145.0, -1450683.8, -6.9273624, 0.00024200739, -0.000022736316, -1435145.0, -13813.378, 0.0, 10.001315, 9.980725 
4.5950767e+3, 1.649408e+2, -1347108.4, -1371824.3, -5.123752, 0.00024156856, 0.000060555172, -1347108.4, -23528.05, 0.0, 10.001308, 9.968642 
4.5950767e+3, 1.7490952e+2, -1249167.3, -1274194.1, -8.70313, 0.00024120719, -0.00004268007, -1249167.3, -23280.209, 0.0, 10.001302, 9.968228 
4.595076e+3, 1.8487157e+2, -1161096.8, -1195607.0, -6.3893013, 0.00024054653, 0.000102507714, -1161096.8, -32837.875, 0.0, 10.001296, 9.955795 
4.595076e+3, 1.948274e+2, -1062964.3, -1097732.0, -9.991057, 0.00023957294, -0.000029394361, -1062964.3, -32272.502, 0.0, 10.001289, 9.955452 
4.5950755e+3, 2.0477656e+2, -974811.94, -1019339.4, -6.9794188, 0.00023877344, 0.000092542614, -974811.94, -41621.992, 0.0, 10.001283, 9.942695 
4.5950755e+3, 2.1471928e+2, -876541.2, -921325.8, -10.369126, 0.00023816188, -0.00010150044, -876541.2, -40790.063, 0.0, 10.001276, 9.942353 
4.5950752e+3, 2.2465533e+2, -788266.0, -843065.94, -6.879916, 0.00023761284, 0.00014563181, -788266.0, -49888.066, 0.0, 10.00127, 9.929316 
4.5950752e+3, 2.345847e+2, -689847.94, -744898.5, -10.118191, 0.00023713397, -0.000066268905, -689847.94, -48777.9, 0.0, 10.001265, 9.928985 
4.5950752e+3, 2.4450713e+2, -601535.25, -666957.5, -6.094411, 0.00023652386, 0.0000955611, -601535.25, -57705.11, 0.0, 10.001259, 9.915546 
4.5950747e+3, 2.544228e+2, -502798.16, -568293.0, -9.20798, 0.00023575677, -0.0000869766, -502798.16, -56141.547, 0.0, 10.001252, 9.915447 
4.5950747e+3, 2.643314e+2, -414574.06, -490944.97, -4.679916, 0.00023512084, 0.0001589591, -414574.06, -65021.586, 0.0, 10.001246, 9.901378 
4.5950747e+3, 2.742333e+2, -315303.13, -391342.13, -7.654238, 0.0002346517, -0.00018686031, -315303.13, -62789.54, 0.0, 10.001242, 9.901797 
4.5950744e+3, 2.8412703e+2, -228839.17, -318054.2, -3.0154445, 0.0002342268, 0.00024432284, -228839.17, -73283.89, 0.0, 10.001237, 9.884854 
4.5950744e+3, 2.9401293e+2, -129146.58, -217747.69, -5.578626, 0.00023386073, -0.00023872656, -129146.58, -70473.164, 0.0, 10.001232, 9.8856325 
4.5950744e+3, 3.039268e+2, -39424.484, -84747.734, -0.5745154, 0.00023326144, 0.00018605184, -39424.484, -39424.484, 0.0, 10.001227, 9.941584 
4.5950744e+3, 3.1387025e+2, -38353.52, -82512.49, -3.0501184, 0.00023231702, -0.000045463832, -38353.52, -38353.52, 0.0, 10.001223, 9.943094 
4.605079e+3, 1.250047e+2, -1718284.0, -1724106.3, 1.6078186, 0.0002485685, 0.000080652084, -1718284.0, -3329.688, 0.0, 10.001378, 9.993661 
4.6050787e+3, 1.3499822e+2, -1620922.6, -1627331.4, -2.0962055, 0.00024690604, -0.00009734928, -1620922.6, -3904.7908, 0.0, 10.001371, 9.992877 
4.6050787e+3, 1.449852e+2, -1532794.9, -1547974.8, -1.0049093, 0.00024581255, 0.00016535388, -1532794.9, -13649.554, 0.0, 10.001365, 9.981247 
4.605078e+3, 1.5496643e+2, -1435085.8, -1450663.8, -4.9312735, 0.00024528528, -0.000022162236, -1435085.8, -13756.495, 0.0, 10.001357, 9.980716 
4.605078e+3, 1.6494104e+2, -1347050.0, -1371804.5, -3.2894187, 0.00024475832, 0.000060935545, -1347050.0, -23471.934, 0.0, 10.00135, 9.968633 
4.6050775e+3, 1.7490973e+2, -1249109.9, -1274175.1, -6.9169397, 0.00024423274, -0.00004227183, -1249109.9, -23224.996, 0.0, 10.001344, 9.968219 
4.6050775e+3, 1.8487178e+2, -1161040.0, -1195588.4, -4.643174, 0.00024357265, 0.00010299186, -1161040.0, -32783.19, 0.0, 10.001337, 9.955786 
4.6050772e+3, 1.9482759e+2, -1062907.9, -1097713.8, -8.211565, 0.00024277145, -0.000028784234, -1062907.9, -32218.102, 0.0, 10.00133, 9.955442 
4.6050772e+3, 2.0477675e+2, -974755.94, -1019321.25, -5.1208334, 0.00024200018, 0.00009318455, -974755.94, -41567.895, 0.0, 10.001323, 9.942685 
4.6050766e+3, 2.1471947e+2, -876486.25, -921308.3, -8.588457, 0.00024126112, -0.00010092842, -876486.25, -40736.902, 0.0, 10.001316, 9.942344 
4.6050766e+3, 2.2465551e+2, -788211.94, -843048.94, -5.0421352, 0.0002406009, 0.000146139, -788211.94, -49835.7, 0.0, 10.00131, 9.929306 
4.6050766e+3, 2.3458487e+2, -689794.9, -744882.2, -8.426352, 0.00024002935, -0.00006582075, -689794.9, -48726.492, 0.0, 10.001304, 9.928975 
4.6050763e+3, 2.445073e+2, -601482.75, -666941.5, -4.489268, 0.00023942518, 0.0000959887, -601482.75, -57654.137, 0.0, 10.001298, 9.915538 
4.6050763e+3, 2.5442296e+2, -502745.9, -568277.25, -7.6905055, 0.00023878162, -0.000086523745, -502745.9, -56090.742, 0.0, 10.001291, 9.915438 
4.6050757e+3, 2.6433155e+2, -414522.3, -490929.53, -3.0179453, 0.00023816097, 0.00015945447, -414522.3, -64971.17, 0.0, 10.001286, 9.901368 
4.6050757e+3, 2.7423346e+2, -315252.38, -391327.34, -5.9969516, 0.0002375692, -0.00018630055, -315252.38, -62740.08, 0.0, 10.00128, 9.901789 
4.6050757e+3, 2.8412715e+2, -228789.03, -318039.38, -1.2857233, 0.00023707963, 0.00024482948, -228789.03, -73234.92, 0.0, 10.001274, 9.884846 
4.6050757e+3, 2.9401302e+2, -129097.34, -217733.44, -4.0077496, 0.00023672877, -0.00023843402, -129097.34, -70425.016, 0.0, 10.001269, 9.885624 
4.605075e+3, 3.039269e+2, -39376.51, -84734.75, 1.016422, 0.0002361471, 0.00018632274, -39376.51, -39376.51, 0.0, 10.001265, 9.941574 
4.605075e+3, 3.1387034e+2, -38305.758, -82499.664, -1.457965, 0.00023522328, -0.00004492705, -38305.758, -38305.758, 0.0, 10.00126, 9.943086 
4.6150807e+3, 1.2500498e+2, -1718292.4, -1724122.1, -0.9961178, 0.00025127208, 0.000080815575, -1718292.4, -3340.8057, 0.0, 10.001379, 9.993651 
4.61508e+3, 1.3499847e+2, -1620931.0, -1627347.3, -4.701281, 0.00025020097, -0.000096291806, -1620931.0, -3915.7231, 0.0, 10.001371, 9.992867 
4.61508e+3, 1.4498545e+2, -1532803.5, -1547991.5, -3.695309, 0.0002494121, 0.00016660948, -1532803.5, -13660.788, 0.0, 10.001365, 9.981236 
4.6150795e+3, 1.5496668e+2, -1435094.4, -1450680.3, -7.620074, 0.00024890207, -0.000021405975, -1435094.4, -13767.522, 0.0, 10.001357, 9.980705 
4.6150795e+3, 1.6494128e+2, -1347057.9, -1371819.9, -5.86063, 0.0002481205, 0.000061376595, -1347057.9, -23482.143, 0.0, 10.00135, 9.968623 
4.6150792e+3, 1.7490996e+2, -1249117.6, -1274190.4, -9.489055, 0.00024706376, -0.000041958607, -1249117.6, -23235.023, 0.0, 10.001344, 9.968209 
4.6150786e+3, 1.84872e+2, -1161047.6, -1195603.5, -7.185919, 0.00024635225, 0.00010334039, -1161047.6, -32792.996, 0.0, 10.001337, 9.955776 
4.6150786e+3, 1.9482781e+2, -1062915.5, -1097728.8, -10.754067, 0.0002460001, -0.000028230254, -1062915.5, -32227.723, 0.0, 10.00133, 9.955433 
4.6150786e+3, 2.0477694e+2, -974763.4, -1019336.0, -7.652693, 0.0002453595, 0.00009388551, -974763.4, -41577.273, 0.0, 10.001324, 9.942676 
4.6150783e+3, 2.1471967e+2, -876493.56, -921323.0, -11.120977, 0.0002444072, -0.00010014365, -876493.56, -40746.094, 0.0, 10.001317, 9.942334 
4.6150783e+3, 2.2465569e+2, -788219.2, -843063.56, -7.4204173, 0.00024361165, 0.00014686136, -788219.2, -49844.74, 0.0, 10.00131, 9.9292965 
4.6150777e+3, 2.3458503e+2, -689802.06, -744896.75, -10.799575, 0.00024299292, -0.000065325934, -689802.06, -48735.348, 0.0, 10.001304, 9.928966 
4.6150777e+3, 2.4450746e+2, -601489.75, -666955.7, -6.744235, 0.00024239259, 0.00009637839, -601489.75, -57662.703, 0.0, 10.001298, 9.915528 
4.615077e+3, 2.544231e+2, -502752.8, -568291.4, -9.940533, 0.00024181361, -0.00008609304, -502752.8, -56099.125, 0.0, 10.001291, 9.915428 
4.615077e+3, 2.6433167e+2, -414529.03, -490943.44, -5.1694245, 0.00024118547, 0.00015995138, -414529.03, -64979.31, 0.0, 10.001286, 9.90136 
4.615077e+3, 2.7423358e+2, -315259.03, -391341.13, -8.142452, 0.00024049442, -0.00018570572, -315259.03, -62748.035, 0.0, 10.00128, 9.901779 
4.615077e+3, 2.8412727e+2, -228795.45, -318052.84, -3.2772036, 0.00023997882, 0.00024542978, -228795.45, -73242.58, 0.0, 10.001275, 9.884837 
4.6150768e+3, 2.9401314e+2, -129103.67, -217746.77, -5.985644, 0.00023970247, -0.00023795487, -129103.67, -70432.484, 0.0, 10.001269, 9.885615 
4.6150768e+3, 3.0392697e+2, -39382.895, -84748.234, -0.7419526, 0.00023910447, 0.00018669936, -39382.895, -39382.895, 0.0, 10.001265, 9.9415655 
4.6150768e+3, 3.1387043e+2, -38312.164, -82513.19, -3.1914985, 0.00023802863, -0.000044623805, -38312.164, -38312.164, 0.0, 10.00126, 9.943076 
4.625082e+3, 1.2500526e+2, -1718229.1, -1724100.0, 1.5601943, 0.00025449257, 0.000081736885, -1718229.1, -3280.3735, 0.0, 10.001423, 9.993641 
4.6250814e+3, 1.3499875e+2, -1620868.4, -1627325.6, -2.371282, 0.0002534532, -0.00009585397, -1620868.4, -3855.824, 0.0, 10.001416, 9.992857 
4.625081e+3, 1.4498574e+2, -1532741.5, -1547970.4, -1.472562, 0.0002527134, 0.00016701508, -1532741.5, -13601.322, 0.0, 10.001409, 9.981227 
4.625081e+3, 1.5496694e+2, -1435032.9, -1450659.6, -5.262883, 0.00025226956, -0.00002058082, -1435032.9, -13708.475, 0.0, 10.001401, 9.980695 
4.6250805e+3, 1.6494153e+2, -1346997.0, -1371799.3, -3.5525148, 0.00025145212, 0.00006226828, -1346997.0, -23423.73, 0.0, 10.001393, 9.968613 
4.6250805e+3, 1.7491019e+2, -1249058.5, -1274170.9, -7.4006104, 0.0002502557, -0.000041359344, -1249058.5, -23178.15, 0.0, 10.001386, 9.968199 
4.62508e+3, 1.8487222e+2, -1160989.4, -1195584.1, -5.08431, 0.0002494652, 0.00010384237, -1160989.4, -32736.871, 0.0, 10.001379, 9.955766 
4.62508e+3, 1.9482802e+2, -1062857.9, -1097710.0, -8.698906, 0.00024909733, -0.000027622065, -1062857.9, -32172.242, 0.0, 10.001371, 9.955423 
4.6250796e+3, 2.0477717e+2, -974706.4, -1019317.7, -5.6614614, 0.00024848213, 0.000094499796, -974706.4, -41522.324, 0.0, 10.001365, 9.942666 
4.6250796e+3, 2.1471986e+2, -876437.3, -921305.2, -9.274001, 0.00024759953, -0.00009963138, -876437.3, -40691.715, 0.0, 10.001358, 9.942325 
4.625079e+3, 2.2465587e+2, -788163.5, -843046.0, -5.5305014, 0.0002467796, 0.00014734705, -788163.5, -49790.844, 0.0, 10.001351, 9.929287 
4.625079e+3, 2.3458523e+2, -689747.3, -744879.8, -8.928114, 0.00024603007, -0.000064781576, -689747.3, -48682.305, 0.0, 10.001345, 9.928956 
4.625079e+3, 2.4450763e+2, -601435.7, -666939.2, -4.7884984, 0.00024538807, 0.000096933254, -601435.7, -57610.297, 0.0, 10.001338, 9.915519 
4.6250787e+3, 2.5442326e+2, -502699.53, -568275.44, -8.094992, 0.0002448738, -0.000085585176, -502699.53, -56047.4, 0.0, 10.001331, 9.915419 
4.6250787e+3, 2.6433182e+2, -414476.34, -490927.72, -3.3272188, 0.00024426042, 0.00016043655, -414476.34, -64928.063, 0.0, 10.001326, 9.90135 
4.625078e+3, 2.7423373e+2, -315207.13, -391325.94, -6.399136, 0.0002435204, -0.00018521216, -315207.13, -62697.48, 0.0, 10.001319, 9.901771 
4.625078e+3, 2.841274e+2, -228744.0, -318037.7, -1.4483864, 0.00024296764, 0.0002459375, -228744.0, -73192.4, 0.0, 10.001313, 9.884828 
4.625078e+3, 2.9401326e+2, -129052.97, -217732.11, -4.1964526, 0.00024267062, -0.00023742544, -129052.97, -70382.96, 0.0, 10.0013075, 9.885607 
4.625078e+3, 3.039271e+2, -39333.613, -84734.86, 1.0867511, 0.00024204742, 0.00018719825, -39333.613, -39333.613, 0.0, 10.001303, 9.941556 
4.6250775e+3, 3.1387055e+2, -38263.813, -82500.31, -1.4846736, 0.0002409396, -0.00004423264, -38263.813, -38263.813, 0.0, 10.001297, 9.943067 
4.6350834e+3, 1.2500556e+2, -1718238.1, -1724117.0, -1.1109526, 0.0002582146, 0.00008339226, -1718238.1, -3292.137, 0.0, 10.001423, 9.99363 
4.635083e+3, 1.3499904e+2, -1620877.1, -1627342.4, -5.044773, 0.00025666514, -0.00009601602, -1620877.1, -3867.3804, 0.0, 10.001416, 9.9928465 
4.6350825e+3, 1.4498599e+2, -1532749.9, -1547986.5, -4.20529, 0.00025572686, 0.00016659785, -1532749.9, -13612.357, 0.0, 10.001409, 9.981216 
4.6350825e+3, 1.5496719e+2, -1435041.1, -1450675.6, -7.9949193, 0.0002553967, -0.000019688403, -1435041.1, -13719.331, 0.0, 10.001401, 9.980685 
4.635082e+3, 1.6494177e+2, -1347005.4, -1371815.5, -6.4371405, 0.0002547553, 0.000063596955, -1347005.4, -23434.559, 0.0, 10.001394, 9.968603 
4.635082e+3, 1.7491043e+2, -1249066.8, -1274187.0, -10.285492, 0.00025379832, -0.000040482617, -1249066.8, -23188.773, 0.0, 10.001387, 9.968189 
4.6350816e+3, 1.8487245e+2, -1160997.1, -1195599.4, -7.7283597, 0.000252902, 0.00010449335, -1160997.1, -32746.889, 0.0, 10.001379, 9.955756 
4.6350816e+3, 1.9482824e+2, -1062865.5, -1097725.1, -11.341838, 0.00025206822, -0.000026960966, -1062865.5, -32182.074, 0.0, 10.001371, 9.955414 
4.635081e+3, 2.0477737e+2, -974714.1, -1019333.0, -8.278379, 0.00025137642, 0.000095030475, -974714.1, -41532.113, 0.0, 10.001365, 9.942656 
4.635081e+3, 2.1472006e+2, -876444.94, -921320.44, -11.889993, 0.00025083777, -0.00009938293, -876444.94, -40701.313, 0.0, 10.001358, 9.942315 
4.6350807e+3, 2.2465606e+2, -788170.8, -843060.75, -8.062156, 0.00025010083, 0.00014760364, -788170.8, -49800.035, 0.0, 10.001351, 9.929277 
4.6350807e+3, 2.345854e+2, -689754.56, -744894.44, -11.458087, 0.00024913956, -0.00006418884, -689754.5, -48691.313, 0.0, 10.001345, 9.9289465 
4.63508e+3, 2.445078e+2, -601442.94, -666953.9, -7.1618824, 0.00024841182, 0.00009764862, -601442.94, -57619.195, 0.0, 10.001338, 9.915509 
4.63508e+3, 2.5442344e+2, -502706.66, -568290.0, -10.461129, 0.00024796225, -0.00008500215, -502706.66, -56056.11, 0.0, 10.001331, 9.915409 
4.63508e+3, 2.6433197e+2, -414483.28, -490942.03, -5.5993595, 0.00024738515, 0.0001609107, -414483.28, -64936.5, 0.0, 10.001326, 9.9013405 
4.6350795e+3, 2.7423385e+2, -315213.94, -391340.16, -8.665785, 0.0002466449, -0.00018481648, -315213.94, -62705.727, 0.0, 10.00132, 9.901761 
4.6350795e+3, 2.8412753e+2, -228750.53, -318051.34, -3.5597806, 0.00024604428, 0.00024635566, -228750.53, -73200.25, 0.0, 10.001313, 9.884819 
4.6350795e+3, 2.940134e+2, -129059.39, -217745.66, -6.2944074, 0.00024563438, -0.00023684694, -129059.39, -70390.625, 0.0, 10.001308, 9.885597 
4.6350792e+3, 3.039272e+2, -39340.234, -84748.85, -0.88988346, 0.00024497733, 0.00018781611, -39340.234, -39340.234, 0.0, 10.001303, 9.941546 
4.6350792e+3, 3.1387064e+2, -38270.47, -82514.375, -3.4480033, 0.00024395373, -0.00004375592, -38270.47, -38270.47, 0.0, 10.001297, 9.943057 
4.645085e+3, 1.2500586e+2, -1718171.4, -1724093.9, 1.7739016, 0.00026186975, 0.00008423793, -1718171.4, -3228.415, 0.0, 10.00147, 9.99362 
4.6450844e+3, 1.3499933e+2, -1620812.5, -1627320.6, -2.535659, 0.0002600854, -0.00009528743, -1620812.5, -3805.5154, 0.0, 10.001462, 9.992836 
4.6450838e+3, 1.4498629e+2, -1532686.0, -1547964.1, -1.8616734, 0.00025898236, 0.00016724384, -1532686.0, -13551.185, 0.0, 10.001453, 9.981207 
4.6450838e+3, 1.5496747e+2, -1434978.8, -1450654.1, -5.626143, 0.0002585576, -0.000019090521, -1434978.8, -13659.529, 0.0, 10.001446, 9.980675 
4.6450835e+3, 1.6494203e+2, -1346943.9, -1371795.0, -4.0437846, 0.00025796064, 0.00006425825, -1346943.9, -23375.56, 0.0, 10.001438, 9.968593 
4.6450835e+3, 1.7491068e+2, -1249005.5, -1274166.6, -7.8905597, 0.00025718962, -0.000039644478, -1249005.5, -23129.873, 0.0, 10.0014305, 9.968179 
4.645083e+3, 1.8487269e+2, -1160936.4, -1195579.3, -5.346731, 0.00025629983, 0.0001052856, -1160936.4, -32688.443, 0.0, 10.001423, 9.955747 
4.6450827e+3, 1.9482848e+2, -1062806.3, -1097705.9, -9.173897, 0.00025528538, -0.000026446869, -1062806.3, -32125.06, 0.0, 10.001415, 9.955403 
4.6450827e+3, 2.0477758e+2, -974655.75, -1019314.2, -6.0723014, 0.00025451495, 0.00009550656, -974655.75, -41475.88, 0.0, 10.001408, 9.942646 
4.645082e+3, 2.1472028e+2, -876387.2, -921302.06, -9.670079, 0.00025400778, -0.00009868556, -876387.2, -40645.633, 0.0, 10.0014, 9.942306 
4.645082e+3, 2.2465627e+2, -788113.75, -843042.75, -5.8579154, 0.00025329535, 0.00014832213, -788113.75, -49744.906, 0.0, 10.001393, 9.929268 
4.645082e+3, 2.3458558e+2, -689698.44, -744877.06, -9.408374, 0.0002523506, -0.00006367532, -689698.44, -48637.09, 0.0, 10.001386, 9.928937 
4.6450815e+3, 2.4450798e+2, -601387.56, -666937.0, -5.0211873, 0.00025159726, 0.000098118464, -601387.56, -57565.613, 0.0, 10.001379, 9.9155 
4.6450815e+3, 2.544236e+2, -502652.03, -568273.6, -8.369931, 0.0002510719, -0.0000843835, -502652.03, -56003.16, 0.0, 10.001372, 9.9154 
4.6450812e+3, 2.6433212e+2, -414429.25, -490925.97, -3.488606, 0.00025047365, 0.00016155108, -414429.25, -64884.023, 0.0, 10.001366, 9.901331 
4.6450812e+3, 2.74234e+2, -315160.63, -391324.63, -6.6729784, 0.00024978182, -0.00018431623, -315160.63, -62653.87, 0.0, 10.00136, 9.9017515 
4.6450812e+3, 2.8412768e+2, -228697.67, -318035.75, -1.5509777, 0.0002491775, 0.00024682345, -228697.67, -73148.77, 0.0, 10.001353, 9.8848095 
4.6450806e+3, 2.9401353e+2, -129007.625, -217730.69, -4.361983, 0.00024869226, -0.00023626382, -129007.625, -70340.14, 0.0, 10.001348, 9.885589 
4.6450806e+3, 3.0392733e+2, -39289.965, -84735.4, 1.0733006, 0.00024799377, 0.00018840357, -39289.965, -39289.965, 0.0, 10.001342, 9.941537 
4.6450806e+3, 3.1387076e+2, -38220.516, -82501.15, -1.6061422, 0.00024697962, -0.000043329925, -38220.516, -38220.516, 0.0, 10.001336, 9.943048 
4.6550864e+3, 1.2500615e+2, -1718181.1, -1724112.5, -1.2772759, 0.00026546163, 0.00008430121, -1718181.1, -3241.1912, 0.0, 10.00147, 9.993608 
4.6550858e+3, 1.3499962e+2, -1620822.1, -1627339.0, -5.5822754, 0.0002637084, -0.000093696864, -1620822.1, -3818.0764, 0.0, 10.001462, 9.992825 
4.6550855e+3, 1.4498655e+2, -1532694.3, -1547980.1, -4.853915, 0.00026247307, 0.00016891856, -1532694.3, -13562.292, 0.0, 10.001453, 9.981196 
4.6550855e+3, 1.5496774e+2, -1434986.9, -1450670.1, -8.622059, 0.0002617521, -0.000018777328, -1434986.9, -13670.439, 0.0, 10.001446, 9.980665 
4.655085e+3, 1.6494231e+2, -1346952.3, -1371811.1, -6.8955092, 0.0002610724, 0.00006427428, -1346952.3, -23386.496, 0.0, 10.001438, 9.968582 
4.6550846e+3, 1.7491093e+2, -1249013.8, -1274182.8, -10.741689, 0.00026043569, -0.000038843173, -1249013.8, -23140.625, 0.0, 10.0014305, 9.968168 
4.6550846e+3, 1.8487294e+2, -1160944.6, -1195595.4, -8.277379, 0.00025966112, 0.00010621499, -1160944.6, -32699.055, 0.0, 10.001423, 9.955736 
4.655084e+3, 1.948287e+2, -1062814.4, -1097721.9, -12.105011, 0.00025874202, -0.0000260747, -1062814.4, -32135.467, 0.0, 10.001415, 9.955394 
4.655084e+3, 2.0477782e+2, -974663.44, -1019329.5, -8.769199, 0.00025789085, 0.0000959302, -974663.44, -41485.76, 0.0, 10.001408, 9.9426365 
4.6550834e+3, 2.1472049e+2, -876394.8, -921317.25, -12.362896, 0.00025711287, -0.00009755314, -876394.8, -40655.332, 0.0, 10.0014, 9.942296 
4.6550834e+3, 2.2465646e+2, -788121.4, -843058.06, -8.556465, 0.0002563683, 0.0001494882, -788121.4, -49754.53, 0.0, 10.001393, 9.929258 
4.655083e+3, 2.3458579e+2, -689706.0, -744892.3, -12.108022, 0.00025566097, -0.000063238134, -689706.0, -48646.52, 0.0, 10.001386, 9.928927 
4.655083e+3, 2.4450816e+2, -601394.9, -666951.9, -7.499074, 0.0002549402, 0.000098350974, -601394.9, -57574.734, 0.0, 10.001379, 9.91549 
4.6550825e+3, 2.544238e+2, -502659.25, -568288.44, -10.837432, 0.00025420307, -0.000083729974, -502659.25, -56012.094, 0.0, 10.001372, 9.91539 
4.6550825e+3, 2.643323e+2, -414436.4, -490940.75, -5.8626113, 0.00025352807, 0.00016235284, -414436.4, -64892.805, 0.0, 10.001366, 9.901321 
4.6550825e+3, 2.7423418e+2, -315167.7, -391339.3, -9.041535, 0.00025293176, -0.00018371432, -315167.7, -62662.46, 0.0, 10.00136, 9.901742 
4.655082e+3, 2.841278e+2, -228704.38, -318049.75, -3.856269, 0.00025236647, 0.00024733963, -228704.38, -73156.9, 0.0, 10.001353, 9.8848 
4.655082e+3, 2.9401368e+2, -129014.195, -217744.55, -6.6622553, 0.00025184226, -0.00023567583, -129014.195, -70348.055, 0.0, 10.001348, 9.885579 
4.655082e+3, 3.0392745e+2, -39296.83, -84749.91, -0.98233235, 0.0002510948, 0.00018896193, -39296.83, -39296.83, 0.0, 10.001342, 9.941526 
4.6550816e+3, 3.1387088e+2, -38227.434, -82515.76, -3.6336393, 0.0002500178, -0.000042952728, -38227.434, -38227.434, 0.0, 10.001336, 9.943037 
4.6650878e+3, 1.2500647e+2, -1718113.4, -1724088.8, 1.4763272, 0.00026888278, 0.000084728534, -1718113.4, -3176.471, 0.0, 10.001517, 9.993597 
4.6650875e+3, 1.3499993e+2, -1620755.3, -1627316.0, -2.398232, 0.00026720038, -0.00009247125, -1620755.3, -3754.187, 0.0, 10.001509, 9.992814 
4.665087e+3, 1.4498687e+2, -1532628.3, -1547957.3, -1.6704118, 0.00026598893, 0.00017023929, -1532628.3, -13499.081, 0.0, 10.0015, 9.981186 
4.665087e+3, 1.5496802e+2, -1434922.1, -1450648.1, -5.9313455, 0.00026524477, -0.000018065943, -1434922.1, -13608.354, 0.0, 10.001492, 9.980655 
4.6650866e+3, 1.6494258e+2, -1346888.3, -1371789.4, -4.345265, 0.00026447373, 0.00006474823, -1346888.3, -23325.229, 0.0, 10.001484, 9.968572 
4.665086e+3, 1.749112e+2, -1248951.3, -1274162.0, -8.237096, 0.00026367648, -0.000038228325, -1248951.3, -23080.703, 0.0, 10.001475, 9.968159 
4.665086e+3, 1.8487318e+2, -1160883.0, -1195575.0, -5.7571874, 0.0002628954, 0.000106959014, -1160883.0, -32639.924, 0.0, 10.001467, 9.955726 
4.6650854e+3, 1.9482894e+2, -1062753.4, -1097702.1, -9.579311, 0.00026213026, -0.000025213823, -1062753.4, -32076.82, 0.0, 10.001459, 9.955383 
4.6650854e+3, 2.0477805e+2, -974603.06, -1019309.75, -6.1429734, 0.00026126605, 0.00009675227, -974603.06, -41427.656, 0.0, 10.0014515, 9.942627 
4.665085e+3, 2.147207e+2, -876335.8, -921298.44, -9.83247, 0.00026029474, -0.00009693784, -876335.8, -40598.535, 0.0, 10.001443, 9.942286 
4.665085e+3, 2.2465667e+2, -788063.3, -843040.0, -5.9926157, 0.00025952875, 0.00015006603, -788063.3, -49698.52, 0.0, 10.001436, 9.929248 
4.6650845e+3, 2.3458599e+2, -689648.1, -744874.56, -9.686048, 0.0002589942, -0.000062506624, -689648.1, -48590.617, 0.0, 10.001429, 9.928917 
4.6650845e+3, 2.4450836e+2, -601337.44, -666934.1, -5.0869484, 0.00025829987, 0.00009911153, -601337.44, -57519.137, 0.0, 10.001422, 9.915481 
4.665084e+3, 2.5442395e+2, -502603.16, -568271.44, -8.470477, 0.00025741442, -0.000083089064, -502603.16, -55957.766, 0.0, 10.001414, 9.9153805 
4.665084e+3, 2.6433247e+2, -414381.34, -490924.56, -3.3884938, 0.00025665062, 0.00016294251, -414381.34, -64839.42, 0.0, 10.001408, 9.901312 
4.665084e+3, 2.7423435e+2, -315113.3, -391323.63, -6.6787624, 0.00025604144, -0.0001830886, -315113.3, -62609.688, 0.0, 10.001401, 9.9017315 
4.6650836e+3, 2.8412795e+2, -228650.17, -318033.75, -1.5073854, 0.00025550666, 0.00024796737, -228650.17, -73104.19, 0.0, 10.001394, 9.884791 
4.6650836e+3, 2.9401383e+2, -128960.49, -217728.9, -4.4103475, 0.00025507176, -0.0002350931, -128960.49, -70295.75, 0.0, 10.001389, 9.88557 
4.6650836e+3, 3.039276e+2, -39244.715, -84735.9, 1.2439393, 0.000254291, 0.00018954916, -39244.715, -39244.715, 0.0, 10.001382, 9.941517 
4.665083e+3, 3.13871e+2, -38176.586, -82502.445, -1.4896187, 0.00025299817, -0.000042286738, -38176.586, -38176.586, 0.0, 10.001376, 9.9430275 
4.6750894e+3, 1.250068e+2, -1718122.1, -1724105.4, -1.7028081, 0.00027214026, 0.0000855077, -1718122.1, -3188.3845, 0.0, 10.001517, 9.993587 
4.6750888e+3, 1.3500023e+2, -1620764.0, -1627332.5, -5.581635, 0.000270567, -0.000091597554, -1620764.0, -3765.9063, 0.0, 10.001509, 9.992804 
4.6750885e+3, 1.4498717e+2, -1532637.6, -1547975.4, -4.875209, 0.00026953043, 0.0001712189, -1532637.6, -13511.463, 0.0, 10.001501, 9.981174 
4.6750885e+3, 1.549683e+2, -1434931.4, -1450666.1, -9.13305, 0.00026902687, -0.000016969252, -1434931.4, -13620.517, 0.0, 10.0014925, 9.980643 
4.675088e+3, 1.6494286e+2, -1346896.8, -1371805.8, -7.4551034, 0.00026815615, 0.00006566502, -1346896.8, -23336.406, 0.0, 10.001484, 9.968562 
4.6750873e+3, 1.7491147e+2, -1248959.6, -1274178.3, -11.348071, 0.0002669133, -0.00003779331, -1248959.6, -23091.68, 0.0, 10.001475, 9.968148 
4.6750873e+3, 1.8487345e+2, -1160891.1, -1195591.1, -8.745797, 0.00026600796, 0.00010752439, -1160891.1, -32650.65, 0.0, 10.001467, 9.955716 
4.675087e+3, 1.948292e+2, -1062761.5, -1097718.1, -12.566462, 0.00026545356, -0.000023879935, -1062761.5, -32087.355, 0.0, 10.001459, 9.955373 
4.675087e+3, 2.0477827e+2, -974610.94, -1019325.44, -9.099041, 0.00026464177, 0.00009796002, -974610.94, -41437.88, 0.0, 10.0014515, 9.942616 
4.6750864e+3, 2.1472093e+2, -876343.6, -921314.0, -12.790183, 0.00026355186, -0.000096822136, -876343.6, -40608.55, 0.0, 10.001444, 9.942276 
4.6750864e+3, 2.246569e+2, -788071.2, -843055.94, -8.668887, 0.00026277482, 0.00015007555, -788071.2, -49708.555, 0.0, 10.001436, 9.929238 
4.6750858e+3, 2.345862e+2, -689655.94, -744890.4, -12.351803, 0.0002623507, -0.000061489976, -689655.94, -48600.473, 0.0, 10.001429, 9.928907 
4.6750858e+3, 2.4450856e+2, -601344.8, -666949.25, -7.812927, 0.00026167682, 0.000100383244, -601344.8, -57528.492, 0.0, 10.001422, 9.91547 
4.6750855e+3, 2.5442415e+2, -502610.44, -568286.44, -11.201328, 0.0002607044, -0.000082459934, -502610.44, -55966.91, 0.0, 10.001414, 9.915371 
4.6750855e+3, 2.6433265e+2, -414388.72, -490939.8, -5.8681107, 0.00025984002, 0.00016332748, -414388.72, -64848.543, 0.0, 10.001408, 9.901301 
4.675085e+3, 2.742345e+2, -315120.63, -391338.78, -9.141934, 0.0002591132, -0.00018243938, -315120.63, -62618.625, 0.0, 10.001401, 9.901722 
4.675085e+3, 2.8412813e+2, -228657.05, -318048.2, -3.8662333, 0.00025860066, 0.0002487035, -228657.05, -73112.62, 0.0, 10.001394, 9.884782 
4.675085e+3, 2.9401398e+2, -128967.25, -217743.17, -6.7604437, 0.0002583793, -0.00023451503, -128967.25, -70303.96, 0.0, 10.001389, 9.88556 
4.6750844e+3, 3.0392772e+2, -39251.75, -84750.78, -1.0968822, 0.00025758025, 0.00019016476, -39251.75, -39251.75, 0.0, 10.001382, 9.941506 
4.6750844e+3, 3.1387112e+2, -38183.664, -82517.414, -3.829176, 0.00025592346, -0.000041340878, -38183.664, -38183.664, 0.0, 10.001376, 9.943017 
4.6850908e+3, 1.2500712e+2, -1718052.3, -1724080.8, 1.7500917, 0.00027574768, 0.000086765576, -1718052.3, -3121.7131, 0.0, 10.001567, 9.993576 
4.6850902e+3, 1.3500056e+2, -1620695.3, -1627308.8, -2.6899438, 0.00027408858, -0.000091067624, -1620695.3, -3700.3884, 0.0, 10.001557, 9.992792 
4.68509e+3, 1.4498748e+2, -1532569.9, -1547952.0, -2.1110868, 0.00027302816, 0.00017165301, -1532569.9, -13446.758, 0.0, 10.001549, 9.981164 
4.68509e+3, 1.5496862e+2, -1434864.8, -1450643.5, -6.091658, 0.00027256267, -0.000015998306, -1434864.8, -13556.7705, 0.0, 10.001539, 9.980632 
4.6850893e+3, 1.6494314e+2, -1346831.0, -1371783.5, -4.327545, 0.0002716665, 0.00006676264, -1346831.0, -23273.475, 0.0, 10.001531, 9.968552 
4.6850893e+3, 1.7491174e+2, -1248895.3, -1274156.9, -8.434648, 0.0002703337, -0.000036985897, -1248895.3, -23030.127, 0.0, 10.001521, 9.968138 
4.685089e+3, 1.8487372e+2, -1160827.8, -1195569.9, -5.760425, 0.00026935202, 0.00010827102, -1160827.8, -32589.855, 0.0, 10.001513, 9.955706 
4.6850884e+3, 1.9482945e+2, -1062699.1, -1097697.5, -9.59626, 0.0002687356, -0.000022954939, -1062699.1, -32027.498, 0.0, 10.001504, 9.955362 
4.6850884e+3, 2.0477854e+2, -974549.44, -1019305.75, -6.175941, 0.00026796103, 0.00009884519, -974549.44, -41378.78, 0.0, 10.001496, 9.942606 
4.6850878e+3, 2.1472117e+2, -876282.7, -921294.75, -10.161691, 0.00026701554, -0.00009621243, -876282.7, -40549.91, 0.0, 10.001488, 9.9422655 
4.6850878e+3, 2.2465712e+2, -788010.8, -843036.75, -5.938838, 0.00026619373, 0.0001506629, -788010.8, -49650.402, 0.0, 10.00148, 9.929228 
4.6850875e+3, 2.3458642e+2, -689596.94, -744872.0, -9.47587, 0.00026551125, -0.000060639064, -689596.94, -48543.6, 0.0, 10.001472, 9.928897 
4.6850875e+3, 2.4450876e+2, -601286.7, -666931.5, -4.8823724, 0.0002647983, 0.00010128319, -601286.7, -57472.332, 0.0, 10.001465, 9.915461 
4.685087e+3, 2.5442433e+2, -502552.47, -568269.0, -8.530263, 0.0002640483, -0.00008176702, -502552.47, -55910.85, 0.0, 10.001458, 9.91536 
4.685087e+3, 2.6433283e+2, -414331.25, -490922.7, -3.232621, 0.00026324813, 0.000163932, -414331.25, -64792.883, 0.0, 10.001451, 9.901292 
4.6850863e+3, 2.7423468e+2, -315064.38, -391322.44, -6.5683312, 0.00026238387, -0.00018177186, -315064.38, -62564.09, 0.0, 10.001444, 9.901711 
4.6850863e+3, 2.841283e+2, -228601.48, -318031.8, -1.229422, 0.00026175674, 0.00024938118, -228601.48, -73058.67, 0.0, 10.001436, 9.884772 
4.6850863e+3, 2.9401413e+2, -128912.695, -217727.4, -4.2067323, 0.000261453, -0.0002339003, -128912.695, -70250.93, 0.0, 10.00143, 9.8855505 
4.685086e+3, 3.039279e+2, -39198.613, -84736.44, 1.4123068, 0.00026064453, 0.00019077584, -39198.613, -39198.613, 0.0, 10.001423, 9.941497 
4.685086e+3, 3.1387123e+2, -38130.793, -82503.266, -1.3187801, 0.00025908643, -0.00004064442, -38130.793, -38130.793, 0.0, 10.001417, 9.943007 
4.695092e+3, 1.2500747e+2, -1718062.3, -1724099.9, -1.6377848, 0.0002796941, 0.00008848612, -1718062.3, -3135.0938, 0.0, 10.001567, 9.993564 
4.6950918e+3, 1.3500088e+2, -1620705.3, -1627327.8, -6.0771246, 0.00027776102, -0.00009086921, -1620705.3, -3713.538, 0.0, 10.001557, 9.992781 
4.6950918e+3, 1.4498779e+2, -1532578.6, -1547969.0, -5.474663, 0.00027648493, 0.00017156095, -1532578.6, -13458.643, 0.0, 10.001549, 9.9811535 
4.6950912e+3, 1.5496892e+2, -1434873.4, -1450660.3, -9.456288, 0.000275862, -0.000015148033, -1434873.4, -13568.468, 0.0, 10.001539, 9.980621 
4.695091e+3, 1.6494344e+2, -1346839.9, -1371800.8, -7.706326, 0.0002750121, 0.00006803557, -1346839.9, -23285.29, 0.0, 10.001531, 9.96854 
4.695091e+3, 1.7491204e+2, -1248904.1, -1274174.1, -11.812789, 0.0002739326, -0.00003581841, -1248904.1, -23041.727, 0.0, 10.001522, 9.968126 
4.6950904e+3, 1.84874e+2, -1160836.0, -1195586.1, -8.913981, 0.00027292085, 0.00010919309, -1160836.0, -32600.766, 0.0, 10.001513, 9.955695 
4.6950898e+3, 1.9482972e+2, -1062707.3, -1097713.6, -12.749883, 0.00027197885, -0.00002242422, -1062707.3, -32038.205, 0.0, 10.001505, 9.955353 
4.6950898e+3, 2.0477878e+2, -974557.94, -1019322.6, -9.185292, 0.00027122695, 0.00009941946, -974557.94, -41389.76, 0.0, 10.001496, 9.9425955 
4.6950895e+3, 2.1472143e+2, -876291.06, -921311.56, -13.165884, 0.00027068, -0.00009512514, -876291.06, -40560.695, 0.0, 10.001489, 9.942254 
4.6950895e+3, 2.2465734e+2, -788018.44, -843052.1, -8.863864, 0.00026978078, 0.00015180878, -788018.44, -49660.313, 0.0, 10.00148, 9.929218 
4.695089e+3, 2.3458664e+2, -689604.44, -744887.25, -12.402181, 0.00026848353, -0.000059947703, -689604.44, -48553.3, 0.0, 10.001472, 9.928887 
4.695089e+3, 2.4450897e+2, -601294.56, -666947.6, -7.5887265, 0.00026767398, 0.00010182462, -601294.56, -57482.313, 0.0, 10.001465, 9.91545 
4.6950883e+3, 2.5442454e+2, -502560.3, -568285.06, -11.225244, 0.00026744552, -0.00008101199, -502560.3, -55920.65, 0.0, 10.001458, 9.91535 
4.6950883e+3, 2.6433304e+2, -414338.78, -490938.28, -5.919689, 0.0002668688, 0.00016474904, -414338.78, -64802.29, 0.0, 10.001451, 9.901281 
4.695088e+3, 2.7423486e+2, -315071.78, -391337.88, -9.25612, 0.00026584786, -0.00018108617, -315071.78, -62573.28, 0.0, 10.001444, 9.901702 
4.695088e+3, 2.841285e+2, -228608.53, -318046.56, -3.7729673, 0.00026497387, 0.0002500029, -228608.53, -73067.39, 0.0, 10.001437, 9.884762 
4.695088e+3, 2.9401428e+2, -128919.62, -217742.03, -6.7383657, 0.00026430163, -0.00023324967, -128919.62, -70259.44, 0.0, 10.00143, 9.885541 
4.6950874e+3, 3.0392805e+2, -39205.656, -84751.37, -0.9947037, 0.00026349237, 0.000191383, -39205.656, -39205.656, 0.0, 10.001424, 9.941486 
4.6950874e+3, 3.138714e+2, -38137.867, -82518.25, -3.713448, 0.0002624803, -0.000040188534, -38137.867, -38137.867, 0.0, 10.001417, 9.942997 
4.7050938e+3, 1.2500782e+2, -1717989.3, -1724074.4, 1.8590575, 0.0002835749, 0.000089281624, -1717989.3, -3065.4875, 0.0, 10.001618, 9.993552 
4.7050938e+3, 1.3500123e+2, -1620634.5, -1627303.8, -2.6050222, 0.00028144434, -0.000089709305, -1620634.5, -3646.1272, 0.0, 10.001608, 9.992768 
4.7050932e+3, 1.4498812e+2, -1532509.0, -1547944.4, -2.0073469, 0.00028001473, 0.00017271585, -1532509.0, -13392.167, 0.0, 10.001597, 9.981142 
4.705093e+3, 1.5496925e+2, -1434805.5, -1450636.9, -6.162194, 0.0002792822, -0.000014367875, -1434805.5, -13503.708, 0.0, 10.001588, 9.980611 
4.705093e+3, 1.6494374e+2, -1346773.3, -1371778.3, -4.3430305, 0.00027843035, 0.00006878034, -1346773.3, -23221.611, 0.0, 10.001578, 9.96853 
4.7050923e+3, 1.7491232e+2, -1248838.1, -1274152.0, -8.417397, 0.00027745843, -0.000034764173, -1248838.1, -22978.6, 0.0, 10.001569, 9.968116 
4.7050917e+3, 1.8487427e+2, -1160770.6, -1195564.4, -5.4769115, 0.000276463, 0.000110241075, -1160770.6, -32538.207, 0.0, 10.00156, 9.955685 
4.7050917e+3, 1.9482999e+2, -1062643.1, -1097692.6, -9.614448, 0.00027544211, -0.00002171153, -1062643.1, -31976.736, 0.0, 10.001551, 9.955341 
4.7050914e+3, 2.0477906e+2, -974494.6, -1019302.06, -5.9009995, 0.00027462404, 0.00010015007, -974494.6, -41329.0, 0.0, 10.001542, 9.942585 
4.7050908e+3, 2.1472166e+2, -876228.56, -921291.6, -9.65915, 0.00027402467, -0.00009399535, -876228.56, -40500.676, 0.0, 10.0015335, 9.942244 
4.7050908e+3, 2.246576e+2, -787956.7, -843032.7, -5.3588405, 0.00027312164, 0.00015293394, -787956.7, -49600.926, 0.0, 10.001526, 9.929208 
4.7050902e+3, 2.3458686e+2, -689543.56, -744868.44, -9.350726, 0.00027187535, -0.000059283124, -689543.56, -48494.64, 0.0, 10.001517, 9.928877 
4.7050902e+3, 2.445092e+2, -601234.3, -666929.2, -4.518599, 0.00027104048, 0.00010238575, -601234.3, -57424.207, 0.0, 10.00151, 9.91544 
4.70509e+3, 2.5442475e+2, -502500.84, -568267.2, -8.081954, 0.00027069575, -0.000080128295, -502500.84, -55863.26, 0.0, 10.001502, 9.915339 
4.70509e+3, 2.6433322e+2, -414279.97, -490920.84, -2.7730658, 0.00027009012, 0.00016571057, -414279.97, -64745.434, 0.0, 10.001495, 9.901271 
4.7050893e+3, 2.7423504e+2, -315013.63, -391320.97, -6.2766676, 0.00026915153, -0.00018035863, -315013.63, -62516.992, 0.0, 10.001488, 9.901691 
4.7050893e+3, 2.8412867e+2, -228550.78, -318029.47, -0.84500134, 0.00026830312, 0.0002506532, -228550.78, -73011.4, 0.0, 10.00148, 9.884752 
4.7050893e+3, 2.9401442e+2, -128862.97, -217725.6, -3.9518137, 0.00026757835, -0.00023246108, -128862.97, -70204.445, 0.0, 10.001473, 9.885531 
4.7050887e+3, 3.039282e+2, -39150.773, -84736.625, 1.650283, 0.0002666906, 0.00019211035, -39150.773, -39150.773, 0.0, 10.001466, 9.941476 
4.7050887e+3, 3.1387156e+2, -38083.8, -82503.984, -1.3572922, 0.00026556235, -0.000039819908, -38083.8, -38083.8, 0.0, 10.001459, 9.9429865 
4.7150958e+3, 1.2500818e+2, -1717999.4, -1724093.6, -1.9761212, 0.00028739404, 0.00008918645, -1717999.4, -3079.0996, 0.0, 10.001618, 9.99354 
4.7150952e+3, 1.3500157e+2, -1620644.5, -1627322.8, -6.4370003, 0.00028513954, -0.00008762176, -1620644.5, -3659.5244, 0.0, 10.001608, 9.992757 
4.715095e+3, 1.4498845e+2, -1532518.1, -1547962.0, -5.7072086, 0.00028361625, 0.00017507336, -1532518.1, -13404.631, 0.0, 10.001597, 9.981132 
4.7150943e+3, 1.5496956e+2, -1434814.6, -1450654.4, -9.864428, 0.0002828201, -0.000013654917, -1434814.6, -13515.95, 0.0, 10.001588, 9.980599 
4.7150943e+3, 1.6494407e+2, -1346782.0, -1371795.4, -7.7875695, 0.0002819199, 0.00006901641, -1346782.0, -23233.504, 0.0, 10.001578, 9.968518 
4.7150937e+3, 1.7491263e+2, -1248846.9, -1274169.1, -11.8622265, 0.0002809151, -0.000033818367, -1248846.9, -22990.293, 0.0, 10.001569, 9.968105 
4.7150934e+3, 1.8487456e+2, -1160779.5, -1195581.8, -8.8297825, 0.00027998074, 0.000111411224, -1160779.5, -32549.936, 0.0, 10.00156, 9.955673 
4.7150934e+3, 1.9483028e+2, -1062651.9, -1097710.0, -12.965565, 0.00027911886, -0.000020822876, -1062651.9, -31988.252, 0.0, 10.001551, 9.955331 
4.7150928e+3, 2.0477931e+2, -974502.6, -1019318.06, -9.027714, 0.00027814886, 0.00010103193, -974502.6, -41339.684, 0.0, 10.001542, 9.9425745 
4.7150922e+3, 2.1472192e+2, -876236.5, -921307.5, -12.784533, 0.00027706198, -0.000092823764, -876236.5, -40511.156, 0.0, 10.001534, 9.942234 
4.7150922e+3, 2.2465785e+2, -787965.25, -843049.9, -8.406369, 0.0002762262, 0.00015403991, -787965.25, -49611.9, 0.0, 10.001526, 9.929196 
4.715092e+3, 2.3458712e+2, -689552.0, -744885.56, -12.394887, 0.00027567332, -0.000058643913, -689552.0, -48505.41, 0.0, 10.001518, 9.928865 
4.715092e+3, 2.4450943e+2, -601242.1, -666945.1, -7.338916, 0.00027488178, 0.00010296626, -601242.1, -57434.234, 0.0, 10.00151, 9.915429 
4.7150913e+3, 2.5442496e+2, -502508.53, -568283.0, -10.89368, 0.00027380517, -0.00007911983, -502508.53, -55873.07, 0.0, 10.001502, 9.915329 
4.7150913e+3, 2.6433343e+2, -414287.78, -490937.03, -5.544047, 0.00027292714, 0.00016681223, -414287.78, -64755.285, 0.0, 10.001495, 9.90126 
4.7150907e+3, 2.7423525e+2, -315021.38, -391337.06, -9.04573, 0.00027230158, -0.00017959013, -315021.38, -62526.64, 0.0, 10.001488, 9.90168 
4.7150907e+3, 2.8412884e+2, -228558.1, -318044.84, -3.5790021, 0.00027174174, 0.00025133157, -228558.1, -73020.53, 0.0, 10.00148, 9.884742 
4.7150907e+3, 2.9401463e+2, -128870.15, -217740.8, -6.682828, 0.0002712695, -0.00023153878, -128870.15, -70213.35, 0.0, 10.001473, 9.885521 
4.7150904e+3, 3.0392838e+2, -39158.336, -84752.664, -0.9502758, 0.0002702282, 0.00019295425, -39158.336, -39158.336, 0.0, 10.001466, 9.941465 
4.7150904e+3, 3.138717e+2, -38091.434, -82520.14, -3.943748, 0.00026834445, -0.000039535167, -38091.434, -38091.434, 0.0, 10.001459, 9.942975 
4.725097e+3, 1.2500855e+2, -1717925.5, -1724067.4, 1.8970644, 0.00029115792, 0.000090181224, -1717925.5, -3008.8516, 0.0, 10.00167, 9.993528 
4.7250968e+3, 1.3500194e+2, -1620572.0, -1627297.5, -2.3177767, 0.0002888176, -0.000086358974, -1620572.0, -3590.5698, 0.0, 10.001658, 9.992745 
4.7250968e+3, 1.449888e+2, -1532446.8, -1547937.4, -1.4539148, 0.0002872656, 0.00017637697, -1532446.8, -13336.676, 0.0, 10.001648, 9.98112 
4.7250962e+3, 1.549699e+2, -1434744.5, -1450630.5, -5.927527, 0.00028649785, -0.000012538274, -1434744.5, -13449.102, 0.0, 10.001637, 9.980589 
4.7250956e+3, 1.6494438e+2, -1346712.9, -1371771.8, -3.8639896, 0.00028555267, 0.00006998276, -1346712.9, -23167.49, 0.0, 10.001628, 9.968508 
4.7250953e+3, 1.7491294e+2, -1248779.1, -1274146.4, -8.118426, 0.0002844285, -0.000032964832, -1248779.1, -22925.71, 0.0, 10.001617, 9.968094 
4.7250953e+3, 1.8487486e+2, -1160712.9, -1195559.8, -4.968469, 0.0002834514, 0.00011235117, -1160712.9, -32486.316, 0.0, 10.001608, 9.955663 
4.7250947e+3, 1.9483057e+2, -1062586.1, -1097688.6, -9.05683, 0.00028262654, -0.00001958908, -1062586.1, -31925.41, 0.0, 10.001598, 9.955319 
4.725094e+3, 2.047796e+2, -974437.6, -1019296.9, -5.0499883, 0.000281629, 0.000102212936, -974437.6, -41277.383, 0.0, 10.00159, 9.942564 
4.725094e+3, 2.147222e+2, -876172.5, -921287.0, -9.165876, 0.00028044495, -0.00009206949, -876172.5, -40449.81, 0.0, 10.001581, 9.942223 
4.7250938e+3, 2.2465812e+2, -787902.0, -843030.25, -4.744492, 0.00027962093, 0.00015473038, -787902.0, -49551.195, 0.0, 10.001573, 9.929185 
4.7250938e+3, 2.3458736e+2, -689488.9, -744866.2, -8.675475, 0.00027920282, -0.00005760767, -689488.9, -48444.72, 0.0, 10.001565, 9.928854 
4.7250932e+3, 2.4450965e+2, -601179.4, -666925.7, -3.6339083, 0.00027839543, 0.000104070634, -601179.4, -57373.816, 0.0, 10.001556, 9.915419 
4.7250926e+3, 2.544252e+2, -502447.28, -568264.5, -7.436751, 0.00027712324, -0.00007827846, -502447.28, -55814.04, 0.0, 10.001548, 9.9153185 
4.7250926e+3, 2.6433364e+2, -414227.56, -490919.34, -2.1079733, 0.00027614742, 0.00016754871, -414227.56, -64697.195, 0.0, 10.00154, 9.90125 
4.7250924e+3, 2.7423546e+2, -314961.7, -391319.8, -5.7296143, 0.00027554858, -0.0001787569, -314961.7, -62468.98, 0.0, 10.001533, 9.9016695 
4.7250924e+3, 2.8412902e+2, -228498.42, -318027.1, -0.31218177, 0.0002750508, 0.00025220017, -228498.42, -72962.77, 0.0, 10.001525, 9.884731 
4.7250924e+3, 2.940148e+2, -128811.07, -217723.45, -3.460615, 0.00027468824, -0.00023071976, -128811.07, -70156.08, 0.0, 10.001518, 9.88551 
4.7250918e+3, 3.0392852e+2, -39101.215, -84737.5, 2.1119986, 0.0002736226, 0.00019375591, -39101.215, -39101.215, 0.0, 10.001511, 9.941454 
4.7250918e+3, 3.1387186e+2, -38035.742, -82505.79, -1.0535401, 0.00027151534, -0.000038701906, -38035.742, -38035.742, 0.0, 10.001503, 9.942965 
4.7350988e+3, 1.2500894e+2, -1717935.0, -1724085.5, -2.1657817, 0.0002948701, 0.00009222546, -1717935.0, -3022.092, 0.0, 10.00167, 9.993517 
4.7350988e+3, 1.350023e+2, -1620581.4, -1627315.5, -6.3847575, 0.00029248054, -0.00008588942, -1620581.4, -3603.5837, 0.0, 10.001659, 9.992734 
4.7350982e+3, 1.4498915e+2, -1532456.6, -1547956.4, -5.351969, 0.00029096246, 0.00017666702, -1532456.6, -13350.044, 0.0, 10.001648, 9.981108 
4.7350976e+3, 1.5497024e+2, -1434754.3, -1450649.5, -9.823627, 0.0002903116, -0.000011031941, -1434754.3, -13462.253, 0.0, 10.001637, 9.9805765 
4.7350973e+3, 1.6494472e+2, -1346722.0, -1371789.6, -7.5809, 0.00028932482, 0.000071653056, -1346722.0, -23179.979, 0.0, 10.001628, 9.968496 
4.7350973e+3, 1.7491327e+2, -1248788.3, -1274164.3, -11.835315, 0.00028799791, -0.000032199616, -1248788.3, -22937.979, 0.0, 10.001617, 9.968082 
4.7350967e+3, 1.8487519e+2, -1160721.6, -1195577.0, -8.441942, 0.00028687797, 0.000113070055, -1160721.6, -32498.121, 0.0, 10.001608, 9.955651 
4.735096e+3, 1.9483086e+2, -1062594.9, -1097705.8, -12.530016, 0.00028597264, -0.000018021901, -1062594.9, -31937.006, 0.0, 10.001599, 9.955309 
4.735096e+3, 2.047799e+2, -974446.4, -1019314.4, -8.346545, 0.00028506748, 0.00010368293, -974446.4, -41289.0, 0.0, 10.00159, 9.942553 
4.7350958e+3, 2.1472247e+2, -876181.2, -921304.44, -12.460838, 0.00028416223, -0.00009171683, -876181.2, -40461.2, 0.0, 10.001581, 9.942212 
4.7350952e+3, 2.2465837e+2, -787910.4, -843047.25, -7.734329, 0.00028329648, 0.00015502101, -787910.4, -49562.23, 0.0, 10.001573, 9.929174 
4.7350952e+3, 2.3458761e+2, -689497.2, -744883.06, -11.655885, 0.0002824749, -0.000056187986, -689497.2, -48455.55, 0.0, 10.001565, 9.9288435 
4.7350946e+3, 2.445099e+2, -601187.6, -666942.6, -6.72577, 0.00028159458, 0.00010568069, -601187.6, -57384.496, 0.0, 10.001556, 9.915407 
4.7350946e+3, 2.5442544e+2, -502455.44, -568281.3, -10.536141, 0.0002806437, -0.00007759761, -502455.44, -55824.492, 0.0, 10.001549, 9.915308 
4.7350943e+3, 2.643339e+2, -414235.63, -490936.06, -4.9370785, 0.00027973825, 0.00016793374, -414235.63, -64707.44, 0.0, 10.00154, 9.901238 
4.7350943e+3, 2.7423567e+2, -314969.66, -391336.44, -8.541251, 0.00027889025, -0.00017786068, -314969.66, -62479.023, 0.0, 10.001533, 9.901659 
4.7350937e+3, 2.8412923e+2, -228505.83, -318042.66, -3.1114197, 0.00027823617, 0.00025325274, -228505.83, -72972.15, 0.0, 10.001526, 9.884722 
4.7350937e+3, 2.9401502e+2, -128818.33, -217738.83, -6.260419, 0.00027784554, -0.00022999971, -128818.33, -70165.21, 0.0, 10.001518, 9.885501 
4.735093e+3, 3.039287e+2, -39109.066, -84754.14, -0.8096174, 0.00027688016, 0.00019451755, -39109.066, -39109.066, 0.0, 10.001511, 9.9414425 
4.735093e+3, 3.1387204e+2, -38043.668, -82522.6, -3.9886532, 0.00027506237, -0.000037338996, -38043.668, -38043.668, 0.0, 10.001503, 9.942953 
4.7451004e+3, 1.2500933e+2, -1717859.0, -1724058.6, 2.6452384, 0.00029879838, 0.00009389141, -1717859.0, -2950.0313, 0.0, 10.001723, 9.9935055 
4.7451e+3, 1.3500269e+2, -1620506.9, -1627289.5, -2.0746844, 0.00029629402, -0.000085045765, -1620506.9, -3532.737, 0.0, 10.001712, 9.992722 
4.7450995e+3, 1.4498954e+2, -1532383.3, -1547930.9, -1.0697094, 0.00029469564, 0.00017738905, -1532383.3, -13280.223, 0.0, 10.0017, 9.981096 
4.7450995e+3, 1.549706e+2, -1434682.4, -1450625.0, -5.4093795, 0.00029399892, -0.000009730668, -1434682.4, -13393.893, 0.0, 10.001689, 9.980565 
4.7450992e+3, 1.6494507e+2, -1346651.5, -1371765.8, -2.957233, 0.00029298034, 0.00007315992, -1346651.5, -23112.752, 0.0, 10.001678, 9.968485 
4.7450987e+3, 1.749136e+2, -1248719.3, -1274141.3, -7.324493, 0.00029163607, -0.00003086668, -1248719.3, -22872.176, 0.0, 10.001667, 9.968071 
4.745098e+3, 1.848755e+2, -1160653.5, -1195554.5, -3.7423458, 0.0002904802, 0.00011425595, -1160653.5, -32433.06, 0.0, 10.0016575, 9.955641 
4.745098e+3, 1.9483118e+2, -1062527.3, -1097683.8, -8.091996, 0.00028951972, -0.00001695499, -1062527.3, -31872.44, 0.0, 10.001648, 9.955297 
4.7450978e+3, 2.0478019e+2, -974379.4, -1019293.06, -3.9475658, 0.0002886317, 0.00010468759, -974379.4, -41224.926, 0.0, 10.001638, 9.942541 
4.7450972e+3, 2.1472277e+2, -876114.6, -921283.5, -8.297714, 0.0002878216, -0.00009071333, -876114.6, -40397.49, 0.0, 10.00163, 9.942201 
4.7450972e+3, 2.2465864e+2, -787844.44, -843026.3, -3.5461009, 0.00028688778, 0.00015603655, -787844.44, -49498.953, 0.0, 10.001621, 9.929163 
4.7450966e+3, 2.3458788e+2, -689432.75, -744863.1, -7.531204, 0.00028581388, -0.00005514545, -689432.75, -48393.76, 0.0, 10.001613, 9.928832 
4.7450963e+3, 2.4451016e+2, -601124.2, -666923.6, -2.65275, 0.0002849103, 0.00010667956, -601124.2, -57323.55, 0.0, 10.001604, 9.915396 
4.7450963e+3, 2.5442567e+2, -502391.9, -568262.44, -6.7396493, 0.0002842092, -0.00007672675, -502391.9, -55763.36, 0.0, 10.0015955, 9.915297 
4.7450957e+3, 2.643341e+2, -414172.38, -490917.22, -1.23223, 0.00028336252, 0.00016877665, -414172.38, -64646.465, 0.0, 10.001588, 9.901227 
4.7450957e+3, 2.742359e+2, -314907.8, -391318.44, -4.928841, 0.00028233006, -0.00017691831, -314907.8, -62419.34, 0.0, 10.001579, 9.901648 
4.745095e+3, 2.8412944e+2, -228444.73, -318024.6, 0.42008573, 0.00028153195, 0.00025418584, -228444.73, -72913.125, 0.0, 10.001572, 9.884711 
4.745095e+3, 2.940152e+2, -128758.36, -217721.44, -2.9390004, 0.00028105362, -0.00022922519, -128758.36, -70107.2, 0.0, 10.001564, 9.88549 
4.7450948e+3, 3.0392888e+2, -39050.63, -84738.555, 2.331424, 0.00028012655, 0.00019527038, -39050.63, -39050.63, 0.0, 10.001555, 9.941431 
4.7450948e+3, 3.1387222e+2, -37985.074, -82507.04, -0.8147969, 0.00027853358, -0.000036402995, -37985.074, -37985.074, 0.0, 10.001548, 9.942942 
4.755102e+3, 1.2500973e+2, -1717869.8, -1724079.0, -1.6360724, 0.00030293592, 0.00009519498, -1717869.8, -2964.662, 0.0, 10.001723, 9.993493 
4.755102e+3, 1.3500308e+2, -1620517.4, -1627309.8, -6.3511004, 0.0003002537, -0.00008384165, -1620517.4, -3547.1265, 0.0, 10.001712, 9.992709 
4.7551015e+3, 1.4498991e+2, -1532392.8, -1547949.3, -5.2339005, 0.00029846525, 0.000178527, -1532392.8, -13293.503, 0.0, 10.0017, 9.981085 
4.7551012e+3, 1.5497096e+2, -1434691.9, -1450643.3, -9.572067, 0.00029756603, -0.000008625905, -1434691.9, -13406.953, 0.0, 10.001689, 9.980554 
4.7551006e+3, 1.6494542e+2, -1346660.9, -1371784.1, -6.9411173, 0.0002965252, 0.00007451053, -1346660.9, -23125.695, 0.0, 10.001678, 9.968473 
4.7551e+3, 1.7491396e+2, -1248728.5, -1274159.6, -11.312647, 0.0002953417, -0.00002898668, -1248728.5, -22884.893, 0.0, 10.001668, 9.96806 
4.7551e+3, 1.8487585e+2, -1160662.8, -1195572.9, -7.2704825, 0.00029425285, 0.000115891904, -1160662.8, -32445.633, 0.0, 10.0016575, 9.955628 
4.7550997e+3, 1.9483149e+2, -1062536.4, -1097702.0, -11.619066, 0.00029326155, -0.000016368702, -1062536.4, -31884.78, 0.0, 10.001648, 9.955286 
4.755099e+3, 2.047805e+2, -974388.6, -1019311.56, -7.266494, 0.00029231835, 0.00010524532, -974388.6, -41237.223, 0.0, 10.001638, 9.94253 
4.755099e+3, 2.1472307e+2, -876123.8, -921301.9, -11.612126, 0.00029142672, -0.00008908262, -876123.8, -40409.57, 0.0, 10.00163, 9.942188 
4.7550985e+3, 2.2465894e+2, -787852.94, -843043.6, -6.8317227, 0.0002903994, 0.00015775046, -787852.94, -49510.324, 0.0, 10.001621, 9.9291525 
4.7550982e+3, 2.3458815e+2, -689441.2, -744880.25, -10.820264, 0.00028921844, -0.00005446528, -689441.2, -48404.895, 0.0, 10.001613, 9.928822 
4.7550982e+3, 2.4451043e+2, -601133.0, -666941.6, -5.6515846, 0.00028833933, 0.00010709081, -601133.0, -57334.93, 0.0, 10.001604, 9.915384 
4.7550976e+3, 2.5442594e+2, -502400.63, -568280.4, -9.723578, 0.00028781942, -0.00007567225, -502400.63, -55774.54, 0.0, 10.001596, 9.915284 
4.7550976e+3, 2.6433435e+2, -414180.66, -490934.34, -4.30171, 0.0002870204, 0.00017006109, -414180.66, -64657.098, 0.0, 10.001588, 9.9012165 
4.755097e+3, 2.742361e+2, -314915.94, -391335.44, -8.006248, 0.0002858657, -0.00017593082, -314915.94, -62429.723, 0.0, 10.00158, 9.901636 
4.755097e+3, 2.8412968e+2, -228452.5, -318040.94, -2.5873964, 0.00028493532, 0.00025500462, -228452.5, -72923.04, 0.0, 10.001572, 9.8847 
4.7550967e+3, 2.940154e+2, -128766.0, -217737.63, -5.941061, 0.00028431174, -0.00022839765, -128766.0, -70116.88, 0.0, 10.001564, 9.885479 
4.7550967e+3, 3.0392912e+2, -39058.438, -84755.14, -0.5531656, 0.00028336336, 0.00019601521, -39058.438, -39058.438, 0.0, 10.001556, 9.94142 
4.755096e+3, 3.138724e+2, -37992.918, -82523.695, -3.6888437, 0.00028193314, -0.00003587757, -37992.918, -37992.918, 0.0, 10.001549, 9.94293 
4.765104e+3, 1.2501015e+2, -1717791.9, -1724051.3, 3.12611, 0.00030685242, 0.0000962989, -1717791.9, -2890.9622, 0.0, 10.001778, 9.993481 
4.7651035e+3, 1.3500348e+2, -1620441.5, -1627283.1, -1.1982746, 0.00030411282, -0.00008233129, -1620441.5, -3475.1826, 0.0, 10.001765, 9.992698 
4.7651032e+3, 1.449903e+2, -1532317.9, -1547922.6, 0.34446743, 0.00030225996, 0.00018017738, -1532317.9, -13222.4, 0.0, 10.001753, 9.981073 
4.7651032e+3, 1.5497136e+2, -1434618.3, -1450617.5, -3.9013762, 0.00030128908, -0.00000710219, -1434618.3, -13337.142, 0.0, 10.001741, 9.980542 
4.7651026e+3, 1.649458e+2, -1346588.9, -1371760.5, -1.1694517, 0.00030023645, 0.000075958174, -1346588.9, -23057.354, 0.0, 10.00173, 9.968461 
4.765102e+3, 1.749143e+2, -1248657.0, -1274136.4, -6.074615, 0.00029910204, -0.000027563576, -1248657.0, -22816.86, 0.0, 10.001719, 9.968047 
4.7651017e+3, 1.8487619e+2, -1160591.8, -1195549.9, -2.1028316, 0.00029803338, 0.00011716564, -1160591.8, -32378.02, 0.0, 10.001709, 9.955617 
4.765101e+3, 1.9483183e+2, -1062466.5, -1097679.8, -6.866631, 0.0002970322, -0.000015374482, -1062466.5, -31818.1, 0.0, 10.001699, 9.955274 
4.765101e+3, 2.0478082e+2, -974319.4, -1019289.44, -2.5106673, 0.0002960141, 0.00010625629, -974319.4, -41171.098, 0.0, 10.001689, 9.942517 
4.7651005e+3, 2.1472338e+2, -876055.6, -921280.56, -6.8543425, 0.00029497754, -0.00008773525, -876055.6, -40344.434, 0.0, 10.00168, 9.942177 
4.7651002e+3, 2.2465923e+2, -787785.44, -843022.7, -2.16938, 0.00029393524, 0.00015905742, -787785.44, -49445.727, 0.0, 10.001671, 9.92914 
4.7651002e+3, 2.3458844e+2, -689374.1, -744859.75, -6.640447, 0.00029288593, -0.000053624008, -689374.1, -48340.6, 0.0, 10.001662, 9.928809 
4.7650996e+3, 2.445107e+2, -601066.5, -666921.44, -1.4996591, 0.00029200528, 0.000107839485, -601066.5, -57271.113, 0.0, 10.001654, 9.915373 
4.765099e+3, 2.5442618e+2, -502335.4, -568261.0, -5.494847, 0.00029132504, -0.000074571326, -502335.4, -55711.89, 0.0, 10.001645, 9.915273 
4.765099e+3, 2.643346e+2, -414116.25, -490915.47, -0.13472761, 0.00029046639, 0.0001712504, -414116.25, -64595.15, 0.0, 10.0016365, 9.901204 
4.7650987e+3, 2.7423635e+2, -314852.13, -391317.03, -4.1099935, 0.0002893802, -0.00017498915, -314852.13, -62368.246, 0.0, 10.001628, 9.901625 
4.7650987e+3, 2.841299e+2, -228388.83, -318022.13, 1.1572756, 0.0002884966, 0.00025587282, -228388.83, -72861.6, 0.0, 10.00162, 9.884689 
4.765098e+3, 2.9401562e+2, -128703.16, -217719.34, -2.3283615, 0.00028788953, -0.00022736356, -128703.16, -70056.164, 0.0, 10.001612, 9.8854685 
4.765098e+3, 3.0392933e+2, -38997.543, -84738.91, 2.7933576, 0.00028685146, 0.00019698059, -38997.543, -38997.543, 0.0, 10.001603, 9.941408 
4.7650978e+3, 3.1387258e+2, -37933.2, -82508.13, -0.7342018, 0.0002851745, -0.000035330428, -37933.2, -37933.2, 0.0, 10.001595, 9.942918 
4.775106e+3, 1.2501058e+2, -1717801.8, -1724069.9, -1.4966297, 0.00031055845, 0.00009721204, -1717801.8, -2904.9377, 0.0, 10.001778, 9.993469 
4.7751054e+3, 1.3500391e+2, -1620451.1, -1627301.6, -5.81937, 0.000307877, -0.00008052577, -1620451.1, -3488.9297, 0.0, 10.001765, 9.992686 
4.775105e+3, 1.4499071e+2, -1532327.1, -1547940.6, -4.0636797, 0.00030608027, 0.00018232103, -1532327.1, -13235.725, 0.0, 10.001753, 9.981062 
4.7751045e+3, 1.5497175e+2, -1434627.5, -1450635.5, -8.313638, 0.00030516338, -0.000005174813, -1434627.5, -13350.236, 0.0, 10.001741, 9.980531 
4.775104e+3, 1.6494618e+2, -1346599.5, -1371781.1, -5.1753397, 0.00030410904, 0.00007750023, -1346599.5, -23071.713, 0.0, 10.00173, 9.968448 
4.7751036e+3, 1.7491467e+2, -1248667.5, -1274156.9, -10.078385, 0.00030291642, -0.000026578398, -1248667.5, -22830.97, 0.0, 10.001719, 9.968035 
4.7751036e+3, 1.8487655e+2, -1160602.0, -1195570.0, -5.79478, 0.00030182305, 0.0001180923, -1160602.0, -32391.709, 0.0, 10.001709, 9.955604 
4.775103e+3, 1.9483219e+2, -1062476.5, -1097699.8, -10.555042, 0.0003008321, -0.000013987437, -1062476.5, -31831.547, 0.0, 10.001699, 9.955261 
4.7751024e+3, 2.0478116e+2, -974328.6, -1019307.94, -6.006821, 0.00029972012, 0.00010770356, -974328.6, -41183.613, 0.0, 10.00169, 9.942506 
4.775102e+3, 2.1472369e+2, -876064.75, -921298.9, -10.350458, 0.0002984775, -0.000086659296, -876064.75, -40356.703, 0.0, 10.00168, 9.942164 
4.775102e+3, 2.2465955e+2, -787794.94, -843041.94, -5.4744473, 0.00029749575, 0.00015997414, -787794.94, -49458.258, 0.0, 10.001671, 9.929128 
4.7751015e+3, 2.3458874e+2, -689383.5, -744878.9, -9.938438, 0.0002968077, -0.00005262716, -689383.5, -48352.906, 0.0, 10.001662, 9.928797 
4.775101e+3, 2.44511e+2, -601075.2, -666939.2, -4.713853, 0.00029590048, 0.000108913184, -601075.2, -57282.574, 0.0, 10.001654, 9.915361 
4.775101e+3, 2.5442648e+2, -502343.94, -568278.6, -8.708157, 0.0002947314, -0.00007342497, -502343.94, -55723.1, 0.0, 10.001645, 9.915261 
4.7751006e+3, 2.6433486e+2, -414124.97, -490933.6, -3.2719057, 0.0002937099, 0.00017234909, -414124.97, -64606.438, 0.0, 10.0016365, 9.901193 
4.7751006e+3, 2.742366e+2, -314860.75, -391335.06, -7.242449, 0.00029287575, -0.00017409086, -314860.75, -62379.32, 0.0, 10.001628, 9.901613 
4.7751e+3, 2.8413013e+2, -228396.86, -318039.03, -1.9700317, 0.00029221125, 0.0002567892, -228396.86, -72871.945, 0.0, 10.00162, 9.884678 
4.7751e+3, 2.9401585e+2, -128711.03, -217736.06, -5.455659, 0.00029177632, -0.00022613004, -128711.03, -70066.25, 0.0, 10.001612, 9.885457 
4.7750998e+3, 3.0392954e+2, -39006.02, -84756.93, -0.35737777, 0.00029058268, 0.00019815886, -39006.02, -39006.02, 0.0, 10.001603, 9.941396 
4.7750998e+3, 3.138728e+2, -37941.766, -82526.336, -3.8887591, 0.00028826477, -0.000034761935, -37941.766, -37941.766, 0.0, 10.001595, 9.942905 
4.7851074e+3, 1.2501103e+2, -1717724.5, -1724041.6, 3.3872664, 0.00031429785, 0.00009863205, -1717724.5, -2832.056, 0.0, 10.001831, 9.993458 
4.785107e+3, 1.3500433e+2, -1620374.3, -1627273.9, -0.84897596, 0.00031164743, -0.00007911661, -1620374.3, -3416.244, 0.0, 10.001819, 9.992675 
4.785107e+3, 1.4499113e+2, -1532250.8, -1547913.8, 0.97448784, 0.00030991933, 0.00018368586, -1532250.8, -13163.463, 0.0, 10.001807, 9.9810505 
4.7851065e+3, 1.5497215e+2, -1434551.4, -1450608.9, -3.7145126, 0.00030910847, -0.000003888176, -1434551.4, -13278.088, 0.0, 10.001795, 9.980519 
4.785106e+3, 1.6494659e+2, -1346524.9, -1371756.9, -0.4607859, 0.00030804856, 0.00007871663, -1346524.9, -23000.877, 0.0, 10.001783, 9.968435 
4.7851056e+3, 1.7491508e+2, -1248593.6, -1274133.3, -5.3813806, 0.00030673714, -0.00002542406, -1248593.6, -22760.904, 0.0, 10.001773, 9.968021 
4.785105e+3, 1.848769e+2, -1160528.9, -1195546.6, -0.81642693, 0.00030556115, 0.000119286735, -1160528.9, -32322.209, 0.0, 10.001762, 9.955591 
4.7851044e+3, 1.9483253e+2, -1062404.5, -1097677.1, -5.5961285, 0.00030452517, -0.000012646522, -1062404.5, -31763.05, 0.0, 10.001752, 9.955248 
4.7851044e+3, 2.0478149e+2, -974257.2, -1019285.4, -1.0077604, 0.00030342268, 0.000108974855, -974257.2, -41115.55, 0.0, 10.001741, 9.942493 
4.785104e+3, 2.1472403e+2, -875994.2, -921276.94, -5.758253, 0.00030224829, -0.000085690685, -875994.2, -40289.355, 0.0, 10.001732, 9.942152 
4.7851035e+3, 2.2465986e+2, -787725.06, -843020.5, -0.8682534, 0.0003012781, 0.00016092326, -787725.06, -49391.5, 0.0, 10.001722, 9.929115 
4.7851035e+3, 2.3458906e+2, -689314.5, -744858.06, -5.2828293, 0.00030053777, -0.000051378094, -689314.5, -48286.87, 0.0, 10.001714, 9.928784 
4.785103e+3, 2.4451128e+2, -601006.75, -666918.5, -0.1263176, 0.0002995719, 0.000110190704, -601006.75, -57217.023, 0.0, 10.001704, 9.915349 
4.7851026e+3, 2.5442675e+2, -502276.66, -568258.6, -4.466917, 0.00029833667, -0.00007244257, -502276.66, -55658.566, 0.0, 10.001696, 9.915249 
4.7851026e+3, 2.6433516e+2, -414058.47, -490914.22, 0.89760125, 0.0002972914, 0.00017322524, -414058.47, -64542.586, 0.0, 10.001687, 9.90118 
4.785102e+3, 2.742369e+2, -314794.88, -391316.2, -3.1558857, 0.00029648741, -0.00017308042, -314794.88, -62315.957, 0.0, 10.001678, 9.901601 
4.785102e+3, 2.8413036e+2, -228330.95, -318019.44, 2.0370286, 0.00029584081, 0.00025785717, -228330.95, -72808.45, 0.0, 10.00167, 9.884666 
4.7851014e+3, 2.940161e+2, -128645.86, -217716.95, -1.5351474, 0.00029540676, -0.0002251107, -128645.86, -70003.38, 0.0, 10.001661, 9.885446 
4.7851014e+3, 3.0392975e+2, -38942.887, -84740.39, 3.3098583, 0.00029416822, 0.00019915598, -38942.887, -38942.887, 0.0, 10.001653, 9.941383 
4.785101e+3, 3.1387302e+2, -37879.414, -82510.336, -0.4003493, 0.0002917378, -0.000033746437, -37879.414, -37879.414, 0.0, 10.001643, 9.942893 
4.7951093e+3, 1.2501149e+2, -1717734.0, -1724059.9, -1.2120273, 0.0003180707, 0.0001005387, -1717734.0, -2846.0674, 0.0, 10.001831, 9.993446 
4.795109e+3, 1.3500477e+2, -1620383.6, -1627292.0, -5.4531302, 0.00031542548, -0.00007808639, -1620383.6, -3430.022, 0.0, 10.001819, 9.992663 
4.7951084e+3, 1.4499156e+2, -1532261.1, -1547933.8, -3.3990471, 0.00031377803, 0.000184305, -1532261.1, -13178.012, 0.0, 10.001807, 9.981038 
4.7951078e+3, 1.5497258e+2, -1434561.6, -1450628.8, -8.085177, 0.0003131231, -0.0000032153275, -1434561.6, -13292.391, 0.0, 10.001796, 9.980507 
4.7951078e+3, 1.6494697e+2, -1346535.5, -1371777.6, -4.583686, 0.00031205395, 0.0000796213, -1346535.5, -23015.496, 0.0, 10.001784, 9.968422 
4.7951075e+3, 1.7491545e+2, -1248604.3, -1274153.9, -9.504101, 0.00031056558, -0.000024106575, -1248604.1, -22775.273, 0.0, 10.001773, 9.968008 
4.795107e+3, 1.8487729e+2, -1160539.1, -1195566.9, -4.688378, 0.00030925134, 0.00012073903, -1160539.1, -32336.164, 0.0, 10.001762, 9.955578 
4.7951064e+3, 1.948329e+2, -1062414.6, -1097697.3, -9.466623, 0.00030811733, -0.000011348854, -1062414.6, -31776.754, 0.0, 10.001752, 9.9552355 
4.795106e+3, 2.0478186e+2, -974267.3, -1019305.56, -4.6182003, 0.00030712353, 0.0001100782, -974267.3, -41129.125, 0.0, 10.001742, 9.94248 
4.7951055e+3, 2.1472436e+2, -876004.1, -921297.0, -9.363792, 0.00030628065, -0.0000848244, -876004.1, -40302.68, 0.0, 10.001732, 9.94214 
4.7951055e+3, 2.246602e+2, -787734.5, -843039.56, -4.2839465, 0.00030527497, 0.0001619042, -787734.5, -49404.156, 0.0, 10.001723, 9.929103 
4.795105e+3, 2.3458937e+2, -689323.8, -744877.0, -8.693865, 0.0003040852, -0.00004988591, -689323.8, -48299.28, 0.0, 10.001714, 9.928772 
4.7951046e+3, 2.4451157e+2, -601016.06, -666937.6, -3.5299249, 0.00030302998, 0.00011166489, -601016.06, -57229.348, 0.0, 10.001705, 9.915337 
4.7951046e+3, 2.5442705e+2, -502285.88, -568277.6, -7.871344, 0.00030213446, -0.00007161693, -502285.88, -55670.645, 0.0, 10.001696, 9.915236 
4.795104e+3, 2.6433542e+2, -414067.4, -490932.75, -2.3023086, 0.00030119903, 0.00017388833, -414067.4, -64554.246, 0.0, 10.001687, 9.901169 
4.795104e+3, 2.7423713e+2, -314803.66, -391334.6, -6.3431525, 0.0003002121, -0.00017196147, -314803.66, -62327.375, 0.0, 10.001678, 9.901588 
4.7951034e+3, 2.8413063e+2, -228339.13, -318036.7, -1.18824, 0.0002993901, 0.0002590715, -228339.13, -72819.13, 0.0, 10.00167, 9.884655 
4.795103e+3, 2.9401633e+2, -128653.875, -217733.98, -4.7656918, 0.00029879232, -0.00022429644, -128653.875, -70013.79, 0.0, 10.001661, 9.885434 
4.795103e+3, 3.0392998e+2, -38951.652, -84759.03, -0.009095298, 0.0002976152, 0.00019997987, -38951.652, -38951.652, 0.0, 10.001653, 9.941371 
4.7951025e+3, 3.1387323e+2, -37888.277, -82529.18, -3.7292728, 0.00029558007, -0.000032300584, -37888.277, -37888.277, 0.0, 10.001644, 9.942881 
4.8051113e+3, 1.2501195e+2, -1717654.9, -1724031.4, 3.6074755, 0.00032200234, 0.000102098675, -1717654.9, -2771.4365, 0.0, 10.001886, 9.993435 
4.8051107e+3, 1.3500524e+2, -1620304.9, -1627263.9, -1.1435099, 0.0003193689, -0.000076966266, -1620304.9, -3355.7087, 0.0, 10.001874, 9.992651 
4.8051104e+3, 1.4499201e+2, -1532182.9, -1547906.3, 0.98539644, 0.00031770015, 0.00018527533, -1532182.9, -13104.119, 0.0, 10.001862, 9.981026 
4.8051098e+3, 1.54973e+2, -1434483.9, -1450601.8, -3.5054982, 0.00031699066, -0.0000021052167, -1434483.9, -13218.966, 0.0, 10.00185, 9.9804945 
4.8051095e+3, 1.649474e+2, -1346459.3, -1371752.8, 0.27014416, 0.00031589644, 0.00008083286, -1346459.3, -22943.418, 0.0, 10.001839, 9.968409 
4.805109e+3, 1.7491587e+2, -1248528.8, -1274129.8, -4.7795434, 0.000314413, -0.000022832264, -1248528.8, -22703.861, 0.0, 10.001827, 9.967995 
4.8051083e+3, 1.8487768e+2, -1160464.1, -1195542.9, 0.17234659, 0.0003130982, 0.000122014775, -1160464.1, -32265.092, 0.0, 10.001817, 9.955565 
4.8051083e+3, 1.9483328e+2, -1062340.4, -1097673.8, -4.765021, 0.00031195796, -0.000010135564, -1062340.4, -31706.268, 0.0, 10.001806, 9.955222 
4.805108e+3, 2.0478223e+2, -974193.75, -1019282.56, 0.2293649, 0.0003109623, 0.000111260466, -974193.75, -41059.16, 0.0, 10.001796, 9.942468 
4.8051074e+3, 2.1472473e+2, -875931.44, -921274.7, -4.5833836, 0.0003101223, -0.00008363929, -875931.44, -40233.434, 0.0, 10.001786, 9.942126 
4.8051068e+3, 2.2466053e+2, -787662.4, -843017.2, 0.5344617, 0.00030907293, 0.00016307928, -787662.4, -49335.348, 0.0, 10.001776, 9.9290905 
4.8051068e+3, 2.345897e+2, -689252.9, -744855.44, -4.0513973, 0.00030778698, -0.00004873537, -689252.9, -48231.59, 0.0, 10.001766, 9.92876 
4.8051065e+3, 2.445119e+2, -600945.94, -666916.75, 1.0841508, 0.00030674282, 0.00011278643, -600945.94, -57162.324, 0.0, 10.001757, 9.915324 
4.805106e+3, 2.5442734e+2, -502216.06, -568257.2, -3.42145, 0.00030598618, -0.00007052981, -502216.06, -55603.79, 0.0, 10.001748, 9.915224 
4.805106e+3, 2.643357e+2, -413997.94, -490912.25, 2.0964973, 0.00030506216, 0.00017496957, -413997.94, -64487.617, 0.0, 10.0017395, 9.901156 
4.8051053e+3, 2.7423742e+2, -314735.47, -391314.88, -2.0823002, 0.00030392455, -0.00017084977, -314735.47, -62261.883, 0.0, 10.00173, 9.901576 
4.805105e+3, 2.841309e+2, -228271.42, -318016.66, 2.9230762, 0.0003029914, 0.000260134, -228271.42, -72754.016, 0.0, 10.001721, 9.884644 
4.805105e+3, 2.940166e+2, -128587.04, -217714.53, -0.8873892, 0.00030233696, -0.00022339226, -128587.04, -69949.44, 0.0, 10.001712, 9.885423 
4.8051044e+3, 3.0393022e+2, -38886.527, -84741.836, 3.6242778, 0.00030118186, 0.00020085949, -38886.527, -38886.527, 0.0, 10.001703, 9.941359 
4.8051044e+3, 3.1387347e+2, -37823.15, -82512.13, -0.13536638, 0.00029928496, -0.00003124566, -37823.15, -37823.15, 0.0, 10.001695, 9.942867 
4.8151132e+3, 1.2501243e+2, -1717665.5, -1724051.8, -0.99957937, 0.00032608764, 0.00010332804, -1717665.5, -2786.866, 0.0, 10.001886, 9.993422 
4.8151127e+3, 1.3500571e+2, -1620315.5, -1627284.1, -5.746281, 0.00032347237, -0.00007575937, -1620315.5, -3370.8813, 0.0, 10.001874, 9.992639 
4.8151124e+3, 1.4499246e+2, -1532192.8, -1547925.3, -3.4208982, 0.00032168467, 0.00018658253, -1532192.8, -13118.438, 0.0, 10.001863, 9.981014 
4.8151118e+3, 1.5497345e+2, -1434493.6, -1450620.6, -7.9148507, 0.000320719, -0.0000005752986, -1434493.6, -13233.057, 0.0, 10.00185, 9.980482 
4.8151115e+3, 1.6494784e+2, -1346470.3, -1371774.1, -3.9472866, 0.00031958462, 0.00008233951, -1346470.3, -22958.553, 0.0, 10.001839, 9.968395 
4.815111e+3, 1.7491628e+2, -1248539.6, -1274150.9, -8.995968, 0.00031828028, -0.000021598406, -1248539.6, -22718.732, 0.0, 10.001827, 9.967981 
4.8151103e+3, 1.848781e+2, -1160474.8, -1195563.8, -3.7750895, 0.00031709688, 0.0001231222, -1160474.8, -32279.605, 0.0, 10.001817, 9.955552 
4.81511e+3, 1.9483368e+2, -1062350.9, -1097694.5, -8.7103815, 0.00031603838, -0.000009002321, -1062350.9, -31720.521, 0.0, 10.001806, 9.955209 
4.81511e+3, 2.0478259e+2, -974204.0, -1019303.06, -3.4895782, 0.00031493494, 0.00011251922, -974204.0, -41073.098, 0.0, 10.001796, 9.942454 
4.8151094e+3, 2.1472509e+2, -875941.56, -921295.0, -8.298084, 0.00031378283, -0.00008214756, -875941.56, -40247.117, 0.0, 10.001786, 9.942113 
4.8151088e+3, 2.2466089e+2, -787672.2, -843037.0, -3.0909045, 0.00031268198, 0.0001644414, -787672.2, -49348.57, 0.0, 10.001777, 9.929078 
4.8151085e+3, 2.3459002e+2, -689262.56, -744875.1, -7.6762066, 0.00031163835, -0.00004791164, -689262.56, -48244.55, 0.0, 10.001766, 9.928747 
4.8151085e+3, 2.4451222e+2, -600955.6, -666936.56, -2.303284, 0.00031070152, 0.0001135706, -600955.6, -57175.17, 0.0, 10.001758, 9.915311 
4.815108e+3, 2.5442767e+2, -502225.6, -568276.9, -6.797029, 0.0003098912, -0.000069191025, -502225.6, -55616.395, 0.0, 10.001748, 9.915211 
4.8151073e+3, 2.64336e+2, -414007.13, -490931.38, -1.3098924, 0.00030888422, 0.0001764527, -414007.13, -64499.75, 0.0, 10.0017395, 9.901143 
4.8151073e+3, 2.742377e+2, -314744.5, -391333.84, -5.4926414, 0.00030762682, -0.00016974426, -314744.5, -62273.75, 0.0, 10.00173, 9.901564 
4.815107e+3, 2.8413117e+2, -228280.0, -318034.78, -0.44274047, 0.00030664398, 0.00026105167, -228280.0, -72765.29, 0.0, 10.001721, 9.884631 
4.8151064e+3, 2.9401684e+2, -128595.47, -217732.47, -4.249925, 0.00030603574, -0.00022240107, -128595.47, -69960.445, 0.0, 10.001712, 9.885411 
4.8151064e+3, 3.039305e+2, -38895.367, -84760.68, 0.31890044, 0.00030486484, 0.00020179327, -38895.367, -38895.367, 0.0, 10.001703, 9.941345 
4.815106e+3, 3.1387368e+2, -37832.055, -82531.1, -3.43691, 0.00030285964, -0.000030565177, -37832.055, -37832.055, 0.0, 10.001695, 9.942855 
4.8251152e+3, 1.2501292e+2, -1717584.1, -1724022.4, 3.5331416, 0.0003301166, 0.00010436755, -1717584.1, -2710.2676, 0.0, 10.001944, 9.99341 
4.8251146e+3, 1.3500617e+2, -1620234.8, -1627255.3, -0.91639626, 0.000327472, -0.00007420713, -1620234.8, -3294.849, 0.0, 10.001931, 9.992626 
4.8251143e+3, 1.4499293e+2, -1532112.8, -1547897.1, 1.5823369, 0.0003256492, 0.00018822296, -1532112.8, -13043.045, 0.0, 10.001919, 9.981002 
4.8251137e+3, 1.5497391e+2, -1434414.6, -1450593.1, -3.2388053, 0.0003246425, 0.0000007289884, -1434414.6, -13158.447, 0.0, 10.001906, 9.98047 
4.8251134e+3, 1.6494827e+2, -1346392.6, -1371748.8, 0.819532, 0.0003235022, 0.000083515515, -1346392.6, -22885.266, 0.0, 10.001895, 9.968382 
4.8251128e+3, 1.749167e+2, -1248462.4, -1274126.0, -4.270213, 0.00032222772, -0.000020339772, -1248462.4, -22645.697, 0.0, 10.0018835, 9.967968 
4.8251122e+3, 1.8487851e+2, -1160397.9, -1195539.1, 1.1157894, 0.00032106473, 0.00012438724, -1160397.9, -32206.836, 0.0, 10.001872, 9.955539 
4.825112e+3, 1.9483408e+2, -1062274.8, -1097670.5, -3.9342465, 0.00032001676, -0.000007810167, -1062274.8, -31648.377, 0.0, 10.001862, 9.955195 
4.8251113e+3, 2.04783e+2, -974128.56, -1019279.4, 1.3982906, 0.00031886698, 0.00011375108, -974128.56, -41001.46, 0.0, 10.001851, 9.942441 
4.8251107e+3, 2.1472546e+2, -875867.2, -921272.06, -3.4785483, 0.00031760734, -0.00008075465, -875867.2, -40176.438, 0.0, 10.001841, 9.942101 
4.8251107e+3, 2.2466126e+2, -787598.4, -843014.5, 1.7606167, 0.00031649508, 0.00016576715, -787598.4, -49278.355, 0.0, 10.001831, 9.929065 
4.8251104e+3, 2.3459038e+2, -689189.2, -744853.0, -3.0852673, 0.00031554847, -0.000046910292, -689189.2, -48174.605, 0.0, 10.0018215, 9.928734 
4.8251098e+3, 2.4451256e+2, -600882.7, -666914.6, 2.3147357, 0.00031461453, 0.00011453413, -600882.7, -57105.53, 0.0, 10.001812, 9.915298 
4.8251092e+3, 2.5442797e+2, -502153.78, -568255.6, -2.1701734, 0.00031369494, -0.00006792395, -502153.78, -55547.746, 0.0, 10.001802, 9.915198 
4.8251092e+3, 2.6433632e+2, -413936.03, -490910.63, 3.2711382, 0.0003126389, 0.0001777707, -413936.03, -64431.69, 0.0, 10.001793, 9.901131 
4.825109e+3, 2.7423802e+2, -314674.0, -391313.56, -1.1437643, 0.00031140912, -0.00016869663, -314674.0, -62206.156, 0.0, 10.001783, 9.901551 
4.825109e+3, 2.8413147e+2, -228209.5, -318013.94, 3.7708266, 0.00031044972, 0.00026200982, -228209.5, -72697.586, 0.0, 10.001775, 9.884619 
4.8251083e+3, 2.940171e+2, -128525.695, -217712.11, -0.15978107, 0.00030985882, -0.00022128409, -128525.695, -69893.34, 0.0, 10.001765, 9.885399 
4.825108e+3, 3.0393073e+2, -38827.61, -84742.79, 4.123465, 0.00030862604, 0.00020288519, -38827.61, -38827.61, 0.0, 10.001756, 9.941332 
4.825108e+3, 3.1387398e+2, -37765.133, -82513.766, 0.016411604, 0.0003064417, -0.000029772571, -37765.133, -37765.133, 0.0, 10.001747, 9.942842 
4.8351172e+3, 1.2501343e+2, -1717594.1, -1724041.5, -1.1289632, 0.00033409352, 0.000105226354, -1717594.1, -2725.2288, 0.0, 10.001944, 9.993398 
4.8351166e+3, 1.3500667e+2, -1620244.6, -1627274.4, -5.5799875, 0.0003313741, -0.000072323506, -1620244.6, -3309.5786, 0.0, 10.001931, 9.992615 
4.8351163e+3, 1.4499341e+2, -1532123.4, -1547917.5, -2.9411578, 0.00032959634, 0.00019018316, -1532123.4, -13058.351, 0.0, 10.001919, 9.9809885 
4.8351157e+3, 1.5497439e+2, -1434425.1, -1450613.5, -7.761421, 0.00032875428, 0.0000018182681, -1434425.1, -13173.489, 0.0, 10.001906, 9.980457 
4.8351154e+3, 1.6494873e+2, -1346403.6, -1371770.3, -3.3876917, 0.00032764085, 0.00008437606, -1346403.6, -22900.7, 0.0, 10.001895, 9.968369 
4.8351148e+3, 1.7491715e+2, -1248473.3, -1274147.4, -8.477251, 0.00032625356, -0.000019056486, -1248473.3, -22660.877, 0.0, 10.0018835, 9.967955 
4.8351142e+3, 1.8487893e+2, -1160408.6, -1195560.5, -2.913919, 0.00032500483, 0.00012580404, -1160408.6, -32221.824, 0.0, 10.001873, 9.955525 
4.835114e+3, 1.9483449e+2, -1062285.5, -1097691.8, -7.962305, 0.00032389924, -0.0000065607373, -1062285.5, -31663.1, 0.0, 10.001862, 9.955182 
4.8351133e+3, 2.0478338e+2, -974138.94, -1019300.1, -2.4845877, 0.000322762, 0.00011495807, -974138.94, -41015.76, 0.0, 10.001851, 9.942428 
4.8351127e+3, 2.1472587e+2, -875877.44, -921292.7, -7.3600116, 0.0003215905, -0.000079455436, -875877.44, -40190.47, 0.0, 10.001841, 9.942087 
4.8351124e+3, 2.2466162e+2, -787608.7, -843035.4, -1.8687956, 0.0003205052, 0.00016705901, -787608.7, -49292.316, 0.0, 10.001831, 9.929051 
4.8351124e+3, 2.3459074e+2, -689199.4, -744873.75, -6.706543, 0.00031951664, -0.000045738034, -689199.4, -48188.31, 0.0, 10.0018215, 9.92872 
4.8351118e+3, 2.4451292e+2, -600892.4, -666934.44, -1.242929, 0.00031848557, 0.00011567021, -600892.4, -57118.59, 0.0, 10.001812, 9.915285 
4.8351112e+3, 2.5442833e+2, -502163.3, -568275.3, -5.726816, 0.0003174033, -0.00006672471, -502163.3, -55560.535, 0.0, 10.001802, 9.915185 
4.835111e+3, 2.6433665e+2, -413945.63, -490930.6, -0.1929738, 0.00031633064, 0.0001789314, -413945.63, -64444.44, 0.0, 10.001793, 9.901117 
4.835111e+3, 2.7423832e+2, -314683.5, -391333.44, -4.6024017, 0.00031526975, -0.00016770365, -314683.5, -62218.656, 0.0, 10.001783, 9.901538 
4.8351103e+3, 2.8413174e+2, -228218.33, -318032.56, 0.31895506, 0.00031440388, 0.00026300756, -228218.33, -72709.29, 0.0, 10.001775, 9.884606 
4.8351103e+3, 2.9401743e+2, -128534.34, -217730.5, -3.6116543, 0.00031380268, -0.00022004571, -128534.34, -69904.76, 0.0, 10.001765, 9.885386 
4.83511e+3, 3.03931e+2, -38837.043, -84762.9, 0.6397996, 0.0003124638, 0.00020412948, -38837.043, -38837.043, 0.0, 10.001757, 9.9413185 
4.8351094e+3, 3.138742e+2, -37774.676, -82534.09, -3.471932, 0.00031003245, -0.00002887189, -37774.67, -37774.67, 0.0, 10.001747, 9.942827 
4.845119e+3, 1.2501395e+2, -1717511.3, -1724011.1, 3.7669244, 0.000338128, 0.00010664403, -1717511.3, -2647.3242, 0.0, 10.002001, 9.993385 
4.8451185e+3, 1.3500719e+2, -1620162.1, -1627244.4, -0.87679523, 0.0003353686, -0.00007099126, -1620162.1, -3232.0383, 0.0, 10.001988, 9.992602 
4.8451182e+3, 1.4499392e+2, -1532041.8, -1547888.9, 1.8524888, 0.00033362495, 0.00019149201, -1532041.8, -12981.499, 0.0, 10.001976, 9.980976 
4.8451176e+3, 1.5497485e+2, -1434343.8, -1450585.3, -2.9588542, 0.0003328908, 0.00000316521, -1434343.6, -13096.812, 0.0, 10.001965, 9.980445 
4.8451173e+3, 1.6494921e+2, -1346323.5, -1371744.0, 1.5893351, 0.00033178777, 0.000085702784, -1346323.5, -22825.234, 0.0, 10.001952, 9.968354 
4.8451167e+3, 1.7491761e+2, -1248394.3, -1274121.8, -3.6468709, 0.000330312, -0.000017808828, -1248394.3, -22586.332, 0.0, 10.001941, 9.967941 
4.845116e+3, 1.8487938e+2, -1160330.4, -1195535.4, 2.0415168, 0.00032898886, 0.00012706031, -1160330.4, -32147.865, 0.0, 10.001929, 9.955511 
4.8451158e+3, 1.9483492e+2, -1062207.9, -1097667.3, -3.078792, 0.0003278234, -0.000005204795, -1062207.9, -31589.748, 0.0, 10.001919, 9.955169 
4.8451152e+3, 2.047838e+2, -974061.75, -1019275.9, 2.4868941, 0.00032669798, 0.00011628106, -974061.75, -40942.625, 0.0, 10.001907, 9.942414 
4.8451146e+3, 2.1472625e+2, -875800.6, -921268.9, -2.5669494, 0.0003256154, -0.00007830824, -875800.6, -40117.563, 0.0, 10.001898, 9.942073 
4.8451144e+3, 2.2466202e+2, -787532.44, -843012.0, 3.0001104, 0.00032453533, 0.0001682077, -787532.44, -49219.824, 0.0, 10.001887, 9.929038 
4.8451138e+3, 2.3459111e+2, -689124.1, -744851.1, -1.879171, 0.0003234575, -0.000044388107, -689124.1, -48116.695, 0.0, 10.001877, 9.928707 
4.8451138e+3, 2.4451327e+2, -600817.6, -666911.9, 3.570015, 0.00032236488, 0.00011701829, -600817.6, -57047.36, 0.0, 10.001867, 9.915272 
4.8451132e+3, 2.5442865e+2, -502089.28, -568253.3, -1.1455035, 0.00032125408, -0.00006562034, -502089.28, -55489.902, 0.0, 10.001858, 9.915173 
4.845113e+3, 2.6433697e+2, -413872.25, -490909.2, 4.3363028, 0.0003201792, 0.00017993813, -413872.25, -64374.28, 0.0, 10.001848, 9.901104 
4.845113e+3, 2.7423862e+2, -314610.66, -391312.56, -0.19369672, 0.00031914946, -0.00016660866, -314610.66, -62148.953, 0.0, 10.001839, 9.901525 
4.8451123e+3, 2.8413206e+2, -228145.39, -318010.84, 4.620351, 0.00031829067, 0.00026414474, -228145.39, -72639.34, 0.0, 10.001829, 9.884594 
4.8451117e+3, 2.940177e+2, -128462.11, -217709.28, 0.5757579, 0.00031766357, -0.00021893023, -128462.11, -69835.4, 0.0, 10.001821, 9.885374 
4.8451117e+3, 3.0393127e+2, -38766.926, -84744.59, 4.575241, 0.0003162924, 0.00020522466, -38766.926, -38766.926, 0.0, 10.001811, 9.941304 
4.8451114e+3, 3.1387448e+2, -37705.016, -82516.2, 0.28559655, 0.00031381982, -0.00002779386, -37705.016, -37705.016, 0.0, 10.0018015, 9.942813 
4.855121e+3, 1.2501447e+2, -1717521.6, -1724031.1, -0.90525603, 0.00034221922, 0.00010859598, -1717521.6, -2662.9695, 0.0, 10.002001, 9.993373 
4.8551205e+3, 1.3500771e+2, -1620172.5, -1627264.3, -5.5498824, 0.00033945308, -0.00007018458, -1620172.5, -3247.4297, 0.0, 10.001988, 9.99259 
4.8551202e+3, 1.4499441e+2, -1532052.3, -1547909.4, -2.6376536, 0.00033773316, 0.00019218001, -1532052.3, -12997.0, 0.0, 10.001976, 9.980964 
4.8551196e+3, 1.5497535e+2, -1434354.1, -1450605.5, -7.4479337, 0.00033705283, 0.0000047593094, -1434354.1, -13112.069, 0.0, 10.001965, 9.980432 
4.8551193e+3, 1.6494967e+2, -1346334.9, -1371766.0, -2.7673128, 0.00033594447, 0.000087475724, -1346334.9, -22841.232, 0.0, 10.001952, 9.968341 
4.8551187e+3, 1.7491807e+2, -1248405.4, -1274143.8, -8.003519, 0.00033440345, -0.000016594347, -1248405.4, -22602.057, 0.0, 10.001941, 9.967927 
4.855118e+3, 1.8487982e+2, -1160341.4, -1195557.0, -2.0655494, 0.00033301665, 0.0001281641, -1160341.4, -32163.225, 0.0, 10.001929, 9.955498 
4.8551178e+3, 1.9483536e+2, -1062218.8, -1097688.8, -7.1842294, 0.00033178917, -0.0000037461052, -1062218.8, -31604.842, 0.0, 10.001919, 9.955154 
4.8551172e+3, 2.0478423e+2, -974072.5, -1019297.4, -1.3833747, 0.00033067484, 0.000117715805, -974072.5, -40957.52, 0.0, 10.001908, 9.9424 
4.8551166e+3, 2.1472667e+2, -875811.25, -921290.25, -6.4335275, 0.00032968214, -0.0000773055, -875811.25, -40132.188, 0.0, 10.001898, 9.9420595 
4.8551163e+3, 2.2466241e+2, -787542.8, -843033.06, -0.7708612, 0.0003285864, 0.00016922042, -787542.8, -49234.094, 0.0, 10.001887, 9.929024 
4.8551157e+3, 2.345915e+2, -689134.4, -744872.0, -5.64732, 0.000327374, -0.000042867345, -689134.4, -48130.7, 0.0, 10.001878, 9.928693 
4.8551157e+3, 2.4451365e+2, -600827.7, -666932.6, -0.07207769, 0.00032625385, 0.00011856997, -600827.7, -57061.074, 0.0, 10.001867, 9.915258 
4.855115e+3, 2.54429e+2, -502099.25, -568273.94, -4.7831764, 0.00032524284, -0.0000646059, -502099.25, -55503.348, 0.0, 10.001858, 9.915158 
4.8551148e+3, 2.643373e+2, -413882.1, -490929.7, 0.8298824, 0.00032417956, 0.00018079841, -413882.1, -64387.473, 0.0, 10.001848, 9.901091 
4.8551142e+3, 2.7423894e+2, -314620.38, -391332.94, -3.6920393, 0.0003230492, -0.00016541524, -314620.38, -62161.883, 0.0, 10.001839, 9.901511 
4.8551142e+3, 2.841324e+2, -228154.39, -318029.9, 1.0873505, 0.00032211482, 0.00026541614, -228154.39, -72651.445, 0.0, 10.00183, 9.884582 
4.8551136e+3, 2.94018e+2, -128470.945, -217728.11, -2.9620538, 0.00032144674, -0.00021793158, -128470.945, -69847.195, 0.0, 10.001821, 9.885362 
4.8551133e+3, 3.039316e+2, -38776.65, -84765.336, 1.005558, 0.00032011396, 0.00020617797, -38776.65, -38776.65, 0.0, 10.001811, 9.94129 
4.8551133e+3, 3.1387475e+2, -37714.855, -82537.195, -3.2880964, 0.0003177972, -0.00002654524, -37714.855, -37714.855, 0.0, 10.0018015, 9.942799 
4.865123e+3, 1.2501502e+2, -1717436.1, -1723999.9, 3.9528744, 0.00034641233, 0.00011004868, -1717436.1, -2582.816, 0.0, 10.002061, 9.9933605 
4.8651224e+3, 1.3500823e+2, -1620087.9, -1627233.6, -0.8416957, 0.00034364848, -0.00006892862, -1620087.9, -3168.022, 0.0, 10.002048, 9.992578 
4.865122e+3, 1.4499493e+2, -1531968.5, -1547879.6, 2.2161822, 0.0003418873, 0.0001934302, -1531968.5, -12918.298, 0.0, 10.002035, 9.98095 
4.8651215e+3, 1.5497586e+2, -1434271.1, -1450576.4, -2.5679495, 0.00034112198, 0.000006194232, -1434271.1, -13034.069, 0.0, 10.002023, 9.980419 
4.865121e+3, 1.6495016e+2, -1346253.5, -1371739.5, 2.26344, 0.0003399921, 0.00008893651, -1346253.5, -22764.75, 0.0, 10.002011, 9.968327 
4.8651206e+3, 1.7491855e+2, -1248324.6, -1274117.6, -3.0815, 0.00033849393, -0.000015268717, -1248324.6, -22525.936, 0.0, 10.001999, 9.967913 
4.86512e+3, 1.848803e+2, -1160260.9, -1195531.1, 2.9893782, 0.00033713196, 0.00012943348, -1160260.9, -32087.3, 0.0, 10.001987, 9.955483 
4.8651198e+3, 1.9483581e+2, -1062138.9, -1097663.4, -2.2627373, 0.00033591062, -0.0000024509304, -1062138.9, -31529.416, 0.0, 10.001977, 9.955141 
4.8651192e+3, 2.0478466e+2, -973993.25, -1019272.6, 3.638164, 0.00033475852, 0.000119006836, -973993.25, -40882.574, 0.0, 10.001966, 9.942387 
4.8651186e+3, 2.1472707e+2, -875732.8, -921266.06, -1.5445259, 0.0003336807, -0.00007605089, -875732.8, -40057.91, 0.0, 10.001955, 9.942045 
4.8651183e+3, 2.2466281e+2, -787464.8, -843009.0, 4.1569633, 0.0003325508, 0.0001704674, -787464.8, -49160.055, 0.0, 10.0019455, 9.92901 
4.8651177e+3, 2.3459189e+2, -689056.9, -744848.44, -0.7958707, 0.00033136146, -0.000041595475, -689056.9, -48057.074, 0.0, 10.001935, 9.928679 
4.865117e+3, 2.4451402e+2, -600750.7, -666909.56, 4.797778, 0.00033026858, 0.000119824355, -600750.7, -56987.78, 0.0, 10.001925, 9.915244 
4.865117e+3, 2.5442937e+2, -502022.78, -568251.4, -0.10451696, 0.00032928985, -0.00006341954, -502022.78, -55430.453, 0.0, 10.001915, 9.915145 
4.8651168e+3, 2.643377e+2, -413806.06, -490907.4, 5.449712, 0.0003282001, 0.0001819539, -413806.06, -64314.914, 0.0, 10.001905, 9.901077 
4.8651162e+3, 2.742393e+2, -314545.3, -391311.28, 0.8105019, 0.00032696882, -0.00016424323, -314545.3, -62090.13, 0.0, 10.001896, 9.901497 
4.8651156e+3, 2.841327e+2, -228079.44, -318007.7, 5.457098, 0.00032597888, 0.00026656003, -228079.44, -72579.68, 0.0, 10.001886, 9.884569 
4.8651156e+3, 2.940183e+2, -128396.6, -217706.34, 1.1914874, 0.00032531747, -0.00021687723, -128396.6, -69775.914, 0.0, 10.001877, 9.885348 
4.8651153e+3, 3.039319e+2, -38704.19, -84746.33, 4.8973103, 0.00032401882, 0.00020721296, -38704.19, -38704.19, 0.0, 10.001867, 9.941276 
4.8651153e+3, 3.1387502e+2, -37642.484, -82518.42, 0.4805749, 0.00032177655, -0.000025424453, -37642.484, -37642.484, 0.0, 10.001858, 9.942784 
4.875125e+3, 1.2501557e+2, -1717447.0, -1724020.5, -0.8167695, 0.00035070447, 0.0001110268, -1717447.0, -2599.043, 0.0, 10.002061, 9.993348 
4.8751244e+3, 1.3500877e+2, -1620098.5, -1627254.3, -5.6089525, 0.0003479515, -0.00006724341, -1620098.5, -3183.9968, 0.0, 10.002048, 9.992564 
4.875124e+3, 1.4499545e+2, -1531979.0, -1547899.9, -2.3594856, 0.0003460871, 0.00019521709, -1531979.0, -12933.973, 0.0, 10.002035, 9.980938 
4.8751235e+3, 1.5497638e+2, -1434281.5, -1450596.6, -7.1453624, 0.00034510452, 0.000007478241, -1434281.5, -13049.493, 0.0, 10.002023, 9.980407 
4.875123e+3, 1.6495067e+2, -1346265.1, -1371762.0, -2.1086717, 0.0003439377, 0.000090100664, -1346265.1, -22781.213, 0.0, 10.002011, 9.968312 
4.8751226e+3, 1.7491904e+2, -1248336.0, -1274140.0, -7.4532123, 0.0003425854, -0.000013836057, -1248336.0, -22542.125, 0.0, 10.002, 9.967898 
4.875122e+3, 1.8488076e+2, -1160272.1, -1195553.4, -1.1660706, 0.00034133275, 0.00013086172, -1160272.1, -32103.18, 0.0, 10.001988, 9.95547 
4.8751217e+3, 1.9483627e+2, -1062150.0, -1097685.5, -6.41667, 0.0003401826, -0.0000013108702, -1062150.0, -31545.014, 0.0, 10.001977, 9.955127 
4.875121e+3, 2.0478511e+2, -974004.3, -1019294.7, -0.32305315, 0.000338946, 0.00012016169, -974004.3, -40897.965, 0.0, 10.001966, 9.942372 
4.8751205e+3, 2.1472752e+2, -875743.75, -921288.0, -5.5019655, 0.0003376161, -0.000074554955, -875743.75, -40073.03, 0.0, 10.001956, 9.942032 
4.8751202e+3, 2.2466324e+2, -787475.3, -843030.4, 0.3545744, 0.00033643426, 0.00017193885, -787475.3, -49174.703, 0.0, 10.0019455, 9.928997 
4.8751196e+3, 2.345923e+2, -689067.25, -744869.7, -4.59568, 0.0003354185, -0.00004056036, -689067.25, -48071.44, 0.0, 10.001935, 9.928665 
4.875119e+3, 2.4451442e+2, -600761.2, -666931.1, 1.1287555, 0.0003344053, 0.00012079582, -600761.2, -57002.082, 0.0, 10.001925, 9.915231 
4.875119e+3, 2.5442976e+2, -502033.13, -568272.75, -3.7667022, 0.00033339436, -0.000062068095, -502033.13, -55444.492, 0.0, 10.001916, 9.915131 
4.8751187e+3, 2.6433805e+2, -413816.13, -490928.38, 1.8211288, 0.00033224188, 0.00018339219, -413816.13, -64328.547, 0.0, 10.001905, 9.901063 
4.875118e+3, 2.7423966e+2, -314555.22, -391332.13, -2.8179886, 0.0003309093, -0.0001630908, -314555.22, -62103.477, 0.0, 10.001896, 9.901484 
4.8751175e+3, 2.8413305e+2, -228088.83, -318027.56, 1.8612723, 0.00032988295, 0.000267583, -228088.83, -72592.36, 0.0, 10.001886, 9.884556 
4.8751175e+3, 2.9401866e+2, -128405.81, -217726.0, -2.4020214, 0.0003292736, -0.00021576884, -128405.81, -69788.29, 0.0, 10.001877, 9.885336 
4.8751172e+3, 3.039322e+2, -38714.133, -84767.56, 1.332846, 0.0003280051, 0.00020832676, -38714.133, -38714.133, 0.0, 10.001867, 9.941261 
4.8751166e+3, 3.1387535e+2, -37652.527, -82539.87, -3.082505, 0.00032575967, -0.000024425068, -37652.527, -37652.527, 0.0, 10.001858, 9.94277 
4.8851275e+3, 1.2501614e+2, -1717359.8, -1723988.4, 4.082158, 0.00035494464, 0.00011223194, -1717359.8, -2517.4302, 0.0, 10.002121, 9.993335 
4.8851264e+3, 1.3500933e+2, -1620012.0, -1627222.6, -0.5950245, 0.00035216706, -0.0000656151, -1620012.0, -3102.914, 0.0, 10.002109, 9.992552 
4.885126e+3, 1.44996e+2, -1531893.4, -1547869.4, 2.8038223, 0.00035027313, 0.00019688839, -1531893.4, -12853.645, 0.0, 10.002095, 9.980925 
4.8851255e+3, 1.549769e+2, -1434196.6, -1450566.8, -2.1842136, 0.00034925592, 0.00000881286, -1434196.6, -12969.839, 0.0, 10.002083, 9.980393 
4.885125e+3, 1.6495119e+2, -1346181.9, -1371734.8, 2.9655812, 0.0003480748, 0.00009133522, -1346181.9, -22703.086, 0.0, 10.002071, 9.968298 
4.8851246e+3, 1.7491955e+2, -1248253.4, -1274113.3, -2.4757764, 0.00034672892, -0.000012461636, -1248253.4, -22464.36, 0.0, 10.002059, 9.967884 
4.885124e+3, 1.8488126e+2, -1160189.8, -1195526.9, 3.9365978, 0.00034548284, 0.00013224247, -1160189.8, -32025.611, 0.0, 10.002048, 9.955456 
4.8851237e+3, 1.9483675e+2, -1062068.3, -1097659.5, -1.4310095, 0.00034433932, -0.000000062704025, -1062068.3, -31467.85, 0.0, 10.002037, 9.955112 
4.885123e+3, 2.0478557e+2, -973922.94, -1019269.06, 4.763493, 0.00034309097, 0.00012141939, -973922.94, -40821.13, 0.0, 10.002026, 9.942358 
4.8851225e+3, 2.1472797e+2, -875663.1, -921263.0, -0.4732569, 0.00034172946, -0.00007313467, -875663.1, -39996.785, 0.0, 10.002015, 9.942018 
4.8851222e+3, 2.2466366e+2, -787395.2, -843005.75, 5.4340444, 0.00034053344, 0.00017333112, -787395.2, -49098.773, 0.0, 10.002005, 9.928983 
4.8851216e+3, 2.345927e+2, -688987.6, -744845.56, 0.23035641, 0.00033952316, -0.00003941082, -688987.6, -47995.883, 0.0, 10.001994, 9.928652 
4.885121e+3, 2.4451482e+2, -600681.9, -666907.25, 5.94087, 0.0003384953, 0.00012189412, -600681.9, -56926.76, 0.0, 10.001985, 9.915216 
4.885121e+3, 2.5443017e+2, -501954.53, -568249.44, 1.0362277, 0.00033744567, -0.000060793125, -501954.53, -55369.72, 0.0, 10.001974, 9.915116 
4.8851207e+3, 2.643384e+2, -413738.1, -490905.6, 6.57866, 0.0003362775, 0.00018469698, -413738.1, -64254.17, 0.0, 10.001965, 9.90105 
4.88512e+3, 2.7424002e+2, -314477.75, -391309.88, 1.6920215, 0.00033495846, -0.0001619428, -314477.75, -62029.53, 0.0, 10.001955, 9.901469 
4.8851195e+3, 2.841334e+2, -228011.19, -318004.53, 6.231069, 0.00033394308, 0.00026868132, -228011.19, -72518.11, 0.0, 10.0019455, 9.884542 
4.8851195e+3, 2.9401898e+2, -128328.734, -217703.4, 1.844507, 0.00033334107, -0.00021457335, -128328.734, -69714.48, 0.0, 10.001936, 9.885323 
4.8851192e+3, 3.039325e+2, -38639.12, -84747.9, 5.3218684, 0.0003320454, 0.00020950001, -38639.117, -38639.117, 0.0, 10.001925, 9.941247 
4.8851186e+3, 3.1387565e+2, -37577.95, -82520.6, 0.63438636, 0.00032972198, -0.00002345175, -37577.95, -37577.95, 0.0, 10.001916, 9.942755 
4.8951295e+3, 1.2501672e+2, -1717370.3, -1724008.5, -0.7290712, 0.00035913737, 0.00011365391, -1717370.3, -2533.63, 0.0, 10.002121, 9.993322 
4.895129e+3, 1.350099e+2, -1620022.4, -1627242.8, -5.4071155, 0.0003563014, -0.000064039916, -1620022.4, -3118.8667, 0.0, 10.002109, 9.992539 
4.8951283e+3, 1.4499657e+2, -1531904.3, -1547890.5, -1.8556209, 0.00035444813, 0.00019845078, -1531904.3, -12870.019, 0.0, 10.002096, 9.980911 
4.8951274e+3, 1.5497744e+2, -1434207.5, -1450587.8, -6.8434486, 0.0003535701, 0.000010196652, -1434207.5, -12985.947, 0.0, 10.002083, 9.98038 
4.8951268e+3, 1.6495173e+2, -1346193.6, -1371757.6, -1.4187566, 0.00035239625, 0.00009263772, -1346193.6, -22719.986, 0.0, 10.002071, 9.968284 
4.8951265e+3, 1.7492005e+2, -1248264.9, -1274136.1, -6.8595862, 0.000350924, -0.000011141727, -1248264.9, -22480.986, 0.0, 10.00206, 9.96787 
4.895126e+3, 1.8488176e+2, -1160201.3, -1195549.6, -0.2419022, 0.00034958665, 0.00013357893, -1160201.3, -32041.969, 0.0, 10.0020485, 9.955441 
4.8951256e+3, 1.9483723e+2, -1062079.5, -1097682.0, -5.6079526, 0.00034838833, 0.0000012893919, -1062079.5, -31483.926, 0.0, 10.002037, 9.955098 
4.895125e+3, 2.0478605e+2, -973934.06, -1019291.4, 0.7329633, 0.00034719752, 0.000122776, -973934.06, -40836.87, 0.0, 10.002026, 9.942344 
4.8951244e+3, 2.1472843e+2, -875674.06, -921285.1, -4.502102, 0.00034601448, -0.00007178552, -875674.06, -40012.242, 0.0, 10.002015, 9.942003 
4.895124e+3, 2.246641e+2, -787406.25, -843028.2, 1.6115876, 0.0003448402, 0.0001746489, -787406.25, -49114.15, 0.0, 10.002005, 9.928967 
4.8951235e+3, 2.3459314e+2, -688998.56, -744867.8, -3.585615, 0.00034367517, -0.00003815133, -688998.56, -48010.984, 0.0, 10.001994, 9.928637 
4.895123e+3, 2.4451523e+2, -600692.4, -666928.8, 2.2150562, 0.0003425427, 0.00012311417, -600692.4, -56941.313, 0.0, 10.001985, 9.915202 
4.895123e+3, 2.5443056e+2, -501964.88, -568270.9, -2.6874743, 0.0003414482, -0.000059590155, -501964.88, -55383.977, 0.0, 10.001975, 9.915103 
4.8951226e+3, 2.643388e+2, -413748.6, -490927.53, 2.9164002, 0.00034030926, 0.00018587547, -413748.6, -64268.46, 0.0, 10.001965, 9.901034 
4.895122e+3, 2.7424037e+2, -314488.16, -391331.7, -1.9664328, 0.00033911326, -0.00016079818, -314488.16, -62043.555, 0.0, 10.001955, 9.901455 
4.8951215e+3, 2.8413376e+2, -228020.8, -318024.94, 2.5973096, 0.00033815412, 0.00026985237, -228020.8, -72531.23, 0.0, 10.0019455, 9.884529 
4.8951215e+3, 2.940193e+2, -128338.164, -217723.53, -1.788073, 0.0003375167, -0.00021329382, -128338.164, -69727.27, 0.0, 10.001936, 9.885308 
4.8951212e+3, 3.0393285e+2, -38649.516, -84770.12, 1.6849577, 0.00033613926, 0.00021073082, -38649.516, -38649.516, 0.0, 10.001926, 9.941232 
4.8951206e+3, 3.1387594e+2, -37588.477, -82543.09, -3.0044851, 0.0003336664, -0.000022502574, -37588.477, -37588.477, 0.0, 10.001917, 9.9427395 
4.9051315e+3, 1.2501732e+2, -1717281.4, -1723975.5, 4.3406434, 0.000363407, 0.00011521933, -1717281.4, -2450.548, 0.0, 10.002183, 9.99331 
4.905131e+3, 1.3501048e+2, -1619934.1, -1627210.3, -0.47359788, 0.0003605184, -0.000062693915, -1619934.1, -3036.3367, 0.0, 10.00217, 9.992527 
4.9051303e+3, 1.4499713e+2, -1531816.9, -1547859.5, 3.2031002, 0.0003586726, 0.00019975369, -1531816.9, -12788.252, 0.0, 10.002157, 9.980898 
4.90513e+3, 1.54978e+2, -1434120.5, -1450557.1, -1.8357534, 0.00035786175, 0.000011631993, -1434120.5, -12904.352, 0.0, 10.002145, 9.980367 
4.9051294e+3, 1.6495226e+2, -1346108.1, -1371729.5, 3.744623, 0.00035669043, 0.00009409382, -1346108.1, -22639.76, 0.0, 10.002132, 9.968269 
4.9051285e+3, 1.7492059e+2, -1248180.1, -1274108.6, -1.8034192, 0.0003551554, -0.000009777812, -1248180.1, -22401.414, 0.0, 10.002121, 9.967855 
4.905128e+3, 1.8488227e+2, -1160117.0, -1195522.5, 4.952447, 0.00035377184, 0.0001349203, -1160117.0, -31962.81, 0.0, 10.002109, 9.955426 
4.9051276e+3, 1.9483773e+2, -1061996.0, -1097655.5, -0.5196875, 0.0003525445, 0.000002680472, -1061996.0, -31405.27, 0.0, 10.002098, 9.955084 
4.905127e+3, 2.0478652e+2, -973850.8, -1019265.1, 5.9048057, 0.0003513724, 0.00012413434, -973850.8, -40758.36, 0.0, 10.002087, 9.942329 
4.9051264e+3, 2.1472889e+2, -875591.1, -921259.25, 0.51202, 0.00035025945, -0.000070548616, -875591.1, -39933.848, 0.0, 10.002076, 9.941989 
4.905126e+3, 2.2466457e+2, -787323.7, -843002.8, 6.675472, 0.0003490945, 0.00017589476, -787323.7, -49036.035, 0.0, 10.002066, 9.928953 
4.9051255e+3, 2.3459359e+2, -688916.75, -744843.06, 1.4092705, 0.00034787046, -0.0000367497, -688916.75, -47933.473, 0.0, 10.002055, 9.928622 
4.9051255e+3, 2.4451566e+2, -600610.94, -666904.25, 7.1895995, 0.00034669743, 0.00012449747, -600610.94, -56864.055, 0.0, 10.002045, 9.915188 
4.905125e+3, 2.5443098e+2, -501884.06, -568246.8, 2.0471427, 0.0003455845, -0.00005843224, -501884.06, -55307.176, 0.0, 10.002035, 9.915089 
4.9051246e+3, 2.643392e+2, -413668.28, -490904.13, 7.579194, 0.0003444486, 0.0001869516, -413668.28, -64192.02, 0.0, 10.002026, 9.90102 
4.905124e+3, 2.7424076e+2, -314408.25, -391308.75, 2.5989738, 0.0003432829, -0.00015962124, -314408.25, -61967.39, 0.0, 10.002016, 9.901441 
4.9051234e+3, 2.8413412e+2, -227940.58, -318001.03, 7.069357, 0.00034233433, 0.00027108894, -227940.58, -72454.6, 0.0, 10.002006, 9.884515 
4.9051234e+3, 2.9401967e+2, -128258.49, -217700.06, 2.528517, 0.00034168037, -0.00021205483, -128258.49, -69651.07, 0.0, 10.001996, 9.885295 
4.905123e+3, 3.0393317e+2, -38572.06, -84749.97, 5.7230234, 0.00034027328, 0.00021191702, -38572.06, -38572.06, 0.0, 10.0019865, 9.941216 
4.9051225e+3, 3.1387627e+2, -37511.34, -82523.336, 0.80321944, 0.00033775184, -0.000021449865, -37511.34, -37511.34, 0.0, 10.001977, 9.942724 
4.9151337e+3, 1.2501793e+2, -1717292.1, -1723996.3, -0.51815623, 0.00036775175, 0.00011692195, -1717292.1, -2467.307, 0.0, 10.002183, 9.993298 
4.9151334e+3, 1.3501108e+2, -1619944.9, -1627230.9, -5.333169, 0.000364816, -0.00006156468, -1619944.9, -3052.8347, 0.0, 10.00217, 9.992514 
4.9151322e+3, 1.4499772e+2, -1531827.9, -1547880.9, -1.416198, 0.00036294616, 0.00020081109, -1531827.9, -12804.971, 0.0, 10.002157, 9.980885 
4.915132e+3, 1.5497857e+2, -1434131.4, -1450578.4, -6.4540677, 0.00036213407, 0.000013117348, -1434131.4, -12920.813, 0.0, 10.002145, 9.980353 
4.9151313e+3, 1.6495281e+2, -1346120.0, -1371752.9, -0.7199776, 0.00036096093, 0.00009569687, -1346120.0, -22657.139, 0.0, 10.002132, 9.968254 
4.9151307e+3, 1.7492113e+2, -1248192.0, -1274131.9, -6.2682695, 0.0003594235, -0.000008371099, -1248192.0, -22418.504, 0.0, 10.002121, 9.96784 
4.9151304e+3, 1.8488279e+2, -1160128.8, -1195545.6, 0.72767013, 0.00035803652, 0.00013626729, -1160128.8, -31979.623, 0.0, 10.00211, 9.955412 
4.9151298e+3, 1.9483824e+2, -1062007.5, -1097678.5, -4.7427993, 0.0003568047, 0.000004109619, -1062007.5, -31421.795, 0.0, 10.002098, 9.955069 
4.9151295e+3, 2.0478702e+2, -973862.25, -1019288.1, 1.9205629, 0.0003556144, 0.00012549528, -973862.25, -40774.656, 0.0, 10.002087, 9.942315 
4.915129e+3, 2.1472937e+2, -875602.4, -921282.06, -3.468622, 0.00035446847, -0.00006941761, -875602.4, -39949.86, 0.0, 10.002076, 9.941974 
4.9151284e+3, 2.2466505e+2, -787334.8, -843025.56, 2.7844694, 0.00035330112, 0.00017707315, -787334.8, -49051.78, 0.0, 10.002066, 9.928939 
4.915128e+3, 2.3459405e+2, -688927.75, -744865.6, -2.4791713, 0.000352109, -0.000035211768, -688927.75, -47948.934, 0.0, 10.002055, 9.928608 
4.9151275e+3, 2.445161e+2, -600621.94, -666926.8, 3.4247406, 0.0003509564, 0.00012603716, -600621.94, -56879.285, 0.0, 10.002046, 9.915174 
4.915127e+3, 2.544314e+2, -501894.84, -568269.25, -1.7133471, 0.0003498502, -0.000057316385, -501894.84, -55322.117, 0.0, 10.002035, 9.915073 
4.9151266e+3, 2.643396e+2, -413679.0, -490926.5, 3.927293, 0.00034869247, 0.00018793113, -413679.0, -64206.715, 0.0, 10.002026, 9.901006 
4.915126e+3, 2.7424115e+2, -314418.8, -391330.94, -1.0467355, 0.00034746877, -0.00015841261, -314418.8, -61981.797, 0.0, 10.002016, 9.901425 
4.9151254e+3, 2.8413448e+2, -227950.47, -318022.0, 3.4042907, 0.00034648727, 0.00027238883, -227950.47, -72468.195, 0.0, 10.002007, 9.884501 
4.9151254e+3, 2.9402006e+2, -128268.19, -217720.8, -1.1394582, 0.0003458347, -0.00021085357, -128268.19, -69664.336, 0.0, 10.001996, 9.885282 
4.915125e+3, 3.0393353e+2, -38582.844, -84773.04, 2.0444376, 0.00034444765, 0.00021306155, -38582.844, -38582.844, 0.0, 10.0019865, 9.9412 
4.9151245e+3, 3.1387663e+2, -37522.266, -82546.695, -2.8773015, 0.0003419738, -0.000020297663, -37522.266, -37522.266, 0.0, 10.001977, 9.942708 
4.9251357e+3, 1.2501855e+2, -1717201.3, -1723962.6, 4.559674, 0.00037210397, 0.000118388474, -1717201.3, -2382.5044, 0.0, 10.002246, 9.993284 
4.9251354e+3, 1.3501169e+2, -1619854.5, -1627197.8, -0.38979656, 0.0003691854, -0.000060160473, -1619854.5, -2968.471, 0.0, 10.002233, 9.9925 
4.9251348e+3, 1.4499831e+2, -1531738.4, -1547848.8, 3.6972814, 0.00036728664, 0.00020220222, -1531738.4, -12721.287, 0.0, 10.00222, 9.980871 
4.9251342e+3, 1.5497915e+2, -1434042.6, -1450546.9, -1.3350857, 0.00036639947, 0.000014544343, -1434042.6, -12837.779, 0.0, 10.002208, 9.98034 
4.9251333e+3, 1.6495338e+2, -1346033.0, -1371724.4, 4.5580263, 0.000365208, 0.00009713851, -1346033.0, -22575.715, 0.0, 10.002195, 9.96824 
4.9251327e+3, 1.7492168e+2, -1248105.4, -1274103.8, -1.1303966, 0.0003637097, -0.0000069362172, -1248105.4, -22337.295, 0.0, 10.002183, 9.967826 
4.9251324e+3, 1.8488333e+2, -1160042.3, -1195517.8, 5.9865437, 0.00036235512, 0.00013767666, -1160042.3, -31898.473, 0.0, 10.0021715, 9.955397 
4.9251318e+3, 1.9483876e+2, -1061921.5, -1097651.1, 0.3889906, 0.0003611486, 0.000005473935, -1061921.5, -31340.918, 0.0, 10.002161, 9.955054 
4.9251312e+3, 2.0478754e+2, -973776.75, -1019261.2, 7.1361237, 0.000359933, 0.00012682406, -973776.75, -40694.105, 0.0, 10.00215, 9.9423 
4.925131e+3, 2.1472988e+2, -875517.6, -921255.75, 1.5992744, 0.0003587074, -0.00006811416, -875517.6, -39869.895, 0.0, 10.002139, 9.941958 
4.9251303e+3, 2.2466551e+2, -787250.4, -842999.5, 7.8885126, 0.00035751922, 0.00017838048, -787250.4, -48971.996, 0.0, 10.002129, 9.928924 
4.92513e+3, 2.345945e+2, -688843.6, -744840.0, 2.5314472, 0.00035637253, -0.00003386767, -688843.6, -47869.332, 0.0, 10.002118, 9.928593 
4.9251294e+3, 2.4451654e+2, -600538.1, -666901.7, 8.428923, 0.0003552503, 0.00012736495, -600538.1, -56799.895, 0.0, 10.002108, 9.915158 
4.9251288e+3, 2.544318e+2, -501811.53, -568244.56, 3.1054978, 0.00035415642, -0.000056068107, -501811.53, -55243.035, 0.0, 10.002098, 9.915058 
4.9251285e+3, 2.6434e+2, -413596.03, -490902.16, 8.676646, 0.00035298395, 0.00018913999, -413596.03, -64127.848, 0.0, 10.002088, 9.9009905 
4.925128e+3, 2.7424154e+2, -314336.5, -391307.22, 3.5482485, 0.00035171118, -0.00015719212, -314336.5, -61903.457, 0.0, 10.002078, 9.901411 
4.925128e+3, 2.841349e+2, -227867.98, -317997.47, 7.872782, 0.0003506974, 0.00027359577, -227867.98, -72389.52, 0.0, 10.0020685, 9.884487 
4.9251273e+3, 2.940204e+2, -128186.1, -217696.63, 3.1565769, 0.00035003558, -0.00020969506, -128186.1, -69585.92, 0.0, 10.002059, 9.885267 
4.925127e+3, 3.039339e+2, -38502.844, -84752.23, 6.083284, 0.00034866523, 0.00021419761, -38502.844, -38502.844, 0.0, 10.0020485, 9.941185 
4.9251264e+3, 3.1387696e+2, -37442.31, -82526.16, 0.9927364, 0.0003462464, -0.000019144547, -37442.31, -37442.31, 0.0, 10.002039, 9.942692 
4.9351382e+3, 1.250192e+2, -1717212.4, -1723984.0, -0.31856948, 0.00037646547, 0.00011963232, -1717212.4, -2399.8186, 0.0, 10.002246, 9.993271 
4.9351376e+3, 1.3501231e+2, -1619865.5, -1627219.0, -5.2661037, 0.0003736251, -0.000058494483, -1619865.5, -2985.5244, 0.0, 10.0022335, 9.992488 
4.9351367e+3, 1.4499892e+2, -1531749.4, -1547870.1, -0.9910717, 0.00037169282, 0.0002039108, -1531749.4, -12738.232, 0.0, 10.00222, 9.980858 
4.935136e+3, 1.5497975e+2, -1434053.5, -1450568.1, -6.0251937, 0.00037066045, 0.00001591694, -1434053.5, -12854.461, 0.0, 10.002208, 9.980327 
4.9351358e+3, 1.6495396e+2, -1346045.3, -1371748.4, 0.11815247, 0.000369435, 0.000098428056, -1346045.3, -22593.635, 0.0, 10.002195, 9.968225 
4.9351352e+3, 1.7492224e+2, -1248117.5, -1274127.5, -5.569268, 0.00036801537, -0.0000054735747, -1248117.5, -22354.924, 0.0, 10.002184, 9.967811 
4.9351346e+3, 1.8488388e+2, -1160054.3, -1195541.4, 1.7738101, 0.00036672718, 0.00013914616, -1160054.3, -31915.795, 0.0, 10.002172, 9.955381 
4.9351338e+3, 1.948393e+2, -1061933.3, -1097674.6, -3.822229, 0.00036557423, 0.000006777656, -1061933.3, -31357.941, 0.0, 10.002161, 9.955039 
4.9351332e+3, 2.0478806e+2, -973788.5, -1019284.75, 3.0883222, 0.0003643266, 0.00012812328, -973788.5, -40710.94, 0.0, 10.00215, 9.942285 
4.935133e+3, 2.1473038e+2, -875529.2, -921279.2, -2.445567, 0.0003629769, -0.00006664592, -875529.2, -39886.434, 0.0, 10.002139, 9.941944 
4.9351323e+3, 2.24666e+2, -787261.75, -843022.56, 4.0288625, 0.00036175046, 0.00017981122, -787261.75, -48988.156, 0.0, 10.002129, 9.928909 
4.935132e+3, 2.3459499e+2, -688854.8, -744862.94, -1.324381, 0.00036066203, -0.000032706845, -688854.8, -47885.195, 0.0, 10.002118, 9.928578 
4.9351314e+3, 2.4451701e+2, -600549.44, -666925.0, 4.668905, 0.00035957957, 0.00012849233, -600549.44, -56815.707, 0.0, 10.002109, 9.915143 
4.9351308e+3, 2.5443226e+2, -501822.7, -568267.75, -0.6499503, 0.00035850343, -0.000054692973, -501822.7, -55258.56, 0.0, 10.002098, 9.915044 
4.9351308e+3, 2.6434046e+2, -413607.03, -490925.16, 4.9786477, 0.0003573229, 0.00019056778, -413607.03, -64143.055, 0.0, 10.002089, 9.900975 
4.9351305e+3, 2.7424198e+2, -314347.34, -391330.03, -0.14770415, 0.00035600952, -0.00015595947, -314347.34, -61918.36, 0.0, 10.002078, 9.901396 
4.93513e+3, 2.8413528e+2, -227878.17, -318019.1, 4.212554, 0.00035496408, 0.0002747152, -227878.17, -72403.625, 0.0, 10.0020685, 9.884473 
4.9351293e+3, 2.940208e+2, -128196.09, -217718.02, -0.5014049, 0.00035428294, -0.00020857636, -128196.09, -69599.69, 0.0, 10.002059, 9.885253 
4.935129e+3, 3.0393428e+2, -38513.914, -84775.93, 2.434508, 0.0003529261, 0.0002153265, -38513.914, -38513.914, 0.0, 10.002049, 9.941169 
4.9351284e+3, 3.138773e+2, -37453.523, -82550.15, -2.656541, 0.00035056946, -0.000017989729, -37453.523, -37453.523, 0.0, 10.00204, 9.942676 
4.9451405e+3, 1.2501983e+2, -1717119.8, -1723949.5, 4.748075, 0.00038086134, 0.000121022036, -1717119.8, -2313.5095, 0.0, 10.00231, 9.9932575 
4.9451396e+3, 1.3501294e+2, -1619773.4, -1627185.0, -0.13108018, 0.00037800055, -0.00005688914, -1619773.4, -2899.6484, 0.0, 10.002297, 9.992475 
4.9451393e+3, 1.4499955e+2, -1531658.1, -1547837.4, 4.2973423, 0.0003760662, 0.00020551191, -1531658.1, -12653.037, 0.0, 10.002284, 9.9808445 
4.9451387e+3, 1.5498036e+2, -1433962.6, -1450535.9, -0.93300337, 0.00037504986, 0.000017294451, -1433962.6, -12769.622, 0.0, 10.002272, 9.980313 
4.945138e+3, 1.6495456e+2, -1345956.1, -1371719.0, 5.3515754, 0.0003738244, 0.00009975414, -1345956.1, -22510.318, 0.0, 10.002259, 9.968209 
4.9451372e+3, 1.7492282e+2, -1248028.8, -1274098.6, -0.4111689, 0.00037238878, -0.000004024532, -1248028.8, -22271.904, 0.0, 10.002248, 9.967795 
4.9451366e+3, 1.8488444e+2, -1159965.9, -1195512.9, 7.074038, 0.0003710886, 0.00014060638, -1159965.9, -31832.945, 0.0, 10.002236, 9.955367 
4.9451363e+3, 1.9483985e+2, -1061845.4, -1097646.5, 1.3439775, 0.00036992787, 0.000008132987, -1061845.4, -31275.402, 0.0, 10.002225, 9.955024 
4.9451357e+3, 2.047886e+2, -973700.9, -1019257.1, 8.333101, 0.00036868892, 0.00012946555, -973700.9, -40628.55, 0.0, 10.0022135, 9.942269 
4.945135e+3, 2.1473089e+2, -875442.0, -921252.0, 2.7076979, 0.00036736554, -0.000065217944, -875442.0, -39804.293, 0.0, 10.002203, 9.941929 
4.9451348e+3, 2.246665e+2, -787174.8, -842995.75, 9.220834, 0.000366135, 0.00018120807, -787174.8, -48906.176, 0.0, 10.0021925, 9.928894 
4.9451342e+3, 2.3459546e+2, -688768.44, -744836.6, 3.6445644, 0.00036500828, -0.000031472606, -688768.44, -47803.57, 0.0, 10.002182, 9.928563 
4.945134e+3, 2.4451749e+2, -600463.4, -666899.1, 9.612137, 0.00036390912, 0.00012969693, -600463.4, -56734.28, 0.0, 10.002172, 9.915128 
4.9451333e+3, 2.5443274e+2, -501737.06, -568242.3, 4.2213907, 0.0003628419, -0.000053359945, -501737.06, -55177.383, 0.0, 10.002162, 9.915028 
4.9451327e+3, 2.6434088e+2, -413521.7, -490900.22, 9.793899, 0.0003616731, 0.00019191611, -413521.7, -64062.04, 0.0, 10.002152, 9.90096 
4.9451324e+3, 2.742424e+2, -314262.44, -391305.53, 4.45449, 0.00036037486, -0.00015473942, -314262.44, -61837.605, 0.0, 10.002143, 9.901381 
4.9451318e+3, 2.8413567e+2, -227792.88, -317993.7, 8.679118, 0.0003593343, 0.0002758792, -227792.88, -72322.35, 0.0, 10.002133, 9.884458 
4.9451312e+3, 2.9402122e+2, -128111.25, -217692.97, 3.8109589, 0.00035864388, -0.00020736943, -128111.25, -69518.72, 0.0, 10.002123, 9.885239 
4.9451312e+3, 3.0393463e+2, -38431.316, -84754.445, 6.48259, 0.00035726046, 0.00021650988, -38431.313, -38431.313, 0.0, 10.002113, 9.941152 
4.945131e+3, 3.1387764e+2, -37371.082, -82529.0, 1.1544006, 0.00035485203, -0.000016928381, -37371.082, -37371.082, 0.0, 10.002104, 9.942659 
4.9551424e+3, 1.250205e+2, -1717130.6, -1723970.5, -0.14328775, 0.00038529202, 0.00012255069, -1717130.6, -2330.906, 0.0, 10.002311, 9.993245 
4.955142e+3, 1.350136e+2, -1619784.1, -1627205.9, -5.023592, 0.00038231738, -0.00005534014, -1619784.1, -2916.7876, 0.0, 10.002297, 9.992461 
4.9551415e+3, 1.4500019e+2, -1531669.5, -1547859.5, -0.39299053, 0.00038041087, 0.0002070124, -1531669.5, -12670.671, 0.0, 10.002284, 9.980831 
4.9551407e+3, 1.5498099e+2, -1433974.0, -1450557.9, -5.6232247, 0.0003795632, 0.000018677614, -1433974.0, -12786.98, 0.0, 10.002272, 9.980299 
4.95514e+3, 1.6495517e+2, -1345968.5, -1371743.3, 0.9208284, 0.00037837002, 0.00010111578, -1345968.5, -22528.635, 0.0, 10.00226, 9.968194 
4.9551398e+3, 1.7492342e+2, -1248041.0, -1274122.8, -4.8412476, 0.00037682866, -0.0000025873805, -1248041.0, -22289.928, 0.0, 10.002248, 9.96778 
4.9551392e+3, 1.8488503e+2, -1159978.1, -1195537.1, 2.8670523, 0.00037544227, 0.00014205882, -1159978.1, -31850.787, 0.0, 10.002236, 9.955351 
4.9551386e+3, 1.948404e+2, -1061857.4, -1097670.6, -2.861312, 0.00037421554, 0.000009538221, -1061857.4, -31292.941, 0.0, 10.002225, 9.9550085 
4.9551377e+3, 2.0478913e+2, -973712.8, -1019281.06, 4.306158, 0.00037302385, 0.00013084958, -973712.8, -40645.81, 0.0, 10.002214, 9.942254 
4.955137e+3, 2.1473143e+2, -875453.75, -921275.75, -1.3169445, 0.00037186954, -0.00006382716, -875453.75, -39821.246, 0.0, 10.002203, 9.941914 
4.9551368e+3, 2.2466703e+2, -787186.6, -843019.75, 5.3560953, 0.00037066735, 0.00018257377, -787186.6, -48923.01, 0.0, 10.0021925, 9.928878 
4.9551362e+3, 2.3459597e+2, -688780.06, -744860.5, -0.21565616, 0.00036941064, -0.000030167785, -688780.06, -47820.1, 0.0, 10.002183, 9.928547 
4.955136e+3, 2.4451795e+2, -600474.9, -666922.75, 5.874317, 0.00036824116, 0.00013097566, -600474.9, -56750.457, 0.0, 10.002172, 9.9151125 
4.9551353e+3, 2.5443318e+2, -501748.34, -568265.75, 0.4876684, 0.00036717462, -0.000052065938, -501748.34, -55193.25, 0.0, 10.002163, 9.915012 
4.9551347e+3, 2.6434132e+2, -413533.06, -490924.0, 6.116897, 0.00036603629, 0.00019319, -413533.06, -64077.848, 0.0, 10.002152, 9.900945 
4.9551344e+3, 2.7424282e+2, -314273.66, -391329.22, 0.7804077, 0.0003648062, -0.00015353046, -314273.66, -61853.113, 0.0, 10.002143, 9.901364 
4.9551344e+3, 2.8413612e+2, -227803.33, -318015.94, 5.0215163, 0.00036380516, 0.00027708642, -227803.33, -72336.94, 0.0, 10.002133, 9.884443 
4.9551338e+3, 2.940216e+2, -128121.51, -217714.95, 0.15364644, 0.000363115, -0.00020607784, -128121.51, -69532.96, 0.0, 10.002124, 9.885223 
4.9551332e+3, 3.0393502e+2, -38442.78, -84779.02, 2.836952, 0.00036166696, 0.00021774592, -38442.78, -38442.78, 0.0, 10.002114, 9.941135 
4.955133e+3, 3.1387806e+2, -37382.71, -82553.91, -2.4915028, 0.00035909846, -0.00001595504, -37382.71, -37382.71, 0.0, 10.002104, 9.942642 
4.965145e+3, 1.2502117e+2, -1717036.3, -1723935.3, 5.041174, 0.00038976036, 0.00012414668, -1717036.3, -2243.0706, 0.0, 10.002376, 9.993232 
4.9651444e+3, 1.3501425e+2, -1619690.3, -1627171.1, 0.01709796, 0.0003867477, -0.000053924312, -1619690.3, -2829.305, 0.0, 10.002362, 9.992448 
4.9651435e+3, 1.4500083e+2, -1531576.4, -1547826.3, 4.803386, 0.00038484266, 0.00020838981, -1531576.4, -12583.888, 0.0, 10.00235, 9.980817 
4.9651432e+3, 1.5498161e+2, -1433881.1, -1450524.9, -0.47163504, 0.00038403555, 0.000020157484, -1433881.1, -12700.331, 0.0, 10.002337, 9.980286 
4.9651426e+3, 1.649558e+2, -1345877.3, -1371713.1, 6.2371264, 0.0003828528, 0.00010261074, -1345877.3, -22443.389, 0.0, 10.002325, 9.968179 
4.965142e+3, 1.7492403e+2, -1247950.3, -1274093.1, 0.353266, 0.00038129152, -0.000001165514, -1247950.3, -22205.07, 0.0, 10.002314, 9.967765 
4.965141e+3, 1.8488562e+2, -1159887.8, -1195508.0, 8.199812, 0.00037988322, 0.00014345995, -1159887.8, -31766.184, 0.0, 10.002302, 9.955336 
4.9651405e+3, 1.9484098e+2, -1061767.5, -1097641.9, 2.3495767, 0.00037863242, 0.00001097286, -1061767.5, -31208.602, 0.0, 10.002291, 9.954992 
4.9651402e+3, 2.0478968e+2, -973623.06, -1019252.7, 9.600046, 0.0003774456, 0.00013226032, -973623.06, -40561.516, 0.0, 10.002279, 9.942239 
4.9651396e+3, 2.1473196e+2, -875364.25, -921247.8, 3.8201857, 0.0003763272, -0.00006250198, -875364.25, -39737.04, 0.0, 10.002269, 9.941897 
4.965139e+3, 2.2466756e+2, -787097.4, -842992.25, 10.516039, 0.0003751392, 0.00018388599, -787097.4, -48838.92, 0.0, 10.002258, 9.928863 
4.9651387e+3, 2.3459648e+2, -688691.25, -744833.44, 4.832492, 0.0003738722, -0.000028786912, -688691.25, -47736.277, 0.0, 10.002249, 9.928532 
4.965138e+3, 2.4451846e+2, -600386.3, -666896.0, 10.910507, 0.00037268572, 0.00013234247, -600386.3, -56666.74, 0.0, 10.002238, 9.915096 
4.9651378e+3, 2.5443366e+2, -501660.22, -568239.56, 5.3290954, 0.0003715942, -0.00005081152, -501660.22, -55109.832, 0.0, 10.002229, 9.914997 
4.9651372e+3, 2.643418e+2, -413445.3, -490898.38, 10.887346, 0.00037045588, 0.00019439579, -413445.3, -63994.63, 0.0, 10.002219, 9.9009285 
4.9651366e+3, 2.742433e+2, -314186.2, -391304.0, 5.406523, 0.00036925753, -0.00015229228, -314186.2, -61770.008, 0.0, 10.002209, 9.901349 
4.9651363e+3, 2.8413653e+2, -227715.31, -317989.63, 9.519818, 0.00036827277, 0.00027834254, -227715.31, -72253.14, 0.0, 10.002199, 9.884428 
4.9651358e+3, 2.9402202e+2, -128033.836, -217689.02, 4.481278, 0.0003675777, -0.00020482401, -128033.836, -69449.37, 0.0, 10.00219, 9.885209 
4.9651352e+3, 3.0393544e+2, -38357.465, -84756.91, 6.8730974, 0.00036611123, 0.00021894152, -38357.465, -38357.465, 0.0, 10.00218, 9.941118 
4.965135e+3, 3.1387842e+2, -37297.62, -82532.17, 1.3014017, 0.0003635046, -0.000014899519, -37297.62, -37297.62, 0.0, 10.002171, 9.942625 
4.9751475e+3, 1.2502186e+2, -1717047.5, -1723956.9, 0.15491395, 0.00039426665, 0.00012580733, -1717047.5, -2261.0464, 0.0, 10.002376, 9.993218 
4.975147e+3, 1.3501494e+2, -1619701.4, -1627192.6, -4.8691983, 0.00039128767, -0.000052633342, -1619701.4, -2847.012, 0.0, 10.002362, 9.9924345 
4.975146e+3, 1.4500149e+2, -1531587.9, -1547848.6, 0.16988875, 0.0003893592, 0.00020965195, -1531587.9, -12601.856, 0.0, 10.00235, 9.980803 
4.9751455e+3, 1.5498227e+2, -1433892.5, -1450547.1, -5.104456, 0.0003884715, 0.000021729826, -1433892.5, -12718.03, 0.0, 10.002337, 9.980271 
4.9751452e+3, 1.6495642e+2, -1345889.9, -1371737.9, 1.7973324, 0.00038727865, 0.000104232764, -1345889.9, -22462.215, 0.0, 10.002325, 9.968163 
4.975144e+3, 1.7492464e+2, -1247962.8, -1274117.8, -4.0869074, 0.00038577855, 0.0000002428897, -1247962.8, -22223.592, 0.0, 10.002314, 9.967749 
4.9751437e+3, 1.8488622e+2, -1159900.1, -1195532.8, 4.0114217, 0.0003844091, 0.00014481356, -1159900.1, -31784.516, 0.0, 10.002302, 9.95532 
4.975143e+3, 1.9484156e+2, -1061779.8, -1097666.5, -1.8370947, 0.00038317396, 0.000012436341, -1061779.8, -31226.627, 0.0, 10.002291, 9.954977 
4.9751425e+3, 2.0479026e+2, -973635.3, -1019277.3, 5.635054, 0.00038195183, 0.00013369734, -973635.3, -40579.324, 0.0, 10.00228, 9.942223 
4.9751422e+3, 2.1473253e+2, -875376.3, -921272.25, -0.14184503, 0.0003807434, -0.00006123795, -875376.3, -39754.54, 0.0, 10.00227, 9.941882 
4.975141e+3, 2.2466809e+2, -787109.44, -843016.75, 6.672408, 0.00037955627, 0.00018514854, -787109.44, -48856.207, 0.0, 10.002259, 9.928846 
4.9751407e+3, 2.34597e+2, -688703.1, -744857.75, 0.9919354, 0.0003783923, -0.000027333015, -688703.1, -47753.254, 0.0, 10.002249, 9.928515 
4.97514e+3, 2.4451897e+2, -600398.1, -666920.4, 7.184147, 0.00037723922, 0.00013379364, -600398.1, -56683.51, 0.0, 10.002239, 9.915081 
4.9751398e+3, 2.5443417e+2, -501671.9, -568263.75, 1.6064607, 0.00037609844, -0.000049593684, -501671.9, -55126.293, 0.0, 10.002229, 9.914981 
4.9751392e+3, 2.6434228e+2, -413456.97, -490922.78, 7.2699413, 0.00037493132, 0.00019553798, -413456.97, -64010.918, 0.0, 10.002219, 9.900912 
4.9751386e+3, 2.7424374e+2, -314197.7, -391328.25, 1.7949545, 0.00037373023, -0.0001510255, -314197.7, -61785.99, 0.0, 10.00221, 9.901333 
4.9751383e+3, 2.8413698e+2, -227726.08, -318012.53, 5.894288, 0.00037273983, 0.00027964593, -227726.08, -72268.23, 0.0, 10.0022, 9.884413 
4.9751383e+3, 2.9402247e+2, -128044.38, -217711.64, 0.8532571, 0.00037203496, -0.0002036051, -128044.38, -69464.1, 0.0, 10.002191, 9.885194 
4.9751377e+3, 3.0393586e+2, -38369.34, -84782.375, 3.2214463, 0.0003705938, 0.00022009965, -38369.34, -38369.34, 0.0, 10.002181, 9.941101 
4.975137e+3, 3.138788e+2, -37309.664, -82558.0, -2.3540266, 0.00036806468, -0.0000137652205, -37309.664, -37309.664, 0.0, 10.002171, 9.942607 
4.9851498e+3, 1.2502256e+2, -1716951.0, -1723920.9, 5.2394605, 0.00039879244, 0.00012725947, -1716951.0, -2171.506, 0.0, 10.002442, 9.993204 
4.9851495e+3, 1.3501562e+2, -1619605.4, -1627157.1, 0.13353314, 0.0003958358, -0.000051171337, -1619605.4, -2757.7534, 0.0, 10.002429, 9.992421 
4.9851483e+3, 1.4500217e+2, -1531492.6, -1547814.3, 5.375339, 0.0003938933, 0.00021112665, -1531492.6, -12513.218, 0.0, 10.002417, 9.980789 
4.985148e+3, 1.5498292e+2, -1433797.8, -1450513.4, 0.07002553, 0.00039295512, 0.000023219902, -1433797.8, -12629.786, 0.0, 10.002404, 9.980257 
4.985147e+3, 1.6495708e+2, -1345796.9, -1371707.3, 7.137675, 0.00039175502, 0.00010571611, -1345796.9, -22375.549, 0.0, 10.002392, 9.968147 
4.9851465e+3, 1.7492527e+2, -1247869.9, -1274087.5, 1.1027908, 0.0003902915, 0.0000016972623, -1247869.9, -22136.965, 0.0, 10.00238, 9.967733 
4.985146e+3, 1.8488683e+2, -1159807.5, -1195502.8, 9.330746, 0.0003889507, 0.00014623503, -1159807.5, -31697.863, 0.0, 10.002369, 9.955304 
4.9851456e+3, 1.9484216e+2, -1061687.4, -1097636.9, 3.3646288, 0.00038773584, 0.000013820863, -1061687.4, -31140.1, 0.0, 10.002358, 9.954961 
4.9851444e+3, 2.0479085e+2, -973543.2, -1019248.2, 10.924002, 0.0003864987, 0.00013506958, -973543.2, -40492.945, 0.0, 10.002347, 9.942206 
4.985144e+3, 2.147331e+2, -875284.7, -921243.6, 4.9914865, 0.00038523728, -0.000059851485, -875284.7, -39668.45, 0.0, 10.0023365, 9.941866 
4.9851435e+3, 2.2466864e+2, -787018.0, -842988.5, 11.83593, 0.0003840427, 0.00018652083, -787018.0, -48770.152, 0.0, 10.002326, 9.92883 
4.985143e+3, 2.3459753e+2, -688611.9, -744829.9, 6.0392914, 0.00038292256, -0.000026006772, -688611.9, -47667.254, 0.0, 10.002316, 9.928499 
4.9851426e+3, 2.4451949e+2, -600307.1, -666893.06, 12.209537, 0.0003817956, 0.00013509471, -600307.1, -56597.574, 0.0, 10.002307, 9.915065 
4.985142e+3, 2.5443467e+2, -501581.16, -568236.8, 6.4413347, 0.00038065974, -0.000048293048, -501581.16, -55040.465, 0.0, 10.002296, 9.914965 
4.9851415e+3, 2.6434278e+2, -413366.47, -490896.28, 12.033646, 0.0003794819, 0.00019682613, -413366.47, -63925.176, 0.0, 10.002287, 9.900896 
4.9851412e+3, 2.742442e+2, -314107.63, -391302.22, 6.398414, 0.0003782503, -0.00014976501, -314107.63, -61700.523, 0.0, 10.002277, 9.901317 
4.9851406e+3, 2.8413746e+2, -227635.56, -317985.53, 10.35906, 0.00037724525, 0.00028086605, -227635.56, -72182.16, 0.0, 10.002268, 9.8843975 
4.9851403e+3, 2.940229e+2, -127954.14, -217684.95, 5.1419106, 0.00037654737, -0.00020244294, -127954.14, -69378.13, 0.0, 10.002258, 9.885179 
4.9851397e+3, 3.0393627e+2, -38281.348, -84759.586, 7.233163, 0.00037513432, 0.00022124081, -38281.348, -38281.348, 0.0, 10.002249, 9.941083 
4.985139e+3, 3.1387922e+2, -37221.527, -82535.44, 1.4606962, 0.0003726646, -0.000012589498, -37221.527, -37221.527, 0.0, 10.002239, 9.942589 
4.9951524e+3, 1.2502329e+2, -1716962.5, -1723942.9, 0.37797466, 0.00040333913, 0.00012851614, -1716962.5, -2189.9172, 0.0, 10.002442, 9.993191 
4.9951518e+3, 1.3501632e+2, -1619616.6, -1627178.9, -4.725978, 0.0004003942, -0.000049546936, -1619616.6, -2775.8955, 0.0, 10.00243, 9.992408 
4.995151e+3, 1.4500286e+2, -1531504.3, -1547836.8, 0.7400271, 0.00039844654, 0.00021280289, -1531504.3, -12531.496, 0.0, 10.002417, 9.980775 
4.9951503e+3, 1.549836e+2, -1433809.1, -1450535.6, -4.5661173, 0.00039748612, 0.000024633366, -1433809.1, -12647.785, 0.0, 10.002404, 9.980243 
4.9951494e+3, 1.6495773e+2, -1345809.9, -1371732.6, 2.7730188, 0.0003962815, 0.00010706966, -1345809.9, -22394.938, 0.0, 10.002393, 9.968131 
4.9951488e+3, 1.7492592e+2, -1247882.8, -1274112.8, -3.261745, 0.00039483144, 0.0000031960744, -1247882.8, -22156.043, 0.0, 10.00238, 9.967717 
4.9951485e+3, 1.8488745e+2, -1159820.1, -1195527.9, 5.1975536, 0.0003935096, 0.0001477216, -1159820.1, -31716.678, 0.0, 10.00237, 9.955288 
4.9951476e+3, 1.9484277e+2, -1061699.9, -1097662.0, -0.7680077, 0.00039231946, 0.00001513182, -1061699.9, -31158.598, 0.0, 10.002358, 9.954946 
4.995147e+3, 2.0479144e+2, -973555.75, -1019273.44, 6.97494, 0.00039108645, 0.00013638171, -973555.75, -40511.31, 0.0, 10.002348, 9.94219 
4.9951464e+3, 2.1473368e+2, -875297.1, -921268.75, 1.045319, 0.00038980704, -0.00005834831, -875297.1, -39686.496, 0.0, 10.002337, 9.94185 
4.995146e+3, 2.246692e+2, -787030.25, -843013.44, 8.064552, 0.00038859728, 0.00018799778, -787030.25, -48787.895, 0.0, 10.002327, 9.928815 
4.9951455e+3, 2.3459809e+2, -688624.0, -744854.7, 2.2710783, 0.00038746506, -0.00002480024, -688624.0, -47684.67, 0.0, 10.002316, 9.928483 
4.995145e+3, 2.4452002e+2, -600319.25, -666918.2, 8.544508, 0.00038635728, 0.00013625488, -600319.25, -56614.93, 0.0, 10.002307, 9.915049 
4.9951446e+3, 2.5443518e+2, -501593.2, -568261.8, 2.7809403, 0.0003852776, -0.000046913134, -501593.2, -55057.508, 0.0, 10.002297, 9.914948 
4.995144e+3, 2.6434326e+2, -413378.44, -490921.3, 8.441545, 0.00038410616, 0.00019825324, -413378.4, -63941.984, 0.0, 10.002288, 9.90088 
4.9951434e+3, 2.742447e+2, -314119.4, -391327.1, 2.8088315, 0.00038281776, -0.0001485096, -314119.4, -61717.004, 0.0, 10.002278, 9.901299 
4.995143e+3, 2.841379e+2, -227646.63, -318009.1, 6.7857914, 0.00038178955, 0.00028200823, -227646.63, -72197.75, 0.0, 10.002269, 9.884382 
4.9951425e+3, 2.9402333e+2, -127964.99, -217708.25, 1.5687537, 0.0003811146, -0.00020133356, -127964.99, -69393.37, 0.0, 10.002259, 9.885162 
4.9951422e+3, 3.0393672e+2, -38293.55, -84785.78, 3.6661818, 0.00037973234, 0.00022236681, -38293.547, -38293.547, 0.0, 10.00225, 9.941066 
4.9951416e+3, 3.1387964e+2, -37233.902, -82561.99, -2.1071131, 0.00037730485, -0.000011373709, -37233.902, -37233.902, 0.0, 10.00224, 9.942571 
5.0051546e+3, 1.25024e+2, -1716864.4, -1723906.0, 5.4404984, 0.00040789787, 0.00012997408, -1716864.4, -2098.921, 0.0, 10.00251, 9.993177 
5.005154e+3, 1.3501704e+2, -1619518.8, -1627142.5, 0.3547342, 0.0004049465, -0.000048007907, -1619518.8, -2685.0925, 0.0, 10.002498, 9.9923935 
5.0051534e+3, 1.4500356e+2, -1531407.1, -1547801.6, 6.0058985, 0.00040301264, 0.00021434015, -1531407.1, -12441.266, 0.0, 10.002484, 9.980761 
5.005153e+3, 1.5498428e+2, -1433712.3, -1450501.0, 0.5399105, 0.00040208586, 0.000026086098, -1433712.3, -12557.651, 0.0, 10.002473, 9.980228 
5.0051516e+3, 1.649584e+2, -1345714.6, -1371701.1, 8.046003, 0.0004008894, 0.00010849019, -1345714.6, -22306.314, 0.0, 10.0024605, 9.968115 
5.0051516e+3, 1.7492658e+2, -1247787.8, -1274081.6, 1.9285871, 0.00039942175, 0.000004637454, -1247787.8, -22067.543, 0.0, 10.002449, 9.967701 
5.005151e+3, 1.848881e+2, -1159725.5, -1195497.4, 10.525399, 0.00039809057, 0.00014915307, -1159725.5, -31628.227, 0.0, 10.002438, 9.955272 
5.00515e+3, 1.948434e+2, -1061605.5, -1097631.8, 4.401652, 0.00039689953, 0.000016521428, -1061605.5, -31070.246, 0.0, 10.002427, 9.954928 
5.005149e+3, 2.0479204e+2, -973461.44, -1019243.6, 12.226048, 0.00039568346, 0.0001377651, -973461.44, -40422.945, 0.0, 10.002417, 9.942174 
5.0051486e+3, 2.1473426e+2, -875203.0, -921239.25, 6.197771, 0.0003944401, -0.00005693279, -875203.0, -39598.19, 0.0, 10.002406, 9.9418335 
5.0051486e+3, 2.2466977e+2, -786936.3, -842984.44, 13.248222, 0.00039323533, 0.0001893829, -786936.3, -48699.617, 0.0, 10.002396, 9.928798 
5.005148e+3, 2.3459864e+2, -688530.4, -744826.06, 7.233403, 0.00039207315, -0.00002351579, -688530.4, -47596.516, 0.0, 10.002386, 9.928467 
5.005147e+3, 2.4452056e+2, -600225.8, -666890.0, 13.478299, 0.00039096162, 0.00013751262, -600225.8, -56526.766, 0.0, 10.002377, 9.915031 
5.005146e+3, 2.544357e+2, -501499.94, -568234.06, 7.626689, 0.0003899094, -0.0000455943, -501499.94, -54969.39, 0.0, 10.002367, 9.914932 
5.005146e+3, 2.6434377e+2, -413285.4, -490894.1, 13.223444, 0.00038875078, 0.00019956866, -413285.4, -63853.934, 0.0, 10.0023575, 9.900863 
5.0051457e+3, 2.7424517e+2, -314026.66, -391300.3, 7.3715305, 0.00038745673, -0.00014727937, -314026.66, -61629.07, 0.0, 10.002348, 9.901283 
5.005145e+3, 2.841384e+2, -227553.28, -317981.22, 11.190072, 0.00038643178, 0.0002832016, -227553.28, -72109.055, 0.0, 10.002338, 9.884366 
5.0051445e+3, 2.940238e+2, -127871.87, -217680.67, 5.790747, 0.00038577212, -0.00020011117, -127871.87, -69304.734, 0.0, 10.00233, 9.885147 
5.0051445e+3, 3.0393714e+2, -38202.766, -84762.266, 7.606482, 0.00038439548, 0.0002235605, -38202.766, -38202.766, 0.0, 10.00232, 9.941048 
5.005144e+3, 3.1388006e+2, -37143.07, -82538.75, 1.6020572, 0.00038195934, -0.000010293852, -37143.07, -37143.07, 0.0, 10.002311, 9.942553 
5.0151575e+3, 1.2502475e+2, -1716875.6, -1723927.9, 0.6265643, 0.00041247052, 0.00013162236, -1716875.6, -2117.5352, 0.0, 10.002511, 9.993163 
5.015157e+3, 1.3501777e+2, -1619530.0, -1627164.3, -4.459423, 0.00040949567, -0.000046548146, -1619530.0, -2703.4338, 0.0, 10.002498, 9.99238 
5.0151557e+3, 1.4500427e+2, -1531419.0, -1547824.9, 1.4364063, 0.0004075935, 0.00021574776, -1531419.0, -12460.144, 0.0, 10.002485, 9.980746 
5.015155e+3, 1.5498498e+2, -1433724.0, -1450524.0, -4.0291176, 0.000406753, 0.000027576903, -1433724.0, -12576.242, 0.0, 10.002473, 9.980214 
5.0151545e+3, 1.6495909e+2, -1345727.8, -1371726.9, 3.7371821, 0.00040557657, 0.00010997482, -1345727.8, -22326.115, 0.0, 10.002461, 9.968099 
5.015154e+3, 1.7492723e+2, -1247800.8, -1274107.3, -2.3808727, 0.0004040622, 0.0000060257908, -1247800.8, -22087.027, 0.0, 10.00245, 9.967685 
5.015153e+3, 1.8488875e+2, -1159738.5, -1195523.1, 6.453687, 0.00040269492, 0.00015053373, -1159738.5, -31647.605, 0.0, 10.002439, 9.9552555 
5.015152e+3, 1.9484404e+2, -1061618.4, -1097657.5, 0.33137172, 0.00040147887, 0.000017986205, -1061618.4, -31089.303, 0.0, 10.002427, 9.954912 
5.015152e+3, 2.0479266e+2, -973474.2, -1019269.3, 8.351336, 0.00040029184, 0.00013921667, -973474.2, -40441.734, 0.0, 10.002417, 9.942158 
5.0151515e+3, 2.1473487e+2, -875215.56, -921264.75, 2.3248641, 0.0003991356, -0.000055598928, -875215.56, -39616.652, 0.0, 10.002406, 9.941816 
5.015151e+3, 2.2467037e+2, -786949.0, -843010.3, 9.536464, 0.00039795483, 0.00019068245, -786949.0, -48718.02, 0.0, 10.002397, 9.9287815 
5.01515e+3, 2.3459922e+2, -688542.9, -744851.8, 3.5260017, 0.00039674577, -0.000022156857, -688542.9, -47614.594, 0.0, 10.002386, 9.928451 
5.015149e+3, 2.445211e+2, -600238.2, -666915.56, 9.893359, 0.00039560892, 0.00013886331, -600238.2, -56544.51, 0.0, 10.002377, 9.915015 
5.015149e+3, 2.5443622e+2, -501512.13, -568259.4, 4.045261, 0.000394557, -0.000044332166, -501512.13, -54986.805, 0.0, 10.002367, 9.914915 
5.0151485e+3, 2.643443e+2, -413297.75, -490920.0, 9.69713, 0.0003934174, 0.00020077963, -413297.75, -63871.348, 0.0, 10.0023575, 9.900846 
5.015148e+3, 2.742457e+2, -314038.84, -391326.06, 3.8479745, 0.00039216605, -0.00014607198, -314038.84, -61646.164, 0.0, 10.002349, 9.901266 
5.0151473e+3, 2.8413886e+2, -227564.67, -318005.5, 7.687797, 0.00039116925, 0.0002844442, -227564.67, -72125.18, 0.0, 10.002339, 9.88435 
5.015147e+3, 2.9402426e+2, -127883.03, -217704.67, 2.289098, 0.00039051773, -0.0001987811, -127883.03, -69320.484, 0.0, 10.00233, 9.885131 
5.015147e+3, 3.0393758e+2, -38215.355, -84789.31, 4.1070714, 0.00038912293, 0.00022481904, -38215.355, -38215.355, 0.0, 10.00232, 9.941029 
5.015146e+3, 3.138805e+2, -37155.84, -82566.19, -1.8989546, 0.00038663, -0.000009341681, -37155.84, -37155.84, 0.0, 10.002312, 9.9425335 
5.02516e+3, 1.2502551e+2, -1716775.8, -1723890.3, 5.706155, 0.00041707963, 0.00013317988, -1716775.8, -2025.0028, 0.0, 10.00258, 9.99315 
5.025159e+3, 1.3501851e+2, -1619430.3, -1627127.0, 0.49103338, 0.00041412874, -0.00004510498, -1619430.3, -2610.957, 0.0, 10.002566, 9.992366 
5.025158e+3, 1.4500499e+2, -1531320.0, -1547789.0, 6.573136, 0.00041224246, 0.0002171625, -1531320.0, -12368.21, 0.0, 10.002554, 9.980731 
5.025158e+3, 1.549857e+2, -1433625.1, -1450488.6, 1.0615989, 0.00041140962, 0.000029048377, -1433625.1, -12484.293, 0.0, 10.0025425, 9.9802 
5.025157e+3, 1.6495977e+2, -1345630.4, -1371694.8, 8.994321, 0.00041023857, 0.0001114488, -1345630.4, -22235.645, 0.0, 10.002531, 9.968082 
5.025156e+3, 1.7492792e+2, -1247703.8, -1274075.5, 2.7241273, 0.00040872733, 0.0000074476493, -1247703.8, -21996.66, 0.0, 10.00252, 9.967669 
5.0251555e+3, 1.8488942e+2, -1159641.6, -1195491.9, 11.701066, 0.00040736483, 0.00015193781, -1159641.6, -31557.262, 0.0, 10.002508, 9.955238 
5.025155e+3, 1.9484468e+2, -1061521.6, -1097626.5, 5.474743, 0.00040615522, 0.000019408048, -1061521.6, -30998.977, 0.0, 10.002498, 9.954896 
5.0251544e+3, 2.0479329e+2, -973377.6, -1019238.75, 13.57975, 0.0004049765, 0.00014061503, -973377.6, -40351.33, 0.0, 10.002487, 9.942141 
5.025154e+3, 2.1473548e+2, -875119.1, -921234.5, 7.3745356, 0.00040383067, -0.00005426835, -875119.1, -39526.203, 0.0, 10.002478, 9.9418 
5.025153e+3, 2.2467096e+2, -786852.7, -842980.6, 14.612251, 0.00040266418, 0.00019200076, -786852.7, -48627.55, 0.0, 10.002467, 9.928764 
5.0251526e+3, 2.345998e+2, -688446.75, -744822.44, 8.492956, 0.0004014738, -0.000020788448, -688446.75, -47524.16, 0.0, 10.002458, 9.928433 
5.025152e+3, 2.4452166e+2, -600142.2, -666886.56, 14.836956, 0.0004003395, 0.00014021434, -600142.2, -56454.023, 0.0, 10.002448, 9.914998 
5.0251514e+3, 2.544368e+2, -501416.38, -568230.8, 8.77019, 0.0003992709, -0.00004307867, -501416.38, -54896.406, 0.0, 10.002439, 9.914898 
5.025151e+3, 2.643448e+2, -413202.22, -490892.1, 14.3331785, 0.00039813833, 0.00020198387, -413202.22, -63780.992, 0.0, 10.00243, 9.900828 
5.02515e+3, 2.742462e+2, -313943.44, -391298.5, 8.339555, 0.00039692395, -0.0001448557, -313943.44, -61555.74, 0.0, 10.00242, 9.901249 
5.02515e+3, 2.8413936e+2, -227468.47, -317976.75, 12.05857, 0.0003959466, 0.00028567653, -227468.47, -72033.83, 0.0, 10.002412, 9.884334 
5.0251496e+3, 2.9402474e+2, -127786.984, -217676.19, 6.487861, 0.00039529058, -0.00019752778, -127786.98, -69229.12, 0.0, 10.002402, 9.885115 
5.025149e+3, 3.0393806e+2, -38121.734, -84765.11, 8.008128, 0.00039389468, 0.00022602588, -38121.73, -38121.73, 0.0, 10.002394, 9.9410095 
5.0251484e+3, 3.1388095e+2, -37062.188, -82542.29, 1.7491678, 0.00039140618, -0.000008280246, -37062.188, -37062.188, 0.0, 10.002384, 9.942514 
5.0351626e+3, 1.2502627e+2, -1716787.4, -1723912.8, 0.97098833, 0.00042172565, 0.0001346533, -1716787.4, -2044.1571, 0.0, 10.00258, 9.993135 
5.0351614e+3, 1.3501926e+2, -1619441.8, -1627149.4, -4.243379, 0.00041884326, -0.00004367633, -1619441.8, -2629.8308, 0.0, 10.002567, 9.9923525 
5.0351614e+3, 1.4500573e+2, -1531332.0, -1547812.4, 2.0991724, 0.00041695806, 0.00021858497, -1531332.0, -12387.422, 0.0, 10.002555, 9.980717 
5.03516e+3, 1.5498643e+2, -1433637.0, -1450511.8, -3.4122176, 0.00041605905, 0.000030502766, -1433637.0, -12503.217, 0.0, 10.0025425, 9.9801855 
5.0351596e+3, 1.6496049e+2, -1345643.9, -1371721.1, 4.7468896, 0.0004148796, 0.00011291384, -1345643.9, -22256.01, 0.0, 10.002531, 9.968065 
5.0351584e+3, 1.749286e+2, -1247717.0, -1274101.8, -1.5236315, 0.00041341843, 0.000008902062, -1247717.0, -22016.7, 0.0, 10.00252, 9.967651 
5.0351584e+3, 1.8489009e+2, -1159654.9, -1195518.1, 7.7126374, 0.00041209918, 0.00015336492, -1159654.9, -31577.086, 0.0, 10.002509, 9.955222 
5.035158e+3, 1.9484535e+2, -1061534.8, -1097652.6, 1.4871483, 0.00041092563, 0.000020790532, -1061534.8, -31018.469, 0.0, 10.002498, 9.954879 
5.0351566e+3, 2.0479394e+2, -973390.7, -1019265.1, 9.804257, 0.00040973577, 0.00014196435, -973390.7, -40370.707, 0.0, 10.002488, 9.942124 
5.035156e+3, 2.147361e+2, -875132.06, -921260.75, 3.6017363, 0.0004085281, -0.000052939882, -875132.06, -39545.25, 0.0, 10.002478, 9.941783 
5.035156e+3, 2.2467157e+2, -786865.56, -843006.94, 10.983988, 0.0004073668, 0.0001933377, -786865.56, -48646.39, 0.0, 10.002468, 9.928747 
5.0351554e+3, 2.3460037e+2, -688459.5, -744848.6, 4.8678775, 0.00040625682, -0.000019410114, -688459.5, -47542.668, 0.0, 10.002459, 9.928416 
5.035154e+3, 2.4452224e+2, -600154.94, -666913.0, 11.323138, 0.00040515128, 0.00014156665, -600154.94, -56472.4, 0.0, 10.002449, 9.914981 
5.0351536e+3, 2.5443736e+2, -501428.97, -568257.06, 5.2600203, 0.00040405014, -0.000041832405, -501428.97, -54914.445, 0.0, 10.0024395, 9.914881 
5.035153e+3, 2.6434538e+2, -413214.8, -490918.56, 10.92186, 0.00040291328, 0.00020318263, -413214.8, -63798.88, 0.0, 10.00243, 9.900811 
5.035153e+3, 2.7424672e+2, -313955.88, -391324.84, 4.9331183, 0.0004017305, -0.00014363012, -313955.88, -61573.29, 0.0, 10.002421, 9.901231 
5.0351524e+3, 2.8413987e+2, -227480.16, -318001.7, 8.650804, 0.00040076452, 0.00028690015, -227480.16, -72050.45, 0.0, 10.002412, 9.884316 
5.035152e+3, 2.9402524e+2, -127798.43, -217700.84, 3.0788038, 0.00040009202, -0.00019634597, -127798.43, -69245.35, 0.0, 10.002403, 9.8850975 
5.035151e+3, 3.0393854e+2, -38134.74, -84793.086, 4.5749226, 0.00039871118, 0.00022718486, -38134.74, -38134.74, 0.0, 10.002394, 9.94099 
5.0351506e+3, 3.1388137e+2, -37075.387, -82570.68, -1.6884838, 0.00039628477, -0.0000071149016, -37075.387, -37075.387, 0.0, 10.002385, 9.942495 
5.045165e+3, 1.2502706e+2, -1716685.5, -1723874.4, 5.9251204, 0.00042641358, 0.0001360705, -1716685.5, -1949.9105, 0.0, 10.00265, 9.993122 
5.045165e+3, 1.3502003e+2, -1619340.0, -1627111.4, 0.63953024, 0.00042354857, -0.000042192645, -1619340.0, -2535.6152, 0.0, 10.002638, 9.992338 
5.0451636e+3, 1.4500648e+2, -1531230.9, -1547775.8, 7.1844106, 0.00042166855, 0.00022007675, -1531230.9, -12293.687, 0.0, 10.002625, 9.980702 
5.0451624e+3, 1.5498717e+2, -1433536.1, -1450475.5, 1.6001123, 0.0004207622, 0.00003194434, -1433536.1, -12409.56, 0.0, 10.002614, 9.98017 
5.045162e+3, 1.6496122e+2, -1345544.8, -1371688.4, 9.934872, 0.00041958955, 0.000114336355, -1345544.8, -22163.92, 0.0, 10.002603, 9.968049 
5.045161e+3, 1.7492932e+2, -1247617.9, -1274069.3, 3.5403602, 0.00041814934, 0.000010337071, -1247617.9, -21924.455, 0.0, 10.002591, 9.967635 
5.0451607e+3, 1.8489078e+2, -1159555.8, -1195486.0, 12.908065, 0.00041685335, 0.00015478273, -1159555.8, -31484.678, 0.0, 10.002581, 9.955205 
5.04516e+3, 1.9484602e+2, -1061435.6, -1097620.9, 6.5263076, 0.0004157053, 0.00002216037, -1061435.6, -30925.994, 0.0, 10.00257, 9.954862 
5.0451595e+3, 2.0479459e+2, -973291.8, -1019233.8, 14.9203415, 0.0004145243, 0.0001433147, -973291.8, -40278.188, 0.0, 10.00256, 9.942107 
5.045159e+3, 2.1473674e+2, -875033.3, -921229.8, 8.577246, 0.0004133075, -0.000051578463, -875033.3, -39452.727, 0.0, 10.00255, 9.941766 
5.045158e+3, 2.2467218e+2, -786766.9, -842976.4, 15.988176, 0.00041215037, 0.0001946817, -786766.9, -48553.758, 0.0, 10.002541, 9.92873 
5.0451577e+3, 2.3460098e+2, -688360.9, -744818.4, 9.722484, 0.00041105947, -0.00001811549, -688360.9, -47449.957, 0.0, 10.002531, 9.928399 
5.0451565e+3, 2.4452282e+2, -600056.44, -666883.4, 16.150942, 0.00040997314, 0.00014283753, -600056.44, -56379.617, 0.0, 10.002522, 9.914963 
5.0451565e+3, 2.5443792e+2, -501330.53, -568227.75, 9.913572, 0.00040889147, -0.000040554907, -501330.53, -54821.574, 0.0, 10.002513, 9.914864 
5.045156e+3, 2.643459e+2, -413116.5, -490889.78, 15.499366, 0.00040776597, 0.00020444734, -413116.5, -63705.93, 0.0, 10.002504, 9.900793 
5.045155e+3, 2.7424726e+2, -313857.72, -391296.44, 9.321346, 0.00040658438, -0.00014240273, -313857.72, -61480.367, 0.0, 10.002495, 9.901214 
5.0451547e+3, 2.8414038e+2, -227381.28, -317972.13, 12.892328, 0.00040562125, 0.00028808753, -227381.28, -71956.62, 0.0, 10.002486, 9.8843 
5.045154e+3, 2.9402572e+2, -127699.63, -217671.5, 7.151868, 0.00040495387, -0.00019520246, -127699.63, -69151.42, 0.0, 10.002478, 9.885081 
5.045154e+3, 3.0393898e+2, -38038.324, -84768.23, 8.367119, 0.00040359114, 0.00022830683, -38038.324, -38038.324, 0.0, 10.002469, 9.940971 
5.0451535e+3, 3.1388184e+2, -36978.61, -82545.984, 1.8692145, 0.00040120218, -0.0000059805466, -36978.61, -36978.61, 0.0, 10.0024605, 9.942476 
5.0551677e+3, 1.2502785e+2, -1716697.3, -1723897.3, 1.276032, 0.0004311436, 0.00013743615, -1716697.3, -1969.4692, 0.0, 10.00265, 9.993108 
5.055167e+3, 1.350208e+2, -1619351.8, -1627134.0, -4.0074234, 0.00042824808, -0.00004065629, -1619351.8, -2554.8884, 0.0, 10.002638, 9.992324 
5.055166e+3, 1.4500725e+2, -1531243.0, -1547799.4, 2.7855768, 0.00042637702, 0.0002216345, -1531243.0, -12313.292, 0.0, 10.002625, 9.980687 
5.055165e+3, 1.5498792e+2, -1433548.0, -1450499.0, -2.7998297, 0.0004255186, 0.000033374934, -1433548.0, -12428.867, 0.0, 10.002614, 9.980156 
5.0551647e+3, 1.6496195e+2, -1345558.4, -1371715.3, 5.810595, 0.00042436688, 0.00011572003, -1345558.4, -22184.777, 0.0, 10.002603, 9.968032 
5.055164e+3, 1.7493004e+2, -1247631.4, -1274096.0, -0.5838768, 0.00042292048, 0.0000117549225, -1247631.4, -21944.98, 0.0, 10.002591, 9.967618 
5.055163e+3, 1.8489148e+2, -1159569.3, -1195513.0, 9.024174, 0.000421629, 0.00015619285, -1159569.3, -31505.053, 0.0, 10.002581, 9.955188 
5.0551623e+3, 1.9484669e+2, -1061449.0, -1097647.6, 2.643263, 0.00042049657, 0.000023519333, -1061449.0, -30946.031, 0.0, 10.00257, 9.954845 
5.0551623e+3, 2.0479526e+2, -973305.1, -1019260.8, 11.236176, 0.00041934315, 0.00014466699, -973305.1, -40298.07, 0.0, 10.002561, 9.942089 
5.055161e+3, 2.1473739e+2, -875046.5, -921256.6, 4.8956494, 0.00041816686, -0.00005018509, -875046.5, -39472.27, 0.0, 10.00255, 9.941749 
5.0551605e+3, 2.2467282e+2, -786780.06, -843003.3, 12.47027, 0.00041701298, 0.0001960333, -786780.06, -48573.105, 0.0, 10.002541, 9.928713 
5.05516e+3, 2.3460159e+2, -688373.9, -744845.2, 6.2074943, 0.00041588346, -0.000016898619, -688373.9, -47468.965, 0.0, 10.002532, 9.928382 
5.05516e+3, 2.4452342e+2, -600069.5, -666910.5, 12.755624, 0.0004148075, 0.00014403279, -600069.5, -56398.535, 0.0, 10.002522, 9.914946 
5.055159e+3, 2.544385e+2, -501343.44, -568254.75, 6.5230618, 0.00041379416, -0.000039247083, -501343.44, -54840.15, 0.0, 10.002513, 9.914845 
5.055158e+3, 2.6434648e+2, -413129.44, -490917.0, 12.183251, 0.0004126948, 0.00020577495, -413129.44, -63724.37, 0.0, 10.002504, 9.900776 
5.0551575e+3, 2.742478e+2, -313870.53, -391323.5, 6.0084267, 0.0004114858, -0.00014117277, -313870.53, -61498.457, 0.0, 10.002496, 9.901196 
5.055157e+3, 2.8414088e+2, -227393.25, -317997.72, 9.598021, 0.00041051756, 0.0002892417, -227393.25, -71973.72, 0.0, 10.002487, 9.884283 
5.055157e+3, 2.9402626e+2, -127711.36, -217696.8, 3.857392, 0.00040987562, -0.00019409411, -127711.36, -69168.125, 0.0, 10.002479, 9.885064 
5.0551564e+3, 3.039395e+2, -38051.715, -84797.055, 5.082698, 0.0004085339, 0.00022939483, -38051.71, -38051.71, 0.0, 10.002469, 9.940952 
5.055156e+3, 3.1388232e+2, -36992.207, -82575.26, -1.4153658, 0.0004061593, -0.000004874611, -36992.207, -36992.207, 0.0, 10.0024605, 9.942456 
5.0651705e+3, 1.2502865e+2, -1716593.6, -1723858.0, 6.1031623, 0.0004358708, 0.00013888068, -1716593.6, -1873.7546, 0.0, 10.002722, 9.9930935 
5.0651693e+3, 1.3502161e+2, -1619248.1, -1627095.1, 0.82352823, 0.00043299075, -0.000039198476, -1619248.1, -2459.0466, 0.0, 10.002709, 9.99231 
5.065169e+3, 1.4500803e+2, -1531140.0, -1547762.0, 7.8148055, 0.0004311381, 0.00022308323, -1531140.0, -12217.908, 0.0, 10.002698, 9.980672 
5.065168e+3, 1.5498868e+2, -1433445.0, -1450461.9, 2.0771313, 0.00043030074, 0.00003479203, -1433445.0, -12333.313, 0.0, 10.0026865, 9.980141 
5.0651675e+3, 1.649627e+2, -1345457.0, -1371681.8, 10.844119, 0.00042916826, 0.00011711399, -1345457.0, -22090.688, 0.0, 10.002675, 9.968015 
5.0651664e+3, 1.7493075e+2, -1247530.0, -1274062.6, 4.3389072, 0.00042773943, 0.000013134507, -1247530.0, -21850.773, 0.0, 10.002665, 9.967601 
5.065166e+3, 1.8489219e+2, -1159467.9, -1195480.3, 14.085841, 0.00042645584, 0.00015756572, -1159467.9, -31410.73, 0.0, 10.002654, 9.955171 
5.065165e+3, 1.9484739e+2, -1061347.8, -1097615.1, 7.5608296, 0.00042532122, 0.000024893354, -1061347.8, -30851.56, 0.0, 10.002645, 9.954827 
5.0651646e+3, 2.0479593e+2, -973203.9, -1019228.75, 16.230633, 0.00042418728, 0.00014602642, -973203.9, -40203.43, 0.0, 10.002634, 9.942072 
5.065164e+3, 2.1473804e+2, -874945.25, -921224.9, 9.756346, 0.0004230536, -0.000048857135, -874945.25, -39377.51, 0.0, 10.0026245, 9.941731 
5.0651634e+3, 2.2467346e+2, -786678.9, -842972.06, 17.351208, 0.00042191645, 0.00019732786, -786678.9, -48478.227, 0.0, 10.002616, 9.928695 
5.065163e+3, 2.3460221e+2, -688272.75, -744814.25, 10.886204, 0.00042077462, -0.00001563966, -688272.75, -47373.95, 0.0, 10.002606, 9.928364 
5.065162e+3, 2.4452403e+2, -599968.4, -666880.0, 17.40442, 0.00041970695, 0.00014527897, -599968.4, -56303.344, 0.0, 10.002598, 9.9149275 
5.0651616e+3, 2.544391e+2, -501242.38, -568224.56, 11.046408, 0.00041872635, -0.00003798665, -501242.38, -54744.832, 0.0, 10.002589, 9.914827 
5.065161e+3, 2.6434705e+2, -413028.47, -490887.47, 16.64462, 0.00041764823, 0.00020701405, -413028.47, -63628.973, 0.0, 10.002581, 9.900757 
5.0651604e+3, 2.7424836e+2, -313769.6, -391294.34, 10.276356, 0.0004164459, -0.00013999995, -313769.6, -61402.953, 0.0, 10.002572, 9.901177 
5.06516e+3, 2.8414145e+2, -227291.45, -317967.25, 13.713637, 0.0004154861, 0.00029039153, -227291.45, -71877.164, 0.0, 10.002563, 9.884266 
5.065159e+3, 2.9402676e+2, -127609.56, -217666.56, 7.763649, 0.00041485505, -0.0001929086, -127609.56, -69071.38, 0.0, 10.002555, 9.885047 
5.0651586e+3, 3.0394e+2, -37952.363, -84771.414, 8.704394, 0.0004135341, 0.00023054333, -37952.36, -37952.36, 0.0, 10.002547, 9.940932 
5.065158e+3, 3.138828e+2, -36892.598, -82549.84, 1.9933978, 0.000411195, -0.000003870164, -36892.598, -36892.598, 0.0, 10.002539, 9.942435 
5.0751734e+3, 1.2502947e+2, -1716605.5, -1723880.8, 1.580548, 0.00044059832, 0.00014039993, -1716605.5, -1893.5315, 0.0, 10.002722, 9.993079 
5.075172e+3, 1.3502242e+2, -1619259.8, -1627117.8, -3.6995883, 0.0004377767, -0.000037813068, -1619259.8, -2478.5369, 0.0, 10.002709, 9.992296 
5.0751716e+3, 1.4500882e+2, -1531152.4, -1547786.4, 3.5485291, 0.00043595128, 0.00022443105, -1531152.4, -12238.082, 0.0, 10.002698, 9.980657 
5.075171e+3, 1.5498945e+2, -1433457.3, -1450486.0, -2.1882098, 0.00043510986, 0.000036197485, -1433457.3, -12353.182, 0.0, 10.0026865, 9.980125 
5.07517e+3, 1.6496345e+2, -1345470.9, -1371709.0, 6.8371367, 0.00043399516, 0.000118518525, -1345470.9, -22112.002, 0.0, 10.002676, 9.967998 
5.075169e+3, 1.749315e+2, -1247543.8, -1274089.9, 0.3309738, 0.00043260615, 0.000014479257, -1247543.8, -21871.746, 0.0, 10.002665, 9.967584 
5.0751686e+3, 1.8489291e+2, -1159481.8, -1195507.8, 10.327019, 0.0004313336, 0.00015890472, -1159481.8, -31431.623, 0.0, 10.002654, 9.955153 
5.075168e+3, 1.948481e+2, -1061361.4, -1097642.5, 3.803314, 0.00043018025, 0.000026282454, -1061361.4, -30872.107, 0.0, 10.002645, 9.95481 
5.075167e+3, 2.0479663e+2, -973217.5, -1019256.25, 12.666621, 0.00042905813, 0.00014739342, -973217.5, -40223.797, 0.0, 10.002635, 9.942055 
5.075166e+3, 2.1473871e+2, -874958.75, -921252.2, 6.1938944, 0.00042796906, -0.000047589547, -874958.75, -39397.527, 0.0, 10.002625, 9.941713 
5.075166e+3, 2.2467412e+2, -786692.44, -842999.8, 13.960363, 0.00042686134, 0.00019856989, -786692.44, -48498.184, 0.0, 10.002616, 9.928677 
5.075165e+3, 2.3460285e+2, -688286.1, -744841.8, 7.4998946, 0.00042573188, -0.000014340317, -688286.1, -47393.555, 0.0, 10.002607, 9.928346 
5.0751644e+3, 2.4452464e+2, -599981.7, -666907.6, 14.138289, 0.0004246706, 0.00014657376, -599981.7, -56322.7, 0.0, 10.002598, 9.914909 
5.075164e+3, 2.5443968e+2, -501255.5, -568252.0, 7.7837543, 0.00042368934, -0.000036769834, -501255.5, -54763.832, 0.0, 10.002589, 9.914809 
5.075164e+3, 2.643476e+2, -413041.75, -490915.47, 13.45787, 0.0004226279, 0.00020817094, -413041.75, -63647.957, 0.0, 10.002581, 9.900739 
5.075163e+3, 2.742489e+2, -313782.75, -391322.2, 7.0932174, 0.00042146427, -0.00013887988, -313782.75, -61421.586, 0.0, 10.002572, 9.901158 
5.0751626e+3, 2.84142e+2, -227303.8, -317993.66, 10.559955, 0.0004205257, 0.00029153808, -227303.78, -71894.82, 0.0, 10.002564, 9.884248 
5.075162e+3, 2.9402727e+2, -127621.65, -217692.66, 4.6115074, 0.0004198919, -0.0001916498, -127621.65, -69088.63, 0.0, 10.002556, 9.88503 
5.075161e+3, 3.039405e+2, -37966.105, -84801.05, 5.549032, 0.00041859155, 0.0002317494, -37966.105, -37966.105, 0.0, 10.002547, 9.940911 
5.075161e+3, 3.138833e+2, -36906.547, -82579.914, -1.1644561, 0.00041630786, -0.0000029603389, -36906.547, -36906.547, 0.0, 10.002539, 9.942415 
5.0851756e+3, 1.2503031e+2, -1716500.0, -1723840.9, 6.352657, 0.00044535365, 0.00014182816, -1716500.0, -1796.1752, 0.0, 10.002794, 9.993065 
5.085175e+3, 1.3502322e+2, -1619154.1, -1627078.0, 0.91654354, 0.00044258882, -0.000036408357, -1619154.1, -2380.9849, 0.0, 10.002783, 9.992281 
5.0851744e+3, 1.4500962e+2, -1531047.4, -1547748.3, 8.35244, 0.00044079556, 0.00022582144, -1531047.4, -12140.931, 0.0, 10.002771, 9.980641 
5.085173e+3, 1.5499024e+2, -1433352.1, -1450448.1, 2.5769649, 0.00043996164, 0.00003758244, -1433352.1, -12255.76, 0.0, 10.00276, 9.98011 
5.0851727e+3, 1.6496421e+2, -1345367.4, -1371674.8, 11.769638, 0.00043886015, 0.00011989602, -1345367.4, -22016.043, 0.0, 10.002749, 9.967979 
5.085172e+3, 1.7493226e+2, -1247440.1, -1274055.9, 5.0967197, 0.00043749018, 0.000015847403, -1247440.1, -21775.572, 0.0, 10.002739, 9.967566 
5.0851715e+3, 1.8489365e+2, -1159378.1, -1195474.3, 15.215218, 0.000436239, 0.00016025506, -1159378.1, -31335.244, 0.0, 10.002729, 9.955135 
5.08517e+3, 1.9484882e+2, -1061257.8, -1097609.1, 8.5693655, 0.00043510942, 0.000027606202, -1061257.8, -30775.54, 0.0, 10.00272, 9.954792 
5.0851697e+3, 2.0479731e+2, -973113.9, -1019223.5, 17.502563, 0.00043399705, 0.00014869605, -973113.9, -40127.02, 0.0, 10.00271, 9.942037 
5.085169e+3, 2.147394e+2, -874855.0, -921219.7, 10.8414345, 0.0004329027, -0.000046302186, -874855.0, -39300.49, 0.0, 10.002702, 9.941695 
5.0851685e+3, 2.2467478e+2, -786588.7, -842967.75, 18.626068, 0.00043181644, 0.00019984171, -786588.7, -48400.934, 0.0, 10.002692, 9.9286585 
5.085168e+3, 2.346035e+2, -688182.44, -744810.06, 12.046255, 0.0004307383, -0.000013084315, -688182.44, -47296.17, 0.0, 10.002684, 9.928328 
5.085167e+3, 2.4452528e+2, -599878.0, -666876.3, 18.667547, 0.0004296988, 0.00014780415, -599878.0, -56225.133, 0.0, 10.002675, 9.914891 
5.0851667e+3, 2.5444028e+2, -501151.8, -568221.06, 12.10583, 0.00042870417, -0.000035576682, -501151.8, -54666.105, 0.0, 10.002667, 9.914791 
5.085166e+3, 2.643482e+2, -412938.13, -490885.16, 17.693092, 0.0004276517, 0.00020933729, -412938.13, -63550.09, 0.0, 10.002659, 9.90072 
5.0851655e+3, 2.742495e+2, -313679.03, -391292.16, 11.152923, 0.00042652528, -0.000137727, -313679.03, -61323.473, 0.0, 10.002651, 9.90114 
5.085165e+3, 2.8414255e+2, -227199.11, -317962.34, 14.495701, 0.00042561433, 0.00029267764, -227199.1, -71795.55, 0.0, 10.002643, 9.884231 
5.0851643e+3, 2.9402784e+2, -127516.91, -217661.52, 8.386917, 0.00042499488, -0.00019052383, -127516.91, -68989.125, 0.0, 10.002635, 9.885012 
5.0851643e+3, 3.03941e+2, -37863.84, -84774.68, 9.051297, 0.000423715, 0.00023283862, -37863.84, -37863.84, 0.0, 10.002627, 9.940891 
5.085164e+3, 3.1388378e+2, -36803.88, -82553.72, 2.0764694, 0.00042146118, -0.0000019412194, -36803.88, -36803.88, 0.0, 10.002619, 9.942394 
5.0951785e+3, 1.2503114e+2, -1716512.0, -1723864.3, 1.9705297, 0.00045013794, 0.00014317255, -1716512.0, -1816.5394, 0.0, 10.002795, 9.993051 
5.095178e+3, 1.3502404e+2, -1619166.1, -1627101.3, -3.463735, 0.0004474283, -0.000034984685, -1619166.1, -2401.051, 0.0, 10.002783, 9.992267 
5.095177e+3, 1.4501044e+2, -1531059.9, -1547772.8, 4.246343, 0.00044567187, 0.00022725247, -1531059.9, -12161.401, 0.0, 10.002771, 9.980626 
5.095176e+3, 1.5499105e+2, -1433364.5, -1450472.5, -1.5297632, 0.0004448563, 0.000038949256, -1433364.5, -12275.922, 0.0, 10.002761, 9.980095 
5.0951755e+3, 1.6496502e+2, -1345381.6, -1371702.9, 7.903081, 0.0004437638, 0.0001212493, -1345381.6, -22037.934, 0.0, 10.00275, 9.967962 
5.095175e+3, 1.7493302e+2, -1247454.3, -1274083.8, 1.2301832, 0.00044239347, 0.000017238355, -1247454.3, -21797.11, 0.0, 10.00274, 9.967548 
5.095174e+3, 1.848944e+2, -1159392.3, -1195502.3, 11.593247, 0.0004411734, 0.00016161687, -1159392.3, -31356.596, 0.0, 10.002729, 9.955117 
5.095173e+3, 1.9484955e+2, -1061271.6, -1097637.0, 4.9475846, 0.0004401073, 0.000028869772, -1061271.6, -30796.537, 0.0, 10.00272, 9.954775 
5.0951725e+3, 2.0479803e+2, -973127.9, -1019251.75, 14.096026, 0.0004390028, 0.00014993941, -973127.9, -40147.973, 0.0, 10.002711, 9.9420185 
5.095172e+3, 2.147401e+2, -874868.8, -921247.8, 7.4378242, 0.00043785665, -0.000044995446, -874868.8, -39321.086, 0.0, 10.002702, 9.941677 
5.0951713e+3, 2.2467545e+2, -786602.5, -842996.0, 15.364859, 0.00043678435, 0.00020114225, -786602.5, -48421.32, 0.0, 10.002693, 9.92864 
5.09517e+3, 2.3460415e+2, -688196.06, -744838.1, 8.787579, 0.000435794, -0.000011867999, -688196.06, -47316.2, 0.0, 10.002685, 9.928309 
5.09517e+3, 2.4452591e+2, -599891.7, -666904.8, 15.539545, 0.0004347906, 0.00014897517, -599891.7, -56245.074, 0.0, 10.002676, 9.914872 
5.0951695e+3, 2.544409e+2, -501165.34, -568249.4, 8.982502, 0.00043377085, -0.00003440486, -501165.34, -54685.688, 0.0, 10.002667, 9.914773 
5.095169e+3, 2.643488e+2, -412951.75, -490913.84, 14.6722555, 0.00043272018, 0.00021051329, -412951.75, -63569.582, 0.0, 10.00266, 9.9007015 
5.0951684e+3, 2.7425006e+2, -313692.47, -391320.7, 8.137297, 0.00043162963, -0.00013654254, -313692.47, -61342.6, 0.0, 10.002651, 9.901121 
5.095168e+3, 2.841431e+2, -227211.7, -317989.34, 11.497436, 0.00043075232, 0.00029381138, -227211.7, -71813.66, 0.0, 10.002644, 9.8842125 
5.095167e+3, 2.9402837e+2, -127529.266, -217688.23, 5.388759, 0.00043016326, -0.00018952161, -127529.266, -69006.81, 0.0, 10.002635, 9.884994 
5.0951666e+3, 3.0394155e+2, -37878.01, -84805.266, 6.06013, 0.00042890385, 0.00023381905, -37878.01, -37878.01, 0.0, 10.002627, 9.94087 
5.095166e+3, 3.138843e+2, -36818.27, -82584.78, -0.9155896, 0.00042665596, -0.0000008188829, -36818.27, -36818.27, 0.0, 10.00262, 9.942373 
5.105182e+3, 1.2503201e+2, -1716404.8, -1723823.6, 6.49621, 0.0004549656, 0.00014453226, -1716404.8, -1717.5743, 0.0, 10.002869, 9.993035 
5.105181e+3, 1.350249e+2, -1619058.5, -1627060.8, 1.0283142, 0.0004522905, -0.00003362691, -1619058.5, -2301.6895, 0.0, 10.002857, 9.992252 
5.1051795e+3, 1.4501126e+2, -1530952.8, -1547733.8, 8.927736, 0.00045056138, 0.00022860931, -1530952.8, -12062.341, 0.0, 10.002847, 9.980611 
5.105179e+3, 1.5499185e+2, -1433257.3, -1450433.8, 3.0197537, 0.0004497657, 0.00004030582, -1433257.3, -12176.63, 0.0, 10.002836, 9.98008 
5.1051784e+3, 1.6496581e+2, -1345276.0, -1371668.0, 12.608089, 0.00044869664, 0.00012259441, -1345276.0, -21940.148, 0.0, 10.002826, 9.967944 
5.105178e+3, 1.7493379e+2, -1247348.5, -1274049.0, 5.824312, 0.00044735338, 0.000018560942, -1247348.5, -21698.938, 0.0, 10.002816, 9.96753 
5.1051766e+3, 1.8489516e+2, -1159286.3, -1195468.0, 16.297846, 0.00044615456, 0.00016291058, -1159286.3, -31258.102, 0.0, 10.002807, 9.955099 
5.105176e+3, 1.9485028e+2, -1061165.6, -1097603.0, 9.467889, 0.0004451037, 0.000030127962, -1061165.6, -30697.72, 0.0, 10.002797, 9.954757 
5.1051754e+3, 2.0479876e+2, -973021.8, -1019218.2, 18.6759, 0.0004440212, 0.00015118385, -973021.75, -40048.934, 0.0, 10.002789, 9.941999 
5.105175e+3, 2.147408e+2, -874762.75, -921214.5, 11.885186, 0.00044290436, -0.000043741427, -874762.7, -39221.855, 0.0, 10.00278, 9.941659 
5.1051736e+3, 2.2467613e+2, -786496.3, -842963.2, 19.828121, 0.00044185092, 0.00020238051, -786496.3, -48321.832, 0.0, 10.002771, 9.928622 
5.1051736e+3, 2.3460482e+2, -688089.75, -744805.56, 13.064731, 0.00044086773, -0.000010673912, -688089.75, -47216.418, 0.0, 10.002763, 9.92829 
5.105173e+3, 2.4452657e+2, -599785.3, -666872.75, 19.78266, 0.000439882, 0.00015014011, -599785.3, -56145.043, 0.0, 10.002755, 9.914854 
5.105172e+3, 2.5444153e+2, -501058.94, -568217.56, 13.059593, 0.00043889243, -0.00003325131, -501058.9, -54585.41, 0.0, 10.002748, 9.914754 
5.105171e+3, 2.6434943e+2, -412845.3, -490882.72, 18.690536, 0.0004378671, 0.00021164934, -412845.3, -63469.12, 0.0, 10.002739, 9.9006815 
5.1051706e+3, 2.7425063e+2, -313586.06, -391289.88, 11.974055, 0.0004367959, -0.00013543165, -313586.06, -61241.953, 0.0, 10.002732, 9.901102 
5.1051706e+3, 2.841437e+2, -227104.25, -317957.2, 15.205725, 0.00043593426, 0.0002948955, -227104.25, -71711.8, 0.0, 10.002725, 9.884194 
5.10517e+3, 2.9402894e+2, -127421.63, -217656.19, 8.912445, 0.00043535588, -0.00018846682, -127421.625, -68904.59, 0.0, 10.002717, 9.884975 
5.1051694e+3, 3.0394208e+2, -37772.832, -84778.19, 9.331521, 0.00043412775, 0.00023484335, -37772.832, -37772.832, 0.0, 10.002709, 9.940849 
5.105169e+3, 3.138848e+2, -36712.48, -82557.805, 2.1235147, 0.00043194173, 0.00000017419299, -36712.48, -36712.48, 0.0, 10.002702, 9.942351 
5.115185e+3, 1.2503287e+2, -1716416.9, -1723847.3, 2.3043926, 0.00045983665, 0.00014590703, -1716416.9, -1738.2289, 0.0, 10.002869, 9.993021 
5.1151836e+3, 1.3502574e+2, -1619070.5, -1627084.3, -3.1622066, 0.00045717697, -0.000032329554, -1619070.5, -2322.0435, 0.0, 10.002858, 9.992237 
5.1151824e+3, 1.450121e+2, -1530965.5, -1547758.8, 4.972085, 0.0004554664, 0.000229898, -1530965.5, -12083.313, 0.0, 10.002847, 9.980595 
5.1151824e+3, 1.5499267e+2, -1433269.9, -1450458.6, -0.93606406, 0.00045469202, 0.000041653693, -1433269.9, -12197.284, 0.0, 10.002836, 9.980063 
5.115181e+3, 1.649666e+2, -1345290.5, -1371696.5, 8.924599, 0.00045365986, 0.00012393274, -1345290.5, -21962.473, 0.0, 10.002827, 9.967926 
5.11518e+3, 1.7493458e+2, -1247362.8, -1274077.4, 2.1399255, 0.00045236928, 0.000019820685, -1247362.8, -21720.904, 0.0, 10.002816, 9.967512 
5.1151794e+3, 1.8489592e+2, -1159300.8, -1195496.8, 12.844537, 0.0004511826, 0.00016414169, -1159300.8, -31280.04, 0.0, 10.002807, 9.955081 
5.115179e+3, 1.9485104e+2, -1061179.9, -1097631.6, 6.0155025, 0.00045010197, 0.000031381976, -1061179.9, -30719.295, 0.0, 10.002798, 9.954738 
5.115178e+3, 2.0479949e+2, -973036.0, -1019247.06, 15.410482, 0.00044905476, 0.00015243009, -973036.0, -40070.344, 0.0, 10.002789, 9.941981 
5.115177e+3, 2.147415e+2, -874776.8, -921243.2, 8.621566, 0.000448043, -0.00004253579, -874776.8, -39242.9, 0.0, 10.00278, 9.941641 
5.115177e+3, 2.2467683e+2, -786510.44, -842992.2, 16.734776, 0.00044701295, 0.00020356146, -786510.44, -48342.773, 0.0, 10.002771, 9.928603 
5.1151764e+3, 2.346055e+2, -688103.75, -744834.4, 9.974785, 0.00044596172, -0.000009499794, -688103.75, -47236.99, 0.0, 10.002764, 9.928272 
5.115175e+3, 2.4452722e+2, -599799.3, -666901.9, 16.81679, 0.00044497653, 0.00015130013, -599799.3, -56165.484, 0.0, 10.002755, 9.914835 
5.1151747e+3, 2.5444216e+2, -501072.75, -568246.56, 10.098424, 0.00044406872, -0.00003211406, -501072.75, -54605.48, 0.0, 10.002748, 9.914735 
5.115174e+3, 2.6435003e+2, -412859.28, -490912.13, 15.8249235, 0.00044309086, 0.0002127488, -412859.25, -63489.12, 0.0, 10.00274, 9.900662 
5.115174e+3, 2.7425125e+2, -313599.8, -391319.16, 9.113031, 0.0004420236, -0.00013438881, -313599.8, -61261.582, 0.0, 10.002732, 9.901082 
5.115173e+3, 2.8414425e+2, -227117.17, -317984.9, 12.395023, 0.0004411609, 0.00029593392, -227117.17, -71730.39, 0.0, 10.002725, 9.884175 
5.115172e+3, 2.9402947e+2, -127434.3, -217683.61, 6.1043816, 0.00044057477, -0.0001873621, -127434.3, -68922.75, 0.0, 10.002717, 9.884957 
5.1151717e+3, 3.0394262e+2, -37787.39, -84809.64, 6.5603476, 0.0004393881, 0.00023590938, -37787.39, -37787.39, 0.0, 10.00271, 9.940827 
5.1151717e+3, 3.138853e+2, -36727.27, -82589.76, -0.64418685, 0.0004373164, 0.0000010468615, -36727.27, -36727.27, 0.0, 10.002703, 9.942329 
5.1251876e+3, 1.2503375e+2, -1716307.8, -1723805.8, 6.6514525, 0.0004647013, 0.00014721601, -1716307.8, -1637.6367, 0.0, 10.002944, 9.993007 
5.1251864e+3, 1.350266e+2, -1618961.0, -1627042.9, 1.1163872, 0.0004621066, -0.000031, -1618961.0, -2221.0151, 0.0, 10.0029335, 9.992223 
5.125185e+3, 1.4501296e+2, -1530856.5, -1547719.1, 9.429499, 0.0004604313, 0.00023121224, -1530856.5, -11982.55, 0.0, 10.002923, 9.980579 
5.1251847e+3, 1.549935e+2, -1433160.4, -1450419.0, 3.4107146, 0.00045966252, 0.000042916756, -1433160.4, -12095.953, 0.0, 10.002913, 9.980047 
5.125184e+3, 1.6496742e+2, -1345182.6, -1371660.8, 13.395767, 0.00045864994, 0.00012518148, -1345182.6, -21862.537, 0.0, 10.002904, 9.967908 
5.125183e+3, 1.7493539e+2, -1247254.6, -1274041.9, 6.444985, 0.00045739312, 0.000021092332, -1247254.6, -21620.615, 0.0, 10.002894, 9.967494 
5.125183e+3, 1.848967e+2, -1159192.5, -1195461.8, 17.249521, 0.00045623936, 0.00016540158, -1159192.5, -31179.47, 0.0, 10.002885, 9.955063 
5.1251817e+3, 1.9485179e+2, -1061071.5, -1097596.8, 10.282581, 0.00045519075, 0.00003259429, -1061071.5, -30618.367, 0.0, 10.002876, 9.95472 
5.125181e+3, 2.0480023e+2, -972927.5, -1019212.7, 19.727308, 0.0004541694, 0.00015361577, -972927.5, -39969.08, 0.0, 10.002868, 9.941962 
5.12518e+3, 2.1474223e+2, -874668.1, -921209.06, 12.768941, 0.00045317685, -0.00004135436, -874668.1, -39141.3, 0.0, 10.00286, 9.941622 
5.12518e+3, 2.2467753e+2, -786401.7, -842958.6, 20.887737, 0.0004521646, 0.00020472627, -786401.7, -48240.906, 0.0, 10.0028515, 9.928584 
5.1251787e+3, 2.3460619e+2, -687994.9, -744801.06, 13.942622, 0.00045112942, -0.000008365464, -687994.9, -47134.836, 0.0, 10.002844, 9.928253 
5.125178e+3, 2.4452788e+2, -599690.4, -666869.0, 20.75623, 0.00045016804, 0.00015241263, -599690.3, -56063.008, 0.0, 10.002836, 9.914815 
5.1251775e+3, 2.544428e+2, -500963.66, -568213.94, 13.88902, 0.00044929315, -0.000031013184, -500963.66, -54502.72, 0.0, 10.00283, 9.914716 
5.1251775e+3, 2.6435068e+2, -412750.16, -490880.22, 19.563389, 0.00044833982, 0.00021382327, -412750.16, -63386.15, 0.0, 10.002822, 9.900642 
5.1251763e+3, 2.7425185e+2, -313490.6, -391287.53, 12.659856, 0.0004472865, -0.00013335932, -313490.6, -61158.3, 0.0, 10.002815, 9.901063 
5.125176e+3, 2.8414485e+2, -227006.84, -317951.9, 15.822133, 0.00044644027, 0.00029695244, -227006.84, -71625.81, 0.0, 10.002808, 9.884157 
5.125175e+3, 2.9403007e+2, -127323.734, -217650.72, 9.326063, 0.00044587412, -0.00018630858, -127323.734, -68817.76, 0.0, 10.002801, 9.884938 
5.1251745e+3, 3.039432e+2, -37679.305, -84781.766, 9.558458, 0.00044473246, 0.00023692072, -37679.3, -37679.3, 0.0, 10.002794, 9.940805 
5.1251745e+3, 3.1388584e+2, -36618.613, -82561.99, 2.175611, 0.00044274284, 0.0000019027297, -36618.613, -36618.613, 0.0, 10.002788, 9.942307 
5.1351905e+3, 1.2503465e+2, -1716320.0, -1723829.6, 2.6607158, 0.0004695631, 0.0001484647, -1716320.0, -1658.6477, 0.0, 10.002944, 9.992991 
5.135189e+3, 1.3502748e+2, -1618973.1, -1627066.6, -2.8741214, 0.00046707955, -0.000029639665, -1618973.1, -2241.721, 0.0, 10.0029335, 9.992208 
5.1351887e+3, 1.4501381e+2, -1530869.5, -1547744.6, 5.704443, 0.0004654552, 0.00023255104, -1530869.5, -12003.963, 0.0, 10.002924, 9.980563 
5.1351875e+3, 1.5499434e+2, -1433173.3, -1450444.3, -0.3142618, 0.0004646775, 0.000044101773, -1433173.3, -12117.041, 0.0, 10.002913, 9.980032 
5.135187e+3, 1.6496825e+2, -1345197.4, -1371689.9, 9.887346, 0.0004636684, 0.00012634772, -1345197.4, -21885.412, 0.0, 10.002904, 9.96789 
5.1351863e+3, 1.7493619e+2, -1247269.3, -1274070.9, 2.935823, 0.00046242768, 0.000022375852, -1247269.3, -21643.121, 0.0, 10.002894, 9.967476 
5.135185e+3, 1.848975e+2, -1159207.3, -1195491.1, 13.975926, 0.00046132627, 0.00016668902, -1159207.3, -31201.879, 0.0, 10.002886, 9.955044 
5.1351845e+3, 1.9485258e+2, -1061086.0, -1097626.0, 7.009482, 0.00046036733, 0.000033768552, -1061086.0, -30640.4, 0.0, 10.002877, 9.9547 
5.1351833e+3, 2.0480098e+2, -972942.06, -1019242.25, 16.638142, 0.00045936304, 0.00015474581, -972942.06, -39991.01, 0.0, 10.002869, 9.941943 
5.1351833e+3, 2.1474296e+2, -874682.5, -921238.44, 9.681248, 0.0004583098, -0.00004019472, -874682.5, -39162.86, 0.0, 10.00286, 9.941603 
5.135183e+3, 2.2467825e+2, -786416.2, -842988.4, 17.963472, 0.0004573101, 0.00020587674, -786416.2, -48262.387, 0.0, 10.002852, 9.928565 
5.1351815e+3, 2.3460688e+2, -688009.2, -744830.7, 11.0223055, 0.00045636945, -0.000007267535, -688009.2, -47155.94, 0.0, 10.002845, 9.928233 
5.135181e+3, 2.4452856e+2, -599704.6, -666898.75, 17.96362, 0.00045545356, 0.00015348152, -599704.6, -56083.9, 0.0, 10.002837, 9.914796 
5.135181e+3, 2.5444347e+2, -500977.75, -568243.5, 11.100194, 0.0004545661, -0.000029945531, -500977.75, -54523.227, 0.0, 10.00283, 9.914696 
5.13518e+3, 2.6435128e+2, -412764.47, -490910.4, 16.881857, 0.000453616, 0.00021487511, -412764.44, -63406.66, 0.0, 10.002823, 9.900623 
5.135179e+3, 2.7425247e+2, -313504.72, -391317.56, 9.984106, 0.00045258598, -0.00013234162, -313504.72, -61178.438, 0.0, 10.002815, 9.901043 
5.1351786e+3, 2.8414544e+2, -227020.13, -317980.44, 13.217047, 0.00045177268, 0.00029795303, -227020.13, -71644.92, 0.0, 10.002809, 9.884138 
5.135178e+3, 2.9403064e+2, -127336.76, -217678.95, 6.7266, 0.00045125236, -0.0001853023, -127336.76, -68836.43, 0.0, 10.002802, 9.88492 
5.135178e+3, 3.0394372e+2, -37694.164, -84813.914, 6.9985976, 0.00045015907, 0.00023788156, -37694.16, -37694.16, 0.0, 10.002795, 9.9407835 
5.135177e+3, 3.1388637e+2, -36633.695, -82594.625, -0.3824342, 0.00044822152, 0.0000027435449, -36633.695, -36633.695, 0.0, 10.002788, 9.942286 
5.1451933e+3, 1.2503554e+2, -1716208.9, -1723787.4, 6.8210526, 0.00047446744, 0.0001497327, -1716208.9, -1556.3104, 0.0, 10.003021, 9.992976 
5.145192e+3, 1.3502836e+2, -1618861.5, -1627024.4, 1.1515869, 0.00047205007, -0.000028410168, -1618861.5, -2138.7463, 0.0, 10.003011, 9.992193 
5.1451916e+3, 1.4501467e+2, -1530758.3, -1547704.1, 9.875721, 0.0004704786, 0.00023376972, -1530758.1, -11901.193, 0.0, 10.003001, 9.980547 
5.1451904e+3, 1.5499519e+2, -1433061.6, -1450404.0, 3.7526526, 0.00046974028, 0.00004533673, -1433061.6, -12013.776, 0.0, 10.002992, 9.980016 
5.14519e+3, 1.6496909e+2, -1345087.4, -1371653.6, 14.067244, 0.0004687609, 0.00012756814, -1345087.4, -21783.58, 0.0, 10.002983, 9.967871 
5.145189e+3, 1.7493701e+2, -1247158.9, -1274034.6, 6.9623256, 0.0004675402, 0.000023550932, -1247158.9, -21540.715, 0.0, 10.0029745, 9.967457 
5.145188e+3, 1.8489829e+2, -1159096.5, -1195455.4, 18.075745, 0.00046646406, 0.00016784655, -1159096.5, -31099.047, 0.0, 10.002966, 9.955025 
5.1451874e+3, 1.9485335e+2, -1060975.1, -1097590.4, 10.944192, 0.00046553582, 0.00003493715, -1060975.1, -30537.178, 0.0, 10.002957, 9.954681 
5.145187e+3, 2.0480174e+2, -972831.06, -1019207.2, 20.604782, 0.00046455546, 0.00015589333, -972831.06, -39887.445, 0.0, 10.00295, 9.941924 
5.145186e+3, 2.147437e+2, -874571.25, -921203.5, 13.46266, 0.00046351898, -0.00003910267, -874571.25, -39058.863, 0.0, 10.002942, 9.941584 
5.1451856e+3, 2.2467896e+2, -786304.8, -842954.0, 21.737883, 0.00046254587, 0.000206943, -786304.8, -48158.063, 0.0, 10.002934, 9.928545 
5.1451844e+3, 2.3460758e+2, -687897.7, -744796.56, 14.65039, 0.00046164292, -0.0000061938663, -687897.7, -47051.348, 0.0, 10.002927, 9.928214 
5.145184e+3, 2.4452923e+2, -599593.06, -666865.1, 21.566423, 0.00046075336, 0.00015454036, -599593.06, -55979.0, 0.0, 10.00292, 9.914776 
5.145183e+3, 2.5444415e+2, -500866.06, -568210.1, 14.493893, 0.00045987873, -0.000028927869, -500866.06, -54418.01, 0.0, 10.002913, 9.914677 
5.1451826e+3, 2.6435196e+2, -412652.7, -490877.72, 20.213572, 0.00045895384, 0.00021586513, -412652.7, -63301.18, 0.0, 10.002907, 9.900602 
5.145182e+3, 2.742531e+2, -313392.75, -391285.13, 13.146231, 0.00045796472, -0.00013136199, -313392.75, -61072.582, 0.0, 10.0029, 9.901023 
5.1451814e+3, 2.8414607e+2, -226907.0, -317946.56, 16.312292, 0.0004571805, 0.0002989132, -226907.0, -71537.695, 0.0, 10.002893, 9.884119 
5.1451814e+3, 2.9403123e+2, -127223.375, -217645.19, 9.686066, 0.00045667306, -0.00018437438, -127223.375, -68728.76, 0.0, 10.002888, 9.884901 
5.14518e+3, 3.039443e+2, -37583.277, -84785.37, 9.766303, 0.00045561278, 0.0002387798, -37583.277, -37583.277, 0.0, 10.002881, 9.940762 
5.1451796e+3, 3.1388694e+2, -36521.996, -82566.09, 2.099908, 0.00045373818, 0.0000036169656, -36521.996, -36521.996, 0.0, 10.002875, 9.942263 
5.155196e+3, 1.2503645e+2, -1716221.5, -1723811.9, 3.0762608, 0.00047941445, 0.00015101938, -1716221.4, -1577.8251, 0.0, 10.003021, 9.992961 
5.1551956e+3, 1.3502927e+2, -1618874.0, -1627048.8, -2.5910385, 0.00047702176, -0.000027301303, -1618874.0, -2159.9434, 0.0, 10.003012, 9.992178 
5.1551944e+3, 1.4501557e+2, -1530771.4, -1547730.0, 6.3657722, 0.00047550505, 0.00023487773, -1530771.4, -11923.015, 0.0, 10.003001, 9.980531 
5.155194e+3, 1.5499607e+2, -1433074.6, -1450429.6, 0.24193951, 0.0004748509, 0.00004661879, -1433074.6, -12035.267, 0.0, 10.002993, 9.98 
5.1551926e+3, 1.6496992e+2, -1345102.5, -1371683.4, 10.786768, 0.00047392555, 0.00012883951, -1345102.4, -21806.957, 0.0, 10.002983, 9.967852 
5.155192e+3, 1.7493783e+2, -1247173.8, -1274064.3, 3.6812832, 0.00047272866, 0.000024626004, -1247173.8, -21563.713, 0.0, 10.0029745, 9.967438 
5.1551914e+3, 1.8489909e+2, -1159111.6, -1195485.4, 14.989913, 0.00047165275, 0.00016888416, -1159111.5, -31121.967, 0.0, 10.002966, 9.955006 
5.15519e+3, 1.9485414e+2, -1060989.9, -1097620.3, 7.8580437, 0.00047070035, 0.000036101188, -1060989.9, -30559.715, 0.0, 10.002958, 9.954662 
5.1551896e+3, 2.048025e+2, -972846.0, -1019237.44, 17.714958, 0.00046975043, 0.00015705769, -972846.0, -39909.918, 0.0, 10.00295, 9.941905 
5.155189e+3, 2.1474445e+2, -874586.0, -921233.6, 10.575034, 0.00046880273, -0.000038072834, -874586.0, -39080.957, 0.0, 10.002942, 9.941564 
5.1551884e+3, 2.2467971e+2, -786319.56, -842984.4, 18.978912, 0.0004678694, 0.00020793157, -786319.56, -48179.984, 0.0, 10.002935, 9.928525 
5.155187e+3, 2.346083e+2, -687912.3, -744826.75, 11.893429, 0.00046695126, -0.000005142122, -687912.3, -47072.883, 0.0, 10.002928, 9.928194 
5.155187e+3, 2.4452993e+2, -599607.75, -666895.7, 18.954594, 0.0004660702, 0.00015559046, -599607.75, -56000.44, 0.0, 10.002921, 9.914756 
5.155186e+3, 2.544448e+2, -500880.56, -568240.5, 11.887607, 0.00046523212, -0.000027956166, -500880.53, -54439.066, 0.0, 10.002913, 9.914656 
5.1551855e+3, 2.643526e+2, -412667.28, -490908.6, 17.735754, 0.00046435298, 0.00021679813, -412667.28, -63322.156, 0.0, 10.002907, 9.900582 
5.155185e+3, 2.7425373e+2, -313407.2, -391315.84, 10.675482, 0.00046342117, -0.0001304173, -313407.2, -61093.168, 0.0, 10.002901, 9.901002 
5.155185e+3, 2.8414667e+2, -226920.52, -317975.66, 13.919928, 0.00046266243, 0.00029983622, -226920.52, -71557.19, 0.0, 10.002894, 9.884099 
5.1551837e+3, 2.940318e+2, -127236.625, -217673.95, 7.299072, 0.00046213722, -0.00018351882, -127236.625, -68747.79, 0.0, 10.002888, 9.884881 
5.155183e+3, 3.0394486e+2, -37598.613, -84818.57, 7.476371, 0.00046109574, 0.00023962029, -37598.613, -37598.613, 0.0, 10.002882, 9.940739 
5.1551825e+3, 3.1388748e+2, -36537.582, -82599.84, -0.17929082, 0.0004592944, 0.0000045211304, -36537.582, -36537.582, 0.0, 10.002875, 9.94224 
5.165199e+3, 1.2503737e+2, -1716108.4, -1723768.9, 6.87191, 0.00048436385, 0.000152168, -1716108.4, -1473.7526, 0.0, 10.0030985, 9.992946 
5.1651984e+3, 1.3503017e+2, -1618760.3, -1627005.8, 1.1616077, 0.00048206004, -0.000026125137, -1618760.3, -2055.0862, 0.0, 10.00309, 9.992163 
5.165198e+3, 1.4501645e+2, -1530658.0, -1547688.8, 10.255834, 0.00048059854, 0.00023604829, -1530658.0, -11818.287, 0.0, 10.003081, 9.980515 
5.1651967e+3, 1.5499693e+2, -1432960.8, -1450388.5, 3.9804466, 0.0004799661, 0.000047750662, -1432960.8, -11929.862, 0.0, 10.003072, 9.979982 
5.165196e+3, 1.6497079e+2, -1344990.0, -1371646.4, 14.608114, 0.0004790773, 0.00012995266, -1344990.0, -21702.934, 0.0, 10.003064, 9.967833 
5.165195e+3, 1.7493868e+2, -1247060.9, -1274027.3, 7.3530173, 0.00047793202, 0.00002574061, -1247060.9, -21459.104, 0.0, 10.003056, 9.967419 
5.165194e+3, 1.8489991e+2, -1158998.5, -1195448.9, 18.706696, 0.00047688305, 0.00016997587, -1158998.5, -31016.883, 0.0, 10.003048, 9.954987 
5.165193e+3, 1.9485493e+2, -1060876.4, -1097583.8, 11.383842, 0.00047593215, 0.0000371449, -1060876.4, -30454.037, 0.0, 10.00304, 9.954643 
5.165193e+3, 2.0480329e+2, -972732.4, -1019201.56, 21.233946, 0.00047501252, 0.00015808073, -972732.3, -39803.863, 0.0, 10.003033, 9.941885 
5.165192e+3, 2.1474521e+2, -874472.3, -921198.0, 13.93232, 0.00047412593, -0.00003704123, -874472.25, -38974.656, 0.0, 10.003026, 9.941545 
5.165191e+3, 2.2468044e+2, -786205.75, -842949.25, 22.326399, 0.00047322936, 0.00020894752, -786205.75, -48073.363, 0.0, 10.003019, 9.928505 
5.1651907e+3, 2.3460901e+2, -687798.2, -744791.8, 15.044992, 0.00047232074, -0.0000041689136, -687798.2, -46965.824, 0.0, 10.003013, 9.928174 
5.16519e+3, 2.4453062e+2, -599493.44, -666861.25, 22.070644, 0.00047145397, 0.00015653872, -599493.44, -55893.004, 0.0, 10.003006, 9.914736 
5.1651895e+3, 2.544455e+2, -500766.16, -568206.4, 14.844017, 0.0004706359, -0.000027011913, -500766.16, -54331.313, 0.0, 10.002999, 9.914636 
5.1651883e+3, 2.6435325e+2, -412552.84, -490875.1, 20.668144, 0.00046978713, 0.00021771784, -412552.84, -63214.137, 0.0, 10.002994, 9.900561 
5.165188e+3, 2.7425435e+2, -313292.63, -391282.66, 13.435524, 0.00046889877, -0.00012954795, -313292.63, -60984.836, 0.0, 10.002987, 9.900982 
5.165188e+3, 2.841473e+2, -226804.72, -317940.97, 16.62151, 0.00046816512, 0.00030068748, -226804.72, -71447.42, 0.0, 10.002981, 9.88408 
5.165187e+3, 2.940324e+2, -127120.414, -217639.31, 9.813072, 0.00046763988, -0.00018264216, -127120.414, -68637.42, 0.0, 10.002975, 9.884862 
5.165186e+3, 3.0394542e+2, -37484.926, -84789.31, 9.858965, 0.00046663953, 0.00024047207, -37484.926, -37484.926, 0.0, 10.002971, 9.940716 
5.1651853e+3, 3.1388804e+2, -36423.113, -82570.64, 2.049685, 0.00046494036, 0.0000052746027, -36423.113, -36423.113, 0.0, 10.002965, 9.942216 
5.1752025e+3, 1.2503831e+2, -1716121.0, -1723793.5, 3.4122488, 0.0004893188, 0.0001531895, -1716121.0, -1495.5313, 0.0, 10.003099, 9.99293 
5.175202e+3, 1.3503109e+2, -1618772.8, -1627030.1, -2.2984297, 0.00048716343, -0.000024885972, -1618772.8, -2076.549, 0.0, 10.00309, 9.992147 
5.1752007e+3, 1.4501736e+2, -1530671.5, -1547715.4, 7.002987, 0.00048575774, 0.00023727739, -1530671.5, -11840.614, 0.0, 10.003081, 9.980497 
5.1751995e+3, 1.5499781e+2, -1432974.0, -1450414.9, 0.7280605, 0.00048508917, 0.000048744027, -1432974.0, -11951.843, 0.0, 10.003073, 9.979966 
5.175199e+3, 1.6497165e+2, -1345005.4, -1371676.8, 11.5595, 0.0004842208, 0.00013091986, -1345005.4, -21726.783, 0.0, 10.003064, 9.9678135 
5.1751983e+3, 1.7493951e+2, -1247076.1, -1274057.5, 4.302632, 0.00048315283, 0.000026892472, -1247076.1, -21482.568, 0.0, 10.003057, 9.9674 
5.175197e+3, 1.8490075e+2, -1159013.9, -1195479.8, 15.857453, 0.00048215565, 0.00017111827, -1159013.9, -31040.352, 0.0, 10.003049, 9.954967 
5.1751965e+3, 1.9485575e+2, -1060891.6, -1097614.5, 8.534953, 0.0004812301, 0.00003807756, -1060891.6, -30477.115, 0.0, 10.003041, 9.954623 
5.175196e+3, 2.0480408e+2, -972747.6, -1019232.5, 18.501442, 0.0004803407, 0.0001589733, -972747.56, -39826.81, 0.0, 10.003034, 9.941865 
5.175195e+3, 2.1474597e+2, -874487.3, -921228.75, 11.199924, 0.00047948948, -0.00003600743, -874487.3, -38997.203, 0.0, 10.003027, 9.9415245 
5.175194e+3, 2.2468118e+2, -786220.9, -842980.4, 19.773024, 0.00047862696, 0.00020998932, -786220.9, -48095.81, 0.0, 10.003019, 9.928485 
5.1751935e+3, 2.3460972e+2, -687813.1, -744822.75, 12.495795, 0.0004777509, -0.0000032681614, -687813.1, -46987.88, 0.0, 10.003013, 9.928154 
5.175193e+3, 2.4453135e+2, -599508.44, -666892.5, 19.642784, 0.0004769039, 0.00015739286, -599508.44, -55914.887, 0.0, 10.003006, 9.914716 
5.1751924e+3, 2.5444618e+2, -500780.94, -568237.44, 12.420464, 0.00047609038, -0.000026092699, -500780.94, -54352.793, 0.0, 10.003, 9.914616 
5.175191e+3, 2.643539e+2, -412567.75, -490906.66, 18.379929, 0.00047525775, 0.00021862563, -412567.75, -63235.56, 0.0, 10.002994, 9.900541 
5.175191e+3, 2.74255e+2, -313307.34, -391314.03, 11.154934, 0.00047440006, -0.00012874813, -313307.34, -61005.855, 0.0, 10.002988, 9.900961 
5.1751906e+3, 2.841479e+2, -226818.56, -317970.8, 14.481381, 0.00047369115, 0.00030147246, -226818.56, -71467.37, 0.0, 10.002982, 9.88406 
5.17519e+3, 2.94033e+2, -127133.99, -217668.81, 7.684046, 0.00047318247, -0.00018174555, -127133.99, -68656.914, 0.0, 10.002976, 9.884842 
5.175189e+3, 3.0394602e+2, -37500.535, -84823.15, 7.838904, 0.00047224414, 0.00024133465, -37500.535, -37500.535, 0.0, 10.002971, 9.940693 
5.175188e+3, 3.1388858e+2, -36438.96, -82605.0, 0.04121471, 0.00047067407, 0.0000058883293, -36438.96, -36438.96, 0.0, 10.002966, 9.942193 
5.1852053e+3, 1.2503925e+2, -1716005.9, -1723749.9, 6.9845576, 0.0004943101, 0.00015425579, -1716005.9, -1389.6106, 0.0, 10.003179, 9.992915 
5.185205e+3, 1.3503201e+2, -1618657.0, -1626986.4, 1.1025078, 0.00049226603, -0.000023793064, -1618657.0, -1969.8091, 0.0, 10.00317, 9.992131 
5.1852036e+3, 1.4501825e+2, -1530555.9, -1547673.4, 10.503204, 0.00049092696, 0.00023836455, -1530555.9, -11733.892, 0.0, 10.003162, 9.980481 
5.185203e+3, 1.549987e+2, -1432857.8, -1450372.8, 4.129201, 0.0004902806, 0.000049793074, -1432857.8, -11844.203, 0.0, 10.003155, 9.979949 
5.1852024e+3, 1.6497251e+2, -1344890.5, -1371638.9, 15.00228, 0.0004894369, 0.00013193382, -1344890.5, -21620.45, 0.0, 10.003147, 9.967794 
5.185201e+3, 1.7494036e+2, -1246960.6, -1274019.6, 7.5367312, 0.00048839615, 0.0000278746, -1246960.6, -21375.488, 0.0, 10.0031395, 9.967381 
5.1852e+3, 1.8490158e+2, -1158898.1, -1195442.4, 19.078186, 0.0004874497, 0.00017209015, -1158898.1, -30932.814, 0.0, 10.003132, 9.9549465 
5.1852e+3, 1.9485655e+2, -1060775.8, -1097577.4, 11.591681, 0.00048659905, 0.000039061324, -1060775.8, -30369.195, 0.0, 10.003125, 9.954603 
5.185199e+3, 2.0480487e+2, -972631.5, -1019195.9, 21.532618, 0.00048574505, 0.0001599426, -972631.5, -39718.473, 0.0, 10.0031185, 9.941845 
5.185198e+3, 2.1474674e+2, -874370.9, -921192.25, 14.031413, 0.00048488707, -0.00003508069, -874370.9, -38888.305, 0.0, 10.003112, 9.941504 
5.185197e+3, 2.2468194e+2, -786104.2, -842944.4, 22.569653, 0.00048403975, 0.00021088203, -786104.2, -47986.52, 0.0, 10.003105, 9.928465 
5.185197e+3, 2.3461045e+2, -687696.5, -744787.06, 15.128155, 0.00048320345, -0.0000023999794, -687696.5, -46878.38, 0.0, 10.003099, 9.928134 
5.185196e+3, 2.4453205e+2, -599391.7, -666857.3, 22.263863, 0.00048238947, 0.00015823955, -599391.6, -55805.074, 0.0, 10.003094, 9.914695 
5.185195e+3, 2.5444686e+2, -500663.97, -568202.5, 14.872751, 0.00048160102, -0.000025263906, -500663.97, -54242.594, 0.0, 10.003087, 9.914595 
5.1851946e+3, 2.643546e+2, -412450.66, -490872.38, 20.8147, 0.00048078637, 0.0002194357, -412450.66, -63125.02, 0.0, 10.003082, 9.900519 
5.185194e+3, 2.7425563e+2, -313190.03, -391280.0, 13.421877, 0.00047993785, -0.00012795773, -313190.03, -60894.895, 0.0, 10.003077, 9.900939 
5.1851934e+3, 2.841485e+2, -226700.05, -317935.34, 16.723108, 0.00047925525, 0.000302252, -226700.03, -71354.99, 0.0, 10.003071, 9.88404 
5.185193e+3, 2.940336e+2, -127015.234, -217633.48, 9.756245, 0.0004787962, -0.0001809653, -127015.234, -68544.1, 0.0, 10.003066, 9.884822 
5.185192e+3, 3.0394658e+2, -37384.336, -84793.2, 9.83878, 0.0004779219, 0.00024207664, -37384.336, -37384.336, 0.0, 10.003061, 9.940669 
5.1851916e+3, 3.1388912e+2, -36321.793, -82575.016, 1.86448, 0.00047643704, 0.0000065356303, -36321.793, -36321.793, 0.0, 10.0030575, 9.942169 
5.195209e+3, 1.2504019e+2, -1716019.0, -1723775.3, 3.8132334, 0.00049933844, 0.00015536399, -1716019.0, -1411.9501, 0.0, 10.003179, 9.992899 
5.195208e+3, 1.3503294e+2, -1618669.9, -1627011.6, -2.0657969, 0.0004973714, -0.000022834807, -1618669.9, -1991.8092, 0.0, 10.003171, 9.992116 
5.195207e+3, 1.4501916e+2, -1530569.6, -1547700.3, 7.567055, 0.0004961092, 0.00023932106, -1530569.6, -11756.571, 0.0, 10.003162, 9.980464 
5.195206e+3, 1.549996e+2, -1432871.3, -1450399.5, 1.1908888, 0.00049553905, 0.000050894123, -1432871.3, -11866.535, 0.0, 10.003155, 9.979933 
5.195205e+3, 1.6497341e+2, -1344906.4, -1371670.3, 12.22131, 0.00049472396, 0.00013299145, -1344906.4, -21644.889, 0.0, 10.003147, 9.967774 
5.195204e+3, 1.7494123e+2, -1246976.3, -1274050.8, 4.755834, 0.0004936642, 0.000028700184, -1246976.3, -21399.53, 0.0, 10.00314, 9.9673605 
5.1952034e+3, 1.8490241e+2, -1158913.9, -1195473.9, 16.415556, 0.0004927675, 0.00017290477, -1158913.9, -30956.748, 0.0, 10.003133, 9.9549265 
5.195203e+3, 1.9485737e+2, -1060791.3, -1097608.6, 8.927132, 0.0004920375, 0.00004009281, -1060791.3, -30392.73, 0.0, 10.003126, 9.954583 
5.195202e+3, 2.0480566e+2, -972647.1, -1019227.6, 19.033224, 0.00049122376, 0.00016098324, -972647.1, -39741.94, 0.0, 10.003119, 9.941825 
5.195201e+3, 2.1474753e+2, -874386.3, -921223.8, 11.53403, 0.00049032026, -0.00003425273, -874386.3, -38911.37, 0.0, 10.003113, 9.9414835 
5.1952004e+3, 2.2468269e+2, -786119.7, -842976.2, 20.169594, 0.0004894708, 0.00021163705, -786119.7, -48009.41, 0.0, 10.003106, 9.928444 
5.1952e+3, 2.3461121e+2, -687711.75, -744818.7, 12.729686, 0.0004886808, -0.0000015616107, -687711.75, -46900.863, 0.0, 10.003099, 9.928113 
5.195199e+3, 2.4453276e+2, -599406.94, -666889.25, 20.034117, 0.00048791213, 0.00015907967, -599406.94, -55827.39, 0.0, 10.003094, 9.914674 
5.195198e+3, 2.5444755e+2, -500679.06, -568234.25, 12.649454, 0.00048716777, -0.000024518593, -500679.06, -54264.508, 0.0, 10.003088, 9.914574 
5.1951975e+3, 2.6435524e+2, -412465.88, -490904.63, 18.744184, 0.00048637297, 0.00022015549, -412465.88, -63146.867, 0.0, 10.003082, 9.900498 
5.1951975e+3, 2.7425632e+2, -313205.06, -391312.1, 11.360253, 0.00048551374, -0.00012717578, -313205.06, -60916.336, 0.0, 10.0030775, 9.900918 
5.195196e+3, 2.8414917e+2, -226714.2, -317965.88, 14.797037, 0.00048485896, 0.00030302673, -226714.2, -71375.37, 0.0, 10.003072, 9.884019 
5.1951957e+3, 2.9403424e+2, -127029.12, -217663.67, 7.8421216, 0.0004844801, -0.00018029276, -127029.12, -68564.0, 0.0, 10.003067, 9.884802 
5.195195e+3, 3.039472e+2, -37400.26, -84827.766, 8.127486, 0.00048367179, 0.00024270704, -37400.26, -37400.26, 0.0, 10.003062, 9.940646 
5.195195e+3, 3.138897e+2, -36337.965, -82610.11, 0.1746374, 0.00048223167, 0.000007214314, -36337.965, -36337.965, 0.0, 10.0030575, 9.942144 
5.2052116e+3, 1.2504116e+2, -1715902.0, -1723730.9, 6.927511, 0.00050442055, 0.0001564086, -1715902.0, -1304.3752, 0.0, 10.00326, 9.992884 
5.205211e+3, 1.3503389e+2, -1618551.6, -1626966.9, 1.0241369, 0.0005025248, -0.000021898557, -1618551.6, -1882.8516, 0.0, 10.003252, 9.9921 
5.20521e+3, 1.450201e+2, -1530451.5, -1547657.5, 10.715366, 0.0005013207, 0.00024022916, -1530451.5, -11647.522, 0.0, 10.003245, 9.980447 
5.205209e+3, 1.5500052e+2, -1432752.4, -1450356.6, 4.109411, 0.0005007956, 0.00005185301, -1432752.4, -11756.589, 0.0, 10.003238, 9.979915 
5.2052087e+3, 1.6497429e+2, -1344789.0, -1371631.5, 15.115463, 0.0005000411, 0.00013393862, -1344789.0, -21536.232, 0.0, 10.003231, 9.967754 
5.2052075e+3, 1.7494209e+2, -1246858.4, -1274012.0, 7.5268803, 0.0004990575, 0.000029573048, -1246858.4, -21290.11, 0.0, 10.003225, 9.96734 
5.205206e+3, 1.8490326e+2, -1158795.6, -1195435.9, 19.128908, 0.00049819157, 0.00017374725, -1158795.6, -30846.797, 0.0, 10.003219, 9.954906 
5.205206e+3, 1.948582e+2, -1060672.5, -1097570.6, 11.395679, 0.00049744546, 0.000040950086, -1060672.5, -30282.088, 0.0, 10.003212, 9.954563 
5.205205e+3, 2.0480648e+2, -972528.1, -1019190.06, 21.424171, 0.0004966544, 0.00016183149, -972528.06, -39630.82, 0.0, 10.003206, 9.941804 
5.205204e+3, 2.1474832e+2, -874267.25, -921186.56, 13.772521, 0.000495815, -0.00003343899, -874267.25, -38800.016, 0.0, 10.0032, 9.9414625 
5.205204e+3, 2.2468346e+2, -786000.5, -842939.44, 22.376394, 0.0004949973, 0.0002124144, -786000.5, -47897.73, 0.0, 10.003194, 9.928423 
5.2052027e+3, 2.3461196e+2, -687592.4, -744782.2, 14.760686, 0.000494203, -0.0000008227589, -687592.3, -46788.77, 0.0, 10.003188, 9.928092 
5.205202e+3, 2.445335e+2, -599287.44, -666853.2, 22.04035, 0.00049345254, 0.00015980337, -599287.44, -55714.97, 0.0, 10.003182, 9.914653 
5.2052015e+3, 2.5444826e+2, -500559.6, -568198.56, 14.48479, 0.0004927529, -0.00002378259, -500559.56, -54151.91, 0.0, 10.003178, 9.914553 
5.205201e+3, 2.6435596e+2, -412346.4, -490869.7, 20.594423, 0.00049201056, 0.00022088378, -412346.4, -63034.074, 0.0, 10.003172, 9.900477 
5.2052003e+3, 2.7425694e+2, -313085.47, -391277.44, 13.051005, 0.00049121334, -0.0001264803, -313085.47, -60803.2, 0.0, 10.003167, 9.900896 
5.2052e+3, 2.8414977e+2, -226593.28, -317929.66, 16.52951, 0.0004905764, 0.0003036853, -226593.28, -71260.695, 0.0, 10.003163, 9.883999 
5.2051985e+3, 2.9403484e+2, -126907.695, -217627.47, 9.472579, 0.000490155, -0.00017967701, -126907.69, -68448.62, 0.0, 10.003159, 9.884781 
5.2051985e+3, 3.0394778e+2, -37281.406, -84797.15, 9.763781, 0.0004893738, 0.0002433083, -37281.406, -37281.406, 0.0, 10.003155, 9.940621 
5.205198e+3, 3.1389028e+2, -36218.227, -82579.516, 1.5975494, 0.0004880636, 0.000007843944, -36218.227, -36218.227, 0.0, 10.003151, 9.942121 
5.215215e+3, 1.2504211e+2, -1715915.1, -1723756.3, 4.1821785, 0.00050955557, 0.00015739477, -1715915.1, -1326.8903, 0.0, 10.00326, 9.992867 
5.2152145e+3, 1.3503483e+2, -1618564.5, -1626992.1, -1.723031, 0.00050772604, -0.000020982063, -1618564.5, -1905.0343, 0.0, 10.003253, 9.992084 
5.2152133e+3, 1.4502102e+2, -1530465.6, -1547685.4, 8.087028, 0.0005065633, 0.00024109315, -1530465.6, -11670.847, 0.0, 10.003245, 9.980429 
5.215212e+3, 1.5500143e+2, -1432766.4, -1450384.4, 1.4828154, 0.0005060545, 0.000052681014, -1432766.4, -11779.541, 0.0, 10.003239, 9.9798975 
5.2152115e+3, 1.649752e+2, -1344805.0, -1371663.4, 12.609423, 0.00050538994, 0.00013478407, -1344805.0, -21561.035, 0.0, 10.003232, 9.967734 
5.215211e+3, 1.7494299e+2, -1246874.3, -1274043.6, 5.0168586, 0.00050457043, 0.000030489911, -1246874.3, -21314.506, 0.0, 10.003225, 9.96732 
5.21521e+3, 1.8490411e+2, -1158811.8, -1195468.4, 16.72401, 0.00050371775, 0.00017461574, -1158811.8, -30871.352, 0.0, 10.003219, 9.9548855 
5.215209e+3, 1.9485904e+2, -1060688.5, -1097603.0, 8.992081, 0.0005028295, 0.00004164671, -1060688.5, -30306.23, 0.0, 10.003213, 9.954542 
5.2152085e+3, 2.048073e+2, -972544.0, -1019222.44, 19.080732, 0.00050204503, 0.00016250224, -972544.0, -39654.695, 0.0, 10.003206, 9.941783 
5.2152073e+3, 2.1474911e+2, -874282.94, -921218.75, 11.427703, 0.00050137064, -0.00003263815, -874282.94, -38823.477, 0.0, 10.003201, 9.941442 
5.215207e+3, 2.2468424e+2, -786016.25, -842972.0, 20.175833, 0.00050061604, 0.00021321254, -786016.25, -47921.063, 0.0, 10.003195, 9.928402 
5.215206e+3, 2.346127e+2, -687607.94, -744814.5, 12.563915, 0.0004997709, -0.00000017570665, -687607.94, -46811.69, 0.0, 10.003189, 9.928071 
5.2152056e+3, 2.4453422e+2, -599303.06, -666885.8, 19.960417, 0.00049901364, 0.00016041963, -599303.06, -55737.71, 0.0, 10.003183, 9.914631 
5.2152044e+3, 2.5444898e+2, -500574.97, -568231.0, 12.409416, 0.0004983593, -0.00002305504, -500574.97, -54174.24, 0.0, 10.003178, 9.914531 
5.2152044e+3, 2.6435664e+2, -412361.94, -490902.6, 18.720007, 0.00049769954, 0.00022162002, -412361.94, -63056.313, 0.0, 10.003173, 9.900455 
5.215203e+3, 2.7425763e+2, -313100.78, -391310.2, 11.1896305, 0.0004970317, -0.00012586475, -313100.78, -60825.023, 0.0, 10.003168, 9.900875 
5.2152026e+3, 2.8415042e+2, -226607.64, -317960.63, 14.883813, 0.0004964032, 0.00030423648, -226607.64, -71281.34, 0.0, 10.003163, 9.883978 
5.215202e+3, 2.9403546e+2, -126921.766, -217658.1, 7.8443193, 0.00049582624, -0.0001791136, -126921.766, -68468.79, 0.0, 10.0031595, 9.884761 
5.2152014e+3, 3.039484e+2, -37297.723, -84832.56, 8.348058, 0.0004950361, 0.00024388275, -37297.72, -37297.72, 0.0, 10.003156, 9.940598 
5.2152014e+3, 3.1389087e+2, -36234.805, -82615.51, 0.20707905, 0.0004939348, 0.000008428134, -36234.805, -36234.805, 0.0, 10.003152, 9.942096 
5.2252185e+3, 1.2504308e+2, -1715795.9, -1723711.1, 6.9943123, 0.00051464303, 0.00015822292, -1715795.9, -1217.145, 0.0, 10.003342, 9.992851 
5.225218e+3, 1.3503578e+2, -1618444.3, -1626946.8, 0.8477052, 0.00051299174, -0.00002011227, -1618444.3, -1794.0984, 0.0, 10.003336, 9.992067 
5.225217e+3, 1.4502196e+2, -1530345.4, -1547641.9, 10.664271, 0.000511912, 0.00024193508, -1530345.3, -11559.667, 0.0, 10.003329, 9.980412 
5.2252156e+3, 1.5500236e+2, -1432644.9, -1450340.5, 4.003012, 0.00051139196, 0.000053426127, -1432644.9, -11666.977, 0.0, 10.003324, 9.97988 
5.225215e+3, 1.6497609e+2, -1344684.9, -1371623.9, 15.003963, 0.0005107541, 0.00013552367, -1344684.9, -21449.674, 0.0, 10.003318, 9.967713 
5.225214e+3, 1.7494385e+2, -1246753.4, -1274004.1, 7.097255, 0.00050999934, 0.00003131576, -1246753.4, -21202.33, 0.0, 10.003312, 9.967299 
5.225213e+3, 1.8490498e+2, -1158690.6, -1195429.3, 18.670895, 0.00050921337, 0.00017542299, -1158690.6, -30758.611, 0.0, 10.003306, 9.9548645 
5.2252126e+3, 1.9485988e+2, -1060567.0, -1097564.1, 10.843972, 0.0005083939, 0.000042327323, -1060567.0, -30193.045, 0.0, 10.003301, 9.954521 
5.2252114e+3, 2.048081e+2, -972422.44, -1019184.1, 20.838564, 0.0005076297, 0.00016312988, -972422.44, -39541.13, 0.0, 10.003296, 9.941762 
5.225211e+3, 2.147499e+2, -874161.2, -921180.6, 12.954135, 0.000506924, -0.000031984873, -874161.2, -38709.516, 0.0, 10.00329, 9.941421 
5.22521e+3, 2.2468501e+2, -785894.4, -842934.3, 21.631784, 0.00050618476, 0.00021387028, -785894.4, -47806.76, 0.0, 10.003284, 9.928381 
5.2252096e+3, 2.3461345e+2, -687486.1, -744777.25, 13.878979, 0.000505407, 0.00000046284893, -687486.1, -46697.28, 0.0, 10.00328, 9.928049 
5.2252084e+3, 2.4453495e+2, -599181.2, -666849.06, 21.285173, 0.0005046832, 0.00016105163, -599181.2, -55623.06, 0.0, 10.003274, 9.91461 
5.225208e+3, 2.5444967e+2, -500453.0, -568194.5, 13.584232, 0.0005040222, -0.000022414672, -500453.0, -54059.234, 0.0, 10.003269, 9.91451 
5.225207e+3, 2.6435733e+2, -412239.88, -490866.78, 19.95736, 0.0005033743, 0.00022223107, -412239.88, -62940.996, 0.0, 10.003264, 9.900434 
5.2252066e+3, 2.7425832e+2, -312978.66, -391274.72, 12.320719, 0.000502742, -0.00012533035, -312978.66, -60709.445, 0.0, 10.003261, 9.900853 
5.225206e+3, 2.841511e+2, -226484.34, -317923.72, 16.117268, 0.00050215423, 0.00030475023, -226484.34, -71164.375, 0.0, 10.003257, 9.883957 
5.2252054e+3, 2.940361e+2, -126798.17, -217621.28, 8.90647, 0.0005016249, -0.00017854483, -126798.17, -68351.31, 0.0, 10.003253, 9.88474 
5.225205e+3, 3.03949e+2, -37176.758, -84801.414, 9.496349, 0.0005008854, 0.00024444176, -37176.758, -37176.758, 0.0, 10.00325, 9.940573 
5.225204e+3, 3.138914e+2, -36112.73, -82584.27, 1.283107, 0.00049983937, 0.00000888246, -36112.73, -36112.73, 0.0, 10.003247, 9.942071 
5.235222e+3, 1.2504406e+2, -1715809.5, -1723737.5, 4.62178, 0.0005196907, 0.00015890643, -1715809.4, -1240.3407, 0.0, 10.003343, 9.992835 
5.2352214e+3, 1.3503675e+2, -1618457.6, -1626973.0, -1.5200578, 0.0005183204, -0.000019285553, -1618457.6, -1816.9292, 0.0, 10.003336, 9.992051 
5.23522e+3, 1.450229e+2, -1530359.6, -1547670.0, 8.46415, 0.0005173622, 0.00024275648, -1530359.6, -11583.193, 0.0, 10.00333, 9.980393 
5.235219e+3, 1.5500328e+2, -1432658.9, -1450368.4, 1.7980094, 0.0005168059, 0.000054095373, -1432658.9, -11690.132, 0.0, 10.0033245, 9.979862 
5.2352184e+3, 1.6497698e+2, -1344701.5, -1371657.0, 12.778295, 0.00051613664, 0.00013616629, -1344701.5, -21475.25, 0.0, 10.003319, 9.967692 
5.235217e+3, 1.7494473e+2, -1246769.9, -1274037.0, 4.8733506, 0.0005153552, 0.00003205771, -1246769.9, -21227.48, 0.0, 10.003313, 9.9672785 
5.235216e+3, 1.8490584e+2, -1158707.0, -1195462.1, 16.467861, 0.0005146853, 0.00017617359, -1158707.0, -30783.424, 0.0, 10.003307, 9.9548435 
5.235216e+3, 1.9486071e+2, -1060583.1, -1097596.8, 8.6372, 0.0005141286, 0.000042993346, -1060583.1, -30217.447, 0.0, 10.003302, 9.9545 
5.235215e+3, 2.0480894e+2, -972438.8, -1019217.44, 18.685133, 0.0005133974, 0.000163718, -972438.75, -39565.55, 0.0, 10.003296, 9.94174 
5.2352136e+3, 2.147507e+2, -874177.3, -921213.75, 10.803694, 0.0005124797, -0.0000314676, -874177.3, -38733.52, 0.0, 10.00329, 9.9414 
5.2352136e+3, 2.2468579e+2, -785910.44, -842967.4, 19.560925, 0.00051171187, 0.00021439855, -785910.4, -47830.44, 0.0, 10.003285, 9.928359 
5.2352124e+3, 2.3461421e+2, -687501.94, -744810.1, 11.80906, 0.0005111104, 0.000001093543, -687501.94, -46720.543, 0.0, 10.00328, 9.928028 
5.235212e+3, 2.4453568e+2, -599197.06, -666882.3, 19.39651, 0.00051045703, 0.0001616981, -599197.06, -55646.164, 0.0, 10.003275, 9.914588 
5.2352107e+3, 2.5445038e+2, -500468.7, -568227.56, 11.704351, 0.0005097415, -0.00002185482, -500468.7, -54081.918, 0.0, 10.00327, 9.914488 
5.2352107e+3, 2.64358e+2, -412255.6, -490900.13, 18.264744, 0.0005090405, 0.00022272656, -412255.6, -62963.51, 0.0, 10.003265, 9.900412 
5.23521e+3, 2.7425897e+2, -312994.2, -391307.88, 10.639458, 0.0005083572, -0.00012487078, -312994.2, -60731.53, 0.0, 10.003262, 9.90083 
5.235209e+3, 2.8415173e+2, -226499.02, -317955.4, 14.702737, 0.0005078399, 0.00030522945, -226499.02, -71185.414, 0.0, 10.003257, 9.883936 
5.235208e+3, 2.9403672e+2, -126812.57, -217652.66, 7.5155125, 0.0005075457, -0.00017797126, -126812.57, -68371.875, 0.0, 10.003254, 9.884719 
5.235208e+3, 3.039496e+2, -37193.25, -84837.24, 8.427822, 0.000506912, 0.00024498632, -37193.246, -37193.246, 0.0, 10.00325, 9.940549 
5.2352077e+3, 3.1389204e+2, -36129.473, -82620.64, 0.2510836, 0.0005057798, 0.0000092168675, -36129.473, -36129.473, 0.0, 10.003248, 9.942046 
5.245225e+3, 1.2504505e+2, -1715688.4, -1723691.6, 6.811842, 0.00052488834, 0.00015973698, -1715688.4, -1128.882, 0.0, 10.003426, 9.992818 
5.245224e+3, 1.3503772e+2, -1618334.6, -1626926.4, 0.7069572, 0.00052359956, -0.000018768276, -1618334.6, -1703.3737, 0.0, 10.003421, 9.992035 
5.2452236e+3, 1.4502387e+2, -1530236.4, -1547625.6, 10.602032, 0.00052272633, 0.00024324971, -1530236.4, -11469.282, 0.0, 10.003416, 9.980375 
5.2452224e+3, 1.5500422e+2, -1432534.6, -1450323.8, 3.5726662, 0.0005222581, 0.000054849366, -1432534.6, -11574.963, 0.0, 10.003412, 9.979844 
5.245222e+3, 1.6497791e+2, -1344578.5, -1371616.5, 14.300877, 0.00052164955, 0.00013693476, -1344578.5, -21361.154, 0.0, 10.0034075, 9.967671 
5.2452207e+3, 1.7494564e+2, -1246646.0, -1273996.5, 6.341017, 0.00052090146, 0.000032594173, -1246646.0, -21112.363, 0.0, 10.003403, 9.9672575 
5.2452195e+3, 1.849067e+2, -1158582.8, -1195422.1, 17.696398, 0.0005202546, 0.0001766476, -1158582.8, -30667.78, 0.0, 10.003397, 9.954822 
5.2452195e+3, 1.9486158e+2, -1060459.0, -1097557.0, 9.564028, 0.0005197105, 0.000043579174, -1060459.0, -30101.543, 0.0, 10.003392, 9.954479 
5.245218e+3, 2.0480976e+2, -972314.44, -1019178.06, 19.490868, 0.00051902136, 0.00016432593, -972314.44, -39449.316, 0.0, 10.0033865, 9.941719 
5.245217e+3, 2.1475151e+2, -874053.06, -921174.8, 11.578061, 0.000518177, -0.000030933108, -874053.06, -38617.13, 0.0, 10.003382, 9.941378 
5.245217e+3, 2.2468656e+2, -785786.2, -842929.0, 20.322987, 0.00051744044, 0.00021489018, -785786.2, -47713.88, 0.0, 10.003377, 9.928337 
5.245216e+3, 2.3461497e+2, -687377.75, -744772.1, 12.385758, 0.0005168232, 0.0000015764915, -687377.75, -46603.78, 0.0, 10.003372, 9.928006 
5.245215e+3, 2.4453643e+2, -599072.8, -666844.75, 20.010086, 0.0005161724, 0.00016217229, -599072.8, -55529.125, 0.0, 10.003367, 9.914566 
5.245214e+3, 2.544511e+2, -500344.47, -568190.4, 12.229428, 0.0005154809, -0.00002138959, -500344.47, -53964.742, 0.0, 10.003363, 9.914466 
5.245214e+3, 2.643587e+2, -412131.38, -490863.63, 18.900742, 0.00051479496, 0.00022319357, -412131.38, -62846.098, 0.0, 10.003359, 9.900389 
5.2452135e+3, 2.7425966e+2, -312869.72, -391271.66, 11.132766, 0.0005141152, -0.00012438833, -312869.72, -60613.688, 0.0, 10.003355, 9.900808 
5.2452123e+3, 2.841524e+2, -226373.38, -317917.75, 15.322157, 0.00051361765, 0.0003056982, -226373.38, -71066.16, 0.0, 10.003352, 9.883915 
5.245212e+3, 2.9403734e+2, -126686.76, -217615.19, 8.046319, 0.00051336514, -0.0001775562, -126686.76, -68252.24, 0.0, 10.003348, 9.884698 
5.245212e+3, 3.039502e+2, -37070.26, -84805.51, 9.161708, 0.00051282864, 0.00024537003, -37070.258, -37070.258, 0.0, 10.003346, 9.940524 
5.245211e+3, 3.138926e+2, -36005.68, -82588.96, 0.8608379, 0.00051187514, 0.000009603621, -36005.68, -36005.68, 0.0, 10.003345, 9.942021 
5.255229e+3, 1.2504603e+2, -1715701.9, -1723718.0, 5.0273433, 0.00053022685, 0.00016070134, -1715701.9, -1152.0519, 0.0, 10.003426, 9.992802 
5.255228e+3, 1.350387e+2, -1618347.9, -1626952.5, -1.0812732, 0.00052883744, -0.000018534241, -1618347.9, -1726.1796, 0.0, 10.003422, 9.992019 
5.255227e+3, 1.450248e+2, -1530251.4, -1547655.3, 8.786061, 0.00052801595, 0.00024344273, -1530251.4, -11493.694, 0.0, 10.003417, 9.980357 
5.255226e+3, 1.5500514e+2, -1432549.5, -1450353.3, 1.759877, 0.00052774965, 0.00005568063, -1432549.5, -11598.983, 0.0, 10.003412, 9.979825 
5.2552253e+3, 1.6497882e+2, -1344595.3, -1371649.9, 12.407794, 0.0005272863, 0.00013781794, -1344595.3, -21386.883, 0.0, 10.0034075, 9.96765 
5.255224e+3, 1.7494653e+2, -1246662.5, -1274029.6, 4.445311, 0.0005266269, 0.000032942113, -1246662.5, -21137.668, 0.0, 10.003403, 9.9672365 
5.255223e+3, 1.8490759e+2, -1158599.8, -1195456.3, 15.644356, 0.000525918, 0.00017686794, -1158599.8, -30693.283, 0.0, 10.003398, 9.954801 
5.2552223e+3, 1.9486243e+2, -1060475.6, -1097591.0, 7.5142922, 0.0005251566, 0.000044090866, -1060475.6, -30126.615, 0.0, 10.003393, 9.954457 
5.255222e+3, 2.0481059e+2, -972330.8, -1019211.5, 17.473856, 0.0005245178, 0.00016495145, -972330.8, -39473.83, 0.0, 10.003387, 9.941697 
5.2552205e+3, 2.1475232e+2, -874069.2, -921208.0, 9.559288, 0.00052400905, -0.000030382904, -874069.2, -38641.23, 0.0, 10.003383, 9.941357 
5.25522e+3, 2.2468737e+2, -785802.56, -842962.9, 18.398022, 0.0005233587, 0.00021534816, -785802.56, -47737.977, 0.0, 10.003377, 9.928315 
5.2552193e+3, 2.3461574e+2, -687393.94, -744805.75, 10.467704, 0.0005225493, 0.0000019233116, -687393.9, -46627.457, 0.0, 10.003372, 9.927984 
5.255219e+3, 2.4453717e+2, -599088.9, -666878.3, 18.26564, 0.0005218386, 0.00016248769, -599088.9, -55552.453, 0.0, 10.003368, 9.914544 
5.2552176e+3, 2.5445184e+2, -500360.3, -568223.75, 10.491784, 0.00052124343, -0.000021011609, -500360.3, -53987.637, 0.0, 10.003364, 9.914444 
5.2552176e+3, 2.643594e+2, -412147.38, -490897.6, 17.428308, 0.0005206352, 0.00022363415, -412147.34, -62868.938, 0.0, 10.00336, 9.900367 
5.2552164e+3, 2.742603e+2, -312885.53, -391305.44, 9.677549, 0.00052000943, -0.00012388514, -312885.53, -60636.105, 0.0, 10.003356, 9.900786 
5.255216e+3, 2.8415304e+2, -226388.25, -317949.88, 14.115818, 0.000519485, 0.00030615696, -226388.25, -71087.44, 0.0, 10.003352, 9.883893 
5.255215e+3, 2.94038e+2, -126701.34, -217646.97, 6.8626757, 0.000519096, -0.00017728731, -126701.336, -68273.016, 0.0, 10.003349, 9.884676 
5.2552146e+3, 3.0395082e+2, -37087.01, -84841.92, 8.364154, 0.0005186489, 0.0002456055, -37087.01, -37087.01, 0.0, 10.003347, 9.940499 
5.255214e+3, 3.138932e+2, -36022.69, -82625.945, 0.10698225, 0.00051811815, 0.000010038296, -36022.69, -36022.69, 0.0, 10.0033455, 9.941996 
5.2652323e+3, 1.2504703e+2, -1715578.1, -1723671.1, 6.6476, 0.00053521415, 0.00016098778, -1715578.1, -1038.089, 0.0, 10.003511, 9.9927845 
5.265232e+3, 1.3503967e+2, -1618222.3, -1626905.0, 0.22120237, 0.00053416623, -0.000017907727, -1618222.3, -1610.0702, 0.0, 10.003509, 9.992002 
5.2652305e+3, 1.4502577e+2, -1530125.5, -1547610.0, 9.829952, 0.00053354114, 0.00024408859, -1530125.5, -11377.122, 0.0, 10.003505, 9.980338 
5.2652293e+3, 1.5500608e+2, -1432422.1, -1450307.5, 2.7862422, 0.0005333278, 0.00005602943, -1432422.1, -11480.841, 0.0, 10.003502, 9.979807 
5.265229e+3, 1.6497976e+2, -1344469.1, -1371608.3, 13.106029, 0.0005329318, 0.00013812335, -1344469.1, -21269.783, 0.0, 10.003498, 9.967629 
5.2652276e+3, 1.7494741e+2, -1246536.0, -1273988.1, 4.8861094, 0.0005323543, 0.000033458306, -1246536.0, -21019.914, 0.0, 10.003494, 9.967215 
5.2652264e+3, 1.8490846e+2, -1158472.9, -1195415.3, 15.798629, 0.00053165265, 0.00017736331, -1158472.9, -30574.988, 0.0, 10.0034895, 9.954779 
5.2652264e+3, 1.9486327e+2, -1060348.5, -1097550.1, 7.6861014, 0.00053082185, 0.000044327426, -1060348.5, -30007.793, 0.0, 10.003486, 9.954435 
5.265225e+3, 2.0481142e+2, -972203.6, -1019171.06, 17.477713, 0.00053015916, 0.00016517894, -972203.56, -39354.758, 0.0, 10.00348, 9.941675 
5.265224e+3, 2.1475312e+2, -873942.5, -921168.2, 9.331221, 0.00052967505, -0.000029898498, -873942.5, -38522.457, 0.0, 10.003475, 9.941335 
5.2652234e+3, 2.2468816e+2, -785676.0, -842923.5, 18.225376, 0.000529073, 0.00021588818, -785676.0, -47619.15, 0.0, 10.00347, 9.928293 
5.265223e+3, 2.346165e+2, -687267.44, -744766.75, 10.3568, 0.0005283383, 0.0000022945057, -687267.44, -46508.52, 0.0, 10.003467, 9.927962 
5.265222e+3, 2.4453792e+2, -598962.5, -666840.06, 18.301332, 0.0005276666, 0.00016277343, -598962.5, -55433.395, 0.0, 10.003462, 9.914521 
5.265221e+3, 2.5445256e+2, -500233.97, -568185.9, 10.369604, 0.0005270684, -0.00002071296, -500233.97, -53868.37, 0.0, 10.003458, 9.914421 
5.265221e+3, 2.643601e+2, -412021.1, -490860.5, 17.41872, 0.0005264799, 0.00022395658, -412021.1, -62749.54, 0.0, 10.003454, 9.900344 
5.26522e+3, 2.7426103e+2, -312759.4, -391268.78, 9.566407, 0.00052590267, -0.00012352524, -312759.4, -60516.62, 0.0, 10.003451, 9.9007635 
5.265219e+3, 2.841537e+2, -226260.92, -317911.7, 14.2249365, 0.0005254036, 0.00030652946, -226260.92, -70966.53, 0.0, 10.0034485, 9.883872 
5.2652186e+3, 2.940386e+2, -126573.54, -217608.8, 6.919401, 0.0005250084, -0.0001769364, -126573.54, -68151.43, 0.0, 10.003447, 9.884655 
5.265218e+3, 3.039514e+2, -36961.973, -84809.65, 8.684585, 0.0005245885, 0.00024592283, -36961.97, -36961.97, 0.0, 10.003445, 9.940474 
5.2652174e+3, 3.1389377e+2, -35896.797, -82593.73, 0.31032255, 0.0005241345, 0.00001030593, -35896.797, -35896.797, 0.0, 10.003444, 9.94197 
5.275236e+3, 1.2504803e+2, -1715592.3, -1723698.9, 5.4503703, 0.00053988484, 0.00016065536, -1715592.3, -1062.0079, 0.0, 10.003511, 9.992767 
5.2752346e+3, 1.3504066e+2, -1618236.3, -1626932.5, -0.97622204, 0.0005395825, -0.000016923355, -1618236.3, -1633.6401, 0.0, 10.003509, 9.991984 
5.275234e+3, 1.4502673e+2, -1530140.5, -1547639.6, 8.471895, 0.0005392859, 0.00024514698, -1530140.5, -11401.598, 0.0, 10.003506, 9.980319 
5.275233e+3, 1.5500703e+2, -1432436.9, -1450337.0, 1.430438, 0.0005389896, 0.000055936605, -1432436.9, -11504.904, 0.0, 10.003503, 9.979788 
5.275232e+3, 1.6498066e+2, -1344486.4, -1371642.6, 11.449594, 0.0005385899, 0.00013790031, -1344486.4, -21296.08, 0.0, 10.003499, 9.9676075 
5.275231e+3, 1.7494832e+2, -1246553.0, -1274022.3, 3.2332678, 0.00053808803, 0.000034127683, -1246553.0, -21045.773, 0.0, 10.003495, 9.967194 
5.27523e+3, 1.8490934e+2, -1158489.8, -1195449.3, 13.966187, 0.00053745735, 0.00017810936, -1158489.8, -30600.443, 0.0, 10.00349, 9.954757 
5.275229e+3, 1.9486414e+2, -1060365.1, -1097583.9, 5.855409, 0.0005366927, 0.00004431181, -1060365.1, -30032.85, 0.0, 10.003486, 9.954413 
5.2752286e+3, 2.0481226e+2, -972220.44, -1019205.4, 15.486326, 0.0005359381, 0.00016504187, -972220.44, -39379.79, 0.0, 10.003481, 9.941653 
5.2752274e+3, 2.1475396e+2, -873959.1, -921202.3, 7.3437843, 0.00053519366, -0.000029475117, -873959.1, -38547.05, 0.0, 10.003476, 9.941312 
5.275227e+3, 2.2468895e+2, -785692.25, -842957.06, 16.434547, 0.00053460523, 0.00021650246, -785692.25, -47643.133, 0.0, 10.003471, 9.928271 
5.275226e+3, 2.3461728e+2, -687283.5, -744800.1, 8.568964, 0.00053418963, 0.0000026877144, -687283.5, -46532.08, 0.0, 10.003467, 9.92794 
5.2752256e+3, 2.4453866e+2, -598978.8, -666874.3, 16.715475, 0.00053364754, 0.00016303184, -598978.8, -55457.047, 0.0, 10.003463, 9.914499 
5.2752244e+3, 2.5445327e+2, -500250.1, -568219.94, 8.7965975, 0.00053295534, -0.000020487534, -500250.1, -53891.605, 0.0, 10.003459, 9.914399 
5.275224e+3, 2.6436082e+2, -412037.3, -490894.9, 16.09094, 0.00053233356, 0.00022417003, -412037.3, -62772.617, 0.0, 10.003455, 9.900321 
5.275224e+3, 2.7426168e+2, -312775.38, -391303.03, 8.254783, 0.00053179974, -0.0001232974, -312775.38, -60539.258, 0.0, 10.003451, 9.900741 
5.2752227e+3, 2.8415436e+2, -226275.9, -317944.1, 13.2950945, 0.000531374, 0.0003068223, -226275.9, -70987.96, 0.0, 10.003449, 9.88385 
5.275222e+3, 2.9403925e+2, -126588.25, -217640.88, 6.0210147, 0.00053109246, -0.00017651053, -126588.25, -68172.36, 0.0, 10.003447, 9.884633 
5.2752215e+3, 3.0395204e+2, -36978.996, -84846.65, 8.178148, 0.00053064275, 0.00024631497, -36978.992, -36978.992, 0.0, 10.003445, 9.940449 
5.275221e+3, 3.1389436e+2, -35914.094, -82631.33, -0.14753641, 0.00052994775, 0.000010419585, -35914.094, -35914.094, 0.0, 10.003444, 9.941944 
5.285239e+3, 1.2504902e+2, -1715465.4, -1723651.0, 5.7702265, 0.00054500246, 0.00016080686, -1715465.4, -944.89233, 0.0, 10.003599, 9.99275 
5.285238e+3, 1.3504162e+2, -1618108.1, -1626884.4, -0.80739015, 0.00054490834, -0.00001682949, -1618108.1, -1515.1431, 0.0, 10.003597, 9.991966 
5.2852374e+3, 1.450277e+2, -1530011.9, -1547593.1, 8.440262, 0.00054478843, 0.0002453255, -1530011.9, -11282.406, 0.0, 10.003595, 9.980301 
5.285236e+3, 1.5500796e+2, -1432306.6, -1450289.9, 1.3247696, 0.0005446375, 0.000056339137, -1432306.6, -11383.791, 0.0, 10.003593, 9.979769 
5.2852356e+3, 1.6498159e+2, -1344357.0, -1371599.8, 10.904516, 0.00054433045, 0.00013824464, -1344357.0, -21175.77, 0.0, 10.003592, 9.967586 
5.2852345e+3, 1.7494923e+2, -1246422.8, -1273979.3, 2.6960232, 0.0005438687, 0.00003413193, -1246422.8, -20924.361, 0.0, 10.003589, 9.967172 
5.285234e+3, 1.8491022e+2, -1158359.5, -1195406.4, 12.965993, 0.0005432614, 0.00017807273, -1158359.5, -30478.82, 0.0, 10.003585, 9.954735 
5.2852327e+3, 1.9486499e+2, -1060236.3, -1097542.1, 4.843814, 0.0005425031, 0.000044541306, -1060236.3, -29912.363, 0.0, 10.003579, 9.9543915 
5.285232e+3, 2.048131e+2, -972092.0, -1019164.44, 14.606168, 0.0005417269, 0.00016536105, -972092.0, -39259.535, 0.0, 10.003574, 9.941631 
5.2852315e+3, 2.1475476e+2, -873830.25, -921161.44, 6.6196866, 0.00054093107, -0.000029253959, -873830.25, -38426.184, 0.0, 10.003571, 9.94129 
5.28523e+3, 2.2468972e+2, -785563.3, -842916.75, 15.786879, 0.00054033793, 0.0002167361, -785563.3, -47521.973, 0.0, 10.003566, 9.928249 
5.2852297e+3, 2.3461804e+2, -687154.9, -744760.4, 7.683908, 0.0005399697, 0.0000030569115, -687154.9, -46411.02, 0.0, 10.003562, 9.927918 
5.285229e+3, 2.4453941e+2, -598850.44, -666835.2, 15.947165, 0.00053948036, 0.0001634059, -598850.44, -55335.953, 0.0, 10.003558, 9.914476 
5.285228e+3, 2.5445402e+2, -500121.8, -568181.25, 8.07662, 0.0005388471, -0.000020262722, -500121.8, -53770.42, 0.0, 10.003554, 9.914376 
5.2852273e+3, 2.643615e+2, -411909.16, -490857.16, 15.6298, 0.0005382606, 0.00022431927, -411909.16, -62651.344, 0.0, 10.0035515, 9.900298 
5.2852273e+3, 2.7426237e+2, -312647.1, -391265.6, 7.7108564, 0.0005377323, -0.0001231307, -312647.1, -60417.633, 0.0, 10.003549, 9.900718 
5.285226e+3, 2.84155e+2, -226146.55, -317905.3, 12.960554, 0.00053732, 0.00030704073, -226146.55, -70865.04, 0.0, 10.003547, 9.883828 
5.2852255e+3, 2.9403988e+2, -126458.945, -217602.39, 5.512242, 0.00053706253, -0.00017619484, -126458.945, -68049.29, 0.0, 10.003545, 9.884611 
5.285225e+3, 3.0395263e+2, -36852.57, -84813.91, 8.032366, 0.00053665234, 0.0002466131, -36852.57, -36852.57, 0.0, 10.003544, 9.940423 
5.2852243e+3, 3.1389493e+2, -35786.65, -82598.52, -0.21268588, 0.0005360194, 0.000010532246, -35786.65, -35786.65, 0.0, 10.003544, 9.941918 
5.2952427e+3, 1.2505002e+2, -1715479.8, -1723679.3, 4.9894543, 0.00055053126, 0.00016139729, -1715479.8, -969.10144, 0.0, 10.0036, 9.992732 
5.2952415e+3, 1.3504261e+2, -1618122.4, -1626912.4, -1.5976616, 0.00055015605, -0.000017547938, -1618122.4, -1538.9808, 0.0, 10.003598, 9.991949 
5.295241e+3, 1.4502865e+2, -1530027.0, -1547623.0, 7.6135006, 0.00055007485, 0.00024470186, -1530027.0, -11306.982, 0.0, 10.003596, 9.980282 
5.29524e+3, 1.5500891e+2, -1432321.5, -1450319.6, 0.48685765, 0.0005502773, 0.000057192516, -1432321.5, -11408.003, 0.0, 10.003594, 9.979751 
5.295239e+3, 1.6498251e+2, -1344374.3, -1371634.0, 9.574421, 0.000550151, 0.00013910497, -1344374.3, -21202.053, 0.0, 10.0035925, 9.967564 
5.2952385e+3, 1.7495014e+2, -1246439.8, -1274013.4, 1.4019552, 0.0005496972, 0.000033528428, -1246439.8, -20950.215, 0.0, 10.003589, 9.96715 
5.2952373e+3, 1.849111e+2, -1158376.4, -1195440.4, 10.969015, 0.00054907, 0.00017732139, -1158376.4, -30504.299, 0.0, 10.003585, 9.954713 
5.295236e+3, 1.9486584e+2, -1060252.9, -1097576.0, 2.846452, 0.00054826285, 0.000044993565, -1060252.9, -29937.42, 0.0, 10.00358, 9.9543705 
5.295236e+3, 2.0481393e+2, -972108.5, -1019198.06, 12.873161, 0.00054752926, 0.00016609556, -972108.5, -39284.22, 0.0, 10.003575, 9.941609 
5.295235e+3, 2.1475556e+2, -873846.56, -921194.94, 4.8888903, 0.00054687343, -0.00002921802, -873846.56, -38450.445, 0.0, 10.0035715, 9.941269 
5.295234e+3, 2.2469053e+2, -785580.0, -842951.3, 14.082208, 0.000546259, 0.0002166217, -785580.0, -47546.445, 0.0, 10.003567, 9.928226 
5.295233e+3, 2.3461881e+2, -687171.4, -744794.7, 5.985932, 0.00054568955, 0.0000034033087, -687171.4, -46435.063, 0.0, 10.003563, 9.927896 
5.2952325e+3, 2.4454015e+2, -598866.6, -666869.25, 14.503198, 0.00054518256, 0.00016388457, -598866.6, -55359.53, 0.0, 10.003559, 9.914454 
5.295232e+3, 2.5445473e+2, -500137.84, -568215.1, 6.642177, 0.00054474804, -0.000020039122, -500137.84, -53793.555, 0.0, 10.003555, 9.914354 
5.295231e+3, 2.6436222e+2, -411925.5, -490891.9, 14.509257, 0.0005442596, 0.0002244094, -411925.5, -62674.586, 0.0, 10.003552, 9.900275 
5.295231e+3, 2.7426302e+2, -312663.25, -391300.22, 6.6115317, 0.00054370234, -0.00012302035, -312663.25, -60440.457, 0.0, 10.00355, 9.900695 
5.29523e+3, 2.8415567e+2, -226161.9, -317938.5, 12.189288, 0.0005432486, 0.00030719044, -226161.9, -70886.836, 0.0, 10.003547, 9.883806 
5.295229e+3, 2.9404053e+2, -126474.016, -217635.25, 4.772721, 0.00054293324, -0.00017598095, -126474.016, -68070.586, 0.0, 10.003546, 9.884589 
5.2952284e+3, 3.039533e+2, -36869.555, -84850.86, 7.8491273, 0.00054262613, 0.00024682438, -36869.55, -36869.55, 0.0, 10.003544, 9.940398 
5.295228e+3, 3.1389552e+2, -35803.875, -82635.99, -0.33559686, 0.00054233306, 0.000010643724, -35803.875, -35803.875, 0.0, 10.003544, 9.941894 
5.305247e+3, 1.2505102e+2, -1715348.8, -1723630.4, 4.413512, 0.0005561567, 0.00016102141, -1715348.8, -847.8509, 0.0, 10.00369, 9.992714 
5.3052455e+3, 1.3504359e+2, -1617990.3, -1626863.4, -2.7458158, 0.00055573886, -0.000017364277, -1617990.3, -1416.5197, 0.0, 10.00369, 9.991931 
5.305245e+3, 1.4502962e+2, -1529895.1, -1547575.9, 5.767764, 0.00055564754, 0.0002448038, -1529895.1, -11184.536, 0.0, 10.003689, 9.980262 
5.305244e+3, 1.5500985e+2, -1432189.3, -1450272.6, -1.9841149, 0.00055587164, 0.000056581885, -1432189.3, -11284.912, 0.0, 10.003688, 9.979731 
5.3052425e+3, 1.6498342e+2, -1344241.8, -1371587.3, 6.8711953, 0.0005557857, 0.00013854892, -1344241.8, -21078.52, 0.0, 10.003686, 9.967544 
5.305242e+3, 1.7495103e+2, -1246307.4, -1273967.0, 0.029683692, 0.000555391, 0.00003379387, -1246307.4, -20826.668, 0.0, 10.003683, 9.96713 
5.305241e+3, 1.8491198e+2, -1158245.3, -1195397.0, 9.622055, 0.00055480044, 0.00017777944, -1158245.3, -30381.826, 0.0, 10.003679, 9.954692 
5.30524e+3, 1.9486672e+2, -1060121.6, -1097532.9, 1.5578871, 0.00055400666, 0.000044999146, -1060121.6, -29814.598, 0.0, 10.003675, 9.954349 
5.305239e+3, 2.0481478e+2, -971977.5, -1019155.9, 11.692669, 0.0005533339, 0.00016601376, -971977.5, -39161.457, 0.0, 10.003671, 9.941587 
5.3052384e+3, 2.147564e+2, -873716.1, -921153.4, 3.4972427, 0.0005527894, -0.000028999137, -873716.1, -38328.008, 0.0, 10.003667, 9.941247 
5.305238e+3, 2.2469132e+2, -785449.75, -842910.44, 12.757155, 0.00055219536, 0.0002169355, -785449.75, -47423.97, 0.0, 10.003663, 9.928205 
5.3052366e+3, 2.3461959e+2, -687040.9, -744754.1, 4.784864, 0.00055154494, 0.0000035831054, -687040.9, -46312.152, 0.0, 10.003659, 9.927874 
5.3052366e+3, 2.4454091e+2, -598736.2, -666829.3, 13.485812, 0.00055101654, 0.00016400668, -598736.1, -55236.367, 0.0, 10.003655, 9.914432 
5.3052354e+3, 2.5445545e+2, -500007.5, -568175.6, 5.437387, 0.000550631, -0.000019884834, -500007.5, -53670.324, 0.0, 10.003653, 9.914331 
5.305235e+3, 2.643629e+2, -411795.44, -490853.47, 13.47357, 0.0005501904, 0.00022458867, -411795.44, -62551.414, 0.0, 10.00365, 9.900252 
5.3052336e+3, 2.7426374e+2, -312533.38, -391262.28, 5.517414, 0.00054967945, -0.00012282513, -312533.38, -60317.25, 0.0, 10.003648, 9.900671 
5.3052336e+3, 2.8415632e+2, -226030.97, -317899.2, 11.442367, 0.0005492443, 0.00030734437, -226030.97, -70762.336, 0.0, 10.003646, 9.883784 
5.305233e+3, 2.9404116e+2, -126342.74, -217596.06, 4.0769906, 0.0005489101, -0.00017594617, -126342.74, -67945.54, 0.0, 10.003645, 9.884567 
5.305232e+3, 3.039539e+2, -36741.355, -84817.62, 7.5407133, 0.0005486473, 0.00024685744, -36741.35, -36741.35, 0.0, 10.003644, 9.940372 
5.305231e+3, 3.1389612e+2, -35675.504, -82603.12, -0.8598415, 0.0005484918, 0.000010849575, -35675.504, -35675.504, 0.0, 10.003644, 9.941867 
5.315251e+3, 1.2505202e+2, -1715364.4, -1723661.1, 4.0431356, 0.0005618743, 0.00015976772, -1715364.4, -873.2286, 0.0, 10.003691, 9.992695 
5.3152496e+3, 1.3504457e+2, -1618005.8, -1626893.9, -3.1204906, 0.00056163094, -0.000016362148, -1618005.8, -1441.5704, 0.0, 10.003691, 9.991911 
5.3152484e+3, 1.4503057e+2, -1529911.8, -1547608.5, 5.235334, 0.0005614853, 0.00024556255, -1529911.8, -11210.46, 0.0, 10.00369, 9.980242 
5.315248e+3, 1.5501079e+2, -1432205.6, -1450305.1, -2.5065508, 0.00056142954, 0.000054637483, -1432205.6, -11310.454, 0.0, 10.003689, 9.97971 
5.3152466e+3, 1.6498436e+2, -1344255.9, -1371615.8, 5.704257, 0.0005612563, 0.00013670335, -1344255.9, -21101.719, 0.0, 10.003687, 9.9675255 
5.3152454e+3, 1.7495194e+2, -1246321.5, -1273995.4, -1.1388144, 0.000560967, 0.00003484925, -1246321.5, -20849.545, 0.0, 10.003684, 9.967112 
5.315245e+3, 1.8491288e+2, -1158261.9, -1195430.8, 7.8117304, 0.0005604645, 0.00017933709, -1158261.9, -30407.17, 0.0, 10.00368, 9.95467 
5.3152436e+3, 1.9486757e+2, -1060138.1, -1097566.4, -0.25026488, 0.00055974117, 0.000044597295, -1060138.1, -29839.506, 0.0, 10.003675, 9.954327 
5.315243e+3, 2.0481561e+2, -971994.44, -1019190.44, 9.991706, 0.0005591458, 0.00016518819, -971994.4, -39186.56, 0.0, 10.003672, 9.9415655 
5.3152424e+3, 2.147572e+2, -873732.8, -921187.7, 1.8050398, 0.0005586862, -0.00002861466, -873732.8, -38352.69, 0.0, 10.003667, 9.941224 
5.315241e+3, 2.246921e+2, -785466.2, -842944.5, 11.279138, 0.00055815047, 0.00021763808, -785466.2, -47448.168, 0.0, 10.003663, 9.928183 
5.3152406e+3, 2.3462036e+2, -687057.1, -744787.94, 3.3110821, 0.000557529, 0.000003610332, -687057.1, -46335.914, 0.0, 10.003659, 9.927852 
5.31524e+3, 2.4454166e+2, -598752.75, -666864.1, 12.181019, 0.0005569759, 0.00016380337, -598752.75, -55260.297, 0.0, 10.003656, 9.914409 
5.3152394e+3, 2.544562e+2, -500023.88, -568210.3, 4.1439366, 0.0005565026, -0.00001979451, -500023.88, -53693.824, 0.0, 10.003654, 9.914309 
5.315238e+3, 2.6436362e+2, -411811.94, -490888.56, 12.495753, 0.000556064, 0.00022484823, -411811.94, -62574.793, 0.0, 10.003651, 9.9002285 
5.3152376e+3, 2.742644e+2, -312549.66, -391297.16, 4.560026, 0.00055566797, -0.00012255347, -312549.66, -60340.188, 0.0, 10.003648, 9.900648 
5.315237e+3, 2.8415698e+2, -226046.27, -317932.3, 10.924564, 0.0005553063, 0.0003075013, -226046.27, -70784.07, 0.0, 10.003647, 9.883761 
5.3152364e+3, 2.9404178e+2, -126357.766, -217628.83, 3.5959067, 0.0005549892, -0.00017607528, -126357.766, -67966.77, 0.0, 10.003645, 9.884545 
5.315236e+3, 3.039545e+2, -36758.785, -84855.516, 7.483713, 0.0005547171, 0.0002467275, -36758.785, -36758.785, 0.0, 10.003645, 9.940347 
5.315235e+3, 3.138967e+2, -35693.22, -82641.63, -0.86354566, 0.0005545141, 0.000011140576, -35693.22, -35693.22, 0.0, 10.003645, 9.941841 
5.325254e+3, 1.2505302e+2, -1715227.0, -1723610.3, 3.6045096, 0.0005677257, 0.00015976361, -1715227.0, -745.68823, 0.0, 10.003786, 9.992675 
5.325253e+3, 1.3504554e+2, -1617869.3, -1626843.8, -3.9005075, 0.0005675631, -0.00001649299, -1617869.3, -1314.6277, 0.0, 10.003785, 9.991892 
5.325252e+3, 1.4503154e+2, -1529776.6, -1547560.3, 4.145815, 0.000567362, 0.0002454379, -1529776.6, -11084.754, 0.0, 10.003784, 9.980221 
5.325251e+3, 1.5501173e+2, -1432071.9, -1450257.9, -3.4021842, 0.00056711637, 0.00005464881, -1432071.9, -11185.943, 0.0, 10.003782, 9.97969 
5.32525e+3, 1.6498527e+2, -1344121.3, -1371566.1, 4.3137145, 0.0005668407, 0.00013674525, -1344121.3, -20976.08, 0.0, 10.00378, 9.967507 
5.325249e+3, 1.7495283e+2, -1246187.3, -1273946.3, -2.6708143, 0.00056653656, 0.00003481746, -1246187.3, -20724.133, 0.0, 10.003778, 9.967093 
5.325248e+3, 1.8491374e+2, -1158129.9, -1195386.5, 5.7649193, 0.00056610926, 0.00017933961, -1158129.9, -30283.707, 0.0, 10.003775, 9.954649 
5.3252476e+3, 1.9486843e+2, -1060005.4, -1097522.3, -2.1760252, 0.0005655535, 0.00004474405, -1060005.4, -29715.156, 0.0, 10.003772, 9.954306 
5.3252465e+3, 2.0481643e+2, -971861.6, -1019147.3, 8.22323, 0.0005650318, 0.00016533976, -971861.6, -39061.97, 0.0, 10.003768, 9.941544 
5.325246e+3, 2.1475802e+2, -873600.0, -921144.94, 0.20042047, 0.0005645459, -0.00002860617, -873600.0, -38227.89, 0.0, 10.003764, 9.941202 
5.325245e+3, 2.246929e+2, -785333.6, -842902.56, 9.840592, 0.00056403206, 0.00021763335, -785333.6, -47323.36, 0.0, 10.00376, 9.92816 
5.325244e+3, 2.3462112e+2, -686924.8, -744746.56, 1.6768228, 0.0005634858, 0.0000037367831, -686924.8, -46211.188, 0.0, 10.003757, 9.927829 
5.3252435e+3, 2.445424e+2, -598620.7, -666823.6, 10.661705, 0.00056295685, 0.00016397022, -598620.7, -55135.57, 0.0, 10.003755, 9.914386 
5.325243e+3, 2.544569e+2, -499891.8, -568170.2, 2.6639752, 0.00056244736, -0.00001969399, -499891.8, -53568.867, 0.0, 10.003752, 9.914286 
5.325242e+3, 2.6436433e+2, -411680.03, -490849.47, 11.285775, 0.00056200766, 0.00022489627, -411680.03, -62449.793, 0.0, 10.00375, 9.900206 
5.325241e+3, 2.7426508e+2, -312417.9, -391258.53, 3.2630084, 0.0005616546, -0.00012254022, -312417.9, -60215.074, 0.0, 10.003748, 9.900625 
5.3252405e+3, 2.8415763e+2, -225913.64, -317892.44, 9.8956585, 0.0005613376, 0.00030754824, -225913.64, -70657.88, 0.0, 10.003746, 9.883739 
5.3252405e+3, 2.940424e+2, -126225.44, -217589.38, 2.4156182, 0.0005610671, -0.00017590259, -126225.44, -67840.66, 0.0, 10.003745, 9.884522 
5.3252393e+3, 3.039551e+2, -36629.594, -84822.05, 6.7558775, 0.00056081987, 0.00024688733, -36629.594, -36629.594, 0.0, 10.003745, 9.940321 
5.325239e+3, 3.1389728e+2, -35563.094, -82608.164, -1.4578139, 0.00056061, 0.00001108455, -35563.094, -35563.094, 0.0, 10.003747, 9.941814 
5.3352576e+3, 1.2505402e+2, -1715243.4, -1723642.4, 3.237205, 0.00057370344, 0.00016088916, -1715243.4, -771.7785, 0.0, 10.003787, 9.992655 
5.335257e+3, 1.3504653e+2, -1617885.4, -1626875.8, -4.263301, 0.0005735368, -0.00001765215, -1617885.4, -1340.3643, 0.0, 10.003786, 9.991872 
5.335256e+3, 1.450325e+2, -1529792.6, -1547592.0, 3.4776523, 0.0005732791, 0.0002445122, -1529792.6, -11110.134, 0.0, 10.003785, 9.980201 
5.3352547e+3, 1.5501267e+2, -1432087.8, -1450289.5, -4.0742235, 0.00057292497, 0.000056433008, -1432087.8, -11210.988, 0.0, 10.003783, 9.97967 
5.335254e+3, 1.649862e+2, -1344135.8, -1371595.1, 3.2358503, 0.0005725332, 0.00013849731, -1344135.8, -20999.549, 0.0, 10.003781, 9.967488 
5.335253e+3, 1.7495373e+2, -1246201.5, -1273975.1, -3.7476826, 0.0005721052, 0.0000337975, -1246201.5, -20747.236, 0.0, 10.003778, 9.967074 
5.3352517e+3, 1.8491463e+2, -1158146.3, -1195419.6, 4.311532, 0.00057174155, 0.00017792989, -1158146.3, -30308.69, 0.0, 10.003776, 9.954627 
5.3352517e+3, 1.948693e+2, -1060021.5, -1097555.1, -3.6324916, 0.0005714416, 0.000045387846, -1060021.5, -29739.75, 0.0, 10.003772, 9.954285 
5.3352505e+3, 2.0481728e+2, -971878.1, -1019181.1, 6.703927, 0.00057099015, 0.00016637714, -971878.1, -39086.695, 0.0, 10.003769, 9.941522 
5.3352493e+3, 2.1475883e+2, -873616.3, -921178.56, -1.3186426, 0.0005703772, -0.000028940096, -873616.3, -38252.18, 0.0, 10.003765, 9.94118 
5.3352493e+3, 2.246937e+2, -785350.4, -842937.4, 8.465769, 0.00056985195, 0.00021698556, -785350.4, -47347.91, 0.0, 10.003761, 9.928138 
5.335248e+3, 2.346219e+2, -686941.44, -744781.2, 0.31003684, 0.00056942296, 0.0000039524093, -686941.44, -46235.32, 0.0, 10.003758, 9.927806 
5.335247e+3, 2.4454315e+2, -598637.2, -666858.3, 9.5464525, 0.0005689624, 0.00016447228, -598637.2, -55159.41, 0.0, 10.003755, 9.914364 
5.3352463e+3, 2.5445765e+2, -499908.1, -568204.6, 1.5586613, 0.00056846376, -0.000019585146, -499908.1, -53592.26, 0.0, 10.003753, 9.914263 
5.335246e+3, 2.6436502e+2, -411696.7, -490884.9, 10.471341, 0.00056802016, 0.00022475125, -411696.7, -62473.324, 0.0, 10.00375, 9.900182 
5.335245e+3, 2.7426574e+2, -312434.38, -391293.8, 2.4687335, 0.0005676449, -0.0001227628, -312434.38, -60238.176, 0.0, 10.003748, 9.900601 
5.3352445e+3, 2.841583e+2, -225929.28, -317926.25, 9.487545, 0.00056734623, 0.0003074943, -225929.27, -70679.92, 0.0, 10.003747, 9.883717 
5.335244e+3, 2.9404306e+2, -126240.77, -217622.86, 2.0419917, 0.0005671489, -0.00017545625, -126240.77, -67862.195, 0.0, 10.003746, 9.8845005 
5.3352433e+3, 3.0395573e+2, -36646.902, -84859.73, 7.0010796, 0.0005669578, 0.00024730983, -36646.902, -36646.902, 0.0, 10.003746, 9.940295 
5.335243e+3, 3.1389785e+2, -35580.664, -82646.37, -1.1424967, 0.0005667785, 0.000010711934, -35580.664, -35580.664, 0.0, 10.003747, 9.941789 
5.3452617e+3, 1.2505502e+2, -1715101.6, -1723589.6, 3.4676676, 0.0005797359, 0.00016111706, -1715101.6, -639.83746, 0.0, 10.003884, 9.992635 
5.3452605e+3, 1.350475e+2, -1617745.6, -1626824.4, -4.0274773, 0.00057943974, -0.000017583587, -1617745.6, -1210.1726, 0.0, 10.003883, 9.991852 
5.34526e+3, 1.4503345e+2, -1529654.5, -1547542.4, 3.3400435, 0.0005791144, 0.00024459226, -1529654.5, -10981.462, 0.0, 10.003881, 9.980181 
5.345259e+3, 1.550136e+2, -1431950.9, -1450240.8, -4.5284452, 0.0005787533, 0.00005669313, -1431950.9, -11083.349, 0.0, 10.00388, 9.97965 
5.3452575e+3, 1.649871e+2, -1343998.1, -1371544.3, 2.2620199, 0.0005783442, 0.00013873789, -1343998.1, -20870.883, 0.0, 10.003878, 9.96747 
5.345257e+3, 1.7495464e+2, -1246064.5, -1273925.0, -4.786687, 0.0005778888, 0.000033818476, -1246064.5, -20619.047, 0.0, 10.003875, 9.967056 
5.345256e+3, 1.849155e+2, -1158011.5, -1195374.1, 2.8914049, 0.0005775337, 0.00017788746, -1158011.5, -30182.662, 0.0, 10.003872, 9.954606 
5.345255e+3, 1.9487014e+2, -1059886.9, -1097510.0, -5.191259, 0.000577279, 0.000045442812, -1059886.9, -29613.43, 0.0, 10.003869, 9.954263 
5.3452545e+3, 2.0481811e+2, -971743.5, -1019136.94, 4.982133, 0.0005768682, 0.00016647247, -971743.5, -38960.254, 0.0, 10.003866, 9.9415 
5.3452533e+3, 2.1475966e+2, -873481.56, -921134.7, -3.1209576, 0.0005762909, -0.000028865637, -873481.56, -38125.37, 0.0, 10.003863, 9.941158 
5.345252e+3, 2.2469449e+2, -785215.9, -842894.7, 6.745236, 0.0005757851, 0.00021703319, -785215.9, -47221.15, 0.0, 10.00386, 9.928115 
5.345252e+3, 2.3462267e+2, -686807.0, -744738.94, -1.3736202, 0.00057535764, 0.000003967043, -686807.0, -46108.46, 0.0, 10.003858, 9.927784 
5.345251e+3, 2.445439e+2, -598503.06, -666817.0, 8.031204, 0.0005749207, 0.0001644794, -598503.06, -55032.582, 0.0, 10.003855, 9.91434 
5.3452504e+3, 2.5445837e+2, -499774.25, -568163.9, -0.116511635, 0.0005744714, -0.000019555828, -499774.25, -53465.504, 0.0, 10.003852, 9.91424 
5.34525e+3, 2.6436573e+2, -411563.25, -490845.25, 8.98085, 0.0005740622, 0.00022479917, -411563.25, -62346.73, 0.0, 10.00385, 9.900159 
5.345249e+3, 2.7426645e+2, -312301.1, -391254.7, 0.93728644, 0.0005737021, -0.00012270066, -312301.1, -60111.535, 0.0, 10.003849, 9.900578 
5.3452486e+3, 2.8415895e+2, -225795.14, -317885.97, 8.287559, 0.0005734109, 0.00030753762, -225795.14, -70552.195, 0.0, 10.003848, 9.883695 
5.3452474e+3, 2.940437e+2, -126106.63, -217582.89, 0.79853916, 0.00057321053, -0.00017547679, -126106.63, -67734.234, 0.0, 10.003848, 9.884478 
5.345247e+3, 3.039563e+2, -36516.06, -84825.59, 6.1955667, 0.00057305733, 0.00024728492, -36516.06, -36516.06, 0.0, 10.003848, 9.9402685 
5.345247e+3, 3.1389844e+2, -35450.043, -82612.77, -2.0356154, 0.000572976, 0.00001077141, -35450.043, -35450.043, 0.0, 10.003849, 9.941762 
5.355266e+3, 1.2505601e+2, -1715117.9, -1723621.8, 2.8318145, 0.0005858232, 0.0001605341, -1715117.9, -665.84686, 0.0, 10.003885, 9.992615 
5.3552645e+3, 1.3504848e+2, -1617761.6, -1626856.4, -4.6707416, 0.00058528397, -0.000016406257, -1617761.6, -1235.8506, 0.0, 10.003884, 9.991832 
5.355264e+3, 1.450344e+2, -1529671.3, -1547575.5, 2.5560493, 0.0005848811, 0.0002455796, -1529671.3, -11007.517, 0.0, 10.003882, 9.98016 
5.355263e+3, 1.5501454e+2, -1431967.4, -1450273.8, -5.3082123, 0.0005846047, 0.00005557375, -1431967.4, -11109.018, 0.0, 10.0038805, 9.979629 
5.3552616e+3, 1.6498803e+2, -1344012.6, -1371573.6, 1.2204058, 0.0005842677, 0.00013761102, -1344012.6, -20894.396, 0.0, 10.003879, 9.967451 
5.355261e+3, 1.7495553e+2, -1246078.9, -1273954.1, -5.8345895, 0.0005838721, 0.000034780594, -1246078.9, -20642.23, 0.0, 10.003876, 9.967037 
5.35526e+3, 1.8491638e+2, -1158028.1, -1195407.8, 1.6466635, 0.0005834755, 0.00017908087, -1158028.1, -30207.887, 0.0, 10.003873, 9.954584 
5.3552586e+3, 1.9487101e+2, -1059903.3, -1097543.4, -6.436825, 0.0005830756, 0.00004496352, -1059903.3, -29638.24, 0.0, 10.00387, 9.954242 
5.3552586e+3, 2.0481895e+2, -971760.1, -1019171.0, 3.692224, 0.00058267877, 0.00016571413, -971760.1, -38985.07, 0.0, 10.003867, 9.941478 
5.3552574e+3, 2.1476047e+2, -873498.0, -921168.56, -4.412116, 0.00058228447, -0.000028422312, -873498.0, -38149.773, 0.0, 10.003864, 9.941136 
5.355256e+3, 2.2469528e+2, -785232.56, -842929.3, 5.5334396, 0.00058182614, 0.00021770946, -785232.56, -47245.594, 0.0, 10.00386, 9.928092 
5.3552556e+3, 2.3462345e+2, -686823.5, -744773.4, -2.5834239, 0.0005812954, 0.0000037985515, -686823.5, -46132.47, 0.0, 10.003858, 9.927761 
5.355255e+3, 2.4454464e+2, -598519.9, -666852.3, 7.033341, 0.0005808414, 0.0001640372, -598519.9, -55056.69, 0.0, 10.003856, 9.914317 
5.3552544e+3, 2.5445908e+2, -499790.84, -568199.0, -1.1032242, 0.0005804766, -0.00001959955, -499790.84, -53489.184, 0.0, 10.003853, 9.914217 
5.355253e+3, 2.6436642e+2, -411580.0, -490880.94, 8.319846, 0.0005801362, 0.00022502098, -411580.0, -62370.336, 0.0, 10.003851, 9.900135 
5.355253e+3, 2.742671e+2, -312317.63, -391290.2, 0.29573235, 0.00057982525, -0.0001223812, -312317.63, -60134.703, 0.0, 10.00385, 9.900554 
5.355252e+3, 2.841596e+2, -225810.89, -317920.1, 8.065995, 0.0005795317, 0.00030766826, -225810.89, -70574.336, 0.0, 10.003849, 9.883672 
5.3552514e+3, 2.9404432e+2, -126122.11, -217616.67, 0.61562294, 0.00057925953, -0.00017592192, -126122.11, -67755.875, 0.0, 10.003848, 9.884455 
5.355251e+3, 3.039569e+2, -36533.617, -84863.805, 6.4717727, 0.00057912763, 0.00024685301, -36533.617, -36533.617, 0.0, 10.003849, 9.940243 
5.35525e+3, 3.13899e+2, -35467.86, -82651.53, -1.7077792, 0.00057920505, 0.000011222379, -35467.86, -35467.86, 0.0, 10.00385, 9.941735 
5.36527e+3, 1.2505701e+2, -1714973.4, -1723568.3, 3.5950365, 0.0005917721, 0.00016093456, -1714973.4, -531.14545, 0.0, 10.003985, 9.992594 
5.3652686e+3, 1.3504945e+2, -1617618.6, -1626804.0, -4.358844, 0.0005911898, -0.000016117547, -1617618.6, -1102.4047, 0.0, 10.0039835, 9.991811 
5.3652674e+3, 1.4503537e+2, -1529529.5, -1547524.4, 2.5011573, 0.00059077673, 0.0002457141, -1529529.5, -10875.248, 0.0, 10.003982, 9.980139 
5.365267e+3, 1.5501548e+2, -1431827.1, -1450223.8, -5.3938594, 0.0005905222, 0.000055511417, -1431827.1, -10977.912, 0.0, 10.003979, 9.979608 
5.3652656e+3, 1.6498893e+2, -1343871.6, -1371521.5, 0.7839324, 0.0005901978, 0.00013755809, -1343871.6, -20762.428, 0.0, 10.003977, 9.967432 
5.3652644e+3, 1.7495643e+2, -1245938.6, -1273902.8, -6.5964346, 0.0005898053, 0.000034943707, -1245938.6, -20510.783, 0.0, 10.003974, 9.967018 
5.365264e+3, 1.8491727e+2, -1157890.3, -1195361.0, 0.5292357, 0.0005894029, 0.00017930017, -1157890.3, -30078.613, 0.0, 10.003972, 9.954563 
5.3652626e+3, 1.9487186e+2, -1059765.6, -1097497.1, -7.6655264, 0.0005889879, 0.00004507461, -1059765.6, -29509.016, 0.0, 10.003969, 9.95422 
5.365262e+3, 2.0481978e+2, -971622.94, -1019125.8, 2.2966275, 0.00058860204, 0.00016576356, -971622.94, -38856.063, 0.0, 10.003966, 9.941455 
5.3652614e+3, 2.1476127e+2, -873361.06, -921123.9, -5.9473777, 0.0005882465, -0.000028384664, -873361.06, -38020.797, 0.0, 10.003963, 9.941114 
5.36526e+3, 2.2469607e+2, -785096.0, -842885.75, 3.9495041, 0.00058781274, 0.00021773114, -785096.0, -47116.785, 0.0, 10.003961, 9.928069 
5.3652596e+3, 2.346242e+2, -686687.1, -744730.25, -4.3030863, 0.0005872906, 0.0000037993527, -686687.1, -46003.613, 0.0, 10.003959, 9.927738 
5.365259e+3, 2.445454e+2, -598383.8, -666810.3, 5.4210877, 0.0005868523, 0.00016404058, -598383.8, -54927.957, 0.0, 10.003956, 9.914294 
5.3652585e+3, 2.544598e+2, -499655.03, -568157.5, -2.7607534, 0.0005865117, -0.000019565861, -499655.03, -53360.438, 0.0, 10.003954, 9.914194 
5.365257e+3, 2.6436713e+2, -411444.63, -490840.7, 6.864013, 0.00058620184, 0.00022506292, -411444.63, -62241.79, 0.0, 10.003953, 9.900111 
5.3652567e+3, 2.742678e+2, -312182.63, -391250.53, -1.3097094, 0.0005859297, -0.00012235864, -312182.63, -60006.28, 0.0, 10.003951, 9.90053 
5.365256e+3, 2.8416026e+2, -225675.17, -317879.2, 6.749298, 0.0005856637, 0.0003076675, -225675.17, -70444.984, 0.0, 10.003951, 9.883649 
5.3652555e+3, 2.9404494e+2, -125986.8, -217576.28, -0.70315427, 0.0005854039, -0.0001759517, -125986.8, -67626.71, 0.0, 10.003951, 9.884433 
5.365255e+3, 3.0395752e+2, -36401.734, -84829.58, 5.593886, 0.0005852738, 0.00024681483, -36401.734, -36401.734, 0.0, 10.003951, 9.940216 
5.365254e+3, 3.138996e+2, -35335.54, -82617.55, -2.6745498, 0.0005853377, 0.000011207648, -35335.54, -35335.54, 0.0, 10.003953, 9.941709 
5.375273e+3, 1.2505801e+2, -1714990.6, -1723602.3, 2.7924747, 0.00059760216, 0.00016221934, -1714990.6, -558.2032, 0.0, 10.003986, 9.992573 
5.3752726e+3, 1.3505045e+2, -1617635.8, -1626837.8, -5.155263, 0.0005971567, -0.000016630709, -1617635.6, -1129.0741, 0.0, 10.003984, 9.991789 
5.3752714e+3, 1.4503632e+2, -1529546.1, -1547557.6, 1.5833334, 0.00059679407, 0.0002450795, -1529546.1, -10901.3, 0.0, 10.003983, 9.980118 
5.37527e+3, 1.5501642e+2, -1431843.5, -1450256.8, -6.319614, 0.0005965048, 0.000056401466, -1431843.5, -11003.595, 0.0, 10.00398, 9.979587 
5.3752697e+3, 1.6498987e+2, -1343886.9, -1371552.3, -0.24128897, 0.00059613906, 0.00013847224, -1343886.9, -20786.621, 0.0, 10.003978, 9.967413 
5.3752685e+3, 1.7495732e+2, -1245953.6, -1273933.3, -7.6205096, 0.00059569883, 0.000034384837, -1245953.6, -20534.605, 0.0, 10.003975, 9.966999 
5.375268e+3, 1.8491814e+2, -1157907.0, -1195395.0, -0.5819156, 0.0005953228, 0.0001786399, -1157907.0, -30103.988, 0.0, 10.003973, 9.954541 
5.375267e+3, 1.948727e+2, -1059782.3, -1097531.0, -8.781601, 0.00059501, 0.00004571773, -1059782.3, -29533.998, 0.0, 10.00397, 9.954198 
5.375266e+3, 2.0482062e+2, -971639.8, -1019160.5, 1.1376449, 0.0005946324, 0.00016654095, -971639.8, -38881.117, 0.0, 10.003967, 9.941433 
5.375265e+3, 2.1476209e+2, -873377.7, -921158.4, -7.1077414, 0.00059418555, -0.000028714465, -873377.7, -38045.42, 0.0, 10.003964, 9.941092 
5.375264e+3, 2.2469687e+2, -785112.94, -842920.9, 2.889914, 0.0005937556, 0.0002171608, -785112.94, -47141.438, 0.0, 10.003962, 9.928046 
5.3752637e+3, 2.3462497e+2, -686703.8, -744765.25, -5.3604302, 0.0005933432, 0.000003952154, -686703.8, -46027.84, 0.0, 10.00396, 9.927715 
5.3752625e+3, 2.4454613e+2, -598400.75, -666845.9, 4.570513, 0.0005929503, 0.00016444549, -598400.75, -54952.125, 0.0, 10.003957, 9.91427 
5.3752625e+3, 2.544605e+2, -499671.72, -568192.9, -3.6033995, 0.00059257925, -0.000019463112, -499671.72, -53384.164, 0.0, 10.003955, 9.91417 
5.3752613e+3, 2.6436782e+2, -411461.66, -490877.0, 6.31751, 0.0005922655, 0.00022494137, -411461.66, -62265.656, 0.0, 10.003953, 9.900087 
5.375261e+3, 2.7426845e+2, -312199.47, -391286.7, -1.8350289, 0.00059202284, -0.00012260575, -312199.47, -60029.715, 0.0, 10.003952, 9.900506 
5.37526e+3, 2.8416088e+2, -225690.98, -317913.47, 6.6182747, 0.0005918114, 0.00030754687, -225690.98, -70467.15, 0.0, 10.003952, 9.883626 
5.3752595e+3, 2.9404557e+2, -126002.305, -217610.17, -0.80375236, 0.00059163984, -0.00017560633, -126002.305, -67648.35, 0.0, 10.003952, 9.88441 
5.375259e+3, 3.0395812e+2, -36419.527, -84868.305, 6.0502787, 0.00059149385, 0.00024713212, -36419.527, -36419.527, 0.0, 10.003952, 9.94019 
5.3752583e+3, 3.1390017e+2, -35353.633, -82656.87, -2.1491673, 0.00059138885, 0.000010770114, -35353.633, -35353.633, 0.0, 10.003954, 9.941682 
5.385277e+3, 1.2505902e+2, -1714843.0, -1723547.8, 3.4824438, 0.00060359493, 0.00016279369, -1714843.0, -420.50958, 0.0, 10.004088, 9.992552 
5.385276e+3, 1.3505143e+2, -1617489.6, -1626784.5, -4.444362, 0.0006031565, -0.00001646257, -1617489.6, -992.64154, 0.0, 10.004086, 9.991768 
5.3852755e+3, 1.450373e+2, -1529401.5, -1547505.8, 2.01253, 0.0006027807, 0.0002451098, -1529401.5, -10765.978, 0.0, 10.004084, 9.980096 
5.385274e+3, 1.5501736e+2, -1431699.8, -1450205.8, -6.3553214, 0.0006024581, 0.000056557612, -1431699.8, -10869.052, 0.0, 10.004081, 9.979565 
5.3852737e+3, 1.6499078e+2, -1343742.1, -1371498.8, -0.62722427, 0.0006020912, 0.00013865519, -1343742.1, -20650.967, 0.0, 10.004079, 9.967393 
5.3852725e+3, 1.7495821e+2, -1245809.9, -1273880.8, -8.074016, 0.00060168194, 0.000034495548, -1245809.9, -20399.686, 0.0, 10.004076, 9.966979 
5.385272e+3, 1.8491901e+2, -1157766.0, -1195347.1, -1.2509068, 0.0006013245, 0.00017874312, -1157766.0, -29971.531, 0.0, 10.004074, 9.954518 
5.385271e+3, 1.9487357e+2, -1059641.8, -1097483.9, -9.7287, 0.0006010175, 0.000045880228, -1059641.8, -29401.934, 0.0, 10.004071, 9.954176 
5.38527e+3, 2.0482145e+2, -971499.94, -1019114.4, -0.041756652, 0.00060064555, 0.00016667385, -971499.94, -38749.402, 0.0, 10.004068, 9.94141 
5.385269e+3, 2.147629e+2, -873238.2, -921112.8, -8.442275, 0.00060020405, -0.000028705837, -873238.2, -37913.887, 0.0, 10.0040655, 9.94107 
5.3852683e+3, 2.2469765e+2, -784973.94, -842876.5, 1.515629, 0.0005997885, 0.00021713178, -784973.94, -47010.207, 0.0, 10.004064, 9.928023 
5.385268e+3, 2.3462573e+2, -686565.2, -744721.44, -6.877487, 0.00059940055, 0.0000039820734, -686565.2, -45896.715, 0.0, 10.004062, 9.927692 
5.3852665e+3, 2.4454688e+2, -598262.56, -666803.1, 3.0934706, 0.00059903366, 0.00016450419, -598262.56, -54821.24, 0.0, 10.00406, 9.9142475 
5.385266e+3, 2.5446123e+2, -499533.97, -568150.75, -5.2427745, 0.00059869053, -0.000019411318, -499533.97, -53253.457, 0.0, 10.004058, 9.914146 
5.3852654e+3, 2.643685e+2, -411324.47, -490836.13, 4.861584, 0.0005983937, 0.00022495807, -411324.47, -62135.258, 0.0, 10.004056, 9.900063 
5.385265e+3, 2.7426913e+2, -312062.7, -391246.44, -3.306069, 0.0005981539, -0.00012265918, -312062.7, -59899.508, 0.0, 10.004055, 9.900482 
5.385264e+3, 2.8416154e+2, -225553.63, -317872.22, 5.409261, 0.0005979511, 0.00030749998, -225553.63, -70336.13, 0.0, 10.004055, 9.883602 
5.385263e+3, 2.940462e+2, -125865.31, -217569.42, -2.2382243, 0.00059779594, -0.00017554338, -125865.31, -67517.47, 0.0, 10.004055, 9.884386 
5.385263e+3, 3.039587e+2, -36286.055, -84833.4, 5.0116735, 0.0005976749, 0.0002471823, -36286.055, -36286.055, 0.0, 10.004056, 9.940164 
5.3852624e+3, 3.1390077e+2, -35220.504, -82622.55, -3.04736, 0.0005976072, 0.000010627997, -35220.504, -35220.504, 0.0, 10.004058, 9.941655 
5.395282e+3, 1.2506002e+2, -1714860.1, -1723581.6, 2.5246482, 0.00060973957, 0.00016272966, -1714860.1, -447.47278, 0.0, 10.004089, 9.99253 
5.395281e+3, 1.3505241e+2, -1617506.6, -1626818.1, -5.4099383, 0.00060919154, -0.00001568277, -1617506.5, -1019.23334, 0.0, 10.0040865, 9.991747 
5.3952795e+3, 1.4503825e+2, -1529419.1, -1547540.9, 1.037656, 0.00060874544, 0.0002457367, -1529419.1, -10793.066, 0.0, 10.004085, 9.980074 
5.395279e+3, 1.550183e+2, -1431717.3, -1450240.8, -7.325998, 0.0006083909, 0.000056053068, -1431717.3, -10895.729, 0.0, 10.004082, 9.979543 
5.395278e+3, 1.649917e+2, -1343757.4, -1371529.6, -1.6750202, 0.00060805894, 0.00013818014, -1343757.4, -20675.234, 0.0, 10.00408, 9.967373 
5.395277e+3, 1.7495912e+2, -1245825.0, -1273911.5, -9.12813, 0.00060775125, 0.000035207788, -1245825.0, -20423.6, 0.0, 10.004077, 9.966959 
5.395276e+3, 1.849199e+2, -1157783.3, -1195382.4, -2.3180122, 0.00060740527, 0.00017953207, -1157783.3, -29997.459, 0.0, 10.004074, 9.954496 
5.395275e+3, 1.9487442e+2, -1059658.9, -1097518.9, -10.796572, 0.0006070175, 0.00004560916, -1059658.9, -29427.445, 0.0, 10.004072, 9.954153 
5.395274e+3, 2.0482229e+2, -971517.06, -1019149.6, -1.101733, 0.0006066488, 0.00016622599, -971517.06, -38774.71, 0.0, 10.004069, 9.941387 
5.3952736e+3, 2.1476372e+2, -873255.1, -921147.9, -9.505069, 0.0006062997, -0.000028393355, -873255.1, -37938.77, 0.0, 10.004066, 9.941047 
5.3952724e+3, 2.2469844e+2, -784991.1, -842912.25, 0.5720797, 0.00060590805, 0.00021758911, -784991.1, -47035.1, 0.0, 10.004065, 9.928 
5.395272e+3, 2.346265e+2, -686582.2, -744757.0, -7.8189797, 0.00060546765, 0.0000039003244, -686582.2, -45921.176, 0.0, 10.004062, 9.927669 
5.395271e+3, 2.445476e+2, -598279.75, -666839.3, 2.3435156, 0.0006051095, 0.00016425012, -598279.75, -54845.68, 0.0, 10.00406, 9.914224 
5.39527e+3, 2.5446197e+2, -499550.94, -568186.75, -5.98385, 0.000604847, -0.000019406558, -499550.94, -53277.46, 0.0, 10.004059, 9.914123 
5.3952694e+3, 2.643692e+2, -411341.53, -490872.56, 4.4172897, 0.0006045856, 0.00022509832, -411341.53, -62159.137, 0.0, 10.004057, 9.900039 
5.395269e+3, 2.7426982e+2, -312079.56, -391282.7, -3.7346764, 0.00060432486, -0.00012253864, -312079.56, -59922.934, 0.0, 10.004056, 9.900457 
5.395268e+3, 2.841622e+2, -225569.86, -317907.4, 5.3782086, 0.0006040893, 0.00030751893, -225569.86, -70358.7, 0.0, 10.004056, 9.883579 
5.3952676e+3, 2.9404682e+2, -125881.3, -217604.31, -2.230291, 0.00060388574, -0.0001757366, -125881.3, -67539.55, 0.0, 10.004056, 9.884363 
5.3952664e+3, 3.039593e+2, -36303.723, -84871.9, 5.4701114, 0.0006038264, 0.0002469901, -36303.723, -36303.723, 0.0, 10.004057, 9.940137 
5.395266e+3, 3.139013e+2, -35238.4, -82661.5, -2.5428905, 0.0006039821, 0.000010752099, -35238.4, -35238.4, 0.0, 10.004059, 9.941628 
5.4052854e+3, 1.2506104e+2, -1714709.8, -1723526.4, 3.5520318, 0.0006158629, 0.00016303417, -1714709.8, -306.92346, 0.0, 10.004193, 9.992508 
5.405285e+3, 1.350534e+2, -1617357.3, -1626763.9, -4.8619137, 0.00061522896, -0.000015354999, -1617357.3, -879.5574, 0.0, 10.00419, 9.991725 
5.4052836e+3, 1.4503922e+2, -1529271.0, -1547487.9, 1.3076677, 0.0006147654, 0.000245994, -1529271.0, -10654.3955, 0.0, 10.004189, 9.980052 
5.405283e+3, 1.5501924e+2, -1431570.3, -1450188.8, -7.1055365, 0.0006144602, 0.000056147244, -1431570.3, -10758.004, 0.0, 10.004186, 9.97952 
5.405282e+3, 1.6499263e+2, -1343609.5, -1371475.1, -1.6764069, 0.0006141385, 0.00013826527, -1343609.5, -20536.355, 0.0, 10.004183, 9.967353 
5.4052806e+3, 1.7496002e+2, -1245678.0, -1273857.8, -9.456223, 0.00061380205, 0.00003543793, -1245678.0, -20285.398, 0.0, 10.004181, 9.966939 
5.40528e+3, 1.8492077e+2, -1157639.0, -1195333.5, -2.895805, 0.0006134596, 0.00017977568, -1157639.0, -29861.822, 0.0, 10.004178, 9.9544735 
5.4052794e+3, 1.9487529e+2, -1059515.5, -1097470.9, -11.529306, 0.0006131083, 0.000045731336, -1059515.5, -29292.45, 0.0, 10.004175, 9.95413 
5.405278e+3, 2.0482312e+2, -971374.4, -1019102.6, -1.9697537, 0.0006127477, 0.00016629488, -971374.4, -38640.195, 0.0, 10.004172, 9.941364 
5.4052776e+3, 2.1476452e+2, -873113.0, -921101.5, -10.601374, 0.00061237667, -0.000028305189, -873113.0, -37804.53, 0.0, 10.00417, 9.941023 
5.4052764e+3, 2.2469921e+2, -784849.6, -842867.06, -0.62168324, 0.0006120004, 0.00021766586, -784849.6, -46901.277, 0.0, 10.0041685, 9.927977 
5.405276e+3, 2.3462726e+2, -686441.25, -744712.5, -9.186566, 0.0006116172, 0.000003931352, -686441.25, -45787.742, 0.0, 10.004166, 9.927646 
5.4052746e+3, 2.4454835e+2, -598139.44, -666795.94, 1.0405818, 0.0006112828, 0.00016425707, -598139.44, -54712.613, 0.0, 10.004164, 9.9142 
5.4052746e+3, 2.544627e+2, -499411.1, -568144.0, -7.3871093, 0.0006110049, -0.000019398154, -499411.1, -53144.63, 0.0, 10.004163, 9.914099 
5.4052734e+3, 2.643699e+2, -411202.3, -490831.06, 3.1399074, 0.00061074615, 0.00022513099, -411202.3, -62026.688, 0.0, 10.004162, 9.900014 
5.405273e+3, 2.7427047e+2, -311940.84, -391241.9, -5.2312245, 0.0006105106, -0.00012245304, -311940.84, -59790.77, 0.0, 10.004161, 9.900434 
5.405272e+3, 2.8416285e+2, -225430.69, -317865.56, 4.129619, 0.00061029365, 0.00030756096, -225430.69, -70225.82, 0.0, 10.004161, 9.883555 
5.4052716e+3, 2.9404742e+2, -125742.78, -217563.1, -3.4018, 0.0006100997, -0.00017586903, -125742.78, -67407.11, 0.0, 10.004161, 9.884339 
5.405271e+3, 3.039599e+2, -36168.895, -84836.68, 4.6681175, 0.0006100388, 0.00024683948, -36168.895, -36168.895, 0.0, 10.004162, 9.94011 
5.4052705e+3, 3.1390187e+2, -35103.727, -82626.78, -3.6018975, 0.00061017676, 0.0000108151335, -35103.727, -35103.727, 0.0, 10.004164, 9.941602 
5.41529e+3, 1.2506205e+2, -1714727.9, -1723562.3, 2.5199955, 0.00062197325, 0.000163668, -1714727.9, -334.9977, 0.0, 10.004194, 9.992486 
5.415289e+3, 1.3505438e+2, -1617375.3, -1626799.5, -5.8888493, 0.00062127464, -0.00001543304, -1617375.3, -907.21954, 0.0, 10.004191, 9.991702 
5.415288e+3, 1.4504018e+2, -1529288.6, -1547523.3, 0.25264838, 0.0006208409, 0.00024591945, -1529288.6, -10681.541, 0.0, 10.0041895, 9.980029 
5.415287e+3, 1.5502019e+2, -1431587.8, -1450223.9, -8.16562, 0.00062065787, 0.00005677733, -1431587.8, -10784.75, 0.0, 10.004187, 9.979498 
5.4152864e+3, 1.6499354e+2, -1343625.5, -1371507.5, -2.739474, 0.0006203241, 0.00013885158, -1343625.5, -20561.318, 0.0, 10.004184, 9.967333 
5.415285e+3, 1.7496093e+2, -1245693.8, -1273889.9, -10.520116, 0.0006198422, 0.00003523489, -1245693.8, -20309.979, 0.0, 10.004181, 9.966919 
5.415284e+3, 1.8492167e+2, -1157656.6, -1195369.3, -3.9714913, 0.0006194962, 0.00017952958, -1157656.6, -29888.021, 0.0, 10.004179, 9.954451 
5.4152834e+3, 1.9487615e+2, -1059532.9, -1097506.5, -12.609196, 0.0006192864, 0.00004620552, -1059532.9, -29318.232, 0.0, 10.004176, 9.954107 
5.415282e+3, 2.0482396e+2, -971391.94, -1019138.8, -2.9566026, 0.0006189381, 0.00016682642, -971391.94, -38665.934, 0.0, 10.004173, 9.941341 
5.4152817e+3, 2.1476534e+2, -873130.3, -921137.5, -11.588513, 0.0006184426, -0.000028419288, -873130.3, -37829.832, 0.0, 10.004171, 9.941 
5.415281e+3, 2.2470002e+2, -784867.06, -842903.5, -1.51495, 0.0006180745, 0.00021740016, -784867.06, -46926.477, 0.0, 10.0041685, 9.927953 
5.41528e+3, 2.3462802e+2, -686458.56, -744748.7, -10.0782175, 0.0006178465, 0.000004062697, -686458.56, -45812.492, 0.0, 10.004167, 9.927622 
5.415279e+3, 2.4454908e+2, -598156.75, -666832.5, 0.37798005, 0.00061754935, 0.00016449744, -598156.75, -54737.207, 0.0, 10.004165, 9.914175 
5.415278e+3, 2.544634e+2, -499428.25, -568180.4, -8.042128, 0.00061716995, -0.00001938722, -499428.25, -53168.777, 0.0, 10.004164, 9.914075 
5.415278e+3, 2.6437056e+2, -411219.8, -490868.4, 2.7766924, 0.0006168844, 0.00022506624, -411219.8, -62050.95, 0.0, 10.004163, 9.899989 
5.415277e+3, 2.7427113e+2, -311958.16, -391279.1, -5.57421, 0.0006167156, -0.00012240015, -311958.16, -59814.594, 0.0, 10.004162, 9.900409 
5.415276e+3, 2.8416348e+2, -225446.84, -317900.63, 4.132209, 0.00061656337, 0.00030762245, -225446.84, -70248.266, 0.0, 10.004162, 9.883533 
5.4152757e+3, 2.9404807e+2, -125758.64, -217597.78, -3.373277, 0.00061643095, -0.00017594731, -125758.64, -67429.02, 0.0, 10.004162, 9.884316 
5.415275e+3, 3.039605e+2, -36187.05, -84876.234, 5.156159, 0.0006163116, 0.00024672586, -36187.05, -36187.05, 0.0, 10.004163, 9.9400835 
5.4152745e+3, 3.1390244e+2, -35122.184, -82666.94, -3.0577736, 0.0006162151, 0.0000108218655, -35122.184, -35122.184, 0.0, 10.004164, 9.941574 
5.425294e+3, 1.2506306e+2, -1714574.1, -1723506.0, 3.4186487, 0.0006281292, 0.00016406651, -1714574.1, -191.17624, 0.0, 10.004301, 9.992463 
5.425293e+3, 1.3505538e+2, -1617222.6, -1626744.3, -5.037616, 0.00062743045, -0.0000152071425, -1617222.6, -764.4136, 0.0, 10.004298, 9.99168 
5.425292e+3, 1.4504115e+2, -1529137.4, -1547469.3, 0.88405186, 0.0006269998, 0.00024610097, -1529137.4, -10539.705, 0.0, 10.004295, 9.980006 
5.425291e+3, 1.5502113e+2, -1431437.6, -1450170.9, -7.9001336, 0.00062682293, 0.000057040026, -1431437.6, -10643.822, 0.0, 10.0042925, 9.979475 
5.42529e+3, 1.6499448e+2, -1343474.4, -1371452.0, -2.7119792, 0.0006265002, 0.00013911321, -1343474.4, -20419.322, 0.0, 10.00429, 9.967312 
5.425289e+3, 1.7496184e+2, -1245543.8, -1273835.4, -10.639183, 0.00062603405, 0.00003541347, -1245543.8, -20168.809, 0.0, 10.004287, 9.966898 
5.4252887e+3, 1.8492253e+2, -1157509.4, -1195319.5, -4.276397, 0.0006256704, 0.00017968091, -1157509.4, -29749.412, 0.0, 10.004284, 9.954427 
5.4252875e+3, 1.94877e+2, -1059386.4, -1097457.5, -13.184099, 0.00062540884, 0.00004638688, -1059386.4, -29180.19, 0.0, 10.004282, 9.954083 
5.425287e+3, 2.0482479e+2, -971246.4, -1019090.94, -3.6805038, 0.00062507385, 0.00016699126, -971246.4, -38528.496, 0.0, 10.004279, 9.941318 
5.4252857e+3, 2.1476614e+2, -872985.6, -921090.5, -12.503094, 0.00062466046, -0.00002832053, -872985.6, -37693.05, 0.0, 10.004276, 9.940976 
5.425285e+3, 2.2470081e+2, -784723.1, -842857.56, -2.4686637, 0.0006243123, 0.00021745852, -784723.1, -46790.188, 0.0, 10.004274, 9.927929 
5.425284e+3, 2.3462878e+2, -686315.06, -744703.44, -11.192709, 0.00062403525, 0.000004109416, -686315.06, -45676.516, 0.0, 10.004272, 9.927598 
5.4252833e+3, 2.4454984e+2, -598013.94, -666788.4, -0.70776606, 0.00062373164, 0.00016455428, -598013.94, -54601.63, 0.0, 10.004271, 9.914151 
5.425283e+3, 2.544641e+2, -499286.1, -568137.0, -9.333219, 0.0006233958, -0.000019294886, -499286.1, -53033.617, 0.0, 10.00427, 9.914051 
5.4252815e+3, 2.6437128e+2, -411078.47, -490826.3, 1.6124624, 0.00062313303, 0.0002251298, -411078.47, -61916.35, 0.0, 10.004269, 9.899964 
5.4252815e+3, 2.742718e+2, -311817.6, -391237.8, -6.783366, 0.000622961, -0.0001224456, -311817.6, -59680.547, 0.0, 10.004268, 9.900384 
5.425281e+3, 2.8416413e+2, -225305.9, -317858.25, 3.1316803, 0.0006228048, 0.0003075663, -225305.9, -70113.59, 0.0, 10.004268, 9.883509 
5.42528e+3, 2.9404867e+2, -125618.33, -217556.02, -4.604971, 0.0006226675, -0.00017588178, -125618.32, -67294.75, 0.0, 10.004268, 9.884293 
5.425279e+3, 3.039611e+2, -36050.51, -84840.59, 4.22754, 0.00062254403, 0.00024678864, -36050.508, -36050.508, 0.0, 10.004269, 9.940056 
5.4252785e+3, 3.13903e+2, -34985.965, -82631.88, -3.9241993, 0.0006224446, 0.000010699927, -34985.96, -34985.96, 0.0, 10.004271, 9.941546 
5.435298e+3, 1.2506407e+2, -1714592.4, -1723542.1, 2.2917116, 0.0006343323, 0.0001642544, -1714592.4, -219.33138, 0.0, 10.004302, 9.99244 
5.4352975e+3, 1.3505636e+2, -1617240.8, -1626780.3, -6.167434, 0.0006336908, -0.000014710309, -1617240.8, -792.1665, 0.0, 10.004299, 9.991657 
5.435296e+3, 1.4504214e+2, -1529155.8, -1547506.1, -0.2510999, 0.0006332395, 0.0002465106, -1529155.8, -10567.669, 0.0, 10.004296, 9.979983 
5.4352957e+3, 1.5502208e+2, -1431455.9, -1450207.5, -9.03393, 0.00063296524, 0.00005697381, -1431455.9, -10671.352, 0.0, 10.004293, 9.979452 
5.4352945e+3, 1.6499539e+2, -1343490.6, -1371484.9, -3.81799, 0.0006326739, 0.00013908412, -1343490.6, -20444.557, 0.0, 10.004291, 9.967291 
5.4352933e+3, 1.7496274e+2, -1245559.8, -1273868.1, -11.750171, 0.0006323676, 0.000035932437, -1245559.8, -20193.668, 0.0, 10.004288, 9.966877 
5.435293e+3, 1.8492341e+2, -1157527.5, -1195356.4, -5.3448935, 0.0006319738, 0.00018018659, -1157527.5, -29776.156, 0.0, 10.004285, 9.954403 
5.435292e+3, 1.9487785e+2, -1059404.4, -1097494.1, -14.253558, 0.0006314877, 0.000046305566, -1059404.4, -29206.5, 0.0, 10.004283, 9.954061 
5.435291e+3, 2.0482562e+2, -971264.25, -1019127.9, -4.681447, 0.00063116685, 0.00016682748, -971264.25, -38554.58, 0.0, 10.00428, 9.941294 
5.4352903e+3, 2.1476695e+2, -873003.3, -921127.2, -13.505387, 0.0006310203, -0.000028032167, -873003.3, -37718.69, 0.0, 10.004277, 9.940952 
5.435289e+3, 2.2470158e+2, -784740.9, -842894.6, -3.2928848, 0.0006307026, 0.00021780594, -784740.9, -46815.66, 0.0, 10.004275, 9.927905 
5.4352885e+3, 2.3462954e+2, -686332.6, -744740.3, -12.014553, 0.0006301937, 0.000004079618, -686332.6, -45701.535, 0.0, 10.004273, 9.927573 
5.4352874e+3, 2.4455057e+2, -598031.7, -666825.8, -1.324764, 0.00062984467, 0.0001644461, -598031.7, -54626.59, 0.0, 10.0042715, 9.914126 
5.4352874e+3, 2.544648e+2, -499303.63, -568174.25, -9.941065, 0.0006296821, -0.0000191307, -499303.63, -53058.13, 0.0, 10.004271, 9.914026 
5.435286e+3, 2.64372e+2, -411096.06, -490863.9, 1.2665429, 0.0006294865, 0.00022530722, -411096.06, -61940.684, 0.0, 10.00427, 9.89994 
5.4352856e+3, 2.7427247e+2, -311834.97, -391275.2, -7.1150103, 0.0006292485, -0.00012257986, -311834.97, -59704.414, 0.0, 10.004269, 9.900359 
5.4352844e+3, 2.8416476e+2, -225322.5, -317894.28, 3.1702826, 0.0006290268, 0.00030740412, -225322.5, -70136.445, 0.0, 10.004269, 9.883484 
5.4352844e+3, 2.940493e+2, -125634.65, -217591.72, -4.534688, 0.0006288251, -0.00017568842, -125634.65, -67317.09, 0.0, 10.004269, 9.884269 
5.435284e+3, 3.0396166e+2, -36068.656, -84880.17, 4.718549, 0.00062874635, 0.00024700837, -36068.656, -36068.656, 0.0, 10.00427, 9.940029 
5.435283e+3, 3.1390357e+2, -35004.367, -82671.95, -3.384039, 0.00062885147, 0.000010461914, -35004.367, -35004.367, 0.0, 10.0042715, 9.941519 
5.445303e+3, 1.2506509e+2, -1714435.5, -1723484.8, 3.4311185, 0.0006406178, 0.0001645924, -1714435.5, -72.421684, 0.0, 10.004411, 9.992417 
5.4453015e+3, 1.3505736e+2, -1617085.0, -1626723.9, -5.343428, 0.0006399713, -0.000014401968, -1617085.0, -646.2568, 0.0, 10.004408, 9.991634 
5.445301e+3, 1.4504309e+2, -1529001.4, -1547451.4, 0.35983673, 0.00063951296, 0.00024678616, -1529001.4, -10422.812, 0.0, 10.004405, 9.9799595 
5.4453e+3, 1.5502302e+2, -1431302.5, -1450153.6, -8.584347, 0.00063922926, 0.00005721292, -1431302.5, -10527.282, 0.0, 10.004402, 9.979428 
5.4452986e+3, 1.6499633e+2, -1343336.3, -1371428.4, -3.577846, 0.00063893304, 0.0001393076, -1343336.3, -20299.344, 0.0, 10.004398, 9.967269 
5.445298e+3, 1.7496364e+2, -1245406.6, -1273812.6, -11.793757, 0.0006386264, 0.000036161335, -1245406.6, -20049.438, 0.0, 10.0043955, 9.966855 
5.445297e+3, 1.849243e+2, -1157377.4, -1195305.8, -5.54174, 0.0006382437, 0.00018040331, -1157377.4, -29634.633, 0.0, 10.004393, 9.954379 
5.445296e+3, 1.9487871e+2, -1059255.1, -1097444.5, -14.628137, 0.00063778023, 0.000046491914, -1059255.1, -29065.684, 0.0, 10.00439, 9.954036 
5.4452956e+3, 2.0482646e+2, -971115.9, -1019079.2, -5.1626906, 0.000637448, 0.00016698275, -971115.9, -38414.35, 0.0, 10.004388, 9.941269 
5.4452944e+3, 2.1476775e+2, -872855.75, -921079.3, -14.197257, 0.00063725415, -0.000027908545, -872855.75, -37579.035, 0.0, 10.004385, 9.940928 
5.445293e+3, 2.2470237e+2, -784594.06, -842847.8, -4.022415, 0.00063693686, 0.00021791534, -784594.06, -46676.563, 0.0, 10.004383, 9.92788 
5.445293e+3, 2.3463032e+2, -686186.7, -744694.4, -12.959785, 0.00063648104, 0.00000419398, -686186.7, -45563.023, 0.0, 10.004381, 9.927549 
5.445292e+3, 2.445513e+2, -597886.56, -666780.94, -2.2442517, 0.00063615467, 0.0001645405, -597886.56, -54488.652, 0.0, 10.004379, 9.914102 
5.4452914e+3, 2.5446552e+2, -499159.3, -568130.25, -10.974775, 0.0006359791, -0.000019085408, -499159.3, -52920.81, 0.0, 10.004378, 9.914001 
5.445291e+3, 2.6437265e+2, -410952.56, -490821.13, 0.35682532, 0.0006357674, 0.00022532593, -410952.56, -61803.93, 0.0, 10.004376, 9.899915 
5.44529e+3, 2.7427313e+2, -311692.2, -391233.22, -8.211064, 0.00063550926, -0.00012255936, -311692.2, -59568.12, 0.0, 10.004376, 9.900333 
5.445289e+3, 2.8416538e+2, -225179.5, -317851.44, 2.2347286, 0.00063528685, 0.00030743136, -225179.5, -69999.69, 0.0, 10.004376, 9.88346 
5.4452884e+3, 2.940499e+2, -125492.555, -217549.66, -5.5749917, 0.0006351105, -0.00017564844, -125492.555, -67181.0, 0.0, 10.004376, 9.884244 
5.445288e+3, 3.039623e+2, -35930.383, -84843.81, 3.966845, 0.0006350506, 0.0002470226, -35930.383, -35930.383, 0.0, 10.004377, 9.9400015 
5.445288e+3, 3.1390414e+2, -34866.754, -82636.3, -4.164194, 0.00063516485, 0.000010395449, -34866.754, -34866.754, 0.0, 10.004378, 9.941491 
5.4553074e+3, 1.2506612e+2, -1714454.4, -1723522.1, 2.209788, 0.0006469833, 0.00016506333, -1714454.3, -101.29907, 0.0, 10.004412, 9.9923935 
5.455306e+3, 1.3505836e+2, -1617103.8, -1626761.1, -6.564116, 0.00064627617, -0.000014261927, -1617103.8, -674.7059, 0.0, 10.004409, 9.991611 
5.455305e+3, 1.4504407e+2, -1529020.1, -1547488.9, -0.818177, 0.0006458229, 0.00024694193, -1529020.1, -10451.1045, 0.0, 10.004406, 9.979936 
5.4553044e+3, 1.5502399e+2, -1431321.0, -1450191.0, -9.763457, 0.0006456082, 0.000057723264, -1431321.0, -10555.151, 0.0, 10.004403, 9.979404 
5.455303e+3, 1.6499725e+2, -1343353.0, -1371462.4, -4.7655587, 0.00064527465, 0.00013975518, -1343353.0, -20325.188, 0.0, 10.004399, 9.967248 
5.455302e+3, 1.7496455e+2, -1245423.1, -1273846.5, -12.983242, 0.00064482517, 0.00003613116, -1245423.1, -20074.875, 0.0, 10.004396, 9.966834 
5.4553014e+3, 1.8492518e+2, -1157395.8, -1195343.4, -6.6310368, 0.00064449024, 0.00018036201, -1157395.8, -29661.703, 0.0, 10.004394, 9.954355 
5.455301e+3, 1.9487958e+2, -1059273.4, -1097481.9, -15.720373, 0.0006442694, 0.00004691609, -1059273.4, -29092.326, 0.0, 10.004391, 9.954012 
5.4552996e+3, 2.0482728e+2, -971134.2, -1019116.94, -6.1564474, 0.0006439031, 0.00016742156, -971134.2, -38440.84, 0.0, 10.004389, 9.941245 
5.455299e+3, 2.1476857e+2, -872873.8, -921116.9, -15.191654, 0.00064338214, -0.00002793252, -872873.8, -37605.06, 0.0, 10.004386, 9.940904 
5.455298e+3, 2.2470316e+2, -784612.25, -842885.75, -4.842251, 0.0006430384, 0.00021781186, -784612.25, -46702.426, 0.0, 10.004384, 9.9278555 
5.455297e+3, 2.3463108e+2, -686204.6, -744732.06, -13.775437, 0.0006428897, 0.0000044360904, -686204.6, -45588.438, 0.0, 10.004382, 9.927525 
5.4552966e+3, 2.4455205e+2, -597904.5, -666818.9, -2.8620944, 0.0006426467, 0.00016481469, -597904.5, -54513.805, 0.0, 10.00438, 9.914077 
5.4552954e+3, 2.5446624e+2, -499177.03, -568167.94, -11.586701, 0.0006422918, -0.000019147014, -499177.03, -52945.49, 0.0, 10.004378, 9.913977 
5.455295e+3, 2.6437336e+2, -410970.5, -490859.5, 0.047300108, 0.0006419896, 0.00022520237, -410970.5, -61828.582, 0.0, 10.004377, 9.899889 
5.455294e+3, 2.7427378e+2, -311709.9, -391271.4, -8.503132, 0.00064175244, -0.00012240134, -311709.9, -59592.32, 0.0, 10.004377, 9.900308 
5.4552937e+3, 2.84166e+2, -225196.31, -317888.0, 2.252059, 0.0006415872, 0.00030762685, -225196.31, -70022.74, 0.0, 10.004377, 9.883435 
5.455293e+3, 2.940505e+2, -125509.09, -217585.86, -5.528057, 0.00064151635, -0.00017574658, -125509.09, -67203.53, 0.0, 10.004377, 9.88422 
5.4552925e+3, 3.0396286e+2, -35948.637, -84883.664, 4.366081, 0.00064145203, 0.00024685232, -35948.633, -35948.633, 0.0, 10.004378, 9.939975 
5.455292e+3, 3.139047e+2, -34885.24, -82676.6, -3.7326064, 0.0006414004, 0.0000104818955, -34885.234, -34885.234, 0.0, 10.004379, 9.941463 
5.4653114e+3, 1.2506714e+2, -1714294.0, -1723463.8, 3.391625, 0.00065337145, 0.00016531734, -1714294.0, 48.921154, 0.0, 10.004523, 9.99237 
5.465311e+3, 1.3505936e+2, -1616944.6, -1626703.8, -5.59931, 0.0006526284, -0.000013891103, -1616944.6, -525.4424, 0.0, 10.004519, 9.991587 
5.4653096e+3, 1.4504504e+2, -1528862.4, -1547432.9, -0.062550984, 0.00065217394, 0.00024732502, -1528862.4, -10302.915, 0.0, 10.004517, 9.979912 
5.4653084e+3, 1.5502493e+2, -1431164.6, -1450136.1, -9.248399, 0.0006519916, 0.000058016107, -1431164.6, -10408.122, 0.0, 10.004513, 9.979381 
5.465308e+3, 1.6499819e+2, -1343195.9, -1371405.1, -4.4026604, 0.000651657, 0.00013999765, -1343195.9, -20177.12, 0.0, 10.00451, 9.967225 
5.4653066e+3, 1.7496546e+2, -1245266.9, -1273790.0, -12.805842, 0.0006511732, 0.000036362893, -1245266.9, -19927.506, 0.0, 10.004507, 9.966811 
5.4653054e+3, 1.8492608e+2, -1157242.4, -1195291.8, -6.609329, 0.0006508266, 0.00018057626, -1157242.4, -29517.004, 0.0, 10.004504, 9.95433 
5.4653054e+3, 1.9488043e+2, -1059121.3, -1097431.3, -15.948937, 0.0006506171, 0.000047106147, -1059121.3, -28948.625, 0.0, 10.004501, 9.953987 
5.465304e+3, 2.0482813e+2, -970983.0, -1019067.44, -6.4571705, 0.0006502485, 0.00016760018, -970983.0, -38297.848, 0.0, 10.0044985, 9.94122 
5.465303e+3, 2.1476938e+2, -872723.44, -921068.2, -15.698204, 0.00064971077, -0.000027751996, -872723.44, -37462.633, 0.0, 10.004496, 9.940879 
5.4653025e+3, 2.2470395e+2, -784462.75, -842838.1, -5.3899245, 0.0006493702, 0.000217969, -784462.75, -46560.613, 0.0, 10.004494, 9.927831 
5.465302e+3, 2.3463184e+2, -686056.2, -744685.44, -14.473871, 0.00064924674, 0.000004541983, -686056.2, -45447.453, 0.0, 10.004492, 9.927499 
5.4653007e+3, 2.4455278e+2, -597756.94, -666773.3, -3.5035577, 0.0006490002, 0.00016488385, -597756.94, -54373.438, 0.0, 10.00449, 9.914051 
5.4653e+3, 2.5446695e+2, -499030.2, -568123.2, -12.439779, 0.0006486082, -0.0000190977, -499030.2, -52805.617, 0.0, 10.004488, 9.913951 
5.4652995e+3, 2.6437402e+2, -410824.6, -490816.06, -0.74990386, 0.0006483041, 0.00022527321, -410824.6, -61689.41, 0.0, 10.004487, 9.899863 
5.465299e+3, 2.7427444e+2, -311565.13, -391228.97, -9.464939, 0.00064810936, -0.00012225696, -311565.13, -59453.99, 0.0, 10.004486, 9.900282 
5.4652977e+3, 2.8416666e+2, -225051.34, -317844.44, 1.4867309, 0.00064796605, 0.00030772595, -225051.34, -69883.98, 0.0, 10.004486, 9.883411 
5.465297e+3, 2.940511e+2, -125365.086, -217543.06, -6.292438, 0.00064788945, -0.00017585364, -125365.086, -67065.5, 0.0, 10.004486, 9.884195 
5.465297e+3, 3.0396345e+2, -35808.605, -84847.1, 3.822987, 0.0006477887, 0.00024673739, -35808.6, -35808.6, 0.0, 10.004487, 9.939947 
5.4652965e+3, 3.1390524e+2, -34745.465, -82640.59, -4.610057, 0.0006476558, 0.000010652403, -34745.465, -34745.465, 0.0, 10.004488, 9.941436 
5.4753166e+3, 1.2506817e+2, -1714313.4, -1723502.1, 2.0908337, 0.0006597867, 0.00016537902, -1714313.4, 19.55612, 0.0, 10.004524, 9.992346 
5.4753155e+3, 1.3506037e+2, -1616963.8, -1626741.9, -6.898926, 0.0006590297, -0.000013316247, -1616963.8, -554.38403, 0.0, 10.00452, 9.991563 
5.475314e+3, 1.4504603e+2, -1528881.6, -1547471.4, -1.3709995, 0.0006585683, 0.00024790887, -1528881.6, -10331.741, 0.0, 10.004518, 9.979887 
5.4753137e+3, 1.550259e+2, -1431183.8, -1450174.4, -10.557178, 0.0006583857, 0.000058115475, -1431183.8, -10436.491, 0.0, 10.004514, 9.979356 
5.4753125e+3, 1.6499911e+2, -1343212.9, -1371439.9, -5.598799, 0.0006580821, 0.00014005779, -1343212.9, -20203.33, 0.0, 10.004511, 9.967203 
5.475311e+3, 1.7496637e+2, -1245283.9, -1273824.6, -14.005399, 0.00065766054, 0.000036826546, -1245283.8, -19953.326, 0.0, 10.004508, 9.966789 
5.4753107e+3, 1.8492696e+2, -1157261.3, -1195330.4, -7.791232, 0.0006572493, 0.00018101661, -1157261.3, -29544.59, 0.0, 10.004505, 9.954306 
5.4753095e+3, 1.948813e+2, -1059139.9, -1097469.8, -17.132355, 0.0006568456, 0.000047087622, -1059139.9, -28975.748, 0.0, 10.004502, 9.953962 
5.4753083e+3, 2.0482896e+2, -971001.7, -1019106.06, -7.437579, 0.000656503, 0.00016754714, -971001.6, -38324.715, 0.0, 10.004499, 9.9411955 
5.475308e+3, 2.147702e+2, -872741.9, -921106.6, -16.677351, 0.0006562245, -0.000027390459, -872741.9, -37489.047, 0.0, 10.004497, 9.940854 
5.475307e+3, 2.2470473e+2, -784481.2, -842876.7, -6.2611356, 0.0006559132, 0.00021835693, -784481.2, -46586.754, 0.0, 10.004495, 9.927806 
5.475306e+3, 2.346326e+2, -686074.4, -744723.75, -15.344929, 0.0006555642, 0.0000045260795, -686074.4, -45473.113, 0.0, 10.004493, 9.927474 
5.4753053e+3, 2.445535e+2, -597775.25, -666812.06, -4.095178, 0.00065523706, 0.00016477017, -597775.25, -54398.96, 0.0, 10.004491, 9.914026 
5.475305e+3, 2.5446767e+2, -499048.3, -568161.75, -13.020457, 0.00065493444, -0.000018950277, -499048.3, -52830.688, 0.0, 10.004489, 9.913925 
5.4753035e+3, 2.643747e+2, -410842.84, -490855.16, -1.107838, 0.0006547074, 0.00022551623, -410842.84, -61714.367, 0.0, 10.004488, 9.8998375 
5.475303e+3, 2.742751e+2, -311583.16, -391267.84, -9.807789, 0.00065457384, -0.00012212589, -311583.16, -59478.477, 0.0, 10.004487, 9.900256 
5.475303e+3, 2.841673e+2, -225068.17, -317881.1, 1.4608942, 0.000654421, 0.00030773834, -225068.17, -69907.02, 0.0, 10.004487, 9.883387 
5.475302e+3, 2.9405174e+2, -125381.61, -217579.33, -6.298593, 0.00065423956, -0.00017596864, -125381.61, -67087.99, 0.0, 10.004487, 9.8841715 
5.475301e+3, 3.0396402e+2, -35827.46, -84888.27, 4.2226906, 0.0006540738, 0.00024667164, -35827.46, -35827.46, 0.0, 10.004488, 9.9399185 
5.4753006e+3, 3.139058e+2, -34764.645, -82682.38, -4.1549473, 0.00065393525, 0.000010896228, -34764.645, -34764.645, 0.0, 10.004489, 9.941407 
5.4853207e+3, 1.250692e+2, -1714149.6, -1723442.5, 3.3502934, 0.0006662432, 0.00016577571, -1714149.6, 173.12886, 0.0, 10.004638, 9.992322 
5.48532e+3, 1.3506137e+2, -1616801.5, -1626683.5, -5.832851, 0.00066550396, -0.000013030368, -1616801.5, -402.07922, 0.0, 10.004634, 9.991538 
5.485319e+3, 1.4504701e+2, -1528720.8, -1547414.5, -0.4608315, 0.00066502666, 0.0002481811, -1528720.8, -10180.535, 0.0, 10.00463, 9.979863 
5.485318e+3, 1.5502684e+2, -1431023.9, -1450118.5, -9.875488, 0.0006647949, 0.000058468402, -1431023.9, -10286.073, 0.0, 10.004627, 9.979331 
5.485317e+3, 1.6500005e+2, -1343052.4, -1371381.5, -5.0884895, 0.00066449324, 0.00014040255, -1343052.4, -20051.922, 0.0, 10.004623, 9.96718 
5.485316e+3, 1.7496727e+2, -1245124.8, -1273767.4, -13.733289, 0.00066412444, 0.00003707525, -1245124.8, -19803.18, 0.0, 10.004621, 9.966766 
5.485315e+3, 1.8492784e+2, -1157105.1, -1195277.9, -7.622411, 0.000663696, 0.00018121702, -1157105.1, -29397.17, 0.0, 10.004617, 9.954281 
5.485314e+3, 1.9488215e+2, -1058984.5, -1097418.1, -17.159718, 0.00066320354, 0.0000472883, -1058984.5, -28828.854, 0.0, 10.004614, 9.953938 
5.485313e+3, 2.048298e+2, -970847.3, -1019055.5, -7.542981, 0.0006628654, 0.00016774643, -970847.3, -38178.55, 0.0, 10.004611, 9.94117 
5.4853123e+3, 2.1477102e+2, -872589.0, -921057.25, -16.974413, 0.0006626898, -0.000027194166, -872589.0, -37344.082, 0.0, 10.004608, 9.940828 
5.485312e+3, 2.2470552e+2, -784329.2, -842828.4, -6.556587, 0.0006623806, 0.000218527, -784329.2, -46442.523, 0.0, 10.004606, 9.92778 
5.4853106e+3, 2.3463336e+2, -685923.1, -744676.25, -15.864469, 0.00066192186, 0.000004644085, -685923.1, -45329.3, 0.0, 10.004604, 9.927448 
5.48531e+3, 2.4455425e+2, -597624.9, -666765.7, -4.616137, 0.0006615759, 0.00016488833, -597624.9, -54255.805, 0.0, 10.004602, 9.9140005 
5.4853094e+3, 2.5446838e+2, -498899.22, -568116.44, -13.702991, 0.00066136103, -0.00001877079, -498899.22, -52688.57, 0.0, 10.004601, 9.913899 
5.485309e+3, 2.643754e+2, -410694.88, -490811.1, -1.663156, 0.0006611642, 0.0002256443, -410694.88, -61573.082, 0.0, 10.0046, 9.899812 
5.4853076e+3, 2.7427575e+2, -311436.16, -391224.72, -10.441158, 0.0006609886, -0.00012219015, -311436.16, -59337.91, 0.0, 10.004599, 9.90023 
5.485307e+3, 2.8416792e+2, -224921.02, -317837.06, 0.9332044, 0.0006608032, 0.00030770205, -224921.02, -69766.055, 0.0, 10.004598, 9.883362 
5.4853064e+3, 2.9405233e+2, -125235.35, -217536.06, -7.1736465, 0.0006606022, -0.00017568031, -125235.35, -66947.69, 0.0, 10.004598, 9.884147 
5.485306e+3, 3.0396459e+2, -35685.21, -84850.9, 3.5444186, 0.00066044624, 0.0002469416, -35685.21, -35685.21, 0.0, 10.004599, 9.939891 
5.485305e+3, 3.1390634e+2, -34623.324, -82645.84, -4.612616, 0.0006603603, 0.00001064499, -34623.32, -34623.32, 0.0, 10.0046, 9.941379 
5.495326e+3, 1.2507023e+2, -1714169.4, -1723481.6, 1.8992026, 0.0006727436, 0.00016646735, -1714169.4, 143.30733, 0.0, 10.004639, 9.992297 
5.495325e+3, 1.350624e+2, -1616821.0, -1626722.4, -7.282208, 0.0006720498, -0.00001300002, -1616821.0, -431.44452, 0.0, 10.004635, 9.991513 
5.4953235e+3, 1.4504799e+2, -1528740.5, -1547454.0, -1.8069974, 0.0006715486, 0.00024817802, -1528740.5, -10209.8545, 0.0, 10.004632, 9.979837 
5.4953223e+3, 1.550278e+2, -1431043.4, -1450157.8, -11.222166, 0.0006712248, 0.000059044978, -1431043.4, -10314.946, 0.0, 10.004628, 9.979306 
5.495321e+3, 1.6500098e+2, -1343069.9, -1371417.3, -6.4284406, 0.0006708993, 0.00014099818, -1343069.9, -20078.646, 0.0, 10.004624, 9.967157 
5.4953206e+3, 1.7496818e+2, -1245142.1, -1273803.0, -15.075442, 0.0006705743, 0.000037133294, -1245142.1, -19829.477, 0.0, 10.0046215, 9.966743 
5.49532e+3, 1.8492873e+2, -1157124.4, -1195317.4, -8.775466, 0.0006701705, 0.00018120483, -1157124.4, -29425.13, 0.0, 10.004618, 9.954255 
5.495319e+3, 1.9488302e+2, -1059003.6, -1097457.4, -18.313967, 0.00066968333, 0.000047682446, -1059003.6, -28856.375, 0.0, 10.004615, 9.953912 
5.4953176e+3, 2.0483065e+2, -970866.3, -1019094.9, -8.66413, 0.0006693304, 0.00016816836, -970866.3, -38205.797, 0.0, 10.004612, 9.941144 
5.495317e+3, 2.1477182e+2, -872607.75, -921096.4, -18.097403, 0.00066911883, -0.000027144766, -872607.75, -37370.84, 0.0, 10.004609, 9.940804 
5.495316e+3, 2.2470629e+2, -784348.06, -842867.8, -7.3814597, 0.0006687875, 0.00021850369, -784348.06, -46469.07, 0.0, 10.004607, 9.927754 
5.495315e+3, 2.3463413e+2, -685941.75, -744715.44, -16.682775, 0.000668322, 0.000004880199, -685941.75, -45355.39, 0.0, 10.004605, 9.927423 
5.4953146e+3, 2.44555e+2, -597643.5, -666805.1, -5.306198, 0.00066801213, 0.00016521115, -597643.5, -54281.637, 0.0, 10.004603, 9.913974 
5.495314e+3, 2.544691e+2, -498917.63, -568155.6, -14.388481, 0.00066788314, -0.000018563802, -498917.63, -52713.918, 0.0, 10.0046015, 9.913874 
5.495313e+3, 2.6437607e+2, -410713.25, -490850.53, -2.0491226, 0.00066767476, 0.00022566976, -410713.25, -61598.156, 0.0, 10.0046, 9.899785 
5.495312e+3, 2.742764e+2, -311454.28, -391263.94, -10.812389, 0.0006673658, -0.00012242768, -311454.28, -59362.5, 0.0, 10.0046, 9.900204 
5.4953116e+3, 2.8416854e+2, -224938.5, -317875.1, 0.8844024, 0.0006671276, 0.0003076224, -224938.5, -69789.73, 0.0, 10.004599, 9.883336 
5.495311e+3, 2.9405296e+2, -125252.57, -217573.78, -7.1902046, 0.0006669828, -0.00017503562, -125252.57, -66970.85, 0.0, 10.004599, 9.884121 
5.4953104e+3, 3.0396518e+2, -35703.777, -84891.516, 3.7982194, 0.0006669028, 0.00024750782, -35703.777, -35703.777, 0.0, 10.0046, 9.939863 
5.49531e+3, 3.1390688e+2, -34642.086, -82686.84, -4.3361707, 0.00066692085, 0.000009954587, -34642.082, -34642.082, 0.0, 10.0046, 9.941351 
5.50533e+3, 1.2507127e+2, -1714002.6, -1723421.0, 3.300486, 0.0006793317, 0.00016680434, -1714002.6, 299.8746, 0.0, 10.004755, 9.992272 
5.5053294e+3, 1.350634e+2, -1616655.4, -1626662.8, -6.085519, 0.0006785565, -0.000012587337, -1616655.4, -275.7222, 0.0, 10.004751, 9.991488 
5.505328e+3, 1.4504898e+2, -1528576.3, -1547396.0, -0.771635, 0.0006780379, 0.00024858426, -1528576.3, -10055.313, 0.0, 10.004747, 9.979813 
5.505327e+3, 1.5502878e+2, -1430880.6, -1450100.9, -10.416956, 0.00067775877, 0.00005936433, -1430880.6, -10161.638, 0.0, 10.004744, 9.979281 
5.5053264e+3, 1.6500193e+2, -1342906.4, -1371358.0, -5.7651467, 0.00067741267, 0.0001412728, -1342906.4, -19924.303, 0.0, 10.00474, 9.967134 
5.505325e+3, 1.749691e+2, -1244979.5, -1273744.6, -14.618287, 0.00067700236, 0.000037405083, -1244979.5, -19675.918, 0.0, 10.004736, 9.966721 
5.505324e+3, 1.8492962e+2, -1156965.0, -1195263.9, -8.414331, 0.0006766157, 0.00018146452, -1156965.0, -29274.432, 0.0, 10.004732, 9.95423 
5.5053234e+3, 1.9488388e+2, -1058845.8, -1097405.1, -18.165058, 0.0006762499, 0.000047920763, -1058845.8, -28707.041, 0.0, 10.004729, 9.953887 
5.505322e+3, 2.0483148e+2, -970709.5, -1019043.75, -8.566824, 0.000675881, 0.00016839024, -970709.5, -38057.227, 0.0, 10.004726, 9.941118 
5.5053216e+3, 2.1477263e+2, -872451.6, -921045.94, -18.215117, 0.00067550794, -0.000026934273, -872451.6, -37222.66, 0.0, 10.004724, 9.940778 
5.505321e+3, 2.247071e+2, -784192.9, -842818.56, -7.522535, 0.00067516346, 0.00021870607, -784192.9, -46321.637, 0.0, 10.004721, 9.927729 
5.50532e+3, 2.3463489e+2, -685788.2, -744667.4, -17.00523, 0.00067484914, 0.000005078217, -685788.2, -45209.28, 0.0, 10.004718, 9.927397 
5.505319e+3, 2.4455573e+2, -597491.0, -666758.2, -5.586206, 0.000674577, 0.00016536456, -597491.0, -54136.395, 0.0, 10.004716, 9.913948 
5.5053186e+3, 2.5446978e+2, -498766.06, -568109.56, -14.828337, 0.00067435304, -0.000018502238, -498766.03, -52569.3, 0.0, 10.004714, 9.913848 
5.505318e+3, 2.6437676e+2, -410562.6, -490805.66, -2.4210646, 0.00067409716, 0.0002257576, -410562.6, -61454.207, 0.0, 10.004713, 9.899759 
5.505317e+3, 2.7427706e+2, -311304.75, -391220.06, -11.42514, 0.00067380024, -0.00012216566, -311304.75, -59219.383, 0.0, 10.004712, 9.900178 
5.505316e+3, 2.841692e+2, -224789.03, -317830.4, 0.40287223, 0.0006735864, 0.0003078425, -224789.03, -69646.45, 0.0, 10.004711, 9.88331 
5.5053157e+3, 2.9405355e+2, -125104.516, -217530.13, -7.6302676, 0.0006734822, -0.00017514943, -125104.516, -66828.73, 0.0, 10.004711, 9.884095 
5.505315e+3, 3.0396575e+2, -35559.754, -84853.625, 3.5411093, 0.0006733899, 0.00024736166, -35559.754, -35559.754, 0.0, 10.004711, 9.939835 
5.5053145e+3, 3.1390744e+2, -34498.508, -82649.54, -4.9328694, 0.0006733179, 0.00001022121, -34498.508, -34498.508, 0.0, 10.004712, 9.941322 
5.515335e+3, 1.2507232e+2, -1714022.6, -1723461.0, 1.8067274, 0.00068600423, 0.00016682944, -1714022.6, 269.59912, 0.0, 10.004756, 9.992247 
5.515334e+3, 1.3506442e+2, -1616675.3, -1626702.6, -7.5817437, 0.00068503636, -0.000011838505, -1616675.3, -305.5601, 0.0, 10.004752, 9.991464 
5.515333e+3, 1.4504997e+2, -1528596.4, -1547436.4, -2.2627916, 0.0006845061, 0.00024935015, -1528596.4, -10085.157, 0.0, 10.004748, 9.979787 
5.515332e+3, 1.5502974e+2, -1430900.5, -1450141.1, -11.905698, 0.0006843917, 0.00005945674, -1430900.5, -10191.005, 0.0, 10.004745, 9.979256 
5.515331e+3, 1.6500287e+2, -1342924.4, -1371394.5, -7.1265206, 0.0006840278, 0.00014126454, -1342924.3, -19951.46, 0.0, 10.004741, 9.967112 
5.51533e+3, 1.7497003e+2, -1244997.3, -1273781.0, -15.982673, 0.00068341865, 0.000037864862, -1244997.3, -19702.658, 0.0, 10.004737, 9.966698 
5.515329e+3, 1.8493052e+2, -1156984.6, -1195304.1, -9.744165, 0.00068304234, 0.00018196327, -1156984.6, -29302.836, 0.0, 10.004734, 9.954204 
5.515328e+3, 1.9488475e+2, -1058865.3, -1097445.1, -19.496864, 0.0006828999, 0.000048021222, -1058865.3, -28734.965, 0.0, 10.00473, 9.95386 
5.515327e+3, 2.0483232e+2, -970728.94, -1019083.94, -9.629653, 0.00068251364, 0.00016843533, -970728.94, -38084.875, 0.0, 10.004727, 9.9410925 
5.515326e+3, 2.1477345e+2, -872470.8, -921085.94, -19.27575, 0.0006818691, -0.000026582109, -872470.8, -37249.848, 0.0, 10.0047245, 9.940751 
5.5153257e+3, 2.2470789e+2, -784212.06, -842858.7, -8.515657, 0.0006815197, 0.00021910701, -784212.06, -46348.543, 0.0, 10.004722, 9.927702 
5.5153245e+3, 2.3463565e+2, -685807.1, -744707.3, -17.9981, 0.0006814951, 0.000005241984, -685807.1, -45235.695, 0.0, 10.00472, 9.927371 
5.515324e+3, 2.4455646e+2, -597509.94, -666798.3, -6.2810507, 0.000681262, 0.0001653679, -597509.94, -54162.5, 0.0, 10.004717, 9.913921 
5.515323e+3, 2.544705e+2, -498784.72, -568149.44, -15.51272, 0.00068078353, -0.000018569366, -498784.72, -52594.918, 0.0, 10.004715, 9.913821 
5.515322e+3, 2.6437744e+2, -410581.44, -490846.1, -2.8525243, 0.0006804486, 0.0002259002, -410581.44, -61479.73, 0.0, 10.004714, 9.899733 
5.5153215e+3, 2.7427775e+2, -311323.34, -391260.28, -11.841286, 0.0006802924, -0.00012146319, -311323.34, -59244.438, 0.0, 10.004713, 9.90015 
5.515321e+3, 2.8416982e+2, -224806.47, -317868.44, 0.21586831, 0.0006801709, 0.00030832642, -224806.47, -69670.06, 0.0, 10.004712, 9.8832855 
5.5153203e+3, 2.9405418e+2, -125121.625, -217567.72, -7.79924, 0.0006800933, -0.00017593389, -125121.62, -66851.76, 0.0, 10.004712, 9.88407 
5.51532e+3, 3.0396634e+2, -35578.89, -84895.54, 3.7358913, 0.0006799104, 0.00024658596, -35578.89, -35578.89, 0.0, 10.004712, 9.939806 
5.515319e+3, 3.1390798e+2, -34517.926, -82691.99, -4.7001157, 0.000679577, 0.000011333349, -34517.926, -34517.926, 0.0, 10.004713, 9.941293 
5.52534e+3, 1.2507336e+2, -1713852.3, -1723399.3, 3.4022725, 0.00069258036, 0.00016722333, -1713852.3, 429.76703, 0.0, 10.004874, 9.992222 
5.5253386e+3, 1.3506545e+2, -1616506.5, -1626642.1, -6.2964883, 0.0006916627, -0.000011438376, -1616506.5, -146.79799, 0.0, 10.00487, 9.991438 
5.525338e+3, 1.4505096e+2, -1528429.0, -1547377.4, -1.1501597, 0.00069112534, 0.00024973592, -1528429.0, -9927.5625, 0.0, 10.004866, 9.979761 
5.525337e+3, 1.550307e+2, -1430734.4, -1450083.1, -10.952017, 0.0006909478, 0.000059807386, -1430734.4, -10034.407, 0.0, 10.004862, 9.97923 
5.5253357e+3, 1.650038e+2, -1342757.6, -1371334.3, -6.262998, 0.0006905798, 0.00014158264, -1342757.6, -19794.002, 0.0, 10.004858, 9.967088 
5.525335e+3, 1.7497095e+2, -1244832.1, -1273722.0, -15.349864, 0.00069002516, 0.000038153383, -1244832.0, -19546.45, 0.0, 10.004854, 9.966674 
5.525334e+3, 1.8493141e+2, -1156822.4, -1195249.8, -9.230355, 0.0006896277, 0.00018223874, -1156822.4, -29149.385, 0.0, 10.00485, 9.954178 
5.525333e+3, 1.9488563e+2, -1058704.0, -1097391.8, -19.199995, 0.0006893871, 0.000048300277, -1058704.0, -28582.236, 0.0, 10.004847, 9.953835 
5.525332e+3, 2.0483316e+2, -970568.8, -1019031.7, -9.351927, 0.0006890108, 0.0001687037, -970568.8, -37933.03, 0.0, 10.004844, 9.941066 
5.525331e+3, 2.1477427e+2, -872312.3, -921034.94, -19.191174, 0.00068849034, -0.000026339365, -872312.3, -37099.367, 0.0, 10.00484, 9.940725 
5.5253303e+3, 2.2470866e+2, -784054.75, -842808.9, -8.463116, 0.0006881512, 0.0002193194, -784054.75, -46198.953, 0.0, 10.004837, 9.927675 
5.52533e+3, 2.3463641e+2, -685650.7, -744658.4, -18.134743, 0.00068801106, 0.000005418727, -685650.7, -45086.766, 0.0, 10.004835, 9.927344 
5.5253285e+3, 2.4455719e+2, -597354.44, -666750.4, -6.3566065, 0.0006877381, 0.00016554847, -597354.44, -54014.234, 0.0, 10.004832, 9.913895 
5.525328e+3, 2.544712e+2, -498630.44, -568102.6, -15.785477, 0.00068730826, -0.000018338826, -498630.44, -52447.625, 0.0, 10.00483, 9.9137945 
5.5253273e+3, 2.6437813e+2, -410428.47, -490800.66, -3.0831716, 0.0006870039, 0.00022609944, -410428.47, -61333.473, 0.0, 10.004828, 9.899705 
5.525327e+3, 2.7427837e+2, -311171.88, -391216.06, -12.205031, 0.00068685546, -0.00012139662, -311171.88, -59099.395, 0.0, 10.0048275, 9.900124 
5.5253255e+3, 2.8417045e+2, -224654.88, -317822.97, -0.014570765, 0.0006867182, 0.00030837837, -224654.88, -69524.65, 0.0, 10.004827, 9.88326 
5.525325e+3, 2.9405475e+2, -124970.914, -217523.02, -8.1884165, 0.0006865929, -0.00017573814, -124970.914, -66706.984, 0.0, 10.004827, 9.884045 
5.525325e+3, 3.039669e+2, -35432.375, -84857.25, 3.4783857, 0.0006863751, 0.00024678785, -35432.375, -35432.375, 0.0, 10.004827, 9.939776 
5.5253243e+3, 3.1390855e+2, -34372.082, -82654.46, -5.1377234, 0.0006860256, 0.000011340814, -34372.082, -34372.082, 0.0, 10.004827, 9.941263 
5.5353445e+3, 1.2507442e+2, -1713873.0, -1723440.5, 1.7275528, 0.00069908024, 0.00016794016, -1713873.0, 398.73965, 0.0, 10.004876, 9.992195 
5.535344e+3, 1.3506646e+2, -1616527.0, -1626683.3, -7.9640584, 0.00069842505, -0.000011344452, -1616527.0, -177.34859, 0.0, 10.004871, 9.991412 
5.5353427e+3, 1.4505197e+2, -1528449.4, -1547418.4, -2.7169423, 0.00069788453, 0.00024978808, -1528449.4, -9957.75, 0.0, 10.004867, 9.979735 
5.5353415e+3, 1.5503168e+2, -1430754.6, -1450124.0, -12.522909, 0.0006974443, 0.000060384442, -1430754.6, -10064.121, 0.0, 10.004863, 9.979203 
5.535341e+3, 1.6500476e+2, -1342776.0, -1371371.8, -7.761236, 0.0006970842, 0.00014218684, -1342776.0, -19821.666, 0.0, 10.004859, 9.967063 
5.53534e+3, 1.7497186e+2, -1244850.3, -1273759.3, -16.84859, 0.00069680595, 0.00003829122, -1244850.3, -19573.674, 0.0, 10.004855, 9.966649 
5.535339e+3, 1.849323e+2, -1156842.4, -1195290.9, -10.574084, 0.0006963596, 0.00018231789, -1156842.4, -29178.23, 0.0, 10.004851, 9.954151 
5.535338e+3, 1.9488649e+2, -1058723.8, -1097432.6, -20.545055, 0.0006957389, 0.000048735863, -1058723.8, -28610.61, 0.0, 10.004848, 9.953808 
5.535337e+3, 2.0483401e+2, -970588.56, -1019072.7, -10.590883, 0.00069539656, 0.00016916776, -970588.56, -37961.074, 0.0, 10.004845, 9.941039 
5.535336e+3, 2.1477509e+2, -872331.9, -921075.75, -20.430525, 0.0006953473, -0.0000261932, -872331.9, -37126.918, 0.0, 10.004841, 9.940699 
5.535335e+3, 2.2470945e+2, -784074.25, -842849.8, -9.464078, 0.0006950317, 0.00021936576, -784074.25, -46226.21, 0.0, 10.004838, 9.927649 
5.5353343e+3, 2.3463717e+2, -685669.94, -744699.06, -19.131422, 0.00069441996, 0.000005606561, -685669.94, -45113.527, 0.0, 10.004836, 9.927318 
5.535334e+3, 2.4455793e+2, -597373.7, -666791.25, -7.130759, 0.0006940378, 0.00016588454, -597373.7, -54040.72, 0.0, 10.004833, 9.913868 
5.5353326e+3, 2.5447193e+2, -498649.47, -568143.25, -16.551737, 0.0006939232, -0.000017846834, -498649.47, -52473.625, 0.0, 10.004831, 9.913768 
5.535332e+3, 2.6437882e+2, -410447.53, -490841.66, -3.6548166, 0.0006937456, 0.00022634787, -410447.53, -61359.246, 0.0, 10.004829, 9.899678 
5.5353314e+3, 2.7427906e+2, -311190.7, -391256.8, -12.763328, 0.00069348793, -0.00012189044, -311190.7, -59124.65, 0.0, 10.004828, 9.900097 
5.535331e+3, 2.8417107e+2, -224672.58, -317861.66, -0.22139621, 0.0006932394, 0.00030804976, -224672.58, -69548.52, 0.0, 10.0048275, 9.883234 
5.53533e+3, 2.9405537e+2, -124988.31, -217561.3, -8.374452, 0.00069300126, -0.00017467907, -124988.31, -66730.31, 0.0, 10.0048275, 9.884019 
5.5353296e+3, 3.039675e+2, -35451.875, -84899.97, 3.5833201, 0.0006927977, 0.00024785037, -35451.875, -35451.875, 0.0, 10.004827, 9.939748 
5.5353284e+3, 3.1390908e+2, -34391.883, -82697.75, -4.9872394, 0.0006926483, 0.000010373692, -34391.883, -34391.883, 0.0, 10.0048275, 9.941234 
5.54535e+3, 1.2507547e+2, -1713699.5, -1723377.6, 3.3366485, 0.00070581905, 0.00016846054, -1713699.5, 561.9361, 0.0, 10.004996, 9.992169 
5.5453485e+3, 1.350675e+2, -1616354.9, -1626621.5, -6.4175615, 0.00070509606, -0.000011008292, -1616354.9, -15.295646, 0.0, 10.004992, 9.991385 
5.545348e+3, 1.4505298e+2, -1528278.9, -1547358.4, -1.271347, 0.00070453004, 0.00025007807, -1528278.9, -9796.989, 0.0, 10.004987, 9.979709 
5.545347e+3, 1.5503265e+2, -1430585.4, -1450065.1, -11.419979, 0.00070410536, 0.00006076251, -1430585.4, -9904.508, 0.0, 10.004983, 9.979177 
5.5453455e+3, 1.6500571e+2, -1342606.1, -1371310.4, -6.830795, 0.0007037421, 0.0001425838, -1342606.1, -19661.086, 0.0, 10.004978, 9.967039 
5.545345e+3, 1.7497279e+2, -1244681.8, -1273699.1, -16.082678, 0.00070344226, 0.00003863855, -1244681.8, -19414.28, 0.0, 10.004974, 9.966625 
5.545344e+3, 1.8493322e+2, -1156677.1, -1195235.6, -9.831367, 0.00070299365, 0.00018262552, -1156677.1, -29021.787, 0.0, 10.004971, 9.954124 
5.5453426e+3, 1.9488737e+2, -1058559.9, -1097378.6, -20.016468, 0.00070239016, 0.00004901395, -1058559.9, -28455.268, 0.0, 10.004967, 9.953781 
5.545342e+3, 2.0483485e+2, -970425.8, -1019019.7, -10.15515, 0.0007020461, 0.00016943678, -970425.8, -37806.613, 0.0, 10.004963, 9.941012 
5.545341e+3, 2.147759e+2, -872170.4, -921023.8, -20.20014, 0.000701975, -0.000025911746, -872170.4, -36973.496, 0.0, 10.004959, 9.940671 
5.5453396e+3, 2.2471026e+2, -783913.9, -842799.0, -9.178914, 0.0007016425, 0.000219638, -783913.9, -46073.613, 0.0, 10.004956, 9.927622 
5.5453396e+3, 2.3463795e+2, -685510.75, -744649.3, -19.04675, 0.000701019, 0.0000058457786, -685510.75, -44961.82, 0.0, 10.004953, 9.92729 
5.5453384e+3, 2.4455868e+2, -597215.7, -666742.7, -7.0749993, 0.00070064585, 0.0001661018, -597215.7, -53889.95, 0.0, 10.004951, 9.913841 
5.545337e+3, 2.544726e+2, -498493.06, -568095.94, -16.677853, 0.0007005642, -0.000017638666, -498493.03, -52324.168, 0.0, 10.004949, 9.91374 
5.545337e+3, 2.6437947e+2, -410292.2, -490795.4, -3.647301, 0.0007003752, 0.00022652138, -410292.2, -61210.617, 0.0, 10.004947, 9.899651 
5.5453366e+3, 2.7427968e+2, -311036.28, -391211.5, -12.840735, 0.00070005056, -0.00012178337, -311036.28, -58976.664, 0.0, 10.004945, 9.900069 
5.5453354e+3, 2.841717e+2, -224518.3, -317815.72, -0.25336993, 0.00069977116, 0.0003081828, -224518.3, -69400.414, 0.0, 10.004944, 9.883207 
5.545335e+3, 2.9405597e+2, -124835.51, -217516.47, -8.783972, 0.0006995508, -0.00017439605, -124835.51, -66583.42, 0.0, 10.004943, 9.883992 
5.545334e+3, 3.0396807e+2, -35303.21, -84860.625, 3.3052928, 0.00069937104, 0.000248083, -35303.21, -35303.21, 0.0, 10.004943, 9.939718 
5.5453336e+3, 3.1390965e+2, -34244.254, -82659.234, -4.9926505, 0.0006992538, 0.000010263429, -34244.254, -34244.254, 0.0, 10.004942, 9.941204 
5.5553544e+3, 1.2507653e+2, -1713720.3, -1723419.1, 1.5564133, 0.00071277434, 0.00016880901, -1713720.3, 530.7638, 0.0, 10.004997, 9.992144 
5.555354e+3, 1.3506852e+2, -1616375.5, -1626662.8, -8.20272, 0.0007116952, -0.0000104601795, -1616375.5, -45.996185, 0.0, 10.0049925, 9.99136 
5.5553526e+3, 1.4505398e+2, -1528299.9, -1547400.9, -2.962036, 0.00071108446, 0.00025057606, -1528299.9, -9827.97, 0.0, 10.004989, 9.979682 
5.5553514e+3, 1.5503363e+2, -1430606.4, -1450107.4, -13.104546, 0.0007109183, 0.000060966275, -1430606.4, -9934.998, 0.0, 10.004984, 9.97915 
5.555351e+3, 1.6500665e+2, -1342624.8, -1371348.6, -8.439107, 0.00071054196, 0.00014279915, -1342624.8, -19689.104, 0.0, 10.004979, 9.967014 
5.5553496e+3, 1.7497373e+2, -1244700.3, -1273737.1, -17.695627, 0.00070996, 0.000039168957, -1244700.3, -19441.848, 0.0, 10.004975, 9.9666 
5.5553484e+3, 1.8493411e+2, -1156697.6, -1195277.6, -11.282093, 0.00070955, 0.00018313281, -1156697.6, -29051.082, 0.0, 10.0049715, 9.954098 
5.555348e+3, 1.9488825e+2, -1058580.1, -1097420.4, -21.467117, 0.0007093114, 0.000049153972, -1058580.1, -28484.084, 0.0, 10.004968, 9.953754 
5.5553466e+3, 2.0483571e+2, -970445.94, -1019061.5, -11.487957, 0.000708934, 0.0001695349, -970445.94, -37835.074, 0.0, 10.004964, 9.940986 
5.5553454e+3, 2.1477674e+2, -872190.3, -921065.4, -21.533867, 0.00070840924, -0.000025512074, -872190.25, -37001.44, 0.0, 10.00496, 9.940644 
5.5553454e+3, 2.2471105e+2, -783933.7, -842840.75, -10.239973, 0.0007080245, 0.00022010776, -783933.7, -46101.254, 0.0, 10.004957, 9.927594 
5.555344e+3, 2.346387e+2, -685530.4, -744690.8, -20.101734, 0.0007077926, 0.000006129747, -685530.4, -44988.98, 0.0, 10.004954, 9.927263 
5.555343e+3, 2.4455942e+2, -597235.25, -666784.3, -8.012207, 0.0007075316, 0.0001662146, -597235.25, -53916.785, 0.0, 10.0049515, 9.913814 
5.555343e+3, 2.5447333e+2, -498512.38, -568137.3, -17.610256, 0.00070723507, -0.000017679937, -498512.38, -52350.48, 0.0, 10.00495, 9.9137125 
5.555342e+3, 2.643802e+2, -410311.38, -490836.75, -4.22364, 0.0007069134, 0.00022662891, -410311.38, -61236.523, 0.0, 10.004948, 9.899623 
5.555341e+3, 2.7428037e+2, -311055.22, -391252.6, -13.403295, 0.0007065594, -0.00012114875, -311055.22, -59002.08, 0.0, 10.004946, 9.900042 
5.55534e+3, 2.8417233e+2, -224536.69, -317855.9, -0.61146355, 0.0007063197, 0.00030872083, -224536.69, -69425.0, 0.0, 10.004945, 9.883181 
5.55534e+3, 2.940566e+2, -124853.63, -217556.33, -9.111076, 0.0007062316, -0.00017479576, -124853.63, -66607.46, 0.0, 10.004944, 9.8839655 
5.5553395e+3, 3.0396867e+2, -35322.29, -84902.56, 3.2238755, 0.0007060838, 0.00024758597, -35322.29, -35322.29, 0.0, 10.004944, 9.93969 
5.555339e+3, 3.139102e+2, -34263.477, -82701.47, -5.0711274, 0.0007058509, 0.000010906863, -34263.477, -34263.477, 0.0, 10.004943, 9.941175 
5.5653596e+3, 1.2507759e+2, -1713543.5, -1723355.3, 3.4727943, 0.00071955984, 0.00016915584, -1713543.4, 697.147, 0.0, 10.00512, 9.992117 
5.5653584e+3, 1.3506956e+2, -1616200.0, -1626600.0, -6.6838813, 0.0007184362, -0.000009919448, -1616200.0, 119.302704, 0.0, 10.0051155, 9.991333 
5.565357e+3, 1.45055e+2, -1528126.0, -1547339.8, -1.6135378, 0.0007178183, 0.00025111233, -1528126.0, -9663.937, 0.0, 10.005111, 9.979654 
5.5653566e+3, 1.5503462e+2, -1430434.0, -1450047.5, -11.822466, 0.000717681, 0.000061304265, -1430434.0, -9772.346, 0.0, 10.005106, 9.979123 
5.5653554e+3, 1.6500762e+2, -1342451.9, -1371286.4, -7.1940455, 0.0007172889, 0.00014307981, -1342451.9, -19525.576, 0.0, 10.005101, 9.9669895 
5.565354e+3, 1.7497465e+2, -1244528.6, -1273675.9, -16.730871, 0.0007166469, 0.000039532133, -1244528.6, -19279.324, 0.0, 10.005096, 9.966576 
5.5653536e+3, 1.8493503e+2, -1156529.1, -1195221.4, -10.445994, 0.0007162467, 0.00018351873, -1156529.1, -28891.525, 0.0, 10.005093, 9.95407 
5.5653524e+3, 1.9488913e+2, -1058413.4, -1097365.4, -20.810898, 0.0007160891, 0.00004950171, -1058413.4, -28326.0, 0.0, 10.005088, 9.953727 
5.565352e+3, 2.0483656e+2, -970280.44, -1019007.75, -10.800616, 0.00071568834, 0.00016984965, -970280.44, -37677.9, 0.0, 10.005084, 9.940958 
5.565351e+3, 2.1477756e+2, -872025.7, -921012.5, -21.069042, 0.0007150303, -0.000025224734, -872025.7, -36844.895, 0.0, 10.00508, 9.940617 
5.56535e+3, 2.2471185e+2, -783770.3, -842789.0, -9.840066, 0.00071464264, 0.00022038302, -783770.3, -45945.64, 0.0, 10.005077, 9.927567 
5.565349e+3, 2.3463948e+2, -685368.9, -744640.5, -19.881203, 0.0007145522, 0.000006409811, -685368.9, -44835.027, 0.0, 10.005074, 9.927236 
5.565348e+3, 2.4456015e+2, -597074.94, -666735.1, -7.68712, 0.0007142993, 0.00016645312, -597074.94, -53763.75, 0.0, 10.005071, 9.913786 
5.5653477e+3, 2.5447407e+2, -498352.84, -568088.94, -17.426167, 0.0007138552, -0.000017537159, -498352.84, -52197.94, 0.0, 10.005069, 9.913685 
5.5653465e+3, 2.6438087e+2, -410153.0, -490789.75, -4.052437, 0.0007134842, 0.00022681295, -410153.0, -61084.87, 0.0, 10.005067, 9.899595 
5.5653465e+3, 2.74281e+2, -310898.6, -391206.9, -13.590057, 0.00071320345, -0.000120752164, -310898.6, -58851.895, 0.0, 10.005064, 9.900014 
5.565346e+3, 2.8417298e+2, -224380.25, -317809.1, -0.6594662, 0.00071301183, 0.00030904426, -224380.25, -69274.734, 0.0, 10.005063, 9.883154 
5.5653447e+3, 2.940572e+2, -124698.51, -217510.48, -8.887893, 0.0007129373, -0.00017493099, -124698.51, -66458.26, 0.0, 10.005061, 9.883939 
5.565344e+3, 3.0396923e+2, -35171.41, -84863.055, 3.5563462, 0.00071273156, 0.0002474396, -35171.41, -35171.41, 0.0, 10.005061, 9.93966 
5.5653435e+3, 3.1391072e+2, -34112.914, -82662.52, -5.535192, 0.0007123365, 0.000011408587, -34112.914, -34112.914, 0.0, 10.005061, 9.941145 
5.575365e+3, 1.2507866e+2, -1713565.1, -1723398.5, 1.5961591, 0.00072620605, 0.00016950186, -1713565.1, 665.032, 0.0, 10.005122, 9.992089 
5.5753636e+3, 1.350706e+2, -1616221.4, -1626643.0, -8.554476, 0.00072530925, -0.000009385747, -1616221.4, 87.66101, 0.0, 10.005117, 9.991306 
5.575363e+3, 1.45056e+2, -1528147.3, -1547382.5, -3.465623, 0.00072471664, 0.00025168117, -1528147.3, -9695.075, 0.0, 10.005112, 9.979628 
5.575362e+3, 1.550356e+2, -1430455.0, -1450090.0, -13.6781645, 0.0007244081, 0.00006175933, -1430455.0, -9802.976, 0.0, 10.005107, 9.979096 
5.5753607e+3, 1.6500857e+2, -1342471.1, -1371325.8, -8.873203, 0.00072399783, 0.00014341765, -1342471.1, -19554.22, 0.0, 10.005102, 9.966965 
5.57536e+3, 1.749756e+2, -1244547.6, -1273715.1, -18.408566, 0.00072348956, 0.00003974942, -1244547.6, -19307.521, 0.0, 10.005098, 9.966551 
5.575359e+3, 1.8493593e+2, -1156549.9, -1195264.1, -12.088561, 0.000723074, 0.0001837986, -1156549.9, -28921.207, 0.0, 10.005094, 9.954042 
5.5753577e+3, 1.9489e+2, -1058433.9, -1097407.9, -22.457666, 0.00072274916, 0.000050030456, -1058433.9, -28355.164, 0.0, 10.005089, 9.953699 
5.575357e+3, 2.0483741e+2, -970300.94, -1019050.44, -12.1257715, 0.00072233396, 0.00017035316, -970300.94, -37706.8, 0.0, 10.005085, 9.94093 
5.575356e+3, 2.1477838e+2, -872046.0, -921055.0, -22.389261, 0.0007218226, -0.000025035577, -872046.0, -36873.313, 0.0, 10.005082, 9.940589 
5.5753547e+3, 2.2471264e+2, -783790.5, -842831.44, -11.144706, 0.0007214751, 0.00022048836, -783790.5, -45973.656, 0.0, 10.005078, 9.927539 
5.575354e+3, 2.3464024e+2, -685388.8, -744682.7, -21.188074, 0.0007213067, 0.0000066861217, -685388.8, -44862.504, 0.0, 10.0050745, 9.927208 
5.5753535e+3, 2.445609e+2, -597094.75, -666777.3, -8.594289, 0.0007209712, 0.00016680126, -597094.75, -53790.83, 0.0, 10.005072, 9.913758 
5.5753523e+3, 2.544748e+2, -498372.4, -568130.9, -18.32051, 0.00072043895, -0.000017233191, -498372.4, -52224.527, 0.0, 10.00507, 9.913657 
5.5753523e+3, 2.6438156e+2, -410172.88, -490832.53, -4.8198013, 0.0007200914, 0.00022706384, -410172.88, -61111.48, 0.0, 10.005068, 9.899567 
5.575351e+3, 2.7428168e+2, -310918.25, -391249.5, -14.3425, 0.00071997324, -0.00012056517, -310918.22, -58877.992, 0.0, 10.005066, 9.899985 
5.5753505e+3, 2.841736e+2, -224398.16, -317848.38, -1.1336911, 0.0007198366, 0.00030917898, -224398.16, -69298.836, 0.0, 10.005064, 9.883127 
5.57535e+3, 2.9405776e+2, -124716.05, -217549.25, -9.35739, 0.00071967184, -0.00017483321, -124716.05, -66481.734, 0.0, 10.005063, 9.883913 
5.5753493e+3, 3.0396983e+2, -35191.805, -84907.84, 3.4419508, 0.0007193298, 0.0002476016, -35191.805, -35191.805, 0.0, 10.005062, 9.939629 
5.575349e+3, 3.139113e+2, -34133.695, -82708.055, -5.5879455, 0.00071873236, 0.000011783763, -34133.695, -34133.695, 0.0, 10.005062, 9.941114 
5.58537e+3, 1.2507974e+2, -1713384.5, -1723333.4, 3.5181618, 0.00073297793, 0.00017005258, -1713384.5, 835.08997, 0.0, 10.005248, 9.992062 
5.585369e+3, 1.3507165e+2, -1616042.9, -1626579.4, -6.726882, 0.0007321826, -0.000009015488, -1616042.9, 255.9106, 0.0, 10.005242, 9.991279 
5.5853677e+3, 1.4505702e+2, -1527970.3, -1547320.4, -1.7198414, 0.0007315869, 0.0002520207, -1527970.3, -9528.153, 0.0, 10.005237, 9.9796 
5.5853665e+3, 1.5503658e+2, -1430279.3, -1450029.0, -12.27208, 0.0007311729, 0.00006221328, -1430279.3, -9636.9795, 0.0, 10.005232, 9.979069 
5.585366e+3, 1.6500954e+2, -1342294.8, -1371262.3, -7.599678, 0.0007307646, 0.00014388107, -1342294.8, -19387.396, 0.0, 10.005226, 9.966939 
5.5853647e+3, 1.7497653e+2, -1244373.3, -1273653.0, -17.255194, 0.00073036447, 0.00004011867, -1244373.3, -19142.33, 0.0, 10.005221, 9.966525 
5.5853635e+3, 1.8493685e+2, -1156378.8, -1195207.0, -10.965462, 0.0007299158, 0.00018413666, -1156378.8, -28758.957, 0.0, 10.005217, 9.954015 
5.585363e+3, 1.948909e+2, -1058263.6, -1097351.8, -21.615345, 0.00072941417, 0.000050401333, -1058263.6, -28193.545, 0.0, 10.005213, 9.953671 
5.585362e+3, 2.0483828e+2, -970131.94, -1018995.4, -11.344333, 0.0007290139, 0.00017071892, -970131.94, -37546.176, 0.0, 10.005208, 9.940903 
5.585361e+3, 2.147792e+2, -871879.1, -921001.56, -21.750666, 0.00072871946, -0.000024714976, -871879.1, -36714.613, 0.0, 10.005204, 9.940561 
5.5853605e+3, 2.2471346e+2, -783624.94, -842779.2, -10.460414, 0.0007283672, 0.00022076651, -783624.94, -45815.977, 0.0, 10.0052, 9.927511 
5.5853593e+3, 2.3464102e+2, -685223.9, -744631.25, -20.72409, 0.00072794914, 0.000006924857, -685223.9, -44705.17, 0.0, 10.005197, 9.927179 
5.585358e+3, 2.4456164e+2, -596930.9, -666726.9, -8.145995, 0.0007275624, 0.00016707646, -596930.9, -53634.27, 0.0, 10.005194, 9.91373 
5.585358e+3, 2.544755e+2, -498210.53, -568081.94, -18.120817, 0.0007272107, -0.000016833043, -498210.53, -52069.69, 0.0, 10.005191, 9.91363 
5.585357e+3, 2.6438224e+2, -410012.5, -490784.94, -4.51386, 0.0007269256, 0.00022737357, -410012.5, -60957.85, 0.0, 10.005188, 9.899538 
5.5853564e+3, 2.742823e+2, -310759.1, -391203.0, -13.969408, 0.00072672195, -0.000120614306, -310759.1, -58725.336, 0.0, 10.005186, 9.899957 
5.585356e+3, 2.8417423e+2, -224239.02, -317800.9, -0.72094923, 0.00072650774, 0.000309174, -224239.02, -69145.9, 0.0, 10.005184, 9.8831005 
5.585355e+3, 2.9405838e+2, -124558.06, -217502.72, -9.582467, 0.0007262765, -0.00017425216, -124558.06, -66329.68, 0.0, 10.005182, 9.883886 
5.5853546e+3, 3.0397037e+2, -35038.152, -84867.414, 3.293275, 0.0007259506, 0.0002481866, -35038.152, -35038.152, 0.0, 10.005181, 9.939599 
5.585354e+3, 3.1391183e+2, -33981.184, -82668.56, -5.238188, 0.0007254897, 0.000011519922, -33981.184, -33981.184, 0.0, 10.00518, 9.941084 
5.5953753e+3, 1.2508082e+2, -1713406.3, -1723376.9, 1.3785257, 0.00073986774, 0.00017078019, -1713406.3, 802.6996, 0.0, 10.005249, 9.992035 
5.595374e+3, 1.3507271e+2, -1616064.5, -1626622.8, -8.864306, 0.0007390645, -0.000008786345, -1616064.5, 224.0438, 0.0, 10.005243, 9.991251 
5.595373e+3, 1.4505805e+2, -1527992.1, -1547364.5, -3.630133, 0.00073844084, 0.00025216208, -1527992.1, -9560.07, 0.0, 10.005238, 9.979571 
5.5953723e+3, 1.550376e+2, -1430300.9, -1450072.9, -14.180092, 0.00073797937, 0.00006266606, -1430300.9, -9668.398, 0.0, 10.005233, 9.97904 
5.595371e+3, 1.6501051e+2, -1342314.3, -1371302.1, -9.494575, 0.00073759025, 0.00014445306, -1342314.3, -19416.316, 0.0, 10.005228, 9.966913 
5.59537e+3, 1.7497748e+2, -1244392.4, -1273692.6, -19.154411, 0.0007372753, 0.00004062004, -1244392.4, -19170.77, 0.0, 10.005222, 9.966499 
5.5953693e+3, 1.8493776e+2, -1156400.0, -1195250.9, -12.593024, 0.00073677814, 0.00018452547, -1156400.0, -28789.236, 0.0, 10.005218, 9.953986 
5.595368e+3, 1.9489178e+2, -1058284.8, -1097395.4, -23.239502, 0.0007360924, 0.000050634877, -1058284.8, -28223.332, 0.0, 10.005214, 9.953643 
5.595367e+3, 2.0483913e+2, -970152.7, -1019038.7, -12.973223, 0.0007357324, 0.00017096478, -970152.7, -37575.387, 0.0, 10.005209, 9.940874 
5.5953664e+3, 2.1478005e+2, -871899.7, -921044.56, -23.385239, 0.00073571457, -0.0000242801, -871899.7, -36743.285, 0.0, 10.005205, 9.940533 
5.595365e+3, 2.2471425e+2, -783645.5, -842822.56, -11.692742, 0.0007353183, 0.00022119496, -783645.5, -45844.406, 0.0, 10.005201, 9.927483 
5.5953646e+3, 2.346418e+2, -685244.25, -744674.3, -21.945698, 0.00073450245, 0.0000071311015, -685244.25, -44733.1, 0.0, 10.005198, 9.927152 
5.595364e+3, 2.4456239e+2, -596951.1, -666770.06, -9.303919, 0.0007340922, 0.00016728813, -596951.1, -53661.867, 0.0, 10.005195, 9.913701 
5.595363e+3, 2.5447622e+2, -498230.56, -568124.9, -19.275648, 0.00073415396, -0.000016350106, -498230.56, -52096.754, 0.0, 10.005192, 9.913601 
5.595362e+3, 2.6438293e+2, -410032.2, -490827.5, -5.3647575, 0.00073396455, 0.00022773394, -410032.2, -60984.316, 0.0, 10.005189, 9.89951 
5.5953616e+3, 2.74283e+2, -310778.53, -391245.28, -14.810601, 0.0007334598, -0.000120867604, -310778.53, -58751.258, 0.0, 10.005187, 9.899929 
5.595361e+3, 2.8417486e+2, -224258.05, -317842.63, -1.2709062, 0.0007330529, 0.0003090486, -224258.05, -69171.14, 0.0, 10.005185, 9.883072 
5.5953604e+3, 2.9405898e+2, -124576.836, -217544.13, -10.097583, 0.00073277624, -0.00017325227, -124576.836, -66354.4, 0.0, 10.005183, 9.883858 
5.595359e+3, 3.0397093e+2, -35057.8, -84910.72, 2.9914174, 0.00073259906, 0.00024913767, -35057.8, -35057.8, 0.0, 10.005182, 9.939569 
5.5953586e+3, 3.139124e+2, -34000.984, -82712.14, -5.5303807, 0.0007325692, 0.0000107012465, -34000.984, -34000.984, 0.0, 10.005181, 9.941053 
5.6053805e+3, 1.250819e+2, -1713223.1, -1723310.9, 3.5340984, 0.0007469033, 0.00017128343, -1713223.1, 975.26807, 0.0, 10.005377, 9.992006 
5.6053793e+3, 1.3507377e+2, -1615882.3, -1626557.6, -6.947547, 0.00074588374, -0.000008272455, -1615882.3, 395.93774, 0.0, 10.005371, 9.991223 
5.605378e+3, 1.4505908e+2, -1527811.5, -1547301.3, -1.8259945, 0.00074522966, 0.00025263726, -1527811.5, -9389.535, 0.0, 10.005365, 9.979544 
5.6053776e+3, 1.550386e+2, -1430122.3, -1450011.1, -12.553099, 0.0007449182, 0.00006305414, -1430122.3, -9499.586, 0.0, 10.00536, 9.9790125 
5.6053764e+3, 1.650115e+2, -1342135.0, -1371237.6, -7.961755, 0.0007445247, 0.00014484259, -1342135.0, -19246.592, 0.0, 10.005354, 9.966887 
5.605376e+3, 1.7497842e+2, -1244214.3, -1273629.3, -17.896574, 0.00074405293, 0.00004109875, -1244214.3, -19001.97, 0.0, 10.005349, 9.966474 
5.6053746e+3, 1.8493868e+2, -1156225.4, -1195192.6, -11.371743, 0.00074356404, 0.0001849816, -1156225.4, -28623.568, 0.0, 10.005343, 9.9539585 
5.6053734e+3, 1.9489267e+2, -1058112.1, -1097338.6, -22.127333, 0.000743054, 0.0000509549, -1058112.1, -28059.467, 0.0, 10.005339, 9.953614 
5.605373e+3, 2.0483999e+2, -969981.4, -1018983.1, -11.901096, 0.00074267015, 0.00017125423, -969981.4, -37412.53, 0.0, 10.005334, 9.9408455 
5.6053716e+3, 2.1478088e+2, -871729.2, -920989.94, -22.619404, 0.00074241834, -0.00002390998, -871729.2, -36580.984, 0.0, 10.00533, 9.940505 
5.6053704e+3, 2.2471505e+2, -783476.2, -842768.94, -10.913399, 0.0007419983, 0.00022159131, -783476.2, -45682.992, 0.0, 10.005325, 9.927454 
5.60537e+3, 2.3464258e+2, -685076.94, -744622.25, -21.311365, 0.0007413908, 0.0000074935606, -685076.94, -44573.457, 0.0, 10.0053215, 9.927123 
5.605369e+3, 2.4456315e+2, -596785.3, -666719.25, -8.638631, 0.000741028, 0.00016757034, -596785.3, -53503.41, 0.0, 10.005318, 9.913672 
5.605368e+3, 2.5447693e+2, -498065.97, -568075.2, -18.742376, 0.00074094965, -0.000016202242, -498065.97, -51939.24, 0.0, 10.005315, 9.913572 
5.6053674e+3, 2.6438364e+2, -409868.7, -490778.88, -4.783702, 0.00074068405, 0.00022792791, -409868.7, -60827.586, 0.0, 10.005312, 9.899482 
5.605367e+3, 2.7428365e+2, -310616.38, -391197.8, -14.598621, 0.00074018294, -0.000120402416, -310616.38, -58595.586, 0.0, 10.005309, 9.8998995 
5.605366e+3, 2.8417552e+2, -224096.27, -317794.53, -0.9908981, 0.00073981116, 0.00030947797, -224096.27, -69015.586, 0.0, 10.005307, 9.883044 
5.605365e+3, 2.940596e+2, -124416.805, -217497.28, -9.661396, 0.00073961145, -0.00017327243, -124416.805, -66200.32, 0.0, 10.005305, 9.88383 
5.605365e+3, 3.0397153e+2, -34902.05, -84869.48, 3.5321107, 0.0007394218, 0.00024905478, -34902.05, -34902.05, 0.0, 10.005303, 9.939539 
5.6053644e+3, 3.1391293e+2, -33846.086, -82671.64, -5.4765882, 0.0007392483, 0.000011125564, -33846.086, -33846.086, 0.0, 10.005302, 9.941023 
5.615386e+3, 1.25083e+2, -1713245.4, -1723355.4, 1.4084996, 0.00075407285, 0.00017159358, -1713245.4, 942.32245, 0.0, 10.005378, 9.991979 
5.6153846e+3, 1.3507482e+2, -1615904.3, -1626602.0, -9.075306, 0.00075265835, -0.0000075126723, -1615904.3, 363.47333, 0.0, 10.005372, 9.991195 
5.615384e+3, 1.4506012e+2, -1527833.8, -1547346.1, -3.9855685, 0.00075197173, 0.0002534006, -1527833.8, -9421.901, 0.0, 10.005366, 9.979515 
5.615383e+3, 1.550396e+2, -1430144.3, -1450055.8, -14.708528, 0.00075197965, 0.00006338664, -1430144.3, -9531.411, 0.0, 10.005361, 9.978984 
5.6153816e+3, 1.6501246e+2, -1342154.9, -1371278.6, -9.896102, 0.0007515613, 0.00014507482, -1342154.9, -19276.129, 0.0, 10.005355, 9.966862 
5.615381e+3, 1.7497939e+2, -1244234.0, -1273670.0, -19.831446, 0.0007507246, 0.00004155771, -1244234.0, -19031.041, 0.0, 10.00535, 9.966448 
5.61538e+3, 1.8493961e+2, -1156246.8, -1195236.9, -13.266999, 0.000750293, 0.00018549575, -1156246.8, -28654.094, 0.0, 10.005345, 9.95393 
5.6153786e+3, 1.9489357e+2, -1058133.4, -1097382.8, -24.027534, 0.0007502688, 0.00005135017, -1058133.3, -28089.465, 0.0, 10.00534, 9.953587 
5.615378e+3, 2.0484087e+2, -970002.75, -1019027.6, -13.501717, 0.0007498054, 0.0001715819, -970002.75, -37442.375, 0.0, 10.005335, 9.940817 
5.615377e+3, 2.1478172e+2, -871750.3, -921034.2, -24.213514, 0.0007488788, -0.000023596007, -871750.25, -36610.31, 0.0, 10.005331, 9.940475 
5.615376e+3, 2.2471586e+2, -783497.0, -842812.9, -12.407486, 0.00074845296, 0.00022195956, -783497.0, -45711.74, 0.0, 10.005327, 9.927425 
5.615375e+3, 2.3464336e+2, -685097.5, -744665.9, -22.807047, 0.00074857735, 0.000007991177, -685097.5, -44601.676, 0.0, 10.005322, 9.927094 
5.6153744e+3, 2.4456389e+2, -596805.8, -666763.0, -9.870811, 0.00074832316, 0.00016791376, -596805.8, -53531.25, 0.0, 10.005319, 9.913644 
5.615373e+3, 2.5447765e+2, -498086.2, -568118.6, -19.965466, 0.0007476254, -0.000016344078, -498086.2, -51966.53, 0.0, 10.005316, 9.913544 
5.615373e+3, 2.6438433e+2, -409889.06, -490822.9, -5.7278757, 0.00074713497, 0.00022797819, -409889.06, -60854.758, 0.0, 10.005313, 9.899452 
5.615372e+3, 2.7428433e+2, -310636.5, -391241.63, -15.526272, 0.0007469018, -0.00011931516, -310636.5, -58622.254, 0.0, 10.00531, 9.899871 
5.6153715e+3, 2.8417614e+2, -224115.05, -317835.78, -1.7444147, 0.0007467624, 0.00031038735, -224115.05, -69040.6, 0.0, 10.005308, 9.883017 
5.615371e+3, 2.940602e+2, -124435.23, -217538.06, -10.401269, 0.00074674556, -0.0001741765, -124435.23, -66224.7, 0.0, 10.005306, 9.883802 
5.61537e+3, 3.039721e+2, -34922.47, -84914.516, 3.0600803, 0.0007464033, 0.00024807657, -34922.47, -34922.47, 0.0, 10.005304, 9.9395075 
5.6153697e+3, 3.139135e+2, -33866.758, -82717.21, -5.928063, 0.00074558746, 0.000012627807, -33866.754, -33866.754, 0.0, 10.005303, 9.940991 
5.6253916e+3, 1.2508409e+2, -1713058.0, -1723288.0, 3.7525346, 0.0007609428, 0.0001720475, -1713058.0, 1118.9382, 0.0, 10.005508, 9.99195 
5.6253904e+3, 1.350759e+2, -1615719.1, -1626536.3, -7.0370693, 0.00075970084, -0.0000069512507, -1615719.1, 538.1374, 0.0, 10.005502, 9.991167 
5.625389e+3, 1.4506115e+2, -1527650.3, -1547281.9, -2.0789585, 0.0007590187, 0.00025396512, -1527650.3, -9248.585, 0.0, 10.005496, 9.979486 
5.625388e+3, 1.5504062e+2, -1429962.0, -1449992.5, -12.954416, 0.0007588674, 0.00006385219, -1429962.0, -9359.094, 0.0, 10.005489, 9.978955 
5.6253874e+3, 1.6501345e+2, -1341972.1, -1371213.1, -8.157595, 0.0007584283, 0.00014548097, -1341972.1, -19103.033, 0.0, 10.005484, 9.966835 
5.625386e+3, 1.7498033e+2, -1244053.3, -1273606.0, -18.273115, 0.0007577074, 0.00004194383, -1244053.1, -18859.568, 0.0, 10.005478, 9.966421 
5.625385e+3, 1.8494053e+2, -1156069.3, -1195177.8, -11.832285, 0.0007572713, 0.0001859037, -1156069.3, -28485.705, 0.0, 10.005472, 9.9539 
5.6253844e+3, 1.9489446e+2, -1057957.1, -1097324.8, -22.894712, 0.00075712055, 0.000051822364, -1057957.1, -27922.148, 0.0, 10.005467, 9.953557 
5.625383e+3, 2.0484173e+2, -969827.9, -1018970.9, -12.315154, 0.0007566393, 0.00017203175, -969827.9, -37276.082, 0.0, 10.005463, 9.940788 
5.625382e+3, 2.1478257e+2, -871577.2, -920978.75, -23.124872, 0.0007558089, -0.000023259605, -871577.1, -36445.438, 0.0, 10.005458, 9.940447 
5.6253815e+3, 2.247167e+2, -783325.25, -842758.7, -11.376595, 0.0007554035, 0.00022225105, -783325.25, -45548.008, 0.0, 10.005453, 9.927397 
5.62538e+3, 2.3464414e+2, -684927.4, -744613.0, -22.039286, 0.00075546495, 0.000008313385, -684927.4, -44439.242, 0.0, 10.005448, 9.927065 
5.6253797e+3, 2.4456465e+2, -596636.8, -666711.1, -9.021719, 0.0007551634, 0.00016826356, -596636.8, -53369.668, 0.0, 10.005445, 9.913614 
5.625379e+3, 2.5447837e+2, -497918.44, -568067.8, -19.309126, 0.0007544363, -0.000015970512, -497918.44, -51805.883, 0.0, 10.005441, 9.913514 
5.6253785e+3, 2.64385e+2, -409722.8, -490773.7, -5.0713654, 0.0007539625, 0.00022831911, -409722.8, -60695.348, 0.0, 10.005438, 9.899423 
5.625377e+3, 2.7428502e+2, -310472.25, -391193.9, -15.016118, 0.00075380347, -0.00011907675, -310472.25, -58464.54, 0.0, 10.005435, 9.899841 
5.6253767e+3, 2.841768e+2, -223950.9, -317786.63, -1.1326342, 0.0007536745, 0.00031059096, -223950.9, -68882.71, 0.0, 10.005432, 9.882989 
5.625376e+3, 2.9406083e+2, -124272.305, -217489.86, -9.941045, 0.0007535822, -0.00017391743, -124272.3, -66067.766, 0.0, 10.005429, 9.883775 
5.6253755e+3, 3.039727e+2, -34764.03, -84873.19, 3.5693219, 0.00075317174, 0.00024835774, -34764.03, -34764.03, 0.0, 10.005427, 9.939476 
5.625375e+3, 3.1391403e+2, -33708.617, -82676.484, -5.7641487, 0.000752299, 0.000012884104, -33708.617, -33708.617, 0.0, 10.005426, 9.94096 
5.635397e+3, 1.250852e+2, -1713080.9, -1723333.9, 1.3323971, 0.0007675655, 0.0001726255, -1713080.9, 1085.2078, 0.0, 10.00551, 9.991921 
5.635396e+3, 1.3507697e+2, -1615741.8, -1626581.9, -9.44796, 0.00076698244, -0.0000065604004, -1615741.8, 504.93768, 0.0, 10.005504, 9.9911375 
5.6353945e+3, 1.450622e+2, -1527672.8, -1547327.3, -4.2964044, 0.00076633616, 0.00025435866, -1527672.8, -9281.311, 0.0, 10.005497, 9.979458 
5.635393e+3, 1.5504162e+2, -1429984.3, -1450037.8, -15.17629, 0.0007656151, 0.00006443251, -1429984.3, -9391.29, 0.0, 10.005491, 9.978926 
5.6353927e+3, 1.6501443e+2, -1341992.5, -1371254.8, -10.305706, 0.0007651588, 0.00014603719, -1341992.4, -19133.0, 0.0, 10.005486, 9.966808 
5.6353915e+3, 1.749813e+2, -1244073.3, -1273647.4, -20.420921, 0.0007649668, 0.000042267766, -1244073.3, -18889.05, 0.0, 10.00548, 9.966394 
5.635391e+3, 1.8494147e+2, -1156091.4, -1195223.3, -13.813852, 0.00076447276, 0.00018622058, -1156091.4, -28516.896, 0.0, 10.005474, 9.953872 
5.6353897e+3, 1.9489537e+2, -1057979.0, -1097370.0, -24.875893, 0.00076366856, 0.00005236067, -1057979.0, -27952.799, 0.0, 10.005468, 9.953527 
5.6353885e+3, 2.0484261e+2, -969849.4, -1019015.75, -14.090368, 0.00076322263, 0.00017258672, -969849.4, -37306.14, 0.0, 10.005464, 9.940759 
5.635388e+3, 2.147834e+2, -871598.44, -921023.4, -24.90141, 0.0007631525, -0.000022903392, -871598.4, -36474.977, 0.0, 10.005459, 9.940417 
5.635387e+3, 2.247175e+2, -783346.56, -842803.6, -13.026317, 0.0007627899, 0.00022247697, -783346.56, -45577.3, 0.0, 10.005454, 9.927367 
5.635386e+3, 2.3464493e+2, -684948.44, -744657.7, -23.685116, 0.0007621029, 0.000008484448, -684948.4, -44467.96, 0.0, 10.00545, 9.927035 
5.6353855e+3, 2.4456541e+2, -596657.6, -666755.6, -10.314509, 0.00076161965, 0.00016861892, -596657.6, -53397.887, 0.0, 10.0054455, 9.913586 
5.6353843e+3, 2.544791e+2, -497939.0, -568112.06, -20.592186, 0.00076137256, -0.000015152004, -497939.0, -51833.594, 0.0, 10.005443, 9.913485 
5.635384e+3, 2.643857e+2, -409743.44, -490818.34, -6.2610416, 0.0007611239, 0.00022891084, -409743.44, -60722.832, 0.0, 10.005439, 9.899393 
5.6353825e+3, 2.7428567e+2, -310492.63, -391238.28, -16.194382, 0.00076087116, -0.00011957142, -310492.63, -58491.453, 0.0, 10.005436, 9.899811 
5.6353825e+3, 2.8417742e+2, -223969.89, -317828.5, -1.9797206, 0.0007605605, 0.00031018554, -223969.89, -68907.98, 0.0, 10.005433, 9.882961 
5.635382e+3, 2.9406142e+2, -124290.95, -217531.27, -10.778488, 0.00076016976, -0.00017265265, -124290.945, -66092.42, 0.0, 10.005431, 9.883747 
5.635381e+3, 3.0397326e+2, -34785.066, -84919.62, 3.0928016, 0.0007597646, 0.00024972725, -34785.066, -34785.066, 0.0, 10.005429, 9.939445 
5.63538e+3, 3.1391457e+2, -33730.01, -82723.555, -6.1750994, 0.0007593411, 0.000012062407, -33730.008, -33730.008, 0.0, 10.005427, 9.9409275 
5.645402e+3, 1.2508631e+2, -1712890.5, -1723265.4, 3.751119, 0.00077467, 0.00017327323, -1712890.5, 1264.7473, 0.0, 10.005643, 9.991892 
5.6454015e+3, 1.3507804e+2, -1615553.0, -1626514.6, -7.1004615, 0.0007739713, -0.0000061628366, -1615553.0, 683.1131, 0.0, 10.005635, 9.991109 
5.6454e+3, 1.4506325e+2, -1527485.8, -1547261.9, -1.9736133, 0.000773304, 0.00025471652, -1527485.8, -9104.597, 0.0, 10.005629, 9.979428 
5.6453997e+3, 1.5504265e+2, -1429799.0, -1449973.8, -13.2098255, 0.0007726533, 0.00006495451, -1429799.0, -9215.998, 0.0, 10.005623, 9.978897 
5.645398e+3, 1.6501543e+2, -1341806.5, -1371188.1, -8.516546, 0.0007722075, 0.00014660314, -1341806.5, -18956.852, 0.0, 10.005616, 9.966782 
5.645397e+3, 1.7498226e+2, -1243889.1, -1273582.1, -18.796398, 0.00077196694, 0.000042759195, -1243889.1, -18714.379, 0.0, 10.0056095, 9.966368 
5.645396e+3, 1.8494241e+2, -1155910.6, -1195163.3, -12.143118, 0.0007714328, 0.00018664512, -1155910.6, -28345.387, 0.0, 10.005604, 9.953842 
5.645395e+3, 1.9489628e+2, -1057799.6, -1097311.1, -23.386265, 0.00077059696, 0.000052726107, -1057799.6, -27782.383, 0.0, 10.005598, 9.953498 
5.6453943e+3, 2.0484349e+2, -969671.5, -1018958.0, -12.714365, 0.00077018107, 0.00017296239, -969671.5, -37136.867, 0.0, 10.005593, 9.940729 
5.645393e+3, 2.1478425e+2, -871422.7, -920967.25, -23.792181, 0.00077020604, -0.000022444603, -871422.6, -36307.563, 0.0, 10.005588, 9.940388 
5.6453925e+3, 2.2471832e+2, -783172.1, -842748.6, -11.814312, 0.00076980755, 0.00022292229, -783172.1, -45410.9, 0.0, 10.005583, 9.927338 
5.6453913e+3, 2.3464572e+2, -684774.75, -744603.56, -22.613478, 0.0007689401, 0.000008809942, -684774.75, -44302.08, 0.0, 10.005578, 9.927006 
5.645391e+3, 2.4456616e+2, -596485.3, -666702.75, -9.3049965, 0.0007684497, 0.00016892963, -596485.3, -53233.066, 0.0, 10.005574, 9.913555 
5.64539e+3, 2.5447986e+2, -497769.13, -568060.94, -19.854176, 0.0007683976, -0.000014733595, -497769.13, -51670.895, 0.0, 10.005569, 9.913455 
5.645389e+3, 2.6438642e+2, -409575.0, -490768.28, -5.393379, 0.0007681818, 0.0002292843, -409575.0, -60561.254, 0.0, 10.005566, 9.8993635 
5.645389e+3, 2.7428636e+2, -310325.16, -391189.2, -15.319421, 0.0007677598, -0.00011943303, -310325.16, -58330.566, 0.0, 10.005562, 9.899781 
5.645388e+3, 2.8417808e+2, -223802.66, -317779.0, -1.0959361, 0.0007673547, 0.00031036028, -223802.66, -68747.03, 0.0, 10.005559, 9.882932 
5.645387e+3, 2.9406205e+2, -124125.19, -217482.89, -10.474555, 0.00076697045, -0.00017207707, -124125.19, -65932.67, 0.0, 10.005557, 9.8837185 
5.6453866e+3, 3.0397388e+2, -34623.74, -84876.72, 3.450438, 0.00076663354, 0.00025025968, -34623.74, -34623.74, 0.0, 10.005554, 9.939413 
5.645386e+3, 3.1391513e+2, -33570.535, -82681.86, -5.295974, 0.0007663676, 0.000011902781, -33570.535, -33570.535, 0.0, 10.005552, 9.940896 
5.655408e+3, 1.2508743e+2, -1712913.5, -1723311.5, 1.1836271, 0.0007821958, 0.00017398052, -1712913.5, 1230.7894, 0.0, 10.005644, 9.991863 
5.6554073e+3, 1.3507913e+2, -1615575.8, -1626560.5, -9.669384, 0.00078071904, -0.0000057583784, -1615575.8, 649.71014, 0.0, 10.005637, 9.991079 
5.6554055e+3, 1.4506431e+2, -1527509.0, -1547308.9, -4.3679085, 0.0007799823, 0.0002550451, -1527509.0, -9138.176, 0.0, 10.0056305, 9.979398 
5.655405e+3, 1.5504369e+2, -1429822.0, -1450020.5, -15.596236, 0.00077995006, 0.00006542673, -1429822.0, -9249.046, 0.0, 10.005624, 9.978867 
5.655404e+3, 1.6501643e+2, -1341827.1, -1371230.4, -10.829634, 0.00077953783, 0.0001471773, -1341827.1, -18987.217, 0.0, 10.005618, 9.966754 
5.6554025e+3, 1.7498325e+2, -1243909.4, -1273624.3, -21.114443, 0.0007787537, 0.000043394488, -1243909.4, -18744.23, 0.0, 10.005611, 9.96634 
5.655402e+3, 1.8494336e+2, -1155933.0, -1195209.4, -14.215356, 0.00077819516, 0.00018716246, -1155933.0, -28376.98, 0.0, 10.005606, 9.953812 
5.655401e+3, 1.948972e+2, -1057821.8, -1097357.1, -25.456728, 0.0007778613, 0.000052943873, -1057821.8, -27813.465, 0.0, 10.0056, 9.953468 
5.6554e+3, 2.0484437e+2, -969693.5, -1019004.0, -14.773911, 0.0007774704, 0.00017318477, -969693.5, -37167.52, 0.0, 10.005594, 9.9407 
5.655399e+3, 2.1478511e+2, -871444.4, -921012.9, -25.854425, 0.0007770187, -0.000021897693, -871444.4, -36337.625, 0.0, 10.005589, 9.940358 
5.655398e+3, 2.2471915e+2, -783193.6, -842794.2, -13.419717, 0.00077651703, 0.00022355607, -783193.6, -45440.457, 0.0, 10.005584, 9.927307 
5.655397e+3, 2.3464651e+2, -684796.06, -744648.9, -24.20989, 0.00077595824, 0.00000926877, -684796.06, -44331.137, 0.0, 10.005579, 9.926976 
5.6553966e+3, 2.4456695e+2, -596506.6, -666748.4, -10.94645, 0.00077561045, 0.00016920253, -596506.6, -53261.875, 0.0, 10.005575, 9.913526 
5.6553954e+3, 2.5448057e+2, -497790.16, -568106.25, -21.4932, 0.00077550695, -0.000014659542, -497790.16, -51699.11, 0.0, 10.00557, 9.9134245 
5.655395e+3, 2.643871e+2, -409595.53, -490812.9, -6.5929375, 0.0007751585, 0.00022947007, -409595.53, -60588.7, 0.0, 10.005567, 9.899333 
5.655394e+3, 2.7428702e+2, -310345.44, -391233.53, -16.50985, 0.00077450316, -0.000118748445, -310345.44, -58357.46, 0.0, 10.005564, 9.899752 
5.6553936e+3, 2.841787e+2, -223822.69, -317823.1, -2.0816963, 0.000774079, 0.00031103526, -223822.69, -68773.39, 0.0, 10.005561, 9.882902 
5.6553924e+3, 2.9406264e+2, -124144.97, -217526.7, -11.416805, 0.00077396375, -0.00017209657, -124144.97, -65958.484, 0.0, 10.005558, 9.883689 
5.655392e+3, 3.0397445e+2, -34643.938, -84921.51, 2.6049147, 0.0007737488, 0.0002500701, -34643.938, -34643.938, 0.0, 10.005555, 9.939383 
5.655392e+3, 3.1391567e+2, -33590.79, -82726.805, -6.1721582, 0.0007733877, 0.000012316299, -33590.79, -33590.79, 0.0, 10.005553, 9.940865 
5.6654143e+3, 1.2508854e+2, -1712720.0, -1723242.0, 3.8714955, 0.0007893753, 0.00017444514, -1712720.0, 1413.2566, 0.0, 10.005779, 9.991834 
5.6654125e+3, 1.3508023e+2, -1615383.4, -1626492.1, -7.3124065, 0.0007877785, -0.000005080125, -1615383.4, 831.35986, 0.0, 10.005772, 9.99105 
5.6654114e+3, 1.4506537e+2, -1527318.3, -1547242.1, -2.1714096, 0.00078702107, 0.00025571312, -1527318.3, -8957.933, 0.0, 10.005765, 9.979368 
5.665411e+3, 1.550447e+2, -1429633.5, -1449955.4, -13.465491, 0.00078706397, 0.00006586685, -1429633.5, -9070.708, 0.0, 10.005757, 9.978837 
5.6654096e+3, 1.6501744e+2, -1341638.1, -1371162.8, -8.668983, 0.0007866331, 0.00014756377, -1341638.1, -18808.084, 0.0, 10.005751, 9.966726 
5.665409e+3, 1.7498422e+2, -1243721.8, -1273557.8, -19.24624, 0.00078573765, 0.000043899367, -1243721.6, -18566.082, 0.0, 10.005744, 9.966312 
5.665407e+3, 1.849443e+2, -1155748.8, -1195148.1, -12.476699, 0.0007852112, 0.00018769295, -1155748.8, -28202.111, 0.0, 10.005738, 9.953782 
5.665406e+3, 1.9489811e+2, -1057640.0, -1097297.5, -23.876877, 0.00078505476, 0.00005340593, -1057640.0, -27640.723, 0.0, 10.005732, 9.953439 
5.6654054e+3, 2.0484526e+2, -969513.1, -1018945.7, -13.129105, 0.0007846104, 0.00017360007, -969513.1, -36995.855, 0.0, 10.005726, 9.940669 
5.665405e+3, 2.1478596e+2, -871264.56, -920955.44, -24.445065, 0.0007838622, -0.000021506365, -871264.56, -36166.266, 0.0, 10.00572, 9.940328 
5.6654036e+3, 2.2471997e+2, -783015.2, -842737.75, -12.083629, 0.00078336574, 0.00022397049, -783015.2, -45270.15, 0.0, 10.005714, 9.927278 
5.665403e+3, 2.346473e+2, -684620.5, -744594.4, -23.099419, 0.00078314444, 0.000009758048, -684620.5, -44163.4, 0.0, 10.00571, 9.926946 
5.665402e+3, 2.445677e+2, -596332.6, -666695.1, -9.721191, 0.00078283326, 0.00016961759, -596332.6, -53095.375, 0.0, 10.005704, 9.913495 
5.665401e+3, 2.5448132e+2, -497616.72, -568053.8, -20.314081, 0.0007824155, -0.000014492412, -497616.72, -51532.902, 0.0, 10.0057, 9.913395 
5.6654006e+3, 2.6438785e+2, -409423.28, -490761.88, -5.4479723, 0.00078195526, 0.00022970018, -409423.28, -60423.387, 0.0, 10.005696, 9.8993025 
5.6653994e+3, 2.742877e+2, -310175.25, -391184.06, -15.93081, 0.0007814403, -0.00011806792, -310175.25, -58193.93, 0.0, 10.0056925, 9.899721 
5.665399e+3, 2.8417936e+2, -223652.98, -317772.4, -1.4071648, 0.0007811235, 0.00031164105, -223652.98, -68610.04, 0.0, 10.005689, 9.882874 
5.665398e+3, 2.940633e+2, -123977.18, -217477.33, -10.226122, 0.00078107044, -0.000172272, -123977.18, -65796.76, 0.0, 10.005685, 9.88366 
5.6653976e+3, 3.0397505e+2, -34480.684, -84878.73, 3.889655, 0.000780772, 0.00024985537, -34480.68, -34480.68, 0.0, 10.005682, 9.93935 
5.665397e+3, 3.1391624e+2, -33427.336, -82684.35, -6.0055776, 0.0007801152, 0.000013152079, -33427.336, -33427.336, 0.0, 10.00568, 9.940832 
5.6754196e+3, 1.2508968e+2, -1712743.8, -1723289.5, 1.2955903, 0.00079626916, 0.00017470434, -1712743.8, 1378.5165, 0.0, 10.00578, 9.991803 
5.6754184e+3, 1.3508134e+2, -1615406.9, -1626539.4, -9.885678, 0.00079511426, -0.000004168703, -1615406.9, 797.1044, 0.0, 10.005774, 9.99102 
5.675417e+3, 1.4506644e+2, -1527341.6, -1547289.4, -4.841681, 0.0007943772, 0.00025667014, -1527341.6, -8991.742, 0.0, 10.005766, 9.979339 
5.6754166e+3, 1.5504576e+2, -1429656.5, -1450002.3, -16.136812, 0.0007940312, 0.0000662805, -1429656.5, -9103.916, 0.0, 10.005759, 9.978807 
5.675415e+3, 1.6501845e+2, -1341659.3, -1371206.4, -11.031673, 0.0007935371, 0.00014779135, -1341659.3, -18839.12, 0.0, 10.005753, 9.966699 
5.675414e+3, 1.749852e+2, -1243742.6, -1273601.1, -21.605587, 0.00079290016, 0.00004429327, -1243742.6, -18596.646, 0.0, 10.005746, 9.966285 
5.675413e+3, 1.8494527e+2, -1155771.5, -1195194.9, -14.887699, 0.0007924537, 0.00018823479, -1155771.4, -28234.098, 0.0, 10.005739, 9.953752 
5.675412e+3, 1.9489905e+2, -1057662.4, -1097344.1, -26.294916, 0.00079219614, 0.000054077213, -1057662.4, -27672.12, 0.0, 10.005733, 9.953408 
5.675411e+3, 2.0484616e+2, -969535.5, -1018992.56, -15.0883875, 0.00079163135, 0.00017418081, -969535.5, -37026.996, 0.0, 10.005727, 9.940639 
5.67541e+3, 2.1478683e+2, -871286.75, -921002.06, -26.394884, 0.0007907427, -0.000021247417, -871286.75, -36196.89, 0.0, 10.005722, 9.940297 
5.6754094e+3, 2.247208e+2, -783037.1, -842784.1, -14.141527, 0.000790344, 0.00022419776, -783037.1, -45300.242, 0.0, 10.005716, 9.927247 
5.675409e+3, 2.3464812e+2, -684642.1, -744640.5, -25.163166, 0.0007904825, 0.000010273191, -684642.06, -44192.88, 0.0, 10.005711, 9.926915 
5.6754076e+3, 2.4456848e+2, -596353.94, -666740.9, -11.273709, 0.0007901167, 0.00017015456, -596353.94, -53124.234, 0.0, 10.005706, 9.9134655 
5.6754065e+3, 2.5448206e+2, -497637.78, -568099.3, -21.854122, 0.0007891617, -0.000014243721, -497637.75, -51561.223, 0.0, 10.005701, 9.913364 
5.6754065e+3, 2.6438856e+2, -409444.9, -490808.75, -6.904747, 0.0007886081, 0.00022996953, -409444.9, -60451.973, 0.0, 10.005697, 9.899272 
5.675405e+3, 2.7428836e+2, -310196.66, -391230.72, -17.366655, 0.0007885527, -0.000117393036, -310196.66, -58221.977, 0.0, 10.005693, 9.89969 
5.6754047e+3, 2.8418e+2, -223672.1, -317814.72, -2.6298256, 0.00078845065, 0.0003121859, -223672.1, -68635.516, 0.0, 10.00569, 9.882845 
5.675404e+3, 2.940639e+2, -123995.836, -217519.0, -11.462787, 0.000788282, -0.00017257716, -123995.836, -65821.5, 0.0, 10.005687, 9.883632 
5.6754035e+3, 3.039756e+2, -34502.67, -84927.44, 3.1083755, 0.0007877245, 0.00024962323, -34502.67, -34502.67, 0.0, 10.005684, 9.939317 
5.675403e+3, 3.139168e+2, -33449.78, -82733.914, -6.703609, 0.0007866018, 0.000014346128, -33449.777, -33449.777, 0.0, 10.005682, 9.940798 
5.6854254e+3, 1.2509081e+2, -1712545.6, -1723218.3, 4.1237645, 0.00080326456, 0.00017530793, -1712545.6, 1565.4781, 0.0, 10.0059185, 9.991774 
5.685424e+3, 1.3508244e+2, -1615211.9, -1626470.4, -7.245906, 0.00080240687, -0.000003695286, -1615211.9, 981.229, 0.0, 10.00591, 9.99099 
5.6854236e+3, 1.4506751e+2, -1527148.4, -1547222.0, -2.2292051, 0.00080168, 0.0002571472, -1527148.4, -8809.131, 0.0, 10.005902, 9.979308 
5.6854224e+3, 1.550468e+2, -1429464.1, -1449935.8, -13.825345, 0.00080106553, 0.000066890105, -1429464.1, -8921.788, 0.0, 10.005896, 9.978777 
5.6854206e+3, 1.6501947e+2, -1341466.4, -1371137.3, -8.846205, 0.0008005589, 0.00014838454, -1341466.4, -18656.178, 0.0, 10.005888, 9.96667 
5.68542e+3, 1.7498618e+2, -1243552.4, -1273533.9, -19.521702, 0.00080016156, 0.000044723653, -1243552.4, -18416.06, 0.0, 10.00588, 9.966256 
5.685419e+3, 1.8494622e+2, -1155584.8, -1195133.0, -12.819878, 0.0007996881, 0.00018864765, -1155584.8, -28056.8, 0.0, 10.005874, 9.953721 
5.685418e+3, 1.9489998e+2, -1057476.5, -1097283.1, -24.569263, 0.00079913344, 0.000054619624, -1057476.4, -27495.305, 0.0, 10.005868, 9.953378 
5.685417e+3, 2.0484707e+2, -969350.94, -1018932.6, -13.390287, 0.0007985824, 0.00017473302, -969350.94, -36851.29, 0.0, 10.005861, 9.940608 
5.685416e+3, 2.147877e+2, -871105.06, -920944.06, -24.785053, 0.00079803396, -0.000020811187, -871105.06, -36023.703, 0.0, 10.005855, 9.940267 
5.685415e+3, 2.2472166e+2, -782857.0, -842727.56, -12.496964, 0.00079763914, 0.00022455624, -782857.0, -45128.332, 0.0, 10.005849, 9.927217 
5.685414e+3, 2.3464893e+2, -684462.56, -744584.7, -23.754421, 0.0007974113, 0.000010596077, -684462.56, -44021.273, 0.0, 10.005843, 9.926885 
5.6854135e+3, 2.4456924e+2, -596175.5, -666686.1, -9.875514, 0.00079696544, 0.00017056591, -596175.5, -52953.45, 0.0, 10.005838, 9.913434 
5.685413e+3, 2.544828e+2, -497461.75, -568046.2, -20.810007, 0.00079626375, -0.0000135996315, -497461.75, -51392.508, 0.0, 10.005833, 9.913334 
5.6854117e+3, 2.6438925e+2, -409270.7, -490757.2, -5.778492, 0.00079581025, 0.00023048483, -409270.7, -60284.773, 0.0, 10.005828, 9.8992405 
5.685411e+3, 2.7428907e+2, -310024.06, -391180.47, -16.005234, 0.000795664, -0.000117456, -310024.06, -58056.1, 0.0, 10.005824, 9.899659 
5.68541e+3, 2.8418067e+2, -223499.55, -317763.4, -1.2264771, 0.00079545734, 0.0003121707, -223499.55, -68469.375, 0.0, 10.00582, 9.882815 
5.68541e+3, 2.9406452e+2, -123824.3, -217468.56, -10.944657, 0.00079516624, -0.00017170455, -123824.3, -65656.08, 0.0, 10.005816, 9.883602 
5.6854093e+3, 3.0397624e+2, -34335.8, -84883.484, 3.6130226, 0.00079462497, 0.00025053057, -34335.8, -34335.8, 0.0, 10.005814, 9.939283 
5.685409e+3, 3.1391737e+2, -33284.58, -82691.18, -5.5414085, 0.0007937207, 0.000014040455, -33284.58, -33284.58, 0.0, 10.005811, 9.940765 
5.695432e+3, 1.2509197e+2, -1712569.8, -1723266.6, 1.0453835, 0.0008103578, 0.00017620386, -1712569.8, 1530.142, 0.0, 10.00592, 9.991743 
5.69543e+3, 1.3508356e+2, -1615235.6, -1626518.4, -10.314002, 0.00080967194, -0.000003592406, -1615235.6, 946.52625, 0.0, 10.005912, 9.990959 
5.6954294e+3, 1.450686e+2, -1527172.3, -1547270.4, -4.8283267, 0.0008089464, 0.00025721826, -1527172.3, -8843.623, 0.0, 10.005904, 9.979277 
5.695428e+3, 1.5504785e+2, -1429487.8, -1449983.9, -16.425188, 0.000808168, 0.0000676664, -1429487.8, -8955.768, 0.0, 10.005897, 9.978745 
5.6954265e+3, 1.650205e+2, -1341487.6, -1371181.3, -11.590622, 0.0008076917, 0.00014928842, -1341487.6, -18687.525, 0.0, 10.00589, 9.966642 
5.695426e+3, 1.7498718e+2, -1243573.4, -1273577.5, -22.269535, 0.000807516, 0.00004518613, -1243573.4, -18446.846, 0.0, 10.005882, 9.9662285 
5.6954247e+3, 1.849472e+2, -1155608.0, -1195181.3, -15.165118, 0.0008069244, 0.00018895206, -1155608.0, -28089.533, 0.0, 10.005876, 9.95369 
5.695424e+3, 1.9490092e+2, -1057499.5, -1097331.1, -26.908117, 0.00080590806, 0.000055052624, -1057499.5, -27527.508, 0.0, 10.005869, 9.953346 
5.695423e+3, 2.0484796e+2, -969373.5, -1018979.9, -15.78391, 0.000805485, 0.000175261, -969373.5, -36882.676, 0.0, 10.005862, 9.9405775 
5.6954217e+3, 2.1478857e+2, -871127.3, -920991.0, -27.188166, 0.0008056835, -0.000020223395, -871127.25, -36054.492, 0.0, 10.0058565, 9.940236 
5.695421e+3, 2.2472249e+2, -782879.3, -842774.9, -14.463957, 0.0008052121, 0.00022502744, -782879.3, -45158.887, 0.0, 10.00585, 9.927185 
5.69542e+3, 2.3464973e+2, -684484.6, -744631.75, -25.708921, 0.0008040017, 0.000010756506, -684484.6, -44051.27, 0.0, 10.005845, 9.926853 
5.6954193e+3, 2.4457003e+2, -596197.5, -666733.3, -11.750988, 0.00080345466, 0.00017087098, -596197.5, -52983.086, 0.0, 10.005839, 9.9134035 
5.695419e+3, 2.5448355e+2, -497483.47, -568093.2, -22.679878, 0.00080367835, -0.0000126198, -497483.47, -51421.574, 0.0, 10.005835, 9.913302 
5.6954175e+3, 2.6439e+2, -409291.8, -490803.2, -7.3919168, 0.000803489, 0.00023120902, -409291.8, -60312.926, 0.0, 10.00583, 9.89921 
5.695417e+3, 2.7428973e+2, -310044.88, -391226.13, -17.617626, 0.00080278295, -0.000118144795, -310044.88, -58083.625, 0.0, 10.005825, 9.899629 
5.695416e+3, 2.841813e+2, -223520.17, -317809.0, -2.486658, 0.0008021999, 0.0003116813, -223520.17, -68496.43, 0.0, 10.005821, 9.882785 
5.695416e+3, 2.9406515e+2, -123844.68, -217513.89, -12.160066, 0.00080178125, -0.00016983009, -123844.67, -65682.6, 0.0, 10.005818, 9.883572 
5.695415e+3, 3.039768e+2, -34356.805, -84930.195, 2.5386603, 0.000801491, 0.00025240623, -34356.805, -34356.805, 0.0, 10.005815, 9.939252 
5.6954145e+3, 3.139179e+2, -33305.707, -82738.11, -6.617307, 0.00080138736, 0.00001245881, -33305.703, -33305.703, 0.0, 10.005812, 9.940733 
5.7054377e+3, 1.2509312e+2, -1712369.8, -1723194.9, 4.0241847, 0.0008178392, 0.0001768482, -1712369.8, 1718.8265, 0.0, 10.00606, 9.991712 
5.705436e+3, 1.3508467e+2, -1615036.0, -1626447.3, -7.4620776, 0.0008166917, -0.00000301286, -1615036.0, 1135.2299, 0.0, 10.006052, 9.990929 
5.705435e+3, 1.450697e+2, -1526974.4, -1547201.4, -2.0578978, 0.0008159333, 0.00025775033, -1526974.4, -8656.47, 0.0, 10.006043, 9.979246 
5.705434e+3, 1.5504892e+2, -1429293.0, -1449916.9, -13.910841, 0.00081553665, 0.00006816727, -1429292.9, -8771.3545, 0.0, 10.006035, 9.978715 
5.705433e+3, 1.6502152e+2, -1341292.4, -1371111.4, -9.170103, 0.00081507943, 0.00014982173, -1341292.3, -18502.293, 0.0, 10.006027, 9.966614 
5.7054317e+3, 1.749882e+2, -1243378.9, -1273508.6, -20.108355, 0.00081456586, 0.000045814606, -1243378.9, -18262.184, 0.0, 10.006021, 9.9662 
5.7054305e+3, 1.8494816e+2, -1155417.1, -1195117.8, -12.997552, 0.00081394386, 0.00018953362, -1155417.1, -27908.186, 0.0, 10.006013, 9.953659 
5.70543e+3, 1.9490185e+2, -1057311.3, -1097269.5, -24.810352, 0.00081320794, 0.00005544362, -1057311.3, -27348.459, 0.0, 10.006005, 9.953315 
5.705429e+3, 2.0484887e+2, -969186.8, -1018919.56, -13.75001, 0.0008128014, 0.00017562656, -969186.8, -36704.92, 0.0, 10.005999, 9.940546 
5.7054275e+3, 2.1478947e+2, -870941.75, -920931.75, -25.5277, 0.00081273954, -0.000019709982, -870941.7, -35877.55, 0.0, 10.005992, 9.940205 
5.705427e+3, 2.2472334e+2, -782695.0, -842716.75, -12.745531, 0.0008122171, 0.00022559716, -782695.0, -44982.9, 0.0, 10.005985, 9.927154 
5.7054263e+3, 2.3465055e+2, -684302.4, -744575.2, -24.120323, 0.00081118563, 0.000011281853, -684302.4, -43877.047, 0.0, 10.00598, 9.926823 
5.705425e+3, 2.4457082e+2, -596017.0, -666678.1, -10.168832, 0.0008106962, 0.0001712753, -596017.0, -52810.277, 0.0, 10.005974, 9.913372 
5.7054245e+3, 2.5448433e+2, -497304.78, -568039.44, -21.199707, 0.0008108364, -0.000012425592, -497304.78, -51250.28, 0.0, 10.005968, 9.913271 
5.7054234e+3, 2.643907e+2, -409114.3, -490750.47, -5.836593, 0.0008105733, 0.0002314732, -409114.3, -60142.523, 0.0, 10.005963, 9.8991785 
5.705423e+3, 2.7429044e+2, -309868.56, -391174.5, -16.538855, 0.00080980547, -0.000117462376, -309868.56, -57914.11, 0.0, 10.005959, 9.899597 
5.705422e+3, 2.8418198e+2, -223344.44, -317756.97, -1.38947, 0.0008092363, 0.00031233928, -223344.44, -68327.164, 0.0, 10.005954, 9.882754 
5.7054216e+3, 2.940658e+2, -123671.18, -217463.4, -10.836682, 0.0008089329, -0.00016979138, -123671.18, -65515.28, 0.0, 10.00595, 9.883541 
5.705421e+3, 3.0397743e+2, -34187.9, -84885.33, 3.9458418, 0.000808661, 0.00025234398, -34187.9, -34187.9, 0.0, 10.005946, 9.9392185 
5.7054204e+3, 3.139185e+2, -33137.742, -82694.01, -5.72782, 0.0008084334, 0.000013057187, -33137.74, -33137.74, 0.0, 10.005942, 9.9407 
5.7154435e+3, 1.2509428e+2, -1712394.0, -1723243.8, 1.1474735, 0.0008256567, 0.00017728088, -1712394.0, 1683.1982, 0.0, 10.006062, 9.991681 
5.7154423e+3, 1.3508582e+2, -1615060.0, -1626495.9, -10.345633, 0.0008235163, -0.000002029635, -1615060.0, 1100.1044, 0.0, 10.006053, 9.990898 
5.715442e+3, 1.450708e+2, -1526998.9, -1547250.9, -5.149052, 0.00082269637, 0.0002586728, -1526998.9, -8691.686, 0.0, 10.006045, 9.979215 
5.71544e+3, 1.5505e+2, -1429317.1, -1449966.1, -16.990454, 0.00082313956, 0.00006843624, -1429317.0, -8805.934, 0.0, 10.006037, 9.978683 
5.715439e+3, 1.6502257e+2, -1341314.1, -1371156.4, -11.84427, 0.00082269136, 0.0001500426, -1341314.1, -18534.225, 0.0, 10.006029, 9.966585 
5.715438e+3, 1.749892e+2, -1243400.4, -1273553.4, -22.784914, 0.0008213692, 0.00004658376, -1243400.4, -18293.62, 0.0, 10.0060215, 9.966171 
5.715437e+3, 1.8494914e+2, -1155440.5, -1195166.3, -15.721778, 0.0008207914, 0.00019034998, -1155440.5, -27941.145, 0.0, 10.006014, 9.953628 
5.715436e+3, 1.9490281e+2, -1057334.3, -1097317.6, -27.53983, 0.0008209619, 0.000055800483, -1057334.3, -27380.826, 0.0, 10.006007, 9.953284 
5.715435e+3, 2.048498e+2, -969210.06, -1018968.25, -16.16824, 0.0008204769, 0.00017585616, -969210.0, -36737.113, 0.0, 10.006, 9.940515 
5.715434e+3, 2.1479034e+2, -870964.7, -920980.2, -27.937666, 0.00081930315, -0.000019259127, -870964.6, -35909.152, 0.0, 10.005994, 9.940173 
5.7154334e+3, 2.247242e+2, -782717.5, -842764.56, -14.955613, 0.0008187519, 0.00022625041, -782717.5, -45013.77, 0.0, 10.005987, 9.927122 
5.715432e+3, 2.3465139e+2, -684324.7, -744622.75, -26.331663, 0.0008188827, 0.000012116814, -684324.7, -43907.36, 0.0, 10.005981, 9.926791 
5.715431e+3, 2.4457161e+2, -596039.1, -666725.75, -12.249234, 0.00081858475, 0.00017176452, -596039.1, -52840.14, 0.0, 10.005975, 9.913341 
5.7154304e+3, 2.5448507e+2, -497326.6, -568086.7, -23.275475, 0.0008177859, -0.000012895892, -497326.56, -51279.508, 0.0, 10.00597, 9.9132395 
5.71543e+3, 2.6439142e+2, -409136.28, -490798.34, -7.495893, 0.0008171628, 0.00023134885, -409136.28, -60171.59, 0.0, 10.005964, 9.899147 
5.7154286e+3, 2.7429113e+2, -309890.3, -391222.16, -18.176212, 0.00081675645, -0.0001156171, -309890.28, -57942.652, 0.0, 10.0059595, 9.899565 
5.715428e+3, 2.8418264e+2, -223364.7, -317801.88, -2.9457784, 0.0008165324, 0.00031396968, -223364.7, -68353.94, 0.0, 10.005956, 9.882725 
5.7154274e+3, 2.940664e+2, -123691.05, -217507.78, -12.382964, 0.00081654947, -0.00017130941, -123691.04, -65541.34, 0.0, 10.005951, 9.883512 
5.715427e+3, 3.0397803e+2, -34209.676, -84933.84, 2.6648457, 0.0008160976, 0.00025063945, -34209.676, -34209.676, 0.0, 10.005947, 9.939185 
5.715426e+3, 3.1391907e+2, -33159.742, -82743.02, -6.999585, 0.000814961, 0.000015507145, -33159.742, -33159.742, 0.0, 10.005944, 9.940666 
5.72545e+3, 1.2509546e+2, -1712189.0, -1723170.1, 4.395337, 0.00083272817, 0.00017778766, -1712189.0, 1876.7104, 0.0, 10.006204, 9.99165 
5.725448e+3, 1.3508694e+2, -1614858.1, -1626424.4, -7.482394, 0.0008309908, -0.0000013063787, -1614858.1, 1290.8779, 0.0, 10.006195, 9.990867 
5.7254475e+3, 1.4507191e+2, -1526798.8, -1547181.0, -2.4178193, 0.00083018345, 0.0002594085, -1526798.8, -8502.409, 0.0, 10.0061865, 9.979183 
5.7254463e+3, 1.5505107e+2, -1429117.9, -1449897.3, -14.301889, 0.0008302613, 0.00006898604, -1429117.9, -8617.262, 0.0, 10.006178, 9.978652 
5.725445e+3, 1.6502361e+2, -1341114.4, -1371085.0, -9.096672, 0.00082976464, 0.00015050417, -1341114.4, -18344.78, 0.0, 10.006169, 9.966556 
5.725444e+3, 1.7499022e+2, -1243203.3, -1273483.9, -20.271332, 0.0008287056, 0.000047053538, -1243203.3, -18106.436, 0.0, 10.006162, 9.966142 
5.725443e+3, 1.8495013e+2, -1155247.1, -1195102.0, -13.374069, 0.000828175, 0.00019087558, -1155247.1, -27757.45, 0.0, 10.006154, 9.953595 
5.725442e+3, 1.9490376e+2, -1057142.5, -1097254.8, -25.493862, 0.0008281746, 0.0000564299, -1057142.4, -27198.346, 0.0, 10.0061455, 9.953252 
5.725441e+3, 2.048507e+2, -969019.5, -1018906.6, -14.009144, 0.00082761806, 0.00017645425, -969019.5, -36555.652, 0.0, 10.006139, 9.940482 
5.72544e+3, 2.1479122e+2, -870775.8, -920919.9, -25.855675, 0.0008264769, -0.00001883396, -870775.75, -35729.004, 0.0, 10.006131, 9.940142 
5.725439e+3, 2.2472505e+2, -782530.4, -842705.7, -12.968133, 0.000825979, 0.00022662272, -782530.4, -44835.043, 0.0, 10.0061245, 9.927091 
5.725438e+3, 2.346522e+2, -684140.0, -744565.56, -24.651268, 0.00082618603, 0.000012568206, -684140.0, -43730.78, 0.0, 10.006118, 9.926759 
5.725437e+3, 2.445724e+2, -595855.7, -666669.56, -10.447416, 0.00082584296, 0.00017226065, -595855.7, -52664.51, 0.0, 10.006111, 9.913308 
5.725437e+3, 2.5448582e+2, -497143.9, -568031.4, -21.64727, 0.00082485774, -0.000012395198, -497143.9, -51104.316, 0.0, 10.006106, 9.913208 
5.7254356e+3, 2.6439214e+2, -408955.28, -490744.88, -5.910707, 0.000824213, 0.0002318041, -408955.28, -59997.76, 0.0, 10.006101, 9.899115 
5.725435e+3, 2.7429184e+2, -309712.03, -391170.63, -16.805166, 0.00082399015, -0.0001152688, -309712.03, -57771.254, 0.0, 10.006095, 9.899533 
5.725434e+3, 2.8418332e+2, -223186.73, -317748.66, -1.4694643, 0.0008238333, 0.00031428188, -223186.73, -68182.516, 0.0, 10.006089, 9.882694 
5.725434e+3, 2.9406705e+2, -123514.35, -217455.55, -10.972246, 0.0008237611, -0.0001709395, -123514.35, -65370.902, 0.0, 10.006085, 9.883481 
5.7254326e+3, 3.0397865e+2, -34037.773, -84889.08, 4.095723, 0.00082319917, 0.00025105325, -34037.773, -34037.773, 0.0, 10.006082, 9.939151 
5.725432e+3, 3.139196e+2, -32987.938, -82698.81, -6.130215, 0.0008219231, 0.000015947, -32987.938, -32987.938, 0.0, 10.006078, 9.940631 
5.7354563e+3, 1.2509662e+2, -1712214.1, -1723220.6, 1.0520077, 0.00083918584, 0.00017835821, -1712214.1, 1840.0487, 0.0, 10.006206, 9.991618 
5.7354546e+3, 1.350881e+2, -1614882.9, -1626474.6, -10.811816, 0.0008390214, -0.0000008016355, -1614882.9, 1254.8099, 0.0, 10.006197, 9.990834 
5.7354534e+3, 1.4507303e+2, -1526823.1, -1547230.6, -5.445699, 0.0008382881, 0.00025998717, -1526823.1, -8537.749, 0.0, 10.006188, 9.979152 
5.735452e+3, 1.5505216e+2, -1429142.0, -1449946.6, -17.339195, 0.0008369896, 0.00006977333, -1429142.0, -8652.018, 0.0, 10.00618, 9.978621 
5.735451e+3, 1.6502465e+2, -1341136.6, -1371131.0, -12.1328125, 0.0008363969, 0.00015116976, -1341136.6, -18377.33, 0.0, 10.006171, 9.966526 
5.7354504e+3, 1.7499124e+2, -1243225.3, -1273529.6, -23.302212, 0.00083650125, 0.00004727251, -1243225.3, -18138.443, 0.0, 10.006164, 9.966112 
5.735449e+3, 1.8495113e+2, -1155271.0, -1195151.8, -16.201557, 0.0008360194, 0.00019115732, -1155271.0, -27791.098, 0.0, 10.006155, 9.953564 
5.735448e+3, 1.9490473e+2, -1057166.1, -1097304.3, -28.323664, 0.0008349413, 0.000057289275, -1057166.0, -27231.387, 0.0, 10.006147, 9.95322 
5.7354474e+3, 2.0485164e+2, -969042.8, -1018955.6, -16.559797, 0.00083432003, 0.0001773632, -969042.8, -36588.047, 0.0, 10.00614, 9.940451 
5.735446e+3, 2.1479213e+2, -870798.8, -920968.6, -28.406109, 0.00083417626, -0.000018429115, -870798.8, -35760.85, 0.0, 10.006133, 9.940109 
5.735445e+3, 2.2472592e+2, -782553.44, -842754.75, -15.532427, 0.00083380006, 0.00022675961, -782553.44, -44866.61, 0.0, 10.006126, 9.927058 
5.7354444e+3, 2.3465303e+2, -684162.75, -744614.4, -27.213821, 0.000833166, 0.000012696613, -684162.7, -43761.684, 0.0, 10.006119, 9.926727 
5.735443e+3, 2.445732e+2, -595878.06, -666717.8, -12.455008, 0.0008325787, 0.00017276319, -595878.06, -52694.715, 0.0, 10.006113, 9.913277 
5.7354426e+3, 2.544866e+2, -497166.03, -568079.4, -23.642723, 0.00083204394, -0.000011073725, -497166.03, -51133.992, 0.0, 10.006107, 9.913176 
5.735442e+3, 2.6439288e+2, -408977.66, -490793.63, -7.9785204, 0.0008316635, 0.00023274936, -408977.66, -60027.35, 0.0, 10.006102, 9.899082 
5.735441e+3, 2.7429253e+2, -309734.1, -391219.1, -18.862177, 0.00083147205, -0.00011618492, -309734.1, -57800.195, 0.0, 10.006096, 9.899501 
5.73544e+3, 2.8418398e+2, -223207.02, -317793.84, -3.1214209, 0.00083114684, 0.00031348143, -223207.02, -68209.38, 0.0, 10.006091, 9.882664 
5.7354397e+3, 2.9406768e+2, -123534.234, -217500.17, -12.624398, 0.00083063956, -0.00016897169, -123534.23, -65397.086, 0.0, 10.006086, 9.8834505 
5.735439e+3, 3.0397925e+2, -34060.523, -84939.74, 2.8560092, 0.0008300274, 0.00025325874, -34060.523, -34060.523, 0.0, 10.006083, 9.9391165 
5.7354385e+3, 3.139202e+2, -33011.117, -82750.234, -7.278937, 0.0008292636, 0.000014685531, -33011.117, -33011.117, 0.0, 10.00608, 9.940596 
5.745462e+3, 1.2509781e+2, -1712006.1, -1723146.0, 4.406171, 0.00084664806, 0.00017908646, -1712006.1, 2036.3492, 0.0, 10.0063505, 9.991586 
5.745461e+3, 1.3508925e+2, -1614676.9, -1626401.5, -7.4939723, 0.0008462762, -0.00000035151115, -1614676.9, 1449.5509, 0.0, 10.006341, 9.990803 
5.74546e+3, 1.4507414e+2, -1526619.0, -1547159.5, -2.0833585, 0.000845515, 0.00026041397, -1526619.0, -8344.643, 0.0, 10.006332, 9.979119 
5.7454586e+3, 1.5505324e+2, -1428939.9, -1449877.0, -14.434773, 0.0008443614, 0.00007042249, -1428939.9, -8460.589, 0.0, 10.006323, 9.978588 
5.7454574e+3, 1.6502573e+2, -1340934.0, -1371058.5, -9.469406, 0.00084380014, 0.00015187019, -1340934.0, -18185.068, 0.0, 10.006314, 9.966496 
5.745457e+3, 1.7499228e+2, -1243024.5, -1273458.8, -20.71333, 0.00084382494, 0.00004785615, -1243024.5, -17947.842, 0.0, 10.006306, 9.966083 
5.7454556e+3, 1.8495212e+2, -1155074.0, -1195086.5, -13.495303, 0.00084327423, 0.00019166397, -1155074.0, -27603.922, 0.0, 10.006297, 9.953531 
5.745454e+3, 1.9490568e+2, -1056970.5, -1097240.3, -25.866405, 0.0008421376, 0.00005775927, -1056970.5, -27045.35, 0.0, 10.0062895, 9.953188 
5.745453e+3, 2.0485258e+2, -968848.94, -1018892.75, -14.2491, 0.00084158464, 0.00017786342, -968848.94, -36403.36, 0.0, 10.006281, 9.940418 
5.745452e+3, 2.1479303e+2, -870607.8, -920907.75, -26.343178, 0.00084164226, -0.000017828736, -870607.8, -35578.676, 0.0, 10.006273, 9.940077 
5.7454515e+3, 2.247268e+2, -782363.9, -842695.2, -13.326219, 0.0008412049, 0.00022732234, -782363.9, -44685.547, 0.0, 10.006266, 9.927026 
5.74545e+3, 2.3465388e+2, -683973.5, -744555.5, -25.130579, 0.0008402211, 0.000013070429, -683973.44, -43580.645, 0.0, 10.006259, 9.926695 
5.7454497e+3, 2.4457401e+2, -595690.3, -666660.3, -10.465111, 0.00083961425, 0.00017314445, -595690.3, -52514.88, 0.0, 10.006252, 9.913244 
5.7454485e+3, 2.544874e+2, -496981.7, -568024.1, -22.037601, 0.0008394438, -0.000010456788, -496981.66, -50957.207, 0.0, 10.006246, 9.913143 
5.745448e+3, 2.6439366e+2, -408794.94, -490739.38, -6.2303314, 0.0008391508, 0.00023331658, -408794.94, -59851.914, 0.0, 10.006239, 9.89905 
5.745447e+3, 2.7429324e+2, -309552.13, -391165.72, -16.939053, 0.00083870225, -0.00011602204, -309552.13, -57625.17, 0.0, 10.006233, 9.899468 
5.745446e+3, 2.8418466e+2, -223025.3, -317740.25, -1.1965319, 0.0008382235, 0.00031367244, -223025.3, -68034.305, 0.0, 10.006228, 9.882632 
5.745446e+3, 2.9406837e+2, -123354.234, -217447.9, -11.56498, 0.00083770254, -0.00016817276, -123354.234, -65223.418, 0.0, 10.006224, 9.883419 
5.745445e+3, 3.0397984e+2, -33885.316, -84893.0, 3.910387, 0.0008371919, 0.00025403048, -33885.316, -33885.316, 0.0, 10.006219, 9.939082 
5.745444e+3, 3.1392077e+2, -32838.324, -82704.95, -5.376985, 0.000836696, 0.00001450274, -32838.324, -32838.324, 0.0, 10.006214, 9.940561 
5.755468e+3, 1.2509902e+2, -1712031.3, -1723196.6, 0.87823683, 0.00085496064, 0.00017994689, -1712031.3, 1999.4664, 0.0, 10.006352, 9.991554 
5.7554674e+3, 1.3509043e+2, -1614701.6, -1626451.9, -11.021171, 0.0008528929, 0.000000055277557, -1614701.6, 1413.3253, 0.0, 10.006343, 9.99077 
5.755466e+3, 1.4507529e+2, -1526644.4, -1547211.0, -5.340453, 0.0008520192, 0.0002607162, -1526644.4, -8381.1045, 0.0, 10.006333, 9.979086 
5.755465e+3, 1.5505433e+2, -1428965.0, -1449928.3, -17.679207, 0.0008522833, 0.00007095647, -1428965.0, -8496.484, 0.0, 10.006325, 9.978555 
5.755464e+3, 1.650268e+2, -1340956.3, -1371104.8, -12.694828, 0.00085185963, 0.0001525999, -1340956.3, -18217.861, 0.0, 10.006316, 9.966467 
5.7554626e+3, 1.7499332e+2, -1243046.5, -1273504.6, -23.948492, 0.00085076346, 0.000048746606, -1243046.5, -17980.043, 0.0, 10.006308, 9.966053 
5.7554615e+3, 1.8495312e+2, -1155098.4, -1195137.1, -16.414547, 0.000850046, 0.0001923606, -1155098.4, -27638.16, 0.0, 10.006299, 9.953498 
5.75546e+3, 1.9490667e+2, -1056994.6, -1097290.6, -28.778173, 0.0008497062, 0.000057903882, -1056994.6, -27079.033, 0.0, 10.00629, 9.953155 
5.7554597e+3, 2.0485352e+2, -968872.75, -1018942.75, -17.2306, 0.0008493323, 0.0001780218, -968872.75, -36436.36, 0.0, 10.006283, 9.940386 
5.7554585e+3, 2.1479395e+2, -870631.25, -920957.4, -29.332613, 0.00084892137, -0.000017063647, -870631.2, -35611.004, 0.0, 10.006274, 9.940044 
5.755457e+3, 2.2472766e+2, -782387.06, -842744.75, -15.713317, 0.00084826985, 0.00022824328, -782387.06, -44717.35, 0.0, 10.006268, 9.926993 
5.7554567e+3, 2.3465472e+2, -683996.44, -744604.75, -27.505884, 0.00084735156, 0.00001365219, -683996.44, -43611.918, 0.0, 10.006261, 9.926662 
5.7554555e+3, 2.4457483e+2, -595713.5, -666710.2, -13.036359, 0.0008469139, 0.00017342521, -595713.5, -52545.977, 0.0, 10.006254, 9.913211 
5.755455e+3, 2.5448817e+2, -497004.47, -568073.7, -24.606173, 0.0008470326, -0.00001043267, -497004.47, -50987.63, 0.0, 10.006247, 9.913111 
5.7554543e+3, 2.6439437e+2, -408816.84, -490787.47, -8.23223, 0.00084667746, 0.00023356611, -408816.84, -59881.133, 0.0, 10.006241, 9.899017 
5.755453e+3, 2.7429396e+2, -309573.75, -391213.44, -18.939367, 0.0008457309, -0.00011494801, -309573.75, -57653.79, 0.0, 10.006235, 9.899436 
5.7554525e+3, 2.8418532e+2, -223047.14, -317788.7, -3.0306196, 0.0008451122, 0.00031470018, -223047.14, -68062.83, 0.0, 10.00623, 9.8826 
5.755452e+3, 2.94069e+2, -123375.83, -217496.13, -13.337006, 0.0008449322, -0.00016836051, -123375.83, -65251.37, 0.0, 10.006225, 9.883387 
5.7554513e+3, 3.0398047e+2, -33906.69, -84940.91, 2.1829011, 0.0008446498, 0.00025359297, -33906.69, -33906.69, 0.0, 10.00622, 9.93905 
5.755451e+3, 3.1392136e+2, -32859.66, -82752.85, -7.16891, 0.00084421365, 0.000015233957, -32859.656, -32859.656, 0.0, 10.006215, 9.940529 
5.765475e+3, 1.2510023e+2, -1711820.5, -1723121.1, 4.493195, 0.00086248637, 0.00018052357, -1711820.5, 2198.3865, 0.0, 10.006499, 9.991522 
5.765474e+3, 1.350916e+2, -1614491.5, -1626377.1, -7.7209797, 0.00086019834, 0.00000085182273, -1614491.5, 1611.9774, 0.0, 10.00649, 9.990738 
5.7654727e+3, 1.4507642e+2, -1526436.1, -1547138.4, -2.2437053, 0.00085930724, 0.00026147751, -1526436.1, -8184.017, 0.0, 10.00648, 9.9790535 
5.7654715e+3, 1.5505545e+2, -1428759.6, -1449857.6, -14.58475, 0.00085975, 0.000071435556, -1428759.6, -8302.082, 0.0, 10.006471, 9.978522 
5.76547e+3, 1.6502787e+2, -1340750.6, -1371031.4, -9.494165, 0.0008593147, 0.00015305408, -1340750.6, -18022.727, 0.0, 10.006461, 9.966436 
5.765469e+3, 1.7499435e+2, -1242841.9, -1273432.4, -21.129398, 0.00085801986, 0.000049428785, -1242841.9, -17785.65, 0.0, 10.006453, 9.9660225 
5.765468e+3, 1.8495415e+2, -1154897.6, -1195070.4, -13.756106, 0.0008573316, 0.00019305717, -1154897.6, -27447.275, 0.0, 10.006443, 9.953465 
5.7654667e+3, 1.9490764e+2, -1056796.9, -1097225.9, -26.173487, 0.00085725135, 0.000058399324, -1056796.9, -26890.828, 0.0, 10.006434, 9.953122 
5.765466e+3, 2.0485447e+2, -968676.5, -1018879.56, -14.521455, 0.00085681764, 0.00017845308, -968676.5, -36249.42, 0.0, 10.006426, 9.940352 
5.765465e+3, 2.1479486e+2, -870435.44, -920894.94, -26.946268, 0.0008560125, -0.000016552965, -870435.4, -35424.188, 0.0, 10.006418, 9.940012 
5.765464e+3, 2.2472854e+2, -782192.75, -842683.4, -13.417833, 0.0008553761, 0.0002288292, -782192.75, -44531.707, 0.0, 10.00641, 9.926961 
5.765463e+3, 2.3465557e+2, -683805.7, -744545.7, -25.447012, 0.00085492234, 0.000014308642, -683805.7, -43429.484, 0.0, 10.006402, 9.926629 
5.765462e+3, 2.4457563e+2, -595524.44, -666652.5, -10.84961, 0.0008545377, 0.0001739442, -595524.44, -52364.98, 0.0, 10.006394, 9.913178 
5.7654613e+3, 2.5448895e+2, -496815.88, -568016.7, -22.361868, 0.00085423124, -0.000010292822, -496815.84, -50806.723, 0.0, 10.006388, 9.913077 
5.765461e+3, 2.6439515e+2, -408629.53, -490732.03, -6.030559, 0.00085372606, 0.00023382145, -408629.53, -59701.184, 0.0, 10.006381, 9.898985 
5.7654595e+3, 2.7429467e+2, -309388.9, -391159.84, -17.569614, 0.0008529711, -0.000113962735, -309388.9, -57476.01, 0.0, 10.006375, 9.899403 
5.765459e+3, 2.8418604e+2, -222862.92, -317733.75, -1.5810753, 0.0008525038, 0.00031559906, -222862.92, -67885.35, 0.0, 10.006369, 9.882568 
5.765458e+3, 2.9406965e+2, -123193.79, -217442.61, -11.013071, 0.0008524201, -0.00016864334, -123193.79, -65075.75, 0.0, 10.006363, 9.883355 
5.765458e+3, 3.0398107e+2, -33729.594, -84894.61, 4.603387, 0.00085203495, 0.00025323144, -33729.594, -33729.594, 0.0, 10.006358, 9.939014 
5.765457e+3, 3.1392196e+2, -32682.193, -82706.836, -6.329539, 0.0008512067, 0.000016409778, -32682.193, -32682.193, 0.0, 10.006353, 9.940494 
5.7754815e+3, 1.2510145e+2, -1711846.3, -1723173.0, 1.115814, 0.00086936797, 0.00018086594, -1711846.3, 2160.7776, 0.0, 10.006501, 9.991488 
5.77548e+3, 1.3509278e+2, -1614517.0, -1626428.8, -11.098915, 0.0008680903, 0.0000019729819, -1614517.0, 1574.8405, 0.0, 10.006492, 9.9907055 
5.775479e+3, 1.4507757e+2, -1526461.5, -1547189.9, -5.9525104, 0.0008672607, 0.00026262124, -1526461.5, -8220.664, 0.0, 10.006482, 9.97902 
5.775478e+3, 1.5505657e+2, -1428784.6, -1449908.9, -18.293646, 0.00086684746, 0.00007187091, -1428784.6, -8338.002, 0.0, 10.006473, 9.97849 
5.7754767e+3, 1.6502896e+2, -1340773.6, -1371079.3, -12.693567, 0.00086627644, 0.00015328087, -1340773.6, -18056.398, 0.0, 10.006463, 9.966406 
5.7754755e+3, 1.7499542e+2, -1242864.8, -1273479.9, -24.32194, 0.0008655539, 0.000049937786, -1242864.8, -17818.836, 0.0, 10.0064535, 9.965992 
5.775475e+3, 1.8495516e+2, -1154922.0, -1195121.3, -17.134726, 0.00086505804, 0.00019375405, -1154922.0, -27481.738, 0.0, 10.006445, 9.953433 
5.775474e+3, 1.9490863e+2, -1056820.9, -1097276.5, -29.564724, 0.0008647863, 0.000059189148, -1056820.9, -26924.611, 0.0, 10.006435, 9.953089 
5.775472e+3, 2.0485543e+2, -968700.8, -1018930.8, -17.347937, 0.0008640938, 0.00017911401, -968700.75, -36283.113, 0.0, 10.006428, 9.940319 
5.7754713e+3, 2.147958e+2, -870459.5, -920945.94, -29.758398, 0.0008629596, -0.00001625342, -870459.5, -35457.32, 0.0, 10.006419, 9.939978 
5.77547e+3, 2.2472945e+2, -782216.44, -842733.9, -16.400303, 0.00086252997, 0.00022913599, -782216.44, -44564.13, 0.0, 10.006412, 9.926928 
5.775469e+3, 2.3465644e+2, -683829.0, -744595.9, -28.43749, 0.0008628704, 0.000015027321, -683829.0, -43461.23, 0.0, 10.006404, 9.926596 
5.775469e+3, 2.4457647e+2, -595547.3, -666702.06, -13.271992, 0.00086244085, 0.00017466299, -595547.3, -52395.93, 0.0, 10.006396, 9.913145 
5.775468e+3, 2.5448972e+2, -496838.47, -568065.94, -24.775894, 0.00086111506, -0.000010052219, -496838.44, -50837.074, 0.0, 10.00639, 9.913045 
5.7754666e+3, 2.643959e+2, -408653.03, -490783.4, -8.37668, 0.0008603873, 0.00023408457, -408653.03, -59732.105, 0.0, 10.006383, 9.898951 
5.775466e+3, 2.7429542e+2, -309412.16, -391211.0, -19.882265, 0.0008603996, -0.00011305536, -309412.16, -57506.36, 0.0, 10.006376, 9.899368 
5.7754654e+3, 2.8418672e+2, -222883.17, -317779.1, -3.6890404, 0.00086032617, 0.00031638704, -222883.17, -67912.375, 0.0, 10.006371, 9.882538 
5.775464e+3, 2.940703e+2, -123213.5, -217487.17, -13.157945, 0.00086013303, -0.00016899868, -123213.5, -65101.938, 0.0, 10.006365, 9.883326 
5.7754636e+3, 3.0398172e+2, -33753.49, -84947.984, 2.9545329, 0.00085936865, 0.00025294122, -33753.49, -33753.49, 0.0, 10.006359, 9.938977 
5.7754636e+3, 3.1392255e+2, -32706.63, -82761.266, -7.8671007, 0.0008577726, 0.00001795226, -32706.629, -32706.629, 0.0, 10.006355, 9.940455 
5.785488e+3, 1.2510267e+2, -1711629.6, -1723095.1, 4.941083, 0.0008764777, 0.00018149876, -1711629.6, 2365.3955, 0.0, 10.006652, 9.991456 
5.7854867e+3, 1.3509397e+2, -1614305.0, -1626354.0, -7.5066423, 0.0008758129, 0.0000025286183, -1614305.0, 1775.1287, 0.0, 10.00664, 9.990672 
5.7854855e+3, 1.4507873e+2, -1526251.5, -1547116.8, -2.3245118, 0.00087501865, 0.00026320692, -1526251.5, -8022.098, 0.0, 10.00663, 9.978988 
5.7854843e+3, 1.550577e+2, -1428574.6, -1449836.3, -14.977502, 0.000874083, 0.000072589115, -1428574.6, -8139.032, 0.0, 10.006621, 9.9784565 
5.785483e+3, 1.6503006e+2, -1340563.0, -1371003.9, -9.526511, 0.0008734692, 0.00015396214, -1340563.0, -17856.533, 0.0, 10.006611, 9.966375 
5.785482e+3, 1.7499648e+2, -1242657.8, -1273407.1, -21.195618, 0.0008731749, 0.00005041621, -1242657.8, -17622.281, 0.0, 10.006601, 9.965961 
5.785481e+3, 1.8495621e+2, -1154719.0, -1195054.1, -13.99548, 0.0008726867, 0.00019422323, -1154719.0, -27288.861, 0.0, 10.006592, 9.953399 
5.78548e+3, 1.9490963e+2, -1056618.5, -1097210.1, -26.859303, 0.0008719984, 0.00005984436, -1056618.4, -26731.934, 0.0, 10.006582, 9.953055 
5.785479e+3, 2.048564e+2, -968499.8, -1018865.7, -14.676277, 0.0008712946, 0.00017980342, -968499.8, -36091.605, 0.0, 10.006574, 9.940286 
5.785478e+3, 2.1479672e+2, -870261.8, -920883.0, -27.113216, 0.00087057316, -0.000015688764, -870261.75, -35268.746, 0.0, 10.006564, 9.939944 
5.785477e+3, 2.2473034e+2, -782020.56, -842672.44, -13.716371, 0.00087017, 0.00022958416, -782020.56, -44377.04, 0.0, 10.006556, 9.926894 
5.785476e+3, 2.346573e+2, -683633.94, -744535.4, -26.007196, 0.00087011355, 0.000015368247, -683633.94, -43274.605, 0.0, 10.006548, 9.926562 
5.7854754e+3, 2.445773e+2, -595353.44, -666642.6, -10.841746, 0.00086959166, 0.00017513717, -595353.44, -52210.203, 0.0, 10.00654, 9.913112 
5.785474e+3, 2.5449052e+2, -496647.06, -568008.3, -22.809334, 0.000868527, -0.000009165909, -496647.06, -50653.5, 0.0, 10.006533, 9.913012 
5.785473e+3, 2.6439667e+2, -408463.63, -490727.4, -6.34019, 0.00086791033, 0.0002348058, -408463.63, -59550.21, 0.0, 10.006525, 9.898916 
5.7854724e+3, 2.7429613e+2, -309224.75, -391156.53, -17.402859, 0.00086784735, -0.000113214846, -309224.75, -57326.11, 0.0, 10.006518, 9.899335 
5.785472e+3, 2.841874e+2, -222695.9, -317723.5, -1.1670636, 0.0008676636, 0.00031628562, -222695.9, -67731.94, 0.0, 10.006512, 9.882505 
5.785471e+3, 2.94071e+2, -123027.32, -217432.55, -11.884028, 0.000867314, -0.00016778523, -123027.31, -64922.285, 0.0, 10.006506, 9.883293 
5.78547e+3, 3.0398235e+2, -33572.332, -84900.32, 4.156341, 0.0008665753, 0.00025423293, -33572.332, -33572.332, 0.0, 10.0065, 9.938942 
5.78547e+3, 3.1392312e+2, -32527.28, -82714.9, -5.6457653, 0.0008652699, 0.000017516772, -32527.28, -32527.28, 0.0, 10.0064945, 9.940419 
5.795495e+3, 1.251039e+2, -1711655.9, -1723148.1, 0.70658445, 0.0008837915, 0.00018237329, -1711655.9, 2326.9358, 0.0, 10.006654, 9.991423 
5.795494e+3, 1.3509518e+2, -1614330.9, -1626406.6, -11.722955, 0.0008834042, 0.0000026176924, -1614330.9, 1737.4585, 0.0, 10.006642, 9.990639 
5.795492e+3, 1.4507991e+2, -1526277.4, -1547169.6, -5.724256, 0.0008826234, 0.00026333221, -1526277.4, -8059.419, 0.0, 10.006632, 9.978953 
5.7954913e+3, 1.5505883e+2, -1428600.3, -1449888.8, -18.379921, 0.000881447, 0.00007354256, -1428600.3, -8175.842, 0.0, 10.006623, 9.978422 
5.7954895e+3, 1.6503116e+2, -1340586.1, -1371051.9, -13.331255, 0.0008808678, 0.00015502097, -1340586.1, -17890.484, 0.0, 10.006613, 9.966344 
5.795489e+3, 1.7499755e+2, -1242680.5, -1273454.6, -25.005394, 0.00088087784, 0.000050871455, -1242680.5, -17655.559, 0.0, 10.006602, 9.96593 
5.795488e+3, 1.8495725e+2, -1154744.3, -1195106.8, -17.224459, 0.0008802435, 0.00019450576, -1154744.3, -27324.273, 0.0, 10.006593, 9.953365 
5.7954866e+3, 1.9491065e+2, -1056643.4, -1097262.5, -30.079485, 0.0008789554, 0.000060388367, -1056643.4, -26766.781, 0.0, 10.006584, 9.953021 
5.7954854e+3, 2.0485738e+2, -968524.1, -1018917.06, -18.023552, 0.0008784464, 0.00018051673, -968524.1, -36125.477, 0.0, 10.006576, 9.940252 
5.795484e+3, 2.1479765e+2, -870285.8, -920934.06, -30.473879, 0.0008787506, -0.000014902516, -870285.75, -35301.953, 0.0, 10.006566, 9.939911 
5.7954836e+3, 2.2473125e+2, -782044.6, -842723.9, -16.639732, 0.0008782234, 0.0002301518, -782044.6, -44409.99, 0.0, 10.006557, 9.92686 
5.7954824e+3, 2.3465817e+2, -683657.7, -744586.56, -28.916801, 0.00087678223, 0.000015397562, -683657.7, -43306.92, 0.0, 10.00655, 9.926529 
5.795481e+3, 2.4457814e+2, -595377.2, -666694.06, -13.594575, 0.00087612955, 0.00017540946, -595377.2, -52242.184, 0.0, 10.006542, 9.913077 
5.7954806e+3, 2.5449133e+2, -496670.56, -568059.5, -25.551567, 0.0008763899, -0.000007744049, -496670.56, -50684.887, 0.0, 10.006535, 9.912977 
5.79548e+3, 2.6439744e+2, -408486.22, -490777.03, -8.905535, 0.0008761609, 0.00023590737, -408486.22, -59580.355, 0.0, 10.006527, 9.898884 
5.795479e+3, 2.7429688e+2, -309246.94, -391205.78, -19.979624, 0.00087532104, -0.00011425689, -309246.94, -57355.527, 0.0, 10.00652, 9.899302 
5.795478e+3, 2.8418812e+2, -222718.3, -317773.44, -3.3336852, 0.00087460777, 0.00031544943, -222718.3, -67761.22, 0.0, 10.006514, 9.882471 
5.7954776e+3, 2.9407164e+2, -123049.47, -217482.27, -13.988996, 0.00087406376, -0.00016526911, -123049.47, -64951.016, 0.0, 10.006508, 9.88326 
5.795477e+3, 3.03983e+2, -33594.66, -84950.5, 2.2106326, 0.00087368814, 0.0002568368, -33594.66, -33594.66, 0.0, 10.006502, 9.938908 
5.795476e+3, 3.1392375e+2, -32549.69, -82765.2, -7.6036777, 0.00087355345, 0.00001543931, -32549.69, -32549.69, 0.0, 10.006496, 9.940385 
5.8055013e+3, 1.2510516e+2, -1711438.6, -1723070.4, 4.6884522, 0.0008917661, 0.0001831001, -1711438.6, 2531.9485, 0.0, 10.006805, 9.991389 
5.8055e+3, 1.3509639e+2, -1614112.8, -1626328.9, -7.827331, 0.00089052477, 0.0000032886846, -1614112.8, 1943.6915, 0.0, 10.006796, 9.990605 
5.805499e+3, 1.4508109e+2, -1526061.3, -1547094.1, -1.9039884, 0.0008896901, 0.00026394555, -1526061.3, -7854.841, 0.0, 10.006784, 9.97892 
5.805498e+3, 1.5505998e+2, -1428388.6, -1449816.1, -14.844988, 0.0008892306, 0.00007409596, -1428388.6, -7975.358, 0.0, 10.006773, 9.978389 
5.8054966e+3, 1.6503227e+2, -1340374.0, -1370976.3, -9.879571, 0.0008887125, 0.00015561329, -1340374.0, -17689.273, 0.0, 10.0067625, 9.966312 
5.8054954e+3, 1.7499864e+2, -1242468.6, -1273379.8, -21.81056, 0.0008881408, 0.00005159959, -1242468.6, -17454.266, 0.0, 10.006753, 9.965899 
5.805494e+3, 1.849583e+2, -1154536.1, -1195037.5, -14.009676, 0.0008874342, 0.00019519792, -1154536.1, -27126.469, 0.0, 10.006743, 9.953331 
5.805493e+3, 1.9491167e+2, -1056438.6, -1097195.6, -26.909142, 0.00088658667, 0.000060871742, -1056438.6, -26571.912, 0.0, 10.006733, 9.952988 
5.8054924e+3, 2.0485835e+2, -968321.25, -1018851.6, -14.921203, 0.0008861534, 0.00018096121, -968321.25, -35932.223, 0.0, 10.006723, 9.940218 
5.805491e+3, 2.1479861e+2, -870084.2, -920869.8, -27.793398, 0.0008861519, -0.000014319372, -870084.1, -35109.633, 0.0, 10.006714, 9.9398775 
5.80549e+3, 2.2473216e+2, -781844.2, -842660.7, -13.879654, 0.00088552275, 0.00023080922, -781844.2, -44218.54, 0.0, 10.006705, 9.9268265 
5.8054894e+3, 2.3465905e+2, -683459.25, -744524.94, -26.275894, 0.00088420237, 0.000016058762, -683459.2, -43117.082, 0.0, 10.006697, 9.926495 
5.805488e+3, 2.4457897e+2, -595180.75, -666634.1, -10.981545, 0.00088362664, 0.00017592532, -595180.75, -52054.04, 0.0, 10.006688, 9.913044 
5.805487e+3, 2.5449213e+2, -496476.66, -568001.4, -23.026863, 0.00088391313, -0.00000754635, -496476.66, -50498.94, 0.0, 10.00668, 9.912943 
5.8054864e+3, 2.6439822e+2, -408293.66, -490719.9, -6.299977, 0.00088363467, 0.00023621331, -408293.66, -59395.42, 0.0, 10.006672, 9.8988495 
5.805486e+3, 2.742976e+2, -309055.38, -391149.66, -17.976675, 0.00088265137, -0.00011331411, -309055.38, -57171.246, 0.0, 10.006664, 9.899267 
5.8054847e+3, 2.8418884e+2, -222527.31, -317717.06, -1.3172055, 0.0008819233, 0.00031634534, -222527.31, -67577.21, 0.0, 10.006658, 9.882439 
5.805484e+3, 2.9407233e+2, -122861.07, -217427.64, -11.562837, 0.00088153686, -0.00016533592, -122861.07, -64769.25, 0.0, 10.006651, 9.883226 
5.8054835e+3, 3.0398363e+2, -33411.3, -84901.734, 4.7129016, 0.00088120374, 0.0002566403, -33411.3, -33411.3, 0.0, 10.006644, 9.938871 
5.805483e+3, 3.1392434e+2, -32367.672, -82717.39, -5.840305, 0.00088094303, 0.000016333044, -32367.672, -32367.672, 0.0, 10.006639, 9.940349 
5.8155084e+3, 1.2510641e+2, -1711465.0, -1723123.6, 0.96339566, 0.00090029294, 0.00018370639, -1711465.0, 2493.3125, 0.0, 10.006807, 9.991355 
5.8155066e+3, 1.3509762e+2, -1614138.9, -1626381.9, -11.563006, 0.00089727284, 0.0000044412027, -1614138.9, 1905.5704, 0.0, 10.006797, 9.990572 
5.815506e+3, 1.4508228e+2, -1526087.8, -1547148.1, -6.1259627, 0.0008963296, 0.00026496316, -1526087.8, -7893.0825, 0.0, 10.006786, 9.978886 
5.815504e+3, 1.5506114e+2, -1428414.8, -1449869.9, -19.04681, 0.0008973701, 0.00007432102, -1428414.8, -8012.834, 0.0, 10.006775, 9.978354 
5.8155036e+3, 1.650334e+2, -1340397.5, -1371025.1, -13.432703, 0.0008969338, 0.00015582223, -1340397.5, -17723.787, 0.0, 10.006764, 9.966281 
5.815502e+3, 1.7499973e+2, -1242491.9, -1273428.4, -25.370249, 0.00089505425, 0.00005255374, -1242491.9, -17488.262, 0.0, 10.006755, 9.965867 
5.815501e+3, 1.8495935e+2, -1154561.4, -1195090.4, -17.769268, 0.00089433737, 0.00019622917, -1154561.4, -27162.13, 0.0, 10.006744, 9.953297 
5.8155e+3, 1.9491269e+2, -1056463.5, -1097248.0, -30.672808, 0.00089478615, 0.00006130736, -1056463.5, -26606.906, 0.0, 10.006735, 9.952953 
5.815499e+3, 2.0485935e+2, -968346.4, -1018904.7, -18.312107, 0.0008943288, 0.00018118601, -968346.4, -35967.023, 0.0, 10.006724, 9.940184 
5.8154976e+3, 2.1479955e+2, -870108.94, -920922.56, -31.173538, 0.00089292316, -0.000013903223, -870108.94, -35143.773, 0.0, 10.006716, 9.939842 
5.8154964e+3, 2.2473308e+2, -781868.44, -842712.7, -16.99215, 0.0008922115, 0.00023154136, -781868.44, -44251.816, 0.0, 10.006706, 9.926792 
5.815496e+3, 2.3465994e+2, -683483.25, -744576.56, -29.391218, 0.00089225697, 0.00001724358, -683483.2, -43149.777, 0.0, 10.006699, 9.92646 
5.8154947e+3, 2.4457984e+2, -595204.7, -666685.9, -14.1005535, 0.00089192897, 0.00017664417, -595204.7, -52086.29, 0.0, 10.00669, 9.91301 
5.815494e+3, 2.5449297e+2, -496500.16, -568052.8, -26.143316, 0.00089116534, -0.000008359115, -496500.16, -50530.457, 0.0, 10.006681, 9.912909 
5.815493e+3, 2.64399e+2, -408317.28, -490771.9, -8.847952, 0.00089047576, 0.00023586325, -408317.28, -59426.723, 0.0, 10.006674, 9.898814 
5.815492e+3, 2.7429837e+2, -309078.78, -391201.4, -20.497465, 0.0008898752, -0.000110728164, -309078.78, -57202.008, 0.0, 10.006666, 9.899233 
5.8154917e+3, 2.8418955e+2, -222549.03, -317765.66, -3.8325586, 0.0008895591, 0.00031867446, -222549.03, -67605.945, 0.0, 10.0066595, 9.882405 
5.8154905e+3, 2.94073e+2, -122882.336, -217475.64, -14.07034, 0.0008896206, -0.00016753998, -122882.336, -64797.195, 0.0, 10.006653, 9.883194 
5.8154905e+3, 3.0398428e+2, -33434.734, -84954.44, 2.447332, 0.00088906346, 0.00025412813, -33434.734, -33434.734, 0.0, 10.006646, 9.938835 
5.815489e+3, 3.1392497e+2, -32391.322, -82770.65, -8.107178, 0.0008876014, 0.000019690262, -32391.322, -32391.322, 0.0, 10.0066395, 9.940312 
5.8255154e+3, 1.2510768e+2, -1711241.4, -1723043.3, 5.2419214, 0.0009074682, 0.00018429407, -1711241.4, 2704.4539, 0.0, 10.006964, 9.991321 
5.8255136e+3, 1.3509886e+2, -1613919.5, -1626304.4, -7.687959, 0.00090518576, 0.000005240855, -1613919.5, 2112.8408, 0.0, 10.006951, 9.990538 
5.8255124e+3, 1.4508349e+2, -1525870.4, -1547072.4, -2.3880653, 0.0009042714, 0.00026576832, -1525870.4, -7687.461, 0.0, 10.00694, 9.978851 
5.825511e+3, 1.550623e+2, -1428197.6, -1449794.8, -15.276102, 0.00090465817, 0.00007493181, -1428197.6, -7807.1616, 0.0, 10.006929, 9.97832 
5.82551e+3, 1.6503453e+2, -1340179.9, -1370947.5, -9.542433, 0.0009041456, 0.00015634674, -1340179.9, -17517.307, 0.0, 10.006918, 9.966249 
5.825509e+3, 1.7500085e+2, -1242277.6, -1273353.1, -21.766777, 0.00090275507, 0.00005309808, -1242277.6, -17284.795, 0.0, 10.0069065, 9.965836 
5.8255076e+3, 1.8496044e+2, -1154351.4, -1195020.6, -14.375011, 0.0009021328, 0.00019684626, -1154351.3, -26962.525, 0.0, 10.006896, 9.953262 
5.825507e+3, 1.9491373e+2, -1056254.9, -1097179.6, -27.561668, 0.0009022795, 0.00006205045, -1056254.9, -26408.385, 0.0, 10.006886, 9.952919 
5.825506e+3, 2.0486034e+2, -968139.06, -1018837.7, -15.036397, 0.00090169476, 0.00018187854, -968139.06, -35769.52, 0.0, 10.006876, 9.940149 
5.8255047e+3, 2.1480054e+2, -869903.4, -920857.0, -27.967402, 0.0009003437, -0.0000134456495, -869903.3, -34947.652, 0.0, 10.006866, 9.939808 
5.8255035e+3, 2.2473401e+2, -781664.94, -842648.6, -13.910876, 0.0008997425, 0.00023195196, -781664.94, -44057.41, 0.0, 10.006856, 9.926757 
5.825502e+3, 2.3466083e+2, -683282.8, -744514.7, -26.677094, 0.00089995994, 0.00001781313, -683282.8, -42958.137, 0.0, 10.006846, 9.926426 
5.8255017e+3, 2.445807e+2, -595005.56, -666624.94, -11.255141, 0.0008995758, 0.00017728274, -595005.56, -51895.633, 0.0, 10.006838, 9.912974 
5.8255005e+3, 2.544938e+2, -496301.38, -567992.56, -23.428192, 0.00089849153, -0.000007756185, -496301.38, -50339.785, 0.0, 10.006829, 9.912874 
5.8255e+3, 2.6439977e+2, -408120.38, -490713.88, -6.1839314, 0.0008977485, 0.0002363822, -408120.38, -59237.566, 0.0, 10.006822, 9.89878 
5.825499e+3, 2.7429911e+2, -308885.28, -391145.72, -18.124142, 0.0008974261, -0.000110352106, -308885.28, -57015.938, 0.0, 10.006813, 9.899198 
5.825498e+3, 2.8419027e+2, -222355.89, -317707.8, -1.3656944, 0.00089722127, 0.00031904748, -222355.89, -67419.89, 0.0, 10.006805, 9.882373 
5.8254975e+3, 2.940737e+2, -122690.55, -217418.81, -11.623681, 0.0008971699, -0.00016698474, -122690.55, -64612.17, 0.0, 10.006798, 9.883162 
5.8254963e+3, 3.039849e+2, -33248.246, -84906.15, 4.897274, 0.0008964841, 0.0002547233, -33248.246, -33248.246, 0.0, 10.006791, 9.938798 
5.8254963e+3, 3.1392556e+2, -32204.662, -82722.86, -6.3304806, 0.0008948716, 0.000020120859, -32204.662, -32204.662, 0.0, 10.006785, 9.940274 
5.835522e+3, 1.2510896e+2, -1711268.6, -1723098.3, 0.7889357, 0.0009135527, 0.00018486886, -1711268.6, 2664.6526, 0.0, 10.006966, 9.991286 
5.835521e+3, 1.351001e+2, -1613946.4, -1626359.0, -12.121992, 0.0009140642, 0.0000057512316, -1613946.4, 2073.7188, 0.0, 10.006953, 9.990502 
5.8355194e+3, 1.4508471e+2, -1525896.8, -1547126.1, -6.367826, 0.00091329, 0.00026639944, -1525896.8, -7725.6587, 0.0, 10.006942, 9.978817 
5.835518e+3, 1.550635e+2, -1428223.6, -1449848.3, -19.273703, 0.0009112615, 0.00007586154, -1428223.6, -7844.7124, 0.0, 10.006931, 9.978286 
5.835517e+3, 1.6503568e+2, -1340204.0, -1370997.6, -13.647023, 0.0009105443, 0.00015713296, -1340204.0, -17552.652, 0.0, 10.00692, 9.966217 
5.835516e+3, 1.7500195e+2, -1242301.5, -1273403.0, -25.855003, 0.0009111145, 0.000053307518, -1242301.5, -17319.525, 0.0, 10.006908, 9.965803 
5.8355147e+3, 1.849615e+2, -1154377.1, -1195074.5, -18.18741, 0.0009106713, 0.00019712436, -1154377.1, -26998.857, 0.0, 10.006898, 9.953227 
5.8355135e+3, 1.9491476e+2, -1056280.4, -1097233.3, -31.379908, 0.0009092043, 0.0000630471, -1056280.3, -26444.045, 0.0, 10.006887, 9.952884 
5.835513e+3, 2.0486136e+2, -968164.2, -1018890.94, -18.566517, 0.0009084086, 0.00018295659, -968164.2, -35804.555, 0.0, 10.006878, 9.940114 
5.835511e+3, 2.148015e+2, -869928.25, -920910.0, -31.495977, 0.00090831204, -0.000012951728, -869928.25, -34982.098, 0.0, 10.006868, 9.939773 
5.8355105e+3, 2.2473496e+2, -781689.9, -842702.1, -17.52414, 0.0009079787, 0.00023210036, -781689.9, -44091.57, 0.0, 10.006858, 9.926722 
5.8355093e+3, 2.3466174e+2, -683307.4, -744567.8, -30.287493, 0.0009073833, 0.000017877206, -683307.3, -42991.543, 0.0, 10.006848, 9.926391 
5.835508e+3, 2.4458158e+2, -595029.56, -666677.25, -14.175776, 0.0009066935, 0.00017785623, -595029.56, -51928.137, 0.0, 10.00684, 9.91294 
5.8355075e+3, 2.5449464e+2, -496325.16, -568044.56, -26.338158, 0.0009058923, -0.000005985147, -496325.16, -50371.742, 0.0, 10.006831, 9.91284 
5.835507e+3, 2.644006e+2, -408144.6, -490767.06, -9.289786, 0.00090539095, 0.0002376184, -408144.6, -59269.63, 0.0, 10.006824, 9.898744 
5.835506e+3, 2.7429986e+2, -308909.16, -391198.6, -21.212437, 0.0009052576, -0.00011179734, -308909.16, -57047.26, 0.0, 10.006815, 9.899162 
5.835505e+3, 2.84191e+2, -222377.5, -317756.47, -3.982065, 0.0009049148, 0.00031780946, -222377.5, -67448.63, 0.0, 10.006807, 9.88234 
5.8355045e+3, 2.9407442e+2, -122711.7, -217466.86, -14.258121, 0.00090428896, -0.00016415011, -122711.695, -64640.168, 0.0, 10.0068, 9.883128 
5.8355033e+3, 3.039856e+2, -33272.844, -84961.41, 2.7362845, 0.00090355444, 0.00025788357, -33272.844, -33272.844, 0.0, 10.006793, 9.93876 
5.835503e+3, 3.1392622e+2, -32229.783, -82779.016, -8.364073, 0.00090266037, 0.000018134506, -32229.781, -32229.781, 0.0, 10.006787, 9.940236 
5.8455294e+3, 1.2511025e+2, -1711042.5, -1723017.1, 5.248649, 0.000921378, 0.00018566615, -1711042.5, 2878.1184, 0.0, 10.007123, 9.991252 
5.8455276e+3, 1.3510136e+2, -1613722.1, -1626279.5, -7.663835, 0.0009215158, 0.000006178971, -1613722.1, 2285.5903, 0.0, 10.007111, 9.990468 
5.8455265e+3, 1.4508592e+2, -1525674.6, -1547048.8, -1.7787223, 0.00092070684, 0.0002668332, -1525674.6, -7515.6196, 0.0, 10.007098, 9.978782 
5.845525e+3, 1.5506469e+2, -1428003.9, -1449772.6, -15.248129, 0.0009189683, 0.00007666173, -1428003.9, -7636.6396, 0.0, 10.007087, 9.9782505 
5.845524e+3, 1.6503683e+2, -1339983.8, -1370918.9, -9.938864, 0.00091830414, 0.00015797955, -1339983.8, -17343.66, 0.0, 10.007075, 9.966185 
5.845523e+3, 1.7500307e+2, -1242083.1, -1273325.9, -22.120573, 0.0009186961, 0.00005388729, -1242083.1, -17112.254, 0.0, 10.007064, 9.965771 
5.8455217e+3, 1.849626e+2, -1154162.9, -1195003.8, -14.2577505, 0.0009181596, 0.00019761288, -1154162.9, -26795.32, 0.0, 10.007052, 9.953192 
5.8455205e+3, 1.9491582e+2, -1056067.6, -1097163.8, -27.778234, 0.00091668393, 0.00006362117, -1056067.6, -26241.744, 0.0, 10.007042, 9.952848 
5.8455193e+3, 2.0486239e+2, -967953.44, -1018822.6, -15.169199, 0.0009159885, 0.00018359354, -967953.4, -35603.75, 0.0, 10.0070305, 9.940079 
5.845519e+3, 2.1480249e+2, -869720.7, -920843.9, -28.334234, 0.0009161063, -0.000012275766, -869720.7, -34784.16, 0.0, 10.00702, 9.939738 
5.8455175e+3, 2.247359e+2, -781483.9, -842637.5, -14.190284, 0.0009156924, 0.00023271638, -781483.9, -43894.844, 0.0, 10.0070095, 9.926686 
5.8455163e+3, 2.3466265e+2, -683101.5, -744503.8, -27.056978, 0.00091469346, 0.00001832511, -683101.5, -42794.656, 0.0, 10.007001, 9.926355 
5.845516e+3, 2.4458244e+2, -594825.44, -666614.8, -11.054734, 0.00091400114, 0.00017833363, -594825.44, -51732.61, 0.0, 10.006991, 9.912905 
5.8455145e+3, 2.5449547e+2, -496125.0, -567984.7, -23.714823, 0.0009136618, -0.0000052492633, -496125.0, -50179.863, 0.0, 10.006981, 9.912804 
5.845514e+3, 2.644014e+2, -407946.22, -490708.16, -6.500813, 0.00091325515, 0.00023826161, -407946.22, -59079.184, 0.0, 10.006972, 9.898709 
5.845513e+3, 2.7430066e+2, -308711.3, -391140.5, -18.058483, 0.00091276126, -0.00011168191, -308711.3, -56857.0, 0.0, 10.006964, 9.899127 
5.8455116e+3, 2.8419173e+2, -222180.05, -317698.5, -0.8656561, 0.0009122252, 0.0003179955, -222180.05, -67258.414, 0.0, 10.006956, 9.882305 
5.845511e+3, 2.940751e+2, -122516.29, -217410.4, -12.362865, 0.0009116311, -0.00016309341, -122516.29, -64451.656, 0.0, 10.006948, 9.883094 
5.8455104e+3, 3.0398628e+2, -33082.613, -84910.47, 4.562414, 0.0009110586, 0.0002589262, -33082.613, -33082.613, 0.0, 10.006941, 9.938723 
5.84551e+3, 3.1392682e+2, -32042.576, -82729.805, -5.297838, 0.00091051403, 0.00001787383, -32042.576, -32042.576, 0.0, 10.006933, 9.940199 
5.855536e+3, 1.2511156e+2, -1711069.6, -1723072.1, 0.60724956, 0.0009306333, 0.00018664554, -1711069.6, 2838.1023, 0.0, 10.007125, 9.991217 
5.855535e+3, 1.3510263e+2, -1613749.0, -1626334.1, -12.304898, 0.0009278167, 0.000006543027, -1613749.0, 2246.3586, 0.0, 10.0071125, 9.990434 
5.8555335e+3, 1.4508715e+2, -1525702.1, -1547105.0, -6.0562344, 0.0009268315, 0.0002671095, -1525702.1, -7555.2227, 0.0, 10.0071, 9.978745 
5.855532e+3, 1.5506588e+2, -1428031.1, -1449828.5, -19.504877, 0.0009275891, 0.00007735647, -1428031.1, -7675.644, 0.0, 10.007089, 9.978214 
5.855531e+3, 1.6503799e+2, -1340007.8, -1370968.9, -14.226546, 0.00092718675, 0.0001588753, -1340007.8, -17379.072, 0.0, 10.007077, 9.966153 
5.85553e+3, 1.7500421e+2, -1242106.8, -1273375.5, -26.420242, 0.00092565425, 0.00005477191, -1242106.8, -17146.982, 0.0, 10.007066, 9.965739 
5.855529e+3, 1.849637e+2, -1154189.3, -1195058.9, -18.182997, 0.0009248031, 0.00019827613, -1154189.3, -26832.469, 0.0, 10.007054, 9.953156 
5.855528e+3, 1.9491689e+2, -1056093.9, -1097218.8, -31.689526, 0.00092463166, 0.00006385144, -1056093.8, -26278.299, 0.0, 10.007044, 9.952812 
5.8555263e+3, 2.048634e+2, -967979.0, -1018876.9, -19.203705, 0.0009242897, 0.00018387094, -967979.0, -35639.43, 0.0, 10.007032, 9.940043 
5.855525e+3, 2.1480349e+2, -869745.9, -920897.75, -32.378204, 0.00092376815, -0.0000114499235, -869745.9, -34819.08, 0.0, 10.007022, 9.939702 
5.8555245e+3, 2.2473687e+2, -781508.8, -842691.25, -17.567425, 0.0009229893, 0.00023371662, -781508.8, -43929.22, 0.0, 10.007011, 9.926651 
5.8555233e+3, 2.3466358e+2, -683126.3, -744557.4, -30.423069, 0.00092192594, 0.000019090496, -683126.25, -42828.47, 0.0, 10.007003, 9.92632 
5.855523e+3, 2.4458332e+2, -594850.44, -666669.1, -14.679036, 0.0009214792, 0.00017873455, -594850.44, -51766.316, 0.0, 10.006993, 9.9128685 
5.8555216e+3, 2.5449634e+2, -496149.66, -568038.7, -27.328537, 0.00092174386, -0.000005363113, -496149.63, -50212.816, 0.0, 10.006983, 9.912768 
5.8555204e+3, 2.644022e+2, -407969.6, -490759.9, -9.465483, 0.0009213104, 0.00023841877, -407969.56, -59110.52, 0.0, 10.006974, 9.898674 
5.85552e+3, 2.743014e+2, -308734.34, -391191.84, -21.037722, 0.0009200083, -0.00011027996, -308734.34, -56887.676, 0.0, 10.006966, 9.899093 
5.855519e+3, 2.8419247e+2, -222203.89, -317751.78, -3.7368546, 0.00091923564, 0.0003193547, -222203.89, -67289.555, 0.0, 10.006958, 9.88227 
5.855518e+3, 2.9407582e+2, -122539.89, -217463.52, -15.142229, 0.0009191704, -0.00016350114, -122539.89, -64482.195, 0.0, 10.00695, 9.883058 
5.8555174e+3, 3.0398694e+2, -33105.176, -84961.62, 1.7897497, 0.00091893115, 0.00025822595, -33105.176, -33105.176, 0.0, 10.006943, 9.938687 
5.855517e+3, 3.1392747e+2, -32064.975, -82780.766, -8.18321, 0.0009184293, 0.000019039913, -32064.973, -32064.973, 0.0, 10.006935, 9.940164 
5.8655435e+3, 1.2511289e+2, -1710841.0, -1722990.3, 5.3561587, 0.00093846535, 0.00018730183, -1710841.0, 3053.9014, 0.0, 10.007284, 9.991181 
5.8655417e+3, 1.3510391e+2, -1613520.3, -1626252.8, -7.8890586, 0.0009353564, 0.000007402582, -1613520.3, 2462.514, 0.0, 10.007273, 9.990398 
5.865541e+3, 1.450884e+2, -1525475.5, -1547025.8, -1.904624, 0.00093434594, 0.000267924, -1525475.5, -7340.7407, 0.0, 10.00726, 9.97871 
5.8655393e+3, 1.5506709e+2, -1427808.3, -1449751.9, -15.259592, 0.00093533524, 0.000077886434, -1427808.3, -7464.609, 0.0, 10.007247, 9.978179 
5.865539e+3, 1.6503918e+2, -1339784.4, -1370889.3, -9.760927, 0.00093492976, 0.0001593861, -1339784.4, -17167.268, 0.0, 10.007235, 9.96612 
5.865537e+3, 1.7500536e+2, -1241884.1, -1273296.8, -22.411251, 0.00093316403, 0.00005552314, -1241884.1, -16935.6, 0.0, 10.007223, 9.965706 
5.8655363e+3, 1.849648e+2, -1153970.8, -1194986.3, -14.405392, 0.000932352, 0.00019905019, -1153970.8, -26624.922, 0.0, 10.007212, 9.95312 
5.8655345e+3, 1.9491795e+2, -1055878.9, -1097148.5, -27.909164, 0.00093249336, 0.00006442971, -1055878.9, -26073.94, 0.0, 10.007199, 9.952777 
5.865534e+3, 2.0486444e+2, -967765.9, -1018808.25, -15.258387, 0.00093210215, 0.00018436558, -967765.9, -35436.465, 0.0, 10.007188, 9.940008 
5.865533e+3, 2.1480449e+2, -869533.0, -920829.9, -28.78947, 0.0009311535, -0.000010921838, -869533.0, -34616.07, 0.0, 10.007177, 9.939667 
5.865531e+3, 2.2473782e+2, -781297.6, -842624.6, -14.113935, 0.0009303753, 0.00023434694, -781297.6, -43727.47, 0.0, 10.007167, 9.926616 
5.8655304e+3, 2.346645e+2, -682918.94, -744493.25, -27.260622, 0.0009297803, 0.000019898089, -682918.9, -42630.227, 0.0, 10.007156, 9.926284 
5.865529e+3, 2.4458423e+2, -594644.94, -666606.3, -11.37694, 0.0009293776, 0.00017937763, -594644.94, -51569.574, 0.0, 10.007146, 9.912833 
5.8655286e+3, 2.5449717e+2, -495944.6, -567976.7, -23.844103, 0.000929195, -0.000005280247, -495944.6, -50016.207, 0.0, 10.007136, 9.912732 
5.865528e+3, 2.6440305e+2, -407766.13, -490699.88, -6.051882, 0.0009286431, 0.0002386523, -407766.13, -58915.152, 0.0, 10.007127, 9.898638 
5.865527e+3, 2.743022e+2, -308533.78, -391133.88, -18.767845, 0.00092762994, -0.00010901541, -308533.78, -56694.855, 0.0, 10.007118, 9.899056 
5.8655256e+3, 2.8419325e+2, -222003.95, -317692.1, -1.3844279, 0.0009270391, 0.00032050698, -222003.95, -67097.01, 0.0, 10.007109, 9.882236 
5.8655256e+3, 2.9407653e+2, -122342.27, -217405.39, -11.445333, 0.0009270115, -0.00016399076, -122342.27, -64291.613, 0.0, 10.0071, 9.883024 
5.8655244e+3, 3.0398762e+2, -32912.945, -84911.58, 5.5883994, 0.0009265925, 0.0002576458, -32912.945, -32912.945, 0.0, 10.007092, 9.938649 
5.865524e+3, 3.139281e+2, -31872.102, -82730.93, -6.6051483, 0.00092559634, 0.00002063603, -31872.1, -31872.1, 0.0, 10.007085, 9.9401245 
5.8755505e+3, 1.2511422e+2, -1710868.6, -1723046.4, 1.0425444, 0.00094515516, 0.00018769853, -1710868.6, 3013.1614, 0.0, 10.007287, 9.991146 
5.8755493e+3, 1.3510521e+2, -1613547.9, -1626308.8, -12.202239, 0.00094391714, 0.000008663815, -1613547.9, 2422.2063, 0.0, 10.007275, 9.990362 
5.875548e+3, 1.4508966e+2, -1525502.9, -1547081.6, -6.803184, 0.0009430033, 0.00026917507, -1525502.8, -7380.439, 0.0, 10.007262, 9.978674 
5.875547e+3, 1.5506831e+2, -1427835.0, -1449807.3, -20.161472, 0.0009423823, 0.000078285775, -1427835.0, -7503.425, 0.0, 10.007249, 9.978144 
5.875545e+3, 1.6504037e+2, -1339809.1, -1370941.1, -13.931919, 0.00094175903, 0.00015958781, -1339809.1, -17203.732, 0.0, 10.0072365, 9.966086 
5.8755445e+3, 1.750065e+2, -1241908.9, -1273348.4, -26.565464, 0.0009411376, 0.000056166584, -1241908.9, -16971.578, 0.0, 10.007225, 9.9656725 
5.875543e+3, 1.8496592e+2, -1153997.1, -1195041.4, -18.901356, 0.00094065134, 0.00019991447, -1153997.1, -26662.262, 0.0, 10.007214, 9.953085 
5.875542e+3, 1.9491905e+2, -1055904.9, -1097203.3, -32.42023, 0.0009402956, 0.00006529328, -1055904.8, -26110.486, 0.0, 10.007201, 9.952742 
5.875541e+3, 2.048655e+2, -967792.06, -1018863.9, -19.086857, 0.00093952793, 0.00018503983, -967792.0, -35472.926, 0.0, 10.00719, 9.939971 
5.87554e+3, 2.148055e+2, -869559.0, -920885.2, -32.598186, 0.0009383292, -0.0000106337375, -869558.94, -34651.94, 0.0, 10.007179, 9.9396305 
5.8755386e+3, 2.247388e+2, -781323.25, -842679.6, -18.145779, 0.0009378496, 0.00023467735, -781323.25, -43762.66, 0.0, 10.007169, 9.926579 
5.8755374e+3, 2.3466545e+2, -682944.1, -744547.9, -31.299173, 0.00093815225, 0.000020739246, -682944.1, -42664.664, 0.0, 10.007158, 9.926248 
5.875537e+3, 2.4458514e+2, -594669.4, -666659.8, -14.8478, 0.0009376283, 0.00018021876, -594669.4, -51602.906, 0.0, 10.007148, 9.912797 
5.8755356e+3, 2.5449803e+2, -495968.75, -568029.9, -27.31674, 0.0009361453, -0.0000050302256, -495968.75, -50048.875, 0.0, 10.007138, 9.912697 
5.8755344e+3, 2.6440388e+2, -407791.7, -490756.13, -9.451025, 0.0009354018, 0.0002389532, -407791.7, -58948.85, 0.0, 10.007129, 9.898601 
5.875534e+3, 2.7430302e+2, -308559.1, -391189.97, -22.11116, 0.0009355702, -0.00010786914, -308559.1, -56727.95, 0.0, 10.00712, 9.899018 
5.875533e+3, 2.84194e+2, -222025.33, -317740.5, -4.52451, 0.0009355007, 0.00032148513, -222025.33, -67125.83, 0.0, 10.007111, 9.882203 
5.875532e+3, 2.9407728e+2, -122363.0, -217452.83, -14.656269, 0.00093510887, -0.00016453538, -122362.99, -64319.46, 0.0, 10.007102, 9.882992 
5.875532e+3, 3.039883e+2, -32939.074, -84970.41, 2.9283228, 0.00093409256, 0.00025717655, -32939.074, -32939.074, 0.0, 10.007094, 9.938609 
5.875531e+3, 3.1392878e+2, -31898.914, -82791.086, -9.1050415, 0.0009321676, 0.000022573404, -31898.912, -31898.912, 0.0, 10.007087, 9.9400835 
5.885558e+3, 1.2511556e+2, -1710632.6, -1722961.4, 6.003859, 0.00095231377, 0.00018837844, -1710632.6, 3235.9812, 0.0, 10.007451, 9.99111 
5.885557e+3, 1.3510652e+2, -1613318.1, -1626227.6, -7.4021826, 0.0009520163, 0.000009165719, -1613318.1, 2639.0789, 0.0, 10.007436, 9.990327 
5.885556e+3, 1.4509094e+2, -1525275.5, -1547002.6, -1.8590627, 0.00095117826, 0.0002697315, -1525275.5, -7165.6436, 0.0, 10.007422, 9.978639 
5.885554e+3, 1.5506954e+2, -1427606.6, -1449728.1, -15.628724, 0.0009498018, 0.0000791185, -1427606.6, -7287.155, 0.0, 10.007411, 9.978107 
5.885553e+3, 1.6504157e+2, -1339579.9, -1370858.9, -9.621612, 0.00094911305, 0.00016039773, -1339579.9, -16986.232, 0.0, 10.007399, 9.966053 
5.8855516e+3, 1.7500767e+2, -1241684.3, -1273269.3, -22.210413, 0.00094910065, 0.000056662062, -1241684.1, -16758.38, 0.0, 10.007384, 9.965639 
5.8855504e+3, 1.8496706e+2, -1153777.0, -1194968.8, -14.452778, 0.0009486418, 0.00020037912, -1153777.0, -26453.252, 0.0, 10.007372, 9.953049 
5.885549e+3, 1.9492015e+2, -1055684.8, -1097131.1, -28.465496, 0.00094772957, 0.00006601162, -1055684.6, -25901.121, 0.0, 10.00736, 9.952704 
5.885548e+3, 2.0486654e+2, -967573.4, -1018792.9, -15.2180805, 0.0009469294, 0.00018582867, -967573.3, -35264.63, 0.0, 10.007349, 9.939935 
5.885547e+3, 2.1480651e+2, -869344.06, -920816.75, -28.736204, 0.00094624417, -0.000009965266, -869344.06, -34447.082, 0.0, 10.007337, 9.939594 
5.8855456e+3, 2.2473979e+2, -781110.5, -842613.0, -14.206791, 0.00094583037, 0.00023517093, -781110.5, -43559.617, 0.0, 10.007325, 9.926542 
5.885545e+3, 2.3466639e+2, -682732.25, -744482.3, -27.596361, 0.00094571, 0.000020998472, -682732.25, -42462.125, 0.0, 10.007315, 9.926211 
5.885544e+3, 2.4458607e+2, -594458.75, -666595.25, -11.209295, 0.00094507093, 0.00018068188, -594458.75, -51401.246, 0.0, 10.007304, 9.912761 
5.885543e+3, 2.5449893e+2, -495760.7, -567967.2, -24.30689, 0.0009438287, -0.000003856586, -495760.66, -49849.418, 0.0, 10.007294, 9.912661 
5.885542e+3, 2.644047e+2, -407585.78, -490695.25, -6.368657, 0.0009432008, 0.0002399314, -407585.78, -58751.227, 0.0, 10.007284, 9.898563 
5.885541e+3, 2.7430382e+2, -308355.56, -391130.88, -18.306463, 0.00094332936, -0.00010820652, -308355.56, -56532.316, 0.0, 10.007274, 9.898982 
5.88554e+3, 2.8419477e+2, -221822.05, -317680.25, -0.662261, 0.00094315555, 0.00032119782, -221822.05, -66930.086, 0.0, 10.007264, 9.882168 
5.8855397e+3, 2.94078e+2, -122160.82, -217393.58, -12.517735, 0.0009425735, -0.00016294912, -122160.82, -64124.496, 0.0, 10.007256, 9.8829565 
5.8855385e+3, 3.0398902e+2, -32742.352, -84918.664, 4.9327006, 0.0009415848, 0.0002588766, -32742.352, -32742.352, 0.0, 10.007247, 9.93857 
5.885538e+3, 3.139294e+2, -31704.293, -82740.82, -5.5073495, 0.00094000396, 0.00002182367, -31704.293, -31704.293, 0.0, 10.007239, 9.940044 
5.895565e+3, 1.2511691e+2, -1710661.0, -1723018.4, 0.44682008, 0.00095986965, 0.00018928775, -1710661.0, 3194.4006, 0.0, 10.007453, 9.991075 
5.8955646e+3, 1.3510785e+2, -1613345.9, -1626284.3, -12.940775, 0.00095975166, 0.000009058749, -1613345.8, 2598.4565, 0.0, 10.007438, 9.990291 
5.895563e+3, 1.4509222e+2, -1525303.5, -1547060.0, -6.173683, 0.00095897244, 0.00026973107, -1525303.5, -7206.197, 0.0, 10.007424, 9.978601 
5.8955616e+3, 1.550708e+2, -1427634.5, -1449785.4, -19.94068, 0.00095753954, 0.00008030134, -1427634.5, -7327.2344, 0.0, 10.007413, 9.97807 
5.8955604e+3, 1.6504279e+2, -1339604.6, -1370910.5, -14.6272, 0.0009569089, 0.0001616987, -1339604.6, -17022.932, 0.0, 10.0074005, 9.96602 
5.895559e+3, 1.7500885e+2, -1241708.5, -1273320.5, -27.21964, 0.0009570655, 0.000057041376, -1241708.5, -16794.266, 0.0, 10.007387, 9.965606 
5.8955574e+3, 1.8496822e+2, -1153804.3, -1195025.9, -18.64457, 0.0009563923, 0.00020052456, -1153804.3, -26491.67, 0.0, 10.007375, 9.9530115 
5.895557e+3, 1.9492126e+2, -1055711.6, -1097188.0, -32.642796, 0.0009548817, 0.000066613204, -1055711.6, -25938.955, 0.0, 10.007363, 9.952667 
5.8955556e+3, 2.0486763e+2, -967599.56, -1018848.5, -19.67488, 0.00095432805, 0.0001867102, -967599.56, -35301.324, 0.0, 10.007351, 9.9398985 
5.8955544e+3, 2.1480756e+2, -869369.9, -920872.0, -33.210888, 0.00095476897, -0.000008987092, -869369.9, -34483.02, 0.0, 10.0073395, 9.939557 
5.895553e+3, 2.247408e+2, -781136.44, -842668.9, -18.180515, 0.0009542314, 0.00023579969, -781136.44, -43595.316, 0.0, 10.007328, 9.926506 
5.895552e+3, 2.3466736e+2, -682757.9, -744537.8, -31.55203, 0.000952622, 0.000020790487, -682757.9, -42497.14, 0.0, 10.007317, 9.926174 
5.8955514e+3, 2.4458697e+2, -594484.44, -666651.3, -15.007536, 0.00095187424, 0.00018084116, -594484.44, -51436.01, 0.0, 10.007306, 9.912724 
5.89555e+3, 2.5449982e+2, -495786.1, -568022.94, -28.089508, 0.0009521202, -0.0000019376723, -495786.1, -49883.547, 0.0, 10.007296, 9.912623 
5.895549e+3, 2.6440558e+2, -407609.9, -490748.7, -10.04895, 0.0009518551, 0.00024145668, -407609.9, -58783.67, 0.0, 10.007286, 9.898528 
5.8955485e+3, 2.7430463e+2, -308379.2, -391183.8, -22.014961, 0.000950953, -0.00010973762, -308379.2, -56563.918, 0.0, 10.007276, 9.898946 
5.895547e+3, 2.8419554e+2, -221846.39, -317735.03, -3.868425, 0.0009501679, 0.0003198937, -221846.39, -66962.04, 0.0, 10.007266, 9.882131 
5.8955467e+3, 2.9407874e+2, -122184.96, -217448.2, -15.632259, 0.00094953884, -0.00015964115, -122184.96, -64155.914, 0.0, 10.007257, 9.882919 
5.895546e+3, 3.039897e+2, -32765.99, -84972.33, 1.9472697, 0.0009490853, 0.00026232723, -32765.99, -32765.99, 0.0, 10.007249, 9.938533 
5.8955455e+3, 3.139301e+2, -31727.95, -82794.46, -8.534963, 0.00094887934, 0.000018903711, -31727.947, -31727.947, 0.0, 10.007241, 9.940007 
5.9055734e+3, 1.251183e+2, -1710425.8, -1722934.3, 5.630462, 0.0009681961, 0.00018992326, -1710425.8, 3416.1074, 0.0, 10.007617, 9.991037 
5.9055716e+3, 1.3510917e+2, -1613108.5, -1626199.5, -7.936223, 0.00096690713, 0.000009941315, -1613108.5, 2822.7324, 0.0, 10.007605, 9.990254 
5.9055704e+3, 1.4509352e+2, -1525068.4, -1546977.8, -1.2291068, 0.0009661023, 0.00027054863, -1525068.4, -6983.7607, 0.0, 10.00759, 9.978564 
5.9055686e+3, 1.5507206e+2, -1427405.4, -1449706.8, -15.154863, 0.00096574164, 0.00008075387, -1427405.4, -7110.483, 0.0, 10.007576, 9.978034 
5.905568e+3, 1.6504401e+2, -1339375.1, -1370828.6, -9.798004, 0.0009652016, 0.0001621704, -1339375.1, -16805.385, 0.0, 10.007563, 9.965986 
5.905566e+3, 1.7501006e+2, -1241478.1, -1273238.8, -22.700106, 0.0009644913, 0.000057907007, -1241478.1, -16575.55, 0.0, 10.00755, 9.965572 
5.9055656e+3, 1.8496937e+2, -1153577.9, -1194950.6, -14.139323, 0.0009637099, 0.0002013805, -1153577.9, -26276.602, 0.0, 10.007538, 9.952974 
5.905564e+3, 1.9492237e+2, -1055489.3, -1097115.4, -28.144873, 0.00096285145, 0.00006705505, -1055489.3, -25727.557, 0.0, 10.0075245, 9.952631 
5.905563e+3, 2.0486872e+2, -967379.4, -1018777.56, -15.25295, 0.00096240756, 0.00018709553, -967379.4, -35091.754, 0.0, 10.007511, 9.939861 
5.9055614e+3, 2.1480861e+2, -869150.7, -920802.1, -29.269794, 0.00096239394, -0.00000828606, -869150.6, -34274.086, 0.0, 10.0075, 9.939521 
5.90556e+3, 2.247418e+2, -780918.44, -842600.06, -14.205836, 0.00096173247, 0.00023662011, -780918.44, -43387.227, 0.0, 10.007488, 9.926469 
5.9055597e+3, 2.3466833e+2, -682542.2, -744470.8, -27.685871, 0.0009603596, 0.00002151591, -682542.2, -42291.0, 0.0, 10.007477, 9.926138 
5.9055585e+3, 2.4458791e+2, -594271.2, -666586.4, -11.135991, 0.0009597397, 0.00018133782, -594271.2, -51231.934, 0.0, 10.007465, 9.912686 
5.905558e+3, 2.5450072e+2, -495575.72, -567960.06, -24.260384, 0.000959988, -0.0000018241404, -495575.72, -49681.97, 0.0, 10.007454, 9.912586 
5.9055567e+3, 2.6440644e+2, -407400.78, -490686.6, -6.177629, 0.00095962005, 0.00024178161, -407400.78, -58582.984, 0.0, 10.007442, 9.898491 
5.9055555e+3, 2.7430546e+2, -308170.78, -391122.63, -18.93632, 0.00095848483, -0.000108466826, -308170.78, -56363.59, 0.0, 10.007433, 9.89891 
5.905555e+3, 2.8419635e+2, -221638.67, -317673.72, -0.7847416, 0.00095768424, 0.00032105984, -221638.67, -66762.055, 0.0, 10.007423, 9.882094 
5.905554e+3, 2.940795e+2, -121980.44, -217389.0, -11.844675, 0.00095733016, -0.00015998216, -121980.43, -63958.75, 0.0, 10.007413, 9.882884 
5.905553e+3, 3.0399045e+2, -32567.156, -84919.49, 5.7871532, 0.0009569791, 0.00026183316, -32567.156, -32567.156, 0.0, 10.007403, 9.938495 
5.9055525e+3, 3.1393075e+2, -31530.732, -82742.73, -5.857144, 0.0009566232, 0.000020232552, -31530.732, -31530.732, 0.0, 10.007395, 9.939968 
5.9155804e+3, 1.2511967e+2, -1710454.1, -1722992.0, 0.9310277, 0.000977147, 0.00019034174, -1710454.1, 3374.1802, 0.0, 10.007619, 9.991001 
5.91558e+3, 1.3511053e+2, -1613136.8, -1626257.0, -12.64697, 0.00097361754, 0.000011619068, -1613136.6, 2781.273, 0.0, 10.0076065, 9.990218 
5.915578e+3, 1.4509483e+2, -1525096.9, -1547035.9, -6.746535, 0.00097272045, 0.00027202364, -1525096.9, -7025.1113, 0.0, 10.007592, 9.978528 
5.915577e+3, 1.5507333e+2, -1427433.4, -1449764.5, -20.645784, 0.00097432587, 0.00008062277, -1427433.4, -7150.92, 0.0, 10.007578, 9.977997 
5.915575e+3, 1.6504526e+2, -1339400.4, -1370881.5, -14.257116, 0.00097390095, 0.00016197919, -1339400.4, -16842.734, 0.0, 10.007565, 9.965952 
5.9155744e+3, 1.7501126e+2, -1241503.1, -1273291.4, -27.160189, 0.00097150094, 0.00005916426, -1241503.1, -16612.39, 0.0, 10.007552, 9.965538 
5.9155726e+3, 1.8497053e+2, -1153605.1, -1195007.8, -19.032003, 0.00097069837, 0.00020280809, -1153605.1, -26315.322, 0.0, 10.00754, 9.952937 
5.915572e+3, 1.949235e+2, -1055516.1, -1097172.1, -33.040417, 0.0009714909, 0.00006737168, -1055516.1, -25765.482, 0.0, 10.007526, 9.952594 
5.91557e+3, 2.048698e+2, -967406.4, -1018835.1, -19.663229, 0.000971045, 0.00018708543, -967406.4, -35129.51, 0.0, 10.007514, 9.939824 
5.915569e+3, 2.1480966e+2, -869177.4, -920859.4, -33.666443, 0.00096930866, -0.000007806729, -869177.4, -34311.14, 0.0, 10.007502, 9.939483 
5.9155685e+3, 2.2474283e+2, -780944.5, -842656.4, -18.432034, 0.00096852495, 0.0002375953, -780944.5, -43423.305, 0.0, 10.00749, 9.926432 
5.9155667e+3, 2.3466931e+2, -682568.0, -744526.75, -31.918234, 0.0009687768, 0.000022994202, -682568.0, -42326.44, 0.0, 10.007479, 9.926101 
5.915566e+3, 2.4458887e+2, -594296.94, -666642.56, -15.366112, 0.00096847356, 0.00018210836, -594296.94, -51266.92, 0.0, 10.007467, 9.912649 
5.915565e+3, 2.5450164e+2, -495601.0, -568015.9, -28.483501, 0.0009675257, -0.0000031609409, -495601.0, -49716.137, 0.0, 10.007456, 9.912548 
5.915564e+3, 2.6440728e+2, -407426.25, -490743.13, -9.750704, 0.0009666803, 0.0002411432, -407426.25, -58616.98, 0.0, 10.007445, 9.898453 
5.915563e+3, 2.743063e+2, -308196.03, -391178.9, -22.478546, 0.0009659578, -0.000104938554, -308196.03, -56397.027, 0.0, 10.007435, 9.898871 
5.9155625e+3, 2.8419715e+2, -221661.86, -317726.03, -4.4514074, 0.0009656227, 0.0003242154, -221661.86, -66793.055, 0.0, 10.007425, 9.882059 
5.9155613e+3, 2.9408026e+2, -122003.08, -217440.64, -15.513691, 0.00096580107, -0.00016326127, -122003.08, -63988.824, 0.0, 10.007416, 9.882849 
5.915561e+3, 3.0399114e+2, -32592.557, -84977.12, 2.387229, 0.00096520176, 0.00025816492, -32592.557, -32592.557, 0.0, 10.007405, 9.938455 
5.91556e+3, 3.1393147e+2, -31556.385, -82801.03, -9.258482, 0.0009634649, 0.00002499003, -31556.385, -31556.385, 0.0, 10.007397, 9.939928 
5.9255886e+3, 1.2512107e+2, -1710211.3, -1722904.5, 6.254814, 0.0009844154, 0.00019098217, -1710211.3, 3603.3313, 0.0, 10.007789, 9.990964 
5.925587e+3, 1.351119e+2, -1612899.6, -1626173.1, -7.6399636, 0.0009819425, 0.00001243179, -1612899.5, 3005.0347, 0.0, 10.007772, 9.990181 
5.9255856e+3, 1.4509617e+2, -1524861.8, -1546953.8, -1.7840048, 0.0009810416, 0.000272836, -1524861.8, -6803.0522, 0.0, 10.007758, 9.978491 
5.9255844e+3, 1.5507463e+2, -1427197.5, -1449682.5, -15.633507, 0.000981627, 0.00008126785, -1427197.5, -6927.748, 0.0, 10.007745, 9.97796 
5.925583e+3, 1.6504651e+2, -1339163.9, -1370796.8, -8.999242, 0.000981126, 0.0001625518, -1339163.9, -16618.588, 0.0, 10.007731, 9.965918 
5.9255815e+3, 1.7501248e+2, -1241271.0, -1273209.5, -22.159466, 0.0009795695, 0.000059757487, -1241271.0, -16392.188, 0.0, 10.007717, 9.965504 
5.925581e+3, 1.8497172e+2, -1153377.5, -1194932.3, -14.220362, 0.0009789385, 0.00020345577, -1153377.5, -26099.361, 0.0, 10.007704, 9.9529 
5.925579e+3, 1.9492465e+2, -1055289.3, -1097097.8, -28.5177, 0.0009792299, 0.00006810744, -1055289.3, -25549.883, 0.0, 10.00769, 9.952557 
5.925578e+3, 2.0487091e+2, -967180.9, -1018762.2, -15.032864, 0.0009786217, 0.00018778545, -967180.9, -34914.855, 0.0, 10.007678, 9.939786 
5.9255767e+3, 2.1481073e+2, -868954.06, -920788.2, -29.121181, 0.0009770751, -0.0000072710313, -868954.0, -34098.3, 0.0, 10.007666, 9.9394455 
5.9255755e+3, 2.2474386e+2, -780723.44, -842586.8, -14.07835, 0.000976414, 0.00023809014, -780723.44, -43212.363, 0.0, 10.007652, 9.926394 
5.925575e+3, 2.3467031e+2, -682350.1, -744459.44, -27.956945, 0.0009767159, 0.00002358293, -682350.1, -42118.344, 0.0, 10.00764, 9.926063 
5.925574e+3, 2.4458982e+2, -594080.44, -666576.25, -11.248005, 0.00097631145, 0.0001827617, -594080.44, -51059.832, 0.0, 10.0076275, 9.912612 
5.9255725e+3, 2.5450253e+2, -495384.94, -567950.3, -24.464643, 0.0009750873, -0.0000024773808, -495384.94, -49509.08, 0.0, 10.007617, 9.912511 
5.925572e+3, 2.6440817e+2, -407212.47, -490680.25, -5.770628, 0.0009742518, 0.00024173596, -407212.47, -58411.836, 0.0, 10.007606, 9.898415 
5.925571e+3, 2.7430713e+2, -307986.28, -391118.75, -18.81119, 0.0009738929, -0.00010458479, -307986.28, -56195.535, 0.0, 10.007594, 9.898833 
5.9255695e+3, 2.8419793e+2, -221452.28, -317663.13, -0.72734636, 0.00097366964, 0.00032459357, -221452.28, -66591.38, 0.0, 10.007584, 9.882024 
5.925569e+3, 2.9408103e+2, -121794.62, -217378.63, -11.857751, 0.00097362313, -0.00016250969, -121794.62, -63787.93, 0.0, 10.007573, 9.882813 
5.9255683e+3, 3.0399188e+2, -32389.969, -84924.99, 5.9928513, 0.00097284646, 0.0002589604, -32389.967, -32389.967, 0.0, 10.007564, 9.938414 
5.925567e+3, 3.1393215e+2, -31353.568, -82749.48, -6.3410397, 0.00097100326, 0.00002535419, -31353.568, -31353.568, 0.0, 10.007555, 9.939886 
5.935596e+3, 1.2512249e+2, -1710240.4, -1722963.5, 0.49189585, 0.0009903646, 0.00019180111, -1710240.4, 3560.3408, 0.0, 10.007791, 9.990927 
5.9355944e+3, 1.3511327e+2, -1612928.4, -1626231.9, -13.3845005, 0.0009915652, 0.000012555404, -1612928.3, 2962.8071, 0.0, 10.007775, 9.990144 
5.935593e+3, 1.4509751e+2, -1524889.9, -1547011.6, -6.7639203, 0.000990729, 0.00027312103, -1524889.9, -6844.311, 0.0, 10.00776, 9.978454 
5.935592e+3, 1.5507592e+2, -1427225.4, -1449740.0, -20.63421, 0.0009879216, 0.00008253436, -1427225.4, -6968.3833, 0.0, 10.007747, 9.977922 
5.935591e+3, 1.6504778e+2, -1339189.8, -1370850.8, -14.223023, 0.000987194, 0.0001637365, -1339189.8, -16656.867, 0.0, 10.007733, 9.965882 
5.935589e+3, 1.750137e+2, -1241296.5, -1273263.1, -27.361317, 0.0009884965, 0.00005982372, -1241296.5, -16429.725, 0.0, 10.007719, 9.965469 
5.9355885e+3, 1.8497291e+2, -1153405.3, -1194990.6, -18.959352, 0.0009881887, 0.00020348364, -1153405.3, -26138.754, 0.0, 10.007706, 9.952862 
5.9355867e+3, 1.9492581e+2, -1055316.6, -1097155.6, -33.264088, 0.0009862632, 0.000069179194, -1055316.6, -25588.521, 0.0, 10.007692, 9.952518 
5.9355855e+3, 2.0487204e+2, -967208.0, -1018820.0, -19.675333, 0.0009853671, 0.00018905383, -967207.94, -34952.934, 0.0, 10.00768, 9.939749 
5.9355843e+3, 2.1481182e+2, -868980.9, -920845.7, -33.7652, 0.0009855387, -0.0000066873627, -868980.9, -34135.754, 0.0, 10.007668, 9.939407 
5.935584e+3, 2.247449e+2, -780750.3, -842644.7, -18.81589, 0.0009851943, 0.00023820378, -780750.3, -43249.438, 0.0, 10.007655, 9.926356 
5.935582e+3, 2.3467132e+2, -682376.56, -744516.94, -32.682404, 0.0009842835, 0.000023460696, -682376.56, -42154.59, 0.0, 10.007642, 9.926024 
5.9355813e+3, 2.4459079e+2, -594106.2, -666632.75, -15.262565, 0.0009834443, 0.00018332273, -594106.2, -51095.066, 0.0, 10.00763, 9.912574 
5.93558e+3, 2.545035e+2, -495410.47, -568006.56, -28.476095, 0.0009826845, -0.00000017161122, -495410.44, -49543.727, 0.0, 10.007619, 9.912474 
5.935579e+3, 2.6440907e+2, -407238.6, -490738.06, -10.032396, 0.0009822497, 0.00024331769, -407238.6, -58446.723, 0.0, 10.007607, 9.898376 
5.9355783e+3, 2.74308e+2, -308012.0, -391176.22, -23.043081, 0.000982211, -0.00010677644, -308012.0, -56229.594, 0.0, 10.007596, 9.898794 
5.935578e+3, 2.8419876e+2, -221475.39, -317715.7, -4.4135623, 0.000981814, 0.00032274635, -221475.39, -66622.46, 0.0, 10.007586, 9.881989 
5.9355766e+3, 2.940818e+2, -121817.22, -217430.47, -15.579912, 0.0009809369, -0.00015851851, -121817.21, -63818.2, 0.0, 10.007575, 9.882778 
5.935576e+3, 3.0399266e+2, -32416.592, -84985.25, 2.728875, 0.0009800419, 0.00026334115, -32416.592, -32416.592, 0.0, 10.0075655, 9.938372 
5.9355754e+3, 3.1393284e+2, -31380.805, -82810.77, -9.445843, 0.0009791177, 0.000022188236, -31380.803, -31380.803, 0.0, 10.007557, 9.939844 
5.945604e+3, 1.2512392e+2, -1709995.6, -1722875.8, 6.2386622, 0.0009986336, 0.00019246951, -1709995.6, 3791.1396, 0.0, 10.007961, 9.99089 
5.9456027e+3, 1.3511467e+2, -1612685.3, -1626145.5, -7.747868, 0.0009991364, 0.000013096525, -1612685.3, 3192.2734, 0.0, 10.007946, 9.990106 
5.945601e+3, 1.4509887e+2, -1524649.4, -1546927.4, -0.94566697, 0.0009982082, 0.00027360622, -1524649.4, -6617.0083, 0.0, 10.00793, 9.978416 
5.9456e+3, 1.5507723e+2, -1426988.4, -1449658.4, -15.394162, 0.000995887, 0.0000830313, -1426988.4, -6744.2656, 0.0, 10.0079155, 9.977885 
5.9455985e+3, 1.6504906e+2, -1338952.0, -1370765.5, -9.065982, 0.0009952233, 0.00016442414, -1338952.0, -16431.645, 0.0, 10.007901, 9.965848 
5.945597e+3, 1.7501496e+2, -1241059.8, -1273179.1, -22.102781, 0.0009961798, 0.000060875864, -1241059.8, -16205.192, 0.0, 10.007887, 9.965434 
5.945596e+3, 1.8497412e+2, -1153172.4, -1194913.5, -13.41803, 0.0009958348, 0.00020444756, -1153172.4, -25917.83, 0.0, 10.007874, 9.952824 
5.945595e+3, 1.9492699e+2, -1055085.3, -1097079.9, -28.088684, 0.0009941806, 0.000069602596, -1055085.3, -25368.688, 0.0, 10.00786, 9.95248 
5.945593e+3, 2.0487317e+2, -966978.75, -1018745.75, -15.002945, 0.00099342, 0.00018936937, -966978.75, -34734.81, 0.0, 10.007847, 9.939711 
5.9455925e+3, 2.148129e+2, -868755.3, -920773.94, -29.37473, 0.0009935871, -0.0000060306693, -868755.25, -33920.883, 0.0, 10.007833, 9.939369 
5.9455913e+3, 2.2474596e+2, -780526.3, -842574.1, -14.198485, 0.0009930802, 0.00023892237, -780526.3, -43035.82, 0.0, 10.007819, 9.926318 
5.94559e+3, 2.3467234e+2, -682153.0, -744447.2, -28.057985, 0.0009918346, 0.00002393712, -682153.0, -41941.043, 0.0, 10.007807, 9.925986 
5.945589e+3, 2.4459177e+2, -593884.8, -666565.1, -10.721764, 0.0009910394, 0.00018382558, -593884.8, -50883.266, 0.0, 10.007794, 9.912536 
5.945588e+3, 2.545044e+2, -495193.28, -567941.6, -24.54425, 0.0009907618, 0.0000006677761, -495193.28, -49335.78, 0.0, 10.007782, 9.912435 
5.945587e+3, 2.6440996e+2, -407023.13, -490673.97, -5.924773, 0.0009904067, 0.00024407175, -407023.13, -58240.113, 0.0, 10.00777, 9.898338 
5.945586e+3, 2.7430886e+2, -307796.94, -391112.9, -18.428123, 0.0009899507, -0.00010662874, -307796.94, -56023.02, 0.0, 10.007759, 9.898756 
5.945585e+3, 2.841996e+2, -221260.88, -317652.8, 0.14947547, 0.0009893634, 0.00032295333, -221260.88, -66416.07, 0.0, 10.007748, 9.88195 
5.945584e+3, 2.9408258e+2, -121605.086, -217369.38, -12.503982, 0.0009885993, -0.00015736435, -121605.086, -63613.816, 0.0, 10.007737, 9.88274 
5.9455836e+3, 3.0399337e+2, -32210.07, -84929.88, 5.6433105, 0.0009878987, 0.0002644775, -32210.07, -32210.07, 0.0, 10.007726, 9.938333 
5.9455824e+3, 3.1393355e+2, -31177.68, -82757.31, -4.98001, 0.0009872845, 0.00002190429, -31177.68, -31177.68, 0.0, 10.007715, 9.939804 
5.955612e+3, 1.2512536e+2, -1710025.0, -1722935.3, 0.36805034, 0.0010087511, 0.0001930213, -1710025.0, 3747.629, 0.0, 10.007963, 9.990851 
5.955611e+3, 1.3511607e+2, -1612714.1, -1626204.6, -13.613932, 0.0010050973, 0.000013972659, -1612714.0, 3149.6228, 0.0, 10.007948, 9.990068 
5.955609e+3, 1.4510022e+2, -1524678.6, -1546987.8, -6.4999485, 0.001003955, 0.00027425392, -1524678.6, -6659.766, 0.0, 10.007933, 9.978377 
5.955608e+3, 1.5507859e+2, -1427017.5, -1449718.4, -20.923037, 0.0010051928, 0.000082920254, -1427017.5, -6786.435, 0.0, 10.007917, 9.977847 
5.9556067e+3, 1.6505036e+2, -1338977.5, -1370819.0, -14.194925, 0.0010048214, 0.00016471914, -1338977.5, -16469.867, 0.0, 10.007903, 9.965814 
5.955605e+3, 1.7501622e+2, -1241084.8, -1273232.1, -27.281282, 0.0010028896, 0.00006271126, -1241084.8, -16242.625, 0.0, 10.007889, 9.9654 
5.955604e+3, 1.8497536e+2, -1153200.8, -1194973.3, -18.261707, 0.0010022233, 0.00020615541, -1153200.8, -25958.195, 0.0, 10.007875, 9.952785 
5.9556025e+3, 1.9492815e+2, -1055113.4, -1097139.3, -32.88333, 0.0010028168, 0.00006951416, -1055113.4, -25408.363, 0.0, 10.007863, 9.952441 
5.9556013e+3, 2.048743e+2, -967006.4, -1018804.75, -20.221119, 0.0010025266, 0.00018893149, -967006.4, -34773.684, 0.0, 10.007849, 9.9396715 
5.9556e+3, 2.1481402e+2, -868782.5, -920832.5, -34.594505, 0.0010013165, -0.000005314793, -868782.5, -33958.965, 0.0, 10.007835, 9.93933 
5.955599e+3, 2.2474703e+2, -780553.0, -842631.9, -18.716755, 0.0010002676, 0.00024012341, -780553.0, -43072.95, 0.0, 10.007822, 9.92628 
5.955598e+3, 2.3467337e+2, -682179.44, -744504.6, -32.57662, 0.0009993901, 0.000024895004, -682179.44, -41977.55, 0.0, 10.00781, 9.925948 
5.9555966e+3, 2.4459276e+2, -593911.8, -666624.1, -15.480117, 0.0009990205, 0.00018428585, -593911.8, -50920.01, 0.0, 10.007797, 9.912497 
5.955596e+3, 2.5450537e+2, -495219.88, -568000.3, -29.277397, 0.0009992332, 0.00000033638293, -495219.84, -49371.695, 0.0, 10.007784, 9.9123955 
5.955595e+3, 2.6441088e+2, -407048.1, -490729.75, -9.97608, 0.0009987009, 0.00024416592, -407048.1, -58274.02, 0.0, 10.0077715, 9.898301 
5.9555936e+3, 2.7430975e+2, -307821.53, -391168.22, -22.516563, 0.0009972438, -0.00010460567, -307821.5, -56056.2, 0.0, 10.007761, 9.898719 
5.955593e+3, 2.842004e+2, -221286.7, -317711.0, -3.8646421, 0.0009964551, 0.00032480652, -221286.7, -66450.125, 0.0, 10.00775, 9.881911 
5.955592e+3, 2.9408342e+2, -121630.69, -217427.42, -16.388983, 0.0009965564, -0.00015848225, -121630.69, -63647.234, 0.0, 10.007739, 9.882701 
5.955591e+3, 3.0399415e+2, -32234.105, -84984.91, 1.7095898, 0.0009962973, 0.0002630174, -32234.105, -32234.105, 0.0, 10.007729, 9.938293 
5.9555906e+3, 3.1393427e+2, -31201.465, -82812.01, -9.087534, 0.0009955026, 0.000023936165, -31201.463, -31201.463, 0.0, 10.007717, 9.939766 
5.96562e+3, 1.2512682e+2, -1709777.0, -1722846.3, 6.441814, 0.0010166715, 0.0001937597, -1709777.0, 3981.3005, 0.0, 10.008137, 9.990813 
5.9656185e+3, 1.3511749e+2, -1612466.1, -1626116.4, -7.800873, 0.0010129453, 0.0000147781875, -1612466.1, 3383.563, 0.0, 10.0081215, 9.99003 
5.9656173e+3, 1.451016e+2, -1524433.3, -1546901.6, -1.1249572, 0.001011813, 0.00027509453, -1524433.3, -6427.9634, 0.0, 10.008105, 9.978339 
5.9656155e+3, 1.5507993e+2, -1426777.1, -1449635.5, -15.469555, 0.0010131395, 0.00008376399, -1426777.0, -6559.1963, 0.0, 10.008088, 9.977808 
5.9656143e+3, 1.6505167e+2, -1338737.3, -1370734.0, -8.084127, 0.0010127431, 0.00016537406, -1338737.3, -16242.358, 0.0, 10.008073, 9.965777 
5.965613e+3, 1.7501749e+2, -1240844.4, -1273147.8, -22.177967, 0.0010106745, 0.000062991094, -1240844.4, -16014.739, 0.0, 10.0080595, 9.9653635 
5.965612e+3, 1.849766e+2, -1152963.3, -1194893.1, -13.493719, 0.0010100543, 0.00020648817, -1152963.3, -25732.705, 0.0, 10.008046, 9.952747 
5.96561e+3, 1.9492936e+2, -1054878.9, -1097061.4, -27.607534, 0.0010108768, 0.000070327456, -1054878.8, -25185.57, 0.0, 10.008032, 9.952403 
5.9656096e+3, 2.0487547e+2, -966774.3, -1018729.7, -14.932135, 0.0010105271, 0.0001897963, -966774.3, -34552.957, 0.0, 10.0080185, 9.939633 
5.965608e+3, 2.1481514e+2, -868551.56, -920758.7, -29.49706, 0.0010089572, -0.00000484356, -868551.56, -33739.004, 0.0, 10.008004, 9.939292 
5.965607e+3, 2.247481e+2, -780324.1, -842559.6, -13.617947, 0.001007952, 0.0002406022, -780324.1, -42854.703, 0.0, 10.00799, 9.926241 
5.965606e+3, 2.3467441e+2, -681954.5, -744435.0, -27.957994, 0.0010075581, 0.000025817946, -681954.5, -41762.848, 0.0, 10.007976, 9.92591 
5.965605e+3, 2.4459377e+2, -593688.75, -666555.9, -10.716069, 0.001007219, 0.00018509426, -593688.75, -50706.78, 0.0, 10.007962, 9.912457 
5.9656036e+3, 2.5450632e+2, -494997.25, -567932.94, -24.193953, 0.0010069397, 0.00000038573558, -494997.25, -49158.555, 0.0, 10.00795, 9.912357 
5.9656024e+3, 2.644118e+2, -406827.22, -490664.7, -4.9892673, 0.0010062737, 0.00024436822, -406827.22, -58062.254, 0.0, 10.007938, 9.898261 
5.965602e+3, 2.7431065e+2, -307603.66, -391105.3, -18.95441, 0.0010051253, -0.000103124505, -307603.63, -55847.027, 0.0, 10.007926, 9.89868 
5.9656006e+3, 2.8420126e+2, -221069.23, -317645.84, -0.25941566, 0.0010045255, 0.00032616098, -221069.23, -66240.98, 0.0, 10.007914, 9.881874 
5.9655994e+3, 2.940842e+2, -121415.766, -217363.92, -11.037143, 0.0010046547, -0.00015912943, -121415.76, -63440.266, 0.0, 10.007902, 9.882664 
5.9655994e+3, 3.0399492e+2, -32025.424, -84931.01, 7.1011143, 0.0010042384, 0.00026225593, -32025.424, -32025.424, 0.0, 10.007891, 9.938252 
5.965598e+3, 3.13935e+2, -30992.053, -82758.39, -6.5595117, 0.0010030186, 0.0000258108, -30992.053, -30992.053, 0.0, 10.007881, 9.939723 
5.9756285e+3, 1.251283e+2, -1709806.6, -1722906.8, 0.9147985, 0.0010228761, 0.00019464691, -1709806.6, 3937.2068, 0.0, 10.008139, 9.990775 
5.975627e+3, 1.3511893e+2, -1612495.8, -1626176.6, -13.328085, 0.0010222993, 0.000015528523, -1612495.8, 3339.8638, 0.0, 10.008123, 9.989992 
5.9756255e+3, 1.4510301e+2, -1524462.6, -1546961.6, -7.5493035, 0.0010213518, 0.00027608834, -1524462.6, -6470.965, 0.0, 10.008107, 9.978301 
5.975624e+3, 1.5508129e+2, -1426805.6, -1449695.0, -21.89123, 0.0010200269, 0.00008536396, -1426805.6, -6601.142, 0.0, 10.00809, 9.97777 
5.9756225e+3, 1.6505298e+2, -1338764.6, -1370791.8, -12.877366, 0.001019356, 0.00016631586, -1338764.6, -16282.824, 0.0, 10.008075, 9.96574 
5.9756213e+3, 1.7501877e+2, -1240871.9, -1273205.3, -27.007484, 0.0010193264, 0.00006204466, -1240871.9, -16054.74, 0.0, 10.008062, 9.965326 
5.9756196e+3, 1.8497783e+2, -1152990.5, -1194950.6, -18.773846, 0.0010190408, 0.0002057371, -1152990.5, -25772.207, 0.0, 10.008048, 9.952709 
5.9756184e+3, 1.9493057e+2, -1054905.6, -1097118.5, -32.84404, 0.0010184934, 0.00007185525, -1054905.6, -25224.234, 0.0, 10.008035, 9.952366 
5.975617e+3, 2.0487665e+2, -966802.2, -1018789.3, -20.112, 0.0010176661, 0.00019169282, -966802.2, -34592.37, 0.0, 10.00802, 9.939594 
5.975616e+3, 2.1481629e+2, -868579.25, -920818.0, -34.674595, 0.0010165456, -0.0000045615725, -868579.2, -33777.773, 0.0, 10.008006, 9.939253 
5.975615e+3, 2.2474921e+2, -780351.8, -842619.4, -18.79684, 0.0010160476, 0.00024051315, -780351.8, -42893.113, 0.0, 10.007992, 9.926202 
5.9756136e+3, 2.3467548e+2, -681981.75, -744494.4, -33.128174, 0.001016223, 0.000026711854, -681981.7, -41800.434, 0.0, 10.007978, 9.92587 
5.975613e+3, 2.4459478e+2, -593714.94, -666613.5, -15.27619, 0.0010156009, 0.00018617859, -593714.94, -50742.91, 0.0, 10.007965, 9.912419 
5.975611e+3, 2.5450733e+2, -495023.06, -567990.2, -28.770115, 0.0010140559, 0.0000007464937, -495023.06, -49193.953, 0.0, 10.007953, 9.912318 
5.9756106e+3, 2.6441276e+2, -406854.94, -490726.1, -9.477383, 0.0010132927, 0.0002446637, -406854.94, -58099.152, 0.0, 10.00794, 9.89822 
5.9756094e+3, 2.743115e+2, -307631.1, -391166.6, -23.360521, 0.0010134887, -0.00010208227, -307631.1, -55883.285, 0.0, 10.007928, 9.898638 
5.975608e+3, 2.8420216e+2, -221091.84, -317697.56, -4.5508614, 0.0010133849, 0.0003271123, -221091.84, -66272.02, 0.0, 10.007916, 9.88184 
5.9756076e+3, 2.9408503e+2, -121437.61, -217414.55, -15.451277, 0.0010128769, -0.00015938532, -121437.6, -63470.19, 0.0, 10.007904, 9.882629 
5.975607e+3, 3.039957e+2, -32054.086, -84995.96, 3.2620935, 0.0010118291, 0.00026206786, -32054.086, -32054.086, 0.0, 10.007894, 9.938207 
5.975606e+3, 3.1393576e+2, -31021.574, -82825.0, -10.177014, 0.0010099954, 0.000027545535, -31021.572, -31021.572, 0.0, 10.007883, 9.939677 
5.985637e+3, 1.251298e+2, -1709551.1, -1722814.3, 7.283137, 0.0010302472, 0.00019532608, -1709551.1, 4178.055, 0.0, 10.008317, 9.990737 
5.9856355e+3, 1.3512039e+2, -1612247.8, -1626088.8, -7.0716963, 0.00103063, 0.000016064494, -1612247.8, 3573.6362, 0.0, 10.008298, 9.989953 
5.985634e+3, 1.4510444e+2, -1524216.9, -1546876.0, -1.0591922, 0.0010297833, 0.0002767005, -1524216.9, -6239.0903, 0.0, 10.008281, 9.978262 
5.9856325e+3, 1.5508267e+2, -1426557.4, -1449608.6, -15.805879, 0.0010277374, 0.000086260945, -1426557.4, -6366.39, 0.0, 10.008266, 9.977731 
5.985631e+3, 1.6505432e+2, -1338517.6, -1370706.1, -6.9350896, 0.0010270206, 0.00016712576, -1338517.6, -16048.891, 0.0, 10.00825, 9.965702 
5.9856296e+3, 1.7502008e+2, -1240630.8, -1273123.5, -21.892809, 0.0010276021, 0.00006240549, -1240630.8, -15826.462, 0.0, 10.008235, 9.965288 
5.985628e+3, 1.849791e+2, -1152750.5, -1194867.6, -13.421852, 0.0010272722, 0.0002060409, -1152750.5, -25544.582, 0.0, 10.00822, 9.952673 
5.9856266e+3, 1.949318e+2, -1054665.6, -1097036.1, -27.046652, 0.001026025, 0.000072494906, -1054665.6, -24996.254, 0.0, 10.008206, 9.95233 
5.9856254e+3, 2.0487784e+2, -966565.8, -1018712.56, -14.650753, 0.0010251622, 0.00019250701, -966565.8, -34367.63, 0.0, 10.008192, 9.939554 
5.985624e+3, 2.1481743e+2, -868346.44, -920743.8, -29.429827, 0.0010246953, -0.0000037412192, -868346.44, -33556.273, 0.0, 10.008177, 9.939214 
5.985623e+3, 2.2475033e+2, -780121.06, -842547.0, -13.296576, 0.0010243201, 0.00024115155, -780121.06, -42673.246, 0.0, 10.0081625, 9.926162 
5.985622e+3, 2.3467654e+2, -681751.8, -744423.06, -27.721813, 0.0010240405, 0.00002696429, -681751.75, -41580.99, 0.0, 10.008148, 9.925831 
5.9856206e+3, 2.4459581e+2, -593486.3, -666543.5, -9.923975, 0.0010233019, 0.00018661882, -593486.3, -50524.406, 0.0, 10.008135, 9.91238 
5.9856194e+3, 2.5450832e+2, -494797.06, -567922.1, -24.250143, 0.0010220305, 0.0000020351667, -494797.06, -48977.688, 0.0, 10.0081215, 9.912279 
5.985619e+3, 2.6441368e+2, -406631.25, -490659.9, -4.8991885, 0.001021393, 0.00024571843, -406631.25, -57884.81, 0.0, 10.008108, 9.89818 
5.9856176e+3, 2.7431244e+2, -307410.06, -391102.38, -17.82135, 0.0010215325, -0.00010259507, -307410.06, -55671.164, 0.0, 10.008096, 9.898599 
5.9856164e+3, 2.84203e+2, -220871.03, -317632.2, 0.95972615, 0.0010213129, 0.0003267211, -220871.03, -66059.74, 0.0, 10.008083, 9.881802 
5.985616e+3, 2.940859e+2, -121217.67, -217350.11, -12.179381, 0.0010206108, -0.00015740667, -121217.67, -63258.453, 0.0, 10.008072, 9.882591 
5.9856147e+3, 3.039965e+2, -31839.998, -84939.664, 6.2527227, 0.0010195964, 0.0002641602, -31839.998, -31839.998, 0.0, 10.0080595, 9.938165 
5.985614e+3, 3.139365e+2, -30810.04, -82770.44, -4.968438, 0.0010181254, 0.000026474698, -30810.037, -30810.037, 0.0, 10.008048, 9.939635 
5.995645e+3, 1.2513131e+2, -1709581.4, -1722875.4, 0.22823717, 0.0010385546, 0.00019584526, -1709581.4, 4133.0317, 0.0, 10.008319, 9.990698 
5.995644e+3, 1.3512185e+2, -1612277.1, -1626149.4, -14.104678, 0.0010381675, 0.000016437045, -1612277.1, 3529.792, 0.0, 10.0083, 9.989915 
5.995642e+3, 1.4510587e+2, -1524246.6, -1546937.5, -6.54714, 0.001037356, 0.00027701777, -1524246.6, -6282.8667, 0.0, 10.008284, 9.978223 
5.995641e+3, 1.5508406e+2, -1426587.1, -1449669.9, -21.295073, 0.0010361151, 0.00008660879, -1426587.1, -6409.7295, 0.0, 10.008268, 9.977692 
5.995639e+3, 1.6505568e+2, -1338547.3, -1370767.6, -12.900344, 0.0010355321, 0.00016783398, -1338547.3, -16091.764, 0.0, 10.008253, 9.965662 
5.995638e+3, 1.750214e+2, -1240659.9, -1273184.5, -27.842714, 0.0010355936, 0.00006379462, -1240659.8, -15868.355, 0.0, 10.008237, 9.965248 
5.995636e+3, 1.8498038e+2, -1152776.4, -1194922.9, -18.290932, 0.0010349209, 0.000207175, -1152776.4, -25582.984, 0.0, 10.008223, 9.952637 
5.995635e+3, 1.9493304e+2, -1054691.4, -1097091.3, -31.921356, 0.0010335092, 0.00007243955, -1054691.4, -25034.209, 0.0, 10.008209, 9.952293 
5.9956336e+3, 2.0487905e+2, -966594.25, -1018773.1, -20.421253, 0.0010329591, 0.00019247369, -966594.25, -34407.87, 0.0, 10.008195, 9.939515 
5.9956324e+3, 2.1481858e+2, -868374.44, -920803.94, -35.206345, 0.0010332995, -0.0000024961914, -868374.4, -33595.62, 0.0, 10.008179, 9.939174 
5.995631e+3, 2.2475144e+2, -780148.7, -842607.0, -18.373232, 0.0010327429, 0.00024236413, -780148.7, -42711.918, 0.0, 10.008164, 9.926123 
5.99563e+3, 2.3467763e+2, -681779.1, -744482.7, -32.786186, 0.0010312072, 0.00002671858, -681779.06, -41618.918, 0.0, 10.008151, 9.925791 
5.995629e+3, 2.4459687e+2, -593514.1, -666604.56, -14.815534, 0.001030485, 0.00018655707, -593514.1, -50562.465, 0.0, 10.008137, 9.912339 
5.9956276e+3, 2.5450933e+2, -494824.63, -567982.9, -29.110577, 0.0010306968, 0.000004049382, -494824.6, -49015.06, 0.0, 10.008123, 9.912238 
5.9956264e+3, 2.6441467e+2, -406657.03, -490717.53, -9.698533, 0.0010303587, 0.00024736777, -406657.03, -57920.043, 0.0, 10.008111, 9.898142 
5.995625e+3, 2.7431336e+2, -307435.28, -391159.4, -22.672962, 0.0010293372, -0.00010431864, -307435.28, -55705.44, 0.0, 10.008098, 9.89856 
5.9956247e+3, 2.842039e+2, -220897.52, -317692.25, -3.3460355, 0.0010285208, 0.00032528618, -220897.52, -66094.91, 0.0, 10.008085, 9.881761 
5.995624e+3, 2.940867e+2, -121244.01, -217410.08, -16.356802, 0.001027977, -0.00015367861, -121244.0, -63293.082, 0.0, 10.008074, 9.882551 
5.995623e+3, 3.039973e+2, -31865.135, -84997.234, 2.0432982, 0.0010275203, 0.0002680353, -31865.135, -31865.135, 0.0, 10.008062, 9.938125 
5.995622e+3, 3.1393725e+2, -30835.074, -82827.81, -9.28392, 0.0010271786, 0.000023209272, -30835.072, -30835.072, 0.0, 10.00805, 9.939595 
6.005653e+3, 1.2513284e+2, -1709328.0, -1722784.6, 6.790191, 0.001047313, 0.00019652797, -1709328.0, 4371.3394, 0.0, 10.008495, 9.990659 
6.005652e+3, 1.3512336e+2, -1612019.9, -1626057.1, -7.755194, 0.0010454182, 0.000017295415, -1612019.9, 3772.4468, 0.0, 10.00848, 9.989876 
6.00565e+3, 1.4510731e+2, -1523991.3, -1546847.8, -0.36349332, 0.0010445795, 0.00027782586, -1523991.3, -6041.728, 0.0, 10.008463, 9.978183 
6.005649e+3, 1.5508546e+2, -1426338.6, -1449584.4, -15.347241, 0.0010447231, 0.0000871499, -1426338.6, -6175.084, 0.0, 10.008445, 9.977653 
6.005647e+3, 1.6505705e+2, -1338301.1, -1370683.8, -6.438406, 0.0010442423, 0.00016834967, -1338301.1, -15859.041, 0.0, 10.008429, 9.965623 
6.005646e+3, 1.7502272e+2, -1240412.5, -1273100.6, -21.447126, 0.0010431618, 0.00006451962, -1240412.5, -15634.106, 0.0, 10.008414, 9.965209 
6.005645e+3, 1.8498167e+2, -1152528.5, -1194835.8, -11.974419, 0.0010423218, 0.00020792327, -1152528.5, -25347.773, 0.0, 10.008399, 9.9526005 
6.005643e+3, 1.949343e+2, -1054449.4, -1097007.8, -25.899702, 0.0010417145, 0.000073025316, -1054449.4, -24804.502, 0.0, 10.008383, 9.952257 
6.005642e+3, 2.0488027e+2, -966357.4, -1018696.75, -14.63041, 0.0010413149, 0.00019300265, -966357.4, -34182.91, 0.0, 10.008368, 9.939475 
6.0056406e+3, 2.1481977e+2, -868137.1, -920728.06, -29.62101, 0.0010411284, -0.000001914179, -868137.1, -33369.92, 0.0, 10.008352, 9.939134 
6.0056394e+3, 2.2475258e+2, -779912.25, -842532.3, -12.725143, 0.0010404338, 0.00024306307, -779912.25, -42486.61, 0.0, 10.008338, 9.926083 
6.005638e+3, 2.3467873e+2, -681545.2, -744409.94, -27.422586, 0.001039182, 0.000027603475, -681545.2, -41395.777, 0.0, 10.008324, 9.925751 
6.005637e+3, 2.4459791e+2, -593282.75, -666534.0, -9.407346, 0.0010386169, 0.0001872335, -593282.75, -50341.48, 0.0, 10.008309, 9.912299 
6.005636e+3, 2.5451034e+2, -494596.13, -567914.44, -23.565262, 0.0010388397, 0.000004063621, -494596.13, -48796.56, 0.0, 10.008295, 9.912198 
6.0056347e+3, 2.6441565e+2, -406429.8, -490650.16, -4.126299, 0.0010383965, 0.00024757237, -406429.8, -57702.418, 0.0, 10.008282, 9.898102 
6.005634e+3, 2.743143e+2, -307208.56, -391092.9, -18.170351, 0.0010371262, -0.00010287397, -307208.56, -55487.92, 0.0, 10.008269, 9.8985195 
6.005633e+3, 2.842048e+2, -220671.45, -317625.44, 1.0896757, 0.001036304, 0.00032663142, -220671.45, -65877.64, 0.0, 10.008256, 9.8817215 
6.0056317e+3, 2.940876e+2, -121021.69, -217345.7, -10.860184, 0.0010360781, -0.00015421564, -121021.69, -63079.176, 0.0, 10.008243, 9.882512 
6.005631e+3, 3.0399814e+2, -31649.092, -84940.15, 7.5114894, 0.0010357123, 0.00026734517, -31649.09, -31649.09, 0.0, 10.00823, 9.938083 
6.0056305e+3, 3.1393805e+2, -30620.09, -82771.61, -5.5942516, 0.001035131, 0.000024881567, -30620.09, -30620.09, 0.0, 10.008218, 9.939552 
6.0156614e+3, 1.2513438e+2, -1709358.3, -1722846.4, 1.0575047, 0.0010564273, 0.00019734033, -1709358.3, 4326.0083, 0.0, 10.008498, 9.99062 
6.01566e+3, 1.3512486e+2, -1612050.1, -1626118.6, -13.498036, 0.0010524717, 0.00001853379, -1612050.1, 3727.4995, 0.0, 10.008483, 9.989837 
6.015659e+3, 1.4510877e+2, -1524021.9, -1546910.5, -7.2296185, 0.0010515585, 0.00027901804, -1524021.9, -6086.7144, 0.0, 10.008466, 9.978143 
6.015657e+3, 1.550869e+2, -1426368.5, -1449646.6, -22.181253, 0.001053519, 0.00008784424, -1426368.5, -6218.9766, 0.0, 10.008448, 9.9776125 
6.015656e+3, 1.6505843e+2, -1338330.4, -1370745.3, -11.750258, 0.0010531142, 0.00016871816, -1338330.4, -15901.986, 0.0, 10.0084305, 9.965583 
6.015654e+3, 1.7502408e+2, -1240441.8, -1273161.9, -26.76283, 0.0010504217, 0.00006472934, -1240441.8, -15676.55, 0.0, 10.008416, 9.965169 
6.015653e+3, 1.8498299e+2, -1152555.1, -1194892.4, -17.996092, 0.001049553, 0.0002083734, -1152555.1, -25387.29, 0.0, 10.008401, 9.952564 
6.015651e+3, 1.9493558e+2, -1054475.6, -1097064.0, -31.915686, 0.0010504952, 0.000074114425, -1054475.5, -24843.162, 0.0, 10.008385, 9.95222 
6.0156506e+3, 2.048815e+2, -966385.94, -1018757.94, -19.957975, 0.0010501168, 0.0001939734, -966385.94, -34223.55, 0.0, 10.008369, 9.939435 
6.015649e+3, 2.1482097e+2, -868165.44, -920788.94, -34.94063, 0.0010483685, -0.0000018467093, -868165.4, -33409.88, 0.0, 10.008355, 9.939094 
6.015648e+3, 2.2475374e+2, -779940.5, -842593.5, -18.09097, 0.0010475722, 0.00024336367, -779940.5, -42526.18, 0.0, 10.008341, 9.926043 
6.0156465e+3, 2.3467983e+2, -681573.1, -744470.8, -32.790787, 0.0010478055, 0.00002937255, -681573.06, -41434.598, 0.0, 10.008326, 9.925711 
6.015645e+3, 2.4459898e+2, -593310.25, -666594.44, -14.704866, 0.001047505, 0.00018848818, -593310.25, -50379.45, 0.0, 10.008311, 9.912258 
6.015644e+3, 2.5451136e+2, -494623.1, -567974.4, -28.863585, 0.0010465859, 0.0000025207703, -494623.06, -48833.613, 0.0, 10.008297, 9.912158 
6.015643e+3, 2.6441666e+2, -406457.5, -490711.94, -8.745368, 0.001045722, 0.0002466538, -406457.5, -57739.78, 0.0, 10.008284, 9.89806 
6.015642e+3, 2.7431524e+2, -307236.03, -391154.5, -22.74317, 0.0010449212, -0.000098953074, -307236.03, -55524.723, 0.0, 10.008271, 9.898478 
6.015641e+3, 2.8420568e+2, -220696.14, -317681.7, -3.7721596, 0.0010445568, 0.00033014812, -220696.14, -65911.28, 0.0, 10.008259, 9.881683 
6.01564e+3, 2.9408845e+2, -121045.72, -217401.1, -15.755094, 0.0010447691, -0.00015808319, -121045.72, -63111.723, 0.0, 10.008245, 9.882474 
6.0156393e+3, 3.0399898e+2, -31676.95, -85003.81, 2.9906397, 0.0010441267, 0.00026309275, -31676.95, -31676.95, 0.0, 10.008232, 9.938039 
6.015639e+3, 3.1393886e+2, -30648.355, -82836.21, -10.082119, 0.0010422354, 0.000030419256, -30648.354, -30648.354, 0.0, 10.008221, 9.9395075 
6.02567e+3, 1.2513594e+2, -1709094.9, -1722750.9, 7.719073, 0.0010636197, 0.00019800932, -1709094.9, 4574.046, 0.0, 10.008681, 9.990581 
6.025669e+3, 1.3512638e+2, -1611794.3, -1626027.9, -7.050611, 0.0010612882, 0.000019247816, -1611794.3, 3968.4478, 0.0, 10.008662, 9.989797 
6.025667e+3, 1.4511026e+2, -1523768.4, -1546822.0, -0.64159274, 0.0010604165, 0.00027975044, -1523768.4, -5847.828, 0.0, 10.008644, 9.978103 
6.025666e+3, 1.5508835e+2, -1426112.9, -1449557.5, -15.572798, 0.0010609106, 0.00008856824, -1426112.9, -5977.463, 0.0, 10.008628, 9.977572 
6.025664e+3, 1.6505985e+2, -1338076.5, -1370658.0, -4.9177103, 0.0010603786, 0.000169358, -1338076.5, -15661.827, 0.0, 10.008612, 9.965543 
6.025663e+3, 1.7502543e+2, -1240193.8, -1273078.4, -20.261671, 0.0010588568, 0.00006521154, -1240193.8, -15441.945, 0.0, 10.0085945, 9.965129 
6.025662e+3, 1.849843e+2, -1152307.1, -1194805.6, -11.545233, 0.0010581698, 0.00020887454, -1152307.1, -25152.229, 0.0, 10.008577, 9.952527 
6.02566e+3, 1.9493686e+2, -1054227.5, -1096977.9, -25.596691, 0.0010583083, 0.00007481094, -1054227.5, -24607.705, 0.0, 10.008562, 9.952183 
6.025659e+3, 2.0488276e+2, -966141.75, -1018678.4, -13.563971, 0.0010577342, 0.0001947386, -966141.7, -33991.6, 0.0, 10.008547, 9.939395 
6.025657e+3, 2.1482217e+2, -867924.4, -920711.75, -28.764473, 0.0010564189, -0.0000011444781, -867924.4, -33180.715, 0.0, 10.008532, 9.939054 
6.0256565e+3, 2.247549e+2, -779702.1, -842518.6, -12.053898, 0.0010558143, 0.00024396833, -779702.1, -42299.22, 0.0, 10.008516, 9.926002 
6.0256547e+3, 2.3468097e+2, -681337.0, -744397.75, -27.014809, 0.0010559781, 0.00002984262, -681336.94, -41209.53, 0.0, 10.008501, 9.92567 
6.025654e+3, 2.4460009e+2, -593075.0, -666522.25, -8.838579, 0.0010555203, 0.00018902037, -593075.0, -50154.89, 0.0, 10.008487, 9.912218 
6.025653e+3, 2.5451243e+2, -494388.28, -567903.06, -23.289824, 0.0010543431, 0.0000033404751, -494388.28, -48609.07, 0.0, 10.008472, 9.912117 
6.025651e+3, 2.6441768e+2, -406225.2, -490643.63, -3.248791, 0.0010535375, 0.0002473963, -406225.2, -57517.344, 0.0, 10.008459, 9.898019 
6.0256505e+3, 2.7431622e+2, -307008.1, -391089.1, -17.367188, 0.0010531844, -0.00009873513, -307008.1, -55306.23, 0.0, 10.008444, 9.898437 
6.0256493e+3, 2.8420663e+2, -220468.13, -317613.22, 1.6287569, 0.0010529156, 0.00033037562, -220468.13, -65692.31, 0.0, 10.0084305, 9.881644 
6.025649e+3, 2.9408932e+2, -120818.195, -217333.3, -10.727658, 0.0010527547, -0.0001571385, -120818.19, -62892.88, 0.0, 10.008418, 9.882436 
6.0256475e+3, 3.0399978e+2, -31455.88, -84946.99, 7.7995486, 0.0010519349, 0.00026410376, -31455.879, -31455.879, 0.0, 10.008405, 9.937994 
6.025647e+3, 3.1393963e+2, -30427.953, -82780.48, -5.6102, 0.0010501525, 0.000030556985, -30427.953, -30427.953, 0.0, 10.008392, 9.939463 
6.035679e+3, 1.2513754e+2, -1709125.8, -1722813.8, 0.51801586, 0.0010693565, 0.00019857011, -1709125.8, 4527.6543, 0.0, 10.008684, 9.9905405 
6.035677e+3, 1.3512793e+2, -1611824.6, -1626090.1, -14.225164, 0.0010714757, 0.00001955801, -1611824.5, 3923.002, 0.0, 10.008664, 9.989758 
6.035676e+3, 1.4511177e+2, -1523798.6, -1546884.4, -6.565693, 0.0010707327, 0.0002801293, -1523798.6, -5892.7373, 0.0, 10.008647, 9.978063 
6.035674e+3, 1.550898e+2, -1426142.9, -1449619.6, -21.516754, 0.0010672385, 0.00008931882, -1426142.9, -6021.773, 0.0, 10.008631, 9.977532 
6.035673e+3, 1.6506127e+2, -1338106.8, -1370721.0, -11.402367, 0.001066425, 0.00017021166, -1338106.8, -15706.035, 0.0, 10.008614, 9.965503 
6.035671e+3, 1.750268e+2, -1240223.6, -1273140.9, -26.725134, 0.0010682147, 0.00006590769, -1240223.5, -15485.247, 0.0, 10.008596, 9.965089 
6.03567e+3, 1.8498564e+2, -1152333.8, -1194862.6, -17.179525, 0.0010678688, 0.00020941762, -1152333.8, -25192.055, 0.0, 10.00858, 9.95249 
6.035668e+3, 1.9493817e+2, -1054253.9, -1097034.6, -31.233158, 0.001065389, 0.00007520569, -1054253.9, -24646.89, 0.0, 10.008565, 9.952146 
6.0356677e+3, 2.0488402e+2, -966170.75, -1018740.5, -19.343983, 0.0010644544, 0.00019534747, -966170.75, -34033.027, 0.0, 10.00855, 9.939354 
6.035666e+3, 2.148234e+2, -867953.06, -920773.5, -34.54802, 0.0010651149, 0.00000005354994, -867953.06, -33221.387, 0.0, 10.0085335, 9.939013 
6.0356647e+3, 2.2475609e+2, -779730.75, -842580.8, -17.667877, 0.0010649269, 0.00024481173, -779730.75, -42339.492, 0.0, 10.008518, 9.925961 
6.0356635e+3, 2.3468211e+2, -681365.2, -744459.5, -32.616306, 0.0010638135, 0.000029306566, -681365.2, -41248.93, 0.0, 10.008503, 9.925629 
6.035662e+3, 2.4460118e+2, -593102.94, -666583.75, -13.891486, 0.0010628733, 0.00018899489, -593102.94, -50193.582, 0.0, 10.008489, 9.912177 
6.035661e+3, 2.5451347e+2, -494415.9, -567964.3, -28.341639, 0.0010621287, 0.0000059998547, -494415.9, -48647.113, 0.0, 10.008475, 9.912076 
6.03566e+3, 2.6441866e+2, -406253.16, -490705.94, -8.608293, 0.001061753, 0.00024943188, -406253.16, -57555.31, 0.0, 10.008461, 9.897977 
6.035659e+3, 2.743172e+2, -307035.56, -391150.97, -22.704014, 0.0010618248, -0.00010139578, -307035.53, -55343.246, 0.0, 10.008447, 9.898395 
6.0356575e+3, 2.8420755e+2, -220493.23, -317670.78, -3.085354, 0.0010613683, 0.00032804866, -220493.23, -65726.58, 0.0, 10.008433, 9.881606 
6.035657e+3, 2.9409024e+2, -120842.83, -217390.17, -15.469968, 0.001060207, -0.00015244253, -120842.82, -62926.344, 0.0, 10.00842, 9.882397 
6.0356563e+3, 3.0400068e+2, -31484.432, -85012.07, 3.2326598, 0.0010592898, 0.00026921465, -31484.432, -31484.432, 0.0, 10.008408, 9.937949 
6.035655e+3, 3.1394044e+2, -30457.045, -82846.55, -10.050785, 0.0010587206, 0.000026487904, -30457.043, -30457.043, 0.0, 10.008395, 9.939417 
6.045688e+3, 1.2513913e+2, -1708862.6, -1722718.8, 7.6970215, 0.0010780414, 0.00019924284, -1708862.6, 4775.146, 0.0, 10.008867, 9.9905 
6.045686e+3, 1.3512948e+2, -1611561.4, -1625995.9, -7.1453447, 0.0010789658, 0.000020081316, -1611561.4, 4170.9053, 0.0, 10.008849, 9.9897175 
6.045685e+3, 1.4511327e+2, -1523538.0, -1546792.9, 0.85470206, 0.0010781673, 0.00028067565, -1523538.0, -5647.012, 0.0, 10.00883, 9.978023 
6.045683e+3, 1.5509127e+2, -1425886.8, -1449531.3, -14.580243, 0.0010756992, 0.00009005124, -1425886.8, -5780.196, 0.0, 10.008812, 9.977491 
6.045682e+3, 1.650627e+2, -1337852.6, -1370634.0, -4.646274, 0.0010749828, 0.00017095878, -1337852.6, -15466.025, 0.0, 10.008795, 9.965462 
6.04568e+3, 1.7502822e+2, -1239969.9, -1273054.9, -19.96671, 0.0010759712, 0.00006650368, -1239969.9, -15245.319, 0.0, 10.008779, 9.965048 
6.045679e+3, 1.8498701e+2, -1152079.1, -1194773.1, -10.083003, 0.0010755089, 0.00020997153, -1152079.1, -24950.71, 0.0, 10.008761, 9.952452 
6.045677e+3, 1.949395e+2, -1054002.5, -1096947.4, -24.380463, 0.0010735936, 0.000075826254, -1054002.4, -24408.395, 0.0, 10.008745, 9.952108 
6.045676e+3, 2.048853e+2, -965924.4, -1018660.6, -12.707248, 0.001072827, 0.00019601591, -965924.4, -33799.26, 0.0, 10.008729, 9.939313 
6.0456747e+3, 2.1482465e+2, -867708.8, -920695.44, -28.188477, 0.0010732467, 0.00000075051213, -867708.8, -32989.316, 0.0, 10.008713, 9.9389715 
6.0456735e+3, 2.247573e+2, -779487.8, -842504.1, -11.158828, 0.0010728756, 0.00024545233, -779487.8, -42108.285, 0.0, 10.0086975, 9.92592 
6.0456717e+3, 2.3468328e+2, -681123.2, -744384.0, -26.227995, 0.001071641, 0.00002979858, -681123.2, -41018.305, 0.0, 10.008682, 9.925588 
6.045671e+3, 2.446023e+2, -592863.2, -666510.6, -7.637715, 0.0010708232, 0.00018952005, -592863.2, -49964.83, 0.0, 10.008667, 9.912135 
6.0456693e+3, 2.5451455e+2, -494180.0, -567893.75, -22.604153, 0.001070481, 0.000006767422, -494180.0, -48421.75, 0.0, 10.008652, 9.912035 
6.045669e+3, 2.644197e+2, -406018.6, -490636.13, -2.7818375, 0.0010701143, 0.00025012944, -406018.6, -57330.902, 0.0, 10.008637, 9.897935 
6.0456675e+3, 2.743182e+2, -306801.13, -391081.88, -16.560629, 0.0010697108, -0.00010115303, -306801.13, -55118.55, 0.0, 10.008624, 9.898354 
6.0456663e+3, 2.8420854e+2, -220259.44, -317602.13, 2.9008708, 0.0010691187, 0.0003283357, -220259.44, -65502.105, 0.0, 10.00861, 9.881565 
6.045666e+3, 2.9409117e+2, -120612.17, -217323.72, -10.806872, 0.0010682737, -0.00015144752, -120612.17, -62704.63, 0.0, 10.008595, 9.882356 
6.0456645e+3, 3.0400154e+2, -31259.89, -84952.2, 7.6348543, 0.0010675496, 0.00027021684, -31259.889, -31259.889, 0.0, 10.008582, 9.937905 
6.0456634e+3, 3.1394124e+2, -30234.885, -82788.14, -4.40981, 0.0010669921, 0.000026482292, -30234.885, -30234.885, 0.0, 10.008568, 9.939373 
6.0556966e+3, 1.2514076e+2, -1708893.6, -1722782.0, 0.8207761, 0.0010889975, 0.00020000499, -1708893.6, 4728.2446, 0.0, 10.008869, 9.99046 
6.0556954e+3, 1.3513106e+2, -1611592.0, -1626058.8, -14.018865, 0.0010844051, 0.000020773594, -1611591.9, 4124.861, 0.0, 10.008851, 9.989677 
6.0556936e+3, 1.4511482e+2, -1523569.3, -1546857.4, -5.887193, 0.0010834127, 0.00028135534, -1523569.3, -5693.398, 0.0, 10.008833, 9.977982 
6.055692e+3, 1.5509279e+2, -1425917.8, -1449595.4, -21.28405, 0.0010858142, 0.0000907711, -1425917.8, -5825.853, 0.0, 10.008815, 9.97745 
6.0556906e+3, 1.6506416e+2, -1337882.8, -1370696.9, -10.865962, 0.0010854825, 0.00017162516, -1337882.8, -15510.408, 0.0, 10.008798, 9.965422 
6.055689e+3, 1.7502964e+2, -1239999.6, -1273117.3, -26.195648, 0.0010825136, 0.00006702632, -1239999.6, -15288.862, 0.0, 10.0087805, 9.965008 
6.0556877e+3, 1.849884e+2, -1152106.3, -1194831.1, -16.187796, 0.0010815859, 0.00021053842, -1152106.3, -24991.371, 0.0, 10.008764, 9.9524145 
6.055686e+3, 1.9494082e+2, -1054029.4, -1097005.1, -30.475922, 0.0010826808, 0.00007662444, -1054029.3, -24448.387, 0.0, 10.008747, 9.952071 
6.0556847e+3, 2.048866e+2, -965953.94, -1018723.75, -18.660675, 0.0010824868, 0.00019673276, -965953.9, -33841.496, 0.0, 10.008731, 9.939272 
6.055683e+3, 2.148259e+2, -867737.9, -920758.2, -34.136837, 0.0010809582, 0.0000010626538, -867737.9, -33030.7, 0.0, 10.008716, 9.9389305 
6.0556823e+3, 2.247585e+2, -779516.56, -842566.75, -16.666128, 0.0010799438, 0.00024593945, -779516.56, -42148.97, 0.0, 10.008699, 9.925878 
6.0556805e+3, 2.3468445e+2, -681151.7, -744446.3, -31.740099, 0.0010794823, 0.000031089894, -681151.6, -41058.285, 0.0, 10.008685, 9.925547 
6.05568e+3, 2.4460343e+2, -592892.1, -666574.25, -13.308937, 0.0010792525, 0.0001904743, -592892.1, -50004.88, 0.0, 10.00867, 9.912093 
6.055678e+3, 2.5451565e+2, -494208.47, -567957.0, -28.245047, 0.0010792845, 0.0000060720126, -494208.47, -48460.895, 0.0, 10.008655, 9.911992 
6.0556775e+3, 2.6442075e+2, -406045.72, -490697.1, -7.823301, 0.0010786009, 0.00024979425, -406045.72, -57368.285, 0.0, 10.00864, 9.897894 
6.0556763e+3, 2.7431917e+2, -306827.84, -391142.38, -21.647192, 0.0010770317, -0.0000986546, -306827.84, -55155.17, 0.0, 10.008626, 9.898313 
6.055675e+3, 2.8420946e+2, -220287.0, -317664.72, -2.304219, 0.0010763465, 0.00033065223, -220287.0, -65539.164, 0.0, 10.008613, 9.881522 
6.0556746e+3, 2.9409206e+2, -120639.414, -217386.08, -15.890038, 0.0010768332, -0.00015332385, -120639.414, -62740.9, 0.0, 10.008598, 9.882314 
6.0556734e+3, 3.040024e+2, -31286.256, -85013.016, 2.6433907, 0.001076524, 0.00026803341, -31286.256, -31286.256, 0.0, 10.008584, 9.937863 
6.055672e+3, 3.139421e+2, -30261.111, -82848.81, -9.576632, 0.0010750472, 0.000029638639, -30261.11, -30261.11, 0.0, 10.008571, 9.93933 
6.0657054e+3, 1.251424e+2, -1708626.4, -1722685.4, 8.138322, 0.001096896, 0.00020079457, -1708626.4, 4979.446, 0.0, 10.009056, 9.99042 
6.065704e+3, 1.3513266e+2, -1611325.9, -1625963.4, -6.9452033, 0.0010926289, 0.000021609541, -1611325.9, 4375.2524, 0.0, 10.009038, 9.989636 
6.0657024e+3, 1.4511637e+2, -1523305.5, -1546764.5, 1.0202533, 0.0010916438, 0.00028210384, -1523305.5, -5444.8843, 0.0, 10.009019, 9.977941 
6.0657007e+3, 1.550943e+2, -1425657.3, -1449504.9, -14.176519, 0.0010937512, 0.00009130362, -1425657.3, -5580.161, 0.0, 10.009, 9.977409 
6.0656995e+3, 1.6506563e+2, -1337624.4, -1370608.3, -3.1177907, 0.0010934003, 0.00017213523, -1337624.4, -15266.43, 0.0, 10.008982, 9.965381 
6.0656977e+3, 1.7503107e+2, -1239742.6, -1273030.1, -18.855547, 0.0010906768, 0.00006770127, -1239742.6, -15045.938, 0.0, 10.008965, 9.964967 
6.0656965e+3, 1.8498978e+2, -1151848.4, -1194740.4, -9.146487, 0.0010898185, 0.00021127952, -1151848.4, -24747.17, 0.0, 10.008947, 9.952376 
6.0656947e+3, 1.9494219e+2, -1053774.4, -1096916.5, -23.522293, 0.001090809, 0.000077333694, -1053774.4, -24206.7, 0.0, 10.00893, 9.952033 
6.0656935e+3, 2.0488791e+2, -965703.5, -1018642.5, -11.417842, 0.0010905317, 0.00019734437, -965703.5, -33604.0, 0.0, 10.008913, 9.93923 
6.065692e+3, 2.1482718e+2, -867488.56, -920678.2, -27.088593, 0.0010889407, 0.0000015084603, -867488.56, -32793.86, 0.0, 10.008898, 9.938889 
6.065691e+3, 2.2475973e+2, -779269.2, -842488.75, -9.775365, 0.0010880035, 0.00024646657, -779269.2, -41913.67, 0.0, 10.008882, 9.925836 
6.0656893e+3, 2.3468564e+2, -680907.5, -744370.56, -25.292858, 0.0010877708, 0.00003196652, -680907.5, -40825.78, 0.0, 10.008865, 9.925504 
6.065689e+3, 2.4460459e+2, -592649.5, -666499.8, -6.7618318, 0.001087512, 0.00019123234, -592649.5, -49773.504, 0.0, 10.00885, 9.912051 
6.065687e+3, 2.5451675e+2, -493966.5, -567883.56, -21.452597, 0.0010872189, 0.000006173283, -493966.5, -48229.785, 0.0, 10.008835, 9.91195 
6.065686e+3, 2.6442182e+2, -405805.78, -490626.44, -1.1892848, 0.0010865028, 0.00025002906, -405805.78, -57138.785, 0.0, 10.008821, 9.897851 
6.065685e+3, 2.7432021e+2, -306590.94, -391074.0, -16.350847, 0.0010852605, -0.000097313816, -306590.94, -54928.297, 0.0, 10.008805, 9.89827 
6.0656834e+3, 2.8421044e+2, -220050.05, -317593.66, 2.937035, 0.0010846896, 0.00033187223, -220050.05, -65311.824, 0.0, 10.008791, 9.881482 
6.065683e+3, 2.94093e+2, -120404.336, -217316.38, -9.080177, 0.0010850083, -0.0001538562, -120404.336, -62515.027, 0.0, 10.008777, 9.882274 
6.0656816e+3, 3.040033e+2, -31058.11, -84954.3, 9.318703, 0.001084569, 0.00026742686, -31058.107, -31058.107, 0.0, 10.008762, 9.937817 
6.065681e+3, 3.1394297e+2, -30033.09, -82790.89, -5.7076035, 0.0010830188, 0.000031397074, -30033.09, -30033.09, 0.0, 10.008749, 9.939283 
6.075715e+3, 1.2514405e+2, -1708657.6, -1722749.5, 1.3742527, 0.0011024827, 0.0002016072, -1708657.6, 4931.907, 0.0, 10.009058, 9.990379 
6.075713e+3, 1.3513428e+2, -1611357.1, -1626027.4, -13.7021675, 0.001102997, 0.000022554997, -1611357.1, 4328.1396, 0.0, 10.00904, 9.989596 
6.075711e+3, 1.4511797e+2, -1523336.5, -1546828.3, -6.128574, 0.0011021702, 0.0002829057, -1523336.5, -5491.31, 0.0, 10.009021, 9.9779 
6.07571e+3, 1.5509585e+2, -1425687.5, -1449568.0, -21.334024, 0.0011000404, 0.00009169797, -1425687.5, -5625.495, 0.0, 10.009002, 9.977368 
6.075708e+3, 1.6506712e+2, -1337655.1, -1370672.8, -9.367212, 0.0010993636, 0.0001725316, -1337655.1, -15311.86, 0.0, 10.008984, 9.965339 
6.075707e+3, 1.7503251e+2, -1239773.3, -1273094.4, -25.084044, 0.0011000982, 0.0000684956, -1239773.3, -15090.794, 0.0, 10.008967, 9.964925 
6.075705e+3, 1.849912e+2, -1151875.9, -1194798.8, -15.601035, 0.0010997166, 0.00021215553, -1151875.8, -24788.406, 0.0, 10.00895, 9.952338 
6.0757035e+3, 1.9494356e+2, -1053801.3, -1096974.4, -29.979853, 0.0010982183, 0.000077977165, -1053801.1, -24247.018, 0.0, 10.008933, 9.951995 
6.075703e+3, 2.0488925e+2, -965733.2, -1018706.4, -17.28074, 0.001097357, 0.00019787908, -965733.2, -33646.773, 0.0, 10.008916, 9.939188 
6.075701e+3, 2.1482848e+2, -867518.0, -920741.75, -32.948963, 0.0010971501, 0.0000020622467, -867518.0, -32835.973, 0.0, 10.0089, 9.938847 
6.0757e+3, 2.2476098e+2, -779298.9, -842553.2, -15.743122, 0.0010968414, 0.0002470284, -779298.9, -41955.63, 0.0, 10.008884, 9.925794 
6.075698e+3, 2.3468684e+2, -680936.7, -744434.6, -31.245073, 0.0010964171, 0.00003252417, -680936.7, -40866.836, 0.0, 10.008868, 9.925462 
6.0756975e+3, 2.4460575e+2, -592677.75, -666562.4, -12.247633, 0.0010956562, 0.00019184116, -592677.75, -49813.156, 0.0, 10.008853, 9.912009 
6.075696e+3, 2.5451785e+2, -493994.34, -567945.7, -26.963665, 0.0010945051, 0.0000068972813, -493994.34, -48268.63, 0.0, 10.008838, 9.911908 
6.0756946e+3, 2.6442292e+2, -405835.47, -490692.7, -6.661563, 0.0010939757, 0.0002507098, -405835.47, -57179.07, 0.0, 10.008823, 9.897807 
6.075694e+3, 2.7432126e+2, -306620.34, -391140.06, -21.737793, 0.0010942034, -0.00009687174, -306620.34, -54967.844, 0.0, 10.008808, 9.898225 
6.075692e+3, 2.8421146e+2, -220074.66, -317650.38, -2.347039, 0.0010939047, 0.0003322427, -220074.66, -65346.168, 0.0, 10.008794, 9.881444 
6.0756916e+3, 2.9409397e+2, -120428.15, -217371.95, -14.501594, 0.0010929033, -0.00015333494, -120428.15, -62548.22, 0.0, 10.00878, 9.882236 
6.0756904e+3, 3.0400422e+2, -31089.08, -85024.945, 4.2331753, 0.0010919166, 0.0002680536, -31089.08, -31089.08, 0.0, 10.008765, 9.937768 
6.07569e+3, 3.139438e+2, -30064.936, -82863.25, -10.570036, 0.0010909454, 0.0000320636, -30064.934, -30064.934, 0.0, 10.008752, 9.939234 
6.085724e+3, 1.2514573e+2, -1708383.8, -1722649.9, 9.065856, 0.0011102229, 0.00020224325, -1708383.8, 5189.366, 0.0, 10.009249, 9.990338 
6.0857224e+3, 1.351359e+2, -1611090.4, -1625932.1, -6.0875573, 0.0011114018, 0.00002295548, -1611090.4, 4578.9136, 0.0, 10.009227, 9.989555 
6.0857207e+3, 1.4511955e+2, -1523072.4, -1546735.6, 2.0782292, 0.0011106168, 0.00028334963, -1523072.4, -5242.7676, 0.0, 10.009208, 9.977859 
6.085719e+3, 1.5509738e+2, -1425421.6, -1449475.3, -13.605281, 0.0011079351, 0.000092448376, -1425421.6, -5374.8247, 0.0, 10.009191, 9.977327 
6.085717e+3, 1.6506864e+2, -1337390.8, -1370581.6, -1.9213098, 0.0011072167, 0.00017334968, -1337390.8, -15062.325, 0.0, 10.009172, 9.965297 
6.085716e+3, 1.75034e+2, -1239514.0, -1273006.6, -17.635107, 0.0011084041, 0.000069151014, -1239514.0, -14845.98, 0.0, 10.009152, 9.964883 
6.085714e+3, 1.8499263e+2, -1151615.9, -1194707.4, -7.687215, 0.001108069, 0.0002127188, -1151615.9, -24542.535, 0.0, 10.009135, 9.9523 
6.085713e+3, 1.9494496e+2, -1053541.0, -1096883.6, -22.319775, 0.0011062123, 0.000078518315, -1053541.0, -24000.477, 0.0, 10.009119, 9.951957 
6.085712e+3, 2.048906e+2, -965477.44, -1018623.0, -9.845975, 0.0011053117, 0.00019848636, -965477.44, -33404.25, 0.0, 10.009102, 9.939146 
6.08571e+3, 2.1482977e+2, -867265.94, -920661.06, -25.797083, 0.0011053953, 0.0000028267245, -867265.9, -32596.734, 0.0, 10.009085, 9.938805 
6.085709e+3, 2.2476225e+2, -779048.9, -842474.4, -8.414126, 0.0011051355, 0.00024768515, -779048.9, -41718.03, 0.0, 10.0090685, 9.925751 
6.0857075e+3, 2.3468806e+2, -680687.5, -744356.94, -23.931353, 0.0011044984, 0.00003278645, -680687.5, -40629.625, 0.0, 10.009052, 9.925419 
6.085706e+3, 2.4460693e+2, -592429.9, -666486.4, -5.041127, 0.0011036957, 0.00019225931, -592429.9, -49576.895, 0.0, 10.009037, 9.911966 
6.085705e+3, 2.5451902e+2, -493748.8, -567871.6, -20.58146, 0.0011026985, 0.000008102531, -493748.8, -48034.273, 0.0, 10.009022, 9.911865 
6.0857034e+3, 2.6442403e+2, -405592.0, -490620.6, -0.30138186, 0.0011022248, 0.00025170256, -405592.0, -56946.355, 0.0, 10.009006, 9.897764 
6.085703e+3, 2.743223e+2, -306379.22, -391069.84, -14.5264435, 0.0011023871, -0.00009731824, -306379.22, -54737.02, 0.0, 10.00899, 9.898181 
6.0857016e+3, 2.8421247e+2, -219833.64, -317578.94, 4.7124767, 0.0011020434, 0.00033191752, -219833.64, -65115.06, 0.0, 10.008976, 9.881402 
6.0857004e+3, 2.9409495e+2, -120188.336, -217301.69, -9.639267, 0.001101024, -0.00015146921, -120188.336, -62317.914, 0.0, 10.008962, 9.882194 
6.0857e+3, 3.0400515e+2, -30855.594, -84963.63, 8.653769, 0.0011000711, 0.0002700053, -30855.592, -30855.592, 0.0, 10.008947, 9.937722 
6.0856986e+3, 3.139447e+2, -29833.65, -82803.555, -3.9392102, 0.0010992086, 0.000031055108, -29833.648, -29833.648, 0.0, 10.008932, 9.939187 
6.0957336e+3, 1.2514742e+2, -1708415.6, -1722714.5, 0.8757133, 0.0011196178, 0.00020274878, -1708415.6, 5140.82, 0.0, 10.009252, 9.990297 
6.095731e+3, 1.3513757e+2, -1611121.4, -1625996.1, -14.252888, 0.0011183285, 0.000022949387, -1611121.4, 4531.6914, 0.0, 10.00923, 9.989514 
6.09573e+3, 1.4512117e+2, -1523103.9, -1546801.1, -4.295753, 0.0011174984, 0.00028352835, -1523103.9, -5290.184, 0.0, 10.00921, 9.977817 
6.095728e+3, 1.5509897e+2, -1425453.3, -1449540.6, -19.965397, 0.0011170723, 0.00009347093, -1425453.3, -5421.8794, 0.0, 10.009192, 9.977285 
6.0957265e+3, 1.6507018e+2, -1337421.9, -1370646.3, -9.092014, 0.0011165274, 0.0001744887, -1337421.9, -15108.39, 0.0, 10.009174, 9.965256 
6.095725e+3, 1.7503548e+2, -1239544.4, -1273070.5, -24.802397, 0.0011158754, 0.000069704336, -1239544.3, -14890.87, 0.0, 10.009155, 9.964842 
6.0957235e+3, 1.8499409e+2, -1151643.5, -1194766.6, -13.695468, 0.0011152598, 0.00021304924, -1151643.5, -24584.326, 0.0, 10.009138, 9.952262 
6.0957223e+3, 1.9494636e+2, -1053568.5, -1096942.6, -28.324112, 0.0011146719, 0.000078986195, -1053568.5, -24041.771, 0.0, 10.009121, 9.951918 
6.0957205e+3, 2.0489196e+2, -965507.9, -1018688.1, -16.280563, 0.0011141467, 0.00019915213, -965507.9, -33448.11, 0.0, 10.009105, 9.939103 
6.0957193e+3, 2.148311e+2, -867295.8, -920725.7, -32.228638, 0.0011136829, 0.00000375262, -867295.75, -32639.623, 0.0, 10.009088, 9.938762 
6.0957175e+3, 2.2476354e+2, -779078.3, -842538.75, -14.23027, 0.0011130301, 0.00024841673, -779078.3, -41760.098, 0.0, 10.00907, 9.925708 
6.0957164e+3, 2.3468931e+2, -680716.6, -744420.9, -29.747723, 0.0011121677, 0.000032832104, -680716.56, -40670.914, 0.0, 10.009055, 9.925377 
6.095715e+3, 2.4460812e+2, -592459.75, -666552.25, -10.759129, 0.001111675, 0.00019253857, -592459.75, -49618.53, 0.0, 10.00904, 9.911922 
6.095714e+3, 2.5452018e+2, -493778.34, -567937.1, -26.263979, 0.001111602, 0.000009669569, -493778.34, -48075.13, 0.0, 10.009024, 9.911821 
6.095713e+3, 2.644251e+2, -405619.97, -490683.44, -5.971486, 0.0011110822, 0.0002529303, -405619.97, -56985.207, 0.0, 10.009008, 9.897721 
6.0957116e+3, 2.7432337e+2, -306406.56, -391132.1, -20.261745, 0.0011100073, -0.00009842584, -306406.56, -54774.85, 0.0, 10.008993, 9.898139 
6.0957104e+3, 2.842135e+2, -219862.08, -317643.88, -0.6330389, 0.0011093776, 0.00033107752, -219862.08, -65153.547, 0.0, 10.008979, 9.881358 
6.095709e+3, 2.940959e+2, -120216.56, -217366.47, -14.851931, 0.001109336, -0.00014859093, -120216.56, -62355.785, 0.0, 10.008965, 9.88215 
6.0957086e+3, 3.040061e+2, -30882.943, -85026.72, 3.2994683, 0.0011088608, 0.0002729525, -30882.943, -30882.943, 0.0, 10.008949, 9.937678 
6.0957074e+3, 3.139456e+2, -29860.885, -82866.5, -9.449395, 0.001107745, 0.000028789946, -29860.883, -29860.883, 0.0, 10.008935, 9.939143 
6.1057425e+3, 1.2514915e+2, -1708144.4, -1722616.6, 8.908951, 0.0011284571, 0.0002033803, -1708144.4, 5395.329, 0.0, 10.00944, 9.990256 
6.1057407e+3, 1.3513926e+2, -1610845.6, -1625896.8, -6.448708, 0.0011257771, 0.000023735603, -1610845.6, 4790.9063, 0.0, 10.009422, 9.989473 
6.1057395e+3, 1.451228e+2, -1522830.4, -1546704.3, 3.4802454, 0.0011249168, 0.00028429355, -1522830.4, -5032.7266, 0.0, 10.009402, 9.977775 
6.105737e+3, 1.5510055e+2, -1425187.6, -1449448.6, -12.169842, 0.0011257499, 0.00009404711, -1425187.6, -5171.9155, 0.0, 10.009381, 9.977243 
6.105736e+3, 1.6507173e+2, -1337158.5, -1370556.0, -0.7231307, 0.0011253183, 0.00017502398, -1337158.5, -14860.226, 0.0, 10.009362, 9.965214 
6.105734e+3, 1.7503698e+2, -1239278.5, -1272979.8, -16.693758, 0.001123674, 0.000070341615, -1239278.5, -14639.823, 0.0, 10.009345, 9.9648 
6.105733e+3, 1.8499555e+2, -1151376.1, -1194672.1, -5.73401, 0.0011229212, 0.00021373447, -1151376.1, -24331.38, 0.0, 10.009328, 9.952223 
6.105732e+3, 1.949478e+2, -1053306.4, -1096851.5, -20.524864, 0.0011230451, 0.00007966596, -1053306.4, -23793.69, 0.0, 10.009309, 9.951879 
6.10573e+3, 2.0489335e+2, -965251.06, -1018604.9, -8.25112, 0.0011226702, 0.00019974553, -965251.06, -33204.91, 0.0, 10.009292, 9.93906 
6.105729e+3, 2.1483245e+2, -867038.75, -920643.06, -24.369017, 0.0011217778, 0.0000041762505, -867038.75, -32395.787, 0.0, 10.009275, 9.938719 
6.105727e+3, 2.2476485e+2, -778822.25, -842457.6, -6.4350095, 0.001120998, 0.00024894267, -778822.25, -41516.816, 0.0, 10.009259, 9.925665 
6.105726e+3, 2.3469058e+2, -680463.2, -744341.8, -22.379435, 0.0011203343, 0.00003375457, -680463.2, -40429.844, 0.0, 10.009242, 9.925333 
6.105724e+3, 2.4460934e+2, -592208.7, -666475.5, -3.3831484, 0.0011199611, 0.00019331732, -592208.7, -49379.395, 0.0, 10.009226, 9.911879 
6.1057234e+3, 2.5452134e+2, -493529.6, -567862.25, -18.734798, 0.0011199167, 0.000009685467, -493529.56, -47837.875, 0.0, 10.009211, 9.911778 
6.1057216e+3, 2.6442623e+2, -405372.47, -490610.13, 1.4439795, 0.001119331, 0.00025307777, -405372.47, -56748.79, 0.0, 10.009194, 9.897677 
6.105721e+3, 2.7432448e+2, -306159.66, -391059.78, -13.980366, 0.0011180742, -0.00009704957, -306159.66, -54538.586, 0.0, 10.00918, 9.898095 
6.10572e+3, 2.8421453e+2, -219615.44, -317570.63, 5.431375, 0.001117441, 0.00033236598, -219615.44, -64917.13, 0.0, 10.009165, 9.881315 
6.105718e+3, 2.9409692e+2, -119973.52, -217295.63, -7.7101493, 0.0011176325, -0.00014913687, -119973.52, -62122.547, 0.0, 10.009149, 9.882108 
6.1057174e+3, 3.0400705e+2, -30646.822, -84964.914, 10.217557, 0.0011172381, 0.00027229945, -30646.82, -30646.82, 0.0, 10.009133, 9.937632 
6.105716e+3, 3.1394652e+2, -29625.236, -82805.44, -4.6727843, 0.001115982, 0.000030534997, -29625.234, -29625.234, 0.0, 10.009119, 9.939096 
6.115752e+3, 1.2515089e+2, -1708176.3, -1722682.0, 2.1643035, 0.0011368842, 0.0002041105, -1708176.3, 5346.4355, 0.0, 10.009443, 9.990215 
6.11575e+3, 1.3514094e+2, -1610877.6, -1625962.0, -13.194522, 0.0011336488, 0.000025119612, -1610877.6, 4742.282, 0.0, 10.009424, 9.989431 
6.115748e+3, 1.4512447e+2, -1522862.5, -1546769.9, -4.5060334, 0.0011327701, 0.00028550156, -1522862.5, -5080.977, 0.0, 10.009405, 9.977733 
6.115747e+3, 1.5510218e+2, -1425218.9, -1449513.6, -20.129581, 0.0011340902, 0.00009429086, -1425218.8, -5218.865, 0.0, 10.009384, 9.977201 
6.1157453e+3, 1.650733e+2, -1337189.6, -1370621.4, -6.8933935, 0.0011337252, 0.00017510925, -1337189.6, -14906.742, 0.0, 10.009365, 9.965171 
6.1157435e+3, 1.7503852e+2, -1239309.5, -1273044.9, -22.863121, 0.0011317442, 0.00007104604, -1239309.5, -14685.881, 0.0, 10.009348, 9.964758 
6.1157423e+3, 1.8499704e+2, -1151404.4, -1194732.1, -12.712845, 0.0011309646, 0.00021469021, -1151404.4, -24374.19, 0.0, 10.00933, 9.952184 
6.1157405e+3, 1.9494925e+2, -1053333.9, -1096911.0, -27.495073, 0.0011313669, 0.00008050824, -1053333.9, -23835.457, 0.0, 10.009312, 9.951839 
6.1157393e+3, 2.0489478e+2, -965281.44, -1018670.44, -14.253584, 0.0011309701, 0.00020028774, -965281.44, -33249.13, 0.0, 10.0092945, 9.939017 
6.1157376e+3, 2.1483381e+2, -867068.94, -920708.4, -30.365305, 0.0011297468, 0.0000042261076, -867068.94, -32439.342, 0.0, 10.009278, 9.938676 
6.1157364e+3, 2.2476618e+2, -778852.7, -842523.75, -12.548641, 0.0011290433, 0.00024931817, -778852.7, -41560.207, 0.0, 10.009261, 9.925621 
6.1157346e+3, 2.3469184e+2, -680493.1, -744407.56, -28.488863, 0.0011288958, 0.00003534027, -680493.1, -40472.348, 0.0, 10.009245, 9.92529 
6.1157334e+3, 2.4461058e+2, -592238.1, -666540.6, -9.326413, 0.0011284956, 0.0001944748, -592238.1, -49420.902, 0.0, 10.009229, 9.911836 
6.115732e+3, 2.5452253e+2, -493558.5, -567926.94, -24.685131, 0.0011278009, 0.000008536887, -493558.47, -47878.438, 0.0, 10.0092125, 9.911735 
6.115731e+3, 2.644274e+2, -405402.44, -490677.38, -4.0284534, 0.001127136, 0.0002524165, -405402.44, -56789.992, 0.0, 10.009197, 9.897633 
6.11573e+3, 2.7432555e+2, -306189.4, -391126.84, -19.405638, 0.0011265009, -0.0000937968, -306189.38, -54579.145, 0.0, 10.009183, 9.89805 
6.1157286e+3, 2.842156e+2, -219641.98, -317631.56, -0.40322456, 0.0011260781, 0.00033526123, -219641.98, -64954.063, 0.0, 10.009168, 9.881274 
6.1157274e+3, 2.9409793e+2, -119999.27, -217355.61, -13.612503, 0.0011259329, -0.00015226395, -119999.27, -62158.242, 0.0, 10.009151, 9.882067 
6.115727e+3, 3.0400804e+2, -30677.49, -85035.43, 4.703369, 0.0011253172, 0.00026893485, -30677.488, -30677.488, 0.0, 10.009136, 9.937582 
6.1157256e+3, 3.1394744e+2, -29656.514, -82877.18, -10.109653, 0.0011240102, 0.000035313344, -29656.512, -29656.512, 0.0, 10.009122, 9.939046 
6.125762e+3, 1.2515265e+2, -1707894.6, -1722579.1, 10.1979, 0.0011441221, 0.00020480818, -1707894.6, 5610.7295, 0.0, 10.009639, 9.990173 
6.1257595e+3, 1.3514267e+2, -1610605.0, -1625864.5, -5.19068, 0.0011426394, 0.00002569162, -1610605.0, 4998.0815, 0.0, 10.009616, 9.98939 
6.1257577e+3, 1.4512615e+2, -1522592.3, -1546674.9, 3.9854217, 0.0011418328, 0.00028605215, -1522592.3, -4827.1567, 0.0, 10.009595, 9.977691 
6.1257565e+3, 1.551038e+2, -1424944.9, -1449417.3, -11.761726, 0.001141633, 0.00009491648, -1424944.9, -4960.9, 0.0, 10.009578, 9.9771595 
6.125755e+3, 1.6507488e+2, -1336917.1, -1370527.1, 1.6216714, 0.0011411444, 0.00017576343, -1336917.1, -14649.936, 0.0, 10.009559, 9.965129 
6.125753e+3, 1.7504007e+2, -1239043.6, -1272954.8, -14.587287, 0.0011403854, 0.00007168459, -1239043.6, -14435.185, 0.0, 10.009539, 9.964715 
6.125752e+3, 1.8499854e+2, -1151137.8, -1194638.4, -4.201836, 0.0011397722, 0.00021528668, -1151137.8, -24122.326, 0.0, 10.00952, 9.952145 
6.12575e+3, 1.9495071e+2, -1053065.8, -1096817.1, -19.08984, 0.0011392953, 0.00008103633, -1053065.8, -23581.668, 0.0, 10.009503, 9.9518 
6.125749e+3, 2.048962e+2, -965017.3, -1018584.1, -5.824166, 0.0011387228, 0.00020085422, -965017.3, -32998.99, 0.0, 10.009486, 9.938974 
6.125747e+3, 2.1483521e+2, -866808.56, -920624.75, -22.208134, 0.0011380478, 0.000004940752, -866808.56, -32192.557, 0.0, 10.009468, 9.938632 
6.125746e+3, 2.2476752e+2, -778594.8, -842442.56, -4.3237834, 0.0011375403, 0.00024998112, -778594.8, -41315.43, 0.0, 10.009451, 9.925577 
6.125744e+3, 2.3469314e+2, -680236.4, -744327.7, -20.44184, 0.0011372088, 0.000035735957, -680236.4, -40228.28, 0.0, 10.009435, 9.925245 
6.125743e+3, 2.4461183e+2, -591982.06, -666461.9, -1.3465685, 0.0011366522, 0.0001949182, -591982.06, -49177.113, 0.0, 10.009419, 9.911792 
6.1257416e+3, 2.5452375e+2, -493303.34, -567849.4, -17.145828, 0.0011358331, 0.00000938794, -493303.34, -47635.156, 0.0, 10.009403, 9.911691 
6.1257404e+3, 2.6442856e+2, -405149.88, -490603.03, 3.3579454, 0.0011352564, 0.00025318514, -405149.88, -56548.848, 0.0, 10.009388, 9.897587 
6.125739e+3, 2.7432668e+2, -305940.63, -391055.16, -12.034185, 0.0011349696, -0.00009370973, -305940.63, -54341.332, 0.0, 10.009371, 9.898005 
6.125738e+3, 2.8421667e+2, -219392.61, -317556.88, 6.824887, 0.0011345865, 0.00033539234, -219392.61, -64715.227, 0.0, 10.009356, 9.881232 
6.125737e+3, 2.9409897e+2, -119749.78, -217281.31, -7.1084647, 0.0011340717, -0.00015113044, -119749.78, -61918.88, 0.0, 10.009341, 9.882024 
6.1257356e+3, 3.04009e+2, -30434.98, -84972.86, 10.698238, 0.0011333438, 0.00027010142, -30434.979, -30434.979, 0.0, 10.009326, 9.937533 
6.125735e+3, 3.1394836e+2, -29415.912, -82816.33, -3.9730659, 0.0011322979, 0.0000351173, -29415.912, -29415.912, 0.0, 10.00931, 9.938997 
6.135771e+3, 1.2515442e+2, -1707927.0, -1722644.8, 1.6366061, 0.0011505067, 0.0002054832, -1707927.0, 5560.908, 0.0, 10.009641, 9.990131 
6.1357695e+3, 1.3514441e+2, -1610636.6, -1625929.6, -13.722752, 0.0011524721, 0.00002566071, -1610636.6, 4949.475, 0.0, 10.009619, 9.989348 
6.1357677e+3, 1.4512783e+2, -1522624.0, -1546740.9, -2.671521, 0.0011518028, 0.00028611632, -1522624.0, -4875.5723, 0.0, 10.009598, 9.977648 
6.135766e+3, 1.5510546e+2, -1424976.5, -1449483.0, -18.433834, 0.0011486077, 0.00009583207, -1424976.5, -5008.835, 0.0, 10.00958, 9.977118 
6.135764e+3, 1.6507651e+2, -1336949.1, -1370593.8, -5.8557, 0.0011478561, 0.00017684659, -1336949.1, -14697.743, 0.0, 10.009561, 9.965086 
6.135763e+3, 1.7504165e+2, -1239074.9, -1273020.9, -22.040651, 0.0011494657, 0.00007227654, -1239074.9, -14481.846, 0.0, 10.0095415, 9.964672 
6.135761e+3, 1.8500008e+2, -1151165.8, -1194698.5, -10.382517, 0.0011491608, 0.00021561728, -1151165.8, -24165.336, 0.0, 10.009522, 9.952105 
6.1357594e+3, 1.949522e+2, -1053093.6, -1096877.1, -25.27286, 0.0011469517, 0.000081333514, -1053093.5, -23624.11, 0.0, 10.009506, 9.951761 
6.1357576e+3, 2.0489764e+2, -965048.5, -1018650.9, -12.421618, 0.0011460914, 0.00020144357, -965048.5, -33044.34, 0.0, 10.009489, 9.9389305 
6.1357564e+3, 2.1483661e+2, -866839.2, -920691.06, -28.806288, 0.001146615, 0.000006157355, -866839.2, -32236.934, 0.0, 10.009471, 9.938589 
6.1357546e+3, 2.2476888e+2, -778625.3, -842509.3, -10.368056, 0.0011463903, 0.00025086265, -778625.3, -41359.31, 0.0, 10.009454, 9.925533 
6.1357534e+3, 2.3469447e+2, -680266.5, -744394.0, -26.467619, 0.001145352, 0.000035242774, -680266.5, -40271.32, 0.0, 10.009438, 9.925201 
6.135752e+3, 2.4461311e+2, -592012.25, -666528.75, -7.1476564, 0.0011445452, 0.00019483062, -592012.25, -49219.8, 0.0, 10.009422, 9.911747 
6.135751e+3, 2.5452498e+2, -493333.22, -567915.9, -22.952805, 0.0011439986, 0.00001174443, -493333.22, -47677.055, 0.0, 10.009406, 9.911646 
6.135749e+3, 2.6442975e+2, -405179.88, -490670.34, -2.6901925, 0.0011436341, 0.0002550301, -405179.88, -56590.42, 0.0, 10.00939, 9.897542 
6.1357486e+3, 2.743278e+2, -305970.03, -391122.03, -18.071554, 0.0011434846, -0.0000959984, -305970.03, -54381.867, 0.0, 10.009374, 9.89796 
6.1357474e+3, 2.8421777e+2, -219420.17, -317620.4, 1.3239983, 0.0011430125, 0.00033345152, -219420.17, -64753.47, 0.0, 10.009358, 9.881188 
6.135746e+3, 2.9410002e+2, -119776.94, -217344.27, -12.615327, 0.0011421101, -0.00014678742, -119776.93, -61956.344, 0.0, 10.009344, 9.881981 
6.135745e+3, 3.0401e+2, -30465.549, -85043.016, 4.8789287, 0.0011413536, 0.00027467875, -30465.547, -30465.547, 0.0, 10.009329, 9.937485 
6.135744e+3, 3.1394932e+2, -29446.807, -82887.29, -9.769519, 0.0011407986, 0.00003117927, -29446.805, -29446.805, 0.0, 10.009313, 9.938948 
6.1457807e+3, 1.2515622e+2, -1707648.1, -1722543.6, 10.329512, 0.0011594796, 0.00020597305, -1707648.1, 5822.117, 0.0, 10.009835, 9.99009 
6.1457795e+3, 1.3514617e+2, -1610355.3, -1625827.9, -5.2080092, 0.0011599335, 0.000026238808, -1610355.3, 5213.5493, 0.0, 10.009815, 9.989306 
6.145777e+3, 1.4512956e+2, -1522344.9, -1546641.9, 6.2628417, 0.0011592316, 0.00028675885, -1522344.9, -4613.367, 0.0, 10.009794, 9.977606 
6.1457753e+3, 1.5510713e+2, -1424703.6, -1449388.0, -9.829523, 0.0011573989, 0.000096514865, -1424703.6, -4752.3276, 0.0, 10.009773, 9.977075 
6.145774e+3, 1.6507813e+2, -1336678.1, -1370500.5, 2.9229112, 0.001156747, 0.00017748274, -1336678.1, -14442.654, 0.0, 10.009754, 9.965043 
6.1457723e+3, 1.7504323e+2, -1238802.1, -1272927.4, -13.278002, 0.0011572423, 0.00007278244, -1238802.1, -14224.66, 0.0, 10.009736, 9.964629 
6.1457705e+3, 1.8500161e+2, -1150891.3, -1194601.1, -1.3281556, 0.0011568146, 0.0002161219, -1150891.3, -23906.053, 0.0, 10.009718, 9.952065 
6.145769e+3, 1.9495372e+2, -1052823.4, -1096782.8, -16.457415, 0.0011554632, 0.00008196461, -1052823.4, -23368.754, 0.0, 10.009699, 9.951722 
6.1457676e+3, 2.048991e+2, -964783.56, -1018564.94, -3.58292, 0.0011547728, 0.00020210279, -964783.56, -32793.832, 0.0, 10.009682, 9.938887 
6.1457664e+3, 2.1483803e+2, -866574.3, -920605.9, -20.197653, 0.0011547595, 0.000006743588, -866574.25, -31985.994, 0.0, 10.009665, 9.938544 
6.1457646e+3, 2.2477025e+2, -778361.25, -842425.44, -1.6917937, 0.0011543636, 0.00025141393, -778361.25, -41108.715, 0.0, 10.009648, 9.925488 
6.1457634e+3, 2.346958e+2, -680004.5, -744311.94, -17.970053, 0.0011535478, 0.00003579992, -680004.44, -40022.37, 0.0, 10.009631, 9.925158 
6.1457616e+3, 2.4461439e+2, -591752.7, -666449.56, 1.2564933, 0.0011529091, 0.0001953876, -591752.7, -48972.85, 0.0, 10.009615, 9.911701 
6.1457604e+3, 2.5452623e+2, -493076.03, -567838.7, -14.994932, 0.0011524685, 0.000012294788, -493076.03, -47432.082, 0.0, 10.009599, 9.911601 
6.145759e+3, 2.6443094e+2, -404923.5, -490594.06, 5.1594944, 0.0011520113, 0.00025556533, -404923.47, -56345.805, 0.0, 10.0095825, 9.897497 
6.145758e+3, 2.7432898e+2, -305713.72, -391046.5, -10.22253, 0.001151526, -0.00009548922, -305713.7, -54136.863, 0.0, 10.009567, 9.897914 
6.145757e+3, 2.8421888e+2, -219164.33, -317544.84, 8.846709, 0.0011510518, 0.0003339735, -219164.33, -64508.516, 0.0, 10.009552, 9.881145 
6.1457556e+3, 2.9410106e+2, -119524.84, -217271.22, -5.9615355, 0.0011505887, -0.00014620122, -119524.84, -61714.703, 0.0, 10.009536, 9.881937 
6.1457545e+3, 3.0401102e+2, -30220.107, -84978.39, 11.057607, 0.0011499381, 0.0002752547, -30220.104, -30220.104, 0.0, 10.00952, 9.937437 
6.145753e+3, 3.139503e+2, -29201.652, -82823.26, -3.2544448, 0.0011490061, 0.00003164016, -29201.652, -29201.652, 0.0, 10.009503, 9.938899 
6.1557907e+3, 1.2515806e+2, -1707680.6, -1722610.0, 2.7082965, 0.0011703757, 0.0002063311, -1707680.6, 5771.7197, 0.0, 10.009838, 9.990047 
6.155789e+3, 1.3514794e+2, -1610387.5, -1625893.9, -12.82167, 0.0011656644, 0.000027273774, -1610387.5, 5163.8525, 0.0, 10.009817, 9.9892645 
6.155787e+3, 1.451313e+2, -1522377.8, -1546709.4, -1.5949289, 0.0011648065, 0.00028783426, -1522377.8, -4663.208, 0.0, 10.009797, 9.977562 
6.1557853e+3, 1.5510884e+2, -1424735.9, -1449455.0, -17.644823, 0.0011675509, 0.00009702692, -1424735.8, -4801.179, 0.0, 10.009776, 9.977032 
6.1557835e+3, 1.6507979e+2, -1336709.8, -1370567.0, -3.728504, 0.0011672647, 0.00017778955, -1336709.8, -14490.589, 0.0, 10.009756, 9.965 
6.1557823e+3, 1.7504485e+2, -1238833.5, -1272993.5, -19.934933, 0.0011640742, 0.00007322925, -1238833.5, -14271.851, 0.0, 10.009739, 9.964586 
6.1557806e+3, 1.8500319e+2, -1150920.0, -1194662.5, -8.253055, 0.0011632069, 0.00021676121, -1150920.0, -23950.139, 0.0, 10.009721, 9.952025 
6.155779e+3, 1.9495524e+2, -1052851.6, -1096843.6, -23.372797, 0.0011646267, 0.00008284819, -1052851.6, -23411.934, 0.0, 10.009702, 9.951682 
6.1557776e+3, 2.0490061e+2, -964815.0, -1018632.5, -9.792427, 0.0011644434, 0.00020281706, -964815.0, -32839.81, 0.0, 10.009685, 9.938842 
6.155776e+3, 2.1483947e+2, -866605.3, -920673.1, -26.392254, 0.0011626096, 0.0000068631643, -866605.3, -32031.184, 0.0, 10.009667, 9.9385 
6.1557746e+3, 2.2477165e+2, -778392.1, -842492.9, -7.882012, 0.0011617071, 0.0002517234, -778392.1, -41153.36, 0.0, 10.009651, 9.925445 
6.155773e+3, 2.3469716e+2, -680034.94, -744378.94, -24.177334, 0.001161803, 0.000037146252, -680034.94, -40066.11, 0.0, 10.009634, 9.925113 
6.1557716e+3, 2.446157e+2, -591783.7, -666518.2, -4.804104, 0.0011616419, 0.00019642974, -591783.7, -49016.69, 0.0, 10.009618, 9.911655 
6.15577e+3, 2.5452748e+2, -493106.56, -567906.94, -21.01643, 0.0011611816, 0.000011497949, -493106.56, -47474.992, 0.0, 10.009602, 9.911555 
6.1557686e+3, 2.6443216e+2, -404953.28, -490661.28, -0.5065646, 0.0011604058, 0.00025512575, -404953.28, -56387.53, 0.0, 10.009586, 9.897451 
6.1557674e+3, 2.7433017e+2, -305743.1, -391113.28, -15.932321, 0.0011592365, -0.0000928809, -305743.1, -54177.773, 0.0, 10.00957, 9.897869 
6.155767e+3, 2.8422e+2, -219193.53, -317611.7, 2.7410035, 0.0011588255, 0.00033634232, -219193.53, -64548.78, 0.0, 10.009555, 9.881099 
6.155765e+3, 2.9410216e+2, -119553.484, -217337.6, -11.999084, 0.0011594129, -0.00014842668, -119553.484, -61753.92, 0.0, 10.009539, 9.881891 
6.155764e+3, 3.0401206e+2, -30249.83, -85047.31, 5.302621, 0.0011589667, 0.00027283753, -30249.83, -30249.83, 0.0, 10.009522, 9.937388 
6.155763e+3, 3.1395128e+2, -29231.574, -82892.555, -9.124203, 0.0011570146, 0.00003540366, -29231.572, -29231.572, 0.0, 10.009506, 9.93885 
6.1658007e+3, 1.251599e+2, -1707395.5, -1722505.9, 11.265448, 0.0011780834, 0.00020700299, -1707395.5, 6038.754, 0.0, 10.0100355, 9.9900055 
6.165799e+3, 1.3514976e+2, -1610106.0, -1625792.5, -4.3443165, 0.0011743132, 0.00002800909, -1610106.0, 5427.6855, 0.0, 10.010015, 9.989223 
6.165797e+3, 1.4513306e+2, -1522098.3, -1546610.4, 7.1293344, 0.0011734826, 0.00028850636, -1522098.3, -4401.0596, 0.0, 10.009994, 9.977519 
6.1657953e+3, 1.5511055e+2, -1424456.8, -1449357.0, -8.784688, 0.0011753922, 0.00009751393, -1424456.8, -4539.0117, 0.0, 10.009974, 9.976989 
6.1657935e+3, 1.6508147e+2, -1336432.5, -1370471.1, 5.826883, 0.0011750802, 0.00017826007, -1336432.5, -14229.767, 0.0, 10.0099535, 9.964957 
6.165792e+3, 1.7504647e+2, -1238559.4, -1272899.9, -10.70266, 0.0011726401, 0.00007384584, -1238559.4, -14013.658, 0.0, 10.009934, 9.964543 
6.16579e+3, 1.8500479e+2, -1150644.3, -1194565.0, 0.9518802, 0.0011718391, 0.00021742578, -1150644.3, -23690.045, 0.0, 10.009916, 9.951985 
6.165789e+3, 1.9495681e+2, -1052576.1, -1096746.9, -14.264949, 0.0011726498, 0.000083463776, -1052576.1, -23151.713, 0.0, 10.009899, 9.951642 
6.165787e+3, 2.0490211e+2, -964544.0, -1018543.94, -0.39427987, 0.0011723893, 0.00020336447, -964544.0, -32583.625, 0.0, 10.009881, 9.938798 
6.165786e+3, 2.1484095e+2, -866336.75, -920586.5, -17.138794, 0.0011710232, 0.000007322616, -866336.75, -31776.982, 0.0, 10.009864, 9.938456 
6.165784e+3, 2.2477306e+2, -778125.5, -842408.8, 1.3026663, 0.001170245, 0.00025224237, -778125.5, -40900.63, 0.0, 10.009847, 9.925399 
6.165783e+3, 2.3469853e+2, -679769.4, -744296.2, -15.469544, 0.0011700948, 0.000037884085, -679769.4, -39814.035, 0.0, 10.00983, 9.925067 
6.165781e+3, 2.4461703e+2, -591518.94, -666436.75, 3.8749447, 0.0011698063, 0.00019708757, -591518.94, -48764.992, 0.0, 10.009814, 9.911611 
6.16578e+3, 2.5452876e+2, -492842.97, -567826.8, -12.220819, 0.0011693543, 0.000011733578, -492842.97, -47223.977, 0.0, 10.009799, 9.9115095 
6.165778e+3, 2.6443338e+2, -404691.94, -490584.34, 8.050659, 0.0011686968, 0.00025542494, -404691.94, -56138.33, 0.0, 10.009783, 9.897405 
6.1657774e+3, 2.7433136e+2, -305484.5, -391038.53, -8.433654, 0.0011677804, -0.00009192249, -305484.5, -53930.85, 0.0, 10.009767, 9.897822 
6.1657757e+3, 2.8422117e+2, -218934.02, -317533.88, 9.9808445, 0.0011673437, 0.00033727128, -218934.02, -64300.492, 0.0, 10.00975, 9.881055 
6.165775e+3, 2.9410326e+2, -119294.38, -217260.5, -3.8662074, 0.0011675375, -0.00014844103, -119294.375, -61505.61, 0.0, 10.009735, 9.881847 
6.165774e+3, 3.0401313e+2, -29998.256, -84982.61, 12.926996, 0.0011670333, 0.0002727268, -29998.254, -29998.254, 0.0, 10.009719, 9.937338 
6.1657727e+3, 3.139523e+2, -28981.781, -82829.55, -3.5890427, 0.001165508, 0.000036427857, -28981.781, -28981.781, 0.0, 10.009703, 9.938799 
6.1758107e+3, 1.2516177e+2, -1707428.1, -1722572.6, 3.1660528, 0.0011834732, 0.00020790736, -1707428.1, 5987.767, 0.0, 10.010038, 9.989964 
6.175809e+3, 1.3515158e+2, -1610138.4, -1625858.8, -12.421462, 0.0011851266, 0.000028525092, -1610138.4, 5377.39, 0.0, 10.010016, 9.98918 
6.175807e+3, 1.4513484e+2, -1522130.8, -1546677.3, -0.41620737, 0.001184455, 0.0002888841, -1522130.8, -4450.992, 0.0, 10.009995, 9.977477 
6.1758053e+3, 1.5511231e+2, -1424488.6, -1449423.4, -16.337742, 0.0011815524, 0.000097987715, -1424488.6, -4587.961, 0.0, 10.009975, 9.976946 
6.1758035e+3, 1.6508317e+2, -1336465.0, -1370539.0, -1.2533743, 0.0011809288, 0.00017885678, -1336465.0, -14278.829, 0.0, 10.009956, 9.964913 
6.175802e+3, 1.7504813e+2, -1238591.4, -1272967.4, -17.763348, 0.0011825027, 0.00007459137, -1238591.4, -14061.898, 0.0, 10.009937, 9.964499 
6.1758006e+3, 1.850064e+2, -1150673.1, -1194626.6, -5.636806, 0.0011821389, 0.00021811177, -1150673.1, -23734.652, 0.0, 10.009919, 9.951945 
6.175798e+3, 1.9495837e+2, -1052604.5, -1096808.1, -20.84586, 0.0011798519, 0.000083884355, -1052604.5, -23195.477, 0.0, 10.009902, 9.951601 
6.175797e+3, 2.0490365e+2, -964575.7, -1018612.0, -6.8433447, 0.0011790846, 0.000203793, -964575.7, -32630.277, 0.0, 10.009884, 9.938753 
6.175795e+3, 2.1484244e+2, -866368.0, -920654.25, -23.596317, 0.0011798725, 0.00000803994, -866368.0, -31822.76, 0.0, 10.009867, 9.938411 
6.175794e+3, 2.2477452e+2, -778157.3, -842478.1, -4.803161, 0.0011796826, 0.0002529213, -778157.3, -40946.535, 0.0, 10.00985, 9.925353 
6.175792e+3, 2.3469993e+2, -679800.75, -744365.1, -21.543161, 0.0011784326, 0.000038171573, -679800.75, -39859.04, 0.0, 10.009833, 9.925021 
6.175791e+3, 2.4461839e+2, -591549.6, -666504.8, -2.0696993, 0.0011775712, 0.00019746293, -591549.6, -48808.867, 0.0, 10.009817, 9.911565 
6.17579e+3, 2.5453007e+2, -492873.16, -567894.4, -18.202375, 0.0011771481, 0.000012745026, -492873.16, -47266.94, 0.0, 10.009802, 9.911464 
6.175788e+3, 2.6443467e+2, -404723.72, -490655.7, 2.044591, 0.0011769318, 0.0002562801, -404723.72, -56182.414, 0.0, 10.009786, 9.897357 
6.175787e+3, 2.7433255e+2, -305515.88, -391109.6, -14.369017, 0.0011769593, -0.00009219351, -305515.88, -53974.043, 0.0, 10.009769, 9.897774 
6.1757857e+3, 2.8422233e+2, -218961.36, -317597.25, 4.1841555, 0.0011764311, 0.00033712853, -218961.36, -64339.227, 0.0, 10.009753, 9.881012 
6.1757845e+3, 2.941044e+2, -119321.04, -217322.88, -9.777779, 0.0011751652, -0.00014679684, -119321.04, -61543.254, 0.0, 10.009738, 9.881804 
6.175784e+3, 3.0401418e+2, -30031.514, -85058.92, 6.7479496, 0.0011744094, 0.00027434534, -30031.512, -30031.512, 0.0, 10.009722, 9.937284 
6.175782e+3, 3.139533e+2, -29015.723, -82907.38, -9.62724, 0.0011743798, 0.000035405796, -29015.72, -29015.72, 0.0, 10.009706, 9.9387455 
6.1858207e+3, 1.2516366e+2, -1707140.0, -1722467.0, 12.117358, 0.0011917478, 0.00020838986, -1707140.0, 6257.347, 0.0, 10.010239, 9.989921 
6.185819e+3, 1.3515344e+2, -1609854.0, -1625756.0, -3.4897127, 0.0011932863, 0.000028990491, -1609854.0, 5643.6064, 0.0, 10.010216, 9.989138 
6.185817e+3, 1.4513665e+2, -1521848.8, -1546577.4, 9.3797245, 0.0011926448, 0.00028939173, -1521848.8, -4186.696, 0.0, 10.010194, 9.977433 
6.1858153e+3, 1.5511405e+2, -1424206.9, -1449324.3, -6.9088144, 0.0011899059, 0.00009859164, -1424206.9, -4323.489, 0.0, 10.010175, 9.976903 
6.1858135e+3, 1.6508488e+2, -1336184.5, -1370441.9, 8.176678, 0.0011892545, 0.00017948078, -1336184.5, -14015.212, 0.0, 10.010156, 9.9648695 
6.185812e+3, 1.7504981e+2, -1238313.1, -1272872.1, -8.383893, 0.001190619, 0.00007516262, -1238313.1, -13800.083, 0.0, 10.010137, 9.964456 
6.18581e+3, 1.8500802e+2, -1150393.3, -1194527.3, 4.3297873, 0.0011903038, 0.00021863592, -1150393.3, -23470.803, 0.0, 10.010118, 9.951904 
6.185809e+3, 1.9495998e+2, -1052325.8, -1096710.0, -10.99838, 0.0011883186, 0.000084366875, -1052325.8, -22932.318, 0.0, 10.0101, 9.951561 
6.1858064e+3, 2.049052e+2, -964301.5, -1018522.6, 2.9005497, 0.0011875544, 0.00020433342, -964301.5, -32371.354, 0.0, 10.010083, 9.938707 
6.185805e+3, 2.1484393e+2, -866095.1, -920566.25, -14.224839, 0.0011880405, 0.000008740488, -866095.1, -31564.666, 0.0, 10.010066, 9.938366 
6.1858034e+3, 2.2477597e+2, -777885.7, -842392.06, 4.7458577, 0.0011878094, 0.00025354026, -777885.7, -40689.26, 0.0, 10.01005, 9.925307 
6.185802e+3, 2.3470134e+2, -679530.5, -744280.5, -11.977325, 0.0011867989, 0.00003844855, -679530.5, -39602.688, 0.0, 10.010034, 9.924975 
6.185801e+3, 2.4461976e+2, -591280.94, -666422.56, 7.311194, 0.001186037, 0.00019782477, -591280.94, -48553.58, 0.0, 10.010017, 9.911518 
6.185799e+3, 2.5453138e+2, -492605.88, -567813.6, -9.59938, 0.001185554, 0.000013678983, -492605.88, -47012.605, 0.0, 10.010001, 9.911417 
6.185798e+3, 2.6443592e+2, -404457.63, -490576.75, 10.490329, 0.0011852566, 0.0002571106, -404457.63, -55928.82, 0.0, 10.009986, 9.897309 
6.185797e+3, 2.7433378e+2, -305251.0, -391032.1, -5.397101, 0.0011851777, -0.000092291884, -305251.0, -53721.22, 0.0, 10.00997, 9.897727 
6.1857957e+3, 2.842235e+2, -218696.4, -317518.6, 12.758408, 0.0011847063, 0.0003370891, -218696.4, -64085.85, 0.0, 10.0099535, 9.880966 
6.1857945e+3, 2.9410553e+2, -119058.195, -217245.9, -2.9828076, 0.0011837119, -0.00014547307, -119058.195, -61291.55, 0.0, 10.009937, 9.88176 
6.185793e+3, 3.0401528e+2, -29775.434, -84991.96, 12.845112, 0.0011829851, 0.00027570451, -29775.43, -29775.43, 0.0, 10.009921, 9.937234 
6.1857927e+3, 3.1395435e+2, -28760.139, -82841.27, -1.942582, 0.0011826353, 0.000034888428, -28760.139, -28760.139, 0.0, 10.009905, 9.938694 
6.1958313e+3, 1.2516558e+2, -1707173.1, -1722533.9, 3.4167266, 0.0012021476, 0.00020856874, -1707173.1, 6205.5664, 0.0, 10.010241, 9.989879 
6.195829e+3, 1.351553e+2, -1609886.3, -1625822.3, -12.170053, 0.0011995232, 0.000029425277, -1609886.1, 5593.0664, 0.0, 10.010218, 9.989095 
6.195827e+3, 1.4513849e+2, -1521881.8, -1546645.6, 2.1114092, 0.0011988204, 0.00029000017, -1521881.8, -4237.6323, 0.0, 10.010197, 9.977389 
6.195826e+3, 1.5511584e+2, -1424239.8, -1449392.4, -14.151666, 0.0011998857, 0.000099293924, -1424239.8, -4373.8604, 0.0, 10.010178, 9.976859 
6.1958236e+3, 1.6508664e+2, -1336217.1, -1370510.0, 0.9155399, 0.0011994126, 0.00018012711, -1336217.1, -14064.9795, 0.0, 10.010159, 9.964826 
6.195822e+3, 1.7505151e+2, -1238345.1, -1272939.6, -15.6329155, 0.0011974752, 0.000075609765, -1238345.1, -13848.707, 0.0, 10.010139, 9.964412 
6.1958206e+3, 1.8500969e+2, -1150422.1, -1194589.1, -2.1543972, 0.0011969252, 0.00021904627, -1150422.1, -23515.885, 0.0, 10.01012, 9.951864 
6.195819e+3, 1.9496158e+2, -1052354.4, -1096771.8, -17.485575, 0.001197732, 0.00008490073, -1052354.4, -22976.732, 0.0, 10.010103, 9.951521 
6.195817e+3, 2.0490676e+2, -964334.0, -1018592.3, -3.496748, 0.0011973444, 0.00020496064, -964334.0, -32419.242, 0.0, 10.010086, 9.938662 
6.195815e+3, 2.1484546e+2, -866127.06, -920635.5, -20.60202, 0.0011957287, 0.0000094299785, -866127.06, -31611.563, 0.0, 10.010069, 9.93832 
6.195814e+3, 2.2477745e+2, -777917.3, -842461.25, -1.3185143, 0.0011949958, 0.0002541177, -777917.3, -40735.39, 0.0, 10.010053, 9.9252615 
6.195812e+3, 2.3470278e+2, -679561.7, -744349.25, -18.056087, 0.0011952062, 0.000038726732, -679561.7, -39647.93, 0.0, 10.010036, 9.92493 
6.195811e+3, 2.4462114e+2, -591313.06, -666493.75, 1.371181, 0.0011950372, 0.00019818415, -591313.06, -48599.344, 0.0, 10.01002, 9.91147 
6.19581e+3, 2.5453272e+2, -492637.56, -567884.44, -15.497991, 0.0011944296, 0.000014553041, -492637.56, -47057.457, 0.0, 10.010004, 9.911369 
6.195808e+3, 2.6443723e+2, -404488.25, -490645.94, 4.5996323, 0.0011936681, 0.00025792184, -404488.25, -55972.117, 0.0, 10.009989, 9.897264 
6.195807e+3, 2.7433503e+2, -305281.06, -391100.72, -11.354003, 0.0011927107, -0.00009224777, -305281.06, -53763.504, 0.0, 10.009973, 9.89768 
6.1958057e+3, 2.842247e+2, -218726.89, -317588.63, 6.719779, 0.0011924054, 0.00033713982, -218726.89, -64128.1, 0.0, 10.009957, 9.8809185 
6.1958045e+3, 2.941067e+2, -119088.28, -217315.61, -8.923375, 0.0011929551, -0.00014439657, -119088.28, -61332.938, 0.0, 10.009941, 9.881712 
6.195803e+3, 3.0401638e+2, -29805.852, -85062.6, 6.7810225, 0.0011924634, 0.00027686098, -29805.852, -29805.852, 0.0, 10.009925, 9.937185 
6.195802e+3, 3.1395543e+2, -28790.588, -82912.07, -8.187728, 0.0011904578, 0.000034766123, -28790.586, -28790.586, 0.0, 10.009908, 9.938644 
6.2058413e+3, 1.2516752e+2, -1706885.5, -1722429.0, 12.642932, 0.0012106593, 0.00020908956, -1706885.5, 6474.159, 0.0, 10.010441, 9.989836 
6.2058395e+3, 1.3515721e+2, -1609596.1, -1625716.8, -3.1364694, 0.0012074978, 0.000030113593, -1609596.1, 5864.526, 0.0, 10.010421, 9.989053 
6.205838e+3, 1.4514033e+2, -1521593.5, -1546542.9, 11.419323, 0.0012067711, 0.0002906859, -1521593.5, -3967.5535, 0.0, 10.0104, 9.977346 
6.205836e+3, 1.5511766e+2, -1423956.6, -1449292.9, -4.7647786, 0.0012082959, 0.000099814875, -1423956.6, -4108.436, 0.0, 10.010378, 9.976815 
6.205834e+3, 1.650884e+2, -1335935.8, -1370412.6, 11.200375, 0.001207923, 0.00018058543, -1335935.8, -13800.896, 0.0, 10.010358, 9.964782 
6.205832e+3, 1.7505322e+2, -1238062.4, -1272842.4, -5.500547, 0.0012057406, 0.0000761036, -1238062.4, -13582.851, 0.0, 10.010341, 9.964368 
6.2058306e+3, 1.8501137e+2, -1150137.0, -1194487.6, 7.9546127, 0.0012051057, 0.00021960466, -1150137.0, -23247.322, 0.0, 10.010324, 9.951823 
6.205829e+3, 1.9496323e+2, -1052072.1, -1096672.5, -7.6150513, 0.0012059868, 0.00008555226, -1052072.1, -22710.648, 0.0, 10.010304, 9.95148 
6.205827e+3, 2.0490836e+2, -964056.8, -1018501.9, 6.767527, 0.0012056765, 0.00020554547, -964056.8, -32157.676, 0.0, 10.010287, 9.938616 
6.205826e+3, 2.1484701e+2, -865850.0, -920545.94, -10.386108, 0.0012041403, 0.000009784381, -865849.94, -31349.645, 0.0, 10.010272, 9.938274 
6.205824e+3, 2.2477897e+2, -777641.2, -842373.75, 8.76143, 0.0012033999, 0.000254524, -777641.2, -40473.965, 0.0, 10.010256, 9.925215 
6.205822e+3, 2.3470424e+2, -679287.06, -744263.25, -8.492179, 0.0012035094, 0.00003948843, -679287.06, -39387.555, 0.0, 10.01024, 9.924883 
6.205821e+3, 2.4462256e+2, -591039.8, -666409.94, 10.935529, 0.001203326, 0.0001988803, -591039.8, -48339.906, 0.0, 10.010223, 9.911424 
6.20582e+3, 2.545341e+2, -492365.5, -567802.0, -5.8193913, 0.0012028022, 0.000014703533, -492365.5, -46798.73, 0.0, 10.010208, 9.911323 
6.2058187e+3, 2.6443854e+2, -404217.4, -490565.8, 13.938797, 0.0012020967, 0.00025814874, -404217.4, -55714.164, 0.0, 10.010192, 9.897215 
6.205817e+3, 2.743363e+2, -305011.28, -391021.97, -3.1041489, 0.0012011612, -0.0000911845, -305011.28, -53506.12, 0.0, 10.010177, 9.897633 
6.2058157e+3, 2.842259e+2, -218456.45, -317507.94, 14.547199, 0.0012008214, 0.00033811538, -218456.45, -63869.617, 0.0, 10.010161, 9.880873 
6.2058145e+3, 2.9410785e+2, -118819.74, -217236.5, -0.23095167, 0.001201263, -0.00014473022, -118819.74, -61075.887, 0.0, 10.010144, 9.881665 
6.205813e+3, 3.040175e+2, -29544.766, -84995.05, 14.820615, 0.0012007939, 0.0002765146, -29544.762, -29544.762, 0.0, 10.010128, 9.937133 
6.205812e+3, 3.1395647e+2, -28530.092, -82845.55, -2.470637, 0.0011989989, 0.000036282, -28530.092, -28530.092, 0.0, 10.010112, 9.938591 
6.215852e+3, 1.2516949e+2, -1706918.5, -1722496.5, 4.940196, 0.0012178168, 0.00020986222, -1706918.5, 6421.9014, 0.0, 10.010444, 9.989793 
6.21585e+3, 1.3515912e+2, -1609629.3, -1625784.1, -10.8213825, 0.0012167606, 0.000030987296, -1609629.3, 5812.653, 0.0, 10.010423, 9.98901 
6.2158483e+3, 1.4514221e+2, -1521626.8, -1546611.0, 3.2610629, 0.0012160362, 0.00029142917, -1521626.8, -4019.1921, 0.0, 10.010402, 9.977303 
6.215846e+3, 1.551195e+2, -1423989.0, -1449360.4, -12.9037485, 0.0012155807, 0.000100208104, -1423989.0, -4158.7515, 0.0, 10.010381, 9.976772 
6.215844e+3, 1.6509017e+2, -1335968.5, -1370481.1, 4.64951, 0.0012152515, 0.00018091251, -1335968.5, -13851.051, 0.0, 10.010361, 9.964737 
6.215843e+3, 1.7505498e+2, -1238094.9, -1272910.6, -12.046868, 0.0012150541, 0.00007663697, -1238094.9, -13632.42, 0.0, 10.010344, 9.964323 
6.2158406e+3, 1.8501307e+2, -1150166.6, -1194550.8, 1.1065695, 0.001214444, 0.00022027503, -1150166.6, -23293.607, 0.0, 10.010325, 9.951782 
6.2158394e+3, 1.9496489e+2, -1052101.1, -1096735.0, -14.443662, 0.0012134167, 0.00008629124, -1052101.1, -22755.826, 0.0, 10.010307, 9.951439 
6.2158376e+3, 2.0490998e+2, -964089.06, -1018571.56, 0.74375784, 0.0012129657, 0.0002061022, -964089.06, -32205.795, 0.0, 10.010291, 9.93857 
6.215836e+3, 2.148486e+2, -865881.94, -920615.25, -16.41621, 0.0012131003, 0.000009902118, -865881.94, -31397.027, 0.0, 10.010275, 9.938229 
6.2158346e+3, 2.2478049e+2, -777673.94, -842445.06, 2.6822689, 0.0012127128, 0.00025481245, -777673.94, -40521.65, 0.0, 10.010259, 9.925168 
6.215832e+3, 2.3470572e+2, -679319.2, -744334.1, -14.551482, 0.0012117572, 0.000040602998, -679319.2, -39434.19, 0.0, 10.010242, 9.924836 
6.215831e+3, 2.4462399e+2, -591071.56, -666480.56, 5.097941, 0.0012111163, 0.00019982291, -591071.56, -48385.65, 0.0, 10.010226, 9.911376 
6.21583e+3, 2.5453547e+2, -492396.75, -567872.2, -11.674641, 0.0012108282, 0.000014336448, -492396.75, -46843.52, 0.0, 10.010211, 9.911275 
6.2158287e+3, 2.6443988e+2, -404250.03, -490639.22, 8.156027, 0.001210559, 0.00025795883, -404250.03, -55759.848, 0.0, 10.010196, 9.897165 
6.215827e+3, 2.743376e+2, -305043.5, -391095.1, -8.841389, 0.0012103036, -0.00008938187, -305043.5, -53550.957, 0.0, 10.0101795, 9.897583 
6.2158257e+3, 2.8422713e+2, -218485.27, -317574.63, 8.467894, 0.0012097829, 0.00033976202, -218485.27, -63910.555, 0.0, 10.010164, 9.880827 
6.2158245e+3, 2.9410905e+2, -118847.72, -217302.19, -6.413205, 0.0012089076, -0.00014607728, -118847.72, -61115.535, 0.0, 10.010148, 9.88162 
6.215823e+3, 3.0401865e+2, -29578.904, -85073.85, 8.611004, 0.0012083059, 0.0002750884, -29578.902, -29578.902, 0.0, 10.010132, 9.9370775 
6.215822e+3, 3.1395754e+2, -28564.969, -82925.836, -8.57803, 0.0012080867, 0.000038983857, -28564.967, -28564.967, 0.0, 10.010115, 9.938536 
6.2258625e+3, 1.2517147e+2, -1706623.5, -1722387.6, 14.034886, 0.001225534, 0.00021046959, -1706623.5, 6697.506, 0.0, 10.010648, 9.989751 
6.22586e+3, 1.3516107e+2, -1609341.1, -1625679.8, -1.6100527, 0.0012254881, 0.000031437503, -1609341.1, 6081.755, 0.0, 10.010624, 9.988967 
6.2258583e+3, 1.4514412e+2, -1521340.8, -1546509.5, 13.455602, 0.0012248262, 0.00029184108, -1521340.8, -3751.7603, 0.0, 10.010603, 9.977259 
6.2258565e+3, 1.5512134e+2, -1423699.6, -1449257.9, -2.8913276, 0.0012235397, 0.00010069126, -1423699.6, -3887.5999, 0.0, 10.010585, 9.976728 
6.225855e+3, 1.6509199e+2, -1335680.1, -1370380.8, 14.918076, 0.0012231284, 0.00018147271, -1335680.1, -13580.458, 0.0, 10.010566, 9.964692 
6.225853e+3, 1.7505674e+2, -1237811.1, -1272813.3, -1.9651979, 0.0012235671, 0.00007728027, -1237811.1, -13366.023, 0.0, 10.010547, 9.964279 
6.225851e+3, 1.850148e+2, -1149881.0, -1194449.3, 11.802374, 0.0012230716, 0.00022084931, -1149881.0, -23024.863, 0.0, 10.010529, 9.951741 
6.2258494e+3, 1.9496657e+2, -1051813.6, -1096633.3, -3.7402039, 0.0012216445, 0.00008664679, -1051813.6, -22484.844, 0.0, 10.010512, 9.951398 
6.2258476e+3, 2.0491162e+2, -963805.9, -1018478.75, 11.390135, 0.0012211131, 0.00020649288, -963805.9, -31938.637, 0.0, 10.010496, 9.938524 
6.2258464e+3, 2.1485017e+2, -865601.56, -920524.7, -6.164229, 0.0012214949, 0.00001058764, -865601.56, -31132.232, 0.0, 10.01048, 9.938182 
6.2258446e+3, 2.2478203e+2, -777395.0, -842356.8, 13.15761, 0.0012211917, 0.00025547182, -777395.0, -40257.85, 0.0, 10.010464, 9.92512 
6.2258434e+3, 2.3470722e+2, -679039.94, -744246.5, -4.1341653, 0.0012201448, 0.00004089172, -679039.94, -39169.625, 0.0, 10.010448, 9.924788 
6.2258416e+3, 2.4462545e+2, -590792.8, -666394.8, 15.247409, 0.0012194653, 0.0002001387, -590792.8, -48121.133, 0.0, 10.010433, 9.911328 
6.2258404e+3, 2.5453687e+2, -492119.2, -567787.9, -2.1229398, 0.0012191988, 0.000015131681, -492119.2, -46579.727, 0.0, 10.010418, 9.911227 
6.2258387e+3, 2.6444122e+2, -403974.22, -490557.75, 17.460041, 0.0012189666, 0.0002586914, -403974.22, -55497.332, 0.0, 10.010403, 9.897117 
6.2258375e+3, 2.743389e+2, -304769.53, -391015.38, 0.58728665, 0.0012187666, -0.0000893719, -304769.53, -53289.773, 0.0, 10.010387, 9.897533 
6.2258357e+3, 2.842284e+2, -218210.14, -317492.53, 17.428587, 0.0012182522, 0.000339824, -218210.14, -63647.742, 0.0, 10.010372, 9.88078 
6.225835e+3, 2.9411027e+2, -118572.64, -217220.73, 1.353333, 0.0012173185, -0.00014494425, -118572.64, -60852.324, 0.0, 10.010357, 9.881574 
6.225833e+3, 3.040198e+2, -29311.025, -85004.484, 15.472517, 0.0012166967, 0.00027622253, -29311.021, -29311.021, 0.0, 10.010341, 9.937024 
6.2258327e+3, 3.1395867e+2, -28298.63, -82858.016, -0.98515224, 0.0012165137, 0.000038585, -28298.63, -28298.63, 0.0, 10.010324, 9.938481 
6.235873e+3, 1.2517348e+2, -1706656.8, -1722455.0, 4.9749017, 0.0012336847, 0.00021095989, -1706656.8, 6644.5254, 0.0, 10.010651, 9.989708 
6.2358713e+3, 1.3516302e+2, -1609373.5, -1625746.4, -10.638177, 0.0012338404, 0.000031588268, -1609373.5, 6030.129, 0.0, 10.010627, 9.988924 
6.235869e+3, 1.4514604e+2, -1521374.0, -1546578.3, 6.493266, 0.0012332838, 0.00029202076, -1521374.0, -3803.806, 0.0, 10.010606, 9.977215 
6.235867e+3, 1.5512323e+2, -1423732.9, -1449326.4, -9.846762, 0.001232013, 0.00010124394, -1423732.8, -3939.147, 0.0, 10.010588, 9.976685 
6.2358654e+3, 1.6509382e+2, -1335713.5, -1370450.3, 7.544225, 0.0012314302, 0.00018220414, -1335713.5, -13631.875, 0.0, 10.010569, 9.964648 
6.2358636e+3, 1.7505853e+2, -1237843.8, -1272882.1, -9.313558, 0.0012315171, 0.000078004894, -1237843.8, -13416.135, 0.0, 10.01055, 9.964234 
6.235862e+3, 1.8501654e+2, -1149910.3, -1194512.0, 5.832519, 0.0012312, 0.00022135743, -1149910.3, -23071.162, 0.0, 10.010531, 9.9517 
6.23586e+3, 1.9496828e+2, -1051842.6, -1096695.9, -9.715578, 0.0012304737, 0.000086732216, -1051842.6, -22530.59, 0.0, 10.010515, 9.951357 
6.235858e+3, 2.0491329e+2, -963839.25, -1018550.2, 5.0051703, 0.001229907, 0.0002067702, -963839.25, -31988.273, 0.0, 10.010499, 9.9384775 
6.235857e+3, 2.148518e+2, -865634.2, -920595.6, -12.534709, 0.001229499, 0.0000116853835, -865634.2, -31180.678, 0.0, 10.010483, 9.938135 
6.235855e+3, 2.247836e+2, -777427.5, -842428.2, 7.550651, 0.0012290846, 0.00025640102, -777427.5, -40305.75, 0.0, 10.010467, 9.925074 
6.2358534e+3, 2.3470873e+2, -679072.1, -744317.5, -9.73361, 0.0012286558, 0.000040590337, -679072.1, -39216.71, 0.0, 10.010451, 9.924742 
6.235852e+3, 2.4462691e+2, -590825.8, -666467.8, 9.495738, 0.0012282428, 0.00020000858, -590825.8, -48168.53, 0.0, 10.010437, 9.91128 
6.2358505e+3, 2.5453833e+2, -492151.66, -567860.44, -7.86888, 0.0012278415, 0.000016768992, -492151.66, -46626.117, 0.0, 10.010422, 9.911179 
6.235849e+3, 2.644426e+2, -404006.44, -490630.53, 11.627958, 0.0012273552, 0.00026009223, -404006.44, -55543.008, 0.0, 10.0104065, 9.897067 
6.2358475e+3, 2.743402e+2, -304801.16, -391087.66, -5.268985, 0.001226756, -0.00009065074, -304801.16, -53334.36, 0.0, 10.01039, 9.897485 
6.235847e+3, 2.8422967e+2, -218240.89, -317563.6, 11.667092, 0.0012263854, 0.00033874865, -218240.89, -63690.99, 0.0, 10.010375, 9.880732 
6.235845e+3, 2.941115e+2, -118602.99, -217291.31, -4.3759003, 0.00122631, -0.000142016, -118602.99, -60894.723, 0.0, 10.01036, 9.881526 
6.2358445e+3, 3.04021e+2, -29343.934, -85080.625, 9.098044, 0.0012257501, 0.0002792085, -29343.932, -29343.932, 0.0, 10.010344, 9.936971 
6.235843e+3, 3.1395978e+2, -28331.65, -82934.734, -7.4773664, 0.0012244808, 0.00003594909, -28331.65, -28331.65, 0.0, 10.010326, 9.938428 
6.245884e+3, 1.251755e+2, -1706365.0, -1722347.9, 14.53619, 0.0012425248, 0.00021136212, -1706365.0, 6916.428, 0.0, 10.010853, 9.989665 
6.245882e+3, 1.3516502e+2, -1609078.1, -1625638.1, -1.2288039, 0.0012416071, 0.00003214914, -1609078.1, 6305.9907, 0.0, 10.010833, 9.988881 
6.24588e+3, 1.4514798e+2, -1521080.3, -1546473.0, 16.570885, 0.0012410302, 0.00029262685, -1521080.3, -3529.2253, 0.0, 10.010812, 9.977171 
6.245878e+3, 1.5512513e+2, -1423444.5, -1449224.9, 0.1682723, 0.0012407253, 0.00010178674, -1423444.5, -3669.5012, 0.0, 10.010791, 9.976641 
6.245876e+3, 1.6509569e+2, -1335426.5, -1370350.8, 18.345863, 0.00124021, 0.00018267133, -1335426.5, -13363.004, 0.0, 10.010773, 9.964603 
6.245874e+3, 1.7506035e+2, -1237553.6, -1272781.9, 1.4534357, 0.0012395061, 0.000078385005, -1237553.6, -13143.831, 0.0, 10.010756, 9.96419 
6.2458724e+3, 1.8501832e+2, -1149617.5, -1194407.1, 16.825338, 0.0012391402, 0.00022179226, -1149617.5, -22795.781, 0.0, 10.010739, 9.951659 
6.2458706e+3, 1.9497e+2, -1051553.9, -1096593.8, 1.0178977, 0.0012390944, 0.00008736107, -1051553.9, -22258.705, 0.0, 10.010721, 9.951315 
6.2458694e+3, 2.0491496e+2, -963555.25, -1018457.6, 16.099817, 0.0012386163, 0.00020737022, -963555.25, -31720.783, 0.0, 10.010706, 9.938431 
6.245867e+3, 2.1485342e+2, -865348.1, -920502.75, -1.5335722, 0.001237692, 0.000012029179, -865348.1, -30910.635, 0.0, 10.010692, 9.938088 
6.245866e+3, 2.247852e+2, -777141.7, -842337.1, 18.444624, 0.0012371916, 0.00025675222, -777141.7, -40035.5, 0.0, 10.010676, 9.925026 
6.245864e+3, 2.3471026e+2, -678788.7, -744228.44, 0.79052484, 0.0012371388, 0.000041231368, -678788.7, -38948.367, 0.0, 10.010661, 9.924694 
6.245863e+3, 2.446284e+2, -590544.06, -666381.7, 19.95651, 0.0012368596, 0.00020063504, -590544.06, -47901.4, 0.0, 10.010646, 9.911231 
6.245861e+3, 2.5453976e+2, -491870.03, -567775.2, 2.3928833, 0.0012363162, 0.000017034916, -491870.03, -46358.66, 0.0, 10.010632, 9.91113 
6.24586e+3, 2.64444e+2, -403725.03, -490547.03, 21.497223, 0.0012357217, 0.0002603726, -403725.03, -55275.273, 0.0, 10.010617, 9.8970175 
6.2458587e+3, 2.7434155e+2, -304519.88, -391005.1, 4.0273066, 0.0012350561, -0.00008989916, -304519.88, -53066.273, 0.0, 10.010603, 9.897434 
6.245857e+3, 2.8423098e+2, -217959.2, -317479.78, 20.349407, 0.0012347569, 0.00033948067, -217959.2, -63421.992, 0.0, 10.010588, 9.880684 
6.2458557e+3, 2.9411274e+2, -118324.12, -217209.6, 4.21577, 0.0012349347, -0.00014195114, -118324.12, -60628.063, 0.0, 10.0105715, 9.881477 
6.2458545e+3, 3.040222e+2, -29072.176, -85010.07, 16.902796, 0.0012344106, 0.0002792331, -29072.17, -29072.17, 0.0, 10.010556, 9.936916 
6.2458533e+3, 3.1396094e+2, -28058.64, -82864.27, -0.6733436, 0.0012328648, 0.000036840916, -28058.64, -28058.64, 0.0, 10.01054, 9.938373 
6.2558943e+3, 1.2517756e+2, -1706398.3, -1722415.8, 6.7172832, 0.0012518638, 0.00021170624, -1706398.3, 6862.9883, 0.0, 10.010856, 9.989622 
6.2558925e+3, 1.3516703e+2, -1609111.3, -1625705.8, -9.032262, 0.0012489867, 0.000033006054, -1609111.3, 6253.0977, 0.0, 10.010835, 9.988838 
6.255891e+3, 1.4514995e+2, -1521114.1, -1546542.3, 8.604928, 0.001248301, 0.0002935399, -1521114.1, -3582.3044, 0.0, 10.010815, 9.977127 
6.255889e+3, 1.5512705e+2, -1423477.5, -1449293.4, -7.76144, 0.0012496207, 0.00010232526, -1423477.5, -3721.3193, 0.0, 10.010794, 9.976596 
6.2558866e+3, 1.6509756e+2, -1335459.6, -1370420.3, 12.115735, 0.0012493423, 0.0001829536, -1335459.6, -13414.567, 0.0, 10.010776, 9.964559 
6.2558854e+3, 1.7506218e+2, -1237586.6, -1272850.9, -4.772495, 0.0012475516, 0.0000785246, -1237586.6, -13194.741, 0.0, 10.010758, 9.964145 
6.2558836e+3, 1.8502009e+2, -1149647.6, -1194471.3, 10.207973, 0.0012469759, 0.0002221802, -1149647.6, -22843.412, 0.0, 10.010742, 9.951617 
6.255881e+3, 1.9497176e+2, -1051583.1, -1096657.3, -5.5864663, 0.0012475804, 0.00008838163, -1051583.1, -22305.156, 0.0, 10.010725, 9.951273 
6.25588e+3, 2.0491667e+2, -963588.44, -1018529.2, 10.656806, 0.0012472784, 0.00020820367, -963588.44, -31770.662, 0.0, 10.010709, 9.938383 
6.255878e+3, 2.1485509e+2, -865381.06, -920574.06, -6.964908, 0.0012460466, 0.000011838131, -865381.06, -30959.809, 0.0, 10.0106945, 9.938042 
6.2558764e+3, 2.247868e+2, -777175.25, -842410.1, 12.610472, 0.0012454811, 0.0002566955, -777175.25, -40084.797, 0.0, 10.010679, 9.924977 
6.255875e+3, 2.3471184e+2, -678821.5, -744300.9, -5.0523815, 0.0012456217, 0.000042552154, -678821.5, -38996.492, 0.0, 10.010664, 9.924645 
6.255873e+3, 2.4462992e+2, -590577.1, -666455.3, 14.547837, 0.001245378, 0.000201807, -590577.1, -47949.31, 0.0, 10.01065, 9.911181 
6.2558717e+3, 2.5454122e+2, -491902.66, -567848.44, -2.9927561, 0.0012446906, 0.000016321414, -491902.66, -46405.625, 0.0, 10.010635, 9.91108 
6.25587e+3, 2.644454e+2, -403758.28, -490622.0, 16.050829, 0.0012440963, 0.00025985469, -403758.28, -55322.36, 0.0, 10.010621, 9.896967 
6.255869e+3, 2.7434292e+2, -304552.7, -391079.7, -1.4337136, 0.001243606, -0.00008768514, -304552.7, -53112.453, 0.0, 10.010607, 9.897384 
6.2558675e+3, 2.842323e+2, -217990.08, -317551.1, 14.276208, 0.0012433252, 0.00034151363, -217990.06, -63465.754, 0.0, 10.0105915, 9.880635 
6.255866e+3, 2.94114e+2, -118354.164, -217280.1, -1.8933043, 0.0012433133, -0.00014394028, -118354.164, -60670.5, 0.0, 10.010575, 9.881429 
6.255865e+3, 3.040234e+2, -29106.389, -85089.58, 10.917161, 0.0012428063, 0.00027713538, -29106.387, -29106.387, 0.0, 10.010559, 9.936861 
6.255864e+3, 3.139621e+2, -28093.47, -82944.88, -6.6718535, 0.0012415764, 0.0000402747, -28093.47, -28093.47, 0.0, 10.010543, 9.938316 
6.2659055e+3, 1.2517963e+2, -1706100.1, -1722305.4, 16.063654, 0.0012596115, 0.00021216752, -1706100.1, 7140.823, 0.0, 10.011063, 9.989579 
6.265904e+3, 1.3516907e+2, -1608817.9, -1625598.6, 0.37788132, 0.0012577176, 0.000033500583, -1608817.9, 6526.6167, 0.0, 10.01104, 9.988795 
6.265902e+3, 1.4515194e+2, -1520822.3, -1546438.0, 18.953665, 0.001257068, 0.00029401592, -1520822.1, -3309.9082, 0.0, 10.01102, 9.977083 
6.2659e+3, 1.55129e+2, -1423183.0, -1449188.6, 2.5822642, 0.0012575354, 0.00010273178, -1423183.0, -3445.922, 0.0, 10.011002, 9.976552 
6.265898e+3, 1.6509947e+2, -1335166.1, -1370317.6, 23.15875, 0.0012572592, 0.00018339112, -1335166.1, -13139.679, 0.0, 10.010983, 9.964514 
6.265896e+3, 1.7506404e+2, -1237296.8, -1272751.0, 6.0942807, 0.0012562856, 0.00007908951, -1237296.8, -12923.025, 0.0, 10.010965, 9.9641 
6.265894e+3, 1.850219e+2, -1149355.0, -1194366.9, 21.563124, 0.0012557303, 0.00022272124, -1149355.0, -22568.563, 0.0, 10.010949, 9.951575 
6.2658924e+3, 1.9497353e+2, -1051287.9, -1096552.3, 5.7061906, 0.0012555737, 0.00008875065, -1051287.9, -22027.178, 0.0, 10.010935, 9.951232 
6.2658906e+3, 2.049184e+2, -963297.2, -1018433.3, 22.119032, 0.0012552462, 0.00020857033, -963297.2, -31496.328, 0.0, 10.010921, 9.938336 
6.265889e+3, 2.1485676e+2, -865092.8, -920480.56, 4.274067, 0.0012547392, 0.000012375338, -865092.8, -30688.037, 0.0, 10.010905, 9.937994 
6.265887e+3, 2.2478844e+2, -776888.25, -842319.5, 23.941473, 0.0012542964, 0.00025724998, -776888.25, -39813.824, 0.0, 10.010891, 9.924929 
6.265886e+3, 2.3471342e+2, -678532.8, -744210.25, 5.9643264, 0.0012539146, 0.000042960146, -678532.8, -38723.34, 0.0, 10.010878, 9.924597 
6.265884e+3, 2.4463145e+2, -590288.2, -666366.1, 25.329025, 0.0012535104, 0.00020219396, -590288.2, -47675.418, 0.0, 10.010864, 9.911132 
6.265882e+3, 2.545427e+2, -491614.84, -567760.7, 7.537053, 0.0012530736, 0.000016829064, -491614.84, -46132.37, 0.0, 10.01085, 9.911031 
6.265881e+3, 2.6444682e+2, -403472.34, -490537.75, 26.174337, 0.001252668, 0.00026035146, -403472.34, -55050.5, 0.0, 10.010836, 9.896916 
6.26588e+3, 2.743443e+2, -304268.22, -390997.06, 8.204417, 0.0012522906, -0.000087357796, -304268.22, -52841.543, 0.0, 10.010822, 9.897333 
6.2658787e+3, 2.8423363e+2, -217703.55, -317465.38, 23.33513, 0.0012519209, 0.00034185403, -217703.55, -63192.3, 0.0, 10.010808, 9.880587 
6.265877e+3, 2.941153e+2, -118066.625, -217194.52, 6.897436, 0.0012515555, -0.0001433498, -118066.625, -60395.555, 0.0, 10.010794, 9.88138 
6.2658757e+3, 3.0402464e+2, -28826.416, -85017.32, 18.627745, 0.00125106, 0.00027770456, -28826.41, -28826.41, 0.0, 10.010777, 9.936805 
6.2658745e+3, 3.1396326e+2, -27815.729, -82874.62, 0.27845004, 0.0012503668, 0.00004044103, -27815.729, -27815.729, 0.0, 10.01076, 9.93826 
6.2759167e+3, 1.2518173e+2, -1706133.6, -1722373.0, 7.4390516, 0.0012662654, 0.0002127137, -1706133.6, 7086.73, 0.0, 10.011065, 9.989536 
6.2759143e+3, 1.3517113e+2, -1608850.6, -1625665.9, -8.212281, 0.0012674176, 0.000033741675, -1608850.6, 6473.629, 0.0, 10.011043, 9.988753 
6.2759125e+3, 1.4515395e+2, -1520855.8, -1546507.1, 12.018395, 0.0012669051, 0.00029418652, -1520855.8, -3363.2285, 0.0, 10.011022, 9.977038 
6.275911e+3, 1.5513097e+2, -1423216.3, -1449257.3, -4.346956, 0.0012647836, 0.00010304942, -1423216.3, -3498.4963, 0.0, 10.0110035, 9.976508 
6.275909e+3, 1.651014e+2, -1335199.9, -1370387.9, 16.343756, 0.0012643443, 0.00018394308, -1335199.9, -13192.3545, 0.0, 10.010986, 9.964468 
6.2759066e+3, 1.7506592e+2, -1237329.8, -1272820.6, -0.70135456, 0.0012655217, 0.000079959376, -1237329.8, -12974.502, 0.0, 10.010968, 9.964054 
6.275905e+3, 1.8502375e+2, -1149384.9, -1194431.0, 16.043388, 0.0012651497, 0.00022337395, -1149384.9, -22616.479, 0.0, 10.010952, 9.951533 
6.2759036e+3, 1.9497532e+2, -1051317.5, -1096616.1, 0.20031764, 0.0012632458, 0.000088661174, -1051317.5, -22074.414, 0.0, 10.010938, 9.95119 
6.275901e+3, 2.0492016e+2, -963331.06, -1018505.94, 16.261345, 0.0012627515, 0.00020861079, -963331.06, -31547.35, 0.0, 10.010923, 9.938289 
6.2759e+3, 2.1485847e+2, -865125.94, -920552.6, -1.5910306, 0.001263689, 0.000013435585, -865125.94, -30737.863, 0.0, 10.010908, 9.937946 
6.275898e+3, 2.2479008e+2, -776922.06, -842393.56, 18.921204, 0.0012635, 0.00025824306, -776922.06, -39863.867, 0.0, 10.010894, 9.92488 
6.2758964e+3, 2.3471503e+2, -678566.3, -744283.94, 0.98115677, 0.0012620966, 0.0000427213, -678566.3, -38772.51, 0.0, 10.01088, 9.924548 
6.275895e+3, 2.44633e+2, -590321.9, -666440.8, 20.055058, 0.0012613962, 0.00020202615, -590321.8, -47724.32, 0.0, 10.010867, 9.911082 
6.2758934e+3, 2.545442e+2, -491647.94, -567834.8, 2.230882, 0.0012614871, 0.000018212897, -491647.94, -46180.207, 0.0, 10.010854, 9.910981 
6.275892e+3, 2.6444831e+2, -403506.34, -490614.47, 20.743824, 0.0012614013, 0.00026157632, -403506.34, -55098.75, 0.0, 10.010839, 9.896865 
6.2758905e+3, 2.743457e+2, -304301.63, -391073.4, 2.7982209, 0.0012610899, -0.000088373745, -304301.63, -52888.695, 0.0, 10.010825, 9.897281 
6.275889e+3, 2.8423497e+2, -217734.63, -317537.5, 17.922186, 0.0012605574, 0.00034099098, -217734.63, -63236.62, 0.0, 10.010811, 9.880537 
6.2758875e+3, 2.941166e+2, -118097.16, -217265.9, 1.4294118, 0.001259729, -0.00014091082, -118097.16, -60438.88, 0.0, 10.010797, 9.881331 
6.275887e+3, 3.040259e+2, -28861.96, -85099.46, 12.219807, 0.0012592416, 0.0002801837, -28861.959, -28861.959, 0.0, 10.010781, 9.936748 
6.275885e+3, 3.1396446e+2, -27851.596, -82957.84, -6.16674, 0.0012592322, 0.000038274226, -27851.594, -27851.594, 0.0, 10.010764, 9.938202 
6.285928e+3, 1.2518387e+2, -1705836.6, -1722263.4, 17.03507, 0.0012748482, 0.00021309023, -1705836.6, 7362.931, 0.0, 10.0112705, 9.989493 
6.2859255e+3, 1.351732e+2, -1608552.6, -1625556.3, 1.3542874, 0.0012753578, 0.000034156503, -1608552.6, 6751.298, 0.0, 10.01125, 9.98871 
6.285924e+3, 1.45156e+2, -1520559.3, -1546400.8, 22.66638, 0.0012748862, 0.00029462925, -1520559.3, -3086.6423, 0.0, 10.01123, 9.9769945 
6.285922e+3, 1.5513296e+2, -1422922.1, -1449152.9, 6.187375, 0.0012734418, 0.000103508115, -1422922.1, -3223.8738, 0.0, 10.011211, 9.976463 
6.28592e+3, 1.6510335e+2, -1334906.4, -1370285.8, 27.570017, 0.0012729946, 0.0001843956, -1334906.4, -12917.849, 0.0, 10.011194, 9.964423 
6.285918e+3, 1.7506781e+2, -1237034.1, -1272718.1, 10.429469, 0.0012735127, 0.000080385056, -1237034.1, -12697.511, 0.0, 10.011179, 9.964009 
6.285916e+3, 1.850256e+2, -1149086.1, -1194323.6, 27.743906, 0.0012731804, 0.00022378878, -1149086.1, -22335.95, 0.0, 10.011164, 9.951491 
6.285914e+3, 1.9497713e+2, -1051021.0, -1096510.6, 11.844296, 0.001272, 0.0000890808, -1051021.0, -21795.777, 0.0, 10.011149, 9.951148 
6.2859124e+3, 2.0492192e+2, -963039.06, -1018410.56, 28.098494, 0.0012715404, 0.00020906261, -963039.06, -31272.746, 0.0, 10.011135, 9.938241 
6.2859106e+3, 2.148602e+2, -864831.75, -920456.94, 9.910337, 0.0012718117, 0.000013947913, -864831.75, -30460.535, 0.0, 10.011123, 9.937899 
6.2859094e+3, 2.2479177e+2, -776627.75, -842299.7, 30.503906, 0.0012715368, 0.0002587192, -776627.75, -39585.934, 0.0, 10.01111, 9.92483 
6.285907e+3, 2.3471665e+2, -678273.5, -744191.6, 12.4769125, 0.0012706682, 0.00004305743, -678273.5, -38495.63, 0.0, 10.011097, 9.924499 
6.285906e+3, 2.4463458e+2, -590030.25, -666351.6, 31.295835, 0.0012701491, 0.00020236068, -590030.25, -47448.18, 0.0, 10.011085, 9.911032 
6.285904e+3, 2.5454572e+2, -491355.9, -567746.3, 12.902086, 0.0012700201, 0.000018703207, -491355.9, -45903.152, 0.0, 10.011072, 9.910931 
6.285903e+3, 2.6444978e+2, -403214.16, -490527.72, 30.985514, 0.0012697756, 0.00026208287, -403214.13, -54821.004, 0.0, 10.011059, 9.896812 
6.285901e+3, 2.7434713e+2, -304009.16, -390987.4, 12.964944, 0.0012693797, -0.00008802048, -304009.16, -52610.145, 0.0, 10.011046, 9.897229 
6.2859e+3, 2.8423637e+2, -217441.27, -317450.25, 27.323656, 0.001268967, 0.0003413177, -217441.25, -62956.695, 0.0, 10.011033, 9.8804865 
6.2858987e+3, 2.9411793e+2, -117805.97, -217180.48, 9.8699, 0.0012685258, -0.00014044474, -117805.97, -60160.64, 0.0, 10.011018, 9.881281 
6.2858975e+3, 3.0402717e+2, -28577.658, -85025.7, 19.552856, 0.001268045, 0.00028068954, -28577.65, -28577.65, 0.0, 10.0110035, 9.936691 
6.285896e+3, 3.1396568e+2, -27565.336, -82883.9, 1.260979, 0.0012674967, 0.000038681694, -27565.336, -27565.336, 0.0, 10.010988, 9.938144 
6.2959397e+3, 1.2518601e+2, -1705870.3, -1722331.1, 8.993972, 0.0012847963, 0.00021335286, -1705870.3, 7308.2866, 0.0, 10.011272, 9.98945 
6.2959373e+3, 1.351753e+2, -1608585.8, -1625623.8, -6.655829, 0.001282089, 0.00003469753, -1608585.8, 6697.5483, 0.0, 10.011252, 9.9886675 
6.295935e+3, 1.4515805e+2, -1520593.3, -1546470.4, 15.448783, 0.0012815928, 0.00029526674, -1520593.3, -3140.8516, 0.0, 10.011232, 9.97695 
6.295933e+3, 1.5513498e+2, -1422955.6, -1449222.0, -0.9966721, 0.001283107, 0.00010406936, -1422955.6, -3277.0457, 0.0, 10.011214, 9.976419 
6.2959313e+3, 1.6510531e+2, -1334940.3, -1370356.3, 21.641087, 0.0012827594, 0.00018478149, -1334940.3, -12971.067, 0.0, 10.011197, 9.964377 
6.295929e+3, 1.7506975e+2, -1237067.5, -1272788.3, 4.5212817, 0.001280655, 0.00008050155, -1237067.5, -12749.824, 0.0, 10.011182, 9.9639635 
6.295927e+3, 1.850275e+2, -1149116.4, -1194388.0, 21.992117, 0.001280263, 0.00022404053, -1149116.4, -22384.576, 0.0, 10.011167, 9.951449 
6.2959254e+3, 1.9497897e+2, -1051050.6, -1096574.6, 6.08613, 0.0012815333, 0.000089864596, -1051050.6, -21843.367, 0.0, 10.011152, 9.951106 
6.2959236e+3, 2.049237e+2, -963073.44, -1018484.44, 23.196606, 0.0012812488, 0.0002098087, -963073.44, -31324.703, 0.0, 10.011138, 9.938192 
6.295922e+3, 2.1486194e+2, -864865.7, -920530.44, 5.041951, 0.0012793774, 0.000014075524, -864865.7, -30511.584, 0.0, 10.011126, 9.93785 
6.2959206e+3, 2.2479346e+2, -776661.9, -842374.06, 25.488695, 0.0012787803, 0.00025883366, -776661.8, -39636.676, 0.0, 10.011113, 9.924782 
6.295918e+3, 2.3471831e+2, -678306.94, -744265.5, 7.437403, 0.0012795368, 0.000043806864, -678306.94, -38545.258, 0.0, 10.0111, 9.92445 
6.295917e+3, 2.4463618e+2, -590064.9, -666428.44, 26.49451, 0.0012795329, 0.00020305638, -590064.8, -47498.43, 0.0, 10.011087, 9.91098 
6.295915e+3, 2.545473e+2, -491390.0, -567822.7, 8.140587, 0.0012786594, 0.00001856277, -491390.0, -45952.367, 0.0, 10.011075, 9.910879 
6.295914e+3, 2.6445127e+2, -403248.16, -490604.63, 26.083576, 0.001277921, 0.00026208354, -403248.16, -54869.652, 0.0, 10.011063, 9.896761 
6.295913e+3, 2.7434856e+2, -304042.63, -391063.84, 8.00996, 0.0012773369, -0.00008668951, -304042.63, -52657.777, 0.0, 10.01105, 9.897178 
6.295911e+3, 2.8423777e+2, -217474.02, -317525.9, 21.718998, 0.0012772427, 0.00034249437, -217474.0, -63003.09, 0.0, 10.011036, 9.880435 
6.29591e+3, 2.9411927e+2, -117838.0, -217255.5, 4.2809544, 0.0012777834, -0.00014137787, -117838.0, -60205.79, 0.0, 10.011022, 9.881229 
6.295908e+3, 3.0402845e+2, -28612.629, -85107.23, 13.802629, 0.001277308, 0.00027979666, -28612.625, -28612.625, 0.0, 10.011007, 9.936634 
6.2959075e+3, 3.139669e+2, -27600.71, -82966.21, -4.61747, 0.0012753648, 0.000040924675, -27600.709, -27600.709, 0.0, 10.010992, 9.9380865 
6.305951e+3, 1.2518817e+2, -1705571.0, -1722220.1, 18.3053, 0.0012928789, 0.00021389377, -1705571.0, 7586.284, 0.0, 10.01148, 9.9894085 
6.3059485e+3, 1.3517743e+2, -1608287.4, -1625513.9, 2.7446094, 0.0012906266, 0.000035148198, -1608287.4, 6975.128, 0.0, 10.011459, 9.988625 
6.305946e+3, 1.4516014e+2, -1520295.9, -1546363.5, 25.91285, 0.0012901124, 0.00029567443, -1520295.8, -2863.8267, 0.0, 10.011441, 9.976906 
6.3059443e+3, 1.55137e+2, -1422657.5, -1449115.6, 9.50097, 0.0012911665, 0.00010447552, -1422657.5, -2998.9578, 0.0, 10.011424, 9.976375 
6.3059425e+3, 1.6510731e+2, -1334642.8, -1370252.1, 33.185825, 0.0012908708, 0.00018517747, -1334642.8, -12693.126, 0.0, 10.011408, 9.964332 
6.30594e+3, 1.7507169e+2, -1236770.9, -1272685.3, 16.035372, 0.0012893042, 0.00008087957, -1236770.9, -12472.229, 0.0, 10.011394, 9.963919 
6.3059384e+3, 1.8502939e+2, -1148816.3, -1194280.4, 33.926476, 0.0012889137, 0.00022444499, -1148816.3, -22103.12, 0.0, 10.011379, 9.951407 
6.3059366e+3, 1.9498083e+2, -1050748.9, -1096467.0, 17.766745, 0.0012896614, 0.000090339236, -1050748.9, -21559.896, 0.0, 10.011367, 9.951063 
6.305935e+3, 2.0492554e+2, -962775.6, -1018386.44, 35.285572, 0.0012893672, 0.0002102509, -962775.56, -31044.652, 0.0, 10.011354, 9.938144 
6.305933e+3, 2.148637e+2, -864568.5, -920433.56, 17.134214, 0.0012880064, 0.000014380674, -864568.5, -30231.73, 0.0, 10.011343, 9.937801 
6.305932e+3, 2.2479518e+2, -776365.2, -842280.06, 37.50411, 0.0012875061, 0.00025916297, -776365.2, -39356.85, 0.0, 10.011331, 9.924731 
6.3059294e+3, 2.3471998e+2, -678009.1, -744171.75, 18.922817, 0.0012879174, 0.00004433292, -678009.1, -38263.785, 0.0, 10.01132, 9.924399 
6.305928e+3, 2.446378e+2, -589766.75, -666336.6, 37.803226, 0.0012878047, 0.00020356475, -589766.75, -47216.19, 0.0, 10.011309, 9.91093 
6.305927e+3, 2.5454885e+2, -491091.78, -567731.75, 19.409494, 0.0012870894, 0.00001880982, -491091.78, -45669.52, 0.0, 10.011298, 9.910828 
6.305925e+3, 2.644528e+2, -402950.84, -490516.84, 36.769814, 0.0012864938, 0.00026233384, -402950.84, -54587.18, 0.0, 10.011286, 9.8967085 
6.305924e+3, 2.7435005e+2, -303745.88, -390977.3, 17.83866, 0.0012860337, -0.000086113345, -303745.88, -52375.355, 0.0, 10.011274, 9.897124 
6.305922e+3, 2.8423917e+2, -217174.95, -317436.5, 30.788155, 0.0012858633, 0.00034307773, -217174.95, -62717.844, 0.0, 10.011262, 9.880384 
6.305921e+3, 2.941206e+2, -117538.06, -217166.36, 13.570398, 0.0012860654, -0.00014120883, -117538.055, -59919.16, 0.0, 10.01125, 9.881179 
6.305919e+3, 3.0402976e+2, -28320.219, -85031.99, 21.85944, 0.0012856016, 0.00027992047, -28320.209, -28320.209, 0.0, 10.011235, 9.936575 
6.3059187e+3, 3.1396815e+2, -27309.244, -82892.4, 1.7776732, 0.001284172, 0.0000415421, -27309.244, -27309.244, 0.0, 10.01122, 9.938026 
6.315962e+3, 1.2519036e+2, -1705604.5, -1722287.6, 10.422263, 0.0012996899, 0.00021462832, -1705604.4, 7531.32, 0.0, 10.011482, 9.989366 
6.3159597e+3, 1.3517958e+2, -1608320.4, -1625581.0, -5.10546, 0.0013004398, 0.000035538553, -1608320.4, 6921.027, 0.0, 10.011462, 9.988582 
6.315958e+3, 1.4516224e+2, -1520329.9, -1546433.1, 19.216198, 0.0012999113, 0.00029592565, -1520329.9, -2918.5232, 0.0, 10.011443, 9.976861 
6.3159555e+3, 1.5513907e+2, -1422691.0, -1449184.8, 2.826523, 0.0012981322, 0.000104776445, -1422691.0, -3052.6223, 0.0, 10.011427, 9.976331 
6.315954e+3, 1.6510934e+2, -1334676.8, -1370322.9, 27.38539, 0.0012978562, 0.00018558395, -1334676.8, -12746.901, 0.0, 10.011411, 9.964286 
6.315952e+3, 1.7507365e+2, -1236804.4, -1272755.5, 10.243276, 0.0012990234, 0.00008144522, -1236804.4, -12524.9795, 0.0, 10.011396, 9.963873 
6.3159496e+3, 1.8503132e+2, -1148847.0, -1194345.9, 28.947495, 0.0012986759, 0.00022496037, -1148846.9, -22152.703, 0.0, 10.011382, 9.9513645 
6.3159484e+3, 1.9498271e+2, -1050779.1, -1096532.0, 12.818141, 0.0012968335, 0.00009059931, -1050779.0, -21608.54, 0.0, 10.01137, 9.951021 
6.3159466e+3, 2.0492737e+2, -962810.0, -1018460.2, 30.591263, 0.0012964027, 0.00021048318, -962809.94, -31097.04, 0.0, 10.011357, 9.938095 
6.315944e+3, 2.1486549e+2, -864602.3, -920506.9, 12.423205, 0.0012974009, 0.000014816961, -864602.3, -30283.08, 0.0, 10.011346, 9.937753 
6.315943e+3, 2.2479692e+2, -776400.3, -842356.56, 33.14156, 0.001297288, 0.00025964898, -776400.3, -39409.008, 0.0, 10.011334, 9.924681 
6.315941e+3, 2.3472166e+2, -678043.6, -744247.8, 14.597152, 0.0012959801, 0.000044703407, -678043.6, -38314.863, 0.0, 10.011323, 9.924349 
6.3159394e+3, 2.4463944e+2, -589801.4, -666413.5, 33.45618, 0.001295324, 0.00020394335, -589801.3, -47266.836, 0.0, 10.0113125, 9.910878 
6.315938e+3, 2.5455043e+2, -491125.8, -567808.1, 15.034459, 0.0012953987, 0.00001933687, -491125.8, -45719.1, 0.0, 10.011301, 9.910776 
6.3159364e+3, 2.644543e+2, -402986.38, -490597.0, 32.11217, 0.0012953908, 0.00026276676, -402986.38, -54637.758, 0.0, 10.01129, 9.896654 
6.315935e+3, 2.7435154e+2, -303780.88, -391057.1, 13.209239, 0.0012952712, -0.00008606906, -303780.84, -52424.832, 0.0, 10.011278, 9.89707 
6.3159335e+3, 2.842406e+2, -217207.05, -317511.06, 25.853516, 0.0012947489, 0.00034324374, -217207.03, -62763.918, 0.0, 10.011266, 9.880334 
6.315932e+3, 2.9412198e+2, -117569.42, -217240.05, 8.534908, 0.0012936916, -0.00014025303, -117569.42, -59964.03, 0.0, 10.011252, 9.881128 
6.3159305e+3, 3.0403107e+2, -28357.957, -85119.31, 15.960669, 0.0012932445, 0.00028077082, -28357.953, -28357.953, 0.0, 10.011239, 9.936515 
6.31593e+3, 3.139694e+2, -27347.533, -82981.15, -4.0945973, 0.0012936619, 0.000041008243, -27347.533, -27347.533, 0.0, 10.011224, 9.937965 
6.325974e+3, 1.2519258e+2, -1705304.0, -1722175.6, 19.72798, 0.0013080873, 0.00021489912, -1705304.0, 7810.1055, 0.0, 10.01169, 9.989323 
6.3259715e+3, 1.3518177e+2, -1608020.8, -1625470.3, 4.270281, 0.0013086147, 0.000035930905, -1608020.8, 7199.3916, 0.0, 10.01167, 9.988539 
6.325969e+3, 1.4516437e+2, -1520031.4, -1546325.6, 30.006733, 0.0013081412, 0.00029633532, -1520031.3, -2640.786, 0.0, 10.011653, 9.976817 
6.3259673e+3, 1.5514116e+2, -1422391.6, -1449077.6, 13.590482, 0.0013066722, 0.0001051037, -1422391.6, -2773.6555, 0.0, 10.011638, 9.976286 
6.3259655e+3, 1.6511136e+2, -1334377.4, -1370218.1, 38.92076, 0.0013063698, 0.00018592697, -1334377.4, -12467.474, 0.0, 10.011623, 9.964241 
6.325963e+3, 1.7507565e+2, -1236504.3, -1272651.0, 21.602455, 0.001307193, 0.00008189766, -1236504.3, -12244.401, 0.0, 10.01161, 9.963827 
6.3259614e+3, 1.8503326e+2, -1148543.0, -1194236.4, 41.10825, 0.0013068657, 0.00022538642, -1148543.0, -21867.824, 0.0, 10.011598, 9.951322 
6.3259596e+3, 1.9498461e+2, -1050474.5, -1096422.9, 25.07725, 0.0013053981, 0.0000908663, -1050474.4, -21322.574, 0.0, 10.011586, 9.950978 
6.325958e+3, 2.0492923e+2, -962509.4, -1018361.56, 43.002728, 0.0013050211, 0.00021077292, -962509.4, -30814.64, 0.0, 10.011576, 9.938046 
6.325956e+3, 2.1486731e+2, -864300.75, -920408.56, 24.376997, 0.0013057485, 0.000015314285, -864300.75, -29999.271, 0.0, 10.011566, 9.937704 
6.325954e+3, 2.2479868e+2, -776098.5, -842260.56, 45.234344, 0.0013055877, 0.00026013813, -776098.44, -39124.418, 0.0, 10.011556, 9.92463 
6.3259524e+3, 2.3472337e+2, -677740.9, -744152.2, 26.663816, 0.001304469, 0.000044954133, -677740.9, -38028.84, 0.0, 10.011547, 9.924298 
6.3259506e+3, 2.446411e+2, -589498.6, -666320.5, 45.160362, 0.0013039078, 0.00020419442, -589498.56, -46980.32, 0.0, 10.011538, 9.910826 
6.3259494e+3, 2.5455204e+2, -490822.66, -567715.8, 26.107283, 0.0013039708, 0.000019858375, -490822.66, -45431.676, 0.0, 10.011528, 9.910724 
6.3259476e+3, 2.6445588e+2, -402683.25, -490507.25, 42.666058, 0.0013038988, 0.00026326478, -402683.22, -54349.836, 0.0, 10.011518, 9.896601 
6.3259465e+3, 2.7435303e+2, -303477.0, -390967.97, 23.758846, 0.0013036513, -0.00008595013, -303477.0, -52135.67, 0.0, 10.011508, 9.897017 
6.3259447e+3, 2.8424203e+2, -216901.22, -317419.97, 35.46997, 0.0013031996, 0.00034339435, -216901.2, -62472.25, 0.0, 10.011497, 9.880281 
6.3259435e+3, 2.9412338e+2, -117264.1, -217150.0, 16.94318, 0.0013024723, -0.00013953359, -117264.1, -59672.367, 0.0, 10.011485, 9.881076 
6.325942e+3, 3.0403242e+2, -28059.488, -85041.95, 23.062569, 0.0013020543, 0.00028144656, -28059.479, -28059.479, 0.0, 10.011472, 9.936455 
6.325941e+3, 3.1397069e+2, -27047.668, -82903.97, 3.5487635, 0.0013020702, 0.000040769828, -27047.668, -27047.668, 0.0, 10.011457, 9.937904 
6.335985e+3, 1.2519482e+2, -1705337.6, -1722243.0, 11.963374, 0.001317596, 0.00021485247, -1705337.6, 7754.599, 0.0, 10.011692, 9.989281 
6.335983e+3, 1.3518395e+2, -1608053.6, -1625537.1, -3.463854, 0.0013156801, 0.00003632732, -1608053.6, 7145.006, 0.0, 10.011673, 9.988497 
6.335981e+3, 1.4516652e+2, -1520065.4, -1546395.3, 23.827099, 0.0013153113, 0.00029685762, -1520065.4, -2695.9285, 0.0, 10.011655, 9.976772 
6.335979e+3, 1.5514326e+2, -1422425.3, -1449146.9, 7.434441, 0.0013163205, 0.00010545347, -1422425.3, -2827.9392, 0.0, 10.01164, 9.976242 
6.3359773e+3, 1.6511342e+2, -1334412.0, -1370289.6, 33.628532, 0.0013159589, 0.00018622969, -1334412.0, -12522.215, 0.0, 10.011625, 9.964194 
6.335975e+3, 1.7507766e+2, -1236538.1, -1272721.9, 16.344696, 0.0013143138, 0.00008227273, -1236538.1, -12297.98, 0.0, 10.011613, 9.963781 
6.335973e+3, 1.8503523e+2, -1148573.4, -1194301.3, 36.66816, 0.0013139932, 0.0002257527, -1148573.4, -21917.553, 0.0, 10.0116005, 9.95128 
6.3359714e+3, 1.9498655e+2, -1050504.4, -1096487.4, 20.622993, 0.0013149497, 0.000091144735, -1050504.4, -21371.432, 0.0, 10.011589, 9.950936 
6.335969e+3, 2.0493111e+2, -962544.75, -1018437.3, 38.88136, 0.0013147569, 0.00021110872, -962544.75, -30868.475, 0.0, 10.011579, 9.937997 
6.335967e+3, 2.1486914e+2, -864335.5, -920483.8, 20.293207, 0.0013133931, 0.000015854532, -864335.5, -30051.95, 0.0, 10.011569, 9.9376545 
6.335966e+3, 2.2480047e+2, -776133.5, -842337.06, 41.514416, 0.001312885, 0.00026063004, -776133.5, -39176.902, 0.0, 10.0115595, 9.92458 
6.3359636e+3, 2.347251e+2, -677775.4, -744228.25, 22.930893, 0.0013132793, 0.00004512851, -677775.4, -38080.305, 0.0, 10.01155, 9.924248 
6.3359624e+3, 2.4464278e+2, -589534.44, -666399.9, 41.288616, 0.0013132549, 0.00020436385, -589534.4, -47032.598, 0.0, 10.01154, 9.910772 
6.335961e+3, 2.5455368e+2, -490857.88, -567794.75, 22.258726, 0.0013127491, 0.000020376001, -490857.84, -45482.813, 0.0, 10.011531, 9.910671 
6.3359594e+3, 2.6445746e+2, -402718.6, -490587.25, 38.63535, 0.0013121611, 0.0002638087, -402718.56, -54400.594, 0.0, 10.011521, 9.896546 
6.335958e+3, 2.7435452e+2, -303511.78, -391047.47, 19.679062, 0.0013114625, -0.00008576916, -303511.78, -52185.313, 0.0, 10.011511, 9.896962 
6.3359565e+3, 2.842435e+2, -216935.36, -317498.97, 30.771456, 0.0013113755, 0.00034354356, -216935.36, -62520.758, 0.0, 10.0115, 9.880227 
6.335955e+3, 2.9412478e+2, -117297.62, -217228.39, 12.260595, 0.0013120807, -0.00013898505, -117297.61, -59719.703, 0.0, 10.011489, 9.881022 
6.3359535e+3, 3.0403376e+2, -28095.97, -85126.96, 17.712862, 0.0013116995, 0.00028199563, -28095.965, -28095.965, 0.0, 10.011476, 9.936396 
6.335952e+3, 3.13972e+2, -27084.404, -82989.71, -1.9921651, 0.0013097541, 0.00004075493, -27084.404, -27084.404, 0.0, 10.011462, 9.937844 
6.345997e+3, 1.2519707e+2, -1705037.8, -1722131.4, 21.214779, 0.0013257811, 0.00021503694, -1705037.8, 8032.341, 0.0, 10.0119, 9.989238 
6.345995e+3, 1.3518615e+2, -1607752.0, -1625425.1, 5.779282, 0.0013240194, 0.000036630874, -1607752.0, 7425.0137, 0.0, 10.011882, 9.988454 
6.3459927e+3, 1.4516869e+2, -1519764.3, -1546286.5, 34.271767, 0.0013236633, 0.00029723675, -1519764.1, -2415.9666, 0.0, 10.011867, 9.976728 
6.345991e+3, 1.5514539e+2, -1422124.5, -1449039.0, 17.884024, 0.0013245529, 0.00010586494, -1422124.5, -2548.0115, 0.0, 10.011851, 9.976197 
6.3459885e+3, 1.6511549e+2, -1334111.1, -1370184.1, 45.365246, 0.0013242421, 0.0001865869, -1334111.1, -12241.745, 0.0, 10.011839, 9.9641485 
6.345987e+3, 1.750797e+2, -1236235.1, -1272616.1, 28.146734, 0.0013228087, 0.00008249412, -1236235.1, -12014.983, 0.0, 10.011828, 9.963736 
6.345985e+3, 1.8503723e+2, -1148266.4, -1194190.5, 48.94989, 0.0013225029, 0.00022602161, -1148266.3, -21629.953, 0.0, 10.011818, 9.951237 
6.345983e+3, 1.9498849e+2, -1050196.9, -1096377.3, 32.58698, 0.0013232826, 0.000091639966, -1050196.9, -21082.936, 0.0, 10.011808, 9.950893 
6.345981e+3, 2.0493302e+2, -962240.75, -1018337.3, 51.331036, 0.0013230802, 0.00021158287, -962240.7, -30583.037, 0.0, 10.0118, 9.937947 
6.345979e+3, 2.1487099e+2, -864029.3, -920383.56, 32.787064, 0.0013218748, 0.000016056825, -864029.3, -29763.9, 0.0, 10.011792, 9.937605 
6.345978e+3, 2.2480226e+2, -775826.94, -842239.56, 53.94386, 0.0013214252, 0.0002608192, -775826.9, -38887.94, 0.0, 10.011785, 9.924528 
6.3459754e+3, 2.3472685e+2, -677468.2, -744131.25, 34.85009, 0.0013217721, 0.00004558002, -677468.2, -37790.254, 0.0, 10.011777, 9.924196 
6.345974e+3, 2.4464446e+2, -589226.9, -666305.3, 52.939247, 0.0013217195, 0.00020482973, -589226.9, -46741.695, 0.0, 10.011769, 9.91072 
6.3459724e+3, 2.545553e+2, -490548.8, -567700.4, 33.790855, 0.0013212066, 0.000020575771, -490548.8, -45189.875, 0.0, 10.011762, 9.910618 
6.345971e+3, 2.6445904e+2, -402409.3, -490495.75, 49.480232, 0.0013206895, 0.00026402084, -402409.28, -54106.87, 0.0, 10.011754, 9.896491 
6.3459694e+3, 2.7435607e+2, -303201.9, -390956.7, 29.70863, 0.0013201566, -0.0000852064, -303201.9, -51890.492, 0.0, 10.011745, 9.896908 
6.3459677e+3, 2.8424495e+2, -216622.98, -317405.72, 39.822758, 0.001320043, 0.00034405274, -216622.97, -62222.887, 0.0, 10.011736, 9.880174 
6.345967e+3, 2.941262e+2, -116984.77, -217135.7, 21.42456, 0.0013204693, -0.00013906133, -116984.766, -59420.848, 0.0, 10.011725, 9.880969 
6.345965e+3, 3.0403513e+2, -27790.262, -85048.2, 25.411888, 0.0013201097, 0.0002819604, -27790.25, -27790.25, 0.0, 10.011715, 9.936334 
6.345964e+3, 3.139733e+2, -26777.639, -82911.41, 3.9258506, 0.0013186157, 0.00004166594, -26777.639, -26777.639, 0.0, 10.011702, 9.937782 
6.356009e+3, 1.2519935e+2, -1705071.4, -1722198.8, 14.216811, 0.0013330824, 0.00021538339, -1705071.4, 7976.4033, 0.0, 10.011902, 9.989196 
6.356007e+3, 1.351884e+2, -1607785.3, -1625492.3, -1.1757057, 0.001333253, 0.0000368739, -1607785.3, 7369.824, 0.0, 10.011885, 9.988412 
6.356005e+3, 1.4517088e+2, -1519798.6, -1546356.3, 28.296751, 0.0013328462, 0.00029751984, -1519798.6, -2471.8462, 0.0, 10.0118685, 9.976684 
6.3560027e+3, 1.5514754e+2, -1422158.1, -1449108.3, 11.9439125, 0.0013318363, 0.00010631895, -1422158.1, -2602.657, 0.0, 10.011854, 9.976153 
6.3560003e+3, 1.651176e+2, -1334145.4, -1370255.3, 40.924866, 0.0013316527, 0.00018698322, -1334145.4, -12296.624, 0.0, 10.011842, 9.964103 
6.3559985e+3, 1.7508176e+2, -1236269.0, -1272686.8, 23.709993, 0.0013322693, 0.00008261657, -1236269.0, -12068.98, 0.0, 10.01183, 9.96369 
6.355997e+3, 1.8503925e+2, -1148297.6, -1194257.0, 44.951138, 0.0013319829, 0.00022622941, -1148297.6, -21680.994, 0.0, 10.011821, 9.951194 
6.3559943e+3, 1.9499046e+2, -1050227.5, -1096443.1, 28.62234, 0.001330801, 0.00009228308, -1050227.4, -21132.816, 0.0, 10.011811, 9.95085 
6.3559926e+3, 2.0493494e+2, -962275.9, -1018412.7, 48.141796, 0.0013304574, 0.0002121513, -962275.8, -30636.992, 0.0, 10.011803, 9.937898 
6.3559914e+3, 2.1487287e+2, -864064.0, -920458.5, 29.586313, 0.0013309575, 0.000016033691, -864063.94, -29816.912, 0.0, 10.011795, 9.937555 
6.355989e+3, 2.2480407e+2, -775863.1, -842318.2, 50.71306, 0.0013308448, 0.00026080772, -775863.06, -38941.984, 0.0, 10.011787, 9.924477 
6.355987e+3, 2.3472862e+2, -677503.7, -744209.4, 31.64639, 0.0013300702, 0.000046222693, -677503.6, -37843.066, 0.0, 10.01178, 9.924144 
6.355986e+3, 2.4464619e+2, -589262.75, -666385.0, 49.867157, 0.0013296013, 0.00020549943, -589262.7, -46794.37, 0.0, 10.011773, 9.910666 
6.355984e+3, 2.5455698e+2, -490584.1, -567779.56, 30.703836, 0.0013294693, 0.000020563682, -490584.1, -45241.457, 0.0, 10.0117655, 9.910564 
6.355983e+3, 2.6446062e+2, -402446.13, -490578.8, 46.001583, 0.0013294282, 0.0002640117, -402446.13, -54159.484, 0.0, 10.011758, 9.896436 
6.355981e+3, 2.7435765e+2, -303238.2, -391039.4, 26.240955, 0.0013294852, -0.00008438275, -303238.2, -51942.008, 0.0, 10.011749, 9.896852 
6.35598e+3, 2.842465e+2, -216656.7, -317483.97, 35.685844, 0.001329075, 0.00034480848, -216656.69, -62271.297, 0.0, 10.01174, 9.880121 
6.355978e+3, 2.9412764e+2, -117017.62, -217213.03, 17.178673, 0.0013280441, -0.00013955668, -117017.61, -59467.848, 0.0, 10.01173, 9.880916 
6.355977e+3, 3.0403653e+2, -27829.51, -85139.34, 20.399273, 0.0013276961, 0.00028153494, -27829.502, -27829.502, 0.0, 10.011719, 9.936271 
6.355976e+3, 3.1397462e+2, -26817.559, -83004.055, -1.0867918, 0.0013283174, 0.000043207736, -26817.559, -26817.559, 0.0, 10.011705, 9.937717 
6.366021e+3, 1.2520164e+2, -1704769.6, -1722085.6, 22.818027, 0.0013412733, 0.0002157917, -1704769.5, 8255.738, 0.0, 10.01211, 9.989153 
6.366019e+3, 1.3519064e+2, -1607484.6, -1625380.6, 7.649491, 0.0013415675, 0.000037243055, -1607484.6, 7648.345, 0.0, 10.012094, 9.98837 
6.366017e+3, 1.4517309e+2, -1519498.3, -1546247.8, 38.876686, 0.0013412096, 0.0002978005, -1519498.3, -2193.162, 0.0, 10.012079, 9.97664 
6.3660145e+3, 1.551497e+2, -1421854.6, -1448998.9, 22.556324, 0.001340176, 0.000106462736, -1421854.6, -2320.348, 0.0, 10.012068, 9.976109 
6.3660127e+3, 1.6511972e+2, -1333841.4, -1370148.3, 52.47295, 0.0013399894, 0.00018720936, -1333841.3, -12013.3125, 0.0, 10.012056, 9.964057 
6.3660103e+3, 1.7508383e+2, -1235965.0, -1272580.5, 35.070126, 0.0013406242, 0.000083132865, -1235964.9, -11785.242, 0.0, 10.012047, 9.963644 
6.3660085e+3, 1.8504128e+2, -1147989.0, -1194145.5, 57.26593, 0.001340376, 0.00022669115, -1147988.9, -21392.164, 0.0, 10.012039, 9.951151 
6.366006e+3, 1.9499245e+2, -1049915.5, -1096330.8, 41.060894, 0.0013392502, 0.00009235479, -1049915.4, -20840.268, 0.0, 10.0120325, 9.950807 
6.366005e+3, 2.0493688e+2, -961967.2, -1018310.94, 60.79662, 0.0013389224, 0.00021223772, -961967.06, -30347.285, 0.0, 10.012027, 9.937848 
6.366003e+3, 2.1487476e+2, -863754.75, -920357.4, 41.813637, 0.0013393982, 0.000016544538, -863754.75, -29526.207, 0.0, 10.012021, 9.937506 
6.366001e+3, 2.2480592e+2, -775553.25, -842219.7, 63.04938, 0.001339297, 0.00026134375, -775553.2, -38650.137, 0.0, 10.012015, 9.924424 
6.3659996e+3, 2.3473041e+2, -677191.0, -744110.4, 43.896057, 0.0013385708, 0.0000463594, -677191.0, -37547.91, 0.0, 10.012011, 9.924092 
6.365998e+3, 2.4464792e+2, -588949.0, -666288.44, 61.71297, 0.0013381344, 0.0002055988, -588949.0, -46497.637, 0.0, 10.012006, 9.910613 
6.365996e+3, 2.5455865e+2, -490269.3, -567683.44, 41.979614, 0.0013380168, 0.000021033753, -490269.3, -44943.145, 0.0, 10.012, 9.910511 
6.365995e+3, 2.644623e+2, -402131.2, -490485.7, 56.55944, 0.0013379648, 0.000264492, -402131.16, -53860.44, 0.0, 10.011994, 9.896379 
6.365993e+3, 2.743592e+2, -302922.22, -390946.78, 36.626247, 0.0013379798, -0.00008432698, -302922.22, -51641.402, 0.0, 10.011988, 9.896795 
6.365992e+3, 2.84248e+2, -216337.64, -317388.9, 45.035706, 0.0013376175, 0.0003448821, -216337.61, -61967.05, 0.0, 10.011981, 9.880066 
6.36599e+3, 2.9412913e+2, -116696.914, -217118.0, 25.483616, 0.0013367516, -0.0001388886, -116696.91, -59161.445, 0.0, 10.011973, 9.880861 
6.365989e+3, 3.0403793e+2, -27515.533, -85058.234, 27.008648, 0.0013363971, 0.00028221187, -27515.52, -27515.52, 0.0, 10.011964, 9.936207 
6.365987e+3, 3.1397596e+2, -26502.809, -82923.555, 5.583091, 0.001336768, 0.00004306478, -26502.809, -26502.809, 0.0, 10.011952, 9.937654 
6.3760334e+3, 1.2520395e+2, -1704803.1, -1722152.4, 15.804908, 0.0013500903, 0.00021624217, -1704803.1, 8199.457, 0.0, 10.012112, 9.989111 
6.376031e+3, 1.3519292e+2, -1607517.4, -1625446.8, 0.68314016, 0.0013492763, 0.000037698934, -1607517.4, 7593.332, 0.0, 10.012095, 9.988328 
6.3760287e+3, 1.4517532e+2, -1519532.5, -1546317.4, 34.000347, 0.0013490362, 0.0002980822, -1519532.5, -2249.266, 0.0, 10.012081, 9.976595 
6.376027e+3, 1.5515189e+2, -1421888.5, -1449068.1, 17.709377, 0.0013492578, 0.00010640058, -1421888.5, -2375.667, 0.0, 10.01207, 9.976065 
6.3760245e+3, 1.6512185e+2, -1333876.4, -1370220.4, 48.314865, 0.0013489794, 0.00018732328, -1333876.4, -12069.341, 0.0, 10.012059, 9.964011 
6.3760227e+3, 1.7508592e+2, -1235999.1, -1272651.9, 30.946299, 0.0013482475, 0.0000839152, -1235999.1, -11839.918, 0.0, 10.01205, 9.963597 
6.3760203e+3, 1.8504332e+2, -1148019.9, -1194211.3, 54.47061, 0.0013480512, 0.00022732474, -1148019.8, -21443.105, 0.0, 10.012042, 9.951108 
6.3760185e+3, 1.9499446e+2, -1049945.9, -1096396.1, 38.262573, 0.0013483592, 0.00009204421, -1049945.9, -20890.432, 0.0, 10.012035, 9.950765 
6.376017e+3, 2.0493883e+2, -962003.44, -1018388.25, 58.044353, 0.001348154, 0.00021200317, -962003.4, -30402.78, 0.0, 10.01203, 9.937798 
6.376015e+3, 2.1487667e+2, -863790.2, -920434.06, 39.085094, 0.0013474242, 0.000017418719, -863790.2, -29580.373, 0.0, 10.012024, 9.937455 
6.376013e+3, 2.2480778e+2, -775589.4, -842298.5, 60.920433, 0.0013471129, 0.00026225136, -775589.3, -38704.473, 0.0, 10.012018, 9.924373 
6.3760114e+3, 2.3473221e+2, -677226.6, -744188.75, 41.773464, 0.001347236, 0.000046156907, -677226.6, -37601.24, 0.0, 10.012014, 9.92404 
6.3760096e+3, 2.4464968e+2, -588986.1, -666370.44, 59.29223, 0.0013471394, 0.00020531597, -588986.06, -46551.883, 0.0, 10.01201, 9.910558 
6.3760084e+3, 2.5456035e+2, -490305.72, -567764.94, 39.565506, 0.0013467859, 0.00002183256, -490305.7, -44996.18, 0.0, 10.012004, 9.910456 
6.3760066e+3, 2.6446393e+2, -402168.13, -490569.2, 53.77141, 0.0013463896, 0.00026530563, -402168.1, -53913.504, 0.0, 10.011998, 9.896323 
6.376005e+3, 2.7436078e+2, -302958.5, -391029.78, 33.796997, 0.0013459299, -0.000084788284, -302958.47, -51693.207, 0.0, 10.0119915, 9.896739 
6.3760036e+3, 2.842495e+2, -216373.03, -317470.9, 41.700874, 0.0013458525, 0.0003444981, -216373.02, -62017.438, 0.0, 10.011985, 9.880011 
6.376002e+3, 2.941306e+2, -116731.75, -217199.42, 22.143045, 0.0013462639, -0.0001374286, -116731.74, -59210.742, 0.0, 10.011977, 9.880806 
6.376001e+3, 3.0403933e+2, -27554.533, -85148.805, 22.404507, 0.0013458905, 0.00028363784, -27554.525, -27554.525, 0.0, 10.011968, 9.936144 
6.3759995e+3, 3.139773e+2, -26541.941, -83014.99, 0.7918925, 0.0013443897, 0.00004177733, -26541.941, -26541.941, 0.0, 10.011956, 9.93759 
6.386045e+3, 1.2520629e+2, -1704504.1, -1722040.3, 24.188723, 0.0013585193, 0.00021654532, -1704504.0, 8475.689, 0.0, 10.012319, 9.98907 
6.386043e+3, 1.3519521e+2, -1607214.5, -1625333.4, 9.150851, 0.0013574945, 0.000037957987, -1607214.5, 7873.799, 0.0, 10.012305, 9.988286 
6.386041e+3, 1.4517757e+2, -1519229.5, -1546207.3, 44.00083, 0.0013572578, 0.0002983662, -1519229.4, -1968.194, 0.0, 10.012293, 9.976551 
6.3860387e+3, 1.5515408e+2, -1421585.8, -1448958.9, 27.807905, 0.0013576794, 0.00010677076, -1421585.8, -2094.4966, 0.0, 10.012282, 9.976021 
6.386037e+3, 1.6512403e+2, -1333572.9, -1370113.8, 59.884865, 0.0013574319, 0.00018761825, -1333572.8, -11786.853, 0.0, 10.012275, 9.963964 
6.3860345e+3, 1.7508805e+2, -1235691.1, -1272543.8, 42.546726, 0.0013565713, 0.00008398314, -1235691.1, -11552.589, 0.0, 10.012269, 9.9635515 
6.3860327e+3, 1.8504539e+2, -1147706.6, -1194097.6, 66.699715, 0.0013563777, 0.00022744903, -1147706.5, -21150.096, 0.0, 10.012263, 9.951065 
6.386031e+3, 1.9499649e+2, -1049632.4, -1096283.1, 50.28008, 0.0013568157, 0.000092500115, -1049632.4, -20596.713, 0.0, 10.012259, 9.950721 
6.3860285e+3, 2.0494081e+2, -961693.2, -1018286.4, 70.609825, 0.0013566508, 0.0002124528, -961693.06, -30111.873, 0.0, 10.012255, 9.937747 
6.386027e+3, 2.1487859e+2, -863475.75, -920330.9, 51.55705, 0.0013558698, 0.000017520906, -863475.7, -29284.76, 0.0, 10.012253, 9.937405 
6.3860255e+3, 2.2480966e+2, -775273.3, -842197.6, 73.283485, 0.0013555557, 0.00026233844, -775273.2, -38406.754, 0.0, 10.012251, 9.924319 
6.386023e+3, 2.3473404e+2, -676909.56, -744088.25, 53.757233, 0.0013557274, 0.00004658161, -676909.56, -37302.03, 0.0, 10.012248, 9.923987 
6.386022e+3, 2.4465144e+2, -588668.44, -666272.94, 70.96088, 0.0013556766, 0.00020575248, -588668.4, -46251.55, 0.0, 10.012245, 9.910503 
6.386021e+3, 2.5456208e+2, -489985.47, -567667.2, 50.975292, 0.0013553652, 0.000021913573, -489985.44, -44692.723, 0.0, 10.012243, 9.910401 
6.3860184e+3, 2.6446557e+2, -401846.47, -490473.97, 64.373276, 0.0013549612, 0.00026538112, -401846.4, -53608.055, 0.0, 10.01224, 9.896266 
6.386017e+3, 2.743624e+2, -302634.63, -390934.53, 43.71995, 0.0013544336, -0.00008429468, -302634.6, -51385.023, 0.0, 10.012237, 9.896682 
6.3860154e+3, 2.8425106e+2, -216046.25, -317373.5, 50.35703, 0.0013543714, 0.00034500207, -216046.22, -61705.777, 0.0, 10.012232, 9.879954 
6.386014e+3, 2.9413208e+2, -116405.03, -217102.9, 30.546345, 0.0013549064, -0.00013744939, -116405.02, -58898.6, 0.0, 10.012225, 9.88075 
6.3860124e+3, 3.0404076e+2, -27234.389, -85066.336, 29.304808, 0.0013545818, 0.00028355003, -27234.373, -27234.373, 0.0, 10.0122175, 9.93608 
6.386012e+3, 3.1397867e+2, -26217.94, -82931.66, 6.499167, 0.0013530232, 0.000042285654, -26217.938, -26217.938, 0.0, 10.012209, 9.937525 
6.3960576e+3, 1.2520865e+2, -1704537.4, -1722106.6, 18.446003, 0.0013667027, 0.00021674798, -1704537.4, 8419.299, 0.0, 10.0123205, 9.989028 
6.396056e+3, 1.3519752e+2, -1607247.5, -1625399.4, 3.4473283, 0.0013660807, 0.000038084683, -1607247.5, 7818.1323, 0.0, 10.012307, 9.988244 
6.3960534e+3, 1.4517982e+2, -1519263.9, -1546276.6, 39.330357, 0.0013657708, 0.00029865248, -1519263.9, -2024.8657, 0.0, 10.012295, 9.976507 
6.396051e+3, 1.5515631e+2, -1421619.4, -1449027.6, 23.16457, 0.001365674, 0.000107431995, -1421619.3, -2149.8333, 0.0, 10.012285, 9.975976 
6.3960487e+3, 1.651262e+2, -1333607.6, -1370185.5, 57.134964, 0.001365541, 0.00018803608, -1333607.5, -11843.0, 0.0, 10.012277, 9.963919 
6.396047e+3, 1.7509016e+2, -1235725.5, -1272615.1, 39.82335, 0.0013653947, 0.00008357386, -1235725.5, -11607.885, 0.0, 10.012271, 9.963506 
6.396045e+3, 1.8504748e+2, -1147738.3, -1194164.4, 64.269135, 0.0013651703, 0.00022723425, -1147738.1, -21202.207, 0.0, 10.012266, 9.951021 
6.396043e+3, 1.9499853e+2, -1049663.1, -1096349.3, 47.857014, 0.0013648522, 0.00009347296, -1049663.1, -20647.512, 0.0, 10.012261, 9.950678 
6.396041e+3, 2.0494281e+2, -961729.4, -1018363.8, 69.29083, 0.0013646726, 0.00021336322, -961729.3, -30167.64, 0.0, 10.012258, 9.937696 
6.39604e+3, 2.1488054e+2, -863511.56, -920408.0, 50.26086, 0.001364627, 0.000017105216, -863511.5, -29339.623, 0.0, 10.012256, 9.937353 
6.3960373e+3, 2.2481155e+2, -775310.44, -842278.06, 71.75108, 0.0013644514, 0.00026187586, -775310.4, -38462.45, 0.0, 10.012254, 9.924267 
6.3960356e+3, 2.3473588e+2, -676945.9, -744168.06, 52.22036, 0.0013641263, 0.00004743123, -676945.8, -37356.36, 0.0, 10.012251, 9.923934 
6.3960344e+3, 2.4465322e+2, -588705.75, -666355.75, 69.58007, 0.0013639211, 0.00020667564, -588705.7, -46306.36, 0.0, 10.012249, 9.910448 
6.3960326e+3, 2.545638e+2, -490022.22, -567749.5, 49.60657, 0.0013638417, 0.000021513673, -490022.2, -44746.414, 0.0, 10.012247, 9.910346 
6.396031e+3, 2.6446727e+2, -401884.7, -490560.03, 62.574734, 0.0013636607, 0.00026496232, -401884.63, -53662.676, 0.0, 10.012244, 9.896208 
6.3960296e+3, 2.7436402e+2, -302672.28, -391020.22, 41.90643, 0.0013633448, -0.00008315575, -302672.25, -51438.523, 0.0, 10.01224, 9.896624 
6.396028e+3, 2.842526e+2, -216081.97, -317456.16, 47.44242, 0.0013631138, 0.0003461057, -216081.94, -61756.785, 0.0, 10.012236, 9.879898 
6.3960266e+3, 2.9413357e+2, -116439.73, -217184.64, 27.53432, 0.0013629823, -0.00013846799, -116439.72, -58948.01, 0.0, 10.012229, 9.880693 
6.396025e+3, 3.0404222e+2, -27274.918, -85160.75, 25.76193, 0.0013627534, 0.00028244438, -27274.906, -27274.906, 0.0, 10.012222, 9.936014 
6.3960236e+3, 3.1398004e+2, -26259.28, -83027.55, 2.917995, 0.0013623803, 0.00004400966, -26259.28, -26259.28, 0.0, 10.012214, 9.937458 
6.4060706e+3, 1.25211e+2, -1704236.6, -1721993.1, 26.296553, 0.0013747872, 0.00021678704, -1704236.5, 8696.985, 0.0, 10.012528, 9.988986 
6.4060676e+3, 1.3519984e+2, -1606947.1, -1625286.9, 11.512202, 0.0013745312, 0.00003822256, -1606947.1, 8095.806, 0.0, 10.012515, 9.988202 
6.406065e+3, 1.4518212e+2, -1518963.0, -1546167.6, 49.28899, 0.0013742562, 0.00029884314, -1518962.9, -1746.2501, 0.0, 10.012506, 9.976463 
6.4060634e+3, 1.5515855e+2, -1421313.5, -1448916.9, 33.058613, 0.0013738847, 0.00010762988, -1421313.5, -1865.9135, 0.0, 10.0125, 9.975932 
6.4060616e+3, 1.6512838e+2, -1333300.4, -1370076.9, 68.21834, 0.0013737637, 0.00018826801, -1333300.3, -11557.174, 0.0, 10.012494, 9.963873 
6.40606e+3, 1.7509231e+2, -1235417.8, -1272506.9, 50.932396, 0.0013739002, 0.00008386553, -1235417.8, -11321.151, 0.0, 10.01249, 9.96346 
6.406057e+3, 1.8504958e+2, -1147425.0, -1194051.1, 76.42312, 0.0013736959, 0.00022750128, -1147424.9, -20909.566, 0.0, 10.012487, 9.950978 
6.4060557e+3, 1.9500057e+2, -1049344.6, -1096234.1, 59.89369, 0.0013731419, 0.00009363386, -1049344.5, -20349.111, 0.0, 10.012487, 9.950634 
6.406054e+3, 2.0494482e+2, -961413.2, -1018259.2, 81.597626, 0.0013729758, 0.00021352267, -961413.06, -29871.129, 0.0, 10.012487, 9.937645 
6.4060515e+3, 2.148825e+2, -863194.56, -920303.8, 62.426754, 0.0013731957, 0.000017368582, -863194.5, -29041.838, 0.0, 10.012487, 9.937303 
6.40605e+3, 2.2481346e+2, -774992.4, -842177.2, 84.076584, 0.0013730781, 0.0002621461, -774992.3, -38163.086, 0.0, 10.012487, 9.924213 
6.4060485e+3, 2.3473774e+2, -676623.25, -744065.8, 64.18618, 0.0013725909, 0.000047605772, -676623.2, -37051.906, 0.0, 10.012489, 9.923881 
6.406046e+3, 2.4465503e+2, -588380.9, -666255.5, 80.96593, 0.0013723295, 0.00020686956, -588380.75, -45999.066, 0.0, 10.01249, 9.910392 
6.406045e+3, 2.5456554e+2, -489695.44, -567649.25, 60.62814, 0.0013723131, 0.000021855722, -489695.38, -44436.71, 0.0, 10.01249, 9.91029 
6.406043e+3, 2.6446894e+2, -401557.47, -490463.47, 72.801674, 0.0013722506, 0.0002652621, -401557.4, -53351.984, 0.0, 10.01249, 9.89615 
6.406042e+3, 2.7436563e+2, -302343.47, -390923.97, 51.699665, 0.0013721196, -0.000083126324, -302343.44, -51125.652, 0.0, 10.012489, 9.896565 
6.406041e+3, 2.8425422e+2, -215748.72, -317356.84, 56.016384, 0.001371832, 0.00034615764, -215748.69, -61438.918, 0.0, 10.012487, 9.879841 
6.406039e+3, 2.941351e+2, -116102.68, -217084.31, 35.40982, 0.0013713281, -0.00013801403, -116102.67, -58625.797, 0.0, 10.012485, 9.880637 
6.406038e+3, 3.0404368e+2, -26944.445, -85075.29, 31.647827, 0.0013711321, 0.00028290038, -26944.43, -26944.43, 0.0, 10.01248, 9.935947 
6.406036e+3, 3.139814e+2, -25929.05, -82943.29, 8.198416, 0.0013713716, 0.00004390754, -25929.05, -25929.05, 0.0, 10.012472, 9.93739 
6.416083e+3, 1.2521338e+2, -1704269.9, -1722058.8, 20.684235, 0.0013828308, 0.00021671716, -1704269.9, 8640.261, 0.0, 10.012529, 9.988945 
6.4160806e+3, 1.352022e+2, -1606979.6, -1625352.0, 5.942444, 0.0013829059, 0.00003837104, -1606979.6, 8040.3657, 0.0, 10.012517, 9.988161 
6.416078e+3, 1.4518441e+2, -1518997.5, -1546237.3, 46.103725, 0.001382739, 0.00029897285, -1518997.5, -1803.3313, 0.0, 10.012507, 9.976419 
6.4160764e+3, 1.551608e+2, -1421347.6, -1448986.1, 29.919897, 0.0013822675, 0.00010751801, -1421347.6, -1922.191, 0.0, 10.012502, 9.975888 
6.4160734e+3, 1.651306e+2, -1333335.5, -1370148.6, 65.84246, 0.0013820898, 0.00018837504, -1333335.4, -11613.964, 0.0, 10.012496, 9.963827 
6.4160717e+3, 1.7509449e+2, -1235451.9, -1272578.0, 48.568645, 0.0013822109, 0.00008462648, -1235451.9, -11376.507, 0.0, 10.012492, 9.963413 
6.41607e+3, 1.850517e+2, -1147456.8, -1194118.4, 75.671265, 0.0013820616, 0.0002280913, -1147456.6, -20962.057, 0.0, 10.01249, 9.950934 
6.416068e+3, 1.9500266e+2, -1049376.0, -1096301.0, 59.17542, 0.0013816315, 0.00009325212, -1049376.0, -20400.84, 0.0, 10.01249, 9.95059 
6.4160657e+3, 2.0494685e+2, -961450.06, -1018337.3, 80.78013, 0.0013814983, 0.00021318118, -961449.94, -29927.842, 0.0, 10.01249, 9.937594 
6.4160645e+3, 2.1488447e+2, -863230.44, -920381.25, 61.599495, 0.0013816584, 0.000018089213, -863230.4, -29097.072, 0.0, 10.01249, 9.937252 
6.416063e+3, 2.2481538e+2, -775030.0, -842258.94, 84.050125, 0.0013815445, 0.00026290884, -775029.9, -38219.523, 0.0, 10.012491, 9.924159 
6.4160603e+3, 2.3473959e+2, -676660.4, -744147.2, 64.202255, 0.0013811289, 0.00004732856, -676660.3, -37107.363, 0.0, 10.012492, 9.923826 
6.416059e+3, 2.4465685e+2, -588419.06, -666339.7, 80.4676, 0.0013808806, 0.00020657551, -588419.0, -46055.063, 0.0, 10.012494, 9.9103365 
6.4160573e+3, 2.545673e+2, -489732.84, -567732.94, 60.1016, 0.0013808105, 0.000022696611, -489732.78, -44491.36, 0.0, 10.012494, 9.9102335 
6.4160556e+3, 2.6447064e+2, -401596.25, -490550.97, 71.8105, 0.001380793, 0.00026604554, -401596.2, -53407.453, 0.0, 10.012494, 9.8960905 
6.4160544e+3, 2.7436727e+2, -302381.56, -391011.0, 50.69731, 0.0013808265, -0.0000838386, -302381.53, -51179.844, 0.0, 10.012493, 9.896506 
6.4160526e+3, 2.8425577e+2, -215785.44, -317441.84, 54.492016, 0.0013805612, 0.00034550743, -215785.4, -61491.15, 0.0, 10.012491, 9.879784 
6.4160514e+3, 2.941366e+2, -116138.8, -217168.66, 33.83388, 0.0013798942, -0.00013657138, -116138.79, -58676.883, 0.0, 10.012489, 9.880579 
6.4160496e+3, 3.0404514e+2, -26985.986, -85171.51, 28.20853, 0.0013796884, 0.00028440513, -26985.973, -26985.973, 0.0, 10.012485, 9.935881 
6.4160484e+3, 3.139828e+2, -25970.682, -83040.58, 4.571214, 0.0013801376, 0.000042581672, -25970.682, -25970.682, 0.0, 10.012477, 9.937323 
6.4260954e+3, 1.2521578e+2, -1703972.5, -1721946.9, 27.879221, 0.0013911643, 0.00021677095, -1703972.5, 8914.244, 0.0, 10.012734, 9.988904 
6.426093e+3, 1.3520454e+2, -1606677.3, -1625238.1, 13.172699, 0.0013909794, 0.00003871477, -1606677.3, 8319.646, 0.0, 10.012727, 9.98812 
6.4260906e+3, 1.4518672e+2, -1518694.3, -1546126.6, 55.201748, 0.0013908814, 0.00029931284, -1518694.1, -1522.6315, 0.0, 10.01272, 9.976376 
6.426088e+3, 1.5516306e+2, -1421043.6, -1448875.9, 39.267136, 0.0013907789, 0.00010757986, -1421043.5, -1640.2932, 0.0, 10.012715, 9.975844 
6.4260864e+3, 1.6513282e+2, -1333029.5, -1370041.0, 76.776955, 0.0013906021, 0.00018840712, -1333029.4, -11329.786, 0.0, 10.012713, 9.96378 
6.4260846e+3, 1.7509665e+2, -1235140.1, -1272468.0, 59.32764, 0.0013903779, 0.00008486343, -1235140.0, -11085.952, 0.0, 10.012713, 9.963367 
6.426082e+3, 1.8505384e+2, -1147138.8, -1194002.5, 87.245514, 0.0013902842, 0.00022835193, -1147138.6, -20664.877, 0.0, 10.012715, 9.950891 
6.4260805e+3, 1.9500475e+2, -1049057.0, -1096185.5, 70.84587, 0.0013902971, 0.0000933606, -1049056.9, -20102.25, 0.0, 10.012716, 9.950547 
6.4260787e+3, 2.0494889e+2, -961133.5, -1018233.4, 93.06922, 0.0013901688, 0.00021329017, -961133.4, -29631.273, 0.0, 10.01272, 9.937543 
6.426077e+3, 2.1488646e+2, -862907.7, -920275.0, 73.49579, 0.0013898921, 0.00001835315, -862907.6, -28793.81, 0.0, 10.012725, 9.9372 
6.426075e+3, 2.2481732e+2, -774704.75, -842154.94, 95.7669, 0.0013897584, 0.00026317895, -774704.56, -37913.207, 0.0, 10.01273, 9.924105 
6.4260733e+3, 2.3474148e+2, -676333.7, -744043.4, 75.804375, 0.0013897647, 0.000047446887, -676333.56, -36799.05, 0.0, 10.012733, 9.923773 
6.4260715e+3, 2.4465868e+2, -588091.0, -666239.2, 91.73319, 0.0013896474, 0.0002066599, -588090.94, -45744.906, 0.0, 10.012738, 9.910279 
6.42607e+3, 2.5456908e+2, -489400.6, -567631.3, 70.83632, 0.001389381, 0.00002287964, -489400.53, -44176.426, 0.0, 10.012742, 9.910177 
6.4260685e+3, 2.6447237e+2, -401261.44, -490451.72, 81.49717, 0.0013892223, 0.0002662918, -401261.38, -53089.4, 0.0, 10.012746, 9.896031 
6.426067e+3, 2.7436894e+2, -302043.7, -390911.34, 59.960327, 0.0013891807, -0.00008357094, -302043.63, -50858.13, 0.0, 10.012749, 9.896446 
6.4260656e+3, 2.8425738e+2, -215444.11, -317340.3, 62.387005, 0.001389087, 0.0003457218, -215444.08, -61165.43, 0.0, 10.01275, 9.8797245 
6.426064e+3, 2.9413816e+2, -115796.875, -217067.78, 41.026463, 0.0013889123, -0.00013650909, -115796.86, -58349.99, 0.0, 10.012749, 9.880521 
6.4260626e+3, 3.040466e+2, -26649.734, -85084.81, 33.50503, 0.0013886716, 0.0002845109, -26649.715, -26649.715, 0.0, 10.012747, 9.935813 
6.426061e+3, 3.1398422e+2, -25628.379, -82951.99, 9.117715, 0.0013883362, 0.000043018583, -25628.379, -25628.379, 0.0, 10.012744, 9.937254 
6.436108e+3, 1.252182e+2, -1704005.9, -1722012.5, 23.723213, 0.0013997029, 0.00021690835, -1704005.9, 8857.233, 0.0, 10.012736, 9.988863 
6.436106e+3, 1.3520691e+2, -1606710.3, -1625303.5, 9.076575, 0.0013988817, 0.000039182694, -1606710.3, 8263.433, 0.0, 10.012728, 9.988079 
6.4361036e+3, 1.4518905e+2, -1518728.6, -1546195.4, 52.4453, 0.0013988266, 0.00029978703, -1518728.5, -1579.8636, 0.0, 10.012722, 9.976332 
6.436102e+3, 1.5516536e+2, -1421077.1, -1448944.0, 36.543922, 0.0013993906, 0.00010775782, -1421077.0, -1696.1708, 0.0, 10.012717, 9.9758005 
6.4360994e+3, 1.6513506e+2, -1333065.0, -1370113.5, 76.1584, 0.0013992536, 0.00018839179, -1333064.9, -11387.163, 0.0, 10.012715, 9.963734 
6.436097e+3, 1.7509885e+2, -1235175.1, -1272540.0, 58.753246, 0.0013984813, 0.000084751744, -1235175.0, -11142.448, 0.0, 10.012716, 9.963321 
6.436095e+3, 1.8505597e+2, -1147170.6, -1194069.4, 87.02016, 0.0013984435, 0.00022839292, -1147170.5, -20717.805, 0.0, 10.012717, 9.950848 
6.4360934e+3, 1.9500685e+2, -1049087.9, -1096251.6, 70.606415, 0.0013990956, 0.000093795854, -1049087.8, -20153.762, 0.0, 10.012719, 9.950504 
6.436091e+3, 2.0495094e+2, -961170.94, -1018313.06, 94.14249, 0.001398954, 0.00021369942, -961170.75, -29688.836, 0.0, 10.012723, 9.93749 
6.436089e+3, 2.1488845e+2, -862944.7, -920354.3, 74.61331, 0.0013980072, 0.000018312492, -862944.6, -28850.453, 0.0, 10.012728, 9.937148 
6.436088e+3, 2.2481927e+2, -774742.9, -842237.25, 96.46202, 0.001397841, 0.00026312098, -774742.7, -37970.44, 0.0, 10.0127325, 9.92405 
6.4360857e+3, 2.3474337e+2, -676370.8, -744125.0, 76.480484, 0.0013984885, 0.00004783024, -676370.75, -36854.785, 0.0, 10.012737, 9.923718 
6.4360845e+3, 2.4466053e+2, -588130.0, -666325.4, 92.662346, 0.0013985776, 0.00020699803, -588129.9, -45801.89, 0.0, 10.012741, 9.910222 
6.436083e+3, 2.5457087e+2, -489439.0, -567717.06, 71.79627, 0.0013980289, 0.0000226249, -489438.94, -44232.305, 0.0, 10.012746, 9.910119 
6.436081e+3, 2.6447406e+2, -401301.06, -490540.72, 81.74826, 0.0013976102, 0.00026618046, -401301.0, -53145.914, 0.0, 10.01275, 9.895971 
6.43608e+3, 2.7437058e+2, -302082.6, -390999.88, 60.160774, 0.0013973353, -0.0000826506, -302082.53, -50913.35, 0.0, 10.012753, 9.896386 
6.436078e+3, 2.8425896e+2, -215481.92, -317427.66, 61.41711, 0.0013975092, 0.0003465129, -215481.89, -61218.977, 0.0, 10.0127535, 9.879665 
6.436077e+3, 2.941397e+2, -115833.74, -217154.36, 39.99044, 0.0013982531, -0.00013736569, -115833.73, -58401.992, 0.0, 10.012753, 9.880461 
6.436075e+3, 3.0404806e+2, -26691.996, -85183.17, 31.724941, 0.0013979626, 0.00028368633, -26691.979, -26691.979, 0.0, 10.012752, 9.935744 
6.436074e+3, 3.1398562e+2, -25671.285, -83051.68, 7.224949, 0.0013961998, 0.000044628956, -25671.285, -25671.285, 0.0, 10.012748, 9.937184 
6.4461213e+3, 1.2522061e+2, -1703708.1, -1721899.6, 29.807644, 0.0014077792, 0.00021723163, -1703708.1, 9131.297, 0.0, 10.012941, 9.988823 
6.4461184e+3, 1.3520929e+2, -1606411.1, -1625190.8, 15.525827, 0.0014073666, 0.00003919392, -1606411.1, 8539.232, 0.0, 10.012935, 9.988039 
6.446116e+3, 1.4519139e+2, -1518427.9, -1546085.8, 61.083817, 0.0014072917, 0.00029974946, -1518427.8, -1301.9274, 0.0, 10.012932, 9.976289 
6.446114e+3, 1.5516765e+2, -1420770.3, -1448832.0, 45.159367, 0.0014074378, 0.00010791116, -1420770.3, -1411.8103, 0.0, 10.012932, 9.975758 
6.446112e+3, 1.6513732e+2, -1332756.1, -1370004.1, 86.25617, 0.0014073878, 0.00018858493, -1332756.0, -11100.279, 0.0, 10.012934, 9.963688 
6.44611e+3, 1.7510104e+2, -1234864.5, -1272430.5, 69.01924, 0.0014071774, 0.00008484325, -1234864.4, -10853.427, 0.0, 10.012937, 9.963275 
6.4461076e+3, 1.8505813e+2, -1146853.4, -1193954.4, 98.4425, 0.0014071079, 0.00022847173, -1146853.1, -20421.559, 0.0, 10.012942, 9.950804 
6.446106e+3, 1.9500896e+2, -1048763.6, -1096133.9, 81.73388, 0.0014071539, 0.000093948234, -1048763.4, -19850.094, 0.0, 10.01295, 9.95046 
6.446104e+3, 2.04953e+2, -960848.25, -1018206.3, 105.617424, 0.0014070502, 0.00021386328, -960848.06, -29386.371, 0.0, 10.012958, 9.937439 
6.446102e+3, 2.1489047e+2, -862620.25, -920247.5, 86.10504, 0.0014067891, 0.000018425386, -862620.1, -28545.697, 0.0, 10.012964, 9.937096 
6.4461005e+3, 2.2482122e+2, -774416.2, -842133.5, 108.05837, 0.0014066941, 0.00026323408, -774416.0, -37662.94, 0.0, 10.012973, 9.923996 
6.446099e+3, 2.3474528e+2, -676037.94, -744019.0, 87.59945, 0.0014067632, 0.000047998034, -676037.8, -36540.523, 0.0, 10.012982, 9.923663 
6.446097e+3, 2.4466237e+2, -587794.06, -666221.9, 103.11896, 0.001406749, 0.00020716537, -587793.94, -45484.09, 0.0, 10.012991, 9.910164 
6.446096e+3, 2.5457266e+2, -489100.53, -567613.4, 81.98817, 0.0014066299, 0.00002272925, -489100.47, -43911.375, 0.0, 10.012999, 9.910062 
6.4460945e+3, 2.644758e+2, -400961.1, -490440.4, 91.01247, 0.0014064129, 0.00026627167, -400961.0, -52822.88, 0.0, 10.013005, 9.895911 
6.446093e+3, 2.7437225e+2, -301739.1, -390898.94, 68.767204, 0.0014060654, -0.000082510735, -301739.03, -50586.22, 0.0, 10.013012, 9.896326 
6.4460915e+3, 2.842606e+2, -215133.08, -317323.78, 68.468735, 0.0014060689, 0.00034669528, -215133.03, -60885.9, 0.0, 10.013017, 9.879605 
6.44609e+3, 2.9414126e+2, -115480.766, -217049.39, 46.573437, 0.0014065151, -0.00013715205, -115480.74, -58064.195, 0.0, 10.0130205, 9.880402 
6.4460886e+3, 3.0404955e+2, -26345.117, -85093.65, 36.323326, 0.0014063359, 0.00028385627, -26345.094, -26345.094, 0.0, 10.013022, 9.935675 
6.446087e+3, 3.1398705e+2, -25322.674, -82962.47, 10.720445, 0.0014052663, 0.000044660792, -25322.672, -25322.672, 0.0, 10.0130205, 9.937114 
6.456134e+3, 1.2522304e+2, -1703741.3, -1721964.0, 26.203848, 0.0014155798, 0.00021766883, -1703741.3, 9074.378, 0.0, 10.012942, 9.988783 
6.4561313e+3, 1.3521168e+2, -1606443.4, -1625254.5, 11.981147, 0.0014162456, 0.00003890582, -1606443.4, 8483.602, 0.0, 10.012937, 9.987998 
6.4561296e+3, 1.4519373e+2, -1518462.4, -1546154.8, 60.074787, 0.0014161116, 0.00029937836, -1518462.3, -1359.4974, 0.0, 10.012934, 9.976245 
6.456127e+3, 1.5516995e+2, -1420804.4, -1448900.5, 44.18929, 0.0014151469, 0.00010804589, -1420804.4, -1468.526, 0.0, 10.012934, 9.975714 
6.456125e+3, 1.6513957e+2, -1332791.6, -1370076.0, 86.26831, 0.0014152139, 0.00018891155, -1332791.4, -11157.899, 0.0, 10.012936, 9.963642 
6.456123e+3, 1.7510326e+2, -1234899.0, -1272501.6, 69.046196, 0.0014162745, 0.0000850674, -1234898.9, -10909.54, 0.0, 10.012939, 9.963229 
6.456121e+3, 1.850603e+2, -1146885.8, -1194022.4, 100.27266, 0.001416117, 0.00022857537, -1146885.5, -20475.193, 0.0, 10.012944, 9.95076 
6.4561194e+3, 1.950111e+2, -1048795.6, -1096201.5, 83.60469, 0.0014147615, 0.000093913404, -1048795.4, -19902.916, 0.0, 10.012952, 9.950416 
6.456117e+3, 2.0495507e+2, -960886.0, -1018286.0, 107.42308, 0.0014147316, 0.0002138647, -960885.8, -29444.477, 0.0, 10.0129595, 9.9373865 
6.456115e+3, 2.148925e+2, -862657.0, -920326.5, 87.90044, 0.0014160274, 0.000018639143, -862656.9, -28602.275, 0.0, 10.012967, 9.937044 
6.456114e+3, 2.2482319e+2, -774455.0, -842217.56, 110.656425, 0.00141607, 0.00026345957, -774454.8, -37721.098, 0.0, 10.012976, 9.923941 
6.4561117e+3, 2.3474719e+2, -676076.25, -744102.6, 90.24008, 0.0014147763, 0.00004802298, -676076.1, -36597.61, 0.0, 10.012985, 9.923608 
6.4561105e+3, 2.4466424e+2, -587833.75, -666309.06, 105.08913, 0.0014144595, 0.00020721946, -587833.6, -45541.973, 0.0, 10.012995, 9.910106 
6.4561087e+3, 2.5457445e+2, -489139.34, -567700.0, 83.93175, 0.0014152273, 0.000023070257, -489139.25, -43967.83, 0.0, 10.013002, 9.910004 
6.456107e+3, 2.6447755e+2, -401001.72, -490531.75, 92.5488, 0.0014155124, 0.0002664963, -401001.63, -52880.566, 0.0, 10.013009, 9.895849 
6.456106e+3, 2.7437392e+2, -301779.1, -390989.88, 70.30379, 0.0014152037, -0.00008288717, -301779.03, -50642.67, 0.0, 10.013016, 9.896264 
6.456104e+3, 2.842622e+2, -215171.56, -317412.56, 69.01732, 0.0014147526, 0.00034647566, -215171.52, -60940.246, 0.0, 10.013021, 9.879545 
6.456103e+3, 2.941428e+2, -115518.39, -217137.36, 47.024693, 0.0014141033, -0.0001362322, -115518.37, -58117.105, 0.0, 10.013025, 9.880342 
6.456101e+3, 3.0405104e+2, -26389.127, -85195.58, 35.114624, 0.0014141409, 0.00028468278, -26389.107, -26389.107, 0.0, 10.013026, 9.935603 
6.4561e+3, 3.1398848e+2, -25367.111, -83065.78, 9.392877, 0.0014151556, 0.00004364644, -25367.11, -25367.11, 0.0, 10.013025, 9.937041 
6.466147e+3, 1.2522548e+2, -1703447.5, -1721852.5, 31.563211, 0.0014240437, 0.00021761758, -1703447.5, 9344.257, 0.0, 10.013145, 9.988743 
6.4661443e+3, 1.3521406e+2, -1606143.6, -1625140.6, 17.511148, 0.0014242544, 0.0000389669, -1606143.6, 8759.895, 0.0, 10.013144, 9.987959 
6.4661425e+3, 1.451961e+2, -1518160.9, -1546044.4, 67.72577, 0.0014242153, 0.00029948557, -1518160.8, -1080.9967, 0.0, 10.0131445, 9.976201 
6.46614e+3, 1.5517226e+2, -1420500.4, -1448789.6, 52.011753, 0.0014238474, 0.000108135355, -1420500.3, -1187.0875, 0.0, 10.013147, 9.975671 
6.4661384e+3, 1.6514184e+2, -1332484.5, -1369967.5, 95.82438, 0.0014238185, 0.00018897509, -1332484.3, -10872.91, 0.0, 10.013153, 9.963596 
6.466136e+3, 1.7510548e+2, -1234584.4, -1272390.0, 78.43871, 0.0014241349, 0.00008509789, -1234584.3, -10616.718, 0.0, 10.013163, 9.963183 
6.466134e+3, 1.8506247e+2, -1146563.9, -1193905.0, 110.69307, 0.0014240582, 0.00022864292, -1146563.6, -20174.645, 0.0, 10.013172, 9.950716 
6.4661324e+3, 1.9501321e+2, -1048471.25, -1096083.6, 94.16232, 0.0014235784, 0.000094085735, -1048471.06, -19599.41, 0.0, 10.013183, 9.950373 
6.4661306e+3, 2.0495717e+2, -960563.25, -1018179.9, 118.57457, 0.0014236136, 0.00021402695, -960563.0, -29142.088, 0.0, 10.013194, 9.937334 
6.466128e+3, 2.1489453e+2, -862326.94, -920217.5, 98.643005, 0.0014241611, 0.000018676272, -862326.75, -28292.086, 0.0, 10.013207, 9.936992 
6.466127e+3, 2.2482517e+2, -774121.5, -842111.06, 121.28717, 0.0014241544, 0.00026348894, -774121.25, -37406.887, 0.0, 10.013221, 9.923885 
6.466125e+3, 2.3474911e+2, -675739.5, -743995.5, 100.730644, 0.0014235488, 0.000048168524, -675739.4, -36279.68, 0.0, 10.013234, 9.9235525 
6.4661235e+3, 2.4466608e+2, -587494.44, -666205.0, 115.0263, 0.0014233514, 0.00020737523, -587494.3, -45220.91, 0.0, 10.013247, 9.910048 
6.466122e+3, 2.5457624e+2, -488794.47, -567594.2, 93.35829, 0.0014236011, 0.000023117149, -488794.34, -43640.617, 0.0, 10.01326, 9.909945 
6.46612e+3, 2.6447928e+2, -400653.75, -490428.72, 100.84473, 0.001423758, 0.00026651943, -400653.66, -52549.7, 0.0, 10.013271, 9.895788 
6.4661187e+3, 2.7437562e+2, -301427.66, -390886.34, 78.200745, 0.0014237894, -0.00008278407, -301427.6, -50307.72, 0.0, 10.013282, 9.896202 
6.466117e+3, 2.8426382e+2, -214815.33, -317306.75, 75.42509, 0.0014235189, 0.00034660855, -214815.27, -60599.883, 0.0, 10.01329, 9.879484 
6.466116e+3, 2.941444e+2, -115158.63, -217030.84, 52.583008, 0.001422841, -0.00013613704, -115158.6, -57772.63, 0.0, 10.013298, 9.88028 
6.4661145e+3, 3.0405256e+2, -26034.385, -85103.76, 38.43861, 0.001422806, 0.00028474364, -26034.36, -26034.36, 0.0, 10.013304, 9.935533 
6.466113e+3, 3.139899e+2, -25007.404, -82972.68, 12.262478, 0.0014236893, 0.000043689586, -25007.4, -25007.4, 0.0, 10.013307, 9.93697 
6.47616e+3, 1.2522791e+2, -1703480.3, -1721916.3, 29.665941, 0.0014329446, 0.00021724669, -1703480.3, 9287.526, 0.0, 10.013146, 9.988703 
6.476158e+3, 1.3521647e+2, -1606175.9, -1625203.9, 15.646733, 0.0014317286, 0.000039250855, -1606175.9, 8703.965, 0.0, 10.0131445, 9.987919 
6.4761555e+3, 1.4519845e+2, -1518195.5, -1546112.9, 67.4965, 0.0014318847, 0.0002998999, -1518195.4, -1138.7904, 0.0, 10.013145, 9.976158 
6.476153e+3, 1.5517458e+2, -1420534.0, -1448857.5, 51.825493, 0.0014332003, 0.000108193475, -1420534.0, -1243.5438, 0.0, 10.013149, 9.975627 
6.4761513e+3, 1.651441e+2, -1332520.3, -1370040.3, 97.91654, 0.0014329398, 0.00018886599, -1332520.0, -10931.055, 0.0, 10.013155, 9.96355 
6.4761496e+3, 1.7510772e+2, -1234619.8, -1272462.1, 80.595375, 0.00143123, 0.00008499937, -1234619.6, -10673.893, 0.0, 10.0131645, 9.963137 
6.476147e+3, 1.8506466e+2, -1146596.4, -1193972.6, 113.41295, 0.0014313449, 0.00022868333, -1146596.1, -20228.576, 0.0, 10.013174, 9.950672 
6.4761454e+3, 1.9501537e+2, -1048502.75, -1096150.5, 96.85606, 0.0014331965, 0.00009438893, -1048502.56, -19651.936, 0.0, 10.013185, 9.950329 
6.4761436e+3, 2.0495926e+2, -960601.75, -1018261.2, 122.51066, 0.0014332887, 0.00021429016, -960601.44, -29201.037, 0.0, 10.013197, 9.937282 
6.476142e+3, 2.1489657e+2, -862364.75, -920298.25, 102.63687, 0.0014316094, 0.000018595358, -862364.6, -28349.893, 0.0, 10.01321, 9.936938 
6.47614e+3, 2.2482717e+2, -774160.8, -842195.7, 125.02529, 0.0014314366, 0.00026338839, -774160.56, -37465.668, 0.0, 10.013224, 9.923829 
6.476138e+3, 2.3475105e+2, -675778.0, -744079.5, 104.43848, 0.0014328393, 0.00004839123, -675777.8, -36337.047, 0.0, 10.013237, 9.923496 
6.4761364e+3, 2.4466795e+2, -587534.94, -666294.06, 118.74686, 0.0014330335, 0.000207596, -587534.75, -45279.74, 0.0, 10.01325, 9.909988 
6.476135e+3, 2.5457805e+2, -488834.3, -567682.75, 97.11078, 0.0014318629, 0.0000229711, -488834.2, -43698.22, 0.0, 10.013263, 9.909885 
6.476134e+3, 2.6448104e+2, -400695.16, -490521.44, 103.69862, 0.0014314848, 0.00026641059, -400695.03, -52608.26, 0.0, 10.013275, 9.895725 
6.4761317e+3, 2.7437732e+2, -301468.28, -390978.53, 81.00179, 0.0014320455, -0.00008236916, -301468.22, -50364.895, 0.0, 10.013286, 9.89614 
6.4761305e+3, 2.8426543e+2, -214855.17, -317398.44, 77.27055, 0.001432368, 0.00034697016, -214855.11, -60655.67, 0.0, 10.013294, 9.879421 
6.476129e+3, 2.9414594e+2, -115197.65, -217121.81, 54.389584, 0.0014323625, -0.0001365847, -115197.62, -57826.973, 0.0, 10.013302, 9.880218 
6.476128e+3, 3.0405405e+2, -26078.799, -85206.66, 38.639263, 0.001432068, 0.00028430286, -26078.773, -26078.773, 0.0, 10.013308, 9.935461 
6.4761263e+3, 3.139913e+2, -25052.125, -83076.76, 12.247825, 0.0014313725, 0.000044425262, -25052.123, -25052.123, 0.0, 10.013311, 9.936897 
6.486173e+3, 1.2523037e+2, -1703187.0, -1721804.6, 33.703682, 0.0014407841, 0.00021712837, -1703187.0, 9556.828, 0.0, 10.013348, 9.988664 
6.486171e+3, 1.3521889e+2, -1605879.6, -1625091.5, 19.813581, 0.0014403351, 0.000039326518, -1605879.6, 8976.645, 0.0, 10.01335, 9.987879 
6.486169e+3, 1.4520082e+2, -1517896.6, -1546003.8, 73.970566, 0.0014404473, 0.00030004274, -1517896.5, -863.0862, 0.0, 10.013354, 9.976115 
6.486167e+3, 1.551769e+2, -1420228.3, -1448745.4, 58.343254, 0.001440971, 0.00010828335, -1420228.1, -960.438, 0.0, 10.013363, 9.975584 
6.4861643e+3, 1.651464e+2, -1332211.0, -1369930.1, 106.31607, 0.0014408482, 0.00018892548, -1332210.8, -10644.067, 0.0, 10.013373, 9.963504 
6.4861625e+3, 1.7510994e+2, -1234306.9, -1272351.0, 89.2945, 0.0014401468, 0.00008505069, -1234306.6, -10382.814, 0.0, 10.013386, 9.963091 
6.486161e+3, 1.8506685e+2, -1146276.0, -1193856.6, 123.326584, 0.0014402764, 0.0002286714, -1146275.8, -19929.553, 0.0, 10.013401, 9.950628 
6.486159e+3, 1.950175e+2, -1048174.44, -1096031.3, 106.38179, 0.0014411849, 0.00009426039, -1048174.25, -19344.582, 0.0, 10.013417, 9.950284 
6.4861566e+3, 2.0496134e+2, -960273.44, -1018152.44, 132.605, 0.0014411914, 0.0002141701, -960273.1, -28893.236, 0.0, 10.013435, 9.937228 
6.4861554e+3, 2.1489862e+2, -862031.9, -920188.06, 112.82853, 0.0014402856, 0.000018609824, -862031.7, -28036.98, 0.0, 10.013453, 9.936886 
6.4861536e+3, 2.2482915e+2, -773824.94, -842089.25, 135.04506, 0.0014402444, 0.0002634671, -773824.6, -37149.203, 0.0, 10.013472, 9.923773 
6.486152e+3, 2.3475298e+2, -675435.6, -743970.75, 113.85422, 0.0014411025, 0.00004845996, -675435.44, -36013.594, 0.0, 10.01349, 9.92344 
6.48615e+3, 2.4466982e+2, -587188.6, -666187.3, 127.466064, 0.0014412563, 0.00020768365, -587188.44, -44951.742, 0.0, 10.013508, 9.909928 
6.486148e+3, 2.5457987e+2, -488483.6, -567574.9, 105.59587, 0.0014406091, 0.000023109787, -488483.44, -43365.23, 0.0, 10.013525, 9.909825 
6.486147e+3, 2.644828e+2, -400341.63, -490417.03, 111.02958, 0.0014403358, 0.0002665277, -400341.47, -52271.867, 0.0, 10.013541, 9.895662 
6.486145e+3, 2.74379e+2, -301109.72, -390872.88, 87.69124, 0.001440499, -0.0000823591, -301109.63, -50022.87, 0.0, 10.0135565, 9.896076 
6.486144e+3, 2.842671e+2, -214490.67, -317290.0, 82.375496, 0.0014407326, 0.00034696708, -214490.61, -60307.098, 0.0, 10.01357, 9.879359 
6.486143e+3, 2.941475e+2, -114829.08, -217012.42, 59.050453, 0.0014410398, -0.00013648157, -114829.04, -57473.71, 0.0, 10.013582, 9.880155 
6.486141e+3, 3.0405554e+2, -25715.188, -85112.75, 41.06355, 0.0014408492, 0.0002844375, -25715.158, -25715.158, 0.0, 10.013592, 9.935388 
6.48614e+3, 3.1399274e+2, -24682.908, -82981.33, 13.38435, 0.0014399608, 0.000044497927, -24682.906, -24682.906, 0.0, 10.013599, 9.936823 
6.496186e+3, 1.2523282e+2, -1703220.1, -1721868.3, 32.689915, 0.0014479749, 0.00021716798, -1703220.0, 9499.694, 0.0, 10.013349, 9.988624 
6.4961845e+3, 1.352213e+2, -1605911.9, -1625154.5, 18.876337, 0.0014496758, 0.000039263363, -1605911.9, 8920.813, 0.0, 10.0133505, 9.98784 
6.496182e+3, 1.4520319e+2, -1517931.3, -1546072.0, 75.71531, 0.0014495916, 0.0003000047, -1517931.0, -920.8959, 0.0, 10.013356, 9.976072 
6.49618e+3, 1.5517923e+2, -1420262.3, -1448813.3, 60.12563, 0.0014477599, 0.00010838414, -1420262.1, -1017.297, 0.0, 10.013365, 9.975541 
6.496178e+3, 1.6514866e+2, -1332246.6, -1370001.6, 109.47574, 0.0014480134, 0.00018908609, -1332246.3, -10702.002, 0.0, 10.013375, 9.963458 
6.4961755e+3, 1.7511219e+2, -1234341.6, -1272421.8, 92.43856, 0.0014502465, 0.00008519802, -1234341.4, -10439.56, 0.0, 10.013388, 9.963046 
6.496174e+3, 1.8506904e+2, -1146309.6, -1193926.0, 128.24663, 0.0014502755, 0.0002286256, -1146309.3, -19984.637, 0.0, 10.013403, 9.950583 
6.496172e+3, 1.9501965e+2, -1048207.25, -1096100.0, 111.41568, 0.0014481584, 0.00009384716, -1048207.0, -19398.396, 0.0, 10.01342, 9.950239 
6.49617e+3, 2.0496346e+2, -960311.9, -1018233.25, 138.01888, 0.0014479929, 0.00021379693, -960311.5, -28952.195, 0.0, 10.013437, 9.937176 
6.4961684e+3, 2.1490067e+2, -862069.3, -920268.2, 118.16033, 0.0014497754, 0.000018686029, -862069.06, -28094.434, 0.0, 10.013455, 9.936833 
6.496167e+3, 2.2483115e+2, -773865.3, -842176.25, 140.63945, 0.001450054, 0.00026366155, -773865.0, -37209.105, 0.0, 10.013474, 9.923716 
6.496165e+3, 2.3475492e+2, -675475.44, -744057.3, 119.522995, 0.0014487355, 0.000048423117, -675475.2, -36072.316, 0.0, 10.013493, 9.923383 
6.4961636e+3, 2.446717e+2, -587229.7, -666277.25, 132.68921, 0.0014485748, 0.0002076779, -587229.44, -45011.176, 0.0, 10.013511, 9.909869 
6.496162e+3, 2.545817e+2, -488523.94, -567664.3, 110.796394, 0.001449697, 0.000023429075, -488523.78, -43423.375, 0.0, 10.013528, 9.909766 
6.4961606e+3, 2.6448455e+2, -400384.22, -490512.06, 115.56221, 0.0014499397, 0.00026678893, -400384.06, -52331.66, 0.0, 10.013545, 9.895598 
6.4961594e+3, 2.7438068e+2, -301151.5, -390967.4, 92.22846, 0.0014491142, -0.00008261514, -301151.4, -50081.195, 0.0, 10.01356, 9.896012 
6.4961576e+3, 2.842687e+2, -214531.1, -317382.94, 85.720085, 0.0014488212, 0.000346725, -214531.02, -60363.457, 0.0, 10.013575, 9.879296 
6.4961565e+3, 2.9414907e+2, -114868.59, -217104.55, 62.267433, 0.0014492039, -0.00013602432, -114868.555, -57528.56, 0.0, 10.013586, 9.880092 
6.4961547e+3, 3.0405703e+2, -25761.516, -85219.766, 42.765118, 0.0014493525, 0.00028494323, -25761.486, -25761.486, 0.0, 10.013597, 9.935313 
6.4961535e+3, 3.1399417e+2, -24729.734, -83089.84, 14.98941, 0.001449175, 0.00004413455, -24729.73, -24729.73, 0.0, 10.013604, 9.936748 
6.5062004e+3, 1.2523527e+2, -1702931.5, -1721758.5, 35.414547, 0.001456621, 0.00021722598, -1702931.4, 9764.329, 0.0, 10.013548, 9.9885845 
6.506198e+3, 1.3522372e+2, -1605615.8, -1625041.5, 21.895031, 0.0014574209, 0.000039294253, -1605615.8, 9193.29, 0.0, 10.013555, 9.987801 
6.5061957e+3, 1.4520556e+2, -1517632.0, -1545962.4, 81.116135, 0.0014573903, 0.0002999269, -1517631.8, -644.8151, 0.0, 10.013565, 9.976029 
6.506193e+3, 1.5518154e+2, -1419958.4, -1448702.0, 65.6334, 0.0014564819, 0.00010811975, -1419958.3, -736.1755, 0.0, 10.013577, 9.975498 
6.5061915e+3, 1.6515096e+2, -1331939.5, -1369893.0, 116.453896, 0.0014567507, 0.0001889163, -1331939.3, -10417.243, 0.0, 10.013593, 9.963412 
6.50619e+3, 1.7511441e+2, -1234028.4, -1272310.8, 99.02781, 0.0014581523, 0.000085386404, -1234028.1, -10148.126, 0.0, 10.01361, 9.962999 
6.5061873e+3, 1.8507123e+2, -1145987.0, -1193807.8, 136.8955, 0.0014581872, 0.00022879997, -1145986.6, -19683.438, 0.0, 10.013631, 9.95054 
6.5061855e+3, 1.9502181e+2, -1047877.44, -1095979.0, 120.72948, 0.0014568801, 0.00009364957, -1047877.1, -19089.598, 0.0, 10.013654, 9.950196 
6.506184e+3, 2.0496555e+2, -959982.56, -1018125.7, 147.73677, 0.0014568063, 0.00021359957, -959982.2, -28643.404, 0.0, 10.013678, 9.937121 
6.506182e+3, 2.1490271e+2, -861731.8, -920157.4, 126.90855, 0.0014579622, 0.000018861594, -861731.56, -27776.941, 0.0, 10.013701, 9.936779 
6.50618e+3, 2.2483313e+2, -773522.75, -842066.7, 148.74173, 0.0014581683, 0.00026386132, -773522.44, -36885.97, 0.0, 10.013726, 9.923658 
6.506179e+3, 2.3475686e+2, -675127.8, -743946.2, 127.745995, 0.001457359, 0.000048280264, -675127.56, -35743.59, 0.0, 10.013749, 9.923326 
6.506177e+3, 2.4467358e+2, -586878.94, -666169.44, 140.32706, 0.0014573277, 0.00020746414, -586878.7, -44678.75, 0.0, 10.013772, 9.909808 
6.506176e+3, 2.545835e+2, -488167.9, -567554.94, 117.879684, 0.0014581549, 0.000023447661, -488167.72, -43085.07, 0.0, 10.013794, 9.909705 
6.506174e+3, 2.6448628e+2, -400024.28, -490405.53, 121.740746, 0.0014583304, 0.00026689563, -400024.13, -51988.844, 0.0, 10.013816, 9.8955345 
6.506173e+3, 2.7438238e+2, -300785.38, -390859.06, 98.10971, 0.0014577105, -0.000082591614, -300785.25, -49731.586, 0.0, 10.013837, 9.895948 
6.506171e+3, 2.8427032e+2, -214158.63, -317272.56, 89.66119, 0.0014574807, 0.0003467187, -214158.55, -60006.867, 0.0, 10.013856, 9.879231 
6.50617e+3, 2.9415062e+2, -114491.25, -216992.92, 65.165825, 0.0014577409, -0.0001359933, -114491.2, -57166.47, 0.0, 10.013873, 9.880028 
6.506168e+3, 3.0405852e+2, -25388.41, -85123.0, 43.45522, 0.0014578926, 0.0002850004, -25388.379, -25388.379, 0.0, 10.013887, 9.935239 
6.506167e+3, 3.1399557e+2, -24350.738, -82991.38, 15.210672, 0.0014578997, 0.000044214867, -24350.734, -24350.734, 0.0, 10.0139, 9.936671 
6.516214e+3, 1.2523772e+2, -1702964.3, -1721820.9, 36.42317, 0.0014661921, 0.00021728601, -1702964.1, 9707.612, 0.0, 10.013548, 9.988546 
6.5162116e+3, 1.3522612e+2, -1605647.9, -1625103.5, 22.966469, 0.0014641845, 0.0000393755, -1605647.9, 9137.561, 0.0, 10.013556, 9.9877615 
6.516209e+3, 1.4520793e+2, -1517666.8, -1546030.5, 84.161995, 0.0014643699, 0.0002998172, -1517666.5, -702.8867, 0.0, 10.013566, 9.975987 
6.516207e+3, 1.5518388e+2, -1419992.4, -1448769.5, 68.73282, 0.0014664457, 0.00010762092, -1419992.3, -792.9682, 0.0, 10.013579, 9.975456 
6.516205e+3, 1.6515324e+2, -1331976.1, -1369966.3, 121.40077, 0.0014664968, 0.00018853322, -1331975.6, -10476.114, 0.0, 10.013595, 9.963366 
6.516203e+3, 1.7511666e+2, -1234064.1, -1272383.3, 104.04264, 0.0014646897, 0.00008559101, -1234063.9, -10205.797, 0.0, 10.013612, 9.962954 
6.516201e+3, 1.8507342e+2, -1146019.1, -1193874.0, 143.84811, 0.001464803, 0.00022910452, -1146018.6, -19736.973, 0.0, 10.013633, 9.950497 
6.516199e+3, 1.9502395e+2, -1047908.8, -1096044.6, 127.41805, 0.0014667357, 0.000093585506, -1047908.5, -19141.996, 0.0, 10.013656, 9.950153 
6.5161973e+3, 2.0496765e+2, -960023.4, -1018210.9, 155.117, 0.0014669205, 0.00021351081, -960022.94, -28704.766, 0.0, 10.0136795, 9.937066 
6.5161955e+3, 2.1490476e+2, -861771.6, -920241.75, 134.58827, 0.001465351, 0.000019091, -861771.3, -27836.73, 0.0, 10.013704, 9.936724 
6.5161943e+3, 2.2483511e+2, -773563.0, -842153.1, 156.03096, 0.0014652392, 0.0002640554, -773562.7, -36945.727, 0.0, 10.013729, 9.923601 
6.5161926e+3, 2.3475878e+2, -675167.56, -744032.1, 135.00836, 0.0014666455, 0.000048068243, -675167.3, -35802.246, 0.0, 10.013752, 9.923268 
6.516191e+3, 2.4467546e+2, -586921.3, -666261.56, 147.24825, 0.0014670226, 0.00020711658, -586921.0, -44739.42, 0.0, 10.013775, 9.909747 
6.5161896e+3, 2.5458533e+2, -488209.2, -567646.4, 124.8163, 0.0014662377, 0.000023266037, -488208.97, -43144.09, 0.0, 10.013798, 9.909644 
6.516188e+3, 2.6448804e+2, -400067.16, -490501.38, 128.29707, 0.0014659775, 0.00026689493, -400066.97, -52048.855, 0.0, 10.01382, 9.895471 
6.5161866e+3, 2.7438405e+2, -300827.72, -390954.5, 104.61456, 0.0014663326, -0.00008239224, -300827.6, -49790.43, 0.0, 10.013841, 9.895884 
6.516185e+3, 2.8427196e+2, -214200.98, -317369.2, 94.671974, 0.0014665442, 0.00034686195, -214200.89, -60065.098, 0.0, 10.01386, 9.879167 
6.5161836e+3, 2.941522e+2, -114532.49, -217088.75, 70.12707, 0.0014665494, -0.00013624427, -114532.445, -57222.94, 0.0, 10.013877, 9.879962 
6.5161824e+3, 3.0406004e+2, -25435.11, -85231.06, 46.830914, 0.0014664893, 0.00028476186, -25435.072, -25435.072, 0.0, 10.013892, 9.9351635 
6.516181e+3, 3.1399697e+2, -24397.945, -83100.74, 18.370043, 0.0014663523, 0.00004457474, -24397.94, -24397.94, 0.0, 10.013905, 9.936595 
6.5262276e+3, 1.2524016e+2, -1702678.1, -1721711.5, 37.72239, 0.001473896, 0.00021715152, -1702678.0, 9969.834, 0.0, 10.013745, 9.988508 
6.526225e+3, 1.3522851e+2, -1605355.8, -1624991.8, 24.574472, 0.0014728648, 0.00003922278, -1605355.8, 9406.156, 0.0, 10.013757, 9.987723 
6.526223e+3, 1.4521028e+2, -1517370.8, -1545922.1, 88.22116, 0.0014731243, 0.00029970316, -1517370.5, -429.98544, 0.0, 10.013773, 9.9759445 
6.5262204e+3, 1.551862e+2, -1419688.4, -1448657.8, 72.95726, 0.0014744443, 0.00010759398, -1419688.3, -511.71942, 0.0, 10.013792, 9.975413 
6.5262187e+3, 1.6515552e+2, -1331667.5, -1369857.1, 127.37451, 0.0014743817, 0.00018857305, -1331667.1, -10189.848, 0.0, 10.013813, 9.96332 
6.526217e+3, 1.7511888e+2, -1233749.0, -1272271.4, 110.21088, 0.0014730594, 0.00008567961, -1233748.8, -9912.542, 0.0, 10.013836, 9.962907 
6.526215e+3, 1.8507561e+2, -1145696.9, -1193759.6, 151.19887, 0.0014732409, 0.0002290436, -1145696.5, -19436.166, 0.0, 10.013862, 9.950451 
6.5262127e+3, 1.950261e+2, -1047579.4, -1095927.4, 132.62683, 0.0014748423, 0.000093184586, -1047579.0, -18833.432, 0.0, 10.01389, 9.950107 
6.5262115e+3, 2.0496975e+2, -959689.6, -1018098.3, 161.11424, 0.0014751221, 0.00021311779, -959689.2, -28391.434, 0.0, 10.013921, 9.937015 
6.52621e+3, 2.1490678e+2, -861429.06, -920125.6, 142.43105, 0.0014740726, 0.000019053854, -861428.75, -27514.123, 0.0, 10.013953, 9.936671 
6.526208e+3, 2.248371e+2, -773217.56, -842042.9, 163.40958, 0.0014740678, 0.0002641868, -773217.2, -36619.625, 0.0, 10.013983, 9.923544 
6.526207e+3, 2.347607e+2, -674817.2, -743920.44, 141.81189, 0.0014751472, 0.00004817168, -674816.9, -35470.67, 0.0, 10.01401, 9.923211 
6.526205e+3, 2.4467732e+2, -586566.4, -666152.75, 153.9269, 0.0014753273, 0.00020712026, -586566.06, -44402.766, 0.0, 10.014039, 9.909686 
6.526204e+3, 2.545871e+2, -487845.63, -567534.4, 131.20065, 0.0014744898, 0.000023089375, -487845.4, -42798.184, 0.0, 10.014069, 9.909582 
6.526202e+3, 2.6448977e+2, -399699.13, -490392.5, 133.09581, 0.0014743869, 0.00026672037, -399698.94, -51697.855, 0.0, 10.014096, 9.895405 
6.526201e+3, 2.7438575e+2, -300455.38, -390844.8, 108.54371, 0.00147515, -0.00008234453, -300455.25, -49434.477, 0.0, 10.014122, 9.895819 
6.526199e+3, 2.8427356e+2, -213821.86, -317256.88, 97.09872, 0.0014753647, 0.00034695826, -213821.77, -59701.72, 0.0, 10.014147, 9.879101 
6.526198e+3, 2.9415372e+2, -114145.734, -216973.84, 72.26174, 0.0014748473, -0.00013632722, -114145.68, -56851.285, 0.0, 10.014171, 9.879896 
6.526196e+3, 3.040615e+2, -25051.826, -85131.67, 46.263027, 0.001474759, 0.0002846053, -25051.791, -25051.791, 0.0, 10.014192, 9.935086 
6.5261954e+3, 3.1399837e+2, -24009.174, -82999.95, 16.41362, 0.0014752964, 0.00004450963, -24009.17, -24009.17, 0.0, 10.014208, 9.936518 
6.536241e+3, 1.252426e+2, -1702710.5, -1721772.9, 40.32165, 0.0014804573, 0.00021688387, -1702710.5, 9913.488, 0.0, 10.013745, 9.98847 
6.536239e+3, 1.3523093e+2, -1605387.5, -1625052.8, 27.225563, 0.0014827587, 0.000038916853, -1605387.5, 9350.863, 0.0, 10.013758, 9.987686 
6.536237e+3, 1.4521265e+2, -1517405.6, -1545989.6, 93.35128, 0.0014830012, 0.00029958045, -1517405.3, -487.88025, 0.0, 10.013774, 9.975903 
6.5362346e+3, 1.5518852e+2, -1419722.4, -1448724.6, 78.124245, 0.0014812329, 0.00010785297, -1419722.1, -568.3648, 0.0, 10.013793, 9.975371 
6.536232e+3, 1.651578e+2, -1331703.9, -1369929.5, 134.02385, 0.0014811278, 0.0001888676, -1331703.4, -10248.375, 0.0, 10.013814, 9.963274 
6.5362304e+3, 1.7512111e+2, -1233784.5, -1272343.1, 116.90025, 0.0014826063, 0.00008568744, -1233784.1, -9969.739, 0.0, 10.013837, 9.962861 
6.5362287e+3, 1.8507779e+2, -1145734.1, -1193835.9, 160.17126, 0.0014828463, 0.00022874508, -1145733.6, -19494.672, 0.0, 10.013864, 9.950401 
6.536227e+3, 1.9502822e+2, -1047615.7, -1096002.9, 141.55046, 0.0014818717, 0.00009256029, -1047615.25, -18890.61, 0.0, 10.013893, 9.950058 
6.536225e+3, 2.0497182e+2, -959726.1, -1018174.8, 171.17169, 0.0014821477, 0.00021252222, -959725.56, -28448.275, 0.0, 10.013924, 9.936965 
6.536224e+3, 2.1490881e+2, -861465.25, -920201.75, 152.57115, 0.0014836657, 0.000018841503, -861464.9, -27570.186, 0.0, 10.013955, 9.936622 
6.536222e+3, 2.2483908e+2, -773259.7, -842131.8, 172.09634, 0.0014840325, 0.00026427174, -773259.25, -36681.14, 0.0, 10.013985, 9.923486 
6.536221e+3, 2.3476262e+2, -674857.94, -744008.56, 150.50801, 0.0014831752, 0.00004846375, -674857.6, -35530.254, 0.0, 10.014013, 9.923153 
6.5362185e+3, 2.4467918e+2, -586609.0, -666245.8, 163.36151, 0.0014827818, 0.00020733628, -586608.7, -44463.594, 0.0, 10.014043, 9.909624 
6.5362173e+3, 2.545889e+2, -487887.84, -567627.06, 140.65617, 0.0014828931, 0.000022913482, -487887.6, -42857.984, 0.0, 10.014072, 9.909521 
6.536216e+3, 2.6449153e+2, -399744.03, -490491.78, 141.10736, 0.0014833212, 0.00026643384, -399743.8, -51759.734, 0.0, 10.0141, 9.895339 
6.536215e+3, 2.743874e+2, -300499.1, -390943.44, 116.528885, 0.0014841135, -0.000082404316, -300498.97, -49494.535, 0.0, 10.014126, 9.895752 
6.536213e+3, 2.8427514e+2, -213864.25, -317354.06, 104.49788, 0.001484054, 0.00034701393, -213864.14, -59759.8, 0.0, 10.014152, 9.879035 
6.536212e+3, 2.9415524e+2, -114187.5, -217070.34, 79.567764, 0.0014828714, -0.00013630647, -114187.44, -56908.094, 0.0, 10.014175, 9.87983 
6.53621e+3, 3.0406296e+2, -25100.908, -85244.15, 51.086086, 0.0014828754, 0.00028450135, -25100.865, -25100.865, 0.0, 10.014196, 9.935008 
6.5362096e+3, 3.1399974e+2, -24058.379, -83113.82, 21.07777, 0.0014845793, 0.000044163186, -24058.371, -24058.371, 0.0, 10.014214, 9.936439 
6.546255e+3, 1.2524502e+2, -1702428.8, -1721665.3, 39.759235, 0.001488954, 0.00021665168, -1702428.6, 10171.563, 0.0, 10.013939, 9.988433 
6.546253e+3, 1.3523331e+2, -1605098.3, -1624941.9, 26.817854, 0.0014906322, 0.000038944872, -1605098.3, 9616.774, 0.0, 10.013957, 9.987648 
6.5462506e+3, 1.4521499e+2, -1517111.6, -1545882.0, 95.648636, 0.0014908918, 0.00029961855, -1517111.3, -216.85623, 0.0, 10.013979, 9.975861 
6.546249e+3, 1.5519083e+2, -1419419.9, -1448613.4, 80.50298, 0.0014897195, 0.00010766912, -1419419.6, -288.45157, 0.0, 10.014005, 9.975329 
6.5462464e+3, 1.6516005e+2, -1331395.5, -1369820.1, 137.8957, 0.0014896946, 0.00018862293, -1331395.0, -9962.185, 0.0, 10.014032, 9.963228 
6.5462446e+3, 1.7512332e+2, -1233467.5, -1272230.1, 120.7287, 0.0014907749, 0.000085532876, -1233467.1, -9674.434, 0.0, 10.014062, 9.962815 
6.546243e+3, 1.8507996e+2, -1145411.5, -1193725.4, 165.90894, 0.001490939, 0.0002286063, -1145410.9, -19193.195, 0.0, 10.014094, 9.950352 
6.5462404e+3, 1.9503033e+2, -1047284.56, -1095888.9, 146.65514, 0.001490195, 0.00009236585, -1047284.1, -18580.219, 0.0, 10.014131, 9.950008 
6.546239e+3, 2.0497389e+2, -959387.2, -1018056.3, 176.59106, 0.0014906275, 0.00021232762, -959386.7, -28129.592, 0.0, 10.014166, 9.936915 
6.546238e+3, 2.1491085e+2, -861121.8, -920081.9, 158.28647, 0.0014922281, 0.000018702915, -861121.4, -27246.47, 0.0, 10.014202, 9.936573 
6.546236e+3, 2.2484103e+2, -772914.9, -842022.8, 177.60277, 0.0014924738, 0.00026412721, -772914.4, -36355.508, 0.0, 10.014239, 9.923428 
6.5462345e+3, 2.3476453e+2, -674501.25, -743894.7, 155.7876, 0.0014912806, 0.000048248377, -674500.94, -35192.22, 0.0, 10.0142765, 9.923094 
6.546233e+3, 2.4468102e+2, -586246.25, -666134.2, 167.81514, 0.0014910485, 0.0002071919, -586245.94, -44118.906, 0.0, 10.014312, 9.909562 
6.546232e+3, 2.545907e+2, -487520.53, -567514.3, 144.59256, 0.0014918749, 0.00002299758, -487520.28, -42508.14, 0.0, 10.014346, 9.909458 
6.5462303e+3, 2.6449323e+2, -399372.03, -490382.25, 144.08955, 0.0014922275, 0.00026651495, -399371.8, -51404.563, 0.0, 10.01438, 9.895272 
6.546229e+3, 2.7438903e+2, -300117.34, -390830.34, 119.21556, 0.0014919995, -0.0000826008, -300117.16, -49128.926, 0.0, 10.014415, 9.895685 
6.5462273e+3, 2.8427672e+2, -213474.64, -317238.66, 105.05409, 0.0014919592, 0.00034680575, -213474.53, -59385.703, 0.0, 10.014446, 9.878967 
6.546227e+3, 2.9415676e+2, -113793.82, -216954.16, 78.96131, 0.0014921413, -0.00013618454, -113793.76, -56529.273, 0.0, 10.014474, 9.879764 
6.546225e+3, 3.040644e+2, -24710.361, -85142.65, 48.2379, 0.0014922948, 0.0002846756, -24710.324, -24710.324, 0.0, 10.014501, 9.934931 
6.546224e+3, 3.1400114e+2, -23657.441, -83008.46, 17.938097, 0.0014924284, 0.000044011267, -23657.436, -23657.436, 0.0, 10.014525, 9.936359 
6.556269e+3, 1.2524743e+2, -1702461.5, -1721726.5, 44.200474, 0.0014986595, 0.00021643213, -1702461.4, 10115.11, 0.0, 10.013939, 9.988395 
6.5562665e+3, 1.3523568e+2, -1605130.0, -1625002.4, 31.348843, 0.0014972719, 0.000039164926, -1605129.9, 9561.749, 0.0, 10.013958, 9.987611 
6.556265e+3, 1.4521733e+2, -1517146.4, -1545949.3, 102.9564, 0.0014975746, 0.00029974146, -1517146.0, -274.5174, 0.0, 10.01398, 9.975819 
6.5562624e+3, 1.5519312e+2, -1419454.1, -1448680.1, 87.85415, 0.0014992811, 0.00010720029, -1419453.9, -345.12, 0.0, 10.014006, 9.975287 
6.55626e+3, 1.651623e+2, -1331432.3, -1369893.0, 146.81741, 0.0014994104, 0.00018803377, -1331431.8, -10020.965, 0.0, 10.014033, 9.9631815 
6.556259e+3, 1.7512554e+2, -1233503.1, -1272302.1, 129.67348, 0.0014981084, 0.0000852631, -1233502.6, -9731.599, 0.0, 10.014064, 9.9627695 
6.556257e+3, 1.8508211e+2, -1145450.3, -1193804.5, 177.15056, 0.0014981192, 0.00022855398, -1145449.6, -19253.111, 0.0, 10.014096, 9.950301 
6.5562546e+3, 1.9503245e+2, -1047323.06, -1095967.5, 157.9644, 0.0014993593, 0.000092432616, -1047322.5, -18639.256, 0.0, 10.0141325, 9.949957 
6.5562534e+3, 2.0497593e+2, -959423.4, -1018131.5, 188.04329, 0.0015000417, 0.00021237644, -959422.8, -28185.902, 0.0, 10.014169, 9.936867 
6.556252e+3, 2.1491285e+2, -861156.94, -920156.3, 169.70679, 0.0015001618, 0.000018597264, -861156.44, -27301.207, 0.0, 10.014205, 9.936523 
6.5562505e+3, 2.24843e+2, -772957.1, -842112.4, 189.57658, 0.0014999846, 0.00026382584, -772956.56, -36416.86, 0.0, 10.014241, 9.923368 
6.556249e+3, 2.3476642e+2, -674543.06, -743983.9, 167.80806, 0.0014994792, 0.00004770828, -674542.7, -35252.555, 0.0, 10.014279, 9.923035 
6.5562475e+3, 2.4468286e+2, -586290.56, -666229.5, 178.67706, 0.001499867, 0.00020681489, -586290.2, -44181.145, 0.0, 10.014315, 9.909499 
6.556246e+3, 2.5459248e+2, -487563.56, -567608.9, 155.44829, 0.0015012359, 0.000023231029, -487563.28, -42568.496, 0.0, 10.01435, 9.909395 
6.5562445e+3, 2.6449493e+2, -399417.1, -490482.22, 154.98642, 0.001501135, 0.00026681327, -399416.8, -51466.3, 0.0, 10.014384, 9.8952055 
6.556244e+3, 2.743907e+2, -300161.84, -390929.97, 130.10728, 0.0014992647, -0.00008288825, -300161.66, -49189.473, 0.0, 10.014419, 9.8956175 
6.556242e+3, 2.8427833e+2, -213519.45, -317340.1, 113.8894, 0.0014994312, 0.000346428, -213519.33, -59445.906, 0.0, 10.01445, 9.878899 
6.556241e+3, 2.9415825e+2, -113837.44, -217054.8, 87.7037, 0.0015022106, -0.0001360177, -113837.36, -56587.62, 0.0, 10.014479, 9.879694 
6.55624e+3, 3.0406582e+2, -24759.314, -85255.37, 55.793148, 0.0015025457, 0.0002850077, -24759.264, -24759.264, 0.0, 10.014505, 9.934853 
6.5562385e+3, 3.1400248e+2, -23706.879, -83122.46, 25.289467, 0.0014994416, 0.00004397906, -23706.867, -23706.867, 0.0, 10.01453, 9.93628 
6.566283e+3, 1.2524983e+2, -1702185.1, -1721620.9, 41.37461, 0.0015065821, 0.00021635022, -1702185.0, 10368.037, 0.0, 10.014129, 9.9883585 
6.566281e+3, 1.3523804e+2, -1604842.6, -1624891.8, 28.87294, 0.0015056346, 0.00003886599, -1604842.6, 9825.942, 0.0, 10.014155, 9.987574 
6.566279e+3, 1.4521965e+2, -1516853.6, -1545842.0, 102.86482, 0.0015059769, 0.00029946593, -1516853.3, -4.472029, 0.0, 10.014184, 9.975777 
6.5662766e+3, 1.551954e+2, -1419153.8, -1448569.6, 87.87411, 0.0015073533, 0.00010716364, -1419153.5, -67.13307, 0.0, 10.014215, 9.975245 
6.566274e+3, 1.6516453e+2, -1331125.6, -1369785.0, 148.96579, 0.0015074816, 0.00018794075, -1331125.1, -9736.182, 0.0, 10.014251, 9.963136 
6.566273e+3, 1.7512771e+2, -1233184.9, -1272188.9, 131.62451, 0.0015064853, 0.000084840605, -1233184.5, -9434.861, 0.0, 10.014289, 9.962723 
6.566271e+3, 1.8508424e+2, -1145126.4, -1193693.6, 180.40259, 0.0015066538, 0.00022817629, -1145125.8, -18950.117, 0.0, 10.014329, 9.950251 
6.5662694e+3, 1.9503453e+2, -1046993.4, -1095854.5, 161.39949, 0.0015079088, 0.00009245772, -1046992.8, -18329.986, 0.0, 10.014369, 9.949907 
6.5662676e+3, 2.0497797e+2, -959084.25, -1018013.5, 192.30945, 0.001508371, 0.00021240706, -959083.6, -27866.648, 0.0, 10.014412, 9.936817 
6.566266e+3, 2.1491483e+2, -860806.9, -920033.7, 173.4449, 0.0015080358, 0.000018238474, -860806.4, -26970.607, 0.0, 10.014457, 9.936474 
6.5662646e+3, 2.2484492e+2, -772605.1, -842000.1, 192.73741, 0.0015080459, 0.00026342727, -772604.6, -36083.797, 0.0, 10.014501, 9.92331 
6.5662634e+3, 2.347683e+2, -674185.0, -743869.6, 170.8146, 0.001508401, 0.000047636437, -674184.56, -34912.79, 0.0, 10.014543, 9.9229765 
6.5662616e+3, 2.4468468e+2, -585926.6, -666118.3, 181.13957, 0.0015087461, 0.00020681867, -585926.2, -43834.945, 0.0, 10.014586, 9.909435 
6.5662605e+3, 2.5459424e+2, -487188.38, -567493.25, 157.58327, 0.0015090667, 0.000023030589, -487188.06, -42210.44, 0.0, 10.014629, 9.909331 
6.566259e+3, 2.6449662e+2, -399035.66, -490369.34, 155.77869, 0.0015090192, 0.00026660337, -399035.4, -51101.37, 0.0, 10.014671, 9.895138 
6.566258e+3, 2.743923e+2, -299774.75, -390815.63, 130.21062, 0.0015085174, -0.000082873, -299774.56, -48818.22, 0.0, 10.01471, 9.89555 
6.566257e+3, 2.8427985e+2, -213124.64, -317223.72, 112.02632, 0.001508746, 0.00034641344, -213124.52, -59066.254, 0.0, 10.014749, 9.87883 
6.566255e+3, 2.9415977e+2, -113433.23, -216935.06, 85.42275, 0.0015098968, -0.00013639429, -113433.16, -56197.895, 0.0, 10.014786, 9.879625 
6.5662545e+3, 3.0406722e+2, -24357.107, -85150.74, 51.1298, 0.0015101049, 0.00028465517, -24357.064, -24357.064, 0.0, 10.014819, 9.934772 
6.566253e+3, 3.140038e+2, -23297.5, -83015.64, 19.053755, 0.001509002, 0.0000442132, -23297.494, -23297.494, 0.0, 10.01485, 9.936198 
6.576297e+3, 1.2525222e+2, -1702217.1, -1721680.6, 48.606255, 0.0015134254, 0.00021633138, -1702217.0, 10312.687, 0.0, 10.014129, 9.988321 
6.576295e+3, 1.3524039e+2, -1604874.4, -1624951.3, 36.14537, 0.0015150751, 0.000038233047, -1604874.3, 9771.306, 0.0, 10.014155, 9.987537 
6.576293e+3, 1.4522195e+2, -1516888.9, -1545909.3, 112.06297, 0.0015154541, 0.0002989327, -1516888.5, -62.26309, 0.0, 10.014185, 9.975735 
6.576291e+3, 1.5519767e+2, -1419187.8, -1448636.1, 97.12497, 0.0015145256, 0.00010737636, -1419187.5, -123.25217, 0.0, 10.014216, 9.9752035 
6.576289e+3, 1.6516675e+2, -1331162.9, -1369858.6, 160.88628, 0.0015145624, 0.00018813723, -1331162.3, -9795.105, 0.0, 10.014252, 9.963089 
6.576287e+3, 1.7512988e+2, -1233221.8, -1272262.1, 143.61208, 0.001515535, 0.000084313106, -1233221.3, -9492.884, 0.0, 10.014291, 9.962676 
6.5762854e+3, 1.8508637e+2, -1145165.5, -1193772.0, 193.19092, 0.0015160495, 0.00022758759, -1145164.6, -19009.87, 0.0, 10.01433, 9.9502 
6.5762836e+3, 1.950366e+2, -1047031.2, -1095932.1, 174.17662, 0.0015160951, 0.000092441034, -1047030.56, -18388.035, 0.0, 10.014371, 9.949857 
6.5762824e+3, 2.0498e+2, -959121.44, -1018090.9, 206.68533, 0.0015160523, 0.0002124103, -959120.75, -27923.602, 0.0, 10.014414, 9.936768 
6.5762806e+3, 2.1491681e+2, -860843.7, -920110.7, 187.86536, 0.0015159147, 0.000017712488, -860843.1, -27026.682, 0.0, 10.014459, 9.936424 
6.5762794e+3, 2.2484685e+2, -772648.2, -842090.44, 206.5061, 0.0015164878, 0.00026295905, -772647.56, -36145.586, 0.0, 10.014503, 9.923251 
6.5762776e+3, 2.3477016e+2, -674226.9, -743959.2, 184.56892, 0.0015177871, 0.000047840727, -674226.4, -34972.85, 0.0, 10.014545, 9.922917 
6.5762764e+3, 2.4468647e+2, -585971.25, -666214.7, 195.1733, 0.0015176807, 0.0002070432, -585970.75, -43897.137, 0.0, 10.014589, 9.909371 
6.576275e+3, 2.5459594e+2, -487232.3, -567589.06, 171.64772, 0.0015159978, 0.00002254964, -487231.94, -42271.313, 0.0, 10.014633, 9.909267 
6.576274e+3, 2.644983e+2, -399082.44, -490472.03, 168.47498, 0.0015163217, 0.00026606678, -399082.13, -51164.438, 0.0, 10.014674, 9.895069 
6.576273e+3, 2.743939e+2, -299820.66, -390917.84, 142.87854, 0.0015190252, -0.00008268838, -299820.44, -48879.773, 0.0, 10.014714, 9.895481 
6.5762717e+3, 2.842814e+2, -213169.98, -317326.22, 123.69329, 0.001519223, 0.00034660936, -213169.84, -59126.582, 0.0, 10.014752, 9.87876 
6.5762705e+3, 2.9416123e+2, -113477.38, -217036.69, 97.0065, 0.0015161579, -0.00013711228, -113477.3, -56256.348, 0.0, 10.01479, 9.879557 
6.576269e+3, 3.040686e+2, -24408.676, -85268.695, 60.60798, 0.0015160552, 0.00028387437, -24408.615, -24408.615, 0.0, 10.014824, 9.93469 
6.576268e+3, 3.140051e+2, -23349.785, -83135.305, 28.447433, 0.0015201722, 0.000044583085, -23349.771, -23349.771, 0.0, 10.014854, 9.936115 
6.5863115e+3, 1.2525456e+2, -1701943.0, -1721575.6, 43.41562, 0.0015215437, 0.00021583508, -1701942.9, 10563.803, 0.0, 10.0143175, 9.988285 
6.586309e+3, 1.3524269e+2, -1604593.0, -1624843.1, 31.10642, 0.0015231805, 0.00003795468, -1604593.0, 10029.991, 0.0, 10.014349, 9.9875 
6.586307e+3, 1.4522423e+2, -1516601.3, -1545804.6, 109.908295, 0.0015235705, 0.00029870565, -1516600.9, 203.06992, 0.0, 10.014386, 9.975693 
6.586305e+3, 1.5519989e+2, -1418887.1, -1448525.3, 94.971756, 0.0015226679, 0.000107045445, -1418886.8, 155.58713, 0.0, 10.014427, 9.975162 
6.586303e+3, 1.6516893e+2, -1330855.4, -1369749.9, 160.46574, 0.0015228201, 0.00018783605, -1330854.8, -9508.973, 0.0, 10.01447, 9.963043 
6.5863013e+3, 1.7513204e+2, -1232907.0, -1272150.4, 143.37296, 0.0015239924, 0.00008416715, -1232906.4, -9199.0625, 0.0, 10.014514, 9.96263 
6.5862995e+3, 1.8508846e+2, -1144844.0, -1193662.9, 194.44565, 0.0015244437, 0.00022745099, -1144843.3, -18708.994, 0.0, 10.014561, 9.95015 
6.5862983e+3, 1.9503863e+2, -1046697.56, -1095817.4, 175.0612, 0.0015241733, 0.00009217375, -1046696.94, -18074.432, 0.0, 10.014611, 9.949806 
6.586297e+3, 2.04982e+2, -958777.44, -1017970.94, 208.004, 0.0015242039, 0.00021213556, -958776.7, -27599.102, 0.0, 10.014661, 9.936717 
6.5862954e+3, 2.1491875e+2, -860493.1, -919988.3, 189.16844, 0.0015245273, 0.000017554255, -860492.56, -26695.139, 0.0, 10.014711, 9.936374 
6.586294e+3, 2.2484873e+2, -772295.44, -841978.75, 207.76607, 0.0015250476, 0.00026283046, -772294.8, -35811.316, 0.0, 10.014762, 9.923191 
6.5862924e+3, 2.3477198e+2, -673862.5, -743842.75, 185.34738, 0.0015257562, 0.000047650872, -673862.0, -34626.355, 0.0, 10.014814, 9.922857 
6.586292e+3, 2.4468823e+2, -585599.6, -666100.5, 195.18451, 0.0015257244, 0.00020682257, -585599.1, -43542.8, 0.0, 10.014866, 9.9093075 
6.58629e+3, 2.5459766e+2, -486852.7, -567472.1, 171.28654, 0.0015248551, 0.000022331722, -486852.34, -41908.37, 0.0, 10.014915, 9.909204 
6.586289e+3, 2.6449993e+2, -398697.13, -490358.44, 166.4955, 0.0015252328, 0.00026580226, -398696.84, -50795.184, 0.0, 10.014965, 9.895 
6.5862876e+3, 2.7439547e+2, -299426.7, -390801.3, 140.49414, 0.001527084, -0.00008305589, -299426.47, -48501.145, 0.0, 10.015012, 9.8954115 
6.5862864e+3, 2.842829e+2, -212766.72, -317207.38, 119.889015, 0.001527216, 0.0003463633, -212766.58, -58737.99, 0.0, 10.0150585, 9.878691 
6.586285e+3, 2.9416263e+2, -113064.484, -216914.4, 92.335556, 0.0015251009, -0.00013695034, -113064.4, -55857.43, 0.0, 10.015103, 9.879486 
6.586284e+3, 3.0406997e+2, -23997.068, -85160.71, 53.039642, 0.0015251527, 0.00028392326, -23997.021, -23997.021, 0.0, 10.015144, 9.934608 
6.586283e+3, 3.140064e+2, -22930.207, -83024.68, 20.708288, 0.0015283013, 0.000043802116, -22930.2, -22930.2, 0.0, 10.015182, 9.936033 
6.5963256e+3, 1.252569e+2, -1701975.8, -1721635.4, 52.342064, 0.0015304531, 0.00021503595, -1701975.6, 10508.282, 0.0, 10.014317, 9.988249 
6.596324e+3, 1.35245e+2, -1604624.4, -1624902.0, 40.114323, 0.001530484, 0.000037875485, -1604624.3, 9976.206, 0.0, 10.014349, 9.987464 
6.5963215e+3, 1.452265e+2, -1516636.5, -1545871.8, 122.418, 0.001530874, 0.0002986464, -1516636.0, 145.86374, 0.0, 10.014386, 9.975651 
6.596319e+3, 1.552021e+2, -1418922.0, -1448592.1, 107.545074, 0.0015314295, 0.00010636376, -1418921.6, 99.09255, 0.0, 10.014427, 9.97512 
6.596318e+3, 1.651711e+2, -1330893.0, -1369823.1, 174.20503, 0.001531821, 0.00018721375, -1330892.3, -9567.768, 0.0, 10.01447, 9.9629965 
6.596316e+3, 1.7513415e+2, -1232943.3, -1272222.6, 157.14093, 0.0015321022, 0.0000842382, -1232942.6, -9256.084, 0.0, 10.014515, 9.9625845 
6.5963143e+3, 1.8509053e+2, -1144883.9, -1193742.9, 210.40811, 0.001532244, 0.000227574, -1144883.0, -18768.99, 0.0, 10.014563, 9.950099 
6.596313e+3, 1.9504066e+2, -1046736.9, -1095897.0, 191.08446, 0.0015322202, 0.00009173416, -1046736.1, -18133.477, 0.0, 10.014612, 9.949755 
6.5963113e+3, 2.0498396e+2, -958815.3, -1018048.6, 224.15347, 0.0015326788, 0.00021167294, -958814.5, -27656.21, 0.0, 10.014663, 9.9366665 
6.59631e+3, 2.1492067e+2, -860529.9, -920065.2, 205.28978, 0.00153361, 0.000017606164, -860529.2, -26750.635, 0.0, 10.014713, 9.936324 
6.5963084e+3, 2.248506e+2, -772339.3, -842070.9, 224.69304, 0.001533701, 0.00026289473, -772338.56, -35873.387, 0.0, 10.014765, 9.923131 
6.596308e+3, 2.3477378e+2, -673905.6, -743934.4, 202.32726, 0.0015328957, 0.00004720194, -673905.06, -34687.137, 0.0, 10.014817, 9.922797 
6.596306e+3, 2.4468997e+2, -585645.44, -666198.4, 211.53603, 0.0015332653, 0.00020631084, -585644.9, -43605.625, 0.0, 10.014869, 9.909243 
6.5963054e+3, 2.5459933e+2, -486897.75, -567569.5, 187.63676, 0.0015349245, 0.000022257993, -486897.3, -41969.813, 0.0, 10.014918, 9.909139 
6.5963036e+3, 2.6450154e+2, -398744.72, -490462.38, 181.7596, 0.0015351573, 0.00026569067, -398744.34, -50858.508, 0.0, 10.014968, 9.894931 
6.596303e+3, 2.7439702e+2, -299472.94, -390904.56, 155.71837, 0.0015336769, -0.00008377147, -299472.66, -48562.473, 0.0, 10.015016, 9.895342 
6.596301e+3, 2.8428435e+2, -212813.44, -317312.8, 134.41426, 0.0015337294, 0.00034583567, -212813.27, -58799.1, 0.0, 10.015062, 9.878619 
6.5963e+3, 2.9416403e+2, -113110.914, -217019.5, 106.843285, 0.0015357359, -0.00013627532, -113110.805, -55917.582, 0.0, 10.015107, 9.879415 
6.5962994e+3, 3.0407128e+2, -24049.107, -85278.44, 64.56538, 0.0015362249, 0.00028446052, -24049.04, -24049.04, 0.0, 10.015149, 9.934527 
6.5962976e+3, 3.140076e+2, -22981.545, -83143.15, 31.875633, 0.0015346002, 0.000042318694, -22981.527, -22981.527, 0.0, 10.015186, 9.935951 
6.6063404e+3, 1.2525918e+2, -1701709.8, -1721534.4, 44.6398, 0.0015385548, 0.00021489742, -1701709.6, 10751.751, 0.0, 10.0145, 9.988213 
6.606338e+3, 1.3524725e+2, -1604343.4, -1624793.9, 32.552807, 0.0015384766, 0.000037609, -1604343.3, 10235.07, 0.0, 10.014543, 9.987428 
6.6063356e+3, 1.452287e+2, -1516348.4, -1545766.4, 117.255, 0.0015389633, 0.00029829406, -1516347.9, 412.2461, 0.0, 10.014587, 9.97561 
6.606334e+3, 1.5520427e+2, -1418626.3, -1448483.5, 102.636955, 0.0015397959, 0.000105959974, -1418626.0, 373.44064, 0.0, 10.014634, 9.975079 
6.6063327e+3, 1.6517323e+2, -1330590.1, -1369717.1, 171.43549, 0.0015401613, 0.00018685879, -1330589.4, -9285.776, 0.0, 10.014686, 9.962951 
6.60633e+3, 1.7513622e+2, -1232626.4, -1272110.1, 154.09761, 0.0015401363, 0.0000840272, -1232625.8, -8959.669, 0.0, 10.01474, 9.962538 
6.606329e+3, 1.8509257e+2, -1144559.4, -1193632.3, 208.39345, 0.0015403177, 0.00022735498, -1144558.5, -18464.475, 0.0, 10.014795, 9.9500475 
6.606328e+3, 1.9504265e+2, -1046404.75, -1095783.1, 189.23033, 0.0015406621, 0.0000913609, -1046404.0, -17820.785, 0.0, 10.014852, 9.949704 
6.606326e+3, 2.049859e+2, -958472.8, -1017930.44, 223.01096, 0.0015411526, 0.00021132265, -958471.94, -27332.637, 0.0, 10.014909, 9.936616 
6.606325e+3, 2.1492255e+2, -860175.06, -919941.6, 203.61458, 0.0015417811, 0.000017456681, -860174.4, -26414.25, 0.0, 10.014969, 9.936273 
6.606324e+3, 2.2485243e+2, -771980.4, -841956.8, 222.93277, 0.0015418485, 0.0002627534, -771979.6, -35532.36, 0.0, 10.015029, 9.923071 
6.6063225e+3, 2.3477556e+2, -673537.5, -743816.75, 200.40538, 0.0015413108, 0.000046867353, -673536.9, -34336.3, 0.0, 10.015088, 9.922737 
6.6063213e+3, 2.4469168e+2, -585271.0, -666083.9, 208.62811, 0.0015417872, 0.0002059094, -585270.44, -43247.92, 0.0, 10.015147, 9.909178 
6.6063195e+3, 2.5460097e+2, -486514.3, -567451.6, 184.29626, 0.0015433747, 0.000021929793, -486513.9, -41602.457, 0.0, 10.015205, 9.909074 
6.606319e+3, 2.6450312e+2, -398353.44, -490347.03, 177.44312, 0.0015435014, 0.00026549393, -398353.1, -50482.64, 0.0, 10.015263, 9.894861 
6.606318e+3, 2.7439854e+2, -299069.2, -390784.4, 150.84616, 0.0015418733, -0.00008376537, -299068.97, -48173.473, 0.0, 10.015321, 9.895272 
6.606317e+3, 2.8428578e+2, -212400.81, -317191.06, 126.93278, 0.0015420868, 0.0003457551, -212400.67, -58400.523, 0.0, 10.015374, 9.878548 
6.6063154e+3, 2.941654e+2, -112693.695, -216896.86, 98.6954, 0.0015446511, -0.00013681827, -112693.6, -55513.688, 0.0, 10.015424, 9.879343 
6.606314e+3, 3.0407256e+2, -23632.469, -85170.016, 54.720833, 0.001545111, 0.00028403616, -23632.42, -23632.42, 0.0, 10.015474, 9.934444 
6.6063136e+3, 3.1400883e+2, -22547.82, -83027.68, 20.688402, 0.0015426313, 0.00004285147, -22547.813, -22547.813, 0.0, 10.015524, 9.935866 
6.6163546e+3, 1.2526144e+2, -1701742.1, -1721593.5, 57.32819, 0.0015461756, 0.00021512886, -1701742.0, 10697.292, 0.0, 10.0145, 9.988177 
6.616353e+3, 1.3524947e+2, -1604375.5, -1624852.8, 45.309193, 0.0015469108, 0.000037205977, -1604375.4, 10181.168, 0.0, 10.014543, 9.987391 
6.6163504e+3, 1.4523087e+2, -1516384.0, -1545832.9, 131.6048, 0.0015475524, 0.00029774537, -1516383.4, 355.2897, 0.0, 10.014587, 9.975569 
6.6163486e+3, 1.5520643e+2, -1418660.5, -1448549.3, 117.01665, 0.0015479333, 0.00010570482, -1418660.0, 318.29605, 0.0, 10.014635, 9.975038 
6.6163474e+3, 1.6517533e+2, -1330628.3, -1369791.3, 188.71898, 0.0015481145, 0.00018664474, -1330627.4, -9344.347, 0.0, 10.014686, 9.962904 
6.616345e+3, 1.751383e+2, -1232664.1, -1272184.0, 171.45966, 0.0015481563, 0.00008362138, -1232663.4, -9017.437, 0.0, 10.014741, 9.962491 
6.616344e+3, 1.8509458e+2, -1144599.6, -1193711.8, 226.30472, 0.0015485904, 0.0002269066, -1144598.5, -18524.229, 0.0, 10.014796, 9.949997 
6.616342e+3, 1.950446e+2, -1046443.6, -1095861.8, 207.1187, 0.0015493631, 0.0000910105, -1046442.75, -17878.756, 0.0, 10.014853, 9.949654 
6.6163415e+3, 2.0498781e+2, -958511.75, -1018010.3, 242.37566, 0.0015496443, 0.00021102319, -958510.75, -27390.123, 0.0, 10.014911, 9.936564 
6.6163397e+3, 2.1492441e+2, -860213.4, -920021.0, 223.03453, 0.0015494316, 0.000017162383, -860212.56, -26470.617, 0.0, 10.014971, 9.936221 
6.6163385e+3, 2.2485423e+2, -772025.1, -842049.7, 242.41069, 0.0015497276, 0.0002624638, -772024.25, -35594.605, 0.0, 10.015031, 9.923011 
6.6163373e+3, 2.347773e+2, -673581.4, -743909.1, 219.88654, 0.0015505349, 0.000046582023, -673580.7, -34397.16, 0.0, 10.01509, 9.922676 
6.616337e+3, 2.4469335e+2, -585317.8, -666183.4, 227.48563, 0.001550934, 0.00020555744, -585317.2, -43311.05, 0.0, 10.01515, 9.909113 
6.6163355e+3, 2.5460258e+2, -486559.88, -567550.4, 203.15913, 0.0015508657, 0.000021432572, -486559.34, -41663.695, 0.0, 10.015208, 9.909008 
6.616334e+3, 2.6450467e+2, -398401.97, -490452.94, 196.27081, 0.0015509193, 0.0002652287, -398401.53, -50546.215, 0.0, 10.015266, 9.89479 
6.616333e+3, 2.744e+2, -299117.53, -390890.2, 169.71477, 0.0015511042, -0.00008334842, -299117.22, -48236.16, 0.0, 10.015324, 9.895201 
6.616332e+3, 2.842872e+2, -212449.39, -317298.8, 143.05534, 0.0015516195, 0.00034592173, -212449.19, -58462.777, 0.0, 10.015378, 9.878475 
6.6163313e+3, 2.941667e+2, -112740.19, -217003.4, 114.621925, 0.001552532, -0.00013811223, -112740.06, -55573.152, 0.0, 10.015429, 9.879271 
6.61633e+3, 3.040738e+2, -23685.799, -85291.89, 70.6156, 0.0015526825, 0.0002830182, -23685.719, -23685.719, 0.0, 10.015478, 9.93436 
6.616329e+3, 3.1400996e+2, -22602.828, -83151.664, 36.654808, 0.0015517983, 0.000044568373, -22602.807, -22602.807, 0.0, 10.015528, 9.935781 
6.6263694e+3, 1.2526366e+2, -1701477.4, -1721492.5, 46.62341, 0.0015540347, 0.00021460954, -1701477.3, 10940.302, 0.0, 10.014682, 9.988142 
6.626367e+3, 1.3525164e+2, -1604102.4, -1624748.0, 34.932636, 0.0015552822, 0.000036871275, -1604102.3, 10432.925, 0.0, 10.01473, 9.987356 
6.626365e+3, 1.4523302e+2, -1516103.1, -1545731.5, 124.00244, 0.0015559351, 0.00029745878, -1516102.5, 615.1285, 0.0, 10.014784, 9.975528 
6.6263634e+3, 1.5520853e+2, -1418363.8, -1448440.3, 109.182304, 0.0015558661, 0.00010533877, -1418363.3, 594.4686, 0.0, 10.014843, 9.974996 
6.6263616e+3, 1.6517739e+2, -1330323.0, -1369683.8, 182.44737, 0.0015560492, 0.00018623874, -1330322.1, -9059.286, 0.0, 10.014902, 9.962858 
6.6263604e+3, 1.751403e+2, -1232350.8, -1272073.0, 165.4059, 0.0015565121, 0.0000832145, -1232350.0, -8723.723, 0.0, 10.014963, 9.962445 
6.6263586e+3, 1.8509655e+2, -1144278.8, -1193603.6, 221.54926, 0.0015570096, 0.00022654343, -1144277.8, -18222.648, 0.0, 10.015027, 9.949946 
6.6263574e+3, 1.9504651e+2, -1046108.94, -1095747.3, 201.8554, 0.0015575036, 0.000090732, -1046108.1, -17562.781, 0.0, 10.015093, 9.949602 
6.626356e+3, 2.0498967e+2, -958164.75, -1017890.4, 237.56535, 0.0015577266, 0.00021075775, -958163.8, -27061.395, 0.0, 10.015161, 9.936513 
6.626355e+3, 2.1492621e+2, -859856.75, -919897.06, 218.2201, 0.0015576745, 0.000016841266, -859855.94, -26131.725, 0.0, 10.015227, 9.93617 
6.626354e+3, 2.2485597e+2, -771665.3, -841936.06, 237.54314, 0.0015581332, 0.0002620938, -771664.56, -35252.027, 0.0, 10.015295, 9.92295 
6.6263527e+3, 2.3477897e+2, -673211.1, -743791.3, 214.58325, 0.0015591051, 0.00004617033, -673210.5, -34043.46, 0.0, 10.015364, 9.922615 
6.6263515e+3, 2.4469498e+2, -584938.8, -666067.56, 221.5445, 0.0015593148, 0.00020523679, -584938.2, -42948.0, 0.0, 10.015432, 9.909046 
6.626351e+3, 2.5460413e+2, -486167.88, -567429.3, 196.83014, 0.0015586641, 0.000021349613, -486167.4, -41287.02, 0.0, 10.0155, 9.908941 
6.6263497e+3, 2.6450613e+2, -398002.97, -490334.78, 188.28741, 0.001558977, 0.00026509594, -398002.6, -50161.88, 0.0, 10.015567, 9.894719 
6.6263485e+3, 2.744014e+2, -298712.66, -390770.53, 161.34668, 0.0015604221, -0.00008387035, -298712.38, -47845.23, 0.0, 10.01563, 9.89513 
6.626348e+3, 2.8428856e+2, -212034.31, -317177.72, 133.2443, 0.0015607902, 0.000345407, -212034.14, -58060.938, 0.0, 10.015693, 9.878402 
6.626347e+3, 2.94168e+2, -112308.086, -216875.34, 103.98562, 0.0015597407, -0.00013811195, -112307.98, -55153.56, 0.0, 10.015757, 9.879196 
6.6263455e+3, 3.04075e+2, -23252.863, -85177.3, 57.110252, 0.0015598831, 0.00028297812, -23252.81, -23252.81, 0.0, 10.015816, 9.934276 
6.626345e+3, 3.1401107e+2, -22166.605, -83036.72, 22.609276, 0.0015617502, 0.00004372614, -22166.596, -22166.596, 0.0, 10.015867, 9.935696 
6.6363835e+3, 1.2526584e+2, -1701510.0, -1721550.8, 61.218605, 0.0015620604, 0.00021361724, -1701509.9, 10886.338, 0.0, 10.014681, 9.988107 
6.636382e+3, 1.352538e+2, -1604133.5, -1624805.5, 49.592667, 0.0015636161, 0.00003655313, -1604133.4, 10380.735, 0.0, 10.0147295, 9.987321 
6.63638e+3, 1.4523514e+2, -1516139.1, -1545799.1, 142.27228, 0.0015641974, 0.00029730424, -1516138.5, 558.57794, 0.0, 10.014784, 9.975486 
6.636378e+3, 1.5521058e+2, -1418399.5, -1448507.5, 127.52752, 0.0015637073, 0.00010487864, -1418399.0, 538.56384, 0.0, 10.014842, 9.974954 
6.6363764e+3, 1.6517942e+2, -1330361.5, -1369757.4, 201.71967, 0.0015640064, 0.0001856921, -1330360.5, -9117.454, 0.0, 10.014902, 9.962811 
6.636375e+3, 1.7514227e+2, -1232387.9, -1272145.8, 184.68335, 0.001565083, 0.000082785635, -1232387.0, -8780.037, 0.0, 10.014964, 9.962399 
6.636374e+3, 1.8509847e+2, -1144320.0, -1193685.4, 242.97339, 0.0015655295, 0.00022620983, -1144318.8, -18282.523, 0.0, 10.015028, 9.949894 
6.636373e+3, 1.9504839e+2, -1046149.56, -1095828.4, 223.36525, 0.0015653392, 0.000090469424, -1046148.56, -17621.633, 0.0, 10.015094, 9.949551 
6.636371e+3, 2.0499149e+2, -958204.44, -1017970.5, 259.48685, 0.0015656011, 0.00021048484, -958203.3, -27118.736, 0.0, 10.0151615, 9.936461 
6.63637e+3, 2.1492797e+2, -859895.4, -919976.44, 240.11346, 0.0015663038, 0.000016479195, -859894.44, -26187.566, 0.0, 10.015229, 9.936118 
6.636369e+3, 2.248577e+2, -771711.06, -842030.75, 259.78702, 0.0015668798, 0.00026165368, -771710.1, -35314.434, 0.0, 10.015297, 9.922888 
6.636368e+3, 2.3478064e+2, -673255.94, -743885.4, 236.86375, 0.0015673036, 0.000045663463, -673255.1, -34104.316, 0.0, 10.015366, 9.922553 
6.6363674e+3, 2.4469657e+2, -584986.56, -666168.56, 243.99225, 0.0015672678, 0.00020491265, -584985.8, -43011.22, 0.0, 10.015434, 9.90898 
6.636366e+3, 2.5460568e+2, -486215.06, -567529.9, 219.32452, 0.0015667073, 0.000021484746, -486214.47, -41349.035, 0.0, 10.015503, 9.908875 
6.636365e+3, 2.645076e+2, -398052.8, -490442.16, 208.89882, 0.0015674713, 0.00026501392, -398052.34, -50225.875, 0.0, 10.015569, 9.894648 
6.6363645e+3, 2.744028e+2, -298760.97, -390877.06, 181.8691, 0.0015697951, -0.000084972206, -298760.6, -47907.008, 0.0, 10.015633, 9.895059 
6.636363e+3, 2.8428987e+2, -212083.86, -317288.1, 154.12157, 0.001569753, 0.00034447017, -212083.63, -58123.246, 0.0, 10.015697, 9.878327 
6.636362e+3, 2.9416925e+2, -112357.52, -216985.55, 124.949646, 0.0015666353, -0.00013736609, -112357.375, -55215.066, 0.0, 10.01576, 9.879122 
6.6363615e+3, 3.0407616e+2, -23308.229, -85300.836, 73.960526, 0.0015669563, 0.00028349686, -23308.14, -23308.14, 0.0, 10.01582, 9.93419 
6.63636e+3, 3.1401214e+2, -22221.072, -83160.95, 39.115376, 0.0015721684, 0.000041335505, -22221.049, -22221.049, 0.0, 10.015872, 9.935609 
6.6463983e+3, 1.2526795e+2, -1701254.5, -1721454.5, 47.473274, 0.0015705185, 0.00021308643, -1701254.4, 11121.066, 0.0, 10.014857, 9.988071 
6.6463965e+3, 1.3525587e+2, -1603860.5, -1624700.6, 35.782505, 0.0015712874, 0.00003619452, -1603860.4, 10633.291, 0.0, 10.014918, 9.987286 
6.646395e+3, 1.4523718e+2, -1515857.5, -1545697.1, 130.71684, 0.0015718709, 0.00029696018, -1515857.0, 819.9895, 0.0, 10.014981, 9.975445 
6.646393e+3, 1.552126e+2, -1418108.8, -1448401.4, 116.24528, 0.0015720894, 0.000104402614, -1418108.4, 809.54315, 0.0, 10.015046, 9.974913 
6.646392e+3, 1.6518138e+2, -1330062.0, -1369653.4, 192.37416, 0.0015724701, 0.00018522877, -1330061.1, -8837.275, 0.0, 10.015116, 9.962766 
6.64639e+3, 1.751442e+2, -1232072.4, -1272034.1, 174.9822, 0.0015730503, 0.00008247127, -1232071.6, -8483.461, 0.0, 10.015188, 9.962353 
6.6463894e+3, 1.8510033e+2, -1143995.4, -1193575.5, 234.14998, 0.0015734469, 0.00022591696, -1143994.4, -17976.39, 0.0, 10.015261, 9.949842 
6.6463876e+3, 1.950502e+2, -1045815.44, -1095714.5, 214.65137, 0.0015736296, 0.000090075264, -1045814.56, -17305.385, 0.0, 10.015335, 9.949499 
6.646387e+3, 2.0499326e+2, -957859.2, -1017852.44, 251.44014, 0.0015740359, 0.00021004211, -957858.1, -26790.855, 0.0, 10.01541, 9.936409 
6.646386e+3, 2.149297e+2, -859537.4, -919852.8, 231.50554, 0.0015746567, 0.0000160424, -859536.5, -25846.416, 0.0, 10.015488, 9.936066 
6.646384e+3, 2.2485934e+2, -771347.5, -841916.06, 250.98703, 0.0015750454, 0.00026130266, -771346.56, -34967.094, 0.0, 10.015565, 9.922826 
6.646384e+3, 2.3478223e+2, -672880.1, -743765.6, 227.81435, 0.0015751715, 0.00004548147, -672879.44, -33744.215, 0.0, 10.015643, 9.922491 
6.646383e+3, 2.446981e+2, -584602.94, -666051.2, 234.26187, 0.0015754335, 0.00020466554, -584602.3, -42642.65, 0.0, 10.015719, 9.908914 
6.6463816e+3, 2.5460714e+2, -485822.3, -567409.2, 209.32907, 0.00157583, 0.000020912845, -485821.78, -40970.65, 0.0, 10.015796, 9.908809 
6.646381e+3, 2.64509e+2, -397651.38, -490324.16, 197.54579, 0.0015763526, 0.00026445818, -397650.94, -49838.13, 0.0, 10.015872, 9.894576 
6.64638e+3, 2.744041e+2, -298344.63, -390753.1, 169.86513, 0.0015770111, -0.00008510394, -298344.3, -47503.645, 0.0, 10.015947, 9.894986 
6.646379e+3, 2.8429112e+2, -211657.34, -317162.7, 140.23596, 0.001577114, 0.0003443923, -211657.17, -57709.004, 0.0, 10.01602, 9.878253 
6.6463786e+3, 2.941704e+2, -111925.63, -216858.95, 110.60682, 0.0015764711, -0.00013786939, -111925.516, -54794.684, 0.0, 10.0160885, 9.879047 
6.6463774e+3, 3.0407727e+2, -22874.78, -85186.73, 57.69638, 0.0015769384, 0.00028296906, -22874.727, -22874.727, 0.0, 10.016157, 9.934105 
6.646376e+3, 3.1401315e+2, -21767.379, -83038.18, 22.302996, 0.0015790159, 0.000041371415, -21767.371, -21767.371, 0.0, 10.016225, 9.935523 
6.6564137e+3, 1.2527004e+2, -1701287.3, -1721513.1, 66.32441, 0.0015792183, 0.00021279948, -1701287.0, 11068.018, 0.0, 10.014855, 9.988036 
6.656412e+3, 1.3525791e+2, -1603893.0, -1624759.1, 54.70372, 0.0015786005, 0.000035775738, -1603892.9, 10580.773, 0.0, 10.014916, 9.98725 
6.6564095e+3, 1.4523917e+2, -1515894.0, -1545764.0, 151.13177, 0.0015792337, 0.0002964706, -1515893.3, 764.07196, 0.0, 10.01498, 9.975404 
6.6564083e+3, 1.5521455e+2, -1418143.8, -1448467.5, 136.69926, 0.0015807947, 0.00010389214, -1418143.1, 755.46576, 0.0, 10.015046, 9.974872 
6.6564065e+3, 1.6518329e+2, -1330101.1, -1369728.5, 215.61763, 0.001581235, 0.00018478968, -1330100.0, -8895.038, 0.0, 10.015116, 9.962718 
6.6564053e+3, 1.7514606e+2, -1232111.1, -1272108.9, 198.28133, 0.0015806939, 0.0000821895, -1232110.3, -8540.413, 0.0, 10.015188, 9.962305 
6.656404e+3, 1.8510216e+2, -1144037.3, -1193657.0, 257.95166, 0.0015810472, 0.00022561302, -1144035.9, -18035.824, 0.0, 10.015262, 9.949791 
6.6564035e+3, 1.9505197e+2, -1045855.94, -1095795.0, 238.46094, 0.0015822098, 0.000089576555, -1045854.8, -17363.043, 0.0, 10.015336, 9.949448 
6.656402e+3, 2.0499496e+2, -957900.1, -1017934.94, 276.60202, 0.0015828185, 0.000209475, -957898.8, -26848.412, 0.0, 10.015411, 9.936357 
6.656401e+3, 2.1493137e+2, -859577.6, -919934.75, 256.69696, 0.0015828725, 0.000015533222, -859576.56, -25902.791, 0.0, 10.015489, 9.936013 
6.6564e+3, 2.2486097e+2, -771394.25, -842011.9, 276.48743, 0.0015829037, 0.0002609733, -771393.2, -35029.46, 0.0, 10.015567, 9.922764 
6.6563994e+3, 2.3478378e+2, -672926.0, -743860.8, 253.34703, 0.0015828895, 0.000045458793, -672925.1, -33805.094, 0.0, 10.015645, 9.922429 
6.656398e+3, 2.4469958e+2, -584651.6, -666153.25, 259.19785, 0.0015837637, 0.0002044338, -584650.8, -42705.69, 0.0, 10.015722, 9.908847 
6.6563976e+3, 2.5460854e+2, -485869.94, -567510.56, 234.26006, 0.0015856043, 0.000019901512, -485869.25, -41032.01, 0.0, 10.015799, 9.908741 
6.656397e+3, 2.6451033e+2, -397702.5, -490433.88, 222.3027, 0.0015854842, 0.00026360163, -397701.97, -49902.324, 0.0, 10.015874, 9.894504 
6.656396e+3, 2.744054e+2, -298395.06, -390862.47, 194.67139, 0.0015830226, -0.000084694664, -298394.66, -47566.477, 0.0, 10.015949, 9.894913 
6.656395e+3, 2.842923e+2, -211708.39, -317274.75, 162.87793, 0.0015835994, 0.00034479005, -211708.14, -57771.742, 0.0, 10.016023, 9.878178 
6.6563946e+3, 2.9417154e+2, -111975.29, -216970.16, 133.10602, 0.0015880541, -0.00013913713, -111975.125, -54855.305, 0.0, 10.016092, 9.878972 
6.6563934e+3, 3.040783e+2, -22930.244, -85311.12, 79.55445, 0.0015886447, 0.00028180573, -22930.143, -22930.143, 0.0, 10.016161, 9.934019 
6.656393e+3, 3.1401414e+2, -21823.453, -83164.0, 44.060986, 0.0015838388, 0.0000428173, -21823.422, -21823.422, 0.0, 10.016229, 9.935436 
6.6664284e+3, 1.2527204e+2, -1701033.0, -1721417.3, 48.74363, 0.0015865827, 0.00021236048, -1701032.9, 11302.443, 0.0, 10.015031, 9.988001 
6.6664267e+3, 1.3525988e+2, -1603628.3, -1624658.3, 37.377842, 0.0015871229, 0.00003510439, -1603628.1, 10826.238, 0.0, 10.0151, 9.987215 
6.666425e+3, 1.4524113e+2, -1515619.8, -1545666.0, 136.3593, 0.001587821, 0.0002958612, -1515619.1, 1019.2838, 0.0, 10.015173, 9.975362 
6.666423e+3, 1.5521644e+2, -1417851.8, -1448360.9, 121.68508, 0.0015884512, 0.000103607454, -1417851.3, 1028.7781, 0.0, 10.015251, 9.974831 
6.666422e+3, 1.6518514e+2, -1329799.5, -1369623.6, 201.94324, 0.0015888682, 0.00018449036, -1329798.5, -8611.595, 0.0, 10.01533, 9.962671 
6.6664207e+3, 1.7514788e+2, -1231799.4, -1271999.5, 184.64136, 0.0015891416, 0.00008156557, -1231798.5, -8246.39, 0.0, 10.01541, 9.962258 
6.6664195e+3, 1.8510391e+2, -1143716.5, -1193549.6, 245.38803, 0.0015896023, 0.00022497949, -1143715.3, -17732.418, 0.0, 10.015492, 9.949739 
6.6664183e+3, 1.9505368e+2, -1045520.2, -1095680.6, 225.48647, 0.001590199, 0.00008923099, -1045519.1, -17044.04, 0.0, 10.015577, 9.949396 
6.666418e+3, 2.0499662e+2, -957551.56, -1017816.25, 263.92285, 0.0015906749, 0.00020920446, -957550.44, -26516.172, 0.0, 10.015663, 9.936303 
6.6664165e+3, 2.1493295e+2, -859217.94, -919811.25, 243.78404, 0.0015910235, 0.000015129746, -859216.94, -25558.807, 0.0, 10.015749, 9.93596 
6.666416e+3, 2.2486249e+2, -771029.4, -841897.2, 263.73706, 0.0015912912, 0.00026048016, -771028.4, -34679.742, 0.0, 10.015836, 9.922702 
6.6664153e+3, 2.3478524e+2, -672548.8, -743741.0, 240.31462, 0.0015914532, 0.000044921046, -672548.0, -33442.438, 0.0, 10.015923, 9.922367 
6.666414e+3, 2.4470098e+2, -584265.0, -666035.4, 245.20178, 0.0015921151, 0.00020400221, -584264.25, -42332.99, 0.0, 10.01601, 9.908779 
6.6664135e+3, 2.5460988e+2, -485470.6, -567387.5, 219.7954, 0.0015933132, 0.000019742325, -485470.0, -40645.918, 0.0, 10.016096, 9.908673 
6.6664124e+3, 2.645116e+2, -397294.6, -490313.6, 206.824, 0.0015934003, 0.00026340553, -397294.13, -49506.965, 0.0, 10.016182, 9.89443 
6.6664124e+3, 2.7440658e+2, -297976.75, -390738.47, 178.9319, 0.0015921543, -0.00008529154, -297976.4, -47159.984, 0.0, 10.016266, 9.89484 
6.666412e+3, 2.842934e+2, -211279.0, -317149.44, 145.01953, 0.0015926786, 0.00034418283, -211278.8, -57353.42, 0.0, 10.016349, 9.878102 
6.6664106e+3, 2.9417259e+2, -111531.87, -216839.47, 114.43554, 0.0015954488, -0.00013925496, -111531.74, -54422.203, 0.0, 10.016429, 9.878896 
6.66641e+3, 3.040793e+2, -22484.28, -85193.04, 59.208122, 0.0015959447, 0.0002818245, -22484.223, -22484.223, 0.0, 10.016508, 9.933932 
6.6664094e+3, 3.1401497e+2, -21365.883, -83041.51, 22.60215, 0.001593286, 0.000042499985, -21365.875, -21365.875, 0.0, 10.016584, 9.935348 
6.676443e+3, 1.2527399e+2, -1701066.4, -1721475.5, 70.02106, 0.0015932032, 0.0002117958, -1701066.1, 11250.045, 0.0, 10.015029, 9.987967 
6.676442e+3, 1.352618e+2, -1603660.0, -1624715.8, 58.718586, 0.0015963413, 0.000034257308, -1603659.9, 10775.649, 0.0, 10.015099, 9.987181 
6.67644e+3, 1.4524299e+2, -1515656.6, -1545734.0, 161.0891, 0.0015971146, 0.00029515306, -1515655.8, 964.1858, 0.0, 10.015173, 9.975321 
6.6764385e+3, 1.5521829e+2, -1417888.4, -1448428.5, 146.46896, 0.0015955323, 0.00010341259, -1417887.6, 974.3781, 0.0, 10.01525, 9.974789 
6.676437e+3, 1.6518694e+2, -1329839.5, -1369699.0, 227.57906, 0.0015958813, 0.0001842322, -1329838.3, -8668.981, 0.0, 10.015329, 9.962625 
6.676436e+3, 1.7514962e+2, -1231838.1, -1272073.9, 210.29398, 0.0015980656, 0.000080713915, -1231837.0, -8301.993, 0.0, 10.01541, 9.962212 
6.676435e+3, 1.851056e+2, -1143759.1, -1193632.8, 272.95706, 0.0015987193, 0.00022412655, -1143757.6, -17791.402, 0.0, 10.015492, 9.949687 
6.676434e+3, 1.9505534e+2, -1045562.25, -1095763.1, 253.11526, 0.0015978778, 0.00008893634, -1045560.94, -17101.992, 0.0, 10.015578, 9.949344 
6.676433e+3, 2.0499821e+2, -957593.75, -1017900.0, 291.9449, 0.0015980328, 0.00020906689, -957592.4, -26573.742, 0.0, 10.015663, 9.93625 
6.6764325e+3, 2.149345e+2, -859258.94, -919894.2, 271.79633, 0.0015991642, 0.000014754678, -859257.75, -25614.738, 0.0, 10.01575, 9.935906 
6.676432e+3, 2.2486398e+2, -771076.94, -841994.1, 292.4335, 0.0016000109, 0.0002598617, -771075.75, -34741.62, 0.0, 10.015837, 9.922639 
6.6764313e+3, 2.3478666e+2, -672595.7, -743837.44, 269.0592, 0.0016005397, 0.000044052635, -672594.7, -33503.035, 0.0, 10.015924, 9.922304 
6.67643e+3, 2.4470235e+2, -584315.1, -666139.44, 273.58, 0.0016005144, 0.00020342116, -584314.2, -42396.19, 0.0, 10.016011, 9.908711 
6.6764295e+3, 2.5461116e+2, -485519.63, -567490.9, 248.19044, 0.0015998592, 0.000020042939, -485518.84, -40707.387, 0.0, 10.016098, 9.908606 
6.676429e+3, 2.645128e+2, -397346.56, -490424.25, 234.51277, 0.0016006498, 0.00026355925, -397345.97, -49570.73, 0.0, 10.016184, 9.894357 
6.6764283e+3, 2.744077e+2, -298028.03, -390848.72, 206.6385, 0.0016031407, -0.00008650369, -298027.56, -47222.34, 0.0, 10.016268, 9.894767 
6.676428e+3, 2.842945e+2, -211331.8, -317264.3, 171.64868, 0.0016033064, 0.0003429655, -211331.52, -57416.598, 0.0, 10.016351, 9.878025 
6.676427e+3, 2.941736e+2, -111583.3, -216953.56, 141.01048, 0.0016004498, -0.00013873745, -111583.11, -54483.293, 0.0, 10.016433, 9.878819 
6.6764265e+3, 3.040802e+2, -22542.047, -85321.41, 84.09725, 0.0016007299, 0.00028249557, -22541.936, -22541.936, 0.0, 10.016512, 9.933844 
6.676426e+3, 3.140158e+2, -21424.45, -83171.47, 47.502773, 0.0016054795, 0.00004110652, -21424.414, -21424.414, 0.0, 10.016587, 9.935258 
6.6864586e+3, 1.2527587e+2, -1700821.5, -1721384.8, 49.04953, 0.001601774, 0.00021126223, -1700821.4, 11476.427, 0.0, 10.015199, 9.987931 
6.686457e+3, 1.3526365e+2, -1603395.5, -1624615.1, 37.58469, 0.0016036956, 0.000033915152, -1603395.4, 11022.091, 0.0, 10.015282, 9.987145 
6.6864556e+3, 1.4524479e+2, -1515381.6, -1545635.9, 141.83595, 0.0016045234, 0.00029474884, -1515381.0, 1221.283, 0.0, 10.015366, 9.975279 
6.686454e+3, 1.5522005e+2, -1417601.9, -1448325.1, 127.24575, 0.0016041343, 0.000102714155, -1417601.4, 1243.4618, 0.0, 10.015451, 9.974747 
6.6864526e+3, 1.6518866e+2, -1329543.0, -1369597.5, 209.838, 0.0016045152, 0.00018357713, -1329541.9, -8389.463, 0.0, 10.015541, 9.962578 
6.6864514e+3, 1.7515127e+2, -1231524.8, -1271964.4, 192.18665, 0.0016056634, 0.000080416314, -1231523.8, -8005.1523, 0.0, 10.015634, 9.962165 
6.686451e+3, 1.8510722e+2, -1143435.6, -1193524.5, 255.4555, 0.0016062716, 0.00022383555, -1143434.3, -17483.895, 0.0, 10.015726, 9.949635 
6.6864496e+3, 1.9505689e+2, -1045227.5, -1095650.0, 235.49396, 0.0016063219, 0.000088317516, -1045226.44, -16782.8, 0.0, 10.01582, 9.949291 
6.686449e+3, 2.0499973e+2, -957247.06, -1017783.44, 274.9134, 0.0016066268, 0.00020840442, -957245.8, -26241.986, 0.0, 10.015914, 9.936195 
6.6864485e+3, 2.1493596e+2, -858897.75, -919771.06, 254.26787, 0.0016071753, 0.000014331823, -858896.7, -25267.928, 0.0, 10.016011, 9.935852 
6.686448e+3, 2.2486538e+2, -770708.8, -841878.4, 274.62766, 0.0016078926, 0.00025955043, -770707.75, -34387.363, 0.0, 10.0161085, 9.922576 
6.6864467e+3, 2.3478802e+2, -672216.0, -743716.94, 251.03015, 0.0016087625, 0.00004372004, -672215.1, -33136.555, 0.0, 10.016205, 9.922241 
6.686446e+3, 2.4470362e+2, -583926.25, -666021.44, 255.15112, 0.0016088801, 0.00020298183, -583925.44, -42019.895, 0.0, 10.016301, 9.908643 
6.686446e+3, 2.546124e+2, -485117.13, -567367.3, 229.40872, 0.001608149, 0.000019401941, -485116.47, -40316.78, 0.0, 10.016398, 9.908537 
6.6864455e+3, 2.6451394e+2, -396934.34, -490302.38, 214.16418, 0.001608874, 0.0002629957, -396933.84, -49169.69, 0.0, 10.016495, 9.894284 
6.686445e+3, 2.744088e+2, -297604.63, -390722.75, 185.96567, 0.0016113111, -0.00008665505, -297604.25, -46809.37, 0.0, 10.016588, 9.894693 
6.686444e+3, 2.8429547e+2, -210897.27, -317138.25, 149.9465, 0.0016115507, 0.0003428481, -210897.05, -56991.758, 0.0, 10.016681, 9.877948 
6.6864437e+3, 2.9417446e+2, -111133.95, -216821.84, 118.65446, 0.0016089317, -0.00013930995, -111133.82, -54042.86, 0.0, 10.016774, 9.878741 
6.686443e+3, 3.04081e+2, -22088.5, -85199.77, 59.51844, 0.0016092323, 0.00028172263, -22088.443, -22088.443, 0.0, 10.016864, 9.933757 
6.6864425e+3, 3.1401655e+2, -20958.818, -83045.02, 23.067015, 0.0016136987, 0.000040520714, -20958.81, -20958.81, 0.0, 10.016949, 9.93517 
6.6964734e+3, 1.2527768e+2, -1700855.1, -1721443.8, 75.02211, 0.001611446, 0.00021070639, -1700854.9, 11425.184, 0.0, 10.015197, 9.987896 
6.696472e+3, 1.3526542e+2, -1603428.8, -1624673.9, 63.61379, 0.001610013, 0.00003381889, -1603428.6, 10971.512, 0.0, 10.01528, 9.98711 
6.696471e+3, 1.4524654e+2, -1515419.5, -1545704.3, 169.20343, 0.0016108875, 0.00029447803, -1515418.5, 1166.7361, 0.0, 10.015365, 9.975238 
6.69647e+3, 1.5522175e+2, -1417638.4, -1448392.6, 154.65569, 0.0016136082, 0.00010168967, -1417637.5, 1190.6025, 0.0, 10.015451, 9.974706 
6.696468e+3, 1.6519031e+2, -1329583.9, -1369674.4, 239.59152, 0.0016140777, 0.00018265731, -1329582.4, -8446.163, 0.0, 10.01554, 9.96253 
6.6964674e+3, 1.751529e+2, -1231565.0, -1272040.8, 221.99142, 0.001612536, 0.000080392405, -1231563.9, -8060.9253, 0.0, 10.015633, 9.962117 
6.696466e+3, 1.8510878e+2, -1143479.3, -1193608.4, 285.71896, 0.0016129663, 0.00022382346, -1143477.6, -17542.45, 0.0, 10.015726, 9.949582 
6.6964656e+3, 1.9505839e+2, -1045269.94, -1095732.9, 265.7757, 0.0016152195, 0.000087476554, -1045268.56, -16839.646, 0.0, 10.01582, 9.949238 
6.696465e+3, 2.0500118e+2, -957290.5, -1017869.3, 306.61456, 0.0016159434, 0.00020740574, -957288.94, -26299.291, 0.0, 10.015915, 9.936141 
6.6964644e+3, 2.1493734e+2, -858940.56, -919856.44, 285.999, 0.0016151511, 0.000013839431, -858939.2, -25324.14, 0.0, 10.016012, 9.935798 
6.696464e+3, 2.2486672e+2, -770757.56, -841976.44, 306.32822, 0.0016153353, 0.00025937273, -770756.25, -34448.91, 0.0, 10.0161085, 9.922513 
6.696463e+3, 2.3478928e+2, -672263.56, -743814.25, 282.7267, 0.0016165107, 0.00004365788, -672262.44, -33196.34, 0.0, 10.016206, 9.922177 
6.6964626e+3, 2.4470481e+2, -583977.3, -666126.9, 287.14084, 0.0016172511, 0.0002025875, -583976.3, -42082.563, 0.0, 10.016303, 9.908574 
6.6964626e+3, 2.5461352e+2, -485167.66, -567472.4, 261.48926, 0.0016174933, 0.000018181216, -485166.84, -40378.258, 0.0, 10.0164, 9.908468 
6.696462e+3, 2.64515e+2, -396987.63, -490414.34, 244.98804, 0.0016177105, 0.00026198255, -396986.97, -49233.254, 0.0, 10.016496, 9.89421 
6.6964614e+3, 2.7440977e+2, -297656.44, -390833.9, 216.7218, 0.001617883, -0.00008623334, -297655.94, -46870.777, 0.0, 10.01659, 9.894619 
6.696461e+3, 2.842964e+2, -210951.38, -317255.47, 180.70538, 0.001618449, 0.00034332823, -210951.06, -57054.746, 0.0, 10.016684, 9.87787 
6.69646e+3, 2.9417533e+2, -111187.91, -216938.94, 149.52377, 0.0016194863, -0.00014055274, -111187.695, -54104.926, 0.0, 10.016776, 9.878663 
6.69646e+3, 3.0408177e+2, -22146.764, -85326.95, 87.40473, 0.0016199474, 0.00028008656, -22146.643, -22146.643, 0.0, 10.016867, 9.933669 
6.6964597e+3, 3.140172e+2, -21016.02, -83172.586, 50.600716, 0.001619654, 0.00004037803, -21015.979, -21015.979, 0.0, 10.0169525, 9.935082 
6.7064893e+3, 1.252794e+2, -1700611.4, -1721353.8, 49.515198, 0.0016186119, 0.00021008836, -1700611.3, 11651.936, 0.0, 10.015367, 9.987861 
6.7064875e+3, 1.3526711e+2, -1603171.1, -1624577.1, 38.135506, 0.0016186852, 0.000033218716, -1603171.0, 11212.588, 0.0, 10.015458, 9.987075 
6.7064863e+3, 1.4524819e+2, -1515150.8, -1545610.0, 145.55916, 0.0016195738, 0.00029392893, -1515150.1, 1419.0455, 0.0, 10.015554, 9.975196 
6.706485e+3, 1.5522334e+2, -1417351.3, -1448289.5, 130.7045, 0.0016209545, 0.00010121824, -1417350.8, 1461.7168, 0.0, 10.015653, 9.974664 
6.706484e+3, 1.6519186e+2, -1329285.9, -1369572.6, 216.67017, 0.0016214277, 0.00018213874, -1329284.8, -8163.686, 0.0, 10.015753, 9.962482 
6.706483e+3, 1.7515439e+2, -1231254.6, -1271933.4, 198.96283, 0.0016211265, 0.00007971554, -1231253.8, -7765.548, 0.0, 10.015855, 9.9620695 
6.706482e+3, 1.8511023e+2, -1143158.6, -1193502.5, 263.34363, 0.0016216208, 0.0002231941, -1143157.3, -17236.383, 0.0, 10.015958, 9.949529 
6.7064816e+3, 1.950598e+2, -1044933.6, -1095619.8, 242.97226, 0.0016228213, 0.000087087996, -1044932.44, -16517.305, 0.0, 10.016063, 9.949185 
6.706481e+3, 2.0500252e+2, -956941.4, -1017752.5, 284.06024, 0.001623502, 0.00020703439, -956940.06, -25963.66, 0.0, 10.016168, 9.936086 
6.7064804e+3, 2.1493864e+2, -858579.75, -919734.56, 263.15152, 0.0016236611, 0.000013267594, -858578.6, -24976.236, 0.0, 10.0162735, 9.935742 
6.70648e+3, 2.2486795e+2, -770389.75, -841861.94, 283.52008, 0.0016239305, 0.00025876146, -770388.6, -34093.383, 0.0, 10.01638, 9.922449 
6.70648e+3, 2.3479044e+2, -671880.9, -743693.3, 259.4315, 0.001624291, 0.000043174463, -671879.94, -32825.3, 0.0, 10.016489, 9.922113 
6.706479e+3, 2.4470593e+2, -583584.44, -666007.06, 263.03305, 0.0016250095, 0.0002021673, -583583.6, -41700.69, 0.0, 10.016596, 9.908505 
6.706479e+3, 2.5461456e+2, -484763.88, -567348.3, 237.35367, 0.0016261049, 0.00001775269, -484763.2, -39984.78, 0.0, 10.016702, 9.9084 
6.7064786e+3, 2.64516e+2, -396574.0, -490293.1, 220.10193, 0.0016263685, 0.0002615327, -396573.5, -48829.23, 0.0, 10.016808, 9.894135 
6.706478e+3, 2.7441067e+2, -297226.66, -390706.13, 191.21774, 0.0016256315, -0.00008671589, -297226.25, -46449.824, 0.0, 10.016914, 9.894544 
6.706478e+3, 2.842972e+2, -210509.88, -317126.63, 153.31406, 0.0016261695, 0.0003428523, -210509.66, -56621.31, 0.0, 10.017018, 9.877791 
6.7064774e+3, 2.9417604e+2, -110737.61, -216807.34, 121.9436, 0.0016283114, -0.00014097415, -110737.47, -53661.906, 0.0, 10.017119, 9.878585 
6.706477e+3, 3.0408242e+2, -21691.69, -85205.836, 59.063454, 0.0016288995, 0.0002797796, -21691.635, -21691.635, 0.0, 10.0172205, 9.933581 
6.706477e+3, 3.1401777e+2, -20538.152, -83041.516, 21.17584, 0.0016273577, 0.000040299627, -20538.145, -20538.145, 0.0, 10.017323, 9.934993 
6.716504e+3, 1.2528105e+2, -1700645.9, -1721413.1, 78.69435, 0.0016243871, 0.00020938754, -1700645.5, 11601.609, 0.0, 10.015364, 9.987825 
6.716503e+3, 1.3526872e+2, -1603204.4, -1624635.9, 67.35919, 0.001628683, 0.000032284996, -1603204.1, 11163.712, 0.0, 10.015457, 9.98704 
6.716502e+3, 1.4524974e+2, -1515189.4, -1545679.9, 177.35863, 0.0016295679, 0.00029317598, -1515188.3, 1365.448, 0.0, 10.0155525, 9.975153 
6.716501e+3, 1.5522487e+2, -1417389.3, -1448358.8, 162.53369, 0.0016271265, 0.00010101175, -1417388.4, 1409.0647, 0.0, 10.015652, 9.974621 
6.7165e+3, 1.6519335e+2, -1329327.8, -1369650.3, 249.33092, 0.0016275595, 0.00018180136, -1329326.1, -8219.667, 0.0, 10.015752, 9.962434 
6.716499e+3, 1.7515582e+2, -1231295.4, -1272010.3, 231.64984, 0.0016306984, 0.0000786253, -1231294.1, -7820.005, 0.0, 10.015854, 9.962021 
6.716498e+3, 1.8511161e+2, -1143203.4, -1193588.1, 297.4795, 0.0016313938, 0.00022217089, -1143201.6, -17294.309, 0.0, 10.015957, 9.949475 
6.7164975e+3, 1.9506113e+2, -1044977.7, -1095704.8, 277.15884, 0.0016297265, 0.00008690598, -1044976.2, -16574.057, 0.0, 10.016062, 9.949131 
6.716497e+3, 2.050038e+2, -956986.2, -1017839.9, 318.64557, 0.0016301041, 0.0002069703, -956984.5, -26020.59, 0.0, 10.016168, 9.93603 
6.7164963e+3, 2.1493986e+2, -858623.5, -919821.2, 297.7152, 0.0016324891, 0.000012610331, -858622.06, -25031.613, 0.0, 10.0162735, 9.935687 
6.7164963e+3, 2.248691e+2, -770439.8, -841962.1, 319.0495, 0.0016331967, 0.00025786326, -770438.4, -34154.56, 0.0, 10.016381, 9.922385 
6.7164963e+3, 2.3479155e+2, -671930.4, -743793.0, 295.0517, 0.00163214, 0.00004240032, -671929.1, -32885.242, 0.0, 10.016489, 9.9220495 
6.716496e+3, 2.4470696e+2, -583636.3, -666112.7, 297.93213, 0.0016324712, 0.00020168207, -583635.25, -41762.4, 0.0, 10.016597, 9.908437 
6.716496e+3, 2.5461552e+2, -484814.5, -567453.1, 272.20203, 0.0016343137, 0.000017739181, -484813.6, -40044.59, 0.0, 10.016703, 9.908331 
6.716495e+3, 2.645169e+2, -396628.75, -490407.5, 255.27998, 0.0016349432, 0.00026136907, -396628.06, -48892.508, 0.0, 10.016809, 9.89406 
6.716495e+3, 2.7441147e+2, -297281.1, -390820.34, 226.5589, 0.001634121, -0.00008776526, -297280.53, -46512.063, 0.0, 10.016915, 9.894468 
6.7164946e+3, 2.8429794e+2, -210565.42, -317244.63, 186.72478, 0.0016344306, 0.0003417831, -210565.1, -56683.953, 0.0, 10.01702, 9.877713 
6.7164946e+3, 2.941767e+2, -110791.266, -216924.27, 155.15773, 0.0016361591, -0.00014096344, -110791.04, -53721.92, 0.0, 10.017122, 9.878506 
6.716494e+3, 3.04083e+2, -21751.404, -85336.5, 92.57687, 0.0016368551, 0.00028020088, -21751.27, -21751.27, 0.0, 10.017223, 9.933492 
6.716494e+3, 3.1401825e+2, -20599.26, -83174.02, 54.92229, 0.0016361548, 0.00004019835, -20599.21, -20599.21, 0.0, 10.017325, 9.934902 
6.72652e+3, 1.2528257e+2, -1700408.9, -1721327.4, 49.083046, 0.0016330724, 0.00020871917, -1700408.8, 11823.33, 0.0, 10.01553, 9.98779 
6.726518e+3, 1.3527022e+2, -1602947.8, -1624540.4, 37.410732, 0.0016358221, 0.000031668034, -1602947.6, 11405.536, 0.0, 10.0156355, 9.987003 
6.7265177e+3, 1.452512e+2, -1514921.0, -1545586.8, 148.77094, 0.0016367229, 0.00029254192, -1514920.3, 1619.1613, 0.0, 10.015742, 9.97511 
6.7265165e+3, 1.5522629e+2, -1417106.1, -1448258.6, 133.66054, 0.0016356944, 0.00010029601, -1417105.6, 1678.0448, 0.0, 10.015852, 9.974578 
6.726516e+3, 1.6519472e+2, -1329033.1, -1369551.1, 221.1399, 0.0016361817, 0.00018116183, -1329031.9, -7938.8193, 0.0, 10.015964, 9.962386 
6.726515e+3, 1.7515714e+2, -1230984.3, -1271903.3, 203.05759, 0.001638128, 0.00007821077, -1230983.3, -7522.145, 0.0, 10.016076, 9.961972 
6.726514e+3, 1.8511288e+2, -1142881.5, -1193482.5, 269.28326, 0.0016388173, 0.00022171282, -1142880.0, -16985.156, 0.0, 10.01619, 9.949421 
6.7265135e+3, 1.9506235e+2, -1044642.7, -1095593.1, 248.6918, 0.001638265, 0.00008614862, -1044641.44, -16251.269, 0.0, 10.016304, 9.949078 
6.7265135e+3, 2.0500496e+2, -956638.6, -1017725.3, 290.315, 0.0016386812, 0.00020625554, -956637.2, -25684.705, 0.0, 10.01642, 9.935974 
6.726513e+3, 2.1494097e+2, -858261.2, -919700.0, 268.76202, 0.0016400425, 0.000012277973, -858260.0, -24680.412, 0.0, 10.016537, 9.935631 
6.726513e+3, 2.2487015e+2, -770069.5, -841846.7, 290.1359, 0.0016407538, 0.0002575194, -770068.4, -33794.758, 0.0, 10.016654, 9.92232 
6.726513e+3, 2.3479253e+2, -671547.9, -743672.5, 266.13626, 0.0016407667, 0.000041636835, -671546.94, -32512.64, 0.0, 10.016772, 9.921985 
6.726513e+3, 2.4470787e+2, -583243.5, -665994.06, 268.40817, 0.0016411328, 0.0002009335, -583242.6, -41378.793, 0.0, 10.01689, 9.908367 
6.7265123e+3, 2.5461635e+2, -484406.3, -567328.06, 242.01051, 0.001641869, 0.000017484517, -484405.63, -39644.9, 0.0, 10.017008, 9.90826 
6.7265123e+3, 2.6451764e+2, -396210.1, -490283.5, 224.13481, 0.0016425113, 0.00026115644, -396209.56, -48481.574, 0.0, 10.017124, 9.893986 
6.7265123e+3, 2.7441218e+2, -296851.97, -390692.63, 195.7149, 0.0016430273, -0.00008846591, -296851.56, -46089.926, 0.0, 10.01724, 9.894394 
6.7265123e+3, 2.8429854e+2, -210124.72, -317118.16, 154.93497, 0.0016433562, 0.00034104468, -210124.5, -56249.45, 0.0, 10.017356, 9.877634 
6.726512e+3, 2.9417723e+2, -110331.6, -216790.19, 122.27851, 0.0016434098, -0.00014116381, -110331.46, -53267.656, 0.0, 10.017472, 9.878426 
6.726512e+3, 3.0408344e+2, -21284.75, -85209.58, 58.513683, 0.0016440487, 0.0002800619, -21284.697, -21284.697, 0.0, 10.017586, 9.933403 
6.726512e+3, 3.140186e+2, -20121.777, -83042.74, 21.297043, 0.0016455682, 0.00003948306, -20121.771, -20121.771, 0.0, 10.017694, 9.9348135 
6.7365354e+3, 1.2528403e+2, -1700444.4, -1721388.6, 82.80438, 0.0016433671, 0.00020801791, -1700444.0, 11773.828, 0.0, 10.015527, 9.987754 
6.736534e+3, 1.3527164e+2, -1602982.4, -1624601.1, 71.18696, 0.0016413865, 0.00003117578, -1602982.1, 11357.157, 0.0, 10.015633, 9.986967 
6.736533e+3, 1.4525259e+2, -1514960.8, -1545658.0, 183.95236, 0.0016423202, 0.00029192443, -1514959.6, 1566.2928, 0.0, 10.015741, 9.975067 
6.7365324e+3, 1.5522762e+2, -1417145.0, -1448329.3, 168.89551, 0.0016456075, 0.000099244615, -1417144.1, 1626.4249, 0.0, 10.01585, 9.974535 
6.736532e+3, 1.65196e+2, -1329076.1, -1369630.8, 257.7742, 0.0016462002, 0.00018030209, -1329074.5, -7993.998, 0.0, 10.015962, 9.962337 
6.736531e+3, 1.7515838e+2, -1231026.5, -1271982.3, 239.71419, 0.0016443868, 0.00007811812, -1231025.1, -7576.082, 0.0, 10.016075, 9.961924 
6.7365307e+3, 1.8511407e+2, -1142927.3, -1193569.4, 306.53427, 0.0016449585, 0.00022151647, -1142925.5, -17042.227, 0.0, 10.01619, 9.949367 
6.73653e+3, 1.9506347e+2, -1044687.75, -1095679.4, 285.9766, 0.0016477341, 0.000085022344, -1044686.1, -16307.012, 0.0, 10.016304, 9.949023 
6.73653e+3, 2.0500603e+2, -956685.25, -1017815.56, 328.58774, 0.001648381, 0.00020512819, -956683.5, -25741.498, 0.0, 10.016419, 9.935917 
6.73653e+3, 2.14942e+2, -858307.0, -919789.56, 307.05524, 0.0016469226, 0.000012066111, -858305.44, -24735.836, 0.0, 10.016537, 9.935574 
6.73653e+3, 2.2487111e+2, -770120.25, -841946.94, 328.73813, 0.001647396, 0.00025742807, -770118.75, -33854.516, 0.0, 10.016654, 9.922256 
6.7365295e+3, 2.3479341e+2, -671597.75, -743772.1, 304.73264, 0.0016498469, 0.00004084204, -671596.5, -32570.951, 0.0, 10.016772, 9.921921 
6.7365295e+3, 2.4470869e+2, -583297.4, -666102.7, 307.32556, 0.0016504878, 0.00019999815, -583296.25, -41440.473, 0.0, 10.01689, 9.908297 
6.7365295e+3, 2.5461712e+2, -484459.44, -567436.2, 281.05902, 0.0016491136, 0.000017029392, -484458.5, -39705.176, 0.0, 10.017008, 9.908191 
6.7365295e+3, 2.6451835e+2, -396265.1, -490396.75, 262.22687, 0.0016495715, 0.00026085245, -396264.34, -48543.082, 0.0, 10.017125, 9.893912 
6.7365295e+3, 2.7441278e+2, -296905.78, -390805.13, 233.70804, 0.0016521827, -0.00008900656, -296905.2, -46149.54, 0.0, 10.017241, 9.89432 
6.7365295e+3, 2.8429908e+2, -210182.63, -317240.3, 193.46875, 0.001652674, 0.00034046295, -210182.28, -56312.45, 0.0, 10.017357, 9.877553 
6.7365295e+3, 2.941777e+2, -110389.15, -216912.33, 161.06221, 0.001650408, -0.00014155029, -110388.91, -53329.52, 0.0, 10.017473, 9.878345 
6.7365295e+3, 3.040838e+2, -21345.127, -85338.71, 94.8411, 0.0016509022, 0.00027954354, -21344.986, -21344.986, 0.0, 10.017587, 9.933315 
6.7365295e+3, 3.140189e+2, -20181.426, -83172.19, 57.35992, 0.0016553365, 0.00003838592, -20181.373, -20181.373, 0.0, 10.017697, 9.934725 
6.7465514e+3, 1.2528536e+2, -1700210.1, -1721305.3, 48.024815, 0.0016503818, 0.00020731, -1700210.0, 11994.842, 0.0, 10.015691, 9.987717 
6.7465496e+3, 1.3527292e+2, -1602729.4, -1624508.4, 36.167934, 0.001649905, 0.000030492562, -1602729.3, 11597.344, 0.0, 10.015809, 9.986931 
6.7465496e+3, 1.4525384e+2, -1514695.3, -1545567.4, 149.698, 0.0016508974, 0.00029131112, -1514694.5, 1819.1504, 0.0, 10.015929, 9.975023 
6.7465484e+3, 1.5522882e+2, -1416862.3, -1448230.3, 134.31638, 0.0016529332, 0.00009873904, -1416861.8, 1897.0278, 0.0, 10.016051, 9.974491 
6.746548e+3, 1.6519716e+2, -1328781.5, -1369532.9, 223.77504, 0.0016534937, 0.00017972392, -1328780.3, -7711.1973, 0.0, 10.016173, 9.962287 
6.746547e+3, 1.751595e+2, -1230716.5, -1271877.1, 205.27489, 0.0016527685, 0.00007730593, -1230715.5, -7277.3926, 0.0, 10.016297, 9.961874 
6.7465466e+3, 1.8511513e+2, -1142606.3, -1193465.1, 271.93445, 0.0016534098, 0.00022078131, -1142604.9, -16731.977, 0.0, 10.016422, 9.949312 
6.7465466e+3, 1.9506447e+2, -1044352.4, -1095568.5, 250.94118, 0.0016552891, 0.00008465674, -1044351.2, -15981.892, 0.0, 10.016547, 9.948969 
6.7465466e+3, 2.0500697e+2, -956337.5, -1017702.3, 293.89838, 0.0016559327, 0.00020470265, -956336.06, -25403.379, 0.0, 10.016673, 9.93586 
6.7465466e+3, 2.1494287e+2, -857945.3, -919670.1, 271.9471, 0.0016553501, 0.000011160443, -857944.1, -24383.22, 0.0, 10.016801, 9.935516 
6.7465466e+3, 2.2487193e+2, -769749.9, -841832.3, 293.28577, 0.0016558592, 0.000256603, -769748.7, -33492.605, 0.0, 10.016928, 9.922192 
6.7465466e+3, 2.3479417e+2, -671213.75, -743651.7, 268.76822, 0.0016574741, 0.000040679646, -671212.75, -32194.72, 0.0, 10.017056, 9.921856 
6.7465466e+3, 2.447094e+2, -582902.9, -665983.25, 271.19067, 0.0016581147, 0.00019982344, -582902.0, -41053.06, 0.0, 10.017184, 9.908228 
6.7465466e+3, 2.5461775e+2, -484051.94, -567311.44, 245.15346, 0.0016576622, 0.000016098322, -484051.22, -39304.06, 0.0, 10.017313, 9.90812 
6.7465466e+3, 2.645189e+2, -395846.75, -490273.9, 225.35963, 0.0016581329, 0.00025987678, -395846.2, -48130.355, 0.0, 10.017441, 9.893837 
6.7465466e+3, 2.7441326e+2, -296472.0, -390676.13, 196.04123, 0.00165968, -0.00008917868, -296471.6, -45720.63, 0.0, 10.017569, 9.894244 
6.7465466e+3, 2.842995e+2, -209736.81, -317111.25, 155.2206, 0.0016602208, 0.00034039747, -209736.6, -55870.7, 0.0, 10.017695, 9.877473 
6.7465466e+3, 2.94178e+2, -109931.28, -216778.98, 123.30996, 0.0016594344, -0.00014240609, -109931.13, -52874.9, 0.0, 10.017822, 9.878264 
6.746547e+3, 3.0408403e+2, -20879.86, -85212.74, 56.74953, 0.001659964, 0.0002785882, -20879.81, -20879.81, 0.0, 10.017948, 9.933227 
6.746547e+3, 3.1401905e+2, -19694.174, -83036.47, 18.563684, 0.0016624015, 0.000038339203, -19694.168, -19694.168, 0.0, 10.018074, 9.934635 
6.756567e+3, 1.2528658e+2, -1700246.4, -1721367.5, 86.1571, 0.0016555983, 0.00020654002, -1700246.0, 11946.79, 0.0, 10.015689, 9.98768 
6.756566e+3, 1.3527413e+2, -1602765.0, -1624570.4, 74.314186, 0.0016600571, 0.000029641575, -1602764.8, 11550.133, 0.0, 10.015807, 9.986894 
6.756565e+3, 1.4525498e+2, -1514736.3, -1545640.4, 188.94595, 0.001661123, 0.00029064002, -1514735.1, 1767.2577, 0.0, 10.015927, 9.974979 
6.7565644e+3, 1.5522994e+2, -1416902.3, -1448302.5, 173.577, 0.0016588485, 0.00009847405, -1416901.3, 1846.5638, 0.0, 10.016049, 9.974447 
6.756564e+3, 1.6519822e+2, -1328825.9, -1369614.5, 264.01382, 0.0016593056, 0.00017924253, -1328824.1, -7765.477, 0.0, 10.016172, 9.962237 
6.756563e+3, 1.7516051e+2, -1230760.4, -1271958.1, 245.5481, 0.0016623415, 0.000076037766, -1230758.9, -7330.6733, 0.0, 10.016296, 9.961823 
6.756563e+3, 1.8511608e+2, -1142653.8, -1193554.1, 312.62454, 0.0016631549, 0.00021968885, -1142651.8, -16788.318, 0.0, 10.016421, 9.949257 
6.756563e+3, 1.9506538e+2, -1044398.75, -1095656.6, 291.66388, 0.0016618115, 0.000084647785, -1044397.06, -16036.671, 0.0, 10.016546, 9.948913 
6.756563e+3, 2.0500782e+2, -956385.44, -1017794.44, 335.58194, 0.001662326, 0.00020460456, -956383.6, -25459.22, 0.0, 10.016672, 9.9358015 
6.756563e+3, 2.1494366e+2, -857992.8, -919761.7, 313.62228, 0.0016646598, 0.0000098207975, -857991.2, -24438.037, 0.0, 10.0168, 9.935458 
6.756563e+3, 2.2487266e+2, -769802.56, -841935.06, 335.3335, 0.0016653575, 0.000255319, -769801.0, -33552.047, 0.0, 10.016928, 9.922126 
6.756563e+3, 2.3479484e+2, -671265.4, -743753.7, 310.87924, 0.0016643332, 0.000040795574, -671264.06, -32252.496, 0.0, 10.0170555, 9.92179 
6.756563e+3, 2.4471e+2, -582956.75, -666090.9, 313.49738, 0.0016648237, 0.00020000053, -582955.6, -41112.5, 0.0, 10.017184, 9.908158 
6.756564e+3, 2.5461826e+2, -484105.25, -567418.6, 287.46222, 0.0016669628, 0.000014862734, -484104.28, -39362.246, 0.0, 10.017313, 9.908051 
6.756564e+3, 2.6451933e+2, -395904.28, -490390.72, 267.54892, 0.001667559, 0.0002584909, -395903.53, -48192.125, 0.0, 10.017441, 9.893761 
6.7565644e+3, 2.7441365e+2, -296528.56, -390792.44, 238.38463, 0.0016663132, -0.00008922007, -296527.97, -45780.7, 0.0, 10.017569, 9.894168 
6.7565644e+3, 2.8429976e+2, -209794.72, -317231.63, 197.2371, 0.001666841, 0.00034054648, -209794.34, -55931.383, 0.0, 10.017696, 9.877394 
6.756565e+3, 2.9417822e+2, -109988.28, -216898.8, 165.23093, 0.0016696109, -0.00014356375, -109988.03, -52933.934, 0.0, 10.017822, 9.878185 
6.756565e+3, 3.0408418e+2, -20941.96, -85344.13, 98.27874, 0.001670279, 0.0002773636, -20941.81, -20941.81, 0.0, 10.017949, 9.933138 
6.7565656e+3, 3.140191e+2, -19756.434, -83168.945, 60.25754, 0.0016680476, 0.00003880266, -19756.377, -19756.377, 0.0, 10.018075, 9.9345455 
6.766583e+3, 1.2528767e+2, -1700014.3, -1721286.8, 46.478893, 0.0016638879, 0.00020586331, -1700014.1, 12167.916, 0.0, 10.015852, 9.987642 
6.7665815e+3, 1.3527517e+2, -1602514.6, -1624480.5, 34.07773, 0.0016673104, 0.000028889739, -1602514.6, 11790.004, 0.0, 10.015983, 9.9868555 
6.766581e+3, 1.45256e+2, -1514472.9, -1545552.4, 149.24857, 0.0016683986, 0.0002898708, -1514472.3, 2020.2662, 0.0, 10.016115, 9.974935 
6.7665803e+3, 1.5523091e+2, -1416620.0, -1448205.4, 133.24463, 0.0016670879, 0.00009773664, -1416619.5, 2118.9207, 0.0, 10.01625, 9.974401 
6.7665803e+3, 1.6519915e+2, -1328531.4, -1369518.0, 223.24179, 0.0016676261, 0.00017857071, -1328530.1, -7480.4746, 0.0, 10.016384, 9.962186 
6.7665803e+3, 1.7516138e+2, -1230451.4, -1271854.9, 204.32838, 0.0016699336, 0.000075466785, -1230450.4, -7030.743, 0.0, 10.016519, 9.961773 
6.76658e+3, 1.8511692e+2, -1142333.4, -1193451.6, 271.44553, 0.0016706907, 0.00021906127, -1142332.0, -16476.543, 0.0, 10.016654, 9.949201 
6.7665803e+3, 1.9506612e+2, -1044062.7, -1095546.9, 249.97954, 0.0016699245, 0.00008381279, -1044061.5, -15708.517, 0.0, 10.01679, 9.948857 
6.7665803e+3, 2.0500854e+2, -956037.25, -1017682.56, 293.4819, 0.0016705211, 0.00020387264, -956035.9, -25118.393, 0.0, 10.016927, 9.935742 
6.7665803e+3, 2.149443e+2, -857632.5, -919644.5, 270.90723, 0.0016724482, 0.0000095006635, -857631.3, -24084.457, 0.0, 10.017063, 9.935399 
6.7665803e+3, 2.2487324e+2, -769433.2, -841821.6, 292.93994, 0.0016731172, 0.0002549113, -769432.0, -33188.76, 0.0, 10.017201, 9.922061 
6.7665803e+3, 2.3479536e+2, -670881.0, -743633.75, 268.36, 0.0016724564, 0.00003978365, -670880.06, -31873.564, 0.0, 10.017341, 9.921724 
6.766581e+3, 2.4471043e+2, -582561.44, -665971.5, 270.19937, 0.0016729968, 0.00019905675, -582560.56, -40721.89, 0.0, 10.017479, 9.908088 
6.7665815e+3, 2.5461864e+2, -483697.6, -567294.25, 243.71448, 0.0016748393, 0.000014728304, -483696.88, -38958.58, 0.0, 10.017617, 9.907981 
6.7665815e+3, 2.6451966e+2, -395485.84, -490267.6, 223.85928, 0.0016754624, 0.0002583938, -395485.3, -47776.902, 0.0, 10.017756, 9.893685 
6.766582e+3, 2.7441388e+2, -296095.03, -390663.28, 195.16164, 0.0016746267, -0.00009018758, -296094.63, -45349.63, 0.0, 10.017896, 9.894093 
6.766583e+3, 2.8429994e+2, -209349.19, -317103.97, 153.08647, 0.0016751194, 0.00033952013, -209348.97, -55487.5, 0.0, 10.018035, 9.877313 
6.766583e+3, 2.941783e+2, -109528.1, -216765.67, 120.03652, 0.0016772818, -0.00014360798, -109527.97, -52474.58, 0.0, 10.018174, 9.878103 
6.766583e+3, 3.0408418e+2, -20472.672, -85215.36, 53.6862, 0.0016779728, 0.00027746276, -20472.627, -20472.627, 0.0, 10.018312, 9.93305 
6.7665833e+3, 3.14019e+2, -19267.877, -83031.52, 16.370106, 0.0016766499, 0.000037902144, -19267.873, -19267.873, 0.0, 10.018453, 9.934457 
6.7765987e+3, 1.2528867e+2, -1700052.5, -1721352.0, 88.714714, 0.0016738531, 0.0002051695, -1700052.1, 12120.253, 0.0, 10.015849, 9.987604 
6.7765975e+3, 1.3527612e+2, -1602551.5, -1624545.0, 76.34953, 0.0016729884, 0.000028128272, -1602551.3, 11744.063, 0.0, 10.015981, 9.986817 
6.776597e+3, 1.4525689e+2, -1514515.3, -1545628.1, 192.90437, 0.0016740763, 0.0002889861, -1514514.1, 1969.543, 0.0, 10.016113, 9.974889 
6.776597e+3, 1.5523176e+2, -1416662.1, -1448280.9, 176.92545, 0.0016766136, 0.00009666988, -1416661.1, 2068.8022, 0.0, 10.016248, 9.974356 
6.776597e+3, 1.6519995e+2, -1328577.4, -1369601.8, 266.82504, 0.0016773316, 0.00017772429, -1328575.6, -7533.9746, 0.0, 10.016382, 9.962135 
6.776597e+3, 1.7516214e+2, -1230496.3, -1271937.9, 247.91324, 0.0016764571, 0.000075210955, -1230494.8, -7082.563, 0.0, 10.016517, 9.961721 
6.776597e+3, 1.8511762e+2, -1142382.1, -1193542.6, 315.92453, 0.0016770391, 0.00021862343, -1142380.1, -16531.572, 0.0, 10.016652, 9.949144 
6.776597e+3, 1.950668e+2, -1044111.1, -1095637.4, 294.52188, 0.0016789386, 0.00008246067, -1044109.44, -15762.805, 0.0, 10.0167885, 9.948801 
6.776597e+3, 2.0500912e+2, -956087.6, -1017777.75, 338.08945, 0.0016797312, 0.00020272673, -956085.75, -25174.068, 0.0, 10.016925, 9.935682 
6.776597e+3, 2.1494484e+2, -857681.6, -919738.8, 315.48376, 0.0016794241, 0.000009665082, -857680.0, -24138.357, 0.0, 10.017062, 9.935339 
6.7765975e+3, 2.248737e+2, -769486.44, -841924.9, 338.76108, 0.0016799502, 0.00025491387, -769484.9, -33246.188, 0.0, 10.0172, 9.921995 
6.776598e+3, 2.3479576e+2, -670934.06, -743736.6, 314.24188, 0.0016813122, 0.000038100432, -670932.7, -31930.166, 0.0, 10.01734, 9.921659 
6.7765987e+3, 2.4471077e+2, -582617.6, -666081.5, 315.67627, 0.001682013, 0.00019744267, -582616.44, -40781.0, 0.0, 10.017478, 9.908017 
6.776599e+3, 2.5461888e+2, -483752.44, -567403.44, 289.245, 0.0016819631, 0.0000151168015, -483751.44, -39015.727, 0.0, 10.017617, 9.90791 
6.7766e+3, 2.6451984e+2, -395542.97, -490382.5, 270.09637, 0.0016825608, 0.00025892642, -395542.22, -47835.684, 0.0, 10.0177555, 9.893611 
6.7766e+3, 2.7441397e+2, -296151.94, -390777.9, 241.45963, 0.001683909, -0.00009170863, -296151.3, -45407.44, 0.0, 10.017896, 9.894017 
6.7766005e+3, 2.8429997e+2, -209410.61, -317229.03, 199.09625, 0.0016843593, 0.00033781023, -209410.23, -55549.13, 0.0, 10.018035, 9.877231 
6.776601e+3, 2.9417825e+2, -109588.16, -216890.22, 166.20454, 0.0016836219, -0.00014313003, -109587.9, -52534.08, 0.0, 10.018173, 9.878021 
6.7766017e+3, 3.0408403e+2, -20534.36, -85344.41, 100.12802, 0.001684274, 0.00027820273, -20534.205, -20534.205, 0.0, 10.018312, 9.932962 
6.776602e+3, 3.1401876e+2, -19330.158, -83161.336, 62.888924, 0.0016869328, 0.000036203957, -19330.096, -19330.096, 0.0, 10.018453, 9.934369 
6.786614e+3, 1.2528948e+2, -1699824.3, -1721275.3, 43.75483, 0.001681191, 0.0002042851, -1699824.1, 12340.115, 0.0, 10.016011, 9.987564 
6.786614e+3, 1.352769e+2, -1602299.5, -1624456.3, 30.706417, 0.0016809915, 0.000027507886, -1602299.5, 11988.106, 0.0, 10.016158, 9.986777 
6.7866135e+3, 1.4525765e+2, -1514249.8, -1545540.9, 146.42844, 0.0016821458, 0.00028838025, -1514249.0, 2227.2634, 0.0, 10.016304, 9.974842 
6.7866135e+3, 1.5523247e+2, -1416381.6, -1448186.4, 129.8788, 0.0016841996, 0.00009585149, -1416381.1, 2341.9412, 0.0, 10.016448, 9.974309 
6.7866135e+3, 1.6520059e+2, -1328284.6, -1369508.3, 219.4821, 0.0016848603, 0.000176873, -1328283.5, -7248.198, 0.0, 10.016594, 9.962083 
6.7866135e+3, 1.7516273e+2, -1230185.4, -1271835.6, 199.79657, 0.0016843199, 0.00007449567, -1230184.4, -6778.0244, 0.0, 10.016742, 9.961669 
6.7866135e+3, 1.8511815e+2, -1142059.6, -1193440.1, 266.751, 0.0016850273, 0.00021799248, -1142058.3, -16215.01, 0.0, 10.016888, 9.949087 
6.786614e+3, 1.9506727e+2, -1043777.25, -1095529.9, 244.95323, 0.0016868513, 0.00008186338, -1043776.06, -15434.222, 0.0, 10.017032, 9.948744 
6.786614e+3, 2.0500955e+2, -955742.5, -1017669.6, 288.66653, 0.0016875545, 0.00020204934, -955741.2, -24833.668, 0.0, 10.017179, 9.935622 
6.786614e+3, 2.1494521e+2, -857320.44, -919623.3, 265.29654, 0.0016871445, 0.000008798356, -857319.3, -23781.262, 0.0, 10.017327, 9.935279 
6.7866147e+3, 2.24874e+2, -769115.25, -841810.75, 288.0911, 0.0016877833, 0.0002541631, -769114.06, -32878.402, 0.0, 10.017475, 9.921929 
6.786616e+3, 2.34796e+2, -670552.44, -743618.3, 263.384, 0.0016894805, 0.000037783568, -670551.5, -31551.299, 0.0, 10.017622, 9.921594 
6.7866164e+3, 2.4471094e+2, -582225.6, -665964.2, 265.09003, 0.0016901393, 0.00019704625, -582224.8, -40391.023, 0.0, 10.017772, 9.907948 
6.7866164e+3, 2.54619e+2, -483344.2, -567279.1, 238.63013, 0.0016896328, 0.000014074375, -483343.5, -38608.76, 0.0, 10.017922, 9.90784 
6.7866176e+3, 2.6451987e+2, -395123.22, -490258.44, 218.83488, 0.001690245, 0.00025795464, -395122.72, -47416.438, 0.0, 10.018072, 9.893537 
6.786618e+3, 2.7441394e+2, -295721.0, -390649.72, 189.99011, 0.001692164, -0.00009175438, -295720.63, -44976.29, 0.0, 10.018221, 9.893943 
6.786619e+3, 2.8429982e+2, -208968.42, -317103.1, 148.32309, 0.0016926946, 0.00033780086, -208968.22, -55105.883, 0.0, 10.018372, 9.877151 
6.7866194e+3, 2.9417807e+2, -109127.39, -216756.94, 115.8924, 0.0016914096, -0.00014424663, -109127.266, -52071.418, 0.0, 10.018525, 9.87794 
6.78662e+3, 3.0408373e+2, -20062.813, -85213.55, 50.378338, 0.0016920045, 0.00027691343, -20062.773, -20062.773, 0.0, 10.018678, 9.932876 
6.7866206e+3, 3.140184e+2, -18842.309, -83023.164, 13.115886, 0.0016952932, 0.00003609906, -18842.305, -18842.305, 0.0, 10.018828, 9.934282 
6.7966306e+3, 1.252902e+2, -1699863.5, -1721343.1, 91.62619, 0.0016871032, 0.00020322624, -1699863.0, 12294.31, 0.0, 10.016008, 9.987524 
6.79663e+3, 1.3527757e+2, -1602338.9, -1624524.1, 78.53729, 0.0016902669, 0.000026881948, -1602338.6, 11942.459, 0.0, 10.016155, 9.986737 
6.79663e+3, 1.4525828e+2, -1514294.4, -1545619.5, 193.42986, 0.0016915238, 0.00028784704, -1514293.1, 2177.0403, 0.0, 10.016301, 9.974794 
6.7966294e+3, 1.5523303e+2, -1416424.9, -1448264.1, 176.88751, 0.0016907414, 0.000095095595, -1416423.9, 2293.5833, 0.0, 10.016446, 9.974262 
6.79663e+3, 1.6520113e+2, -1328332.4, -1369595.4, 267.40842, 0.001691221, 0.00017594872, -1328330.6, -7300.4263, 0.0, 10.016592, 9.962029 
6.79663e+3, 1.7516321e+2, -1230233.0, -1271922.4, 247.75816, 0.0016929378, 0.0000734541, -1230231.5, -6829.814, 0.0, 10.016739, 9.961616 
6.7966306e+3, 1.8511857e+2, -1142110.1, -1193533.3, 313.8545, 0.0016939308, 0.0002171781, -1142108.3, -16269.09, 0.0, 10.016885, 9.94903 
6.7966306e+3, 1.9506763e+2, -1043826.44, -1095621.9, 292.04962, 0.0016941772, 0.000081599515, -1043824.75, -15486.463, 0.0, 10.017031, 9.948687 
6.796631e+3, 2.0500985e+2, -955794.7, -1017768.06, 337.2267, 0.0016946427, 0.00020155271, -955792.8, -24888.271, 0.0, 10.017177, 9.93556 
6.796632e+3, 2.1494544e+2, -857372.6, -919721.5, 313.8955, 0.0016953141, 0.000007300271, -857371.06, -23835.322, 0.0, 10.017324, 9.935217 
6.7966324e+3, 2.248742e+2, -769170.3, -841915.3, 336.45023, 0.0016962024, 0.00025292978, -769168.75, -32934.754, 0.0, 10.017473, 9.921864 
6.796633e+3, 2.347961e+2, -670606.2, -743721.9, 311.7307, 0.0016972859, 0.000038127324, -670604.9, -31605.713, 0.0, 10.017621, 9.921527 
6.7966336e+3, 2.4471098e+2, -582282.25, -666074.3, 314.7532, 0.0016977973, 0.00019723344, -582281.06, -40447.676, 0.0, 10.01777, 9.907877 
6.796635e+3, 2.5461897e+2, -483400.78, -567389.06, 288.42172, 0.0016976575, 0.000012196245, -483399.8, -38664.746, 0.0, 10.0179205, 9.907769 
6.796636e+3, 2.6451975e+2, -395182.63, -490374.97, 268.03665, 0.0016983087, 0.0002561068, -395181.88, -47474.598, 0.0, 10.01807, 9.893461 
6.796636e+3, 2.7441376e+2, -295778.97, -390765.4, 239.23982, 0.001699878, -0.00009109315, -295778.38, -45032.297, 0.0, 10.018219, 9.8938675 
6.796637e+3, 2.8429958e+2, -209029.63, -317226.6, 199.41025, 0.0017005545, 0.0003386278, -209029.27, -55164.43, 0.0, 10.018371, 9.877069 
6.7966384e+3, 2.941777e+2, -109188.67, -216880.47, 167.16246, 0.0017000531, -0.00014628099, -109188.414, -52129.246, 0.0, 10.018523, 9.877859 
6.796639e+3, 3.0408332e+2, -20126.646, -85343.234, 100.59681, 0.0017005908, 0.00027448867, -20126.49, -20126.49, 0.0, 10.018677, 9.932789 
6.7966396e+3, 3.140179e+2, -18905.121, -83152.945, 63.41083, 0.0017026366, 0.00003677164, -18905.059, -18905.059, 0.0, 10.018828, 9.934195 
6.8066466e+3, 1.2529074e+2, -1699630.9, -1721266.8, 40.769833, 0.0016947731, 0.00020244987, -1699630.9, 12521.245, 0.0, 10.016174, 9.987482 
6.806646e+3, 1.3527808e+2, -1602090.0, -1624439.8, 26.736292, 0.0016979333, 0.000025948058, -1602089.9, 12186.255, 0.0, 10.016332, 9.986695 
6.806646e+3, 1.4525872e+2, -1514031.6, -1545536.4, 140.74596, 0.0016991768, 0.00028693376, -1514031.0, 2434.7554, 0.0, 10.016491, 9.974746 
6.806646e+3, 1.5523344e+2, -1416140.4, -1448170.1, 123.236694, 0.001698361, 0.00009436015, -1416140.0, 2573.5564, 0.0, 10.01665, 9.974213 
6.8066466e+3, 1.6520147e+2, -1328035.4, -1369501.5, 212.02472, 0.001698936, 0.00017526682, -1328034.4, -7007.5933, 0.0, 10.016808, 9.961975 
6.8066466e+3, 1.751635e+2, -1229924.5, -1271823.3, 191.79712, 0.0017008653, 0.00007271614, -1229923.6, -6524.749, 0.0, 10.016963, 9.961562 
6.806647e+3, 1.8511881e+2, -1141790.4, -1193434.3, 257.1032, 0.0017017731, 0.00021640786, -1141789.1, -15952.365, 0.0, 10.017119, 9.948971 
6.806648e+3, 1.9506781e+2, -1043489.7, -1095514.9, 234.42241, 0.0017016506, 0.00008081708, -1043488.6, -15152.11, 0.0, 10.017277, 9.948627 
6.8066484e+3, 2.0500997e+2, -955447.1, -1017660.25, 278.7708, 0.0017022614, 0.00020081831, -955445.9, -24542.455, 0.0, 10.017432, 9.935498 
6.8066496e+3, 2.149455e+2, -857015.75, -919609.8, 254.99281, 0.001703582, 0.0000066765906, -857014.75, -23479.58, 0.0, 10.017588, 9.935155 
6.80665e+3, 2.2487417e+2, -768803.7, -841804.6, 277.85004, 0.0017043679, 0.0002522779, -768802.7, -32568.615, 0.0, 10.017745, 9.921797 
6.806651e+3, 2.3479603e+2, -670223.6, -743604.1, 252.6551, 0.0017045711, 0.000037304053, -670222.75, -31222.877, 0.0, 10.017905, 9.921461 
6.806652e+3, 2.4471083e+2, -581888.6, -665955.7, 255.28305, 0.0017051764, 0.00019649423, -581887.9, -40053.113, 0.0, 10.018064, 9.907806 
6.8066525e+3, 2.5461876e+2, -482997.8, -567266.94, 229.10101, 0.0017062033, 0.000011822375, -482997.2, -38260.074, 0.0, 10.018222, 9.9077 
6.806654e+3, 2.6451948e+2, -394769.13, -490253.84, 209.38092, 0.0017068635, 0.00025565538, -394768.66, -47058.61, 0.0, 10.018382, 9.893387 
6.806655e+3, 2.7441338e+2, -295347.9, -390636.97, 180.75148, 0.0017070709, -0.00009214024, -295347.56, -44597.98, 0.0, 10.018545, 9.893792 
6.8066555e+3, 2.8429917e+2, -208586.95, -317100.2, 141.13762, 0.0017076784, 0.00033764198, -208586.77, -54717.656, 0.0, 10.018707, 9.876989 
6.806657e+3, 2.941772e+2, -108734.77, -216750.31, 108.742035, 0.0017087697, -0.0001463621, -108734.664, -51670.438, 0.0, 10.01887, 9.877778 
6.806658e+3, 3.0408272e+2, -19661.229, -85213.54, 44.55201, 0.0017094968, 0.00027455747, -19661.2, -19661.2, 0.0, 10.019036, 9.932704 
6.806658e+3, 3.140172e+2, -18413.883, -83011.15, 8.304146, 0.0017097527, 0.00003597222, -18413.88, -18413.88, 0.0, 10.019206, 9.934109 
6.8166625e+3, 1.2529114e+2, -1699673.4, -1721339.5, 92.14894, 0.0017033974, 0.00020174401, -1699673.0, 12475.114, 0.0, 10.016171, 9.987439 
6.8166625e+3, 1.3527843e+2, -1602130.8, -1624511.5, 78.156746, 0.0017047307, 0.000024768724, -1602130.5, 12142.205, 0.0, 10.01633, 9.986652 
6.8166625e+3, 1.4525904e+2, -1514077.8, -1545618.9, 192.93675, 0.0017059026, 0.00028573794, -1514076.5, 2386.1494, 0.0, 10.016489, 9.974696 
6.8166625e+3, 1.5523371e+2, -1416186.8, -1448252.6, 175.40494, 0.0017065867, 0.00009354785, -1416185.9, 2525.0808, 0.0, 10.016648, 9.974163 
6.816663e+3, 1.6520168e+2, -1328085.4, -1369591.5, 262.5141, 0.0017074036, 0.00017462744, -1328083.8, -7059.095, 0.0, 10.016806, 9.96192 
6.816664e+3, 1.7516366e+2, -1229973.1, -1271912.4, 242.27507, 0.0017084242, 0.000072058625, -1229971.8, -6574.3955, 0.0, 10.016961, 9.961507 
6.8166643e+3, 1.8511891e+2, -1141842.8, -1193530.9, 308.32394, 0.0017090536, 0.00021557922, -1141840.9, -16005.045, 0.0, 10.0171175, 9.948911 
6.816665e+3, 1.9506784e+2, -1043542.2, -1095611.4, 285.72525, 0.0017092486, 0.000079670346, -1043540.6, -15204.437, 0.0, 10.017274, 9.948567 
6.816666e+3, 2.0500995e+2, -955501.6, -1017761.1, 329.45737, 0.0017102069, 0.00019987089, -955499.9, -24596.24, 0.0, 10.01743, 9.935435 
6.816667e+3, 2.1494542e+2, -857069.06, -919709.75, 305.59555, 0.0017119034, 0.0000064390388, -857067.56, -23531.557, 0.0, 10.017586, 9.935092 
6.816668e+3, 2.2487402e+2, -768860.06, -841911.2, 330.21643, 0.0017124043, 0.00025185652, -768858.56, -32623.047, 0.0, 10.017743, 9.92173 
6.816669e+3, 2.3479581e+2, -670280.06, -743710.5, 305.15213, 0.0017116384, 0.000035774192, -670278.75, -31276.77, 0.0, 10.017902, 9.921393 
6.81667e+3, 2.4471055e+2, -581946.75, -666065.9, 307.32556, 0.0017124668, 0.00019517512, -581945.6, -40108.04, 0.0, 10.018061, 9.907737 
6.816671e+3, 2.546184e+2, -483054.7, -567376.25, 281.1195, 0.0017150283, 0.000012166857, -483053.75, -38313.145, 0.0, 10.01822, 9.907629 
6.816672e+3, 2.6451904e+2, -394828.94, -490369.94, 263.16888, 0.001715683, 0.00025587314, -394828.22, -47113.95, 0.0, 10.01838, 9.8933115 
6.816673e+3, 2.744129e+2, -295407.66, -390752.9, 234.76393, 0.0017140632, -0.000094169314, -295407.1, -44652.55, 0.0, 10.018542, 9.893718 
6.8166745e+3, 2.842986e+2, -208650.75, -317225.38, 195.349, 0.001714493, 0.0003356208, -208650.4, -54775.59, 0.0, 10.018705, 9.876908 
6.8166757e+3, 2.9417655e+2, -108797.24, -216874.92, 163.04417, 0.0017175245, -0.00014550239, -108796.99, -51726.285, 0.0, 10.018868, 9.877696 
6.816677e+3, 3.0408198e+2, -19724.281, -85340.18, 101.088196, 0.0017185694, 0.0002758669, -19724.127, -19724.127, 0.0, 10.019034, 9.932619 
6.8166775e+3, 3.140164e+2, -18477.748, -83138.47, 65.19857, 0.0017168529, 0.00003431813, -18477.684, -18477.684, 0.0, 10.019203, 9.934024 
6.8266785e+3, 1.2529135e+2, -1699444.0, -1721267.9, 35.581326, 0.0017112563, 0.00020089706, -1699444.0, 12702.116, 0.0, 10.016336, 9.987395 
6.826679e+3, 1.352786e+2, -1601874.9, -1624426.3, 20.56821, 0.0017120752, 0.00002402696, -1601874.8, 12396.208, 0.0, 10.016512, 9.986608 
6.826679e+3, 1.4525916e+2, -1513808.0, -1545534.9, 132.70506, 0.0017132908, 0.00028497606, -1513807.4, 2654.1099, 0.0, 10.016684, 9.974645 
6.82668e+3, 1.5523377e+2, -1415904.1, -1448162.5, 114.18058, 0.0017145076, 0.000092650116, -1415903.8, 2806.5247, 0.0, 10.016852, 9.974112 
6.8266803e+3, 1.652017e+2, -1327790.6, -1369501.5, 199.50316, 0.0017152792, 0.00017373155, -1327789.6, -6765.1147, 0.0, 10.017021, 9.9618635 
6.826681e+3, 1.7516363e+2, -1229659.6, -1271813.3, 178.18542, 0.0017157246, 0.00007129503, -1229658.9, -6261.1855, 0.0, 10.017189, 9.961451 
6.8266815e+3, 1.8511881e+2, -1141518.1, -1193431.0, 242.25735, 0.0017164799, 0.00021483794, -1141517.0, -15680.253, 0.0, 10.017355, 9.948851 
6.8266827e+3, 1.9506769e+2, -1043208.75, -1095507.8, 219.18158, 0.0017174588, 0.00007884516, -1043207.8, -14870.072, 0.0, 10.017518, 9.948507 
6.826684e+3, 2.0500971e+2, -955158.94, -1017658.44, 262.45038, 0.0017183156, 0.00019905984, -955157.8, -24252.037, 0.0, 10.017684, 9.93537 
6.8266845e+3, 2.1494512e+2, -856711.1, -919600.2, 237.48758, 0.0017190394, 0.000005741376, -856710.25, -23171.434, 0.0, 10.01785, 9.935027 
6.8266857e+3, 2.2487368e+2, -768491.4, -841799.3, 261.8234, 0.0017196535, 0.0002511867, -768490.44, -32251.447, 0.0, 10.018017, 9.921663 
6.826687e+3, 2.3479539e+2, -669903.0, -743595.4, 236.9173, 0.0017201257, 0.000035044555, -669902.25, -30896.13, 0.0, 10.018183, 9.921327 
6.826688e+3, 2.4471007e+2, -581560.25, -665951.25, 239.46147, 0.0017209217, 0.00019440967, -581559.56, -39717.242, 0.0, 10.018351, 9.907667 
6.826689e+3, 2.5461784e+2, -482653.1, -567255.2, 212.93912, 0.0017220508, 0.000011389565, -482652.56, -37906.49, 0.0, 10.01852, 9.907558 
6.826691e+3, 2.645184e+2, -394415.8, -490247.56, 195.54033, 0.0017227125, 0.0002552218, -394415.4, -46695.008, 0.0, 10.018691, 9.893239 
6.8266916e+3, 2.744122e+2, -294984.13, -390626.7, 167.72359, 0.0017228038, -0.00009452358, -294983.8, -44222.41, 0.0, 10.018862, 9.893644 
6.8266934e+3, 2.842978e+2, -208217.23, -317103.44, 129.79726, 0.0017233129, 0.000335173, -208217.08, -54334.637, 0.0, 10.019036, 9.876827 
6.8266946e+3, 2.9417568e+2, -108345.03, -216745.66, 97.63992, 0.0017243285, -0.00014654659, -108344.94, -51265.805, 0.0, 10.019214, 9.877615 
6.826696e+3, 3.0408105e+2, -19258.58, -85207.86, 38.482735, 0.0017252226, 0.00027481484, -19258.557, -19258.557, 0.0, 10.019393, 9.932536 
6.826697e+3, 3.1401536e+2, -17995.582, -82998.34, 3.5005765, 0.0017259779, 0.00003413816, -17995.582, -17995.582, 0.0, 10.019574, 9.933941 
6.836695e+3, 1.252914e+2, -1699487.5, -1721344.3, 93.34307, 0.001718683, 0.00019988154, -1699487.1, 12658.271, 0.0, 10.016334, 9.9873495 
6.836695e+3, 1.3527861e+2, -1601918.9, -1624502.8, 78.212975, 0.0017197382, 0.000023416824, -1601918.6, 12352.256, 0.0, 10.016509, 9.986562 
6.8366957e+3, 1.4525913e+2, -1513857.4, -1545622.3, 187.64467, 0.001721061, 0.00028435074, -1513856.3, 2605.503, 0.0, 10.016681, 9.974592 
6.836696e+3, 1.5523368e+2, -1415952.1, -1448249.0, 169.12062, 0.0017222605, 0.00009162028, -1415951.3, 2759.7996, 0.0, 10.01685, 9.974059 
6.8366975e+3, 1.6520156e+2, -1327842.5, -1369595.9, 254.48068, 0.0017228373, 0.00017261128, -1327841.0, -6815.093, 0.0, 10.017018, 9.961806 
6.8366975e+3, 1.7516342e+2, -1229711.9, -1271907.6, 233.17706, 0.0017229305, 0.000070374765, -1229710.6, -6310.957, 0.0, 10.017186, 9.961392 
6.8366987e+3, 1.8511854e+2, -1141572.6, -1193530.0, 295.41846, 0.0017240229, 0.0002140435, -1141571.0, -15731.692, 0.0, 10.017352, 9.94879 
6.8367004e+3, 1.9506736e+2, -1043262.1, -1095605.9, 272.3326, 0.001725989, 0.0000781043, -1043260.7, -14919.864, 0.0, 10.017516, 9.948446 
6.836701e+3, 2.0500934e+2, -955216.0, -1017764.2, 316.88235, 0.0017265123, 0.00019823537, -955214.44, -24304.898, 0.0, 10.017681, 9.935305 
6.836702e+3, 2.1494469e+2, -856768.4, -919705.6, 291.9601, 0.0017256052, 0.000004699059, -856767.0, -23223.852, 0.0, 10.017847, 9.934961 
6.8367034e+3, 2.2487317e+2, -768548.94, -841905.75, 316.1731, 0.0017265427, 0.00025028395, -768547.56, -32303.611, 0.0, 10.018013, 9.921597 
6.836705e+3, 2.3479481e+2, -669959.7, -743701.06, 291.2206, 0.0017293609, 0.0000346524, -669958.5, -30946.762, 0.0, 10.01818, 9.921261 
6.8367064e+3, 2.4470942e+2, -581619.75, -666063.06, 295.31796, 0.0017299908, 0.00019385481, -581618.75, -39770.066, 0.0, 10.018348, 9.907596 
6.836708e+3, 2.5461712e+2, -482712.44, -567366.7, 268.9979, 0.0017281868, 0.000009929111, -482711.6, -37958.484, 0.0, 10.018517, 9.907488 
6.8367094e+3, 2.6451764e+2, -394476.5, -490362.22, 252.13358, 0.0017288666, 0.0002540192, -394475.84, -46747.684, 0.0, 10.018687, 9.893166 
6.836711e+3, 2.7441132e+2, -295044.0, -390740.7, 224.34967, 0.0017324677, -0.00009409398, -295043.47, -44273.625, 0.0, 10.018858, 9.893571 
6.8367124e+3, 2.8429684e+2, -208282.33, -317228.9, 189.01378, 0.0017331919, 0.00033546984, -208282.0, -54390.36, 0.0, 10.0190325, 9.876747 
6.836714e+3, 2.9417464e+2, -108409.86, -216871.17, 157.23654, 0.0017301916, -0.00014867309, -108409.63, -51320.49, 0.0, 10.01921, 9.877534 
6.8367153e+3, 3.0407992e+2, -19322.709, -85332.56, 98.955, 0.0017306975, 0.00027245138, -19322.56, -19322.56, 0.0, 10.019389, 9.932454 
6.8367165e+3, 3.1401417e+2, -18059.266, -83122.89, 64.21569, 0.001736168, 0.00003462659, -18059.203, -18059.203, 0.0, 10.01957, 9.933858 
6.8467116e+3, 1.2529127e+2, -1699248.4, -1721271.5, 30.621252, 0.0017256838, 0.00019885377, -1699248.4, 12898.4795, 0.0, 10.016507, 9.987301 
6.8467116e+3, 1.3527843e+2, -1601663.6, -1624422.3, 13.91283, 0.0017276753, 0.000022353372, -1601663.6, 12609.0625, 0.0, 10.016693, 9.986514 
6.846712e+3, 1.4525887e+2, -1513588.4, -1545542.3, 120.16473, 0.0017290367, 0.0002834133, -1513587.9, 2876.2874, 0.0, 10.016878, 9.974537 
6.8467134e+3, 1.5523338e+2, -1415661.8, -1448158.4, 100.339035, 0.0017294568, 0.00009095032, -1415661.5, 3052.5032, 0.0, 10.017061, 9.974005 
6.8467146e+3, 1.652012e+2, -1327540.1, -1369504.8, 182.46921, 0.0017300975, 0.00017189299, -1327539.4, -6510.0166, 0.0, 10.01724, 9.961747 
6.846715e+3, 1.7516302e+2, -1229399.8, -1271812.1, 160.25409, 0.0017310256, 0.00006932277, -1229399.1, -5995.479, 0.0, 10.017415, 9.961333 
6.8467164e+3, 1.8511808e+2, -1141250.5, -1193434.0, 220.37929, 0.0017320291, 0.00021303537, -1141249.5, -15405.638, 0.0, 10.01759, 9.948728 
6.8467176e+3, 1.9506684e+2, -1042925.2, -1095503.0, 196.21202, 0.0017330297, 0.000077494056, -1042924.5, -14578.431, 0.0, 10.017764, 9.948384 
6.846719e+3, 2.0500875e+2, -954870.7, -1017662.25, 239.62512, 0.0017336722, 0.0001976357, -954869.75, -23954.41, 0.0, 10.017938, 9.935239 
6.84672e+3, 2.1494402e+2, -856415.56, -919600.75, 214.17885, 0.0017339508, 0.0000037316292, -856414.8, -22865.162, 0.0, 10.018109, 9.9348955 
6.846722e+3, 2.2487244e+2, -768186.4, -841797.94, 238.3616, 0.0017348615, 0.00024929323, -768185.6, -31934.477, 0.0, 10.018284, 9.92153 
6.846723e+3, 2.3479402e+2, -669584.5, -743587.9, 212.8009, 0.0017363953, 0.000033994776, -669583.9, -30564.33, 0.0, 10.018459, 9.921193 
6.8467253e+3, 2.4470854e+2, -581234.4, -665947.94, 217.40442, 0.0017370066, 0.00019330354, -581233.8, -39376.688, 0.0, 10.018636, 9.907527 
6.8467265e+3, 2.5461617e+2, -482317.66, -567247.94, 191.6873, 0.0017365804, 0.000009232211, -482317.22, -37554.953, 0.0, 10.018813, 9.907418 
6.8467283e+3, 2.6451662e+2, -394072.22, -490243.56, 175.91751, 0.0017373409, 0.00025320187, -394071.88, -46333.87, 0.0, 10.018992, 9.893093 
6.84673e+3, 2.7441025e+2, -294626.25, -390616.66, 148.1899, 0.001739483, -0.00009499457, -294626.03, -43845.6, 0.0, 10.019174, 9.893498 
6.8467313e+3, 2.8429568e+2, -207854.47, -317108.1, 115.21695, 0.0017401465, 0.0003347287, -207854.34, -53951.383, 0.0, 10.019359, 9.876668 
6.8467337e+3, 2.9417342e+2, -107968.23, -216745.34, 84.34164, 0.001738889, -0.00014894108, -107968.164, -50866.918, 0.0, 10.019547, 9.877455 
6.846735e+3, 3.040786e+2, -18866.977, -85201.98, 30.063606, 0.0017395391, 0.00027214014, -18866.963, -18866.963, 0.0, 10.01974, 9.932373 
6.846736e+3, 3.1401277e+2, -17580.895, -82981.37, -3.3978586, 0.0017428914, 0.000033599426, -17580.893, -17580.893, 0.0, 10.019937, 9.933778 
6.856728e+3, 1.2529096e+2, -1699296.4, -1721355.4, 91.80867, 0.0017324858, 0.00019772438, -1699296.0, 12853.81, 0.0, 10.016504, 9.987251 
6.856729e+3, 1.3527808e+2, -1601710.3, -1624505.1, 75.08309, 0.0017357381, 0.000020954601, -1601710.0, 12566.188, 0.0, 10.016691, 9.986464 
6.8567294e+3, 1.4525847e+2, -1513639.8, -1545634.8, 180.25798, 0.001737105, 0.00028221268, -1513638.8, 2829.4104, 0.0, 10.016875, 9.974482 
6.8567306e+3, 1.5523292e+2, -1415713.6, -1448250.9, 160.36928, 0.0017363984, 0.000090354944, -1415712.8, 3005.69, 0.0, 10.017058, 9.9739485 
6.856731e+3, 1.6520068e+2, -1327595.1, -1369603.6, 239.52754, 0.0017372369, 0.00017127462, -1327593.8, -6559.357, 0.0, 10.017237, 9.961687 
6.856733e+3, 1.7516243e+2, -1229453.8, -1271910.1, 217.28056, 0.0017395794, 0.00006810959, -1229452.6, -6043.272, 0.0, 10.017412, 9.961273 
6.856734e+3, 1.8511744e+2, -1141307.3, -1193537.5, 277.09073, 0.0017402756, 0.00021182129, -1141305.8, -15455.511, 0.0, 10.017587, 9.948664 
6.8567353e+3, 1.9506612e+2, -1042982.2, -1095606.3, 253.00777, 0.0017393437, 0.000076837285, -1042980.94, -14627.977, 0.0, 10.01776, 9.94832 
6.8567365e+3, 2.0500797e+2, -954930.3, -1017770.7, 295.731, 0.0017403403, 0.00019704022, -954928.94, -24005.97, 0.0, 10.017934, 9.935172 
6.8567383e+3, 2.1494317e+2, -856474.5, -919708.5, 270.1875, 0.001743222, 0.0000027096362, -856473.4, -22915.459, 0.0, 10.0181055, 9.934829 
6.85674e+3, 2.2487152e+2, -768246.0, -841907.25, 295.80078, 0.0017439239, 0.00024816443, -768244.8, -31984.777, 0.0, 10.018279, 9.921461 
6.856742e+3, 2.3479305e+2, -669644.0, -743696.75, 270.36365, 0.0017423355, 0.00003309009, -669643.0, -30613.85, 0.0, 10.018455, 9.921125 
6.8567437e+3, 2.4470751e+2, -581294.4, -666057.9, 275.66992, 0.0017430099, 0.00019264329, -581293.5, -39426.1, 0.0, 10.018631, 9.907458 
6.8567455e+3, 2.5461507e+2, -482377.34, -567357.4, 249.95456, 0.0017461582, 0.0000088383185, -482376.6, -37603.434, 0.0, 10.018808, 9.90735 
6.856747e+3, 2.6451543e+2, -394134.6, -490358.94, 235.92175, 0.0017470302, 0.0002525008, -394134.0, -46384.395, 0.0, 10.018988, 9.89302 
6.856749e+3, 2.74409e+2, -294687.97, -390731.53, 208.48526, 0.0017451799, -0.00009668548, -294687.53, -43894.777, 0.0, 10.019169, 9.893425 
6.856751e+3, 2.8429437e+2, -207920.05, -317231.4, 178.2605, 0.001745645, 0.0003333504, -207919.77, -54003.746, 0.0, 10.019354, 9.876589 
6.8567526e+3, 2.94172e+2, -108033.78, -216868.64, 147.57861, 0.0017490685, -0.00014835848, -108033.586, -50918.523, 0.0, 10.019543, 9.877376 
6.8567544e+3, 3.0407712e+2, -18931.38, -85323.24, 95.74852, 0.0017501413, 0.00027280414, -18931.242, -18931.242, 0.0, 10.019734, 9.932294 
6.856756e+3, 3.140112e+2, -17644.783, -83102.336, 62.776108, 0.0017479025, 0.00003170515, -17644.723, -17644.723, 0.0, 10.019932, 9.933699 
6.866745e+3, 1.2529044e+2, -1699054.6, -1721286.1, 22.928946, 0.0017403445, 0.00019677667, -1699054.6, 13100.306, 0.0, 10.016682, 9.987199 
6.8667454e+3, 1.352775e+2, -1601443.5, -1624423.3, 4.563908, 0.0017427254, 0.000020166477, -1601443.5, 12838.322, 0.0, 10.016885, 9.986411 
6.8667465e+3, 1.4525785e+2, -1513359.6, -1545553.1, 104.80242, 0.0017441586, 0.00028134175, -1513359.3, 3115.1318, 0.0, 10.017081, 9.974423 
6.866748e+3, 1.5523224e+2, -1415421.5, -1448163.8, 83.401726, 0.001744349, 0.00008917832, -1415421.3, 3303.9753, 0.0, 10.017272, 9.97389 
6.866749e+3, 1.6519994e+2, -1327292.1, -1369516.0, 158.68446, 0.0017451552, 0.00017017667, -1327291.6, -6249.79, 0.0, 10.017461, 9.961624 
6.86675e+3, 1.751616e+2, -1229135.5, -1271815.3, 135.0206, 0.0017466107, 0.00006744708, -1229135.0, -5717.6733, 0.0, 10.017647, 9.961211 
6.8667513e+3, 1.8511656e+2, -1140979.0, -1193440.6, 191.73087, 0.0017474082, 0.00021116136, -1140978.4, -15119.523, 0.0, 10.017829, 9.9486 
6.8667537e+3, 1.9506519e+2, -1042646.9, -1095506.5, 166.93053, 0.0017475084, 0.000075767945, -1042646.3, -14284.127, 0.0, 10.018008, 9.9482565 
6.866755e+3, 2.0500696e+2, -954589.3, -1017674.0, 208.31035, 0.001748458, 0.00019597293, -954588.6, -23655.783, 0.0, 10.018188, 9.935103 
6.8667567e+3, 2.149421e+2, -856123.1, -919607.4, 181.5469, 0.0017502285, 0.0000020518744, -856122.6, -22554.174, 0.0, 10.018369, 9.934759 
6.8667585e+3, 2.2487038e+2, -767883.9, -841799.8, 207.20985, 0.0017509182, 0.00024755034, -767883.25, -31612.023, 0.0, 10.018549, 9.921394 
6.86676e+3, 2.3479183e+2, -669274.1, -743586.3, 181.93175, 0.0017504588, 0.00003213906, -669273.6, -30232.63, 0.0, 10.018731, 9.921058 
6.866762e+3, 2.4470623e+2, -580916.75, -665946.25, 187.71571, 0.0017512504, 0.00019167416, -580916.3, -39036.395, 0.0, 10.018914, 9.907389 
6.8667644e+3, 2.5461373e+2, -481990.63, -567242.3, 161.81813, 0.0017533964, 0.000008200273, -481990.3, -37203.918, 0.0, 10.019098, 9.907281 
6.866767e+3, 2.64514e+2, -393737.72, -490241.63, 149.98108, 0.0017541547, 0.00025197124, -393737.47, -45973.957, 0.0, 10.019286, 9.892949 
6.8667686e+3, 2.744075e+2, -294278.63, -390609.22, 123.73226, 0.0017532447, -0.00009736085, -294278.47, -43471.113, 0.0, 10.019478, 9.893354 
6.8667704e+3, 2.842928e+2, -207503.0, -317115.22, 96.07934, 0.0017538185, 0.0003325433, -207502.92, -53571.56, 0.0, 10.019672, 9.876511 
6.866772e+3, 2.9417038e+2, -107604.586, -216748.31, 65.508575, 0.0017562811, -0.00014927634, -107604.55, -50473.367, 0.0, 10.019872, 9.877296 
6.8667746e+3, 3.0407542e+2, -18486.342, -85193.34, 19.580624, 0.0017572753, 0.00027205358, -18486.336, -18486.336, 0.0, 10.020076, 9.932218 
6.8667763e+3, 3.140094e+2, -17176.635, -82960.87, -11.318373, 0.0017561974, 0.000031572676, -17176.633, -17176.633, 0.0, 10.020288, 9.933622 
6.876762e+3, 1.2528974e+2, -1699105.1, -1721376.4, 90.0799, 0.0017487244, 0.00019581623, -1699104.8, 13057.064, 0.0, 10.01668, 9.987144 
6.8767625e+3, 1.3527673e+2, -1601494.3, -1624513.5, 71.57962, 0.0017491919, 0.000019574281, -1601494.1, 12795.155, 0.0, 10.016882, 9.986357 
6.8767637e+3, 1.4525703e+2, -1513415.1, -1545652.6, 167.42772, 0.0017507222, 0.00028052813, -1513414.3, 3068.0957, 0.0, 10.017078, 9.974362 
6.876765e+3, 1.5523136e+2, -1415476.1, -1448262.4, 145.99455, 0.0017528104, 0.00008759897, -1415475.5, 3258.402, 0.0, 10.01727, 9.97383 
6.876766e+3, 1.65199e+2, -1327349.9, -1369620.6, 219.44539, 0.0017534666, 0.0001687238, -1327348.8, -6297.7373, 0.0, 10.017458, 9.96156 
6.876768e+3, 1.7516062e+2, -1229193.4, -1271919.8, 195.77092, 0.0017528991, 0.00006694384, -1229192.5, -5765.373, 0.0, 10.017644, 9.961147 
6.8767697e+3, 1.8511549e+2, -1141038.3, -1193547.4, 249.99367, 0.0017540079, 0.00021066396, -1141037.1, -15167.842, 0.0, 10.017826, 9.948534 
6.8767715e+3, 1.9506405e+2, -1042705.75, -1095612.8, 225.19101, 0.0017566254, 0.00007438192, -1042704.75, -14331.448, 0.0, 10.018005, 9.948191 
6.876773e+3, 2.0500575e+2, -954652.1, -1017788.0, 266.88733, 0.0017573225, 0.00019456004, -954651.0, -23706.414, 0.0, 10.018185, 9.935033 
6.876775e+3, 2.1494083e+2, -856185.94, -919720.94, 240.1257, 0.0017561143, 0.000001459229, -856185.0, -22604.13, 0.0, 10.018364, 9.9346895 
6.876777e+3, 2.2486903e+2, -767944.5, -841908.8, 266.53174, 0.0017568973, 0.00024707802, -767943.56, -31659.176, 0.0, 10.018544, 9.921327 
6.876779e+3, 2.3479041e+2, -669334.75, -743694.94, 241.25192, 0.001759717, 0.000031061634, -669334.0, -30279.164, 0.0, 10.018725, 9.92099 
6.876781e+3, 2.4470474e+2, -580978.8, -666057.9, 248.18628, 0.0017606475, 0.0001904444, -580978.1, -39083.707, 0.0, 10.0189085, 9.90732 
6.876784e+3, 2.5461218e+2, -482052.1, -567353.3, 222.45338, 0.0017594683, 0.0000073174406, -482051.5, -37249.973, 0.0, 10.019093, 9.907211 
6.876786e+3, 2.645124e+2, -393799.5, -490353.13, 213.32007, 0.0017600051, 0.00025141452, -393799.03, -46019.688, 0.0, 10.01928, 9.8928795 
6.876788e+3, 2.7440584e+2, -294340.8, -390720.53, 187.21474, 0.0017625535, -0.00009761891, -294340.44, -43516.582, 0.0, 10.019471, 9.893285 
6.87679e+3, 2.8429106e+2, -207571.63, -317240.03, 162.31651, 0.0017633936, 0.0003319405, -207571.38, -53622.805, 0.0, 10.019666, 9.876431 
6.8767923e+3, 2.9416853e+2, -107672.19, -216872.9, 132.22688, 0.0017620149, -0.00015107755, -107672.03, -50522.844, 0.0, 10.019865, 9.877217 
6.8767947e+3, 3.0407348e+2, -18549.445, -85308.875, 90.951035, 0.0017626777, 0.00027047293, -18549.322, -18549.322, 0.0, 10.020069, 9.932143 
6.876797e+3, 3.140074e+2, -17240.588, -83076.234, 60.61871, 0.0017662126, 0.000032216303, -17240.533, -17240.533, 0.0, 10.020281, 9.933548 
6.8867785e+3, 1.2528878e+2, -1698849.4, -1721305.5, 14.668456, 0.0017556571, 0.00019487596, -1698849.3, 13321.759, 0.0, 10.016868, 9.987087 
6.886779e+3, 1.3527572e+2, -1601222.0, -1624434.4, -5.9331284, 0.0017571048, 0.00001849772, -1601222.0, 13077.07, 0.0, 10.017081, 9.9862995 
6.886781e+3, 1.4525597e+2, -1513129.8, -1545573.4, 83.8573, 0.0017586121, 0.00027951458, -1513129.5, 3363.188, 0.0, 10.017289, 9.9743 
6.886782e+3, 1.5523024e+2, -1415173.3, -1448174.6, 60.65516, 0.0017597628, 0.00008682141, -1415173.1, 3571.7046, 0.0, 10.017492, 9.973767 
6.886784e+3, 1.651978e+2, -1327036.9, -1369531.9, 128.87643, 0.001760458, 0.00016788492, -1327036.4, -5973.818, 0.0, 10.01769, 9.961494 
6.8867856e+3, 1.7515935e+2, -1228872.6, -1271827.8, 103.844765, 0.0017608238, 0.00006577445, -1228872.4, -5432.956, 0.0, 10.017881, 9.9610815 
6.8867874e+3, 1.8511416e+2, -1140709.8, -1193453.5, 154.24986, 0.0017619318, 0.0002095425, -1140709.3, -14827.069, 0.0, 10.01807, 9.948467 
6.88679e+3, 1.9506267e+2, -1042368.25, -1095515.1, 128.15067, 0.0017636603, 0.00007366435, -1042367.94, -13981.019, 0.0, 10.018256, 9.948124 
6.8867916e+3, 2.050043e+2, -954310.06, -1017693.5, 168.23784, 0.001764358, 0.00019388432, -954309.6, -23350.754, 0.0, 10.018441, 9.934961 
6.8867934e+3, 2.149393e+2, -855837.94, -919624.3, 140.69284, 0.0017640279, 0.00000047025654, -855837.6, -22241.777, 0.0, 10.018626, 9.934618 
6.886796e+3, 2.2486745e+2, -767587.5, -841804.4, 166.8106, 0.0017649091, 0.00024606055, -767587.1, -31287.092, 0.0, 10.018811, 9.921259 
6.886798e+3, 2.3478876e+2, -668972.2, -743588.6, 141.15106, 0.0017670145, 0.000030310755, -668971.9, -29900.785, 0.0, 10.018997, 9.920922 
6.8868005e+3, 2.4470302e+2, -580608.5, -665948.8, 149.51216, 0.0017677953, 0.0001897245, -580608.2, -38696.844, 0.0, 10.019186, 9.907251 
6.886803e+3, 2.546104e+2, -481672.4, -567240.5, 124.40842, 0.0017670908, 0.0000063659854, -481672.22, -36853.055, 0.0, 10.019379, 9.907144 
6.886805e+3, 2.6451054e+2, -393411.97, -490238.63, 117.25283, 0.0017677995, 0.0002504939, -393411.8, -45614.168, 0.0, 10.019572, 9.892811 
6.8868077e+3, 2.7440387e+2, -293946.88, -390604.03, 91.56781, 0.0017701547, -0.00009818646, -293946.78, -43103.938, 0.0, 10.019769, 9.893215 
6.88681e+3, 2.8428903e+2, -207170.61, -317128.8, 71.42693, 0.0017709051, 0.00033144932, -207170.56, -53202.285, 0.0, 10.019973, 9.876356 
6.8868124e+3, 2.9416645e+2, -107254.2, -216755.03, 43.070904, 0.0017695782, -0.00015184334, -107254.19, -50084.55, 0.0, 10.020185, 9.877141 
6.886815e+3, 3.040713e+2, -18115.08, -85179.71, 8.292214, 0.0017702876, 0.0002695455, -18115.078, -18115.078, 0.0, 10.020402, 9.932071 
6.886817e+3, 3.140052e+2, -16790.639, -82939.016, -20.332296, 0.0017738458, 0.00003134921, -16790.633, -16790.633, 0.0, 10.020624, 9.933476 
6.896795e+3, 1.2528765e+2, -1698904.6, -1721404.8, 85.56433, 0.0017618758, 0.00019382387, -1698904.3, 13277.939, 0.0, 10.016866, 9.987027 
6.896796e+3, 1.3527453e+2, -1601276.4, -1624533.0, 64.83362, 0.0017657375, 0.00001705166, -1601276.1, 13034.562, 0.0, 10.017079, 9.986239 
6.896798e+3, 1.452547e+2, -1513188.4, -1545679.8, 150.7101, 0.0017671634, 0.00027827878, -1513187.6, 3317.4258, 0.0, 10.017287, 9.974236 
6.8968e+3, 1.5522891e+2, -1415232.3, -1448281.0, 127.39786, 0.001765985, 0.00008632283, -1415231.8, 3526.056, 0.0, 10.01749, 9.973702 
6.8968016e+3, 1.651964e+2, -1327098.3, -1369642.8, 191.2863, 0.0017668157, 0.00016723106, -1327097.4, -6021.201, 0.0, 10.017687, 9.961427 
6.896804e+3, 1.751579e+2, -1228933.8, -1271938.0, 166.23125, 0.0017695818, 0.000064152664, -1228933.1, -5479.368, 0.0, 10.017878, 9.961014 
6.896806e+3, 1.8511264e+2, -1140771.9, -1193565.8, 214.63101, 0.0017705284, 0.00020798741, -1140771.0, -14873.882, 0.0, 10.018066, 9.948398 
6.8968076e+3, 1.9506109e+2, -1042430.56, -1095627.1, 188.6003, 0.001769672, 0.00007315201, -1042429.9, -14027.376, 0.0, 10.018251, 9.948054 
6.89681e+3, 2.0500264e+2, -954375.7, -1017811.25, 228.2029, 0.0017705036, 0.00019344999, -954374.9, -23399.697, 0.0, 10.018436, 9.934889 
6.896812e+3, 2.1493757e+2, -855903.9, -919741.8, 200.55919, 0.0017729864, -0.00000083821845, -855903.25, -22290.36, 0.0, 10.0186205, 9.9345455 
6.896815e+3, 2.2486563e+2, -767650.4, -841915.7, 227.38326, 0.001773963, 0.00024464962, -767649.7, -31331.982, 0.0, 10.0188055, 9.92119 
6.896817e+3, 2.3478688e+2, -669034.6, -743699.25, 201.80513, 0.0017733419, 0.000029599574, -669034.06, -29944.596, 0.0, 10.018991, 9.920855 
6.8968195e+3, 2.4470106e+2, -580670.7, -666058.4, 212.40186, 0.0017738338, 0.00018913756, -580670.2, -38739.758, 0.0, 10.019179, 9.907184 
6.8968225e+3, 2.5460836e+2, -481735.34, -567350.06, 187.38611, 0.0017755345, 0.0000052687365, -481734.94, -36896.063, 0.0, 10.019371, 9.907076 
6.896825e+3, 2.6450846e+2, -393476.03, -490350.22, 182.13794, 0.0017766085, 0.00024928187, -393475.7, -45657.664, 0.0, 10.019565, 9.892742 
6.896827e+3, 2.7440172e+2, -294009.9, -390714.75, 156.7527, 0.0017769043, -0.00009904598, -294009.63, -43145.75, 0.0, 10.019761, 9.8931465 
6.89683e+3, 2.842868e+2, -207238.05, -317248.47, 142.35234, 0.0017773904, 0.00033088957, -207237.86, -53247.84, 0.0, 10.019964, 9.876281 
6.8968326e+3, 2.9416415e+2, -107322.85, -216875.31, 114.41146, 0.0017781177, -0.00015220112, -107322.734, -50130.625, 0.0, 10.020176, 9.877066 
6.896835e+3, 3.0406898e+2, -18179.93, -85291.78, 82.90849, 0.0017790728, 0.00026886363, -18179.828, -18179.828, 0.0, 10.020391, 9.931999 
6.896838e+3, 3.1400275e+2, -16853.998, -83049.81, 54.98208, 0.0017803011, 0.000029604704, -16853.953, -16853.953, 0.0, 10.020615, 9.933406 
6.906812e+3, 1.2528627e+2, -1698637.4, -1721335.0, 4.2435822, 0.0017697474, 0.00019264505, -1698637.4, 13558.369, 0.0, 10.017065, 9.986964 
6.906814e+3, 1.3527308e+2, -1600987.9, -1624452.5, -19.025478, 0.0017725191, 0.000016124477, -1600987.9, 13337.11, 0.0, 10.017293, 9.986176 
6.906815e+3, 1.452532e+2, -1512887.9, -1545598.6, 58.67581, 0.0017739786, 0.00027735598, -1512887.8, 3632.1743, 0.0, 10.017511, 9.974167 
6.9068176e+3, 1.5522732e+2, -1414922.0, -1448195.5, 33.194508, 0.0017738347, 0.000085173284, -1414921.9, 3851.4314, 0.0, 10.01772, 9.973634 
6.9068193e+3, 1.6519476e+2, -1326779.6, -1369555.6, 90.698586, 0.001774714, 0.0001661419, -1326779.4, -5686.9585, 0.0, 10.017924, 9.961357 
6.906821e+3, 1.7515618e+2, -1228605.8, -1271846.9, 63.979027, 0.0017766177, 0.00006339172, -1228605.6, -5135.067, 0.0, 10.018123, 9.960943 
6.9068235e+3, 1.8511085e+2, -1140436.8, -1193471.9, 107.826805, 0.0017774889, 0.00020720767, -1140436.6, -14521.859, 0.0, 10.018316, 9.948328 
6.906826e+3, 1.9505921e+2, -1042091.0, -1095531.8, 80.66324, 0.0017773, 0.00007202189, -1042090.9, -13670.117, 0.0, 10.018505, 9.947985 
6.906829e+3, 2.050007e+2, -954035.5, -1017721.2, 117.866486, 0.0017782537, 0.00019231805, -954035.25, -23041.123, 0.0, 10.018694, 9.934814 
6.906831e+3, 2.1493554e+2, -855561.2, -919651.3, 88.95741, 0.0017803177, -0.0000016247677, -855561.06, -21928.451, 0.0, 10.01888, 9.934471 
6.9068336e+3, 2.2486356e+2, -767298.1, -841813.8, 116.05915, 0.0017811774, 0.0002439286, -767297.94, -30959.81, 0.0, 10.019069, 9.921123 
6.906836e+3, 2.3478472e+2, -668676.7, -743595.4, 90.51454, 0.0017807537, 0.000028652543, -668676.6, -29566.033, 0.0, 10.019259, 9.920786 
6.906839e+3, 2.4469885e+2, -580307.9, -665952.0, 102.082184, 0.0017814119, 0.00018819065, -580307.8, -38355.645, 0.0, 10.019452, 9.907117 
6.906842e+3, 2.5460607e+2, -481371.03, -567243.8, 77.29689, 0.0017832402, 0.000004571304, -481370.94, -36509.68, 0.0, 10.019646, 9.907009 
6.9068444e+3, 2.645061e+2, -393104.28, -490240.38, 75.89581, 0.0017841614, 0.0002485712, -393104.25, -45263.164, 0.0, 10.019844, 9.892675 
6.9068474e+3, 2.7439928e+2, -293626.4, -390600.1, 52.03921, 0.001783969, -0.000100071054, -293626.4, -42738.81, 0.0, 10.020051, 9.893081 
6.9068503e+3, 2.8428432e+2, -206850.3, -317141.6, 42.269306, 0.0017845397, 0.0003298923, -206850.28, -52835.883, 0.0, 10.020262, 9.876207 
6.9068533e+3, 2.941616e+2, -106929.53, -216767.44, 14.980403, 0.0017860947, -0.00015272244, -106929.53, -49712.31, 0.0, 10.020478, 9.876991 
6.906856e+3, 3.040663e+2, -17769.225, -85167.164, -7.1829185, 0.0017871294, 0.00026850286, -17769.223, -17769.223, 0.0, 10.020705, 9.931933 
6.9068587e+3, 3.1400004e+2, -16417.023, -82911.43, -31.687761, 0.0017873637, 0.000029024337, -16417.008, -16417.008, 0.0, 10.020946, 9.93334 
6.9168293e+3, 1.2528467e+2, -1698697.0, -1721444.4, 80.180664, 0.0017784254, 0.00019128574, -1698696.8, 13514.692, 0.0, 10.017064, 9.986897 
6.916831e+3, 1.3527143e+2, -1601047.9, -1624561.9, 56.745876, 0.0017784087, 0.000015314261, -1601047.8, 13293.55, 0.0, 10.017291, 9.986109 
6.916833e+3, 1.4525145e+2, -1512951.5, -1545714.6, 127.71239, 0.0017799587, 0.0002764492, -1512951.0, 3585.9275, 0.0, 10.0175085, 9.974096 
6.916835e+3, 1.5522553e+2, -1414985.3, -1448310.9, 102.14939, 0.0017824951, 0.00008357057, -1414985.0, 3806.0618, 0.0, 10.017718, 9.973563 
6.9168377e+3, 1.6519289e+2, -1326844.4, -1369673.4, 155.36702, 0.0017833752, 0.0001647047, -1326843.8, -5732.962, 0.0, 10.017921, 9.961285 
6.91684e+3, 1.7515422e+2, -1228670.9, -1271964.5, 128.59186, 0.0017828217, 0.000062919105, -1228670.5, -5180.809, 0.0, 10.018119, 9.960872 
6.9168425e+3, 1.8510883e+2, -1140502.1, -1193589.1, 169.19896, 0.0017836685, 0.00020667509, -1140501.6, -14567.136, 0.0, 10.0183115, 9.9482565 
6.916845e+3, 1.9505711e+2, -1042156.8, -1095648.8, 142.09401, 0.0017857609, 0.00007045595, -1042156.44, -13715.193, 0.0, 10.0185, 9.947913 
6.916847e+3, 2.0499854e+2, -954105.0, -1017844.94, 178.34357, 0.0017868212, 0.00019071068, -954104.5, -23089.152, 0.0, 10.018688, 9.934739 
6.9168496e+3, 2.149333e+2, -855630.44, -919774.56, 149.3732, 0.0017868454, -0.0000022960414, -855630.06, -21975.574, 0.0, 10.018874, 9.934396 
6.9168526e+3, 2.2486123e+2, -767361.94, -841925.25, 178.0981, 0.0017874888, 0.00024340693, -767361.5, -31000.72, 0.0, 10.019062, 9.921055 
6.9168556e+3, 2.3478235e+2, -668741.5, -743706.8, 152.55902, 0.001788746, 0.000027465105, -668741.2, -29607.324, 0.0, 10.019252, 9.920718 
6.9168586e+3, 2.4469641e+2, -580372.4, -666062.0, 165.19807, 0.0017897909, 0.0001869416, -580372.06, -38395.934, 0.0, 10.0194435, 9.90705 
6.9168615e+3, 2.5460356e+2, -481434.8, -567353.06, 140.57967, 0.0017905752, 0.00000393074, -481434.56, -36548.684, 0.0, 10.019637, 9.906942 
6.9168645e+3, 2.645035e+2, -393167.16, -490346.97, 143.92958, 0.0017910912, 0.00024797634, -393166.94, -45300.598, 0.0, 10.019835, 9.892611 
6.916867e+3, 2.7439666e+2, -293690.5, -390706.75, 120.35167, 0.001791253, -0.00010129185, -293690.34, -42776.848, 0.0, 10.02004, 9.893016 
6.91687e+3, 2.842816e+2, -206921.27, -317261.84, 114.64452, 0.0017920821, 0.0003285755, -206921.16, -52880.168, 0.0, 10.02025, 9.876134 
6.9168735e+3, 2.941588e+2, -106999.52, -216887.47, 87.94276, 0.0017937745, -0.0001534842, -106999.45, -49754.926, 0.0, 10.020468, 9.876917 
6.9168764e+3, 3.0406347e+2, -17830.719, -85269.17, 73.82612, 0.001794805, 0.00026815868, -17830.639, -17830.639, 0.0, 10.020694, 9.9318695 
6.9168794e+3, 3.1399712e+2, -16479.873, -83012.79, 50.231544, 0.0017948137, 0.000028899281, -16479.834, -16479.834, 0.0, 10.020933, 9.933277 
6.926846e+3, 1.2528281e+2, -1698408.5, -1721371.1, -7.8622737, 0.001785084, 0.00019047594, -1698408.5, 13821.247, 0.0, 10.01728, 9.986827 
6.926849e+3, 1.352695e+2, -1600744.8, -1624481.6, -34.07952, 0.0017862977, 0.000014006471, -1600744.6, 13615.57, 0.0, 10.017517, 9.986038 
6.9268507e+3, 1.4524946e+2, -1512638.0, -1545633.5, 27.137491, 0.0017878606, 0.00027514907, -1512638.0, 3918.5972, 0.0, 10.017743, 9.974023 
6.926853e+3, 1.5522343e+2, -1414660.6, -1448224.6, -0.81480813, 0.0017893005, 0.00008272456, -1414660.6, 4150.83, 0.0, 10.017961, 9.97349 
6.9268554e+3, 1.6519074e+2, -1326512.6, -1369585.1, 44.539486, 0.0017900952, 0.00016387776, -1326512.5, -5380.5967, 0.0, 10.018169, 9.96121 
6.926858e+3, 1.7515199e+2, -1228335.4, -1271875.0, 15.793635, 0.0017903829, 0.0000617135, -1228335.4, -4823.8716, 0.0, 10.018371, 9.960796 
6.92686e+3, 1.8510652e+2, -1140162.6, -1193496.5, 50.69951, 0.0017914557, 0.00020550194, -1140162.6, -14205.529, 0.0, 10.018566, 9.948183 
6.926863e+3, 1.9505474e+2, -1041816.44, -1095556.6, 22.211946, 0.0017931847, 0.0000697038, -1041816.44, -13351.85, 0.0, 10.018757, 9.94784 
6.926866e+3, 2.0499608e+2, -953765.7, -1017758.9, 56.16033, 0.0017939946, 0.00018995146, -953765.6, -22726.25, 0.0, 10.018947, 9.934662 
6.9268686e+3, 2.1493079e+2, -855288.75, -919688.1, 26.088156, 0.00179388, -0.0000034831207, -855288.75, -21609.441, 0.0, 10.019135, 9.934318 
6.9268715e+3, 2.2485864e+2, -767013.06, -841825.6, 54.19288, 0.0017947104, 0.00024224099, -767013.06, -30626.744, 0.0, 10.019324, 9.920986 
6.926875e+3, 2.3477969e+2, -668395.94, -743609.7, 28.32874, 0.0017964911, 0.000026789428, -668395.94, -29235.854, 0.0, 10.019513, 9.92065 
6.926878e+3, 2.4469367e+2, -580023.06, -665960.4, 43.301235, 0.001797441, 0.00018630117, -580023.0, -38020.07, 0.0, 10.019706, 9.906984 
6.926881e+3, 2.5460076e+2, -481079.94, -567249.5, 19.535551, 0.0017974428, 0.0000028193645, -481079.94, -36166.55, 0.0, 10.019904, 9.906877 
6.926884e+3, 2.6450065e+2, -392807.53, -490240.03, 26.535501, 0.0017980604, 0.00024689917, -392807.53, -44913.086, 0.0, 10.020106, 9.892547 
6.926887e+3, 2.7439374e+2, -293331.06, -390600.84, 3.9654083, 0.0017993727, -0.000101720834, -293331.06, -42388.824, 0.0, 10.020312, 9.892952 
6.9268906e+3, 2.8427863e+2, -206559.6, -317163.66, 5.475117, 0.0018001589, 0.0003281539, -206559.6, -52489.223, 0.0, 10.020528, 9.876063 
6.926894e+3, 2.9415572e+2, -106623.06, -216783.58, -18.921068, 0.0018002718, -0.00015472197, -106623.06, -49348.44, 0.0, 10.020757, 9.876845 
6.926897e+3, 3.0406034e+2, -17436.162, -85145.7, -22.927526, 0.0018012229, 0.00026678498, -17436.156, -17436.156, 0.0, 10.020993, 9.931808 
6.926901e+3, 3.1399393e+2, -16073.86, -82882.51, -43.899574, 0.0018032581, 0.000028430144, -16073.832, -16073.832, 0.0, 10.02124, 9.933218 
6.9368637e+3, 1.2528072e+2, -1698473.4, -1721492.0, 71.55947, 0.0017907678, 0.00018978903, -1698473.3, 13776.936, 0.0, 10.01728, 9.9867525 
6.9368654e+3, 1.3526732e+2, -1600809.6, -1624602.1, 45.10112, 0.001795164, 0.00001231452, -1600809.5, 13571.859, 0.0, 10.017516, 9.985965 
6.9368684e+3, 1.452472e+2, -1512706.0, -1545759.1, 98.911415, 0.0017967023, 0.00027352045, -1512705.6, 3872.7854, 0.0, 10.017742, 9.973946 
6.936871e+3, 1.5522113e+2, -1414729.1, -1448350.1, 70.81862, 0.0017952246, 0.000082103295, -1414728.9, 4105.1294, 0.0, 10.017959, 9.9734125 
6.936874e+3, 1.6518834e+2, -1326582.1, -1369711.5, 110.03654, 0.0017958949, 0.00016319902, -1326581.8, -5426.454, 0.0, 10.018167, 9.961133 
6.936876e+3, 1.7514952e+2, -1228405.4, -1272001.3, 81.277855, 0.0017986326, 0.00006000517, -1228405.1, -4869.4683, 0.0, 10.018367, 9.960719 
6.936879e+3, 1.8510398e+2, -1140231.3, -1193619.5, 112.30065, 0.0018000414, 0.00020387062, -1140231.1, -14249.071, 0.0, 10.018561, 9.948108 
6.9368815e+3, 1.9505212e+2, -1041885.3, -1095679.4, 83.85344, 0.0018001011, 0.000069196794, -1041885.1, -13394.941, 0.0, 10.018751, 9.947764 
6.9368845e+3, 2.049934e+2, -953838.4, -1017887.75, 117.27782, 0.0018004992, 0.0001894605, -953838.2, -22772.38, 0.0, 10.01894, 9.934583 
6.936888e+3, 2.1492802e+2, -855362.6, -919817.1, 87.097626, 0.0018012157, -0.0000050558338, -855362.5, -21655.98, 0.0, 10.019128, 9.934239 
6.936891e+3, 2.248558e+2, -767079.75, -841939.44, 115.24552, 0.0018024194, 0.00024062155, -767079.56, -30665.36, 0.0, 10.019316, 9.9209175 
6.9368947e+3, 2.3477677e+2, -668462.2, -743722.75, 89.449135, 0.0018040966, 0.00002620455, -668462.06, -29273.455, 0.0, 10.019505, 9.920581 
6.9368976e+3, 2.4469069e+2, -580087.0, -666067.44, 107.97187, 0.001804717, 0.00018580159, -580086.9, -38054.67, 0.0, 10.019696, 9.90692 
6.9369006e+3, 2.5459772e+2, -481145.44, -567356.9, 84.326126, 0.0018041412, 0.0000013537821, -481145.34, -36202.11, 0.0, 10.019894, 9.906813 
6.936904e+3, 2.6449752e+2, -392872.56, -490345.03, 94.37473, 0.0018051071, 0.00024546756, -392872.47, -44947.535, 0.0, 10.020094, 9.892484 
6.936908e+3, 2.7439058e+2, -293395.4, -390705.0, 72.16833, 0.0018078693, -0.000101929545, -293395.34, -42422.023, 0.0, 10.0203, 9.892889 
6.9369113e+3, 2.8427535e+2, -206629.02, -317277.28, 81.95981, 0.0018084669, 0.0003280187, -206628.97, -52526.85, 0.0, 10.020515, 9.875995 
6.9369143e+3, 2.941524e+2, -106694.32, -216898.14, 58.25269, 0.0018062777, -0.0001563102, -106694.29, -49387.246, 0.0, 10.020742, 9.876777 
6.9369185e+3, 3.0405697e+2, -17499.396, -85242.484, 60.262764, 0.0018071237, 0.00026482434, -17499.342, -17499.342, 0.0, 10.020978, 9.93175 
6.936922e+3, 3.139905e+2, -16135.528, -82977.195, 40.299908, 0.0018121403, 0.000027632866, -16135.505, -16135.505, 0.0, 10.021225, 9.933161 
6.946881e+3, 1.2527835e+2, -1698162.5, -1721416.6, -22.168095, 0.0017985129, 0.00018837652, -1698162.5, 14110.823, 0.0, 10.017513, 9.986673 
6.946884e+3, 1.3526487e+2, -1600483.9, -1624519.5, -52.150333, 0.0018017879, 0.000011446679, -1600483.8, 13921.619, 0.0, 10.01776, 9.985886 
6.946886e+3, 1.4524469e+2, -1512371.6, -1545675.1, -10.378569, 0.0018033315, 0.00027270472, -1512371.6, 4231.6235, 0.0, 10.017994, 9.973865 
6.946889e+3, 1.5521853e+2, -1414389.4, -1448264.0, -41.317574, 0.00180287, 0.00008088327, -1414389.3, 4470.3013, 0.0, 10.018214, 9.973331 
6.946892e+3, 1.6518566e+2, -1326238.1, -1369622.9, -11.536146, 0.0018037066, 0.00016194019, -1326238.1, -5056.4624, 0.0, 10.018425, 9.961053 
6.9468945e+3, 1.7514676e+2, -1228060.8, -1271913.0, -42.307556, 0.0018058183, 0.000059048056, -1228060.8, -4497.8784, 0.0, 10.018627, 9.960639 
6.946898e+3, 1.8510114e+2, -1139884.1, -1193527.6, -17.62592, 0.0018069289, 0.00020293778, -1139884.1, -13874.25, 0.0, 10.018823, 9.94803 
6.946901e+3, 1.950492e+2, -1041539.1, -1095588.9, -47.78964, 0.0018069992, 0.00006802151, -1041539.06, -13020.225, 0.0, 10.019013, 9.947687 
6.946904e+3, 2.0499039e+2, -953498.25, -1017805.1, -17.862953, 0.0018077438, 0.00018839202, -953498.2, -22403.01, 0.0, 10.0192, 9.934502 
6.946907e+3, 2.1492493e+2, -855028.94, -919738.7, -49.342323, 0.0018091379, -0.000005667843, -855028.94, -21292.188, 0.0, 10.019385, 9.934158 
6.9469106e+3, 2.2485264e+2, -766739.3, -841844.1, -21.051298, 0.0018100984, 0.0002399204, -766739.3, -30294.164, 0.0, 10.019572, 9.920849 
6.946914e+3, 2.3477353e+2, -668122.06, -743628.3, -46.79043, 0.0018105702, 0.000024844836, -668122.0, -28901.758, 0.0, 10.019762, 9.920513 
6.946918e+3, 2.446874e+2, -579746.4, -665968.56, -26.486847, 0.0018112963, 0.00018449611, -579746.4, -37681.93, 0.0, 10.019953, 9.906857 
6.946921e+3, 2.5459436e+2, -480811.66, -567262.2, -49.676193, 0.0018122811, 0.00000089437117, -480811.63, -35835.48, 0.0, 10.020146, 9.906749 
6.9469243e+3, 2.6449412e+2, -392536.2, -490245.22, -33.996864, 0.0018132422, 0.00024505332, -392536.2, -44577.74, 0.0, 10.020348, 9.892425 
6.9469285e+3, 2.743871e+2, -293053.1, -390602.9, -54.208923, 0.001814123, -0.000103246464, -293053.06, -42045.64, 0.0, 10.020558, 9.89283 
6.9469315e+3, 2.842718e+2, -206287.48, -317184.7, -36.69573, 0.0018146805, 0.00032667443, -206287.47, -52150.656, 0.0, 10.020778, 9.875928 
6.9469357e+3, 2.941488e+2, -106351.984, -216806.69, -58.703106, 0.0018148501, -0.00015653837, -106351.95, -49009.56, 0.0, 10.021007, 9.87671 
6.946939e+3, 3.0405328e+2, -17138.957, -85126.414, -43.362858, 0.0018158902, 0.00026479177, -17138.93, -17138.93, 0.0, 10.02125, 9.931698 
6.9469434e+3, 3.1398678e+2, -15751.798, -82848.03, -58.795284, 0.001817987, 0.00002656641, -15751.746, -15751.746, 0.0, 10.021512, 9.93311 
6.9568986e+3, 1.2527575e+2, -1698233.8, -1721551.8, 60.882145, 0.0018072537, 0.00018647841, -1698233.6, 14065.191, 0.0, 10.017514, 9.98659 
6.9569016e+3, 1.3526219e+2, -1600555.5, -1624654.4, 30.635971, 0.0018073512, 0.000010811544, -1600555.5, 13876.194, 0.0, 10.01776, 9.985803 
6.9569045e+3, 1.4524192e+2, -1512445.3, -1545812.5, 62.72355, 0.001808915, 0.00027211633, -1512445.1, 4185.227, 0.0, 10.017993, 9.97378 
6.9569075e+3, 1.5521567e+2, -1414463.8, -1448401.4, 31.642735, 0.0018113654, 0.00007922205, -1414463.8, 4423.802, 0.0, 10.018212, 9.973247 
6.95691e+3, 1.6518271e+2, -1326311.9, -1369757.6, 54.18498, 0.0018124996, 0.00016025071, -1326311.9, -5101.411, 0.0, 10.018422, 9.96097 
6.9569135e+3, 1.7514373e+2, -1228135.0, -1272047.6, 23.31175, 0.0018125005, 0.00005830268, -1228135.0, -4542.625, 0.0, 10.018623, 9.960556 
6.9569165e+3, 1.8509804e+2, -1139956.9, -1193657.8, 43.7824, 0.0018130166, 0.0002021899, -1139956.9, -13916.632, 0.0, 10.018818, 9.947951 
6.95692e+3, 1.9504602e+2, -1041613.0, -1095719.3, 13.77374, 0.0018139359, 0.00006636757, -1041613.0, -13062.983, 0.0, 10.019007, 9.947607 
6.9569236e+3, 2.0498712e+2, -953575.25, -1017940.3, 41.644337, 0.0018153783, 0.00018688336, -953575.2, -22448.037, 0.0, 10.019194, 9.93442 
6.9569266e+3, 2.1492156e+2, -855106.06, -919873.5, 9.988434, 0.0018173192, -0.0000059915446, -855106.06, -21336.566, 0.0, 10.019378, 9.934076 
6.95693e+3, 2.2484921e+2, -766806.6, -841957.94, 40.059616, 0.0018177491, 0.0002394978, -766806.6, -30327.982, 0.0, 10.019564, 9.92078 
6.956934e+3, 2.3477004e+2, -668191.0, -743742.3, 14.353469, 0.0018165654, 0.000022983788, -668191.0, -28936.584, 0.0, 10.019752, 9.9204445 
6.9569373e+3, 2.4468383e+2, -579812.8, -666075.6, 36.270676, 0.0018175971, 0.00018266976, -579812.8, -37713.54, 0.0, 10.019941, 9.906793 
6.956941e+3, 2.5459075e+2, -480878.1, -567368.6, 13.274676, 0.0018210714, 0.00000074142895, -480878.1, -35866.52, 0.0, 10.020134, 9.906685 
6.956945e+3, 2.6449046e+2, -392599.7, -490343.9, 35.550377, 0.001821858, 0.00024495623, -392599.66, -44605.203, 0.0, 10.020334, 9.892366 
6.9569486e+3, 2.7438334e+2, -293118.2, -390701.7, 15.780546, 0.0018193792, -0.000105226034, -293118.2, -42074.184, 0.0, 10.020543, 9.892773 
6.956953e+3, 2.8426802e+2, -206359.42, -317295.72, 40.061443, 0.0018199701, 0.00032463824, -206359.4, -52185.39, 0.0, 10.0207615, 9.875862 
6.9569564e+3, 2.9414496e+2, -106423.836, -216917.88, 18.771402, 0.001824585, -0.00015630409, -106423.836, -49043.61, 0.0, 10.02099, 9.876644 
6.9569606e+3, 3.0404937e+2, -17198.4, -85210.44, 45.247944, 0.00182596, 0.00026551893, -17198.37, -17198.37, 0.0, 10.021233, 9.93165 
6.956965e+3, 3.139828e+2, -15812.416, -82930.52, 31.152205, 0.0018224999, 0.000025250996, -15812.401, -15812.401, 0.0, 10.021494, 9.9330635 
6.966916e+3, 1.2527286e+2, -1697892.4, -1721471.3, -38.693367, 0.0018138355, 0.0001857427, -1697892.3, 14434.902, 0.0, 10.017773, 9.986502 
6.9669193e+3, 1.3525921e+2, -1600203.4, -1624569.0, -72.82998, 0.0018149182, 0.000009382842, -1600203.3, 14257.669, 0.0, 10.018025, 9.985713 
6.966922e+3, 1.4523885e+2, -1512087.3, -1545725.0, -55.357243, 0.0018165914, 0.0002706349, -1512087.1, 4573.2905, 0.0, 10.018263, 9.973691 
6.966926e+3, 1.552125e+2, -1414104.6, -1448314.1, -89.5995, 0.0018183511, 0.00007825721, -1414104.4, 4814.146, 0.0, 10.018485, 9.973158 
6.966929e+3, 1.6517948e+2, -1325951.3, -1369667.6, -77.958244, 0.0018192752, 0.00015943071, -1325951.1, -4708.878, 0.0, 10.018695, 9.960883 
6.9669324e+3, 1.751404e+2, -1227777.5, -1271960.1, -111.506004, 0.0018195029, 0.000057286237, -1227777.3, -4152.1816, 0.0, 10.018895, 9.96047 
6.9669354e+3, 1.8509462e+2, -1139600.3, -1193565.1, -98.63746, 0.0018203317, 0.00020113411, -1139600.0, -13526.262, 0.0, 10.019088, 9.94787 
6.966939e+3, 1.950425e+2, -1041264.6, -1095631.9, -130.1526, 0.0018216408, 0.0000654203, -1041264.3, -12680.016, 0.0, 10.019272, 9.947526 
6.9669425e+3, 2.0498353e+2, -953236.5, -1017863.2, -105.81554, 0.0018227525, 0.00018581873, -953236.3, -22074.04, 0.0, 10.019455, 9.934335 
6.966946e+3, 2.1491791e+2, -854773.06, -919800.2, -139.02966, 0.0018236461, -0.00000739673, -854772.8, -20967.37, 0.0, 10.019637, 9.933991 
6.9669497e+3, 2.2484545e+2, -766469.44, -841864.3, -109.845024, 0.0018243472, 0.00023832715, -766469.3, -29953.945, 0.0, 10.019817, 9.9207115 
6.966954e+3, 2.3476623e+2, -667866.3, -743655.75, -135.69653, 0.0018248146, 0.000022651846, -667866.06, -28574.29, 0.0, 10.019999, 9.920376 
6.9669574e+3, 2.4467996e+2, -579490.7, -665983.3, -110.7615, 0.0018257085, 0.0001822803, -579490.5, -37353.266, 0.0, 10.0201845, 9.906731 
6.9669616e+3, 2.5458682e+2, -480559.34, -567278.6, -132.61668, 0.0018270469, -0.00000070739367, -480559.13, -35508.965, 0.0, 10.020375, 9.906624 
6.966965e+3, 2.6448646e+2, -392281.0, -490247.94, -104.13642, 0.0018278427, 0.00024343707, -392280.9, -44247.25, 0.0, 10.020574, 9.892311 
6.9669694e+3, 2.743793e+2, -292806.25, -390609.6, -122.07778, 0.0018279382, -0.00010561945, -292806.1, -41722.387, 0.0, 10.02078, 9.892717 
6.9669735e+3, 2.842639e+2, -206052.45, -317214.8, -87.71849, 0.001828626, 0.00032438978, -206052.39, -51838.086, 0.0, 10.020998, 9.8758 
6.966978e+3, 2.941408e+2, -106109.63, -216834.81, -106.314964, 0.0018301193, -0.00015767821, -106109.53, -48688.402, 0.0, 10.021234, 9.876581 
6.966982e+3, 3.0404514e+2, -16865.475, -85097.914, -65.03852, 0.001831273, 0.0002639915, -16865.412, -16865.412, 0.0, 10.0214815, 9.931606 
6.966986e+3, 3.1397855e+2, -15470.584, -82811.42, -74.911674, 0.0018316976, 0.000025053481, -15470.501, -15470.501, 0.0, 10.021748, 9.933022 
6.976934e+3, 1.2526971e+2, -1697970.4, -1721621.8, 47.205853, 0.0018194007, 0.00018540397, -1697970.3, 14387.661, 0.0, 10.017775, 9.986408 
6.9769377e+3, 1.3525598e+2, -1600282.4, -1624719.6, 12.769283, 0.0018234625, 0.000007410712, -1600282.4, 14210.13, 0.0, 10.018026, 9.98562 
6.9769406e+3, 1.4523552e+2, -1512166.9, -1545875.4, 18.26392, 0.0018252821, 0.00026856718, -1512166.9, 4526.1714, 0.0, 10.018263, 9.973598 
6.9769436e+3, 1.552091e+2, -1414184.8, -1448464.3, -16.246325, 0.0018246296, 0.000077465906, -1414184.8, 4767.3145, 0.0, 10.018483, 9.973064 
6.976948e+3, 1.6517594e+2, -1326030.5, -1369813.8, -12.857975, 0.0018251048, 0.00015885885, -1326030.5, -4753.815, 0.0, 10.018693, 9.9607935 
6.9769514e+3, 1.7513679e+2, -1227858.8, -1272106.9, -46.45676, 0.0018267017, 0.000055965473, -1227858.8, -4198.403, 0.0, 10.01889, 9.96038 
6.9769543e+3, 1.8509093e+2, -1139677.3, -1193701.8, -39.14825, 0.0018282646, 0.00019975692, -1139677.3, -13567.382, 0.0, 10.019082, 9.947786 
6.9769585e+3, 1.9503874e+2, -1041341.94, -1095768.3, -70.61619, 0.0018297042, 0.000064643675, -1041341.9, -12720.604, 0.0, 10.019266, 9.947443 
6.976962e+3, 2.0497969e+2, -953317.56, -1018005.7, -47.602592, 0.0018300043, 0.00018480794, -953317.56, -22117.516, 0.0, 10.019448, 9.934248 
6.9769657e+3, 2.1491396e+2, -854855.1, -919942.6, -80.9293, 0.0018291475, -0.000009475384, -854855.0, -21010.982, 0.0, 10.019629, 9.933905 
6.97697e+3, 2.2484145e+2, -766538.8, -841979.5, -51.960934, 0.0018304844, 0.00023663127, -766538.75, -29984.021, 0.0, 10.019808, 9.920643 
6.9769734e+3, 2.3476215e+2, -667937.0, -743770.9, -77.79149, 0.0018340888, 0.000022858163, -667936.94, -28605.084, 0.0, 10.019987, 9.920308 
6.9769776e+3, 2.4467582e+2, -579557.0, -666086.75, -48.69321, 0.0018346416, 0.00018239475, -579556.94, -37379.02, 0.0, 10.020171, 9.906671 
6.976982e+3, 2.5458258e+2, -480627.38, -567382.25, -70.27118, 0.0018317634, -0.0000029093676, -480627.3, -35535.85, 0.0, 10.020361, 9.906564 
6.976986e+3, 2.6448217e+2, -392345.72, -490342.34, -36.34525, 0.0018326476, 0.0002411112, -392345.7, -44270.207, 0.0, 10.020557, 9.892258 
6.97699e+3, 2.7437496e+2, -292871.4, -390703.47, -53.879784, 0.0018379914, -0.000105445884, -292871.38, -41745.293, 0.0, 10.020762, 9.892664 
6.976995e+3, 2.8425956e+2, -206123.69, -317319.1, -8.813406, 0.0018388061, 0.00032481892, -206123.69, -51866.492, 0.0, 10.02098, 9.875741 
6.976999e+3, 2.9413632e+2, -106182.71, -216940.08, -26.355844, 0.00183377, -0.00015996117, -106182.7, -48718.066, 0.0, 10.021214, 9.876521 
6.977003e+3, 3.0404064e+2, -16924.701, -85172.27, 25.28454, 0.0018344487, 0.00026128712, -16924.693, -16924.693, 0.0, 10.021461, 9.931565 
6.9770086e+3, 3.13974e+2, -15529.181, -82883.02, 16.78447, 0.0018429912, 0.000025196487, -15529.177, -15529.177, 0.0, 10.021726, 9.932983 
6.9869524e+3, 1.2526627e+2, -1697592.3, -1721534.3, -57.39974, 0.0018268639, 0.00018410996, -1697592.1, 14799.518, 0.0, 10.018061, 9.986308 
6.9869554e+3, 1.3525245e+2, -1599899.1, -1624630.0, -96.20239, 0.0018303846, 0.0000063970033, -1599898.8, 14628.493, 0.0, 10.018317, 9.98552 
6.986959e+3, 1.4523187e+2, -1511780.6, -1545784.5, -107.58909, 0.0018320654, 0.0002676512, -1511780.3, 4948.45, 0.0, 10.018557, 9.973498 
6.986963e+3, 1.5520535e+2, -1413799.4, -1448374.5, -146.15433, 0.0018316418, 0.000076470125, -1413798.8, 5189.869, 0.0, 10.018778, 9.972966 
6.986966e+3, 1.6517211e+2, -1325647.9, -1369720.4, -156.66716, 0.0018323563, 0.00015774294, -1325647.3, -4333.059, 0.0, 10.018983, 9.960699 
6.9869703e+3, 1.7513287e+2, -1227489.9, -1272021.5, -192.95715, 0.0018341901, 0.000054696447, -1227489.0, -3790.144, 0.0, 10.019174, 9.960286 
6.986974e+3, 1.8508692e+2, -1139312.9, -1193611.0, -193.11821, 0.0018355061, 0.0001985359, -1139312.3, -13162.954, 0.0, 10.019359, 9.9477005 
6.9869775e+3, 1.9503464e+2, -1040986.7, -1095683.0, -226.91481, 0.0018362331, 0.00006366037, -1040985.75, -12324.2705, 0.0, 10.019538, 9.947357 
6.9869816e+3, 2.049755e+2, -952975.4, -1017931.06, -208.40215, 0.0018367538, 0.00018395325, -952974.7, -21733.586, 0.0, 10.019714, 9.934159 
6.986985e+3, 2.1490969e+2, -854526.8, -919875.94, -242.94397, 0.0018370474, -0.000010309313, -854525.94, -20639.945, 0.0, 10.019886, 9.933816 
6.98699e+3, 2.2483708e+2, -766209.0, -841889.8, -215.71805, 0.0018381325, 0.00023563244, -766208.4, -29610.96, 0.0, 10.020058, 9.920574 
6.9869936e+3, 2.3475772e+2, -667622.6, -743689.56, -241.63013, 0.0018400083, 0.000021499864, -667621.9, -28246.625, 0.0, 10.020227, 9.920239 
6.9869983e+3, 2.4467131e+2, -579249.4, -665997.94, -208.52795, 0.0018407498, 0.00018120998, -579248.9, -37026.918, 0.0, 10.020403, 9.906612 
6.9870025e+3, 2.5457802e+2, -480334.1, -567301.1, -228.78864, 0.0018402047, -0.0000033247868, -480333.5, -35197.477, 0.0, 10.020584, 9.906506 
6.987006e+3, 2.6447758e+2, -392056.84, -490255.84, -187.20421, 0.0018410813, 0.00024073299, -392056.5, -43935.895, 0.0, 10.020775, 9.892206 
6.9870114e+3, 2.743703e+2, -292587.66, -390619.88, -202.5369, 0.0018435894, -0.000106659805, -292587.22, -41415.543, 0.0, 10.020977, 9.892613 
6.9870156e+3, 2.8425482e+2, -205847.58, -317246.16, -145.56978, 0.0018442888, 0.00032348128, -205847.38, -51544.055, 0.0, 10.021193, 9.875685 
6.9870204e+3, 2.9413155e+2, -105909.87, -216869.94, -159.83205, 0.0018427061, -0.00016047742, -105909.64, -48398.33, 0.0, 10.021425, 9.876465 
6.987025e+3, 3.0403587e+2, -16634.543, -85069.24, -90.573456, 0.0018436578, 0.00026089948, -16634.422, -16634.422, 0.0, 10.021675, 9.931532 
6.98703e+3, 3.1396917e+2, -15225.118, -82770.54, -93.72596, 0.0018478561, 0.000024038456, -15224.988, -15224.988, 0.0, 10.021949, 9.932952 
6.99697e+3, 1.2526259e+2, -1697678.3, -1721702.3, 30.092625, 0.0018352469, 0.00018219443, -1697678.3, 14749.631, 0.0, 10.0180645, 9.986203 
6.996974e+3, 1.3524865e+2, -1599985.5, -1624797.9, -9.101637, 0.0018365539, 0.000005664543, -1599985.5, 14578.932, 0.0, 10.01832, 9.985415 
6.9969773e+3, 1.4522797e+2, -1511867.6, -1545951.4, -33.754692, 0.001837962, 0.0002671087, -1511867.5, 4899.3706, 0.0, 10.018558, 9.973394 
6.9969815e+3, 1.5520135e+2, -1413888.1, -1448541.9, -72.430504, 0.0018390422, 0.00007519336, -1413888.0, 5139.97, 0.0, 10.018777, 9.972862 
6.996985e+3, 1.6516802e+2, -1325732.8, -1369877.9, -94.45203, 0.0018403118, 0.00015618387, -1325732.6, -4378.095, 0.0, 10.018981, 9.960603 
6.996989e+3, 1.7512867e+2, -1227576.0, -1272179.1, -130.85588, 0.0018418215, 0.000053283162, -1227575.6, -3835.581, 0.0, 10.01917, 9.960189 
6.9969934e+3, 1.8508261e+2, -1139394.4, -1193757.1, -135.54958, 0.0018424297, 0.0001972246, -1139394.0, -13202.677, 0.0, 10.019353, 9.947611 
6.996997e+3, 1.9503026e+2, -1041069.7, -1095829.5, -170.03694, 0.0018420849, 0.00006240646, -1041069.2, -12364.724, 0.0, 10.019531, 9.947268 
6.997001e+3, 2.0497102e+2, -953060.6, -1018079.3, -154.27629, 0.0018433015, 0.00018299691, -953060.25, -21775.246, 0.0, 10.019706, 9.934069 
6.9970053e+3, 2.1490513e+2, -854613.4, -920024.3, -188.2172, 0.0018460522, -0.000010734839, -854612.8, -20682.076, 0.0, 10.0198765, 9.933726 
6.9970095e+3, 2.2483245e+2, -766280.8, -842006.25, -161.32675, 0.0018464772, 0.00023478789, -766280.44, -29637.475, 0.0, 10.020046, 9.920506 
6.997014e+3, 2.3475301e+2, -667696.1, -743806.1, -187.11687, 0.0018444156, 0.000019236173, -667695.7, -28274.254, 0.0, 10.020214, 9.920171 
6.9970185e+3, 2.4466653e+2, -579316.2, -666097.7, -149.78891, 0.0018455746, 0.0001792374, -579315.94, -37047.15, 0.0, 10.020388, 9.906555 
6.997023e+3, 2.545732e+2, -480402.53, -567400.9, -169.99579, 0.0018503249, -0.0000030942272, -480402.2, -35218.79, 0.0, 10.020567, 9.906449 
6.9970274e+3, 2.644727e+2, -392121.13, -490344.2, -120.57827, 0.0018511533, 0.00024108819, -392120.97, -43952.496, 0.0, 10.020756, 9.892158 
6.997032e+3, 2.743654e+2, -292653.13, -390707.94, -135.25557, 0.001847182, -0.00010868797, -292652.94, -41432.87, 0.0, 10.020957, 9.892566 
6.9970363e+3, 2.8424984e+2, -205918.53, -317342.44, -67.28354, 0.0018476467, 0.00032117436, -205918.48, -51566.293, 0.0, 10.021172, 9.875632 
6.997042e+3, 2.9412654e+2, -105982.92, -216967.2, -80.67575, 0.0018540035, -0.00016035815, -105982.87, -48422.184, 0.0, 10.021402, 9.876412 
6.997047e+3, 3.0403078e+2, -16691.377, -85130.01, 2.397676, 0.0018555804, 0.0002614467, -16691.377, -16691.377, 0.0, 10.02165, 9.931502 
6.997052e+3, 3.1396404e+2, -15281.59, -82828.164, 1.0651039, 0.0018498496, 0.000022132663, -15281.59, -15281.59, 0.0, 10.021923, 9.932925 
7.0069885e+3, 1.2525858e+2, -1697258.9, -1721607.4, -78.676254, 0.0018421634, 0.00018099518, -1697258.6, 15208.399, 0.0, 10.018383, 9.986091 
7.006992e+3, 1.3524452e+2, -1599562.3, -1624701.8, -123.110214, 0.0018435218, 0.000004627348, -1599561.6, 15043.127, 0.0, 10.018642, 9.985303 
7.006997e+3, 1.4522375e+2, -1511444.3, -1545851.9, -167.67421, 0.0018450394, 0.00026603488, -1511443.4, 5364.8853, 0.0, 10.018879, 9.973286 
7.0070004e+3, 1.5519701e+2, -1413475.3, -1448448.8, -209.9854, 0.0018462902, 0.00007389329, -1413474.0, 5596.375, 0.0, 10.019093, 9.972754 
7.0070046e+3, 1.6516358e+2, -1325326.8, -1369781.9, -247.75368, 0.0018474413, 0.00015492243, -1325325.4, -3927.3433, 0.0, 10.01929, 9.9605 
7.007009e+3, 1.7512412e+2, -1227184.8, -1272091.9, -287.5021, 0.0018485525, 0.00005231206, -1227182.9, -3398.3809, 0.0, 10.019471, 9.960087 
7.007013e+3, 1.8507797e+2, -1139017.4, -1193674.6, -302.00217, 0.0018492981, 0.00019639598, -1139015.8, -12778.908, 0.0, 10.019645, 9.947512 
7.007017e+3, 1.9502552e+2, -1040712.6, -1095758.3, -341.96228, 0.001849603, 0.00006157627, -1040710.5, -11959.611, 0.0, 10.019811, 9.947168 
7.007021e+3, 2.0496619e+2, -952712.6, -1017998.3, -331.56943, 0.0018506077, 0.00018213851, -952710.94, -21378.613, 0.0, 10.019974, 9.933984 
7.0070255e+3, 2.1490021e+2, -854286.2, -919954.8, -363.98883, 0.0018522824, -0.00001164804, -854284.1, -20305.23, 0.0, 10.020132, 9.9336405 
7.0070297e+3, 2.2482744e+2, -765960.4, -841920.2, -337.79395, 0.0018529107, 0.00023385209, -765958.9, -29266.965, 0.0, 10.020288, 9.920438 
7.0070344e+3, 2.3474795e+2, -667397.75, -743731.75, -363.22934, 0.0018524014, 0.000018314679, -667396.0, -27924.959, 0.0, 10.020443, 9.920103 
7.007039e+3, 2.446614e+2, -579029.5, -666017.5, -321.49365, 0.0018534391, 0.00017825689, -579028.3, -36709.305, 0.0, 10.020604, 9.906499 
7.0070434e+3, 2.54568e+2, -480134.4, -567330.4, -341.12924, 0.001856183, -0.000004219092, -480133.06, -34898.9, 0.0, 10.020773, 9.906393 
7.007048e+3, 2.6446745e+2, -391859.63, -490264.13, -282.3482, 0.0018570247, 0.00024000568, -391858.84, -43639.082, 0.0, 10.020952, 9.892114 
7.0070535e+3, 2.7436012e+2, -292403.8, -390633.94, -293.99704, 0.0018554983, -0.00010949014, -292402.94, -41131.2, 0.0, 10.021146, 9.892522 
7.007058e+3, 2.8424454e+2, -205683.55, -317283.3, -213.12502, 0.0018560658, 0.00032046123, -205683.14, -51278.793, 0.0, 10.021354, 9.875582 
7.007063e+3, 2.9412115e+2, -105755.47, -216912.95, -223.66582, 0.0018594604, -0.0001612169, -105755.016, -48141.688, 0.0, 10.021581, 9.876362 
7.0070684e+3, 3.0402535e+2, -16446.195, -85035.24, -119.45894, 0.0018608171, 0.00026061622, -16445.988, -16445.988, 0.0, 10.021829, 9.93148 
7.007074e+3, 3.1395862e+2, -15026.912, -82725.28, -114.32407, 0.0018587533, 0.000021687667, -15026.72, -15026.72, 0.0, 10.022107, 9.932907 
7.017007e+3, 1.2525432e+2, -1697353.5, -1721796.1, 10.403343, 0.0018484079, 0.00017997778, -1697353.5, 15155.308, 0.0, 10.018389, 9.985971 
7.0170105e+3, 1.3524014e+2, -1599658.8, -1624890.9, -34.403637, 0.0018509078, 0.0000032430787, -1599658.8, 14988.952, 0.0, 10.018646, 9.985185 
7.017015e+3, 1.4521925e+2, -1511538.1, -1546033.4, -95.90213, 0.0018527082, 0.00026451156, -1511537.9, 5314.525, 0.0, 10.018881, 9.973173 
7.0170194e+3, 1.551924e+2, -1413570.3, -1448630.3, -138.55281, 0.0018534816, 0.000072415125, -1413569.8, 5545.841, 0.0, 10.0190935, 9.97264 
7.017024e+3, 1.6515885e+2, -1325417.6, -1369953.3, -188.86801, 0.001854195, 0.00015363356, -1325416.9, -3972.6401, 0.0, 10.019289, 9.960394 
7.0170283e+3, 1.751193e+2, -1227277.4, -1272263.6, -228.67404, 0.0018549034, 0.00005135527, -1227276.1, -3444.3447, 0.0, 10.019468, 9.959981 
7.0170325e+3, 1.8507305e+2, -1139111.6, -1193846.1, -248.84239, 0.001856175, 0.00019559482, -1139110.5, -12825.316, 0.0, 10.01964, 9.947407 
7.0170367e+3, 1.9502048e+2, -1040809.3, -1095930.5, -289.09784, 0.001857901, 0.000060757226, -1040807.75, -12007.506, 0.0, 10.019804, 9.947063 
7.017041e+3, 2.0496105e+2, -952794.8, -1018138.44, -281.68283, 0.0018582754, 0.0001811407, -952793.56, -21410.951, 0.0, 10.019964, 9.933899 
7.0170456e+3, 2.14895e+2, -854370.5, -920095.56, -313.83414, 0.0018572636, -0.000012991369, -854369.0, -20338.95, 0.0, 10.020121, 9.933556 
7.0170504e+3, 2.2482215e+2, -766033.94, -842035.9, -288.78378, 0.00185848, 0.00023267536, -766032.9, -29289.064, 0.0, 10.020275, 9.92037 
7.0170546e+3, 2.3474258e+2, -667473.5, -743847.75, -314.3356, 0.0018620155, 0.000017841292, -667472.2, -27948.617, 0.0, 10.020428, 9.920036 
7.0170593e+3, 2.44656e+2, -579098.8, -666117.25, -267.54056, 0.001862685, 0.00017756765, -579097.94, -36725.84, 0.0, 10.020587, 9.906443 
7.0170647e+3, 2.5456256e+2, -480204.84, -567429.9, -286.7353, 0.0018601059, -0.000006159312, -480203.9, -34916.066, 0.0, 10.020754, 9.906338 
7.0170695e+3, 2.644619e+2, -391922.2, -490343.53, -218.57938, 0.0018609737, 0.00023807464, -391921.7, -43647.785, 0.0, 10.020931, 9.892072 
7.017074e+3, 2.7435452e+2, -292469.3, -390713.6, -229.74495, 0.0018659305, -0.000109899476, -292468.78, -41142.49, 0.0, 10.021122, 9.892481 
7.0170796e+3, 2.8423893e+2, -205756.39, -317374.3, -136.62932, 0.0018667605, 0.0003203347, -205756.22, -51296.902, 0.0, 10.021328, 9.875535 
7.017085e+3, 2.941155e+2, -105829.01, -217004.39, -145.79709, 0.001862277, -0.0001627332, -105828.81, -48160.027, 0.0, 10.021555, 9.876313 
7.0170903e+3, 3.0401966e+2, -16498.594, -85079.414, -24.371172, 0.001863023, 0.00025897837, -16498.586, -16498.586, 0.0, 10.021801, 9.931464 
7.017096e+3, 3.1395292e+2, -15081.374, -82766.55, -17.256598, 0.0018707206, 0.00002173163, -15081.37, -15081.37, 0.0, 10.022076, 9.932894 
7.027025e+3, 1.2524974e+2, -1696880.5, -1721688.5, -102.43777, 0.0018553787, 0.00017915902, -1696880.0, 15673.535, 0.0, 10.018747, 9.985846 
7.02703e+3, 1.3523544e+2, -1599192.8, -1624787.9, -152.72943, 0.0018581399, 0.0000017147009, -1599191.8, 15501.938, 0.0, 10.019002, 9.985058 
7.027034e+3, 1.4521444e+2, -1511077.0, -1545927.5, -236.9819, 0.0018598265, 0.00026301204, -1511075.4, 5824.2866, 0.0, 10.019232, 9.973052 
7.0270383e+3, 1.5518746e+2, -1413122.4, -1448532.3, -284.63724, 0.0018601663, 0.00007161181, -1413120.1, 6043.8877, 0.0, 10.019438, 9.97252 
7.0270437e+3, 1.6515379e+2, -1324979.0, -1369850.5, -353.09897, 0.0018608959, 0.00015285905, -1324976.3, -3482.442, 0.0, 10.019624, 9.960282 
7.027048e+3, 1.7511414e+2, -1226860.4, -1272173.4, -396.3374, 0.0018620269, 0.000049994567, -1226856.9, -2974.4006, 0.0, 10.019791, 9.959869 
7.027052e+3, 1.8506774e+2, -1138720.3, -1193770.9, -427.52814, 0.0018632887, 0.00019430889, -1138716.9, -12379.955, 0.0, 10.019947, 9.947295 
7.027057e+3, 1.9501507e+2, -1040447.5, -1095871.5, -471.69617, 0.0018645875, 0.000060181224, -1040443.5, -11590.365, 0.0, 10.020094, 9.946951 
7.027061e+3, 2.0495555e+2, -952439.44, -1018050.9, -469.8503, 0.0018650224, 0.00018057015, -952436.06, -20999.633, 0.0, 10.020236, 9.933816 
7.027066e+3, 2.148894e+2, -854045.1, -920024.2, -502.14172, 0.0018645606, -0.000014264309, -854041.3, -19956.63, 0.0, 10.020374, 9.933473 
7.0270705e+3, 2.248165e+2, -765725.8, -841956.56, -479.2386, 0.0018657326, 0.00023133545, -765722.8, -28923.643, 0.0, 10.020511, 9.920301 
7.027075e+3, 2.3473686e+2, -667194.5, -743783.8, -505.30093, 0.0018685895, 0.000017110993, -667191.2, -27611.594, 0.0, 10.020645, 9.919969 
7.02708e+3, 2.4465021e+2, -578833.56, -666043.06, -452.40366, 0.0018692738, 0.00017693375, -578831.2, -36402.47, 0.0, 10.020788, 9.90639 
7.027085e+3, 2.5455672e+2, -479961.88, -567366.94, -469.4158, 0.0018674921, -0.0000072766406, -479959.38, -34614.402, 0.0, 10.020941, 9.906285 
7.02709e+3, 2.6445606e+2, -391692.66, -490273.1, -391.65698, 0.0018683418, 0.00023695921, -391691.1, -43359.605, 0.0, 10.021103, 9.892033 
7.027095e+3, 2.7434865e+2, -292264.0, -390655.06, -400.49057, 0.0018722736, -0.0001104123, -292262.38, -40878.14, 0.0, 10.021278, 9.892443 
7.0271003e+3, 2.8423297e+2, -205569.03, -317328.53, -290.1389, 0.0018730693, 0.000319812, -205568.27, -51050.617, 0.0, 10.021474, 9.875493 
7.027106e+3, 2.941095e+2, -105647.164, -216962.05, -294.22958, 0.0018698779, -0.00016404632, -105646.39, -47918.86, 0.0, 10.021698, 9.876272 
7.027112e+3, 3.0401364e+2, -16301.351, -84994.03, -150.57838, 0.0018707359, 0.0002574912, -16301.0205, -16301.0205, 0.0, 10.02194, 9.931455 
7.027118e+3, 3.139469e+2, -14888.725, -82679.48, -137.19414, 0.0018767454, 0.000021072268, -14888.447, -14888.447, 0.0, 10.02221, 9.932887 
7.037044e+3, 1.252449e+2, -1696985.3, -1721899.3, -14.433226, 0.0018627394, 0.00017824843, -1696985.3, 15615.794, 0.0, 10.018755, 9.985713 
7.037049e+3, 1.3523047e+2, -1599298.3, -1624998.3, -65.173584, 0.0018653201, -0.00000004482005, -1599298.1, 15444.376, 0.0, 10.019008, 9.984925 
7.037054e+3, 1.4520934e+2, -1511179.3, -1546129.0, -167.72313, 0.0018667058, 0.0002613605, -1511178.4, 5771.193, 0.0, 10.019236, 9.972925 
7.037058e+3, 1.5518223e+2, -1413226.9, -1448734.3, -215.65273, 0.0018666694, 0.00007091835, -1413225.5, 5989.65, 0.0, 10.019439, 9.972393 
7.037063e+3, 1.6514845e+2, -1325076.9, -1370036.1, -298.73477, 0.0018676223, 0.00015211762, -1325074.9, -3528.6594, 0.0, 10.019623, 9.960167 
7.0370674e+3, 1.7510867e+2, -1226960.4, -1272359.8, -342.1141, 0.0018695326, 0.000048271053, -1226957.9, -3021.7942, 0.0, 10.019788, 9.959754 
7.037072e+3, 1.8506218e+2, -1138823.6, -1193959.9, -381.1067, 0.0018705268, 0.0001926171, -1138821.0, -12429.324, 0.0, 10.019942, 9.947178 
7.037077e+3, 1.9500938e+2, -1040553.2, -1096061.3, -425.2594, 0.0018705525, 0.000059494712, -1040549.94, -11641.006, 0.0, 10.020086, 9.946835 
7.037082e+3, 2.0494977e+2, -952522.1, -1018190.9, -426.59534, 0.0018713655, 0.00017998001, -952519.4, -21026.156, 0.0, 10.0202265, 9.933732 
7.0370865e+3, 2.1488354e+2, -854131.5, -920165.5, -459.03662, 0.0018729395, -0.000015680633, -854128.3, -19986.02, 0.0, 10.020361, 9.933389 
7.0370907e+3, 2.2481054e+2, -765803.06, -842075.6, -437.27423, 0.0018737667, 0.00022974885, -765800.56, -28943.03, 0.0, 10.020495, 9.920233 
7.0370954e+3, 2.3473084e+2, -667272.94, -743902.7, -463.15942, 0.0018737558, 0.000016045979, -667270.1, -27631.502, 0.0, 10.020628, 9.9199 
7.037101e+3, 2.4464412e+2, -578901.06, -666135.3, -403.5522, 0.001874618, 0.00017610982, -578899.2, -36410.813, 0.0, 10.020769, 9.906341 
7.037106e+3, 2.5455058e+2, -480033.44, -567460.2, -420.39536, 0.0018764517, -0.000008181968, -480031.4, -34626.332, 0.0, 10.020918, 9.906236 
7.0371115e+3, 2.6444986e+2, -391757.28, -490347.72, -334.21533, 0.0018772663, 0.0002360639, -391756.16, -43364.125, 0.0, 10.021078, 9.891996 
7.037117e+3, 2.7434242e+2, -292328.7, -390728.53, -342.26355, 0.0018767262, -0.00011119774, -292327.5, -40882.367, 0.0, 10.021253, 9.892406 
7.037122e+3, 2.8422672e+2, -205637.44, -317405.0, -214.6377, 0.0018773343, 0.0003189088, -205637.02, -51058.117, 0.0, 10.021446, 9.875457 
7.037128e+3, 2.941032e+2, -105721.055, -217040.89, -217.4005, 0.0018796213, -0.00016542178, -105720.63, -47931.492, 0.0, 10.021666, 9.876235 
7.037134e+3, 3.0400732e+2, -16354.166, -85024.29, -57.860542, 0.0018809381, 0.00025598585, -16354.117, -16354.117, 0.0, 10.021906, 9.931451 
7.037141e+3, 3.1394058e+2, -14938.557, -82704.14, -42.287704, 0.0018800471, 0.00001990234, -14938.53, -14938.53, 0.0, 10.022176, 9.932887 
7.047063e+3, 1.2523976e+2, -1696456.1, -1721779.5, -129.94183, 0.0018700544, 0.00017715374, -1696455.4, 16196.004, 0.0, 10.019156, 9.985571 
7.047068e+3, 1.3522519e+2, -1598777.1, -1624883.9, -187.08247, 0.0018720685, -0.0000006337498, -1598775.8, 16018.508, 0.0, 10.019406, 9.984783 
7.0470726e+3, 1.452039e+2, -1510667.1, -1546011.5, -316.01648, 0.0018734162, 0.00026072908, -1510664.3, 6338.508, 0.0, 10.019626, 9.972792 
7.0470774e+3, 1.5517667e+2, -1412738.6, -1448630.4, -369.06732, 0.0018738634, 0.000069735914, -1412734.9, 6534.8105, 0.0, 10.019815, 9.9722595 
7.047083e+3, 1.6514276e+2, -1324605.0, -1369927.8, -472.37497, 0.001874818, 0.00015088257, -1324600.1, -2998.1501, 0.0, 10.019984, 9.960046 
7.0470876e+3, 1.7510286e+2, -1226519.0, -1272268.5, -519.799, 0.0018762624, 0.000047462447, -1226513.1, -2520.1777, 0.0, 10.020131, 9.959632 
7.0470923e+3, 1.8505624e+2, -1138414.0, -1193885.1, -571.40924, 0.0018770891, 0.00019177457, -1138408.0, -11958.347, 0.0, 10.020266, 9.947058 
7.047097e+3, 1.9500335e+2, -1040179.4, -1096006.0, -618.55347, 0.0018772396, 0.000058172423, -1040172.56, -11204.34, 0.0, 10.020389, 9.946714 
7.047102e+3, 2.049436e+2, -952159.7, -1018103.4, -627.26685, 0.0018783105, 0.00017872767, -952153.75, -20600.209, 0.0, 10.020504, 9.933645 
7.047107e+3, 2.1487729e+2, -853811.44, -920100.56, -661.5737, 0.0018802742, -0.000016309152, -853804.8, -19601.389, 0.0, 10.020613, 9.933302 
7.047112e+3, 2.2480422e+2, -765504.7, -842000.0, -640.3463, 0.0018809151, 0.000229126, -765499.3, -28579.92, 0.0, 10.020723, 9.920166 
7.047117e+3, 2.3472446e+2, -667006.9, -743843.8, -665.57635, 0.0018801045, 0.000014776534, -667001.1, -27299.934, 0.0, 10.020836, 9.919833 
7.0471215e+3, 2.4463768e+2, -578657.1, -666068.0, -601.15155, 0.0018809959, 0.00017490398, -578653.0, -36101.51, 0.0, 10.020954, 9.906291 
7.047127e+3, 2.5454408e+2, -479829.34, -567412.9, -616.9322, 0.001883794, -0.000008522366, -479825.0, -34356.32, 0.0, 10.021077, 9.906188 
7.047132e+3, 2.6444334e+2, -391570.28, -490289.34, -517.3571, 0.0018846449, 0.00023571041, -391567.6, -43111.566, 0.0, 10.021218, 9.891965 
7.047138e+3, 2.7433583e+2, -292160.25, -390678.78, -521.27924, 0.0018829975, -0.00011261771, -292157.5, -40648.08, 0.0, 10.02138, 9.892377 
7.0471436e+3, 2.8422013e+2, -205494.27, -317371.8, -376.92444, 0.0018835167, 0.00031745664, -205493.0, -50849.496, 0.0, 10.021559, 9.875423 
7.04715e+3, 2.940966e+2, -105606.75, -217022.53, -375.9124, 0.0018870773, -0.00016550922, -105605.484, -47751.42, 0.0, 10.021759, 9.876203 
7.047156e+3, 3.040007e+2, -16226.552, -84955.41, -187.87067, 0.0018885672, 0.00025620195, -16226.039, -16226.039, 0.0, 10.02199, 9.931456 
7.0471627e+3, 3.1393397e+2, -14800.769, -82625.42, -163.59358, 0.0018861552, 0.00001900584, -14800.374, -14800.374, 0.0, 10.022265, 9.932897 
7.057082e+3, 1.2523435e+2, -1696570.6, -1722014.9, -42.657993, 0.0018773633, 0.00017578636, -1696570.5, 16133.937, 0.0, 10.019167, 9.985421 
7.0570874e+3, 1.3521962e+2, -1598894.1, -1625119.9, -100.38, 0.0018786772, -0.0000009055735, -1598893.8, 15955.008, 0.0, 10.019414, 9.984633 
7.057093e+3, 1.451982e+2, -1510779.0, -1546233.9, -251.65076, 0.0018801083, 0.0002603599, -1510777.1, 6281.5195, 0.0, 10.01963, 9.9726515 
7.0570976e+3, 1.5517083e+2, -1412852.5, -1448853.1, -304.95105, 0.0018814078, 0.00006814449, -1412850.0, 6477.0034, 0.0, 10.019818, 9.972119 
7.0571023e+3, 1.6513678e+2, -1324710.4, -1370130.3, -424.44595, 0.0018822512, 0.00014923823, -1324706.4, -3045.8667, 0.0, 10.019984, 9.959919 
7.0571077e+3, 1.7509675e+2, -1226627.1, -1272471.9, -471.9991, 0.0018826728, 0.000046865385, -1226622.3, -2569.4805, 0.0, 10.020129, 9.959505 
7.0571125e+3, 1.8505003e+2, -1138523.8, -1194086.8, -532.9863, 0.0018833856, 0.00019111657, -1138518.8, -12007.889, 0.0, 10.020261, 9.946934 
7.057117e+3, 1.9499698e+2, -1040293.0, -1096208.9, -580.15424, 0.0018843075, 0.0000563744, -1040286.94, -11256.438, 0.0, 10.02038, 9.946589 
7.0571226e+3, 2.0493715e+2, -952248.06, -1018252.2, -593.9495, 0.0018855532, 0.00017698234, -952242.7, -20625.828, 0.0, 10.0204935, 9.933556 
7.0571274e+3, 2.1487072e+2, -853902.0, -920249.8, -628.2585, 0.001887087, -0.000016806674, -853896.06, -19628.412, 0.0, 10.020599, 9.933213 
7.057132e+3, 2.2479759e+2, -765581.5, -842116.25, -605.5306, 0.0018876203, 0.00022872632, -765576.7, -28592.295, 0.0, 10.020707, 9.920099 
7.0571375e+3, 2.3471776e+2, -667088.2, -743961.5, -630.8075, 0.0018870437, 0.000013243251, -667083.06, -27316.217, 0.0, 10.020817, 9.919767 
7.057143e+3, 2.4463092e+2, -578727.8, -666159.1, -562.27594, 0.0018878826, 0.00017334864, -578724.2, -36106.48, 0.0, 10.020931, 9.906243 
7.057148e+3, 2.5453728e+2, -479900.78, -567503.25, -577.7136, 0.0018903047, -0.0000088453735, -479896.97, -34361.645, 0.0, 10.021053, 9.90614 
7.0571536e+3, 2.6443648e+2, -391630.25, -490350.66, -464.06958, 0.0018912147, 0.00023538369, -391628.06, -43105.03, 0.0, 10.021192, 9.891938 
7.057159e+3, 2.7432898e+2, -292225.63, -390741.2, -467.16446, 0.0018901394, -0.000114474635, -292223.4, -40646.695, 0.0, 10.021349, 9.892351 
7.0571655e+3, 2.8421322e+2, -205566.2, -317441.78, -308.7927, 0.0018906188, 0.00031563628, -205565.34, -50854.28, 0.0, 10.021524, 9.875394 
7.0571715e+3, 2.9408967e+2, -105678.836, -217092.47, -306.29346, 0.0018933584, -0.0001652847, -105678.0, -47756.094, 0.0, 10.021725, 9.876172 
7.057178e+3, 3.0399373e+2, -16270.75, -84962.31, -92.880295, 0.0018948707, 0.00025696054, -16270.625, -16270.625, 0.0, 10.021954, 9.931469 
7.057185e+3, 3.1392702e+2, -14849.453, -82629.08, -65.695694, 0.0018935777, 0.000018064158, -14849.39, -14849.39, 0.0, 10.022223, 9.932915 
7.0671016e+3, 1.2522863e+2, -1695968.4, -1721877.0, -159.65904, 0.0018838004, 0.00017451643, -1695967.4, 16793.092, 0.0, 10.019624, 9.985261 
7.067107e+3, 1.3521375e+2, -1598313.5, -1624994.6, -224.75896, 0.0018858255, -0.0000021772935, -1598311.6, 16594.701, 0.0, 10.019859, 9.984474 
7.0671123e+3, 1.4519218e+2, -1510213.9, -1546104.1, -405.75604, 0.0018873629, 0.00025923908, -1510209.3, 6908.5293, 0.0, 10.0200615, 9.972504 
7.0671177e+3, 1.5516464e+2, -1412318.4, -1448740.9, -464.57672, 0.0018882633, 0.00006731311, -1412312.4, 7075.1045, 0.0, 10.020231, 9.9719715 
7.067123e+3, 1.6513047e+2, -1324198.3, -1370013.8, -606.66766, 0.0018889196, 0.00014845711, -1324190.3, -2467.84, 0.0, 10.020377, 9.959786 
7.067128e+3, 1.750903e+2, -1226154.5, -1272377.4, -658.54333, 0.0018893362, 0.000045925506, -1226145.1, -2029.1869, 0.0, 10.020498, 9.9593725 
7.0671326e+3, 1.8504342e+2, -1138091.5, -1194010.1, -734.7927, 0.0018903004, 0.00019015331, -1138081.9, -11506.609, 0.0, 10.020603, 9.946804 
7.067138e+3, 1.9499026e+2, -1039909.0, -1096158.5, -785.4592, 0.0018917276, 0.000055520897, -1039898.0, -10801.755, 0.0, 10.020693, 9.946461 
7.0671433e+3, 2.0493034e+2, -951879.4, -1018165.94, -806.64484, 0.0018925858, 0.0001760757, -951869.56, -20185.828, 0.0, 10.020777, 9.933465 
7.067148e+3, 2.1486384e+2, -853578.9, -920187.6, -842.35834, 0.0018928235, -0.000017933184, -853568.2, -19232.828, 0.0, 10.020855, 9.933123 
7.0671535e+3, 2.247906e+2, -765288.6, -842043.25, -821.3241, 0.0018936741, 0.00022773792, -765279.9, -28226.955, 0.0, 10.020932, 9.9200325 
7.067158e+3, 2.347107e+2, -666848.3, -743915.6, -846.87, 0.0018951383, 0.000012781336, -666839.0, -27003.057, 0.0, 10.021008, 9.919701 
7.0671636e+3, 2.4462381e+2, -578515.4, -666102.4, -770.92065, 0.0018958229, 0.00017278643, -578508.56, -35821.207, 0.0, 10.021093, 9.9061985 
7.0671695e+3, 2.5453013e+2, -479723.25, -567463.7, -784.08777, 0.0018955909, -0.000010224391, -479716.25, -34110.79, 0.0, 10.021193, 9.906096 
7.067175e+3, 2.6442933e+2, -391477.03, -490299.94, -657.65283, 0.001896507, 0.00023407226, -391472.66, -42879.184, 0.0, 10.021305, 9.891915 
7.067181e+3, 2.7432176e+2, -292117.7, -390712.13, -657.3437, 0.0018986749, -0.00011461607, -292113.3, -40465.95, 0.0, 10.021432, 9.892329 
7.067187e+3, 2.84206e+2, -205490.69, -317429.8, -476.80472, 0.0018992951, 0.000315501, -205488.66, -50706.72, 0.0, 10.021586, 9.875371 
7.0671934e+3, 2.940824e+2, -105617.5, -217087.66, -468.20792, 0.0018980777, -0.0001669293, -105615.53, -47622.53, 0.0, 10.021777, 9.87615 
7.0672e+3, 3.0398652e+2, -16197.944, -84902.2, -225.88077, 0.0018992232, 0.00025503716, -16197.202, -16197.202, 0.0, 10.021993, 9.93149 
7.067207e+3, 3.139198e+2, -14800.639, -82575.06, -190.55392, 0.0019026811, 0.000017806777, -14800.103, -14800.103, 0.0, 10.0222435, 9.9329405 
7.077121e+3, 1.2522265e+2, -1696096.1, -1722142.0, -76.369415, 0.0018899388, 0.0001731434, -1696095.9, 16723.15, 0.0, 10.019636, 9.985091 
7.077127e+3, 1.352076e+2, -1598443.5, -1625259.9, -141.89377, 0.0018932543, -0.000004101484, -1598442.8, 16523.875, 0.0, 10.019869, 9.984304 
7.0771325e+3, 1.4518586e+2, -1510334.6, -1546348.1, -347.36523, 0.0018948888, 0.00025757673, -1510331.4, 6848.3, 0.0, 10.020068, 9.972348 
7.0771384e+3, 1.5515818e+2, -1412441.6, -1448985.4, -406.59235, 0.0018948517, 0.000066626264, -1412437.1, 7013.6895, 0.0, 10.020236, 9.971817 
7.077143e+3, 1.6512385e+2, -1324311.8, -1370234.0, -567.1464, 0.0018952983, 0.0001478711, -1324304.8, -2517.5017, 0.0, 10.020378, 9.959648 
7.0771486e+3, 1.7508355e+2, -1226272.0, -1272599.1, -619.0283, 0.0018961803, 0.000044614462, -1226263.8, -2081.6372, 0.0, 10.020496, 9.959234 
7.0771533e+3, 1.8503654e+2, -1138209.3, -1194226.8, -707.1891, 0.0018975306, 0.00018883817, -1138200.4, -11557.61, 0.0, 10.020598, 9.946671 
7.0771587e+3, 1.9498324e+2, -1040030.0, -1096376.0, -757.94794, 0.001899275, 0.000054893917, -1040019.8, -10854.729, 0.0, 10.020685, 9.946327 
7.0771635e+3, 2.0492318e+2, -951971.25, -1018320.56, -783.494, 0.0018995121, 0.00017535794, -951962.0, -20208.377, 0.0, 10.020766, 9.9333725 
7.077169e+3, 2.148566e+2, -853675.0, -920343.7, -819.25757, 0.0018981711, -0.000019545914, -853664.94, -19258.758, 0.0, 10.020841, 9.933031 
7.077174e+3, 2.247833e+2, -765368.94, -842162.1, -799.24725, 0.0018994887, 0.000226273, -765360.6, -28236.125, 0.0, 10.020914, 9.919966 
7.077179e+3, 2.3470332e+2, -666931.06, -744034.75, -824.80884, 0.0019036119, 0.0000125705865, -666922.2, -27014.023, 0.0, 10.020987, 9.919634 
7.077185e+3, 2.4461639e+2, -578583.6, -666185.7, -739.9684, 0.001904108, 0.00017246007, -578577.4, -35817.246, 0.0, 10.02107, 9.906157 
7.07719e+3, 2.5452265e+2, -479796.84, -567548.3, -752.7357, 0.0019004339, -0.000012236143, -479790.38, -34111.746, 0.0, 10.021165, 9.906055 
7.077196e+3, 2.6442182e+2, -391538.66, -490353.44, -615.88904, 0.0019013167, 0.0002321669, -391534.8, -42867.848, 0.0, 10.021274, 9.891895 
7.077202e+3, 2.7431422e+2, -292180.47, -390764.44, -614.78394, 0.0019076124, -0.0001142459, -292176.63, -40455.605, 0.0, 10.021399, 9.892311 
7.077209e+3, 2.8419846e+2, -205557.03, -317482.53, -411.6452, 0.0019084418, 0.00031590895, -205555.52, -50699.742, 0.0, 10.02155, 9.875354 
7.0772153e+3, 2.9407486e+2, -105690.69, -217143.28, -401.03625, 0.001902237, -0.00016954652, -105689.25, -47622.223, 0.0, 10.021736, 9.876133 
7.077222e+3, 3.0397895e+2, -16242.5205, -84891.51, -137.9342, 0.0019028682, 0.00025185515, -16242.243, -16242.243, 0.0, 10.021948, 9.931519 
7.0772296e+3, 3.139123e+2, -14842.341, -82557.1, -99.925255, 0.0019122104, 0.000017610762, -14842.193, -14842.193, 0.0, 10.022199, 9.932975 
7.087141e+3, 1.2521638e+2, -1695415.6, -1721983.9, -193.32753, 0.0018975608, 0.0001728662, -1695414.3, 17466.277, 0.0, 10.020151, 9.984913 
7.087147e+3, 1.3520114e+2, -1597791.1, -1625118.1, -266.32153, 0.0018999282, -0.0000052342994, -1597788.5, 17241.293, 0.0, 10.020369, 9.984126 
7.0871526e+3, 1.4517923e+2, -1509704.9, -1546203.3, -505.12198, 0.0019012261, 0.00025631103, -1509697.9, 7546.6274, 0.0, 10.020549, 9.972184 
7.087158e+3, 1.551514e+2, -1411854.1, -1448864.1, -571.12256, 0.0019014894, 0.000065895205, -1411845.3, 7672.0337, 0.0, 10.020691, 9.971652 
7.087164e+3, 1.651169e+2, -1323754.0, -1370106.6, -757.6297, 0.0019022756, 0.00014711785, -1323741.6, -1886.3663, 0.0, 10.020805, 9.959503 
7.0871687e+3, 1.7507645e+2, -1225766.3, -1272500.4, -814.01086, 0.0019035122, 0.00004333569, -1225752.1, -1500.5955, 0.0, 10.020892, 9.95909 
7.087174e+3, 1.8502933e+2, -1137751.9, -1194148.6, -918.9536, 0.0019044747, 0.0001876513, -1137737.0, -11023.419, 0.0, 10.020962, 9.946531 
7.0871794e+3, 1.949759e+2, -1039627.06, -1096327.3, -973.54926, 0.0019051142, 0.000054406693, -1039610.4, -10373.157, 0.0, 10.021015, 9.946188 
7.087185e+3, 2.0491572e+2, -951590.6, -1018232.6, -1008.17834, 0.0019057082, 0.00017494387, -951575.4, -19748.512, 0.0, 10.021059, 9.933278 
7.08719e+3, 2.1484903e+2, -853357.75, -920288.94, -1045.5154, 0.0019062118, -0.000020528852, -853341.44, -18861.03, 0.0, 10.021094, 9.932937 
7.0871955e+3, 2.2477566e+2, -765088.75, -842095.6, -1026.3553, 0.0019071867, 0.00022509236, -765075.06, -27875.572, 0.0, 10.021131, 9.919898 
7.087201e+3, 2.346956e+2, -666704.8, -743995.75, -1051.8505, 0.0019086142, 0.000011596365, -666690.5, -26706.666, 0.0, 10.021169, 9.919568 
7.087206e+3, 2.4460861e+2, -578393.44, -666134.4, -959.7197, 0.0019093365, 0.00017174339, -578382.94, -35546.633, 0.0, 10.0212145, 9.906117 
7.0872116e+3, 2.5451484e+2, -479666.4, -567526.44, -970.4653, 0.0019092362, -0.0000126386985, -479655.7, -33900.49, 0.0, 10.02127, 9.906017 
7.0872176e+3, 2.6441398e+2, -391439.88, -490319.5, -817.5953, 0.0019101044, 0.00023161533, -391433.13, -42689.32, 0.0, 10.021346, 9.891882 
7.0872235e+3, 2.743064e+2, -292119.03, -390747.75, -812.02167, 0.0019119398, -0.0001154967, -292112.34, -40314.367, 0.0, 10.021446, 9.892298 
7.08723e+3, 2.841906e+2, -205535.2, -317483.4, -585.6969, 0.0019125306, 0.00031470924, -205532.14, -50599.316, 0.0, 10.02157, 9.875343 
7.0872366e+3, 2.94067e+2, -105713.9, -217166.1, -569.0954, 0.0019117737, -0.00016964613, -105711.0, -47566.82, 0.0, 10.021725, 9.876122 
7.0872444e+3, 3.0397108e+2, -16259.525, -84854.38, -271.04605, 0.0019129276, 0.00025190663, -16258.455, -16258.455, 0.0, 10.021916, 9.931559 
7.0872515e+3, 3.139045e+2, -14863.41, -82515.5, -222.75752, 0.0019154146, 0.00001657795, -14862.676, -14862.676, 0.0, 10.0221615, 9.93302 
7.0971614e+3, 1.2520987e+2, -1695555.1, -1722277.5, -115.19263, 0.0019058889, 0.00017286836, -1695554.6, 17389.836, 0.0, 10.020166, 9.984724 
7.0971674e+3, 1.3519442e+2, -1597933.5, -1625412.3, -188.87056, 0.0019063476, -0.0000061787105, -1597932.3, 17163.365, 0.0, 10.020381, 9.983938 
7.0971733e+3, 1.4517234e+2, -1509838.1, -1546474.8, -455.57385, 0.0019071195, 0.00025507133, -1509832.4, 7479.6104, 0.0, 10.020557, 9.972012 
7.097179e+3, 1.5514433e+2, -1411990.9, -1449136.5, -521.6973, 0.0019082224, 0.000064920074, -1411983.5, 7603.042, 0.0, 10.020697, 9.971479 
7.0971847e+3, 1.6510968e+2, -1323875.9, -1370345.0, -729.14984, 0.0019095605, 0.00014607397, -1323864.5, -1938.453, 0.0, 10.020808, 9.959353 
7.09719e+3, 1.750691e+2, -1225892.1, -1272740.1, -785.3017, 0.0019110623, 0.000041898307, -1225878.9, -1555.0614, 0.0, 10.020891, 9.95894 
7.0971954e+3, 1.8502179e+2, -1137877.5, -1194381.3, -902.9381, 0.001911313, 0.00018634631, -1137863.0, -11075.741, 0.0, 10.020957, 9.946387 
7.097201e+3, 1.9496821e+2, -1039757.1, -1096561.6, -957.92224, 0.0019102929, 0.0000537377, -1039741.0, -10428.638, 0.0, 10.021007, 9.946044 
7.0972055e+3, 2.0490791e+2, -951686.8, -1018394.2, -999.6803, 0.0019116347, 0.00017442106, -951671.9, -19768.627, 0.0, 10.021048, 9.933182 
7.097211e+3, 2.1484114e+2, -853457.6, -920451.44, -1037.1343, 0.0019153452, -0.000021428124, -853441.56, -18883.861, 0.0, 10.021079, 9.93284 
7.097216e+3, 2.2476767e+2, -765170.3, -842214.75, -1016.70184, 0.0019156376, 0.00022386563, -765156.94, -27879.328, 0.0, 10.0211115, 9.919831 
7.0972216e+3, 2.3468757e+2, -666791.3, -744116.25, -1042.084, 0.0019121878, 0.000010083799, -666777.25, -26714.672, 0.0, 10.021146, 9.919501 
7.097227e+3, 2.4460052e+2, -578462.7, -666212.56, -943.374, 0.0019132784, 0.00017063775, -578452.56, -35536.98, 0.0, 10.021188, 9.90608 
7.097233e+3, 2.5450674e+2, -479739.3, -567604.9, -953.7962, 0.0019195614, -0.000012553805, -479728.97, -33894.17, 0.0, 10.02124, 9.905981 
7.097239e+3, 2.6440582e+2, -391498.0, -490359.66, -784.6366, 0.0019204351, 0.00023148253, -391491.78, -42668.14, 0.0, 10.021312, 9.891872 
7.097245e+3, 2.7429825e+2, -292181.97, -390788.25, -777.90625, 0.0019143778, -0.00011762365, -292175.84, -40297.945, 0.0, 10.021408, 9.89229 
7.0972514e+3, 2.8418243e+2, -205601.33, -317522.2, -531.84033, 0.0019145221, 0.00031266938, -205598.8, -50585.973, 0.0, 10.021528, 9.875339 
7.0972586e+3, 2.940588e+2, -105783.5, -217206.0, -513.51825, 0.0019233229, -0.00016891319, -105781.13, -47556.938, 0.0, 10.02168, 9.876118 
7.097266e+3, 3.0396295e+2, -16295.829, -84817.234, -184.87288, 0.0019254349, 0.0002531703, -16295.33, -16295.33, 0.0, 10.021869, 9.931606 
7.0972735e+3, 3.138964e+2, -14902.512, -82472.77, -132.9015, 0.0019160757, 0.000015014197, -14902.25, -14902.25, 0.0, 10.022108, 9.933074 
7.1071815e+3, 1.2520306e+2, -1694783.3, -1722095.6, -230.37624, 0.0019125034, 0.00017162546, -1694781.4, 18229.645, 0.0, 10.02075, 9.984524 
7.107188e+3, 1.3518743e+2, -1597201.1, -1625253.0, -313.01608, 0.001913535, -0.000006404451, -1597197.6, 17966.443, 0.0, 10.020943, 9.983737 
7.107194e+3, 1.4516516e+2, -1509135.6, -1546310.0, -617.16284, 0.0019144078, 0.00025480654, -1509125.4, 8257.074, 0.0, 10.021091, 9.97183 
7.1072e+3, 1.5513696e+2, -1411343.5, -1449002.3, -689.4726, 0.0019152553, 0.000063629304, -1411330.9, 8327.896, 0.0, 10.021198, 9.971299 
7.1072054e+3, 1.6510214e+2, -1323266.5, -1370205.5, -925.2369, 0.001916205, 0.00014479557, -1323248.3, -1248.4037, 0.0, 10.021275, 9.959196 
7.107211e+3, 1.750614e+2, -1225343.8, -1272634.1, -987.41644, 0.0019171666, 0.000041656764, -1225323.1, -923.87756, 0.0, 10.021321, 9.958782 
7.107216e+3, 1.8501395e+2, -1137387.9, -1194298.9, -1124.3147, 0.0019177406, 0.0001860577, -1137365.6, -10501.496, 0.0, 10.021347, 9.946237 
7.1072215e+3, 1.9496022e+2, -1039337.3, -1096516.5, -1182.6459, 0.0019179044, 0.00005234088, -1039312.9, -9922.15, 0.0, 10.021354, 9.945893 
7.107227e+3, 2.048998e+2, -951296.2, -1018306.5, -1234.5776, 0.0019189627, 0.00017298022, -951273.44, -19290.602, 0.0, 10.02135, 9.933083 
7.107232e+3, 2.1483292e+2, -853138.2, -920400.94, -1274.0549, 0.0019208804, -0.000021822832, -853114.06, -18475.846, 0.0, 10.021337, 9.932741 
7.1072376e+3, 2.2475937e+2, -764896.9, -842150.56, -1254.5587, 0.0019213816, 0.00022365835, -764876.5, -27517.564, 0.0, 10.021323, 9.919765 
7.107243e+3, 2.3467919e+2, -666590.56, -744088.94, -1279.6184, 0.0019203108, 0.0000091376, -666569.44, -26424.854, 0.0, 10.02131, 9.919436 
7.1072483e+3, 2.445921e+2, -578306.6, -666172.56, -1172.6866, 0.0019212279, 0.00016949094, -578290.94, -35292.883, 0.0, 10.021308, 9.906046 
7.107254e+3, 2.5449827e+2, -479646.53, -567595.75, -1180.8877, 0.0019243933, -0.000013281832, -479630.66, -33713.055, 0.0, 10.021318, 9.905948 
7.10726e+3, 2.6439735e+2, -391444.9, -490336.34, -993.42065, 0.0019253152, 0.0002309962, -391434.94, -42528.29, 0.0, 10.021349, 9.891869 
7.107267e+3, 2.7428976e+2, -292188.03, -390792.53, -981.7116, 0.0019232027, -0.00011806362, -292178.25, -40217.34, 0.0, 10.021404, 9.892288 
7.107273e+3, 2.8417394e+2, -205656.94, -317547.44, -709.67426, 0.0019234451, 0.00031203218, -205652.44, -50556.59, 0.0, 10.021489, 9.8753395 
7.1072805e+3, 2.9405037e+2, -105879.805, -217250.73, -684.9141, 0.0019271998, -0.00017001452, -105875.59, -47568.387, 0.0, 10.021614, 9.87612 
7.1072876e+3, 3.039545e+2, -16389.256, -84794.87, -317.9566, 0.0019289788, 0.00025210768, -16387.777, -16387.777, 0.0, 10.021775, 9.931665 
7.107296e+3, 3.13888e+2, -15028.083, -82458.51, -255.11665, 0.0019261005, 0.0000149107545, -15027.118, -15027.118, 0.0, 10.02199, 9.93314 
7.117203e+3, 1.2519602e+2, -1694936.3, -1722423.8, -159.28941, 0.0019184527, 0.00016967715, -1694935.4, 18144.695, 0.0, 10.020769, 9.984312 
7.117209e+3, 1.3518019e+2, -1597359.3, -1625582.8, -242.60905, 0.0019211224, -0.000006564181, -1597357.3, 17877.967, 0.0, 10.020957, 9.983526 
7.1172154e+3, 1.451577e+2, -1509279.6, -1546605.6, -578.6866, 0.0019223575, 0.00025475342, -1509270.8, 8184.7925, 0.0, 10.021102, 9.971642 
7.1172214e+3, 1.5512931e+2, -1411491.9, -1449299.1, -651.4205, 0.0019224762, 0.000062052204, -1411480.6, 8252.99, 0.0, 10.021205, 9.971111 
7.1172273e+3, 1.6509433e+2, -1323400.1, -1370467.5, -909.71844, 0.0019226351, 0.00014327007, -1323382.5, -1305.9982, 0.0, 10.021277, 9.959031 
7.1172327e+3, 1.750534e+2, -1225481.3, -1272897.4, -971.3868, 0.001922729, 0.000041674823, -1225461.3, -983.8465, 0.0, 10.02132, 9.958617 
7.117238e+3, 1.850058e+2, -1137520.8, -1194547.0, -1123.5035, 0.0019240441, 0.00018596032, -1137498.6, -10554.672, 0.0, 10.021343, 9.946083 
7.1172434e+3, 1.9495192e+2, -1039474.1, -1096765.9, -1182.4851, 0.0019265466, 0.000050467595, -1039449.75, -9977.709, 0.0, 10.021346, 9.94574 
7.117248e+3, 2.0489137e+2, -951395.9, -1018476.0, -1242.1776, 0.0019268786, 0.00017099103, -951372.9, -19307.502, 0.0, 10.021338, 9.932981 
7.1172535e+3, 2.148244e+2, -853243.2, -920572.06, -1281.7417, 0.0019249141, -0.000022242531, -853218.75, -18496.979, 0.0, 10.02132, 9.93264 
7.117259e+3, 2.2475076e+2, -764980.0, -842269.2, -1261.983, 0.0019259749, 0.0002236504, -764959.4, -27516.066, 0.0, 10.021303, 9.9197 
7.117264e+3, 2.3467052e+2, -666679.6, -744209.25, -1286.9324, 0.0019302765, 0.000008265071, -666658.3, -26428.662, 0.0, 10.021285, 9.919372 
7.1172696e+3, 2.4458337e+2, -578376.2, -666244.7, -1171.245, 0.0019308002, 0.00016817314, -578360.56, -35276.965, 0.0, 10.021278, 9.9060135 
7.1172756e+3, 2.544895e+2, -479720.06, -567668.06, -1178.9473, 0.0019269058, -0.000014567707, -479704.25, -33700.83, 0.0, 10.021285, 9.905917 
7.1172816e+3, 2.643886e+2, -391500.13, -490362.28, -974.9488, 0.0019278539, 0.00023015995, -391490.53, -42497.93, 0.0, 10.021311, 9.8918705 
7.117288e+3, 2.74281e+2, -292248.75, -390818.78, -962.1981, 0.001934534, -0.00011799171, -292239.38, -40192.54, 0.0, 10.021362, 9.892292 
7.1172947e+3, 2.841652e+2, -205721.11, -317570.72, -665.5247, 0.0019351288, 0.0003118575, -205717.14, -50535.438, 0.0, 10.021442, 9.875347 
7.117302e+3, 2.940416e+2, -105948.89, -217275.73, -638.2967, 0.0019278886, -0.00017210274, -105945.23, -47552.223, 0.0, 10.021563, 9.876127 
7.1173096e+3, 3.0394578e+2, -16420.594, -84732.414, -240.25519, 0.0019287628, 0.00024991023, -16419.748, -16419.748, 0.0, 10.02172, 9.931734 
7.117318e+3, 3.1387937e+2, -15061.298, -82388.945, -173.65694, 0.0019397137, 0.000015178549, -15060.85, -15060.85, 0.0, 10.02193, 9.933216 
7.1272236e+3, 1.2518874e+2, -1694057.3, -1722212.4, -270.42538, 0.0019253067, 0.00016900543, -1694054.6, 19096.723, 0.0, 10.021433, 9.984087 
7.127231e+3, 1.3517268e+2, -1596537.3, -1625403.4, -363.346, 0.001927967, -0.000008223561, -1596532.8, 18776.012, 0.0, 10.021587, 9.983301 
7.127237e+3, 1.4514998e+2, -1508497.9, -1546421.0, -740.90765, 0.0019291003, 0.00025336313, -1508483.4, 9047.685, 0.0, 10.021695, 9.971442 
7.1272427e+3, 1.551214e+2, -1410776.9, -1449151.5, -821.75305, 0.0019291242, 0.00006210253, -1410759.4, 9051.8955, 0.0, 10.021759, 9.970911 
7.1272486e+3, 1.6508622e+2, -1322730.4, -1370311.4, -1110.5078, 0.0019294266, 0.00014324751, -1322704.5, -548.61194, 0.0, 10.02179, 9.95886 
7.127254e+3, 1.7504513e+2, -1224886.1, -1272781.9, -1177.4459, 0.0019298617, 0.00004017911, -1224857.1, -298.62, 0.0, 10.021787, 9.958447 
7.1272594e+3, 1.8499736e+2, -1136996.0, -1194460.4, -1351.086, 0.0019309473, 0.00018444558, -1136964.3, -9937.631, 0.0, 10.021762, 9.945921 
7.127265e+3, 1.9494331e+2, -1039030.25, -1096722.4, -1414.6754, 0.0019326711, 0.000050380044, -1038995.56, -9439.276, 0.0, 10.021714, 9.945578 
7.12727e+3, 2.0488265e+2, -950988.6, -1018385.25, -1486.8141, 0.0019330417, 0.00017103035, -950955.8, -18804.832, 0.0, 10.021654, 9.932877 
7.127275e+3, 2.1481556e+2, -852922.9, -920526.5, -1528.1589, 0.001931959, -0.000023420647, -852888.4, -18079.963, 0.0, 10.021582, 9.932537 
7.12728e+3, 2.2474183e+2, -764716.2, -842208.25, -1509.887, 0.0019330354, 0.00022236507, -764686.8, -27156.031, 0.0, 10.021507, 9.919636 
7.1272856e+3, 2.3466155e+2, -666503.25, -744192.44, -1534.3765, 0.0019364152, 0.000008083713, -666473.0, -26155.324, 0.0, 10.021433, 9.919308 
7.127291e+3, 2.4457435e+2, -578254.3, -666214.6, -1407.4396, 0.0019369842, 0.00016815205, -578231.8, -35059.703, 0.0, 10.021373, 9.905986 
7.127297e+3, 2.5448045e+2, -479673.22, -567674.56, -1412.2882, 0.0019342583, -0.000015523983, -479650.56, -33558.395, 0.0, 10.021329, 9.90589 
7.127303e+3, 2.6437953e+2, -391502.16, -490354.47, -1189.6578, 0.0019350853, 0.0002289382, -391487.84, -42406.4, 0.0, 10.021306, 9.891877 
7.127309e+3, 2.7427194e+2, -292322.03, -390844.1, -1172.053, 0.0019399939, -0.00011861109, -292308.1, -40172.496, 0.0, 10.021308, 9.892302 
7.127316e+3, 2.8415614e+2, -205853.44, -317616.0, -844.28546, 0.0019406942, 0.0003114164, -205847.06, -50576.703, 0.0, 10.021345, 9.875364 
7.127323e+3, 2.9403257e+2, -106135.29, -217346.42, -808.60834, 0.0019361489, -0.00017285712, -106129.414, -47647.93, 0.0, 10.021428, 9.876145 
7.127331e+3, 3.039368e+2, -16610.367, -84732.61, -369.49484, 0.0019371227, 0.00024895574, -16608.363, -16608.363, 0.0, 10.02155, 9.931815 
7.127339e+3, 3.1387046e+2, -15289.491, -82399.44, -291.13678, 0.0019441217, 0.0000143756315, -15288.228, -15288.228, 0.0, 10.02173, 9.933304 
7.137245e+3, 1.2518124e+2, -1694227.1, -1722578.5, -210.49176, 0.001932699, 0.00016875591, -1694225.5, 18999.352, 0.0, 10.021455, 9.9838505 
7.137252e+3, 1.3516493e+2, -1596710.5, -1625770.1, -303.9599, 0.0019345592, -0.000010663191, -1596707.3, 18677.322, 0.0, 10.021606, 9.983065 
7.137258e+3, 1.4514202e+2, -1508654.8, -1546748.5, -715.7882, 0.0019353654, 0.00025125465, -1508641.3, 8967.926, 0.0, 10.021709, 9.971231 
7.1372646e+3, 1.5511322e+2, -1410941.0, -1449481.6, -797.02106, 0.0019356164, 0.0000626078, -1410924.5, 8966.868, 0.0, 10.021768, 9.970701 
7.1372706e+3, 1.6507785e+2, -1322873.5, -1370593.0, -1110.6326, 0.0019364569, 0.00014366294, -1322847.6, -609.7073, 0.0, 10.021793, 9.958683 
7.137276e+3, 1.750366e+2, -1225032.8, -1273064.6, -1178.0491, 0.0019377114, 0.000037889597, -1225003.9, -361.62317, 0.0, 10.021788, 9.958269 
7.1372813e+3, 1.8498865e+2, -1137138.6, -1194729.3, -1368.8699, 0.0019381377, 0.0001821822, -1137106.1, -9993.943, 0.0, 10.021759, 9.945753 
7.137286e+3, 1.9493443e+2, -1039176.1, -1096992.0, -1432.297, 0.0019377504, 0.000050817845, -1039140.6, -9497.2295, 0.0, 10.0217085, 9.94541 
7.1372914e+3, 2.048736e+2, -951091.44, -1018561.56, -1513.9897, 0.0019384722, 0.0001717028, -951057.5, -18818.055, 0.0, 10.021644, 9.932771 
7.137296e+3, 2.1480641e+2, -853034.06, -920705.75, -1555.2449, 0.0019402868, -0.000025101306, -852998.4, -18100.463, 0.0, 10.021564, 9.932431 
7.1373016e+3, 2.2473262e+2, -764801.75, -842326.25, -1537.3141, 0.0019411334, 0.00022036761, -764771.25, -27150.174, 0.0, 10.021484, 9.919571 
7.137307e+3, 2.3465227e+2, -666592.9, -744311.0, -1561.9047, 0.0019408638, 0.0000079721, -666561.5, -26152.887, 0.0, 10.021406, 9.919245 
7.137312e+3, 2.4456504e+2, -578321.2, -666277.44, -1423.5928, 0.001941632, 0.00016846416, -578298.2, -35034.71, 0.0, 10.021341, 9.905961 
7.137318e+3, 2.5447112e+2, -479747.78, -567739.1, -1427.8959, 0.0019435671, -0.000016501588, -479724.6, -33540.82, 0.0, 10.021292, 9.905868 
7.137324e+3, 2.6437014e+2, -391556.97, -490367.97, -1188.5216, 0.0019442284, 0.00022744069, -391542.7, -42369.555, 0.0, 10.021263, 9.89189 
7.137331e+3, 2.742626e+2, -292380.03, -390856.47, -1169.6931, 0.0019429141, -0.00011973456, -292366.16, -40139.008, 0.0, 10.021262, 9.892316 
7.1373373e+3, 2.8414682e+2, -205910.81, -317616.13, -813.2264, 0.0019435618, 0.0003107025, -205904.89, -50543.19, 0.0, 10.021294, 9.875389 
7.1373445e+3, 2.9402325e+2, -106201.51, -217349.67, -775.09644, 0.0019473712, -0.00017325129, -106196.1, -47623.53, 0.0, 10.02137, 9.876171 
7.137353e+3, 3.0392754e+2, -16637.129, -84642.47, -302.6042, 0.0019488911, 0.00024843382, -16635.783, -16635.783, 0.0, 10.021488, 9.931906 
7.137361e+3, 3.1386134e+2, -15315.18, -82299.98, -220.1331, 0.001944611, 0.000012940355, -15314.456, -15314.456, 0.0, 10.021665, 9.933403 
7.147267e+3, 1.2517352e+2, -1693237.3, -1722336.5, -314.66733, 0.0019405002, 0.00016872212, -1693233.9, 20066.563, 0.0, 10.0222, 9.983601 
7.147274e+3, 1.3515699e+2, -1595781.0, -1625562.4, -418.13522, 0.00194097, -0.000010908125, -1595775.1, 19687.473, 0.0, 10.022317, 9.982815 
7.14728e+3, 1.4513382e+2, -1507775.3, -1546537.3, -877.6045, 0.0019414785, 0.00025061992, -1507755.4, 9934.1045, 0.0, 10.022376, 9.97101 
7.1472865e+3, 1.5510482e+2, -1410149.1, -1449318.8, -967.2987, 0.0019425569, 0.00006140089, -1410125.3, 9848.532, 0.0, 10.022382, 9.970479 
7.1472925e+3, 1.6506924e+2, -1322142.8, -1370428.8, -1313.4203, 0.0019436049, 0.00014270192, -1322107.0, 215.37709, 0.0, 10.022354, 9.958491 
7.147298e+3, 1.7502779e+2, -1224389.6, -1272947.9, -1389.8154, 0.0019444338, 0.00003803024, -1224349.9, 378.80734, 0.0, 10.022295, 9.958078 
7.147303e+3, 1.8497966e+2, -1136567.4, -1194626.6, -1604.3895, 0.0019445397, 0.0001823475, -1136523.0, -9322.7705, 0.0, 10.022211, 9.945583 
7.147308e+3, 1.9492528e+2, -1038698.1, -1096939.0, -1669.8303, 0.0019439575, 0.000049946622, -1038650.3, -8917.125, 0.0, 10.022102, 9.94524 
7.1473134e+3, 2.0486432e+2, -950664.44, -1018464.1, -1767.0695, 0.0019449426, 0.00017061735, -950618.4, -18287.852, 0.0, 10.021974, 9.932663 
7.147318e+3, 2.14797e+2, -852717.0, -920665.2, -1809.6074, 0.0019474978, -0.000025544057, -852668.8, -17678.78, 0.0, 10.021824, 9.932324 
7.1473235e+3, 2.2472313e+2, -764553.3, -842272.75, -1790.11, 0.0019481725, 0.00021998244, -764512.1, -26798.027, 0.0, 10.021679, 9.919507 
7.147329e+3, 2.346427e+2, -666437.7, -744304.44, -1814.646, 0.0019467401, 0.000007003058, -666395.44, -25893.209, 0.0, 10.02154, 9.919182 
7.147334e+3, 2.4455543e+2, -578230.1, -666255.2, -1666.4193, 0.0019474692, 0.00016753495, -578198.56, -34841.07, 0.0, 10.021412, 9.90594 
7.1473396e+3, 2.544615e+2, -479755.53, -567765.0, -1667.8748, 0.0019506764, -0.000016664831, -479723.94, -33445.92, 0.0, 10.0212965, 9.905848 
7.147345e+3, 2.6436055e+2, -391624.53, -490378.8, -1404.9858, 0.0019516115, 0.0002273323, -391604.53, -42337.168, 0.0, 10.021209, 9.89191 
7.1473515e+3, 2.74253e+2, -292522.03, -390901.47, -1380.1063, 0.0019492682, -0.00012063506, -292502.7, -40181.508, 0.0, 10.021156, 9.892338 
7.1473587e+3, 2.8413728e+2, -206122.03, -317682.9, -992.4153, 0.0019495338, 0.00030966973, -206113.2, -50657.727, 0.0, 10.021136, 9.875422 
7.147366e+3, 2.9401374e+2, -106490.05, -217452.83, -946.5872, 0.00195387, -0.00017340807, -106481.97, -47815.96, 0.0, 10.021158, 9.8762045 
7.147374e+3, 3.039181e+2, -16937.021, -84669.7, -426.21622, 0.0019556822, 0.00024854825, -16934.338, -16934.338, 0.0, 10.021232, 9.93201 
7.147383e+3, 3.1385195e+2, -15654.08, -82336.58, -330.35248, 0.0019511514, 0.0000125989, -15652.443, -15652.443, 0.0, 10.021378, 9.933516 
7.157289e+3, 1.2516561e+2, -1693421.1, -1722739.9, -265.28473, 0.0019485127, 0.00016858881, -1693418.8, 19959.203, 0.0, 10.022227, 9.983338 
7.1572965e+3, 1.3514881e+2, -1595971.8, -1625968.1, -369.5405, 0.0019474651, -0.000010392541, -1595967.3, 19575.373, 0.0, 10.022338, 9.9825535 
7.1573025e+3, 1.4512542e+2, -1507947.3, -1546898.9, -870.5807, 0.0019476848, 0.0002504932, -1507927.9, 9844.084, 0.0, 10.022393, 9.9707775 
7.157309e+3, 1.5509616e+2, -1410325.8, -1449681.5, -960.4295, 0.0019497595, 0.000059308968, -1410302.3, 9756.305, 0.0, 10.022394, 9.970247 
7.157315e+3, 1.6506037e+2, -1322300.4, -1370747.1, -1331.5876, 0.0019508279, 0.000141006, -1322263.9, 145.46785, 0.0, 10.022362, 9.958289 
7.1573204e+3, 1.7501871e+2, -1224553.3, -1273268.5, -1409.8732, 0.0019507153, 0.000038979182, -1224512.5, 305.0579, 0.0, 10.022298, 9.957875 
7.157325e+3, 1.849704e+2, -1136712.6, -1194901.8, -1643.3479, 0.0019506682, 0.0001833376, -1136666.4, -9375.356, 0.0, 10.022209, 9.945412 
7.1573305e+3, 1.9491585e+2, -1038850.6, -1097216.9, -1707.1453, 0.0019507358, 0.000048329548, -1038800.75, -8975.174, 0.0, 10.022094, 9.945069 
7.157335e+3, 2.0485474e+2, -950772.94, -1018646.4, -1818.9296, 0.001951897, 0.00016861402, -950724.2, -18299.863, 0.0, 10.02196, 9.932554 
7.15734e+3, 2.1478733e+2, -852830.0, -920848.3, -1861.9728, 0.0019541348, -0.00002565834, -852779.06, -17694.19, 0.0, 10.021807, 9.932217 
7.1573454e+3, 2.2471337e+2, -764638.94, -842390.75, -1838.7343, 0.001954655, 0.0002201067, -764595.5, -26785.736, 0.0, 10.021656, 9.919443 
7.15735e+3, 2.3463288e+2, -666532.0, -744425.2, -1863.0387, 0.001953235, 0.0000055243854, -666487.44, -25888.91, 0.0, 10.02151, 9.919119 
7.157355e+3, 2.4454556e+2, -578297.6, -666310.5, -1706.0038, 0.0019538153, 0.00016592204, -578264.6, -34810.37, 0.0, 10.021377, 9.905922 
7.157361e+3, 2.544516e+2, -479827.44, -567820.06, -1707.1783, 0.0019566836, -0.000016703534, -479794.34, -33419.457, 0.0, 10.021256, 9.905831 
7.157367e+3, 2.6435065e+2, -391672.94, -490373.8, -1421.6482, 0.0019580203, 0.00022764734, -391652.47, -42288.254, 0.0, 10.021164, 9.891934 
7.157373e+3, 2.7424318e+2, -292579.06, -390897.63, -1395.1832, 0.0019569816, -0.00012159848, -292559.25, -40141.523, 0.0, 10.021104, 9.892365 
7.15738e+3, 2.8412744e+2, -206179.02, -317665.63, -980.3847, 0.0019567527, 0.0003084221, -206170.39, -50618.68, 0.0, 10.021078, 9.875461 
7.157387e+3, 2.9400393e+2, -106551.63, -217436.48, -931.9834, 0.0019581963, -0.00017372916, -106543.805, -47781.95, 0.0, 10.021097, 9.876245 
7.157395e+3, 3.0390838e+2, -16953.326, -84546.95, -369.35236, 0.0019601358, 0.00024874497, -16951.309, -16951.309, 0.0, 10.021164, 9.932125 
7.1574044e+3, 3.138424e+2, -15676.097, -82206.414, -268.35434, 0.0019600093, 0.000012517486, -15675.014, -15675.014, 0.0, 10.021302, 9.93364 
7.1673113e+3, 1.2515756e+2, -1692297.6, -1722458.4, -360.13312, 0.0019541015, 0.00016734109, -1692293.4, 21163.484, 0.0, 10.023069, 9.983061 
7.167319e+3, 1.3514048e+2, -1594932.9, -1625734.1, -475.7536, 0.0019552812, -0.000010843919, -1594925.6, 20698.736, 0.0, 10.023131, 9.982276 
7.1673256e+3, 1.4511682e+2, -1506966.1, -1546658.5, -1027.9526, 0.0019557262, 0.0002503033, -1506939.6, 10916.581, 0.0, 10.023134, 9.970534 
7.1673316e+3, 1.5508732e+2, -1409435.8, -1449491.6, -1126.1001, 0.001956213, 0.000058854173, -1409404.1, 10741.094, 0.0, 10.023081, 9.970004 
7.1673375e+3, 1.650513e+2, -1321495.8, -1370584.4, -1535.0566, 0.0019566582, 0.00014050948, -1321447.8, 1050.397, 0.0, 10.022988, 9.958063 
7.167343e+3, 1.7500941e+2, -1223858.5, -1273165.1, -1626.2898, 0.0019568203, 0.000038740527, -1223805.0, 1103.6721, 0.0, 10.022857, 9.95765 
7.1673477e+3, 1.849609e+2, -1136081.6, -1194761.0, -1886.3914, 0.0019573984, 0.00018301787, -1136021.1, -8637.102, 0.0, 10.0226965, 9.945249 
7.1673524e+3, 1.9490619e+2, -1038341.25, -1097140.5, -1948.2213, 0.0019584687, 0.000047606944, -1038276.75, -8356.534, 0.0, 10.022506, 9.944906 
7.167357e+3, 2.0484494e+2, -950339.56, -1018552.9, -2074.1802, 0.0019590927, 0.00016791331, -950276.56, -17756.236, 0.0, 10.022298, 9.932442 
7.167362e+3, 2.1477744e+2, -852508.2, -920812.6, -2120.0825, 0.0019591828, -0.000025884337, -852442.44, -17260.496, 0.0, 10.022073, 9.932104 
7.167367e+3, 2.2470337e+2, -764393.8, -842336.7, -2097.1284, 0.0019599209, 0.0002200018, -764337.44, -26429.703, 0.0, 10.021848, 9.919381 
7.1673715e+3, 2.3462282e+2, -666408.3, -744432.1, -2120.432, 0.001961346, 0.000005148964, -666350.75, -25653.654, 0.0, 10.021623, 9.919058 
7.167376e+3, 2.4453546e+2, -578251.4, -666304.0, -1950.1749, 0.0019620324, 0.00016529582, -578208.25, -34655.086, 0.0, 10.021415, 9.905907 
7.1673816e+3, 2.544415e+2, -479882.25, -567862.4, -1948.6018, 0.0019617805, -0.00001756382, -479839.1, -33365.16, 0.0, 10.021227, 9.905819 
7.1673876e+3, 2.6434055e+2, -391796.8, -490397.3, -1639.4277, 0.001962777, 0.00022695608, -391769.56, -42306.395, 0.0, 10.021065, 9.891968 
7.167394e+3, 2.742331e+2, -292807.06, -390969.3, -1606.6138, 0.001964853, -0.00012154928, -292780.78, -40264.434, 0.0, 10.020933, 9.892402 
7.1674e+3, 2.8411743e+2, -206489.95, -317761.78, -1154.6649, 0.0019650771, 0.0003083818, -206477.98, -50828.063, 0.0, 10.020844, 9.875511 
7.1674085e+3, 2.9399398e+2, -106936.97, -217566.92, -1096.7418, 0.0019633318, -0.00017486702, -106926.09, -48066.53, 0.0, 10.020811, 9.876296 
7.167416e+3, 3.038985e+2, -17356.467, -84595.92, -484.5274, 0.0019648226, 0.0002473098, -17352.975, -17352.975, 0.0, 10.020825, 9.932255 
7.167425e+3, 3.1383264e+2, -16152.419, -82280.18, -369.50012, 0.0019681617, 0.000012170196, -16150.3545, -16150.3545, 0.0, 10.020908, 9.933779 
7.177335e+3, 1.2514934e+2, -1692501.4, -1722906.6, -327.47537, 0.0019589157, 0.00016557086, -1692497.8, 21039.693, 0.0, 10.023101, 9.982769 
7.177342e+3, 1.3513196e+2, -1595141.4, -1626183.4, -443.6858, 0.0019636846, -0.000011878072, -1595135.0, 20572.783, 0.0, 10.023157, 9.981984 
7.177349e+3, 1.4510801e+2, -1507148.9, -1547050.8, -1039.0203, 0.001964519, 0.0002499349, -1507121.9, 10820.449, 0.0, 10.023155, 9.97028 
7.1773547e+3, 1.5507828e+2, -1409624.4, -1449886.0, -1137.9761, 0.0019624801, 0.000058947717, -1409592.3, 10641.569, 0.0, 10.023097, 9.969749 
7.17736e+3, 1.6504201e+2, -1321681.0, -1370961.6, -1576.491, 0.001962062, 0.00014040802, -1321630.5, 958.6869, 0.0, 10.022999, 9.957822 
7.177366e+3, 1.7499988e+2, -1224051.5, -1273545.1, -1667.4987, 0.0019629651, 0.000037763326, -1223995.4, 1006.7157, 0.0, 10.0228615, 9.957409 
7.177371e+3, 1.8495117e+2, -1136218.4, -1195021.0, -1950.0859, 0.001964418, 0.00018193468, -1136153.8, -8674.3545, 0.0, 10.022695, 9.945086 
7.177375e+3, 1.9489628e+2, -1038485.0, -1097403.0, -2012.6454, 0.001966518, 0.000047126596, -1038416.3, -8399.105, 0.0, 10.022498, 9.944743 
7.17738e+3, 2.0483491e+2, -950454.1, -1018746.94, -2151.615, 0.0019663353, 0.00016765362, -950386.44, -17767.764, 0.0, 10.0222845, 9.932325 
7.1773845e+3, 2.1476728e+2, -852630.2, -921009.1, -2197.252, 0.0019636853, -0.00002637515, -852559.7, -17278.203, 0.0, 10.022054, 9.931989 
7.1773887e+3, 2.2469313e+2, -764480.7, -842452.0, -2174.218, 0.001964747, 0.00021957858, -764420.1, -26412.04, 0.0, 10.021823, 9.91932 
7.177393e+3, 2.3461252e+2, -666501.75, -744548.75, -2197.7056, 0.00196989, 0.000005092556, -666439.9, -25641.863, 0.0, 10.021592, 9.918998 
7.177398e+3, 2.4452513e+2, -578316.75, -666351.0, -2013.6023, 0.0019707617, 0.00016497447, -578270.7, -34616.246, 0.0, 10.0213785, 9.905895 
7.1774036e+3, 2.5443116e+2, -479956.13, -567911.06, -2011.0555, 0.0019665111, -0.00001891048, -479910.16, -33334.797, 0.0, 10.021184, 9.905808 
7.177409e+3, 2.6433024e+2, -391842.75, -490375.06, -1681.3613, 0.0019668476, 0.00022573622, -391814.1, -42249.62, 0.0, 10.021015, 9.892007 
7.177415e+3, 2.7422282e+2, -292858.75, -390946.2, -1647.3121, 0.001972499, -0.0001212985, -292831.1, -40213.895, 0.0, 10.020878, 9.892444 
7.1774215e+3, 2.8410718e+2, -206539.38, -317718.88, -1160.5687, 0.0019735054, 0.0003087277, -206527.25, -50776.973, 0.0, 10.020782, 9.875569 
7.1774286e+3, 2.939838e+2, -106996.68, -217527.39, -1099.2306, 0.00196874, -0.00017650546, -106985.75, -48026.39, 0.0, 10.020741, 9.876355 
7.177437e+3, 3.038884e+2, -17367.793, -84441.3, -446.75818, 0.0019695628, 0.0002451743, -17364.816, -17364.816, 0.0, 10.020749, 9.932396 
7.1774465e+3, 3.138227e+2, -16163.636, -82114.21, -326.90762, 0.0019755573, 0.000011557786, -16162.016, -16162.016, 0.0, 10.020826, 9.933929 
7.187358e+3, 1.2514102e+2, -1691238.0, -1722584.0, -411.74835, 0.0019673905, 0.00016606796, -1691232.5, 22386.447, 0.0, 10.024045, 9.982462 
7.187366e+3, 1.3512334e+2, -1593971.1, -1625913.0, -539.71136, 0.0019694562, -0.000012891294, -1593962.0, 21830.313, 0.0, 10.024048, 9.981678 
7.1873724e+3, 1.450991e+2, -1506048.1, -1546777.4, -1191.0116, 0.001969751, 0.00024887852, -1506013.3, 12016.35, 0.0, 10.023986, 9.97001 
7.1873784e+3, 1.550691e+2, -1408634.1, -1449673.8, -1300.4321, 0.001969314, 0.000059213147, -1408593.0, 11730.81, 0.0, 10.023862, 9.9694805 
7.187384e+3, 1.6503257e+2, -1320792.0, -1370779.0, -1779.7373, 0.0019695747, 0.0001406105, -1320728.8, 1953.0408, 0.0, 10.02369, 9.957575 
7.1873885e+3, 1.7499019e+2, -1223294.0, -1273433.4, -1876.3435, 0.0019702124, 0.00003665545, -1223223.9, 1873.1516, 0.0, 10.023472, 9.957162 
7.1873933e+3, 1.8494126e+2, -1135533.1, -1194862.0, -2187.7769, 0.0019708625, 0.0001809817, -1135452.6, -7876.2065, 0.0, 10.023221, 9.944914 
7.187398e+3, 1.9488622e+2, -1037937.9, -1097317.0, -2256.048, 0.0019716478, 0.000047832513, -1037852.25, -7736.374, 0.0, 10.022938, 9.9445715 
7.187402e+3, 2.0482469e+2, -949998.0, -1018643.7, -2411.28, 0.001972014, 0.00016834911, -949913.44, -17194.654, 0.0, 10.022637, 9.93221 
7.1874064e+3, 2.1475694e+2, -852310.06, -920976.1, -2457.1523, 0.0019718874, -0.000027435864, -852222.25, -16839.6, 0.0, 10.02232, 9.931874 
7.1874106e+3, 2.246827e+2, -764251.75, -842405.2, -2433.8076, 0.0019728066, 0.00021824158, -764176.0, -26065.875, 0.0, 10.022003, 9.919259 
7.187415e+3, 2.3460205e+2, -666401.94, -744566.7, -2457.1465, 0.0019748535, 0.000005123749, -666324.75, -25424.064, 0.0, 10.0216875, 9.918939 
7.1874195e+3, 2.4451461e+2, -578304.4, -666350.4, -2258.625, 0.0019755294, 0.00016539182, -578246.44, -34489.023, 0.0, 10.021389, 9.9058895 
7.1874243e+3, 2.5442064e+2, -480071.56, -567972.25, -2251.5671, 0.0019745203, -0.000019286164, -480013.94, -33335.555, 0.0, 10.021109, 9.905806 
7.1874297e+3, 2.6431972e+2, -392042.28, -490421.4, -1894.9268, 0.0019752309, 0.0002249803, -392005.8, -42338.527, 0.0, 10.020859, 9.892053 
7.1874356e+3, 2.7421233e+2, -293166.84, -391042.47, -1854.7021, 0.0019775203, -0.00012182795, -293131.72, -40412.17, 0.0, 10.020647, 9.892493 
7.187442e+3, 2.840968e+2, -206941.0, -317836.5, -1328.3431, 0.0019781233, 0.0003083519, -206925.08, -51073.043, 0.0, 10.020477, 9.87564 
7.1874493e+3, 2.9397348e+2, -107502.91, -217693.2, -1256.3711, 0.0019770549, -0.0001766789, -107488.586, -48428.184, 0.0, 10.020363, 9.876428 
7.1874577e+3, 3.0387822e+2, -17903.705, -84525.0, -548.6876, 0.0019783413, 0.00024502035, -17899.188, -17899.188, 0.0, 10.020307, 9.932551 
7.1874666e+3, 3.1381264e+2, -16768.064, -82219.52, -413.85635, 0.0019796535, 0.000011319705, -16765.447, -16765.447, 0.0, 10.020332, 9.934095 
7.1973825e+3, 1.2513258e+2, -1691461.5, -1723077.5, -396.97415, 0.0019774567, 0.00016737868, -1691456.5, 22245.303, 0.0, 10.02408, 9.982141 
7.1973896e+3, 1.3511457e+2, -1594198.5, -1626407.1, -525.4101, 0.001974362, -0.00001394222, -1594190.0, 21688.305, 0.0, 10.024078, 9.981357 
7.197397e+3, 1.4509004e+2, -1506248.6, -1547212.0, -1223.9929, 0.0019737054, 0.00024751638, -1506212.1, 11906.513, 0.0, 10.024012, 9.9697275 
7.197402e+3, 1.5505974e+2, -1408841.5, -1450110.9, -1333.3466, 0.0019764805, 0.000059330447, -1408798.5, 11617.011, 0.0, 10.023881, 9.969198 
7.1974075e+3, 1.6502294e+2, -1320984.4, -1371176.4, -1848.4252, 0.001977987, 0.00014078032, -1320916.4, 1859.6846, 0.0, 10.023704, 9.95732 
7.197412e+3, 1.7498031e+2, -1223493.9, -1273833.4, -1946.1713, 0.0019779298, 0.000035425866, -1223418.8, 1775.1147, 0.0, 10.0234785, 9.956907 
7.1974164e+3, 1.8493117e+2, -1135679.1, -1195145.6, -2282.3223, 0.00197713, 0.00018002036, -1135591.6, -7916.325, 0.0, 10.023222, 9.944736 
7.197421e+3, 1.9487594e+2, -1038092.1, -1097603.5, -2350.5188, 0.0019757217, 0.000048749407, -1037999.44, -7782.8965, 0.0, 10.022932, 9.944394 
7.197425e+3, 2.0481427e+2, -950111.25, -1018836.3, -2518.9487, 0.001977114, 0.00016919298, -950019.06, -17198.191, 0.0, 10.022625, 9.932095 
7.197429e+3, 2.1474642e+2, -852432.25, -921171.75, -2565.213, 0.001981435, -0.000028804892, -852336.7, -16850.734, 0.0, 10.0223, 9.93176 
7.1974325e+3, 2.246721e+2, -764340.75, -842521.06, -2540.746, 0.001982014, 0.00021649465, -764258.25, -26043.977, 0.0, 10.021976, 9.919198 
7.1974367e+3, 2.3459135e+2, -666498.8, -744684.5, -2563.57, 0.0019783552, 0.0000050163853, -666414.8, -25409.46, 0.0, 10.021655, 9.9188795 
7.197441e+3, 2.445039e+2, -578365.9, -666382.44, -2352.06, 0.0019786472, 0.0001659072, -578303.06, -34440.62, 0.0, 10.021349, 9.9058895 
7.197445e+3, 2.5440994e+2, -480141.84, -568005.5, -2344.5813, 0.0019835962, -0.000019372546, -480079.34, -33295.98, 0.0, 10.021062, 9.9058075 
7.1974504e+3, 2.6430905e+2, -392084.78, -490382.2, -1963.1256, 0.0019850496, 0.0002244205, -392045.6, -42273.582, 0.0, 10.020804, 9.892105 
7.197456e+3, 2.7420172e+2, -293216.78, -391003.13, -1920.8179, 0.0019814025, -0.00012285265, -293179.1, -40355.336, 0.0, 10.020586, 9.8925495 
7.1974623e+3, 2.840862e+2, -206983.66, -317765.7, -1359.6915, 0.0019810884, 0.00030757475, -206966.97, -51011.39, 0.0, 10.02041, 9.875719 
7.1974695e+3, 2.9396302e+2, -107555.05, -217624.61, -1284.8046, 0.0019861453, -0.00017643972, -107540.055, -48376.926, 0.0, 10.0202875, 9.87651 
7.197478e+3, 3.0386782e+2, -17905.67, -84335.13, -528.82263, 0.001988317, 0.00024565044, -17901.459, -17901.459, 0.0, 10.020223, 9.932719 
7.197487e+3, 3.1380248e+2, -16773.848, -82019.35, -387.83997, 0.0019822752, 0.000011086132, -16771.541, -16771.541, 0.0, 10.020241, 9.934275 
7.2074074e+3, 1.251241e+2, -1690036.5, -1722704.1, -466.937, 0.0019835983, 0.00016704391, -1690029.9, 23755.023, 0.0, 10.025142, 9.981803 
7.2074145e+3, 1.3510574e+2, -1592885.9, -1626096.8, -608.43115, 0.0019819676, -0.000013123641, -1592874.8, 23089.938, 0.0, 10.025075, 9.981019 
7.207421e+3, 1.4508091e+2, -1505019.6, -1546897.6, -1368.3668, 0.0019813587, 0.00024811403, -1504975.0, 13233.04, 0.0, 10.024935, 9.969435 
7.207427e+3, 1.5505032e+2, -1407745.8, -1449869.8, -1486.7137, 0.0019828668, 0.00005832479, -1407693.4, 12814.446, 0.0, 10.024724, 9.9689045 
7.207432e+3, 1.6501324e+2, -1320006.9, -1370970.6, -2047.3274, 0.0019837995, 0.00013997001, -1319924.9, 2946.3481, 0.0, 10.024461, 9.957052 
7.207436e+3, 1.7497034e+2, -1222664.6, -1273707.5, -2152.0313, 0.001983812, 0.00003671227, -1222574.1, 2717.421, 0.0, 10.024145, 9.95664 
7.20744e+3, 1.8492098e+2, -1134932.4, -1194965.8, -2519.1611, 0.001983602, 0.00018111375, -1134826.9, -7051.6074, 0.0, 10.023792, 9.944553 
7.207444e+3, 1.9486557e+2, -1037504.25, -1097507.4, -2590.2905, 0.0019833506, 0.000047342175, -1037392.6, -7074.3735, 0.0, 10.023403, 9.944213 
7.207448e+3, 2.0480375e+2, -949630.8, -1018725.3, -2774.8364, 0.0019844477, 0.00016764327, -949519.56, -16595.506, 0.0, 10.022996, 9.931975 
7.2074515e+3, 2.1473576e+2, -852108.5, -921141.5, -2823.4856, 0.0019869416, -0.000027957616, -851993.2, -16402.967, 0.0, 10.022571, 9.931642 
7.2074544e+3, 2.2466137e+2, -764121.1, -842473.06, -2797.499, 0.0019874212, 0.00021761193, -764021.4, -25701.92, 0.0, 10.022148, 9.919143 
7.207458e+3, 2.3458058e+2, -666427.7, -744710.75, -2818.0488, 0.0019856114, 0.0000040035216, -666326.4, -25215.268, 0.0, 10.021729, 9.918825 
7.207462e+3, 2.4449308e+2, -578398.2, -666395.25, -2591.9136, 0.001986183, 0.00016457029, -578321.94, -34353.523, 0.0, 10.021327, 9.905892 
7.2074664e+3, 2.5439912e+2, -480318.03, -568087.9, -2581.4324, 0.0019895341, -0.00001889054, -480242.2, -33352.93, 0.0, 10.020943, 9.905813 
7.207471e+3, 2.642983e+2, -392356.1, -490444.84, -2169.3325, 0.0019907798, 0.0002252125, -392308.16, -42430.55, 0.0, 10.020593, 9.892169 
7.2074765e+3, 2.7419102e+2, -293615.72, -391124.25, -2118.6365, 0.0019886123, -0.00012361145, -293569.7, -40641.027, 0.0, 10.020287, 9.892616 
7.207483e+3, 2.840756e+2, -207491.7, -317914.25, -1515.6746, 0.0019883907, 0.0003063882, -207470.9, -51411.15, 0.0, 10.020024, 9.875809 
7.2074896e+3, 2.9395247e+2, -108179.586, -217826.8, -1431.0902, 0.0019915872, -0.00017628373, -108160.914, -48894.508, 0.0, 10.01982, 9.876601 
7.2074974e+3, 3.0385742e+2, -18569.646, -84447.805, -615.2834, 0.0019936701, 0.00024615976, -18563.9, -18563.9, 0.0, 10.019678, 9.932905 
7.207507e+3, 3.1379226e+2, -17532.59, -82164.734, -457.25192, 0.0019900345, 0.000010573862, -17529.355, -17529.355, 0.0, 10.019626, 9.934471 
7.217432e+3, 1.2511553e+2, -1690280.9, -1723247.0, -474.6261, 0.0019883362, 0.00016598281, -1690274.1, 23594.69, 0.0, 10.025182, 9.981448 
7.2174394e+3, 1.3509683e+2, -1593136.9, -1626641.5, -616.6563, 0.0019907819, -0.000011719152, -1593125.5, 22926.508, 0.0, 10.025108, 9.980665 
7.217446e+3, 1.4507167e+2, -1505234.8, -1547366.0, -1429.6898, 0.001990583, 0.00024941948, -1505186.4, 13112.307, 0.0, 10.024962, 9.96913 
7.2174513e+3, 1.5504077e+2, -1407965.0, -1450338.9, -1548.0066, 0.001989093, 0.000056841953, -1407908.5, 12692.848, 0.0, 10.024749, 9.9686 
7.217456e+3, 1.650034e+2, -1320209.0, -1371397.1, -2148.52, 0.0019887078, 0.00013875352, -1320119.0, 2848.6445, 0.0, 10.024479, 9.956777 
7.21746e+3, 1.7496024e+2, -1222874.6, -1274136.6, -2253.974, 0.001989061, 0.000038720398, -1222775.6, 2614.9749, 0.0, 10.024157, 9.956365 
7.217464e+3, 1.8491064e+2, -1135079.3, -1195257.9, -2649.0852, 0.001990207, 0.00018280772, -1134962.9, -7086.2915, 0.0, 10.023796, 9.944367 
7.2174674e+3, 1.9485503e+2, -1037663.25, -1097804.1, -2720.3435, 0.0019923763, 0.000044992008, -1037540.44, -7118.995, 0.0, 10.023397, 9.944028 
7.2174704e+3, 2.0479307e+2, -949749.94, -1018927.9, -2918.0723, 0.001992635, 0.00016516507, -949627.06, -16598.31, 0.0, 10.022983, 9.931854 
7.2174734e+3, 2.1472496e+2, -852235.75, -921346.5, -2966.396, 0.001990819, -0.000026463353, -852108.7, -16412.586, 0.0, 10.022551, 9.931521 
7.2174764e+3, 2.2465047e+2, -764206.44, -842579.0, -2937.944, 0.001991253, 0.00021964552, -764096.5, -25670.303, 0.0, 10.02212, 9.919089 
7.21748e+3, 2.3456962e+2, -666524.25, -744819.9, -2958.416, 0.001994205, 0.0000026506584, -666412.6, -25194.285, 0.0, 10.021693, 9.918774 
7.2174835e+3, 2.4448211e+2, -578460.8, -666419.7, -2719.1765, 0.00199528, 0.00016252586, -578376.8, -34300.934, 0.0, 10.021282, 9.905898 
7.217487e+3, 2.5438815e+2, -480387.53, -568112.56, -2707.6252, 0.0019940317, -0.000018386183, -480304.03, -33307.38, 0.0, 10.020892, 9.905823 
7.217492e+3, 2.6428735e+2, -392389.5, -490379.4, -2267.5977, 0.0019946243, 0.00022641945, -392337.06, -42352.453, 0.0, 10.020535, 9.892241 
7.217497e+3, 2.7418017e+2, -293659.78, -391059.38, -2215.2747, 0.0019968979, -0.00012430969, -293609.44, -40574.473, 0.0, 10.02022, 9.892692 
7.217503e+3, 2.8406486e+2, -207531.13, -317820.34, -1575.4518, 0.0019971526, 0.00030514074, -207508.63, -51343.42, 0.0, 10.019949, 9.875907 
7.21751e+3, 2.939418e+2, -108227.77, -217734.95, -1486.8956, 0.0019953349, -0.00017640658, -108207.59, -48836.727, 0.0, 10.019738, 9.876701 
7.2175175e+3, 3.0384693e+2, -18559.78, -84217.375, -618.9004, 0.0019968732, 0.00024650138, -18553.947, -18553.947, 0.0, 10.019588, 9.933104 
7.2175264e+3, 3.1378195e+2, -17528.207, -81922.914, -454.8895, 0.0019993307, 0.000009943879, -17524.994, -17524.994, 0.0, 10.0195265, 9.934683 
7.227458e+3, 1.2510702e+2, -1688669.8, -1722813.8, -526.80865, 0.0019951295, 0.00016611327, -1688661.6, 25290.459, 0.0, 10.026377, 9.981076 
7.2274655e+3, 1.3508795e+2, -1591672.9, -1626290.3, -683.164, 0.0019973165, -0.000012501608, -1591659.4, 24479.62, 0.0, 10.0262165, 9.980293 
7.2274715e+3, 1.4506243e+2, -1503870.9, -1547006.6, -1560.6964, 0.0019970716, 0.00024919581, -1503814.5, 14574.567, 0.0, 10.025983, 9.968814 
7.227477e+3, 1.5503123e+2, -1406752.1, -1450062.5, -1688.8264, 0.0019957668, 0.00005852399, -1406686.4, 14008.454, 0.0, 10.025678, 9.968285 
7.227481e+3, 1.6499355e+2, -1319128.5, -1371155.9, -2339.8352, 0.0019954343, 0.00013988792, -1319023.5, 4040.478, 0.0, 10.0253105, 9.956493 
7.2274846e+3, 1.7495011e+2, -1221964.4, -1273986.9, -2450.2053, 0.0019956757, 0.00003701187, -1221849.3, 3640.619, 0.0, 10.024883, 9.956081 
7.227488e+3, 1.8490028e+2, -1134268.8, -1195054.3, -2880.2979, 0.0019966885, 0.00018124984, -1134132.6, -6154.4697, 0.0, 10.024412, 9.944179 
7.227491e+3, 1.9484448e+2, -1037037.0, -1097697.4, -2955.1743, 0.0019987517, 0.000046691282, -1036893.4, -6368.5283, 0.0, 10.023897, 9.943839 
7.2274935e+3, 2.0478237e+2, -949245.6, -1018805.9, -3165.8572, 0.001998956, 0.00016700219, -949101.8, -15968.194, 0.0, 10.02337, 9.931734 
7.227496e+3, 2.1471414e+2, -851902.4, -921312.4, -3214.5234, 0.00199715, -0.0000277871, -851753.8, -15951.665, 0.0, 10.022828, 9.931402 
7.227499e+3, 2.2463955e+2, -763994.1, -842530.7, -3185.769, 0.0019978445, 0.0002179532, -763865.1, -25332.03, 0.0, 10.022286, 9.919037 
7.227501e+3, 2.3455867e+2, -666487.4, -744859.3, -3205.6338, 0.0020013538, 0.0000037280129, -666356.5, -25030.766, 0.0, 10.021743, 9.918723 
7.227505e+3, 2.4447115e+2, -578540.94, -666443.7, -2947.8923, 0.0020022106, 0.00016383996, -578442.2, -34258.69, 0.0, 10.021223, 9.905913 
7.2275084e+3, 2.543772e+2, -480621.22, -568210.4, -2931.166, 0.0019997868, -0.000019921094, -480523.25, -33419.164, 0.0, 10.020729, 9.90584 
7.227512e+3, 2.6427642e+2, -392733.5, -490461.47, -2460.6582, 0.002000369, 0.00022457505, -392671.6, -42579.996, 0.0, 10.0202675, 9.892319 
7.2275174e+3, 2.7416936e+2, -294157.78, -391212.6, -2401.8677, 0.0020040318, -0.00012307764, -294098.38, -40957.277, 0.0, 10.019846, 9.892774 
7.227523e+3, 2.840541e+2, -208152.08, -317996.78, -1714.7449, 0.002004542, 0.00030672675, -208125.33, -51854.92, 0.0, 10.019476, 9.87602 
7.2275287e+3, 2.939312e+2, -108976.86, -217969.44, -1613.0068, 0.002001356, -0.00017804885, -108952.99, -49478.047, 0.0, 10.019175, 9.876819 
7.2275364e+3, 3.0383646e+2, -19362.166, -84365.875, -683.16003, 0.0020024818, 0.00024426688, -19354.988, -19354.988, 0.0, 10.018936, 9.933317 
7.2275454e+3, 3.1377172e+2, -18448.373, -82114.766, -503.46475, 0.002005807, 0.000011309433, -18444.393, -18444.393, 0.0, 10.018787, 9.934908 
7.2374845e+3, 1.250985e+2, -1688935.6, -1723410.4, -566.69885, 0.002003005, 0.00016672941, -1688926.3, 25109.46, 0.0, 10.0264225, 9.980685 
7.237491e+3, 1.3507903e+2, -1591943.8, -1626887.8, -724.0554, 0.0020031077, -0.000014139906, -1591928.8, 24297.709, 0.0, 10.0262575, 9.979902 
7.237497e+3, 1.4505316e+2, -1504097.4, -1547509.5, -1656.4229, 0.0020025487, 0.0002483771, -1504034.3, 14445.705, 0.0, 10.026017, 9.968485 
7.237502e+3, 1.5502162e+2, -1406987.5, -1450568.4, -1785.433, 0.0020027657, 0.00006126191, -1406914.5, 13874.564, 0.0, 10.025704, 9.967956 
7.2375065e+3, 1.6498365e+2, -1319340.0, -1371602.4, -2481.3325, 0.002003026, 0.00014187832, -1319222.5, 3938.7192, 0.0, 10.02533, 9.956205 
7.2375095e+3, 1.749399e+2, -1222185.0, -1274436.4, -2589.4998, 0.0020029407, 0.000033883083, -1222057.0, 3532.895, 0.0, 10.024895, 9.955793 
7.2375125e+3, 1.8488984e+2, -1134422.9, -1195360.3, -3050.8406, 0.0020031857, 0.00017844528, -1134270.5, -6189.9985, 0.0, 10.024416, 9.943984 
7.237515e+3, 1.9483384e+2, -1037201.25, -1098006.8, -3125.5261, 0.0020040565, 0.000049703423, -1037041.0, -6411.902, 0.0, 10.023893, 9.9436455 
7.237517e+3, 2.0477156e+2, -949363.94, -1019007.06, -3346.2668, 0.002004487, 0.0001703338, -949203.5, -15964.059, 0.0, 10.023356, 9.931614 
7.237519e+3, 2.1470322e+2, -852033.56, -921518.25, -3394.835, 0.0020044574, -0.000030188607, -851868.1, -15958.9, 0.0, 10.022805, 9.931283 
7.237521e+3, 2.2462855e+2, -764083.2, -842635.94, -3366.198, 0.0020054646, 0.00021485481, -763939.2, -25298.21, 0.0, 10.022255, 9.918985 
7.237523e+3, 2.3454763e+2, -666583.75, -744965.7, -3385.7527, 0.0020076407, 0.0000056045883, -666437.75, -25003.69, 0.0, 10.021706, 9.9186735 
7.2375256e+3, 2.4446006e+2, -578595.56, -666448.94, -3110.0574, 0.0020079464, 0.0001663192, -578485.56, -34193.625, 0.0, 10.021177, 9.905932 
7.2375286e+3, 2.5436616e+2, -480688.3, -568218.2, -3092.4976, 0.0020059175, -0.000022140068, -480579.2, -33366.83, 0.0, 10.020674, 9.905863 
7.237532e+3, 2.6426545e+2, -392766.47, -490380.25, -2595.8896, 0.0020067007, 0.00022177432, -392697.5, -42498.11, 0.0, 10.020204, 9.892404 
7.237537e+3, 2.7415842e+2, -294197.94, -391130.2, -2534.951, 0.002010337, -0.00012135503, -294131.7, -40883.69, 0.0, 10.019774, 9.892863 
7.237542e+3, 2.840433e+2, -208178.02, -317865.13, -1804.8772, 0.002010923, 0.00030926484, -208148.31, -51772.063, 0.0, 10.019397, 9.876146 
7.237548e+3, 2.939205e+2, -109016.3, -217840.84, -1699.4291, 0.002008, -0.00018020513, -108989.766, -49410.2, 0.0, 10.019085, 9.876946 
7.2375554e+3, 3.0382594e+2, -19346.713, -84101.76, -716.90265, 0.0020087736, 0.00024134306, -19338.777, -19338.777, 0.0, 10.018837, 9.933543 
7.2375643e+3, 3.1376147e+2, -18435.682, -81837.93, -530.2738, 0.0020106542, 0.000013167231, -18431.246, -18431.246, 0.0, 10.01868, 9.935147 
7.247512e+3, 1.250901e+2, -1687123.3, -1722915.5, -596.1006, 0.0020106628, 0.00016770553, -1687113.4, 27004.598, 0.0, 10.027764, 9.980273 
7.2475183e+3, 1.3507023e+2, -1590301.4, -1626487.6, -769.43207, 0.0020090905, -0.000013197488, -1590285.0, 26027.701, 0.0, 10.027499, 9.97949 
7.2475237e+3, 1.4504397e+2, -1502578.9, -1547103.8, -1773.2771, 0.0020081843, 0.00024887978, -1502508.3, 16061.646, 0.0, 10.02715, 9.968138 
7.2475284e+3, 1.5501209e+2, -1405660.1, -1450267.1, -1915.01, 0.0020093436, 0.00006081609, -1405578.1, 15304.329, 0.0, 10.026722, 9.967608 
7.247532e+3, 1.649738e+2, -1318147.4, -1371295.9, -2662.8562, 0.0020101215, 0.00014185543, -1318014.4, 5243.303, 0.0, 10.026229, 9.955927 
7.247535e+3, 1.7492978e+2, -1221188.1, -1274235.0, -2769.835, 0.0020101105, 0.000035806566, -1221043.9, 4645.209, 0.0, 10.025673, 9.955516 
7.2475374e+3, 1.8487947e+2, -1133553.6, -1195134.0, -3264.907, 0.0020097904, 0.00017987732, -1133381.0, -5199.029, 0.0, 10.025073, 9.943788 
7.247539e+3, 1.9482331e+2, -1036526.6, -1097882.9, -3342.945, 0.0020094863, 0.000048158763, -1036345.06, -5612.5425, 0.0, 10.024428, 9.94345 
7.2475404e+3, 2.0476085e+2, -948827.9, -1018870.75, -3578.4575, 0.0020103625, 0.00016862787, -948645.5, -15301.081, 0.0, 10.023766, 9.931492 
7.247542e+3, 2.146924e+2, -851700.0, -921486.0, -3628.7207, 0.0020125478, -0.000028945775, -851511.8, -15496.504, 0.0, 10.023084, 9.931163 
7.2475433e+3, 2.2461763e+2, -763885.7, -842590.7, -3596.9343, 0.0020132791, 0.00021629284, -763721.6, -24973.72, 0.0, 10.0224085, 9.918938 
7.247545e+3, 2.3453665e+2, -666567.4, -745010.8, -3615.0688, 0.0020123296, 0.000004076142, -666401.1, -24859.664, 0.0, 10.02174, 9.918628 
7.247547e+3, 2.444491e+2, -578711.1, -666479.75, -3322.529, 0.0020125776, 0.00016472217, -578585.5, -34185.992, 0.0, 10.02109, 9.905957 
7.247549e+3, 2.5435522e+2, -480992.22, -568339.8, -3301.408, 0.002014192, -0.000020346906, -480867.63, -33548.004, 0.0, 10.020459, 9.9058895 
7.247552e+3, 2.6425454e+2, -393197.34, -490485.34, -2769.8347, 0.0020154172, 0.00022370236, -393118.56, -42812.51, 0.0, 10.01987, 9.892499 
7.2475564e+3, 2.7414763e+2, -294788.8, -391308.5, -2700.0413, 0.0020151814, -0.00012342443, -294713.3, -41359.613, 0.0, 10.01933, 9.892963 
7.247561e+3, 2.840326e+2, -208906.48, -318069.2, -1921.7589, 0.0020150405, 0.00030666988, -208872.67, -52391.844, 0.0, 10.01884, 9.876283 
7.247567e+3, 2.9390997e+2, -109905.17, -218118.16, -1805.257, 0.002015811, -0.00017806918, -109875.06, -50192.33, 0.0, 10.018415, 9.877087 
7.247574e+3, 3.038156e+2, -20303.633, -84288.47, -755.78186, 0.002017421, 0.00024414196, -20294.707, -20294.707, 0.0, 10.018063, 9.933789 
7.2475827e+3, 3.1375137e+2, -19517.928, -82070.04, -549.8897, 0.0020155443, 0.000010347175, -19513.094, -19513.094, 0.0, 10.017814, 9.935407 
7.257539e+3, 1.2508178e+2, -1687404.5, -1723569.0, -668.34204, 0.0020183297, 0.00016875728, -1687392.3, 26807.438, 0.0, 10.027823, 9.97984 
7.257546e+3, 1.3506146e+2, -1590596.4, -1627146.5, -842.8883, 0.0020154442, -0.0000113022725, -1590576.9, 25821.719, 0.0, 10.027547, 9.979058 
7.2575516e+3, 1.450348e+2, -1502828.0, -1547657.8, -1907.5432, 0.0020141508, 0.0002499493, -1502747.0, 15912.792, 0.0, 10.027188, 9.967774 
7.257555e+3, 1.5500256e+2, -1405920.4, -1450825.1, -2049.339, 0.0020159273, 0.000059122824, -1405827.1, 15148.73, 0.0, 10.026751, 9.967246 
7.257558e+3, 1.6496395e+2, -1318349.6, -1371725.8, -2844.1643, 0.0020170894, 0.0001410543, -1318198.5, 5155.6797, 0.0, 10.026249, 9.955648 
7.2575605e+3, 1.7491965e+2, -1221401.9, -1274669.1, -2950.261, 0.0020172475, 0.000039480004, -1221239.0, 4549.2534, 0.0, 10.025684, 9.955238 
7.257562e+3, 1.8486911e+2, -1133716.8, -1195452.1, -3477.7507, 0.0020164896, 0.00018285746, -1133521.4, -5237.8096, 0.0, 10.025075, 9.943586 
7.2575635e+3, 1.9481273e+2, -1036701.06, -1098205.1, -3555.1233, 0.0020151387, 0.00004490891, -1036496.25, -5660.143, 0.0, 10.024421, 9.94325 
7.2575647e+3, 2.0475012e+2, -948952.1, -1019078.7, -3803.7341, 0.0020164235, 0.00016508848, -948746.44, -15296.827, 0.0, 10.023749, 9.931369 
7.2575647e+3, 2.1468155e+2, -851832.94, -921696.3, -3853.918, 0.0020206508, -0.000026468913, -851621.0, -15499.368, 0.0, 10.023061, 9.931041 
7.257566e+3, 2.2460671e+2, -763971.2, -842688.8, -3817.2625, 0.0020208373, 0.00021935785, -763786.56, -24931.459, 0.0, 10.022377, 9.918891 
7.257567e+3, 2.3452567e+2, -666666.2, -745112.8, -3834.9314, 0.0020163876, 0.0000014367799, -666479.2, -24830.063, 0.0, 10.021699, 9.918583 
7.2575676e+3, 2.4443811e+2, -578767.06, -666475.94, -3528.1956, 0.0020167208, 0.00016171849, -578625.4, -34118.13, 0.0, 10.021039, 9.905985 
7.25757e+3, 2.5434425e+2, -481056.72, -568336.3, -3506.2385, 0.002022825, -0.000017188422, -480916.1, -33489.08, 0.0, 10.020401, 9.905922 
7.2575724e+3, 2.6424366e+2, -393219.5, -490376.03, -2942.1775, 0.002024463, 0.00022743305, -393130.5, -42717.71, 0.0, 10.019803, 9.892604 
7.2575754e+3, 2.7413684e+2, -294822.6, -391199.34, -2870.2207, 0.0020192948, -0.00012676213, -294737.2, -41277.77, 0.0, 10.019253, 9.893073 
7.2575796e+3, 2.8402197e+2, -208927.69, -317911.0, -2050.7798, 0.0020181446, 0.00030246234, -208889.11, -52303.813, 0.0, 10.018754, 9.876429 
7.2575855e+3, 2.9389948e+2, -109937.76, -217962.03, -1930.1782, 0.0020235397, -0.00017460145, -109903.28, -50117.586, 0.0, 10.018321, 9.877235 
7.257592e+3, 3.038053e+2, -20272.398, -83977.086, -820.3266, 0.0020262934, 0.00024899945, -20261.838, -20261.838, 0.0, 10.017958, 9.93405 
7.2576004e+3, 3.1374133e+2, -19493.393, -81745.71, -607.3951, 0.002020041, 0.0000060685943, -19487.467, -19487.467, 0.0, 10.017696, 9.935682 
7.267568e+3, 1.2507372e+2, -1685360.3, -1722998.9, -660.1602, 0.0020226648, 0.00016805159, -1685348.8, 28929.832, 0.0, 10.029331, 9.979385 
7.267574e+3, 1.3505296e+2, -1588770.4, -1626697.4, -850.8939, 0.0020230035, -0.000011296605, -1588751.4, 27730.658, 0.0, 10.028925, 9.978604 
7.267579e+3, 1.450259e+2, -1501151.8, -1547200.4, -1988.14, 0.0020224296, 0.0002505541, -1501066.0, 17681.148, 0.0, 10.028435, 9.9674 
7.2675824e+3, 1.5499327e+2, -1404464.3, -1450488.0, -2140.6106, 0.0020224245, 0.00006005291, -1404364.9, 16701.984, 0.0, 10.027864, 9.966872 
7.267585e+3, 1.6495433e+2, -1317035.5, -1371358.8, -2991.323, 0.0020226566, 0.00014136743, -1316871.3, 6577.2476, 0.0, 10.027226, 9.955367 
7.267587e+3, 1.7490974e+2, -1220311.0, -1274421.6, -3103.0042, 0.002022744, 0.000038397277, -1220133.6, 5751.7007, 0.0, 10.026524, 9.954958 
7.267588e+3, 1.8485896e+2, -1132781.1, -1195197.3, -3667.5156, 0.0020230224, 0.00018209923, -1132566.4, -4183.3555, 0.0, 10.025777, 9.943385 
7.2675884e+3, 1.9480239e+2, -1035984.1, -1098065.1, -3748.3325, 0.0020239179, 0.000046306297, -1035758.6, -4821.151, 0.0, 10.024985, 9.943049 
7.2675884e+3, 2.0473962e+2, -948388.56, -1018932.56, -4011.5898, 0.0020244154, 0.00016633743, -948161.2, -14608.625, 0.0, 10.024178, 9.931244 
7.2675884e+3, 2.1467091e+2, -851479.0, -921657.9, -4064.0383, 0.002024553, -0.000027774127, -851244.4, -15018.551, 0.0, 10.023355, 9.930917 
7.2675884e+3, 2.2459598e+2, -763768.5, -842636.4, -4026.239, 0.0020248445, 0.0002180365, -763563.5, -24603.375, 0.0, 10.022532, 9.918847 
7.2675884e+3, 2.345149e+2, -666681.6, -745169.25, -4042.9788, 0.002025308, 0.000002987833, -666473.94, -24719.373, 0.0, 10.02171, 9.918542 
7.267589e+3, 2.4442734e+2, -578933.94, -666521.44, -3716.638, 0.00202611, 0.00016320265, -578776.5, -34163.758, 0.0, 10.020913, 9.906019 
7.26759e+3, 2.5433353e+2, -481419.28, -568476.0, -3690.4502, 0.0020271912, -0.000019446532, -481263.13, -33730.984, 0.0, 10.0201435, 9.905959 
7.267592e+3, 2.64233e+2, -393722.75, -490498.1, -3090.5945, 0.0020279502, 0.00022508549, -393624.16, -43106.953, 0.0, 10.019412, 9.892717 
7.267595e+3, 2.7412632e+2, -295518.44, -391410.1, -3011.0112, 0.0020272033, -0.00012424754, -295423.97, -41861.316, 0.0, 10.018729, 9.893191 
7.267598e+3, 2.8401157e+2, -209779.67, -318147.56, -2140.166, 0.0020271041, 0.0003052902, -209737.42, -53050.25, 0.0, 10.018102, 9.87659 
7.267603e+3, 2.9388925e+2, -110960.99, -218276.06, -2006.1774, 0.0020286667, -0.00017756133, -110923.5, -51037.5, 0.0, 10.017549, 9.877401 
7.267609e+3, 3.0379528e+2, -21379.479, -84202.8, -826.7036, 0.0020304215, 0.00024551988, -21368.602, -21368.602, 0.0, 10.017067, 9.934326 
7.2676176e+3, 3.1373164e+2, -20758.582, -82031.97, -596.5458, 0.0020275556, 0.000010344619, -20752.775, -20752.775, 0.0, 10.01669, 9.935972 
7.277597e+3, 1.2506583e+2, -1685663.9, -1723713.6, -773.9486, 0.0020261884, 0.00016678129, -1685648.1, 28707.826, 0.0, 10.0294, 9.978911 
7.277603e+3, 1.3504459e+2, -1589088.4, -1627417.8, -965.2987, 0.0020311489, -0.000012019472, -1589064.1, 27499.889, 0.0, 10.028982, 9.97813 
7.2776073e+3, 1.4501709e+2, -1501413.1, -1547791.5, -2163.9978, 0.0020315803, 0.00025102086, -1501312.4, 17521.104, 0.0, 10.02848, 9.9670105 
7.2776103e+3, 1.5498409e+2, -1404741.3, -1451085.3, -2317.0732, 0.0020290865, 0.000061958075, -1404625.6, 16531.277, 0.0, 10.027897, 9.966483 
7.277612e+3, 1.6494481e+2, -1317244.6, -1371804.6, -3216.8965, 0.00202795, 0.00014220996, -1317055.6, 6486.252, 0.0, 10.027248, 9.955079 
7.277613e+3, 1.7489994e+2, -1220533.6, -1274872.5, -3328.1274, 0.0020278373, 0.00003555519, -1220330.5, 5651.0327, 0.0, 10.026534, 9.95467 
7.277614e+3, 1.8484889e+2, -1132949.4, -1195525.0, -3925.402, 0.0020295593, 0.00017997854, -1132704.1, -4222.4917, 0.0, 10.025778, 9.943179 
7.277613e+3, 1.9479212e+2, -1036162.1, -1098395.9, -4006.5007, 0.0020336448, 0.0000493337, -1035905.3, -4867.222, 0.0, 10.024979, 9.942844 
7.2776127e+3, 2.0472918e+2, -948516.7, -1019147.5, -4281.5938, 0.002032912, 0.00016942825, -948258.06, -14603.285, 0.0, 10.024162, 9.931116 
7.277612e+3, 2.1466035e+2, -851619.94, -921877.2, -4333.49, 0.0020270275, -0.000030389745, -851353.6, -15024.268, 0.0, 10.023329, 9.93079 
7.277611e+3, 2.2458532e+2, -763856.9, -842732.06, -4294.9097, 0.0020275654, 0.00021516347, -763623.7, -24559.225, 0.0, 10.022497, 9.918804 
7.2776103e+3, 2.3450422e+2, -666780.2, -745266.9, -4311.6426, 0.0020355752, 0.000006099349, -666544.06, -24684.785, 0.0, 10.0216675, 9.918501 
7.27761e+3, 2.4441665e+2, -578984.44, -666502.94, -3966.3384, 0.002036881, 0.00016639488, -578805.0, -34087.555, 0.0, 10.020861, 9.906057 
7.2776103e+3, 2.543229e+2, -481481.28, -568458.94, -3939.0195, 0.0020297982, -0.000023441935, -481303.25, -33666.707, 0.0, 10.0200815, 9.906001 
7.2776115e+3, 2.6422244e+2, -393740.28, -490368.28, -3307.9844, 0.0020291696, 0.00022088282, -393627.16, -43006.344, 0.0, 10.019341, 9.892838 
7.277613e+3, 2.7411586e+2, -295547.16, -391279.8, -3226.4336, 0.0020360441, -0.00011975041, -295438.53, -41773.563, 0.0, 10.018648, 9.893317 
7.277616e+3, 2.840013e+2, -209788.58, -317952.25, -2309.956, 0.002037653, 0.00031074724, -209739.27, -52951.22, 0.0, 10.018011, 9.876763 
7.2776204e+3, 2.9387912e+2, -110982.414, -218082.36, -2171.5657, 0.002032437, -0.00018262745, -110938.4, -50953.19, 0.0, 10.0174465, 9.877579 
7.2776264e+3, 3.037854e+2, -21338.145, -83854.12, -930.42004, 0.0020323517, 0.00023945645, -21324.3, -21324.3, 0.0, 10.016954, 9.934616 
7.277634e+3, 3.1372204e+2, -20724.352, -81670.41, -692.7825, 0.002035474, 0.00001744622, -20716.477, -20716.477, 0.0, 10.016566, 9.936276 
7.2876275e+3, 1.250584e+2, -1683400.4, -1723069.4, -719.3846, 0.0020343813, 0.00016782772, -1683387.4, 31041.371, 0.0, 10.031064, 9.978418 
7.287633e+3, 1.3503666e+2, -1587064.3, -1626906.3, -925.2364, 0.002036111, -0.000012917959, -1587042.8, 29598.9, 0.0, 10.030504, 9.977638 
7.287637e+3, 1.4500873e+2, -1499558.5, -1547274.5, -2199.2024, 0.002035967, 0.00024986826, -1499457.4, 19458.096, 0.0, 10.029854, 9.966606 
7.287639e+3, 1.549753e+2, -1403138.6, -1450705.5, -2364.9097, 0.0020354432, 0.00006198937, -1403021.3, 18221.662, 0.0, 10.029119, 9.966079 
7.28764e+3, 1.6493566e+2, -1315800.5, -1371387.4, -3322.7952, 0.002035588, 0.00014258588, -1315602.6, 8028.716, 0.0, 10.0283165, 9.954782 
7.28764e+3, 1.748905e+2, -1219338.3, -1274588.5, -3442.616, 0.00203608, 0.000035617715, -1219124.6, 6949.3076, 0.0, 10.027449, 9.954374 
7.2876394e+3, 1.8483922e+2, -1131930.3, -1195242.5, -4077.9443, 0.002036501, 0.00017965095, -1131668.6, -3092.134, 0.0, 10.026541, 9.942964 
7.287639e+3, 1.9478223e+2, -1035380.44, -1098238.3, -4166.2275, 0.0020373333, 0.000048589663, -1035105.5, -3970.4739, 0.0, 10.025591, 9.94263 
7.287637e+3, 2.0471911e+2, -947905.25, -1018979.44, -4459.4414, 0.0020372982, 0.0001690179, -947626.5, -13873.067, 0.0, 10.024623, 9.930988 
7.287635e+3, 2.1465014e+2, -851251.94, -921834.1, -4513.106, 0.002036435, -0.000029509982, -850964.5, -14535.261, 0.0, 10.023633, 9.930664 
7.2876334e+3, 2.2457506e+2, -763661.56, -842682.2, -4472.949, 0.0020371494, 0.00021567338, -763409.2, -24243.965, 0.0, 10.022647, 9.918761 
7.2876316e+3, 2.3449391e+2, -666815.44, -745332.1, -4489.861, 0.0020396996, 0.000004302471, -666559.56, -24599.143, 0.0, 10.021665, 9.918461 
7.287631e+3, 2.4440634e+2, -579184.44, -666553.44, -4124.2725, 0.0020400775, 0.0001649165, -578990.1, -34171.566, 0.0, 10.020707, 9.906102 
7.2876304e+3, 2.543126e+2, -481906.4, -568617.75, -4092.6477, 0.0020375615, -0.000021475711, -481713.7, -33976.53, 0.0, 10.019776, 9.90605 
7.2876304e+3, 2.6421225e+2, -394327.9, -490514.8, -3424.723, 0.002038114, 0.000222805, -394206.1, -43485.516, 0.0, 10.018887, 9.892966 
7.2876316e+3, 2.7410585e+2, -296346.4, -391523.9, -3335.6106, 0.0020415152, -0.0001223209, -296229.63, -42466.164, 0.0, 10.018047, 9.893452 
7.287634e+3, 2.839914e+2, -210757.86, -318216.56, -2364.125, 0.0020419678, 0.000307747, -210705.88, -53820.88, 0.0, 10.017267, 9.876951 
7.2876376e+3, 2.938694e+2, -112146.77, -218434.38, -2212.0894, 0.0020388495, -0.00017976099, -112100.75, -52020.53, 0.0, 10.016565, 9.877771 
7.287643e+3, 3.0377594e+2, -22606.207, -84123.63, -899.7033, 0.0020394747, 0.00024307765, -22593.053, -22593.053, 0.0, 10.015939, 9.934922 
7.28765e+3, 3.137129e+2, -22171.178, -82009.96, -643.7071, 0.0020411161, 0.000013779912, -22164.254, -22164.254, 0.0, 10.015421, 9.936599 
7.297659e+3, 1.2505125e+2, -1683722.3, -1723835.9, -878.4174, 0.0020444822, 0.00016985738, -1683703.0, 30795.758, 0.0, 10.03114, 9.977908 
7.297663e+3, 1.35029e+2, -1587402.4, -1627678.9, -1084.8849, 0.0020402884, -0.000013645038, -1587373.3, 29343.516, 0.0, 10.030567, 9.977128 
7.2976667e+3, 1.4500059e+2, -1499838.4, -1547912.5, -2423.8655, 0.0020389487, 0.000248418, -1499716.5, 19278.67, 0.0, 10.029904, 9.966185 
7.297668e+3, 1.5496676e+2, -1403434.8, -1451349.8, -2589.7212, 0.0020419394, 0.00006134949, -1403295.3, 18031.504, 0.0, 10.029156, 9.965659 
7.2976685e+3, 1.6492675e+2, -1316019.6, -1371861.5, -3596.8086, 0.0020441934, 0.0001428766, -1315789.0, 7929.6665, 0.0, 10.028341, 9.9544735 
7.297668e+3, 1.7488128e+2, -1219571.6, -1275067.6, -3717.6445, 0.002045422, 0.00003687575, -1219323.8, 6840.482, 0.0, 10.027463, 9.954066 
7.2976667e+3, 1.8482973e+2, -1132109.8, -1195596.6, -4383.7124, 0.0020436011, 0.00018022106, -1131808.5, -3139.0486, 0.0, 10.026544, 9.9427395 
7.297664e+3, 1.9477251e+2, -1035572.75, -1098596.8, -4471.702, 0.0020390486, 0.000046486402, -1035257.06, -4026.8823, 0.0, 10.025584, 9.942407 
7.297662e+3, 2.0470923e+2, -948036.7, -1019199.0, -4780.225, 0.0020402502, 0.00016741255, -947717.0, -13866.67, 0.0, 10.024606, 9.930859 
7.297659e+3, 2.1464014e+2, -851395.44, -922057.3, -4834.552, 0.0020480317, -0.000027332031, -851066.2, -14538.845, 0.0, 10.023606, 9.930536 
7.2976565e+3, 2.2456495e+2, -763750.8, -842778.1, -4791.8403, 0.0020487946, 0.0002175518, -763461.3, -24197.174, 0.0, 10.022612, 9.918718 
7.2976536e+3, 2.3448376e+2, -666915.8, -745430.44, -4808.3516, 0.0020414197, 0.0000010439063, -666622.44, -24562.672, 0.0, 10.021621, 9.918421 
7.297651e+3, 2.443962e+2, -579230.6, -666521.06, -4424.4585, 0.0020402968, 0.00016198415, -579006.94, -34088.973, 0.0, 10.020653, 9.906152 
7.29765e+3, 2.5430253e+2, -481966.0, -568587.1, -4392.411, 0.002046786, -0.000017274499, -481743.84, -33907.895, 0.0, 10.019711, 9.906103 
7.2976494e+3, 2.6420227e+2, -394340.0, -490364.2, -3691.6328, 0.0020493027, 0.00022725001, -394198.28, -43379.797, 0.0, 10.018811, 9.893103 
7.2976494e+3, 2.7409598e+2, -296368.16, -391371.7, -3599.966, 0.002045326, -0.00012718907, -296231.94, -42371.887, 0.0, 10.017962, 9.893594 
7.297651e+3, 2.8398168e+2, -210752.92, -317983.94, -2580.1191, 0.0020435648, 0.00030215547, -210690.88, -53710.96, 0.0, 10.017172, 9.877151 
7.297654e+3, 2.9385996e+2, -112157.59, -218203.92, -2424.0352, 0.002045729, -0.0001741129, -112102.22, -51929.156, 0.0, 10.016458, 9.877976 
7.297659e+3, 3.0376673e+2, -22553.846, -83733.66, -1047.5479, 0.0020478768, 0.0002503464, -22535.914, -22535.914, 0.0, 10.015819, 9.935244 
7.2976655e+3, 3.13704e+2, -22125.55, -81606.32, -783.1333, 0.002045191, 0.000006551417, -22115.24, -22115.24, 0.0, 10.015289, 9.936934 
7.3076904e+3, 1.2504475e+2, -1681231.0, -1723111.5, -775.63696, 0.0020486207, 0.00016760347, -1681216.6, 33345.816, 0.0, 10.032967, 9.977379 
7.3076946e+3, 1.3502197e+2, -1585175.5, -1627101.3, -997.6261, 0.0020474265, -0.000012938913, -1585151.8, 31633.863, 0.0, 10.032236, 9.9766 
7.3076975e+3, 1.4499308e+2, -1497797.4, -1547329.4, -2414.9224, 0.0020470326, 0.00024950088, -1497679.9, 21388.78, 0.0, 10.031411, 9.965751 
7.3076975e+3, 1.5495881e+2, -1401667.1, -1450915.4, -2592.5374, 0.0020487884, 0.00005991589, -1401531.1, 19873.459, 0.0, 10.030497, 9.965226 
7.3076975e+3, 1.6491844e+2, -1314433.6, -1371403.1, -3658.7363, 0.0020498435, 0.00014114346, -1314199.6, 9600.486, 0.0, 10.029514, 9.954147 
7.307696e+3, 1.7487265e+2, -1218257.9, -1274754.8, -3791.7363, 0.0020499604, 0.0000373407, -1218004.5, 8244.423, 0.0, 10.028467, 9.953742 
7.3076934e+3, 1.8482082e+2, -1130987.5, -1195276.3, -4495.99, 0.0020492494, 0.00018112327, -1130674.6, -1917.7227, 0.0, 10.027379, 9.942511 
7.30769e+3, 1.9476336e+2, -1034720.1, -1098418.0, -4589.586, 0.002048186, 0.000046024103, -1034391.1, -3071.2634, 0.0, 10.02625, 9.94218 
7.307687e+3, 2.0469989e+2, -947378.6, -1019018.7, -4917.629, 0.0020489749, 0.00016620907, -947042.6, -13100.8125, 0.0, 10.025101, 9.93072 
7.3076826e+3, 2.1463068e+2, -851002.2, -922013.0, -4976.9614, 0.0020520014, -0.000028387698, -850655.06, -14034.928, 0.0, 10.0239315, 9.9304 
7.3076785e+3, 2.245554e+2, -763544.1, -842720.3, -4932.499, 0.0020521837, 0.00021719951, -763238.0, -23880.184, 0.0, 10.022767, 9.918678 
7.3076755e+3, 2.3447417e+2, -666964.8, -745500.06, -4948.304, 0.0020490396, 0.000002005052, -666654.25, -24500.451, 0.0, 10.021608, 9.918383 
7.307672e+3, 2.4438661e+2, -579468.1, -666583.5, -4545.4673, 0.0020489933, 0.0001625882, -579231.56, -34219.63, 0.0, 10.020471, 9.906202 
7.3076695e+3, 2.54293e+2, -482456.75, -568771.8, -4510.9473, 0.002052533, -0.000019202378, -482221.63, -34292.215, 0.0, 10.019359, 9.906158 
7.307668e+3, 2.6419282e+2, -395007.84, -490529.6, -3769.3254, 0.0020539728, 0.00022541861, -394859.3, -43948.324, 0.0, 10.018293, 9.8932495 
7.307668e+3, 2.740867e+2, -297264.9, -391642.0, -3668.3816, 0.00205121, -0.00012525466, -297122.53, -43171.504, 0.0, 10.017287, 9.893747 
7.307668e+3, 2.839726e+2, -211840.47, -318279.6, -2593.2188, 0.002050129, 0.00030422758, -211777.33, -54708.2, 0.0, 10.016338, 9.877362 
7.30767e+3, 2.9385105e+2, -113471.71, -218602.1, -2424.7988, 0.0020520657, -0.00017665408, -113415.81, -53155.625, 0.0, 10.015464, 9.878193 
7.307674e+3, 3.0375808e+2, -23990.236, -84045.21, -973.2165, 0.0020539938, 0.00024717342, -23974.469, -23974.469, 0.0, 10.014671, 9.935586 
7.30768e+3, 3.1369573e+2, -23761.15, -81996.125, -688.16656, 0.0020511814, 0.000009187927, -23753.02, -23753.02, 0.0, 10.013997, 9.937293 
7.3177236e+3, 1.2503867e+2, -1681575.5, -1723933.9, -984.44904, 0.0020510475, 0.00016386877, -1681552.6, 33069.51, 0.0, 10.033049, 9.976831 
7.317727e+3, 1.3501535e+2, -1585537.8, -1627930.3, -1206.3259, 0.0020559186, -0.0000117549625, -1585503.5, 31347.105, 0.0, 10.032304, 9.976052 
7.3177284e+3, 1.4498596e+2, -1498093.3, -1548008.8, -2691.5676, 0.002057118, 0.00025166653, -1497948.6, 21189.947, 0.0, 10.031466, 9.965302 
7.3177284e+3, 1.5495123e+2, -1401977.9, -1451599.9, -2869.9404, 0.0020559812, 0.00005852959, -1401812.4, 19666.395, 0.0, 10.0305395, 9.964778 
7.317727e+3, 1.6491048e+2, -1314670.5, -1371923.6, -3985.7673, 0.0020546652, 0.00013909425, -1314394.3, 9483.973, 0.0, 10.029546, 9.953808 
7.317724e+3, 1.7486434e+2, -1218510.1, -1275280.8, -4119.4805, 0.0020530317, 0.000037517693, -1218212.8, 8117.644, 0.0, 10.028486, 9.9534025 
7.3177207e+3, 1.848122e+2, -1131172.1, -1195648.3, -4855.3687, 0.002054506, 0.00018221766, -1130808.5, -1967.4127, 0.0, 10.027386, 9.942274 
7.3177165e+3, 1.9475453e+2, -1034919.5, -1098794.9, -4950.432, 0.0020598215, 0.00004633256, -1034538.1, -3131.701, 0.0, 10.026245, 9.941944 
7.317712e+3, 2.0469087e+2, -947518.25, -1019257.7, -5294.3677, 0.0020595104, 0.00016555475, -947129.7, -13099.42, 0.0, 10.025085, 9.930577 
7.3177063e+3, 2.146215e+2, -851152.9, -922254.94, -5353.768, 0.0020531968, -0.000030427329, -850752.0, -14042.022, 0.0, 10.023907, 9.930259 
7.3177016e+3, 2.2454615e+2, -763630.4, -842812.2, -5306.226, 0.0020524722, 0.00021618258, -763276.4, -23827.814, 0.0, 10.022732, 9.918637 
7.317697e+3, 2.3446487e+2, -667066.9, -745596.0, -5322.657, 0.0020584252, 0.0000047545427, -666707.75, -24462.863, 0.0, 10.021561, 9.918345 
7.3176926e+3, 2.4437732e+2, -579515.25, -666545.9, -4903.046, 0.0020602196, 0.00016477572, -579239.9, -34136.938, 0.0, 10.020413, 9.906257 
7.317689e+3, 2.5428376e+2, -482512.97, -568733.8, -4867.473, 0.0020565875, -0.00002297609, -482239.06, -34219.145, 0.0, 10.019293, 9.906217 
7.317686e+3, 2.641837e+2, -395006.2, -490349.72, -4088.63, 0.0020557474, 0.00022184748, -394831.16, -43830.69, 0.0, 10.018217, 9.893405 
7.317684e+3, 2.740777e+2, -297278.7, -391462.28, -3986.19, 0.0020573982, -0.00012076218, -297110.28, -43071.426, 0.0, 10.017198, 9.893909 
7.317684e+3, 2.8396383e+2, -211827.94, -318016.22, -2864.309, 0.0020579917, 0.00030948012, -211750.73, -54595.66, 0.0, 10.016236, 9.877585 
7.3176855e+3, 2.938425e+2, -113471.625, -218339.19, -2690.7424, 0.0020575733, -0.00018183376, -113402.625, -53058.65, 0.0, 10.015352, 9.878422 
7.317689e+3, 3.0374986e+2, -23917.576, -83604.44, -1169.5232, 0.0020584955, 0.00024081973, -23894.67, -23894.67, 0.0, 10.014548, 9.935944 
7.3176944e+3, 3.1368786e+2, -23697.291, -81540.84, -877.3615, 0.002057, 0.000015491534, -23683.986, -23683.986, 0.0, 10.01386, 9.937667 
7.327758e+3, 1.2503345e+2, -1678841.5, -1723118.0, -829.3731, 0.0020578275, 0.00017022499, -1678826.0, 35847.223, 0.0, 10.035043, 9.976269 
7.3277605e+3, 1.3500957e+2, -1583095.9, -1627276.5, -1065.9612, 0.002061891, -0.000013932505, -1583070.3, 33837.063, 0.0, 10.034124, 9.975491 
7.3277605e+3, 1.4497966e+2, -1495858.5, -1547359.3, -2630.625, 0.002062736, 0.00024774953, -1495724.5, 23475.732, 0.0, 10.033111, 9.964837 
7.32776e+3, 1.5494448e+2, -1400034.4, -1451109.0, -2822.4778, 0.0020614914, 0.00005935154, -1399878.9, 21666.215, 0.0, 10.032007, 9.9643135 
7.3277575e+3, 1.649033e+2, -1312928.4, -1371416.4, -3999.5725, 0.002060868, 0.00014023221, -1312656.3, 11292.353, 0.0, 10.030832, 9.953453 
7.3277533e+3, 1.7485681e+2, -1217066.9, -1274933.3, -4144.0264, 0.002060804, 0.000034695655, -1216771.6, 9632.525, 0.0, 10.029588, 9.95305 
7.3277485e+3, 1.8480438e+2, -1129944.4, -1195300.4, -4919.983, 0.0020617938, 0.00017897961, -1129576.1, -658.2158, 0.0, 10.028301, 9.942021 
7.3277426e+3, 1.9474645e+2, -1033990.8, -1098604.1, -5024.8203, 0.0020644525, 0.00004653662, -1033602.4, -2116.7659, 0.0, 10.026972, 9.941693 
7.3277366e+3, 2.0468259e+2, -946797.56, -1019055.06, -5387.323, 0.002064009, 0.00016669263, -946398.06, -12286.716, 0.0, 10.025625, 9.930431 
7.3277307e+3, 2.1461308e+2, -850718.06, -922199.0, -5449.69, 0.0020602872, -0.00003093058, -850305.0, -13512.435, 0.0, 10.024263, 9.930115 
7.3277247e+3, 2.2453761e+2, -763407.2, -842750.56, -5403.2183, 0.002060244, 0.00021486309, -763040.94, -23508.87, 0.0, 10.022901, 9.918593 
7.327718e+3, 2.3445632e+2, -667136.5, -745680.6, -5421.617, 0.0020645868, 0.0000035834046, -666764.0, -24435.225, 0.0, 10.021536, 9.918304 
7.327713e+3, 2.4436876e+2, -579788.75, -666615.44, -4978.827, 0.002065502, 0.00016416596, -579504.2, -34317.4, 0.0, 10.020203, 9.906317 
7.327708e+3, 2.5427526e+2, -483051.06, -568930.3, -4938.269, 0.002061723, -0.000022654063, -482768.03, -34664.945, 0.0, 10.018904, 9.906282 
7.327704e+3, 2.6417533e+2, -395744.94, -490537.47, -4120.4395, 0.00206132, 0.00022206812, -395566.16, -44483.57, 0.0, 10.017648, 9.893564 
7.3277014e+3, 2.7406952e+2, -298287.13, -391775.03, -4012.4966, 0.0020639799, -0.000121874335, -298115.22, -43995.86, 0.0, 10.016441, 9.894074 
7.3277e+3, 2.839558e+2, -213042.6, -318338.97, -2830.8403, 0.0020647042, 0.00030820013, -212966.55, -55732.926, 0.0, 10.015302, 9.877828 
7.3277e+3, 2.9383475e+2, -114925.35, -218768.0, -2640.5247, 0.0020629365, -0.00018105963, -114858.25, -54438.195, 0.0, 10.014248, 9.878672 
7.3277026e+3, 3.0374238e+2, -25519.285, -83967.85, -1043.3378, 0.0020633277, 0.00024220994, -25500.666, -25500.666, 0.0, 10.013275, 9.936311 
7.3277074e+3, 3.136808e+2, -25531.293, -81999.88, -735.9621, 0.0020627007, 0.000015321511, -25521.703, -25521.703, 0.0, 10.012422, 9.938049 
7.337793e+3, 1.2502877e+2, -1679210.3, -1723992.6, -1096.2725, 0.0020639955, 0.0001558484, -1679183.5, 35535.523, 0.0, 10.035129, 9.975687 
7.3377943e+3, 1.3500431e+2, -1583476.4, -1628153.9, -1333.1493, 0.0020674616, -0.000015390855, -1583436.6, 33522.03, 0.0, 10.034199, 9.97491 
7.337794e+3, 1.4497387e+2, -1496171.4, -1548086.4, -2966.094, 0.0020668923, 0.00024107425, -1496002.4, 23254.443, 0.0, 10.033173, 9.9643545 
7.3377913e+3, 1.5493822e+2, -1400364.8, -1451842.6, -3158.178, 0.0020667908, 0.00006105364, -1400171.8, 21434.63, 0.0, 10.032055, 9.963832 
7.3377883e+3, 1.6489662e+2, -1313181.6, -1371977.6, -4387.9326, 0.0020679098, 0.00014316208, -1312856.0, 11158.027, 0.0, 10.030868, 9.953085 
7.337783e+3, 1.7484976e+2, -1217335.6, -1275499.9, -4533.5815, 0.0020703168, 0.000031344403, -1216984.4, 9488.782, 0.0, 10.029611, 9.952683 
7.337777e+3, 1.8479702e+2, -1130144.3, -1195711.9, -5342.0903, 0.0020697897, 0.00017472055, -1129711.8, -721.7552, 0.0, 10.028312, 9.941757 
7.33777e+3, 1.9473884e+2, -1034203.25, -1099019.5, -5447.327, 0.0020666425, 0.000046788038, -1033748.6, -2188.3076, 0.0, 10.026972, 9.94143 
7.337763e+3, 2.0467477e+2, -946936.5, -1019302.0, -5823.4697, 0.002066279, 0.00016868937, -946470.8, -12282.723, 0.0, 10.025615, 9.930282 
7.337755e+3, 2.1460511e+2, -850875.56, -922452.3, -5886.998, 0.0020693487, -0.000030579395, -850394.56, -13523.843, 0.0, 10.024238, 9.929967 
7.337747e+3, 2.2452953e+2, -763500.56, -842852.8, -5841.6733, 0.002070379, 0.0002138385, -763072.8, -23461.56, 0.0, 10.022863, 9.918547 
7.3377395e+3, 2.344482e+2, -667238.94, -745783.7, -5860.1436, 0.0020691303, 0.0000014419148, -666804.1, -24395.703, 0.0, 10.021492, 9.918262 
7.337733e+3, 2.4436066e+2, -579823.5, -666558.6, -5394.8853, 0.002068057, 0.00016292182, -579489.25, -34222.934, 0.0, 10.020147, 9.906383 
7.3377264e+3, 2.5426722e+2, -483103.4, -568876.4, -5354.474, 0.002066958, -0.000020468371, -482770.44, -34588.555, 0.0, 10.018834, 9.906352 
7.3377216e+3, 2.641674e+2, -395744.28, -490347.53, -4503.6147, 0.0020678195, 0.00022428799, -395530.38, -44370.113, 0.0, 10.017566, 9.893729 
7.337718e+3, 2.7406177e+2, -298296.03, -391582.8, -4392.9077, 0.0020700255, -0.00012470676, -298089.63, -43894.242, 0.0, 10.016351, 9.894246 
7.3377156e+3, 2.8394827e+2, -213005.61, -318024.5, -3158.1829, 0.0020701622, 0.00030515096, -212910.72, -55603.113, 0.0, 10.0152, 9.878085 
7.337715e+3, 2.9382744e+2, -114904.97, -218453.31, -2964.5505, 0.0020676006, -0.00017782733, -114820.164, -54328.777, 0.0, 10.014132, 9.878936 
7.3377156e+3, 3.037354e+2, -25440.33, -83499.16, -1297.7955, 0.0020676034, 0.0002470394, -25411.334, -25411.334, 0.0, 10.013145, 9.936689 
7.33772e+3, 3.136742e+2, -25462.074, -81519.625, -980.51495, 0.0020673103, 0.0000131422, -25444.93, -25444.93, 0.0, 10.012278, 9.938443 
7.3478293e+3, 1.2502518e+2, -1676231.8, -1723087.1, -886.8512, 0.0020725338, 0.00015602163, -1676215.0, 38539.152, 0.0, 10.037294, 9.975087 
7.3478293e+3, 1.3500017e+2, -1580799.8, -1627415.5, -1139.6354, 0.0020783322, 0.000035357374, -1580771.9, 36227.406, 0.0, 10.036185, 9.974313 
7.347828e+3, 1.4496912e+2, -1493719.1, -1547356.3, -2857.6738, 0.0020671117, 0.00019800018, -1493567.4, 25736.273, 0.0, 10.03497, 9.963859 
7.3478246e+3, 1.5493299e+2, -1398237.4, -1451289.1, -3062.679, 0.0020734158, 0.000057274658, -1398061.1, 23596.469, 0.0, 10.033655, 9.963338 
7.347819e+3, 1.6489096e+2, -1311284.1, -1371422.3, -4354.53, 0.0020763949, 0.00015459591, -1310970.4, 13099.054, 0.0, 10.032268, 9.952701 
7.347813e+3, 1.748437e+2, -1215761.5, -1275117.4, -4511.432, 0.002076021, 0.00003301027, -1215420.6, 11111.955, 0.0, 10.03081, 9.9523 
7.3478055e+3, 1.8479064e+2, -1128798.8, -1195324.6, -5357.9277, 0.0020745604, 0.00017158201, -1128370.0, 682.6426, 0.0, 10.029311, 9.941485 
7.347797e+3, 1.9473217e+2, -1033175.06, -1098798.9, -5469.469, 0.0020724349, 0.000044440985, -1032722.3, -1096.7881, 0.0, 10.027772, 9.94116 
7.347789e+3, 2.046679e+2, -946142.44, -1019077.1, -5866.956, 0.0020728405, 0.00016724068, -945673.5, -11418.104, 0.0, 10.026208, 9.930121 
7.347779e+3, 2.1459809e+2, -850411.7, -922397.0, -5935.8657, 0.002076329, -0.000030835618, -849925.5, -12985.921, 0.0, 10.024618, 9.92981 
7.34777e+3, 2.2452241e+2, -763264.9, -842785.44, -5886.7754, 0.0020766624, 0.00021380522, -762831.44, -23150.355, 0.0, 10.02304, 9.918502 
7.3477614e+3, 2.3444103e+2, -667302.06, -745865.06, -5904.4883, 0.0020732866, 0.0000004629805, -666860.8, -24382.12, 0.0, 10.021471, 9.91822 
7.347753e+3, 2.4435349e+2, -580113.75, -666633.7, -5419.5864, 0.0020724772, 0.00016182587, -579775.56, -34439.082, 0.0, 10.019924, 9.9064455 
7.347746e+3, 2.5426012e+2, -483706.94, -569102.9, -5378.131, 0.002074461, -0.000020765596, -483369.56, -35118.164, 0.0, 10.0184, 9.906421 
7.347739e+3, 2.641604e+2, -396567.16, -490555.1, -4482.9443, 0.00207562, 0.00022406381, -396353.8, -45125.223, 0.0, 10.01693, 9.893908 
7.347734e+3, 2.7405497e+2, -299395.63, -391917.25, -4361.581, 0.0020740926, -0.00012576206, -299190.47, -44928.547, 0.0, 10.015523, 9.894432 
7.34773e+3, 2.839417e+2, -214332.52, -318378.72, -3067.007, 0.0020732002, 0.00030402426, -214242.19, -56870.227, 0.0, 10.014178, 9.878348 
7.347728e+3, 2.9382116e+2, -116511.336, -218933.33, -2862.8552, 0.002073345, -0.0001773281, -116431.375, -55878.285, 0.0, 10.012914, 9.879207 
7.3477286e+3, 3.0372947e+2, -27215.746, -83905.02, -1117.9921, 0.0020744298, 0.00024769022, -27193.705, -27193.705, 0.0, 10.011737, 9.937094 
7.347731e+3, 3.1366867e+2, -27491.986, -82029.43, -777.62024, 0.00207265, 0.000011839339, -27480.902, -27480.902, 0.0, 10.010687, 9.938865 
7.357866e+3, 1.2502229e+2, -1676613.9, -1724012.1, -1209.9161, 0.0020747725, 0.0001262769, -1676583.0, 38199.574, 0.0, 10.037392, 9.974469 
7.3578656e+3, 1.3499674e+2, -1581203.5, -1628348.8, -1463.9788, 0.002092641, 0.00011290776, -1581158.1, 35874.82, 0.0, 10.036265, 9.973695 
7.3578626e+3, 1.44965e+2, -1494053.1, -1548130.1, -3258.3086, 0.0020656278, 0.00013534295, -1493857.5, 25486.371, 0.0, 10.035035, 9.963346 
7.3578584e+3, 1.549284e+2, -1398586.3, -1452067.8, -3463.8386, 0.0020808438, 0.000052173433, -1398362.9, 23339.621, 0.0, 10.033708, 9.962826 
7.357852e+3, 1.6488595e+2, -1311553.0, -1372026.1, -4808.837, 0.0020858739, 0.00017226403, -1311173.0, 12945.558, 0.0, 10.032308, 9.952304 
7.3578435e+3, 1.7483829e+2, -1216044.4, -1275725.6, -4966.496, 0.0020805348, 0.000036638197, -1215634.0, 10951.702, 0.0, 10.030839, 9.951904 
7.357835e+3, 1.8478486e+2, -1129004.1, -1195757.8, -5845.2085, 0.002078213, 0.00016828341, -1128496.3, 612.8781, 0.0, 10.029327, 9.941206 
7.357825e+3, 1.9472614e+2, -1033399.94, -1099238.9, -5957.8145, 0.0020796414, 0.00004165619, -1032865.1, -1180.4335, 0.0, 10.027772, 9.940882 
7.3578143e+3, 2.0466164e+2, -946293.4, -1019348.25, -6374.5493, 0.0020808554, 0.00016559115, -945741.3, -11424.533, 0.0, 10.0261965, 9.929956 
7.3578036e+3, 2.1459164e+2, -850572.7, -922669.94, -6444.1377, 0.0020821919, -0.000030999374, -850001.25, -12998.677, 0.0, 10.024598, 9.9296465 
7.3577935e+3, 2.2451589e+2, -763349.25, -842881.7, -6389.2334, 0.0020810491, 0.00021430697, -762839.25, -23094.166, 0.0, 10.023007, 9.918458 
7.357783e+3, 2.3443446e+2, -667406.06, -745966.75, -6408.0034, 0.002077162, 0.00000051014234, -666886.8, -24343.717, 0.0, 10.021424, 9.918179 
7.357773e+3, 2.4434692e+2, -580154.1, -666579.8, -5907.4766, 0.002077244, 0.00016144481, -579752.25, -34351.426, 0.0, 10.019864, 9.906511 
7.3577636e+3, 2.5425363e+2, -483757.38, -569048.44, -5865.314, 0.0020820873, -0.000021559454, -483355.94, -35040.9, 0.0, 10.018332, 9.906491 
7.357756e+3, 2.6415405e+2, -396546.22, -490329.0, -4929.4424, 0.0020829095, 0.00022354655, -396287.8, -44996.824, 0.0, 10.0168495, 9.894094 
7.357749e+3, 2.740488e+2, -299390.47, -391690.03, -4807.2446, 0.0020769895, -0.0001255887, -299140.75, -44818.367, 0.0, 10.0154295, 9.894628 
7.357744e+3, 2.8393576e+2, -214289.95, -318041.56, -3463.2778, 0.0020749215, 0.00030454563, -214174.47, -56744.32, 0.0, 10.014071, 9.878623 
7.357741e+3, 2.9381552e+2, -116483.32, -218596.22, -3253.4336, 0.0020786144, -0.00017756886, -116379.766, -55771.207, 0.0, 10.0127945, 9.879488 
7.3577404e+3, 3.037241e+2, -27110.502, -83376.3, -1433.3625, 0.002081091, 0.0002474127, -27074.01, -27074.01, 0.0, 10.011604, 9.937515 
7.3577416e+3, 3.1366378e+2, -27396.686, -81485.375, -1086.0735, 0.0020771145, 0.000011588513, -27374.887, -27374.887, 0.0, 10.010539, 9.939304 
7.367905e+3, 1.2502068e+2, -1673345.9, -1722999.1, -940.3549, 0.0020734044, 0.00008553773, -1673328.0, 41470.223, 0.0, 10.039761, 9.973827 
7.3679036e+3, 1.3499457e+2, -1578289.3, -1627532.1, -1213.1293, 0.0021070444, 0.0001626427, -1578259.4, 38794.734, 0.0, 10.038423, 9.973055 
7.367899e+3, 1.4496218e+2, -1491389.1, -1547321.9, -3093.5906, 0.0020676064, 0.00008598404, -1491218.5, 28153.135, 0.0, 10.036981, 9.962819 
7.367893e+3, 1.549251e+2, -1396268.9, -1451448.4, -3311.6123, 0.002086714, 0.00005270781, -1396070.9, 25664.076, 0.0, 10.035442, 9.962301 
7.3678845e+3, 1.6488217e+2, -1309483.1, -1371409.1, -4718.192, 0.0020927256, 0.00018861527, -1309125.8, 15029.765, 0.0, 10.03383, 9.951894 
7.3678756e+3, 1.7483409e+2, -1214320.3, -1275293.8, -4885.268, 0.0020853546, 0.00003327745, -1213931.4, 12695.433, 0.0, 10.032147, 9.951496 
7.367865e+3, 1.8478031e+2, -1127535.1, -1195327.5, -5805.6665, 0.0020833146, 0.00015910719, -1127041.5, 2112.1897, 0.0, 10.030415, 9.940915 
7.367853e+3, 1.947213e+2, -1032290.8, -1098997.9, -5925.3784, 0.0020875025, 0.000041963158, -1031768.56, -36.503483, 0.0, 10.028632, 9.940593 
7.3678416e+3, 2.0465657e+2, -945434.9, -1019101.4, -6358.8306, 0.0020882317, 0.00016849185, -944890.06, -10523.654, 0.0, 10.026835, 9.929787 
7.3678285e+3, 2.1458642e+2, -850047.0, -922593.94, -6431.216, 0.002085327, -0.00003309881, -849481.3, -12427.482, 0.0, 10.025023, 9.929479 
7.3678166e+3, 2.2451055e+2, -763074.2, -842800.4, -6376.413, 0.002084248, 0.00021103332, -762567.44, -22769.99, 0.0, 10.023211, 9.9184065 
7.367804e+3, 2.3442906e+2, -667482.75, -746061.4, -6397.301, 0.002085387, 0.00000054636075, -666965.3, -24369.463, 0.0, 10.021397, 9.918132 
7.367793e+3, 2.4434155e+2, -580478.4, -666661.8, -5872.252, 0.0020858566, 0.00016206001, -580080.1, -34626.625, 0.0, 10.019613, 9.906583 
7.367782e+3, 2.5424835e+2, -484399.13, -569283.1, -5824.7373, 0.0020850138, -0.000023943167, -484001.28, -35634.305, 0.0, 10.017867, 9.906569 
7.3677725e+3, 2.6414886e+2, -397430.22, -490557.34, -4845.5796, 0.0020847386, 0.0002210913, -397178.78, -45837.086, 0.0, 10.016169, 9.894281 
7.367764e+3, 2.7404383e+2, -300596.75, -392068.1, -4719.228, 0.002083636, -0.00012405105, -300353.9, -45982.75, 0.0, 10.014526, 9.894821 
7.3677576e+3, 2.8393102e+2, -215739.33, -318417.38, -3312.7095, 0.0020829774, 0.00030632815, -215632.56, -58156.004, 0.0, 10.012952, 9.878921 
7.367753e+3, 2.9381105e+2, -118228.89, -219102.81, -3084.0217, 0.002082696, -0.00018055177, -118134.695, -57482.707, 0.0, 10.011465, 9.879795 
7.367751e+3, 3.0372006e+2, -29058.648, -83840.06, -1183.9856, 0.0020838876, 0.0002437611, -29033.072, -29033.072, 0.0, 10.010067, 9.937942 
7.3677516e+3, 3.1366014e+2, -29635.701, -82073.19, -823.2778, 0.0020829332, 0.000014319147, -29622.78, -29622.78, 0.0, 10.008796, 9.939746 
7.3779446e+3, 1.2502001e+2, -1673759.0, -1723992.5, -1331.2915, 0.0020790582, 0.000105083556, -1673723.6, 41081.066, 0.0, 10.039862, 9.973165 
7.3779416e+3, 1.3499326e+2, -1578716.4, -1628529.6, -1604.4535, 0.0021214285, 0.00019853117, -1578664.8, 38402.273, 0.0, 10.038511, 9.972392 
7.377936e+3, 1.449602e+2, -1491732.0, -1548135.8, -3559.8247, 0.002071215, 0.000046428984, -1491508.3, 27882.795, 0.0, 10.037056, 9.962276 
7.3779285e+3, 1.549226e+2, -1396630.3, -1452268.3, -3779.7307, 0.002092468, 0.00005556825, -1396374.6, 25384.707, 0.0, 10.035502, 9.96176 
7.377919e+3, 1.6487923e+2, -1309763.9, -1372047.4, -5241.1675, 0.00209904, 0.00020363522, -1309325.9, 14858.607, 0.0, 10.033875, 9.951473 
7.3779076e+3, 1.7483069e+2, -1214619.0, -1275937.9, -5409.412, 0.0020907142, 0.000028325456, -1214145.5, 12514.546, 0.0, 10.032178, 9.951077 
7.377895e+3, 1.8477656e+2, -1127752.0, -1195789.5, -6368.013, 0.0020891272, 0.00014939939, -1127161.1, 2029.4087, 0.0, 10.030433, 9.940616 
7.377882e+3, 1.9471726e+2, -1032520.5, -1099463.4, -6489.0166, 0.0020953054, 0.000043654905, -1031897.3, -125.574814, 0.0, 10.02864, 9.940295 
7.377868e+3, 2.0465228e+2, -945582.25, -1019379.56, -6935.86, 0.002094968, 0.0001732275, -944936.06, -10527.739, 0.0, 10.02683, 9.929614 
7.3778534e+3, 2.1458197e+2, -850214.94, -922879.4, -7009.578, 0.0020876538, -0.000035189318, -849544.94, -12447.437, 0.0, 10.0250025, 9.929308 
7.377839e+3, 2.2450596e+2, -763167.25, -842909.75, -6957.1025, 0.0020869668, 0.00020725875, -762564.8, -22722.58, 0.0, 10.023176, 9.918355 
7.377826e+3, 2.3442446e+2, -667587.5, -746172.44, -6978.693, 0.0020944513, 0.0000010783051, -666972.56, -24331.494, 0.0, 10.021352, 9.918083 
7.377812e+3, 2.4433695e+2, -580503.5, -666586.75, -6430.741, 0.002094832, 0.00016349369, -580025.75, -34527.145, 0.0, 10.019558, 9.90666 
7.3778e+3, 2.542438e+2, -484440.6, -569209.56, -6384.1084, 0.0020859907, -0.000026056474, -483962.47, -35551.188, 0.0, 10.017797, 9.9066515 
7.3777884e+3, 2.6414448e+2, -397409.97, -490326.97, -5368.8687, 0.0020842017, 0.00021900491, -397100.78, -45716.094, 0.0, 10.016086, 9.894473 
7.377779e+3, 2.7403966e+2, -300590.63, -391837.0, -5239.957, 0.0020908066, -0.000121748024, -300290.72, -45878.52, 0.0, 10.014431, 9.8950205 
7.3777705e+3, 2.8392708e+2, -215668.55, -318020.94, -3779.3787, 0.0020922073, 0.00030911562, -215529.19, -58014.05, 0.0, 10.012844, 9.879233 
7.3777646e+3, 2.9380748e+2, -118172.2, -218702.03, -3547.8804, 0.0020855218, -0.00018362659, -118047.15, -57359.74, 0.0, 10.011344, 9.880119 
7.377761e+3, 3.0371684e+2, -28945.496, -83288.73, -1572.7435, 0.0020844839, 0.00024039361, -28900.018, -28900.018, 0.0, 10.009932, 9.938379 
7.3777604e+3, 3.1365737e+2, -29535.564, -81512.72, -1201.9905, 0.0020877167, 0.00001853498, -29507.783, -29507.783, 0.0, 10.008645, 9.940197 
7.3879856e+3, 1.2502089e+2, -1670207.1, -1722869.9, -991.6539, 0.0020829653, 0.000079581834, -1670188.4, 44607.746, 0.0, 10.042427, 9.972486 
7.3879814e+3, 1.3499345e+2, -1575535.0, -1627612.6, -1281.2352, 0.0021246418, 0.0001846849, -1575503.5, 41561.52, 0.0, 10.040855, 9.971715 
7.387974e+3, 1.4495979e+2, -1488825.6, -1547238.4, -3325.7864, 0.0020744738, 0.00005703599, -1488636.9, 30757.969, 0.0, 10.039172, 9.961715 
7.387965e+3, 1.5492165e+2, -1394108.0, -1451580.5, -3559.0313, 0.0020975536, 0.000052497257, -1393888.5, 27880.332, 0.0, 10.037385, 9.9612 
7.3879534e+3, 1.6487776e+2, -1307516.6, -1371364.0, -5083.2993, 0.0021056717, 0.00019706269, -1307114.5, 17084.342, 0.0, 10.0355215, 9.951039 
7.38794e+3, 1.748288e+2, -1212755.0, -1275460.3, -5260.536, 0.002098711, 0.000029095814, -1212316.8, 14361.814, 0.0, 10.0335865, 9.9506445 
7.387926e+3, 1.847743e+2, -1126160.8, -1195316.1, -6259.255, 0.0020958458, 0.00015145574, -1125598.8, 3613.934, 0.0, 10.031607, 9.940307 
7.387911e+3, 1.9471468e+2, -1031296.9, -1099183.6, -6386.419, 0.0020978688, 0.00004078476, -1030701.3, 1095.6224, 0.0, 10.029582, 9.939987 
7.387895e+3, 2.0464946e+2, -944631.7, -1019098.2, -6853.4927, 0.0020979636, 0.00016954356, -944006.2, -9570.222, 0.0, 10.027534, 9.929433 
7.387879e+3, 2.1457897e+2, -849647.7, -922795.25, -6931.2886, 0.0020961207, -0.000034923032, -848996.7, -11869.859, 0.0, 10.025459, 9.929129 
7.387863e+3, 2.2450285e+2, -762872.0, -842819.7, -6875.418, 0.0020957384, 0.00020803978, -762285.06, -22412.314, 0.0, 10.023393, 9.918303 
7.387847e+3, 2.3442128e+2, -667648.5, -746260.3, -6896.2607, 0.002097185, -0.000001742087, -667048.1, -24376.006, 0.0, 10.021334, 9.918035 
7.387832e+3, 2.4433379e+2, -580832.5, -666670.06, -6325.0684, 0.0020964674, 0.00016065118, -580368.94, -34839.41, 0.0, 10.019302, 9.906733 
7.3878175e+3, 2.5424075e+2, -485131.25, -569467.94, -6277.785, 0.002092508, -0.000024560994, -484666.5, -36225.074, 0.0, 10.0173, 9.90673 
7.3878044e+3, 2.6414153e+2, -398364.38, -490570.22, -5217.871, 0.0020919621, 0.00022062642, -398070.06, -46656.563, 0.0, 10.0153475, 9.894677 
7.3877925e+3, 2.7403688e+2, -301887.2, -392238.38, -5078.5723, 0.0020945373, -0.0001256101, -301602.63, -47163.668, 0.0, 10.013457, 9.895232 
7.387783e+3, 2.839246e+2, -217231.42, -318426.78, -3552.367, 0.0020947175, 0.00030471702, -217106.88, -59567.547, 0.0, 10.011636, 9.879554 
7.387775e+3, 2.9380533e+2, -120064.69, -219254.66, -3309.9124, 0.0020905673, -0.0001808747, -119954.36, -59246.02, 0.0, 10.009904, 9.880448 
7.38777e+3, 3.0371505e+2, -31064.188, -83797.62, -1256.2803, 0.002090343, 0.00024428417, -31034.275, -31034.275, 0.0, 10.008262, 9.938839 
7.387768e+3, 3.136561e+2, -31974.295, -82158.5, -863.98065, 0.0020914138, 0.000014495634, -31959.424, -31959.424, 0.0, 10.006749, 9.940673 
7.3980284e+3, 1.2502286e+2, -1670635.4, -1723914.4, -1452.6775, 0.0020964227, 0.00008480205, -1670595.9, 44180.96, 0.0, 10.042538, 9.971786 
7.398022e+3, 1.3499469e+2, -1575982.3, -1628662.6, -1743.8896, 0.0021237412, 0.00014461695, -1575924.5, 41128.297, 0.0, 10.040951, 9.971017 
7.3980135e+3, 1.4496046e+2, -1489188.9, -1548103.3, -3868.721, 0.0020797139, 0.000094359755, -1488935.9, 30452.465, 0.0, 10.039252, 9.961138 
7.398002e+3, 1.549217e+2, -1394486.9, -1452449.5, -4102.41, 0.002103048, 0.00004848439, -1394197.9, 27570.33, 0.0, 10.037451, 9.960624 
7.397989e+3, 1.648773e+2, -1307805.0, -1372034.8, -5682.597, 0.0021122391, 0.00018126205, -1307306.1, 16897.275, 0.0, 10.035574, 9.950594 
7.397974e+3, 1.7482792e+2, -1213061.0, -1276136.5, -5862.009, 0.00210755, 0.00003217146, -1212520.9, 14166.506, 0.0, 10.033625, 9.950201 
7.397958e+3, 1.8477303e+2, -1126382.3, -1195800.5, -6896.447, 0.0021029767, 0.00015921376, -1125703.8, 3521.4336, 0.0, 10.03163, 9.93999 
7.39794e+3, 1.9471307e+2, -1031538.06, -1099675.0, -7024.916, 0.0020990463, 0.000037276626, -1030821.3, 991.24396, 0.0, 10.02959, 9.939673 
7.397923e+3, 2.0464762e+2, -944787.75, -1019395.94, -7512.3887, 0.0020997454, 0.0001636879, -944038.8, -9584.765, 0.0, 10.027528, 9.929247 
7.3979044e+3, 2.1457693e+2, -849818.0, -923096.9, -7591.8423, 0.0021061783, -0.000033352386, -849039.75, -11893.028, 0.0, 10.025442, 9.928946 
7.3978865e+3, 2.245007e+2, -762956.3, -842924.1, -7533.037, 0.0021057772, 0.00021104532, -762252.9, -22359.137, 0.0, 10.023363, 9.918251 
7.397868e+3, 2.3441908e+2, -667750.06, -746369.0, -7555.765, 0.002097518, -0.000004691215, -667030.5, -24336.871, 0.0, 10.021291, 9.917987 
7.3978513e+3, 2.443316e+2, -580859.94, -666599.4, -6966.2734, 0.002095193, 0.0001573054, -580297.6, -34746.688, 0.0, 10.019245, 9.906808 
7.3978347e+3, 2.5423864e+2, -485174.78, -569399.3, -6918.8804, 0.0021003403, -0.00002140864, -484610.22, -36148.176, 0.0, 10.017229, 9.90681 
7.397819e+3, 2.641396e+2, -398326.75, -490306.2, -5820.413, 0.002101576, 0.00022417551, -397959.9, -46527.23, 0.0, 10.015265, 9.894891 
7.397806e+3, 2.7403516e+2, -301861.5, -391970.56, -5681.1606, 0.002096326, -0.00013054858, -301504.72, -47048.703, 0.0, 10.013363, 9.895454 
7.397795e+3, 2.8392315e+2, -217146.81, -318003.72, -4101.02, 0.0020940262, 0.00029922705, -216980.33, -59426.594, 0.0, 10.011529, 9.879884 
7.397785e+3, 2.938042e+2, -119998.66, -218830.88, -3853.535, 0.0020953955, -0.00017569055, -119848.625, -59129.277, 0.0, 10.00978, 9.880789 
7.397778e+3, 3.0371436e+2, -30927.773, -83191.83, -1722.4275, 0.0020969438, 0.00025163242, -30871.07, -30871.07, 0.0, 10.008123, 9.939315 
7.3977745e+3, 3.1365585e+2, -31847.316, -81538.766, -1323.0326, 0.002092992, 0.000008973076, -31812.117, -31812.117, 0.0, 10.006597, 9.941166 
7.4080724e+3, 1.2502678e+2, -1666771.8, -1722673.4, -1033.7643, 0.0021076193, 0.00015976603, -1666752.6, 47985.887, 0.0, 10.0453205, 9.971063 
7.4080646e+3, 1.3499776e+2, -1572540.3, -1627654.0, -1343.167, 0.0021225228, 0.00007648102, -1572507.5, 44515.26, 0.0, 10.04348, 9.970297 
7.408054e+3, 1.4496298e+2, -1486044.4, -1547107.8, -3555.7646, 0.0020969536, 0.00015255422, -1485838.1, 33525.625, 0.0, 10.041531, 9.96055 
7.408041e+3, 1.5492357e+2, -1391748.4, -1451675.5, -3799.737, 0.0021094964, 0.00004837727, -1391508.4, 30241.47, 0.0, 10.039482, 9.960038 
7.408025e+3, 1.6487864e+2, -1305367.6, -1371283.8, -5443.8394, 0.0021137283, 0.0001596059, -1304921.0, 19269.248, 0.0, 10.037354, 9.95013 
7.4080086e+3, 1.748288e+2, -1211031.6, -1275604.5, -5633.9434, 0.0021103234, 0.000028211143, -1210543.8, 16134.844, 0.0, 10.035152, 9.949739 
7.40799e+3, 1.8477353e+2, -1124648.1, -1195270.9, -6709.581, 0.0021080389, 0.00016294494, -1124016.3, 5203.9233, 0.0, 10.032903, 9.939665 
7.4079704e+3, 1.9471325e+2, -1030212.6, -1099360.4, -6843.361, 0.0021073695, 0.0000379945, -1029541.9, 2268.985, 0.0, 10.030604, 9.939349 
7.407951e+3, 2.0464754e+2, -943757.5, -1019086.1, -7349.3647, 0.0021075087, 0.00016191292, -943047.2, -8592.263, 0.0, 10.028287, 9.929053 
7.40793e+3, 2.1457666e+2, -849180.44, -922989.56, -7432.065, 0.002109049, -0.0000367388, -848439.56, -11290.088, 0.0, 10.025949, 9.928755 
7.4079096e+3, 2.245003e+2, -762609.75, -842814.9, -7371.274, 0.0021078577, 0.000208534, -761937.9, -22040.164, 0.0, 10.023614, 9.918192 
7.4078894e+3, 2.3441863e+2, -667799.3, -746458.3, -7395.887, 0.0021033206, -0.0000034996053, -667110.0, -24411.857, 0.0, 10.021282, 9.917931 
7.40787e+3, 2.4433115e+2, -581199.9, -666680.0, -6783.2676, 0.0021022225, 0.00015830263, -580664.94, -35109.598, 0.0, 10.018978, 9.906886 
7.407852e+3, 2.5423828e+2, -485900.8, -569666.7, -6731.016, 0.0021052025, -0.000025592046, -485363.38, -36897.734, 0.0, 10.016703, 9.906895 
7.4078345e+3, 2.6413935e+2, -399341.84, -490571.06, -5584.811, 0.0021051478, 0.00021994126, -399001.22, -47566.336, 0.0, 10.0144825, 9.895102 
7.407819e+3, 2.7403516e+2, -303244.72, -392406.78, -5441.4565, 0.00209943, -0.00012776739, -302913.88, -48457.824, 0.0, 10.012327, 9.895674 
7.4078053e+3, 2.8392342e+2, -218810.06, -318423.34, -3798.4175, 0.0020975464, 0.00030293263, -218665.42, -61114.41, 0.0, 10.010238, 9.880235 
7.407794e+3, 2.9380485e+2, -122028.8, -219412.83, -3533.585, 0.0021002437, -0.00017966566, -121900.74, -61187.598, 0.0, 10.00823, 9.88115 
7.407785e+3, 3.037154e+2, -33225.297, -83761.28, -1319.727, 0.0021018484, 0.00024641427, -33190.855, -33190.855, 0.0, 10.00632, 9.939797 
7.40778e+3, 3.136574e+2, -34494.637, -82261.8, -906.4845, 0.002095542, 0.00001349632, -34477.44, -34477.44, 0.0, 10.004548, 9.941662 
7.4181175e+3, 1.2503189e+2, -1667225.9, -1723782.9, -1575.3804, 0.0021057602, 0.00014585, -1667182.0, 47506.363, 0.0, 10.045439, 9.970319 
7.418108e+3, 1.3500208e+2, -1573009.8, -1628766.6, -1884.9541, 0.0021209028, -0.0000043751425, -1572946.1, 44034.36, 0.0, 10.043583, 9.969555 
7.4180955e+3, 1.4496675e+2, -1486412.9, -1548002.8, -4175.4707, 0.0021188343, 0.00022258903, -1486131.0, 33195.7, 0.0, 10.041619, 9.9599495 
7.41808e+3, 1.549267e+2, -1392136.5, -1452577.5, -4421.5093, 0.0021168068, 0.00005050945, -1391814.8, 29904.51, 0.0, 10.039555, 9.959438 
7.418063e+3, 1.6488118e+2, -1305672.1, -1371997.4, -6124.6416, 0.0021139663, 0.00013600924, -1305111.3, 19053.936, 0.0, 10.037412, 9.949656 
7.4180436e+3, 1.748309e+2, -1211355.4, -1276325.5, -6315.6865, 0.0021117304, 0.000023084427, -1210747.1, 15910.83, 0.0, 10.035194, 9.9492655 
7.418023e+3, 1.8477523e+2, -1124874.4, -1195776.1, -7429.599, 0.0021127476, 0.00016711767, -1124104.3, 5099.247, 0.0, 10.032929, 9.939333 
7.418001e+3, 1.9471464e+2, -1030456.44, -1099872.1, -7566.119, 0.002117773, 0.000040780917, -1029641.3, 2156.0725, 0.0, 10.030618, 9.939018 
7.417979e+3, 2.0464863e+2, -943912.4, -1019395.75, -8090.776, 0.0021167202, 0.0001621378, -943054.9, -8610.816, 0.0, 10.028287, 9.928858 
7.417956e+3, 2.1457756e+2, -849353.9, -923305.94, -8175.7026, 0.0021095283, -0.000040597766, -848460.8, -11320.288, 0.0, 10.025934, 9.92856 
7.4179333e+3, 2.2450109e+2, -762697.44, -842931.3, -8115.6953, 0.0021070722, 0.00020545523, -761884.75, -21994.682, 0.0, 10.023586, 9.918133 
7.4179107e+3, 2.3441936e+2, -667904.94, -746579.6, -8141.935, 0.0021105353, -0.00000027469645, -667071.2, -24380.178, 0.0, 10.02124, 9.917874 
7.417889e+3, 2.443319e+2, -581216.3, -666592.6, -7511.4556, 0.0021111902, 0.00016143263, -580560.5, -35012.375, 0.0, 10.018922, 9.906971 
7.4178684e+3, 2.5423908e+2, -485930.84, -569579.3, -7461.3013, 0.0021082733, -0.000031021384, -485270.53, -36812.96, 0.0, 10.016635, 9.906985 
7.417849e+3, 2.641403e+2, -399298.1, -490301.2, -6274.7534, 0.0021056507, 0.00021454653, -398867.5, -47442.152, 0.0, 10.014401, 9.895317 
7.417831e+3, 2.7403638e+2, -303219.2, -392137.72, -6129.7695, 0.0021023992, -0.00012176227, -302798.6, -48354.367, 0.0, 10.012231, 9.895897 
7.4178153e+3, 2.8392494e+2, -218701.66, -317947.88, -4435.892, 0.002101712, 0.00031047926, -218503.78, -60967.414, 0.0, 10.010128, 9.8806 
7.417802e+3, 2.938067e+2, -121931.625, -218929.31, -4168.932, 0.00210372, -0.00018559505, -121752.77, -61057.895, 0.0, 10.008108, 9.881529 
7.4177915e+3, 3.0371767e+2, -33072.855, -83128.414, -1873.1659, 0.0021046402, 0.0002390348, -33002.86, -33002.86, 0.0, 10.006184, 9.9402895 
7.417785e+3, 3.136602e+2, -34359.81, -81623.16, -1450.9579, 0.0020968306, 0.00002229676, -34315.31, -34315.31, 0.0, 10.004394, 9.942167 
7.4281645e+3, 1.2503922e+2, -1663056.6, -1722415.6, -1064.3958, 0.0021147593, 0.00013634936, -1663037.5, 51579.063, 0.0, 10.048429, 9.969562 
7.4281526e+3, 1.3500863e+2, -1569283.8, -1627644.9, -1388.3612, 0.0021200532, -0.000030657455, -1569250.8, 47665.465, 0.0, 10.0463085, 9.9688 
7.428138e+3, 1.4497265e+2, -1483013.3, -1546910.1, -3767.3772, 0.002123087, 0.00024065012, -1482791.9, 36477.047, 0.0, 10.044075, 9.959327 
7.4281204e+3, 1.5493195e+2, -1389179.9, -1451726.4, -4028.1956, 0.0021222478, 0.000049612936, -1388921.5, 32746.158, 0.0, 10.04174, 9.958818 
7.4281013e+3, 1.648859e+2, -1303038.5, -1371166.5, -5795.9233, 0.002120335, 0.00012877028, -1302549.0, 21570.129, 0.0, 10.039327, 9.949171 
7.42808e+3, 1.7483513e+2, -1209158.3, -1275729.0, -5993.7725, 0.002118942, 0.000023648918, -1208622.9, 17993.662, 0.0, 10.036839, 9.948782 
7.4280566e+3, 1.8477903e+2, -1122997.0, -1195197.1, -7147.76, 0.0021188948, 0.00016908467, -1122296.3, 6869.914, 0.0, 10.034304, 9.938983 
7.428033e+3, 1.9471808e+2, -1029006.44, -1099518.8, -7291.9243, 0.0021207673, 0.000037436133, -1028260.25, 3503.2292, 0.0, 10.031723, 9.93867 
7.428008e+3, 2.046518e+2, -942774.8, -1019044.75, -7836.9966, 0.0021195798, 0.00015826075, -941977.9, -7564.9756, 0.0, 10.0291195, 9.928651 
7.4279827e+3, 2.1458055e+2, -848643.1, -923175.56, -7925.48, 0.0021154613, -0.000039371247, -847809.7, -10698.348, 0.0, 10.026493, 9.928355 
7.427957e+3, 2.2450392e+2, -762300.56, -842799.94, -7863.925, 0.0021140154, 0.0002069005, -761539.5, -21677.316, 0.0, 10.0238695, 9.918069 
7.427932e+3, 2.3442213e+2, -667930.4, -746660.5, -7889.7466, 0.0021157204, -0.0000044438066, -667147.5, -24483.766, 0.0, 10.021247, 9.917814 
7.4279076e+3, 2.4433467e+2, -581554.9, -666673.0, -7234.8315, 0.0021147698, 0.00015729322, -580944.3, -35423.49, 0.0, 10.018654, 9.907048 
7.427885e+3, 2.5424197e+2, -486677.84, -569858.0, -7184.0063, 0.0021101567, -0.000028200708, -486061.94, -37632.52, 0.0, 10.016093, 9.907068 
7.427863e+3, 2.6414335e+2, -400354.56, -490571.16, -5951.753, 0.0021083169, 0.00021794475, -399963.6, -48567.883, 0.0, 10.013582, 9.89554 
7.4278426e+3, 2.7403963e+2, -304686.03, -392599.2, -5798.0205, 0.0021088722, -0.00012607304, -304305.28, -49892.883, 0.0, 10.01113, 9.896129 
7.427825e+3, 2.8392845e+2, -220473.55, -318392.2, -4036.948, 0.0021080808, 0.00030478957, -220307.39, -62805.758, 0.0, 10.00875, 9.880974 
7.42781e+3, 2.9381064e+2, -124088.25, -219543.66, -3757.6216, 0.0021036933, -0.00018309844, -123940.555, -63284.246, 0.0, 10.006459, 9.881915 
7.427797e+3, 3.0372208e+2, -35527.355, -83746.32, -1383.936, 0.0021037085, 0.0002431933, -35487.668, -35487.668, 0.0, 10.004262, 9.940795 
7.4277884e+3, 3.136651e+2, -37214.168, -82419.86, -945.1459, 0.0021035343, 0.000018248224, -37194.414, -37194.414, 0.0, 10.0021925, 9.942686 
7.4382126e+3, 1.2504809e+2, -1663533.1, -1723573.4, -1689.5365, 0.002130518, 0.00016074245, -1663485.6, 51044.02, 0.0, 10.048549, 9.968786 
7.438199e+3, 1.3501672e+2, -1569771.3, -1628803.0, -2013.7457, 0.0021222928, -0.000028270777, -1569702.6, 47134.383, 0.0, 10.046416, 9.968027 
7.438182e+3, 1.4498003e+2, -1483402.9, -1547861.4, -4471.5425, 0.0021217614, 0.00023501564, -1483094.1, 36102.492, 0.0, 10.044169, 9.958687 
7.4381626e+3, 1.5493868e+2, -1389587.3, -1452683.1, -4732.3926, 0.002127674, 0.000048738424, -1389234.3, 32367.367, 0.0, 10.04182, 9.95818 
7.4381405e+3, 1.6489206e+2, -1303344.8, -1371903.3, -6559.722, 0.002129198, 0.00013103266, -1302722.8, 21335.79, 0.0, 10.039391, 9.948677 
7.4381167e+3, 1.7484081e+2, -1209483.4, -1276472.1, -6762.245, 0.0021282302, 0.00002695575, -1208807.5, 17753.357, 0.0, 10.036888, 9.94829 
7.438091e+3, 1.8478431e+2, -1123231.1, -1195736.1, -7955.5703, 0.00212552, 0.00017057515, -1122368.5, 6746.128, 0.0, 10.034338, 9.938626 
7.438064e+3, 1.9472298e+2, -1029259.6, -1100064.6, -8102.1016, 0.0021216231, 0.000033447257, -1028344.3, 3371.2065, 0.0, 10.031742, 9.938314 
7.438037e+3, 2.0465644e+2, -942931.9, -1019371.9, -8668.097, 0.0021203787, 0.00015481077, -941961.25, -7593.573, 0.0, 10.029123, 9.92844 
7.438009e+3, 2.1458496e+2, -848820.75, -923510.25, -8759.512, 0.0021229174, -0.00003563393, -847807.2, -10739.098, 0.0, 10.026482, 9.928147 
7.437981e+3, 2.245082e+2, -762384.1, -842916.94, -8700.732, 0.002122738, 0.00021064043, -761454.8, -21634.516, 0.0, 10.023844, 9.918007 
7.4379534e+3, 2.3442635e+2, -668031.1, -746782.06, -8729.555, 0.0021197028, -0.000009563269, -667075.06, -24452.578, 0.0, 10.021207, 9.917756 
7.4379265e+3, 2.443389e+2, -581569.25, -666589.6, -8055.6123, 0.0021158261, 0.00015234151, -580812.75, -35333.254, 0.0, 10.0186, 9.907128 
7.4379003e+3, 2.5424626e+2, -486709.72, -569777.5, -8005.9893, 0.0021111558, -0.000021982989, -485945.16, -37557.984, 0.0, 10.016026, 9.907153 
7.4378765e+3, 2.6414782e+2, -400297.53, -490276.2, -6737.6113, 0.0021108275, 0.00022510308, -399795.8, -48443.863, 0.0, 10.013501, 9.895772 
7.437854e+3, 2.740443e+2, -304643.63, -392301.9, -6584.912, 0.0021153737, -0.00013237998, -304151.72, -49785.336, 0.0, 10.011036, 9.896369 
7.4378335e+3, 2.8393346e+2, -220345.2, -317882.6, -4769.5767, 0.0021137784, 0.0002964421, -220112.52, -62659.918, 0.0, 10.008642, 9.881361 
7.4378157e+3, 2.9381603e+2, -123974.47, -219028.08, -4486.8643, 0.0021015117, -0.00017679793, -123763.14, -63159.88, 0.0, 10.006337, 9.882315 
7.4378014e+3, 3.0372792e+2, -35356.8, -83075.8, -2034.5726, 0.0021005794, 0.0002529622, -35270.21, -35270.21, 0.0, 10.004125, 9.941314 
7.43779e+3, 3.136715e+2, -37059.977, -81742.984, -1588.6235, 0.002109765, 0.000011379041, -37003.566, -37003.566, 0.0, 10.002038, 9.943217 
7.448263e+3, 1.2505949e+2, -1659069.4, -1722074.5, -1080.5295, 0.0021312416, 0.00015899417, -1659050.9, 55367.04, 0.0, 10.051736, 9.968003 
7.448247e+3, 1.3502735e+2, -1565765.9, -1627558.0, -1416.9764, 0.0021306565, -0.00002773466, -1565733.4, 50999.566, 0.0, 10.049328, 9.967247 
7.448228e+3, 1.4498992e+2, -1479739.0, -1546649.4, -3961.4475, 0.0021311045, 0.00023480333, -1479505.3, 39594.23, 0.0, 10.046801, 9.958044 
7.4482054e+3, 1.5494795e+2, -1386389.8, -1451726.3, -4228.9995, 0.0021314658, 0.00004626979, -1386117.3, 35393.707, 0.0, 10.044167, 9.957539 
7.448181e+3, 1.6490074e+2, -1300508.5, -1371008.1, -6120.8203, 0.0021312577, 0.00012740995, -1299981.0, 23992.477, 0.0, 10.041452, 9.948153 
7.448154e+3, 1.7484896e+2, -1207108.8, -1275826.3, -6336.9536, 0.0021326097, 0.000024020965, -1206529.3, 19951.684, 0.0, 10.038663, 9.947766 
7.448126e+3, 1.8479201e+2, -1121187.0, -1195092.3, -7572.865, 0.0021314358, 0.00016900685, -1120419.0, 8620.077, 0.0, 10.035827, 9.938255 
7.448097e+3, 1.9473031e+2, -1027670.94, -1099661.6, -7724.7153, 0.00212818, 0.000034342287, -1026851.44, 4792.1777, 0.0, 10.032944, 9.937945 
7.4480665e+3, 2.0466347e+2, -941679.5, -1018977.06, -8311.988, 0.0021262662, 0.00015494348, -940795.8, -6497.131, 0.0, 10.030035, 9.928218 
7.4480355e+3, 2.1459179e+2, -848024.7, -923351.7, -8406.757, 0.0021265447, -0.000039726034, -847097.9, -10096.59, 0.0, 10.027101, 9.927926 
7.448005e+3, 2.2451487e+2, -761922.75, -842759.1, -8346.154, 0.0021256122, 0.00020714154, -761070.0, -21315.08, 0.0, 10.024169, 9.917935 
7.4479747e+3, 2.3443295e+2, -668016.5, -746849.3, -8375.804, 0.0021231698, -0.000006708357, -667136.4, -24578.65, 0.0, 10.02124, 9.917687 
7.447945e+3, 2.443455e+2, -581888.75, -666654.9, -7677.0107, 0.002120176, 0.00015522967, -581199.1, -35784.418, 0.0, 10.018339, 9.907209 
7.447916e+3, 2.5425297e+2, -487473.25, -570059.0, -7622.953, 0.002116593, -0.000026953361, -486775.5, -38453.914, 0.0, 10.015468, 9.907239 
7.4478894e+3, 2.6415467e+2, -401398.97, -490560.28, -6308.5176, 0.0021154613, 0.00021945582, -400954.84, -49669.945, 0.0, 10.012647, 9.896001 
7.4478644e+3, 2.740514e+2, -306178.38, -392789.44, -6151.51, 0.0021161798, -0.00012882896, -305743.66, -51446.727, 0.0, 10.009885, 9.8966055 
7.447841e+3, 2.8394085e+2, -222198.63, -318333.34, -4268.655, 0.0021144294, 0.00030178146, -222009.45, -64629.387, 0.0, 10.0071945, 9.8817625 
7.4478215e+3, 2.9382384e+2, -126251.734, -219665.97, -3969.884, 0.002107012, -0.00018018359, -126083.33, -65556.59, 0.0, 10.004591, 9.8827305 
7.447804e+3, 3.037362e+2, -37975.363, -83747.414, -1442.1409, 0.002106488, 0.00024698325, -37929.97, -37929.97, 0.0, 10.002079, 9.941839 
7.447791e+3, 3.136803e+2, -40114.453, -82613.23, -983.01135, 0.0021087884, 0.000013809939, -40091.73, -40091.73, 0.0, 9.999691, 9.943754 
7.458315e+3, 1.2507266e+2, -1659554.5, -1723263.5, -1792.8148, 0.0021290742, 0.0001489254, -1659504.1, 54784.797, 0.0, 10.051861, 9.967205 
7.4582964e+3, 1.3503972e+2, -1566267.0, -1628749.5, -2130.7603, 0.002141558, -0.000027321004, -1566194.4, 50417.27, 0.0, 10.0494375, 9.966452 
7.458275e+3, 1.4500159e+2, -1480133.9, -1547619.3, -4759.9116, 0.0021438615, 0.00023843125, -1479799.9, 39185.473, 0.0, 10.046897, 9.957391 
7.45825e+3, 1.5495895e+2, -1386796.1, -1452698.0, -5029.8105, 0.0021357362, 0.000044885423, -1386414.5, 34988.64, 0.0, 10.044252, 9.956887 
7.4582225e+3, 1.6491115e+2, -1300835.4, -1371806.8, -6982.1743, 0.002132137, 0.0001238746, -1300155.0, 23716.527, 0.0, 10.041525, 9.947615 
7.458193e+3, 1.7485882e+2, -1207453.3, -1276631.4, -7199.63, 0.002135941, 0.000020656256, -1206712.0, 19672.357, 0.0, 10.038721, 9.947229 
7.4581623e+3, 1.8480143e+2, -1121421.6, -1195653.4, -8474.881, 0.0021370996, 0.00016812734, -1120466.4, 8480.529, 0.0, 10.035868, 9.93788 
7.4581295e+3, 1.9473937e+2, -1027931.44, -1100233.8, -8630.086, 0.0021363639, 0.000037909518, -1026915.6, 4639.3765, 0.0, 10.032966, 9.937571 
7.458096e+3, 2.0467222e+2, -941842.5, -1019323.56, -9241.116, 0.002133406, 0.000157571, -940755.56, -6542.5176, 0.0, 10.030041, 9.927994 
7.458063e+3, 2.1460028e+2, -848207.7, -923706.0, -9338.251, 0.002128943, -0.000044479108, -847069.8, -10151.948, 0.0, 10.027091, 9.927704 
7.4580294e+3, 2.2452325e+2, -762006.56, -842885.56, -9279.733, 0.002126213, 0.0002031318, -760955.5, -21282.498, 0.0, 10.024145, 9.917866 
7.4579954e+3, 2.3444125e+2, -668118.7, -746981.4, -9312.612, 0.002125903, -0.0000003075755, -667033.94, -24557.572, 0.0, 10.021202, 9.917621 
7.457963e+3, 2.4435382e+2, -581894.2, -666559.75, -8597.755, 0.0021246488, 0.00016179023, -581029.94, -35696.703, 0.0, 10.018287, 9.907296 
7.4579316e+3, 2.5426134e+2, -487496.88, -569966.9, -8546.808, 0.0021227838, -0.00003386366, -486620.44, -38381.117, 0.0, 10.015401, 9.907331 
7.457902e+3, 2.641632e+2, -401335.66, -490259.13, -7196.662, 0.0021197654, 0.00021166693, -400756.97, -49555.914, 0.0, 10.012567, 9.896235 
7.457874e+3, 2.7406022e+2, -306126.7, -392485.84, -7040.6543, 0.0021140242, -0.000120842895, -305556.44, -51345.83, 0.0, 10.009794, 9.896849 
7.457849e+3, 2.8395e+2, -222040.42, -317773.84, -5105.572, 0.0021121185, 0.00031283218, -221768.9, -64478.336, 0.0, 10.00709, 9.88218 
7.457826e+3, 2.938334e+2, -126113.82, -219100.63, -4805.5728, 0.0021138112, -0.000185141, -125866.125, -65433.01, 0.0, 10.004467, 9.8831625 
7.457806e+3, 3.0374625e+2, -37791.395, -83048.56, -2201.386, 0.00211416, 0.00023871676, -37684.566, -37684.566, 0.0, 10.00194, 9.942377 
7.4577904e+3, 3.136909e+2, -39938.363, -81907.36, -1736.5154, 0.0021032153, 0.000020802965, -39866.637, -39866.637, 0.0, 9.999542, 9.944302 
7.4683684e+3, 1.2508872e+2, -1654792.3, -1721626.6, -1085.8849, 0.0021376642, 0.00014624171, -1654774.6, 59356.82, 0.0, 10.055244, 9.9664 
7.4683475e+3, 1.3505496e+2, -1561992.0, -1627382.4, -1434.412, 0.0021429837, -0.00003126493, -1561960.5, 54501.617, 0.0, 10.052528, 9.96565 
7.468323e+3, 1.4501612e+2, -1476219.9, -1546297.4, -4148.208, 0.0021446322, 0.00023455078, -1475975.3, 42867.727, 0.0, 10.049695, 9.956724 
7.4682957e+3, 1.549728e+2, -1383357.4, -1451636.4, -4426.7427, 0.0021426266, 0.000044542285, -1383071.5, 38195.742, 0.0, 10.046761, 9.956222 
7.468265e+3, 1.6492441e+2, -1297772.3, -1370816.5, -6443.6216, 0.0021403206, 0.00012437103, -1297208.1, 26533.5, 0.0, 10.043739, 9.947066 
7.468233e+3, 1.7487152e+2, -1204870.3, -1275900.4, -6666.8296, 0.0021405886, 0.000019904537, -1204249.9, 22009.867, 0.0, 10.040639, 9.946682 
7.4681985e+3, 1.8481366e+2, -1119196.0, -1194938.1, -7986.1074, 0.0021398976, 0.0001660271, -1118363.1, 10463.818, 0.0, 10.03748, 9.937486 
7.4681634e+3, 1.947512e+2, -1026200.5, -1099781.0, -8146.9976, 0.0021390733, 0.000034813304, -1025309.25, 6129.7163, 0.0, 10.034267, 9.937177 
7.468127e+3, 2.0468375e+2, -940465.44, -1018868.9, -8775.969, 0.002137212, 0.0001559937, -939495.1, -5395.096, 0.0, 10.031032, 9.927765 
7.46809e+3, 2.1461159e+2, -847311.56, -923501.3, -8872.326, 0.0021349262, -0.00004161395, -846292.06, -9484.945, 0.0, 10.027774, 9.927476 
7.468053e+3, 2.2453438e+2, -761469.0, -842691.8, -8808.7, 0.0021318917, 0.00020523998, -760524.7, -20960.959, 0.0, 10.024519, 9.917789 
7.4680173e+3, 2.3445234e+2, -668055.75, -747028.0, -8840.147, 0.0021278297, -0.0000049664345, -667078.25, -24710.408, 0.0, 10.021266, 9.917546 
7.4679816e+3, 2.4436489e+2, -582189.3, -666610.1, -8101.718, 0.0021261384, 0.00015740763, -581418.8, -36194.105, 0.0, 10.018038, 9.907375 
7.467947e+3, 2.5427252e+2, -488264.97, -570248.75, -8048.322, 0.002127686, -0.00002910625, -487482.34, -39352.41, 0.0, 10.014835, 9.907416 
7.467914e+3, 2.6417452e+2, -402462.38, -490546.72, -6648.987, 0.0021247524, 0.0002174202, -401963.28, -50873.156, 0.0, 10.011689, 9.896469 
7.467883e+3, 2.7407175e+2, -307707.3, -392987.44, -6486.4424, 0.0021142669, -0.00012473114, -307216.78, -53119.37, 0.0, 10.008607, 9.897089 
7.467855e+3, 2.839619e+2, -223960.34, -318228.13, -4491.163, 0.002111834, 0.00030714035, -223746.86, -66572.67, 0.0, 10.005583, 9.882605 
7.4678296e+3, 2.9384574e+2, -128508.95, -219766.08, -4179.1133, 0.0021188913, -0.00018108284, -128317.97, -68005.61, 0.0, 10.002627, 9.883602 
7.467807e+3, 3.0375907e+2, -40572.242, -83781.99, -1496.0054, 0.0021195048, 0.0002457631, -40520.508, -40520.508, 0.0, 9.999776, 9.942916 
7.4677885e+3, 3.1370425e+2, -43170.066, -82849.83, -1020.09644, 0.0021008272, 0.000021767979, -43143.855, -43143.855, 0.0, 9.997068, 9.944848 
7.478424e+3, 1.2510681e+2, -1655277.9, -1722839.3, -1895.6079, 0.0021503652, 0.00014957675, -1655224.6, 58729.406, 0.0, 10.055378, 9.965581 
7.4784e+3, 1.3507223e+2, -1562488.1, -1628593.9, -2248.4744, 0.0021434904, -0.000034403707, -1562411.8, 53881.14, 0.0, 10.0526495, 9.964834 
7.4783725e+3, 1.4503264e+2, -1476615.5, -1547294.8, -5045.213, 0.0021431614, 0.00023107766, -1476257.3, 42423.71, 0.0, 10.049802, 9.956048 
7.478342e+3, 1.5498866e+2, -1383774.4, -1452640.8, -5325.22, 0.0021508608, 0.000046020134, -1383365.0, 37746.883, 0.0, 10.046849, 9.955547 
7.478309e+3, 1.6493966e+2, -1298109.5, -1371639.3, -7405.2666, 0.0021507756, 0.00012790508, -1297371.1, 26221.178, 0.0, 10.043811, 9.946513 
7.4782735e+3, 1.7488621e+2, -1205227.1, -1276730.6, -7628.607, 0.002146118, 0.00002162719, -1204422.3, 21693.508, 0.0, 10.040695, 9.946129 
7.4782366e+3, 1.8482786e+2, -1119447.3, -1195532.8, -8992.123, 0.0021422303, 0.00016569337, -1118399.0, 10288.662, 0.0, 10.03752, 9.937088 
7.478197e+3, 1.9476502e+2, -1026475.8, -1100386.5, -9153.436, 0.0021403688, 0.000031619533, -1025359.1, 5944.4966, 0.0, 10.034289, 9.93678 
7.4781585e+3, 2.0469725e+2, -940627.06, -1019218.25, -9803.384, 0.0021397246, 0.00015490467, -939422.7, -5454.9575, 0.0, 10.031037, 9.927538 
7.478118e+3, 2.1462488e+2, -847494.4, -923859.6, -9904.327, 0.002141636, -0.000035089557, -846230.7, -9553.796, 0.0, 10.027763, 9.92725 
7.478078e+3, 2.2454752e+2, -761551.8, -842820.44, -9844.838, 0.0021383744, 0.00021086202, -760376.2, -20941.215, 0.0, 10.024494, 9.917717 
7.478038e+3, 2.3446538e+2, -668157.3, -747163.4, -9880.02, 0.0021294039, -0.000011025922, -666940.56, -24700.61, 0.0, 10.021228, 9.917477 
7.4779993e+3, 2.4437794e+2, -582190.3, -666514.2, -9128.483, 0.0021262297, 0.00015176609, -581213.44, -36116.668, 0.0, 10.017987, 9.907461 
7.477962e+3, 2.5428566e+2, -488279.9, -570154.6, -9079.306, 0.00213081, -0.000019352325, -487285.16, -39284.207, 0.0, 10.014773, 9.907507 
7.477926e+3, 2.6418787e+2, -402384.63, -490229.7, -7642.328, 0.0021282998, 0.00022898118, -401724.72, -50765.184, 0.0, 10.011613, 9.896711 
7.477892e+3, 2.740853e+2, -307651.03, -392673.0, -7481.5776, 0.0021148433, -0.00013042205, -306997.7, -53033.215, 0.0, 10.008513, 9.89734 
7.4778605e+3, 2.8397578e+2, -223785.8, -317636.16, -5445.078, 0.0021116443, 0.00029839325, -223470.92, -66432.945, 0.0, 10.005477, 9.883043 
7.477832e+3, 2.938601e+2, -128336.86, -219159.1, -5134.02, 0.0021211072, -0.00017249571, -128047.56, -67875.98, 0.0, 10.002514, 9.884056 
7.477807e+3, 3.0377394e+2, -40362.098, -83059.08, -2364.4722, 0.002121627, 0.00026033318, -40231.56, -40231.56, 0.0, 9.999648, 9.943462 
7.4777853e+3, 3.1371966e+2, -42994.414, -82136.09, -1881.7622, 0.0020981918, 0.000021889697, -42904.156, -42904.156, 0.0, 9.996914, 9.945402 
7.488481e+3, 1.2512814e+2, -1650224.5, -1721074.8, -1099.228, 0.0021537158, 0.00014805212, -1650207.4, 63537.742, 0.0, 10.058956, 9.964746 
7.4884546e+3, 1.3509272e+2, -1557929.5, -1627102.5, -1464.7434, 0.0021504366, -0.000033384888, -1557898.5, 58193.55, 0.0, 10.055931, 9.9640045 
7.4884236e+3, 1.4505237e+2, -1472423.8, -1545831.9, -4346.388, 0.0021493742, 0.00023073486, -1472167.4, 46320.234, 0.0, 10.052776, 9.95537 
7.48839e+3, 1.5500772e+2, -1380091.0, -1451456.3, -4627.781, 0.0021530623, 0.00004288926, -1379792.3, 41132.945, 0.0, 10.049514, 9.954873 
7.488354e+3, 1.6495809e+2, -1294824.4, -1370531.5, -6765.802, 0.0021524008, 0.00012468161, -1294224.4, 29187.076, 0.0, 10.046164, 9.945961 
7.488315e+3, 1.7490411e+2, -1202445.3, -1275896.0, -6988.6323, 0.002150448, 0.000021592898, -1201786.3, 24154.25, 0.0, 10.042737, 9.945578 
7.4882746e+3, 1.848453e+2, -1117039.3, -1194713.0, -8393.689, 0.0021479873, 0.00016700657, -1116142.6, 12374.321, 0.0, 10.039243, 9.936698 
7.488232e+3, 1.9478205e+2, -1024588.25, -1099844.1, -8549.194, 0.0021461118, 0.000032786014, -1023629.25, 7507.432, 0.0, 10.035684, 9.93639 
7.4881893e+3, 2.0471396e+2, -939128.6, -1018707.44, -9209.257, 0.0021436573, 0.00015446951, -938076.75, -4272.8696, 0.0, 10.032105, 9.9272995 
7.488146e+3, 2.1464135e+2, -846502.2, -923613.25, -9309.363, 0.002141554, -0.00003833578, -845394.25, -8878.749, 0.0, 10.028508, 9.9270115 
7.4881023e+3, 2.2456382e+2, -760933.94, -842581.56, -9243.285, 0.002139521, 0.00020933304, -759900.6, -20625.502, 0.0, 10.024915, 9.91764 
7.4880594e+3, 2.3448163e+2, -668036.8, -747177.2, -9274.302, 0.0021376114, -0.000006101994, -666964.5, -24883.799, 0.0, 10.021323, 9.917401 
7.488017e+3, 2.443942e+2, -582447.56, -666543.2, -8496.577, 0.0021334586, 0.00015622936, -581597.7, -36660.13, 0.0, 10.017758, 9.907538 
7.487976e+3, 2.54302e+2, -489024.44, -570423.8, -8443.731, 0.0021268711, -0.000023240558, -488157.78, -40316.758, 0.0, 10.01422, 9.907588 
7.487937e+3, 2.6420435e+2, -403511.84, -490507.03, -6962.1484, 0.0021246166, 0.00022426384, -402958.22, -52160.125, 0.0, 10.010727, 9.896951 
7.4878997e+3, 2.7410206e+2, -309285.03, -393191.1, -6795.3994, 0.002126057, -0.00012581724, -308738.25, -54937.727, 0.0, 10.007282, 9.897586 
7.487865e+3, 2.8399286e+2, -225776.31, -318099.34, -4692.909, 0.0021229428, 0.0003047135, -225538.38, -68667.66, 0.0, 10.003909, 9.883486 
7.4878335e+3, 2.9387763e+2, -130791.77, -219827.72, -4369.569, 0.0021113898, -0.00017498035, -130577.84, -70577.94, 0.0, 10.00062, 9.884514 
7.487805e+3, 3.0379194e+2, -43244.09, -83826.61, -1538.5238, 0.0021092824, 0.00025468905, -43185.848, -43185.848, 0.0, 9.997407, 9.944011 
7.487781e+3, 3.1373826e+2, -46434.36, -83167.57, -1047.6035, 0.0021126878, 0.000023317823, -46404.508, -46404.508, 0.0, 9.994291, 9.945956 
7.49854e+3, 1.2515174e+2, -1650673.4, -1722300.6, -1993.8245, 0.0021558434, 0.0001484635, -1650617.9, 62895.973, 0.0, 10.059126, 9.963899 
7.4985105e+3, 1.3511547e+2, -1558425.9, -1628345.4, -2366.3, 0.0021606432, -0.00002966939, -1558345.9, 57523.188, 0.0, 10.056064, 9.963162 
7.498477e+3, 1.4507437e+2, -1472819.3, -1546832.8, -5338.2095, 0.0021585266, 0.00023401785, -1472436.3, 45835.773, 0.0, 10.052882, 9.954691 
7.49844e+3, 1.5502904e+2, -1380510.4, -1452464.8, -5626.3955, 0.002154688, 0.000040785962, -1380073.1, 40643.133, 0.0, 10.0496, 9.954196 
7.4983996e+3, 1.6497879e+2, -1295162.8, -1371348.5, -7826.5713, 0.0021522841, 0.00012229416, -1294367.1, 28841.496, 0.0, 10.046229, 9.945413 
7.498358e+3, 1.7492427e+2, -1202812.5, -1276726.5, -8042.0054, 0.0021548867, 0.000022882377, -1201947.6, 23795.342, 0.0, 10.042781, 9.945029 
7.498314e+3, 1.8486498e+2, -1117292.6, -1195292.9, -9497.401, 0.002154732, 0.00017080708, -1116152.9, 12171.068, 0.0, 10.03927, 9.936315 
7.498268e+3, 1.9480136e+2, -1024856.5, -1100430.4, -9658.766, 0.0021530816, 0.000037267044, -1023641.56, 7305.8613, 0.0, 10.0357, 9.936007 
7.4982214e+3, 2.0473295e+2, -939293.06, -1019066.94, -10340.984, 0.0021477558, 0.00015646307, -937974.4, -4356.679, 0.0, 10.03211, 9.927065 
7.4981743e+3, 2.1466011e+2, -846684.1, -923980.6, -10444.551, 0.0021397658, -0.000042129795, -845297.7, -8966.098, 0.0, 10.0285, 9.926778 
7.498127e+3, 2.2458245e+2, -761006.6, -842701.94, -10383.545, 0.0021386954, 0.00020808079, -759707.56, -20614.838, 0.0, 10.024892, 9.917571 
7.498081e+3, 2.3450018e+2, -668131.8, -747306.5, -10420.839, 0.002146666, 0.0000039665547, -666783.2, -24884.29, 0.0, 10.021285, 9.917335 
7.4980354e+3, 2.4441275e+2, -582444.9, -666444.7, -9630.748, 0.002141587, 0.00016591586, -581354.8, -36599.184, 0.0, 10.017706, 9.907625 
7.49799e+3, 2.5432065e+2, -489036.6, -570329.06, -9582.394, 0.0021206576, -0.000029246215, -487922.34, -40263.97, 0.0, 10.014156, 9.907678 
7.497948e+3, 2.6422316e+2, -403422.97, -490177.7, -8073.5083, 0.002118295, 0.00021691657, -402678.03, -52064.207, 0.0, 10.010652, 9.897199 
7.497907e+3, 2.7412114e+2, -309209.56, -392861.06, -7912.118, 0.002138485, -0.00011576894, -308467.78, -54854.145, 0.0, 10.007196, 9.897841 
7.497869e+3, 2.8401226e+2, -225573.17, -317470.06, -5760.6577, 0.002135564, 0.00031813554, -225213.45, -68533.1, 0.0, 10.003809, 9.8839445 
7.497834e+3, 2.938975e+2, -130606.31, -219190.84, -5437.103, 0.00209736, -0.0001790226, -130273.84, -70468.805, 0.0, 10.000503, 9.884988 
7.497803e+3, 3.0381233e+2, -43028.664, -83090.67, -2543.001, 0.002092147, 0.00024578598, -42867.887, -42867.887, 0.0, 9.997276, 9.944567 
7.497776e+3, 3.137592e+2, -46231.188, -82433.0, -2050.2668, 0.0021290516, 0.000026481068, -46115.44, -46115.44, 0.0, 9.99415, 9.946516 
7.508601e+3, 1.2517896e+2, -1645233.9, -1720367.5, -1106.6398, 0.0021584257, 0.00014423966, -1645217.6, 68029.31, 0.0, 10.062963, 9.963025 
7.508568e+3, 1.3514185e+2, -1553587.9, -1626741.9, -1496.3141, 0.0021650798, -0.000032213116, -1553557.3, 62053.38, 0.0, 10.059536, 9.962295 
7.508531e+3, 1.4509997e+2, -1468404.9, -1545276.9, -4543.5576, 0.0021632914, 0.00023261044, -1468137.3, 49884.063, 0.0, 10.056007, 9.953986 
7.5084907e+3, 1.5505391e+2, -1376630.3, -1451200.0, -4840.277, 0.0021593452, 0.000042073607, -1376317.4, 44155.1, 0.0, 10.052399, 9.953495 
7.508448e+3, 1.6500308e+2, -1291632.3, -1370024.8, -7088.898, 0.002156362, 0.00012331773, -1290996.4, 31974.193, 0.0, 10.048696, 9.94493 
7.508402e+3, 1.7494808e+2, -1199823.3, -1275697.3, -7273.006, 0.0021577198, 0.000021520562, -1199132.4, 26377.313, 0.0, 10.044913, 9.944546 
7.508354e+3, 1.8488835e+2, -1114759.5, -1194410.5, -8752.852, 0.0021568374, 0.0001690313, -1113808.9, 14285.98, 0.0, 10.04107, 9.935917 
7.508305e+3, 1.9482432e+2, -1022846.1, -1099828.5, -8911.463, 0.002155072, 0.000037589274, -1021828.0, 8894.344, 0.0, 10.037171, 9.935608 
7.5082546e+3, 2.0475562e+2, -937665.3, -1018477.7, -9602.6045, 0.0021513307, 0.00015861653, -936540.0, -3144.2744, 0.0, 10.033253, 9.92683 
7.5082034e+3, 2.1468252e+2, -845571.94, -923661.7, -9698.013, 0.002146308, -0.000038514438, -844385.56, -8273.661, 0.0, 10.029313, 9.926543 
7.508153e+3, 2.2460471e+2, -760293.2, -842413.5, -9630.801, 0.0021432932, 0.00021032452, -759178.9, -20304.28, 0.0, 10.02537, 9.917489 
7.508102e+3, 2.3452236e+2, -667944.56, -747287.3, -9664.537, 0.002143154, 0.0000019342574, -666784.3, -25102.693, 0.0, 10.02142, 9.9172535 
7.5080526e+3, 2.4443494e+2, -582653.0, -666438.44, -8844.232, 0.0021397653, 0.00016471373, -581729.6, -37191.242, 0.0, 10.0175, 9.907707 
7.5080043e+3, 2.543429e+2, -489755.03, -570575.56, -8788.55, 0.0021321208, -0.000023547442, -488810.4, -41370.22, 0.0, 10.013612, 9.907763 
7.507958e+3, 2.6424557e+2, -404546.4, -490453.38, -7238.6123, 0.0021284733, 0.00022327955, -403940.75, -53546.64, 0.0, 10.009765, 9.897432 
7.507914e+3, 2.7414376e+2, -310846.9, -393383.3, -7075.179, 0.002128183, -0.000116371615, -310244.8, -56853.176, 0.0, 10.00596, 9.89808 
7.507872e+3, 2.8403527e+2, -227576.7, -317904.88, -4862.638, 0.0021250749, 0.0003163614, -227315.69, -70860.695, 0.0, 10.002214, 9.884413 
7.507833e+3, 2.93921e+2, -133145.3, -219864.11, -4523.861, 0.002115338, -0.00017355407, -132909.94, -73335.08, 0.0, 9.998534, 9.885472 
7.5077987e+3, 3.0383635e+2, -46049.535, -83918.625, -1572.1737, 0.0021118214, 0.00025234063, -45984.375, -45984.375, 0.0, 9.994936, 9.945116 
7.507768e+3, 3.1378376e+2, -49793.582, -83522.03, -1076.1343, 0.002110738, 0.000026304237, -49759.28, -49759.28, 0.0, 9.991443, 9.947066 
7.518664e+3, 1.2520878e+2, -1645706.6, -1721653.4, -2101.882, 0.002163398, 0.0001437068, -1645648.5, 67306.29, 0.0, 10.063136, 9.962137 
7.5186276e+3, 1.3517077e+2, -1554076.3, -1628026.5, -2496.417, 0.002169284, -0.00003362299, -1553992.1, 61335.14, 0.0, 10.059692, 9.961412 
7.518587e+3, 1.4512809e+2, -1468789.3, -1546305.4, -5612.8887, 0.0021671222, 0.00023322919, -1468384.9, 49360.715, 0.0, 10.056131, 9.953278 
7.5185436e+3, 1.5508133e+2, -1377077.4, -1452255.6, -5913.21, 0.0021658537, 0.000046251724, -1376615.1, 43588.582, 0.0, 10.052478, 9.95279 
7.518496e+3, 1.6502994e+2, -1291909.5, -1370700.3, -8233.054, 0.0021624162, 0.00012790362, -1291058.4, 31649.11, 0.0, 10.048746, 9.944475 
7.518447e+3, 1.7497446e+2, -1200117.6, -1276380.3, -8428.457, 0.0021607818, 0.0000221715, -1199197.3, 26053.877, 0.0, 10.0449505, 9.944092 
7.518395e+3, 1.8491432e+2, -1115012.3, -1194995.9, -9960.489, 0.0021578541, 0.00016876629, -1113790.5, 14049.925, 0.0, 10.041097, 9.935529 
7.5183415e+3, 1.948499e+2, -1023109.2, -1100420.4, -10119.745, 0.0021556087, 0.000039108716, -1021806.5, 8665.219, 0.0, 10.037191, 9.935217 
7.5182873e+3, 2.0478088e+2, -937812.25, -1018813.06, -10834.027, 0.002154306, 0.00016323806, -936388.25, -3240.197, 0.0, 10.0332575, 9.926609 
7.518233e+3, 2.1470758e+2, -845752.3, -924015.25, -10936.309, 0.0021551852, -0.000030201603, -844252.8, -8386.428, 0.0, 10.029296, 9.92632 
7.518178e+3, 2.2462961e+2, -760373.06, -842540.0, -10881.127, 0.0021490124, 0.0002162805, -758956.5, -20326.014, 0.0, 10.025339, 9.9174185 
7.5181234e+3, 2.3454718e+2, -668029.56, -747416.44, -10921.263, 0.0021356065, -0.0000012683469, -666554.56, -25116.225, 0.0, 10.021386, 9.917182 
7.5180703e+3, 2.4445976e+2, -582627.2, -666319.56, -10088.706, 0.0021343436, 0.0001631518, -581428.2, -37133.23, 0.0, 10.017455, 9.907801 
7.518018e+3, 2.5436786e+2, -489756.6, -570467.44, -10041.436, 0.0021476373, -0.000011897858, -488526.1, -41330.34, 0.0, 10.013548, 9.90786 
7.517968e+3, 2.642707e+2, -404458.97, -490131.94, -8468.738, 0.002142167, 0.00023630307, -403629.84, -53481.85, 0.0, 10.009688, 9.897675 
7.5179195e+3, 2.7416912e+2, -310764.03, -393059.44, -8310.002, 0.0021097967, -0.00011784797, -309933.3, -56790.063, 0.0, 10.005879, 9.898327 
7.517874e+3, 2.8406098e+2, -227334.88, -317224.28, -6061.701, 0.00210645, 0.00031284482, -226927.95, -70724.85, 0.0, 10.002123, 9.884899 
7.517832e+3, 2.939472e+2, -132923.11, -219174.8, -5729.317, 0.0021414463, -0.00016251758, -132544.2, -73226.27, 0.0, 9.998424, 9.885977 
7.517793e+3, 3.038631e+2, -45822.19, -83179.016, -2712.0588, 0.0021409155, 0.00026745506, -45626.324, -45626.324, 0.0, 9.99481, 9.94567 
7.51776e+3, 3.1381106e+2, -49581.56, -82791.07, -2214.5085, 0.002078288, 0.00002718135, -49434.54, -49434.54, 0.0, 9.991308, 9.947619 
7.5287294e+3, 1.2524275e+2, -1639923.1, -1719555.4, -1077.6177, 0.002175908, 0.00014691948, -1639908.6, 72713.28, 0.0, 10.067197, 9.961239 
7.5286895e+3, 1.3520384e+2, -1548888.4, -1626254.4, -1484.7418, 0.0021686454, -0.00003110346, -1548859.9, 66143.3, 0.0, 10.063392, 9.960522 
7.528645e+3, 1.4516035e+2, -1464071.9, -1544587.0, -4684.6787, 0.0021634556, 0.0002332471, -1463800.3, 53629.082, 0.0, 10.059444, 9.952567 
7.528597e+3, 1.5511289e+2, -1373019.6, -1450894.0, -4985.191, 0.002169431, 0.000045057855, -1372701.8, 47192.613, 0.0, 10.055384, 9.952085 
7.5285465e+3, 1.6506091e+2, -1288248.8, -1369286.4, -7328.685, 0.0021686149, 0.000127697, -1287591.4, 34812.566, 0.0, 10.051281, 9.944004 
7.528493e+3, 1.7500496e+2, -1196995.3, -1275258.5, -7511.7173, 0.0021647017, 0.000025798648, -1196280.8, 28671.375, 0.0, 10.0471525, 9.943621 
7.528437e+3, 1.849444e+2, -1112320.1, -1193986.4, -9063.359, 0.0021600355, 0.00017247249, -1111326.4, 16219.162, 0.0, 10.0429735, 9.935162 
7.52838e+3, 1.9487962e+2, -1020922.94, -1099684.9, -9203.082, 0.0021567778, 0.00003972727, -1019861.9, 10318.616, 0.0, 10.038752, 9.934848 
7.528321e+3, 2.0481032e+2, -936043.8, -1018138.06, -9933.652, 0.002155637, 0.00016327611, -934858.9, -1999.1805, 0.0, 10.034479, 9.926379 
7.528263e+3, 2.1473677e+2, -844552.56, -923641.9, -10027.27, 0.0021575452, -0.000028634475, -843301.06, -7720.6855, 0.0, 10.030156, 9.926086 
7.528204e+3, 2.2465864e+2, -759583.2, -842197.44, -9948.598, 0.002152638, 0.00021917083, -758402.06, -20056.049, 0.0, 10.025854, 9.917342 
7.5281453e+3, 2.3457614e+2, -667740.06, -747332.7, -9978.4795, 0.0021403271, 0.0000035150904, -666508.1, -25353.627, 0.0, 10.021577, 9.917105 
7.5280875e+3, 2.4448873e+2, -582748.5, -666271.2, -9129.391, 0.002137048, 0.00016747699, -581762.25, -37751.066, 0.0, 10.0173025, 9.907873 
7.5280315e+3, 2.543969e+2, -490435.72, -570698.3, -9079.716, 0.0021446745, -0.000010666968, -489421.4, -42510.11, 0.0, 10.013025, 9.907933 
7.527977e+3, 2.6429987e+2, -405558.56, -490384.03, -7455.812, 0.0021408556, 0.0002373276, -404908.22, -55046.15, 0.0, 10.008806, 9.897911 
7.527925e+3, 2.7419856e+2, -312377.2, -393558.53, -7288.338, 0.002118855, -0.000113243645, -311728.03, -58873.152, 0.0, 10.00465, 9.898568 
7.5278753e+3, 2.8409076e+2, -229330.84, -317644.53, -4998.5313, 0.0021145698, 0.0003182696, -229048.83, -73137.5, 0.0, 10.0005245, 9.88537 
7.5278294e+3, 2.9397747e+2, -135494.83, -219855.56, -4663.0806, 0.0021332616, -0.00015983127, -135237.86, -76216.42, 0.0, 9.996425, 9.886461 
7.527787e+3, 3.0389386e+2, -48923.457, -84049.18, -1591.4282, 0.0021309583, 0.0002698333, -48851.5, -48851.5, 0.0, 9.992414, 9.94621 
7.5277495e+3, 3.138424e+2, -53267.863, -83946.1, -1092.5466, 0.0020899363, 0.000036298097, -53229.004, -53229.004, 0.0, 9.988517, 9.948157 
7.5387967e+3, 1.2527962e+2, -1640379.1, -1720854.4, -2164.0063, 0.0021893086, 0.00015491307, -1640320.9, 71939.625, 0.0, 10.067387, 9.96033 
7.538753e+3, 1.3523981e+2, -1549407.6, -1627575.6, -2578.1167, 0.002169873, -0.000024916284, -1549322.6, 65328.055, 0.0, 10.063534, 9.95962 
7.538705e+3, 1.4519551e+2, -1464466.4, -1545620.3, -5871.913, 0.0021604518, 0.00023681832, -1464043.6, 53041.11, 0.0, 10.059557, 9.9518585 
7.538653e+3, 1.5514736e+2, -1373419.3, -1451919.5, -6181.8315, 0.0021730836, 0.000045222765, -1372935.4, 46621.43, 0.0, 10.055487, 9.951384 
7.5385976e+3, 1.650948e+2, -1288471.5, -1369931.1, -8564.775, 0.002174445, 0.00012955291, -1287580.8, 34491.16, 0.0, 10.051361, 9.943551 
7.53854e+3, 1.750384e+2, -1197266.6, -1275925.1, -8765.985, 0.0021688824, 0.00003287048, -1196301.5, 28323.035, 0.0, 10.047198, 9.94317 
7.53848e+3, 1.8497744e+2, -1112539.1, -1194497.3, -10362.715, 0.0021628763, 0.00018033963, -1111249.3, 15972.629, 0.0, 10.042992, 9.934822 
7.538418e+3, 1.9491231e+2, -1021173.6, -1100214.5, -10499.783, 0.0021588858, 0.0000433249, -1019802.6, 10057.538, 0.0, 10.03875, 9.934505 
7.538356e+3, 2.0484273e+2, -936200.75, -1018471.0, -11274.391, 0.0021565624, 0.0001654008, -934683.7, -2141.5608, 0.0, 10.03447, 9.926165 
7.5382924e+3, 2.1476896e+2, -844702.4, -923974.6, -11377.696, 0.0021573496, -0.000025946018, -843101.7, -7836.7954, 0.0, 10.030151, 9.925869 
7.538229e+3, 2.246907e+2, -759623.1, -842288.5, -11297.27, 0.0021544667, 0.00022448128, -758107.0, -20075.168, 0.0, 10.025839, 9.917284 
7.5381666e+3, 2.3460814e+2, -667825.94, -747449.75, -11337.059, 0.0021484846, 0.000013490774, -666243.2, -25402.23, 0.0, 10.021532, 9.917044 
7.538105e+3, 2.4452074e+2, -582741.75, -666172.4, -10496.778, 0.002141899, 0.00017659849, -581441.4, -37743.84, 0.0, 10.017244, 9.907959 
7.538044e+3, 2.5442898e+2, -490420.0, -570594.56, -10455.555, 0.0021345313, -0.000009957552, -489078.94, -42482.09, 0.0, 10.012974, 9.908019 
7.537986e+3, 2.6433212e+2, -405433.0, -490033.38, -8800.391, 0.0021331978, 0.00023758046, -404527.25, -54981.266, 0.0, 10.008746, 9.898162 
7.5379294e+3, 2.7423108e+2, -312289.28, -393222.13, -8642.336, 0.002135735, -0.00010385521, -311376.72, -58840.48, 0.0, 10.004564, 9.898824 
7.537876e+3, 2.8412363e+2, -229094.47, -316969.66, -6339.974, 0.002130038, 0.000330096, -228639.4, -73050.32, 0.0, 10.000426, 9.885854 
7.5378263e+3, 2.9401088e+2, -135241.39, -219157.72, -6010.0864, 0.0021111541, -0.00015726438, -134813.14, -76118.73, 0.0, 9.996333, 9.886959 
7.537779e+3, 3.0392778e+2, -48662.56, -83307.05, -2869.0117, 0.0021058493, 0.00027127872, -48426.574, -48426.574, 0.0, 9.992313, 9.946752 
7.537738e+3, 3.138768e+2, -53061.555, -83233.83, -2372.1833, 0.0021137397, 0.000050114053, -52876.19, -52876.19, 0.0, 9.98838, 9.948696 
7.548866e+3, 1.2532124e+2, -1634212.1, -1718553.5, -997.12866, 0.0021763854, 0.0001462623, -1634200.4, 77652.44, 0.0, 10.071688, 9.959419 
7.5488186e+3, 1.3528052e+2, -1543966.4, -1625669.1, -1417.3107, 0.002182473, -0.000024208352, -1543941.8, 70310.09, 0.0, 10.067391, 9.95872 
7.548766e+3, 1.4523542e+2, -1459536.6, -1543792.6, -4764.1377, 0.0021759486, 0.00024013245, -1459268.1, 57425.71, 0.0, 10.063003, 9.951135 
7.5487095e+3, 1.5518652e+2, -1369102.1, -1450420.4, -5074.8643, 0.002172717, 0.00004846309, -1368786.6, 50386.227, 0.0, 10.058553, 9.950669 
7.5486505e+3, 1.6513334e+2, -1284608.8, -1368461.0, -7494.578, 0.0021690095, 0.00013119626, -1283944.1, 37749.94, 0.0, 10.054044, 9.9430275 
7.5485885e+3, 1.7507643e+2, -1194025.0, -1274788.4, -7707.8184, 0.0021675597, 0.000032490287, -1193296.0, 30955.887, 0.0, 10.049493, 9.94265 
7.548524e+3, 1.850151e+2, -1109671.9, -1193276.6, -9305.705, 0.0021662244, 0.00018084052, -1108648.6, 18204.363, 0.0, 10.044921, 9.93455 
7.548458e+3, 1.9494967e+2, -1018852.56, -1099290.1, -9396.844, 0.002167801, 0.00004733711, -1017769.44, 11724.563, 0.0, 10.040338, 9.934229 
7.548391e+3, 2.0487984e+2, -934354.8, -1017746.3, -10161.159, 0.0021624828, 0.00017008177, -933134.5, -956.14935, 0.0, 10.035731, 9.925934 
7.548323e+3, 2.1480584e+2, -843343.94, -923512.5, -10254.08, 0.0021512061, -0.000023023616, -842053.2, -7149.6934, 0.0, 10.031105, 9.925632 
7.548256e+3, 2.2472744e+2, -758676.06, -841859.4, -10177.601, 0.0021491137, 0.00022708763, -757448.94, -19776.938, 0.0, 10.026447, 9.917204 
7.548188e+3, 2.3464479e+2, -667476.25, -747331.4, -10210.301, 0.0021574323, 0.000017102626, -666191.4, -25709.523, 0.0, 10.021753, 9.916961 
7.548122e+3, 2.4455737e+2, -582815.0, -666084.44, -9328.048, 0.0021520397, 0.00018043614, -581782.8, -38444.348, 0.0, 10.01711, 9.908035 
7.548057e+3, 2.544657e+2, -490980.88, -570752.4, -9274.933, 0.0021302311, -0.0000051320108, -489916.7, -43679.64, 0.0, 10.012517, 9.908095 
7.547994e+3, 2.6436898e+2, -406431.16, -490242.4, -7596.223, 0.0021270686, 0.00024275972, -405748.22, -56563.49, 0.0, 10.007929, 9.898383 
7.5479335e+3, 2.7426815e+2, -313900.38, -393731.13, -7439.8203, 0.0021432354, -0.00009920019, -313212.94, -61040.113, 0.0, 10.003335, 9.899046 
7.5478756e+3, 2.8416106e+2, -231089.58, -317358.8, -5076.491, 0.002139769, 0.00033466762, -230791.88, -75569.61, 0.0, 9.998811, 9.886342 
7.5478214e+3, 2.940488e+2, -137743.16, -219772.52, -4730.59, 0.0021073343, -0.00015273699, -137471.25, -79148.62, 0.0, 9.994364, 9.887463 
7.547771e+3, 3.0396622e+2, -51745.688, -84192.43, -1577.5541, 0.0020992572, 0.0002738128, -51669.168, -51669.168, 0.0, 9.989936, 9.947261 
7.547725e+3, 3.1391576e+2, -56874.133, -84482.04, -1093.899, 0.0021221754, 0.000052305506, -56830.855, -56830.855, 0.0, 9.985514, 9.949198 
7.558938e+3, 1.253661e+2, -1634697.4, -1719871.4, -2219.403, 0.0021635075, 0.00014192874, -1634639.5, 76773.44, 0.0, 10.071855, 9.958508 
7.558886e+3, 1.353245e+2, -1544449.0, -1626972.0, -2649.5005, 0.002197768, -0.000021302187, -1544364.0, 69456.92, 0.0, 10.067551, 9.957817 
7.558829e+3, 1.4527859e+2, -1459888.1, -1544810.9, -6058.252, 0.0021931385, 0.00024712033, -1459458.1, 56812.53, 0.0, 10.06314, 9.950418 
7.558768e+3, 1.5522899e+2, -1369493.3, -1451448.1, -6379.602, 0.0021728417, 0.000055404846, -1368999.6, 49757.203, 0.0, 10.058659, 9.949961 
7.5587046e+3, 1.6517518e+2, -1284886.9, -1369214.8, -8842.171, 0.0021631336, 0.0001368024, -1283969.8, 37314.26, 0.0, 10.054118, 9.942504 
7.558638e+3, 1.7511775e+2, -1194339.1, -1275554.8, -9062.135, 0.0021662218, 0.000033633623, -1193340.3, 30506.715, 0.0, 10.0495405, 9.942131 
7.558569e+3, 1.8505605e+2, -1109777.9, -1193596.4, -10691.203, 0.0021696344, 0.00018339521, -1108435.6, 18016.023, 0.0, 10.044947, 9.934323 
7.5584984e+3, 1.949904e+2, -1018986.75, -1099626.4, -10806.347, 0.0021765113, 0.000055489312, -1017563.7, 11531.2, 0.0, 10.040345, 9.934001 
7.558427e+3, 2.0492035e+2, -934498.9, -1018063.75, -11603.691, 0.0021682205, 0.00017923005, -932917.5, -1136.0847, 0.0, 10.03572, 9.925726 
7.558355e+3, 2.1484615e+2, -843521.4, -923853.0, -11695.393, 0.0021452208, -0.000016531285, -841853.25, -7344.655, 0.0, 10.031074, 9.925419 
7.558282e+3, 2.247676e+2, -758740.9, -841966.9, -11650.741, 0.0021426887, 0.00023315431, -757140.7, -19862.244, 0.0, 10.02641, 9.917142 
7.55821e+3, 2.3468487e+2, -667529.25, -747437.75, -11695.419, 0.002163834, 0.000022120146, -665852.7, -25763.654, 0.0, 10.021727, 9.916895 
7.558139e+3, 2.445975e+2, -582757.25, -665944.7, -10793.524, 0.0021608581, 0.00018605456, -581379.56, -38434.11, 0.0, 10.017074, 9.908133 
7.558069e+3, 2.545059e+2, -490971.34, -570638.25, -10753.097, 0.0021283007, 0.000004175282, -489545.44, -43702.414, 0.0, 10.01245, 9.908193 
7.558002e+3, 2.6440936e+2, -406337.84, -489930.06, -9085.378, 0.002121883, 0.00025278106, -405361.78, -56572.656, 0.0, 10.007852, 9.898614 
7.5579363e+3, 2.7430877e+2, -313786.88, -393408.4, -8939.454, 0.0021444825, -0.00009323316, -312795.56, -61020.574, 0.0, 10.003271, 9.899279 
7.5578743e+3, 2.8420204e+2, -230782.75, -316617.66, -6537.7314, 0.0021436168, 0.00034073036, -230287.66, -75466.8, 0.0, 9.998741, 9.886852 
7.5578153e+3, 2.9409027e+2, -137476.48, -219034.61, -6202.4434, 0.0021093052, -0.00014417888, -137007.5, -79091.48, 0.0, 9.994262, 9.887989 
7.5577605e+3, 3.0400822e+2, -51523.87, -83509.1, -3039.5288, 0.0020992134, 0.00028113567, -51237.59, -51237.59, 0.0, 9.9898205, 9.947767 
7.5577104e+3, 3.139583e+2, -56645.918, -83808.375, -2561.8225, 0.002118829, 0.000053131214, -56406.41, -56406.41, 0.0, 9.985408, 9.949692 
7.569012e+3, 1.2541632e+2, -1628284.9, -1717432.1, -889.88324, 0.0021931084, 0.0001563351, -1628276.0, 82644.88, 0.0, 10.076305, 9.957591 
7.5689554e+3, 1.3537379e+2, -1538698.6, -1624891.3, -1323.543, 0.0021835517, -0.000019250376, -1538678.4, 74659.586, 0.0, 10.071596, 9.956913 
7.568894e+3, 1.4532706e+2, -1454651.8, -1542806.4, -4785.25, 0.0021722831, 0.00024514264, -1454392.8, 61402.88, 0.0, 10.066769, 9.949696 
7.5688285e+3, 1.5527673e+2, -1364936.6, -1449806.9, -5101.196, 0.0021776392, 0.000058609316, -1364631.1, 53657.777, 0.0, 10.061865, 9.949248 
7.56876e+3, 1.6522233e+2, -1280840.8, -1367647.9, -7581.4043, 0.0021780187, 0.00014182941, -1280183.6, 40638.45, 0.0, 10.056911, 9.941969 
7.5686884e+3, 1.7516436e+2, -1190937.5, -1274331.9, -7797.8877, 0.002175905, 0.000038002785, -1190214.5, 33175.7, 0.0, 10.05193, 9.941602 
7.5686145e+3, 1.8510224e+2, -1106783.6, -1192326.1, -9417.814, 0.0021690838, 0.00018665135, -1105759.0, 20239.975, 0.0, 10.046958, 9.934026 
7.5685394e+3, 1.950363e+2, -1016552.6, -1098658.4, -9528.395, 0.0021618234, 0.000057401292, -1015461.4, 13183.862, 0.0, 10.0420065, 9.9337015 
7.568463e+3, 2.0496602e+2, -932489.4, -1017146.6, -10317.03, 0.0021609403, 0.00018146164, -931250.2, 83.69515, 0.0, 10.037032, 9.925577 
7.5683856e+3, 2.1489166e+2, -842056.7, -923230.56, -10365.258, 0.0021662456, -0.000011607644, -840754.06, -6691.4673, 0.0, 10.032042, 9.925262 
7.568309e+3, 2.2481298e+2, -757725.0, -841486.94, -10294.626, 0.002160255, 0.00023860992, -756478.3, -19644.756, 0.0, 10.027049, 9.917064 
7.568232e+3, 2.347302e+2, -667000.7, -747216.8, -10325.833, 0.002144482, 0.000026080816, -665692.8, -26047.89, 0.0, 10.022053, 9.91681 
7.568156e+3, 2.446428e+2, -582659.25, -665770.25, -9410.965, 0.002141842, 0.00019000487, -581606.94, -39105.42, 0.0, 10.017043, 9.908198 
7.5680816e+3, 2.5455126e+2, -491494.03, -570780.44, -9366.298, 0.0021509505, 0.000011169608, -490402.6, -45004.156, 0.0, 10.0120125, 9.908255 
7.5680095e+3, 2.6445487e+2, -407305.5, -490113.97, -7649.216, 0.0021468976, 0.0002594067, -406604.84, -58261.684, 0.0, 10.007044, 9.898832 
7.567939e+3, 2.743545e+2, -315240.72, -393830.84, -7493.574, 0.0021243605, -0.00009108644, -314532.6, -63205.707, 0.0, 10.002136, 9.899497 
7.5678724e+3, 2.842481e+2, -232623.17, -316928.13, -5070.457, 0.0021200269, 0.00034420018, -232319.31, -77949.9, 0.0, 9.997221, 9.88733 
7.567809e+3, 2.9413685e+2, -139995.0, -219659.16, -4737.113, 0.0021355012, -0.00013104605, -139714.31, -82254.586, 0.0, 9.992275, 9.88848 
7.567749e+3, 3.0405527e+2, -54674.285, -84437.69, -1555.9885, 0.0021311173, 0.00028969484, -54593.164, -54593.164, 0.0, 9.987397, 9.948256 
7.567694e+3, 3.140058e+2, -60387.676, -85034.05, -1081.3153, 0.0020958637, 0.000037560243, -60340.324, -60340.324, 0.0, 9.982591, 9.950171 
7.579088e+3, 1.254702e+2, -1628722.0, -1718720.5, -2214.6367, 0.0022262416, 0.00017659132, -1628667.5, 81725.45, 0.0, 10.076494, 9.956679 
7.579027e+3, 1.3542673e+2, -1539194.8, -1626195.9, -2660.2217, 0.002168105, -0.000013434293, -1539113.5, 73705.59, 0.0, 10.071738, 9.956014 
7.5789607e+3, 1.4537922e+2, -1455023.6, -1543824.1, -6195.1484, 0.0021488022, 0.0002476298, -1454593.5, 60691.08, 0.0, 10.066881, 9.948987 
7.578891e+3, 1.5532818e+2, -1365313.8, -1450813.9, -6524.672, 0.0021844595, 0.000063697065, -1364818.8, 52966.016, 0.0, 10.061966, 9.94855 
7.578817e+3, 1.6527317e+2, -1281091.6, -1368390.1, -9042.732, 0.0021954968, 0.00015008688, -1280164.8, 40159.113, 0.0, 10.056998, 9.9414425 
7.57874e+3, 1.7521466e+2, -1191201.5, -1275069.9, -9271.477, 0.00218629, 0.000047557445, -1190188.8, 32708.469, 0.0, 10.052002, 9.941084 
7.578662e+3, 1.8515216e+2, -1106895.4, -1192709.4, -10901.271, 0.0021674864, 0.00019508072, -1105532.3, 19977.613, 0.0, 10.047, 9.933745 
7.5785816e+3, 1.9508594e+2, -1016728.9, -1099073.6, -11034.014, 0.0021439346, 0.000061938386, -1015276.0, 12882.828, 0.0, 10.042006, 9.933422 
7.5785e+3, 2.0501547e+2, -932552.44, -1017295.44, -11857.12, 0.0021516318, 0.00018657379, -930924.6, -75.36648, 0.0, 10.037009, 9.925478 
7.578418e+3, 2.1494101e+2, -842130.0, -923392.8, -11917.759, 0.0021908346, -0.000002833854, -840418.2, -6839.208, 0.0, 10.032016, 9.925157 
7.578336e+3, 2.2486228e+2, -757769.4, -841570.0, -11866.173, 0.0021802755, 0.00024848236, -756121.56, -19770.865, 0.0, 10.027014, 9.917014 
7.578254e+3, 2.3477942e+2, -667076.8, -747324.3, -11906.634, 0.0021195656, 0.000033307657, -665347.44, -26184.758, 0.0, 10.022, 9.916752 
7.5781727e+3, 2.4469203e+2, -582634.1, -665662.75, -11016.819, 0.0021169453, 0.00019723324, -581197.2, -39178.14, 0.0, 10.016986, 9.908281 
7.578094e+3, 2.5460058e+2, -491458.66, -570672.8, -10986.131, 0.0021768054, 0.000020627604, -489963.22, -45048.008, 0.0, 10.011964, 9.908334 
7.578016e+3, 2.6450434e+2, -407161.2, -489767.72, -9241.56, 0.0021754866, 0.00026842242, -406139.94, -58281.52, 0.0, 10.0069895, 9.89907 
7.5779414e+3, 2.744042e+2, -315131.6, -393502.78, -9100.409, 0.0020983021, -0.000086203305, -314088.75, -63248.94, 0.0, 10.00206, 9.899735 
7.57787e+3, 2.8429818e+2, -232339.95, -316218.66, -6703.278, 0.0020888227, 0.0003515068, -231807.63, -77928.86, 0.0, 9.997137, 9.887823 
7.5778013e+3, 2.9418743e+2, -139690.06, -218928.66, -6382.8296, 0.0021651958, -0.00011431167, -139179.22, -82215.1, 0.0, 9.992204, 9.888984 
7.5777364e+3, 3.0410635e+2, -54394.78, -83745.06, -3158.9297, 0.002167808, 0.0003031753, -54058.64, -54058.64, 0.0, 9.987322, 9.948745 
7.5776774e+3, 3.1405732e+2, -60153.676, -84374.56, -2699.5527, 0.002063181, 0.000023795988, -59856.445, -59856.445, 0.0, 9.98249, 9.950651 
7.5891674e+3, 1.2552999e+2, -1621981.5, -1716075.6, -733.97455, 0.0021872378, 0.00015328324, -1621975.8, 87831.44, 0.0, 10.081135, 9.955774 
7.589101e+3, 1.3548562e+2, -1533238.6, -1623974.5, -1176.1537, 0.0021911648, -0.0000050698477, -1533223.4, 79018.414, 0.0, 10.075894, 9.955121 
7.5890297e+3, 1.4543732e+2, -1449617.8, -1541702.6, -4723.8394, 0.0021819507, 0.00026045696, -1449376.0, 65339.16, 0.0, 10.0706005, 9.948273 
7.588954e+3, 1.5538555e+2, -1360542.0, -1449029.5, -5044.2207, 0.00218304, 0.000060531835, -1360255.4, 56967.07, 0.0, 10.06529, 9.947848 
7.588875e+3, 1.6532995e+2, -1276808.8, -1366683.9, -7568.272, 0.002179649, 0.0001447558, -1276175.9, 43591.723, 0.0, 10.059928, 9.940906 
7.5887936e+3, 1.752709e+2, -1187538.0, -1273688.6, -7785.282, 0.0021719956, 0.00005346708, -1186840.1, 35506.01, 0.0, 10.054543, 9.940558 
7.58871e+3, 1.8520795e+2, -1103748.8, -1191425.5, -9417.981, 0.0021680936, 0.00020249297, -1102748.5, 22214.508, 0.0, 10.049132, 9.933376 
7.5886244e+3, 1.9514136e+2, -1014250.75, -1098141.9, -9562.061, 0.0021727176, 0.00006314328, -1013174.7, 14441.04, 0.0, 10.043714, 9.933058 
7.588538e+3, 2.0507067e+2, -930423.6, -1016223.94, -10341.462, 0.0021685092, 0.00018699716, -929194.75, 1113.5673, 0.0, 10.038349, 9.925396 
7.588451e+3, 2.1499613e+2, -840492.5, -922589.4, -10359.171, 0.0021581466, 0.00000053940727, -839205.56, -6166.646, 0.0, 10.033048, 9.925066 
7.588363e+3, 2.2491732e+2, -756609.4, -840962.1, -10288.542, 0.0021541861, 0.0002527713, -755372.6, -19561.389, 0.0, 10.027713, 9.916968 
7.5882757e+3, 2.3483442e+2, -666467.9, -747011.3, -10303.591, 0.0021552495, 0.00003949525, -665170.7, -26546.953, 0.0, 10.022347, 9.9166975 
7.58819e+3, 2.4474704e+2, -582454.9, -665429.75, -9384.63, 0.0021518567, 0.0002022588, -581406.7, -39926.62, 0.0, 10.016993, 9.908347 
7.588105e+3, 2.5465566e+2, -491781.94, -570700.75, -9339.29, 0.0021446932, 0.000020500083, -490691.78, -46316.125, 0.0, 10.011643, 9.908393 
7.588023e+3, 2.6455954e+2, -407936.3, -489861.1, -7563.522, 0.002140611, 0.0002711788, -407243.88, -59926.324, 0.0, 10.006303, 9.899268 
7.587943e+3, 2.744596e+2, -316527.6, -393905.94, -7421.777, 0.0021329706, -0.00007005035, -315822.2, -65525.227, 0.0, 10.00096, 9.899931 
7.5878656e+3, 2.843539e+2, -234110.98, -316471.8, -4994.4546, 0.0021304172, 0.00036202744, -233809.22, -80476.53, 0.0, 9.9956455, 9.888307 
7.587792e+3, 2.9424366e+2, -141988.16, -219424.33, -4662.1777, 0.0021345257, -0.00013077425, -141708.48, -85295.125, 0.0, 9.99035, 9.889477 
7.5877225e+3, 3.0416304e+2, -57379.39, -84683.234, -1465.8746, 0.0021282746, 0.00030872153, -57300.914, -57300.914, 0.0, 9.985044, 9.94914 
7.587658e+3, 3.1411445e+2, -63907.836, -85705.08, -1047.7404, 0.002102691, 0.000114197326, -63857.59, -63857.59, 0.0, 9.979701, 9.951029 
7.599248e+3, 1.2559384e+2, -1622434.1, -1717348.5, -2195.0256, 0.0021460517, 0.00013555154, -1622383.4, 86798.086, 0.0, 10.081294, 9.954882 
7.599177e+3, 1.3554862e+2, -1533685.1, -1625226.8, -2652.5608, 0.0022207226, 0.000006056132, -1533608.3, 78016.336, 0.0, 10.076048, 9.954242 
7.5991e+3, 1.4549953e+2, -1449936.3, -1542671.5, -6235.3433, 0.0022196912, 0.00027788398, -1449518.9, 64586.676, 0.0, 10.070729, 9.94758 
7.5990194e+3, 1.5544707e+2, -1360899.9, -1450003.1, -6572.629, 0.0021803656, 0.00006159542, -1360417.6, 56202.156, 0.0, 10.065385, 9.947169 
7.5989354e+3, 1.6539085e+2, -1277060.6, -1367410.1, -9135.016, 0.002159947, 0.00014395494, -1276146.3, 43024.5, 0.0, 10.0599985, 9.9403925 
7.5988483e+3, 1.7533131e+2, -1187800.8, -1274407.0, -9369.212, 0.0021552974, 0.000062410494, -1186798.9, 34955.36, 0.0, 10.054598, 9.940055 
7.5987595e+3, 1.8526793e+2, -1103909.5, -1191930.8, -11027.101, 0.0021699036, 0.000213516, -1102549.1, 21826.238, 0.0, 10.049177, 9.933012 
7.598668e+3, 1.9520096e+2, -1014413.06, -1098640.0, -11182.572, 0.0022072524, 0.00006909777, -1012953.6, 14077.923, 0.0, 10.043753, 9.9327 
7.598576e+3, 2.051301e+2, -930367.4, -1016231.75, -11953.003, 0.0021868998, 0.00019307555, -928734.5, 991.53253, 0.0, 10.038361, 9.925364 
7.5984836e+3, 2.1505551e+2, -840521.8, -922648.2, -12010.003, 0.0021141602, 0.000007320274, -838801.5, -6344.543, 0.0, 10.033007, 9.925029 
7.5983906e+3, 2.249767e+2, -756646.25, -840986.44, -11987.461, 0.0021192492, 0.00026045824, -754975.5, -19746.08, 0.0, 10.02765, 9.916965 
7.598298e+3, 2.3489377e+2, -666504.56, -747047.4, -12006.441, 0.0022022855, 0.00004925342, -664752.9, -26710.783, 0.0, 10.022289, 9.916683 
7.598207e+3, 2.4480644e+2, -582408.44, -665296.1, -11095.695, 0.0021967883, 0.00021119395, -580948.9, -40050.87, 0.0, 10.016934, 9.908443 
7.598117e+3, 2.5471514e+2, -491750.22, -570581.94, -11066.899, 0.0020958297, 0.000022234422, -490226.03, -46433.313, 0.0, 10.011579, 9.9084835 
7.5980294e+3, 2.6461917e+2, -407819.53, -489552.88, -9305.219, 0.00208846, 0.0002767465, -406773.53, -60040.453, 0.0, 10.006233, 9.899485 
7.597944e+3, 2.7451947e+2, -316422.16, -393609.03, -9177.891, 0.0021836238, -0.000048509904, -315345.88, -65635.56, 0.0, 10.000886, 9.900144 
7.597862e+3, 2.844141e+2, -233785.19, -315719.3, -6749.458, 0.0021883415, 0.00037697924, -233232.92, -80490.336, 0.0, 9.995573, 9.888819 
7.5977826e+3, 2.9430434e+2, -141646.6, -218655.61, -6435.146, 0.0020819476, -0.00015181383, -141112.56, -85294.19, 0.0, 9.990286, 9.8899975 
7.5977075e+3, 3.0422422e+2, -57158.023, -84152.82, -3258.4192, 0.0020640618, 0.00031738958, -56770.285, -56770.285, 0.0, 9.984978, 9.949511 
7.597638e+3, 3.1417608e+2, -63723.93, -85215.28, -2849.5872, 0.0021617396, 0.00023627603, -63352.516, -63352.516, 0.0, 9.97962, 9.95138 
7.609332e+3, 1.2566431e+2, -1615512.1, -1714568.4, -536.6607, 0.00219898, 0.00017235716, -1615509.3, 92981.484, 0.0, 10.086027, 9.953991 
7.609255e+3, 1.3561817e+2, -1527479.4, -1622829.8, -988.0555, 0.00219322, -0.0000070481447, -1527469.1, 83473.93, 0.0, 10.080338, 9.953369 
7.609173e+3, 1.455683e+2, -1444286.8, -1540377.9, -4574.958, 0.0021785528, 0.00025919938, -1444069.5, 69362.23, 0.0, 10.074576, 9.946885 
7.6090866e+3, 1.5551516e+2, -1355953.9, -1448080.8, -4895.7505, 0.0021779188, 0.000077937104, -1355694.5, 60257.926, 0.0, 10.068792, 9.946489 
7.608997e+3, 1.6545835e+2, -1272634.5, -1365591.6, -7432.8623, 0.0021799393, 0.00016213335, -1272043.9, 46465.223, 0.0, 10.062996, 9.939869 
7.608904e+3, 1.7539829e+2, -1183975.3, -1272901.6, -7646.9546, 0.002182133, 0.00005615432, -1183322.4, 37775.504, 0.0, 10.057217, 9.939546 
7.6088095e+3, 1.8533446e+2, -1100561.4, -1190529.0, -9282.118, 0.002175241, 0.00020411794, -1099613.8, 24109.629, 0.0, 10.051424, 9.932635 
7.608713e+3, 1.9526714e+2, -1011635.3, -1097538.5, -9420.595, 0.0021684906, 0.00007583823, -1010614.3, 15768.841, 0.0, 10.045638, 9.932329 
7.608615e+3, 2.0519598e+2, -928083.25, -1015203.4, -10190.077, 0.002163711, 0.00020344387, -926907.25, 2173.15, 0.0, 10.039846, 9.925157 
7.608517e+3, 2.1512118e+2, -838914.5, -921979.0, -10279.716, 0.002159122, 0.000009708135, -837661.25, -5847.7856, 0.0, 10.034061, 9.924819 
7.608419e+3, 2.250423e+2, -755371.1, -840154.75, -10204.684, 0.0021568586, 0.00025786363, -754160.2, -19573.621, 0.0, 10.028343, 9.917046 
7.608321e+3, 2.3495944e+2, -665688.06, -746466.1, -10151.115, 0.002161505, 0.000047292877, -664431.94, -27033.48, 0.0, 10.022692, 9.916752 
7.608224e+3, 2.448722e+2, -582080.4, -664964.5, -9201.275, 0.0021557081, 0.00021534947, -581071.2, -40817.523, 0.0, 10.01702, 9.908511 
7.608128e+3, 2.5478095e+2, -491957.8, -570533.5, -9160.023, 0.0021336444, 0.000037468908, -490904.1, -47756.344, 0.0, 10.011317, 9.908541 
7.608035e+3, 2.6468512e+2, -408465.25, -489553.03, -7376.0522, 0.002132541, 0.00028339168, -407799.75, -61712.883, 0.0, 10.005611, 9.89969 
7.6079446e+3, 2.745856e+2, -317637.25, -393897.6, -7232.0347, 0.0021541826, -0.00007114902, -316957.47, -67895.13, 0.0, 9.9998865, 9.900342 
7.6078564e+3, 2.844806e+2, -235357.64, -315869.25, -4753.199, 0.0021515938, 0.00037112195, -235078.0, -82986.75, 0.0, 9.9942045, 9.889288 
7.607772e+3, 2.9437134e+2, -143752.1, -219057.89, -4438.0073, 0.0021126752, -0.000085165455, -143491.45, -88329.586, 0.0, 9.988553, 9.890471 
7.607691e+3, 3.0429158e+2, -59960.01, -85024.99, -1338.2439, 0.0021052507, 0.00030699786, -59888.766, -59888.766, 0.0, 9.982825, 9.949867 
7.607616e+3, 3.1424356e+2, -67271.53, -86468.3, -937.13904, 0.0021427388, -0.000040988765, -67225.89, -67225.89, 0.0, 9.976973, 9.951719 
7.6194185e+3, 1.2573928e+2, -1615923.1, -1715786.4, -2108.5437, 0.0022566393, 0.000214911, -1615878.6, 91877.47, 0.0, 10.086189, 9.953124 
7.6193357e+3, 1.3569221e+2, -1527928.9, -1624046.9, -2575.3435, 0.0021623438, -0.000015880432, -1527859.9, 82357.44, 0.0, 10.080462, 9.952518 
7.6192474e+3, 1.4564161e+2, -1444609.1, -1541311.1, -6201.7056, 0.0021316276, 0.00024663488, -1444213.0, 68500.266, 0.0, 10.074676, 9.946222 
7.619155e+3, 1.5558785e+2, -1356277.1, -1448995.9, -6541.733, 0.0021785824, 0.00009827346, -1355817.9, 59422.363, 0.0, 10.06888, 9.945842 
7.61906e+3, 1.6553047e+2, -1272841.8, -1366260.8, -9093.269, 0.002205471, 0.00018588488, -1271964.9, 45837.58, 0.0, 10.063069, 9.939383 
7.6189613e+3, 1.7546989e+2, -1184194.0, -1273560.3, -9329.925, 0.0022121319, 0.000053813652, -1183230.3, 37165.85, 0.0, 10.057274, 9.939072 
7.6188606e+3, 1.8540567e+2, -1100698.1, -1191001.3, -10986.769, 0.0021782494, 0.00019931416, -1099380.6, 23644.932, 0.0, 10.051466, 9.932287 
7.618758e+3, 1.95338e+2, -1011785.3, -1098008.6, -11144.902, 0.002117277, 0.00008820685, -1010368.06, 15320.589, 0.0, 10.045667, 9.931988 
7.6186556e+3, 2.0526658e+2, -928147.06, -1015486.8, -11936.317, 0.0021341653, 0.00021963746, -926545.2, 1843.3762, 0.0, 10.0398655, 9.924939 
7.618551e+3, 2.1519156e+2, -838988.3, -922266.7, -12043.004, 0.0022206546, 0.000015506423, -837281.7, -6157.828, 0.0, 10.034073, 9.924602 
7.6184475e+3, 2.2511265e+2, -755189.56, -839876.7, -11962.341, 0.002205003, 0.00025976304, -753532.25, -19635.059, 0.0, 10.028329, 9.917205 
7.618343e+3, 2.3502994e+2, -665586.44, -746241.5, -11962.056, 0.002096715, 0.000048235514, -663849.75, -27142.088, 0.0, 10.022633, 9.916903 
7.6182413e+3, 2.4494283e+2, -582062.3, -664836.5, -11060.757, 0.0020936248, 0.00022290618, -580609.8, -41048.293, 0.0, 10.016931, 9.908615 
7.6181394e+3, 2.548517e+2, -491970.84, -570432.8, -11020.654, 0.0021936044, 0.000059136015, -490452.28, -47997.695, 0.0, 10.011212, 9.908634 
7.618041e+3, 2.6475602e+2, -408358.1, -489219.7, -9253.891, 0.0021976526, 0.00029495236, -407312.6, -61920.49, 0.0, 10.005512, 9.899932 
7.6179445e+3, 2.7465668e+2, -317494.03, -393554.63, -9129.4795, 0.002097179, -0.00010092545, -316413.56, -68048.016, 0.0, 9.999816, 9.900578 
7.6178503e+3, 2.845521e+2, -235019.89, -315130.44, -6642.6914, 0.0020840773, 0.00036561725, -234472.83, -83082.1, 0.0, 9.99414, 9.889782 
7.617761e+3, 2.9444343e+2, -143448.92, -218335.81, -6340.6323, 0.0021701807, 0.000008658487, -142915.86, -88460.11, 0.0, 9.988467, 9.890968 
7.6176745e+3, 3.04364e+2, -59738.563, -84503.07, -3317.8347, 0.0021784904, 0.0002939228, -59301.758, -59301.758, 0.0, 9.982754, 9.95023 
7.6175934e+3, 3.14316e+2, -66975.945, -85930.61, -2951.902, 0.0020893146, -0.00042602254, -66526.87, -66526.87, 0.0, 9.97696, 9.9520645 
7.6295066e+3, 1.2582143e+2, -1608769.3, -1712800.3, -285.53247, 0.0021907745, 0.00015700396, -1608768.5, 98182.71, 0.0, 10.091024, 9.952284 
7.629418e+3, 1.357736e+2, -1521582.6, -1621490.5, -732.4094, 0.0021908968, 0.000023449658, -1521577.3, 87842.63, 0.0, 10.084796, 9.951697 
7.629324e+3, 1.4572226e+2, -1438849.3, -1538893.4, -4319.2686, 0.0021801675, 0.00028525008, -1438663.1, 73259.88, 0.0, 10.078556, 9.945563 
7.629226e+3, 1.5566777e+2, -1351175.6, -1446924.0, -4634.447, 0.0021883238, 0.00006846265, -1350951.9, 63505.008, 0.0, 10.072348, 9.945199 
7.6291245e+3, 1.6560985e+2, -1268251.4, -1364309.4, -7139.2065, 0.0021889897, 0.00015467205, -1267723.6, 49300.977, 0.0, 10.066142, 9.938878 
7.62902e+3, 1.7554878e+2, -1180192.5, -1271913.5, -7352.6465, 0.002176882, 0.000071948576, -1179606.9, 40016.133, 0.0, 10.059974, 9.938583 
7.6289135e+3, 1.8548414e+2, -1097176.8, -1189482.1, -8973.409, 0.0021673432, 0.00022126477, -1096312.5, 25943.99, 0.0, 10.053802, 9.931912 
7.628805e+3, 1.9541608e+2, -1008812.06, -1096771.4, -9111.727, 0.002167277, 0.0000781734, -1007878.1, 17045.455, 0.0, 10.047652, 9.931624 
7.628696e+3, 2.0534435e+2, -925652.25, -1014391.0, -9878.342, 0.0021683092, 0.00020190958, -924565.94, 3060.5872, 0.0, 10.041494, 9.924673 
7.6285857e+3, 2.1526906e+2, -837048.75, -921458.3, -9971.837, 0.0021741744, 0.000014771231, -835886.7, -5522.382, 0.0, 10.035346, 9.924341 
7.628476e+3, 2.2518998e+2, -753721.25, -839115.25, -9893.31, 0.0021633455, 0.00026877312, -752590.06, -19450.855, 0.0, 10.029212, 9.917118 
7.6283664e+3, 2.351072e+2, -664775.44, -745825.75, -9946.645, 0.0021356663, 0.00005787762, -663572.6, -27622.031, 0.0, 10.023092, 9.916811 
7.628258e+3, 2.4502014e+2, -581598.1, -664233.44, -9012.324, 0.0021373306, 0.00021805707, -580626.6, -41822.85, 0.0, 10.017006, 9.908839 
7.6281506e+3, 2.5492918e+2, -492040.1, -570116.1, -8885.688, 0.0021703953, 0.000029164197, -491041.6, -49346.58, 0.0, 10.010945, 9.908842 
7.6280457e+3, 2.6483378e+2, -408907.53, -489138.78, -7031.8354, 0.0021643979, 0.0002899369, -408295.9, -63665.656, 0.0, 10.0049305, 9.900144 
7.627943e+3, 2.7473468e+2, -318485.34, -393706.5, -6896.147, 0.0021101718, -0.00003174788, -317858.34, -70257.18, 0.0, 9.998945, 9.900777 
7.627844e+3, 2.846304e+2, -236313.64, -315076.1, -4395.5537, 0.0021094475, 0.00038401753, -236069.1, -85445.8, 0.0, 9.992918, 9.890288 
7.627748e+3, 2.9452208e+2, -145371.13, -218586.45, -4064.8762, 0.002170071, -0.00015963992, -145146.13, -91461.336, 0.0, 9.986821, 9.891474 
7.6276565e+3, 3.0444324e+2, -62392.766, -85455.664, -1085.001, 0.0021721337, 0.0003765455, -62341.832, -62341.832, 0.0, 9.980758, 9.950431 
7.627569e+3, 3.1439605e+2, -70033.53, -87111.27, -790.18115, 0.0021001508, 0.00043438651, -69997.05, -69997.05, 0.0, 9.974709, 9.952238 
7.639598e+3, 1.2590848e+2, -1609150.3, -1713928.8, -1982.1852, 0.0021230874, 0.000109536544, -1609112.8, 96985.17, 0.0, 10.091159, 9.951476 
7.639503e+3, 1.3585992e+2, -1521968.8, -1622598.3, -2453.6309, 0.0022285343, 0.000063896485, -1521909.0, 86664.836, 0.0, 10.084914, 9.95091 
7.639403e+3, 1.4580789e+2, -1439117.0, -1539738.5, -6047.0625, 0.002235368, 0.00032828277, -1438755.0, 72328.79, 0.0, 10.078651, 9.944948 
7.6392984e+3, 1.5575275e+2, -1351457.8, -1447757.1, -6385.8726, 0.0021969932, 0.000041796087, -1351036.1, 62588.063, 0.0, 10.072423, 9.944601 
7.6391906e+3, 1.656943e+2, -1268442.4, -1364935.1, -8893.115, 0.002166354, 0.0001288242, -1267629.6, 48567.44, 0.0, 10.066199, 9.938418 
7.63908e+3, 1.7563283e+2, -1180394.1, -1272526.3, -9130.879, 0.0021335436, 0.00009740716, -1179497.9, 39301.59, 0.0, 10.060014, 9.938139 
7.638967e+3, 1.855678e+2, -1097304.1, -1189934.8, -10765.776, 0.0021566972, 0.00025136853, -1096069.4, 25367.438, 0.0, 10.053832, 9.931574 
7.638853e+3, 1.9549936e+2, -1008933.8, -1097203.5, -10930.205, 0.0022322526, 0.00007123993, -1007600.5, 16506.87, 0.0, 10.047678, 9.931302 
7.6387376e+3, 2.0542735e+2, -925702.06, -1014689.5, -11723.424, 0.0022073896, 0.00018706602, -924183.5, 2629.5564, 0.0, 10.041522, 9.924435 
7.6386213e+3, 2.1535183e+2, -837083.6, -921742.4, -11841.144, 0.002102853, 0.00001873432, -835458.6, -5905.563, 0.0, 10.035379, 9.9241085 
7.638505e+3, 2.2527261e+2, -753677.7, -839219.2, -11785.091, 0.0021034905, 0.0002861977, -752083.75, -19754.293, 0.0, 10.029234, 9.9170065 
7.6383895e+3, 2.3518969e+2, -664772.44, -745953.06, -11864.845, 0.0021981203, 0.00007359796, -663073.94, -27931.877, 0.0, 10.023089, 9.916698 
7.638275e+3, 2.4510273e+2, -581312.8, -663723.1, -10962.727, 0.0022016536, 0.00021482812, -579879.4, -41885.066, 0.0, 10.016973, 9.909155 
7.638162e+3, 2.5501207e+2, -491822.03, -569653.1, -10907.495, 0.0021179845, -0.000005779125, -490322.3, -49439.56, 0.0, 10.010875, 9.909149 
7.638051e+3, 2.6491696e+2, -408817.56, -488802.0, -9062.438, 0.002100492, 0.0002898154, -407803.63, -63988.7, 0.0, 10.004806, 9.900396 
7.6379424e+3, 2.748182e+2, -318519.22, -393446.13, -8924.051, 0.0021467085, 0.00006368317, -317471.0, -70688.195, 0.0, 9.998745, 9.901017 
7.637837e+3, 2.8471425e+2, -236073.94, -314302.13, -6457.4414, 0.0021612016, 0.00040907206, -235544.47, -85742.97, 0.0, 9.992741, 9.890855 
7.6377356e+3, 2.946063e+2, -144957.56, -217729.89, -6138.037, 0.0021430815, -0.00039358946, -144443.47, -91584.05, 0.0, 9.986764, 9.892039 
7.6376367e+3, 3.0452812e+2, -62184.492, -85180.95, -3146.4492, 0.0021334116, 0.00050418614, -61761.758, -61761.758, 0.0, 9.980771, 9.950581 
7.6375437e+3, 3.1448197e+2, -69829.54, -86874.93, -2869.7617, 0.002133434, 0.0016667122, -69359.36, -69359.36, 0.0, 9.974734, 9.952355 
7.6496917e+3, 1.2600364e+2, -1601900.1, -1710821.5, 33.31307, 0.0021905035, 0.00018853742, -1601900.1, 103265.336, 0.0, 10.096017, 9.95067 
7.64959e+3, 1.3595416e+2, -1515503.9, -1619905.0, -418.05176, 0.0021998037, -0.000006193568, -1515502.3, 92148.14, 0.0, 10.089281, 9.950128 
7.6494837e+3, 1.4590144e+2, -1433233.1, -1537169.1, -3940.926, 0.0021875328, 0.00026269804, -1433083.9, 77083.125, 0.0, 10.082562, 9.944338 
7.649373e+3, 1.5584578e+2, -1346247.0, -1445537.8, -4247.135, 0.0021778871, 0.00009113676, -1346065.8, 66646.85, 0.0, 10.07591, 9.944011 
7.6492584e+3, 1.657868e+2, -1263747.9, -1362853.6, -6674.842, 0.002180334, 0.00017655264, -1263300.4, 51990.113, 0.0, 10.069295, 9.937953 
7.6491416e+3, 1.7572479e+2, -1176265.9, -1270735.3, -6878.579, 0.002181289, 0.00006408576, -1175767.6, 42130.492, 0.0, 10.062749, 9.937692 
7.6490223e+3, 1.8565936e+2, -1093647.6, -1188307.1, -8448.44, 0.0021777172, 0.00021123321, -1092899.5, 27639.787, 0.0, 10.056227, 9.931206 
7.6489013e+3, 1.955906e+2, -1005769.8, -1095824.1, -8584.514, 0.002182972, 0.0000805938, -1004958.8, 18254.402, 0.0, 10.049756, 9.930949 
7.64878e+3, 2.0551828e+2, -922971.06, -1013475.6, -9335.814, 0.0021711874, 0.00020621032, -922018.06, 3903.8152, 0.0, 10.043296, 9.924139 
7.648657e+3, 2.1544246e+2, -834805.7, -920759.44, -9439.315, 0.0021450429, 0.00001946171, -833781.3, -5116.365, 0.0, 10.036861, 9.923822 
7.6485354e+3, 2.2536297e+2, -751879.44, -838412.5, -9400.632, 0.0021478033, 0.00026952304, -750869.94, -19426.064, 0.0, 10.030374, 9.916786 
7.648413e+3, 2.3527983e+2, -663567.75, -745452.4, -9490.847, 0.002181321, 0.000039810926, -662482.1, -28223.309, 0.0, 10.023844, 9.916479 
7.648292e+3, 2.4519277e+2, -580621.7, -663285.06, -8638.785, 0.002170842, 0.00021055769, -579728.5, -42616.445, 0.0, 10.017307, 9.909112 
7.6481724e+3, 2.551021e+2, -491827.78, -569578.2, -8685.658, 0.0021140752, 0.000061324594, -490869.28, -50868.81, 0.0, 10.0107565, 9.909101 
7.648055e+3, 2.6500714e+2, -409193.0, -488350.9, -6824.515, 0.0021150918, 0.000290895, -408608.94, -65677.734, 0.0, 10.004203, 9.900834 
7.6479405e+3, 2.7490866e+2, -319683.28, -393404.34, -6567.255, 0.00217182, -0.00012877908, -319102.8, -73206.414, 0.0, 9.997625, 9.901436 
7.647829e+3, 2.8480536e+2, -237491.72, -314140.75, -3838.2017, 0.002170678, 0.00037421362, -237300.0, -88391.27, 0.0, 9.991357, 9.891481 
7.647721e+3, 2.9469842e+2, -146382.77, -217579.7, -3467.9705, 0.0021082365, 0.00009104518, -146214.25, -94257.695, 0.0, 9.985378, 9.892655 
7.647617e+3, 3.0461994e+2, -64175.223, -85906.305, -568.8068, 0.0021059436, 0.00016471719, -64160.344, -64160.344, 0.0, 9.979257, 9.950672 
7.6475173e+3, 3.1457195e+2, -72262.7, -87849.2, -311.55844, 0.0021756727, -0.0010117482, -72256.48, -72256.48, 0.0, 9.972938, 9.952417 
7.6597875e+3, 1.2610416e+2, -1602281.5, -1711886.0, -1796.5428, 0.0022617115, 0.0002676619, -1602252.0, 101928.34, 0.0, 10.096108, 9.949914 
7.659679e+3, 1.360538e+2, -1515873.9, -1620936.3, -2262.481, 0.0021666943, -0.000071323324, -1515825.1, 90848.68, 0.0, 10.089364, 9.949393 
7.659566e+3, 1.4600046e+2, -1433470.0, -1537924.3, -5765.619, 0.0021335604, 0.0002093601, -1433152.6, 76043.88, 0.0, 10.08263, 9.943783 
7.6594484e+3, 1.5594433e+2, -1346484.6, -1446269.0, -6099.5693, 0.002161404, 0.00014865384, -1346113.1, 65633.59, 0.0, 10.075964, 9.943476 
7.6593274e+3, 1.6588488e+2, -1263894.3, -1363390.6, -8510.067, 0.0022002524, 0.00023105902, -1263171.6, 51157.598, 0.0, 10.069338, 9.937546 
7.659204e+3, 1.7582242e+2, -1176411.4, -1271252.5, -8744.159, 0.00223622, 0.000032428838, -1175611.9, 41329.492, 0.0, 10.062783, 9.937301 
7.659079e+3, 1.8575664e+2, -1093740.6, -1188713.6, -10313.739, 0.002197409, 0.00017432985, -1092633.5, 26952.549, 0.0, 10.056255, 9.930888 
7.658951e+3, 1.956876e+2, -1005855.06, -1096207.1, -10480.264, 0.0021127553, 0.00009923457, -1004655.3, 17607.275, 0.0, 10.04978, 9.930649 
7.658823e+3, 2.0561501e+2, -923038.1, -1013802.8, -11248.552, 0.0021231112, 0.00023977653, -921664.8, 3309.0303, 0.0, 10.043309, 9.92388 
7.6586944e+3, 2.1553892e+2, -834888.7, -921085.56, -11377.126, 0.0022106383, 0.000023825518, -833412.3, -5692.6274, 0.0, 10.03686, 9.923572 
7.6585656e+3, 2.254592e+2, -751899.75, -838666.1, -11401.067, 0.002209013, 0.00025173675, -750426.6, -19925.658, 0.0, 10.030395, 9.916571 
7.6584363e+3, 2.353758e+2, -663509.75, -745665.94, -11518.887, 0.0021369113, 0.0000071167565, -661925.25, -28607.11, 0.0, 10.023915, 9.916265 
7.6583093e+3, 2.4528863e+2, -580461.06, -663326.6, -10718.449, 0.002112628, 0.0002173054, -579097.1, -42924.496, 0.0, 10.017393, 9.909002 
7.658183e+3, 2.551979e+2, -491694.28, -569636.3, -10803.684, 0.00212635, 0.00015084006, -490224.5, -51162.89, 0.0, 10.010826, 9.90899 
7.6580596e+3, 2.651031e+2, -408675.1, -487455.72, -9045.254, 0.0021505402, 0.0002933828, -407649.9, -65659.164, 0.0, 10.004199, 9.901383 
7.6579386e+3, 2.7500495e+2, -319361.16, -392619.94, -8920.716, 0.0021845838, -0.000380716, -318290.53, -73337.97, 0.0, 9.997499, 9.90198 
7.6578206e+3, 2.8490245e+2, -237262.67, -313196.88, -6015.9336, 0.0021586663, 0.00034247473, -236789.02, -88832.086, 0.0, 9.991092, 9.892202 
7.657707e+3, 2.9479682e+2, -146441.5, -216793.7, -5618.149, 0.0020724828, 0.0007698117, -145995.67, -95003.4, 0.0, 9.984928, 9.893362 
7.6575965e+3, 3.047178e+2, -64388.23, -85885.086, -2778.1343, 0.002085092, -0.00034967382, -64035.004, -64035.004, 0.0, 9.978996, 9.950779 
7.657491e+3, 3.1466717e+2, -71679.87, -87471.18, -2518.172, 0.00221306, -0.004885778, -71288.02, -71288.02, 0.0, 9.973228, 9.9524975 
7.6698864e+3, 1.2621316e+2, -1594965.9, -1708572.6, 398.13794, 0.00218929, 0.00013860813, -1594964.5, 108147.68, 0.0, 10.10092, 9.949228 
7.669771e+3, 1.3616231e+2, -1509352.9, -1618042.0, -20.880674, 0.0021853524, 0.0000439389, -1509352.9, 96257.6, 0.0, 10.0936775, 9.9487295 
7.6696503e+3, 1.4610836e+2, -1427563.0, -1535236.8, -3407.9421, 0.0021804485, 0.00030231426, -1427455.1, 80684.02, 0.0, 10.086497, 9.943234 
7.6695263e+3, 1.5605153e+2, -1341220.5, -1443910.3, -3698.6345, 0.002192254, 0.000060501894, -1341087.5, 69608.61, 0.0, 10.079423, 9.942952 
7.669398e+3, 1.6599162e+2, -1259129.0, -1361185.1, -5992.9478, 0.0021981874, 0.00014342353, -1258778.3, 54504.895, 0.0, 10.072429, 9.937126 
7.669269e+3, 1.7592883e+2, -1172165.1, -1269310.9, -6186.685, 0.0021883233, 0.000069348534, -1171772.6, 44125.883, 0.0, 10.065542, 9.936899 
7.6691365e+3, 1.8586269e+2, -1089944.0, -1186960.0, -7666.2905, 0.0021730755, 0.00022024187, -1089341.9, 29204.81, 0.0, 10.058706, 9.930535 
7.669002e+3, 1.9579324e+2, -1002500.25, -1094673.4, -7800.498, 0.0021621573, 0.00007734645, -1001844.75, 19382.508, 0.0, 10.051946, 9.930313 
7.668867e+3, 2.0572035e+2, -920105.4, -1012445.94, -8517.919, 0.002167734, 0.00019687966, -919326.2, 4615.4507, 0.0, 10.045184, 9.923586 
7.668732e+3, 2.1564396e+2, -832401.6, -919953.9, -8616.1045, 0.0021915755, -0.000008770598, -831561.75, -4871.507, 0.0, 10.038447, 9.923288 
7.6685965e+3, 2.2556397e+2, -749774.9, -837733.2, -8594.449, 0.0021754198, 0.00025505127, -748943.0, -19468.932, 0.0, 10.031754, 9.916282 
7.668461e+3, 2.3548035e+2, -661666.4, -744883.5, -8701.024, 0.0021276749, 0.00007527806, -660766.4, -28472.768, 0.0, 10.025096, 9.915976 
7.668327e+3, 2.4539278e+2, -579084.4, -662828.06, -7998.855, 0.0021311021, 0.00020536444, -578327.2, -43175.547, 0.0, 10.01829, 9.908677 
7.668194e+3, 2.553016e+2, -490891.3, -569433.9, -8150.49, 0.0021763367, -0.000067123685, -490054.44, -52008.98, 0.0, 10.011349, 9.908665 
7.6680636e+3, 2.6520663e+2, -408782.75, -487653.22, -6728.384, 0.0021703355, 0.0002691706, -408212.88, -67236.99, 0.0, 10.004094, 9.901117 
7.667935e+3, 2.7510867e+2, -320768.25, -393462.5, -6906.6797, 0.0021163179, 0.0001440069, -320117.84, -76181.75, 0.0, 9.99653, 9.901723 
7.6678103e+3, 2.8500625e+2, -238815.9, -312423.4, -3791.191, 0.0021084915, 0.00035779495, -238621.16, -91681.42, 0.0, 9.989312, 9.893407 
7.66769e+3, 2.9490057e+2, -149153.83, -216608.95, -3123.1191, 0.0021451756, -0.00071638805, -149009.53, -99034.3, 0.0, 9.98238, 9.894538 
7.667574e+3, 3.0482447e+2, -67069.04, -86827.42, 608.45703, 0.0021702459, 0.0009304306, -67050.32, -67050.32, 0.0, 9.9769745, 9.950952 
7.667464e+3, 3.1477976e+2, -71575.59, -87096.24, 881.31396, 0.0021961848, 0.0035381848, -71525.71, -71525.71, 0.0, 9.973109, 9.95264 
7.6799875e+3, 1.26328e+2, -1595229.5, -1709418.9, -1532.5815, 0.0021191114, 0.000039258393, -1595209.0, 106777.664, 0.0, 10.100998, 9.9486 
7.679865e+3, 1.362767e+2, -1509636.9, -1618872.1, -1992.5887, 0.0022153524, 0.00015620614, -1509600.6, 94888.88, 0.0, 10.093728, 9.948124 
7.6797366e+3, 1.462222e+2, -1427762.3, -1535873.1, -5337.4717, 0.0022324235, 0.00039219676, -1427499.4, 79524.12, 0.0, 10.086529, 9.9427595 
7.6796055e+3, 1.5616477e+2, -1341405.1, -1444511.3, -5653.419, 0.0022228835, -0.000027130169, -1341096.0, 68490.37, 0.0, 10.07945, 9.9425 
7.6794714e+3, 1.6610448e+2, -1259240.5, -1361635.6, -7903.873, 0.0021898518, 0.000066080574, -1258634.0, 53543.16, 0.0, 10.07245, 9.936772 
7.6793337e+3, 1.7604142e+2, -1172268.3, -1269734.4, -8132.512, 0.0021280672, 0.00012251586, -1171594.4, 43200.656, 0.0, 10.0655575, 9.936566 
7.679195e+3, 1.8597499e+2, -1090026.9, -1187327.0, -9595.121, 0.0021463307, 0.0002796897, -1089089.6, 28356.527, 0.0, 10.058713, 9.9302435 
7.679054e+3, 1.959052e+2, -1002587.0, -1095021.6, -9761.022, 0.0022294708, 0.000052711162, -1001567.5, 18562.656, 0.0, 10.05194, 9.930039 
7.678913e+3, 2.0583203e+2, -920158.56, -1012745.7, -10502.508, 0.0022210814, 0.0001552301, -918982.2, 3864.9648, 0.0, 10.045185, 9.923341 
7.67877e+3, 2.1575542e+2, -832415.6, -920219.4, -10633.702, 0.0021485654, -0.000029573212, -831146.2, -5548.2363, 0.0, 10.038466, 9.923057 
7.678628e+3, 2.2567523e+2, -749832.56, -838040.1, -10620.858, 0.002120317, 0.00027286552, -748571.75, -20188.027, 0.0, 10.031754, 9.916034 
7.678486e+3, 2.355914e+2, -661799.7, -745235.1, -10750.21, 0.0021296453, 0.00015560162, -660436.8, -29231.582, 0.0, 10.025049, 9.915723 
7.6783454e+3, 2.4550347e+2, -579216.25, -663303.3, -10155.214, 0.0021674489, 0.0001938678, -578007.2, -43940.207, 0.0, 10.018295, 9.908317 
7.678206e+3, 2.5541168e+2, -490842.03, -569831.25, -10312.098, 0.0022258053, -0.00031835755, -489517.97, -52551.746, 0.0, 10.011478, 9.908292 
7.6780677e+3, 2.653165e+2, -408572.78, -488140.22, -9137.565, 0.002175684, 0.000262225, -407536.9, -67637.84, 0.0, 10.004397, 9.900598 
7.677932e+3, 2.7521855e+2, -320207.38, -393752.63, -9348.442, 0.0020254476, 0.0008197583, -319037.7, -76178.5, 0.0, 9.997056, 9.901224 
7.6778e+3, 2.8511605e+2, -237423.31, -310074.1, -6228.2124, 0.0020511004, 0.00034919116, -236893.25, -91029.87, 0.0, 9.989447, 9.894843 
7.6776725e+3, 2.950102e+2, -149121.97, -214942.4, -5876.2236, 0.0022482742, -0.0027355973, -148601.48, -99700.89, 0.0, 9.981614, 9.895978 
7.6775515e+3, 3.0493808e+2, -67543.7, -86971.84, -1169.8107, 0.0022757386, 0.0028758778, -67473.516, -67473.516, 0.0, 9.976575, 9.951038 
7.677437e+3, 3.1490168e+2, -70138.37, -86322.445, -1188.8854, 0.002140423, 0.015658079, -70051.5, -70051.5, 0.0, 9.974008, 9.952726 
7.6900905e+3, 1.264525e+2, -1587978.0, -1706055.8, 864.7088, 0.0021784147, 0.00020270256, -1587971.6, 112794.83, 0.0, 10.10572, 9.947953 
7.6899606e+3, 1.3640028e+2, -1503209.0, -1615927.0, 441.70108, 0.0022108667, -0.000027738048, -1503207.3, 100071.05, 0.0, 10.097924, 9.9475155 
7.689826e+3, 1.463453e+2, -1421894.8, -1533038.1, -2726.8733, 0.0022017874, 0.00023685957, -1421827.9, 83989.266, 0.0, 10.090283, 9.942323 
7.689687e+3, 1.5628763e+2, -1336138.5, -1441984.3, -2980.3743, 0.0021840632, 0.00007898945, -1336054.6, 72327.66, 0.0, 10.082822, 9.942086 
7.689545e+3, 1.6622695e+2, -1254468.4, -1359324.6, -5072.5156, 0.002188097, 0.00016870229, -1254223.5, 56753.266, 0.0, 10.075487, 9.936405 
7.689401e+3, 1.7616342e+2, -1167952.5, -1267646.4, -5252.557, 0.0021867715, 0.000060655402, -1167676.5, 45922.94, 0.0, 10.0683, 9.936224 
7.689255e+3, 1.8609664e+2, -1086123.9, -1185424.6, -6600.0503, 0.0021854418, 0.00019073821, -1085687.1, 30566.732, 0.0, 10.061178, 9.929934 
7.689107e+3, 1.9602658e+2, -999077.25, -1093316.1, -6719.912, 0.0021988307, 0.000025320252, -998600.5, 20339.965, 0.0, 10.0541525, 9.929746 
7.6889586e+3, 2.0595315e+2, -917025.9, -1011274.8, -7380.141, 0.0021846853, 0.00018470405, -916451.44, 5208.4824, 0.0, 10.0471735, 9.923019 
7.6888096e+3, 2.1587627e+2, -829582.5, -918885.94, -7491.886, 0.002148765, 0.0000624776, -828958.3, -4544.8877, 0.0, 10.040257, 9.922757 
7.6886606e+3, 2.2579573e+2, -747371.1, -836847.1, -7456.3047, 0.0021506255, 0.00023159769, -746754.06, -19551.248, 0.0, 10.033281, 9.915784 
7.688512e+3, 2.3571143e+2, -659828.5, -744295.94, -7534.366, 0.002187392, -0.00015305325, -659161.7, -29132.762, 0.0, 10.02626, 9.915474 
7.6883644e+3, 2.456235e+2, -577425.1, -662443.7, -6814.414, 0.0021771083, 0.00020207562, -576882.44, -43991.96, 0.0, 10.019388, 9.908081 
7.688218e+3, 2.555321e+2, -489014.7, -568995.5, -6888.8354, 0.0021302826, 0.00043293225, -488425.66, -52639.332, 0.0, 10.012615, 9.908022 
7.688073e+3, 2.654357e+2, -406902.44, -488008.72, -5852.372, 0.002133795, 0.00019751239, -406482.3, -67751.39, 0.0, 10.005703, 9.899793 
7.68793e+3, 2.7533525e+2, -318111.13, -393408.06, -6215.787, 0.0021621427, -0.0012884391, -317601.47, -75886.36, 0.0, 9.998645, 9.90043 
7.687789e+3, 2.8523365e+2, -238424.16, -311553.1, -4877.228, 0.0021484594, 0.00040077677, -238100.31, -93389.22, 0.0, 9.989062, 9.8938265 
7.6876515e+3, 2.9513144e+2, -156150.39, -219362.55, -5566.703, 0.0021202834, 0.003079728, -155663.9, -107951.31, 0.0, 9.977181, 9.895009 
7.687526e+3, 3.0504817e+2, -73484.13, -91903.86, 2551.9363, 0.0020727338, -0.003328673, -73137.11, -73137.11, 0.0, 9.973445, 9.949136 
7.687413e+3, 3.149867e+2, -66518.586, -86579.84, 1691.3214, 0.002001136, -0.01923934, -66376.99, -66376.99, 0.0, 9.977333, 9.950879 
7.7001965e+3, 1.265833e+2, -1588301.6, -1706848.1, -1221.1724, 0.0022395495, 0.00034233346, -1588289.0, 111195.734, 0.0, 10.1057005, 9.947393 
7.700058e+3, 1.3653027e+2, -1503468.6, -1616640.6, -1645.2117, 0.0022019472, -0.00019630449, -1503444.6, 98559.71, 0.0, 10.097924, 9.946993 
7.699916e+3, 1.4647488e+2, -1422007.8, -1533480.4, -4715.271, 0.0021662188, 0.000112829934, -1421808.8, 82738.31, 0.0, 10.090285, 9.941969 
7.69977e+3, 1.5641707e+2, -1336232.0, -1442391.3, -5013.57, 0.0021470191, 0.00019629586, -1335995.8, 71118.04, 0.0, 10.082825, 9.941755 
7.699621e+3, 1.663561e+2, -1254529.4, -1359662.3, -7038.661, 0.0021912232, 0.00027811044, -1254060.3, 55651.098, 0.0, 10.075487, 9.936121 
7.6994693e+3, 1.7629214e+2, -1168000.0, -1267950.4, -7255.8794, 0.0022534963, -0.0000019457989, -1167476.0, 44862.06, 0.0, 10.0682955, 9.935964 
7.699316e+3, 1.862251e+2, -1086155.1, -1185701.0, -8582.491, 0.0022252349, 0.00010566246, -1085420.6, 29574.316, 0.0, 10.061175, 9.929692 
7.699161e+3, 1.9615485e+2, -999087.7, -1093560.3, -8749.1045, 0.0021481551, 0.000009065861, -998284.25, 19399.047, 0.0, 10.054153, 9.929523 
7.6990056e+3, 2.0608126e+2, -917103.25, -1011611.5, -9412.253, 0.0021335483, 0.00023916333, -916175.0, 4229.5967, 0.0, 10.047157, 9.9227495 
7.6988494e+3, 2.1600415e+2, -829681.6, -919197.4, -9558.343, 0.0021623175, 0.00018610398, -828672.4, -5512.2075, 0.0, 10.04021, 9.922519 
7.698694e+3, 2.2592327e+2, -747424.94, -837082.06, -9597.272, 0.0021973122, 0.0001780118, -746409.1, -20456.238, 0.0, 10.033237, 9.915593 
7.6985383e+3, 2.3583849e+2, -659824.4, -744482.6, -9705.539, 0.0022417402, -0.00055563584, -658725.94, -29942.395, 0.0, 10.026247, 9.9153 
7.698384e+3, 2.457508e+2, -577539.0, -662645.1, -8955.139, 0.0021704067, 0.00025802886, -576606.94, -44964.06, 0.0, 10.01928, 9.9079485 
7.698231e+3, 2.556601e+2, -489443.2, -569404.9, -9058.893, 0.0020078437, 0.0015209697, -488429.75, -53897.71, 0.0, 10.0123205, 9.907846 
7.698079e+3, 2.6556218e+2, -407744.34, -489385.22, -7991.4663, 0.0020851488, 0.00004871752, -406969.44, -69477.95, 0.0, 10.005462, 9.898953 
7.6979285e+3, 2.7545846e+2, -318672.56, -394706.2, -8202.138, 0.0023437045, -0.0044211666, -317797.84, -77290.31, 0.0, 9.99861, 9.899526 
7.6977783e+3, 2.8535816e+2, -238819.48, -314013.4, -8396.443, 0.0022779843, 0.00069038407, -237893.31, -94402.55, 0.0, 9.989609, 9.89184 
7.697628e+3, 2.95261e+2, -155067.22, -221186.56, -8779.199, 0.0019431645, 0.01210558, -153921.39, -107478.26, 0.0, 9.978756, 9.892936 
7.697499e+3, 3.0515927e+2, -74396.2, -95952.46, 3847.4644, 0.0017242916, -0.013821209, -73730.07, -73730.07, 0.0, 9.974411, 9.945965 
7.697391e+3, 3.151111e+2, -62416.74, -74191.58, 770.56775, 0.0028766568, -0.00950269, -62366.523, -62366.523, 0.0, 9.975705, 9.960125 
7.710304e+3, 1.2672384e+2, -1581190.6, -1703231.1, 1365.7716, 0.0021952053, 0.0000800696, -1581175.4, 116932.055, 0.0, 10.110168, 9.946996 
7.710158e+3, 1.3667081e+2, -1497140.1, -1613442.9, 1035.1632, 0.0021911585, 0.00005413236, -1497130.9, 103496.125, 0.0, 10.101903, 9.946609 
7.710008e+3, 1.4661501e+2, -1416319.3, -1530618.4, -1796.2666, 0.0021922097, 0.00029652216, -1416291.0, 86882.7, 0.0, 10.093858, 9.941599 
7.709854e+3, 1.5655653e+2, -1331068.9, -1439782.6, -2032.3759, 0.0022034019, 0.000014988809, -1331030.9, 74716.04, 0.0, 10.086056, 9.941419 
7.7096975e+3, 1.6649528e+2, -1249784.5, -1357220.4, -3857.5928, 0.0022146779, 0.00011435182, -1249646.1, 58701.0, 0.0, 10.078429, 9.935839 
7.7095383e+3, 1.7643121e+2, -1163633.8, -1265699.0, -4012.879, 0.0022066163, 0.00006840009, -1163476.3, 47498.688, 0.0, 10.070997, 9.9356985 
7.7093786e+3, 1.8636389e+2, -1082177.9, -1183733.1, -5202.1777, 0.002190922, 0.00017345647, -1081912.1, 31722.588, 0.0, 10.063666, 9.929364 
7.709217e+3, 1.9629322e+2, -995378.0, -1091705.8, -5339.969, 0.0021729134, -0.000060164624, -995082.9, 21244.447, 0.0, 10.056463, 9.929228 
7.7090544e+3, 2.0621935e+2, -913741.8, -1009970.3, -5933.321, 0.0021807312, 0.00019866094, -913377.4, 5673.8555, 0.0, 10.049259, 9.922431 
7.708891e+3, 2.1614203e+2, -826660.75, -917708.3, -6040.685, 0.0022145864, 0.0002903773, -826261.7, -4452.9663, 0.0, 10.042084, 9.922229 
7.7087283e+3, 2.2606072e+2, -744691.8, -835741.3, -6039.824, 0.0021838208, 0.000099395955, -744292.9, -19687.291, 0.0, 10.034927, 9.915308 
7.7085656e+3, 2.3597533e+2, -657317.5, -743237.94, -6132.1147, 0.0021153227, -0.0010394737, -656882.06, -29439.686, 0.0, 10.027783, 9.915039 
7.708404e+3, 2.4588796e+2, -575643.75, -661605.2, -5450.7153, 0.002163956, 0.00042291288, -575299.5, -45001.06, 0.0, 10.020369, 9.9077835 
7.708243e+3, 2.557982e+2, -488514.78, -568770.06, -5482.4087, 0.0022764616, 0.003060386, -488141.97, -54963.63, 0.0, 10.012738, 9.907756 
7.708084e+3, 2.6569918e+2, -405949.44, -486975.1, -3600.2605, 0.0021264958, -0.0004108389, -405789.75, -69641.36, 0.0, 10.005888, 9.900007 
7.707927e+3, 2.755929e+2, -316198.8, -392102.7, -3020.2388, 0.0018014153, -0.009332955, -316078.8, -76888.875, 0.0, 9.999553, 9.900428 
7.707769e+3, 2.8549746e+2, -235385.88, -312550.75, -3460.4866, 0.0022237203, 0.0016238277, -235231.0, -93105.63, 0.0, 9.991848, 9.891319 
7.7076113e+3, 2.9541102e+2, -149166.22, -219498.1, -3008.993, 0.0032019578, 0.027004411, -149037.72, -104065.016, 0.0, 9.983079, 9.891544 
7.707474e+3, 3.0526897e+2, -90406.484, -133413.25, 6142.689, 0.0007445919, -0.031320777, -89546.32, -89546.32, 0.0, 9.976229, 9.919823 
7.7073634e+3, 3.1525394e+2, -63372.88, -63895.8, -8020.153, 0.0032949944, 0.04553647, -55609.926, -55609.926, 0.0, 9.970434, 9.969858 
7.7204144e+3, 1.2687123e+2, -1581292.0, -1703610.1, -796.42847, 0.0021545144, -0.00010044026, -1581286.8, 115376.09, 0.0, 10.110134, 9.946679 
7.72026e+3, 1.3681822e+2, -1497243.6, -1613805.4, -1194.6174, 0.0021920996, 0.00028150753, -1497231.4, 101950.92, 0.0, 10.101857, 9.94631 
7.7201015e+3, 1.4676212e+2, -1416405.0, -1530927.0, -3884.5918, 0.002220989, 0.000461246, -1416273.4, 85458.805, 0.0, 10.093805, 9.941341 
7.71994e+3, 1.567031e+2, -1331125.3, -1440040.9, -4138.3555, 0.002258318, -0.0001614706, -1330968.3, 73342.23, 0.0, 10.086005, 9.941192 
7.719776e+3, 1.6664168e+2, -1249797.6, -1357418.5, -5861.3105, 0.0022316857, -0.000028756745, -1249479.4, 57432.93, 0.0, 10.078393, 9.935647 
7.71961e+3, 1.7657763e+2, -1163603.3, -1265855.6, -6067.509, 0.0021482345, 0.0001627888, -1163244.5, 46295.65, 0.0, 10.070979, 9.935524 
7.7194417e+3, 1.8651007e+2, -1082208.0, -1184024.4, -7212.8086, 0.0021518716, 0.0002596662, -1081699.5, 30502.484, 0.0, 10.063658, 9.929104 
7.719273e+3, 1.9643901e+2, -995376.1, -1091938.4, -7394.1855, 0.002210298, -0.00012649938, -994813.2, 20085.213, 0.0, 10.056457, 9.929005 
7.7191037e+3, 2.0636494e+2, -913754.0, -1010259.1, -8028.758, 0.0022393116, 0.00016290353, -913090.6, 4533.623, 0.0, 10.049265, 9.922169 
7.718933e+3, 2.162875e+2, -826625.1, -917944.44, -8192.508, 0.0022613516, 0.00039825132, -825896.0, -5512.9204, 0.0, 10.042108, 9.921992 
7.7187634e+3, 2.262058e+2, -744720.06, -836026.75, -8260.37, 0.002151625, 0.000027899045, -743978.75, -20795.115, 0.0, 10.034916, 9.915061 
7.718593e+3, 2.3611984e+2, -657414.4, -743519.56, -8434.107, 0.0019558116, -0.0015211009, -656596.0, -30569.848, 0.0, 10.027709, 9.914827 
7.7184236e+3, 2.4603291e+2, -575547.6, -661666.56, -7990.468, 0.0021667765, 0.00064973894, -574812.5, -45934.574, 0.0, 10.020361, 9.907681 
7.718256e+3, 2.5594422e+2, -488077.4, -568469.8, -8038.136, 0.0026337078, 0.0047707376, -487281.6, -55534.676, 0.0, 10.0128765, 9.907821 
7.71809e+3, 2.6584432e+2, -404993.4, -484444.1, -6035.2886, 0.0021644766, -0.0010509191, -404537.56, -69811.75, 0.0, 10.005533, 9.901789 
7.717926e+3, 2.7573565e+2, -316696.44, -390431.3, -5897.455, 0.0010415072, -0.0151264565, -316227.75, -78436.84, 0.0, 9.998292, 9.902111 
7.717761e+3, 2.8564706e+2, -235171.44, -312181.63, -7084.721, 0.0021566176, 0.0031506629, -234525.1, -93865.81, 0.0, 9.991747, 9.891569 
7.7175957e+3, 2.9557458e+2, -146887.86, -220583.22, -6288.9517, 0.0049714465, 0.045616865, -146355.03, -102985.63, 0.0, 9.985421, 9.889643 
7.717449e+3, 3.0537823e+2, -116875.79, -189187.94, 5172.2173, -0.000602458, -0.054880753, -116507.71, -116507.71, 0.0, 9.976581, 9.882492 
7.7173305e+3, 3.1530675e+2, -31783.424, 12085.6045, -5373.1284, -0.00033325734, -0.0032122235, 12734.124, 12734.124, 0.0, 9.965788, 10.023881 
7.7305263e+3, 1.2702994e+2, -1574606.6, -1700154.4, 2009.9531, 0.0021833372, 0.00021350104, -1574574.4, 120533.0, 0.0, 10.114286, 9.946298 
7.7303636e+3, 1.3697602e+2, -1491315.3, -1610704.8, 1671.7927, 0.0022260156, -0.000078730474, -1491291.9, 106343.984, 0.0, 10.105513, 9.945986 
7.7301973e+3, 1.4691977e+2, -1410934.4, -1527868.1, -689.9812, 0.0022215047, 0.00019456471, -1410930.3, 89256.77, 0.0, 10.097082, 9.941198 
7.7300274e+3, 1.5686098e+2, -1326111.8, -1437219.8, -833.9317, 0.002206938, 0.00003839251, -1326105.5, 76657.625, 0.0, 10.088994, 9.941062 
7.729855e+3, 1.6679935e+2, -1245207.5, -1354948.3, -2288.8044, 0.0022168625, 0.00013128774, -1245159.8, 60207.29, 0.0, 10.081176, 9.935413 
7.7296823e+3, 1.7673483e+2, -1159225.8, -1263475.1, -2436.4763, 0.0022085486, 0.00003964438, -1159168.9, 48830.48, 0.0, 10.073621, 9.935319 
7.729507e+3, 1.8666705e+2, -1078116.3, -1181910.6, -3418.4666, 0.0022018685, 0.00015018389, -1078003.9, 32659.645, 0.0, 10.066174, 9.9288025 
7.7293307e+3, 1.9659585e+2, -991444.8, -1089898.4, -3551.989, 0.0022119454, -0.000055192402, -991316.8, 22044.53, 0.0, 10.058868, 9.92872 
7.7291536e+3, 2.0652133e+2, -910104.0, -1008559.1, -4127.31, 0.002212144, 0.00012992256, -909931.3, 6160.2524, 0.0, 10.051585, 9.921724 
7.7289766e+3, 2.1644323e+2, -823095.5, -916295.5, -4303.716, 0.0022108096, 0.00010755282, -822897.2, -4040.3218, 0.0, 10.044348, 9.921568 
7.728799e+3, 2.263614e+2, -741607.4, -834759.2, -4458.827, 0.0021698887, 0.00015601686, -741394.44, -19735.605, 0.0, 10.03696, 9.914501 
7.7286214e+3, 2.362755e+2, -654709.44, -742423.1, -4686.822, 0.002097992, -0.0006067894, -654459.7, -29959.268, 0.0, 10.029472, 9.914311 
7.7284455e+3, 2.4618708e+2, -572881.6, -660494.44, -4321.825, 0.00220011, 0.00025063948, -572668.94, -45301.918, 0.0, 10.022059, 9.907258 
7.7282697e+3, 2.5609592e+2, -485335.78, -567282.1, -4508.788, 0.0024185197, 0.0018672374, -485088.44, -54828.32, 0.0, 10.014636, 9.90739 
7.728095e+3, 2.6599845e+2, -404974.63, -484947.94, -3665.1038, 0.0021173116, -0.00028643868, -404807.0, -71591.43, 0.0, 10.005612, 9.901106 
7.727923e+3, 2.7589515e+2, -320868.0, -392760.5, -4181.66, 0.0014330449, -0.0068994323, -320625.6, -84397.664, 0.0, 9.9954815, 9.9016905 
7.7277535e+3, 2.8579944e+2, -231154.11, -307666.7, -2203.7625, 0.0022370555, 0.0014947827, -231090.69, -91925.25, 0.0, 9.993337, 9.893554 
7.727587e+3, 2.9571155e+2, -129668.22, -211735.08, -1184.411, 0.00420264, 0.022543678, -129651.13, -87625.05, 0.0, 9.996796, 9.889735 
7.727427e+3, 3.0554485e+2, -127455.53, -213531.94, 5552.7476, -0.000021676566, -0.029972373, -127098.805, -127098.805, 0.0, 9.977264, 9.865534 
7.727287e+3, 3.1544873e+2, -33647.54, 69214.09, 3413.3313, 0.0070431223, 0.009742844, 69327.24, 69327.24, 0.0, 9.939208, 10.075586 
7.7406406e+3, 1.2719585e+2, -1574798.3, -1700473.5, -310.9736, 0.0022154432, 0.00045316588, -1574797.4, 118684.04, 0.0, 10.114121, 9.946069 
7.740469e+3, 1.3714126e+2, -1491448.8, -1610931.5, -613.6842, 0.002260751, -0.00038943457, -1491445.6, 104570.73, 0.0, 10.105354, 9.945808 
7.740294e+3, 1.4708503e+2, -1410898.1, -1527835.5, -2759.7197, 0.0022156613, -0.000004719194, -1410833.0, 87734.51, 0.0, 10.096962, 9.941169 
7.740117e+3, 1.5702653e+2, -1325983.5, -1437123.4, -2972.0789, 0.0021551466, 0.00025330696, -1325904.0, 75236.63, 0.0, 10.088926, 9.941049 
7.7399373e+3, 1.669648e+2, -1245152.9, -1355028.0, -4283.2427, 0.0022038438, 0.00029101546, -1244986.1, 58759.53, 0.0, 10.081131, 9.935286 
7.739756e+3, 1.7689992e+2, -1159138.5, -1263506.3, -4473.9883, 0.0022754741, -0.00008994626, -1158947.1, 47434.297, 0.0, 10.073582, 9.93522 
7.739573e+3, 1.8683203e+2, -1078109.3, -1182136.4, -5409.7876, 0.002253551, 0.000056126588, -1077828.6, 31218.023, 0.0, 10.0661545, 9.928575 
7.7393895e+3, 1.9676074e+2, -991391.2, -1090086.4, -5605.8467, 0.0022002298, 0.00005725229, -991073.8, 20671.291, 0.0, 10.058873, 9.928507 
7.7392054e+3, 2.0668583e+2, -910175.4, -1009046.75, -6206.5225, 0.0021714123, 0.0001070572, -909787.3, 4692.1025, 0.0, 10.051614, 9.921311 
7.7390206e+3, 2.1660702e+2, -823119.6, -916747.06, -6440.0737, 0.002145779, -0.00025991572, -822678.75, -5427.1006, 0.0, 10.044402, 9.921166 
7.738836e+3, 2.2652516e+2, -741681.25, -835452.7, -6734.723, 0.0022019153, 0.00036448654, -741200.06, -21146.3, 0.0, 10.037071, 9.913917 
7.7386516e+3, 2.3643957e+2, -654630.7, -742988.5, -7001.4883, 0.0023008445, 0.0006836266, -654079.3, -31186.938, 0.0, 10.029662, 9.913772 
7.7384675e+3, 2.4634907e+2, -572858.94, -661056.7, -6736.6313, 0.0022217287, -0.00040364978, -572347.4, -46568.05, 0.0, 10.022198, 9.906748 
7.738284e+3, 2.5625443e+2, -485565.97, -568077.5, -7128.859, 0.0020390118, -0.0024569444, -484954.56, -56247.973, 0.0, 10.014648, 9.906793 
7.738101e+3, 2.6616064e+2, -404750.72, -486527.63, -7246.508, 0.0020709047, 0.0013122689, -404113.56, -72487.84, 0.0, 10.006325, 9.899638 
7.737919e+3, 2.7606544e+2, -318562.6, -392841.38, -7306.2876, 0.0022000587, 0.0064872038, -317850.75, -83291.82, 0.0, 9.997399, 9.900625 
7.737747e+3, 2.8595653e+2, -229607.27, -304080.94, -1481.5018, 0.0022899548, -0.002547624, -229577.8, -91952.43, 0.0, 9.99321, 9.896016 
7.7375823e+3, 2.9584143e+2, -135874.3, -213867.14, -2476.4004, 0.0024648348, -0.018200077, -135795.75, -95043.6, 0.0, 9.992227, 9.890586 
7.737405e+3, 3.057461e+2, -135354.38, -226865.88, -7863.3125, 0.0016669063, 0.02279041, -134683.63, -134683.63, 0.0, 9.975387, 9.857366 
7.7372205e+3, 3.1561926e+2, -38216.348, 42887.93, -5800.2773, -0.00042096918, 0.03442709, 43300.645, 43300.645, 0.0, 9.945968, 10.0536 
7.750757e+3, 1.273727e+2, -1568508.4, -1696615.9, 2668.7698, 0.002213522, 0.000014537235, -1568452.8, 123295.57, 0.0, 10.11772, 9.946172 
7.750576e+3, 1.3731888e+2, -1485941.3, -1607529.4, 2539.6907, 0.0022412045, 0.000024167384, -1485888.3, 108387.48, 0.0, 10.10848, 9.9458885 
7.7503926e+3, 1.4726251e+2, -1405994.4, -1524952.5, 849.8146, 0.0022245215, 0.00027163106, -1405988.4, 90839.64, 0.0, 10.09981, 9.941083 
7.750207e+3, 1.5720354e+2, -1321292.0, -1434308.3, 723.771, 0.00221651, 0.000007265229, -1321287.4, 78118.66, 0.0, 10.091622, 9.94101 
7.7500194e+3, 1.6714175e+2, -1240696.4, -1352417.0, -280.19287, 0.0022365092, 0.000056943056, -1240695.6, 61315.76, 0.0, 10.083724, 9.935181 
7.7498305e+3, 1.7707698e+2, -1154769.8, -1260938.0, -380.8246, 0.0022376855, -0.00006129246, -1154768.4, 49877.766, 0.0, 10.076122, 9.935125 
7.7496403e+3, 1.8700893e+2, -1073961.8, -1179985.8, -1122.5421, 0.0022287501, 0.00015721402, -1073949.9, 33363.22, 0.0, 10.068697, 9.9282255 
7.7494496e+3, 1.9693728e+2, -987181.94, -1087894.8, -1290.7932, 0.0022247625, 0.00012909068, -987165.4, 22849.758, 0.0, 10.061457, 9.928175 
7.749258e+3, 2.0686182e+2, -906104.44, -1007176.2, -1822.4226, 0.0022079805, 0.000054635082, -906071.6, 6682.992, 0.0, 10.054222, 9.920772 
7.7490664e+3, 2.1678236e+2, -819019.44, -914866.56, -2046.3824, 0.0021761735, -0.00046257707, -818975.75, -3442.551, 0.0, 10.047036, 9.920633 
7.7488744e+3, 2.2669995e+2, -737708.8, -833978.06, -2395.99, 0.0022210428, 0.00033110482, -737649.2, -19308.559, 0.0, 10.039773, 9.913099 
7.748682e+3, 2.366138e+2, -650572.5, -741498.7, -2716.18, 0.0023109822, 0.000976685, -650491.44, -29306.625, 0.0, 10.032436, 9.912944 
7.7484906e+3, 2.4652205e+2, -569329.56, -660168.2, -2728.6426, 0.0021686582, -0.00045649405, -569247.7, -45163.66, 0.0, 10.024766, 9.905648 
7.7483e+3, 2.5642577e+2, -482698.22, -567685.8, -3254.9255, 0.0018940708, -0.003186337, -482573.72, -55546.25, 0.0, 10.016854, 9.90557 
7.7481097e+3, 2.6633105e+2, -400191.34, -486379.34, -3408.5513, 0.0022281276, 0.0015781388, -400056.75, -70101.19, 0.0, 10.0101385, 9.897493 
7.747921e+3, 2.762352e+2, -309979.16, -390931.44, -3874.01, 0.0028853703, 0.008629821, -309794.2, -76899.41, 0.0, 10.004, 9.898303 
7.7477396e+3, 2.8612044e+2, -231999.58, -309662.13, -634.6801, 0.0020304285, -0.0035909135, -231994.39, -95975.29, 0.0, 9.99334, 9.892013 
7.7475643e+3, 2.9599676e+2, -155716.72, -225326.67, -4439.619, 0.00036318824, -0.025142528, -155434.7, -116203.586, 0.0, 9.979475, 9.889035 
7.74738e+3, 3.0593058e+2, -117430.555, -184913.16, -1173.0591, 0.004192828, 0.033991728, -117410.17, -117410.17, 0.0, 9.973099, 9.88549 
7.747184e+3, 3.15735e+2, -13909.5, 33224.727, 15412.456, 0.0013140308, -0.07221354, 37817.03, 37817.03, 0.0, 9.971485, 10.033037 
7.7608746e+3, 1.2755744e+2, -1568414.8, -1696264.0, 306.9364, 0.002209899, -0.0002613736, -1568414.0, 121523.78, 0.0, 10.11747, 9.946376 
7.7606845e+3, 1.3750437e+2, -1485750.1, -1607133.3, 78.499626, 0.0022246032, 0.0003922765, -1485750.1, 106707.83, 0.0, 10.108296, 9.946092 
7.760492e+3, 1.4744805e+2, -1405911.0, -1524753.0, -1279.8223, 0.002224843, 0.0005029479, -1405897.3, 89112.58, 0.0, 10.099638, 9.941172 
7.760298e+3, 1.5738876e+2, -1321191.1, -1434060.9, -1407.5935, 0.0022781368, -0.00022942503, -1321173.5, 76417.0, 0.0, 10.091444, 9.941132 
7.760103e+3, 1.673271e+2, -1240627.8, -1352312.6, -2228.4956, 0.0022671458, -0.00013495293, -1240583.3, 59611.492, 0.0, 10.083593, 9.935196 
7.7599066e+3, 1.7726256e+2, -1154602.0, -1260778.1, -2385.2678, 0.0021879354, 0.000007653592, -1154548.5, 48278.87, 0.0, 10.076054, 9.935146 
7.759709e+3, 1.8719442e+2, -1073973.3, -1180265.3, -3041.6526, 0.0021974368, 0.00028246117, -1073886.4, 31608.725, 0.0, 10.068676, 9.927952 
7.7595115e+3, 1.9712245e+2, -987130.7, -1088127.6, -3257.7734, 0.002252179, 0.00018851548, -987025.75, 21174.635, 0.0, 10.061468, 9.927916 
7.7593124e+3, 2.0704654e+2, -906237.56, -1007784.3, -3814.2805, 0.0022540095, 0.000013808772, -906094.5, 4849.741, 0.0, 10.05424, 9.920273 
7.7591133e+3, 2.1696651e+2, -819159.56, -915477.3, -4085.5173, 0.0022195175, -0.0006008988, -818986.56, -5258.2026, 0.0, 10.047048, 9.920137 
7.758914e+3, 2.2688352e+2, -738089.2, -835093.75, -4525.4214, 0.002229438, 0.00027824607, -737878.56, -21336.91, 0.0, 10.039792, 9.912275 
7.7587146e+3, 2.3679665e+2, -650950.44, -742646.06, -4880.195, 0.0022643998, 0.0010681076, -650691.44, -31298.48, 0.0, 10.032469, 9.91209 
7.7585155e+3, 2.4670385e+2, -569814.75, -661783.56, -5078.644, 0.0021006167, -0.0003512223, -569535.2, -47232.793, 0.0, 10.024897, 9.904436 
7.7583164e+3, 2.5660637e+2, -483124.94, -569486.75, -5444.3354, 0.0018226615, -0.003057261, -482783.1, -57525.547, 0.0, 10.01712, 9.904166 
7.7581203e+3, 2.6650947e+2, -402127.56, -490117.8, -4926.0264, 0.0024419676, 0.0014467186, -401852.63, -73645.62, 0.0, 10.009937, 9.895059 
7.7579254e+3, 2.764105e+2, -313493.9, -396037.94, -5454.3125, 0.0035265603, 0.007726732, -313135.06, -81958.57, 0.0, 10.0029745, 9.895343 
7.757733e+3, 2.862918e+2, -237423.1, -319302.53, -3728.8455, 0.001605608, -0.0035330362, -237253.63, -102913.164, 0.0, 9.992454, 9.885891 
7.757542e+3, 2.9616478e+2, -155948.78, -226540.67, -5804.1406, -0.0019633549, -0.021880336, -155474.75, -117888.11, 0.0, 9.979556, 9.887928 
7.757356e+3, 3.061167e+2, -84009.97, -116853.76, -2048.778, 0.0075214067, 0.028989159, -83882.66, -83882.66, 0.0, 9.973541, 9.930625 
7.757157e+3, 3.1603435e+2, -71268.77, -84898.305, 2721.2954, 0.0037604515, 0.014203242, -70745.52, -70745.52, 0.0, 9.970948, 9.95283 
7.770993e+3, 1.277551e+2, -1563272.6, -1693019.0, 3537.5486, 0.0022406236, 0.00018989884, -1563176.3, 124824.3, 0.0, 10.120321, 9.946434 
7.770794e+3, 1.3770133e+2, -1481098.0, -1604033.9, 3410.955, 0.00223228, -0.0000923825, -1481003.4, 109524.15, 0.0, 10.110789, 9.946258 
7.770593e+3, 1.4764541e+2, -1401493.8, -1521597.9, 2622.9023, 0.002216325, 0.00016274943, -1401436.5, 91639.06, 0.0, 10.101919, 9.941494 
7.770391e+3, 1.575869e+2, -1316921.3, -1430998.8, 2677.5073, 0.002265191, -0.000008280215, -1316858.4, 78790.445, 0.0, 10.093645, 9.941443 
7.770187e+3, 1.675254e+2, -1236560.0, -1349727.1, 2280.5972, 0.0022838337, 0.00008278211, -1236514.1, 61737.555, 0.0, 10.085852, 9.935188 
7.769984e+3, 1.7746066e+2, -1150292.8, -1258062.9, 2212.279, 0.002235427, 0.00000042125777, -1150247.4, 50638.586, 0.0, 10.078472, 9.935147 
7.7697796e+3, 1.8739228e+2, -1069676.8, -1177906.1, 1785.2269, 0.0022218546, 0.00014470854, -1069647.4, 33908.81, 0.0, 10.071254, 9.927656 
7.769574e+3, 1.9731994e+2, -982554.4, -1085624.6, 1623.4725, 0.002238109, -0.000016865682, -982528.8, 23736.123, 0.0, 10.064234, 9.927627 
7.769368e+3, 2.0724374e+2, -901714.4, -1005707.25, 1122.7618, 0.0022585862, 0.000033278, -901702.25, 7309.2764, 0.0, 10.057152, 9.919646 
7.769162e+3, 2.1716335e+2, -814480.44, -913306.0, 871.0636, 0.0022702597, -0.00023774646, -814472.75, -2673.5686, 0.0, 10.050059, 9.919535 
7.768956e+3, 2.2707936e+2, -733473.6, -833220.44, 423.5868, 0.0022171768, 0.00026278128, -733471.8, -18849.465, 0.0, 10.04288, 9.911452 
7.7687484e+3, 2.3699111e+2, -646254.44, -740722.6, 122.36939, 0.0021444403, 0.0003471639, -646254.3, -28767.063, 0.0, 10.035609, 9.911285 
7.768542e+3, 2.4689813e+2, -564972.94, -659881.5, -82.97, 0.0022013262, -0.00025232942, -564972.9, -44574.625, 0.0, 10.028171, 9.903554 
7.768336e+3, 2.5680104e+2, -478063.84, -567421.2, -280.7839, 0.0022824032, -0.0013736318, -478062.97, -54713.29, 0.0, 10.020521, 9.903337 
7.768131e+3, 2.6670176e+2, -398423.06, -488299.72, 685.2302, 0.0022200902, 0.0009489685, -398417.84, -72095.234, 0.0, 10.012246, 9.894585 
7.767927e+3, 2.7659893e+2, -312037.38, -394446.53, 883.5683, 0.002167832, 0.0030404825, -312027.9, -82697.86, 0.0, 10.003392, 9.895606 
7.767725e+3, 2.8648818e+2, -233867.53, -311167.88, 4366.43, 0.0020698742, -0.0020234496, -233621.67, -101206.04, 0.0, 9.991848, 9.8907585 
7.767524e+3, 2.9637563e+2, -154251.31, -221789.66, 7438.128, 0.0017393037, -0.008059807, -153441.83, -117922.59, 0.0, 9.978806, 9.890428 
7.767327e+3, 3.0629703e+2, -91492.5, -134680.84, 1739.5502, 0.0034572938, 0.013073312, -91422.55, -91422.55, 0.0, 9.974527, 9.918 
7.7671254e+3, 3.162057e+2, -57001.316, -65175.664, -14155.732, -0.0023424937, -0.00012049129, -46354.523, -46354.523, 0.0, 9.9751835, 9.965033 
7.7811134e+3, 1.2796085e+2, -1563255.0, -1692562.1, 1022.8274, 0.0022635127, 0.00052701443, -1563247.0, 122737.31, 0.0, 10.119932, 9.94676 
7.780905e+3, 1.3790682e+2, -1481041.4, -1603460.9, 1000.34564, 0.0022614896, -0.0004880121, -1481033.3, 107480.49, 0.0, 10.11038, 9.946662 
7.780695e+3, 1.478515e+2, -1401261.9, -1520841.5, 624.8754, 0.0022105712, -0.00007040145, -1401258.5, 89797.305, 0.0, 10.101605, 9.941978 
7.7804846e+3, 1.5779386e+2, -1316508.1, -1430168.6, 599.2471, 0.0022402846, 0.00023189414, -1316504.9, 77115.78, 0.0, 10.093459, 9.941915 
7.7802736e+3, 1.6773263e+2, -1236383.3, -1349422.8, 450.91864, 0.002289414, 0.00030079496, -1236381.4, 59839.36, 0.0, 10.085716, 9.935318 
7.7800626e+3, 1.7766784e+2, -1150090.9, -1257738.1, 330.39825, 0.00228125, -0.000010870091, -1150089.8, 48765.734, 0.0, 10.078349, 9.9352865 
7.7798504e+3, 1.8759933e+2, -1069725.1, -1178119.3, -1.9657751, 0.002247161, 0.00001861045, -1069725.1, 31801.725, 0.0, 10.071162, 9.927447 
7.779638e+3, 1.9752675e+2, -982552.06, -1085803.3, -222.36232, 0.0022177838, -0.00020174077, -982551.56, 21686.578, 0.0, 10.06417, 9.927427 
7.7794254e+3, 2.0745035e+2, -901934.0, -1006457.1, -799.7701, 0.0022521163, 0.00009180777, -901927.9, 5058.9175, 0.0, 10.057147, 9.919057 
7.779212e+3, 2.1736968e+2, -814578.44, -913968.9, -1106.5504, 0.0023090162, 0.0001835348, -814566.1, -4788.7007, 0.0, 10.050122, 9.918967 
7.7789986e+3, 2.2728465e+2, -733780.06, -834236.44, -1704.2299, 0.0022020095, 0.00024792997, -733751.2, -21140.695, 0.0, 10.042909, 9.910676 
7.778784e+3, 2.3719496e+2, -646631.5, -741714.06, -2060.272, 0.0020186636, -0.0005060962, -646586.94, -31097.553, 0.0, 10.035563, 9.910564 
7.77857e+3, 2.4710211e+2, -565500.9, -660989.1, -2512.2856, 0.002351209, -0.00006796933, -565434.8, -47035.707, 0.0, 10.028031, 9.902803 
7.7783567e+3, 2.5700587e+2, -478589.94, -568309.5, -2814.7168, 0.0028511756, 0.00077327865, -478501.72, -57159.445, 0.0, 10.020285, 9.902778 
7.7781427e+3, 2.6690415e+2, -398064.63, -487702.97, -2422.707, 0.0018029204, 0.00011985225, -397999.2, -73659.89, 0.0, 10.012123, 9.894935 
7.777929e+3, 2.7679732e+2, -310239.3, -391435.9, -2741.2832, 0.00016030659, -0.0033314694, -310146.88, -82760.58, 0.0, 10.003484, 9.897443 
7.777718e+3, 2.8669992e+2, -226189.52, -297348.9, -2172.3206, 0.003044431, 0.00075544283, -226123.27, -95782.79, 0.0, 9.992409, 9.899537 
7.777508e+3, 2.9660958e+2, -150725.36, -217952.27, -182.24257, 0.0077974685, 0.011821996, -150724.86, -117500.28, 0.0, 9.980036, 9.892438 
7.777295e+3, 3.0647385e+2, -116834.3, -187885.58, 1302.3898, -0.004514736, -0.014134344, -116810.43, -116810.43, 0.0, 9.974864, 9.882509 
7.777102e+3, 3.163621e+2, -7568.379, 40709.71, -5929.5596, -0.0010334275, -0.016619619, 41427.316, 41427.316, 0.0, 9.973829, 10.038115 
7.791234e+3, 1.2817849e+2, -1558954.1, -1688705.3, 4346.2603, 0.0022343316, 0.000026561229, -1558808.6, 125042.734, 0.0, 10.121731, 9.947686 
7.791016e+3, 1.3812615e+2, -1477377.8, -1600050.3, 4629.795, 0.0023458796, -0.000024422126, -1477203.3, 109161.0, 0.0, 10.111835, 9.947494 
7.7907974e+3, 1.4807129e+2, -1397987.8, -1518090.5, 5045.207, 0.0022639816, 0.00022449908, -1397776.3, 91125.62, 0.0, 10.103062, 9.942417 
7.7905786e+3, 1.5801369e+2, -1312878.8, -1427191.5, 5153.517, 0.0022232644, 0.0000144306805, -1312646.9, 78819.45, 0.0, 10.09513, 9.942387 
7.7903605e+3, 1.6795276e+2, -1232672.0, -1346756.9, 5454.424, 0.0022717128, 0.00005087461, -1232411.9, 61651.652, 0.0, 10.0876255, 9.935483 
7.7901417e+3, 1.7788826e+2, -1145932.3, -1254824.0, 5453.471, 0.0022788928, -0.00009378857, -1145659.8, 51035.652, 0.0, 10.080546, 9.935466 
7.789923e+3, 1.8781988e+2, -1065413.8, -1175627.8, 5393.1074, 0.0022722678, 0.00014680214, -1065150.5, 34215.03, 0.0, 10.073699, 9.927196 
7.789704e+3, 1.9774717e+2, -977705.44, -1083059.3, 5238.257, 0.0022698757, 0.000104244114, -977445.6, 24632.32, 0.0, 10.067071, 9.927159 
7.789484e+3, 2.0766996e+2, -896927.7, -1004188.3, 4716.5015, 0.0022568007, 0.0000012858251, -896720.7, 8114.0337, 0.0, 10.060405, 9.918315 
7.7892643e+3, 2.1758814e+2, -809043.7, -911430.7, 4395.788, 0.0022484579, -0.00040989858, -808855.3, -1218.7394, 0.0, 10.05373, 9.918237 
7.789043e+3, 2.2750284e+2, -728314.2, -832117.75, 3603.774, 0.002232747, 0.00041965596, -728189.2, -17716.857, 0.0, 10.046633, 9.909625 
7.788822e+3, 2.3741294e+2, -641213.56, -739597.44, 3208.0432, 0.0021887838, 0.0007359896, -641109.06, -27755.934, 0.0, 10.039252, 9.909551 
7.7886003e+3, 2.4731758e+2, -560416.0, -659153.75, 2497.7432, 0.0023289851, -0.00066763407, -560352.9, -44065.34, 0.0, 10.031539, 9.9017105 
7.7883786e+3, 2.5721812e+2, -473986.97, -566704.4, 2109.4019, 0.0025473952, -0.0024213882, -473939.0, -54676.9, 0.0, 10.023472, 9.901715 
7.788156e+3, 2.671194e+2, -393737.34, -486117.28, 1952.6698, 0.0019162857, 0.0018885427, -393696.06, -71466.64, 0.0, 10.015063, 9.894002 
7.7879345e+3, 2.7701747e+2, -306912.9, -391371.0, 967.4067, 0.0009416084, 0.005662444, -306901.8, -81673.17, 0.0, 10.006191, 9.895664 
7.787712e+3, 2.869045e+2, -223690.53, -302609.9, -3237.7834, 0.0028385613, -0.0042475094, -223557.92, -95223.164, 0.0, 9.996633, 9.89373 
7.7874905e+3, 2.9679203e+2, -143721.69, -219700.58, -6777.096, 0.0059716743, -0.01387208, -143121.92, -111686.19, 0.0, 9.986737, 9.888094 
7.787271e+3, 3.067021e+2, -113528.05, -184022.05, 3027.6467, -0.0029285997, 0.018203652, -113398.26, -113398.26, 0.0, 9.97597, 9.8842 
7.7870804e+3, 3.165916e+2, -13674.1455, 51474.965, 9593.397, 0.011997414, 0.013548687, 52858.25, 52858.25, 0.0, 9.963757, 10.049649 
7.801356e+3, 1.28405e+2, -1558543.4, -1687158.5, 1883.6593, 0.0022108876, -0.0002752155, -1558515.8, 123116.02, 0.0, 10.121153, 9.948751 
7.801128e+3, 1.3835429e+2, -1476859.5, -1598528.8, 2051.9631, 0.0023953472, 0.0003878539, -1476824.9, 107303.64, 0.0, 10.111368, 9.9485 
7.8009e+3, 1.4830014e+2, -1397700.0, -1517067.0, 3095.5386, 0.0022822497, 0.00048131886, -1397619.8, 89039.375, 0.0, 10.102666, 9.943103 
7.800674e+3, 1.5824285e+2, -1312517.0, -1426116.9, 3204.949, 0.0022158902, -0.00018736033, -1312426.6, 76793.88, 0.0, 10.094779, 9.943083 
7.800448e+3, 1.6818243e+2, -1232489.6, -1346206.8, 3801.2244, 0.0022624242, -0.00015176399, -1232362.6, 59449.953, 0.0, 10.087378, 9.935812 
7.800222e+3, 1.7811841e+2, -1145590.5, -1254198.3, 3759.1807, 0.0022649812, -0.00012512377, -1145460.5, 48979.45, 0.0, 10.080405, 9.93579 
7.799997e+3, 1.8805026e+2, -1065384.1, -1175749.6, 3784.5986, 0.0022893883, 0.00031815894, -1065254.5, 31853.37, 0.0, 10.073632, 9.92702 
7.799771e+3, 1.9797751e+2, -977609.2, -1083163.8, 3549.7449, 0.0023153308, 0.00043198542, -977490.0, 22330.818, 0.0, 10.067055, 9.926974 
7.7995443e+3, 2.078995e+2, -897256.7, -1005105.1, 2976.3074, 0.0022641288, -0.000100823534, -897174.6, 5410.697, 0.0, 10.060375, 9.917622 
7.799318e+3, 2.1781652e+2, -809435.2, -912387.4, 2600.216, 0.0021743085, -0.001087311, -809369.56, -3971.165, 0.0, 10.053659, 9.917538 
7.7990896e+3, 2.277311e+2, -728886.0, -833603.25, 1520.0836, 0.002268425, 0.0006894316, -728863.94, -20628.465, 0.0, 10.04662, 9.908551 
7.798861e+3, 2.3764123e+2, -641592.5, -740900.8, 1068.4755, 0.0023962883, 0.0023508233, -641581.0, -30464.828, 0.0, 10.039327, 9.90855 
7.798631e+3, 2.4754278e+2, -560965.5, -660736.0, 33.769627, 0.0022353816, -0.0015636105, -560965.5, -46884.707, 0.0, 10.031566, 9.900547 
7.798401e+3, 2.5743926e+2, -474679.78, -568374.6, -386.10248, 0.0020020225, -0.006899683, -474678.2, -57583.227, 0.0, 10.023409, 9.9005375 
7.7981716e+3, 2.6734543e+2, -394560.9, -487863.44, -864.2542, 0.0022500837, 0.004906493, -394552.9, -74538.36, 0.0, 10.014895, 9.892814 
7.797942e+3, 2.7725083e+2, -309336.16, -396234.28, -1900.2025, 0.0026189557, 0.019501511, -309294.63, -86352.97, 0.0, 10.005949, 9.892459 
7.797708e+3, 2.871114e+2, -230408.34, -318139.9, -4788.9014, 0.001986162, -0.013672735, -230147.7, -103840.89, 0.0, 9.997151, 9.883028 
7.797473e+3, 2.9696098e+2, -146163.75, -228491.31, -6408.6387, 0.0010735489, -0.057381634, -145667.86, -115888.41, 0.0, 9.988107, 9.881284 
7.7972525e+3, 3.0696583e+2, -101123.305, -160577.4, -537.1351, 0.003955179, 0.08426375, -101118.45, -101118.45, 0.0, 9.976664, 9.899225 
7.797033e+3, 3.167914e+2, -59657.758, -43113.02, 4029.1614, -0.0021689248, -0.009745071, -42183.96, -42183.96, 0.0, 9.963431, 9.984858 
7.811477e+3, 1.2864536e+2, -1556486.6, -1684517.0, 5405.0796, 0.0023207455, 0.00009795863, -1556258.9, 123017.25, 0.0, 10.121517, 9.949625 
7.811239e+3, 1.385949e+2, -1474821.5, -1595722.6, 5795.1816, 0.002252722, -0.000027242413, -1474544.4, 107226.33, 0.0, 10.1116495, 9.949516 
7.811003e+3, 1.4854191e+2, -1395457.0, -1514138.0, 7818.622, 0.0022094976, 0.00022082045, -1394944.1, 89345.64, 0.0, 10.103128, 9.94412 
7.810769e+3, 1.58486e+2, -1309721.6, -1422913.5, 8181.412, 0.0023248808, -0.000031081807, -1309133.4, 77704.56, 0.0, 10.095611, 9.944076 
7.8105354e+3, 1.6842629e+2, -1229376.9, -1343469.0, 9370.024, 0.0023476363, 0.00003400806, -1228612.5, 60810.402, 0.0, 10.088737, 9.936251 
7.8103036e+3, 1.7836264e+2, -1141597.9, -1251099.0, 9479.323, 0.0022638584, -0.0000084120165, -1140783.3, 51263.36, 0.0, 10.082384, 9.93614 
7.810071e+3, 1.8829429e+2, -1061035.3, -1173223.5, 9767.286, 0.0022572067, 0.0002203189, -1060191.3, 34525.145, 0.0, 10.0762005, 9.926715 
7.80984e+3, 1.9822109e+2, -972308.44, -1080085.5, 9569.506, 0.0022740613, 0.0001152471, -971465.4, 25968.63, 0.0, 10.070221, 9.926726 
7.809607e+3, 2.0814289e+2, -891572.94, -1002348.2, 9018.707, 0.0022902975, -0.000052773616, -890843.5, 9356.546, 0.0, 10.064022, 9.91693 
7.809374e+3, 2.1805958e+2, -803193.0, -909416.94, 8705.185, 0.002282563, -0.0005594454, -802484.4, 531.9865, 0.0, 10.057712, 9.916794 
7.809139e+3, 2.2797266e+2, -722426.1, -831154.06, 7457.744, 0.0023061247, 0.00061614945, -721917.0, -16048.593, 0.0, 10.051084, 9.9072695 
7.808903e+3, 2.3788086e+2, -634587.75, -738106.3, 6930.7036, 0.0023435948, 0.0014506854, -634125.75, -25357.582, 0.0, 10.044123, 9.907348 
7.8086656e+3, 2.4778219e+2, -554089.56, -658136.44, 5489.0635, 0.0021406757, -0.00123274, -553800.8, -42066.03, 0.0, 10.036306, 9.899248 
7.8084266e+3, 2.5767878e+2, -468218.38, -565958.56, 5054.3735, 0.0018897048, -0.0048065106, -467957.7, -53210.074, 0.0, 10.027869, 9.899282 
7.808188e+3, 2.6758137e+2, -388764.03, -485745.34, 4257.644, 0.0025711176, 0.004076653, -388577.47, -70874.44, 0.0, 10.018877, 9.891604 
7.8079504e+3, 2.774822e+2, -303359.66, -392382.7, 3607.2053, 0.0035029117, 0.014343833, -303213.72, -82537.89, 0.0, 10.0093565, 9.892679 
7.807708e+3, 2.8735176e+2, -218425.88, -305709.88, 5713.146, 0.001283656, -0.011557953, -218053.52, -94102.51, 0.0, 10.002216, 9.88784 
7.807463e+3, 2.972144e+2, -135743.64, -225073.88, 9525.139, -0.0018291831, -0.043634437, -134739.28, -107446.586, 0.0, 9.99564, 9.878613 
7.807235e+3, 3.0718115e+2, -111223.24, -193363.58, 2782.914, 0.007939502, 0.071600854, -111129.07, -111129.07, 0.0, 9.9813385, 9.874501 
7.8069955e+3, 3.1695586e+2, -41711.543, 185.66095, -7306.8633, -0.0014676256, -0.06357709, 1423.41, 1423.41, 0.0, 9.960223, 10.015874 
7.8215986e+3, 1.2889448e+2, -1556237.5, -1682797.3, 2802.8394, 0.002382327, 0.0004178616, -1556175.5, 120659.016, 0.0, 10.120698, 9.950916 
7.8213507e+3, 1.3884482e+2, -1474278.0, -1593752.5, 3398.752, 0.002176916, -0.00035094368, -1474181.5, 105140.12, 0.0, 10.110981, 9.950881 
7.821106e+3, 1.4879331e+2, -1394860.4, -1512274.1, 6166.7866, 0.0021438787, 0.000050765182, -1394537.4, 87289.06, 0.0, 10.102614, 9.945373 
7.820865e+3, 1.5873891e+2, -1308966.4, -1421021.8, 6461.437, 0.002395937, 0.00015078962, -1308595.0, 75764.445, 0.0, 10.095229, 9.945288 
7.820625e+3, 1.6868013e+2, -1229034.9, -1342496.5, 7974.414, 0.0024056577, 0.00024858574, -1228477.1, 58458.15, 0.0, 10.088442, 9.936865 
7.8203857e+3, 1.78617e+2, -1141227.6, -1250215.4, 8008.811, 0.0022447915, 0.00011032891, -1140642.3, 48911.69, 0.0, 10.082156, 9.93667 
7.820147e+3, 1.8854862e+2, -1061104.3, -1173391.1, 8444.538, 0.002217578, 0.00011429644, -1060472.8, 31751.313, 0.0, 10.076074, 9.926537 
7.8199095e+3, 1.9847506e+2, -972222.1, -1080134.4, 8222.206, 0.002231699, -0.00021621092, -971599.25, 23345.816, 0.0, 10.070175, 9.92658 
7.819671e+3, 2.0839685e+2, -891759.94, -1003152.44, 7451.358, 0.0023119133, 0.000081962586, -891263.75, 6447.716, 0.0, 10.064066, 9.916262 
7.8194314e+3, 2.1831334e+2, -803283.75, -910216.1, 7010.003, 0.0023941917, 0.00016537019, -802826.2, -2296.504, 0.0, 10.057837, 9.916093 
7.81919e+3, 2.2822466e+2, -723058.1, -832909.06, 5455.2847, 0.0023322806, 0.00042485964, -722787.9, -19388.963, 0.0, 10.051135, 9.905986 
7.818947e+3, 2.3813061e+2, -635317.2, -739826.4, 4827.921, 0.0022315844, 0.000025729205, -635094.6, -28773.766, 0.0, 10.0440645, 9.906137 
7.818702e+3, 2.4803251e+2, -554555.56, -659898.6, 2753.3071, 0.0020670725, -0.00037292892, -554483.6, -45202.17, 0.0, 10.036463, 9.897896 
7.8184545e+3, 2.5793028e+2, -468274.56, -567450.7, 2132.4495, 0.0018746537, -0.00089658913, -468228.72, -55945.84, 0.0, 10.028264, 9.897992 
7.818208e+3, 2.6782644e+2, -389467.84, -487439.8, 691.505, 0.0028516701, 0.001539023, -389462.94, -74160.73, 0.0, 10.018752, 9.890433 
7.81796e+3, 2.7771908e+2, -302807.1, -390142.03, 263.82477, 0.0040644854, 0.0026693416, -302806.3, -84449.69, 0.0, 10.008665, 9.894388 
7.817709e+3, 2.8761145e+2, -210642.39, -290522.9, 1449.1309, 0.00059152825, -0.0035634765, -210616.11, -89210.8, 0.0, 10.002414, 9.897804 
7.8174573e+3, 2.9750577e+2, -136928.63, -230101.81, 2195.9116, -0.0040310076, -0.0068209283, -136876.9, -112443.766, 0.0, 9.996504, 9.87501 
7.8172183e+3, 3.0737275e+2, -140234.42, -252299.5, -2872.0076, 0.01125681, 0.0143954, -140160.88, -140160.88, 0.0, 9.980391, 9.835941 
7.816957e+3, 3.1720847e+2, 14838.656, 121386.77, -15424.083, 0.0007892904, -0.01328086, 123574.664, 123574.664, 0.0, 9.957313, 10.100683 
7.8317183e+3, 1.2915604e+2, -1555986.4, -1679622.6, 6306.2827, 0.00230828, 0.0001728997, -1555665.6, 118606.125, 0.0, 10.1192, 9.953054 
7.83146e+3, 1.3910887e+2, -1473939.5, -1590697.5, 7359.306, 0.0024004828, -0.000093066614, -1473477.5, 103256.3, 0.0, 10.1096325, 9.952851 
7.831208e+3, 1.4905885e+2, -1394343.4, -1509839.8, 11320.982, 0.0022325616, 0.0001918283, -1393244.1, 85979.734, 0.0, 10.101793, 9.94671 
7.8309596e+3, 1.5900561e+2, -1307322.5, -1418039.1, 11842.334, 0.0022796406, 0.000070806454, -1306070.0, 75675.81, 0.0, 10.095158, 9.946568 
7.830713e+3, 1.6894773e+2, -1226784.9, -1339931.3, 13971.9795, 0.002343589, 0.00012337594, -1225085.1, 59227.95, 0.0, 10.08914, 9.9375 
7.830469e+3, 1.7888525e+2, -1137646.0, -1246884.8, 14176.245, 0.0022674724, -0.000012315971, -1135836.4, 51089.02, 0.0, 10.083689, 9.937357 
7.8302246e+3, 1.888174e+2, -1056628.0, -1170263.1, 15010.554, 0.0022743344, 0.00015618558, -1054678.6, 34911.53, 0.0, 10.078509, 9.926636 
7.829982e+3, 1.9874404e+2, -966517.06, -1076617.0, 14944.387, 0.0023294436, 0.000020989195, -964524.7, 27784.38, 0.0, 10.073528, 9.926462 
7.829737e+3, 2.08665e+2, -885559.9, -1000517.06, 14114.095, 0.0023009854, 0.000121535464, -883852.4, 11231.492, 0.0, 10.068249, 9.915164 
7.8294915e+3, 2.1858022e+2, -795835.3, -906784.44, 13595.907, 0.002256877, -0.000041612257, -794193.5, 3721.2048, 0.0, 10.062773, 9.915148 
7.8292435e+3, 2.2849055e+2, -715227.7, -829771.94, 11718.594, 0.0022839275, 0.00036584534, -714041.06, -13247.551, 0.0, 10.056513, 9.904626 
7.828994e+3, 2.3839526e+2, -627220.25, -736789.2, 11178.112, 0.0023383156, 0.00017703445, -626091.5, -22364.191, 0.0, 10.049734, 9.904593 
7.8287417e+3, 2.4829525e+2, -546128.56, -657507.75, 8601.867, 0.002289594, -0.00020895201, -545468.1, -38760.883, 0.0, 10.042681, 9.895676 
7.8284866e+3, 2.5819084e+2, -459156.38, -564617.25, 7403.203, 0.0021645776, -0.0006571472, -458639.22, -48909.027, 0.0, 10.034884, 9.895898 
7.828229e+3, 2.6808456e+2, -381906.28, -485280.16, 4619.0356, 0.0023634292, 0.0012357606, -381700.3, -68927.76, 0.0, 10.024207, 9.888471 
7.827969e+3, 2.7797425e+2, -298829.4, -391456.25, 4610.2153, 0.0027262103, 0.0013147707, -298600.5, -82745.29, 0.0, 10.012523, 9.891021 
7.8277147e+3, 2.8786314e+2, -208244.8, -296904.66, 2515.0222, 0.0017271652, -0.0021486725, -208173.52, -89233.43, 0.0, 10.007172, 9.891058 
7.82746e+3, 2.9775587e+2, -127586.74, -224684.9, -5022.352, 0.0001591817, -0.00033186207, -127327.66, -105341.68, 0.0, 10.00218, 9.875936 
7.827193e+3, 3.0762202e+2, -122449.26, -215753.84, 1013.1044, 0.0057061417, 0.002161246, -122438.26, -122438.26, 0.0, 9.979823, 9.858881 
7.826911e+3, 3.175217e+2, 4528.4897, 105787.64, 10872.867, -0.00031323195, 0.028337369, 106941.97, 106941.97, 0.0, 9.954577, 10.088753 
7.841837e+3, 1.294267e+2, -1555088.4, -1676278.8, 3958.4023, 0.0022217091, -0.000009560861, -1554959.3, 116660.35, 0.0, 10.118181, 9.955429 
7.8415704e+3, 1.3938224e+2, -1473102.4, -1587538.4, 4961.114, 0.0025445968, 0.00019238847, -1472887.6, 101166.96, 0.0, 10.108661, 9.955111 
7.8413093e+3, 1.4933407e+2, -1393781.4, -1507506.4, 9888.834, 0.0022768131, 0.0003560134, -1392927.9, 83598.836, 0.0, 10.101043, 9.948386 
7.841055e+3, 1.592823e+2, -1306510.5, -1415688.4, 10416.374, 0.002168909, -0.000009861462, -1305525.5, 73508.73, 0.0, 10.0946245, 9.948147 
7.840802e+3, 1.6922559e+2, -1226302.3, -1338565.1, 12987.662, 0.0022937993, 0.00002406268, -1224819.3, 56770.863, 0.0, 10.088804, 9.938379 
7.8405523e+3, 1.7916404e+2, -1136882.5, -1245347.4, 13188.854, 0.002294156, -0.00007925575, -1135301.9, 48891.63, 0.0, 10.083527, 9.938259 
7.840303e+3, 1.8909688e+2, -1056317.6, -1169749.5, 14052.831, 0.0023370401, 0.00026204262, -1054602.6, 32248.809, 0.0, 10.078427, 9.9268675 
7.840055e+3, 1.9902387e+2, -966317.1, -1076420.5, 13838.616, 0.0023967149, 0.00032047686, -964604.44, 24962.326, 0.0, 10.07349, 9.926478 
7.839805e+3, 2.0894404e+2, -886009.75, -1001835.44, 12897.194, 0.0022715824, 0.0001469009, -884591.0, 7758.464, 0.0, 10.068304, 9.914158 
7.839554e+3, 2.18858e+2, -796094.25, -907880.4, 12360.867, 0.0020910173, -0.0003830294, -794743.75, 449.1377, 0.0, 10.06289, 9.914245 
7.8393e+3, 2.2876756e+2, -715600.5, -831451.8, 9899.353, 0.0022238146, 0.00044112888, -714760.7, -16681.768, 0.0, 10.056752, 9.903279 
7.839044e+3, 2.3867133e+2, -627639.56, -738790.44, 9291.278, 0.002437247, 0.0007509304, -626868.25, -25846.254, 0.0, 10.050075, 9.902997 
7.8387845e+3, 2.4856867e+2, -547541.6, -660899.9, 6329.1543, 0.002549587, -0.0003259314, -547189.3, -43161.203, 0.0, 10.042717, 9.89331 
7.8385216e+3, 2.5846124e+2, -460974.3, -568153.94, 4851.1685, 0.0025046018, -0.0015667444, -460755.16, -53674.133, 0.0, 10.034595, 9.893573 
7.838252e+3, 2.6835415e+2, -381650.0, -487670.56, 685.6192, 0.0015888828, 0.0020305256, -381645.6, -71514.98, 0.0, 10.025153, 9.886248 
7.8379804e+3, 2.7824247e+2, -299157.88, -397966.7, 1664.6414, 0.00077810464, 0.0038735436, -299129.84, -85905.07, 0.0, 10.014807, 9.885485 
7.8377235e+3, 2.8811705e+2, -218683.0, -316728.38, 2596.8987, 0.003801936, -0.004656366, -218614.25, -102160.74, 0.0, 10.006348, 9.878229 
7.8374666e+3, 2.9799527e+2, -131686.22, -222575.48, -6442.9263, 0.0067541753, -0.007719643, -131231.77, -111585.08, 0.0, 9.997347, 9.87931 
7.837163e+3, 3.079106e+2, -85170.58, -140596.16, -9721.87, -0.005209444, 0.014066677, -83514.79, -83514.79, 0.0, 9.97989, 9.908227 
7.836867e+3, 3.177974e+2, -70769.57, -65628.055, 12300.114, -0.00035733558, -0.0081795165, -55632.92, -55632.92, 0.0, 9.961769, 9.967457 
7.851953e+3, 1.2971038e+2, -1558307.9, -1674727.8, 7314.177, 0.00235068, -0.000010689318, -1557850.1, 110989.15, 0.0, 10.114365, 9.957766 
7.851677e+3, 1.3966826e+2, -1475425.4, -1585330.5, 8785.255, 0.0023385184, 0.00016629454, -1474727.5, 96524.61, 0.0, 10.105353, 9.957569 
7.8514093e+3, 1.4962237e+2, -1395124.3, -1505145.8, 15183.529, 0.0021964288, 0.00030157127, -1393067.4, 80634.53, 0.0, 10.098639, 9.950503 
7.851148e+3, 1.595727e+2, -1306184.9, -1412495.4, 16043.4375, 0.0023169878, -0.000028408349, -1303816.5, 72371.91, 0.0, 10.09332, 9.9501915 
7.850891e+3, 1.6951767e+2, -1224804.4, -1335611.1, 19379.912, 0.0023923, 0.00006145463, -1221512.8, 57215.043, 0.0, 10.088695, 9.939659 
7.850637e+3, 1.7945741e+2, -1133774.0, -1241825.0, 19848.807, 0.0023019419, 0.000061309256, -1130243.1, 51075.14, 0.0, 10.084592, 9.939283 
7.850383e+3, 1.8939061e+2, -1052330.6, -1166922.4, 21025.078, 0.0022655614, 0.0002877321, -1048594.9, 35378.293, 0.0, 10.080604, 9.926884 
7.85013e+3, 1.9931753e+2, -960483.8, -1072453.4, 20947.059, 0.0022650342, 0.00018638845, -956693.4, 29995.963, 0.0, 10.076796, 9.926652 
7.8498757e+3, 2.0923765e+2, -878888.3, -997887.0, 20172.324, 0.0022997484, 0.00008278561, -875561.75, 13910.45, 0.0, 10.072753, 9.913721 
7.84962e+3, 2.1915124e+2, -787579.44, -903590.2, 19888.514, 0.0023242822, -0.000278959, -784264.5, 8054.465, 0.0, 10.068431, 9.91348 
7.84936e+3, 2.2905944e+2, -706474.5, -828165.7, 17023.3, 0.002296974, 0.00062996976, -704137.94, -8919.2705, 0.0, 10.063244, 9.901384 
7.849097e+3, 2.389613e+2, -617134.6, -734502.56, 16283.746, 0.0022779766, 0.00085665827, -614917.3, -16736.455, 0.0, 10.057349, 9.90139 
7.848831e+3, 2.4885662e+2, -537263.25, -657020.7, 12825.863, 0.002313181, -0.00067121146, -535905.0, -34698.24, 0.0, 10.049911, 9.891451 
7.8485596e+3, 2.587471e+2, -451402.63, -565126.6, 11810.25, 0.0023626655, -0.0021005934, -450189.1, -45908.88, 0.0, 10.041558, 9.891296 
7.848283e+3, 2.686384e+2, -369001.16, -484056.78, 7378.8716, 0.002181014, 0.00299317, -368529.84, -61184.625, 0.0, 10.034561, 9.883168 
7.848003e+3, 2.7852476e+2, -282568.9, -391490.8, 7576.8774, 0.0019903365, 0.0061095427, -282044.34, -71585.83, 0.0, 10.026416, 9.883222 
7.84773e+3, 2.8839427e+2, -214256.06, -314111.97, 9943.767, 0.002584554, -0.007236474, -213275.48, -99537.78, 0.0, 10.008714, 9.877623 
7.847455e+3, 2.982685e+2, -142683.88, -224915.44, 6327.148, 0.0032793065, -0.014606975, -142199.89, -125229.125, 0.0, 9.98827, 9.880686 
7.84715e+3, 3.082039e+2, -67947.83, -123411.63, -7315.228, -0.00027637806, 0.02719952, -66999.234, -66999.234, 0.0, 9.987629, 9.915585 
7.8468525e+3, 3.1807488e+2, -38962.07, -63123.96, 4721.1123, 0.008949443, -0.022672754, -38072.35, -38072.35, 0.0, 9.988715, 9.956455 
7.862067e+3, 1.3000278e+2, -1557597.5, -1670909.8, 4978.1353, 0.0024123988, 0.00014309134, -1557379.1, 108594.445, 0.0, 10.112959, 9.960646 
7.861782e+3, 1.3996336e+2, -1474220.0, -1581221.1, 6797.742, 0.002219309, 0.00009521127, -1473789.9, 94570.41, 0.0, 10.104273, 9.960466 
7.8615075e+3, 1.4992017e+2, -1394033.3, -1501627.0, 14314.041, 0.0021126047, 0.00026257758, -1392161.5, 78622.11, 0.0, 10.097834, 9.952951 
7.8612417e+3, 1.59873e+2, -1304895.8, -1408998.9, 15117.368, 0.002431385, 0.000008625452, -1302744.9, 70500.73, 0.0, 10.09271, 9.952541 
7.8609794e+3, 1.6981994e+2, -1224025.8, -1333292.3, 18780.363, 0.0024515837, 0.00014587175, -1220887.9, 54877.742, 0.0, 10.088215, 9.941231 
7.860721e+3, 1.7976123e+2, -1133044.9, -1239836.5, 19168.588, 0.0022520344, 0.00019942028, -1129708.5, 48632.44, 0.0, 10.084222, 9.940601 
7.860463e+3, 1.8969508e+2, -1051974.1, -1166278.9, 20555.129, 0.002181099, 0.00030442048, -1048390.1, 32599.557, 0.0, 10.08053, 9.927199 
7.860207e+3, 1.9962223e+2, -959676.7, -1071440.9, 20518.273, 0.0021455926, 0.000039690964, -956028.94, 27675.002, 0.0, 10.076955, 9.927081 
7.859949e+3, 2.0954259e+2, -878611.6, -997887.4, 19372.453, 0.0023270207, 0.00007706002, -875544.1, 10939.872, 0.0, 10.072885, 9.913525 
7.8596884e+3, 2.194561e+2, -787654.0, -904217.56, 18875.672, 0.0025271776, -0.000058551366, -784673.56, 4657.7134, 0.0, 10.068525, 9.91291 
7.859423e+3, 2.29363e+2, -707322.2, -830629.9, 15541.915, 0.002359582, 0.0008373194, -705393.44, -13149.247, 0.0, 10.063426, 9.899564 
7.8591543e+3, 2.3926294e+2, -617619.3, -736388.25, 14737.815, 0.0020760614, 0.00086766836, -615817.9, -20592.602, 0.0, 10.057584, 9.899902 
7.85888e+3, 2.4915656e+2, -537584.8, -659103.7, 10138.4375, 0.0019741028, -0.0009010654, -536744.75, -38477.12, 0.0, 10.050298, 9.889738 
7.858601e+3, 2.5904533e+2, -452010.28, -567865.3, 9339.846, 0.0020462673, -0.0022681518, -451262.16, -49904.293, 0.0, 10.0420065, 9.889157 
7.858318e+3, 2.689347e+2, -372017.53, -489191.88, 5004.512, 0.0032100924, 0.0039190017, -371804.16, -67362.195, 0.0, 10.0339, 9.879984 
7.858031e+3, 2.788188e+2, -285313.78, -393582.25, 3820.1448, 0.004098247, 0.0075245867, -285179.16, -77601.336, 0.0, 10.02455, 9.882527 
7.857736e+3, 2.886876e+2, -209957.48, -307374.28, 1937.0848, -0.0002392554, -0.009824301, -209918.97, -99055.39, 0.0, 10.009013, 9.881601 
7.857438e+3, 2.9856306e+2, -139226.81, -225642.45, 539.9063, -0.0041798074, -0.019492619, -139223.44, -125139.14, 0.0, 9.991252, 9.87865 
7.8571486e+3, 3.0850273e+2, -76943.25, -141541.36, -5287.0835, 0.013817915, 0.03717236, -76513.38, -76513.38, 0.0, 9.987547, 9.90354 
7.856833e+3, 3.183719e+2, -23826.912, -22903.994, -1736.8201, -0.0010210315, -0.0063265045, -21568.375, -21568.375, 0.0, 9.984363, 9.985545 
7.872176e+3, 1.303065e+2, -1563955.4, -1669364.9, 7936.009, 0.0022871282, 0.0003103886, -1563361.3, 99636.25, 0.0, 10.106384, 9.964462 
7.8718835e+3, 1.4027056e+2, -1479037.1, -1579093.3, 10456.061, 0.002482619, -0.00011320276, -1477956.1, 87393.5, 0.0, 10.098822, 9.964026 
7.871603e+3, 1.5023051e+2, -1397582.6, -1499803.1, 19538.959, 0.0022032803, 0.00019346479, -1393975.3, 73766.88, 0.0, 10.093768, 9.955638 
7.871333e+3, 1.6018617e+2, -1306365.3, -1406235.0, 20640.422, 0.0023453638, 0.00015688947, -1302267.5, 67909.23, 0.0, 10.090054, 9.955054 
7.871067e+3, 1.701351e+2, -1224125.3, -1330624.4, 25034.857, 0.002387918, 0.000196988, -1218533.9, 54143.344, 0.0, 10.086867, 9.943011 
7.870805e+3, 1.8007806e+2, -1130958.5, -1235956.6, 25799.516, 0.0022414306, 0.00010761121, -1124961.6, 50274.566, 0.0, 10.084268, 9.942413 
7.870544e+3, 1.9001344e+2, -1048027.4, -1162073.8, 27867.154, 0.0022386345, 0.00022315902, -1041582.25, 36287.387, 0.0, 10.082107, 9.928414 
7.8702855e+3, 1.9994177e+2, -953760.9, -1066720.6, 28173.898, 0.0023305127, 0.000065506916, -947123.8, 33448.14, 0.0, 10.08005, 9.92783 
7.870023e+3, 2.0986222e+2, -871731.25, -994094.2, 27027.379, 0.0023204929, 0.00020272954, -866027.4, 17324.477, 0.0, 10.077239, 9.913021 
7.86976e+3, 2.1977527e+2, -778720.7, -899071.9, 26751.99, 0.0022555091, 0.000027420903, -773042.1, 13162.054, 0.0, 10.07411, 9.912663 
7.8694904e+3, 2.2968136e+2, -696961.75, -825547.4, 23413.266, 0.00225672, 0.00060323346, -692831.25, -3706.507, 0.0, 10.070269, 9.898599 
7.869216e+3, 2.3958012e+2, -605759.2, -731026.06, 22954.984, 0.0022929448, 0.0005365901, -601685.25, -9568.387, 0.0, 10.065643, 9.89851 
7.8689355e+3, 2.494722e+2, -525245.3, -655092.1, 17410.43, 0.0022058033, -0.00042924745, -522951.34, -27776.646, 0.0, 10.05929, 9.88698 
7.868648e+3, 2.593589e+2, -438351.1, -562263.25, 16367.176, 0.002148556, -0.0010748127, -436225.7, -37940.406, 0.0, 10.051476, 9.88725 
7.8683555e+3, 2.6924497e+2, -361339.34, -484480.38, 11599.772, 0.0027107536, 0.002762057, -360256.2, -58854.04, 0.0, 10.041018, 9.878572 
7.868056e+3, 2.791257e+2, -279062.22, -391740.94, 10861.434, 0.0032061732, 0.0040733386, -278024.8, -73453.78, 0.0, 10.02899, 9.880536 
7.867751e+3, 2.8899774e+2, -196434.22, -302920.1, 6076.5186, 0.0009255501, -0.006022689, -196088.6, -88263.58, 0.0, 10.018675, 9.87893 
7.8674406e+3, 2.9887614e+2, -118082.21, -218778.92, 2251.6604, -0.0012639306, -0.00861741, -118031.89, -107015.24, 0.0, 10.006594, 9.875042 
7.8671324e+3, 3.0878928e+2, -78249.305, -147786.11, -2615.5623, 0.010252458, 0.021813143, -78151.06, -78151.06, 0.0, 9.988651, 9.898053 
7.8668046e+3, 3.186666e+2, -27979.924, -2384.6064, 3361.0183, -0.006282564, -0.01125603, -1950.6172, -1950.6172, 0.0, 9.971723, 10.0051155 
7.882282e+3, 1.3061793e+2, -1562781.3, -1663768.5, 6115.076, 0.0021828713, 0.00030593175, -1562412.3, 97533.42, 0.0, 10.104582, 9.968668 
7.881982e+3, 1.405861e+2, -1477462.3, -1573578.9, 8811.492, 0.0025990237, -0.00015493494, -1476661.1, 85596.125, 0.0, 10.0974455, 9.96799 
7.881697e+3, 1.5054958e+2, -1396485.0, -1495518.6, 19066.283, 0.0022220232, 0.00021176804, -1392941.1, 71674.086, 0.0, 10.092655, 9.958762 
7.8814226e+3, 1.6050838e+2, -1305076.9, -1402094.1, 20177.396, 0.0022265005, 0.00026351752, -1301047.8, 65971.59, 0.0, 10.089184, 9.957972 
7.881154e+3, 1.7045978e+2, -1222818.8, -1327262.9, 25034.43, 0.0023250878, 0.0002382258, -1217128.3, 52367.54, 0.0, 10.086416, 9.945241 
7.880889e+3, 1.804049e+2, -1129152.3, -1232328.6, 25861.51, 0.002224517, 0.000043561544, -1123032.9, 49000.664, 0.0, 10.084148, 9.944652 
7.880627e+3, 1.9034223e+2, -1046765.56, -1159432.0, 27926.697, 0.0022795135, 0.00020603281, -1040223.25, 34424.195, 0.0, 10.081975, 9.930059 
7.880366e+3, 2.0027217e+2, -952933.56, -1064878.4, 27994.309, 0.0024332432, 0.00013542817, -946323.25, 31010.549, 0.0, 10.079891, 9.928991 
7.8801006e+3, 2.1019314e+2, -871199.3, -993777.2, 26679.39, 0.0022826951, 0.0003663586, -865644.25, 14464.776, 0.0, 10.077486, 9.912983 
7.8798336e+3, 2.2010621e+2, -777527.7, -898168.75, 26438.445, 0.0019740239, 0.00015876481, -771988.1, 10973.463, 0.0, 10.074681, 9.912834 
7.8795606e+3, 2.300119e+2, -696523.3, -825840.3, 22337.775, 0.0021595242, 0.00040699335, -692773.5, -6887.9077, 0.0, 10.070654, 9.898086 
7.879282e+3, 2.3990996e+2, -606154.4, -732446.25, 21620.434, 0.0024523675, 0.00024004154, -602555.6, -13671.214, 0.0, 10.06578, 9.897405 
7.8789943e+3, 2.4980074e+2, -526493.0, -658814.94, 15133.231, 0.0025037029, 0.00023540667, -524784.3, -32829.113, 0.0, 10.059586, 9.88424 
7.8786993e+3, 2.5968555e+2, -438686.5, -564409.8, 13887.209, 0.0023168253, 0.0002871403, -437170.8, -42085.98, 0.0, 10.05186, 9.885461 
7.8783953e+3, 2.6956812e+2, -361061.44, -485249.63, 7197.531, 0.001654907, 0.0010574472, -360645.7, -62409.76, 0.0, 10.041214, 9.8777485 
7.8780836e+3, 2.7944544e+2, -280483.63, -395612.06, 6667.185, 0.0013509353, -0.00030368645, -280098.8, -78660.46, 0.0, 10.02907, 9.877795 
7.877772e+3, 2.8932175e+2, -199556.9, -310235.03, 2077.7507, 0.0039387476, 0.0002332029, -199517.9, -94867.51, 0.0, 10.0187, 9.873906 
7.8774524e+3, 2.9920238e+2, -121816.17, -226855.52, -2853.0217, 0.0053316574, 0.0068600634, -121738.734, -113918.58, 0.0, 10.006263, 9.869586 
7.877109e+3, 3.0907613e+2, -78300.78, -150923.08, -9019.279, -0.0037215864, -0.008525128, -77197.41, -77197.41, 0.0, 9.989274, 9.895205 
7.8767836e+3, 3.189807e+2, -37122.617, -23686.408, 7840.121, 0.0015594849, -0.000068685345, -20079.764, -20079.764, 0.0, 9.972978, 9.98985 
7.8923815e+3, 1.3093852e+2, -1573355.8, -1663874.8, 8397.524, 0.0025342447, -0.0000035035553, -1572583.3, 84220.54, 0.0, 10.095112, 9.973113 
7.8920746e+3, 1.4091165e+2, -1485287.6, -1572264.6, 11717.239, 0.0022644154, 0.0002773402, -1483736.8, 75330.48, 0.0, 10.089769, 9.972339 
7.891786e+3, 1.5087883e+2, -1402357.0, -1493929.5, 23484.326, 0.0020850438, 0.0003203115, -1396685.6, 64703.277, 0.0, 10.086695, 9.962411 
7.8915095e+3, 1.6084099e+2, -1308460.9, -1399272.8, 25041.658, 0.0023678432, 0.000046298996, -1302013.4, 61746.387, 0.0, 10.08486, 9.961504 
7.891239e+3, 1.7079571e+2, -1224047.6, -1323809.8, 30813.217, 0.002434269, 0.00011678518, -1215297.9, 50905.5, 0.0, 10.083765, 9.948293 
7.8909725e+3, 1.8074392e+2, -1128343.1, -1228234.4, 32057.053, 0.0022516104, 0.00009150568, -1118940.4, 49770.61, 0.0, 10.083014, 9.94729 
7.8907084e+3, 1.9068347e+2, -1044580.75, -1155447.4, 34668.83, 0.0021919624, 0.0003396205, -1034632.25, 36671.37, 0.0, 10.082134, 9.931939 
7.890446e+3, 2.0061532e+2, -948474.44, -1059516.4, 35327.637, 0.0022617094, 0.0002503, -938188.0, 35783.652, 0.0, 10.081465, 9.931005 
7.8901803e+3, 2.1053779e+2, -864356.8, -987819.75, 34733.633, 0.0022910803, 0.00021902802, -855256.06, 21475.424, 0.0, 10.080917, 9.914374 
7.8899115e+3, 2.204521e+2, -768164.6, -891437.4, 35062.734, 0.002269915, 0.000019089202, -758889.56, 20681.818, 0.0, 10.080016, 9.913723 
7.889635e+3, 2.303581e+2, -686182.4, -820249.1, 30753.568, 0.0022069302, 0.0006325254, -679464.44, 3028.4824, 0.0, 10.077309, 9.897501 
7.889352e+3, 2.4025571e+2, -593632.44, -725362.3, 30577.115, 0.0022372028, 0.0005714008, -586880.94, -1384.3427, 0.0, 10.073739, 9.8971405 
7.889059e+3, 2.501451e+2, -512411.4, -652060.56, 23983.34, 0.002456817, -0.00025587942, -508407.3, -19826.45, 0.0, 10.068993, 9.882935 
7.888757e+3, 2.6002806e+2, -423035.9, -557464.94, 22899.5, 0.0025104159, -0.0006338574, -419242.13, -27514.154, 0.0, 10.062556, 9.883615 
7.8884417e+3, 2.6990944e+2, -346536.25, -480958.56, 13978.257, 0.001689073, 0.0022483133, -345098.06, -50207.13, 0.0, 10.05187, 9.874149 
7.8881174e+3, 2.7978462e+2, -265787.5, -389738.6, 13665.821, 0.0012442356, 0.0021814578, -264298.7, -66184.055, 0.0, 10.03926, 9.875592 
7.887795e+3, 2.8965458e+2, -186018.02, -304047.06, 9677.233, 0.0039905556, -0.003126731, -185229.83, -83840.71, 0.0, 10.027665, 9.8724 
7.8874624e+3, 2.995309e+2, -111447.33, -223089.17, 5310.194, 0.0057874774, 0.0003473413, -111195.31, -106593.57, 0.0, 10.01335, 9.867237 
7.887102e+3, 3.0941528e+2, -64813.363, -146022.61, -2836.2007, -0.0037792102, 0.0020380088, -64714.434, -64714.434, 0.0, 9.998487, 9.892589 
7.886764e+3, 3.1931692e+2, -31210.898, -13447.476, 10964.877, 0.009914197, 0.0069912286, -8218.436, -8218.436, 0.0, 9.97302, 9.995265 
7.902477e+3, 1.3126531e+2, -1572181.0, -1657375.5, 7059.167, 0.0025966698, -0.000007038975, -1571600.1, 82001.125, 0.0, 10.092945, 9.9781275 
7.902164e+3, 1.412436e+2, -1483714.3, -1565815.3, 10847.063, 0.0020971664, 0.00049754855, -1482305.4, 73509.19, 0.0, 10.088019, 9.977121 
7.9018724e+3, 1.5121502e+2, -1400683.3, -1488250.8, 23627.262, 0.0019816526, 0.00037342613, -1394714.9, 63379.625, 0.0, 10.085499, 9.966488 
7.901594e+3, 1.6118108e+2, -1306328.5, -1393540.4, 25172.547, 0.0024737667, -0.00007451427, -1299584.4, 60842.594, 0.0, 10.08406, 9.965432 
7.901322e+3, 1.711396e+2, -1222154.5, -1318541.9, 31219.346, 0.002520579, 0.000077068056, -1212926.3, 49906.883, 0.0, 10.083014, 9.951934 
7.901056e+3, 1.8109141e+2, -1126680.9, -1223594.1, 32381.03, 0.0022188018, 0.0001735622, -1116857.4, 48448.08, 0.0, 10.082351, 9.950503 
7.9007906e+3, 1.9103387e+2, -1042358.8, -1151082.5, 35206.33, 0.0020989694, 0.0004772382, -1031954.2, 35915.56, 0.0, 10.082114, 9.934648 
7.900528e+3, 2.0096843e+2, -945506.94, -1054704.9, 35946.543, 0.0021176846, 0.00032640604, -934736.2, 35775.367, 0.0, 10.081919, 9.93377 
7.900261e+3, 2.1089326e+2, -862108.0, -983907.25, 35094.836, 0.0022758127, 0.000065616914, -852719.56, 20528.145, 0.0, 10.08114, 9.9167 
7.899992e+3, 2.2080974e+2, -766756.94, -888695.25, 35042.242, 0.002420051, -0.00012494084, -757404.0, 18662.049, 0.0, 10.080004, 9.915427 
7.899712e+3, 2.307169e+2, -684956.8, -819337.44, 30055.559, 0.0021804906, 0.0009345473, -678540.94, 435.71033, 0.0, 10.0778885, 9.8976755 
7.899425e+3, 2.4061503e+2, -591495.4, -723596.44, 29971.037, 0.0019571856, 0.0011130434, -585013.6, -3037.8855, 0.0, 10.074758, 9.897651 
7.899128e+3, 2.5050357e+2, -511810.47, -652390.25, 22087.508, 0.0023337384, -0.00079298625, -508421.8, -23353.674, 0.0, 10.069469, 9.88232 
7.8988194e+3, 2.6038525e+2, -423858.63, -559596.5, 20362.572, 0.0025422773, -0.0018533595, -420869.78, -32641.96, 0.0, 10.062511, 9.882078 
7.898494e+3, 2.7026635e+2, -347374.38, -485947.8, 9645.291, 0.0020739513, 0.0045587993, -346706.25, -55313.418, 0.0, 10.052855, 9.8701315 
7.898158e+3, 2.8013963e+2, -264209.94, -391114.06, 10101.856, 0.0016466578, 0.00628957, -263410.84, -68775.73, 0.0, 10.040884, 9.873649 
7.897821e+3, 2.8999928e+2, -186481.56, -304750.97, 4178.076, 0.0025255196, -0.011139919, -186334.16, -88322.81, 0.0, 10.027082, 9.871991 
7.8974736e+3, 2.9987022e+2, -115961.76, -228142.64, -1341.8368, 0.0036226255, -0.013173526, -115945.71, -114668.8, 0.0, 10.010979, 9.864853 
7.897106e+3, 3.0978993e+2, -66059.2, -148937.77, -7619.7065, 0.004243615, 0.03384397, -65364.484, -65364.484, 0.0, 9.998026, 9.89041 
7.89673e+3, 3.1964907e+2, -31414.928, -19311.182, -5317.2075, 0.0015837515, -0.009077937, -17307.133, -17307.133, 0.0, 9.973708, 9.989844 
7.9125625e+3, 1.3159809e+2, -1585929.3, -1657698.3, 8009.387, 0.0021422177, 0.00030663906, -1585046.4, 65294.1, 0.0, 10.080861, 9.984034 
7.912247e+3, 1.4158148e+2, -1493967.3, -1564861.9, 12617.096, 0.0026456916, 0.00004793585, -1491788.8, 60714.137, 0.0, 10.078456, 9.982456 
7.9119533e+3, 1.5155791e+2, -1408473.3, -1487017.5, 26609.184, 0.0021225214, 0.000269847, -1400307.5, 54426.465, 0.0, 10.078068, 9.970891 
7.9116756e+3, 1.6152862e+2, -1311736.4, -1391178.8, 28411.717, 0.0023848736, 0.00020317471, -1302621.1, 54399.945, 0.0, 10.078203, 9.969678 
7.9114026e+3, 1.7149128e+2, -1225635.1, -1315063.6, 35158.11, 0.002463602, 0.000232573, -1213468.3, 45918.594, 0.0, 10.078381, 9.956215 
7.911136e+3, 1.8144725e+2, -1128248.6, -1219129.1, 37066.0, 0.0022453547, 0.00019422613, -1115048.4, 46770.137, 0.0, 10.078984, 9.954722 
7.910872e+3, 1.9139375e+2, -1041427.25, -1145142.0, 40989.23, 0.002211774, 0.00026681312, -1027183.94, 37158.785, 0.0, 10.080339, 9.938936 
7.91061e+3, 2.0133235e+2, -942650.5, -1048283.06, 42403.305, 0.0023381133, 0.000049979088, -927734.94, 39209.574, 0.0, 10.081641, 9.937535 
7.910343e+3, 2.1126075e+2, -857805.3, -977245.2, 42249.29, 0.0022568183, 0.000046764737, -844371.5, 25274.889, 0.0, 10.082048, 9.919935 
7.910073e+3, 2.211805e+2, -760205.7, -880827.25, 43297.535, 0.0021671338, -0.000031382606, -746273.2, 26159.986, 0.0, 10.082406, 9.918629 
7.9097927e+3, 2.3109019e+2, -675396.3, -810690.1, 39327.156, 0.0021265245, 0.0007222868, -664795.4, 10522.754, 0.0, 10.082615, 9.90007 
7.909504e+3, 2.4099046e+2, -578385.1, -713660.4, 40118.09, 0.0021221791, 0.0007615929, -567382.4, 10913.379, 0.0, 10.082084, 9.899497 
7.9092014e+3, 2.508799e+2, -498150.5, -644315.1, 31841.229, 0.002074156, -0.000867596, -491515.28, -10135.055, 0.0, 10.077973, 9.882197 
7.9088867e+3, 2.607618e+2, -407769.5, -549914.1, 31383.508, 0.0021515996, -0.0015967907, -401148.84, -16610.88, 0.0, 10.072525, 9.8822365 
7.9085547e+3, 2.706425e+2, -327403.34, -475763.38, 20650.162, 0.0027979093, 0.004863256, -324582.7, -36877.24, 0.0, 10.065932, 9.868886 
7.908208e+3, 2.8051326e+2, -243631.11, -383666.97, 20639.17, 0.0029928598, 0.006227274, -240652.56, -49680.992, 0.0, 10.055593, 9.869756 
7.907851e+3, 2.9036614e+2, -177040.95, -305917.8, 9929.7295, 0.0006249213, -0.012417783, -176280.38, -81860.414, 0.0, 10.035235, 9.865623 
7.907481e+3, 3.0023408e+2, -108952.39, -218453.4, 5744.968, -0.00041582773, -0.013739358, -108651.805, -108651.805, 0.0, 10.012504, 9.869052 
7.9071087e+3, 3.1016922e+2, -46246.895, -122831.49, 5249.918, 0.008052605, 0.03954384, -45888.688, -45888.688, 0.0, 10.003992, 9.903049 
7.9067117e+3, 3.200155e+2, -17764.97, -37642.55, 4710.1523, -0.0016316496, -0.0241637, -16705.35, -16705.35, 0.0, 9.992887, 9.965877 
7.922643e+3, 1.319339e+2, -1584766.9, -1649899.6, 7565.0303, 0.0019240103, 0.0003889423, -1583899.8, 63149.742, 0.0, 10.078172, 9.990209 
7.922326e+3, 1.4192307e+2, -1491778.6, -1557182.0, 12484.671, 0.0029107209, -0.0002236979, -1489476.5, 59678.777, 0.0, 10.076774, 9.988071 
7.922032e+3, 1.5190478e+2, -1406816.8, -1480452.8, 27099.67, 0.002135497, 0.00020508394, -1397918.8, 53415.97, 0.0, 10.076501, 9.97579 
7.921753e+3, 1.6188048e+2, -1310008.3, -1384773.4, 28901.555, 0.0022413782, 0.00035497028, -1300138.8, 53434.15, 0.0, 10.076786, 9.974415 
7.921481e+3, 1.7184797e+2, -1222570.4, -1307547.1, 35875.004, 0.0023699175, 0.00030768826, -1209450.5, 46441.008, 0.0, 10.077667, 9.961301 
7.921215e+3, 1.818089e+2, -1124564.9, -1211410.8, 37904.887, 0.002176306, 0.00015108954, -1110348.1, 47926.355, 0.0, 10.078756, 9.959717 
7.9209524e+3, 1.9176051e+2, -1037784.9, -1136957.6, 41915.195, 0.002213265, 0.00011459201, -1022442.9, 38305.363, 0.0, 10.0799, 9.944365 
7.9206914e+3, 2.0170437e+2, -939644.56, -1041131.0, 43075.43, 0.0024085634, -0.000083618856, -923826.8, 39471.594, 0.0, 10.081107, 9.942371 
7.920425e+3, 2.1163766e+2, -853612.2, -969553.2, 42917.25, 0.002174524, 0.00014897755, -839454.56, 26498.314, 0.0, 10.082339, 9.924682 
7.9201555e+3, 2.2156222e+2, -755203.44, -872899.06, 44078.477, 0.0019234881, 0.00019784972, -740525.9, 28166.658, 0.0, 10.083337, 9.923229 
7.9198754e+3, 2.3147596e+2, -671129.1, -803729.94, 39790.277, 0.00219275, 0.00057354174, -660105.5, 11431.878, 0.0, 10.083321, 9.904157 
7.9195863e+3, 2.4137989e+2, -575378.5, -708318.44, 39909.313, 0.002203519, 0.00028470994, -564317.8, 10160.916, 0.0, 10.082349, 9.902755 
7.9192793e+3, 2.512719e+2, -495658.28, -641452.75, 30259.855, 0.0016932862, -0.00077132, -489627.28, -12088.342, 0.0, 10.078743, 9.883506 
7.918959e+3, 2.6115584e+2, -404619.06, -546349.25, 30223.838, 0.0016115247, -0.0008666556, -398443.0, -17765.908, 0.0, 10.073617, 9.883875 
7.9186213e+3, 2.710366e+2, -326506.6, -475333.75, 17501.94, 0.0035590075, 0.004531443, -324476.06, -40634.105, 0.0, 10.06621, 9.868808 
7.9182637e+3, 2.8090513e+2, -246747.06, -389797.03, 15650.334, 0.004287563, 0.0048728287, -245054.86, -57925.434, 0.0, 10.054942, 9.865717 
7.917884e+3, 2.9075372e+2, -181891.75, -317497.88, 2490.5881, -0.001483516, -0.010718104, -181846.02, -91219.24, 0.0, 10.034972, 9.857477 
7.91749e+3, 3.0061945e+2, -102549.766, -207731.05, 2049.958, -0.005458101, -0.009728184, -102509.83, -102509.83, 0.0, 10.013043, 9.875406 
7.917112e+3, 3.1056005e+2, -31567.588, -94626.65, 682.3359, 0.008815531, 0.028300447, -31560.205, -31560.205, 0.0, 10.0046015, 9.921537 
7.9167014e+3, 3.2042128e+2, -62982.977, -129466.37, -0.016064012, -0.006199266, -0.011119515, -62982.977, -62982.977, 0.0, 9.991654, 9.904361 
7.9327136e+3, 1.322706e+2, -1601053.9, -1651677.9, 7118.9546, 0.0025572153, 0.00019149257, -1600071.8, 43677.68, 0.0, 10.064691, 9.996288 
7.932396e+3, 1.4226632e+2, -1503353.5, -1556659.4, 12248.021, 0.0023790763, 0.00025109705, -1500674.0, 45117.73, 0.0, 10.066355, 9.993928 
7.932103e+3, 1.5225314e+2, -1415895.5, -1479175.3, 27228.215, 0.001939538, 0.00021763524, -1405792.6, 42128.223, 0.0, 10.067936, 9.981106 
7.9318255e+3, 1.6223381e+2, -1317304.8, -1382580.0, 29472.309, 0.0024688463, -0.0000015484858, -1305967.0, 44143.19, 0.0, 10.06937, 9.97967 
7.931555e+3, 1.7220709e+2, -1227505.6, -1303098.9, 37188.03, 0.002523578, 0.00007548447, -1212278.4, 40093.723, 0.0, 10.07133, 9.967381 
7.931291e+3, 1.8217407e+2, -1128545.5, -1206847.3, 39689.48, 0.0021560686, 0.00011385537, -1111946.5, 42749.094, 0.0, 10.073203, 9.965402 
7.931029e+3, 1.9213201e+2, -1040388.06, -1130611.1, 44534.34, 0.0020088234, 0.0004143122, -1022109.06, 34998.73, 0.0, 10.074785, 9.950897 
7.93077e+3, 2.0208254e+2, -941098.2, -1034051.5, 46817.418, 0.0021983047, 0.00044735387, -921605.56, 37986.95, 0.0, 10.076713, 9.948945 
7.930506e+3, 2.1202265e+2, -852193.06, -959849.25, 48300.137, 0.0022685586, 0.00046224127, -833699.9, 28479.766, 0.0, 10.079375, 9.932106 
7.930238e+3, 2.219543e+2, -751710.7, -862637.3, 50728.563, 0.0022575485, 0.00034878025, -732010.4, 32839.324, 0.0, 10.081985, 9.930069 
7.9299587e+3, 2.3187454e+2, -665860.0, -792442.0, 47879.45, 0.0024062973, 0.00059539656, -649789.8, 17841.467, 0.0, 10.083106, 9.910894 
7.92967e+3, 2.4178506e+2, -567637.1, -695954.4, 49911.188, 0.002437452, 0.00037189, -550509.5, 19998.877, 0.0, 10.083898, 9.909144 
7.929361e+3, 2.5168326e+2, -484144.5, -628084.2, 42001.625, 0.0019028711, -0.000133034, -472784.9, 721.67474, 0.0, 10.083168, 9.888793 
7.929037e+3, 2.615722e+2, -388562.06, -531179.6, 44339.832, 0.0017227023, -0.0002446723, -375900.8, 694.5191, 0.0, 10.081366, 9.888515 
7.9286915e+3, 2.7145293e+2, -310403.5, -464263.06, 31388.62, 0.0027480654, 0.0020218105, -304246.38, -24483.248, 0.0, 10.075528, 9.869598 
7.928324e+3, 2.813227e+2, -225611.5, -372218.47, 30368.73, 0.0033612668, 0.0015827003, -219569.8, -36530.285, 0.0, 10.065806, 9.869771 
7.927926e+3, 2.9118264e+2, -160287.66, -301536.22, 17961.246, 0.0011010937, -0.0041994476, -158039.48, -71621.46, 0.0, 10.046434, 9.859393 
7.927513e+3, 3.010507e+2, -88399.375, -205426.25, 22133.451, -0.00012659145, 0.0005712488, -84353.15, -84353.15, 0.0, 10.024086, 9.868605 
7.927121e+3, 3.1095597e+2, -28193.498, -105624.05, 7618.8843, 0.01222712, 0.010356993, -27450.947, -27450.947, 0.0, 10.011779, 9.909156 
7.926697e+3, 3.208399e+2, -46686.223, -81828.37, 2002.3384, 0.0046115974, -0.0027837583, -46572.504, -46572.504, 0.0, 9.984455, 9.937664 
7.942778e+3, 1.3260649e+2, -1600037.8, -1643667.9, 7543.157, 0.002684343, 0.00007376802, -1598770.4, 41687.375, 0.0, 10.061896, 10.002781 
7.9424614e+3, 1.426088e+2, -1502204.1, -1549211.6, 13110.847, 0.0020363622, 0.000464075, -1498794.6, 43640.848, 0.0, 10.0639715, 9.999865 
7.942171e+3, 1.5260117e+2, -1413707.9, -1471520.5, 27851.164, 0.0018132132, 0.00023984817, -1402473.6, 42036.62, 0.0, 10.06637, 9.986747 
7.941895e+3, 1.6258736e+2, -1314333.4, -1374531.4, 30107.438, 0.0026109798, -0.0001382309, -1301860.0, 44785.535, 0.0, 10.0683365, 9.985314 
7.9416263e+3, 1.7256698e+2, -1223755.1, -1293153.9, 37887.39, 0.0026503794, 0.000017574095, -1207078.5, 41766.43, 0.0, 10.070143, 9.974325 
7.941364e+3, 1.8254085e+2, -1125012.0, -1197417.9, 40315.42, 0.0021650284, 0.00014576691, -1107030.3, 44070.773, 0.0, 10.072077, 9.972012 
7.941104e+3, 1.925061e+2, -1034732.94, -1118555.6, 45369.08, 0.0019173286, 0.00054162793, -1014879.25, 38562.45, 0.0, 10.074382, 9.958817 
7.9408467e+3, 2.0246461e+2, -934884.94, -1021789.75, 47807.887, 0.0020706442, 0.0006475155, -913733.1, 42115.22, 0.0, 10.076755, 9.956818 
7.9405856e+3, 2.1241333e+2, -845368.44, -945403.9, 49467.902, 0.002318133, 0.00054433435, -825038.1, 33312.375, 0.0, 10.079032, 9.941613 
7.9403204e+3, 2.2235416e+2, -746131.9, -849763.8, 51538.34, 0.0022834218, 0.00028614225, -724865.06, 36065.39, 0.0, 10.081247, 9.938789 
7.940042e+3, 2.3228344e+2, -658196.75, -777251.25, 48721.004, 0.0022899995, 0.00044553846, -640800.5, 22823.695, 0.0, 10.083217, 9.920662 
7.939754e+3, 2.4220382e+2, -559150.75, -680947.06, 50683.156, 0.002353947, 0.0005133321, -540819.06, 25585.99, 0.0, 10.084849, 9.9184 
7.939444e+3, 2.521115e+2, -475121.94, -613462.4, 42143.652, 0.0021787002, 0.000683296, -463294.6, 6014.2866, 0.0, 10.084748, 9.897442 
7.939119e+3, 2.6200846e+2, -380706.9, -518827.88, 43923.45, 0.0018707344, 0.00011052776, -367922.28, 4396.481, 0.0, 10.082893, 9.895744 
7.938766e+3, 2.7189147e+2, -306324.7, -458579.8, 28615.307, 0.0013987736, -0.00080499647, -301124.25, -25656.723, 0.0, 10.076357, 9.872648 
7.938388e+3, 2.8176597e+2, -219389.2, -360229.5, 25591.904, 0.0017279207, -0.0014484584, -214883.1, -36185.316, 0.0, 10.065652, 9.877424 
7.937976e+3, 2.916425e+2, -154139.5, -291476.47, 7744.2725, 0.005779099, 0.0036665178, -153704.19, -71802.45, 0.0, 10.046522, 9.865536 
7.937545e+3, 3.0151197e+2, -97780.73, -226203.9, 14783.283, 0.009460872, 0.01098958, -96100.94, -96100.94, 0.0, 10.023954, 9.854717 
7.937134e+3, 3.113627e+2, -49873.258, -146328.73, 4575.628, 0.01615498, -0.018071786, -49656.684, -49656.684, 0.0, 10.009186, 9.882396 
7.9366946e+3, 3.2129243e+2, 6410.6895, 32655.406, -10518.091, 0.02311627, 0.019074509, 36350.496, 36350.496, 0.0, 9.98064, 10.016136 
7.9528326e+3, 1.3293733e+2, -1614856.0, -1643885.8, 4684.417, 0.002244508, -0.00003950953, -1614118.9, 23097.467, 0.0, 10.0491, 10.009833 
7.95252e+3, 1.4294605e+2, -1513456.1, -1548916.6, 10472.06, 0.0025144967, 0.00007006085, -1510594.4, 28536.045, 0.0, 10.054059, 10.005697 
7.9522324e+3, 1.5294448e+2, -1422754.0, -1470341.0, 24553.86, 0.0020035792, 0.0005774773, -1412356.5, 28789.17, 0.0, 10.057904, 9.992304 
7.951959e+3, 1.6293663e+2, -1322594.5, -1372614.9, 26720.281, 0.0026288105, 0.0006887191, -1311005.8, 32216.66, 0.0, 10.06019, 9.991136 
7.951692e+3, 1.7292266e+2, -1230569.5, -1288678.6, 34681.75, 0.0024551481, 0.0005380455, -1214380.4, 30978.93, 0.0, 10.062078, 9.981666 
7.951432e+3, 1.829035e+2, -1131646.1, -1192598.5, 37679.04, 0.0021248213, 0.00015201335, -1113660.9, 33885.8, 0.0, 10.064027, 9.979541 
7.951175e+3, 1.9287646e+2, -1039422.5, -1110458.5, 43611.816, 0.002632224, -0.00042973645, -1018695.3, 31116.455, 0.0, 10.066591, 9.968255 
7.9509205e+3, 2.0284373e+2, -939805.6, -1014153.2, 46629.42, 0.0029062002, -0.00091369246, -917345.56, 34787.082, 0.0, 10.068955, 9.965887 
7.9506594e+3, 2.1280281e+2, -849252.06, -934393.8, 49357.117, 0.0018944435, -0.0007933255, -826643.1, 27890.264, 0.0, 10.070658, 9.953053 
7.9503965e+3, 2.2275539e+2, -750008.6, -838253.9, 53035.813, 0.0013243275, -0.0007049162, -725141.4, 31856.822, 0.0, 10.072693, 9.950549 
7.950121e+3, 2.3269826e+2, -658840.0, -760515.8, 52697.914, 0.0017305345, -0.00012967114, -636455.2, 23102.94, 0.0, 10.075298, 9.9353 
7.9498357e+3, 2.4263285e+2, -559310.2, -664972.5, 57176.95, 0.0020532538, 0.00007360602, -534293.2, 27906.059, 0.0, 10.077752, 9.93189 
7.949527e+3, 2.525545e+2, -471662.2, -592919.6, 52018.273, 0.0021484394, -0.000049961218, -452405.1, 12561.554, 0.0, 10.078913, 9.912844 
7.949201e+3, 2.6246673e+2, -375303.8, -498584.4, 57898.367, 0.002022486, 0.00003307014, -352376.13, 15450.724, 0.0, 10.078946, 9.909491 
7.948842e+3, 2.723647e+2, -298648.38, -436249.8, 46967.74, 0.002340171, 0.00084758986, -284145.38, -13316.779, 0.0, 10.073344, 9.88631 
7.948454e+3, 2.8225228e+2, -208168.83, -333526.75, 49649.21, 0.0031470002, -0.0001313925, -190887.2, -16957.15, 0.0, 10.063806, 9.89246 
7.948019e+3, 2.9213613e+2, -144052.17, -277013.3, 35088.004, 0.00053116545, 0.0013887639, -135360.72, -58298.707, 0.0, 10.048569, 9.869502 
7.9475594e+3, 3.0200744e+2, -78176.234, -209012.8, 47186.41, -0.009713665, 0.0065940856, -62934.063, -62934.063, 0.0, 10.03359, 9.856573 
7.947101e+3, 3.1184685e+2, -54636.047, -165032.89, 33470.875, -0.032642532, -0.024981607, -45280.887, -45280.887, 0.0, 10.011686, 9.863206 
7.946651e+3, 3.2174885e+2, 15871.691, 26692.25, 3234.7292, -0.013537049, 0.0010257742, 27585.51, 27585.51, 0.0, 9.991258, 10.004632 
7.96288e+3, 1.3326284e+2, -1614996.4, -1636777.8, 6272.3057, 0.0019700506, 0.00009163322, -1613319.3, 20706.867, 0.0, 10.0458555, 10.016132 
7.962575e+3, 1.4327735e+2, -1510533.0, -1541173.3, 11590.101, 0.0028652113, -0.000102824226, -1506642.8, 29240.686, 0.0, 10.053195, 10.011166 
7.96229e+3, 1.5328135e+2, -1420732.1, -1462715.4, 24554.29, 0.002008407, 0.0004968848, -1409419.5, 28424.67, 0.0, 10.056211, 9.998079 
7.962019e+3, 1.6327952e+2, -1320879.9, -1364718.0, 26820.875, 0.002485486, 0.0007465738, -1308160.8, 31701.324, 0.0, 10.058122, 9.997299 
7.961754e+3, 1.732727e+2, -1226387.8, -1277297.0, 34787.68, 0.0023621907, 0.0005755987, -1208736.5, 33192.316, 0.0, 10.060599, 9.989733 
7.9614955e+3, 1.8326154e+2, -1127174.4, -1181052.6, 37952.73, 0.0020451078, 0.00012334264, -1107571.9, 36466.117, 0.0, 10.062764, 9.987639 
7.961241e+3, 1.9324367e+2, -1033607.6, -1095427.5, 43937.33, 0.0027563125, -0.00066585315, -1010796.9, 35415.957, 0.0, 10.064974, 9.9788065 
7.9609895e+3, 2.0322119e+2, -934243.06, -999531.06, 46805.316, 0.0030545923, -0.0013506906, -909822.44, 38610.633, 0.0, 10.067322, 9.976218 
7.96073e+3, 2.1319222e+2, -839690.56, -914057.0, 49841.117, 0.0016314603, -0.0012663779, -814690.75, 36026.355, 0.0, 10.070054, 9.966561 
7.9604685e+3, 2.2315854e+2, -739747.4, -817467.8, 53760.23, 0.00080269, -0.000913253, -712273.0, 40774.254, 0.0, 10.072583, 9.964173 
7.9601955e+3, 2.3311758e+2, -646417.8, -733571.75, 53270.55, 0.0014340297, -0.000038506383, -621171.06, 34277.1, 0.0, 10.074431, 9.953375 
7.959913e+3, 2.4306975e+2, -548975.75, -640662.6, 57462.14, 0.0019198988, -0.000049959428, -521310.56, 36606.066, 0.0, 10.076242, 9.948633 
7.9596055e+3, 2.530104e+2, -456121.0, -559260.75, 52817.44, 0.0018770007, -0.0007224072, -433872.63, 26625.738, 0.0, 10.078015, 9.935391 
7.959279e+3, 2.629454e+2, -360452.44, -467515.1, 57899.094, 0.0012954043, 0.00040521458, -335130.06, 28005.43, 0.0, 10.078518, 9.930031 
7.958917e+3, 2.7286762e+2, -278682.47, -398269.44, 46218.047, 0.004284105, 0.0036844537, -262902.34, 2995.6187, 0.0, 10.0743885, 9.910499 
7.9585195e+3, 2.827779e+2, -186732.22, -292847.75, 46250.055, 0.004857561, 0.0009965595, -169403.95, -627.2779, 0.0, 10.064686, 9.9183855 
7.9580563e+3, 2.92674e+2, -139090.8, -267086.1, 32541.898, -0.012772677, -0.004795071, -131292.39, -59500.19, 0.0, 10.048041, 9.875445 
7.9576284e+3, 3.0254787e+2, -52660.45, -195104.27, 36521.05, 0.033493366, -0.0040413104, -43842.7, -43842.7, 0.0, 10.049705, 9.858234 
7.9571396e+3, 3.124231e+2, 15345.883, -163551.66, -2820.9058, 0.0018561708, 0.016550388, 15390.353, 15390.353, 0.0, 10.071756, 9.837341 
7.956666e+3, 3.222368e+2, -19907.912, -62089.785, -549.17596, 0.014320563, -0.0073205642, -19900.764, -19900.764, 0.0, 9.998676, 9.941547 
7.972921e+3, 1.3357857e+2, -1625789.0, -1638234.8, 2961.4832, 0.0021902865, 0.0012268911, -1625120.3, 5810.0293, 0.0, 10.037394, 10.020478 
7.9726243e+3, 1.4359735e+2, -1518213.9, -1540482.6, 5902.3794, 0.002907613, 0.00065730675, -1516746.1, 16000.839, 0.0, 10.046279, 10.015975 
7.972342e+3, 1.5360476e+2, -1427931.3, -1461236.9, 16777.008, 0.0015575022, -0.0007383822, -1420945.5, 13729.752, 0.0, 10.049184, 10.003353 
7.9720724e+3, 1.6360757e+2, -1328106.4, -1362547.4, 19118.01, 0.0023557174, -0.0015453085, -1319596.6, 17051.553, 0.0, 10.050765, 10.003216 
7.971811e+3, 1.7360832e+2, -1232481.8, -1272326.6, 26592.68, 0.003367431, -0.00094650075, -1219176.5, 19464.203, 0.0, 10.05292, 9.997594 
7.9715544e+3, 1.836061e+2, -1134401.6, -1177199.6, 29148.9, 0.0025820537, 0.00031052105, -1119640.1, 21022.025, 0.0, 10.054564, 9.995078 
7.971299e+3, 1.9359934e+2, -1040338.1, -1088269.9, 34737.152, 0.00037088938, 0.002428948, -1022101.75, 20626.299, 0.0, 10.055673, 9.988921 
7.971049e+3, 2.0358872e+2, -941650.1, -991504.3, 37755.242, 0.0006912401, 0.0034767864, -921335.44, 23496.281, 0.0, 10.057037, 9.987432 
7.9707956e+3, 2.1357287e+2, -845172.9, -900435.7, 41249.59, 0.003814703, 0.0032552679, -823155.3, 23831.873, 0.0, 10.058965, 9.981794 
7.970538e+3, 2.2355315e+2, -748015.1, -805825.25, 45101.652, 0.004733623, 0.0025046729, -723351.0, 25829.504, 0.0, 10.0598545, 9.978884 
7.9702634e+3, 2.3352769e+2, -654823.56, -716064.25, 45301.125, 0.0027113913, 0.0011761962, -630764.9, 20665.258, 0.0, 10.058967, 9.97323 
7.96998e+3, 2.434994e+2, -559600.9, -622201.44, 51634.465, 0.0018331982, 0.00014164396, -530520.5, 23186.877, 0.0, 10.058431, 9.970178 
7.969673e+3, 2.5346634e+2, -464265.7, -529736.6, 49401.92, 0.0020129813, -0.0001470615, -437737.7, 18293.615, 0.0, 10.057557, 9.96531 
7.9693466e+3, 2.6343012e+2, -373161.56, -438837.8, 57247.766, 0.0023480144, -0.00049275364, -340002.34, 18383.48, 0.0, 10.054287, 9.960772 
7.968978e+3, 2.73387e+2, -286458.25, -350840.94, 53027.695, 0.0048515843, -0.00028538756, -256615.58, 4191.556, 0.0, 10.046424, 9.954503 
7.968572e+3, 2.8333926e+2, -198216.66, -253266.0, 61467.945, 0.0056483923, -0.0021749174, -158392.13, 4882.735, 0.0, 10.0366125, 9.955619 
7.9680824e+3, 2.9328942e+2, -158314.9, -197285.5, 61579.094, -0.009168184, -0.000099835335, -113211.805, -47448.746, 0.0, 9.999002, 9.938705 
7.98296e+3, 1.3388231e+2, -1622765.6, -1631784.5, 3563.5986, 0.0024559742, 0.0009972608, -1621527.5, 6426.0376, 0.0, 10.037242, 10.024865 
7.982668e+3, 1.4390597e+2, -1522079.9, -1537153.8, 6655.0747, 0.0028372863, 0.000749689, -1519562.1, 10160.55, 0.0, 10.041518, 10.020799 
7.98239e+3, 1.5391853e+2, -1428014.6, -1455079.6, 16680.324, 0.0015131832, -0.00059326395, -1420067.8, 11532.52, 0.0, 10.046308, 10.0088215 
7.982123e+3, 1.6392635e+2, -1326333.8, -1355902.1, 19587.11, 0.0025526015, -0.0016804897, -1316577.6, 16946.605, 0.0, 10.049335, 10.008251 
7.981864e+3, 1.7393282e+2, -1228321.1, -1262524.6, 26247.48, 0.003596469, -0.0012946862, -1214095.5, 21365.31, 0.0, 10.052136, 10.004353 
7.981609e+3, 1.8393728e+2, -1129651.8, -1167084.9, 28249.541, 0.0026477838, -0.00006285511, -1114481.0, 22935.861, 0.0, 10.054164, 10.001884 
7.981355e+3, 1.939391e+2, -1032913.9, -1073230.3, 33662.086, 0.0000017011043, 0.0022091705, -1013835.75, 25562.947, 0.0, 10.055408, 9.998842 
7.981106e+3, 2.0393908e+2, -934736.4, -975511.2, 36799.71, 0.00021736324, 0.0036337285, -913054.0, 28344.414, 0.0, 10.055941, 9.9984665 
7.980855e+3, 2.1393694e+2, -837822.5, -878772.94, 39977.164, 0.0044579166, 0.0035035086, -813382.1, 30037.08, 0.0, 10.055725, 9.997672 
7.980599e+3, 2.2393277e+2, -741318.25, -784323.2, 43796.414, 0.0059925513, 0.0024147527, -714030.56, 31429.684, 0.0, 10.056135, 9.994926 
7.980322e+3, 2.3392597e+2, -639895.5, -683034.94, 44581.31, 0.002843988, 0.00015988995, -611940.06, 35587.652, 0.0, 10.057471, 9.995721 
7.980038e+3, 2.4392064e+2, -543340.7, -586764.0, 51591.938, 0.0009562023, -0.0010592389, -509078.0, 40502.13, 0.0, 10.05718, 9.994252 
7.979731e+3, 2.5391716e+2, -443289.3, -481402.1, 47849.742, 0.0021488941, -0.0007020454, -410840.9, 40772.59, 0.0, 10.054785, 9.998837 
7.979401e+3, 2.6391494e+2, -353336.22, -388968.03, 53615.21, 0.002657971, -0.0020339494, -314654.38, 38979.91, 0.0, 10.04976, 9.996299 
7.979022e+3, 2.7391765e+2, -249857.83, -265776.97, 48213.258, 0.0019687621, -0.004387382, -208951.53, 46655.633, 0.0, 10.041507, 10.01418 
7.9786086e+3, 2.8392678e+2, -173413.22, -192541.58, 54267.37, 0.0055740615, -0.0049880096, -127873.67, 29643.664, 0.0, 10.031588, 9.998862 
7.978094e+3, 2.9396266e+2, -65658.086, -16362.208, 38590.438, 0.0069527044, 0.0026641241, 4780.0566, 63947.453, 0.0, 9.9999275, 10.059943 
7.992995e+3, 1.3416818e+2, -1622706.9, -1627539.5, -3643.728, 0.001556187, -0.004315409, -1620751.1, 4404.572, 0.0, 10.035286, 10.029085 
7.9927063e+3, 1.4419863e+2, -1525589.3, -1533926.6, 1228.8846, 0.002278664, -0.0017877943, -1525411.9, 1443.7185, 0.0, 10.037106, 10.025854 
7.992435e+3, 1.5422249e+2, -1430420.3, -1450147.6, 9542.791, 0.002877401, 0.00367507, -1426559.6, 2060.2722, 0.0, 10.041974, 10.014894 
7.99217e+3, 1.6423751e+2, -1331174.4, -1356826.3, 11313.9795, 0.0025629385, 0.006311433, -1326897.4, 3574.247, 0.0, 10.045544, 10.010426 
7.9919106e+3, 1.7424531e+2, -1232414.0, -1261683.4, 16049.661, -0.00026897655, 0.0049430286, -1225328.5, 7067.041, 0.0, 10.048122, 10.007827 
7.9916596e+3, 1.8424945e+2, -1133441.8, -1164199.0, 16199.829, 0.0014384828, 0.0007396647, -1126483.5, 7871.501, 0.0, 10.04943, 10.007126 
7.9914147e+3, 1.9425057e+2, -1035494.44, -1065529.8, 20259.977, 0.00917465, -0.006999495, -1025293.1, 11050.727, 0.0, 10.049498, 10.007837 
7.991163e+3, 2.0425528e+2, -940306.94, -968908.2, 21611.145, 0.007905622, -0.010888755, -928693.3, 9604.191, 0.0, 10.047795, 10.007946 
7.9908967e+3, 2.1426585e+2, -844603.25, -867165.06, 23488.402, -0.004772345, -0.010343922, -829827.2, 10366.457, 0.0, 10.044188, 10.0122175 
7.9906356e+3, 2.2428183e+2, -748370.5, -767920.7, 28535.139, -0.007563469, -0.0068296785, -727982.56, 14053.929, 0.0, 10.042306, 10.013938 
7.9903704e+3, 2.3430513e+2, -643088.25, -657560.06, 29184.46, 0.00050295715, 0.00019938465, -620256.0, 23551.324, 0.0, 10.043014, 10.021162 
7.9900885e+3, 2.4432713e+2, -551857.7, -565603.44, 34444.7, 0.004089158, 0.0027901365, -523606.88, 21984.67, 0.0, 10.039736, 10.018296 
7.989774e+3, 2.5434878e+2, -454207.7, -454699.44, 28847.732, 0.0025434068, 0.00040749993, -425604.78, 21775.318, 0.0, 10.032644, 10.029142 
7.989435e+3, 2.6438108e+2, -366980.9, -362872.44, 32173.576, 0.00039355154, 0.003945352, -332687.56, 16376.512, 0.0, 10.025416, 10.027571 
7.989044e+3, 2.744249e+2, -267327.84, -238089.14, 13759.558, -0.0018187177, 0.010828262, -232632.36, 18002.344, 0.0, 10.012742, 10.050231 
7.988619e+3, 2.84467e+2, -193707.05, -162816.38, 7871.0186, 0.0011670928, 0.0055435626, -160926.44, -8704.504, 0.0, 9.99948, 10.0399885 
7.9881084e+3, 2.94528e+2, -2616.3726, 33296.457, -32871.027, 0.00020665505, -0.0025241785, 52795.848, 106419.91, 0.0, 10.036376, 10.089354 
8.0030316e+3, 1.34466e+2, -1620049.6, -1629171.3, 2797.7961, 0.004449284, 0.003334621, -1619259.9, 2973.828, 0.0, 10.038352, 10.025947 
8.0027425e+3, 1.4448899e+2, -1524766.8, -1537075.4, 3079.0732, 0.00034511424, 0.0009074548, -1524039.5, -30.230251, 0.0, 10.039458, 10.022769 
8.002475e+3, 1.5450324e+2, -1428907.4, -1452898.5, 1249.102, 0.00037510216, -0.0020339596, -1428842.6, -2971.643, 0.0, 10.044657, 10.012487 
8.002216e+3, 1.6451561e+2, -1325653.0, -1352265.6, -2342.69, 0.0032090333, -0.0026187594, -1325448.4, 2301.497, 0.0, 10.048352, 10.012929 
8.0019635e+3, 1.7452775e+2, -1228605.1, -1256475.3, 2533.8784, 0.005585553, -0.0026495096, -1228376.6, 1253.6289, 0.0, 10.049074, 10.011627 
8.001709e+3, 1.8454145e+2, -1132242.3, -1159153.6, 2249.0464, 0.0026010056, -0.00020038709, -1132055.6, -559.4906, 0.0, 10.048128, 10.011993 
8.001454e+3, 1.9455923e+2, -1034588.44, -1056762.4, 4930.729, -0.001833234, 0.0043175467, -1033541.44, -219.63518, 0.0, 10.046211, 10.016186 
8.0012053e+3, 2.0457627e+2, -937628.0, -959330.06, 4904.1704, 0.00094469875, 0.0054449397, -936571.25, -1416.5823, 0.0, 10.04571, 10.0163355 
8.0009514e+3, 2.1459879e+2, -830741.25, -846164.8, 4795.576, 0.0068557463, 0.0069055385, -829371.75, 7561.503, 0.0, 10.046847, 10.025825 
8.0006886e+3, 2.2462256e+2, -739302.8, -748907.4, 5985.561, 0.0044985972, 0.0029712084, -736431.2, 2268.9165, 0.0, 10.041635, 10.028359 
8.0004114e+3, 2.3465413e+2, -645703.5, -636901.1, -838.91064, 0.0005335976, -0.002394124, -636821.94, 3568.4043, 0.0, 10.031182, 10.043034 
8.0001247e+3, 2.4469922e+2, -551499.25, -539432.75, 1614.0721, 0.001740651, -0.00041551737, -539220.6, 2727.3076, 0.0, 10.028075, 10.044148 
7.999809e+3, 2.5475347e+2, -433097.7, -413125.53, -2859.8022, 0.004040207, 0.001965269, -412724.1, 30692.143, 0.0, 10.032702, 10.059818 
7.999463e+3, 2.6480743e+2, -341398.25, -319762.13, 3424.6675, 0.00059310975, -0.0050332113, -319233.0, 25654.586, 0.0, 10.028779, 10.057555 
7.999064e+3, 2.748696e+2, -237974.5, -209994.39, -4144.071, 0.004802138, -0.003867125, -209393.53, 36884.5, 0.0, 10.026035, 10.063942 
7.998619e+3, 2.8493804e+2, -156172.3, -114860.35, -2340.615, 0.0024317945, -0.0024793898, -114728.164, 32879.27, 0.0, 10.011515, 10.067452 
7.998145e+3, 2.9499143e+2, -64069.77, -69310.95, -6995.837, 0.0038587903, 0.0007869531, -59219.805, -10136.525, 0.0, 10.029792, 10.023329 
