coord_x,coord_y,stress_xx,stress_yy,tau_xy,velocity_x,velocity_y,stress_1,eps,damage,lx,ly
5.0e+0, 1.2499334e+2, -1719946.3, -1724224.6, 0.00004129911, 0.00000000022623377, 0.000017597877, -1719946.3, -4880.9644, 0.0, 10.0, 9.994328 
5.0e+0, 1.349876e+2, -1622565.8, -1627434.9, 0.00004126584, 0.00000000021970967, -0.00006840356, -1622565.8, -5444.1772, 0.0, 10.0, 9.993545 
5.0e+0, 1.4497513e+2, -1534464.4, -1548146.3, 0.00003954205, 0.00000000021605191, 0.000070916154, -1534464.4, -15220.685, 0.0, 10.0, 9.981865 
5.0e+0, 1.5495701e+2, -1436736.6, -1450821.9, 0.000029620274, 0.00000000021525853, -0.000056981477, -1436736.6, -15315.502, 0.0, 10.0, 9.981333 
5.0e+0, 1.6493228e+2, -1348685.8, -1371952.4, 0.000028136164, 0.00000000021424017, 0.0000473413, -1348685.8, -25021.996, 0.0, 10.0, 9.969248 
5.0e+0, 1.7490156e+2, -1250727.6, -1274310.1, 0.00002523339, 0.00000000021299205, -0.000073832336, -1250727.6, -24762.975, 0.0, 10.0, 9.968835 
5.0e+0, 1.8486421e+2, -1162646.8, -1195720.1, 0.000024157325, 0.00000000021173269, 0.00006614321, -1162646.8, -34316.027, 0.0, 10.0, 9.956395 
5.0e+0, 1.9482064e+2, -1064497.0, -1097833.0, 0.000013063572, 0.0000000002104614, -0.000057657922, -1064497.0, -33739.363, 0.0, 10.0, 9.956052 
5.0e+0, 2.0477042e+2, -976333.0, -1019435.0, 0.000011973921, 0.00000000020945884, 0.00006807676, -976333.0, -43083.11, 0.0, 10.0, 9.943291 
5.0e+0, 2.1471375e+2, -878046.0, -921409.9, 0.000009762271, 0.00000000020874724, -0.0001268288, -878046.0, -42240.69, 0.0, 10.0, 9.942949 
5.0e+0, 2.2465037e+2, -789759.9, -843144.9, 0.000009936655, 0.00000000020738682, 0.00012087838, -789759.9, -51333.586, 0.0, 10.0, 9.929908 
5.0e+0, 2.3458035e+2, -691326.4, -744966.44, 0.00000013972522, 0.00000000020529174, -0.00008881919, -691326.4, -50213.82, 0.0, 10.0, 9.929577 
5.0e+0, 2.4450338e+2, -603002.3, -667018.8, -0.00000027779166, 0.00000000020496162, 0.000074708085, -603002.3, -59135.418, 0.0, 10.0, 9.916136 
5.0e+0, 2.5441962e+2, -504249.63, -568343.3, -0.0000030785968, 0.00000000020674032, -0.00010673753, -504249.63, -57562.08, 0.0, 10.0, 9.916036 
5.0e+0, 2.643288e+2, -416014.22, -490987.88, -0.0000007307781, 0.00000000020618175, 0.00014059345, -416014.22, -66436.55, 0.0, 10.0, 9.901964 
5.0e+0, 2.742313e+2, -316729.0, -391374.78, -0.00000868244, 0.00000000020264346, -0.00020344478, -316729.0, -64195.996, 0.0, 10.0, 9.902385 
5.0e+0, 2.841256e+2, -230255.75, -318081.25, -0.000008707551, 0.0000000002011395, 0.00022904525, -230255.75, -74686.77, 0.0, 10.0, 9.885439 
5.0e+0, 2.940121e+2, -130549.6, -217765.02, -0.000013788822, 0.00000000020243326, -0.00025334352, -130549.6, -71868.21, 0.0, 10.0, 9.886217 
5.0e+0, 3.0392656e+2, -40805.59, -84750.16, -0.000009203865, 0.00000000020364159, 0.00017313573, -40805.59, -40805.59, 0.0, 10.0, 9.942173 
5.0e+0, 3.138706e+2, -39727.58, -82511.21, -0.000010679135, 0.0000000002046968, -0.00005514294, -39727.58, -39727.58, 0.0, 10.0, 9.943685 
1.5e+1, 1.2499334e+2, -1719946.3, -1724224.6, -0.000055437737, 0.0000000006787013, 0.000017597891, -1719946.3, -4880.9644, 0.0, 10.0, 9.994328 
1.5e+1, 1.349876e+2, -1622565.8, -1627434.9, -0.000055494518, 0.00000000065912903, -0.00006840356, -1622565.8, -5444.1772, 0.0, 10.0, 9.993545 
1.5e+1, 1.4497513e+2, -1534464.4, -1548146.3, -0.00005114617, 0.00000000064815575, 0.00007091616, -1534464.4, -15220.685, 0.0, 10.0, 9.981865 
1.5e+1, 1.5495701e+2, -1436736.6, -1450821.9, -0.00006105892, 0.0000000006457756, -0.000056981462, -1436736.6, -15315.503, 0.0, 10.0, 9.981333 
1.5e+1, 1.6493228e+2, -1348685.8, -1371952.4, -0.000052909236, 0.0000000006427205, 0.00004734131, -1348685.8, -25021.996, 0.0, 10.0, 9.969248 
1.5e+1, 1.7490156e+2, -1250727.6, -1274310.1, -0.000055761895, 0.00000000063897615, -0.00007383234, -1250727.6, -24762.975, 0.0, 10.0, 9.968835 
1.5e+1, 1.8486421e+2, -1162646.8, -1195720.1, -0.000045401765, 0.00000000063519806, 0.000066143206, -1162646.8, -34316.027, 0.0, 10.0, 9.956395 
1.5e+1, 1.9482064e+2, -1064497.0, -1097833.0, -0.000056363842, 0.00000000063138417, -0.00005765791, -1064497.0, -33739.363, 0.0, 10.0, 9.956052 
1.5e+1, 2.0477042e+2, -976333.0, -1019435.0, -0.000046000456, 0.0000000006283765, 0.00006807678, -976333.0, -43083.11, 0.0, 10.0, 9.943291 
1.5e+1, 2.1471375e+2, -878046.0, -921409.9, -0.000047976326, 0.0000000006262417, -0.0001268288, -878046.0, -42240.69, 0.0, 10.0, 9.942949 
1.5e+1, 2.2465037e+2, -789759.9, -843144.9, -0.00003579906, 0.00000000062216043, 0.00012087837, -789759.9, -51333.586, 0.0, 10.0, 9.929908 
1.5e+1, 2.3458035e+2, -691326.4, -744966.44, -0.00004520416, 0.00000000061587524, -0.000088819186, -691326.4, -50213.82, 0.0, 10.0, 9.929577 
1.5e+1, 2.4450338e+2, -603002.3, -667018.8, -0.000032834585, 0.00000000061488487, 0.00007470809, -603002.3, -59135.418, 0.0, 10.0, 9.916136 
1.5e+1, 2.5441962e+2, -504249.63, -568343.3, -0.000035021792, 0.000000000620221, -0.00010673752, -504249.63, -57562.08, 0.0, 10.0, 9.916036 
1.5e+1, 2.643288e+2, -416014.22, -490987.88, -0.000017113543, 0.00000000061854527, 0.00014059343, -416014.22, -66436.55, 0.0, 10.0, 9.901964 
1.5e+1, 2.742313e+2, -316729.0, -391374.78, -0.000024022926, 0.0000000006079304, -0.00020344478, -316729.0, -64195.996, 0.0, 10.0, 9.902385 
1.5e+1, 2.841256e+2, -230255.75, -318081.25, -0.000009408384, 0.0000000006034185, 0.00022904525, -230255.75, -74686.77, 0.0, 10.0, 9.885439 
1.5e+1, 2.940121e+2, -130549.6, -217765.02, -0.000013171613, 0.0000000006072998, -0.00025334352, -130549.6, -71868.21, 0.0, 10.0, 9.886217 
1.5e+1, 3.0392656e+2, -40805.59, -84750.16, 0.000009072163, 0.0000000006109248, 0.00017313573, -40805.59, -40805.59, 0.0, 10.0, 9.942173 
1.5e+1, 3.138706e+2, -39727.58, -82511.21, 0.000009668816, 0.0000000006140904, -0.00005514296, -39727.58, -39727.58, 0.0, 10.0, 9.943685 
2.5e+1, 1.2499334e+2, -1719946.3, -1724224.6, 0.00004853968, 0.0000000011243856, 0.000017597898, -1719946.3, -4880.9644, 0.0, 10.0, 9.994328 
2.5e+1, 1.349876e+2, -1622565.8, -1627434.9, 0.000029940395, 0.0000000010993427, -0.000068403555, -1622565.8, -5444.177, 0.0, 10.0, 9.993545 
2.5e+1, 1.4497513e+2, -1534464.4, -1548146.3, 0.00002743971, 0.0000000010843618, 0.00007091617, -1534464.4, -15220.685, 0.0, 10.0, 9.981865 
2.5e+1, 1.5495701e+2, -1436736.6, -1450821.9, 0.0000040343675, 0.0000000010794089, -0.00005698145, -1436736.6, -15315.502, 0.0, 10.0, 9.981333 
2.5e+1, 1.6493228e+2, -1348685.8, -1371952.4, 0.000007911752, 0.0000000010730663, 0.000047341313, -1348685.8, -25021.996, 0.0, 10.0, 9.969248 
2.5e+1, 1.7490156e+2, -1250727.6, -1274310.1, -0.0000089918285, 0.0000000010653043, -0.00007383235, -1250727.6, -24762.975, 0.0, 10.0, 9.968835 
2.5e+1, 1.8486421e+2, -1162646.8, -1195720.1, -0.0000013866623, 0.0000000010585804, 0.000066143206, -1162646.8, -34316.027, 0.0, 10.0, 9.956395 
2.5e+1, 1.9482064e+2, -1064497.0, -1097833.0, -0.000025522988, 0.0000000010529422, -0.000057657904, -1064497.0, -33739.363, 0.0, 10.0, 9.956052 
2.5e+1, 2.0477042e+2, -976333.0, -1019435.0, -0.000016948745, 0.000000001047802, 0.000068076784, -976333.0, -43083.11, 0.0, 10.0, 9.943291 
2.5e+1, 2.1471375e+2, -878046.0, -921409.9, -0.000032536143, 0.0000000010432006, -0.0001268288, -878046.0, -42240.69, 0.0, 10.0, 9.942949 
2.5e+1, 2.2465037e+2, -789759.9, -843144.9, -0.00002086288, 0.0000000010375198, 0.00012087837, -789759.9, -51333.586, 0.0, 10.0, 9.929908 
2.5e+1, 2.3458035e+2, -691326.4, -744966.44, -0.000041602565, 0.0000000010306165, -0.000088819186, -691326.4, -50213.82, 0.0, 10.0, 9.929577 
2.5e+1, 2.4450338e+2, -603002.3, -667018.8, -0.000028547602, 0.0000000010276888, 0.00007470809, -603002.3, -59135.418, 0.0, 10.0, 9.916136 
2.5e+1, 2.5441962e+2, -504249.63, -568343.3, -0.00004412423, 0.0000000010295106, -0.00010673752, -504249.63, -57562.08, 0.0, 10.0, 9.916036 
2.5e+1, 2.643288e+2, -416014.22, -490987.88, -0.000024247152, 0.0000000010265767, 0.00014059345, -416014.22, -66436.55, 0.0, 10.0, 9.901964 
2.5e+1, 2.742313e+2, -316729.0, -391374.78, -0.000040959752, 0.000000001017578, -0.00020344478, -316729.0, -64195.996, 0.0, 10.0, 9.902385 
2.5e+1, 2.841256e+2, -230255.73, -318081.25, -0.0000227045, 0.0000000010131054, 0.00022904525, -230255.73, -74686.77, 0.0, 10.0, 9.885439 
2.5e+1, 2.940121e+2, -130549.6, -217765.02, -0.0000374103, 0.0000000010148543, -0.00025334352, -130549.6, -71868.21, 0.0, 10.0, 9.886217 
2.5e+1, 3.0392656e+2, -40805.59, -84750.16, -0.000010261108, 0.0000000010179717, 0.00017313573, -40805.59, -40805.59, 0.0, 10.0, 9.942173 
2.5e+1, 3.138706e+2, -39727.58, -82511.21, -0.000018947805, 0.0000000010230621, -0.00005514297, -39727.58, -39727.58, 0.0, 10.0, 9.943685 
3.5e+1, 1.2499334e+2, -1719946.3, -1724224.6, -0.000052211788, 0.0000000015632866, 0.000017597895, -1719946.3, -4880.9644, 0.0, 10.0, 9.994328 
3.5e+1, 1.349876e+2, -1622565.8, -1627434.9, -0.00007083539, 0.0000000015403506, -0.00006840355, -1622565.8, -5444.177, 0.0, 10.0, 9.993545 
3.5e+1, 1.4497513e+2, -1534464.4, -1548146.3, -0.00006183703, 0.0000000015246701, 0.0000709162, -1534464.4, -15220.685, 0.0, 10.0, 9.981865 
3.5e+1, 1.5495701e+2, -1436736.6, -1450821.9, -0.00008522504, 0.0000000015161585, -0.000056981444, -1436736.6, -15315.502, 0.0, 10.0, 9.981333 
3.5e+1, 1.6493228e+2, -1348685.8, -1371952.4, -0.00007261893, 0.0000000015052775, 0.000047341317, -1348685.8, -25021.996, 0.0, 10.0, 9.969248 
3.5e+1, 1.7490156e+2, -1250727.6, -1274310.1, -0.00008947712, 0.0000000014919765, -0.000073832336, -1250727.6, -24762.975, 0.0, 10.0, 9.968835 
3.5e+1, 1.8486421e+2, -1162646.8, -1195720.1, -0.00007198765, 0.00000000148188, 0.00006614321, -1162646.8, -34316.027, 0.0, 10.0, 9.956395 
3.5e+1, 1.9482064e+2, -1064497.0, -1097833.0, -0.000096010284, 0.0000000014751353, -0.0000576579, -1064497.0, -33739.363, 0.0, 10.0, 9.956052 
3.5e+1, 2.0477042e+2, -976333.0, -1019435.0, -0.000075813055, 0.0000000014677353, 0.000068076784, -976333.0, -43083.11, 0.0, 10.0, 9.943291 
3.5e+1, 2.1471375e+2, -878046.0, -921409.9, -0.00009116117, 0.000000001459624, -0.00012682879, -878046.0, -42240.69, 0.0, 10.0, 9.942949 
3.5e+1, 2.2465037e+2, -789759.9, -843144.9, -0.00006712594, 0.000000001453465, 0.00012087838, -789759.9, -51333.586, 0.0, 10.0, 9.929908 
3.5e+1, 2.3458035e+2, -691326.4, -744966.44, -0.00008746203, 0.0000000014495154, -0.000088819186, -691326.4, -50213.82, 0.0, 10.0, 9.929577 
3.5e+1, 2.4450338e+2, -603002.3, -667018.8, -0.00006049461, 0.0000000014433734, 0.00007470809, -603002.3, -59135.418, 0.0, 10.0, 9.916136 
3.5e+1, 2.5441962e+2, -504249.63, -568343.3, -0.00007540358, 0.0000000014346093, -0.00010673751, -504249.63, -57562.08, 0.0, 10.0, 9.916036 
3.5e+1, 2.643288e+2, -416014.22, -490987.88, -0.000042035004, 0.000000001430276, 0.00014059345, -416014.22, -66436.55, 0.0, 10.0, 9.901964 
3.5e+1, 2.742313e+2, -316729.0, -391374.78, -0.00005784404, 0.0000000014315863, -0.00020344478, -316729.0, -64195.996, 0.0, 10.0, 9.902385 
3.5e+1, 2.841256e+2, -230255.73, -318081.25, -0.000024067995, 0.0000000014302003, 0.00022904524, -230255.73, -74686.77, 0.0, 10.0, 9.885439 
3.5e+1, 2.940121e+2, -130549.6, -217765.02, -0.00003737638, 0.0000000014250967, -0.00025334352, -130549.6, -71868.21, 0.0, 10.0, 9.886217 
3.5e+1, 3.0392656e+2, -40805.59, -84750.16, 0.000004964772, 0.0000000014247823, 0.00017313573, -40805.59, -40805.59, 0.0, 10.0, 9.942173 
3.5e+1, 3.138706e+2, -39727.58, -82511.21, -0.0000019396161, 0.0000000014316119, -0.000055142973, -39727.58, -39727.58, 0.0, 10.0, 9.943685 
4.5e+1, 1.2499334e+2, -1719946.3, -1724224.6, 0.00006998278, 0.0000000020035236, 0.000017597895, -1719946.3, -4880.964, 0.0, 10.0, 9.994328 
4.5e+1, 1.349876e+2, -1622565.8, -1627434.9, 0.000019020026, 0.0000000019796271, -0.00006840354, -1622565.8, -5444.1763, 0.0, 10.0, 9.993545 
4.5e+1, 1.4497513e+2, -1534464.4, -1548146.3, 0.000019523255, 0.0000000019626774, 0.00007091623, -1534464.4, -15220.684, 0.0, 10.0, 9.981865 
4.5e+1, 1.5495701e+2, -1436736.6, -1450821.9, -0.000011881935, 0.0000000019525521, -0.000056981444, -1436736.6, -15315.502, 0.0, 10.0, 9.981333 
4.5e+1, 1.6493228e+2, -1348685.8, -1371952.4, -0.000005189461, 0.0000000019389088, 0.000047341317, -1348685.8, -25021.994, 0.0, 10.0, 9.969248 
4.5e+1, 1.7490156e+2, -1250727.6, -1274310.1, -0.000046762525, 0.0000000019216728, -0.000073832314, -1250727.6, -24762.975, 0.0, 10.0, 9.968835 
4.5e+1, 1.8486421e+2, -1162646.8, -1195720.1, -0.00003294427, 0.00000000190837, 0.000066143235, -1162646.8, -34316.027, 0.0, 10.0, 9.956395 
4.5e+1, 1.9482064e+2, -1064497.0, -1097833.0, -0.000059205548, 0.000000001899181, -0.0000576579, -1064497.0, -33739.36, 0.0, 10.0, 9.956052 
4.5e+1, 2.0477042e+2, -976333.0, -1019435.0, -0.000039723236, 0.0000000018891537, 0.000068076784, -976333.0, -43083.105, 0.0, 10.0, 9.943291 
4.5e+1, 2.1471375e+2, -878046.0, -921409.9, -0.00007834251, 0.0000000018782174, -0.00012682877, -878046.0, -42240.69, 0.0, 10.0, 9.942949 
4.5e+1, 2.2465037e+2, -789759.9, -843144.9, -0.00005662145, 0.000000001870883, 0.000120878394, -789759.9, -51333.586, 0.0, 10.0, 9.929908 
4.5e+1, 2.3458035e+2, -691326.4, -744966.44, -0.00008133432, 0.000000001867625, -0.000088819186, -691326.4, -50213.82, 0.0, 10.0, 9.929577 
4.5e+1, 2.4450338e+2, -603002.3, -667018.8, -0.000050925388, 0.0000000018592358, 0.00007470809, -603002.3, -59135.418, 0.0, 10.0, 9.916136 
4.5e+1, 2.5441962e+2, -504249.63, -568343.3, -0.00008406609, 0.0000000018447117, -0.000106737505, -504249.63, -57562.08, 0.0, 10.0, 9.916036 
4.5e+1, 2.643288e+2, -416014.22, -490987.88, -0.000052405107, 0.0000000018393097, 0.00014059346, -416014.22, -66436.55, 0.0, 10.0, 9.901964 
4.5e+1, 2.742313e+2, -316729.0, -391374.78, -0.00007517703, 0.0000000018455295, -0.00020344478, -316729.0, -64195.996, 0.0, 10.0, 9.902385 
4.5e+1, 2.841256e+2, -230255.73, -318081.25, -0.00003439714, 0.0000000018455749, 0.00022904524, -230255.73, -74686.766, 0.0, 10.0, 9.885439 
4.5e+1, 2.940121e+2, -130549.6, -217765.02, -0.000058851394, 0.000000001837115, -0.00025334352, -130549.6, -71868.21, 0.0, 10.0, 9.886217 
4.5e+1, 3.0392656e+2, -40805.59, -84750.16, -0.000016296146, 0.0000000018334062, 0.00017313573, -40805.59, -40805.59, 0.0, 10.0, 9.942173 
4.5e+1, 3.138706e+2, -39727.58, -82511.21, -0.00004223515, 0.0000000018368307, -0.000055142962, -39727.58, -39727.58, 0.0, 10.0, 9.943685 
5.5e+1, 1.2499334e+2, -1719946.3, -1724224.6, -0.00003430701, 0.0000000024450961, 0.000017597897, -1719946.3, -4880.964, 0.0, 10.0, 9.994328 
5.5e+1, 1.349876e+2, -1622565.8, -1627434.9, -0.00008529513, 0.0000000024171722, -0.000068403526, -1622565.8, -5444.177, 0.0, 10.0, 9.993545 
5.5e+1, 1.4497513e+2, -1534464.4, -1548146.3, -0.000073629664, 0.0000000023983837, 0.000070916256, -1534464.4, -15220.684, 0.0, 10.0, 9.981865 
5.5e+1, 1.5495701e+2, -1436736.6, -1450821.9, -0.000105017934, 0.0000000023885898, -0.000056981447, -1436736.6, -15315.502, 0.0, 10.0, 9.981333 
5.5e+1, 1.6493228e+2, -1348685.8, -1371952.4, -0.00008700524, 0.0000000023739604, 0.000047341313, -1348685.8, -25021.996, 0.0, 10.0, 9.969248 
5.5e+1, 1.7490156e+2, -1250727.6, -1274310.1, -0.00012851931, 0.0000000023543933, -0.00007383228, -1250727.6, -24762.975, 0.0, 10.0, 9.968835 
5.5e+1, 1.8486421e+2, -1162646.8, -1195720.1, -0.00010483668, 0.0000000023380504, 0.00006614327, -1162646.8, -34316.027, 0.0, 10.0, 9.956395 
5.5e+1, 1.9482064e+2, -1064497.0, -1097833.0, -0.00013098447, 0.0000000023250788, -0.000057657904, -1064497.0, -33739.36, 0.0, 10.0, 9.956052 
5.5e+1, 2.0477042e+2, -976333.0, -1019435.0, -0.000100074394, 0.0000000023120577, 0.00006807677, -976333.0, -43083.11, 0.0, 10.0, 9.943291 
5.5e+1, 2.1471375e+2, -878046.0, -921409.9, -0.00013845845, 0.000000002298981, -0.00012682876, -878046.0, -42240.69, 0.0, 10.0, 9.942949 
5.5e+1, 2.2465037e+2, -789759.9, -843144.9, -0.00010458354, 0.0000000022897737, 0.00012087842, -789759.9, -51333.586, 0.0, 10.0, 9.929908 
5.5e+1, 2.3458035e+2, -691326.4, -744966.44, -0.00012889964, 0.0000000022849451, -0.00008881918, -691326.4, -50213.82, 0.0, 10.0, 9.929577 
5.5e+1, 2.4450338e+2, -603002.3, -667018.8, -0.00008334745, 0.0000000022752757, 0.000074708085, -603002.3, -59135.418, 0.0, 10.0, 9.916136 
5.5e+1, 2.5441962e+2, -504249.63, -568343.3, -0.00011576134, 0.0000000022598179, -0.0001067375, -504249.63, -57562.08, 0.0, 10.0, 9.916036 
5.5e+1, 2.643288e+2, -416014.22, -490987.88, -0.00007301034, 0.0000000022536777, 0.00014059346, -416014.22, -66436.55, 0.0, 10.0, 9.901964 
5.5e+1, 2.742313e+2, -316729.0, -391374.78, -0.00009503973, 0.0000000022594073, -0.00020344477, -316729.0, -64195.996, 0.0, 10.0, 9.902385 
5.5e+1, 2.841256e+2, -230255.73, -318081.25, -0.0000360858, 0.0000000022592292, 0.00022904524, -230255.73, -74686.766, 0.0, 10.0, 9.885439 
5.5e+1, 2.940121e+2, -130549.6, -217765.02, -0.00005890358, 0.0000000022509092, -0.00025334352, -130549.6, -71868.21, 0.0, 10.0, 9.886217 
5.5e+1, 3.0392656e+2, -40805.59, -84750.16, 0.00000024286007, 0.0000000022438433, 0.00017313573, -40805.59, -40805.59, 0.0, 10.0, 9.942173 
5.5e+1, 3.138706e+2, -39727.58, -82511.21, -0.000023749604, 0.0000000022387183, -0.000055142933, -39727.58, -39727.58, 0.0, 10.0, 9.943685 
6.5e+1, 1.2499334e+2, -1719946.3, -1724224.6, 0.00005740029, 0.0000000029019789, 0.000017597944, -1719946.3, -4880.9634, 0.0, 10.0, 9.994328 
6.5e+1, 1.349876e+2, -1622565.8, -1627434.9, 0.0000042889355, 0.000000002860679, -0.000068403526, -1622565.8, -5444.176, 0.0, 10.0, 9.993545 
6.5e+1, 1.4497513e+2, -1534464.4, -1548146.3, 0.000014490623, 0.000000002834936, 0.00007091627, -1534464.4, -15220.684, 0.0, 10.0, 9.981865 
6.5e+1, 1.5495701e+2, -1436736.6, -1450821.9, -0.000036998375, 0.0000000028246188, -0.000056981426, -1436736.6, -15315.501, 0.0, 10.0, 9.981333 
6.5e+1, 1.6493228e+2, -1348685.8, -1371952.4, -0.00002347183, 0.0000000028094407, 0.00004734133, -1348685.8, -25021.994, 0.0, 10.0, 9.969248 
6.5e+1, 1.7490156e+2, -1250727.6, -1274310.1, -0.00007644021, 0.000000002789299, -0.00007383227, -1250727.6, -24762.975, 0.0, 10.0, 9.968835 
6.5e+1, 1.8486421e+2, -1162646.8, -1195720.1, -0.000055705255, 0.0000000027706741, 0.000066143286, -1162646.8, -34316.027, 0.0, 10.0, 9.956395 
6.5e+1, 1.9482064e+2, -1064497.0, -1097833.0, -0.000099585326, 0.0000000027536349, -0.000057657886, -1064497.0, -33739.36, 0.0, 10.0, 9.956052 
6.5e+1, 2.0477042e+2, -976333.0, -1019435.0, -0.00007048263, 0.0000000027379556, 0.000068076784, -976333.0, -43083.105, 0.0, 10.0, 9.943291 
6.5e+1, 2.1471375e+2, -878046.0, -921409.9, -0.000117245116, 0.0000000027237477, -0.00012682875, -878046.0, -42240.69, 0.0, 10.0, 9.942949 
6.5e+1, 2.2465037e+2, -789759.9, -843144.9, -0.00008376654, 0.0000000027115807, 0.00012087843, -789759.9, -51333.586, 0.0, 10.0, 9.929908 
6.5e+1, 2.3458035e+2, -691326.4, -744966.44, -0.00012569639, 0.0000000027017217, -0.000088819164, -691326.4, -50213.82, 0.0, 10.0, 9.929577 
6.5e+1, 2.4450338e+2, -603002.3, -667018.8, -0.00007957861, 0.0000000026919291, 0.0000747081, -603002.3, -59135.418, 0.0, 10.0, 9.916136 
6.5e+1, 2.5441962e+2, -504249.63, -568343.3, -0.00011826249, 0.0000000026822113, -0.0001067375, -504249.63, -57562.074, 0.0, 10.0, 9.916036 
6.5e+1, 2.643288e+2, -416014.22, -490987.88, -0.000072729774, 0.000000002675233, 0.00014059346, -416014.22, -66436.55, 0.0, 10.0, 9.901964 
6.5e+1, 2.742313e+2, -316729.0, -391374.78, -0.00011144355, 0.0000000026717382, -0.00020344477, -316729.0, -64195.996, 0.0, 10.0, 9.902385 
6.5e+1, 2.841256e+2, -230255.73, -318081.25, -0.00005161404, 0.0000000026678901, 0.00022904525, -230255.73, -74686.766, 0.0, 10.0, 9.885439 
6.5e+1, 2.940121e+2, -130549.6, -217765.02, -0.00008500685, 0.0000000026635407, -0.00025334352, -130549.6, -71868.21, 0.0, 10.0, 9.886217 
6.5e+1, 3.0392656e+2, -40805.59, -84750.16, -0.000019120875, 0.0000000026575873, 0.00017313573, -40805.59, -40805.59, 0.0, 10.0, 9.942173 
6.5e+1, 3.138706e+2, -39727.58, -82511.21, -0.000051531144, 0.0000000026492615, -0.00005514293, -39727.58, -39727.58, 0.0, 10.0, 9.943685 
7.5e+1, 1.2499334e+2, -1719946.3, -1724224.6, -0.00004713331, 0.0000000033741718, 0.000017598035, -1719946.3, -4880.9634, 0.0, 10.0, 9.994328 
7.5e+1, 1.349876e+2, -1622565.8, -1627434.9, -0.00010027016, 0.000000003310148, -0.00006840353, -1622565.8, -5444.1763, 0.0, 10.0, 9.993545 
7.5e+1, 1.4497513e+2, -1534464.4, -1548146.3, -0.00008285652, 0.0000000032723342, 0.00007091627, -1534464.4, -15220.684, 0.0, 10.0, 9.981865 
7.5e+1, 1.5495701e+2, -1436736.6, -1450821.9, -0.00013433483, 0.0000000032606395, -0.000056981386, -1436736.6, -15315.501, 0.0, 10.0, 9.981333 
7.5e+1, 1.6493228e+2, -1348685.8, -1371952.4, -0.000110097484, 0.00000000324535, 0.00004734137, -1348685.8, -25021.994, 0.0, 10.0, 9.969248 
7.5e+1, 1.7490156e+2, -1250727.6, -1274310.1, -0.00016301006, 0.0000000032263896, -0.00007383228, -1250727.6, -24762.975, 0.0, 10.0, 9.968835 
7.5e+1, 1.8486421e+2, -1162646.8, -1195720.1, -0.00012943703, 0.0000000032062417, 0.00006614327, -1162646.8, -34316.027, 0.0, 10.0, 9.956395 
7.5e+1, 1.9482064e+2, -1064497.0, -1097833.0, -0.0001731692, 0.000000003184849, -0.00005765785, -1064497.0, -33739.36, 0.0, 10.0, 9.956052 
7.5e+1, 2.0477042e+2, -976333.0, -1019435.0, -0.00013273762, 0.0000000031668475, 0.00006807683, -976333.0, -43083.105, 0.0, 10.0, 9.943291 
7.5e+1, 2.1471375e+2, -878046.0, -921409.9, -0.00017926689, 0.0000000031525174, -0.00012682876, -878046.0, -42240.69, 0.0, 10.0, 9.942949 
7.5e+1, 2.2465037e+2, -789759.9, -843144.9, -0.00013308569, 0.0000000031363037, 0.000120878416, -789759.9, -51333.586, 0.0, 10.0, 9.929908 
7.5e+1, 2.3458035e+2, -691326.4, -744966.44, -0.00017460085, 0.0000000031179546, -0.00008881914, -691326.4, -50213.82, 0.0, 10.0, 9.929577 
7.5e+1, 2.4450338e+2, -603002.3, -667018.8, -0.00011679456, 0.0000000031091956, 0.00007470813, -603002.3, -59135.418, 0.0, 10.0, 9.916136 
7.5e+1, 2.5441962e+2, -504249.63, -568343.3, -0.00015491767, 0.000000003111892, -0.0001067375, -504249.63, -57562.074, 0.0, 10.0, 9.916036 
7.5e+1, 2.643288e+2, -416014.22, -490987.88, -0.0000918131, 0.000000003103975, 0.00014059346, -416014.22, -66436.55, 0.0, 10.0, 9.901964 
7.5e+1, 2.742313e+2, -316729.0, -391374.78, -0.00012934979, 0.0000000030825216, -0.00020344475, -316729.0, -64195.996, 0.0, 10.0, 9.902385 
7.5e+1, 2.841256e+2, -230255.73, -318081.25, -0.000055319335, 0.0000000030715575, 0.00022904527, -230255.73, -74686.766, 0.0, 10.0, 9.885439 
7.5e+1, 2.940121e+2, -130549.6, -217765.02, -0.00008743371, 0.0000000030750096, -0.00025334352, -130549.6, -71868.21, 0.0, 10.0, 9.886217 
7.5e+1, 3.0392656e+2, -40805.59, -84750.16, -0.0000025395773, 0.0000000030746383, 0.00017313573, -40805.59, -40805.59, 0.0, 10.0, 9.942173 
7.5e+1, 3.138706e+2, -39727.58, -82511.21, -0.0000327196, 0.0000000030684604, -0.00005514295, -39727.58, -39727.58, 0.0, 10.0, 9.943685 
8.5e+1, 1.2499334e+2, -1719946.3, -1724224.6, 0.00003893248, 0.000000003845771, 0.000017598102, -1719946.3, -4880.9624, 0.0, 10.0, 9.994328 
8.5e+1, 1.349876e+2, -1622565.8, -1627434.9, -0.000012252722, 0.0000000037690153, -0.00006840353, -1622565.8, -5444.1753, 0.0, 10.0, 9.993545 
8.5e+1, 1.4497513e+2, -1534464.4, -1548146.3, 0.0000027156732, 0.0000000037223897, 0.0000709163, -1534464.4, -15220.683, 0.0, 10.0, 9.981865 
8.5e+1, 1.5495701e+2, -1436736.6, -1450821.9, -0.00007147204, 0.0000000037057972, -0.000056981342, -1436736.6, -15315.501, 0.0, 10.0, 9.981333 
8.5e+1, 1.6493228e+2, -1348685.8, -1371952.4, -0.000048693466, 0.0000000036863248, 0.000047341407, -1348685.8, -25021.994, 0.0, 10.0, 9.969248 
8.5e+1, 1.7490156e+2, -1250727.6, -1274310.1, -0.00010062623, 0.0000000036639114, -0.00007383228, -1250727.6, -24762.973, 0.0, 10.0, 9.968835 
8.5e+1, 1.8486421e+2, -1162646.8, -1195720.1, -0.000068981586, 0.0000000036415222, 0.00006614327, -1162646.8, -34316.027, 0.0, 10.0, 9.956395 
8.5e+1, 1.9482064e+2, -1064497.0, -1097833.0, -0.00014308246, 0.000000003619156, -0.000057657813, -1064497.0, -33739.36, 0.0, 10.0, 9.956052 
8.5e+1, 2.0477042e+2, -976333.0, -1019435.0, -0.00010672672, 0.000000003599542, 0.000068076864, -976333.0, -43083.105, 0.0, 10.0, 9.943291 
8.5e+1, 2.1471375e+2, -878046.0, -921409.9, -0.0001536192, 0.0000000035829062, -0.00012682875, -878046.0, -42240.69, 0.0, 10.0, 9.942949 
8.5e+1, 2.2465037e+2, -789759.9, -843144.9, -0.000104613486, 0.0000000035644, 0.000120878416, -789759.9, -51333.586, 0.0, 10.0, 9.929908 
8.5e+1, 2.3458035e+2, -691326.4, -744966.44, -0.00016736529, 0.0000000035437728, -0.00008881913, -691326.4, -50213.82, 0.0, 10.0, 9.929577 
8.5e+1, 2.4450338e+2, -603002.3, -667018.8, -0.00011335423, 0.0000000035335774, 0.00007470815, -603002.3, -59135.418, 0.0, 10.0, 9.916136 
8.5e+1, 2.5441962e+2, -504249.63, -568343.3, -0.00015916949, 0.0000000035358418, -0.00010673749, -504249.63, -57562.074, 0.0, 10.0, 9.916036 
8.5e+1, 2.643288e+2, -416014.22, -490987.88, -0.000088904904, 0.0000000035261472, 0.00014059346, -416014.22, -66436.55, 0.0, 10.0, 9.901964 
8.5e+1, 2.742313e+2, -316729.0, -391374.78, -0.00014052542, 0.0000000035012, -0.00020344475, -316729.0, -64195.996, 0.0, 10.0, 9.902385 
8.5e+1, 2.841256e+2, -230255.73, -318081.25, -0.000067753026, 0.0000000034881678, 0.00022904528, -230255.73, -74686.766, 0.0, 10.0, 9.885439 
8.5e+1, 2.940121e+2, -130549.6, -217765.02, -0.00011091608, 0.0000000034915093, -0.0002533435, -130549.6, -71868.21, 0.0, 10.0, 9.886217 
8.5e+1, 3.0392656e+2, -40805.59, -84750.16, -0.000014577439, 0.0000000034943217, 0.00017313575, -40805.59, -40805.59, 0.0, 10.0, 9.942173 
8.5e+1, 3.138706e+2, -39727.58, -82511.21, -0.000040253948, 0.0000000034961982, -0.00005514298, -39727.58, -39727.58, 0.0, 10.0, 9.943685 
9.5e+1, 1.2499334e+2, -1719946.3, -1724224.6, -0.0000660357, 0.0000000043167754, 0.000017598142, -1719946.3, -4880.963, 0.0, 10.0, 9.994328 
9.5e+1, 1.349876e+2, -1622565.8, -1627434.9, -0.00011724639, 0.0000000042372816, -0.00006840351, -1622565.8, -5444.1753, 0.0, 10.0, 9.993545 
9.5e+1, 1.4497513e+2, -1534464.4, -1548146.3, -0.00009457342, 0.000000004185103, 0.00007091636, -1534464.4, -15220.683, 0.0, 10.0, 9.981865 
9.5e+1, 1.5495701e+2, -1436736.6, -1450822.0, -0.00016874964, 0.0000000041600923, -0.0000569813, -1436736.6, -15315.501, 0.0, 10.0, 9.981333 
9.5e+1, 1.6493228e+2, -1348685.8, -1371952.4, -0.00013825393, 0.0000000041323656, 0.000047341433, -1348685.8, -25021.994, 0.0, 10.0, 9.969248 
9.5e+1, 1.7490156e+2, -1250727.6, -1274310.1, -0.00019014672, 0.0000000041018646, -0.00007383227, -1250727.6, -24762.973, 0.0, 10.0, 9.968835 
9.5e+1, 1.8486421e+2, -1162646.8, -1195720.1, -0.00014706865, 0.000000004076516, 0.00006614328, -1162646.8, -34316.027, 0.0, 10.0, 9.956395 
9.5e+1, 1.9482064e+2, -1064497.0, -1097833.0, -0.00022103789, 0.0000000040565564, -0.000057657784, -1064497.0, -33739.36, 0.0, 10.0, 9.956052 
9.5e+1, 2.0477042e+2, -976333.0, -1019435.0, -0.00017230085, 0.0000000040360386, 0.00006807689, -976333.0, -43083.105, 0.0, 10.0, 9.943291 
9.5e+1, 2.1471375e+2, -878046.0, -921409.9, -0.00021893841, 0.000000004014914, -0.00012682873, -878046.0, -42240.69, 0.0, 10.0, 9.942949 
9.5e+1, 2.2465037e+2, -789759.9, -843144.9, -0.0001564823, 0.0000000039958694, 0.00012087842, -789759.9, -51333.586, 0.0, 10.0, 9.929908 
9.5e+1, 2.3458035e+2, -691326.4, -744966.44, -0.00021879496, 0.000000003979177, -0.00008881911, -691326.4, -50213.82, 0.0, 10.0, 9.929577 
9.5e+1, 2.4450338e+2, -603002.3, -667018.8, -0.00015319181, 0.0000000039650745, 0.000074708165, -603002.3, -59135.418, 0.0, 10.0, 9.916136 
9.5e+1, 2.5441962e+2, -504249.63, -568343.3, -0.00019845096, 0.0000000039540606, -0.00010673747, -504249.63, -57562.074, 0.0, 10.0, 9.916036 
9.5e+1, 2.643288e+2, -416014.22, -490987.88, -0.00010889981, 0.0000000039417487, 0.00014059347, -416014.22, -66436.55, 0.0, 10.0, 9.901964 
9.5e+1, 2.742313e+2, -316729.0, -391374.78, -0.00015922831, 0.0000000039277737, -0.00020344475, -316729.0, -64195.996, 0.0, 10.0, 9.902385 
9.5e+1, 2.841256e+2, -230255.73, -318081.25, -0.00007514802, 0.0000000039177204, 0.00022904528, -230255.73, -74686.766, 0.0, 10.0, 9.885439 
9.5e+1, 2.940121e+2, -130549.6, -217765.02, -0.000117293355, 0.0000000039130397, -0.0002533435, -130549.6, -71868.21, 0.0, 10.0, 9.886217 
9.5e+1, 3.0392656e+2, -40805.59, -84750.16, -0.000005064007, 0.0000000039166377, 0.00017313575, -40805.59, -40805.59, 0.0, 10.0, 9.942173 
9.5e+1, 3.138706e+2, -39727.58, -82511.21, -0.0000288763, 0.000000003932475, -0.00005514301, -39727.58, -39727.58, 0.0, 10.0, 9.943685 
1.05e+2, 1.2499334e+2, -1719946.3, -1724224.6, 0.00008175436, 0.000000004774952, 0.000017598133, -1719946.3, -4880.9614, 0.0, 10.0, 9.994328 
1.05e+2, 1.349876e+2, -1622565.8, -1627434.9, -0.000017890336, 0.0000000046991153, -0.00006840348, -1622565.8, -5444.1743, 0.0, 10.0, 9.993545 
1.05e+2, 1.4497513e+2, -1534464.4, -1548146.3, -0.000009301971, 0.0000000046472914, 0.00007091644, -1534464.4, -15220.682, 0.0, 10.0, 9.981865 
1.05e+2, 1.5495701e+2, -1436736.6, -1450821.9, -0.00008563554, 0.000000004619289, -0.000056981284, -1436736.6, -15315.5, 0.0, 10.0, 9.981333 
1.05e+2, 1.6493228e+2, -1348685.8, -1371952.4, -0.00005952161, 0.0000000045858135, 0.000047341437, -1348685.8, -25021.992, 0.0, 10.0, 9.969248 
1.05e+2, 1.7490156e+2, -1250727.6, -1274310.1, -0.00013948356, 0.000000004546749, -0.00007383222, -1250727.6, -24762.973, 0.0, 10.0, 9.968835 
1.05e+2, 1.8486421e+2, -1162646.8, -1195720.1, -0.00010059805, 0.000000004517257, 0.00006614333, -1162646.8, -34316.027, 0.0, 10.0, 9.956395 
1.05e+2, 1.9482064e+2, -1064497.0, -1097833.0, -0.00017280313, 0.0000000044977777, -0.00005765778, -1064497.0, -33739.36, 0.0, 10.0, 9.956052 
1.05e+2, 2.0477042e+2, -976333.0, -1019435.0, -0.00012424529, 0.00000000447548, 0.00006807689, -976333.0, -43083.105, 0.0, 10.0, 9.943291 
1.05e+2, 2.1471375e+2, -878046.0, -921409.9, -0.00019957796, 0.0000000044501265, -0.0001268287, -878046.0, -42240.69, 0.0, 10.0, 9.942949 
1.05e+2, 2.2465037e+2, -789759.9, -843144.9, -0.00013971263, 0.000000004430751, 0.00012087845, -789759.9, -51333.586, 0.0, 10.0, 9.929908 
1.05e+2, 2.3458035e+2, -691326.4, -744966.44, -0.00020292074, 0.0000000044181396, -0.00008881911, -691326.4, -50213.816, 0.0, 10.0, 9.929577 
1.05e+2, 2.4450338e+2, -603002.3, -667018.8, -0.00013392432, 0.0000000043999595, 0.00007470816, -603002.3, -59135.414, 0.0, 10.0, 9.916136 
1.05e+2, 2.5441962e+2, -504249.63, -568343.3, -0.000203008, 0.0000000043751167, -0.00010673745, -504249.63, -57562.074, 0.0, 10.0, 9.916036 
1.05e+2, 2.643288e+2, -416014.22, -490987.88, -0.00011568816, 0.0000000043612367, 0.0001405935, -416014.22, -66436.55, 0.0, 10.0, 9.901964 
1.05e+2, 2.742313e+2, -316729.0, -391374.78, -0.00016833153, 0.000000004361319, -0.00020344474, -316729.0, -64195.996, 0.0, 10.0, 9.902385 
1.05e+2, 2.841256e+2, -230255.73, -318081.25, -0.00007498426, 0.000000004356079, 0.00022904527, -230255.73, -74686.766, 0.0, 10.0, 9.885439 
1.05e+2, 2.940121e+2, -130549.6, -217765.02, -0.00012821998, 0.0000000043434865, -0.0002533435, -130549.6, -71868.2, 0.0, 10.0, 9.886217 
1.05e+2, 3.0392656e+2, -40805.59, -84750.16, -0.000017083365, 0.000000004342034, 0.00017313575, -40805.59, -40805.59, 0.0, 10.0, 9.942173 
1.05e+2, 3.138706e+2, -39727.58, -82511.21, -0.000062237326, 0.0000000043571875, -0.000055143, -39727.58, -39727.58, 0.0, 10.0, 9.943684 
1.15e+2, 1.2499334e+2, -1719946.3, -1724224.6, -0.000034587294, 0.0000000052203006, 0.000017598077, -1719946.3, -4880.962, 0.0, 10.0, 9.994328 
1.15e+2, 1.349876e+2, -1622565.8, -1627434.9, -0.0001342605, 0.0000000051545164, -0.00006840343, -1622565.8, -5444.1743, 0.0, 10.0, 9.993545 
1.15e+2, 1.4497513e+2, -1534464.4, -1548146.3, -0.000111631954, 0.000000005108955, 0.00007091655, -1534464.4, -15220.682, 0.0, 10.0, 9.981865 
1.15e+2, 1.5495701e+2, -1436736.6, -1450821.9, -0.00018794397, 0.0000000050833875, -0.0000569813, -1436736.6, -15315.5, 0.0, 10.0, 9.981333 
1.15e+2, 1.6493228e+2, -1348685.8, -1371952.4, -0.00014913619, 0.0000000050466693, 0.000047341415, -1348685.8, -25021.992, 0.0, 10.0, 9.969248 
1.15e+2, 1.7490156e+2, -1250727.6, -1274310.1, -0.00022903187, 0.000000004998565, -0.00007383214, -1250727.6, -24762.973, 0.0, 10.0, 9.968835 
1.15e+2, 1.8486421e+2, -1162646.8, -1195720.1, -0.00018343364, 0.0000000049637445, 0.00006614342, -1162646.8, -34316.027, 0.0, 10.0, 9.956395 
1.15e+2, 1.9482064e+2, -1064497.0, -1097833.0, -0.00025556172, 0.00000000494282, -0.000057657802, -1064497.0, -33739.36, 0.0, 10.0, 9.956052 
1.15e+2, 2.0477042e+2, -976333.0, -1019435.0, -0.000194322, 0.0000000049178657, 0.00006807686, -976333.0, -43083.105, 0.0, 10.0, 9.943291 
1.15e+2, 2.1471375e+2, -878046.0, -921409.9, -0.00026939355, 0.000000004888543, -0.00012682866, -878046.0, -42240.69, 0.0, 10.0, 9.942949 
1.15e+2, 2.2465037e+2, -789759.9, -843144.9, -0.00019652864, 0.0000000048690434, 0.00012087852, -789759.9, -51333.586, 0.0, 10.0, 9.929908 
1.15e+2, 2.3458035e+2, -691326.4, -744966.44, -0.00025931234, 0.0000000048606608, -0.00008881911, -691326.4, -50213.82, 0.0, 10.0, 9.929577 
1.15e+2, 2.4450338e+2, -603002.3, -667018.8, -0.00017168706, 0.0000000048382325, 0.00007470814, -603002.3, -59135.414, 0.0, 10.0, 9.916136 
1.15e+2, 2.5441962e+2, -504249.63, -568343.3, -0.00023987654, 0.0000000047990105, -0.000106737425, -504249.63, -57562.074, 0.0, 10.0, 9.916036 
1.15e+2, 2.643288e+2, -416014.22, -490987.88, -0.00014610367, 0.0000000047846105, 0.00014059353, -416014.22, -66436.55, 0.0, 10.0, 9.901964 
1.15e+2, 2.742313e+2, -316729.0, -391374.78, -0.0001983155, 0.0000000048018363, -0.00020344474, -316729.0, -64195.996, 0.0, 10.0, 9.902385 
1.15e+2, 2.841256e+2, -230255.73, -318081.25, -0.00008360863, 0.0000000048032427, 0.00022904527, -230255.73, -74686.766, 0.0, 10.0, 9.885439 
1.15e+2, 2.940121e+2, -130549.6, -217765.02, -0.000134921, 0.0000000047828497, -0.00025334352, -130549.6, -71868.2, 0.0, 10.0, 9.886217 
1.15e+2, 3.0392656e+2, -40805.59, -84750.16, -0.0000083980685, 0.000000004770511, 0.00017313575, -40805.59, -40805.59, 0.0, 10.0, 9.942173 
1.15e+2, 3.138706e+2, -39727.58, -82511.21, -0.000051747098, 0.0000000047703375, -0.000055142948, -39727.58, -39727.58, 0.0, 10.0, 9.943684 
1.25e+2, 1.2499334e+2, -1719946.3, -1724224.6, 0.00009946986, 0.000000005686765, 0.000017598111, -1719946.3, -4880.9604, 0.0, 10.0, 9.994328 
1.25e+2, 1.349876e+2, -1622565.8, -1627434.9, -0.000022893832, 0.000000005611258, -0.00006840342, -1622565.8, -5444.173, 0.0, 10.0, 9.993545 
1.25e+2, 1.4497513e+2, -1534464.4, -1548146.3, -0.0000065845647, 0.0000000055626774, 0.000070916605, -1534464.4, -15220.681, 0.0, 10.0, 9.981865 
1.25e+2, 1.5495701e+2, -1436736.6, -1450821.9, -0.00009605605, 0.000000005540824, -0.00005698128, -1436736.6, -15315.498, 0.0, 10.0, 9.981333 
1.25e+2, 1.6493228e+2, -1348685.8, -1371952.4, -0.00006484197, 0.000000005506562, 0.00004734143, -1348685.8, -25021.992, 0.0, 10.0, 9.969248 
1.25e+2, 1.7490156e+2, -1250727.6, -1274310.1, -0.00017577926, 0.0000000054596287, -0.00007383208, -1250727.6, -24762.97, 0.0, 10.0, 9.968835 
1.25e+2, 1.8486421e+2, -1162646.8, -1195720.1, -0.00013524733, 0.000000005421748, 0.00006614347, -1162646.8, -34316.023, 0.0, 10.0, 9.956395 
1.25e+2, 1.9482064e+2, -1064497.0, -1097833.0, -0.00020613003, 0.0000000053933356, -0.000057657784, -1064497.0, -33739.36, 0.0, 10.0, 9.956052 
1.25e+2, 2.0477042e+2, -976333.0, -1019435.0, -0.00014317637, 0.0000000053643787, 0.000068076864, -976333.0, -43083.105, 0.0, 10.0, 9.943291 
1.25e+2, 2.1471375e+2, -878046.0, -921409.9, -0.00024117672, 0.0000000053348286, -0.00012682863, -878046.0, -42240.688, 0.0, 10.0, 9.942949 
1.25e+2, 2.2465037e+2, -789759.9, -843144.9, -0.00017229437, 0.000000005312411, 0.000120878554, -789759.9, -51333.582, 0.0, 10.0, 9.929908 
1.25e+2, 2.3458035e+2, -691326.4, -744966.44, -0.00024572344, 0.0000000052980647, -0.00008881909, -691326.4, -50213.816, 0.0, 10.0, 9.929577 
1.25e+2, 2.4450338e+2, -603002.3, -667018.8, -0.00015267938, 0.000000005275557, 0.00007470816, -603002.3, -59135.414, 0.0, 10.0, 9.916136 
1.25e+2, 2.5441962e+2, -504249.63, -568343.3, -0.00023059425, 0.0000000052432876, -0.00010673742, -504249.63, -57562.074, 0.0, 10.0, 9.916036 
1.25e+2, 2.643288e+2, -416014.22, -490987.88, -0.00013955317, 0.000000005229101, 0.00014059355, -416014.22, -66436.55, 0.0, 10.0, 9.901964 
1.25e+2, 2.742313e+2, -316729.0, -391374.78, -0.00020769941, 0.0000000052379456, -0.00020344472, -316729.0, -64195.992, 0.0, 10.0, 9.902385 
1.25e+2, 2.841256e+2, -230255.73, -318081.25, -0.000088056826, 0.000000005236035, 0.00022904527, -230255.73, -74686.766, 0.0, 10.0, 9.885439 
1.25e+2, 2.940121e+2, -130549.6, -217765.02, -0.00015168125, 0.0000000052192966, -0.00025334352, -130549.6, -71868.2, 0.0, 10.0, 9.886217 
1.25e+2, 3.0392656e+2, -40805.586, -84750.16, -0.000026878877, 0.0000000052040128, 0.00017313575, -40805.586, -40805.586, 0.0, 10.0, 9.942173 
1.25e+2, 3.138706e+2, -39727.574, -82511.21, -0.00009647638, 0.0000000051910356, -0.000055142915, -39727.574, -39727.574, 0.0, 10.0, 9.943684 
1.35e+2, 1.2499334e+2, -1719946.3, -1724224.6, -0.000022548757, 0.0000000061743455, 0.00001759824, -1719946.3, -4880.9604, 0.0, 10.0, 9.994328 
1.35e+2, 1.349876e+2, -1622565.8, -1627434.9, -0.00014494259, 0.00000000606934, -0.00006840343, -1622565.8, -5444.1733, 0.0, 10.0, 9.993545 
1.35e+2, 1.4497513e+2, -1534464.4, -1548146.3, -0.00012041004, 0.000000006008458, 0.00007091662, -1534464.4, -15220.681, 0.0, 10.0, 9.981865 
1.35e+2, 1.5495701e+2, -1436736.6, -1450821.9, -0.00020986922, 0.0000000059915983, -0.000056981233, -1436736.6, -15315.499, 0.0, 10.0, 9.981333 
1.35e+2, 1.6493228e+2, -1348685.8, -1371952.4, -0.00016333604, 0.0000000059654908, 0.00004734148, -1348685.8, -25021.992, 0.0, 10.0, 9.969248 
1.35e+2, 1.7490156e+2, -1250727.6, -1274310.1, -0.00027419312, 0.00000000592994, -0.00007383206, -1250727.6, -24762.97, 0.0, 10.0, 9.968835 
1.35e+2, 1.8486421e+2, -1162646.8, -1195720.1, -0.00022042404, 0.0000000058912675, 0.00006614349, -1162646.8, -34316.023, 0.0, 10.0, 9.956395 
1.35e+2, 1.9482064e+2, -1064497.0, -1097833.0, -0.00029115425, 0.0000000058493246, -0.000057657733, -1064497.0, -33739.36, 0.0, 10.0, 9.956052 
1.35e+2, 2.0477042e+2, -976333.0, -1019435.0, -0.00021705346, 0.000000005815019, 0.000068076915, -976333.0, -43083.105, 0.0, 10.0, 9.943291 
1.35e+2, 2.1471375e+2, -878046.0, -921409.9, -0.0003148244, 0.0000000057889826, -0.00012682861, -878046.0, -42240.69, 0.0, 10.0, 9.942949 
1.35e+2, 2.2465037e+2, -789759.9, -843144.9, -0.00023234784, 0.0000000057608545, 0.000120878554, -789759.9, -51333.582, 0.0, 10.0, 9.929908 
1.35e+2, 2.3458035e+2, -691326.4, -744966.44, -0.0003053331, 0.0000000057303513, -0.00008881905, -691326.4, -50213.816, 0.0, 10.0, 9.929577 
1.35e+2, 2.4450338e+2, -603002.3, -667018.8, -0.00019880975, 0.0000000057119336, 0.000074708194, -603002.3, -59135.414, 0.0, 10.0, 9.916136 
1.35e+2, 2.5441962e+2, -504249.63, -568343.3, -0.0002760779, 0.0000000057079492, -0.000106737425, -504249.63, -57562.074, 0.0, 10.0, 9.916036 
1.35e+2, 2.643288e+2, -416014.22, -490987.88, -0.00017082314, 0.000000005694708, 0.00014059352, -416014.22, -66436.55, 0.0, 10.0, 9.901964 
1.35e+2, 2.742313e+2, -316729.0, -391374.78, -0.0002380176, 0.0000000056696465, -0.00020344471, -316729.0, -64195.992, 0.0, 10.0, 9.902385 
1.35e+2, 2.841256e+2, -230255.73, -318081.25, -0.00009876579, 0.0000000056544565, 0.0002290453, -230255.73, -74686.766, 0.0, 10.0, 9.885439 
1.35e+2, 2.940121e+2, -130549.6, -217765.02, -0.00016062461, 0.000000005652827, -0.0002533435, -130549.6, -71868.2, 0.0, 10.0, 9.886217 
1.35e+2, 3.0392656e+2, -40805.586, -84750.16, -0.00001527637, 0.0000000056425393, 0.00017313576, -40805.586, -40805.586, 0.0, 10.0, 9.942173 
1.35e+2, 3.138706e+2, -39727.574, -82511.21, -0.00008246331, 0.0000000056192824, -0.00005514291, -39727.574, -39727.574, 0.0, 10.0, 9.943684 
1.45e+2, 1.2499334e+2, -1719946.3, -1724224.6, 0.000040015013, 0.000000006679336, 0.000017598399, -1719946.3, -4880.959, 0.0, 10.0, 9.994328 
1.45e+2, 1.349876e+2, -1622565.8, -1627434.9, -0.00004632805, 0.0000000065533157, -0.00006840344, -1622565.8, -5444.172, 0.0, 10.0, 9.993545 
1.45e+2, 1.4497513e+2, -1534464.4, -1548146.3, -0.000015013157, 0.0000000064789822, 0.00007091665, -1534464.4, -15220.679, 0.0, 10.0, 9.981865 
1.45e+2, 1.5495701e+2, -1436736.6, -1450821.9, -0.0001405703, 0.0000000064562706, -0.00005698115, -1436736.6, -15315.497, 0.0, 10.0, 9.981333 
1.45e+2, 1.6493228e+2, -1348685.8, -1371952.4, -0.000093822826, 0.0000000064291634, 0.000047341553, -1348685.8, -25021.99, 0.0, 10.0, 9.969248 
1.45e+2, 1.7490156e+2, -1250727.6, -1274310.1, -0.00018888897, 0.000000006397569, -0.00007383207, -1250727.6, -24762.97, 0.0, 10.0, 9.968835 
1.45e+2, 1.8486421e+2, -1162646.8, -1195720.1, -0.00013479823, 0.0000000063584316, 0.00006614348, -1162646.8, -34316.023, 0.0, 10.0, 9.956395 
1.45e+2, 1.9482064e+2, -1064497.0, -1097833.0, -0.00025496542, 0.0000000063113967, -0.000057657664, -1064497.0, -33739.355, 0.0, 10.0, 9.956052 
1.45e+2, 2.0477042e+2, -976333.0, -1019435.0, -0.0001881996, 0.000000006274271, 0.00006807699, -976333.0, -43083.1, 0.0, 10.0, 9.943291 
1.45e+2, 2.1471375e+2, -878046.0, -921409.9, -0.0002723546, 0.0000000062478738, -0.00012682861, -878046.0, -42240.688, 0.0, 10.0, 9.942949 
1.45e+2, 2.2465037e+2, -789759.9, -843144.9, -0.00018310547, 0.000000006216137, 0.00012087855, -789759.9, -51333.582, 0.0, 10.0, 9.929908 
1.45e+2, 2.3458035e+2, -691326.4, -744966.44, -0.0002866205, 0.0000000061783476, -0.00008881902, -691326.4, -50213.816, 0.0, 10.0, 9.929577 
1.45e+2, 2.4450338e+2, -603002.3, -667018.8, -0.00018701109, 0.0000000061608167, 0.00007470824, -603002.3, -59135.414, 0.0, 10.0, 9.916136 
1.45e+2, 2.5441962e+2, -504249.63, -568343.3, -0.00026513636, 0.000000006167486, -0.00010673742, -504249.63, -57562.074, 0.0, 10.0, 9.916036 
1.45e+2, 2.643288e+2, -416014.22, -490987.88, -0.00014918955, 0.0000000061521446, 0.00014059352, -416014.22, -66436.55, 0.0, 10.0, 9.901964 
1.45e+2, 2.742313e+2, -316729.0, -391374.78, -0.00023958931, 0.0000000061087286, -0.0002034447, -316729.0, -64195.992, 0.0, 10.0, 9.902385 
1.45e+2, 2.841256e+2, -230255.73, -318081.25, -0.00010774967, 0.0000000060857106, 0.00022904533, -230255.73, -74686.766, 0.0, 10.0, 9.885439 
1.45e+2, 2.940121e+2, -130549.6, -217765.02, -0.00018216629, 0.0000000060907337, -0.00025334346, -130549.6, -71868.2, 0.0, 10.0, 9.886217 
1.45e+2, 3.0392656e+2, -40805.586, -84750.16, -0.000019990322, 0.0000000060880394, 0.00017313576, -40805.586, -40805.586, 0.0, 10.0, 9.942173 
1.45e+2, 3.138706e+2, -39727.574, -82511.21, -0.000070529255, 0.000000006073637, -0.00005514295, -39727.574, -39727.574, 0.0, 10.0, 9.943684 
1.55e+2, 1.2499334e+2, -1719946.3, -1724224.6, -0.00007908269, 0.000000007201737, 0.000017598588, -1719946.3, -4880.9595, 0.0, 10.0, 9.994328 
1.55e+2, 1.349876e+2, -1622565.8, -1627434.9, -0.0001654549, 0.0000000070631843, -0.00006840343, -1622565.8, -5444.172, 0.0, 10.0, 9.993545 
1.55e+2, 1.4497513e+2, -1534464.4, -1548146.3, -0.00013005685, 0.0000000069742505, 0.00007091669, -1534464.4, -15220.68, 0.0, 10.0, 9.981865 
1.55e+2, 1.5495701e+2, -1436736.6, -1450821.9, -0.00025560815, 0.0000000069348403, -0.000056981033, -1436736.6, -15315.497, 0.0, 10.0, 9.981333 
1.55e+2, 1.6493228e+2, -1348685.8, -1371952.4, -0.0002036048, 0.0000000068975803, 0.000047341644, -1348685.8, -25021.99, 0.0, 10.0, 9.969248 
1.55e+2, 1.7490156e+2, -1250727.6, -1274310.1, -0.00029864392, 0.000000006862516, -0.000073832096, -1250727.6, -24762.97, 0.0, 10.0, 9.968835 
1.55e+2, 1.8486421e+2, -1162646.8, -1195720.1, -0.0002257094, 0.0000000068232398, 0.000066143446, -1162646.8, -34316.023, 0.0, 10.0, 9.956395 
1.55e+2, 1.9482064e+2, -1064497.0, -1097833.0, -0.0003456591, 0.0000000067795525, -0.00005765758, -1064497.0, -33739.355, 0.0, 10.0, 9.956052 
1.55e+2, 2.0477042e+2, -976333.0, -1019435.0, -0.00026643267, 0.000000006742134, 0.00006807709, -976333.0, -43083.1, 0.0, 10.0, 9.943291 
1.55e+2, 2.1471375e+2, -878046.0, -921409.9, -0.0003503312, 0.000000006711502, -0.0001268286, -878046.0, -42240.688, 0.0, 10.0, 9.942949 
1.55e+2, 2.2465037e+2, -789759.9, -843144.9, -0.00024692444, 0.000000006678259, 0.00012087853, -789759.9, -51333.582, 0.0, 10.0, 9.929908 
1.55e+2, 2.3458035e+2, -691326.4, -744966.44, -0.00034997723, 0.0000000066420536, -0.00008881899, -691326.4, -50213.816, 0.0, 10.0, 9.929577 
1.55e+2, 2.4450338e+2, -603002.3, -667018.8, -0.00024302313, 0.000000006622207, 0.00007470828, -603002.3, -59135.414, 0.0, 10.0, 9.916136 
1.55e+2, 2.5441962e+2, -504249.63, -568343.3, -0.00032079653, 0.0000000066218986, -0.000106737396, -504249.63, -57562.074, 0.0, 10.0, 9.916036 
1.55e+2, 2.643288e+2, -416014.22, -490987.88, -0.00017481633, 0.000000006601412, 0.00014059353, -416014.22, -66436.55, 0.0, 10.0, 9.901964 
1.55e+2, 2.742313e+2, -316729.0, -391374.78, -0.0002632037, 0.0000000065551924, -0.00020344468, -316729.0, -64195.992, 0.0, 10.0, 9.902385 
1.55e+2, 2.841256e+2, -230255.73, -318081.25, -0.00012573892, 0.0000000065297976, 0.00022904534, -230255.73, -74686.766, 0.0, 10.0, 9.885439 
1.55e+2, 2.940121e+2, -130549.6, -217765.02, -0.00019965007, 0.0000000065330155, -0.00025334343, -130549.6, -71868.2, 0.0, 10.0, 9.886217 
1.55e+2, 3.0392656e+2, -40805.586, -84750.16, -0.00002001745, 0.000000006540513, 0.00017313578, -40805.586, -40805.586, 0.0, 10.0, 9.942173 
1.55e+2, 3.138706e+2, -39727.574, -82511.21, -0.00006850857, 0.0000000065541004, -0.000055143042, -39727.574, -39727.574, 0.0, 10.0, 9.943684 
1.65e+2, 1.2499334e+2, -1719946.3, -1724224.6, 0.00006865046, 0.00000000770385, 0.000017598639, -1719946.3, -4880.9575, 0.0, 10.0, 9.994328 
1.65e+2, 1.349876e+2, -1622565.8, -1627434.9, -0.00006117, 0.000000007572594, -0.00006840339, -1622565.8, -5444.1704, 0.0, 10.0, 9.993545 
1.65e+2, 1.4497513e+2, -1534464.4, -1548146.3, -0.00003679273, 0.000000007483184, 0.0000709168, -1534464.4, -15220.678, 0.0, 10.0, 9.981865 
1.65e+2, 1.5495703e+2, -1436736.6, -1450821.9, -0.00016536466, 0.0000000074354602, -0.000056980978, -1436736.6, -15315.496, 0.0, 10.0, 9.981333 
1.65e+2, 1.6493228e+2, -1348685.8, -1371952.4, -0.00011304232, 0.0000000073850255, 0.000047341673, -1348685.8, -25021.988, 0.0, 10.0, 9.969248 
1.65e+2, 1.7490156e+2, -1250727.6, -1274310.1, -0.00022183645, 0.0000000073318214, -0.00007383205, -1250727.6, -24762.969, 0.0, 10.0, 9.968835 
1.65e+2, 1.8486421e+2, -1162646.8, -1195720.1, -0.00015029988, 0.00000000728781, 0.00006614349, -1162646.8, -34316.023, 0.0, 10.0, 9.956395 
1.65e+2, 1.9482064e+2, -1064497.0, -1097833.0, -0.0002825339, 0.0000000072534125, -0.00005765755, -1064497.0, -33739.355, 0.0, 10.0, 9.956052 
1.65e+2, 2.0477042e+2, -976333.0, -1019435.0, -0.00020659271, 0.000000007217469, 0.00006807712, -976333.0, -43083.1, 0.0, 10.0, 9.943291 
1.65e+2, 2.1471375e+2, -878046.0, -921409.9, -0.00031397527, 0.0000000071798447, -0.00012682856, -878046.0, -42240.688, 0.0, 10.0, 9.942949 
1.65e+2, 2.2465037e+2, -789759.9, -843144.9, -0.00021050597, 0.0000000071467285, 0.00012087857, -789759.9, -51333.582, 0.0, 10.0, 9.929908 
1.65e+2, 2.3458035e+2, -691326.4, -744966.44, -0.0003162957, 0.0000000071187114, -0.000088818975, -691326.4, -50213.816, 0.0, 10.0, 9.929577 
1.65e+2, 2.4450338e+2, -603002.3, -667018.8, -0.00020981631, 0.0000000070924604, 0.00007470829, -603002.3, -59135.414, 0.0, 10.0, 9.916136 
1.65e+2, 2.5441962e+2, -504249.63, -568343.3, -0.00031704118, 0.0000000070683077, -0.00010673736, -504249.63, -57562.07, 0.0, 10.0, 9.916036 
1.65e+2, 2.643288e+2, -416014.22, -490987.88, -0.00017015205, 0.000000007044329, 0.00014059356, -416014.22, -66436.54, 0.0, 10.0, 9.901964 
1.65e+2, 2.742313e+2, -316729.0, -391374.78, -0.0002573097, 0.0000000070205592, -0.00020344468, -316729.0, -64195.992, 0.0, 10.0, 9.902385 
1.65e+2, 2.841256e+2, -230255.73, -318081.25, -0.00011093265, 0.000000007003567, 0.00022904534, -230255.73, -74686.766, 0.0, 10.0, 9.885439 
1.65e+2, 2.940121e+2, -130549.6, -217765.0, -0.00019349983, 0.000000006995843, -0.00025334343, -130549.6, -71868.2, 0.0, 10.0, 9.886217 
1.65e+2, 3.0392656e+2, -40805.586, -84750.16, -0.000008523372, 0.000000006999695, 0.00017313578, -40805.586, -40805.586, 0.0, 10.0, 9.942173 
1.65e+2, 3.138706e+2, -39727.574, -82511.21, -0.000067233115, 0.000000007020646, -0.00005514306, -39727.574, -39727.574, 0.0, 10.0, 9.943684 
1.75e+2, 1.2499334e+2, -1719946.3, -1724224.6, -0.00006774204, 0.000000008185674, 0.000017598551, -1719946.3, -4880.9575, 0.0, 10.0, 9.994328 
1.75e+2, 1.349876e+2, -1622565.8, -1627434.9, -0.00019759596, 0.000000008081546, -0.0000684033, -1622565.8, -5444.1704, 0.0, 10.0, 9.993545 
1.75e+2, 1.4497513e+2, -1534464.4, -1548146.3, -0.00015368228, 0.000000008005781, 0.00007091699, -1534464.4, -15220.678, 0.0, 10.0, 9.981865 
1.75e+2, 1.5495703e+2, -1436736.6, -1450821.9, -0.00028222386, 0.00000000795813, -0.00005698098, -1436736.6, -15315.496, 0.0, 10.0, 9.981333 
1.75e+2, 1.6493228e+2, -1348685.8, -1371952.4, -0.0002187505, 0.000000007891499, 0.000047341648, -1348685.8, -25021.988, 0.0, 10.0, 9.969248 
1.75e+2, 1.7490156e+2, -1250727.6, -1274310.1, -0.0003274865, 0.000000007805486, -0.000073831936, -1250727.6, -24762.969, 0.0, 10.0, 9.968835 
1.75e+2, 1.8486421e+2, -1162646.8, -1195720.1, -0.00025220632, 0.000000007752142, 0.00006614361, -1162646.8, -34316.023, 0.0, 10.0, 9.956395 
1.75e+2, 1.9482064e+2, -1064497.0, -1097833.0, -0.00038439778, 0.000000007732978, -0.000057657577, -1064497.0, -33739.355, 0.0, 10.0, 9.956052 
1.75e+2, 2.0477042e+2, -976333.0, -1019435.0, -0.00029251527, 0.000000007700275, 0.000068077075, -976333.0, -43083.1, 0.0, 10.0, 9.943291 
1.75e+2, 2.1471375e+2, -878046.0, -921409.9, -0.0003995694, 0.000000007652902, -0.00012682848, -878046.0, -42240.688, 0.0, 10.0, 9.942949 
1.75e+2, 2.2465037e+2, -789759.9, -843144.9, -0.00028242785, 0.000000007621546, 0.00012087866, -789759.9, -51333.582, 0.0, 10.0, 9.929908 
1.75e+2, 2.3458035e+2, -691326.4, -744966.44, -0.00038777126, 0.000000007608322, -0.000088818975, -691326.4, -50213.816, 0.0, 10.0, 9.929577 
1.75e+2, 2.4450338e+2, -603002.3, -667018.8, -0.0002591686, 0.000000007571577, 0.000074708274, -603002.3, -59135.414, 0.0, 10.0, 9.916136 
1.75e+2, 2.5441962e+2, -504249.63, -568343.3, -0.00036533145, 0.0000000075067135, -0.000106737316, -504249.63, -57562.07, 0.0, 10.0, 9.916036 
1.75e+2, 2.643288e+2, -416014.22, -490987.88, -0.00021311529, 0.000000007480896, 0.00014059363, -416014.22, -66436.54, 0.0, 10.0, 9.901964 
1.75e+2, 2.742313e+2, -316729.0, -391374.78, -0.00029991704, 0.000000007504829, -0.00020344467, -316729.0, -64195.992, 0.0, 10.0, 9.902385 
1.75e+2, 2.841256e+2, -230255.73, -318081.25, -0.00013345167, 0.000000007507019, 0.00022904531, -230255.73, -74686.766, 0.0, 10.0, 9.885439 
1.75e+2, 2.940121e+2, -130549.6, -217765.02, -0.00021421029, 0.000000007479216, -0.00025334346, -130549.6, -71868.2, 0.0, 10.0, 9.886217 
1.75e+2, 3.0392656e+2, -40805.586, -84750.16, -0.0000140309885, 0.000000007465585, 0.00017313575, -40805.586, -40805.586, 0.0, 10.0, 9.942173 
1.75e+2, 3.138706e+2, -39727.574, -82511.21, -0.00007095763, 0.0000000074732736, -0.00005514301, -39727.574, -39727.574, 0.0, 10.0, 9.943684 
1.85e+2, 1.2499334e+2, -1719946.3, -1724224.6, 0.00014842233, 0.000000008688845, 0.000017598535, -1719946.3, -4880.9556, 0.0, 10.0, 9.994328 
1.85e+2, 1.349876e+2, -1622565.8, -1627434.9, -0.000048966096, 0.000000008575018, -0.00006840326, -1622565.8, -5444.1685, 0.0, 10.0, 9.993545 
1.85e+2, 1.4497513e+2, -1534464.4, -1548146.3, -0.000022017612, 0.000000008499591, 0.00007091712, -1534464.4, -15220.676, 0.0, 10.0, 9.981865 
1.85e+2, 1.5495703e+2, -1436736.6, -1450821.9, -0.00015010517, 0.000000008462387, -0.000056980978, -1436736.6, -15315.494, 0.0, 10.0, 9.981333 
1.85e+2, 1.6493228e+2, -1348685.8, -1371952.4, -0.000098846904, 0.0000000083978104, 0.000047341644, -1348685.8, -25021.986, 0.0, 10.0, 9.969248 
1.85e+2, 1.7490156e+2, -1250727.6, -1274310.1, -0.0002686619, 0.00000000830528, -0.00007383182, -1250727.6, -24762.967, 0.0, 10.0, 9.968835 
1.85e+2, 1.8486421e+2, -1162646.8, -1195720.1, -0.00020338291, 0.000000008245633, 0.00006614373, -1162646.8, -34316.02, 0.0, 10.0, 9.956395 
1.85e+2, 1.9482064e+2, -1064497.0, -1097833.0, -0.0003040517, 0.000000008220389, -0.00005765757, -1064497.0, -33739.355, 0.0, 10.0, 9.956052 
1.85e+2, 2.0477042e+2, -976333.0, -1019435.0, -0.00020169387, 0.000000008183984, 0.00006807706, -976333.0, -43083.1, 0.0, 10.0, 9.943291 
1.85e+2, 2.1471375e+2, -878046.0, -921409.9, -0.00035194974, 0.000000008135483, -0.00012682844, -878046.0, -42240.684, 0.0, 10.0, 9.942949 
1.85e+2, 2.2465037e+2, -789759.9, -843144.9, -0.00024703343, 0.000000008101687, 0.00012087873, -789759.9, -51333.58, 0.0, 10.0, 9.929908 
1.85e+2, 2.3458035e+2, -691326.4, -744966.44, -0.00035973822, 0.000000008084536, -0.00008881894, -691326.4, -50213.813, 0.0, 10.0, 9.929577 
1.85e+2, 2.4450338e+2, -603002.3, -667018.8, -0.00022062536, 0.000000008046068, 0.00007470829, -603002.3, -59135.41, 0.0, 10.0, 9.916136 
1.85e+2, 2.5441962e+2, -504249.63, -568343.3, -0.0003389363, 0.000000007982114, -0.000106737294, -504249.63, -57562.07, 0.0, 10.0, 9.916036 
1.85e+2, 2.643288e+2, -416014.22, -490987.88, -0.00019425913, 0.000000007958274, 0.00014059365, -416014.22, -66436.54, 0.0, 10.0, 9.901964 
1.85e+2, 2.742313e+2, -316729.0, -391374.78, -0.0002924549, 0.000000007985538, -0.00020344465, -316729.0, -64195.99, 0.0, 10.0, 9.902385 
1.85e+2, 2.841256e+2, -230255.73, -318081.25, -0.00011511941, 0.000000007988494, 0.00022904533, -230255.73, -74686.766, 0.0, 10.0, 9.885439 
1.85e+2, 2.940121e+2, -130549.6, -217765.0, -0.00021059207, 0.0000000079579445, -0.0002533435, -130549.6, -71868.2, 0.0, 10.0, 9.886217 
1.85e+2, 3.0392656e+2, -40805.582, -84750.16, -0.000023224566, 0.000000007935522, 0.00017313576, -40805.582, -40805.582, 0.0, 10.0, 9.942173 
1.85e+2, 3.138706e+2, -39727.57, -82511.21, -0.0001310947, 0.000000007925486, -0.000055142948, -39727.57, -39727.57, 0.0, 10.0, 9.943684 
1.95e+2, 1.2499334e+2, -1719946.3, -1724224.6, -0.00000052725676, 0.000000009213364, 0.000017598588, -1719946.3, -4880.956, 0.0, 10.0, 9.994328 
1.95e+2, 1.349876e+2, -1622565.8, -1627434.9, -0.00019795286, 0.000000009053008, -0.00006840326, -1622565.8, -5444.169, 0.0, 10.0, 9.993545 
1.95e+2, 1.4497513e+2, -1534464.4, -1548146.3, -0.00015831263, 0.000000008964615, 0.000070917195, -1534464.4, -15220.676, 0.0, 10.0, 9.981865 
1.95e+2, 1.5495703e+2, -1436736.6, -1450821.9, -0.00028638064, 0.000000008948232, -0.000056980964, -1436736.6, -15315.494, 0.0, 10.0, 9.981333 
1.95e+2, 1.6493228e+2, -1348685.8, -1371952.4, -0.00021182178, 0.0000000089039585, 0.00004734167, -1348685.8, -25021.988, 0.0, 10.0, 9.969248 
1.95e+2, 1.7490156e+2, -1250727.6, -1274310.1, -0.0003815145, 0.000000008831204, -0.00007383172, -1250727.6, -24762.967, 0.0, 10.0, 9.968835 
1.95e+2, 1.8486421e+2, -1162646.8, -1195720.1, -0.00030882302, 0.000000008768283, 0.00006614384, -1162646.8, -34316.02, 0.0, 10.0, 9.956395 
1.95e+2, 1.9482064e+2, -1064497.0, -1097833.0, -0.00040940676, 0.000000008715645, -0.00005765753, -1064497.0, -33739.355, 0.0, 10.0, 9.956052 
1.95e+2, 2.0477042e+2, -976333.0, -1019435.0, -0.0002939986, 0.000000008668595, 0.00006807707, -976333.0, -43083.1, 0.0, 10.0, 9.943291 
1.95e+2, 2.1471375e+2, -878046.0, -921409.9, -0.00044398577, 0.00000000862759, -0.00012682841, -878046.0, -42240.684, 0.0, 10.0, 9.942949 
1.95e+2, 2.2465037e+2, -789759.9, -843144.9, -0.00032421984, 0.000000008587154, 0.000120878765, -789759.9, -51333.58, 0.0, 10.0, 9.929908 
1.95e+2, 2.3458035e+2, -691326.4, -744966.44, -0.00043643988, 0.000000008547353, -0.00008881888, -691326.4, -50213.813, 0.0, 10.0, 9.929577 
1.95e+2, 2.4450338e+2, -603002.3, -667018.8, -0.0002784835, 0.000000008515931, 0.00007470834, -603002.3, -59135.41, 0.0, 10.0, 9.916136 
1.95e+2, 2.5441962e+2, -504249.63, -568343.3, -0.00039589003, 0.000000008494509, -0.000106737294, -504249.63, -57562.07, 0.0, 10.0, 9.916036 
1.95e+2, 2.643288e+2, -416014.22, -490987.88, -0.0002470088, 0.000000008476464, 0.00014059363, -416014.22, -66436.54, 0.0, 10.0, 9.901964 
1.95e+2, 2.742313e+2, -316729.0, -391374.78, -0.00034492408, 0.000000008462685, -0.00020344462, -316729.0, -64195.99, 0.0, 10.0, 9.902385 
1.95e+2, 2.841256e+2, -230255.73, -318081.25, -0.0001384535, 0.0000000084479925, 0.00022904536, -230255.73, -74686.766, 0.0, 10.0, 9.885439 
1.95e+2, 2.940121e+2, -130549.6, -217765.02, -0.00023130249, 0.0000000084320275, -0.00025334346, -130549.6, -71868.2, 0.0, 10.0, 9.886217 
1.95e+2, 3.0392656e+2, -40805.582, -84750.16, -0.000021366812, 0.000000008409507, 0.00017313578, -40805.582, -40805.582, 0.0, 10.0, 9.942173 
1.95e+2, 3.138706e+2, -39727.574, -82511.21, -0.0001265893, 0.000000008377284, -0.000055142875, -39727.574, -39727.574, 0.0, 10.0, 9.943684 
2.05e+2, 1.2499334e+2, -1719946.3, -1724224.6, 0.00009265797, 0.00000000976069, 0.000017598773, -1719946.3, -4880.9536, 0.0, 10.0, 9.994328 
2.05e+2, 1.349876e+2, -1622565.8, -1627434.9, -0.000056728626, 0.000000009565517, -0.000068403264, -1622565.8, -5444.1665, 0.0, 10.0, 9.993545 
2.05e+2, 1.4497513e+2, -1534464.4, -1548146.3, -0.000011536449, 0.0000000094589065, 0.00007091724, -1534464.4, -15220.674, 0.0, 10.0, 9.981865 
2.05e+2, 1.5495703e+2, -1436736.6, -1450821.9, -0.00018791846, 0.000000009441022, -0.00005698086, -1436736.6, -15315.492, 0.0, 10.0, 9.981333 
2.05e+2, 1.6493228e+2, -1348685.8, -1371952.4, -0.00011646247, 0.000000009406733, 0.00004734176, -1348685.8, -25021.986, 0.0, 10.0, 9.969248 
2.05e+2, 1.7490156e+2, -1250727.6, -1274310.1, -0.00027123737, 0.000000009355693, -0.0000738317, -1250727.6, -24762.965, 0.0, 10.0, 9.968835 
2.05e+2, 1.8486421e+2, -1162646.8, -1195720.1, -0.00019722509, 0.000000009293696, 0.00006614385, -1162646.8, -34316.02, 0.0, 10.0, 9.956395 
2.05e+2, 1.9482064e+2, -1064497.0, -1097833.0, -0.00035343823, 0.000000009220226, -0.000057657442, -1064497.0, -33739.35, 0.0, 10.0, 9.956052 
2.05e+2, 2.0477042e+2, -976333.0, -1019435.0, -0.00024647202, 0.000000009164636, 0.00006807716, -976333.0, -43083.098, 0.0, 10.0, 9.943291 
2.05e+2, 2.1471375e+2, -878046.0, -921409.9, -0.0003780887, 0.000000009128406, -0.0001268284, -878046.0, -42240.684, 0.0, 10.0, 9.942949 
2.05e+2, 2.2465037e+2, -789759.9, -843144.9, -0.000250238, 0.000000009083882, 0.00012087877, -789759.9, -51333.58, 0.0, 10.0, 9.929908 
2.05e+2, 2.3458035e+2, -691326.4, -744966.44, -0.0003966981, 0.00000000902996, -0.00008881883, -691326.4, -50213.813, 0.0, 10.0, 9.929577 
2.05e+2, 2.4450338e+2, -603002.3, -667018.8, -0.00024453213, 0.000000009003269, 0.00007470839, -603002.3, -59135.41, 0.0, 10.0, 9.916136 
2.05e+2, 2.5441962e+2, -504249.63, -568343.3, -0.00035689262, 0.00000000900911, -0.00010673729, -504249.63, -57562.066, 0.0, 10.0, 9.916036 
2.05e+2, 2.643288e+2, -416014.22, -490987.88, -0.0001981325, 0.00000000899026, 0.00014059363, -416014.22, -66436.54, 0.0, 10.0, 9.901964 
2.05e+2, 2.742313e+2, -316729.0, -391374.78, -0.00033094545, 0.000000008939903, -0.00020344461, -316729.0, -64195.99, 0.0, 10.0, 9.902385 
2.05e+2, 2.841256e+2, -230255.73, -318081.25, -0.0001384702, 0.00000000890919, 0.00022904538, -230255.73, -74686.76, 0.0, 10.0, 9.885439 
2.05e+2, 2.940121e+2, -130549.59, -217765.0, -0.00025097307, 0.000000008905498, -0.00025334343, -130549.59, -71868.2, 0.0, 10.0, 9.886217 
2.05e+2, 3.0392656e+2, -40805.582, -84750.16, -0.00002726096, 0.000000008893603, 0.0001731358, -40805.582, -40805.582, 0.0, 10.0, 9.942173 
2.05e+2, 3.138706e+2, -39727.57, -82511.21, -0.000114488204, 0.000000008869298, -0.0000551429, -39727.57, -39727.57, 0.0, 10.0, 9.943684 
2.15e+2, 1.2499334e+2, -1719946.3, -1724224.6, -0.000048300786, 0.000000010330825, 0.00001759909, -1719946.3, -4880.954, 0.0, 10.0, 9.994328 
2.15e+2, 1.349876e+2, -1622565.8, -1627434.9, -0.00019772208, 0.000000010112544, -0.00006840329, -1622565.8, -5444.167, 0.0, 10.0, 9.993545 
2.15e+2, 1.4497513e+2, -1534464.4, -1548146.3, -0.0001555584, 0.000000009982465, 0.00007091726, -1534464.4, -15220.674, 0.0, 10.0, 9.981865 
2.15e+2, 1.5495703e+2, -1436736.6, -1450821.9, -0.00033194578, 0.000000009940757, -0.000056980673, -1436736.6, -15315.492, 0.0, 10.0, 9.981333 
2.15e+2, 1.6493228e+2, -1348685.8, -1371952.4, -0.0002568534, 0.000000009906134, 0.00004734192, -1348685.8, -25021.986, 0.0, 10.0, 9.969248 
2.15e+2, 1.7490156e+2, -1250727.6, -1274310.1, -0.00041160977, 0.000000009878745, -0.000073831776, -1250727.6, -24762.965, 0.0, 10.0, 9.968835 
2.15e+2, 1.8486421e+2, -1162646.8, -1195720.1, -0.0003041475, 0.00000000982187, 0.00006614377, -1162646.8, -34316.02, 0.0, 10.0, 9.956395 
2.15e+2, 1.9482064e+2, -1064497.0, -1097833.0, -0.0004599741, 0.000000009734134, -0.0000576573, -1064497.0, -33739.35, 0.0, 10.0, 9.956052 
2.15e+2, 2.0477042e+2, -976333.0, -1019435.0, -0.00034291387, 0.00000000967211, 0.000068077345, -976333.0, -43083.098, 0.0, 10.0, 9.943291 
2.15e+2, 2.1471375e+2, -878046.0, -921409.9, -0.000474323, 0.00000000963793, -0.00012682837, -878046.0, -42240.684, 0.0, 10.0, 9.942949 
2.15e+2, 2.2465037e+2, -789759.9, -843144.9, -0.00033273557, 0.000000009591873, 0.00012087874, -789759.9, -51333.58, 0.0, 10.0, 9.929908 
2.15e+2, 2.3458035e+2, -691326.4, -744966.44, -0.00047874733, 0.000000009532356, -0.00008881881, -691326.4, -50213.813, 0.0, 10.0, 9.929577 
2.15e+2, 2.4450338e+2, -603002.3, -667018.8, -0.0003238552, 0.000000009508082, 0.000074708434, -603002.3, -59135.41, 0.0, 10.0, 9.916136 
2.15e+2, 2.5441962e+2, -504249.63, -568343.3, -0.00043608595, 0.000000009525914, -0.000106737265, -504249.63, -57562.066, 0.0, 10.0, 9.916036 
2.15e+2, 2.643288e+2, -416014.22, -490987.88, -0.00023544686, 0.000000009499661, 0.00014059363, -416014.22, -66436.54, 0.0, 10.0, 9.901964 
2.15e+2, 2.742313e+2, -316729.0, -391374.78, -0.00036545342, 0.000000009417194, -0.0002034446, -316729.0, -64195.99, 0.0, 10.0, 9.902385 
2.15e+2, 2.841256e+2, -230255.73, -318081.25, -0.00017036524, 0.000000009372085, 0.00022904543, -230255.73, -74686.76, 0.0, 10.0, 9.885439 
2.15e+2, 2.940121e+2, -130549.59, -217765.02, -0.0002826343, 0.000000009378354, -0.00025334334, -130549.59, -71868.2, 0.0, 10.0, 9.886217 
2.15e+2, 3.0392656e+2, -40805.582, -84750.16, -0.00004153923, 0.0000000093878105, 0.00017313584, -40805.582, -40805.582, 0.0, 10.0, 9.942173 
2.15e+2, 3.138706e+2, -39727.57, -82511.21, -0.00012672765, 0.00000000940153, -0.00005514303, -39727.57, -39727.57, 0.0, 10.0, 9.943684 
2.25e+2, 1.2499334e+2, -1719946.3, -1724224.6, 0.00006891586, 0.000000010874144, 0.000017599265, -1719946.3, -4880.951, 0.0, 10.0, 9.994328 
2.25e+2, 1.349876e+2, -1622565.8, -1627434.9, -0.00009045265, 0.000000010681855, -0.00006840325, -1622565.8, -5444.164, 0.0, 10.0, 9.993545 
2.25e+2, 1.4497513e+2, -1534464.4, -1548146.3, -0.0000464974, 0.000000010554894, 0.00007091739, -1534464.4, -15220.672, 0.0, 10.0, 9.981865 
2.25e+2, 1.5495703e+2, -1436736.6, -1450821.9, -0.00023597783, 0.000000010493295, -0.00005698055, -1436736.6, -15315.49, 0.0, 10.0, 9.981333 
2.25e+2, 1.6493228e+2, -1348685.8, -1371952.4, -0.00015135476, 0.000000010437051, 0.000047342004, -1348685.8, -25021.982, 0.0, 10.0, 9.969248 
2.25e+2, 1.7490156e+2, -1250727.6, -1274310.1, -0.00028672427, 0.000000010386274, -0.00007383176, -1250727.6, -24762.963, 0.0, 10.0, 9.968835 
2.25e+2, 1.8486421e+2, -1162646.8, -1195720.1, -0.00017210691, 0.000000010326749, 0.00006614379, -1162646.8, -34316.016, 0.0, 10.0, 9.956395 
2.25e+2, 1.9482064e+2, -1064497.0, -1097833.0, -0.00037587993, 0.000000010258061, -0.000057657227, -1064497.0, -33739.35, 0.0, 10.0, 9.956052 
2.25e+2, 2.0477042e+2, -976333.0, -1019435.0, -0.00027440325, 0.00000001020159, 0.00006807743, -976333.0, -43083.098, 0.0, 10.0, 9.943291 
2.25e+2, 2.1471375e+2, -878046.0, -921409.9, -0.00041682002, 0.000000010158344, -0.00012682831, -878046.0, -42240.68, 0.0, 10.0, 9.942949 
2.25e+2, 2.2465037e+2, -789759.9, -843144.9, -0.0002653786, 0.000000010111522, 0.00012087878, -789759.9, -51333.574, 0.0, 10.0, 9.929908 
2.25e+2, 2.3458035e+2, -691326.4, -744966.44, -0.000408868, 0.00000001006064, -0.00008881879, -691326.4, -50213.81, 0.0, 10.0, 9.929577 
2.25e+2, 2.4450338e+2, -603002.3, -667018.8, -0.00025945454, 0.00000001002792, 0.000074708456, -603002.3, -59135.406, 0.0, 10.0, 9.916136 
2.25e+2, 2.5441962e+2, -504249.63, -568343.3, -0.0004152581, 0.000000010016891, -0.000106737214, -504249.63, -57562.066, 0.0, 10.0, 9.916036 
2.25e+2, 2.643288e+2, -416014.22, -490987.88, -0.00021311517, 0.0000000099841575, 0.0001405937, -416014.22, -66436.54, 0.0, 10.0, 9.901964 
2.25e+2, 2.742313e+2, -316729.0, -391374.78, -0.00034074124, 0.000000009923741, -0.00020344456, -316729.0, -64195.984, 0.0, 10.0, 9.902385 
2.25e+2, 2.841256e+2, -230255.73, -318081.25, -0.00013847012, 0.000000009888622, 0.00022904544, -230255.73, -74686.76, 0.0, 10.0, 9.885439 
2.25e+2, 2.940121e+2, -130549.59, -217765.0, -0.00025497723, 0.000000009888246, -0.0002533433, -130549.59, -71868.195, 0.0, 10.0, 9.886217 
2.25e+2, 3.0392656e+2, -40805.582, -84750.16, 0.0000024153271, 0.000000009897582, 0.00017313584, -40805.582, -40805.582, 0.0, 10.0, 9.942173 
2.25e+2, 3.138706e+2, -39727.57, -82511.21, -0.000072360555, 0.000000009921018, -0.000055143093, -39727.57, -39727.57, 0.0, 10.0, 9.943684 
2.35e+2, 1.2499334e+2, -1719946.3, -1724224.6, -0.00010156165, 0.000000011390648, 0.000017599295, -1719946.3, -4880.9517, 0.0, 10.0, 9.994328 
2.35e+2, 1.349876e+2, -1622565.8, -1627434.9, -0.000260972, 0.0000000112734515, -0.00006840313, -1622565.8, -5444.1646, 0.0, 10.0, 9.993545 
2.35e+2, 1.4497513e+2, -1534464.4, -1548146.3, -0.00018853247, 0.000000011176194, 0.00007091762, -1534464.4, -15220.672, 0.0, 10.0, 9.981865 
2.35e+2, 1.5495703e+2, -1436736.6, -1450821.9, -0.0003779684, 0.000000011098637, -0.000056980498, -1436736.6, -15315.49, 0.0, 10.0, 9.981333 
2.35e+2, 1.6493228e+2, -1348685.8, -1371952.4, -0.0002849023, 0.000000010999485, 0.000047342015, -1348685.8, -25021.984, 0.0, 10.0, 9.969248 
2.35e+2, 1.7490156e+2, -1250727.6, -1274310.1, -0.00042022788, 0.0000000108782805, -0.00007383166, -1250727.6, -24762.963, 0.0, 10.0, 9.968835 
2.35e+2, 1.8486421e+2, -1162646.8, -1195720.1, -0.0002987833, 0.000000010808331, 0.00006614389, -1162646.8, -34316.016, 0.0, 10.0, 9.956395 
2.35e+2, 1.9482064e+2, -1064497.0, -1097833.0, -0.00050247804, 0.000000010792007, -0.000057657224, -1064497.0, -33739.35, 0.0, 10.0, 9.956052 
2.35e+2, 2.0477042e+2, -976333.0, -1019435.0, -0.00038217937, 0.000000010753076, 0.00006807743, -976333.0, -43083.098, 0.0, 10.0, 9.943291 
2.35e+2, 2.1471375e+2, -878046.0, -921409.9, -0.0005242083, 0.000000010689648, -0.0001268282, -878046.0, -42240.68, 0.0, 10.0, 9.942949 
2.35e+2, 2.2465037e+2, -789759.9, -843144.9, -0.00035750438, 0.000000010642829, 0.000120878874, -789759.9, -51333.574, 0.0, 10.0, 9.929908 
2.35e+2, 2.3458035e+2, -691326.4, -744966.44, -0.0005004956, 0.000000010614812, -0.00008881879, -691326.4, -50213.81, 0.0, 10.0, 9.929577 
2.35e+2, 2.4450338e+2, -603002.3, -667018.8, -0.00032756204, 0.000000010562782, 0.00007470844, -603002.3, -59135.406, 0.0, 10.0, 9.916136 
2.35e+2, 2.5441962e+2, -504249.63, -568343.3, -0.00048223662, 0.00000001048204, -0.000106737134, -504249.63, -57562.066, 0.0, 10.0, 9.916036 
2.35e+2, 2.643288e+2, -416014.22, -490987.88, -0.00027038035, 0.000000010443751, 0.0001405938, -416014.22, -66436.54, 0.0, 10.0, 9.901964 
2.35e+2, 2.742313e+2, -316729.0, -391374.78, -0.0003973567, 0.0000000104595435, -0.00020344455, -316729.0, -64195.984, 0.0, 10.0, 9.902385 
2.35e+2, 2.841256e+2, -230255.73, -318081.25, -0.00018045574, 0.000000010458802, 0.00022904541, -230255.73, -74686.76, 0.0, 10.0, 9.885439 
2.35e+2, 2.940121e+2, -130549.59, -217765.02, -0.00029564646, 0.000000010435173, -0.00025334337, -130549.59, -71868.195, 0.0, 10.0, 9.886217 
2.35e+2, 3.0392656e+2, -40805.582, -84750.16, -0.000022512164, 0.000000010422917, 0.00017313579, -40805.582, -40805.582, 0.0, 10.0, 9.942173 
2.35e+2, 3.138706e+2, -39727.57, -82511.21, -0.00009544206, 0.000000010427762, -0.000055143093, -39727.57, -39727.57, 0.0, 10.0, 9.943684 
2.45e+2, 1.2499334e+2, -1719946.3, -1724224.6, 0.00014636274, 0.000000011963934, 0.000017599314, -1719946.3, -4880.9487, 0.0, 10.0, 9.994328 
2.45e+2, 1.349876e+2, -1622565.8, -1627434.9, -0.00009546497, 0.000000011840008, -0.00006840305, -1622565.8, -5444.1616, 0.0, 10.0, 9.993545 
2.45e+2, 1.4497513e+2, -1534464.4, -1548146.3, -0.00002875276, 0.000000011743861, 0.000070917806, -1534464.4, -15220.67, 0.0, 10.0, 9.981865 
2.45e+2, 1.5495703e+2, -1436736.6, -1450821.9, -0.00020289308, 0.000000011675315, -0.000056980494, -1436736.6, -15315.487, 0.0, 10.0, 9.981333 
2.45e+2, 1.6493228e+2, -1348685.8, -1371952.4, -0.00012146873, 0.000000011568264, 0.000047342008, -1348685.8, -25021.98, 0.0, 10.0, 9.969248 
2.45e+2, 1.7490156e+2, -1250727.6, -1274310.1, -0.00034031708, 0.000000011421893, -0.0000738315, -1250727.6, -24762.96, 0.0, 10.0, 9.968835 
2.45e+2, 1.8486421e+2, -1162646.8, -1195720.1, -0.0002349459, 0.0000000113434355, 0.00006614406, -1162646.8, -34316.016, 0.0, 10.0, 9.956395 
2.45e+2, 1.9482064e+2, -1064497.0, -1097833.0, -0.00038370705, 0.000000011336034, -0.00005765721, -1064497.0, -33739.348, 0.0, 10.0, 9.956052 
2.45e+2, 2.0477042e+2, -976333.0, -1019435.0, -0.00023999828, 0.000000011297058, 0.0000680774, -976333.0, -43083.094, 0.0, 10.0, 9.943291 
2.45e+2, 2.1471375e+2, -878046.0, -921409.9, -0.0004346786, 0.000000011223872, -0.00012682816, -878046.0, -42240.68, 0.0, 10.0, 9.942949 
2.45e+2, 2.2465037e+2, -789759.9, -843144.9, -0.000290039, 0.00000001117379, 0.000120878954, -789759.9, -51333.574, 0.0, 10.0, 9.929908 
2.45e+2, 2.3458035e+2, -691326.4, -744966.44, -0.00045617353, 0.000000011149868, -0.00008881873, -691326.4, -50213.81, 0.0, 10.0, 9.929577 
2.45e+2, 2.4450338e+2, -603002.3, -667018.8, -0.00027436958, 0.0000000110941, 0.00007470849, -603002.3, -59135.406, 0.0, 10.0, 9.916136 
2.45e+2, 2.5441962e+2, -504249.63, -568343.3, -0.00043416632, 0.000000011000258, -0.0001067371, -504249.63, -57562.063, 0.0, 10.0, 9.916036 
2.45e+2, 2.643288e+2, -416014.22, -490987.88, -0.00022641072, 0.0000000109638085, 0.00014059382, -416014.22, -66436.54, 0.0, 10.0, 9.901964 
2.45e+2, 2.742313e+2, -316729.0, -391374.78, -0.0003578627, 0.0000000110004805, -0.00020344454, -316729.0, -64195.984, 0.0, 10.0, 9.902385 
2.45e+2, 2.841256e+2, -230255.73, -318081.25, -0.00012530287, 0.000000011007854, 0.00022904541, -230255.73, -74686.76, 0.0, 10.0, 9.885439 
2.45e+2, 2.940121e+2, -130549.59, -217765.0, -0.0002563456, 0.000000010974784, -0.0002533434, -130549.59, -71868.195, 0.0, 10.0, 9.886217 
2.45e+2, 3.0392656e+2, -40805.58, -84750.16, -0.00000243957, 0.0000000109486065, 0.00017313579, -40805.58, -40805.58, 0.0, 10.0, 9.942173 
2.45e+2, 3.138706e+2, -39727.566, -82511.21, -0.00014433978, 0.000000010933047, -0.00005514302, -39727.566, -39727.566, 0.0, 10.0, 9.943684 
2.55e+2, 1.2499334e+2, -1719946.3, -1724224.6, -0.000043542117, 0.000000012593999, 0.00001759932, -1719946.3, -4880.949, 0.0, 10.0, 9.994328 
2.55e+2, 1.349876e+2, -1622565.8, -1627434.9, -0.00028541722, 0.000000012381525, -0.000068402995, -1622565.8, -5444.1626, 0.0, 10.0, 9.993545 
2.55e+2, 1.4497513e+2, -1534464.4, -1548146.3, -0.00019254448, 0.000000012257894, 0.00007091796, -1534464.4, -15220.67, 0.0, 10.0, 9.981865 
2.55e+2, 1.5495703e+2, -1436736.6, -1450821.9, -0.00036664386, 0.000000012223327, -0.00005698054, -1436736.6, -15315.488, 0.0, 10.0, 9.981333 
2.55e+2, 1.6493228e+2, -1348685.8, -1371952.4, -0.00025117476, 0.000000012143386, 0.000047341982, -1348685.8, -25021.98, 0.0, 10.0, 9.969248 
2.55e+2, 1.7490156e+2, -1250727.6, -1274310.1, -0.00046984406, 0.000000012017111, -0.00007383128, -1250727.6, -24762.96, 0.0, 10.0, 9.968835 
2.55e+2, 1.8486421e+2, -1162646.8, -1195720.1, -0.0003724125, 0.000000011932062, 0.00006614429, -1162646.8, -34316.016, 0.0, 10.0, 9.956395 
2.55e+2, 1.9482064e+2, -1064497.0, -1097833.0, -0.0005212664, 0.000000011890143, -0.000057657195, -1064497.0, -33739.348, 0.0, 10.0, 9.956052 
2.55e+2, 2.0477042e+2, -976333.0, -1019435.0, -0.00035716224, 0.000000011833537, 0.00006807734, -976333.0, -43083.094, 0.0, 10.0, 9.943291 
2.55e+2, 2.1471375e+2, -878046.0, -921409.9, -0.0005514223, 0.000000011761014, -0.00012682816, -878046.0, -42240.68, 0.0, 10.0, 9.942949 
2.55e+2, 2.2465037e+2, -789759.9, -843144.9, -0.0003884738, 0.000000011704405, 0.00012087902, -789759.9, -51333.574, 0.0, 10.0, 9.929908 
2.55e+2, 2.3458035e+2, -691326.4, -744966.44, -0.00055401045, 0.000000011665806, -0.000088818604, -691326.4, -50213.81, 0.0, 10.0, 9.929577 
2.55e+2, 2.4450338e+2, -603002.3, -667018.8, -0.00034715267, 0.000000011621874, 0.0000747086, -603002.3, -59135.406, 0.0, 10.0, 9.916136 
2.55e+2, 2.5441962e+2, -504249.63, -568343.3, -0.0005057468, 0.000000011571543, -0.0001067371, -504249.63, -57562.063, 0.0, 10.0, 9.916036 
2.55e+2, 2.643288e+2, -416014.22, -490987.88, -0.00030553457, 0.000000011544333, 0.00014059378, -416014.22, -66436.54, 0.0, 10.0, 9.901964 
2.55e+2, 2.742313e+2, -316729.0, -391374.78, -0.00043749396, 0.000000011546553, -0.00020344452, -316729.0, -64195.984, 0.0, 10.0, 9.902385 
2.55e+2, 2.841256e+2, -230255.73, -318081.25, -0.00016840867, 0.00000001153578, 0.00022904544, -230255.73, -74686.76, 0.0, 10.0, 9.885439 
2.55e+2, 2.940121e+2, -130549.59, -217765.02, -0.00029616215, 0.000000011507081, -0.0002533434, -130549.59, -71868.195, 0.0, 10.0, 9.886217 
2.55e+2, 3.0392656e+2, -40805.58, -84750.16, -0.000015625876, 0.0000000114746515, 0.00017313582, -40805.58, -40805.58, 0.0, 10.0, 9.942173 
2.55e+2, 3.138706e+2, -39727.566, -82511.21, -0.00015440198, 0.0000000114368754, -0.00005514288, -39727.566, -39727.566, 0.0, 10.0, 9.943684 
2.65e+2, 1.2499334e+2, -1719946.3, -1724224.6, 0.00015705203, 0.000000013233494, 0.00001759943, -1719946.3, -4880.9463, 0.0, 10.0, 9.994328 
2.65e+2, 1.349876e+2, -1622565.8, -1627434.9, -0.00007246796, 0.000000012943281, -0.000068402995, -1622565.8, -5444.159, 0.0, 10.0, 9.993545 
2.65e+2, 1.4497513e+2, -1534464.4, -1548146.3, 0.000009501585, 0.000000012785749, 0.000070918075, -1534464.4, -15220.667, 0.0, 10.0, 9.981865 
2.65e+2, 1.5495703e+2, -1436736.6, -1450821.9, -0.0002114042, 0.000000012761418, -0.000056980458, -1436736.6, -15315.484, 0.0, 10.0, 9.981333 
2.65e+2, 1.6493228e+2, -1348685.6, -1371952.4, -0.00010932548, 0.000000012709029, 0.000047342055, -1348685.6, -25021.979, 0.0, 10.0, 9.969248 
2.65e+2, 1.7490156e+2, -1250727.6, -1274310.1, -0.00034318832, 0.000000012627994, -0.000073831194, -1250727.6, -24762.959, 0.0, 10.0, 9.968835 
2.65e+2, 1.8486421e+2, -1162646.8, -1195720.1, -0.00024500562, 0.000000012541902, 0.00006614438, -1162646.8, -34316.01, 0.0, 10.0, 9.956395 
2.65e+2, 1.9482064e+2, -1064497.0, -1097833.0, -0.0004224301, 0.000000012450509, -0.000057657122, -1064497.0, -33739.344, 0.0, 10.0, 9.956052 
2.65e+2, 2.0477042e+2, -976333.0, -1019435.0, -0.00025852502, 0.000000012373573, 0.000068077396, -976333.0, -43083.09, 0.0, 10.0, 9.943291 
2.65e+2, 2.1471375e+2, -878046.0, -921409.9, -0.00045081254, 0.000000012312286, -0.0001268281, -878046.0, -42240.676, 0.0, 10.0, 9.942949 
2.65e+2, 2.2465037e+2, -789759.9, -843144.9, -0.00028864402, 0.00000001225593, 0.00012087908, -789759.9, -51333.57, 0.0, 10.0, 9.929908 
2.65e+2, 2.3458035e+2, -691326.4, -744966.44, -0.0004884729, 0.000000012205137, -0.00008881854, -691326.4, -50213.805, 0.0, 10.0, 9.929577 
2.65e+2, 2.4450338e+2, -603002.3, -667018.8, -0.0002799478, 0.00000001216971, 0.000074708645, -603002.3, -59135.402, 0.0, 10.0, 9.916136 
2.65e+2, 2.5441962e+2, -504249.63, -568343.3, -0.0004255988, 0.000000012152619, -0.00010673709, -504249.63, -57562.063, 0.0, 10.0, 9.916036 
2.65e+2, 2.643288e+2, -416014.22, -490987.88, -0.00021922888, 0.000000012126607, 0.00014059378, -416014.22, -66436.53, 0.0, 10.0, 9.901964 
2.65e+2, 2.742313e+2, -316729.0, -391374.78, -0.00039742052, 0.000000012089188, -0.00020344449, -316729.0, -64195.98, 0.0, 10.0, 9.902385 
2.65e+2, 2.841256e+2, -230255.73, -318081.25, -0.00014703217, 0.000000012057748, 0.00022904549, -230255.73, -74686.76, 0.0, 10.0, 9.885439 
2.65e+2, 2.940121e+2, -130549.59, -217765.0, -0.00030420005, 0.000000012034533, -0.00025334334, -130549.59, -71868.195, 0.0, 10.0, 9.886217 
2.65e+2, 3.0392656e+2, -40805.574, -84750.16, -0.000022950413, 0.0000000120094406, 0.00017313585, -40805.574, -40805.574, 0.0, 10.0, 9.942173 
2.65e+2, 3.138706e+2, -39727.566, -82511.21, -0.00015989521, 0.000000011981509, -0.000055142853, -39727.566, -39727.566, 0.0, 10.0, 9.943684 
2.75e+2, 1.2499334e+2, -1719946.3, -1724224.6, -0.0000057868033, 0.00000001388242, 0.000017599647, -1719946.3, -4880.947, 0.0, 10.0, 9.994328 
2.75e+2, 1.349876e+2, -1622565.8, -1627434.9, -0.00023534658, 0.000000013525273, -0.00006840304, -1622565.8, -5444.1597, 0.0, 10.0, 9.993545 
2.75e+2, 1.4497513e+2, -1534464.4, -1548146.3, -0.00016886863, 0.000000013327425, 0.00007091816, -1534464.4, -15220.667, 0.0, 10.0, 9.981865 
2.75e+2, 1.5495703e+2, -1436736.6, -1450821.9, -0.0003897995, 0.000000013289584, -0.000056980243, -1436736.6, -15315.485, 0.0, 10.0, 9.981333 
2.75e+2, 1.6493228e+2, -1348685.6, -1371952.4, -0.0002875267, 0.000000013265193, 0.00004734223, -1348685.6, -25021.979, 0.0, 10.0, 9.969248 
2.75e+2, 1.7490156e+2, -1250727.6, -1274310.1, -0.0005213891, 0.0000000132545415, -0.00007383122, -1250727.6, -24762.959, 0.0, 10.0, 9.968835 
2.75e+2, 1.8486421e+2, -1162646.8, -1195720.1, -0.00037128766, 0.000000013172954, 0.00006614433, -1162646.8, -34316.01, 0.0, 10.0, 9.956395 
2.75e+2, 1.9482064e+2, -1064497.0, -1097833.0, -0.0005481118, 0.000000013017133, -0.00005765699, -1064497.0, -33739.344, 0.0, 10.0, 9.956052 
2.75e+2, 2.0477042e+2, -976333.0, -1019435.0, -0.00037772884, 0.000000012917166, 0.000068077585, -976333.0, -43083.094, 0.0, 10.0, 9.943291 
2.75e+2, 2.1471375e+2, -878046.0, -921409.9, -0.00056988356, 0.000000012877689, -0.000126828, -878046.0, -42240.676, 0.0, 10.0, 9.942949 
2.75e+2, 2.2465037e+2, -789759.9, -843144.9, -0.00039791653, 0.000000012828364, 0.00012087912, -789759.9, -51333.57, 0.0, 10.0, 9.929908 
2.75e+2, 2.3458035e+2, -691326.4, -744966.44, -0.00059742614, 0.0000000127678605, -0.000088818546, -691326.4, -50213.805, 0.0, 10.0, 9.929577 
2.75e+2, 2.4450338e+2, -603002.3, -667018.8, -0.0003847245, 0.000000012737606, 0.00007470864, -603002.3, -59135.402, 0.0, 10.0, 9.916136 
2.75e+2, 2.5441962e+2, -504249.63, -568343.3, -0.0005301763, 0.000000012743486, -0.000106737076, -504249.63, -57562.063, 0.0, 10.0, 9.916036 
2.75e+2, 2.643288e+2, -416014.22, -490987.88, -0.00027686617, 0.000000012710632, 0.00014059382, -416014.22, -66436.53, 0.0, 10.0, 9.901964 
2.75e+2, 2.742313e+2, -316729.0, -391374.78, -0.00045191238, 0.0000000126283854, -0.00020344443, -316729.0, -64195.98, 0.0, 10.0, 9.902385 
2.75e+2, 2.841256e+2, -230255.73, -318081.25, -0.00019443882, 0.000000012573757, 0.00022904554, -230255.73, -74686.76, 0.0, 10.0, 9.885439 
2.75e+2, 2.940121e+2, -130549.59, -217765.02, -0.00035097028, 0.000000012557142, -0.00025334326, -130549.59, -71868.195, 0.0, 10.0, 9.886217 
2.75e+2, 3.0392656e+2, -40805.58, -84750.16, -0.00005672108, 0.000000012552973, 0.00017313591, -40805.58, -40805.58, 0.0, 10.0, 9.942173 
2.75e+2, 3.138706e+2, -39727.566, -82511.21, -0.00019214208, 0.000000012566949, -0.000055142948, -39727.566, -39727.566, 0.0, 10.0, 9.943684 
2.85e+2, 1.2499334e+2, -1719946.3, -1724224.6, 0.00017151177, 0.000000014446137, 0.000017599845, -1719946.3, -4880.9434, 0.0, 10.0, 9.994328 
2.85e+2, 1.349876e+2, -1622565.8, -1627434.9, -0.00007666425, 0.000000014145761, -0.000068403024, -1622565.8, -5444.1563, 0.0, 10.0, 9.993545 
2.85e+2, 1.4497513e+2, -1534464.4, -1548146.3, -0.000024441193, 0.000000013966039, 0.000070918315, -1534464.4, -15220.664, 0.0, 10.0, 9.981865 
2.85e+2, 1.5495703e+2, -1436736.6, -1450821.9, -0.00027283723, 0.00000001390747, -0.00005698005, -1436736.6, -15315.482, 0.0, 10.0, 9.981333 
2.85e+2, 1.6493228e+2, -1348685.6, -1371952.4, -0.00015236513, 0.000000013859203, 0.000047342368, -1348685.6, -25021.975, 0.0, 10.0, 9.969248 
2.85e+2, 1.7490156e+2, -1250727.6, -1274310.1, -0.00033566076, 0.000000013821455, -0.00007383124, -1250727.6, -24762.955, 0.0, 10.0, 9.968835 
2.85e+2, 1.8486421e+2, -1162646.8, -1195720.1, -0.00016635262, 0.000000013737224, 0.000066144305, -1162646.8, -34316.008, 0.0, 10.0, 9.956395 
2.85e+2, 1.9482064e+2, -1064497.0, -1097833.0, -0.00042859657, 0.00000001360434, -0.000057656882, -1064497.0, -33739.344, 0.0, 10.0, 9.956052 
2.85e+2, 2.0477042e+2, -976333.0, -1019435.0, -0.0002979902, 0.000000013516281, 0.00006807774, -976333.0, -43083.09, 0.0, 10.0, 9.943291 
2.85e+2, 2.1471375e+2, -878045.94, -921409.9, -0.00050459325, 0.000000013476768, -0.00012682789, -878045.94, -42240.676, 0.0, 10.0, 9.942949 
2.85e+2, 2.2465037e+2, -789759.9, -843144.9, -0.00030359684, 0.000000013424036, 0.00012087917, -789759.9, -51333.57, 0.0, 10.0, 9.929908 
2.85e+2, 2.3458035e+2, -691326.4, -744966.44, -0.00045934375, 0.0000000133563125, -0.00008881856, -691326.4, -50213.8, 0.0, 10.0, 9.929577 
2.85e+2, 2.4450338e+2, -603002.3, -667018.8, -0.0002473728, 0.000000013313903, 0.000074708616, -603002.3, -59135.4, 0.0, 10.0, 9.916136 
2.85e+2, 2.5441962e+2, -504249.63, -568343.3, -0.0004754586, 0.000000013301736, -0.00010673701, -504249.63, -57562.06, 0.0, 10.0, 9.916036 
2.85e+2, 2.643288e+2, -416014.22, -490987.88, -0.00024021875, 0.000000013263764, 0.00014059391, -416014.22, -66436.53, 0.0, 10.0, 9.901964 
2.85e+2, 2.742313e+2, -316728.97, -391374.78, -0.00041618425, 0.000000013192868, -0.00020344439, -316728.97, -64195.98, 0.0, 10.0, 9.902385 
2.85e+2, 2.841256e+2, -230255.72, -318081.25, -0.00014532651, 0.000000013146775, 0.00022904557, -230255.72, -74686.75, 0.0, 10.0, 9.885439 
2.85e+2, 2.940121e+2, -130549.586, -217765.0, -0.00029380986, 0.000000013134767, -0.00025334323, -130549.586, -71868.195, 0.0, 10.0, 9.886217 
2.85e+2, 3.0392656e+2, -40805.574, -84750.16, 0.000025021367, 0.000000013132562, 0.0001731359, -40805.574, -40805.574, 0.0, 10.0, 9.942173 
2.85e+2, 3.138706e+2, -39727.563, -82511.21, -0.0000933499, 0.000000013144609, -0.000055143035, -39727.563, -39727.563, 0.0, 10.0, 9.943684 
2.95e+2, 1.2499334e+2, -1719946.3, -1724224.6, -0.000042950374, 0.000000014924645, 0.000017600023, -1719946.3, -4880.944, 0.0, 10.0, 9.994328 
2.95e+2, 1.349876e+2, -1622565.8, -1627434.9, -0.00029117905, 0.000000014804742, -0.00006840294, -1622565.8, -5444.1567, 0.0, 10.0, 9.993545 
2.95e+2, 1.4497513e+2, -1534464.4, -1548146.3, -0.0002074478, 0.000000014701589, 0.00007091853, -1534464.4, -15220.664, 0.0, 10.0, 9.981865 
2.95e+2, 1.5495703e+2, -1436736.6, -1450821.9, -0.00045579445, 0.000000014615076, -0.000056979883, -1436736.6, -15315.482, 0.0, 10.0, 9.981333 
2.95e+2, 1.6493228e+2, -1348685.6, -1371952.4, -0.00032267105, 0.000000014491056, 0.000047342462, -1348685.6, -25021.977, 0.0, 10.0, 9.969248 
2.95e+2, 1.7490156e+2, -1250727.6, -1274310.1, -0.0005059006, 0.000000014328736, -0.00007383123, -1250727.6, -24762.955, 0.0, 10.0, 9.968835 
2.95e+2, 1.8486421e+2, -1162646.8, -1195720.1, -0.00031979202, 0.000000014234708, 0.00006614431, -1162646.8, -34316.008, 0.0, 10.0, 9.956395 
2.95e+2, 1.9482064e+2, -1064497.0, -1097833.0, -0.0005818422, 0.000000014212128, -0.00005765679, -1064497.0, -33739.344, 0.0, 10.0, 9.956052 
2.95e+2, 2.0477042e+2, -976333.0, -1019435.0, -0.00043499103, 0.00000001417092, 0.00006807787, -976333.0, -43083.09, 0.0, 10.0, 9.943291 
2.95e+2, 2.1471375e+2, -878045.94, -921409.9, -0.0006412596, 0.000000014109524, -0.00012682777, -878045.94, -42240.676, 0.0, 10.0, 9.942949 
2.95e+2, 2.2465037e+2, -789759.9, -843144.9, -0.0004179337, 0.000000014042943, 0.000120879246, -789759.9, -51333.57, 0.0, 10.0, 9.929908 
2.95e+2, 2.3458035e+2, -691326.4, -744966.44, -0.0005729514, 0.000000013970494, -0.00008881858, -691326.4, -50213.8, 0.0, 10.0, 9.929577 
2.95e+2, 2.4450338e+2, -603002.3, -667018.8, -0.0003393039, 0.000000013898602, 0.000074708594, -603002.3, -59135.4, 0.0, 10.0, 9.916136 
2.95e+2, 2.5441962e+2, -504249.63, -568343.3, -0.0005663495, 0.000000013827369, -0.00010673691, -504249.63, -57562.06, 0.0, 10.0, 9.916036 
2.95e+2, 2.643288e+2, -416014.22, -490987.88, -0.00031886064, 0.000000013786004, 0.00014059404, -416014.22, -66436.53, 0.0, 10.0, 9.901964 
2.95e+2, 2.742313e+2, -316729.0, -391374.78, -0.0004940067, 0.000000013782638, -0.00020344433, -316729.0, -64195.98, 0.0, 10.0, 9.902385 
2.95e+2, 2.841256e+2, -230255.72, -318081.25, -0.00020691883, 0.000000013776805, 0.00022904557, -230255.72, -74686.75, 0.0, 10.0, 9.885439 
2.95e+2, 2.940121e+2, -130549.586, -217765.02, -0.00035394196, 0.0000000137674085, -0.00025334329, -130549.586, -71868.195, 0.0, 10.0, 9.886217 
2.95e+2, 3.0392656e+2, -40805.574, -84750.16, -0.000017101356, 0.000000013748206, 0.00017313584, -40805.574, -40805.574, 0.0, 10.0, 9.942173 
2.95e+2, 3.138706e+2, -39727.563, -82511.21, -0.00013336088, 0.000000013714487, -0.00005514311, -39727.563, -39727.563, 0.0, 10.0, 9.943684 
3.05e+2, 1.2499334e+2, -1719946.3, -1724224.6, 0.00010820975, 0.000000015558937, 0.000017600281, -1719946.3, -4880.94, 0.0, 10.0, 9.994328 
3.05e+2, 1.349876e+2, -1622565.8, -1627434.9, -0.00013598778, 0.000000015466881, -0.00006840286, -1622565.8, -5444.1533, 0.0, 10.0, 9.993545 
3.05e+2, 1.4497513e+2, -1534464.4, -1548146.3, -0.000007638227, 0.000000015372644, 0.00007091871, -1534464.4, -15220.661, 0.0, 10.0, 9.981865 
3.05e+2, 1.5495703e+2, -1436736.6, -1450821.9, -0.00025126123, 0.00000001527601, -0.000056979818, -1436736.6, -15315.4795, 0.0, 10.0, 9.981333 
3.05e+2, 1.6493228e+2, -1348685.6, -1371952.4, -0.000115817034, 0.000000015124565, 0.000047342513, -1348685.6, -25021.973, 0.0, 10.0, 9.969248 
3.05e+2, 1.7490156e+2, -1250727.6, -1274310.1, -0.00036396363, 0.000000014917147, -0.0000738311, -1250727.6, -24762.951, 0.0, 10.0, 9.968835 
3.05e+2, 1.8486421e+2, -1162646.8, -1195720.1, -0.00020469626, 0.000000014820909, 0.00006614445, -1162646.8, -34316.008, 0.0, 10.0, 9.956395 
3.05e+2, 1.9482064e+2, -1064497.0, -1097833.0, -0.00044093243, 0.000000014841001, -0.000057656693, -1064497.0, -33739.34, 0.0, 10.0, 9.956052 
3.05e+2, 2.0477042e+2, -976333.0, -1019435.0, -0.00025834676, 0.000000014807419, 0.00006807791, -976333.0, -43083.086, 0.0, 10.0, 9.943291 
3.05e+2, 2.1471375e+2, -878045.94, -921409.9, -0.0004736425, 0.000000014715689, -0.00012682778, -878045.94, -42240.67, 0.0, 10.0, 9.942949 
3.05e+2, 2.2465037e+2, -789759.9, -843144.9, -0.00027126187, 0.000000014637207, 0.00012087925, -789759.9, -51333.566, 0.0, 10.0, 9.929908 
3.05e+2, 2.3458035e+2, -691326.4, -744966.44, -0.00051336084, 0.000000014573735, -0.00008881845, -691326.4, -50213.8, 0.0, 10.0, 9.929577 
3.05e+2, 2.4450338e+2, -603002.3, -667018.8, -0.00029336798, 0.000000014504432, 0.00007470875, -603002.3, -59135.4, 0.0, 10.0, 9.916136 
3.05e+2, 2.5441962e+2, -504249.63, -568343.3, -0.00048986566, 0.000000014428137, -0.00010673686, -504249.63, -57562.055, 0.0, 10.0, 9.916036 
3.05e+2, 2.643288e+2, -416014.22, -490987.88, -0.00022046422, 0.000000014383635, 0.00014059404, -416014.22, -66436.53, 0.0, 10.0, 9.901964 
3.05e+2, 2.742313e+2, -316728.97, -391374.78, -0.00040152663, 0.0000000143795935, -0.00020344433, -316728.97, -64195.977, 0.0, 10.0, 9.902385 
3.05e+2, 2.841256e+2, -230255.72, -318081.25, -0.00011144993, 0.000000014377295, 0.00022904557, -230255.72, -74686.75, 0.0, 10.0, 9.885439 
3.05e+2, 2.940121e+2, -130549.586, -217765.0, -0.00028506859, 0.000000014377185, -0.00025334326, -130549.586, -71868.19, 0.0, 10.0, 9.886217 
3.05e+2, 3.0392656e+2, -40805.57, -84750.16, 0.00004078501, 0.00000001436297, 0.00017313584, -40805.57, -40805.57, 0.0, 10.0, 9.942173 
3.05e+2, 3.138706e+2, -39727.56, -82511.21, -0.00012045983, 0.000000014327803, -0.000055143115, -39727.56, -39727.56, 0.0, 10.0, 9.943684 
3.15e+2, 1.2499334e+2, -1719946.3, -1724224.6, -0.00014042997, 0.000000016349015, 0.000017600616, -1719946.3, -4880.9404, 0.0, 10.0, 9.994328 
3.15e+2, 1.349876e+2, -1622565.8, -1627434.9, -0.0003846893, 0.00000001613218, -0.00006840277, -1622565.8, -5444.154, 0.0, 10.0, 9.993545 
3.15e+2, 1.4497513e+2, -1534464.4, -1548146.3, -0.00020907378, 0.000000015979202, 0.00007091883, -1534464.4, -15220.661, 0.0, 10.0, 9.981865 
3.15e+2, 1.5495703e+2, -1436736.6, -1450821.9, -0.00045262236, 0.000000015890272, -0.000056979858, -1436736.6, -15315.4795, 0.0, 10.0, 9.981333 
3.15e+2, 1.6493228e+2, -1348685.6, -1371952.4, -0.00026736554, 0.000000015759726, 0.000047342513, -1348685.6, -25021.973, 0.0, 10.0, 9.969248 
3.15e+2, 1.7490156e+2, -1250727.6, -1274310.1, -0.0005152499, 0.000000015586684, -0.00007383086, -1250727.6, -24762.953, 0.0, 10.0, 9.968835 
3.15e+2, 1.8486421e+2, -1162646.8, -1195720.1, -0.00038651115, 0.000000015495827, 0.000066144734, -1162646.8, -34316.008, 0.0, 10.0, 9.956395 
3.15e+2, 1.9482064e+2, -1064497.0, -1097833.0, -0.0006231018, 0.000000015490958, -0.000057656587, -1064497.0, -33739.34, 0.0, 10.0, 9.956052 
3.15e+2, 2.0477042e+2, -976333.0, -1019435.0, -0.00040465183, 0.000000015425778, 0.000068077876, -976333.0, -43083.086, 0.0, 10.0, 9.943291 
3.15e+2, 2.1471375e+2, -878045.94, -921409.9, -0.0006192079, 0.000000015295264, -0.00012682793, -878045.94, -42240.67, 0.0, 10.0, 9.942949 
3.15e+2, 2.2465037e+2, -789759.9, -843144.9, -0.00038999887, 0.000000015206826, 0.0001208792, -789759.9, -51333.566, 0.0, 10.0, 9.929908 
3.15e+2, 2.3458035e+2, -691326.4, -744966.44, -0.00063122145, 0.000000015166034, -0.00008881817, -691326.4, -50213.8, 0.0, 10.0, 9.929577 
3.15e+2, 2.4450338e+2, -603002.3, -667018.8, -0.00039212493, 0.000000015131395, 0.00007470907, -603002.3, -59135.4, 0.0, 10.0, 9.916136 
3.15e+2, 2.5441962e+2, -504249.63, -568343.3, -0.0005877062, 0.000000015104042, -0.00010673686, -504249.63, -57562.055, 0.0, 10.0, 9.916036 
3.15e+2, 2.643288e+2, -416014.22, -490987.88, -0.0003154013, 0.000000015056653, 0.0001405939, -416014.22, -66436.53, 0.0, 10.0, 9.901964 
3.15e+2, 2.742313e+2, -316728.97, -391374.78, -0.000496271, 0.000000014983735, -0.00020344439, -316728.97, -64195.977, 0.0, 10.0, 9.902385 
3.15e+2, 2.841256e+2, -230255.72, -318081.25, -0.00018635247, 0.000000014948249, 0.00022904559, -230255.72, -74686.75, 0.0, 10.0, 9.885439 
3.15e+2, 2.940121e+2, -130549.586, -217765.02, -0.00035818553, 0.000000014964094, -0.00025334323, -130549.586, -71868.19, 0.0, 10.0, 9.886217 
3.15e+2, 3.0392656e+2, -40805.57, -84750.16, 0.000002864722, 0.000000014976854, 0.00017313592, -40805.57, -40805.57, 0.0, 10.0, 9.942173 
3.15e+2, 3.138706e+2, -39727.56, -82511.21, -0.00015425075, 0.000000014984554, -0.00005514304, -39727.56, -39727.56, 0.0, 10.0, 9.943684 
3.25e+2, 1.2499334e+2, -1719946.3, -1724224.6, 0.00012386087, 0.000000017160525, 0.000017600732, -1719946.3, -4880.9365, 0.0, 10.0, 9.994328 
3.25e+2, 1.349876e+2, -1622565.8, -1627434.9, -0.00013064055, 0.000000016796255, -0.00006840272, -1622565.8, -5444.15, 0.0, 10.0, 9.993545 
3.25e+2, 1.4497513e+2, -1534464.4, -1548146.3, 0.00003969196, 0.00000001657385, 0.000070919035, -1534464.4, -15220.657, 0.0, 10.0, 9.981865 
3.25e+2, 1.5495703e+2, -1436736.6, -1450821.9, -0.00023283911, 0.000000016493981, -0.000056979792, -1436736.6, -15315.476, 0.0, 10.0, 9.981333 
3.25e+2, 1.6493228e+2, -1348685.6, -1371952.4, -0.00007323864, 0.00000001640575, 0.00004734257, -1348685.6, -25021.969, 0.0, 10.0, 9.969248 
3.25e+2, 1.7490156e+2, -1250727.6, -1274310.1, -0.00037531878, 0.00000001630898, -0.00007383068, -1250727.6, -24762.95, 0.0, 10.0, 9.968835 
3.25e+2, 1.8486421e+2, -1162646.8, -1195720.1, -0.00024246844, 0.00000001621515, 0.000066144916, -1162646.8, -34316.004, 0.0, 10.0, 9.956395 
3.25e+2, 1.9482064e+2, -1064497.0, -1097833.0, -0.00045897166, 0.000000016124384, -0.00005765654, -1064497.0, -33739.336, 0.0, 10.0, 9.956052 
3.25e+2, 2.0477042e+2, -976333.0, -1019435.0, -0.0002168123, 0.0000000160198, 0.00006807788, -976333.0, -43083.082, 0.0, 10.0, 9.943291 
3.25e+2, 2.1471375e+2, -878045.94, -921409.9, -0.00045168382, 0.000000015900246, -0.00012682787, -878045.94, -42240.668, 0.0, 10.0, 9.942949 
3.25e+2, 2.2465037e+2, -789759.9, -843144.9, -0.00025065866, 0.000000015825586, 0.0001208793, -789759.9, -51333.563, 0.0, 10.0, 9.929908 
3.25e+2, 2.3458035e+2, -691326.3, -744966.44, -0.0005508152, 0.000000015801733, -0.00008881806, -691326.3, -50213.797, 0.0, 10.0, 9.929577 
3.25e+2, 2.4450338e+2, -603002.3, -667018.8, -0.00030772734, 0.000000015776749, 0.00007470916, -603002.3, -59135.395, 0.0, 10.0, 9.916136 
3.25e+2, 2.5441962e+2, -504249.63, -568343.3, -0.0004679805, 0.000000015750349, -0.000106736836, -504249.63, -57562.055, 0.0, 10.0, 9.916036 
3.25e+2, 2.643288e+2, -416014.22, -490987.88, -0.00017157898, 0.000000015701142, 0.0001405939, -416014.22, -66436.52, 0.0, 10.0, 9.901964 
3.25e+2, 2.742313e+2, -316728.97, -391374.78, -0.00039931075, 0.000000015622899, -0.00020344438, -316728.97, -64195.973, 0.0, 10.0, 9.902385 
3.25e+2, 2.841256e+2, -230255.72, -318081.25, -0.00012763253, 0.000000015574052, 0.00022904562, -230255.72, -74686.75, 0.0, 10.0, 9.885439 
3.25e+2, 2.940121e+2, -130549.586, -217765.0, -0.00035059536, 0.000000015565556, -0.00025334317, -130549.586, -71868.19, 0.0, 10.0, 9.886217 
3.25e+2, 3.0392656e+2, -40805.566, -84750.16, -0.0000069228436, 0.000000015578845, 0.00017313598, -40805.566, -40805.566, 0.0, 10.0, 9.942173 
3.25e+2, 3.138706e+2, -39727.56, -82511.21, -0.00016847573, 0.000000015624108, -0.000055142984, -39727.56, -39727.56, 0.0, 10.0, 9.943684 
3.35e+2, 1.2499334e+2, -1719946.3, -1724224.6, -0.000059826914, 0.000000017993472, 0.000017600625, -1719946.3, -4880.9375, 0.0, 10.0, 9.994328 
3.35e+2, 1.349876e+2, -1622565.8, -1627434.9, -0.00031437166, 0.000000017459104, -0.000068402696, -1622565.8, -5444.1504, 0.0, 10.0, 9.993545 
3.35e+2, 1.4497513e+2, -1534464.4, -1548146.3, -0.0001647926, 0.000000017156587, 0.00007091933, -1534464.4, -15220.658, 0.0, 10.0, 9.981865 
3.35e+2, 1.5495703e+2, -1436736.6, -1450821.9, -0.0004373571, 0.000000017087137, -0.000056979625, -1436736.6, -15315.477, 0.0, 10.0, 9.981333 
3.35e+2, 1.6493228e+2, -1348685.6, -1371952.4, -0.00029777497, 0.000000017062636, 0.000047342684, -1348685.6, -25021.97, 0.0, 10.0, 9.969248 
3.35e+2, 1.7490156e+2, -1250727.6, -1274310.1, -0.0005999615, 0.000000017084036, -0.000073830546, -1250727.6, -24762.95, 0.0, 10.0, 9.968835 
3.35e+2, 1.8486421e+2, -1162646.8, -1195720.1, -0.00039369118, 0.000000016978879, 0.00006614501, -1162646.8, -34316.004, 0.0, 10.0, 9.956395 
3.35e+2, 1.9482064e+2, -1064497.0, -1097833.0, -0.0006093452, 0.000000016741277, -0.000057656544, -1064497.0, -33739.336, 0.0, 10.0, 9.956052 
3.35e+2, 2.0477042e+2, -976333.0, -1019435.0, -0.00035802025, 0.000000016589489, 0.00006807793, -976333.0, -43083.082, 0.0, 10.0, 9.943291 
3.35e+2, 2.1471375e+2, -878045.94, -921409.9, -0.0005927036, 0.00000001653064, -0.00012682761, -878045.94, -42240.668, 0.0, 10.0, 9.942949 
3.35e+2, 2.2465037e+2, -789759.9, -843144.9, -0.00039875013, 0.000000016493486, 0.00012087953, -789759.9, -51333.563, 0.0, 10.0, 9.929908 
3.35e+2, 2.3458035e+2, -691326.3, -744966.44, -0.00069913943, 0.000000016480834, -0.00008881813, -691326.3, -50213.797, 0.0, 10.0, 9.929577 
3.35e+2, 2.4450338e+2, -603002.3, -667018.8, -0.00043492432, 0.000000016440499, 0.00007470901, -603002.3, -59135.395, 0.0, 10.0, 9.916136 
3.35e+2, 2.5441962e+2, -504249.63, -568343.3, -0.0005941639, 0.000000016367057, -0.000106736785, -504249.63, -57562.055, 0.0, 10.0, 9.916036 
3.35e+2, 2.643288e+2, -416014.22, -490987.88, -0.00024975938, 0.000000016317097, 0.00014059403, -416014.22, -66436.52, 0.0, 10.0, 9.901964 
3.35e+2, 2.742313e+2, -316728.97, -391374.78, -0.00047427474, 0.000000016297085, -0.0002034443, -316728.97, -64195.973, 0.0, 10.0, 9.902385 
3.35e+2, 2.841256e+2, -230255.72, -318081.25, -0.00019966709, 0.000000016254708, 0.00022904566, -230255.72, -74686.75, 0.0, 10.0, 9.885439 
3.35e+2, 2.940121e+2, -130549.586, -217765.02, -0.00042236838, 0.000000016181568, -0.0002533431, -130549.586, -71868.19, 0.0, 10.0, 9.886217 
3.35e+2, 3.0392656e+2, -40805.566, -84750.16, -0.00008004058, 0.000000016168942, 0.00017313604, -40805.566, -40805.566, 0.0, 10.0, 9.942173 
3.35e+2, 3.138706e+2, -39727.56, -82511.21, -0.00024175408, 0.000000016246462, -0.000055142948, -39727.56, -39727.56, 0.0, 10.0, 9.943684 
3.45e+2, 1.2499334e+2, -1719946.3, -1724224.6, 0.00041908034, 0.000000018595408, 0.000017600556, -1719946.3, -4880.9326, 0.0, 10.0, 9.994328 
3.45e+2, 1.349876e+2, -1622565.8, -1627434.9, -0.000011820434, 0.000000018122845, -0.00006840269, -1622565.8, -5444.146, 0.0, 10.0, 9.993545 
3.45e+2, 1.4497513e+2, -1534464.4, -1548146.3, 0.00003902626, 0.000000017861032, 0.00007091961, -1534464.4, -15220.653, 0.0, 10.0, 9.981865 
3.45e+2, 1.5495703e+2, -1436736.6, -1450821.9, -0.00025587308, 0.000000017811086, -0.000056979417, -1436736.6, -15315.472, 0.0, 10.0, 9.981333 
3.45e+2, 1.6493228e+2, -1348685.6, -1371952.4, -0.00010098509, 0.000000017771596, 0.00004734281, -1348685.6, -25021.965, 0.0, 10.0, 9.969248 
3.45e+2, 1.7490156e+2, -1250727.6, -1274310.1, -0.00036530048, 0.000000017742789, -0.00007383051, -1250727.6, -24762.945, 0.0, 10.0, 9.968835 
3.45e+2, 1.8486421e+2, -1162646.8, -1195720.1, -0.00012545045, 0.00000001761737, 0.000066145025, -1162646.8, -34316.0, 0.0, 10.0, 9.956395 
3.45e+2, 1.9482064e+2, -1064497.0, -1097833.0, -0.00041501696, 0.000000017390844, -0.000057656478, -1064497.0, -33739.332, 0.0, 10.0, 9.956052 
3.45e+2, 2.0477042e+2, -976333.0, -1019435.0, -0.00023814438, 0.000000017265215, 0.00006807808, -976333.0, -43083.08, 0.0, 10.0, 9.943291 
3.45e+2, 2.1471375e+2, -878045.94, -921409.9, -0.0005578787, 0.000000017248855, -0.00012682735, -878045.94, -42240.664, 0.0, 10.0, 9.942949 
3.45e+2, 2.2465037e+2, -789759.8, -843144.9, -0.00031204638, 0.000000017209794, 0.00012087972, -789759.8, -51333.56, 0.0, 10.0, 9.929908 
3.45e+2, 2.3458035e+2, -691326.3, -744966.44, -0.00044707974, 0.000000017144984, -0.00008881824, -691326.3, -50213.793, 0.0, 10.0, 9.929577 
3.45e+2, 2.4450338e+2, -603002.25, -667018.8, -0.00015328184, 0.000000017068723, 0.00007470885, -603002.25, -59135.39, 0.0, 10.0, 9.916136 
3.45e+2, 2.5441962e+2, -504249.63, -568343.3, -0.00049234024, 0.000000016978802, -0.0001067367, -504249.63, -57562.05, 0.0, 10.0, 9.916036 
3.45e+2, 2.643288e+2, -416014.2, -490987.88, -0.00023126724, 0.000000016944664, 0.00014059422, -416014.2, -66436.52, 0.0, 10.0, 9.901964 
3.45e+2, 2.742313e+2, -316728.97, -391374.78, -0.0004445665, 0.000000016981538, -0.0002034442, -316728.97, -64195.97, 0.0, 10.0, 9.902385 
3.45e+2, 2.841256e+2, -230255.72, -318081.25, -0.00011563941, 0.000000016963142, 0.00022904569, -230255.72, -74686.74, 0.0, 10.0, 9.885439 
3.45e+2, 2.940121e+2, -130549.58, -217765.0, -0.00030250786, 0.000000016868766, -0.00025334314, -130549.58, -71868.18, 0.0, 10.0, 9.886217 
3.45e+2, 3.0392656e+2, -40805.566, -84750.16, 0.00004219945, 0.000000016813793, 0.000173136, -40805.566, -40805.566, 0.0, 10.0, 9.942173 
3.45e+2, 3.138706e+2, -39727.555, -82511.21, -0.00017912037, 0.00000001681806, -0.000055142915, -39727.555, -39727.555, 0.0, 10.0, 9.943684 
3.55e+2, 1.2499334e+2, -1719946.3, -1724224.6, 0.00016061397, 0.000000018966336, 0.000017600523, -1719946.3, -4880.9336, 0.0, 10.0, 9.994328 
3.55e+2, 1.349876e+2, -1622565.8, -1627434.9, -0.00027034988, 0.000000018787476, -0.00006840271, -1622565.8, -5444.147, 0.0, 10.0, 9.993545 
3.55e+2, 1.4497513e+2, -1534464.4, -1548146.3, -0.00019899088, 0.000000018687183, 0.00007091988, -1534464.4, -15220.654, 0.0, 10.0, 9.981865 
3.55e+2, 1.5495703e+2, -1436736.6, -1450821.9, -0.0004938583, 0.000000018665828, -0.00005697917, -1436736.6, -15315.473, 0.0, 10.0, 9.981333 
3.55e+2, 1.6493228e+2, -1348685.6, -1371952.4, -0.00030502904, 0.000000018532633, 0.00004734295, -1348685.6, -25021.967, 0.0, 10.0, 9.969248 
3.55e+2, 1.7490156e+2, -1250727.6, -1274310.1, -0.00056916615, 0.00000001828524, -0.00007383056, -1250727.6, -24762.945, 0.0, 10.0, 9.968835 
3.55e+2, 1.8486421e+2, -1162646.8, -1195720.1, -0.00030375613, 0.000000018130628, 0.00006614497, -1162646.8, -34316.0, 0.0, 10.0, 9.956395 
3.55e+2, 1.9482064e+2, -1064497.0, -1097833.0, -0.00059302757, 0.000000018073086, -0.00005765634, -1064497.0, -33739.332, 0.0, 10.0, 9.956052 
3.55e+2, 2.0477042e+2, -976333.0, -1019435.0, -0.00041662075, 0.000000018046975, 0.00006807833, -976333.0, -43083.08, 0.0, 10.0, 9.943291 
3.55e+2, 2.1471375e+2, -878045.94, -921409.9, -0.0007363659, 0.00000001805489, -0.00012682707, -878045.94, -42240.664, 0.0, 10.0, 9.942949 
3.55e+2, 2.2465037e+2, -789759.8, -843144.9, -0.00044456584, 0.000000017974513, 0.00012087986, -789759.8, -51333.56, 0.0, 10.0, 9.929908 
3.55e+2, 2.3458035e+2, -691326.3, -744966.44, -0.00057809695, 0.00000001779418, -0.00008881841, -691326.3, -50213.793, 0.0, 10.0, 9.929577 
3.55e+2, 2.4450338e+2, -603002.25, -667018.8, -0.00026349368, 0.000000017661426, 0.00007470867, -603002.25, -59135.39, 0.0, 10.0, 9.916136 
3.55e+2, 2.5441962e+2, -504249.63, -568343.3, -0.000601554, 0.000000017585586, -0.00010673657, -504249.63, -57562.05, 0.0, 10.0, 9.916036 
3.55e+2, 2.643288e+2, -416014.2, -490987.88, -0.00036200933, 0.000000017583844, 0.00014059446, -416014.2, -66436.52, 0.0, 10.0, 9.901964 
3.55e+2, 2.742313e+2, -316728.97, -391374.78, -0.0005767541, 0.000000017676255, -0.00020344407, -316728.97, -64195.97, 0.0, 10.0, 9.902385 
3.55e+2, 2.841256e+2, -230255.72, -318081.25, -0.00018316842, 0.000000017699353, 0.00022904569, -230255.72, -74686.74, 0.0, 10.0, 9.885439 
3.55e+2, 2.940121e+2, -130549.58, -217765.02, -0.0003642133, 0.000000017627151, -0.00025334326, -130549.58, -71868.18, 0.0, 10.0, 9.886217 
3.55e+2, 3.0392656e+2, -40805.566, -84750.16, 0.00000074698755, 0.000000017513399, 0.00017313588, -40805.566, -40805.566, 0.0, 10.0, 9.942173 
3.55e+2, 3.138706e+2, -39727.555, -82511.21, -0.00021819817, 0.000000017338905, -0.000055142886, -39727.555, -39727.555, 0.0, 10.0, 9.943684 
3.65e+2, 1.2499334e+2, -1719946.3, -1724224.6, 0.00018457475, 0.000000019593303, 0.000017601045, -1719946.3, -4880.9287, 0.0, 10.0, 9.994328 
3.65e+2, 1.349876e+2, -1622565.8, -1627434.9, -0.00008437123, 0.000000019529834, -0.00006840268, -1622565.8, -5444.142, 0.0, 10.0, 9.993545 
3.65e+2, 1.4497513e+2, -1534464.4, -1548146.3, 0.000085045445, 0.000000019469411, 0.00007091999, -1534464.4, -15220.649, 0.0, 10.0, 9.981865 
3.65e+2, 1.5495703e+2, -1436736.6, -1450821.9, -0.00026022337, 0.000000019411956, -0.000056979025, -1436736.6, -15315.469, 0.0, 10.0, 9.981333 
3.65e+2, 1.6493228e+2, -1348685.6, -1371952.4, -0.000044046094, 0.000000019235056, 0.000047343074, -1348685.6, -25021.96, 0.0, 10.0, 9.969248 
3.65e+2, 1.7490156e+2, -1250727.6, -1274310.1, -0.0003194987, 0.000000018936184, -0.00007383051, -1250727.6, -24762.941, 0.0, 10.0, 9.968835 
3.65e+2, 1.8486421e+2, -1162646.6, -1195720.1, -0.000099947436, 0.000000018796367, 0.00006614505, -1162646.6, -34315.996, 0.0, 10.0, 9.956395 
3.65e+2, 1.9482064e+2, -1064497.0, -1097833.0, -0.00045151493, 0.00000001882297, -0.000057656118, -1064497.0, -33739.33, 0.0, 10.0, 9.956052 
3.65e+2, 2.0477042e+2, -976333.0, -1019435.0, -0.0002413114, 0.000000018809416, 0.0000680785, -976333.0, -43083.074, 0.0, 10.0, 9.943291 
3.65e+2, 2.1471375e+2, -878045.94, -921409.9, -0.00047387046, 0.00000001875235, -0.00012682714, -878045.94, -42240.66, 0.0, 10.0, 9.942949 
3.65e+2, 2.2465037e+2, -789759.8, -843144.9, -0.00017386109, 0.00000001864138, 0.00012087978, -789759.8, -51333.555, 0.0, 10.0, 9.929908 
3.65e+2, 2.3458035e+2, -691326.3, -744966.44, -0.0004874665, 0.000000018469406, -0.000088818226, -691326.3, -50213.79, 0.0, 10.0, 9.929577 
3.65e+2, 2.4450338e+2, -603002.25, -667018.8, -0.00022595486, 0.000000018364771, 0.0000747089, -603002.25, -59135.387, 0.0, 10.0, 9.916136 
3.65e+2, 2.5441962e+2, -504249.6, -568343.3, -0.00047396508, 0.00000001834062, -0.00010673652, -504249.6, -57562.047, 0.0, 10.0, 9.916036 
3.65e+2, 2.643288e+2, -416014.2, -490987.88, -0.00018380827, 0.00000001832285, 0.00014059442, -416014.2, -66436.516, 0.0, 10.0, 9.901964 
3.65e+2, 2.742313e+2, -316728.97, -391374.78, -0.00042958805, 0.000000018313003, -0.00020344407, -316728.97, -64195.965, 0.0, 10.0, 9.902385 
3.65e+2, 2.841256e+2, -230255.72, -318081.25, -0.000051160234, 0.000000018306757, 0.00022904573, -230255.72, -74686.74, 0.0, 10.0, 9.885439 
3.65e+2, 2.940121e+2, -130549.58, -217765.0, -0.0002869505, 0.000000018305402, -0.0002533432, -130549.58, -71868.18, 0.0, 10.0, 9.886217 
3.65e+2, 3.0392656e+2, -40805.563, -84750.16, 0.0000798422, 0.000000018235163, 0.00017313591, -40805.563, -40805.563, 0.0, 10.0, 9.942173 
3.65e+2, 3.138706e+2, -39727.55, -82511.21, -0.00012815646, 0.000000018062664, -0.000055142962, -39727.55, -39727.55, 0.0, 10.0, 9.943684 
3.75e+2, 1.2499334e+2, -1719946.3, -1724224.6, -0.00013851683, 0.000000020476312, 0.000017602128, -1719946.3, -4880.929, 0.0, 10.0, 9.994328 
3.75e+2, 1.349876e+2, -1622565.8, -1627434.9, -0.00040754286, 0.000000020349919, -0.0000684026, -1622565.8, -5444.143, 0.0, 10.0, 9.993545 
3.75e+2, 1.4497513e+2, -1534464.4, -1548146.3, -0.0001773085, 0.000000020207713, 0.00007091994, -1534464.4, -15220.65, 0.0, 10.0, 9.981865 
3.75e+2, 1.5495703e+2, -1436736.6, -1450821.9, -0.00052248157, 0.00000002004947, -0.000056978985, -1436736.6, -15315.469, 0.0, 10.0, 9.981333 
3.75e+2, 1.6493228e+2, -1348685.6, -1371952.4, -0.00022519141, 0.000000019878863, 0.000047343186, -1348685.6, -25021.963, 0.0, 10.0, 9.969248 
3.75e+2, 1.7490156e+2, -1250727.6, -1274310.1, -0.0005002167, 0.000000019695625, -0.00007383035, -1250727.6, -24762.941, 0.0, 10.0, 9.968835 
3.75e+2, 1.8486421e+2, -1162646.6, -1195720.1, -0.00032741862, 0.000000019614593, 0.00006614527, -1162646.6, -34315.996, 0.0, 10.0, 9.956395 
3.75e+2, 1.9482064e+2, -1064497.0, -1097833.0, -0.0006795287, 0.000000019640497, -0.000057655812, -1064497.0, -33739.33, 0.0, 10.0, 9.956052 
3.75e+2, 2.0477042e+2, -976333.0, -1019435.0, -0.00042139975, 0.000000019552536, 0.0000680786, -976333.0, -43083.074, 0.0, 10.0, 9.943291 
3.75e+2, 2.1471375e+2, -878045.94, -921409.9, -0.0006529703, 0.00000001934124, -0.00012682757, -878045.94, -42240.66, 0.0, 10.0, 9.942949 
3.75e+2, 2.2465037e+2, -789759.8, -843144.9, -0.0003067733, 0.000000019210397, 0.00012087948, -789759.8, -51333.555, 0.0, 10.0, 9.929908 
3.75e+2, 2.3458035e+2, -691326.3, -744966.44, -0.00061886915, 0.000000019170656, -0.0000888177, -691326.3, -50213.79, 0.0, 10.0, 9.929577 
3.75e+2, 2.4450338e+2, -603002.25, -667018.8, -0.00036904786, 0.00000001917876, 0.000074709555, -603002.25, -59135.387, 0.0, 10.0, 9.916136 
3.75e+2, 2.5441962e+2, -504249.6, -568343.3, -0.00061762176, 0.000000019243902, -0.00010673656, -504249.6, -57562.047, 0.0, 10.0, 9.916036 
3.75e+2, 2.643288e+2, -416014.2, -490987.88, -0.00027927684, 0.000000019161686, 0.00014059409, -416014.2, -66436.516, 0.0, 10.0, 9.901964 
3.75e+2, 2.742313e+2, -316728.97, -391374.78, -0.00052182813, 0.000000018891777, -0.0002034442, -316728.97, -64195.97, 0.0, 10.0, 9.902385 
3.75e+2, 2.841256e+2, -230255.72, -318081.25, -0.00015465445, 0.000000018785354, 0.00022904579, -230255.72, -74686.74, 0.0, 10.0, 9.885439 
3.75e+2, 2.940121e+2, -130549.58, -217765.02, -0.0003914613, 0.000000018903515, -0.00025334297, -130549.58, -71868.18, 0.0, 10.0, 9.886217 
3.75e+2, 3.0392656e+2, -40805.563, -84750.16, 0.000024393246, 0.000000018979089, 0.0001731361, -40805.563, -40805.563, 0.0, 10.0, 9.942173 
3.75e+2, 3.138706e+2, -39727.55, -82511.21, -0.00017784869, 0.000000018989338, -0.000055143137, -39727.55, -39727.55, 0.0, 10.0, 9.943684 
3.85e+2, 1.2499334e+2, -1719946.1, -1724224.6, -0.000031694737, 0.000000021469823, 0.000017602506, -1719946.1, -4880.925, 0.0, 10.0, 9.994328 
3.85e+2, 1.349876e+2, -1622565.8, -1627434.9, -0.00024800462, 0.00000002118454, -0.000068402405, -1622565.8, -5444.138, 0.0, 10.0, 9.993545 
3.85e+2, 1.4497513e+2, -1534464.4, -1548146.3, 0.000066649874, 0.000000020936627, 0.00007092024, -1534464.4, -15220.6455, 0.0, 10.0, 9.981865 
3.85e+2, 1.5495703e+2, -1436736.6, -1450821.9, -0.0002500301, 0.000000020726107, -0.000056978963, -1436736.6, -15315.464, 0.0, 10.0, 9.981333 
3.85e+2, 1.6493228e+2, -1348685.6, -1371952.4, 0.000020467922, 0.000000020589892, 0.000047343205, -1348685.6, -25021.957, 0.0, 10.0, 9.969248 
3.85e+2, 1.7490156e+2, -1250727.6, -1274310.1, -0.00034931046, 0.000000020529546, -0.000073830044, -1250727.6, -24762.938, 0.0, 10.0, 9.968835 
3.85e+2, 1.8486421e+2, -1162646.6, -1195720.1, -0.00015740871, 0.000000020466707, 0.00006614558, -1162646.6, -34315.992, 0.0, 10.0, 9.956395 
3.85e+2, 1.9482064e+2, -1064497.0, -1097833.0, -0.0004253331, 0.000000020401249, -0.0000576558, -1064497.0, -33739.324, 0.0, 10.0, 9.956052 
3.85e+2, 2.0477042e+2, -976333.0, -1019435.0, -0.00010105769, 0.000000020244489, 0.00006807851, -976333.0, -43083.07, 0.0, 10.0, 9.943291 
3.85e+2, 2.1471375e+2, -878045.94, -921409.9, -0.00038097444, 0.00000001998884, -0.00012682754, -878045.94, -42240.656, 0.0, 10.0, 9.942949 
3.85e+2, 2.2465037e+2, -789759.8, -843144.9, -0.000121065576, 0.00000001988702, 0.000120879595, -789759.8, -51333.55, 0.0, 10.0, 9.929908 
3.85e+2, 2.3458035e+2, -691326.3, -744966.44, -0.000540213, 0.000000019959344, -0.00008881749, -691326.3, -50213.785, 0.0, 10.0, 9.929577 
3.85e+2, 2.4450338e+2, -603002.25, -667018.8, -0.00028375932, 0.000000019993063, 0.00007470974, -603002.25, -59135.383, 0.0, 10.0, 9.916136 
3.85e+2, 2.5441962e+2, -504249.6, -568343.3, -0.00046194057, 0.000000019980478, -0.000106736545, -504249.6, -57562.043, 0.0, 10.0, 9.916036 
3.85e+2, 2.643288e+2, -416014.2, -490987.88, -0.000058094163, 0.000000019862568, 0.00014059404, -416014.2, -66436.516, 0.0, 10.0, 9.901964 
3.85e+2, 2.742313e+2, -316728.97, -391374.78, -0.00035609186, 0.000000019610711, -0.00020344419, -316728.97, -64195.96, 0.0, 10.0, 9.902385 
3.85e+2, 2.841256e+2, -230255.7, -318081.25, -0.0000661212, 0.000000019504322, 0.00022904587, -230255.7, -74686.734, 0.0, 10.0, 9.885439 
3.85e+2, 2.940121e+2, -130549.57, -217765.0, -0.000349078, 0.000000019597602, -0.00025334288, -130549.57, -71868.17, 0.0, 10.0, 9.886217 
3.85e+2, 3.0392656e+2, -40805.56, -84750.16, 0.000076849305, 0.000000019700135, 0.00017313613, -40805.56, -40805.56, 0.0, 10.0, 9.942173 
3.85e+2, 3.138706e+2, -39727.547, -82511.21, -0.00007043508, 0.000000019814522, -0.000055143202, -39727.547, -39727.547, 0.0, 10.0, 9.943684 
3.95e+2, 1.2499334e+2, -1719946.1, -1724224.6, -0.00027035893, 0.000000022573838, 0.000017602182, -1719946.1, -4880.9253, 0.0, 10.0, 9.994328 
3.95e+2, 1.349876e+2, -1622565.8, -1627434.9, -0.00048672245, 0.000000022033701, -0.000068402085, -1622565.8, -5444.1387, 0.0, 10.0, 9.993545 
3.95e+2, 1.4497513e+2, -1534464.4, -1548146.3, -0.00014739331, 0.000000021656149, 0.00007092091, -1534464.4, -15220.646, 0.0, 10.0, 9.981865 
3.95e+2, 1.5495703e+2, -1436736.6, -1450821.9, -0.00046403494, 0.000000021441869, -0.000056978966, -1436736.6, -15315.465, 0.0, 10.0, 9.981333 
3.95e+2, 1.6493228e+2, -1348685.6, -1371952.4, -0.0002656322, 0.000000021368148, 0.00004734313, -1348685.6, -25021.959, 0.0, 10.0, 9.969248 
3.95e+2, 1.7490156e+2, -1250727.6, -1274310.1, -0.0006357921, 0.000000021437952, -0.00007382959, -1250727.6, -24762.94, 0.0, 10.0, 9.968835 
3.95e+2, 1.8486421e+2, -1162646.6, -1195720.1, -0.00034559818, 0.000000021352715, 0.00006614597, -1162646.6, -34315.992, 0.0, 10.0, 9.956395 
3.95e+2, 1.9482064e+2, -1064497.0, -1097833.0, -0.0006123855, 0.000000021105226, -0.00005765609, -1064497.0, -33739.324, 0.0, 10.0, 9.956052 
3.95e+2, 2.0477042e+2, -976333.0, -1019435.0, -0.00024620985, 0.000000020885276, 0.000068078225, -976333.0, -43083.07, 0.0, 10.0, 9.943291 
3.95e+2, 2.1471375e+2, -878045.94, -921409.9, -0.0005252626, 0.000000020695152, -0.00012682709, -878045.94, -42240.656, 0.0, 10.0, 9.942949 
3.95e+2, 2.2465037e+2, -789759.8, -843144.9, -0.00033377646, 0.00000002067125, 0.00012088013, -789759.8, -51333.55, 0.0, 10.0, 9.929908 
3.95e+2, 2.3458035e+2, -691326.3, -744966.44, -0.000755164, 0.000000020835468, -0.00008881761, -691326.3, -50213.785, 0.0, 10.0, 9.929577 
3.95e+2, 2.4450338e+2, -603002.25, -667018.8, -0.00042132565, 0.000000020807681, 0.00007470944, -603002.25, -59135.383, 0.0, 10.0, 9.916136 
3.95e+2, 2.5441962e+2, -504249.6, -568343.3, -0.00059579016, 0.000000020550342, -0.00010673648, -504249.6, -57562.043, 0.0, 10.0, 9.916036 
3.95e+2, 2.643288e+2, -416014.2, -490987.88, -0.00013645299, 0.000000020425503, 0.00014059429, -416014.2, -66436.516, 0.0, 10.0, 9.901964 
3.95e+2, 2.742313e+2, -316728.97, -391374.78, -0.00043073238, 0.000000020469807, -0.000203444, -316728.97, -64195.965, 0.0, 10.0, 9.902385 
3.95e+2, 2.841256e+2, -230255.7, -318081.25, -0.00018002685, 0.000000020463661, 0.00022904592, -230255.7, -74686.734, 0.0, 10.0, 9.885439 
3.95e+2, 2.940121e+2, -130549.57, -217765.02, -0.00046652445, 0.00000002038766, -0.00025334297, -130549.57, -71868.18, 0.0, 10.0, 9.886217 
3.95e+2, 3.0392656e+2, -40805.56, -84750.16, -0.00005706799, 0.000000020398303, 0.00017313601, -40805.56, -40805.56, 0.0, 10.0, 9.942173 
3.95e+2, 3.138706e+2, -39727.547, -82511.21, -0.00020628914, 0.000000020538216, -0.00005514316, -39727.547, -39727.547, 0.0, 10.0, 9.943684 
4.05e+2, 1.2499334e+2, -1719946.1, -1724224.6, 0.00062050053, 0.000000023385187, 0.000017601778, -1719946.1, -4880.9194, 0.0, 10.0, 9.994328 
4.05e+2, 1.349876e+2, -1622565.8, -1627434.9, -0.000038139584, 0.000000022773948, -0.00006840205, -1622565.8, -5444.1333, 0.0, 10.0, 9.993545 
4.05e+2, 1.4497513e+2, -1534464.3, -1548146.3, 0.00011214335, 0.000000022422574, 0.00007092139, -1534464.3, -15220.641, 0.0, 10.0, 9.981865 
4.05e+2, 1.5495703e+2, -1436736.6, -1450821.9, -0.00016451547, 0.00000002233232, -0.000056978814, -1436736.6, -15315.46, 0.0, 10.0, 9.981333 
4.05e+2, 1.6493228e+2, -1348685.6, -1371952.4, 0.00003430594, 0.000000022263354, 0.000047343172, -1348685.6, -25021.953, 0.0, 10.0, 9.969248 
4.05e+2, 1.7490156e+2, -1250727.6, -1274310.1, -0.00038376785, 0.000000022216128, -0.00007382943, -1250727.6, -24762.934, 0.0, 10.0, 9.968835 
4.05e+2, 1.8486421e+2, -1162646.6, -1195720.1, -0.000057895842, 0.000000022065741, 0.000066146116, -1162646.6, -34315.99, 0.0, 10.0, 9.956395 
4.05e+2, 1.9482064e+2, -1064496.9, -1097833.0, -0.00031411968, 0.000000021807388, -0.000057656103, -1064496.9, -33739.32, 0.0, 10.0, 9.956052 
4.05e+2, 2.0477042e+2, -976332.94, -1019435.0, -0.000028963652, 0.000000021647882, 0.00006807829, -976332.94, -43083.066, 0.0, 10.0, 9.943291 
4.05e+2, 2.1471375e+2, -878045.94, -921409.9, -0.00051664916, 0.000000021595428, -0.0001268267, -878045.94, -42240.652, 0.0, 10.0, 9.942949 
4.05e+2, 2.2465037e+2, -789759.8, -843144.9, -0.000284145, 0.00000002157036, 0.000120880475, -789759.8, -51333.547, 0.0, 10.0, 9.929908 
4.05e+2, 2.3458035e+2, -691326.3, -744966.44, -0.0003983271, 0.000000021576234, -0.00008881777, -691326.3, -50213.78, 0.0, 10.0, 9.929577 
4.05e+2, 2.4450338e+2, -603002.25, -667018.8, 0.000027509486, 0.000000021459387, 0.00007470917, -603002.25, -59135.38, 0.0, 10.0, 9.916136 
4.05e+2, 2.5441962e+2, -504249.6, -568343.3, -0.00042724112, 0.000000021195902, -0.00010673638, -504249.6, -57562.04, 0.0, 10.0, 9.916036 
4.05e+2, 2.643288e+2, -416014.2, -490987.88, -0.00014000782, 0.000000021141382, 0.00014059454, -416014.2, -66436.51, 0.0, 10.0, 9.901964 
4.05e+2, 2.742313e+2, -316728.97, -391374.78, -0.00040995682, 0.000000021353127, -0.00020344384, -316728.97, -64195.957, 0.0, 10.0, 9.902385 
4.05e+2, 2.841256e+2, -230255.7, -318081.25, -0.000042588694, 0.00000002140592, 0.00022904595, -230255.7, -74686.734, 0.0, 10.0, 9.885439 
4.05e+2, 2.940121e+2, -130549.57, -217765.0, -0.00022273246, 0.000000021239929, -0.0002533431, -130549.57, -71868.17, 0.0, 10.0, 9.886217 
4.05e+2, 3.0392656e+2, -40805.555, -84750.16, 0.00016008127, 0.000000021142455, 0.00017313588, -40805.555, -40805.555, 0.0, 10.0, 9.942173 
4.05e+2, 3.138706e+2, -39727.543, -82511.21, -0.00021400597, 0.000000021148766, -0.000055142984, -39727.543, -39727.543, 0.0, 10.0, 9.943684 
4.15e+2, 1.2499334e+2, -1719946.1, -1724224.6, 0.00032384731, 0.000000023903874, 0.000017601296, -1719946.1, -4880.9214, 0.0, 10.0, 9.994327 
4.15e+2, 1.349876e+2, -1622565.8, -1627434.9, -0.000334864, 0.000000023405283, -0.00006840229, -1622565.8, -5444.135, 0.0, 10.0, 9.993545 
4.15e+2, 1.4497513e+2, -1534464.3, -1548146.3, -0.00018569126, 0.000000023235899, 0.000070921684, -1534464.3, -15220.642, 0.0, 10.0, 9.981865 
4.15e+2, 1.5495703e+2, -1436736.6, -1450821.9, -0.00046235273, 0.000000023397462, -0.000056978508, -1436736.6, -15315.46, 0.0, 10.0, 9.981333 
4.15e+2, 1.6493228e+2, -1348685.6, -1371952.4, -0.00018624855, 0.00000002327551, 0.00004734334, -1348685.6, -25021.955, 0.0, 10.0, 9.969248 
4.15e+2, 1.7490156e+2, -1250727.6, -1274310.1, -0.0006039156, 0.000000022864072, -0.00007382955, -1250727.6, -24762.934, 0.0, 10.0, 9.968835 
4.15e+2, 1.8486421e+2, -1162646.6, -1195720.1, -0.00026800035, 0.000000022605784, 0.00006614602, -1162646.6, -34315.99, 0.0, 10.0, 9.956395 
4.15e+2, 1.9482064e+2, -1064496.9, -1097833.0, -0.0005241092, 0.00000002250773, -0.000057655845, -1064496.9, -33739.32, 0.0, 10.0, 9.956052 
4.15e+2, 2.0477042e+2, -976332.94, -1019435.0, -0.00025519027, 0.000000022532307, 0.0000680787, -976332.94, -43083.066, 0.0, 10.0, 9.943291 
4.15e+2, 2.1471375e+2, -878045.94, -921409.9, -0.0007432126, 0.000000022689665, -0.00012682634, -878045.94, -42240.652, 0.0, 10.0, 9.942949 
4.15e+2, 2.2465037e+2, -789759.8, -843144.9, -0.00042672295, 0.000000022584347, 0.00012088062, -789759.8, -51333.547, 0.0, 10.0, 9.929908 
4.15e+2, 2.3458035e+2, -691326.3, -744966.44, -0.0005381594, 0.000000022181645, -0.000088817986, -691326.3, -50213.78, 0.0, 10.0, 9.929577 
4.15e+2, 2.4450338e+2, -603002.25, -667018.8, -0.000086193075, 0.000000021948182, 0.000074708914, -603002.25, -59135.38, 0.0, 10.0, 9.916136 
4.15e+2, 2.5441962e+2, -504249.6, -568343.3, -0.00053968985, 0.000000021917158, -0.00010673626, -504249.6, -57562.04, 0.0, 10.0, 9.916036 
4.15e+2, 2.643288e+2, -416014.2, -490987.88, -0.0003584618, 0.000000022010209, 0.00014059481, -416014.2, -66436.51, 0.0, 10.0, 9.901964 
4.15e+2, 2.742313e+2, -316728.97, -391374.78, -0.0006355205, 0.000000022260675, -0.00020344369, -316728.97, -64195.96, 0.0, 10.0, 9.902385 
4.15e+2, 2.841256e+2, -230255.7, -318081.25, -0.00011306614, 0.0000000223311, 0.00022904595, -230255.7, -74686.734, 0.0, 10.0, 9.885439 
4.15e+2, 2.940121e+2, -130549.57, -217765.02, -0.00027923865, 0.000000022154412, -0.0002533433, -130549.57, -71868.17, 0.0, 10.0, 9.886217 
4.15e+2, 3.0392656e+2, -40805.555, -84750.16, 0.00013604156, 0.000000021932589, 0.00017313573, -40805.555, -40805.555, 0.0, 10.0, 9.942173 
4.15e+2, 3.138706e+2, -39727.543, -82511.21, -0.00023423754, 0.000000021646173, -0.000055142675, -39727.543, -39727.543, 0.0, 10.0, 9.943684 
4.25e+2, 1.2499334e+2, -1719946.1, -1724224.6, 0.00035631692, 0.000000024640999, 0.000017602011, -1719946.1, -4880.915, 0.0, 10.0, 9.994327 
4.25e+2, 1.349876e+2, -1622565.8, -1627434.9, 0.000074553114, 0.00000002422372, -0.00006840257, -1622565.8, -5444.129, 0.0, 10.0, 9.993545 
4.25e+2, 1.4497513e+2, -1534464.3, -1548146.3, 0.00029313646, 0.000000024085535, 0.000070921575, -1534464.3, -15220.636, 0.0, 10.0, 9.981865 
4.25e+2, 1.5495703e+2, -1436736.6, -1450821.9, -0.0002226757, 0.000000024227848, -0.000056978108, -1436736.6, -15315.454, 0.0, 10.0, 9.981333 
4.25e+2, 1.6493228e+2, -1348685.6, -1371952.4, 0.00009662217, 0.000000024084526, 0.00004734372, -1348685.6, -25021.95, 0.0, 10.0, 9.969248 
4.25e+2, 1.7490156e+2, -1250727.6, -1274310.1, -0.00018956617, 0.00000002364955, -0.00007382973, -1250727.6, -24762.928, 0.0, 10.0, 9.968835 
4.25e+2, 1.8486421e+2, -1162646.6, -1195720.1, 0.00008250196, 0.000000023404334, 0.00006614586, -1162646.6, -34315.98, 0.0, 10.0, 9.956395 
4.25e+2, 1.9482064e+2, -1064496.9, -1097833.0, -0.00042813757, 0.00000002335767, -0.000057655372, -1064496.9, -33739.316, 0.0, 10.0, 9.956052 
4.25e+2, 2.0477042e+2, -976332.94, -1019435.0, -0.0001574788, 0.00000002339777, 0.00006807919, -976332.94, -43083.063, 0.0, 10.0, 9.943291 
4.25e+2, 2.1471375e+2, -878045.94, -921409.9, -0.00036423723, 0.000000023531811, -0.00012682652, -878045.94, -42240.65, 0.0, 10.0, 9.942949 
4.25e+2, 2.2465037e+2, -789759.8, -843144.9, 0.000043580207, 0.000000023381004, 0.00012088034, -789759.8, -51333.543, 0.0, 10.0, 9.929908 
4.25e+2, 2.3458035e+2, -691326.3, -744966.44, -0.00040599317, 0.000000022907733, -0.000088817775, -691326.3, -50213.777, 0.0, 10.0, 9.929577 
4.25e+2, 2.4450338e+2, -603002.25, -667018.8, -0.000088576046, 0.000000022727884, 0.00007470927, -603002.25, -59135.375, 0.0, 10.0, 9.916136 
4.25e+2, 2.5441962e+2, -504249.6, -568343.3, -0.00033937383, 0.000000022898835, -0.00010673619, -504249.6, -57562.035, 0.0, 10.0, 9.916036 
4.25e+2, 2.643288e+2, -416014.2, -490987.88, -0.00004475193, 0.000000022985466, 0.00014059473, -416014.2, -66436.51, 0.0, 10.0, 9.901964 
4.25e+2, 2.742313e+2, -316728.97, -391374.78, -0.00038452575, 0.000000022963947, -0.00020344382, -316728.97, -64195.953, 0.0, 10.0, 9.902385 
4.25e+2, 2.841256e+2, -230255.7, -318081.25, 0.00005988482, 0.000000022927198, 0.00022904592, -230255.7, -74686.73, 0.0, 10.0, 9.885439 
4.25e+2, 2.940121e+2, -130549.56, -217765.0, -0.00031232185, 0.00000002287011, -0.00025334308, -130549.56, -71868.164, 0.0, 10.0, 9.886217 
4.25e+2, 3.0392656e+2, -40805.55, -84750.16, 0.000053648746, 0.00000002275772, 0.00017313601, -40805.55, -40805.55, 0.0, 10.0, 9.942173 
4.25e+2, 3.138706e+2, -39727.54, -82511.21, -0.00020199823, 0.000000022563516, -0.000055142755, -39727.54, -39727.54, 0.0, 10.0, 9.943684 
4.35e+2, 1.2499334e+2, -1719946.1, -1724224.6, 0.00001936709, 0.00000002559656, 0.000017603921, -1719946.1, -4880.916, 0.0, 10.0, 9.994327 
4.35e+2, 1.349876e+2, -1622565.8, -1627434.9, -0.00026247857, 0.000000025229259, -0.00006840289, -1622565.8, -5444.1294, 0.0, 10.0, 9.993545 
4.35e+2, 1.4497513e+2, -1534464.3, -1548146.3, -0.00004791202, 0.00000002497148, 0.00007092107, -1534464.3, -15220.637, 0.0, 10.0, 9.981865 
4.35e+2, 1.5495703e+2, -1436736.6, -1450821.9, -0.00056373165, 0.000000024823482, -0.000056977613, -1436736.6, -15315.456, 0.0, 10.0, 9.981333 
4.35e+2, 1.6493228e+2, -1348685.6, -1371952.4, -0.00012527782, 0.000000024690404, 0.00004734431, -1348685.6, -25021.95, 0.0, 10.0, 9.969248 
4.35e+2, 1.7490156e+2, -1250727.6, -1274310.1, -0.0004108383, 0.00000002457256, -0.00007382997, -1250727.6, -24762.93, 0.0, 10.0, 9.968835 
4.35e+2, 1.8486421e+2, -1162646.6, -1195720.1, -0.00016522413, 0.000000024461395, 0.00006614565, -1162646.6, -34315.984, 0.0, 10.0, 9.956395 
4.35e+2, 1.9482064e+2, -1064496.9, -1097833.0, -0.00067617156, 0.000000024357204, -0.000057654677, -1064496.9, -33739.316, 0.0, 10.0, 9.956052 
4.35e+2, 2.0477042e+2, -976332.94, -1019435.0, -0.00039219667, 0.000000024244272, 0.00006807975, -976332.94, -43083.063, 0.0, 10.0, 9.943291 
4.35e+2, 2.1471375e+2, -878045.94, -921409.9, -0.0005986818, 0.000000024121864, -0.0001268272, -878045.94, -42240.65, 0.0, 10.0, 9.942949 
4.35e+2, 2.2465037e+2, -789759.8, -843144.9, -0.000074653915, 0.00000002396033, 0.000120879624, -789759.8, -51333.543, 0.0, 10.0, 9.929908 
4.35e+2, 2.3458035e+2, -691326.3, -744966.44, -0.0005204271, 0.000000023754499, -0.000088817134, -691326.3, -50213.777, 0.0, 10.0, 9.929577 
4.35e+2, 2.4450338e+2, -603002.25, -667018.8, -0.00031318527, 0.000000023798492, 0.00007471023, -603002.25, -59135.375, 0.0, 10.0, 9.916136 
4.35e+2, 2.5441962e+2, -504249.6, -568343.3, -0.00056927995, 0.000000024140936, -0.00010673616, -504249.6, -57562.035, 0.0, 10.0, 9.916036 
4.35e+2, 2.643288e+2, -416014.2, -490987.88, -0.00011786016, 0.000000024067155, 0.00014059426, -416014.2, -66436.51, 0.0, 10.0, 9.901964 
4.35e+2, 2.742313e+2, -316728.97, -391374.78, -0.0004471239, 0.000000023462947, -0.0002034442, -316728.97, -64195.953, 0.0, 10.0, 9.902385 
4.35e+2, 2.841256e+2, -230255.7, -318081.25, -0.000063815685, 0.000000023194213, 0.0002290459, -230255.7, -74686.73, 0.0, 10.0, 9.885439 
4.35e+2, 2.940121e+2, -130549.56, -217765.02, -0.00044153054, 0.000000023387022, -0.00025334238, -130549.56, -71868.164, 0.0, 10.0, 9.886217 
4.35e+2, 3.0392656e+2, -40805.55, -84750.16, -0.00004553134, 0.000000023617849, 0.00017313668, -40805.55, -40805.55, 0.0, 10.0, 9.942173 
4.35e+2, 3.138706e+2, -39727.54, -82511.21, -0.0002976562, 0.000000023900792, -0.00005514322, -39727.54, -39727.54, 0.0, 10.0, 9.943684 
4.45e+2, 1.2499334e+2, -1719946.1, -1724224.6, -0.000042722357, 0.000000026579565, 0.000017604561, -1719946.1, -4880.9097, 0.0, 10.0, 9.994327 
4.45e+2, 1.349876e+2, -1622565.8, -1627434.9, -0.0002116057, 0.000000026274414, -0.000068402645, -1622565.8, -5444.1235, 0.0, 10.0, 9.993545 
4.45e+2, 1.4497513e+2, -1534464.3, -1548146.3, 0.00015592352, 0.00000002594501, 0.00007092147, -1534464.3, -15220.631, 0.0, 10.0, 9.981865 
4.45e+2, 1.5495703e+2, -1436736.6, -1450821.9, -0.0003020154, 0.000000025590607, -0.000056977457, -1436736.6, -15315.449, 0.0, 10.0, 9.981333 
4.45e+2, 1.6493228e+2, -1348685.6, -1371952.4, 0.00012256287, 0.000000025438585, 0.000047344427, -1348685.6, -25021.943, 0.0, 10.0, 9.969248 
4.45e+2, 1.7490156e+2, -1250727.6, -1274310.1, -0.00020685303, 0.000000025493208, -0.000073829695, -1250727.6, -24762.924, 0.0, 10.0, 9.968835 
4.45e+2, 1.8486421e+2, -1162646.6, -1195720.1, 0.000114421535, 0.000000025455495, 0.00006614588, -1162646.6, -34315.977, 0.0, 10.0, 9.956395 
4.45e+2, 1.9482064e+2, -1064496.9, -1097833.0, -0.00030346078, 0.000000025321148, -0.000057654674, -1064496.9, -33739.313, 0.0, 10.0, 9.956052 
4.45e+2, 2.0477042e+2, -976332.94, -1019435.0, 0.0000315337, 0.000000025101436, 0.0000680797, -976332.94, -43083.06, 0.0, 10.0, 9.943291 
4.45e+2, 2.1471375e+2, -878045.94, -921409.9, -0.00028571393, 0.000000024789271, -0.00012682712, -878045.94, -42240.64, 0.0, 10.0, 9.942949 
4.45e+2, 2.2465037e+2, -789759.8, -843144.9, 0.00014372371, 0.000000024673904, 0.00012087977, -789759.8, -51333.54, 0.0, 10.0, 9.929908 
4.45e+2, 2.3458035e+2, -691326.3, -744966.44, -0.00033370245, 0.00000002478131, -0.00008881701, -691326.3, -50213.773, 0.0, 10.0, 9.929577 
4.45e+2, 2.4450338e+2, -603002.25, -667018.8, -0.0001408956, 0.000000024879125, 0.00007471035, -603002.25, -59135.37, 0.0, 10.0, 9.916136 
4.45e+2, 2.5441962e+2, -504249.6, -568343.3, -0.00045530102, 0.000000024965248, -0.00010673602, -504249.6, -57562.027, 0.0, 10.0, 9.916036 
4.45e+2, 2.643288e+2, -416014.2, -490987.88, 0.000078756144, 0.000000024779357, 0.00014059438, -416014.2, -66436.5, 0.0, 10.0, 9.901964 
4.45e+2, 2.742313e+2, -316728.97, -391374.78, -0.00022737187, 0.000000024247292, -0.00020344419, -316728.97, -64195.95, 0.0, 10.0, 9.902385 
4.45e+2, 2.841256e+2, -230255.69, -318081.25, 0.000073831085, 0.000000024021409, 0.0002290459, -230255.69, -74686.72, 0.0, 10.0, 9.885439 
4.45e+2, 2.940121e+2, -130549.555, -217765.0, -0.00033597238, 0.000000024216112, -0.0002533423, -130549.555, -71868.164, 0.0, 10.0, 9.886217 
4.45e+2, 3.0392656e+2, -40805.543, -84750.16, 0.00009450255, 0.000000024485136, 0.00017313672, -40805.543, -40805.543, 0.0, 10.0, 9.942173 
4.45e+2, 3.138706e+2, -39727.535, -82511.21, -0.000017618688, 0.0000000248605, -0.00005514343, -39727.535, -39727.535, 0.0, 10.0, 9.943684 
4.55e+2, 1.2499334e+2, -1719946.1, -1724224.6, -0.00037683916, 0.000000027590016, 0.000017603932, -1719946.1, -4880.9106, 0.0, 10.0, 9.994327 
4.55e+2, 1.349876e+2, -1622565.8, -1627434.9, -0.0005457941, 0.000000027359185, -0.00006840184, -1622565.8, -5444.124, 0.0, 10.0, 9.993545 
4.55e+2, 1.4497513e+2, -1534464.3, -1548146.3, -0.00004127444, 0.000000027006122, 0.00007092276, -1534464.3, -15220.633, 0.0, 10.0, 9.981865 
4.55e+2, 1.5495703e+2, -1436736.6, -1450821.9, -0.0004989976, 0.000000026529221, -0.000056977635, -1436736.6, -15315.451, 0.0, 10.0, 9.981333 
4.55e+2, 1.6493228e+2, -1348685.6, -1371952.4, -0.00023904795, 0.000000026329069, 0.000047344067, -1348685.6, -25021.943, 0.0, 10.0, 9.969248 
4.55e+2, 1.7490156e+2, -1250727.6, -1274310.1, -0.0005693343, 0.000000026411492, -0.000073828916, -1250727.6, -24762.924, 0.0, 10.0, 9.968835 
4.55e+2, 1.8486421e+2, -1162646.6, -1195720.1, -0.000118208154, 0.000000026386633, 0.000066146575, -1162646.6, -34315.98, 0.0, 10.0, 9.956395 
4.55e+2, 1.9482064e+2, -1064496.9, -1097833.0, -0.0005345883, 0.000000026249499, -0.00005765537, -1064496.9, -33739.313, 0.0, 10.0, 9.956052 
4.55e+2, 2.0477042e+2, -976332.94, -1019435.0, -0.00010290862, 0.000000025969259, 0.000068079025, -976332.94, -43083.06, 0.0, 10.0, 9.943291 
4.55e+2, 2.1471375e+2, -878045.94, -921409.9, -0.00041816113, 0.000000025534032, -0.00012682626, -878045.94, -42240.645, 0.0, 10.0, 9.942949 
4.55e+2, 2.2465037e+2, -789759.8, -843144.9, -0.00014845993, 0.000000025521725, 0.00012088077, -789759.8, -51333.54, 0.0, 10.0, 9.929908 
4.55e+2, 2.3458035e+2, -691326.3, -744966.44, -0.0006311138, 0.000000025988165, -0.00008881742, -691326.3, -50213.773, 0.0, 10.0, 9.929577 
4.55e+2, 2.4450338e+2, -603002.25, -667018.8, -0.000270975, 0.00000002596978, 0.00007470962, -603002.25, -59135.37, 0.0, 10.0, 9.916136 
4.55e+2, 2.5441962e+2, -504249.6, -568343.3, -0.0005773415, 0.00000002537177, -0.00010673577, -504249.6, -57562.03, 0.0, 10.0, 9.916036 
4.55e+2, 2.643288e+2, -416014.2, -490987.88, 0.000016622322, 0.000000025122072, 0.00014059505, -416014.2, -66436.5, 0.0, 10.0, 9.901964 
4.55e+2, 2.742313e+2, -316728.97, -391374.78, -0.0002854913, 0.00000002531698, -0.00020344376, -316728.97, -64195.95, 0.0, 10.0, 9.902385 
4.55e+2, 2.841256e+2, -230255.7, -318081.25, -0.00008709486, 0.000000025408784, 0.00022904594, -230255.7, -74686.73, 0.0, 10.0, 9.885439 
4.55e+2, 2.940121e+2, -130549.56, -217765.02, -0.0005061648, 0.000000025357377, -0.00025334282, -130549.56, -71868.164, 0.0, 10.0, 9.886217 
4.55e+2, 3.0392656e+2, -40805.547, -84750.16, -0.00011500841, 0.000000025359576, 0.00017313611, -40805.547, -40805.547, 0.0, 10.0, 9.942173 
4.55e+2, 3.138706e+2, -39727.535, -82511.21, -0.00023174893, 0.000000025442635, -0.00005514339, -39727.535, -39727.535, 0.0, 10.0, 9.943684 
4.65e+2, 1.2499334e+2, -1719946.1, -1724224.6, 0.00082354323, 0.000000028487063, 0.000017603224, -1719946.1, -4880.9033, 0.0, 10.0, 9.994327 
4.65e+2, 1.349876e+2, -1622565.6, -1627434.9, -0.000104796774, 0.000000028160084, -0.00006840152, -1622565.6, -5444.117, 0.0, 10.0, 9.993545 
4.65e+2, 1.4497513e+2, -1534464.3, -1548146.3, 0.00021496223, 0.000000027883805, 0.00007092362, -1534464.3, -15220.626, 0.0, 10.0, 9.981865 
4.65e+2, 1.5495703e+2, -1436736.6, -1450821.9, -0.0000035755063, 0.000000027657556, -0.000056977762, -1436736.6, -15315.444, 0.0, 10.0, 9.981333 
4.65e+2, 1.6493228e+2, -1348685.6, -1371952.4, 0.00025505287, 0.000000027462447, 0.0000473438, -1348685.6, -25021.938, 0.0, 10.0, 9.969248 
4.65e+2, 1.7490156e+2, -1250727.6, -1274310.1, -0.00033465357, 0.00000002729913, -0.000073828465, -1250727.6, -24762.918, 0.0, 10.0, 9.968835 
4.65e+2, 1.8486421e+2, -1162646.6, -1195720.1, 0.00011179871, 0.000000027169769, 0.00006614708, -1162646.6, -34315.973, 0.0, 10.0, 9.956395 
4.65e+2, 1.9482064e+2, -1064496.9, -1097833.0, -0.00011896067, 0.000000027075917, -0.000057655518, -1064496.9, -33739.305, 0.0, 10.0, 9.956052 
4.65e+2, 2.0477042e+2, -976332.94, -1019435.0, 0.00029427244, 0.00000002688568, 0.000068078836, -976332.94, -43083.05, 0.0, 10.0, 9.943291 
4.65e+2, 2.1471375e+2, -878045.94, -921409.9, -0.00037349158, 0.000000026591033, -0.00012682582, -878045.94, -42240.637, 0.0, 10.0, 9.942949 
4.65e+2, 2.2465037e+2, -789759.8, -843144.9, -0.00015416153, 0.00000002657044, 0.00012088128, -789759.8, -51333.53, 0.0, 10.0, 9.929908 
4.65e+2, 2.3458035e+2, -691326.3, -744966.44, -0.0002615332, 0.000000026860075, -0.000088817455, -691326.3, -50213.766, 0.0, 10.0, 9.929577 
4.65e+2, 2.4450338e+2, -603002.25, -667018.8, 0.0003004249, 0.000000026716997, 0.00007470938, -603002.25, -59135.363, 0.0, 10.0, 9.916136 
4.65e+2, 2.5441962e+2, -504249.6, -568343.3, -0.00029660173, 0.000000026056705, -0.0001067358, -504249.6, -57562.023, 0.0, 10.0, 9.916036 
4.65e+2, 2.643288e+2, -416014.2, -490987.88, 0.000022079032, 0.000000025913067, 0.0001405952, -416014.2, -66436.49, 0.0, 10.0, 9.901964 
4.65e+2, 2.742313e+2, -316728.94, -391374.78, -0.00030362525, 0.00000002642814, -0.00020344343, -316728.94, -64195.945, 0.0, 10.0, 9.902385 
4.65e+2, 2.841256e+2, -230255.69, -318081.25, 0.000099422316, 0.000000026650307, 0.0002290461, -230255.69, -74686.72, 0.0, 10.0, 9.885439 
4.65e+2, 2.940121e+2, -130549.555, -217765.0, -0.000019003053, 0.000000026468546, -0.00025334326, -130549.555, -71868.16, 0.0, 10.0, 9.886217 
4.65e+2, 3.0392656e+2, -40805.54, -84750.16, 0.0003749998, 0.000000026246438, 0.00017313565, -40805.54, -40805.54, 0.0, 10.0, 9.942173 
4.65e+2, 3.138706e+2, -39727.527, -82511.21, -0.00024929267, 0.000000025968228, -0.00005514306, -39727.527, -39727.527, 0.0, 10.0, 9.943684 
4.75e+2, 1.2499334e+2, -1719946.1, -1724224.6, 0.00042965353, 0.00000002927071, 0.00001760244, -1719946.1, -4880.906, 0.0, 10.0, 9.994327 
4.75e+2, 1.349876e+2, -1622565.8, -1627434.9, -0.0004987808, 0.00000002867711, -0.0000684017, -1622565.8, -5444.1196, 0.0, 10.0, 9.993545 
4.75e+2, 1.4497513e+2, -1534464.3, -1548146.3, -0.00016387473, 0.000000028578063, 0.00007092404, -1534464.3, -15220.626, 0.0, 10.0, 9.981865 
4.75e+2, 1.5495703e+2, -1436736.6, -1450821.9, -0.00038238987, 0.000000028975613, -0.000056977835, -1436736.6, -15315.445, 0.0, 10.0, 9.981333 
4.75e+2, 1.6493228e+2, -1348685.6, -1371952.4, 0.00004911677, 0.000000028838718, 0.000047343623, -1348685.6, -25021.94, 0.0, 10.0, 9.969248 
4.75e+2, 1.7490156e+2, -1250727.6, -1274310.1, -0.0005396791, 0.000000028156123, -0.00007382834, -1250727.6, -24762.92, 0.0, 10.0, 9.968835 
4.75e+2, 1.8486421e+2, -1162646.6, -1195720.1, -0.00014991665, 0.0000000278049, 0.00006614739, -1162646.6, -34315.973, 0.0, 10.0, 9.956395 
4.75e+2, 1.9482064e+2, -1064496.9, -1097833.0, -0.00038133436, 0.000000027800404, -0.000057655125, -1064496.9, -33739.305, 0.0, 10.0, 9.956052 
4.75e+2, 2.0477042e+2, -976332.94, -1019435.0, 0.00004138495, 0.000000027850696, 0.00006807913, -976332.94, -43083.055, 0.0, 10.0, 9.943291 
4.75e+2, 2.1471375e+2, -878045.94, -921409.9, -0.0006261848, 0.000000027960274, -0.00012682582, -878045.94, -42240.64, 0.0, 10.0, 9.942949 
4.75e+2, 2.2465037e+2, -789759.8, -843144.9, -0.00032572373, 0.000000027820048, 0.00012088128, -789759.8, -51333.535, 0.0, 10.0, 9.929908 
4.75e+2, 2.3458035e+2, -691326.3, -744966.44, -0.0004304437, 0.00000002739704, -0.000088817134, -691326.3, -50213.766, 0.0, 10.0, 9.929577 
4.75e+2, 2.4450338e+2, -603002.25, -667018.8, 0.00022373625, 0.000000027120775, 0.00007470962, -603002.25, -59135.367, 0.0, 10.0, 9.916136 
4.75e+2, 2.5441962e+2, -504249.6, -568343.3, -0.00036886026, 0.000000027020054, -0.0001067361, -504249.6, -57562.023, 0.0, 10.0, 9.916036 
4.75e+2, 2.643288e+2, -416014.2, -490987.88, -0.00031383737, 0.000000027152346, 0.00014059487, -416014.2, -66436.49, 0.0, 10.0, 9.901964 
4.75e+2, 2.742313e+2, -316728.94, -391374.78, -0.0006572217, 0.000000027580768, -0.0002034432, -316728.94, -64195.945, 0.0, 10.0, 9.902385 
4.75e+2, 2.841256e+2, -230255.69, -318081.25, 0.000028328539, 0.000000027745978, 0.0002290464, -230255.69, -74686.72, 0.0, 10.0, 9.885439 
4.75e+2, 2.940121e+2, -130549.555, -217765.0, -0.00006464476, 0.00000002754962, -0.00025334358, -130549.555, -71868.16, 0.0, 10.0, 9.886217 
4.75e+2, 3.0392656e+2, -40805.54, -84750.16, 0.00045314993, 0.000000027145719, 0.00017313534, -40805.54, -40805.54, 0.0, 10.0, 9.942173 
4.75e+2, 3.138706e+2, -39727.527, -82511.21, -0.00015661305, 0.000000026437277, -0.000055142445, -39727.527, -39727.527, 0.0, 10.0, 9.943684 
4.85e+2, 1.2499334e+2, -1719946.1, -1724224.6, 0.00041443025, 0.000000030283545, 0.000017603372, -1719946.1, -4880.8984, 0.0, 10.0, 9.994327 
4.85e+2, 1.349876e+2, -1622565.6, -1627434.9, 0.00014950265, 0.000000029599732, -0.00006840214, -1622565.6, -5444.1123, 0.0, 10.0, 9.993545 
4.85e+2, 1.4497514e+2, -1534464.3, -1548146.3, 0.00056967465, 0.000000029462788, 0.00007092379, -1534464.3, -15220.619, 0.0, 10.0, 9.981865 
4.85e+2, 1.5495703e+2, -1436736.6, -1450821.9, -0.000066675995, 0.000000029874933, -0.00005697747, -1436736.6, -15315.438, 0.0, 10.0, 9.981333 
4.85e+2, 1.6493228e+2, -1348685.6, -1371952.4, 0.00040054007, 0.000000029781386, 0.000047344034, -1348685.6, -25021.932, 0.0, 10.0, 9.969248 
4.85e+2, 1.7490156e+2, -1250727.6, -1274310.1, -0.000024660902, 0.000000029171499, -0.000073828465, -1250727.6, -24762.912, 0.0, 10.0, 9.968835 
4.85e+2, 1.8486421e+2, -1162646.6, -1195720.1, 0.00026286964, 0.000000028815547, 0.000066147324, -1162646.6, -34315.965, 0.0, 10.0, 9.956395 
4.85e+2, 1.9482064e+2, -1064496.9, -1097833.0, -0.0003288293, 0.000000028725289, -0.00005765451, -1064496.9, -33739.3, 0.0, 10.0, 9.956052 
4.85e+2, 2.0477042e+2, -976332.94, -1019435.0, 0.0001284557, 0.000000028786557, 0.000068079666, -976332.94, -43083.047, 0.0, 10.0, 9.943291 
4.85e+2, 2.1471375e+2, -878045.94, -921409.9, -0.000033632743, 0.000000029011895, -0.00012682618, -878045.94, -42240.633, 0.0, 10.0, 9.942949 
4.85e+2, 2.2465037e+2, -789759.8, -843144.9, 0.0003672673, 0.00000002881606, 0.00012088086, -789759.8, -51333.527, 0.0, 10.0, 9.929908 
4.85e+2, 2.3458035e+2, -691326.3, -744966.44, -0.00040179008, 0.000000028143425, -0.000088816654, -691326.3, -50213.76, 0.0, 10.0, 9.929577 
4.85e+2, 2.4450338e+2, -603002.25, -667018.8, 0.000060243194, 0.000000027940967, 0.00007471025, -603002.25, -59135.36, 0.0, 10.0, 9.916136 
4.85e+2, 2.5441962e+2, -504249.6, -568343.3, 0.000022889106, 0.000000028300592, -0.00010673621, -504249.6, -57562.02, 0.0, 10.0, 9.916036 
4.85e+2, 2.643288e+2, -416014.16, -490987.88, 0.000316513, 0.000000028474178, 0.00014059443, -416014.16, -66436.49, 0.0, 10.0, 9.901964 
4.85e+2, 2.742313e+2, -316728.94, -391374.78, -0.00027886845, 0.000000028409673, -0.00020344343, -316728.94, -64195.938, 0.0, 10.0, 9.902385 
4.85e+2, 2.841256e+2, -230255.69, -318081.25, 0.00014949888, 0.00000002833244, 0.00022904649, -230255.69, -74686.71, 0.0, 10.0, 9.885439 
4.85e+2, 2.940121e+2, -130549.55, -217765.0, -0.00038476178, 0.000000028238906, -0.000253343, -130549.55, -71868.15, 0.0, 10.0, 9.886217 
4.85e+2, 3.0392656e+2, -40805.535, -84750.16, 0.00006146134, 0.000000028049753, 0.0001731359, -40805.535, -40805.535, 0.0, 10.0, 9.942173 
4.85e+2, 3.138706e+2, -39727.523, -82511.21, -0.00018262106, 0.000000027718968, -0.00005514262, -39727.523, -39727.523, 0.0, 10.0, 9.943684 
4.95e+2, 1.2499334e+2, -1719946.1, -1724224.6, 0.00008347446, 0.00000003152557, 0.00001760602, -1719946.1, -4880.8994, 0.0, 10.0, 9.994327 
4.95e+2, 1.349876e+2, -1622565.6, -1627434.9, -0.00018153038, 0.00000003092795, -0.00006840285, -1622565.6, -5444.1133, 0.0, 10.0, 9.993545 
4.95e+2, 1.4497514e+2, -1534464.3, -1548146.3, 0.00013870727, 0.00000003053798, 0.000070922855, -1534464.3, -15220.62, 0.0, 10.0, 9.981865 
4.95e+2, 1.5495703e+2, -1436736.6, -1450821.9, -0.00049780385, 0.000000030355515, -0.000056976674, -1436736.6, -15315.439, 0.0, 10.0, 9.981333 
4.95e+2, 1.6493228e+2, -1348685.6, -1371952.4, 0.00012674923, 0.00000003029045, 0.000047345024, -1348685.6, -25021.934, 0.0, 10.0, 9.969248 
4.95e+2, 1.7490156e+2, -1250727.6, -1274310.1, -0.00029762278, 0.000000030345262, -0.00007382884, -1250727.6, -24762.914, 0.0, 10.0, 9.968835 
4.95e+2, 1.8486421e+2, -1162646.6, -1195720.1, 0.00002357405, 0.00000003020171, 0.00006614687, -1162646.6, -34315.97, 0.0, 10.0, 9.956395 
4.95e+2, 1.9482064e+2, -1064496.9, -1097833.0, -0.0005677373, 0.00000002985057, -0.00005765367, -1064496.9, -33739.3, 0.0, 10.0, 9.956052 
4.95e+2, 2.0477042e+2, -976332.94, -1019435.0, -0.00016253456, 0.000000029693263, 0.00006808045, -976332.94, -43083.047, 0.0, 10.0, 9.943291 
4.95e+2, 2.1471375e+2, -878045.94, -921409.9, -0.0003257011, 0.000000029745895, -0.00012682693, -878045.94, -42240.633, 0.0, 10.0, 9.942949 
4.95e+2, 2.2465037e+2, -789759.8, -843144.9, 0.00027924747, 0.000000029558475, 0.00012088002, -789759.8, -51333.527, 0.0, 10.0, 9.929908 
4.95e+2, 2.3458035e+2, -691326.3, -744966.44, -0.0004831362, 0.00000002909923, -0.000088816014, -691326.3, -50213.76, 0.0, 10.0, 9.929577 
4.95e+2, 2.4450338e+2, -603002.25, -667018.8, -0.00027715118, 0.000000029177569, 0.00007471128, -603002.25, -59135.36, 0.0, 10.0, 9.916136 
4.95e+2, 2.5441962e+2, -504249.6, -568343.3, -0.00032681267, 0.000000029898324, -0.00010673613, -504249.6, -57562.02, 0.0, 10.0, 9.916036 
4.95e+2, 2.643288e+2, -416014.16, -490987.88, 0.00029855664, 0.000000029878564, 0.00014059391, -416014.16, -66436.49, 0.0, 10.0, 9.901964 
4.95e+2, 2.742313e+2, -316728.94, -391374.78, -0.0002745853, 0.000000028914856, -0.00020344411, -316728.94, -64195.94, 0.0, 10.0, 9.902385 
4.95e+2, 2.841256e+2, -230255.69, -318081.25, 0.000028300421, 0.000000028409694, 0.00022904637, -230255.69, -74686.71, 0.0, 10.0, 9.885439 
4.95e+2, 2.940121e+2, -130549.55, -217765.0, -0.0005172691, 0.000000028536407, -0.00025334154, -130549.55, -71868.16, 0.0, 10.0, 9.886217 
4.95e+2, 3.0392656e+2, -40805.535, -84750.16, -0.000102378, 0.000000028958537, 0.00017313733, -40805.535, -40805.535, 0.0, 10.0, 9.942173 
4.95e+2, 3.138706e+2, -39727.523, -82511.21, -0.00035014143, 0.0000000298133, -0.000055143584, -39727.523, -39727.523, 0.0, 10.0, 9.943684 
5.05e+2, 1.2499334e+2, -1719946.1, -1724224.6, 0.000021699603, 0.000000032664794, 0.000017606779, -1719946.1, -4880.892, 0.0, 10.0, 9.994327 
5.05e+2, 1.349876e+2, -1622565.6, -1627434.9, -0.00019469764, 0.000000032271338, -0.00006840258, -1622565.6, -5444.1064, 0.0, 10.0, 9.993545 
5.05e+2, 1.4497514e+2, -1534464.3, -1548146.3, 0.0002881345, 0.000000031786957, 0.0000709234, -1534464.3, -15220.614, 0.0, 10.0, 9.981865 
5.05e+2, 1.5495703e+2, -1436736.6, -1450821.9, -0.000265247, 0.000000031209307, -0.000056976347, -1436736.6, -15315.432, 0.0, 10.0, 9.981333 
5.05e+2, 1.6493228e+2, -1348685.6, -1371952.4, 0.0003518587, 0.000000031064555, 0.000047345253, -1348685.6, -25021.926, 0.0, 10.0, 9.969248 
5.05e+2, 1.7490156e+2, -1250727.6, -1274310.1, -0.000016547263, 0.000000031361825, -0.0000738286, -1250727.6, -24762.906, 0.0, 10.0, 9.968835 
5.05e+2, 1.8486421e+2, -1162646.6, -1195720.1, 0.00047872236, 0.000000031351956, 0.00006614699, -1162646.6, -34315.96, 0.0, 10.0, 9.956395 
5.05e+2, 1.9482064e+2, -1064496.9, -1097833.0, -0.000022421476, 0.000000031020676, -0.000057653837, -1064496.9, -33739.293, 0.0, 10.0, 9.956052 
5.05e+2, 2.0477042e+2, -976332.94, -1019435.0, 0.0003190943, 0.000000030745042, 0.000068080415, -976332.94, -43083.04, 0.0, 10.0, 9.943291 
5.05e+2, 2.1471375e+2, -878045.94, -921409.9, -0.00019031664, 0.000000030529698, -0.00012682637, -878045.94, -42240.625, 0.0, 10.0, 9.942949 
5.05e+2, 2.2465037e+2, -789759.8, -843144.9, 0.0004182943, 0.00000003040319, 0.00012088047, -789759.8, -51333.52, 0.0, 10.0, 9.929908 
5.05e+2, 2.3458035e+2, -691326.3, -744966.44, 0.00007690284, 0.00000003037718, -0.00008881643, -691326.3, -50213.758, 0.0, 10.0, 9.929577 
5.05e+2, 2.4450338e+2, -603002.25, -667018.8, 0.0002299524, 0.000000030493677, 0.00007471083, -603002.25, -59135.35, 0.0, 10.0, 9.916136 
5.05e+2, 2.5441962e+2, -504249.56, -568343.3, -0.00041241304, 0.000000030780285, -0.00010673562, -504249.56, -57562.01, 0.0, 10.0, 9.916036 
5.05e+2, 2.643288e+2, -416014.16, -490987.88, 0.00020810739, 0.000000030600713, 0.00014059464, -416014.16, -66436.484, 0.0, 10.0, 9.901964 
5.05e+2, 2.742313e+2, -316728.94, -391374.78, -0.000055901382, 0.000000029827433, -0.0002034441, -316728.94, -64195.934, 0.0, 10.0, 9.902385 
5.05e+2, 2.841256e+2, -230255.67, -318081.25, 0.00029477914, 0.000000029425964, 0.0002290461, -230255.67, -74686.7, 0.0, 10.0, 9.885439 
5.05e+2, 2.940121e+2, -130549.54, -217765.0, -0.00024140922, 0.000000029536027, -0.00025334154, -130549.54, -71868.15, 0.0, 10.0, 9.886217 
5.05e+2, 3.0392656e+2, -40805.527, -84750.16, 0.000179462, 0.00000003000434, 0.00017313735, -40805.527, -40805.527, 0.0, 10.0, 9.942173 
5.05e+2, 3.138706e+2, -39727.52, -82511.21, 0.0001045826, 0.000000030999605, -0.000055143904, -39727.52, -39727.52, 0.0, 10.0, 9.943684 
5.15e+2, 1.2499334e+2, -1719946.1, -1724224.6, -0.0004052159, 0.000000033701223, 0.00001760565, -1719946.1, -4880.893, 0.0, 10.0, 9.994327 
5.15e+2, 1.349876e+2, -1622565.6, -1627434.9, -0.0006216983, 0.000000033629895, -0.00006840133, -1622565.6, -5444.107, 0.0, 10.0, 9.993545 
5.15e+2, 1.4497514e+2, -1534464.3, -1548146.3, 0.00015297967, 0.000000033209716, 0.00007092543, -1534464.3, -15220.615, 0.0, 10.0, 9.981865 
5.15e+2, 1.5495703e+2, -1436736.6, -1450821.9, -0.0003999416, 0.000000032436304, -0.000056976485, -1436736.6, -15315.434, 0.0, 10.0, 9.981333 
5.15e+2, 1.6493228e+2, -1348685.6, -1371952.4, -0.00009730291, 0.0000000321037, 0.00004734471, -1348685.6, -25021.926, 0.0, 10.0, 9.969248 
5.15e+2, 1.7490156e+2, -1250727.6, -1274310.1, -0.00046737134, 0.000000032221184, -0.00007382774, -1250727.6, -24762.906, 0.0, 10.0, 9.968835 
5.15e+2, 1.8486421e+2, -1162646.6, -1195720.1, 0.00019447526, 0.000000032266282, 0.00006614766, -1162646.6, -34315.96, 0.0, 10.0, 9.956395 
5.15e+2, 1.9482064e+2, -1064496.9, -1097833.0, -0.0003047417, 0.000000032235615, -0.000057655012, -1064496.9, -33739.297, 0.0, 10.0, 9.956052 
5.15e+2, 2.0477042e+2, -976332.94, -1019435.0, 0.00019815259, 0.000000031941898, 0.000068079564, -976332.94, -43083.043, 0.0, 10.0, 9.943291 
5.15e+2, 2.1471375e+2, -878045.94, -921409.9, -0.0003079276, 0.0000000313633, -0.00012682454, -878045.94, -42240.625, 0.0, 10.0, 9.942949 
5.15e+2, 2.2465037e+2, -789759.8, -843144.9, 0.00007693124, 0.0000000313502, 0.00012088222, -789759.8, -51333.523, 0.0, 10.0, 9.929908 
5.15e+2, 2.3458035e+2, -691326.3, -744966.44, -0.00027178254, 0.000000031977283, -0.0000888179, -691326.3, -50213.758, 0.0, 10.0, 9.929577 
5.15e+2, 2.4450338e+2, -603002.25, -667018.8, 0.00010648268, 0.00000003188929, 0.00007470891, -603002.25, -59135.355, 0.0, 10.0, 9.916136 
5.15e+2, 2.5441962e+2, -504249.56, -568343.3, -0.0005250625, 0.000000030946467, -0.00010673468, -504249.56, -57562.01, 0.0, 10.0, 9.916036 
5.15e+2, 2.643288e+2, -416014.16, -490987.88, 0.00015877812, 0.000000030640624, 0.00014059663, -416014.16, -66436.484, 0.0, 10.0, 9.901964 
5.15e+2, 2.742313e+2, -316728.94, -391374.78, -0.000100986996, 0.0000000311474, -0.00020344337, -316728.94, -64195.934, 0.0, 10.0, 9.902385 
5.15e+2, 2.841256e+2, -230255.67, -318081.25, 0.000105824794, 0.000000031381248, 0.00022904566, -230255.67, -74686.7, 0.0, 10.0, 9.885439 
5.15e+2, 2.940121e+2, -130549.54, -217765.02, -0.00044332983, 0.00000003123776, -0.000253343, -130549.54, -71868.15, 0.0, 10.0, 9.886217 
5.15e+2, 3.0392656e+2, -40805.527, -84750.16, -0.00014005997, 0.00000003118716, 0.00017313597, -40805.527, -40805.527, 0.0, 10.0, 9.942173 
5.15e+2, 3.138706e+2, -39727.52, -82511.21, -0.00022874882, 0.00000003127788, -0.00005514358, -39727.52, -39727.52, 0.0, 10.0, 9.943684 
5.25e+2, 1.2499334e+2, -1719946.1, -1724224.6, 0.0010261269, 0.000000034802934, 0.000017604829, -1719946.1, -4880.8843, 0.0, 10.0, 9.994327 
5.25e+2, 1.349876e+2, -1622565.6, -1627434.9, -0.00017822976, 0.000000034489773, -0.000068400936, -1622565.6, -5444.098, 0.0, 10.0, 9.993545 
5.25e+2, 1.4497514e+2, -1534464.3, -1548146.3, 0.00039376016, 0.000000034178832, 0.00007092654, -1534464.3, -15220.606, 0.0, 10.0, 9.981865 
5.25e+2, 1.5495703e+2, -1436736.6, -1450821.9, 0.00020616307, 0.000000033867586, -0.00005697657, -1436736.6, -15315.427, 0.0, 10.0, 9.981333 
5.25e+2, 1.6493228e+2, -1348685.6, -1371952.4, 0.0005349807, 0.000000033561584, 0.000047344398, -1348685.6, -25021.92, 0.0, 10.0, 9.969248 
5.25e+2, 1.7490156e+2, -1250727.6, -1274310.1, -0.00016457558, 0.000000033260932, -0.00007382731, -1250727.6, -24762.9, 0.0, 10.0, 9.968835 
5.25e+2, 1.8486421e+2, -1162646.6, -1195720.1, 0.00045592416, 0.0000000331382, 0.00006614818, -1162646.6, -34315.953, 0.0, 10.0, 9.956395 
5.25e+2, 1.9482064e+2, -1064496.9, -1097833.0, 0.00016157753, 0.000000033201623, -0.0000576551, -1064496.9, -33739.29, 0.0, 10.0, 9.956052 
5.25e+2, 2.0477042e+2, -976332.94, -1019435.0, 0.00068643515, 0.00000003301656, 0.00006807942, -976332.94, -43083.035, 0.0, 10.0, 9.943291 
5.25e+2, 2.1471375e+2, -878045.94, -921409.9, -0.00015845707, 0.000000032562347, -0.00012682416, -878045.94, -42240.62, 0.0, 10.0, 9.942949 
5.25e+2, 2.2465037e+2, -789759.8, -843144.9, 0.00011826621, 0.000000032558507, 0.00012088267, -789759.8, -51333.516, 0.0, 10.0, 9.929908 
5.25e+2, 2.3458035e+2, -691326.3, -744966.44, 0.0000646085, 0.00000003306453, -0.00008881787, -691326.3, -50213.75, 0.0, 10.0, 9.929577 
5.25e+2, 2.4450338e+2, -603002.25, -667018.8, 0.00071382284, 0.000000032830318, 0.000074708754, -603002.25, -59135.348, 0.0, 10.0, 9.916136 
5.25e+2, 2.5441962e+2, -504249.56, -568343.3, -0.00015325763, 0.000000031711338, -0.00010673471, -504249.56, -57562.004, 0.0, 10.0, 9.916036 
5.25e+2, 2.643288e+2, -416014.16, -490987.88, 0.00017484617, 0.000000031498356, 0.00014059679, -416014.16, -66436.48, 0.0, 10.0, 9.901964 
5.25e+2, 2.742313e+2, -316728.94, -391374.78, -0.00012337707, 0.00000003244044, -0.00020344293, -316728.94, -64195.926, 0.0, 10.0, 9.902385 
5.25e+2, 2.841256e+2, -230255.67, -318081.25, 0.00039889736, 0.00000003290522, 0.00022904584, -230255.67, -74686.7, 0.0, 10.0, 9.885439 
5.25e+2, 2.940121e+2, -130549.54, -217765.0, 0.00033406806, 0.00000003271141, -0.00025334384, -130549.54, -71868.14, 0.0, 10.0, 9.886217 
5.25e+2, 3.0392656e+2, -40805.52, -84750.16, 0.0006161039, 0.000000032320916, 0.00017313515, -40805.52, -40805.52, 0.0, 10.0, 9.942173 
5.25e+2, 3.138706e+2, -39727.508, -82511.21, -0.00041384052, 0.000000031644607, -0.000055142882, -39727.508, -39727.508, 0.0, 10.0, 9.943684 
5.35e+2, 1.2499334e+2, -1719946.1, -1724224.6, 0.0006051975, 0.000000035969926, 0.000017604316, -1719946.1, -4880.887, 0.0, 10.0, 9.994327 
5.35e+2, 1.349876e+2, -1622565.6, -1627434.9, -0.0005992585, 0.000000034850967, -0.00006840141, -1622565.6, -5444.1016, 0.0, 10.0, 9.993545 
5.35e+2, 1.4497514e+2, -1534464.3, -1548146.3, -0.000099035875, 0.000000034694303, 0.00007092672, -1534464.3, -15220.607, 0.0, 10.0, 9.981865 
5.35e+2, 1.5495703e+2, -1436736.6, -1450821.9, -0.0002867493, 0.000000035503152, -0.000056976598, -1436736.6, -15315.427, 0.0, 10.0, 9.981333 
5.35e+2, 1.6493228e+2, -1348685.6, -1371952.4, 0.0003607499, 0.000000035438205, 0.000047344307, -1348685.6, -25021.922, 0.0, 10.0, 9.969248 
5.35e+2, 1.7490156e+2, -1250727.6, -1274310.1, -0.0003371274, 0.00000003448106, -0.0000738273, -1250727.6, -24762.9, 0.0, 10.0, 9.968835 
5.35e+2, 1.8486421e+2, -1162646.6, -1195720.1, 0.00016904366, 0.000000033967705, 0.00006614855, -1162646.6, -34315.953, 0.0, 10.0, 9.956395 
5.35e+2, 1.9482064e+2, -1064496.9, -1097833.0, -0.00012662973, 0.000000033918703, -0.000057654095, -1064496.9, -33739.29, 0.0, 10.0, 9.956052 
5.35e+2, 2.0477042e+2, -976332.94, -1019435.0, 0.00039051156, 0.000000033969023, 0.000068079964, -976332.94, -43083.035, 0.0, 10.0, 9.943291 
5.35e+2, 2.1471375e+2, -878045.94, -921409.9, -0.0004545421, 0.00000003412684, -0.00012682527, -878045.94, -42240.62, 0.0, 10.0, 9.942949 
5.35e+2, 2.2465037e+2, -789759.8, -843144.9, -0.00008847215, 0.000000034028105, 0.000120881814, -789759.8, -51333.516, 0.0, 10.0, 9.929908 
5.35e+2, 2.3458035e+2, -691326.3, -744966.44, -0.00013921018, 0.000000033638933, -0.00008881635, -691326.3, -50213.75, 0.0, 10.0, 9.929577 
5.35e+2, 2.4450338e+2, -603002.25, -667018.8, 0.000722841, 0.000000033316763, 0.000074710384, -603002.25, -59135.348, 0.0, 10.0, 9.916136 
5.35e+2, 2.5441962e+2, -504249.56, -568343.3, -0.00013401263, 0.00000003307489, -0.0001067357, -504249.56, -57562.008, 0.0, 10.0, 9.916036 
5.35e+2, 2.643288e+2, -416014.16, -490987.88, -0.00028451954, 0.000000033173905, 0.00014059513, -416014.16, -66436.48, 0.0, 10.0, 9.901964 
5.35e+2, 2.742313e+2, -316728.94, -391374.78, -0.00061483483, 0.000000033706552, -0.00020344277, -316728.94, -64195.926, 0.0, 10.0, 9.902385 
5.35e+2, 2.841256e+2, -230255.67, -318081.25, 0.00030922287, 0.00000003399788, 0.00022904664, -230255.67, -74686.7, 0.0, 10.0, 9.885439 
5.35e+2, 2.940121e+2, -130549.54, -217765.0, 0.0002805937, 0.000000033956972, -0.000253344, -130549.54, -71868.14, 0.0, 10.0, 9.886217 
5.35e+2, 3.0392656e+2, -40805.523, -84750.164, 0.00086363463, 0.000000033405612, 0.00017313489, -40805.523, -40805.523, 0.0, 10.0, 9.942173 
5.35e+2, 3.138706e+2, -39727.51, -82511.21, -0.00013097539, 0.00000003209978, -0.00005514181, -39727.51, -39727.51, 0.0, 10.0, 9.943684 
5.45e+2, 1.2499334e+2, -1719946.1, -1724224.6, 0.0005082889, 0.000000037163463, 0.000017605633, -1719946.1, -4880.879, 0.0, 10.0, 9.994327 
5.45e+2, 1.349876e+2, -1622565.6, -1627434.9, 0.00036469594, 0.000000035964227, -0.000068402274, -1622565.6, -5444.093, 0.0, 10.0, 9.993545 
5.45e+2, 1.4497514e+2, -1534464.3, -1548146.3, 0.0009368374, 0.00000003575265, 0.00007092609, -1534464.3, -15220.599, 0.0, 10.0, 9.981865 
5.45e+2, 1.5495703e+2, -1436736.6, -1450821.9, 0.000050031547, 0.00000003653174, -0.000056976067, -1436736.6, -15315.418, 0.0, 10.0, 9.981333 
5.45e+2, 1.6493228e+2, -1348685.6, -1371952.4, 0.0007076365, 0.000000036531457, 0.000047344987, -1348685.6, -25021.912, 0.0, 10.0, 9.969248 
5.45e+2, 1.7490156e+2, -1250727.6, -1274310.1, 0.0002163875, 0.00000003573538, -0.0000738275, -1250727.6, -24762.893, 0.0, 10.0, 9.968835 
5.45e+2, 1.8486421e+2, -1162646.6, -1195720.1, 0.0005984475, 0.000000035218477, 0.00006614843, -1162646.6, -34315.945, 0.0, 10.0, 9.956395 
5.45e+2, 1.9482064e+2, -1064496.9, -1097833.0, -0.00013671443, 0.000000034993665, -0.000057653146, -1064496.9, -33739.28, 0.0, 10.0, 9.956052 
5.45e+2, 2.0477042e+2, -976332.94, -1019435.0, 0.00048921, 0.000000035049723, 0.000068080684, -976332.94, -43083.027, 0.0, 10.0, 9.943291 
5.45e+2, 2.1471375e+2, -878045.9, -921409.9, 0.00048248153, 0.000000035409908, -0.00012682617, -878045.9, -42240.613, 0.0, 10.0, 9.942949 
5.45e+2, 2.2465037e+2, -789759.8, -843144.9, 0.0009156042, 0.000000035213944, 0.000120880955, -789759.8, -51333.508, 0.0, 10.0, 9.929908 
5.45e+2, 2.3458035e+2, -691326.3, -744966.44, -0.0003834429, 0.00000003438834, -0.00008881527, -691326.3, -50213.742, 0.0, 10.0, 9.929577 
5.45e+2, 2.4450338e+2, -603002.25, -667018.8, 0.00021882799, 0.00000003418416, 0.0000747117, -603002.25, -59135.34, 0.0, 10.0, 9.916136 
5.45e+2, 2.5441962e+2, -504249.56, -568343.3, 0.0005428077, 0.0000000347229, -0.00010673617, -504249.56, -57562.0, 0.0, 10.0, 9.916036 
5.45e+2, 2.643288e+2, -416014.16, -490987.88, 0.0008241643, 0.000000034919804, 0.000140594, -416014.16, -66436.47, 0.0, 10.0, 9.901964 
5.45e+2, 2.742313e+2, -316728.94, -391374.78, -0.00012002695, 0.000000034679932, -0.00020344312, -316728.94, -64195.918, 0.0, 10.0, 9.902385 
5.45e+2, 2.841256e+2, -230255.66, -318081.25, 0.0002425351, 0.000000034554336, 0.00022904703, -230255.66, -74686.695, 0.0, 10.0, 9.885439 
5.45e+2, 2.940121e+2, -130549.52, -217765.0, -0.00050938886, 0.00000003458718, -0.00025334297, -130549.52, -71868.13, 0.0, 10.0, 9.886217 
5.45e+2, 3.0392656e+2, -40805.516, -84750.16, 0.0000510521, 0.00000003438004, 0.00017313584, -40805.516, -40805.516, 0.0, 10.0, 9.942173 
5.45e+2, 3.138706e+2, -39727.504, -82511.21, -0.00014454349, 0.000000033815375, -0.00005514222, -39727.504, -39727.504, 0.0, 10.0, 9.943684 
5.55e+2, 1.2499334e+2, -1719946.1, -1724224.6, 0.0001608058, 0.00000003838355, 0.000017608776, -1719946.1, -4880.8794, 0.0, 10.0, 9.994327 
5.55e+2, 1.349876e+2, -1622565.6, -1627434.9, 0.000017136375, 0.00000003782955, -0.00006840355, -1622565.6, -5444.0933, 0.0, 10.0, 9.993545 
5.55e+2, 1.4497514e+2, -1534464.3, -1548146.3, 0.000428736, 0.000000037353868, 0.00007092467, -1534464.3, -15220.601, 0.0, 10.0, 9.981865 
5.55e+2, 1.5495703e+2, -1436736.6, -1450821.9, -0.00045832817, 0.00000003695336, -0.00005697498, -1436736.6, -15315.42, 0.0, 10.0, 9.981333 
5.55e+2, 1.6493228e+2, -1348685.6, -1371952.4, 0.00040174474, 0.00000003684134, 0.000047346435, -1348685.6, -25021.914, 0.0, 10.0, 9.969248 
5.55e+2, 1.7490156e+2, -1250727.6, -1274310.1, -0.00008843808, 0.000000037023888, -0.00007382788, -1250727.6, -24762.895, 0.0, 10.0, 9.968835 
5.55e+2, 1.8486421e+2, -1162646.6, -1195720.1, 0.00037471738, 0.00000003689051, 0.000066147826, -1162646.6, -34315.95, 0.0, 10.0, 9.956395 
5.55e+2, 1.9482064e+2, -1064496.9, -1097833.0, -0.00035950876, 0.00000003642651, -0.00005765225, -1064496.9, -33739.28, 0.0, 10.0, 9.956052 
5.55e+2, 2.0477042e+2, -976332.94, -1019435.0, 0.00014235436, 0.00000003625866, 0.00006808159, -976332.94, -43083.027, 0.0, 10.0, 9.943291 
5.55e+2, 2.1471375e+2, -878045.9, -921409.9, 0.0001330599, 0.000000036411556, -0.00012682688, -878045.9, -42240.613, 0.0, 10.0, 9.942949 
5.55e+2, 2.2465037e+2, -789759.8, -843144.9, 0.0008874957, 0.000000036116024, 0.00012088009, -789759.8, -51333.51, 0.0, 10.0, 9.929908 
5.55e+2, 2.3458035e+2, -691326.3, -744966.44, -0.00040104124, 0.000000035312752, -0.000088814646, -691326.3, -50213.742, 0.0, 10.0, 9.929577 
5.55e+2, 2.4450338e+2, -603002.25, -667018.8, -0.00024053847, 0.000000035432517, 0.000074712705, -603002.25, -59135.34, 0.0, 10.0, 9.916136 
5.55e+2, 2.5441962e+2, -504249.56, -568343.3, 0.00006220839, 0.00000003665536, -0.00010673612, -504249.56, -57562.0, 0.0, 10.0, 9.916036 
5.55e+2, 2.643288e+2, -416014.16, -490987.88, 0.00088767806, 0.000000036736054, 0.0001405934, -416014.16, -66436.48, 0.0, 10.0, 9.901964 
5.55e+2, 2.742313e+2, -316728.94, -391374.78, -0.000020035162, 0.000000035360582, -0.000203444, -316728.94, -64195.92, 0.0, 10.0, 9.902385 
5.55e+2, 2.841256e+2, -230255.67, -318081.25, 0.00015001849, 0.000000034574594, 0.000229047, -230255.67, -74686.695, 0.0, 10.0, 9.885439 
5.55e+2, 2.940121e+2, -130549.53, -217765.0, -0.0006192529, 0.000000034602028, -0.00025334064, -130549.53, -71868.13, 0.0, 10.0, 9.886217 
5.55e+2, 3.0392656e+2, -40805.516, -84750.16, -0.00018940066, 0.000000035244206, 0.00017313795, -40805.516, -40805.516, 0.0, 10.0, 9.942173 
5.55e+2, 3.138706e+2, -39727.504, -82511.21, -0.00040032854, 0.000000036791384, -0.00005514412, -39727.504, -39727.504, 0.0, 10.0, 9.943684 
5.65e+2, 1.2499334e+2, -1719946.1, -1724224.6, 0.00027237146, 0.000000039610356, 0.00001760942, -1719946.1, -4880.8706, 0.0, 10.0, 9.994327 
5.65e+2, 1.349876e+2, -1622565.6, -1627434.9, -0.00005914995, 0.000000039502265, -0.00006840323, -1622565.6, -5444.085, 0.0, 10.0, 9.993545 
5.65e+2, 1.4497514e+2, -1534464.3, -1548146.3, 0.0005381632, 0.000000038931837, 0.00007092545, -1534464.3, -15220.593, 0.0, 10.0, 9.981865 
5.65e+2, 1.5495703e+2, -1436736.6, -1450821.9, -0.00015155728, 0.000000037891986, -0.000056974623, -1436736.6, -15315.411, 0.0, 10.0, 9.981333 
5.65e+2, 1.6493228e+2, -1348685.6, -1371952.4, 0.00069500005, 0.000000037621547, 0.000047346613, -1348685.6, -25021.904, 0.0, 10.0, 9.969248 
5.65e+2, 1.7490156e+2, -1250727.6, -1274310.1, 0.0002763587, 0.000000038136722, -0.00007382763, -1250727.6, -24762.885, 0.0, 10.0, 9.968835 
5.65e+2, 1.8486421e+2, -1162646.6, -1195720.1, 0.0009579042, 0.00000003824539, 0.0000661479, -1162646.6, -34315.94, 0.0, 10.0, 9.956395 
5.65e+2, 1.9482064e+2, -1064496.9, -1097833.0, 0.00035149755, 0.000000037928665, -0.000057652644, -1064496.9, -33739.273, 0.0, 10.0, 9.956052 
5.65e+2, 2.0477042e+2, -976332.94, -1019435.0, 0.00067509804, 0.000000037606245, 0.00006808153, -976332.94, -43083.02, 0.0, 10.0, 9.943291 
5.65e+2, 2.1471375e+2, -878045.9, -921409.9, -0.000097133576, 0.0000000372777, -0.00012682573, -878045.9, -42240.605, 0.0, 10.0, 9.942949 
5.65e+2, 2.2465037e+2, -789759.8, -843144.9, 0.0007732427, 0.000000037019603, 0.000120880984, -789759.8, -51333.5, 0.0, 10.0, 9.929908 
5.65e+2, 2.3458035e+2, -691326.25, -744966.44, 0.00066902296, 0.000000036841215, -0.00008881563, -691326.25, -50213.734, 0.0, 10.0, 9.929577 
5.65e+2, 2.4450338e+2, -603002.2, -667018.8, 0.00076795067, 0.000000037037942, 0.000074711585, -603002.2, -59135.332, 0.0, 10.0, 9.916136 
5.65e+2, 2.5441962e+2, -504249.56, -568343.3, -0.00029644917, 0.000000037682657, -0.00010673531, -504249.56, -57561.992, 0.0, 10.0, 9.916036 
5.65e+2, 2.643288e+2, -416014.16, -490987.88, 0.00039689097, 0.000000037551697, 0.00014059473, -416014.16, -66436.46, 0.0, 10.0, 9.901964 
5.65e+2, 2.742313e+2, -316728.9, -391374.78, 0.00017025015, 0.00000003643249, -0.00020344397, -316728.9, -64195.914, 0.0, 10.0, 9.902385 
5.65e+2, 2.841256e+2, -230255.66, -318081.25, 0.0005913172, 0.00000003578678, 0.00022904646, -230255.66, -74686.69, 0.0, 10.0, 9.885439 
5.65e+2, 2.940121e+2, -130549.52, -217765.0, -0.00002311519, 0.00000003579357, -0.00025334067, -130549.52, -71868.125, 0.0, 10.0, 9.886217 
5.65e+2, 3.0392656e+2, -40805.508, -84750.16, 0.0004038354, 0.000000036513917, 0.00017313793, -40805.508, -40805.508, 0.0, 10.0, 9.942173 
5.65e+2, 3.138706e+2, -39727.496, -82511.21, 0.00035367184, 0.000000038287325, -0.000055144807, -39727.496, -39727.496, 0.0, 10.0, 9.943684 
5.75e+2, 1.2499334e+2, -1719946.1, -1724224.6, -0.00028352102, 0.000000040843883, 0.000017607563, -1719946.1, -4880.8716, 0.0, 10.0, 9.994327 
5.75e+2, 1.349876e+2, -1622565.6, -1627434.9, -0.00061514764, 0.00000004098236, -0.00006840132, -1622565.6, -5444.0864, 0.0, 10.0, 9.993545 
5.75e+2, 1.4497514e+2, -1534464.3, -1548146.3, 0.00050486147, 0.000000040486558, 0.00007092845, -1534464.3, -15220.595, 0.0, 10.0, 9.981865 
5.75e+2, 1.5495703e+2, -1436736.6, -1450821.9, -0.00018403455, 0.000000039347626, -0.000056974997, -1436736.6, -15315.413, 0.0, 10.0, 9.981333 
5.75e+2, 1.6493228e+2, -1348685.6, -1371952.4, 0.000159162, 0.00000003887208, 0.000047345522, -1348685.6, -25021.904, 0.0, 10.0, 9.969248 
5.75e+2, 1.7490156e+2, -1250727.6, -1274310.1, -0.00026214056, 0.000000039073885, -0.000073826726, -1250727.6, -24762.887, 0.0, 10.0, 9.968835 
5.75e+2, 1.8486421e+2, -1162646.6, -1195720.1, 0.0005735381, 0.000000039283126, 0.00006614864, -1162646.6, -34315.94, 0.0, 10.0, 9.956395 
5.75e+2, 1.9482064e+2, -1064496.9, -1097833.0, -0.000031086973, 0.000000039500126, -0.00005765432, -1064496.9, -33739.277, 0.0, 10.0, 9.956052 
5.75e+2, 2.0477042e+2, -976332.94, -1019435.0, 0.00065798603, 0.000000039092484, 0.00006808052, -976332.94, -43083.02, 0.0, 10.0, 9.943291 
5.75e+2, 2.1471375e+2, -878045.9, -921409.9, -0.00010669993, 0.000000038008334, -0.00012682274, -878045.9, -42240.605, 0.0, 10.0, 9.942949 
5.75e+2, 2.2465037e+2, -789759.8, -843144.9, 0.0003776862, 0.00000003792468, 0.00012088365, -789759.8, -51333.5, 0.0, 10.0, 9.929908 
5.75e+2, 2.3458035e+2, -691326.25, -744966.44, 0.00026083595, 0.000000038973724, -0.00008881822, -691326.25, -50213.734, 0.0, 10.0, 9.929577 
5.75e+2, 2.4450338e+2, -603002.25, -667018.8, 0.00061850273, 0.000000039000437, 0.00007470833, -603002.25, -59135.332, 0.0, 10.0, 9.916136 
5.75e+2, 2.5441962e+2, -504249.56, -568343.3, -0.0004334661, 0.000000037804792, -0.00010673372, -504249.56, -57561.992, 0.0, 10.0, 9.916036 
5.75e+2, 2.643288e+2, -416014.16, -490987.88, 0.00040621773, 0.000000037366732, 0.000140598, -416014.16, -66436.46, 0.0, 10.0, 9.901964 
5.75e+2, 2.742313e+2, -316728.9, -391374.78, 0.00018938775, 0.00000003789565, -0.00020344305, -316728.9, -64195.914, 0.0, 10.0, 9.902385 
5.75e+2, 2.841256e+2, -230255.66, -318081.25, 0.0003902001, 0.000000038190894, 0.00022904543, -230255.66, -74686.69, 0.0, 10.0, 9.885439 
5.75e+2, 2.940121e+2, -130549.52, -217765.02, -0.00024408069, 0.000000038161808, -0.0002533431, -130549.52, -71868.125, 0.0, 10.0, 9.886217 
5.75e+2, 3.0392656e+2, -40805.508, -84750.16, -0.000024150637, 0.00000003818917, 0.00017313575, -40805.508, -40805.508, 0.0, 10.0, 9.942173 
5.75e+2, 3.138706e+2, -39727.5, -82511.21, -0.00009862062, 0.000000038303202, -0.00005514428, -39727.5, -39727.5, 0.0, 10.0, 9.943684 
5.85e+2, 1.2499334e+2, -1719946.1, -1724224.6, 0.0011496271, 0.000000042185892, 0.000017606688, -1719946.1, -4880.8613, 0.0, 10.0, 9.994327 
5.85e+2, 1.349876e+2, -1622565.6, -1627434.9, -0.00032747118, 0.00000004182599, -0.00006840062, -1622565.6, -5444.0757, 0.0, 10.0, 9.993545 
5.85e+2, 1.4497514e+2, -1534464.3, -1548146.3, 0.0006213941, 0.000000041471694, 0.00007093, -1534464.3, -15220.584, 0.0, 10.0, 9.981865 
5.85e+2, 1.5495703e+2, -1436736.6, -1450821.9, 0.00049499655, 0.000000041117545, -0.000056975197, -1436736.6, -15315.404, 0.0, 10.0, 9.981333 
5.85e+2, 1.6493228e+2, -1348685.6, -1371952.4, 0.0009268533, 0.00000004076003, 0.00004734496, -1348685.6, -25021.898, 0.0, 10.0, 9.969248 
5.85e+2, 1.7490156e+2, -1250727.6, -1274310.1, 0.000111220994, 0.00000004039907, -0.00007382623, -1250727.6, -24762.877, 0.0, 10.0, 9.968835 
5.85e+2, 1.8486421e+2, -1162646.6, -1195720.1, 0.000881426, 0.000000040298264, 0.00006614932, -1162646.6, -34315.93, 0.0, 10.0, 9.956395 
5.85e+2, 1.9482064e+2, -1064496.9, -1097833.0, 0.0004626949, 0.000000040469665, -0.000057654383, -1064496.9, -33739.266, 0.0, 10.0, 9.956052 
5.85e+2, 2.0477042e+2, -976332.94, -1019435.0, 0.001256455, 0.000000040184034, 0.00006808029, -976332.94, -43083.01, 0.0, 10.0, 9.943291 
5.85e+2, 2.1471375e+2, -878045.9, -921409.9, 0.00028805097, 0.000000039403393, -0.00012682252, -878045.9, -42240.598, 0.0, 10.0, 9.942949 
5.85e+2, 2.2465037e+2, -789759.75, -843144.9, 0.0005176138, 0.000000039451965, 0.000120884026, -789759.75, -51333.492, 0.0, 10.0, 9.929908 
5.85e+2, 2.3458035e+2, -691326.25, -744966.44, 0.00038877095, 0.000000040439314, -0.00008881803, -691326.25, -50213.727, 0.0, 10.0, 9.929577 
5.85e+2, 2.4450338e+2, -603002.2, -667018.8, 0.0011129564, 0.00000004023429, 0.00007470837, -603002.2, -59135.324, 0.0, 10.0, 9.916136 
5.85e+2, 2.5441962e+2, -504249.53, -568343.3, 0.00011226726, 0.000000038603993, -0.000106733794, -504249.53, -57561.984, 0.0, 10.0, 9.916036 
5.85e+2, 2.643288e+2, -416014.13, -490987.88, 0.0006169516, 0.000000038206032, 0.00014059803, -416014.13, -66436.45, 0.0, 10.0, 9.901964 
5.85e+2, 2.742313e+2, -316728.9, -391374.78, 0.00024853493, 0.00000003937972, -0.00020344261, -316728.9, -64195.906, 0.0, 10.0, 9.902385 
5.85e+2, 2.841256e+2, -230255.66, -318081.25, 0.0006990605, 0.00000004006146, 0.0002290456, -230255.66, -74686.68, 0.0, 10.0, 9.885439 
5.85e+2, 2.940121e+2, -130549.516, -217765.0, 0.0005656191, 0.000000040062652, -0.00025334413, -130549.516, -71868.12, 0.0, 10.0, 9.886217 
5.85e+2, 3.0392656e+2, -40805.5, -84750.16, 0.00071569474, 0.00000003963997, 0.00017313482, -40805.5, -40805.5, 0.0, 10.0, 9.942173 
5.85e+2, 3.138706e+2, -39727.484, -82511.21, -0.0006008358, 0.000000038594337, -0.00005514326, -39727.484, -39727.484, 0.0, 10.0, 9.943684 
5.95e+2, 1.2499334e+2, -1719946.1, -1724224.6, 0.00077291654, 0.00000004363638, 0.00001760679, -1719946.1, -4880.865, 0.0, 10.0, 9.994327 
5.95e+2, 1.349876e+2, -1622565.6, -1627434.9, -0.0007042678, 0.000000042033154, -0.000068401125, -1622565.6, -5444.079, 0.0, 10.0, 9.993545 
5.95e+2, 1.4497514e+2, -1534464.3, -1548146.3, -0.000032469114, 0.000000041887244, 0.00007093011, -1534464.3, -15220.585, 0.0, 10.0, 9.981865 
5.95e+2, 1.5495703e+2, -1436736.6, -1450821.9, -0.00015931058, 0.00000004320174, -0.000056975223, -1436736.6, -15315.405, 0.0, 10.0, 9.981333 
5.95e+2, 1.6493228e+2, -1348685.6, -1371952.4, 0.00076903077, 0.000000043285386, 0.00004734493, -1348685.6, -25021.9, 0.0, 10.0, 9.969248 
5.95e+2, 1.7490156e+2, -1250727.6, -1274310.1, -0.000043985925, 0.000000042112273, -0.000073826144, -1250727.6, -24762.879, 0.0, 10.0, 9.968835 
5.95e+2, 1.8486421e+2, -1162646.6, -1195720.1, 0.00066076725, 0.00000004129081, 0.00006614993, -1162646.6, -34315.934, 0.0, 10.0, 9.956395 
5.95e+2, 1.9482064e+2, -1064496.9, -1097833.0, 0.000241274, 0.000000040837282, -0.00005765283, -1064496.9, -33739.266, 0.0, 10.0, 9.956052 
5.95e+2, 2.0477042e+2, -976332.94, -1019435.0, 0.00087930873, 0.000000040880902, 0.000068080844, -976332.94, -43083.016, 0.0, 10.0, 9.943291 
5.95e+2, 2.1471375e+2, -878045.9, -921409.9, -0.000092314345, 0.00000004146287, -0.00012682505, -878045.9, -42240.6, 0.0, 10.0, 9.942949 
5.95e+2, 2.2465037e+2, -789759.75, -843144.9, 0.00023670714, 0.00000004160146, 0.00012088213, -789759.75, -51333.492, 0.0, 10.0, 9.929908 
5.95e+2, 2.3458035e+2, -691326.25, -744966.44, 0.00011111367, 0.00000004123799, -0.00008881505, -691326.25, -50213.727, 0.0, 10.0, 9.929577 
5.95e+2, 2.4450338e+2, -603002.2, -667018.8, 0.0012836917, 0.00000004073951, 0.000074711694, -603002.2, -59135.33, 0.0, 10.0, 9.916136 
5.95e+2, 2.5441962e+2, -504249.53, -568343.3, 0.00030454996, 0.00000004008026, -0.00010673554, -504249.53, -57561.984, 0.0, 10.0, 9.916036 
5.95e+2, 2.643288e+2, -416014.13, -490987.88, 0.000067207264, 0.000000040069594, 0.00014059483, -416014.13, -66436.45, 0.0, 10.0, 9.901964 
5.95e+2, 2.742313e+2, -316728.9, -391374.78, -0.00035096228, 0.000000040884704, -0.00020344266, -316728.9, -64195.906, 0.0, 10.0, 9.902385 
5.95e+2, 2.841256e+2, -230255.66, -318081.25, 0.000555753, 0.000000041398486, 0.00022904699, -230255.66, -74686.68, 0.0, 10.0, 9.885439 
5.95e+2, 2.940121e+2, -130549.516, -217765.0, 0.00046341473, 0.000000041496104, -0.00025334372, -130549.516, -71868.12, 0.0, 10.0, 9.886217 
5.95e+2, 3.0392656e+2, -40805.5, -84750.164, 0.0011354564, 0.000000040866315, 0.00017313512, -40805.5, -40805.5, 0.0, 10.0, 9.942173 
5.95e+2, 3.138706e+2, -39727.49, -82511.21, -0.000119797885, 0.00000003916072, -0.000055141754, -39727.49, -39727.49, 0.0, 10.0, 9.943684 
6.05e+2, 1.2499334e+2, -1719946.1, -1724224.6, 0.0005885129, 0.000000044935756, 0.000017608458, -1719946.1, -4880.855, 0.0, 10.0, 9.994327 
6.05e+2, 1.349876e+2, -1622565.6, -1627434.9, 0.00053522026, 0.000000043419732, -0.00006840228, -1622565.6, -5444.0693, 0.0, 10.0, 9.993545 
6.05e+2, 1.4497514e+2, -1534464.3, -1548146.3, 0.0012571332, 0.000000043264528, 0.000070929265, -1534464.3, -15220.574, 0.0, 10.0, 9.981865 
6.05e+2, 1.5495703e+2, -1436736.5, -1450821.9, 0.00016276001, 0.00000004447198, -0.000056974663, -1436736.5, -15315.395, 0.0, 10.0, 9.981333 
6.05e+2, 1.6493228e+2, -1348685.6, -1371952.4, 0.0010805067, 0.00000004456656, 0.000047345766, -1348685.6, -25021.889, 0.0, 10.0, 9.969248 
6.05e+2, 1.7490156e+2, -1250727.6, -1274310.1, 0.00043539138, 0.000000043524842, -0.00007382618, -1250727.6, -24762.87, 0.0, 10.0, 9.968835 
6.05e+2, 1.8486421e+2, -1162646.6, -1195720.1, 0.0010334229, 0.00000004269589, 0.000066149965, -1162646.6, -34315.92, 0.0, 10.0, 9.956395 
6.05e+2, 1.9482064e+2, -1064496.9, -1097833.0, 0.00023792096, 0.000000042089532, -0.000057651705, -1064496.9, -33739.258, 0.0, 10.0, 9.956052 
6.05e+2, 2.0477042e+2, -976332.9, -1019435.0, 0.0009903513, 0.000000042226866, 0.00006808156, -976332.9, -43083.004, 0.0, 10.0, 9.943291 
6.05e+2, 2.1471375e+2, -878045.9, -921409.9, 0.001075698, 0.000000043169575, -0.00012682636, -878045.9, -42240.59, 0.0, 10.0, 9.942949 
6.05e+2, 2.2465037e+2, -789759.75, -843144.9, 0.0015383204, 0.000000043111744, 0.00012088096, -789759.75, -51333.484, 0.0, 10.0, 9.929908 
6.05e+2, 2.3458035e+2, -691326.25, -744966.44, -0.0002689752, 0.000000041921076, -0.0000888136, -691326.25, -50213.715, 0.0, 10.0, 9.929577 
6.05e+2, 2.4450338e+2, -603002.2, -667018.8, 0.0005334119, 0.000000041493053, 0.00007471348, -603002.2, -59135.316, 0.0, 10.0, 9.916136 
6.05e+2, 2.5441962e+2, -504249.53, -568343.3, 0.0010704913, 0.000000041977135, -0.00010673613, -504249.53, -57561.977, 0.0, 10.0, 9.916036 
6.05e+2, 2.643288e+2, -416014.13, -490987.88, 0.0013067313, 0.000000042240586, 0.00014059337, -416014.13, -66436.445, 0.0, 10.0, 9.901964 
6.05e+2, 2.742313e+2, -316728.9, -391374.78, 0.00012046683, 0.000000042221092, -0.00020344305, -316728.9, -64195.895, 0.0, 10.0, 9.902385 
6.05e+2, 2.841256e+2, -230255.64, -318081.25, 0.00038145084, 0.00000004218781, 0.0002290475, -230255.64, -74686.67, 0.0, 10.0, 9.885439 
6.05e+2, 2.940121e+2, -130549.5, -217765.0, -0.0006213914, 0.000000042137007, -0.00025334247, -130549.5, -71868.11, 0.0, 10.0, 9.886217 
6.05e+2, 3.0392656e+2, -40805.492, -84750.16, 0.000043817097, 0.000000041831232, 0.00017313621, -40805.492, -40805.492, 0.0, 10.0, 9.942173 
6.05e+2, 3.138706e+2, -39727.48, -82511.21, -0.00015050755, 0.000000041147338, -0.000055142085, -39727.48, -39727.48, 0.0, 10.0, 9.943684 
6.15e+2, 1.2499334e+2, -1719946.1, -1724224.6, 0.00012359055, 0.00000004608402, 0.000017611686, -1719946.1, -4880.8555, 0.0, 10.0, 9.994327 
6.15e+2, 1.349876e+2, -1622565.6, -1627434.9, 0.0000701978, 0.000000045985722, -0.00006840408, -1622565.6, -5444.07, 0.0, 10.0, 9.993545 
6.15e+2, 1.4497514e+2, -1534464.3, -1548146.3, 0.0006942841, 0.00000004560355, 0.000070927475, -1534464.3, -15220.577, 0.0, 10.0, 9.981865 
6.15e+2, 1.5495703e+2, -1436736.5, -1450821.9, -0.00040025092, 0.00000004492826, -0.00005697352, -1436736.5, -15315.397, 0.0, 10.0, 9.981333 
6.15e+2, 1.6493228e+2, -1348685.6, -1371952.4, 0.0008111284, 0.000000044603546, 0.00004734747, -1348685.6, -25021.89, 0.0, 10.0, 9.969248 
6.15e+2, 1.7490156e+2, -1250727.6, -1274310.1, 0.00016755865, 0.000000044636778, -0.00007382635, -1250727.6, -24762.871, 0.0, 10.0, 9.968835 
6.15e+2, 1.8486421e+2, -1162646.6, -1195720.1, 0.0008115492, 0.0000000445135, 0.00006614945, -1162646.6, -34315.926, 0.0, 10.0, 9.956395 
6.15e+2, 1.9482064e+2, -1064496.9, -1097833.0, 0.00001657479, 0.000000044226407, -0.000057651014, -1064496.9, -33739.258, 0.0, 10.0, 9.956052 
6.15e+2, 2.0477042e+2, -976332.9, -1019435.0, 0.0005256561, 0.00000004422192, 0.00006808243, -976332.9, -43083.004, 0.0, 10.0, 9.943291 
6.15e+2, 2.1471375e+2, -878045.9, -921409.9, 0.000605971, 0.000000044523517, -0.00012682645, -878045.9, -42240.59, 0.0, 10.0, 9.942949 
6.15e+2, 2.2465037e+2, -789759.75, -843144.9, 0.0016866723, 0.000000043982823, 0.00012088055, -789759.75, -51333.49, 0.0, 10.0, 9.929908 
6.15e+2, 2.3458035e+2, -691326.25, -744966.44, -0.0001004039, 0.000000042488576, -0.00008881367, -691326.25, -50213.72, 0.0, 10.0, 9.929577 
6.15e+2, 2.4450338e+2, -603002.2, -667018.8, -0.00002291899, 0.00000004249491, 0.000074713746, -603002.2, -59135.316, 0.0, 10.0, 9.916136 
6.15e+2, 2.5441962e+2, -504249.53, -568343.3, 0.00047932085, 0.000000044294623, -0.00010673556, -504249.53, -57561.977, 0.0, 10.0, 9.916036 
6.15e+2, 2.643288e+2, -416014.13, -490987.88, 0.0013581925, 0.00000004471901, 0.00014059365, -416014.13, -66436.45, 0.0, 10.0, 9.901964 
6.15e+2, 2.742313e+2, -316728.9, -391374.78, 0.00021501185, 0.000000043388887, -0.00020344381, -316728.9, -64195.9, 0.0, 10.0, 9.902385 
6.15e+2, 2.841256e+2, -230255.64, -318081.25, 0.0003984137, 0.000000042429438, 0.00022904716, -230255.64, -74686.67, 0.0, 10.0, 9.885439 
6.15e+2, 2.940121e+2, -130549.51, -217765.0, -0.000611419, 0.00000004198537, -0.0002533404, -130549.51, -71868.11, 0.0, 10.0, 9.886217 
6.15e+2, 3.0392656e+2, -40805.492, -84750.16, -0.00025174688, 0.000000042534726, 0.0001731381, -40805.492, -40805.492, 0.0, 10.0, 9.942173 
6.15e+2, 3.138706e+2, -39727.48, -82511.21, -0.00048194022, 0.000000044554188, -0.000055144254, -39727.48, -39727.48, 0.0, 10.0, 9.943684 
6.25e+2, 1.2499334e+2, -1719946.1, -1724224.6, 0.0005800098, 0.000000047646015, 0.00001761207, -1719946.1, -4880.845, 0.0, 10.0, 9.994327 
6.25e+2, 1.349876e+2, -1622565.6, -1627434.9, 0.000056968387, 0.00000004802546, -0.00006840379, -1622565.6, -5444.06, 0.0, 10.0, 9.993545 
6.25e+2, 1.4497514e+2, -1534464.3, -1548146.3, 0.0008882094, 0.000000047444992, 0.000070928494, -1534464.3, -15220.568, 0.0, 10.0, 9.981865 
6.25e+2, 1.5495703e+2, -1436736.5, -1450821.9, 0.0000685867, 0.000000045890225, -0.000056973196, -1436736.5, -15315.386, 0.0, 10.0, 9.981333 
6.25e+2, 1.6493228e+2, -1348685.6, -1371952.4, 0.0012564678, 0.000000045360718, 0.000047347534, -1348685.6, -25021.879, 0.0, 10.0, 9.969248 
6.25e+2, 1.7490156e+2, -1250727.5, -1274310.1, 0.00069997035, 0.000000045878046, -0.000073826086, -1250727.5, -24762.86, 0.0, 10.0, 9.968835 
6.25e+2, 1.8486421e+2, -1162646.6, -1195720.1, 0.0014966247, 0.000000046194, 0.000066149485, -1162646.6, -34315.914, 0.0, 10.0, 9.956395 
6.25e+2, 1.9482064e+2, -1064496.9, -1097833.0, 0.00079839025, 0.000000046299217, -0.00005765162, -1064496.9, -33739.25, 0.0, 10.0, 9.956052 
6.25e+2, 2.0477042e+2, -976332.9, -1019435.0, 0.0010636597, 0.00000004601462, 0.00006808237, -976332.9, -43082.996, 0.0, 10.0, 9.943291 
6.25e+2, 2.1471375e+2, -878045.9, -921409.9, -0.000050831113, 0.000000045307882, -0.00012682464, -878045.9, -42240.58, 0.0, 10.0, 9.942949 
6.25e+2, 2.2465037e+2, -789759.75, -843144.9, 0.0012361975, 0.00000004470943, 0.00012088197, -789759.75, -51333.477, 0.0, 10.0, 9.929908 
6.25e+2, 2.3458035e+2, -691326.25, -744966.44, 0.0014008877, 0.000000044233662, -0.00008881514, -691326.25, -50213.71, 0.0, 10.0, 9.929577 
6.25e+2, 2.4450338e+2, -603002.2, -667018.75, 0.0014156174, 0.000000044529063, 0.000074711956, -603002.2, -59135.305, 0.0, 10.0, 9.916136 
6.25e+2, 2.5441962e+2, -504249.53, -568343.3, -0.00009421386, 0.00000004574547, -0.000106734595, -504249.53, -57561.965, 0.0, 10.0, 9.916036 
6.25e+2, 2.643288e+2, -416014.13, -490987.88, 0.00056591566, 0.000000045855955, 0.00014059544, -416014.13, -66436.44, 0.0, 10.0, 9.901964 
6.25e+2, 2.742313e+2, -316728.88, -391374.78, 0.0003708789, 0.000000044556835, -0.00020344366, -316728.88, -64195.887, 0.0, 10.0, 9.902385 
6.25e+2, 2.841256e+2, -230255.63, -318081.25, 0.0010524109, 0.000000043674717, 0.00022904649, -230255.63, -74686.66, 0.0, 10.0, 9.885439 
6.25e+2, 2.940121e+2, -130549.49, -217765.0, 0.00043911324, 0.000000043369734, -0.00025334072, -130549.49, -71868.1, 0.0, 10.0, 9.886217 
6.25e+2, 3.0392656e+2, -40805.48, -84750.16, 0.00073911034, 0.000000044054616, 0.0001731378, -40805.48, -40805.48, 0.0, 10.0, 9.942173 
6.25e+2, 3.138706e+2, -39727.473, -82511.21, 0.00038733042, 0.000000046203606, -0.00005514502, -39727.473, -39727.473, 0.0, 10.0, 9.943684 
6.35e+2, 1.2499334e+2, -1719946.1, -1724224.6, -0.000041958236, 0.000000049621747, 0.000017609605, -1719946.1, -4880.8467, 0.0, 10.0, 9.994327 
6.35e+2, 1.349876e+2, -1622565.6, -1627434.9, -0.0005651077, 0.00000004953894, -0.000068401416, -1622565.6, -5444.0615, 0.0, 10.0, 9.993545 
6.35e+2, 1.4497514e+2, -1534464.3, -1548146.3, 0.0009745284, 0.000000048788856, 0.000070932314, -1534464.3, -15220.57, 0.0, 10.0, 9.981865 
6.35e+2, 1.5495703e+2, -1436736.5, -1450821.9, 0.0001560219, 0.000000047357876, -0.000056973695, -1436736.5, -15315.388, 0.0, 10.0, 9.981333 
6.35e+2, 1.6493228e+2, -1348685.6, -1371952.4, 0.00063476956, 0.000000046838075, 0.00004734597, -1348685.6, -25021.879, 0.0, 10.0, 9.969248 
6.35e+2, 1.7490156e+2, -1250727.5, -1274310.1, 0.000074522235, 0.000000047248644, -0.0000738254, -1250727.5, -24762.861, 0.0, 10.0, 9.968835 
6.35e+2, 1.8486421e+2, -1162646.6, -1195720.1, 0.0009415233, 0.000000047737398, 0.000066150096, -1162646.6, -34315.918, 0.0, 10.0, 9.956395 
6.35e+2, 1.9482064e+2, -1064496.9, -1097833.0, 0.00024409818, 0.000000048307953, -0.00005765353, -1064496.9, -33739.25, 0.0, 10.0, 9.956052 
6.35e+2, 2.0477042e+2, -976332.9, -1019435.0, 0.0013116879, 0.000000047604964, 0.00006808138, -976332.9, -43082.996, 0.0, 10.0, 9.943291 
6.35e+2, 2.1471375e+2, -878045.9, -921409.9, 0.00021376497, 0.00000004552268, -0.00012682099, -878045.9, -42240.582, 0.0, 10.0, 9.942949 
6.35e+2, 2.2465037e+2, -789759.75, -843144.9, 0.00074372493, 0.000000045291575, 0.00012088522, -789759.75, -51333.477, 0.0, 10.0, 9.929908 
6.35e+2, 2.3458035e+2, -691326.25, -744966.44, 0.0008836441, 0.000000047156327, -0.000088818015, -691326.25, -50213.71, 0.0, 10.0, 9.929577 
6.35e+2, 2.4450338e+2, -603002.2, -667018.8, 0.001178104, 0.000000047595506, 0.000074708114, -603002.2, -59135.31, 0.0, 10.0, 9.916136 
6.35e+2, 2.5441962e+2, -504249.53, -568343.3, -0.00031828778, 0.000000046329674, -0.00010673323, -504249.53, -57561.97, 0.0, 10.0, 9.916036 
6.35e+2, 2.643288e+2, -416014.13, -490987.88, 0.00071040745, 0.000000045651422, 0.00014059874, -416014.13, -66436.44, 0.0, 10.0, 9.901964 
6.35e+2, 2.742313e+2, -316728.9, -391374.78, 0.00054008176, 0.00000004572493, -0.00020344261, -316728.9, -64195.887, 0.0, 10.0, 9.902385 
6.35e+2, 2.841256e+2, -230255.63, -318081.25, 0.00087776576, 0.00000004592364, 0.0002290455, -230255.63, -74686.664, 0.0, 10.0, 9.885439 
6.35e+2, 2.940121e+2, -130549.49, -217765.0, 0.00023348503, 0.0000000462901, -0.00025334346, -130549.49, -71868.1, 0.0, 10.0, 9.886217 
6.35e+2, 3.0392656e+2, -40805.484, -84750.16, 0.00032952675, 0.0000000463909, 0.00017313528, -40805.484, -40805.484, 0.0, 10.0, 9.942173 
6.35e+2, 3.138706e+2, -39727.473, -82511.21, -0.000046197987, 0.000000046095593, -0.00005514439, -39727.473, -39727.473, 0.0, 10.0, 9.943684 
6.45e+2, 1.2499334e+2, -1719946.1, -1724224.6, 0.0011941827, 0.00000005135621, 0.000017608916, -1719946.1, -4880.835, 0.0, 10.0, 9.994327 
6.45e+2, 1.349876e+2, -1622565.6, -1627434.9, -0.00053035415, 0.00000005043103, -0.00006840048, -1622565.6, -5444.0483, 0.0, 10.0, 9.993545 
6.45e+2, 1.4497514e+2, -1534464.3, -1548146.3, 0.0008543176, 0.000000049797663, 0.000070934286, -1534464.3, -15220.557, 0.0, 10.0, 9.981865 
6.45e+2, 1.5495703e+2, -1436736.5, -1450821.9, 0.0007503262, 0.00000004944751, -0.000056973768, -1436736.5, -15315.378, 0.0, 10.0, 9.981333 
6.45e+2, 1.6493228e+2, -1348685.6, -1371952.4, 0.0013654532, 0.000000049207678, 0.000047345362, -1348685.6, -25021.871, 0.0, 10.0, 9.969248 
6.45e+2, 1.7490156e+2, -1250727.5, -1274310.1, 0.0004863501, 0.0000000490805, -0.000073824995, -1250727.5, -24762.852, 0.0, 10.0, 9.968835 
6.45e+2, 1.8486421e+2, -1162646.6, -1195720.1, 0.0013531214, 0.000000049042907, 0.00006615072, -1162646.6, -34315.906, 0.0, 10.0, 9.956395 
6.45e+2, 1.9482064e+2, -1064496.9, -1097833.0, 0.0007311659, 0.000000049099018, -0.00005765349, -1064496.9, -33739.24, 0.0, 10.0, 9.956052 
6.45e+2, 2.0477042e+2, -976332.9, -1019435.0, 0.0020225456, 0.00000004851545, 0.00006808122, -976332.9, -43082.984, 0.0, 10.0, 9.943291 
6.45e+2, 2.1471375e+2, -878045.9, -921409.9, 0.0009837246, 0.000000047239052, -0.00012682093, -878045.9, -42240.57, 0.0, 10.0, 9.942949 
6.45e+2, 2.2465037e+2, -789759.75, -843144.9, 0.0010312138, 0.00000004739655, 0.000120885445, -789759.75, -51333.465, 0.0, 10.0, 9.929908 
6.45e+2, 2.3458035e+2, -691326.25, -744966.44, 0.0006996528, 0.000000049177334, -0.00008881768, -691326.25, -50213.7, 0.0, 10.0, 9.929577 
6.45e+2, 2.4450338e+2, -603002.2, -667018.8, 0.0015035482, 0.000000049202455, 0.0000747083, -603002.2, -59135.3, 0.0, 10.0, 9.916136 
6.45e+2, 2.5441962e+2, -504249.5, -568343.3, 0.00056278426, 0.000000047128758, -0.000106733496, -504249.5, -57561.957, 0.0, 10.0, 9.916036 
6.45e+2, 2.643288e+2, -416014.1, -490987.88, 0.0013414744, 0.000000046377263, 0.00014059851, -416014.1, -66436.43, 0.0, 10.0, 9.901964 
6.45e+2, 2.742313e+2, -316728.88, -391374.75, 0.000616719, 0.00000004731333, -0.00020344218, -316728.88, -64195.88, 0.0, 10.0, 9.902385 
6.45e+2, 2.841256e+2, -230255.63, -318081.25, 0.00083726406, 0.000000048063598, 0.00022904588, -230255.63, -74686.65, 0.0, 10.0, 9.885439 
6.45e+2, 2.940121e+2, -130549.484, -217765.0, 0.00054695486, 0.000000048551705, -0.00025334416, -130549.484, -71868.09, 0.0, 10.0, 9.886217 
6.45e+2, 3.0392656e+2, -40805.473, -84750.16, 0.0007231941, 0.000000048217068, 0.00017313454, -40805.473, -40805.473, 0.0, 10.0, 9.942173 
6.45e+2, 3.138706e+2, -39727.457, -82511.21, -0.000529187, 0.00000004666334, -0.00005514366, -39727.457, -39727.457, 0.0, 10.0, 9.943684 
6.55e+2, 1.2499334e+2, -1719946.1, -1724224.6, 0.0009383232, 0.00000005284941, 0.00001761, -1719946.1, -4880.8394, 0.0, 10.0, 9.994327 
6.55e+2, 1.349876e+2, -1622565.6, -1627434.9, -0.00078626274, 0.00000005070173, -0.00006840097, -1622565.6, -5444.0527, 0.0, 10.0, 9.993545 
6.55e+2, 1.4497514e+2, -1534464.3, -1548146.3, 0.000073917334, 0.00000005047141, 0.000070934395, -1534464.3, -15220.558, 0.0, 10.0, 9.981865 
6.55e+2, 1.5495703e+2, -1436736.5, -1450821.9, -0.00003091373, 0.000000052159127, -0.00005697342, -1436736.5, -15315.378, 0.0, 10.0, 9.981333 
6.55e+2, 1.6493228e+2, -1348685.6, -1371952.4, 0.0011532308, 0.000000052469517, 0.00004734572, -1348685.6, -25021.873, 0.0, 10.0, 9.969248 
6.55e+2, 1.7490156e+2, -1250727.5, -1274310.1, 0.00027712312, 0.000000051373622, -0.00007382487, -1250727.5, -24762.854, 0.0, 10.0, 9.968835 
6.55e+2, 1.8486421e+2, -1162646.6, -1195720.1, 0.0013232634, 0.00000005011053, 0.00006615138, -1162646.6, -34315.906, 0.0, 10.0, 9.956395 
6.55e+2, 1.9482064e+2, -1064496.9, -1097833.0, 0.00070337864, 0.00000004867241, -0.00005765151, -1064496.9, -33739.24, 0.0, 10.0, 9.956052 
6.55e+2, 2.0477042e+2, -976332.9, -1019435.0, 0.0015052863, 0.000000048746077, 0.00006808188, -976332.9, -43082.99, 0.0, 10.0, 9.943291 
6.55e+2, 2.1471375e+2, -878045.9, -921409.9, 0.00045635205, 0.000000050457004, -0.0001268245, -878045.9, -42240.574, 0.0, 10.0, 9.942949 
6.55e+2, 2.2465037e+2, -789759.75, -843144.9, 0.0006649968, 0.00000005102436, 0.000120882636, -789759.75, -51333.465, 0.0, 10.0, 9.929908 
6.55e+2, 2.3458035e+2, -691326.25, -744966.44, 0.00033870217, 0.000000050296688, -0.00008881413, -691326.25, -50213.703, 0.0, 10.0, 9.929577 
6.55e+2, 2.4450338e+2, -603002.2, -667018.8, 0.0019010198, 0.000000049349907, 0.00007471252, -603002.2, -59135.3, 0.0, 10.0, 9.916136 
6.55e+2, 2.5441962e+2, -504249.53, -568343.3, 0.0009967029, 0.000000048142724, -0.00010673541, -504249.53, -57561.957, 0.0, 10.0, 9.916036 
6.55e+2, 2.643288e+2, -416014.1, -490987.88, 0.0007745045, 0.00000004803347, 0.00014059474, -416014.1, -66436.43, 0.0, 10.0, 9.901964 
6.55e+2, 2.742313e+2, -316728.88, -391374.78, -0.000017358132, 0.000000049322026, -0.00020344234, -316728.88, -64195.88, 0.0, 10.0, 9.902385 
6.55e+2, 2.841256e+2, -230255.63, -318081.25, 0.0006356436, 0.000000050094588, 0.00022904764, -230255.63, -74686.66, 0.0, 10.0, 9.885439 
6.55e+2, 2.940121e+2, -130549.484, -217765.0, 0.0003843005, 0.00000005015455, -0.00025334282, -130549.484, -71868.09, 0.0, 10.0, 9.886217 
6.55e+2, 3.0392656e+2, -40805.477, -84750.164, 0.0012474624, 0.00000004953313, 0.00017313556, -40805.477, -40805.477, 0.0, 10.0, 9.942173 
6.55e+2, 3.138706e+2, -39727.46, -82511.21, 0.00007572584, 0.00000004790685, -0.00005514283, -39727.46, -39727.46, 0.0, 10.0, 9.943684 
6.65e+2, 1.2499334e+2, -1719946.1, -1724224.6, 0.0007503485, 0.000000054197688, 0.000017611983, -1719946.1, -4880.826, 0.0, 10.0, 9.994327 
6.65e+2, 1.349876e+2, -1622565.6, -1627434.9, 0.0007443225, 0.000000052418613, -0.00006840247, -1622565.6, -5444.041, 0.0, 10.0, 9.993545 
6.65e+2, 1.4497514e+2, -1534464.3, -1548146.3, 0.0016013476, 0.000000052314206, 0.00007093332, -1534464.3, -15220.546, 0.0, 10.0, 9.981865 
6.65e+2, 1.5495703e+2, -1436736.5, -1450821.9, 0.00029929163, 0.000000053882562, -0.00005697282, -1436736.5, -15315.366, 0.0, 10.0, 9.981333 
6.65e+2, 1.6493228e+2, -1348685.5, -1371952.4, 0.0014262313, 0.00000005407845, 0.000047346733, -1348685.5, -25021.861, 0.0, 10.0, 9.969248 
6.65e+2, 1.7490156e+2, -1250727.5, -1274310.1, 0.0006202698, 0.00000005287298, -0.00007382472, -1250727.5, -24762.842, 0.0, 10.0, 9.968835 
6.65e+2, 1.8486421e+2, -1162646.6, -1195720.1, 0.0016357118, 0.000000051570957, 0.00006615159, -1162646.6, -34315.895, 0.0, 10.0, 9.956395 
6.65e+2, 1.9482064e+2, -1064496.9, -1097833.0, 0.0007377592, 0.00000005016783, -0.00005765028, -1064496.9, -33739.227, 0.0, 10.0, 9.956052 
6.65e+2, 2.0477042e+2, -976332.9, -1019435.0, 0.0014708526, 0.000000050498887, 0.00006808258, -976332.9, -43082.977, 0.0, 10.0, 9.943291 
6.65e+2, 2.1471375e+2, -878045.9, -921409.9, 0.0015511131, 0.000000052708067, -0.00012682598, -878045.9, -42240.563, 0.0, 10.0, 9.942949 
6.65e+2, 2.2465037e+2, -789759.75, -843144.9, 0.0021718156, 0.000000052945676, 0.00012088129, -789759.75, -51333.457, 0.0, 10.0, 9.929908 
6.65e+2, 2.3458035e+2, -691326.25, -744966.44, 0.00012683959, 0.000000050950938, -0.0000888127, -691326.25, -50213.688, 0.0, 10.0, 9.929577 
6.65e+2, 2.4450338e+2, -603002.2, -667018.8, 0.001129101, 0.000000049966015, 0.00007471448, -603002.2, -59135.285, 0.0, 10.0, 9.916136 
6.65e+2, 2.5441962e+2, -504249.5, -568343.3, 0.0013676207, 0.00000005018958, -0.000106735606, -504249.5, -57561.95, 0.0, 10.0, 9.916036 
6.65e+2, 2.643288e+2, -416014.1, -490987.88, 0.0014836988, 0.000000050569938, 0.00014059362, -416014.1, -66436.42, 0.0, 10.0, 9.901964 
6.65e+2, 2.742313e+2, -316728.88, -391374.75, 0.00043293874, 0.00000005114695, -0.00020344282, -316728.88, -64195.867, 0.0, 10.0, 9.902385 
6.65e+2, 2.841256e+2, -230255.61, -318081.25, 0.0008257908, 0.000000051328012, 0.0002290478, -230255.61, -74686.64, 0.0, 10.0, 9.885439 
6.65e+2, 2.940121e+2, -130549.47, -217765.0, -0.00034929533, 0.000000050966335, -0.00025334198, -130549.47, -71868.08, 0.0, 10.0, 9.886217 
6.65e+2, 3.0392656e+2, -40805.46, -84750.16, 0.0003800553, 0.000000050608346, 0.00017313642, -40805.46, -40805.46, 0.0, 10.0, 9.942173 
6.65e+2, 3.138706e+2, -39727.453, -82511.21, 0.000044407312, 0.000000050261054, -0.000055142893, -39727.453, -39727.453, 0.0, 10.0, 9.943684 
6.75e+2, 1.2499334e+2, -1719946.1, -1724224.6, 0.00015554063, 0.000000055401053, 0.00001761486, -1719946.1, -4880.8267, 0.0, 10.0, 9.994327 
6.75e+2, 1.349876e+2, -1622565.6, -1627434.9, 0.00014938708, 0.000000055581687, -0.000068404974, -1622565.6, -5444.0415, 0.0, 10.0, 9.993545 
6.75e+2, 1.4497514e+2, -1534464.3, -1548146.3, 0.0009806717, 0.00000005532604, 0.00007093105, -1534464.3, -15220.55, 0.0, 10.0, 9.981865 
6.75e+2, 1.5495703e+2, -1436736.5, -1450821.9, -0.000321436, 0.00000005461783, -0.000056971974, -1436736.5, -15315.369, 0.0, 10.0, 9.981333 
6.75e+2, 1.6493228e+2, -1348685.6, -1371952.4, 0.0012627621, 0.00000005403447, 0.00004734841, -1348685.6, -25021.863, 0.0, 10.0, 9.969248 
6.75e+2, 1.7490156e+2, -1250727.5, -1274310.1, 0.0004592067, 0.000000053578574, -0.00007382454, -1250727.5, -24762.844, 0.0, 10.0, 9.968835 
6.75e+2, 1.8486421e+2, -1162646.6, -1195720.1, 0.001434668, 0.000000053424195, 0.00006615135, -1162646.6, -34315.895, 0.0, 10.0, 9.956395 
6.75e+2, 1.9482064e+2, -1064496.9, -1097833.0, 0.00053624593, 0.000000053585286, -0.000057649806, -1064496.9, -33739.23, 0.0, 10.0, 9.956052 
6.75e+2, 2.0477042e+2, -976332.9, -1019435.0, 0.0008177901, 0.00000005377388, 0.00006808334, -976332.9, -43082.977, 0.0, 10.0, 9.943291 
6.75e+2, 2.1471375e+2, -878045.9, -921409.9, 0.0008887159, 0.000000053992242, -0.0001268254, -878045.9, -42240.563, 0.0, 10.0, 9.942949 
6.75e+2, 2.2465037e+2, -789759.75, -843144.9, 0.0025819745, 0.000000053160502, 0.0001208814, -789759.75, -51333.46, 0.0, 10.0, 9.929908 
6.75e+2, 2.3458035e+2, -691326.25, -744966.44, 0.0005720867, 0.000000051140084, -0.0000888134, -691326.25, -50213.69, 0.0, 10.0, 9.929577 
6.75e+2, 2.4450338e+2, -603002.2, -667018.8, 0.00054944697, 0.000000051050776, 0.000074714175, -603002.2, -59135.285, 0.0, 10.0, 9.916136 
6.75e+2, 2.5441962e+2, -504249.5, -568343.3, 0.0007387104, 0.00000005326932, -0.00010673408, -504249.5, -57561.95, 0.0, 10.0, 9.916036 
6.75e+2, 2.643288e+2, -416014.1, -490987.88, 0.0014513771, 0.000000053986664, 0.00014059515, -416014.1, -66436.42, 0.0, 10.0, 9.901964 
6.75e+2, 2.742313e+2, -316728.88, -391374.78, 0.00044061433, 0.000000052788106, -0.00020344365, -316728.88, -64195.87, 0.0, 10.0, 9.902385 
6.75e+2, 2.841256e+2, -230255.61, -318081.25, 0.00096449273, 0.00000005176387, 0.00022904637, -230255.61, -74686.64, 0.0, 10.0, 9.885439 
6.75e+2, 2.940121e+2, -130549.48, -217765.0, -0.0001987845, 0.000000050987058, -0.00025334163, -130549.48, -71868.08, 0.0, 10.0, 9.886217 
6.75e+2, 3.0392656e+2, -40805.46, -84750.16, 0.000019885565, 0.00000005144272, 0.00017313714, -40805.46, -40805.46, 0.0, 10.0, 9.942173 
6.75e+2, 3.138706e+2, -39727.453, -82511.21, -0.0003757115, 0.00000005372596, -0.000055143846, -39727.453, -39727.453, 0.0, 10.0, 9.943684 
6.85e+2, 1.2499334e+2, -1719946.1, -1724224.6, 0.0011165112, 0.000000057251494, 0.000017614913, -1719946.1, -4880.815, 0.0, 10.0, 9.994327 
6.85e+2, 1.349876e+2, -1622565.6, -1627434.9, 0.00032435375, 0.000000058032025, -0.00006840495, -1622565.6, -5444.0303, 0.0, 10.0, 9.993545 
6.85e+2, 1.4497514e+2, -1534464.3, -1548146.3, 0.001356286, 0.000000057509276, 0.00007093211, -1534464.3, -15220.538, 0.0, 10.0, 9.981865 
6.85e+2, 1.5495703e+2, -1436736.5, -1450821.9, 0.00037227265, 0.000000055660223, -0.00005697173, -1436736.5, -15315.3545, 0.0, 10.0, 9.981333 
6.85e+2, 1.6493228e+2, -1348685.5, -1371952.4, 0.0019272896, 0.000000054775672, 0.000047348425, -1348685.5, -25021.848, 0.0, 10.0, 9.969248 
6.85e+2, 1.7490156e+2, -1250727.5, -1274310.1, 0.0010931763, 0.0000000548759, -0.000073824165, -1250727.5, -24762.83, 0.0, 10.0, 9.968835 
6.85e+2, 1.8486421e+2, -1162646.6, -1195720.1, 0.0020304266, 0.000000055446083, 0.00006615145, -1162646.6, -34315.883, 0.0, 10.0, 9.956395 
6.85e+2, 1.9482064e+2, -1064496.9, -1097833.0, 0.0013539323, 0.00000005650801, -0.000057650635, -1064496.9, -33739.223, 0.0, 10.0, 9.956052 
6.85e+2, 2.0477042e+2, -976332.9, -1019435.0, 0.0015708945, 0.000000056255413, 0.00006808311, -976332.9, -43082.965, 0.0, 10.0, 9.943291 
6.85e+2, 2.1471375e+2, -878045.8, -921409.9, 0.00012590927, 0.000000054579132, -0.00012682338, -878045.8, -42240.547, 0.0, 10.0, 9.942949 
6.85e+2, 2.2465037e+2, -789759.75, -843144.9, 0.0018363472, 0.00000005348226, 0.00012088318, -789759.75, -51333.445, 0.0, 10.0, 9.929908 
6.85e+2, 2.3458035e+2, -691326.25, -744966.44, 0.0019254327, 0.000000053041706, -0.00008881469, -691326.25, -50213.68, 0.0, 10.0, 9.929577 
6.85e+2, 2.4450338e+2, -603002.2, -667018.75, 0.0019338492, 0.00000005361477, 0.00007471233, -603002.2, -59135.277, 0.0, 10.0, 9.916136 
6.85e+2, 2.5441962e+2, -504249.5, -568343.3, 0.0003894619, 0.000000055397855, -0.00010673349, -504249.5, -57561.938, 0.0, 10.0, 9.916036 
6.85e+2, 2.643288e+2, -416014.1, -490987.88, 0.0010197045, 0.000000055690663, 0.00014059657, -416014.1, -66436.41, 0.0, 10.0, 9.901964 
6.85e+2, 2.742313e+2, -316728.84, -391374.75, 0.00062070397, 0.00000005408407, -0.00020344339, -316728.84, -64195.855, 0.0, 10.0, 9.902385 
6.85e+2, 2.841256e+2, -230255.6, -318081.25, 0.0015226007, 0.00000005299485, 0.00022904594, -230255.6, -74686.625, 0.0, 10.0, 9.885439 
6.85e+2, 2.940121e+2, -130549.46, -217765.0, 0.00090157264, 0.000000052622408, -0.0002533421, -130549.46, -71868.07, 0.0, 10.0, 9.886217 
6.85e+2, 3.0392656e+2, -40805.45, -84750.16, 0.0009197607, 0.000000053267666, 0.00017313672, -40805.45, -40805.45, 0.0, 10.0, 9.942173 
6.85e+2, 3.138706e+2, -39727.44, -82511.21, -0.00008333368, 0.00000005541721, -0.000055144163, -39727.44, -39727.44, 0.0, 10.0, 9.943684 
6.95e+2, 1.2499334e+2, -1719946.1, -1724224.6, 0.00041301784, 0.000000059749006, 0.000017612143, -1719946.1, -4880.8174, 0.0, 10.0, 9.994327 
6.95e+2, 1.349876e+2, -1622565.6, -1627434.9, -0.00037925728, 0.00000005976963, -0.0000684024, -1622565.6, -5444.0327, 0.0, 10.0, 9.993545 
6.95e+2, 1.4497514e+2, -1534464.3, -1548146.3, 0.0015499132, 0.000000058863915, 0.00007093649, -1534464.3, -15220.541, 0.0, 10.0, 9.981865 
6.95e+2, 1.5495703e+2, -1436736.5, -1450821.9, 0.0005673109, 0.00000005700975, -0.000056972083, -1436736.5, -15315.357, 0.0, 10.0, 9.981333 
6.95e+2, 1.6493228e+2, -1348685.5, -1371952.4, 0.0013102782, 0.000000056302053, 0.000047346777, -1348685.5, -25021.85, 0.0, 10.0, 9.969248 
6.95e+2, 1.7490156e+2, -1250727.5, -1274310.1, 0.0004718686, 0.00000005676496, -0.00007382359, -1250727.5, -24762.832, 0.0, 10.0, 9.968835 
6.95e+2, 1.8486421e+2, -1162646.6, -1195720.1, 0.0011796793, 0.00000005763662, 0.0000661519, -1162646.6, -34315.887, 0.0, 10.0, 9.956395 
6.95e+2, 1.9482064e+2, -1064496.9, -1097833.0, 0.00050051947, 0.00000005893601, -0.000057652767, -1064496.9, -33739.223, 0.0, 10.0, 9.956052 
6.95e+2, 2.0477042e+2, -976332.9, -1019435.0, 0.0022663344, 0.000000057943492, 0.000068081885, -976332.9, -43082.97, 0.0, 10.0, 9.943291 
6.95e+2, 2.1471375e+2, -878045.8, -921409.9, 0.00085333566, 0.00000005446874, -0.00012681991, -878045.8, -42240.55, 0.0, 10.0, 9.942949 
6.95e+2, 2.2465037e+2, -789759.75, -843144.9, 0.0011823524, 0.00000005391095, 0.00012088663, -789759.75, -51333.445, 0.0, 10.0, 9.929908 
6.95e+2, 2.3458035e+2, -691326.25, -744966.44, 0.0012262402, 0.000000056655796, -0.00008881655, -691326.25, -50213.68, 0.0, 10.0, 9.929577 
6.95e+2, 2.4450338e+2, -603002.2, -667018.8, 0.0015802153, 0.000000057657992, 0.00007470894, -603002.2, -59135.28, 0.0, 10.0, 9.916136 
6.95e+2, 2.5441962e+2, -504249.5, -568343.3, 0.00005243104, 0.00000005657518, -0.00010673385, -504249.5, -57561.94, 0.0, 10.0, 9.916036 
6.95e+2, 2.643288e+2, -416014.1, -490987.88, 0.0013526233, 0.000000055681934, 0.00014059791, -416014.1, -66436.414, 0.0, 10.0, 9.901964 
6.95e+2, 2.742313e+2, -316728.84, -391374.78, 0.0009985421, 0.000000055034835, -0.00020344208, -316728.84, -64195.855, 0.0, 10.0, 9.902385 
6.95e+2, 2.841256e+2, -230255.6, -318081.25, 0.0013878233, 0.000000055020948, 0.00022904648, -230255.6, -74686.63, 0.0, 10.0, 9.885439 
6.95e+2, 2.940121e+2, -130549.46, -217765.0, 0.000720608, 0.000000055872377, -0.00025334334, -130549.46, -71868.07, 0.0, 10.0, 9.886217 
6.95e+2, 3.0392656e+2, -40805.453, -84750.164, 0.0006738013, 0.000000056083188, 0.00017313517, -40805.453, -40805.453, 0.0, 10.0, 9.942173 
6.95e+2, 3.138706e+2, -39727.44, -82511.21, -0.00033692038, 0.000000055334816, -0.00005514384, -39727.44, -39727.44, 0.0, 10.0, 9.943684 
7.05e+2, 1.2499334e+2, -1719946.0, -1724224.6, 0.0010099792, 0.00000006205627, 0.00001761213, -1719946.0, -4880.8037, 0.0, 10.0, 9.994327 
7.05e+2, 1.349876e+2, -1622565.6, -1627434.9, -0.0007690751, 0.00000006079102, -0.00006840133, -1622565.6, -5444.0166, 0.0, 10.0, 9.993545 
7.05e+2, 1.4497514e+2, -1534464.1, -1548146.3, 0.0011194014, 0.0000000598583, 0.00007093875, -1534464.1, -15220.524, 0.0, 10.0, 9.981865 
7.05e+2, 1.5495703e+2, -1436736.5, -1450821.9, 0.0008101996, 0.000000059242446, -0.000056971672, -1436736.5, -15315.346, 0.0, 10.0, 9.981333 
7.05e+2, 1.6493228e+2, -1348685.5, -1371952.4, 0.0017258528, 0.000000059079394, 0.000047346424, -1348685.5, -25021.84, 0.0, 10.0, 9.969248 
7.05e+2, 1.7490156e+2, -1250727.5, -1274310.1, 0.0009827164, 0.00000005937871, -0.00007382359, -1250727.5, -24762.82, 0.0, 10.0, 9.968835 
7.05e+2, 1.8486421e+2, -1162646.5, -1195720.1, 0.0018426615, 0.0000000594813, 0.00006615211, -1162646.5, -34315.87, 0.0, 10.0, 9.956395 
7.05e+2, 1.9482064e+2, -1064496.8, -1097833.0, 0.0008870451, 0.000000059378017, -0.0000576525, -1064496.8, -33739.203, 0.0, 10.0, 9.956052 
7.05e+2, 2.0477042e+2, -976332.9, -1019435.0, 0.0028848022, 0.000000058476637, 0.000068082125, -976332.9, -43082.953, 0.0, 10.0, 9.943291 
7.05e+2, 2.1471375e+2, -878045.8, -921409.9, 0.0017284486, 0.00000005671087, -0.00012681978, -878045.8, -42240.54, 0.0, 10.0, 9.942949 
7.05e+2, 2.2465037e+2, -789759.7, -843144.9, 0.0015166041, 0.000000056878378, 0.000120886725, -789759.7, -51333.434, 0.0, 10.0, 9.929908 
7.05e+2, 2.3458035e+2, -691326.2, -744966.44, 0.0011142974, 0.000000059234477, -0.000088816414, -691326.2, -50213.668, 0.0, 10.0, 9.929577 
7.05e+2, 2.4450338e+2, -603002.1, -667018.8, 0.0021020353, 0.000000059536788, 0.00007470893, -603002.1, -59135.266, 0.0, 10.0, 9.916136 
7.05e+2, 2.5441962e+2, -504249.47, -568343.3, 0.0011655852, 0.0000000573836, -0.00010673425, -504249.47, -57561.92, 0.0, 10.0, 9.916036 
7.05e+2, 2.643288e+2, -416014.06, -490987.88, 0.0021413553, 0.000000056366254, 0.00014059759, -416014.06, -66436.39, 0.0, 10.0, 9.901964 
7.05e+2, 2.742313e+2, -316728.84, -391374.75, 0.0008428601, 0.000000056800125, -0.00020344168, -316728.84, -64195.844, 0.0, 10.0, 9.902385 
7.05e+2, 2.841256e+2, -230255.6, -318081.25, 0.00069755, 0.000000057438623, 0.00022904713, -230255.6, -74686.62, 0.0, 10.0, 9.885439 
7.05e+2, 2.940121e+2, -130549.45, -217765.0, 0.00013625622, 0.00000005835034, -0.00025334302, -130549.45, -71868.06, 0.0, 10.0, 9.886217 
7.05e+2, 3.0392656e+2, -40805.44, -84750.16, 0.00054309634, 0.00000005819698, 0.00017313512, -40805.44, -40805.44, 0.0, 10.0, 9.942173 
7.05e+2, 3.138706e+2, -39727.426, -82511.21, -0.00019443799, 0.000000056459758, -0.00005514422, -39727.426, -39727.426, 0.0, 10.0, 9.943684 
7.15e+2, 1.2499334e+2, -1719946.0, -1724224.6, 0.0008790129, 0.000000064173285, 0.000017614875, -1719946.0, -4880.8086, 0.0, 10.0, 9.994327 
7.15e+2, 1.349876e+2, -1622565.6, -1627434.9, -0.00090004585, 0.000000061096166, -0.00006840174, -1622565.6, -5444.0215, 0.0, 10.0, 9.993545 
7.15e+2, 1.4497514e+2, -1534464.1, -1548146.3, 0.0003308533, 0.00000006049243, 0.0000709389, -1534464.1, -15220.525, 0.0, 10.0, 9.981865 
7.15e+2, 1.5495703e+2, -1436736.5, -1450821.9, 0.000020596139, 0.00000006235831, -0.0000569705, -1436736.5, -15315.347, 0.0, 10.0, 9.981333 
7.15e+2, 1.6493228e+2, -1348685.5, -1371952.4, 0.0013138322, 0.00000006310769, 0.00004734737, -1348685.5, -25021.842, 0.0, 10.0, 9.969248 
7.15e+2, 1.7490156e+2, -1250727.5, -1274310.1, 0.00057267654, 0.00000006271715, -0.000073824165, -1250727.5, -24762.822, 0.0, 10.0, 9.968835 
7.15e+2, 1.8486421e+2, -1162646.5, -1195720.1, 0.0021353231, 0.00000006098013, 0.000066152075, -1162646.5, -34315.875, 0.0, 10.0, 9.956395 
7.15e+2, 1.9482064e+2, -1064496.9, -1097833.0, 0.0011878347, 0.00000005783404, -0.000057649846, -1064496.9, -33739.207, 0.0, 10.0, 9.956052 
7.15e+2, 2.0477042e+2, -976332.9, -1019435.0, 0.0021470597, 0.00000005785485, 0.000068083835, -976332.9, -43082.953, 0.0, 10.0, 9.943291 
7.15e+2, 2.1471375e+2, -878045.8, -921409.9, 0.00096925104, 0.00000006130553, -0.00012682297, -878045.8, -42240.543, 0.0, 10.0, 9.942949 
7.15e+2, 2.2465037e+2, -789759.7, -843144.9, 0.0011887721, 0.000000062384544, 0.00012088348, -789759.7, -51333.434, 0.0, 10.0, 9.929908 
7.15e+2, 2.3458035e+2, -691326.2, -744966.44, 0.0008005702, 0.00000006077775, -0.00008881426, -691326.2, -50213.668, 0.0, 10.0, 9.929577 
7.15e+2, 2.4450338e+2, -603002.1, -667018.8, 0.0026665076, 0.000000059251157, 0.00007471229, -603002.1, -59135.27, 0.0, 10.0, 9.916136 
7.15e+2, 2.5441962e+2, -504249.47, -568343.3, 0.0017722612, 0.000000057823122, -0.000106734704, -504249.47, -57561.926, 0.0, 10.0, 9.916036 
7.15e+2, 2.643288e+2, -416014.06, -490987.88, 0.0016086963, 0.000000057743616, 0.00014059564, -416014.06, -66436.4, 0.0, 10.0, 9.901964 
7.15e+2, 2.742313e+2, -316728.84, -391374.78, 0.0002338141, 0.000000059379946, -0.00020344224, -316728.84, -64195.848, 0.0, 10.0, 9.902385 
7.15e+2, 2.841256e+2, -230255.6, -318081.25, 0.00051974284, 0.00000006024788, 0.00022904787, -230255.6, -74686.62, 0.0, 10.0, 9.885439 
7.15e+2, 2.940121e+2, -130549.45, -217765.0, -0.000002691808, 0.000000060056294, -0.0002533412, -130549.45, -71868.06, 0.0, 10.0, 9.886217 
7.15e+2, 3.0392656e+2, -40805.44, -84750.164, 0.001040258, 0.00000005960905, 0.00017313659, -40805.44, -40805.44, 0.0, 10.0, 9.942173 
7.15e+2, 3.138706e+2, -39727.43, -82511.21, 0.00037740753, 0.000000058792033, -0.00005514531, -39727.43, -39727.43, 0.0, 10.0, 9.943684 
7.25e+2, 1.2499334e+2, -1719946.0, -1724224.6, 0.00088721374, 0.000000065650845, 0.00001761675, -1719946.0, -4880.7925, 0.0, 10.0, 9.994327 
7.25e+2, 1.349876e+2, -1622565.6, -1627434.9, 0.00079867314, 0.00000006306228, -0.00006840312, -1622565.6, -5444.0073, 0.0, 10.0, 9.993545 
7.25e+2, 1.4497514e+2, -1534464.1, -1548146.3, 0.0019232805, 0.000000062778554, 0.00007093811, -1534464.1, -15220.513, 0.0, 10.0, 9.981865 
7.25e+2, 1.5495703e+2, -1436736.5, -1450821.9, 0.00059235713, 0.0000000647933, -0.000056970246, -1436736.5, -15315.333, 0.0, 10.0, 9.981333 
7.25e+2, 1.6493228e+2, -1348685.5, -1371952.4, 0.0018062859, 0.00000006529716, 0.00004734802, -1348685.5, -25021.828, 0.0, 10.0, 9.969248 
7.25e+2, 1.7490156e+2, -1250727.5, -1274310.1, 0.0007864897, 0.00000006425837, -0.00007382377, -1250727.5, -24762.807, 0.0, 10.0, 9.968835 
7.25e+2, 1.8486421e+2, -1162646.5, -1195720.1, 0.0024016676, 0.00000006238548, 0.000066152716, -1162646.5, -34315.86, 0.0, 10.0, 9.956395 
7.25e+2, 1.9482064e+2, -1064496.8, -1097833.0, 0.0012203896, 0.00000005963967, -0.00005764842, -1064496.8, -33739.19, 0.0, 10.0, 9.956052 
7.25e+2, 2.0477042e+2, -976332.8, -1019435.0, 0.0017821849, 0.000000060071756, 0.00006808454, -976332.8, -43082.94, 0.0, 10.0, 9.943291 
7.25e+2, 2.1471375e+2, -878045.8, -921409.9, 0.0018807601, 0.00000006394559, -0.0001268246, -878045.8, -42240.53, 0.0, 10.0, 9.942949 
7.25e+2, 2.2465037e+2, -789759.7, -843144.9, 0.0028671238, 0.00000006463604, 0.00012088191, -789759.7, -51333.42, 0.0, 10.0, 9.929908 
7.25e+2, 2.3458035e+2, -691326.2, -744966.44, 0.00071177736, 0.00000006172188, -0.00008881304, -691326.2, -50213.652, 0.0, 10.0, 9.929577 
7.25e+2, 2.4450338e+2, -603002.1, -667018.75, 0.0017175636, 0.00000006009913, 0.00007471441, -603002.1, -59135.25, 0.0, 10.0, 9.916136 
7.25e+2, 2.5441962e+2, -504249.47, -568343.3, 0.0012642829, 0.000000060022664, -0.000106733954, -504249.47, -57561.914, 0.0, 10.0, 9.916036 
7.25e+2, 2.643288e+2, -416014.06, -490987.88, 0.0014293119, 0.00000006047689, 0.00014059537, -416014.06, -66436.38, 0.0, 10.0, 9.901964 
7.25e+2, 2.742313e+2, -316728.84, -391374.75, 0.0010025025, 0.00000006160279, -0.00020344307, -316728.84, -64195.832, 0.0, 10.0, 9.902385 
7.25e+2, 2.841256e+2, -230255.58, -318081.25, 0.0017723207, 0.000000061958225, 0.00022904703, -230255.58, -74686.6, 0.0, 10.0, 9.885439 
7.25e+2, 2.940121e+2, -130549.44, -217765.0, 0.00034319336, 0.00000006125618, -0.0002533413, -130549.44, -71868.05, 0.0, 10.0, 9.886217 
7.25e+2, 3.0392656e+2, -40805.426, -84750.16, 0.0008701415, 0.00000006100232, 0.00017313691, -40805.426, -40805.426, 0.0, 10.0, 9.942173 
7.25e+2, 3.138706e+2, -39727.418, -82511.21, 0.00020613101, 0.000000061423634, -0.000055145018, -39727.418, -39727.418, 0.0, 10.0, 9.943684 
7.35e+2, 1.2499334e+2, -1719946.0, -1724224.6, 0.00035124307, 0.00000006648896, 0.000017617756, -1719946.0, -4880.7935, 0.0, 10.0, 9.994327 
7.35e+2, 1.349876e+2, -1622565.6, -1627434.9, 0.00026258928, 0.00000006668936, -0.00006840545, -1622565.6, -5444.008, 0.0, 10.0, 9.993545 
7.35e+2, 1.4497514e+2, -1534464.1, -1548146.3, 0.0011398983, 0.00000006671666, 0.000070936396, -1534464.1, -15220.516, 0.0, 10.0, 9.981865 
7.35e+2, 1.5495703e+2, -1436736.5, -1450821.9, -0.000191434, 0.00000006654742, -0.000056970912, -1436736.5, -15315.337, 0.0, 10.0, 9.981333 
7.35e+2, 1.6493228e+2, -1348685.5, -1371952.4, 0.0017917381, 0.00000006564781, 0.000047348374, -1348685.5, -25021.83, 0.0, 10.0, 9.969248 
7.35e+2, 1.7490156e+2, -1250727.5, -1274310.1, 0.00077598967, 0.000000064002386, -0.000073822426, -1250727.5, -24762.81, 0.0, 10.0, 9.968835 
7.35e+2, 1.8486421e+2, -1162646.5, -1195720.1, 0.0023122048, 0.00000006369737, 0.000066154025, -1162646.5, -34315.863, 0.0, 10.0, 9.956395 
7.35e+2, 1.9482064e+2, -1064496.8, -1097833.0, 0.0011300042, 0.0000000647949, -0.00005764823, -1064496.8, -33739.195, 0.0, 10.0, 9.956052 
7.35e+2, 2.0477042e+2, -976332.8, -1019435.0, 0.00094019575, 0.00000006512734, 0.00006808425, -976332.8, -43082.94, 0.0, 10.0, 9.943291 
7.35e+2, 2.1471375e+2, -878045.8, -921409.9, 0.0010232349, 0.00000006463107, -0.00012682467, -878045.8, -42240.53, 0.0, 10.0, 9.942949 
7.35e+2, 2.2465037e+2, -789759.7, -843144.9, 0.003409929, 0.00000006363289, 0.000120882025, -789759.7, -51333.426, 0.0, 10.0, 9.929908 
7.35e+2, 2.3458035e+2, -691326.2, -744966.44, 0.0013003944, 0.00000006206687, -0.00008881273, -691326.2, -50213.656, 0.0, 10.0, 9.929577 
7.35e+2, 2.4450338e+2, -603002.1, -667018.8, 0.0012667865, 0.000000062080716, 0.000074715295, -603002.1, -59135.254, 0.0, 10.0, 9.916136 
7.35e+2, 2.5441962e+2, -504249.47, -568343.3, 0.00076355424, 0.00000006398222, -0.00010673201, -504249.47, -57561.914, 0.0, 10.0, 9.916036 
7.35e+2, 2.643288e+2, -416014.06, -490987.88, 0.001371143, 0.00000006456609, 0.00014059679, -416014.06, -66436.38, 0.0, 10.0, 9.901964 
7.35e+2, 2.742313e+2, -316728.84, -391374.78, 0.000974005, 0.000000063468654, -0.00020344417, -316728.84, -64195.836, 0.0, 10.0, 9.902385 
7.35e+2, 2.841256e+2, -230255.58, -318081.25, 0.0019346385, 0.00000006256967, 0.0002290446, -230255.58, -74686.61, 0.0, 10.0, 9.885439 
7.35e+2, 2.940121e+2, -130549.44, -217765.0, 0.0005227111, 0.00000006195002, -0.00025334337, -130549.44, -71868.05, 0.0, 10.0, 9.886217 
7.35e+2, 3.0392656e+2, -40805.426, -84750.16, 0.0005069453, 0.00000006237677, 0.00017313605, -40805.426, -40805.426, 0.0, 10.0, 9.942173 
7.35e+2, 3.138706e+2, -39727.418, -82511.21, -0.00022077047, 0.000000064354566, -0.000055143355, -39727.418, -39727.418, 0.0, 10.0, 9.943684 
7.45e+2, 1.2499334e+2, -1719946.0, -1724224.6, 0.0020683338, 0.00000006820459, 0.000017617367, -1719946.0, -4880.778, 0.0, 10.0, 9.994327 
7.45e+2, 1.349876e+2, -1622565.5, -1627434.9, 0.00072980043, 0.00000006972043, -0.000068405825, -1622565.5, -5443.995, 0.0, 10.0, 9.993545 
7.45e+2, 1.4497514e+2, -1534464.1, -1548146.3, 0.0017615102, 0.00000006962029, 0.00007093741, -1534464.1, -15220.503, 0.0, 10.0, 9.981865 
7.45e+2, 1.5495703e+2, -1436736.5, -1450821.9, 0.00072637957, 0.000000067870054, -0.0000569708, -1436736.5, -15315.319, 0.0, 10.0, 9.981333 
7.45e+2, 1.6493228e+2, -1348685.5, -1371952.4, 0.0026850589, 0.00000006636997, 0.000047348425, -1348685.5, -25021.81, 0.0, 10.0, 9.969248 
7.45e+2, 1.7490156e+2, -1250727.5, -1274310.1, 0.0012388207, 0.000000065125214, -0.00007382158, -1250727.5, -24762.791, 0.0, 10.0, 9.968835 
7.45e+2, 1.8486421e+2, -1162646.5, -1195720.1, 0.0024201216, 0.00000006587925, 0.000066154484, -1162646.5, -34315.848, 0.0, 10.0, 9.956395 
7.45e+2, 1.9482064e+2, -1064496.8, -1097833.0, 0.0020998714, 0.000000068724816, -0.0000576494, -1064496.8, -33739.188, 0.0, 10.0, 9.956052 
7.45e+2, 2.0477042e+2, -976332.8, -1019435.0, 0.0023934583, 0.00000006860865, 0.000068083464, -976332.8, -43082.93, 0.0, 10.0, 9.943291 
7.45e+2, 2.1471375e+2, -878045.8, -921409.9, 0.00059925875, 0.000000065284716, -0.0001268229, -878045.8, -42240.51, 0.0, 10.0, 9.942949 
7.45e+2, 2.2465037e+2, -789759.7, -843144.9, 0.0024832785, 0.000000063659826, 0.000120884004, -789759.7, -51333.406, 0.0, 10.0, 9.929908 
7.45e+2, 2.3458035e+2, -691326.2, -744966.44, 0.002068229, 0.00000006395926, -0.000088813234, -691326.2, -50213.645, 0.0, 10.0, 9.929577 
7.45e+2, 2.4450338e+2, -603002.1, -667018.75, 0.0023162474, 0.00000006493203, 0.0000747139, -603002.1, -59135.24, 0.0, 10.0, 9.916136 
7.45e+2, 2.5441962e+2, -504249.47, -568343.3, 0.0011907255, 0.000000066707024, -0.00010673243, -504249.47, -57561.902, 0.0, 10.0, 9.916036 
7.45e+2, 2.643288e+2, -416014.06, -490987.88, 0.0018307135, 0.00000006693225, 0.0001405971, -416014.06, -66436.375, 0.0, 10.0, 9.901964 
7.45e+2, 2.742313e+2, -316728.8, -391374.75, 0.00080757035, 0.000000065183386, -0.00020344347, -316728.8, -64195.82, 0.0, 10.0, 9.902385 
7.45e+2, 2.841256e+2, -230255.56, -318081.25, 0.0016033485, 0.00000006409817, 0.00022904511, -230255.56, -74686.59, 0.0, 10.0, 9.885439 
7.45e+2, 2.940121e+2, -130549.42, -217765.0, 0.0010322972, 0.00000006393024, -0.00025334387, -130549.42, -71868.03, 0.0, 10.0, 9.886217 
7.45e+2, 3.0392656e+2, -40805.414, -84750.16, 0.000907878, 0.00000006441356, 0.00017313544, -40805.414, -40805.414, 0.0, 10.0, 9.942173 
7.45e+2, 3.138706e+2, -39727.402, -82511.21, -0.0008145329, 0.00000006585542, -0.000055142846, -39727.402, -39727.402, 0.0, 10.0, 9.943684 
7.55e+2, 1.2499334e+2, -1719946.0, -1724224.6, 0.00090152095, 0.000000070797746, 0.000017615583, -1719946.0, -4880.7813, 0.0, 10.0, 9.994327 
7.55e+2, 1.349876e+2, -1622565.5, -1627434.9, -0.00043724172, 0.00000007215549, -0.000068404246, -1622565.5, -5443.9985, 0.0, 10.0, 9.993545 
7.55e+2, 1.4497514e+2, -1534464.1, -1548146.3, 0.0021070947, 0.000000071489445, 0.00007094115, -1534464.1, -15220.506, 0.0, 10.0, 9.981865 
7.55e+2, 1.5495703e+2, -1436736.5, -1450821.9, 0.0010743435, 0.0000000687612, -0.000056969908, -1436736.5, -15315.322, 0.0, 10.0, 9.981333 
7.55e+2, 1.6493228e+2, -1348685.5, -1371952.4, 0.0023365875, 0.000000067463645, 0.00004734817, -1348685.5, -25021.814, 0.0, 10.0, 9.969248 
7.55e+2, 1.7490156e+2, -1250727.5, -1274310.1, 0.0008866601, 0.00000006762685, -0.00007382124, -1250727.5, -24762.795, 0.0, 10.0, 9.968835 
7.55e+2, 1.8486421e+2, -1162646.5, -1195720.1, 0.001026888, 0.00000006893112, 0.00006615408, -1162646.5, -34315.848, 0.0, 10.0, 9.956395 
7.55e+2, 1.9482064e+2, -1064496.8, -1097833.0, 0.0006945682, 0.00000007142944, -0.000057651923, -1064496.8, -33739.188, 0.0, 10.0, 9.956052 
7.55e+2, 2.0477042e+2, -976332.8, -1019435.0, 0.0036132992, 0.0000000705157, 0.00006808219, -976332.8, -43082.934, 0.0, 10.0, 9.943291 
7.55e+2, 2.1471375e+2, -878045.8, -921409.9, 0.0018733157, 0.00000006590654, -0.00012681926, -878045.8, -42240.516, 0.0, 10.0, 9.942949 
7.55e+2, 2.2465037e+2, -789759.7, -843144.9, 0.0017762786, 0.00000006471685, 0.000120887846, -789759.7, -51333.406, 0.0, 10.0, 9.929908 
7.55e+2, 2.3458035e+2, -691326.2, -744966.44, 0.0012964131, 0.00000006739905, -0.00008881454, -691326.2, -50213.645, 0.0, 10.0, 9.929577 
7.55e+2, 2.4450338e+2, -603002.1, -667018.8, 0.0018311993, 0.000000068653065, 0.00007471021, -603002.1, -59135.242, 0.0, 10.0, 9.916136 
7.55e+2, 2.5441962e+2, -504249.47, -568343.3, 0.0007194554, 0.00000006819707, -0.000106735184, -504249.47, -57561.902, 0.0, 10.0, 9.916036 
7.55e+2, 2.643288e+2, -416014.06, -490987.88, 0.0022479533, 0.00000006757541, 0.00014059631, -416014.06, -66436.375, 0.0, 10.0, 9.901964 
7.55e+2, 2.742313e+2, -316728.8, -391374.78, 0.001284385, 0.00000006674698, -0.00020344096, -316728.8, -64195.82, 0.0, 10.0, 9.902385 
7.55e+2, 2.841256e+2, -230255.56, -318081.25, 0.0016196425, 0.000000066543706, 0.00022904856, -230255.56, -74686.59, 0.0, 10.0, 9.885439 
7.55e+2, 2.940121e+2, -130549.42, -217765.0, 0.0010071016, 0.00000006719685, -0.0002533427, -130549.42, -71868.03, 0.0, 10.0, 9.886217 
7.55e+2, 3.0392656e+2, -40805.414, -84750.164, 0.0009832362, 0.00000006711268, 0.0001731351, -40805.414, -40805.414, 0.0, 10.0, 9.942173 
7.55e+2, 3.138706e+2, -39727.402, -82511.22, -0.00072736025, 0.000000065926194, -0.000055143493, -39727.402, -39727.402, 0.0, 10.0, 9.943684 
7.65e+2, 1.2499334e+2, -1719946.0, -1724224.6, 0.00023584224, 0.00000007439164, 0.000017616898, -1719946.0, -4880.768, 0.0, 10.0, 9.994327 
7.65e+2, 1.349876e+2, -1622565.5, -1627434.9, -0.0010003265, 0.000000073338825, -0.000068403504, -1622565.5, -5443.979, 0.0, 10.0, 9.993545 
7.65e+2, 1.4497514e+2, -1534464.1, -1548146.3, 0.0017687805, 0.0000000721104, 0.000070943235, -1534464.1, -15220.485, 0.0, 10.0, 9.981865 
7.65e+2, 1.5495703e+2, -1436736.5, -1450821.9, 0.0005981241, 0.00000007067743, -0.00005696848, -1436736.5, -15315.306, 0.0, 10.0, 9.981333 
7.65e+2, 1.6493228e+2, -1348685.5, -1371952.4, 0.0020023633, 0.00000007048757, 0.0000473486, -1348685.5, -25021.8, 0.0, 10.0, 9.969248 
7.65e+2, 1.7490156e+2, -1250727.5, -1274310.1, 0.0019177188, 0.00000007156704, -0.00007382214, -1250727.5, -24762.785, 0.0, 10.0, 9.968835 
7.65e+2, 1.8486421e+2, -1162646.5, -1195720.1, 0.002466817, 0.00000007191262, 0.00006615326, -1162646.5, -34315.836, 0.0, 10.0, 9.956395 
7.65e+2, 1.9482064e+2, -1064496.8, -1097833.0, 0.000724224, 0.00000007149025, -0.0000576512, -1064496.8, -33739.164, 0.0, 10.0, 9.956052 
7.65e+2, 2.0477042e+2, -976332.8, -1019435.0, 0.0034425915, 0.00000007042368, 0.00006808344, -976332.8, -43082.91, 0.0, 10.0, 9.943291 
7.65e+2, 2.1471375e+2, -878045.8, -921409.9, 0.0021329524, 0.00000006865946, -0.00012681862, -878045.8, -42240.5, 0.0, 10.0, 9.942949 
7.65e+2, 2.2465037e+2, -789759.7, -843144.9, 0.0018896163, 0.0000000686224, 0.00012088797, -789759.7, -51333.395, 0.0, 10.0, 9.929908 
7.65e+2, 2.3458035e+2, -691326.2, -744966.44, 0.0017430014, 0.00000007054056, -0.00008881484, -691326.2, -50213.63, 0.0, 10.0, 9.929577 
7.65e+2, 2.4450338e+2, -603002.1, -667018.75, 0.002927524, 0.00000007084013, 0.0000747097, -603002.1, -59135.227, 0.0, 10.0, 9.916136 
7.65e+2, 2.5441962e+2, -504249.44, -568343.3, 0.0016655767, 0.00000006920426, -0.00010673562, -504249.44, -57561.883, 0.0, 10.0, 9.916036 
7.65e+2, 2.643288e+2, -416014.03, -490987.88, 0.0026389665, 0.00000006841281, 0.00014059614, -416014.03, -66436.35, 0.0, 10.0, 9.901964 
7.65e+2, 2.742313e+2, -316728.8, -391374.75, 0.00087034464, 0.0000000687005, -0.00020344064, -316728.8, -64195.805, 0.0, 10.0, 9.902385 
7.65e+2, 2.841256e+2, -230255.55, -318081.25, 0.00060496165, 0.00000006913005, 0.00022904939, -230255.55, -74686.58, 0.0, 10.0, 9.885439 
7.65e+2, 2.940121e+2, -130549.414, -217765.0, -0.0002911119, 0.00000006974866, -0.0002533414, -130549.414, -71868.016, 0.0, 10.0, 9.886217 
7.65e+2, 3.0392656e+2, -40805.4, -84750.16, 0.0004378536, 0.000000069458785, 0.00017313578, -40805.4, -40805.4, 0.0, 10.0, 9.942173 
7.65e+2, 3.138706e+2, -39727.387, -82511.21, 0.0003147285, 0.000000067818526, -0.000055145123, -39727.387, -39727.387, 0.0, 10.0, 9.943684 
7.75e+2, 1.2499334e+2, -1719946.0, -1724224.6, 0.0005566438, 0.00000007898627, 0.000017621314, -1719946.0, -4880.7715, 0.0, 10.0, 9.994327 
7.75e+2, 1.349876e+2, -1622565.5, -1627434.9, -0.0006793958, 0.00000007327045, -0.000068403584, -1622565.5, -5443.9824, 0.0, 10.0, 9.993545 
7.75e+2, 1.4497514e+2, -1534464.1, -1548146.3, 0.0010618553, 0.00000007148317, 0.00007094367, -1534464.1, -15220.488, 0.0, 10.0, 9.981865 
7.75e+2, 1.5495703e+2, -1436736.5, -1450821.9, -0.000110448156, 0.00000007361875, -0.000056966524, -1436736.5, -15315.309, 0.0, 10.0, 9.981333 
7.75e+2, 1.6493228e+2, -1348685.5, -1371952.4, 0.0010623819, 0.00000007544174, 0.000047349717, -1348685.5, -25021.803, 0.0, 10.0, 9.969248 
7.75e+2, 1.7490156e+2, -1250727.5, -1274310.1, 0.0009764967, 0.00000007694577, -0.00007382429, -1250727.5, -24762.785, 0.0, 10.0, 9.968835 
7.75e+2, 1.8486421e+2, -1162646.5, -1195720.1, 0.0033565566, 0.00000007482374, 0.000066152, -1162646.5, -34315.84, 0.0, 10.0, 9.956395 
7.75e+2, 1.9482064e+2, -1064496.8, -1097833.0, 0.0016351533, 0.000000068907255, -0.00005764722, -1064496.8, -33739.168, 0.0, 10.0, 9.956052 
7.75e+2, 2.0477042e+2, -976332.8, -1019435.0, 0.0023948804, 0.00000006833259, 0.0000680872, -976332.8, -43082.914, 0.0, 10.0, 9.943291 
7.75e+2, 2.1471375e+2, -878045.8, -921409.9, 0.0010447805, 0.00000007354346, -0.00012682096, -878045.8, -42240.504, 0.0, 10.0, 9.942949 
7.75e+2, 2.2465037e+2, -789759.7, -843144.9, 0.0017087462, 0.00000007537646, 0.00012088438, -789759.7, -51333.4, 0.0, 10.0, 9.929908 
7.75e+2, 2.3458035e+2, -691326.2, -744966.44, 0.0015918044, 0.00000007338379, -0.00008881416, -691326.2, -50213.633, 0.0, 10.0, 9.929577 
7.75e+2, 2.4450338e+2, -603002.1, -667018.8, 0.0035616565, 0.00000007149322, 0.00007471237, -603002.1, -59135.23, 0.0, 10.0, 9.916136 
7.75e+2, 2.5441962e+2, -504249.44, -568343.3, 0.0023374504, 0.00000006972861, -0.00010673373, -504249.44, -57561.887, 0.0, 10.0, 9.916036 
7.75e+2, 2.643288e+2, -416014.03, -490987.88, 0.0022076948, 0.00000006944446, 0.00014059659, -416014.03, -66436.36, 0.0, 10.0, 9.901964 
7.75e+2, 2.742313e+2, -316728.8, -391374.78, 0.00036511602, 0.00000007104396, -0.0002034425, -316728.8, -64195.81, 0.0, 10.0, 9.902385 
7.75e+2, 2.841256e+2, -230255.55, -318081.25, 0.0005263769, 0.0000000718572, 0.00022904758, -230255.55, -74686.58, 0.0, 10.0, 9.885439 
7.75e+2, 2.940121e+2, -130549.414, -217765.0, -0.00033124693, 0.000000071585674, -0.00025333988, -130549.414, -71868.02, 0.0, 10.0, 9.886217 
7.75e+2, 3.0392656e+2, -40805.402, -84750.16, 0.0008538952, 0.00000007145189, 0.00017313751, -40805.402, -40805.402, 0.0, 10.0, 9.942173 
7.75e+2, 3.138706e+2, -39727.387, -82511.21, 0.0007843363, 0.00000007153241, -0.000055147742, -39727.387, -39727.387, 0.0, 10.0, 9.943684 
7.85e+2, 1.2499334e+2, -1719946.0, -1724224.6, 0.001480649, 0.000000080416825, 0.000017621993, -1719946.0, -4880.7515, 0.0, 10.0, 9.994327 
7.85e+2, 1.349876e+2, -1622565.5, -1627434.9, 0.0005000966, 0.00000007551943, -0.00006840364, -1622565.5, -5443.9653, 0.0, 10.0, 9.993545 
7.85e+2, 1.4497514e+2, -1534464.1, -1548146.3, 0.0018277842, 0.00000007443386, 0.00007094446, -1534464.1, -15220.473, 0.0, 10.0, 9.981865 
7.85e+2, 1.5495703e+2, -1436736.5, -1450821.9, 0.0012587013, 0.0000000771517, -0.0000569675, -1436736.5, -15315.295, 0.0, 10.0, 9.981333 
7.85e+2, 1.6493228e+2, -1348685.5, -1371952.4, 0.002398367, 0.00000007846399, 0.000047348854, -1348685.5, -25021.787, 0.0, 10.0, 9.969248 
7.85e+2, 1.7490156e+2, -1250727.5, -1274310.1, 0.0005651469, 0.00000007834127, -0.000073823125, -1250727.5, -24762.766, 0.0, 10.0, 9.968835 
7.85e+2, 1.8486421e+2, -1162646.5, -1195720.1, 0.0030417966, 0.00000007596293, 0.00006615395, -1162646.5, -34315.82, 0.0, 10.0, 9.956395 
7.85e+2, 1.9482064e+2, -1064496.8, -1097833.0, 0.0017982128, 0.00000007122412, -0.00005764577, -1064496.8, -33739.152, 0.0, 10.0, 9.956052 
7.85e+2, 2.0477042e+2, -976332.8, -1019435.0, 0.0021626556, 0.00000007123542, 0.000068087356, -976332.8, -43082.9, 0.0, 10.0, 9.943291 
7.85e+2, 2.1471375e+2, -878045.75, -921409.9, 0.002325424, 0.000000076391295, -0.00012682297, -878045.75, -42240.49, 0.0, 10.0, 9.942949 
7.85e+2, 2.2465037e+2, -789759.6, -843144.9, 0.0036899934, 0.00000007779232, 0.00012088262, -789759.6, -51333.38, 0.0, 10.0, 9.929908 
7.85e+2, 2.3458035e+2, -691326.1, -744966.44, 0.001011212, 0.00000007494121, -0.00008881295, -691326.1, -50213.613, 0.0, 10.0, 9.929577 
7.85e+2, 2.4450338e+2, -603002.06, -667018.75, 0.0018434689, 0.00000007301461, 0.00007471483, -603002.06, -59135.21, 0.0, 10.0, 9.916136 
7.85e+2, 2.5441962e+2, -504249.44, -568343.3, 0.001056472, 0.00000007219674, -0.00010673206, -504249.44, -57561.87, 0.0, 10.0, 9.916036 
7.85e+2, 2.643288e+2, -416014.03, -490987.88, 0.0015957812, 0.000000072267945, 0.00014059707, -416014.03, -66436.34, 0.0, 10.0, 9.901964 
7.85e+2, 2.742313e+2, -316728.78, -391374.75, 0.0016849247, 0.000000073467874, -0.00020344368, -316728.78, -64195.793, 0.0, 10.0, 9.902385 
7.85e+2, 2.841256e+2, -230255.53, -318081.25, 0.002857554, 0.00000007390235, 0.00022904569, -230255.53, -74686.56, 0.0, 10.0, 9.885439 
7.85e+2, 2.940121e+2, -130549.39, -217765.0, 0.0011569684, 0.000000073284035, -0.0002533412, -130549.39, -71868.0, 0.0, 10.0, 9.886217 
7.85e+2, 3.0392656e+2, -40805.383, -84750.16, 0.0013750215, 0.00000007337207, 0.00017313707, -40805.383, -40805.383, 0.0, 10.0, 9.942173 
7.85e+2, 3.138706e+2, -39727.37, -82511.21, 0.00017141507, 0.000000074518276, -0.000055146942, -39727.37, -39727.37, 0.0, 10.0, 9.943684 
7.95e+2, 1.2499334e+2, -1719946.0, -1724224.6, 0.0011171515, 0.000000078683335, 0.000017618931, -1719946.0, -4880.7544, 0.0, 10.0, 9.994327 
7.95e+2, 1.349876e+2, -1622565.5, -1627434.9, 0.00013652032, 0.00000008008577, -0.00006840367, -1622565.5, -5443.9683, 0.0, 10.0, 9.993545 
7.95e+2, 1.4497514e+2, -1534464.1, -1548146.3, 0.00080019486, 0.00000008096246, 0.00007094559, -1534464.1, -15220.475, 0.0, 10.0, 9.981865 
7.95e+2, 1.5495703e+2, -1436736.5, -1450821.9, 0.00023003237, 0.00000008127628, -0.00005697141, -1436736.5, -15315.297, 0.0, 10.0, 9.981333 
7.95e+2, 1.6493228e+2, -1348685.5, -1371952.4, 0.0026435172, 0.00000007955432, 0.00004734601, -1348685.5, -25021.791, 0.0, 10.0, 9.969248 
7.95e+2, 1.7490156e+2, -1250727.5, -1274310.1, 0.00081700174, 0.000000075753576, -0.000073818665, -1250727.5, -24762.77, 0.0, 10.0, 9.968835 
7.95e+2, 1.8486421e+2, -1162646.5, -1195720.1, 0.0029921771, 0.000000075330206, 0.00006615911, -1162646.5, -34315.824, 0.0, 10.0, 9.956395 
7.95e+2, 1.9482064e+2, -1064496.8, -1097833.0, 0.0017450923, 0.00000007844085, -0.000057646856, -1064496.8, -33739.156, 0.0, 10.0, 9.956052 
7.95e+2, 2.0477042e+2, -976332.8, -1019435.0, 0.0013101309, 0.00000007913215, 0.00006808389, -976332.8, -43082.9, 0.0, 10.0, 9.943291 
7.95e+2, 2.1471375e+2, -878045.75, -921409.9, 0.0014563703, 0.00000007720296, -0.00012682463, -878045.75, -42240.49, 0.0, 10.0, 9.942949 
7.95e+2, 2.2465037e+2, -789759.7, -843144.9, 0.0040986454, 0.000000075869984, 0.000120882694, -789759.7, -51333.387, 0.0, 10.0, 9.929908 
7.95e+2, 2.3458035e+2, -691326.1, -744966.44, 0.0014616644, 0.00000007521283, -0.00008881122, -691326.1, -50213.617, 0.0, 10.0, 9.929577 
7.95e+2, 2.4450338e+2, -603002.06, -667018.8, 0.0016802159, 0.00000007540431, 0.000074717085, -603002.06, -59135.215, 0.0, 10.0, 9.916136 
7.95e+2, 2.5441962e+2, -504249.44, -568343.3, 0.00086372567, 0.00000007660866, -0.00010673063, -504249.44, -57561.87, 0.0, 10.0, 9.916036 
7.95e+2, 2.643288e+2, -416014.03, -490987.88, 0.0016373502, 0.00000007688325, 0.00014059759, -416014.03, -66436.34, 0.0, 10.0, 9.901964 
7.95e+2, 2.742313e+2, -316728.78, -391374.75, 0.0017422048, 0.00000007597226, -0.00020344417, -316728.78, -64195.793, 0.0, 10.0, 9.902385 
7.95e+2, 2.841256e+2, -230255.53, -318081.25, 0.0029528143, 0.00000007526552, 0.00022904371, -230255.53, -74686.56, 0.0, 10.0, 9.885439 
7.95e+2, 2.940121e+2, -130549.4, -217765.0, 0.0012556626, 0.00000007484374, -0.0002533453, -130549.4, -71868.01, 0.0, 10.0, 9.886217 
7.95e+2, 3.0392656e+2, -40805.387, -84750.16, 0.001064057, 0.00000007521932, 0.00017313445, -40805.387, -40805.387, 0.0, 10.0, 9.942173 
7.95e+2, 3.138706e+2, -39727.375, -82511.21, -0.00018762756, 0.000000076776125, -0.00005514273, -39727.375, -39727.375, 0.0, 10.0, 9.943684 
8.05e+2, 1.2499334e+2, -1719946.0, -1724224.6, 0.0029909462, 0.00000007991009, 0.000017619075, -1719946.0, -4880.7324, 0.0, 10.0, 9.994327 
8.05e+2, 1.349876e+2, -1622565.5, -1627434.9, 0.0013318108, 0.000000083871136, -0.00006840537, -1622565.5, -5443.954, 0.0, 10.0, 9.993545 
8.05e+2, 1.4497514e+2, -1534464.1, -1548146.3, 0.0022328338, 0.00000008496565, 0.00007094555, -1534464.1, -15220.46, 0.0, 10.0, 9.981865 
8.05e+2, 1.5495703e+2, -1436736.4, -1450821.9, 0.0008024157, 0.00000008313991, -0.000056970748, -1436736.4, -15315.275, 0.0, 10.0, 9.981333 
8.05e+2, 1.6493228e+2, -1348685.5, -1371952.4, 0.0031817267, 0.000000080386414, 0.000047347068, -1348685.5, -25021.77, 0.0, 10.0, 9.969248 
8.05e+2, 1.7490156e+2, -1250727.5, -1274310.1, 0.0012864234, 0.00000007668544, -0.000073817515, -1250727.5, -24762.748, 0.0, 10.0, 9.968834 
8.05e+2, 1.8486421e+2, -1162646.5, -1195720.1, 0.0027992143, 0.00000007755377, 0.00006615938, -1162646.5, -34315.805, 0.0, 10.0, 9.956395 
8.05e+2, 1.9482064e+2, -1064496.8, -1097833.0, 0.0028318022, 0.00000008320345, -0.000057648474, -1064496.8, -33739.145, 0.0, 10.0, 9.956052 
8.05e+2, 2.0477042e+2, -976332.75, -1019435.0, 0.0033357842, 0.00000008365572, 0.00006808275, -976332.75, -43082.887, 0.0, 10.0, 9.943291 
8.05e+2, 2.1471375e+2, -878045.75, -921409.9, 0.0010103246, 0.00000007847869, -0.00012682274, -878045.75, -42240.465, 0.0, 10.0, 9.942949 
8.05e+2, 2.2465037e+2, -789759.6, -843144.9, 0.0028884937, 0.000000076100385, 0.00012088497, -789759.6, -51333.363, 0.0, 10.0, 9.929908 
8.05e+2, 2.3458035e+2, -691326.1, -744966.44, 0.0023791194, 0.00000007689208, -0.000088811554, -691326.1, -50213.598, 0.0, 10.0, 9.929577 
8.05e+2, 2.4450338e+2, -603002.06, -667018.75, 0.0031944935, 0.00000007807909, 0.0000747155, -603002.06, -59135.195, 0.0, 10.0, 9.916136 
8.05e+2, 2.5441962e+2, -504249.4, -568343.3, 0.001977862, 0.00000007973487, -0.00010673184, -504249.4, -57561.855, 0.0, 10.0, 9.916036 
8.05e+2, 2.643288e+2, -416014.0, -490987.88, 0.0023888566, 0.000000079966995, 0.00014059732, -416014.0, -66436.33, 0.0, 10.0, 9.901964 
8.05e+2, 2.742313e+2, -316728.78, -391374.75, 0.00065244245, 0.000000078386314, -0.00020344279, -316728.78, -64195.773, 0.0, 10.0, 9.902385 
8.05e+2, 2.841256e+2, -230255.52, -318081.25, 0.0012518414, 0.000000077417646, 0.00022904527, -230255.52, -74686.55, 0.0, 10.0, 9.885439 
8.05e+2, 2.940121e+2, -130549.375, -217765.0, 0.00092151796, 0.000000077294864, -0.00025334556, -130549.375, -71867.984, 0.0, 10.0, 9.886217 
8.05e+2, 3.0392656e+2, -40805.367, -84750.16, 0.0010449098, 0.00000007750005, 0.00017313373, -40805.367, -40805.367, 0.0, 10.0, 9.942173 
8.05e+2, 3.138706e+2, -39727.355, -82511.21, -0.001196059, 0.00000007818466, -0.00005514183, -39727.355, -39727.355, 0.0, 10.0, 9.943684 
8.15e+2, 1.2499334e+2, -1719946.0, -1724224.6, 0.00086824584, 0.000000084097074, 0.000017622426, -1719946.0, -4880.737, 0.0, 10.0, 9.994327 
8.15e+2, 1.349876e+2, -1622565.5, -1627434.9, -0.0007913629, 0.00000008687554, -0.00006840873, -1622565.5, -5443.9585, 0.0, 10.0, 9.993545 
8.15e+2, 1.4497514e+2, -1534464.1, -1548146.3, 0.0027785369, 0.00000008644343, 0.000070944334, -1534464.1, -15220.464, 0.0, 10.0, 9.981865 
8.15e+2, 1.5495703e+2, -1436736.4, -1450821.9, 0.001352321, 0.00000008274258, -0.000056965517, -1436736.4, -15315.279, 0.0, 10.0, 9.981333 
8.15e+2, 1.6493228e+2, -1348685.5, -1371952.4, 0.0033289227, 0.00000008096028, 0.00004735203, -1348685.5, -25021.773, 0.0, 10.0, 9.969248 
8.15e+2, 1.7490156e+2, -1250727.5, -1274310.1, 0.0014314764, 0.00000008113683, -0.00007381969, -1250727.5, -24762.752, 0.0, 10.0, 9.968834 
8.15e+2, 1.8486421e+2, -1162646.5, -1195720.1, 0.0007277791, 0.000000082633626, 0.00006615476, -1162646.5, -34315.805, 0.0, 10.0, 9.956395 
8.15e+2, 1.9482064e+2, -1064496.8, -1097833.0, 0.0007346774, 0.00000008551196, -0.00005765062, -1064496.8, -33739.145, 0.0, 10.0, 9.956052 
8.15e+2, 2.0477042e+2, -976332.8, -1019435.0, 0.0049576215, 0.00000008480614, 0.00006808393, -976332.8, -43082.895, 0.0, 10.0, 9.943291 
8.15e+2, 2.1471375e+2, -878045.75, -921409.9, 0.00270897, 0.00000008021848, -0.0001268173, -878045.75, -42240.473, 0.0, 10.0, 9.942949 
8.15e+2, 2.2465037e+2, -789759.6, -843144.9, 0.002440924, 0.00000007848351, 0.00012088945, -789759.6, -51333.363, 0.0, 10.0, 9.929908 
8.15e+2, 2.3458035e+2, -691326.1, -744966.44, 0.0018613291, 0.00000007997895, -0.000088813955, -691326.1, -50213.598, 0.0, 10.0, 9.929577 
8.15e+2, 2.4450338e+2, -603002.06, -667018.75, 0.0024856285, 0.000000081038955, 0.00007471007, -603002.06, -59135.2, 0.0, 10.0, 9.916136 
8.15e+2, 2.5441962e+2, -504249.4, -568343.3, 0.001259813, 0.00000008157538, -0.00010673569, -504249.4, -57561.86, 0.0, 10.0, 9.916036 
8.15e+2, 2.643288e+2, -416014.0, -490987.88, 0.0027933968, 0.00000008151917, 0.00014059625, -416014.0, -66436.33, 0.0, 10.0, 9.901964 
8.15e+2, 2.742313e+2, -316728.78, -391374.75, 0.001132255, 0.00000008071005, -0.00020343953, -316728.78, -64195.777, 0.0, 10.0, 9.902385 
8.15e+2, 2.841256e+2, -230255.52, -318081.25, 0.0015104286, 0.00000008035874, 0.00022905038, -230255.52, -74686.55, 0.0, 10.0, 9.885439 
8.15e+2, 2.940121e+2, -130549.38, -217765.0, 0.0011601818, 0.0000000806374, -0.000253342, -130549.38, -71867.984, 0.0, 10.0, 9.886217 
8.15e+2, 3.0392656e+2, -40805.37, -84750.164, 0.0014589985, 0.00000008021424, 0.0001731349, -40805.37, -40805.37, 0.0, 10.0, 9.942173 
8.15e+2, 3.138706e+2, -39727.36, -82511.22, -0.00076135714, 0.00000007874389, -0.00005514425, -39727.36, -39727.36, 0.0, 10.0, 9.943684 
8.25e+2, 1.2499334e+2, -1719946.0, -1724224.6, -0.0009901301, 0.000000089924455, 0.000017624923, -1719946.0, -4880.727, 0.0, 10.0, 9.994327 
8.25e+2, 1.349876e+2, -1622565.5, -1627434.9, -0.0011265816, 0.00000008819655, -0.000068408604, -1622565.5, -5443.9336, 0.0, 10.0, 9.993545 
8.25e+2, 1.4497514e+2, -1534464.1, -1548146.3, 0.0028737334, 0.0000000862336, 0.00007094598, -1534464.1, -15220.437, 0.0, 10.0, 9.981865 
8.25e+2, 1.5495703e+2, -1436736.4, -1450821.9, 0.00022124016, 0.0000000839932, -0.00005696314, -1436736.4, -15315.258, 0.0, 10.0, 9.981333 
8.25e+2, 1.6493228e+2, -1348685.5, -1371952.4, 0.0022309243, 0.00000008416798, 0.000047353275, -1348685.5, -25021.756, 0.0, 10.0, 9.969248 
8.25e+2, 1.7490156e+2, -1250727.4, -1274310.1, 0.0031244943, 0.000000086808896, -0.00007382148, -1250727.4, -24762.742, 0.0, 10.0, 9.968834 
8.25e+2, 1.8486421e+2, -1162646.5, -1195720.1, 0.003126127, 0.00000008720806, 0.00006615296, -1162646.5, -34315.79, 0.0, 10.0, 9.956395 
8.25e+2, 1.9482064e+2, -1064496.8, -1097833.0, 0.00021186713, 0.00000008526142, -0.00005764928, -1064496.8, -33739.117, 0.0, 10.0, 9.956052 
8.25e+2, 2.0477042e+2, -976332.75, -1019435.0, 0.003547105, 0.000000083911544, 0.00006808625, -976332.75, -43082.863, 0.0, 10.0, 9.943291 
8.25e+2, 2.1471375e+2, -878045.75, -921409.9, 0.0022777582, 0.00000008320812, -0.00012681633, -878045.75, -42240.453, 0.0, 10.0, 9.942949 
8.25e+2, 2.2465037e+2, -789759.6, -843144.9, 0.002313582, 0.00000008318122, 0.00012088957, -789759.6, -51333.35, 0.0, 10.0, 9.929908 
8.25e+2, 2.3458035e+2, -691326.1, -744966.44, 0.0020368723, 0.000000083919765, -0.00008881406, -691326.1, -50213.586, 0.0, 10.0, 9.929577 
8.25e+2, 2.4450338e+2, -603002.06, -667018.75, 0.0031527195, 0.0000000838885, 0.00007470982, -603002.06, -59135.18, 0.0, 10.0, 9.916136 
8.25e+2, 2.5441962e+2, -504249.4, -568343.3, 0.0018277266, 0.000000082936886, -0.000106736, -504249.4, -57561.836, 0.0, 10.0, 9.916036 
8.25e+2, 2.643288e+2, -416013.97, -490987.88, 0.0031238175, 0.00000008254206, 0.00014059595, -416013.97, -66436.305, 0.0, 10.0, 9.901964 
8.25e+2, 2.742313e+2, -316728.75, -391374.75, 0.0011976078, 0.00000008285793, -0.0002034398, -316728.75, -64195.758, 0.0, 10.0, 9.902385 
8.25e+2, 2.841256e+2, -230255.5, -318081.22, 0.0009832776, 0.00000008311918, 0.00022905084, -230255.5, -74686.53, 0.0, 10.0, 9.885439 
8.25e+2, 2.940121e+2, -130549.36, -217765.0, -0.0006215177, 0.00000008330234, -0.00025333988, -130549.36, -71867.97, 0.0, 10.0, 9.886217 
8.25e+2, 3.0392656e+2, -40805.35, -84750.16, 0.00026089948, 0.00000008287476, 0.00017313645, -40805.35, -40805.35, 0.0, 10.0, 9.942173 
8.25e+2, 3.138706e+2, -39727.34, -82511.21, 0.00068058935, 0.0000000815415, -0.000055146633, -39727.34, -39727.34, 0.0, 10.0, 9.943684 
8.35e+2, 1.2499334e+2, -1719946.0, -1724224.6, 0.00042218575, 0.00000009739222, 0.000017626568, -1719946.0, -4880.728, 0.0, 10.0, 9.994327 
8.35e+2, 1.349876e+2, -1622565.5, -1627434.9, 0.00028615337, 0.00000008783418, -0.000068404996, -1622565.5, -5443.9346, 0.0, 10.0, 9.993545 
8.35e+2, 1.4497514e+2, -1534464.1, -1548146.3, 0.0021693837, 0.00000008433616, 0.00007095048, -1534464.1, -15220.443, 0.0, 10.0, 9.981865 
8.35e+2, 1.5495703e+2, -1436736.4, -1450821.9, -0.00048648758, 0.000000086891745, -0.00005696362, -1436736.4, -15315.264, 0.0, 10.0, 9.981333 
8.35e+2, 1.6493228e+2, -1348685.5, -1371952.4, 0.00047422363, 0.000000090009515, 0.000047350808, -1348685.5, -25021.754, 0.0, 10.0, 9.969248 
8.35e+2, 1.7490156e+2, -1250727.4, -1274310.1, 0.0013622277, 0.000000093701615, -0.00007382287, -1250727.4, -24762.74, 0.0, 10.0, 9.968834 
8.35e+2, 1.8486421e+2, -1162646.5, -1195720.1, 0.0049758228, 0.000000091277066, 0.00006615398, -1162646.5, -34315.797, 0.0, 10.0, 9.956395 
8.35e+2, 1.9482064e+2, -1064496.8, -1097833.0, 0.0021033736, 0.00000008245185, -0.00005764444, -1064496.8, -33739.12, 0.0, 10.0, 9.956052 
8.35e+2, 2.0477042e+2, -976332.75, -1019435.0, 0.0020636872, 0.00000008097195, 0.000068089714, -976332.75, -43082.867, 0.0, 10.0, 9.943291 
8.35e+2, 2.1471375e+2, -878045.75, -921409.9, 0.0007246232, 0.00000008744763, -0.00012681987, -878045.75, -42240.457, 0.0, 10.0, 9.942949 
8.35e+2, 2.2465037e+2, -789759.6, -843144.9, 0.002182078, 0.00000009019352, 0.000120885335, -789759.6, -51333.35, 0.0, 10.0, 9.929908 
8.35e+2, 2.3458035e+2, -691326.1, -744966.44, 0.0019518669, 0.00000008871452, -0.00008881186, -691326.1, -50213.586, 0.0, 10.0, 9.929577 
8.35e+2, 2.4450338e+2, -603002.06, -667018.8, 0.0040028146, 0.00000008662772, 0.00007471476, -603002.06, -59135.184, 0.0, 10.0, 9.916136 
8.35e+2, 2.5441962e+2, -504249.4, -568343.3, 0.002722761, 0.0000000838194, -0.00010673276, -504249.4, -57561.84, 0.0, 10.0, 9.916036 
8.35e+2, 2.643288e+2, -416014.0, -490987.88, 0.0027803734, 0.000000083035665, 0.00014059637, -416014.0, -66436.31, 0.0, 10.0, 9.901964 
8.35e+2, 2.742313e+2, -316728.75, -391374.78, 0.0007711373, 0.000000084829956, -0.0002034436, -316728.75, -64195.76, 0.0, 10.0, 9.902385 
8.35e+2, 2.841256e+2, -230255.5, -318081.25, 0.0009623869, 0.000000085698986, 0.00022904667, -230255.5, -74686.53, 0.0, 10.0, 9.885439 
8.35e+2, 2.940121e+2, -130549.37, -217765.0, -0.00060585036, 0.00000008528968, -0.00025333918, -130549.37, -71867.97, 0.0, 10.0, 9.886217 
8.35e+2, 3.0392656e+2, -40805.35, -84750.16, 0.0006215147, 0.00000008548161, 0.00017313837, -40805.35, -40805.35, 0.0, 10.0, 9.942173 
8.35e+2, 3.138706e+2, -39727.34, -82511.21, 0.0010817205, 0.00000008657748, -0.000055148987, -39727.34, -39727.34, 0.0, 10.0, 9.943684 
8.45e+2, 1.2499334e+2, -1719946.0, -1724224.6, 0.0029885687, 0.00000009827726, 0.000017625214, -1719946.0, -4880.7, 0.0, 10.0, 9.994327 
8.45e+2, 1.349876e+2, -1622565.5, -1627434.9, -0.00030877558, 0.000000090569145, -0.00006840237, -1622565.5, -5443.9155, 0.0, 10.0, 9.993545 
8.45e+2, 1.4497514e+2, -1534464.1, -1548146.3, 0.00074399816, 0.00000008839713, 0.00007095429, -1534464.1, -15220.427, 0.0, 10.0, 9.981865 
8.45e+2, 1.5495703e+2, -1436736.4, -1450821.9, 0.0021931261, 0.00000009174927, -0.000056966404, -1436736.4, -15315.249, 0.0, 10.0, 9.981333 
8.45e+2, 1.6493228e+2, -1348685.4, -1371952.4, 0.0033186646, 0.00000009379675, 0.000047347537, -1348685.4, -25021.736, 0.0, 10.0, 9.969248 
8.45e+2, 1.7490156e+2, -1250727.4, -1274310.1, -0.00042508365, 0.000000094512295, -0.000073820396, -1250727.4, -24762.713, 0.0, 10.0, 9.968834 
8.45e+2, 1.8486421e+2, -1162646.5, -1195720.1, 0.0032004996, 0.000000091888104, 0.00006615795, -1162646.5, -34315.77, 0.0, 10.0, 9.956395 
8.45e+2, 1.9482064e+2, -1064496.8, -1097833.0, 0.0027677424, 0.000000085768995, -0.000057643443, -1064496.8, -33739.105, 0.0, 10.0, 9.956052 
8.45e+2, 2.0477042e+2, -976332.75, -1019435.0, 0.002925401, 0.00000008514953, 0.00006808865, -976332.75, -43082.85, 0.0, 10.0, 9.943291 
8.45e+2, 2.1471375e+2, -878045.7, -921409.9, 0.0027483362, 0.000000090486495, -0.00012682201, -878045.7, -42240.438, 0.0, 10.0, 9.942949 
8.45e+2, 2.2465037e+2, -789759.6, -843144.9, 0.004481879, 0.000000092471474, 0.00012088374, -789759.6, -51333.332, 0.0, 10.0, 9.929908 
8.45e+2, 2.3458035e+2, -691326.1, -744966.44, 0.0012860203, 0.000000090659974, -0.00008881109, -691326.1, -50213.563, 0.0, 10.0, 9.929577 
8.45e+2, 2.4450338e+2, -603002.06, -667018.75, 0.002089614, 0.00000008880075, 0.000074716845, -603002.06, -59135.16, 0.0, 10.0, 9.916136 
8.45e+2, 2.5441962e+2, -504249.38, -568343.3, 0.0010503561, 0.00000008688851, -0.000106730586, -504249.38, -57561.82, 0.0, 10.0, 9.916036 
8.45e+2, 2.643288e+2, -416013.97, -490987.88, 0.0017612855, 0.00000008632891, 0.0001405976, -416013.97, -66436.3, 0.0, 10.0, 9.901964 
8.45e+2, 2.742313e+2, -316728.75, -391374.75, 0.0018921976, 0.000000087490626, -0.00020344458, -316728.75, -64195.742, 0.0, 10.0, 9.902385 
8.45e+2, 2.841256e+2, -230255.48, -318081.22, 0.0034331076, 0.00000008795695, 0.00022904438, -230255.48, -74686.516, 0.0, 10.0, 9.885439 
8.45e+2, 2.940121e+2, -130549.34, -217765.0, 0.00176607, 0.000000087463484, -0.0002533415, -130549.34, -71867.95, 0.0, 10.0, 9.886217 
8.45e+2, 3.0392656e+2, -40805.332, -84750.15, 0.0018170204, 0.00000008791411, 0.00017313713, -40805.332, -40805.332, 0.0, 10.0, 9.942173 
8.45e+2, 3.138706e+2, -39727.32, -82511.2, -0.00032220536, 0.00000008977472, -0.00005514735, -39727.32, -39727.32, 0.0, 10.0, 9.943684 
8.55e+2, 1.2499334e+2, -1719946.0, -1724224.6, 0.0023468558, 0.00000009257961, 0.000017620863, -1719946.0, -4880.7085, 0.0, 10.0, 9.994327 
8.55e+2, 1.349876e+2, -1622565.5, -1627434.9, -0.0009506515, 0.00000009640142, -0.000068400725, -1622565.5, -5443.9233, 0.0, 10.0, 9.993545 
8.55e+2, 1.4497514e+2, -1534464.1, -1548146.3, -0.0003519769, 0.00000009841649, 0.0000709574, -1534464.1, -15220.425, 0.0, 10.0, 9.981865 
8.55e+2, 1.5495703e+2, -1436736.4, -1450821.9, 0.0010963887, 0.00000009856577, -0.000056971494, -1436736.4, -15315.247, 0.0, 10.0, 9.981333 
8.55e+2, 1.6493228e+2, -1348685.4, -1371952.4, 0.0040084277, 0.00000009552969, 0.000047343463, -1348685.4, -25021.746, 0.0, 10.0, 9.969248 
8.55e+2, 1.7490156e+2, -1250727.4, -1274310.1, 0.00027408477, 0.000000089240956, -0.00007381404, -1250727.4, -24762.723, 0.0, 10.0, 9.968834 
8.55e+2, 1.8486421e+2, -1162646.5, -1195720.1, 0.0026980822, 0.00000008904117, 0.00006616487, -1162646.5, -34315.773, 0.0, 10.0, 9.956395 
8.55e+2, 1.9482064e+2, -1064496.8, -1097833.0, 0.0022513962, 0.00000009521284, -0.000057646284, -1064496.8, -33739.105, 0.0, 10.0, 9.956052 
8.55e+2, 2.0477042e+2, -976332.75, -1019435.0, 0.0025013492, 0.00000009644425, 0.00006808307, -976332.75, -43082.85, 0.0, 10.0, 9.943291 
8.55e+2, 2.1471375e+2, -878045.75, -921409.9, 0.0023261681, 0.00000009232473, -0.00012682274, -878045.75, -42240.438, 0.0, 10.0, 9.942949 
8.55e+2, 2.2465037e+2, -789759.6, -843144.9, 0.004715612, 0.00000009001511, 0.00012088479, -789759.6, -51333.336, 0.0, 10.0, 9.929908 
8.55e+2, 2.3458035e+2, -691326.1, -744966.44, 0.001541212, 0.000000089756135, -0.00008881175, -691326.1, -50213.57, 0.0, 10.0, 9.929577 
8.55e+2, 2.4450338e+2, -603002.06, -667018.75, 0.0019887246, 0.00000009040758, 0.000074716096, -603002.06, -59135.164, 0.0, 10.0, 9.916136 
8.55e+2, 2.5441962e+2, -504249.38, -568343.3, 0.0009323553, 0.00000009214421, -0.00010672948, -504249.38, -57561.824, 0.0, 10.0, 9.916036 
8.55e+2, 2.643288e+2, -416013.97, -490987.88, 0.0020330392, 0.000000092421764, 0.00014059966, -416013.97, -66436.3, 0.0, 10.0, 9.901964 
8.55e+2, 2.742313e+2, -316728.75, -391374.75, 0.0021900868, 0.00000009083994, -0.00020344273, -316728.75, -64195.742, 0.0, 10.0, 9.902385 
8.55e+2, 2.841256e+2, -230255.48, -318081.25, 0.003591362, 0.00000008989308, 0.00022904397, -230255.48, -74686.516, 0.0, 10.0, 9.885439 
8.55e+2, 2.940121e+2, -130549.34, -217765.0, 0.0019117605, 0.00000008982374, -0.00025334692, -130549.34, -71867.95, 0.0, 10.0, 9.886217 
8.55e+2, 3.0392656e+2, -40805.336, -84750.164, 0.0015461562, 0.00000009017226, 0.00017313276, -40805.336, -40805.336, 0.0, 10.0, 9.942173 
8.55e+2, 3.138706e+2, -39727.324, -82511.21, -0.00064194767, 0.00000009113323, -0.00005514172, -39727.324, -39727.324, 0.0, 10.0, 9.943684 
8.65e+2, 1.2499334e+2, -1719945.9, -1724224.6, 0.0025883617, 0.00000009357793, 0.000017623566, -1719945.9, -4880.681, 0.0, 10.0, 9.994327 
8.65e+2, 1.349876e+2, -1622565.5, -1627434.9, 0.002287442, 0.00000010081211, -0.00006840528, -1622565.5, -5443.9063, 0.0, 10.0, 9.993545 
8.65e+2, 1.4497514e+2, -1534464.0, -1548146.3, 0.0035077666, 0.00000010334639, 0.00007095457, -1534464.0, -15220.406, 0.0, 10.0, 9.981865 
8.65e+2, 1.5495703e+2, -1436736.4, -1450821.9, 0.000112161215, 0.00000010110137, -0.000056968736, -1436736.4, -15315.222, 0.0, 10.0, 9.981333 
8.65e+2, 1.6493228e+2, -1348685.4, -1371952.4, 0.0028737846, 0.000000096867495, 0.00004734723, -1348685.4, -25021.72, 0.0, 10.0, 9.969248 
8.65e+2, 1.7490156e+2, -1250727.4, -1274310.1, 0.0021232595, 0.00000009060257, -0.00007381395, -1250727.4, -24762.697, 0.0, 10.0, 9.968834 
8.65e+2, 1.8486421e+2, -1162646.4, -1195720.1, 0.0038461809, 0.00000009159085, 0.00006616322, -1162646.4, -34315.75, 0.0, 10.0, 9.956395 
8.65e+2, 1.9482064e+2, -1064496.8, -1097833.0, 0.0028606176, 0.00000010016892, -0.00005764764, -1064496.8, -33739.09, 0.0, 10.0, 9.956052 
8.65e+2, 2.0477042e+2, -976332.75, -1019435.0, 0.0036460212, 0.00000010133388, 0.000068083034, -976332.75, -43082.836, 0.0, 10.0, 9.943291 
8.65e+2, 2.1471375e+2, -878045.7, -921409.9, 0.0009694132, 0.00000009446967, -0.00012682032, -878045.7, -42240.414, 0.0, 10.0, 9.942949 
8.65e+2, 2.2465037e+2, -789759.56, -843144.9, 0.0028959874, 0.00000009108768, 0.00012088715, -789759.56, -51333.31, 0.0, 10.0, 9.929908 
8.65e+2, 2.3458035e+2, -691326.06, -744966.44, 0.0029507815, 0.0000000916503, -0.00008881231, -691326.06, -50213.543, 0.0, 10.0, 9.929577 
8.65e+2, 2.4450338e+2, -603002.0, -667018.75, 0.00434953, 0.00000009305565, 0.000074714146, -603002.0, -59135.14, 0.0, 10.0, 9.916136 
8.65e+2, 2.5441962e+2, -504249.34, -568343.3, 0.0023588664, 0.000000095463314, -0.000106731015, -504249.34, -57561.805, 0.0, 10.0, 9.916036 
8.65e+2, 2.643288e+2, -416013.94, -490987.88, 0.0026529722, 0.00000009589607, 0.00014059928, -416013.94, -66436.27, 0.0, 10.0, 9.901964 
8.65e+2, 2.742313e+2, -316728.72, -391374.75, 0.0004285938, 0.00000009381326, -0.000203441, -316728.72, -64195.72, 0.0, 10.0, 9.902385 
8.65e+2, 2.841256e+2, -230255.45, -318081.22, 0.00080847193, 0.00000009269592, 0.00022904621, -230255.45, -74686.49, 0.0, 10.0, 9.885439 
8.65e+2, 2.940121e+2, -130549.32, -217765.0, 0.0004424684, 0.00000009291149, -0.00025334637, -130549.32, -71867.93, 0.0, 10.0, 9.886217 
8.65e+2, 3.0392656e+2, -40805.313, -84750.16, 0.0010032859, 0.00000009292243, 0.00017313242, -40805.313, -40805.313, 0.0, 10.0, 9.942173 
8.65e+2, 3.138706e+2, -39727.297, -82511.21, -0.0010438623, 0.00000009261781, -0.00005514176, -39727.297, -39727.297, 0.0, 10.0, 9.943684 
8.75e+2, 1.2499334e+2, -1719945.9, -1724224.6, -0.00030009804, 0.000000101272185, 0.000017633327, -1719945.9, -4880.6826, 0.0, 10.0, 9.994327 
8.75e+2, 1.349876e+2, -1622565.5, -1627434.9, -0.00060170185, 0.00000010380121, -0.00006841604, -1622565.5, -5443.907, 0.0, 10.0, 9.993545 
8.75e+2, 1.4497514e+2, -1534464.0, -1548146.3, 0.00411072, 0.00000010318682, 0.00007094581, -1534464.0, -15220.415, 0.0, 10.0, 9.981865 
8.75e+2, 1.5495703e+2, -1436736.4, -1450821.9, 0.00072061433, 0.00000009935607, -0.000056958124, -1436736.4, -15315.2295, 0.0, 10.0, 9.981333 
8.75e+2, 1.6493228e+2, -1348685.4, -1371952.4, 0.0033592863, 0.00000009781015, 0.000047358833, -1348685.4, -25021.723, 0.0, 10.0, 9.969248 
8.75e+2, 1.7490156e+2, -1250727.4, -1274310.1, 0.002608087, 0.00000009859711, -0.00007382012, -1250727.4, -24762.7, 0.0, 10.0, 9.968834 
8.75e+2, 1.8486421e+2, -1162646.4, -1195720.1, 0.0015737865, 0.00000009953711, 0.00006615301, -1162646.4, -34315.75, 0.0, 10.0, 9.956395 
8.75e+2, 1.9482064e+2, -1064496.8, -1097833.0, 0.0005562639, 0.000000100637244, -0.000057647518, -1064496.8, -33739.094, 0.0, 10.0, 9.956052 
8.75e+2, 2.0477042e+2, -976332.75, -1019435.0, 0.005289767, 0.000000099818436, 0.00006808856, -976332.75, -43082.844, 0.0, 10.0, 9.943291 
8.75e+2, 2.1471375e+2, -878045.7, -921409.9, 0.0026947, 0.0000000969213, -0.00012681476, -878045.7, -42240.42, 0.0, 10.0, 9.942949 
8.75e+2, 2.2465037e+2, -789759.56, -843144.9, 0.0027095396, 0.00000009568919, 0.0001208908, -789759.56, -51333.313, 0.0, 10.0, 9.929908 
8.75e+2, 2.3458035e+2, -691326.06, -744966.44, 0.0027017798, 0.00000009634247, -0.00008881276, -691326.06, -50213.547, 0.0, 10.0, 9.929577 
8.75e+2, 2.4450338e+2, -603002.0, -667018.75, 0.0036346735, 0.000000096744955, 0.00007471099, -603002.0, -59135.145, 0.0, 10.0, 9.916136 
8.75e+2, 2.5441962e+2, -504249.38, -568343.3, 0.0016216233, 0.00000009684581, -0.000106735206, -504249.38, -57561.81, 0.0, 10.0, 9.916036 
8.75e+2, 2.643288e+2, -416013.94, -490987.88, 0.0030758006, 0.000000096751826, 0.00014059647, -416013.94, -66436.28, 0.0, 10.0, 9.901964 
8.75e+2, 2.742313e+2, -316728.72, -391374.75, 0.00092921255, 0.000000096410595, -0.0002034394, -316728.72, -64195.727, 0.0, 10.0, 9.902385 
8.75e+2, 2.841256e+2, -230255.47, -318081.25, 0.0011241132, 0.000000096365476, 0.00022905107, -230255.47, -74686.49, 0.0, 10.0, 9.885439 
8.75e+2, 2.940121e+2, -130549.33, -217765.0, 0.00074145733, 0.00000009672674, -0.00025333988, -130549.33, -71867.94, 0.0, 10.0, 9.886217 
8.75e+2, 3.0392656e+2, -40805.316, -84750.164, 0.001841101, 0.000000096164634, 0.0001731361, -40805.316, -40805.316, 0.0, 10.0, 9.942173 
8.75e+2, 3.138706e+2, -39727.305, -82511.22, -0.00014276124, 0.000000094228454, -0.000055147466, -39727.305, -39727.305, 0.0, 10.0, 9.943684 
8.85e+2, 1.2499334e+2, -1719945.9, -1724224.6, -0.00079605146, 0.00000010916177, 0.0000176346, -1719945.9, -4880.675, 0.0, 10.0, 9.994327 
8.85e+2, 1.349876e+2, -1622565.4, -1627434.9, -0.0014084132, 0.0000001054081, -0.00006841533, -1622565.4, -5443.877, 0.0, 10.0, 9.993545 
8.85e+2, 1.4497514e+2, -1534464.0, -1548146.3, 0.0035352563, 0.00000010244802, 0.00007094836, -1534464.0, -15220.382, 0.0, 10.0, 9.981864 
8.85e+2, 1.5495703e+2, -1436736.4, -1450821.9, 0.00063788536, 0.000000100229784, -0.000056956706, -1436736.4, -15315.203, 0.0, 10.0, 9.981333 
8.85e+2, 1.6493228e+2, -1348685.4, -1371952.4, 0.0031456326, 0.000000101243145, 0.0000473591, -1348685.4, -25021.697, 0.0, 10.0, 9.969248 
8.85e+2, 1.7490156e+2, -1250727.4, -1274310.1, 0.0033195976, 0.00000010555631, -0.00007382103, -1250727.4, -24762.688, 0.0, 10.0, 9.968834 
8.85e+2, 1.8486421e+2, -1162646.4, -1195720.1, 0.00290874, 0.00000010536134, 0.000066152505, -1162646.4, -34315.74, 0.0, 10.0, 9.956395 
8.85e+2, 1.9482064e+2, -1064496.6, -1097833.0, -0.00006108346, 0.00000010044897, -0.00005764596, -1064496.6, -33739.06, 0.0, 10.0, 9.956052 
8.85e+2, 2.0477042e+2, -976332.7, -1019435.0, 0.003975761, 0.000000098677894, 0.000068090405, -976332.7, -43082.805, 0.0, 10.0, 9.943291 
8.85e+2, 2.1471375e+2, -878045.7, -921409.9, 0.0028191232, 0.00000010030922, -0.00012681454, -878045.7, -42240.4, 0.0, 10.0, 9.942949 
8.85e+2, 2.2465037e+2, -789759.56, -843144.9, 0.0029344978, 0.000000101096056, 0.00012089072, -789759.56, -51333.297, 0.0, 10.0, 9.929908 
8.85e+2, 2.3458035e+2, -691326.06, -744966.44, 0.0012972144, 0.000000100925604, -0.000088811656, -691326.06, -50213.527, 0.0, 10.0, 9.929577 
8.85e+2, 2.4450338e+2, -603002.0, -667018.75, 0.0022403626, 0.00000010011297, 0.0000747122, -603002.0, -59135.125, 0.0, 10.0, 9.916136 
8.85e+2, 2.5441962e+2, -504249.34, -568343.3, 0.0016094455, 0.00000009853426, -0.00010673516, -504249.34, -57561.78, 0.0, 10.0, 9.916036 
8.85e+2, 2.643288e+2, -416013.94, -490987.88, 0.0037240915, 0.00000009812309, 0.00014059572, -416013.94, -66436.25, 0.0, 10.0, 9.901964 
8.85e+2, 2.742313e+2, -316728.7, -391374.75, 0.0018694568, 0.00000009919947, -0.00020344046, -316728.7, -64195.7, 0.0, 10.0, 9.902385 
8.85e+2, 2.841256e+2, -230255.44, -318081.22, 0.001713381, 0.00000009973097, 0.00022905074, -230255.44, -74686.48, 0.0, 10.0, 9.885439 
8.85e+2, 2.940121e+2, -130549.305, -217765.0, -0.00068631256, 0.00000009950982, -0.00025333808, -130549.305, -71867.914, 0.0, 10.0, 9.886217 
8.85e+2, 3.0392656e+2, -40805.293, -84750.16, 0.0004040433, 0.00000009896526, 0.00017313774, -40805.293, -40805.293, 0.0, 10.0, 9.942173 
8.85e+2, 3.138706e+2, -39727.28, -82511.21, 0.0009299999, 0.00000009794776, -0.00005514938, -39727.28, -39727.28, 0.0, 10.0, 9.943684 
8.95e+2, 1.2499334e+2, -1719945.9, -1724224.6, 0.0016496021, 0.00000011724668, 0.000017627386, -1719945.9, -4880.6772, 0.0, 10.0, 9.994327 
8.95e+2, 1.349876e+2, -1622565.4, -1627434.9, 0.0010379158, 0.00000010563278, -0.00006840315, -1622565.4, -5443.879, 0.0, 10.0, 9.993545 
8.95e+2, 1.4497514e+2, -1534464.0, -1548146.3, 0.0027760998, 0.00000010112998, 0.00007096222, -1534464.0, -15220.39, 0.0, 10.0, 9.981864 
8.95e+2, 1.5495703e+2, -1436736.4, -1450821.9, -0.00012638175, 0.0000001037225, -0.000056964476, -1436736.4, -15315.21, 0.0, 10.0, 9.981333 
8.95e+2, 1.6493228e+2, -1348685.4, -1371952.4, 0.000823851, 0.00000010716647, 0.00004734803, -1348685.4, -25021.7, 0.0, 10.0, 9.969248 
8.95e+2, 1.7490156e+2, -1250727.4, -1274310.1, 0.0009895563, 0.00000011148016, -0.00007381667, -1250727.4, -24762.688, 0.0, 10.0, 9.968834 
8.95e+2, 1.8486421e+2, -1162646.4, -1195720.1, 0.0055419845, 0.00000010906354, 0.000066161716, -1162646.4, -34315.746, 0.0, 10.0, 9.956395 
8.95e+2, 1.9482064e+2, -1064496.6, -1097833.0, 0.0026296172, 0.0000000996041, -0.000057642967, -1064496.6, -33739.066, 0.0, 10.0, 9.956052 
8.95e+2, 2.0477042e+2, -976332.7, -1019435.0, 0.0019897092, 0.00000009791227, 0.000068088586, -976332.7, -43082.81, 0.0, 10.0, 9.943291 
8.95e+2, 2.1471375e+2, -878045.7, -921409.9, 0.0007364584, 0.00000010463345, -0.00012681965, -878045.7, -42240.402, 0.0, 10.0, 9.942949 
8.95e+2, 2.2465037e+2, -789759.56, -843144.9, 0.0029543715, 0.00000010730828, 0.0001208869, -789759.56, -51333.3, 0.0, 10.0, 9.929908 
8.95e+2, 2.3458035e+2, -691326.06, -744966.44, 0.0013858647, 0.00000010539971, -0.000088808985, -691326.06, -50213.53, 0.0, 10.0, 9.929577 
8.95e+2, 2.4450338e+2, -603002.0, -667018.75, 0.0033589704, 0.00000010315971, 0.0000747178, -603002.0, -59135.13, 0.0, 10.0, 9.916136 
8.95e+2, 2.5441962e+2, -504249.34, -568343.3, 0.0027775508, 0.00000010052865, -0.0001067309, -504249.34, -57561.78, 0.0, 10.0, 9.916036 
8.95e+2, 2.643288e+2, -416013.94, -490987.88, 0.0032424422, 0.00000010000985, 0.00014059703, -416013.94, -66436.26, 0.0, 10.0, 9.901964 
8.95e+2, 2.742313e+2, -316728.72, -391374.78, 0.0012772097, 0.00000010217989, -0.00020344417, -316728.72, -64195.707, 0.0, 10.0, 9.902385 
8.95e+2, 2.841256e+2, -230255.44, -318081.25, 0.0019708402, 0.000000102792406, 0.00022904522, -230255.44, -74686.48, 0.0, 10.0, 9.885439 
8.95e+2, 2.940121e+2, -130549.305, -217765.0, -0.00035226913, 0.000000101260746, -0.00025334096, -130549.305, -71867.914, 0.0, 10.0, 9.886217 
8.95e+2, 3.0392656e+2, -40805.293, -84750.16, 0.0005678066, 0.00000010132431, 0.00017313735, -40805.293, -40805.293, 0.0, 10.0, 9.942173 
8.95e+2, 3.138706e+2, -39727.28, -82511.21, 0.0010738017, 0.000000103775726, -0.0000551475, -39727.28, -39727.28, 0.0, 10.0, 9.943684 
9.05e+2, 1.2499334e+2, -1719945.9, -1724224.6, 0.0037201066, 0.00000011781564, 0.00001762626, -1719945.9, -4880.64, 0.0, 10.0, 9.994327 
9.05e+2, 1.349876e+2, -1622565.4, -1627434.9, -0.0010723829, 0.00000010906197, -0.00006839881, -1622565.4, -5443.8574, 0.0, 10.0, 9.993545 
9.05e+2, 1.4497514e+2, -1534464.0, -1548146.3, -0.00023846046, 0.000000106301414, 0.000070967835, -1534464.0, -15220.37, 0.0, 10.0, 9.981864 
9.05e+2, 1.5495703e+2, -1436736.4, -1450821.9, 0.0023628823, 0.00000010950882, -0.000056967372, -1436736.4, -15315.191, 0.0, 10.0, 9.981333 
9.05e+2, 1.6493228e+2, -1348685.4, -1371952.4, 0.0038194712, 0.0000001113681, 0.000047344085, -1348685.4, -25021.678, 0.0, 10.0, 9.969248 
9.05e+2, 1.7490156e+2, -1250727.4, -1274310.1, -0.0010579816, 0.000000111851065, -0.00007381406, -1250727.4, -24762.654, 0.0, 10.0, 9.968834 
9.05e+2, 1.8486421e+2, -1162646.4, -1195720.1, 0.003643909, 0.00000010961632, 0.00006616591, -1162646.4, -34315.71, 0.0, 10.0, 9.956395 
9.05e+2, 1.9482064e+2, -1064496.6, -1097833.0, 0.0037206677, 0.00000010453757, -0.000057642425, -1064496.6, -33739.05, 0.0, 10.0, 9.956052 
9.05e+2, 2.0477042e+2, -976332.7, -1019435.0, 0.0033516113, 0.00000010375249, 0.00006808725, -976332.7, -43082.793, 0.0, 10.0, 9.943291 
9.05e+2, 2.1471375e+2, -878045.6, -921409.9, 0.002245031, 0.00000010761774, -0.00012682096, -878045.6, -42240.38, 0.0, 10.0, 9.942949 
9.05e+2, 2.2465037e+2, -789759.56, -843144.9, 0.004906278, 0.00000010898027, 0.00012088589, -789759.56, -51333.27, 0.0, 10.0, 9.929908 
9.05e+2, 2.3458035e+2, -691326.06, -744966.44, 0.002441591, 0.000000107508086, -0.00008880939, -691326.06, -50213.504, 0.0, 10.0, 9.929577 
9.05e+2, 2.4450338e+2, -603002.0, -667018.75, 0.0034578983, 0.000000106086894, 0.0000747183, -603002.0, -59135.1, 0.0, 10.0, 9.916136 
9.05e+2, 2.5441962e+2, -504249.3, -568343.3, 0.0012828087, 0.00000010472959, -0.000106729116, -504249.3, -57561.76, 0.0, 10.0, 9.916036 
9.05e+2, 2.643288e+2, -416013.9, -490987.88, 0.0014044675, 0.0000001042516, 0.00014059876, -416013.9, -66436.234, 0.0, 10.0, 9.901964 
9.05e+2, 2.742313e+2, -316728.7, -391374.75, 0.0011580648, 0.00000010489236, -0.00020344419, -316728.7, -64195.68, 0.0, 10.0, 9.902385 
9.05e+2, 2.841256e+2, -230255.42, -318081.22, 0.0034065149, 0.000000104920055, 0.00022904373, -230255.42, -74686.45, 0.0, 10.0, 9.885439 
9.05e+2, 2.940121e+2, -130549.28, -217765.0, 0.0021785556, 0.00000010410339, -0.00025334363, -130549.28, -71867.89, 0.0, 10.0, 9.886217 
9.05e+2, 3.0392656e+2, -40805.27, -84750.15, 0.00197568, 0.00000010452865, 0.00017313569, -40805.27, -40805.27, 0.0, 10.0, 9.942173 
9.05e+2, 3.138706e+2, -39727.258, -82511.2, -0.001594189, 0.00000010680524, -0.000055144963, -39727.258, -39727.258, 0.0, 10.0, 9.943684 
9.15e+2, 1.2499335e+2, -1719945.9, -1724224.6, 0.0026357796, 0.00000011086868, 0.000017631217, -1719945.9, -4880.6523, 0.0, 10.0, 9.994327 
9.15e+2, 1.349876e+2, -1622565.4, -1627434.9, -0.0021570073, 0.00000011569568, -0.000068402325, -1622565.4, -5443.869, 0.0, 10.0, 9.993545 
9.15e+2, 1.4497514e+2, -1534464.0, -1548146.3, -0.0011978141, 0.00000011796229, 0.000070965194, -1534464.0, -15220.365, 0.0, 10.0, 9.981864 
9.15e+2, 1.5495703e+2, -1436736.4, -1450821.9, 0.0014036681, 0.000000117588726, -0.00005696539, -1436736.4, -15315.187, 0.0, 10.0, 9.981333 
9.15e+2, 1.6493228e+2, -1348685.4, -1371952.4, 0.0048282994, 0.000000113848046, 0.000047347265, -1348685.4, -25021.69, 0.0, 10.0, 9.969248 
9.15e+2, 1.7490156e+2, -1250727.4, -1274310.1, -0.000038793976, 0.00000010666904, -0.00007381318, -1250727.4, -24762.664, 0.0, 10.0, 9.968834 
9.15e+2, 1.8486421e+2, -1162646.4, -1195720.1, 0.0022707502, 0.00000010701969, 0.00006616508, -1162646.4, -34315.71, 0.0, 10.0, 9.956395 
9.15e+2, 1.9482064e+2, -1064496.6, -1097833.0, 0.0023197818, 0.00000011524935, -0.00005764433, -1064496.6, -33739.05, 0.0, 10.0, 9.956052 
9.15e+2, 2.0477042e+2, -976332.7, -1019435.0, 0.0038978367, 0.00000011619853, 0.00006808639, -976332.7, -43082.797, 0.0, 10.0, 9.943291 
9.15e+2, 2.1471375e+2, -878045.7, -921409.9, 0.002831449, 0.00000010926211, -0.00012681846, -878045.7, -42240.38, 0.0, 10.0, 9.942949 
9.15e+2, 2.2465037e+2, -789759.56, -843144.9, 0.0049441825, 0.00000010611203, 0.00012088769, -789759.56, -51333.277, 0.0, 10.0, 9.929908 
9.15e+2, 2.3458035e+2, -691326.06, -744966.44, 0.0024615491, 0.000000107250735, -0.00008881288, -691326.06, -50213.508, 0.0, 10.0, 9.929576 
9.15e+2, 2.4450338e+2, -603002.0, -667018.75, 0.0029999614, 0.00000010889454, 0.00007471371, -603002.0, -59135.105, 0.0, 10.0, 9.916136 
9.15e+2, 2.5441962e+2, -504249.3, -568343.3, 0.0008019086, 0.000000111137055, -0.00010672983, -504249.3, -57561.766, 0.0, 10.0, 9.916036 
9.15e+2, 2.643288e+2, -416013.9, -490987.88, 0.0021785304, 0.00000011084833, 0.00014060091, -416013.9, -66436.234, 0.0, 10.0, 9.901964 
9.15e+2, 2.742313e+2, -316728.7, -391374.75, 0.002016276, 0.00000010733688, -0.00020344046, -316728.7, -64195.68, 0.0, 10.0, 9.902385 
9.15e+2, 2.841256e+2, -230255.42, -318081.25, 0.0035926856, 0.00000010611392, 0.00022904624, -230255.42, -74686.45, 0.0, 10.0, 9.885439 
9.15e+2, 2.940121e+2, -130549.28, -217765.0, 0.0023041957, 0.00000010803776, -0.00025334608, -130549.28, -71867.89, 0.0, 10.0, 9.886217 
9.15e+2, 3.0392656e+2, -40805.277, -84750.164, 0.0020672453, 0.00000010857829, 0.00017313275, -40805.277, -40805.277, 0.0, 10.0, 9.942173 
9.15e+2, 3.138706e+2, -39727.266, -82511.22, -0.0015065882, 0.00000010703631, -0.00005514178, -39727.266, -39727.266, 0.0, 10.0, 9.943684 
9.25e+2, 1.2499335e+2, -1719945.9, -1724224.6, 0.0015271503, 0.00000011206061, 0.000017635572, -1719945.9, -4880.621, 0.0, 10.0, 9.994327 
9.25e+2, 1.349876e+2, -1622565.4, -1627434.9, 0.0030498295, 0.0000001206782, -0.00006840901, -1622565.4, -5443.846, 0.0, 10.0, 9.993545 
9.25e+2, 1.4497514e+2, -1534464.0, -1548146.3, 0.0048780814, 0.00000012368012, 0.00007096042, -1534464.0, -15220.343, 0.0, 10.0, 9.981864 
9.25e+2, 1.5495703e+2, -1436736.3, -1450821.9, -0.0008837701, 0.00000012096494, -0.000056960922, -1436736.3, -15315.158, 0.0, 10.0, 9.981333 
9.25e+2, 1.6493228e+2, -1348685.4, -1371952.4, 0.0021434606, 0.000000116176544, 0.000047352936, -1348685.4, -25021.66, 0.0, 10.0, 9.969248 
9.25e+2, 1.7490156e+2, -1250727.4, -1274310.1, 0.0032344372, 0.00000010927091, -0.0000738145, -1250727.4, -24762.639, 0.0, 10.0, 9.968834 
9.25e+2, 1.8486421e+2, -1162646.4, -1195720.1, 0.004920363, 0.00000011026295, 0.000066161716, -1162646.4, -34315.688, 0.0, 10.0, 9.956395 
9.25e+2, 1.9482064e+2, -1064496.6, -1097833.0, 0.0018399638, 0.00000011951917, -0.00005764455, -1064496.6, -33739.027, 0.0, 10.0, 9.956052 
9.25e+2, 2.0477042e+2, -976332.6, -1019435.0, 0.003495871, 0.00000012046347, 0.000068088084, -976332.6, -43082.773, 0.0, 10.0, 9.943291 
9.25e+2, 2.1471375e+2, -878045.6, -921409.9, 0.0012532788, 0.00000011240506, -0.00012681619, -878045.6, -42240.355, 0.0, 10.0, 9.942949 
9.25e+2, 2.2465037e+2, -789759.5, -843144.9, 0.0026928107, 0.00000010880537, 0.00012088952, -789759.5, -51333.25, 0.0, 10.0, 9.929908 
9.25e+2, 2.3458035e+2, -691326.0, -744966.44, 0.002141103, 0.00000011025596, -0.00008881264, -691326.0, -50213.484, 0.0, 10.0, 9.929576 
9.25e+2, 2.4450338e+2, -603001.94, -667018.75, 0.0039177556, 0.000000112036815, 0.00007471286, -603001.94, -59135.082, 0.0, 10.0, 9.916136 
9.25e+2, 2.5441962e+2, -504249.28, -568343.3, 0.0023111126, 0.00000011420673, -0.00010673117, -504249.28, -57561.74, 0.0, 10.0, 9.916036 
9.25e+2, 2.643288e+2, -416013.88, -490987.88, 0.0035358523, 0.00000011401834, 0.00014060018, -416013.88, -66436.21, 0.0, 10.0, 9.901964 
9.25e+2, 2.742313e+2, -316728.66, -391374.75, 0.0006234993, 0.000000110827855, -0.00020343917, -316728.66, -64195.656, 0.0, 10.0, 9.902385 
9.25e+2, 2.841256e+2, -230255.39, -318081.22, 0.00032871394, 0.000000109748896, 0.00022904853, -230255.39, -74686.43, 0.0, 10.0, 9.885439 
9.25e+2, 2.940121e+2, -130549.26, -217765.0, -0.0007896134, 0.00000011157356, -0.00025334422, -130549.26, -71867.87, 0.0, 10.0, 9.886217 
9.25e+2, 3.0392656e+2, -40805.25, -84750.16, 0.0007153629, 0.00000011177379, 0.00017313323, -40805.25, -40805.25, 0.0, 10.0, 9.942173 
9.25e+2, 3.138706e+2, -39727.234, -82511.21, 0.0003079032, 0.00000010953595, -0.00005514403, -39727.234, -39727.234, 0.0, 10.0, 9.943684 
9.35e+2, 1.2499335e+2, -1719945.9, -1724224.6, -0.0014992764, 0.0000001213914, 0.00001763932, -1719945.9, -4880.618, 0.0, 10.0, 9.994327 
9.35e+2, 1.349876e+2, -1622565.4, -1627434.9, 0.000022650425, 0.00000012400955, -0.000068418856, -1622565.4, -5443.8438, 0.0, 10.0, 9.993545 
9.35e+2, 1.4497514e+2, -1534464.0, -1548146.3, 0.005419406, 0.00000012345495, 0.000070953516, -1534464.0, -15220.356, 0.0, 10.0, 9.981864 
9.35e+2, 1.5495703e+2, -1436736.3, -1450821.9, -0.00033682896, 0.0000001196375, -0.00005695397, -1436736.3, -15315.172, 0.0, 10.0, 9.981333 
9.35e+2, 1.6493228e+2, -1348685.4, -1371952.4, 0.002521073, 0.00000011835361, 0.0000473611, -1348685.4, -25021.658, 0.0, 10.0, 9.969248 
9.35e+2, 1.7490156e+2, -1250727.4, -1274310.1, 0.0036111171, 0.00000011965662, -0.00007381803, -1250727.4, -24762.637, 0.0, 10.0, 9.968834 
9.35e+2, 1.8486421e+2, -1162646.4, -1195720.1, 0.003359403, 0.00000011934608, 0.00006615581, -1162646.4, -34315.69, 0.0, 10.0, 9.956395 
9.35e+2, 1.9482064e+2, -1064496.6, -1097833.0, 0.0002565321, 0.00000011734707, -0.000057643072, -1064496.6, -33739.03, 0.0, 10.0, 9.956052 
9.35e+2, 2.0477042e+2, -976332.7, -1019435.0, 0.004527269, 0.00000011654736, 0.00006809234, -976332.7, -43082.777, 0.0, 10.0, 9.943291 
9.35e+2, 2.1471375e+2, -878045.6, -921409.9, 0.0023386765, 0.00000011704658, -0.00012681414, -878045.6, -42240.36, 0.0, 10.0, 9.942949 
9.35e+2, 2.2465037e+2, -789759.5, -843144.9, 0.002454653, 0.00000011706024, 0.00012089139, -789759.5, -51333.25, 0.0, 10.0, 9.929908 
9.35e+2, 2.3458035e+2, -691326.0, -744966.44, 0.0018596299, 0.00000011652374, -0.00008880868, -691326.0, -50213.484, 0.0, 10.0, 9.929576 
9.35e+2, 2.4450338e+2, -603001.94, -667018.75, 0.0039052882, 0.000000115513735, 0.00007471574, -603001.94, -59135.086, 0.0, 10.0, 9.916136 
9.35e+2, 2.5441962e+2, -504249.28, -568343.3, 0.002311575, 0.000000113938604, -0.00010673313, -504249.28, -57561.742, 0.0, 10.0, 9.916036 
9.35e+2, 2.643288e+2, -416013.88, -490987.88, 0.0037634145, 0.00000011376164, 0.00014059659, -416013.88, -66436.21, 0.0, 10.0, 9.901964 
9.35e+2, 2.742313e+2, -316728.66, -391374.75, 0.0008663058, 0.000000115365275, -0.00020344029, -316728.66, -64195.66, 0.0, 10.0, 9.902385 
9.35e+2, 2.841256e+2, -230255.39, -318081.25, 0.00060043734, 0.00000011582496, 0.00022905058, -230255.39, -74686.43, 0.0, 10.0, 9.885439 
9.35e+2, 2.940121e+2, -130549.26, -217765.0, -0.00051526446, 0.000000114710794, -0.00025333808, -130549.26, -71867.87, 0.0, 10.0, 9.886217 
9.35e+2, 3.0392656e+2, -40805.254, -84750.164, 0.001667438, 0.00000011411515, 0.00017313716, -40805.254, -40805.254, 0.0, 10.0, 9.942173 
9.35e+2, 3.138706e+2, -39727.24, -82511.21, 0.0013395798, 0.00000011430414, -0.000055151715, -39727.24, -39727.24, 0.0, 10.0, 9.943684 
9.45e+2, 1.2499335e+2, -1719945.9, -1724224.6, 0.0016640499, 0.00000013039795, 0.000017637662, -1719945.9, -4880.6064, 0.0, 10.0, 9.994327 
9.45e+2, 1.349876e+2, -1622565.4, -1627434.9, -0.0019915218, 0.00000012590303, -0.00006841666, -1622565.4, -5443.808, 0.0, 10.0, 9.993545 
9.45e+2, 1.4497514e+2, -1534464.0, -1548146.3, 0.0031967075, 0.00000012281907, 0.00007095783, -1534464.0, -15220.318, 0.0, 10.0, 9.981864 
9.45e+2, 1.5495703e+2, -1436736.3, -1450821.9, 0.0021648325, 0.00000012108116, -0.0000569551, -1436736.3, -15315.14, 0.0, 10.0, 9.981333 
9.45e+2, 1.6493228e+2, -1348685.4, -1371952.4, 0.004800886, 0.00000012234509, 0.000047359074, -1348685.4, -25021.629, 0.0, 10.0, 9.969248 
9.45e+2, 1.7490156e+2, -1250727.3, -1274310.1, 0.0018338404, 0.00000012667425, -0.000073816314, -1250727.3, -24762.617, 0.0, 10.0, 9.968834 
9.45e+2, 1.8486421e+2, -1162646.4, -1195720.1, 0.001668402, 0.00000012533125, 0.00006615849, -1162646.4, -34315.67, 0.0, 10.0, 9.956395 
9.45e+2, 1.9482064e+2, -1064496.6, -1097833.0, 0.0004712938, 0.00000011805274, -0.000057642323, -1064496.6, -33738.996, 0.0, 10.0, 9.956052 
9.45e+2, 2.0477042e+2, -976332.6, -1019435.0, 0.0049501318, 0.00000011656597, 0.00006809207, -976332.6, -43082.74, 0.0, 10.0, 9.943291 
9.45e+2, 2.1471375e+2, -878045.6, -921409.9, 0.003169461, 0.00000012135219, -0.00012681444, -878045.6, -42240.336, 0.0, 10.0, 9.942949 
9.45e+2, 2.2465037e+2, -789759.5, -843144.9, 0.0034855392, 0.00000012290775, 0.00012089147, -789759.5, -51333.23, 0.0, 10.0, 9.929908 
9.45e+2, 2.3458035e+2, -691326.0, -744966.44, 0.0011592259, 0.00000012080402, -0.000088807734, -691326.0, -50213.46, 0.0, 10.0, 9.929576 
9.45e+2, 2.4450338e+2, -603001.94, -667018.75, 0.0023614694, 0.000000118644394, 0.00007471703, -603001.94, -59135.055, 0.0, 10.0, 9.916136 
9.45e+2, 2.5441962e+2, -504249.25, -568343.3, 0.0008861791, 0.00000011642179, -0.00010673213, -504249.25, -57561.71, 0.0, 10.0, 9.916036 
9.45e+2, 2.643288e+2, -416013.84, -490987.88, 0.0028825952, 0.00000011639428, 0.00014059678, -416013.84, -66436.19, 0.0, 10.0, 9.901964 
9.45e+2, 2.742313e+2, -316728.63, -391374.75, 0.0020242077, 0.00000011916033, -0.0002034416, -316728.63, -64195.637, 0.0, 10.0, 9.902385 
9.45e+2, 2.841256e+2, -230255.38, -318081.22, 0.0030143766, 0.00000011990713, 0.00022904896, -230255.38, -74686.41, 0.0, 10.0, 9.885438 
9.45e+2, 2.940121e+2, -130549.234, -217765.0, 0.00053553295, 0.00000011787745, -0.00025333834, -130549.234, -71867.84, 0.0, 10.0, 9.886217 
9.45e+2, 3.0392656e+2, -40805.223, -84750.15, 0.0012849793, 0.000000117163154, 0.00017313771, -40805.223, -40805.223, 0.0, 10.0, 9.942173 
9.45e+2, 3.138706e+2, -39727.215, -82511.2, -0.00019333063, 0.00000011842759, -0.00005515111, -39727.215, -39727.215, 0.0, 10.0, 9.943684 
9.55e+2, 1.2499335e+2, -1719945.9, -1724224.6, 0.0041848044, 0.00000013908029, 0.000017630593, -1719945.9, -4880.6157, 0.0, 10.0, 9.994327 
9.55e+2, 1.349876e+2, -1622565.4, -1627434.9, 0.0005298813, 0.00000012635866, -0.00006840242, -1622565.4, -5443.8174, 0.0, 10.0, 9.993545 
9.55e+2, 1.4497514e+2, -1534464.0, -1548146.3, 0.002237597, 0.0000001217725, 0.00007097336, -1534464.0, -15220.321, 0.0, 10.0, 9.981864 
9.55e+2, 1.5495703e+2, -1436736.3, -1450821.9, 0.0012001607, 0.00000012529593, -0.000056964313, -1436736.3, -15315.143, 0.0, 10.0, 9.981333 
9.55e+2, 1.6493228e+2, -1348685.4, -1371952.4, 0.0027748598, 0.00000012815097, 0.000047346854, -1348685.4, -25021.637, 0.0, 10.0, 9.969248 
9.55e+2, 1.7490156e+2, -1250727.3, -1274310.1, -0.00019782985, 0.00000013032384, -0.00007380935, -1250727.3, -24762.625, 0.0, 10.0, 9.968834 
9.55e+2, 1.8486421e+2, -1162646.4, -1195720.1, 0.0040594614, 0.00000012821847, 0.00006616977, -1162646.4, -34315.676, 0.0, 10.0, 9.956395 
9.55e+2, 1.9482064e+2, -1064496.6, -1097833.0, 0.0029135423, 0.00000012163618, -0.000057642294, -1064496.6, -33739.0, 0.0, 10.0, 9.956052 
9.55e+2, 2.0477042e+2, -976332.6, -1019435.0, 0.002811531, 0.00000012051929, 0.00006808727, -976332.6, -43082.746, 0.0, 10.0, 9.943291 
9.55e+2, 2.1471375e+2, -878045.6, -921409.9, 0.000936221, 0.00000012532188, -0.0001268171, -878045.6, -42240.34, 0.0, 10.0, 9.942949 
9.55e+2, 2.2465037e+2, -789759.5, -843144.9, 0.004161572, 0.0000001263479, 0.00012088976, -789759.5, -51333.234, 0.0, 10.0, 9.929908 
9.55e+2, 2.3458035e+2, -691326.0, -744966.44, 0.0019304304, 0.00000012309678, -0.0000888098, -691326.0, -50213.465, 0.0, 10.0, 9.929576 
9.55e+2, 2.4450338e+2, -603001.94, -667018.75, 0.0029961145, 0.0000001214288, 0.00007471672, -603001.94, -59135.06, 0.0, 10.0, 9.916136 
9.55e+2, 2.5441962e+2, -504249.28, -568343.3, 0.0015142645, 0.00000012165627, -0.000106728156, -504249.28, -57561.715, 0.0, 10.0, 9.916036 
9.55e+2, 2.643288e+2, -416013.84, -490987.88, 0.0024317007, 0.00000012191626, 0.00014060075, -416013.84, -66436.19, 0.0, 10.0, 9.901964 
9.55e+2, 2.742313e+2, -316728.63, -391374.75, 0.0015009823, 0.00000012221304, -0.0002034431, -316728.63, -64195.637, 0.0, 10.0, 9.902385 
9.55e+2, 2.841256e+2, -230255.38, -318081.25, 0.003764775, 0.00000012199541, 0.0002290437, -230255.38, -74686.414, 0.0, 10.0, 9.885438 
9.55e+2, 2.940121e+2, -130549.24, -217765.0, 0.0014007208, 0.00000012107353, -0.00025334503, -130549.24, -71867.85, 0.0, 10.0, 9.886217 
9.55e+2, 3.0392656e+2, -40805.227, -84750.16, 0.0012269481, 0.00000012091779, 0.0001731349, -40805.227, -40805.227, 0.0, 10.0, 9.942173 
9.55e+2, 3.138706e+2, -39727.22, -82511.21, -0.00035970702, 0.00000012190631, -0.000055142213, -39727.22, -39727.22, 0.0, 10.0, 9.943684 
9.65e+2, 1.2499335e+2, -1719945.8, -1724224.6, 0.0014363824, 0.00000014057535, 0.00001763372, -1719945.8, -4880.5747, 0.0, 10.0, 9.994327 
9.65e+2, 1.349876e+2, -1622565.4, -1627434.9, -0.0008584773, 0.0000001307176, -0.00006839928, -1622565.4, -5443.7915, 0.0, 10.0, 9.993545 
9.65e+2, 1.4497514e+2, -1534463.9, -1548146.3, 0.00038410665, 0.00000012753078, 0.00007097747, -1534463.9, -15220.297, 0.0, 10.0, 9.981864 
9.65e+2, 1.5495703e+2, -1436736.3, -1450821.9, 0.00037154852, 0.00000013097748, -0.000056964116, -1436736.3, -15315.117, 0.0, 10.0, 9.981333 
9.65e+2, 1.6493228e+2, -1348685.3, -1371952.4, 0.0028097765, 0.00000013228914, 0.000047345864, -1348685.3, -25021.611, 0.0, 10.0, 9.969248 
9.65e+2, 1.7490156e+2, -1250727.3, -1274310.1, 0.00007124479, 0.00000013142096, -0.00007380873, -1250727.3, -24762.586, 0.0, 10.0, 9.968834 
9.65e+2, 1.8486421e+2, -1162646.3, -1195720.1, 0.0051776143, 0.00000012999817, 0.00006617104, -1162646.3, -34315.637, 0.0, 10.0, 9.956395 
9.65e+2, 1.9482064e+2, -1064496.6, -1097832.9, 0.0035927347, 0.00000012799488, -0.0000576414, -1064496.6, -33738.98, 0.0, 10.0, 9.956052 
9.65e+2, 2.0477042e+2, -976332.6, -1019435.0, 0.0026921914, 0.00000012723675, 0.00006808763, -976332.6, -43082.727, 0.0, 10.0, 9.943291 
9.65e+2, 2.1471375e+2, -878045.56, -921409.9, 0.0010199541, 0.00000012782715, -0.00012681745, -878045.56, -42240.305, 0.0, 10.0, 9.942949 
9.65e+2, 2.2465037e+2, -789759.44, -843144.9, 0.0049223755, 0.00000012753495, 0.000120889286, -789759.44, -51333.195, 0.0, 10.0, 9.929908 
9.65e+2, 2.3458035e+2, -691325.94, -744966.44, 0.0029880612, 0.0000001262431, -0.00008880976, -691325.94, -50213.434, 0.0, 10.0, 9.929576 
9.65e+2, 2.4450338e+2, -603001.94, -667018.75, 0.0040489524, 0.00000012590125, 0.0000747169, -603001.94, -59135.03, 0.0, 10.0, 9.916136 
9.65e+2, 2.5441962e+2, -504249.25, -568343.3, 0.002034061, 0.00000012669523, -0.00010672829, -504249.25, -57561.69, 0.0, 10.0, 9.916036 
9.65e+2, 2.643288e+2, -416013.84, -490987.88, 0.002300343, 0.00000012645314, 0.00014060082, -416013.84, -66436.164, 0.0, 10.0, 9.901964 
9.65e+2, 2.742313e+2, -316728.6, -391374.75, 0.00019511602, 0.00000012488975, -0.00020344215, -316728.6, -64195.605, 0.0, 10.0, 9.902385 
9.65e+2, 2.841256e+2, -230255.34, -318081.22, 0.0022141896, 0.00000012423831, 0.00022904457, -230255.34, -74686.375, 0.0, 10.0, 9.885438 
9.65e+2, 2.940121e+2, -130549.21, -217765.0, 0.0009409749, 0.00000012484094, -0.00025334553, -130549.21, -71867.82, 0.0, 10.0, 9.886217 
9.65e+2, 3.0392656e+2, -40805.2, -84750.16, 0.00093796186, 0.00000012511347, 0.00017313428, -40805.2, -40805.2, 0.0, 10.0, 9.942173 
9.65e+2, 3.138706e+2, -39727.184, -82511.2, -0.0021124454, 0.00000012488455, -0.000055141136, -39727.184, -39727.184, 0.0, 10.0, 9.943684 
9.75e+2, 1.2499335e+2, -1719945.8, -1724224.6, 0.0004942064, 0.00000013488318, 0.000017647042, -1719945.8, -4880.581, 0.0, 10.0, 9.994327 
9.75e+2, 1.349876e+2, -1622565.4, -1627434.9, -0.0018009595, 0.00000013897983, -0.00006840722, -1622565.4, -5443.7974, 0.0, 10.0, 9.993545 
9.75e+2, 1.4497514e+2, -1534463.9, -1548146.3, -0.00039000332, 0.0000001400939, 0.00007097017, -1534463.9, -15220.297, 0.0, 10.0, 9.981864 
9.75e+2, 1.5495703e+2, -1436736.3, -1450821.9, -0.00040236113, 0.00000013812581, -0.000056954512, -1436736.3, -15315.118, 0.0, 10.0, 9.981333 
9.75e+2, 1.6493228e+2, -1348685.3, -1371952.4, 0.0035527055, 0.00000013475963, 0.00004735611, -1348685.3, -25021.617, 0.0, 10.0, 9.969248 
9.75e+2, 1.7490156e+2, -1250727.3, -1274310.1, 0.00082214206, 0.00000012996563, -0.00007381445, -1250727.3, -24762.594, 0.0, 10.0, 9.968834 
9.75e+2, 1.8486421e+2, -1162646.3, -1195720.1, 0.0034003563, 0.00000013067033, 0.00006616229, -1162646.3, -34315.645, 0.0, 10.0, 9.956395 
9.75e+2, 1.9482064e+2, -1064496.6, -1097833.0, 0.0017861691, 0.00000013712885, -0.000057639634, -1064496.6, -33738.984, 0.0, 10.0, 9.956052 
9.75e+2, 2.0477042e+2, -976332.6, -1019435.0, 0.0041284044, 0.00000013671834, 0.000068093155, -976332.6, -43082.73, 0.0, 10.0, 9.943291 
9.75e+2, 2.1471375e+2, -878045.56, -921409.9, 0.0025231217, 0.000000128868, -0.00012681547, -878045.56, -42240.31, 0.0, 10.0, 9.942949 
9.75e+2, 2.2465037e+2, -789759.5, -843144.9, 0.0043717413, 0.0000001264689, 0.000120890036, -789759.5, -51333.203, 0.0, 10.0, 9.929908 
9.75e+2, 2.3458035e+2, -691325.94, -744966.44, 0.0023702302, 0.00000013024292, -0.00008880761, -691325.94, -50213.438, 0.0, 10.0, 9.929576 
9.75e+2, 2.4450338e+2, -603001.94, -667018.75, 0.0037335074, 0.00000013206177, 0.00007471757, -603001.94, -59135.035, 0.0, 10.0, 9.916136 
9.75e+2, 2.5441962e+2, -504249.25, -568343.3, 0.0017331489, 0.00000013153868, -0.000106732536, -504249.25, -57561.695, 0.0, 10.0, 9.916036 
9.75e+2, 2.643288e+2, -416013.84, -490987.88, 0.0034219616, 0.00000013000496, 0.000140597, -416013.84, -66436.164, 0.0, 10.0, 9.901964 
9.75e+2, 2.742313e+2, -316728.6, -391374.75, 0.0014121251, 0.00000012719049, -0.00020343873, -316728.6, -64195.61, 0.0, 10.0, 9.902385 
9.75e+2, 2.841256e+2, -230255.34, -318081.25, 0.002134245, 0.00000012663585, 0.00022905161, -230255.34, -74686.38, 0.0, 10.0, 9.885438 
9.75e+2, 2.940121e+2, -130549.21, -217765.0, 0.00074419443, 0.00000012917967, -0.00025333982, -130549.21, -71867.82, 0.0, 10.0, 9.886217 
9.75e+2, 3.0392656e+2, -40805.207, -84750.164, 0.0018775143, 0.00000012975019, 0.00017313582, -40805.207, -40805.207, 0.0, 10.0, 9.942173 
9.75e+2, 3.138706e+2, -39727.19, -82511.22, -0.0010394449, 0.00000012736231, -0.00005514787, -39727.19, -39727.19, 0.0, 10.0, 9.943684 
9.85e+2, 1.2499335e+2, -1719945.8, -1724224.6, 0.0031102234, 0.00000013632197, 0.000017648272, -1719945.8, -4880.5435, 0.0, 10.0, 9.994327 
9.85e+2, 1.349876e+2, -1622565.3, -1627434.9, 0.0021954193, 0.00000014466634, -0.00006841165, -1622565.3, -5443.769, 0.0, 10.0, 9.993545 
9.85e+2, 1.4497514e+2, -1534463.9, -1548146.3, 0.0041646794, 0.00000014675014, 0.00007096815, -1534463.9, -15220.272, 0.0, 10.0, 9.981864 
9.85e+2, 1.5495703e+2, -1436736.3, -1450821.9, -0.00019531777, 0.00000014245072, -0.000056951834, -1436736.3, -15315.087, 0.0, 10.0, 9.981333 
9.85e+2, 1.6493228e+2, -1348685.3, -1371952.4, 0.0030053104, 0.0000001381722, 0.00004735929, -1348685.3, -25021.584, 0.0, 10.0, 9.969248 
9.85e+2, 1.7490156e+2, -1250727.3, -1274310.1, 0.00260926, 0.00000013391471, -0.00007381505, -1250727.3, -24762.564, 0.0, 10.0, 9.968834 
9.85e+2, 1.8486421e+2, -1162646.3, -1195720.1, 0.004178722, 0.00000013467812, 0.000066160785, -1162646.3, -34315.613, 0.0, 10.0, 9.956395 
9.85e+2, 1.9482064e+2, -1064496.5, -1097832.9, 0.000844939, 0.00000014069533, -0.000057639038, -1064496.5, -33738.95, 0.0, 10.0, 9.956052 
9.85e+2, 2.0477042e+2, -976332.56, -1019435.0, 0.003982791, 0.00000014036523, 0.00006809488, -976332.56, -43082.695, 0.0, 10.0, 9.943291 
9.85e+2, 2.1471375e+2, -878045.56, -921409.9, 0.002000616, 0.00000013316034, -0.0001268137, -878045.56, -42240.28, 0.0, 10.0, 9.942949 
9.85e+2, 2.2465037e+2, -789759.44, -843144.9, 0.0025001825, 0.00000013093378, 0.000120891345, -789759.44, -51333.176, 0.0, 10.0, 9.929908 
9.85e+2, 2.3458035e+2, -691325.94, -744966.44, 0.00059894705, 0.00000013434483, -0.000088807355, -691325.94, -50213.41, 0.0, 10.0, 9.929576 
9.85e+2, 2.4450338e+2, -603001.9, -667018.75, 0.0027834699, 0.0000001356823, 0.00007471757, -603001.9, -59135.004, 0.0, 10.0, 9.916136 
9.85e+2, 2.5441962e+2, -504249.22, -568343.3, 0.0011359705, 0.00000013453689, -0.00010673184, -504249.22, -57561.66, 0.0, 10.0, 9.916036 
9.85e+2, 2.643288e+2, -416013.8, -490987.88, 0.003128288, 0.00000013318363, 0.00014059788, -416013.8, -66436.13, 0.0, 10.0, 9.901964 
9.85e+2, 2.742313e+2, -316728.6, -391374.75, 0.0007735375, 0.00000013157161, -0.00020343829, -316728.6, -64195.582, 0.0, 10.0, 9.902385 
9.85e+2, 2.841256e+2, -230255.31, -318081.22, 0.0008501869, 0.00000013127016, 0.00022905208, -230255.31, -74686.35, 0.0, 10.0, 9.885438 
9.85e+2, 2.940121e+2, -130549.18, -217765.0, -0.0010386409, 0.00000013276328, -0.00025333866, -130549.18, -71867.79, 0.0, 10.0, 9.886217 
9.85e+2, 3.0392656e+2, -40805.176, -84750.16, 0.0013630297, 0.00000013307245, 0.00017313624, -40805.176, -40805.176, 0.0, 10.0, 9.942173 
9.85e+2, 3.138706e+2, -39727.164, -82511.21, 0.0015068658, 0.00000013160718, -0.000055150274, -39727.164, -39727.164, 0.0, 10.0, 9.943684 
9.95e+2, 1.2499335e+2, -1719945.8, -1724224.6, -0.000032217853, 0.00000014489166, 0.000017637407, -1719945.8, -4880.5464, 0.0, 10.0, 9.994327 
9.95e+2, 1.349876e+2, -1622565.3, -1627434.9, -0.00094783696, 0.00000014777713, -0.000068412555, -1622565.3, -5443.772, 0.0, 10.0, 9.993545 
9.95e+2, 1.4497514e+2, -1534463.9, -1548146.3, 0.0048908037, 0.00000014749952, 0.00007097141, -1534463.9, -15220.283, 0.0, 10.0, 9.981864 
9.95e+2, 1.5495703e+2, -1436736.3, -1450821.9, 0.0005368881, 0.00000014395219, -0.000056956076, -1436736.3, -15315.098, 0.0, 10.0, 9.981333 
9.95e+2, 1.6493228e+2, -1348685.3, -1371952.4, 0.0028093786, 0.00000014252686, 0.000047355417, -1348685.3, -25021.586, 0.0, 10.0, 9.969248 
9.95e+2, 1.7490156e+2, -1250727.3, -1274310.1, 0.00240838, 0.0000001432682, -0.000073810515, -1250727.3, -24762.564, 0.0, 10.0, 9.968834 
9.95e+2, 1.8486421e+2, -1162646.3, -1195720.1, 0.0037539382, 0.0000001420215, 0.00006616653, -1162646.3, -34315.62, 0.0, 10.0, 9.956395 
9.95e+2, 1.9482064e+2, -1064496.5, -1097833.0, 0.00041752777, 0.00000013869438, -0.0000576396, -1064496.5, -33738.957, 0.0, 10.0, 9.956052 
9.95e+2, 2.0477042e+2, -976332.56, -1019435.0, 0.0040784357, 0.00000013817747, 0.000068092784, -976332.56, -43082.7, 0.0, 10.0, 9.943291 
9.95e+2, 2.1471375e+2, -878045.56, -921409.9, 0.0021070477, 0.00000014070415, -0.00012681213, -878045.56, -42240.285, 0.0, 10.0, 9.942949 
9.95e+2, 2.2465037e+2, -789759.44, -843144.9, 0.002280862, 0.00000014092952, 0.00012089321, -789759.44, -51333.18, 0.0, 10.0, 9.929908 
9.95e+2, 2.3458035e+2, -691325.94, -744966.44, 0.00036895485, 0.00000013854883, -0.00008880901, -691325.94, -50213.414, 0.0, 10.0, 9.929576 
9.95e+2, 2.4450338e+2, -603001.9, -667018.75, 0.0034532715, 0.00000013676285, 0.00007471689, -603001.9, -59135.008, 0.0, 10.0, 9.916136 
9.95e+2, 2.5441962e+2, -504249.22, -568343.3, 0.001849016, 0.00000013568986, -0.0001067262, -504249.22, -57561.664, 0.0, 10.0, 9.916036 
9.95e+2, 2.643288e+2, -416013.8, -490987.88, 0.002986666, 0.00000013598915, 0.0001406035, -416013.8, -66436.14, 0.0, 10.0, 9.901964 
9.95e+2, 2.742313e+2, -316728.6, -391374.75, 0.0005746315, 0.00000013803314, -0.00020344082, -316728.6, -64195.586, 0.0, 10.0, 9.902385 
9.95e+2, 2.841256e+2, -230255.33, -318081.25, 0.0014928768, 0.00000013814123, 0.00022904597, -230255.33, -74686.36, 0.0, 10.0, 9.885438 
9.95e+2, 2.940121e+2, -130549.19, -217765.0, -0.0003200939, 0.00000013559175, -0.0002533421, -130549.19, -71867.8, 0.0, 10.0, 9.886217 
9.95e+2, 3.0392656e+2, -40805.176, -84750.16, 0.0015668131, 0.00000013508023, 0.00017313552, -40805.176, -40805.176, 0.0, 10.0, 9.942173 
9.95e+2, 3.138706e+2, -39727.164, -82511.21, 0.0016502595, 0.00000013761914, -0.000055148346, -39727.164, -39727.164, 0.0, 10.0, 9.943684 
1.005e+3, 1.2499335e+2, -1719945.8, -1724224.6, 0.002254524, 0.00000015395409, 0.00001763684, -1719945.8, -4880.5264, 0.0, 10.0, 9.994327 
1.005e+3, 1.349876e+2, -1622565.3, -1627434.9, -0.0017416137, 0.00000014990886, -0.00006841151, -1622565.3, -5443.7305, 0.0, 10.0, 9.993545 
1.005e+3, 1.4497514e+2, -1534463.9, -1548146.3, 0.0041162, 0.00000014769383, 0.00007097424, -1534463.9, -15220.236, 0.0, 10.0, 9.981864 
1.005e+3, 1.5495703e+2, -1436736.3, -1450821.9, 0.0026812586, 0.0000001472306, -0.000056957037, -1436736.3, -15315.061, 0.0, 10.0, 9.981333 
1.005e+3, 1.6493228e+2, -1348685.3, -1371952.4, 0.004663555, 0.00000014775767, 0.00004735439, -1348685.3, -25021.553, 0.0, 10.0, 9.969248 
1.005e+3, 1.7490156e+2, -1250727.3, -1274310.1, 0.00064297626, 0.00000014929601, -0.0000738078, -1250727.3, -24762.535, 0.0, 10.0, 9.968834 
1.005e+3, 1.8486421e+2, -1162646.3, -1195720.1, 0.0020313233, 0.00000014713069, 0.000066169676, -1162646.3, -34315.59, 0.0, 10.0, 9.956395 
1.005e+3, 1.9482064e+2, -1064496.5, -1097832.9, 0.0012306693, 0.00000014108966, -0.000057639507, -1064496.5, -33738.918, 0.0, 10.0, 9.956052 
1.005e+3, 2.0477042e+2, -976332.56, -1019435.0, 0.005027374, 0.00000014060447, 0.000068091744, -976332.56, -43082.664, 0.0, 10.0, 9.94329 
1.005e+3, 2.1471375e+2, -878045.5, -921409.9, 0.002515284, 0.0000001461366, -0.00012681224, -878045.5, -42240.254, 0.0, 10.0, 9.942949 
1.005e+3, 2.2465037e+2, -789759.44, -843144.9, 0.0037594938, 0.00000014684862, 0.00012089352, -789759.44, -51333.15, 0.0, 10.0, 9.929908 
1.005e+3, 2.3458035e+2, -691325.94, -744966.44, 0.0021316633, 0.00000014210235, -0.00008880885, -691325.94, -50213.38, 0.0, 10.0, 9.929576 
1.005e+3, 2.4450338e+2, -603001.9, -667018.75, 0.0041957432, 0.00000013956979, 0.0000747171, -603001.9, -59134.973, 0.0, 10.0, 9.916136 
1.005e+3, 2.5441962e+2, -504249.2, -568343.3, 0.0009560509, 0.00000013968707, -0.000106725674, -504249.2, -57561.637, 0.0, 10.0, 9.916036 
1.005e+3, 2.643288e+2, -416013.78, -490987.88, 0.0019659777, 0.00000014055244, 0.00014060373, -416013.78, -66436.11, 0.0, 10.0, 9.901964 
1.005e+3, 2.742313e+2, -316728.56, -391374.75, 0.0014610513, 0.00000014236353, -0.00020344161, -316728.56, -64195.555, 0.0, 10.0, 9.902385 
1.005e+3, 2.841256e+2, -230255.3, -318081.22, 0.0038316012, 0.00000014232056, 0.00022904464, -230255.3, -74686.33, 0.0, 10.0, 9.885438 
1.005e+3, 2.940121e+2, -130549.16, -217765.0, 0.0015079293, 0.00000013973582, -0.00025334329, -130549.16, -71867.766, 0.0, 10.0, 9.886217 
1.005e+3, 3.0392656e+2, -40805.145, -84750.15, 0.0011923563, 0.00000013905822, 0.00017313537, -40805.145, -40805.145, 0.0, 10.0, 9.942173 
1.005e+3, 3.138706e+2, -39727.13, -82511.2, -0.002838174, 0.00000014123597, -0.000055146036, -39727.13, -39727.13, 0.0, 10.0, 9.943684 
1.015e+3, 1.2499335e+2, -1719945.8, -1724224.6, 0.004262548, 0.00000016350927, 0.000017646571, -1719945.8, -4880.5366, 0.0, 10.0, 9.994327 
1.015e+3, 1.349876e+2, -1622565.3, -1627434.9, 0.0002668077, 0.00000015106151, -0.000068408495, -1622565.3, -5443.74, 0.0, 10.0, 9.993545 
1.015e+3, 1.4497514e+2, -1534463.9, -1548146.3, 0.0024827237, 0.00000014733307, 0.000070976654, -1534463.9, -15220.24, 0.0, 10.0, 9.981864 
1.015e+3, 1.5495703e+2, -1436736.3, -1450821.9, 0.0010419515, 0.00000015228595, -0.000056954716, -1436736.3, -15315.064, 0.0, 10.0, 9.981333 
1.015e+3, 1.6493228e+2, -1348685.3, -1371952.4, 0.0039846785, 0.00000015386463, 0.000047356214, -1348685.3, -25021.563, 0.0, 10.0, 9.969248 
1.015e+3, 1.7490156e+2, -1250727.3, -1274310.1, -0.000030875115, 0.00000015199818, -0.0000738069, -1250727.3, -24762.545, 0.0, 10.0, 9.968834 
1.015e+3, 1.8486421e+2, -1162646.3, -1195720.1, 0.002914041, 0.00000015000569, 0.00006617021, -1162646.3, -34315.594, 0.0, 10.0, 9.956395 
1.015e+3, 1.9482064e+2, -1064496.5, -1097833.0, 0.0021313769, 0.00000014788117, -0.000057638757, -1064496.5, -33738.92, 0.0, 10.0, 9.956052 
1.015e+3, 2.0477042e+2, -976332.56, -1019435.0, 0.0035383664, 0.00000014764625, 0.00006809175, -976332.56, -43082.67, 0.0, 10.0, 9.94329 
1.015e+3, 2.1471375e+2, -878045.56, -921409.9, 0.0009768917, 0.00000014945773, -0.00012681402, -878045.56, -42240.26, 0.0, 10.0, 9.942949 
1.015e+3, 2.2465037e+2, -789759.44, -843144.9, 0.005008962, 0.0000001486911, 0.00012089229, -789759.44, -51333.152, 0.0, 10.0, 9.929908 
1.015e+3, 2.3458035e+2, -691325.94, -744966.44, 0.0034723277, 0.00000014500542, -0.00008880689, -691325.94, -50213.383, 0.0, 10.0, 9.929576 
1.015e+3, 2.4450338e+2, -603001.9, -667018.75, 0.0037951341, 0.00000014410313, 0.000074718206, -603001.9, -59134.98, 0.0, 10.0, 9.916136 
1.015e+3, 2.5441962e+2, -504249.2, -568343.3, 0.0004717684, 0.00000014652852, -0.00010673028, -504249.2, -57561.64, 0.0, 10.0, 9.916036 
1.015e+3, 2.643288e+2, -416013.78, -490987.88, 0.002221098, 0.00000014687348, 0.00014059863, -416013.78, -66436.11, 0.0, 10.0, 9.901964 
1.015e+3, 2.742313e+2, -316728.56, -391374.75, 0.0017657531, 0.00000014456279, -0.00020344064, -316728.56, -64195.555, 0.0, 10.0, 9.902385 
1.015e+3, 2.841256e+2, -230255.3, -318081.25, 0.0044449703, 0.00000014380815, 0.0002290481, -230255.3, -74686.33, 0.0, 10.0, 9.885438 
1.015e+3, 2.940121e+2, -130549.16, -217765.0, 0.0021491416, 0.00000014519544, -0.0002533423, -130549.16, -71867.766, 0.0, 10.0, 9.886217 
1.015e+3, 3.0392656e+2, -40805.152, -84750.164, 0.0019384517, 0.0000001450064, 0.0001731358, -40805.152, -40805.152, 0.0, 10.0, 9.942173 
1.015e+3, 3.138706e+2, -39727.137, -82511.22, -0.0020797173, 0.00000014245771, -0.000055143348, -39727.137, -39727.137, 0.0, 10.0, 9.943684 
1.025e+3, 1.2499335e+2, -1719945.8, -1724224.6, 0.00006270638, 0.00000016690856, 0.000017651546, -1719945.8, -4880.494, 0.0, 10.0, 9.994327 
1.025e+3, 1.349876e+2, -1622565.3, -1627434.9, -0.0005034748, 0.00000015660066, -0.00006840667, -1622565.3, -5443.709, 0.0, 10.0, 9.993545 
1.025e+3, 1.4497514e+2, -1534463.9, -1548146.3, 0.0010733241, 0.00000015329107, 0.00007097945, -1534463.9, -15220.211, 0.0, 10.0, 9.981864 
1.025e+3, 1.5495703e+2, -1436736.1, -1450821.9, -0.0017516246, 0.00000015692876, -0.000056952358, -1436736.1, -15315.03, 0.0, 10.0, 9.981333 
1.025e+3, 1.6493228e+2, -1348685.3, -1371952.4, 0.0023944138, 0.00000015766341, 0.00004735747, -1348685.3, -25021.525, 0.0, 10.0, 9.969248 
1.025e+3, 1.7490156e+2, -1250727.1, -1274310.1, 0.0014126388, 0.00000015543388, -0.00007380743, -1250727.1, -24762.506, 0.0, 10.0, 9.968834 
1.025e+3, 1.8486421e+2, -1162646.3, -1195720.1, 0.005328531, 0.00000015430604, 0.00006616964, -1162646.3, -34315.555, 0.0, 10.0, 9.956395 
1.025e+3, 1.9482064e+2, -1064496.5, -1097832.9, 0.0021830401, 0.00000015433089, -0.00005763753, -1064496.5, -33738.895, 0.0, 10.0, 9.956052 
1.025e+3, 2.0477042e+2, -976332.5, -1019435.0, 0.0023467173, 0.00000015358137, 0.000068093264, -976332.5, -43082.64, 0.0, 10.0, 9.94329 
1.025e+3, 2.1471375e+2, -878045.5, -921409.9, 0.00034591838, 0.00000015199302, -0.00012681386, -878045.5, -42240.223, 0.0, 10.0, 9.942949 
1.025e+3, 2.2465037e+2, -789759.4, -843144.8, 0.004288337, 0.00000015083222, 0.00012089262, -789759.4, -51333.113, 0.0, 10.0, 9.929908 
1.025e+3, 2.3458035e+2, -691325.9, -744966.44, 0.0009995878, 0.00000015015556, -0.00008880468, -691325.9, -50213.35, 0.0, 10.0, 9.929576 
1.025e+3, 2.4450338e+2, -603001.8, -667018.75, 0.0017754821, 0.00000015022151, 0.00007472004, -603001.8, -59134.953, 0.0, 10.0, 9.916136 
1.025e+3, 2.5441962e+2, -504249.16, -568343.3, 0.001865938, 0.00000015117392, -0.000106731495, -504249.16, -57561.61, 0.0, 10.0, 9.916036 
1.025e+3, 2.643288e+2, -416013.75, -490987.88, 0.004077689, 0.00000015064658, 0.00014059704, -416013.75, -66436.08, 0.0, 10.0, 9.901964 
1.025e+3, 2.742313e+2, -316728.53, -391374.75, -0.00046566362, 0.00000014823381, -0.00020343915, -316728.53, -64195.52, 0.0, 10.0, 9.902385 
1.025e+3, 2.841256e+2, -230255.27, -318081.22, 0.000126952, 0.0000001475885, 0.00022905094, -230255.27, -74686.3, 0.0, 10.0, 9.885438 
1.025e+3, 2.940121e+2, -130549.125, -217765.0, -0.0014869745, 0.00000014937078, -0.00025334046, -130549.125, -71867.734, 0.0, 10.0, 9.886217 
1.025e+3, 3.0392656e+2, -40805.117, -84750.16, 0.0005728184, 0.0000001493864, 0.00017313618, -40805.117, -40805.117, 0.0, 10.0, 9.942173 
1.025e+3, 3.138706e+2, -39727.105, -82511.21, 0.00050699373, 0.00000014675696, -0.000055145116, -39727.105, -39727.105, 0.0, 10.0, 9.943684 
1.035e+3, 1.2499335e+2, -1719945.8, -1724224.6, -0.0005059316, 0.00000016415201, 0.000017651764, -1719945.8, -4880.496, 0.0, 10.0, 9.994327 
1.035e+3, 1.349876e+2, -1622565.3, -1627434.9, -0.0010723708, 0.00000016652626, -0.00006840603, -1622565.3, -5443.711, 0.0, 10.0, 9.993545 
1.035e+3, 1.4497514e+2, -1534463.9, -1548146.3, 0.0008031712, 0.0000001655678, 0.00007098262, -1534463.9, -15220.219, 0.0, 10.0, 9.981864 
1.035e+3, 1.5495703e+2, -1436736.1, -1450821.9, -0.002021372, 0.00000016115908, -0.000056949964, -1436736.1, -15315.037, 0.0, 10.0, 9.981333 
1.035e+3, 1.6493228e+2, -1348685.3, -1371952.4, 0.0019791434, 0.00000015915401, 0.000047358157, -1348685.3, -25021.527, 0.0, 10.0, 9.969248 
1.035e+3, 1.7490156e+2, -1250727.1, -1274310.1, 0.0009965504, 0.0000001596031, -0.00007380939, -1250727.1, -24762.51, 0.0, 10.0, 9.968834 
1.035e+3, 1.8486421e+2, -1162646.3, -1195720.1, 0.0044953017, 0.00000016003173, 0.00006616798, -1162646.3, -34315.563, 0.0, 10.0, 9.956395 
1.035e+3, 1.9482064e+2, -1064496.5, -1097833.0, 0.0013449454, 0.00000016043884, -0.00005763582, -1064496.5, -33738.902, 0.0, 10.0, 9.956052 
1.035e+3, 2.0477042e+2, -976332.5, -1019435.0, 0.003338217, 0.00000015840988, 0.000068096284, -976332.5, -43082.645, 0.0, 10.0, 9.94329 
1.035e+3, 2.1471375e+2, -878045.5, -921409.9, 0.0013751833, 0.00000015374248, -0.00012681175, -878045.5, -42240.227, 0.0, 10.0, 9.942949 
1.035e+3, 2.2465037e+2, -789759.4, -843144.9, 0.0034055805, 0.00000015327196, 0.0001208945, -789759.4, -51333.12, 0.0, 10.0, 9.929908 
1.035e+3, 2.3458035e+2, -691325.9, -744966.44, 0.00005427263, 0.00000015755279, -0.00008880223, -691325.9, -50213.36, 0.0, 10.0, 9.929576 
1.035e+3, 2.4450338e+2, -603001.8, -667018.75, 0.002304309, 0.00000015792497, 0.00007472261, -603001.8, -59134.953, 0.0, 10.0, 9.916136 
1.035e+3, 2.5441962e+2, -504249.16, -568343.3, 0.0024655988, 0.00000015362329, -0.000106729334, -504249.16, -57561.61, 0.0, 10.0, 9.916036 
1.035e+3, 2.643288e+2, -416013.75, -490987.88, 0.0046259346, 0.00000015187177, 0.00014059899, -416013.75, -66436.086, 0.0, 10.0, 9.901964 
1.035e+3, 2.742313e+2, -316728.53, -391374.78, 0.00007915976, 0.00000015337656, -0.00020343717, -316728.53, -64195.53, 0.0, 10.0, 9.902385 
1.035e+3, 2.841256e+2, -230255.27, -318081.25, 0.00041835546, 0.00000015366157, 0.00022905314, -230255.27, -74686.3, 0.0, 10.0, 9.885438 
1.035e+3, 2.940121e+2, -130549.125, -217765.0, -0.0012183815, 0.0000001522618, -0.00025333778, -130549.125, -71867.734, 0.0, 10.0, 9.886217 
1.035e+3, 3.0392656e+2, -40805.117, -84750.16, 0.0012031498, 0.00000015219823, 0.00017313648, -40805.117, -40805.117, 0.0, 10.0, 9.942173 
1.035e+3, 3.138706e+2, -39727.105, -82511.21, 0.0011798354, 0.00000015413372, -0.00005515135, -39727.105, -39727.105, 0.0, 10.0, 9.943684 
1.045e+3, 1.2499335e+2, -1719945.6, -1724224.6, 0.005266968, 0.00000016666296, 0.000017650187, -1719945.6, -4880.452, 0.0, 10.000001, 9.994327 
1.045e+3, 1.349876e+2, -1622565.3, -1627434.9, 0.00051265757, 0.00000017255903, -0.00006840623, -1622565.3, -5443.675, 0.0, 10.000001, 9.993545 
1.045e+3, 1.4497514e+2, -1534463.9, -1548146.3, 0.0025614735, 0.00000017258837, 0.000070984635, -1534463.9, -15220.184, 0.0, 10.000001, 9.981864 
1.045e+3, 1.5495703e+2, -1436736.1, -1450821.9, 0.0013111838, 0.00000016661564, -0.00005695018, -1436736.1, -15315.0, 0.0, 10.000001, 9.981333 
1.045e+3, 1.6493228e+2, -1348685.1, -1371952.4, 0.004384866, 0.00000016374891, 0.000047357596, -1348685.1, -25021.492, 0.0, 10.000001, 9.969248 
1.045e+3, 1.7490156e+2, -1250727.1, -1274310.1, 0.0007241789, 0.0000001640534, -0.00007380837, -1250727.1, -24762.473, 0.0, 10.000001, 9.968834 
1.045e+3, 1.8486421e+2, -1162646.3, -1195720.1, 0.0031345526, 0.00000016445713, 0.00006616951, -1162646.3, -34315.527, 0.0, 10.000001, 9.956395 
1.045e+3, 1.9482064e+2, -1064496.5, -1097832.9, 0.0008347317, 0.00000016496456, -0.000057634898, -1064496.5, -33738.86, 0.0, 10.000001, 9.956052 
1.045e+3, 2.0477042e+2, -976332.5, -1019435.0, 0.004102678, 0.0000001630471, 0.00006809716, -976332.5, -43082.605, 0.0, 10.000001, 9.94329 
1.045e+3, 2.1471375e+2, -878045.44, -921409.8, 0.0015734702, 0.00000015850335, -0.00012681034, -878045.44, -42240.19, 0.0, 10.000001, 9.942949 
1.045e+3, 2.2465037e+2, -789759.4, -843144.9, 0.003000278, 0.00000015804989, 0.00012089509, -789759.4, -51333.086, 0.0, 10.000001, 9.929908 
1.045e+3, 2.3458035e+2, -691325.9, -744966.44, 0.0016815306, 0.00000016222715, -0.000088804045, -691325.9, -50213.32, 0.0, 10.0, 9.929576 
1.045e+3, 2.4450338e+2, -603001.8, -667018.75, 0.004140805, 0.00000016240874, 0.00007472136, -603001.8, -59134.914, 0.0, 10.0, 9.916136 
1.045e+3, 2.5441962e+2, -504249.13, -568343.25, -0.0005912443, 0.00000015781261, -0.00010672649, -504249.13, -57561.57, 0.0, 10.000001, 9.916036 
1.045e+3, 2.643288e+2, -416013.72, -490987.88, 0.00044690366, 0.00000015609243, 0.00014060241, -416013.72, -66436.05, 0.0, 10.000001, 9.901964 
1.045e+3, 2.742313e+2, -316728.5, -391374.75, 0.00055892766, 0.00000015804343, -0.00020343765, -316728.5, -64195.496, 0.0, 10.000001, 9.902385 
1.045e+3, 2.841256e+2, -230255.23, -318081.22, 0.0034145373, 0.00000015847809, 0.00022905083, -230255.23, -74686.266, 0.0, 10.000001, 9.885438 
1.045e+3, 2.940121e+2, -130549.09, -217764.98, 0.0009735046, 0.00000015682016, -0.0002533391, -130549.09, -71867.7, 0.0, 10.000001, 9.886217 
1.045e+3, 3.0392656e+2, -40805.082, -84750.15, 0.0016361533, 0.00000015660903, 0.00017313639, -40805.082, -40805.082, 0.0, 10.000001, 9.942173 
1.045e+3, 3.138706e+2, -39727.07, -82511.2, -0.0020040108, 0.00000015856497, -0.000055149943, -39727.07, -39727.07, 0.0, 10.000001, 9.943684 
1.055e+3, 1.2499335e+2, -1719945.8, -1724224.6, 0.00284994, 0.00000017444137, 0.000017646817, -1719945.8, -4880.4644, 0.0, 10.000001, 9.994327 
1.055e+3, 1.349876e+2, -1622565.3, -1627434.9, -0.0019050993, 0.00000017469898, -0.00006840728, -1622565.3, -5443.687, 0.0, 10.000001, 9.993545 
1.055e+3, 1.4497514e+2, -1534463.9, -1548146.3, 0.002821618, 0.00000017435285, 0.0000709855, -1534463.9, -15220.1875, 0.0, 10.000001, 9.981864 
1.055e+3, 1.5495703e+2, -1436736.1, -1450821.9, 0.0015755034, 0.00000017329846, -0.000056953002, -1436736.1, -15315.004, 0.0, 10.000001, 9.981333 
1.055e+3, 1.6493228e+2, -1348685.1, -1371952.4, 0.0039808345, 0.00000017144806, 0.000047355785, -1348685.1, -25021.5, 0.0, 10.000001, 9.969248 
1.055e+3, 1.7490156e+2, -1250727.1, -1274310.1, 0.00031656926, 0.0000001687848, -0.000073804375, -1250727.1, -24762.48, 0.0, 10.000001, 9.968834 
1.055e+3, 1.8486421e+2, -1162646.3, -1195720.1, 0.0028774594, 0.00000016758224, 0.00006617423, -1162646.3, -34315.53, 0.0, 10.000001, 9.956395 
1.055e+3, 1.9482064e+2, -1064496.5, -1097833.0, 0.0005793457, 0.00000016790804, -0.00005763476, -1064496.5, -33738.867, 0.0, 10.000001, 9.956052 
1.055e+3, 2.0477042e+2, -976332.5, -1019435.0, 0.0042438987, 0.00000016749307, 0.00006809588, -976332.5, -43082.613, 0.0, 10.000001, 9.94329 
1.055e+3, 2.1471375e+2, -878045.44, -921409.9, 0.0017228605, 0.00000016627561, -0.00012680961, -878045.44, -42240.195, 0.0, 10.000001, 9.942949 
1.055e+3, 2.2465037e+2, -789759.4, -843144.9, 0.002538738, 0.00000016516599, 0.00012089437, -789759.4, -51333.09, 0.0, 10.000001, 9.929908 
1.055e+3, 2.3458035e+2, -691325.9, -744966.44, 0.0011999855, 0.00000016417864, -0.000088810106, -691325.9, -50213.324, 0.0, 10.0, 9.929576 
1.055e+3, 2.4450338e+2, -603001.8, -667018.75, 0.0048436094, 0.00000016367282, 0.0000747163, -603001.8, -59134.926, 0.0, 10.0, 9.916136 
1.055e+3, 2.5441962e+2, -504249.13, -568343.3, 0.00016848659, 0.00000016374184, -0.00010672297, -504249.13, -57561.582, 0.0, 10.000001, 9.916036 
1.055e+3, 2.643288e+2, -416013.72, -490987.88, 0.00048781908, 0.00000016330853, 0.0001406073, -416013.72, -66436.05, 0.0, 10.000001, 9.901964 
1.055e+3, 2.742313e+2, -316728.5, -391374.75, 0.0005516541, 0.00000016223441, -0.0002034406, -316728.5, -64195.496, 0.0, 10.000001, 9.902385 
1.055e+3, 2.841256e+2, -230255.23, -318081.25, 0.0039283372, 0.00000016203802, 0.00022904399, -230255.23, -74686.27, 0.0, 10.000001, 9.885438 
1.055e+3, 2.940121e+2, -130549.1, -217765.0, 0.0015342832, 0.00000016304581, -0.00025334436, -130549.1, -71867.71, 0.0, 10.000001, 9.886217 
1.055e+3, 3.0392656e+2, -40805.09, -84750.164, 0.0022786704, 0.00000016261879, 0.00017313592, -40805.09, -40805.09, 0.0, 10.000001, 9.942172 
1.055e+3, 3.138706e+2, -39727.08, -82511.22, -0.0013518493, 0.00000016005073, -0.00005514089, -39727.08, -39727.08, 0.0, 10.000001, 9.943684 
1.065e+3, 1.2499335e+2, -1719945.6, -1724224.6, 0.00049710675, 0.00000018161307, 0.000017649762, -1719945.6, -4880.429, 0.0, 10.000001, 9.994327 
1.065e+3, 1.349876e+2, -1622565.1, -1627434.9, -0.00074774266, 0.00000017859752, -0.00006840878, -1622565.1, -5443.642, 0.0, 10.000001, 9.993545 
1.065e+3, 1.4497514e+2, -1534463.8, -1548146.3, 0.004944189, 0.00000017757866, 0.00007098535, -1534463.8, -15220.142, 0.0, 10.000001, 9.981864 
1.065e+3, 1.5495703e+2, -1436736.1, -1450821.9, 0.0004977263, 0.00000017846617, -0.000056950917, -1436736.1, -15314.964, 0.0, 10.000001, 9.981333 
1.065e+3, 1.6493228e+2, -1348685.1, -1371952.4, 0.0024814415, 0.00000017736444, 0.0000473584, -1348685.1, -25021.463, 0.0, 10.000001, 9.969248 
1.065e+3, 1.7490156e+2, -1250727.1, -1274310.1, 0.0004663331, 0.0000001742315, -0.00007380296, -1250727.1, -24762.441, 0.0, 10.000001, 9.968834 
1.065e+3, 1.8486421e+2, -1162646.1, -1195720.1, 0.0034121156, 0.00000017228497, 0.000066174965, -1162646.1, -34315.492, 0.0, 10.000001, 9.956395 
1.065e+3, 1.9482064e+2, -1064496.4, -1097832.9, 0.0006650318, 0.00000017157973, -0.000057634148, -1064496.4, -33738.824, 0.0, 10.000001, 9.956052 
1.065e+3, 2.0477042e+2, -976332.44, -1019435.0, 0.004209108, 0.00000017183704, 0.0000680963, -976332.44, -43082.574, 0.0, 10.000001, 9.94329 
1.065e+3, 2.1471375e+2, -878045.44, -921409.8, 0.0020083145, 0.00000017313661, -0.00012680943, -878045.44, -42240.16, 0.0, 10.000001, 9.942949 
1.065e+3, 2.2465037e+2, -789759.3, -843144.8, 0.0030142828, 0.00000017181824, 0.00012089503, -789759.3, -51333.055, 0.0, 10.000001, 9.929908 
1.065e+3, 2.3458035e+2, -691325.8, -744966.44, -0.00016649421, 0.00000016753614, -0.00008880813, -691325.8, -50213.28, 0.0, 10.000001, 9.929576 
1.065e+3, 2.4450338e+2, -603001.75, -667018.75, 0.0034866482, 0.00000016640814, 0.00007471768, -603001.75, -59134.883, 0.0, 10.000001, 9.916136 
1.065e+3, 2.5441962e+2, -504249.1, -568343.3, 0.0025680794, 0.00000016905058, -0.000106724474, -504249.1, -57561.543, 0.0, 10.000001, 9.916036 
1.065e+3, 2.643288e+2, -416013.7, -490987.88, 0.003993634, 0.00000016953548, 0.00014060523, -416013.7, -66436.016, 0.0, 10.000001, 9.901964 
1.065e+3, 2.742313e+2, -316728.44, -391374.75, 0.00025723653, 0.00000016726564, -0.00020344026, -316728.44, -64195.457, 0.0, 10.000001, 9.902385 
1.065e+3, 2.841256e+2, -230255.2, -318081.22, 0.0013444729, 0.00000016635765, 0.00022904556, -230255.2, -74686.23, 0.0, 10.000001, 9.885438 
1.065e+3, 2.940121e+2, -130549.06, -217764.98, -0.0011444469, 0.0000001673263, -0.0002533432, -130549.06, -71867.67, 0.0, 10.000001, 9.886217 
1.065e+3, 3.0392656e+2, -40805.05, -84750.16, 0.0007252375, 0.00000016704209, 0.00017313626, -40805.05, -40805.05, 0.0, 10.000001, 9.942172 
1.065e+3, 3.138706e+2, -39727.04, -82511.2, -0.0005850184, 0.0000001648809, -0.000055142027, -39727.04, -39727.04, 0.0, 10.000001, 9.943684 
1.075e+3, 1.2499335e+2, -1719945.6, -1724224.6, 0.00034835853, 0.00000018817806, 0.00001765902, -1719945.6, -4880.433, 0.0, 10.000001, 9.994327 
1.075e+3, 1.349876e+2, -1622565.1, -1627434.9, -0.00089676277, 0.00000018425463, -0.000068410714, -1622565.1, -5443.646, 0.0, 10.000001, 9.993545 
1.075e+3, 1.4497514e+2, -1534463.8, -1548146.3, 0.0036978587, 0.00000018226578, 0.00007098419, -1534463.8, -15220.152, 0.0, 10.000001, 9.981864 
1.075e+3, 1.5495703e+2, -1436736.1, -1450821.9, -0.0007504071, 0.00000018211877, -0.00005694393, -1436736.1, -15314.975, 0.0, 10.000001, 9.981333 
1.075e+3, 1.6493228e+2, -1348685.1, -1371952.4, 0.0026742544, 0.00000018149802, 0.000047365447, -1348685.1, -25021.467, 0.0, 10.000001, 9.969248 
1.075e+3, 1.7490156e+2, -1250727.1, -1274310.1, 0.00066670106, 0.00000018039354, -0.00007380413, -1250727.1, -24762.445, 0.0, 10.000001, 9.968834 
1.075e+3, 1.8486421e+2, -1162646.1, -1195720.1, 0.0029776841, 0.0000001785653, 0.00006617172, -1162646.1, -34315.496, 0.0, 10.000001, 9.956395 
1.075e+3, 1.9482064e+2, -1064496.4, -1097833.0, 0.00022321125, 0.00000017597961, -0.000057633064, -1064496.4, -33738.832, 0.0, 10.000001, 9.956052 
1.075e+3, 2.0477042e+2, -976332.44, -1019435.0, 0.0032844727, 0.00000017607898, 0.00006809842, -976332.44, -43082.58, 0.0, 10.000001, 9.94329 
1.075e+3, 2.1471375e+2, -878045.44, -921409.9, 0.0010736812, 0.00000017908636, -0.00012680983, -878045.44, -42240.168, 0.0, 10.000001, 9.942949 
1.075e+3, 2.2465037e+2, -789759.3, -843144.9, 0.0044805114, 0.00000017800667, 0.00012089705, -789759.3, -51333.063, 0.0, 10.000001, 9.929908 
1.075e+3, 2.3458035e+2, -691325.8, -744966.44, 0.0013782689, 0.00000017229964, -0.0000887981, -691325.8, -50213.29, 0.0, 10.000001, 9.929576 
1.075e+3, 2.4450338e+2, -603001.75, -667018.75, 0.0024663291, 0.00000017061471, 0.00007472552, -603001.75, -59134.883, 0.0, 10.000001, 9.916136 
1.075e+3, 2.5441962e+2, -504249.1, -568343.3, 0.0014244866, 0.0000001737388, -0.00010673101, -504249.1, -57561.547, 0.0, 10.000001, 9.916036 
1.075e+3, 2.643288e+2, -416013.7, -490987.88, 0.004887094, 0.00000017477332, 0.00014059621, -416013.7, -66436.02, 0.0, 10.000001, 9.901964 
1.075e+3, 2.742313e+2, -316728.47, -391374.75, 0.0012872875, 0.00000017313711, -0.00020343662, -316728.47, -64195.465, 0.0, 10.000001, 9.902385 
1.075e+3, 2.841256e+2, -230255.2, -318081.25, 0.0018341374, 0.00000017143694, 0.00022905554, -230255.2, -74686.234, 0.0, 10.000001, 9.885438 
1.075e+3, 2.940121e+2, -130549.06, -217765.0, -0.0007034508, 0.00000016966165, -0.00025333557, -130549.06, -71867.67, 0.0, 10.000001, 9.886217 
1.075e+3, 3.0392656e+2, -40805.055, -84750.164, 0.0015122807, 0.00000016987894, 0.00017313739, -40805.055, -40805.055, 0.0, 10.000001, 9.942172 
1.075e+3, 3.138706e+2, -39727.043, -82511.21, 0.00024269758, 0.00000017305547, -0.00005515335, -39727.043, -39727.043, 0.0, 10.000001, 9.943684 
1.085e+3, 1.2499335e+2, -1719945.6, -1724224.6, 0.002849636, 0.00000019540556, 0.000017660694, -1719945.6, -4880.3916, 0.0, 10.000001, 9.994327 
1.085e+3, 1.349876e+2, -1622565.1, -1627434.9, -0.00089164043, 0.00000018932438, -0.000068409034, -1622565.1, -5443.603, 0.0, 10.000001, 9.993545 
1.085e+3, 1.4497514e+2, -1534463.8, -1548146.3, 0.0024443332, 0.00000018644617, 0.00007098715, -1534463.8, -15220.109, 0.0, 10.000001, 9.981864 
1.085e+3, 1.5495703e+2, -1436736.0, -1450821.9, -0.00019631507, 0.00000018668429, -0.00005694285, -1436736.0, -15314.929, 0.0, 10.000001, 9.981333 
1.085e+3, 1.6493228e+2, -1348685.1, -1371952.3, 0.0040320717, 0.00000018663424, 0.00004736578, -1348685.1, -25021.422, 0.0, 10.000001, 9.969248 
1.085e+3, 1.7490156e+2, -1250727.1, -1274310.1, 0.0012128399, 0.00000018628995, -0.00007380338, -1250727.1, -24762.406, 0.0, 10.000001, 9.968834 
1.085e+3, 1.8486421e+2, -1162646.1, -1195720.1, 0.0037676278, 0.00000018469238, 0.00006617253, -1162646.1, -34315.46, 0.0, 10.000001, 9.956395 
1.085e+3, 1.9482064e+2, -1064496.4, -1097832.9, 0.0010998079, 0.00000018178325, -0.00005763258, -1064496.4, -33738.793, 0.0, 10.000001, 9.956052 
1.085e+3, 2.0477042e+2, -976332.44, -1019435.0, 0.0029415332, 0.00000018103903, 0.00006809904, -976332.44, -43082.535, 0.0, 10.000001, 9.94329 
1.085e+3, 2.1471375e+2, -878045.4, -921409.8, -0.0006133948, 0.00000018263944, -0.00012680858, -878045.4, -42240.12, 0.0, 10.000001, 9.942949 
1.085e+3, 2.2465037e+2, -789759.3, -843144.8, 0.0034552482, 0.00000018206752, 0.00012089845, -789759.3, -51333.016, 0.0, 10.000001, 9.929908 
1.085e+3, 2.3458035e+2, -691325.75, -744966.44, 0.0011121936, 0.00000017903568, -0.000088797104, -691325.75, -50213.254, 0.0, 10.000001, 9.929576 
1.085e+3, 2.4450338e+2, -603001.75, -667018.75, 0.0012985066, 0.0000001775753, 0.0000747264, -603001.75, -59134.848, 0.0, 10.000001, 9.916136 
1.085e+3, 2.5441962e+2, -504249.06, -568343.25, -0.0015145992, 0.00000017799448, -0.00010672991, -504249.06, -57561.504, 0.0, 10.000001, 9.916036 
1.085e+3, 2.643288e+2, -416013.66, -490987.88, 0.0018919117, 0.00000017824708, 0.00014059745, -416013.66, -66435.98, 0.0, 10.000001, 9.901964 
1.085e+3, 2.742313e+2, -316728.4, -391374.75, -0.00051315763, 0.00000017828307, -0.00020343532, -316728.4, -64195.426, 0.0, 10.000001, 9.902385 
1.085e+3, 2.841256e+2, -230255.16, -318081.22, 0.0012941634, 0.00000017725255, 0.00022905646, -230255.16, -74686.195, 0.0, 10.000001, 9.885438 
1.085e+3, 2.940121e+2, -130549.02, -217764.98, -0.00044805364, 0.00000017476331, -0.0002533357, -130549.02, -71867.63, 0.0, 10.000001, 9.886217 
1.085e+3, 3.0392656e+2, -40805.016, -84750.15, 0.0016716826, 0.00000017468014, 0.00017313704, -40805.016, -40805.016, 0.0, 10.000001, 9.942172 
1.085e+3, 3.138706e+2, -39727.004, -82511.2, -0.00051366864, 0.00000017818276, -0.00005515283, -39727.004, -39727.004, 0.0, 10.000001, 9.943684 
1.095e+3, 1.2499335e+2, -1719945.6, -1724224.6, 0.0030527355, 0.00000020329556, 0.00001765478, -1719945.6, -4880.401, 0.0, 10.000001, 9.994327 
1.095e+3, 1.349876e+2, -1622565.1, -1627434.9, -0.00068870874, 0.00000019380678, -0.00006840374, -1622565.1, -5443.613, 0.0, 10.000001, 9.993545 
1.095e+3, 1.4497514e+2, -1534463.8, -1548146.3, 0.0019339162, 0.00000019011982, 0.00007099423, -1534463.8, -15220.116, 0.0, 10.000001, 9.981864 
1.095e+3, 1.5495703e+2, -1436736.1, -1450821.9, -0.0007079279, 0.00000019216273, -0.000056947683, -1436736.1, -15314.936, 0.0, 10.000001, 9.981333 
1.095e+3, 1.6493228e+2, -1348685.1, -1371952.4, 0.0026523853, 0.00000019277307, 0.000047359397, -1348685.1, -25021.428, 0.0, 10.000001, 9.969248 
1.095e+3, 1.7490156e+2, -1250727.1, -1274310.1, -0.00017148264, 0.00000019192075, -0.00007380072, -1250727.1, -24762.414, 0.0, 10.000001, 9.968834 
1.095e+3, 1.8486421e+2, -1162646.1, -1195720.1, 0.0042561744, 0.0000001906662, 0.000066177374, -1162646.1, -34315.47, 0.0, 10.000001, 9.956395 
1.095e+3, 1.9482064e+2, -1064496.4, -1097832.9, 0.0016100088, 0.00000018899064, -0.000057632697, -1064496.4, -33738.797, 0.0, 10.000001, 9.956052 
1.095e+3, 2.0477042e+2, -976332.44, -1019435.0, 0.0026863276, 0.00000018671712, 0.00006809816, -976332.44, -43082.543, 0.0, 10.000001, 9.94329 
1.095e+3, 2.1471375e+2, -878045.4, -921409.9, -0.0008844334, 0.0000001837959, -0.00012680568, -878045.4, -42240.13, 0.0, 10.000001, 9.942949 
1.095e+3, 2.2465037e+2, -789759.3, -843144.9, 0.0028496485, 0.0000001840008, 0.000120899225, -789759.3, -51333.023, 0.0, 10.000001, 9.929908 
1.095e+3, 2.3458035e+2, -691325.8, -744966.44, 0.000495637, 0.00000018774423, -0.000088805115, -691325.8, -50213.258, 0.0, 10.000001, 9.929576 
1.095e+3, 2.4450338e+2, -603001.75, -667018.75, 0.0022467885, 0.0000001872899, 0.00007472034, -603001.75, -59134.855, 0.0, 10.000001, 9.916136 
1.095e+3, 2.5441962e+2, -504249.06, -568343.3, -0.00049112336, 0.00000018181761, -0.00010672118, -504249.06, -57561.508, 0.0, 10.000001, 9.916036 
1.095e+3, 2.643288e+2, -416013.66, -490987.88, 0.0017211796, 0.00000017995676, 0.00014060896, -416013.66, -66435.984, 0.0, 10.000001, 9.901964 
1.095e+3, 2.742313e+2, -316728.44, -391374.75, -0.0007639449, 0.00000018270353, -0.00020343637, -316728.44, -64195.43, 0.0, 10.000001, 9.902385 
1.095e+3, 2.841256e+2, -230255.17, -318081.22, 0.002109539, 0.00000018380443, 0.00022904828, -230255.17, -74686.2, 0.0, 10.000001, 9.885438 
1.095e+3, 2.940121e+2, -130549.03, -217765.0, 0.00046340606, 0.00000018263127, -0.00025334346, -130549.03, -71867.64, 0.0, 10.000001, 9.886217 
1.095e+3, 3.0392656e+2, -40805.02, -84750.16, 0.0018443095, 0.00000018144567, 0.00017313522, -40805.02, -40805.02, 0.0, 10.000001, 9.942172 
1.095e+3, 3.138706e+2, -39727.01, -82511.21, -0.00042773935, 0.00000018026282, -0.000055140463, -39727.01, -39727.01, 0.0, 10.000001, 9.943684 
1.105e+3, 1.2499335e+2, -1719945.6, -1724224.6, 0.0022961202, 0.00000020759967, 0.000017656934, -1719945.6, -4880.3525, 0.0, 10.000001, 9.994327 
1.105e+3, 1.349876e+2, -1622565.1, -1627434.9, -0.000818642, 0.00000020025028, -0.000068400856, -1622565.1, -5443.5664, 0.0, 10.000001, 9.993545 
1.105e+3, 1.4497514e+2, -1534463.8, -1548146.3, 0.001578097, 0.00000019727526, 0.000070997805, -1534463.8, -15220.07, 0.0, 10.000001, 9.981864 
1.105e+3, 1.5495703e+2, -1436736.0, -1450821.9, -0.000346683, 0.00000019859286, -0.000056947323, -1436736.0, -15314.894, 0.0, 10.000001, 9.981333 
1.105e+3, 1.6493228e+2, -1348685.0, -1371952.3, 0.0032756263, 0.00000019835663, 0.000047359095, -1348685.0, -25021.387, 0.0, 10.000001, 9.969248 
1.105e+3, 1.7490156e+2, -1250727.0, -1274310.1, -0.00056633446, 0.00000019653385, -0.00007379908, -1250727.0, -24762.365, 0.0, 10.000001, 9.968834 
1.105e+3, 1.8486421e+2, -1162646.1, -1195720.0, 0.0034179194, 0.0000001956056, 0.00006617976, -1162646.1, -34315.418, 0.0, 10.000001, 9.956395 
1.105e+3, 1.9482064e+2, -1064496.4, -1097832.9, 0.0006458421, 0.00000019561325, -0.000057630838, -1064496.4, -33738.758, 0.0, 10.000001, 9.956052 
1.105e+3, 2.0477042e+2, -976332.4, -1019435.0, 0.0030731393, 0.00000019336466, 0.000068099245, -976332.4, -43082.504, 0.0, 10.000001, 9.94329 
1.105e+3, 2.1471375e+2, -878045.4, -921409.8, 0.0010635261, 0.00000018867229, -0.00012680564, -878045.4, -42240.086, 0.0, 10.000001, 9.942949 
1.105e+3, 2.2465037e+2, -789759.25, -843144.8, 0.004402669, 0.00000018839073, 0.00012089877, -789759.25, -51332.977, 0.0, 10.000001, 9.929908 
1.105e+3, 2.3458035e+2, -691325.75, -744966.44, 0.0014663411, 0.00000019310262, -0.000088805486, -691325.75, -50213.215, 0.0, 10.000001, 9.929576 
1.105e+3, 2.4450338e+2, -603001.7, -667018.75, 0.004025928, 0.0000001931356, 0.00007472036, -603001.7, -59134.813, 0.0, 10.000001, 9.916136 
1.105e+3, 2.5441962e+2, -504249.03, -568343.25, 0.0007363289, 0.0000001875744, -0.00010672041, -504249.03, -57561.47, 0.0, 10.000001, 9.916036 
1.105e+3, 2.643288e+2, -416013.6, -490987.88, 0.002210186, 0.0000001853635, 0.00014060958, -416013.6, -66435.94, 0.0, 10.000001, 9.901964 
1.105e+3, 2.742313e+2, -316728.38, -391374.75, 0.00016725366, 0.0000001874293, -0.00020343701, -316728.38, -64195.387, 0.0, 10.000001, 9.902385 
1.105e+3, 2.841256e+2, -230255.13, -318081.22, 0.0029679448, 0.00000018861182, 0.00022904735, -230255.13, -74686.16, 0.0, 10.000001, 9.885438 
1.105e+3, 2.940121e+2, -130548.99, -217764.98, -0.00018233464, 0.00000018856547, -0.0002533433, -130548.99, -71867.59, 0.0, 10.000001, 9.886217 
1.105e+3, 3.0392656e+2, -40804.98, -84750.15, 0.00026049066, 0.00000018735167, 0.00017313611, -40804.98, -40804.98, 0.0, 10.000001, 9.942172 
1.105e+3, 3.138706e+2, -39726.965, -82511.2, -0.0035762484, 0.00000018441621, -0.000055139335, -39726.965, -39726.965, 0.0, 10.000001, 9.943684 
1.115e+3, 1.2499335e+2, -1719945.6, -1724224.6, 0.0020142642, 0.00000020831793, 0.000017667151, -1719945.6, -4880.361, 0.0, 10.000001, 9.994327 
1.115e+3, 1.349876e+2, -1622565.1, -1627434.9, -0.0011009107, 0.00000020865487, -0.0000684004, -1622565.1, -5443.5747, 0.0, 10.000001, 9.993545 
1.115e+3, 1.4497514e+2, -1534463.8, -1548146.3, 0.00021123543, 0.00000020791245, 0.000070997856, -1534463.8, -15220.076, 0.0, 10.000001, 9.981864 
1.115e+3, 1.5495703e+2, -1436736.0, -1450821.9, -0.0017153414, 0.00000020597466, -0.00005694177, -1436736.0, -15314.899, 0.0, 10.000001, 9.981333 
1.115e+3, 1.6493228e+2, -1348685.1, -1371952.4, 0.0035744722, 0.00000020338491, 0.000047364876, -1348685.1, -25021.396, 0.0, 10.000001, 9.969248 
1.115e+3, 1.7490156e+2, -1250727.0, -1274310.1, -0.0002587331, 0.00000020012925, -0.00007379845, -1250727.0, -24762.375, 0.0, 10.000001, 9.968834 
1.115e+3, 1.8486421e+2, -1162646.1, -1195720.1, 0.0021357047, 0.00000019951055, 0.000066179666, -1162646.1, -34315.426, 0.0, 10.000001, 9.956395 
1.115e+3, 1.9482064e+2, -1064496.4, -1097832.9, -0.0006548189, 0.00000020165108, -0.000057627003, -1064496.4, -33738.76, 0.0, 10.000001, 9.956052 
1.115e+3, 2.0477042e+2, -976332.4, -1019435.0, 0.003890174, 0.00000020098163, 0.00006810231, -976332.4, -43082.508, 0.0, 10.000001, 9.94329 
1.115e+3, 2.1471375e+2, -878045.4, -921409.9, 0.0019242768, 0.00000019726855, -0.00012680843, -878045.4, -42240.09, 0.0, 10.000001, 9.942949 
1.115e+3, 2.2465037e+2, -789759.25, -843144.9, 0.003668705, 0.00000019523732, 0.000120897064, -789759.25, -51332.984, 0.0, 10.000001, 9.929908 
1.115e+3, 2.3458035e+2, -691325.75, -744966.44, 0.0006801872, 0.00000019511087, -0.00008879822, -691325.75, -50213.22, 0.0, 10.000001, 9.929576 
1.115e+3, 2.4450338e+2, -603001.7, -667018.75, 0.0044486774, 0.00000019511246, 0.000074726464, -603001.7, -59134.82, 0.0, 10.000001, 9.916136 
1.115e+3, 2.5441962e+2, -504249.03, -568343.3, 0.001217175, 0.00000019526482, -0.00010672759, -504249.03, -57561.477, 0.0, 10.000001, 9.916036 
1.115e+3, 2.643288e+2, -416013.63, -490987.88, 0.0026753019, 0.00000019446729, 0.00014059935, -416013.63, -66435.945, 0.0, 10.000001, 9.901964 
1.115e+3, 2.742313e+2, -316728.38, -391374.75, 0.00063131185, 0.00000019246038, -0.00020343724, -316728.38, -64195.39, 0.0, 10.000001, 9.902385 
1.115e+3, 2.841256e+2, -230255.13, -318081.25, 0.0029445093, 0.0000001916747, 0.00022905368, -230255.13, -74686.164, 0.0, 10.000001, 9.885438 
1.115e+3, 2.940121e+2, -130549.0, -217765.0, -0.00024967865, 0.00000019256593, -0.00025333525, -130549.0, -71867.6, 0.0, 10.000001, 9.886217 
1.115e+3, 3.0392656e+2, -40804.99, -84750.164, 0.0021686913, 0.00000019239818, 0.0001731397, -40804.99, -40804.99, 0.0, 10.000001, 9.942172 
1.115e+3, 3.138706e+2, -39726.973, -82511.22, -0.0014360733, 0.00000019064295, -0.000055149445, -39726.973, -39726.973, 0.0, 10.000001, 9.943684 
1.125e+3, 1.2499335e+2, -1719945.5, -1724224.6, 0.003830402, 0.00000021144608, 0.00001766855, -1719945.5, -4880.302, 0.0, 10.000001, 9.994327 
1.125e+3, 1.349876e+2, -1622565.0, -1627434.9, 0.0004497066, 0.00000021666263, -0.00006840187, -1622565.0, -5443.5327, 0.0, 10.000001, 9.993545 
1.125e+3, 1.4497514e+2, -1534463.6, -1548146.3, 0.0028498448, 0.00000021676563, 0.00007099782, -1534463.6, -15220.037, 0.0, 10.000001, 9.981864 
1.125e+3, 1.5495703e+2, -1436736.0, -1450821.9, -0.0011773774, 0.00000021161347, -0.000056939174, -1436736.0, -15314.849, 0.0, 10.000001, 9.981333 
1.125e+3, 1.6493228e+2, -1348685.0, -1371952.3, 0.0033131875, 0.00000020813496, 0.000047367605, -1348685.0, -25021.344, 0.0, 10.000001, 9.969248 
1.125e+3, 1.7490156e+2, -1250727.0, -1274310.1, 0.00085796753, 0.00000020636506, -0.00007379815, -1250727.0, -24762.328, 0.0, 10.000001, 9.968834 
1.125e+3, 1.8486421e+2, -1162646.0, -1195720.0, 0.0032825093, 0.00000020583232, 0.00006617925, -1162646.0, -34315.38, 0.0, 10.000001, 9.956395 
1.125e+3, 1.9482064e+2, -1064496.3, -1097832.9, -0.0003923933, 0.00000020659401, -0.000057626337, -1064496.3, -33738.715, 0.0, 10.000001, 9.956052 
1.125e+3, 2.0477042e+2, -976332.3, -1019435.0, 0.0037126364, 0.00000020614674, 0.00006810379, -976332.3, -43082.457, 0.0, 10.000001, 9.94329 
1.125e+3, 2.1471375e+2, -878045.3, -921409.8, 0.0001932109, 0.00000020438992, -0.00012680642, -878045.3, -42240.047, 0.0, 10.000001, 9.942949 
1.125e+3, 2.2465037e+2, -789759.2, -843144.8, 0.00084630586, 0.00000020232854, 0.00012089917, -789759.2, -51332.94, 0.0, 10.000001, 9.929908 
1.125e+3, 2.3458035e+2, -691325.7, -744966.44, -0.002382622, 0.00000019992282, -0.00008879652, -691325.7, -50213.17, 0.0, 10.000001, 9.929576 
1.125e+3, 2.4450338e+2, -603001.6, -667018.75, 0.0020372814, 0.00000019942968, 0.00007472762, -603001.6, -59134.77, 0.0, 10.000001, 9.916136 
1.125e+3, 2.5441962e+2, -504248.97, -568343.25, 0.00038419172, 0.00000020122121, -0.00010672711, -504248.97, -57561.43, 0.0, 10.000001, 9.916036 
1.125e+3, 2.643288e+2, -416013.56, -490987.88, 0.002452342, 0.00000020105315, 0.0001405997, -416013.56, -66435.9, 0.0, 10.000001, 9.901964 
1.125e+3, 2.742313e+2, -316728.34, -391374.75, -0.0013627285, 0.00000019838569, -0.00020343631, -316728.34, -64195.348, 0.0, 10.000001, 9.902385 
1.125e+3, 2.841256e+2, -230255.08, -318081.22, 0.0000116247675, 0.0000001969285, 0.00022905502, -230255.08, -74686.12, 0.0, 10.000001, 9.885438 
1.125e+3, 2.940121e+2, -130548.945, -217764.98, -0.002532483, 0.00000019713917, -0.0002533337, -130548.945, -71867.555, 0.0, 10.000001, 9.886217 
1.125e+3, 3.0392656e+2, -40804.94, -84750.15, 0.002205017, 0.00000019732464, 0.00017314022, -40804.94, -40804.94, 0.0, 10.000001, 9.942172 
1.125e+3, 3.138706e+2, -39726.934, -82511.2, 0.0023275367, 0.00000019745751, -0.00005515181, -39726.934, -39726.934, 0.0, 10.000001, 9.943684 
1.135e+3, 1.2499335e+2, -1719945.5, -1724224.6, -0.00048617265, 0.0000002169841, 0.000017661127, -1719945.5, -4880.3105, 0.0, 10.000001, 9.994327 
1.135e+3, 1.349876e+2, -1622565.1, -1627434.9, -0.0038682264, 0.00000022427356, -0.000068405265, -1622565.1, -5443.5415, 0.0, 10.000001, 9.993545 
1.135e+3, 1.4497514e+2, -1534463.6, -1548146.3, 0.004138734, 0.00000022383485, 0.000070997696, -1534463.6, -15220.047, 0.0, 10.000001, 9.981864 
1.135e+3, 1.5495703e+2, -1436736.0, -1450821.9, 0.00012032666, 0.00000021550933, -0.00005693953, -1436736.0, -15314.858, 0.0, 10.000001, 9.981333 
1.135e+3, 1.6493228e+2, -1348685.0, -1371952.4, 0.002107911, 0.00000021260676, 0.000047367277, -1348685.0, -25021.35, 0.0, 10.000001, 9.969248 
1.135e+3, 1.7490156e+2, -1250727.0, -1274310.1, -0.00036056986, 0.00000021524122, -0.00007379818, -1250727.0, -24762.334, 0.0, 10.000001, 9.968834 
1.135e+3, 1.8486421e+2, -1162646.0, -1195720.1, 0.0031525742, 0.00000021457086, 0.000066178516, -1162646.0, -34315.387, 0.0, 10.000001, 9.956395 
1.135e+3, 1.9482064e+2, -1064496.3, -1097832.9, -0.0005097566, 0.00000021044204, -0.00005762884, -1064496.3, -33738.723, 0.0, 10.000001, 9.956052 
1.135e+3, 2.0477042e+2, -976332.3, -1019435.0, 0.0030185732, 0.00000020886002, 0.00006810369, -976332.3, -43082.465, 0.0, 10.000001, 9.94329 
1.135e+3, 2.1471375e+2, -878045.3, -921409.9, -0.0005127835, 0.0000002100364, -0.00012679961, -878045.3, -42240.055, 0.0, 10.000001, 9.942949 
1.135e+3, 2.2465037e+2, -789759.2, -843144.9, 0.0014537536, 0.00000020966438, 0.00012090506, -789759.2, -51332.95, 0.0, 10.000001, 9.929908 
1.135e+3, 2.3458035e+2, -691325.7, -744966.44, -0.0017322191, 0.00000020753846, -0.000088800414, -691325.7, -50213.18, 0.0, 10.000001, 9.929576 
1.135e+3, 2.4450338e+2, -603001.6, -667018.75, 0.0016188605, 0.00000020608722, 0.00007472383, -603001.6, -59134.773, 0.0, 10.000001, 9.916136 
1.135e+3, 2.5441962e+2, -504248.97, -568343.3, -0.00008561099, 0.00000020544357, -0.000106718966, -504248.97, -57561.434, 0.0, 10.000001, 9.916036 
1.135e+3, 2.643288e+2, -416013.56, -490987.88, 0.0030415289, 0.0000002051211, 0.00014061065, -416013.56, -66435.91, 0.0, 10.000001, 9.901964 
1.135e+3, 2.742313e+2, -316728.34, -391374.75, -0.0007025358, 0.00000020520524, -0.00020343425, -316728.34, -64195.355, 0.0, 10.000001, 9.902385 
1.135e+3, 2.841256e+2, -230255.1, -318081.22, 0.00084016606, 0.00000020437315, 0.00022905137, -230255.1, -74686.125, 0.0, 10.000001, 9.885438 
1.135e+3, 2.940121e+2, -130548.95, -217765.0, -0.0016887643, 0.00000020228518, -0.00025333872, -130548.95, -71867.56, 0.0, 10.000001, 9.886217 
1.135e+3, 3.0392656e+2, -40804.945, -84750.16, 0.0018934644, 0.00000020213108, 0.00017313761, -40804.945, -40804.945, 0.0, 10.000001, 9.942172 
1.135e+3, 3.138706e+2, -39726.934, -82511.21, 0.0018803892, 0.00000020485992, -0.000055146425, -39726.934, -39726.934, 0.0, 10.000001, 9.943684 
1.145e+3, 1.2499335e+2, -1719945.5, -1724224.6, 0.002194866, 0.0000002282807, 0.000017661767, -1719945.5, -4880.274, 0.0, 10.000001, 9.994327 
1.145e+3, 1.349876e+2, -1622565.0, -1627434.8, -0.0015957514, 0.00000022776928, -0.000068405054, -1622565.0, -5443.4795, 0.0, 10.000001, 9.993545 
1.145e+3, 1.4497514e+2, -1534463.6, -1548146.3, 0.006809917, 0.00000022575036, 0.000070998685, -1534463.6, -15219.981, 0.0, 10.000001, 9.981864 
1.145e+3, 1.5495703e+2, -1436735.9, -1450821.9, 0.0023700718, 0.00000022210348, -0.000056938814, -1436735.9, -15314.809, 0.0, 10.000001, 9.981333 
1.145e+3, 1.6493228e+2, -1348685.0, -1371952.3, 0.0033631078, 0.00000022088975, 0.00004736826, -1348685.0, -25021.305, 0.0, 10.000001, 9.969248 
1.145e+3, 1.7490156e+2, -1250727.0, -1274310.1, -0.00030841108, 0.0000002221604, -0.00007379638, -1250727.0, -24762.285, 0.0, 10.000001, 9.968834 
1.145e+3, 1.8486421e+2, -1162646.0, -1195720.0, 0.00343738, 0.00000022046916, 0.00006618027, -1162646.0, -34315.336, 0.0, 10.000001, 9.956395 
1.145e+3, 1.9482064e+2, -1064496.3, -1097832.9, 0.00024674798, 0.00000021567831, -0.000057628036, -1064496.3, -33738.67, 0.0, 10.000001, 9.956052 
1.145e+3, 2.0477042e+2, -976332.3, -1019435.0, 0.0035433455, 0.00000021427921, 0.00006810404, -976332.3, -43082.418, 0.0, 10.000001, 9.94329 
1.145e+3, 2.1471375e+2, -878045.25, -921409.8, 0.0003253263, 0.00000021655359, -0.00012679918, -878045.25, -42240.004, 0.0, 10.000001, 9.942949 
1.145e+3, 2.2465037e+2, -789759.2, -843144.8, 0.0039803344, 0.00000021641885, 0.00012090526, -789759.2, -51332.9, 0.0, 10.000001, 9.929908 
1.145e+3, 2.3458035e+2, -691325.7, -744966.4, 0.0016629006, 0.00000021355567, -0.000088800814, -691325.7, -50213.133, 0.0, 10.000001, 9.929576 
1.145e+3, 2.4450338e+2, -603001.6, -667018.75, 0.0034116243, 0.00000021176017, 0.00007472371, -603001.6, -59134.727, 0.0, 10.000001, 9.916136 
1.145e+3, 2.5441962e+2, -504248.94, -568343.25, -0.0016655352, 0.00000021124269, -0.00010671777, -504248.94, -57561.387, 0.0, 10.000001, 9.916036 
1.145e+3, 2.643288e+2, -416013.53, -490987.88, 0.0012185448, 0.00000021103672, 0.00014061213, -416013.53, -66435.86, 0.0, 10.000001, 9.901964 
1.145e+3, 2.742313e+2, -316728.3, -391374.75, -0.000054059892, 0.0000002112239, -0.00020343378, -316728.3, -64195.31, 0.0, 10.000001, 9.902385 
1.145e+3, 2.841256e+2, -230255.05, -318081.22, 0.002891668, 0.0000002104446, 0.00022905087, -230255.05, -74686.08, 0.0, 10.000001, 9.885438 
1.145e+3, 2.940121e+2, -130548.91, -217764.98, -0.000034215383, 0.00000020834068, -0.0002533401, -130548.91, -71867.516, 0.0, 10.000001, 9.886217 
1.145e+3, 3.0392656e+2, -40804.9, -84750.14, 0.0008583823, 0.00000020801805, 0.00017313713, -40804.9, -40804.9, 0.0, 10.000001, 9.942172 
1.145e+3, 3.138706e+2, -39726.883, -82511.195, -0.0047528693, 0.0000002103526, -0.000055143308, -39726.883, -39726.883, 0.0, 10.000001, 9.943684 
1.155e+3, 1.2499335e+2, -1719945.5, -1724224.6, 0.003800236, 0.0000002453358, 0.000017670467, -1719945.5, -4880.2837, 0.0, 10.000001, 9.994327 
1.155e+3, 1.349876e+2, -1622565.0, -1627434.9, 0.000009535427, 0.00000022714983, -0.00006840123, -1622565.0, -5443.4893, 0.0, 10.000001, 9.993545 
1.155e+3, 1.4497514e+2, -1534463.6, -1548146.3, 0.0044211666, 0.00000022251224, 0.00007100079, -1534463.6, -15219.992, 0.0, 10.000001, 9.981864 
1.155e+3, 1.5495703e+2, -1436736.0, -1450821.9, -0.000025063748, 0.0000002313959, -0.000056937028, -1436736.0, -15314.82, 0.0, 10.000001, 9.981333 
1.155e+3, 1.6493228e+2, -1348685.0, -1371952.4, 0.0030861576, 0.0000002329839, 0.00004737055, -1348685.0, -25021.313, 0.0, 10.000001, 9.969248 
1.155e+3, 1.7490156e+2, -1250727.0, -1274310.1, -0.0005742304, 0.0000002271226, -0.00007379275, -1250727.0, -24762.293, 0.0, 10.000001, 9.968834 
1.155e+3, 1.8486421e+2, -1162646.0, -1195720.1, 0.0033227638, 0.00000022352725, 0.00006618452, -1162646.0, -34315.344, 0.0, 10.000001, 9.956395 
1.155e+3, 1.9482064e+2, -1064496.3, -1097832.9, 0.0001338544, 0.00000022230279, -0.00005762393, -1064496.3, -33738.68, 0.0, 10.000001, 9.956052 
1.155e+3, 2.0477042e+2, -976332.3, -1019435.0, 0.002741521, 0.0000002224043, 0.00006810483, -976332.3, -43082.42, 0.0, 10.000001, 9.94329 
1.155e+3, 2.1471375e+2, -878045.25, -921409.9, -0.000490751, 0.00000022394144, -0.00012680514, -878045.25, -42240.01, 0.0, 10.000001, 9.942949 
1.155e+3, 2.2465037e+2, -789759.2, -843144.8, 0.0040917755, 0.00000022259198, 0.00012089974, -789759.2, -51332.906, 0.0, 10.000001, 9.929908 
1.155e+3, 2.3458035e+2, -691325.7, -744966.44, 0.0018046631, 0.00000021797447, -0.000088797715, -691325.7, -50213.137, 0.0, 10.000001, 9.929576 
1.155e+3, 2.4450338e+2, -603001.6, -667018.75, 0.003543112, 0.00000021644853, 0.000074727264, -603001.6, -59134.74, 0.0, 10.000001, 9.916136 
1.155e+3, 2.5441962e+2, -504248.94, -568343.3, -0.0015345427, 0.00000021861858, -0.00010672352, -504248.94, -57561.4, 0.0, 10.000001, 9.916036 
1.155e+3, 2.643288e+2, -416013.53, -490987.88, 0.0014347469, 0.00000021880001, 0.00014060416, -416013.53, -66435.86, 0.0, 10.000001, 9.901964 
1.155e+3, 2.742313e+2, -316728.3, -391374.75, 0.00016783374, 0.00000021644172, -0.00020343492, -316728.3, -64195.31, 0.0, 10.000001, 9.902385 
1.155e+3, 2.841256e+2, -230255.05, -318081.22, 0.0032630698, 0.00000021514283, 0.0002290535, -230255.05, -74686.086, 0.0, 10.000001, 9.885438 
1.155e+3, 2.940121e+2, -130548.914, -217765.0, 0.00035066262, 0.00000021530565, -0.0002533379, -130548.914, -71867.52, 0.0, 10.000001, 9.886217 
1.155e+3, 3.0392656e+2, -40804.91, -84750.164, 0.0020322804, 0.00000021498552, 0.00017313875, -40804.91, -40804.91, 0.0, 10.000001, 9.942172 
1.155e+3, 3.138706e+2, -39726.895, -82511.22, -0.0034862987, 0.00000021393559, -0.000055142456, -39726.895, -39726.895, 0.0, 10.000001, 9.943684 
1.165e+3, 1.2499335e+2, -1719945.4, -1724224.6, 0.0010826665, 0.00000025258535, 0.000017674967, -1719945.4, -4880.2246, 0.0, 10.000001, 9.994327 
1.165e+3, 1.349876e+2, -1622565.0, -1627434.8, -0.0025784578, 0.00000023396996, -0.0000683966, -1622565.0, -5443.437, 0.0, 10.000001, 9.993545 
1.165e+3, 1.4497514e+2, -1534463.6, -1548146.3, 0.000107991866, 0.00000022910294, 0.00007100497, -1534463.6, -15219.941, 0.0, 10.000001, 9.981864 
1.165e+3, 1.5495703e+2, -1436735.9, -1450821.9, -0.0026511778, 0.00000023795886, -0.000056935103, -1436735.9, -15314.765, 0.0, 10.000001, 9.981333 
1.165e+3, 1.6493228e+2, -1348684.9, -1371952.3, 0.0024476897, 0.00000023937875, 0.00004737178, -1348684.9, -25021.258, 0.0, 10.000001, 9.969248 
1.165e+3, 1.7490156e+2, -1250726.9, -1274310.1, -0.0014175972, 0.00000023320605, -0.00007379061, -1250726.9, -24762.24, 0.0, 10.000001, 9.968834 
1.165e+3, 1.8486421e+2, -1162646.0, -1195720.0, 0.0026563425, 0.0000002300396, 0.000066186796, -1162646.0, -34315.293, 0.0, 10.000001, 9.956395 
1.165e+3, 1.9482064e+2, -1064496.3, -1097832.9, -0.00046188026, 0.00000023001878, -0.000057622317, -1064496.3, -33738.63, 0.0, 10.000001, 9.956052 
1.165e+3, 2.0477042e+2, -976332.25, -1019435.0, 0.0018691524, 0.0000002298244, 0.000068106005, -976332.25, -43082.375, 0.0, 10.000001, 9.94329 
1.165e+3, 2.1471375e+2, -878045.25, -921409.8, -0.001383727, 0.00000022944158, -0.00012680417, -878045.25, -42239.96, 0.0, 10.000001, 9.942949 
1.165e+3, 2.2465037e+2, -789759.1, -843144.8, 0.0028945825, 0.00000022783036, 0.00012090121, -789759.1, -51332.85, 0.0, 10.000001, 9.929908 
1.165e+3, 2.3458035e+2, -691325.6, -744966.4, -0.0017450029, 0.00000022482861, -0.000088794994, -691325.6, -50213.086, 0.0, 10.000001, 9.929576 
1.165e+3, 2.4450338e+2, -603001.56, -667018.75, 0.00042056298, 0.00000022371724, 0.00007472944, -603001.56, -59134.684, 0.0, 10.000001, 9.916136 
1.165e+3, 2.5441962e+2, -504248.9, -568343.25, -0.00013586604, 0.00000022486505, -0.000106724045, -504248.9, -57561.348, 0.0, 10.000001, 9.916036 
1.165e+3, 2.643288e+2, -416013.47, -490987.84, 0.004054128, 0.00000022459525, 0.00014060296, -416013.47, -66435.81, 0.0, 10.000001, 9.901964 
1.165e+3, 2.742313e+2, -316728.25, -391374.75, -0.0012074787, 0.00000022251578, -0.00020343423, -316728.25, -64195.26, 0.0, 10.000001, 9.902385 
1.165e+3, 2.841256e+2, -230255.0, -318081.22, -0.000106547915, 0.00000022147213, 0.00022905534, -230255.0, -74686.03, 0.0, 10.000001, 9.885438 
1.165e+3, 2.940121e+2, -130548.87, -217764.98, -0.0026830472, 0.00000022185453, -0.00025333595, -130548.87, -71867.47, 0.0, 10.000001, 9.886217 
1.165e+3, 3.0392656e+2, -40804.86, -84750.16, 0.0016433225, 0.00000022133861, 0.00017313939, -40804.86, -40804.86, 0.0, 10.000001, 9.942172 
1.165e+3, 3.138706e+2, -39726.848, -82511.2, 0.0016291852, 0.00000021947658, -0.00005514523, -39726.848, -39726.848, 0.0, 10.000001, 9.943684 
1.175e+3, 1.2499335e+2, -1719945.5, -1724224.6, 0.0010965507, 0.00000025002944, 0.00001767527, -1719945.5, -4880.2344, 0.0, 10.000001, 9.994327 
1.175e+3, 1.349876e+2, -1622565.0, -1627434.9, -0.0025650708, 0.0000002482296, -0.00006839116, -1622565.0, -5443.447, 0.0, 10.000001, 9.993545 
1.175e+3, 1.4497514e+2, -1534463.6, -1548146.3, -0.0011362447, 0.0000002455224, 0.000071011236, -1534463.6, -15219.949, 0.0, 10.000001, 9.981864 
1.175e+3, 1.5495703e+2, -1436735.9, -1450821.9, -0.003897484, 0.00000024179235, -0.000056933048, -1436735.9, -15314.771, 0.0, 10.000001, 9.981333 
1.175e+3, 1.6493228e+2, -1348684.9, -1371952.4, 0.001558295, 0.0000002400744, 0.00004737195, -1348684.9, -25021.266, 0.0, 10.000001, 9.969248 
1.175e+3, 1.7490156e+2, -1250726.9, -1274310.1, -0.0023051426, 0.0000002404107, -0.00007378997, -1250726.9, -24762.25, 0.0, 10.000001, 9.968834 
1.175e+3, 1.8486421e+2, -1162646.0, -1195720.1, 0.0021232814, 0.0000002400062, 0.000066187094, -1162646.0, -34315.3, 0.0, 10.000001, 9.956395 
1.175e+3, 1.9482064e+2, -1064496.3, -1097832.9, -0.000990867, 0.00000023882626, -0.000057623212, -1064496.3, -33738.637, 0.0, 10.000001, 9.956052 
1.175e+3, 2.0477042e+2, -976332.25, -1019435.0, 0.0014202269, 0.00000023653952, 0.00006810755, -976332.25, -43082.383, 0.0, 10.000001, 9.94329 
1.175e+3, 2.1471375e+2, -878045.25, -921409.9, -0.0018310205, 0.000000233054, -0.00012679625, -878045.25, -42239.97, 0.0, 10.000001, 9.942949 
1.175e+3, 2.2465037e+2, -789759.1, -843144.9, 0.0031596883, 0.00000023213397, 0.00012090965, -789759.1, -51332.863, 0.0, 10.000001, 9.929908 
1.175e+3, 2.3458035e+2, -691325.6, -744966.44, -0.0014565986, 0.00000023411808, -0.00008879265, -691325.6, -50213.098, 0.0, 10.000001, 9.929576 
1.175e+3, 2.4450338e+2, -603001.56, -667018.75, 0.000057116522, 0.00000023356624, 0.00007473024, -603001.56, -59134.688, 0.0, 10.000001, 9.916136 
1.175e+3, 2.5441962e+2, -504248.9, -568343.25, -0.00053067674, 0.0000002299821, -0.000106719344, -504248.9, -57561.348, 0.0, 10.000001, 9.916036 
1.175e+3, 2.643288e+2, -416013.5, -490987.88, 0.0044443468, 0.00000022842246, 0.0001406085, -416013.5, -66435.83, 0.0, 10.000001, 9.901964 
1.175e+3, 2.742313e+2, -316728.28, -391374.75, -0.00076463073, 0.00000022944609, -0.00020343171, -316728.28, -64195.273, 0.0, 10.000001, 9.902385 
1.175e+3, 2.841256e+2, -230255.0, -318081.22, 0.00062799663, 0.00000022943253, 0.00022905637, -230255.0, -74686.04, 0.0, 10.000001, 9.885438 
1.175e+3, 2.940121e+2, -130548.87, -217765.0, -0.0019222272, 0.00000022798736, -0.00025333426, -130548.87, -71867.48, 0.0, 10.000001, 9.886217 
1.175e+3, 3.0392656e+2, -40804.863, -84750.16, 0.0020190827, 0.0000002270773, 0.00017313905, -40804.863, -40804.863, 0.0, 10.000001, 9.942172 
1.175e+3, 3.138706e+2, -39726.85, -82511.21, 0.0019597579, 0.00000022697554, -0.00005515162, -39726.85, -39726.85, 0.0, 10.000001, 9.943684 
1.185e+3, 1.2499335e+2, -1719945.4, -1724224.6, 0.005474215, 0.00000025402926, 0.00001767652, -1719945.4, -4880.167, 0.0, 10.000001, 9.994327 
1.185e+3, 1.349876e+2, -1622564.9, -1627434.8, 0.001151357, 0.00000025731632, -0.0000683898, -1622564.9, -5443.392, 0.0, 10.000001, 9.993545 
1.185e+3, 1.4497514e+2, -1534463.5, -1548146.3, 0.0025138222, 0.00000025577782, 0.000071012655, -1534463.5, -15219.897, 0.0, 10.000001, 9.981864 
1.185e+3, 1.5495703e+2, -1436735.9, -1450821.9, -0.0011937134, 0.00000024927533, -0.000056931643, -1436735.9, -15314.716, 0.0, 10.000001, 9.981333 
1.185e+3, 1.6493228e+2, -1348684.9, -1371952.3, 0.0038650506, 0.00000024621116, 0.000047372992, -1348684.9, -25021.209, 0.0, 10.000001, 9.969248 
1.185e+3, 1.7490156e+2, -1250726.9, -1274310.1, 0.00022867156, 0.00000024665752, -0.00007378963, -1250726.9, -24762.191, 0.0, 10.000001, 9.968834 
1.185e+3, 1.8486421e+2, -1162645.9, -1195720.0, 0.0040924796, 0.00000024686227, 0.000066187444, -1162645.9, -34315.242, 0.0, 10.000001, 9.956395 
1.185e+3, 1.9482064e+2, -1064496.1, -1097832.9, -0.000086732085, 0.00000024681398, -0.000057622095, -1064496.1, -33738.582, 0.0, 10.000001, 9.956052 
1.185e+3, 2.0477042e+2, -976332.2, -1019434.94, 0.002618934, 0.00000024410636, 0.00006810914, -976332.2, -43082.33, 0.0, 10.000001, 9.94329 
1.185e+3, 2.1471375e+2, -878045.2, -921409.8, -0.001625812, 0.00000023851854, -0.0001267945, -878045.2, -42239.906, 0.0, 10.000001, 9.942949 
1.185e+3, 2.2465037e+2, -789759.06, -843144.8, 0.0026733233, 0.0000002375773, 0.00012091064, -789759.06, -51332.805, 0.0, 10.000001, 9.929908 
1.185e+3, 2.3458035e+2, -691325.56, -744966.4, 0.0006950202, 0.0000002418965, -0.00008879346, -691325.56, -50213.047, 0.0, 10.000001, 9.929576 
1.185e+3, 2.4450338e+2, -603001.5, -667018.75, 0.0028334784, 0.0000002417485, 0.000074729855, -603001.5, -59134.64, 0.0, 10.000001, 9.916136 
1.185e+3, 2.5441962e+2, -504248.84, -568343.25, -0.0032313704, 0.00000023625894, -0.00010671667, -504248.84, -57561.293, 0.0, 10.000001, 9.916036 
1.185e+3, 2.643288e+2, -416013.44, -490987.84, -0.00028936486, 0.00000023397423, 0.00014061166, -416013.44, -66435.766, 0.0, 10.000001, 9.901964 
1.185e+3, 2.742313e+2, -316728.22, -391374.75, -0.001389373, 0.00000023578039, -0.0002034314, -316728.22, -64195.22, 0.0, 10.000001, 9.902385 
1.185e+3, 2.841256e+2, -230254.95, -318081.22, 0.0023545907, 0.00000023632087, 0.00022905547, -230254.95, -74685.99, 0.0, 10.000001, 9.885438 
1.185e+3, 2.940121e+2, -130548.82, -217764.98, -0.001317037, 0.00000023510995, -0.00025333415, -130548.82, -71867.43, 0.0, 10.000001, 9.886217 
1.185e+3, 3.0392656e+2, -40804.813, -84750.14, 0.00062580075, 0.00000023398677, 0.00017314026, -40804.813, -40804.813, 0.0, 10.000001, 9.942172 
1.185e+3, 3.138706e+2, -39726.797, -82511.195, -0.0042376043, 0.00000023301064, -0.00005514923, -39726.797, -39726.797, 0.0, 10.000001, 9.943684 
1.195e+3, 1.2499335e+2, -1719945.4, -1724224.6, 0.0025178303, 0.00000026458474, 0.000017678725, -1719945.4, -4880.178, 0.0, 10.000001, 9.994327 
1.195e+3, 1.349876e+2, -1622564.9, -1627434.9, -0.0018063262, 0.00000026123016, -0.00006839254, -1622564.9, -5443.4033, 0.0, 10.000001, 9.993545 
1.195e+3, 1.4497514e+2, -1534463.5, -1548146.3, 0.0022663642, 0.00000025986935, 0.00007100924, -1534463.5, -15219.906, 0.0, 10.000001, 9.981864 
1.195e+3, 1.5495703e+2, -1436735.9, -1450821.9, -0.0014369301, 0.00000026040775, -0.000056930894, -1436735.9, -15314.725, 0.0, 10.000001, 9.981333 
1.195e+3, 1.6493228e+2, -1348684.9, -1371952.4, 0.0031895412, 0.00000025778903, 0.000047374913, -1348684.9, -25021.219, 0.0, 10.000001, 9.969248 
1.195e+3, 1.7490156e+2, -1250726.9, -1274310.1, -0.0004491552, 0.0000002519465, -0.00007378959, -1250726.9, -24762.201, 0.0, 10.000001, 9.968834 
1.195e+3, 1.8486421e+2, -1162645.9, -1195720.1, 0.0027206524, 0.00000025060788, 0.00006618785, -1162645.9, -34315.254, 0.0, 10.000001, 9.956395 
1.195e+3, 1.9482064e+2, -1064496.1, -1097832.9, -0.0014666122, 0.00000025398197, -0.00005761897, -1064496.1, -33738.594, 0.0, 10.000001, 9.956052 
1.195e+3, 2.0477042e+2, -976332.2, -1019435.0, 0.0038274075, 0.00000025252493, 0.00006811077, -976332.2, -43082.336, 0.0, 10.000001, 9.94329 
1.195e+3, 2.1471375e+2, -878045.2, -921409.8, -0.0003638892, 0.00000024583514, -0.00012679893, -878045.2, -42239.918, 0.0, 10.000001, 9.942949 
1.195e+3, 2.2465037e+2, -789759.06, -843144.8, 0.00041009826, 0.0000002441603, 0.00012090417, -789759.06, -51332.81, 0.0, 10.000001, 9.929908 
1.195e+3, 2.3458035e+2, -691325.56, -744966.44, -0.0016835623, 0.00000024816384, -0.00008879742, -691325.56, -50213.05, 0.0, 10.000001, 9.929576 
1.195e+3, 2.4450338e+2, -603001.5, -667018.75, 0.004472476, 0.00000024826403, 0.00007472827, -603001.5, -59134.652, 0.0, 10.000001, 9.916136 
1.195e+3, 2.5441962e+2, -504248.84, -568343.3, -0.0013993166, 0.00000024369552, -0.00010671602, -504248.84, -57561.305, 0.0, 10.000001, 9.916036 
1.195e+3, 2.643288e+2, -416013.44, -490987.88, -0.00069631764, 0.00000024125055, 0.0001406124, -416013.44, -66435.77, 0.0, 10.000001, 9.901964 
1.195e+3, 2.742313e+2, -316728.22, -391374.75, -0.0019464777, 0.0000002415187, -0.00020343329, -316728.22, -64195.223, 0.0, 10.000001, 9.902385 
1.195e+3, 2.841256e+2, -230254.97, -318081.22, 0.0023490945, 0.0000002421372, 0.00022905265, -230254.97, -74686.0, 0.0, 10.000001, 9.885438 
1.195e+3, 2.940121e+2, -130548.83, -217765.0, -0.0012728428, 0.00000024322233, -0.0002533356, -130548.83, -71867.44, 0.0, 10.000001, 9.886217 
1.195e+3, 3.0392656e+2, -40804.824, -84750.164, 0.0023879288, 0.00000024206702, 0.00017314302, -40804.824, -40804.824, 0.0, 10.000001, 9.942172 
1.195e+3, 3.138706e+2, -39726.805, -82511.21, -0.002273767, 0.00000023758187, -0.000055138054, -39726.805, -39726.805, 0.0, 10.000001, 9.943684 
1.205e+3, 1.2499335e+2, -1719945.4, -1724224.6, 0.0025014798, 0.00000027195705, 0.000017680102, -1719945.4, -4880.1187, 0.0, 10.000001, 9.994327 
1.205e+3, 1.349876e+2, -1622564.9, -1627434.8, -0.0017735889, 0.0000002690374, -0.00006839172, -1622564.9, -5443.3394, 0.0, 10.000001, 9.993545 
1.205e+3, 1.4497514e+2, -1534463.5, -1548146.3, 0.003589627, 0.00000026764874, 0.00007100983, -1534463.5, -15219.842, 0.0, 10.000001, 9.981864 
1.205e+3, 1.5495703e+2, -1436735.8, -1450821.9, -0.00088172936, 0.00000026769555, -0.000056928973, -1436735.8, -15314.665, 0.0, 10.000001, 9.981333 
1.205e+3, 1.6493228e+2, -1348684.9, -1371952.3, 0.0032051986, 0.00000026525157, 0.000047377373, -1348684.9, -25021.16, 0.0, 10.000001, 9.969248 
1.205e+3, 1.7490156e+2, -1250726.8, -1274310.1, -0.001090543, 0.0000002602641, -0.000073787414, -1250726.8, -24762.143, 0.0, 10.000001, 9.968834 
1.205e+3, 1.8486421e+2, -1162645.9, -1195720.0, 0.0015383316, 0.00000025820697, 0.00006618977, -1162645.9, -34315.19, 0.0, 10.000001, 9.956395 
1.205e+3, 1.9482064e+2, -1064496.1, -1097832.9, -0.0024778256, 0.0000002592159, -0.000057617275, -1064496.1, -33738.527, 0.0, 10.000001, 9.956052 
1.205e+3, 2.0477042e+2, -976332.1, -1019434.94, 0.004206161, 0.00000025839572, 0.00006811205, -976332.1, -43082.277, 0.0, 10.000001, 9.94329 
1.205e+3, 2.1471375e+2, -878045.1, -921409.8, 0.0015172466, 0.00000025559413, -0.00012679826, -878045.1, -42239.867, 0.0, 10.000001, 9.942949 
1.205e+3, 2.2465037e+2, -789759.0, -843144.8, 0.0015529176, 0.0000002537711, 0.00012090495, -789759.0, -51332.758, 0.0, 10.000001, 9.929908 
1.205e+3, 2.3458035e+2, -691325.5, -744966.4, -0.003825698, 0.00000025305636, -0.000088795714, -691325.5, -50212.984, 0.0, 10.000001, 9.929576 
1.205e+3, 2.4450338e+2, -603001.44, -667018.75, 0.0027647116, 0.0000002523707, 0.00007472972, -603001.44, -59134.586, 0.0, 10.000001, 9.916136 
1.205e+3, 2.5441962e+2, -504248.8, -568343.25, 0.0012564331, 0.0000002517183, -0.0001067162, -504248.8, -57561.254, 0.0, 10.000001, 9.916036 
1.205e+3, 2.643288e+2, -416013.4, -490987.84, 0.0029959115, 0.00000025048598, 0.00014061181, -416013.4, -66435.72, 0.0, 10.000001, 9.901964 
1.205e+3, 2.742313e+2, -316728.16, -391374.75, -0.0020905097, 0.00000024851533, -0.00020343273, -316728.16, -64195.168, 0.0, 10.000001, 9.902385 
1.205e+3, 2.841256e+2, -230254.9, -318081.22, 0.00015006812, 0.00000024789483, 0.00022905377, -230254.9, -74685.94, 0.0, 10.000001, 9.885438 
1.205e+3, 2.940121e+2, -130548.77, -217764.98, -0.0032917548, 0.00000024912546, -0.0002533347, -130548.77, -71867.375, 0.0, 10.000001, 9.886217 
1.205e+3, 3.0392656e+2, -40804.766, -84750.15, 0.002048625, 0.00000024858755, 0.00017314333, -40804.766, -40804.766, 0.0, 10.000001, 9.942172 
1.205e+3, 3.138706e+2, -39726.758, -82511.2, 0.00056048244, 0.0000002454077, -0.00005513884, -39726.758, -39726.758, 0.0, 10.000001, 9.943684 
1.215e+3, 1.2499335e+2, -1719945.4, -1724224.6, 0.0006391929, 0.00000027614618, 0.000017680655, -1719945.4, -4880.13, 0.0, 10.000001, 9.994327 
1.215e+3, 1.349876e+2, -1622564.9, -1627434.9, -0.0036370065, 0.000000280738, -0.00006838733, -1622564.9, -5443.3506, 0.0, 10.000001, 9.993545 
1.215e+3, 1.4497514e+2, -1534463.5, -1548146.3, 0.0023037575, 0.00000027911597, 0.000071014416, -1534463.5, -15219.854, 0.0, 10.000001, 9.981864 
1.215e+3, 1.5495703e+2, -1436735.8, -1450821.9, -0.0021667276, 0.0000002711388, -0.000056925874, -1436735.8, -15314.676, 0.0, 10.000001, 9.981333 
1.215e+3, 1.6493228e+2, -1348684.9, -1371952.4, 0.0026987742, 0.00000026859882, 0.00004738037, -1348684.9, -25021.172, 0.0, 10.000001, 9.969248 
1.215e+3, 1.7490156e+2, -1250726.9, -1274310.1, -0.0015928724, 0.00000027161033, -0.00007378309, -1250726.9, -24762.152, 0.0, 10.000001, 9.968834 
1.215e+3, 1.8486421e+2, -1162645.9, -1195720.0, 0.001152417, 0.00000026965955, 0.00006619321, -1162645.9, -34315.203, 0.0, 10.000001, 9.956395 
1.215e+3, 1.9482064e+2, -1064496.1, -1097832.9, -0.002862409, 0.00000026251587, -0.000057617013, -1064496.1, -33738.54, 0.0, 10.000001, 9.956052 
1.215e+3, 2.0477042e+2, -976332.1, -1019435.0, 0.0024011072, 0.00000026171872, 0.00006811298, -976332.1, -43082.28, 0.0, 10.000001, 9.94329 
1.215e+3, 2.1471375e+2, -878045.1, -921409.8, -0.00031716697, 0.00000026779543, -0.00012679248, -878045.1, -42239.875, 0.0, 10.000001, 9.942949 
1.215e+3, 2.2465037e+2, -789759.0, -843144.9, 0.0032503665, 0.00000026640961, 0.00012091297, -789759.0, -51332.77, 0.0, 10.000001, 9.929907 
1.215e+3, 2.3458035e+2, -691325.5, -744966.44, -0.0020127164, 0.00000025657408, -0.00008878836, -691325.5, -50212.996, 0.0, 10.000001, 9.929576 
1.215e+3, 2.4450338e+2, -603001.44, -667018.75, 0.0010615131, 0.00000025406857, 0.00007473421, -603001.44, -59134.59, 0.0, 10.000001, 9.916136 
1.215e+3, 2.5441962e+2, -504248.8, -568343.25, -0.00061578094, 0.00000026032723, -0.00010671722, -504248.8, -57561.258, 0.0, 10.000001, 9.916036 
1.215e+3, 2.643288e+2, -416013.4, -490987.88, 0.0039168075, 0.00000026168055, 0.00014060987, -416013.4, -66435.734, 0.0, 10.000001, 9.901964 
1.215e+3, 2.742313e+2, -316728.2, -391374.75, -0.0009823769, 0.00000025677022, -0.00020342974, -316728.2, -64195.176, 0.0, 10.000001, 9.902385 
1.215e+3, 2.841256e+2, -230254.9, -318081.22, 0.0009442985, 0.0000002535938, 0.00022905883, -230254.9, -74685.945, 0.0, 10.000001, 9.885438 
1.215e+3, 2.940121e+2, -130548.78, -217765.0, -0.0025258379, 0.00000025281943, -0.00025333147, -130548.78, -71867.38, 0.0, 10.000001, 9.886217 
1.215e+3, 3.0392656e+2, -40804.77, -84750.16, 0.0016558501, 0.00000025354842, 0.00017314119, -40804.77, -40804.77, 0.0, 10.000001, 9.942172 
1.215e+3, 3.138706e+2, -39726.76, -82511.21, 0.0000316871, 0.00000025648808, -0.000055151588, -39726.76, -39726.76, 0.0, 10.000001, 9.943684 
1.225e+3, 1.2499335e+2, -1719945.3, -1724224.6, 0.003936504, 0.00000028595736, 0.00001768243, -1719945.3, -4880.065, 0.0, 10.000001, 9.994327 
1.225e+3, 1.349876e+2, -1622564.8, -1627434.8, -0.00063426944, 0.0000002882994, -0.00006838593, -1622564.8, -5443.286, 0.0, 10.000001, 9.993545 
1.225e+3, 1.4497514e+2, -1534463.4, -1548146.3, 0.005852447, 0.00000028563537, 0.00007101491, -1534463.4, -15219.788, 0.0, 10.000001, 9.981864 
1.225e+3, 1.5495703e+2, -1436735.8, -1450821.9, 0.00026983867, 0.00000027783366, -0.00005692406, -1436735.8, -15314.606, 0.0, 10.000001, 9.981333 
1.225e+3, 1.6493228e+2, -1348684.8, -1371952.3, 0.0039182687, 0.00000027591176, 0.000047382593, -1348684.8, -25021.102, 0.0, 10.000001, 9.969248 
1.225e+3, 1.7490156e+2, -1250726.8, -1274310.1, -0.00034330785, 0.0000002799933, -0.000073781404, -1250726.8, -24762.09, 0.0, 10.000001, 9.968834 
1.225e+3, 1.8486421e+2, -1162645.8, -1195720.0, 0.003546266, 0.00000027815446, 0.00006619447, -1162645.8, -34315.145, 0.0, 10.000001, 9.956395 
1.225e+3, 1.9482064e+2, -1064496.0, -1097832.9, -0.00055304565, 0.00000027012018, -0.000057616086, -1064496.0, -33738.477, 0.0, 10.000001, 9.956052 
1.225e+3, 2.0477042e+2, -976332.06, -1019434.94, 0.0021643848, 0.00000026879349, 0.000068114234, -976332.06, -43082.22, 0.0, 10.000001, 9.94329 
1.225e+3, 2.1471375e+2, -878045.06, -921409.8, -0.0036416803, 0.0000002747317, -0.00012679021, -878045.06, -42239.81, 0.0, 10.000001, 9.942949 
1.225e+3, 2.2465037e+2, -789758.94, -843144.8, 0.0013666325, 0.00000027373062, 0.00012091529, -789758.94, -51332.707, 0.0, 10.000001, 9.929907 
1.225e+3, 2.3458035e+2, -691325.44, -744966.4, -0.0007828253, 0.0000002648719, -0.00008878713, -691325.44, -50212.94, 0.0, 10.000001, 9.929576 
1.225e+3, 2.4450338e+2, -603001.44, -667018.75, 0.001257206, 0.000000262329, 0.00007473512, -603001.44, -59134.54, 0.0, 10.000001, 9.916136 
1.225e+3, 2.5441962e+2, -504248.75, -568343.25, -0.004157128, 0.00000026733824, -0.000106715706, -504248.75, -57561.195, 0.0, 10.000001, 9.916036 
1.225e+3, 2.643288e+2, -416013.34, -490987.84, 0.00045872084, 0.00000026827203, 0.00014061146, -416013.34, -66435.664, 0.0, 10.000001, 9.901964 
1.225e+3, 2.742313e+2, -316728.13, -391374.75, -0.0018635436, 0.00000026400116, -0.00020342872, -316728.13, -64195.117, 0.0, 10.000001, 9.902385 
1.225e+3, 2.841256e+2, -230254.86, -318081.22, 0.0015399063, 0.00000026126546, 0.0002290594, -230254.86, -74685.89, 0.0, 10.000001, 9.885438 
1.225e+3, 2.940121e+2, -130548.73, -217764.98, -0.001743579, 0.00000026065482, -0.00025333124, -130548.73, -71867.33, 0.0, 10.000001, 9.886217 
1.225e+3, 3.0392656e+2, -40804.715, -84750.14, 0.0016310288, 0.00000026112204, 0.00017314123, -40804.715, -40804.715, 0.0, 10.000001, 9.942172 
1.225e+3, 3.138706e+2, -39726.7, -82511.195, -0.0021825673, 0.00000026317082, -0.000055151497, -39726.7, -39726.7, 0.0, 10.000001, 9.943684 
1.235e+3, 1.2499335e+2, -1719945.3, -1724224.6, 0.0019028048, 0.00000030139046, 0.000017685426, -1719945.3, -4880.0767, 0.0, 10.000001, 9.994327 
1.235e+3, 1.349876e+2, -1622564.8, -1627434.9, -0.0026691498, 0.00000029172165, -0.00006838753, -1622564.8, -5443.298, 0.0, 10.000001, 9.993545 
1.235e+3, 1.4497514e+2, -1534463.4, -1548146.3, 0.005715463, 0.00000028720694, 0.0000710113, -1534463.4, -15219.803, 0.0, 10.000001, 9.981864 
1.235e+3, 1.5495703e+2, -1436735.8, -1450821.9, 0.00013585849, 0.00000028778015, -0.000056923524, -1436735.8, -15314.62, 0.0, 10.000001, 9.981333 
1.235e+3, 1.6493228e+2, -1348684.8, -1371952.3, 0.0016520562, 0.00000028719037, 0.00004738404, -1348684.8, -25021.111, 0.0, 10.000001, 9.969248 
1.235e+3, 1.7490156e+2, -1250726.8, -1274310.1, -0.002620788, 0.00000028541305, -0.00007378234, -1250726.8, -24762.1, 0.0, 10.000001, 9.968834 
1.235e+3, 1.8486421e+2, -1162645.8, -1195720.0, 0.0034894075, 0.00000028369172, 0.00006619354, -1162645.8, -34315.152, 0.0, 10.000001, 9.956395 
1.235e+3, 1.9482064e+2, -1064496.1, -1097832.9, -0.00058419094, 0.00000028202882, -0.000057614496, -1064496.1, -33738.49, 0.0, 10.000001, 9.956052 
1.235e+3, 2.0477042e+2, -976332.1, -1019435.0, 0.0014950772, 0.00000027961997, 0.000068115805, -976332.1, -43082.234, 0.0, 10.000001, 9.94329 
1.235e+3, 2.1471375e+2, -878045.06, -921409.8, -0.00432416, 0.00000027640297, -0.0001267914, -878045.06, -42239.82, 0.0, 10.000001, 9.942949 
1.235e+3, 2.2465037e+2, -789759.0, -843144.8, 0.000439579, 0.00000027573412, 0.000120911915, -789759.0, -51332.71, 0.0, 10.000001, 9.929907 
1.235e+3, 2.3458035e+2, -691325.5, -744966.44, -0.00171791, 0.00000027794974, -0.000088792025, -691325.5, -50212.95, 0.0, 10.000001, 9.929576 
1.235e+3, 2.4450338e+2, -603001.44, -667018.75, 0.0017829018, 0.00000027715188, 0.00007473246, -603001.44, -59134.547, 0.0, 10.000001, 9.916136 
1.235e+3, 2.5441962e+2, -504248.75, -568343.3, -0.0035612723, 0.0000002727513, -0.00010671167, -504248.75, -57561.207, 0.0, 10.000001, 9.916036 
1.235e+3, 2.643288e+2, -416013.34, -490987.88, 0.00038881713, 0.00000027026044, 0.0001406166, -416013.34, -66435.67, 0.0, 10.000001, 9.901964 
1.235e+3, 2.742313e+2, -316728.13, -391374.75, -0.0019781333, 0.00000027020812, -0.00020342965, -316728.13, -64195.12, 0.0, 10.000001, 9.902385 
1.235e+3, 2.841256e+2, -230254.86, -318081.22, 0.0016212688, 0.00000027090974, 0.00022905544, -230254.86, -74685.9, 0.0, 10.000001, 9.885438 
1.235e+3, 2.940121e+2, -130548.734, -217765.0, -0.0016446039, 0.00000027263158, -0.00025333403, -130548.734, -71867.336, 0.0, 10.000001, 9.886217 
1.235e+3, 3.0392656e+2, -40804.727, -84750.16, 0.0028253484, 0.00000027130835, 0.00017314347, -40804.727, -40804.727, 0.0, 10.000001, 9.942172 
1.235e+3, 3.138706e+2, -39726.71, -82511.21, -0.0008596646, 0.0000002654559, -0.000055138567, -39726.71, -39726.71, 0.0, 10.000001, 9.943684 
1.245e+3, 1.2499335e+2, -1719945.3, -1724224.6, 0.00068645296, 0.00000031232267, 0.00001768865, -1719945.3, -4880.0156, 0.0, 10.000001, 9.994327 
1.245e+3, 1.349876e+2, -1622564.8, -1627434.8, -0.004338928, 0.0000002982764, -0.0000683818, -1622564.8, -5443.221, 0.0, 10.000001, 9.993545 
1.245e+3, 1.4497514e+2, -1534463.4, -1548146.3, 0.0031029338, 0.0000002931929, 0.00007101524, -1534463.4, -15219.725, 0.0, 10.000001, 9.981864 
1.245e+3, 1.5495703e+2, -1436735.6, -1450821.9, -0.00083969405, 0.0000002970324, -0.000056921304, -1436735.6, -15314.557, 0.0, 10.000001, 9.981333 
1.245e+3, 1.6493228e+2, -1348684.8, -1371952.3, 0.0017098996, 0.00000029690852, 0.000047385634, -1348684.8, -25021.05, 0.0, 10.000001, 9.969248 
1.245e+3, 1.7490156e+2, -1250726.8, -1274310.1, -0.003101957, 0.00000029273775, -0.00007378025, -1250726.8, -24762.031, 0.0, 10.000001, 9.968834 
1.245e+3, 1.8486421e+2, -1162645.8, -1195720.0, 0.0029952778, 0.00000029068244, 0.00006619592, -1162645.8, -34315.082, 0.0, 10.000001, 9.956395 
1.245e+3, 1.9482064e+2, -1064496.0, -1097832.9, -0.0016466111, 0.0000002908406, -0.00005761205, -1064496.0, -33738.42, 0.0, 10.000001, 9.956052 
1.245e+3, 2.0477042e+2, -976332.06, -1019434.94, 0.0017728704, 0.00000028867032, 0.000068117515, -976332.06, -43082.168, 0.0, 10.000001, 9.94329 
1.245e+3, 2.1471375e+2, -878045.0, -921409.8, -0.00062203914, 0.00000028397787, -0.00012679129, -878045.0, -42239.758, 0.0, 10.000001, 9.942949 
1.245e+3, 2.2465037e+2, -789758.9, -843144.8, 0.004387129, 0.00000028290663, 0.00012091177, -789758.9, -51332.65, 0.0, 10.000001, 9.929907 
1.245e+3, 2.3458035e+2, -691325.4, -744966.4, -0.0016605648, 0.00000028593516, -0.00008879092, -691325.4, -50212.883, 0.0, 10.000001, 9.929576 
1.245e+3, 2.4450338e+2, -603001.4, -667018.75, 0.0013305283, 0.0000002853833, 0.00007473388, -603001.4, -59134.48, 0.0, 10.000001, 9.916136 
1.245e+3, 2.5441962e+2, -504248.7, -568343.25, -0.0014000693, 0.00000028055027, -0.000106711064, -504248.7, -57561.145, 0.0, 10.000001, 9.916036 
1.245e+3, 2.643288e+2, -416013.28, -490987.84, 0.0029992058, 0.00000027793723, 0.0001406169, -416013.28, -66435.61, 0.0, 10.000001, 9.901964 
1.245e+3, 2.742313e+2, -316728.06, -391374.72, -0.0016883607, 0.00000027815926, -0.00020342901, -316728.06, -64195.063, 0.0, 10.000001, 9.902385 
1.245e+3, 2.841256e+2, -230254.8, -318081.22, 0.00073123805, 0.000000278851, 0.00022905617, -230254.8, -74685.836, 0.0, 10.000001, 9.885438 
1.245e+3, 2.940121e+2, -130548.664, -217764.98, -0.0032395339, 0.00000028017203, -0.0002533336, -130548.664, -71867.27, 0.0, 10.000001, 9.886217 
1.245e+3, 3.0392656e+2, -40804.66, -84750.14, 0.0010301109, 0.00000027872693, 0.00017314398, -40804.66, -40804.66, 0.0, 10.000001, 9.942172 
1.245e+3, 3.138706e+2, -39726.652, -82511.195, -0.00227803, 0.00000027317043, -0.000055137494, -39726.652, -39726.652, 0.0, 10.000001, 9.943684 
1.255e+3, 1.2499335e+2, -1719945.3, -1724224.6, 0.0023156663, 0.00000031875402, 0.000017692098, -1719945.3, -4880.029, 0.0, 10.000001, 9.994327 
1.255e+3, 1.349876e+2, -1622564.8, -1627434.9, -0.0027102048, 0.00000030796366, -0.00006836872, -1622564.8, -5443.234, 0.0, 10.000001, 9.993545 
1.255e+3, 1.4497514e+2, -1534463.4, -1548146.3, -0.00022417094, 0.00000030359314, 0.00007102673, -1534463.4, -15219.735, 0.0, 10.000001, 9.981864 
1.255e+3, 1.5495703e+2, -1436735.6, -1450821.9, -0.004174649, 0.0000003055904, -0.000056917408, -1436735.6, -15314.566, 0.0, 10.000001, 9.981333 
1.255e+3, 1.6493228e+2, -1348684.8, -1371952.3, 0.0014456367, 0.00000030506624, 0.000047387373, -1348684.8, -25021.063, 0.0, 10.000001, 9.969248 
1.255e+3, 1.7490156e+2, -1250726.8, -1274310.1, -0.00335001, 0.00000030196736, -0.000073775125, -1250726.8, -24762.043, 0.0, 10.000001, 9.968834 
1.255e+3, 1.8486421e+2, -1162645.8, -1195720.0, 0.0016135682, 0.00000029912658, 0.00006620161, -1162645.8, -34315.094, 0.0, 10.000001, 9.956395 
1.255e+3, 1.9482064e+2, -1064496.0, -1097832.9, -0.0030414348, 0.00000029655553, -0.00005760875, -1064496.0, -33738.434, 0.0, 10.000001, 9.956052 
1.255e+3, 2.0477042e+2, -976332.06, -1019435.0, 0.0010098695, 0.0000002959446, 0.00006811937, -976332.06, -43082.176, 0.0, 10.000001, 9.94329 
1.255e+3, 2.1471375e+2, -878045.0, -921409.8, -0.0013719909, 0.0000002974563, -0.00012678985, -878045.0, -42239.766, 0.0, 10.000001, 9.942949 
1.255e+3, 2.2465037e+2, -789758.94, -843144.8, 0.0043597803, 0.00000029524807, 0.00012091486, -789758.94, -51332.66, 0.0, 10.000001, 9.929907 
1.255e+3, 2.3458035e+2, -691325.44, -744966.44, -0.001664286, 0.00000028882818, -0.00008878381, -691325.44, -50212.895, 0.0, 10.000001, 9.929576 
1.255e+3, 2.4450338e+2, -603001.4, -667018.75, 0.0007398423, 0.00000028702328, 0.00007473938, -603001.4, -59134.49, 0.0, 10.000001, 9.916136 
1.255e+3, 2.5441962e+2, -504248.7, -568343.25, -0.002019017, 0.0000002907351, -0.000106713895, -504248.7, -57561.15, 0.0, 10.000001, 9.916036 
1.255e+3, 2.643288e+2, -416013.28, -490987.88, 0.0030551052, 0.0000002913023, 0.00014061236, -416013.28, -66435.625, 0.0, 10.000001, 9.901964 
1.255e+3, 2.742313e+2, -316728.06, -391374.75, -0.0015872831, 0.0000002878545, -0.00020342678, -316728.06, -64195.07, 0.0, 10.000001, 9.902385 
1.255e+3, 2.841256e+2, -230254.81, -318081.22, 0.0016087868, 0.0000002850892, 0.00022906158, -230254.81, -74685.84, 0.0, 10.000001, 9.885438 
1.255e+3, 2.940121e+2, -130548.68, -217765.0, -0.00229209, 0.00000028327622, -0.0002533299, -130548.68, -71867.28, 0.0, 10.000001, 9.886217 
1.255e+3, 3.0392656e+2, -40804.67, -84750.16, 0.0010164937, 0.0000002833778, 0.00017314275, -40804.67, -40804.67, 0.0, 10.000001, 9.942172 
1.255e+3, 3.138706e+2, -39726.66, -82511.21, -0.002404499, 0.00000028631428, -0.000055148277, -39726.66, -39726.66, 0.0, 10.000001, 9.943684 
1.265e+3, 1.2499335e+2, -1719945.1, -1724224.6, 0.0052773394, 0.00000032472815, 0.000017695203, -1719945.1, -4879.939, 0.0, 10.000001, 9.994327 
1.265e+3, 1.349876e+2, -1622564.6, -1627434.8, -0.00014491928, 0.0000003182189, -0.00006836516, -1622564.6, -5443.169, 0.0, 10.000001, 9.993545 
1.265e+3, 1.4497514e+2, -1534463.3, -1548146.1, 0.0012807497, 0.0000003149533, 0.000071028, -1534463.3, -15219.674, 0.0, 10.000001, 9.981864 
1.265e+3, 1.5495703e+2, -1436735.6, -1450821.9, -0.0033027187, 0.0000003148634, -0.00005691494, -1436735.6, -15314.492, 0.0, 10.000001, 9.981333 
1.265e+3, 1.6493228e+2, -1348684.6, -1371952.3, 0.0028017052, 0.00000031320866, 0.000047390047, -1348684.6, -25020.986, 0.0, 10.000001, 9.969248 
1.265e+3, 1.7490156e+2, -1250726.6, -1274310.1, -0.001919686, 0.00000030995585, -0.00007377325, -1250726.6, -24761.973, 0.0, 10.000001, 9.968834 
1.265e+3, 1.8486421e+2, -1162645.6, -1195720.0, 0.0030202812, 0.00000030753753, 0.000066202956, -1162645.6, -34315.027, 0.0, 10.000001, 9.956395 
1.265e+3, 1.9482064e+2, -1064496.0, -1097832.9, -0.0012788402, 0.0000003059921, -0.000057607678, -1064496.0, -33738.363, 0.0, 10.000001, 9.956052 
1.265e+3, 2.0477042e+2, -976332.0, -1019434.94, 0.001681432, 0.00000030518004, 0.00006812093, -976332.0, -43082.105, 0.0, 10.000001, 9.94329 
1.265e+3, 2.1471375e+2, -878044.94, -921409.8, -0.0049359775, 0.00000030516208, -0.00012678698, -878044.94, -42239.69, 0.0, 10.000001, 9.942949 
1.265e+3, 2.2465037e+2, -789758.9, -843144.8, 0.000018486951, 0.00000030276337, 0.000120917735, -789758.9, -51332.59, 0.0, 10.000001, 9.929907 
1.265e+3, 2.3458035e+2, -691325.4, -744966.4, -0.0025322712, 0.00000029766932, -0.00008878242, -691325.4, -50212.83, 0.0, 10.000001, 9.929576 
1.265e+3, 2.4450338e+2, -603001.3, -667018.75, 0.0010972011, 0.00000029611672, 0.000074740215, -603001.3, -59134.426, 0.0, 10.000001, 9.916136 
1.265e+3, 2.5441962e+2, -504248.63, -568343.25, -0.0041298172, 0.00000029879698, -0.000106712476, -504248.63, -57561.082, 0.0, 10.000001, 9.916036 
1.265e+3, 2.643288e+2, -416013.22, -490987.84, 0.00010662402, 0.0000002989323, 0.00014061392, -416013.22, -66435.555, 0.0, 10.000001, 9.901964 
1.265e+3, 2.742313e+2, -316728.0, -391374.75, -0.003409884, 0.0000002958187, -0.00020342566, -316728.0, -64195.004, 0.0, 10.000001, 9.902385 
1.265e+3, 2.841256e+2, -230254.75, -318081.22, 0.0011795603, 0.00000029341916, 0.00022906253, -230254.75, -74685.78, 0.0, 10.000001, 9.885438 
1.265e+3, 2.940121e+2, -130548.62, -217764.98, -0.0022189515, 0.00000029201172, -0.0002533287, -130548.62, -71867.22, 0.0, 10.000001, 9.886217 
1.265e+3, 3.0392656e+2, -40804.61, -84750.14, 0.0015023785, 0.00000029190466, 0.0001731435, -40804.61, -40804.61, 0.0, 10.000001, 9.942172 
1.265e+3, 3.138706e+2, -39726.594, -82511.195, -0.0016074007, 0.00000029372038, -0.00005514896, -39726.594, -39726.594, 0.0, 10.000001, 9.943684 
1.275e+3, 1.2499335e+2, -1719945.1, -1724224.6, 0.0011974875, 0.0000003302451, 0.000017697965, -1719945.1, -4879.953, 0.0, 10.000001, 9.994327 
1.275e+3, 1.349876e+2, -1622564.8, -1627434.9, -0.0042266333, 0.0000003290421, -0.000068371126, -1622564.8, -5443.1826, 0.0, 10.000001, 9.993545 
1.275e+3, 1.4497514e+2, -1534463.3, -1548146.3, 0.0010449087, 0.0000003272734, 0.000071019065, -1534463.3, -15219.686, 0.0, 10.000001, 9.981864 
1.275e+3, 1.5495703e+2, -1436735.6, -1450821.9, -0.0035324548, 0.0000003248514, -0.000056913912, -1436735.6, -15314.504, 0.0, 10.000001, 9.981333 
1.275e+3, 1.6493228e+2, -1348684.6, -1371952.3, 0.0010279492, 0.00000032133582, 0.000047393656, -1348684.6, -25020.998, 0.0, 10.000001, 9.969248 
1.275e+3, 1.7490156e+2, -1250726.6, -1274310.1, -0.0037015772, 0.00000031670322, -0.00007377461, -1250726.6, -24761.984, 0.0, 10.000001, 9.968834 
1.275e+3, 1.8486421e+2, -1162645.6, -1195720.0, 0.0018904901, 0.0000003159153, 0.00006619995, -1162645.6, -34315.035, 0.0, 10.000001, 9.956395 
1.275e+3, 1.9482064e+2, -1064496.0, -1097832.9, -0.0024010537, 0.00000031915022, -0.000057608835, -1064496.0, -33738.375, 0.0, 10.000001, 9.956052 
1.275e+3, 2.0477042e+2, -976332.0, -1019435.0, 0.0014375749, 0.00000031637663, 0.00006812219, -976332.0, -43082.12, 0.0, 10.000001, 9.94329 
1.275e+3, 2.1471375e+2, -878045.0, -921409.8, -0.0051616747, 0.0000003070952, -0.00012678267, -878045.0, -42239.707, 0.0, 10.000001, 9.942949 
1.275e+3, 2.2465037e+2, -789758.9, -843144.8, -0.0012040691, 0.00000030545252, 0.000120920384, -789758.9, -51332.598, 0.0, 10.000001, 9.929907 
1.275e+3, 2.3458035e+2, -691325.4, -744966.4, -0.0037874447, 0.00000031245847, -0.00008878675, -691325.4, -50212.836, 0.0, 10.000001, 9.929576 
1.275e+3, 2.4450338e+2, -603001.3, -667018.75, 0.0013499284, 0.00000031266356, 0.0000747364, -603001.3, -59134.434, 0.0, 10.000001, 9.916136 
1.275e+3, 2.5441962e+2, -504248.66, -568343.25, -0.0038046865, 0.00000030473592, -0.00010670681, -504248.66, -57561.094, 0.0, 10.000001, 9.916036 
1.275e+3, 2.643288e+2, -416013.22, -490987.88, -0.000089939975, 0.00000030082717, 0.00014062155, -416013.22, -66435.56, 0.0, 10.000001, 9.901964 
1.275e+3, 2.742313e+2, -316728.0, -391374.75, -0.0036415048, 0.0000003020518, -0.00020342566, -316728.0, -64195.01, 0.0, 10.000001, 9.902385 
1.275e+3, 2.841256e+2, -230254.75, -318081.22, 0.0012808125, 0.00000030384095, 0.00022905903, -230254.75, -74685.79, 0.0, 10.000001, 9.885438 
1.275e+3, 2.940121e+2, -130548.625, -217765.0, -0.0020878233, 0.00000030637844, -0.00025333, -130548.625, -71867.23, 0.0, 10.000001, 9.886217 
1.275e+3, 3.0392656e+2, -40804.617, -84750.16, 0.0026283965, 0.00000030430752, 0.00017314624, -40804.617, -40804.617, 0.0, 10.000001, 9.942172 
1.275e+3, 3.138706e+2, -39726.6, -82511.21, -0.00036467297, 0.00000029538873, -0.000055139546, -39726.6, -39726.6, 0.0, 10.000001, 9.943684 
1.285e+3, 1.2499335e+2, -1719945.1, -1724224.6, 0.003807542, 0.00000033960816, 0.000017699052, -1719945.1, -4879.8804, 0.0, 10.000001, 9.994327 
1.285e+3, 1.349876e+2, -1622564.6, -1627434.8, -0.0011734279, 0.0000003383182, -0.00006836885, -1622564.6, -5443.099, 0.0, 10.000001, 9.993545 
1.285e+3, 1.4497514e+2, -1534463.3, -1548146.1, 0.0048925206, 0.0000003366178, 0.000071018854, -1534463.3, -15219.602, 0.0, 10.000001, 9.981864 
1.285e+3, 1.5495703e+2, -1436735.5, -1450821.9, -0.00095643935, 0.0000003344247, -0.000056912122, -1436735.5, -15314.432, 0.0, 10.000001, 9.981333 
1.285e+3, 1.6493228e+2, -1348684.6, -1371952.3, 0.0033420043, 0.00000033087574, 0.000047396075, -1348684.6, -25020.928, 0.0, 10.000001, 9.969248 
1.285e+3, 1.7490156e+2, -1250726.6, -1274310.1, -0.0016997618, 0.000000325942, -0.00007377295, -1250726.6, -24761.908, 0.0, 10.000001, 9.968834 
1.285e+3, 1.8486421e+2, -1162645.6, -1195720.0, 0.0025733085, 0.00000032482401, 0.00006620156, -1162645.6, -34314.957, 0.0, 10.000001, 9.956395 
1.285e+3, 1.9482064e+2, -1064495.9, -1097832.9, -0.0031171278, 0.0000003276985, -0.000057606547, -1064495.9, -33738.3, 0.0, 10.000001, 9.956052 
1.285e+3, 2.0477042e+2, -976331.94, -1019434.94, 0.0029209484, 0.00000032502618, 0.00006812415, -976331.94, -43082.047, 0.0, 10.000001, 9.94329 
1.285e+3, 2.1471375e+2, -878044.9, -921409.8, 0.00010238513, 0.000000316346, -0.00012678216, -878044.9, -42239.637, 0.0, 10.000001, 9.942949 
1.285e+3, 2.2465037e+2, -789758.8, -843144.8, 0.0036220097, 0.00000031471868, 0.0001209205, -789758.8, -51332.527, 0.0, 10.000001, 9.929907 
1.285e+3, 2.3458035e+2, -691325.3, -744966.4, -0.0027397014, 0.00000032107673, -0.000088785826, -691325.3, -50212.76, 0.0, 10.000001, 9.929576 
1.285e+3, 2.4450338e+2, -603001.25, -667018.75, 0.0019838247, 0.00000032101664, 0.00007473777, -603001.25, -59134.363, 0.0, 10.000001, 9.916136 
1.285e+3, 2.5441962e+2, -504248.56, -568343.25, -0.0020691776, 0.0000003132817, -0.00010670542, -504248.56, -57561.023, 0.0, 10.000001, 9.916036 
1.285e+3, 2.643288e+2, -416013.16, -490987.84, 0.001421877, 0.00000030952145, 0.00014062274, -416013.16, -66435.49, 0.0, 10.000001, 9.901964 
1.285e+3, 2.742313e+2, -316727.94, -391374.72, -0.0030421691, 0.0000003108372, -0.00020342493, -316727.94, -64194.94, 0.0, 10.000001, 9.902385 
1.285e+3, 2.841256e+2, -230254.69, -318081.22, 0.0013090187, 0.0000003125544, 0.00022905954, -230254.69, -74685.72, 0.0, 10.000001, 9.885438 
1.285e+3, 2.940121e+2, -130548.555, -217764.98, -0.0035381077, 0.0000003147971, -0.00025332937, -130548.555, -71867.16, 0.0, 10.000001, 9.886216 
1.285e+3, 3.0392656e+2, -40804.547, -84750.14, 0.00020228398, 0.00000031270335, 0.00017314729, -40804.547, -40804.547, 0.0, 10.000001, 9.942172 
1.285e+3, 3.138706e+2, -39726.535, -82511.195, -0.004107769, 0.00000030416743, -0.000055137618, -39726.535, -39726.535, 0.0, 10.000001, 9.943684 
1.295e+3, 1.2499335e+2, -1719945.1, -1724224.6, 0.0024173274, 0.0000003528173, 0.000017698467, -1719945.1, -4879.894, 0.0, 10.000001, 9.994327 
1.295e+3, 1.349876e+2, -1622564.6, -1627434.8, -0.0025650267, 0.0000003460472, -0.000068358335, -1622564.6, -5443.1123, 0.0, 10.000001, 9.993545 
1.295e+3, 1.4497514e+2, -1534463.3, -1548146.3, 0.0020402875, 0.00000034298654, 0.000071027374, -1534463.3, -15219.616, 0.0, 10.000001, 9.981864 
1.295e+3, 1.5495703e+2, -1436735.5, -1450821.9, -0.0038110137, 0.00000034358328, -0.00005690958, -1436735.5, -15314.446, 0.0, 10.000001, 9.981333 
1.295e+3, 1.6493228e+2, -1348684.6, -1371952.3, 0.0030900706, 0.00000034182838, 0.00004739731, -1348684.6, -25020.94, 0.0, 10.000001, 9.969248 
1.295e+3, 1.7490156e+2, -1250726.6, -1274310.1, -0.0019379253, 0.00000033767222, -0.000073768264, -1250726.6, -24761.92, 0.0, 10.000001, 9.968834 
1.295e+3, 1.8486421e+2, -1162645.6, -1195720.0, 0.0007149379, 0.00000033426363, 0.00006620777, -1162645.6, -34314.973, 0.0, 10.000001, 9.956395 
1.295e+3, 1.9482064e+2, -1064495.9, -1097832.9, -0.004994209, 0.00000033163693, -0.00005760081, -1064495.9, -33738.313, 0.0, 10.000001, 9.956052 
1.295e+3, 2.0477042e+2, -976331.94, -1019434.94, 0.002405712, 0.0000003311287, 0.00006812679, -976331.94, -43082.055, 0.0, 10.000001, 9.94329 
1.295e+3, 2.1471375e+2, -878044.9, -921409.8, -0.0003846764, 0.00000033291434, -0.00012678545, -878044.9, -42239.645, 0.0, 10.000001, 9.942949 
1.295e+3, 2.2465037e+2, -789758.8, -843144.8, 0.0027484982, 0.0000003305617, 0.00012091809, -789758.8, -51332.54, 0.0, 10.000001, 9.929907 
1.295e+3, 2.3458035e+2, -691325.3, -744966.44, -0.0036258646, 0.00000032352412, -0.00008877965, -691325.3, -50212.777, 0.0, 10.000001, 9.929576 
1.295e+3, 2.4450338e+2, -603001.25, -667018.75, 0.001900959, 0.00000032117612, 0.000074744334, -603001.25, -59134.37, 0.0, 10.000001, 9.916136 
1.295e+3, 2.5441962e+2, -504248.6, -568343.25, -0.0021134797, 0.0000003244343, -0.00010670831, -504248.6, -57561.03, 0.0, 10.000001, 9.916036 
1.295e+3, 2.643288e+2, -416013.2, -490987.88, 0.0010397822, 0.00000032501504, 0.0001406175, -416013.2, -66435.5, 0.0, 10.000001, 9.901964 
1.295e+3, 2.742313e+2, -316727.94, -391374.75, -0.003447002, 0.00000032217483, -0.0002034235, -316727.94, -64194.953, 0.0, 10.000001, 9.902384 
1.295e+3, 2.841256e+2, -230254.7, -318081.25, 0.0017444112, 0.00000031955952, 0.00022906404, -230254.7, -74685.73, 0.0, 10.000001, 9.885438 
1.295e+3, 2.940121e+2, -130548.56, -217765.0, -0.0030271672, 0.00000031726768, -0.00025332684, -130548.56, -71867.164, 0.0, 10.000001, 9.886216 
1.295e+3, 3.0392656e+2, -40804.56, -84750.16, 0.0006453117, 0.00000031709223, 0.00017314665, -40804.56, -40804.56, 0.0, 10.000001, 9.942172 
1.295e+3, 3.138706e+2, -39726.547, -82511.21, -0.0036728194, 0.0000003200563, -0.000055143173, -39726.547, -39726.547, 0.0, 10.000001, 9.943684 
1.305e+3, 1.2499335e+2, -1719945.0, -1724224.6, 0.0053540547, 0.00000036335453, 0.00001770061, -1719945.0, -4879.807, 0.0, 10.000001, 9.994327 
1.305e+3, 1.349876e+2, -1622564.5, -1627434.8, -0.0011303475, 0.00000035628284, -0.00006835449, -1622564.5, -5443.034, 0.0, 10.000001, 9.993545 
1.305e+3, 1.4497514e+2, -1534463.1, -1548146.1, 0.0034002543, 0.00000035251685, 0.00007102785, -1534463.1, -15219.538, 0.0, 10.000001, 9.981864 
1.305e+3, 1.5495703e+2, -1436735.5, -1450821.9, -0.0023207425, 0.00000035200682, -0.000056907305, -1436735.5, -15314.359, 0.0, 10.000001, 9.981333 
1.305e+3, 1.6493228e+2, -1348684.5, -1371952.3, 0.0045106825, 0.0000003505547, 0.000047400317, -1348684.5, -25020.852, 0.0, 10.000001, 9.969248 
1.305e+3, 1.7490156e+2, -1250726.5, -1274310.1, -0.0013484363, 0.00000034814062, -0.00007376561, -1250726.5, -24761.844, 0.0, 10.000001, 9.968834 
1.305e+3, 1.8486421e+2, -1162645.5, -1195720.0, 0.0018380361, 0.00000034475224, 0.00006620984, -1162645.5, -34314.9, 0.0, 10.000001, 9.956395 
1.305e+3, 1.9482064e+2, -1064495.8, -1097832.9, -0.0027392958, 0.00000034034383, -0.00005759958, -1064495.8, -33738.23, 0.0, 10.000001, 9.956052 
1.305e+3, 2.0477042e+2, -976331.8, -1019434.94, 0.0030578494, 0.00000033959262, 0.00006812816, -976331.8, -43081.977, 0.0, 10.000001, 9.94329 
1.305e+3, 2.1471375e+2, -878044.8, -921409.8, -0.0040982054, 0.00000034280185, -0.00012678288, -878044.8, -42239.566, 0.0, 10.000001, 9.942949 
1.305e+3, 2.2465037e+2, -789758.75, -843144.8, -0.0011955682, 0.00000034060042, 0.00012092098, -789758.75, -51332.465, 0.0, 10.000001, 9.929907 
1.305e+3, 2.3458035e+2, -691325.25, -744966.4, -0.004786899, 0.00000033227295, -0.00008877745, -691325.25, -50212.7, 0.0, 10.000001, 9.929576 
1.305e+3, 2.4450338e+2, -603001.2, -667018.75, 0.001589117, 0.00000032963726, 0.00007474585, -603001.2, -59134.293, 0.0, 10.000001, 9.916136 
1.305e+3, 2.5441962e+2, -504248.5, -568343.25, -0.0033250512, 0.00000033380653, -0.00010670747, -504248.5, -57560.957, 0.0, 10.000001, 9.916036 
1.305e+3, 2.643288e+2, -416013.1, -490987.84, -0.00024349049, 0.0000003346382, 0.00014061826, -416013.1, -66435.43, 0.0, 10.000001, 9.901964 
1.305e+3, 2.742313e+2, -316727.88, -391374.72, -0.0049433233, 0.000000331206, -0.00020342205, -316727.88, -64194.88, 0.0, 10.000001, 9.902384 
1.305e+3, 2.841256e+2, -230254.63, -318081.22, 0.0009343322, 0.0000003282894, 0.00022906564, -230254.63, -74685.66, 0.0, 10.000001, 9.885438 
1.305e+3, 2.940121e+2, -130548.49, -217764.98, -0.0025465805, 0.00000032609793, -0.0002533258, -130548.49, -71867.09, 0.0, 10.000001, 9.886216 
1.305e+3, 3.0392656e+2, -40804.49, -84750.14, 0.0023939328, 0.00000032611393, 0.00017314698, -40804.49, -40804.49, 0.0, 10.000001, 9.942172 
1.305e+3, 3.138706e+2, -39726.477, -82511.195, -0.0008043721, 0.00000032940062, -0.00005514384, -39726.477, -39726.477, 0.0, 10.000001, 9.943684 
1.315e+3, 1.2499335e+2, -1719945.0, -1724224.6, 0.0019936855, 0.0000003712199, 0.000017705483, -1719945.0, -4879.8237, 0.0, 10.000001, 9.994327 
1.315e+3, 1.349876e+2, -1622564.5, -1627434.9, -0.0044925422, 0.00000036902514, -0.000068357316, -1622564.5, -5443.051, 0.0, 10.000001, 9.993545 
1.315e+3, 1.4497514e+2, -1534463.1, -1548146.3, 0.002712193, 0.00000036520868, 0.00007102028, -1534463.1, -15219.553, 0.0, 10.000001, 9.981864 
1.315e+3, 1.5495703e+2, -1436735.5, -1450821.9, -0.0030046182, 0.00000035969532, -0.000056905308, -1436735.5, -15314.373, 0.0, 10.000001, 9.981333 
1.315e+3, 1.6493228e+2, -1348684.5, -1371952.3, 0.0017623556, 0.00000035705463, 0.000047405098, -1348684.5, -25020.867, 0.0, 10.000001, 9.969248 
1.315e+3, 1.7490156e+2, -1250726.5, -1274310.1, -0.004107611, 0.00000035734723, -0.00007376498, -1250726.5, -24761.857, 0.0, 10.000001, 9.968834 
1.315e+3, 1.8486421e+2, -1162645.5, -1195720.0, 0.0015084648, 0.00000035628975, 0.00006620776, -1162645.5, -34314.91, 0.0, 10.000001, 9.956395 
1.315e+3, 1.9482064e+2, -1064495.9, -1097832.9, -0.003040653, 0.00000035381913, -0.000057602858, -1064495.9, -33738.242, 0.0, 10.000001, 9.956052 
1.315e+3, 2.0477042e+2, -976331.9, -1019435.0, 0.001186365, 0.0000003504179, 0.00006812826, -976331.9, -43081.992, 0.0, 10.000001, 9.94329 
1.315e+3, 2.1471375e+2, -878044.8, -921409.8, -0.0060020294, 0.00000034600868, -0.00012677444, -878044.8, -42239.582, 0.0, 10.000001, 9.942949 
1.315e+3, 2.2465037e+2, -789758.75, -843144.8, -0.0011002755, 0.0000003448349, 0.00012092917, -789758.75, -51332.473, 0.0, 10.000001, 9.929907 
1.315e+3, 2.3458035e+2, -691325.25, -744966.4, -0.0046261614, 0.0000003473231, -0.000088779234, -691325.25, -50212.707, 0.0, 10.000001, 9.929576 
1.315e+3, 2.4450338e+2, -603001.2, -667018.75, 0.0004452846, 0.0000003464, 0.00007474232, -603001.2, -59134.305, 0.0, 10.000001, 9.916136 
1.315e+3, 2.5441962e+2, -504248.53, -568343.25, -0.004531642, 0.0000003413984, -0.00010670291, -504248.53, -57560.97, 0.0, 10.000001, 9.916036 
1.315e+3, 2.643288e+2, -416013.13, -490987.88, -0.00003196743, 0.00000033839098, 0.00014062501, -416013.13, -66435.445, 0.0, 10.000001, 9.901964 
1.315e+3, 2.742313e+2, -316727.88, -391374.75, -0.004636823, 0.00000033793071, -0.00020342064, -316727.88, -64194.89, 0.0, 10.000001, 9.902384 
1.315e+3, 2.841256e+2, -230254.63, -318081.22, 0.0010035146, 0.00000033874392, 0.00022906433, -230254.63, -74685.664, 0.0, 10.000001, 9.885438 
1.315e+3, 2.940121e+2, -130548.5, -217765.0, -0.0024990207, 0.00000034128777, -0.00025332617, -130548.5, -71867.1, 0.0, 10.000001, 9.886216 
1.315e+3, 3.0392656e+2, -40804.496, -84750.16, 0.0026542854, 0.0000003397684, 0.00017314832, -40804.496, -40804.496, 0.0, 10.000001, 9.942172 
1.315e+3, 3.138706e+2, -39726.484, -82511.21, -0.0005192636, 0.0000003322004, -0.000055139622, -39726.484, -39726.484, 0.0, 10.000001, 9.943684 
1.325e+3, 1.2499335e+2, -1719944.9, -1724224.6, 0.0032393783, 0.00000038287556, 0.000017708198, -1719944.9, -4879.7437, 0.0, 10.000001, 9.994327 
1.325e+3, 1.3498761e+2, -1622564.5, -1627434.8, -0.002013322, 0.0000003787131, -0.00006835142, -1622564.5, -5442.957, 0.0, 10.000001, 9.993545 
1.325e+3, 1.4497514e+2, -1534463.0, -1548146.1, 0.005175417, 0.0000003744513, 0.000071022056, -1534463.0, -15219.459, 0.0, 10.000001, 9.981864 
1.325e+3, 1.5495703e+2, -1436735.4, -1450821.9, -0.001366466, 0.00000037003014, -0.000056902478, -1436735.4, -15314.291, 0.0, 10.000001, 9.981333 
1.325e+3, 1.6493228e+2, -1348684.4, -1371952.3, 0.0033848174, 0.000000367559, 0.00004740797, -1348684.4, -25020.785, 0.0, 10.000001, 9.969248 
1.325e+3, 1.7490156e+2, -1250726.4, -1274310.1, -0.0020411431, 0.0000003670791, -0.00007376309, -1250726.4, -24761.77, 0.0, 10.000001, 9.968834 
1.325e+3, 1.8486421e+2, -1162645.5, -1195720.0, 0.0034336832, 0.0000003659934, 0.00006620961, -1162645.5, -34314.82, 0.0, 10.000001, 9.956395 
1.325e+3, 1.9482064e+2, -1064495.8, -1097832.9, -0.0030124274, 0.0000003642734, -0.00005760004, -1064495.8, -33738.164, 0.0, 10.000001, 9.956052 
1.325e+3, 2.0477042e+2, -976331.75, -1019434.94, 0.0022013604, 0.00000036068022, 0.00006813087, -976331.75, -43081.914, 0.0, 10.000001, 9.94329 
1.325e+3, 2.1471375e+2, -878044.75, -921409.8, -0.0014319795, 0.00000035505823, -0.00012677335, -878044.75, -42239.5, 0.0, 10.000001, 9.942949 
1.325e+3, 2.2465037e+2, -789758.6, -843144.8, 0.0040838947, 0.00000035388143, 0.000120929704, -789758.6, -51332.39, 0.0, 10.000001, 9.929907 
1.325e+3, 2.3458035e+2, -691325.1, -744966.4, -0.0024257593, 0.00000035773638, -0.0000887782, -691325.1, -50212.633, 0.0, 10.000001, 9.929576 
1.325e+3, 2.4450338e+2, -603001.1, -667018.75, 0.0014928038, 0.00000035700654, 0.0000747437, -603001.1, -59134.23, 0.0, 10.000001, 9.916136 
1.325e+3, 2.5441962e+2, -504248.44, -568343.25, -0.0033701842, 0.0000003507951, -0.00010670132, -504248.44, -57560.89, 0.0, 10.000001, 9.916036 
1.325e+3, 2.643288e+2, -416013.03, -490987.84, 0.0014633405, 0.00000034737667, 0.00014062638, -416013.03, -66435.36, 0.0, 10.000001, 9.901964 
1.325e+3, 2.742313e+2, -316727.8, -391374.72, -0.0032104466, 0.0000003475255, -0.00020342, -316727.8, -64194.813, 0.0, 10.000001, 9.902384 
1.325e+3, 2.841256e+2, -230254.56, -318081.22, 0.001662088, 0.0000003485856, 0.00022906461, -230254.56, -74685.586, 0.0, 10.000001, 9.885438 
1.325e+3, 2.940121e+2, -130548.43, -217764.98, -0.0036979797, 0.0000003508757, -0.00025332582, -130548.43, -71867.02, 0.0, 10.000001, 9.886216 
1.325e+3, 3.0392656e+2, -40804.42, -84750.13, 0.00023679386, 0.00000034922172, 0.00017314909, -40804.42, -40804.42, 0.0, 10.000001, 9.942172 
1.325e+3, 3.138706e+2, -39726.406, -82511.19, -0.0046869554, 0.00000034170017, -0.000055137953, -39726.406, -39726.406, 0.0, 10.000001, 9.943684 
1.335e+3, 1.2499335e+2, -1719945.0, -1724224.6, 0.0030100273, 0.00000039832145, 0.00001770876, -1719945.0, -4879.758, 0.0, 10.000001, 9.994327 
1.335e+3, 1.3498761e+2, -1622564.5, -1627434.8, -0.002244032, 0.0000003853468, -0.00006833682, -1622564.5, -5442.9707, 0.0, 10.000001, 9.993545 
1.335e+3, 1.4497514e+2, -1534463.1, -1548146.3, 0.0017998137, 0.00000038024473, 0.00007103318, -1534463.1, -15219.476, 0.0, 10.000001, 9.981864 
1.335e+3, 1.5495703e+2, -1436735.4, -1450821.9, -0.0047471076, 0.0000003830112, -0.000056898814, -1436735.4, -15314.308, 0.0, 10.000001, 9.981333 
1.335e+3, 1.6493228e+2, -1348684.5, -1371952.3, 0.0024170966, 0.00000038206778, 0.00004740894, -1348684.5, -25020.799, 0.0, 10.000001, 9.969248 
1.335e+3, 1.7490156e+2, -1250726.4, -1274310.1, -0.0029960033, 0.00000037733622, -0.00007375995, -1250726.4, -24761.783, 0.0, 10.000001, 9.968834 
1.335e+3, 1.8486421e+2, -1162645.5, -1195720.0, 0.0011535372, 0.00000037386326, 0.0000662154, -1162645.5, -34314.836, 0.0, 10.000001, 9.956395 
1.335e+3, 1.9482064e+2, -1064495.8, -1097832.9, -0.005307776, 0.00000037170662, -0.00005759112, -1064495.8, -33738.18, 0.0, 10.000001, 9.956052 
1.335e+3, 2.0477042e+2, -976331.8, -1019434.94, 0.002020069, 0.00000037037955, 0.00006813597, -976331.8, -43081.92, 0.0, 10.000001, 9.94329 
1.335e+3, 2.1471375e+2, -878044.75, -921409.8, -0.0015694881, 0.00000036995044, -0.00012677957, -878044.75, -42239.508, 0.0, 10.000001, 9.942949 
1.335e+3, 2.2465037e+2, -789758.7, -843144.8, 0.0021692463, 0.00000036774006, 0.000120922596, -789758.7, -51332.402, 0.0, 10.000001, 9.929907 
1.335e+3, 2.3458035e+2, -691325.2, -744966.44, -0.00439847, 0.00000036351284, -0.00008877436, -691325.2, -50212.645, 0.0, 10.000001, 9.929576 
1.335e+3, 2.4450338e+2, -603001.1, -667018.75, 0.001681477, 0.00000036145696, 0.00007475001, -603001.1, -59134.242, 0.0, 10.000001, 9.916136 
1.335e+3, 2.5441962e+2, -504248.44, -568343.25, -0.0030776612, 0.00000036199657, -0.00010670272, -504248.44, -57560.9, 0.0, 10.000001, 9.916036 
1.335e+3, 2.643288e+2, -416013.03, -490987.88, 0.00096683216, 0.00000036159514, 0.00014062237, -416013.03, -66435.37, 0.0, 10.000001, 9.901964 
1.335e+3, 2.742313e+2, -316727.8, -391374.75, -0.0037600168, 0.00000035999028, -0.00020342012, -316727.8, -64194.82, 0.0, 10.000001, 9.902384 
1.335e+3, 2.841256e+2, -230254.56, -318081.22, 0.0014813227, 0.00000035781432, 0.00022906646, -230254.56, -74685.59, 0.0, 10.000001, 9.885438 
1.335e+3, 2.940121e+2, -130548.44, -217765.0, -0.0038457604, 0.00000035486178, -0.0002533247, -130548.44, -71867.04, 0.0, 10.000001, 9.886216 
1.335e+3, 3.0392656e+2, -40804.434, -84750.16, 0.0010911428, 0.00000035447394, 0.00017314934, -40804.434, -40804.434, 0.0, 10.000001, 9.942172 
1.335e+3, 3.138706e+2, -39726.418, -82511.21, -0.0037152902, 0.00000035789984, -0.00005513883, -39726.418, -39726.418, 0.0, 10.000001, 9.943684 
1.345e+3, 1.2499335e+2, -1719944.9, -1724224.5, 0.0057145315, 0.00000040802252, 0.000017711778, -1719944.9, -4879.6563, 0.0, 10.000001, 9.994327 
1.345e+3, 1.3498761e+2, -1622564.4, -1627434.8, -0.002112845, 0.00000039677784, -0.000068330526, -1622564.4, -5442.8833, 0.0, 10.000001, 9.993545 
1.345e+3, 1.4497514e+2, -1534463.0, -1548146.1, 0.0006230366, 0.00000039211272, 0.00007103449, -1534463.0, -15219.39, 0.0, 10.000001, 9.981864 
1.345e+3, 1.5495703e+2, -1436735.4, -1450821.9, -0.0044389884, 0.0000003940222, -0.000056895962, -1436735.4, -15314.215, 0.0, 10.000001, 9.981333 
1.345e+3, 1.6493228e+2, -1348684.4, -1371952.3, 0.0038375915, 0.0000003926463, 0.000047412355, -1348684.4, -25020.707, 0.0, 10.000001, 9.969248 
1.345e+3, 1.7490156e+2, -1250726.4, -1274310.1, -0.0027412637, 0.00000038791563, -0.000073756964, -1250726.4, -24761.697, 0.0, 10.000001, 9.968834 
1.345e+3, 1.8486421e+2, -1162645.4, -1195720.0, 0.0013138214, 0.00000038430227, 0.000066217886, -1162645.4, -34314.75, 0.0, 10.000001, 9.956395 
1.345e+3, 1.9482064e+2, -1064495.6, -1097832.9, -0.0039667743, 0.00000038185755, -0.000057589194, -1064495.6, -33738.086, 0.0, 10.000001, 9.956052 
1.345e+3, 2.0477042e+2, -976331.7, -1019434.94, 0.0027765224, 0.00000038069504, 0.000068137924, -976331.7, -43081.832, 0.0, 10.000001, 9.94329 
1.345e+3, 2.1471375e+2, -878044.7, -921409.8, -0.0044188104, 0.00000038092054, -0.00012677695, -878044.7, -42239.426, 0.0, 10.000001, 9.942949 
1.345e+3, 2.2465037e+2, -789758.56, -843144.8, -0.0013837727, 0.00000037859257, 0.000120925295, -789758.56, -51332.324, 0.0, 10.000001, 9.929907 
1.345e+3, 2.3458035e+2, -691325.06, -744966.4, -0.0057735834, 0.0000003733736, -0.000088772256, -691325.06, -50212.56, 0.0, 10.000001, 9.929576 
1.345e+3, 2.4450338e+2, -603001.0, -667018.75, 0.0014925691, 0.00000037110445, 0.00007475162, -603001.0, -59134.152, 0.0, 10.000001, 9.916136 
1.345e+3, 2.5441962e+2, -504248.38, -568343.25, -0.0038313614, 0.0000003723616, -0.00010670149, -504248.38, -57560.82, 0.0, 10.000001, 9.916036 
1.345e+3, 2.643288e+2, -416012.97, -490987.84, 0.00014611323, 0.0000003723041, 0.00014062352, -416012.97, -66435.29, 0.0, 10.000001, 9.901964 
1.345e+3, 2.742313e+2, -316727.75, -391374.72, -0.0049631232, 0.0000003705655, -0.00020341866, -316727.75, -64194.742, 0.0, 10.000001, 9.902384 
1.345e+3, 2.841256e+2, -230254.48, -318081.22, 0.00085769314, 0.00000036796808, 0.00022906787, -230254.48, -74685.516, 0.0, 10.000001, 9.885438 
1.345e+3, 2.940121e+2, -130548.35, -217764.98, -0.0030590023, 0.00000036420298, -0.00025332376, -130548.35, -71866.95, 0.0, 10.000001, 9.886216 
1.345e+3, 3.0392656e+2, -40804.35, -84750.13, 0.003345152, 0.00000036385984, 0.00017314964, -40804.35, -40804.35, 0.0, 10.000001, 9.942172 
1.345e+3, 3.138706e+2, -39726.34, -82511.19, -0.000429494, 0.00000036860652, -0.000055139295, -39726.34, -39726.34, 0.0, 10.000001, 9.943684 
1.355e+3, 1.2499335e+2, -1719944.9, -1724224.6, 0.0023465194, 0.00000041197882, 0.000017717251, -1719944.9, -4879.6763, 0.0, 10.000001, 9.994327 
1.355e+3, 1.3498761e+2, -1622564.4, -1627434.8, -0.0054831416, 0.00000041300612, -0.00006833254, -1622564.4, -5442.903, 0.0, 10.000001, 9.993545 
1.355e+3, 1.4497514e+2, -1534463.0, -1548146.3, -0.0011221884, 0.00000041005518, 0.000071025985, -1534463.0, -15219.403, 0.0, 10.000001, 9.981864 
1.355e+3, 1.5495703e+2, -1436735.4, -1450821.9, -0.0061816867, 0.00000040306315, -0.000056893925, -1436735.4, -15314.228, 0.0, 10.000001, 9.981333 
1.355e+3, 1.6493228e+2, -1348684.4, -1371952.3, 0.001546541, 0.00000039929472, 0.000047418216, -1348684.4, -25020.723, 0.0, 10.000001, 9.969248 
1.355e+3, 1.7490156e+2, -1250726.4, -1274310.1, -0.0050349827, 0.00000039881724, -0.00007375414, -1250726.4, -24761.713, 0.0, 10.000001, 9.968834 
1.355e+3, 1.8486421e+2, -1162645.4, -1195720.0, 0.00019330953, 0.0000003973104, 0.00006621708, -1162645.4, -34314.76, 0.0, 10.000001, 9.956395 
1.355e+3, 1.9482064e+2, -1064495.6, -1097832.9, -0.005073446, 0.00000039472613, -0.00005759425, -1064495.6, -33738.1, 0.0, 10.000001, 9.956052 
1.355e+3, 2.0477042e+2, -976331.7, -1019434.94, 0.0006120256, 0.00000039162668, 0.00006813674, -976331.7, -43081.848, 0.0, 10.000001, 9.94329 
1.355e+3, 2.1471375e+2, -878044.7, -921409.8, -0.0066048875, 0.00000038796856, -0.00012676547, -878044.7, -42239.44, 0.0, 10.000001, 9.942949 
1.355e+3, 2.2465037e+2, -789758.56, -843144.8, -0.0013764125, 0.00000038643904, 0.0001209378, -789758.56, -51332.332, 0.0, 10.000001, 9.929907 
1.355e+3, 2.3458035e+2, -691325.06, -744966.4, -0.0056943744, 0.0000003873186, -0.00008877188, -691325.06, -50212.566, 0.0, 10.000001, 9.929576 
1.355e+3, 2.4450338e+2, -603001.06, -667018.75, -0.000061588544, 0.00000038594894, 0.00007474854, -603001.06, -59134.164, 0.0, 10.000001, 9.916136 
1.355e+3, 2.5441962e+2, -504248.38, -568343.25, -0.0054640006, 0.0000003818902, -0.00010669765, -504248.38, -57560.832, 0.0, 10.000001, 9.916036 
1.355e+3, 2.643288e+2, -416012.97, -490987.88, 0.0001829768, 0.00000037950352, 0.00014062983, -416012.97, -66435.305, 0.0, 10.000001, 9.901964 
1.355e+3, 2.742313e+2, -316727.75, -391374.75, -0.0048144697, 0.00000037925102, -0.00020341562, -316727.75, -64194.75, 0.0, 10.000001, 9.902384 
1.355e+3, 2.841256e+2, -230254.5, -318081.22, 0.0011070854, 0.0000003790468, 0.00022906889, -230254.5, -74685.52, 0.0, 10.000001, 9.885438 
1.355e+3, 2.940121e+2, -130548.37, -217765.0, -0.0028008868, 0.0000003788991, -0.00025332306, -130548.37, -71866.96, 0.0, 10.000001, 9.886216 
1.355e+3, 3.0392656e+2, -40804.36, -84750.16, 0.0030931702, 0.00000037737934, 0.00017315002, -40804.36, -40804.36, 0.0, 10.000001, 9.942172 
1.355e+3, 3.138706e+2, -39726.35, -82511.21, -0.00074179075, 0.00000037382014, -0.000055139346, -39726.35, -39726.35, 0.0, 10.000001, 9.943684 
1.365e+3, 1.2499335e+2, -1719944.8, -1724224.5, 0.005155089, 0.00000042244815, 0.000017719098, -1719944.8, -4879.5776, 0.0, 10.000001, 9.994327 
1.365e+3, 1.3498761e+2, -1622564.3, -1627434.8, 0.000026721744, 0.00000042521654, -0.00006832797, -1622564.3, -5442.804, 0.0, 10.000001, 9.993545 
1.365e+3, 1.4497514e+2, -1534462.9, -1548146.1, 0.0055665514, 0.00000042247012, 0.00007102507, -1534462.9, -15219.306, 0.0, 10.000001, 9.981864 
1.365e+3, 1.5495703e+2, -1436735.3, -1450821.9, -0.002409377, 0.0000004141444, -0.000056891295, -1436735.3, -15314.134, 0.0, 10.000001, 9.981333 
1.365e+3, 1.6493228e+2, -1348684.3, -1371952.3, 0.0042082765, 0.0000004099763, 0.000047421898, -1348684.3, -25020.629, 0.0, 10.000001, 9.969248 
1.365e+3, 1.7490156e+2, -1250726.3, -1274310.1, -0.0018116094, 0.0000004100524, -0.00007375196, -1250726.3, -24761.615, 0.0, 10.000001, 9.968834 
1.365e+3, 1.8486421e+2, -1162645.3, -1195720.0, 0.003121843, 0.00000040868423, 0.00006621885, -1162645.3, -34314.668, 0.0, 10.000001, 9.956395 
1.365e+3, 1.9482064e+2, -1064495.6, -1097832.9, -0.0037425032, 0.00000040580474, -0.000057591762, -1064495.6, -33738.01, 0.0, 10.000001, 9.956052 
1.365e+3, 2.0477042e+2, -976331.6, -1019434.94, 0.0026861874, 0.0000004025175, 0.00006813915, -976331.6, -43081.758, 0.0, 10.000001, 9.94329 
1.365e+3, 2.1471375e+2, -878044.6, -921409.8, -0.0021635154, 0.00000039878805, -0.000126764, -878044.6, -42239.348, 0.0, 10.000001, 9.942949 
1.365e+3, 2.2465037e+2, -789758.5, -843144.8, 0.0033810092, 0.00000039733584, 0.0001209389, -789758.5, -51332.24, 0.0, 10.000001, 9.929907 
1.365e+3, 2.3458035e+2, -691325.0, -744966.4, -0.003383905, 0.00000039846068, -0.0000887705, -691325.0, -50212.484, 0.0, 10.000001, 9.929576 
1.365e+3, 2.4450338e+2, -603000.94, -667018.75, 0.0013089738, 0.00000039697406, 0.00007475015, -603000.94, -59134.082, 0.0, 10.000001, 9.916136 
1.365e+3, 2.5441962e+2, -504248.28, -568343.25, -0.004231065, 0.00000039236545, -0.00010669587, -504248.28, -57560.742, 0.0, 10.000001, 9.916036 
1.365e+3, 2.643288e+2, -416012.88, -490987.84, 0.0014505464, 0.00000038993053, 0.00014063148, -416012.88, -66435.21, 0.0, 10.000001, 9.901964 
1.365e+3, 2.742313e+2, -316727.66, -391374.72, -0.0038521865, 0.0000003902693, -0.00020341443, -316727.66, -64194.664, 0.0, 10.000001, 9.902384 
1.365e+3, 2.841256e+2, -230254.4, -318081.22, 0.0013834989, 0.000000390177, 0.00022906983, -230254.4, -74685.44, 0.0, 10.000001, 9.885438 
1.365e+3, 2.940121e+2, -130548.28, -217764.98, -0.0045191734, 0.00000038948264, -0.00025332204, -130548.28, -71866.88, 0.0, 10.000001, 9.886216 
1.365e+3, 3.0392656e+2, -40804.277, -84750.13, 0.00007754135, 0.00000038772822, 0.00017315119, -40804.277, -40804.277, 0.0, 10.000001, 9.942172 
1.365e+3, 3.138706e+2, -39726.26, -82511.19, -0.004948812, 0.0000003844035, -0.000055137873, -39726.26, -39726.26, 0.0, 10.000001, 9.943684 
1.375e+3, 1.2499335e+2, -1719944.8, -1724224.6, 0.0018772569, 0.0000004394303, 0.000017717319, -1719944.8, -4879.592, 0.0, 10.000001, 9.994327 
1.375e+3, 1.3498761e+2, -1622564.3, -1627434.8, -0.0032539251, 0.00000043340918, -0.00006831682, -1622564.3, -5442.8184, 0.0, 10.000001, 9.993545 
1.375e+3, 1.4497514e+2, -1534462.9, -1548146.3, 0.003170394, 0.0000004293576, 0.00007103176, -1534462.9, -15219.326, 0.0, 10.000001, 9.981864 
1.375e+3, 1.5495703e+2, -1436735.3, -1450821.9, -0.0048038224, 0.00000042726586, -0.00005688807, -1436735.3, -15314.153, 0.0, 10.000001, 9.981333 
1.375e+3, 1.6493228e+2, -1348684.3, -1371952.3, 0.0025147328, 0.00000042469097, 0.00004742339, -1348684.3, -25020.645, 0.0, 10.000001, 9.969248 
1.375e+3, 1.7490156e+2, -1250726.3, -1274310.1, -0.003501041, 0.00000042162105, -0.000073750416, -1250726.3, -24761.63, 0.0, 10.000001, 9.968834 
1.375e+3, 1.8486422e+2, -1162645.4, -1195720.0, 0.00063283864, 0.0000004184237, 0.00006622319, -1162645.4, -34314.684, 0.0, 10.000001, 9.956394 
1.375e+3, 1.9482064e+2, -1064495.6, -1097832.9, -0.0062404587, 0.00000041509335, -0.000057581736, -1064495.6, -33738.027, 0.0, 10.000001, 9.956052 
1.375e+3, 2.0477042e+2, -976331.6, -1019434.94, 0.0021214655, 0.0000004133674, 0.00006814515, -976331.6, -43081.77, 0.0, 10.000001, 9.94329 
1.375e+3, 2.1471375e+2, -878044.6, -921409.8, -0.0026879644, 0.00000041337896, -0.00012677255, -878044.6, -42239.36, 0.0, 10.000001, 9.942949 
1.375e+3, 2.2465037e+2, -789758.5, -843144.8, 0.0010559888, 0.00000041128294, 0.000120928584, -789758.5, -51332.254, 0.0, 10.000001, 9.929907 
1.375e+3, 2.3458035e+2, -691325.0, -744966.4, -0.005767556, 0.00000040679987, -0.00008876813, -691325.0, -50212.496, 0.0, 10.000001, 9.929576 
1.375e+3, 2.4450338e+2, -603000.94, -667018.75, 0.0014866977, 0.00000040417976, 0.000074756426, -603000.94, -59134.094, 0.0, 10.000001, 9.916136 
1.375e+3, 2.5441962e+2, -504248.3, -568343.25, -0.003930216, 0.00000040378723, -0.00010669617, -504248.3, -57560.754, 0.0, 10.000001, 9.916036 
1.375e+3, 2.643288e+2, -416012.9, -490987.84, 0.0006008508, 0.000000403585, 0.00014062852, -416012.9, -66435.23, 0.0, 10.000001, 9.901964 
1.375e+3, 2.742313e+2, -316727.7, -391374.75, -0.0047791833, 0.00000040362016, -0.00020341505, -316727.7, -64194.676, 0.0, 10.000001, 9.902384 
1.375e+3, 2.841256e+2, -230254.42, -318081.22, 0.0010596103, 0.0000004013587, 0.00022907075, -230254.42, -74685.45, 0.0, 10.000001, 9.885438 
1.375e+3, 2.940121e+2, -130548.3, -217765.0, -0.0047891783, 0.0000003959536, -0.00025332076, -130548.3, -71866.89, 0.0, 10.000001, 9.886216 
1.375e+3, 3.0392656e+2, -40804.29, -84750.16, 0.0010829348, 0.0000003949065, 0.00017315314, -40804.29, -40804.29, 0.0, 10.000001, 9.942172 
1.375e+3, 3.138706e+2, -39726.273, -82511.21, -0.0037943253, 0.00000040035638, -0.00005513488, -39726.273, -39726.273, 0.0, 10.000001, 9.943684 
1.385e+3, 1.2499335e+2, -1719944.6, -1724224.5, 0.005579032, 0.00000045248294, 0.0000177192, -1719944.6, -4879.4863, 0.0, 10.000001, 9.994327 
1.385e+3, 1.3498761e+2, -1622564.3, -1627434.8, -0.0036766476, 0.00000044525356, -0.000068310386, -1622564.3, -5442.7163, 0.0, 10.000001, 9.993545 
1.385e+3, 1.4497514e+2, -1534462.9, -1548146.1, 0.0031976548, 0.0000004405748, 0.00007103195, -1534462.9, -15219.224, 0.0, 10.000001, 9.981864 
1.385e+3, 1.5495703e+2, -1436735.1, -1450821.9, -0.002911881, 0.00000043844835, -0.000056885143, -1436735.1, -15314.049, 0.0, 10.000001, 9.981333 
1.385e+3, 1.6493228e+2, -1348684.1, -1371952.3, 0.004210813, 0.00000043626264, 0.000047427293, -1348684.1, -25020.541, 0.0, 10.000001, 9.969248 
1.385e+3, 1.7490156e+2, -1250726.1, -1274310.1, -0.0032002789, 0.00000043401434, -0.00007374734, -1250726.1, -24761.535, 0.0, 10.000001, 9.968834 
1.385e+3, 1.8486422e+2, -1162645.3, -1195720.0, 0.0013611781, 0.00000043061192, 0.000066225686, -1162645.3, -34314.59, 0.0, 10.000001, 9.956394 
1.385e+3, 1.9482064e+2, -1064495.5, -1097832.9, -0.0047413656, 0.0000004260019, -0.000057579575, -1064495.5, -33737.926, 0.0, 10.000001, 9.956052 
1.385e+3, 2.0477042e+2, -976331.5, -1019434.94, 0.0027985924, 0.0000004242934, 0.0000681473, -976331.5, -43081.67, 0.0, 10.000001, 9.94329 
1.385e+3, 2.1471375e+2, -878044.5, -921409.8, -0.0045413827, 0.000000425728, -0.00012677003, -878044.5, -42239.27, 0.0, 10.000001, 9.942949 
1.385e+3, 2.2465037e+2, -789758.44, -843144.8, -0.00091369444, 0.0000004236448, 0.00012093117, -789758.44, -51332.164, 0.0, 10.000001, 9.929907 
1.385e+3, 2.3458035e+2, -691324.94, -744966.4, -0.0063888906, 0.0000004175785, -0.00008876582, -691324.94, -50212.4, 0.0, 10.000001, 9.929576 
1.385e+3, 2.4450338e+2, -603000.9, -667018.7, 0.0015494322, 0.00000041457295, 0.00007475833, -603000.9, -59133.996, 0.0, 10.000001, 9.916136 
1.385e+3, 2.5441962e+2, -504248.22, -568343.25, -0.0043958467, 0.0000004152278, -0.000106694824, -504248.22, -57560.664, 0.0, 10.000001, 9.916036 
1.385e+3, 2.643288e+2, -416012.8, -490987.84, 0.00012748312, 0.0000004155476, 0.00014062972, -416012.8, -66435.13, 0.0, 10.000001, 9.901964 
1.385e+3, 2.742313e+2, -316727.6, -391374.72, -0.0054406407, 0.00000041543265, -0.00020341344, -316727.6, -64194.586, 0.0, 10.000001, 9.902384 
1.385e+3, 2.841256e+2, -230254.33, -318081.22, 0.0012813265, 0.00000041268842, 0.00022907235, -230254.33, -74685.36, 0.0, 10.000001, 9.885438 
1.385e+3, 2.940121e+2, -130548.2, -217764.98, -0.0032766447, 0.00000040634808, -0.0002533197, -130548.2, -71866.8, 0.0, 10.000001, 9.886216 
1.385e+3, 3.0392656e+2, -40804.2, -84750.13, 0.0034970727, 0.00000040538407, 0.00017315372, -40804.2, -40804.2, 0.0, 10.000001, 9.942172 
1.385e+3, 3.138706e+2, -39726.19, -82511.19, -0.0012119048, 0.00000041243266, -0.000055134602, -39726.19, -39726.19, 0.0, 10.000001, 9.943684 
1.395e+3, 1.2499335e+2, -1719944.6, -1724224.6, 0.0015930312, 0.00000046160613, 0.000017724744, -1719944.6, -4879.5103, 0.0, 10.000001, 9.994327 
1.395e+3, 1.3498761e+2, -1622564.3, -1627434.8, -0.007666051, 0.0000004607496, -0.00006830869, -1622564.3, -5442.7393, 0.0, 10.000001, 9.993545 
1.395e+3, 1.4497514e+2, -1534462.9, -1548146.1, 0.0014963149, 0.00000045612168, 0.00007102565, -1534462.9, -15219.24, 0.0, 10.000001, 9.981864 
1.395e+3, 1.5495703e+2, -1436735.1, -1450821.9, -0.004608812, 0.00000044769195, -0.000056882505, -1436735.1, -15314.064, 0.0, 10.000001, 9.981333 
1.395e+3, 1.6493228e+2, -1348684.3, -1371952.3, 0.0008969522, 0.00000044469132, 0.00004743361, -1348684.3, -25020.559, 0.0, 10.000001, 9.969248 
1.395e+3, 1.7490156e+2, -1250726.3, -1274310.1, -0.006522132, 0.00000044723214, -0.00007374273, -1250726.3, -24761.553, 0.0, 10.000001, 9.968834 
1.395e+3, 1.8486422e+2, -1162645.3, -1195720.0, 0.00036440213, 0.00000044524882, 0.00006622632, -1162645.3, -34314.6, 0.0, 10.000001, 9.956394 
1.395e+3, 1.9482064e+2, -1064495.5, -1097832.9, -0.005710578, 0.00000043853018, -0.000057585286, -1064495.5, -33737.94, 0.0, 10.000001, 9.956052 
1.395e+3, 2.0477042e+2, -976331.56, -1019434.94, -0.00012837216, 0.00000043529545, 0.00006814563, -976331.56, -43081.688, 0.0, 10.000001, 9.94329 
1.395e+3, 2.1471375e+2, -878044.56, -921409.8, -0.007508475, 0.0000004358351, -0.00012675644, -878044.56, -42239.285, 0.0, 10.000001, 9.942949 
1.395e+3, 2.2465037e+2, -789758.44, -843144.8, -0.0008631701, 0.00000043442134, 0.000120946665, -789758.44, -51332.176, 0.0, 10.000001, 9.929907 
1.395e+3, 2.3458035e+2, -691324.94, -744966.4, -0.0062394203, 0.0000004307964, -0.00008876357, -691324.94, -50212.41, 0.0, 10.000001, 9.929576 
1.395e+3, 2.4450338e+2, -603000.9, -667018.75, -0.00045861473, 0.00000042815356, 0.00007475586, -603000.9, -59134.008, 0.0, 10.000001, 9.916136 
1.395e+3, 2.5441962e+2, -504248.22, -568343.25, -0.0065075313, 0.00000042668705, -0.00010669184, -504248.22, -57560.676, 0.0, 10.000001, 9.916036 
1.395e+3, 2.643288e+2, -416012.8, -490987.84, -0.000057161164, 0.00000042581817, 0.00014063511, -416012.8, -66435.15, 0.0, 10.000001, 9.901964 
1.395e+3, 2.742313e+2, -316727.6, -391374.75, -0.005496272, 0.00000042570665, -0.0002034096, -316727.6, -64194.598, 0.0, 10.000001, 9.902384 
1.395e+3, 2.841256e+2, -230254.34, -318081.22, 0.0015832719, 0.000000424166, 0.00022907466, -230254.34, -74685.375, 0.0, 10.000001, 9.885438 
1.395e+3, 2.940121e+2, -130548.21, -217765.0, -0.0029429598, 0.00000042066594, -0.0002533189, -130548.21, -71866.81, 0.0, 10.000001, 9.886216 
1.395e+3, 3.0392656e+2, -40804.21, -84750.16, 0.00278427, 0.00000041916087, 0.00017315295, -40804.21, -40804.21, 0.0, 10.000001, 9.942172 
1.395e+3, 3.138706e+2, -39726.203, -82511.21, -0.0020482684, 0.00000042063226, -0.000055137047, -39726.203, -39726.203, 0.0, 10.000001, 9.943684 
1.405e+3, 1.2499335e+2, -1719944.6, -1724224.5, 0.0036902349, 0.00000047528587, 0.000017727642, -1719944.6, -4879.4023, 0.0, 10.000001, 9.994327 
1.405e+3, 1.3498761e+2, -1622564.1, -1627434.8, -0.001980625, 0.0000004728767, -0.00006830128, -1622564.1, -5442.627, 0.0, 10.000001, 9.993545 
1.405e+3, 1.4497514e+2, -1534462.8, -1548146.1, 0.008574631, 0.00000046781773, 0.00007102573, -1534462.8, -15219.128, 0.0, 10.000001, 9.981864 
1.405e+3, 1.5495703e+2, -1436735.0, -1450821.9, -0.0004935559, 0.00000046009228, -0.000056879166, -1436735.0, -15313.959, 0.0, 10.000001, 9.981333 
1.405e+3, 1.6493228e+2, -1348684.1, -1371952.3, 0.0033354694, 0.00000045731903, 0.00004743776, -1348684.1, -25020.455, 0.0, 10.000001, 9.969248 
1.405e+3, 1.7490156e+2, -1250726.1, -1274310.1, -0.0032719432, 0.00000045959968, -0.00007374027, -1250726.1, -24761.445, 0.0, 10.000001, 9.968834 
1.405e+3, 1.8486422e+2, -1162645.1, -1195720.0, 0.004538786, 0.0000004575709, 0.00006622828, -1162645.1, -34314.496, 0.0, 10.000001, 9.956394 
1.405e+3, 1.9482064e+2, -1064495.4, -1097832.9, -0.0029418732, 0.00000045103212, -0.00005758258, -1064495.4, -33737.84, 0.0, 10.000001, 9.956052 
1.405e+3, 2.0477042e+2, -976331.44, -1019434.94, 0.0022587688, 0.00000044757942, 0.00006814836, -976331.44, -43081.59, 0.0, 10.000001, 9.94329 
1.405e+3, 2.1471375e+2, -878044.44, -921409.8, -0.003856979, 0.00000044746974, -0.00012675446, -878044.44, -42239.18, 0.0, 10.000001, 9.942948 
1.405e+3, 2.2465037e+2, -789758.3, -843144.8, 0.0034618543, 0.00000044608393, 0.00012094832, -789758.3, -51332.07, 0.0, 10.000001, 9.929907 
1.405e+3, 2.3458035e+2, -691324.8, -744966.4, -0.0037056978, 0.00000044325424, -0.00008876173, -691324.8, -50212.316, 0.0, 10.000001, 9.929576 
1.405e+3, 2.4450338e+2, -603000.8, -667018.7, 0.0010290277, 0.00000044068204, 0.000074757736, -603000.8, -59133.918, 0.0, 10.000001, 9.916136 
1.405e+3, 2.5441962e+2, -504248.13, -568343.25, -0.005076527, 0.00000043842047, -0.00010669011, -504248.13, -57560.58, 0.0, 10.000001, 9.916036 
1.405e+3, 2.643288e+2, -416012.72, -490987.8, 0.0016952982, 0.0000004373006, 0.00014063668, -416012.72, -66435.05, 0.0, 10.000001, 9.901964 
1.405e+3, 2.742313e+2, -316727.5, -391374.72, -0.0045064245, 0.00000043763265, -0.00020340821, -316727.5, -64194.5, 0.0, 10.000001, 9.902384 
1.405e+3, 2.841256e+2, -230254.25, -318081.2, 0.0015996649, 0.00000043628867, 0.00022907593, -230254.25, -74685.27, 0.0, 10.000001, 9.885438 
1.405e+3, 2.940121e+2, -130548.125, -217764.97, -0.004743486, 0.00000043264387, -0.00025331762, -130548.125, -71866.72, 0.0, 10.000001, 9.886216 
1.405e+3, 3.0392656e+2, -40804.12, -84750.13, -0.00001490522, 0.00000043099666, 0.00017315416, -40804.12, -40804.12, 0.0, 10.000001, 9.942172 
1.405e+3, 3.138706e+2, -39726.105, -82511.18, -0.0052080723, 0.00000043233254, -0.00005513602, -39726.105, -39726.105, 0.0, 10.000001, 9.943684 
1.415e+3, 1.2499335e+2, -1719944.6, -1724224.6, 0.0008622007, 0.0000004935219, 0.000017727898, -1719944.6, -4879.418, 0.0, 10.000001, 9.994327 
1.415e+3, 1.3498761e+2, -1622564.1, -1627434.8, -0.00481218, 0.0000004816349, -0.00006828815, -1622564.1, -5442.6426, 0.0, 10.000001, 9.993544 
1.415e+3, 1.4497514e+2, -1534462.8, -1548146.1, 0.0055478695, 0.00000047566294, 0.00007103219, -1534462.8, -15219.151, 0.0, 10.000001, 9.981864 
1.415e+3, 1.5495703e+2, -1436735.1, -1450821.9, -0.0035193847, 0.00000047564913, -0.00005687512, -1436735.1, -15313.981, 0.0, 10.000001, 9.981332 
1.415e+3, 1.6493228e+2, -1348684.1, -1371952.3, 0.0007398511, 0.00000047414565, 0.000047439746, -1348684.1, -25020.47, 0.0, 10.000001, 9.969248 
1.415e+3, 1.7490156e+2, -1250726.1, -1274310.1, -0.0058645774, 0.00000047111686, -0.000073739975, -1250726.1, -24761.46, 0.0, 10.000001, 9.968834 
1.415e+3, 1.8486422e+2, -1162645.1, -1195720.0, 0.0019934624, 0.0000004675781, 0.00006623156, -1162645.1, -34314.516, 0.0, 10.000001, 9.956394 
1.415e+3, 1.9482064e+2, -1064495.4, -1097832.9, -0.0054859356, 0.0000004635076, -0.000057571462, -1064495.4, -33737.86, 0.0, 10.000001, 9.956052 
1.415e+3, 2.0477042e+2, -976331.44, -1019434.94, 0.001148086, 0.0000004611453, 0.0000681555, -976331.44, -43081.6, 0.0, 10.000001, 9.94329 
1.415e+3, 2.1471375e+2, -878044.44, -921409.8, -0.004937398, 0.00000046063175, -0.00012676409, -878044.44, -42239.19, 0.0, 10.000001, 9.942948 
1.415e+3, 2.2465037e+2, -789758.3, -843144.8, 0.0010354948, 0.0000004586324, 0.00012093615, -789758.3, -51332.09, 0.0, 10.000001, 9.929907 
1.415e+3, 2.3458035e+2, -691324.9, -744966.4, -0.0061758934, 0.00000045495185, -0.0000887603, -691324.9, -50212.332, 0.0, 10.000001, 9.929576 
1.415e+3, 2.4450338e+2, -603000.8, -667018.75, 0.00064132863, 0.0000004521583, 0.00007476395, -603000.8, -59133.93, 0.0, 10.000001, 9.916136 
1.415e+3, 2.5441962e+2, -504248.13, -568343.25, -0.0053643216, 0.00000045042793, -0.00010668963, -504248.13, -57560.59, 0.0, 10.000001, 9.916036 
1.415e+3, 2.643288e+2, -416012.72, -490987.84, 0.0008798355, 0.00000044999476, 0.00014063444, -416012.72, -66435.06, 0.0, 10.000001, 9.901964 
1.415e+3, 2.742313e+2, -316727.5, -391374.75, -0.005357554, 0.00000045121064, -0.0002034093, -316727.5, -64194.51, 0.0, 10.000001, 9.902384 
1.415e+3, 2.841256e+2, -230254.27, -318081.22, 0.0009279867, 0.00000044905644, 0.00022907616, -230254.27, -74685.29, 0.0, 10.000001, 9.885438 
1.415e+3, 2.940121e+2, -130548.14, -217765.0, -0.0053995573, 0.0000004422819, -0.00025331587, -130548.14, -71866.734, 0.0, 10.000001, 9.886216 
1.415e+3, 3.0392656e+2, -40804.133, -84750.16, 0.0008339864, 0.00000044089143, 0.00017315736, -40804.133, -40804.133, 0.0, 10.000001, 9.942172 
1.415e+3, 3.138706e+2, -39726.117, -82511.21, -0.004183341, 0.00000044753344, -0.000055131528, -39726.117, -39726.117, 0.0, 10.000001, 9.943684 
1.425e+3, 1.24993354e+2, -1719944.5, -1724224.5, 0.00530636, 0.0000005075105, 0.000017730847, -1719944.5, -4879.301, 0.0, 10.000002, 9.994327 
1.425e+3, 1.3498761e+2, -1622564.0, -1627434.8, -0.00524916, 0.00000049411227, -0.00006827923, -1622564.0, -5442.5264, 0.0, 10.000002, 9.993544 
1.425e+3, 1.4497514e+2, -1534462.6, -1548146.1, 0.0035796752, 0.0000004881949, 0.00007103284, -1534462.6, -15219.036, 0.0, 10.000002, 9.981864 
1.425e+3, 1.5495703e+2, -1436735.0, -1450821.9, -0.0025872083, 0.00000048981394, -0.000056871697, -1436735.0, -15313.87, 0.0, 10.000002, 9.981332 
1.425e+3, 1.6493228e+2, -1348684.0, -1371952.3, 0.0031686765, 0.00000048833493, 0.00004744406, -1348684.0, -25020.361, 0.0, 10.000002, 9.969248 
1.425e+3, 1.7490156e+2, -1250726.0, -1274310.1, -0.004903314, 0.00000048368923, -0.00007373669, -1250726.0, -24761.352, 0.0, 10.000002, 9.968834 
1.425e+3, 1.8486422e+2, -1162645.0, -1195720.0, 0.0027066446, 0.0000004797754, 0.0000662343, -1162645.0, -34314.406, 0.0, 10.000002, 9.956394 
1.425e+3, 1.9482066e+2, -1064495.3, -1097832.9, -0.004438199, 0.00000047662985, -0.000057568745, -1064495.3, -33737.746, 0.0, 10.000002, 9.956052 
1.425e+3, 2.0477042e+2, -976331.4, -1019434.94, 0.0020228287, 0.0000004744771, 0.00006815812, -976331.4, -43081.492, 0.0, 10.000002, 9.94329 
1.425e+3, 2.1471375e+2, -878044.3, -921409.8, -0.005462614, 0.0000004733985, -0.00012676166, -878044.3, -42239.09, 0.0, 10.000002, 9.942948 
1.425e+3, 2.2465037e+2, -789758.25, -843144.8, 0.0006210974, 0.0000004711499, 0.000120938435, -789758.25, -51331.984, 0.0, 10.000001, 9.929907 
1.425e+3, 2.3458035e+2, -691324.75, -744966.4, -0.005798767, 0.00000046757737, -0.000088758155, -691324.75, -50212.223, 0.0, 10.000001, 9.929576 
1.425e+3, 2.4450338e+2, -603000.7, -667018.7, 0.0012017784, 0.00000046475625, 0.0000747659, -603000.7, -59133.82, 0.0, 10.000001, 9.916136 
1.425e+3, 2.5441962e+2, -504248.03, -568343.25, -0.0057639144, 0.00000046283498, -0.000106687956, -504248.03, -57560.49, 0.0, 10.000001, 9.916036 
1.425e+3, 2.643288e+2, -416012.63, -490987.8, 0.0006571369, 0.0000004624757, 0.00014063598, -416012.63, -66434.96, 0.0, 10.000001, 9.901964 
1.425e+3, 2.742313e+2, -316727.4, -391374.72, -0.0052926983, 0.000000464103, -0.00020340768, -316727.4, -64194.414, 0.0, 10.000001, 9.902384 
1.425e+3, 2.841256e+2, -230254.16, -318081.2, 0.0017899876, 0.0000004618299, 0.00022907765, -230254.16, -74685.19, 0.0, 10.000001, 9.885438 
1.425e+3, 2.940121e+2, -130548.03, -217764.97, -0.003446448, 0.00000045420893, -0.00025331482, -130548.03, -71866.63, 0.0, 10.000001, 9.886216 
1.425e+3, 3.0392656e+2, -40804.03, -84750.125, 0.0035894194, 0.00000045280834, 0.00017315807, -40804.03, -40804.03, 0.0, 10.000001, 9.942172 
1.425e+3, 3.138706e+2, -39726.023, -82511.18, -0.0020646332, 0.0000004606882, -0.00005513091, -39726.023, -39726.023, 0.0, 10.000001, 9.943684 
1.435e+3, 1.24993354e+2, -1719944.5, -1724224.6, 0.002418797, 0.0000005172522, 0.00001773649, -1719944.5, -4879.328, 0.0, 10.000002, 9.994327 
1.435e+3, 1.3498761e+2, -1622564.0, -1627434.8, -0.008140298, 0.000000510309, -0.0000682745, -1622564.0, -5442.5527, 0.0, 10.000002, 9.993544 
1.435e+3, 1.4497514e+2, -1534462.6, -1548146.1, -0.00017675328, 0.0000005054135, 0.00007102767, -1534462.6, -15219.052, 0.0, 10.000002, 9.981864 
1.435e+3, 1.5495703e+2, -1436735.0, -1450821.9, -0.006343968, 0.00000050258666, -0.0000568689, -1436735.0, -15313.886, 0.0, 10.000002, 9.981332 
1.435e+3, 1.6493228e+2, -1348684.0, -1371952.3, 0.0004760455, 0.0000004998868, 0.0000474507, -1348684.0, -25020.38, 0.0, 10.000002, 9.969248 
1.435e+3, 1.7490156e+2, -1250726.0, -1274310.1, -0.007589125, 0.0000004973166, -0.000073730436, -1250726.0, -24761.371, 0.0, 10.000002, 9.968834 
1.435e+3, 1.8486422e+2, -1162645.0, -1195720.0, 0.00064559665, 0.0000004941626, 0.000066236506, -1162645.0, -34314.42, 0.0, 10.000002, 9.956394 
1.435e+3, 1.9482066e+2, -1064495.4, -1097832.9, -0.0064913956, 0.0000004903986, -0.000057574427, -1064495.4, -33737.766, 0.0, 10.000002, 9.956052 
1.435e+3, 2.0477042e+2, -976331.4, -1019434.94, -0.00081936864, 0.00000048757454, 0.000068156216, -976331.4, -43081.51, 0.0, 10.000002, 9.94329 
1.435e+3, 2.1471375e+2, -878044.4, -921409.8, -0.008320525, 0.00000048576976, -0.00012674714, -878044.4, -42239.11, 0.0, 10.000002, 9.942948 
1.435e+3, 2.2465037e+2, -789758.25, -843144.8, 0.000094007795, 0.0000004836362, 0.00012095516, -789758.25, -51332.0, 0.0, 10.000001, 9.929907 
1.435e+3, 2.3458035e+2, -691324.75, -744966.4, -0.006249265, 0.00000048113066, -0.000088755274, -691324.75, -50212.24, 0.0, 10.000001, 9.929576 
1.435e+3, 2.4450338e+2, -603000.7, -667018.75, -0.0009388513, 0.0000004784758, 0.00007476359, -603000.7, -59133.836, 0.0, 10.000001, 9.916136 
1.435e+3, 2.5441962e+2, -504248.06, -568343.25, -0.007985832, 0.0000004756415, -0.00010668509, -504248.06, -57560.504, 0.0, 10.000001, 9.916036 
1.435e+3, 2.643288e+2, -416012.66, -490987.84, 0.00018516618, 0.00000047474325, 0.00014064132, -416012.66, -66434.98, 0.0, 10.000001, 9.901964 
1.435e+3, 2.742313e+2, -316727.44, -391374.75, -0.0056478987, 0.00000047630968, -0.00020340335, -316727.44, -64194.426, 0.0, 10.000001, 9.902384 
1.435e+3, 2.841256e+2, -230254.17, -318081.22, 0.0016489415, 0.0000004746089, 0.00022908037, -230254.17, -74685.2, 0.0, 10.000001, 9.885438 
1.435e+3, 2.940121e+2, -130548.05, -217765.0, -0.0035688807, 0.0000004684249, -0.0002533145, -130548.05, -71866.64, 0.0, 10.000001, 9.886216 
1.435e+3, 3.0392656e+2, -40804.047, -84750.16, 0.002901787, 0.00000046674734, 0.00017315634, -40804.047, -40804.047, 0.0, 10.000001, 9.942172 
1.435e+3, 3.138706e+2, -39726.035, -82511.21, -0.0028195414, 0.00000047179677, -0.000055134158, -39726.035, -39726.035, 0.0, 10.000001, 9.943684 
1.445e+3, 1.24993354e+2, -1719944.4, -1724224.5, 0.0056501073, 0.00000053047023, 0.00001773903, -1719944.4, -4879.203, 0.0, 10.000002, 9.994327 
1.445e+3, 1.3498761e+2, -1622563.9, -1627434.8, -0.00025110232, 0.00000052467857, -0.00006826658, -1622563.9, -5442.4316, 0.0, 10.000002, 9.993544 
1.445e+3, 1.4497514e+2, -1534462.5, -1548146.1, 0.007704306, 0.0000005201586, 0.0000710263, -1534462.5, -15218.934, 0.0, 10.000002, 9.981864 
1.445e+3, 1.5495703e+2, -1436734.9, -1450821.9, -0.0022153435, 0.00000051692444, -0.000056865625, -1436734.9, -15313.768, 0.0, 10.000002, 9.981332 
1.445e+3, 1.6493228e+2, -1348683.9, -1371952.3, 0.004184469, 0.00000051375434, 0.000047455458, -1348683.9, -25020.262, 0.0, 10.000002, 9.969248 
1.445e+3, 1.7490156e+2, -1250725.9, -1274310.0, -0.0033751032, 0.0000005106536, -0.000073727424, -1250725.9, -24761.252, 0.0, 10.000002, 9.968834 
1.445e+3, 1.8486422e+2, -1162644.9, -1195720.0, 0.0047296924, 0.0000005075603, 0.00006623885, -1162644.9, -34314.305, 0.0, 10.000002, 9.956394 
1.445e+3, 1.9482066e+2, -1064495.3, -1097832.9, -0.00315489, 0.00000050447557, -0.000057571633, -1064495.3, -33737.652, 0.0, 10.000002, 9.956052 
1.445e+3, 2.0477042e+2, -976331.25, -1019434.94, 0.0026450087, 0.00000050157615, 0.00006815904, -976331.25, -43081.4, 0.0, 10.000002, 9.94329 
1.445e+3, 2.1471375e+2, -878044.25, -921409.8, -0.0047647087, 0.00000049887853, -0.00012674477, -878044.25, -42238.992, 0.0, 10.000002, 9.942948 
1.445e+3, 2.2465037e+2, -789758.1, -843144.75, 0.0037420208, 0.00000049658416, 0.000120957295, -789758.1, -51331.887, 0.0, 10.000002, 9.929907 
1.445e+3, 2.3458035e+2, -691324.6, -744966.4, -0.00390638, 0.0000004947461, -0.0000887532, -691324.6, -50212.13, 0.0, 10.000002, 9.929576 
1.445e+3, 2.4450338e+2, -603000.6, -667018.7, 0.0008287246, 0.0000004921335, 0.00007476556, -603000.6, -59133.73, 0.0, 10.000002, 9.916135 
1.445e+3, 2.5441962e+2, -504247.94, -568343.25, -0.005874767, 0.0000004885935, -0.00010668329, -504247.94, -57560.39, 0.0, 10.000002, 9.916036 
1.445e+3, 2.643288e+2, -416012.53, -490987.8, 0.0026454264, 0.00000048755413, 0.00014064294, -416012.53, -66434.86, 0.0, 10.000002, 9.901964 
1.445e+3, 2.742313e+2, -316727.3, -391374.72, -0.0044151773, 0.00000048969883, -0.00020340193, -316727.3, -64194.316, 0.0, 10.000002, 9.902384 
1.445e+3, 2.841256e+2, -230254.06, -318081.2, 0.001603434, 0.0000004881308, 0.00022908165, -230254.06, -74685.09, 0.0, 10.000002, 9.885438 
1.445e+3, 2.940121e+2, -130547.945, -217764.97, -0.0053668804, 0.0000004814663, -0.0002533133, -130547.945, -71866.54, 0.0, 10.000002, 9.886216 
1.445e+3, 3.0392656e+2, -40803.945, -84750.125, 0.0006087485, 0.00000047962976, 0.00017315744, -40803.945, -40803.945, 0.0, 10.000002, 9.942172 
1.445e+3, 3.138706e+2, -39725.93, -82511.18, -0.0048821988, 0.00000048500254, -0.000055133238, -39725.93, -39725.93, 0.0, 10.000002, 9.943684 
1.455e+3, 1.24993354e+2, -1719944.4, -1724224.5, 0.0019257389, 0.0000005471635, 0.000017738514, -1719944.4, -4879.2197, 0.0, 10.000002, 9.994327 
1.455e+3, 1.3498761e+2, -1622563.9, -1627434.8, -0.0039793556, 0.00000053722067, -0.00006825546, -1622563.9, -5442.448, 0.0, 10.000002, 9.993544 
1.455e+3, 1.4497514e+2, -1534462.5, -1548146.1, 0.0038278927, 0.00000053243025, 0.00007102871, -1534462.5, -15218.958, 0.0, 10.000002, 9.981864 
1.455e+3, 1.5495703e+2, -1436734.9, -1450821.9, -0.0060908124, 0.00000053282736, -0.000056861874, -1436734.9, -15313.792, 0.0, 10.000002, 9.981332 
1.455e+3, 1.6493228e+2, -1348683.9, -1371952.3, 0.0016731864, 0.00000052993755, 0.000047458332, -1348683.9, -25020.281, 0.0, 10.000002, 9.969248 
1.455e+3, 1.7490156e+2, -1250725.9, -1274310.1, -0.005878222, 0.0000005237001, -0.00007372767, -1250725.9, -24761.271, 0.0, 10.000002, 9.968834 
1.455e+3, 1.8486422e+2, -1162645.0, -1195720.0, 0.0015287919, 0.0000005199682, 0.000066241315, -1162645.0, -34314.324, 0.0, 10.000002, 9.956394 
1.455e+3, 1.9482066e+2, -1064495.3, -1097832.9, -0.0063628466, 0.0000005188605, -0.000057560366, -1064495.3, -33737.67, 0.0, 10.000002, 9.956052 
1.455e+3, 2.0477042e+2, -976331.25, -1019434.94, 0.0011518756, 0.0000005164819, 0.000068166584, -976331.25, -43081.418, 0.0, 10.000002, 9.94329 
1.455e+3, 2.1471375e+2, -878044.25, -921409.8, -0.006221996, 0.00000051272457, -0.0001267545, -878044.25, -42239.008, 0.0, 10.000002, 9.942948 
1.455e+3, 2.2465037e+2, -789758.1, -843144.8, 0.0012673585, 0.00000050999347, 0.000120944824, -789758.1, -51331.902, 0.0, 10.000002, 9.929907 
1.455e+3, 2.3458035e+2, -691324.7, -744966.4, -0.006414377, 0.00000050842357, -0.00008875192, -691324.7, -50212.15, 0.0, 10.000002, 9.929576 
1.455e+3, 2.4450338e+2, -603000.6, -667018.75, -0.000024915558, 0.00000050572936, 0.000074771815, -603000.6, -59133.746, 0.0, 10.000002, 9.916135 
1.455e+3, 2.5441962e+2, -504247.94, -568343.25, -0.006649214, 0.0000005016909, -0.000106682564, -504247.94, -57560.406, 0.0, 10.000002, 9.916036 
1.455e+3, 2.643288e+2, -416012.56, -490987.84, 0.0015316108, 0.0000005009083, 0.00014064083, -416012.56, -66434.875, 0.0, 10.000002, 9.901964 
1.455e+3, 2.742313e+2, -316727.34, -391374.75, -0.0055521573, 0.0000005042705, -0.00020340341, -316727.34, -64194.332, 0.0, 10.000002, 9.902384 
1.455e+3, 2.841256e+2, -230254.08, -318081.22, 0.00065785897, 0.00000050239555, 0.0002290815, -230254.08, -74685.11, 0.0, 10.000002, 9.885438 
1.455e+3, 2.940121e+2, -130547.96, -217765.0, -0.0062959604, 0.0000004933332, -0.00025331115, -130547.96, -71866.555, 0.0, 10.000002, 9.886216 
1.455e+3, 3.0392656e+2, -40803.957, -84750.16, 0.0011796565, 0.0000004914555, 0.0001731614, -40803.957, -40803.957, 0.0, 10.000002, 9.942172 
1.455e+3, 3.138706e+2, -39725.94, -82511.21, -0.004136046, 0.0000005003054, -0.00005512814, -39725.94, -39725.94, 0.0, 10.000002, 9.943684 
1.465e+3, 1.24993354e+2, -1719944.3, -1724224.5, 0.007626684, 0.0000005625688, 0.000017740353, -1719944.3, -4879.089, 0.0, 10.000002, 9.994327 
1.465e+3, 1.3498761e+2, -1622563.8, -1627434.8, -0.0039286795, 0.0000005517362, -0.00006824664, -1622563.8, -5442.321, 0.0, 10.000002, 9.993544 
1.465e+3, 1.4497514e+2, -1534462.4, -1548146.1, 0.0028759763, 0.00000054671455, 0.00007102725, -1534462.4, -15218.832, 0.0, 10.000002, 9.981864 
1.465e+3, 1.5495703e+2, -1436734.8, -1450821.9, -0.004253536, 0.000000547546, -0.000056858513, -1436734.8, -15313.665, 0.0, 10.000002, 9.981332 
1.465e+3, 1.6493228e+2, -1348683.8, -1371952.3, 0.0048971977, 0.00000054468035, 0.000047463294, -1348683.8, -25020.154, 0.0, 10.000002, 9.969248 
1.465e+3, 1.7490156e+2, -1250725.8, -1274310.0, -0.004135521, 0.000000538049, -0.00007372441, -1250725.8, -24761.148, 0.0, 10.000002, 9.968834 
1.465e+3, 1.8486422e+2, -1162644.9, -1195720.0, 0.0025315536, 0.0000005341461, 0.00006624385, -1162644.9, -34314.203, 0.0, 10.000002, 9.956394 
1.465e+3, 1.9482066e+2, -1064495.1, -1097832.9, -0.005572995, 0.00000053310043, -0.000057557514, -1064495.1, -33737.547, 0.0, 10.000002, 9.956052 
1.465e+3, 2.0477042e+2, -976331.1, -1019434.94, 0.0022209492, 0.00000053073586, 0.00006816954, -976331.1, -43081.293, 0.0, 10.000002, 9.94329 
1.465e+3, 2.1471375e+2, -878044.1, -921409.75, -0.00585038, 0.00000052693974, -0.00012675168, -878044.1, -42238.89, 0.0, 10.000002, 9.942948 
1.465e+3, 2.2465037e+2, -789758.06, -843144.75, 0.001633222, 0.0000005241559, 0.00012094747, -789758.06, -51331.785, 0.0, 10.000002, 9.929907 
1.465e+3, 2.3458035e+2, -691324.56, -744966.4, -0.0056545506, 0.0000005225155, -0.00008874951, -691324.56, -50212.027, 0.0, 10.000002, 9.929576 
1.465e+3, 2.4450338e+2, -603000.5, -667018.7, 0.0009313688, 0.0000005196947, 0.00007477396, -603000.5, -59133.625, 0.0, 10.000002, 9.916135 
1.465e+3, 2.5441962e+2, -504247.84, -568343.25, -0.006819894, 0.00000051546317, -0.00010668071, -504247.84, -57560.293, 0.0, 10.000002, 9.916036 
1.465e+3, 2.643288e+2, -416012.44, -490987.8, 0.001421147, 0.000000514796, 0.00014064247, -416012.44, -66434.766, 0.0, 10.000002, 9.901964 
1.465e+3, 2.742313e+2, -316727.22, -391374.72, -0.0049195047, 0.0000005186661, -0.00020340188, -316727.22, -64194.22, 0.0, 10.000002, 9.902384 
1.465e+3, 2.841256e+2, -230253.97, -318081.2, 0.0023242896, 0.0000005166179, 0.00022908283, -230253.97, -74684.99, 0.0, 10.000002, 9.885438 
1.465e+3, 2.940121e+2, -130547.84, -217764.97, -0.0038154204, 0.00000050644746, -0.0002533101, -130547.84, -71866.44, 0.0, 10.000002, 9.886216 
1.465e+3, 3.0392656e+2, -40803.844, -84750.125, 0.0042194263, 0.000000504482, 0.00017316223, -40803.844, -40803.844, 0.0, 10.000002, 9.942172 
1.465e+3, 3.138706e+2, -39725.836, -82511.18, -0.0023738663, 0.0000005147669, -0.000055127417, -39725.836, -39725.836, 0.0, 10.000002, 9.943684 
1.475e+3, 1.24993354e+2, -1719944.3, -1724224.5, 0.003101679, 0.00000057668535, 0.000017744629, -1719944.3, -4879.1187, 0.0, 10.000002, 9.994327 
1.475e+3, 1.3498761e+2, -1622563.9, -1627434.8, -0.008457462, 0.00000056822495, -0.00006824012, -1622563.9, -5442.35, 0.0, 10.000002, 9.993544 
1.475e+3, 1.4497514e+2, -1534462.4, -1548146.1, -0.0006253296, 0.0000005630114, 0.000071021896, -1534462.4, -15218.851, 0.0, 10.000002, 9.981864 
1.475e+3, 1.5495703e+2, -1436734.8, -1450821.9, -0.00775158, 0.0000005610798, -0.00005685554, -1436734.8, -15313.684, 0.0, 10.000002, 9.981332 
1.475e+3, 1.6493228e+2, -1348683.8, -1371952.3, 0.0014264715, 0.0000005579818, 0.000047470337, -1348683.8, -25020.178, 0.0, 10.000002, 9.969248 
1.475e+3, 1.7490156e+2, -1250725.8, -1274310.1, -0.0076040914, 0.00000055370003, -0.00007371767, -1250725.8, -24761.172, 0.0, 10.000002, 9.968834 
1.475e+3, 1.8486422e+2, -1162644.9, -1195720.0, -0.000012599927, 0.0000005500941, 0.00006624645, -1162644.9, -34314.223, 0.0, 10.000002, 9.956394 
1.475e+3, 1.9482066e+2, -1064495.1, -1097832.9, -0.00810604, 0.0000005471951, -0.000057563077, -1064495.1, -33737.566, 0.0, 10.000002, 9.956052 
1.475e+3, 2.0477042e+2, -976331.2, -1019434.94, -0.0005789271, 0.0000005443375, 0.00006816791, -976331.2, -43081.313, 0.0, 10.000002, 9.94329 
1.475e+3, 2.1471375e+2, -878044.1, -921409.8, -0.008656177, 0.00000054152383, -0.00012673628, -878044.1, -42238.91, 0.0, 10.000002, 9.942948 
1.475e+3, 2.2465037e+2, -789758.06, -843144.8, 0.00021550943, 0.00000053907155, 0.00012096524, -789758.06, -51331.805, 0.0, 10.000002, 9.929907 
1.475e+3, 2.3458035e+2, -691324.56, -744966.4, -0.007026959, 0.0000005370217, -0.00008874596, -691324.56, -50212.043, 0.0, 10.000002, 9.929576 
1.475e+3, 2.4450338e+2, -603000.5, -667018.75, -0.0010912551, 0.00000053402925, 0.00007477201, -603000.5, -59133.645, 0.0, 10.000002, 9.916135 
1.475e+3, 2.5441962e+2, -504247.84, -568343.25, -0.00887435, 0.00000052991015, -0.000106677726, -504247.84, -57560.31, 0.0, 10.000002, 9.916036 
1.475e+3, 2.643288e+2, -416012.44, -490987.84, 0.00048235935, 0.0000005292171, 0.00014064786, -416012.44, -66434.78, 0.0, 10.000002, 9.901964 
1.475e+3, 2.742313e+2, -316727.25, -391374.75, -0.005784085, 0.0000005328859, -0.00020339736, -316727.25, -64194.234, 0.0, 10.000002, 9.902384 
1.475e+3, 2.841256e+2, -230253.98, -318081.22, 0.0018214615, 0.0000005307979, 0.00022908566, -230253.98, -74685.01, 0.0, 10.000002, 9.885438 
1.475e+3, 2.940121e+2, -130547.86, -217765.0, -0.00428625, 0.0000005208093, -0.00025331014, -130547.86, -71866.45, 0.0, 10.000002, 9.886216 
1.475e+3, 3.0392656e+2, -40803.86, -84750.16, 0.0035951273, 0.0000005187091, 0.00017315996, -40803.86, -40803.86, 0.0, 10.000002, 9.942172 
1.475e+3, 3.138706e+2, -39725.85, -82511.21, -0.0030169296, 0.0000005283869, -0.00005513106, -39725.85, -39725.85, 0.0, 10.000002, 9.943684 
1.485e+3, 1.24993354e+2, -1719944.1, -1724224.5, 0.006256173, 0.0000005927104, 0.000017746632, -1719944.1, -4878.981, 0.0, 10.000002, 9.994327 
1.485e+3, 1.3498761e+2, -1622563.6, -1627434.8, -0.00058027194, 0.0000005838529, -0.00006822969, -1622563.6, -5442.215, 0.0, 10.000002, 9.993544 
1.485e+3, 1.4497514e+2, -1534462.3, -1548146.1, 0.0088154115, 0.00000057820046, 0.00007101964, -1534462.3, -15218.717, 0.0, 10.000002, 9.981864 
1.485e+3, 1.5495703e+2, -1436734.6, -1450821.8, -0.0023813548, 0.00000057580456, -0.00005685184, -1436734.6, -15313.551, 0.0, 10.000002, 9.981332 
1.485e+3, 1.6493228e+2, -1348683.6, -1371952.3, 0.004984301, 0.0000005728319, 0.000047475907, -1348683.6, -25020.045, 0.0, 10.000002, 9.969248 
1.485e+3, 1.7490156e+2, -1250725.6, -1274310.0, -0.0034667372, 0.00000056927547, -0.00007371441, -1250725.6, -24761.04, 0.0, 10.000002, 9.968834 
1.485e+3, 1.8486422e+2, -1162644.8, -1195720.0, 0.0048397337, 0.000000565592, 0.00006624883, -1162644.8, -34314.094, 0.0, 10.000002, 9.956394 
1.485e+3, 1.9482066e+2, -1064495.0, -1097832.9, -0.003960567, 0.0000005617691, -0.000057560068, -1064495.0, -33737.44, 0.0, 10.000002, 9.956052 
1.485e+3, 2.0477042e+2, -976331.0, -1019434.9, 0.0033386857, 0.00000055869623, 0.00006817104, -976331.0, -43081.188, 0.0, 10.000002, 9.94329 
1.485e+3, 2.1471375e+2, -878044.0, -921409.75, -0.0051119504, 0.00000055643375, -0.00012673358, -878044.0, -42238.78, 0.0, 10.000002, 9.942948 
1.485e+3, 2.2465037e+2, -789757.94, -843144.75, 0.0035320132, 0.0000005541932, 0.00012096769, -789757.94, -51331.676, 0.0, 10.000002, 9.929907 
1.485e+3, 2.3458035e+2, -691324.44, -744966.4, -0.0048390473, 0.00000055197023, -0.00008874356, -691324.44, -50211.92, 0.0, 10.000002, 9.929576 
1.485e+3, 2.4450338e+2, -603000.4, -667018.7, 0.000952154, 0.00000054882133, 0.00007477427, -603000.4, -59133.523, 0.0, 10.000002, 9.916135 
1.485e+3, 2.5441962e+2, -504247.72, -568343.25, -0.006424302, 0.00000054456507, -0.000106675725, -504247.72, -57560.188, 0.0, 10.000002, 9.916036 
1.485e+3, 2.643288e+2, -416012.3, -490987.8, 0.0030029044, 0.00000054388204, 0.00014064966, -416012.3, -66434.66, 0.0, 10.000002, 9.901964 
1.485e+3, 2.742313e+2, -316727.13, -391374.72, -0.0049122176, 0.00000054774836, -0.00020339566, -316727.13, -64194.113, 0.0, 10.000002, 9.902384 
1.485e+3, 2.841256e+2, -230253.86, -318081.2, 0.0014130428, 0.00000054556443, 0.00022908725, -230253.86, -74684.89, 0.0, 10.000002, 9.885438 
1.485e+3, 2.940121e+2, -130547.74, -217764.97, -0.006253047, 0.0000005350772, -0.00025330865, -130547.74, -71866.336, 0.0, 10.000002, 9.886216 
1.485e+3, 3.0392656e+2, -40803.746, -84750.125, 0.0013501997, 0.0000005328702, 0.00017316117, -40803.746, -40803.746, 0.0, 10.000002, 9.942172 
1.485e+3, 3.138706e+2, -39725.734, -82511.18, -0.0045155715, 0.0000005430263, -0.000055130327, -39725.734, -39725.734, 0.0, 10.000002, 9.943684 
1.4950001e+3, 1.24993354e+2, -1719944.1, -1724224.5, 0.0013290766, 0.0000006106478, 0.000017747048, -1719944.1, -4879.0, 0.0, 10.000002, 9.994327 
1.4950001e+3, 1.3498761e+2, -1622563.8, -1627434.8, -0.0055112257, 0.0000005986212, -0.00006821534, -1622563.8, -5442.234, 0.0, 10.000002, 9.993544 
1.4950001e+3, 1.4497514e+2, -1534462.3, -1548146.1, 0.0052204058, 0.00000059228086, 0.00007102047, -1534462.3, -15218.745, 0.0, 10.000002, 9.981864 
1.495e+3, 1.5495703e+2, -1436734.6, -1450821.9, -0.0059707845, 0.00000059172015, -0.000056847417, -1436734.6, -15313.578, 0.0, 10.000002, 9.981332 
1.495e+3, 1.6493228e+2, -1348683.6, -1371952.3, 0.0012546127, 0.00000058923024, 0.00004748, -1348683.6, -25020.066, 0.0, 10.000002, 9.969248 
1.495e+3, 1.7490156e+2, -1250725.6, -1274310.1, -0.007193488, 0.0000005847729, -0.00007371465, -1250725.6, -24761.06, 0.0, 10.000002, 9.968834 
1.495e+3, 1.8486422e+2, -1162644.8, -1195720.0, 0.0016908828, 0.0000005806382, 0.000066250985, -1162644.8, -34314.113, 0.0, 10.000002, 9.956394 
1.495e+3, 1.9482066e+2, -1064495.0, -1097832.9, -0.007102954, 0.0000005768224, -0.00005754848, -1064495.0, -33737.46, 0.0, 10.000002, 9.956052 
1.495e+3, 2.0477042e+2, -976331.06, -1019434.94, 0.0010845807, 0.000000573812, 0.00006817893, -976331.06, -43081.207, 0.0, 10.000002, 9.94329 
1.495e+3, 2.1471375e+2, -878044.06, -921409.8, -0.007349441, 0.0000005716692, -0.00012674357, -878044.06, -42238.8, 0.0, 10.000002, 9.942948 
1.495e+3, 2.2465037e+2, -789757.94, -843144.8, 0.00089774176, 0.00000056952035, 0.00012095482, -789757.94, -51331.695, 0.0, 10.000002, 9.929907 
1.495e+3, 2.3458035e+2, -691324.44, -744966.4, -0.0074867974, 0.0000005673609, -0.0000887423, -691324.44, -50211.94, 0.0, 10.000002, 9.929576 
1.495e+3, 2.4450338e+2, -603000.4, -667018.75, -0.00046451754, 0.00000056407094, 0.000074780735, -603000.4, -59133.54, 0.0, 10.000002, 9.916135 
1.495e+3, 2.5441962e+2, -504247.75, -568343.25, -0.00778194, 0.00000055942786, -0.00010667472, -504247.75, -57560.203, 0.0, 10.000002, 9.916036 
1.495e+3, 2.643288e+2, -416012.34, -490987.84, 0.0016888666, 0.0000005587909, 0.00014064788, -416012.34, -66434.68, 0.0, 10.000002, 9.901964 
1.495e+3, 2.742313e+2, -316727.13, -391374.75, -0.006223729, 0.00000056325354, -0.00020339678, -316727.13, -64194.13, 0.0, 10.000002, 9.902384 
1.495e+3, 2.841256e+2, -230253.89, -318081.22, 0.00046954583, 0.0000005609175, 0.00022908761, -230253.89, -74684.91, 0.0, 10.000002, 9.885438 
1.495e+3, 2.940121e+2, -130547.76, -217765.0, -0.0071638077, 0.00000054925124, -0.00025330568, -130547.76, -71866.35, 0.0, 10.000002, 9.886216 
1.495e+3, 3.0392656e+2, -40803.758, -84750.16, 0.0013221115, 0.00000054696534, 0.00017316587, -40803.758, -40803.758, 0.0, 10.000002, 9.942172 
1.495e+3, 3.138706e+2, -39725.746, -82511.21, -0.0044404804, 0.000000558685, -0.00005512523, -39725.746, -39725.746, 0.0, 10.000002, 9.943684 
1.5050001e+3, 1.24993354e+2, -1719944.0, -1724224.5, 0.0075377733, 0.0000006278018, 0.000017748998, -1719944.0, -4878.856, 0.0, 10.000002, 9.994327 
1.5050001e+3, 1.3498761e+2, -1622563.5, -1627434.8, -0.0053789695, 0.00000061445496, -0.00006820197, -1622563.5, -5442.0894, 0.0, 10.000002, 9.993544 
1.5050001e+3, 1.4497514e+2, -1534462.1, -1548146.1, 0.0046636094, 0.00000060777893, 0.000071017654, -1534462.1, -15218.602, 0.0, 10.000002, 9.981864 
1.5050001e+3, 1.5495703e+2, -1436734.5, -1450821.8, -0.0035270588, 0.0000006078816, -0.000056843353, -1436734.5, -15313.438, 0.0, 10.000002, 9.981332 
1.5050001e+3, 1.6493228e+2, -1348683.5, -1371952.3, 0.004742047, 0.000000605531, 0.00004748628, -1348683.5, -25019.928, 0.0, 10.000002, 9.969248 
1.5050001e+3, 1.7490156e+2, -1250725.5, -1274310.0, -0.0051228437, 0.00000060068106, -0.000073710864, -1250725.5, -24760.924, 0.0, 10.000002, 9.968834 
1.5050001e+3, 1.8486422e+2, -1162644.6, -1195720.0, 0.0033555033, 0.00000059633203, 0.000066253735, -1162644.6, -34313.977, 0.0, 10.000002, 9.956394 
1.5050001e+3, 1.9482066e+2, -1064494.9, -1097832.9, -0.0059143472, 0.0000005924813, -0.00005754523, -1064494.9, -33737.324, 0.0, 10.000002, 9.956051 
1.5050001e+3, 2.0477042e+2, -976330.94, -1019434.9, 0.002461331, 0.00000058944784, 0.00006818218, -976330.94, -43081.074, 0.0, 10.000002, 9.94329 
1.5050001e+3, 2.1471375e+2, -878043.94, -921409.75, -0.006258436, 0.00000058729427, -0.0001267409, -878043.94, -42238.67, 0.0, 10.000002, 9.942948 
1.5050001e+3, 2.2465037e+2, -789757.8, -843144.75, 0.0021212085, 0.00000058514553, 0.000120957215, -789757.8, -51331.566, 0.0, 10.000002, 9.929907 
1.505e+3, 2.3458035e+2, -691324.3, -744966.4, -0.0060773096, 0.0000005830001, -0.00008873987, -691324.3, -50211.81, 0.0, 10.000002, 9.929576 
1.505e+3, 2.4450338e+2, -603000.25, -667018.7, 0.0010535114, 0.0000005796303, 0.00007478308, -603000.25, -59133.406, 0.0, 10.000002, 9.916135 
1.505e+3, 2.5441962e+2, -504247.63, -568343.25, -0.0077486034, 0.00000057479485, -0.0001066726, -504247.63, -57560.074, 0.0, 10.000002, 9.916036 
1.505e+3, 2.643288e+2, -416012.22, -490987.8, 0.0015967342, 0.0000005741402, 0.00014064986, -416012.22, -66434.55, 0.0, 10.000002, 9.901964 
1.505e+3, 2.742313e+2, -316727.0, -391374.72, -0.0054376847, 0.00000057880726, -0.00020339483, -316727.0, -64194.004, 0.0, 10.000002, 9.902384 
1.505e+3, 2.841256e+2, -230253.77, -318081.2, 0.0024630425, 0.00000057640443, 0.00022908942, -230253.77, -74684.78, 0.0, 10.000002, 9.885438 
1.505e+3, 2.940121e+2, -130547.63, -217764.97, -0.004425967, 0.00000056429934, -0.00025330417, -130547.63, -71866.23, 0.0, 10.000002, 9.886216 
1.505e+3, 3.0392656e+2, -40803.637, -84750.12, 0.0043848716, 0.00000056196455, 0.00017316708, -40803.637, -40803.637, 0.0, 10.000002, 9.942172 
1.505e+3, 3.138706e+2, -39725.625, -82511.17, -0.002979831, 0.00000057421767, -0.000055124347, -39725.625, -39725.625, 0.0, 10.000002, 9.943684 
1.5150002e+3, 1.24993354e+2, -1719944.0, -1724224.5, 0.0028393317, 0.00000064416247, 0.000017753096, -1719944.0, -4878.8896, 0.0, 10.000002, 9.994327 
1.5150002e+3, 1.3498761e+2, -1622563.6, -1627434.8, -0.010078849, 0.00000063135116, -0.00006818959, -1622563.6, -5442.122, 0.0, 10.000002, 9.993544 
1.5150002e+3, 1.4497514e+2, -1534462.1, -1548146.1, 0.00029862265, 0.00000062469326, 0.0000710112, -1534462.1, -15218.623, 0.0, 10.000002, 9.981864 
1.5150002e+3, 1.5495703e+2, -1436734.5, -1450821.9, -0.0078924075, 0.00000062428444, -0.000056839657, -1436734.5, -15313.46, 0.0, 10.000002, 9.981332 
1.5150002e+3, 1.6493228e+2, -1348683.6, -1371952.3, 0.00095244724, 0.0000006217294, 0.000047494734, -1348683.6, -25019.953, 0.0, 10.000002, 9.969247 
1.5150002e+3, 1.7490156e+2, -1250725.6, -1274310.1, -0.008909864, 0.00000061699967, -0.00007370307, -1250725.6, -24760.947, 0.0, 10.000002, 9.968834 
1.5150002e+3, 1.8486422e+2, -1162644.6, -1195720.0, 0.00008803539, 0.0000006126735, 0.00006625707, -1162644.6, -34314.0, 0.0, 10.000002, 9.956394 
1.5150002e+3, 1.9482066e+2, -1064494.9, -1097832.9, -0.009175913, 0.0000006087449, -0.00005755031, -1064494.9, -33737.348, 0.0, 10.000002, 9.956051 
1.5150002e+3, 2.0477042e+2, -976330.94, -1019434.94, -0.0005439898, 0.000000605603, 0.000068180765, -976330.94, -43081.094, 0.0, 10.000002, 9.94329 
1.5150002e+3, 2.1471375e+2, -878043.94, -921409.8, -0.0092586195, 0.00000060330876, -0.00012672553, -878043.94, -42238.69, 0.0, 10.000002, 9.942948 
1.5150002e+3, 2.2465037e+2, -789757.8, -843144.8, -0.000088478686, 0.0000006010687, 0.00012097488, -789757.8, -51331.586, 0.0, 10.000002, 9.929907 
1.5150002e+3, 2.3458035e+2, -691324.3, -744966.4, -0.008261227, 0.0000005988874, -0.00008873628, -691324.3, -50211.83, 0.0, 10.000002, 9.929576 
1.5150002e+3, 2.4450338e+2, -603000.3, -667018.75, -0.0009784459, 0.0000005954992, 0.000074781296, -603000.3, -59133.43, 0.0, 10.000002, 9.916135 
1.5150002e+3, 2.5441962e+2, -504247.63, -568343.25, -0.009773345, 0.000000590666, -0.000106669366, -504247.63, -57560.094, 0.0, 10.000002, 9.916036 
1.5150002e+3, 2.643288e+2, -416012.25, -490987.84, 0.00022187155, 0.0000005899299, 0.0001406556, -416012.25, -66434.56, 0.0, 10.000002, 9.901964 
1.5150002e+3, 2.742313e+2, -316727.03, -391374.75, -0.0067690443, 0.0000005944094, -0.00020338982, -316727.03, -64194.02, 0.0, 10.000002, 9.902384 
1.5150002e+3, 2.841256e+2, -230253.78, -318081.22, 0.0015688785, 0.00000059202523, 0.00022909266, -230253.78, -74684.8, 0.0, 10.000002, 9.885438 
1.5150002e+3, 2.940121e+2, -130547.65, -217765.0, -0.0052808183, 0.00000058022147, -0.0002533041, -130547.65, -71866.24, 0.0, 10.000002, 9.886216 
1.5150002e+3, 3.0392656e+2, -40803.652, -84750.16, 0.0038889332, 0.00000057786787, 0.0001731648, -40803.652, -40803.652, 0.0, 10.000002, 9.942172 
1.5150002e+3, 3.138706e+2, -39725.645, -82511.21, -0.003433718, 0.00000058962434, -0.000055127675, -39725.645, -39725.645, 0.0, 10.000002, 9.943684 
1.5250002e+3, 1.24993354e+2, -1719943.9, -1724224.5, 0.0068094926, 0.000000660391, 0.000017755789, -1719943.9, -4878.738, 0.0, 10.000002, 9.994327 
1.5250002e+3, 1.3498761e+2, -1622563.4, -1627434.8, -0.0010009174, 0.0000006488796, -0.000068176494, -1622563.4, -5441.9697, 0.0, 10.000002, 9.993544 
1.5250002e+3, 1.4497514e+2, -1534462.0, -1548146.1, 0.009818711, 0.0000006424555, 0.0000710086, -1534462.0, -15218.473, 0.0, 10.000002, 9.981864 
1.5250002e+3, 1.5495703e+2, -1436734.4, -1450821.8, -0.0023839513, 0.00000064118944, -0.000056835448, -1436734.4, -15313.3125, 0.0, 10.000002, 9.981332 
1.5250002e+3, 1.6493228e+2, -1348683.4, -1371952.3, 0.005586609, 0.0000006382584, 0.000047501107, -1348683.4, -25019.807, 0.0, 10.000002, 9.969247 
1.5250002e+3, 1.7490156e+2, -1250725.4, -1274310.0, -0.0039306544, 0.00000063364547, -0.00007369922, -1250725.4, -24760.8, 0.0, 10.000002, 9.968834 
1.5250002e+3, 1.8486422e+2, -1162644.5, -1195720.0, 0.0053319084, 0.0000006294059, 0.0000662599, -1162644.5, -34313.855, 0.0, 10.000002, 9.956394 
1.5250002e+3, 1.9482066e+2, -1064494.8, -1097832.9, -0.004357944, 0.0000006255381, -0.000057546902, -1064494.8, -33737.203, 0.0, 10.000002, 9.956051 
1.5250002e+3, 2.0477042e+2, -976330.8, -1019434.9, 0.004117255, 0.0000006223163, 0.000068184185, -976330.8, -43080.953, 0.0, 10.000002, 9.94329 
1.5250002e+3, 2.1471375e+2, -878043.8, -921409.75, -0.0053316937, 0.0000006197916, -0.0001267227, -878043.8, -42238.55, 0.0, 10.000002, 9.942948 
1.5250002e+3, 2.2465037e+2, -789757.7, -843144.75, 0.0036769146, 0.00000061737086, 0.00012097741, -789757.7, -51331.445, 0.0, 10.000002, 9.929907 
1.5250002e+3, 2.3458035e+2, -691324.2, -744966.3, -0.005621096, 0.0000006150635, -0.00008873371, -691324.2, -50211.69, 0.0, 10.000002, 9.929576 
1.5250002e+3, 2.4450338e+2, -603000.1, -667018.7, 0.0015444488, 0.0000006116678, 0.00007478376, -603000.1, -59133.29, 0.0, 10.000002, 9.916135 
1.5250002e+3, 2.5441962e+2, -504247.5, -568343.2, -0.006631345, 0.00000060696954, -0.00010666717, -504247.5, -57559.96, 0.0, 10.000002, 9.916035 
1.5250002e+3, 2.643288e+2, -416012.1, -490987.8, 0.0034890398, 0.0000006061713, 0.00014065763, -416012.1, -66434.43, 0.0, 10.000002, 9.901964 
1.5250002e+3, 2.742313e+2, -316726.88, -391374.7, -0.0053126765, 0.00000061033785, -0.00020338786, -316726.88, -64193.887, 0.0, 10.000002, 9.902384 
1.5250002e+3, 2.841256e+2, -230253.64, -318081.2, 0.0017663669, 0.00000060797686, 0.00022909448, -230253.64, -74684.664, 0.0, 10.000002, 9.885438 
1.5250002e+3, 2.940121e+2, -130547.516, -217764.97, -0.006728297, 0.00000059665757, -0.00025330257, -130547.516, -71866.11, 0.0, 10.000002, 9.886216 
1.5250002e+3, 3.0392656e+2, -40803.523, -84750.12, 0.002065325, 0.0000005943198, 0.00017316602, -40803.523, -40803.523, 0.0, 10.000002, 9.942172 
1.5250002e+3, 3.138706e+2, -39725.516, -82511.17, -0.004530187, 0.00000060539196, -0.000055126817, -39725.516, -39725.516, 0.0, 10.000002, 9.943684 
1.535e+3, 1.24993354e+2, -1719943.9, -1724224.5, 0.0023158786, 0.00000067647676, 0.000017756047, -1719943.9, -4878.76, 0.0, 10.000002, 9.994327 
1.535e+3, 1.3498761e+2, -1622563.4, -1627434.8, -0.005489596, 0.00000066703745, -0.00006816268, -1622563.4, -5441.991, 0.0, 10.000002, 9.993544 
1.535e+3, 1.4497514e+2, -1534462.0, -1548146.1, 0.004715572, 0.0000006610644, 0.000071009876, -1534462.0, -15218.504, 0.0, 10.000002, 9.981864 
1.535e+3, 1.5495703e+2, -1436734.4, -1450821.9, -0.0074889488, 0.0000006585925, -0.000056830726, -1436734.4, -15313.344, 0.0, 10.000002, 9.981332 
1.535e+3, 1.6493228e+2, -1348683.4, -1371952.3, 0.0018211966, 0.0000006551135, 0.000047505408, -1348683.4, -25019.83, 0.0, 10.000002, 9.969247 
1.535e+3, 1.7490156e+2, -1250725.5, -1274310.1, -0.007691943, 0.00000065061846, -0.00007369932, -1250725.5, -24760.824, 0.0, 10.000002, 9.968834 
1.535e+3, 1.8486422e+2, -1162644.5, -1195720.0, 0.0015935797, 0.0000006465292, 0.000066262226, -1162644.5, -34313.88, 0.0, 10.000002, 9.956394 
1.535e+3, 1.9482066e+2, -1064494.8, -1097832.9, -0.008095643, 0.0000006428602, -0.000057535013, -1064494.8, -33737.227, 0.0, 10.000002, 9.956051 
1.535e+3, 2.0477042e+2, -976330.8, -1019434.94, 0.00092540815, 0.0000006395869, 0.00006819243, -976330.8, -43080.973, 0.0, 10.000002, 9.94329 
1.535e+3, 2.1471375e+2, -878043.8, -921409.8, -0.00851063, 0.0000006367426, -0.0001267324, -878043.8, -42238.574, 0.0, 10.000002, 9.942948 
1.535e+3, 2.2465037e+2, -789757.7, -843144.8, 0.0012175413, 0.00000063405207, 0.00012096482, -789757.7, -51331.47, 0.0, 10.000002, 9.929907 
1.535e+3, 2.3458035e+2, -691324.2, -744966.4, -0.008056546, 0.0000006315282, -0.000088732166, -691324.2, -50211.71, 0.0, 10.000002, 9.929576 
1.535e+3, 2.4450338e+2, -603000.2, -667018.75, -0.0006025456, 0.00000062813604, 0.00007479048, -603000.2, -59133.31, 0.0, 10.000002, 9.916135 
1.535e+3, 2.5441962e+2, -504247.53, -568343.25, -0.008764449, 0.0000006237054, -0.000106666, -504247.53, -57559.977, 0.0, 10.000002, 9.916035 
1.535e+3, 2.643288e+2, -416012.13, -490987.84, 0.0018686785, 0.0000006228641, 0.00014065595, -416012.13, -66434.45, 0.0, 10.000002, 9.901964 
1.535e+3, 2.742313e+2, -316726.9, -391374.75, -0.0068983445, 0.00000062659245, -0.00020338892, -316726.9, -64193.906, 0.0, 10.000002, 9.902384 
1.535e+3, 2.841256e+2, -230253.66, -318081.22, 0.0007840292, 0.0000006242593, 0.00022909488, -230253.66, -74684.69, 0.0, 10.000002, 9.885438 
1.535e+3, 2.940121e+2, -130547.54, -217765.0, -0.007655984, 0.00000061360765, -0.00025329957, -130547.54, -71866.125, 0.0, 10.000002, 9.886216 
1.535e+3, 3.0392656e+2, -40803.54, -84750.16, 0.0014605903, 0.0000006113201, 0.00017317075, -40803.54, -40803.54, 0.0, 10.000002, 9.942172 
1.535e+3, 3.138706e+2, -39725.53, -82511.21, -0.0050967326, 0.00000062152037, -0.00005512177, -39725.53, -39725.53, 0.0, 10.000002, 9.943684 
1.5450001e+3, 1.24993354e+2, -1719943.8, -1724224.5, 0.009075754, 0.00000069442365, 0.000017759074, -1719943.8, -4878.598, 0.0, 10.000002, 9.994326 
1.5450001e+3, 1.3498761e+2, -1622563.3, -1627434.8, -0.0045289705, 0.0000006846601, -0.00006815273, -1622563.3, -5441.8335, 0.0, 10.000002, 9.993544 
1.5450001e+3, 1.4497514e+2, -1534461.9, -1548146.1, 0.004176093, 0.0000006788151, 0.00007100848, -1534461.9, -15218.347, 0.0, 10.000002, 9.981864 
1.5450001e+3, 1.5495703e+2, -1436734.3, -1450821.8, -0.0049166162, 0.00000067690337, -0.0000568266, -1436734.3, -15313.187, 0.0, 10.000002, 9.981332 
1.5450001e+3, 1.6493228e+2, -1348683.3, -1371952.3, 0.0061187623, 0.00000067321247, 0.00004751125, -1348683.3, -25019.674, 0.0, 10.000002, 9.969247 
1.5450001e+3, 1.7490156e+2, -1250725.3, -1274310.0, -0.004860713, 0.0000006677148, -0.00007369567, -1250725.3, -24760.672, 0.0, 10.000002, 9.968834 
1.5450001e+3, 1.8486422e+2, -1162644.4, -1195720.0, 0.0038106218, 0.0000006635291, 0.000066265035, -1162644.4, -34313.727, 0.0, 10.000002, 9.956394 
1.5450001e+3, 1.9482066e+2, -1064494.6, -1097832.9, -0.006268264, 0.00000066071993, -0.00005753163, -1064494.6, -33737.08, 0.0, 10.000002, 9.956051 
1.5450001e+3, 2.0477042e+2, -976330.7, -1019434.9, 0.002905458, 0.000000657529, 0.00006819593, -976330.7, -43080.824, 0.0, 10.000002, 9.94329 
1.5450001e+3, 2.1471375e+2, -878043.7, -921409.75, -0.007025475, 0.0000006539245, -0.00012672928, -878043.7, -42238.42, 0.0, 10.000002, 9.942948 
1.5450001e+3, 2.2465037e+2, -789757.56, -843144.75, 0.002958076, 0.0000006509197, 0.00012096768, -789757.56, -51331.32, 0.0, 10.000002, 9.929907 
1.5450001e+3, 2.3458035e+2, -691324.06, -744966.3, -0.0061184643, 0.000000648587, -0.0000887294, -691324.06, -50211.566, 0.0, 10.000002, 9.929576 
1.5450001e+3, 2.4450338e+2, -603000.0, -667018.7, 0.0014309053, 0.00000064528086, 0.00007479303, -603000.0, -59133.168, 0.0, 10.000002, 9.916135 
1.5450001e+3, 2.5441962e+2, -504247.38, -568343.2, -0.0081933085, 0.00000064081127, -0.00010666379, -504247.38, -57559.836, 0.0, 10.000002, 9.916035 
1.5450001e+3, 2.643288e+2, -416011.97, -490987.8, 0.0023159275, 0.0000006398391, 0.0001406579, -416011.97, -66434.305, 0.0, 10.000002, 9.901964 
1.5450001e+3, 2.742313e+2, -316726.78, -391374.7, -0.0056395116, 0.00000064331965, -0.00020338708, -316726.78, -64193.766, 0.0, 10.000002, 9.902384 
1.5450001e+3, 2.841256e+2, -230253.52, -318081.2, 0.0033269902, 0.00000064104535, 0.00022909658, -230253.52, -74684.55, 0.0, 10.000002, 9.885438 
1.5450001e+3, 2.940121e+2, -130547.4, -217764.97, -0.0044399556, 0.00000063087265, -0.000253298, -130547.4, -71865.99, 0.0, 10.000002, 9.886216 
1.5450001e+3, 3.0392656e+2, -40803.402, -84750.12, 0.004876376, 0.00000062863523, 0.00017317201, -40803.402, -40803.402, 0.0, 10.000002, 9.942172 
1.5450001e+3, 3.138706e+2, -39725.395, -82511.17, -0.0033441863, 0.0000006382453, -0.000055121014, -39725.395, -39725.395, 0.0, 10.000002, 9.943684 
1.5550001e+3, 1.24993354e+2, -1719943.8, -1724224.5, 0.0038848347, 0.00000071423557, 0.000017764243, -1719943.8, -4878.634, 0.0, 10.000002, 9.994326 
1.5550001e+3, 1.3498761e+2, -1622563.3, -1627434.8, -0.009717824, 0.000000701749, -0.00006814666, -1622563.3, -5441.868, 0.0, 10.000002, 9.993544 
1.5550001e+3, 1.4497514e+2, -1534461.9, -1548146.1, -0.00067516905, 0.00000069570666, 0.00007100442, -1534461.9, -15218.371, 0.0, 10.000002, 9.981864 
1.5550001e+3, 1.5495703e+2, -1436734.3, -1450821.9, -0.009768813, 0.0000006961218, -0.00005682307, -1436734.3, -15313.21, 0.0, 10.000002, 9.981332 
1.5550001e+3, 1.6493228e+2, -1348683.3, -1371952.3, 0.0016381734, 0.000000692555, 0.00004751863, -1348683.3, -25019.701, 0.0, 10.000002, 9.969247 
1.5550001e+3, 1.7490156e+2, -1250725.3, -1274310.1, -0.009341194, 0.00000068493205, -0.00007368827, -1250725.3, -24760.7, 0.0, 10.000002, 9.968834 
1.5550001e+3, 1.8486422e+2, -1162644.4, -1195720.0, -0.000067158006, 0.0000006804038, 0.00006626832, -1162644.4, -34313.754, 0.0, 10.000002, 9.956394 
1.5550001e+3, 1.9482066e+2, -1064494.6, -1097832.9, -0.010139425, 0.00000067911725, -0.000057536752, -1064494.6, -33737.1, 0.0, 10.000002, 9.956051 
1.5550001e+3, 2.0477043e+2, -976330.7, -1019434.94, -0.00033942497, 0.0000006761424, 0.00006819468, -976330.7, -43080.848, 0.0, 10.000002, 9.94329 
1.5550001e+3, 2.1471375e+2, -878043.7, -921409.8, -0.010256886, 0.0000006713371, -0.00012671338, -878043.7, -42238.445, 0.0, 10.000002, 9.942948 
1.5550001e+3, 2.2465037e+2, -789757.56, -843144.8, -0.0001381125, 0.0000006679733, 0.00012098599, -789757.56, -51331.34, 0.0, 10.000002, 9.929907 
1.5550001e+3, 2.3458035e+2, -691324.06, -744966.4, -0.009210258, 0.0000006662397, -0.00008872541, -691324.06, -50211.59, 0.0, 10.000002, 9.929576 
1.5550001e+3, 2.4450338e+2, -603000.06, -667018.75, -0.00062336074, 0.00000066310236, 0.00007479143, -603000.06, -59133.188, 0.0, 10.000002, 9.916135 
1.5550001e+3, 2.5441962e+2, -504247.4, -568343.25, -0.010197153, 0.00000065828704, -0.000106660555, -504247.4, -57559.855, 0.0, 10.000002, 9.916035 
1.5550001e+3, 2.643288e+2, -416012.0, -490987.84, 0.0005234513, 0.0000006570961, 0.00014066348, -416012.0, -66434.33, 0.0, 10.000002, 9.901963 
1.5550001e+3, 2.742313e+2, -316726.78, -391374.72, -0.007417365, 0.0000006605194, -0.00020338235, -316726.78, -64193.78, 0.0, 10.000002, 9.902384 
1.5550001e+3, 2.841256e+2, -230253.53, -318081.22, 0.0020492817, 0.00000065833484, 0.00022909959, -230253.53, -74684.56, 0.0, 10.000002, 9.885438 
1.5550001e+3, 2.940121e+2, -130547.414, -217765.0, -0.0056721414, 0.00000064845256, -0.0002532979, -130547.414, -71866.01, 0.0, 10.000002, 9.886216 
1.5550001e+3, 3.0392656e+2, -40803.42, -84750.16, 0.0044735996, 0.0000006462651, 0.00017316983, -40803.42, -40803.42, 0.0, 10.000002, 9.942172 
1.5550001e+3, 3.138706e+2, -39725.414, -82511.21, -0.0036489845, 0.0000006555667, -0.00005512455, -39725.414, -39725.414, 0.0, 10.000002, 9.943684 
1.5650001e+3, 1.24993354e+2, -1719943.6, -1724224.5, 0.008092392, 0.0000007331195, 0.000017767468, -1719943.6, -4878.4634, 0.0, 10.000002, 9.994326 
1.5650001e+3, 1.3498761e+2, -1622563.1, -1627434.8, -0.0009280746, 0.0000007206707, -0.00006813807, -1622563.1, -5441.702, 0.0, 10.000002, 9.993544 
1.5650001e+3, 1.4497514e+2, -1534461.8, -1548146.1, 0.009418836, 0.00000071441696, 0.000071004906, -1534461.8, -15218.207, 0.0, 10.000002, 9.981864 
1.5650001e+3, 1.5495703e+2, -1436734.1, -1450821.8, -0.0034615917, 0.0000007143609, -0.000056818906, -1436734.1, -15313.046, 0.0, 10.000002, 9.981332 
1.5650001e+3, 1.6493228e+2, -1348683.1, -1371952.1, 0.006265292, 0.00000071077056, 0.000047523998, -1348683.1, -25019.537, 0.0, 10.000002, 9.969247 
1.5650001e+3, 1.7490156e+2, -1250725.1, -1274310.0, -0.0042391447, 0.0000007035781, -0.00007368425, -1250725.1, -24760.54, 0.0, 10.000002, 9.968834 
1.5650001e+3, 1.8486422e+2, -1162644.3, -1195720.0, 0.005963272, 0.0000006990283, 0.00006627172, -1162644.3, -34313.594, 0.0, 10.000002, 9.956394 
1.5650001e+3, 1.9482066e+2, -1064494.5, -1097832.9, -0.004817816, 0.0000006972461, -0.00005753324, -1064494.5, -33736.94, 0.0, 10.000002, 9.956051 
1.5650001e+3, 2.0477043e+2, -976330.5, -1019434.9, 0.0046222643, 0.0000006941082, 0.0000681982, -976330.5, -43080.69, 0.0, 10.000002, 9.94329 
1.5650001e+3, 2.1471375e+2, -878043.5, -921409.75, -0.005587581, 0.0000006895001, -0.00012670996, -878043.5, -42238.293, 0.0, 10.000002, 9.942948 
1.5650001e+3, 2.2465037e+2, -789757.44, -843144.75, 0.0045008, 0.0000006861494, 0.00012098918, -789757.44, -51331.188, 0.0, 10.000002, 9.929907 
1.5650001e+3, 2.3458035e+2, -691323.94, -744966.3, -0.0059836586, 0.0000006842229, -0.000088722576, -691323.94, -50211.434, 0.0, 10.000002, 9.929576 
1.5650001e+3, 2.445034e+2, -602999.9, -667018.7, 0.0024008336, 0.00000068107323, 0.00007479396, -602999.9, -59133.035, 0.0, 10.000002, 9.916135 
1.5650001e+3, 2.5441962e+2, -504247.25, -568343.2, -0.0068580746, 0.00000067646084, -0.00010665825, -504247.25, -57559.707, 0.0, 10.000002, 9.916035 
1.5650001e+3, 2.643288e+2, -416011.84, -490987.78, 0.003786918, 0.0000006751214, 0.00014066556, -416011.84, -66434.18, 0.0, 10.000002, 9.901963 
1.5650001e+3, 2.742313e+2, -316726.63, -391374.7, -0.005960943, 0.0000006779483, -0.00020338054, -316726.63, -64193.637, 0.0, 10.000002, 9.902384 
1.5650001e+3, 2.841256e+2, -230253.39, -318081.2, 0.0023809422, 0.00000067582215, 0.00022910115, -230253.39, -74684.414, 0.0, 10.000002, 9.885438 
1.5650001e+3, 2.940121e+2, -130547.266, -217764.95, -0.0070083477, 0.00000066689677, -0.00025329663, -130547.266, -71865.86, 0.0, 10.000002, 9.886216 
1.5650001e+3, 3.0392656e+2, -40803.277, -84750.12, 0.0025804967, 0.00000066473757, 0.00017317085, -40803.277, -40803.277, 0.0, 10.000002, 9.942172 
1.5650001e+3, 3.138706e+2, -39725.27, -82511.17, -0.00494869, 0.000000672681, -0.00005512369, -39725.27, -39725.27, 0.0, 10.000002, 9.943684 
1.5750001e+3, 1.24993354e+2, -1719943.6, -1724224.5, 0.0020094865, 0.00000075107477, 0.000017768678, -1719943.6, -4878.489, 0.0, 10.000002, 9.994326 
1.5750001e+3, 1.3498761e+2, -1622563.1, -1627434.8, -0.007009827, 0.00000074142514, -0.000068126945, -1622563.1, -5441.727, 0.0, 10.000002, 9.993544 
1.5750001e+3, 1.4497514e+2, -1534461.8, -1548146.1, 0.0047028787, 0.00000073494584, 0.00007100994, -1534461.8, -15218.24, 0.0, 10.000002, 9.981863 
1.5750001e+3, 1.5495703e+2, -1436734.1, -1450821.9, -0.00817627, 0.0000007316202, -0.000056814104, -1436734.1, -15313.078, 0.0, 10.000002, 9.981332 
1.5750001e+3, 1.6493228e+2, -1348683.1, -1371952.3, 0.0011335218, 0.0000007278584, 0.00004752734, -1348683.1, -25019.564, 0.0, 10.000002, 9.969247 
1.5750001e+3, 1.7490156e+2, -1250725.1, -1274310.1, -0.0093740225, 0.0000007236528, -0.00007368361, -1250725.1, -24760.564, 0.0, 10.000002, 9.968834 
1.5750001e+3, 1.8486422e+2, -1162644.3, -1195720.0, 0.002252951, 0.00000071940264, 0.00006627522, -1162644.3, -34313.62, 0.0, 10.000002, 9.956394 
1.5750001e+3, 1.9482066e+2, -1064494.5, -1097832.9, -0.008512497, 0.00000071510607, -0.0000575211, -1064494.5, -33736.97, 0.0, 10.000002, 9.956051 
1.5750001e+3, 2.0477043e+2, -976330.56, -1019434.94, 0.00056927296, 0.00000071142586, 0.000068206486, -976330.56, -43080.715, 0.0, 10.000002, 9.94329 
1.5750001e+3, 2.1471375e+2, -878043.56, -921409.8, -0.009648433, 0.0000007084134, -0.00012671905, -878043.56, -42238.316, 0.0, 10.000002, 9.942948 
1.5750001e+3, 2.2465037e+2, -789757.44, -843144.8, 0.0018634695, 0.000000705448, 0.00012097724, -789757.44, -51331.21, 0.0, 10.000002, 9.929907 
1.5750001e+3, 2.3458035e+2, -691323.94, -744966.4, -0.008574294, 0.00000070253634, -0.0000887209, -691323.94, -50211.457, 0.0, 10.000002, 9.929576 
1.5750001e+3, 2.445034e+2, -602999.94, -667018.7, -0.0003634907, 0.00000069919315, 0.00007480064, -602999.94, -59133.055, 0.0, 10.000002, 9.916135 
1.5750001e+3, 2.5441962e+2, -504247.25, -568343.25, -0.009630553, 0.0000006953325, -0.00010665686, -504247.25, -57559.727, 0.0, 10.000002, 9.916035 
1.5750001e+3, 2.643288e+2, -416011.88, -490987.84, 0.0019099225, 0.0000006939146, 0.00014066412, -416011.88, -66434.2, 0.0, 10.000002, 9.901963 
1.5750001e+3, 2.742313e+2, -316726.66, -391374.72, -0.0077775614, 0.0000006956064, -0.00020338163, -316726.66, -64193.656, 0.0, 10.000002, 9.902384 
1.5750001e+3, 2.841256e+2, -230253.4, -318081.22, 0.001394059, 0.00000069350733, 0.00022910124, -230253.4, -74684.44, 0.0, 10.000002, 9.885438 
1.5750001e+3, 2.940121e+2, -130547.29, -217765.0, -0.007919809, 0.0000006862053, -0.00025329422, -130547.29, -71865.875, 0.0, 10.000002, 9.886216 
1.5750001e+3, 3.0392656e+2, -40803.293, -84750.16, 0.0013074606, 0.0000006840527, 0.00017317508, -40803.293, -40803.293, 0.0, 10.000002, 9.942172 
1.5750001e+3, 3.138706e+2, -39725.29, -82511.21, -0.00626346, 0.0000006895883, -0.000055118435, -39725.29, -39725.29, 0.0, 10.000002, 9.943683 
1.5850002e+3, 1.24993354e+2, -1719943.4, -1724224.5, 0.009300346, 0.0000007719027, 0.000017773476, -1719943.4, -4878.308, 0.0, 10.000002, 9.994326 
1.5850002e+3, 1.3498761e+2, -1622563.0, -1627434.6, -0.005608338, 0.0000007609472, -0.000068119036, -1622563.0, -5441.5513, 0.0, 10.000002, 9.993544 
1.5850002e+3, 1.4497514e+2, -1534461.6, -1548146.1, 0.006149197, 0.00000075382667, 0.000071011564, -1534461.6, -15218.066, 0.0, 10.000002, 9.981863 
1.5850002e+3, 1.5495703e+2, -1436734.0, -1450821.8, -0.0040543717, 0.0000007505256, -0.00005680961, -1436734.0, -15312.906, 0.0, 10.000002, 9.981332 
1.5850002e+3, 1.6493228e+2, -1348683.0, -1371952.1, 0.00565389, 0.00000074706287, 0.00004753269, -1348683.0, -25019.393, 0.0, 10.000002, 9.969247 
1.5850002e+3, 1.7490156e+2, -1250725.0, -1274310.0, -0.0063813273, 0.00000074343313, -0.00007367946, -1250725.0, -24760.395, 0.0, 10.000002, 9.968833 
1.5850002e+3, 1.8486422e+2, -1162644.0, -1195719.9, 0.0052487035, 0.00000073902584, 0.00006627881, -1162644.0, -34313.45, 0.0, 10.000002, 9.956394 
1.5850002e+3, 1.9482066e+2, -1064494.4, -1097832.9, -0.0058206334, 0.00000073380454, -0.000057517394, -1064494.4, -33736.805, 0.0, 10.000002, 9.956051 
1.5850002e+3, 2.0477043e+2, -976330.4, -1019434.9, 0.0031262673, 0.000000730023, 0.00006821004, -976330.4, -43080.55, 0.0, 10.000002, 9.94329 
1.5850002e+3, 2.1471375e+2, -878043.4, -921409.75, -0.008163605, 0.00000072780125, -0.00012671592, -878043.4, -42238.15, 0.0, 10.000002, 9.942948 
1.5850002e+3, 2.2465037e+2, -789757.25, -843144.75, 0.003262959, 0.0000007249142, 0.00012098009, -789757.25, -51331.047, 0.0, 10.000002, 9.929907 
1.5850002e+3, 2.3458035e+2, -691323.8, -744966.3, -0.006726625, 0.0000007212741, -0.00008871814, -691323.8, -50211.297, 0.0, 10.000002, 9.929576 
1.5850002e+3, 2.445034e+2, -602999.75, -667018.7, 0.0020290955, 0.0000007177844, 0.00007480323, -602999.75, -59132.9, 0.0, 10.000002, 9.916135 
1.5850002e+3, 2.5441962e+2, -504247.1, -568343.2, -0.008692975, 0.0000007144737, -0.00010665454, -504247.1, -57559.566, 0.0, 10.000002, 9.916035 
1.5850002e+3, 2.643288e+2, -416011.72, -490987.78, 0.002437757, 0.00000071310797, 0.00014066622, -416011.72, -66434.04, 0.0, 10.000002, 9.901963 
1.5850002e+3, 2.742313e+2, -316726.5, -391374.7, -0.006730283, 0.0000007142176, -0.0002033797, -316726.5, -64193.5, 0.0, 10.000002, 9.902384 
1.5850002e+3, 2.841256e+2, -230253.25, -318081.2, 0.0038124511, 0.00000071194063, 0.000229103, -230253.25, -74684.28, 0.0, 10.000002, 9.885438 
1.5850002e+3, 2.940121e+2, -130547.13, -217764.95, -0.0046761935, 0.00000070501665, -0.00025329256, -130547.13, -71865.73, 0.0, 10.000002, 9.886216 
1.5850002e+3, 3.0392656e+2, -40803.145, -84750.12, 0.0048669744, 0.0000007029324, 0.00017317652, -40803.145, -40803.145, 0.0, 10.000002, 9.942172 
1.5850002e+3, 3.138706e+2, -39725.133, -82511.164, -0.004114052, 0.00000070807187, -0.00005511732, -39725.133, -39725.133, 0.0, 10.000002, 9.943683 
1.5950002e+3, 1.24993354e+2, -1719943.5, -1724224.5, 0.0023168032, 0.0000007956024, 0.00001778182, -1719943.5, -4878.3477, 0.0, 10.000002, 9.994326 
1.5950002e+3, 1.3498761e+2, -1622563.0, -1627434.8, -0.012590216, 0.0000007792366, -0.00006811433, -1622563.0, -5441.5894, 0.0, 10.000002, 9.993544 
1.5950002e+3, 1.4497514e+2, -1534461.6, -1548146.1, 0.00111602, 0.00000077105926, 0.00007100977, -1534461.6, -15218.094, 0.0, 10.000002, 9.981863 
1.5950002e+3, 1.5495703e+2, -1436734.0, -1450821.9, -0.009085563, 0.000000771077, -0.000056805424, -1436734.0, -15312.934, 0.0, 10.000002, 9.981332 
1.5950002e+3, 1.6493228e+2, -1348683.0, -1371952.3, 0.00059634296, 0.000000768384, 0.00004754005, -1348683.0, -25019.424, 0.0, 10.000002, 9.969247 
1.5950002e+3, 1.7490156e+2, -1250725.0, -1274310.0, -0.011440192, 0.0000007629188, -0.000073671814, -1250725.0, -24760.424, 0.0, 10.000002, 9.968833 
1.5950002e+3, 1.8486422e+2, -1162644.1, -1195720.0, 0.00060195255, 0.00000075789745, 0.0000662825, -1162644.1, -34313.477, 0.0, 10.000002, 9.956394 
1.5950002e+3, 1.9482066e+2, -1064494.4, -1097832.9, -0.010463312, 0.00000075334106, -0.000057522117, -1064494.4, -33736.832, 0.0, 10.000002, 9.956051 
1.5950002e+3, 2.0477043e+2, -976330.4, -1019434.94, -0.0000947709, 0.00000074989947, 0.00006820888, -976330.4, -43080.58, 0.0, 10.000002, 9.94329 
1.5950002e+3, 2.1471375e+2, -878043.4, -921409.8, -0.011355884, 0.00000074766353, -0.00012670057, -878043.4, -42238.176, 0.0, 10.000002, 9.942948 
1.5950002e+3, 2.246504e+2, -789757.3, -843144.75, -0.0008101751, 0.0000007445477, 0.00012099774, -789757.3, -51331.07, 0.0, 10.000002, 9.929907 
1.5950002e+3, 2.3458035e+2, -691323.8, -744966.4, -0.010828908, 0.00000074043606, -0.00008871428, -691323.8, -50211.32, 0.0, 10.000002, 9.929576 
1.5950002e+3, 2.445034e+2, -602999.75, -667018.7, 0.000050775514, 0.0000007368468, 0.00007480174, -602999.75, -59132.92, 0.0, 10.000002, 9.916135 
1.5950002e+3, 2.5441962e+2, -504247.13, -568343.25, -0.010569178, 0.00000073388435, -0.00010665127, -504247.13, -57559.59, 0.0, 10.000002, 9.916035 
1.5950002e+3, 2.643288e+2, -416011.72, -490987.84, 0.000071874725, 0.0000007327014, 0.00014067185, -416011.72, -66434.06, 0.0, 10.000002, 9.901963 
1.5950002e+3, 2.742313e+2, -316726.53, -391374.72, -0.009128457, 0.000000733782, -0.00020337477, -316726.53, -64193.52, 0.0, 10.000002, 9.902384 
1.5950002e+3, 2.841256e+2, -230253.28, -318081.22, 0.0020739106, 0.0000007311218, 0.00022910644, -230253.28, -74684.3, 0.0, 10.000002, 9.885438 
1.5950002e+3, 2.940121e+2, -130547.16, -217765.0, -0.0063547194, 0.00000072333086, -0.00025329168, -130547.16, -71865.74, 0.0, 10.000002, 9.886216 
1.5950002e+3, 3.0392656e+2, -40803.164, -84750.16, 0.0045693526, 0.00000072137664, 0.0001731752, -40803.164, -40803.164, 0.0, 10.000002, 9.942172 
1.5950002e+3, 3.138706e+2, -39725.152, -82511.21, -0.004248714, 0.0000007281315, -0.00005512036, -39725.152, -39725.152, 0.0, 10.000002, 9.943683 
1.605e+3, 1.24993354e+2, -1719943.3, -1724224.5, 0.008202434, 0.00000081550377, 0.000017787412, -1719943.3, -4878.1606, 0.0, 10.000003, 9.994326 
1.605e+3, 1.3498761e+2, -1622562.9, -1627434.6, -0.0025433765, 0.00000080107327, -0.000068105765, -1622562.9, -5441.402, 0.0, 10.000003, 9.993544 
1.605e+3, 1.4497514e+2, -1534461.4, -1548146.1, 0.012384939, 0.000000792804, 0.00007101404, -1534461.4, -15217.906, 0.0, 10.000003, 9.981863 
1.605e+3, 1.5495703e+2, -1436733.8, -1450821.8, -0.0019076349, 0.0000007906815, -0.000056800338, -1436733.8, -15312.752, 0.0, 10.000003, 9.981332 
1.605e+3, 1.6493228e+2, -1348682.9, -1371952.1, 0.0065236967, 0.00000078766686, 0.00004754521, -1348682.9, -25019.244, 0.0, 10.000003, 9.969247 
1.605e+3, 1.7490156e+2, -1250724.9, -1274310.0, -0.005148607, 0.00000078373637, -0.00007366734, -1250724.9, -24760.246, 0.0, 10.000003, 9.968833 
1.605e+3, 1.8486422e+2, -1162643.9, -1195719.9, 0.00690357, 0.00000077893156, 0.000066286586, -1162643.9, -34313.3, 0.0, 10.000003, 9.956394 
1.605e+3, 1.9482066e+2, -1064494.1, -1097832.8, -0.0053805164, 0.0000007732117, -0.00005751811, -1064494.1, -33736.652, 0.0, 10.000003, 9.956051 
1.605e+3, 2.0477043e+2, -976330.25, -1019434.9, 0.005287111, 0.0000007694726, 0.00006821268, -976330.25, -43080.402, 0.0, 10.000003, 9.94329 
1.605e+3, 2.1471375e+2, -878043.25, -921409.75, -0.0055995374, 0.00000076787666, -0.00012669712, -878043.25, -42238.008, 0.0, 10.000002, 9.942948 
1.605e+3, 2.246504e+2, -789757.1, -843144.75, 0.0047286768, 0.0000007648685, 0.000121000936, -789757.1, -51330.902, 0.0, 10.000002, 9.929907 
1.605e+3, 2.3458035e+2, -691323.6, -744966.3, -0.007167561, 0.0000007602615, -0.00008871127, -691323.6, -50211.15, 0.0, 10.000002, 9.929576 
1.605e+3, 2.445034e+2, -602999.6, -667018.7, 0.003535046, 0.0000007565534, 0.00007480452, -602999.6, -59132.75, 0.0, 10.000002, 9.916135 
1.605e+3, 2.5441962e+2, -504246.97, -568343.2, -0.0067716576, 0.000000753923, -0.00010664881, -504246.97, -57559.42, 0.0, 10.000002, 9.916035 
1.605e+3, 2.643288e+2, -416011.56, -490987.78, 0.00375744, 0.00000075266615, 0.0001406741, -416011.56, -66433.9, 0.0, 10.000002, 9.901963 
1.605e+3, 2.742313e+2, -316726.34, -391374.7, -0.0069203433, 0.00000075315444, -0.00020337256, -316726.34, -64193.355, 0.0, 10.000002, 9.902384 
1.605e+3, 2.841256e+2, -230253.11, -318081.16, 0.0032800864, 0.0000007504746, 0.00022910844, -230253.11, -74684.13, 0.0, 10.000002, 9.885438 
1.605e+3, 2.940121e+2, -130546.99, -217764.95, -0.0071384045, 0.00000074345013, -0.00025329014, -130546.99, -71865.58, 0.0, 10.000002, 9.886216 
1.605e+3, 3.0392656e+2, -40803.0, -84750.11, 0.003085259, 0.0000007414975, 0.00017317632, -40803.0, -40803.0, 0.0, 10.000002, 9.942172 
1.605e+3, 3.138706e+2, -39724.996, -82511.164, -0.005644637, 0.0000007471115, -0.00005511955, -39724.996, -39724.996, 0.0, 10.000002, 9.943683 
1.615e+3, 1.2499336e+2, -1719943.3, -1724224.5, 0.0016427446, 0.00000083160745, 0.000017790244, -1719943.3, -4878.1904, 0.0, 10.000003, 9.994326 
1.615e+3, 1.3498761e+2, -1622562.9, -1627434.8, -0.009101761, 0.00000082645727, -0.000068093344, -1622562.9, -5441.431, 0.0, 10.000003, 9.993544 
1.615e+3, 1.4497514e+2, -1534461.5, -1548146.1, 0.0061434787, 0.00000081906046, 0.00007102438, -1534461.5, -15217.943, 0.0, 10.000003, 9.981863 
1.615e+3, 1.5495703e+2, -1436733.9, -1450821.9, -0.008149828, 0.000000809339, -0.00005679435, -1436733.9, -15312.788, 0.0, 10.000003, 9.981332 
1.615e+3, 1.6493228e+2, -1348682.9, -1371952.3, 0.0015310788, 0.0000008049113, 0.000047548172, -1348682.9, -25019.275, 0.0, 10.000003, 9.969247 
1.615e+3, 1.7490156e+2, -1250724.9, -1274310.0, -0.010135372, 0.00000080588575, -0.00007366604, -1250724.9, -24760.275, 0.0, 10.000003, 9.968833 
1.615e+3, 1.8486422e+2, -1162643.9, -1195720.0, 0.0022938144, 0.0000008021279, 0.00006629107, -1162643.9, -34313.33, 0.0, 10.000003, 9.956394 
1.615e+3, 1.9482066e+2, -1064494.3, -1097832.9, -0.009986657, 0.0000007934162, -0.000057505382, -1064494.3, -33736.684, 0.0, 10.000003, 9.956051 
1.615e+3, 2.0477043e+2, -976330.25, -1019434.9, 0.0007376339, 0.00000078874194, 0.00006822144, -976330.25, -43080.43, 0.0, 10.000003, 9.943289 
1.615e+3, 2.1471375e+2, -878043.25, -921409.75, -0.010148508, 0.00000078844056, -0.00012670556, -878043.25, -42238.03, 0.0, 10.000002, 9.942948 
1.615e+3, 2.246504e+2, -789757.1, -843144.75, 0.001967977, 0.0000007858764, 0.00012098966, -789757.1, -51330.93, 0.0, 10.000002, 9.929907 
1.615e+3, 2.3458035e+2, -691323.7, -744966.4, -0.0098699685, 0.0000007807504, -0.0000887091, -691323.7, -50211.176, 0.0, 10.000002, 9.929575 
1.615e+3, 2.445034e+2, -602999.6, -667018.7, 0.00012919599, 0.00000077690396, 0.000074811556, -602999.6, -59132.773, 0.0, 10.000002, 9.916135 
1.615e+3, 2.5441962e+2, -504246.97, -568343.25, -0.010211166, 0.0000007745896, -0.00010664716, -504246.97, -57559.445, 0.0, 10.000002, 9.916035 
1.615e+3, 2.643288e+2, -416011.6, -490987.84, 0.0015529484, 0.00000077300206, 0.00014067299, -416011.6, -66433.92, 0.0, 10.000002, 9.901963 
1.615e+3, 2.742313e+2, -316726.38, -391374.72, -0.009041879, 0.0000007723349, -0.00020337309, -316726.38, -64193.38, 0.0, 10.000002, 9.902384 
1.615e+3, 2.841256e+2, -230253.14, -318081.22, 0.001945506, 0.0000007699988, 0.00022910896, -230253.14, -74684.16, 0.0, 10.000002, 9.885437 
1.615e+3, 2.940121e+2, -130547.016, -217765.0, -0.0084016, 0.0000007653743, -0.00025328796, -130547.016, -71865.6, 0.0, 10.000002, 9.886216 
1.615e+3, 3.0392656e+2, -40803.023, -84750.16, 0.0014659208, 0.0000007632949, 0.00017317993, -40803.023, -40803.023, 0.0, 10.000002, 9.942172 
1.615e+3, 3.138706e+2, -39725.02, -82511.21, -0.007305048, 0.00000076501186, -0.0000551149, -39725.02, -39725.02, 0.0, 10.000002, 9.943683 
1.6250001e+3, 1.2499336e+2, -1719943.1, -1724224.4, 0.009971567, 0.0000008526931, 0.000017795992, -1719943.1, -4877.9956, 0.0, 10.000003, 9.994326 
1.6250001e+3, 1.3498761e+2, -1622562.6, -1627434.6, -0.005585353, 0.0000008485747, -0.00006808696, -1622562.6, -5441.2334, 0.0, 10.000003, 9.993544 
1.6250001e+3, 1.4497516e+2, -1534461.3, -1548146.0, 0.007848937, 0.00000084150645, 0.000071028364, -1534461.3, -15217.747, 0.0, 10.000003, 9.981863 
1.6250001e+3, 1.5495703e+2, -1436733.6, -1450821.8, -0.0042885193, 0.00000083139366, -0.000056789253, -1436733.6, -15312.597, 0.0, 10.000003, 9.981332 
1.6250001e+3, 1.6493228e+2, -1348682.6, -1371952.1, 0.0073794047, 0.00000082651326, 0.000047553323, -1348682.6, -25019.084, 0.0, 10.000003, 9.969247 
1.6250001e+3, 1.7490156e+2, -1250724.6, -1274310.0, -0.0060324455, 0.0000008269734, -0.00007366191, -1250724.6, -24760.084, 0.0, 10.000003, 9.968833 
1.6250001e+3, 1.8486422e+2, -1162643.8, -1195719.9, 0.0053856005, 0.00000082306155, 0.00006629482, -1162643.8, -34313.14, 0.0, 10.000003, 9.956394 
1.6250001e+3, 1.9482066e+2, -1064494.0, -1097832.8, -0.0066347895, 0.00000081457256, -0.000057501307, -1064494.0, -33736.5, 0.0, 10.000003, 9.956051 
1.6250001e+3, 2.0477043e+2, -976330.06, -1019434.8, 0.004519908, 0.0000008100373, 0.00006822536, -976330.06, -43080.246, 0.0, 10.000003, 9.943289 
1.6250001e+3, 2.1471375e+2, -878043.06, -921409.7, -0.008555182, 0.00000080978486, -0.0001267023, -878043.06, -42237.844, 0.0, 10.000003, 9.942948 
1.6250001e+3, 2.246504e+2, -789756.94, -843144.7, 0.0028527488, 0.00000080701335, 0.00012099261, -789756.94, -51330.742, 0.0, 10.000003, 9.929907 
1.6250001e+3, 2.3458035e+2, -691323.5, -744966.3, -0.008002449, 0.0000008013893, -0.00008870609, -691323.5, -50211.0, 0.0, 10.000003, 9.929575 
1.6250001e+3, 2.445034e+2, -602999.44, -667018.6, 0.003050175, 0.0000007974578, 0.00007481445, -602999.44, -59132.6, 0.0, 10.000003, 9.916135 
1.6250001e+3, 2.5441962e+2, -504246.8, -568343.2, -0.0085393265, 0.0000007955506, -0.0001066446, -504246.8, -57559.27, 0.0, 10.000003, 9.916035 
1.6250001e+3, 2.643288e+2, -416011.4, -490987.78, 0.0027877493, 0.00000079401656, 0.00014067529, -416011.4, -66433.74, 0.0, 10.000003, 9.901963 
1.6250001e+3, 2.742313e+2, -316726.2, -391374.7, -0.0076958044, 0.0000007929514, -0.00020337099, -316726.2, -64193.203, 0.0, 10.000003, 9.902384 
1.6250001e+3, 2.841256e+2, -230252.95, -318081.16, 0.0043502008, 0.0000007904575, 0.00022911091, -230252.95, -74683.984, 0.0, 10.000003, 9.885437 
1.6250001e+3, 2.940121e+2, -130546.84, -217764.95, -0.00510707, 0.00000078600596, -0.00025328607, -130546.84, -71865.43, 0.0, 10.000003, 9.886216 
1.6250001e+3, 3.0392656e+2, -40802.855, -84750.11, 0.005634665, 0.00000078399535, 0.00017318157, -40802.855, -40802.855, 0.0, 10.000003, 9.942172 
1.6250001e+3, 3.138706e+2, -39724.844, -82511.164, -0.0040053497, 0.000000785624, -0.000055113756, -39724.844, -39724.844, 0.0, 10.000003, 9.943683 
1.6350001e+3, 1.2499336e+2, -1719943.1, -1724224.5, 0.00411009, 0.0000008787605, 0.000017804647, -1719943.1, -4878.0366, 0.0, 10.000003, 9.994326 
1.6350001e+3, 1.3498761e+2, -1622562.6, -1627434.8, -0.011445611, 0.0000008674256, -0.00006808662, -1622562.6, -5441.274, 0.0, 10.000003, 9.993544 
1.6350001e+3, 1.4497516e+2, -1534461.3, -1548146.1, 0.0006939839, 0.00000086014194, 0.00007102599, -1534461.3, -15217.779, 0.0, 10.000003, 9.981863 
1.6350001e+3, 1.5495704e+2, -1436733.6, -1450821.8, -0.011446417, 0.0000008568452, -0.000056785047, -1436733.6, -15312.629, 0.0, 10.000003, 9.981332 
1.6350001e+3, 1.6493228e+2, -1348682.8, -1371952.3, 0.0024477688, 0.00000085247257, 0.000047560654, -1348682.8, -25019.117, 0.0, 10.000003, 9.969247 
1.6350001e+3, 1.7490156e+2, -1250724.8, -1274310.0, -0.010952894, 0.00000084699934, -0.00007365497, -1250724.8, -24760.117, 0.0, 10.000003, 9.968833 
1.6350001e+3, 1.8486422e+2, -1162643.8, -1195720.0, -0.00043887956, 0.0000008417324, 0.00006629785, -1162643.8, -34313.17, 0.0, 10.000003, 9.956394 
1.6350001e+3, 1.9482066e+2, -1064494.0, -1097832.9, -0.012470447, 0.00000083668067, -0.000057505888, -1064494.0, -33736.527, 0.0, 10.000003, 9.956051 
1.6350001e+3, 2.0477043e+2, -976330.06, -1019434.9, 0.0012980691, 0.0000008333585, 0.00006822445, -976330.06, -43080.277, 0.0, 10.000003, 9.943289 
1.6350001e+3, 2.1471375e+2, -878043.06, -921409.75, -0.011723364, 0.00000083190946, -0.00012668732, -878043.06, -42237.875, 0.0, 10.000003, 9.942948 
1.6350001e+3, 2.246504e+2, -789757.0, -843144.75, -0.0021110997, 0.0000008282792, 0.000121009776, -789757.0, -51330.77, 0.0, 10.000003, 9.929907 
1.6350001e+3, 2.3458035e+2, -691323.5, -744966.4, -0.0130253965, 0.0000008221782, -0.00008870224, -691323.5, -50211.023, 0.0, 10.000003, 9.929575 
1.6350001e+3, 2.445034e+2, -602999.5, -667018.7, 0.0009179563, 0.0000008182147, 0.0000748132, -602999.5, -59132.625, 0.0, 10.000003, 9.916135 
1.6350001e+3, 2.5441962e+2, -504246.8, -568343.25, -0.010532798, 0.000000816806, -0.000106641106, -504246.8, -57559.293, 0.0, 10.000003, 9.916035 
1.6350001e+3, 2.643288e+2, -416011.44, -490987.8, 0.0000409597, 0.0000008157095, 0.000140681, -416011.44, -66433.766, 0.0, 10.000003, 9.901963 
1.6350001e+3, 2.742313e+2, -316726.22, -391374.72, -0.010493011, 0.0000008150041, -0.00020336627, -316726.22, -64193.227, 0.0, 10.000003, 9.902384 
1.6350001e+3, 2.841256e+2, -230252.98, -318081.22, 0.0020403054, 0.0000008118505, 0.00022911429, -230252.98, -74684.01, 0.0, 10.000003, 9.885437 
1.6350001e+3, 2.940121e+2, -130546.87, -217765.0, -0.0073726657, 0.00000080534494, -0.0002532845, -130546.87, -71865.45, 0.0, 10.000003, 9.886216 
1.6350001e+3, 3.0392656e+2, -40802.88, -84750.16, 0.005376799, 0.00000080359877, 0.00017318125, -40802.88, -40802.88, 0.0, 10.000003, 9.942172 
1.6350001e+3, 3.138706e+2, -39724.867, -82511.21, -0.004026888, 0.00000080894785, -0.000055116117, -39724.867, -39724.867, 0.0, 10.000003, 9.943683 
1.6450001e+3, 1.2499336e+2, -1719942.9, -1724224.4, 0.010666729, 0.0000009015193, 0.000017809896, -1719942.9, -4877.827, 0.0, 10.000003, 9.994326 
1.6450001e+3, 1.3498761e+2, -1622562.5, -1627434.6, -0.0018184728, 0.0000008901831, -0.00006808125, -1622562.5, -5441.07, 0.0, 10.000003, 9.993544 
1.6450001e+3, 1.4497516e+2, -1534461.1, -1548146.0, 0.009963796, 0.0000008830382, 0.000071030976, -1534461.1, -15217.576, 0.0, 10.000003, 9.981863 
1.6450001e+3, 1.5495704e+2, -1436733.4, -1450821.8, -0.00494821, 0.00000088000786, -0.000056780107, -1436733.4, -15312.424, 0.0, 10.000003, 9.981332 
1.6450001e+3, 1.6493228e+2, -1348682.5, -1371952.1, 0.008966353, 0.00000087529315, 0.00004756564, -1348682.5, -25018.914, 0.0, 10.000003, 9.969247 
1.6450001e+3, 1.7490156e+2, -1250724.5, -1274310.0, -0.0041214866, 0.0000008688568, -0.00007364985, -1250724.5, -24759.922, 0.0, 10.000003, 9.968833 
1.6450001e+3, 1.8486422e+2, -1162643.5, -1195719.9, 0.006227833, 0.0000008636219, 0.0000663026, -1162643.5, -34312.977, 0.0, 10.000003, 9.956394 
1.6450001e+3, 1.9482066e+2, -1064493.9, -1097832.8, -0.0074727, 0.00000085964444, -0.000057502046, -1064493.9, -33736.33, 0.0, 10.000003, 9.956051 
1.6450001e+3, 2.0477043e+2, -976329.9, -1019434.8, 0.00696596, 0.0000008561324, 0.000068228044, -976329.9, -43080.08, 0.0, 10.000003, 9.943289 
1.6450001e+3, 2.1471375e+2, -878042.9, -921409.7, -0.004562988, 0.00000085312337, -0.00012668328, -878042.9, -42237.688, 0.0, 10.000003, 9.942948 
1.6450001e+3, 2.246504e+2, -789756.8, -843144.7, 0.005199581, 0.0000008493686, 0.00012101382, -789756.8, -51330.586, 0.0, 10.000003, 9.929907 
1.6450001e+3, 2.3458035e+2, -691323.3, -744966.3, -0.008194316, 0.0000008447676, -0.00008869872, -691323.3, -50210.83, 0.0, 10.000003, 9.929575 
1.6450001e+3, 2.445034e+2, -602999.25, -667018.6, 0.0050073145, 0.00000084111764, 0.00007481621, -602999.25, -59132.434, 0.0, 10.000003, 9.916135 
1.6450001e+3, 2.5441962e+2, -504246.63, -568343.2, -0.0066115023, 0.0000008386035, -0.00010663861, -504246.63, -57559.11, 0.0, 10.000003, 9.916035 
1.6450001e+3, 2.643288e+2, -416011.25, -490987.78, 0.004025507, 0.0000008368873, 0.00014068327, -416011.25, -66433.586, 0.0, 10.000003, 9.901963 
1.6450001e+3, 2.742313e+2, -316726.03, -391374.7, -0.007515622, 0.0000008361841, -0.00020336384, -316726.03, -64193.043, 0.0, 10.000003, 9.902384 
1.6450001e+3, 2.841256e+2, -230252.8, -318081.16, 0.00397619, 0.0000008334436, 0.00022911653, -230252.8, -74683.82, 0.0, 10.000003, 9.885437 
1.6450001e+3, 2.940121e+2, -130546.68, -217764.94, -0.0076418994, 0.0000008279108, -0.00025328292, -130546.68, -71865.266, 0.0, 10.000003, 9.886216 
1.6450001e+3, 3.0392656e+2, -40802.695, -84750.11, 0.004249466, 0.0000008260429, 0.00017318231, -40802.695, -40802.695, 0.0, 10.000003, 9.942171 
1.6450001e+3, 3.138706e+2, -39724.69, -82511.164, -0.005900294, 0.00000082964067, -0.000055115335, -39724.69, -39724.69, 0.0, 10.000003, 9.943683 
1.6550002e+3, 1.2499336e+2, -1719942.9, -1724224.5, 0.0037789464, 0.00000092096957, 0.000017811739, -1719942.9, -4877.862, 0.0, 10.000003, 9.994326 
1.6550002e+3, 1.3498761e+2, -1622562.5, -1627434.8, -0.008705732, 0.0000009168469, -0.00006807086, -1622562.5, -5441.1035, 0.0, 10.000003, 9.993544 
1.6550002e+3, 1.4497516e+2, -1534461.1, -1548146.1, 0.0032622854, 0.0000009101951, 0.000071043316, -1534461.1, -15217.615, 0.0, 10.000003, 9.981863 
1.6550002e+3, 1.5495704e+2, -1436733.5, -1450821.8, -0.011649775, 0.0000009008819, -0.00005677443, -1436733.5, -15312.462, 0.0, 10.000003, 9.981332 
1.6550002e+3, 1.6493228e+2, -1348682.5, -1371952.3, 0.0025178934, 0.0000008949751, 0.000047568283, -1348682.5, -25018.95, 0.0, 10.000003, 9.969247 
1.6550002e+3, 1.7490157e+2, -1250724.5, -1274310.0, -0.010569145, 0.00000089254553, -0.000073646544, -1250724.5, -24759.955, 0.0, 10.000003, 9.968833 
1.6550002e+3, 1.8486422e+2, -1162643.6, -1195720.0, 0.0016156005, 0.00000088872997, 0.00006630907, -1162643.6, -34313.01, 0.0, 10.000003, 9.956394 
1.6550002e+3, 1.9482066e+2, -1064493.9, -1097832.9, -0.012064032, 0.0000008834639, -0.000057489782, -1064493.9, -33736.363, 0.0, 10.000003, 9.956051 
1.6550002e+3, 2.0477043e+2, -976329.94, -1019434.9, 0.001377655, 0.0000008783587, 0.00006823613, -976329.94, -43080.11, 0.0, 10.000003, 9.943289 
1.6550002e+3, 2.1471375e+2, -878042.94, -921409.75, -0.010172381, 0.0000008734266, -0.00012669017, -878042.94, -42237.72, 0.0, 10.000003, 9.942948 
1.6550002e+3, 2.246504e+2, -789756.8, -843144.75, 0.0023956774, 0.0000008702813, 0.000121004734, -789756.8, -51330.617, 0.0, 10.000003, 9.929907 
1.6550002e+3, 2.3458035e+2, -691323.4, -744966.4, -0.010906789, 0.00000086915753, -0.00008869551, -691323.4, -50210.86, 0.0, 10.000003, 9.929575 
1.6550002e+3, 2.445034e+2, -602999.3, -667018.7, 0.0007838908, 0.00000086616666, 0.00007482349, -602999.3, -59132.46, 0.0, 10.000003, 9.916135 
1.6550002e+3, 2.5441962e+2, -504246.66, -568343.25, -0.010907651, 0.00000086094303, -0.00010663709, -504246.66, -57559.137, 0.0, 10.000003, 9.916035 
1.6550002e+3, 2.643288e+2, -416011.28, -490987.8, 0.0017147561, 0.0000008575499, 0.00014068214, -416011.28, -66433.61, 0.0, 10.000003, 9.901963 
1.6550002e+3, 2.742313e+2, -316726.06, -391374.72, -0.009693177, 0.00000085649117, -0.00020336368, -316726.06, -64193.07, 0.0, 10.000003, 9.902384 
1.6550002e+3, 2.841256e+2, -230252.83, -318081.22, 0.002307775, 0.0000008552366, 0.00022911765, -230252.83, -74683.85, 0.0, 10.000003, 9.885437 
1.6550002e+3, 2.940121e+2, -130546.7, -217765.0, -0.009264068, 0.00000085370334, -0.00025328132, -130546.7, -71865.3, 0.0, 10.000003, 9.886216 
1.6550002e+3, 3.0392656e+2, -40802.72, -84750.16, 0.0022859895, 0.0000008513277, 0.00017318477, -40802.72, -40802.72, 0.0, 10.000003, 9.942171 
1.6550002e+3, 3.138706e+2, -39724.715, -82511.21, -0.007903293, 0.00000084770255, -0.00005511141, -39724.715, -39724.715, 0.0, 10.000003, 9.943683 
1.6650002e+3, 1.2499336e+2, -1719942.8, -1724224.4, 0.012015183, 0.0000009468203, 0.000017818367, -1719942.8, -4877.641, 0.0, 10.000003, 9.994326 
1.6650002e+3, 1.3498761e+2, -1622562.3, -1627434.6, -0.0044306847, 0.00000093988405, -0.00006806681, -1622562.3, -5440.887, 0.0, 10.000003, 9.993544 
1.6650002e+3, 1.4497516e+2, -1534460.9, -1548146.0, 0.006717475, 0.0000009325086, 0.00007104852, -1534460.9, -15217.4, 0.0, 10.000003, 9.981863 
1.6650002e+3, 1.5495704e+2, -1436733.3, -1450821.8, -0.006472114, 0.00000092456037, -0.0000567691, -1436733.3, -15312.251, 0.0, 10.000003, 9.981332 
1.6650002e+3, 1.649323e+2, -1348682.3, -1371952.1, 0.008510537, 0.0000009190911, 0.000047573358, -1348682.3, -25018.738, 0.0, 10.000003, 9.969247 
1.6650002e+3, 1.7490157e+2, -1250724.3, -1274310.0, -0.006200077, 0.00000091615277, -0.00007364211, -1250724.3, -24759.744, 0.0, 10.000003, 9.968833 
1.6650002e+3, 1.8486422e+2, -1162643.4, -1195719.9, 0.006291497, 0.0000009120487, 0.00006631333, -1162643.4, -34312.8, 0.0, 10.000003, 9.956394 
1.6650002e+3, 1.9482066e+2, -1064493.6, -1097832.8, -0.006898595, 0.0000009067241, -0.000057485206, -1064493.6, -33736.16, 0.0, 10.000003, 9.956051 
1.6650002e+3, 2.0477043e+2, -976329.7, -1019434.8, 0.005714736, 0.00000090161535, 0.00006824037, -976329.7, -43079.906, 0.0, 10.000003, 9.943289 
1.6650002e+3, 2.1471375e+2, -878042.7, -921409.7, -0.009213668, 0.00000089673904, -0.00012668697, -878042.7, -42237.508, 0.0, 10.000003, 9.942948 
1.6650002e+3, 2.246504e+2, -789756.6, -843144.7, 0.003069004, 0.00000089343695, 0.00012100748, -789756.6, -51330.41, 0.0, 10.000003, 9.929907 
1.6650002e+3, 2.3458035e+2, -691323.1, -744966.3, -0.00871141, 0.00000089191576, -0.000088692614, -691323.1, -50210.664, 0.0, 10.000003, 9.929575 
1.6650002e+3, 2.445034e+2, -602999.1, -667018.6, 0.0038987983, 0.00000088891625, 0.00007482646, -602999.1, -59132.266, 0.0, 10.000003, 9.916135 
1.6650002e+3, 2.5441962e+2, -504246.47, -568343.2, -0.008804209, 0.0000008841485, -0.000106634165, -504246.47, -57558.938, 0.0, 10.000003, 9.916035 
1.6650002e+3, 2.643288e+2, -416011.06, -490987.75, 0.0036872204, 0.00000088072085, 0.00014068482, -416011.06, -66433.414, 0.0, 10.000003, 9.901963 
1.6650002e+3, 2.742313e+2, -316725.88, -391374.66, -0.008217687, 0.00000087900224, -0.00020336152, -316725.88, -64192.875, 0.0, 10.000003, 9.902384 
1.6650002e+3, 2.841256e+2, -230252.63, -318081.16, 0.0045684744, 0.0000008775836, 0.00022911954, -230252.63, -74683.66, 0.0, 10.000003, 9.885437 
1.6650002e+3, 2.940121e+2, -130546.516, -217764.95, -0.005966161, 0.0000008765673, -0.0002532794, -130546.516, -71865.11, 0.0, 10.000003, 9.886216 
1.6650002e+3, 3.0392656e+2, -40802.53, -84750.1, 0.006658703, 0.00000087436683, 0.0001731866, -40802.53, -40802.53, 0.0, 10.000003, 9.942171 
1.6650002e+3, 3.138706e+2, -39724.523, -82511.16, -0.003633026, 0.0000008704034, -0.000055109816, -39724.523, -39724.523, 0.0, 10.000003, 9.943683 
1.6750002e+3, 1.2499336e+2, -1719942.8, -1724224.5, 0.004384474, 0.0000009790712, 0.000017829778, -1719942.8, -4877.6855, 0.0, 10.000003, 9.994326 
1.6750002e+3, 1.3498761e+2, -1622562.3, -1627434.8, -0.012061525, 0.0000009592948, -0.00006806909, -1622562.3, -5440.93, 0.0, 10.000003, 9.993544 
1.6750002e+3, 1.4497516e+2, -1534460.9, -1548146.1, -0.00052405277, 0.0000009499788, 0.00007104659, -1534460.9, -15217.436, 0.0, 10.000003, 9.981863 
1.6750002e+3, 1.5495704e+2, -1436733.3, -1450821.8, -0.013713141, 0.0000009510431, -0.000056764125, -1436733.3, -15312.285, 0.0, 10.000003, 9.981332 
1.6750002e+3, 1.649323e+2, -1348682.4, -1371952.3, 0.0024552452, 0.00000094764107, 0.000047580863, -1348682.4, -25018.775, 0.0, 10.000003, 9.969247 
1.6750002e+3, 1.7490157e+2, -1250724.4, -1274310.0, -0.012249416, 0.0000009396785, -0.00007363654, -1250724.4, -24759.781, 0.0, 10.000003, 9.968833 
1.6750002e+3, 1.8486422e+2, -1162643.4, -1195720.0, 0.00016806199, 0.000000933578, 0.000066315384, -1162643.4, -34312.836, 0.0, 10.000003, 9.956394 
1.6750002e+3, 1.9482066e+2, -1064493.8, -1097832.9, -0.01302328, 0.000000929425, -0.00005748832, -1064493.8, -33736.19, 0.0, 10.000003, 9.956051 
1.6750002e+3, 2.0477043e+2, -976329.75, -1019434.9, 0.0016305833, 0.00000092590216, 0.00006824077, -976329.75, -43079.94, 0.0, 10.000003, 9.943289 
1.6750002e+3, 2.1471377e+2, -878042.75, -921409.75, -0.013255996, 0.0000009230607, -0.00012667365, -878042.75, -42237.543, 0.0, 10.000003, 9.942948 
1.6750002e+3, 2.246504e+2, -789756.6, -843144.75, -0.0021739139, 0.00000091883527, 0.00012102203, -789756.6, -51330.438, 0.0, 10.000003, 9.929906 
1.6750002e+3, 2.3458035e+2, -691323.2, -744966.3, -0.013993789, 0.00000091304236, -0.00008869001, -691323.2, -50210.695, 0.0, 10.000003, 9.929575 
1.6750002e+3, 2.445034e+2, -602999.1, -667018.7, 0.0012437834, 0.0000009093663, 0.00007482513, -602999.1, -59132.297, 0.0, 10.000003, 9.916135 
1.6750002e+3, 2.5441962e+2, -504246.5, -568343.25, -0.011333071, 0.0000009082198, -0.00010662982, -504246.5, -57558.965, 0.0, 10.000003, 9.916035 
1.6750002e+3, 2.643288e+2, -416011.1, -490987.8, 0.00052574236, 0.00000090640003, 0.00014069132, -416011.1, -66433.44, 0.0, 10.000003, 9.901963 
1.6750002e+3, 2.742313e+2, -316725.9, -391374.72, -0.011421565, 0.00000090371725, -0.00020335731, -316725.9, -64192.902, 0.0, 10.000003, 9.902384 
1.6750002e+3, 2.841256e+2, -230252.66, -318081.22, 0.0021994212, 0.0000009004846, 0.0002291222, -230252.66, -74683.68, 0.0, 10.000003, 9.885437 
1.6750002e+3, 2.940121e+2, -130546.54, -217765.0, -0.008259808, 0.0000008965028, -0.00025327716, -130546.54, -71865.13, 0.0, 10.000003, 9.886216 
1.6750002e+3, 3.0392656e+2, -40802.56, -84750.16, 0.00595268, 0.0000008951605, 0.00017318781, -40802.56, -40802.56, 0.0, 10.000003, 9.942171 
1.6750002e+3, 3.138706e+2, -39724.547, -82511.21, -0.004152357, 0.0000008977431, -0.000055110562, -39724.547, -39724.547, 0.0, 10.000003, 9.943683 
1.685e+3, 1.2499336e+2, -1719942.5, -1724224.4, 0.01291446, 0.0000010048528, 0.000017837889, -1719942.5, -4877.449, 0.0, 10.000003, 9.994326 
1.685e+3, 1.3498761e+2, -1622562.1, -1627434.6, -0.0018486887, 0.000000984379, -0.00006806321, -1622562.1, -5440.7056, 0.0, 10.000003, 9.993544 
1.685e+3, 1.4497516e+2, -1534460.8, -1548146.0, 0.011093623, 0.0000009746822, 0.0000710552, -1534460.8, -15217.213, 0.0, 10.000003, 9.981863 
1.685e+3, 1.5495704e+2, -1436733.0, -1450821.8, -0.0050527826, 0.0000009756709, -0.00005675817, -1436733.0, -15312.06, 0.0, 10.000003, 9.981332 
1.685e+3, 1.649323e+2, -1348682.1, -1371952.1, 0.009914935, 0.0000009722825, 0.00004758574, -1348682.1, -25018.55, 0.0, 10.000003, 9.969247 
1.685e+3, 1.7490157e+2, -1250724.1, -1274310.0, -0.004633325, 0.0000009644248, -0.00007363112, -1250724.1, -24759.563, 0.0, 10.000003, 9.968833 
1.685e+3, 1.8486422e+2, -1162643.1, -1195719.9, 0.0077316426, 0.00000095835, 0.000066320645, -1162643.1, -34312.617, 0.0, 10.000003, 9.956394 
1.685e+3, 1.9482066e+2, -1064493.5, -1097832.8, -0.0077473875, 0.0000009541401, -0.00005748396, -1064493.5, -33735.973, 0.0, 10.000003, 9.956051 
1.685e+3, 2.0477043e+2, -976329.5, -1019434.8, 0.0074866754, 0.0000009503414, 0.00006824492, -976329.5, -43079.723, 0.0, 10.000003, 9.943289 
1.685e+3, 2.1471377e+2, -878042.56, -921409.7, -0.004819825, 0.00000094698765, -0.00012666897, -878042.56, -42237.336, 0.0, 10.000003, 9.942948 
1.685e+3, 2.246504e+2, -789756.44, -843144.7, 0.006982939, 0.0000009427751, 0.00012102659, -789756.44, -51330.23, 0.0, 10.000003, 9.929906 
1.685e+3, 2.3458035e+2, -691322.94, -744966.25, -0.008104529, 0.0000009375896, -0.00008868631, -691322.94, -50210.48, 0.0, 10.000003, 9.929575 
1.685e+3, 2.445034e+2, -602998.94, -667018.6, 0.0058345245, 0.00000093393885, 0.000074828204, -602998.94, -59132.082, 0.0, 10.000003, 9.916135 
1.685e+3, 2.5441962e+2, -504246.28, -568343.2, -0.0070953043, 0.0000009321216, -0.00010662707, -504246.28, -57558.76, 0.0, 10.000003, 9.916035 
1.685e+3, 2.643288e+2, -416010.9, -490987.75, 0.0048593027, 0.0000009299408, 0.00014069388, -416010.9, -66433.234, 0.0, 10.000003, 9.901963 
1.685e+3, 2.742313e+2, -316725.7, -391374.66, -0.00781916, 0.0000009272929, -0.00020335481, -316725.7, -64192.7, 0.0, 10.000003, 9.902384 
1.685e+3, 2.841256e+2, -230252.45, -318081.16, 0.005143126, 0.0000009243977, 0.00022912445, -230252.45, -74683.48, 0.0, 10.000003, 9.885437 
1.685e+3, 2.940121e+2, -130546.336, -217764.94, -0.0076618353, 0.0000009211653, -0.0002532755, -130546.336, -71864.92, 0.0, 10.000003, 9.886216 
1.685e+3, 3.0392656e+2, -40802.355, -84750.1, 0.005097402, 0.00000091972083, 0.00017318876, -40802.355, -40802.355, 0.0, 10.000003, 9.942171 
1.685e+3, 3.138706e+2, -39724.35, -82511.16, -0.0065974365, 0.0000009209338, -0.000055110588, -39724.35, -39724.35, 0.0, 10.000003, 9.943683 
1.6950001e+3, 1.2499336e+2, -1719942.5, -1724224.5, 0.0028853675, 0.0000010241655, 0.0000178427, -1719942.5, -4877.49, 0.0, 10.000003, 9.994326 
1.6950001e+3, 1.3498761e+2, -1622562.1, -1627434.8, -0.011878766, 0.0000010151364, -0.000068049165, -1622562.1, -5440.7456, 0.0, 10.000003, 9.993544 
1.6950001e+3, 1.4497516e+2, -1534460.8, -1548146.1, 0.00465751, 0.0000010066185, 0.00007107434, -1534460.8, -15217.256, 0.0, 10.000003, 9.981863 
1.6950001e+3, 1.5495704e+2, -1436733.1, -1450821.8, -0.011483236, 0.000000998444, -0.000056751236, -1436733.1, -15312.102, 0.0, 10.000003, 9.981332 
1.6950001e+3, 1.649323e+2, -1348682.1, -1371952.1, 0.0026697242, 0.0000009930155, 0.000047587997, -1348682.1, -25018.59, 0.0, 10.000003, 9.969247 
1.6950001e+3, 1.7490157e+2, -1250724.1, -1274310.0, -0.011883084, 0.0000009903914, -0.00007362585, -1250724.1, -24759.6, 0.0, 10.000003, 9.968833 
1.6950001e+3, 1.8486422e+2, -1162643.3, -1195720.0, 0.0024681364, 0.0000009863646, 0.0000663291, -1162643.3, -34312.656, 0.0, 10.000003, 9.956394 
1.6950001e+3, 1.9482066e+2, -1064493.5, -1097832.9, -0.012988126, 0.0000009808691, -0.00005747213, -1064493.5, -33736.01, 0.0, 10.000003, 9.956051 
1.6950001e+3, 2.0477043e+2, -976329.56, -1019434.9, 0.0012404895, 0.0000009749332, 0.00006825282, -976329.56, -43079.754, 0.0, 10.000003, 9.943289 
1.6950001e+3, 2.1471377e+2, -878042.56, -921409.75, -0.011087037, 0.0000009685199, -0.00012667291, -878042.56, -42237.367, 0.0, 10.000003, 9.942948 
1.6950001e+3, 2.246504e+2, -789756.5, -843144.75, 0.0036427118, 0.0000009652564, 0.00012102116, -789756.5, -51330.266, 0.0, 10.000003, 9.929906 
1.6950001e+3, 2.3458035e+2, -691323.0, -744966.3, -0.0113491705, 0.0000009655575, -0.000088681525, -691323.0, -50210.516, 0.0, 10.000003, 9.929575 
1.6950001e+3, 2.445034e+2, -602998.94, -667018.7, 0.0012620068, 0.0000009626337, 0.00007483568, -602998.94, -59132.113, 0.0, 10.000003, 9.916135 
1.6950001e+3, 2.5441962e+2, -504246.3, -568343.25, -0.011731726, 0.0000009558539, -0.0001066259, -504246.3, -57558.793, 0.0, 10.000003, 9.916035 
1.6950001e+3, 2.643288e+2, -416010.9, -490987.8, 0.0021106529, 0.00000095134334, 0.00014069247, -416010.9, -66433.266, 0.0, 10.000003, 9.901963 
1.6950001e+3, 2.742313e+2, -316725.72, -391374.72, -0.010441209, 0.00000094972916, -0.000203354, -316725.72, -64192.727, 0.0, 10.000003, 9.902384 
1.6950001e+3, 2.841256e+2, -230252.48, -318081.22, 0.0032610625, 0.0000009493226, 0.00022912625, -230252.48, -74683.51, 0.0, 10.000003, 9.885437 
1.6950001e+3, 2.940121e+2, -130546.37, -217765.0, -0.009477071, 0.00000095055447, -0.00025327443, -130546.37, -71864.95, 0.0, 10.000003, 9.886215 
1.6950001e+3, 3.0392656e+2, -40802.383, -84750.16, 0.0030557718, 0.00000094804767, 0.00017318943, -40802.383, -40802.383, 0.0, 10.000003, 9.942171 
1.6950001e+3, 3.138706e+2, -39724.38, -82511.21, -0.008665399, 0.0000009399754, -0.000055109886, -39724.38, -39724.38, 0.0, 10.000003, 9.943683 
1.7050001e+3, 1.2499336e+2, -1719942.3, -1724224.4, 0.012645515, 0.0000010492031, 0.000017850594, -1719942.3, -4877.257, 0.0, 10.000003, 9.994326 
1.7050001e+3, 1.3498761e+2, -1622561.9, -1627434.6, -0.0045075472, 0.0000010420603, -0.00006804496, -1622561.9, -5440.5, 0.0, 10.000003, 9.993544 
1.7050001e+3, 1.4497516e+2, -1534460.5, -1548146.0, 0.011638947, 0.0000010340199, 0.000071083174, -1534460.5, -15217.011, 0.0, 10.000003, 9.981863 
1.7050001e+3, 1.5495704e+2, -1436732.9, -1450821.8, -0.004457058, 0.0000010248925, -0.000056745346, -1436732.9, -15311.868, 0.0, 10.000003, 9.981332 
1.7050001e+3, 1.649323e+2, -1348681.9, -1371952.1, 0.010030774, 0.0000010189792, 0.000047592555, -1348681.9, -25018.357, 0.0, 10.000003, 9.969247 
1.7050001e+3, 1.7490157e+2, -1250723.9, -1274310.0, -0.0062057497, 0.0000010163476, -0.00007362098, -1250723.9, -24759.363, 0.0, 10.000003, 9.968833 
1.7050001e+3, 1.8486422e+2, -1162643.0, -1195719.9, 0.008105636, 0.0000010120976, 0.00006633423, -1162643.0, -34312.42, 0.0, 10.000003, 9.956394 
1.7050001e+3, 1.9482066e+2, -1064493.3, -1097832.8, -0.006332977, 0.0000010061533, -0.000057466827, -1064493.3, -33735.785, 0.0, 10.000003, 9.956051 
1.7050001e+3, 2.0477043e+2, -976329.3, -1019434.8, 0.007188411, 0.0000010004123, 0.000068257505, -976329.3, -43079.53, 0.0, 10.000003, 9.943289 
1.7050001e+3, 2.1471377e+2, -878042.3, -921409.7, -0.009871147, 0.0000009948911, -0.0001266697, -878042.3, -42237.137, 0.0, 10.000003, 9.942948 
1.7050001e+3, 2.246504e+2, -789756.25, -843144.7, 0.003916034, 0.0000009914058, 0.00012102381, -789756.25, -51330.04, 0.0, 10.000003, 9.929906 
1.7050001e+3, 2.3458035e+2, -691322.75, -744966.25, -0.0090750335, 0.0000009902237, -0.000088678375, -691322.75, -50210.297, 0.0, 10.000003, 9.929575 
1.7050001e+3, 2.445034e+2, -602998.75, -667018.6, 0.0049203844, 0.000000987032, 0.000074839, -602998.75, -59131.9, 0.0, 10.000003, 9.916135 
1.7050001e+3, 2.5441962e+2, -504246.1, -568343.2, -0.009216486, 0.0000009814369, -0.00010662282, -504246.1, -57558.57, 0.0, 10.000003, 9.916035 
1.7050001e+3, 2.643288e+2, -416010.7, -490987.75, 0.0041533876, 0.0000009772929, 0.00014069509, -416010.7, -66433.05, 0.0, 10.000003, 9.901963 
1.7050001e+3, 2.742313e+2, -316725.5, -391374.66, -0.009320961, 0.0000009750004, -0.00020335213, -316725.5, -64192.508, 0.0, 10.000003, 9.902383 
1.7050001e+3, 2.841256e+2, -230252.27, -318081.16, 0.005125966, 0.0000009742234, 0.00022912768, -230252.27, -74683.29, 0.0, 10.000003, 9.885437 
1.7050001e+3, 2.940121e+2, -130546.16, -217764.94, -0.0067179133, 0.0000009755112, -0.00025327297, -130546.16, -71864.74, 0.0, 10.000003, 9.886215 
1.7050001e+3, 3.0392656e+2, -40802.17, -84750.1, 0.006940911, 0.0000009730791, 0.00017319103, -40802.17, -40802.17, 0.0, 10.000003, 9.942171 
1.7050001e+3, 3.138706e+2, -39724.164, -82511.16, -0.0042462414, 0.000000965106, -0.00005510788, -39724.164, -39724.164, 0.0, 10.000003, 9.943683 
1.7150001e+3, 1.2499336e+2, -1719942.4, -1724224.5, 0.005670586, 0.0000010799653, 0.000017861576, -1719942.4, -4877.303, 0.0, 10.000003, 9.994326 
1.7150001e+3, 1.3498762e+2, -1622561.9, -1627434.6, -0.011482934, 0.000001065151, -0.0000680506, -1622561.9, -5440.546, 0.0, 10.000003, 9.993544 
1.7150001e+3, 1.4497516e+2, -1534460.5, -1548146.1, 0.0025779607, 0.0000010568863, 0.00007108169, -1534460.5, -15217.053, 0.0, 10.000003, 9.981863 
1.7150001e+3, 1.5495704e+2, -1436732.9, -1450821.8, -0.01352141, 0.0000010550166, -0.000056740504, -1436732.9, -15311.91, 0.0, 10.000003, 9.981332 
1.7150001e+3, 1.649323e+2, -1348681.9, -1371952.1, 0.00400931, 0.0000010501731, 0.000047599413, -1348681.9, -25018.4, 0.0, 10.000003, 9.969247 
1.7150001e+3, 1.7490157e+2, -1250724.0, -1274310.0, -0.012211308, 0.0000010422931, -0.000073616495, -1250724.0, -24759.404, 0.0, 10.000003, 9.968833 
1.7150001e+3, 1.8486422e+2, -1162643.0, -1195719.9, 0.0007154474, 0.0000010355491, 0.00006633602, -1162643.0, -34312.457, 0.0, 10.000003, 9.956393 
1.7150001e+3, 1.9482066e+2, -1064493.3, -1097832.9, -0.01373941, 0.0000010299927, -0.000057468045, -1064493.3, -33735.82, 0.0, 10.000003, 9.956051 
1.7150001e+3, 2.0477043e+2, -976329.4, -1019434.9, 0.0028132135, 0.0000010267789, 0.000068258974, -976329.4, -43079.574, 0.0, 10.000003, 9.943289 
1.7150001e+3, 2.1471377e+2, -878042.4, -921409.75, -0.014183895, 0.0000010261014, -0.00012665936, -878042.4, -42237.176, 0.0, 10.000003, 9.942948 
1.7150001e+3, 2.246504e+2, -789756.25, -843144.75, -0.0020380733, 0.000001021223, 0.000121034536, -789756.25, -51330.07, 0.0, 10.000003, 9.929906 
1.7150001e+3, 2.3458035e+2, -691322.8, -744966.3, -0.015083024, 0.0000010115884, -0.00008867686, -691322.8, -50210.33, 0.0, 10.000003, 9.929575 
1.7150001e+3, 2.445034e+2, -602998.75, -667018.7, 0.0018848117, 0.0000010071336, 0.00007483816, -602998.75, -59131.934, 0.0, 10.000003, 9.916135 
1.7150001e+3, 2.5441962e+2, -504246.13, -568343.25, -0.012109273, 0.0000010088702, -0.00010661782, -504246.13, -57558.605, 0.0, 10.000003, 9.916035 
1.7150001e+3, 2.643288e+2, -416010.72, -490987.8, 0.00057086, 0.0000010077891, 0.00014070173, -416010.72, -66433.08, 0.0, 10.000003, 9.901963 
1.7150001e+3, 2.742313e+2, -316725.53, -391374.72, -0.012949768, 0.0000010031065, -0.00020334923, -316725.53, -64192.54, 0.0, 10.000003, 9.902383 
1.7150001e+3, 2.841256e+2, -230252.3, -318081.22, 0.0026488735, 0.0000009991003, 0.00022912872, -230252.3, -74683.32, 0.0, 10.000003, 9.885437 
1.7150001e+3, 2.940121e+2, -130546.18, -217765.0, -0.009091145, 0.0000009960356, -0.0002532712, -130546.18, -71864.77, 0.0, 10.000003, 9.886215 
1.7150001e+3, 3.0392656e+2, -40802.2, -84750.16, 0.00580674, 0.0000009948152, 0.00017319358, -40802.2, -40802.2, 0.0, 10.000003, 9.942171 
1.7150001e+3, 3.138706e+2, -39724.19, -82511.21, -0.00523488, 0.0000009963253, -0.00005510457, -39724.19, -39724.19, 0.0, 10.000003, 9.943683 
1.7250001e+3, 1.2499336e+2, -1719942.1, -1724224.4, 0.013784914, 0.0000011079917, 0.000017869364, -1719942.1, -4877.0444, 0.0, 10.000004, 9.994326 
1.7250001e+3, 1.3498762e+2, -1622561.6, -1627434.6, -0.003189622, 0.0000010920995, -0.00006804885, -1622561.6, -5440.2983, 0.0, 10.000004, 9.993543 
1.7250001e+3, 1.4497516e+2, -1534460.3, -1548146.0, 0.010664485, 0.0000010839565, 0.00007108985, -1534460.3, -15216.807, 0.0, 10.000004, 9.981863 
1.7250001e+3, 1.5495704e+2, -1436732.6, -1450821.6, -0.006355131, 0.0000010834036, -0.00005673489, -1436732.6, -15311.656, 0.0, 10.000004, 9.981331 
1.7250001e+3, 1.649323e+2, -1348681.6, -1371952.1, 0.011356918, 0.0000010782684, 0.000047604273, -1348681.6, -25018.146, 0.0, 10.000004, 9.969247 
1.7250001e+3, 1.7490157e+2, -1250723.8, -1274309.9, -0.004905064, 0.0000010684543, -0.00007361055, -1250723.8, -24759.164, 0.0, 10.000004, 9.968833 
1.7250001e+3, 1.8486422e+2, -1162642.8, -1195719.9, 0.0078126425, 0.0000010616627, 0.00006634166, -1162642.8, -34312.22, 0.0, 10.000004, 9.956393 
1.7250001e+3, 1.9482066e+2, -1064493.0, -1097832.8, -0.009145658, 0.0000010580329, -0.000057464156, -1064493.0, -33735.58, 0.0, 10.000004, 9.956051 
1.7250001e+3, 2.0477043e+2, -976329.1, -1019434.8, 0.008676135, 0.0000010547476, 0.00006826264, -976329.1, -43079.33, 0.0, 10.000003, 9.943289 
1.7250001e+3, 2.1471377e+2, -878042.1, -921409.7, -0.0047713406, 0.0000010518343, -0.00012665427, -878042.1, -42236.945, 0.0, 10.000003, 9.942948 
1.7250001e+3, 2.246504e+2, -789756.06, -843144.7, 0.007936159, 0.0000010466885, 0.0001210399, -789756.06, -51329.84, 0.0, 10.000003, 9.929906 
1.7250001e+3, 2.3458035e+2, -691322.56, -744966.25, -0.008976146, 0.0000010390153, -0.00008867254, -691322.56, -50210.09, 0.0, 10.000003, 9.929575 
1.7250001e+3, 2.445034e+2, -602998.5, -667018.6, 0.006876453, 0.0000010349299, 0.00007484154, -602998.5, -59131.695, 0.0, 10.000003, 9.916135 
1.7250001e+3, 2.5441962e+2, -504245.9, -568343.1, -0.007412655, 0.0000010351318, -0.00010661526, -504245.9, -57558.375, 0.0, 10.000003, 9.916035 
1.7250001e+3, 2.643288e+2, -416010.5, -490987.75, 0.0054351646, 0.0000010334888, 0.00014070407, -416010.5, -66432.85, 0.0, 10.000003, 9.901963 
1.7250001e+3, 2.742313e+2, -316725.3, -391374.66, -0.00867802, 0.000001029487, -0.00020334634, -316725.3, -64192.313, 0.0, 10.000003, 9.902383 
1.7250001e+3, 2.841256e+2, -230252.06, -318081.16, 0.006218523, 0.0000010258498, 0.00022913163, -230252.06, -74683.09, 0.0, 10.000003, 9.885437 
1.7250001e+3, 2.940121e+2, -130545.95, -217764.92, -0.007917761, 0.000001022722, -0.00025326898, -130545.95, -71864.55, 0.0, 10.000003, 9.886215 
1.7250001e+3, 3.0392656e+2, -40801.977, -84750.09, 0.005594311, 0.0000010211925, 0.00017319484, -40801.977, -40801.977, 0.0, 10.000003, 9.942171 
1.7250001e+3, 3.138706e+2, -39723.973, -82511.15, -0.007489436, 0.0000010220327, -0.000055104545, -39723.973, -39723.973, 0.0, 10.000003, 9.943683 
1.7350002e+3, 1.2499337e+2, -1719942.1, -1724224.4, 0.004340221, 0.0000011332824, 0.000017873961, -1719942.1, -4877.0913, 0.0, 10.000004, 9.994326 
1.7350002e+3, 1.3498762e+2, -1622561.6, -1627434.6, -0.012635356, 0.0000011229059, -0.00006803973, -1622561.6, -5440.344, 0.0, 10.000004, 9.993543 
1.7350002e+3, 1.4497516e+2, -1534460.3, -1548146.0, 0.0035544818, 0.0000011152302, 0.00007110766, -1534460.3, -15216.852, 0.0, 10.000004, 9.981863 
1.7350002e+3, 1.5495704e+2, -1436732.6, -1450821.8, -0.013461518, 0.0000011100536, -0.000056728506, -1436732.6, -15311.7, 0.0, 10.000004, 9.981331 
1.7350002e+3, 1.649323e+2, -1348681.8, -1371952.1, 0.002475711, 0.0000011032652, 0.000047607136, -1348681.8, -25018.19, 0.0, 10.000004, 9.969247 
1.7350002e+3, 1.7490157e+2, -1250723.8, -1274310.0, -0.013795796, 0.0000010948308, -0.00007360314, -1250723.8, -24759.207, 0.0, 10.000004, 9.968833 
1.7350002e+3, 1.8486422e+2, -1162642.8, -1195719.9, 0.0023199902, 0.0000010904382, 0.00006635115, -1162642.8, -34312.26, 0.0, 10.000004, 9.956393 
1.7350002e+3, 1.9482066e+2, -1064493.1, -1097832.8, -0.014599113, 0.0000010902739, -0.000057455152, -1064493.1, -33735.617, 0.0, 10.000004, 9.956051 
1.7350002e+3, 2.0477043e+2, -976329.1, -1019434.9, 0.001905989, 0.0000010843185, 0.0000682685, -976329.1, -43079.363, 0.0, 10.000003, 9.943289 
1.7350002e+3, 2.1471377e+2, -878042.2, -921409.75, -0.011568905, 0.00000107209, -0.00012665443, -878042.2, -42236.977, 0.0, 10.000003, 9.942947 
1.7350002e+3, 2.246504e+2, -789756.06, -843144.75, 0.00370677, 0.0000010678021, 0.000121039906, -789756.06, -51329.88, 0.0, 10.000003, 9.929906 
1.7350002e+3, 2.3458035e+2, -691322.6, -744966.3, -0.013121578, 0.0000010725039, -0.0000886654, -691322.6, -50210.13, 0.0, 10.000003, 9.929575 
1.7350002e+3, 2.445034e+2, -602998.56, -667018.7, 0.0020288413, 0.0000010704204, 0.00007484915, -602998.56, -59131.73, 0.0, 10.000003, 9.916135 
1.7350002e+3, 2.5441962e+2, -504245.94, -568343.2, -0.012294106, 0.0000010602218, -0.000106615145, -504245.94, -57558.41, 0.0, 10.000003, 9.916035 
1.7350002e+3, 2.643288e+2, -416010.53, -490987.8, 0.002475813, 0.0000010543924, 0.00014070212, -416010.53, -66432.88, 0.0, 10.000003, 9.901963 
1.7350002e+3, 2.742313e+2, -316725.34, -391374.72, -0.011508548, 0.0000010541416, -0.00020334344, -316725.34, -64192.344, 0.0, 10.000003, 9.902383 
1.7350002e+3, 2.841256e+2, -230252.1, -318081.22, 0.0035896508, 0.0000010544718, 0.00022913642, -230252.1, -74683.125, 0.0, 10.000003, 9.885437 
1.7350002e+3, 2.940121e+2, -130545.984, -217765.0, -0.010528422, 0.0000010555701, -0.0002532664, -130545.984, -71864.58, 0.0, 10.000003, 9.886215 
1.7350002e+3, 3.0392656e+2, -40802.008, -84750.16, 0.0037039067, 0.0000010522108, 0.00017319481, -40802.008, -40802.008, 0.0, 10.000003, 9.942171 
1.7350002e+3, 3.138706e+2, -39724.004, -82511.22, -0.009295293, 0.0000010422283, -0.00005510781, -39724.004, -39724.004, 0.0, 10.000003, 9.943683 
1.7450002e+3, 1.2499337e+2, -1719941.9, -1724224.4, 0.013638003, 0.0000011634954, 0.000017882081, -1719941.9, -4876.826, 0.0, 10.000004, 9.994326 
1.7450002e+3, 1.3498762e+2, -1622561.4, -1627434.6, -0.004879261, 0.0000011515933, -0.00006803848, -1622561.4, -5440.074, 0.0, 10.000004, 9.993543 
1.7450002e+3, 1.4497516e+2, -1534460.0, -1548146.0, 0.010818271, 0.0000011431557, 0.00007111723, -1534460.0, -15216.584, 0.0, 10.000004, 9.981863 
1.7450002e+3, 1.5495704e+2, -1436732.4, -1450821.6, -0.0062551424, 0.0000011379742, -0.000056722358, -1436732.4, -15311.445, 0.0, 10.000004, 9.981331 
1.7450002e+3, 1.649323e+2, -1348681.5, -1371952.1, 0.009641818, 0.0000011314446, 0.000047611695, -1348681.5, -25017.936, 0.0, 10.000004, 9.969247 
1.7450002e+3, 1.7490157e+2, -1250723.5, -1274309.9, -0.0077089607, 0.0000011235385, -0.000073598305, -1250723.5, -24758.947, 0.0, 10.000004, 9.968833 
1.7450002e+3, 1.8486422e+2, -1162642.5, -1195719.9, 0.009829154, 0.0000011191273, 0.00006635634, -1162642.5, -34312.004, 0.0, 10.000004, 9.956393 
1.7450002e+3, 1.9482066e+2, -1064492.9, -1097832.8, -0.006471325, 0.0000011183722, -0.00005744955, -1064492.9, -33735.367, 0.0, 10.000004, 9.956051 
1.7450002e+3, 2.0477043e+2, -976328.9, -1019434.75, 0.0076604527, 0.0000011122236, 0.000068273555, -976328.9, -43079.113, 0.0, 10.000004, 9.943289 
1.7450002e+3, 2.1471377e+2, -878041.94, -921409.6, -0.010993079, 0.0000011002327, -0.00012665096, -878041.94, -42236.727, 0.0, 10.000004, 9.942947 
1.7450002e+3, 2.246504e+2, -789755.8, -843144.6, 0.0047949143, 0.0000010959229, 0.00012104261, -789755.8, -51329.63, 0.0, 10.000004, 9.929906 
1.7450002e+3, 2.3458035e+2, -691322.4, -744966.25, -0.009292587, 0.000001100309, -0.000088662484, -691322.4, -50209.883, 0.0, 10.000004, 9.929575 
1.7450002e+3, 2.445034e+2, -602998.3, -667018.6, 0.0062444326, 0.0000010981448, 0.000074852345, -602998.3, -59131.484, 0.0, 10.000004, 9.916135 
1.7450002e+3, 2.5441962e+2, -504245.7, -568343.1, -0.009913558, 0.0000010881469, -0.00010661158, -504245.7, -57558.164, 0.0, 10.000004, 9.916035 
1.7450002e+3, 2.643288e+2, -416010.28, -490987.75, 0.0051536914, 0.0000010823024, 0.00014070542, -416010.28, -66432.64, 0.0, 10.000004, 9.901963 
1.7450002e+3, 2.742313e+2, -316725.1, -391374.66, -0.009380128, 0.0000010817615, -0.00020334117, -316725.1, -64192.105, 0.0, 10.000004, 9.902383 
1.7450002e+3, 2.841256e+2, -230251.86, -318081.13, 0.006035615, 0.0000010819693, 0.00022913815, -230251.86, -74682.89, 0.0, 10.000004, 9.885437 
1.7450002e+3, 2.940121e+2, -130545.75, -217764.92, -0.0074526584, 0.0000010831761, -0.0002532645, -130545.75, -71864.34, 0.0, 10.000004, 9.886215 
1.7450002e+3, 3.0392656e+2, -40801.773, -84750.09, 0.007866475, 0.0000010798076, 0.00017319691, -40801.773, -40801.773, 0.0, 10.000004, 9.942171 
1.7450002e+3, 3.138706e+2, -39723.77, -82511.15, -0.004634272, 0.0000010696392, -0.00005510543, -39723.77, -39723.77, 0.0, 10.000004, 9.943683 
1.755e+3, 1.2499337e+2, -1719941.9, -1724224.4, 0.0055777454, 0.0000011986306, 0.000017893724, -1719941.9, -4876.877, 0.0, 10.000004, 9.994326 
1.755e+3, 1.3498762e+2, -1622561.5, -1627434.6, -0.01294039, 0.0000011781622, -0.000068045105, -1622561.5, -5440.124, 0.0, 10.000004, 9.993543 
1.755e+3, 1.4497516e+2, -1534460.1, -1548146.0, 0.00097088417, 0.0000011677332, 0.000071118564, -1534460.1, -15216.63, 0.0, 10.000004, 9.981863 
1.755e+3, 1.5495704e+2, -1436732.5, -1450821.8, -0.016105503, 0.0000011671652, -0.000056716446, -1436732.5, -15311.49, 0.0, 10.000004, 9.981331 
1.755e+3, 1.649323e+2, -1348681.5, -1371952.1, 0.002541151, 0.0000011628066, 0.00004761795, -1348681.5, -25017.982, 0.0, 10.000004, 9.969247 
1.755e+3, 1.7490157e+2, -1250723.5, -1274310.0, -0.014795259, 0.0000011545773, -0.00007359604, -1250723.5, -24758.99, 0.0, 10.000004, 9.968833 
1.755e+3, 1.8486422e+2, -1162642.6, -1195719.9, 0.0026443969, 0.00000114773, 0.000066357214, -1162642.6, -34312.043, 0.0, 10.000004, 9.956393 
1.755e+3, 1.9482066e+2, -1064492.9, -1097832.8, -0.01365739, 0.0000011423281, -0.000057447345, -1064492.9, -33735.406, 0.0, 10.000004, 9.956051 
1.755e+3, 2.0477043e+2, -976328.94, -1019434.9, 0.0013137552, 0.0000011384631, 0.0000682778, -976328.94, -43079.16, 0.0, 10.000004, 9.943289 
1.755e+3, 2.1471377e+2, -878041.94, -921409.75, -0.017322516, 0.0000011362621, -0.0001266439, -878041.94, -42236.773, 0.0, 10.000004, 9.942947 
1.755e+3, 2.246504e+2, -789755.9, -843144.7, -0.00011528022, 0.0000011310508, 0.00012104802, -789755.9, -51329.664, 0.0, 10.000004, 9.929906 
1.755e+3, 2.3458035e+2, -691322.4, -744966.3, -0.014156535, 0.0000011224307, -0.00008866379, -691322.4, -50209.918, 0.0, 10.000004, 9.929575 
1.755e+3, 2.445034e+2, -602998.4, -667018.7, 0.0015469879, 0.0000011181036, 0.00007485113, -602998.4, -59131.523, 0.0, 10.000004, 9.916134 
1.755e+3, 2.5441962e+2, -504245.72, -568343.2, -0.01460305, 0.000001118907, -0.000106604566, -504245.72, -57558.203, 0.0, 10.000004, 9.916035 
1.755e+3, 2.643288e+2, -416010.3, -490987.8, 0.0017248361, 0.0000011172185, 0.00014071401, -416010.3, -66432.68, 0.0, 10.000004, 9.901963 
1.755e+3, 2.742313e+2, -316725.13, -391374.72, -0.012724529, 0.0000011123462, -0.00020333953, -316725.13, -64192.14, 0.0, 10.000004, 9.902383 
1.755e+3, 2.841256e+2, -230251.89, -318081.22, 0.0033464252, 0.0000011083423, 0.00022913683, -230251.89, -74682.92, 0.0, 10.000004, 9.885437 
1.755e+3, 2.940121e+2, -130545.78, -217764.98, -0.01008285, 0.0000011055404, -0.00025326334, -130545.78, -71864.375, 0.0, 10.000004, 9.886215 
1.755e+3, 3.0392656e+2, -40801.805, -84750.16, 0.0057684337, 0.000001103983, 0.00017320113, -40801.805, -40801.805, 0.0, 10.000004, 9.942171 
1.755e+3, 3.138706e+2, -39723.8, -82511.21, -0.006669915, 0.0000011042648, -0.00005509741, -39723.8, -39723.8, 0.0, 10.000004, 9.943683 
1.7650001e+3, 1.2499337e+2, -1719941.6, -1724224.3, 0.015491376, 0.0000012312728, 0.000017905119, -1719941.6, -4876.5806, 0.0, 10.000004, 9.994326 
1.7650001e+3, 1.3498762e+2, -1622561.1, -1627434.6, -0.00393332, 0.0000012076883, -0.00006804206, -1622561.1, -5439.853, 0.0, 10.000004, 9.993543 
1.7650001e+3, 1.4497516e+2, -1534459.8, -1548146.0, 0.011492453, 0.0000011962578, 0.00007113088, -1534459.8, -15216.363, 0.0, 10.000004, 9.981863 
1.7650001e+3, 1.5495704e+2, -1436732.1, -1450821.6, -0.0066526164, 0.0000011968053, -0.000056709607, -1436732.1, -15311.213, 0.0, 10.000004, 9.981331 
1.7650001e+3, 1.649323e+2, -1348681.3, -1371952.0, 0.011277007, 0.0000011930896, 0.000047622663, -1348681.3, -25017.703, 0.0, 10.000004, 9.969247 
1.7650001e+3, 1.7490157e+2, -1250723.3, -1274309.9, -0.007166892, 0.000001185021, -0.00007359002, -1250723.3, -24758.723, 0.0, 10.000004, 9.968833 
1.7650001e+3, 1.8486422e+2, -1162642.3, -1195719.9, 0.009895036, 0.0000011776319, 0.00006636324, -1162642.3, -34311.78, 0.0, 10.000004, 9.956393 
1.7650001e+3, 1.9482066e+2, -1064492.6, -1097832.8, -0.008298093, 0.0000011709532, -0.00005744271, -1064492.6, -33735.14, 0.0, 10.000004, 9.956051 
1.7650001e+3, 2.0477043e+2, -976328.7, -1019434.75, 0.0079351645, 0.0000011671356, 0.00006828227, -976328.7, -43078.895, 0.0, 10.000004, 9.943289 
1.7650001e+3, 2.1471377e+2, -878041.7, -921409.6, -0.007311687, 0.0000011664162, -0.00012663828, -878041.7, -42236.508, 0.0, 10.000004, 9.942947 
1.7650001e+3, 2.246504e+2, -789755.56, -843144.6, 0.0106354505, 0.0000011612877, 0.00012105363, -789755.56, -51329.402, 0.0, 10.000004, 9.929906 
1.7650001e+3, 2.3458035e+2, -691322.1, -744966.25, -0.008029914, 0.0000011511671, -0.00008865952, -691322.1, -50209.66, 0.0, 10.000004, 9.929575 
1.7650001e+3, 2.445034e+2, -602998.06, -667018.56, 0.006250272, 0.0000011464658, 0.00007485462, -602998.06, -59131.27, 0.0, 10.000004, 9.916134 
1.7650001e+3, 2.5441965e+2, -504245.47, -568343.1, -0.008967192, 0.0000011482425, -0.000106601176, -504245.47, -57557.945, 0.0, 10.000004, 9.916035 
1.7650001e+3, 2.643288e+2, -416010.06, -490987.72, 0.008178987, 0.0000011468484, 0.00014071715, -416010.06, -66432.42, 0.0, 10.000004, 9.901963 
1.7650001e+3, 2.742313e+2, -316724.88, -391374.63, -0.007892479, 0.0000011414029, -0.00020333682, -316724.88, -64191.887, 0.0, 10.000004, 9.902383 
1.7650001e+3, 2.841256e+2, -230251.64, -318081.13, 0.0070202053, 0.0000011369831, 0.00022913935, -230251.64, -74682.67, 0.0, 10.000004, 9.885437 
1.7650001e+3, 2.940121e+2, -130545.53, -217764.92, -0.008019541, 0.0000011339846, -0.0002532607, -130545.53, -71864.125, 0.0, 10.000004, 9.886215 
1.7650001e+3, 3.0392656e+2, -40801.56, -84750.086, 0.0071424544, 0.0000011326405, 0.00017320302, -40801.56, -40801.56, 0.0, 10.000004, 9.942171 
1.7650001e+3, 3.138706e+2, -39723.55, -82511.14, -0.0071409885, 0.000001133742, -0.000055097647, -39723.55, -39723.55, 0.0, 10.000004, 9.943683 
1.7750001e+3, 1.2499337e+2, -1719941.6, -1724224.4, 0.0017268752, 0.0000012614223, 0.000017916263, -1719941.6, -4876.634, 0.0, 10.000004, 9.994326 
1.7750001e+3, 1.3498762e+2, -1622561.3, -1627434.6, -0.017700028, 0.0000012401719, -0.00006802936, -1622561.3, -5439.906, 0.0, 10.000004, 9.993543 
1.7750001e+3, 1.4497516e+2, -1534459.9, -1548146.0, 0.0044316705, 0.0000012287294, 0.000071154194, -1534459.9, -15216.412, 0.0, 10.000004, 9.981863 
1.7750001e+3, 1.5495704e+2, -1436732.3, -1450821.8, -0.013702957, 0.0000012268941, -0.00005670184, -1436732.3, -15311.261, 0.0, 10.000004, 9.981331 
1.7750001e+3, 1.649323e+2, -1348681.3, -1371952.1, 0.0021432943, 0.0000012222937, 0.000047625843, -1348681.3, -25017.752, 0.0, 10.000004, 9.969247 
1.7750001e+3, 1.7490157e+2, -1250723.3, -1274310.0, -0.016311727, 0.0000012148698, -0.000073580224, -1250723.3, -24758.77, 0.0, 10.000004, 9.968833 
1.7750001e+3, 1.8486422e+2, -1162642.4, -1195719.9, 0.00301428, 0.0000012088332, 0.00006637441, -1162642.4, -34311.824, 0.0, 10.000004, 9.956393 
1.7750001e+3, 1.9482066e+2, -1064492.6, -1097832.8, -0.015152769, 0.0000012042473, -0.000057435635, -1064492.6, -33735.188, 0.0, 10.000004, 9.95605 
1.7750001e+3, 2.0477043e+2, -976328.7, -1019434.8, 0.0014460792, 0.0000011982409, 0.00006828697, -976328.7, -43078.934, 0.0, 10.000004, 9.943289 
1.7750001e+3, 2.1471377e+2, -878041.7, -921409.7, -0.013793422, 0.0000011906951, -0.0001266341, -878041.7, -42236.547, 0.0, 10.000004, 9.942947 
1.7750001e+3, 2.246504e+2, -789755.6, -843144.7, 0.0049045007, 0.0000011866342, 0.000121059435, -789755.6, -51329.45, 0.0, 10.000004, 9.929906 
1.7750001e+3, 2.3458035e+2, -691322.2, -744966.3, -0.013736363, 0.0000011865176, -0.00008864968, -691322.2, -50209.707, 0.0, 10.000004, 9.929575 
1.7750001e+3, 2.445034e+2, -602998.1, -667018.7, 0.0017400887, 0.0000011832312, 0.00007486283, -602998.1, -59131.305, 0.0, 10.000004, 9.916134 
1.7750001e+3, 2.5441965e+2, -504245.5, -568343.2, -0.013420009, 0.0000011761537, -0.000106601416, -504245.5, -57557.984, 0.0, 10.000004, 9.916035 
1.7750001e+3, 2.643288e+2, -416010.1, -490987.8, 0.00451446, 0.0000011711923, 0.00014071485, -416010.1, -66432.46, 0.0, 10.000004, 9.901963 
1.7750001e+3, 2.742313e+2, -316724.9, -391374.72, -0.011504221, 0.0000011689316, -0.00020333302, -316724.9, -64191.92, 0.0, 10.000004, 9.902383 
1.7750001e+3, 2.841256e+2, -230251.67, -318081.2, 0.003741559, 0.0000011678917, 0.00022914573, -230251.67, -74682.7, 0.0, 10.000004, 9.885437 
1.7750001e+3, 2.940121e+2, -130545.56, -217764.98, -0.011268254, 0.0000011685087, -0.00025325653, -130545.56, -71864.16, 0.0, 10.000004, 9.886215 
1.7750001e+3, 3.0392656e+2, -40801.594, -84750.16, 0.005643498, 0.0000011657798, 0.00017320257, -40801.594, -40801.594, 0.0, 10.000004, 9.942171 
1.7750001e+3, 3.138706e+2, -39723.586, -82511.21, -0.008434663, 0.0000011580709, -0.000055106135, -39723.586, -39723.586, 0.0, 10.000004, 9.943683 
1.7850001e+3, 1.2499337e+2, -1719941.4, -1724224.3, 0.014883763, 0.0000012899831, 0.000017926941, -1719941.4, -4876.3525, 0.0, 10.000004, 9.994325 
1.7850001e+3, 1.3498762e+2, -1622560.9, -1627434.5, -0.0048210965, 0.0000012744046, -0.00006802599, -1622560.9, -5439.6025, 0.0, 10.000004, 9.993543 
1.7850001e+3, 1.4497516e+2, -1534459.5, -1548145.9, 0.017773207, 0.0000012637112, 0.000071168906, -1534459.5, -15216.107, 0.0, 10.000004, 9.981863 
1.7850001e+3, 1.5495704e+2, -1436731.9, -1450821.6, -0.0031140768, 0.0000012576616, -0.000056695022, -1436731.9, -15310.976, 0.0, 10.000004, 9.981331 
1.7850001e+3, 1.649323e+2, -1348681.0, -1371952.0, 0.01202842, 0.0000012520594, 0.000047629892, -1348681.0, -25017.47, 0.0, 10.000004, 9.969246 
1.7850001e+3, 1.7490157e+2, -1250723.0, -1274309.9, -0.007201706, 0.000001246914, -0.00007357372, -1250723.0, -24758.482, 0.0, 10.000004, 9.968833 
1.7850001e+3, 1.8486422e+2, -1162642.0, -1195719.8, 0.012003271, 0.0000012410932, 0.00006638164, -1162642.0, -34311.54, 0.0, 10.000004, 9.956393 
1.7850001e+3, 1.9482066e+2, -1064492.4, -1097832.8, -0.006360281, 0.0000012345643, -0.000057429494, -1064492.4, -33734.91, 0.0, 10.000004, 9.95605 
1.7850001e+3, 2.0477043e+2, -976328.44, -1019434.75, 0.009318873, 0.0000012282384, 0.00006829182, -976328.44, -43078.66, 0.0, 10.000004, 9.943289 
1.7850001e+3, 2.1471377e+2, -878041.44, -921409.6, -0.010864434, 0.0000012221319, -0.00012663077, -878041.44, -42236.27, 0.0, 10.000004, 9.942947 
1.7850001e+3, 2.246504e+2, -789755.4, -843144.6, 0.006866379, 0.0000012182073, 0.000121062425, -789755.4, -51329.17, 0.0, 10.000004, 9.929906 
1.7850001e+3, 2.3458035e+2, -691321.9, -744966.25, -0.009133551, 0.0000012167516, -0.00008864572, -691321.9, -50209.434, 0.0, 10.000004, 9.929575 
1.7850001e+3, 2.445034e+2, -602997.9, -667018.56, 0.007456266, 0.0000012131252, 0.00007486685, -602997.9, -59131.035, 0.0, 10.000004, 9.916134 
1.7850001e+3, 2.5441965e+2, -504245.22, -568343.1, -0.010766745, 0.0000012069028, -0.00010659839, -504245.22, -57557.715, 0.0, 10.000004, 9.916035 
1.7850001e+3, 2.643288e+2, -416009.84, -490987.72, 0.0064999834, 0.000001202122, 0.00014071731, -416009.84, -66432.195, 0.0, 10.000004, 9.901963 
1.7850001e+3, 2.742313e+2, -316724.63, -391374.63, -0.0090708835, 0.0000011991812, -0.00020333056, -316724.63, -64191.66, 0.0, 10.000004, 9.902383 
1.7850001e+3, 2.841256e+2, -230251.4, -318081.13, 0.006954691, 0.0000011978606, 0.00022914795, -230251.4, -74682.44, 0.0, 10.000004, 9.885437 
1.7850001e+3, 2.940121e+2, -130545.3, -217764.92, -0.008440522, 0.0000011987478, -0.0002532549, -130545.3, -71863.89, 0.0, 10.000004, 9.886215 
1.7850001e+3, 3.0392656e+2, -40801.332, -84750.086, 0.008964914, 0.0000011961936, 0.00017320403, -40801.332, -40801.332, 0.0, 10.000004, 9.942171 
1.7850001e+3, 3.138706e+2, -39723.33, -82511.14, -0.005657469, 0.000001188512, -0.000055104236, -39723.33, -39723.33, 0.0, 10.000004, 9.943683 
1.7950001e+3, 1.2499337e+2, -1719941.4, -1724224.4, 0.0063694497, 0.000001316955, 0.00001793715, -1719941.4, -4876.407, 0.0, 10.000004, 9.994325 
1.7950001e+3, 1.3498762e+2, -1622561.0, -1627434.6, -0.01333657, 0.0000013103863, -0.00006803196, -1622561.0, -5439.6563, 0.0, 10.000004, 9.993543 
1.7950001e+3, 1.4497516e+2, -1534459.6, -1548146.0, 0.006395658, 0.0000013012029, 0.00007117501, -1534459.6, -15216.163, 0.0, 10.000004, 9.981863 
1.7950001e+3, 1.5495704e+2, -1436732.0, -1450821.8, -0.014496259, 0.0000012891073, -0.000056689147, -1436732.0, -15311.03, 0.0, 10.000004, 9.981331 
1.7950001e+3, 1.649323e+2, -1348681.0, -1371952.1, 0.004792872, 0.0000012823866, 0.000047634807, -1348681.0, -25017.521, 0.0, 10.000004, 9.969246 
1.7950001e+3, 1.7490157e+2, -1250723.0, -1274310.0, -0.014415507, 0.0000012811538, -0.000073570496, -1250723.0, -24758.531, 0.0, 10.000004, 9.968833 
1.7950001e+3, 1.8486422e+2, -1162642.1, -1195719.9, 0.0031954325, 0.0000012744118, 0.00006638493, -1162642.1, -34311.586, 0.0, 10.000004, 9.956393 
1.7950001e+3, 1.9482066e+2, -1064492.4, -1097832.8, -0.01518672, 0.000001261904, -0.000057424284, -1064492.4, -33734.953, 0.0, 10.000004, 9.95605 
1.7950001e+3, 2.0477043e+2, -976328.44, -1019434.8, 0.0031894753, 0.0000012571282, 0.00006829682, -976328.44, -43078.707, 0.0, 10.000004, 9.943289 
1.7950001e+3, 2.1471377e+2, -878041.5, -921409.7, -0.016938217, 0.0000012607262, -0.00012662828, -878041.5, -42236.316, 0.0, 10.000004, 9.942947 
1.7950001e+3, 2.246504e+2, -789755.4, -843144.7, 0.00089415547, 0.0000012560068, 0.00012106259, -789755.4, -51329.21, 0.0, 10.000004, 9.929906 
1.7950001e+3, 2.3458037e+2, -691321.94, -744966.3, -0.015102619, 0.0000012418692, -0.000088647656, -691321.94, -50209.47, 0.0, 10.000004, 9.929575 
1.7950001e+3, 2.445034e+2, -602997.9, -667018.7, 0.0024283247, 0.0000012361481, 0.00007486671, -602997.9, -59131.08, 0.0, 10.000004, 9.916134 
1.7950001e+3, 2.5441965e+2, -504245.25, -568343.2, -0.015749525, 0.0000012404896, -0.00010659211, -504245.25, -57557.758, 0.0, 10.000004, 9.916034 
1.7950001e+3, 2.643288e+2, -416009.88, -490987.78, 0.0025139062, 0.0000012396376, 0.00014072453, -416009.88, -66432.234, 0.0, 10.000004, 9.901963 
1.7950001e+3, 2.742313e+2, -316724.7, -391374.7, -0.0129902745, 0.0000012321515, -0.00020332944, -316724.7, -64191.695, 0.0, 10.000004, 9.902383 
1.7950001e+3, 2.841256e+2, -230251.44, -318081.2, 0.0041400287, 0.0000012268897, 0.00022914598, -230251.44, -74682.48, 0.0, 10.000004, 9.885437 
1.7950001e+3, 2.940121e+2, -130545.336, -217764.98, -0.011155764, 0.0000012247023, -0.0002532558, -130545.336, -71863.93, 0.0, 10.000004, 9.886215 
1.7950001e+3, 3.0392656e+2, -40801.367, -84750.16, 0.0066924654, 0.0000012238818, 0.00017320737, -40801.367, -40801.367, 0.0, 10.000004, 9.942171 
1.7950001e+3, 3.138706e+2, -39723.363, -82511.22, -0.007878087, 0.0000012250653, -0.000055091954, -39723.363, -39723.363, 0.0, 10.000004, 9.943683 
1.8050002e+3, 1.2499337e+2, -1719941.0, -1724224.3, 0.016015619, 0.0000013501481, 0.000017946793, -1719941.0, -4876.0923, 0.0, 10.000005, 9.994325 
1.8050002e+3, 1.3498762e+2, -1622560.6, -1627434.5, -0.005700088, 0.0000013431833, -0.000068034045, -1622560.6, -5439.3516, 0.0, 10.000005, 9.993543 
1.8050002e+3, 1.4497516e+2, -1534459.3, -1548145.9, 0.012611019, 0.0000013344327, 0.00007118645, -1534459.3, -15215.86, 0.0, 10.000004, 9.981863 
1.8050002e+3, 1.5495704e+2, -1436731.6, -1450821.6, -0.0073553016, 0.0000013235941, -0.000056682245, -1436731.6, -15310.72, 0.0, 10.000004, 9.981331 
1.8050002e+3, 1.649323e+2, -1348680.6, -1371952.0, 0.013760419, 0.000001316334, 0.00004763993, -1348680.6, -25017.213, 0.0, 10.000004, 9.969246 
1.8050002e+3, 1.7490157e+2, -1250722.8, -1274309.9, -0.006613555, 0.0000013127275, -0.00007356434, -1250722.8, -24758.234, 0.0, 10.000004, 9.968833 
1.8050002e+3, 1.8486422e+2, -1162641.8, -1195719.8, 0.00992383, 0.0000013057651, 0.00006639097, -1162641.8, -34311.293, 0.0, 10.000004, 9.956393 
1.8050002e+3, 1.9482066e+2, -1064492.1, -1097832.6, -0.00999465, 0.0000012952901, -0.000057419584, -1064492.1, -33734.66, 0.0, 10.000004, 9.95605 
1.8050002e+3, 2.0477043e+2, -976328.1, -1019434.75, 0.01070967, 0.0000012907898, 0.000068301524, -976328.1, -43078.41, 0.0, 10.000004, 9.943289 
1.8050002e+3, 2.1471377e+2, -878041.2, -921409.6, -0.007183999, 0.0000012927602, -0.00012662212, -878041.2, -42236.023, 0.0, 10.000004, 9.942947 
1.8050002e+3, 2.246504e+2, -789755.06, -843144.6, 0.009530134, 0.0000012874563, 0.00012106865, -789755.06, -51328.92, 0.0, 10.000004, 9.929906 
1.8050002e+3, 2.3458037e+2, -691321.6, -744966.2, -0.010337444, 0.0000012739155, -0.000088643435, -691321.6, -50209.188, 0.0, 10.000004, 9.929575 
1.8050002e+3, 2.445034e+2, -602997.6, -667018.56, 0.00813769, 0.0000012683876, 0.00007487008, -602997.6, -59130.797, 0.0, 10.000004, 9.916134 
1.8050002e+3, 2.5441965e+2, -504244.97, -568343.1, -0.008512379, 0.0000012724388, -0.000106588406, -504244.97, -57557.473, 0.0, 10.000004, 9.916034 
1.8050002e+3, 2.643288e+2, -416009.6, -490987.72, 0.009232177, 0.0000012714806, 0.00014072823, -416009.6, -66431.945, 0.0, 10.000004, 9.901963 
1.8050002e+3, 2.742313e+2, -316724.4, -391374.63, -0.009022552, 0.0000012641239, -0.0002033262, -316724.4, -64191.414, 0.0, 10.000004, 9.902383 
1.8050002e+3, 2.841256e+2, -230251.16, -318081.13, 0.007266043, 0.0000012588326, 0.00022914866, -230251.16, -74682.2, 0.0, 10.000004, 9.885437 
1.8050002e+3, 2.940121e+2, -130545.06, -217764.9, -0.009378039, 0.0000012563972, -0.00025325388, -130545.06, -71863.66, 0.0, 10.000004, 9.886215 
1.8050002e+3, 3.0392656e+2, -40801.094, -84750.086, 0.00870114, 0.00000125546, 0.00017320855, -40801.094, -40801.094, 0.0, 10.000004, 9.942171 
1.8050002e+3, 3.138706e+2, -39723.086, -82511.14, -0.0059433645, 0.0000012567233, -0.000055091517, -39723.086, -39723.086, 0.0, 10.000004, 9.943683 
1.8150002e+3, 1.2499338e+2, -1719941.1, -1724224.4, 0.005377468, 0.000001389562, 0.00001795587, -1719941.1, -4876.1523, 0.0, 10.000005, 9.994325 
1.8150002e+3, 1.3498762e+2, -1622560.6, -1627434.6, -0.01633984, 0.0000013727956, -0.000068032256, -1622560.6, -5439.41, 0.0, 10.000005, 9.993543 
1.8150002e+3, 1.4497516e+2, -1534459.3, -1548146.0, 0.0030103684, 0.0000013634007, 0.000071203205, -1534459.3, -15215.914, 0.0, 10.000004, 9.981862 
1.8150002e+3, 1.5495704e+2, -1436731.6, -1450821.8, -0.016954424, 0.0000013611218, -0.000056674315, -1436731.6, -15310.773, 0.0, 10.000004, 9.981331 
1.8150002e+3, 1.649323e+2, -1348680.8, -1371952.1, 0.0038097592, 0.0000013539013, 0.000047645255, -1348680.8, -25017.266, 0.0, 10.000004, 9.969246 
1.8150002e+3, 1.7490157e+2, -1250722.8, -1274310.0, -0.016566195, 0.0000013416353, -0.00007355525, -1250722.8, -24758.287, 0.0, 10.000004, 9.968832 
1.8150002e+3, 1.8486424e+2, -1162641.9, -1195719.9, 0.002047668, 0.000001335153, 0.000066399734, -1162641.9, -34311.344, 0.0, 10.000004, 9.956393 
1.8150002e+3, 1.9482066e+2, -1064492.1, -1097832.8, -0.017846903, 0.0000013347219, -0.00005741539, -1064492.1, -33734.71, 0.0, 10.000004, 9.95605 
1.8150002e+3, 2.0477043e+2, -976328.2, -1019434.8, 0.0042492263, 0.000001329223, 0.00006830593, -976328.2, -43078.457, 0.0, 10.000004, 9.943289 
1.8150002e+3, 2.1471377e+2, -878041.2, -921409.7, -0.01361586, 0.0000013182344, -0.00012661229, -878041.2, -42236.07, 0.0, 10.000004, 9.942947 
1.8150002e+3, 2.246504e+2, -789755.1, -843144.7, 0.0019588068, 0.000001312556, 0.00012108061, -789755.1, -51328.97, 0.0, 10.000004, 9.929906 
1.8150002e+3, 2.3458037e+2, -691321.7, -744966.3, -0.017946135, 0.0000013128899, -0.00008863306, -691321.7, -50209.234, 0.0, 10.000004, 9.929575 
1.8150002e+3, 2.445034e+2, -602997.6, -667018.6, 0.004335955, 0.000001309843, 0.00007487696, -602997.6, -59130.836, 0.0, 10.000004, 9.916134 
1.8150002e+3, 2.5441965e+2, -504245.0, -568343.2, -0.012131345, 0.0000013027504, -0.0001065873, -504245.0, -57557.51, 0.0, 10.000004, 9.916034 
1.8150002e+3, 2.643288e+2, -416009.63, -490987.78, 0.0043309308, 0.0000012976516, 0.00014072839, -416009.63, -66431.99, 0.0, 10.000004, 9.901962 
1.8150002e+3, 2.742313e+2, -316724.44, -391374.7, -0.014009856, 0.0000012950984, -0.00020332083, -316724.44, -64191.457, 0.0, 10.000004, 9.902383 
1.8150002e+3, 2.841256e+2, -230251.2, -318081.2, 0.003858741, 0.0000012936891, 0.00022915596, -230251.2, -74682.24, 0.0, 10.000004, 9.885437 
1.8150002e+3, 2.940121e+2, -130545.09, -217764.98, -0.012643129, 0.0000012938324, -0.00025324913, -130545.09, -71863.695, 0.0, 10.000004, 9.886215 
1.8150002e+3, 3.0392656e+2, -40801.13, -84750.16, 0.0074680294, 0.0000012909279, 0.00017320756, -40801.13, -40801.13, 0.0, 10.000004, 9.942171 
1.8150002e+3, 3.138706e+2, -39723.12, -82511.21, -0.0069381497, 0.0000012834867, -0.000055102933, -39723.12, -39723.12, 0.0, 10.000004, 9.943682 
1.825e+3, 1.2499338e+2, -1719940.8, -1724224.3, 0.01785307, 0.0000014261879, 0.000017967286, -1719940.8, -4875.825, 0.0, 10.000005, 9.994325 
1.825e+3, 1.3498762e+2, -1622560.4, -1627434.5, -0.004071973, 0.0000014070137, -0.00006803314, -1622560.4, -5439.084, 0.0, 10.000005, 9.993543 
1.825e+3, 1.4497516e+2, -1534459.0, -1548145.9, 0.014544073, 0.0000013968219, 0.00007121733, -1534459.0, -15215.589, 0.0, 10.000005, 9.981862 
1.825e+3, 1.5495704e+2, -1436731.4, -1450821.6, -0.006809424, 0.0000013953579, -0.00005666662, -1436731.4, -15310.457, 0.0, 10.000005, 9.981331 
1.825e+3, 1.649323e+2, -1348680.4, -1371952.0, 0.013975865, 0.0000013882507, 0.000047650366, -1348680.4, -25016.953, 0.0, 10.000005, 9.969246 
1.825e+3, 1.7490157e+2, -1250722.5, -1274309.9, -0.0068397657, 0.0000013753814, -0.0000735488, -1250722.5, -24757.973, 0.0, 10.000005, 9.968832 
1.825e+3, 1.8486424e+2, -1162641.5, -1195719.8, 0.012755995, 0.0000013693125, 0.000066406705, -1162641.5, -34311.027, 0.0, 10.000005, 9.956393 
1.825e+3, 1.9482066e+2, -1064491.9, -1097832.6, -0.008362372, 0.0000013703585, -0.00005740876, -1064491.9, -33734.395, 0.0, 10.000005, 9.95605 
1.825e+3, 2.0477043e+2, -976327.9, -1019434.7, 0.011711967, 0.0000013640284, 0.00006831168, -976327.9, -43078.15, 0.0, 10.000005, 9.943289 
1.825e+3, 2.1471377e+2, -878040.94, -921409.6, -0.008863926, 0.0000013497084, -0.000126608, -878040.94, -42235.773, 0.0, 10.000005, 9.942947 
1.825e+3, 2.246504e+2, -789754.8, -843144.6, 0.008159385, 0.0000013442005, 0.00012108447, -789754.8, -51328.676, 0.0, 10.000005, 9.929906 
1.825e+3, 2.3458037e+2, -691321.4, -744966.2, -0.010306145, 0.0000013486695, -0.00008862845, -691321.4, -50208.926, 0.0, 10.000005, 9.929575 
1.825e+3, 2.445034e+2, -602997.3, -667018.56, 0.010739476, 0.00000134615, 0.00007488139, -602997.3, -59130.527, 0.0, 10.000005, 9.916134 
1.825e+3, 2.5441965e+2, -504244.72, -568343.1, -0.0101100365, 0.000001335272, -0.000106584135, -504244.72, -57557.22, 0.0, 10.000004, 9.916034 
1.825e+3, 2.643288e+2, -416009.34, -490987.7, 0.0061617084, 0.0000013289439, 0.0001407308, -416009.34, -66431.7, 0.0, 10.000004, 9.901962 
1.825e+3, 2.742313e+2, -316724.13, -391374.63, -0.010393703, 0.0000013284246, -0.00020331849, -316724.13, -64191.164, 0.0, 10.000004, 9.902383 
1.825e+3, 2.841256e+2, -230250.9, -318081.1, 0.008778649, 0.000001328091, 0.00022915835, -230250.9, -74681.945, 0.0, 10.000004, 9.885437 
1.825e+3, 2.940121e+2, -130544.8, -217764.9, -0.009088924, 0.0000013279836, -0.00025324652, -130544.8, -71863.4, 0.0, 10.000004, 9.886215 
1.825e+3, 3.0392656e+2, -40800.836, -84750.08, 0.009561658, 0.0000013244447, 0.00017320969, -40800.836, -40800.836, 0.0, 10.000004, 9.942171 
1.825e+3, 3.138706e+2, -39722.84, -82511.14, -0.0077687856, 0.0000013158119, -0.000055102337, -39722.84, -39722.84, 0.0, 10.000004, 9.943682 
1.835e+3, 1.2499338e+2, -1719940.8, -1724224.4, 0.0074505457, 0.0000014600259, 0.000017981041, -1719940.8, -4875.886, 0.0, 10.000005, 9.994325 
1.835e+3, 1.3498762e+2, -1622560.4, -1627434.6, -0.014476174, 0.0000014458369, -0.0000680367, -1622560.4, -5439.1436, 0.0, 10.000005, 9.993543 
1.835e+3, 1.4497516e+2, -1534459.0, -1548146.0, 0.0031232482, 0.0000014346962, 0.00007122881, -1534459.0, -15215.647, 0.0, 10.000005, 9.981862 
1.835e+3, 1.5495704e+2, -1436731.4, -1450821.6, -0.01823195, 0.0000014263028, -0.000056659163, -1436731.4, -15310.514, 0.0, 10.000005, 9.981331 
1.835e+3, 1.649323e+2, -1348680.5, -1371952.1, 0.004696887, 0.0000014193822, 0.00004765526, -1348680.5, -25017.008, 0.0, 10.000005, 9.969246 
1.835e+3, 1.7490157e+2, -1250722.5, -1274309.9, -0.01610757, 0.0000014139655, -0.00007354499, -1250722.5, -24758.027, 0.0, 10.000005, 9.968832 
1.835e+3, 1.8486424e+2, -1162641.5, -1195719.9, 0.0049531385, 0.0000014082433, 0.00006641188, -1162641.5, -34311.082, 0.0, 10.000005, 9.956393 
1.835e+3, 1.9482066e+2, -1064491.9, -1097832.8, -0.016148388, 0.0000014022002, -0.000057399695, -1064491.9, -33734.45, 0.0, 10.000005, 9.95605 
1.835e+3, 2.0477043e+2, -976327.94, -1019434.8, 0.002301362, 0.0000013952063, 0.00006831877, -976327.94, -43078.2, 0.0, 10.000005, 9.943289 
1.835e+3, 2.1471377e+2, -878040.94, -921409.7, -0.018308213, 0.0000013871821, -0.00012660924, -878040.94, -42235.824, 0.0, 10.000005, 9.942947 
1.835e+3, 2.246504e+2, -789754.9, -843144.7, 0.0042880825, 0.0000013823895, 0.000121080244, -789754.9, -51328.72, 0.0, 10.000005, 9.929906 
1.835e+3, 2.3458037e+2, -691321.4, -744966.25, -0.01399531, 0.0000013812542, -0.0000886296, -691321.4, -50208.97, 0.0, 10.000005, 9.929574 
1.835e+3, 2.445034e+2, -602997.4, -667018.6, 0.0031979706, 0.0000013773092, 0.000074883385, -602997.4, -59130.58, 0.0, 10.000005, 9.916134 
1.835e+3, 2.5441965e+2, -504244.75, -568343.2, -0.01783673, 0.0000013700035, -0.00010657893, -504244.75, -57557.266, 0.0, 10.000004, 9.916034 
1.835e+3, 2.643288e+2, -416009.38, -490987.78, 0.00273663, 0.0000013653573, 0.00014073546, -416009.38, -66431.74, 0.0, 10.000004, 9.901962 
1.835e+3, 2.742313e+2, -316724.2, -391374.7, -0.0135305915, 0.0000013641023, -0.00020331917, -316724.2, -64191.203, 0.0, 10.000004, 9.902383 
1.835e+3, 2.841256e+2, -230250.94, -318081.2, 0.0058704126, 0.0000013620386, 0.00022915583, -230250.94, -74681.984, 0.0, 10.000004, 9.885437 
1.835e+3, 2.940121e+2, -130544.836, -217764.98, -0.011976706, 0.0000013588509, -0.00025324605, -130544.836, -71863.44, 0.0, 10.000004, 9.886215 
1.835e+3, 3.0392656e+2, -40800.88, -84750.164, 0.006010309, 0.0000013560104, 0.00017321491, -40800.88, -40800.88, 0.0, 10.000004, 9.942171 
1.835e+3, 3.138706e+2, -39722.883, -82511.23, -0.011398201, 0.0000013536986, -0.00005508973, -39722.883, -39722.883, 0.0, 10.000004, 9.943682 
1.8450001e+3, 1.2499338e+2, -1719940.5, -1724224.3, 0.017750936, 0.0000014997521, 0.000017993561, -1719940.5, -4875.533, 0.0, 10.000005, 9.994325 
1.8450001e+3, 1.3498762e+2, -1622560.0, -1627434.5, -0.0055112722, 0.00000148078, -0.00006803649, -1622560.0, -5438.8086, 0.0, 10.000005, 9.993543 
1.8450001e+3, 1.4497517e+2, -1534458.6, -1548145.9, 0.012996787, 0.0000014683854, 0.00007124534, -1534458.6, -15215.316, 0.0, 10.000005, 9.981862 
1.8450001e+3, 1.5495704e+2, -1436731.0, -1450821.5, -0.008810353, 0.0000014622802, -0.00005665185, -1436731.0, -15310.178, 0.0, 10.000005, 9.981331 
1.8450001e+3, 1.649323e+2, -1348680.1, -1371952.0, 0.013867832, 0.0000014564679, 0.00004765905, -1348680.1, -25016.672, 0.0, 10.000005, 9.969246 
1.8450001e+3, 1.7490157e+2, -1250722.1, -1274309.9, -0.008948015, 0.0000014509548, -0.0000735389, -1250722.1, -24757.695, 0.0, 10.000005, 9.968832 
1.8450001e+3, 1.8486424e+2, -1162641.3, -1195719.8, 0.012375867, 0.0000014441283, 0.0000664186, -1162641.3, -34310.754, 0.0, 10.000005, 9.956393 
1.8450001e+3, 1.9482067e+2, -1064491.5, -1097832.6, -0.008583361, 0.0000014359265, -0.00005739406, -1064491.5, -33734.13, 0.0, 10.000005, 9.95605 
1.8450001e+3, 2.0477043e+2, -976327.6, -1019434.7, 0.010030116, 0.0000014294653, 0.00006832405, -976327.6, -43077.88, 0.0, 10.000005, 9.943288 
1.8450001e+3, 2.1471377e+2, -878040.6, -921409.56, -0.011205701, 0.0000014248885, -0.00012660354, -878040.6, -42235.492, 0.0, 10.000005, 9.942947 
1.8450001e+3, 2.246504e+2, -789754.56, -843144.56, 0.011578432, 0.000001419981, 0.00012108527, -789754.56, -51328.39, 0.0, 10.000005, 9.929906 
1.8450001e+3, 2.3458037e+2, -691321.06, -744966.2, -0.010155058, 0.0000014146973, -0.000088626504, -691321.06, -50208.66, 0.0, 10.000005, 9.929574 
1.8450001e+3, 2.445034e+2, -602997.06, -667018.56, 0.0066458452, 0.0000014099215, 0.000074886484, -602997.06, -59130.27, 0.0, 10.000005, 9.916134 
1.8450001e+3, 2.5441965e+2, -504244.44, -568343.1, -0.0107148, 0.0000014057518, -0.00010657352, -504244.44, -57556.95, 0.0, 10.000005, 9.916034 
1.8450001e+3, 2.643288e+2, -416009.03, -490987.7, 0.01173063, 0.000001402175, 0.00014074089, -416009.03, -66431.42, 0.0, 10.000005, 9.901962 
1.8450001e+3, 2.742313e+2, -316723.88, -391374.6, -0.0094321035, 0.00000139935, -0.00020331665, -316723.88, -64190.89, 0.0, 10.000005, 9.902383 
1.8450001e+3, 2.841256e+2, -230250.64, -318081.1, 0.0077815885, 0.000001396231, 0.00022915719, -230250.64, -74681.68, 0.0, 10.000005, 9.885436 
1.8450001e+3, 2.940121e+2, -130544.54, -217764.9, -0.009705333, 0.0000013927053, -0.0002532435, -130544.54, -71863.14, 0.0, 10.000005, 9.886215 
1.8450001e+3, 3.0392656e+2, -40800.58, -84750.08, 0.01003578, 0.0000013902421, 0.00017321797, -40800.58, -40800.58, 0.0, 10.000005, 9.942171 
1.8450001e+3, 3.138706e+2, -39722.574, -82511.13, -0.004886429, 0.0000013893633, -0.00005508728, -39722.574, -39722.574, 0.0, 10.000005, 9.943682 
1.8550001e+3, 1.2499338e+2, -1719940.5, -1724224.4, 0.0033542952, 0.0000015453661, 0.000018004848, -1719940.5, -4875.5977, 0.0, 10.000005, 9.994325 
1.8550001e+3, 1.3498762e+2, -1622560.1, -1627434.6, -0.01991058, 0.000001511843, -0.00006803251, -1622560.1, -5438.872, 0.0, 10.000005, 9.993543 
1.8550001e+3, 1.4497517e+2, -1534458.8, -1548146.0, 0.0031307319, 0.00000149789, 0.00007126692, -1534458.8, -15215.376, 0.0, 10.000005, 9.981862 
1.8550001e+3, 1.5495706e+2, -1436731.1, -1450821.6, -0.018669365, 0.0000015032902, -0.00005664468, -1436731.1, -15310.236, 0.0, 10.000005, 9.981331 
1.8550001e+3, 1.649323e+2, -1348680.1, -1371952.0, 0.0037259017, 0.0000014995076, 0.00004766174, -1348680.1, -25016.73, 0.0, 10.000005, 9.969246 
1.8550001e+3, 1.7490157e+2, -1250722.3, -1274309.9, -0.019091556, 0.0000014863492, -0.00007353055, -1250722.3, -24757.754, 0.0, 10.000005, 9.968832 
1.8550001e+3, 1.8486424e+2, -1162641.3, -1195719.9, 0.003153412, 0.0000014769679, 0.00006642688, -1162641.3, -34310.81, 0.0, 10.000005, 9.956393 
1.8550001e+3, 1.9482067e+2, -1064491.6, -1097832.8, -0.017795302, 0.0000014715375, -0.000057391844, -1064491.6, -33734.18, 0.0, 10.000005, 9.95605 
1.8550001e+3, 2.0477043e+2, -976327.6, -1019434.75, 0.0031638949, 0.0000014668052, 0.000068327514, -976327.6, -43077.93, 0.0, 10.000005, 9.943288 
1.8550001e+3, 2.1471377e+2, -878040.7, -921409.7, -0.018023623, 0.0000014628278, -0.0001265909, -878040.7, -42235.543, 0.0, 10.000005, 9.942947 
1.8550001e+3, 2.246504e+2, -789754.56, -843144.7, 0.0034618988, 0.0000014569752, 0.00012109954, -789754.56, -51328.445, 0.0, 10.000005, 9.929906 
1.8550001e+3, 2.3458037e+2, -691321.1, -744966.25, -0.018314185, 0.000001448999, -0.00008861917, -691321.1, -50208.71, 0.0, 10.000005, 9.929574 
1.8550001e+3, 2.445034e+2, -602997.1, -667018.6, 0.0019896415, 0.000001443987, 0.00007489068, -602997.1, -59130.316, 0.0, 10.000005, 9.916134 
1.8550001e+3, 2.5441965e+2, -504244.47, -568343.2, -0.015202903, 0.000001442517, -0.000106567895, -504244.47, -57556.992, 0.0, 10.000005, 9.916034 
1.8550001e+3, 2.6432884e+2, -416009.1, -490987.78, 0.00688999, 0.000001439397, 0.0001407471, -416009.1, -66431.47, 0.0, 10.000005, 9.901962 
1.8550001e+3, 2.742313e+2, -316723.9, -391374.7, -0.014296477, 0.0000014341676, -0.0002033109, -316723.9, -64190.94, 0.0, 10.000005, 9.902383 
1.8550001e+3, 2.841256e+2, -230250.67, -318081.2, 0.003845036, 0.0000014306686, 0.00022916241, -230250.67, -74681.72, 0.0, 10.000005, 9.885436 
1.8550001e+3, 2.940121e+2, -130544.58, -217764.98, -0.01355849, 0.0000014295464, -0.00025323883, -130544.58, -71863.18, 0.0, 10.000005, 9.886215 
1.8550001e+3, 3.0392656e+2, -40800.617, -84750.16, 0.008150727, 0.0000014271395, 0.00017321885, -40800.617, -40800.617, 0.0, 10.000005, 9.94217 
1.8550001e+3, 3.138706e+2, -39722.61, -82511.21, -0.006540748, 0.0000014228062, -0.000055094977, -39722.61, -39722.61, 0.0, 10.000005, 9.943682 
1.8650001e+3, 1.2499338e+2, -1719940.1, -1724224.3, 0.02066719, 0.000001581154, 0.000018018767, -1719940.1, -4875.2397, 0.0, 10.000005, 9.994325 
1.8650001e+3, 1.3498762e+2, -1622559.8, -1627434.5, -0.0043133446, 0.0000015515228, -0.00006803109, -1622559.8, -5438.5117, 0.0, 10.000005, 9.993543 
1.8650001e+3, 1.4497517e+2, -1534458.4, -1548145.9, 0.019800158, 0.0000015383309, 0.00007128616, -1534458.4, -15215.016, 0.0, 10.000005, 9.981862 
1.8650001e+3, 1.5495706e+2, -1436730.8, -1450821.5, -0.005151075, 0.0000015413337, -0.000056636913, -1436730.8, -15309.883, 0.0, 10.000005, 9.981331 
1.8650001e+3, 1.649323e+2, -1348679.8, -1371952.0, 0.015621681, 0.0000015366342, 0.000047665842, -1348679.8, -25016.38, 0.0, 10.000005, 9.969246 
1.8650001e+3, 1.7490157e+2, -1250721.9, -1274309.8, -0.0076636514, 0.0000015240705, -0.000073522126, -1250721.9, -24757.406, 0.0, 10.000005, 9.968832 
1.8650001e+3, 1.8486424e+2, -1162640.9, -1195719.8, 0.014298648, 0.0000015146232, 0.00006643608, -1162640.9, -34310.46, 0.0, 10.000005, 9.956393 
1.8650001e+3, 1.9482067e+2, -1064491.3, -1097832.6, -0.008768542, 0.0000015084357, -0.0000573856, -1064491.3, -33733.836, 0.0, 10.000005, 9.95605 
1.8650001e+3, 2.0477043e+2, -976327.3, -1019434.7, 0.01258536, 0.0000015036234, 0.00006833252, -976327.3, -43077.59, 0.0, 10.000005, 9.943288 
1.8650001e+3, 2.1471377e+2, -878040.3, -921409.56, -0.009643903, 0.0000015002993, -0.00012658528, -878040.3, -42235.21, 0.0, 10.000005, 9.942947 
1.8650001e+3, 2.246504e+2, -789754.25, -843144.56, 0.01169979, 0.0000014944308, 0.00012110567, -789754.25, -51328.113, 0.0, 10.000005, 9.929906 
1.8650001e+3, 2.3458037e+2, -691320.8, -744966.2, -0.008776785, 0.0000014856811, -0.00008861265, -691320.8, -50208.375, 0.0, 10.000005, 9.929574 
1.8650001e+3, 2.445034e+2, -602996.75, -667018.5, 0.011712394, 0.0000014803715, 0.000074896, -602996.75, -59129.977, 0.0, 10.000005, 9.916134 
1.8650001e+3, 2.5441965e+2, -504244.13, -568343.06, -0.01160937, 0.0000014791727, -0.00010656567, -504244.13, -57556.664, 0.0, 10.000005, 9.916034 
1.8650001e+3, 2.6432884e+2, -416008.75, -490987.7, 0.008596609, 0.0000014761689, 0.00014074858, -416008.75, -66431.15, 0.0, 10.000005, 9.901962 
1.8650001e+3, 2.742313e+2, -316723.6, -391374.6, -0.00960845, 0.0000014708567, -0.00020330718, -316723.6, -64190.617, 0.0, 10.000005, 9.902383 
1.8650001e+3, 2.841256e+2, -230250.34, -318081.1, 0.010746652, 0.000001467243, 0.00022916684, -230250.34, -74681.4, 0.0, 10.000005, 9.885436 
1.8650001e+3, 2.940121e+2, -130544.25, -217764.89, -0.008429946, 0.000001465964, -0.00025323583, -130544.25, -71862.85, 0.0, 10.000005, 9.886215 
1.8650001e+3, 3.0392656e+2, -40800.293, -84750.07, 0.010729797, 0.0000014635478, 0.00017322003, -40800.293, -40800.293, 0.0, 10.000005, 9.94217 
1.8650001e+3, 3.138706e+2, -39722.293, -82511.125, -0.010307365, 0.0000014594245, -0.000055096163, -39722.293, -39722.293, 0.0, 10.000005, 9.943682 
1.8750003e+3, 1.2499338e+2, -1719940.1, -1724224.3, 0.0071847537, 0.0000016071167, 0.000018035322, -1719940.1, -4875.3096, 0.0, 10.000005, 9.994325 
1.8750003e+3, 1.3498762e+2, -1622559.8, -1627434.6, -0.017798252, 0.0000015998187, -0.00006803224, -1622559.8, -5438.58, 0.0, 10.000005, 9.993543 
1.8750001e+3, 1.4497517e+2, -1534458.4, -1548145.9, 0.008664769, 0.0000015897074, 0.00007130305, -1534458.4, -15215.083, 0.0, 10.000005, 9.981862 
1.8750001e+3, 1.5495706e+2, -1436730.8, -1450821.6, -0.01628284, 0.0000015764113, -0.000056628553, -1436730.8, -15309.948, 0.0, 10.000005, 9.981331 
1.8750001e+3, 1.649323e+2, -1348679.9, -1371952.0, 0.005076681, 0.0000015678484, 0.00004767136, -1348679.9, -25016.443, 0.0, 10.000005, 9.969246 
1.8750001e+3, 1.7490157e+2, -1250721.9, -1274309.9, -0.018205673, 0.0000015641185, -0.000073513635, -1250721.9, -24757.467, 0.0, 10.000005, 9.968832 
1.8750001e+3, 1.8486424e+2, -1162641.0, -1195719.8, 0.0047258027, 0.0000015570942, 0.00006644618, -1162641.0, -34310.52, 0.0, 10.000005, 9.956393 
1.8750001e+3, 1.9482067e+2, -1064491.3, -1097832.8, -0.018330313, 0.0000015466211, -0.00005737533, -1064491.3, -33733.895, 0.0, 10.000005, 9.95605 
1.8750001e+3, 2.0477043e+2, -976327.4, -1019434.75, 0.004634428, 0.0000015399198, 0.00006833907, -976327.4, -43077.65, 0.0, 10.000005, 9.943288 
1.8750001e+3, 2.1471377e+2, -878040.4, -921409.7, -0.01756172, 0.0000015373031, -0.00012658667, -878040.4, -42235.266, 0.0, 10.000005, 9.942947 
1.8750001e+3, 2.246504e+2, -789754.3, -843144.6, 0.0046427026, 0.0000015323479, 0.00012110368, -789754.3, -51328.164, 0.0, 10.000005, 9.929905 
1.8750001e+3, 2.3458037e+2, -691320.8, -744966.25, -0.015805908, 0.0000015247437, -0.00008860694, -691320.8, -50208.426, 0.0, 10.000005, 9.929574 
1.8750001e+3, 2.445034e+2, -602996.8, -667018.6, 0.0057169828, 0.0000015190747, 0.00007490245, -602996.8, -59130.035, 0.0, 10.000005, 9.916134 
1.8750001e+3, 2.5441965e+2, -504244.2, -568343.2, -0.017555201, 0.0000015157192, -0.00010656683, -504244.2, -57556.72, 0.0, 10.000005, 9.916034 
1.8750001e+3, 2.6432884e+2, -416008.8, -490987.75, 0.0035868504, 0.0000015124906, 0.00014074532, -416008.8, -66431.195, 0.0, 10.000005, 9.901962 
1.8750001e+3, 2.742313e+2, -316723.63, -391374.7, -0.014555692, 0.0000015094167, -0.00020330549, -316723.63, -64190.66, 0.0, 10.000005, 9.902383 
1.8750001e+3, 2.841256e+2, -230250.39, -318081.2, 0.007367944, 0.0000015059543, 0.00022917044, -230250.39, -74681.445, 0.0, 10.000005, 9.885436 
1.8750001e+3, 2.940121e+2, -130544.29, -217764.98, -0.011667533, 0.0000015019581, -0.0002532345, -130544.29, -71862.9, 0.0, 10.000005, 9.886215 
1.8750001e+3, 3.0392656e+2, -40800.344, -84750.17, 0.008097864, 0.0000014994671, 0.00017322152, -40800.344, -40800.344, 0.0, 10.000005, 9.94217 
1.8750001e+3, 3.138706e+2, -39722.344, -82511.23, -0.012868343, 0.0000014992181, -0.00005509083, -39722.344, -39722.344, 0.0, 10.000005, 9.943682 
1.8850003e+3, 1.24993384e+2, -1719939.8, -1724224.1, 0.017591922, 0.0000016446915, 0.000018047795, -1719939.8, -4874.9414, 0.0, 10.000006, 9.994325 
1.8850003e+3, 1.3498764e+2, -1622559.4, -1627434.4, -0.0077383984, 0.0000016416703, -0.00006803709, -1622559.4, -5438.1963, 0.0, 10.000006, 9.993543 
1.8850003e+3, 1.4497517e+2, -1534458.0, -1548145.8, 0.017451089, 0.0000016321995, 0.00007131852, -1534458.0, -15214.698, 0.0, 10.000006, 9.981862 
1.8850003e+3, 1.5495706e+2, -1436730.4, -1450821.5, -0.007381903, 0.0000016158767, -0.00005662021, -1436730.4, -15309.579, 0.0, 10.000006, 9.981331 
1.8850003e+3, 1.6493231e+2, -1348679.5, -1371951.9, 0.015970854, 0.000001606037, 0.000047676775, -1348679.5, -25016.078, 0.0, 10.000005, 9.969246 
1.8850003e+3, 1.7490159e+2, -1250721.5, -1274309.8, -0.008200891, 0.0000016028168, -0.00007350686, -1250721.5, -24757.102, 0.0, 10.000005, 9.968832 
1.8850003e+3, 1.8486424e+2, -1162640.6, -1195719.8, 0.014312932, 0.0000015964943, 0.00006645342, -1162640.6, -34310.156, 0.0, 10.000005, 9.956393 
1.8850002e+3, 1.9482067e+2, -1064490.9, -1097832.6, -0.010070027, 0.0000015869238, -0.000057368543, -1064490.9, -33733.535, 0.0, 10.000005, 9.95605 
1.8850002e+3, 2.0477043e+2, -976327.0, -1019434.6, 0.013136725, 0.0000015798016, 0.00006834507, -976327.0, -43077.29, 0.0, 10.000005, 9.943288 
1.8850002e+3, 2.1471377e+2, -878040.0, -921409.56, -0.010502926, 0.0000015753308, -0.0001265818, -878040.0, -42234.91, 0.0, 10.000005, 9.942947 
1.8850002e+3, 2.246504e+2, -789753.94, -843144.56, 0.010180998, 0.0000015699771, 0.00012110774, -789753.94, -51327.81, 0.0, 10.000005, 9.929905 
1.8850002e+3, 2.3458037e+2, -691320.5, -744966.1, -0.013189762, 0.0000015636225, -0.00008860331, -691320.5, -50208.08, 0.0, 10.000005, 9.929574 
1.8850002e+3, 2.445034e+2, -602996.44, -667018.5, 0.009732505, 0.0000015583577, 0.00007490627, -602996.44, -59129.688, 0.0, 10.000005, 9.916134 
1.8850002e+3, 2.5441965e+2, -504243.84, -568343.06, -0.010421484, 0.0000015543948, -0.00010656209, -504243.84, -57556.37, 0.0, 10.000005, 9.916034 
1.8850002e+3, 2.6432884e+2, -416008.47, -490987.66, 0.011229656, 0.0000015507375, 0.00014074982, -416008.47, -66430.84, 0.0, 10.000005, 9.901962 
1.8850002e+3, 2.742313e+2, -316723.28, -391374.56, -0.011323515, 0.0000015474645, -0.00020330271, -316723.28, -64190.316, 0.0, 10.000005, 9.902383 
1.8850002e+3, 2.841256e+2, -230250.05, -318081.1, 0.008689771, 0.0000015439158, 0.00022917206, -230250.05, -74681.1, 0.0, 10.000005, 9.885436 
1.8850002e+3, 2.940121e+2, -130543.95, -217764.88, -0.011655642, 0.0000015399866, -0.0002532333, -130543.95, -71862.56, 0.0, 10.000005, 9.886215 
1.8850002e+3, 3.0392656e+2, -40800.008, -84750.08, 0.010703542, 0.0000015376072, 0.00017322329, -40800.008, -40800.008, 0.0, 10.000005, 9.94217 
1.8850002e+3, 3.138706e+2, -39722.004, -82511.13, -0.005134438, 0.0000015375349, -0.000055087094, -39722.004, -39722.004, 0.0, 10.000005, 9.943682 
1.8950002e+3, 1.24993384e+2, -1719939.9, -1724224.3, 0.008020701, 0.0000016938775, 0.000018056186, -1719939.9, -4875.012, 0.0, 10.000006, 9.994325 
1.8950002e+3, 1.3498764e+2, -1622559.5, -1627434.5, -0.017311292, 0.0000016770786, -0.00006804563, -1622559.5, -5438.2656, 0.0, 10.000006, 9.993542 
1.8950002e+3, 1.4497517e+2, -1534458.1, -1548145.9, 0.003117611, 0.0000016658081, 0.000071332564, -1534458.1, -15214.766, 0.0, 10.000006, 9.981862 
1.8950002e+3, 1.5495706e+2, -1436730.5, -1450821.6, -0.021722995, 0.0000016597298, -0.00005661188, -1436730.5, -15309.645, 0.0, 10.000006, 9.981331 
1.8950002e+3, 1.6493231e+2, -1348679.5, -1371952.0, 0.005702432, 0.0000016511996, 0.000047682082, -1348679.5, -25016.143, 0.0, 10.000005, 9.969246 
1.8950002e+3, 1.7490159e+2, -1250721.6, -1274309.9, -0.018447988, 0.0000016401659, -0.00007350182, -1250721.6, -24757.166, 0.0, 10.000005, 9.968832 
1.8950002e+3, 1.8486424e+2, -1162640.6, -1195719.8, 0.004390634, 0.0000016328239, 0.000066457804, -1162640.6, -34310.22, 0.0, 10.000005, 9.956393 
1.8950002e+3, 1.9482067e+2, -1064491.0, -1097832.8, -0.019988699, 0.0000016293435, -0.000057365236, -1064491.0, -33733.594, 0.0, 10.000005, 9.95605 
1.8950002e+3, 2.0477043e+2, -976327.06, -1019434.75, 0.0048097204, 0.0000016232685, 0.000068350535, -976327.06, -43077.348, 0.0, 10.000005, 9.943288 
1.8950002e+3, 2.1471377e+2, -878040.06, -921409.6, -0.018797202, 0.0000016143823, -0.00012657068, -878040.06, -42234.97, 0.0, 10.000005, 9.942947 
1.8950002e+3, 2.246504e+2, -789754.0, -843144.6, 0.0022387935, 0.0000016073185, 0.00012111785, -789754.0, -51327.867, 0.0, 10.000005, 9.929905 
1.8950002e+3, 2.3458037e+2, -691320.56, -744966.25, -0.021120606, 0.0000016023175, -0.000088601744, -691320.56, -50208.133, 0.0, 10.000005, 9.929574 
1.8950002e+3, 2.445034e+2, -602996.5, -667018.6, 0.003952697, 0.0000015982204, 0.000074907475, -602996.5, -59129.74, 0.0, 10.000005, 9.916134 
1.8950002e+3, 2.5441965e+2, -504243.88, -568343.2, -0.016098164, 0.0000015951996, -0.000106551444, -504243.88, -57556.42, 0.0, 10.000005, 9.916034 
1.8950002e+3, 2.6432884e+2, -416008.5, -490987.75, 0.006061886, 0.0000015909094, 0.00014076207, -416008.5, -66430.9, 0.0, 10.000005, 9.901962 
1.8950002e+3, 2.742313e+2, -316723.3, -391374.7, -0.016457316, 0.000001585, -0.00020329886, -316723.3, -64190.37, 0.0, 10.000005, 9.902382 
1.8950002e+3, 2.841256e+2, -230250.1, -318081.2, 0.004496235, 0.0000015811275, 0.00022917167, -230250.1, -74681.15, 0.0, 10.000005, 9.885436 
1.8950002e+3, 2.940121e+2, -130544.0, -217764.98, -0.01576469, 0.0000015800491, -0.0002532322, -130544.0, -71862.61, 0.0, 10.000005, 9.886214 
1.8950002e+3, 3.0392656e+2, -40800.05, -84750.164, 0.008935164, 0.000001577968, 0.00017322533, -40800.05, -40800.05, 0.0, 10.000005, 9.94217 
1.8950002e+3, 3.138706e+2, -39722.043, -82511.22, -0.0066283895, 0.000001574375, -0.000055084947, -39722.043, -39722.043, 0.0, 10.000005, 9.943682 
1.9050002e+3, 1.24993384e+2, -1719939.4, -1724224.1, 0.021996858, 0.0000017411326, 0.0000180708, -1719939.4, -4874.597, 0.0, 10.000006, 9.994325 
1.9050002e+3, 1.3498764e+2, -1622559.0, -1627434.4, -0.0049704537, 0.0000017163109, -0.00006804867, -1622559.0, -5437.8823, 0.0, 10.000006, 9.993542 
1.9050002e+3, 1.4497517e+2, -1534457.6, -1548145.8, 0.015130858, 0.0000017032587, 0.00007135129, -1534457.6, -15214.388, 0.0, 10.000006, 9.981862 
1.9050002e+3, 1.5495706e+2, -1436730.1, -1450821.5, -0.009738054, 0.00000170167, -0.00005660256, -1436730.1, -15309.253, 0.0, 10.000006, 9.98133 
1.9050002e+3, 1.6493231e+2, -1348679.1, -1371951.9, 0.017689688, 0.0000016943725, 0.0000476875, -1348679.1, -25015.75, 0.0, 10.000006, 9.969246 
1.9050002e+3, 1.7490159e+2, -1250721.3, -1274309.8, -0.008824951, 0.0000016812461, -0.00007349468, -1250721.3, -24756.783, 0.0, 10.000006, 9.968832 
1.9050002e+3, 1.8486424e+2, -1162640.3, -1195719.6, 0.014400923, 0.000001673354, 0.00006646517, -1162640.3, -34309.844, 0.0, 10.000006, 9.956392 
1.9050002e+3, 1.9482067e+2, -1064490.6, -1097832.6, -0.01056334, 0.0000016709379, -0.000057359204, -1064490.6, -33733.215, 0.0, 10.000006, 9.95605 
1.9050002e+3, 2.0477045e+2, -976326.6, -1019434.6, 0.014211722, 0.0000016644675, 0.00006835654, -976326.6, -43076.97, 0.0, 10.000006, 9.943288 
1.9050002e+3, 2.1471377e+2, -878039.7, -921409.5, -0.009465492, 0.0000016536048, -0.00012656329, -878039.7, -42234.598, 0.0, 10.000006, 9.942947 
1.9050002e+3, 2.246504e+2, -789753.6, -843144.5, 0.013303206, 0.0000016466315, 0.00012112516, -789753.6, -51327.5, 0.0, 10.000006, 9.929905 
1.9050002e+3, 2.3458037e+2, -691320.2, -744966.1, -0.010551668, 0.0000016440613, -0.000088596214, -691320.2, -50207.76, 0.0, 10.000006, 9.929574 
1.9050002e+3, 2.445034e+2, -602996.1, -667018.5, 0.013039176, 0.0000016401746, 0.000074912, -602996.1, -59129.367, 0.0, 10.000006, 9.916134 
1.9050002e+3, 2.5441965e+2, -504243.53, -568343.06, -0.011165566, 0.0000016347097, -0.000106547006, -504243.53, -57556.06, 0.0, 10.000006, 9.916034 
1.9050002e+3, 2.6432884e+2, -416008.16, -490987.66, 0.010620608, 0.0000016295576, 0.00014076619, -416008.16, -66430.54, 0.0, 10.000006, 9.901962 
1.9050002e+3, 2.742313e+2, -316722.97, -391374.56, -0.010463437, 0.0000016248057, -0.00020329538, -316722.97, -64190.01, 0.0, 10.000006, 9.902382 
1.9050002e+3, 2.841256e+2, -230249.73, -318081.06, 0.011948785, 0.0000016217791, 0.00022917513, -230249.73, -74680.79, 0.0, 10.000006, 9.885436 
1.9050002e+3, 2.940121e+2, -130543.64, -217764.88, -0.00961387, 0.0000016211105, -0.0002532279, -130543.64, -71862.25, 0.0, 10.000006, 9.886214 
1.9050002e+3, 3.0392656e+2, -40799.69, -84750.06, 0.0122472355, 0.0000016184894, 0.00017322821, -40799.69, -40799.69, 0.0, 10.000005, 9.94217 
1.9050002e+3, 3.138706e+2, -39721.7, -82511.12, -0.009501946, 0.0000016129499, -0.000055086835, -39721.7, -39721.7, 0.0, 10.000005, 9.943682 
1.9150002e+3, 1.24993384e+2, -1719939.5, -1724224.3, 0.005573706, 0.0000017864568, 0.000018091638, -1719939.5, -4874.673, 0.0, 10.000006, 9.994325 
1.9150002e+3, 1.3498764e+2, -1622559.1, -1627434.5, -0.021396834, 0.0000017593669, -0.00006804621, -1622559.1, -5437.956, 0.0, 10.000006, 9.993542 
1.9150002e+3, 1.4497517e+2, -1534457.8, -1548145.9, 0.004368399, 0.000001744551, 0.0000713747, -1534457.8, -15214.456, 0.0, 10.000006, 9.981862 
1.9150002e+3, 1.5495706e+2, -1436730.1, -1450821.6, -0.020491716, 0.0000017416976, -0.000056592242, -1436730.1, -15309.319, 0.0, 10.000006, 9.98133 
1.9150002e+3, 1.6493231e+2, -1348679.3, -1371952.0, 0.0051281783, 0.0000017355558, 0.000047693033, -1348679.3, -25015.818, 0.0, 10.000006, 9.969246 
1.9150002e+3, 1.7490159e+2, -1250721.3, -1274309.9, -0.021396121, 0.0000017260571, -0.000073485455, -1250721.3, -24756.852, 0.0, 10.000006, 9.968832 
1.9150002e+3, 1.8486424e+2, -1162640.4, -1195719.8, 0.0051997053, 0.0000017180844, 0.000066475506, -1162640.4, -34309.906, 0.0, 10.000006, 9.956392 
1.9150002e+3, 1.9482067e+2, -1064490.6, -1097832.6, -0.0197257, 0.000001711707, -0.000057350448, -1064490.6, -33733.277, 0.0, 10.000006, 9.95605 
1.9150002e+3, 2.0477045e+2, -976326.7, -1019434.75, 0.0040210825, 0.0000017033988, 0.00006836309, -976326.7, -43077.027, 0.0, 10.000006, 9.943288 
1.9150002e+3, 2.1471377e+2, -878039.75, -921409.6, -0.019677583, 0.0000016929985, -0.00012655961, -878039.75, -42234.656, 0.0, 10.000006, 9.942946 
1.9150002e+3, 2.246504e+2, -789753.7, -843144.6, 0.0067156553, 0.0000016879162, 0.00012112965, -789753.7, -51327.56, 0.0, 10.000006, 9.929905 
1.9150002e+3, 2.3458037e+2, -691320.2, -744966.25, -0.017020822, 0.0000016888534, -0.00008858672, -691320.2, -50207.82, 0.0, 10.000006, 9.929574 
1.9150002e+3, 2.445034e+2, -602996.2, -667018.6, 0.005786689, 0.00000168422, 0.00007491984, -602996.2, -59129.426, 0.0, 10.000006, 9.916134 
1.9150002e+3, 2.5441965e+2, -504243.56, -568343.1, -0.018455869, 0.0000016729255, -0.00010654878, -504243.56, -57556.113, 0.0, 10.000006, 9.916034 
1.9150002e+3, 2.6432884e+2, -416008.2, -490987.75, 0.005530978, 0.0000016666822, 0.00014076216, -416008.2, -66430.59, 0.0, 10.000006, 9.901962 
1.9150002e+3, 2.742313e+2, -316723.0, -391374.66, -0.015405776, 0.0000016668816, -0.00020329228, -316723.0, -64190.063, 0.0, 10.000006, 9.902382 
1.9150002e+3, 2.841256e+2, -230249.78, -318081.2, 0.0085267145, 0.0000016658704, 0.00022918243, -230249.78, -74680.84, 0.0, 10.000006, 9.885436 
1.9150002e+3, 2.940121e+2, -130543.69, -217764.97, -0.01289917, 0.0000016631709, -0.0002532204, -130543.69, -71862.3, 0.0, 10.000006, 9.886214 
1.9150002e+3, 3.0392656e+2, -40799.742, -84750.164, 0.007883625, 0.0000016591712, 0.00017323192, -40799.742, -40799.742, 0.0, 10.000005, 9.94217 
1.9150002e+3, 3.138706e+2, -39721.75, -82511.23, -0.01399239, 0.0000016532592, -0.000055092754, -39721.75, -39721.75, 0.0, 10.000005, 9.943682 
1.9250003e+3, 1.24993384e+2, -1719939.1, -1724224.1, 0.02316687, 0.000001829847, 0.000018106059, -1719939.1, -4874.2593, 0.0, 10.000006, 9.994325 
1.9250003e+3, 1.3498764e+2, -1622558.6, -1627434.4, -0.0060020657, 0.0000018037916, -0.000068046014, -1622558.6, -5437.5356, 0.0, 10.000006, 9.993542 
1.9250003e+3, 1.4497517e+2, -1534457.3, -1548145.8, 0.020260928, 0.000001788799, 0.000071398084, -1534457.3, -15214.036, 0.0, 10.000006, 9.981862 
1.9250003e+3, 1.5495706e+2, -1436729.8, -1450821.5, -0.007522223, 0.0000017845415, -0.000056584482, -1436729.8, -15308.915, 0.0, 10.000006, 9.98133 
1.9250003e+3, 1.6493231e+2, -1348678.8, -1371951.9, 0.017303498, 0.0000017784097, 0.000047695838, -1348678.8, -25015.42, 0.0, 10.000006, 9.969246 
1.9250003e+3, 1.7490159e+2, -1250720.9, -1274309.8, -0.009649853, 0.0000017703645, -0.00007347669, -1250720.9, -24756.445, 0.0, 10.000006, 9.968832 
1.9250003e+3, 1.8486424e+2, -1162639.9, -1195719.6, 0.017306745, 0.0000017618032, 0.00006648608, -1162639.9, -34309.5, 0.0, 10.000006, 9.956392 
1.9250003e+3, 1.9482067e+2, -1064490.3, -1097832.5, -0.00875124, 0.0000017527003, -0.000057342437, -1064490.3, -33732.887, 0.0, 10.000006, 9.95605 
1.9250003e+3, 2.0477045e+2, -976326.3, -1019434.6, 0.013846925, 0.0000017445167, 0.00006836932, -976326.3, -43076.64, 0.0, 10.000006, 9.943288 
1.9250003e+3, 2.1471377e+2, -878039.3, -921409.5, -0.013346093, 0.0000017373278, -0.00012655433, -878039.3, -42234.26, 0.0, 10.000006, 9.942946 
1.9250003e+3, 2.246504e+2, -789753.25, -843144.5, 0.012778652, 0.0000017324419, 0.00012113423, -789753.25, -51327.164, 0.0, 10.000006, 9.929905 
1.9250003e+3, 2.3458037e+2, -691319.8, -744966.1, -0.011738973, 0.0000017301613, -0.00008858254, -691319.8, -50207.434, 0.0, 10.000006, 9.929574 
1.9250003e+3, 2.445034e+2, -602995.8, -667018.5, 0.011004459, 0.0000017245301, 0.00007492401, -602995.8, -59129.043, 0.0, 10.000006, 9.916133 
1.9250003e+3, 2.5441965e+2, -504243.2, -568343.06, -0.0130580645, 0.0000017148928, -0.0001065441, -504243.2, -57555.734, 0.0, 10.000006, 9.916034 
1.9250003e+3, 2.6432884e+2, -416007.8, -490987.63, 0.011502253, 0.0000017095579, 0.00014076645, -416007.8, -66430.21, 0.0, 10.000006, 9.901962 
1.9250003e+3, 2.742313e+2, -316722.63, -391374.56, -0.012442036, 0.0000017097058, -0.00020328948, -316722.63, -64189.684, 0.0, 10.000006, 9.902382 
1.9250003e+3, 2.841256e+2, -230249.4, -318081.06, 0.010912976, 0.000001708095, 0.00022918418, -230249.4, -74680.47, 0.0, 10.000006, 9.885436 
1.9250003e+3, 2.9401213e+2, -130543.31, -217764.88, -0.010134324, 0.0000017040504, -0.00025321913, -130543.31, -71861.93, 0.0, 10.000006, 9.886214 
1.9250003e+3, 3.0392656e+2, -40799.375, -84750.07, 0.01210648, 0.0000016999973, 0.00017323371, -40799.375, -40799.375, 0.0, 10.000006, 9.94217 
1.9250003e+3, 3.138706e+2, -39721.37, -82511.125, -0.008744774, 0.0000016959567, -0.000055088996, -39721.37, -39721.37, 0.0, 10.000006, 9.943682 
1.9350003e+3, 1.24993384e+2, -1719939.1, -1724224.3, 0.00871975, 0.000001871303, 0.000018114064, -1719939.1, -4874.3403, 0.0, 10.000006, 9.994324 
1.9350003e+3, 1.3498764e+2, -1622558.8, -1627434.5, -0.020452032, 0.000001849585, -0.00006804807, -1622558.8, -5437.615, 0.0, 10.000006, 9.993542 
1.9350003e+3, 1.4497517e+2, -1534457.4, -1548145.9, 0.006132175, 0.0000018360022, 0.000071421455, -1534457.4, -15214.111, 0.0, 10.000006, 9.981862 
1.9350003e+3, 1.5495706e+2, -1436729.8, -1450821.6, -0.021650625, 0.0000018302019, -0.000056579287, -1436729.8, -15308.989, 0.0, 10.000006, 9.98133 
1.9350003e+3, 1.6493231e+2, -1348678.9, -1371952.0, 0.006670152, 0.0000018229341, 0.000047695925, -1348678.9, -25015.49, 0.0, 10.000006, 9.969245 
1.9350003e+3, 1.7490159e+2, -1250720.9, -1274309.9, -0.020264912, 0.0000018141684, -0.00007346837, -1250720.9, -24756.516, 0.0, 10.000006, 9.968832 
1.9350003e+3, 1.8486424e+2, -1162640.0, -1195719.8, 0.0054935296, 0.0000018045107, 0.000066496876, -1162640.0, -34309.566, 0.0, 10.000006, 9.956392 
1.9350003e+3, 1.9482067e+2, -1064490.3, -1097832.6, -0.020578517, 0.0000017939182, -0.000057335175, -1064490.3, -33732.953, 0.0, 10.000006, 9.956049 
1.9350003e+3, 2.0477045e+2, -976326.4, -1019434.75, 0.0052130227, 0.0000017878212, 0.000068375215, -976326.4, -43076.707, 0.0, 10.000006, 9.943288 
1.9350003e+3, 2.1471377e+2, -878039.4, -921409.6, -0.021914173, 0.0000017865925, -0.00012654744, -878039.4, -42234.33, 0.0, 10.000006, 9.942946 
1.9350003e+3, 2.246504e+2, -789753.3, -843144.6, 0.004505786, 0.0000017802081, 0.00012113891, -789753.3, -51327.227, 0.0, 10.000006, 9.929905 
1.9350003e+3, 2.3458037e+2, -691319.9, -744966.25, -0.020002414, 0.000001767985, -0.0000885837, -691319.9, -50207.492, 0.0, 10.000006, 9.929574 
1.9350003e+3, 2.445034e+2, -602995.9, -667018.56, 0.0040980102, 0.000001761105, 0.00007492452, -602995.9, -59129.1, 0.0, 10.000006, 9.916133 
1.9350003e+3, 2.5441965e+2, -504243.25, -568343.1, -0.019899493, 0.0000017606117, -0.00010653299, -504243.25, -57555.79, 0.0, 10.000006, 9.916034 
1.9350003e+3, 2.6432884e+2, -416007.84, -490987.75, 0.0061017405, 0.0000017581841, 0.00014077907, -416007.84, -66430.266, 0.0, 10.000006, 9.901962 
1.9350003e+3, 2.742313e+2, -316722.7, -391374.66, -0.017746184, 0.0000017532781, -0.00020328697, -316722.7, -64189.74, 0.0, 10.000006, 9.902382 
1.9350003e+3, 2.841256e+2, -230249.45, -318081.16, 0.0062751807, 0.0000017484531, 0.00022918035, -230249.45, -74680.516, 0.0, 10.000006, 9.885436 
1.9350003e+3, 2.9401213e+2, -130543.36, -217764.97, -0.0147123765, 0.0000017437492, -0.00025322408, -130543.36, -71861.98, 0.0, 10.000006, 9.886214 
1.9350003e+3, 3.0392656e+2, -40799.426, -84750.17, 0.0105926385, 0.0000017409676, 0.00017323357, -40799.426, -40799.426, 0.0, 10.000006, 9.94217 
1.9350003e+3, 3.138706e+2, -39721.42, -82511.23, -0.0098991785, 0.0000017410421, -0.00005507556, -39721.42, -39721.42, 0.0, 10.000006, 9.943682 
1.9450003e+3, 1.2499339e+2, -1719938.6, -1724224.1, 0.021840643, 0.00000191578, 0.000018130826, -1719938.6, -4873.9014, 0.0, 10.000007, 9.994324 
1.9450003e+3, 1.3498764e+2, -1622558.3, -1627434.4, -0.00638098, 0.0000018958926, -0.00006805301, -1622558.3, -5437.1816, 0.0, 10.000007, 9.993542 
1.9450003e+3, 1.4497517e+2, -1534456.9, -1548145.8, 0.020790888, 0.0000018829887, 0.00007144161, -1534456.9, -15213.68, 0.0, 10.000006, 9.981862 
1.9450003e+3, 1.5495706e+2, -1436729.4, -1450821.4, -0.00923074, 0.0000018767008, -0.00005656914, -1436729.4, -15308.555, 0.0, 10.000006, 9.98133 
1.9450003e+3, 1.6493231e+2, -1348678.4, -1371951.9, 0.019130372, 0.0000018684711, 0.000047701804, -1348678.4, -25015.059, 0.0, 10.000006, 9.969245 
1.9450003e+3, 1.7490159e+2, -1250720.5, -1274309.8, -0.008870088, 0.0000018582593, -0.000073460884, -1250720.5, -24756.098, 0.0, 10.000006, 9.968832 
1.9450003e+3, 1.8486424e+2, -1162639.5, -1195719.6, 0.016108619, 0.0000018484272, 0.00006650486, -1162639.5, -34309.152, 0.0, 10.000006, 9.956392 
1.9450003e+3, 1.9482067e+2, -1064489.9, -1097832.5, -0.012158855, 0.000001838991, -0.000057327852, -1064489.9, -33732.535, 0.0, 10.000006, 9.956049 
1.9450003e+3, 2.0477045e+2, -976325.94, -1019434.56, 0.015321027, 0.000001833401, 0.00006838191, -976325.94, -43076.29, 0.0, 10.000006, 9.943288 
1.9450003e+3, 2.1471377e+2, -878039.0, -921409.5, -0.0106767425, 0.000001831976, -0.00012654133, -878039.0, -42233.914, 0.0, 10.000006, 9.942946 
1.9450003e+3, 2.246504e+2, -789752.9, -843144.5, 0.014938524, 0.0000018246975, 0.00012114516, -789752.9, -51326.816, 0.0, 10.000006, 9.929905 
1.9450003e+3, 2.3458037e+2, -691319.44, -744966.1, -0.012433533, 0.0000018107911, -0.00008857649, -691319.44, -50207.09, 0.0, 10.000006, 9.929574 
1.9450003e+3, 2.445034e+2, -602995.44, -667018.44, 0.012559932, 0.000001804056, 0.000074931064, -602995.44, -59128.7, 0.0, 10.000006, 9.916133 
1.9450003e+3, 2.5441965e+2, -504242.8, -568343.0, -0.011581668, 0.0000018058922, -0.00010652907, -504242.8, -57555.387, 0.0, 10.000006, 9.916034 
1.9450003e+3, 2.6432884e+2, -416007.44, -490987.63, 0.014167388, 0.0000018037573, 0.00014078211, -416007.44, -66429.87, 0.0, 10.000006, 9.901962 
1.9450003e+3, 2.742313e+2, -316722.28, -391374.56, -0.011253596, 0.0000017965467, -0.00020328262, -316722.28, -64189.344, 0.0, 10.000006, 9.902382 
1.9450003e+3, 2.841256e+2, -230249.06, -318081.06, 0.011830177, 0.0000017908523, 0.00022918517, -230249.06, -74680.125, 0.0, 10.000006, 9.885436 
1.9450003e+3, 2.9401213e+2, -130542.96, -217764.86, -0.012240642, 0.0000017872551, -0.00025322, -130542.96, -71861.586, 0.0, 10.000006, 9.886214 
1.9450003e+3, 3.0392656e+2, -40799.035, -84750.06, 0.012557745, 0.0000017849742, 0.00017323626, -40799.035, -40799.035, 0.0, 10.000006, 9.94217 
1.9450003e+3, 3.138706e+2, -39721.035, -82511.12, -0.008746596, 0.0000017846313, -0.00005507527, -39721.035, -39721.035, 0.0, 10.000006, 9.943682 
1.9550003e+3, 1.2499339e+2, -1719938.8, -1724224.3, 0.0066110035, 0.000001963278, 0.00001815635, -1719938.8, -4873.9814, 0.0, 10.000007, 9.994324 
1.9550003e+3, 1.3498764e+2, -1622558.4, -1627434.5, -0.02161369, 0.0000019427146, -0.00006806082, -1622558.4, -5437.26, 0.0, 10.000007, 9.993542 
1.9550003e+3, 1.4497517e+2, -1534457.0, -1548145.9, 0.007559532, 0.0000019297588, 0.00007145855, -1534457.0, -15213.761, 0.0, 10.000006, 9.981861 
1.9550003e+3, 1.5495706e+2, -1436729.4, -1450821.5, -0.022459023, 0.0000019240383, -0.000056554047, -1436729.4, -15308.635, 0.0, 10.000006, 9.98133 
1.9550003e+3, 1.6493231e+2, -1348678.5, -1371952.0, 0.005698238, 0.000001915021, 0.000047713478, -1348678.5, -25015.133, 0.0, 10.000006, 9.969245 
1.9550003e+3, 1.7490159e+2, -1250720.5, -1274309.9, -0.022303488, 0.0000019026375, -0.000073454234, -1250720.5, -24756.17, 0.0, 10.000006, 9.968832 
1.9550003e+3, 1.8486424e+2, -1162639.6, -1195719.8, 0.005455426, 0.0000018935528, 0.00006651003, -1162639.6, -34309.227, 0.0, 10.000006, 9.956392 
1.9550003e+3, 1.9482067e+2, -1064489.9, -1097832.6, -0.022780031, 0.0000018879186, -0.00005732047, -1064489.9, -33732.605, 0.0, 10.000006, 9.956049 
1.9550003e+3, 2.0477045e+2, -976326.0, -1019434.7, 0.006043869, 0.000001881256, 0.00006838941, -976326.0, -43076.355, 0.0, 10.000006, 9.943288 
1.9550003e+3, 2.1471378e+2, -878039.06, -921409.6, -0.019926373, 0.0000018734784, -0.00012653599, -878039.06, -42233.98, 0.0, 10.000006, 9.942946 
1.9550003e+3, 2.2465041e+2, -789752.94, -843144.6, 0.0052112406, 0.0000018659103, 0.000121152996, -789752.94, -51326.883, 0.0, 10.000006, 9.929905 
1.9550003e+3, 2.3458037e+2, -691319.5, -744966.2, -0.0221766, 0.000001858579, -0.000088560904, -691319.5, -50207.156, 0.0, 10.000006, 9.929574 
1.9550003e+3, 2.445034e+2, -602995.5, -667018.56, 0.006524218, 0.0000018533825, 0.00007494364, -602995.5, -59128.76, 0.0, 10.000006, 9.916133 
1.9550003e+3, 2.5441965e+2, -504242.88, -568343.1, -0.017439542, 0.0000018507344, -0.00010653235, -504242.88, -57555.445, 0.0, 10.000006, 9.916033 
1.9550003e+3, 2.6432884e+2, -416007.5, -490987.75, 0.00799292, 0.0000018462777, 0.00014077555, -416007.5, -66429.93, 0.0, 10.000006, 9.901962 
1.9550003e+3, 2.742313e+2, -316722.34, -391374.66, -0.017449472, 0.0000018395117, -0.00020327643, -316722.34, -64189.402, 0.0, 10.000006, 9.902382 
1.9550003e+3, 2.841256e+2, -230249.11, -318081.16, 0.007579215, 0.0000018352926, 0.0002291986, -230249.11, -74680.18, 0.0, 10.000006, 9.885436 
1.9550003e+3, 2.9401213e+2, -130543.016, -217764.97, -0.016316628, 0.0000018345679, -0.00025320688, -130543.016, -71861.64, 0.0, 10.000006, 9.886214 
1.9550003e+3, 3.0392656e+2, -40799.086, -84750.164, 0.009176366, 0.0000018320169, 0.00017324176, -40799.086, -40799.086, 0.0, 10.000006, 9.94217 
1.9550003e+3, 3.138706e+2, -39721.09, -82511.23, -0.012046779, 0.0000018267247, -0.00005508812, -39721.09, -39721.09, 0.0, 10.000006, 9.943682 
1.9650002e+3, 1.2499339e+2, -1719938.3, -1724224.0, 0.02477604, 0.0000020112432, 0.00001817364, -1719938.3, -4873.524, 0.0, 10.000007, 9.994324 
1.9650002e+3, 1.3498764e+2, -1622557.9, -1627434.4, -0.007916806, 0.0000019918712, -0.000068065885, -1622557.9, -5436.8, 0.0, 10.000007, 9.993542 
1.9650002e+3, 1.4497519e+2, -1534456.5, -1548145.6, 0.020287545, 0.000001978552, 0.00007148033, -1534456.5, -15213.302, 0.0, 10.000007, 9.981861 
1.9650002e+3, 1.5495706e+2, -1436728.9, -1450821.4, -0.008472407, 0.0000019708962, -0.00005654392, -1436728.9, -15308.186, 0.0, 10.000007, 9.98133 
1.9650002e+3, 1.6493231e+2, -1348678.0, -1371951.8, 0.020124778, 0.0000019612548, 0.00004771939, -1348678.0, -25014.688, 0.0, 10.000007, 9.969245 
1.9650002e+3, 1.7490159e+2, -1250720.1, -1274309.6, -0.010420306, 0.0000019495865, -0.000073444935, -1250720.1, -24755.725, 0.0, 10.000007, 9.968831 
1.9650002e+3, 1.8486424e+2, -1162639.1, -1195719.6, 0.017717037, 0.0000019413073, 0.00006651971, -1162639.1, -34308.78, 0.0, 10.000007, 9.956392 
1.9650002e+3, 1.9482067e+2, -1064489.5, -1097832.5, -0.011385257, 0.0000019365732, -0.000057313533, -1064489.5, -33732.164, 0.0, 10.000007, 9.956049 
1.9650002e+3, 2.0477045e+2, -976325.56, -1019434.56, 0.016691597, 0.000001928587, 0.000068395515, -976325.56, -43075.92, 0.0, 10.000007, 9.943288 
1.9650002e+3, 2.1471378e+2, -878038.6, -921409.44, -0.012047738, 0.0000019170773, -0.00012652864, -878038.6, -42233.555, 0.0, 10.000007, 9.942946 
1.9650002e+3, 2.2465041e+2, -789752.5, -843144.44, 0.013458289, 0.0000019098288, 0.00012116012, -789752.5, -51326.457, 0.0, 10.000007, 9.929905 
1.9650002e+3, 2.3458037e+2, -691319.06, -744966.06, -0.012912888, 0.0000019074039, -0.00008855565, -691319.06, -50206.723, 0.0, 10.000007, 9.929574 
1.9650002e+3, 2.445034e+2, -602995.06, -667018.44, 0.015322608, 0.0000019028433, 0.00007494789, -602995.06, -59128.33, 0.0, 10.000007, 9.916133 
1.9650002e+3, 2.5441965e+2, -504242.47, -568343.0, -0.0140412105, 0.0000018957252, -0.00010652804, -504242.47, -57555.027, 0.0, 10.000007, 9.916033 
1.9650002e+3, 2.6432884e+2, -416007.1, -490987.63, 0.010535174, 0.0000018896695, 0.00014077962, -416007.1, -66429.51, 0.0, 10.000006, 9.901961 
1.9650002e+3, 2.742313e+2, -316721.9, -391374.53, -0.012880463, 0.0000018849703, -0.00020327294, -316721.9, -64188.984, 0.0, 10.000006, 9.902382 
1.9650002e+3, 2.841256e+2, -230248.69, -318081.03, 0.014275516, 0.0000018818943, 0.00022920176, -230248.69, -74679.766, 0.0, 10.000006, 9.885436 
1.9650002e+3, 2.9401213e+2, -130542.6, -217764.84, -0.010395521, 0.0000018810317, -0.0002532037, -130542.6, -71861.23, 0.0, 10.000006, 9.886214 
1.9650002e+3, 3.0392656e+2, -40798.676, -84750.055, 0.0141437035, 0.000001878139, 0.00017324406, -40798.676, -40798.676, 0.0, 10.000006, 9.94217 
1.9650002e+3, 3.138706e+2, -39720.676, -82511.12, -0.010009093, 0.0000018722145, -0.000055088007, -39720.676, -39720.676, 0.0, 10.000006, 9.943681 
1.9750002e+3, 1.2499339e+2, -1719938.4, -1724224.1, 0.010486864, 0.0000020596758, 0.000018182702, -1719938.4, -4873.6147, 0.0, 10.000007, 9.994324 
1.9750002e+3, 1.3498764e+2, -1622558.0, -1627434.5, -0.022208756, 0.000002043362, -0.000068068206, -1622558.0, -5436.889, 0.0, 10.000007, 9.993542 
1.9750002e+3, 1.4497519e+2, -1534456.6, -1548145.8, 0.0051672696, 0.0000020293685, 0.00007150696, -1534456.6, -15213.382, 0.0, 10.000007, 9.981861 
1.9750002e+3, 1.5495706e+2, -1436729.0, -1450821.5, -0.023594188, 0.000002017274, -0.000056538753, -1436729.0, -15308.264, 0.0, 10.000007, 9.98133 
1.9750002e+3, 1.6493231e+2, -1348678.1, -1371951.9, 0.0072028493, 0.0000020071725, 0.00004771954, -1348678.1, -25014.768, 0.0, 10.000007, 9.969245 
1.9750002e+3, 1.7490159e+2, -1250720.1, -1274309.8, -0.023330778, 0.000001999106, -0.000073433, -1250720.1, -24755.803, 0.0, 10.000007, 9.968831 
1.9750002e+3, 1.8486424e+2, -1162639.3, -1195719.8, 0.006144906, 0.0000019916904, 0.00006653391, -1162639.3, -34308.855, 0.0, 10.000007, 9.956392 
1.9750002e+3, 1.9482067e+2, -1064489.5, -1097832.6, -0.022942094, 0.0000019849547, -0.000057307036, -1064489.5, -33732.24, 0.0, 10.000007, 9.956049 
1.9750002e+3, 2.0477045e+2, -976325.6, -1019434.7, 0.0057907104, 0.0000019753936, 0.00006840023, -976325.6, -43075.992, 0.0, 10.000007, 9.943288 
1.9750002e+3, 2.1471378e+2, -878038.7, -921409.56, -0.022935286, 0.000001962772, -0.0001265193, -878038.7, -42233.625, 0.0, 10.000007, 9.942946 
1.9750002e+3, 2.2465041e+2, -789752.56, -843144.56, 0.0057511195, 0.0000019564525, 0.00012116654, -789752.56, -51326.523, 0.0, 10.000007, 9.929905 
1.9750002e+3, 2.3458037e+2, -691319.1, -744966.2, -0.020516293, 0.000001957266, -0.00008856072, -691319.1, -50206.79, 0.0, 10.000007, 9.929574 
1.9750002e+3, 2.445034e+2, -602995.1, -667018.56, 0.006906492, 0.0000019524387, 0.00007494384, -602995.1, -59128.4, 0.0, 10.000007, 9.916133 
1.9750002e+3, 2.5441965e+2, -504242.53, -568343.1, -0.02249651, 0.0000019408646, -0.00010651614, -504242.53, -57555.094, 0.0, 10.000007, 9.916033 
1.9750002e+3, 2.6432884e+2, -416007.16, -490987.72, 0.0050686686, 0.0000019339327, 0.00014079435, -416007.16, -66429.57, 0.0, 10.000006, 9.901961 
1.9750002e+3, 2.742313e+2, -316721.97, -391374.66, -0.018146971, 0.0000019329223, -0.00020327214, -316721.97, -64189.04, 0.0, 10.000006, 9.902382 
1.9750002e+3, 2.841256e+2, -230248.75, -318081.16, 0.009738901, 0.0000019306574, 0.00022919464, -230248.75, -74679.82, 0.0, 10.000006, 9.885436 
1.9750002e+3, 2.9401213e+2, -130542.66, -217764.97, -0.014866636, 0.0000019266465, -0.00025321046, -130542.66, -71861.28, 0.0, 10.000006, 9.886214 
1.9750002e+3, 3.0392656e+2, -40798.73, -84750.17, 0.010811081, 0.0000019233407, 0.00017324318, -40798.73, -40798.73, 0.0, 10.000006, 9.94217 
1.9750002e+3, 3.138706e+2, -39720.734, -82511.234, -0.013208347, 0.0000019211006, -0.00005507493, -39720.734, -39720.734, 0.0, 10.000006, 9.943681 
1.9850002e+3, 1.2499339e+2, -1719937.9, -1724224.0, 0.02437605, 0.0000021135452, 0.000018196592, -1719937.9, -4873.122, 0.0, 10.000007, 9.994324 
1.9850002e+3, 1.3498764e+2, -1622557.5, -1627434.3, -0.007353057, 0.0000020915522, -0.00006807169, -1622557.5, -5436.4126, 0.0, 10.000007, 9.993542 
1.9850002e+3, 1.4497519e+2, -1534456.1, -1548145.6, 0.020083072, 0.0000020761631, 0.00007153301, -1534456.1, -15212.909, 0.0, 10.000007, 9.981861 
1.9850002e+3, 1.5495707e+2, -1436728.5, -1450821.4, -0.011421629, 0.0000020669743, -0.000056529992, -1436728.5, -15307.792, 0.0, 10.000007, 9.98133 
1.9850002e+3, 1.6493231e+2, -1348677.6, -1371951.8, 0.01994244, 0.0000020580642, 0.00004772254, -1348677.6, -25014.299, 0.0, 10.000007, 9.969245 
1.9850002e+3, 1.7490159e+2, -1250719.6, -1274309.6, -0.010731043, 0.000002049439, -0.00007342399, -1250719.6, -24755.338, 0.0, 10.000007, 9.968831 
1.9850002e+3, 1.8486425e+2, -1162638.8, -1195719.5, 0.019327566, 0.0000020409366, 0.00006654478, -1162638.8, -34308.395, 0.0, 10.000007, 9.956392 
1.9850002e+3, 1.9482067e+2, -1064489.1, -1097832.5, -0.011304038, 0.000002032561, -0.000057298672, -1064489.1, -33731.777, 0.0, 10.000007, 9.956049 
1.9850002e+3, 2.0477045e+2, -976325.1, -1019434.5, 0.016686957, 0.0000020232442, 0.00006840738, -976325.1, -43075.535, 0.0, 10.000007, 9.943287 
1.9850002e+3, 2.1471378e+2, -878038.2, -921409.44, -0.013407109, 0.0000020129069, -0.00012651195, -878038.2, -42233.168, 0.0, 10.000007, 9.942946 
1.9850002e+3, 2.2465041e+2, -789752.1, -843144.44, 0.015485873, 0.000002006579, 0.00012117294, -789752.1, -51326.07, 0.0, 10.000007, 9.929905 
1.9850002e+3, 2.3458037e+2, -691318.7, -744966.06, -0.014542157, 0.0000020047887, -0.00008855655, -691318.7, -50206.344, 0.0, 10.000007, 9.929573 
1.9850002e+3, 2.445034e+2, -602994.7, -667018.44, 0.0128828455, 0.000001999213, 0.000074948075, -602994.7, -59127.957, 0.0, 10.000007, 9.916133 
1.9850002e+3, 2.5441965e+2, -504242.06, -568343.0, -0.012626109, 0.0000019891097, -0.000106509106, -504242.06, -57554.65, 0.0, 10.000007, 9.916033 
1.9850002e+3, 2.6432884e+2, -416006.7, -490987.6, 0.016038934, 0.0000019828003, 0.00014080139, -416006.7, -66429.125, 0.0, 10.000007, 9.901961 
1.9850002e+3, 2.742313e+2, -316721.53, -391374.53, -0.013762784, 0.0000019813283, -0.00020326865, -316721.53, -64188.605, 0.0, 10.000007, 9.902382 
1.9850002e+3, 2.841256e+2, -230248.31, -318081.03, 0.011492975, 0.0000019787467, 0.00022919595, -230248.31, -74679.39, 0.0, 10.000007, 9.885436 
1.9850002e+3, 2.9401213e+2, -130542.23, -217764.84, -0.0133543415, 0.000001974622, -0.00025320944, -130542.23, -71860.85, 0.0, 10.000007, 9.886214 
1.9850002e+3, 3.0392656e+2, -40798.3, -84750.055, 0.013794449, 0.0000019709616, 0.00017324486, -40798.3, -40798.3, 0.0, 10.000007, 9.94217 
1.9850002e+3, 3.138706e+2, -39720.3, -82511.12, -0.009371603, 0.000001968008, -0.000055071192, -39720.3, -39720.3, 0.0, 10.000007, 9.943681 
1.9950002e+3, 1.249934e+2, -1719937.9, -1724224.1, 0.0067691985, 0.0000021728506, 0.000018215314, -1719937.9, -4873.2114, 0.0, 10.000007, 9.994324 
1.9950002e+3, 1.3498765e+2, -1622557.5, -1627434.4, -0.024963597, 0.0000021364424, -0.00006807634, -1622557.5, -5436.5005, 0.0, 10.000007, 9.993542 
1.9950002e+3, 1.4497519e+2, -1534456.1, -1548145.8, 0.005045354, 0.0000021189362, 0.00007155846, -1534456.1, -15212.995, 0.0, 10.000007, 9.981861 
1.9950002e+3, 1.5495707e+2, -1436728.6, -1450821.5, -0.02645547, 0.0000021199967, -0.00005651764, -1436728.6, -15307.877, 0.0, 10.000007, 9.98133 
1.9950002e+3, 1.6493231e+2, -1348677.6, -1371951.9, 0.0066441563, 0.0000021139297, 0.000047728394, -1348677.6, -25014.38, 0.0, 10.000007, 9.969245 
1.9950002e+3, 1.7490159e+2, -1250719.8, -1274309.8, -0.02402042, 0.0000021005853, -0.000073417876, -1250719.8, -24755.418, 0.0, 10.000007, 9.968831 
1.9950002e+3, 1.8486425e+2, -1162638.8, -1195719.6, 0.007419572, 0.000002089046, 0.000066552326, -1162638.8, -34308.473, 0.0, 10.000007, 9.956392 
1.9950002e+3, 1.9482067e+2, -1064489.1, -1097832.6, -0.023196228, 0.000002079393, -0.00005728845, -1064489.1, -33731.855, 0.0, 10.000007, 9.956049 
1.9950002e+3, 2.0477045e+2, -976325.2, -1019434.6, 0.0054917205, 0.0000020721386, 0.00006841697, -976325.2, -43075.61, 0.0, 10.000007, 9.943287 
1.9950002e+3, 2.1471378e+2, -878038.25, -921409.56, -0.024588162, 0.0000020674806, -0.0001265066, -878038.25, -42233.242, 0.0, 10.000007, 9.942946 
1.9950002e+3, 2.2465041e+2, -789752.2, -843144.56, 0.0065136137, 0.0000020602079, 0.00012117935, -789752.2, -51326.145, 0.0, 10.000007, 9.929905 
1.9950002e+3, 2.3458037e+2, -691318.75, -744966.2, -0.023442378, 0.0000020499726, -0.000088543144, -691318.75, -50206.414, 0.0, 10.000007, 9.929573 
1.9950002e+3, 2.445034e+2, -602994.75, -667018.56, 0.0053900597, 0.0000020431671, 0.00007496058, -602994.75, -59128.02, 0.0, 10.000007, 9.916133 
1.9950002e+3, 2.5441965e+2, -504242.13, -568343.1, -0.020051606, 0.0000020404598, -0.00010650693, -504242.13, -57554.71, 0.0, 10.000007, 9.916033 
1.9950002e+3, 2.6432884e+2, -416006.75, -490987.72, 0.009259212, 0.000002036272, 0.00014080075, -416006.75, -66429.195, 0.0, 10.000007, 9.901961 
1.9950002e+3, 2.742313e+2, -316721.6, -391374.66, -0.020499388, 0.0000020301889, -0.00020326249, -316721.6, -64188.676, 0.0, 10.000007, 9.902382 
1.9950002e+3, 2.841256e+2, -230248.36, -318081.16, 0.006802873, 0.0000020261623, 0.00022920566, -230248.36, -74679.45, 0.0, 10.000007, 9.885435 
1.9950002e+3, 2.9401213e+2, -130542.28, -217764.95, -0.0178604, 0.0000020249581, -0.00025320065, -130542.28, -71860.914, 0.0, 10.000007, 9.886214 
1.9950002e+3, 3.0392656e+2, -40798.36, -84750.17, 0.011082363, 0.0000020210016, 0.00017324911, -40798.36, -40798.36, 0.0, 10.000007, 9.942169 
1.9950002e+3, 3.138706e+2, -39720.36, -82511.23, -0.0118735, 0.0000020129373, -0.000055076795, -39720.36, -39720.36, 0.0, 10.000007, 9.943681 
2.0050003e+3, 1.249934e+2, -1719937.4, -1724224.0, 0.029055865, 0.0000022247266, 0.000018237912, -1719937.4, -4872.702, 0.0, 10.000008, 9.994324 
2.0050003e+3, 1.3498765e+2, -1622557.0, -1627434.3, -0.006262303, 0.000002189245, -0.000068080895, -1622557.0, -5435.9985, 0.0, 10.000008, 9.993542 
2.0050003e+3, 1.4497519e+2, -1534455.6, -1548145.6, 0.024260962, 0.0000021718984, 0.00007158364, -1534455.6, -15212.495, 0.0, 10.000008, 9.981861 
2.0050003e+3, 1.5495707e+2, -1436728.1, -1450821.4, -0.00925539, 0.000002172338, -0.000056505614, -1436728.1, -15307.379, 0.0, 10.000008, 9.98133 
2.0050003e+3, 1.6493231e+2, -1348677.1, -1371951.8, 0.022538198, 0.0000021658766, 0.00004773471, -1348677.1, -25013.887, 0.0, 10.000008, 9.969245 
2.0050003e+3, 1.7490159e+2, -1250719.3, -1274309.6, -0.01156624, 0.0000021523697, -0.00007340966, -1250719.3, -24754.928, 0.0, 10.000007, 9.968831 
2.0050003e+3, 1.8486425e+2, -1162638.3, -1195719.5, 0.018755818, 0.0000021402004, 0.000066561595, -1162638.3, -34307.984, 0.0, 10.000007, 9.956392 
2.0050003e+3, 1.9482067e+2, -1064488.6, -1097832.5, -0.01253275, 0.0000021294286, -0.00005727901, -1064488.6, -33731.38, 0.0, 10.000007, 9.956049 
2.0050003e+3, 2.0477045e+2, -976324.75, -1019434.5, 0.017569764, 0.0000021226394, 0.00006842521, -976324.75, -43075.133, 0.0, 10.000007, 9.943287 
2.0050003e+3, 2.1471378e+2, -878037.75, -921409.44, -0.013503775, 0.0000021201627, -0.00012650107, -878037.75, -42232.76, 0.0, 10.000007, 9.942946 
2.0050003e+3, 2.2465041e+2, -789751.7, -843144.44, 0.017586816, 0.0000021125725, 0.00012118517, -789751.7, -51325.668, 0.0, 10.000007, 9.929904 
2.0050003e+3, 2.3458037e+2, -691318.25, -744966.06, -0.012755084, 0.0000020991913, -0.000088533634, -691318.25, -50205.945, 0.0, 10.000007, 9.929573 
2.0050003e+3, 2.4450341e+2, -602994.25, -667018.4, 0.015616364, 0.000002091678, 0.00007496926, -602994.25, -59127.555, 0.0, 10.000007, 9.916133 
2.0050003e+3, 2.5441965e+2, -504241.66, -568342.94, -0.015073854, 0.0000020911787, -0.00010650447, -504241.66, -57554.246, 0.0, 10.000007, 9.916033 
2.0050003e+3, 2.6432884e+2, -416006.28, -490987.6, 0.013594161, 0.0000020877999, 0.00014080155, -416006.28, -66428.734, 0.0, 10.000007, 9.901961 
2.0050003e+3, 2.742313e+2, -316721.13, -391374.5, -0.013105803, 0.0000020807386, -0.00020325753, -316721.13, -64188.21, 0.0, 10.000007, 9.902382 
2.0050003e+3, 2.841256e+2, -230247.9, -318081.0, 0.016238866, 0.000002075946, 0.00022921275, -230247.9, -74678.99, 0.0, 10.000007, 9.885435 
2.0050003e+3, 2.9401213e+2, -130541.82, -217764.83, -0.01148427, 0.0000020742737, -0.0002531943, -130541.82, -71860.45, 0.0, 10.000007, 9.886214 
2.0050003e+3, 3.0392656e+2, -40797.906, -84750.05, 0.015069387, 0.0000020704724, 0.00017325308, -40797.906, -40797.906, 0.0, 10.000007, 9.942169 
2.0050003e+3, 3.138706e+2, -39719.91, -82511.11, -0.01248226, 0.0000020634861, -0.000055077602, -39719.91, -39719.91, 0.0, 10.000007, 9.943681 
2.0150003e+3, 1.249934e+2, -1719937.5, -1724224.1, 0.010137888, 0.0000022691738, 0.000018264389, -1719937.5, -4872.8013, 0.0, 10.000008, 9.994324 
2.0150003e+3, 1.3498765e+2, -1622557.1, -1627434.4, -0.025184123, 0.0000022499596, -0.00006808537, -1622557.1, -5436.0957, 0.0, 10.000008, 9.993541 
2.0150003e+3, 1.4497519e+2, -1534455.8, -1548145.8, 0.009246946, 0.0000022350487, 0.00007160855, -1534455.8, -15212.587, 0.0, 10.000008, 9.981861 
2.0150003e+3, 1.5495707e+2, -1436728.1, -1450821.5, -0.024263471, 0.0000022239983, -0.00005649392, -1436728.1, -15307.469, 0.0, 10.000008, 9.98133 
2.0150003e+3, 1.6493233e+2, -1348677.3, -1371951.9, 0.00848921, 0.0000022139059, 0.000047741483, -1348677.3, -25013.977, 0.0, 10.000008, 9.969245 
2.0150003e+3, 1.7490159e+2, -1250719.3, -1274309.8, -0.025610298, 0.000002204792, -0.000073399344, -1250719.3, -24755.016, 0.0, 10.000007, 9.968831 
2.0150003e+3, 1.8486425e+2, -1162638.4, -1195719.6, 0.0051693833, 0.0000021943997, 0.00006657259, -1162638.4, -34308.066, 0.0, 10.000007, 9.956392 
2.0150003e+3, 1.9482069e+2, -1064488.8, -1097832.6, -0.026114177, 0.000002182668, -0.00005727035, -1064488.8, -33731.457, 0.0, 10.000007, 9.956049 
2.0150003e+3, 2.0477045e+2, -976324.8, -1019434.6, 0.0077131307, 0.0000021747471, 0.000068432084, -976324.8, -43075.215, 0.0, 10.000007, 9.943287 
2.0150003e+3, 2.1471378e+2, -878037.9, -921409.56, -0.023283733, 0.0000021709532, -0.00012649536, -878037.9, -42232.84, 0.0, 10.000007, 9.942946 
2.0150003e+3, 2.2465041e+2, -789751.75, -843144.56, 0.006954473, 0.000002163673, 0.00012119042, -789751.75, -51325.742, 0.0, 10.000007, 9.929904 
2.0150003e+3, 2.3458037e+2, -691318.3, -744966.2, -0.023415556, 0.0000021524443, -0.00008852802, -691318.3, -50206.02, 0.0, 10.000007, 9.929573 
2.0150003e+3, 2.4450341e+2, -602994.3, -667018.56, 0.0078390315, 0.0000021447456, 0.00007497412, -602994.3, -59127.63, 0.0, 10.000007, 9.916133 
2.0150003e+3, 2.5441965e+2, -504241.72, -568343.1, -0.022712883, 0.0000021412664, -0.00010650173, -504241.72, -57554.32, 0.0, 10.000007, 9.916033 
2.0150003e+3, 2.6432884e+2, -416006.34, -490987.72, 0.0073355264, 0.0000021373842, 0.0001408038, -416006.34, -66428.805, 0.0, 10.000007, 9.901961 
2.0150003e+3, 2.742313e+2, -316721.2, -391374.63, -0.019272251, 0.000002132978, -0.00020325374, -316721.2, -64188.277, 0.0, 10.000007, 9.902382 
2.0150003e+3, 2.841256e+2, -230247.97, -318081.16, 0.011231887, 0.0000021280973, 0.00022921718, -230247.97, -74679.055, 0.0, 10.000007, 9.885435 
2.0150003e+3, 2.9401213e+2, -130541.88, -217764.95, -0.01638708, 0.0000021225687, -0.00025319037, -130541.88, -71860.516, 0.0, 10.000007, 9.886214 
2.0150003e+3, 3.0392656e+2, -40797.97, -84750.18, 0.011500985, 0.0000021193741, 0.0001732568, -40797.97, -40797.97, 0.0, 10.000007, 9.942169 
2.0150003e+3, 3.138706e+2, -39719.973, -82511.24, -0.015894258, 0.000002119654, -0.000055073615, -39719.973, -39719.973, 0.0, 10.000007, 9.943681 
2.0250003e+3, 1.249934e+2, -1719936.9, -1724223.9, 0.025092851, 0.0000023210112, 0.000018281182, -1719936.9, -4872.282, 0.0, 10.000008, 9.994324 
2.0250003e+3, 1.3498765e+2, -1622556.5, -1627434.3, -0.009151612, 0.0000023072691, -0.000068091336, -1622556.5, -5435.561, 0.0, 10.000008, 9.993541 
2.0250003e+3, 1.4497519e+2, -1534455.1, -1548145.5, 0.025071263, 0.0000022933043, 0.00007163565, -1534455.1, -15212.051, 0.0, 10.000008, 9.981861 
2.0250003e+3, 1.5495707e+2, -1436727.6, -1450821.3, -0.011254303, 0.0000022786369, -0.0000564841, -1436727.6, -15306.945, 0.0, 10.000008, 9.981329 
2.0250003e+3, 1.6493233e+2, -1348676.8, -1371951.8, 0.022427576, 0.000002266493, 0.000047745976, -1348676.8, -25013.459, 0.0, 10.000008, 9.969245 
2.0250003e+3, 1.749016e+2, -1250718.8, -1274309.6, -0.010244066, 0.0000022569263, -0.000073387964, -1250718.8, -24754.506, 0.0, 10.000008, 9.968831 
2.0250003e+3, 1.8486425e+2, -1162637.9, -1195719.5, 0.020958822, 0.0000022478253, 0.00006658501, -1162637.9, -34307.56, 0.0, 10.000008, 9.956391 
2.0250003e+3, 1.9482069e+2, -1064488.3, -1097832.4, -0.014223087, 0.0000022392094, -0.00005726302, -1064488.3, -33730.95, 0.0, 10.000008, 9.956049 
2.0250003e+3, 2.0477045e+2, -976324.25, -1019434.44, 0.018770609, 0.0000022303968, 0.000068438145, -976324.25, -43074.707, 0.0, 10.000008, 9.943287 
2.0250003e+3, 2.1471378e+2, -878037.3, -921409.4, -0.014214816, 0.0000022213708, -0.00012648643, -878037.3, -42232.344, 0.0, 10.000008, 9.942946 
2.0250003e+3, 2.2465041e+2, -789751.25, -843144.4, 0.015333846, 0.0000022134725, 0.00012119879, -789751.25, -51325.25, 0.0, 10.000008, 9.929904 
2.0250003e+3, 2.3458037e+2, -691317.8, -744966.0, -0.016162843, 0.0000022068496, -0.0000885241, -691317.8, -50205.523, 0.0, 10.000008, 9.929573 
2.0250003e+3, 2.4450341e+2, -602993.8, -667018.4, 0.01596491, 0.0000022003812, 0.0000749774, -602993.8, -59127.137, 0.0, 10.000008, 9.916133 
2.0250003e+3, 2.5441965e+2, -504241.22, -568342.94, -0.014897889, 0.0000021940943, -0.00010649452, -504241.22, -57553.836, 0.0, 10.000008, 9.916033 
2.0250003e+3, 2.6432884e+2, -416005.88, -490987.56, 0.015336735, 0.0000021887108, 0.0001408113, -416005.88, -66428.32, 0.0, 10.000008, 9.901961 
2.0250003e+3, 2.742313e+2, -316720.7, -391374.5, -0.015022941, 0.0000021844744, -0.00020325057, -316720.7, -64187.793, 0.0, 10.000008, 9.902381 
2.0250003e+3, 2.841256e+2, -230247.48, -318081.0, 0.013895562, 0.0000021799315, 0.00022921801, -230247.48, -74678.58, 0.0, 10.000008, 9.885435 
2.0250003e+3, 2.9401213e+2, -130541.4, -217764.81, -0.014393451, 0.0000021749618, -0.00025318915, -130541.4, -71860.04, 0.0, 10.000008, 9.886213 
2.0250003e+3, 3.0392656e+2, -40797.496, -84750.05, 0.015736107, 0.0000021720057, 0.00017325881, -40797.496, -40797.496, 0.0, 10.000008, 9.942169 
2.0250003e+3, 3.138706e+2, -39719.5, -82511.11, -0.008623272, 0.000002172046, -0.000055070297, -39719.5, -39719.5, 0.0, 10.000008, 9.943681 
2.0350002e+3, 1.24993406e+2, -1719937.0, -1724224.1, 0.010324242, 0.0000023802377, 0.000018288294, -1719937.0, -4872.3794, 0.0, 10.000008, 9.994324 
2.0350002e+3, 1.3498765e+2, -1622556.6, -1627434.4, -0.023923244, 0.0000023611738, -0.000068098794, -1622556.6, -5435.6563, 0.0, 10.000008, 9.993541 
2.0350002e+3, 1.4497519e+2, -1534455.3, -1548145.8, 0.007550508, 0.0000023466653, 0.00007166496, -1534455.3, -15212.15, 0.0, 10.000008, 9.981861 
2.0350002e+3, 1.5495707e+2, -1436727.8, -1450821.5, -0.02877948, 0.0000023362536, -0.00005647615, -1436727.8, -15307.042, 0.0, 10.000008, 9.981329 
2.0350002e+3, 1.6493233e+2, -1348676.8, -1371951.9, 0.007112744, 0.0000023236382, 0.000047748188, -1348676.8, -25013.547, 0.0, 10.000008, 9.969245 
2.0350002e+3, 1.749016e+2, -1250718.9, -1274309.8, -0.025547573, 0.0000023087732, -0.00007337552, -1250718.9, -24754.592, 0.0, 10.000008, 9.968831 
2.0350002e+3, 1.8486425e+2, -1162637.9, -1195719.6, 0.008269468, 0.0000023004768, 0.00006659885, -1162637.9, -34307.65, 0.0, 10.000008, 9.956391 
2.0350002e+3, 1.9482069e+2, -1064488.3, -1097832.6, -0.026882345, 0.0000022990523, -0.00005725701, -1064488.3, -33731.035, 0.0, 10.000008, 9.956049 
2.0350002e+3, 2.0477045e+2, -976324.4, -1019434.6, 0.0066282162, 0.0000022895883, 0.000068443405, -976324.4, -43074.79, 0.0, 10.000008, 9.943287 
2.0350002e+3, 2.1471378e+2, -878037.44, -921409.5, -0.026346793, 0.0000022714157, -0.00012647425, -878037.44, -42232.426, 0.0, 10.000008, 9.9429455 
2.0350002e+3, 2.2465041e+2, -789751.3, -843144.5, 0.005819266, 0.000002261971, 0.000121210294, -789751.3, -51325.33, 0.0, 10.000008, 9.929904 
2.0350002e+3, 2.3458037e+2, -691317.9, -744966.1, -0.025592083, 0.0000022624074, -0.00008852188, -691317.9, -50205.6, 0.0, 10.000008, 9.929573 
2.0350002e+3, 2.4450341e+2, -602993.9, -667018.5, 0.0069220476, 0.0000022585848, 0.0000749791, -602993.9, -59127.21, 0.0, 10.000008, 9.916133 
2.0350002e+3, 2.5441965e+2, -504241.3, -568343.06, -0.023922494, 0.0000022496629, -0.00010648286, -504241.3, -57553.91, 0.0, 10.000008, 9.916033 
2.0350002e+3, 2.6432884e+2, -416005.94, -490987.7, 0.009071628, 0.0000022417798, 0.00014082406, -416005.94, -66428.39, 0.0, 10.000008, 9.901961 
2.0350002e+3, 2.742313e+2, -316720.78, -391374.63, -0.02110334, 0.0000022352283, -0.00020324801, -316720.78, -64187.867, 0.0, 10.000008, 9.902381 
2.0350002e+3, 2.841256e+2, -230247.55, -318081.13, 0.008567583, 0.0000022314482, 0.00022921522, -230247.55, -74678.65, 0.0, 10.000008, 9.885435 
2.0350002e+3, 2.9401213e+2, -130541.47, -217764.95, -0.019653963, 0.0000022314525, -0.00025319064, -130541.47, -71860.11, 0.0, 10.000008, 9.886213 
2.0350002e+3, 3.0392656e+2, -40797.555, -84750.17, 0.012367228, 0.0000022283668, 0.0001732591, -40797.555, -40797.555, 0.0, 10.000008, 9.942169 
2.0350002e+3, 3.138706e+2, -39719.56, -82511.234, -0.011770586, 0.0000022206618, -0.00005506765, -39719.56, -39719.56, 0.0, 10.000008, 9.943681 
2.0450002e+3, 1.24993406e+2, -1719936.4, -1724223.9, 0.029684382, 0.0000024432043, 0.000018307832, -1719936.4, -4871.806, 0.0, 10.000009, 9.994323 
2.0450002e+3, 1.3498765e+2, -1622556.1, -1627434.1, -0.009818133, 0.0000024154535, -0.0000681072, -1622556.1, -5435.109, 0.0, 10.000008, 9.993541 
2.0450002e+3, 1.4497519e+2, -1534454.8, -1548145.5, 0.02112908, 0.0000023988691, 0.000071691866, -1534454.8, -15211.608, 0.0, 10.000008, 9.981861 
2.0450002e+3, 1.5495707e+2, -1436727.1, -1450821.3, -0.012166235, 0.0000023930236, -0.000056463392, -1436727.1, -15306.498, 0.0, 10.000008, 9.981329 
2.0450002e+3, 1.6493233e+2, -1348676.3, -1371951.6, 0.024127081, 0.0000023823525, 0.0000477549, -1348676.3, -25013.004, 0.0, 10.000008, 9.969245 
2.0450002e+3, 1.749016e+2, -1250718.3, -1274309.5, -0.0136132995, 0.0000023667544, -0.00007336658, -1250718.3, -24754.055, 0.0, 10.000008, 9.968831 
2.0450002e+3, 1.8486425e+2, -1162637.4, -1195719.5, 0.021017373, 0.0000023569949, 0.00006660864, -1162637.4, -34307.113, 0.0, 10.000008, 9.956391 
2.0450002e+3, 1.9482069e+2, -1064487.8, -1097832.4, -0.013231204, 0.000002353343, -0.000057247813, -1064487.8, -33730.504, 0.0, 10.000008, 9.956049 
2.0450002e+3, 2.0477045e+2, -976323.8, -1019434.44, 0.020037128, 0.000002343802, 0.000068452195, -976323.8, -43074.258, 0.0, 10.000008, 9.943287 
2.0450002e+3, 2.1471378e+2, -878036.9, -921409.4, -0.014485612, 0.000002327882, -0.00012646565, -878036.9, -42231.902, 0.0, 10.000008, 9.9429455 
2.0450002e+3, 2.2465041e+2, -789750.8, -843144.4, 0.018625244, 0.0000023189282, 0.00012121844, -789750.8, -51324.81, 0.0, 10.000008, 9.929904 
2.0450002e+3, 2.3458038e+2, -691317.4, -744966.0, -0.01502514, 0.0000023178607, -0.000088514455, -691317.4, -50205.086, 0.0, 10.000008, 9.929573 
2.0450002e+3, 2.4450341e+2, -602993.4, -667018.4, 0.016704127, 0.0000023132263, 0.00007498557, -602993.4, -59126.695, 0.0, 10.000008, 9.916132 
2.0450002e+3, 2.5441965e+2, -504240.78, -568342.94, -0.016074548, 0.0000023043222, -0.00010647762, -504240.78, -57553.39, 0.0, 10.000008, 9.916033 
2.0450002e+3, 2.6432884e+2, -416005.4, -490987.53, 0.016521655, 0.0000022965012, 0.00014082882, -416005.4, -66427.875, 0.0, 10.000008, 9.901961 
2.0450002e+3, 2.742313e+2, -316720.25, -391374.47, -0.014775744, 0.0000022900674, -0.00020324276, -316720.25, -64187.36, 0.0, 10.000008, 9.902381 
2.0450002e+3, 2.841256e+2, -230247.05, -318081.0, 0.01575275, 0.0000022865481, 0.00022922043, -230247.05, -74678.14, 0.0, 10.000008, 9.885435 
2.0450002e+3, 2.9401213e+2, -130540.96, -217764.8, -0.013323338, 0.0000022870092, -0.00025318624, -130540.96, -71859.61, 0.0, 10.000008, 9.886213 
2.0450002e+3, 3.0392656e+2, -40797.055, -84750.03, 0.01692807, 0.000002283377, 0.0001732618, -40797.055, -40797.055, 0.0, 10.000008, 9.942169 
2.0450002e+3, 3.138706e+2, -39719.063, -82511.09, -0.013385797, 0.000002273634, -0.000055067958, -39719.063, -39719.063, 0.0, 10.000008, 9.943681 
2.0550002e+3, 1.24993406e+2, -1719936.5, -1724224.0, 0.009485615, 0.0000025099102, 0.000018339797, -1719936.5, -4871.9165, 0.0, 10.000009, 9.994323 
2.0550002e+3, 1.3498765e+2, -1622556.1, -1627434.4, -0.03002102, 0.0000024701085, -0.00006811654, -1622556.1, -5435.217, 0.0, 10.000008, 9.993541 
2.0550002e+3, 1.4497519e+2, -1534454.8, -1548145.6, 0.0047388733, 0.0000024499159, 0.00007171638, -1534454.8, -15211.702, 0.0, 10.000008, 9.981861 
2.0550002e+3, 1.5495707e+2, -1436727.3, -1450821.4, -0.028550796, 0.0000024489475, -0.00005644582, -1436727.3, -15306.589, 0.0, 10.000008, 9.981329 
2.0550002e+3, 1.6493233e+2, -1348676.3, -1371951.9, 0.008137757, 0.000002442636, 0.000047766112, -1348676.3, -25013.104, 0.0, 10.000008, 9.969244 
2.0550002e+3, 1.749016e+2, -1250718.4, -1274309.8, -0.029600747, 0.0000024308697, -0.00007336112, -1250718.4, -24754.152, 0.0, 10.000008, 9.968831 
2.0550002e+3, 1.8486425e+2, -1162637.5, -1195719.6, 0.008274809, 0.000002417379, 0.0000666144, -1162637.5, -34307.203, 0.0, 10.000008, 9.956391 
2.0550002e+3, 1.9482069e+2, -1064487.8, -1097832.5, -0.0259365, 0.0000024020815, -0.00005723543, -1064487.8, -33730.59, 0.0, 10.000008, 9.956048 
2.0550002e+3, 2.0477046e+2, -976323.9, -1019434.56, 0.0067774234, 0.0000023930388, 0.00006846451, -976323.9, -43074.348, 0.0, 10.000008, 9.943287 
2.0550002e+3, 2.1471378e+2, -878036.94, -921409.5, -0.027757024, 0.000002390769, -0.00012646065, -878036.94, -42231.99, 0.0, 10.000008, 9.9429455 
2.0550002e+3, 2.2465041e+2, -789750.9, -843144.5, 0.008333896, 0.0000023843431, 0.00012122323, -789750.9, -51324.89, 0.0, 10.000008, 9.929904 
2.0550002e+3, 2.3458038e+2, -691317.44, -744966.1, -0.025219325, 0.0000023732096, -0.00008850183, -691317.44, -50205.168, 0.0, 10.000008, 9.929573 
2.0550002e+3, 2.4450341e+2, -602993.44, -667018.5, 0.008810345, 0.0000023643067, 0.0000749968, -602993.44, -59126.777, 0.0, 10.000008, 9.916132 
2.0550002e+3, 2.5441965e+2, -504240.84, -568343.06, -0.02385806, 0.000002358072, -0.000106478816, -504240.84, -57553.47, 0.0, 10.000008, 9.916033 
2.0550002e+3, 2.6432884e+2, -416005.47, -490987.7, 0.00839269, 0.0000023528753, 0.00014082559, -416005.47, -66427.95, 0.0, 10.000008, 9.901961 
2.0550002e+3, 2.742313e+2, -316720.3, -391374.63, -0.0229282, 0.000002348991, -0.00020323481, -316720.3, -64187.438, 0.0, 10.000008, 9.902381 
2.0550002e+3, 2.841256e+2, -230247.11, -318081.13, 0.010729671, 0.0000023452308, 0.00022923361, -230247.11, -74678.21, 0.0, 10.000008, 9.885435 
2.0550002e+3, 2.9401213e+2, -130541.03, -217764.94, -0.018064858, 0.0000023416321, -0.000253176, -130541.03, -71859.68, 0.0, 10.000008, 9.886213 
2.0550002e+3, 3.0392656e+2, -40797.13, -84750.18, 0.013339054, 0.000002337036, 0.00017326689, -40797.13, -40797.13, 0.0, 10.000008, 9.942169 
2.0550002e+3, 3.138706e+2, -39719.133, -82511.24, -0.016839828, 0.0000023309617, -0.00005507123, -39719.133, -39719.133, 0.0, 10.000008, 9.943681 
2.0650002e+3, 1.24993406e+2, -1719935.9, -1724223.9, 0.032808594, 0.0000025694073, 0.000018362627, -1719935.9, -4871.3267, 0.0, 10.000009, 9.994323 
2.0650002e+3, 1.3498765e+2, -1622555.6, -1627434.1, -0.007034668, 0.000002531106, -0.00006812011, -1622555.6, -5434.635, 0.0, 10.000009, 9.993541 
2.0650002e+3, 1.449752e+2, -1534454.1, -1548145.5, 0.028106881, 0.0000025105483, 0.000071748604, -1534454.1, -15211.121, 0.0, 10.000009, 9.98186 
2.0650002e+3, 1.5495707e+2, -1436726.6, -1450821.3, -0.011450361, 0.000002507327, -0.00005643516, -1436726.6, -15306.019, 0.0, 10.000009, 9.981329 
2.0650002e+3, 1.6493233e+2, -1348675.8, -1371951.6, 0.024138926, 0.0000025008628, 0.000047769663, -1348675.8, -25012.537, 0.0, 10.000009, 9.969244 
2.0650002e+3, 1.749016e+2, -1250717.8, -1274309.5, -0.013994275, 0.0000024910878, -0.00007334992, -1250717.8, -24753.58, 0.0, 10.000009, 9.96883 
2.0650002e+3, 1.8486425e+2, -1162636.9, -1195719.4, 0.022753302, 0.0000024771641, 0.00006662807, -1162636.9, -34306.633, 0.0, 10.000009, 9.956391 
2.0650002e+3, 1.9482069e+2, -1064487.3, -1097832.4, -0.014063614, 0.000002458897, -0.00005722472, -1064487.3, -33730.043, 0.0, 10.000009, 9.956048 
2.0650002e+3, 2.0477046e+2, -976323.3, -1019434.44, 0.019366955, 0.0000024498197, 0.00006847262, -976323.3, -43073.8, 0.0, 10.000009, 9.943287 
2.0650002e+3, 2.1471378e+2, -878036.4, -921409.3, -0.016629115, 0.0000024506944, -0.00012645476, -878036.4, -42231.438, 0.0, 10.000009, 9.9429455 
2.0650002e+3, 2.2465041e+2, -789750.3, -843144.3, 0.018839816, 0.0000024444173, 0.00012122894, -789750.3, -51324.34, 0.0, 10.000009, 9.929904 
2.0650002e+3, 2.3458038e+2, -691316.9, -744965.94, -0.017178869, 0.00000243004, -0.00008849398, -691316.9, -50204.62, 0.0, 10.000009, 9.929573 
2.0650002e+3, 2.4450341e+2, -602992.9, -667018.3, 0.01696407, 0.0000024199844, 0.00007500471, -602992.9, -59126.234, 0.0, 10.000008, 9.916132 
2.0650002e+3, 2.5441965e+2, -504240.3, -568342.94, -0.016270306, 0.0000024150975, -0.00010647333, -504240.3, -57552.938, 0.0, 10.000008, 9.916032 
2.0650002e+3, 2.6432884e+2, -416004.94, -490987.53, 0.016550595, 0.0000024108635, 0.00014082993, -416004.94, -66427.42, 0.0, 10.000008, 9.901961 
2.0650002e+3, 2.742313e+2, -316719.78, -391374.47, -0.015992789, 0.000002407446, -0.00020323, -316719.78, -64186.902, 0.0, 10.000008, 9.902381 
2.0650002e+3, 2.841256e+2, -230246.56, -318080.97, 0.017414184, 0.000002403124, 0.0002292382, -230246.56, -74677.68, 0.0, 10.000008, 9.885435 
2.0650002e+3, 2.9401213e+2, -130540.49, -217764.78, -0.014595355, 0.000002397558, -0.00025317262, -130540.49, -71859.15, 0.0, 10.000008, 9.886213 
2.0650002e+3, 3.0392656e+2, -40796.605, -84750.04, 0.01690676, 0.0000023927976, 0.00017326981, -40796.605, -40796.605, 0.0, 10.000008, 9.942169 
2.0650002e+3, 3.138706e+2, -39718.61, -82511.1, -0.012193733, 0.0000023892485, -0.000055067627, -39718.61, -39718.61, 0.0, 10.000008, 9.943681 
2.0750003e+3, 1.2499341e+2, -1719936.0, -1724224.0, 0.011241508, 0.0000026216967, 0.000018376333, -1719936.0, -4871.439, 0.0, 10.000009, 9.994323 
2.0750003e+3, 1.3498765e+2, -1622555.6, -1627434.4, -0.028606212, 0.0000025984457, -0.00006811791, -1622555.6, -5434.745, 0.0, 10.000009, 9.993541 
2.0750003e+3, 1.449752e+2, -1534454.3, -1548145.6, 0.009878852, 0.0000025807649, 0.000071788534, -1534454.3, -15211.2295, 0.0, 10.000009, 9.98186 
2.0750003e+3, 1.5495707e+2, -1436726.8, -1450821.4, -0.029673422, 0.0000025681622, -0.00005643141, -1436726.8, -15306.124, 0.0, 10.000009, 9.981329 
2.0750003e+3, 1.6493233e+2, -1348675.8, -1371951.8, 0.009917162, 0.0000025570332, 0.00004776555, -1348675.8, -25012.639, 0.0, 10.000009, 9.969244 
2.0750003e+3, 1.749016e+2, -1250717.9, -1274309.6, -0.02819514, 0.0000025474096, -0.00007333298, -1250717.9, -24753.68, 0.0, 10.000009, 9.96883 
2.0750003e+3, 1.8486425e+2, -1162637.0, -1195719.6, 0.0058685173, 0.0000025363508, 0.00006664965, -1162637.0, -34306.73, 0.0, 10.000009, 9.956391 
2.0750003e+3, 1.9482069e+2, -1064487.4, -1097832.5, -0.030979795, 0.0000025237885, -0.000057215686, -1064487.4, -33730.137, 0.0, 10.000009, 9.956048 
2.0750003e+3, 2.0477046e+2, -976323.4, -1019434.56, 0.008481673, 0.0000025141442, 0.00006847652, -976323.4, -43073.895, 0.0, 10.000009, 9.943287 
2.0750003e+3, 2.1471378e+2, -878036.44, -921409.5, -0.027390173, 0.000002507659, -0.00012644797, -878036.44, -42231.523, 0.0, 10.000009, 9.9429455 
2.0750003e+3, 2.2465041e+2, -789750.4, -843144.5, 0.007704675, 0.0000024991514, 0.00012123559, -789750.4, -51324.426, 0.0, 10.000009, 9.929904 
2.0750003e+3, 2.3458038e+2, -691317.0, -744966.1, -0.028326489, 0.000002488352, -0.00008849091, -691317.0, -50204.707, 0.0, 10.000009, 9.929573 
2.0750003e+3, 2.4450341e+2, -602992.94, -667018.5, 0.0069720475, 0.0000024802587, 0.00007500929, -602992.94, -59126.316, 0.0, 10.000008, 9.916132 
2.0750003e+3, 2.5441965e+2, -504240.38, -568343.06, -0.026207168, 0.0000024753983, -0.00010646116, -504240.38, -57553.02, 0.0, 10.000008, 9.916032 
2.0750003e+3, 2.6432884e+2, -416005.03, -490987.7, 0.009893597, 0.0000024704661, 0.00014084185, -416005.03, -66427.5, 0.0, 10.000008, 9.90196 
2.0750003e+3, 2.742313e+2, -316719.88, -391374.63, -0.022430284, 0.0000024654323, -0.00020322832, -316719.88, -64186.98, 0.0, 10.000008, 9.902381 
2.0750003e+3, 2.841256e+2, -230246.64, -318081.13, 0.011636338, 0.0000024602275, 0.00022923417, -230246.64, -74677.76, 0.0, 10.000008, 9.885435 
2.0750003e+3, 2.9401213e+2, -130540.57, -217764.94, -0.020314103, 0.000002454787, -0.0002531761, -130540.57, -71859.23, 0.0, 10.000008, 9.886213 
2.0750003e+3, 3.0392656e+2, -40796.676, -84750.19, 0.013740115, 0.0000024506612, 0.00017327057, -40796.676, -40796.676, 0.0, 10.000008, 9.942169 
2.0750003e+3, 3.138706e+2, -39718.68, -82511.25, -0.01506118, 0.000002448494, -0.000055057157, -39718.68, -39718.68, 0.0, 10.000008, 9.94368 
2.0850003e+3, 1.2499341e+2, -1719935.4, -1724223.8, 0.028336925, 0.0000026808113, 0.00001839656, -1719935.4, -4870.841, 0.0, 10.000009, 9.994323 
2.0850003e+3, 1.3498767e+2, -1622555.0, -1627434.1, -0.009845811, 0.0000026628638, -0.00006812594, -1622555.0, -5434.1313, 0.0, 10.000009, 9.993541 
2.0850003e+3, 1.449752e+2, -1534453.6, -1548145.4, 0.02881751, 0.0000026467528, 0.000071820104, -1534453.6, -15210.615, 0.0, 10.000009, 9.98186 
2.0850003e+3, 1.5495709e+2, -1436726.1, -1450821.1, -0.014025495, 0.0000026319533, -0.00005641901, -1436726.1, -15305.516, 0.0, 10.000009, 9.981329 
2.0850003e+3, 1.6493233e+2, -1348675.1, -1371951.6, 0.026410088, 0.0000026180778, 0.00004777113, -1348675.1, -25012.035, 0.0, 10.000009, 9.969244 
2.0850003e+3, 1.749016e+2, -1250717.3, -1274309.5, -0.011184271, 0.0000026051462, -0.0000733216, -1250717.3, -24753.098, 0.0, 10.000009, 9.96883 
2.0850003e+3, 1.8486425e+2, -1162636.4, -1195719.4, 0.022908622, 0.0000025954905, 0.00006666225, -1162636.4, -34306.152, 0.0, 10.000009, 9.956391 
2.0850003e+3, 1.9482069e+2, -1064486.8, -1097832.4, -0.017277967, 0.0000025892607, -0.000057206664, -1064486.8, -33729.543, 0.0, 10.000009, 9.956048 
2.0850003e+3, 2.0477046e+2, -976322.8, -1019434.4, 0.021790626, 0.0000025795114, 0.00006848464, -976322.8, -43073.3, 0.0, 10.000009, 9.943286 
2.0850003e+3, 2.1471378e+2, -878035.9, -921409.3, -0.016582718, 0.000002565949, -0.00012643785, -878035.9, -42230.95, 0.0, 10.000009, 9.9429455 
2.0850003e+3, 2.2465041e+2, -789749.8, -843144.3, 0.018579593, 0.0000025554937, 0.00012124536, -789749.8, -51323.86, 0.0, 10.000009, 9.929904 
2.0850003e+3, 2.3458038e+2, -691316.4, -744965.94, -0.017088238, 0.0000025485547, -0.00008848416, -691316.4, -50204.145, 0.0, 10.000009, 9.929572 
2.0850003e+3, 2.4450341e+2, -602992.4, -667018.3, 0.01859791, 0.0000025423983, 0.00007501499, -602992.4, -59125.754, 0.0, 10.000009, 9.916132 
2.0850003e+3, 2.5441965e+2, -504239.8, -568342.9, -0.017466586, 0.0000025371717, -0.00010645418, -504239.8, -57552.453, 0.0, 10.000009, 9.916032 
2.0850003e+3, 2.6432884e+2, -416004.44, -490987.5, 0.01826207, 0.0000025310947, 0.00014084826, -416004.44, -66426.94, 0.0, 10.000009, 9.90196 
2.0850003e+3, 2.742313e+2, -316719.28, -391374.44, -0.017162966, 0.0000025239315, -0.0002032248, -316719.28, -64186.42, 0.0, 10.000009, 9.902381 
2.0850003e+3, 2.841256e+2, -230246.08, -318080.97, 0.015891848, 0.0000025182942, 0.00022923668, -230246.08, -74677.2, 0.0, 10.000009, 9.885435 
2.0850003e+3, 2.9401213e+2, -130540.01, -217764.78, -0.016347134, 0.0000025147478, -0.00025317195, -130540.01, -71858.67, 0.0, 10.000009, 9.886213 
2.0850003e+3, 3.0392656e+2, -40796.125, -84750.03, 0.018547943, 0.0000025110753, 0.00017327456, -40796.125, -40796.125, 0.0, 10.000009, 9.942169 
2.0850003e+3, 3.138706e+2, -39718.137, -82511.1, -0.011422512, 0.0000025072002, -0.00005505603, -39718.137, -39718.137, 0.0, 10.000009, 9.94368 
2.0950003e+3, 1.2499341e+2, -1719935.5, -1724224.0, 0.010951739, 0.000002746751, 0.000018423316, -1719935.5, -4870.95, 0.0, 10.000009, 9.994323 
2.0950003e+3, 1.3498767e+2, -1622555.1, -1627434.3, -0.027234659, 0.0000027243607, -0.00006814421, -1622555.1, -5434.239, 0.0, 10.000009, 9.993541 
2.0950003e+3, 1.449752e+2, -1534453.8, -1548145.6, 0.009876313, 0.0000027085127, 0.000071843315, -1534453.8, -15210.732, 0.0, 10.000009, 9.98186 
2.0950003e+3, 1.5495709e+2, -1436726.1, -1450821.4, -0.032969162, 0.0000026987002, -0.000056397956, -1436726.1, -15305.63, 0.0, 10.000009, 9.981329 
2.0950003e+3, 1.6493233e+2, -1348675.3, -1371951.8, 0.007828873, 0.0000026839962, 0.000047786405, -1348675.3, -25012.137, 0.0, 10.000009, 9.969244 
2.0950003e+3, 1.749016e+2, -1250717.4, -1274309.6, -0.029764052, 0.000002664298, -0.00007331578, -1250717.4, -24753.197, 0.0, 10.000009, 9.96883 
2.0950003e+3, 1.8486425e+2, -1162636.5, -1195719.5, 0.00966626, 0.0000026545836, 0.00006666587, -1162636.5, -34306.254, 0.0, 10.000009, 9.956391 
2.0950003e+3, 1.9482069e+2, -1064486.8, -1097832.5, -0.030458746, 0.0000026553137, -0.000057197652, -1064486.8, -33729.645, 0.0, 10.000009, 9.956048 
2.0950003e+3, 2.0477046e+2, -976322.9, -1019434.56, 0.0075972215, 0.0000026459215, 0.00006849698, -976322.9, -43073.4, 0.0, 10.000009, 9.943286 
2.0950003e+3, 2.1471378e+2, -878035.94, -921409.44, -0.030797336, 0.0000026255645, -0.0001264244, -878035.94, -42231.043, 0.0, 10.000009, 9.9429455 
2.0950003e+3, 2.2465041e+2, -789749.9, -843144.44, 0.0071686646, 0.0000026134437, 0.00012125825, -789749.9, -51323.95, 0.0, 10.000009, 9.929904 
2.0950003e+3, 2.3458038e+2, -691316.5, -744966.1, -0.028407834, 0.000002610648, -0.00008847371, -691316.5, -50204.23, 0.0, 10.000009, 9.929572 
2.0950003e+3, 2.4450341e+2, -602992.5, -667018.44, 0.009117746, 0.0000026064033, 0.00007502182, -602992.5, -59125.84, 0.0, 10.000009, 9.916132 
2.0950003e+3, 2.5441965e+2, -504239.88, -568343.06, -0.026858732, 0.000002600417, -0.00010645239, -504239.88, -57552.54, 0.0, 10.000009, 9.916032 
2.0950003e+3, 2.6432884e+2, -416004.53, -490987.66, 0.010952378, 0.0000025927493, 0.0001408492, -416004.53, -66427.02, 0.0, 10.000009, 9.90196 
2.0950003e+3, 2.742313e+2, -316719.38, -391374.6, -0.02433334, 0.0000025829438, -0.00020321945, -316719.38, -64186.508, 0.0, 10.000009, 9.902381 
2.0950003e+3, 2.841256e+2, -230246.16, -318081.13, 0.010076724, 0.0000025773243, 0.00022924578, -230246.16, -74677.28, 0.0, 10.000009, 9.885434 
2.0950003e+3, 2.9401213e+2, -130540.086, -217764.92, -0.022040555, 0.0000025774407, -0.00025316016, -130540.086, -71858.75, 0.0, 10.000009, 9.886213 
2.0950003e+3, 3.0392656e+2, -40796.2, -84750.18, 0.013736856, 0.0000025740396, 0.00017328176, -40796.2, -40796.2, 0.0, 10.000009, 9.942168 
2.0950003e+3, 3.138706e+2, -39718.207, -82511.25, -0.016130537, 0.0000025653674, -0.000055064236, -39718.207, -39718.207, 0.0, 10.000009, 9.94368 
2.1050003e+3, 1.2499342e+2, -1719934.8, -1724223.8, 0.03529461, 0.0000028177224, 0.000018448834, -1719934.8, -4870.2935, 0.0, 10.00001, 9.994323 
2.1050003e+3, 1.3498767e+2, -1622554.5, -1627434.0, -0.01248395, 0.0000027872009, -0.00006815596, -1622554.5, -5433.605, 0.0, 10.00001, 9.993541 
2.1050003e+3, 1.449752e+2, -1534453.1, -1548145.4, 0.023808436, 0.000002769118, 0.00007187304, -1534453.1, -15210.103, 0.0, 10.00001, 9.98186 
2.1050003e+3, 1.5495709e+2, -1436725.5, -1450821.1, -0.01297797, 0.0000027629922, -0.000056382043, -1436725.5, -15305.002, 0.0, 10.00001, 9.981329 
2.1050003e+3, 1.6493234e+2, -1348674.6, -1371951.5, 0.02787801, 0.0000027506028, 0.000047795667, -1348674.6, -25011.512, 0.0, 10.00001, 9.969244 
2.1050003e+3, 1.749016e+2, -1250716.8, -1274309.4, -0.016984427, 0.0000027318185, -0.000073305855, -1250716.8, -24752.572, 0.0, 10.00001, 9.96883 
2.1050003e+3, 1.8486427e+2, -1162635.9, -1195719.4, 0.023569958, 0.0000027200458, 0.000066675944, -1162635.9, -34305.633, 0.0, 10.00001, 9.956391 
2.1050003e+3, 1.9482069e+2, -1064486.1, -1097832.3, -0.015323446, 0.000002715607, -0.00005718795, -1064486.1, -33729.035, 0.0, 10.00001, 9.956048 
2.1050003e+3, 2.0477046e+2, -976322.25, -1019434.3, 0.022711525, 0.0000027057695, 0.00006850682, -976322.25, -43072.793, 0.0, 10.00001, 9.943286 
2.1050003e+3, 2.147138e+2, -878035.4, -921409.25, -0.016967252, 0.0000026900834, -0.00012641386, -878035.4, -42230.44, 0.0, 10.000009, 9.9429455 
2.1050003e+3, 2.2465041e+2, -789749.3, -843144.25, 0.021160223, 0.0000026797006, 0.00012126802, -789749.3, -51323.348, 0.0, 10.000009, 9.929903 
2.1050003e+3, 2.3458038e+2, -691315.9, -744965.94, -0.01795464, 0.0000026753212, -0.000088466375, -691315.9, -50203.633, 0.0, 10.000009, 9.929572 
2.1050003e+3, 2.4450341e+2, -602991.9, -667018.3, 0.018871156, 0.000002669361, 0.00007502752, -602991.9, -59125.246, 0.0, 10.000009, 9.916132 
2.1050003e+3, 2.5441965e+2, -504239.28, -568342.9, -0.019655123, 0.0000026615046, -0.00010644734, -504239.28, -57551.945, 0.0, 10.000009, 9.916032 
2.1050003e+3, 2.6432884e+2, -416003.94, -490987.5, 0.017948596, 0.000002653581, 0.0001408545, -416003.94, -66426.44, 0.0, 10.000009, 9.90196 
2.1050003e+3, 2.742313e+2, -316718.78, -391374.44, -0.016717438, 0.0000026455743, -0.00020321265, -316718.78, -64185.92, 0.0, 10.000009, 9.902381 
2.1050003e+3, 2.841256e+2, -230245.58, -318080.94, 0.019303368, 0.000002640709, 0.0002292528, -230245.58, -74676.7, 0.0, 10.000009, 9.885434 
2.1050003e+3, 2.9401213e+2, -130539.5, -217764.77, -0.014711267, 0.000002640141, -0.0002531546, -130539.5, -71858.17, 0.0, 10.000009, 9.886213 
2.1050003e+3, 3.0392656e+2, -40795.625, -84750.02, 0.019486574, 0.000002636337, 0.00017328499, -40795.625, -40795.625, 0.0, 10.000009, 9.942168 
2.1050003e+3, 3.138706e+2, -39717.63, -82511.086, -0.014986131, 0.0000026276934, -0.00005506459, -39717.63, -39717.63, 0.0, 10.000009, 9.94368 
2.1150002e+3, 1.2499342e+2, -1719934.9, -1724223.9, 0.0131423315, 0.0000028937252, 0.000018473127, -1719934.9, -4870.426, 0.0, 10.00001, 9.994323 
2.1150002e+3, 1.3498767e+2, -1622554.6, -1627434.3, -0.03464052, 0.0000028513841, -0.00006816119, -1622554.6, -5433.735, 0.0, 10.00001, 9.99354 
2.1150002e+3, 1.449752e+2, -1534453.1, -1548145.5, 0.005017418, 0.0000028285692, 0.00007190926, -1534453.1, -15210.207, 0.0, 10.00001, 9.98186 
2.1150002e+3, 1.5495709e+2, -1436725.6, -1450821.3, -0.031764284, 0.0000028248296, -0.00005637127, -1436725.6, -15305.104, 0.0, 10.00001, 9.981328 
2.1150002e+3, 1.6493234e+2, -1348674.8, -1371951.8, 0.009723023, 0.0000028178977, 0.000047798916, -1348674.8, -25011.63, 0.0, 10.00001, 9.969244 
2.1150002e+3, 1.749016e+2, -1250716.9, -1274309.6, -0.03513621, 0.000002807707, -0.00007329183, -1250716.9, -24752.69, 0.0, 10.00001, 9.96883 
2.1150002e+3, 1.8486427e+2, -1162635.9, -1195719.5, 0.008477304, 0.0000027918763, 0.00006669249, -1162635.9, -34305.734, 0.0, 10.00001, 9.956391 
2.1150002e+3, 1.9482069e+2, -1064486.3, -1097832.5, -0.03038115, 0.0000027701417, -0.000057177556, -1064486.3, -33729.133, 0.0, 10.00001, 9.956048 
2.1150002e+3, 2.0477046e+2, -976322.4, -1019434.5, 0.008474787, 0.0000027590568, 0.000068514164, -976322.4, -43072.895, 0.0, 10.00001, 9.943286 
2.1150002e+3, 2.147138e+2, -878035.44, -921409.44, -0.031187348, 0.0000027595052, -0.00012640622, -878035.44, -42230.54, 0.0, 10.000009, 9.9429455 
2.1150002e+3, 2.2465043e+2, -789749.4, -843144.44, 0.009075854, 0.000002754263, 0.00012127468, -789749.4, -51323.445, 0.0, 10.000009, 9.929903 
2.1150002e+3, 2.3458038e+2, -691315.94, -744966.06, -0.02996951, 0.0000027425745, -0.000088462155, -691315.94, -50203.727, 0.0, 10.000009, 9.929572 
2.1150002e+3, 2.4450341e+2, -602991.94, -667018.44, 0.009880551, 0.0000027312717, 0.000075032105, -602991.94, -59125.34, 0.0, 10.000009, 9.916132 
2.1150002e+3, 2.5441965e+2, -504239.38, -568343.06, -0.028500695, 0.000002720435, -0.000106439045, -504239.38, -57552.04, 0.0, 10.000009, 9.916032 
2.1150002e+3, 2.6432884e+2, -416004.0, -490987.66, 0.009019077, 0.0000027135904, 0.00014086423, -416004.0, -66426.52, 0.0, 10.000009, 9.90196 
2.1150002e+3, 2.7423134e+2, -316718.88, -391374.6, -0.025653047, 0.0000027118226, -0.00020320446, -316718.88, -64186.008, 0.0, 10.000009, 9.902381 
2.1150002e+3, 2.841256e+2, -230245.66, -318081.1, 0.013237138, 0.0000027084482, 0.00022925773, -230245.66, -74676.79, 0.0, 10.000009, 9.885434 
2.1150002e+3, 2.9401213e+2, -130539.58, -217764.92, -0.020519415, 0.000002702849, -0.0002531553, -130539.58, -71858.25, 0.0, 10.000009, 9.886213 
2.1150002e+3, 3.0392656e+2, -40795.707, -84750.195, 0.016276848, 0.000002697968, 0.00017328424, -40795.707, -40795.707, 0.0, 10.000009, 9.942168 
2.1150002e+3, 3.138706e+2, -39717.71, -82511.26, -0.017891154, 0.000002694178, -0.00005505709, -39717.71, -39717.71, 0.0, 10.000009, 9.94368 
2.1250005e+3, 1.2499342e+2, -1719934.3, -1724223.8, 0.035176676, 0.000002962312, 0.000018494264, -1719934.3, -4869.743, 0.0, 10.00001, 9.994323 
2.1250002e+3, 1.3498767e+2, -1622553.9, -1627434.0, -0.008110439, 0.0000029205282, -0.0000681654, -1622553.9, -5433.0645, 0.0, 10.00001, 9.99354 
2.1250002e+3, 1.449752e+2, -1534452.5, -1548145.3, 0.03208425, 0.0000028970455, 0.00007194836, -1534452.5, -15209.54, 0.0, 10.00001, 9.98186 
2.1250002e+3, 1.5495709e+2, -1436724.9, -1450821.0, -0.01504668, 0.0000028913933, -0.00005636206, -1436724.9, -15304.449, 0.0, 10.00001, 9.981328 
2.1250002e+3, 1.6493234e+2, -1348674.0, -1371951.5, 0.025905585, 0.0000028842899, 0.000047799775, -1348674.0, -25010.98, 0.0, 10.00001, 9.969244 
2.1250002e+3, 1.7490162e+2, -1250716.1, -1274309.4, -0.0155585, 0.0000028757056, -0.00007327731, -1250716.1, -24752.031, 0.0, 10.00001, 9.96883 
2.1250002e+3, 1.8486427e+2, -1162635.3, -1195719.3, 0.027199568, 0.000002859837, 0.000066710956, -1162635.3, -34305.082, 0.0, 10.00001, 9.95639 
2.1250002e+3, 1.948207e+2, -1064485.6, -1097832.3, -0.017149411, 0.0000028363434, -0.000057165264, -1064485.6, -33728.496, 0.0, 10.00001, 9.956048 
2.1250002e+3, 2.0477046e+2, -976321.7, -1019434.3, 0.021395342, 0.0000028249397, 0.00006852217, -976321.7, -43072.26, 0.0, 10.00001, 9.943286 
2.1250002e+3, 2.147138e+2, -878034.8, -921409.25, -0.019733435, 0.0000028266286, -0.00012640045, -878034.8, -42229.906, 0.0, 10.00001, 9.942945 
2.1250002e+3, 2.2465043e+2, -789748.75, -843144.25, 0.020496415, 0.0000028211387, 0.000121280544, -789748.75, -51322.81, 0.0, 10.00001, 9.929903 
2.1250002e+3, 2.3458038e+2, -691315.3, -744965.9, -0.020682143, 0.0000028075171, -0.00008845354, -691315.3, -50203.098, 0.0, 10.00001, 9.929572 
2.1250002e+3, 2.4450341e+2, -602991.3, -667018.25, 0.019805882, 0.0000027956246, 0.00007504191, -602991.3, -59124.715, 0.0, 10.00001, 9.916132 
2.1250002e+3, 2.5441965e+2, -504238.75, -568342.9, -0.018084358, 0.000002785804, -0.0001064299, -504238.75, -57551.426, 0.0, 10.00001, 9.916032 
2.1250002e+3, 2.6432884e+2, -416003.4, -490987.47, 0.01978742, 0.0000027795993, 0.0001408716, -416003.4, -66425.91, 0.0, 10.00001, 9.90196 
2.1250002e+3, 2.7423134e+2, -316718.25, -391374.4, -0.018763136, 0.000002777988, -0.00020320025, -316718.25, -64185.395, 0.0, 10.00001, 9.90238 
2.1250002e+3, 2.841256e+2, -230245.03, -318080.9, 0.018682452, 0.0000027742478, 0.00022925959, -230245.03, -74676.17, 0.0, 10.00001, 9.885434 
2.1250002e+3, 2.9401213e+2, -130538.97, -217764.75, -0.01813282, 0.0000027675708, -0.00025315466, -130538.97, -71857.64, 0.0, 10.00001, 9.886212 
2.1250002e+3, 3.0392656e+2, -40795.1, -84750.02, 0.019472899, 0.0000027622225, 0.00017328598, -40795.1, -40795.1, 0.0, 10.00001, 9.942168 
2.1250002e+3, 3.138706e+2, -39717.11, -82511.09, -0.013026185, 0.0000027588783, -0.000055050787, -39717.11, -39717.11, 0.0, 10.00001, 9.94368 
2.1350005e+3, 1.2499342e+2, -1719934.3, -1724223.9, 0.01080426, 0.0000030234844, 0.000018512255, -1719934.3, -4869.8667, 0.0, 10.00001, 9.994322 
2.1350005e+3, 1.3498767e+2, -1622554.0, -1627434.3, -0.032488044, 0.0000029946327, -0.000068168585, -1622554.0, -5433.1855, 0.0, 10.00001, 9.99354 
2.1350005e+3, 1.4497522e+2, -1534452.6, -1548145.5, 0.0109896995, 0.0000029745456, 0.000071990326, -1534452.6, -15209.669, 0.0, 10.00001, 9.98186 
2.1350005e+3, 1.5495709e+2, -1436725.0, -1450821.3, -0.036136314, 0.0000029626826, -0.000056354413, -1436725.0, -15304.575, 0.0, 10.00001, 9.981328 
2.1350005e+3, 1.6493234e+2, -1348674.1, -1371951.6, 0.010086823, 0.0000029497796, 0.00004779825, -1348674.1, -25011.092, 0.0, 10.00001, 9.969244 
2.1350005e+3, 1.7490162e+2, -1250716.3, -1274309.6, -0.031349927, 0.0000029358155, -0.00007326232, -1250716.3, -24752.14, 0.0, 10.00001, 9.96883 
2.1350002e+3, 1.8486427e+2, -1162635.4, -1195719.5, 0.008361214, 0.000002923928, 0.00006673136, -1162635.4, -34305.195, 0.0, 10.00001, 9.95639 
2.1350002e+3, 1.948207e+2, -1064485.8, -1097832.4, -0.03602328, 0.0000029142109, -0.00005715107, -1064485.8, -33728.61, 0.0, 10.00001, 9.956048 
2.1350002e+3, 2.0477046e+2, -976321.8, -1019434.5, 0.008122574, 0.0000029034168, 0.00006853083, -976321.8, -43072.367, 0.0, 10.00001, 9.943286 
2.1350002e+3, 2.147138e+2, -878034.9, -921409.44, -0.03289097, 0.0000028914542, -0.00012639657, -878034.9, -42230.008, 0.0, 10.00001, 9.942945 
2.1350002e+3, 2.2465043e+2, -789748.8, -843144.44, 0.008692913, 0.0000028803288, 0.00012128561, -789748.8, -51322.914, 0.0, 10.00001, 9.929903 
2.1350002e+3, 2.3458038e+2, -691315.4, -744966.06, -0.032441672, 0.0000028701493, -0.000088440545, -691315.4, -50203.195, 0.0, 10.00001, 9.929572 
2.1350002e+3, 2.4450341e+2, -602991.4, -667018.44, 0.008197884, 0.0000028624193, 0.000075056945, -602991.4, -59124.81, 0.0, 10.00001, 9.916132 
2.1350002e+3, 2.5441965e+2, -504238.84, -568343.0, -0.029685525, 0.0000028576112, -0.000106419895, -504238.84, -57551.516, 0.0, 10.00001, 9.916032 
2.1350002e+3, 2.6432884e+2, -416003.47, -490987.63, 0.011906844, 0.000002851607, 0.00014087665, -416003.47, -66426.0, 0.0, 10.00001, 9.90196 
2.1350002e+3, 2.7423134e+2, -316718.34, -391374.6, -0.026394693, 0.0000028440704, -0.00020320003, -316718.34, -64185.49, 0.0, 10.00001, 9.90238 
2.1350002e+3, 2.841256e+2, -230245.11, -318081.1, 0.012582544, 0.0000028381085, 0.00022925835, -230245.11, -74676.266, 0.0, 10.00001, 9.885434 
2.1350002e+3, 2.9401213e+2, -130539.05, -217764.92, -0.024095101, 0.0000028343063, -0.0002531527, -130539.05, -71857.73, 0.0, 10.00001, 9.886212 
2.1350002e+3, 3.0392656e+2, -40795.18, -84750.19, 0.015428979, 0.0000028291001, 0.0001732902, -40795.18, -40795.18, 0.0, 10.00001, 9.942168 
2.1350002e+3, 3.138706e+2, -39717.188, -82511.26, -0.016845476, 0.000002821795, -0.000055045675, -39717.188, -39717.188, 0.0, 10.00001, 9.94368 
2.1450005e+3, 1.2499343e+2, -1719933.6, -1724223.6, 0.035306834, 0.0000030910207, 0.00001853956, -1719933.6, -4869.1743, 0.0, 10.0000105, 9.994322 
2.1450005e+3, 1.3498767e+2, -1622553.3, -1627434.0, -0.011369394, 0.0000030677365, -0.0000681805, -1622553.3, -5432.4805, 0.0, 10.0000105, 9.99354 
2.1450005e+3, 1.4497522e+2, -1534451.9, -1548145.3, 0.031897575, 0.0000030493015, 0.00007202496, -1534451.9, -15208.964, 0.0, 10.0000105, 9.98186 
2.1450005e+3, 1.5495709e+2, -1436724.4, -1450821.0, -0.015350486, 0.0000030351391, -0.0000563373, -1436724.4, -15303.873, 0.0, 10.0000105, 9.981328 
2.1450005e+3, 1.6493234e+2, -1348673.4, -1371951.5, 0.031268157, 0.0000030191843, 0.000047807196, -1348673.4, -25010.395, 0.0, 10.0000105, 9.969243 
2.1450005e+3, 1.7490162e+2, -1250715.5, -1274309.4, -0.014879485, 0.0000030014003, -0.000073251984, -1250715.5, -24751.469, 0.0, 10.0000105, 9.96883 
2.1450005e+3, 1.8486427e+2, -1162634.6, -1195719.3, 0.024179513, 0.0000029910962, 0.00006674248, -1162634.6, -34304.527, 0.0, 10.0000105, 9.95639 
2.1450005e+3, 1.948207e+2, -1064485.0, -1097832.3, -0.019586619, 0.0000029886164, -0.000057139827, -1064485.0, -33727.93, 0.0, 10.0000105, 9.956047 
2.1450005e+3, 2.0477046e+2, -976321.1, -1019434.25, 0.02559119, 0.0000029780801, 0.00006854217, -976321.1, -43071.688, 0.0, 10.0000105, 9.943286 
2.1450005e+3, 2.147138e+2, -878034.2, -921409.2, -0.019164206, 0.000002958817, -0.00012638519, -878034.2, -42229.34, 0.0, 10.0000105, 9.942945 
2.1450005e+3, 2.2465043e+2, -789748.1, -843144.2, 0.022146024, 0.0000029450287, 0.00012129639, -789748.1, -51322.254, 0.0, 10.00001, 9.929903 
2.1450005e+3, 2.3458038e+2, -691314.75, -744965.9, -0.01948203, 0.0000029374387, -0.000088431116, -691314.75, -50202.547, 0.0, 10.00001, 9.929572 
2.1450002e+3, 2.4450341e+2, -602990.75, -667018.25, 0.020699361, 0.000002931766, 0.00007506446, -602990.75, -59124.16, 0.0, 10.00001, 9.916131 
2.1450002e+3, 2.5441965e+2, -504238.16, -568342.8, -0.02082428, 0.0000029283744, -0.000106414955, -504238.16, -57550.863, 0.0, 10.00001, 9.916032 
2.1450002e+3, 2.6432884e+2, -416002.8, -490987.44, 0.020564023, 0.0000029218918, 0.00014088063, -416002.8, -66425.35, 0.0, 10.00001, 9.90196 
2.1450002e+3, 2.7423134e+2, -316717.7, -391374.4, -0.01993797, 0.0000029114672, -0.00020319496, -316717.7, -64184.84, 0.0, 10.00001, 9.90238 
2.1450002e+3, 2.841256e+2, -230244.47, -318080.9, 0.019085223, 0.0000029043836, 0.00022926487, -230244.47, -74675.62, 0.0, 10.00001, 9.885434 
2.1450002e+3, 2.9401213e+2, -130538.41, -217764.73, -0.017729037, 0.0000029018875, -0.00025314433, -130538.41, -71857.09, 0.0, 10.00001, 9.886212 
2.1450002e+3, 3.0392656e+2, -40794.547, -84750.016, 0.021203345, 0.0000028971288, 0.00017329666, -40794.547, -40794.547, 0.0, 10.00001, 9.942168 
2.1450002e+3, 3.138706e+2, -39716.563, -82511.086, -0.015715137, 0.0000028889742, -0.000055046785, -39716.563, -39716.563, 0.0, 10.00001, 9.94368 
2.1550004e+3, 1.2499343e+2, -1719933.6, -1724223.9, 0.014532601, 0.0000031649206, 0.00001857619, -1719933.6, -4869.307, 0.0, 10.0000105, 9.994322 
2.1550004e+3, 1.3498768e+2, -1622553.4, -1627434.1, -0.032147814, 0.00000313984, -0.00006820115, -1622553.4, -5432.6104, 0.0, 10.0000105, 9.99354 
2.1550004e+3, 1.4497522e+2, -1534452.0, -1548145.5, 0.010743709, 0.0000031213137, 0.00007205225, -1534452.0, -15209.093, 0.0, 10.0000105, 9.981859 
2.1550004e+3, 1.5495709e+2, -1436724.4, -1450821.3, -0.036505148, 0.0000031087625, -0.00005631072, -1436724.4, -15304.0, 0.0, 10.0000105, 9.981328 
2.1550004e+3, 1.6493234e+2, -1348673.5, -1371951.6, 0.010239224, 0.0000030925034, 0.000047826616, -1348673.5, -25010.518, 0.0, 10.0000105, 9.969243 
2.1550004e+3, 1.7490162e+2, -1250715.6, -1274309.5, -0.035908155, 0.0000030724593, -0.00007324629, -1250715.6, -24751.59, 0.0, 10.0000105, 9.968829 
2.1550004e+3, 1.8486427e+2, -1162634.8, -1195719.5, 0.008978989, 0.000003061341, 0.00006674432, -1162634.8, -34304.645, 0.0, 10.0000105, 9.95639 
2.1550004e+3, 1.948207e+2, -1064485.1, -1097832.4, -0.034720108, 0.0000030595604, -0.00005713153, -1064485.1, -33728.043, 0.0, 10.0000105, 9.956047 
2.1550004e+3, 2.0477046e+2, -976321.2, -1019434.44, 0.009766094, 0.0000030489311, 0.000068556175, -976321.2, -43071.8, 0.0, 10.0000105, 9.943286 
2.1550004e+3, 2.147138e+2, -878034.3, -921409.4, -0.035003908, 0.0000030287167, -0.0001263663, -878034.3, -42229.453, 0.0, 10.0000105, 9.942945 
2.1550004e+3, 2.2465043e+2, -789748.25, -843144.4, 0.008820633, 0.000003015238, 0.00012131288, -789748.25, -51322.36, 0.0, 10.00001, 9.929903 
2.1550004e+3, 2.3458038e+2, -691314.8, -744966.06, -0.032725617, 0.0000030093847, -0.00008842526, -691314.8, -50202.65, 0.0, 10.00001, 9.929572 
2.1550004e+3, 2.4450341e+2, -602990.8, -667018.44, 0.010238917, 0.000003003665, 0.00007506446, -602990.8, -59124.26, 0.0, 10.00001, 9.916131 
2.1550004e+3, 2.5441965e+2, -504238.25, -568343.0, -0.031151421, 0.000002998094, -0.000106415086, -504238.25, -57550.965, 0.0, 10.00001, 9.916031 
2.1550004e+3, 2.6432884e+2, -416002.9, -490987.63, 0.012271449, 0.0000029904543, 0.00014088354, -416002.9, -66425.45, 0.0, 10.00001, 9.90196 
2.1550004e+3, 2.7423134e+2, -316717.78, -391374.56, -0.0280945, 0.0000029801786, -0.000203185, -316717.78, -64184.938, 0.0, 10.00001, 9.90238 
2.1550004e+3, 2.841256e+2, -230244.55, -318081.1, 0.012387374, 0.0000029730727, 0.00022927913, -230244.55, -74675.71, 0.0, 10.00001, 9.885434 
2.1550004e+3, 2.9401213e+2, -130538.49, -217764.9, -0.024295965, 0.0000029703142, -0.00025312952, -130538.49, -71857.18, 0.0, 10.00001, 9.886212 
2.1550004e+3, 3.0392656e+2, -40794.633, -84750.195, 0.016020635, 0.0000029663083, 0.00017330537, -40794.633, -40794.633, 0.0, 10.00001, 9.942168 
2.1550004e+3, 3.138706e+2, -39716.65, -82511.266, -0.020735776, 0.000002960415, -0.000055054108, -39716.65, -39716.65, 0.0, 10.00001, 9.94368 
2.1650004e+3, 1.2499343e+2, -1719932.9, -1724223.6, 0.03838286, 0.0000032449084, 0.000018603776, -1719932.9, -4868.5557, 0.0, 10.000011, 9.994322 
2.1650004e+3, 1.3498768e+2, -1622552.6, -1627433.9, -0.013866977, 0.0000032119478, -0.00006821273, -1622552.6, -5431.8784, 0.0, 10.0000105, 9.99354 
2.1650004e+3, 1.4497522e+2, -1534451.3, -1548145.3, 0.028807346, 0.0000031910631, 0.00007208967, -1534451.3, -15208.365, 0.0, 10.0000105, 9.981859 
2.1650004e+3, 1.549571e+2, -1436723.6, -1450821.0, -0.016340047, 0.0000031816942, -0.000056294513, -1436723.6, -15303.275, 0.0, 10.0000105, 9.981328 
2.1650004e+3, 1.6493234e+2, -1348672.8, -1371951.4, 0.030500095, 0.0000031681384, 0.000047834557, -1348672.8, -25009.799, 0.0, 10.0000105, 9.969243 
2.1650004e+3, 1.7490162e+2, -1250714.9, -1274309.3, -0.018534375, 0.0000031503084, -0.00007323338, -1250714.9, -24750.871, 0.0, 10.0000105, 9.968829 
2.1650004e+3, 1.8486427e+2, -1162634.0, -1195719.3, 0.027893595, 0.0000031366187, 0.0000667579, -1162634.0, -34303.926, 0.0, 10.0000105, 9.95639 
2.1650004e+3, 1.948207e+2, -1064484.4, -1097832.1, -0.01899817, 0.0000031272587, -0.00005712176, -1064484.4, -33727.34, 0.0, 10.0000105, 9.956047 
2.1650004e+3, 2.0477048e+2, -976320.5, -1019434.25, 0.024300044, 0.0000031158218, 0.00006856573, -976320.5, -43071.1, 0.0, 10.0000105, 9.943286 
2.1650004e+3, 2.147138e+2, -878033.56, -921409.2, -0.020895189, 0.0000031021339, -0.00012635306, -878033.56, -42228.758, 0.0, 10.0000105, 9.942945 
2.1650004e+3, 2.2465043e+2, -789747.5, -843144.2, 0.02325104, 0.0000030914207, 0.000121325174, -789747.5, -51321.664, 0.0, 10.0000105, 9.929903 
2.1650004e+3, 2.3458038e+2, -691314.1, -744965.8, -0.02165188, 0.0000030840731, -0.00008841914, -691314.1, -50201.957, 0.0, 10.0000105, 9.929572 
2.1650004e+3, 2.4450341e+2, -602990.1, -667018.2, 0.021297608, 0.000003075953, 0.000075068594, -602990.1, -59123.574, 0.0, 10.0000105, 9.916131 
2.1650004e+3, 2.5441965e+2, -504237.56, -568342.8, -0.02262662, 0.0000030669046, -0.00010640794, -504237.56, -57550.28, 0.0, 10.0000105, 9.916031 
2.1650004e+3, 2.6432884e+2, -416002.22, -490987.44, 0.020748217, 0.0000030585622, 0.00014089207, -416002.22, -66424.77, 0.0, 10.0000105, 9.901959 
2.1650004e+3, 2.7423134e+2, -316717.1, -391374.38, -0.01949889, 0.0000030511178, -0.00020317719, -316717.1, -64184.266, 0.0, 10.0000105, 9.90238 
2.1650004e+3, 2.8412563e+2, -230243.88, -318080.88, 0.021725986, 0.0000030452752, 0.00022928571, -230243.88, -74675.04, 0.0, 10.0000105, 9.885434 
2.1650004e+3, 2.9401213e+2, -130537.82, -217764.72, -0.018105438, 0.0000030416174, -0.00025312486, -130537.82, -71856.516, 0.0, 10.0000105, 9.886212 
2.1650004e+3, 3.0392656e+2, -40793.973, -84750.016, 0.022083266, 0.0000030373612, 0.00017330822, -40793.973, -40793.973, 0.0, 10.0000105, 9.942168 
2.1650004e+3, 3.138706e+2, -39715.98, -82511.086, -0.015016739, 0.0000030322005, -0.000055052846, -39715.98, -39715.98, 0.0, 10.0000105, 9.943679 
2.1750005e+3, 1.24993436e+2, -1719933.0, -1724223.8, 0.013753894, 0.0000033309834, 0.000018622333, -1719933.0, -4868.702, 0.0, 10.000011, 9.994322 
2.1750005e+3, 1.3498768e+2, -1622552.8, -1627434.1, -0.03850076, 0.0000032840603, -0.00006821523, -1622552.8, -5432.0225, 0.0, 10.0000105, 9.99354 
2.1750005e+3, 1.4497522e+2, -1534451.4, -1548145.4, 0.0074364305, 0.00000325855, 0.00007213721, -1534451.4, -15208.491, 0.0, 10.0000105, 9.981859 
2.1750005e+3, 1.549571e+2, -1436723.8, -1450821.1, -0.03770639, 0.0000032539342, -0.000056288678, -1436723.8, -15303.399, 0.0, 10.0000105, 9.981328 
2.1750005e+3, 1.6493234e+2, -1348672.9, -1371951.6, 0.009738082, 0.000003246089, 0.000047831025, -1348672.9, -25009.93, 0.0, 10.0000105, 9.969243 
2.1750005e+3, 1.7490162e+2, -1250715.0, -1274309.5, -0.039293516, 0.0000032349471, -0.000073213254, -1250715.0, -24751.0, 0.0, 10.0000105, 9.968829 
2.1750005e+3, 1.8486427e+2, -1162634.1, -1195719.4, 0.010334921, 0.0000032169287, 0.000066783236, -1162634.1, -34304.05, 0.0, 10.0000105, 9.95639 
2.1750005e+3, 1.948207e+2, -1064484.5, -1097832.4, -0.03652026, 0.0000031917118, -0.00005711052, -1064484.5, -33727.457, 0.0, 10.0000105, 9.956047 
2.1750005e+3, 2.0477048e+2, -976320.56, -1019434.44, 0.008736181, 0.0000031787529, 0.00006857083, -976320.56, -43071.22, 0.0, 10.0000105, 9.943285 
2.1750005e+3, 2.147138e+2, -878033.7, -921409.4, -0.03641903, 0.000003179068, -0.00012634548, -878033.7, -42228.87, 0.0, 10.0000105, 9.942945 
2.1750005e+3, 2.2465043e+2, -789747.6, -843144.4, 0.009381859, 0.0000031735758, 0.00012133329, -789747.6, -51321.777, 0.0, 10.0000105, 9.929903 
2.1750005e+3, 2.3458038e+2, -691314.25, -744966.0, -0.035467364, 0.0000031615036, -0.000088412744, -691314.25, -50202.07, 0.0, 10.0000105, 9.929571 
2.1750005e+3, 2.4450342e+2, -602990.25, -667018.4, 0.010717892, 0.0000031486306, 0.00007507685, -602990.25, -59123.684, 0.0, 10.0000105, 9.916131 
2.1750005e+3, 2.5441965e+2, -504237.66, -568343.0, -0.03305124, 0.0000031348065, -0.00010639352, -504237.66, -57550.387, 0.0, 10.0000105, 9.916031 
2.1750005e+3, 2.6432884e+2, -416002.3, -490987.6, 0.011068654, 0.0000031262157, 0.00014090621, -416002.3, -66424.875, 0.0, 10.0000105, 9.901959 
2.1750005e+3, 2.7423134e+2, -316717.2, -391374.56, -0.029129023, 0.0000031242846, -0.00020317151, -316717.2, -64184.363, 0.0, 10.0000105, 9.90238 
2.1750005e+3, 2.8412563e+2, -230243.97, -318081.06, 0.01477859, 0.0000031209904, 0.0002292846, -230243.97, -74675.14, 0.0, 10.0000105, 9.885434 
2.1750005e+3, 2.9401213e+2, -130537.914, -217764.9, -0.024811598, 0.000003115797, -0.0002531304, -130537.914, -71856.61, 0.0, 10.0000105, 9.886212 
2.1750005e+3, 3.0392656e+2, -40794.063, -84750.195, 0.018462285, 0.0000031102875, 0.0001733052, -40794.063, -40794.063, 0.0, 10.0000105, 9.942168 
2.1750005e+3, 3.138706e+2, -39716.07, -82511.266, -0.018276067, 0.0000031043303, -0.000055042994, -39716.07, -39716.07, 0.0, 10.0000105, 9.943679 
2.1850005e+3, 1.24993436e+2, -1719932.3, -1724223.5, 0.03983928, 0.0000034087016, 0.000018646051, -1719932.3, -4867.919, 0.0, 10.000011, 9.994322 
2.1850005e+3, 1.3498768e+2, -1622551.9, -1627433.9, -0.011510695, 0.0000033621254, -0.000068222354, -1622551.9, -5431.2505, 0.0, 10.000011, 9.993539 
2.1850005e+3, 1.4497522e+2, -1534450.5, -1548145.1, 0.034522858, 0.0000033364358, 0.0000721813, -1534450.5, -15207.725, 0.0, 10.000011, 9.981859 
2.1850005e+3, 1.549571e+2, -1436723.0, -1450820.9, -0.017299492, 0.000003331098, -0.00005627869, -1436723.0, -15302.646, 0.0, 10.000011, 9.981328 
2.1850005e+3, 1.6493236e+2, -1348672.1, -1371951.4, 0.029977333, 0.0000033225717, 0.00004783173, -1348672.1, -25009.182, 0.0, 10.000011, 9.969243 
2.1850005e+3, 1.7490162e+2, -1250714.3, -1274309.3, -0.019050095, 0.000003310792, -0.00007319648, -1250714.3, -24750.246, 0.0, 10.000011, 9.968829 
2.1850005e+3, 1.8486428e+2, -1162633.4, -1195719.1, 0.029789232, 0.0000032928015, 0.00006680476, -1162633.4, -34303.297, 0.0, 10.000011, 9.95639 
2.1850005e+3, 1.948207e+2, -1064483.8, -1097832.1, -0.020406956, 0.0000032683095, -0.000057096087, -1064483.8, -33726.72, 0.0, 10.000011, 9.956047 
2.1850005e+3, 2.0477048e+2, -976319.8, -1019434.2, 0.025092347, 0.000003255323, 0.0000685798, -976319.8, -43070.484, 0.0, 10.000011, 9.943285 
2.1850005e+3, 2.147138e+2, -878032.94, -921409.1, -0.022439541, 0.000003254796, -0.0001263402, -878032.94, -42228.14, 0.0, 10.000011, 9.942945 
2.1850005e+3, 2.2465043e+2, -789746.9, -843144.1, 0.023170205, 0.0000032484095, 0.00012133935, -789746.9, -51321.05, 0.0, 10.000011, 9.929903 
2.1850005e+3, 2.345804e+2, -691313.5, -744965.8, -0.02378101, 0.000003235384, -0.00008840082, -691313.5, -50201.344, 0.0, 10.000011, 9.929571 
2.1850005e+3, 2.4450342e+2, -602989.5, -667018.2, 0.0229039, 0.000003222461, 0.00007509056, -602989.5, -59122.965, 0.0, 10.000011, 9.916131 
2.1850005e+3, 2.5441965e+2, -504236.94, -568342.75, -0.021736525, 0.000003209665, -0.000106382926, -504236.94, -57549.68, 0.0, 10.0000105, 9.916031 
2.1850005e+3, 2.6432884e+2, -416001.6, -490987.4, 0.022168659, 0.000003201463, 0.00014091356, -416001.6, -66424.164, 0.0, 10.0000105, 9.901959 
2.1850005e+3, 2.7423134e+2, -316716.47, -391374.34, -0.021736355, 0.0000031991037, -0.00020316755, -316716.47, -64183.66, 0.0, 10.0000105, 9.90238 
2.1850005e+3, 2.8412563e+2, -230243.27, -318080.88, 0.021512197, 0.0000031955124, 0.00022928619, -230243.27, -74674.44, 0.0, 10.0000105, 9.885433 
2.1850005e+3, 2.9401213e+2, -130537.2, -217764.7, -0.020107685, 0.0000031902055, -0.00025312978, -130537.2, -71855.91, 0.0, 10.0000105, 9.886212 
2.1850005e+3, 3.0392656e+2, -40793.367, -84750.01, 0.02315162, 0.0000031840614, 0.00017330717, -40793.367, -40793.367, 0.0, 10.0000105, 9.942167 
2.1850005e+3, 3.138706e+2, -39715.38, -82511.08, -0.015833661, 0.0000031766958, -0.00005503631, -39715.38, -39715.38, 0.0, 10.0000105, 9.943679 
2.1950005e+3, 1.2499344e+2, -1719932.4, -1724223.8, 0.013228332, 0.0000034780642, 0.000018674942, -1719932.4, -4868.0645, 0.0, 10.000011, 9.994322 
2.1950005e+3, 1.3498768e+2, -1622552.0, -1627434.1, -0.038127165, 0.000003446142, -0.000068234076, -1622552.0, -5431.3936, 0.0, 10.000011, 9.993539 
2.1950005e+3, 1.4497522e+2, -1534450.6, -1548145.4, 0.010351035, 0.0000034247196, 0.00007222193, -1534450.6, -15207.867, 0.0, 10.000011, 9.981859 
2.1950005e+3, 1.549571e+2, -1436723.1, -1450821.1, -0.041467868, 0.0000034131845, -0.00005626455, -1436723.1, -15302.786, 0.0, 10.000011, 9.981327 
2.1950005e+3, 1.6493236e+2, -1348672.3, -1371951.5, 0.011449185, 0.0000033975875, 0.000047836675, -1348672.3, -25009.313, 0.0, 10.000011, 9.969243 
2.1950005e+3, 1.7490162e+2, -1250714.4, -1274309.5, -0.037549075, 0.0000033778447, -0.00007318306, -1250714.4, -24750.375, 0.0, 10.000011, 9.968829 
2.1950005e+3, 1.8486428e+2, -1162633.5, -1195719.4, 0.009603925, 0.000003364238, 0.000066822475, -1162633.5, -34303.43, 0.0, 10.000011, 9.956389 
2.1950005e+3, 1.948207e+2, -1064483.9, -1097832.4, -0.04061207, 0.0000033570495, -0.000057078465, -1064483.9, -33726.848, 0.0, 10.000011, 9.956047 
2.1950005e+3, 2.0477048e+2, -976319.94, -1019434.4, 0.009074074, 0.00000334553, 0.000068592635, -976319.94, -43070.605, 0.0, 10.000011, 9.943285 
2.1950005e+3, 2.147138e+2, -878033.06, -921409.3, -0.03837188, 0.0000033293184, -0.00012633724, -878033.06, -42228.26, 0.0, 10.000011, 9.942945 
2.1950005e+3, 2.2465043e+2, -789747.0, -843144.3, 0.009680253, 0.0000033159229, 0.000121343364, -789747.0, -51321.168, 0.0, 10.000011, 9.929902 
2.1950005e+3, 2.345804e+2, -691313.56, -744966.0, -0.037191514, 0.0000033057154, -0.00008838336, -691313.56, -50201.46, 0.0, 10.000011, 9.929571 
2.1950005e+3, 2.4450342e+2, -602989.6, -667018.4, 0.010373017, 0.000003297444, 0.0000751097, -602989.6, -59123.074, 0.0, 10.000011, 9.916131 
2.1950005e+3, 2.5441965e+2, -504237.03, -568342.94, -0.034225598, 0.0000032914797, -0.00010637615, -504237.03, -57549.785, 0.0, 10.0000105, 9.916031 
2.1950005e+3, 2.6432884e+2, -416001.7, -490987.6, 0.012839783, 0.000003284303, 0.00014091413, -416001.7, -66424.27, 0.0, 10.0000105, 9.901959 
2.1950005e+3, 2.7423134e+2, -316716.56, -391374.56, -0.0308539, 0.000003275575, -0.00020316531, -316716.56, -64183.766, 0.0, 10.0000105, 9.90238 
2.1950005e+3, 2.8412563e+2, -230243.36, -318081.06, 0.014631804, 0.0000032688417, 0.00022929047, -230243.36, -74674.54, 0.0, 10.0000105, 9.885433 
2.1950005e+3, 2.9401213e+2, -130537.3, -217764.89, -0.026786976, 0.000003264843, -0.000253123, -130537.3, -71856.01, 0.0, 10.0000105, 9.886212 
2.1950005e+3, 3.0392656e+2, -40793.46, -84750.2, 0.018305384, 0.0000032586834, 0.00017331408, -40793.46, -40793.46, 0.0, 10.0000105, 9.942167 
2.1950005e+3, 3.138706e+2, -39715.473, -82511.27, -0.02046532, 0.0000032492967, -0.0000550328, -39715.473, -39715.473, 0.0, 10.0000105, 9.943679 
2.2050005e+3, 1.2499344e+2, -1719931.5, -1724223.5, 0.04216123, 0.000003556255, 0.000018707933, -1719931.5, -4867.259, 0.0, 10.000012, 9.994321 
2.2050005e+3, 1.3498768e+2, -1622551.3, -1627433.8, -0.012380598, 0.0000035296002, -0.00006824995, -1622551.3, -5430.5864, 0.0, 10.000012, 9.993539 
2.2050005e+3, 1.4497523e+2, -1534449.9, -1548145.0, 0.035825703, 0.000003509084, 0.000072260795, -1534449.9, -15207.06, 0.0, 10.000012, 9.981859 
2.2050005e+3, 1.549571e+2, -1436722.3, -1450820.9, -0.017871788, 0.0000034940513, -0.000056243895, -1436722.3, -15301.98, 0.0, 10.000012, 9.981327 
2.2050005e+3, 1.6493236e+2, -1348671.4, -1371951.3, 0.035047185, 0.0000034756529, 0.000047848087, -1348671.4, -25008.514, 0.0, 10.000011, 9.969243 
2.2050005e+3, 1.7490163e+2, -1250713.5, -1274309.3, -0.019040568, 0.000003453819, -0.000073171715, -1250713.5, -24749.596, 0.0, 10.000011, 9.968829 
2.2050005e+3, 1.8486428e+2, -1162632.6, -1195719.1, 0.027138375, 0.0000034420086, 0.00006683412, -1162632.6, -34302.656, 0.0, 10.000011, 9.956389 
2.2050005e+3, 1.948207e+2, -1064483.0, -1097832.1, -0.022248583, 0.000003440684, -0.000057066118, -1064483.0, -33726.07, 0.0, 10.000011, 9.956047 
2.2050005e+3, 2.0477048e+2, -976319.1, -1019434.1, 0.028726732, 0.0000034292104, 0.000068605674, -976319.1, -43069.832, 0.0, 10.000011, 9.943285 
2.2050005e+3, 2.147138e+2, -878032.25, -921409.06, -0.022722516, 0.0000034067432, -0.0001263235, -878032.25, -42227.496, 0.0, 10.000011, 9.942944 
2.2050005e+3, 2.2465043e+2, -789746.2, -843144.1, 0.024964338, 0.0000033906229, 0.00012135594, -789746.2, -51320.406, 0.0, 10.000011, 9.929902 
2.2050005e+3, 2.345804e+2, -691312.8, -744965.75, -0.02388629, 0.0000033816887, -0.00008837407, -691312.8, -50200.707, 0.0, 10.000011, 9.929571 
2.2050005e+3, 2.4450342e+2, -602988.8, -667018.1, 0.022961777, 0.000003375238, 0.000075116404, -602988.8, -59122.324, 0.0, 10.000011, 9.916131 
2.2050005e+3, 2.5441965e+2, -504236.28, -568342.75, -0.02376843, 0.000003371744, -0.00010637122, -504236.28, -57549.04, 0.0, 10.000011, 9.916031 
2.2050005e+3, 2.6432884e+2, -416000.94, -490987.38, 0.023682108, 0.000003364682, 0.00014091912, -416000.94, -66423.53, 0.0, 10.000011, 9.901959 
2.2050005e+3, 2.7423134e+2, -316715.8, -391374.34, -0.023222849, 0.0000033530696, -0.000203158, -316715.8, -64183.023, 0.0, 10.000011, 9.902379 
2.2050005e+3, 2.8412563e+2, -230242.61, -318080.84, 0.021877777, 0.000003344711, 0.0002292996, -230242.61, -74673.8, 0.0, 10.000011, 9.885433 
2.2050005e+3, 2.9401213e+2, -130536.56, -217764.69, -0.020676874, 0.000003340824, -0.00025311278, -130536.56, -71855.27, 0.0, 10.000011, 9.886211 
2.2050005e+3, 3.0392656e+2, -40792.73, -84750.0, 0.023785606, 0.0000033350998, 0.00017332155, -40792.73, -40792.73, 0.0, 10.000011, 9.942167 
2.2050005e+3, 3.138706e+2, -39714.746, -82511.07, -0.018722689, 0.000003326614, -0.00005503371, -39714.746, -39714.746, 0.0, 10.000011, 9.943679 
2.2150005e+3, 1.2499344e+2, -1719931.6, -1724223.6, 0.016505495, 0.0000036432723, 0.00001874504, -1719931.6, -4867.413, 0.0, 10.000012, 9.994321 
2.2150005e+3, 1.349877e+2, -1622551.4, -1627434.0, -0.038041364, 0.0000036125007, -0.00006826997, -1622551.4, -5430.7383, 0.0, 10.000012, 9.993539 
2.2150005e+3, 1.4497523e+2, -1534450.0, -1548145.3, 0.012021682, 0.0000035895298, 0.0000722979, -1534450.0, -15207.208, 0.0, 10.000012, 9.981859 
2.2150005e+3, 1.549571e+2, -1436722.4, -1450821.1, -0.041673318, 0.0000035736985, -0.000056216726, -1436722.4, -15302.126, 0.0, 10.000012, 9.981327 
2.2150005e+3, 1.6493236e+2, -1348671.5, -1371951.5, 0.012346646, 0.000003556767, 0.000047865968, -1348671.5, -25008.658, 0.0, 10.000011, 9.969242 
2.2150005e+3, 1.7490163e+2, -1250713.6, -1274309.5, -0.04173562, 0.0000035387138, -0.00007316245, -1250713.6, -24749.738, 0.0, 10.000011, 9.968829 
2.2150005e+3, 1.8486428e+2, -1162632.8, -1195719.4, 0.008429732, 0.0000035261128, 0.00006683971, -1162632.8, -34302.785, 0.0, 10.000011, 9.956389 
2.2150005e+3, 1.9482073e+2, -1064483.1, -1097832.3, -0.040911756, 0.0000035192138, -0.000057059046, -1064483.1, -33726.2, 0.0, 10.000011, 9.956046 
2.2150005e+3, 2.0477048e+2, -976319.25, -1019434.4, 0.011312094, 0.0000035063651, 0.00006861893, -976319.25, -43069.965, 0.0, 10.000011, 9.943285 
2.2150005e+3, 2.1471381e+2, -878032.4, -921409.3, -0.040111765, 0.0000034870707, -0.00012629897, -878032.4, -42227.625, 0.0, 10.000011, 9.942944 
2.2150005e+3, 2.2465043e+2, -789746.3, -843144.3, 0.0104973195, 0.0000034725085, 0.00012137707, -789746.3, -51320.53, 0.0, 10.000011, 9.929902 
2.2150005e+3, 2.345804e+2, -691312.94, -744965.94, -0.038258173, 0.0000034633033, -0.000088372944, -691312.94, -50200.824, 0.0, 10.000011, 9.929571 
2.2150005e+3, 2.4450342e+2, -602988.94, -667018.3, 0.010387338, 0.0000034558427, 0.00007511066, -602988.94, -59122.438, 0.0, 10.000011, 9.91613 
2.2150005e+3, 2.5441965e+2, -504236.38, -568342.94, -0.036257084, 0.0000034504583, -0.00010636812, -504236.38, -57549.152, 0.0, 10.000011, 9.916031 
2.2150005e+3, 2.6432884e+2, -416001.06, -490987.6, 0.014144022, 0.0000034426005, 0.0001409285, -416001.06, -66423.65, 0.0, 10.000011, 9.901959 
2.2150005e+3, 2.7423134e+2, -316715.9, -391374.53, -0.032563526, 0.0000034315879, -0.00020314558, -316715.9, -64183.137, 0.0, 10.000011, 9.902379 
2.2150005e+3, 2.8412563e+2, -230242.7, -318081.03, 0.014491405, 0.0000034231207, 0.00022931359, -230242.7, -74673.91, 0.0, 10.000011, 9.885433 
2.2150005e+3, 2.9401213e+2, -130536.66, -217764.88, -0.027887767, 0.0000034181485, -0.00025309916, -130536.66, -71855.375, 0.0, 10.000011, 9.886211 
2.2150005e+3, 3.0392656e+2, -40792.832, -84750.21, 0.018514633, 0.0000034133109, 0.00017332956, -40792.832, -40792.832, 0.0, 10.000011, 9.942167 
2.2150005e+3, 3.138706e+2, -39714.848, -82511.28, -0.023766363, 0.0000034086468, -0.00005503904, -39714.848, -39714.848, 0.0, 10.000011, 9.943679 
2.2250006e+3, 1.2499345e+2, -1719930.8, -1724223.4, 0.041450948, 0.0000037338343, 0.000018774399, -1719930.8, -4866.5615, 0.0, 10.000012, 9.994321 
2.2250006e+3, 1.349877e+2, -1622550.5, -1627433.8, -0.015331072, 0.000003694676, -0.00006828189, -1622550.5, -5429.893, 0.0, 10.000012, 9.993539 
2.2250006e+3, 1.4497523e+2, -1534449.1, -1548145.0, 0.034891956, 0.000003669109, 0.000072344075, -1534449.1, -15206.366, 0.0, 10.000012, 9.981858 
2.2250006e+3, 1.5495712e+2, -1436721.5, -1450820.8, -0.020532805, 0.0000036564902, -0.000056199522, -1436721.5, -15301.289, 0.0, 10.000012, 9.981327 
2.2250006e+3, 1.6493236e+2, -1348670.8, -1371951.3, 0.03362736, 0.0000036424726, 0.000047872545, -1348670.8, -25007.828, 0.0, 10.000012, 9.969242 
2.2250006e+3, 1.7490163e+2, -1250712.9, -1274309.1, -0.019771766, 0.000003627028, -0.000073147756, -1250712.9, -24748.916, 0.0, 10.000012, 9.968828 
2.2250006e+3, 1.8486428e+2, -1162631.9, -1195719.0, 0.03212013, 0.0000036117206, 0.00006685611, -1162631.9, -34301.97, 0.0, 10.000012, 9.956389 
2.2250006e+3, 1.9482073e+2, -1064482.4, -1097832.0, -0.023803914, 0.0000035965534, -0.000057047644, -1064482.4, -33725.387, 0.0, 10.000012, 9.956046 
2.2250006e+3, 2.0477048e+2, -976318.44, -1019434.06, 0.02619422, 0.0000035826781, 0.000068629895, -976318.44, -43069.156, 0.0, 10.000012, 9.943285 
2.2250006e+3, 2.1471381e+2, -878031.56, -921409.06, -0.025761416, 0.0000035702005, -0.0001262835, -878031.56, -42226.82, 0.0, 10.000012, 9.942944 
2.2250006e+3, 2.2465044e+2, -789745.5, -843144.06, 0.025859866, 0.0000035586968, 0.00012139141, -789745.5, -51319.73, 0.0, 10.000012, 9.929902 
2.2250006e+3, 2.345804e+2, -691312.1, -744965.7, -0.024662595, 0.0000035482924, -0.00008836611, -691312.1, -50200.04, 0.0, 10.000012, 9.929571 
2.2250006e+3, 2.4450342e+2, -602988.1, -667018.1, 0.024248172, 0.0000035383123, 0.0000751155, -602988.1, -59121.656, 0.0, 10.000012, 9.91613 
2.2250006e+3, 2.5441965e+2, -504235.6, -568342.7, -0.026617462, 0.0000035288351, -0.000106358675, -504235.6, -57548.367, 0.0, 10.000012, 9.916031 
2.2250006e+3, 2.6432884e+2, -416000.25, -490987.34, 0.02337662, 0.000003519953, 0.00014093918, -416000.25, -66422.86, 0.0, 10.000012, 9.901959 
2.2250006e+3, 2.7423134e+2, -316715.13, -391374.3, -0.023076173, 0.0000035118235, -0.00020313793, -316715.13, -64182.36, 0.0, 10.000012, 9.902379 
2.2250006e+3, 2.8412563e+2, -230241.92, -318080.8, 0.024686052, 0.0000035048863, 0.0002293191, -230241.92, -74673.13, 0.0, 10.000012, 9.885433 
2.2250006e+3, 2.9401213e+2, -130535.88, -217764.66, -0.021407636, 0.0000034995744, -0.00025309456, -130535.88, -71854.61, 0.0, 10.000012, 9.886211 
2.2250006e+3, 3.0392656e+2, -40792.074, -84750.0, 0.025269277, 0.0000034944837, 0.00017333303, -40792.074, -40792.074, 0.0, 10.000012, 9.942167 
2.2250006e+3, 3.138706e+2, -39714.086, -82511.07, -0.016316317, 0.0000034897128, -0.000055037057, -39714.086, -39714.086, 0.0, 10.000012, 9.943679 
2.2350004e+3, 1.2499345e+2, -1719930.9, -1724223.6, 0.0148746725, 0.000003827941, 0.000018796027, -1719930.9, -4866.722, 0.0, 10.000012, 9.994321 
2.2350004e+3, 1.349877e+2, -1622550.6, -1627434.0, -0.041912682, 0.000003776127, -0.00006828572, -1622550.6, -5430.0513, 0.0, 10.000012, 9.993539 
2.2350004e+3, 1.4497523e+2, -1534449.3, -1548145.3, 0.010527316, 0.0000037478221, 0.00007239931, -1534449.3, -15206.52, 0.0, 10.000012, 9.981858 
2.2350004e+3, 1.5495712e+2, -1436721.6, -1450821.0, -0.044894304, 0.0000037424263, -0.000056192286, -1436721.6, -15301.439, 0.0, 10.000012, 9.981327 
2.2350004e+3, 1.6493236e+2, -1348670.9, -1371951.5, 0.009316259, 0.0000037327684, 0.000047867823, -1348670.9, -25007.97, 0.0, 10.000012, 9.969242 
2.2350004e+3, 1.7490163e+2, -1250713.0, -1274309.4, -0.044083286, 0.000003718761, -0.00007312763, -1250713.0, -24749.059, 0.0, 10.000012, 9.968828 
2.2350004e+3, 1.8486428e+2, -1162632.0, -1195719.3, 0.012840155, 0.0000036988317, 0.00006688333, -1162632.0, -34302.113, 0.0, 10.000012, 9.956389 
2.2350004e+3, 1.9482073e+2, -1064482.5, -1097832.3, -0.043026026, 0.0000036727026, -0.00005703191, -1064482.5, -33725.53, 0.0, 10.000012, 9.956046 
2.2350004e+3, 2.0477048e+2, -976318.56, -1019434.3, 0.008546842, 0.0000036581496, 0.00006863857, -976318.56, -43069.29, 0.0, 10.000012, 9.943285 
2.2350004e+3, 2.1471381e+2, -878031.7, -921409.25, -0.043376796, 0.0000036561325, -0.0001262771, -878031.7, -42226.95, 0.0, 10.000012, 9.942944 
2.2350004e+3, 2.2465044e+2, -789745.6, -843144.25, 0.009500433, 0.0000036491867, 0.00012139896, -789745.6, -51319.86, 0.0, 10.000012, 9.929902 
2.2350004e+3, 2.345804e+2, -691312.25, -744965.94, -0.040981546, 0.0000036366555, -0.00008835356, -691312.25, -50200.16, 0.0, 10.000012, 9.929571 
2.2350004e+3, 2.4450342e+2, -602988.25, -667018.3, 0.012497087, 0.000003622646, 0.00007513093, -602988.25, -59121.78, 0.0, 10.000012, 9.91613 
2.2350004e+3, 2.5441968e+2, -504235.7, -568342.94, -0.038149502, 0.0000036068748, -0.0001063429, -504235.7, -57548.492, 0.0, 10.000012, 9.91603 
2.2350004e+3, 2.6432884e+2, -416000.38, -490987.56, 0.012760481, 0.0000035967394, 0.00014095116, -416000.38, -66422.98, 0.0, 10.000012, 9.901958 
2.2350004e+3, 2.7423134e+2, -316715.25, -391374.53, -0.03363151, 0.0000035937765, -0.00020313502, -316715.25, -64182.473, 0.0, 10.000012, 9.902379 
2.2350004e+3, 2.8412563e+2, -230242.03, -318081.03, 0.016602268, 0.0000035900082, 0.00022931615, -230242.03, -74673.25, 0.0, 10.000012, 9.885433 
2.2350004e+3, 2.9401213e+2, -130535.99, -217764.88, -0.029269248, 0.0000035851012, -0.00025309896, -130535.99, -71854.73, 0.0, 10.000012, 9.886211 
2.2350004e+3, 3.0392656e+2, -40792.17, -84750.21, 0.02065241, 0.0000035786184, 0.00017333195, -40792.17, -40792.17, 0.0, 10.000012, 9.942167 
2.2350004e+3, 3.138706e+2, -39714.184, -82511.28, -0.020553004, 0.000003569812, -0.000055027762, -39714.184, -39714.184, 0.0, 10.000012, 9.943678 
2.2450005e+3, 1.2499346e+2, -1719930.0, -1724223.3, 0.047080953, 0.0000039148713, 0.000018825156, -1719930.0, -4865.82, 0.0, 10.000013, 9.994321 
2.2450005e+3, 1.349877e+2, -1622549.6, -1627433.6, -0.01563173, 0.000003864413, -0.00006829628, -1622549.6, -5429.1655, 0.0, 10.000013, 9.993539 
2.2450005e+3, 1.4497523e+2, -1534448.3, -1548144.9, 0.03621807, 0.0000038369217, 0.00007244883, -1534448.3, -15205.64, 0.0, 10.000013, 9.981858 
2.2450005e+3, 1.5495712e+2, -1436720.8, -1450820.8, -0.019033996, 0.000003831777, -0.000056179695, -1436720.8, -15300.576, 0.0, 10.000013, 9.981327 
2.2450005e+3, 1.6493237e+2, -1348669.9, -1371951.1, 0.035339918, 0.0000038207104, 0.000047869842, -1348669.9, -25007.113, 0.0, 10.000013, 9.969242 
2.2450005e+3, 1.7490163e+2, -1250712.0, -1274309.1, -0.024207309, 0.0000038036, -0.00007310925, -1250712.0, -24748.191, 0.0, 10.000013, 9.968828 
2.2450005e+3, 1.8486428e+2, -1162631.1, -1195719.0, 0.031944897, 0.0000037834716, 0.00006690675, -1162631.1, -34301.25, 0.0, 10.000013, 9.956389 
2.2450005e+3, 1.9482073e+2, -1064481.6, -1097832.0, -0.023494419, 0.0000037601826, -0.000057015302, -1064481.6, -33724.68, 0.0, 10.000013, 9.956046 
2.2450005e+3, 2.0477048e+2, -976317.7, -1019434.06, 0.029674806, 0.0000037460234, 0.000068649155, -976317.7, -43068.445, 0.0, 10.000013, 9.943284 
2.2450005e+3, 2.1471381e+2, -878030.8, -921409.0, -0.025083741, 0.0000037417503, -0.00012627167, -878030.8, -42226.117, 0.0, 10.000013, 9.942944 
2.2450005e+3, 2.2465044e+2, -789744.75, -843144.0, 0.026514545, 0.0000037335853, 0.0001214054, -789744.75, -51319.027, 0.0, 10.000012, 9.929902 
2.2450005e+3, 2.345804e+2, -691311.4, -744965.7, -0.028172607, 0.0000037210089, -0.00008833911, -691311.4, -50199.33, 0.0, 10.000012, 9.92957 
2.2450005e+3, 2.4450342e+2, -602987.44, -667018.06, 0.025588324, 0.0000037072548, 0.00007514722, -602987.44, -59120.953, 0.0, 10.000012, 9.91613 
2.2450005e+3, 2.5441968e+2, -504234.88, -568342.7, -0.025811492, 0.0000036920962, -0.000106332154, -504234.88, -57547.67, 0.0, 10.000012, 9.91603 
2.2450005e+3, 2.6432884e+2, -415999.53, -490987.3, 0.025042193, 0.0000036819774, 0.00014095803, -415999.53, -66422.164, 0.0, 10.000012, 9.901958 
2.2450005e+3, 2.7423134e+2, -316714.4, -391374.28, -0.025118556, 0.0000036782724, -0.00020312992, -316714.4, -64181.664, 0.0, 10.000012, 9.902379 
2.2450005e+3, 2.8412563e+2, -230241.22, -318080.8, 0.024768058, 0.0000036742497, 0.00022931966, -230241.22, -74672.44, 0.0, 10.000012, 9.885433 
2.2450005e+3, 2.9401213e+2, -130535.18, -217764.64, -0.022363408, 0.0000036697593, -0.0002530968, -130535.18, -71853.92, 0.0, 10.000012, 9.886211 
2.2450005e+3, 3.0392656e+2, -40791.375, -84749.984, 0.027058579, 0.0000036627393, 0.00017333488, -40791.375, -40791.375, 0.0, 10.000012, 9.942166 
2.2450005e+3, 3.138706e+2, -39713.39, -82511.06, -0.019288335, 0.0000036519746, -0.000055020926, -39713.39, -39713.39, 0.0, 10.000012, 9.943678 
2.2550005e+3, 1.2499346e+2, -1719930.1, -1724223.6, 0.017469045, 0.0000039946276, 0.0000188618, -1719930.1, -4865.996, 0.0, 10.000013, 9.994321 
2.2550005e+3, 1.349877e+2, -1622549.8, -1627434.0, -0.045249313, 0.000003959533, -0.000068313566, -1622549.8, -5429.3384, 0.0, 10.000013, 9.993538 
2.2550005e+3, 1.4497524e+2, -1534448.4, -1548145.1, 0.008749577, 0.0000039364063, 0.00007249264, -1534448.4, -15205.794, 0.0, 10.000013, 9.981858 
2.2550005e+3, 1.5495712e+2, -1436720.9, -1450821.0, -0.046499956, 0.000003924542, -0.00005616175, -1436720.9, -15300.727, 0.0, 10.000013, 9.981327 
2.2550005e+3, 1.6493237e+2, -1348670.1, -1371951.4, 0.013837471, 0.0000039062998, 0.000047878606, -1348670.1, -25007.271, 0.0, 10.000013, 9.969242 
2.2550005e+3, 1.7490163e+2, -1250712.3, -1274309.4, -0.045678753, 0.000003881546, -0.00007309262, -1250712.3, -24748.348, 0.0, 10.000013, 9.968828 
2.2550005e+3, 1.848643e+2, -1162631.3, -1195719.3, 0.009617389, 0.0000038656412, 0.00006692637, -1162631.3, -34301.395, 0.0, 10.000013, 9.956389 
2.2550005e+3, 1.9482073e+2, -1064481.8, -1097832.3, -0.045832388, 0.0000038589915, -0.00005699783, -1064481.8, -33724.824, 0.0, 10.000013, 9.956046 
2.2550005e+3, 2.0477049e+2, -976317.8, -1019434.25, 0.011106739, 0.000003846297, 0.00006866165, -976317.8, -43068.586, 0.0, 10.000013, 9.943284 
2.2550005e+3, 2.1471381e+2, -878030.94, -921409.25, -0.043574575, 0.000003827054, -0.00012626723, -878030.94, -42226.254, 0.0, 10.000013, 9.942944 
2.2550005e+3, 2.2465044e+2, -789744.9, -843144.25, 0.011111539, 0.0000038118935, 0.000121410725, -789744.9, -51319.164, 0.0, 10.000012, 9.929901 
2.2550005e+3, 2.345804e+2, -691311.5, -744965.94, -0.043475088, 0.0000038013538, -0.00008832276, -691311.5, -50199.46, 0.0, 10.000012, 9.92957 
2.2550005e+3, 2.4450342e+2, -602987.5, -667018.3, 0.011613259, 0.0000037921386, 0.00007516437, -602987.5, -59121.08, 0.0, 10.000012, 9.91613 
2.2550005e+3, 2.5441968e+2, -504234.97, -568342.9, -0.039723333, 0.000003784498, -0.000106326435, -504234.97, -57547.797, 0.0, 10.000012, 9.91603 
2.2550005e+3, 2.6432884e+2, -415999.66, -490987.53, 0.0143983755, 0.0000037756658, 0.00014095978, -415999.66, -66422.29, 0.0, 10.000012, 9.901958 
2.2550005e+3, 2.7423134e+2, -316714.53, -391374.5, -0.03554392, 0.0000037653108, -0.00020312263, -316714.53, -64181.785, 0.0, 10.000012, 9.902379 
2.2550005e+3, 2.8412563e+2, -230241.33, -318081.03, 0.016832676, 0.000003757611, 0.00022932964, -230241.33, -74672.555, 0.0, 10.000012, 9.885432 
2.2550005e+3, 2.9401213e+2, -130535.29, -217764.86, -0.030075038, 0.000003753549, -0.00025308807, -130535.29, -71854.03, 0.0, 10.000012, 9.886211 
2.2550005e+3, 3.0392656e+2, -40791.484, -84750.22, 0.02156889, 0.0000037468474, 0.00017334182, -40791.484, -40791.484, 0.0, 10.000012, 9.942166 
2.2550005e+3, 3.138706e+2, -39713.5, -82511.29, -0.024517762, 0.0000037362004, -0.00005501655, -39713.5, -39713.5, 0.0, 10.000012, 9.943678 
2.2650005e+3, 1.2499346e+2, -1719929.1, -1724223.3, 0.04732767, 0.000004084922, 0.000018899527, -1719929.1, -4865.0625, 0.0, 10.000014, 9.994321 
2.2650005e+3, 1.3498771e+2, -1622548.9, -1627433.6, -0.012616853, 0.0000040542886, -0.00006833418, -1622548.9, -5428.414, 0.0, 10.000014, 9.993538 
2.2650005e+3, 1.4497524e+2, -1534447.5, -1548144.9, 0.04170873, 0.000004031217, 0.00007253634, -1534447.5, -15204.871, 0.0, 10.000014, 9.981858 
2.2650005e+3, 1.5495712e+2, -1436720.0, -1450820.6, -0.022337398, 0.0000040149553, -0.000056138557, -1436720.0, -15299.805, 0.0, 10.000014, 9.981326 
2.2650005e+3, 1.6493237e+2, -1348669.1, -1371951.1, 0.0376286, 0.0000039944666, 0.0000478917, -1348669.1, -25006.357, 0.0, 10.000014, 9.969242 
2.2650005e+3, 1.7490166e+2, -1250711.3, -1274309.0, -0.022099225, 0.000003969663, -0.00007307899, -1250711.3, -24747.45, 0.0, 10.000013, 9.968828 
2.2650005e+3, 1.848643e+2, -1162630.4, -1195718.9, 0.032365095, 0.00000395552, 0.00006694016, -1162630.4, -34300.5, 0.0, 10.000013, 9.956388 
2.2650005e+3, 1.9482073e+2, -1064480.8, -1097831.9, -0.02618973, 0.000003952528, -0.000056984263, -1064480.8, -33723.934, 0.0, 10.000013, 9.956046 
2.2650005e+3, 2.0477049e+2, -976316.94, -1019434.0, 0.030702403, 0.0000039395404, 0.00006867581, -976316.94, -43067.703, 0.0, 10.000013, 9.943284 
2.2650005e+3, 2.1471381e+2, -878030.06, -921408.94, -0.02786496, 0.0000039157258, -0.00012625157, -878030.06, -42225.375, 0.0, 10.000013, 9.942944 
2.2650005e+3, 2.2465044e+2, -789744.0, -843143.94, 0.027521871, 0.0000038981175, 0.00012142513, -789744.0, -51318.29, 0.0, 10.000013, 9.929901 
2.2650005e+3, 2.345804e+2, -691310.6, -744965.6, -0.028131356, 0.0000038875364, -0.000088312736, -691310.6, -50198.594, 0.0, 10.000013, 9.92957 
2.2650005e+3, 2.4450342e+2, -602986.6, -667018.0, 0.026333647, 0.000003879665, 0.00007517161, -602986.6, -59120.215, 0.0, 10.000013, 9.91613 
2.2650005e+3, 2.5441968e+2, -504234.13, -568342.6, -0.027693996, 0.000003875021, -0.000106320076, -504234.13, -57546.94, 0.0, 10.000013, 9.91603 
2.2650005e+3, 2.6432884e+2, -415998.78, -490987.28, 0.026719939, 0.00000386673, 0.00014096657, -415998.78, -66421.44, 0.0, 10.000013, 9.901958 
2.2650005e+3, 2.7423134e+2, -316713.7, -391374.25, -0.026820662, 0.000003853788, -0.00020311374, -316713.7, -64180.938, 0.0, 10.000013, 9.902378 
2.2650005e+3, 2.8412563e+2, -230240.47, -318080.78, 0.024820741, 0.0000038443186, 0.00022933987, -230240.47, -74671.71, 0.0, 10.000013, 9.885432 
2.2650005e+3, 2.9401213e+2, -130534.44, -217764.63, -0.024560804, 0.00000383962, -0.0002530776, -130534.44, -71853.19, 0.0, 10.000013, 9.88621 
2.2650005e+3, 3.0392656e+2, -40790.65, -84749.984, 0.027000152, 0.0000038332646, 0.00017334927, -40790.65, -40790.65, 0.0, 10.000013, 9.942166 
2.2650005e+3, 3.138706e+2, -39712.664, -82511.06, -0.02038952, 0.0000038244125, -0.000055016975, -39712.664, -39712.664, 0.0, 10.000013, 9.943678 
2.2750005e+3, 1.24993466e+2, -1719929.3, -1724223.5, 0.016256195, 0.000004185751, 0.000018938357, -1719929.3, -4865.234, 0.0, 10.000014, 9.99432 
2.2750005e+3, 1.3498771e+2, -1622549.0, -1627433.9, -0.043694608, 0.00000414868, -0.000068358124, -1622549.0, -5428.5825, 0.0, 10.000014, 9.993538 
2.2750005e+3, 1.4497524e+2, -1534447.6, -1548145.1, 0.014834312, 0.000004121355, 0.00007257992, -1534447.6, -15205.047, 0.0, 10.000014, 9.981858 
2.2750005e+3, 1.5495712e+2, -1436720.1, -1450820.9, -0.049205612, 0.0000041030175, -0.000056110115, -1436720.1, -15299.978, 0.0, 10.000014, 9.981326 
2.2750005e+3, 1.6493237e+2, -1348669.3, -1371951.4, 0.012959783, 0.000004085211, 0.000047909125, -1348669.3, -25006.518, 0.0, 10.000014, 9.969241 
2.2750005e+3, 1.7490166e+2, -1250711.4, -1274309.3, -0.046756998, 0.000004067949, -0.00007306835, -1250711.4, -24747.607, 0.0, 10.000013, 9.968828 
2.2750005e+3, 1.848643e+2, -1162630.5, -1195719.1, 0.009953434, 0.0000040531067, 0.000066948145, -1162630.5, -34300.656, 0.0, 10.000013, 9.956388 
2.2750005e+3, 1.9482073e+2, -1064480.9, -1097832.1, -0.048576087, 0.000004040793, -0.000056974604, -1064480.9, -33724.086, 0.0, 10.000013, 9.956046 
2.2750005e+3, 2.0477049e+2, -976317.06, -1019434.25, 0.011284474, 0.000004025755, 0.00006869165, -976317.06, -43067.85, 0.0, 10.000013, 9.943284 
2.2750005e+3, 2.1471381e+2, -878030.2, -921409.2, -0.047222115, 0.0000040077643, -0.0001262247, -878030.2, -42225.52, 0.0, 10.000013, 9.942943 
2.2750005e+3, 2.2465044e+2, -789744.1, -843144.2, 0.011612287, 0.000003992256, 0.000121448604, -789744.1, -51318.43, 0.0, 10.000013, 9.929901 
2.2750005e+3, 2.345804e+2, -691310.75, -744965.9, -0.043928757, 0.000003979556, -0.00008830903, -691310.75, -50198.73, 0.0, 10.000013, 9.92957 
2.2750005e+3, 2.4450342e+2, -602986.75, -667018.25, 0.011580253, 0.0000039698343, 0.00007516894, -602986.75, -59120.348, 0.0, 10.000013, 9.91613 
2.2750005e+3, 2.5441968e+2, -504234.22, -568342.9, -0.04239786, 0.0000039636657, -0.00010631308, -504234.22, -57547.07, 0.0, 10.000013, 9.91603 
2.2750005e+3, 2.6432884e+2, -415998.9, -490987.53, 0.015638702, 0.0000039551705, 0.0001409784, -415998.9, -66421.57, 0.0, 10.000013, 9.901958 
2.2750005e+3, 2.7423134e+2, -316713.78, -391374.5, -0.03765955, 0.0000039437036, -0.00020310323, -316713.78, -64181.066, 0.0, 10.000013, 9.902378 
2.2750005e+3, 2.8412563e+2, -230240.6, -318081.0, 0.016609032, 0.000003934372, 0.00022935033, -230240.6, -74671.83, 0.0, 10.000013, 9.885432 
2.2750005e+3, 2.9401213e+2, -130534.55, -217764.86, -0.0325365, 0.0000039279726, -0.0002530654, -130534.55, -71853.305, 0.0, 10.000013, 9.88621 
2.2750005e+3, 3.0392656e+2, -40790.76, -84750.22, 0.021388162, 0.0000039219913, 0.00017335721, -40790.76, -40790.76, 0.0, 10.000013, 9.942166 
2.2750005e+3, 3.138706e+2, -39712.78, -82511.3, -0.025724612, 0.000003916611, -0.000055022196, -39712.78, -39712.78, 0.0, 10.000013, 9.943678 
2.2850005e+3, 1.24993466e+2, -1719928.3, -1724223.1, 0.04768972, 0.0000042878705, 0.000018969698, -1719928.3, -4864.267, 0.0, 10.000015, 9.99432 
2.2850005e+3, 1.3498771e+2, -1622548.0, -1627433.5, -0.018081822, 0.000004242244, -0.00006837069, -1622548.0, -5427.6094, 0.0, 10.000014, 9.993538 
2.2850005e+3, 1.4497524e+2, -1534446.6, -1548144.8, 0.040286224, 0.000004212162, 0.00007263582, -1534446.6, -15204.077, 0.0, 10.000014, 9.981857 
2.2850005e+3, 1.5495715e+2, -1436719.1, -1450820.6, -0.023430798, 0.0000041968815, -0.00005609231, -1436719.1, -15299.015, 0.0, 10.000014, 9.981326 
2.2850005e+3, 1.6493237e+2, -1348668.3, -1371951.0, 0.0388874, 0.0000041818043, 0.000047913774, -1348668.3, -25005.56, 0.0, 10.000014, 9.969241 
2.2850005e+3, 1.7490166e+2, -1250710.5, -1274309.0, -0.02318149, 0.000004166936, -0.00007305138, -1250710.5, -24746.668, 0.0, 10.000014, 9.968827 
2.2850005e+3, 1.848643e+2, -1162629.5, -1195718.9, 0.03467443, 0.0000041497165, 0.00006696824, -1162629.5, -34299.723, 0.0, 10.000014, 9.956388 
2.2850005e+3, 1.9482075e+2, -1064480.0, -1097831.9, -0.028494285, 0.000004130034, -0.000056961042, -1064480.0, -33723.152, 0.0, 10.000014, 9.956045 
2.2850005e+3, 2.0477049e+2, -976316.06, -1019433.94, 0.030171873, 0.0000041139033, 0.000068704016, -976316.06, -43066.92, 0.0, 10.000014, 9.943284 
2.2850005e+3, 2.1471381e+2, -878029.2, -921408.9, -0.029993363, 0.000004101618, -0.00012620773, -878029.2, -42224.598, 0.0, 10.000014, 9.942943 
2.2850005e+3, 2.2465044e+2, -789743.2, -843143.94, 0.029058823, 0.00000408875, 0.000121464655, -789743.2, -51317.51, 0.0, 10.000014, 9.929901 
2.2850005e+3, 2.3458041e+2, -691309.8, -744965.6, -0.029310903, 0.000004075219, -0.00008830014, -691309.8, -50197.832, 0.0, 10.000014, 9.92957 
2.2850005e+3, 2.4450344e+2, -602985.9, -667018.0, 0.026461601, 0.0000040633086, 0.000075175885, -602985.9, -59119.453, 0.0, 10.000014, 9.916129 
2.2850005e+3, 2.5441968e+2, -504233.3, -568342.6, -0.030923525, 0.0000040533328, -0.00010630187, -504233.3, -57546.17, 0.0, 10.000014, 9.91603 
2.2850005e+3, 2.6432884e+2, -415998.0, -490987.25, 0.027032215, 0.0000040438563, 0.00014099013, -415998.0, -66420.67, 0.0, 10.000014, 9.901958 
2.2850005e+3, 2.7423134e+2, -316712.9, -391374.25, -0.026939783, 0.0000040350074, -0.00020309577, -316712.9, -64180.176, 0.0, 10.000014, 9.902378 
2.2850005e+3, 2.8412563e+2, -230239.69, -318080.75, 0.02799284, 0.000004027069, 0.00022935533, -230239.69, -74670.945, 0.0, 10.000014, 9.885432 
2.2850005e+3, 2.9401213e+2, -130533.664, -217764.6, -0.024822937, 0.000004020369, -0.00025306034, -130533.664, -71852.43, 0.0, 10.000014, 9.88621 
2.2850005e+3, 3.0392656e+2, -40789.887, -84749.98, 0.028816363, 0.0000040139557, 0.00017336168, -40789.887, -40789.887, 0.0, 10.000014, 9.942166 
2.2850005e+3, 3.138706e+2, -39711.906, -82511.055, -0.019473318, 0.0000040079626, -0.000055019336, -39711.906, -39711.906, 0.0, 10.000014, 9.943678 
2.2950006e+3, 1.2499347e+2, -1719928.4, -1724223.5, 0.018973958, 0.0000043912796, 0.000018993578, -1719928.4, -4864.453, 0.0, 10.000015, 9.99432 
2.2950006e+3, 1.3498771e+2, -1622548.1, -1627433.9, -0.04680321, 0.0000043349805, -0.000068371875, -1622548.1, -5427.7925, 0.0, 10.000014, 9.993538 
2.2950006e+3, 1.4497524e+2, -1534446.8, -1548145.0, 0.012323769, 0.0000043036384, 0.000072704024, -1534446.8, -15204.254, 0.0, 10.000014, 9.981857 
2.2950006e+3, 1.5495715e+2, -1436719.3, -1450820.9, -0.051392376, 0.0000042965476, -0.000056085148, -1436719.3, -15299.1875, 0.0, 10.000014, 9.981326 
2.2950006e+3, 1.6493237e+2, -1348668.4, -1371951.3, 0.010793038, 0.0000042842453, 0.000047905654, -1348668.4, -25005.729, 0.0, 10.000014, 9.969241 
2.2950006e+3, 1.7490166e+2, -1250710.6, -1274309.3, -0.051277414, 0.0000042666243, -0.00007302805, -1250710.6, -24746.832, 0.0, 10.000014, 9.968827 
2.2950006e+3, 1.848643e+2, -1162629.6, -1195719.1, 0.013381315, 0.0000042453503, 0.000067000445, -1162629.6, -34299.89, 0.0, 10.000014, 9.956388 
2.2950006e+3, 1.9482075e+2, -1064480.1, -1097832.1, -0.049709138, 0.000004220251, -0.000056943572, -1064480.1, -33723.313, 0.0, 10.000014, 9.956045 
2.2950006e+3, 2.0477049e+2, -976316.2, -1019434.2, 0.009912107, 0.0000042039856, 0.00006871293, -976316.2, -43067.074, 0.0, 10.000014, 9.943284 
2.2950006e+3, 2.1471383e+2, -878029.4, -921409.1, -0.05023402, 0.0000041972858, -0.00012620067, -878029.4, -42224.746, 0.0, 10.000014, 9.942943 
2.2950006e+3, 2.2465044e+2, -789743.3, -843144.2, 0.010150927, 0.0000041875987, 0.000121473284, -789743.3, -51317.66, 0.0, 10.000014, 9.929901 
2.2950006e+3, 2.3458041e+2, -691309.94, -744965.9, -0.048175894, 0.0000041745243, -0.00008828604, -691309.94, -50197.973, 0.0, 10.000014, 9.92957 
2.2950006e+3, 2.4450344e+2, -602986.0, -667018.25, 0.013334629, 0.000004160087, 0.00007519244, -602986.0, -59119.594, 0.0, 10.000014, 9.916129 
2.2950006e+3, 2.5441968e+2, -504233.44, -568342.9, -0.043775402, 0.0000041440226, -0.00010628646, -504233.44, -57546.31, 0.0, 10.000014, 9.916029 
2.2950006e+3, 2.6432887e+2, -415998.13, -490987.5, 0.014984201, 0.0000041327876, 0.00014100173, -415998.13, -66420.805, 0.0, 10.000014, 9.9019575 
2.2950006e+3, 2.7423134e+2, -316713.0, -391374.47, -0.03893459, 0.000004127699, -0.00020309137, -316713.0, -64180.305, 0.0, 10.000014, 9.902378 
2.2950006e+3, 2.8412563e+2, -230239.81, -318081.0, 0.018793741, 0.0000041224084, 0.00022935488, -230239.81, -74671.07, 0.0, 10.000014, 9.885432 
2.2950006e+3, 2.9401213e+2, -130533.78, -217764.84, -0.033770733, 0.00000411681, -0.00025306243, -130533.78, -71852.555, 0.0, 10.000014, 9.88621 
2.2950006e+3, 3.0392656e+2, -40790.004, -84750.22, 0.023143653, 0.0000041091585, 0.00017336264, -40790.004, -40790.004, 0.0, 10.000014, 9.942166 
2.2950006e+3, 3.138706e+2, -39712.023, -82511.3, -0.024762437, 0.0000040984683, -0.00005500839, -39712.023, -39712.023, 0.0, 10.000014, 9.943677 
2.3050004e+3, 1.2499347e+2, -1719927.4, -1724223.1, 0.05321487, 0.0000044895755, 0.000019030638, -1719927.4, -4863.4146, 0.0, 10.000015, 9.99432 
2.3050004e+3, 1.3498771e+2, -1622547.1, -1627433.5, -0.019357653, 0.000004434877, -0.00006838602, -1622547.1, -5426.7783, 0.0, 10.000015, 9.993537 
2.3050004e+3, 1.4497526e+2, -1534445.8, -1548144.6, 0.039175846, 0.0000044047692, 0.00007276012, -1534445.8, -15203.245, 0.0, 10.000015, 9.981857 
2.3050004e+3, 1.5495715e+2, -1436718.3, -1450820.5, -0.022570698, 0.000004398522, -0.000056068187, -1436718.3, -15298.195, 0.0, 10.000015, 9.981326 
2.3050004e+3, 1.6493239e+2, -1348667.4, -1371951.0, 0.04024802, 0.0000043845603, 0.000047910096, -1348667.4, -25004.744, 0.0, 10.000015, 9.969241 
2.3050004e+3, 1.7490166e+2, -1250709.5, -1274308.9, -0.028730968, 0.000004362724, -0.00007300893, -1250709.5, -24745.838, 0.0, 10.000015, 9.968827 
2.3050004e+3, 1.848643e+2, -1162628.6, -1195718.8, 0.03569185, 0.00000434097, 0.00006702442, -1162628.6, -34298.895, 0.0, 10.000015, 9.956388 
2.3050004e+3, 1.9482075e+2, -1064479.1, -1097831.8, -0.027441302, 0.000004319297, -0.00005692505, -1064479.1, -33722.34, 0.0, 10.000015, 9.956045 
2.3050004e+3, 2.0477049e+2, -976315.25, -1019433.9, 0.0334877, 0.0000043035157, 0.00006872596, -976315.25, -43066.113, 0.0, 10.000015, 9.943283 
2.3050004e+3, 2.1471383e+2, -878028.4, -921408.9, -0.02943433, 0.0000042941124, -0.00012619316, -878028.4, -42223.793, 0.0, 10.000015, 9.942943 
2.3050004e+3, 2.2465044e+2, -789742.4, -843143.9, 0.029996851, 0.0000042832785, 0.00012148122, -789742.4, -51316.703, 0.0, 10.000015, 9.929901 
2.3050004e+3, 2.3458041e+2, -691309.0, -744965.56, -0.032290615, 0.0000042708207, -0.000088270936, -691309.0, -50197.016, 0.0, 10.000015, 9.929569 
2.3050004e+3, 2.4450344e+2, -602985.0, -667017.94, 0.029440623, 0.000004256732, 0.00007520881, -602985.0, -59118.64, 0.0, 10.000015, 9.916129 
2.3050004e+3, 2.5441968e+2, -504232.5, -568342.56, -0.030215468, 0.0000042406946, -0.00010627588, -504232.5, -57545.375, 0.0, 10.000014, 9.916029 
2.3050004e+3, 2.6432887e+2, -415997.2, -490987.22, 0.027991429, 0.000004228981, 0.00014100903, -415997.2, -66419.875, 0.0, 10.000014, 9.9019575 
2.3050004e+3, 2.7423134e+2, -316712.06, -391374.22, -0.029459532, 0.000004222771, -0.00020308413, -316712.06, -64179.375, 0.0, 10.000014, 9.902378 
2.3050004e+3, 2.8412563e+2, -230238.88, -318080.72, 0.028099328, 0.0000042173265, 0.00022936151, -230238.88, -74670.15, 0.0, 10.000014, 9.885432 
2.3050004e+3, 2.9401213e+2, -130532.85, -217764.58, -0.025663396, 0.0000042128995, -0.0002530572, -130532.85, -71851.63, 0.0, 10.000014, 9.88621 
2.3050004e+3, 3.0392656e+2, -40789.086, -84749.97, 0.030780228, 0.0000042050006, 0.00017336768, -40789.086, -40789.086, 0.0, 10.000014, 9.942165 
2.3050004e+3, 3.138706e+2, -39711.11, -82511.05, -0.023032997, 0.0000041919457, -0.000055001772, -39711.11, -39711.11, 0.0, 10.000014, 9.943677 
2.3150004e+3, 1.2499349e+2, -1719927.5, -1724223.4, 0.019650595, 0.00000458276, 0.000019080902, -1719927.5, -4863.6187, 0.0, 10.000015, 9.99432 
2.3150004e+3, 1.3498773e+2, -1622547.3, -1627433.8, -0.052928, 0.000004541933, -0.00006841311, -1622547.3, -5426.9785, 0.0, 10.000015, 9.993537 
2.3150004e+3, 1.4497526e+2, -1534445.9, -1548145.0, 0.008266661, 0.000004515552, 0.00007280413, -1534445.9, -15203.418, 0.0, 10.000015, 9.981857 
2.3150004e+3, 1.5495715e+2, -1436718.4, -1450820.8, -0.053476986, 0.000004502805, -0.000056041434, -1436718.4, -15298.365, 0.0, 10.000015, 9.981325 
2.3150004e+3, 1.6493239e+2, -1348667.5, -1371951.3, 0.015326191, 0.000004482751, 0.0000479271, -1348667.5, -25004.928, 0.0, 10.000015, 9.969241 
2.3150004e+3, 1.7490166e+2, -1250709.8, -1274309.3, -0.0536216, 0.0000044552376, -0.00007299399, -1250709.8, -24746.018, 0.0, 10.000015, 9.968827 
2.3150004e+3, 1.848643e+2, -1162628.8, -1195719.1, 0.010465624, 0.000004436575, 0.000067040164, -1162628.8, -34299.063, 0.0, 10.000015, 9.956388 
2.3150004e+3, 1.9482075e+2, -1064479.3, -1097832.1, -0.052672245, 0.000004427171, -0.000056905483, -1064479.3, -33722.504, 0.0, 10.000015, 9.956045 
2.3150004e+3, 2.0477049e+2, -976315.4, -1019434.1, 0.012487924, 0.0000044124918, 0.00006874312, -976315.4, -43066.273, 0.0, 10.000015, 9.943283 
2.3150004e+3, 2.1471383e+2, -878028.5, -921409.1, -0.050347432, 0.0000043920973, -0.0001261852, -878028.5, -42223.95, 0.0, 10.000015, 9.942943 
2.3150004e+3, 2.2465046e+2, -789742.5, -843144.1, 0.012430266, 0.00000437579, 0.000121488476, -789742.5, -51316.86, 0.0, 10.000015, 9.9299 
2.3150004e+3, 2.3458041e+2, -691309.1, -744965.8, -0.049748335, 0.000004364109, -0.00008825482, -691309.1, -50197.168, 0.0, 10.000015, 9.929569 
2.3150004e+3, 2.4450344e+2, -602985.1, -667018.2, 0.013388192, 0.0000043532445, 0.000075225, -602985.1, -59118.79, 0.0, 10.000015, 9.916129 
2.3150004e+3, 2.5441968e+2, -504232.63, -568342.8, -0.046201028, 0.0000043433483, -0.00010627012, -504232.63, -57545.52, 0.0, 10.000014, 9.916029 
2.3150004e+3, 2.6432887e+2, -415997.3, -490987.5, 0.01624265, 0.000004332436, 0.00014101206, -415997.3, -66420.016, 0.0, 10.000014, 9.9019575 
2.3150004e+3, 2.7423134e+2, -316712.2, -391374.47, -0.040924996, 0.0000043202244, -0.00020307403, -316712.2, -64179.516, 0.0, 10.000014, 9.902378 
2.3150004e+3, 2.8412563e+2, -230239.0, -318080.97, 0.018843284, 0.0000043118234, 0.00022937522, -230239.0, -74670.28, 0.0, 10.000014, 9.885431 
2.3150004e+3, 2.9401213e+2, -130532.98, -217764.83, -0.034721125, 0.000004308638, -0.00025304465, -130532.98, -71851.766, 0.0, 10.000014, 9.88621 
2.3150004e+3, 3.0392656e+2, -40789.215, -84750.234, 0.024604194, 0.0000043014834, 0.00017337677, -40789.215, -40789.215, 0.0, 10.000014, 9.942165 
2.3150004e+3, 3.138706e+2, -39711.24, -82511.31, -0.028871259, 0.0000042883944, -0.00005499948, -39711.24, -39711.24, 0.0, 10.000014, 9.943677 
2.3250008e+3, 1.2499349e+2, -1719926.4, -1724223.0, 0.05304705, 0.000004685651, 0.000019121517, -1719926.4, -4862.546, 0.0, 10.000016, 9.994319 
2.3250008e+3, 1.3498773e+2, -1622546.1, -1627433.4, -0.0138090905, 0.000004649128, -0.00006843843, -1622546.1, -5425.92, 0.0, 10.000016, 9.993537 
2.3250008e+3, 1.4497526e+2, -1534444.8, -1548144.6, 0.04783977, 0.0000046226023, 0.00007285458, -1534444.8, -15202.364, 0.0, 10.000016, 9.981857 
2.3250008e+3, 1.5495716e+2, -1436717.3, -1450820.4, -0.027204819, 0.0000046052105, -0.000056016725, -1436717.3, -15297.313, 0.0, 10.000016, 9.981325 
2.3250005e+3, 1.6493239e+2, -1348666.5, -1371950.9, 0.040720623, 0.000004583192, 0.00004794036, -1348666.5, -25003.88, 0.0, 10.000016, 9.969241 
2.3250005e+3, 1.7490168e+2, -1250708.6, -1274308.9, -0.02563707, 0.000004556451, -0.00007297757, -1250708.6, -24744.988, 0.0, 10.000016, 9.968827 
2.3250005e+3, 1.8486431e+2, -1162627.8, -1195718.8, 0.03783773, 0.0000045390348, 0.00006705745, -1162627.8, -34298.035, 0.0, 10.000016, 9.9563875 
2.3250005e+3, 1.9482075e+2, -1064478.3, -1097831.8, -0.031241778, 0.0000045313723, -0.00005688973, -1064478.3, -33721.484, 0.0, 10.000016, 9.956045 
2.3250005e+3, 2.047705e+2, -976314.3, -1019433.8, 0.033014655, 0.0000045163883, 0.00006875867, -976314.3, -43065.258, 0.0, 10.000016, 9.943283 
2.3250005e+3, 2.1471383e+2, -878027.5, -921408.8, -0.033253573, 0.0000044934727, -0.00012616835, -878027.5, -42222.94, 0.0, 10.000015, 9.942942 
2.3250005e+3, 2.2465046e+2, -789741.44, -843143.8, 0.030488823, 0.0000044753024, 0.00012150431, -789741.44, -51315.86, 0.0, 10.000015, 9.9299 
2.3250005e+3, 2.3458041e+2, -691308.1, -744965.5, -0.03341858, 0.000004462502, -0.00008824259, -691308.1, -50196.176, 0.0, 10.000015, 9.929569 
2.3250005e+3, 2.4450344e+2, -602984.1, -667017.9, 0.029167976, 0.000004452123, 0.00007523501, -602984.1, -59117.8, 0.0, 10.000015, 9.916129 
2.3250005e+3, 2.5441968e+2, -504231.63, -568342.56, -0.03312238, 0.0000044446265, -0.00010626068, -504231.63, -57544.53, 0.0, 10.000015, 9.916029 
2.3250005e+3, 2.6432887e+2, -415996.3, -490987.2, 0.029961571, 0.0000044344565, 0.00014102126, -415996.3, -66419.03, 0.0, 10.000015, 9.9019575 
2.3250005e+3, 2.7423134e+2, -316711.22, -391374.2, -0.030486729, 0.0000044208728, -0.00020306463, -316711.22, -64178.543, 0.0, 10.000015, 9.902377 
2.3250005e+3, 2.8412563e+2, -230238.02, -318080.7, 0.028563298, 0.000004411022, 0.00022938465, -230238.02, -74669.31, 0.0, 10.000015, 9.885431 
2.3250005e+3, 2.9401213e+2, -130532.0, -217764.55, -0.028651271, 0.000004406291, -0.00025303545, -130532.0, -71850.8, 0.0, 10.000015, 9.8862095 
2.3250005e+3, 3.0392656e+2, -40788.258, -84749.97, 0.031264216, 0.0000043992527, 0.00017338335, -40788.258, -40788.258, 0.0, 10.000015, 9.942165 
2.3250005e+3, 3.138706e+2, -39710.28, -82511.055, -0.02111007, 0.00000438875, -0.000054999065, -39710.28, -39710.28, 0.0, 10.000015, 9.943677 
2.3350008e+3, 1.24993496e+2, -1719926.5, -1724223.3, 0.017125892, 0.0000047982467, 0.000019152516, -1719926.5, -4862.738, 0.0, 10.000016, 9.994319 
2.3350008e+3, 1.3498773e+2, -1622546.4, -1627433.8, -0.04973779, 0.0000047564636, -0.00006846198, -1622546.4, -5426.1084, 0.0, 10.000016, 9.993537 
2.3350008e+3, 1.4497526e+2, -1534444.9, -1548144.9, 0.017334359, 0.0000047259205, 0.000072911476, -1534444.9, -15202.569, 0.0, 10.000016, 9.981857 
2.3350008e+3, 1.5495716e+2, -1436717.5, -1450820.8, -0.057701934, 0.000004705739, -0.000055994053, -1436717.5, -15297.515, 0.0, 10.000016, 9.981325 
2.3350008e+3, 1.6493239e+2, -1348666.6, -1371951.3, 0.013156313, 0.0000046858836, 0.00004794988, -1348666.6, -25004.06, 0.0, 10.000016, 9.96924 
2.3350008e+3, 1.7490168e+2, -1250708.8, -1274309.1, -0.05318695, 0.0000046663636, -0.000072959665, -1250708.8, -24745.164, 0.0, 10.000016, 9.968827 
2.3350008e+3, 1.8486431e+2, -1162627.9, -1195719.0, 0.012318683, 0.000004648348, 0.00006707628, -1162627.9, -34298.22, 0.0, 10.000016, 9.9563875 
2.3350008e+3, 1.9482075e+2, -1064478.4, -1097832.0, -0.05673787, 0.000004631901, -0.0000568778, -1064478.4, -33721.66, 0.0, 10.000016, 9.956044 
2.3350008e+3, 2.047705e+2, -976314.5, -1019434.06, 0.010820307, 0.000004615206, 0.00006877265, -976314.5, -43065.426, 0.0, 10.000016, 9.943283 
2.3350008e+3, 2.1471383e+2, -878027.6, -921409.06, -0.055380497, 0.0000045982383, -0.00012614264, -878027.6, -42223.11, 0.0, 10.000015, 9.942942 
2.3350005e+3, 2.2465046e+2, -789741.6, -843144.1, 0.012214999, 0.0000045818138, 0.00012152871, -789741.6, -51316.02, 0.0, 10.000015, 9.9299 
2.3350005e+3, 2.3458041e+2, -691308.25, -744965.75, -0.0515671, 0.0000045660004, -0.00008823424, -691308.25, -50196.332, 0.0, 10.000015, 9.929569 
2.3350005e+3, 2.4450344e+2, -602984.3, -667018.2, 0.012878812, 0.0000045533675, 0.00007523884, -602984.3, -59117.953, 0.0, 10.000015, 9.916128 
2.3350005e+3, 2.5441968e+2, -504231.75, -568342.8, -0.04932292, 0.00000454453, -0.00010624758, -504231.75, -57544.684, 0.0, 10.000015, 9.916029 
2.3350005e+3, 2.6432887e+2, -415996.44, -490987.47, 0.016863063, 0.0000045350425, 0.00014103664, -415996.44, -66419.18, 0.0, 10.000015, 9.9019575 
2.3350005e+3, 2.7423134e+2, -316711.34, -391374.47, -0.04337795, 0.000004524715, -0.00020305591, -316711.34, -64178.688, 0.0, 10.000015, 9.902377 
2.3350005e+3, 2.8412563e+2, -230238.16, -318080.97, 0.019257838, 0.0000045149213, 0.0002293898, -230238.16, -74669.45, 0.0, 10.000015, 9.885431 
2.3350005e+3, 2.9401213e+2, -130532.13, -217764.83, -0.037634395, 0.0000045058578, -0.0002530296, -130532.13, -71850.94, 0.0, 10.000015, 9.8862095 
2.3350005e+3, 3.0392656e+2, -40788.383, -84750.234, 0.024909232, 0.0000044983094, 0.00017338741, -40788.383, -40788.383, 0.0, 10.000015, 9.942165 
2.3350005e+3, 3.138706e+2, -39710.406, -82511.31, -0.02715749, 0.000004493011, -0.000055000524, -39710.406, -39710.406, 0.0, 10.000015, 9.943677 
2.3450008e+3, 1.24993496e+2, -1719925.4, -1724222.9, 0.05733016, 0.0000049131067, 0.000019186715, -1719925.4, -4861.632, 0.0, 10.000017, 9.994319 
2.3450008e+3, 1.3498773e+2, -1622545.1, -1627433.3, -0.021256197, 0.0000048626343, -0.00006847684, -1622545.1, -5424.9927, 0.0, 10.000017, 9.993537 
2.3450008e+3, 1.4497526e+2, -1534443.8, -1548144.5, 0.045215327, 0.000004829218, 0.00007297691, -1534443.8, -15201.455, 0.0, 10.000017, 9.981856 
2.3450008e+3, 1.5495716e+2, -1436716.4, -1450820.4, -0.025471214, 0.0000048119905, -0.00005597545, -1436716.4, -15296.41, 0.0, 10.000017, 9.981325 
2.3450008e+3, 1.6493239e+2, -1348665.5, -1371950.9, 0.045673613, 0.000004794426, 0.000047953326, -1348665.5, -25002.965, 0.0, 10.000017, 9.96924 
2.3450008e+3, 1.7490168e+2, -1250707.8, -1274308.8, -0.028736027, 0.0000047765197, -0.00007293902, -1250707.8, -24744.088, 0.0, 10.000017, 9.968826 
2.3450008e+3, 1.8486431e+2, -1162626.9, -1195718.6, 0.036690716, 0.0000047569115, 0.000067100984, -1162626.9, -34297.15, 0.0, 10.000016, 9.9563875 
2.3450008e+3, 1.9482076e+2, -1064477.3, -1097831.6, -0.03273246, 0.0000047355184, -0.00005686279, -1064477.3, -33720.594, 0.0, 10.000016, 9.956044 
2.3450008e+3, 2.047705e+2, -976313.4, -1019433.75, 0.035565335, 0.000004717754, 0.00006878537, -976313.4, -43064.363, 0.0, 10.000016, 9.943283 
2.3450008e+3, 2.1471383e+2, -878026.56, -921408.75, -0.034391005, 0.0000047039175, -0.0001261242, -878026.56, -42222.05, 0.0, 10.000016, 9.942942 
2.3450008e+3, 2.2465046e+2, -789740.5, -843143.75, 0.03262279, 0.0000046888854, 0.00012154664, -789740.5, -51314.97, 0.0, 10.000016, 9.9299 
2.3450008e+3, 2.3458041e+2, -691307.2, -744965.44, -0.03453547, 0.0000046724945, -0.00008822389, -691307.2, -50195.297, 0.0, 10.000016, 9.929569 
2.3450008e+3, 2.4450344e+2, -602983.25, -667017.9, 0.030004242, 0.000004658657, 0.00007524691, -602983.25, -59116.926, 0.0, 10.000016, 9.916128 
2.3450008e+3, 2.5441968e+2, -504230.72, -568342.5, -0.03525268, 0.000004647867, -0.000106235435, -504230.72, -57543.656, 0.0, 10.000016, 9.916028 
2.3450008e+3, 2.6432887e+2, -415995.4, -490987.16, 0.030712564, 0.000004637746, 0.00014104931, -415995.4, -66418.16, 0.0, 10.000016, 9.9019575 
2.3450008e+3, 2.7423134e+2, -316710.3, -391374.16, -0.031672277, 0.000004628465, -0.00020304721, -316710.3, -64177.67, 0.0, 10.000016, 9.902377 
2.3450008e+3, 2.8412563e+2, -230237.13, -318080.66, 0.03194275, 0.0000046193127, 0.00022939585, -230237.13, -74668.44, 0.0, 10.000016, 9.885431 
2.3450008e+3, 2.9401213e+2, -130531.12, -217764.53, -0.027661502, 0.0000046103296, -0.0002530243, -130531.12, -71849.93, 0.0, 10.000016, 9.8862095 
2.3450008e+3, 3.0392656e+2, -40787.383, -84749.95, 0.033241324, 0.000004602194, 0.00017339243, -40787.383, -40787.383, 0.0, 10.000016, 9.942165 
2.3450008e+3, 3.138706e+2, -39709.406, -82511.04, -0.024973895, 0.000004595323, -0.00005499504, -39709.406, -39709.406, 0.0, 10.000016, 9.943676 
2.3550007e+3, 1.249935e+2, -1719925.6, -1724223.3, 0.024641698, 0.000005030231, 0.000019224151, -1719925.6, -4861.853, 0.0, 10.000017, 9.994319 
2.3550007e+3, 1.3498774e+2, -1622545.4, -1627433.6, -0.053950477, 0.0000049676414, -0.000068483, -1622545.4, -5425.2104, 0.0, 10.000017, 9.993536 
2.3550007e+3, 1.4497527e+2, -1534444.0, -1548144.9, 0.013069271, 0.0000049324954, 0.00007305087, -1534444.0, -15201.652, 0.0, 10.000017, 9.981856 
2.3550007e+3, 1.5495716e+2, -1436716.5, -1450820.6, -0.05761716, 0.0000049239643, -0.000055960918, -1436716.5, -15296.604, 0.0, 10.000017, 9.981325 
2.3550007e+3, 1.649324e+2, -1348665.6, -1371951.1, 0.014461202, 0.0000049088176, 0.000047950696, -1348665.6, -25003.164, 0.0, 10.000017, 9.96924 
2.3550007e+3, 1.7490168e+2, -1250707.9, -1274309.1, -0.05994412, 0.0000048869188, -0.000072915645, -1250707.9, -24744.283, 0.0, 10.000017, 9.968826 
2.3550007e+3, 1.8486431e+2, -1162627.0, -1195719.0, 0.011716613, 0.0000048647266, 0.00006713156, -1162627.0, -34297.332, 0.0, 10.000016, 9.9563875 
2.3550007e+3, 1.9482076e+2, -1064477.4, -1097832.0, -0.05763535, 0.0000048422235, -0.000056844703, -1064477.4, -33720.773, 0.0, 10.000016, 9.956044 
2.3550007e+3, 2.047705e+2, -976313.56, -1019434.06, 0.012682861, 0.0000048240327, 0.00006879683, -976313.56, -43064.543, 0.0, 10.000016, 9.943282 
2.3550007e+3, 2.1471383e+2, -878026.7, -921409.06, -0.05723241, 0.0000048105103, -0.00012611304, -878026.7, -42222.227, 0.0, 10.000016, 9.942942 
2.3550007e+3, 2.2465046e+2, -789740.7, -843144.06, 0.011856746, 0.0000047965164, 0.000121558085, -789740.7, -51315.14, 0.0, 10.000016, 9.9299 
2.3550007e+3, 2.3458041e+2, -691307.3, -744965.75, -0.055234425, 0.0000047819844, -0.000088211535, -691307.3, -50195.46, 0.0, 10.000016, 9.929568 
2.3550007e+3, 2.4450344e+2, -602983.4, -667018.1, 0.0141596105, 0.000004767991, 0.00007525924, -602983.4, -59117.086, 0.0, 10.000016, 9.916128 
2.3550007e+3, 2.5441968e+2, -504230.84, -568342.75, -0.050864793, 0.0000047546378, -0.00010622425, -504230.84, -57543.816, 0.0, 10.000016, 9.916028 
2.3550007e+3, 2.6432887e+2, -415995.56, -490987.44, 0.017031271, 0.000004742567, 0.0001410593, -415995.56, -66418.31, 0.0, 10.000016, 9.901957 
2.3550007e+3, 2.7423134e+2, -316710.47, -391374.44, -0.045225013, 0.000004732122, -0.00020303855, -316710.47, -64177.82, 0.0, 10.000016, 9.902377 
2.3550007e+3, 2.8412563e+2, -230237.27, -318080.94, 0.021821, 0.000004724196, 0.00022940281, -230237.27, -74668.586, 0.0, 10.000016, 9.885431 
2.3550007e+3, 2.9401213e+2, -130531.25, -217764.81, -0.03747489, 0.0000047197054, -0.0002530196, -130531.25, -71850.07, 0.0, 10.000016, 9.8862095 
2.3550007e+3, 3.0392656e+2, -40787.52, -84750.24, 0.02676009, 0.000004710906, 0.0001733984, -40787.52, -40787.52, 0.0, 10.000016, 9.942165 
2.3550007e+3, 3.138706e+2, -39709.543, -82511.33, -0.03106469, 0.000004695686, -0.000054982604, -39709.543, -39709.543, 0.0, 10.000016, 9.943676 
2.3650007e+3, 1.249935e+2, -1719924.4, -1724222.9, 0.056259368, 0.0000051427196, 0.000019272611, -1719924.4, -4860.669, 0.0, 10.000018, 9.994319 
2.3650007e+3, 1.3498774e+2, -1622544.1, -1627433.3, -0.022006337, 0.0000050808508, -0.00006850275, -1622544.1, -5424.05, 0.0, 10.000018, 9.993536 
2.3650007e+3, 1.4497527e+2, -1534442.8, -1548144.4, 0.04506353, 0.000005046343, 0.00007311298, -1534442.8, -15200.497, 0.0, 10.000018, 9.981856 
2.3650007e+3, 1.5495716e+2, -1436715.3, -1450820.3, -0.029231071, 0.0000050383433, -0.000055937, -1436715.3, -15295.463, 0.0, 10.000018, 9.981324 
2.3650007e+3, 1.649324e+2, -1348664.5, -1371950.8, 0.04378405, 0.000005022055, 0.000047959773, -1348664.5, -25002.033, 0.0, 10.000018, 9.96924 
2.3650007e+3, 1.7490168e+2, -1250706.8, -1274308.8, -0.031256847, 0.0000049973064, -0.00007289756, -1250706.8, -24743.15, 0.0, 10.000017, 9.968826 
2.3650007e+3, 1.8486431e+2, -1162625.8, -1195718.6, 0.041568063, 0.000004974371, 0.00006715385, -1162625.8, -34296.2, 0.0, 10.000017, 9.9563875 
2.3650007e+3, 1.9482076e+2, -1064476.3, -1097831.6, -0.03343757, 0.0000049533287, -0.00005682324, -1064476.3, -33719.656, 0.0, 10.000017, 9.956044 
2.3650007e+3, 2.047705e+2, -976312.44, -1019433.7, 0.03609292, 0.000004935094, 0.00006881442, -976312.44, -43063.434, 0.0, 10.000017, 9.943282 
2.3650007e+3, 2.1471384e+2, -878025.56, -921408.7, -0.03538281, 0.000004919898, -0.0001261026, -878025.56, -42221.13, 0.0, 10.000017, 9.942942 
2.3650007e+3, 2.2465046e+2, -789739.56, -843143.7, 0.033738237, 0.0000049056084, 0.000121568046, -789739.56, -51314.047, 0.0, 10.000017, 9.9299 
2.3650007e+3, 2.3458041e+2, -691306.25, -744965.4, -0.037166253, 0.0000048923407, -0.00008819449, -691306.25, -50194.37, 0.0, 10.000017, 9.929568 
2.3650007e+3, 2.4450344e+2, -602982.25, -667017.8, 0.032850314, 0.000004878308, 0.000075276716, -602982.25, -59116.0, 0.0, 10.000017, 9.916128 
2.3650007e+3, 2.5441968e+2, -504229.78, -568342.44, -0.034804013, 0.000004863358, -0.00010621431, -504229.78, -57542.742, 0.0, 10.000017, 9.916028 
2.3650007e+3, 2.6432887e+2, -415994.47, -490987.13, 0.032538626, 0.000004850146, 0.00014106599, -415994.47, -66417.24, 0.0, 10.000017, 9.901957 
2.3650007e+3, 2.7423134e+2, -316709.38, -391374.13, -0.034598067, 0.000004839145, -0.00020302962, -316709.38, -64176.754, 0.0, 10.000017, 9.902377 
2.3650007e+3, 2.8412563e+2, -230236.19, -318080.63, 0.030841608, 0.0000048315023, 0.00022941327, -230236.19, -74667.516, 0.0, 10.000017, 9.88543 
2.3650007e+3, 2.9401213e+2, -130530.19, -217764.5, -0.031222194, 0.000004828442, -0.00025300862, -130530.19, -71849.016, 0.0, 10.000017, 9.8862095 
2.3650007e+3, 3.0392656e+2, -40786.473, -84749.95, 0.034054615, 0.000004819741, 0.00017340732, -40786.473, -40786.473, 0.0, 10.000017, 9.942164 
2.3650007e+3, 3.138706e+2, -39708.5, -82511.04, -0.02495425, 0.000004802633, -0.000054979577, -39708.5, -39708.5, 0.0, 10.000017, 9.943676 
2.3750007e+3, 1.2499351e+2, -1719924.5, -1724223.1, 0.019098246, 0.0000052505743, 0.00001933213, -1719924.5, -4860.8916, 0.0, 10.000018, 9.994318 
2.3750007e+3, 1.3498774e+2, -1622544.4, -1627433.6, -0.059174504, 0.0000052022597, -0.000068536065, -1622544.4, -5424.2676, 0.0, 10.000018, 9.993536 
2.3750007e+3, 1.4497527e+2, -1534442.9, -1548144.8, 0.010415451, 0.000005170759, 0.00007316324, -1534442.9, -15200.703, 0.0, 10.000018, 9.981856 
2.3750007e+3, 1.5495718e+2, -1436715.5, -1450820.5, -0.06387629, 0.0000051551274, -0.00005590369, -1436715.5, -15295.666, 0.0, 10.000018, 9.981324 
2.3750007e+3, 1.649324e+2, -1348664.6, -1371951.1, 0.014090081, 0.000005134139, 0.000047980553, -1348664.6, -25002.236, 0.0, 10.000018, 9.96924 
2.3750007e+3, 1.749017e+2, -1250706.9, -1274309.0, -0.060925577, 0.000005107683, -0.00007288476, -1250706.9, -24743.348, 0.0, 10.000017, 9.968826 
2.3750007e+3, 1.8486433e+2, -1162626.0, -1195718.9, 0.013945457, 0.000005085845, 0.00006716786, -1162626.0, -34296.395, 0.0, 10.000017, 9.956387 
2.3750007e+3, 1.9482076e+2, -1064476.4, -1097831.9, -0.061037272, 0.0000050688327, -0.0000567984, -1064476.4, -33719.848, 0.0, 10.000017, 9.956044 
2.3750007e+3, 2.047705e+2, -976312.56, -1019434.0, 0.012142175, 0.0000050509366, 0.000068838155, -976312.56, -43063.617, 0.0, 10.000017, 9.943282 
2.3750007e+3, 2.1471384e+2, -878025.75, -921409.0, -0.05925907, 0.0000050320805, -0.00012609291, -878025.75, -42221.31, 0.0, 10.000017, 9.942941 
2.3750007e+3, 2.2465046e+2, -789739.7, -843144.0, 0.012997295, 0.0000050161616, 0.00012157651, -789739.7, -51314.223, 0.0, 10.000017, 9.929899 
2.3750007e+3, 2.3458043e+2, -691306.4, -744965.7, -0.057805434, 0.0000050035637, -0.00008817275, -691306.4, -50194.547, 0.0, 10.000017, 9.929568 
2.3750007e+3, 2.4450345e+2, -602982.44, -667018.1, 0.015219656, 0.0000049896094, 0.000075299344, -602982.44, -59116.168, 0.0, 10.000017, 9.916128 
2.3750007e+3, 2.5441968e+2, -504229.9, -568342.75, -0.052291024, 0.000004974027, -0.00010620562, -504229.9, -57542.906, 0.0, 10.000017, 9.916028 
2.3750007e+3, 2.6432887e+2, -415994.63, -490987.44, 0.019472437, 0.000004960483, 0.00014106941, -415994.63, -66417.41, 0.0, 10.000017, 9.901957 
2.3750007e+3, 2.7423134e+2, -316709.53, -391374.44, -0.047368485, 0.0000049495325, -0.00020302042, -316709.53, -64176.914, 0.0, 10.000017, 9.902376 
2.3750007e+3, 2.8412563e+2, -230236.33, -318080.94, 0.019697852, 0.0000049412315, 0.00022942723, -230236.33, -74667.67, 0.0, 10.000017, 9.88543 
2.3750007e+3, 2.9401213e+2, -130530.33, -217764.8, -0.042220276, 0.0000049365394, -0.0002529914, -130530.33, -71849.164, 0.0, 10.000017, 9.886209 
2.3750007e+3, 3.0392656e+2, -40786.613, -84750.25, 0.027003853, 0.0000049287, 0.00017341916, -40786.613, -40786.613, 0.0, 10.000017, 9.942164 
2.3750007e+3, 3.138706e+2, -39708.64, -82511.336, -0.031542413, 0.000004916162, -0.000054985954, -39708.64, -39708.64, 0.0, 10.000017, 9.943676 
2.3850007e+3, 1.2499351e+2, -1719923.3, -1724222.8, 0.06327949, 0.0000053659855, 0.000019371086, -1719923.3, -4859.659, 0.0, 10.000019, 9.994318 
2.3850007e+3, 1.3498776e+2, -1622543.1, -1627433.1, -0.01766388, 0.0000053231743, -0.00006856184, -1622543.1, -5423.0576, 0.0, 10.000019, 9.993536 
2.3850007e+3, 1.4497529e+2, -1534441.6, -1548144.3, 0.051752977, 0.0000052923165, 0.0000732268, -1534441.6, -15199.502, 0.0, 10.000019, 9.981856 
2.3850007e+3, 1.5495718e+2, -1436714.3, -1450820.1, -0.029871788, 0.0000052724117, -0.00005588122, -1436714.3, -15294.468, 0.0, 10.000019, 9.981324 
2.3850007e+3, 1.649324e+2, -1348663.5, -1371950.6, 0.04676495, 0.0000052490586, 0.000047988957, -1348663.5, -25001.041, 0.0, 10.000018, 9.969239 
2.3850007e+3, 1.749017e+2, -1250705.6, -1274308.6, -0.03213552, 0.000005222187, -0.00007286281, -1250705.6, -24742.164, 0.0, 10.000018, 9.968826 
2.3850007e+3, 1.8486433e+2, -1162624.8, -1195718.5, 0.041663814, 0.0000052009477, 0.00006719295, -1162624.8, -34295.22, 0.0, 10.000018, 9.956387 
2.3850007e+3, 1.9482076e+2, -1064475.3, -1097831.5, -0.036028385, 0.000005185597, -0.000056781057, -1064475.3, -33718.684, 0.0, 10.000018, 9.956043 
2.3850007e+3, 2.0477052e+2, -976311.4, -1019433.6, 0.03735255, 0.000005167791, 0.000068853085, -976311.4, -43062.457, 0.0, 10.000018, 9.943282 
2.3850007e+3, 2.1471384e+2, -878024.56, -921408.6, -0.038264047, 0.000005147324, -0.00012607458, -878024.56, -42220.156, 0.0, 10.000018, 9.942941 
2.3850007e+3, 2.2465047e+2, -789738.56, -843143.6, 0.034128264, 0.000005129826, 0.00012159434, -789738.56, -51313.08, 0.0, 10.000018, 9.929899 
2.3850007e+3, 2.3458043e+2, -691305.25, -744965.4, -0.039621018, 0.0000051156862, -0.000088159795, -691305.25, -50193.406, 0.0, 10.000018, 9.929568 
2.3850007e+3, 2.4450345e+2, -602981.25, -667017.75, 0.03235417, 0.000005101625, 0.00007531106, -602981.25, -59115.035, 0.0, 10.000018, 9.916127 
2.3850007e+3, 2.5441968e+2, -504228.78, -568342.4, -0.040169418, 0.00000508765, -0.00010619079, -504228.78, -57541.777, 0.0, 10.000018, 9.916028 
2.3850007e+3, 2.6432887e+2, -415993.47, -490987.1, 0.032258272, 0.000005074946, 0.00014108393, -415993.47, -66416.29, 0.0, 10.000018, 9.901957 
2.3850007e+3, 2.7423134e+2, -316708.4, -391374.1, -0.034398943, 0.0000050638528, -0.00020301057, -316708.4, -64175.81, 0.0, 10.000018, 9.902376 
2.3850007e+3, 2.8412563e+2, -230235.22, -318080.6, 0.034366958, 0.0000050544395, 0.00022943369, -230235.22, -74666.57, 0.0, 10.000018, 9.88543 
2.3850007e+3, 2.9401213e+2, -130529.21, -217764.48, -0.03114923, 0.0000050473122, -0.0002529865, -130529.21, -71848.06, 0.0, 10.000018, 9.886209 
2.3850007e+3, 3.0392656e+2, -40785.516, -84749.945, 0.037449557, 0.000005039317, 0.00017342326, -40785.516, -40785.516, 0.0, 10.000018, 9.942164 
2.3850007e+3, 3.138706e+2, -39707.547, -82511.03, -0.023284543, 0.0000050300196, -0.000054981447, -39707.547, -39707.547, 0.0, 10.000018, 9.943676 
2.3950008e+3, 1.2499352e+2, -1719923.5, -1724223.1, 0.022038428, 0.000005488952, 0.000019389523, -1719923.5, -4859.8896, 0.0, 10.000019, 9.994318 
2.3950008e+3, 1.3498776e+2, -1622543.3, -1627433.5, -0.058913168, 0.000005443595, -0.000068580084, -1622543.3, -5423.2837, 0.0, 10.000019, 9.993536 
2.3950008e+3, 1.4497529e+2, -1534441.9, -1548144.6, 0.0172738, 0.000005411017, 0.00007330367, -1534441.9, -15199.728, 0.0, 10.000019, 9.981855 
2.3950008e+3, 1.5495718e+2, -1436714.4, -1450820.5, -0.06434098, 0.000005390196, -0.000055869583, -1436714.4, -15294.688, 0.0, 10.000019, 9.981324 
2.3950008e+3, 1.6493241e+2, -1348663.6, -1371951.0, 0.015664613, 0.000005366813, 0.000047984984, -1348663.6, -25001.254, 0.0, 10.000018, 9.969239 
2.3950008e+3, 1.749017e+2, -1250705.9, -1274309.0, -0.063219175, 0.000005340817, -0.0000728317, -1250705.9, -24742.373, 0.0, 10.000018, 9.968825 
2.3950008e+3, 1.8486433e+2, -1162625.0, -1195718.9, 0.012779275, 0.000005319679, 0.00006722913, -1162625.0, -34295.42, 0.0, 10.000018, 9.956387 
2.3950008e+3, 1.9482076e+2, -1064475.4, -1097831.9, -0.064888164, 0.00000530362, -0.00005677121, -1064475.4, -33718.883, 0.0, 10.000018, 9.956043 
2.3950008e+3, 2.0477052e+2, -976311.56, -1019433.94, 0.011946907, 0.0000052856567, 0.00006885923, -976311.56, -43062.652, 0.0, 10.000018, 9.943282 
2.3950008e+3, 2.1471384e+2, -878024.75, -921408.94, -0.063599356, 0.0000052656283, -0.00012604764, -878024.75, -42220.348, 0.0, 10.000018, 9.942941 
2.3950008e+3, 2.2465047e+2, -789738.7, -843143.94, 0.013139388, 0.000005246602, 0.00012162154, -789738.7, -51313.266, 0.0, 10.000018, 9.929899 
2.3950008e+3, 2.3458043e+2, -691305.4, -744965.7, -0.0604685, 0.000005228708, -0.000088155626, -691305.4, -50193.59, 0.0, 10.000018, 9.929568 
2.3950008e+3, 2.4450345e+2, -602981.44, -667018.06, 0.014232569, 0.000005214355, 0.00007531186, -602981.44, -59115.215, 0.0, 10.000018, 9.916127 
2.3950008e+3, 2.5441968e+2, -504228.94, -568342.75, -0.05816082, 0.000005204228, -0.00010616983, -504228.94, -57541.953, 0.0, 10.000018, 9.916027 
2.3950008e+3, 2.6432887e+2, -415993.63, -490987.4, 0.016833588, 0.000005193534, 0.00014110954, -415993.63, -66416.45, 0.0, 10.000018, 9.901957 
2.3950008e+3, 2.7423134e+2, -316708.56, -391374.4, -0.049652636, 0.000005182105, -0.00020300006, -316708.56, -64175.97, 0.0, 10.000018, 9.902376 
2.3950008e+3, 2.8412563e+2, -230235.38, -318080.9, 0.024026994, 0.000005171126, 0.00022943268, -230235.38, -74666.734, 0.0, 10.000018, 9.88543 
2.3950008e+3, 2.9401213e+2, -130529.36, -217764.78, -0.041047283, 0.0000051607612, -0.00025299398, -130529.36, -71848.22, 0.0, 10.000018, 9.886209 
2.3950008e+3, 3.0392656e+2, -40785.66, -84750.25, 0.029483289, 0.000005151593, 0.0001734196, -40785.66, -40785.66, 0.0, 10.000018, 9.942164 
2.3950008e+3, 3.138706e+2, -39707.695, -82511.336, -0.031025305, 0.000005144205, -0.000054966065, -39707.695, -39707.695, 0.0, 10.000018, 9.943675 
2.4050008e+3, 1.24993525e+2, -1719922.1, -1724222.6, 0.06509995, 0.0000056177396, 0.00001943281, -1719922.1, -4858.6216, 0.0, 10.00002, 9.994318 
2.4050008e+3, 1.3498776e+2, -1622541.9, -1627433.0, -0.023302998, 0.0000055636324, -0.00006860275, -1622541.9, -5422.0073, 0.0, 10.00002, 9.993535 
2.4050008e+3, 1.4497529e+2, -1534440.5, -1548144.3, 0.0527467, 0.0000055283604, 0.00007337429, -1534440.5, -15198.448, 0.0, 10.00002, 9.981855 
2.4050008e+3, 1.5495718e+2, -1436713.1, -1450820.0, -0.02962328, 0.0000055109103, -0.00005584604, -1436713.1, -15293.426, 0.0, 10.00002, 9.981324 
2.4050008e+3, 1.6493241e+2, -1348662.4, -1371950.6, 0.05080324, 0.000005489254, 0.00004799235, -1348662.4, -25000.006, 0.0, 10.000019, 9.969239 
2.4050008e+3, 1.749017e+2, -1250704.5, -1274308.5, -0.03392534, 0.0000054633056, -0.00007280894, -1250704.5, -24741.139, 0.0, 10.000019, 9.968825 
2.4050008e+3, 1.8486433e+2, -1162623.6, -1195718.4, 0.04135122, 0.0000054411967, 0.00006725528, -1162623.6, -34294.195, 0.0, 10.000019, 9.956387 
2.4050008e+3, 1.9482078e+2, -1064474.1, -1097831.5, -0.037538793, 0.000005423101, -0.00005675424, -1064474.1, -33717.664, 0.0, 10.000019, 9.956043 
2.4050008e+3, 2.0477052e+2, -976310.3, -1019433.56, 0.040459275, 0.000005404457, 0.00006887391, -976310.3, -43061.44, 0.0, 10.000019, 9.943281 
2.4050008e+3, 2.1471384e+2, -878023.5, -921408.56, -0.040156104, 0.0000053852173, -0.00012602778, -878023.5, -42219.14, 0.0, 10.000019, 9.942941 
2.4050008e+3, 2.2465047e+2, -789737.5, -843143.56, 0.036301754, 0.000005366029, 0.000121641104, -789737.5, -51312.063, 0.0, 10.000019, 9.929899 
2.4050008e+3, 2.3458043e+2, -691304.2, -744965.3, -0.039676867, 0.000005346896, -0.00008814256, -691304.2, -50192.4, 0.0, 10.000019, 9.929567 
2.4050008e+3, 2.4450345e+2, -602980.25, -667017.7, 0.035662133, 0.000005332281, 0.00007532168, -602980.25, -59114.03, 0.0, 10.000019, 9.916127 
2.4050008e+3, 2.5441968e+2, -504227.75, -568342.4, -0.03880943, 0.000005323058, -0.00010615938, -504227.75, -57540.78, 0.0, 10.000019, 9.916027 
2.4050008e+3, 2.6432887e+2, -415992.44, -490987.03, 0.035530925, 0.000005312262, 0.00014112046, -415992.44, -66415.28, 0.0, 10.000019, 9.901956 
2.4050008e+3, 2.7423134e+2, -316707.38, -391374.06, -0.037368357, 0.0000052994487, -0.00020298891, -316707.38, -64174.8, 0.0, 10.000019, 9.902376 
2.4050008e+3, 2.8412563e+2, -230234.19, -318080.56, 0.035446096, 0.0000052881996, 0.00022944305, -230234.19, -74665.57, 0.0, 10.000019, 9.88543 
2.4050008e+3, 2.9401213e+2, -130528.2, -217764.45, -0.031928215, 0.0000052790965, -0.00025298583, -130528.2, -71847.06, 0.0, 10.000019, 9.886209 
2.4050008e+3, 3.0392656e+2, -40784.516, -84749.94, 0.036893614, 0.0000052692026, 0.00017342654, -40784.516, -40784.516, 0.0, 10.000019, 9.942163 
2.4050008e+3, 3.138706e+2, -39706.543, -82511.02, -0.031740565, 0.0000052581254, -0.000054958895, -39706.543, -39706.543, 0.0, 10.000019, 9.943675 
2.4150008e+3, 1.24993525e+2, -1719922.4, -1724223.0, 0.026948718, 0.0000057523466, 0.000019500982, -1719922.4, -4858.8716, 0.0, 10.00002, 9.994317 
2.4150008e+3, 1.3498776e+2, -1622542.1, -1627433.4, -0.061460827, 0.000005683288, -0.00006862984, -1622542.1, -5422.253, 0.0, 10.00002, 9.993535 
2.4150008e+3, 1.4497529e+2, -1534440.8, -1548144.5, 0.015455666, 0.000005644347, 0.00007343868, -1534440.8, -15198.678, 0.0, 10.00002, 9.981855 
2.4150008e+3, 1.5495719e+2, -1436713.3, -1450820.4, -0.06691402, 0.0000056345534, -0.000055810593, -1436713.3, -15293.65, 0.0, 10.00002, 9.981323 
2.4150008e+3, 1.6493241e+2, -1348662.5, -1371950.9, 0.017227478, 0.0000056163794, 0.00004801105, -1348662.5, -25000.232, 0.0, 10.000019, 9.969239 
2.4150008e+3, 1.7490171e+2, -1250704.8, -1274308.9, -0.06748205, 0.0000055896517, -0.00007279452, -1250704.8, -24741.361, 0.0, 10.000019, 9.968825 
2.4150008e+3, 1.8486433e+2, -1162623.9, -1195718.8, 0.011088423, 0.0000055654996, 0.0000672714, -1162623.9, -34294.402, 0.0, 10.000019, 9.956386 
2.4150008e+3, 1.9482078e+2, -1064474.4, -1097831.8, -0.06776481, 0.0000055440387, -0.00005673015, -1064474.4, -33717.867, 0.0, 10.000019, 9.956043 
2.4150008e+3, 2.0477052e+2, -976310.5, -1019433.9, 0.015075226, 0.000005524192, 0.00006889713, -976310.5, -43061.65, 0.0, 10.000019, 9.943281 
2.4150008e+3, 2.1471384e+2, -878023.7, -921408.9, -0.065440856, 0.0000055060914, -0.000126015, -878023.7, -42219.344, 0.0, 10.000019, 9.942941 
2.4150008e+3, 2.2465047e+2, -789737.6, -843143.94, 0.013678062, 0.000005488107, 0.000121653036, -789737.6, -51312.254, 0.0, 10.000019, 9.929898 
2.4150008e+3, 2.3458043e+2, -691304.3, -744965.6, -0.062214643, 0.0000054702505, -0.000088120585, -691304.3, -50192.586, 0.0, 10.000019, 9.929567 
2.4150008e+3, 2.4450345e+2, -602980.4, -667018.06, 0.016178098, 0.000005455401, 0.00007534051, -602980.4, -59114.22, 0.0, 10.000019, 9.916127 
2.4150008e+3, 2.5441968e+2, -504227.9, -568342.7, -0.05814745, 0.0000054441402, -0.00010615944, -504227.9, -57540.96, 0.0, 10.000019, 9.916027 
2.4150008e+3, 2.6432887e+2, -415992.6, -490987.38, 0.020432955, 0.0000054311317, 0.00014111667, -415992.6, -66415.46, 0.0, 10.000019, 9.901956 
2.4150008e+3, 2.7423134e+2, -316707.53, -391374.38, -0.052183144, 0.000005415885, -0.0002029771, -316707.53, -64174.977, 0.0, 10.000019, 9.902376 
2.4150008e+3, 2.8412563e+2, -230234.34, -318080.88, 0.023749601, 0.0000054056613, 0.00022946479, -230234.34, -74665.734, 0.0, 10.000019, 9.885429 
2.4150008e+3, 2.9401213e+2, -130528.35, -217764.77, -0.0433448, 0.0000054023176, -0.000252962, -130528.35, -71847.23, 0.0, 10.000019, 9.886209 
2.4150008e+3, 3.0392656e+2, -40784.68, -84750.27, 0.03056881, 0.0000053921453, 0.00017344409, -40784.68, -40784.68, 0.0, 10.000019, 9.942163 
2.4150008e+3, 3.138706e+2, -39706.703, -82511.36, -0.03746799, 0.0000053717818, -0.000054959935, -39706.703, -39706.703, 0.0, 10.000019, 9.943675 
2.4250007e+3, 1.2499353e+2, -1719921.0, -1724222.5, 0.06134598, 0.000005882122, 0.000019557254, -1719921.0, -4857.5303, 0.0, 10.000021, 9.994317 
2.4250007e+3, 1.3498777e+2, -1622540.8, -1627433.0, -0.024960916, 0.000005811741, -0.000068654466, -1622540.8, -5420.9253, 0.0, 10.000021, 9.993535 
2.4250007e+3, 1.449753e+2, -1534439.4, -1548144.1, 0.051702533, 0.000005771713, 0.00007350999, -1534439.4, -15197.357, 0.0, 10.000021, 9.981855 
2.4250007e+3, 1.5495719e+2, -1436712.0, -1450820.0, -0.03633344, 0.000005761039, -0.000055781737, -1436712.0, -15292.34, 0.0, 10.000021, 9.981323 
2.4250007e+3, 1.6493241e+2, -1348661.1, -1371950.5, 0.048920732, 0.0000057430448, 0.00004802207, -1348661.1, -24998.93, 0.0, 10.00002, 9.969238 
2.4250007e+3, 1.7490171e+2, -1250703.4, -1274308.5, -0.034064952, 0.0000057175785, -0.00007277617, -1250703.4, -24740.076, 0.0, 10.00002, 9.968825 
2.4250007e+3, 1.8486434e+2, -1162622.5, -1195718.4, 0.04651518, 0.000005692451, 0.00006729439, -1162622.5, -34293.125, 0.0, 10.00002, 9.956386 
2.4250007e+3, 1.9482078e+2, -1064473.0, -1097831.4, -0.041213393, 0.0000056676727, -0.000056705347, -1064473.0, -33716.586, 0.0, 10.00002, 9.956043 
2.4250007e+3, 2.0477052e+2, -976309.2, -1019433.44, 0.03939404, 0.000005646629, 0.00006891895, -976309.2, -43060.37, 0.0, 10.00002, 9.943281 
2.4250007e+3, 2.1471386e+2, -878022.4, -921408.5, -0.041620627, 0.0000056296262, -0.00012600137, -878022.4, -42218.082, 0.0, 10.00002, 9.94294 
2.4250007e+3, 2.2465047e+2, -789736.4, -843143.5, 0.03779351, 0.000005613019, 0.00012166565, -789736.4, -51311.008, 0.0, 10.00002, 9.929898 
2.4250007e+3, 2.3458043e+2, -691303.06, -744965.25, -0.044503566, 0.000005596853, -0.00008810087, -691303.06, -50191.348, 0.0, 10.00002, 9.929567 
2.4250007e+3, 2.4450345e+2, -602979.1, -667017.7, 0.03404151, 0.000005580994, 0.000075360476, -602979.1, -59112.98, 0.0, 10.00002, 9.916127 
2.4250007e+3, 2.5441968e+2, -504226.66, -568342.3, -0.04122672, 0.0000055654964, -0.00010614743, -504226.66, -57539.727, 0.0, 10.00002, 9.916027 
2.4250007e+3, 2.6432887e+2, -415991.38, -490987.0, 0.03806337, 0.0000055508713, 0.00014112481, -415991.38, -66414.234, 0.0, 10.00002, 9.901956 
2.4250007e+3, 2.7423137e+2, -316706.3, -391374.03, -0.039712775, 0.00000553735, -0.00020296761, -316706.3, -64173.758, 0.0, 10.00002, 9.902375 
2.4250007e+3, 2.8412563e+2, -230233.13, -318080.53, 0.0339963, 0.0000055279456, 0.00022947662, -230233.13, -74664.516, 0.0, 10.00002, 9.885429 
2.4250007e+3, 2.9401213e+2, -130527.13, -217764.42, -0.037994094, 0.0000055241667, -0.0002529465, -130527.13, -71846.016, 0.0, 10.00002, 9.886208 
2.4250007e+3, 3.0392656e+2, -40783.48, -84749.94, 0.03854079, 0.000005514243, 0.00017345627, -40783.48, -40783.48, 0.0, 10.00002, 9.942163 
2.4250007e+3, 3.138706e+2, -39705.52, -82511.04, -0.024267074, 0.0000054951547, -0.00005496138, -39705.52, -39705.52, 0.0, 10.00002, 9.943675 
2.4350007e+3, 1.2499354e+2, -1719921.1, -1724222.9, 0.021055594, 0.0000060070674, 0.000019601679, -1719921.1, -4857.777, 0.0, 10.000021, 9.994317 
2.4350007e+3, 1.3498777e+2, -1622541.0, -1627433.4, -0.065259404, 0.0000059489903, -0.000068676636, -1622541.0, -5421.168, 0.0, 10.000021, 9.993535 
2.4350007e+3, 1.449753e+2, -1534439.6, -1548144.5, 0.013224682, 0.000005910455, 0.00007358824, -1534439.6, -15197.602, 0.0, 10.000021, 9.981854 
2.4350007e+3, 1.5495719e+2, -1436712.1, -1450820.4, -0.074808985, 0.0000058903665, -0.000055759472, -1436712.1, -15292.578, 0.0, 10.000021, 9.981323 
2.4350007e+3, 1.6493243e+2, -1348661.4, -1371950.9, 0.012686258, 0.00000586925, 0.000048025413, -1348661.4, -24999.154, 0.0, 10.00002, 9.969238 
2.4350007e+3, 1.7490171e+2, -1250703.6, -1274308.9, -0.07028927, 0.000005847087, -0.00007275389, -1250703.6, -24740.297, 0.0, 10.00002, 9.968824 
2.4350007e+3, 1.8486434e+2, -1162622.8, -1195718.8, 0.017664902, 0.0000058220508, 0.00006732425, -1162622.8, -34293.35, 0.0, 10.00002, 9.956386 
2.4350007e+3, 1.9482078e+2, -1064473.3, -1097831.8, -0.06997891, 0.0000057940038, -0.000056679826, -1064473.3, -33716.81, 0.0, 10.00002, 9.956042 
2.4350007e+3, 2.0477054e+2, -976309.4, -1019433.8, 0.010887088, 0.000005771767, 0.00006893937, -976309.4, -43060.58, 0.0, 10.00002, 9.943281 
2.4350007e+3, 2.1471386e+2, -878022.56, -921408.8, -0.0701234, 0.0000057558213, -0.00012598687, -878022.56, -42218.29, 0.0, 10.00002, 9.94294 
2.4350007e+3, 2.2465047e+2, -789736.56, -843143.9, 0.013659148, 0.0000057407633, 0.00012167896, -789736.56, -51311.215, 0.0, 10.00002, 9.929898 
2.4350007e+3, 2.3458044e+2, -691303.25, -744965.56, -0.068495765, 0.0000057267043, -0.000088083405, -691303.25, -50191.55, 0.0, 10.00002, 9.929567 
2.4350007e+3, 2.4450345e+2, -602979.3, -667018.0, 0.015238462, 0.0000057090597, 0.00007538156, -602979.3, -59113.17, 0.0, 10.00002, 9.916126 
2.4350007e+3, 2.544197e+2, -504226.8, -568342.6, -0.059782024, 0.0000056871268, -0.000106123356, -504226.8, -57539.91, 0.0, 10.00002, 9.916027 
2.4350007e+3, 2.6432887e+2, -415991.53, -490987.34, 0.022510085, 0.000005671481, 0.00014114488, -415991.53, -66414.43, 0.0, 10.00002, 9.901956 
2.4350007e+3, 2.7423137e+2, -316706.47, -391374.38, -0.055065114, 0.000005663842, -0.00020296044, -316706.47, -64173.945, 0.0, 10.00002, 9.902375 
2.4350007e+3, 2.8412563e+2, -230233.28, -318080.88, 0.021517841, 0.000005655052, 0.00022947854, -230233.28, -74664.695, 0.0, 10.00002, 9.885429 
2.4350007e+3, 2.9401213e+2, -130527.3, -217764.75, -0.05021459, 0.0000056446447, -0.00025293935, -130527.3, -71846.19, 0.0, 10.00002, 9.886208 
2.4350007e+3, 3.0392656e+2, -40783.633, -84750.26, 0.029114136, 0.000005635497, 0.0001734631, -40783.633, -40783.633, 0.0, 10.00002, 9.942163 
2.4350007e+3, 3.138706e+2, -39705.67, -82511.35, -0.033367448, 0.0000056282415, -0.00005496323, -39705.67, -39705.67, 0.0, 10.00002, 9.943675 
2.4450007e+3, 1.2499354e+2, -1719919.6, -1724222.4, 0.075099, 0.0000061361484, 0.000019640842, -1719919.6, -4856.3613, 0.0, 10.000022, 9.994317 
2.4450007e+3, 1.3498777e+2, -1622539.5, -1627432.9, -0.023217633, 0.000006084757, -0.00006870089, -1622539.5, -5419.7856, 0.0, 10.000022, 9.993534 
2.4450007e+3, 1.449753e+2, -1534438.1, -1548144.0, 0.054651856, 0.000006048116, 0.00007366825, -1534438.1, -15196.229, 0.0, 10.000022, 9.981854 
2.4450007e+3, 1.549572e+2, -1436710.8, -1450819.9, -0.032054424, 0.000006025071, -0.000055739438, -1436710.8, -15291.215, 0.0, 10.000022, 9.981323 
2.4450007e+3, 1.6493243e+2, -1348660.0, -1371950.4, 0.054128513, 0.0000060005527, 0.000048027843, -1348660.0, -24997.797, 0.0, 10.000021, 9.969238 
2.4450007e+3, 1.7490171e+2, -1250702.3, -1274308.4, -0.040676948, 0.0000059745344, -0.000072725794, -1250702.3, -24738.936, 0.0, 10.000021, 9.968824 
2.4450007e+3, 1.8486434e+2, -1162621.4, -1195718.3, 0.045969464, 0.0000059500453, 0.000067358, -1162621.4, -34292.0, 0.0, 10.000021, 9.956386 
2.4450007e+3, 1.9482079e+2, -1064471.9, -1097831.3, -0.03994003, 0.000005927151, -0.000056661374, -1064471.9, -33715.484, 0.0, 10.000021, 9.956042 
2.4450007e+3, 2.0477054e+2, -976308.0, -1019433.4, 0.042407207, 0.000005905475, 0.00006895314, -976308.0, -43059.26, 0.0, 10.000021, 9.94328 
2.4450007e+3, 2.1471386e+2, -878021.2, -921408.44, -0.044814177, 0.0000058851165, -0.0001259663, -878021.2, -42216.973, 0.0, 10.000021, 9.94294 
2.4450007e+3, 2.2465049e+2, -789735.25, -843143.44, 0.039023925, 0.000005867717, 0.0001216991, -789735.25, -51309.9, 0.0, 10.000021, 9.929898 
2.4450007e+3, 2.3458044e+2, -691301.94, -744965.2, -0.043603115, 0.000005853663, -0.00008807191, -691301.94, -50190.246, 0.0, 10.000021, 9.929566 
2.4450007e+3, 2.4450345e+2, -602978.0, -667017.6, 0.03902946, 0.000005836671, 0.00007539229, -602978.0, -59111.875, 0.0, 10.000021, 9.916126 
2.4450007e+3, 2.544197e+2, -504225.5, -568342.25, -0.047563594, 0.000005816162, -0.000106103995, -504225.5, -57538.63, 0.0, 10.000021, 9.916026 
2.4450007e+3, 2.6432887e+2, -415990.25, -490986.97, 0.03348751, 0.0000058008195, 0.00014116506, -415990.25, -66413.15, 0.0, 10.000021, 9.901955 
2.4450007e+3, 2.7423137e+2, -316705.2, -391374.0, -0.03929654, 0.0000057920543, -0.00020294939, -316705.2, -64172.676, 0.0, 10.000021, 9.902375 
2.4450007e+3, 2.8412563e+2, -230232.02, -318080.5, 0.042548515, 0.000005782352, 0.00022948263, -230232.02, -74663.44, 0.0, 10.000021, 9.885429 
2.4450007e+3, 2.9401213e+2, -130526.03, -217764.39, -0.03166499, 0.0000057713314, -0.00025293915, -130526.03, -71844.94, 0.0, 10.000021, 9.886208 
2.4450007e+3, 3.0392656e+2, -40782.38, -84749.914, 0.04369379, 0.0000057619004, 0.00017346494, -40782.38, -40782.38, 0.0, 10.000021, 9.942163 
2.4450007e+3, 3.138706e+2, -39704.414, -82511.01, -0.03133416, 0.000005754852, -0.000054951568, -39704.414, -39704.414, 0.0, 10.000021, 9.943674 
2.455001e+3, 1.2499355e+2, -1719919.9, -1724222.9, 0.028263722, 0.0000062693643, 0.000019674802, -1719919.9, -4856.6387, 0.0, 10.000022, 9.994316 
2.455001e+3, 1.3498779e+2, -1622539.8, -1627433.3, -0.07006122, 0.0000062190416, -0.00006872721, -1622539.8, -5420.058, 0.0, 10.000022, 9.993534 
2.455001e+3, 1.4497532e+2, -1534438.4, -1548144.4, 0.0151221175, 0.0000061846963, 0.00007375001, -1534438.4, -15196.472, 0.0, 10.000022, 9.981854 
2.455001e+3, 1.549572e+2, -1436710.9, -1450820.3, -0.07157449, 0.000006165151, -0.000055721626, -1436710.9, -15291.453, 0.0, 10.000022, 9.981322 
2.4550007e+3, 1.6493243e+2, -1348660.1, -1371950.8, 0.019746337, 0.000006136953, 0.00004802936, -1348660.1, -24998.049, 0.0, 10.000021, 9.969238 
2.4550007e+3, 1.7490172e+2, -1250702.4, -1274308.8, -0.07503259, 0.000006099923, -0.00007269189, -1250702.4, -24739.184, 0.0, 10.000021, 9.968824 
2.4550007e+3, 1.8486434e+2, -1162621.5, -1195718.6, 0.011805304, 0.0000060764355, 0.000067395646, -1162621.5, -34292.227, 0.0, 10.000021, 9.956386 
2.4550007e+3, 1.9482079e+2, -1064472.0, -1097831.6, -0.07410324, 0.0000060671127, -0.00005664998, -1064472.0, -33715.707, 0.0, 10.000021, 9.956042 
2.4550007e+3, 2.0477054e+2, -976308.2, -1019433.75, 0.014906014, 0.00000604775, 0.00006896025, -976308.2, -43059.484, 0.0, 10.000021, 9.94328 
2.4550007e+3, 2.1471386e+2, -878021.4, -921408.75, -0.072178885, 0.000006017511, -0.00012593964, -878021.4, -42217.19, 0.0, 10.000021, 9.94294 
2.4550007e+3, 2.2465049e+2, -789735.4, -843143.8, 0.014369377, 0.00000599388, 0.000121726065, -789735.4, -51310.11, 0.0, 10.000021, 9.929897 
2.4550007e+3, 2.3458044e+2, -691302.1, -744965.56, -0.0681702, 0.000005977731, -0.00008806638, -691302.1, -50190.45, 0.0, 10.000021, 9.929566 
2.4550007e+3, 2.4450347e+2, -602978.2, -667018.0, 0.018186545, 0.000005963829, 0.00007539264, -602978.2, -59112.086, 0.0, 10.000021, 9.916126 
2.4550007e+3, 2.544197e+2, -504225.7, -568342.6, -0.06822786, 0.0000059526005, -0.00010608935, -504225.7, -57538.836, 0.0, 10.000021, 9.916026 
2.4550007e+3, 2.6432887e+2, -415990.4, -490987.3, 0.016382188, 0.0000059388835, 0.00014118536, -415990.4, -66413.33, 0.0, 10.000021, 9.901955 
2.4550007e+3, 2.7423137e+2, -316705.34, -391374.3, -0.056165263, 0.000005921987, -0.00020293448, -316705.34, -64172.855, 0.0, 10.000021, 9.902375 
2.4550007e+3, 2.8412563e+2, -230232.19, -318080.84, 0.030139418, 0.0000059098465, 0.00022948891, -230232.19, -74663.62, 0.0, 10.000021, 9.885428 
2.4550007e+3, 2.9401216e+2, -130526.195, -217764.75, -0.043673225, 0.0000059042245, -0.0002529459, -130526.195, -71845.12, 0.0, 10.000021, 9.886208 
2.4550007e+3, 3.0392656e+2, -40782.555, -84750.28, 0.035391625, 0.000005893453, 0.00017346178, -40782.555, -40782.555, 0.0, 10.000021, 9.9421625 
2.4550007e+3, 3.138706e+2, -39704.594, -82511.375, -0.039202042, 0.000005874988, -0.000054926397, -39704.594, -39704.594, 0.0, 10.000021, 9.943674 
2.465001e+3, 1.24993555e+2, -1719918.4, -1724222.3, 0.07117662, 0.000006412057, 0.00001973085, -1719918.4, -4855.183, 0.0, 10.000023, 9.994316 
2.465001e+3, 1.3498779e+2, -1622538.3, -1627432.8, -0.024106134, 0.000006355712, -0.000068762325, -1622538.3, -5418.6035, 0.0, 10.000023, 9.993534 
2.465001e+3, 1.4497532e+2, -1534436.9, -1548143.9, 0.06206721, 0.0000063193997, 0.000073823314, -1534436.9, -15195.017, 0.0, 10.000023, 9.981854 
2.465001e+3, 1.549572e+2, -1436709.5, -1450819.8, -0.037315436, 0.000006301938, -0.000055689256, -1436709.5, -15290.014, 0.0, 10.000023, 9.981322 
2.465001e+3, 1.6493243e+2, -1348658.8, -1371950.3, 0.0540952, 0.00000627474, 0.000048044632, -1348658.8, -24996.625, 0.0, 10.000023, 9.969237 
2.465001e+3, 1.7490172e+2, -1250701.0, -1274308.3, -0.038048998, 0.000006237604, -0.00007266935, -1250701.0, -24737.777, 0.0, 10.000022, 9.968824 
2.465001e+3, 1.8486437e+2, -1162620.1, -1195718.1, 0.048016462, 0.000006213059, 0.00006742017, -1162620.1, -34290.82, 0.0, 10.000022, 9.956385 
2.465001e+3, 1.9482079e+2, -1064470.6, -1097831.3, -0.044806596, 0.0000062016834, -0.000056628982, -1064470.6, -33714.313, 0.0, 10.000022, 9.956042 
2.465001e+3, 2.0477054e+2, -976306.8, -1019433.3, 0.044979963, 0.0000061822766, 0.000068979876, -976306.8, -43058.1, 0.0, 10.000022, 9.94328 
2.465001e+3, 2.1471386e+2, -878020.0, -921408.3, -0.04601485, 0.0000061541677, -0.00012591905, -878020.0, -42215.82, 0.0, 10.000022, 9.942939 
2.4650007e+3, 2.2465049e+2, -789734.0, -843143.4, 0.03930401, 0.0000061298283, 0.00012174674, -789734.0, -51308.742, 0.0, 10.000022, 9.929897 
2.4650007e+3, 2.3458044e+2, -691300.7, -744965.1, -0.049119823, 0.0000061097544, -0.00008804662, -691300.7, -50189.086, 0.0, 10.000022, 9.929566 
2.4650007e+3, 2.4450347e+2, -602976.8, -667017.56, 0.039192032, 0.0000060950615, 0.00007540826, -602976.8, -59110.73, 0.0, 10.000022, 9.916126 
2.4650007e+3, 2.544197e+2, -504224.34, -568342.25, -0.04185958, 0.0000060867865, -0.000106081745, -504224.34, -57537.496, 0.0, 10.000022, 9.916026 
2.4650007e+3, 2.6432887e+2, -415989.06, -490986.9, 0.043623384, 0.000006073912, 0.0001411918, -415989.06, -66412.0, 0.0, 10.000022, 9.901955 
2.4650007e+3, 2.7423137e+2, -316704.0, -391373.94, -0.043998275, 0.000006055164, -0.00020292045, -316704.0, -64171.527, 0.0, 10.000022, 9.902374 
2.4650007e+3, 2.8412563e+2, -230230.84, -318080.47, 0.036112033, 0.0000060421216, 0.0002295062, -230230.84, -74662.29, 0.0, 10.000022, 9.885428 
2.4650007e+3, 2.9401216e+2, -130524.87, -217764.36, -0.040600408, 0.0000060369107, -0.0002529313, -130524.87, -71843.8, 0.0, 10.000022, 9.886207 
2.4650007e+3, 3.039266e+2, -40781.246, -84749.92, 0.041190743, 0.0000060253656, 0.00017347206, -40781.246, -40781.246, 0.0, 10.000022, 9.9421625 
2.4650007e+3, 3.138706e+2, -39703.28, -82511.02, -0.032482702, 0.000006004357, -0.000054922937, -39703.28, -39703.28, 0.0, 10.000022, 9.943674 
2.4750009e+3, 1.24993555e+2, -1719918.6, -1724222.8, 0.025337536, 0.0000065642243, 0.00001980904, -1719918.6, -4855.4556, 0.0, 10.000023, 9.994316 
2.4750009e+3, 1.3498779e+2, -1622538.5, -1627433.1, -0.069953926, 0.000006494767, -0.00006880622, -1622538.5, -5418.871, 0.0, 10.000023, 9.993534 
2.4750009e+3, 1.4497532e+2, -1534437.1, -1548144.3, 0.020063862, 0.0000064522283, 0.000073888164, -1534437.1, -15195.291, 0.0, 10.000023, 9.9818535 
2.4750009e+3, 1.549572e+2, -1436709.6, -1450820.1, -0.07931349, 0.000006435434, -0.000055642326, -1436709.6, -15290.282, 0.0, 10.000023, 9.981322 
2.4750009e+3, 1.6493244e+2, -1348658.9, -1371950.8, 0.01706489, 0.0000064139144, 0.000048073663, -1348658.9, -24996.875, 0.0, 10.000023, 9.969237 
2.4750009e+3, 1.7490172e+2, -1250701.1, -1274308.8, -0.07505436, 0.0000063875736, -0.00007265818, -1250701.1, -24738.021, 0.0, 10.000022, 9.968823 
2.4750009e+3, 1.8486437e+2, -1162620.3, -1195718.5, 0.0130157955, 0.000006359913, 0.000067431596, -1162620.3, -34291.066, 0.0, 10.000022, 9.956385 
2.4750009e+3, 1.9482079e+2, -1064470.8, -1097831.6, -0.07978535, 0.000006330865, -0.000056598376, -1064470.8, -33714.55, 0.0, 10.000022, 9.956041 
2.4750009e+3, 2.0477054e+2, -976307.0, -1019433.7, 0.01567087, 0.000006309057, 0.000069012014, -976307.0, -43058.336, 0.0, 10.000022, 9.94328 
2.4750009e+3, 2.1471387e+2, -878020.2, -921408.75, -0.07520784, 0.000006295086, -0.00012590452, -878020.2, -42216.047, 0.0, 10.000022, 9.942939 
2.4750009e+3, 2.2465049e+2, -789734.2, -843143.75, 0.014588652, 0.000006275558, 0.00012176113, -789734.2, -51308.965, 0.0, 10.000022, 9.929897 
2.4750009e+3, 2.3458044e+2, -691300.94, -744965.5, -0.073689885, 0.0000062497325, -0.000088012624, -691300.94, -50189.305, 0.0, 10.000022, 9.929566 
2.4750009e+3, 2.4450347e+2, -602977.0, -667017.94, 0.016358407, 0.0000062303675, 0.00007543913, -602977.0, -59110.938, 0.0, 10.000022, 9.916125 
2.4750009e+3, 2.544197e+2, -504224.53, -568342.56, -0.064611204, 0.0000062187205, -0.00010608119, -504224.53, -57537.695, 0.0, 10.000022, 9.916026 
2.4750009e+3, 2.6432887e+2, -415989.25, -490987.3, 0.026428062, 0.000006205907, 0.0001411844, -415989.25, -66412.21, 0.0, 10.000022, 9.901955 
2.4750009e+3, 2.7423137e+2, -316704.22, -391374.3, -0.060821675, 0.000006191585, -0.00020290734, -316704.22, -64171.734, 0.0, 10.000022, 9.902374 
2.4750009e+3, 2.841257e+2, -230231.02, -318080.8, 0.022864683, 0.000006179177, 0.0002295345, -230231.02, -74662.484, 0.0, 10.000022, 9.885428 
2.4750009e+3, 2.9401216e+2, -130525.04, -217764.72, -0.053526938, 0.0000061693904, -0.0002528953, -130525.04, -71843.984, 0.0, 10.000022, 9.886207 
2.4750009e+3, 3.039266e+2, -40781.426, -84750.29, 0.033855285, 0.000006157639, 0.00017349575, -40781.426, -40781.426, 0.0, 10.000022, 9.9421625 
2.4750009e+3, 3.138706e+2, -39703.457, -82511.39, -0.03916271, 0.0000061429573, -0.00005494119, -39703.457, -39703.457, 0.0, 10.000022, 9.943674 
2.485001e+3, 1.2499356e+2, -1719917.0, -1724222.1, 0.07244531, 0.0000067155743, 0.000019867182, -1719917.0, -4853.9414, 0.0, 10.000024, 9.994316 
2.485001e+3, 1.349878e+2, -1622536.9, -1627432.6, -0.029171137, 0.000006638269, -0.00006883415, -1622536.9, -5417.3506, 0.0, 10.000024, 9.993533 
2.485001e+3, 1.4497533e+2, -1534435.5, -1548143.8, 0.059587475, 0.000006592121, 0.000073972835, -1534435.5, -15193.775, 0.0, 10.000024, 9.9818535 
2.485001e+3, 1.5495722e+2, -1436708.1, -1450819.6, -0.039476704, 0.0000065759486, -0.0000556133, -1436708.1, -15288.78, 0.0, 10.000024, 9.981322 
2.485001e+3, 1.6493244e+2, -1348657.4, -1371950.1, 0.057645388, 0.0000065566346, 0.00004808181, -1348657.4, -24995.383, 0.0, 10.000024, 9.969237 
2.485001e+3, 1.7490172e+2, -1250699.6, -1274308.3, -0.039666567, 0.0000065341164, -0.00007263538, -1250699.6, -24736.559, 0.0, 10.000024, 9.968823 
2.485001e+3, 1.8486437e+2, -1162618.8, -1195718.1, 0.05009095, 0.0000065051036, 0.00006746066, -1162618.8, -34289.613, 0.0, 10.000024, 9.956385 
2.485001e+3, 1.9482079e+2, -1064469.3, -1097831.1, -0.048395433, 0.0000064692886, -0.000056571804, -1064469.3, -33713.086, 0.0, 10.000023, 9.956041 
2.485001e+3, 2.0477055e+2, -976305.5, -1019433.2, 0.044367187, 0.000006445335, 0.00006903484, -976305.5, -43056.87, 0.0, 10.000023, 9.943279 
2.485001e+3, 2.1471387e+2, -878018.75, -921408.25, -0.048973046, 0.0000064342253, -0.0001258868, -878018.75, -42214.605, 0.0, 10.000023, 9.942939 
2.485001e+3, 2.2465049e+2, -789732.75, -843143.3, 0.042999346, 0.000006417057, 0.000121777295, -789732.75, -51307.54, 0.0, 10.000023, 9.929897 
2.485001e+3, 2.3458044e+2, -691299.5, -744965.06, -0.049706977, 0.000006393023, -0.000087994005, -691299.5, -50187.9, 0.0, 10.000023, 9.929565 
2.485001e+3, 2.4450347e+2, -602975.56, -667017.5, 0.037909307, 0.000006372231, 0.00007545852, -602975.56, -59109.527, 0.0, 10.000023, 9.916125 
2.485001e+3, 2.544197e+2, -504223.1, -568342.1, -0.051291123, 0.0000063553152, -0.00010606302, -504223.1, -57536.285, 0.0, 10.000023, 9.916025 
2.485001e+3, 2.643289e+2, -415987.84, -490986.88, 0.040164642, 0.0000063407956, 0.00014119939, -415987.84, -66410.805, 0.0, 10.000023, 9.901954 
2.485001e+3, 2.7423137e+2, -316702.78, -391373.9, -0.044422675, 0.00000632931, -0.00020289804, -316702.78, -64170.348, 0.0, 10.000023, 9.902374 
2.485001e+3, 2.841257e+2, -230229.61, -318080.4, 0.0420547, 0.0000063177663, 0.00022954277, -230229.61, -74661.09, 0.0, 10.000023, 9.885428 
2.485001e+3, 2.9401216e+2, -130523.65, -217764.31, -0.040623363, 0.0000063061234, -0.0002528816, -130523.65, -71842.6, 0.0, 10.000023, 9.886207 
2.485001e+3, 3.039266e+2, -40780.055, -84749.91, 0.045362726, 0.00000629462, 0.00017350829, -40780.055, -40780.055, 0.0, 10.000023, 9.942162 
2.485001e+3, 3.138706e+2, -39702.11, -82511.016, -0.028905421, 0.000006283336, -0.00005493953, -39702.11, -39702.11, 0.0, 10.000023, 9.943673 
2.495001e+3, 1.2499357e+2, -1719917.3, -1724222.6, 0.029371481, 0.000006866108, 0.000019905352, -1719917.3, -4854.231, 0.0, 10.000024, 9.994315 
2.495001e+3, 1.349878e+2, -1622537.1, -1627433.1, -0.07225312, 0.000006786216, -0.000068846115, -1622537.1, -5417.6353, 0.0, 10.000024, 9.993533 
2.495001e+3, 1.4497533e+2, -1534435.8, -1548144.1, 0.015808554, 0.000006739075, 0.00007407732, -1534435.8, -15194.051, 0.0, 10.000024, 9.9818535 
2.495001e+3, 1.5495722e+2, -1436708.4, -1450820.0, -0.08325727, 0.0000067234796, -0.00005560218, -1436708.4, -15289.05, 0.0, 10.000024, 9.981321 
2.495001e+3, 1.6493244e+2, -1348657.6, -1371950.6, 0.014836515, 0.0000067029, 0.000048069076, -1348657.6, -24995.645, 0.0, 10.000024, 9.969237 
2.495001e+3, 1.7490174e+2, -1250699.9, -1274308.6, -0.08247214, 0.000006677234, -0.00007260097, -1250699.9, -24736.816, 0.0, 10.000024, 9.968823 
2.495001e+3, 1.8486437e+2, -1162619.0, -1195718.5, 0.01926082, 0.000006648632, 0.00006750737, -1162619.0, -34289.87, 0.0, 10.000024, 9.956384 
2.495001e+3, 1.948208e+2, -1064469.5, -1097831.5, -0.07908777, 0.000006616951, -0.000056549266, -1064469.5, -33713.34, 0.0, 10.000023, 9.956041 
2.495001e+3, 2.0477055e+2, -976305.7, -1019433.6, 0.01069786, 0.0000065911086, 0.00006904836, -976305.7, -43057.11, 0.0, 10.000023, 9.943279 
2.495001e+3, 2.1471387e+2, -878018.94, -921408.7, -0.08270515, 0.0000065715867, -0.00012586587, -878018.94, -42214.844, 0.0, 10.000023, 9.942939 
2.495001e+3, 2.246505e+2, -789732.94, -843143.7, 0.015815862, 0.000006554328, 0.000121795245, -789732.94, -51307.773, 0.0, 10.000023, 9.929896 
2.495001e+3, 2.3458046e+2, -691299.7, -744965.44, -0.07667726, 0.0000065396252, -0.000087990775, -691299.7, -50188.125, 0.0, 10.000023, 9.929565 
2.495001e+3, 2.4450347e+2, -602975.75, -667017.9, 0.016768077, 0.0000065206514, 0.000075466436, -602975.75, -59109.75, 0.0, 10.000023, 9.916125 
2.495001e+3, 2.544197e+2, -504223.28, -568342.56, -0.07215381, 0.0000064965693, -0.00010602723, -504223.28, -57536.5, 0.0, 10.000023, 9.916025 
2.495001e+3, 2.643289e+2, -415988.03, -490987.28, 0.021720158, 0.000006478577, 0.00014123676, -415988.03, -66411.016, 0.0, 10.000023, 9.901954 
2.495001e+3, 2.7423137e+2, -316703.0, -391374.3, -0.06270599, 0.0000064683395, -0.00020289257, -316703.0, -64170.55, 0.0, 10.000023, 9.902374 
2.495001e+3, 2.841257e+2, -230229.8, -318080.8, 0.028352926, 0.00000645789, 0.00022953104, -230229.8, -74661.3, 0.0, 10.000023, 9.885427 
2.495001e+3, 2.9401216e+2, -130523.836, -217764.7, -0.053913362, 0.0000064471083, -0.00025289026, -130523.836, -71842.8, 0.0, 10.000023, 9.886207 
2.495001e+3, 3.039266e+2, -40780.234, -84750.28, 0.03350203, 0.000006436308, 0.00017350967, -40780.234, -40780.234, 0.0, 10.000023, 9.942162 
2.495001e+3, 3.138706e+2, -39702.29, -82511.39, -0.040600285, 0.000006425493, -0.000054917975, -39702.29, -39702.29, 0.0, 10.000023, 9.943673 
2.5050008e+3, 1.2499358e+2, -1719915.6, -1724222.0, 0.081983976, 0.0000070102274, 0.000019954468, -1719915.6, -4852.611, 0.0, 10.000025, 9.994315 
2.5050008e+3, 1.349878e+2, -1622535.5, -1627432.5, -0.028930336, 0.000006939077, -0.00006887109, -1622535.5, -5416.0596, 0.0, 10.000025, 9.993533 
2.5050008e+3, 1.4497533e+2, -1534434.1, -1548143.6, 0.058320325, 0.000006895049, 0.000074172385, -1534434.1, -15192.486, 0.0, 10.000025, 9.981853 
2.5050008e+3, 1.5495722e+2, -1436706.8, -1450819.5, -0.038976707, 0.0000068768695, -0.000055578716, -1436706.8, -15287.499, 0.0, 10.000025, 9.981321 
2.5050008e+3, 1.6493246e+2, -1348656.0, -1371950.1, 0.059589516, 0.0000068515237, 0.000048071008, -1348656.0, -24994.102, 0.0, 10.000025, 9.969236 
2.5050008e+3, 1.7490174e+2, -1250698.3, -1274308.1, -0.048318658, 0.000006818864, -0.000072569426, -1250698.3, -24735.258, 0.0, 10.000025, 9.968823 
2.5050008e+3, 1.8486439e+2, -1162617.4, -1195718.0, 0.052662928, 0.000006791422, 0.00006754556, -1162617.4, -34288.316, 0.0, 10.000025, 9.956384 
2.5050008e+3, 1.948208e+2, -1064468.0, -1097831.0, -0.04499836, 0.0000067694327, -0.000056528464, -1064468.0, -33711.836, 0.0, 10.000025, 9.95604 
2.5050008e+3, 2.0477055e+2, -976304.2, -1019433.1, 0.047001727, 0.000006744256, 0.00006906362, -976304.2, -43055.62, 0.0, 10.000024, 9.943279 
2.5050008e+3, 2.1471387e+2, -878017.4, -921408.2, -0.05235283, 0.0000067156247, -0.0001258433, -878017.4, -42213.34, 0.0, 10.000024, 9.942938 
2.5050008e+3, 2.246505e+2, -789731.44, -843143.25, 0.044996966, 0.000006695024, 0.000121817786, -789731.44, -51306.266, 0.0, 10.000024, 9.929896 
2.5050008e+3, 2.3458046e+2, -691298.1, -744965.0, -0.049698114, 0.000006683511, -0.00008797657, -691298.1, -50186.633, 0.0, 10.000024, 9.929565 
2.5050008e+3, 2.4450347e+2, -602974.25, -667017.44, 0.04465559, 0.0000066665107, 0.00007547879, -602974.25, -59108.273, 0.0, 10.000024, 9.916125 
2.5050008e+3, 2.544197e+2, -504221.8, -568342.1, -0.05190327, 0.000006642942, -0.00010600896, -504221.8, -57535.043, 0.0, 10.000024, 9.916025 
2.5050008e+3, 2.643289e+2, -415986.53, -490986.8, 0.040526427, 0.000006624077, 0.00014125596, -415986.53, -66409.56, 0.0, 10.000024, 9.901954 
2.5050008e+3, 2.7423137e+2, -316701.5, -391373.88, -0.045761198, 0.000006611206, -0.00020287876, -316701.5, -64169.098, 0.0, 10.000024, 9.902373 
2.5050008e+3, 2.841257e+2, -230228.34, -318080.38, 0.04701445, 0.000006600258, 0.0002295394, -230228.34, -74659.85, 0.0, 10.000024, 9.885427 
2.5050008e+3, 2.9401216e+2, -130522.39, -217764.3, -0.036884304, 0.000006591907, -0.0002528874, -130522.39, -71841.37, 0.0, 10.000024, 9.886206 
2.5050008e+3, 3.039266e+2, -40778.81, -84749.89, 0.04838806, 0.000006580832, 0.0001735129, -40778.81, -40778.81, 0.0, 10.000024, 9.942162 
2.5050008e+3, 3.138706e+2, -39700.848, -82510.99, -0.037565943, 0.0000065657, -0.00005490564, -39700.848, -39700.848, 0.0, 10.000024, 9.943673 
2.515001e+3, 1.2499358e+2, -1719915.9, -1724222.5, 0.029889436, 0.000007147936, 0.000020014599, -1719915.9, -4852.9243, 0.0, 10.000025, 9.994315 
2.515001e+3, 1.3498782e+2, -1622535.8, -1627433.0, -0.081034, 0.0000070968517, -0.00006890909, -1622535.8, -5416.3677, 0.0, 10.000025, 9.993532 
2.515001e+3, 1.4497536e+2, -1534434.4, -1548144.0, 0.012461181, 0.00000706004, 0.00007425804, -1534434.4, -15192.761, 0.0, 10.000025, 9.981853 
2.515001e+3, 1.5495723e+2, -1436707.0, -1450819.9, -0.08482862, 0.000007036117, -0.00005554291, -1436707.0, -15287.768, 0.0, 10.000025, 9.981321 
2.515001e+3, 1.6493246e+2, -1348656.3, -1371950.5, 0.022016339, 0.000007002506, 0.000048087597, -1348656.3, -24994.39, 0.0, 10.000025, 9.969236 
2.515001e+3, 1.7490174e+2, -1250698.5, -1274308.5, -0.08584866, 0.000006959008, -0.00007254075, -1250698.5, -24735.54, 0.0, 10.000025, 9.9688225 
2.515001e+3, 1.8486439e+2, -1162617.6, -1195718.4, 0.011563053, 0.0000069334747, 0.00006757524, -1162617.6, -34288.58, 0.0, 10.000025, 9.956384 
2.515001e+3, 1.948208e+2, -1064468.3, -1097831.5, -0.0861413, 0.0000069267326, -0.0000565094, -1064468.3, -33712.086, 0.0, 10.000025, 9.95604 
2.515001e+3, 2.0477055e+2, -976304.4, -1019433.56, 0.018048426, 0.0000069047755, 0.000069080634, -976304.4, -43055.875, 0.0, 10.000024, 9.943279 
2.515001e+3, 2.1471389e+2, -878017.6, -921408.6, -0.08105578, 0.000006866337, -0.00012581908, -878017.6, -42213.59, 0.0, 10.000024, 9.942938 
2.515001e+3, 2.246505e+2, -789731.6, -843143.6, 0.015682459, 0.000006839144, 0.00012184493, -789731.6, -51306.508, 0.0, 10.000024, 9.929896 
2.515001e+3, 2.3458046e+2, -691298.4, -744965.4, -0.079034016, 0.0000068246813, -0.00008795141, -691298.4, -50186.867, 0.0, 10.000024, 9.929565 
2.515001e+3, 2.4450348e+2, -602974.44, -667017.9, 0.020724747, 0.00000680981, 0.000075495576, -602974.44, -59108.51, 0.0, 10.000024, 9.916124 
2.515001e+3, 2.544197e+2, -504222.0, -568342.5, -0.075574934, 0.000006794432, -0.0001060082, -504222.0, -57535.277, 0.0, 10.000024, 9.916024 
2.515001e+3, 2.643289e+2, -415986.75, -490987.22, 0.022051144, 0.000006777293, 0.00014125703, -415986.75, -66409.78, 0.0, 10.000024, 9.901954 
2.515001e+3, 2.7423137e+2, -316701.72, -391374.25, -0.06389025, 0.0000067579085, -0.00020285661, -316701.72, -64169.31, 0.0, 10.000024, 9.902373 
2.515001e+3, 2.841257e+2, -230228.53, -318080.78, 0.031582426, 0.0000067448696, 0.00022956783, -230228.53, -74660.06, 0.0, 10.000024, 9.885427 
2.515001e+3, 2.9401216e+2, -130522.58, -217764.69, -0.052074566, 0.0000067405194, -0.00025287305, -130522.58, -71841.57, 0.0, 10.000024, 9.886206 
2.515001e+3, 3.039266e+2, -40779.01, -84750.31, 0.040440567, 0.000006728193, 0.000173518, -40779.01, -40779.01, 0.0, 10.000024, 9.942162 
2.515001e+3, 3.138706e+2, -39701.05, -82511.414, -0.04466374, 0.0000067039573, -0.000054902517, -39701.05, -39701.05, 0.0, 10.000024, 9.943672 
2.525001e+3, 1.24993585e+2, -1719914.1, -1724221.9, 0.08343819, 0.0000073037863, 0.000020077325, -1719914.1, -4851.252, 0.0, 10.000027, 9.994314 
2.525001e+3, 1.3498782e+2, -1622534.0, -1627432.4, -0.025053449, 0.000007253905, -0.000068955334, -1622534.0, -5414.7183, 0.0, 10.000027, 9.993532 
2.525001e+3, 1.4497536e+2, -1534432.6, -1548143.5, 0.069898814, 0.000007216394, 0.00007433857, -1534432.6, -15191.115, 0.0, 10.000026, 9.981853 
2.525001e+3, 1.5495723e+2, -1436705.3, -1450819.4, -0.044536598, 0.000007189822, -0.000055504956, -1436705.3, -15286.125, 0.0, 10.000026, 9.98132 
2.525001e+3, 1.6493246e+2, -1348654.6, -1371950.0, 0.061049666, 0.000007156279, 0.00004810619, -1348654.6, -24992.762, 0.0, 10.000026, 9.969236 
2.525001e+3, 1.7490175e+2, -1250696.9, -1274308.0, -0.042267624, 0.0000071156205, -0.00007251779, -1250696.9, -24733.943, 0.0, 10.000026, 9.9688225 
2.525001e+3, 1.8486439e+2, -1162616.0, -1195717.9, 0.05391839, 0.000007088682, 0.00006760054, -1162616.0, -34286.984, 0.0, 10.000026, 9.956384 
2.525001e+3, 1.9482082e+2, -1064466.5, -1097830.9, -0.05374901, 0.0000070760934, -0.0000564839, -1064466.5, -33710.49, 0.0, 10.000026, 9.95604 
2.525001e+3, 2.0477057e+2, -976302.75, -1019433.06, 0.0505751, 0.0000070540873, 0.000069105285, -976302.75, -43054.285, 0.0, 10.000026, 9.943278 
2.525001e+3, 2.1471389e+2, -878016.0, -921408.1, -0.05298271, 0.000007021878, -0.0001257964, -878016.0, -42212.027, 0.0, 10.000026, 9.942938 
2.525001e+3, 2.246505e+2, -789730.06, -843143.1, 0.04174243, 0.0000069949774, 0.0001218671, -789730.06, -51304.957, 0.0, 10.000026, 9.929896 
2.525001e+3, 2.3458046e+2, -691296.8, -744964.9, -0.0590943, 0.000006974085, -0.00008792804, -691296.8, -50185.32, 0.0, 10.000025, 9.929564 
2.525001e+3, 2.4450348e+2, -602972.9, -667017.4, 0.04291284, 0.000006956812, 0.00007551558, -602972.9, -59106.965, 0.0, 10.000025, 9.916124 
2.525001e+3, 2.544197e+2, -504220.44, -568342.06, -0.05017399, 0.00000694385, -0.000105997, -504220.44, -57533.74, 0.0, 10.000025, 9.916024 
2.525001e+3, 2.643289e+2, -415985.2, -490986.75, 0.04805052, 0.000006928247, 0.00014126611, -415985.2, -66408.25, 0.0, 10.000025, 9.901953 
2.525001e+3, 2.7423137e+2, -316700.2, -391373.8, -0.050731115, 0.000006909266, -0.00020284113, -316700.2, -64167.8, 0.0, 10.000025, 9.902373 
2.525001e+3, 2.841257e+2, -230227.02, -318080.34, 0.03963545, 0.0000068955633, 0.0002295866, -230227.02, -74658.555, 0.0, 10.000025, 9.885427 
2.525001e+3, 2.9401216e+2, -130521.06, -217764.25, -0.04825835, 0.0000068890936, -0.0002528553, -130521.06, -71840.06, 0.0, 10.000025, 9.886206 
2.525001e+3, 3.039266e+2, -40777.516, -84749.9, 0.04846462, 0.0000068757704, 0.00017353075, -40777.516, -40777.516, 0.0, 10.000025, 9.942161 
2.525001e+3, 3.138706e+2, -39699.563, -82511.01, -0.032156836, 0.00000685222, -0.000054900593, -39699.563, -39699.563, 0.0, 10.000025, 9.943672 
2.535001e+3, 1.2499359e+2, -1719914.4, -1724222.4, 0.027420439, 0.0000074777727, 0.000020142726, -1719914.4, -4851.563, 0.0, 10.000027, 9.994314 
2.535001e+3, 1.3498782e+2, -1622534.3, -1627432.9, -0.081081964, 0.000007410239, -0.000069009846, -1622534.3, -5415.0234, 0.0, 10.000027, 9.993532 
2.535001e+3, 1.4497536e+2, -1534432.9, -1548144.0, 0.024699977, 0.000007364115, 0.00007441398, -1534432.9, -15191.431, 0.0, 10.000026, 9.981853 
2.535001e+3, 1.5495723e+2, -1436705.5, -1450819.9, -0.08971916, 0.0000073379892, -0.00005546485, -1436705.5, -15286.435, 0.0, 10.000026, 9.98132 
2.535001e+3, 1.6493247e+2, -1348654.8, -1371950.4, 0.017575786, 0.0000073128417, 0.00004812679, -1348654.8, -24993.043, 0.0, 10.000026, 9.969235 
2.535001e+3, 1.7490175e+2, -1250697.1, -1274308.5, -0.08573446, 0.000007288697, -0.000072500545, -1250697.1, -24734.219, 0.0, 10.000026, 9.9688225 
2.535001e+3, 1.848644e+2, -1162616.3, -1195718.4, 0.01627158, 0.000007257041, 0.000067621455, -1162616.3, -34287.266, 0.0, 10.000026, 9.956383 
2.535001e+3, 1.9482082e+2, -1064466.8, -1097831.4, -0.09132966, 0.000007217519, -0.000056451965, -1064466.8, -33710.76, 0.0, 10.000026, 9.95604 
2.535001e+3, 2.0477057e+2, -976303.0, -1019433.5, 0.015537094, 0.000007192196, 0.000069137575, -976303.0, -43054.55, 0.0, 10.000026, 9.943278 
2.535001e+3, 2.1471389e+2, -878016.25, -921408.56, -0.08796931, 0.0000071822465, -0.00012577529, -878016.25, -42212.29, 0.0, 10.000026, 9.942937 
2.535001e+3, 2.246505e+2, -789730.25, -843143.56, 0.013772241, 0.0000071625204, 0.000121884324, -789730.25, -51305.21, 0.0, 10.000026, 9.929895 
2.535001e+3, 2.3458046e+2, -691297.0, -744965.3, -0.0868364, 0.0000071317186, -0.00008790646, -691297.0, -50185.566, 0.0, 10.000025, 9.929564 
2.535001e+3, 2.4450348e+2, -602973.06, -667017.75, 0.018051151, 0.0000071075146, 0.00007553881, -602973.06, -59107.2, 0.0, 10.000025, 9.916124 
2.535001e+3, 2.544197e+2, -504220.66, -568342.5, -0.07489922, 0.000007091198, -0.00010597538, -504220.66, -57533.97, 0.0, 10.000025, 9.916024 
2.535001e+3, 2.643289e+2, -415985.4, -490987.22, 0.027212674, 0.00000707694, 0.0001412832, -415985.4, -66408.49, 0.0, 10.000025, 9.901953 
2.535001e+3, 2.7423137e+2, -316700.4, -391374.25, -0.07130877, 0.0000070652773, -0.00020283229, -316700.4, -64168.035, 0.0, 10.000025, 9.902372 
2.535001e+3, 2.841257e+2, -230227.22, -318080.75, 0.025101779, 0.000007052337, 0.00022959572, -230227.22, -74658.77, 0.0, 10.000025, 9.8854265 
2.535001e+3, 2.9401216e+2, -130521.26, -217764.66, -0.06224922, 0.0000070376304, -0.00025283417, -130521.26, -71840.28, 0.0, 10.000025, 9.886206 
2.535001e+3, 3.039266e+2, -40777.71, -84750.305, 0.038406383, 0.000007023566, 0.00017355116, -40777.71, -40777.71, 0.0, 10.000025, 9.942161 
2.535001e+3, 3.138706e+2, -39699.758, -82511.414, -0.041755278, 0.000007010485, -0.000054899858, -39699.758, -39699.758, 0.0, 10.000025, 9.943672 
2.545001e+3, 1.249936e+2, -1719912.6, -1724221.8, 0.08209082, 0.000007652933, 0.000020204603, -1719912.6, -4849.856, 0.0, 10.000028, 9.994314 
2.545001e+3, 1.3498785e+2, -1622532.5, -1627432.3, -0.0344988, 0.00000756883, -0.00006904323, -1622532.5, -5413.28, 0.0, 10.000028, 9.993531 
2.545001e+3, 1.4497538e+2, -1534431.1, -1548143.4, 0.07103961, 0.000007517215, 0.00007451156, -1534431.1, -15189.6875, 0.0, 10.000028, 9.981852 
2.545001e+3, 1.5495725e+2, -1436703.8, -1450819.3, -0.04143099, 0.0000074967083, -0.00005543566, -1436703.8, -15284.725, 0.0, 10.000028, 9.98132 
2.545001e+3, 1.6493247e+2, -1348653.1, -1371949.9, 0.06515604, 0.000007475186, 0.000048132864, -1348653.1, -24991.348, 0.0, 10.000027, 9.969235 
2.545001e+3, 1.7490175e+2, -1250695.4, -1274307.9, -0.048551418, 0.000007452631, -0.00007247133, -1250695.4, -24732.545, 0.0, 10.000027, 9.968822 
2.545001e+3, 1.848644e+2, -1162614.5, -1195717.8, 0.055137128, 0.0000074191666, 0.0000676583, -1162614.5, -34285.605, 0.0, 10.000027, 9.956383 
2.545001e+3, 1.9482082e+2, -1064465.1, -1097830.9, -0.054957356, 0.0000073742794, -0.000056423705, -1064465.1, -33709.1, 0.0, 10.000027, 9.956039 
2.545001e+3, 2.0477057e+2, -976301.3, -1019432.94, 0.05010466, 0.0000073474375, 0.00006916019, -976301.3, -43052.89, 0.0, 10.000027, 9.943278 
2.545001e+3, 2.1471389e+2, -878014.56, -921408.0, -0.055803325, 0.0000073401357, -0.00012575515, -878014.56, -42210.65, 0.0, 10.000027, 9.942937 
2.545001e+3, 2.2465052e+2, -789728.6, -843143.06, 0.050131224, 0.000007321478, 0.000121903024, -789728.6, -51303.586, 0.0, 10.000027, 9.929895 
2.545001e+3, 2.3458047e+2, -691295.4, -744964.8, -0.05528475, 0.000007289954, -0.000087888046, -691295.4, -50183.953, 0.0, 10.000027, 9.929564 
2.545001e+3, 2.4450348e+2, -602971.44, -667017.25, 0.045129657, 0.000007265014, 0.00007555805, -602971.44, -59105.59, 0.0, 10.000027, 9.916123 
2.545001e+3, 2.544197e+2, -504219.03, -568342.0, -0.058466773, 0.000007247946, -0.00010595399, -504219.03, -57532.37, 0.0, 10.000027, 9.916024 
2.545001e+3, 2.643289e+2, -415983.8, -490986.72, 0.04455655, 0.0000072328744, 0.00014130179, -415983.8, -66406.91, 0.0, 10.000027, 9.901953 
2.545001e+3, 2.7423137e+2, -316698.78, -391373.78, -0.04912538, 0.000007220317, -0.00020282278, -316698.78, -64166.45, 0.0, 10.000026, 9.902372 
2.545001e+3, 2.841257e+2, -230225.61, -318080.28, 0.05164085, 0.0000072065554, 0.00022960192, -230225.61, -74657.19, 0.0, 10.000026, 9.8854265 
2.545001e+3, 2.9401216e+2, -130519.67, -217764.2, -0.04323605, 0.0000071911268, -0.00025282343, -130519.67, -71838.7, 0.0, 10.000026, 9.886205 
2.545001e+3, 3.039266e+2, -40776.152, -84749.875, 0.05157953, 0.0000071779136, 0.00017356311, -40776.152, -40776.152, 0.0, 10.000026, 9.942161 
2.545001e+3, 3.138706e+2, -39698.21, -82510.99, -0.038318347, 0.000007168018, -0.000054891807, -39698.21, -39698.21, 0.0, 10.000026, 9.943672 
2.555001e+3, 1.2499361e+2, -1719912.9, -1724222.3, 0.03602347, 0.000007829267, 0.000020263047, -1719912.9, -4850.188, 0.0, 10.000028, 9.994314 
2.555001e+3, 1.3498785e+2, -1622532.8, -1627432.8, -0.08057459, 0.000007729678, -0.00006905549, -1622532.8, -5413.6064, 0.0, 10.000028, 9.993531 
2.555001e+3, 1.4497538e+2, -1534431.4, -1548143.9, 0.019403232, 0.000007675694, 0.00007463131, -1534431.4, -15190.001, 0.0, 10.000028, 9.981852 
2.555001e+3, 1.5495725e+2, -1436704.0, -1450819.8, -0.093076795, 0.000007665977, -0.000055417375, -1436704.0, -15285.032, 0.0, 10.000028, 9.98132 
2.555001e+3, 1.6493247e+2, -1348653.4, -1371950.4, 0.018267252, 0.000007643311, 0.00004812442, -1348653.4, -24991.654, 0.0, 10.000027, 9.969235 
2.555001e+3, 1.7490177e+2, -1250695.6, -1274308.4, -0.09541683, 0.0000076074284, -0.000072430164, -1250695.6, -24732.844, 0.0, 10.000027, 9.968822 
2.555001e+3, 1.848644e+2, -1162614.8, -1195718.3, 0.018618602, 0.0000075750627, 0.00006771107, -1162614.8, -34285.895, 0.0, 10.000027, 9.956383 
2.555001e+3, 1.9482082e+2, -1064465.4, -1097831.3, -0.09135737, 0.0000075463695, -0.00005639912, -1064465.4, -33709.387, 0.0, 10.000027, 9.956039 
2.555001e+3, 2.0477057e+2, -976301.5, -1019433.4, 0.012196732, 0.000007519807, 0.00006917312, -976301.5, -43053.164, 0.0, 10.000027, 9.943277 
2.555001e+3, 2.1471389e+2, -878014.8, -921408.44, -0.09374418, 0.000007495548, -0.00012573597, -878014.8, -42210.914, 0.0, 10.000027, 9.942937 
2.555001e+3, 2.2465052e+2, -789728.8, -843143.5, 0.020518972, 0.000007471853, 0.0001219232, -789728.8, -51303.85, 0.0, 10.000027, 9.929895 
2.555001e+3, 2.3458047e+2, -691295.56, -744965.3, -0.08462588, 0.0000074487916, -0.00008787279, -691295.56, -50184.215, 0.0, 10.000027, 9.9295635 
2.555001e+3, 2.4450348e+2, -602971.7, -667017.75, 0.018996997, 0.000007429308, 0.000075573305, -602971.7, -59105.848, 0.0, 10.000027, 9.916123 
2.555001e+3, 2.544197e+2, -504219.25, -568342.44, -0.08444641, 0.000007414092, -0.00010593285, -504219.25, -57532.62, 0.0, 10.000027, 9.916023 
2.555001e+3, 2.643289e+2, -415984.0, -490987.16, 0.024425179, 0.0000073960477, 0.00014132189, -415984.0, -66407.14, 0.0, 10.000027, 9.901952 
2.555001e+3, 2.7423137e+2, -316699.0, -391374.22, -0.0688668, 0.000007374387, -0.00020281257, -316699.0, -64166.68, 0.0, 10.000026, 9.902372 
2.555001e+3, 2.841257e+2, -230225.83, -318080.72, 0.03572916, 0.0000073582205, 0.00022960518, -230225.83, -74657.42, 0.0, 10.000026, 9.8854265 
2.555001e+3, 2.9401216e+2, -130519.89, -217764.66, -0.058803577, 0.000007349581, -0.00025282303, -130519.89, -71838.94, 0.0, 10.000026, 9.886205 
2.555001e+3, 3.039266e+2, -40776.367, -84750.32, 0.038773548, 0.000007338811, 0.00017356657, -40776.367, -40776.367, 0.0, 10.000026, 9.94216 
2.555001e+3, 3.138706e+2, -39698.426, -82511.44, -0.050801516, 0.0000073248193, -0.000054876444, -39698.426, -39698.426, 0.0, 10.000026, 9.943671 
2.5650012e+3, 1.24993615e+2, -1719911.0, -1724221.6, 0.09007364, 0.000007992619, 0.000020325053, -1719911.0, -4848.338, 0.0, 10.000029, 9.994313 
2.5650012e+3, 1.3498786e+2, -1622530.9, -1627432.1, -0.034780607, 0.000007901584, -0.00006908475, -1622530.9, -5411.8184, 0.0, 10.000029, 9.993531 
2.5650012e+3, 1.4497538e+2, -1534429.5, -1548143.1, 0.062811755, 0.000007850385, 0.00007474053, -1534429.5, -15188.226, 0.0, 10.000029, 9.981852 
2.5650012e+3, 1.5495725e+2, -1436702.3, -1450819.1, -0.04899394, 0.000007837614, -0.000055386747, -1436702.3, -15283.26, 0.0, 10.000029, 9.981319 
2.5650012e+3, 1.6493249e+2, -1348651.5, -1371949.8, 0.06559893, 0.0000078100875, 0.000048129226, -1348651.5, -24989.889, 0.0, 10.000029, 9.969235 
2.5650012e+3, 1.7490177e+2, -1250693.8, -1274307.8, -0.054421164, 0.000007767499, -0.00007239728, -1250693.8, -24731.074, 0.0, 10.000029, 9.968822 
2.5650012e+3, 1.8486442e+2, -1162613.0, -1195717.6, 0.059522755, 0.000007736845, 0.00006775038, -1162613.0, -34284.133, 0.0, 10.000029, 9.956382 
2.5650012e+3, 1.9482084e+2, -1064463.6, -1097830.8, -0.052699942, 0.000007718673, -0.00005637607, -1064463.6, -33707.67, 0.0, 10.000028, 9.956039 
2.5650012e+3, 2.0477058e+2, -976299.75, -1019432.9, 0.05170903, 0.000007691919, 0.00006919175, -976299.75, -43051.465, 0.0, 10.000028, 9.943277 
2.5650012e+3, 2.147139e+2, -878013.06, -921407.94, -0.06277323, 0.0000076558645, -0.00012570892, -878013.06, -42209.2, 0.0, 10.000028, 9.942937 
2.5650012e+3, 2.2465052e+2, -789727.06, -843143.0, 0.0488777, 0.000007629263, 0.00012195099, -789727.06, -51302.133, 0.0, 10.000028, 9.929894 
2.565001e+3, 2.3458047e+2, -691293.9, -744964.75, -0.059526086, 0.0000076133606, -0.00008785299, -691293.9, -50182.523, 0.0, 10.000028, 9.9295635 
2.565001e+3, 2.445035e+2, -602970.0, -667017.2, 0.046525218, 0.0000075962444, 0.00007558902, -602970.0, -59104.17, 0.0, 10.000028, 9.916123 
2.565001e+3, 2.5441974e+2, -504217.56, -568341.94, -0.05881109, 0.0000075776625, -0.00010591655, -504217.56, -57530.957, 0.0, 10.000028, 9.916023 
2.565001e+3, 2.643289e+2, -415982.3, -490986.66, 0.049818173, 0.00000755735, 0.0001413391, -415982.3, -66405.48, 0.0, 10.000028, 9.901952 
2.565001e+3, 2.7423137e+2, -316697.3, -391373.72, -0.05422715, 0.0000075348307, -0.00020279404, -316697.3, -64165.027, 0.0, 10.000028, 9.902372 
2.565001e+3, 2.841257e+2, -230224.17, -318080.25, 0.047703445, 0.0000075193507, 0.00022962167, -230224.17, -74655.77, 0.0, 10.000028, 9.885426 
2.565001e+3, 2.9401216e+2, -130518.24, -217764.19, -0.046179906, 0.000007513507, -0.0002528132, -130518.24, -71837.305, 0.0, 10.000028, 9.886205 
2.565001e+3, 3.039266e+2, -40774.742, -84749.875, 0.054916933, 0.0000075019525, 0.00017357274, -40774.742, -40774.742, 0.0, 10.000028, 9.94216 
2.565001e+3, 3.138706e+2, -39696.79, -82510.984, -0.037353687, 0.000007481843, -0.000054869488, -39696.79, -39696.79, 0.0, 10.000028, 9.943671 
2.575001e+3, 1.24993615e+2, -1719911.3, -1724222.1, 0.031174641, 0.000008143, 0.000020390718, -1719911.3, -4848.692, 0.0, 10.000029, 9.994313 
2.575001e+3, 1.3498786e+2, -1622531.3, -1627432.8, -0.09368986, 0.000008084542, -0.00006913101, -1622531.3, -5412.166, 0.0, 10.000029, 9.99353 
2.575001e+3, 1.449754e+2, -1534429.8, -1548143.6, 0.011875859, 0.000008041281, 0.00007483923, -1534429.8, -15188.54, 0.0, 10.000029, 9.981851 
2.575001e+3, 1.5495726e+2, -1436702.5, -1450819.6, -0.09992027, 0.000008011621, -0.000055343768, -1436702.5, -15283.567, 0.0, 10.000029, 9.981319 
2.575001e+3, 1.6493249e+2, -1348651.8, -1371950.3, 0.021583943, 0.000007975517, 0.000048147278, -1348651.8, -24990.21, 0.0, 10.000029, 9.969234 
2.575001e+3, 1.7490177e+2, -1250694.1, -1274308.3, -0.098400556, 0.000007932839, -0.00007237268, -1250694.1, -24731.39, 0.0, 10.000029, 9.968821 
2.575001e+3, 1.8486442e+2, -1162613.3, -1195718.1, 0.0133638475, 0.000007904511, 0.000067776215, -1162613.3, -34284.43, 0.0, 10.000029, 9.956382 
2.575001e+3, 1.9482084e+2, -1064463.9, -1097831.3, -0.09888622, 0.000007891191, -0.000056354555, -1064463.9, -33707.96, 0.0, 10.000028, 9.956038 
2.575001e+3, 2.0477058e+2, -976300.06, -1019433.3, 0.019045228, 0.000007863773, 0.0000692161, -976300.06, -43051.758, 0.0, 10.000028, 9.943277 
2.575001e+3, 2.147139e+2, -878013.3, -921408.4, -0.09515915, 0.000007821083, -0.00012567399, -878013.3, -42209.49, 0.0, 10.000028, 9.942936 
2.575001e+3, 2.2465052e+2, -789727.3, -843143.44, 0.0149881765, 0.000007793706, 0.00012198636, -789727.3, -51302.41, 0.0, 10.000028, 9.929894 
2.575001e+3, 2.3458047e+2, -691294.1, -744965.25, -0.093466245, 0.0000077836585, -0.00008782865, -691294.1, -50182.79, 0.0, 10.000028, 9.9295635 
2.575001e+3, 2.445035e+2, -602970.2, -667017.7, 0.01955166, 0.000007765822, 0.000075605196, -602970.2, -59104.438, 0.0, 10.000028, 9.916122 
2.575001e+3, 2.5441974e+2, -504217.78, -568342.4, -0.08545166, 0.00000773866, -0.0001059051, -504217.78, -57531.215, 0.0, 10.000028, 9.916023 
2.575001e+3, 2.643289e+2, -415982.56, -490987.13, 0.028743979, 0.000007716782, 0.00014135342, -415982.56, -66405.734, 0.0, 10.000028, 9.901952 
2.575001e+3, 2.7423137e+2, -316697.56, -391374.2, -0.074929506, 0.000007701646, -0.00020276719, -316697.56, -64165.277, 0.0, 10.000028, 9.902371 
2.575001e+3, 2.841257e+2, -230224.39, -318080.7, 0.030242328, 0.000007689943, 0.00022965138, -230224.39, -74656.016, 0.0, 10.000028, 9.885426 
2.575001e+3, 2.9401216e+2, -130518.45, -217764.63, -0.063350946, 0.000007682902, -0.00025279386, -130518.45, -71837.53, 0.0, 10.000028, 9.886204 
2.575001e+3, 3.039266e+2, -40774.96, -84750.336, 0.044857666, 0.000007667338, 0.00017358163, -40774.96, -40774.96, 0.0, 10.000028, 9.94216 
2.575001e+3, 3.138706e+2, -39697.01, -82511.445, -0.046579596, 0.000007639091, -0.000054870947, -39697.01, -39697.01, 0.0, 10.000028, 9.943671 
2.5850013e+3, 1.2499362e+2, -1719909.3, -1724221.5, 0.095816724, 0.000008317721, 0.000020459205, -1719909.3, -4846.7915, 0.0, 10.0000305, 9.994312 
2.5850013e+3, 1.3498788e+2, -1622529.3, -1627432.0, -0.02822538, 0.000008261222, -0.00006918298, -1622529.3, -5410.283, 0.0, 10.0000305, 9.99353 
2.5850013e+3, 1.449754e+2, -1534427.9, -1548143.0, 0.07793477, 0.000008217845, 0.00007493385, -1534427.9, -15186.663, 0.0, 10.0000305, 9.981851 
2.5850013e+3, 1.5495726e+2, -1436700.5, -1450819.0, -0.050563477, 0.0000081859425, -0.00005530425, -1436700.5, -15281.706, 0.0, 10.00003, 9.981319 
2.5850013e+3, 1.6493249e+2, -1348649.9, -1371949.6, 0.06898119, 0.000008149907, 0.00004816376, -1348649.9, -24988.367, 0.0, 10.00003, 9.969234 
2.5850013e+3, 1.7490178e+2, -1250692.3, -1274307.6, -0.049376436, 0.000008109656, -0.000072346455, -1250692.3, -24729.574, 0.0, 10.00003, 9.968821 
2.5850013e+3, 1.8486442e+2, -1162611.4, -1195717.5, 0.06058484, 0.000008078956, 0.00006780728, -1162611.4, -34282.617, 0.0, 10.00003, 9.956382 
2.5850013e+3, 1.9482084e+2, -1064462.0, -1097830.6, -0.062554896, 0.000008058242, -0.000056323777, -1064462.0, -33706.137, 0.0, 10.00003, 9.956038 
2.5850013e+3, 2.0477058e+2, -976298.2, -1019432.75, 0.05625014, 0.000008030663, 0.000069244415, -976298.2, -43049.94, 0.0, 10.00003, 9.943276 
2.5850013e+3, 2.147139e+2, -878011.44, -921407.8, -0.060245648, 0.000007995643, -0.00012565048, -878011.44, -42207.71, 0.0, 10.00003, 9.942936 
2.5850013e+3, 2.2465053e+2, -789725.5, -843142.9, 0.04892649, 0.0000079696365, 0.00012200784, -789725.5, -51300.65, 0.0, 10.00003, 9.929894 
2.5850013e+3, 2.3458047e+2, -691292.3, -744964.7, -0.064458385, 0.000007953829, -0.000087806075, -691292.3, -50181.03, 0.0, 10.000029, 9.9295635 
2.5850013e+3, 2.445035e+2, -602968.44, -667017.1, 0.0501166, 0.000007932609, 0.0000756269, -602968.44, -59102.68, 0.0, 10.000029, 9.916122 
2.5850013e+3, 2.5441974e+2, -504216.0, -568341.9, -0.061496716, 0.000007904908, -0.00010588662, -504216.0, -57529.457, 0.0, 10.000029, 9.916022 
2.5850013e+3, 2.643289e+2, -415980.78, -490986.6, 0.05039955, 0.0000078841185, 0.00014136948, -415980.78, -66403.984, 0.0, 10.000029, 9.901951 
2.5850013e+3, 2.742314e+2, -316695.8, -391373.7, -0.05608424, 0.000007872134, -0.00020275253, -316695.8, -64163.56, 0.0, 10.000029, 9.902371 
2.5850013e+3, 2.841257e+2, -230222.66, -318080.2, 0.04949903, 0.00000786099, 0.00022966595, -230222.66, -74654.3, 0.0, 10.000029, 9.885426 
2.5850013e+3, 2.9401216e+2, -130516.734, -217764.13, -0.052306782, 0.000007850947, -0.0002527776, -130516.734, -71835.82, 0.0, 10.000029, 9.886204 
2.5850013e+3, 3.039266e+2, -40773.26, -84749.87, 0.05496785, 0.000007833802, 0.00017359595, -40773.26, -40773.26, 0.0, 10.000029, 9.942159 
2.5850013e+3, 3.138706e+2, -39695.316, -82510.984, -0.040489934, 0.000007806114, -0.00005486408, -39695.316, -39695.316, 0.0, 10.000029, 9.94367 
2.5950012e+3, 1.2499363e+2, -1719909.6, -1724222.0, 0.03442957, 0.000008516772, 0.000020530622, -1719909.6, -4847.147, 0.0, 10.0000305, 9.994312 
2.5950012e+3, 1.3498788e+2, -1622529.5, -1627432.6, -0.08962433, 0.000008431628, -0.00006924063, -1622529.5, -5410.6323, 0.0, 10.0000305, 9.99353 
2.5950012e+3, 1.4497541e+2, -1534428.1, -1548143.5, 0.025017988, 0.000008380084, 0.0000750244, -1534428.1, -15187.019, 0.0, 10.0000305, 9.981851 
2.5950012e+3, 1.5495728e+2, -1436700.9, -1450819.5, -0.10346774, 0.000008360581, -0.000055268185, -1436700.9, -15282.055, 0.0, 10.00003, 9.981318 
2.5950012e+3, 1.649325e+2, -1348650.1, -1371950.1, 0.020120708, 0.000008333253, 0.000048178677, -1348650.1, -24988.688, 0.0, 10.00003, 9.969234 
2.5950012e+3, 1.7490178e+2, -1250692.5, -1274308.1, -0.09821823, 0.000008297943, -0.00007231862, -1250692.5, -24729.889, 0.0, 10.00003, 9.968821 
2.5950012e+3, 1.8486443e+2, -1162611.6, -1195718.0, 0.018879853, 0.000008260176, 0.00006784357, -1162611.6, -34282.938, 0.0, 10.00003, 9.956381 
2.5950012e+3, 1.9482085e+2, -1064462.3, -1097831.1, -0.10417839, 0.00000821983, -0.00005628374, -1064462.3, -33706.453, 0.0, 10.00003, 9.956038 
2.5950012e+3, 2.047706e+2, -976298.44, -1019433.25, 0.016182771, 0.00000819259, 0.00006927671, -976298.44, -43050.242, 0.0, 10.00003, 9.943276 
2.5950012e+3, 2.1471392e+2, -878011.75, -921408.3, -0.10028231, 0.000008179539, -0.00012563837, -878011.75, -42208.004, 0.0, 10.00003, 9.942936 
2.5950012e+3, 2.2465053e+2, -789725.75, -843143.4, 0.015379346, 0.0000081570515, 0.00012201542, -789725.75, -51300.934, 0.0, 10.00003, 9.9298935 
2.5950012e+3, 2.3458049e+2, -691292.56, -744965.2, -0.09779544, 0.000008123873, -0.00008778526, -691292.56, -50181.313, 0.0, 10.000029, 9.929563 
2.5950012e+3, 2.445035e+2, -602968.7, -667017.6, 0.024405463, 0.000008096606, 0.000075654134, -602968.7, -59102.957, 0.0, 10.000029, 9.916122 
2.5950012e+3, 2.5441974e+2, -504216.25, -568342.4, -0.086842716, 0.000008076405, -0.00010586111, -504216.25, -57529.73, 0.0, 10.000029, 9.916022 
2.5950012e+3, 2.643289e+2, -415981.03, -490987.1, 0.02505798, 0.000008059356, 0.00014138727, -415981.03, -66404.25, 0.0, 10.000029, 9.901951 
2.5950012e+3, 2.742314e+2, -316696.06, -391374.2, -0.08142695, 0.000008046295, -0.00020275007, -316696.06, -64163.816, 0.0, 10.000029, 9.902371 
2.5950012e+3, 2.841257e+2, -230222.89, -318080.66, 0.032270554, 0.000008032492, 0.00022966537, -230222.89, -74654.555, 0.0, 10.000029, 9.885425 
2.5950012e+3, 2.9401216e+2, -130516.96, -217764.61, -0.068806015, 0.000008017646, -0.00025276432, -130516.96, -71836.07, 0.0, 10.000029, 9.886204 
2.5950012e+3, 3.039266e+2, -40773.492, -84750.34, 0.044286277, 0.000008001345, 0.0001736157, -40773.492, -40773.492, 0.0, 10.000029, 9.942159 
2.5950012e+3, 3.138706e+2, -39695.547, -82511.46, -0.05049036, 0.000007982908, -0.000054848882, -39695.547, -39695.547, 0.0, 10.000029, 9.94367 
2.6050013e+3, 1.2499364e+2, -1719907.5, -1724221.4, 0.095348515, 0.000008707206, 0.000020598802, -1719907.5, -4845.187, 0.0, 10.000031, 9.994312 
2.6050013e+3, 1.3498788e+2, -1622527.5, -1627431.9, -0.038124364, 0.000008613383, -0.00006928162, -1622527.5, -5408.6606, 0.0, 10.000031, 9.993529 
2.6050013e+3, 1.4497541e+2, -1534426.1, -1548142.9, 0.077296555, 0.000008557961, 0.0000751352, -1534426.1, -15185.05, 0.0, 10.000031, 9.98185 
2.6050013e+3, 1.5495728e+2, -1436698.8, -1450818.9, -0.04925665, 0.000008539369, -0.00005523644, -1436698.8, -15280.109, 0.0, 10.000031, 9.981318 
2.6050013e+3, 1.649325e+2, -1348648.1, -1371949.5, 0.073749304, 0.000008513294, 0.00004818496, -1348648.1, -24986.756, 0.0, 10.000031, 9.9692335 
2.6050013e+3, 1.7490178e+2, -1250690.5, -1274307.5, -0.057656355, 0.000008479585, -0.000072283045, -1250690.5, -24727.977, 0.0, 10.000031, 9.96882 
2.6050013e+3, 1.8486443e+2, -1162609.8, -1195717.4, 0.0601156, 0.000008441321, 0.000067887355, -1162609.8, -34281.04, 0.0, 10.0000305, 9.956381 
2.6050013e+3, 1.9482085e+2, -1064460.3, -1097830.5, -0.06324953, 0.000008398286, -0.00005625378, -1064460.3, -33704.57, 0.0, 10.0000305, 9.9560375 
2.6050013e+3, 2.047706e+2, -976296.5, -1019432.6, 0.056780726, 0.000008370387, 0.00006929955, -976296.5, -43048.367, 0.0, 10.0000305, 9.943276 
2.6050013e+3, 2.1471392e+2, -878009.8, -921407.75, -0.06368793, 0.000008358877, -0.00012561538, -878009.8, -42206.145, 0.0, 10.0000305, 9.942935 
2.6050013e+3, 2.2465053e+2, -789723.9, -843142.8, 0.054070905, 0.000008335058, 0.00012203881, -789723.9, -51299.082, 0.0, 10.0000305, 9.9298935 
2.6050013e+3, 2.3458049e+2, -691290.7, -744964.56, -0.06847218, 0.000008297295, -0.00008776121, -691290.7, -50179.46, 0.0, 10.0000305, 9.929563 
2.6050013e+3, 2.445035e+2, -602966.8, -667017.06, 0.050507832, 0.000008270287, 0.00007567745, -602966.8, -59101.113, 0.0, 10.0000305, 9.9161215 
2.6050013e+3, 2.5441974e+2, -504214.4, -568341.8, -0.06289111, 0.000008256137, -0.00010584018, -504214.4, -57527.926, 0.0, 10.0000305, 9.916022 
2.6050013e+3, 2.643289e+2, -415979.22, -490986.56, 0.052061208, 0.000008239811, 0.00014140463, -415979.22, -66402.46, 0.0, 10.0000305, 9.901951 
2.6050013e+3, 2.742314e+2, -316694.22, -391373.63, -0.057606503, 0.000008220678, -0.00020273775, -316694.22, -64162.01, 0.0, 10.0000305, 9.90237 
2.6050013e+3, 2.841257e+2, -230221.06, -318080.13, 0.05702575, 0.000008203575, 0.00022967548, -230221.06, -74652.74, 0.0, 10.0000305, 9.885425 
2.6050013e+3, 2.9401216e+2, -130515.15, -217764.1, -0.04997743, 0.000008189253, -0.00025275262, -130515.15, -71834.27, 0.0, 10.0000305, 9.886203 
2.6050013e+3, 3.039266e+2, -40771.71, -84749.85, 0.060251884, 0.000008174705, 0.00017362752, -40771.71, -40771.71, 0.0, 10.00003, 9.942159 
2.6050013e+3, 3.138706e+2, -39693.785, -82510.98, -0.040644728, 0.000008159812, -0.000054839224, -39693.785, -39693.785, 0.0, 10.00003, 9.94367 
2.6150012e+3, 1.24993645e+2, -1719907.9, -1724221.9, 0.038391497, 0.000008889026, 0.000020663867, -1719907.9, -4845.567, 0.0, 10.000031, 9.994311 
2.6150012e+3, 1.3498789e+2, -1622527.8, -1627432.5, -0.09509162, 0.0000088064835, -0.000069305934, -1622527.8, -5409.034, 0.0, 10.000031, 9.993529 
2.6150012e+3, 1.4497542e+2, -1534426.4, -1548143.4, 0.02045729, 0.00000875147, 0.00007526623, -1534426.4, -15185.404, 0.0, 10.000031, 9.98185 
2.6150012e+3, 1.549573e+2, -1436699.1, -1450819.4, -0.10609735, 0.000008722308, -0.000055209013, -1436699.1, -15280.456, 0.0, 10.000031, 9.981318 
2.6150012e+3, 1.649325e+2, -1348648.5, -1371950.0, 0.022191048, 0.000008690034, 0.00004818262, -1348648.5, -24987.11, 0.0, 10.000031, 9.9692335 
2.6150012e+3, 1.749018e+2, -1250690.8, -1274308.1, -0.10918811, 0.000008654585, -0.000072239745, -1250690.8, -24728.322, 0.0, 10.000031, 9.96882 
2.6150012e+3, 1.8486443e+2, -1162610.0, -1195717.9, 0.016156077, 0.000008622394, 0.00006793866, -1162610.0, -34281.363, 0.0, 10.0000305, 9.956381 
2.6150012e+3, 1.9482085e+2, -1064460.5, -1097831.0, -0.10712329, 0.000008593601, -0.000056233886, -1064460.5, -33704.887, 0.0, 10.0000305, 9.9560375 
2.6150012e+3, 2.047706e+2, -976296.75, -1019433.1, 0.01455122, 0.000008564046, 0.00006931295, -976296.75, -43048.68, 0.0, 10.0000305, 9.943275 
2.6150012e+3, 2.1471392e+2, -878010.06, -921408.25, -0.10588599, 0.00000853366, -0.0001255815, -878010.06, -42206.45, 0.0, 10.0000305, 9.942935 
2.6150012e+3, 2.2465053e+2, -789724.1, -843143.3, 0.022524877, 0.00000850366, 0.00012207798, -789724.1, -51299.39, 0.0, 10.0000305, 9.9298935 
2.6150012e+3, 2.3458049e+2, -691290.94, -744965.1, -0.09967061, 0.000008474093, -0.00008773393, -691290.94, -50179.76, 0.0, 10.0000305, 9.929562 
2.6150012e+3, 2.4450351e+2, -602967.06, -667017.56, 0.017535595, 0.000008453651, 0.00007569685, -602967.06, -59101.4, 0.0, 10.0000305, 9.9161215 
2.6150012e+3, 2.5441974e+2, -504214.66, -568342.3, -0.09595071, 0.000008444101, -0.00010582385, -504214.66, -57528.203, 0.0, 10.0000305, 9.916021 
2.6150012e+3, 2.6432893e+2, -415979.47, -490987.06, 0.030494975, 0.000008425481, 0.00014142158, -415979.47, -66402.734, 0.0, 10.0000305, 9.90195 
2.6150012e+3, 2.742314e+2, -316694.47, -391374.13, -0.078404576, 0.000008395284, -0.00020271553, -316694.47, -64162.277, 0.0, 10.0000305, 9.90237 
2.6150012e+3, 2.841257e+2, -230221.31, -318080.66, 0.039216142, 0.000008374239, 0.00022969626, -230221.31, -74653.01, 0.0, 10.0000305, 9.885425 
2.6150012e+3, 2.9401216e+2, -130515.39, -217764.6, -0.06751891, 0.000008365765, -0.00025274247, -130515.39, -71834.53, 0.0, 10.0000305, 9.886203 
2.6150012e+3, 3.039266e+2, -40771.953, -84750.35, 0.04486939, 0.00000835388, 0.0001736314, -40771.953, -40771.953, 0.0, 10.00003, 9.942158 
2.6150012e+3, 3.138706e+2, -39694.027, -82511.484, -0.055775575, 0.000008336827, -0.000054835094, -39694.027, -39694.027, 0.0, 10.00003, 9.943669 
2.625001e+3, 1.2499365e+2, -1719905.6, -1724221.1, 0.10114721, 0.000009077138, 0.000020736838, -1719905.6, -4843.4795, 0.0, 10.000033, 9.994311 
2.625001e+3, 1.3498789e+2, -1622525.8, -1627431.8, -0.038275402, 0.000008998701, -0.00006934769, -1622525.8, -5406.9966, 0.0, 10.000033, 9.993529 
2.625001e+3, 1.4497542e+2, -1534424.3, -1548142.8, 0.07739114, 0.0000089441555, 0.00007538497, -1534424.3, -15183.376, 0.0, 10.000033, 9.98185 
2.625001e+3, 1.549573e+2, -1436697.0, -1450818.6, -0.054723658, 0.000008911765, -0.00005517017, -1436697.0, -15278.431, 0.0, 10.000032, 9.9813175 
2.625001e+3, 1.6493252e+2, -1348646.4, -1371949.4, 0.074342184, 0.000008876582, 0.000048192273, -1348646.4, -24985.096, 0.0, 10.000032, 9.969233 
2.625001e+3, 1.749018e+2, -1250688.8, -1274307.4, -0.058749404, 0.000008838551, -0.00007220747, -1250688.8, -24726.32, 0.0, 10.000032, 9.96882 
2.625001e+3, 1.8486445e+2, -1162607.9, -1195717.3, 0.06774762, 0.000008807786, 0.00006797668, -1162607.9, -34279.37, 0.0, 10.000032, 9.95638 
2.625001e+3, 1.9482087e+2, -1064458.5, -1097830.4, -0.06175586, 0.000008784612, -0.000056207777, -1064458.5, -33702.934, 0.0, 10.000032, 9.9560375 
2.625001e+3, 2.047706e+2, -976294.8, -1019432.5, 0.058613535, 0.000008753447, 0.00006933692, -976294.8, -43046.734, 0.0, 10.000032, 9.943275 
2.625001e+3, 2.1471392e+2, -878008.06, -921407.6, -0.0734686, 0.000008713622, -0.00012554906, -878008.06, -42204.49, 0.0, 10.000032, 9.942935 
2.625001e+3, 2.2465055e+2, -789722.2, -843142.7, 0.053574733, 0.000008682525, 0.00012210979, -789722.2, -51297.438, 0.0, 10.000032, 9.929893 
2.625001e+3, 2.3458049e+2, -691289.0, -744964.5, -0.0663871, 0.000008661301, -0.00008771304, -691289.0, -50177.855, 0.0, 10.000031, 9.929562 
2.625001e+3, 2.4450351e+2, -602965.1, -667017.0, 0.052905772, 0.000008642413, 0.000075712625, -602965.1, -59099.508, 0.0, 10.000031, 9.9161215 
2.625001e+3, 2.5441974e+2, -504212.75, -568341.7, -0.06921122, 0.0000086263, -0.00010580626, -504212.75, -57526.3, 0.0, 10.000031, 9.916021 
2.625001e+3, 2.6432893e+2, -415977.53, -490986.47, 0.05552482, 0.0000086046, 0.00014144128, -415977.53, -66400.83, 0.0, 10.000031, 9.90195 
2.625001e+3, 2.742314e+2, -316692.56, -391373.56, -0.06296569, 0.000008575778, -0.00020269334, -316692.56, -64160.4, 0.0, 10.000031, 9.90237 
2.625001e+3, 2.841257e+2, -230219.42, -318080.1, 0.05234378, 0.000008556428, 0.00022971738, -230219.42, -74651.14, 0.0, 10.000031, 9.885424 
2.625001e+3, 2.9401216e+2, -130513.52, -217764.05, -0.054485302, 0.000008550063, -0.00025272733, -130513.52, -71832.68, 0.0, 10.000031, 9.886203 
2.625001e+3, 3.039266e+2, -40770.11, -84749.84, 0.060720056, 0.000008537046, 0.00017364143, -40770.11, -40770.11, 0.0, 10.000031, 9.942158 
2.625001e+3, 3.1387064e+2, -39692.168, -82510.97, -0.04445872, 0.000008514047, -0.00005482877, -39692.168, -39692.168, 0.0, 10.000031, 9.943669 
2.6350015e+3, 1.2499366e+2, -1719906.0, -1724221.8, 0.034323387, 0.000009271543, 0.000020817843, -1719906.0, -4843.877, 0.0, 10.000033, 9.994311 
2.6350015e+3, 1.349879e+2, -1622526.0, -1627432.4, -0.1051111, 0.0000091900365, -0.00006940688, -1622526.0, -5407.3867, 0.0, 10.000033, 9.993528 
2.6350015e+3, 1.4497544e+2, -1534424.6, -1548143.3, 0.021646127, 0.000009136021, 0.00007549142, -1534424.6, -15183.746, 0.0, 10.000033, 9.981849 
2.6350015e+3, 1.549573e+2, -1436697.3, -1450819.3, -0.11045376, 0.000009107738, -0.000055119923, -1436697.3, -15278.792, 0.0, 10.000032, 9.9813175 
2.6350012e+3, 1.6493252e+2, -1348646.6, -1371949.9, 0.021737006, 0.000009072935, 0.00004821392, -1348646.6, -24985.455, 0.0, 10.000032, 9.969233 
2.6350012e+3, 1.749018e+2, -1250689.0, -1274308.0, -0.11133963, 0.000009031481, -0.00007218621, -1250689.0, -24726.674, 0.0, 10.000032, 9.968819 
2.6350012e+3, 1.8486445e+2, -1162608.3, -1195717.8, 0.01730794, 0.0000089974965, 0.00006800145, -1162608.3, -34279.715, 0.0, 10.000032, 9.95638 
2.6350012e+3, 1.9482087e+2, -1064458.9, -1097831.0, -0.1121731, 0.000008971322, -0.00005617545, -1064458.9, -33703.266, 0.0, 10.000032, 9.956037 
2.6350012e+3, 2.0477061e+2, -976295.06, -1019433.06, 0.021347154, 0.000008938595, 0.000069371476, -976295.06, -43047.07, 0.0, 10.000032, 9.943275 
2.6350012e+3, 2.1471393e+2, -878008.4, -921408.2, -0.1104643, 0.000008898766, -0.00012551807, -878008.4, -42204.82, 0.0, 10.000032, 9.942934 
2.6350012e+3, 2.2465055e+2, -789722.44, -843143.25, 0.013404442, 0.000008871648, 0.00012213425, -789722.44, -51297.746, 0.0, 10.000032, 9.929893 
2.6350012e+3, 2.345805e+2, -691289.25, -744965.06, -0.10666378, 0.000008858913, -0.00008769852, -691289.25, -50178.152, 0.0, 10.000031, 9.929562 
2.6350012e+3, 2.4450351e+2, -602965.4, -667017.5, 0.023964496, 0.000008836572, 0.000075724776, -602965.4, -59099.81, 0.0, 10.000031, 9.916121 
2.6350012e+3, 2.5441974e+2, -504213.0, -568342.25, -0.09760961, 0.000008802736, -0.00010578743, -504213.0, -57526.598, 0.0, 10.000031, 9.916021 
2.6350012e+3, 2.6432893e+2, -415977.78, -490987.03, 0.030733118, 0.000008777175, 0.00014146374, -415977.78, -66401.125, 0.0, 10.000031, 9.90195 
2.6350012e+3, 2.742314e+2, -316692.8, -391374.13, -0.08751694, 0.000008762161, -0.00020267114, -316692.8, -64160.684, 0.0, 10.000031, 9.9023695 
2.6350012e+3, 2.841257e+2, -230219.67, -318080.6, 0.031968474, 0.000008750136, 0.00022973881, -230219.67, -74651.41, 0.0, 10.000031, 9.885424 
2.6350012e+3, 2.9401216e+2, -130513.766, -217764.56, -0.07448688, 0.000008742144, -0.00025270728, -130513.766, -71832.94, 0.0, 10.000031, 9.886202 
2.6350012e+3, 3.039266e+2, -40770.36, -84750.37, 0.04951099, 0.000008724204, 0.0001736576, -40770.36, -40770.36, 0.0, 10.000031, 9.942158 
2.6350012e+3, 3.1387064e+2, -39692.418, -82511.49, -0.054637294, 0.000008691475, -0.000054820255, -39692.418, -39692.418, 0.0, 10.000031, 9.943668 
2.6450014e+3, 1.2499367e+2, -1719903.8, -1724221.0, 0.10258617, 0.000009473653, 0.000020894036, -1719903.8, -4841.7354, 0.0, 10.000035, 9.99431 
2.6450014e+3, 1.349879e+2, -1622523.8, -1627431.6, -0.040140137, 0.000009384149, -0.000069458925, -1622523.8, -5405.234, 0.0, 10.000034, 9.993528 
2.6450014e+3, 1.4497544e+2, -1534422.4, -1548142.5, 0.08523549, 0.000009328704, 0.000075607815, -1534422.4, -15181.598, 0.0, 10.000034, 9.981849 
2.6450014e+3, 1.5495731e+2, -1436695.1, -1450818.5, -0.05680112, 0.000009305562, -0.000055078784, -1436695.1, -15276.686, 0.0, 10.000034, 9.981317 
2.6450014e+3, 1.6493253e+2, -1348644.5, -1371949.1, 0.074772455, 0.000009272813, 0.000048226757, -1348644.5, -24983.371, 0.0, 10.000034, 9.969233 
2.6450014e+3, 1.7490181e+2, -1250686.9, -1274307.3, -0.061663706, 0.000009230261, -0.0000721537, -1250686.9, -24724.607, 0.0, 10.000034, 9.968819 
2.6450014e+3, 1.8486445e+2, -1162606.1, -1195717.1, 0.066373944, 0.0000091918455, 0.00006804206, -1162606.1, -34277.65, 0.0, 10.000034, 9.95638 
2.6450014e+3, 1.9482087e+2, -1064456.8, -1097830.3, -0.07332784, 0.00000915775, -0.00005613883, -1064456.8, -33701.188, 0.0, 10.000034, 9.956037 
2.6450014e+3, 2.0477061e+2, -976292.94, -1019432.4, 0.06110251, 0.000009125661, 0.000069402624, -976292.94, -43045.004, 0.0, 10.000033, 9.9432745 
2.6450014e+3, 2.1471393e+2, -878006.3, -921407.5, -0.0681121, 0.0000090957365, -0.00012549397, -878006.3, -42202.813, 0.0, 10.000033, 9.942934 
2.6450014e+3, 2.2465055e+2, -789720.4, -843142.56, 0.05670089, 0.000009070434, 0.00012215602, -789720.4, -51295.75, 0.0, 10.000033, 9.929893 
2.645001e+3, 2.345805e+2, -691287.2, -744964.4, -0.074992724, 0.000009050355, -0.000087673696, -691287.2, -50176.15, 0.0, 10.000033, 9.929561 
2.645001e+3, 2.4450351e+2, -602963.4, -667016.9, 0.055211656, 0.000009023816, 0.00007575045, -602963.4, -59097.805, 0.0, 10.000033, 9.916121 
2.645001e+3, 2.5441974e+2, -504210.97, -568341.6, -0.07064303, 0.000008989548, -0.000105763545, -504210.97, -57524.605, 0.0, 10.000033, 9.91602 
2.645001e+3, 2.6432893e+2, -415975.78, -490986.44, 0.057518706, 0.000008965212, 0.00014148386, -415975.78, -66399.15, 0.0, 10.000033, 9.901949 
2.645001e+3, 2.742314e+2, -316690.84, -391373.53, -0.06197898, 0.000008953522, -0.0002026573, -316690.84, -64158.73, 0.0, 10.000033, 9.9023695 
2.645001e+3, 2.8412572e+2, -230217.7, -318080.03, 0.058960907, 0.000008941983, 0.00022975031, -230217.7, -74649.46, 0.0, 10.000033, 9.885424 
2.645001e+3, 2.9401216e+2, -130511.805, -217763.98, -0.057355758, 0.00000893058, -0.00025269273, -130511.805, -71830.99, 0.0, 10.000033, 9.886202 
2.645001e+3, 3.039266e+2, -40768.426, -84749.836, 0.064726695, 0.000008911371, 0.00017367148, -40768.426, -40768.426, 0.0, 10.000033, 9.942157 
2.645001e+3, 3.1387064e+2, -39690.5, -82510.97, -0.04281585, 0.000008880586, -0.00005481254, -39690.5, -39690.5, 0.0, 10.000033, 9.943668 
2.6550016e+3, 1.24993674e+2, -1719904.1, -1724221.6, 0.04026497, 0.000009683468, 0.000020965566, -1719904.1, -4842.1436, 0.0, 10.000035, 9.99431 
2.6550016e+3, 1.3498792e+2, -1622524.1, -1627432.3, -0.10247309, 0.000009581038, -0.00006950383, -1622524.1, -5405.635, 0.0, 10.000034, 9.993528 
2.6550016e+3, 1.4497544e+2, -1534422.8, -1548143.1, 0.021689199, 0.0000095222085, 0.000075734126, -1534422.8, -15181.993, 0.0, 10.000034, 9.981848 
2.6550016e+3, 1.5495731e+2, -1436695.5, -1450819.1, -0.120350294, 0.000009505238, -0.000055046752, -1436695.5, -15277.072, 0.0, 10.000034, 9.981317 
2.6550016e+3, 1.6493253e+2, -1348644.9, -1371949.8, 0.01975756, 0.0000094762145, 0.000048230788, -1348644.9, -24983.74, 0.0, 10.000034, 9.969232 
2.6550016e+3, 1.7490181e+2, -1250687.3, -1274307.9, -0.11663689, 0.000009434892, -0.00007210996, -1250687.3, -24724.97, 0.0, 10.000034, 9.968818 
2.6550016e+3, 1.8486446e+2, -1162606.4, -1195717.8, 0.021053633, 0.000009390831, 0.000068098525, -1162606.4, -34278.016, 0.0, 10.000034, 9.956379 
2.6550016e+3, 1.9482088e+2, -1064457.0, -1097830.9, -0.11853739, 0.0000093438985, -0.000056097913, -1064457.0, -33701.547, 0.0, 10.000034, 9.956036 
2.6550016e+3, 2.0477061e+2, -976293.25, -1019432.94, 0.012460365, 0.000009314644, 0.00006943039, -976293.25, -43045.34, 0.0, 10.000033, 9.9432745 
2.6550016e+3, 2.1471393e+2, -878006.56, -921408.06, -0.11682767, 0.000009304529, -0.00012547678, -878006.56, -42203.14, 0.0, 10.000033, 9.942933 
2.6550016e+3, 2.2465055e+2, -789720.7, -843143.2, 0.021000223, 0.00000927888, 0.00012217513, -789720.7, -51296.082, 0.0, 10.000033, 9.929892 
2.6550016e+3, 2.345805e+2, -691287.5, -744964.94, -0.11026979, 0.000009235632, -0.00008763856, -691287.5, -50176.473, 0.0, 10.000033, 9.929561 
2.6550016e+3, 2.4450353e+2, -602963.6, -667017.44, 0.02450104, 0.00000920415, 0.00007578965, -602963.6, -59098.117, 0.0, 10.000033, 9.916121 
2.6550016e+3, 2.5441974e+2, -504211.25, -568342.2, -0.10113596, 0.000009186731, -0.00010573459, -504211.25, -57524.914, 0.0, 10.000033, 9.91602 
2.6550016e+3, 2.6432893e+2, -415976.06, -490986.97, 0.029228592, 0.000009168704, 0.00014150167, -415976.06, -66399.445, 0.0, 10.000033, 9.901949 
2.6550016e+3, 2.742314e+2, -316691.13, -391374.06, -0.09012343, 0.0000091498605, -0.00020265179, -316691.13, -64159.023, 0.0, 10.000033, 9.902369 
2.6550016e+3, 2.8412572e+2, -230217.97, -318080.56, 0.039665766, 0.00000913197, 0.00022975188, -230217.97, -74649.75, 0.0, 10.000033, 9.885423 
2.6550016e+3, 2.940122e+2, -130512.06, -217764.53, -0.075855486, 0.000009115377, -0.0002526837, -130512.06, -71831.27, 0.0, 10.000033, 9.886202 
2.6550016e+3, 3.039266e+2, -40768.684, -84750.37, 0.050123718, 0.000009098549, 0.00017368309, -40768.684, -40768.684, 0.0, 10.000033, 9.942157 
2.6550016e+3, 3.1387064e+2, -39690.758, -82511.51, -0.056964036, 0.000009081375, -0.000054805627, -39690.758, -39690.758, 0.0, 10.000033, 9.943668 
2.6650015e+3, 1.2499368e+2, -1719901.8, -1724220.8, 0.11378456, 0.000009888586, 0.000021042246, -1719901.8, -4839.881, 0.0, 10.000036, 9.994309 
2.6650015e+3, 1.3498792e+2, -1622521.9, -1627431.4, -0.038924467, 0.000009787825, -0.00006955332, -1622521.9, -5403.4146, 0.0, 10.000036, 9.993527 
2.6650015e+3, 1.4497545e+2, -1534420.4, -1548142.4, 0.083745584, 0.0000097286775, 0.00007585941, -1534420.4, -15179.783, 0.0, 10.000036, 9.981848 
2.6650015e+3, 1.5495732e+2, -1436693.1, -1450818.4, -0.05850379, 0.000009709352, -0.000055011933, -1436693.1, -15274.865, 0.0, 10.000036, 9.981317 
2.6650015e+3, 1.6493255e+2, -1348642.5, -1371949.0, 0.08215433, 0.00000967742, 0.000048237096, -1348642.5, -24981.541, 0.0, 10.000036, 9.969232 
2.6650015e+3, 1.7490183e+2, -1250685.0, -1274307.1, -0.06838359, 0.000009632625, -0.00007206888, -1250685.0, -24722.785, 0.0, 10.000035, 9.968818 
2.6650015e+3, 1.8486446e+2, -1162604.1, -1195717.0, 0.06895767, 0.000009590298, 0.00006814806, -1162604.1, -34275.848, 0.0, 10.000035, 9.956379 
2.6650015e+3, 1.9482088e+2, -1064454.9, -1097830.1, -0.06871983, 0.000009550543, -0.000056067463, -1064454.9, -33699.426, 0.0, 10.000035, 9.956036 
2.6650015e+3, 2.0477062e+2, -976291.06, -1019432.25, 0.06176567, 0.000009521159, 0.00006945299, -976291.06, -43043.23, 0.0, 10.000035, 9.9432745 
2.6650015e+3, 2.1471395e+2, -878004.44, -921407.4, -0.078669615, 0.000009503003, -0.00012544985, -878004.44, -42201.016, 0.0, 10.000035, 9.942933 
2.6650015e+3, 2.2465056e+2, -789718.5, -843142.5, 0.0593194, 0.000009473283, 0.00012220418, -789718.5, -51293.96, 0.0, 10.000035, 9.929892 
2.6650015e+3, 2.345805e+2, -691285.4, -744964.3, -0.07786957, 0.000009430465, -0.0000876099, -691285.4, -50174.37, 0.0, 10.000035, 9.929561 
2.6650015e+3, 2.4450353e+2, -602961.5, -667016.8, 0.055102684, 0.000009401375, 0.00007581594, -602961.5, -59096.035, 0.0, 10.000035, 9.91612 
2.6650015e+3, 2.5441977e+2, -504209.16, -568341.56, -0.07462959, 0.0000093886865, -0.00010571306, -504209.16, -57522.863, 0.0, 10.000035, 9.916019 
2.6650015e+3, 2.6432893e+2, -415974.0, -490986.34, 0.057355594, 0.000009370802, 0.00014152008, -415974.0, -66397.41, 0.0, 10.000034, 9.901949 
2.6650015e+3, 2.742314e+2, -316689.03, -391373.47, -0.06754984, 0.000009346259, -0.00020263439, -316689.03, -64156.977, 0.0, 10.000034, 9.902369 
2.6650015e+3, 2.8412572e+2, -230215.89, -318079.97, 0.06345881, 0.000009325522, 0.00022976763, -230215.89, -74647.7, 0.0, 10.000034, 9.885423 
2.6650015e+3, 2.940122e+2, -130510.016, -217763.95, -0.056046586, 0.00000931002, -0.0002526705, -130510.016, -71829.24, 0.0, 10.000034, 9.886201 
2.6650015e+3, 3.039266e+2, -40766.668, -84749.82, 0.06713262, 0.000009293854, 0.00017369547, -40766.668, -40766.668, 0.0, 10.000034, 9.942157 
2.6650015e+3, 3.1387064e+2, -39688.746, -82510.95, -0.050036937, 0.000009276672, -0.000054791555, -39688.746, -39688.746, 0.0, 10.000034, 9.943667 
2.6750013e+3, 1.249937e+2, -1719902.1, -1724221.5, 0.043476515, 0.00001008901, 0.000021124235, -1719902.1, -4840.3154, 0.0, 10.000036, 9.994309 
2.6750013e+3, 1.3498794e+2, -1622522.1, -1627432.1, -0.109244525, 0.000010004504, -0.000069607406, -1622522.1, -5403.842, 0.0, 10.000036, 9.993527 
2.6750013e+3, 1.4497545e+2, -1534420.8, -1548143.0, 0.021305334, 0.000009948107, 0.00007598366, -1534420.8, -15180.182, 0.0, 10.000036, 9.981848 
2.6750013e+3, 1.5495732e+2, -1436693.5, -1450818.9, -0.12093468, 0.0000099179015, -0.00005497432, -1436693.5, -15275.256, 0.0, 10.000036, 9.981316 
2.6750013e+3, 1.6493255e+2, -1348642.9, -1371949.6, 0.0259558, 0.000009876432, 0.000048245674, -1348642.9, -24981.945, 0.0, 10.000036, 9.969231 
2.6750013e+3, 1.7490183e+2, -1250685.3, -1274307.8, -0.12454998, 0.000009823468, -0.000072030474, -1250685.3, -24723.182, 0.0, 10.000035, 9.968818 
2.6750013e+3, 1.8486448e+2, -1162604.5, -1195717.6, 0.014670331, 0.000009790246, 0.00006819067, -1162604.5, -34276.215, 0.0, 10.000035, 9.956378 
2.6750013e+3, 1.9482088e+2, -1064455.1, -1097830.8, -0.122988425, 0.000009777673, -0.000056047476, -1064455.1, -33699.785, 0.0, 10.000035, 9.956036 
2.6750013e+3, 2.0477062e+2, -976291.4, -1019432.9, 0.018248543, 0.0000097451975, 0.000069470436, -976291.4, -43043.59, 0.0, 10.000035, 9.943274 
2.6750013e+3, 2.1471395e+2, -878004.75, -921408.0, -0.12196698, 0.0000096911635, -0.00012541318, -878004.75, -42201.367, 0.0, 10.000035, 9.942933 
2.6750013e+3, 2.2465056e+2, -789718.8, -843143.06, 0.020671133, 0.000009653654, 0.00012224317, -789718.8, -51294.31, 0.0, 10.000035, 9.929891 
2.6750013e+3, 2.3458052e+2, -691285.6, -744964.9, -0.11636701, 0.000009634851, -0.000087587694, -691285.6, -50174.71, 0.0, 10.000035, 9.92956 
2.6750013e+3, 2.4450353e+2, -602961.8, -667017.4, 0.018721322, 0.000009615483, 0.00007582932, -602961.8, -59096.36, 0.0, 10.000035, 9.91612 
2.6750013e+3, 2.5441977e+2, -504209.47, -568342.1, -0.110911675, 0.000009595413, -0.000105698964, -504209.47, -57523.18, 0.0, 10.000035, 9.916019 
2.6750013e+3, 2.6432893e+2, -415974.28, -490986.9, 0.03180873, 0.000009571508, 0.0001415391, -415974.28, -66397.71, 0.0, 10.000034, 9.901948 
2.6750013e+3, 2.742314e+2, -316689.3, -391374.03, -0.092380136, 0.000009542716, -0.00020260512, -316689.3, -64157.277, 0.0, 10.000034, 9.902369 
2.6750013e+3, 2.8412572e+2, -230216.17, -318080.53, 0.04266778, 0.0000095226405, 0.00022979754, -230216.17, -74648.0, 0.0, 10.000034, 9.885422 
2.6750013e+3, 2.940122e+2, -130510.29, -217764.52, -0.07647554, 0.000009514506, -0.0002526531, -130510.29, -71829.54, 0.0, 10.000034, 9.886201 
2.6750013e+3, 3.039266e+2, -40766.945, -84750.4, 0.05201365, 0.000009497286, 0.00017370861, -40766.945, -40766.945, 0.0, 10.000034, 9.942156 
2.6750013e+3, 3.1387064e+2, -39689.023, -82511.53, -0.0645342, 0.000009466483, -0.000054770335, -39689.023, -39689.023, 0.0, 10.000034, 9.943667 
2.6850015e+3, 1.24993704e+2, -1719899.8, -1724220.6, 0.111180015, 0.000010304208, 0.000021211234, -1719899.8, -4837.972, 0.0, 10.000038, 9.994309 
2.6850015e+3, 1.3498794e+2, -1622519.8, -1627431.3, -0.042934984, 0.000010219502, -0.000069663656, -1622519.8, -5401.515, 0.0, 10.000038, 9.993526 
2.6850015e+3, 1.4497547e+2, -1534418.4, -1548142.1, 0.08862624, 0.000010161293, 0.00007611217, -1534418.4, -15177.861, 0.0, 10.000038, 9.981847 
2.6850015e+3, 1.5495734e+2, -1436691.1, -1450818.1, -0.06607047, 0.000010127611, -0.000054925924, -1436691.1, -15272.954, 0.0, 10.000038, 9.981316 
2.6850015e+3, 1.6493258e+2, -1348640.5, -1371948.9, 0.08224529, 0.000010085488, 0.00004826147, -1348640.5, -24979.664, 0.0, 10.000037, 9.969231 
2.6850015e+3, 1.7490184e+2, -1250683.0, -1274307.0, -0.0645599, 0.00001003475, -0.000071998744, -1250683.0, -24720.924, 0.0, 10.000037, 9.968817 
2.6850015e+3, 1.8486448e+2, -1162602.1, -1195716.9, 0.0736168, 0.000010001965, 0.000068227964, -1162602.1, -34273.965, 0.0, 10.000037, 9.956378 
2.6850015e+3, 1.948209e+2, -1064452.9, -1097830.0, -0.07691369, 0.000009987954, -0.000056015466, -1064452.9, -33697.547, 0.0, 10.000037, 9.956035 
2.6850015e+3, 2.0477064e+2, -976289.1, -1019432.1, 0.0658293, 0.0000099528, 0.00006950198, -976289.1, -43041.367, 0.0, 10.000037, 9.943274 
2.6850015e+3, 2.1471395e+2, -878002.44, -921407.25, -0.08068909, 0.000009894741, -0.00012537692, -878002.44, -42199.152, 0.0, 10.000037, 9.942932 
2.6850015e+3, 2.2465056e+2, -789716.56, -843142.4, 0.060320675, 0.000009857915, 0.00012227679, -789716.56, -51292.105, 0.0, 10.000037, 9.929891 
2.6850015e+3, 2.3458052e+2, -691283.44, -744964.25, -0.07731145, 0.000009845121, -0.0000875651, -691283.44, -50172.543, 0.0, 10.000036, 9.92956 
2.6850015e+3, 2.4450353e+2, -602959.6, -667016.7, 0.06064647, 0.0000098259225, 0.00007584668, -602959.6, -59094.203, 0.0, 10.000036, 9.916119 
2.6850015e+3, 2.5441977e+2, -504207.25, -568341.5, -0.076801814, 0.0000097990405, -0.00010567991, -504207.25, -57521.016, 0.0, 10.000036, 9.916019 
2.6850015e+3, 2.6432893e+2, -415972.1, -490986.28, 0.06326861, 0.000009772285, 0.00014156022, -415972.1, -66395.555, 0.0, 10.000036, 9.901948 
2.6850015e+3, 2.742314e+2, -316687.16, -391373.4, -0.0731224, 0.0000097457, -0.00020258149, -316687.16, -64155.145, 0.0, 10.000036, 9.902368 
2.6850015e+3, 2.8412572e+2, -230214.02, -318079.9, 0.058035176, 0.000009727273, 0.00022982151, -230214.02, -74645.875, 0.0, 10.000036, 9.885422 
2.6850015e+3, 2.940122e+2, -130508.16, -217763.89, -0.06471224, 0.000009720002, -0.00025263173, -130508.16, -71827.42, 0.0, 10.000036, 9.8862 
2.6850015e+3, 3.039266e+2, -40764.848, -84749.82, 0.06687805, 0.000009701902, 0.00017372418, -40764.848, -40764.848, 0.0, 10.000036, 9.942156 
2.6850015e+3, 3.1387064e+2, -39686.926, -82510.96, -0.050443627, 0.000009667642, -0.000054765227, -39686.926, -39686.926, 0.0, 10.000036, 9.943666 
2.6950017e+3, 1.2499371e+2, -1719900.0, -1724221.3, 0.03893119, 0.000010534172, 0.000021303415, -1719900.0, -4838.4136, 0.0, 10.000038, 9.994308 
2.6950014e+3, 1.3498795e+2, -1622520.1, -1627431.9, -0.11519747, 0.000010432822, -0.000069722075, -1622520.1, -5401.9487, 0.0, 10.000038, 9.993526 
2.6950014e+3, 1.4497548e+2, -1534418.6, -1548142.8, 0.023714704, 0.000010368242, 0.00007624493, -1534418.6, -15178.292, 0.0, 10.000038, 9.981847 
2.6950014e+3, 1.5495734e+2, -1436691.5, -1450818.8, -0.13097204, 0.000010338481, -0.00005486674, -1436691.5, -15273.376, 0.0, 10.000038, 9.981315 
2.6950014e+3, 1.6493258e+2, -1348640.9, -1371949.5, 0.022402732, 0.00001030458, 0.00004828447, -1348640.9, -24980.063, 0.0, 10.000037, 9.969231 
2.6950014e+3, 1.7490184e+2, -1250683.3, -1274307.6, -0.12437884, 0.000010266463, -0.0000719737, -1250683.3, -24721.314, 0.0, 10.000037, 9.968817 
2.6950014e+3, 1.8486448e+2, -1162602.5, -1195717.5, 0.018105416, 0.00001022545, 0.00006825994, -1162602.5, -34274.36, 0.0, 10.000037, 9.956378 
2.6950014e+3, 1.948209e+2, -1064453.1, -1097830.6, -0.13237731, 0.0000101813985, -0.00005597144, -1064453.1, -33697.934, 0.0, 10.000037, 9.956035 
2.6950014e+3, 2.0477064e+2, -976289.44, -1019432.75, 0.021845723, 0.000010143977, 0.00006954759, -976289.44, -43041.742, 0.0, 10.000037, 9.943273 
2.6950014e+3, 2.1471396e+2, -878002.75, -921407.9, -0.12443743, 0.00001011373, -0.00012534103, -878002.75, -42199.523, 0.0, 10.000037, 9.942932 
2.6950014e+3, 2.2465058e+2, -789716.9, -843143.0, 0.015800362, 0.0000100860525, 0.00012230503, -789716.9, -51292.457, 0.0, 10.000037, 9.929891 
2.6950014e+3, 2.3458052e+2, -691283.75, -744964.8, -0.12185981, 0.000010061273, -0.00008754211, -691283.75, -50172.887, 0.0, 10.000036, 9.929559 
2.6950014e+3, 2.4450354e+2, -602959.9, -667017.3, 0.027415942, 0.000010032696, 0.000075868025, -602959.9, -59094.547, 0.0, 10.000036, 9.916119 
2.6950014e+3, 2.5441977e+2, -504207.56, -568342.06, -0.109490916, 0.000009999572, -0.00010565591, -504207.56, -57521.35, 0.0, 10.000036, 9.9160185 
2.6950014e+3, 2.6432893e+2, -415972.38, -490986.9, 0.034468047, 0.000009973135, 0.00014158341, -415972.38, -66395.89, 0.0, 10.000036, 9.901947 
2.6950014e+3, 2.742314e+2, -316687.47, -391374.03, -0.1016632, 0.000009955208, -0.00020256352, -316687.47, -64155.473, 0.0, 10.000036, 9.902368 
2.6950014e+3, 2.8412572e+2, -230214.3, -318080.5, 0.03549489, 0.000009939419, 0.00022983954, -230214.3, -74646.18, 0.0, 10.000036, 9.885422 
2.6950014e+3, 2.940122e+2, -130508.44, -217764.47, -0.086714946, 0.000009926506, -0.0002526064, -130508.44, -71827.73, 0.0, 10.000036, 9.8862 
2.6950014e+3, 3.039266e+2, -40765.13, -84750.41, 0.0524821, 0.000009907703, 0.0001737422, -40765.13, -40765.13, 0.0, 10.000036, 9.942155 
2.6950014e+3, 3.1387064e+2, -39687.207, -82511.55, -0.06394892, 0.000009880146, -0.000054776217, -39687.207, -39687.207, 0.0, 10.000036, 9.943666 
2.7050018e+3, 1.2499372e+2, -1719897.5, -1724220.4, 0.11911659, 0.000010759862, 0.000021383548, -1719897.5, -4835.9727, 0.0, 10.00004, 9.994308 
2.7050018e+3, 1.3498795e+2, -1622517.6, -1627431.1, -0.04588297, 0.000010652404, -0.00006977571, -1622517.6, -5399.517, 0.0, 10.00004, 9.9935255 
2.7050018e+3, 1.4497548e+2, -1534416.1, -1548141.9, 0.09186917, 0.000010586035, 0.000076384706, -1534416.1, -15175.869, 0.0, 10.00004, 9.981846 
2.7050018e+3, 1.5495735e+2, -1436689.0, -1450818.0, -0.06490887, 0.000010558784, -0.000054827153, -1436689.0, -15270.981, 0.0, 10.000039, 9.981315 
2.7050018e+3, 1.6493258e+2, -1348638.4, -1371948.6, 0.086911805, 0.000010526852, 0.000048290345, -1348638.4, -24977.688, 0.0, 10.000039, 9.96923 
2.7050018e+3, 1.7490184e+2, -1250680.9, -1274306.9, -0.07160194, 0.000010490146, -0.00007193363, -1250680.9, -24718.969, 0.0, 10.000039, 9.968816 
2.7050015e+3, 1.8486449e+2, -1162600.1, -1195716.6, 0.07204895, 0.000010444663, 0.00006831161, -1162600.1, -34272.02, 0.0, 10.000039, 9.956377 
2.7050015e+3, 1.9482091e+2, -1064450.8, -1097829.9, -0.08384297, 0.000010389982, -0.000055931843, -1064450.8, -33695.582, 0.0, 10.000039, 9.956034 
2.7050015e+3, 2.0477064e+2, -976287.06, -1019432.0, 0.068767354, 0.000010352627, 0.00006957893, -976287.06, -43039.4, 0.0, 10.000039, 9.943273 
2.7050015e+3, 2.1471396e+2, -878000.44, -921407.2, -0.08088965, 0.00001033403, -0.0001253138, -878000.44, -42197.24, 0.0, 10.000038, 9.942931 
2.7050015e+3, 2.2465058e+2, -789714.56, -843142.25, 0.059437223, 0.000010308942, 0.00012233121, -789714.56, -51290.19, 0.0, 10.000038, 9.92989 
2.7050015e+3, 2.3458053e+2, -691281.44, -744964.1, -0.08891661, 0.000010276496, -0.000087513516, -691281.44, -50170.613, 0.0, 10.000038, 9.929559 
2.7050015e+3, 2.4450354e+2, -602957.6, -667016.6, 0.060237788, 0.000010243534, 0.00007589791, -602957.6, -59092.277, 0.0, 10.000038, 9.916119 
2.7050015e+3, 2.5441977e+2, -504205.25, -568341.4, -0.083345495, 0.0000102099575, -0.00010562607, -504205.25, -57519.098, 0.0, 10.000038, 9.9160185 
2.7050015e+3, 2.6432893e+2, -415970.1, -490986.22, 0.061329767, 0.000010184216, 0.00014160844, -415970.1, -66393.65, 0.0, 10.000038, 9.901947 
2.7050015e+3, 2.7423143e+2, -316685.22, -391373.38, -0.0717642, 0.000010168435, -0.00020254934, -316685.22, -64153.25, 0.0, 10.000038, 9.902367 
2.7050015e+3, 2.8412572e+2, -230212.06, -318079.84, 0.06977521, 0.00001015301, 0.00022984916, -230212.06, -74643.97, 0.0, 10.000038, 9.885421 
2.7050015e+3, 2.940122e+2, -130506.21, -217763.84, -0.06213769, 0.000010138014, -0.0002525927, -130506.21, -71825.52, 0.0, 10.000038, 9.8862 
2.7050015e+3, 3.0392662e+2, -40762.938, -84749.8, 0.07483892, 0.000010118728, 0.00017375629, -40762.938, -40762.938, 0.0, 10.000038, 9.942155 
2.7050015e+3, 3.1387064e+2, -39685.027, -82510.945, -0.047114443, 0.000010093087, -0.000054767388, -39685.027, -39685.027, 0.0, 10.000038, 9.943666 
2.7150017e+3, 1.2499373e+2, -1719897.9, -1724221.1, 0.046894412, 0.000010981283, 0.000021451837, -1719897.9, -4836.4434, 0.0, 10.00004, 9.9943075 
2.7150017e+3, 1.3498797e+2, -1622518.0, -1627431.8, -0.118118264, 0.000010878245, -0.00006982456, -1622518.0, -5399.9795, 0.0, 10.00004, 9.9935255 
2.7150017e+3, 1.449755e+2, -1534416.5, -1548142.6, 0.02234766, 0.000010814665, 0.00007653151, -1534416.5, -15176.309, 0.0, 10.00004, 9.981846 
2.7150017e+3, 1.5495735e+2, -1436689.4, -1450818.6, -0.13442805, 0.000010788518, -0.000054807148, -1436689.4, -15271.411, 0.0, 10.000039, 9.981315 
2.7150017e+3, 1.649326e+2, -1348638.8, -1371949.4, 0.022360781, 0.0000107523, 0.0000482791, -1348638.8, -24978.115, 0.0, 10.000039, 9.96923 
2.7150017e+3, 1.7490186e+2, -1250681.3, -1274307.5, -0.1361301, 0.0000107058095, -0.00007187854, -1250681.3, -24719.389, 0.0, 10.000039, 9.968816 
2.7150017e+3, 1.8486449e+2, -1162600.4, -1195717.4, 0.022431098, 0.000010659607, 0.00006838295, -1162600.4, -34272.434, 0.0, 10.000039, 9.956377 
2.7150017e+3, 1.9482091e+2, -1064451.1, -1097830.5, -0.13328989, 0.000010613696, -0.00005589667, -1064451.1, -33695.98, 0.0, 10.000039, 9.956034 
2.7150017e+3, 2.0477065e+2, -976287.4, -1019432.6, 0.013158868, 0.000010578739, 0.00006959601, -976287.4, -43039.785, 0.0, 10.000039, 9.943272 
2.7150017e+3, 2.1471396e+2, -878000.75, -921407.8, -0.1366275, 0.000010555642, -0.00012529522, -878000.75, -42197.617, 0.0, 10.000038, 9.942931 
2.7150017e+3, 2.2465058e+2, -789714.9, -843142.9, 0.018052496, 0.000010526591, 0.00012235533, -789714.9, -51290.566, 0.0, 10.000038, 9.92989 
2.7150017e+3, 2.3458053e+2, -691281.75, -744964.75, -0.12983474, 0.00001049079, -0.00008747933, -691281.75, -50170.98, 0.0, 10.000038, 9.929559 
2.7150014e+3, 2.4450354e+2, -602957.94, -667017.25, 0.025744269, 0.000010458434, 0.000075936325, -602957.94, -59092.637, 0.0, 10.000038, 9.916118 
2.7150014e+3, 2.5441977e+2, -504205.6, -568342.06, -0.117532305, 0.000010430192, -0.0001055904, -504205.6, -57519.45, 0.0, 10.000038, 9.916018 
2.7150014e+3, 2.6432896e+2, -415970.4, -490986.8, 0.029835353, 0.000010405523, 0.0001416353, -415970.4, -66393.984, 0.0, 10.000038, 9.901947 
2.7150014e+3, 2.7423143e+2, -316685.5, -391373.97, -0.10308124, 0.000010385382, -0.00020253898, -316685.5, -64153.58, 0.0, 10.000038, 9.902367 
2.7150014e+3, 2.8412572e+2, -230212.36, -318080.47, 0.04622193, 0.000010368047, 0.00022985037, -230212.36, -74644.3, 0.0, 10.000038, 9.885421 
2.7150014e+3, 2.940122e+2, -130506.51, -217764.45, -0.08499362, 0.000010354522, -0.00025259057, -130506.51, -71825.84, 0.0, 10.000038, 9.886199 
2.7150014e+3, 3.0392662e+2, -40763.234, -84750.41, 0.05833012, 0.000010334975, 0.00017376643, -40763.234, -40763.234, 0.0, 10.000038, 9.942154 
2.7150014e+3, 3.1387064e+2, -39685.32, -82511.555, -0.06288207, 0.000010306468, -0.000054738754, -39685.32, -39685.32, 0.0, 10.000038, 9.9436655 
2.7250016e+3, 1.2499374e+2, -1719895.3, -1724220.3, 0.12874189, 0.000011207051, 0.00002153862, -1719895.3, -4833.8745, 0.0, 10.000042, 9.9943075 
2.7250016e+3, 1.3498798e+2, -1622515.4, -1627430.9, -0.044794433, 0.000011110332, -0.00006988578, -1622515.4, -5397.458, 0.0, 10.000042, 9.993525 
2.7250016e+3, 1.449755e+2, -1534413.9, -1548141.8, 0.09539297, 0.000011048668, 0.000076671684, -1534413.9, -15173.796, 0.0, 10.000042, 9.981846 
2.7250016e+3, 1.5495737e+2, -1436686.8, -1450817.8, -0.06604744, 0.000011019965, -0.000054765842, -1436686.8, -15268.917, 0.0, 10.000041, 9.981314 
2.7250016e+3, 1.649326e+2, -1348636.3, -1371948.5, 0.090997584, 0.000010978477, 0.00004828806, -1348636.3, -24975.635, 0.0, 10.000041, 9.969229 
2.7250016e+3, 1.7490186e+2, -1250678.6, -1274306.6, -0.07946927, 0.000010923941, -0.000071833965, -1250678.6, -24716.9, 0.0, 10.000041, 9.968816 
2.7250016e+3, 1.848645e+2, -1162597.9, -1195716.5, 0.077526435, 0.000010879944, 0.0000684364, -1162597.9, -34269.957, 0.0, 10.000041, 9.956376 
2.7250016e+3, 1.9482091e+2, -1064448.6, -1097829.8, -0.079502486, 0.000010846962, -0.00005586234, -1064448.6, -33693.582, 0.0, 10.000041, 9.956034 
2.7250016e+3, 2.0477065e+2, -976284.94, -1019431.9, 0.068995394, 0.0000108133145, 0.00006962213, -976284.94, -43037.406, 0.0, 10.00004, 9.943272 
2.7250016e+3, 2.1471398e+2, -877998.3, -921407.0, -0.087622814, 0.00001077894, -0.00012526549, -877998.3, -42195.207, 0.0, 10.00004, 9.94293 
2.7250016e+3, 2.2465059e+2, -789712.44, -843142.1, 0.06789478, 0.0000107437345, 0.00012238673, -789712.44, -51288.156, 0.0, 10.00004, 9.929889 
2.7250016e+3, 2.3458053e+2, -691279.3, -744964.0, -0.08907316, 0.000010707583, -0.00008744847, -691279.3, -50168.59, 0.0, 10.00004, 9.929558 
2.7250016e+3, 2.4450354e+2, -602955.5, -667016.5, 0.06383923, 0.00001067812, 0.00007596423, -602955.5, -59090.27, 0.0, 10.00004, 9.916118 
2.7250016e+3, 2.5441977e+2, -504203.22, -568341.3, -0.08332683, 0.000010656639, -0.00010556835, -504203.22, -57517.12, 0.0, 10.00004, 9.916018 
2.7250016e+3, 2.6432896e+2, -415968.06, -490986.13, 0.06485616, 0.000010633027, 0.00014165531, -415968.06, -66391.67, 0.0, 10.00004, 9.901946 
2.7250016e+3, 2.7423143e+2, -316683.16, -391373.28, -0.078685515, 0.000010606675, -0.00020251617, -316683.16, -64151.26, 0.0, 10.00004, 9.902367 
2.7250016e+3, 2.8412572e+2, -230210.03, -318079.78, 0.068946026, 0.000010585923, 0.00022987186, -230210.03, -74641.98, 0.0, 10.00004, 9.88542 
2.7250016e+3, 2.940122e+2, -130504.19, -217763.8, -0.065513074, 0.000010572839, -0.00025257608, -130504.19, -71823.54, 0.0, 10.00004, 9.886199 
2.7250016e+3, 3.0392662e+2, -40760.94, -84749.78, 0.075367175, 0.000010553313, 0.00017377934, -40760.94, -40760.94, 0.0, 10.00004, 9.942154 
2.7250016e+3, 3.1387064e+2, -39683.03, -82510.93, -0.060064662, 0.000010524171, -0.000054719352, -39683.03, -39683.03, 0.0, 10.000039, 9.9436655 
2.7350017e+3, 1.2499375e+2, -1719895.6, -1724221.0, 0.047755536, 0.000011437166, 0.000021644102, -1719895.6, -4834.369, 0.0, 10.000042, 9.994307 
2.7350017e+3, 1.3498798e+2, -1622515.8, -1627431.6, -0.12579378, 0.000011348661, -0.000069959366, -1622515.8, -5397.9434, 0.0, 10.000042, 9.993525 
2.7350017e+3, 1.4497551e+2, -1534414.3, -1548142.4, 0.023672312, 0.0000112880425, 0.000076805234, -1534414.3, -15174.249, 0.0, 10.000042, 9.981845 
2.7350017e+3, 1.5495737e+2, -1436687.1, -1450818.5, -0.13775837, 0.000011253128, -0.000054703247, -1436687.1, -15269.361, 0.0, 10.000041, 9.981314 
2.7350017e+3, 1.6493261e+2, -1348636.6, -1371949.3, 0.030803245, 0.000011205382, 0.000048317215, -1348636.6, -24976.094, 0.0, 10.000041, 9.969229 
2.7350017e+3, 1.7490187e+2, -1250679.0, -1274307.4, -0.13960305, 0.000011144542, -0.00007179989, -1250679.0, -24717.35, 0.0, 10.000041, 9.968815 
2.7350017e+3, 1.848645e+2, -1162598.3, -1195717.1, 0.0124338595, 0.000011105672, 0.00006847198, -1162598.3, -34270.375, 0.0, 10.000041, 9.956376 
2.7350017e+3, 1.9482093e+2, -1064449.0, -1097830.4, -0.14465602, 0.000011089775, -0.000055828845, -1064449.0, -33693.99, 0.0, 10.000041, 9.956033 
2.7350017e+3, 2.0477065e+2, -976285.25, -1019432.56, 0.021631235, 0.000011056346, 0.00006965729, -976285.25, -43037.81, 0.0, 10.00004, 9.943272 
2.7350017e+3, 2.1471398e+2, -877998.6, -921407.7, -0.13462314, 0.000011003924, -0.00012522461, -877998.6, -42195.605, 0.0, 10.00004, 9.94293 
2.7350017e+3, 2.2465059e+2, -789712.75, -843142.8, 0.02388889, 0.000010960376, 0.00012242541, -789712.75, -51288.55, 0.0, 10.00004, 9.929889 
2.7350017e+3, 2.3458055e+2, -691279.6, -744964.7, -0.1329819, 0.000010926873, -0.000087420914, -691279.6, -50168.98, 0.0, 10.00004, 9.929558 
2.7350017e+3, 2.4450356e+2, -602955.8, -667017.2, 0.021672932, 0.000010902589, 0.00007598163, -602955.8, -59090.64, 0.0, 10.00004, 9.916117 
2.7350017e+3, 2.5441977e+2, -504203.53, -568342.0, -0.12541208, 0.0000108892955, -0.00010555992, -504203.53, -57517.484, 0.0, 10.00004, 9.916018 
2.7350017e+3, 2.6432896e+2, -415968.38, -490986.78, 0.035680138, 0.000010866725, 0.00014166845, -415968.38, -66392.03, 0.0, 10.00004, 9.901946 
2.7350017e+3, 2.7423143e+2, -316683.47, -391373.94, -0.10699969, 0.000010832313, -0.0002024809, -316683.47, -64151.61, 0.0, 10.00004, 9.902366 
2.7350017e+3, 2.8412572e+2, -230210.33, -318080.44, 0.045288518, 0.000010806638, 0.00022991365, -230210.33, -74642.32, 0.0, 10.00004, 9.88542 
2.7350017e+3, 2.940122e+2, -130504.49, -217764.42, -0.0887536, 0.000010792964, -0.00025254922, -130504.49, -71823.87, 0.0, 10.00004, 9.886198 
2.7350017e+3, 3.0392662e+2, -40761.26, -84750.445, 0.058337465, 0.000010773742, 0.000173795, -40761.26, -40761.26, 0.0, 10.00004, 9.942154 
2.7350017e+3, 3.1387064e+2, -39683.355, -82511.6, -0.07636629, 0.000010746194, -0.000054709188, -39683.355, -39683.355, 0.0, 10.000039, 9.943665 
2.7450016e+3, 1.2499376e+2, -1719892.9, -1724220.0, 0.12237665, 0.000011684084, 0.00002174623, -1719892.9, -4831.728, 0.0, 10.000044, 9.994307 
2.7450016e+3, 1.34988e+2, -1622513.0, -1627430.8, -0.04798577, 0.000011587842, -0.00007003008, -1622513.0, -5395.304, 0.0, 10.000044, 9.993525 
2.7450016e+3, 1.4497551e+2, -1534411.6, -1548141.5, 0.10176103, 0.000011522075, 0.000076946155, -1534411.6, -15171.614, 0.0, 10.000044, 9.981845 
2.7450016e+3, 1.5495738e+2, -1436684.4, -1450817.5, -0.0791317, 0.000011484569, -0.000054645694, -1436684.4, -15266.739, 0.0, 10.000043, 9.981313 
2.7450016e+3, 1.6493262e+2, -1348633.9, -1371948.4, 0.08991798, 0.0000114393815, 0.00004833901, -1348633.9, -24973.492, 0.0, 10.000043, 9.969228 
2.7450016e+3, 1.7490187e+2, -1250676.4, -1274306.5, -0.07309561, 0.000011386359, -0.00007176521, -1250676.4, -24714.805, 0.0, 10.000043, 9.968815 
2.7450016e+3, 1.8486452e+2, -1162595.6, -1195716.4, 0.079470046, 0.000011346783, 0.00006851191, -1162595.6, -34267.844, 0.0, 10.000043, 9.956375 
2.7450016e+3, 1.9482093e+2, -1064446.4, -1097829.5, -0.09260931, 0.000011321267, -0.000055791676, -1064446.4, -33691.44, 0.0, 10.000043, 9.956033 
2.7450016e+3, 2.0477067e+2, -976282.7, -1019431.7, 0.07149141, 0.0000112841035, 0.00006969493, -976282.7, -43035.266, 0.0, 10.000042, 9.943271 
2.7450016e+3, 2.1471398e+2, -877996.06, -921406.9, -0.09652178, 0.00001123432, -0.000125183, -877996.06, -42193.1, 0.0, 10.000042, 9.94293 
2.7450016e+3, 2.2465059e+2, -789710.25, -843142.0, 0.061286606, 0.000011193422, 0.00012246407, -789710.25, -51286.07, 0.0, 10.000042, 9.929888 
2.7450016e+3, 2.3458055e+2, -691277.1, -744963.9, -0.09304699, 0.0000111625795, -0.000087393055, -691277.1, -50166.523, 0.0, 10.000042, 9.929557 
2.7450016e+3, 2.4450356e+2, -602953.3, -667016.44, 0.06510868, 0.000011136796, 0.00007600354, -602953.3, -59088.188, 0.0, 10.000042, 9.916117 
2.7450016e+3, 2.544198e+2, -504201.03, -568341.2, -0.08969643, 0.000011117036, -0.00010553816, -504201.03, -57515.027, 0.0, 10.000042, 9.916017 
2.7450016e+3, 2.6432896e+2, -415965.9, -490986.03, 0.07094539, 0.000011092216, 0.0001416908, -415965.9, -66389.58, 0.0, 10.000042, 9.901945 
2.7450016e+3, 2.7423143e+2, -316681.03, -391373.22, -0.08309156, 0.000011060931, -0.00020245706, -316681.03, -64149.19, 0.0, 10.000042, 9.902366 
2.7450016e+3, 2.8412572e+2, -230207.89, -318079.72, 0.06567005, 0.000011036403, 0.0002299388, -230207.89, -74639.91, 0.0, 10.000042, 9.88542 
2.7450016e+3, 2.940122e+2, -130502.07, -217763.72, -0.07403626, 0.000011021142, -0.00025252305, -130502.07, -71821.47, 0.0, 10.000041, 9.886198 
2.7450016e+3, 3.0392662e+2, -40758.883, -84749.8, 0.0777165, 0.000011001298, 0.00017381422, -40758.883, -40758.883, 0.0, 10.000041, 9.942153 
2.7450016e+3, 3.1387064e+2, -39680.98, -82510.95, -0.05109759, 0.000010974582, -0.000054708747, -39680.98, -39680.98, 0.0, 10.000041, 9.943665 
2.755002e+3, 1.24993764e+2, -1719893.3, -1724220.8, 0.043194585, 0.000011947795, 0.000021845242, -1719893.3, -4832.2188, 0.0, 10.000044, 9.994306 
2.7550018e+3, 1.34988e+2, -1622513.4, -1627431.5, -0.12718469, 0.000011827875, -0.00007009792, -1622513.4, -5395.7866, 0.0, 10.000044, 9.993524 
2.7550018e+3, 1.4497553e+2, -1534412.0, -1548142.3, 0.029340222, 0.00001175077, 0.00007709445, -1534412.0, -15172.116, 0.0, 10.000044, 9.981844 
2.7550018e+3, 1.5495738e+2, -1436684.9, -1450818.3, -0.15154117, 0.000011714293, -0.000054593173, -1436684.9, -15267.2295, 0.0, 10.000043, 9.981313 
2.7550018e+3, 1.6493262e+2, -1348634.3, -1371949.0, 0.018801367, 0.000011680474, 0.00004835345, -1348634.3, -24973.938, 0.0, 10.000043, 9.969228 
2.7550018e+3, 1.7490189e+2, -1250676.8, -1274307.3, -0.1442105, 0.0000116493775, -0.000071729904, -1250676.8, -24715.242, 0.0, 10.000043, 9.968814 
2.7550018e+3, 1.8486452e+2, -1162596.0, -1195717.1, 0.020866996, 0.000011603272, 0.0000685562, -1162596.0, -34268.297, 0.0, 10.000043, 9.956375 
2.7550018e+3, 1.9482094e+2, -1064446.8, -1097830.3, -0.15106921, 0.000011541448, -0.000055750843, -1064446.8, -33691.883, 0.0, 10.000043, 9.956032 
2.7550018e+3, 2.0477067e+2, -976283.06, -1019432.44, 0.017482996, 0.000011496599, 0.00006973504, -976283.06, -43035.7, 0.0, 10.000042, 9.943271 
2.7550018e+3, 2.1471399e+2, -877996.44, -921407.6, -0.15043941, 0.000011470127, -0.00012514065, -877996.44, -42193.523, 0.0, 10.000042, 9.942929 
2.7550018e+3, 2.246506e+2, -789710.56, -843142.7, 0.013023632, 0.000011442865, 0.0001225027, -789710.56, -51286.465, 0.0, 10.000042, 9.929888 
2.7550018e+3, 2.3458055e+2, -691277.5, -744964.56, -0.14112918, 0.0000114146915, -0.000087364904, -691277.5, -50166.91, 0.0, 10.000042, 9.929557 
2.7550018e+3, 2.4450356e+2, -602953.7, -667017.1, 0.026478332, 0.0000113807355, 0.00007602995, -602953.7, -59088.58, 0.0, 10.000042, 9.916116 
2.7550018e+3, 2.544198e+2, -504201.38, -568341.9, -0.12787567, 0.0000113398655, -0.000105503066, -504201.38, -57515.406, 0.0, 10.000042, 9.916017 
2.7550018e+3, 2.6432896e+2, -415966.25, -490986.75, 0.0380354, 0.000011309506, 0.00014172234, -415966.25, -66389.96, 0.0, 10.000042, 9.901945 
2.7550018e+3, 2.7423143e+2, -316681.38, -391373.9, -0.11564914, 0.000011292527, -0.00020244464, -316681.38, -64149.563, 0.0, 10.000042, 9.902365 
2.7550018e+3, 2.8412572e+2, -230208.22, -318080.38, 0.040121354, 0.000011275214, 0.00022994728, -230208.22, -74640.26, 0.0, 10.000042, 9.885419 
2.7550018e+3, 2.940122e+2, -130502.39, -217764.38, -0.098957345, 0.00001125737, -0.00025249756, -130502.39, -71821.81, 0.0, 10.000041, 9.886197 
2.7550018e+3, 3.0392662e+2, -40759.195, -84750.445, 0.059935723, 0.000011235977, 0.000173837, -40759.195, -40759.195, 0.0, 10.000041, 9.942153 
2.7550018e+3, 3.1387064e+2, -39681.293, -82511.6, -0.068044625, 0.000011209336, -0.00005471802, -39681.293, -39681.293, 0.0, 10.000041, 9.943664 
2.765002e+3, 1.2499378e+2, -1719890.4, -1724219.8, 0.13486364, 0.000012200287, 0.000021930855, -1719890.4, -4829.4526, 0.0, 10.000046, 9.994306 
2.765002e+3, 1.3498801e+2, -1622510.6, -1627430.5, -0.05761645, 0.000012073116, -0.00007014937, -1622510.6, -5393.0283, 0.0, 10.000046, 9.993524 
2.765002e+3, 1.4497554e+2, -1534409.1, -1548141.3, 0.09638216, 0.000011994734, 0.00007726408, -1534409.1, -15169.368, 0.0, 10.000046, 9.981844 
2.765002e+3, 1.549574e+2, -1436682.0, -1450817.4, -0.073222734, 0.000011962951, -0.00005455529, -1436682.0, -15264.523, 0.0, 10.000045, 9.981312 
2.765002e+3, 1.6493264e+2, -1348631.5, -1371948.1, 0.09721416, 0.000011930219, 0.00004835023, -1348631.5, -24971.254, 0.0, 10.000045, 9.969227 
2.765002e+3, 1.7490189e+2, -1250674.0, -1274306.4, -0.08774417, 0.000011896529, -0.00007168164, -1250674.0, -24712.57, 0.0, 10.000045, 9.968814 
2.7650017e+3, 1.8486454e+2, -1162593.3, -1195716.1, 0.078221306, 0.000011846691, 0.00006862017, -1162593.3, -34265.633, 0.0, 10.000045, 9.956374 
2.7650017e+3, 1.9482094e+2, -1064444.0, -1097829.4, -0.09517685, 0.000011779949, -0.000055708606, -1064444.0, -33689.23, 0.0, 10.000045, 9.956032 
2.7650017e+3, 2.0477068e+2, -976280.3, -1019431.56, 0.07429385, 0.000011734916, 0.000069765425, -976280.3, -43033.063, 0.0, 10.000045, 9.94327 
2.7650017e+3, 2.1471399e+2, -877993.8, -921406.75, -0.093594074, 0.000011713389, -0.00012511142, -877993.8, -42190.92, 0.0, 10.000044, 9.942929 
2.7650017e+3, 2.246506e+2, -789707.94, -843141.9, 0.07081525, 0.000011687731, 0.0001225317, -789707.94, -51283.88, 0.0, 10.000044, 9.929888 
2.7650017e+3, 2.3458056e+2, -691274.9, -744963.75, -0.09937721, 0.000011657382, -0.00008733512, -691274.9, -50164.336, 0.0, 10.000044, 9.929556 
2.7650017e+3, 2.4450357e+2, -602951.06, -667016.3, 0.06494193, 0.000011620744, 0.000076061595, -602951.06, -59086.016, 0.0, 10.000044, 9.916116 
2.7650017e+3, 2.544198e+2, -504198.78, -568341.1, -0.09847874, 0.000011576591, -0.00010546827, -504198.78, -57512.855, 0.0, 10.000044, 9.916016 
2.7650017e+3, 2.6432896e+2, -415963.66, -490985.97, 0.0681326, 0.000011545366, 0.00014175288, -415963.66, -66387.42, 0.0, 10.000044, 9.901944 
2.7650017e+3, 2.7423143e+2, -316678.8, -391373.16, -0.081109405, 0.000011530598, -0.00020242781, -316678.8, -64147.043, 0.0, 10.000044, 9.902365 
2.7650017e+3, 2.8412575e+2, -230205.69, -318079.63, 0.080341734, 0.0000115142275, 0.00022995716, -230205.69, -74637.75, 0.0, 10.000044, 9.885419 
2.7650017e+3, 2.940122e+2, -130499.875, -217763.66, -0.069407515, 0.000011495573, -0.00025248542, -130499.875, -71819.32, 0.0, 10.000043, 9.886197 
2.7650017e+3, 3.0392662e+2, -40756.715, -84749.76, 0.082962215, 0.000011473289, 0.0001738515, -40756.715, -40756.715, 0.0, 10.000043, 9.942152 
2.7650017e+3, 3.1387064e+2, -39678.816, -82510.914, -0.059905704, 0.0000114456525, -0.00005470115, -39678.816, -39678.816, 0.0, 10.000043, 9.943664 
2.7750018e+3, 1.24993786e+2, -1719890.9, -1724220.6, 0.05630151, 0.000012441568, 0.000022003345, -1719890.9, -4829.999, 0.0, 10.000046, 9.994305 
2.7750018e+3, 1.3498802e+2, -1622511.0, -1627431.3, -0.13619152, 0.00001232356, -0.000070184426, -1622511.0, -5393.565, 0.0, 10.000046, 9.993523 
2.7750018e+3, 1.4497554e+2, -1534409.5, -1548142.0, 0.016294207, 0.000012253961, 0.00007745502, -1534409.5, -15169.848, 0.0, 10.000046, 9.981843 
2.7750018e+3, 1.5495741e+2, -1436682.4, -1450818.1, -0.15331715, 0.000012230534, -0.000054532036, -1436682.4, -15264.993, 0.0, 10.000045, 9.981312 
2.7750018e+3, 1.6493264e+2, -1348632.0, -1371948.9, 0.025611863, 0.000012188614, 0.000048329362, -1348632.0, -24971.75, 0.0, 10.000045, 9.969227 
2.7750018e+3, 1.749019e+2, -1250674.5, -1274307.1, -0.15930355, 0.000012127825, -0.00007162043, -1250674.5, -24713.059, 0.0, 10.000045, 9.968813 
2.7750018e+3, 1.8486454e+2, -1162593.6, -1195716.9, 0.019398725, 0.000012077056, 0.00006870381, -1162593.6, -34266.09, 0.0, 10.000045, 9.956374 
2.7750018e+3, 1.9482096e+2, -1064444.4, -1097830.1, -0.1538547, 0.000012036761, -0.00005566496, -1064444.4, -33689.68, 0.0, 10.000045, 9.956031 
2.7750018e+3, 2.0477068e+2, -976280.7, -1019432.3, 0.014099286, 0.00001199904, 0.000069786096, -976280.7, -43033.496, 0.0, 10.000045, 9.94327 
2.7750018e+3, 2.14714e+2, -877994.1, -921407.5, -0.15382314, 0.000011964101, -0.00012509526, -877994.1, -42191.348, 0.0, 10.000044, 9.942928 
2.7750018e+3, 2.2465062e+2, -789708.3, -843142.6, 0.021530624, 0.000011928027, 0.0001225511, -789708.3, -51284.31, 0.0, 10.000044, 9.929887 
2.7750018e+3, 2.3458056e+2, -691275.25, -744964.5, -0.148306, 0.000011890659, -0.000087303706, -691275.25, -50164.758, 0.0, 10.000044, 9.929556 
2.7750018e+3, 2.4450357e+2, -602951.44, -667017.0, 0.025998615, 0.000011856825, 0.00007609847, -602951.44, -59086.426, 0.0, 10.000044, 9.916115 
2.7750018e+3, 2.544198e+2, -504199.16, -568341.8, -0.1369445, 0.000011827205, -0.00010543378, -504199.16, -57513.258, 0.0, 10.000044, 9.916016 
2.7750018e+3, 2.6432896e+2, -415964.0, -490986.66, 0.032431766, 0.000011799783, 0.0001417824, -415964.0, -66387.8, 0.0, 10.000044, 9.901944 
2.7750018e+3, 2.7423143e+2, -316679.16, -391373.84, -0.116629615, 0.000011775142, -0.00020240653, -316679.16, -64147.41, 0.0, 10.000044, 9.902364 
2.7750018e+3, 2.8412575e+2, -230206.03, -318080.34, 0.053418096, 0.000011753445, 0.00022996841, -230206.03, -74638.12, 0.0, 10.000044, 9.885418 
2.7750018e+3, 2.940122e+2, -130500.21, -217764.36, -0.0955588, 0.000011735752, -0.00025248658, -130500.21, -71819.68, 0.0, 10.000043, 9.886196 
2.7750018e+3, 3.0392662e+2, -40757.055, -84750.46, 0.064008504, 0.000011713234, 0.00017385771, -40757.055, -40757.055, 0.0, 10.000043, 9.942152 
2.7750018e+3, 3.1387064e+2, -39679.156, -82511.625, -0.07801834, 0.0000116835345, -0.000054658158, -39679.156, -39679.156, 0.0, 10.000043, 9.943663 
2.785002e+3, 1.2499381e+2, -1719887.9, -1724219.5, 0.14373161, 0.000012688199, 0.000022107532, -1719887.9, -4827.0645, 0.0, 10.000048, 9.994305 
2.785002e+3, 1.3498802e+2, -1622508.1, -1627430.4, -0.04833982, 0.000012585554, -0.00007026364, -1622508.1, -5390.722, 0.0, 10.000048, 9.993522 
2.785002e+3, 1.4497556e+2, -1534406.6, -1548141.0, 0.104793765, 0.000012520841, 0.00007760613, -1534406.6, -15167.02, 0.0, 10.000048, 9.981843 
2.785002e+3, 1.5495741e+2, -1436679.5, -1450817.1, -0.08196713, 0.000012491712, -0.000054479933, -1436679.5, -15262.17, 0.0, 10.000048, 9.981311 
2.785002e+3, 1.6493265e+2, -1348629.0, -1371948.0, 0.09686809, 0.000012442108, 0.000048345646, -1348629.0, -24968.943, 0.0, 10.000047, 9.969226 
2.785002e+3, 1.749019e+2, -1250671.5, -1274306.1, -0.09106217, 0.000012371603, -0.00007157542, -1250671.5, -24710.244, 0.0, 10.000047, 9.968813 
2.785002e+3, 1.8486455e+2, -1162590.8, -1195716.0, 0.08607955, 0.000012322947, 0.000068756824, -1162590.8, -34263.29, 0.0, 10.000047, 9.956373 
2.785002e+3, 1.9482096e+2, -1064441.6, -1097829.3, -0.09424676, 0.00001229714, -0.000055625624, -1064441.6, -33686.953, 0.0, 10.000047, 9.956031 
2.785002e+3, 2.047707e+2, -976277.94, -1019431.4, 0.07396891, 0.000012261598, 0.00006981922, -976277.94, -43030.793, 0.0, 10.000047, 9.943269 
2.785002e+3, 2.14714e+2, -877991.4, -921406.6, -0.10584531, 0.000012215509, -0.00012506025, -877991.4, -42188.63, 0.0, 10.000047, 9.942928 
2.785002e+3, 2.2465062e+2, -789705.5, -843141.75, 0.06819309, 0.0000121726125, 0.00012258686, -789705.5, -51281.586, 0.0, 10.000046, 9.929887 
2.785002e+3, 2.3458056e+2, -691272.44, -744963.6, -0.106037565, 0.000012133325, -0.00008726844, -691272.44, -50162.05, 0.0, 10.000046, 9.929555 
2.785002e+3, 2.4450357e+2, -602948.7, -667016.2, 0.07055858, 0.000012101782, 0.000076129414, -602948.7, -59083.74, 0.0, 10.000046, 9.916115 
2.785002e+3, 2.544198e+2, -504196.47, -568341.06, -0.09606181, 0.000012079476, -0.00010541172, -504196.47, -57510.617, 0.0, 10.000046, 9.916015 
2.785002e+3, 2.6432896e+2, -415961.34, -490985.88, 0.07174891, 0.000012053679, 0.00014180302, -415961.34, -66385.17, 0.0, 10.000046, 9.901943 
2.785002e+3, 2.7423143e+2, -316676.5, -391373.06, -0.094052486, 0.000012023407, -0.00020237791, -316676.5, -64144.79, 0.0, 10.000046, 9.902364 
2.785002e+3, 2.8412575e+2, -230203.38, -318079.56, 0.07255962, 0.0000119984015, 0.00022999808, -230203.38, -74635.5, 0.0, 10.000046, 9.885418 
2.785002e+3, 2.940122e+2, -130497.58, -217763.61, -0.0773037, 0.000011980613, -0.00025246546, -130497.58, -71817.07, 0.0, 10.000046, 9.886196 
2.785002e+3, 3.0392662e+2, -40754.465, -84749.76, 0.08540045, 0.000011957737, 0.00017387357, -40754.465, -40754.465, 0.0, 10.000046, 9.942151 
2.785002e+3, 3.1387064e+2, -39676.566, -82510.92, -0.06424995, 0.000011927262, -0.00005464262, -39676.566, -39676.566, 0.0, 10.000045, 9.943663 
2.795002e+3, 1.24993816e+2, -1719888.3, -1724220.4, 0.04627842, 0.000012940176, 0.000022243688, -1719888.3, -4827.6143, 0.0, 10.000048, 9.994304 
2.795002e+3, 1.3498804e+2, -1622508.5, -1627431.1, -0.14581048, 0.000012859089, -0.000070386974, -1622508.5, -5391.262, 0.0, 10.000048, 9.993522 
2.795002e+3, 1.4497557e+2, -1534407.0, -1548141.8, 0.02601092, 0.000012795368, 0.00007771743, -1534407.0, -15167.542, 0.0, 10.000048, 9.981842 
2.795002e+3, 1.5495743e+2, -1436679.9, -1450817.9, -0.16072553, 0.000012746496, -0.000054399003, -1436679.9, -15262.683, 0.0, 10.000048, 9.981311 
2.795002e+3, 1.6493265e+2, -1348629.5, -1371948.8, 0.02913909, 0.000012690704, 0.000048399044, -1348629.5, -24969.451, 0.0, 10.000047, 9.969226 
2.795002e+3, 1.7490192e+2, -1250672.0, -1274307.0, -0.15873402, 0.000012627855, -0.00007154661, -1250672.0, -24710.742, 0.0, 10.000047, 9.968812 
2.795002e+3, 1.8486455e+2, -1162591.3, -1195716.8, 0.011975605, 0.0000125843535, 0.00006877924, -1162591.3, -34263.766, 0.0, 10.000047, 9.956373 
2.795002e+3, 1.9482097e+2, -1064442.0, -1097830.0, -0.16842858, 0.000012561083, -0.000055590597, -1064442.0, -33687.42, 0.0, 10.000047, 9.95603 
2.795002e+3, 2.047707e+2, -976278.3, -1019432.2, 0.020199576, 0.000012522593, 0.000069864785, -976278.3, -43031.258, 0.0, 10.000047, 9.943269 
2.795002e+3, 2.1471402e+2, -877991.75, -921407.4, -0.15919614, 0.000012467615, -0.0001250064, -877991.75, -42189.082, 0.0, 10.000047, 9.942927 
2.795002e+3, 2.2465062e+2, -789705.94, -843142.5, 0.017935134, 0.000012421488, 0.00012263902, -789705.94, -51282.03, 0.0, 10.000046, 9.929886 
2.795002e+3, 2.3458058e+2, -691272.8, -744964.4, -0.1561966, 0.000012385377, -0.000087229324, -691272.8, -50162.484, 0.0, 10.000046, 9.929555 
2.795002e+3, 2.4450359e+2, -602949.06, -667016.94, 0.023179282, 0.000012355611, 0.00007615443, -602949.06, -59084.16, 0.0, 10.000046, 9.916114 
2.795002e+3, 2.544198e+2, -504196.8, -568341.75, -0.14331067, 0.000012333407, -0.00010540207, -504196.8, -57511.027, 0.0, 10.000046, 9.916015 
2.795002e+3, 2.64329e+2, -415961.72, -490986.63, 0.03779455, 0.000012307053, 0.00014181473, -415961.72, -66385.586, 0.0, 10.000046, 9.901943 
2.795002e+3, 2.7423146e+2, -316676.84, -391373.8, -0.12711857, 0.000012275393, -0.00020234192, -316676.84, -64145.19, 0.0, 10.000046, 9.902363 
2.795002e+3, 2.8412575e+2, -230203.72, -318080.28, 0.0449624, 0.0000122490965, 0.00023004616, -230203.72, -74635.875, 0.0, 10.000046, 9.885417 
2.795002e+3, 2.9401222e+2, -130497.92, -217764.31, -0.10441262, 0.0000122301535, -0.00025242203, -130497.92, -71817.445, 0.0, 10.000046, 9.886195 
2.795002e+3, 3.0392662e+2, -40754.82, -84750.49, 0.06697224, 0.000012206796, 0.00017389907, -40754.82, -40754.82, 0.0, 10.000046, 9.942151 
2.795002e+3, 3.1387064e+2, -39676.92, -82511.664, -0.08166111, 0.000012176834, -0.000054654516, -39676.92, -39676.92, 0.0, 10.000045, 9.943662 
2.8050023e+3, 1.2499383e+2, -1719885.3, -1724219.3, 0.13946104, 0.000013220499, 0.000022350103, -1719885.3, -4824.647, 0.0, 10.000051, 9.994304 
2.805002e+3, 1.3498805e+2, -1622505.4, -1627430.1, -0.05463575, 0.000013126036, -0.00007047128, -1622505.4, -5388.265, 0.0, 10.00005, 9.993521 
2.805002e+3, 1.4497557e+2, -1534404.0, -1548140.8, 0.119939454, 0.0000130541375, 0.00007787645, -1534404.0, -15164.548, 0.0, 10.00005, 9.981842 
2.805002e+3, 1.5495744e+2, -1436676.9, -1450816.9, -0.08546935, 0.000013002269, -0.000054339096, -1436676.9, -15259.709, 0.0, 10.00005, 9.98131 
2.805002e+3, 1.6493267e+2, -1348626.4, -1371947.8, 0.10075271, 0.000012951475, 0.000048419293, -1348626.4, -24966.502, 0.0, 10.00005, 9.969225 
2.805002e+3, 1.7490193e+2, -1250669.0, -1274306.0, -0.08625013, 0.000012901782, -0.00007150525, -1250669.0, -24707.867, 0.0, 10.000049, 9.968812 
2.805002e+3, 1.8486457e+2, -1162588.3, -1195715.8, 0.08441692, 0.00001285677, 0.00006882816, -1162588.3, -34260.91, 0.0, 10.000049, 9.956372 
2.805002e+3, 1.9482097e+2, -1064439.0, -1097829.0, -0.11029722, 0.000012816645, -0.0000555483, -1064439.0, -33684.53, 0.0, 10.000049, 9.95603 
2.805002e+3, 2.0477071e+2, -976275.4, -1019431.25, 0.07752095, 0.0000127736175, 0.00006990542, -976275.4, -43028.37, 0.0, 10.000049, 9.943268 
2.805002e+3, 2.1471402e+2, -877988.9, -921406.44, -0.10886115, 0.000012727442, -0.00012496205, -877988.9, -42186.25, 0.0, 10.000049, 9.942927 
2.805002e+3, 2.2465064e+2, -789703.06, -843141.6, 0.069089614, 0.000012685324, 0.00012268053, -789703.06, -51279.227, 0.0, 10.000049, 9.929885 
2.805002e+3, 2.3458058e+2, -691270.0, -744963.5, -0.1100291, 0.0000126477935, -0.00008719802, -691270.0, -50159.707, 0.0, 10.000048, 9.929554 
2.805002e+3, 2.4450359e+2, -602946.25, -667016.06, 0.068634905, 0.0000126151435, 0.00007618128, -602946.25, -59081.383, 0.0, 10.000048, 9.916114 
2.805002e+3, 2.544198e+2, -504194.0, -568340.94, -0.10642034, 0.000012588309, -0.00010537278, -504194.0, -57508.25, 0.0, 10.000048, 9.916014 
2.805002e+3, 2.64329e+2, -415958.9, -490985.78, 0.07682461, 0.000012560613, 0.0001418427, -415958.9, -66382.82, 0.0, 10.000048, 9.901942 
2.805002e+3, 2.7423146e+2, -316674.1, -391373.0, -0.093223974, 0.000012531796, -0.00020232008, -316674.1, -64142.453, 0.0, 10.000048, 9.902363 
2.805002e+3, 2.8412575e+2, -230200.97, -318079.47, 0.07776634, 0.000012506047, 0.00023006662, -230200.97, -74633.15, 0.0, 10.000048, 9.885417 
2.805002e+3, 2.9401222e+2, -130495.18, -217763.53, -0.083618864, 0.000012484491, -0.00025239648, -130495.18, -71814.73, 0.0, 10.000048, 9.886195 
2.805002e+3, 3.0392662e+2, -40752.125, -84749.75, 0.087260686, 0.000012460956, 0.00017392095, -40752.125, -40752.125, 0.0, 10.000048, 9.94215 
2.805002e+3, 3.1387064e+2, -39674.246, -82510.93, -0.059135113, 0.0000124344615, -0.000054649474, -39674.246, -39674.246, 0.0, 10.000048, 9.943662 
2.8150022e+3, 1.2499384e+2, -1719885.6, -1724220.1, 0.051444594, 0.000013529146, 0.000022427132, -1719885.6, -4825.206, 0.0, 10.000051, 9.994303 
2.8150022e+3, 1.3498807e+2, -1622505.9, -1627430.9, -0.14267254, 0.000013386401, -0.00007051658, -1622505.9, -5388.815, 0.0, 10.00005, 9.993521 
2.8150022e+3, 1.4497559e+2, -1534404.4, -1548141.6, 0.03855003, 0.0000132971645, 0.000078083154, -1534404.4, -15165.117, 0.0, 10.00005, 9.981841 
2.8150022e+3, 1.5495744e+2, -1436677.4, -1450817.8, -0.16684516, 0.000013259035, -0.000054300195, -1436677.4, -15260.268, 0.0, 10.00005, 9.98131 
2.8150022e+3, 1.6493268e+2, -1348626.9, -1371948.5, 0.018435335, 0.00001322441, 0.000048406422, -1348626.9, -24967.012, 0.0, 10.00005, 9.969225 
2.815002e+3, 1.7490193e+2, -1250669.4, -1274306.8, -0.16857813, 0.000013193371, -0.00007145137, -1250669.4, -24708.367, 0.0, 10.000049, 9.968811 
2.815002e+3, 1.8486457e+2, -1162588.6, -1195716.6, 0.020896506, 0.000013140191, 0.00006890356, -1162588.6, -34261.42, 0.0, 10.000049, 9.956372 
2.815002e+3, 1.9482099e+2, -1064439.5, -1097829.9, -0.173601, 0.000013063835, -0.000055498735, -1064439.5, -33685.035, 0.0, 10.000049, 9.956029 
2.815002e+3, 2.0477071e+2, -976275.75, -1019432.0, 0.0134494305, 0.000013014683, 0.00006994113, -976275.75, -43028.85, 0.0, 10.000049, 9.943268 
2.815002e+3, 2.1471402e+2, -877989.25, -921407.25, -0.17295097, 0.000012994986, -0.00012492723, -877989.25, -42186.723, 0.0, 10.000049, 9.942926 
2.815002e+3, 2.2465064e+2, -789703.44, -843142.4, 0.015518343, 0.000012964112, 0.00012271143, -789703.44, -51279.684, 0.0, 10.000049, 9.929885 
2.815002e+3, 2.3458058e+2, -691270.4, -744964.3, -0.16325986, 0.00001292057, -0.000087174536, -691270.4, -50160.152, 0.0, 10.000048, 9.929554 
2.815002e+3, 2.4450359e+2, -602946.6, -667016.8, 0.024420226, 0.000012880376, 0.00007620995, -602946.6, -59081.824, 0.0, 10.000048, 9.916113 
2.815002e+3, 2.5441983e+2, -504194.38, -568341.7, -0.15020588, 0.000012844186, -0.00010532387, -504194.38, -57508.68, 0.0, 10.000048, 9.916014 
2.815002e+3, 2.64329e+2, -415959.28, -490986.56, 0.03856574, 0.000012814361, 0.0001418869, -415959.28, -66383.24, 0.0, 10.000048, 9.901942 
2.815002e+3, 2.7423146e+2, -316674.47, -391373.78, -0.13111465, 0.000012792614, -0.00020231235, -316674.47, -64142.87, 0.0, 10.000048, 9.902362 
2.815002e+3, 2.8412575e+2, -230201.33, -318080.25, 0.049106766, 0.000012769251, 0.0002300595, -230201.33, -74633.555, 0.0, 10.000048, 9.885416 
2.815002e+3, 2.9401222e+2, -130495.55, -217764.28, -0.111450344, 0.000012743624, -0.0002523887, -130495.55, -71815.12, 0.0, 10.000048, 9.886194 
2.815002e+3, 3.0392662e+2, -40752.48, -84750.49, 0.06465756, 0.000012720216, 0.00017393922, -40752.48, -40752.48, 0.0, 10.000048, 9.94215 
2.815002e+3, 3.1387064e+2, -39674.6, -82511.67, -0.08113092, 0.000012700139, -0.000054627508, -39674.6, -39674.6, 0.0, 10.000048, 9.943661 
2.825002e+3, 1.2499385e+2, -1719882.4, -1724219.0, 0.1482096, 0.000013814643, 0.000022528471, -1719882.4, -4822.076, 0.0, 10.000052, 9.994303 
2.825002e+3, 1.3498807e+2, -1622502.6, -1627429.9, -0.07169528, 0.000013657976, -0.00007057197, -1622502.6, -5385.6924, 0.0, 10.000052, 9.99352 
2.825002e+3, 1.449756e+2, -1534401.1, -1548140.5, 0.10593853, 0.000013566639, 0.00007827887, -1534401.1, -15162.003, 0.0, 10.000052, 9.98184 
2.825002e+3, 1.5495746e+2, -1436674.1, -1450816.6, -0.08356066, 0.00001353825, -0.00005425695, -1436674.1, -15257.206, 0.0, 10.0000515, 9.981309 
2.825002e+3, 1.6493268e+2, -1348623.8, -1371947.5, 0.10395404, 0.000013504649, 0.00004840203, -1348623.8, -24963.979, 0.0, 10.0000515, 9.969224 
2.825002e+3, 1.7490195e+2, -1250666.3, -1274305.8, -0.10660533, 0.000013465734, -0.00007139634, -1250666.3, -24705.334, 0.0, 10.0000515, 9.96881 
2.825002e+3, 1.8486458e+2, -1162585.6, -1195715.6, 0.085954905, 0.000013409423, 0.000068975525, -1162585.6, -34258.4, 0.0, 10.0000515, 9.956371 
2.825002e+3, 1.9482099e+2, -1064436.4, -1097828.9, -0.107197374, 0.0000133349, -0.000055454337, -1064436.4, -33682.047, 0.0, 10.000051, 9.956029 
2.825002e+3, 2.0477074e+2, -976272.75, -1019431.06, 0.07849625, 0.000013285918, 0.0000699724, -976272.75, -43025.887, 0.0, 10.000051, 9.943267 
2.825002e+3, 2.1471404e+2, -877986.25, -921406.3, -0.11596541, 0.000013264586, -0.00012489346, -877986.25, -42183.773, 0.0, 10.000051, 9.942926 
2.825002e+3, 2.2465065e+2, -789700.44, -843141.44, 0.073984146, 0.000013233218, 0.00012274619, -789700.44, -51276.746, 0.0, 10.000051, 9.929884 
2.825002e+3, 2.3458059e+2, -691267.44, -744963.4, -0.11466506, 0.000013190472, -0.0000871405, -691267.44, -50157.234, 0.0, 10.000051, 9.929553 
2.825002e+3, 2.445036e+2, -602943.7, -667015.94, 0.071356215, 0.000013149588, 0.00007624335, -602943.7, -59078.926, 0.0, 10.000051, 9.916113 
2.825002e+3, 2.5441983e+2, -504191.47, -568340.8, -0.114045754, 0.000013110934, -0.000105290994, -504191.47, -57505.805, 0.0, 10.00005, 9.916013 
2.825002e+3, 2.64329e+2, -415956.38, -490985.7, 0.074320294, 0.000013079542, 0.0001419166, -415956.38, -66380.375, 0.0, 10.00005, 9.901941 
2.825002e+3, 2.7423146e+2, -316671.56, -391372.94, -0.09717234, 0.000013057376, -0.00020228923, -316671.56, -64140.016, 0.0, 10.00005, 9.902362 
2.825002e+3, 2.8412575e+2, -230198.45, -318079.4, 0.08714499, 0.000013034459, 0.00023007781, -230198.45, -74630.71, 0.0, 10.00005, 9.885416 
2.825002e+3, 2.9401222e+2, -130492.7, -217763.47, -0.07912708, 0.000013010457, -0.00025237273, -130492.7, -71812.305, 0.0, 10.00005, 9.886194 
2.825002e+3, 3.0392662e+2, -40749.676, -84749.72, 0.092505656, 0.000012986357, 0.00017395538, -40749.676, -40749.676, 0.0, 10.00005, 9.942149 
2.825002e+3, 3.1387064e+2, -39671.79, -82510.9, -0.07252401, 0.000012962142, -0.000054607346, -39671.79, -39671.79, 0.0, 10.00005, 9.943661 
2.8350022e+3, 1.2499386e+2, -1719882.9, -1724220.0, 0.061211366, 0.000014077017, 0.000022654454, -1719882.9, -4822.6997, 0.0, 10.000052, 9.994302 
2.8350022e+3, 1.3498808e+2, -1622503.1, -1627430.8, -0.15870582, 0.000013940753, -0.00007063745, -1622503.1, -5386.3047, 0.0, 10.000052, 9.99352 
2.8350022e+3, 1.449756e+2, -1534401.6, -1548141.4, 0.014474994, 0.00001386254, 0.00007846361, -1534401.6, -15162.541, 0.0, 10.000052, 9.98184 
2.8350022e+3, 1.5495747e+2, -1436674.6, -1450817.5, -0.17503692, 0.000013839897, -0.000054209366, -1436674.6, -15257.732, 0.0, 10.0000515, 9.981308 
2.8350022e+3, 1.649327e+2, -1348624.3, -1371948.4, 0.024318608, 0.000013792185, 0.00004840611, -1348624.3, -24964.545, 0.0, 10.0000515, 9.969224 
2.8350022e+3, 1.7490195e+2, -1250666.8, -1274306.6, -0.1861784, 0.00001371889, -0.00007134013, -1250666.8, -24705.89, 0.0, 10.0000515, 9.96881 
2.8350022e+3, 1.8486458e+2, -1162586.0, -1195716.4, 0.016064683, 0.000013664482, 0.000069044065, -1162586.0, -34258.91, 0.0, 10.0000515, 9.956371 
2.8350022e+3, 1.94821e+2, -1064436.8, -1097829.8, -0.17698023, 0.000013629825, -0.00005541509, -1064436.8, -33682.55, 0.0, 10.000051, 9.956028 
2.8350022e+3, 2.0477074e+2, -976273.2, -1019431.9, 0.012636082, 0.000013587298, 0.00006999922, -976273.2, -43026.39, 0.0, 10.000051, 9.943267 
2.8350022e+3, 2.1471404e+2, -877986.7, -921407.1, -0.18174674, 0.000013536244, -0.00012486076, -877986.7, -42184.266, 0.0, 10.000051, 9.942925 
2.8350022e+3, 2.2465065e+2, -789700.9, -843142.25, 0.018208072, 0.000013492653, 0.00012278481, -789700.9, -51277.227, 0.0, 10.000051, 9.929884 
2.8350022e+3, 2.3458059e+2, -691267.8, -744964.2, -0.17011772, 0.000013457503, -0.00008709593, -691267.8, -50157.703, 0.0, 10.000051, 9.929553 
2.8350022e+3, 2.445036e+2, -602944.06, -667016.75, 0.024359416, 0.000013422779, 0.000076281474, -602944.06, -59079.39, 0.0, 10.000051, 9.916112 
2.8350022e+3, 2.5441983e+2, -504191.88, -568341.6, -0.16063838, 0.000013388547, -0.00010527414, -504191.88, -57506.258, 0.0, 10.00005, 9.916012 
2.8350022e+3, 2.64329e+2, -415956.78, -490986.5, 0.035477404, 0.000013356151, 0.00014193179, -415956.78, -66380.81, 0.0, 10.00005, 9.901941 
2.8350022e+3, 2.7423146e+2, -316671.94, -391373.7, -0.13550192, 0.000013326081, -0.00020225073, -316671.94, -64140.438, 0.0, 10.00005, 9.902361 
2.8350022e+3, 2.8412575e+2, -230198.84, -318080.2, 0.05527988, 0.000013301672, 0.00023012157, -230198.84, -74631.125, 0.0, 10.00005, 9.885415 
2.8350022e+3, 2.9401222e+2, -130493.08, -217764.25, -0.1104132, 0.000013284986, -0.00025234855, -130493.08, -71812.71, 0.0, 10.00005, 9.886193 
2.8350022e+3, 3.0392662e+2, -40750.066, -84750.53, 0.072270356, 0.00001325938, 0.00017396949, -40750.066, -40750.066, 0.0, 10.00005, 9.942148 
2.8350022e+3, 3.1387067e+2, -39672.18, -82511.71, -0.09146459, 0.000013220476, -0.000054588985, -39672.18, -39672.18, 0.0, 10.00005, 9.94366 
2.845002e+3, 1.24993876e+2, -1719879.5, -1724218.8, 0.15714487, 0.000014350898, 0.000022774584, -1719879.5, -4819.383, 0.0, 10.000055, 9.994301 
2.845002e+3, 1.349881e+2, -1622499.8, -1627429.6, -0.05455741, 0.000014234287, -0.00007073034, -1622499.8, -5383.0884, 0.0, 10.000054, 9.993519 
2.845002e+3, 1.4497562e+2, -1534398.3, -1548140.3, 0.11700585, 0.000014162145, 0.00007863372, -1534398.3, -15159.345, 0.0, 10.000054, 9.981839 
2.845002e+3, 1.5495747e+2, -1436671.3, -1450816.4, -0.09819025, 0.000014131851, -0.000054146847, -1436671.3, -15254.542, 0.0, 10.000054, 9.981308 
2.845002e+3, 1.649327e+2, -1348620.9, -1371947.4, 0.102078155, 0.000014076045, 0.000048426387, -1348620.9, -24961.37, 0.0, 10.000053, 9.969223 
2.845002e+3, 1.7490196e+2, -1250663.5, -1274305.6, -0.10502036, 0.000013994209, -0.000071295304, -1250663.5, -24702.72, 0.0, 10.000053, 9.968809 
2.845002e+3, 1.848646e+2, -1162582.8, -1195715.4, 0.09461179, 0.000013941093, 0.00006909829, -1162582.8, -34255.758, 0.0, 10.000053, 9.95637 
2.845002e+3, 1.94821e+2, -1064433.6, -1097828.6, -0.114544444, 0.000013918011, -0.000055367353, -1064433.6, -33679.453, 0.0, 10.000053, 9.956027 
2.845002e+3, 2.0477076e+2, -976270.0, -1019430.9, 0.075617716, 0.000013876693, 0.00007004234, -976270.0, -43023.316, 0.0, 10.000053, 9.943266 
2.845002e+3, 2.1471405e+2, -877983.5, -921406.1, -0.12398687, 0.000013815618, -0.00012482026, -877983.5, -42181.19, 0.0, 10.000052, 9.9429245 
2.845002e+3, 2.2465065e+2, -789697.75, -843141.3, 0.074985504, 0.000013767151, 0.00012282371, -789697.75, -51274.16, 0.0, 10.000052, 9.929883 
2.845002e+3, 2.345806e+2, -691264.75, -744963.25, -0.12437749, 0.000013732951, -0.00008705748, -691264.75, -50154.66, 0.0, 10.000052, 9.929552 
2.845002e+3, 2.445036e+2, -602941.0, -667015.8, 0.07122997, 0.0000136994495, 0.00007631654, -602941.0, -59076.363, 0.0, 10.000052, 9.916112 
2.845002e+3, 2.5441983e+2, -504188.8, -568340.7, -0.1151884, 0.000013666755, -0.00010524597, -504188.8, -57503.258, 0.0, 10.000052, 9.916012 
2.845002e+3, 2.64329e+2, -415953.75, -490985.6, 0.08117123, 0.000013634636, 0.00014195804, -415953.75, -66377.836, 0.0, 10.000052, 9.90194 
2.845002e+3, 2.7423146e+2, -316668.94, -391372.8, -0.10773693, 0.000013603235, -0.00020222004, -316668.94, -64137.477, 0.0, 10.000052, 9.902361 
2.845002e+3, 2.8412575e+2, -230195.84, -318079.3, 0.07749677, 0.000013577178, 0.00023015247, -230195.84, -74628.164, 0.0, 10.000052, 9.885414 
2.845002e+3, 2.9401222e+2, -130490.1, -217763.39, -0.09311727, 0.000013558418, -0.00025232328, -130490.1, -71809.76, 0.0, 10.0000515, 9.886193 
2.845002e+3, 3.0392665e+2, -40747.137, -84749.73, 0.095356, 0.000013532253, 0.000173988, -40747.137, -40747.137, 0.0, 10.0000515, 9.942148 
2.845002e+3, 3.1387067e+2, -39669.27, -82510.92, -0.0660535, 0.000013495049, -0.0000545788, -39669.27, -39669.27, 0.0, 10.0000515, 9.94366 
2.8550026e+3, 1.2499388e+2, -1719880.0, -1724219.8, 0.04959956, 0.000014636277, 0.000022889273, -1719880.0, -4819.9927, 0.0, 10.000055, 9.994301 
2.8550026e+3, 1.3498811e+2, -1622500.3, -1627430.6, -0.16212453, 0.00001453857, -0.00007085063, -1622500.3, -5383.687, 0.0, 10.000054, 9.993518 
2.8550023e+3, 1.4497563e+2, -1534398.8, -1548141.1, 0.027088305, 0.000014465451, 0.000078789235, -1534398.8, -15159.945, 0.0, 10.000054, 9.981839 
2.8550023e+3, 1.5495749e+2, -1436671.8, -1450817.3, -0.18808311, 0.0000144141195, -0.000054069416, -1436671.8, -15255.131, 0.0, 10.000054, 9.981307 
2.8550023e+3, 1.6493271e+2, -1348621.4, -1371948.3, 0.024104137, 0.000014356235, 0.000048462854, -1348621.4, -24961.934, 0.0, 10.000053, 9.969223 
2.8550023e+3, 1.7490198e+2, -1250664.0, -1274306.5, -0.18293522, 0.000014291679, -0.000071261835, -1250664.0, -24703.273, 0.0, 10.000053, 9.968809 
2.8550023e+3, 1.8486461e+2, -1162583.3, -1195716.3, 0.013379085, 0.00001423924, 0.00006913821, -1162583.3, -34256.31, 0.0, 10.000053, 9.95637 
2.8550023e+3, 1.9482102e+2, -1064434.1, -1097829.5, -0.19581744, 0.000014199469, -0.00005531112, -1064434.1, -33679.996, 0.0, 10.000053, 9.956027 
2.8550023e+3, 2.0477076e+2, -976270.44, -1019431.75, 0.012880988, 0.000014154114, 0.00007010171, -976270.44, -43023.836, 0.0, 10.000053, 9.943265 
2.8550023e+3, 2.1471405e+2, -877983.94, -921407.0, -0.18634556, 0.000014102706, -0.00012477198, -877983.94, -42181.7, 0.0, 10.000052, 9.9429245 
2.8550023e+3, 2.2465067e+2, -789698.2, -843142.1, 0.016399527, 0.000014056704, 0.00012286288, -789698.2, -51274.664, 0.0, 10.000052, 9.929883 
2.8550023e+3, 2.345806e+2, -691265.2, -744964.1, -0.18284209, 0.000014016812, -0.00008702515, -691265.2, -50155.156, 0.0, 10.000052, 9.929552 
2.8550023e+3, 2.4450362e+2, -602941.44, -667016.6, 0.019950533, 0.000013979597, 0.00007634854, -602941.44, -59076.832, 0.0, 10.000052, 9.916111 
2.8550023e+3, 2.5441983e+2, -504189.22, -568341.56, -0.16612847, 0.0000139455615, -0.00010520649, -504189.22, -57503.72, 0.0, 10.000052, 9.916011 
2.8550023e+3, 2.64329e+2, -415954.16, -490986.44, 0.04074562, 0.000013914999, 0.00014199536, -415954.16, -66378.3, 0.0, 10.000052, 9.901939 
2.8550023e+3, 2.7423146e+2, -316669.38, -391373.7, -0.14745918, 0.0000138888345, -0.00020219713, -316669.38, -64137.934, 0.0, 10.000052, 9.90236 
2.8550023e+3, 2.8412578e+2, -230196.23, -318080.13, 0.045979775, 0.000013860974, 0.00023017051, -230196.23, -74628.59, 0.0, 10.000052, 9.885414 
2.8550023e+3, 2.9401222e+2, -130490.484, -217764.2, -0.12390061, 0.000013830756, -0.00025229697, -130490.484, -71810.18, 0.0, 10.0000515, 9.886192 
2.8550023e+3, 3.0392665e+2, -40747.523, -84750.54, 0.071688786, 0.000013804982, 0.00017401091, -40747.523, -40747.523, 0.0, 10.0000515, 9.942147 
2.8550023e+3, 3.1387067e+2, -39669.656, -82511.73, -0.08889122, 0.000013785849, -0.000054576787, -39669.656, -39669.656, 0.0, 10.0000515, 9.943659 
2.8650025e+3, 1.249939e+2, -1719876.5, -1724218.5, 0.16367368, 0.0000149481675, 0.000023000784, -1719876.5, -4816.6294, 0.0, 10.000057, 9.9943 
2.8650025e+3, 1.3498811e+2, -1622496.8, -1627429.4, -0.06317092, 0.000014835221, -0.000070945396, -1622496.8, -5380.3013, 0.0, 10.000057, 9.993518 
2.8650025e+3, 1.4497565e+2, -1534395.3, -1548140.0, 0.12559207, 0.000014754945, 0.000078971054, -1534395.3, -15156.563, 0.0, 10.000057, 9.981838 
2.8650025e+3, 1.549575e+2, -1436668.3, -1450816.1, -0.09927583, 0.000014704533, -0.000054011365, -1436668.3, -15251.776, 0.0, 10.000056, 9.981307 
2.8650025e+3, 1.6493273e+2, -1348618.0, -1371947.0, 0.110537775, 0.000014650447, 0.000048477203, -1348618.0, -24958.607, 0.0, 10.000056, 9.969222 
2.8650025e+3, 1.7490198e+2, -1250660.6, -1274305.4, -0.107861444, 0.0000145926315, -0.00007120942, -1250660.6, -24700.012, 0.0, 10.000056, 9.968808 
2.8650025e+3, 1.8486461e+2, -1162579.9, -1195715.1, 0.08642555, 0.000014538225, 0.00006920145, -1162579.9, -34253.066, 0.0, 10.000056, 9.956369 
2.8650022e+3, 1.9482102e+2, -1064430.8, -1097828.5, -0.12856336, 0.000014487371, -0.00005526558, -1064430.8, -33676.74, 0.0, 10.000055, 9.956026 
2.8650022e+3, 2.0477077e+2, -976267.1, -1019430.7, 0.08109211, 0.000014439263, 0.000070140864, -976267.1, -43020.582, 0.0, 10.000055, 9.943265 
2.8650022e+3, 2.1471407e+2, -877980.7, -921405.94, -0.13154617, 0.000014394118, -0.00012472698, -877980.7, -42178.5, 0.0, 10.000055, 9.942924 
2.8650022e+3, 2.2465067e+2, -789694.94, -843141.1, 0.07131204, 0.000014350058, 0.00012290679, -789694.94, -51271.492, 0.0, 10.000055, 9.929882 
2.8650022e+3, 2.345806e+2, -691261.94, -744963.1, -0.12922408, 0.000014307214, -0.00008699021, -691261.94, -50152.004, 0.0, 10.000055, 9.929551 
2.8650022e+3, 2.4450362e+2, -602938.25, -667015.7, 0.07332623, 0.000014267376, 0.00007638008, -602938.25, -59073.69, 0.0, 10.000054, 9.916111 
2.8650022e+3, 2.5441983e+2, -504186.03, -568340.56, -0.12933137, 0.000014231116, -0.00010517172, -504186.03, -57500.59, 0.0, 10.000054, 9.916011 
2.8650022e+3, 2.6432902e+2, -415951.0, -490985.5, 0.07822305, 0.000014200205, 0.00014202743, -415951.0, -66375.18, 0.0, 10.000054, 9.901939 
2.8650022e+3, 2.7423146e+2, -316666.25, -391372.75, -0.10628494, 0.000014176078, -0.00020217535, -316666.25, -64134.844, 0.0, 10.000054, 9.902359 
2.8650022e+3, 2.8412578e+2, -230193.13, -318079.22, 0.092915334, 0.00001414828, 0.00023018837, -230193.13, -74625.52, 0.0, 10.000054, 9.885413 
2.8650022e+3, 2.9401222e+2, -130487.4, -217763.31, -0.08949049, 0.000014115411, -0.00025227433, -130487.4, -71807.125, 0.0, 10.000054, 9.886192 
2.8650022e+3, 3.0392665e+2, -40744.484, -84749.7, 0.09921209, 0.000014088508, 0.00017403383, -40744.484, -40744.484, 0.0, 10.000054, 9.942147 
2.8650022e+3, 3.1387067e+2, -39666.617, -82510.9, -0.075804226, 0.000014070523, -0.000054560303, -39666.617, -39666.617, 0.0, 10.000054, 9.943658 
2.8750023e+3, 1.2499391e+2, -1719877.0, -1724219.5, 0.064417146, 0.000015286547, 0.000023109531, -1719877.0, -4817.28, 0.0, 10.000057, 9.9943 
2.8750023e+3, 1.3498813e+2, -1622497.3, -1627430.4, -0.1624463, 0.00001512425, -0.00007101468, -1622497.3, -5380.94, 0.0, 10.000057, 9.993517 
2.8750023e+3, 1.4497565e+2, -1534395.9, -1548140.9, 0.031748492, 0.000015030644, 0.00007917913, -1534395.9, -15157.191, 0.0, 10.000057, 9.981838 
2.8750023e+3, 1.549575e+2, -1436668.9, -1450817.1, -0.19310981, 0.0000150030855, -0.000053972675, -1436668.9, -15252.392, 0.0, 10.000056, 9.981306 
2.8750023e+3, 1.6493274e+2, -1348618.5, -1371948.0, 0.020311704, 0.000014958671, 0.000048469443, -1348618.5, -24959.2, 0.0, 10.000056, 9.969221 
2.8750023e+3, 1.7490199e+2, -1250661.1, -1274306.3, -0.198072, 0.000014897069, -0.00007113807, -1250661.1, -24700.592, 0.0, 10.000056, 9.968808 
2.8750023e+3, 1.8486463e+2, -1162580.4, -1195716.1, 0.012107689, 0.0000148380495, 0.000069288, -1162580.4, -34253.637, 0.0, 10.000056, 9.956368 
2.8750023e+3, 1.9482103e+2, -1064431.3, -1097829.4, -0.20270042, 0.000014781718, -0.000055230714, -1064431.3, -33677.293, 0.0, 10.000055, 9.956026 
2.8750023e+3, 2.0477077e+2, -976267.56, -1019431.56, 0.0088028265, 0.000014732135, 0.0000701598, -976267.56, -43021.133, 0.0, 10.000055, 9.943264 
2.8750023e+3, 2.1471407e+2, -877981.1, -921406.9, -0.20380072, 0.000014689853, -0.00012468525, -877981.1, -42179.04, 0.0, 10.000055, 9.942924 
2.8750023e+3, 2.2465068e+2, -789695.4, -843142.0, 0.010832001, 0.000014647214, 0.00012295542, -789695.4, -51272.008, 0.0, 10.000055, 9.929882 
2.8750023e+3, 2.3458062e+2, -691262.4, -744964.0, -0.18932502, 0.000014604154, -0.000086952634, -691262.4, -50152.504, 0.0, 10.000055, 9.92955 
2.8750023e+3, 2.4450363e+2, -602938.7, -667016.56, 0.022091161, 0.000014562782, 0.00007641116, -602938.7, -59074.2, 0.0, 10.000054, 9.91611 
2.8750023e+3, 2.5441986e+2, -504186.5, -568341.5, -0.18014267, 0.000014523417, -0.00010514165, -504186.5, -57501.086, 0.0, 10.000054, 9.91601 
2.8750023e+3, 2.6432902e+2, -415951.4, -490986.34, 0.034072742, 0.000014490255, 0.00014205425, -415951.4, -66375.65, 0.0, 10.000054, 9.901938 
2.8750023e+3, 2.742315e+2, -316666.66, -391373.6, -0.14999607, 0.0000144649675, -0.00020215464, -316666.66, -64135.3, 0.0, 10.000054, 9.902359 
2.8750023e+3, 2.8412578e+2, -230193.55, -318080.1, 0.059544925, 0.000014439098, 0.00023020606, -230193.55, -74625.98, 0.0, 10.000054, 9.885413 
2.8750023e+3, 2.9401222e+2, -130487.81, -217764.17, -0.12193283, 0.00001441238, -0.0002522554, -130487.81, -71807.57, 0.0, 10.000054, 9.886191 
2.8750023e+3, 3.0392665e+2, -40744.902, -84750.57, 0.07556664, 0.000014382823, 0.00017405675, -40744.902, -40744.902, 0.0, 10.000054, 9.942146 
2.8750023e+3, 3.1387067e+2, -39667.035, -82511.766, -0.09842082, 0.0000143490815, -0.000054529366, -39667.035, -39667.035, 0.0, 10.000054, 9.943658 
2.8850025e+3, 1.2499393e+2, -1719873.3, -1724218.3, 0.16289711, 0.00001560297, 0.000023228828, -1719873.3, -4813.7363, 0.0, 10.00006, 9.994299 
2.8850025e+3, 1.3498814e+2, -1622493.6, -1627429.1, -0.07735945, 0.000015430593, -0.000071086186, -1622493.6, -5377.419, 0.0, 10.00006, 9.993517 
2.8850025e+3, 1.4497566e+2, -1534392.1, -1548139.6, 0.11503214, 0.000015334303, 0.00007939209, -1534392.1, -15153.679, 0.0, 10.000059, 9.981837 
2.8850025e+3, 1.5495752e+2, -1436665.3, -1450815.9, -0.10570635, 0.000015311456, -0.000053917745, -1436665.3, -15248.925, 0.0, 10.000059, 9.981305 
2.8850025e+3, 1.6493274e+2, -1348614.9, -1371946.9, 0.111127466, 0.000015267573, 0.00004847147, -1348614.9, -24955.764, 0.0, 10.000059, 9.969221 
2.8850025e+3, 1.74902e+2, -1250657.5, -1274305.1, -0.12164269, 0.000015202228, -0.00007108159, -1250657.5, -24697.166, 0.0, 10.000058, 9.968807 
2.8850025e+3, 1.8486463e+2, -1162576.9, -1195715.0, 0.09010528, 0.000015141534, 0.00006936025, -1162576.9, -34250.22, 0.0, 10.000058, 9.956368 
2.8850025e+3, 1.9482104e+2, -1064427.8, -1097828.3, -0.13044807, 0.000015085685, -0.000055183173, -1064427.8, -33673.926, 0.0, 10.000058, 9.956025 
2.8850025e+3, 2.0477079e+2, -976264.2, -1019430.5, 0.08161924, 0.0000150351525, 0.00007019674, -976264.2, -43017.79, 0.0, 10.000058, 9.943264 
2.8850025e+3, 2.1471408e+2, -877977.75, -921405.8, -0.13631333, 0.00001499037, -0.00012464363, -877977.75, -42175.707, 0.0, 10.000058, 9.942923 
2.8850025e+3, 2.2465068e+2, -789692.0, -843140.94, 0.0779874, 0.000014946811, 0.00012299836, -789692.0, -51268.684, 0.0, 10.000057, 9.929881 
2.8850025e+3, 2.3458062e+2, -691259.0, -744962.94, -0.13892192, 0.000014904616, -0.00008691221, -691259.0, -50149.207, 0.0, 10.000057, 9.92955 
2.8850025e+3, 2.4450363e+2, -602935.3, -667015.56, 0.072024316, 0.000014863129, 0.00007644736, -602935.3, -59070.92, 0.0, 10.000057, 9.916109 
2.8850025e+3, 2.5441986e+2, -504183.2, -568340.5, -0.12909229, 0.000014822471, -0.00010511173, -504183.2, -57497.84, 0.0, 10.000057, 9.91601 
2.8850025e+3, 2.6432902e+2, -415948.16, -490985.38, 0.08547725, 0.000014787714, 0.00014208235, -415948.16, -66372.42, 0.0, 10.000057, 9.901938 
2.8850025e+3, 2.742315e+2, -316663.38, -391372.66, -0.11918209, 0.000014760449, -0.00020212268, -316663.38, -64132.082, 0.0, 10.000057, 9.902358 
2.8850025e+3, 2.8412578e+2, -230190.3, -318079.13, 0.08526333, 0.000014733968, 0.00023023773, -230190.3, -74622.766, 0.0, 10.000057, 9.885412 
2.8850025e+3, 2.9401222e+2, -130484.586, -217763.25, -0.10052165, 0.0000147085075, -0.0002522297, -130484.586, -71804.375, 0.0, 10.000056, 9.88619 
2.8850025e+3, 3.0392665e+2, -40741.73, -84749.695, 0.1005196, 0.00001467862, 0.00017407691, -40741.73, -40741.73, 0.0, 10.000056, 9.942145 
2.8850025e+3, 3.1387067e+2, -39663.875, -82510.9, -0.07691023, 0.000014642173, -0.000054514054, -39663.875, -39663.875, 0.0, 10.000056, 9.943657 
2.8950027e+3, 1.24993935e+2, -1719873.9, -1724219.3, 0.061633233, 0.000015897465, 0.000023359555, -1719873.9, -4814.423, 0.0, 10.00006, 9.994298 
2.8950024e+3, 1.3498816e+2, -1622494.3, -1627430.1, -0.1786367, 0.000015754238, -0.0000711599, -1622494.3, -5378.0933, 0.0, 10.00006, 9.993516 
2.8950024e+3, 1.4497568e+2, -1534392.6, -1548140.6, 0.013229018, 0.000015665895, 0.00007960991, -1534392.6, -15154.303, 0.0, 10.000059, 9.981836 
2.8950024e+3, 1.5495753e+2, -1436665.8, -1450816.9, -0.20751502, 0.000015629641, -0.000053846587, -1436665.8, -15249.536, 0.0, 10.000059, 9.981305 
2.8950024e+3, 1.6493276e+2, -1348615.4, -1371947.8, 0.021770963, 0.000015577154, 0.000048483264, -1348615.4, -24956.393, 0.0, 10.000059, 9.96922 
2.8950024e+3, 1.74902e+2, -1250658.1, -1274306.1, -0.21093257, 0.000015508109, -0.00007103996, -1250658.1, -24697.783, 0.0, 10.000058, 9.968806 
2.8950024e+3, 1.8486464e+2, -1162577.4, -1195715.9, 0.0077913543, 0.000015448677, 0.00006941822, -1162577.4, -34250.805, 0.0, 10.000058, 9.9563675 
2.8950024e+3, 1.9482104e+2, -1064428.3, -1097829.3, -0.21268766, 0.000015399266, -0.000055122964, -1064428.3, -33674.496, 0.0, 10.000058, 9.956024 
2.8950024e+3, 2.0477079e+2, -976264.6, -1019431.44, 0.009257236, 0.00001534831, 0.000070251655, -976264.6, -43018.35, 0.0, 10.000058, 9.943263 
2.8950024e+3, 2.1471408e+2, -877978.2, -921406.75, -0.20847782, 0.000015295667, -0.00012460211, -877978.2, -42176.258, 0.0, 10.000058, 9.942922 
2.8950024e+3, 2.246507e+2, -789692.44, -843141.9, 0.014494174, 0.000015248847, 0.00012303558, -789692.44, -51269.234, 0.0, 10.000057, 9.92988 
2.8950024e+3, 2.3458064e+2, -691259.5, -744963.9, -0.20213416, 0.000015208603, -0.00008686893, -691259.5, -50149.746, 0.0, 10.000057, 9.929549 
2.8950024e+3, 2.4450363e+2, -602935.75, -667016.44, 0.016400492, 0.000015168414, 0.000076488664, -602935.75, -59071.43, 0.0, 10.000057, 9.916109 
2.8950024e+3, 2.5441986e+2, -504183.63, -568341.4, -0.18435834, 0.000015128273, -0.00010508196, -504183.63, -57498.336, 0.0, 10.000057, 9.916009 
2.8950024e+3, 2.6432902e+2, -415948.6, -490986.3, 0.0414711, 0.000015092576, 0.00014211172, -415948.6, -66372.93, 0.0, 10.000057, 9.9019375 
2.8950024e+3, 2.742315e+2, -316663.84, -391373.56, -0.16243559, 0.000015062519, -0.00020207951, -316663.84, -64132.58, 0.0, 10.000057, 9.902358 
2.8950024e+3, 2.8412578e+2, -230190.73, -318080.03, 0.049892977, 0.00001503289, 0.00023028336, -230190.73, -74623.234, 0.0, 10.000057, 9.885412 
2.8950024e+3, 2.9401225e+2, -130485.01, -217764.13, -0.13518661, 0.0000150037995, -0.00025219723, -130485.01, -71804.83, 0.0, 10.000056, 9.88619 
2.8950024e+3, 3.0392665e+2, -40742.156, -84750.58, 0.0749578, 0.000014975901, 0.00017409431, -40742.156, -40742.156, 0.0, 10.000056, 9.942145 
2.8950024e+3, 3.1387067e+2, -39664.3, -82511.79, -0.10140866, 0.0000149497855, -0.00005451436, -39664.3, -39664.3, 0.0, 10.000056, 9.943657 
2.9050028e+3, 1.2499395e+2, -1719870.0, -1724217.9, 0.17931384, 0.000016209053, 0.000023488828, -1719870.0, -4810.6924, 0.0, 10.000063, 9.994298 
2.9050028e+3, 1.3498817e+2, -1622490.4, -1627428.9, -0.064393006, 0.000016080774, -0.00007126207, -1622490.4, -5374.453, 0.0, 10.000062, 9.993515 
2.9050028e+3, 1.4497569e+2, -1534389.0, -1548139.4, 0.12519275, 0.000015995744, 0.00007980321, -1534389.0, -15150.684, 0.0, 10.000062, 9.981836 
2.9050028e+3, 1.5495755e+2, -1436662.0, -1450815.5, -0.116481304, 0.000015951045, -0.000053780703, -1436662.0, -15245.922, 0.0, 10.000062, 9.981304 
2.9050028e+3, 1.6493277e+2, -1348611.8, -1371946.6, 0.11137151, 0.00001589348, 0.000048500722, -1348611.8, -24952.799, 0.0, 10.000062, 9.969219 
2.9050028e+3, 1.7490202e+2, -1250654.4, -1274304.9, -0.122235246, 0.000015822794, -0.00007099017, -1250654.4, -24694.223, 0.0, 10.000061, 9.968806 
2.9050025e+3, 1.8486466e+2, -1162573.8, -1195714.8, 0.09578375, 0.000015763237, 0.00006948029, -1162573.8, -34247.266, 0.0, 10.000061, 9.9563675 
2.9050025e+3, 1.9482106e+2, -1064424.6, -1097828.0, -0.141523, 0.000015715279, -0.000055069624, -1064424.6, -33670.984, 0.0, 10.000061, 9.956024 
2.9050025e+3, 2.047708e+2, -976261.06, -1019430.3, 0.07700827, 0.00001566312, 0.000070299684, -976261.06, -43014.85, 0.0, 10.000061, 9.943262 
2.9050025e+3, 2.147141e+2, -877974.6, -921405.6, -0.15220858, 0.000015606394, -0.0001245557, -877974.6, -42172.78, 0.0, 10.00006, 9.942922 
2.9050025e+3, 2.246507e+2, -789688.94, -843140.8, 0.070462234, 0.000015558871, 0.00012307856, -789688.94, -51265.777, 0.0, 10.00006, 9.92988 
2.9050025e+3, 2.3458064e+2, -691256.0, -744962.8, -0.14697435, 0.000015521753, -0.00008683146, -691256.0, -50146.332, 0.0, 10.00006, 9.929548 
2.9050025e+3, 2.4450365e+2, -602932.3, -667015.4, 0.07458186, 0.000015480931, 0.00007652472, -602932.3, -59068.035, 0.0, 10.00006, 9.916108 
2.9050025e+3, 2.5441986e+2, -504180.2, -568340.3, -0.14545904, 0.000015435662, -0.00010504246, -504180.2, -57494.94, 0.0, 10.00006, 9.916008 
2.9050025e+3, 2.6432902e+2, -415945.16, -490985.28, 0.07735819, 0.00001539805, 0.00014214934, -415945.16, -66369.55, 0.0, 10.000059, 9.901937 
2.9050025e+3, 2.742315e+2, -316660.44, -391372.6, -0.12533957, 0.000015370177, -0.0002020506, -316660.44, -64129.23, 0.0, 10.000059, 9.902357 
2.9050025e+3, 2.8412578e+2, -230187.34, -318079.03, 0.09252552, 0.000015341204, 0.00023030743, -230187.34, -74619.9, 0.0, 10.000059, 9.885411 
2.9050025e+3, 2.9401225e+2, -130481.664, -217763.16, -0.101371534, 0.000015310665, -0.00025217267, -130481.664, -71801.52, 0.0, 10.000059, 9.886189 
2.9050025e+3, 3.0392665e+2, -40738.863, -84749.68, 0.108286686, 0.00001528186, 0.0001741166, -40738.863, -40738.863, 0.0, 10.000059, 9.942144 
2.9050025e+3, 3.1387067e+2, -39661.008, -82510.88, -0.07862837, 0.0000152556595, -0.000054498512, -39661.008, -39661.008, 0.0, 10.000059, 9.943656 
2.9150027e+3, 1.24993965e+2, -1719870.5, -1724219.0, 0.06022493, 0.000016537708, 0.000023617607, -1719870.5, -4811.3926, 0.0, 10.000063, 9.994297 
2.9150027e+3, 1.3498819e+2, -1622491.0, -1627429.9, -0.18350299, 0.000016410198, -0.00007139267, -1622491.0, -5375.1406, 0.0, 10.000062, 9.993515 
2.9150027e+3, 1.449757e+2, -1534389.5, -1548140.4, 0.02530879, 0.00001632385, 0.000079972015, -1534389.5, -15151.36, 0.0, 10.000062, 9.981835 
2.9150027e+3, 1.5495755e+2, -1436662.5, -1450816.6, -0.21633849, 0.000016275666, -0.00005372009, -1436662.5, -15246.585, 0.0, 10.000062, 9.981304 
2.9150027e+3, 1.6493277e+2, -1348612.3, -1371947.6, 0.01746419, 0.000016216542, 0.00004852384, -1348612.3, -24953.434, 0.0, 10.000062, 9.969219 
2.9150027e+3, 1.7490204e+2, -1250654.9, -1274305.9, -0.21611857, 0.000016146278, -0.00007093223, -1250654.9, -24694.848, 0.0, 10.000061, 9.968805 
2.9150027e+3, 1.8486466e+2, -1162574.3, -1195715.8, 0.010151285, 0.000016085212, 0.00006954644, -1162574.3, -34247.89, 0.0, 10.000061, 9.956367 
2.9150027e+3, 1.9482106e+2, -1064425.1, -1097829.0, -0.22706231, 0.000016033728, -0.000055023138, -1064425.1, -33671.598, 0.0, 10.000061, 9.956023 
2.9150027e+3, 2.047708e+2, -976261.56, -1019431.25, 0.0028519921, 0.000015979584, 0.000070340815, -976261.56, -43015.445, 0.0, 10.000061, 9.943262 
2.9150027e+3, 2.147141e+2, -877975.1, -921406.56, -0.22613324, 0.00001592255, -0.0001245044, -877975.1, -42173.363, 0.0, 10.00006, 9.942921 
2.9150027e+3, 2.2465071e+2, -789689.4, -843141.75, -0.0000032833254, 0.00001587688, 0.00012312728, -789689.4, -51266.336, 0.0, 10.00006, 9.929879 
2.9150027e+3, 2.3458065e+2, -691256.5, -744963.75, -0.21733348, 0.000015844062, -0.000086799795, -691256.5, -50146.88, 0.0, 10.00006, 9.929548 
2.9150027e+3, 2.4450365e+2, -602932.8, -667016.4, 0.021218136, 0.000015800675, 0.0000765555, -602932.8, -59068.586, 0.0, 10.00006, 9.916107 
2.9150024e+3, 2.5441986e+2, -504180.66, -568341.3, -0.1980087, 0.000015744641, -0.000104993225, -504180.66, -57495.48, 0.0, 10.00006, 9.916008 
2.9150024e+3, 2.6432902e+2, -415945.63, -490986.22, 0.028711807, 0.00001570414, 0.00014219519, -415945.63, -66370.055, 0.0, 10.000059, 9.901937 
2.9150024e+3, 2.742315e+2, -316660.9, -391373.5, -0.17372943, 0.000015683418, -0.00020203595, -316660.9, -64129.73, 0.0, 10.000059, 9.902356 
2.9150024e+3, 2.8412578e+2, -230187.8, -318079.97, 0.053991653, 0.000015658905, 0.00023030996, -230187.8, -74620.38, 0.0, 10.000059, 9.88541 
2.9150024e+3, 2.9401225e+2, -130482.11, -217764.08, -0.13902304, 0.000015629093, -0.000252156, -130482.11, -71802.0, 0.0, 10.000059, 9.886189 
2.9150024e+3, 3.0392665e+2, -40739.313, -84750.61, 0.08301051, 0.000015596488, 0.00017414376, -40739.313, -40739.313, 0.0, 10.000059, 9.942144 
2.9150024e+3, 3.1387067e+2, -39661.457, -82511.82, -0.1024569, 0.0000155598, -0.000054466527, -39661.457, -39661.457, 0.0, 10.000059, 9.943655 
2.9250026e+3, 1.2499398e+2, -1719866.6, -1724217.6, 0.17999399, 0.000016876049, 0.00002374091, -1719866.6, -4807.5786, 0.0, 10.000066, 9.994296 
2.9250026e+3, 1.3498819e+2, -1622487.0, -1627428.6, -0.077342674, 0.000016743734, -0.00007149037, -1622487.0, -5371.3174, 0.0, 10.000065, 9.993514 
2.9250026e+3, 1.4497572e+2, -1534385.5, -1548139.0, 0.1343381, 0.000016654036, 0.00008018506, -1534385.5, -15147.542, 0.0, 10.000065, 9.981834 
2.9250026e+3, 1.5495756e+2, -1436658.6, -1450815.3, -0.1134, 0.000016603888, -0.00005366064, -1436658.6, -15242.815, 0.0, 10.000065, 9.981303 
2.9250026e+3, 1.6493279e+2, -1348608.4, -1371946.3, 0.11668009, 0.000016544389, 0.000048533137, -1348608.4, -24949.697, 0.0, 10.000064, 9.969218 
2.9250026e+3, 1.7490205e+2, -1250651.1, -1274304.6, -0.13670865, 0.000016475376, -0.000070867376, -1250651.1, -24691.137, 0.0, 10.000064, 9.968804 
2.9250026e+3, 1.8486467e+2, -1162570.4, -1195714.5, 0.086590886, 0.000016413134, 0.00006962589, -1162570.4, -34244.195, 0.0, 10.000064, 9.956366 
2.9250026e+3, 1.9482107e+2, -1064421.4, -1097827.9, -0.15229887, 0.00001635794, -0.000054971933, -1064421.4, -33667.934, 0.0, 10.000064, 9.956022 
2.9250026e+3, 2.0477082e+2, -976257.8, -1019430.06, 0.084415704, 0.000016304253, 0.00007037988, -976257.8, -43011.81, 0.0, 10.000063, 9.943261 
2.9250026e+3, 2.1471411e+2, -877971.5, -921405.44, -0.14932922, 0.000016252185, -0.00012446003, -877971.5, -42169.77, 0.0, 10.000063, 9.94292 
2.9250026e+3, 2.2465071e+2, -789685.75, -843140.56, 0.07540148, 0.000016204018, 0.000123173, -789685.75, -51262.754, 0.0, 10.000063, 9.929878 
2.9250026e+3, 2.3458065e+2, -691252.8, -744962.6, -0.1610453, 0.000016160251, -0.0000867572, -691252.8, -50143.29, 0.0, 10.000063, 9.929547 
2.9250026e+3, 2.4450366e+2, -602929.2, -667015.25, 0.07531053, 0.000016114927, 0.0000765945, -602929.2, -59065.01, 0.0, 10.000063, 9.916107 
2.9250026e+3, 2.544199e+2, -504177.1, -568340.25, -0.1447182, 0.000016067723, -0.00010495836, -504177.1, -57491.97, 0.0, 10.000062, 9.916007 
2.9250026e+3, 2.6432905e+2, -415942.1, -490985.16, 0.085858114, 0.000016029982, 0.00014222617, -415942.1, -66366.57, 0.0, 10.000062, 9.901936 
2.9250026e+3, 2.742315e+2, -316657.38, -391372.47, -0.12838681, 0.000016004275, -0.00020200852, -316657.38, -64126.254, 0.0, 10.000062, 9.902356 
2.9250026e+3, 2.8412578e+2, -230184.28, -318078.94, 0.096819304, 0.000015976255, 0.00023033476, -230184.28, -74616.914, 0.0, 10.000062, 9.88541 
2.9250026e+3, 2.9401225e+2, -130478.61, -217763.06, -0.10869648, 0.000015944997, -0.00025213257, -130478.61, -71798.54, 0.0, 10.000062, 9.8861885 
2.9250026e+3, 3.0392665e+2, -40735.867, -84749.664, 0.109846205, 0.000015911766, 0.00017416607, -40735.867, -40735.867, 0.0, 10.000062, 9.942143 
2.9250026e+3, 3.1387067e+2, -39658.035, -82510.89, -0.08581728, 0.000015875656, -0.000054444965, -39658.035, -39658.035, 0.0, 10.000062, 9.943655 
2.935003e+3, 1.24993995e+2, -1719867.3, -1724218.8, 0.06642382, 0.000017224058, 0.00002385856, -1719867.3, -4808.316, 0.0, 10.000066, 9.994296 
2.935003e+3, 1.349882e+2, -1622487.6, -1627429.6, -0.1909271, 0.000017081378, -0.000071555194, -1622487.6, -5372.042, 0.0, 10.000065, 9.993513 
2.9350027e+3, 1.4497572e+2, -1534386.1, -1548140.1, 0.026081564, 0.000016986301, 0.00008044232, -1534386.1, -15148.238, 0.0, 10.000065, 9.981834 
2.9350027e+3, 1.5495758e+2, -1436659.3, -1450816.4, -0.22165343, 0.00001693571, -0.000053602347, -1436659.3, -15243.497, 0.0, 10.000065, 9.981302 
2.9350027e+3, 1.649328e+2, -1348609.0, -1371947.4, 0.019874109, 0.000016877018, 0.00004852863, -1348609.0, -24950.38, 0.0, 10.000064, 9.969217 
2.9350027e+3, 1.7490205e+2, -1250651.6, -1274305.8, -0.23345931, 0.000016810087, -0.00007079564, -1250651.6, -24691.809, 0.0, 10.000064, 9.968804 
2.9350027e+3, 1.8486468e+2, -1162571.0, -1195715.5, -0.003144432, 0.000016747003, 0.00006971863, -1162571.0, -34244.83, 0.0, 10.000064, 9.956365 
2.9350027e+3, 1.9482109e+2, -1064421.9, -1097828.9, -0.24195819, 0.000016687922, -0.000054916018, -1064421.9, -33668.555, 0.0, 10.000064, 9.956022 
2.9350027e+3, 2.0477083e+2, -976258.4, -1019431.06, 0.0027531786, 0.000016637125, 0.00007041686, -976258.4, -43012.418, 0.0, 10.000063, 9.94326 
2.9350027e+3, 2.1471412e+2, -877972.0, -921406.44, -0.23083241, 0.000016595293, -0.00012442259, -877972.0, -42170.363, 0.0, 10.000063, 9.94292 
2.9350027e+3, 2.2465073e+2, -789686.25, -843141.6, 0.010353557, 0.000016540282, 0.00012321574, -789686.25, -51263.355, 0.0, 10.000063, 9.929878 
2.9350027e+3, 2.3458067e+2, -691253.3, -744963.6, -0.22555596, 0.000016470334, -0.000086703694, -691253.3, -50143.875, 0.0, 10.000063, 9.929546 
2.9350027e+3, 2.4450366e+2, -602929.6, -667016.25, 0.011093046, 0.000016423694, 0.00007664171, -602929.6, -59065.57, 0.0, 10.000063, 9.916106 
2.9350027e+3, 2.544199e+2, -504177.56, -568341.2, -0.20892708, 0.000016404894, -0.00010493786, -504177.56, -57492.51, 0.0, 10.000062, 9.916006 
2.9350027e+3, 2.6432905e+2, -415942.56, -490986.16, 0.03710838, 0.000016375561, 0.0001422423, -415942.56, -66367.11, 0.0, 10.000062, 9.901935 
2.9350027e+3, 2.742315e+2, -316657.84, -391373.44, -0.17610633, 0.000016332742, -0.00020196832, -316657.84, -64126.777, 0.0, 10.000062, 9.902355 
2.9350027e+3, 2.841258e+2, -230184.75, -318079.9, 0.059326917, 0.00001629326, 0.0002303818, -230184.75, -74617.43, 0.0, 10.000062, 9.885409 
2.9350027e+3, 2.9401225e+2, -130479.08, -217764.03, -0.14526984, 0.000016258382, -0.00025210239, -130479.08, -71799.04, 0.0, 10.000062, 9.886188 
2.9350027e+3, 3.0392665e+2, -40736.336, -84750.64, 0.08038049, 0.000016227696, 0.00017418354, -40736.336, -40736.336, 0.0, 10.000062, 9.9421425 
2.9350027e+3, 3.1387067e+2, -39658.504, -82511.87, -0.11445253, 0.000016203214, -0.00005443381, -39658.504, -39658.504, 0.0, 10.000062, 9.943654 
2.945003e+3, 1.2499401e+2, -1719863.0, -1724217.3, 0.1824574, 0.000017578855, 0.00002400295, -1719863.0, -4804.3164, 0.0, 10.000069, 9.994295 
2.945003e+3, 1.3498822e+2, -1622483.5, -1627428.3, -0.084642254, 0.000017423954, -0.00007166001, -1622483.5, -5368.078, 0.0, 10.000068, 9.993512 
2.945003e+3, 1.4497574e+2, -1534382.0, -1548138.8, 0.12917317, 0.000017324268, 0.000080665646, -1534382.0, -15144.282, 0.0, 10.000068, 9.981833 
2.945003e+3, 1.5495759e+2, -1436655.1, -1450815.0, -0.1295115, 0.000017276643, -0.000053528627, -1436655.1, -15239.564, 0.0, 10.000068, 9.981301 
2.945003e+3, 1.6493282e+2, -1348604.9, -1371946.0, 0.11467458, 0.000017219525, 0.000048545076, -1348604.9, -24946.482, 0.0, 10.000067, 9.969217 
2.945003e+3, 1.7490207e+2, -1250647.8, -1274304.5, -0.1398871, 0.00001715274, -0.00007074216, -1250647.8, -24687.959, 0.0, 10.000067, 9.968803 
2.945003e+3, 1.848647e+2, -1162567.0, -1195714.3, 0.09353811, 0.000017088316, 0.00006978451, -1162567.0, -34241.0, 0.0, 10.000067, 9.956365 
2.9450026e+3, 1.9482109e+2, -1064418.0, -1097827.6, -0.15909238, 0.000017026347, -0.00005486354, -1064418.0, -33664.75, 0.0, 10.000067, 9.956021 
2.9450026e+3, 2.0477083e+2, -976254.44, -1019429.8, 0.07739843, 0.000016972914, 0.00007046491, -976254.44, -43008.63, 0.0, 10.000066, 9.94326 
2.9450026e+3, 2.1471412e+2, -877968.1, -921405.2, -0.17687628, 0.000016928716, -0.00012436925, -877968.1, -42166.594, 0.0, 10.000066, 9.942919 
2.9450026e+3, 2.2465073e+2, -789682.44, -843140.44, 0.06704848, 0.000016873906, 0.00012326812, -789682.44, -51259.605, 0.0, 10.000066, 9.929877 
2.9450026e+3, 2.3458067e+2, -691249.56, -744962.5, -0.1656403, 0.000016807062, -0.000086659275, -691249.56, -50140.18, 0.0, 10.000066, 9.929546 
2.9450026e+3, 2.4450368e+2, -602925.94, -667015.1, 0.07247291, 0.000016760257, 0.0000766792, -602925.94, -59061.895, 0.0, 10.000066, 9.916105 
2.9450026e+3, 2.544199e+2, -504173.84, -568340.06, -0.1611559, 0.000016737384, -0.00010490604, -504173.84, -57488.844, 0.0, 10.000065, 9.916006 
2.9450026e+3, 2.6432905e+2, -415938.84, -490985.03, 0.083928406, 0.000016705193, 0.00014227377, -415938.84, -66363.45, 0.0, 10.000065, 9.901935 
2.9450026e+3, 2.7423152e+2, -316654.16, -391372.38, -0.14411527, 0.000016661077, -0.0002019304, -316654.16, -64123.145, 0.0, 10.000065, 9.902354 
2.9450026e+3, 2.841258e+2, -230181.1, -318078.84, 0.09060265, 0.000016621416, 0.00023042092, -230181.1, -74613.805, 0.0, 10.000065, 9.885408 
2.9450026e+3, 2.9401225e+2, -130475.45, -217762.98, -0.11496533, 0.000016587888, -0.0002520693, -130475.45, -71795.45, 0.0, 10.000065, 9.886188 
2.9450026e+3, 3.0392665e+2, -40732.777, -84749.664, 0.11617999, 0.000016557507, 0.00017420757, -40732.777, -40732.777, 0.0, 10.000065, 9.942142 
2.9450026e+3, 3.1387067e+2, -39654.94, -82510.89, -0.08389823, 0.000016531765, -0.000054423315, -39654.94, -39654.94, 0.0, 10.000065, 9.943653 
2.9550028e+3, 1.24994025e+2, -1719863.6, -1724218.5, 0.06404971, 0.00001794044, 0.000024174507, -1719863.6, -4805.0825, 0.0, 10.000069, 9.994294 
2.9550028e+3, 1.3498823e+2, -1622484.1, -1627429.4, -0.20306419, 0.000017771463, -0.000071804796, -1622484.1, -5368.8306, 0.0, 10.000068, 9.993512 
2.9550028e+3, 1.4497575e+2, -1534382.6, -1548139.8, 0.018780867, 0.000017667933, 0.000080855076, -1534382.6, -15145.008, 0.0, 10.000068, 9.9818325 
2.9550028e+3, 1.549576e+2, -1436655.8, -1450816.1, -0.23989767, 0.000017626682, -0.0000534395, -1436655.8, -15240.275, 0.0, 10.000068, 9.981301 
2.9550028e+3, 1.6493283e+2, -1348605.5, -1371947.1, 0.009566965, 0.000017571901, 0.000048582457, -1348605.5, -24947.176, 0.0, 10.000067, 9.969216 
2.9550028e+3, 1.7490208e+2, -1250648.3, -1274305.5, -0.24497372, 0.000017503331, -0.00007070691, -1250648.3, -24688.639, 0.0, 10.000067, 9.968802 
2.9550028e+3, 1.848647e+2, -1162567.6, -1195715.3, 0.0016192048, 0.00001743707, 0.00006982355, -1162567.6, -34241.668, 0.0, 10.000067, 9.956364 
2.9550028e+3, 1.948211e+2, -1064418.5, -1097828.6, -0.25086534, 0.000017373211, -0.0000548145, -1064418.5, -33665.402, 0.0, 10.000067, 9.95602 
2.9550028e+3, 2.0477085e+2, -976255.0, -1019430.94, -0.005130559, 0.000017311619, 0.00007052399, -976255.0, -43009.285, 0.0, 10.000066, 9.943259 
2.9550028e+3, 2.1471414e+2, -877968.7, -921406.3, -0.25921407, 0.000017252469, -0.00012430009, -877968.7, -42167.234, 0.0, 10.000066, 9.942918 
2.9550028e+3, 2.2465074e+2, -789682.94, -843141.44, -0.007397305, 0.000017204897, 0.00012333014, -789682.94, -51260.203, 0.0, 10.000066, 9.929876 
2.9550028e+3, 2.345807e+2, -691250.06, -744963.5, -0.23983683, 0.000017170412, -0.000086623935, -691250.06, -50140.76, 0.0, 10.000066, 9.929545 
2.9550028e+3, 2.4450368e+2, -602926.44, -667016.1, 0.009773852, 0.00001712459, 0.000076706994, -602926.44, -59062.48, 0.0, 10.000066, 9.916105 
2.9550028e+3, 2.544199e+2, -504174.34, -568341.1, -0.22330639, 0.000017065198, -0.0001048629, -504174.34, -57489.42, 0.0, 10.000065, 9.916005 
2.9550028e+3, 2.6432905e+2, -415939.38, -490986.1, 0.033239976, 0.000017018901, 0.0001423206, -415939.38, -66364.02, 0.0, 10.000065, 9.901934 
2.9550028e+3, 2.7423152e+2, -316654.7, -391373.4, -0.19403774, 0.000016989281, -0.00020189476, -316654.7, -64123.703, 0.0, 10.000065, 9.902354 
2.9550028e+3, 2.841258e+2, -230181.56, -318079.8, 0.048179053, 0.000016960717, 0.00023045212, -230181.56, -74614.33, 0.0, 10.000065, 9.885408 
2.9550028e+3, 2.9401225e+2, -130475.92, -217763.97, -0.1567206, 0.000016933504, -0.0002520333, -130475.92, -71795.96, 0.0, 10.000065, 9.886187 
2.9550028e+3, 3.0392668e+2, -40733.254, -84750.66, 0.08701379, 0.000016901191, 0.00017423814, -40733.254, -40733.254, 0.0, 10.000065, 9.942142 
2.9550028e+3, 3.1387067e+2, -39655.426, -82511.89, -0.111591294, 0.000016861317, -0.000054413475, -39655.426, -39655.426, 0.0, 10.000065, 9.943652 
2.965003e+3, 1.2499404e+2, -1719859.4, -1724217.0, 0.19081199, 0.00001830016, 0.000024312056, -1719859.4, -4800.9224, 0.0, 10.000072, 9.994293 
2.965003e+3, 1.3498825e+2, -1622479.9, -1627428.0, -0.083093606, 0.000018128112, -0.0000719133, -1622479.9, -5364.6914, 0.0, 10.000072, 9.993511 
2.965003e+3, 1.4497577e+2, -1534378.4, -1548138.4, 0.13463114, 0.000018024324, 0.00008109374, -1534378.4, -15140.89, 0.0, 10.000071, 9.981832 
2.965003e+3, 1.5495762e+2, -1436651.5, -1450814.6, -0.1346534, 0.000017985576, -0.000053373198, -1436651.5, -15236.212, 0.0, 10.000071, 9.9813 
2.965003e+3, 1.6493285e+2, -1348601.4, -1371945.8, 0.11322699, 0.000017929586, 0.00004858854, -1348601.4, -24943.139, 0.0, 10.000071, 9.969215 
2.965003e+3, 1.749021e+2, -1250644.1, -1274304.1, -0.15332623, 0.000017856019, -0.0000706465, -1250644.1, -24684.623, 0.0, 10.00007, 9.9688015 
2.965003e+3, 1.8486471e+2, -1162563.5, -1195714.0, 0.09301789, 0.000017787024, 0.00006990351, -1162563.5, -34237.67, 0.0, 10.00007, 9.956363 
2.965003e+3, 1.9482112e+2, -1064414.5, -1097827.4, -0.17376958, 0.0000177228, -0.00005475141, -1064414.5, -33661.434, 0.0, 10.00007, 9.95602 
2.965003e+3, 2.0477086e+2, -976251.0, -1019429.6, 0.07477966, 0.000017659982, 0.000070574875, -976251.0, -43005.332, 0.0, 10.000069, 9.943258 
2.965003e+3, 2.1471414e+2, -877964.7, -921405.06, -0.17371738, 0.00001759868, -0.00012425636, -877964.7, -42163.33, 0.0, 10.000069, 9.942918 
2.965003e+3, 2.2465076e+2, -789679.0, -843140.2, 0.07911966, 0.00001755162, 0.00012337118, -789679.0, -51256.32, 0.0, 10.000069, 9.929876 
2.965003e+3, 2.345807e+2, -691246.1, -744962.25, -0.17772345, 0.000017520668, -0.000086580556, -691246.1, -50136.91, 0.0, 10.000069, 9.929544 
2.965003e+3, 2.4450369e+2, -602922.5, -667014.94, 0.06849477, 0.00001747306, 0.00007675231, -602922.5, -59058.645, 0.0, 10.000069, 9.916104 
2.965003e+3, 2.544199e+2, -504170.44, -568339.94, -0.1726518, 0.00001740553, -0.00010481614, -504170.44, -57485.594, 0.0, 10.000068, 9.916004 
2.965003e+3, 2.6432905e+2, -415935.5, -490984.94, 0.0860957, 0.00001735679, 0.00014236172, -415935.5, -66360.21, 0.0, 10.000068, 9.901933 
2.965003e+3, 2.7423152e+2, -316650.84, -391372.28, -0.142841, 0.000017331988, -0.00020186829, -316650.84, -64119.938, 0.0, 10.000068, 9.902353 
2.965003e+3, 2.841258e+2, -230177.78, -318078.72, 0.10122729, 0.000017305336, 0.00023047223, -230177.78, -74610.58, 0.0, 10.000068, 9.885407 
2.965003e+3, 2.9401225e+2, -130472.15, -217762.88, -0.12169025, 0.000017276021, -0.00025200818, -130472.15, -71792.23, 0.0, 10.000068, 9.886186 
2.965003e+3, 3.0392668e+2, -40729.54, -84749.63, 0.11644283, 0.000017242111, 0.00017426378, -40729.54, -40729.54, 0.0, 10.000068, 9.942141 
2.965003e+3, 3.1387067e+2, -39651.727, -82510.88, -0.0915422, 0.000017201422, -0.00005439406, -39651.727, -39651.727, 0.0, 10.000068, 9.943652 
2.975003e+3, 1.24994054e+2, -1719860.0, -1724218.1, 0.07112141, 0.000018658015, 0.00002441651, -1719860.0, -4801.71, 0.0, 10.000072, 9.994293 
2.975003e+3, 1.3498826e+2, -1622480.5, -1627429.1, -0.20280538, 0.000018493898, -0.00007198559, -1622480.5, -5365.4663, 0.0, 10.000072, 9.99351 
2.975003e+3, 1.4497578e+2, -1534379.0, -1548139.5, 0.014975457, 0.000018393432, 0.000081381586, -1534379.0, -15141.646, 0.0, 10.000071, 9.981832 
2.975003e+3, 1.5495764e+2, -1436652.1, -1450815.8, -0.25431105, 0.000018353314, -0.0000533297, -1436652.1, -15236.952, 0.0, 10.000071, 9.981299 
2.9750028e+3, 1.6493285e+2, -1348601.9, -1371946.9, 0.0067643113, 0.000018292578, 0.00004856336, -1348601.9, -24943.861, 0.0, 10.000071, 9.969214 
2.9750028e+3, 1.749021e+2, -1250644.8, -1274305.3, -0.25972918, 0.000018210807, -0.00007056095, -1250644.8, -24685.334, 0.0, 10.00007, 9.9688015 
2.9750028e+3, 1.8486473e+2, -1162564.0, -1195715.1, -0.0015307191, 0.000018138184, 0.00007002434, -1162564.0, -34238.38, 0.0, 10.00007, 9.956363 
2.9750028e+3, 1.9482113e+2, -1064415.0, -1097828.5, -0.26818338, 0.000018075112, -0.00005467429, -1064415.0, -33662.125, 0.0, 10.00007, 9.956019 
2.9750028e+3, 2.0477086e+2, -976251.5, -1019430.7, -0.014263659, 0.000018017998, 0.00007061756, -976251.5, -43005.98, 0.0, 10.000069, 9.943257 
2.9750028e+3, 2.1471415e+2, -877965.2, -921406.1, -0.26265937, 0.000017967328, -0.00012423805, -877965.2, -42163.96, 0.0, 10.000069, 9.942917 
2.9750028e+3, 2.2465076e+2, -789679.56, -843141.3, 0.0008258143, 0.000017914062, 0.00012339125, -789679.56, -51256.973, 0.0, 10.000069, 9.929875 
2.9750028e+3, 2.3458071e+2, -691246.7, -744963.4, -0.25567082, 0.000017857845, -0.00008652916, -691246.7, -50137.55, 0.0, 10.000069, 9.929544 
2.9750028e+3, 2.4450369e+2, -602923.06, -667016.0, 0.0064494745, 0.000017805687, 0.000076815115, -602923.06, -59059.254, 0.0, 10.000069, 9.916103 
2.9750028e+3, 2.5441992e+2, -504170.97, -568341.0, -0.2339392, 0.000017758366, -0.00010476577, -504170.97, -57486.188, 0.0, 10.000068, 9.916004 
2.9750028e+3, 2.6432908e+2, -415936.03, -490985.97, 0.028795231, 0.000017718836, 0.00014239714, -415936.03, -66360.79, 0.0, 10.000068, 9.901933 
2.9750028e+3, 2.7423152e+2, -316651.38, -391373.34, -0.19987965, 0.000017689188, -0.00020185097, -316651.38, -64120.504, 0.0, 10.000068, 9.902352 
2.9750028e+3, 2.841258e+2, -230178.28, -318079.75, 0.058182284, 0.000017655271, 0.00023048127, -230178.28, -74611.14, 0.0, 10.000068, 9.8854065 
2.9750028e+3, 2.9401228e+2, -130472.66, -217763.92, -0.16347781, 0.00001761545, -0.00025199392, -130472.66, -71792.77, 0.0, 10.000068, 9.886185 
2.9750028e+3, 3.0392668e+2, -40730.043, -84750.68, 0.08363375, 0.000017580274, 0.0001742845, -40730.043, -40730.043, 0.0, 10.000068, 9.94214 
2.9750028e+3, 3.138707e+2, -39652.227, -82511.92, -0.12330438, 0.000017552074, -0.000054365086, -39652.227, -39652.227, 0.0, 10.000068, 9.943651 
2.9850033e+3, 1.2499407e+2, -1719855.4, -1724216.6, 0.21085045, 0.000019021025, 0.00002455909, -1719855.4, -4797.3267, 0.0, 10.000074, 9.994292 
2.9850033e+3, 1.3498828e+2, -1622476.0, -1627427.6, -0.08823441, 0.000018869181, -0.00007210496, -1622476.0, -5361.1924, 0.0, 10.000074, 9.993509 
2.9850033e+3, 1.449758e+2, -1534374.5, -1548138.0, 0.12903774, 0.000018771185, 0.00008162592, -1534374.5, -15137.391, 0.0, 10.000073, 9.981831 
2.9850033e+3, 1.5495765e+2, -1436647.8, -1450814.4, -0.14114507, 0.000018723616, -0.000053264746, -1436647.8, -15232.701, 0.0, 10.000073, 9.981299 
2.9850033e+3, 1.6493286e+2, -1348597.6, -1371945.5, 0.11975021, 0.000018656749, 0.000048569465, -1348597.6, -24939.64, 0.0, 10.000073, 9.969214 
2.9850033e+3, 1.7490211e+2, -1250640.4, -1274303.9, -0.16871074, 0.000018570192, -0.000070490576, -1250640.4, -24681.14, 0.0, 10.000073, 9.968801 
2.9850033e+3, 1.8486474e+2, -1162559.8, -1195713.6, 0.08638045, 0.000018498722, 0.000070111324, -1162559.8, -34234.207, 0.0, 10.0000725, 9.956362 
2.9850033e+3, 1.9482113e+2, -1064410.9, -1097827.1, -0.17902295, 0.000018443017, -0.00005462057, -1064410.9, -33658.023, 0.0, 10.0000725, 9.956018 
2.9850033e+3, 2.0477088e+2, -976247.3, -1019429.4, 0.0761554, 0.000018387034, 0.00007065954, -976247.3, -43001.906, 0.0, 10.0000725, 9.943257 
2.9850033e+3, 2.1471417e+2, -877961.06, -921404.75, -0.19725926, 0.000018330742, -0.00012418449, -877961.06, -42159.895, 0.0, 10.000072, 9.942916 
2.985003e+3, 2.2465077e+2, -789675.4, -843140.0, 0.062662125, 0.00001827139, 0.00012344695, -789675.4, -51252.918, 0.0, 10.000072, 9.929874 
2.985003e+3, 2.3458071e+2, -691242.56, -744962.1, -0.1936637, 0.000018208568, -0.000086481996, -691242.56, -50133.51, 0.0, 10.000072, 9.9295435 
2.985003e+3, 2.445037e+2, -602918.94, -667014.75, 0.07318248, 0.00001815702, 0.0000768561, -602918.94, -59055.242, 0.0, 10.000072, 9.916103 
2.985003e+3, 2.5441992e+2, -504166.97, -568339.8, -0.18053511, 0.000018118924, -0.00010472812, -504166.97, -57482.24, 0.0, 10.000072, 9.916003 
2.985003e+3, 2.6432908e+2, -415932.03, -490984.78, 0.0793601, 0.000018081406, 0.00014243292, -415932.03, -66356.87, 0.0, 10.000071, 9.901932 
2.985003e+3, 2.7423152e+2, -316647.4, -391372.16, -0.16127646, 0.000018044575, -0.00020181522, -316647.4, -64116.586, 0.0, 10.000071, 9.902351 
2.985003e+3, 2.841258e+2, -230174.33, -318078.6, 0.0998641, 0.00001800703, 0.00023051504, -230174.33, -74607.23, 0.0, 10.000071, 9.885406 
2.985003e+3, 2.9401228e+2, -130468.73, -217762.8, -0.12489155, 0.000017968485, -0.0002519648, -130468.73, -71788.89, 0.0, 10.000071, 9.886185 
2.985003e+3, 3.0392668e+2, -40726.18, -84749.625, 0.12301374, 0.000017932205, 0.00017431064, -40726.18, -40726.18, 0.0, 10.000071, 9.94214 
2.985003e+3, 3.138707e+2, -39648.363, -82510.87, -0.09968675, 0.00001789932, -0.00005433941, -39648.363, -39648.363, 0.0, 10.000071, 9.94365 
2.9950032e+3, 1.2499409e+2, -1719856.1, -1724217.9, 0.06945546, 0.000019389186, 0.000024740646, -1719856.1, -4798.18, 0.0, 10.000074, 9.994291 
2.9950032e+3, 1.349883e+2, -1622476.8, -1627429.0, -0.22964163, 0.000019253956, -0.000072271374, -1622476.8, -5362.03, 0.0, 10.000074, 9.993509 
2.9950032e+3, 1.4497581e+2, -1534375.1, -1548139.1, 0.01164325, 0.000019157578, 0.0000818268, -1534375.1, -15138.154, 0.0, 10.000073, 9.98183 
2.9950032e+3, 1.5495767e+2, -1436648.4, -1450815.5, -0.2585168, 0.000019096484, -0.000053178366, -1436648.4, -15233.45, 0.0, 10.000073, 9.981298 
2.9950032e+3, 1.6493288e+2, -1348598.3, -1371946.6, 0.010455702, 0.000019022105, 0.000048606817, -1348598.3, -24940.42, 0.0, 10.000073, 9.9692135 
2.9950032e+3, 1.7490213e+2, -1250641.0, -1274305.1, -0.277962, 0.000018934172, -0.00007043536, -1250641.0, -24681.906, 0.0, 10.000073, 9.9688 
2.9950032e+3, 1.8486474e+2, -1162560.4, -1195714.8, -0.020471882, 0.000018868634, 0.00007016452, -1162560.4, -34234.914, 0.0, 10.0000725, 9.956361 
2.9950032e+3, 1.9482115e+2, -1064411.4, -1097828.3, -0.28585827, 0.000018826502, -0.000054590226, -1064411.4, -33658.715, 0.0, 10.0000725, 9.9560175 
2.9950032e+3, 2.047709e+2, -976247.94, -1019430.56, -0.011453722, 0.000018767083, 0.00007070081, -976247.94, -43002.613, 0.0, 10.0000725, 9.943256 
2.9950032e+3, 2.1471417e+2, -877961.6, -921405.94, -0.28447494, 0.000018688928, -0.00012409572, -877961.6, -42160.59, 0.0, 10.000072, 9.942915 
2.9950032e+3, 2.2465077e+2, -789675.94, -843141.1, -0.016081324, 0.000018623614, 0.00012353825, -789675.94, -51253.574, 0.0, 10.000072, 9.929873 
2.9950032e+3, 2.3458073e+2, -691243.1, -744963.25, -0.27213717, 0.000018572828, -0.00008643907, -691243.1, -50134.152, 0.0, 10.000072, 9.929543 
2.9950032e+3, 2.445037e+2, -602919.5, -667015.9, 0.00026765725, 0.00001852704, 0.000076875294, -602919.5, -59055.883, 0.0, 10.000072, 9.916102 
2.9950032e+3, 2.5441992e+2, -504167.5, -568340.94, -0.2531862, 0.0000184872, -0.00010470317, -504167.5, -57482.863, 0.0, 10.000072, 9.916002 
2.9950032e+3, 2.6432908e+2, -415932.56, -490985.9, 0.023026485, 0.000018444509, 0.00014246906, -415932.56, -66357.47, 0.0, 10.000071, 9.901931 
2.9950032e+3, 2.7423155e+2, -316647.94, -391373.25, -0.21652418, 0.000018398156, -0.00020176105, -316647.94, -64117.176, 0.0, 10.000071, 9.902351 
2.9950032e+3, 2.8412583e+2, -230174.84, -318079.7, 0.05426739, 0.00001836061, 0.00023057351, -230174.84, -74607.805, 0.0, 10.000071, 9.885406 
2.9950032e+3, 2.9401228e+2, -130469.24, -217763.86, -0.16962531, 0.000018335115, -0.00025192084, -130469.24, -71789.445, 0.0, 10.000071, 9.886184 
2.9950032e+3, 3.0392668e+2, -40726.71, -84750.73, 0.091298126, 0.000018297891, 0.00017434217, -40726.71, -40726.71, 0.0, 10.000071, 9.942139 
2.9950032e+3, 3.138707e+2, -39648.895, -82511.98, -0.12987642, 0.000018243169, -0.00005431703, -39648.895, -39648.895, 0.0, 10.000071, 9.943649 
3.0050033e+3, 1.2499411e+2, -1719851.5, -1724216.3, 0.19618736, 0.00001978575, 0.00002490572, -1719851.5, -4793.704, 0.0, 10.000078, 9.99429 
3.0050033e+3, 1.3498831e+2, -1622472.1, -1627427.4, -0.09005154, 0.0000196382, -0.000072410556, -1622472.1, -5357.538, 0.0, 10.000077, 9.993508 
3.005003e+3, 1.4497583e+2, -1534370.5, -1548137.6, 0.15547878, 0.000019534591, 0.00008207006, -1534370.5, -15133.672, 0.0, 10.000077, 9.981829 
3.005003e+3, 1.5495768e+2, -1436643.8, -1450813.9, -0.15148593, 0.00001947131, -0.000053091488, -1436643.8, -15229.023, 0.0, 10.000077, 9.9812975 
3.005003e+3, 1.6493289e+2, -1348593.8, -1371945.1, 0.112720326, 0.000019400333, 0.00004863018, -1348593.8, -24936.033, 0.0, 10.000076, 9.969213 
3.005003e+3, 1.7490214e+2, -1250636.6, -1274303.6, -0.16489056, 0.000019321507, -0.00007038064, -1250636.6, -24677.576, 0.0, 10.000076, 9.968799 
3.005003e+3, 1.8486476e+2, -1162555.9, -1195713.4, 0.09375835, 0.00001925369, 0.00007023253, -1162555.9, -34230.605, 0.0, 10.000076, 9.95636 
3.005003e+3, 1.9482116e+2, -1064407.0, -1097826.9, -0.19941738, 0.00001919737, -0.000054527864, -1064407.0, -33654.41, 0.0, 10.000075, 9.9560175 
3.005003e+3, 2.047709e+2, -976243.56, -1019429.1, 0.07322044, 0.000019133693, 0.00007075949, -976243.56, -42998.324, 0.0, 10.000075, 9.943255 
3.005003e+3, 2.1471418e+2, -877957.3, -921404.56, -0.2016082, 0.000019062036, -0.0001240386, -877957.3, -42156.355, 0.0, 10.000075, 9.942915 
3.005003e+3, 2.2465079e+2, -789671.6, -843139.8, 0.06817559, 0.00001899963, 0.00012359262, -789671.6, -51249.37, 0.0, 10.000074, 9.929873 
3.005003e+3, 2.3458073e+2, -691238.9, -744961.94, -0.20390378, 0.000018947683, -0.00008638881, -691238.9, -50129.992, 0.0, 10.000074, 9.929542 
3.005003e+3, 2.4450372e+2, -602915.3, -667014.6, 0.067535035, 0.000018899105, 0.00007692003, -602915.3, -59051.74, 0.0, 10.000074, 9.916101 
3.005003e+3, 2.5441992e+2, -504163.3, -568339.6, -0.18999374, 0.000018854525, -0.00010466567, -504163.3, -57478.73, 0.0, 10.000074, 9.916001 
3.005003e+3, 2.6432908e+2, -415928.38, -490984.66, 0.088533975, 0.000018809389, 0.00014250385, -415928.38, -66353.35, 0.0, 10.000074, 9.90193 
3.005003e+3, 2.7423155e+2, -316643.78, -391372.06, -0.16936061, 0.000018763516, -0.00020172319, -316643.78, -64113.098, 0.0, 10.000073, 9.90235 
3.005003e+3, 2.8412583e+2, -230170.73, -318078.47, 0.09480592, 0.000018725965, 0.00023061287, -230170.73, -74603.734, 0.0, 10.000073, 9.885405 
3.005003e+3, 2.9401228e+2, -130465.16, -217762.69, -0.14338839, 0.000018699782, -0.00025188213, -130465.16, -71785.41, 0.0, 10.000073, 9.886183 
3.005003e+3, 3.0392668e+2, -40722.7, -84749.625, 0.11988333, 0.000018662313, 0.00017437327, -40722.7, -40722.7, 0.0, 10.000073, 9.942138 
3.005003e+3, 3.138707e+2, -39644.906, -82510.89, -0.10021406, 0.000018608007, -0.000054303866, -39644.906, -39644.906, 0.0, 10.000073, 9.943649 
3.0150035e+3, 1.2499413e+2, -1719852.1, -1724217.5, 0.062384, 0.000020210684, 0.000025055315, -1719852.1, -4794.5337, 0.0, 10.000078, 9.994289 
3.0150035e+3, 1.3498832e+2, -1622472.8, -1627428.6, -0.2238833, 0.000020021924, -0.000072522555, -1622472.8, -5358.354, 0.0, 10.000077, 9.993507 
3.0150035e+3, 1.4497584e+2, -1534371.3, -1548138.9, 0.028675668, 0.00001990224, 0.00008235566, -1534371.3, -15134.526, 0.0, 10.000077, 9.981829 
3.0150035e+3, 1.549577e+2, -1436644.5, -1450815.3, -0.2782736, 0.000019848098, -0.00005300411, -1436644.5, -15229.86, 0.0, 10.000077, 9.981297 
3.0150035e+3, 1.649329e+2, -1348594.4, -1371946.4, -0.006111287, 0.000019791423, 0.000048639566, -1348594.4, -24936.795, 0.0, 10.000076, 9.969212 
3.0150035e+3, 1.7490216e+2, -1250637.1, -1274304.8, -0.28369382, 0.000019732173, -0.00007032643, -1250637.1, -24678.322, 0.0, 10.000076, 9.968798 
3.0150035e+3, 1.8486477e+2, -1162556.6, -1195714.6, -0.010023819, 0.00001965388, 0.00007031533, -1162556.6, -34231.38, 0.0, 10.000076, 9.956359 
3.0150035e+3, 1.9482118e+2, -1064407.6, -1097828.1, -0.30302754, 0.000019555642, -0.00005443352, -1064407.6, -33655.168, 0.0, 10.000075, 9.956017 
3.0150032e+3, 2.0477091e+2, -976244.1, -1019430.3, -0.023036966, 0.000019486888, 0.00007083556, -976244.1, -42999.043, 0.0, 10.000075, 9.943254 
3.0150032e+3, 2.147142e+2, -877957.9, -921405.75, -0.29772094, 0.00001945005, -0.0001240131, -877957.9, -42157.055, 0.0, 10.000075, 9.942914 
3.0150032e+3, 2.246508e+2, -789672.25, -843140.94, -0.016994122, 0.000019399411, 0.00012361011, -789672.25, -51250.066, 0.0, 10.000074, 9.9298725 
3.0150032e+3, 2.3458074e+2, -691239.5, -744963.06, -0.28872114, 0.00001933313, -0.00008633122, -691239.5, -50130.67, 0.0, 10.000074, 9.929542 
3.0150032e+3, 2.4450372e+2, -602915.9, -667015.75, -0.0036096405, 0.000019273215, 0.00007699026, -602915.9, -59052.39, 0.0, 10.000074, 9.9161005 
3.0150032e+3, 2.5441995e+2, -504163.88, -568340.75, -0.26049003, 0.000019220906, -0.000104615625, -504163.88, -57479.367, 0.0, 10.000074, 9.916 
3.0150032e+3, 2.6432908e+2, -415928.97, -490985.84, 0.027560623, 0.000019176052, 0.00014253732, -415928.97, -66354.0, 0.0, 10.000074, 9.90193 
3.0150032e+3, 2.7423155e+2, -316644.38, -391373.22, -0.22969726, 0.000019140649, -0.00020170162, -316644.38, -64113.727, 0.0, 10.000073, 9.902349 
3.0150032e+3, 2.8412583e+2, -230171.28, -318079.63, 0.04600158, 0.000019103083, 0.00023063314, -230171.28, -74604.336, 0.0, 10.000073, 9.885404 
3.0150032e+3, 2.9401228e+2, -130465.7, -217763.81, -0.19115946, 0.000019062494, -0.0002518487, -130465.7, -71785.99, 0.0, 10.000073, 9.886182 
3.0150032e+3, 3.0392668e+2, -40723.23, -84750.734, 0.08368876, 0.000019025478, 0.00017440389, -40723.23, -40723.23, 0.0, 10.000073, 9.942137 
3.0150032e+3, 3.138707e+2, -39645.438, -82512.0, -0.13505846, 0.00001899382, -0.000054299904, -39645.438, -39645.438, 0.0, 10.000073, 9.943648 
3.0250034e+3, 1.24994144e+2, -1719847.3, -1724215.9, 0.2149002, 0.000020619247, 0.000025204963, -1719847.3, -4789.8496, 0.0, 10.000081, 9.994289 
3.0250034e+3, 1.3498835e+2, -1622467.9, -1627427.0, -0.11122474, 0.000020417718, -0.00007263392, -1622467.9, -5353.6895, 0.0, 10.000081, 9.993506 
3.0250034e+3, 1.4497586e+2, -1534366.4, -1548137.3, 0.1336926, 0.000020294467, 0.00008264364, -1534366.4, -15129.879, 0.0, 10.00008, 9.981828 
3.0250034e+3, 1.5495771e+2, -1436639.8, -1450813.6, -0.15503635, 0.000020245941, -0.00005294059, -1436639.8, -15225.266, 0.0, 10.00008, 9.981296 
3.0250034e+3, 1.6493292e+2, -1348589.6, -1371944.8, 0.120002456, 0.000020190018, 0.000048631784, -1348589.6, -24932.234, 0.0, 10.00008, 9.969211 
3.0250034e+3, 1.7490217e+2, -1250632.5, -1274303.3, -0.19177847, 0.000020126554, -0.00007024909, -1250632.5, -24673.8, 0.0, 10.000079, 9.968798 
3.0250034e+3, 1.8486479e+2, -1162552.0, -1195713.1, 0.08205238, 0.00002004446, 0.00007041756, -1162552.0, -34226.883, 0.0, 10.000079, 9.956359 
3.0250034e+3, 1.9482118e+2, -1064403.0, -1097826.6, -0.20844722, 0.000019942856, -0.000054369415, -1064403.0, -33650.7, 0.0, 10.000079, 9.956016 
3.0250034e+3, 2.0477092e+2, -976239.56, -1019428.9, 0.070725, 0.000019873309, 0.00007088211, -976239.56, -42994.594, 0.0, 10.000078, 9.943254 
3.0250034e+3, 2.147142e+2, -877953.4, -921404.3, -0.21967229, 0.000019838468, -0.0001239618, -877953.4, -42152.656, 0.0, 10.000078, 9.942913 
3.0250034e+3, 2.246508e+2, -789667.8, -843139.56, 0.06183693, 0.00001978757, 0.00012366174, -789667.8, -51245.695, 0.0, 10.000078, 9.929872 
3.0250034e+3, 2.3458076e+2, -691235.06, -744961.75, -0.2193614, 0.000019718476, -0.000086284235, -691235.06, -50126.33, 0.0, 10.000078, 9.929541 
3.0250034e+3, 2.4450374e+2, -602911.5, -667014.4, 0.06469434, 0.000019656083, 0.00007703692, -602911.5, -59048.066, 0.0, 10.000077, 9.9161 
3.0250034e+3, 2.5441995e+2, -504159.5, -568339.44, -0.21087424, 0.000019601695, -0.00010456414, -504159.5, -57475.074, 0.0, 10.000077, 9.916 
3.0250034e+3, 2.643291e+2, -415924.63, -490984.53, 0.077532016, 0.000019556022, 0.00014258512, -415924.63, -66349.734, 0.0, 10.000077, 9.901929 
3.0250034e+3, 2.7423155e+2, -316640.06, -391371.97, -0.1767237, 0.000019521402, -0.00020166834, -316640.06, -64109.492, 0.0, 10.000077, 9.9023485 
3.025003e+3, 2.8412583e+2, -230167.02, -318078.38, 0.10906371, 0.000019483265, 0.00023065784, -230167.02, -74600.12, 0.0, 10.000077, 9.885403 
3.025003e+3, 2.9401228e+2, -130461.46, -217762.6, -0.13607782, 0.000019440246, -0.00025182444, -130461.46, -71781.8, 0.0, 10.000077, 9.886182 
3.025003e+3, 3.0392668e+2, -40719.06, -84749.586, 0.1354998, 0.000019401898, 0.00017442861, -40719.06, -40719.06, 0.0, 10.000076, 9.942136 
3.025003e+3, 3.138707e+2, -39641.277, -82510.86, -0.10217948, 0.000019370558, -0.000054273445, -39641.277, -39641.277, 0.0, 10.000076, 9.943647 
3.0350035e+3, 1.24994166e+2, -1719848.0, -1724217.3, 0.080713265, 0.00002101147, 0.000025355683, -1719848.0, -4790.7793, 0.0, 10.000081, 9.994288 
3.0350035e+3, 1.3498837e+2, -1622468.6, -1627428.4, -0.24542415, 0.000020825568, -0.00007274466, -1622468.6, -5354.6025, 0.0, 10.000081, 9.9935055 
3.0350035e+3, 1.4497587e+2, -1534367.1, -1548138.5, -0.002014044, 0.000020711243, 0.00008293399, -1534367.1, -15130.698, 0.0, 10.00008, 9.981827 
3.0350035e+3, 1.5495773e+2, -1436640.4, -1450814.9, -0.29075557, 0.000020664826, -0.000052900894, -1436640.4, -15226.068, 0.0, 10.00008, 9.981295 
3.0350035e+3, 1.6493294e+2, -1348590.4, -1371946.1, -0.0036717386, 0.000020596119, 0.00004860686, -1348590.4, -24933.078, 0.0, 10.00008, 9.969211 
3.0350035e+3, 1.7490219e+2, -1250633.3, -1274304.6, -0.31539243, 0.000020504674, -0.00007014866, -1250633.3, -24674.629, 0.0, 10.000079, 9.968797 
3.0350035e+3, 1.848648e+2, -1162552.6, -1195714.4, -0.02446437, 0.000020425447, 0.000070539216, -1162552.6, -34227.656, 0.0, 10.000079, 9.956358 
3.0350035e+3, 1.948212e+2, -1064403.6, -1097827.9, -0.31477463, 0.000020358977, -0.00005433551, -1064403.6, -33651.457, 0.0, 10.000079, 9.956015 
3.0350035e+3, 2.0477094e+2, -976240.25, -1019430.1, -0.032826666, 0.000020292919, 0.00007089919, -976240.25, -42995.348, 0.0, 10.000078, 9.9432535 
3.0350035e+3, 2.1471421e+2, -877954.0, -921405.56, -0.32317165, 0.000020227297, -0.00012388473, -877954.0, -42153.395, 0.0, 10.000078, 9.942912 
3.0350035e+3, 2.2465082e+2, -789668.4, -843140.8, -0.025827331, 0.000020164132, 0.00012374751, -789668.4, -51246.414, 0.0, 10.000078, 9.929871 
3.0350035e+3, 2.3458076e+2, -691235.6, -744962.94, -0.30651465, 0.000020103731, -0.000086247834, -691235.6, -50127.03, 0.0, 10.000078, 9.92954 
3.0350035e+3, 2.4450374e+2, -602912.06, -667015.6, -0.0106810825, 0.000020047704, 0.00007706002, -602912.06, -59048.76, 0.0, 10.000077, 9.9161 
3.0350035e+3, 2.5441998e+2, -504160.1, -568340.7, -0.2856888, 0.00001999688, -0.00010451121, -504160.1, -57475.754, 0.0, 10.000077, 9.915999 
3.0350035e+3, 2.643291e+2, -415925.22, -490985.72, 0.012814399, 0.000019949288, 0.00014264726, -415925.22, -66350.375, 0.0, 10.000077, 9.901928 
3.0350035e+3, 2.7423155e+2, -316640.63, -391373.13, -0.24077518, 0.000019905776, -0.00020162335, -316640.63, -64110.12, 0.0, 10.000077, 9.902348 
3.0350035e+3, 2.8412583e+2, -230167.58, -318079.53, 0.057724528, 0.000019866511, 0.00023068694, -230167.58, -74600.734, 0.0, 10.000077, 9.885403 
3.0350035e+3, 2.9401228e+2, -130462.02, -217763.75, -0.18627785, 0.00001983302, -0.00025180937, -130462.02, -71782.41, 0.0, 10.000077, 9.886181 
3.0350035e+3, 3.039267e+2, -40719.63, -84750.766, 0.09656074, 0.000019791558, 0.00017444741, -40719.63, -40719.63, 0.0, 10.000076, 9.942136 
3.0350035e+3, 3.138707e+2, -39641.85, -82512.05, -0.13980332, 0.000019738243, -0.000054224514, -39641.85, -39641.85, 0.0, 10.000076, 9.943646 
3.0450037e+3, 1.2499418e+2, -1719842.9, -1724215.5, 0.22373869, 0.000021412745, 0.000025524978, -1719842.9, -4785.8447, 0.0, 10.000085, 9.9942875 
3.0450037e+3, 1.3498838e+2, -1622463.6, -1627426.6, -0.097098805, 0.000021244845, -0.00007288793, -1622463.6, -5349.7783, 0.0, 10.000085, 9.993505 
3.0450037e+3, 1.449759e+2, -1534362.1, -1548136.8, 0.14388007, 0.000021135886, 0.00008320869, -1534362.1, -15125.894, 0.0, 10.000084, 9.981826 
3.0450037e+3, 1.5495774e+2, -1436635.4, -1450813.3, -0.17153326, 0.000021082045, -0.000052821102, -1436635.4, -15221.295, 0.0, 10.000084, 9.981295 
3.0450037e+3, 1.6493295e+2, -1348585.4, -1371944.5, 0.11632866, 0.0000210038, 0.00004861885, -1348585.4, -24928.342, 0.0, 10.000083, 9.96921 
3.0450037e+3, 1.749022e+2, -1250628.4, -1274303.0, -0.19847983, 0.000020900665, -0.00007007464, -1250628.4, -24669.898, 0.0, 10.000083, 9.968796 
3.0450037e+3, 1.8486482e+2, -1162547.8, -1195712.8, 0.08919229, 0.000020823456, 0.000070630216, -1162547.8, -34222.945, 0.0, 10.000083, 9.956357 
3.0450034e+3, 1.9482121e+2, -1064399.0, -1097826.3, -0.21775909, 0.00002077335, -0.000054274675, -1064399.0, -33646.844, 0.0, 10.000082, 9.956014 
3.0450034e+3, 2.0477095e+2, -976235.56, -1019428.6, 0.06674105, 0.000020707817, 0.000070950424, -976235.56, -42990.773, 0.0, 10.000082, 9.943253 
3.0450034e+3, 2.1471423e+2, -877949.3, -921404.06, -0.23253897, 0.000020625572, -0.00012382082, -877949.3, -42148.813, 0.0, 10.000082, 9.942911 
3.0450034e+3, 2.2465083e+2, -789663.75, -843139.3, 0.06416997, 0.000020555864, 0.00012381244, -789663.75, -51241.84, 0.0, 10.000082, 9.92987 
3.0450034e+3, 2.3458077e+2, -691231.0, -744961.5, -0.22930935, 0.000020500342, -0.00008619507, -691231.0, -50122.5, 0.0, 10.000081, 9.929539 
3.0450034e+3, 2.4450375e+2, -602907.5, -667014.25, 0.06800803, 0.00002044646, 0.00007710446, -602907.5, -59044.266, 0.0, 10.000081, 9.916099 
3.0450034e+3, 2.5441998e+2, -504155.6, -568339.3, -0.2132684, 0.000020394507, -0.000104470506, -504155.6, -57471.305, 0.0, 10.000081, 9.915998 
3.0450034e+3, 2.643291e+2, -415920.72, -490984.38, 0.084454484, 0.000020345176, 0.00014268798, -415920.72, -66345.95, 0.0, 10.000081, 9.901927 
3.0450034e+3, 2.742316e+2, -316636.16, -391371.8, -0.19185492, 0.000020299154, -0.00020157786, -316636.16, -64105.72, 0.0, 10.00008, 9.902348 
3.0450034e+3, 2.8412583e+2, -230163.13, -318078.22, 0.09998519, 0.000020259056, 0.00023073099, -230163.13, -74596.34, 0.0, 10.00008, 9.885402 
3.0450034e+3, 2.940123e+2, -130457.62, -217762.48, -0.15377726, 0.000020227024, -0.0002517753, -130457.62, -71778.05, 0.0, 10.00008, 9.88618 
3.0450034e+3, 3.039267e+2, -40715.297, -84749.586, 0.13128784, 0.000020183377, 0.00017447487, -40715.297, -40715.297, 0.0, 10.00008, 9.942135 
3.0450034e+3, 3.138707e+2, -39637.516, -82510.87, -0.11477636, 0.000020122447, -0.00005419868, -39637.516, -39637.516, 0.0, 10.00008, 9.9436455 
3.0550036e+3, 1.249942e+2, -1719843.6, -1724216.9, 0.06822232, 0.000021823067, 0.00002571394, -1719843.6, -4786.7695, 0.0, 10.000085, 9.994287 
3.0550036e+3, 1.349884e+2, -1622464.4, -1627428.0, -0.25263953, 0.000021675538, -0.00007306368, -1622464.4, -5350.6865, 0.0, 10.000085, 9.993504 
3.0550036e+3, 1.4497592e+2, -1534362.9, -1548138.1, 0.0049238703, 0.00002156839, 0.00008346775, -1534362.9, -15126.78, 0.0, 10.000084, 9.981825 
3.0550036e+3, 1.5495776e+2, -1436636.1, -1450814.5, -0.31047192, 0.000021497612, -0.000052701267, -1436636.1, -15222.164, 0.0, 10.000084, 9.981294 
3.0550036e+3, 1.6493297e+2, -1348586.1, -1371945.9, -0.00415615, 0.00002141307, 0.00004866771, -1348586.1, -24929.197, 0.0, 10.000083, 9.969209 
3.0550036e+3, 1.7490222e+2, -1250629.0, -1274304.4, -0.3188727, 0.00002131451, -0.00007002699, -1250629.0, -24670.738, 0.0, 10.000083, 9.968795 
3.0550036e+3, 1.8486483e+2, -1162548.4, -1195714.0, -0.036383703, 0.000021238475, 0.00007069062, -1162548.4, -34223.758, 0.0, 10.000083, 9.956356 
3.0550036e+3, 1.9482122e+2, -1064399.6, -1097827.6, -0.34340122, 0.000021185982, -0.000054186945, -1064399.6, -33647.64, 0.0, 10.000082, 9.956013 
3.0550036e+3, 2.0477095e+2, -976236.2, -1019429.9, -0.031371485, 0.000021118016, 0.00007103576, -976236.2, -42991.55, 0.0, 10.000082, 9.943252 
3.0550036e+3, 2.1471424e+2, -877950.0, -921405.4, -0.3300933, 0.000021033284, -0.00012377003, -877950.0, -42149.574, 0.0, 10.000082, 9.94291 
3.0550036e+3, 2.2465083e+2, -789664.4, -843140.6, -0.029323738, 0.000020962758, 0.00012385659, -789664.4, -51242.59, 0.0, 10.000082, 9.929869 
3.0550036e+3, 2.3458079e+2, -691231.7, -744962.8, -0.32267508, 0.000020908301, -0.000086125976, -691231.7, -50123.234, 0.0, 10.000081, 9.929538 
3.0550036e+3, 2.4450375e+2, -602908.1, -667015.5, -0.01454418, 0.00002085235, 0.000077170174, -602908.1, -59044.98, 0.0, 10.000081, 9.916098 
3.0550036e+3, 2.5441998e+2, -504156.2, -568340.56, -0.29530886, 0.000020794581, -0.00010444201, -504156.2, -57472.004, 0.0, 10.000081, 9.9159975 
3.0550036e+3, 2.643291e+2, -415921.34, -490985.63, 0.018280149, 0.00002074369, 0.0001427073, -415921.34, -66346.64, 0.0, 10.000081, 9.901926 
3.0550033e+3, 2.742316e+2, -316636.78, -391373.06, -0.25697112, 0.000020701535, -0.00020153189, -316636.78, -64106.395, 0.0, 10.00008, 9.902347 
3.0550033e+3, 2.8412586e+2, -230163.72, -318079.44, 0.044501293, 0.000020660893, 0.00023078996, -230163.72, -74596.99, 0.0, 10.00008, 9.885401 
3.0550033e+3, 2.940123e+2, -130458.195, -217763.69, -0.20840077, 0.000020622263, -0.00025172217, -130458.195, -71778.67, 0.0, 10.00008, 9.886179 
3.0550033e+3, 3.039267e+2, -40715.887, -84750.81, 0.093527205, 0.000020577358, 0.00017451098, -40715.887, -40715.887, 0.0, 10.00008, 9.942134 
3.0550033e+3, 3.138707e+2, -39638.105, -82512.1, -0.15056306, 0.000020523155, -0.0000541959, -39638.105, -39638.105, 0.0, 10.00008, 9.943645 
3.065004e+3, 1.2499422e+2, -1719838.4, -1724215.0, 0.23126416, 0.000022266257, 0.000025891239, -1719838.4, -4781.716, 0.0, 10.000089, 9.994286 
3.065004e+3, 1.3498841e+2, -1622459.1, -1627426.3, -0.10575363, 0.000022103584, -0.00007322626, -1622459.1, -5345.643, 0.0, 10.000088, 9.993504 
3.065004e+3, 1.4497593e+2, -1534357.6, -1548136.4, 0.14924788, 0.000021987675, 0.00008374437, -1534357.6, -15121.747, 0.0, 10.000088, 9.981824 
3.0650038e+3, 1.5495779e+2, -1436631.0, -1450812.8, -0.18455765, 0.000021914473, -0.000052610398, -1436631.0, -15217.161, 0.0, 10.000088, 9.981293 
3.0650038e+3, 1.6493298e+2, -1348581.0, -1371944.1, 0.11966705, 0.000021834348, 0.00004868851, -1348581.0, -24924.242, 0.0, 10.000087, 9.969208 
3.0650038e+3, 1.7490223e+2, -1250624.0, -1274302.8, -0.20286398, 0.000021747182, -0.00006995809, -1250624.0, -24665.88, 0.0, 10.000087, 9.968794 
3.0650038e+3, 1.8486485e+2, -1162543.5, -1195712.5, 0.07913946, 0.000021667729, 0.000070775735, -1162543.5, -34218.93, 0.0, 10.000086, 9.956355 
3.0650038e+3, 1.9482124e+2, -1064394.6, -1097826.0, -0.24157073, 0.000021596325, -0.00005411901, -1064394.6, -33642.78, 0.0, 10.000086, 9.956013 
3.0650038e+3, 2.0477097e+2, -976231.25, -1019428.3, 0.06835049, 0.000021524156, 0.00007109644, -976231.25, -42986.715, 0.0, 10.000086, 9.943251 
3.0650038e+3, 2.1471424e+2, -877945.1, -921403.8, -0.24985847, 0.000021451147, -0.00012370586, -877945.1, -42144.82, 0.0, 10.000086, 9.94291 
3.0650038e+3, 2.2465084e+2, -789659.56, -843139.1, 0.048529677, 0.000021384123, 0.00012391873, -789659.56, -51237.88, 0.0, 10.000085, 9.929869 
3.0650038e+3, 2.3458079e+2, -691226.9, -744961.3, -0.25084433, 0.000021323855, -0.00008607212, -691226.9, -50118.555, 0.0, 10.000085, 9.929537 
3.0650038e+3, 2.4450377e+2, -602903.4, -667014.0, 0.060177308, 0.000021263235, 0.00007721942, -602903.4, -59040.313, 0.0, 10.000085, 9.916097 
3.0650038e+3, 2.5441998e+2, -504151.47, -568339.1, -0.2342433, 0.000021202171, -0.00010439298, -504151.47, -57467.35, 0.0, 10.000085, 9.915997 
3.0650038e+3, 2.6432914e+2, -415916.63, -490984.25, 0.08056765, 0.000021150496, 0.00014275327, -415916.63, -66342.02, 0.0, 10.000084, 9.901925 
3.0650038e+3, 2.742316e+2, -316632.16, -391371.72, -0.2007307, 0.000021110742, -0.00020149264, -316632.16, -64101.824, 0.0, 10.000084, 9.902346 
3.0650038e+3, 2.8412586e+2, -230159.1, -318078.1, 0.10544254, 0.000021069056, 0.00023082615, -230159.1, -74592.43, 0.0, 10.000084, 9.8854 
3.0650038e+3, 2.940123e+2, -130453.6, -217762.36, -0.15869845, 0.000021024647, -0.00025168402, -130453.6, -71774.13, 0.0, 10.000084, 9.886178 
3.0650038e+3, 3.039267e+2, -40711.375, -84749.57, 0.14458601, 0.000020978794, 0.00017454573, -40711.375, -40711.375, 0.0, 10.000084, 9.942133 
3.0650038e+3, 3.1387073e+2, -39633.633, -82510.88, -0.10533446, 0.000020930858, -0.000054172615, -39633.633, -39633.633, 0.0, 10.000083, 9.943645 
3.075004e+3, 1.2499424e+2, -1719839.1, -1724216.5, 0.07766357, 0.00002274227, 0.000026058024, -1719839.1, -4782.6855, 0.0, 10.000089, 9.994285 
3.075004e+3, 1.3498843e+2, -1622459.9, -1627427.8, -0.25937772, 0.000022528995, -0.00007337569, -1622459.9, -5346.5967, 0.0, 10.000088, 9.993503 
3.075004e+3, 1.4497595e+2, -1534358.4, -1548137.8, 0.0071802866, 0.000022393762, 0.00008403854, -1534358.4, -15122.683, 0.0, 10.000088, 9.981823 
3.075004e+3, 1.549578e+2, -1436631.8, -1450814.3, -0.326607, 0.000022332637, -0.00005254844, -1436631.8, -15218.078, 0.0, 10.000088, 9.981292 
3.075004e+3, 1.64933e+2, -1348581.8, -1371945.5, -0.019807335, 0.00002226762, 0.0000486813, -1348581.8, -24925.121, 0.0, 10.000087, 9.969207 
3.075004e+3, 1.7490225e+2, -1250624.8, -1274304.1, -0.3423342, 0.000022198657, -0.000069867965, -1250624.8, -24666.744, 0.0, 10.000087, 9.968793 
3.075004e+3, 1.8486486e+2, -1162544.1, -1195713.8, -0.03579081, 0.000022111208, 0.000070885515, -1162544.1, -34219.777, 0.0, 10.000086, 9.956354 
3.075004e+3, 1.9482125e+2, -1064395.4, -1097827.4, -0.3562238, 0.000022004391, -0.000054070846, -1064395.4, -33643.617, 0.0, 10.000086, 9.956012 
3.0750036e+3, 2.0477098e+2, -976231.94, -1019429.7, -0.04577176, 0.000021926253, 0.00007113248, -976231.94, -42987.54, 0.0, 10.000086, 9.94325 
3.0750036e+3, 2.1471426e+2, -877945.8, -921405.2, -0.363973, 0.000021879157, -0.00012362833, -877945.8, -42145.63, 0.0, 10.000086, 9.942909 
3.0750036e+3, 2.2465086e+2, -789660.2, -843140.44, -0.048351653, 0.00002181995, 0.00012399883, -789660.2, -51238.65, 0.0, 10.000085, 9.929868 
3.0750036e+3, 2.345808e+2, -691227.5, -744962.6, -0.34717286, 0.000021747, -0.00008603349, -691227.5, -50119.305, 0.0, 10.000085, 9.929536 
3.0750036e+3, 2.4450378e+2, -602904.0, -667015.3, -0.022151874, 0.000021679116, 0.0000772522, -602904.0, -59041.06, 0.0, 10.000085, 9.916096 
3.0750036e+3, 2.5442e+2, -504152.1, -568340.44, -0.3159084, 0.000021617278, -0.00010432343, -504152.1, -57468.082, 0.0, 10.000085, 9.915996 
3.0750036e+3, 2.6432914e+2, -415917.28, -490985.53, 0.0066888006, 0.00002156559, 0.00014282584, -415917.28, -66342.734, 0.0, 10.000084, 9.901925 
3.0750036e+3, 2.742316e+2, -316632.78, -391373.0, -0.27409506, 0.000021526777, -0.00020146012, -316632.78, -64102.516, 0.0, 10.000084, 9.902345 
3.0750036e+3, 2.8412586e+2, -230159.72, -318079.34, 0.049369212, 0.000021483544, 0.0002308396, -230159.72, -74593.1, 0.0, 10.000084, 9.885399 
3.0750036e+3, 2.940123e+2, -130454.21, -217763.61, -0.21322276, 0.000021434173, -0.00025166073, -130454.21, -71774.79, 0.0, 10.000084, 9.886177 
3.0750036e+3, 3.039267e+2, -40711.98, -84750.83, 0.09884703, 0.000021387681, 0.00017457915, -40711.98, -40711.98, 0.0, 10.000084, 9.942132 
3.0750036e+3, 3.1387073e+2, -39634.24, -82512.14, -0.15005304, 0.000021345553, -0.000054128843, -39634.24, -39634.24, 0.0, 10.000083, 9.943644 
3.0850038e+3, 1.2499426e+2, -1719833.8, -1724214.6, 0.23220651, 0.000023199056, 0.00002624065, -1719833.8, -4777.4014, 0.0, 10.0000925, 9.994284 
3.0850038e+3, 1.3498846e+2, -1622454.5, -1627425.9, -0.121499464, 0.000022968454, -0.00007351127, -1622454.5, -5341.3447, 0.0, 10.000092, 9.993502 
3.0850038e+3, 1.4497596e+2, -1534353.0, -1548135.9, 0.14525779, 0.000022828795, 0.00008435759, -1534353.0, -15117.452, 0.0, 10.000092, 9.981822 
3.0850038e+3, 1.5495782e+2, -1436626.4, -1450812.4, -0.18631206, 0.000022776163, -0.000052465348, -1436626.4, -15212.917, 0.0, 10.000092, 9.981291 
3.0850038e+3, 1.6493301e+2, -1348576.5, -1371943.8, 0.119946696, 0.000022711263, 0.00004868324, -1348576.5, -24920.002, 0.0, 10.000091, 9.969206 
3.0850038e+3, 1.7490226e+2, -1250619.5, -1274302.4, -0.22533487, 0.000022633865, -0.000069789065, -1250619.5, -24661.645, 0.0, 10.000091, 9.968792 
3.0850038e+3, 1.8486488e+2, -1162538.9, -1195712.1, 0.08353593, 0.000022543496, 0.00007098962, -1162538.9, -34214.703, 0.0, 10.00009, 9.956353 
3.0850038e+3, 1.9482127e+2, -1064390.1, -1097825.8, -0.24647424, 0.000022439524, -0.0000539957, -1064390.1, -33638.61, 0.0, 10.00009, 9.956011 
3.0850038e+3, 2.04771e+2, -976226.8, -1019428.06, 0.064769305, 0.000022360715, 0.00007119207, -976226.8, -42982.566, 0.0, 10.00009, 9.943249 
3.0850038e+3, 2.1471427e+2, -877940.75, -921403.6, -0.25487247, 0.000022309141, -0.00012356977, -877940.75, -42140.684, 0.0, 10.000089, 9.942908 
3.0850038e+3, 2.2465087e+2, -789655.2, -843138.8, 0.06630098, 0.000022246935, 0.00012405621, -789655.2, -51233.715, 0.0, 10.000089, 9.929867 
3.0850038e+3, 2.3458081e+2, -691222.5, -744961.06, -0.25320816, 0.000022172664, -0.00008597748, -691222.5, -50114.41, 0.0, 10.000089, 9.929536 
3.0850038e+3, 2.4450378e+2, -602899.06, -667013.8, 0.06591131, 0.000022105143, 0.00007730631, -602899.06, -59036.2, 0.0, 10.000089, 9.916095 
3.0850038e+3, 2.5442e+2, -504147.22, -568339.0, -0.24149463, 0.00002204568, -0.00010427191, -504147.22, -57463.28, 0.0, 10.000088, 9.915995 
3.0850038e+3, 2.6432914e+2, -415912.4, -490984.1, 0.081025995, 0.000021991815, 0.00014287364, -415912.4, -66337.95, 0.0, 10.000088, 9.901924 
3.0850038e+3, 2.742316e+2, -316627.94, -391371.56, -0.21124601, 0.000021945032, -0.00020141748, -316627.94, -64097.75, 0.0, 10.000088, 9.902344 
3.0850038e+3, 2.8412586e+2, -230154.89, -318077.94, 0.11216877, 0.000021899228, 0.00023087834, -230154.89, -74588.34, 0.0, 10.000088, 9.885398 
3.0850038e+3, 2.940123e+2, -130449.445, -217762.25, -0.16417104, 0.000021854708, -0.0002516241, -130449.445, -71770.08, 0.0, 10.000088, 9.886177 
3.0850038e+3, 3.039267e+2, -40707.31, -84749.555, 0.14167856, 0.000021809206, 0.00017461194, -40707.31, -40707.31, 0.0, 10.000087, 9.942131 
3.0850038e+3, 3.1387073e+2, -39629.57, -82510.87, -0.12704296, 0.00002176227, -0.000054102526, -39629.57, -39629.57, 0.0, 10.000087, 9.943643 
3.0950043e+3, 1.2499428e+2, -1719834.5, -1724216.1, 0.07582263, 0.000023636656, 0.000026440632, -1719834.5, -4778.418, 0.0, 10.0000925, 9.994283 
3.0950043e+3, 1.3498849e+2, -1622455.3, -1627427.4, -0.27790138, 0.00002342195, -0.000073633026, -1622455.3, -5342.3438, 0.0, 10.000092, 9.993501 
3.0950043e+3, 1.44976e+2, -1534353.8, -1548137.4, -0.009075445, 0.000023292738, 0.00008470149, -1534353.8, -15118.391, 0.0, 10.000092, 9.981822 
3.0950043e+3, 1.5495783e+2, -1436627.1, -1450813.9, -0.34065285, 0.000023245022, -0.00005236116, -1436627.1, -15213.837, 0.0, 10.000092, 9.98129 
3.095004e+3, 1.6493303e+2, -1348577.3, -1371945.3, -0.019089082, 0.000023165268, 0.000048694314, -1348577.3, -24920.94, 0.0, 10.000091, 9.969205 
3.095004e+3, 1.7490229e+2, -1250620.3, -1274303.8, -0.36429012, 0.000023052835, -0.000069721376, -1250620.3, -24662.564, 0.0, 10.000091, 9.968791 
3.095004e+3, 1.848649e+2, -1162539.6, -1195713.5, -0.0436064, 0.000022964618, 0.00007108805, -1162539.6, -34215.582, 0.0, 10.00009, 9.956353 
3.095004e+3, 1.9482128e+2, -1064390.9, -1097827.1, -0.37349102, 0.00002290169, -0.000053893615, -1064390.9, -33639.473, 0.0, 10.00009, 9.95601 
3.095004e+3, 2.0477101e+2, -976227.56, -1019429.44, -0.05066337, 0.000022827502, 0.00007127517, -976227.56, -42983.402, 0.0, 10.00009, 9.943248 
3.095004e+3, 2.1471429e+2, -877941.44, -921404.94, -0.3700787, 0.000022741104, -0.00012353016, -877941.44, -42141.5, 0.0, 10.000089, 9.942907 
3.095004e+3, 2.2465087e+2, -789655.9, -843140.2, -0.034635082, 0.000022665101, 0.00012409089, -789655.9, -51234.53, 0.0, 10.000089, 9.929866 
3.095004e+3, 2.3458081e+2, -691223.25, -744962.44, -0.3536837, 0.000022600847, -0.00008590411, -691223.25, -50115.21, 0.0, 10.000089, 9.929535 
3.095004e+3, 2.445038e+2, -602899.75, -667015.2, -0.02529989, 0.000022541308, 0.00007738169, -602899.75, -59036.977, 0.0, 10.000089, 9.916094 
3.095004e+3, 2.5442e+2, -504147.9, -568340.3, -0.3322664, 0.000022487366, -0.00010423838, -504147.9, -57464.04, 0.0, 10.000088, 9.915995 
3.095004e+3, 2.6432914e+2, -415913.06, -490985.4, 0.008190647, 0.000022429165, 0.00014289672, -415913.06, -66338.69, 0.0, 10.000088, 9.901923 
3.095004e+3, 2.7423164e+2, -316628.6, -391372.9, -0.28288978, 0.000022365512, -0.00020136478, -316628.6, -64098.47, 0.0, 10.000088, 9.902343 
3.095004e+3, 2.8412586e+2, -230155.53, -318079.28, 0.049074728, 0.000022316119, 0.00023094236, -230155.53, -74589.05, 0.0, 10.000088, 9.885397 
3.095004e+3, 2.940123e+2, -130450.08, -217763.56, -0.22650082, 0.000022286242, -0.0002515741, -130450.08, -71770.766, 0.0, 10.000088, 9.886176 
3.095004e+3, 3.039267e+2, -40707.953, -84750.89, 0.095240876, 0.000022243355, 0.0001746441, -40707.953, -40707.953, 0.0, 10.000087, 9.94213 
3.095004e+3, 3.1387073e+2, -39630.215, -82512.21, -0.17161849, 0.00002218101, -0.00005409364, -39630.215, -39630.215, 0.0, 10.000087, 9.943642 
3.105004e+3, 1.249943e+2, -1719828.8, -1724214.1, 0.25482684, 0.00002408255, 0.000026627009, -1719828.8, -4772.866, 0.0, 10.000096, 9.994282 
3.105004e+3, 1.349885e+2, -1622449.6, -1627425.5, -0.109298214, 0.000023888784, -0.000073800846, -1622449.6, -5336.911, 0.0, 10.000096, 9.9935 
3.105004e+3, 1.4497602e+2, -1534348.1, -1548135.5, 0.15422978, 0.00002376472, 0.00008501084, -1534348.1, -15112.998, 0.0, 10.000095, 9.981821 
3.105004e+3, 1.5495786e+2, -1436621.6, -1450812.0, -0.20460527, 0.000023706198, -0.00005226386, -1436621.6, -15208.47, 0.0, 10.000095, 9.981289 
3.105004e+3, 1.6493304e+2, -1348571.8, -1371943.4, 0.11786023, 0.000023617835, 0.000048712136, -1348571.8, -24915.6, 0.0, 10.000094, 9.969204 
3.105004e+3, 1.749023e+2, -1250614.8, -1274302.0, -0.2283555, 0.000023499035, -0.00006964757, -1250614.8, -24657.258, 0.0, 10.000094, 9.96879 
3.105004e+3, 1.8486491e+2, -1162534.3, -1195711.8, 0.09024367, 0.000023410796, 0.000071182534, -1162534.3, -34210.313, 0.0, 10.000094, 9.956352 
3.105004e+3, 1.948213e+2, -1064385.5, -1097825.4, -0.25970602, 0.000023354476, -0.000053815424, -1064385.5, -33634.27, 0.0, 10.000093, 9.956009 
3.105004e+3, 2.0477103e+2, -976222.25, -1019427.7, 0.059564415, 0.000023279692, 0.000071344155, -976222.25, -42978.23, 0.0, 10.000093, 9.943247 
3.105004e+3, 2.147143e+2, -877936.2, -921403.3, -0.28174406, 0.000023184899, -0.00012346268, -877936.2, -42136.348, 0.0, 10.0000925, 9.942906 
3.1050038e+3, 2.2465089e+2, -789650.6, -843138.56, 0.048772797, 0.000023105362, 0.00012415709, -789650.6, -51229.41, 0.0, 10.0000925, 9.929865 
3.1050038e+3, 2.3458083e+2, -691218.06, -744960.9, -0.2778839, 0.00002304308, -0.00008583891, -691218.06, -50110.145, 0.0, 10.0000925, 9.929534 
3.1050038e+3, 2.4450381e+2, -602894.6, -667013.6, 0.0563822, 0.000022982767, 0.00007744274, -602894.6, -59031.938, 0.0, 10.0000925, 9.916093 
3.1050038e+3, 2.5442004e+2, -504142.78, -568338.8, -0.2579616, 0.00002292477, -0.0001041852, -504142.78, -57459.023, 0.0, 10.000092, 9.915994 
3.1050038e+3, 2.6432917e+2, -415908.0, -490983.9, 0.084383406, 0.000022865173, 0.00014294445, -415908.0, -66333.7, 0.0, 10.000092, 9.901922 
3.1050038e+3, 2.7423164e+2, -316623.56, -391371.44, -0.2249285, 0.000022803508, -0.00020131939, -316623.56, -64093.535, 0.0, 10.000092, 9.902342 
3.1050038e+3, 2.841259e+2, -230150.55, -318077.8, 0.10435894, 0.000022753637, 0.00023098697, -230150.55, -74584.125, 0.0, 10.000092, 9.885396 
3.1050038e+3, 2.9401234e+2, -130445.13, -217762.13, -0.17788574, 0.000022719887, -0.00025152808, -130445.13, -71765.875, 0.0, 10.000092, 9.886175 
3.1050038e+3, 3.0392674e+2, -40703.09, -84749.555, 0.1527141, 0.000022674882, 0.00017468355, -40703.09, -40703.09, 0.0, 10.000091, 9.942129 
3.1050038e+3, 3.1387073e+2, -39625.38, -82510.89, -0.111814365, 0.00002261305, -0.00005407251, -39625.38, -39625.38, 0.0, 10.000091, 9.943641 
3.1150043e+3, 1.2499432e+2, -1719829.6, -1724215.6, 0.07541587, 0.000024536723, 0.0000268018, -1719829.6, -4773.9155, 0.0, 10.000096, 9.994281 
3.115004e+3, 1.3498853e+2, -1622450.5, -1627427.0, -0.28873822, 0.000024368941, -0.00007401468, -1622450.5, -5337.9424, 0.0, 10.000096, 9.993499 
3.115004e+3, 1.4497603e+2, -1534348.9, -1548137.0, -0.0018103117, 0.000024244735, 0.00008528571, -1534348.9, -15114.007, 0.0, 10.000095, 9.98182 
3.115004e+3, 1.5495788e+2, -1436622.4, -1450813.5, -0.3606136, 0.00002415971, -0.00005217344, -1436622.4, -15209.458, 0.0, 10.000095, 9.981288 
3.115004e+3, 1.6493307e+2, -1348572.5, -1371944.9, -0.0243018, 0.000024068971, 0.00004873669, -1348572.5, -24916.547, 0.0, 10.000094, 9.969203 
3.115004e+3, 1.7490232e+2, -1250615.5, -1274303.5, -0.37045807, 0.000023972434, -0.00006956765, -1250615.5, -24658.188, 0.0, 10.000094, 9.968789 
3.115004e+3, 1.8486492e+2, -1162535.0, -1195713.3, -0.04836059, 0.000023882001, 0.000071273076, -1162535.0, -34211.24, 0.0, 10.000094, 9.956351 
3.115004e+3, 1.9482131e+2, -1064386.4, -1097826.9, -0.39827356, 0.000023797904, -0.000053761087, -1064386.4, -33635.18, 0.0, 10.000093, 9.956008 
3.115004e+3, 2.0477104e+2, -976223.0, -1019429.2, -0.056588486, 0.000023717317, 0.00007139907, -976223.0, -42979.117, 0.0, 10.000093, 9.943246 
3.115004e+3, 2.1471432e+2, -877936.9, -921404.75, -0.39744028, 0.00002364052, -0.00012336737, -877936.9, -42137.22, 0.0, 10.0000925, 9.942905 
3.115004e+3, 2.246509e+2, -789651.4, -843140.0, -0.06097025, 0.000023567693, 0.00012425479, -789651.4, -51230.25, 0.0, 10.0000925, 9.929864 
3.115004e+3, 2.3458084e+2, -691218.75, -744962.25, -0.38744155, 0.000023499346, -0.00008578188, -691218.75, -50110.965, 0.0, 10.0000925, 9.929533 
3.115004e+3, 2.4450381e+2, -602895.3, -667015.0, -0.03569468, 0.000023429522, 0.000077489494, -602895.3, -59032.74, 0.0, 10.0000925, 9.916093 
3.115004e+3, 2.5442004e+2, -504143.47, -568340.2, -0.3492107, 0.00002335791, -0.00010411238, -504143.47, -57459.805, 0.0, 10.000092, 9.915993 
3.115004e+3, 2.6432917e+2, -415908.7, -490985.3, 0.003918002, 0.000023299846, 0.00014301682, -415908.7, -66334.484, 0.0, 10.000092, 9.901921 
3.115004e+3, 2.7423164e+2, -316624.25, -391372.84, -0.30467376, 0.000023259, -0.0002012813, -316624.25, -64094.297, 0.0, 10.000092, 9.902341 
3.115004e+3, 2.841259e+2, -230151.2, -318079.16, 0.038507935, 0.000023211755, 0.00023101225, -230151.2, -74584.85, 0.0, 10.000092, 9.885396 
3.115004e+3, 2.9401234e+2, -130445.77, -217763.47, -0.24249846, 0.000023155648, -0.00025148605, -130445.77, -71766.58, 0.0, 10.000092, 9.886174 
3.115004e+3, 3.0392674e+2, -40703.73, -84750.89, 0.10088324, 0.000023103796, 0.00017473029, -40703.73, -40703.73, 0.0, 10.000091, 9.942128 
3.115004e+3, 3.1387073e+2, -39626.023, -82512.23, -0.16216065, 0.000023058377, -0.000054039152, -39626.023, -39626.023, 0.0, 10.000091, 9.94364 
3.1250045e+3, 1.24994345e+2, -1719823.6, -1724213.6, 0.26202443, 0.000025023985, 0.000026988297, -1719823.6, -4768.2266, 0.0, 10.0001, 9.99428 
3.1250045e+3, 1.3498855e+2, -1622444.6, -1627425.0, -0.121389665, 0.000024840732, -0.000074177704, -1622444.6, -5332.2583, 0.0, 10.0001, 9.993498 
3.1250045e+3, 1.4497606e+2, -1534343.0, -1548135.0, 0.16887826, 0.000024710042, 0.000085619096, -1534343.0, -15108.33, 0.0, 10.0001, 9.981819 
3.1250045e+3, 1.5495789e+2, -1436616.6, -1450811.5, -0.19841667, 0.00002462748, -0.00005209052, -1436616.6, -15203.843, 0.0, 10.000099, 9.981287 
3.1250045e+3, 1.6493309e+2, -1348566.8, -1371943.0, 0.13257451, 0.000024539542, 0.000048739177, -1348566.8, -24910.99, 0.0, 10.000099, 9.969202 
3.1250045e+3, 1.7490233e+2, -1250609.9, -1274301.6, -0.23984946, 0.000024446152, -0.00006947189, -1250609.9, -24652.717, 0.0, 10.000098, 9.968788 
3.1250042e+3, 1.8486494e+2, -1162529.4, -1195711.4, 0.08001146, 0.000024352097, 0.00007139418, -1162529.4, -34205.797, 0.0, 10.000098, 9.95635 
3.1250042e+3, 1.9482133e+2, -1064380.8, -1097825.0, -0.27490395, 0.000024257299, -0.000053685737, -1064380.8, -33629.74, 0.0, 10.000097, 9.956007 
3.1250042e+3, 2.0477106e+2, -976217.44, -1019427.4, 0.0747234, 0.00002417383, 0.00007145631, -976217.44, -42973.703, 0.0, 10.000097, 9.943245 
3.1250042e+3, 2.1471432e+2, -877931.44, -921403.0, -0.27271077, 0.000024102615, -0.00012329828, -877931.44, -42131.883, 0.0, 10.000097, 9.942904 
3.1250042e+3, 2.2465092e+2, -789645.94, -843138.3, 0.06528951, 0.000024030356, 0.00012432548, -789645.94, -51224.953, 0.0, 10.000096, 9.929863 
3.1250042e+3, 2.3458086e+2, -691213.4, -744960.6, -0.27812263, 0.00002395689, -0.00008572122, -691213.4, -50105.69, 0.0, 10.000096, 9.929532 
3.1250042e+3, 2.4450383e+2, -602889.94, -667013.4, 0.069208615, 0.000023883014, 0.00007754608, -602889.94, -59027.49, 0.0, 10.000096, 9.916092 
3.1250042e+3, 2.5442004e+2, -504138.16, -568338.56, -0.2664191, 0.000023808627, -0.000104052764, -504138.16, -57454.598, 0.0, 10.000095, 9.915992 
3.1250042e+3, 2.6432917e+2, -415903.44, -490983.75, 0.08480743, 0.00002375038, 0.00014307254, -415903.44, -66329.305, 0.0, 10.000095, 9.90192 
3.1250042e+3, 2.7423164e+2, -316619.06, -391371.3, -0.22341512, 0.000023712644, -0.00020123833, -316619.06, -64089.164, 0.0, 10.000095, 9.90234 
3.1250042e+3, 2.841259e+2, -230146.03, -318077.66, 0.12533854, 0.000023665812, 0.00023104825, -230146.03, -74579.74, 0.0, 10.000095, 9.885395 
3.1250042e+3, 2.9401234e+2, -130440.64, -217762.0, -0.17944615, 0.000023606404, -0.0002514491, -130440.64, -71761.5, 0.0, 10.000095, 9.886173 
3.1250042e+3, 3.0392674e+2, -40698.676, -84749.51, 0.1478591, 0.00002354897, 0.00017477066, -40698.676, -40698.676, 0.0, 10.000094, 9.942127 
3.1250042e+3, 3.1387073e+2, -39620.97, -82510.85, -0.14650029, 0.000023494622, -0.00005399188, -39620.97, -39620.97, 0.0, 10.000094, 9.943639 
3.1350043e+3, 1.2499437e+2, -1719824.5, -1724215.3, 0.08652857, 0.00002554428, 0.00002718692, -1719824.5, -4769.3296, 0.0, 10.0001, 9.994279 
3.1350043e+3, 1.3498856e+2, -1622445.5, -1627426.6, -0.2969047, 0.000025304178, -0.00007429001, -1622445.5, -5333.343, 0.0, 10.0001, 9.993497 
3.1350043e+3, 1.4497608e+2, -1534343.9, -1548136.5, 0.0030005989, 0.000025160674, 0.000086010885, -1534343.9, -15109.367, 0.0, 10.0001, 9.981818 
3.1350043e+3, 1.549579e+2, -1436617.4, -1450813.1, -0.364283, 0.00002510949, -0.00005201509, -1436617.4, -15204.858, 0.0, 10.000099, 9.981286 
3.1350043e+3, 1.649331e+2, -1348567.6, -1371944.5, -0.024628475, 0.00002502952, 0.00004871965, -1348567.6, -24912.004, 0.0, 10.000099, 9.969201 
3.1350043e+3, 1.7490235e+2, -1250610.8, -1274303.3, -0.39701557, 0.0000249202, -0.00006936031, -1250610.8, -24653.71, 0.0, 10.000098, 9.968787 
3.1350043e+3, 1.8486495e+2, -1162530.3, -1195712.9, -0.054504614, 0.000024821096, 0.000071545786, -1162530.3, -34206.746, 0.0, 10.000098, 9.956349 
3.1350043e+3, 1.9482134e+2, -1064381.5, -1097826.5, -0.40916738, 0.000024732648, -0.00005358941, -1064381.5, -33630.668, 0.0, 10.000097, 9.956006 
3.1350043e+3, 2.0477107e+2, -976218.2, -1019428.9, -0.05541518, 0.00002464921, 0.00007151589, -976218.2, -42974.61, 0.0, 10.000097, 9.943245 
3.1350043e+3, 2.1471433e+2, -877932.2, -921404.5, -0.40277338, 0.000024571189, -0.00012325533, -877932.2, -42132.773, 0.0, 10.000097, 9.9429035 
3.1350043e+3, 2.2465093e+2, -789646.7, -843139.8, -0.04537958, 0.00002449336, 0.00012436922, -789646.7, -51225.836, 0.0, 10.000096, 9.929862 
3.1350043e+3, 2.3458086e+2, -691214.1, -744962.06, -0.38816458, 0.000024415722, -0.00008565693, -691214.1, -50106.555, 0.0, 10.000096, 9.929531 
3.1350043e+3, 2.4450384e+2, -602890.7, -667014.9, -0.028571306, 0.000024343242, 0.00007761247, -602890.7, -59028.336, 0.0, 10.000096, 9.916091 
3.135004e+3, 2.5442007e+2, -504138.9, -568340.06, -0.3636134, 0.0000242769, -0.000104006314, -504138.9, -57455.43, 0.0, 10.000095, 9.915991 
3.135004e+3, 2.643292e+2, -415904.13, -490985.2, -0.0020672882, 0.000024216755, 0.00014311165, -415904.13, -66330.09, 0.0, 10.000095, 9.901919 
3.135004e+3, 2.7423167e+2, -316619.75, -391372.72, -0.30961525, 0.000024164456, -0.00020119047, -316619.75, -64089.93, 0.0, 10.000095, 9.902339 
3.135004e+3, 2.841259e+2, -230146.73, -318079.1, 0.056828868, 0.000024115823, 0.00023109496, -230146.73, -74580.516, 0.0, 10.000095, 9.885394 
3.135004e+3, 2.9401234e+2, -130441.336, -217763.44, -0.24636444, 0.00002407214, -0.00025141716, -130441.336, -71762.26, 0.0, 10.000095, 9.886172 
3.135004e+3, 3.0392674e+2, -40699.38, -84750.97, 0.09522195, 0.000024010387, 0.00017480465, -40699.38, -40699.38, 0.0, 10.000094, 9.942126 
3.135004e+3, 3.1387073e+2, -39621.676, -82512.32, -0.19746453, 0.000023921812, -0.000053930726, -39621.676, -39621.676, 0.0, 10.000094, 9.943638 
3.1450045e+3, 1.2499439e+2, -1719818.4, -1724213.3, 0.25379404, 0.000026052632, 0.000027412194, -1719818.4, -4763.4014, 0.0, 10.000105, 9.994278 
3.1450045e+3, 1.3498859e+2, -1622439.4, -1627424.6, -0.1399868, 0.000025794418, -0.000074456046, -1622439.4, -5327.4497, 0.0, 10.000105, 9.993495 
3.1450045e+3, 1.449761e+2, -1534337.8, -1548134.5, 0.15682685, 0.00002564442, 0.00008636274, -1534337.8, -15103.486, 0.0, 10.000104, 9.981816 
3.1450045e+3, 1.5495794e+2, -1436611.4, -1450811.1, -0.21669896, 0.000025598325, -0.000051912837, -1436611.4, -15199.055, 0.0, 10.000104, 9.981285 
3.1450045e+3, 1.6493312e+2, -1348561.6, -1371942.6, 0.13052388, 0.000025517931, 0.000048731905, -1348561.6, -24906.262, 0.0, 10.000103, 9.9692 
3.1450045e+3, 1.7490236e+2, -1250604.9, -1274301.3, -0.25193274, 0.000025402558, -0.000069275055, -1250604.9, -24647.992, 0.0, 10.000103, 9.968786 
3.1450045e+3, 1.8486497e+2, -1162524.4, -1195711.0, 0.0940626, 0.000025301548, 0.00007165627, -1162524.4, -34201.043, 0.0, 10.000102, 9.956348 
3.1450045e+3, 1.9482137e+2, -1064375.8, -1097824.6, -0.2767479, 0.00002521554, -0.000053503685, -1064375.8, -33625.047, 0.0, 10.000102, 9.956005 
3.1450045e+3, 2.0477109e+2, -976212.44, -1019427.06, 0.06936713, 0.00002513043, 0.000071589275, -976212.44, -42969.035, 0.0, 10.000101, 9.943243 
3.1450045e+3, 2.1471435e+2, -877926.5, -921402.75, -0.29958338, 0.000025046276, -0.00012318084, -877926.5, -42127.227, 0.0, 10.000101, 9.942903 
3.1450045e+3, 2.2465093e+2, -789641.06, -843138.0, 0.05903175, 0.000024964636, 0.00012444421, -789641.06, -51220.305, 0.0, 10.000101, 9.929861 
3.1450045e+3, 2.3458087e+2, -691208.5, -744960.4, -0.2944678, 0.000024885818, -0.000085582185, -691208.5, -50101.063, 0.0, 10.0001, 9.92953 
3.1450045e+3, 2.4450384e+2, -602885.1, -667013.2, 0.068187855, 0.000024814066, 0.00007767877, -602885.1, -59022.887, 0.0, 10.0001, 9.91609 
3.1450045e+3, 2.5442007e+2, -504133.4, -568338.44, -0.26806432, 0.000024750732, -0.00010395824, -504133.4, -57450.04, 0.0, 10.0001, 9.91599 
3.1450045e+3, 2.643292e+2, -415898.7, -490983.56, 0.09476482, 0.000024687966, 0.00014315729, -415898.7, -66324.734, 0.0, 10.0001, 9.901918 
3.1450045e+3, 2.7423167e+2, -316614.3, -391371.13, -0.24602893, 0.000024625877, -0.00020112714, -316614.3, -64084.582, 0.0, 10.000099, 9.902338 
3.1450045e+3, 2.8412592e+2, -230141.31, -318077.53, 0.114122815, 0.000024573468, 0.0002311623, -230141.31, -74575.17, 0.0, 10.000099, 9.885393 
3.1450045e+3, 2.9401234e+2, -130435.98, -217761.89, -0.1869414, 0.000024534274, -0.00025136466, -130435.98, -71756.96, 0.0, 10.000099, 9.886171 
3.1450045e+3, 3.0392674e+2, -40694.133, -84749.54, 0.16906784, 0.000024474008, 0.00017484085, -40694.133, -40694.133, 0.0, 10.000099, 9.942125 
3.1450045e+3, 3.1387076e+2, -39616.46, -82510.91, -0.120544955, 0.000024382383, -0.00005391272, -39616.46, -39616.46, 0.0, 10.000099, 9.943637 
3.1550047e+3, 1.2499441e+2, -1719819.3, -1724214.9, 0.075367175, 0.000026549083, 0.00002766669, -1719819.3, -4764.5376, 0.0, 10.000105, 9.994277 
3.1550047e+3, 1.349886e+2, -1622440.3, -1627426.3, -0.31843254, 0.000026311418, -0.00007467572, -1622440.3, -5328.5654, 0.0, 10.000105, 9.993494 
3.1550047e+3, 1.4497612e+2, -1534338.6, -1548136.0, -0.022279968, 0.000026161231, 0.00008667475, -1534338.6, -15104.546, 0.0, 10.000104, 9.981815 
3.1550047e+3, 1.5495795e+2, -1436612.3, -1450812.6, -0.39582127, 0.000026093985, -0.000051783805, -1436612.3, -15200.093, 0.0, 10.000104, 9.981284 
3.1550047e+3, 1.6493315e+2, -1348562.5, -1371944.3, -0.02727512, 0.00002600479, 0.00004877589, -1348562.5, -24907.305, 0.0, 10.000103, 9.969199 
3.1550047e+3, 1.749024e+2, -1250605.6, -1274302.9, -0.40962565, 0.00002589322, -0.00006921609, -1250605.6, -24649.016, 0.0, 10.000103, 9.968785 
3.1550047e+3, 1.8486498e+2, -1162525.1, -1195712.5, -0.054420527, 0.00002579344, 0.000071725706, -1162525.1, -34202.035, 0.0, 10.000102, 9.956347 
3.1550047e+3, 1.9482139e+2, -1064376.5, -1097826.3, -0.4251372, 0.000025705973, -0.000053428535, -1064376.5, -33626.02, 0.0, 10.000102, 9.956004 
3.1550047e+3, 2.047711e+2, -976213.25, -1019428.6, -0.06185109, 0.000025617484, 0.00007167645, -976213.25, -42969.996, 0.0, 10.000101, 9.943242 
3.1550047e+3, 2.1471438e+2, -877927.3, -921404.3, -0.43045142, 0.00002552788, -0.00012307482, -877927.3, -42128.168, 0.0, 10.000101, 9.942902 
3.1550044e+3, 2.2465095e+2, -789641.8, -843139.56, -0.056184456, 0.000025444186, 0.00012455038, -789641.8, -51221.215, 0.0, 10.000101, 9.92986 
3.1550044e+3, 2.3458089e+2, -691209.25, -744961.9, -0.40918204, 0.000025367168, -0.000085497006, -691209.25, -50101.953, 0.0, 10.0001, 9.929529 
3.1550044e+3, 2.4450386e+2, -602885.9, -667014.7, -0.03994468, 0.000025295478, 0.00007774498, -602885.9, -59023.742, 0.0, 10.0001, 9.916088 
3.1550044e+3, 2.5442007e+2, -504134.16, -568339.9, -0.3758937, 0.000025230123, -0.000103908555, -504134.16, -57450.88, 0.0, 10.0001, 9.915989 
3.1550044e+3, 2.643292e+2, -415899.44, -490985.13, 0.010125049, 0.000025164014, 0.00014320944, -415899.44, -66325.586, 0.0, 10.0001, 9.901917 
3.1550044e+3, 2.7423167e+2, -316615.06, -391372.7, -0.32911807, 0.0000250969, -0.00020104836, -316615.06, -64085.42, 0.0, 10.000099, 9.902337 
3.1550044e+3, 2.8412592e+2, -230142.02, -318078.97, 0.03878836, 0.000025038746, 0.0002312502, -230142.02, -74575.95, 0.0, 10.000099, 9.885392 
3.1550044e+3, 2.9401237e+2, -130436.67, -217763.33, -0.26159024, 0.000024992822, -0.00025129167, -130436.67, -71757.72, 0.0, 10.000099, 9.88617 
3.1550044e+3, 3.0392674e+2, -40694.832, -84751.0, 0.10943281, 0.000024939833, 0.00017487929, -40694.832, -40694.832, 0.0, 10.000099, 9.942124 
3.1550044e+3, 3.1387076e+2, -39617.164, -82512.37, -0.17842765, 0.00002487629, -0.00005393779, -39617.164, -39617.164, 0.0, 10.000099, 9.943636 
3.1650048e+3, 1.2499444e+2, -1719812.9, -1724212.6, 0.28797442, 0.000027059641, 0.000027877148, -1719812.9, -4758.3164, 0.0, 10.00011, 9.994276 
3.1650048e+3, 1.3498864e+2, -1622434.0, -1627424.1, -0.116406925, 0.000026829483, -0.00007487097, -1622434.0, -5322.4834, 0.0, 10.000109, 9.993493 
3.1650046e+3, 1.4497614e+2, -1534332.4, -1548133.9, 0.175949, 0.000026678063, 0.000087033884, -1534332.4, -15098.508, 0.0, 10.000109, 9.981814 
3.1650046e+3, 1.5495797e+2, -1436606.0, -1450810.5, -0.22535916, 0.000026600705, -0.000051670642, -1436606.0, -15194.062, 0.0, 10.000108, 9.981283 
3.1650046e+3, 1.6493316e+2, -1348556.4, -1371942.1, 0.14073083, 0.000026506066, 0.000048796643, -1348556.4, -24901.303, 0.0, 10.000108, 9.969198 
3.1650046e+3, 1.7490241e+2, -1250599.6, -1274300.9, -0.24663068, 0.000026393825, -0.00006913092, -1250599.6, -24643.092, 0.0, 10.000107, 9.968784 
3.1650046e+3, 1.8486501e+2, -1162519.1, -1195710.6, 0.11000863, 0.000026292446, 0.00007183432, -1162519.1, -34196.156, 0.0, 10.000107, 9.956346 
3.1650046e+3, 1.948214e+2, -1064370.5, -1097824.4, -0.28377783, 0.0000262024, -0.000053339376, -1064370.5, -33620.168, 0.0, 10.000106, 9.956003 
3.1650046e+3, 2.0477112e+2, -976207.3, -1019426.75, 0.08040062, 0.000026110483, 0.00007175656, -976207.3, -42964.168, 0.0, 10.000106, 9.943241 
3.1650046e+3, 2.147144e+2, -877921.4, -921402.44, -0.29366407, 0.000026016523, -0.00012299247, -877921.4, -42122.383, 0.0, 10.000106, 9.942901 
3.1650046e+3, 2.2465096e+2, -789635.94, -843137.75, 0.08260508, 0.000025933197, 0.00012462825, -789635.94, -51215.48, 0.0, 10.000105, 9.929859 
3.1650046e+3, 2.345809e+2, -691203.5, -744960.1, -0.28655085, 0.00002586189, -0.0000854312, -691203.5, -50096.293, 0.0, 10.000105, 9.929528 
3.1650046e+3, 2.4450387e+2, -602880.1, -667012.9, 0.0788827, 0.000025787875, 0.00007780879, -602880.1, -59018.11, 0.0, 10.000105, 9.916087 
3.1650046e+3, 2.544201e+2, -504128.4, -568338.2, -0.28189543, 0.000025710597, -0.000103834725, -504128.4, -57445.24, 0.0, 10.000104, 9.915988 
3.1650046e+3, 2.643292e+2, -415893.75, -490983.44, 0.10346868, 0.000025640375, 0.00014328041, -415893.75, -66319.98, 0.0, 10.000104, 9.9019165 
3.1650046e+3, 2.742317e+2, -316609.44, -391371.06, -0.23627223, 0.00002557911, -0.00020099667, -316609.44, -64079.883, 0.0, 10.000104, 9.902336 
3.1650046e+3, 2.8412592e+2, -230136.44, -318077.34, 0.13366066, 0.00002552249, 0.0002312932, -230136.44, -74570.44, 0.0, 10.000104, 9.885391 
3.1650046e+3, 2.9401237e+2, -130431.13, -217761.73, -0.18803675, 0.000025472153, -0.0002512428, -130431.13, -71752.24, 0.0, 10.000103, 9.886169 
3.1650046e+3, 3.0392677e+2, -40689.39, -84749.49, 0.17555223, 0.000025418603, 0.00017492492, -40689.39, -40689.39, 0.0, 10.000103, 9.942123 
3.1650046e+3, 3.1387076e+2, -39611.75, -82510.88, -0.12736942, 0.000025360268, -0.000053909007, -39611.75, -39611.75, 0.0, 10.000103, 9.943635 
3.175005e+3, 1.2499447e+2, -1719813.8, -1724214.4, 0.08269322, 0.000027584289, 0.00002804619, -1719813.8, -4759.487, 0.0, 10.00011, 9.994275 
3.175005e+3, 1.3498865e+2, -1622434.9, -1627425.9, -0.3217231, 0.00002734862, -0.00007504184, -1622434.9, -5323.6343, 0.0, 10.000109, 9.993492 
3.175005e+3, 1.4497617e+2, -1534333.3, -1548135.6, 0.00022807419, 0.000027194928, 0.00008744007, -1534333.3, -15099.64, 0.0, 10.000109, 9.981813 
3.175005e+3, 1.54958e+2, -1436606.9, -1450812.3, -0.4010382, 0.000027118473, -0.000051573315, -1436606.9, -15195.17, 0.0, 10.000108, 9.981282 
3.175005e+3, 1.6493317e+2, -1348557.1, -1371943.8, -0.029638102, 0.000027021748, 0.000048794198, -1348557.1, -24902.367, 0.0, 10.000108, 9.969197 
3.175005e+3, 1.7490242e+2, -1250600.4, -1274302.5, -0.41698882, 0.00002690437, -0.00006901959, -1250600.4, -24644.135, 0.0, 10.000107, 9.968783 
3.175005e+3, 1.8486503e+2, -1162520.0, -1195712.3, -0.04038007, 0.00002679856, 0.00007198206, -1162520.0, -34197.203, 0.0, 10.000107, 9.956345 
3.175005e+3, 1.9482142e+2, -1064371.4, -1097826.0, -0.43393835, 0.000026704824, -0.00005323623, -1064371.4, -33621.195, 0.0, 10.000106, 9.956002 
3.1750047e+3, 2.0477113e+2, -976208.1, -1019428.3, -0.05684208, 0.000026609423, 0.00007182963, -976208.1, -42965.15, 0.0, 10.000106, 9.94324 
3.1750047e+3, 2.1471441e+2, -877922.2, -921404.0, -0.43065292, 0.000026512209, -0.00012293375, -877922.2, -42123.344, 0.0, 10.000106, 9.9429 
3.1750047e+3, 2.2465098e+2, -789636.75, -843139.3, -0.045751933, 0.000026431664, 0.00012467788, -789636.75, -51216.43, 0.0, 10.000105, 9.929858 
3.1750047e+3, 2.3458092e+2, -691204.3, -744961.7, -0.41463473, 0.000026369964, -0.00008538472, -691204.3, -50097.223, 0.0, 10.000105, 9.929527 
3.1750047e+3, 2.4450389e+2, -602880.94, -667014.5, -0.023312923, 0.000026291245, 0.0000778702, -602880.94, -59019.023, 0.0, 10.000105, 9.916086 
3.1750047e+3, 2.544201e+2, -504129.2, -568339.75, -0.38285738, 0.000026192161, -0.00010373679, -504129.2, -57446.133, 0.0, 10.000104, 9.915987 
3.1750047e+3, 2.6432922e+2, -415894.5, -490984.97, 0.006892563, 0.00002611706, 0.00014337017, -415894.5, -66320.84, 0.0, 10.000104, 9.901916 
3.1750047e+3, 2.742317e+2, -316610.2, -391372.6, -0.33256188, 0.000026072492, -0.000200972, -316610.2, -64080.727, 0.0, 10.000104, 9.902335 
3.1750047e+3, 2.8412592e+2, -230137.17, -318078.84, 0.05283505, 0.000026024676, 0.00023129137, -230137.17, -74571.26, 0.0, 10.000104, 9.885389 
3.1750047e+3, 2.9401237e+2, -130431.87, -217763.25, -0.2674813, 0.00002597224, -0.00025121804, -130431.87, -71753.05, 0.0, 10.000103, 9.8861685 
3.1750047e+3, 3.0392677e+2, -40690.125, -84751.02, 0.10951517, 0.000025910304, 0.00017497773, -40690.125, -40690.125, 0.0, 10.000103, 9.942122 
3.1750047e+3, 3.1387076e+2, -39612.484, -82512.414, -0.19184877, 0.000025834348, -0.000053826458, -39612.484, -39612.484, 0.0, 10.000103, 9.943634 
3.1850052e+3, 1.24994494e+2, -1719807.1, -1724212.1, 0.30158806, 0.000028113242, 0.000028254957, -1719807.1, -4753.084, 0.0, 10.000114, 9.994273 
3.185005e+3, 1.3498868e+2, -1622428.3, -1627423.6, -0.1344833, 0.000027875285, -0.00007522744, -1622428.3, -5317.2534, 0.0, 10.0001135, 9.993491 
3.185005e+3, 1.4497618e+2, -1534326.8, -1548133.4, 0.1900165, 0.000027720329, 0.00008783201, -1534326.8, -15093.282, 0.0, 10.0001135, 9.9818125 
3.185005e+3, 1.5495801e+2, -1436600.5, -1450810.1, -0.21425022, 0.000027643558, -0.000051474923, -1436600.5, -15188.922, 0.0, 10.000113, 9.981281 
3.185005e+3, 1.6493322e+2, -1348550.8, -1371941.6, 0.15695202, 0.00002754435, 0.000048798258, -1348550.8, -24896.178, 0.0, 10.000113, 9.969196 
3.185005e+3, 1.7490244e+2, -1250594.0, -1274300.5, -0.26177466, 0.000027422277, -0.00006890642, -1250594.0, -24637.967, 0.0, 10.000112, 9.968782 
3.185005e+3, 1.8486506e+2, -1162513.6, -1195710.3, 0.11286508, 0.000027312704, 0.000072125455, -1162513.6, -34191.06, 0.0, 10.000112, 9.956344 
3.185005e+3, 1.9482143e+2, -1064365.1, -1097824.0, -0.2802738, 0.000027216183, -0.000053145184, -1064365.1, -33615.125, 0.0, 10.000111, 9.956001 
3.185005e+3, 2.0477115e+2, -976201.94, -1019426.4, 0.10277502, 0.000027121918, 0.00007189806, -976201.94, -42959.125, 0.0, 10.000111, 9.943239 
3.185005e+3, 2.1471442e+2, -877916.06, -921402.06, -0.29245752, 0.000027030082, -0.00012285572, -877916.06, -42117.375, 0.0, 10.00011, 9.942899 
3.185005e+3, 2.24651e+2, -789630.7, -843137.44, 0.089330636, 0.000026944892, 0.00012475932, -789630.7, -51210.48, 0.0, 10.00011, 9.929857 
3.185005e+3, 2.3458092e+2, -691198.25, -744959.8, -0.29396752, 0.000026867196, -0.000085306885, -691198.25, -50091.277, 0.0, 10.00011, 9.929525 
3.185005e+3, 2.445039e+2, -602874.9, -667012.7, 0.098729536, 0.000026784923, 0.00007794445, -602874.9, -59013.113, 0.0, 10.000109, 9.916085 
3.185005e+3, 2.544201e+2, -504123.25, -568338.0, -0.27410457, 0.000026697153, -0.000103666105, -504123.25, -57440.316, 0.0, 10.000109, 9.915985 
3.185005e+3, 2.6432922e+2, -415888.63, -490983.22, 0.11525385, 0.000026625823, 0.00014343354, -415888.63, -66315.06, 0.0, 10.000109, 9.901915 
3.1850046e+3, 2.742317e+2, -316604.34, -391370.88, -0.23456909, 0.000026575399, -0.00020092074, -316604.34, -64074.973, 0.0, 10.000108, 9.902334 
3.1850046e+3, 2.8412595e+2, -230131.36, -318077.16, 0.15216666, 0.000026522952, 0.00023133752, -230131.36, -74565.52, 0.0, 10.000108, 9.885388 
3.1850046e+3, 2.9401237e+2, -130426.09, -217761.6, -0.18566224, 0.00002646761, -0.00025116748, -130426.09, -71747.34, 0.0, 10.000108, 9.886168 
3.1850046e+3, 3.0392677e+2, -40684.445, -84749.47, 0.17970699, 0.000026401678, 0.000175034, -40684.445, -40684.445, 0.0, 10.000108, 9.9421215 
3.1850046e+3, 3.1387076e+2, -39606.824, -82510.875, -0.14859553, 0.000026320098, -0.000053762655, -39606.824, -39606.824, 0.0, 10.000107, 9.943633 
3.195005e+3, 1.2499452e+2, -1719808.1, -1724214.0, 0.09688984, 0.000028646497, 0.000028505665, -1719808.1, -4754.339, 0.0, 10.000114, 9.994272 
3.195005e+3, 1.3498871e+2, -1622429.3, -1627425.5, -0.33919692, 0.000028409475, -0.00007542774, -1622429.3, -5318.4863, 0.0, 10.0001135, 9.99349 
3.195005e+3, 1.4497621e+2, -1534327.6, -1548135.1, -0.0060888655, 0.00002825426, 0.00008820975, -1534327.6, -15094.432, 0.0, 10.0001135, 9.981812 
3.195005e+3, 1.5495804e+2, -1436601.4, -1450811.8, -0.4103561, 0.000028175959, -0.000051375468, -1436601.4, -15190.047, 0.0, 10.000113, 9.98128 
3.195005e+3, 1.6493323e+2, -1348551.8, -1371943.5, -0.012439497, 0.000028073875, 0.00004880881, -1348551.8, -24897.318, 0.0, 10.000113, 9.969195 
3.195005e+3, 1.7490247e+2, -1250595.0, -1274302.3, -0.4310309, 0.000027947543, -0.00006879139, -1250595.0, -24639.088, 0.0, 10.000112, 9.968781 
3.1950048e+3, 1.8486507e+2, -1162514.5, -1195711.9, -0.049895544, 0.000027834878, 0.00007226453, -1162514.5, -34192.113, 0.0, 10.000112, 9.956343 
3.1950048e+3, 1.9482145e+2, -1064366.0, -1097825.6, -0.44297493, 0.000027736474, -0.00005306621, -1064366.0, -33616.16, 0.0, 10.000111, 9.955999 
3.1950048e+3, 2.0477116e+2, -976202.8, -1019428.06, -0.04191564, 0.000027647953, 0.00007196187, -976202.8, -42960.16, 0.0, 10.000111, 9.943238 
3.1950048e+3, 2.1471444e+2, -877916.94, -921403.75, -0.4367877, 0.000027570113, -0.00012275843, -877916.94, -42118.387, 0.0, 10.00011, 9.942898 
3.1950048e+3, 2.2465101e+2, -789631.5, -843139.1, -0.034192413, 0.000027472863, 0.00012487252, -789631.5, -51211.47, 0.0, 10.00011, 9.929856 
3.1950048e+3, 2.3458093e+2, -691199.06, -744961.5, -0.4168213, 0.000027353615, -0.00008519773, -691199.06, -50092.242, 0.0, 10.00011, 9.929524 
3.1950048e+3, 2.445039e+2, -602875.75, -667014.3, -0.019535203, 0.000027268936, 0.00007803153, -602875.75, -59014.063, 0.0, 10.000109, 9.916084 
3.1950048e+3, 2.5442013e+2, -504124.1, -568339.6, -0.3921547, 0.000027225537, -0.000103622595, -504124.1, -57441.242, 0.0, 10.000109, 9.915984 
3.1950048e+3, 2.6432922e+2, -415889.4, -490984.84, 0.016316187, 0.000027166616, 0.00014347058, -415889.4, -66315.95, 0.0, 10.000109, 9.901914 
3.1950048e+3, 2.742317e+2, -316605.13, -391372.47, -0.33224553, 0.00002708782, -0.00020084289, -316605.13, -64075.844, 0.0, 10.000108, 9.902333 
3.1950048e+3, 2.8412595e+2, -230132.14, -318078.78, 0.06916509, 0.000027017337, 0.00023143155, -230132.14, -74566.38, 0.0, 10.000108, 9.885387 
3.1950048e+3, 2.940124e+2, -130426.86, -217763.19, -0.2673498, 0.000026958282, -0.00025109117, -130426.86, -71748.18, 0.0, 10.000108, 9.886167 
3.1950048e+3, 3.0392677e+2, -40685.23, -84751.1, 0.110157125, 0.000026892738, 0.00017509371, -40685.23, -40685.23, 0.0, 10.000108, 9.942121 
3.1950048e+3, 3.1387076e+2, -39607.613, -82512.51, -0.21672553, 0.00002681751, -0.000053717562, -39607.613, -39607.613, 0.0, 10.000107, 9.943631 
3.2050052e+3, 1.24994546e+2, -1719801.3, -1724211.6, 0.3034684, 0.000029201026, 0.000028758719, -1719801.3, -4747.671, 0.0, 10.000119, 9.994271 
3.2050052e+3, 1.3498873e+2, -1622422.5, -1627423.3, -0.12946768, 0.00002895737, -0.000075633274, -1622422.5, -5311.9126, 0.0, 10.000118, 9.993489 
3.2050052e+3, 1.4497623e+2, -1534320.9, -1548132.8, 0.21062885, 0.000028795312, 0.000088600165, -1534320.9, -15087.872, 0.0, 10.000118, 9.981811 
3.2050052e+3, 1.5495805e+2, -1436594.6, -1450809.5, -0.21919152, 0.000028709874, -0.000051257863, -1436594.6, -15183.506, 0.0, 10.000117, 9.981278 
3.2050052e+3, 1.6493325e+2, -1348545.0, -1371941.3, 0.18156113, 0.00002860768, 0.000048827667, -1348545.0, -24890.842, 0.0, 10.000117, 9.969193 
3.2050052e+3, 1.7490248e+2, -1250588.4, -1274300.1, -0.2401379, 0.000028488404, -0.00006869353, -1250588.4, -24632.717, 0.0, 10.000116, 9.9687805 
3.2050052e+3, 1.8486509e+2, -1162508.0, -1195709.8, 0.1430998, 0.000028375694, 0.00007238895, -1162508.0, -34185.78, 0.0, 10.000116, 9.956342 
3.2050052e+3, 1.9482148e+2, -1064359.5, -1097823.5, -0.2761328, 0.000028269811, -0.000052970096, -1064359.5, -33609.85, 0.0, 10.000115, 9.955998 
3.2050052e+3, 2.0477118e+2, -976196.4, -1019426.0, 0.12173451, 0.000028175822, 0.000072048475, -976196.4, -42953.88, 0.0, 10.000115, 9.943237 
3.2050052e+3, 2.1471445e+2, -877910.5, -921401.75, -0.28768477, 0.000028094695, -0.00012266095, -877910.5, -42112.145, 0.0, 10.000114, 9.942896 
3.2050052e+3, 2.2465104e+2, -789625.2, -843137.1, 0.1160174, 0.000027997365, 0.00012497058, -789625.2, -51205.266, 0.0, 10.000114, 9.929854 
3.2050052e+3, 2.3458095e+2, -691192.8, -744959.56, -0.28211987, 0.000027881662, -0.00008511073, -691192.8, -50086.12, 0.0, 10.0001135, 9.929523 
3.2050052e+3, 2.4450392e+2, -602869.5, -667012.44, 0.115772404, 0.000027796254, 0.00007810676, -602869.5, -59007.973, 0.0, 10.0001135, 9.916083 
3.205005e+3, 2.5442013e+2, -504117.9, -568337.75, -0.26291403, 0.000027747017, -0.00010355999, -504117.9, -57435.17, 0.0, 10.0001135, 9.915983 
3.205005e+3, 2.6432925e+2, -415883.25, -490983.0, 0.14357202, 0.000027683727, 0.0001435328, -415883.25, -66309.91, 0.0, 10.000113, 9.901912 
3.205005e+3, 2.7423173e+2, -316599.03, -391370.7, -0.23807926, 0.000027602435, -0.00020076553, -316599.03, -64069.848, 0.0, 10.000113, 9.902332 
3.205005e+3, 2.8412595e+2, -230126.08, -318077.0, 0.15370189, 0.000027531036, 0.00023151154, -230126.08, -74560.41, 0.0, 10.000113, 9.885386 
3.205005e+3, 2.940124e+2, -130420.86, -217761.47, -0.19227386, 0.000027473221, -0.00025102578, -130420.86, -71742.26, 0.0, 10.000113, 9.886166 
3.205005e+3, 3.0392677e+2, -40679.336, -84749.49, 0.18937841, 0.000027403254, 0.00017514484, -40679.336, -40679.336, 0.0, 10.000112, 9.94212 
3.205005e+3, 3.138708e+2, -39601.74, -82510.914, -0.13873991, 0.000027315184, -0.000053680047, -39601.74, -39601.74, 0.0, 10.000112, 9.94363 
3.2150054e+3, 1.2499457e+2, -1719802.3, -1724213.4, 0.082720555, 0.000029776807, 0.000029016768, -1719802.3, -4748.929, 0.0, 10.000119, 9.99427 
3.2150054e+3, 1.3498875e+2, -1622423.4, -1627425.1, -0.3502429, 0.000029518964, -0.00007584402, -1622423.4, -5313.1494, 0.0, 10.000118, 9.993487 
3.2150054e+3, 1.4497626e+2, -1534321.9, -1548134.6, 0.015626315, 0.000029343477, 0.00008900324, -1534321.9, -15089.089, 0.0, 10.000118, 9.98181 
3.2150054e+3, 1.5495808e+2, -1436595.5, -1450811.4, -0.41416034, 0.000029245317, -0.000051122144, -1436595.5, -15184.698, 0.0, 10.000117, 9.981277 
3.2150054e+3, 1.6493328e+2, -1348546.0, -1371943.0, -0.0071850168, 0.00002914577, 0.000048854807, -1348546.0, -24892.0, 0.0, 10.000117, 9.9691925 
3.2150054e+3, 1.7490251e+2, -1250589.4, -1274301.9, -0.42886025, 0.000029044839, -0.00006861279, -1250589.4, -24633.854, 0.0, 10.000116, 9.968779 
3.215005e+3, 1.848651e+2, -1162508.9, -1195711.5, -0.020728642, 0.000028935126, 0.000072498784, -1162508.9, -34186.902, 0.0, 10.000116, 9.956341 
3.215005e+3, 1.9482149e+2, -1064360.4, -1097825.4, -0.4396853, 0.000028816177, -0.000052856874, -1064360.4, -33610.953, 0.0, 10.000115, 9.955997 
3.215005e+3, 2.0477119e+2, -976197.25, -1019427.75, -0.026125558, 0.000028705537, 0.00007215783, -976197.25, -42954.953, 0.0, 10.000115, 9.943236 
3.215005e+3, 2.1471447e+2, -877911.44, -921403.5, -0.43523243, 0.000028603876, -0.0001225633, -877911.44, -42113.195, 0.0, 10.000114, 9.942895 
3.215005e+3, 2.2465105e+2, -789626.06, -843138.9, -0.020754913, 0.000028518418, 0.00012505353, -789626.06, -51206.293, 0.0, 10.000114, 9.929853 
3.215005e+3, 2.3458096e+2, -691193.7, -744961.25, -0.41854885, 0.000028451266, -0.000085045845, -691193.7, -50087.125, 0.0, 10.0001135, 9.9295225 
3.215005e+3, 2.4450393e+2, -602870.3, -667014.1, -0.0019453705, 0.000028366803, 0.000078170146, -602870.3, -59008.94, 0.0, 10.0001135, 9.916082 
3.215005e+3, 2.5442013e+2, -504118.72, -568339.44, -0.37975267, 0.000028261624, -0.00010347831, -504118.72, -57436.12, 0.0, 10.0001135, 9.915982 
3.215005e+3, 2.6432925e+2, -415884.13, -490984.75, 0.039723117, 0.000028177215, 0.00014362013, -415884.13, -66310.87, 0.0, 10.000113, 9.901911 
3.215005e+3, 2.7423173e+2, -316599.88, -391372.4, -0.34106094, 0.000028119252, -0.00020068864, -316599.88, -64070.79, 0.0, 10.000113, 9.902331 
3.215005e+3, 2.8412595e+2, -230126.88, -318078.66, 0.06411897, 0.000028064027, 0.00023157752, -230126.88, -74561.3, 0.0, 10.000113, 9.8853855 
3.215005e+3, 2.940124e+2, -130421.65, -217763.11, -0.28066105, 0.00002801239, -0.00025097126, -130421.65, -71743.12, 0.0, 10.000113, 9.886164 
3.215005e+3, 3.039268e+2, -40680.13, -84751.13, 0.11548063, 0.0000279332, 0.0001751874, -40680.13, -40680.13, 0.0, 10.000112, 9.942118 
3.215005e+3, 3.138708e+2, -39602.53, -82512.56, -0.21095316, 0.000027813132, -0.000053650092, -39602.53, -39602.53, 0.0, 10.000112, 9.943629 
3.2250056e+3, 1.249946e+2, -1719795.1, -1724211.0, 0.31499672, 0.000030361374, 0.000029270033, -1719795.1, -4742.0635, 0.0, 10.000124, 9.994269 
3.2250053e+3, 1.3498878e+2, -1622416.4, -1627422.6, -0.14230902, 0.00003008104, -0.00007604244, -1622416.4, -5306.2905, 0.0, 10.000123, 9.993486 
3.2250053e+3, 1.4497629e+2, -1534314.8, -1548132.3, 0.22290567, 0.000029898365, 0.0000894301, -1534314.8, -15082.258, 0.0, 10.000123, 9.981808 
3.2250053e+3, 1.549581e+2, -1436588.6, -1450809.0, -0.2130843, 0.000029808312, -0.000050995168, -1436588.6, -15177.975, 0.0, 10.000122, 9.9812765 
3.2250053e+3, 1.649333e+2, -1348539.1, -1371940.8, 0.19882739, 0.000029709065, 0.00004887434, -1348539.1, -24885.332, 0.0, 10.000122, 9.969192 
3.2250053e+3, 1.7490253e+2, -1250582.5, -1274299.6, -0.24017578, 0.000029600462, -0.00006850411, -1250582.5, -24627.215, 0.0, 10.000121, 9.968778 
3.2250053e+3, 1.8486513e+2, -1162502.1, -1195709.3, 0.17511332, 0.000029486166, 0.00007263846, -1162502.1, -34180.29, 0.0, 10.000121, 9.95634 
3.2250053e+3, 1.948215e+2, -1064353.6, -1097823.1, -0.25787795, 0.000029365849, -0.000052747062, -1064353.6, -33604.39, 0.0, 10.00012, 9.9559965 
3.2250053e+3, 2.047712e+2, -976190.56, -1019425.6, 0.15682013, 0.000029253386, 0.00007225057, -976190.56, -42948.43, 0.0, 10.00012, 9.943235 
3.2250053e+3, 2.147145e+2, -877904.8, -921401.44, -0.26485866, 0.000029149409, -0.00012247376, -877904.8, -42106.742, 0.0, 10.000119, 9.942894 
3.2250053e+3, 2.2465107e+2, -789619.44, -843136.8, 0.15199567, 0.000029064451, 0.0001251394, -789619.44, -51199.87, 0.0, 10.000119, 9.9298525 
3.2250053e+3, 2.3458098e+2, -691187.1, -744959.25, -0.25706765, 0.000029000994, -0.00008496422, -691187.1, -50080.746, 0.0, 10.000119, 9.929522 
3.2250053e+3, 2.4450395e+2, -602863.9, -667012.1, 0.15817274, 0.000028913795, 0.00007825022, -602863.9, -59002.59, 0.0, 10.000118, 9.916081 
3.2250053e+3, 2.5442016e+2, -504112.28, -568337.5, -0.25163236, 0.000028798191, -0.00010339661, -504112.28, -57429.8, 0.0, 10.000118, 9.915981 
3.2250053e+3, 2.6432928e+2, -415877.72, -490982.84, 0.1604709, 0.000028709002, 0.00014369914, -415877.72, -66304.586, 0.0, 10.000118, 9.90191 
3.2250053e+3, 2.7423173e+2, -316593.56, -391370.56, -0.22056928, 0.000028653456, -0.00020061783, -316593.56, -64064.56, 0.0, 10.000117, 9.902329 
3.2250053e+3, 2.8412598e+2, -230120.58, -318076.8, 0.19184127, 0.000028598524, 0.00023164082, -230120.58, -74555.08, 0.0, 10.000117, 9.885385 
3.2250053e+3, 2.940124e+2, -130415.41, -217761.3, -0.16671482, 0.000028544242, -0.00025091448, -130415.41, -71736.95, 0.0, 10.000117, 9.886163 
3.2250053e+3, 3.039268e+2, -40674.008, -84749.46, 0.22160831, 0.000028463632, 0.00017523502, -40674.008, -40674.008, 0.0, 10.000116, 9.942117 
3.2250053e+3, 3.138708e+2, -39596.45, -82510.914, -0.12941691, 0.000028343991, -0.00005361554, -39596.45, -39596.45, 0.0, 10.000116, 9.943628 
3.2350057e+3, 1.2499463e+2, -1719796.1, -1724212.9, 0.0987102, 0.000030954707, 0.00002952195, -1719796.1, -4743.389, 0.0, 10.000124, 9.994267 
3.2350057e+3, 1.349888e+2, -1622417.4, -1627424.6, -0.35862464, 0.000030643616, -0.00007622858, -1622417.4, -5307.594, 0.0, 10.000123, 9.993485 
3.2350057e+3, 1.449763e+2, -1534315.8, -1548134.0, 0.008248152, 0.000030459973, 0.000089880705, -1534315.8, -15083.5, 0.0, 10.000123, 9.981807 
3.2350057e+3, 1.5495813e+2, -1436589.6, -1450810.9, -0.4277463, 0.00003039881, -0.00005087692, -1436589.6, -15179.191, 0.0, 10.000122, 9.981276 
3.2350057e+3, 1.6493332e+2, -1348540.1, -1371942.6, 0.00943387, 0.000030297513, 0.000048886286, -1348540.1, -24886.54, 0.0, 10.000122, 9.969191 
3.2350057e+3, 1.7490254e+2, -1250583.5, -1274301.5, -0.42945158, 0.000030155294, -0.00006836754, -1250583.5, -24628.4, 0.0, 10.000121, 9.968777 
3.2350054e+3, 1.8486515e+2, -1162503.0, -1195711.1, 0.0052391887, 0.000030028845, 0.00007280794, -1162503.0, -34181.453, 0.0, 10.000121, 9.956338 
3.2350054e+3, 1.9482152e+2, -1064354.6, -1097825.0, -0.427537, 0.000029918834, -0.000052640647, -1064354.6, -33605.53, 0.0, 10.00012, 9.955996 
3.2350054e+3, 2.0477124e+2, -976191.5, -1019427.44, -0.000766086, 0.000029819346, 0.00007232674, -976191.5, -42949.54, 0.0, 10.00012, 9.9432335 
3.2350054e+3, 2.1471451e+2, -877905.7, -921403.2, -0.4222066, 0.000029731229, -0.0001223923, -877905.7, -42107.83, 0.0, 10.000119, 9.942893 
3.2350054e+3, 2.2465108e+2, -789620.4, -843138.56, 0.011631128, 0.000029635428, 0.00012522818, -789620.4, -51200.93, 0.0, 10.000119, 9.929852 
3.2350054e+3, 2.34581e+2, -691188.0, -744961.0, -0.39689636, 0.000029530904, -0.000084865875, -691188.0, -50081.78, 0.0, 10.000119, 9.929521 
3.2350054e+3, 2.4450396e+2, -602864.75, -667013.94, 0.038083654, 0.00002943729, 0.00007834694, -602864.75, -59003.63, 0.0, 10.000118, 9.9160795 
3.2350054e+3, 2.5442016e+2, -504113.2, -568339.3, -0.37077528, 0.00002935669, -0.00010331488, -504113.2, -57430.82, 0.0, 10.000118, 9.91598 
3.2350054e+3, 2.6432928e+2, -415878.6, -490984.6, 0.05002828, 0.000029279023, 0.00014376984, -415878.6, -66305.56, 0.0, 10.000118, 9.901909 
3.2350054e+3, 2.7423176e+2, -316594.4, -391372.3, -0.33044696, 0.000029205024, -0.0002005531, -316594.4, -64065.508, 0.0, 10.000117, 9.9023285 
3.2350054e+3, 2.8412598e+2, -230121.4, -318078.5, 0.095109195, 0.000029134539, 0.00023170144, -230121.4, -74556.0, 0.0, 10.000117, 9.885384 
3.2350054e+3, 2.9401243e+2, -130416.23, -217763.0, -0.26227608, 0.000029068802, -0.00025085543, -130416.23, -71737.85, 0.0, 10.000117, 9.886162 
3.2350054e+3, 3.039268e+2, -40674.844, -84751.2, 0.1393025, 0.00002899456, 0.00017528769, -40674.844, -40674.844, 0.0, 10.000116, 9.942116 
3.2350054e+3, 3.138708e+2, -39597.29, -82512.664, -0.21017484, 0.000028907703, -0.000053576397, -39597.29, -39597.29, 0.0, 10.000116, 9.943627 
3.245006e+3, 1.2499465e+2, -1719788.6, -1724210.4, 0.3555016, 0.00003153153, 0.00002976975, -1719788.6, -4736.1616, 0.0, 10.00013, 9.9942665 
3.2450056e+3, 1.3498883e+2, -1622410.0, -1627422.1, -0.12139432, 0.000031230826, -0.000076443204, -1622410.0, -5300.5337, 0.0, 10.000129, 9.9934845 
3.2450056e+3, 1.4497633e+2, -1534308.5, -1548131.5, 0.24576876, 0.000031050637, 0.00009032456, -1534308.5, -15076.485, 0.0, 10.000128, 9.981806 
3.2450056e+3, 1.5495816e+2, -1436582.4, -1450808.4, -0.20498574, 0.000030985833, -0.000050749688, -1436582.4, -15172.213, 0.0, 10.000128, 9.981275 
3.2450056e+3, 1.6493334e+2, -1348532.9, -1371940.3, 0.24086878, 0.0000308764, 0.000048904927, -1348532.9, -24879.605, 0.0, 10.000127, 9.96919 
3.2450056e+3, 1.7490257e+2, -1250576.4, -1274299.1, -0.21867123, 0.00003072146, -0.000068245, -1250576.4, -24621.502, 0.0, 10.000127, 9.968776 
3.2450056e+3, 1.8486518e+2, -1162496.0, -1195708.9, 0.21499927, 0.000030592633, 0.00007296215, -1162496.0, -34174.59, 0.0, 10.000126, 9.956337 
3.2450056e+3, 1.9482155e+2, -1064347.6, -1097822.8, -0.2289649, 0.000030491074, -0.00005253034, -1064347.6, -33598.746, 0.0, 10.000126, 9.955994 
3.2450056e+3, 2.0477125e+2, -976184.56, -1019425.2, 0.20236541, 0.000030394722, 0.000072418, -976184.56, -42942.8, 0.0, 10.000125, 9.943233 
3.2450056e+3, 2.1471453e+2, -877898.8, -921401.0, -0.23467313, 0.000030303989, -0.00012229313, -877898.8, -42101.125, 0.0, 10.000125, 9.942892 
3.2450056e+3, 2.246511e+2, -789613.5, -843136.44, 0.19677562, 0.000030200865, 0.00012533096, -789613.5, -51194.25, 0.0, 10.000124, 9.929851 
3.2450056e+3, 2.3458101e+2, -691181.2, -744958.94, -0.24173485, 0.000030083691, -0.000084764324, -691181.2, -50075.117, 0.0, 10.000124, 9.929519 
3.2450053e+3, 2.4450399e+2, -602858.0, -667011.9, 0.18914986, 0.000029988789, 0.00007844386, -602858.0, -58996.996, 0.0, 10.000123, 9.916079 
3.2450053e+3, 2.544202e+2, -504106.5, -568337.3, -0.21716729, 0.000029920473, -0.00010322663, -504106.5, -57424.277, 0.0, 10.000123, 9.915978 
3.2450053e+3, 2.6432928e+2, -415871.97, -490982.63, 0.20916487, 0.000029845687, 0.00014384867, -415871.97, -66299.06, 0.0, 10.000123, 9.901908 
3.2450053e+3, 2.7423176e+2, -316587.8, -391370.38, -0.19884205, 0.000029762576, -0.00020048463, -316587.8, -64059.04, 0.0, 10.000122, 9.902328 
3.2450053e+3, 2.8412598e+2, -230114.84, -318076.6, 0.21327776, 0.000029685709, 0.00023176675, -230114.84, -74549.53, 0.0, 10.000122, 9.885383 
3.2450053e+3, 2.9401243e+2, -130409.72, -217761.13, -0.16325775, 0.00002961739, -0.00025078346, -130409.72, -71731.44, 0.0, 10.000122, 9.886161 
3.2450053e+3, 3.039268e+2, -40668.47, -84749.45, 0.23093891, 0.000029542947, 0.00017535774, -40668.47, -40668.47, 0.0, 10.000122, 9.942115 
3.2450053e+3, 3.138708e+2, -39590.96, -82510.94, -0.12653515, 0.000029459401, -0.00005352108, -39590.96, -39590.96, 0.0, 10.000121, 9.943625 
3.2550058e+3, 1.2499468e+2, -1719789.8, -1724212.4, 0.106785074, 0.000032091888, 0.00003001567, -1719789.8, -4737.545, 0.0, 10.00013, 9.994266 
3.2550058e+3, 1.3498886e+2, -1622411.1, -1627424.1, -0.37013093, 0.00003184263, -0.000076686265, -1622411.1, -5301.8936, 0.0, 10.000129, 9.993483 
3.2550058e+3, 1.4497636e+2, -1534309.5, -1548133.5, 0.028256154, 0.000031670297, 0.0000907617, -1534309.5, -15077.772, 0.0, 10.000128, 9.981805 
3.2550058e+3, 1.5495817e+2, -1436583.4, -1450810.3, -0.42247027, 0.000031569398, -0.000050613497, -1436583.4, -15173.475, 0.0, 10.000128, 9.981273 
3.2550058e+3, 1.6493337e+2, -1348533.9, -1371942.1, 0.048929837, 0.000031445757, 0.00004893025, -1348533.9, -24880.87, 0.0, 10.000127, 9.969188 
3.2550058e+3, 1.7490259e+2, -1250577.4, -1274301.0, -0.41048557, 0.00003129895, -0.00006813645, -1250577.4, -24622.744, 0.0, 10.000127, 9.968775 
3.2550055e+3, 1.8486519e+2, -1162497.0, -1195710.8, 0.032176387, 0.000031177504, 0.00007310115, -1162497.0, -34175.785, 0.0, 10.000126, 9.956336 
3.2550055e+3, 1.9482157e+2, -1064348.6, -1097824.6, -0.41169754, 0.000031082538, -0.00005241615, -1064348.6, -33599.92, 0.0, 10.000126, 9.955993 
3.2550055e+3, 2.0477127e+2, -976185.5, -1019427.06, 0.041919447, 0.000030979503, 0.00007252432, -976185.5, -42943.953, 0.0, 10.000125, 9.943232 
3.2550055e+3, 2.1471454e+2, -877899.75, -921402.9, -0.3946733, 0.000030867723, -0.00012217631, -877899.75, -42102.254, 0.0, 10.000125, 9.94289 
3.2550055e+3, 2.2465111e+2, -789614.5, -843138.3, 0.058924306, 0.00003076079, 0.00012544771, -789614.5, -51195.383, 0.0, 10.000124, 9.929849 
3.2550055e+3, 2.3458102e+2, -691182.1, -744960.8, -0.37886462, 0.000030659325, -0.00008465958, -691182.1, -50076.223, 0.0, 10.000124, 9.929518 
3.2550055e+3, 2.44504e+2, -602858.9, -667013.7, 0.054113623, 0.000030568248, 0.00007854098, -602858.9, -58998.043, 0.0, 10.000123, 9.916078 
3.2550055e+3, 2.544202e+2, -504107.4, -568339.06, -0.35212535, 0.000030489544, -0.000103131875, -504107.4, -57425.3, 0.0, 10.000123, 9.9159775 
3.2550055e+3, 2.643293e+2, -415872.88, -490984.5, 0.097798176, 0.000030409017, 0.00014393561, -415872.88, -66300.09, 0.0, 10.000123, 9.901906 
3.2550055e+3, 2.742318e+2, -316588.72, -391372.22, -0.30863485, 0.000030326108, -0.00020041243, -316588.72, -64060.047, 0.0, 10.000122, 9.902327 
3.2550055e+3, 2.84126e+2, -230115.72, -318078.38, 0.11197528, 0.000030252017, 0.00023183672, -230115.72, -74550.5, 0.0, 10.000122, 9.885381 
3.2550055e+3, 2.9401243e+2, -130410.58, -217762.89, -0.26381242, 0.000030189965, -0.00025069862, -130410.58, -71732.375, 0.0, 10.000122, 9.88616 
3.2550055e+3, 3.0392683e+2, -40669.324, -84751.23, 0.13785262, 0.000030108773, 0.00017544515, -40669.324, -40669.324, 0.0, 10.000122, 9.942114 
3.2550055e+3, 3.1387082e+2, -39591.816, -82512.73, -0.2187662, 0.00002999912, -0.00005344961, -39591.816, -39591.816, 0.0, 10.000121, 9.9436245 
3.2650062e+3, 1.2499471e+2, -1719782.0, -1724209.8, 0.3739561, 0.000032700762, 0.00003028985, -1719782.0, -4730.157, 0.0, 10.000134, 9.994264 
3.2650062e+3, 1.3498889e+2, -1622403.5, -1627421.6, -0.10941619, 0.000032446133, -0.00007692116, -1622403.5, -5294.5513, 0.0, 10.000134, 9.993482 
3.265006e+3, 1.4497639e+2, -1534301.9, -1548130.9, 0.30152833, 0.000032266358, 0.00009121465, -1534301.9, -15070.445, 0.0, 10.0001335, 9.981803 
3.265006e+3, 1.549582e+2, -1436575.9, -1450807.8, -0.17960913, 0.0000321558, -0.000050476625, -1436575.9, -15166.202, 0.0, 10.000133, 9.981272 
3.265006e+3, 1.649334e+2, -1348526.5, -1371939.6, 0.2941276, 0.000032032756, 0.00004895619, -1348526.5, -24873.66, 0.0, 10.000133, 9.969187 
3.265006e+3, 1.7490262e+2, -1250570.0, -1274298.6, -0.17316613, 0.000031897012, -0.00006801196, -1250570.0, -24615.633, 0.0, 10.000132, 9.968773 
3.265006e+3, 1.8486522e+2, -1162489.6, -1195708.4, 0.27314916, 0.00003177573, 0.0000732568, -1162489.6, -34168.72, 0.0, 10.000132, 9.956335 
3.265006e+3, 1.9482158e+2, -1064341.4, -1097822.3, -0.19208774, 0.00003166954, -0.000052299845, -1064341.4, -33592.88, 0.0, 10.000131, 9.955992 
3.265006e+3, 2.0477128e+2, -976178.3, -1019424.75, 0.26285654, 0.000031559546, 0.000072627496, -976178.3, -42936.926, 0.0, 10.000131, 9.943231 
3.265006e+3, 2.1471456e+2, -877892.6, -921400.6, -0.19608408, 0.000031445416, -0.00012205787, -877892.6, -42095.254, 0.0, 10.00013, 9.942889 
3.265006e+3, 2.2465114e+2, -789607.4, -843136.1, 0.2599652, 0.000031340925, 0.00012556321, -789607.4, -51188.43, 0.0, 10.00013, 9.929848 
3.265006e+3, 2.3458104e+2, -691175.1, -744958.7, -0.17765202, 0.00003124732, -0.00008456764, -691175.1, -50069.367, 0.0, 10.000129, 9.929517 
3.2650056e+3, 2.4450402e+2, -602851.94, -667011.56, 0.2543017, 0.000031154428, 0.0000786244, -602851.94, -58991.22, 0.0, 10.000129, 9.916077 
3.2650056e+3, 2.5442022e+2, -504100.4, -568337.0, -0.18745908, 0.00003106235, -0.000103039, -504100.4, -57418.46, 0.0, 10.000129, 9.915977 
3.2650056e+3, 2.643293e+2, -415865.94, -490982.4, 0.25278607, 0.00003097742, 0.00014402777, -415865.94, -66293.28, 0.0, 10.000128, 9.901905 
3.2650056e+3, 2.742318e+2, -316581.88, -391370.22, -0.16070063, 0.000030901538, -0.00020033403, -316581.88, -64053.305, 0.0, 10.000128, 9.902326 
3.2650056e+3, 2.84126e+2, -230108.9, -318076.4, 0.2577868, 0.000030830168, 0.00023190914, -230108.9, -74543.8, 0.0, 10.000128, 9.88538 
3.2650056e+3, 2.9401246e+2, -130403.83, -217760.95, -0.14197974, 0.000030764888, -0.0002506214, -130403.83, -71725.72, 0.0, 10.000127, 9.886158 
3.2650056e+3, 3.0392683e+2, -40662.68, -84749.414, 0.23862146, 0.000030676147, 0.00017552308, -40662.68, -40662.68, 0.0, 10.000127, 9.942112 
3.2650056e+3, 3.1387082e+2, -39585.176, -82510.914, -0.15129724, 0.000030552597, -0.000053377018, -39585.176, -39585.176, 0.0, 10.000127, 9.943624 
3.275006e+3, 1.2499474e+2, -1719783.1, -1724211.8, 0.1212056, 0.00003335806, 0.00003059828, -1719783.1, -4731.569, 0.0, 10.000134, 9.994263 
3.275006e+3, 1.3498892e+2, -1622404.6, -1627423.6, -0.36220014, 0.00003304138, -0.000077147924, -1622404.6, -5295.939, 0.0, 10.000134, 9.993481 
3.275006e+3, 1.449764e+2, -1534303.0, -1548133.0, 0.077218406, 0.00003283889, 0.00009168339, -1534303.0, -15071.814, 0.0, 10.0001335, 9.981802 
3.275006e+3, 1.5495823e+2, -1436576.9, -1450809.8, -0.40387228, 0.00003274505, -0.000050339066, -1436576.9, -15167.543, 0.0, 10.000133, 9.981271 
3.275006e+3, 1.6493341e+2, -1348527.5, -1371941.6, 0.08556124, 0.000032637367, 0.00004898274, -1348527.5, -24874.953, 0.0, 10.000133, 9.969186 
3.275006e+3, 1.7490265e+2, -1250571.0, -1274300.6, -0.38167042, 0.00003251561, -0.00006787159, -1250571.0, -24616.904, 0.0, 10.000132, 9.968772 
3.275006e+3, 1.8486524e+2, -1162490.8, -1195710.3, 0.090056024, 0.000032387303, 0.00007342907, -1162490.8, -34169.97, 0.0, 10.000132, 9.956333 
3.2750058e+3, 1.9482161e+2, -1064342.4, -1097824.3, -0.37489626, 0.000032252112, -0.00005218143, -1064342.4, -33594.11, 0.0, 10.000131, 9.955991 
3.2750058e+3, 2.0477131e+2, -976179.3, -1019426.75, 0.10275916, 0.000032134874, 0.00007272753, -976179.3, -42938.137, 0.0, 10.000131, 9.943229 
3.2750058e+3, 2.1471459e+2, -877893.56, -921402.56, -0.35572395, 0.000032037053, -0.00012193781, -877893.56, -42096.438, 0.0, 10.00013, 9.942888 
3.2750058e+3, 2.2465116e+2, -789608.3, -843138.0, 0.10579143, 0.00003194124, 0.00012567746, -789608.3, -51189.57, 0.0, 10.00013, 9.929847 
3.2750058e+3, 2.3458105e+2, -691176.06, -744960.56, -0.33166376, 0.000031847663, -0.00008448848, -691176.06, -50070.484, 0.0, 10.000129, 9.929516 
3.2750058e+3, 2.4450403e+2, -602852.9, -667013.5, 0.1275589, 0.00003174733, 0.000078694145, -602852.9, -58992.344, 0.0, 10.000129, 9.916075 
3.2750058e+3, 2.5442022e+2, -504101.38, -568338.94, -0.312902, 0.000031638905, -0.00010294797, -504101.38, -57419.563, 0.0, 10.000129, 9.915976 
3.2750058e+3, 2.6432934e+2, -415866.88, -490984.3, 0.1304207, 0.0000315509, 0.00014412511, -415866.88, -66294.336, 0.0, 10.000128, 9.901904 
3.2750058e+3, 2.742318e+2, -316582.78, -391372.1, -0.2828793, 0.00003148886, -0.00020024946, -316582.78, -64054.34, 0.0, 10.000128, 9.902324 
3.2750058e+3, 2.84126e+2, -230109.83, -318078.28, 0.15129039, 0.000031420153, 0.00023198404, -230109.83, -74544.81, 0.0, 10.000128, 9.885379 
3.2750058e+3, 2.9401246e+2, -130404.73, -217762.83, -0.24707182, 0.000031342166, -0.00025055185, -130404.73, -71726.71, 0.0, 10.000127, 9.886157 
3.2750058e+3, 3.0392683e+2, -40663.598, -84751.33, 0.14632781, 0.000031245083, 0.00017559156, -40663.598, -40663.598, 0.0, 10.000127, 9.942111 
3.2750058e+3, 3.1387082e+2, -39586.098, -82512.836, -0.24209884, 0.000031119816, -0.000053303298, -39586.098, -39586.098, 0.0, 10.000127, 9.943622 
3.2850063e+3, 1.2499478e+2, -1719775.3, -1724209.1, 0.3836588, 0.00003399659, 0.00003089002, -1719775.3, -4723.9463, 0.0, 10.00014, 9.994262 
3.2850063e+3, 1.3498895e+2, -1622396.8, -1627421.0, -0.12683092, 0.000033655346, -0.000077364246, -1622396.8, -5288.3384, 0.0, 10.000139, 9.993479 
3.285006e+3, 1.4497644e+2, -1534295.1, -1548130.3, 0.32382283, 0.000033444245, 0.00009218501, -1534295.1, -15064.225, 0.0, 10.000139, 9.981801 
3.285006e+3, 1.5495825e+2, -1436569.1, -1450807.1, -0.1486695, 0.000033357715, -0.000050200666, -1436569.1, -15160.049, 0.0, 10.000138, 9.981269 
3.285006e+3, 1.6493344e+2, -1348519.9, -1371939.1, 0.35338297, 0.00003325118, 0.00004899943, -1348519.9, -24867.535, 0.0, 10.000137, 9.969184 
3.285006e+3, 1.7490266e+2, -1250563.5, -1274298.1, -0.14140835, 0.000033124274, -0.00006773001, -1250563.5, -24609.54, 0.0, 10.000137, 9.968771 
3.285006e+3, 1.8486527e+2, -1162483.1, -1195707.9, 0.34076223, 0.000032991513, 0.00007360762, -1162483.1, -34162.62, 0.0, 10.000136, 9.956332 
3.285006e+3, 1.9482163e+2, -1064334.9, -1097821.8, -0.13460675, 0.000032852593, -0.00005205791, -1064334.9, -33586.78, 0.0, 10.000136, 9.955989 
3.285006e+3, 2.0477132e+2, -976171.8, -1019424.3, 0.34683564, 0.000032734533, 0.000072831186, -976171.8, -42930.86, 0.0, 10.000135, 9.943228 
3.285006e+3, 2.147146e+2, -877886.2, -921400.25, -0.12593365, 0.00003263904, -0.00012181593, -877886.2, -42089.25, 0.0, 10.000135, 9.942886 
3.285006e+3, 2.2465117e+2, -789600.94, -843135.7, 0.33348972, 0.000032542775, 0.00012580086, -789600.94, -51182.4, 0.0, 10.000134, 9.929846 
3.285006e+3, 2.3458108e+2, -691168.75, -744958.25, -0.12823747, 0.000032445605, -0.000084382475, -691168.75, -50063.305, 0.0, 10.000134, 9.929514 
3.285006e+3, 2.4450405e+2, -602845.56, -667011.25, 0.3311908, 0.000032343654, 0.00007879036, -602845.56, -58985.2, 0.0, 10.000134, 9.916074 
3.285006e+3, 2.5442025e+2, -504094.16, -568336.75, -0.12025047, 0.000032235963, -0.00010285244, -504094.16, -57412.492, 0.0, 10.0001335, 9.915974 
3.285006e+3, 2.6432934e+2, -415859.7, -490982.2, 0.31330332, 0.00003214556, 0.00014422133, -415859.7, -66287.3, 0.0, 10.0001335, 9.901902 
3.285006e+3, 2.7423182e+2, -316575.66, -391370.0, -0.12920848, 0.000032077125, -0.00020015084, -316575.66, -64047.32, 0.0, 10.000133, 9.902323 
3.285006e+3, 2.8412604e+2, -230102.7, -318076.2, 0.29733095, 0.000032006497, 0.00023207572, -230102.7, -74537.8, 0.0, 10.000133, 9.885377 
3.285006e+3, 2.9401246e+2, -130397.664, -217760.8, -0.109112404, 0.000031932723, -0.00025047996, -130397.664, -71719.74, 0.0, 10.000133, 9.886156 
3.285006e+3, 3.0392683e+2, -40656.676, -84749.445, 0.28135362, 0.000031834374, 0.00017564968, -40656.676, -40656.676, 0.0, 10.000133, 9.94211 
3.285006e+3, 3.1387082e+2, -39579.223, -82510.984, -0.11760621, 0.000031699652, -0.000053249885, -39579.223, -39579.223, 0.0, 10.000132, 9.943621 
3.2950065e+3, 1.2499481e+2, -1719776.4, -1724211.3, 0.13270925, 0.000034616412, 0.00003116988, -1719776.4, -4725.4336, 0.0, 10.00014, 9.99426 
3.2950065e+3, 1.3498898e+2, -1622397.9, -1627423.1, -0.37779722, 0.000034288, -0.00007757017, -1622397.9, -5289.801, 0.0, 10.000139, 9.993478 
3.2950065e+3, 1.4497647e+2, -1534296.1, -1548132.3, 0.083377704, 0.000034082354, 0.00009271944, -1534296.1, -15065.587, 0.0, 10.000139, 9.981799 
3.2950065e+3, 1.5495828e+2, -1436570.3, -1450809.1, -0.3891189, 0.000033993758, -0.000050061415, -1436570.3, -15161.383, 0.0, 10.000138, 9.981268 
3.2950065e+3, 1.6493347e+2, -1348521.0, -1371941.3, 0.13887276, 0.00003387419, 0.00004900628, -1348521.0, -24868.902, 0.0, 10.000137, 9.969183 
3.2950065e+3, 1.7490269e+2, -1250564.5, -1274300.3, -0.3557888, 0.00003372304, -0.00006758724, -1250564.5, -24610.88, 0.0, 10.000137, 9.968769 
3.2950065e+3, 1.8486528e+2, -1162484.1, -1195709.9, 0.15850534, 0.000033588392, 0.000073792435, -1162484.1, -34163.91, 0.0, 10.000136, 9.956331 
3.2950065e+3, 1.9482166e+2, -1064335.9, -1097823.8, -0.31651077, 0.00003347096, -0.0000519293, -1064335.9, -33588.047, 0.0, 10.000136, 9.955988 
3.2950062e+3, 2.0477137e+2, -976172.9, -1019426.4, 0.17290103, 0.000033358487, 0.00007293846, -976172.9, -42932.11, 0.0, 10.000135, 9.943227 
3.2950062e+3, 2.1471462e+2, -877887.25, -921402.25, -0.29971713, 0.00003325137, -0.00012169223, -877887.25, -42090.473, 0.0, 10.000135, 9.942885 
3.2950062e+3, 2.2465119e+2, -789602.0, -843137.7, 0.18678847, 0.000033145552, 0.00012593341, -789602.0, -51183.598, 0.0, 10.000134, 9.929844 
3.2950062e+3, 2.345811e+2, -691169.75, -744960.25, -0.2740711, 0.000033041168, -0.00008424968, -691169.75, -50064.48, 0.0, 10.000134, 9.929513 
3.2950062e+3, 2.4450406e+2, -602846.56, -667013.25, 0.1944925, 0.0000329434, 0.00007891299, -602846.56, -58986.36, 0.0, 10.000134, 9.916073 
3.2950062e+3, 2.5442025e+2, -504095.16, -568338.75, -0.25652188, 0.0000328535, -0.00010275242, -504095.16, -57413.63, 0.0, 10.0001335, 9.915973 
3.2950062e+3, 2.6432937e+2, -415860.7, -490984.2, 0.19206682, 0.00003276137, 0.00014431641, -415860.7, -66288.42, 0.0, 10.0001335, 9.901901 
3.2950062e+3, 2.7423182e+2, -316576.63, -391372.0, -0.24945234, 0.000032666358, -0.00020003818, -316576.63, -64048.418, 0.0, 10.000133, 9.902322 
3.2950062e+3, 2.8412604e+2, -230103.64, -318078.13, 0.18656749, 0.000032589232, 0.00023218415, -230103.64, -74538.84, 0.0, 10.000133, 9.885376 
3.2950062e+3, 2.9401246e+2, -130398.586, -217762.7, -0.21903875, 0.00003253655, -0.00025040575, -130398.586, -71720.76, 0.0, 10.000133, 9.886154 
3.2950062e+3, 3.0392686e+2, -40657.613, -84751.4, 0.17836584, 0.000032443993, 0.00017569745, -40657.613, -40657.613, 0.0, 10.000133, 9.942108 
3.2950062e+3, 3.1387082e+2, -39580.164, -82512.945, -0.2197957, 0.000032292082, -0.00005321672, -39580.164, -39580.164, 0.0, 10.000132, 9.94362 
3.3050066e+3, 1.24994844e+2, -1719768.1, -1724208.4, 0.4275428, 0.000035250454, 0.000031477823, -1719768.1, -4717.4565, 0.0, 10.000146, 9.994259 
3.3050066e+3, 1.3498901e+2, -1622389.8, -1627420.4, -0.08297094, 0.000034927005, -0.00007783348, -1622389.8, -5281.9985, 0.0, 10.000145, 9.993476 
3.3050066e+3, 1.449765e+2, -1534288.1, -1548129.5, 0.38868463, 0.000034724028, 0.00009321197, -1534288.1, -15057.84, 0.0, 10.000145, 9.981798 
3.3050066e+3, 1.5495831e+2, -1436562.3, -1450806.5, -0.117158785, 0.000034635694, -0.000049894756, -1436562.3, -15153.675, 0.0, 10.000144, 9.981267 
3.3050063e+3, 1.649335e+2, -1348513.0, -1371938.6, 0.4223515, 0.00003450653, 0.000049050315, -1348513.0, -24861.229, 0.0, 10.000143, 9.969182 
3.3050063e+3, 1.7490272e+2, -1250556.6, -1274297.6, -0.07704979, 0.000034335728, -0.00006745829, -1250556.6, -24603.219, 0.0, 10.000143, 9.968768 
3.3050063e+3, 1.8486531e+2, -1162476.3, -1195707.3, 0.44656354, 0.00003419812, 0.000073955904, -1162476.3, -34156.277, 0.0, 10.000142, 9.956329 
3.3050063e+3, 1.9482167e+2, -1064328.1, -1097821.3, -0.050361253, 0.00003409519, -0.000051784064, -1064328.1, -33580.51, 0.0, 10.000142, 9.955987 
3.3050063e+3, 2.0477138e+2, -976165.1, -1019423.9, 0.44055894, 0.000033985718, 0.00007306625, -976165.1, -42924.617, 0.0, 10.000141, 9.943225 
3.3050063e+3, 2.1471465e+2, -877879.56, -921399.8, -0.04896474, 0.00003386915, -0.00012158102, -877879.56, -42082.977, 0.0, 10.000141, 9.942884 
3.3050063e+3, 2.2465122e+2, -789594.3, -843135.3, 0.43799704, 0.000033757333, 0.00012604524, -789594.3, -51176.12, 0.0, 10.00014, 9.929843 
3.3050063e+3, 2.3458111e+2, -691162.1, -744957.94, -0.046124257, 0.000033650864, -0.00008411774, -691162.1, -50057.06, 0.0, 10.00014, 9.929512 
3.3050063e+3, 2.4450408e+2, -602839.0, -667010.94, 0.41585863, 0.000033554614, 0.00007904461, -602839.0, -58978.965, 0.0, 10.000139, 9.916071 
3.3050063e+3, 2.5442028e+2, -504087.63, -568336.5, -0.049827654, 0.000033470536, -0.000102645536, -504087.63, -57406.26, 0.0, 10.000139, 9.915972 
3.3050063e+3, 2.6432937e+2, -415853.22, -490981.97, 0.39650002, 0.000033378612, 0.00014440811, -415853.22, -66281.086, 0.0, 10.000139, 9.9019 
3.305006e+3, 2.7423185e+2, -316569.22, -391369.84, -0.06388211, 0.000033276636, -0.00019994944, -316569.22, -64041.125, 0.0, 10.000138, 9.90232 
3.305006e+3, 2.8412604e+2, -230096.23, -318075.94, 0.35905075, 0.000033196327, 0.00023227444, -230096.23, -74531.555, 0.0, 10.000138, 9.885375 
3.305006e+3, 2.940125e+2, -130391.25, -217760.58, -0.069607034, 0.000033145672, -0.00025030773, -130391.25, -71713.52, 0.0, 10.000138, 9.886153 
3.305006e+3, 3.0392686e+2, -40650.418, -84749.44, 0.30939922, 0.00003305429, 0.00017578572, -40650.418, -40650.418, 0.0, 10.000137, 9.942107 
3.305006e+3, 3.1387085e+2, -39572.996, -82511.0, -0.11027143, 0.00003290226, -0.000053164116, -39572.996, -39572.996, 0.0, 10.000137, 9.943618 
3.3150068e+3, 1.24994874e+2, -1719769.3, -1724210.5, 0.14318769, 0.000035898705, 0.00003181862, -1719769.3, -4718.9585, 0.0, 10.000146, 9.994257 
3.3150065e+3, 1.3498904e+2, -1622391.0, -1627422.6, -0.36735547, 0.000035572364, -0.000078154015, -1622391.0, -5283.4746, 0.0, 10.000145, 9.993475 
3.3150065e+3, 1.4497653e+2, -1534289.3, -1548131.6, 0.14545642, 0.000035369278, 0.00009366273, -1534289.3, -15059.292, 0.0, 10.000145, 9.981797 
3.3150065e+3, 1.5495834e+2, -1436563.4, -1450808.6, -0.36033872, 0.000035283527, -0.00004970075, -1436563.4, -15155.098, 0.0, 10.000144, 9.981265 
3.3150065e+3, 1.6493352e+2, -1348514.1, -1371940.8, 0.2124923, 0.0000351482, 0.00004913143, -1348514.1, -24862.62, 0.0, 10.000143, 9.96918 
3.3150065e+3, 1.7490274e+2, -1250557.8, -1274299.8, -0.28674698, 0.00003496231, -0.00006734313, -1250557.8, -24604.584, 0.0, 10.000143, 9.968766 
3.3150065e+3, 1.8486534e+2, -1162477.4, -1195709.4, 0.24767922, 0.00003482068, 0.0000740981, -1162477.4, -34157.625, 0.0, 10.000142, 9.956328 
3.3150065e+3, 1.948217e+2, -1064329.3, -1097823.4, -0.2491377, 0.000034725283, -0.00005162224, -1064329.3, -33581.832, 0.0, 10.000142, 9.955985 
3.3150065e+3, 2.0477141e+2, -976166.25, -1019426.0, 0.27422494, 0.000034616234, 0.0000732145, -976166.25, -42925.918, 0.0, 10.000141, 9.943224 
3.3150065e+3, 2.1471466e+2, -877880.6, -921401.94, -0.21464032, 0.000034492386, -0.00012148227, -877880.6, -42084.25, 0.0, 10.000141, 9.942883 
3.3150065e+3, 2.2465123e+2, -789595.4, -843137.44, 0.28486133, 0.000034378118, 0.00012613644, -789595.4, -51177.38, 0.0, 10.00014, 9.929841 
3.3150065e+3, 2.3458113e+2, -691163.2, -744960.0, -0.19886817, 0.00003427467, -0.00008398664, -691163.2, -50058.293, 0.0, 10.00014, 9.92951 
3.3150065e+3, 2.445041e+2, -602840.06, -667013.0, 0.27878234, 0.00003417729, 0.0000791852, -602840.06, -58980.164, 0.0, 10.000139, 9.91607 
3.3150065e+3, 2.5442028e+2, -504088.66, -568338.56, -0.18616906, 0.000034087105, -0.0001025318, -504088.66, -57407.434, 0.0, 10.000139, 9.91597 
3.3150065e+3, 2.6432937e+2, -415854.22, -490984.06, 0.27317944, 0.0000339973, 0.00014449646, -415854.22, -66282.26, 0.0, 10.000139, 9.901898 
3.3150065e+3, 2.7423185e+2, -316570.22, -391371.9, -0.18634097, 0.000033907927, -0.00019988457, -316570.22, -64042.27, 0.0, 10.000138, 9.902319 
3.3150065e+3, 2.8412607e+2, -230097.22, -318077.97, 0.24173231, 0.000033827742, 0.00023234666, -230097.22, -74532.65, 0.0, 10.000138, 9.885373 
3.3150065e+3, 2.940125e+2, -130392.21, -217762.58, -0.1864873, 0.000033760087, -0.000250186, -130392.21, -71714.59, 0.0, 10.000138, 9.886152 
3.3150065e+3, 3.0392686e+2, -40651.4, -84751.48, 0.20060676, 0.000033665285, 0.00017591438, -40651.4, -40651.4, 0.0, 10.000137, 9.942105 
3.3150065e+3, 3.1387085e+2, -39573.984, -82513.05, -0.21812816, 0.000033530152, -0.000053092117, -39573.984, -39573.984, 0.0, 10.000137, 9.943617 
3.325007e+3, 1.2499491e+2, -1719760.8, -1724207.6, 0.45963094, 0.000036559886, 0.000032107535, -1719760.8, -4710.833, 0.0, 10.000152, 9.994256 
3.325007e+3, 1.3498907e+2, -1622382.5, -1627419.8, -0.07627408, 0.000036227437, -0.00007840582, -1622382.5, -5275.3843, 0.0, 10.000152, 9.993473 
3.325007e+3, 1.4497656e+2, -1534280.9, -1548128.8, 0.45595574, 0.00003601627, 0.00009420305, -1534280.9, -15051.221, 0.0, 10.000151, 9.981795 
3.325007e+3, 1.5495837e+2, -1436555.0, -1450805.8, -0.06545361, 0.000035920333, -0.000049544833, -1436555.0, -15147.079, 0.0, 10.00015, 9.981264 
3.325007e+3, 1.6493355e+2, -1348505.9, -1371937.9, 0.52102286, 0.000035786536, 0.000049156162, -1348505.9, -24854.654, 0.0, 10.00015, 9.969179 
3.3250067e+3, 1.7490277e+2, -1250549.6, -1274297.0, 0.0061543463, 0.000035614143, -0.00006719098, -1250549.6, -24596.719, 0.0, 10.000149, 9.968765 
3.3250067e+3, 1.8486536e+2, -1162469.4, -1195706.8, 0.54641914, 0.00003547194, 0.0000742917, -1162469.4, -34149.805, 0.0, 10.000148, 9.9563265 
3.3250067e+3, 1.9482173e+2, -1064321.1, -1097820.8, 0.02915417, 0.000035361256, -0.000051477153, -1064321.1, -33574.01, 0.0, 10.000148, 9.955984 
3.3250067e+3, 2.0477143e+2, -976158.2, -1019423.4, 0.56475407, 0.00003524621, 0.000073340474, -976158.2, -42918.094, 0.0, 10.000147, 9.943222 
3.3250067e+3, 2.1471468e+2, -877872.6, -921399.4, 0.06833644, 0.000035126413, -0.00012134356, -877872.6, -42076.48, 0.0, 10.000147, 9.942882 
3.3250067e+3, 2.2465125e+2, -789587.44, -843134.94, 0.5704078, 0.000035014713, 0.0001262719, -789587.44, -51169.66, 0.0, 10.000146, 9.92984 
3.3250067e+3, 2.3458116e+2, -691155.3, -744957.56, 0.06389169, 0.000034912144, -0.00008387251, -691155.3, -50050.594, 0.0, 10.000146, 9.929509 
3.3250067e+3, 2.4450411e+2, -602832.2, -667010.6, 0.5323841, 0.000034812223, 0.000079295234, -602832.2, -58972.465, 0.0, 10.000146, 9.916068 
3.3250067e+3, 2.544203e+2, -504080.8, -568336.2, 0.04393416, 0.000034715427, -0.00010240527, -504080.8, -57399.773, 0.0, 10.000145, 9.915969 
3.3250067e+3, 2.643294e+2, -415846.47, -490981.75, 0.4976182, 0.000034626173, 0.00014461856, -415846.47, -66274.63, 0.0, 10.000145, 9.901897 
3.3250067e+3, 2.7423185e+2, -316562.5, -391369.66, 0.025820415, 0.00003454648, -0.00019979353, -316562.5, -64034.684, 0.0, 10.000144, 9.902317 
3.3250067e+3, 2.8412607e+2, -230089.52, -318075.75, 0.43972304, 0.000034467575, 0.00023242788, -230089.52, -74525.08, 0.0, 10.000144, 9.885372 
3.3250067e+3, 2.9401252e+2, -130384.555, -217760.39, -0.022786975, 0.000034389665, -0.00025008546, -130384.555, -71707.05, 0.0, 10.000144, 9.88615 
3.3250064e+3, 3.039269e+2, -40643.867, -84749.41, 0.33513492, 0.000034289358, 0.0001760192, -40643.867, -40643.867, 0.0, 10.000143, 9.942104 
3.3250064e+3, 3.1387085e+2, -39566.5, -82511.01, -0.1019774, 0.00003415588, -0.000053005682, -39566.5, -39566.5, 0.0, 10.000143, 9.943615 
3.335007e+3, 1.2499494e+2, -1719762.0, -1724209.9, 0.17453794, 0.000037233975, 0.000032350013, -1719762.0, -4712.4077, 0.0, 10.000152, 9.994255 
3.335007e+3, 1.3498911e+2, -1622383.8, -1627422.0, -0.3614051, 0.000036892216, -0.000078589095, -1622383.8, -5276.934, 0.0, 10.000152, 9.993472 
3.3350068e+3, 1.449766e+2, -1534282.1, -1548131.0, 0.20700482, 0.000036665024, 0.000094832714, -1534282.1, -15052.723, 0.0, 10.000151, 9.981794 
3.3350068e+3, 1.549584e+2, -1436556.3, -1450808.0, -0.31434447, 0.000036546153, -0.000049426904, -1436556.3, -15148.551, 0.0, 10.00015, 9.981262 
3.3350068e+3, 1.6493358e+2, -1348507.0, -1371940.1, 0.29506484, 0.000036421556, 0.000049124654, -1348507.0, -24856.094, 0.0, 10.00015, 9.969177 
3.3350068e+3, 1.749028e+2, -1250550.8, -1274299.3, -0.21970938, 0.00003629117, -0.000067001936, -1250550.8, -24598.133, 0.0, 10.000149, 9.968764 
3.3350068e+3, 1.8486539e+2, -1162470.5, -1195709.0, 0.35530943, 0.000036151847, 0.00007453658, -1162470.5, -34151.21, 0.0, 10.000148, 9.956326 
3.3350068e+3, 1.9482175e+2, -1064322.3, -1097823.0, -0.1615594, 0.00003600311, -0.000051348747, -1064322.3, -33575.39, 0.0, 10.000148, 9.955982 
3.3350068e+3, 2.0477146e+2, -976159.25, -1019425.56, 0.3930463, 0.00003587566, 0.00007344423, -976159.25, -42919.42, 0.0, 10.000147, 9.943221 
3.3350068e+3, 2.147147e+2, -877873.7, -921401.5, -0.103013985, 0.000035771227, -0.000121164994, -877873.7, -42077.78, 0.0, 10.000147, 9.94288 
3.3350068e+3, 2.2465128e+2, -789588.56, -843137.1, 0.4197996, 0.000035667097, 0.00012645154, -789588.56, -51170.977, 0.0, 10.000146, 9.929838 
3.3350068e+3, 2.3458117e+2, -691156.4, -744959.75, -0.08603592, 0.00003556327, -0.00008377528, -691156.4, -50051.883, 0.0, 10.000146, 9.929507 
3.3350065e+3, 2.4450414e+2, -602833.25, -667012.8, 0.39372492, 0.000035459412, 0.00007937479, -602833.25, -58973.723, 0.0, 10.000146, 9.916067 
3.3350065e+3, 2.544203e+2, -504081.88, -568338.3, -0.094209336, 0.00003535549, -0.00010226598, -504081.88, -57401.004, 0.0, 10.000145, 9.915967 
3.3350065e+3, 2.643294e+2, -415847.5, -490983.9, 0.3716512, 0.00003526522, 0.00014477437, -415847.5, -66275.836, 0.0, 10.000145, 9.9018955 
3.3350065e+3, 2.7423188e+2, -316563.53, -391371.78, -0.09935225, 0.000035192294, -0.00019967637, -316563.53, -64035.863, 0.0, 10.000144, 9.902316 
3.3350065e+3, 2.841261e+2, -230090.56, -318077.88, 0.323333, 0.000035115823, 0.00023251805, -230090.56, -74526.25, 0.0, 10.000144, 9.88537 
3.3350065e+3, 2.9401252e+2, -130385.586, -217762.52, -0.13839167, 0.000035034383, -0.00025000604, -130385.586, -71708.19, 0.0, 10.000144, 9.886149 
3.3350065e+3, 3.039269e+2, -40644.883, -84751.53, 0.21560062, 0.000034926492, 0.00017610022, -40644.883, -40644.883, 0.0, 10.000143, 9.942102 
3.3350065e+3, 3.1387088e+2, -39567.52, -82513.13, -0.22200261, 0.000034779463, -0.00005290485, -39567.52, -39567.52, 0.0, 10.000143, 9.943614 
3.345007e+3, 1.2499498e+2, -1719753.3, -1724206.9, 0.4985473, 0.000037909496, 0.000032664208, -1719753.3, -4704.0176, 0.0, 10.000158, 9.994253 
3.345007e+3, 1.3498914e+2, -1622375.1, -1627419.0, -0.063959025, 0.000037555394, -0.00007883676, -1622375.1, -5268.594, 0.0, 10.000157, 9.99347 
3.345007e+3, 1.4497665e+2, -1534273.4, -1548128.0, 0.52736413, 0.000037324517, 0.00009540428, -1534273.4, -15044.378, 0.0, 10.000156, 9.981792 
3.345007e+3, 1.5495844e+2, -1436547.6, -1450805.0, 0.012902084, 0.000037210517, -0.000049277365, -1436547.6, -15140.291, 0.0, 10.000156, 9.981261 
3.345007e+3, 1.649336e+2, -1348498.5, -1371937.3, 0.64081824, 0.000037088044, 0.000049137667, -1348498.5, -24847.914, 0.0, 10.000155, 9.969176 
3.345007e+3, 1.7490283e+2, -1250542.3, -1274296.4, 0.09357584, 0.000036956993, -0.0000668339, -1250542.3, -24589.982, 0.0, 10.0001545, 9.968762 
3.345007e+3, 1.8486542e+2, -1162462.0, -1195706.1, 0.6860984, 0.000036815258, 0.00007474764, -1162462.0, -34143.066, 0.0, 10.0001545, 9.956324 
3.345007e+3, 1.9482177e+2, -1064313.9, -1097820.3, 0.16761668, 0.00003666228, -0.000051211864, -1064313.9, -33567.277, 0.0, 10.000154, 9.955981 
3.3450067e+3, 2.0477147e+2, -976150.94, -1019422.9, 0.7207775, 0.00003653382, 0.000073562616, -976150.94, -42911.348, 0.0, 10.000154, 9.943219 
3.3450067e+3, 2.1471474e+2, -877865.44, -921398.9, 0.17904155, 0.000036431884, -0.00012100482, -877865.44, -42069.734, 0.0, 10.000153, 9.942879 
3.3450067e+3, 2.2465129e+2, -789580.3, -843134.56, 0.7011777, 0.00003632876, 0.00012661559, -789580.3, -51162.934, 0.0, 10.000153, 9.929837 
3.3450067e+3, 2.3458119e+2, -691148.2, -744957.25, 0.20363258, 0.000036224254, -0.000083650266, -691148.2, -50043.88, 0.0, 10.000152, 9.929506 
3.3450067e+3, 2.4450415e+2, -602825.1, -667010.3, 0.68915504, 0.00003611884, 0.000079483376, -602825.1, -58965.758, 0.0, 10.000152, 9.916066 
3.3450067e+3, 2.5442034e+2, -504073.75, -568335.9, 0.16814628, 0.000036012312, -0.00010214678, -504073.75, -57393.04, 0.0, 10.000152, 9.915966 
3.3450067e+3, 2.6432943e+2, -415839.38, -490981.47, 0.61065763, 0.000035920253, 0.00014490185, -415839.38, -66267.87, 0.0, 10.000151, 9.901895 
3.3450067e+3, 2.7423188e+2, -316555.47, -391369.4, 0.11012087, 0.00003584657, -0.00019954366, -316555.47, -64027.934, 0.0, 10.000151, 9.902314 
3.3450067e+3, 2.841261e+2, -230082.52, -318075.53, 0.5216361, 0.00003577219, 0.00023263972, -230082.52, -74518.336, 0.0, 10.000151, 9.885369 
3.3450067e+3, 2.9401252e+2, -130377.62, -217760.23, 0.055627663, 0.00003569673, -0.00024991768, -130377.62, -71700.33, 0.0, 10.00015, 9.8861475 
3.3450067e+3, 3.039269e+2, -40637.043, -84749.4, 0.3871965, 0.000035581084, 0.00017618037, -40637.043, -40637.043, 0.0, 10.00015, 9.9421015 
3.3450067e+3, 3.1387088e+2, -39559.664, -82511.0, -0.0920701, 0.0000354059, -0.000052795353, -39559.664, -39559.664, 0.0, 10.00015, 9.943612 
3.3550075e+3, 1.24995016e+2, -1719754.6, -1724209.4, 0.20937233, 0.000038586466, 0.000033056353, -1719754.6, -4705.671, 0.0, 10.000158, 9.994252 
3.3550075e+3, 1.3498919e+2, -1622376.4, -1627421.5, -0.353129, 0.000038217004, -0.000079148645, -1622376.4, -5270.219, 0.0, 10.000157, 9.993469 
3.3550075e+3, 1.4497668e+2, -1534274.6, -1548130.1, 0.2651697, 0.00003799475, 0.00009591792, -1534274.6, -15045.879, 0.0, 10.000156, 9.9817915 
3.3550075e+3, 1.5495847e+2, -1436548.8, -1450807.3, -0.24928293, 0.00003791333, -0.000049096296, -1436548.8, -15141.763, 0.0, 10.000156, 9.98126 
3.3550072e+3, 1.6493364e+2, -1348499.8, -1371939.6, 0.4153085, 0.000037785936, 0.00004919508, -1348499.8, -24849.44, 0.0, 10.000155, 9.969174 
3.3550072e+3, 1.7490286e+2, -1250543.5, -1274298.8, -0.1317429, 0.000037611673, -0.000066686815, -1250543.5, -24591.48, 0.0, 10.0001545, 9.968761 
3.3550072e+3, 1.8486544e+2, -1162463.3, -1195708.4, 0.49377972, 0.000037462243, 0.00007492495, -1162463.3, -34144.49, 0.0, 10.0001545, 9.956323 
3.3550072e+3, 1.948218e+2, -1064315.0, -1097822.5, -0.024350634, 0.00003733874, -0.000051066512, -1064315.0, -33568.676, 0.0, 10.000154, 9.955979 
3.3550072e+3, 2.047715e+2, -976152.1, -1019425.2, 0.5506314, 0.000037220638, 0.000073695584, -976152.1, -42912.785, 0.0, 10.000154, 9.943218 
3.3550072e+3, 2.1471475e+2, -877866.56, -921401.2, 0.009353587, 0.000037108362, -0.000120863006, -877866.56, -42071.14, 0.0, 10.000153, 9.942877 
3.3550072e+3, 2.2465132e+2, -789581.4, -843136.75, 0.5489344, 0.000036999703, 0.00012676409, -789581.4, -51164.25, 0.0, 10.000153, 9.929836 
3.3550072e+3, 2.3458122e+2, -691149.25, -744959.4, 0.05191557, 0.000036895093, -0.000083497536, -691149.25, -50045.168, 0.0, 10.000152, 9.929504 
3.3550072e+3, 2.4450417e+2, -602826.25, -667012.6, 0.55774385, 0.000036790494, 0.00007962092, -602826.25, -58967.09, 0.0, 10.000152, 9.916064 
3.3550072e+3, 2.5442034e+2, -504074.88, -568338.2, 0.03770957, 0.00003668587, -0.00010204761, -504074.88, -57394.348, 0.0, 10.000152, 9.915964 
3.3550072e+3, 2.6432946e+2, -415840.5, -490983.72, 0.48354748, 0.00003659125, 0.00014500106, -415840.5, -66269.14, 0.0, 10.000151, 9.901893 
3.355007e+3, 2.742319e+2, -316556.56, -391371.66, -0.016788779, 0.00003650931, -0.00019939544, -316556.56, -64029.176, 0.0, 10.000151, 9.902313 
3.355007e+3, 2.8412613e+2, -230083.58, -318077.72, 0.4001859, 0.000036436682, 0.00023279278, -230083.58, -74519.52, 0.0, 10.000151, 9.885367 
3.355007e+3, 2.9401255e+2, -130378.66, -217762.39, -0.06535344, 0.00003637667, -0.00024982047, -130378.66, -71701.49, 0.0, 10.00015, 9.886147 
3.355007e+3, 3.0392691e+2, -40638.13, -84751.664, 0.2714622, 0.000036253114, 0.00017625964, -40638.13, -40638.13, 0.0, 10.00015, 9.9421 
3.355007e+3, 3.1387088e+2, -39560.76, -82513.29, -0.207204, 0.000036035202, -0.000052677216, -39560.76, -39560.76, 0.0, 10.00015, 9.943611 
3.3650076e+3, 1.2499505e+2, -1719745.5, -1724206.1, 0.52035147, 0.00003927326, 0.000033440603, -1719745.5, -4697.016, 0.0, 10.000164, 9.99425 
3.3650076e+3, 1.3498922e+2, -1622367.5, -1627418.4, -0.020198405, 0.000038908896, -0.0000794557, -1622367.5, -5261.668, 0.0, 10.000164, 9.993467 
3.3650073e+3, 1.449767e+2, -1534265.8, -1548127.1, 0.6244484, 0.000038688944, 0.00009646424, -1534265.8, -15037.356, 0.0, 10.000163, 9.98179 
3.3650073e+3, 1.5495852e+2, -1436540.0, -1450804.3, 0.06829695, 0.00003860687, -0.0000488974, -1436540.0, -15133.273, 0.0, 10.000162, 9.981258 
3.3650073e+3, 1.6493367e+2, -1348491.0, -1371936.8, 0.7560007, 0.00003847448, 0.000049262173, -1348491.0, -24840.984, 0.0, 10.000161, 9.969173 
3.3650073e+3, 1.7490289e+2, -1250534.8, -1274295.9, 0.21503125, 0.000038290793, -0.000066531364, -1250534.8, -24583.035, 0.0, 10.000161, 9.96876 
3.3650073e+3, 1.8486547e+2, -1162454.5, -1195705.5, 0.85703456, 0.000038142054, 0.00007511635, -1162454.5, -34136.047, 0.0, 10.00016, 9.956322 
3.3650073e+3, 1.9482183e+2, -1064306.4, -1097819.6, 0.30385366, 0.000038029822, -0.000050894032, -1064306.4, -33560.273, 0.0, 10.00016, 9.955978 
3.3650073e+3, 2.0477153e+2, -976143.5, -1019422.44, 0.8918607, 0.000037913844, 0.00007384668, -976143.5, -42904.41, 0.0, 10.000159, 9.943216 
3.3650073e+3, 2.1471478e+2, -877858.0, -921398.5, 0.36467838, 0.00003779378, -0.00012073596, -877858.0, -42062.793, 0.0, 10.000159, 9.942876 
3.365007e+3, 2.2465134e+2, -789572.8, -843134.06, 0.905812, 0.000037682537, 0.00012689446, -789572.8, -51155.906, 0.0, 10.000158, 9.929834 
3.365007e+3, 2.3458123e+2, -691140.75, -744956.75, 0.35071358, 0.00003758123, -0.00008333289, -691140.75, -50036.82, 0.0, 10.000158, 9.929503 
3.365007e+3, 2.445042e+2, -602817.7, -667010.0, 0.8427361, 0.000037479684, 0.00007978523, -602817.7, -58958.754, 0.0, 10.000158, 9.916062 
3.365007e+3, 2.5442037e+2, -504066.4, -568335.6, 0.32603228, 0.000037377806, -0.00010192502, -504066.4, -57386.047, 0.0, 10.000157, 9.915963 
3.365007e+3, 2.6432946e+2, -415832.06, -490981.25, 0.7680985, 0.00003728114, 0.00014510556, -415832.06, -66260.875, 0.0, 10.000157, 9.901892 
3.365007e+3, 2.742319e+2, -316548.16, -391369.22, 0.23937641, 0.00003719107, -0.00019927889, -316548.16, -64020.92, 0.0, 10.000157, 9.902311 
3.365007e+3, 2.8412613e+2, -230075.16, -318075.25, 0.6309992, 0.000037114372, 0.00023291665, -230075.16, -74511.24, 0.0, 10.000156, 9.885366 
3.365007e+3, 2.9401255e+2, -130370.28, -217759.95, 0.13488142, 0.000037055896, -0.00024969588, -130370.28, -71693.24, 0.0, 10.000156, 9.886145 
3.365007e+3, 3.0392691e+2, -40629.918, -84749.445, 0.44374487, 0.00003693007, 0.00017637052, -40629.918, -40629.918, 0.0, 10.000156, 9.942098 
3.365007e+3, 3.1387088e+2, -39552.586, -82511.09, -0.05478033, 0.000036704198, -0.00005260138, -39552.586, -39552.586, 0.0, 10.000155, 9.943609 
3.3750075e+3, 1.249951e+2, -1719746.8, -1724208.5, 0.21497004, 0.000039969895, 0.000033824825, -1719746.8, -4698.634, 0.0, 10.000164, 9.994248 
3.3750075e+3, 1.3498925e+2, -1622368.8, -1627420.8, -0.32561377, 0.00003963101, -0.00007975794, -1622368.8, -5263.259, 0.0, 10.000164, 9.993466 
3.3750075e+3, 1.4497675e+2, -1534267.0, -1548129.5, 0.3614831, 0.000039407052, 0.00009704317, -1534267.0, -15038.969, 0.0, 10.000163, 9.981789 
3.3750075e+3, 1.5495855e+2, -1436541.3, -1450806.6, -0.1946086, 0.000039291186, -0.000048680733, -1436541.3, -15134.854, 0.0, 10.000162, 9.9812565 
3.3750075e+3, 1.649337e+2, -1348492.3, -1371939.0, 0.536361, 0.000039153732, 0.000049338913, -1348492.3, -24842.51, 0.0, 10.000161, 9.969172 
3.3750075e+3, 1.7490293e+2, -1250536.0, -1274298.1, -0.0044085453, 0.0000389943, -0.00006636756, -1250536.0, -24584.533, 0.0, 10.000161, 9.968758 
3.3750075e+3, 1.848655e+2, -1162455.8, -1195707.9, 0.66335416, 0.00003885461, 0.0000753218, -1162455.8, -34137.56, 0.0, 10.00016, 9.95632 
3.3750072e+3, 1.9482185e+2, -1064307.6, -1097822.0, 0.11046222, 0.000038735514, -0.000050694503, -1064307.6, -33561.758, 0.0, 10.00016, 9.9559765 
3.3750072e+3, 2.0477155e+2, -976144.7, -1019424.7, 0.7238843, 0.000038613445, 0.000074015836, -976144.7, -42905.836, 0.0, 10.000159, 9.943215 
3.3750072e+3, 2.147148e+2, -877859.1, -921400.75, 0.1971937, 0.00003848814, -0.000120623634, -877859.1, -42064.188, 0.0, 10.000159, 9.942874 
3.3750072e+3, 2.2465137e+2, -789574.06, -843136.44, 0.76189035, 0.00003837725, 0.00012700676, -789574.06, -51157.35, 0.0, 10.000158, 9.929832 
3.3750072e+3, 2.3458125e+2, -691141.94, -744959.1, 0.20755792, 0.000038282647, -0.00008315635, -691141.94, -50038.24, 0.0, 10.000158, 9.929502 
3.3750072e+3, 2.4450421e+2, -602818.9, -667012.3, 0.7110766, 0.000038186383, 0.000079976235, -602818.9, -58960.098, 0.0, 10.000158, 9.916061 
3.3750072e+3, 2.544204e+2, -504067.53, -568337.9, 0.19489515, 0.000038088092, -0.00010177906, -504067.53, -57387.36, 0.0, 10.000157, 9.915961 
3.3750072e+3, 2.643295e+2, -415833.22, -490983.63, 0.64605147, 0.000037989903, 0.00014521532, -415833.22, -66262.21, 0.0, 10.000157, 9.90189 
3.3750072e+3, 2.7423194e+2, -316549.3, -391371.56, 0.11792774, 0.000037891805, -0.00019919395, -316549.3, -64022.23, 0.0, 10.000157, 9.90231 
3.3750072e+3, 2.8412616e+2, -230076.27, -318077.53, 0.51018125, 0.00003780525, 0.0002330114, -230076.27, -74512.5, 0.0, 10.000156, 9.885365 
3.3750072e+3, 2.9401258e+2, -130371.375, -217762.23, 0.01409073, 0.000037734426, -0.00024954398, -130371.375, -71694.46, 0.0, 10.000156, 9.886144 
3.3750072e+3, 3.0392691e+2, -40631.047, -84751.79, 0.32148957, 0.000037611968, 0.00017651296, -40631.047, -40631.047, 0.0, 10.000156, 9.942097 
3.3750072e+3, 3.138709e+2, -39553.72, -82513.45, -0.17721178, 0.000037412803, -0.000052567713, -39553.72, -39553.72, 0.0, 10.000155, 9.943607 
3.3850077e+3, 1.24995135e+2, -1719737.5, -1724205.3, 0.58888096, 0.000040683783, 0.000034142908, -1719737.5, -4689.7856, 0.0, 10.000171, 9.994247 
3.3850077e+3, 1.3498929e+2, -1622359.5, -1627417.5, 0.010127417, 0.000040347168, -0.000080027916, -1622359.5, -5254.4673, 0.0, 10.00017, 9.993464 
3.3850077e+3, 1.4497678e+2, -1534257.9, -1548126.4, 0.7298285, 0.00004011845, 0.00009768115, -1534257.9, -15030.188, 0.0, 10.00017, 9.981787 
3.3850077e+3, 1.5495858e+2, -1436532.1, -1450803.5, 0.17550032, 0.00003999059, -0.0000485055, -1436532.1, -15126.064, 0.0, 10.000169, 9.981256 
3.3850077e+3, 1.6493374e+2, -1348483.1, -1371935.9, 0.9309008, 0.000039853938, 0.00004936029, -1348483.1, -24833.736, 0.0, 10.000168, 9.969171 
3.3850077e+3, 1.7490296e+2, -1250526.9, -1274295.1, 0.36204767, 0.00003970838, -0.000066184635, -1250526.9, -24575.816, 0.0, 10.000168, 9.968757 
3.3850077e+3, 1.8486553e+2, -1162446.8, -1195704.9, 1.0446491, 0.000039574858, 0.00007555461, -1162446.8, -34128.88, 0.0, 10.000167, 9.956318 
3.3850077e+3, 1.9482188e+2, -1064298.6, -1097819.0, 0.4862924, 0.00003945385, -0.000050528626, -1064298.6, -33553.09, 0.0, 10.000167, 9.955976 
3.3850077e+3, 2.0477158e+2, -976135.7, -1019421.8, 1.109183, 0.000039330364, 0.000074158525, -976135.7, -42897.145, 0.0, 10.000166, 9.943213 
3.3850077e+3, 2.1471483e+2, -877850.2, -921397.9, 0.5446765, 0.000039204173, -0.000120456745, -877850.2, -42055.48, 0.0, 10.000166, 9.942873 
3.3850077e+3, 2.2465138e+2, -789565.1, -843133.7, 1.1097741, 0.000039091894, 0.00012717149, -789565.1, -51148.664, 0.0, 10.000165, 9.9298315 
3.3850077e+3, 2.3458128e+2, -691133.0, -744956.4, 0.5550556, 0.00003899533, -0.00008302363, -691133.0, -50029.563, 0.0, 10.000165, 9.929501 
3.3850077e+3, 2.4450423e+2, -602809.94, -667009.56, 1.0503736, 0.000038901744, 0.000080103506, -602809.94, -58951.414, 0.0, 10.000164, 9.9160595 
3.3850077e+3, 2.544204e+2, -504058.7, -568335.2, 0.49539527, 0.00003881166, -0.00010162548, -504058.7, -57378.707, 0.0, 10.000164, 9.915959 
3.3850074e+3, 2.643295e+2, -415824.4, -490981.0, 0.9338028, 0.000038714294, 0.00014536505, -415824.4, -66253.58, 0.0, 10.000164, 9.901888 
3.3850074e+3, 2.7423194e+2, -316540.5, -391369.0, 0.39330298, 0.00003860761, -0.00019908648, -316540.5, -64013.594, 0.0, 10.000163, 9.902308 
3.3850074e+3, 2.8412616e+2, -230067.47, -318074.97, 0.7588862, 0.000038514172, 0.00023310911, -230067.47, -74503.85, 0.0, 10.000163, 9.885364 
3.3850074e+3, 2.9401258e+2, -130362.625, -217759.72, 0.223767, 0.00003843884, -0.00024941136, -130362.625, -71685.84, 0.0, 10.000163, 9.886142 
3.3850074e+3, 3.0392694e+2, -40622.44, -84749.42, 0.49256104, 0.00003831731, 0.0001766415, -40622.44, -40622.44, 0.0, 10.000162, 9.942095 
3.3850074e+3, 3.138709e+2, -39545.19, -82511.125, -0.012577737, 0.00003812713, -0.000052501477, -39545.19, -39545.19, 0.0, 10.000162, 9.943606 
3.395008e+3, 1.2499517e+2, -1719738.9, -1724207.8, 0.27872893, 0.00004141488, 0.00003440384, -1719738.9, -4691.508, 0.0, 10.000171, 9.994246 
3.395008e+3, 1.3498932e+2, -1622360.9, -1627420.0, -0.3000686, 0.000041057414, -0.00008026573, -1622360.9, -5256.1626, 0.0, 10.00017, 9.9934635 
3.3950078e+3, 1.4497682e+2, -1534259.1, -1548128.8, 0.47611985, 0.000040823186, 0.00009837801, -1534259.1, -15031.813, 0.0, 10.00017, 9.981786 
3.3950078e+3, 1.549586e+2, -1436533.4, -1450805.9, -0.07812526, 0.000040705054, -0.000048371574, -1436533.4, -15127.656, 0.0, 10.000169, 9.981254 
3.3950078e+3, 1.6493377e+2, -1348484.4, -1371938.4, 0.70622474, 0.00004057506, 0.000049326474, -1348484.4, -24835.342, 0.0, 10.000168, 9.969169 
3.3950078e+3, 1.7490299e+2, -1250528.1, -1274297.5, 0.1375012, 0.000040433028, -0.00006598263, -1250528.1, -24577.395, 0.0, 10.000168, 9.968755 
3.3950078e+3, 1.8486556e+2, -1162448.0, -1195707.3, 0.8558018, 0.00004030279, 0.000075814736, -1162448.0, -34130.42, 0.0, 10.000167, 9.956317 
3.3950078e+3, 1.9482191e+2, -1064299.9, -1097821.4, 0.2978386, 0.00004018482, -0.00005039629, -1064299.9, -33554.598, 0.0, 10.000167, 9.955974 
3.3950078e+3, 2.0477161e+2, -976136.94, -1019424.25, 0.9543322, 0.000040064573, 0.00007427483, -976136.94, -42898.66, 0.0, 10.000166, 9.9432125 
3.3950078e+3, 2.1471485e+2, -877851.44, -921400.25, 0.39049226, 0.00003994184, -0.00012023544, -877851.44, -42056.965, 0.0, 10.000166, 9.942871 
3.3950076e+3, 2.2465141e+2, -789566.3, -843136.06, 0.97209126, 0.00003982643, 0.00012738851, -789566.3, -51150.13, 0.0, 10.000165, 9.92983 
3.3950076e+3, 2.3458129e+2, -691134.25, -744958.75, 0.41790527, 0.000039719278, -0.00008293459, -691134.25, -50030.996, 0.0, 10.000165, 9.929499 
3.3950076e+3, 2.4450426e+2, -602811.2, -667012.0, 0.91957253, 0.000039625764, 0.00008016724, -602811.2, -58952.844, 0.0, 10.000164, 9.916059 
3.3950076e+3, 2.5442043e+2, -504059.88, -568337.6, 0.3648706, 0.000039548493, -0.00010146433, -504059.88, -57380.11, 0.0, 10.000164, 9.915958 
3.3950076e+3, 2.6432952e+2, -415825.6, -490983.44, 0.82196647, 0.00003945429, 0.00014555463, -415825.6, -66254.95, 0.0, 10.000164, 9.901887 
3.3950076e+3, 2.7423197e+2, -316541.7, -391371.4, 0.28269562, 0.00003933846, -0.00019895655, -316541.7, -64014.938, 0.0, 10.000163, 9.902307 
3.3950076e+3, 2.841262e+2, -230068.66, -318077.4, 0.6395398, 0.000039241113, 0.00023320978, -230068.66, -74505.19, 0.0, 10.000163, 9.885362 
3.3950076e+3, 2.9401258e+2, -130363.8, -217762.14, 0.10362899, 0.00003916909, -0.00024929797, -130363.8, -71687.15, 0.0, 10.000163, 9.88614 
3.3950076e+3, 3.0392694e+2, -40623.586, -84751.805, 0.3539713, 0.00003904606, 0.00017675619, -40623.586, -40623.586, 0.0, 10.000162, 9.942093 
3.3950076e+3, 3.138709e+2, -39546.332, -82513.51, -0.15338098, 0.000038847185, -0.000052402753, -39546.332, -39546.332, 0.0, 10.000162, 9.943604 
3.405008e+3, 1.2499522e+2, -1719729.4, -1724204.5, 0.67070967, 0.000042149317, 0.000034755973, -1719729.4, -4682.3843, 0.0, 10.000177, 9.994245 
3.405008e+3, 1.3498937e+2, -1622351.4, -1627416.9, 0.055108607, 0.00004177009, -0.00008056029, -1622351.4, -5247.0874, 0.0, 10.000176, 9.993462 
3.405008e+3, 1.4497685e+2, -1534249.6, -1548125.4, 0.86587965, 0.000041536226, 0.00009902717, -1534249.6, -15022.703, 0.0, 10.000176, 9.981784 
3.405008e+3, 1.5495865e+2, -1436524.0, -1450802.6, 0.3097046, 0.00004144052, -0.000048186746, -1436524.0, -15118.624, 0.0, 10.000175, 9.981253 
3.405008e+3, 1.649338e+2, -1348475.1, -1371935.3, 1.124927, 0.000041320764, 0.00004935424, -1348475.1, -24826.383, 0.0, 10.0001745, 9.969168 
3.405008e+3, 1.7490302e+2, -1250518.9, -1274294.5, 0.53415936, 0.00004117654, -0.00006579818, -1250518.9, -24568.412, 0.0, 10.0001745, 9.968754 
3.405008e+3, 1.848656e+2, -1162438.6, -1195704.3, 1.2688574, 0.000041040308, 0.000076046716, -1162438.6, -34121.387, 0.0, 10.000174, 9.956315 
3.4050077e+3, 1.9482194e+2, -1064290.5, -1097818.4, 0.6931809, 0.000040912364, -0.000050231007, -1064290.5, -33545.547, 0.0, 10.000174, 9.955972 
3.4050077e+3, 2.0477164e+2, -976127.6, -1019421.25, 1.3567711, 0.000040795294, 0.000074424475, -976127.6, -42889.637, 0.0, 10.000173, 9.943211 
3.4050077e+3, 2.1471488e+2, -877842.1, -921397.3, 0.76541454, 0.00004068997, -0.000120046134, -877842.1, -42047.965, 0.0, 10.000173, 9.94287 
3.4050077e+3, 2.2465144e+2, -789557.06, -843133.1, 1.348519, 0.00004058372, 0.00012757714, -789557.06, -51141.11, 0.0, 10.000172, 9.929828 
3.4050077e+3, 2.3458134e+2, -691125.0, -744955.9, 0.7880212, 0.000040476374, -0.00008279232, -691125.0, -50021.984, 0.0, 10.000172, 9.929497 
3.4050077e+3, 2.4450427e+2, -602801.94, -667009.2, 1.2865573, 0.000040375595, 0.00008029142, -602801.94, -58943.848, 0.0, 10.000172, 9.916057 
3.4050077e+3, 2.5442046e+2, -504050.63, -568334.8, 0.697543, 0.00004028263, -0.00010132442, -504050.63, -57371.047, 0.0, 10.000171, 9.9159565 
3.4050077e+3, 2.6432955e+2, -415816.34, -490980.66, 1.1260026, 0.0000401864, 0.00014570347, -415816.34, -66245.87, 0.0, 10.000171, 9.901885 
3.4050077e+3, 2.74232e+2, -316532.5, -391368.7, 0.557158, 0.000040085964, -0.00019880754, -316532.5, -64005.92, 0.0, 10.000171, 9.902306 
3.4050077e+3, 2.841262e+2, -230059.5, -318074.75, 0.8922515, 0.000039998093, 0.00023334236, -230059.5, -74496.195, 0.0, 10.00017, 9.88536 
3.4050077e+3, 2.940126e+2, -130354.695, -217759.53, 0.35113958, 0.000039927374, -0.00024920455, -130354.695, -71678.19, 0.0, 10.00017, 9.886139 
3.4050077e+3, 3.0392697e+2, -40614.594, -84749.34, 0.5570868, 0.00003979266, 0.00017683988, -40614.594, -40614.594, 0.0, 10.00017, 9.942092 
3.4050077e+3, 3.1387094e+2, -39537.28, -82511.03, -0.015831424, 0.00003956289, -0.000052284926, -39537.28, -39537.28, 0.0, 10.000169, 9.943603 
3.4150082e+3, 1.24995254e+2, -1719730.8, -1724207.1, 0.3576097, 0.000042887088, 0.00003520706, -1719730.8, -4684.211, 0.0, 10.000177, 9.994243 
3.4150082e+3, 1.349894e+2, -1622352.9, -1627419.5, -0.25795266, 0.000042485208, -0.00008091142, -1622352.9, -5248.8833, 0.0, 10.000176, 9.99346 
3.4150082e+3, 1.449769e+2, -1534250.9, -1548127.8, 0.601584, 0.00004225757, 0.0000996288, -1534250.9, -15024.35, 0.0, 10.000176, 9.981783 
3.4150082e+3, 1.5495868e+2, -1436525.3, -1450805.0, 0.045433506, 0.00004219693, -0.000047951173, -1436525.3, -15120.237, 0.0, 10.000175, 9.981251 
3.4150082e+3, 1.6493386e+2, -1348476.4, -1371937.8, 0.91441756, 0.000042090993, 0.000049443388, -1348476.4, -24828.055, 0.0, 10.0001745, 9.969166 
3.4150082e+3, 1.7490306e+2, -1250520.1, -1274297.0, 0.3239259, 0.000041938885, -0.000065631226, -1250520.1, -24570.053, 0.0, 10.0001745, 9.968752 
3.4150082e+3, 1.8486562e+2, -1162439.9, -1195706.6, 1.0932227, 0.000041787403, 0.00007625064, -1162439.9, -34122.984, 0.0, 10.000174, 9.956314 
3.4150082e+3, 1.9482197e+2, -1064291.8, -1097820.8, 0.5179167, 0.000041636522, -0.00005003287, -1064291.8, -33547.113, 0.0, 10.000174, 9.955971 
3.4150082e+3, 2.0477167e+2, -976128.94, -1019423.8, 1.2050693, 0.000041522566, 0.000074607364, -976128.94, -42891.227, 0.0, 10.000173, 9.943209 
3.4150082e+3, 2.147149e+2, -877843.44, -921399.9, 0.6141995, 0.000041448562, -0.00011988871, -877843.44, -42049.523, 0.0, 10.000173, 9.942868 
3.4150082e+3, 2.2465146e+2, -789558.3, -843135.56, 1.2174736, 0.000041363717, 0.00012773745, -789558.3, -51142.6, 0.0, 10.000172, 9.929827 
3.4150082e+3, 2.3458137e+2, -691126.2, -744958.3, 0.6575862, 0.000041266543, -0.00008259699, -691126.2, -50023.445, 0.0, 10.000172, 9.929496 
3.4150082e+3, 2.445043e+2, -602803.25, -667011.75, 1.1802322, 0.000041151186, 0.00008047587, -602803.25, -58945.36, 0.0, 10.000172, 9.916055 
3.4150082e+3, 2.5442046e+2, -504051.88, -568337.4, 0.5923722, 0.000041014104, -0.000101205704, -504051.88, -57372.53, 0.0, 10.000171, 9.915955 
3.4150082e+3, 2.6432955e+2, -415817.6, -490983.2, 1.0078858, 0.000040910683, 0.00014581166, -415817.6, -66247.31, 0.0, 10.000171, 9.901883 
3.415008e+3, 2.74232e+2, -316533.72, -391371.22, 0.43814707, 0.000040850096, -0.00019863951, -316533.72, -64007.332, 0.0, 10.000171, 9.902304 
3.415008e+3, 2.8412622e+2, -230060.7, -318077.22, 0.7742566, 0.000040785046, 0.00023350675, -230060.7, -74497.555, 0.0, 10.00017, 9.885359 
3.415008e+3, 2.940126e+2, -130355.87, -217761.97, 0.23320386, 0.00004071364, -0.000249131, -130355.87, -71679.51, 0.0, 10.00017, 9.886137 
3.415008e+3, 3.0392697e+2, -40615.848, -84751.95, 0.4341438, 0.00004055708, 0.00017689266, -40615.848, -40615.848, 0.0, 10.00017, 9.94209 
3.415008e+3, 3.1387094e+2, -39538.547, -82513.66, -0.13939174, 0.000040274288, -0.00005214805, -39538.547, -39538.547, 0.0, 10.000169, 9.943601 
3.4250087e+3, 1.249953e+2, -1719721.0, -1724203.6, 0.6977565, 0.00004364387, 0.000035670186, -1719721.0, -4674.915, 0.0, 10.000184, 9.994241 
3.4250087e+3, 1.3498944e+2, -1622343.1, -1627416.1, 0.13214418, 0.00004324283, -0.000081259815, -1622343.1, -5239.588, 0.0, 10.000184, 9.993459 
3.4250087e+3, 1.4497693e+2, -1534241.1, -1548124.4, 1.0395092, 0.000043012966, 0.00010024743, -1534241.1, -15015.036, 0.0, 10.000183, 9.981781 
3.4250084e+3, 1.5495872e+2, -1436515.5, -1450801.6, 0.42918, 0.000042946835, -0.000047722504, -1436515.5, -15110.926, 0.0, 10.000182, 9.98125 
3.4250084e+3, 1.6493389e+2, -1348466.8, -1371934.5, 1.327015, 0.00004284098, 0.000049524286, -1348466.8, -24818.754, 0.0, 10.000181, 9.969164 
3.4250084e+3, 1.749031e+2, -1250510.5, -1274293.8, 0.74077964, 0.00004269465, -0.00006545083, -1250510.5, -24560.768, 0.0, 10.000181, 9.96875 
3.4250084e+3, 1.8486567e+2, -1162430.3, -1195703.5, 1.5399129, 0.000042550168, 0.00007647432, -1162430.3, -34113.688, 0.0, 10.00018, 9.956312 
3.4250084e+3, 1.9482201e+2, -1064282.1, -1097817.6, 0.935374, 0.000042407562, -0.00004982472, -1064282.1, -33537.777, 0.0, 10.00018, 9.955969 
3.4250084e+3, 2.047717e+2, -976119.3, -1019420.7, 1.6287276, 0.000042295018, 0.0000747842, -976119.3, -42881.875, 0.0, 10.00018, 9.943208 
3.4250084e+3, 2.1471493e+2, -877833.8, -921396.75, 1.0418676, 0.000042214982, -0.00011976026, -877833.8, -42040.18, 0.0, 10.000179, 9.942866 
3.4250084e+3, 2.2465149e+2, -789548.7, -843132.56, 1.6482385, 0.000042129006, 0.000127866, -789548.7, -51133.242, 0.0, 10.000179, 9.929825 
3.425008e+3, 2.3458138e+2, -691116.56, -744955.25, 1.0307958, 0.00004203626, -0.00008241348, -691116.56, -50014.035, 0.0, 10.000178, 9.929494 
3.425008e+3, 2.4450432e+2, -602793.6, -667008.8, 1.53723, 0.00004192657, 0.0000806636, -602793.6, -58935.938, 0.0, 10.000178, 9.916053 
3.425008e+3, 2.544205e+2, -504042.28, -568334.5, 0.9476553, 0.000041796633, -0.00010107437, -504042.28, -57363.133, 0.0, 10.000178, 9.915954 
3.425008e+3, 2.6432958e+2, -415808.0, -490980.34, 1.3407232, 0.00004169193, 0.00014591761, -415808.0, -66237.92, 0.0, 10.000178, 9.901882 
3.425008e+3, 2.7423203e+2, -316524.13, -391368.4, 0.736626, 0.00004161934, -0.00019851926, -316524.13, -63997.918, 0.0, 10.000177, 9.902302 
3.425008e+3, 2.8412622e+2, -230051.06, -318074.38, 1.0369422, 0.00004154911, 0.00023363488, -230051.06, -74488.08, 0.0, 10.000177, 9.885357 
3.425008e+3, 2.9401264e+2, -130346.234, -217759.16, 0.45355362, 0.000041481904, -0.00024900388, -130346.234, -71670.02, 0.0, 10.000177, 9.886135 
3.425008e+3, 3.0392697e+2, -40606.37, -84749.41, 0.5996076, 0.00004132741, 0.00017701296, -40606.37, -40606.37, 0.0, 10.000176, 9.942088 
3.425008e+3, 3.1387097e+2, -39529.074, -82511.13, -0.015057625, 0.00004104343, -0.000052043117, -39529.074, -39529.074, 0.0, 10.000176, 9.943599 
3.4350088e+3, 1.2499534e+2, -1719722.4, -1724206.1, 0.39325514, 0.000044419634, 0.000036159447, -1719722.4, -4676.6426, 0.0, 10.000184, 9.99424 
3.4350088e+3, 1.3498949e+2, -1622344.4, -1627418.5, -0.17240253, 0.00004404285, -0.000081605496, -1622344.4, -5241.288, 0.0, 10.000184, 9.993457 
3.4350085e+3, 1.4497697e+2, -1534242.5, -1548127.0, 0.7826404, 0.00004380233, 0.00010088303, -1534242.5, -15016.822, 0.0, 10.000183, 9.981779 
3.4350085e+3, 1.5495875e+2, -1436516.9, -1450804.3, 0.17240131, 0.00004369028, -0.000047500707, -1436516.9, -15112.678, 0.0, 10.000182, 9.981248 
3.4350085e+3, 1.6493392e+2, -1348468.1, -1371937.0, 1.1221311, 0.000043570824, 0.00004959696, -1348468.1, -24820.432, 0.0, 10.000181, 9.969163 
3.4350085e+3, 1.7490312e+2, -1250511.9, -1274296.3, 0.5361271, 0.00004344387, -0.00006525704, -1250511.9, -24562.414, 0.0, 10.000181, 9.968749 
3.4350085e+3, 1.848657e+2, -1162431.6, -1195706.1, 1.3822051, 0.000043328564, 0.00007671772, -1162431.6, -34115.363, 0.0, 10.00018, 9.95631 
3.4350085e+3, 1.9482206e+2, -1064283.4, -1097820.3, 0.7781934, 0.00004322537, -0.00004960658, -1064283.4, -33539.42, 0.0, 10.00018, 9.955967 
3.4350085e+3, 2.0477173e+2, -976120.6, -1019423.2, 1.4849315, 0.000043112534, 0.00007495501, -976120.6, -42883.473, 0.0, 10.00018, 9.943206 
3.4350082e+3, 2.1471496e+2, -877835.06, -921399.3, 0.8983176, 0.00004298923, -0.00011966066, -877835.06, -42041.746, 0.0, 10.000179, 9.942864 
3.4350082e+3, 2.2465152e+2, -789550.0, -843135.25, 1.5386674, 0.00004287967, 0.00012796292, -789550.0, -51134.863, 0.0, 10.000179, 9.929823 
3.4350082e+3, 2.3458141e+2, -691117.9, -744957.94, 0.92231905, 0.000042785625, -0.000082241735, -691117.9, -50015.625, 0.0, 10.000178, 9.929492 
3.4350082e+3, 2.4450435e+2, -602794.9, -667011.44, 1.4356301, 0.000042701784, 0.00008085463, -602794.9, -58937.473, 0.0, 10.000178, 9.916052 
3.4350082e+3, 2.5442052e+2, -504043.56, -568337.06, 0.8463646, 0.00004263008, -0.00010093047, -504043.56, -57364.633, 0.0, 10.000178, 9.915952 
3.4350082e+3, 2.643296e+2, -415809.3, -490983.03, 1.2373043, 0.000042529988, 0.00014602137, -415809.3, -66239.44, 0.0, 10.000178, 9.90188 
3.4350082e+3, 2.7423203e+2, -316525.44, -391371.06, 0.6330419, 0.000042393705, -0.00019844667, -316525.44, -63999.406, 0.0, 10.000177, 9.9023 
3.4350082e+3, 2.8412625e+2, -230052.34, -318077.0, 0.93289447, 0.000042290376, 0.0002337269, -230052.34, -74489.52, 0.0, 10.000177, 9.885355 
3.4350082e+3, 2.9401264e+2, -130347.49, -217761.77, 0.3494268, 0.00004223225, -0.00024882334, -130347.49, -71671.44, 0.0, 10.000177, 9.886133 
3.4350082e+3, 3.03927e+2, -40607.7, -84752.17, 0.48025623, 0.00004210366, 0.00017720056, -40607.7, -40607.7, 0.0, 10.000176, 9.942086 
3.4350082e+3, 3.1387097e+2, -39530.41, -82513.914, -0.13618413, 0.000041870167, -0.00005197002, -39530.41, -39530.41, 0.0, 10.000176, 9.943597 
3.4450087e+3, 1.24995396e+2, -1719712.4, -1724202.5, 0.7907698, 0.00004521719, 0.000036547357, -1719712.4, -4667.091, 0.0, 10.000192, 9.994238 
3.4450087e+3, 1.3498953e+2, -1622334.5, -1627415.1, 0.16585207, 0.000044829096, -0.0000819064, -1622334.5, -5231.813, 0.0, 10.000191, 9.993455 
3.4450087e+3, 1.4497702e+2, -1534232.6, -1548123.6, 1.172429, 0.000044580327, 0.00010160927, -1534232.6, -15007.346, 0.0, 10.00019, 9.981778 
3.4450087e+3, 1.549588e+2, -1436507.0, -1450800.8, 0.59183615, 0.0000444629, -0.000047303856, -1436507.0, -15103.122, 0.0, 10.000189, 9.981246 
3.4450087e+3, 1.6493396e+2, -1348458.1, -1371933.6, 1.587725, 0.000044337197, 0.000049614326, -1348458.1, -24810.832, 0.0, 10.000189, 9.969161 
3.4450087e+3, 1.7490317e+2, -1250501.9, -1274292.9, 0.9640056, 0.000044203116, -0.000065061926, -1250501.9, -24552.773, 0.0, 10.000188, 9.968747 
3.4450087e+3, 1.8486574e+2, -1162421.6, -1195702.8, 1.8209442, 0.000044101354, 0.00007696868, -1162421.6, -34105.742, 0.0, 10.000188, 9.956308 
3.4450084e+3, 1.9482209e+2, -1064273.5, -1097817.0, 1.2082814, 0.000044033317, -0.000049427323, -1064273.5, -33529.875, 0.0, 10.000187, 9.955966 
3.4450084e+3, 2.0477176e+2, -976110.7, -1019420.0, 1.9352062, 0.00004392706, 0.0000751087, -976110.7, -42873.887, 0.0, 10.000187, 9.943204 
3.4450084e+3, 2.1471499e+2, -877825.06, -921396.06, 1.316276, 0.000043779408, -0.00011948257, -877825.06, -42032.016, 0.0, 10.000187, 9.942863 
3.4450084e+3, 2.2465155e+2, -789540.0, -843132.1, 1.9526639, 0.000043656742, 0.00012814337, -789540.0, -51125.1, 0.0, 10.000187, 9.929822 
3.4450084e+3, 2.3458144e+2, -691107.8, -744954.8, 1.3223059, 0.00004356233, -0.0000820839, -691107.8, -50005.848, 0.0, 10.000186, 9.92949 
3.4450084e+3, 2.4450438e+2, -602784.8, -667008.3, 1.8169761, 0.000043492393, 0.00008100121, -602784.8, -58927.668, 0.0, 10.000186, 9.91605 
3.4450084e+3, 2.5442055e+2, -504033.56, -568334.0, 1.2018183, 0.000043451615, -0.000100781566, -504033.56, -57354.87, 0.0, 10.000186, 9.91595 
3.4450084e+3, 2.643296e+2, -415799.34, -490980.1, 1.5839698, 0.000043354565, 0.00014615677, -415799.34, -66229.69, 0.0, 10.000185, 9.901878 
3.4450084e+3, 2.7423206e+2, -316515.38, -391368.13, 0.95257956, 0.00004318581, -0.00019834493, -316515.38, -63989.543, 0.0, 10.000185, 9.902298 
3.4450084e+3, 2.8412625e+2, -230042.22, -318074.03, 1.2032942, 0.00004306797, 0.00023383342, -230042.22, -74479.58, 0.0, 10.000185, 9.885353 
3.4450084e+3, 2.9401267e+2, -130337.39, -217758.86, 0.57235444, 0.00004302007, -0.00024865934, -130337.39, -71661.5, 0.0, 10.000185, 9.886132 
3.4450084e+3, 3.03927e+2, -40597.754, -84749.445, 0.65400994, 0.00004291263, 0.00017734454, -40597.754, -40597.754, 0.0, 10.000185, 9.942084 
3.4450084e+3, 3.1387097e+2, -39520.508, -82511.22, 0.046959694, 0.000042716252, -0.00005196153, -39520.508, -39520.508, 0.0, 10.000184, 9.943595 
3.4550092e+3, 1.2499544e+2, -1719713.8, -1724205.3, 0.47753897, 0.00004603648, 0.000036847625, -1719713.8, -4668.972, 0.0, 10.000192, 9.994236 
3.4550092e+3, 1.3498957e+2, -1622336.0, -1627417.8, -0.14740339, 0.000045601653, -0.00008216271, -1622336.0, -5233.666, 0.0, 10.000191, 9.993454 
3.4550092e+3, 1.4497706e+2, -1534234.0, -1548126.1, 0.9416625, 0.000045347024, 0.000102425845, -1534234.0, -15009.083, 0.0, 10.00019, 9.981776 
3.4550092e+3, 1.5495884e+2, -1436508.3, -1450803.3, 0.36115995, 0.00004526462, -0.000047131856, -1436508.3, -15104.824, 0.0, 10.000189, 9.981245 
3.4550092e+3, 1.64934e+2, -1348459.5, -1371936.3, 1.4020396, 0.00004514, 0.00004957657, -1348459.5, -24812.61, 0.0, 10.000189, 9.969159 
3.455009e+3, 1.749032e+2, -1250503.3, -1274295.5, 0.77854633, 0.00004497238, -0.000064865475, -1250503.3, -24554.521, 0.0, 10.000188, 9.968745 
3.455009e+3, 1.8486577e+2, -1162423.0, -1195705.4, 1.6550117, 0.000044868586, 0.0000772272, -1162423.0, -34107.453, 0.0, 10.000188, 9.956307 
3.455009e+3, 1.9482212e+2, -1064274.9, -1097819.6, 1.0425471, 0.000044831464, -0.00004928681, -1064274.9, -33531.55, 0.0, 10.000187, 9.955964 
3.455009e+3, 2.0477179e+2, -976112.06, -1019422.7, 1.8345932, 0.000044738637, 0.000075245334, -976112.06, -42875.566, 0.0, 10.000187, 9.943202 
3.455009e+3, 2.1471503e+2, -877826.44, -921398.7, 1.2169639, 0.000044585493, -0.000119226235, -877826.44, -42033.664, 0.0, 10.000187, 9.942862 
3.455009e+3, 2.2465158e+2, -789541.4, -843134.8, 1.8576955, 0.000044460176, 0.00012840709, -789541.4, -51126.77, 0.0, 10.000187, 9.92982 
3.455009e+3, 2.3458147e+2, -691109.2, -744957.56, 1.2274805, 0.000044366327, -0.000081939914, -691109.2, -50007.48, 0.0, 10.000186, 9.929488 
3.455009e+3, 2.4450439e+2, -602786.2, -667011.0, 1.714859, 0.000044298384, 0.00008110349, -602786.2, -58929.266, 0.0, 10.000186, 9.916048 
3.455009e+3, 2.5442055e+2, -504034.9, -568336.7, 1.099304, 0.000044261313, -0.00010062768, -504034.9, -57356.434, 0.0, 10.000186, 9.915948 
3.4550086e+3, 2.6432964e+2, -415800.72, -490982.88, 1.5172182, 0.00004416574, 0.00014632373, -415800.72, -66231.266, 0.0, 10.000185, 9.901876 
3.4550086e+3, 2.742321e+2, -316516.72, -391370.88, 0.88820523, 0.000043995624, -0.00019821413, -316516.72, -63991.094, 0.0, 10.000185, 9.902296 
3.4550086e+3, 2.8412628e+2, -230043.58, -318076.84, 1.1099962, 0.0000438818, 0.00023395443, -230043.58, -74481.125, 0.0, 10.000185, 9.885351 
3.4550086e+3, 2.940127e+2, -130338.74, -217761.64, 0.47644794, 0.00004384528, -0.00024851182, -130338.74, -71663.01, 0.0, 10.000185, 9.88613 
3.4550086e+3, 3.0392703e+2, -40599.066, -84752.18, 0.5269297, 0.000043754244, 0.00017744504, -40599.066, -40599.066, 0.0, 10.000185, 9.942082 
3.4550086e+3, 3.13871e+2, -39521.82, -82513.95, -0.083832845, 0.00004358165, -0.000052017433, -39521.82, -39521.82, 0.0, 10.000184, 9.943594 
3.4650093e+3, 1.24995485e+2, -1719703.5, -1724201.8, 0.90435284, 0.000046843223, 0.000037227375, -1719703.5, -4659.1914, 0.0, 10.000198, 9.994235 
3.4650093e+3, 1.3498962e+2, -1622325.8, -1627414.3, 0.25755563, 0.00004637559, -0.000082517196, -1622325.8, -5223.8784, 0.0, 10.000197, 9.993452 
3.4650093e+3, 1.449771e+2, -1534223.8, -1548122.5, 1.3948476, 0.00004611676, 0.00010315628, -1534223.8, -14999.232, 0.0, 10.000197, 9.981774 
3.4650093e+3, 1.5495887e+2, -1436498.0, -1450799.8, 0.7819164, 0.00004605869, -0.000046915495, -1436498.0, -15095.037, 0.0, 10.000196, 9.981243 
3.465009e+3, 1.6493404e+2, -1348449.4, -1371932.9, 1.864066, 0.000045951354, 0.00004960733, -1348449.4, -24802.889, 0.0, 10.0001955, 9.969157 
3.465009e+3, 1.7490324e+2, -1250493.1, -1274292.1, 1.237739, 0.00004579383, -0.00006468495, -1250493.1, -24544.76, 0.0, 10.0001955, 9.968744 
3.465009e+3, 1.848658e+2, -1162412.8, -1195702.0, 2.1372514, 0.000045672514, 0.000077457174, -1162412.8, -34097.582, 0.0, 10.0001955, 9.9563055 
3.465009e+3, 1.9482215e+2, -1064264.5, -1097816.1, 1.4980588, 0.000045589, -0.000049112354, -1064264.5, -33521.5, 0.0, 10.000195, 9.955962 
3.465009e+3, 2.0477182e+2, -976101.6, -1019419.3, 2.294677, 0.000045497258, 0.0000754046, -976101.6, -42865.48, 0.0, 10.000195, 9.943201 
3.465009e+3, 2.1471506e+2, -877816.06, -921395.44, 1.6394184, 0.00004539659, -0.00011903848, -877816.06, -42023.65, 0.0, 10.000195, 9.94286 
3.465009e+3, 2.246516e+2, -789531.06, -843131.6, 2.2767234, 0.000045303343, 0.00012858571, -789531.06, -51116.77, 0.0, 10.000194, 9.929818 
3.465009e+3, 2.3458149e+2, -691098.9, -744954.4, 1.6472194, 0.00004521845, -0.00008181299, -691098.9, -49997.453, 0.0, 10.000194, 9.929487 
3.4650087e+3, 2.4450442e+2, -602775.8, -667007.9, 2.124722, 0.00004513076, 0.0000812196, -602775.8, -58919.16, 0.0, 10.000194, 9.916046 
3.4650087e+3, 2.5442058e+2, -504024.34, -568333.5, 1.4547468, 0.000045039684, -0.00010047352, -504024.34, -57346.133, 0.0, 10.000194, 9.915946 
3.4650087e+3, 2.6432967e+2, -415790.13, -490979.7, 1.8341594, 0.000044941135, 0.00014649035, -415790.13, -66220.91, 0.0, 10.000194, 9.901875 
3.4650087e+3, 2.742321e+2, -316506.25, -391367.8, 1.1833372, 0.000044833047, -0.00019806776, -316506.25, -63980.83, 0.0, 10.000194, 9.902294 
3.4650087e+3, 2.841263e+2, -230033.16, -318073.8, 1.3784167, 0.000044754022, 0.00023407231, -230033.16, -74470.875, 0.0, 10.000193, 9.885349 
3.4650087e+3, 2.940127e+2, -130328.29, -217758.64, 0.7375458, 0.000044714758, -0.0002484335, -130328.29, -71652.73, 0.0, 10.000193, 9.886128 
3.4650087e+3, 3.0392703e+2, -40588.66, -84749.31, 0.73323613, 0.00004461872, 0.00017750706, -40588.66, -40588.66, 0.0, 10.000193, 9.9420805 
3.4650087e+3, 3.13871e+2, -39511.25, -82511.016, 0.05289608, 0.0000444381, -0.000051937048, -39511.25, -39511.25, 0.0, 10.000193, 9.943592 
3.4750095e+3, 1.2499553e+2, -1719705.0, -1724204.5, 0.6018653, 0.000047637488, 0.000037699236, -1719705.0, -4661.1436, 0.0, 10.000198, 9.994233 
3.4750095e+3, 1.3498965e+2, -1622327.3, -1627417.0, -0.04488957, 0.000047150934, -0.000082969505, -1622327.3, -5225.7983, 0.0, 10.000197, 9.99345 
3.4750095e+3, 1.4497714e+2, -1534225.1, -1548125.1, 1.1576759, 0.000046889552, 0.00010380091, -1534225.1, -15001.061, 0.0, 10.000197, 9.981773 
3.4750092e+3, 1.5495892e+2, -1436499.4, -1450802.4, 0.5447924, 0.000046845165, -0.000046654925, -1436499.4, -15096.829, 0.0, 10.000196, 9.981241 
3.4750092e+3, 1.6493408e+2, -1348450.8, -1371935.6, 1.6973861, 0.000046771256, 0.00004970636, -1348450.8, -24804.691, 0.0, 10.0001955, 9.969156 
3.4750092e+3, 1.7490327e+2, -1250494.5, -1274294.8, 1.0714071, 0.000046667305, -0.000064520296, -1250494.5, -24546.53, 0.0, 10.0001955, 9.968742 
3.4750092e+3, 1.8486585e+2, -1162414.1, -1195704.8, 2.02404, 0.00004651304, 0.00007765871, -1162414.1, -34099.367, 0.0, 10.0001955, 9.956304 
3.4750092e+3, 1.9482219e+2, -1064265.9, -1097818.9, 1.3854239, 0.000046306104, -0.00004890407, -1064265.9, -33523.25, 0.0, 10.000195, 9.95596 
3.4750092e+3, 2.0477186e+2, -976103.1, -1019422.1, 2.1882913, 0.000046203146, 0.000075586424, -976103.1, -42867.258, 0.0, 10.000195, 9.943199 
3.4750092e+3, 2.147151e+2, -877817.5, -921398.25, 1.5331761, 0.00004621272, -0.00011891905, -877817.5, -42025.39, 0.0, 10.000195, 9.942858 
3.475009e+3, 2.2465163e+2, -789532.44, -843134.3, 2.197165, 0.00004618614, 0.00012867956, -789532.44, -51118.45, 0.0, 10.000194, 9.929816 
3.475009e+3, 2.3458152e+2, -691100.25, -744957.06, 1.568475, 0.00004611857, -0.00008170307, -691100.25, -49999.1, 0.0, 10.000194, 9.929485 
3.475009e+3, 2.4450445e+2, -602777.25, -667010.75, 2.0806525, 0.000045989458, 0.000081349484, -602777.25, -58920.875, 0.0, 10.000194, 9.916044 
3.475009e+3, 2.5442064e+2, -504025.78, -568336.4, 1.4123287, 0.00004578687, -0.00010031908, -504025.78, -57347.813, 0.0, 10.000194, 9.915944 
3.475009e+3, 2.643297e+2, -415791.53, -490982.56, 1.7577544, 0.000045680914, 0.00014665659, -415791.53, -66222.55, 0.0, 10.000194, 9.901873 
3.475009e+3, 2.7423212e+2, -316507.66, -391370.66, 1.1046304, 0.000045698016, -0.00019790592, -316507.66, -63982.43, 0.0, 10.000194, 9.902293 
3.475009e+3, 2.841263e+2, -230034.53, -318076.66, 1.3030028, 0.000045684475, 0.00023418709, -230034.53, -74472.445, 0.0, 10.000193, 9.885347 
3.475009e+3, 2.9401273e+2, -130329.65, -217761.45, 0.66239667, 0.00004562839, -0.00024842413, -130329.65, -71654.25, 0.0, 10.000193, 9.8861265 
3.475009e+3, 3.0392706e+2, -40590.086, -84752.29, 0.64854836, 0.000045506007, 0.00017753073, -40590.086, -40590.086, 0.0, 10.000193, 9.942079 
3.475009e+3, 3.1387103e+2, -39512.688, -82514.016, -0.032979306, 0.000045285666, -0.000051720846, -39512.688, -39512.688, 0.0, 10.000193, 9.943589 
3.4850097e+3, 1.2499558e+2, -1719694.6, -1724200.8, 0.9484669, 0.000048426537, 0.000038123035, -1719694.6, -4651.217, 0.0, 10.000206, 9.994231 
3.4850097e+3, 1.3498971e+2, -1622316.8, -1627413.4, 0.33507708, 0.000047957816, -0.00008339084, -1622316.8, -5215.829, 0.0, 10.000205, 9.993448 
3.4850097e+3, 1.4497718e+2, -1534214.6, -1548121.5, 1.5981796, 0.000047699064, 0.00010449825, -1534214.6, -14991.058, 0.0, 10.000204, 9.981771 
3.4850097e+3, 1.5495896e+2, -1436489.0, -1450798.8, 0.93919355, 0.000047641824, -0.00004644239, -1436489.0, -15086.779, 0.0, 10.000204, 9.98124 
3.4850097e+3, 1.6493413e+2, -1348440.3, -1371932.0, 2.1334202, 0.00004756139, 0.000049750426, -1348440.3, -24794.588, 0.0, 10.000203, 9.969154 
3.4850097e+3, 1.7490332e+2, -1250484.0, -1274291.3, 1.4976861, 0.000047457364, -0.000064321765, -1250484.0, -24536.402, 0.0, 10.000203, 9.96874 
3.4850097e+3, 1.8486588e+2, -1162403.6, -1195701.4, 2.489198, 0.000047312045, 0.000077905184, -1162403.6, -34089.242, 0.0, 10.000203, 9.956302 
3.4850097e+3, 1.9482222e+2, -1064255.4, -1097815.5, 1.81919, 0.000047123485, -0.000048721093, -1064255.4, -33513.06, 0.0, 10.000202, 9.955959 
3.4850094e+3, 2.0477189e+2, -976092.5, -1019418.7, 2.6210024, 0.00004702782, 0.00007573699, -976092.5, -42856.984, 0.0, 10.000202, 9.943197 
3.4850094e+3, 2.1471514e+2, -877806.8, -921394.8, 1.9804877, 0.00004703269, -0.00011876722, -877806.8, -42015.04, 0.0, 10.000202, 9.942856 
3.4850094e+3, 2.2465168e+2, -789521.75, -843131.0, 2.6570258, 0.000047003068, 0.00012883056, -789521.75, -51108.03, 0.0, 10.000202, 9.929814 
3.4850094e+3, 2.3458154e+2, -691089.44, -744953.7, 1.9684373, 0.00004693435, -0.00008155527, -691089.44, -49988.566, 0.0, 10.000202, 9.929483 
3.4850094e+3, 2.4450448e+2, -602766.44, -667007.5, 2.465353, 0.00004681576, 0.00008149282, -602766.44, -58910.3, 0.0, 10.000202, 9.916042 
3.4850094e+3, 2.5442064e+2, -504014.94, -568333.1, 1.7842189, 0.00004663763, -0.00010018171, -504014.94, -57337.227, 0.0, 10.000201, 9.915942 
3.4850094e+3, 2.643297e+2, -415780.66, -490979.34, 2.080588, 0.000046546174, 0.00014679022, -415780.66, -66211.91, 0.0, 10.000201, 9.901871 
3.4850094e+3, 2.7423215e+2, -316496.75, -391367.44, 1.3939006, 0.00004656508, -0.0001977732, -316496.75, -63971.73, 0.0, 10.000201, 9.902291 
3.4850094e+3, 2.8412634e+2, -230023.52, -318073.4, 1.5693465, 0.00004655302, 0.00023430117, -230023.52, -74461.625, 0.0, 10.000201, 9.885345 
3.4850094e+3, 2.9401273e+2, -130318.54, -217758.19, 0.8908195, 0.00004649804, -0.0002483529, -130318.54, -71643.31, 0.0, 10.000201, 9.886125 
3.4850094e+3, 3.0392706e+2, -40579.082, -84749.336, 0.8036423, 0.000046390564, 0.00017760912, -40579.082, -40579.082, 0.0, 10.000201, 9.942077 
3.4850094e+3, 3.1387103e+2, -39501.574, -82511.03, 0.038254704, 0.00004620561, -0.000051560706, -39501.574, -39501.574, 0.0, 10.000201, 9.943587 
3.49501e+3, 1.2499563e+2, -1719696.0, -1724203.5, 0.66537046, 0.00004921042, 0.000038519254, -1719696.0, -4653.107, 0.0, 10.000206, 9.994229 
3.4950098e+3, 1.3498977e+2, -1622318.1, -1627416.0, 0.051934775, 0.000048796144, -0.00008378132, -1622318.1, -5217.691, 0.0, 10.000205, 9.993447 
3.4950098e+3, 1.4497723e+2, -1534216.1, -1548124.4, 1.3804024, 0.000048545196, 0.00010524813, -1534216.1, -14993.008, 0.0, 10.000204, 9.98177 
3.4950098e+3, 1.5495901e+2, -1436490.4, -1450801.5, 0.721554, 0.000048448663, -0.00004627771, -1436490.4, -15088.69, 0.0, 10.000204, 9.981238 
3.4950098e+3, 1.6493416e+2, -1348441.8, -1371934.8, 1.9824405, 0.000048321894, 0.000049739734, -1348441.8, -24796.426, 0.0, 10.000203, 9.969152 
3.4950098e+3, 1.7490336e+2, -1250485.4, -1274293.9, 1.3469771, 0.00004816435, -0.00006408949, -1250485.4, -24538.209, 0.0, 10.000203, 9.968739 
3.4950098e+3, 1.8486592e+2, -1162405.1, -1195704.3, 2.4019265, 0.00004806972, 0.00007819645, -1162405.1, -34091.11, 0.0, 10.000203, 9.9563 
3.4950095e+3, 1.9482227e+2, -1064256.9, -1097818.3, 1.732665, 0.000048040816, -0.00004856333, -1064256.9, -33514.89, 0.0, 10.000202, 9.955957 
3.4950095e+3, 2.0477192e+2, -976093.9, -1019421.5, 2.542954, 0.000047970883, 0.00007585642, -976093.9, -42858.742, 0.0, 10.000202, 9.943195 
3.4950095e+3, 2.1471517e+2, -877808.25, -921397.56, 1.9025334, 0.000047856516, -0.000118583084, -877808.25, -42016.766, 0.0, 10.000202, 9.942855 
3.4950095e+3, 2.2465171e+2, -789523.25, -843133.94, 2.6164422, 0.0000477544, 0.00012903854, -789523.25, -51109.848, 0.0, 10.000202, 9.929812 
3.4950095e+3, 2.3458157e+2, -691090.94, -744956.7, 1.9290755, 0.000047666133, -0.00008136973, -691090.94, -49990.348, 0.0, 10.000202, 9.9294815 
3.4950095e+3, 2.445045e+2, -602767.94, -667010.44, 2.4375885, 0.000047609825, 0.00008164955, -602767.94, -58912.06, 0.0, 10.000202, 9.91604 
3.4950095e+3, 2.5442067e+2, -504016.4, -568336.1, 1.7570004, 0.000047591624, -0.00010006134, -504016.4, -57338.945, 0.0, 10.000201, 9.91594 
3.4950095e+3, 2.6432973e+2, -415782.16, -490982.34, 2.0302944, 0.000047536494, 0.00014689134, -415782.16, -66213.62, 0.0, 10.000201, 9.901869 
3.4950095e+3, 2.7423218e+2, -316498.2, -391370.4, 1.3420215, 0.000047434263, -0.00019766952, -316498.2, -63973.402, 0.0, 10.000201, 9.902288 
3.4950095e+3, 2.8412637e+2, -230024.97, -318076.4, 1.5352739, 0.00004735992, 0.00023441458, -230024.97, -74463.27, 0.0, 10.000201, 9.885344 
3.4950092e+3, 2.9401276e+2, -130319.96, -217761.16, 0.8582933, 0.000047323905, -0.0002482201, -130319.96, -71644.92, 0.0, 10.000201, 9.886123 
3.4950092e+3, 3.039271e+2, -40580.656, -84752.61, 0.7523437, 0.00004727244, 0.00017774204, -40580.656, -40580.656, 0.0, 10.000201, 9.942074 
3.4950092e+3, 3.1387106e+2, -39503.168, -82514.35, -0.015236002, 0.000047197707, -0.000051456424, -39503.168, -39503.168, 0.0, 10.000201, 9.943585 
3.50501e+3, 1.2499568e+2, -1719685.4, -1724199.8, 1.0229468, 0.000050006336, 0.000038881273, -1719685.4, -4642.9604, 0.0, 10.000214, 9.994228 
3.50501e+3, 1.3498981e+2, -1622307.6, -1627412.4, 0.34459138, 0.00004962897, -0.00008412826, -1622307.6, -5207.638, 0.0, 10.000213, 9.993445 
3.50501e+3, 1.449773e+2, -1534205.5, -1548120.6, 1.7626373, 0.000049384045, 0.00010605786, -1534205.5, -14982.886, 0.0, 10.000212, 9.981768 
3.50501e+3, 1.5495907e+2, -1436479.8, -1450797.9, 1.1535243, 0.000049262275, -0.000046160796, -1436479.8, -15078.393, 0.0, 10.000212, 9.981236 
3.50501e+3, 1.649342e+2, -1348430.9, -1371931.1, 2.4672747, 0.00004911141, 0.00004966143, -1348430.9, -24786.059, 0.0, 10.000211, 9.969151 
3.50501e+3, 1.749034e+2, -1250474.5, -1274290.3, 1.7630267, 0.000048930942, -0.000063855114, -1250474.5, -24527.729, 0.0, 10.000211, 9.968737 
3.5050097e+3, 1.8486597e+2, -1162394.3, -1195700.6, 2.8319833, 0.00004886169, 0.00007849663, -1162394.3, -34080.598, 0.0, 10.000211, 9.956299 
3.5050097e+3, 1.948223e+2, -1064246.0, -1097814.8, 2.1869965, 0.000048908652, -0.000048455546, -1064246.0, -33504.492, 0.0, 10.00021, 9.9559555 
3.5050097e+3, 2.0477195e+2, -976083.1, -1019418.06, 3.027062, 0.00004885028, 0.00007592236, -976083.1, -42848.32, 0.0, 10.00021, 9.943193 
3.5050097e+3, 2.147152e+2, -877797.2, -921394.0, 2.3045478, 0.00004867786, -0.00011839598, -877797.2, -42006.06, 0.0, 10.00021, 9.942853 
3.5050097e+3, 2.2465174e+2, -789512.06, -843130.44, 2.9910955, 0.000048551043, 0.00012926335, -789512.06, -51098.97, 0.0, 10.00021, 9.929811 
3.5050097e+3, 2.345816e+2, -691079.7, -744953.1, 2.3071775, 0.00004847582, -0.00008120168, -691079.7, -49979.383, 0.0, 10.00021, 9.92948 
3.5050097e+3, 2.4450453e+2, -602756.7, -667007.0, 2.8052049, 0.000048458438, 0.000081777514, -602756.7, -58901.086, 0.0, 10.00021, 9.9160385 
3.5050097e+3, 2.544207e+2, -504005.28, -568332.75, 2.1124306, 0.00004851002, -0.000099953475, -504005.28, -57328.055, 0.0, 10.00021, 9.915938 
3.5050097e+3, 2.6432976e+2, -415770.97, -490979.06, 2.3824959, 0.000048469057, 0.0001469882, -415770.97, -66202.664, 0.0, 10.00021, 9.901867 
3.5050094e+3, 2.7423218e+2, -316486.72, -391367.03, 1.6497221, 0.000048310154, -0.00019757218, -316486.72, -63962.156, 0.0, 10.00021, 9.902287 
3.5050094e+3, 2.8412637e+2, -230013.3, -318072.97, 1.7825876, 0.000048214475, 0.00023453023, -230013.3, -74451.81, 0.0, 10.00021, 9.885342 
3.5050094e+3, 2.9401276e+2, -130308.24, -217757.75, 1.040091, 0.0000482058, -0.00024806184, -130308.24, -71633.38, 0.0, 10.00021, 9.88612 
3.5050094e+3, 3.039271e+2, -40569.082, -84749.5, 0.86541826, 0.000048196067, 0.00017788389, -40569.082, -40569.082, 0.0, 10.00021, 9.942072 
3.5050094e+3, 3.1387106e+2, -39491.582, -82511.25, 0.099822074, 0.000048183967, -0.000051418792, -39491.582, -39491.582, 0.0, 10.00021, 9.943583 
3.5150102e+3, 1.2499573e+2, -1719687.0, -1724202.6, 0.7277082, 0.00005081426, 0.00003922865, -1719687.0, -4645.017, 0.0, 10.000214, 9.994226 
3.5150102e+3, 1.3498986e+2, -1622309.3, -1627415.3, 0.04937323, 0.000050456347, -0.00008443184, -1622309.3, -5209.6636, 0.0, 10.000213, 9.9934435 
3.5150102e+3, 1.4497735e+2, -1534207.0, -1548123.3, 1.5942807, 0.00005021567, 0.00010692721, -1534207.0, -14984.739, 0.0, 10.000212, 9.981767 
3.5150102e+3, 1.5495911e+2, -1436481.0, -1450800.4, 0.985331, 0.000050082665, -0.00004609144, -1436481.0, -15080.208, 0.0, 10.000212, 9.981235 
3.5150102e+3, 1.6493425e+2, -1348432.5, -1371934.1, 2.3534276, 0.000049929866, 0.00004951578, -1348432.5, -24788.064, 0.0, 10.000211, 9.969149 
3.51501e+3, 1.7490344e+2, -1250476.0, -1274293.3, 1.6494527, 0.000049756956, -0.00006361865, -1250476.0, -24529.701, 0.0, 10.000211, 9.968735 
3.51501e+3, 1.84866e+2, -1162395.8, -1195703.4, 2.7278981, 0.000049687853, 0.00007880571, -1162395.8, -34082.43, 0.0, 10.000211, 9.956297 
3.51501e+3, 1.9482234e+2, -1064247.5, -1097817.5, 2.082983, 0.00004972722, -0.00004839753, -1064247.5, -33506.285, 0.0, 10.000211, 9.955954 
3.51501e+3, 2.0477201e+2, -976084.7, -1019421.2, 3.0262196, 0.000049666287, 0.000075935044, -976084.7, -42850.26, 0.0, 10.00021, 9.943192 
3.51501e+3, 2.1471523e+2, -877798.75, -921397.1, 2.3058114, 0.000049496775, -0.00011820592, -877798.75, -42007.97, 0.0, 10.00021, 9.94285 
3.51501e+3, 2.2465177e+2, -789513.56, -843133.44, 2.9838767, 0.00004939286, 0.00012950494, -789513.56, -51100.793, 0.0, 10.00021, 9.929809 
3.51501e+3, 2.3458163e+2, -691081.1, -744956.06, 2.2996626, 0.000049363156, -0.000081051025, -691081.1, -49981.17, 0.0, 10.00021, 9.929478 
3.51501e+3, 2.4450456e+2, -602758.2, -667010.0, 2.770487, 0.00004936143, 0.00008187683, -602758.2, -58902.875, 0.0, 10.00021, 9.916037 
3.51501e+3, 2.5442073e+2, -504006.75, -568335.75, 2.0763495, 0.000049393, -0.00009985806, -504006.75, -57329.805, 0.0, 10.00021, 9.915936 
3.51501e+3, 2.643298e+2, -415772.5, -490982.22, 2.4143553, 0.000049344115, 0.00014708079, -415772.5, -66204.48, 0.0, 10.00021, 9.901865 
3.51501e+3, 2.742322e+2, -316488.28, -391370.2, 1.6861086, 0.000049192775, -0.00019748115, -316488.28, -63963.926, 0.0, 10.00021, 9.902285 
3.51501e+3, 2.841264e+2, -230014.88, -318076.22, 1.7863834, 0.00004911656, 0.00023464812, -230014.88, -74453.586, 0.0, 10.00021, 9.88534 
3.51501e+3, 2.9401278e+2, -130309.79, -217760.97, 1.0409558, 0.00004914356, -0.00024787823, -130309.79, -71635.12, 0.0, 10.00021, 9.886118 
3.51501e+3, 3.0392712e+2, -40570.656, -84752.78, 0.8242143, 0.00004916134, 0.00017803465, -40570.656, -40570.656, 0.0, 10.00021, 9.94207 
3.51501e+3, 3.138711e+2, -39493.16, -82514.55, 0.053645197, 0.000049164457, -0.000051447554, -39493.16, -39493.16, 0.0, 10.00021, 9.943581 
3.5250106e+3, 1.2499578e+2, -1719676.4, -1724199.0, 0.99271864, 0.000051678067, 0.000039679264, -1719676.4, -4634.916, 0.0, 10.000221, 9.994225 
3.5250106e+3, 1.349899e+2, -1622298.4, -1627411.6, 0.32499975, 0.00005126124, -0.0000848668, -1622298.4, -5199.3096, 0.0, 10.00022, 9.993442 
3.5250106e+3, 1.4497739e+2, -1534195.9, -1548119.3, 1.9599055, 0.000051013856, 0.000107686355, -1534195.9, -14974.154, 0.0, 10.000219, 9.981765 
3.5250106e+3, 1.5495916e+2, -1436470.0, -1450796.5, 1.3337723, 0.000050926417, -0.00004591862, -1436470.0, -15069.666, 0.0, 10.000219, 9.981234 
3.5250103e+3, 1.6493429e+2, -1348421.6, -1371930.6, 2.7619472, 0.000050805316, 0.000049481456, -1348421.6, -24777.693, 0.0, 10.000219, 9.969147 
3.5250103e+3, 1.7490348e+2, -1250465.1, -1274289.8, 2.0546143, 0.000050649956, -0.00006347305, -1250465.1, -24519.246, 0.0, 10.000218, 9.968733 
3.5250103e+3, 1.8486604e+2, -1162384.5, -1195699.6, 3.156829, 0.000050546278, 0.000079019934, -1162384.5, -34071.668, 0.0, 10.000218, 9.956295 
3.5250103e+3, 1.9482237e+2, -1064236.0, -1097813.6, 2.4756312, 0.00005049656, -0.000048231126, -1064236.0, -33495.168, 0.0, 10.000218, 9.955952 
3.5250103e+3, 2.0477204e+2, -976073.25, -1019417.5, 3.4462883, 0.000050437648, 0.00007607344, -976073.25, -42839.145, 0.0, 10.000218, 9.94319 
3.5250103e+3, 2.1471527e+2, -877787.4, -921393.56, 2.719383, 0.00005036876, -0.00011807407, -877787.4, -41996.957, 0.0, 10.000218, 9.942848 
3.5250103e+3, 2.246518e+2, -789502.2, -843129.8, 3.3929462, 0.00005032163, 0.00012962456, -789502.2, -51089.758, 0.0, 10.000218, 9.929807 
3.5250103e+3, 2.3458166e+2, -691069.75, -744952.56, 2.6866271, 0.00005029907, -0.0000809501, -691069.75, -49970.09, 0.0, 10.000218, 9.929476 
3.52501e+3, 2.4450459e+2, -602746.6, -667006.56, 3.135375, 0.00005026688, 0.000081985934, -602746.6, -58891.637, 0.0, 10.000218, 9.916035 
3.52501e+3, 2.5442076e+2, -503994.84, -568332.06, 2.3785794, 0.000050223134, -0.00009970871, -503994.84, -57318.152, 0.0, 10.000218, 9.915935 
3.52501e+3, 2.6432982e+2, -415760.44, -490978.63, 2.6787665, 0.000050175164, 0.00014724302, -415760.44, -66192.66, 0.0, 10.000219, 9.901863 
3.52501e+3, 2.7423224e+2, -316476.3, -391366.7, 1.926433, 0.000050121806, -0.00019734092, -316476.3, -63952.207, 0.0, 10.000219, 9.902283 
3.52501e+3, 2.8412643e+2, -230002.95, -318072.78, 2.003384, 0.000050106526, 0.0002347549, -230002.95, -74441.87, 0.0, 10.000219, 9.885338 
3.52501e+3, 2.940128e+2, -130297.8, -217757.52, 1.256702, 0.00005014333, -0.00024782037, -130297.8, -71623.305, 0.0, 10.000219, 9.886116 
3.52501e+3, 3.0392715e+2, -40558.645, -84749.516, 1.0031617, 0.00005015677, 0.00017806067, -40558.645, -40558.645, 0.0, 10.000219, 9.942067 
3.52501e+3, 3.138711e+2, -39480.8, -82511.125, 0.18755484, 0.000050134993, -0.000051427724, -39480.8, -39480.8, 0.0, 10.000219, 9.943579 
3.5350108e+3, 1.24995835e+2, -1719677.9, -1724201.9, 0.7659234, 0.000052597556, 0.00004025874, -1719677.9, -4636.9634, 0.0, 10.000221, 9.994223 
3.5350108e+3, 1.3498996e+2, -1622299.9, -1627414.5, 0.098323494, 0.000052043782, -0.00008543258, -1622299.9, -5201.323, 0.0, 10.00022, 9.99344 
3.5350108e+3, 1.4497744e+2, -1534197.3, -1548122.0, 1.7907678, 0.00005177878, 0.00010833578, -1534197.3, -14976.059, 0.0, 10.000219, 9.981763 
3.5350108e+3, 1.549592e+2, -1436471.5, -1450799.1, 1.1646054, 0.000051793482, -0.000045642748, -1436471.5, -15071.535, 0.0, 10.000219, 9.981232 
3.5350105e+3, 1.6493434e+2, -1348423.3, -1371933.6, 2.677267, 0.00005173757, 0.00004955799, -1348423.3, -24779.72, 0.0, 10.000219, 9.969145 
3.5350105e+3, 1.7490353e+2, -1250466.8, -1274292.8, 1.9703891, 0.00005160971, -0.00006341794, -1250466.8, -24521.238, 0.0, 10.000218, 9.968731 
3.5350105e+3, 1.8486609e+2, -1162386.0, -1195702.5, 3.1477668, 0.00005143687, 0.0000791397, -1162386.0, -34073.59, 0.0, 10.000218, 9.956293 
3.5350105e+3, 1.9482242e+2, -1064237.5, -1097816.5, 2.4673426, 0.000051216914, -0.000047956768, -1064237.5, -33497.055, 0.0, 10.000218, 9.95595 
3.5350105e+3, 2.0477208e+2, -976074.8, -1019420.6, 3.4331214, 0.00005116458, 0.000076337026, -976074.8, -42841.117, 0.0, 10.000218, 9.943188 
3.5350105e+3, 2.147153e+2, -877789.0, -921396.7, 2.7061481, 0.000051293646, -0.0001180002, -877789.0, -41998.89, 0.0, 10.000218, 9.942846 
3.5350105e+3, 2.2465183e+2, -789503.75, -843132.9, 3.4059482, 0.000051337036, 0.0001296227, -789503.75, -51091.637, 0.0, 10.000218, 9.929805 
3.5350102e+3, 2.345817e+2, -691071.3, -744955.56, 2.700429, 0.00005128341, -0.00008089869, -691071.3, -49971.93, 0.0, 10.000218, 9.929474 
3.5350102e+3, 2.4450463e+2, -602748.25, -667009.8, 3.2122765, 0.00005117482, 0.00008210478, -602748.25, -58893.56, 0.0, 10.000218, 9.916033 
3.5350102e+3, 2.544208e+2, -503996.44, -568335.4, 2.4584777, 0.000051000687, -0.000099505654, -503996.44, -57320.04, 0.0, 10.000218, 9.915933 
3.5350102e+3, 2.6432982e+2, -415762.06, -490981.9, 2.7067008, 0.000050962422, 0.0001474746, -415762.06, -66194.52, 0.0, 10.000219, 9.90186 
3.5350102e+3, 2.7423227e+2, -316477.9, -391369.94, 1.9508752, 0.000051097108, -0.00019715172, -316477.9, -63954.03, 0.0, 10.000219, 9.902281 
3.5350102e+3, 2.8412643e+2, -230004.52, -318076.0, 2.040936, 0.000051184074, 0.0002348506, -230004.52, -74443.65, 0.0, 10.000219, 9.885335 
3.5350102e+3, 2.940128e+2, -130299.34, -217760.73, 1.2954193, 0.000051204916, -0.00024788783, -130299.34, -71625.04, 0.0, 10.000219, 9.886114 
3.5350102e+3, 3.0392715e+2, -40560.29, -84752.945, 1.0495174, 0.000051182287, 0.00017796246, -40560.29, -40560.29, 0.0, 10.000219, 9.942065 
3.5350102e+3, 3.138711e+2, -39482.46, -82514.586, 0.23472913, 0.000051095674, -0.000051359482, -39482.46, -39482.46, 0.0, 10.000219, 9.943576 
3.545011e+3, 1.2499589e+2, -1719667.3, -1724198.0, 1.05254, 0.000053458134, 0.00004070075, -1719667.3, -4626.8, 0.0, 10.000228, 9.994221 
3.545011e+3, 1.3499e+2, -1622289.0, -1627410.5, 0.45938864, 0.0000528918, -0.000086107495, -1622289.0, -5190.869, 0.0, 10.000228, 9.993439 
3.545011e+3, 1.4497748e+2, -1534186.3, -1548118.1, 2.1917555, 0.00005262195, 0.00010894477, -1534186.3, -14965.446, 0.0, 10.000228, 9.981761 
3.5450107e+3, 1.5495925e+2, -1436460.1, -1450795.3, 1.4666395, 0.00005263935, -0.000045361012, -1436460.1, -15060.689, 0.0, 10.000227, 9.98123 
3.5450107e+3, 1.6493438e+2, -1348411.9, -1371929.8, 3.0085704, 0.000052593663, 0.00004964875, -1348411.9, -24768.762, 0.0, 10.000227, 9.969143 
3.5450107e+3, 1.7490359e+2, -1250455.3, -1274289.0, 2.3266795, 0.000052483723, -0.00006337891, -1250455.3, -24510.209, 0.0, 10.000227, 9.96873 
3.5450107e+3, 1.8486612e+2, -1162374.6, -1195698.8, 3.5598788, 0.00005232613, 0.00007922075, -1162374.6, -34062.52, 0.0, 10.000227, 9.956291 
3.5450107e+3, 1.9482245e+2, -1064225.9, -1097812.8, 2.8012326, 0.000052118638, -0.000047735746, -1064225.9, -33485.87, 0.0, 10.000227, 9.955948 
3.5450107e+3, 2.0477211e+2, -976063.1, -1019416.9, 3.7371573, 0.000052071107, 0.00007656228, -976063.1, -42829.8, 0.0, 10.000227, 9.943186 
3.5450107e+3, 2.1471533e+2, -877777.2, -921392.9, 3.0375497, 0.00005219669, -0.00011791762, -877777.2, -41987.44, 0.0, 10.000227, 9.942844 
3.5450104e+3, 2.2465187e+2, -789491.8, -843129.2, 3.767096, 0.00005223477, 0.00012966957, -789491.8, -51080.043, 0.0, 10.000227, 9.929803 
3.5450104e+3, 2.3458174e+2, -691059.1, -744951.75, 3.008477, 0.00005217376, -0.00008076647, -691059.1, -49960.098, 0.0, 10.000228, 9.929472 
3.5450104e+3, 2.4450466e+2, -602736.06, -667006.1, 3.513621, 0.000052081006, 0.000082262224, -602736.06, -58881.664, 0.0, 10.000228, 9.91603 
3.5450104e+3, 2.5442082e+2, -503984.28, -568331.7, 2.732245, 0.00005195043, -0.00009939488, -503984.28, -57308.14, 0.0, 10.000228, 9.915931 
3.5450104e+3, 2.6432985e+2, -415749.8, -490978.28, 2.9222775, 0.000051940307, 0.00014756547, -415749.8, -66182.53, 0.0, 10.000228, 9.901858 
3.5450104e+3, 2.7423227e+2, -316465.53, -391366.28, 2.1449702, 0.000052083466, -0.0001970465, -316465.53, -63941.887, 0.0, 10.000228, 9.902278 
3.5450104e+3, 2.8412646e+2, -229991.95, -318072.28, 2.236548, 0.000052175907, 0.00023494015, -229991.95, -74431.29, 0.0, 10.000229, 9.885333 
3.5450104e+3, 2.9401284e+2, -130286.586, -217756.95, 1.4736102, 0.000052198226, -0.00024785523, -130286.586, -71612.47, 0.0, 10.000229, 9.886112 
3.5450104e+3, 3.0392718e+2, -40547.633, -84749.54, 1.1753072, 0.00005220045, 0.00017797893, -40547.633, -40547.633, 0.0, 10.000229, 9.942062 
3.5450104e+3, 3.1387112e+2, -39469.688, -82511.16, 0.277113, 0.000052173404, -0.000051298077, -39469.688, -39469.688, 0.0, 10.00023, 9.943574 
3.5550112e+3, 1.2499594e+2, -1719668.5, -1724200.6, 0.9034189, 0.000054260086, 0.000041033043, -1719668.5, -4628.6846, 0.0, 10.000228, 9.99422 
3.5550112e+3, 1.3499005e+2, -1622290.3, -1627413.1, 0.31016746, 0.00005380504, -0.00008689108, -1622290.3, -5192.726, 0.0, 10.000228, 9.993437 
3.5550112e+3, 1.4497754e+2, -1534187.9, -1548121.3, 2.0863137, 0.00005354305, 0.00010951353, -1534187.9, -14967.589, 0.0, 10.000228, 9.981759 
3.555011e+3, 1.5495929e+2, -1436461.8, -1450798.4, 1.3612579, 0.000053464148, -0.000045073433, -1436461.8, -15062.791, 0.0, 10.000227, 9.981228 
3.555011e+3, 1.6493443e+2, -1348413.4, -1371932.8, 2.9510853, 0.000053373966, 0.000049753653, -1348413.4, -24770.746, 0.0, 10.000227, 9.969141 
3.555011e+3, 1.7490363e+2, -1250456.8, -1274291.9, 2.2694235, 0.00005327239, -0.0000633559, -1250456.8, -24512.158, 0.0, 10.000227, 9.968728 
3.555011e+3, 1.8486616e+2, -1162376.3, -1195702.0, 3.5890894, 0.00005321411, 0.000079263235, -1162376.3, -34064.62, 0.0, 10.000227, 9.956289 
3.555011e+3, 1.9482249e+2, -1064227.5, -1097816.0, 2.8314328, 0.00005320101, -0.00004756784, -1064227.5, -33487.934, 0.0, 10.000227, 9.955946 
3.555011e+3, 2.0477216e+2, -976064.7, -1019419.94, 3.767003, 0.00005315652, 0.000076749355, -976064.7, -42831.73, 0.0, 10.000227, 9.943184 
3.555011e+3, 2.1471538e+2, -877778.7, -921395.9, 3.067308, 0.000053078027, -0.000117826356, -877778.7, -41989.33, 0.0, 10.000227, 9.9428425 
3.555011e+3, 2.246519e+2, -789493.44, -843132.44, 3.8501692, 0.00005301536, 0.00012976499, -789493.44, -51082.04, 0.0, 10.000227, 9.929801 
3.555011e+3, 2.3458177e+2, -691060.8, -744955.0, 3.093253, 0.00005297057, -0.00008055377, -691060.8, -49962.06, 0.0, 10.000228, 9.929469 
3.555011e+3, 2.4450469e+2, -602737.75, -667009.5, 3.6066916, 0.000052985502, 0.000082458115, -602737.75, -58883.652, 0.0, 10.000228, 9.916028 
3.555011e+3, 2.5442085e+2, -503985.94, -568335.06, 2.8257632, 0.000053071693, -0.00009937601, -503985.94, -57310.086, 0.0, 10.000228, 9.915928 
3.555011e+3, 2.6432988e+2, -415751.47, -490981.63, 2.999978, 0.000053108066, 0.00014751624, -415751.47, -66184.44, 0.0, 10.000228, 9.901856 
3.555011e+3, 2.742323e+2, -316467.16, -391369.63, 2.2215338, 0.000053080876, -0.00019702488, -316467.16, -63943.746, 0.0, 10.000228, 9.902276 
3.555011e+3, 2.841265e+2, -229993.56, -318075.6, 2.340387, 0.000053082433, 0.00023502356, -229993.56, -74433.11, 0.0, 10.000229, 9.885331 
3.555011e+3, 2.9401287e+2, -130288.17, -217760.25, 1.5797964, 0.00005312359, -0.00024772302, -130288.17, -71614.25, 0.0, 10.000229, 9.886109 
3.555011e+3, 3.0392718e+2, -40549.42, -84753.266, 1.2606534, 0.000053211337, 0.00017810965, -40549.42, -40549.42, 0.0, 10.000229, 9.94206 
3.555011e+3, 3.1387112e+2, -39471.504, -82514.94, 0.36003786, 0.000053367763, -0.00005124349, -39471.504, -39471.504, 0.0, 10.00023, 9.943571 
3.5650116e+3, 1.2499599e+2, -1719657.4, -1724196.5, 1.2712834, 0.00005492293, 0.000041210664, -1719657.4, -4617.972, 0.0, 10.0002365, 9.994218 
3.5650116e+3, 1.3499011e+2, -1622279.1, -1627409.1, 0.56004643, 0.000054646214, -0.0000875155, -1622279.1, -5182.0303, 0.0, 10.000236, 9.993435 
3.5650116e+3, 1.4497758e+2, -1534176.6, -1548117.6, 2.3547893, 0.00005446305, 0.00011028696, -1534176.6, -14956.921, 0.0, 10.000236, 9.981757 
3.5650113e+3, 1.5495935e+2, -1436450.4, -1450794.6, 1.6233275, 0.000054362776, -0.000044867167, -1436450.4, -15051.819, 0.0, 10.000236, 9.981226 
3.5650113e+3, 1.6493449e+2, -1348401.6, -1371928.6, 3.2458513, 0.00005424551, 0.000049729813, -1348401.6, -24759.41, 0.0, 10.000236, 9.969139 
3.5650113e+3, 1.7490366e+2, -1250444.8, -1274287.8, 2.5500977, 0.000054111013, -0.00006326576, -1250444.8, -24500.58, 0.0, 10.000236, 9.968726 
3.5650113e+3, 1.848662e+2, -1162364.3, -1195698.3, 3.9128978, 0.00005409312, 0.0000793934, -1162364.3, -34053.105, 0.0, 10.000236, 9.956287 
3.5650113e+3, 1.9482253e+2, -1064215.8, -1097812.3, 3.1585178, 0.00005419706, -0.000047475038, -1064215.8, -33476.496, 0.0, 10.000236, 9.955944 
3.5650113e+3, 2.0477219e+2, -976052.7, -1019416.06, 4.116575, 0.000054167715, 0.0000768186, -976052.7, -42820.1, 0.0, 10.000236, 9.943182 
3.565011e+3, 2.147154e+2, -877766.3, -921391.9, 3.3407185, 0.000053994085, -0.000117765696, -877766.3, -41977.297, 0.0, 10.0002365, 9.942841 
3.565011e+3, 2.2465193e+2, -789480.94, -843128.5, 4.081419, 0.000053900098, 0.00012986264, -789480.94, -51069.84, 0.0, 10.0002365, 9.929798 
3.565011e+3, 2.345818e+2, -691048.2, -744951.1, 3.2909572, 0.000053896212, -0.00008036757, -691048.2, -49949.793, 0.0, 10.0002365, 9.929467 
3.565011e+3, 2.4450472e+2, -602725.2, -667005.6, 3.8016841, 0.000053969, 0.00008261695, -602725.2, -58871.336, 0.0, 10.000237, 9.916026 
3.565011e+3, 2.5442088e+2, -503973.38, -568331.25, 3.063168, 0.0000541332, -0.000099382974, -503973.38, -57297.805, 0.0, 10.000237, 9.915926 
3.565011e+3, 2.6432994e+2, -415738.84, -490977.94, 3.2700663, 0.00005417921, 0.00014744824, -415738.84, -66172.055, 0.0, 10.000237, 9.901854 
3.565011e+3, 2.7423233e+2, -316454.13, -391365.78, 2.4181597, 0.00005407464, -0.00019702033, -316454.13, -63930.926, 0.0, 10.000238, 9.902274 
3.565011e+3, 2.841265e+2, -229980.22, -318071.66, 2.432078, 0.000054051838, 0.00023511512, -229980.22, -74419.984, 0.0, 10.000238, 9.885328 
3.565011e+3, 2.9401287e+2, -130274.766, -217756.33, 1.5594814, 0.000054141565, -0.00024752528, -130274.766, -71601.04, 0.0, 10.000239, 9.886107 
3.565011e+3, 3.039272e+2, -40536.16, -84749.67, 1.1584641, 0.00005428049, 0.00017829584, -40536.16, -40536.16, 0.0, 10.000239, 9.942058 
3.565011e+3, 3.1387115e+2, -39458.13, -82511.32, 0.26646757, 0.00005449124, -0.000051243664, -39458.13, -39458.13, 0.0, 10.000239, 9.943568 
3.5750118e+3, 1.2499605e+2, -1719659.0, -1724199.6, 1.1289612, 0.000055447326, 0.000041267493, -1719659.0, -4620.1416, 0.0, 10.0002365, 9.994216 
3.5750118e+3, 1.3499016e+2, -1622280.8, -1627412.1, 0.41775492, 0.000055415683, -0.000087981476, -1622280.8, -5184.1694, 0.0, 10.000236, 9.993433 
3.5750115e+3, 1.4497763e+2, -1534178.4, -1548120.8, 2.329084, 0.00005538199, 0.00011126415, -1534178.4, -14959.09, 0.0, 10.000236, 9.981755 
3.5750115e+3, 1.549594e+2, -1436452.0, -1450797.6, 1.5978241, 0.000055334946, -0.00004474186, -1436452.0, -15053.943, 0.0, 10.000236, 9.981224 
3.5750115e+3, 1.6493453e+2, -1348403.1, -1371931.6, 3.2570896, 0.00005520793, 0.000049577797, -1348403.1, -24761.434, 0.0, 10.000236, 9.969138 
3.5750115e+3, 1.749037e+2, -1250446.3, -1274290.6, 2.5614703, 0.00005499942, -0.0000631088, -1250446.3, -24502.568, 0.0, 10.000236, 9.968724 
3.5750115e+3, 1.8486625e+2, -1162366.0, -1195701.5, 3.9347062, 0.000054963253, 0.00007961086, -1162366.0, -34055.21, 0.0, 10.000236, 9.9562845 
3.5750115e+3, 1.9482256e+2, -1064217.4, -1097815.5, 3.1803904, 0.0000551072, -0.00004745701, -1064217.4, -33478.563, 0.0, 10.000236, 9.955942 
3.5750115e+3, 2.0477223e+2, -976054.4, -1019419.4, 4.2533937, 0.000055105054, 0.000076770535, -976054.4, -42822.19, 0.0, 10.000236, 9.943179 
3.5750112e+3, 2.1471545e+2, -877768.0, -921395.2, 3.479905, 0.00005494477, -0.0001177355, -877768.0, -41979.35, 0.0, 10.0002365, 9.942839 
3.5750112e+3, 2.2465198e+2, -789482.6, -843131.94, 4.1963506, 0.000054888587, 0.00012996253, -789482.6, -51071.91, 0.0, 10.0002365, 9.929796 
3.5750112e+3, 2.3458183e+2, -691049.94, -744954.5, 3.405052, 0.000054950193, -0.00008020775, -691049.94, -49951.82, 0.0, 10.0002365, 9.929465 
3.5750112e+3, 2.4450475e+2, -602726.75, -667008.9, 3.899815, 0.000055031207, 0.000082738894, -602726.75, -58873.246, 0.0, 10.000237, 9.916024 
3.5750112e+3, 2.544209e+2, -503974.97, -568334.44, 3.160477, 0.000055135253, -0.00009941564, -503974.97, -57299.668, 0.0, 10.000237, 9.915924 
3.5750112e+3, 2.6432997e+2, -415740.63, -490981.56, 3.4666479, 0.000055154203, 0.00014736157, -415740.63, -66174.1, 0.0, 10.000237, 9.901852 
3.5750112e+3, 2.7423236e+2, -316455.88, -391369.4, 2.6213336, 0.00005506484, -0.00019703274, -316455.88, -63932.938, 0.0, 10.000238, 9.902271 
3.5750112e+3, 2.8412652e+2, -229982.03, -318075.4, 2.5799892, 0.000055083914, 0.00023521479, -229982.03, -74422.016, 0.0, 10.000238, 9.885326 
3.5750112e+3, 2.940129e+2, -130276.56, -217760.06, 1.702448, 0.000055251818, -0.0002472624, -130276.56, -71603.016, 0.0, 10.000239, 9.886105 
3.5750112e+3, 3.039272e+2, -40537.95, -84753.41, 1.2773141, 0.000055407705, 0.00017853726, -40537.95, -40537.95, 0.0, 10.000239, 9.942056 
3.5750112e+3, 3.1387115e+2, -39459.92, -82515.055, 0.3825363, 0.000055544202, -0.000051298368, -39459.92, -39459.92, 0.0, 10.000239, 9.943566 
3.585012e+3, 1.2499611e+2, -1719647.5, -1724195.6, 1.2064472, 0.000056068795, 0.00004159086, -1719647.5, -4609.207, 0.0, 10.000244, 9.994214 
3.585012e+3, 1.3499022e+2, -1622269.1, -1627408.3, 0.4777672, 0.000056200497, -0.00008842671, -1622269.1, -5173.109, 0.0, 10.000244, 9.993431 
3.5850117e+3, 1.4497769e+2, -1534166.8, -1548116.8, 2.4996128, 0.000056273726, 0.00011214455, -1534166.8, -14947.952, 0.0, 10.000244, 9.981753 
3.5850117e+3, 1.5495944e+2, -1436440.4, -1450793.8, 1.8063037, 0.000056276785, -0.000044754335, -1436440.4, -15042.811, 0.0, 10.000244, 9.981222 
3.5850117e+3, 1.6493458e+2, -1348391.4, -1371927.8, 3.542962, 0.00005616145, 0.00004929946, -1348391.4, -24750.139, 0.0, 10.000244, 9.969136 
3.5850117e+3, 1.7490375e+2, -1250434.3, -1274286.6, 2.8009505, 0.00005592543, -0.00006301313, -1250434.3, -24490.922, 0.0, 10.000244, 9.968722 
3.5850117e+3, 1.8486631e+2, -1162353.6, -1195697.5, 4.14058, 0.000055862438, 0.00007985954, -1162353.6, -34043.324, 0.0, 10.000244, 9.956283 
3.5850117e+3, 1.9482261e+2, -1064204.8, -1097811.4, 3.3363833, 0.000055980272, -0.0000472864, -1064204.8, -33466.293, 0.0, 10.000245, 9.955939 
3.5850117e+3, 2.0477228e+2, -976041.56, -1019415.25, 4.4440145, 0.00005601468, 0.000076860604, -976041.56, -42809.766, 0.0, 10.000245, 9.943177 
3.5850114e+3, 2.1471548e+2, -877755.3, -921391.1, 3.6822329, 0.000055958764, -0.00011772858, -877755.3, -41967.047, 0.0, 10.000245, 9.942837 
3.5850114e+3, 2.24652e+2, -789470.06, -843128.1, 4.394351, 0.000055953067, 0.00012995217, -789470.06, -51059.676, 0.0, 10.000246, 9.929794 
3.5850114e+3, 2.3458186e+2, -691037.2, -744950.6, 3.556769, 0.000056004163, -0.0000801609, -691037.2, -49939.41, 0.0, 10.000246, 9.929462 
3.5850114e+3, 2.4450478e+2, -602713.6, -667004.7, 4.020368, 0.000056052868, 0.00008281998, -602713.6, -58860.426, 0.0, 10.000247, 9.916021 
3.5850114e+3, 2.544209e+2, -503961.38, -568330.1, 3.2244945, 0.000056098634, -0.000099327845, -503961.38, -57286.367, 0.0, 10.000247, 9.915922 
3.5850114e+3, 2.6433e+2, -415727.0, -490977.56, 3.513693, 0.00005613377, 0.00014743021, -415727.0, -66160.74, 0.0, 10.000248, 9.901849 
3.5850114e+3, 2.742324e+2, -316442.34, -391365.5, 2.6197243, 0.000056155375, -0.00019701614, -316442.34, -63919.633, 0.0, 10.000249, 9.902269 
3.5850114e+3, 2.8412655e+2, -229968.45, -318071.5, 2.5235593, 0.000056228535, 0.00023522595, -229968.45, -74408.63, 0.0, 10.000249, 9.885324 
3.5850114e+3, 2.940129e+2, -130262.86, -217756.13, 1.6625476, 0.000056372275, -0.00024719277, -130262.86, -71589.49, 0.0, 10.00025, 9.886103 
3.5850114e+3, 3.0392724e+2, -40524.125, -84749.484, 1.2647392, 0.000056508256, 0.00017856181, -40524.125, -40524.125, 0.0, 10.00025, 9.942053 
3.5850114e+3, 3.1387118e+2, -39445.723, -82510.96, 0.4107678, 0.000056631874, -0.00005147298, -39445.723, -39445.723, 0.0, 10.000251, 9.943563 
3.595012e+3, 1.2499616e+2, -1719649.1, -1724198.8, 1.1040531, 0.000056786917, 0.00004221703, -1719649.1, -4611.426, 0.0, 10.000244, 9.994212 
3.595012e+3, 1.3499026e+2, -1622270.8, -1627411.4, 0.37552986, 0.00005700062, -0.00008885133, -1622270.8, -5175.2925, 0.0, 10.000244, 9.993429 
3.5950118e+3, 1.4497773e+2, -1534168.3, -1548119.8, 2.4810648, 0.00005713844, 0.00011292863, -1534168.3, -14950.038, 0.0, 10.000244, 9.981751 
3.5950118e+3, 1.5495948e+2, -1436441.9, -1450796.8, 1.7879303, 0.00005718848, -0.000044903954, -1436441.9, -15044.854, 0.0, 10.000244, 9.98122 
3.5950118e+3, 1.6493462e+2, -1348393.1, -1371930.9, 3.6493547, 0.000057106154, 0.00004889538, -1348393.1, -24752.27, 0.0, 10.000244, 9.969133 
3.5950118e+3, 1.749038e+2, -1250435.9, -1274289.8, 2.9078243, 0.000056888915, -0.000062978506, -1250435.9, -24493.016, 0.0, 10.000244, 9.96872 
3.5950118e+3, 1.8486635e+2, -1162355.5, -1195700.9, 4.2656713, 0.00005679059, 0.00008013933, -1162355.5, -34045.54, 0.0, 10.000244, 9.956281 
3.5950118e+3, 1.9482267e+2, -1064206.5, -1097814.8, 3.4616356, 0.0000568165, -0.0000469639, -1064206.5, -33468.47, 0.0, 10.000245, 9.955937 
3.5950118e+3, 2.0477231e+2, -976043.25, -1019418.5, 4.565412, 0.000056896773, 0.000077088174, -976043.25, -42811.84, 0.0, 10.000245, 9.943175 
3.5950118e+3, 2.1471553e+2, -877757.0, -921394.44, 3.8035884, 0.000057035835, -0.00011774485, -877757.0, -41969.08, 0.0, 10.000245, 9.942834 
3.5950118e+3, 2.2465204e+2, -789471.9, -843131.7, 4.56327, 0.000057093224, 0.00012983204, -789471.9, -51061.84, 0.0, 10.000246, 9.929791 
3.5950118e+3, 2.3458189e+2, -691039.0, -744954.25, 3.727155, 0.000057058172, -0.00008022651, -691039.0, -49941.53, 0.0, 10.000246, 9.929461 
3.5950118e+3, 2.4450481e+2, -602715.4, -667008.2, 4.247424, 0.00005703422, 0.000082860366, -602715.4, -58862.45, 0.0, 10.000247, 9.916019 
3.5950118e+3, 2.5442094e+2, -503963.1, -568333.56, 3.4541724, 0.000057023586, -0.00009912013, -503963.1, -57288.348, 0.0, 10.000247, 9.915919 
3.5950118e+3, 2.6433003e+2, -415728.9, -490981.4, 3.7206311, 0.00005711796, 0.00014765344, -415728.9, -66162.88, 0.0, 10.000248, 9.901847 
3.5950118e+3, 2.742324e+2, -316444.22, -391369.34, 2.8252923, 0.000057345856, -0.00019697065, -316444.22, -63921.74, 0.0, 10.000249, 9.9022665 
3.5950118e+3, 2.8412658e+2, -229970.23, -318075.2, 2.7190301, 0.000057485246, 0.000235149, -229970.23, -74410.625, 0.0, 10.000249, 9.885322 
3.5950118e+3, 2.9401293e+2, -130264.61, -217759.78, 1.8569932, 0.000057502937, -0.00024731562, -130264.61, -71591.43, 0.0, 10.00025, 9.8861 
3.5950118e+3, 3.0392724e+2, -40525.84, -84753.06, 1.4766915, 0.00005758231, 0.00017837046, -40525.84, -40525.84, 0.0, 10.00025, 9.94205 
3.5950118e+3, 3.1387118e+2, -39447.438, -82514.53, 0.6246109, 0.00005775418, -0.000051766958, -39447.438, -39447.438, 0.0, 10.000251, 9.943562 
3.6050126e+3, 1.24996215e+2, -1719638.4, -1724195.1, 1.0702788, 0.000057813682, 0.00004272577, -1719638.4, -4601.2285, 0.0, 10.000252, 9.99421 
3.6050126e+3, 1.349903e+2, -1622259.4, -1627407.4, 0.42347568, 0.0000579147, -0.00008939817, -1622259.4, -5164.4155, 0.0, 10.000252, 9.993427 
3.6050123e+3, 1.449778e+2, -1534156.3, -1548115.4, 2.6617072, 0.00005795883, 0.00011364868, -1534156.3, -14938.512, 0.0, 10.000252, 9.98175 
3.6050123e+3, 1.5495954e+2, -1436429.4, -1450792.1, 2.016345, 0.000057934118, -0.00004504535, -1436429.4, -15032.789, 0.0, 10.000253, 9.981218 
3.6050123e+3, 1.6493466e+2, -1348380.6, -1371926.8, 3.8943048, 0.000057909107, 0.000048567195, -1348380.6, -24740.266, 0.0, 10.000253, 9.969131 
3.6050123e+3, 1.7490384e+2, -1250423.5, -1274285.8, 3.0275373, 0.000057883924, -0.00006280498, -1250423.5, -24481.084, 0.0, 10.000253, 9.968718 
3.6050123e+3, 1.8486638e+2, -1162343.1, -1195697.0, 4.352902, 0.000057856534, 0.00008045197, -1162343.1, -34033.58, 0.0, 10.000254, 9.956279 
3.6050123e+3, 1.9482271e+2, -1064193.9, -1097810.9, 3.5068474, 0.00005782673, -0.00004689129, -1064193.9, -33456.28, 0.0, 10.000254, 9.9559355 
3.6050123e+3, 2.0477235e+2, -976030.25, -1019414.2, 4.6155314, 0.000057866913, 0.0000770754, -976030.25, -42799.21, 0.0, 10.000255, 9.943173 
3.605012e+3, 2.1471556e+2, -877743.6, -921389.94, 3.8790364, 0.000057982816, -0.000117675576, -877743.6, -41956.074, 0.0, 10.000255, 9.942832 
3.605012e+3, 2.2465207e+2, -789458.5, -843127.6, 4.646329, 0.0000580507, 0.0001298923, -789458.5, -51048.79, 0.0, 10.000256, 9.92979 
3.605012e+3, 2.3458192e+2, -691025.4, -744950.1, 3.7388148, 0.00005806421, -0.00008027833, -691025.4, -49928.28, 0.0, 10.000257, 9.929459 
3.605012e+3, 2.4450484e+2, -602701.7, -667003.94, 4.2051907, 0.000058087215, 0.00008283878, -602701.7, -58849.04, 0.0, 10.000257, 9.916018 
3.605012e+3, 2.5442097e+2, -503949.47, -568329.4, 3.3263948, 0.000058121586, -0.000098941484, -503949.47, -57274.996, 0.0, 10.0002575, 9.915917 
3.605012e+3, 2.6433003e+2, -415715.2, -490977.28, 3.611077, 0.000058268462, 0.00014780577, -415715.2, -66149.44, 0.0, 10.000258, 9.901844 
3.605012e+3, 2.7423242e+2, -316430.3, -391365.16, 2.8402514, 0.000058558417, -0.00019713322, -316430.3, -63908.05, 0.0, 10.000258, 9.902265 
3.605012e+3, 2.8412658e+2, -229956.13, -318071.13, 2.773712, 0.000058687132, 0.00023484434, -229956.13, -74396.71, 0.0, 10.000259, 9.885319 
3.605012e+3, 2.9401296e+2, -130250.11, -217755.58, 1.8098401, 0.0000585946, -0.00024752464, -130250.11, -71577.1, 0.0, 10.00026, 9.886097 
3.605012e+3, 3.0392727e+2, -40511.16, -84748.91, 1.293057, 0.000058612808, 0.00017832377, -40511.16, -40511.16, 0.0, 10.000261, 9.942048 
3.605012e+3, 3.138712e+2, -39432.56, -82510.28, 0.2802913, 0.00005879728, -0.000051554543, -39432.56, -39432.56, 0.0, 10.000262, 9.943559 
3.6150128e+3, 1.24996275e+2, -1719639.9, -1724197.9, 1.1364533, 0.00005914757, 0.00004316497, -1719639.9, -4603.255, 0.0, 10.000252, 9.994208 
3.6150128e+3, 1.3499036e+2, -1622260.9, -1627410.1, 0.48957095, 0.00005894222, -0.00009006666, -1622260.9, -5166.412, 0.0, 10.000252, 9.993425 
3.6150128e+3, 1.4497784e+2, -1534157.8, -1548118.1, 2.7796328, 0.00005873514, 0.00011430503, -1534157.8, -14940.492, 0.0, 10.000252, 9.981749 
3.6150125e+3, 1.5495959e+2, -1436430.8, -1450794.9, 2.1342075, 0.00005851453, -0.000045178564, -1436430.8, -15034.731, 0.0, 10.000253, 9.981216 
3.6150125e+3, 1.6493472e+2, -1348382.5, -1371930.5, 3.995859, 0.00005857104, 0.000048314538, -1348382.5, -24742.676, 0.0, 10.000253, 9.96913 
3.6150125e+3, 1.7490388e+2, -1250425.4, -1274289.4, 3.1290467, 0.00005891037, -0.000062493236, -1250425.4, -24483.455, 0.0, 10.000253, 9.968716 
3.6150125e+3, 1.8486643e+2, -1162345.0, -1195700.6, 4.541269, 0.000059059657, 0.000080797305, -1162345.0, -34035.883, 0.0, 10.000254, 9.956276 
3.6150125e+3, 1.9482274e+2, -1064195.8, -1097814.4, 3.69635, 0.000059010174, -0.000047067406, -1064195.8, -33458.54, 0.0, 10.000254, 9.955933 
3.6150125e+3, 2.0477238e+2, -976031.9, -1019417.4, 4.839483, 0.00005892473, 0.00007682341, -976031.9, -42801.227, 0.0, 10.000255, 9.9431715 
3.6150125e+3, 2.1471559e+2, -877745.25, -921393.1, 4.103383, 0.000058800375, -0.00011752118, -877745.25, -41958.05, 0.0, 10.000255, 9.94283 
3.6150122e+3, 2.2465211e+2, -789460.44, -843131.5, 4.880012, 0.000058826423, 0.0001301321, -789460.44, -51051.094, 0.0, 10.000256, 9.929787 
3.6150122e+3, 2.3458198e+2, -691027.4, -744954.0, 3.972904, 0.00005902257, -0.00008031643, -691027.4, -49930.547, 0.0, 10.000257, 9.929456 
3.6150122e+3, 2.4450487e+2, -602703.56, -667007.75, 4.4340224, 0.00005921158, 0.00008275549, -602703.56, -58851.23, 0.0, 10.000257, 9.916015 
3.6150122e+3, 2.54421e+2, -503951.34, -568333.2, 3.5549486, 0.000059391874, -0.00009879179, -503951.34, -57277.137, 0.0, 10.0002575, 9.915915 
3.6150122e+3, 2.6433006e+2, -415716.88, -490980.66, 3.8892891, 0.00005958455, 0.0001478875, -415716.88, -66151.35, 0.0, 10.000258, 9.901842 
3.6150122e+3, 2.7423245e+2, -316431.94, -391368.5, 3.12169, 0.000059793012, -0.00019750289, -316431.94, -63909.906, 0.0, 10.000258, 9.902262 
3.6150122e+3, 2.841266e+2, -229958.08, -318075.16, 3.0893254, 0.00005983451, 0.00023431305, -229958.08, -74398.86, 0.0, 10.000259, 9.885316 
3.6150122e+3, 2.9401296e+2, -130252.06, -217759.64, 2.1284225, 0.000059647522, -0.00024781947, -130252.06, -71579.23, 0.0, 10.00026, 9.886095 
3.6150122e+3, 3.0392727e+2, -40513.16, -84753.08, 1.565034, 0.00005960002, 0.00017842105, -40513.16, -40513.16, 0.0, 10.000261, 9.942045 
3.6150122e+3, 3.138712e+2, -39434.566, -82514.48, 0.5465843, 0.000059761605, -0.00005083812, -39434.566, -39434.566, 0.0, 10.000262, 9.943556 
3.625013e+3, 1.2499633e+2, -1719628.5, -1724193.9, 1.3775721, 0.000060159568, 0.000043344586, -1719628.5, -4592.4624, 0.0, 10.000259, 9.994206 
3.625013e+3, 1.3499042e+2, -1622249.0, -1627406.0, 0.6211464, 0.000059834878, -0.00009095844, -1622249.0, -5155.1084, 0.0, 10.00026, 9.993423 
3.625013e+3, 1.4497791e+2, -1534145.5, -1548113.9, 2.8226604, 0.0000595909, 0.000114945615, -1534145.5, -14928.801, 0.0, 10.00026, 9.981747 
3.6250126e+3, 1.5495963e+2, -1436418.4, -1450790.5, 2.0600176, 0.00005941618, -0.00004500021, -1436418.4, -15022.761, 0.0, 10.000261, 9.981215 
3.6250126e+3, 1.6493477e+2, -1348370.1, -1371926.6, 3.8681931, 0.00005952677, 0.000048370315, -1348370.1, -24730.717, 0.0, 10.000262, 9.969127 
3.6250126e+3, 1.7490393e+2, -1250412.6, -1274285.4, 3.0263762, 0.000059928534, -0.00006221335, -1250412.6, -24471.137, 0.0, 10.000262, 9.968714 
3.6250126e+3, 1.8486647e+2, -1162331.8, -1195696.3, 4.585674, 0.00006007513, 0.00008093026, -1162331.8, -34023.1, 0.0, 10.000263, 9.956274 
3.6250126e+3, 1.9482279e+2, -1064182.3, -1097809.9, 3.8562834, 0.00005995489, -0.000047469366, -1064182.3, -33445.47, 0.0, 10.000263, 9.955931 
3.6250126e+3, 2.0477243e+2, -976018.4, -1019413.2, 4.954041, 0.00005987102, 0.00007647966, -976018.4, -42788.105, 0.0, 10.000264, 9.943169 
3.6250126e+3, 2.1471563e+2, -877731.6, -921388.9, 3.9609687, 0.000059826514, -0.00011716483, -877731.6, -41944.79, 0.0, 10.000265, 9.942828 
3.6250123e+3, 2.2465214e+2, -789446.75, -843127.3, 4.639546, 0.000059925795, 0.000130583, -789446.75, -51037.715, 0.0, 10.000266, 9.929785 
3.6250123e+3, 2.34582e+2, -691013.56, -744949.8, 3.8059213, 0.000060187667, -0.000080456164, -691013.56, -49917.05, 0.0, 10.000266, 9.929453 
3.6250123e+3, 2.445049e+2, -602689.6, -667003.56, 4.3177447, 0.00006035326, 0.00008240302, -602689.6, -58837.555, 0.0, 10.000267, 9.916012 
3.6250123e+3, 2.5442103e+2, -503937.06, -568328.9, 3.4143496, 0.000060403756, -0.00009890517, -503937.06, -57263.12, 0.0, 10.000268, 9.915913 
3.6250123e+3, 2.643301e+2, -415702.25, -490976.03, 3.7105386, 0.00006060045, 0.0001479214, -415702.25, -66136.97, 0.0, 10.000269, 9.901839 
3.6250123e+3, 2.7423248e+2, -316417.28, -391363.88, 2.8554325, 0.0000609834, -0.00019743959, -316417.28, -63895.46, 0.0, 10.00027, 9.90226 
3.6250123e+3, 2.841266e+2, -229943.55, -318071.16, 2.800352, 0.00006112502, 0.0002342928, -229943.55, -74384.53, 0.0, 10.000271, 9.885313 
3.6250123e+3, 2.94013e+2, -130237.23, -217755.58, 1.7483315, 0.000060935665, -0.00024807718, -130237.23, -71564.555, 0.0, 10.000272, 9.886092 
3.6250123e+3, 3.039273e+2, -40498.02, -84749.195, 1.0688676, 0.00006072726, 0.00017824219, -40498.02, -40498.02, 0.0, 10.000273, 9.942041 
3.6250123e+3, 3.138712e+2, -39418.52, -82510.19, -0.14406157, 0.000060493683, -0.00005046714, -39418.52, -39418.52, 0.0, 10.000275, 9.943553 
3.635013e+3, 1.2499639e+2, -1719630.3, -1724197.1, 1.5732049, 0.000060851336, 0.000043315962, -1719630.3, -4594.741, 0.0, 10.000259, 9.9942045 
3.635013e+3, 1.3499048e+2, -1622250.8, -1627409.3, 0.8169053, 0.000060593404, -0.000092072405, -1622250.8, -5157.354, 0.0, 10.00026, 9.993422 
3.635013e+3, 1.4497796e+2, -1534147.3, -1548117.1, 3.0165322, 0.00006052577, 0.00011557053, -1534147.3, -14931.044, 0.0, 10.00026, 9.981745 
3.6350128e+3, 1.549597e+2, -1436420.1, -1450793.8, 2.2536771, 0.000060637514, -0.000044511875, -1436420.0, -15024.962, 0.0, 10.000261, 9.981213 
3.6350128e+3, 1.6493481e+2, -1348372.0, -1371930.3, 4.0660605, 0.000060774877, 0.00004873294, -1348372.0, -24733.068, 0.0, 10.000262, 9.969125 
3.6350128e+3, 1.7490397e+2, -1250414.5, -1274289.0, 3.224378, 0.0000609385, -0.00006196522, -1250414.5, -24473.443, 0.0, 10.000262, 9.968711 
3.6350128e+3, 1.8486652e+2, -1162333.4, -1195699.4, 4.854574, 0.00006090394, 0.00008085186, -1162333.4, -34025.152, 0.0, 10.000263, 9.956272 
3.6350128e+3, 1.9482283e+2, -1064183.9, -1097813.0, 4.1258225, 0.00006066212, -0.00004809604, -1064183.9, -33447.48, 0.0, 10.000263, 9.955929 
3.6350128e+3, 2.0477246e+2, -976020.56, -1019417.4, 5.2262754, 0.0000607064, 0.00007604462, -976020.56, -42790.65, 0.0, 10.000264, 9.943166 
3.6350128e+3, 2.1471567e+2, -877733.75, -921393.06, 4.233106, 0.000061060266, -0.00011660755, -877733.75, -41947.297, 0.0, 10.000265, 9.942825 
3.6350128e+3, 2.2465217e+2, -789448.56, -843130.94, 4.913381, 0.00006134728, 0.00013124391, -789448.56, -51039.875, 0.0, 10.000266, 9.929782 
3.6350128e+3, 2.3458204e+2, -691015.4, -744953.4, 4.080074, 0.00006155853, -0.000080697064, -691015.4, -49919.156, 0.0, 10.000266, 9.929451 
3.6350128e+3, 2.4450493e+2, -602691.56, -667007.44, 4.6437554, 0.00006151223, 0.00008178268, -602691.56, -58839.773, 0.0, 10.000267, 9.91601 
3.6350128e+3, 2.5442106e+2, -503938.97, -568332.75, 3.7425718, 0.000061158564, -0.00009928034, -503938.97, -57265.297, 0.0, 10.000268, 9.91591 
3.6350128e+3, 2.6433012e+2, -415704.06, -490979.78, 4.021697, 0.0000613177, 0.00014790765, -415704.06, -66139.04, 0.0, 10.000269, 9.901837 
3.6350128e+3, 2.7423248e+2, -316419.1, -391367.56, 3.1651678, 0.00006212987, -0.00019694549, -316419.1, -63897.48, 0.0, 10.00027, 9.902257 
3.6350128e+3, 2.8412664e+2, -229945.69, -318075.56, 3.2195065, 0.00006255804, 0.0002347811, -229945.69, -74386.86, 0.0, 10.000271, 9.88531 
3.6350128e+3, 2.94013e+2, -130239.36, -217760.02, 2.1778696, 0.00006245793, -0.00024829805, -130239.36, -71566.85, 0.0, 10.000272, 9.886089 
3.6350128e+3, 3.039273e+2, -40500.37, -84754.09, 1.5694942, 0.00006199391, 0.00017778852, -40500.37, -40500.37, 0.0, 10.000273, 9.942039 
3.6350128e+3, 3.1387123e+2, -39420.9, -82515.14, 0.3650442, 0.000060994746, -0.000050439983, -39420.9, -39420.9, 0.0, 10.000275, 9.943549 
3.6450136e+3, 1.24996446e+2, -1719617.6, -1724192.6, 1.5774078, 0.00006141011, 0.000043562046, -1719617.6, -4582.612, 0.0, 10.000269, 9.994203 
3.6450136e+3, 1.3499053e+2, -1622238.5, -1627404.9, 0.85165447, 0.000061434825, -0.000093060604, -1622238.5, -5145.5454, 0.0, 10.000269, 9.99342 
3.6450136e+3, 1.44978e+2, -1534135.3, -1548113.4, 3.0438323, 0.00006155262, 0.00011613637, -1534135.3, -14919.524, 0.0, 10.000269, 9.981742 
3.6450136e+3, 1.5495975e+2, -1436407.9, -1450789.9, 2.1179407, 0.0000617521, -0.00004432952, -1436407.9, -15013.233, 0.0, 10.00027, 9.981211 
3.6450133e+3, 1.6493486e+2, -1348359.3, -1371926.0, 3.9621994, 0.00006184962, 0.00004869374, -1348359.3, -24720.738, 0.0, 10.000271, 9.969123 
3.6450133e+3, 1.7490402e+2, -1250400.9, -1274284.4, 3.2007709, 0.00006184327, -0.00006206061, -1250400.9, -24460.318, 0.0, 10.000272, 9.968709 
3.6450133e+3, 1.8486656e+2, -1162319.3, -1195694.5, 4.815712, 0.000061777595, 0.000080714824, -1162319.3, -34011.48, 0.0, 10.000273, 9.95627 
3.6450133e+3, 1.9482286e+2, -1064169.5, -1097808.1, 3.9510815, 0.00006164982, -0.000048259593, -1064169.5, -33433.53, 0.0, 10.000274, 9.955927 
3.6450133e+3, 2.047725e+2, -976006.7, -1019413.56, 4.8610754, 0.00006179902, 0.00007604111, -976006.7, -42777.207, 0.0, 10.000275, 9.943163 
3.6450133e+3, 2.1471572e+2, -877720.2, -921389.44, 3.7410734, 0.000062247935, -0.000116249124, -877720.2, -41934.086, 0.0, 10.000276, 9.942822 
3.6450133e+3, 2.246522e+2, -789434.3, -843126.06, 4.520408, 0.00006255208, 0.00013150519, -789434.3, -51025.95, 0.0, 10.000277, 9.92978 
3.6450133e+3, 2.3458207e+2, -691000.7, -744948.3, 3.88388, 0.00006269234, -0.00008105229, -691000.7, -49904.82, 0.0, 10.0002775, 9.929449 
3.6450133e+3, 2.4450496e+2, -602677.06, -667003.3, 4.514235, 0.000062603, 0.00008123031, -602677.06, -58825.547, 0.0, 10.000278, 9.916007 
3.645013e+3, 2.544211e+2, -503924.06, -568328.5, 3.3987794, 0.00006223975, -0.000099528756, -503924.06, -57250.63, 0.0, 10.000279, 9.915907 
3.645013e+3, 2.6433015e+2, -415688.88, -490975.34, 3.3698096, 0.000062393396, 0.00014800386, -415688.88, -66124.06, 0.0, 10.00028, 9.9018345 
3.645013e+3, 2.742325e+2, -316404.0, -391363.22, 2.269629, 0.00006320519, -0.00019645401, -316404.0, -63882.57, 0.0, 10.000281, 9.902254 
3.645013e+3, 2.8412667e+2, -229930.38, -318070.78, 2.475619, 0.000063692074, 0.00023516935, -229930.38, -74371.72, 0.0, 10.000282, 9.885308 
3.645013e+3, 2.9401302e+2, -130224.05, -217755.25, 1.8602958, 0.0000637315, -0.00024869517, -130224.05, -71551.68, 0.0, 10.000283, 9.886086 
3.645013e+3, 3.0392733e+2, -40485.484, -84750.36, 1.6795253, 0.00006335513, 0.0001769191, -40485.484, -40485.484, 0.0, 10.000285, 9.942036 
3.645013e+3, 3.1387123e+2, -39405.62, -82511.31, 0.63124186, 0.00006236577, -0.000051310326, -39405.62, -39405.62, 0.0, 10.000286, 9.943546 
3.6550137e+3, 1.249965e+2, -1719619.3, -1724195.8, 1.7091855, 0.00006183665, 0.00004414829, -1719619.3, -4584.822, 0.0, 10.000269, 9.994201 
3.6550137e+3, 1.3499059e+2, -1622240.1, -1627408.0, 0.9836002, 0.00006235875, -0.00009392373, -1622240.1, -5147.7197, 0.0, 10.000269, 9.993418 
3.6550137e+3, 1.4497806e+2, -1534137.3, -1548117.3, 3.2951233, 0.00006267101, 0.00011664344, -1534137.3, -14922.131, 0.0, 10.00027, 9.98174 
3.6550137e+3, 1.549598e+2, -1436409.9, -1450793.8, 2.36966, 0.00006276054, -0.000044451575, -1436409.9, -15015.785, 0.0, 10.00027, 9.981208 
3.6550137e+3, 1.649349e+2, -1348360.9, -1371929.3, 4.360743, 0.00006275196, 0.000048254766, -1348360.9, -24722.9, 0.0, 10.000271, 9.969121 
3.6550134e+3, 1.7490406e+2, -1250402.6, -1274287.6, 3.5997255, 0.000062643456, -0.00006249774, -1250402.6, -24462.44, 0.0, 10.000272, 9.968707 
3.6550134e+3, 1.848666e+2, -1162321.3, -1195698.3, 5.1659913, 0.00006269593, 0.000080519465, -1162321.3, -34013.816, 0.0, 10.000273, 9.956267 
3.6550134e+3, 1.948229e+2, -1064171.4, -1097811.8, 4.3006487, 0.00006291661, -0.000047962443, -1064171.4, -33435.83, 0.0, 10.000274, 9.955924 
3.6550134e+3, 2.0477253e+2, -976009.1, -1019418.3, 5.0920687, 0.00006314762, 0.000076466866, -976009.1, -42780.004, 0.0, 10.000275, 9.94316 
3.6550134e+3, 2.1471575e+2, -877722.6, -921394.2, 3.9699104, 0.0000633898, -0.00011608857, -877722.6, -41936.832, 0.0, 10.000276, 9.94282 
3.6550134e+3, 2.2465225e+2, -789435.75, -843128.94, 4.9004903, 0.00006354135, 0.00013136883, -789435.75, -51027.707, 0.0, 10.000277, 9.929778 
3.6550134e+3, 2.345821e+2, -691002.1, -744951.1, 4.268508, 0.00006359038, -0.00008152125, -691002.1, -49906.51, 0.0, 10.0002775, 9.929447 
3.6550134e+3, 2.4450497e+2, -602679.4, -667008.06, 4.9687805, 0.00006362601, 0.000080745565, -602679.4, -58828.156, 0.0, 10.000278, 9.916004 
3.6550134e+3, 2.5442111e+2, -503926.4, -568333.25, 3.8567824, 0.00006364573, -0.000099651086, -503926.4, -57253.227, 0.0, 10.000279, 9.915904 
3.6550134e+3, 2.6433015e+2, -415691.2, -490980.0, 3.6873033, 0.000063825784, 0.00014820945, -415691.2, -66126.58, 0.0, 10.00028, 9.901832 
3.6550134e+3, 2.7423254e+2, -316406.25, -391367.84, 2.5779347, 0.000064209795, -0.00019596521, -316406.25, -63885.02, 0.0, 10.000281, 9.902251 
3.655013e+3, 2.8412667e+2, -229931.81, -318073.75, 2.9116101, 0.00006452872, 0.00023545802, -229931.81, -74373.305, 0.0, 10.000282, 9.885306 
3.655013e+3, 2.9401302e+2, -130225.39, -217758.05, 2.3074923, 0.000064757696, -0.00024926767, -130225.39, -71553.164, 0.0, 10.000283, 9.886085 
3.655013e+3, 3.0392733e+2, -40487.516, -84754.59, 2.285296, 0.000064810505, 0.00017563607, -40487.516, -40487.516, 0.0, 10.000285, 9.942033 
3.655013e+3, 3.1387123e+2, -39407.74, -82515.72, 1.2557379, 0.00006460242, -0.000053073574, -39407.74, -39407.74, 0.0, 10.000286, 9.943543 
3.665014e+3, 1.2499655e+2, -1719608.1, -1724191.9, 1.199317, 0.00006269791, 0.000044380846, -1719608.1, -4574.1875, 0.0, 10.000277, 9.994199 
3.665014e+3, 1.3499063e+2, -1622228.0, -1627403.8, 0.5353105, 0.000063235064, -0.000094378425, -1622228.0, -5136.125, 0.0, 10.0002775, 9.993416 
3.665014e+3, 1.449781e+2, -1534124.5, -1548113.0, 3.098179, 0.00006353669, 0.00011760011, -1534124.5, -14909.852, 0.0, 10.000278, 9.981737 
3.665014e+3, 1.5495984e+2, -1436396.1, -1450789.1, 2.3650274, 0.000063589745, -0.00004482749, -1436396.1, -15002.486, 0.0, 10.000279, 9.981206 
3.665014e+3, 1.6493495e+2, -1348346.8, -1371924.5, 4.353806, 0.00006360732, 0.00004747427, -1348346.8, -24709.23, 0.0, 10.000281, 9.969118 
3.665014e+3, 1.7490411e+2, -1250388.5, -1274283.0, 3.344986, 0.00006358885, -0.00006273601, -1250388.5, -24448.813, 0.0, 10.000282, 9.968704 
3.6650136e+3, 1.8486664e+2, -1162307.4, -1195694.0, 4.6623335, 0.00006382109, 0.00008065323, -1162307.4, -34000.36, 0.0, 10.000283, 9.9562645 
3.6650136e+3, 1.9482295e+2, -1064157.8, -1097807.6, 3.66769, 0.00006431534, -0.000047634607, -1064157.8, -33422.484, 0.0, 10.000284, 9.955922 
3.6650136e+3, 2.0477258e+2, -975995.1, -1019414.3, 4.5143557, 0.000064481086, 0.00007654421, -975995.1, -42766.35, 0.0, 10.000285, 9.943157 
3.6650136e+3, 2.1471578e+2, -877707.5, -921389.6, 3.5809367, 0.000064291344, -0.00011674274, -877707.5, -41922.01, 0.0, 10.000286, 9.942817 
3.6650136e+3, 2.2465226e+2, -789419.7, -843123.25, 4.452979, 0.000064293, 0.00013071873, -789419.7, -51011.93, 0.0, 10.000288, 9.929776 
3.6650136e+3, 2.3458211e+2, -690986.4, -744945.6, 3.5317078, 0.00006451125, -0.000081335114, -690986.4, -49891.035, 0.0, 10.000289, 9.929445 
3.6650136e+3, 2.44505e+2, -602664.75, -667004.06, 4.12076, 0.000064853375, 0.00008113222, -602664.75, -58813.76, 0.0, 10.000289, 9.916001 
3.6650136e+3, 2.5442111e+2, -503912.56, -568329.75, 3.081205, 0.00006534313, -0.00009982366, -503912.56, -57239.582, 0.0, 10.00029, 9.915901 
3.6650136e+3, 2.6433018e+2, -415676.97, -490976.2, 3.1386206, 0.00006545876, 0.00014769433, -415676.97, -66112.555, 0.0, 10.000291, 9.901829 
3.6650136e+3, 2.7423254e+2, -316390.6, -391363.34, 2.1959002, 0.000065098175, -0.00019654556, -316390.6, -63869.53, 0.0, 10.000293, 9.902248 
3.6650136e+3, 2.841267e+2, -229915.0, -318067.97, 2.4396646, 0.00006510715, 0.00023503524, -229915.0, -74356.63, 0.0, 10.000295, 9.8853035 
3.6650136e+3, 2.9401305e+2, -130208.94, -217752.44, 1.6050488, 0.00006562389, -0.00024922937, -130208.94, -71536.83, 0.0, 10.000296, 9.886083 
3.6650136e+3, 3.0392733e+2, -40472.38, -84750.414, 1.5411546, 0.0000662585, 0.00017564603, -40472.38, -40472.38, 0.0, 10.000297, 9.94203 
3.6650136e+3, 3.1387123e+2, -39393.914, -82512.266, 0.59514695, 0.0000670628, -0.000053821128, -39393.914, -39393.914, 0.0, 10.000298, 9.943541 
3.675014e+3, 1.249966e+2, -1719609.6, -1724194.8, 1.5669338, 0.00006399144, 0.000044335302, -1719609.6, -4576.228, 0.0, 10.000277, 9.994197 
3.675014e+3, 1.3499069e+2, -1622229.5, -1627406.5, 0.9022936, 0.00006406406, -0.000094426985, -1622229.5, -5138.143, 0.0, 10.0002775, 9.993414 
3.675014e+3, 1.4497815e+2, -1534126.1, -1548116.3, 3.5980012, 0.000064151085, 0.00011900392, -1534126.1, -14912.013, 0.0, 10.000278, 9.981735 
3.675014e+3, 1.5495989e+2, -1436397.8, -1450792.3, 2.865123, 0.00006424077, -0.000045455894, -1436397.8, -15004.597, 0.0, 10.000279, 9.981204 
3.675014e+3, 1.64935e+2, -1348349.0, -1371928.9, 4.755766, 0.000064416025, 0.000046354107, -1348349.0, -24711.924, 0.0, 10.000281, 9.969115 
3.675014e+3, 1.7490415e+2, -1250390.8, -1274287.3, 3.7462904, 0.000064678745, -0.00006277652, -1250390.8, -24451.46, 0.0, 10.000282, 9.968701 
3.675014e+3, 1.8486668e+2, -1162309.5, -1195698.3, 4.9972777, 0.00006515202, 0.0000811143, -1162309.5, -34002.957, 0.0, 10.000283, 9.956263 
3.6750138e+3, 1.9482298e+2, -1064159.9, -1097811.9, 4.002051, 0.000065845335, -0.00004727631, -1064159.9, -33425.027, 0.0, 10.000284, 9.955919 
3.6750138e+3, 2.047726e+2, -975997.2, -1019418.3, 5.0354443, 0.00006579953, 0.00007627497, -975997.2, -42768.734, 0.0, 10.000285, 9.943155 
3.6750138e+3, 2.1471581e+2, -877709.5, -921393.6, 4.105909, 0.000064953936, -0.000118207274, -877709.5, -41924.336, 0.0, 10.000286, 9.942814 
3.6750138e+3, 2.246523e+2, -789421.7, -843127.25, 4.78483, 0.00006480841, 0.00012955764, -789421.7, -51014.23, 0.0, 10.000288, 9.929773 
3.6750138e+3, 2.3458214e+2, -690988.3, -744949.56, 3.8567023, 0.000065454944, -0.00008049743, -690988.3, -49893.297, 0.0, 10.000289, 9.929442 
3.6750138e+3, 2.4450503e+2, -602666.94, -667008.5, 4.409201, 0.000066284076, 0.00008238553, -602666.94, -58816.24, 0.0, 10.000289, 9.915998 
3.6750138e+3, 2.5442114e+2, -503914.75, -568334.2, 3.368581, 0.000067330395, -0.000100046265, -503914.75, -57242.004, 0.0, 10.00029, 9.915898 
3.6750138e+3, 2.6433018e+2, -415678.97, -490980.25, 3.8054516, 0.00006729128, 0.00014646228, -415678.97, -66114.73, 0.0, 10.000291, 9.901826 
3.6750138e+3, 2.7423257e+2, -316392.56, -391367.38, 2.8879666, 0.00006587104, -0.00019818936, -316392.56, -63871.64, 0.0, 10.000293, 9.9022455 
3.6750138e+3, 2.841267e+2, -229916.81, -318071.7, 2.8353965, 0.00006542888, 0.00023390485, -229916.81, -74358.57, 0.0, 10.000295, 9.885302 
3.6750138e+3, 2.9401305e+2, -130210.7, -217756.11, 1.9733123, 0.00006633106, -0.00024858356, -130210.7, -71538.71, 0.0, 10.000296, 9.88608 
3.6750138e+3, 3.0392736e+2, -40474.32, -84754.47, 1.8451959, 0.000067699235, 0.00017694203, -40474.32, -40474.32, 0.0, 10.000297, 9.942027 
3.6750138e+3, 3.1387126e+2, -39395.88, -82516.37, 0.89166695, 0.00006974573, -0.000053558404, -39395.88, -39395.88, 0.0, 10.000298, 9.943538 
3.6850145e+3, 1.24996655e+2, -1719597.9, -1724191.3, 1.5551239, 0.00006470893, 0.000043693224, -1719597.9, -4565.0293, 0.0, 10.000285, 9.994195 
3.6850145e+3, 1.3499074e+2, -1622216.9, -1627402.6, 0.39198753, 0.00006480088, -0.000095282245, -1622216.9, -5125.9775, 0.0, 10.000286, 9.993412 
3.6850145e+3, 1.4497821e+2, -1534112.5, -1548111.1, 2.8992033, 0.00006500012, 0.000119938944, -1534112.5, -14898.816, 0.0, 10.000288, 9.981733 
3.6850145e+3, 1.5495993e+2, -1436384.0, -1450787.1, 2.214818, 0.000065295455, -0.000045677596, -1436384.0, -14991.235, 0.0, 10.00029, 9.981202 
3.6850145e+3, 1.6493504e+2, -1348335.6, -1371925.1, 4.034906, 0.00006556238, 0.000045734283, -1348335.6, -24698.912, 0.0, 10.000291, 9.969112 
3.6850145e+3, 1.7490421e+2, -1250376.6, -1274283.1, 2.8990908, 0.00006580051, -0.00006302055, -1250376.6, -24437.713, 0.0, 10.000293, 9.9686985 
3.6850145e+3, 1.8486671e+2, -1162294.5, -1195693.4, 4.0399065, 0.000066224326, 0.00008111394, -1162294.5, -33988.31, 0.0, 10.000294, 9.95626 
3.6850145e+3, 1.9482301e+2, -1064144.4, -1097806.8, 3.1490245, 0.0000668422, -0.00004717121, -1064144.4, -33409.89, 0.0, 10.000296, 9.955916 
3.6850145e+3, 2.0477265e+2, -975981.56, -1019413.1, 4.3409586, 0.00006682004, 0.00007598137, -975981.56, -42753.44, 0.0, 10.000297, 9.943152 
3.6850142e+3, 2.1471584e+2, -877694.25, -921388.6, 3.450637, 0.00006610528, -0.00011944508, -877694.25, -41909.375, 0.0, 10.000298, 9.942811 
3.6850142e+3, 2.2465234e+2, -789407.06, -843123.3, 3.8056793, 0.000066027154, 0.00012860137, -789407.06, -50999.855, 0.0, 10.0002985, 9.92977 
3.6850142e+3, 2.3458217e+2, -690973.6, -744945.7, 2.448615, 0.00006666926, -0.0000797856, -690973.6, -49878.84, 0.0, 10.000299, 9.92944 
3.6850142e+3, 2.4450505e+2, -602651.4, -667003.3, 2.9913304, 0.00006746221, 0.000083329905, -602651.4, -58800.867, 0.0, 10.0003, 9.915996 
3.6850142e+3, 2.5442117e+2, -503898.7, -568328.75, 2.4287713, 0.000068434514, -0.00010058437, -503898.7, -57226.133, 0.0, 10.000301, 9.915895 
3.6850142e+3, 2.643302e+2, -415663.16, -490975.5, 3.3673017, 0.000068411005, 0.00014515436, -415663.16, -66099.08, 0.0, 10.000303, 9.901823 
3.6850142e+3, 2.7423257e+2, -316377.2, -391362.9, 2.372369, 0.000067120476, -0.00019935667, -316377.2, -63856.395, 0.0, 10.000305, 9.902244 
3.6850142e+3, 2.841267e+2, -229901.75, -318067.9, 1.8080652, 0.00006675557, 0.00023334882, -229901.75, -74343.625, 0.0, 10.000306, 9.885299 
3.6850142e+3, 2.9401305e+2, -130195.23, -217752.22, 0.32269448, 0.00006766274, -0.0002478887, -130195.23, -71523.32, 0.0, 10.000308, 9.886077 
3.6850142e+3, 3.0392736e+2, -40457.902, -84749.734, -0.13251777, 0.00006895112, 0.00017801585, -40457.902, -40457.902, 0.0, 10.000309, 9.942024 
3.6850142e+3, 3.1387126e+2, -39378.145, -82510.945, -1.1200114, 0.00007079268, -0.0000534061, -39378.145, -39378.145, 0.0, 10.000311, 9.943535 
3.695015e+3, 1.2499671e+2, -1719600.6, -1724196.3, 2.1574712, 0.000064853695, 0.000042545653, -1719600.6, -4568.207, 0.0, 10.000285, 9.994192 
3.695015e+3, 1.3499078e+2, -1622219.5, -1627407.6, 0.9950216, 0.00006544612, -0.000096939715, -1622219.5, -5129.101, 0.0, 10.000286, 9.993409 
3.6950147e+3, 1.4497826e+2, -1534114.0, -1548114.1, 3.44973, 0.00006608253, 0.000120407785, -1534114.0, -14900.83, 0.0, 10.000288, 9.981731 
3.6950147e+3, 1.5495998e+2, -1436385.5, -1450790.0, 2.7645812, 0.00006675158, -0.000045494944, -1436385.5, -14993.211, 0.0, 10.00029, 9.9812 
3.6950147e+3, 1.6493507e+2, -1348338.1, -1371929.9, 4.622387, 0.00006704451, 0.00004561192, -1348338.1, -24701.857, 0.0, 10.000291, 9.96911 
3.6950147e+3, 1.7490424e+2, -1250379.1, -1274288.0, 3.4870024, 0.00006695401, -0.00006346703, -1250379.1, -24440.6, 0.0, 10.000293, 9.968696 
3.6950147e+3, 1.8486676e+2, -1162296.5, -1195697.1, 4.506662, 0.000067039546, 0.00008065466, -1162296.5, -33990.64, 0.0, 10.000294, 9.956257 
3.6950147e+3, 1.9482306e+2, -1064146.4, -1097810.5, 3.6140196, 0.000067309025, -0.00004731791, -1064146.4, -33412.168, 0.0, 10.000296, 9.9559145 
3.6950147e+3, 2.0477268e+2, -975983.56, -1019417.0, 4.797333, 0.000067544366, 0.00007566354, -975983.5, -42755.715, 0.0, 10.000297, 9.94315 
3.6950147e+3, 2.1471587e+2, -877696.2, -921392.5, 3.9070373, 0.00006774273, -0.00012045744, -877696.2, -41911.6, 0.0, 10.000298, 9.942809 
3.6950147e+3, 2.2465236e+2, -789409.94, -843129.0, 4.171337, 0.000067945344, 0.00012784876, -789409.94, -51002.973, 0.0, 10.0002985, 9.929767 
3.6950147e+3, 2.3458219e+2, -690976.5, -744951.4, 2.8114157, 0.00006815274, -0.00007919901, -690976.5, -49881.914, 0.0, 10.000299, 9.929436 
3.6950144e+3, 2.4450508e+2, -602652.7, -667006.0, 3.4080238, 0.00006838924, 0.00008396697, -602652.7, -58802.402, 0.0, 10.0003, 9.915994 
3.6950144e+3, 2.5442117e+2, -503899.97, -568331.3, 2.8478947, 0.00006866049, -0.00010143624, -503899.97, -57227.563, 0.0, 10.000301, 9.915894 
3.6950144e+3, 2.643302e+2, -415665.28, -490979.8, 3.965696, 0.00006882202, 0.000143771, -415665.28, -66101.35, 0.0, 10.000303, 9.90182 
3.6950144e+3, 2.7423257e+2, -316379.34, -391367.3, 2.9826539, 0.00006884391, -0.00020005013, -316379.34, -63858.676, 0.0, 10.000305, 9.902241 
3.6950144e+3, 2.8412673e+2, -229904.64, -318073.88, 2.3230615, 0.0000690817, 0.00023336391, -229904.64, -74346.62, 0.0, 10.000306, 9.885294 
3.6950144e+3, 2.9401305e+2, -130198.15, -217758.28, 0.82970744, 0.00006961552, -0.0002471452, -130198.15, -71526.3, 0.0, 10.000308, 9.886073 
3.6950144e+3, 3.0392736e+2, -40460.016, -84754.15, 0.4858511, 0.00007001529, 0.00017886856, -40460.016, -40460.016, 0.0, 10.000309, 9.942021 
3.6950144e+3, 3.1387126e+2, -39380.17, -82515.17, -0.48837018, 0.00007021289, -0.000053363725, -39380.17, -39380.17, 0.0, 10.000311, 9.943532 
3.7050152e+3, 1.2499676e+2, -1719588.3, -1724192.5, 1.355448, 0.00006542992, 0.00004310762, -1719588.3, -4556.3267, 0.0, 10.000294, 9.994189 
3.7050152e+3, 1.3499083e+2, -1622206.5, -1627403.6, 0.58684236, 0.00006658281, -0.00009904084, -1622206.5, -5116.572, 0.0, 10.000296, 9.993406 
3.7050152e+3, 1.449783e+2, -1534100.3, -1548109.6, 2.976405, 0.00006739319, 0.00011974055, -1534100.3, -14887.439, 0.0, 10.000298, 9.9817295 
3.7050152e+3, 1.5496002e+2, -1436370.9, -1450785.1, 1.8085306, 0.00006784801, -0.000045644894, -1436370.9, -14978.925, 0.0, 10.0003, 9.981197 
3.705015e+3, 1.6493513e+2, -1348323.1, -1371925.3, 3.4759333, 0.000068050256, 0.00004533137, -1348323.1, -24687.195, 0.0, 10.000302, 9.969107 
3.705015e+3, 1.7490427e+2, -1250363.8, -1274283.1, 2.4901025, 0.00006799508, -0.00006453872, -1250363.8, -24425.504, 0.0, 10.000304, 9.968693 
3.705015e+3, 1.8486679e+2, -1162280.8, -1195692.1, 3.279049, 0.00006802872, 0.00007968933, -1162280.8, -33975.234, 0.0, 10.000305, 9.956255 
3.705015e+3, 1.9482309e+2, -1064130.6, -1097805.5, 2.102155, 0.0000681551, -0.00004723878, -1064130.6, -33396.72, 0.0, 10.000307, 9.955912 
3.705015e+3, 2.0477271e+2, -975967.7, -1019411.44, 3.1047761, 0.00006856886, 0.0000758345, -975967.7, -42740.13, 0.0, 10.000308, 9.943148 
3.705015e+3, 2.1471588e+2, -877680.94, -921387.25, 2.3381097, 0.00006929354, -0.000121225465, -877680.94, -41896.633, 0.0, 10.000309, 9.942806 
3.705015e+3, 2.2465238e+2, -789395.6, -843125.8, 2.7785618, 0.000069550966, 0.00012683614, -789395.6, -50988.902, 0.0, 10.00031, 9.929763 
3.705015e+3, 2.3458222e+2, -690961.4, -744947.9, 1.478088, 0.000069279784, -0.00007967052, -690961.4, -49866.984, 0.0, 10.000311, 9.929432 
3.705015e+3, 2.4450509e+2, -602635.7, -666999.56, 2.0263176, 0.00006917534, 0.000083771985, -602635.7, -58785.547, 0.0, 10.000313, 9.915992 
3.705015e+3, 2.544212e+2, -503882.7, -568324.7, 1.3502226, 0.00006927044, -0.00010167131, -503882.7, -57210.45, 0.0, 10.000314, 9.915893 
3.705015e+3, 2.6433024e+2, -415649.28, -490975.16, 2.365887, 0.00006969591, 0.000143506, -415649.28, -66085.5, 0.0, 10.000315, 9.901817 
3.705015e+3, 2.742326e+2, -316364.72, -391363.47, 1.3083342, 0.00007054114, -0.00020033144, -316364.72, -63844.15, 0.0, 10.000316, 9.902237 
3.705015e+3, 2.8412673e+2, -229890.55, -318070.88, 0.97111595, 0.00007105801, 0.00023302445, -229890.55, -74332.59, 0.0, 10.000318, 9.885291 
3.705015e+3, 2.9401308e+2, -130182.88, -217754.77, -0.09280168, 0.00007112387, -0.00024760017, -130182.88, -71511.06, 0.0, 10.0003195, 9.886069 
3.705015e+3, 3.0392736e+2, -40442.824, -84748.875, 0.08262818, 0.00007093832, 0.00017827665, -40442.824, -40442.824, 0.0, 10.000322, 9.9420185 
3.705015e+3, 3.1387126e+2, -39361.0, -82508.836, -0.6887488, 0.00007038362, -0.000054123684, -39361.0, -39361.0, 0.0, 10.000325, 9.943529 
3.7150154e+3, 1.2499681e+2, -1719590.0, -1724195.8, 2.112624, 0.00006643511, 0.00004548054, -1719590.0, -4558.5786, 0.0, 10.000294, 9.994187 
3.7150154e+3, 1.3499087e+2, -1622208.3, -1627407.0, 1.3451535, 0.00006820809, -0.000101583006, -1622208.3, -5118.7627, 0.0, 10.000296, 9.993404 
3.7150154e+3, 1.4497833e+2, -1534102.9, -1548114.6, 3.7478886, 0.00006893082, 0.00011794402, -1534102.9, -14890.503, 0.0, 10.000298, 9.981727 
3.7150154e+3, 1.5496005e+2, -1436373.4, -1450790.0, 2.5804346, 0.00006858692, -0.000046125562, -1436373.4, -14981.934, 0.0, 10.0003, 9.9811945 
3.7150154e+3, 1.6493516e+2, -1348325.3, -1371929.5, 4.17775, 0.00006858251, 0.00004489346, -1348325.3, -24689.766, 0.0, 10.000302, 9.969104 
3.7150154e+3, 1.7490432e+2, -1250365.9, -1274287.4, 3.1918294, 0.000068924484, -0.00006623197, -1250365.9, -24428.016, 0.0, 10.000304, 9.968691 
3.715015e+3, 1.8486682e+2, -1162283.4, -1195697.1, 3.7713258, 0.000069190915, 0.00007822091, -1162283.4, -33978.117, 0.0, 10.000305, 9.956251 
3.715015e+3, 1.948231e+2, -1064133.1, -1097810.5, 2.591646, 0.00006937829, -0.000046935216, -1064133.1, -33399.555, 0.0, 10.000307, 9.955909 
3.715015e+3, 2.0477274e+2, -975969.4, -1019414.75, 3.425589, 0.00006989182, 0.00007649128, -975969.4, -42742.1, 0.0, 10.000308, 9.943146 
3.715015e+3, 2.1471591e+2, -877682.6, -921390.56, 2.6559284, 0.000070758266, -0.00012175067, -877682.6, -41898.543, 0.0, 10.000309, 9.942804 
3.715015e+3, 2.2465241e+2, -789398.4, -843131.25, 3.362221, 0.0000708459, 0.00012556495, -789398.4, -50991.844, 0.0, 10.00031, 9.92976 
3.715015e+3, 2.3458223e+2, -690964.1, -744953.3, 2.070708, 0.000070052556, -0.00008119402, -690964.1, -49869.89, 0.0, 10.000311, 9.929428 
3.715015e+3, 2.445051e+2, -602637.25, -667002.7, 2.5212584, 0.00006982142, 0.00008274978, -602637.25, -58787.25, 0.0, 10.000313, 9.91599 
3.715015e+3, 2.544212e+2, -503884.2, -568327.75, 1.8397934, 0.000070262264, -0.00010129318, -503884.2, -57212.066, 0.0, 10.000314, 9.91589 
3.715015e+3, 2.6433024e+2, -415651.56, -490979.78, 2.678812, 0.0000710301, 0.00014435274, -415651.56, -66087.88, 0.0, 10.000315, 9.901814 
3.715015e+3, 2.742326e+2, -316367.0, -391368.16, 1.6101692, 0.00007221235, -0.00020020314, -316367.0, -63846.52, 0.0, 10.000316, 9.902234 
3.715015e+3, 2.8412673e+2, -229892.73, -318075.34, 1.7657576, 0.00007268656, 0.00023233234, -229892.73, -74334.805, 0.0, 10.000318, 9.885288 
3.715015e+3, 2.9401308e+2, -130185.02, -217759.22, 0.7462892, 0.000072190414, -0.00024924672, -130185.02, -71513.2, 0.0, 10.0003195, 9.886066 
3.715015e+3, 3.0392736e+2, -40444.56, -84752.5, 1.1794474, 0.00007172112, 0.0001762485, -40444.56, -40444.56, 0.0, 10.000322, 9.942016 
3.715015e+3, 3.1387123e+2, -39362.695, -82512.375, 0.43796578, 0.00007130069, -0.000055681292, -39362.695, -39362.695, 0.0, 10.000325, 9.943527 
3.7250155e+3, 1.2499685e+2, -1719579.4, -1724191.5, -0.76348394, 0.000068335496, 0.00004737066, -1719579.4, -4548.4004, 0.0, 10.000301, 9.994186 
3.7250155e+3, 1.349909e+2, -1622194.8, -1627401.0, -0.8846909, 0.00006956145, -0.00010292202, -1622194.8, -5105.5713, 0.0, 10.000305, 9.993403 
3.7250155e+3, 1.4497837e+2, -1534088.5, -1548110.1, 1.760769, 0.00006996385, 0.00011764688, -1534088.5, -14876.567, 0.0, 10.000308, 9.981724 
3.7250155e+3, 1.549601e+2, -1436357.9, -1450785.0, 0.836597, 0.0000695276, -0.00004615306, -1436357.9, -14966.783, 0.0, 10.000311, 9.981192 
3.7250155e+3, 1.649352e+2, -1348309.0, -1371923.8, 2.3732224, 0.000069654685, 0.00004453848, -1348309.0, -24673.865, 0.0, 10.000314, 9.969102 
3.7250155e+3, 1.7490435e+2, -1250350.0, -1274281.9, 1.5359337, 0.00007035645, -0.000067523135, -1250350.0, -24412.451, 0.0, 10.000315, 9.968688 
3.7250155e+3, 1.8486685e+2, -1162268.4, -1195693.4, 1.9236491, 0.00007058681, 0.000076907316, -1162268.4, -33963.395, 0.0, 10.000317, 9.956248 
3.7250155e+3, 1.9482313e+2, -1064117.8, -1097806.6, 0.45807722, 0.00007032429, -0.000047316193, -1064117.8, -33384.445, 0.0, 10.000319, 9.955905 
3.7250155e+3, 2.0477276e+2, -975952.3, -1019408.06, 1.0746391, 0.0000706927, 0.00007661616, -975952.3, -42725.29, 0.0, 10.0003195, 9.943144 
3.7250155e+3, 2.1471593e+2, -877665.44, -921383.8, 0.57760227, 0.00007174383, -0.0001215817, -877665.44, -41881.574, 0.0, 10.00032, 9.942802 
3.7250155e+3, 2.2465242e+2, -789382.56, -843126.8, 1.69721, 0.00007202541, 0.00012509615, -789382.56, -50976.22, 0.0, 10.000321, 9.929756 
3.7250155e+3, 2.3458225e+2, -690949.0, -744949.4, 0.62587684, 0.00007143637, -0.00008307161, -690949.0, -49854.91, 0.0, 10.000323, 9.929425 
3.7250155e+3, 2.445051e+2, -602622.06, -666998.0, 0.9357238, 0.00007122454, 0.000080975085, -602622.06, -58772.15, 0.0, 10.000324, 9.915987 
3.7250155e+3, 2.544212e+2, -503869.13, -568323.1, -0.21229114, 0.00007146383, -0.00010115974, -503869.13, -57197.105, 0.0, 10.000325, 9.915888 
3.7250155e+3, 2.6433024e+2, -415636.03, -490974.88, 0.5311686, 0.000072097755, 0.00014514965, -415636.03, -66072.445, 0.0, 10.000327, 9.901812 
3.7250155e+3, 2.742326e+2, -316350.44, -391362.78, -0.07326421, 0.000073232615, -0.00020033006, -316350.44, -63830.02, 0.0, 10.000328, 9.902232 
3.7250155e+3, 2.8412673e+2, -229875.88, -318070.22, 0.73416847, 0.00007367226, 0.00023146112, -229875.88, -74317.98, 0.0, 10.00033, 9.885285 
3.7250155e+3, 2.9401308e+2, -130168.414, -217754.3, -0.15729414, 0.00007315866, -0.00025060933, -130168.414, -71496.58, 0.0, 10.000332, 9.886064 
3.7250155e+3, 3.0392736e+2, -40428.492, -84747.76, 0.421076, 0.00007285566, 0.00017503096, -40428.492, -40428.492, 0.0, 10.000335, 9.942014 
3.7250155e+3, 3.1387123e+2, -39347.59, -82508.08, -0.5226588, 0.00007287393, -0.000055811273, -39347.59, -39347.59, 0.0, 10.000337, 9.943524 
3.735016e+3, 1.24996886e+2, -1719579.6, -1724192.0, 0.71283144, 0.00007112547, 0.000048916387, -1719579.6, -4549.0347, 0.0, 10.000301, 9.994185 
3.735016e+3, 1.3499095e+2, -1622195.0, -1627401.6, 0.59016764, 0.00007064458, -0.00010306547, -1622195.0, -5106.2075, 0.0, 10.000305, 9.9934025 
3.735016e+3, 1.449784e+2, -1534090.6, -1548114.1, 2.831103, 0.00007049547, 0.00011883979, -1534090.6, -14879.0205, 0.0, 10.000308, 9.981721 
3.735016e+3, 1.5496013e+2, -1436360.0, -1450789.0, 1.9053068, 0.0000706689, -0.000045730285, -1436360.0, -14969.18, 0.0, 10.000311, 9.98119 
3.735016e+3, 1.6493523e+2, -1348310.9, -1371927.4, 3.009363, 0.00007126355, 0.00004426584, -1348310.9, -24676.037, 0.0, 10.000314, 9.969099 
3.735016e+3, 1.7490438e+2, -1250351.9, -1274285.4, 2.1706622, 0.000072288014, -0.00006841474, -1250351.9, -24414.582, 0.0, 10.000315, 9.968686 
3.735016e+3, 1.8486686e+2, -1162271.5, -1195699.5, 2.5200357, 0.00007221504, 0.00007574751, -1162271.5, -33966.83, 0.0, 10.000317, 9.956244 
3.735016e+3, 1.9482315e+2, -1064120.9, -1097812.8, 1.0544474, 0.00007099485, -0.00004837768, -1064120.9, -33387.81, 0.0, 10.000319, 9.955901 
3.735016e+3, 2.0477279e+2, -975953.5, -1019410.3, 1.4488999, 0.00007097476, 0.00007621227, -975953.5, -42726.62, 0.0, 10.0003195, 9.943142 
3.735016e+3, 2.1471596e+2, -877666.56, -921385.94, 0.9462014, 0.00007225325, -0.00012072282, -877666.56, -41882.85, 0.0, 10.00032, 9.942801 
3.735016e+3, 2.2465244e+2, -789384.9, -843131.4, 2.1440897, 0.00007309031, 0.00012542485, -789384.9, -50978.67, 0.0, 10.000321, 9.929753 
3.735016e+3, 2.3458225e+2, -690951.3, -744954.0, 1.0766611, 0.00007342762, -0.000085301195, -690951.3, -49857.33, 0.0, 10.000323, 9.929422 
3.735016e+3, 2.4450512e+2, -602624.5, -667002.94, 1.402841, 0.000073380135, 0.00007845241, -602624.5, -58774.668, 0.0, 10.000324, 9.915984 
3.735016e+3, 2.5442123e+2, -503871.53, -568328.0, 0.2553692, 0.000072873896, -0.000101269616, -503871.53, -57199.58, 0.0, 10.000325, 9.915884 
3.735016e+3, 2.6433027e+2, -415637.5, -490977.88, 1.1095172, 0.00007290053, 0.00014589689, -415637.5, -66073.95, 0.0, 10.000327, 9.90181 
3.735016e+3, 2.742326e+2, -316351.84, -391365.63, 0.5122055, 0.00007360598, -0.0002007107, -316351.84, -63831.42, 0.0, 10.000328, 9.90223 
3.735016e+3, 2.8412673e+2, -229877.81, -318074.22, 1.5223576, 0.00007401914, 0.00023041187, -229877.81, -74319.91, 0.0, 10.00033, 9.8852825 
3.735016e+3, 2.9401305e+2, -130170.37, -217758.36, 0.649213, 0.00007402934, -0.00025168972, -130170.37, -71498.51, 0.0, 10.000332, 9.886061 
3.735016e+3, 3.0392733e+2, -40430.586, -84752.12, 1.2879034, 0.00007433988, 0.00017461907, -40430.586, -40430.586, 0.0, 10.000335, 9.94201 
3.735016e+3, 3.1387123e+2, -39349.7, -82512.48, 0.350906, 0.000075099364, -0.00005452237, -39349.7, -39349.7, 0.0, 10.000337, 9.9435215 
3.7450165e+3, 1.2499692e+2, -1719566.8, -1724186.9, 1.750688, 0.000072603354, 0.0000458102, -1719566.8, -4536.502, 0.0, 10.00031, 9.9941845 
3.7450165e+3, 1.3499098e+2, -1622179.4, -1627395.1, 0.6476993, 0.00007178563, -0.000106809006, -1622179.4, -5090.874, 0.0, 10.000316, 9.993402 
3.7450165e+3, 1.4497843e+2, -1534075.0, -1548109.8, 1.3281224, 0.00007138902, 0.000117687254, -1534075.0, -14863.682, 0.0, 10.0003195, 9.981717 
3.7450165e+3, 1.5496016e+2, -1436344.1, -1450784.5, -0.33056986, 0.00007140495, -0.000046120967, -1436344.1, -14953.545, 0.0, 10.000323, 9.981186 
3.7450162e+3, 1.6493525e+2, -1348293.6, -1371920.1, 0.104495615, 0.00007214156, 0.000044154065, -1348293.6, -24658.941, 0.0, 10.000325, 9.969098 
3.7450162e+3, 1.7490439e+2, -1250334.9, -1274278.5, -0.2958539, 0.00007361338, -0.00006873981, -1250334.9, -24397.875, 0.0, 10.000327, 9.968684 
3.7450162e+3, 1.8486689e+2, -1162256.3, -1195695.6, 0.4256826, 0.000073705814, 0.00007469447, -1162256.3, -33951.742, 0.0, 10.000328, 9.956241 
3.7450162e+3, 1.9482318e+2, -1064105.5, -1097808.9, -0.78406763, 0.00007235631, -0.000050696774, -1064105.5, -33372.508, 0.0, 10.00033, 9.955897 
3.7450162e+3, 2.0477279e+2, -975936.94, -1019404.5, -0.8529984, 0.000072066985, 0.00007465696, -975936.94, -42710.215, 0.0, 10.000332, 9.94314 
3.7450162e+3, 2.1471597e+2, -877650.0, -921380.1, -2.0848172, 0.000072924864, -0.00011931803, -877650.0, -41866.43, 0.0, 10.000333, 9.9428 
3.7450162e+3, 2.2465245e+2, -789368.25, -843125.06, -0.89762753, 0.000073834366, 0.00012697987, -789368.25, -50962.2, 0.0, 10.000334, 9.929751 
3.7450162e+3, 2.3458226e+2, -690935.5, -744948.06, -1.1158878, 0.00007480181, -0.000086774635, -690935.5, -49841.6, 0.0, 10.000334, 9.92942 
3.7450162e+3, 2.4450512e+2, -602609.9, -666999.3, -0.20625608, 0.000074977244, 0.00007604222, -602609.9, -58760.125, 0.0, 10.000336, 9.915981 
3.7450162e+3, 2.5442123e+2, -503856.34, -568324.2, -1.473884, 0.00007420729, -0.00010211653, -503856.34, -57184.418, 0.0, 10.000337, 9.915881 
3.7450162e+3, 2.6433027e+2, -415621.16, -490972.22, -0.7727344, 0.000073995725, 0.00014591249, -415621.16, -66057.6, 0.0, 10.000339, 9.901808 
3.7450162e+3, 2.742326e+2, -316335.63, -391360.0, -1.5613389, 0.00007449657, -0.00020072973, -316335.63, -63815.21, 0.0, 10.00034, 9.902227 
3.7450162e+3, 2.8412673e+2, -229862.1, -318069.44, -0.43496928, 0.00007490218, 0.00023010369, -229862.1, -74304.15, 0.0, 10.000341, 9.88528 
3.7450162e+3, 2.9401305e+2, -130154.766, -217753.72, -1.243324, 0.00007517418, -0.000252631, -130154.766, -71482.836, 0.0, 10.000344, 9.886058 
3.7450162e+3, 3.0392733e+2, -40415.113, -84748.22, -0.45185938, 0.0000756538, 0.00017384639, -40415.113, -40415.113, 0.0, 10.000346, 9.942007 
3.7450162e+3, 3.1387123e+2, -39333.242, -82508.17, -1.576225, 0.00007644211, -0.000053933443, -39333.242, -39333.242, 0.0, 10.000349, 9.943518 
3.7550166e+3, 1.2499695e+2, -1719569.3, -1724191.6, 3.8893867, 0.00007277756, 0.00003824498, -1719569.3, -4539.327, 0.0, 10.00031, 9.994182 
3.7550166e+3, 1.3499102e+2, -1622181.9, -1627399.9, 2.7871559, 0.000072984374, -0.00011412968, -1622181.9, -5093.6685, 0.0, 10.000316, 9.993399 
3.7550166e+3, 1.4497846e+2, -1534078.8, -1548116.9, 2.4751892, 0.00007264232, 0.00011420411, -1534078.8, -14867.701, 0.0, 10.0003195, 9.981713 
3.7550166e+3, 1.5496017e+2, -1436347.8, -1450791.6, 0.8158204, 0.00007173842, -0.000047320093, -1436347.8, -14957.481, 0.0, 10.000323, 9.981181 
3.7550166e+3, 1.6493528e+2, -1348294.5, -1371921.9, 0.66626173, 0.000072293406, 0.000044201966, -1348294.5, -24660.055, 0.0, 10.000325, 9.969097 
3.7550166e+3, 1.749044e+2, -1250335.8, -1274280.1, 0.2633219, 0.000074336465, -0.0000685021, -1250335.8, -24398.963, 0.0, 10.000327, 9.968683 
3.7550166e+3, 1.8486692e+2, -1162258.9, -1195700.8, 1.0820477, 0.00007506006, 0.00007374742, -1162258.9, -33954.55, 0.0, 10.000328, 9.956237 
3.7550166e+3, 1.9482318e+2, -1064108.0, -1097813.9, -0.124509506, 0.00007440439, -0.000054265554, -1064108.0, -33375.258, 0.0, 10.00033, 9.955894 
3.7550166e+3, 2.047728e+2, -975939.56, -1019409.7, -0.4560429, 0.00007396434, 0.00007195743, -975939.56, -42712.96, 0.0, 10.000332, 9.943137 
3.7550163e+3, 2.1471597e+2, -877652.6, -921385.3, -1.6942211, 0.00007375772, -0.00011737101, -877652.6, -41869.137, 0.0, 10.000333, 9.942796 
3.7550163e+3, 2.2465245e+2, -789368.9, -843126.3, -0.61580765, 0.00007425968, 0.00012975324, -789368.9, -50962.914, 0.0, 10.000334, 9.92975 
3.7550163e+3, 2.3458226e+2, -690936.06, -744949.2, -0.8379601, 0.00007556289, -0.000087496766, -690936.06, -49842.223, 0.0, 10.000334, 9.9294195 
3.7550163e+3, 2.4450512e+2, -602612.5, -667004.56, 0.42514005, 0.000076019445, 0.00007374381, -602612.5, -58762.76, 0.0, 10.000336, 9.9159775 
3.7550163e+3, 2.5442123e+2, -503859.0, -568329.6, -0.82492524, 0.00007546459, -0.00010369588, -503859.0, -57187.086, 0.0, 10.000337, 9.915877 
3.7550163e+3, 2.6433027e+2, -415623.0, -490975.94, -0.21157475, 0.000075381606, 0.00014520097, -415623.0, -66059.41, 0.0, 10.000339, 9.901805 
3.7550163e+3, 2.742326e+2, -316337.4, -391363.63, -1.0061493, 0.00007590118, -0.00020038956, -316337.4, -63816.926, 0.0, 10.00034, 9.9022255 
3.7550163e+3, 2.8412673e+2, -229863.98, -318073.3, 0.3531254, 0.000076318014, 0.00023053178, -229863.98, -74305.97, 0.0, 10.000341, 9.885278 
3.7550163e+3, 2.9401305e+2, -130156.63, -217757.61, -0.43386096, 0.000076591496, -0.00025343412, -130156.63, -71484.61, 0.0, 10.000344, 9.886056 
3.7550166e+3, 3.0392733e+2, -40417.55, -84753.3, 0.6566103, 0.00007679856, 0.00017271511, -40417.55, -40417.55, 0.0, 10.000346, 9.942004 
3.7550166e+3, 3.138712e+2, -39335.75, -82513.4, -0.4324987, 0.00007690792, -0.000054040214, -39335.75, -39335.75, 0.0, 10.000349, 9.943514 
3.7650168e+3, 1.24996975e+2, -1719548.4, -1724183.3, -0.105984695, 0.000069914626, 0.000036453206, -1719548.4, -4518.758, 0.0, 10.000324, 9.994179 
3.7650168e+3, 1.3499103e+2, -1622165.0, -1627393.6, -0.82965314, 0.00007375608, -0.00011366723, -1622165.0, -5077.161, 0.0, 10.000327, 9.993396 
3.7650168e+3, 1.449785e+2, -1534064.5, -1548113.9, -1.1508801, 0.00007528986, 0.00011622354, -1534064.5, -14853.759, 0.0, 10.000331, 9.9817095 
3.7650168e+3, 1.5496019e+2, -1436332.1, -1450787.9, -2.4806852, 0.00007449492, -0.000049474536, -1436332.1, -14942.023, 0.0, 10.000335, 9.981177 
3.7650168e+3, 1.6493529e+2, -1348275.6, -1371912.9, -3.1564906, 0.00007440293, 0.00004177677, -1348275.6, -24641.285, 0.0, 10.000338, 9.969096 
3.7650168e+3, 1.7490444e+2, -1250317.0, -1274271.3, -3.3932245, 0.00007502805, -0.00006721741, -1250317.0, -24380.34, 0.0, 10.000339, 9.968682 
3.7650168e+3, 1.8486694e+2, -1162241.5, -1195693.5, -1.9837439, 0.0000755384, 0.00007499015, -1162241.5, -33937.42, 0.0, 10.00034, 9.956236 
3.7650168e+3, 1.9482319e+2, -1064092.6, -1097807.8, -1.9263417, 0.00007592868, -0.000056986537, -1064092.6, -33359.9, 0.0, 10.00034, 9.955893 
3.7650168e+3, 2.0477282e+2, -975926.4, -1019407.5, -1.7849125, 0.000075721226, 0.000068673355, -975926.4, -42699.844, 0.0, 10.000342, 9.943132 
3.7650168e+3, 2.1471599e+2, -877638.2, -921382.56, -3.6090672, 0.00007486706, -0.00011753846, -877638.2, -41854.742, 0.0, 10.000344, 9.942792 
3.7650168e+3, 2.2465245e+2, -789351.3, -843118.6, -3.1873689, 0.00007500616, 0.00013077671, -789351.3, -50945.355, 0.0, 10.000345, 9.9297495 
3.7650168e+3, 2.3458226e+2, -690918.1, -744941.3, -3.6567965, 0.000076268836, -0.000087461725, -690918.1, -49824.324, 0.0, 10.000346, 9.929419 
3.7650168e+3, 2.4450512e+2, -602596.44, -666999.75, -2.182913, 0.00007694476, 0.00007306168, -602596.44, -58746.688, 0.0, 10.000347, 9.915975 
3.7650168e+3, 2.5442123e+2, -503844.25, -568325.6, -3.0286384, 0.00007691918, -0.000104769104, -503844.25, -57172.3, 0.0, 10.000348, 9.9158745 
3.7650168e+3, 2.6433024e+2, -415608.28, -490971.44, -2.10034, 0.00007695195, 0.00014416683, -415608.28, -66044.65, 0.0, 10.00035, 9.901803 
3.7650168e+3, 2.742326e+2, -316322.2, -391358.84, -2.9269705, 0.000077060584, -0.0002008383, -316322.2, -63801.64, 0.0, 10.000351, 9.902223 
3.7650168e+3, 2.841267e+2, -229848.25, -318068.16, -1.2895501, 0.00007726973, 0.00023017738, -229848.25, -74290.14, 0.0, 10.000354, 9.885275 
3.7650168e+3, 2.9401302e+2, -130140.69, -217752.36, -1.8033235, 0.00007761604, -0.00025436844, -130140.69, -71468.53, 0.0, 10.000356, 9.886053 
3.7650168e+3, 3.039273e+2, -40402.313, -84749.55, -0.2248445, 0.000077970355, 0.00017168961, -40402.313, -40402.313, 0.0, 10.000359, 9.942 
3.7650168e+3, 3.1387118e+2, -39320.684, -82509.86, -1.1364105, 0.000078334815, -0.000054425196, -39320.684, -39320.684, 0.0, 10.000361, 9.943511 
3.7750173e+3, 1.24997005e+2, -1719550.0, -1724186.4, 1.1002948, 0.00006403503, 0.000040568637, -1719550.0, -4520.627, 0.0, 10.000324, 9.994177 
3.7750173e+3, 1.3499106e+2, -1622166.8, -1627396.8, 0.37473866, 0.000074103635, -0.00010547331, -1622166.8, -5079.046, 0.0, 10.000327, 9.993394 
3.7750173e+3, 1.4497851e+2, -1534067.5, -1548119.5, 0.34084213, 0.00007932237, 0.00012370912, -1534067.5, -14856.978, 0.0, 10.000331, 9.981706 
3.7750173e+3, 1.549602e+2, -1436335.1, -1450793.5, -0.9799142, 0.00007965853, -0.000052578085, -1436335.1, -14945.11, 0.0, 10.000335, 9.981174 
3.7750173e+3, 1.6493529e+2, -1348276.1, -1371914.0, -2.598929, 0.000078457335, 0.000036894664, -1348276.1, -24641.896, 0.0, 10.000338, 9.969095 
3.7750173e+3, 1.7490444e+2, -1250317.5, -1274272.3, -2.841256, 0.0000756885, -0.00006489285, -1250317.5, -24380.967, 0.0, 10.000339, 9.968681 
3.775017e+3, 1.8486695e+2, -1162241.5, -1195693.4, -1.7356888, 0.00007514672, 0.000078408084, -1162241.5, -33937.45, 0.0, 10.00034, 9.956236 
3.775017e+3, 1.948232e+2, -1064092.5, -1097807.5, -1.6806445, 0.00007693266, -0.00005886532, -1064092.5, -33359.89, 0.0, 10.00034, 9.955893 
3.775017e+3, 2.0477282e+2, -975930.2, -1019414.94, -1.0735871, 0.00007733858, 0.000064808606, -975930.2, -42703.707, 0.0, 10.000342, 9.943128 
3.775017e+3, 2.1471599e+2, -877642.0, -921390.1, -2.8868752, 0.00007625112, -0.0001198065, -877642.0, -41858.59, 0.0, 10.000344, 9.942787 
3.775017e+3, 2.2465245e+2, -789352.44, -843120.94, -2.8054821, 0.0000760718, 0.00013006167, -789352.44, -50946.492, 0.0, 10.000345, 9.929749 
3.775017e+3, 2.3458226e+2, -690919.2, -744943.44, -3.287047, 0.00007692012, -0.000086674656, -690919.2, -49825.363, 0.0, 10.000346, 9.929418 
3.775017e+3, 2.4450512e+2, -602598.25, -667003.5, -1.8270321, 0.00007775407, 0.00007398504, -602598.25, -58748.527, 0.0, 10.000347, 9.915973 
3.775017e+3, 2.544212e+2, -503846.13, -568329.44, -2.6730912, 0.00007856981, -0.00010533963, -503846.13, -57174.117, 0.0, 10.000348, 9.915873 
3.775017e+3, 2.6433024e+2, -415610.16, -490975.22, -1.4227475, 0.00007870555, 0.0001428121, -415610.16, -66046.414, 0.0, 10.00035, 9.9018 
3.775017e+3, 2.7423257e+2, -316324.03, -391362.63, -2.2274227, 0.000077976445, -0.00020207085, -316324.03, -63803.36, 0.0, 10.000351, 9.902221 
3.775017e+3, 2.841267e+2, -229849.7, -318071.13, -0.416323, 0.00007776049, 0.00022904557, -229849.7, -74291.44, 0.0, 10.000354, 9.885273 
3.775017e+3, 2.9401302e+2, -130142.08, -217755.25, -0.91507936, 0.00007825048, -0.00025543317, -130142.08, -71469.766, 0.0, 10.000356, 9.886051 
3.775017e+3, 3.039273e+2, -40404.453, -84754.01, 0.8701909, 0.00007916906, 0.00017076918, -40404.453, -40404.453, 0.0, 10.000359, 9.941998 
3.7750173e+3, 3.1387118e+2, -39322.918, -82514.51, -0.017217854, 0.0000807165, -0.000055086537, -39322.918, -39322.918, 0.0, 10.000361, 9.943508 
3.7850174e+3, 1.24997005e+2, -1719527.3, -1724178.1, -9.997261, 0.000063125044, 0.000036914316, -1719527.3, -4497.812, 0.0, 10.0003395, 9.994173 
3.7850174e+3, 1.3499106e+2, -1622148.8, -1627391.3, -11.922035, 0.000073544245, -0.00010182298, -1622148.8, -5061.1187, 0.0, 10.00034, 9.99339 
3.7850174e+3, 1.4497851e+2, -1534048.8, -1548106.0, -9.801004, 0.000080280646, 0.00012839504, -1534048.8, -14838.172, 0.0, 10.00034, 9.981709 
3.7850174e+3, 1.549602e+2, -1436321.0, -1450782.5, -6.1268563, 0.00008330769, -0.00005806048, -1436321.0, -14931.031, 0.0, 10.000341, 9.981177 
3.7850174e+3, 1.6493529e+2, -1348266.5, -1371910.4, -5.492326, 0.00008222883, 0.000029620785, -1348266.5, -24632.27, 0.0, 10.000344, 9.969094 
3.7850174e+3, 1.7490444e+2, -1250304.6, -1274267.0, -6.2344203, 0.00007696288, -0.00006541541, -1250304.6, -24368.166, 0.0, 10.000348, 9.96868 
3.7850174e+3, 1.8486695e+2, -1162224.3, -1195683.3, -5.5469575, 0.00007520698, 0.000080478916, -1162224.3, -33920.277, 0.0, 10.000351, 9.956237 
3.7850174e+3, 1.948232e+2, -1064073.4, -1097796.5, -4.886864, 0.00007711978, -0.000058547197, -1064073.4, -33340.805, 0.0, 10.000353, 9.9558935 
3.7850174e+3, 2.0477282e+2, -975914.4, -1019411.0, -3.498252, 0.00007789951, 0.000064040956, -975914.4, -42687.92, 0.0, 10.000354, 9.943125 
3.7850174e+3, 2.1471597e+2, -877627.5, -921387.0, -4.495702, 0.0000774529, -0.000120937846, -877627.5, -41844.1, 0.0, 10.000355, 9.942783 
3.7850174e+3, 2.2465245e+2, -789337.44, -843115.8, -4.4737263, 0.00007754126, 0.00012928278, -789337.44, -50931.44, 0.0, 10.000356, 9.929746 
3.7850174e+3, 2.3458226e+2, -690904.25, -744938.3, -5.5710077, 0.00007823514, -0.00008629148, -690904.25, -49810.367, 0.0, 10.000358, 9.929415 
3.7850174e+3, 2.445051e+2, -602583.2, -666998.44, -4.30322, 0.00007900336, 0.00007441599, -602583.2, -58733.35, 0.0, 10.000359, 9.91597 
3.7850174e+3, 2.544212e+2, -503830.47, -568324.1, -4.9665937, 0.000079859696, -0.00010619176, -503830.47, -57158.363, 0.0, 10.00036, 9.91587 
3.7850174e+3, 2.6433024e+2, -415594.06, -490969.63, -3.2445865, 0.0000798982, 0.00014137429, -415594.06, -66030.2, 0.0, 10.000361, 9.901798 
3.7850174e+3, 2.7423257e+2, -316307.88, -391357.03, -3.7724648, 0.000078896286, -0.00020320422, -316307.88, -63787.066, 0.0, 10.000363, 9.902219 
3.7850174e+3, 2.8412667e+2, -229833.8, -318065.97, -1.8428499, 0.00007859177, 0.00022823967, -229833.8, -74275.38, 0.0, 10.000365, 9.885271 
3.7850174e+3, 2.94013e+2, -130126.57, -217750.34, -2.6770945, 0.00007924605, -0.00025588425, -130126.57, -71454.08, 0.0, 10.000367, 9.886049 
3.7850174e+3, 3.0392727e+2, -40390.035, -84750.57, -0.9155291, 0.00008044099, 0.00017052825, -40390.035, -40390.035, 0.0, 10.00037, 9.941995 
3.7850174e+3, 3.1387115e+2, -39309.063, -82511.445, -1.8511498, 0.00008242859, -0.000055332446, -39309.063, -39309.063, 0.0, 10.000372, 9.943504 
3.7950182e+3, 1.2499699e+2, -1719531.6, -1724186.4, -9.861739, 0.00006715037, 0.000025712845, -1719531.6, -4502.049, 0.0, 10.0003395, 9.994168 
3.7950182e+3, 1.3499105e+2, -1622153.1, -1627399.5, -11.7880125, 0.000072084295, -0.00010268657, -1622153.1, -5065.295, 0.0, 10.00034, 9.993385 
3.795018e+3, 1.4497851e+2, -1534040.4, -1548090.3, -9.364763, 0.00007818596, 0.00013029935, -1534040.4, -14829.7, 0.0, 10.00034, 9.981718 
3.795018e+3, 1.5496019e+2, -1436312.8, -1450766.9, -5.697047, 0.00008545272, -0.000065905595, -1436312.8, -14922.722, 0.0, 10.000341, 9.981187 
3.795018e+3, 1.6493529e+2, -1348268.0, -1371913.4, -4.152219, 0.00008571916, 0.000019971636, -1348268.0, -24633.8, 0.0, 10.000344, 9.969092 
3.795018e+3, 1.7490444e+2, -1250306.3, -1274270.1, -4.892207, 0.00007884693, -0.00006876584, -1250306.3, -24369.729, 0.0, 10.000348, 9.968678 
3.795018e+3, 1.8486695e+2, -1162222.9, -1195680.6, -4.802386, 0.00007571611, 0.00008121152, -1162222.9, -33918.867, 0.0, 10.000351, 9.956239 
3.795018e+3, 1.948232e+2, -1064072.0, -1097793.9, -4.1525173, 0.00007649582, -0.00005604749, -1064072.0, -33339.42, 0.0, 10.000353, 9.955895 
3.795018e+3, 2.0477282e+2, -975916.44, -1019415.1, -3.0638392, 0.00007741146, 0.00006634907, -975916.44, -42690.03, 0.0, 10.000354, 9.943122 
3.795018e+3, 2.1471597e+2, -877629.7, -921391.25, -4.0674334, 0.000078473735, -0.000120940276, -877629.7, -41846.207, 0.0, 10.000355, 9.9427805 
3.795018e+3, 2.2465245e+2, -789339.75, -843120.44, -4.107918, 0.000079411795, 0.00012844053, -789339.75, -50933.695, 0.0, 10.000356, 9.929743 
3.795018e+3, 2.3458225e+2, -690906.56, -744942.9, -5.206176, 0.00008020937, -0.000086309534, -690906.56, -49812.574, 0.0, 10.000358, 9.929412 
3.795018e+3, 2.445051e+2, -602584.75, -667001.6, -3.7934566, 0.00008068965, 0.000074357784, -602584.75, -58734.81, 0.0, 10.000359, 9.915968 
3.795018e+3, 2.5442117e+2, -503832.0, -568327.25, -4.449976, 0.000080791404, -0.00010732368, -503832.0, -57159.746, 0.0, 10.00036, 9.915868 
3.795018e+3, 2.643302e+2, -415595.44, -490972.4, -2.5212202, 0.00008053387, 0.0001398539, -415595.44, -66031.41, 0.0, 10.000361, 9.901796 
3.795018e+3, 2.7423254e+2, -316309.22, -391359.78, -3.0358284, 0.00007982017, -0.00020423913, -316309.22, -63788.23, 0.0, 10.000363, 9.902217 
3.795018e+3, 2.8412667e+2, -229835.81, -318070.13, -1.0344723, 0.00007976132, 0.00022775741, -229835.81, -74277.2, 0.0, 10.000365, 9.885268 
3.795018e+3, 2.9401296e+2, -130128.625, -217754.61, -1.8618832, 0.000080600345, -0.00025572607, -130128.625, -71455.914, 0.0, 10.000367, 9.886046 
3.795018e+3, 3.0392724e+2, -40392.36, -84755.414, 0.056357365, 0.000081785685, 0.00017096198, -40392.36, -40392.36, 0.0, 10.00037, 9.941991 
3.7950182e+3, 3.1387112e+2, -39311.426, -82516.37, -0.86052406, 0.000083475716, -0.00005516594, -39311.426, -39311.426, 0.0, 10.000372, 9.943501 
3.8050184e+3, 1.24996975e+2, -1719519.3, -1724187.0, 2.596391, 0.00007032804, 0.000014073327, -1719519.3, -4489.6265, 0.0, 10.000351, 9.994163 
3.8050184e+3, 1.3499105e+2, -1622138.0, -1627398.8, -0.23754819, 0.00007238354, -0.00009809284, -1622138.0, -5050.1973, 0.0, 10.000353, 9.993379 
3.8050184e+3, 1.4497851e+2, -1534014.3, -1548071.0, -0.07267837, 0.00007756371, 0.00013923337, -1534014.3, -14803.597, 0.0, 10.000355, 9.981723 
3.8050184e+3, 1.5496019e+2, -1436286.4, -1450747.4, -0.15918487, 0.00008587568, -0.000069325484, -1436286.4, -14896.275, 0.0, 10.000356, 9.981192 
3.8050184e+3, 1.6493528e+2, -1348249.0, -1371907.5, -0.44066545, 0.0000864549, 0.000011478555, -1348249.0, -24614.834, 0.0, 10.000358, 9.969089 
3.8050184e+3, 1.7490444e+2, -1250288.6, -1274265.1, -2.480412, 0.00007914859, -0.00007490759, -1250288.6, -24352.088, 0.0, 10.0003605, 9.968675 
3.8050184e+3, 1.8486695e+2, -1162204.5, -1195672.0, -4.6509466, 0.00007576228, 0.00007810223, -1162204.5, -33900.438, 0.0, 10.000362, 9.956238 
3.8050184e+3, 1.948232e+2, -1064055.4, -1097786.1, -5.936152, 0.00007647317, -0.00005541236, -1064055.4, -33322.8, 0.0, 10.000363, 9.955894 
3.8050184e+3, 2.0477282e+2, -975902.25, -1019410.9, -5.9520507, 0.00007773207, 0.00006827894, -975902.25, -42675.793, 0.0, 10.000364, 9.943119 
3.8050184e+3, 2.1471597e+2, -877615.44, -921387.1, -6.9925265, 0.000079583435, -0.00012036608, -877615.44, -41831.89, 0.0, 10.000365, 9.942778 
3.8050184e+3, 2.2465244e+2, -789324.75, -843115.25, -6.7784605, 0.00008091926, 0.0001284803, -789324.75, -50918.574, 0.0, 10.000367, 9.929741 
3.8050184e+3, 2.3458223e+2, -690890.94, -744937.5, -7.2769995, 0.00008167185, -0.00008587433, -690890.94, -49796.844, 0.0, 10.000368, 9.92941 
3.8050184e+3, 2.4450509e+2, -602568.75, -666995.9, -5.49521, 0.00008208261, 0.000074368, -602568.75, -58718.684, 0.0, 10.00037, 9.915966 
3.8050184e+3, 2.5442117e+2, -503816.16, -568321.6, -6.171338, 0.00008208602, -0.00010871875, -503816.16, -57143.74, 0.0, 10.000371, 9.915866 
3.8050184e+3, 2.6433018e+2, -415579.9, -490967.2, -4.216017, 0.00008173597, 0.00013806566, -415579.9, -66015.7, 0.0, 10.000373, 9.901794 
3.8050184e+3, 2.742325e+2, -316294.06, -391354.78, -5.0323987, 0.00008093719, -0.00020513094, -316294.06, -63772.855, 0.0, 10.000375, 9.902214 
3.8050184e+3, 2.8412664e+2, -229821.03, -318065.7, -3.0200987, 0.00008085709, 0.00022752571, -229821.03, -74262.19, 0.0, 10.000377, 9.885265 
3.8050184e+3, 2.9401296e+2, -130113.82, -217750.25, -3.628755, 0.00008176214, -0.00025562686, -130113.82, -71440.85, 0.0, 10.000379, 9.886044 
3.8050184e+3, 3.039272e+2, -40377.676, -84751.63, -1.2443928, 0.000082956576, 0.0001709414, -40377.676, -40377.676, 0.0, 10.000381, 9.941988 
3.8050184e+3, 3.138711e+2, -39296.156, -82512.35, -1.8917043, 0.000084570405, -0.000055972414, -39296.156, -39296.156, 0.0, 10.000384, 9.943499 
3.8150185e+3, 1.24997e+2, -1719525.8, -1724199.3, 3.3239152, 0.00007266403, 0.0000021236178, -1719525.8, -4496.339, 0.0, 10.000351, 9.994155 
3.8150185e+3, 1.3499108e+2, -1622144.5, -1627410.9, 0.49268132, 0.0000744294, -0.00008807895, -1622144.5, -5056.867, 0.0, 10.000353, 9.993371 
3.8150185e+3, 1.4497854e+2, -1534014.5, -1548071.4, 0.4470232, 0.0000784034, 0.00015514804, -1534014.5, -14803.984, 0.0, 10.000355, 9.981723 
3.8150185e+3, 1.549602e+2, -1436286.5, -1450747.8, 0.3639463, 0.000084589105, -0.000068351284, -1436286.5, -14896.585, 0.0, 10.000356, 9.981192 
3.8150185e+3, 1.6493528e+2, -1348253.5, -1371916.1, 0.58772534, 0.000084456005, 0.0000041335916, -1348253.5, -24619.373, 0.0, 10.000358, 9.969083 
3.8150185e+3, 1.7490442e+2, -1250293.1, -1274273.8, -1.444383, 0.00007787936, -0.000083820276, -1250293.1, -24356.521, 0.0, 10.0003605, 9.968669 
3.8150185e+3, 1.8486694e+2, -1162207.3, -1195677.4, -4.3223925, 0.00007534889, 0.00007117885, -1162207.3, -33903.15, 0.0, 10.000362, 9.956234 
3.8150185e+3, 1.9482319e+2, -1064058.1, -1097791.5, -5.6130366, 0.00007704753, -0.00005662863, -1064058.1, -33325.457, 0.0, 10.000363, 9.955892 
3.8150185e+3, 2.047728e+2, -975904.5, -1019415.3, -5.4865294, 0.000078855526, 0.00006983293, -975904.5, -42677.953, 0.0, 10.000364, 9.943116 
3.8150185e+3, 2.1471596e+2, -877617.6, -921391.44, -6.5250263, 0.00008078142, -0.000119219665, -877617.6, -41833.98, 0.0, 10.000365, 9.942775 
3.8150185e+3, 2.2465242e+2, -789325.9, -843117.5, -6.248806, 0.00008206632, 0.00012939563, -789325.9, -50919.555, 0.0, 10.000367, 9.929739 
3.8150185e+3, 2.3458222e+2, -690892.0, -744939.6, -6.7464733, 0.00008262634, -0.00008498918, -690892.0, -49797.766, 0.0, 10.000368, 9.929408 
3.8150185e+3, 2.4450508e+2, -602570.3, -666999.0, -4.991548, 0.000083184415, 0.00007444616, -602570.3, -58720.08, 0.0, 10.00037, 9.915964 
3.8150185e+3, 2.5442114e+2, -503817.72, -568324.75, -5.668295, 0.00008374102, -0.00011037512, -503817.72, -57145.11, 0.0, 10.000371, 9.915864 
3.8150185e+3, 2.6433018e+2, -415581.88, -490971.16, -3.5511363, 0.000083500505, 0.0001360114, -415581.88, -66017.43, 0.0, 10.000373, 9.901792 
3.8150185e+3, 2.742325e+2, -316296.0, -391358.78, -4.3566837, 0.00008224602, -0.00020588088, -316296.0, -63774.56, 0.0, 10.000375, 9.902212 
3.8150185e+3, 2.841266e+2, -229822.72, -318069.2, -2.1870737, 0.00008187966, 0.00022754265, -229822.72, -74263.62, 0.0, 10.000377, 9.885263 
3.8150185e+3, 2.9401293e+2, -130115.47, -217753.69, -2.7820113, 0.00008273286, -0.00025558623, -130115.47, -71442.22, 0.0, 10.000379, 9.886042 
3.8150188e+3, 3.0392718e+2, -40379.55, -84755.54, -0.12470191, 0.00008395496, 0.00017046974, -40379.55, -40379.55, 0.0, 10.000381, 9.941985 
3.8150188e+3, 3.1387106e+2, -39298.063, -82516.32, -0.7396966, 0.0000857124, -0.00005774489, -39298.063, -39298.063, 0.0, 10.000384, 9.943496 
3.825019e+3, 1.2499699e+2, -1719511.9, -1724198.4, -9.984775, 0.000075012416, -0.000003620451, -1719511.9, -4482.4956, 0.0, 10.000362, 9.994149 
3.825019e+3, 1.3499108e+2, -1622125.6, -1627407.5, -11.481624, 0.00007677303, -0.000083229665, -1622125.6, -5037.9565, 0.0, 10.000367, 9.993365 
3.825019e+3, 1.4497854e+2, -1533987.0, -1548054.0, -10.918152, 0.000079525984, 0.00016353397, -1533987.0, -14776.521, 0.0, 10.00037, 9.981726 
3.825019e+3, 1.549602e+2, -1436260.9, -1450731.5, -9.045062, 0.000083268686, -0.00006800084, -1436260.9, -14870.952, 0.0, 10.000371, 9.981194 
3.825019e+3, 1.6493528e+2, -1348234.0, -1371907.9, -6.207418, 0.00008279794, 0.0000009979168, -1348234.0, -24599.822, 0.0, 10.000371, 9.969081 
3.825019e+3, 1.7490442e+2, -1250277.1, -1274267.4, -5.5078473, 0.000078030775, -0.000085803134, -1250277.1, -24340.445, 0.0, 10.000372, 9.968668 
3.825019e+3, 1.8486694e+2, -1162192.0, -1195671.3, -6.429122, 0.00007638035, 0.00007049843, -1162192.0, -33887.84, 0.0, 10.000373, 9.956233 
3.825019e+3, 1.9482319e+2, -1064041.4, -1097784.5, -6.306303, 0.00007798753, -0.000055850247, -1064041.4, -33308.656, 0.0, 10.000375, 9.95589 
3.825019e+3, 2.047728e+2, -975888.75, -1019411.06, -5.7666245, 0.000079865524, 0.000070699745, -975888.75, -42662.1, 0.0, 10.000377, 9.943113 
3.825019e+3, 2.1471594e+2, -877602.44, -921387.56, -7.271009, 0.00008203621, -0.00011974719, -877602.44, -41818.63, 0.0, 10.000378, 9.942772 
3.825019e+3, 2.2465241e+2, -789310.1, -843112.06, -7.4397235, 0.00008338575, 0.00012890299, -789310.1, -50903.61, 0.0, 10.000379, 9.929737 
3.825019e+3, 2.345822e+2, -690876.44, -744934.25, -8.56313, 0.00008380659, -0.00008383001, -690876.44, -49781.996, 0.0, 10.00038, 9.929406 
3.825019e+3, 2.4450505e+2, -602554.4, -666992.8, -6.997509, 0.00008439255, 0.00007543526, -602554.4, -58703.926, 0.0, 10.000381, 9.915962 
3.825019e+3, 2.5442111e+2, -503801.75, -568318.56, -7.3205123, 0.00008517668, -0.000111732516, -503801.75, -57128.91, 0.0, 10.000382, 9.915862 
3.825019e+3, 2.6433015e+2, -415566.47, -490966.34, -4.8076515, 0.00008495497, 0.00013366605, -415566.47, -66001.77, 0.0, 10.000384, 9.901789 
3.825019e+3, 2.7423248e+2, -316280.4, -391354.0, -5.571323, 0.00008345333, -0.0002074811, -316280.4, -63758.69, 0.0, 10.000386, 9.902209 
3.825019e+3, 2.8412658e+2, -229807.11, -318064.44, -3.407519, 0.00008289375, 0.00022678591, -229807.11, -74247.73, 0.0, 10.000388, 9.885261 
3.825019e+3, 2.940129e+2, -130100.25, -217749.17, -4.231667, 0.00008362875, -0.00025537296, -130100.25, -71426.69, 0.0, 10.00039, 9.886039 
3.825019e+3, 3.0392715e+2, -40364.957, -84751.26, -1.424648, 0.00008491162, 0.00017080749, -40364.957, -40364.957, 0.0, 10.000392, 9.941983 
3.825019e+3, 3.13871e+2, -39284.387, -82512.47, -1.8498697, 0.00008699478, -0.000058539303, -39284.387, -39284.387, 0.0, 10.000395, 9.943493 
3.8350192e+3, 1.2499697e+2, -1719515.3, -1724204.9, -8.013348, 0.00007737281, -0.0000030489034, -1719515.3, -4485.7236, 0.0, 10.000362, 9.994145 
3.8350192e+3, 1.3499105e+2, -1622129.0, -1627413.9, -9.513385, 0.0000794124, -0.000083508305, -1622129.0, -5041.0933, 0.0, 10.000367, 9.993361 
3.8350192e+3, 1.4497851e+2, -1533982.8, -1548046.0, -10.749752, 0.00008092957, 0.00016444588, -1533982.8, -14772.023, 0.0, 10.00037, 9.98173 
3.8350192e+3, 1.5496019e+2, -1436256.8, -1450723.5, -8.882186, 0.00008191477, -0.00006827075, -1436256.6, -14866.571, 0.0, 10.000371, 9.981198 
3.8350192e+3, 1.6493526e+2, -1348232.5, -1371904.9, -5.9604764, 0.000081478196, 0.0000020392458, -1348232.5, -24598.145, 0.0, 10.000371, 9.969083 
3.8350192e+3, 1.749044e+2, -1250275.5, -1274264.5, -5.267617, 0.000079592224, -0.00008090835, -1250275.5, -24338.838, 0.0, 10.000372, 9.968669 
3.8350192e+3, 1.8486692e+2, -1162191.6, -1195670.6, -5.7312407, 0.00007884586, 0.0000760143, -1162191.6, -33887.45, 0.0, 10.000373, 9.956233 
3.8350192e+3, 1.9482318e+2, -1064041.0, -1097783.9, -5.6051087, 0.00007929053, -0.00005309191, -1064041.0, -33308.273, 0.0, 10.000375, 9.95589 
3.8350192e+3, 2.0477279e+2, -975891.9, -1019417.2, -5.4018865, 0.000080763006, 0.000070884766, -975891.9, -42665.145, 0.0, 10.000377, 9.943109 
3.8350192e+3, 2.1471593e+2, -877605.6, -921393.8, -6.9119024, 0.00008334747, -0.00012193607, -877605.6, -41821.645, 0.0, 10.000378, 9.942767 
3.8350192e+3, 2.246524e+2, -789312.5, -843116.8, -6.9432163, 0.00008487632, 0.00012701283, -789312.5, -50905.816, 0.0, 10.000379, 9.929734 
3.8350192e+3, 2.3458219e+2, -690878.75, -744938.94, -8.062485, 0.00008521098, -0.000082399005, -690878.75, -49784.14, 0.0, 10.00038, 9.929403 
3.8350192e+3, 2.4450503e+2, -602555.3, -666994.7, -6.4727864, 0.00008570628, 0.00007732839, -602555.3, -58704.637, 0.0, 10.000381, 9.915961 
3.8350192e+3, 2.5442111e+2, -503802.63, -568320.3, -6.7942076, 0.0000863947, -0.00011279324, -503802.63, -57129.523, 0.0, 10.000382, 9.915861 
3.8350192e+3, 2.6433012e+2, -415568.3, -490970.1, -4.0629764, 0.00008610174, 0.00013103177, -415568.3, -66003.35, 0.0, 10.000384, 9.901787 
3.8350192e+3, 2.7423245e+2, -316282.28, -391357.88, -4.811897, 0.00008455994, -0.00020992535, -316282.28, -63760.285, 0.0, 10.000386, 9.902206 
3.8350195e+3, 2.8412655e+2, -229809.23, -318068.8, -2.6361957, 0.00008389951, 0.0002252612, -229809.23, -74249.516, 0.0, 10.000388, 9.885258 
3.8350195e+3, 2.9401284e+2, -130102.35, -217753.55, -3.4599977, 0.00008445047, -0.00025498838, -130102.35, -71428.45, 0.0, 10.00039, 9.886036 
3.8350195e+3, 3.0392712e+2, -40366.598, -84754.68, -0.52931905, 0.00008582691, 0.00017194847, -40366.598, -40366.598, 0.0, 10.000392, 9.94198 
3.8350195e+3, 3.1387097e+2, -39285.98, -82515.79, -0.9401523, 0.00008841647, -0.00005836304, -39285.98, -39285.98, 0.0, 10.000395, 9.943491 
3.8450196e+3, 1.2499696e+2, -1719488.0, -1724197.5, 5.2418094, 0.00008101632, -0.000007703044, -1719488.0, -4458.3687, 0.0, 10.000382, 9.994139 
3.8450196e+3, 1.3499105e+2, -1622109.3, -1627410.6, 1.9927319, 0.000081779384, -0.00008324042, -1622109.3, -5021.2466, 0.0, 10.000383, 9.993356 
3.8450196e+3, 1.4497851e+2, -1533959.9, -1548030.8, -2.0527344, 0.00008161151, 0.00016740402, -1533959.9, -14748.99, 0.0, 10.000383, 9.981733 
3.8450196e+3, 1.5496017e+2, -1436235.4, -1450709.1, -1.9021586, 0.0000805015, -0.000069084956, -1436235.4, -14845.143, 0.0, 10.000382, 9.981201 
3.8450196e+3, 1.6493526e+2, -1348216.5, -1371899.9, -1.3448848, 0.00008059663, 0.00000003483215, -1348216.5, -24582.154, 0.0, 10.000382, 9.96908 
3.8450196e+3, 1.749044e+2, -1250259.5, -1274259.5, -4.2809486, 0.00008192145, -0.000081470476, -1250259.5, -24322.703, 0.0, 10.000383, 9.968666 
3.8450196e+3, 1.8486689e+2, -1162173.8, -1195662.4, -6.5970554, 0.00008218041, 0.000076639335, -1162173.8, -33869.355, 0.0, 10.000385, 9.956232 
3.8450196e+3, 1.9482316e+2, -1064022.6, -1097775.5, -7.469705, 0.00008132515, -0.000051546423, -1064022.6, -33289.77, 0.0, 10.000387, 9.955889 
3.8450196e+3, 2.0477277e+2, -975875.5, -1019412.4, -7.996626, 0.00008206236, 0.00007213866, -975875.5, -42648.61, 0.0, 10.000388, 9.943106 
3.8450196e+3, 2.1471591e+2, -877590.2, -921389.56, -8.895803, 0.00008452277, -0.00012228536, -877590.2, -41806.043, 0.0, 10.000389, 9.942764 
3.8450196e+3, 2.2465236e+2, -789297.56, -843112.9, -8.407008, 0.00008608372, 0.000126697, -789297.56, -50890.63, 0.0, 10.00039, 9.929731 
3.8450196e+3, 2.3458216e+2, -690863.7, -744935.0, -9.661176, 0.000086626795, -0.000080829835, -690863.7, -49768.816, 0.0, 10.000391, 9.9294 
3.8450196e+3, 2.44505e+2, -602538.25, -666987.2, -8.012584, 0.00008712095, 0.00007873299, -602538.25, -58687.332, 0.0, 10.000393, 9.91596 
3.8450196e+3, 2.544211e+2, -503785.25, -568312.56, -8.109749, 0.000087557884, -0.00011400178, -503785.25, -57111.883, 0.0, 10.000394, 9.91586 
3.8450196e+3, 2.643301e+2, -415552.03, -490964.66, -5.062241, 0.00008713905, 0.00012854965, -415552.03, -65986.77, 0.0, 10.000396, 9.901784 
3.8450196e+3, 2.7423242e+2, -316266.34, -391352.72, -5.712958, 0.000085631735, -0.00021197152, -316266.34, -63744.016, 0.0, 10.000398, 9.9022045 
3.8450196e+3, 2.8412652e+2, -229794.11, -318065.13, -3.6275053, 0.00008493517, 0.00022404567, -229794.11, -74234.055, 0.0, 10.0004, 9.885255 
3.8450196e+3, 2.940128e+2, -130087.48, -217750.11, -4.815963, 0.00008535264, -0.00025484135, -130087.48, -71413.2, 0.0, 10.0004015, 9.886033 
3.8450196e+3, 3.0392706e+2, -40351.434, -84750.08, -2.023881, 0.00008668271, 0.00017269848, -40351.434, -40351.434, 0.0, 10.000403, 9.941978 
3.84502e+3, 3.1387094e+2, -39271.184, -82511.25, -2.494894, 0.00008935612, -0.00005814324, -39271.184, -39271.184, 0.0, 10.000406, 9.943488 
3.8550204e+3, 1.2499697e+2, -1719495.5, -1724211.4, 5.44371, 0.0000859332, -0.000017362305, -1719495.5, -4465.968, 0.0, 10.000382, 9.99413 
3.8550204e+3, 1.3499105e+2, -1622116.8, -1627424.5, 2.2055235, 0.00008387621, -0.000082428945, -1622116.8, -5028.7407, 0.0, 10.000383, 9.993347 
3.85502e+3, 1.4497851e+2, -1533959.5, -1548030.1, -2.2410822, 0.00008157751, 0.0001723933, -1533959.5, -14748.694, 0.0, 10.000383, 9.981733 
3.85502e+3, 1.5496017e+2, -1436235.0, -1450708.5, -2.0950487, 0.000079029276, -0.00007043819, -1436235.0, -14844.805, 0.0, 10.000382, 9.981202 
3.85502e+3, 1.6493525e+2, -1348223.0, -1371912.3, -1.0608075, 0.00008014971, -0.000004990789, -1348223.0, -24588.576, 0.0, 10.000382, 9.969072 
3.85502e+3, 1.7490439e+2, -1250266.0, -1274271.9, -3.9934714, 0.00008501245, -0.000087446984, -1250266.0, -24328.982, 0.0, 10.000383, 9.968658 
3.85502e+3, 1.8486688e+2, -1162175.6, -1195666.0, -5.7772417, 0.00008637731, 0.0000724112, -1162175.6, -33871.082, 0.0, 10.000385, 9.95623 
3.85502e+3, 1.9482315e+2, -1064024.5, -1097779.1, -6.6423006, 0.00008408588, -0.000051204795, -1064024.5, -33291.45, 0.0, 10.000387, 9.955887 
3.85502e+3, 2.0477276e+2, -975877.44, -1019416.1, -7.8289647, 0.00008376063, 0.00007445279, -975877.44, -42650.344, 0.0, 10.000388, 9.943104 
3.85502e+3, 2.1471588e+2, -877592.06, -921393.3, -8.74299, 0.00008556323, -0.00012080947, -877592.06, -41807.723, 0.0, 10.000389, 9.942762 
3.85502e+3, 2.2465235e+2, -789300.2, -843118.1, -7.867981, 0.00008701015, 0.00012794329, -789300.2, -50893.05, 0.0, 10.00039, 9.929728 
3.85502e+3, 2.3458214e+2, -690866.3, -744940.25, -9.109863, 0.00008805399, -0.00007912364, -690866.3, -49771.195, 0.0, 10.000391, 9.929397 
3.85502e+3, 2.4450497e+2, -602538.8, -666988.25, -7.4024134, 0.00008863585, 0.0000796528, -602538.75, -58687.563, 0.0, 10.000393, 9.915959 
3.8550204e+3, 2.5442106e+2, -503785.66, -568313.44, -7.4971867, 0.000088666755, -0.000115357034, -503785.66, -57111.996, 0.0, 10.000395, 9.915859 
3.8550204e+3, 2.6433006e+2, -415553.7, -490968.03, -4.351376, 0.000088067856, 0.00012621847, -415553.7, -65988.12, 0.0, 10.000396, 9.901782 
3.8550204e+3, 2.7423236e+2, -316268.06, -391356.25, -4.995701, 0.000086669024, -0.00021362274, -316268.06, -63745.406, 0.0, 10.000398, 9.902202 
3.8550204e+3, 2.8412646e+2, -229796.86, -318070.78, -2.883014, 0.000086000546, 0.00022313684, -229796.86, -74236.44, 0.0, 10.0004, 9.885251 
3.8550204e+3, 2.9401278e+2, -130090.27, -217755.92, -4.0686426, 0.000086334745, -0.00025493008, -130090.27, -71415.6, 0.0, 10.0004015, 9.886029 
3.8550204e+3, 3.0392703e+2, -40353.26, -84753.89, -1.2325416, 0.000087479566, 0.00017306043, -40353.26, -40353.26, 0.0, 10.000403, 9.941976 
3.8550204e+3, 3.1387088e+2, -39272.902, -82514.83, -1.6988132, 0.00008981755, -0.000057880345, -39272.902, -39272.902, 0.0, 10.000406, 9.943486 
3.8650206e+3, 1.24996975e+2, -1719474.5, -1724202.0, -0.9818949, 0.000086665685, -0.00002165215, -1719474.5, -4445.0435, 0.0, 10.000397, 9.994128 
3.8650206e+3, 1.3499106e+2, -1622101.0, -1627418.0, 1.0280058, 0.00008599037, -0.0000789047, -1622101.0, -5013.1646, 0.0, 10.000394, 9.993345 
3.8650206e+3, 1.4497851e+2, -1533942.3, -1548023.5, -0.43178374, 0.00008444528, 0.0001777161, -1533942.3, -14731.485, 0.0, 10.000395, 9.981731 
3.8650206e+3, 1.5496017e+2, -1436208.1, -1450696.9, -2.266987, 0.000082019746, -0.00007332995, -1436208.1, -14818.033, 0.0, 10.000401, 9.981199 
3.8650206e+3, 1.6493525e+2, -1348197.0, -1371906.9, -3.0141804, 0.000082710234, -0.000010307307, -1348197.0, -24562.584, 0.0, 10.000402, 9.969066 
3.8650206e+3, 1.7490438e+2, -1250243.0, -1274268.1, -5.499504, 0.00008657952, -0.000089285364, -1250243.0, -24305.951, 0.0, 10.0004015, 9.968652 
3.8650206e+3, 1.8486686e+2, -1162152.4, -1195655.5, -6.5222445, 0.00008771625, 0.00007293118, -1162152.4, -33847.72, 0.0, 10.000401, 9.956228 
3.8650206e+3, 1.9482313e+2, -1064007.4, -1097771.6, -6.592924, 0.00008599662, -0.000049497, -1064007.4, -33274.23, 0.0, 10.000399, 9.955886 
3.8650206e+3, 2.0477274e+2, -975863.94, -1019412.9, -7.3206787, 0.00008594609, 0.00007594349, -975863.94, -42636.688, 0.0, 10.000399, 9.9431 
3.8650206e+3, 2.1471587e+2, -877576.1, -921388.9, -8.902107, 0.00008770198, -0.0001210563, -877576.1, -41791.566, 0.0, 10.000401, 9.942759 
3.8650206e+3, 2.2465232e+2, -789283.25, -843113.6, -8.371209, 0.00008883737, 0.00012711807, -789283.25, -50875.813, 0.0, 10.000402, 9.929724 
3.8650206e+3, 2.3458211e+2, -690849.4, -744935.8, -9.761349, 0.00008927031, -0.00007921571, -690849.4, -49753.977, 0.0, 10.000404, 9.929393 
3.8650206e+3, 2.4450494e+2, -602520.06, -666979.9, -8.239008, 0.00008941707, 0.00007956647, -602520.06, -58668.527, 0.0, 10.000405, 9.915958 
3.8650206e+3, 2.5442103e+2, -503767.4, -568305.2, -8.5547495, 0.00008922299, -0.00011630752, -503767.4, -57093.414, 0.0, 10.000407, 9.915859 
3.8650206e+3, 2.6433e+2, -415537.16, -490962.47, -5.5052094, 0.00008882774, 0.00012486854, -415537.16, -65971.266, 0.0, 10.000408, 9.90178 
3.8650206e+3, 2.7423233e+2, -316252.34, -391351.25, -6.2390985, 0.00008817731, -0.00021477892, -316252.34, -63729.336, 0.0, 10.00041, 9.9022 
3.8650206e+3, 2.8412643e+2, -229782.23, -318067.56, -3.971871, 0.00008773831, 0.00022227557, -229782.23, -74221.44, 0.0, 10.000411, 9.885247 
3.865021e+3, 2.9401273e+2, -130075.55, -217752.81, -4.9501843, 0.000087589564, -0.00025536085, -130075.55, -71400.45, 0.0, 10.000414, 9.886025 
3.865021e+3, 3.0392697e+2, -40337.754, -84749.49, -1.9878212, 0.00008816028, 0.00017313672, -40337.754, -40337.754, 0.0, 10.000416, 9.941973 
3.865021e+3, 3.1387085e+2, -39256.883, -82510.07, -2.6280537, 0.00008979575, -0.00005718507, -39256.883, -39256.883, 0.0, 10.000418, 9.943483 
3.875021e+3, 1.24996975e+2, -1719469.8, -1724193.4, -1.9816777, 0.000083247614, -0.0000204586, -1719469.8, -4440.341, 0.0, 10.000397, 9.994134 
3.875021e+3, 1.3499106e+2, -1622096.4, -1627409.4, 0.017602334, 0.00008812145, -0.000072689494, -1622096.4, -5008.629, 0.0, 10.000394, 9.993351 
3.875021e+3, 1.4497854e+2, -1533946.3, -1548031.3, 1.6265626, 0.000090191104, 0.00018337042, -1533946.3, -14735.695, 0.0, 10.000395, 9.981727 
3.875021e+3, 1.5496017e+2, -1436212.3, -1450704.6, -0.20031534, 0.00008943712, -0.00007774815, -1436212.3, -14822.1, 0.0, 10.000401, 9.9811945 
3.875021e+3, 1.6493523e+2, -1348202.5, -1371917.4, -3.4081407, 0.00008825442, -0.000015912983, -1348202.5, -24567.992, 0.0, 10.000402, 9.969059 
3.875021e+3, 1.7490436e+2, -1250248.5, -1274278.5, -5.9019985, 0.00008663536, -0.00008701912, -1250248.5, -24311.28, 0.0, 10.0004015, 9.968645 
3.875021e+3, 1.8486685e+2, -1162152.6, -1195655.9, -7.1616354, 0.000086220454, 0.00007816119, -1162152.6, -33847.793, 0.0, 10.000401, 9.956228 
3.875021e+3, 1.9482312e+2, -1064007.6, -1097772.0, -7.2373114, 0.00008706411, -0.000046433714, -1064007.6, -33274.227, 0.0, 10.000399, 9.955885 
3.875021e+3, 2.0477271e+2, -975867.2, -1019419.25, -6.5739326, 0.000088614695, 0.000076617696, -975867.2, -42639.773, 0.0, 10.000399, 9.943096 
3.875021e+3, 2.1471584e+2, -877579.44, -921395.4, -8.125811, 0.00009093023, -0.00012301191, -877579.44, -41794.617, 0.0, 10.000401, 9.942755 
3.875021e+3, 2.2465228e+2, -789286.25, -843119.56, -7.8025618, 0.0000915583, 0.00012423795, -789286.25, -50878.527, 0.0, 10.000402, 9.92972 
3.875021e+3, 2.3458208e+2, -690852.4, -744941.75, -9.197381, 0.00009027759, -0.00008109166, -690852.4, -49756.617, 0.0, 10.000404, 9.929389 
3.875021e+3, 2.4450491e+2, -602521.0, -666981.8, -7.7313538, 0.00008947062, 0.00007848203, -602521.0, -58669.15, 0.0, 10.000405, 9.915957 
3.875021e+3, 2.5442097e+2, -503768.25, -568306.94, -8.052011, 0.00008923108, -0.000116856536, -503768.25, -57093.93, 0.0, 10.000407, 9.915857 
3.875021e+3, 2.6432997e+2, -415539.0, -490966.25, -4.953975, 0.00008942011, 0.00012449193, -415539.0, -65972.77, 0.0, 10.000408, 9.901777 
3.875021e+3, 2.742323e+2, -316254.25, -391355.16, -5.684479, 0.00009015283, -0.00021544412, -316254.25, -63730.863, 0.0, 10.00041, 9.902197 
3.875021e+3, 2.841264e+2, -229784.66, -318072.56, -3.178397, 0.0000901431, 0.00022146136, -229784.66, -74223.445, 0.0, 10.000411, 9.885244 
3.875021e+3, 2.940127e+2, -130077.98, -217757.86, -4.134836, 0.00008911499, -0.00025613094, -130077.98, -71402.44, 0.0, 10.000414, 9.886022 
3.875021e+3, 3.0392694e+2, -40339.85, -84753.87, -1.0863687, 0.00008872589, 0.00017292968, -40339.85, -40339.85, 0.0, 10.000416, 9.94197 
3.8750213e+3, 3.138708e+2, -39258.945, -82514.375, -1.7170949, 0.00008929473, -0.00005606097, -39258.945, -39258.945, 0.0, 10.000418, 9.9434805 
3.8850212e+3, 1.2499697e+2, -1719449.8, -1724184.3, -2.6468005, 0.00008360705, -0.000022090446, -1719449.8, -4420.295, 0.0, 10.000409, 9.994132 
3.8850212e+3, 1.3499106e+2, -1622071.0, -1627397.5, -5.7057595, 0.000090715715, -0.00007441642, -1622071.0, -4983.193, 0.0, 10.00041, 9.993349 
3.8850212e+3, 1.4497854e+2, -1533921.5, -1548020.6, -3.8364608, 0.00009399406, 0.00018234213, -1533921.5, -14710.851, 0.0, 10.000412, 9.981724 
3.8850212e+3, 1.5496016e+2, -1436192.8, -1450696.9, -3.6727, 0.00009341786, -0.000081010854, -1436192.8, -14802.468, 0.0, 10.000414, 9.981193 
3.8850212e+3, 1.6493522e+2, -1348188.5, -1371914.9, -7.1533475, 0.000091306756, -0.000018637696, -1348188.5, -24553.803, 0.0, 10.000414, 9.969054 
3.8850212e+3, 1.7490435e+2, -1250236.8, -1274277.3, -7.9226556, 0.000087631124, -0.0000863804, -1250236.8, -24299.35, 0.0, 10.000411, 9.96864 
3.8850212e+3, 1.8486683e+2, -1162137.4, -1195649.9, -8.202006, 0.00008706568, 0.00008027116, -1162137.4, -33832.37, 0.0, 10.000411, 9.956226 
3.8850212e+3, 1.948231e+2, -1063987.3, -1097763.4, -9.394303, 0.000089751156, -0.00004483059, -1063987.3, -33253.715, 0.0, 10.000413, 9.955884 
3.8850212e+3, 2.047727e+2, -975846.5, -1019412.5, -8.493225, 0.00009165249, 0.00007765282, -975846.5, -42618.867, 0.0, 10.000414, 9.943092 
3.8850212e+3, 2.1471582e+2, -877560.5, -921389.6, -9.517003, 0.0000927052, -0.00012261143, -877560.5, -41775.453, 0.0, 10.000415, 9.942751 
3.8850212e+3, 2.2465225e+2, -789267.8, -843113.06, -8.540747, 0.00009273115, 0.00012394476, -789267.8, -50859.816, 0.0, 10.000416, 9.929718 
3.8850212e+3, 2.3458205e+2, -690834.6, -744935.56, -8.93165, 0.00009159618, -0.00008214527, -690834.6, -49738.594, 0.0, 10.000417, 9.929387 
3.8850212e+3, 2.4450488e+2, -602503.06, -666975.6, -7.194826, 0.000090626614, 0.000077168246, -602503.06, -58650.85, 0.0, 10.000419, 9.915955 
3.8850215e+3, 2.5442094e+2, -503748.9, -568300.1, -8.54921, 0.000089855566, -0.0001178335, -503748.9, -57074.227, 0.0, 10.000421, 9.915855 
3.8850215e+3, 2.6432994e+2, -415519.9, -490959.6, -6.4215293, 0.00008996763, 0.00012381922, -415519.9, -65953.3, 0.0, 10.0004225, 9.901774 
3.8850215e+3, 2.7423227e+2, -316237.5, -391349.72, -7.148436, 0.00009120247, -0.00021585531, -316237.5, -63713.7, 0.0, 10.0004225, 9.902194 
3.8850215e+3, 2.8412634e+2, -229769.77, -318068.7, -4.0856752, 0.0000915269, 0.00022108594, -229769.77, -74208.12, 0.0, 10.0004225, 9.885241 
3.8850215e+3, 2.9401264e+2, -130063.53, -217754.31, -4.806431, 0.00009060051, -0.00025677925, -130063.53, -71387.52, 0.0, 10.000424, 9.886019 
3.8850215e+3, 3.039269e+2, -40325.664, -84750.63, -1.5562123, 0.000090040565, 0.00017248405, -40325.664, -40325.664, 0.0, 10.000427, 9.941967 
3.8850215e+3, 3.1387073e+2, -39244.344, -82510.96, -2.420613, 0.00009003608, -0.00005559532, -39244.344, -39244.344, 0.0, 10.00043, 9.943478 
3.8950217e+3, 1.2499696e+2, -1719456.9, -1724197.4, -2.3495398, 0.00008771199, -0.000026382131, -1719456.9, -4427.268, 0.0, 10.000409, 9.994124 
3.8950217e+3, 1.3499105e+2, -1622078.0, -1627410.6, -5.403942, 0.00009376965, -0.000084020015, -1622078.0, -4989.9766, 0.0, 10.00041, 9.993341 
3.8950217e+3, 1.449785e+2, -1533921.1, -1548020.0, -2.9525583, 0.000095870826, 0.00017468556, -1533921.1, -14710.274, 0.0, 10.000412, 9.981725 
3.8950217e+3, 1.5496014e+2, -1436192.4, -1450696.3, -2.7931676, 0.00009399074, -0.00008312832, -1436192.4, -14801.96, 0.0, 10.000414, 9.981193 
3.8950217e+3, 1.649352e+2, -1348190.1, -1371918.0, -8.068808, 0.00009188782, -0.000018505507, -1348190.1, -24555.316, 0.0, 10.000414, 9.969052 
3.8950217e+3, 1.7490433e+2, -1250238.4, -1274280.5, -8.848768, 0.00008955866, -0.000087355525, -1250238.4, -24300.799, 0.0, 10.000411, 9.968638 
3.8950217e+3, 1.8486682e+2, -1162139.9, -1195654.9, -7.610639, 0.00009023223, 0.00007928711, -1162139.9, -33834.727, 0.0, 10.000411, 9.9562235 
3.8950217e+3, 1.9482309e+2, -1063989.8, -1097768.3, -8.785717, 0.00009404441, -0.000044675835, -1063989.8, -33256.03, 0.0, 10.000413, 9.95588 
3.8950217e+3, 2.0477267e+2, -975848.75, -1019416.94, -8.109716, 0.000095056654, 0.00007904541, -975848.75, -42620.855, 0.0, 10.000414, 9.9430895 
3.8950217e+3, 2.147158e+2, -877562.7, -921394.0, -9.141577, 0.00009303915, -0.00011987475, -877562.7, -41777.39, 0.0, 10.000415, 9.942748 
3.8950217e+3, 2.2465222e+2, -789268.75, -843114.94, -8.137409, 0.00009236884, 0.00012621691, -789268.75, -50860.477, 0.0, 10.000416, 9.929716 
3.8950217e+3, 2.34582e+2, -690835.56, -744937.4, -8.527071, 0.000093223476, -0.000082383216, -690835.56, -49739.184, 0.0, 10.000417, 9.929385 
3.8950217e+3, 2.4450484e+2, -602505.94, -666981.44, -6.3405156, 0.000092875925, 0.00007562721, -602505.94, -58653.4, 0.0, 10.000419, 9.915951 
3.8950217e+3, 2.544209e+2, -503751.84, -568306.06, -7.672494, 0.00009109148, -0.00011923488, -503751.84, -57076.793, 0.0, 10.000421, 9.915852 
3.8950217e+3, 2.6432988e+2, -415521.84, -490963.53, -6.3771315, 0.0000904709, 0.00012285275, -415521.84, -65954.82, 0.0, 10.0004225, 9.9017725 
3.8950217e+3, 2.742322e+2, -316239.3, -391353.5, -7.1605144, 0.00009133405, -0.00021601468, -316239.3, -63715.113, 0.0, 10.0004225, 9.902192 
3.895022e+3, 2.841263e+2, -229771.81, -318072.94, -3.4140396, 0.000091898255, 0.0002211456, -229771.81, -74209.734, 0.0, 10.0004225, 9.885239 
3.895022e+3, 2.940126e+2, -130065.586, -217758.58, -4.0728655, 0.00009204649, -0.00025730682, -130065.586, -71389.11, 0.0, 10.000424, 9.886016 
3.895022e+3, 3.0392683e+2, -40328.156, -84755.82, -0.5627734, 0.00009209805, 0.00017180182, -40328.156, -40328.156, 0.0, 10.000427, 9.941963 
3.895022e+3, 3.1387067e+2, -39246.9, -82516.266, -1.3961722, 0.00009200938, -0.000055782664, -39246.9, -39246.9, 0.0, 10.00043, 9.943474 
3.905022e+3, 1.2499697e+2, -1719427.0, -1724187.8, 2.3232558, 0.00009108084, -0.000027218273, -1719427.0, -4397.4326, 0.0, 10.000431, 9.994119 
3.905022e+3, 1.3499105e+2, -1622051.6, -1627402.9, 1.185, 0.00009584362, -0.00008503883, -1622051.6, -4963.5396, 0.0, 10.000429, 9.993336 
3.905022e+3, 1.449785e+2, -1533897.9, -1548010.6, 3.5197146, 0.0000969776, 0.00017464337, -1533897.9, -14686.9375, 0.0, 10.000427, 9.981722 
3.905022e+3, 1.5496014e+2, -1436177.0, -1450691.1, 1.3981923, 0.0000944597, -0.000084528976, -1436177.0, -14786.506, 0.0, 10.000425, 9.981191 
3.905022e+3, 1.6493519e+2, -1348176.1, -1371914.3, -5.5916758, 0.00009283296, -0.00001942803, -1348176.1, -24541.24, 0.0, 10.000424, 9.969049 
3.905022e+3, 1.7490432e+2, -1250218.5, -1274273.6, -7.2027497, 0.0000921161, -0.00008592952, -1250218.5, -24280.818, 0.0, 10.000425, 9.968636 
3.905022e+3, 1.848668e+2, -1162117.3, -1195646.6, -5.577924, 0.00009368361, 0.00008033637, -1162117.3, -33811.84, 0.0, 10.000427, 9.956221 
3.905022e+3, 1.9482306e+2, -1063967.3, -1097760.3, -6.7309604, 0.00009763883, -0.00004685241, -1063967.3, -33233.31, 0.0, 10.000428, 9.955877 
3.905022e+3, 2.0477265e+2, -975827.8, -1019411.75, -7.0530796, 0.000097475044, 0.00007629822, -975827.8, -42599.707, 0.0, 10.00043, 9.943085 
3.905022e+3, 2.1471576e+2, -877542.1, -921389.06, -9.70669, 0.0000928542, -0.000120320095, -877542.1, -41756.48, 0.0, 10.000431, 9.942743 
3.905022e+3, 2.2465219e+2, -789246.2, -843104.75, -9.690119, 0.00009158839, 0.0001271639, -789246.2, -50837.582, 0.0, 10.000431, 9.929715 
3.905022e+3, 2.3458198e+2, -690814.8, -744928.06, -9.982194, 0.000094118994, -0.000081073704, -690814.8, -49718.156, 0.0, 10.000431, 9.929384 
3.905022e+3, 2.4450481e+2, -602488.6, -666976.4, -7.0541015, 0.00009478201, 0.00007607479, -602488.6, -58635.75, 0.0, 10.000431, 9.915948 
3.905022e+3, 2.5442088e+2, -503736.06, -568301.94, -7.9516616, 0.0000932114, -0.00012111002, -503736.06, -57060.637, 0.0, 10.000433, 9.915848 
3.905022e+3, 2.6432982e+2, -415505.56, -490958.8, -6.968869, 0.00009213593, 0.0001204559, -415505.56, -65938.125, 0.0, 10.000434, 9.90177 
3.905022e+3, 2.7423218e+2, -316220.75, -391347.66, -8.128326, 0.00009169541, -0.00021663883, -316220.75, -63696.1, 0.0, 10.000436, 9.902189 
3.905022e+3, 2.8412625e+2, -229752.83, -318066.6, -4.4226685, 0.00009192945, 0.00022152191, -229752.83, -74190.27, 0.0, 10.000437, 9.885236 
3.905022e+3, 2.9401255e+2, -130049.27, -217753.56, -4.9040647, 0.00009308331, -0.00025699724, -130049.27, -71372.305, 0.0, 10.000437, 9.886013 
3.9050224e+3, 3.039268e+2, -40314.996, -84753.01, -0.91497064, 0.00009403854, 0.00017184234, -40314.996, -40314.996, 0.0, 10.000438, 9.94196 
3.9050224e+3, 3.1387064e+2, -39236.414, -82514.82, -1.4452485, 0.00009468931, -0.000056301844, -39236.414, -39236.414, 0.0, 10.000439, 9.943471 
3.9150226e+3, 1.24996975e+2, -1719429.5, -1724192.6, 1.8350506, 0.00009372019, -0.000024490808, -1719429.5, -4400.161, 0.0, 10.000431, 9.994116 
3.9150226e+3, 1.3499105e+2, -1622054.1, -1627407.8, 0.70031613, 0.000096946365, -0.000077546276, -1622054.1, -4966.2607, 0.0, 10.000429, 9.993333 
3.9150226e+3, 1.449785e+2, -1533902.6, -1548019.6, 2.5447598, 0.0000973211, 0.0001821507, -1533902.6, -14691.819, 0.0, 10.000427, 9.981716 
3.9150226e+3, 1.5496013e+2, -1436181.8, -1450700.1, 0.4207509, 0.000094825395, -0.000085218315, -1436181.8, -14791.212, 0.0, 10.000425, 9.981185 
3.9150226e+3, 1.6493519e+2, -1348179.6, -1371920.9, -5.1107564, 0.00009413885, -0.000021395781, -1348179.6, -24544.637, 0.0, 10.000424, 9.969046 
3.9150226e+3, 1.7490432e+2, -1250221.9, -1274280.3, -6.71557, 0.00009529815, -0.00008212309, -1250221.9, -24284.156, 0.0, 10.000425, 9.968632 
3.9150226e+3, 1.8486679e+2, -1162119.8, -1195651.5, -4.9994, 0.00009741759, 0.000083401574, -1162119.8, -33814.254, 0.0, 10.000427, 9.956217 
3.9150226e+3, 1.9482304e+2, -1063969.8, -1097765.1, -6.1485457, 0.000100540594, -0.000051339583, -1063969.8, -33235.625, 0.0, 10.000428, 9.955874 
3.9150226e+3, 2.047726e+2, -975833.44, -1019422.7, -6.708762, 0.00009891627, 0.00006944756, -975833.44, -42605.04, 0.0, 10.00043, 9.943078 
3.9150226e+3, 2.1471573e+2, -877547.7, -921400.06, -9.3651085, 0.00009215506, -0.00012391992, -877547.7, -41761.742, 0.0, 10.000431, 9.942737 
3.9150226e+3, 2.2465216e+2, -789247.0, -843106.44, -9.72214, 0.00009039362, 0.00012679698, -789247.0, -50838.07, 0.0, 10.000431, 9.929714 
3.9150226e+3, 2.3458193e+2, -690815.5, -744929.44, -10.028193, 0.00009428921, -0.00007823041, -690815.5, -49718.5, 0.0, 10.000431, 9.929383 
3.9150226e+3, 2.4450478e+2, -602490.7, -666980.56, -6.5464015, 0.00009634786, 0.0000784936, -602490.7, -58637.473, 0.0, 10.000431, 9.915945 
3.9150226e+3, 2.5442082e+2, -503738.2, -568306.25, -7.4168396, 0.00009620757, -0.00012345474, -503738.2, -57062.35, 0.0, 10.000433, 9.915845 
3.9150226e+3, 2.643298e+2, -415508.1, -490963.94, -6.3776517, 0.000094952615, 0.000116641175, -415508.1, -65940.21, 0.0, 10.000434, 9.901766 
3.9150226e+3, 2.7423212e+2, -316223.28, -391352.8, -7.5337834, 0.00009228475, -0.00021772376, -316223.28, -63698.168, 0.0, 10.000436, 9.902185 
3.9150226e+3, 2.8412622e+2, -229754.64, -318070.34, -4.315208, 0.0000916237, 0.00022221201, -229754.64, -74191.62, 0.0, 10.000437, 9.885233 
3.9150226e+3, 2.940125e+2, -130051.01, -217757.17, -4.8414364, 0.00009371468, -0.00025585797, -130051.01, -71373.54, 0.0, 10.000437, 9.886011 
3.9150226e+3, 3.0392674e+2, -40316.992, -84757.17, -0.6031682, 0.00009586304, 0.0001725993, -40316.992, -40316.992, 0.0, 10.000438, 9.941957 
3.915023e+3, 3.1387058e+2, -39238.445, -82519.055, -1.1043432, 0.00009806953, -0.00005714982, -39238.445, -39238.445, 0.0, 10.000439, 9.943468 
3.925023e+3, 1.2499699e+2, -1719409.4, -1724182.9, -1.2053862, 0.000095463234, -0.000023361687, -1719409.4, -4380.027, 0.0, 10.000443, 9.994115 
3.925023e+3, 1.3499106e+2, -1622030.8, -1627396.5, -0.8194984, 0.00009706131, -0.000076248674, -1622030.8, -4942.943, 0.0, 10.000444, 9.993332 
3.925023e+3, 1.4497851e+2, -1533882.0, -1548016.6, 0.6009993, 0.0000974271, 0.00018262054, -1533882.0, -14671.221, 0.0, 10.000444, 9.9817095 
3.925023e+3, 1.5496013e+2, -1436159.8, -1450696.4, -2.4823265, 0.0000965498, -0.00008982835, -1436159.8, -14769.134, 0.0, 10.0004425, 9.981178 
3.925023e+3, 1.6493517e+2, -1348154.4, -1371913.3, -7.242228, 0.000096624484, -0.000024996652, -1348154.4, -24519.195, 0.0, 10.0004425, 9.969041 
3.925023e+3, 1.749043e+2, -1250194.9, -1274271.6, -9.3393135, 0.000097670774, -0.000078507495, -1250194.9, -24256.973, 0.0, 10.000445, 9.968627 
3.925023e+3, 1.8486677e+2, -1162091.1, -1195638.4, -7.904723, 0.00009918255, 0.00008796705, -1162091.1, -33785.477, 0.0, 10.000446, 9.956216 
3.925023e+3, 1.9482301e+2, -1063945.4, -1097754.3, -7.8333597, 0.00010118083, -0.00005237532, -1063945.4, -33211.0, 0.0, 10.000444, 9.955873 
3.925023e+3, 2.0477258e+2, -975814.94, -1019419.75, -7.143446, 0.000099263365, 0.00006594035, -975814.94, -42586.285, 0.0, 10.000444, 9.943072 
3.925023e+3, 2.147157e+2, -877530.0, -921397.7, -8.853653, 0.00009310876, -0.00012651246, -877530.0, -41743.746, 0.0, 10.000445, 9.942731 
3.925023e+3, 2.2465213e+2, -789225.9, -843098.0, -9.151696, 0.00009132976, 0.00012616797, -789225.9, -50816.62, 0.0, 10.000445, 9.929712 
3.925023e+3, 2.345819e+2, -690792.56, -744920.0, -10.261108, 0.00009450153, -0.00007571114, -690792.56, -49695.203, 0.0, 10.000447, 9.929381 
3.925023e+3, 2.4450473e+2, -602468.8, -666972.3, -7.2019057, 0.00009672725, 0.00008086973, -602468.8, -58615.23, 0.0, 10.000447, 9.915942 
3.925023e+3, 2.544208e+2, -503719.97, -568299.94, -7.8402066, 0.00009781833, -0.00012515247, -503719.97, -57043.71, 0.0, 10.000446, 9.915843 
3.925023e+3, 2.6432973e+2, -415492.8, -490960.4, -6.3041973, 0.000097129865, 0.000113478636, -415492.8, -65924.48, 0.0, 10.000446, 9.901762 
3.925023e+3, 2.7423206e+2, -316208.34, -391349.6, -7.6150675, 0.00009418027, -0.0002190229, -316208.34, -63682.75, 0.0, 10.000447, 9.902182 
3.925023e+3, 2.8412616e+2, -229739.19, -318066.2, -5.093813, 0.00009323037, 0.00022246342, -229739.19, -74175.664, 0.0, 10.000449, 9.88523 
3.925023e+3, 2.9401246e+2, -130035.06, -217752.77, -6.105893, 0.00009502675, -0.00025449958, -130035.06, -71357.07, 0.0, 10.000449, 9.886008 
3.925023e+3, 3.0392668e+2, -40301.297, -84752.91, -2.0882568, 0.00009713932, 0.00017392985, -40301.297, -40301.297, 0.0, 10.000449, 9.941955 
3.9250234e+3, 3.1387052e+2, -39223.824, -82515.31, -2.6573873, 0.00009969442, -0.000057528367, -39223.824, -39223.824, 0.0, 10.00045, 9.943464 
3.9350235e+3, 1.24997e+2, -1719408.5, -1724181.3, -0.90647024, 0.000096317744, -0.00002368876, -1719408.5, -4379.108, 0.0, 10.000443, 9.994116 
3.9350235e+3, 1.3499106e+2, -1622029.9, -1627394.8, -0.5265393, 0.000096197415, -0.00008109026, -1622029.9, -4942.044, 0.0, 10.000444, 9.993333 
3.9350235e+3, 1.449785e+2, -1533888.9, -1548029.8, -0.0283343, 0.000097297925, 0.0001761159, -1533888.9, -14678.134, 0.0, 10.000444, 9.981701 
3.9350235e+3, 1.5496011e+2, -1436166.5, -1450709.5, -3.1091774, 0.00009962072, -0.000098324104, -1436166.5, -14775.867, 0.0, 10.0004425, 9.98117 
3.9350235e+3, 1.6493516e+2, -1348158.9, -1371922.0, -6.3094077, 0.000100279365, -0.000030216324, -1348158.9, -24523.596, 0.0, 10.0004425, 9.969035 
3.9350235e+3, 1.7490429e+2, -1250199.4, -1274280.4, -8.398042, 0.00009924159, -0.00007508143, -1250199.4, -24261.313, 0.0, 10.000445, 9.968621 
3.9350235e+3, 1.8486676e+2, -1162091.0, -1195638.3, -8.283172, 0.00009899654, 0.00009401893, -1162091.0, -33785.207, 0.0, 10.000446, 9.956216 
3.9350235e+3, 1.94823e+2, -1063945.3, -1097754.0, -8.228773, 0.000099580095, -0.000049991067, -1063945.3, -33210.676, 0.0, 10.000444, 9.955873 
3.9350235e+3, 2.0477255e+2, -975818.5, -1019426.75, -6.978689, 0.00009852621, 0.00006574632, -975818.5, -42589.63, 0.0, 10.000444, 9.943068 
3.9350235e+3, 2.1471567e+2, -877533.6, -921404.8, -8.677462, 0.000095700365, -0.00012810665, -877533.6, -41747.063, 0.0, 10.000445, 9.942726 
3.9350235e+3, 2.2465208e+2, -789228.3, -843102.75, -8.739226, 0.00009437763, 0.00012527952, -789228.3, -50818.668, 0.0, 10.000445, 9.929709 
3.9350235e+3, 2.3458187e+2, -690794.9, -744924.6, -9.841095, 0.000094755815, -0.0000735129, -690794.9, -49697.176, 0.0, 10.000447, 9.9293785 
3.9350235e+3, 2.445047e+2, -602470.5, -666975.7, -7.5138817, 0.00009593115, 0.000083203566, -602470.5, -58616.547, 0.0, 10.000447, 9.91594 
3.9350235e+3, 2.5442073e+2, -503721.6, -568303.25, -8.18723, 0.000098056276, -0.00012620907, -503721.6, -57044.938, 0.0, 10.000446, 9.91584 
3.9350235e+3, 2.643297e+2, -415495.66, -490966.2, -5.8186536, 0.00009867343, 0.00011096245, -415495.66, -65926.87, 0.0, 10.000446, 9.901758 
3.9350235e+3, 2.7423203e+2, -316211.22, -391355.5, -7.073467, 0.00009737013, -0.0002205342, -316211.22, -63685.156, 0.0, 10.000447, 9.902178 
3.9350235e+3, 2.841261e+2, -229741.84, -318071.66, -4.8611846, 0.000096732176, 0.00022228014, -229741.84, -74177.805, 0.0, 10.000449, 9.885226 
3.9350235e+3, 2.940124e+2, -130037.66, -217758.14, -5.9007783, 0.00009701346, -0.0002529242, -130037.66, -71359.125, 0.0, 10.000449, 9.886004 
3.9350235e+3, 3.0392662e+2, -40303.504, -84757.516, -2.00914, 0.0000978725, 0.0001758286, -40303.504, -40303.504, 0.0, 10.00045, 9.941951 
3.9350235e+3, 3.1387046e+2, -39225.984, -82519.83, -2.592465, 0.00009958005, -0.000057441946, -39225.984, -39225.984, 0.0, 10.00045, 9.943461 
3.945024e+3, 1.24997e+2, -1719387.8, -1724173.1, 1.0434967, 0.000098271455, -0.000021495634, -1719387.8, -4358.4844, 0.0, 10.000458, 9.994114 
3.945024e+3, 1.3499106e+2, -1622005.3, -1627384.6, -1.2271934, 0.00009770564, -0.0000812291, -1622005.3, -4917.4673, 0.0, 10.000461, 9.99333 
3.945024e+3, 1.449785e+2, -1533864.1, -1548023.6, -2.35097, 0.00009844627, 0.00017486062, -1533864.1, -14653.248, 0.0, 10.000463, 9.981695 
3.945024e+3, 1.549601e+2, -1436139.0, -1450702.0, -3.8688006, 0.000100495294, -0.000102483784, -1436139.0, -14748.25, 0.0, 10.000463, 9.981164 
3.945024e+3, 1.6493513e+2, -1348132.0, -1371913.8, -5.5455236, 0.00010102973, -0.00003344845, -1348132.0, -24496.49, 0.0, 10.000463, 9.96903 
3.945024e+3, 1.7490427e+2, -1250177.9, -1274275.1, -7.3457375, 0.00010002026, -0.00007348058, -1250177.9, -24239.65, 0.0, 10.000462, 9.968616 
3.945024e+3, 1.8486674e+2, -1162068.1, -1195627.6, -7.977882, 0.000099300094, 0.0000970666, -1162068.1, -33762.105, 0.0, 10.000461, 9.956215 
3.945024e+3, 1.9482298e+2, -1063920.6, -1097742.5, -8.812398, 0.00009888226, -0.000049037142, -1063920.6, -33185.82, 0.0, 10.000462, 9.955872 
3.945024e+3, 2.0477253e+2, -975796.75, -1019420.75, -7.929736, 0.00009832808, 0.0000648192, -975796.75, -42567.625, 0.0, 10.000461, 9.943064 
3.945024e+3, 2.1471561e+2, -877513.94, -921400.0, -9.659164, 0.00009762631, -0.00013068572, -877513.94, -41727.086, 0.0, 10.00046, 9.942721 
3.945024e+3, 2.2465205e+2, -789208.75, -843096.4, -9.356905, 0.00009698181, 0.00012349439, -789208.75, -50798.766, 0.0, 10.00046, 9.929706 
3.945024e+3, 2.3458183e+2, -690775.75, -744918.5, -10.522275, 0.00009640227, -0.00007173816, -690775.75, -49677.707, 0.0, 10.000461, 9.929376 
3.945024e+3, 2.4450466e+2, -602450.44, -666968.1, -8.780141, 0.000096773314, 0.000085712825, -602450.44, -58596.094, 0.0, 10.000462, 9.915938 
3.945024e+3, 2.544207e+2, -503700.38, -568295.06, -9.483417, 0.000098279044, -0.0001263417, -503700.38, -57023.3, 0.0, 10.000462, 9.915838 
3.945024e+3, 2.6432964e+2, -415476.6, -490960.78, -6.832768, 0.00009922875, 0.000109642315, -415476.6, -65907.375, 0.0, 10.000461, 9.901755 
3.9450243e+3, 2.7423197e+2, -316196.22, -391352.28, -7.9234047, 0.00009946862, -0.00022118365, -316196.22, -63669.68, 0.0, 10.00046, 9.902174 
3.9450243e+3, 2.8412607e+2, -229728.44, -318068.94, -5.2840486, 0.000099482386, 0.00022243103, -229728.44, -74163.875, 0.0, 10.00046, 9.885223 
3.9450243e+3, 2.9401234e+2, -130023.18, -217754.9, -6.1482415, 0.000099190125, -0.00025180427, -130023.18, -71344.11, 0.0, 10.000461, 9.886001 
3.9450243e+3, 3.0392656e+2, -40287.22, -84752.71, -2.057928, 0.00009927785, 0.00017664382, -40287.22, -40287.22, 0.0, 10.000463, 9.941949 
3.9450243e+3, 3.138704e+2, -39207.563, -82513.9, -2.3507063, 0.000099932084, -0.000058824044, -39207.563, -39207.563, 0.0, 10.0004635, 9.943459 
3.9550245e+3, 1.2499701e+2, -1719393.0, -1724182.9, 2.2800229, 0.00010131357, -0.000016676473, -1719393.0, -4363.747, 0.0, 10.000458, 9.994107 
3.9550245e+3, 1.3499106e+2, -1622010.4, -1627394.3, 0.008967645, 0.00010156383, -0.00007670939, -1622010.4, -4922.6406, 0.0, 10.000461, 9.993324 
3.9550245e+3, 1.449785e+2, -1533867.5, -1548030.1, -2.326552, 0.00010086037, 0.00017880519, -1533867.5, -14656.627, 0.0, 10.000463, 9.981691 
3.9550245e+3, 1.5496008e+2, -1436142.4, -1450708.4, -3.8451939, 0.00009919436, -0.00010234767, -1436142.4, -14751.529, 0.0, 10.000463, 9.981159 
3.9550245e+3, 1.649351e+2, -1348135.9, -1371921.4, -5.8857512, 0.00009890297, -0.000034711135, -1348135.9, -24500.299, 0.0, 10.000463, 9.969026 
3.9550245e+3, 1.7490424e+2, -1250181.9, -1274282.6, -7.6842217, 0.000100014215, -0.00007368765, -1250181.9, -24243.373, 0.0, 10.000462, 9.968611 
3.9550245e+3, 1.8486671e+2, -1162070.0, -1195631.1, -7.9311814, 0.000100088575, 0.00009713834, -1162070.0, -33763.707, 0.0, 10.000461, 9.956212 
3.9550245e+3, 1.9482295e+2, -1063922.4, -1097745.9, -8.764274, 0.00009907901, -0.00004950001, -1063922.4, -33187.36, 0.0, 10.000462, 9.95587 
3.9550245e+3, 2.047725e+2, -975800.44, -1019428.0, -8.218869, 0.00009866414, 0.00006316594, -975800.44, -42571.035, 0.0, 10.000461, 9.943059 
3.9550245e+3, 2.1471559e+2, -877517.6, -921407.25, -9.952038, 0.00009889295, -0.00013424053, -877517.6, -41730.426, 0.0, 10.00046, 9.942717 
3.9550245e+3, 2.24652e+2, -789211.25, -843101.44, -9.045881, 0.000099146455, 0.00012082082, -789211.25, -50800.934, 0.0, 10.00046, 9.929703 
3.9550245e+3, 2.345818e+2, -690778.25, -744923.44, -10.19084, 0.00009942782, -0.00007038312, -690778.25, -49679.81, 0.0, 10.000461, 9.929373 
3.9550245e+3, 2.4450463e+2, -602452.1, -666971.56, -8.795445, 0.00009923848, 0.00008839575, -602452.1, -58597.406, 0.0, 10.000462, 9.9159355 
3.9550245e+3, 2.5442067e+2, -503702.03, -568298.44, -9.51711, 0.00009848708, -0.00012555918, -503702.03, -57024.523, 0.0, 10.000462, 9.915836 
3.9550245e+3, 2.6432958e+2, -415479.16, -490966.0, -7.2504573, 0.000098805394, 0.00010950694, -415479.16, -65909.48, 0.0, 10.000461, 9.9017515 
3.9550245e+3, 2.7423194e+2, -316198.8, -391357.6, -8.366563, 0.000100486024, -0.00022097939, -316198.8, -63671.766, 0.0, 10.00046, 9.902171 
3.9550248e+3, 2.84126e+2, -229730.78, -318073.78, -4.8632364, 0.00010148793, 0.00022291295, -229730.78, -74165.695, 0.0, 10.00046, 9.88522 
3.9550248e+3, 2.9401228e+2, -130025.484, -217759.69, -5.649709, 0.00010155491, -0.00025113559, -130025.484, -71345.86, 0.0, 10.000461, 9.885998 
3.9550248e+3, 3.039265e+2, -40288.906, -84756.234, -1.4628882, 0.0001013491, 0.00017638583, -40288.906, -40288.906, 0.0, 10.000463, 9.941946 
3.9550248e+3, 3.138703e+2, -39209.188, -82517.28, -1.7444912, 0.000100746285, -0.00006166056, -39209.188, -39209.188, 0.0, 10.0004635, 9.943457 
3.965025e+3, 1.2499702e+2, -1719361.5, -1724173.3, 0.21276158, 0.0001047003, -0.000009179458, -1719361.5, -4332.278, 0.0, 10.000481, 9.994102 
3.965025e+3, 1.3499106e+2, -1621985.0, -1627388.0, -2.2695954, 0.000104797306, -0.000073769894, -1621984.9, -4897.111, 0.0, 10.00048, 9.993318 
3.965025e+3, 1.4497848e+2, -1533843.3, -1548021.6, -5.2517157, 0.00010293028, 0.0001815526, -1533843.3, -14632.328, 0.0, 10.00048, 9.981688 
3.965025e+3, 1.5496008e+2, -1436119.1, -1450700.5, -6.592769, 0.00009908555, -0.00009816016, -1436119.1, -14728.17, 0.0, 10.000479, 9.981155 
3.965025e+3, 1.649351e+2, -1348112.5, -1371912.3, -8.1196165, 0.00009834421, -0.000031268955, -1348112.5, -24476.682, 0.0, 10.000479, 9.969023 
3.965025e+3, 1.7490423e+2, -1250158.6, -1274273.8, -8.49744, 0.000100768644, -0.00007322278, -1250158.5, -24219.904, 0.0, 10.000478, 9.968608 
3.965025e+3, 1.848667e+2, -1162047.5, -1195623.8, -8.176432, 0.00010155192, 0.00009613769, -1162047.5, -33740.945, 0.0, 10.000477, 9.956208 
3.965025e+3, 1.9482292e+2, -1063899.6, -1097738.5, -10.21539, 0.00010061956, -0.000050387196, -1063899.6, -33164.36, 0.0, 10.000478, 9.955866 
3.965025e+3, 2.0477247e+2, -975776.9, -1019419.3, -10.06597, 0.00010006942, 0.0000621202, -975776.9, -42547.21, 0.0, 10.000478, 9.943056 
3.965025e+3, 2.1471556e+2, -877494.06, -921398.6, -10.557713, 0.000099933124, -0.00013574098, -877494.06, -41706.56, 0.0, 10.000477, 9.942714 
3.965025e+3, 2.2465198e+2, -789189.56, -843093.56, -8.757796, 0.00010029909, 0.00011989896, -789189.56, -50778.895, 0.0, 10.000476, 9.9297 
3.965025e+3, 2.3458175e+2, -690760.94, -744917.8, -9.562327, 0.0001012332, -0.000069558046, -690760.94, -49662.13, 0.0, 10.000474, 9.92937 
3.965025e+3, 2.4450457e+2, -602437.0, -666967.5, -8.01385, 0.00010123243, 0.00008962283, -602436.94, -58581.84, 0.0, 10.000473, 9.915933 
3.965025e+3, 2.544206e+2, -503685.8, -568293.9, -9.454867, 0.00010011489, -0.0001255378, -503685.8, -57007.86, 0.0, 10.000474, 9.915833 
3.965025e+3, 2.6432955e+2, -415461.44, -490961.03, -7.7940054, 0.000100201985, 0.000109117675, -415461.44, -65891.27, 0.0, 10.000474, 9.901749 
3.965025e+3, 2.7423188e+2, -316178.72, -391351.5, -8.855198, 0.00010182435, -0.00022076399, -316178.72, -63651.17, 0.0, 10.000475, 9.902167 
3.965025e+3, 2.8412595e+2, -229710.28, -318067.34, -5.0498466, 0.000102842845, 0.00022350684, -229710.28, -74144.664, 0.0, 10.000475, 9.885217 
3.9650252e+3, 2.9401222e+2, -130007.62, -217754.6, -5.8333883, 0.00010302798, -0.00025047746, -130007.62, -71327.43, 0.0, 10.000474, 9.885995 
3.9650252e+3, 3.039264e+2, -40273.043, -84751.3, -1.531819, 0.00010278113, 0.00017635369, -40273.043, -40273.043, 0.0, 10.000474, 9.941943 
3.9650252e+3, 3.1387025e+2, -39195.387, -82513.25, -1.8478942, 0.00010190003, -0.0000635001, -39195.387, -39195.387, 0.0, 10.000474, 9.943455 
3.9750254e+3, 1.2499703e+2, -1719367.1, -1724183.9, 0.0829133, 0.000108428714, 0.0000011396819, -1719367.1, -4338.018, 0.0, 10.000481, 9.994095 
3.9750254e+3, 1.3499106e+2, -1621990.6, -1627398.6, -2.3946679, 0.00010741227, -0.00007239553, -1621990.6, -4902.664, 0.0, 10.00048, 9.993311 
3.9750254e+3, 1.4497848e+2, -1533846.3, -1548027.3, -5.415899, 0.000104659244, 0.00018311395, -1533846.3, -14635.189, 0.0, 10.00048, 9.981684 
3.9750254e+3, 1.5496007e+2, -1436122.1, -1450706.1, -6.7591004, 0.000100157165, -0.00008996124, -1436122.1, -14731.009, 0.0, 10.000479, 9.981153 
3.9750254e+3, 1.6493508e+2, -1348113.3, -1371913.9, -8.471321, 0.00009933816, -0.000023167973, -1348113.3, -24477.348, 0.0, 10.000479, 9.969022 
3.9750254e+3, 1.7490421e+2, -1250159.4, -1274275.3, -8.851517, 0.000102276295, -0.00007209237, -1250159.4, -24220.506, 0.0, 10.000478, 9.968607 
3.9750254e+3, 1.8486667e+2, -1162051.9, -1195632.3, -8.051334, 0.00010368369, 0.00009407525, -1162051.9, -33745.09, 0.0, 10.000477, 9.956203 
3.9750254e+3, 1.9482289e+2, -1063904.0, -1097747.0, -10.08371, 0.00010349087, -0.000051694828, -1063904.0, -33168.45, 0.0, 10.000478, 9.95586 
3.9750254e+3, 2.0477244e+2, -975778.06, -1019421.56, -10.317831, 0.000102533624, 0.00006167573, -975778.06, -42548.047, 0.0, 10.000478, 9.943054 
3.9750254e+3, 2.1471553e+2, -877495.2, -921400.75, -10.817017, 0.000100749356, -0.00013520708, -877495.2, -41707.316, 0.0, 10.000477, 9.942713 
3.9750254e+3, 2.2465195e+2, -789191.4, -843097.06, -9.471461, 0.00010044986, 0.00012071195, -789191.4, -50780.35, 0.0, 10.000476, 9.929698 
3.9750254e+3, 2.3458172e+2, -690762.75, -744921.4, -10.291197, 0.00010183031, -0.00006925753, -690762.7, -49663.55, 0.0, 10.000474, 9.929367 
3.9750254e+3, 2.4450453e+2, -602440.06, -666973.7, -7.8008327, 0.00010275961, 0.00008940845, -602440.06, -58584.523, 0.0, 10.000473, 9.915929 
3.9750254e+3, 2.5442055e+2, -503688.9, -568300.2, -9.196673, 0.00010314849, -0.0001262701, -503688.9, -57010.523, 0.0, 10.000474, 9.915829 
3.9750254e+3, 2.643295e+2, -415463.97, -490966.2, -7.601853, 0.000103400795, 0.000108477005, -415463.97, -65893.31, 0.0, 10.000474, 9.901745 
3.9750254e+3, 2.7423182e+2, -316181.2, -391356.53, -8.667533, 0.00010348075, -0.00022053752, -316181.2, -63653.117, 0.0, 10.000475, 9.902164 
3.9750254e+3, 2.841259e+2, -229712.66, -318072.25, -5.178396, 0.00010355383, 0.00022421168, -229712.66, -74146.51, 0.0, 10.000475, 9.885214 
3.9750257e+3, 2.940122e+2, -130009.96, -217759.47, -5.9903426, 0.00010361828, -0.00024982978, -130009.96, -71329.21, 0.0, 10.000474, 9.885991 
3.9750257e+3, 3.0392635e+2, -40274.816, -84755.01, -1.4969662, 0.00010358025, 0.00017654512, -40274.816, -40274.816, 0.0, 10.000474, 9.941941 
3.9750257e+3, 3.138702e+2, -39197.094, -82516.83, -1.7907116, 0.000103389786, -0.00006435257, -39197.094, -39197.094, 0.0, 10.000474, 9.943452 
3.985026e+3, 1.2499702e+2, -1719342.1, -1724175.3, -0.3716259, 0.00011282649, 0.0000029493672, -1719342.1, -4312.992, 0.0, 10.000498, 9.99409 
3.985026e+3, 1.3499105e+2, -1621964.0, -1627389.3, -1.0654414, 0.00010862645, -0.00008019153, -1621964.0, -4876.0474, 0.0, 10.000499, 9.993307 
3.985026e+3, 1.4497846e+2, -1533820.8, -1548019.1, -4.151958, 0.000104468985, 0.00017637538, -1533820.8, -14609.485, 0.0, 10.000498, 9.981679 
3.985026e+3, 1.5496005e+2, -1436099.1, -1450699.4, -6.3755217, 0.00010035039, -0.000087470915, -1436099.1, -14707.873, 0.0, 10.000496, 9.981148 
3.985026e+3, 1.6493507e+2, -1348088.5, -1371902.9, -8.574964, 0.00010015128, -0.000018304836, -1348088.5, -24452.44, 0.0, 10.000495, 9.96902 
3.985026e+3, 1.749042e+2, -1250133.5, -1274263.8, -9.568074, 0.00010395043, -0.00007185122, -1250133.5, -24194.416, 0.0, 10.000495, 9.968606 
3.985026e+3, 1.8486664e+2, -1162029.5, -1195626.3, -8.947225, 0.00010576021, 0.000092247836, -1162029.5, -33722.516, 0.0, 10.000494, 9.956199 
3.985026e+3, 1.9482286e+2, -1063885.1, -1097742.9, -10.554782, 0.00010549029, -0.0000529226, -1063885.1, -33149.277, 0.0, 10.000492, 9.955855 
3.985026e+3, 2.047724e+2, -975758.7, -1019413.0, -10.6411295, 0.000104332314, 0.000061266364, -975758.7, -42528.355, 0.0, 10.00049, 9.943053 
3.985026e+3, 2.147155e+2, -877477.1, -921392.9, -10.9915085, 0.00010221353, -0.0001345628, -877477.1, -41688.98, 0.0, 10.000489, 9.942711 
3.985026e+3, 2.2465192e+2, -789173.44, -843090.8, -9.506091, 0.00010182998, 0.000121629375, -789173.44, -50762.1, 0.0, 10.000488, 9.929695 
3.985026e+3, 2.3458168e+2, -690741.25, -744913.44, -10.501316, 0.00010340967, -0.00006895038, -690741.25, -49641.75, 0.0, 10.000489, 9.929365 
3.985026e+3, 2.445045e+2, -602418.56, -666967.5, -7.7905, 0.0001044629, 0.00008930601, -602418.56, -58562.652, 0.0, 10.000489, 9.915925 
3.985026e+3, 2.5442052e+2, -503669.2, -568295.0, -9.165095, 0.00010488543, -0.00012654255, -503669.2, -56990.36, 0.0, 10.000488, 9.915825 
3.985026e+3, 2.6432946e+2, -415445.4, -490960.78, -7.6644473, 0.00010500769, 0.00010848317, -415445.4, -65874.3, 0.0, 10.000488, 9.901742 
3.985026e+3, 2.742318e+2, -316164.44, -391352.03, -8.760866, 0.00010474955, -0.00021968251, -316164.44, -63635.88, 0.0, 10.000487, 9.902161 
3.985026e+3, 2.8412583e+2, -229696.39, -318067.88, -5.2475567, 0.00010462715, 0.0002253311, -229696.39, -74129.7, 0.0, 10.000487, 9.88521 
3.9850262e+3, 2.9401213e+2, -129992.64, -217754.61, -6.020821, 0.00010469213, -0.00024924838, -129992.64, -71311.32, 0.0, 10.000487, 9.885988 
3.9850262e+3, 3.039263e+2, -40256.457, -84749.0, -1.4412992, 0.00010472121, 0.00017637406, -40256.457, -40256.457, 0.0, 10.000488, 9.941938 
3.9850262e+3, 3.1387013e+2, -39178.445, -82510.6, -1.7812529, 0.000104694904, -0.00006558687, -39178.445, -39178.445, 0.0, 10.000488, 9.943449 
3.9950264e+3, 1.2499701e+2, -1719343.8, -1724178.3, -0.0954229, 0.000117886404, -0.000003550559, -1719343.8, -4314.46, 0.0, 10.000498, 9.994088 
3.9950264e+3, 1.3499103e+2, -1621965.6, -1627392.3, -0.7947229, 0.000108454326, -0.00009706464, -1621965.6, -4877.5063, 0.0, 10.000499, 9.993305 
3.9950264e+3, 1.4497843e+2, -1533825.8, -1548028.6, -4.891779, 0.000102379294, 0.00016142135, -1533825.8, -14614.364, 0.0, 10.000498, 9.981673 
3.9950264e+3, 1.5496004e+2, -1436104.1, -1450708.9, -7.1193523, 0.00009967404, -0.00009063102, -1436104.1, -14712.656, 0.0, 10.000496, 9.981142 
3.9950264e+3, 1.6493505e+2, -1348090.8, -1371907.1, -8.619953, 0.00010078522, -0.00001664661, -1348090.8, -24454.426, 0.0, 10.000495, 9.969017 
3.9950264e+3, 1.7490415e+2, -1250135.6, -1274267.9, -9.606775, 0.00010578949, -0.00007249055, -1250135.6, -24196.342, 0.0, 10.000495, 9.968603 
3.9950264e+3, 1.8486662e+2, -1162033.0, -1195633.0, -9.601618, 0.00010778224, 0.00009065286, -1162033.0, -33725.758, 0.0, 10.000494, 9.956194 
3.9950264e+3, 1.9482283e+2, -1063888.6, -1097749.6, -11.217176, 0.000106626765, -0.0000540713, -1063888.6, -33152.453, 0.0, 10.000492, 9.955852 
3.9950264e+3, 2.0477237e+2, -975759.5, -1019414.6, -11.216473, 0.0001054722, 0.00006089189, -975759.5, -42528.855, 0.0, 10.00049, 9.943052 
3.9950264e+3, 2.1471547e+2, -877477.9, -921394.4, -11.567633, 0.0001043189, -0.0001338092, -877477.9, -41689.414, 0.0, 10.000489, 9.94271 
3.9950264e+3, 2.2465187e+2, -789175.56, -843095.06, -9.34906, 0.000104426865, 0.00012265016, -789175.56, -50763.902, 0.0, 10.000488, 9.929692 
3.9950264e+3, 2.3458165e+2, -690743.44, -744917.75, -10.319883, 0.000105961546, -0.000068636735, -690743.44, -49643.54, 0.0, 10.000489, 9.929362 
3.9950264e+3, 2.4450445e+2, -602421.7, -666973.7, -7.9128814, 0.000106340856, 0.00008931434, -602421.7, -58565.348, 0.0, 10.000489, 9.915921 
3.9950264e+3, 2.5442046e+2, -503672.28, -568301.25, -9.302369, 0.00010533912, -0.00012635981, -503672.28, -56993.02, 0.0, 10.000488, 9.915821 
3.9950264e+3, 2.643294e+2, -415447.97, -490966.03, -7.90905, 0.00010503894, 0.00010912962, -415447.97, -65876.39, 0.0, 10.000488, 9.901738 
3.9950264e+3, 2.7423173e+2, -316166.94, -391357.16, -9.012652, 0.00010563465, -0.00021820536, -316166.94, -63637.867, 0.0, 10.000487, 9.902158 
3.9950264e+3, 2.841258e+2, -229698.7, -318072.66, -5.1397486, 0.00010605902, 0.00022686085, -229698.7, -74131.484, 0.0, 10.000487, 9.885207 
3.9950266e+3, 2.9401204e+2, -129994.914, -217759.34, -5.880667, 0.00010624467, -0.00024873254, -129994.914, -71313.02, 0.0, 10.000487, 9.885985 
3.9950266e+3, 3.0392623e+2, -40258.316, -84752.89, -1.3183926, 0.00010620069, 0.00017584428, -40258.316, -40258.316, 0.0, 10.000488, 9.941936 
3.9950266e+3, 3.1387004e+2, -39180.266, -82514.4, -1.6608733, 0.00010581745, -0.00006719905, -39180.266, -39180.266, 0.0, 10.000488, 9.943447 
4.0050268e+3, 1.2499703e+2, -1719309.1, -1724165.1, 5.6118336, 0.000120304205, 0.0000033696967, -1719309.1, -4279.908, 0.0, 10.000522, 9.994083 
4.0050268e+3, 1.3499102e+2, -1621939.9, -1627384.0, 2.7385485, 0.00010891618, -0.00010206516, -1621939.9, -4851.8145, 0.0, 10.000517, 9.9933 
4.0050268e+3, 1.4497843e+2, -1533806.3, -1548026.6, -2.8345551, 0.000102620805, 0.00015582965, -1533806.3, -14594.816, 0.0, 10.000514, 9.981667 
4.0050268e+3, 1.5496002e+2, -1436084.0, -1450706.5, -6.0655026, 0.000101439335, -0.0000877329, -1436084.0, -14692.407, 0.0, 10.000512, 9.981134 
4.0050268e+3, 1.6493504e+2, -1348065.8, -1371895.4, -7.0424476, 0.00010290584, -0.000011056178, -1348065.8, -24429.266, 0.0, 10.000511, 9.969016 
4.0050268e+3, 1.7490414e+2, -1250111.6, -1274256.8, -6.980724, 0.000107073516, -0.00007012192, -1250111.6, -24172.158, 0.0, 10.00051, 9.968602 
4.0050268e+3, 1.8486659e+2, -1162013.6, -1195628.4, -7.4297996, 0.00010877698, 0.00009044922, -1162013.6, -33706.188, 0.0, 10.000508, 9.956189 
4.0050268e+3, 1.9482282e+2, -1063871.8, -1097746.4, -9.440905, 0.00010790428, -0.0000561689, -1063871.8, -33135.383, 0.0, 10.000505, 9.955847 
4.0050268e+3, 2.0477234e+2, -975740.56, -1019407.5, -9.359563, 0.00010733027, 0.000058859787, -975740.56, -42509.594, 0.0, 10.000504, 9.943049 
4.0050268e+3, 2.1471544e+2, -877455.94, -921385.7, -10.690467, 0.0001070797, -0.00013365617, -877455.94, -41667.13, 0.0, 10.0005045, 9.942708 
4.0050268e+3, 2.2465184e+2, -789152.7, -843086.3, -8.659261, 0.00010714954, 0.00012351223, -789152.7, -50740.69, 0.0, 10.0005045, 9.929689 
4.0050268e+3, 2.3458162e+2, -690721.56, -744909.56, -9.4461975, 0.000107581676, -0.000068736605, -690721.56, -49621.336, 0.0, 10.0005045, 9.929359 
4.0050268e+3, 2.445044e+2, -602402.2, -666968.7, -7.3429265, 0.000107334316, 0.000089007, -602402.2, -58545.496, 0.0, 10.000504, 9.915916 
4.0050268e+3, 2.5442043e+2, -503654.2, -568297.06, -8.879624, 0.000106275154, -0.00012597299, -503654.2, -56974.496, 0.0, 10.000503, 9.915816 
4.0050268e+3, 2.6432937e+2, -415429.28, -490960.6, -7.3286414, 0.000105985855, 0.00010991603, -415429.28, -65857.23, 0.0, 10.000503, 9.901734 
4.0050268e+3, 2.7423167e+2, -316146.7, -391350.97, -8.41447, 0.00010667795, -0.00021739623, -316146.7, -63617.137, 0.0, 10.000503, 9.902154 
4.0050268e+3, 2.8412575e+2, -229678.0, -318066.06, -4.519558, 0.00010719458, 0.00022747545, -229678.0, -74110.24, 0.0, 10.000503, 9.885204 
4.005027e+3, 2.9401198e+2, -129975.53, -217753.44, -5.27551, 0.00010746645, -0.00024860812, -129975.53, -71293.08, 0.0, 10.000503, 9.885982 
4.005027e+3, 3.0392617e+2, -40240.35, -84747.4, -0.88567364, 0.00010744183, 0.00017551168, -40240.35, -40240.35, 0.0, 10.000502, 9.941933 
4.005027e+3, 3.1386998e+2, -39164.035, -82509.71, -1.4246514, 0.00010697869, -0.00006793659, -39164.03, -39164.03, 0.0, 10.000501, 9.943444 
4.0150273e+3, 1.2499706e+2, -1719315.6, -1724177.5, 3.8253226, 0.00012010805, 0.000023695511, -1719315.6, -4286.751, 0.0, 10.000522, 9.994077 
4.0150273e+3, 1.3499103e+2, -1621946.5, -1627396.4, 0.95874035, 0.00011000534, -0.00009531791, -1621946.5, -4858.451, 0.0, 10.000517, 9.993293 
4.0150273e+3, 1.4497843e+2, -1533813.5, -1548040.4, -3.403275, 0.000105168714, 0.00015950142, -1533813.5, -14602.088, 0.0, 10.000514, 9.981658 
4.0150273e+3, 1.5496002e+2, -1436091.1, -1450720.1, -6.6349607, 0.00010562052, -0.00007884032, -1436091.1, -14699.53, 0.0, 10.000512, 9.981126 
4.0150273e+3, 1.6493504e+2, -1348065.6, -1371895.1, -7.2913585, 0.000106497544, -0.0000015746095, -1348065.6, -24429.045, 0.0, 10.000511, 9.969016 
4.0150273e+3, 1.7490412e+2, -1250111.4, -1274256.5, -7.229297, 0.00010780847, -0.00006477658, -1250111.4, -24171.91, 0.0, 10.00051, 9.968602 
4.0150273e+3, 1.8486658e+2, -1162017.9, -1195636.6, -8.676653, 0.00010875527, 0.000091622744, -1162017.9, -33710.336, 0.0, 10.000508, 9.956184 
4.0150273e+3, 1.9482279e+2, -1063876.1, -1097754.8, -10.699247, 0.000109321205, -0.000059205067, -1063876.1, -33139.43, 0.0, 10.000505, 9.955841 
4.0150273e+3, 2.0477231e+2, -975743.44, -1019413.2, -9.207141, 0.000109898865, 0.000055187713, -975743.44, -42512.19, 0.0, 10.000504, 9.943047 
4.0150273e+3, 2.147154e+2, -877458.75, -921391.3, -10.50769, 0.000110489236, -0.00013409735, -877458.75, -41669.66, 0.0, 10.0005045, 9.942704 
4.0150273e+3, 2.2465181e+2, -789154.56, -843090.0, -8.690676, 0.000109996974, 0.00012421723, -789154.56, -50742.223, 0.0, 10.0005045, 9.9296875 
4.0150273e+3, 2.3458157e+2, -690723.4, -744913.2, -9.484793, 0.00010828002, -0.00006924557, -690723.4, -49622.785, 0.0, 10.0005045, 9.929358 
4.0150273e+3, 2.4450438e+2, -602405.5, -666975.4, -7.7629366, 0.00010745262, 0.00008838743, -602405.5, -58548.445, 0.0, 10.000504, 9.915913 
4.0150273e+3, 2.5442037e+2, -503657.53, -568303.8, -9.319787, 0.00010768844, -0.00012538416, -503657.53, -56977.43, 0.0, 10.000503, 9.9158125 
4.0150273e+3, 2.643293e+2, -415431.84, -490965.84, -7.209852, 0.00010783882, 0.00011084103, -415431.84, -65859.336, 0.0, 10.000503, 9.9017315 
4.0150273e+3, 2.7423164e+2, -316149.2, -391356.1, -8.257916, 0.000107878, -0.00021724793, -316149.2, -63619.13, 0.0, 10.000503, 9.902151 
4.0150273e+3, 2.841257e+2, -229680.34, -318070.94, -4.667934, 0.0001080372, 0.00022718466, -229680.34, -74112.06, 0.0, 10.000503, 9.8852005 
4.0150276e+3, 2.9401192e+2, -129977.836, -217758.23, -5.4511147, 0.00010836115, -0.00024887093, -129977.836, -71294.83, 0.0, 10.000503, 9.885979 
4.0150276e+3, 3.039261e+2, -40242.53, -84751.95, -1.2034934, 0.000108447246, 0.00017537418, -40242.53, -40242.53, 0.0, 10.000502, 9.94193 
4.0150276e+3, 3.1386992e+2, -39166.2, -82514.24, -1.7595696, 0.00010817812, -0.000067808796, -39166.2, -39166.2, 0.0, 10.000501, 9.943441 
4.0250278e+3, 1.2499708e+2, -1719281.8, -1724164.5, 2.0967193, 0.000119959834, 0.00003474213, -1719281.8, -4253.0244, 0.0, 10.0005455, 9.994072 
4.0250278e+3, 1.3499105e+2, -1621915.8, -1627385.1, 1.5764817, 0.000111911395, -0.00009745904, -1621915.8, -4827.868, 0.0, 10.000539, 9.993288 
4.0250278e+3, 1.4497843e+2, -1533791.0, -1548039.6, -0.96689963, 0.000108441214, 0.00015571812, -1533791.0, -14579.615, 0.0, 10.000533, 9.9816475 
4.0250278e+3, 1.5496002e+2, -1436072.9, -1450721.8, -5.092667, 0.00010956838, -0.00007477228, -1436072.9, -14681.189, 0.0, 10.000529, 9.981116 
4.0250278e+3, 1.6493502e+2, -1348042.9, -1371883.9, -5.8998227, 0.00011024848, 0.000005254028, -1348042.9, -24406.172, 0.0, 10.000525, 9.969015 
4.0250278e+3, 1.7490412e+2, -1250090.9, -1274246.4, -6.3502, 0.00011047267, -0.000060379916, -1250090.9, -24151.291, 0.0, 10.000524, 9.968601 
4.0250278e+3, 1.8486656e+2, -1161999.9, -1195633.4, -8.182413, 0.00011085238, 0.0000933502, -1161999.9, -33692.137, 0.0, 10.000523, 9.956179 
4.0250278e+3, 1.9482277e+2, -1063852.6, -1097748.9, -10.303124, 0.00011139432, -0.000060395247, -1063852.6, -33115.76, 0.0, 10.000524, 9.955836 
4.0250278e+3, 2.047723e+2, -975716.5, -1019402.7, -8.190909, 0.00011206857, 0.000053650787, -975716.5, -42485.05, 0.0, 10.000523, 9.943043 
4.0250278e+3, 2.1471538e+2, -877434.75, -921382.3, -8.950469, 0.00011288597, -0.00013319931, -877434.75, -41645.426, 0.0, 10.000522, 9.942701 
4.0250278e+3, 2.2465178e+2, -789132.1, -843081.3, -6.839098, 0.00011207124, 0.00012539512, -789132.1, -50719.504, 0.0, 10.000521, 9.929685 
4.0250278e+3, 2.3458154e+2, -690701.7, -744904.94, -7.705925, 0.00010941008, -0.000070227296, -690701.7, -49600.805, 0.0, 10.00052, 9.929355 
4.0250278e+3, 2.4450433e+2, -602385.9, -666971.44, -6.493699, 0.00010820914, 0.00008695298, -602385.9, -58528.465, 0.0, 10.00052, 9.915907 
4.0250278e+3, 2.5442034e+2, -503636.9, -568299.6, -8.758923, 0.00010875336, -0.00012523163, -503636.9, -56956.375, 0.0, 10.000519, 9.915807 
4.0250278e+3, 2.6432928e+2, -415409.6, -490958.6, -6.7205586, 0.00010912988, 0.00011207662, -415409.6, -65836.62, 0.0, 10.000519, 9.901728 
4.0250278e+3, 2.7423155e+2, -316128.06, -391349.3, -7.6644692, 0.00010928886, -0.00021557517, -316128.06, -63597.51, 0.0, 10.000518, 9.902147 
4.025028e+3, 2.8412563e+2, -229660.16, -318064.47, -4.2602277, 0.00010942508, 0.00022861983, -229660.16, -74091.37, 0.0, 10.000518, 9.885198 
4.025028e+3, 2.9401186e+2, -129958.65, -217752.3, -4.963577, 0.000109531116, -0.00024859383, -129958.65, -71275.1, 0.0, 10.000517, 9.885976 
4.025028e+3, 3.0392605e+2, -40224.434, -84746.8, -0.81837505, 0.00010952972, 0.00017475229, -40224.434, -40224.434, 0.0, 10.000515, 9.941927 
4.025028e+3, 3.1386986e+2, -39148.71, -82509.4, -1.5088828, 0.00010936861, -0.00006893598, -39148.71, -39148.71, 0.0, 10.000514, 9.943438 
4.0350285e+3, 1.24997094e+2, -1719282.9, -1724166.8, -0.38957402, 0.000119859105, 0.00003669788, -1719282.9, -4254.353, 0.0, 10.0005455, 9.99407 
4.0350282e+3, 1.3499105e+2, -1621917.0, -1627387.4, -0.9166491, 0.00011462573, -0.00010839095, -1621917.0, -4829.11, 0.0, 10.000539, 9.993287 
4.0350282e+3, 1.4497843e+2, -1533800.3, -1548057.3, -2.507544, 0.00011243061, 0.00014456184, -1533800.3, -14588.917, 0.0, 10.000533, 9.981637 
4.0350282e+3, 1.5496002e+2, -1436082.1, -1450739.3, -6.625916, 0.00011328531, -0.000075476164, -1436082.1, -14690.321, 0.0, 10.000529, 9.981106 
4.0350282e+3, 1.6493502e+2, -1348043.9, -1371885.9, -6.6548176, 0.00011415663, 0.000009458462, -1348043.9, -24407.094, 0.0, 10.000526, 9.969014 
4.0350282e+3, 1.7490411e+2, -1250091.9, -1274248.3, -7.106013, 0.00011504483, -0.000056921737, -1250091.9, -24152.17, 0.0, 10.000524, 9.9686 
4.0350282e+3, 1.8486656e+2, -1162004.4, -1195642.1, -8.107158, 0.0001150451, 0.000095625546, -1162004.4, -33696.516, 0.0, 10.000523, 9.956173 
4.0350282e+3, 1.9482274e+2, -1063857.1, -1097757.6, -10.219669, 0.00011411673, -0.000059759645, -1063857.1, -33120.05, 0.0, 10.000524, 9.955831 
4.0350282e+3, 2.0477226e+2, -975718.3, -1019406.2, -8.682372, 0.00011384408, 0.000054225704, -975718.3, -42486.598, 0.0, 10.000523, 9.943041 
4.0350282e+3, 2.1471535e+2, -877436.5, -921385.7, -9.453807, 0.00011428111, -0.00013097654, -877436.5, -41646.9, 0.0, 10.000522, 9.942699 
4.0350282e+3, 2.2465175e+2, -789134.06, -843085.2, -7.0491686, 0.00011338076, 0.00012704094, -789134.06, -50721.203, 0.0, 10.000521, 9.929683 
4.0350282e+3, 2.3458152e+2, -690703.6, -744908.8, -7.908752, 0.00011096717, -0.00007167633, -690703.6, -49602.44, 0.0, 10.00052, 9.929352 
4.0350282e+3, 2.445043e+2, -602390.56, -666980.8, -6.628331, 0.000109597, 0.00008471278, -602390.56, -58532.797, 0.0, 10.00052, 9.915901 
4.0350282e+3, 2.544203e+2, -503641.66, -568309.25, -8.888504, 0.000109473964, -0.00012551059, -503641.66, -56960.72, 0.0, 10.000519, 9.9158 
4.0350282e+3, 2.6432922e+2, -415412.1, -490963.7, -6.841326, 0.00010986538, 0.00011361934, -415412.1, -65838.664, 0.0, 10.000519, 9.901725 
4.0350285e+3, 2.7423152e+2, -316130.38, -391354.1, -7.784951, 0.00011090837, -0.00021239468, -316130.38, -63599.367, 0.0, 10.000518, 9.902144 
4.0350285e+3, 2.8412557e+2, -229662.3, -318068.9, -4.6416187, 0.00011135232, 0.00023176207, -229662.3, -74093.02, 0.0, 10.000518, 9.885195 
4.0350285e+3, 2.940118e+2, -129960.75, -217756.67, -5.3698797, 0.00011097341, -0.00024778265, -129960.75, -71276.67, 0.0, 10.000517, 9.885973 
4.0350285e+3, 3.03926e+2, -40226.79, -84751.73, -1.2980249, 0.000110688496, 0.00017365148, -40226.79, -40226.79, 0.0, 10.000515, 9.941923 
4.0350285e+3, 3.138698e+2, -39151.105, -82514.41, -1.9974283, 0.00011055035, -0.00007130419, -39151.105, -39151.105, 0.0, 10.000514, 9.943435 
4.045029e+3, 1.24997124e+2, -1719261.5, -1724160.6, 3.7912157, 0.000120089724, 0.000039107035, -1719261.5, -4233.1646, 0.0, 10.000561, 9.994065 
4.045029e+3, 1.3499106e+2, -1621890.8, -1627378.8, 0.7843234, 0.000117615586, -0.000114974966, -1621890.8, -4803.03, 0.0, 10.000557, 9.993282 
4.045029e+3, 1.4497843e+2, -1533774.3, -1548052.8, -0.5456808, 0.000115941686, 0.00013804139, -1533774.3, -14563.029, 0.0, 10.000553, 9.981629 
4.045029e+3, 1.5496002e+2, -1436055.6, -1450734.6, -2.5463939, 0.000115068615, -0.00007471817, -1436055.6, -14663.936, 0.0, 10.00055, 9.981097 
4.0450287e+3, 1.6493502e+2, -1348014.1, -1371874.1, -1.807116, 0.00011597766, 0.000012669589, -1348014.1, -24377.416, 0.0, 10.000546, 9.96901 
4.0450287e+3, 1.7490411e+2, -1250064.0, -1274237.6, -3.9185688, 0.00011870402, -0.00005617916, -1250064.0, -24124.303, 0.0, 10.000544, 9.968596 
4.0450287e+3, 1.8486655e+2, -1161979.8, -1195636.4, -4.9488144, 0.00011865548, 0.000095267795, -1161979.8, -33671.79, 0.0, 10.000542, 9.956167 
4.0450287e+3, 1.9482273e+2, -1063832.5, -1097752.0, -7.525442, 0.00011570552, -0.000059787988, -1063832.5, -33095.332, 0.0, 10.000542, 9.955824 
4.0450287e+3, 2.0477225e+2, -975691.6, -1019395.1, -7.069556, 0.000114595125, 0.000054718443, -975691.6, -42459.69, 0.0, 10.000541, 9.943039 
4.0450287e+3, 2.1471533e+2, -877411.75, -921375.56, -7.92347, 0.000115475705, -0.00012975563, -877411.75, -41621.94, 0.0, 10.000539, 9.942698 
4.0450287e+3, 2.2465174e+2, -789110.75, -843077.44, -5.24321, 0.00011496755, 0.0001275654, -789110.75, -50697.637, 0.0, 10.000537, 9.929679 
4.0450287e+3, 2.3458149e+2, -690678.94, -744900.5, -6.918964, 0.00011288747, -0.00007346037, -690678.94, -49577.49, 0.0, 10.000538, 9.929349 
4.0450287e+3, 2.4450427e+2, -602367.25, -666975.25, -6.108331, 0.00011127272, 0.000082859384, -602367.25, -58509.113, 0.0, 10.000537, 9.915895 
4.045029e+3, 2.5442025e+2, -503619.94, -568304.6, -7.7839136, 0.00011021494, -0.00012475884, -503619.94, -56938.64, 0.0, 10.000536, 9.915795 
4.045029e+3, 2.643292e+2, -415390.3, -490956.72, -5.4183545, 0.00011046135, 0.00011571368, -415390.3, -65816.49, 0.0, 10.000535, 9.901721 
4.045029e+3, 2.7423146e+2, -316110.06, -391347.72, -6.4395547, 0.00011236576, -0.00021057045, -316110.06, -63578.6, 0.0, 10.000533, 9.902141 
4.045029e+3, 2.841255e+2, -229642.86, -318063.38, -3.5823576, 0.000113207156, 0.00023288513, -229642.86, -74073.1, 0.0, 10.000532, 9.885191 
4.045029e+3, 2.9401177e+2, -129940.9, -217751.03, -4.829296, 0.00011258602, -0.0002479433, -129940.9, -71256.3, 0.0, 10.000532, 9.885969 
4.045029e+3, 3.0392596e+2, -40207.074, -84746.195, -1.3438315, 0.0001120843, 0.00017308166, -40207.074, -40207.074, 0.0, 10.00053, 9.94192 
4.045029e+3, 3.1386974e+2, -39132.055, -82509.195, -2.2067275, 0.000111773, -0.000070978895, -39132.05, -39132.05, 0.0, 10.000529, 9.943431 
4.0550295e+3, 1.24997154e+2, -1719268.4, -1724173.6, 2.4334888, 0.0001206474, 0.000042072756, -1719268.4, -4240.4287, 0.0, 10.000561, 9.994058 
4.0550295e+3, 1.3499108e+2, -1621897.6, -1627391.8, -0.56909746, 0.00012087798, -0.000117260424, -1621897.6, -4810.112, 0.0, 10.000557, 9.993275 
4.0550295e+3, 1.4497845e+2, -1533778.8, -1548061.3, -1.9592117, 0.00011898017, 0.00013610366, -1533778.8, -14567.691, 0.0, 10.000553, 9.981624 
4.0550295e+3, 1.5496004e+2, -1436060.1, -1450743.1, -3.9618688, 0.00011494033, -0.00007251383, -1436060.1, -14668.498, 0.0, 10.00055, 9.981092 
4.0550295e+3, 1.6493502e+2, -1348018.8, -1371883.1, -2.9826276, 0.00011573523, 0.000014900021, -1348018.8, -24382.14, 0.0, 10.000546, 9.969005 
4.0550295e+3, 1.7490411e+2, -1250068.6, -1274246.5, -5.087907, 0.00012146062, -0.000058120957, -1250068.6, -24128.898, 0.0, 10.000544, 9.968591 
4.0550295e+3, 1.8486653e+2, -1161985.3, -1195647.1, -4.8610654, 0.00012169019, 0.00009230686, -1161985.3, -33677.27, 0.0, 10.000542, 9.956161 
4.0550295e+3, 1.9482273e+2, -1063838.0, -1097762.8, -7.4234633, 0.00011617373, -0.000060472583, -1063838.0, -33100.707, 0.0, 10.000542, 9.955817 
4.0550295e+3, 2.0477223e+2, -975693.56, -1019398.94, -8.008328, 0.00011433348, 0.000055130207, -975693.56, -42461.457, 0.0, 10.000541, 9.943036 
4.0550295e+3, 2.1471532e+2, -877413.56, -921379.25, -8.885318, 0.00011647204, -0.00012952494, -877413.56, -41623.586, 0.0, 10.000539, 9.942695 
4.0550295e+3, 2.2465171e+2, -789114.4, -843084.6, -5.1074295, 0.00011682847, 0.00012698144, -789114.4, -50701.04, 0.0, 10.000537, 9.929674 
4.0550295e+3, 2.3458146e+2, -690682.6, -744907.75, -6.7459145, 0.00011516709, -0.00007557566, -690682.6, -49580.86, 0.0, 10.000538, 9.929344 
4.0550295e+3, 2.4450424e+2, -602370.8, -666982.5, -6.5737658, 0.00011323334, 0.00008138831, -602370.8, -58512.395, 0.0, 10.000537, 9.915891 
4.0550295e+3, 2.5442022e+2, -503623.5, -568311.8, -8.28058, 0.00011097624, -0.00012298799, -503623.5, -56941.844, 0.0, 10.000536, 9.915791 
4.0550295e+3, 2.6432917e+2, -415392.88, -490961.94, -5.89993, 0.00011091944, 0.00011835362, -415392.88, -65818.664, 0.0, 10.000535, 9.901718 
4.0550295e+3, 2.7423143e+2, -316112.5, -391352.78, -6.9213433, 0.00011366291, -0.00021008684, -316112.5, -63580.633, 0.0, 10.000533, 9.902138 
4.0550295e+3, 2.8412548e+2, -229645.92, -318069.7, -3.8626924, 0.000114990464, 0.00023201211, -229645.92, -74075.69, 0.0, 10.000532, 9.885187 
4.0550295e+3, 2.940117e+2, -129943.98, -217757.45, -5.090648, 0.000114367176, -0.00024906464, -129943.98, -71258.86, 0.0, 10.000532, 9.885965 
4.0550295e+3, 3.039259e+2, -40209.76, -84751.81, -1.9608288, 0.00011371463, 0.00017303672, -40209.76, -40209.76, 0.0, 10.00053, 9.941916 
4.0550297e+3, 3.1386968e+2, -39134.7, -82514.73, -2.8653226, 0.0001130362, -0.00006799097, -39134.695, -39134.695, 0.0, 10.000529, 9.943427 
4.06503e+3, 1.2499719e+2, -1719242.4, -1724166.9, -0.40702847, 0.000121414996, 0.000046293186, -1719242.4, -4214.7637, 0.0, 10.00058, 9.994052 
4.06503e+3, 1.3499111e+2, -1621874.0, -1627386.3, -2.0714011, 0.0001226465, -0.000117110816, -1621874.0, -4786.754, 0.0, 10.000575, 9.993268 
4.06503e+3, 1.4497846e+2, -1533754.8, -1548055.6, -2.5186732, 0.00012113653, 0.00013706223, -1533754.8, -14543.796, 0.0, 10.000572, 9.981618 
4.06503e+3, 1.5496005e+2, -1436032.8, -1450735.8, -5.198884, 0.00011686851, -0.000067503235, -1436032.8, -14641.281, 0.0, 10.00057, 9.981086 
4.06503e+3, 1.6493504e+2, -1347986.9, -1371870.3, -3.764898, 0.00011734049, 0.000019845118, -1347986.9, -24350.32, 0.0, 10.000568, 9.969002 
4.06503e+3, 1.7490411e+2, -1250035.6, -1274233.1, -4.2436147, 0.00012264632, -0.000057441026, -1250035.6, -24095.896, 0.0, 10.000566, 9.968588 
4.06503e+3, 1.8486653e+2, -1161956.8, -1195640.1, -2.6416476, 0.00012265437, 0.00009104015, -1161956.8, -33648.7, 0.0, 10.000564, 9.956154 
4.06503e+3, 1.9482271e+2, -1063814.3, -1097758.3, -5.217242, 0.000117123345, -0.00006126264, -1063814.3, -33076.816, 0.0, 10.000561, 9.955811 
4.06503e+3, 2.0477222e+2, -975667.6, -1019389.3, -6.179237, 0.00011536768, 0.00005499697, -975667.6, -42435.4, 0.0, 10.000559, 9.943033 
4.06503e+3, 2.147153e+2, -877384.2, -921367.9, -7.6966295, 0.00011769811, -0.0001288067, -877384.2, -41594.08, 0.0, 10.000559, 9.942692 
4.06503e+3, 2.246517e+2, -789086.06, -843074.9, -3.895277, 0.00011809338, 0.00012745614, -789086.06, -50672.56, 0.0, 10.000558, 9.92967 
4.06503e+3, 2.3458143e+2, -690659.06, -744900.5, -5.040978, 0.00011629763, -0.00007658365, -690659.06, -49557.035, 0.0, 10.000555, 9.929339 
4.06503e+3, 2.4450421e+2, -602350.1, -666977.7, -4.697371, 0.00011456586, 0.00008061219, -602350.1, -58491.37, 0.0, 10.000553, 9.915886 
4.06503e+3, 2.544202e+2, -503602.16, -568306.8, -6.6082516, 0.00011291254, -0.00012148426, -503602.16, -56920.168, 0.0, 10.000552, 9.915786 
4.06503e+3, 2.643291e+2, -415370.38, -490955.28, -4.5829816, 0.0001129705, 0.000120555815, -415370.38, -65795.78, 0.0, 10.000551, 9.901713 
4.06503e+3, 2.7423137e+2, -316089.88, -391346.06, -6.053079, 0.00011520552, -0.00020920324, -316089.88, -63557.586, 0.0, 10.00055, 9.902134 
4.06503e+3, 2.8412542e+2, -229623.95, -318063.3, -3.154637, 0.000116272655, 0.00023208096, -229623.95, -74053.25, 0.0, 10.000549, 9.885183 
4.06503e+3, 2.9401165e+2, -129923.79, -217752.0, -4.116937, 0.00011573121, -0.00024911185, -129923.79, -71238.17, 0.0, 10.000547, 9.885962 
4.0650302e+3, 3.0392584e+2, -40190.434, -84746.55, -0.9210158, 0.0001151762, 0.00017316463, -40190.43, -40190.43, 0.0, 10.0005455, 9.941913 
4.0650302e+3, 3.1386963e+2, -39114.99, -82509.24, -1.7355187, 0.00011461545, -0.00006726208, -39114.99, -39114.99, 0.0, 10.000544, 9.943423 
4.0750307e+3, 1.2499722e+2, -1719246.3, -1724174.0, -2.2744966, 0.00012239005, 0.000051870647, -1719246.3, -4218.878, 0.0, 10.00058, 9.994047 
4.0750307e+3, 1.3499114e+2, -1621877.8, -1627393.4, -3.9452286, 0.00012293865, -0.000114554685, -1621877.8, -4790.7554, 0.0, 10.000575, 9.993263 
4.0750307e+3, 1.449785e+2, -1533760.8, -1548067.1, -3.1239119, 0.000122421, 0.00014088282, -1533760.8, -14549.998, 0.0, 10.000572, 9.98161 
4.0750304e+3, 1.5496007e+2, -1436038.8, -1450747.1, -5.7986765, 0.00012082882, -0.000059720085, -1436038.8, -14647.366, 0.0, 10.00057, 9.981079 
4.0750304e+3, 1.6493505e+2, -1347988.0, -1371872.4, -4.613589, 0.00012077172, 0.000027472224, -1347988.0, -24351.488, 0.0, 10.000568, 9.969 
4.0750304e+3, 1.7490412e+2, -1250036.6, -1274235.1, -5.0975146, 0.0001222799, -0.000054170327, -1250036.6, -24097.016, 0.0, 10.000566, 9.968587 
4.0750304e+3, 1.8486653e+2, -1161962.3, -1195650.9, -3.6510966, 0.000121572644, 0.00009144805, -1161962.3, -33654.28, 0.0, 10.000564, 9.956146 
4.0750304e+3, 1.9482271e+2, -1063819.8, -1097769.0, -6.229122, 0.00011854857, -0.00006215655, -1063819.8, -33082.29, 0.0, 10.000561, 9.955804 
4.0750304e+3, 2.047722e+2, -975670.9, -1019395.75, -6.294911, 0.00011768241, 0.000054325403, -975670.9, -42438.535, 0.0, 10.000559, 9.943028 
4.0750304e+3, 2.1471529e+2, -877387.4, -921374.1, -7.7904735, 0.0001191516, -0.0001276067, -877387.4, -41597.113, 0.0, 10.000559, 9.942688 
4.0750304e+3, 2.2465168e+2, -789088.75, -843080.25, -4.815008, 0.00011876972, 0.000128977, -789088.75, -50675.086, 0.0, 10.000558, 9.9296665 
4.0750304e+3, 2.3458141e+2, -690661.7, -744905.8, -5.990336, 0.00011629266, -0.000076497156, -690661.7, -49559.47, 0.0, 10.000555, 9.929337 
4.0750304e+3, 2.4450418e+2, -602354.06, -666985.6, -5.034, 0.000115277544, 0.00008052319, -602354.06, -58495.06, 0.0, 10.000553, 9.915881 
4.0750304e+3, 2.5442016e+2, -503606.1, -568314.8, -6.9172397, 0.00011601002, -0.00012024431, -503606.1, -56923.816, 0.0, 10.000552, 9.91578 
4.0750304e+3, 2.6432908e+2, -415373.78, -490962.25, -5.0084434, 0.00011659588, 0.00012232555, -415373.78, -65798.836, 0.0, 10.000551, 9.90171 
4.0750304e+3, 2.7423134e+2, -316093.22, -391352.9, -6.484279, 0.000116990945, -0.0002079243, -316093.22, -63560.523, 0.0, 10.00055, 9.902129 
4.0750307e+3, 2.841254e+2, -229626.61, -318068.8, -3.8229434, 0.00011705986, 0.00023308057, -229626.61, -74055.48, 0.0, 10.000549, 9.8851795 
4.0750307e+3, 2.9401162e+2, -129926.35, -217757.34, -4.807044, 0.000116683186, -0.0002480975, -129926.35, -71240.266, 0.0, 10.000547, 9.885958 
4.0750307e+3, 3.0392578e+2, -40192.887, -84751.695, -1.497378, 0.00011647105, 0.00017346353, -40192.887, -40192.887, 0.0, 10.0005455, 9.941909 
4.0750307e+3, 3.1386957e+2, -39117.434, -82514.37, -2.2999458, 0.000116507086, -0.00006876518, -39117.434, -39117.434, 0.0, 10.000544, 9.94342 
4.0850312e+3, 1.2499726e+2, -1719219.8, -1724168.1, 1.8116606, 0.0001242297, 0.000054366617, -1719219.8, -4192.754, 0.0, 10.0006, 9.99404 
4.0850312e+3, 1.3499115e+2, -1621847.8, -1627385.8, -1.9583764, 0.00012352156, -0.00011662503, -1621847.8, -4761.081, 0.0, 10.000597, 9.993257 
4.0850312e+3, 1.4497851e+2, -1533728.8, -1548056.5, -1.0101935, 0.000123351, 0.00014031463, -1533728.8, -14518.216, 0.0, 10.000595, 9.981605 
4.0850312e+3, 1.549601e+2, -1436009.0, -1450737.9, -2.5365648, 0.0001237177, -0.000054142693, -1436009.0, -14617.824, 0.0, 10.000591, 9.981073 
4.0850312e+3, 1.6493507e+2, -1347957.6, -1371860.0, -1.4861485, 0.00012344777, 0.000032876913, -1347957.6, -24321.275, 0.0, 10.000589, 9.968997 
4.0850312e+3, 1.7490412e+2, -1250007.0, -1274223.1, -3.2917476, 0.00012252814, -0.000055381897, -1250007.0, -24067.492, 0.0, 10.0005865, 9.968583 
4.0850312e+3, 1.8486655e+2, -1161935.9, -1195645.5, -2.5904965, 0.000121493256, 0.000088242385, -1161935.9, -33627.91, 0.0, 10.000584, 9.95614 
4.0850312e+3, 1.948227e+2, -1063792.3, -1097763.1, -5.4581947, 0.00012033706, -0.00006252443, -1063792.3, -33054.77, 0.0, 10.000582, 9.955796 
4.0850312e+3, 2.047722e+2, -975640.5, -1019383.1, -4.734186, 0.00011979757, 0.000055728186, -975640.5, -42408.098, 0.0, 10.00058, 9.943027 
4.0850312e+3, 2.1471527e+2, -877360.0, -921363.0, -5.1080503, 0.00011992526, -0.00012558846, -877360.0, -41569.61, 0.0, 10.000578, 9.942685 
4.0850312e+3, 2.2465166e+2, -789064.25, -843072.94, -2.3649604, 0.0001193659, 0.0001300513, -789064.25, -50650.45, 0.0, 10.000576, 9.929663 
4.0850312e+3, 2.345814e+2, -690636.75, -744898.44, -4.446308, 0.00011802877, -0.00007813066, -690636.75, -49534.355, 0.0, 10.000574, 9.929332 
4.0850312e+3, 2.4450415e+2, -602330.06, -666980.4, -3.741162, 0.000117525255, 0.000078753204, -602330.06, -58470.824, 0.0, 10.000572, 9.9158745 
4.0850312e+3, 2.5442013e+2, -503582.53, -568309.94, -6.2244997, 0.0001180176, -0.00011907913, -503582.53, -56899.945, 0.0, 10.000571, 9.915774 
4.0850312e+3, 2.6432905e+2, -415349.7, -490954.56, -4.727008, 0.00011844982, 0.00012482682, -415349.7, -65774.41, 0.0, 10.000569, 9.901706 
4.0850312e+3, 2.742313e+2, -316071.34, -391346.22, -5.57076, 0.000118803095, -0.00020612894, -316071.34, -63538.28, 0.0, 10.0005665, 9.902125 
4.0850312e+3, 2.8412533e+2, -229605.9, -318062.8, -2.485595, 0.00011891597, 0.00023406159, -229605.9, -74034.36, 0.0, 10.000565, 9.885176 
4.0850312e+3, 2.9401156e+2, -129905.266, -217751.22, -3.5705972, 0.0001187, -0.0002480698, -129905.266, -71218.73, 0.0, 10.000564, 9.885954 
4.0850312e+3, 3.0392575e+2, -40171.824, -84746.086, -0.44634694, 0.000118265656, 0.00017295845, -40171.824, -40171.824, 0.0, 10.000562, 9.941905 
4.0850312e+3, 3.138695e+2, -39096.027, -82508.64, -1.7293227, 0.000117509924, -0.00006917657, -39096.027, -39096.027, 0.0, 10.000561, 9.943416 
4.095032e+3, 1.249973e+2, -1719228.4, -1724184.4, 0.75934917, 0.00012692294, 0.00005389663, -1719228.4, -4201.8687, 0.0, 10.0006, 9.99403 
4.095032e+3, 1.3499118e+2, -1621856.4, -1627401.9, -3.0037298, 0.000124392, -0.00012326502, -1621856.4, -4769.939, 0.0, 10.000598, 9.993246 
4.0950316e+3, 1.4497855e+2, -1533732.3, -1548063.0, -2.11086, 0.00012393115, 0.00013541109, -1533732.3, -14521.853, 0.0, 10.000595, 9.981601 
4.0950316e+3, 1.5496011e+2, -1436012.4, -1450744.3, -3.6372175, 0.0001255482, -0.000050743143, -1436012.4, -14621.442, 0.0, 10.000591, 9.98107 
4.0950316e+3, 1.6493508e+2, -1347961.6, -1371867.6, -2.4835784, 0.00012537764, 0.000036087524, -1347961.6, -24325.451, 0.0, 10.000589, 9.968992 
4.0950316e+3, 1.7490414e+2, -1250011.0, -1274230.8, -4.2903004, 0.0001233834, -0.000061020564, -1250011.0, -24071.52, 0.0, 10.0005865, 9.968578 
4.0950316e+3, 1.8486655e+2, -1161942.0, -1195657.5, -3.302616, 0.00012240393, 0.00008146731, -1161942.0, -33634.14, 0.0, 10.000584, 9.956132 
4.0950316e+3, 1.948227e+2, -1063798.5, -1097775.1, -6.161997, 0.00012248466, -0.000062372834, -1063798.5, -33060.918, 0.0, 10.000582, 9.955789 
4.0950316e+3, 2.047722e+2, -975641.5, -1019385.06, -5.5216355, 0.00012171591, 0.00005918001, -975641.5, -42409.02, 0.0, 10.00058, 9.943025 
4.0950316e+3, 2.1471527e+2, -877360.8, -921364.75, -5.901273, 0.00012002742, -0.0001227616, -877360.8, -41570.41, 0.0, 10.000578, 9.942684 
4.0950316e+3, 2.2465163e+2, -789068.7, -843081.7, -3.1680808, 0.00011988277, 0.00013068496, -789068.7, -50654.77, 0.0, 10.000576, 9.929657 
4.0950316e+3, 2.3458138e+2, -690641.2, -744907.4, -5.2502093, 0.00012148478, -0.00008146297, -690641.2, -49538.65, 0.0, 10.000574, 9.929326 
4.0950316e+3, 2.4450414e+2, -602335.25, -666990.9, -4.128212, 0.000121290424, 0.00007532274, -602335.25, -58475.813, 0.0, 10.000572, 9.915868 
4.0950316e+3, 2.544201e+2, -503587.75, -568320.44, -6.588133, 0.00011894893, -0.00011798798, -503587.75, -56904.867, 0.0, 10.000571, 9.915768 
4.0950316e+3, 2.6432902e+2, -415351.97, -490959.2, -5.674616, 0.0001185542, 0.00012805055, -415351.97, -65776.36, 0.0, 10.000569, 9.901702 
4.0950316e+3, 2.7423128e+2, -316073.4, -391350.44, -6.559011, 0.000120641635, -0.00020382341, -316073.4, -63539.977, 0.0, 10.0005665, 9.9021225 
4.0950316e+3, 2.841253e+2, -229608.64, -318068.5, -3.0768554, 0.00012182779, 0.00023502445, -229608.64, -74036.7, 0.0, 10.000565, 9.885172 
4.0950316e+3, 2.9401153e+2, -129908.02, -217757.0, -4.1280603, 0.00012176868, -0.00024901645, -129908.02, -71221.055, 0.0, 10.000564, 9.88595 
4.0950316e+3, 3.039257e+2, -40175.125, -84752.99, -0.9214454, 0.0001205541, 0.00017165938, -40175.125, -40175.125, 0.0, 10.000562, 9.9419 
4.095032e+3, 3.1386948e+2, -39099.402, -82515.69, -2.1934235, 0.00011763512, -0.00006850971, -39099.402, -39099.402, 0.0, 10.000561, 9.943411 
4.1050327e+3, 1.2499735e+2, -1719197.9, -1724176.4, -1.116999, 0.00012945307, 0.000053174543, -1719197.9, -4171.676, 0.0, 10.000623, 9.994023 
4.1050327e+3, 1.3499123e+2, -1621826.1, -1627394.1, -2.7759867, 0.00012555895, -0.00012362021, -1621826.1, -4739.983, 0.0, 10.00062, 9.993239 
4.105032e+3, 1.4497858e+2, -1533700.0, -1548050.6, -1.0013316, 0.00012474107, 0.00013634675, -1533700.0, -14489.894, 0.0, 10.000617, 9.981597 
4.105032e+3, 1.5496014e+2, -1435981.3, -1450732.6, -2.576525, 0.00012701224, -0.000048850157, -1435981.3, -14590.586, 0.0, 10.000613, 9.981065 
4.105032e+3, 1.6493513e+2, -1347931.8, -1371858.4, -1.385092, 0.00012699183, 0.00003671966, -1347931.8, -24295.824, 0.0, 10.00061, 9.9689865 
4.105032e+3, 1.7490415e+2, -1249980.1, -1274221.1, -3.7871637, 0.00012463376, -0.000063911204, -1249980.1, -24040.861, 0.0, 10.000608, 9.968573 
4.105032e+3, 1.8486655e+2, -1161912.6, -1195648.5, -2.632066, 0.00012347383, 0.0000789225, -1161912.6, -33604.758, 0.0, 10.000606, 9.956126 
4.105032e+3, 1.9482271e+2, -1063772.9, -1097768.3, -3.9350095, 0.0001235658, -0.000060527404, -1063772.9, -33035.332, 0.0, 10.000602, 9.955783 
4.105032e+3, 2.047722e+2, -975615.0, -1019374.7, -2.5647922, 0.00012312143, 0.00006246181, -975615.0, -42382.55, 0.0, 10.000599, 9.943022 
4.105032e+3, 2.1471527e+2, -877333.06, -921353.7, -4.2148423, 0.00012209613, -0.00012124032, -877333.06, -41542.63, 0.0, 10.000597, 9.942681 
4.105032e+3, 2.2465163e+2, -789042.4, -843075.1, -2.3257449, 0.00012219162, 0.00013047161, -789042.4, -50628.406, 0.0, 10.000596, 9.92965 
4.105032e+3, 2.3458137e+2, -690614.3, -744900.7, -4.61278, 0.00012355503, -0.00008338055, -690614.3, -49511.594, 0.0, 10.000594, 9.92932 
4.105032e+3, 2.4450411e+2, -602309.56, -666984.25, -3.3239462, 0.00012318902, 0.00007413015, -602309.56, -58449.92, 0.0, 10.000592, 9.915863 
4.105032e+3, 2.544201e+2, -503566.56, -568316.06, -4.7203474, 0.00012075627, -0.0001155553, -503566.56, -56883.46, 0.0, 10.000587, 9.915762 
4.105032e+3, 2.64329e+2, -415330.3, -490952.4, -3.0314455, 0.000120449185, 0.000131558, -415330.3, -65754.43, 0.0, 10.000586, 9.901699 
4.105032e+3, 2.7423126e+2, -316048.28, -391341.8, -4.3359723, 0.00012285169, -0.00020249344, -316048.28, -63514.535, 0.0, 10.000586, 9.90212 
4.105032e+3, 2.8412527e+2, -229582.94, -318061.1, -1.5312628, 0.00012404802, 0.00023467458, -229582.94, -74010.66, 0.0, 10.000585, 9.885167 
4.105032e+3, 2.9401147e+2, -129883.625, -217750.44, -3.2717557, 0.00012358074, -0.0002503502, -129883.625, -71196.25, 0.0, 10.000582, 9.885945 
4.105032e+3, 3.0392566e+2, -40152.46, -84746.86, -0.4539232, 0.0001220464, 0.00017063803, -40152.46, -40152.46, 0.0, 10.00058, 9.9418955 
4.105032e+3, 3.1386942e+2, -39079.563, -82510.87, -1.3558217, 0.000118943055, -0.00006729974, -39079.563, -39079.563, 0.0, 10.000576, 9.943407 
4.1150331e+3, 1.24997385e+2, -1719201.6, -1724183.5, -2.1839805, 0.00013182178, 0.000052230003, -1719201.6, -4175.856, 0.0, 10.000623, 9.994019 
4.1150331e+3, 1.3499126e+2, -1621829.9, -1627401.3, -3.8441536, 0.00012701885, -0.000117770505, -1621829.9, -4744.131, 0.0, 10.00062, 9.993235 
4.1150331e+3, 1.4497861e+2, -1533703.5, -1548057.4, -2.3204246, 0.00012577792, 0.00014304738, -1533703.5, -14493.78, 0.0, 10.000617, 9.981592 
4.1150331e+3, 1.5496017e+2, -1435984.8, -1450739.3, -3.8998408, 0.00012811426, -0.00004844464, -1435984.8, -14594.345, 0.0, 10.000613, 9.981061 
4.1150331e+3, 1.6493514e+2, -1347937.1, -1371868.5, -2.1108055, 0.00012829414, 0.000034806002, -1347937.1, -24301.326, 0.0, 10.00061, 9.968981 
4.1150331e+3, 1.7490417e+2, -1249985.4, -1274231.3, -4.5060234, 0.00012627448, -0.00006408909, -1249985.4, -24046.271, 0.0, 10.000608, 9.968567 
4.115033e+3, 1.8486656e+2, -1161915.5, -1195654.1, -4.2139072, 0.00012470117, 0.000080554186, -1161915.5, -33607.76, 0.0, 10.000606, 9.956122 
4.115033e+3, 1.9482271e+2, -1063775.6, -1097773.8, -5.531912, 0.00012359381, -0.00005700909, -1063775.6, -33038.24, 0.0, 10.000602, 9.95578 
4.115033e+3, 2.047722e+2, -975618.56, -1019381.7, -3.0406694, 0.00012402039, 0.000065576394, -975618.56, -42386.152, 0.0, 10.000599, 9.943018 
4.115033e+3, 2.1471527e+2, -877336.56, -921360.7, -4.667976, 0.00012610656, -0.00012100802, -877336.56, -41546.145, 0.0, 10.000597, 9.942677 
4.115033e+3, 2.2465162e+2, -789047.25, -843084.9, -2.915509, 0.00012627007, 0.00012942174, -789047.25, -50633.242, 0.0, 10.000596, 9.929645 
4.115033e+3, 2.3458135e+2, -690619.2, -744910.44, -5.205135, 0.00012425752, -0.00008390147, -690619.2, -49516.363, 0.0, 10.000594, 9.929314 
4.115033e+3, 2.445041e+2, -602312.75, -666990.6, -4.7559648, 0.00012324496, 0.00007514713, -602312.75, -58452.934, 0.0, 10.000592, 9.915858 
4.115033e+3, 2.5442007e+2, -503569.63, -568322.3, -6.194894, 0.0001234284, -0.000111797715, -503569.63, -56886.313, 0.0, 10.000587, 9.915758 
4.115033e+3, 2.64329e+2, -415333.25, -490958.44, -3.2160003, 0.00012411193, 0.00013534607, -415333.25, -65757.14, 0.0, 10.000586, 9.901695 
4.115033e+3, 2.7423123e+2, -316051.2, -391347.8, -4.4347706, 0.0001254288, -0.0002021263, -316051.2, -63517.16, 0.0, 10.000586, 9.902116 
4.115033e+3, 2.8412524e+2, -229586.95, -318069.38, -2.3058286, 0.0001255859, 0.00023302877, -229586.95, -74014.32, 0.0, 10.000585, 9.885162 
4.115033e+3, 2.9401144e+2, -129887.68, -217758.86, -4.1041565, 0.00012415253, -0.00025206612, -129887.68, -71199.9, 0.0, 10.000582, 9.88594 
4.1150331e+3, 3.039256e+2, -40155.23, -84752.67, -1.6179632, 0.00012275286, 0.00016989077, -40155.23, -40155.23, 0.0, 10.00058, 9.941892 
4.1150331e+3, 3.138694e+2, -39082.18, -82516.38, -2.559563, 0.00012141855, -0.00006555338, -39082.18, -39082.18, 0.0, 10.000576, 9.943403 
4.1250336e+3, 1.2499744e+2, -1719170.6, -1724172.6, 2.7313344, 0.00013323597, 0.000053852815, -1719170.6, -4145.326, 0.0, 10.000645, 9.994014 
4.1250336e+3, 1.349913e+2, -1621799.3, -1627390.8, 0.5764903, 0.000129243, -0.000117218835, -1621799.3, -4713.937, 0.0, 10.000642, 9.99323 
4.1250336e+3, 1.4497866e+2, -1533673.1, -1548047.9, 1.1886595, 0.00012806596, 0.00014384234, -1533673.1, -14463.813, 0.0, 10.000639, 9.981586 
4.1250336e+3, 1.549602e+2, -1435953.5, -1450729.4, -1.5368968, 0.00012971614, -0.000047092326, -1435953.5, -14563.493, 0.0, 10.000636, 9.981055 
4.1250336e+3, 1.6493517e+2, -1347906.3, -1371857.9, 0.36553973, 0.00012954445, 0.000035853707, -1347906.3, -24270.832, 0.0, 10.000632, 9.968976 
4.1250336e+3, 1.749042e+2, -1249957.9, -1274222.4, -0.8824756, 0.00012751477, -0.0000642248, -1249957.9, -24018.914, 0.0, 10.000628, 9.968562 
4.1250336e+3, 1.8486658e+2, -1161888.8, -1195646.8, -0.9333175, 0.00012613753, 0.0000803825, -1161888.8, -33581.246, 0.0, 10.000626, 9.956118 
4.1250336e+3, 1.9482273e+2, -1063746.3, -1097765.1, -3.853824, 0.00012544155, -0.00005601726, -1063746.3, -33008.98, 0.0, 10.000623, 9.955774 
4.1250336e+3, 2.0477222e+2, -975587.7, -1019371.1, -1.6289881, 0.00012635271, 0.0000668924, -975587.7, -42355.363, 0.0, 10.000621, 9.943013 
4.1250336e+3, 2.1471527e+2, -877307.25, -921351.0, -3.3632782, 0.00012900266, -0.000120276156, -877307.25, -41516.85, 0.0, 10.000619, 9.942672 
4.1250336e+3, 2.2465162e+2, -789021.3, -843078.0, -1.8450581, 0.00012881987, 0.0001296795, -789021.3, -50607.273, 0.0, 10.000616, 9.929639 
4.1250336e+3, 2.3458134e+2, -690597.25, -744905.75, -3.5902605, 0.00012543137, -0.0000839928, -690597.25, -49494.34, 0.0, 10.000611, 9.929308 
4.1250336e+3, 2.4450408e+2, -602290.3, -666985.0, -2.940545, 0.00012440064, 0.00007559956, -602290.3, -58430.363, 0.0, 10.000609, 9.9158535 
4.1250336e+3, 2.5442004e+2, -503542.47, -568314.3, -5.056272, 0.00012618833, -0.000109735614, -503542.47, -56858.992, 0.0, 10.000608, 9.915752 
4.1250336e+3, 2.6432896e+2, -415304.6, -490949.1, -2.2724156, 0.0001272544, 0.0001374621, -415304.6, -65728.266, 0.0, 10.000607, 9.9016905 
4.1250336e+3, 2.742312e+2, -316026.16, -391340.3, -3.7321715, 0.00012739537, -0.00020193844, -316026.16, -63491.85, 0.0, 10.000604, 9.902111 
4.1250336e+3, 2.841252e+2, -229564.19, -318063.13, -1.6526729, 0.00012677618, 0.00023224887, -229564.19, -73991.234, 0.0, 10.000602, 9.885158 
4.1250336e+3, 2.940114e+2, -129865.35, -217752.89, -2.537313, 0.00012512073, -0.0002524903, -129865.35, -71177.21, 0.0, 10.000599, 9.885936 
4.1250336e+3, 3.0392557e+2, -40131.82, -84745.83, 0.47545868, 0.0001239783, 0.00016997698, -40131.82, -40131.82, 0.0, 10.000597, 9.941888 
4.1250336e+3, 3.1386933e+2, -39055.7, -82508.0, -0.61602837, 0.00012360817, -0.00006473925, -39055.7, -39055.7, 0.0, 10.000596, 9.943399 
4.1350347e+3, 1.249975e+2, -1719175.5, -1724182.0, 1.5926443, 0.00013370802, 0.00005809666, -1719175.5, -4150.865, 0.0, 10.000645, 9.994008 
4.135034e+3, 1.3499135e+2, -1621804.1, -1627400.0, -0.5642642, 0.00013222128, -0.000121894416, -1621804.1, -4719.303, 0.0, 10.000642, 9.993224 
4.135034e+3, 1.4497869e+2, -1533679.3, -1548059.5, 0.08914406, 0.00013158855, 0.00013881038, -1533679.3, -14470.353, 0.0, 10.000639, 9.98158 
4.135034e+3, 1.5496024e+2, -1435959.6, -1450741.0, -2.6286445, 0.0001318111, -0.000044805485, -1435959.6, -14569.944, 0.0, 10.000636, 9.981048 
4.135034e+3, 1.649352e+2, -1347909.1, -1371863.3, -1.0830457, 0.00013074322, 0.000039823946, -1347909.1, -24273.957, 0.0, 10.000632, 9.968972 
4.135034e+3, 1.7490423e+2, -1249960.6, -1274227.6, -2.3403203, 0.00012835965, -0.00006431809, -1249960.6, -24021.936, 0.0, 10.000628, 9.968558 
4.135034e+3, 1.848666e+2, -1161895.1, -1195658.9, -1.8584952, 0.00012778, 0.00007843204, -1161895.1, -33587.75, 0.0, 10.000626, 9.95611 
4.135034e+3, 1.9482274e+2, -1063752.5, -1097777.3, -4.7679014, 0.00012908527, -0.000057518755, -1063752.5, -33015.36, 0.0, 10.000623, 9.955767 
4.135034e+3, 2.0477222e+2, -975591.56, -1019378.7, -2.4210396, 0.00013009986, 0.000066433124, -975591.56, -42359.31, 0.0, 10.000621, 9.943008 
4.135034e+3, 2.1471527e+2, -877311.06, -921358.44, -4.1508965, 0.00013079944, -0.00011905139, -877311.06, -41520.684, 0.0, 10.000619, 9.942667 
4.135034e+3, 2.2465162e+2, -789025.1, -843085.5, -3.3678825, 0.00012986129, 0.00013122783, -789025.1, -50611.074, 0.0, 10.000616, 9.929634 
4.135034e+3, 2.3458134e+2, -690601.0, -744913.2, -5.140712, 0.0001270701, -0.00008365981, -690601.0, -49498.02, 0.0, 10.000611, 9.929303 
4.135034e+3, 2.4450408e+2, -602294.75, -666993.94, -3.2641058, 0.00012664142, 0.00007549523, -602294.75, -58434.69, 0.0, 10.000609, 9.915848 
4.135034e+3, 2.5442004e+2, -503546.9, -568323.3, -5.319437, 0.00012903535, -0.00010934666, -503546.88, -56863.25, 0.0, 10.000608, 9.915747 
4.135034e+3, 2.6432893e+2, -415308.13, -490956.3, -3.211911, 0.00012988407, 0.00013792794, -415308.13, -65731.58, 0.0, 10.000607, 9.901686 
4.135034e+3, 2.7423117e+2, -316029.56, -391347.34, -4.715133, 0.00012875961, -0.0002019277, -316029.56, -63495.008, 0.0, 10.000605, 9.902106 
4.135034e+3, 2.8412518e+2, -229566.56, -318068.06, -2.5646207, 0.0001276234, 0.00023232336, -229566.56, -73993.31, 0.0, 10.000602, 9.885155 
4.135034e+3, 2.9401138e+2, -129867.59, -217757.61, -3.4459407, 0.00012648004, -0.00025163946, -129867.59, -71179.13, 0.0, 10.000599, 9.885932 
4.135034e+3, 3.0392554e+2, -40134.664, -84751.81, 0.007944654, 0.00012571605, 0.00017088611, -40134.664, -40134.664, 0.0, 10.000597, 9.941884 
4.135034e+3, 3.138693e+2, -39058.63, -82514.15, -1.0332736, 0.00012551624, -0.000064844775, -39058.63, -39058.63, 0.0, 10.000596, 9.943395 
4.145035e+3, 1.2499755e+2, -1719142.9, -1724172.0, 1.0273077, 0.00013516762, 0.000057930854, -1719142.9, -4118.7505, 0.0, 10.000669, 9.994001 
4.145035e+3, 1.349914e+2, -1621772.6, -1627390.8, -1.7674925, 0.0001350682, -0.00012360082, -1621772.6, -4688.2686, 0.0, 10.000665, 9.993217 
4.145035e+3, 1.4497873e+2, -1533647.4, -1548047.6, -0.42305255, 0.0001344089, 0.00013792902, -1533647.4, -14438.838, 0.0, 10.000661, 9.981575 
4.145035e+3, 1.5496029e+2, -1435929.4, -1450730.1, -1.0444387, 0.0001331846, -0.00004322473, -1435929.4, -14540.174, 0.0, 10.000657, 9.981044 
4.1450346e+3, 1.6493525e+2, -1347881.0, -1371855.8, 0.39579806, 0.00013197001, 0.000041140924, -1347881.0, -24246.287, 0.0, 10.000653, 9.968966 
4.1450346e+3, 1.7490426e+2, -1249932.1, -1274220.0, -3.0285394, 0.00013076555, -0.000066045046, -1249932.1, -23993.77, 0.0, 10.000649, 9.968553 
4.1450346e+3, 1.8486662e+2, -1161865.8, -1195650.4, -2.3934476, 0.00013072172, 0.000076892764, -1161865.8, -33558.63, 0.0, 10.000648, 9.956103 
4.1450346e+3, 1.9482276e+2, -1063722.5, -1097768.4, -3.875706, 0.00013189032, -0.00005549219, -1063722.5, -32985.527, 0.0, 10.000646, 9.955761 
4.1450346e+3, 2.0477223e+2, -975561.7, -1019367.94, -0.9525709, 0.00013239808, 0.00006949405, -975561.7, -42329.55, 0.0, 10.000642, 9.943004 
4.1450346e+3, 2.1471529e+2, -877285.2, -921349.8, -2.1038682, 0.00013219022, -0.000117695854, -877285.2, -41494.906, 0.0, 10.000637, 9.942663 
4.1450346e+3, 2.2465163e+2, -789001.0, -843080.4, -1.2333268, 0.00013134627, 0.0001312442, -789001.0, -50587.0, 0.0, 10.000634, 9.929628 
4.1450346e+3, 2.3458134e+2, -690572.56, -744906.0, -4.084973, 0.00012978248, -0.00008456686, -690572.56, -49469.55, 0.0, 10.000633, 9.929297 
4.1450346e+3, 2.4450406e+2, -602265.0, -666985.06, -2.3779616, 0.00012957709, 0.000074970885, -602265.0, -58404.832, 0.0, 10.000631, 9.915842 
4.1450346e+3, 2.5442004e+2, -503521.0, -568316.44, -4.0197825, 0.00013099413, -0.00010792906, -503521.0, -56837.23, 0.0, 10.000628, 9.915742 
4.1450346e+3, 2.6432893e+2, -415283.13, -490948.38, -1.583787, 0.00013135458, 0.00013991552, -415283.13, -65706.414, 0.0, 10.000626, 9.901682 
4.1450346e+3, 2.7423114e+2, -316004.0, -391339.1, -2.5318346, 0.00013036646, -0.00020111952, -316004.0, -63469.234, 0.0, 10.000623, 9.902102 
4.1450346e+3, 2.8412515e+2, -229540.33, -318060.0, -0.23881096, 0.00012935, 0.00023231054, -229540.33, -73966.82, 0.0, 10.000621, 9.88515 
4.1450346e+3, 2.9401135e+2, -129839.95, -217748.98, -2.004163, 0.00012830066, -0.00025197474, -129839.95, -71151.195, 0.0, 10.00062, 9.885928 
4.1450346e+3, 3.0392548e+2, -40107.902, -84744.3, 0.5832726, 0.00012738928, 0.00017070987, -40107.902, -40107.902, 0.0, 10.000618, 9.941879 
4.1450346e+3, 3.1386927e+2, -39034.82, -82508.13, -1.0228983, 0.00012668387, -0.00006415111, -39034.82, -39034.82, 0.0, 10.000615, 9.94339 
4.1550356e+3, 1.2499761e+2, -1719149.3, -1724184.1, -0.33185732, 0.00013760089, 0.00005344016, -1719149.3, -4125.7207, 0.0, 10.000669, 9.993994 
4.1550356e+3, 1.3499145e+2, -1621779.0, -1627402.8, -3.1194072, 0.00013778573, -0.00012237906, -1621779.0, -4695.134, 0.0, 10.000665, 9.99321 
4.1550356e+3, 1.4497879e+2, -1533648.8, -1548050.3, -1.8825778, 0.00013653666, 0.00014113981, -1533648.8, -14440.698, 0.0, 10.000661, 9.981573 
4.1550356e+3, 1.5496035e+2, -1435930.8, -1450732.8, -2.5146205, 0.00013384616, -0.00004233999, -1435930.8, -14541.987, 0.0, 10.000657, 9.981042 
4.1550356e+3, 1.6493528e+2, -1347888.6, -1371870.1, -0.92512727, 0.00013322385, 0.000039841805, -1347888.6, -24254.21, 0.0, 10.000653, 9.968957 
4.1550356e+3, 1.7490429e+2, -1249939.6, -1274234.4, -4.342706, 0.00013471067, -0.00006938401, -1249939.6, -24001.512, 0.0, 10.000649, 9.968543 
4.1550356e+3, 1.8486665e+2, -1161869.0, -1195656.8, -3.1051488, 0.00013494486, 0.00007575818, -1161869.0, -33562.125, 0.0, 10.000648, 9.9560995 
4.1550356e+3, 1.9482279e+2, -1063725.8, -1097774.8, -4.5808597, 0.00013386847, -0.000049985625, -1063725.8, -32988.96, 0.0, 10.000646, 9.955756 
4.1550356e+3, 2.0477226e+2, -975564.25, -1019373.06, -2.6728165, 0.00013326728, 0.000076027696, -975564.25, -42332.344, 0.0, 10.000642, 9.943001 
4.155035e+3, 2.147153e+2, -877287.7, -921354.8, -3.8505218, 0.0001331803, -0.00011621079, -877287.7, -41497.58, 0.0, 10.000637, 9.94266 
4.155035e+3, 2.2465163e+2, -789006.94, -843092.1, -1.7076182, 0.00013326856, 0.00012974981, -789006.94, -50592.984, 0.0, 10.000634, 9.929621 
4.155035e+3, 2.3458134e+2, -690578.5, -744917.9, -4.5146537, 0.00013355438, -0.00008669713, -690578.5, -49475.492, 0.0, 10.000633, 9.929289 
4.155035e+3, 2.4450406e+2, -602268.75, -666992.7, -3.548604, 0.0001331988, 0.00007403211, -602268.75, -58408.52, 0.0, 10.000631, 9.915837 
4.155035e+3, 2.5442e+2, -503524.63, -568323.75, -5.2247605, 0.00013207673, -0.00010549677, -503524.63, -56840.742, 0.0, 10.000628, 9.915737 
4.155035e+3, 2.643289e+2, -415285.56, -490953.34, -2.4250288, 0.00013168152, 0.0001434043, -415285.56, -65708.695, 0.0, 10.000626, 9.901679 
4.155035e+3, 2.7423114e+2, -316006.3, -391343.88, -3.3527355, 0.0001322127, -0.00019952431, -316006.3, -63471.37, 0.0, 10.000623, 9.9021 
4.155035e+3, 2.8412512e+2, -229544.19, -318068.03, -0.7666972, 0.00013194433, 0.00023221204, -229544.19, -73970.48, 0.0, 10.000622, 9.885145 
4.155035e+3, 2.9401132e+2, -129843.914, -217757.25, -2.5045998, 0.00013057682, -0.00025347978, -129843.914, -71154.875, 0.0, 10.00062, 9.885922 
4.1550356e+3, 3.0392545e+2, -40111.86, -84752.58, -0.5195637, 0.00012899932, 0.00016946299, -40111.86, -40111.86, 0.0, 10.000618, 9.941874 
4.1550356e+3, 3.138692e+2, -39038.773, -82516.42, -2.1931348, 0.00012712115, -0.000062669395, -39038.773, -39038.773, 0.0, 10.000615, 9.943384 
4.1650367e+3, 1.24997675e+2, -1719116.1, -1724172.1, 2.2122805, 0.00014009382, 0.000053475364, -1719116.1, -4093.1677, 0.0, 10.000691, 9.993989 
4.1650367e+3, 1.3499151e+2, -1621748.4, -1627392.3, 1.2038807, 0.000139505, -0.0001205081, -1621748.4, -4665.127, 0.0, 10.000687, 9.993205 
4.165036e+3, 1.4497884e+2, -1533619.3, -1548040.9, 2.2281625, 0.0001381887, 0.00014294714, -1533619.3, -14411.819, 0.0, 10.000682, 9.981568 
4.165036e+3, 1.549604e+2, -1435900.5, -1450723.0, -1.2345513, 0.0001361395, -0.000043052027, -1435900.5, -14512.229, 0.0, 10.000679, 9.981036 
4.165036e+3, 1.6493532e+2, -1347858.8, -1371862.4, -0.11799476, 0.00013587231, 0.00003881258, -1347858.8, -24224.744, 0.0, 10.000676, 9.96895 
4.165036e+3, 1.7490432e+2, -1249908.8, -1274226.3, -1.9492815, 0.00013742309, -0.000068483976, -1249908.8, -23971.05, 0.0, 10.000673, 9.968536 
4.165036e+3, 1.8486668e+2, -1161837.6, -1195645.1, 0.006876144, 0.00013742814, 0.000077891586, -1161837.6, -33531.023, 0.0, 10.0006695, 9.956096 
4.165036e+3, 1.9482282e+2, -1063698.9, -1097765.5, -1.5366894, 0.00013581573, -0.00004734652, -1063698.9, -32962.438, 0.0, 10.000665, 9.955752 
4.165036e+3, 2.0477228e+2, -975538.4, -1019365.9, -0.27810153, 0.00013522567, 0.000077888006, -975538.4, -42306.71, 0.0, 10.000662, 9.942995 
4.165036e+3, 2.1471532e+2, -877256.75, -921345.2, -3.0785904, 0.00013574203, -0.00011651933, -877256.75, -41466.813, 0.0, 10.00066, 9.942655 
4.165036e+3, 2.2465166e+2, -788975.8, -843083.75, -1.1482427, 0.00013583887, 0.00012861905, -788975.8, -50561.957, 0.0, 10.000658, 9.929614 
4.165036e+3, 2.3458134e+2, -690550.8, -744911.44, -3.1037238, 0.0001354601, -0.00008712546, -690550.8, -49447.86, 0.0, 10.000654, 9.929283 
4.165036e+3, 2.4450406e+2, -602240.94, -666983.7, -1.7607493, 0.00013478416, 0.00007455085, -602240.94, -58380.66, 0.0, 10.000651, 9.9158325 
4.165036e+3, 2.5442e+2, -503496.03, -568314.4, -3.0875723, 0.00013375339, -0.00010374032, -503496.03, -56812.12, 0.0, 10.000649, 9.915732 
4.165036e+3, 2.643289e+2, -415256.75, -490944.3, -0.2778325, 0.00013344557, 0.00014510183, -415256.75, -65679.8, 0.0, 10.000647, 9.901674 
4.165036e+3, 2.742311e+2, -315977.3, -391334.88, -2.351561, 0.00013405812, -0.00019953605, -315977.3, -63442.24, 0.0, 10.000645, 9.902095 
4.165036e+3, 2.841251e+2, -229516.31, -318060.16, -0.3336003, 0.00013371505, 0.000231329, -229516.31, -73942.38, 0.0, 10.000643, 9.885139 
4.165036e+3, 2.940113e+2, -129818.22, -217750.61, -1.8566347, 0.00013205924, -0.0002540797, -129818.22, -71128.93, 0.0, 10.00064, 9.885918 
4.165036e+3, 3.0392542e+2, -40086.5, -84745.23, 0.42801535, 0.00013042722, 0.00016972942, -40086.5, -40086.5, 0.0, 10.000637, 9.941869 
4.165036e+3, 3.1386918e+2, -39012.06, -82508.305, -0.26905254, 0.00012884368, -0.0000606813, -39012.06, -39012.06, 0.0, 10.000635, 9.94338 
4.175037e+3, 1.2499775e+2, -1719118.4, -1724176.5, 0.28788742, 0.00014264452, 0.000057849826, -1719118.4, -4096.1846, 0.0, 10.000691, 9.993986 
4.175037e+3, 1.3499159e+2, -1621750.6, -1627396.5, -0.7296498, 0.00014023967, -0.00011799577, -1621750.6, -4668.0796, 0.0, 10.000687, 9.993202 
4.175037e+3, 1.449789e+2, -1533627.1, -1548055.6, 0.9765188, 0.00013937113, 0.00014337225, -1533627.1, -14420.216, 0.0, 10.000682, 9.981559 
4.175037e+3, 1.5496044e+2, -1435908.3, -1450737.8, -2.478011, 0.00014004033, -0.00004533941, -1435908.3, -14520.421, 0.0, 10.000679, 9.981028 
4.175037e+3, 1.6493537e+2, -1347862.8, -1371870.3, -1.17281, 0.00013989495, 0.000038048336, -1347862.8, -24229.232, 0.0, 10.000676, 9.9689455 
4.1750365e+3, 1.7490436e+2, -1249912.8, -1274234.0, -3.0042748, 0.00013892062, -0.000063404455, -1249912.8, -23975.48, 0.0, 10.000673, 9.968532 
4.1750365e+3, 1.8486671e+2, -1161841.0, -1195651.8, -1.7807362, 0.00013819638, 0.00008324754, -1161841.0, -33534.797, 0.0, 10.0006695, 9.956091 
4.1750365e+3, 1.9482285e+2, -1063702.3, -1097772.0, -3.3370492, 0.00013773218, -0.000047533704, -1063702.3, -32966.07, 0.0, 10.000665, 9.955749 
4.1750365e+3, 2.0477231e+2, -975544.4, -1019377.6, -0.77167064, 0.00013825738, 0.0000751414, -975544.4, -42312.89, 0.0, 10.000662, 9.942988 
4.1750365e+3, 2.1471533e+2, -877262.7, -921356.94, -3.5401354, 0.00013985357, -0.00011859633, -877262.7, -41472.914, 0.0, 10.00066, 9.942647 
4.1750365e+3, 2.2465166e+2, -788980.1, -843092.44, -2.361612, 0.00013904856, 0.00012784655, -788980.1, -50566.4, 0.0, 10.000658, 9.929608 
4.1750365e+3, 2.3458134e+2, -690555.06, -744919.9, -4.341634, 0.00013552605, -0.00008587578, -690555.06, -49452.156, 0.0, 10.000655, 9.929277 
4.1750365e+3, 2.4450406e+2, -602243.9, -666989.75, -2.7729716, 0.00013436182, 0.00007650687, -602243.9, -58383.668, 0.0, 10.000651, 9.915829 
4.1750365e+3, 2.5442e+2, -503498.9, -568320.25, -4.0910444, 0.00013601595, -0.00010264979, -503498.9, -56814.98, 0.0, 10.000649, 9.915729 
4.1750365e+3, 2.643289e+2, -415261.28, -490953.56, -1.0229722, 0.00013662681, 0.00014503363, -415261.28, -65684.25, 0.0, 10.000647, 9.901668 
4.1750365e+3, 2.742311e+2, -315981.9, -391344.28, -3.0780294, 0.00013590309, -0.00020113219, -315981.9, -63446.67, 0.0, 10.000645, 9.902089 
4.1750365e+3, 2.841251e+2, -229519.98, -318067.78, -1.323464, 0.00013467405, 0.0002296722, -229519.98, -73945.86, 0.0, 10.000643, 9.885135 
4.1750365e+3, 2.9401127e+2, -129821.76, -217758.02, -2.8708127, 0.00013275925, -0.00025378732, -129821.76, -71132.234, 0.0, 10.00064, 9.885912 
4.1750365e+3, 3.039254e+2, -40088.715, -84749.91, -0.42433035, 0.00013167558, 0.00017148796, -40088.715, -40088.715, 0.0, 10.000637, 9.941866 
4.1750365e+3, 3.1386915e+2, -39014.125, -82512.67, -1.1056582, 0.0001318337, -0.000058193407, -39014.125, -39014.125, 0.0, 10.000635, 9.9433775 
4.1850382e+3, 1.24997824e+2, -1719087.9, -1724166.9, 2.270299, 0.00014488166, 0.00006041966, -1719087.9, -4066.449, 0.0, 10.000713, 9.99398 
4.1850376e+3, 1.3499166e+2, -1621717.6, -1627385.6, -1.1034917, 0.00014208756, -0.00011899094, -1621717.6, -4635.678, 0.0, 10.00071, 9.9931965 
4.1850376e+3, 1.4497896e+2, -1533593.6, -1548045.8, 0.6597403, 0.00014142513, 0.0001419635, -1533593.6, -14387.314, 0.0, 10.000707, 9.981552 
4.1850376e+3, 1.549605e+2, -1435874.9, -1450727.9, -1.0587167, 0.00014289843, -0.000044436576, -1435874.9, -14487.539, 0.0, 10.000703, 9.981021 
4.1850376e+3, 1.6493541e+2, -1347830.0, -1371859.1, 0.6988964, 0.00014251999, 0.00003976156, -1347830.0, -24196.973, 0.0, 10.000699, 9.96894 
4.1850376e+3, 1.749044e+2, -1249884.1, -1274225.0, -1.4183993, 0.00014025466, -0.00006241178, -1249884.1, -23947.205, 0.0, 10.000694, 9.968526 
4.1850376e+3, 1.8486676e+2, -1161812.4, -1195643.5, -0.6059862, 0.000139649, 0.00008377316, -1161812.4, -33506.535, 0.0, 10.00069, 9.956085 
4.1850376e+3, 1.9482288e+2, -1063668.8, -1097761.4, -3.4134986, 0.00014077646, -0.000047209953, -1063668.8, -32932.87, 0.0, 10.000689, 9.955743 
4.1850376e+3, 2.0477234e+2, -975509.75, -1019366.25, -0.5057818, 0.00014143904, 0.00007535961, -975509.75, -42278.566, 0.0, 10.000687, 9.942983 
4.1850376e+3, 2.1471535e+2, -877231.5, -921347.44, -1.8559979, 0.00014159862, -0.00011837935, -877231.5, -41441.93, 0.0, 10.000683, 9.942641 
4.185037e+3, 2.2465168e+2, -788951.1, -843083.94, -0.42759785, 0.00014020494, 0.00012809024, -788951.1, -50537.582, 0.0, 10.00068, 9.929603 
4.185037e+3, 2.3458135e+2, -690527.4, -744912.2, -2.4209065, 0.00013705347, -0.000085572945, -690527.4, -49424.586, 0.0, 10.000675, 9.929272 
4.185037e+3, 2.4450406e+2, -602215.2, -666980.56, -0.44924453, 0.00013616517, 0.00007695285, -602215.2, -58355.008, 0.0, 10.000673, 9.915824 
4.185037e+3, 2.5442e+2, -503467.84, -568309.94, -2.3342357, 0.00013798062, -0.000101960344, -503467.84, -56783.918, 0.0, 10.000672, 9.915724 
4.185037e+3, 2.643289e+2, -415230.56, -490944.75, 0.2830494, 0.00013845951, 0.00014551684, -415230.56, -65653.51, 0.0, 10.0006695, 9.901662 
4.185037e+3, 2.7423108e+2, -315953.3, -391336.72, -1.4605721, 0.00013723082, -0.00020142735, -315953.3, -63417.99, 0.0, 10.000667, 9.902083 
4.185037e+3, 2.8412506e+2, -229492.25, -318060.03, 0.3626731, 0.00013596752, 0.00022919953, -229492.25, -73917.97, 0.0, 10.000664, 9.88513 
4.185037e+3, 2.9401127e+2, -129794.4, -217750.45, -1.3406943, 0.00013466449, -0.0002536125, -129794.4, -71104.67, 0.0, 10.000661, 9.885907 
4.185037e+3, 3.039254e+2, -40061.367, -84741.54, 0.750974, 0.0001338672, 0.00017220687, -40061.367, -40061.367, 0.0, 10.000658, 9.941861 
4.185037e+3, 3.1386912e+2, -38987.08, -82504.34, -0.8713589, 0.00013382218, -0.00005709173, -38987.08, -38987.08, 0.0, 10.000656, 9.943373 
4.1950387e+3, 1.249979e+2, -1719095.8, -1724181.5, 0.9799531, 0.0001468071, 0.00006093488, -1719095.8, -4074.995, 0.0, 10.000713, 9.993971 
4.1950387e+3, 1.3499172e+2, -1621725.3, -1627400.1, -2.3892486, 0.00014503143, -0.00012344324, -1621725.3, -4644.004, 0.0, 10.00071, 9.993188 
4.1950387e+3, 1.4497901e+2, -1533597.4, -1548053.1, -0.5581445, 0.00014433869, 0.00013874561, -1533597.4, -14391.766, 0.0, 10.000707, 9.981547 
4.1950387e+3, 1.5496056e+2, -1435878.6, -1450735.3, -2.276941, 0.00014472936, -0.000040389325, -1435878.6, -14491.967, 0.0, 10.000704, 9.981016 
4.195038e+3, 1.6493547e+2, -1347834.6, -1371868.0, -1.2828988, 0.00014376713, 0.00004391711, -1347834.6, -24202.209, 0.0, 10.000699, 9.968934 
4.195038e+3, 1.7490445e+2, -1249888.6, -1274234.0, -3.4069822, 0.00014142708, -0.00006544516, -1249888.6, -23952.258, 0.0, 10.000694, 9.96852 
4.195038e+3, 1.8486679e+2, -1161818.4, -1195655.4, -1.1981304, 0.00014177542, 0.000079539735, -1161818.4, -33512.977, 0.0, 10.00069, 9.956079 
4.195038e+3, 1.948229e+2, -1063674.8, -1097773.1, -3.982859, 0.00014493246, -0.0000463832, -1063674.8, -32939.227, 0.0, 10.000689, 9.955735 
4.195038e+3, 2.0477237e+2, -975512.8, -1019372.4, -1.7345725, 0.00014476897, 0.00007849871, -975512.8, -42281.94, 0.0, 10.000687, 9.942979 
4.195038e+3, 2.1471538e+2, -877234.5, -921353.3, -3.102441, 0.00014101196, -0.0001159018, -877234.5, -41445.176, 0.0, 10.000683, 9.942637 
4.195038e+3, 2.2465171e+2, -788955.4, -843092.4, -1.9457108, 0.00013933801, 0.0001293358, -788955.4, -50542.023, 0.0, 10.00068, 9.929598 
4.195038e+3, 2.3458137e+2, -690531.6, -744920.6, -3.9489655, 0.00014002107, -0.00008620276, -690531.6, -49428.93, 0.0, 10.000675, 9.929266 
4.195038e+3, 2.4450408e+2, -602219.3, -666988.94, -0.8788877, 0.00014016185, 0.00007591097, -602219.3, -58359.21, 0.0, 10.000673, 9.915819 
4.195038e+3, 2.5442e+2, -503471.94, -568318.25, -2.7096684, 0.0001396522, -0.000101666155, -503471.94, -56788.04, 0.0, 10.000672, 9.915719 
4.195038e+3, 2.643289e+2, -415234.56, -490952.94, -0.87534314, 0.00013896382, 0.00014654337, -415234.56, -65657.5, 0.0, 10.0006695, 9.901657 
4.195038e+3, 2.7423108e+2, -315957.25, -391344.8, -2.671987, 0.00013804914, -0.0002004403, -315957.25, -63421.867, 0.0, 10.000667, 9.902078 
4.195038e+3, 2.8412506e+2, -229496.13, -318068.06, -0.726597, 0.00013759077, 0.00022989408, -229496.13, -73921.734, 0.0, 10.000664, 9.885124 
4.195038e+3, 2.9401124e+2, -129798.23, -217758.44, -2.4192672, 0.0001377577, -0.00025355315, -129798.23, -71108.32, 0.0, 10.000661, 9.885901 
4.195038e+3, 3.0392537e+2, -40065.22, -84749.625, -0.19271189, 0.0001369886, 0.00017190151, -40065.22, -40065.22, 0.0, 10.000658, 9.941856 
4.195038e+3, 3.138691e+2, -38990.94, -82512.46, -1.7980897, 0.00013482399, -0.000057356323, -38990.94, -38990.94, 0.0, 10.000656, 9.943367 
4.205039e+3, 1.2499799e+2, -1719060.5, -1724171.1, 1.1973062, 0.0001489452, 0.000060784565, -1719060.5, -4040.6343, 0.0, 10.000739, 9.993964 
4.205039e+3, 1.349918e+2, -1621691.0, -1627390.4, -0.9875343, 0.00014726866, -0.00012240012, -1621691.0, -4610.5254, 0.0, 10.000735, 9.99318 
4.205039e+3, 1.4497909e+2, -1533563.1, -1548040.4, 1.1429834, 0.00014629547, 0.00014030177, -1533563.1, -14358.104, 0.0, 10.0007305, 9.981543 
4.205039e+3, 1.5496062e+2, -1435847.6, -1450724.4, -0.75588334, 0.00014602374, -0.000039308936, -1435847.6, -14461.542, 0.0, 10.000726, 9.981011 
4.205039e+3, 1.6493553e+2, -1347804.5, -1371860.0, -0.079383284, 0.00014531142, 0.00004448425, -1347804.5, -24172.627, 0.0, 10.000722, 9.968927 
4.205039e+3, 1.7490451e+2, -1249853.9, -1274223.5, -3.0647154, 0.00014415102, -0.00006542773, -1249853.9, -23917.89, 0.0, 10.000719, 9.9685135 
4.205039e+3, 1.8486683e+2, -1161781.6, -1195642.0, -0.032764014, 0.00014457309, 0.00007984479, -1161781.6, -33476.55, 0.0, 10.000716, 9.956073 
4.205039e+3, 1.9482295e+2, -1063641.5, -1097761.9, -1.0439882, 0.00014664803, -0.000044914796, -1063641.5, -32906.402, 0.0, 10.000712, 9.9557295 
4.2050385e+3, 2.047724e+2, -975482.3, -1019362.6, 1.1945801, 0.00014585118, 0.00008002022, -975482.3, -42251.76, 0.0, 10.000709, 9.942973 
4.2050385e+3, 2.147154e+2, -877205.5, -921344.5, -1.277014, 0.00014194631, -0.00011552786, -877205.5, -41416.49, 0.0, 10.000705, 9.942633 
4.2050385e+3, 2.2465172e+2, -788925.9, -843084.1, -0.47342336, 0.00014071383, 0.0001291369, -788925.9, -50512.73, 0.0, 10.000702, 9.929591 
4.2050385e+3, 2.3458138e+2, -690498.2, -744910.5, -2.8198853, 0.00014250491, -0.000086323336, -690498.2, -49395.7, 0.0, 10.0007, 9.92926 
4.2050385e+3, 2.445041e+2, -602185.0, -666977.3, 0.34106216, 0.00014281945, 0.00007608378, -602185.0, -58325.01, 0.0, 10.000698, 9.915814 
4.2050385e+3, 2.5442004e+2, -503441.94, -568308.8, -1.1127214, 0.00014136726, -0.00010094351, -503441.94, -56758.113, 0.0, 10.000694, 9.915713 
4.2050385e+3, 2.643289e+2, -415207.03, -490945.5, 0.693117, 0.00014029896, 0.00014733296, -415207.03, -65630.0, 0.0, 10.00069, 9.901651 
4.2050385e+3, 2.7423108e+2, -315929.0, -391337.16, -1.2706629, 0.00013972294, -0.00020019837, -315929.0, -63393.57, 0.0, 10.000689, 9.902072 
4.2050385e+3, 2.8412506e+2, -229467.22, -318060.06, 0.5961048, 0.00013956832, 0.00022981272, -229467.22, -73892.74, 0.0, 10.000686, 9.8851185 
4.2050385e+3, 2.9401124e+2, -129769.13, -217750.44, -1.2145993, 0.00013998787, -0.00025364797, -129769.13, -71079.086, 0.0, 10.000683, 9.885897 
4.2050385e+3, 3.0392534e+2, -40036.246, -84741.44, 1.0415877, 0.00013929525, 0.00017221515, -40036.246, -40036.246, 0.0, 10.000681, 9.941851 
4.2050385e+3, 3.138691e+2, -38962.543, -82504.51, -0.30485582, 0.00013694586, -0.00005601035, -38962.543, -38962.543, 0.0, 10.000678, 9.943362 
4.21504e+3, 1.2499807e+2, -1719065.5, -1724180.5, -0.26483533, 0.00015129217, 0.00006007829, -1719065.5, -4046.461, 0.0, 10.000739, 9.993958 
4.21504e+3, 1.3499188e+2, -1621696.0, -1627399.8, -2.4484653, 0.0001488106, -0.000115946284, -1621696.0, -4616.2905, 0.0, 10.000735, 9.993175 
4.21504e+3, 1.4497918e+2, -1533567.4, -1548048.5, -0.8064403, 0.00014730965, 0.00014655995, -1533567.4, -14363.112, 0.0, 10.0007305, 9.981538 
4.2150396e+3, 1.5496068e+2, -1435851.8, -1450732.4, -2.7112825, 0.00014678875, -0.00004114882, -1435851.8, -14466.383, 0.0, 10.000726, 9.981007 
4.2150396e+3, 1.6493559e+2, -1347811.1, -1371872.6, -0.90291834, 0.00014714742, 0.00004151859, -1347811.1, -24179.756, 0.0, 10.000722, 9.96892 
4.2150396e+3, 1.7490456e+2, -1249860.4, -1274236.1, -3.8762777, 0.00014840317, -0.00006240643, -1249860.4, -23924.922, 0.0, 10.000719, 9.968506 
4.2150396e+3, 1.8486689e+2, -1161783.9, -1195646.5, -1.4320315, 0.0001480325, 0.00008461878, -1161783.9, -33479.344, 0.0, 10.000716, 9.95607 
4.2150396e+3, 1.94823e+2, -1063643.8, -1097766.3, -2.4566138, 0.00014596042, -0.000042813866, -1063643.8, -32909.086, 0.0, 10.000712, 9.955728 
4.2150396e+3, 2.0477244e+2, -975487.56, -1019373.0, -0.3947062, 0.00014471977, 0.00007994956, -975487.56, -42257.43, 0.0, 10.000709, 9.942966 
4.2150396e+3, 2.1471544e+2, -877210.8, -921354.94, -2.8680677, 0.00014437863, -0.00011722546, -877210.8, -41422.066, 0.0, 10.000705, 9.942626 
4.2150396e+3, 2.2465175e+2, -788930.9, -843094.06, -1.026392, 0.0001442986, 0.0001275152, -788930.9, -50517.977, 0.0, 10.000702, 9.929585 
4.2150396e+3, 2.3458141e+2, -690503.1, -744920.4, -3.3378198, 0.00014451296, -0.00008594247, -690503.1, -49400.84, 0.0, 10.0007, 9.929254 
4.2150396e+3, 2.4450411e+2, -602188.44, -666984.25, -1.0406796, 0.00014415885, 0.000077452925, -602188.44, -58328.613, 0.0, 10.000698, 9.91581 
4.2150396e+3, 2.5442004e+2, -503445.25, -568315.6, -2.5367234, 0.0001431253, -0.00009979867, -503445.25, -56761.555, 0.0, 10.000694, 9.9157095 
4.2150396e+3, 2.643289e+2, -415211.25, -490954.16, -0.31023955, 0.00014245238, 0.00014788941, -415211.25, -65634.28, 0.0, 10.000691, 9.901646 
4.2150396e+3, 2.7423108e+2, -315933.22, -391345.88, -2.2464507, 0.00014223956, -0.00020069015, -315933.22, -63397.797, 0.0, 10.000689, 9.902066 
4.2150396e+3, 2.8412503e+2, -229471.34, -318068.63, -0.3914198, 0.00014189522, 0.0002289672, -229471.34, -73896.8, 0.0, 10.000686, 9.885113 
4.2150396e+3, 2.940112e+2, -129773.19, -217758.9, -2.2031226, 0.00014136841, -0.0002538947, -129773.19, -71083.02, 0.0, 10.000683, 9.885891 
4.2150396e+3, 3.0392534e+2, -40039.688, -84748.67, -0.032621898, 0.00014079982, 0.0001731385, -40039.688, -40039.688, 0.0, 10.000681, 9.941846 
4.2150396e+3, 3.1386906e+2, -38965.914, -82511.61, -1.3890431, 0.00014017112, -0.000053077856, -38965.914, -38965.914, 0.0, 10.000678, 9.943357 
4.225041e+3, 1.2499816e+2, -1719031.6, -1724168.8, 2.3222823, 0.0001526826, 0.000061400075, -1719031.6, -4013.3755, 0.0, 10.000763, 9.993953 
4.2250407e+3, 1.3499196e+2, -1621662.8, -1627388.4, 0.35533234, 0.00015053034, -0.000114467024, -1621662.8, -4583.915, 0.0, 10.000758, 9.993169 
4.2250407e+3, 1.4497925e+2, -1533534.3, -1548038.8, 1.3823073, 0.00014928085, 0.00014766451, -1533534.3, -14330.745, 0.0, 10.000754, 9.981531 
4.2250407e+3, 1.5496075e+2, -1435815.9, -1450721.4, -1.8504901, 0.00014893332, -0.00004127516, -1435815.9, -14431.205, 0.0, 10.0007515, 9.980999 
4.2250407e+3, 1.6493565e+2, -1347774.3, -1371860.0, 0.5638457, 0.0001493661, 0.000041632436, -1347774.3, -24143.582, 0.0, 10.000748, 9.968914 
4.2250407e+3, 1.7490461e+2, -1249826.3, -1274224.9, -0.82318544, 0.0001505938, -0.000060547667, -1249826.3, -23891.38, 0.0, 10.000744, 9.9685 
4.2250407e+3, 1.8486695e+2, -1161750.9, -1195635.3, 1.2370111, 0.00014980293, 0.0000865124, -1161750.9, -33446.895, 0.0, 10.00074, 9.956065 
4.22504e+3, 1.9482304e+2, -1063611.6, -1097755.4, -1.4875286, 0.00014690038, -0.00004267273, -1063611.6, -32877.465, 0.0, 10.000736, 9.955722 
4.22504e+3, 2.0477247e+2, -975455.4, -1019363.5, 0.16614744, 0.00014585715, 0.00007938474, -975455.4, -42225.65, 0.0, 10.000732, 9.942961 
4.22504e+3, 2.1471548e+2, -877175.75, -921344.06, -1.9042945, 0.00014682558, -0.000117361895, -877175.75, -41387.387, 0.0, 10.0007305, 9.942619 
4.22504e+3, 2.2465178e+2, -788896.1, -843083.25, 0.47933403, 0.00014692137, 0.00012773716, -788896.1, -50483.56, 0.0, 10.000728, 9.929579 
4.22504e+3, 2.3458143e+2, -690472.6, -744911.8, -1.5287149, 0.00014602857, -0.00008544135, -690472.6, -49370.57, 0.0, 10.000723, 9.929248 
4.22504e+3, 2.4450412e+2, -602158.6, -666974.75, 0.622824, 0.00014543856, 0.000078248624, -602158.6, -58298.99, 0.0, 10.00072, 9.915805 
4.22504e+3, 2.5442004e+2, -503414.1, -568305.44, -1.1251296, 0.00014521083, -0.000098689314, -503414.1, -56730.55, 0.0, 10.000717, 9.915705 
4.22504e+3, 2.643289e+2, -415180.56, -490945.63, 1.0556916, 0.00014495006, 0.00014881045, -415180.56, -65603.68, 0.0, 10.000714, 9.90164 
4.22504e+3, 2.7423108e+2, -315903.38, -391337.94, -1.0764512, 0.00014464598, -0.00020059568, -315903.38, -63367.965, 0.0, 10.000711, 9.9020605 
4.22504e+3, 2.8412503e+2, -229441.97, -318060.63, 0.6349368, 0.00014418391, 0.00022867687, -229441.97, -73867.4, 0.0, 10.000709, 9.885107 
4.22504e+3, 2.940112e+2, -129744.65, -217751.39, -1.2004138, 0.00014350552, -0.00025396235, -129744.65, -71054.4, 0.0, 10.000705, 9.885885 
4.22504e+3, 3.039253e+2, -40010.824, -84740.23, 1.0682399, 0.00014292118, 0.00017353393, -40010.824, -40010.824, 0.0, 10.000703, 9.941841 
4.22504e+3, 3.1386903e+2, -38935.77, -82502.44, -0.28372043, 0.00014247888, -0.000051867803, -38935.77, -38935.77, 0.0, 10.000701, 9.943353 
4.2350414e+3, 1.2499826e+2, -1719036.1, -1724177.3, 0.71793354, 0.00015313167, 0.00006492789, -1719036.1, -4018.8357, 0.0, 10.000763, 9.993947 
4.2350414e+3, 1.3499205e+2, -1621667.3, -1627396.9, -1.2550156, 0.00015242505, -0.00011788188, -1621667.3, -4589.222, 0.0, 10.000758, 9.993164 
4.2350414e+3, 1.4497933e+2, -1533541.5, -1548052.6, 0.10935744, 0.00015219355, 0.00014369795, -1533541.5, -14338.79, 0.0, 10.000754, 9.981523 
4.2350414e+3, 1.5496083e+2, -1435823.1, -1450735.0, -3.114572, 0.00015243524, -0.000039715505, -1435823.1, -14439.12, 0.0, 10.0007515, 9.98099 
4.235041e+3, 1.6493572e+2, -1347777.4, -1371865.9, -0.84474015, 0.00015196113, 0.0000447767, -1347777.4, -24147.342, 0.0, 10.000748, 9.96891 
4.235041e+3, 1.7490467e+2, -1249829.3, -1274230.8, -2.2387924, 0.00015075544, -0.000059831964, -1249829.3, -23895.041, 0.0, 10.000744, 9.968496 
4.235041e+3, 1.8486701e+2, -1161756.8, -1195646.6, -0.34927842, 0.00014991086, 0.00008557218, -1161756.8, -33453.363, 0.0, 10.00074, 9.956058 
4.235041e+3, 1.948231e+2, -1063617.5, -1097766.9, -3.071471, 0.00014944214, -0.00004446054, -1063617.5, -32883.8, 0.0, 10.000736, 9.955715 
4.235041e+3, 2.0477252e+2, -975459.9, -1019372.4, -0.692388, 0.00014922762, 0.000078333076, -975459.9, -42230.582, 0.0, 10.000732, 9.942955 
4.235041e+3, 2.1471551e+2, -877180.2, -921352.9, -2.7490885, 0.00014928755, -0.000115961586, -877180.2, -41392.215, 0.0, 10.0007305, 9.942614 
4.235041e+3, 2.2465181e+2, -788900.56, -843092.0, -1.0191226, 0.00014859787, 0.00012977415, -788900.56, -50488.293, 0.0, 10.000728, 9.929573 
4.235041e+3, 2.3458146e+2, -690476.94, -744920.5, -3.0489516, 0.00014705949, -0.00008482155, -690476.94, -49375.17, 0.0, 10.000723, 9.929242 
4.235041e+3, 2.4450414e+2, -602162.5, -666982.56, -0.45403615, 0.0001466594, 0.000078480116, -602162.5, -58303.082, 0.0, 10.00072, 9.915799 
4.2350405e+3, 2.5442007e+2, -503417.9, -568313.2, -2.1804087, 0.00014761908, -0.00009761481, -503417.9, -56734.54, 0.0, 10.000717, 9.9157 
4.2350405e+3, 2.6432893e+2, -415185.22, -490955.13, -0.06859513, 0.00014778716, 0.00015009036, -415185.22, -65608.445, 0.0, 10.000714, 9.901633 
4.2350405e+3, 2.7423108e+2, -315908.0, -391347.5, -2.2060964, 0.00014694432, -0.00019992403, -315908.0, -63372.656, 0.0, 10.000711, 9.902054 
4.2350405e+3, 2.8412503e+2, -229446.16, -318069.3, -0.5277232, 0.00014643522, 0.00022893318, -229446.16, -73871.58, 0.0, 10.000709, 9.885101 
4.2350405e+3, 2.940112e+2, -129748.734, -217759.94, -2.3657105, 0.0001463875, -0.00025385362, -129748.734, -71058.42, 0.0, 10.000705, 9.8858795 
4.2350405e+3, 3.039253e+2, -40014.28, -84747.51, 0.2615988, 0.00014564992, 0.00017340985, -40014.28, -40014.28, 0.0, 10.000703, 9.941836 
4.2350405e+3, 3.1386903e+2, -38939.168, -82509.586, -1.0483301, 0.00014388403, -0.000052353185, -38939.168, -38939.168, 0.0, 10.000701, 9.943348 
4.2450425e+3, 1.2499835e+2, -1719000.3, -1724166.3, 2.029918, 0.00015484937, 0.000065608074, -1719000.3, -3984.0144, 0.0, 10.000789, 9.99394 
4.245042e+3, 1.3499214e+2, -1621631.4, -1627386.0, -1.3625251, 0.00015475551, -0.00011930982, -1621631.4, -4554.2617, 0.0, 10.000785, 9.993156 
4.245042e+3, 1.4497942e+2, -1533505.1, -1548040.1, 0.46438426, 0.00015465367, 0.00014258682, -1533505.1, -14303.221, 0.0, 10.00078, 9.981517 
4.245042e+3, 1.549609e+2, -1435787.8, -1450723.3, -0.8234162, 0.00015453981, -0.000038433416, -1435787.8, -14404.562, 0.0, 10.000776, 9.980985 
4.245042e+3, 1.6493581e+2, -1347742.9, -1371854.5, 1.5023773, 0.00015373381, 0.00004641997, -1347742.9, -24113.607, 0.0, 10.000772, 9.9689045 
4.245042e+3, 1.7490475e+2, -1249795.8, -1274220.0, -1.483888, 0.00015221955, -0.000059893144, -1249795.8, -23862.262, 0.0, 10.000769, 9.968491 
4.245042e+3, 1.8486707e+2, -1161722.9, -1195635.9, 0.28094298, 0.00015159184, 0.00008499724, -1161722.9, -33420.06, 0.0, 10.000765, 9.956052 
4.245042e+3, 1.9482315e+2, -1063581.5, -1097755.1, -1.4753299, 0.00015188937, -0.000044303677, -1063581.5, -32848.285, 0.0, 10.000762, 9.9557085 
4.2450416e+3, 2.0477258e+2, -975424.4, -1019361.0, 1.3136085, 0.00015172525, 0.0000788229, -975424.4, -42195.56, 0.0, 10.000758, 9.942949 
4.2450416e+3, 2.1471556e+2, -877148.1, -921343.4, -1.0457608, 0.00015106089, -0.000115568226, -877148.1, -41360.594, 0.0, 10.000754, 9.942608 
4.2450416e+3, 2.2465186e+2, -788869.5, -843082.94, 0.3684073, 0.0001501822, 0.00013037329, -788869.5, -50457.61, 0.0, 10.000751, 9.929567 
4.2450416e+3, 2.3458149e+2, -690444.56, -744910.8, -1.8493376, 0.00014906064, -0.00008367446, -690444.56, -49343.066, 0.0, 10.000748, 9.929236 
4.2450416e+3, 2.4450417e+2, -602129.2, -666971.56, 0.80676806, 0.00014893756, 0.00007965552, -602129.2, -58270.047, 0.0, 10.000744, 9.915794 
4.2450416e+3, 2.544201e+2, -503385.78, -568302.8, -0.87873673, 0.00015000666, -0.00009703123, -503385.78, -56702.605, 0.0, 10.000741, 9.915694 
4.2450416e+3, 2.6432893e+2, -415154.84, -490947.4, 1.2147481, 0.00015015858, 0.00015038083, -415154.84, -65578.23, 0.0, 10.000737, 9.901628 
4.2450416e+3, 2.742311e+2, -315877.84, -391340.06, -1.1430159, 0.0001491402, -0.00019954443, -315877.84, -63342.574, 0.0, 10.000734, 9.902047 
4.2450416e+3, 2.8412503e+2, -229415.19, -318060.6, 0.45707807, 0.00014864434, 0.00022945102, -229415.19, -73840.63, 0.0, 10.000731, 9.885096 
4.2450416e+3, 2.940112e+2, -129717.336, -217750.98, -1.3450234, 0.00014886889, -0.00025313214, -129717.336, -71026.99, 0.0, 10.00073, 9.885874 
4.2450416e+3, 3.039253e+2, -39983.207, -84738.1, 1.3134496, 0.00014815496, 0.00017403098, -39983.207, -39983.207, 0.0, 10.000726, 9.941832 
4.2450416e+3, 3.13869e+2, -38909.98, -82501.016, -0.06574286, 0.00014604093, -0.00005228428, -38909.98, -38909.98, 0.0, 10.000723, 9.943343 
4.255043e+3, 1.2499846e+2, -1719008.1, -1724180.9, 0.479658, 0.00015781357, 0.00006340685, -1719008.1, -3992.803, 0.0, 10.000789, 9.993931 
4.255043e+3, 1.3499223e+2, -1621639.1, -1627400.5, -2.9051762, 0.00015751441, -0.00011878533, -1621639.1, -4562.8853, 0.0, 10.000785, 9.993148 
4.255043e+3, 1.449795e+2, -1533508.0, -1548045.6, -1.000047, 0.00015666899, 0.00014428272, -1533508.0, -14306.954, 0.0, 10.00078, 9.981513 
4.255043e+3, 1.54961e+2, -1435790.6, -1450728.8, -2.294703, 0.00015526987, -0.000037424037, -1435790.6, -14408.227, 0.0, 10.000776, 9.980982 
4.255043e+3, 1.6493589e+2, -1347749.5, -1371867.1, -0.113890536, 0.0001546973, 0.00004658764, -1347749.5, -24120.95, 0.0, 10.000772, 9.968896 
4.2550424e+3, 1.7490481e+2, -1249802.3, -1274232.6, -3.0965023, 0.00015496479, -0.000060718936, -1249802.3, -23869.445, 0.0, 10.000769, 9.968483 
4.2550424e+3, 1.8486713e+2, -1161726.8, -1195643.5, -0.7391037, 0.00015482031, 0.0000847811, -1161726.8, -33424.53, 0.0, 10.000765, 9.956047 
4.2550424e+3, 1.948232e+2, -1063585.3, -1097762.5, -2.4915848, 0.00015424416, -0.00004223353, -1063585.3, -32852.67, 0.0, 10.000762, 9.955704 
4.2550424e+3, 2.0477262e+2, -975429.5, -1019371.06, -0.32438257, 0.00015336479, 0.00008082973, -975429.5, -42201.207, 0.0, 10.000758, 9.942943 
4.2550424e+3, 2.147156e+2, -877153.2, -921353.44, -2.696362, 0.00015215683, -0.0001161652, -877153.2, -41366.117, 0.0, 10.000754, 9.942601 
4.2550424e+3, 2.246519e+2, -788874.25, -843092.44, -0.7874069, 0.00015167586, 0.00012955794, -788874.25, -50462.766, 0.0, 10.000751, 9.929562 
4.2550424e+3, 2.3458153e+2, -690449.25, -744920.25, -2.9877677, 0.00015201676, -0.00008200871, -690449.25, -49348.117, 0.0, 10.000748, 9.929231 
4.2550424e+3, 2.445042e+2, -602133.06, -666979.3, -0.49054274, 0.00015225647, 0.00008175947, -602133.06, -58274.168, 0.0, 10.000744, 9.91579 
4.2550424e+3, 2.5442013e+2, -503389.5, -568310.44, -2.1862056, 0.0001523742, -0.00009693046, -503389.5, -56706.58, 0.0, 10.000741, 9.915689 
4.255042e+3, 2.6432896e+2, -415159.88, -490957.72, 0.08113883, 0.00015207207, 0.00014969816, -415159.88, -65583.445, 0.0, 10.000737, 9.901621 
4.255042e+3, 2.742311e+2, -315882.9, -391350.5, -2.262674, 0.0001512356, -0.0001994521, -315882.9, -63347.746, 0.0, 10.000734, 9.9020405 
4.255042e+3, 2.8412506e+2, -229419.36, -318069.22, -0.5693746, 0.0001508123, 0.00023022614, -229419.36, -73844.84, 0.0, 10.000731, 9.88509 
4.255042e+3, 2.940112e+2, -129721.36, -217759.4, -2.3628724, 0.00015095677, -0.00025180783, -129721.36, -71031.016, 0.0, 10.00073, 9.885868 
4.255042e+3, 3.0392528e+2, -39986.79, -84745.63, 0.07178388, 0.00015044036, 0.00017538527, -39986.79, -39986.79, 0.0, 10.000727, 9.941826 
4.255042e+3, 3.13869e+2, -38913.508, -82508.445, -1.3349706, 0.00014893748, -0.000051669966, -38913.508, -38913.508, 0.0, 10.000723, 9.943337 
4.265044e+3, 1.2499856e+2, -1718970.5, -1724168.6, 1.9291179, 0.0001602619, 0.00006290606, -1718970.5, -3956.2842, 0.0, 10.000815, 9.993924 
4.265044e+3, 1.3499235e+2, -1621603.4, -1627389.3, 0.21402714, 0.00015969618, -0.000117270225, -1621603.4, -4528.064, 0.0, 10.000811, 9.993141 
4.265044e+3, 1.449796e+2, -1533472.3, -1548033.1, 2.3831718, 0.0001587129, 0.00014614427, -1533472.3, -14272.112, 0.0, 10.000806, 9.981507 
4.2650434e+3, 1.549611e+2, -1435755.3, -1450716.5, -0.56516165, 0.0001573055, -0.000037254835, -1435755.3, -14373.695, 0.0, 10.000802, 9.980976 
4.2650434e+3, 1.6493596e+2, -1347714.6, -1371856.5, 1.2601414, 0.00015687605, 0.000046440324, -1347714.6, -24086.855, 0.0, 10.000798, 9.968889 
4.2650434e+3, 1.749049e+2, -1249766.3, -1274221.5, -0.8407228, 0.00015744117, -0.000059774946, -1249766.3, -23834.156, 0.0, 10.000794, 9.968476 
4.2650434e+3, 1.848672e+2, -1161690.4, -1195631.1, 1.7808738, 0.00015725946, 0.00008582693, -1161690.4, -33388.895, 0.0, 10.000791, 9.956041 
4.2650434e+3, 1.9482328e+2, -1063551.4, -1097751.5, -0.71204615, 0.00015629604, -0.00004211912, -1063551.4, -32819.37, 0.0, 10.000787, 9.955698 
4.2650434e+3, 2.047727e+2, -975396.94, -1019361.8, 0.82873476, 0.00015526763, 0.00008076378, -975396.94, -42169.19, 0.0, 10.000783, 9.942936 
4.2650428e+3, 2.1471567e+2, -877119.6, -921343.75, -1.61811, 0.00015416842, -0.000115597126, -877119.6, -41333.05, 0.0, 10.000779, 9.942595 
4.2650428e+3, 2.2465195e+2, -788839.94, -843081.6, 0.6572616, 0.00015392886, 0.0001305181, -788839.94, -50428.867, 0.0, 10.000775, 9.929556 
4.2650428e+3, 2.3458156e+2, -690415.7, -744909.9, -1.279732, 0.00015466116, -0.00008093025, -690415.7, -49314.957, 0.0, 10.000772, 9.929225 
4.2650428e+3, 2.4450423e+2, -602099.8, -666969.25, 1.0411607, 0.00015491991, 0.000082610786, -602099.8, -58241.246, 0.0, 10.000769, 9.915784 
4.2650428e+3, 2.5442013e+2, -503355.97, -568300.3, -1.3115729, 0.00015461189, -0.000096717806, -503355.97, -56673.293, 0.0, 10.000766, 9.915684 
4.2650428e+3, 2.6432896e+2, -415126.84, -490948.34, 0.8142378, 0.00015409569, 0.00014975444, -415126.84, -65550.62, 0.0, 10.000763, 9.901614 
4.2650428e+3, 2.742311e+2, -315850.97, -391341.78, -1.0447544, 0.00015331556, -0.00019893688, -315850.97, -63315.96, 0.0, 10.000759, 9.902035 
4.2650428e+3, 2.8412506e+2, -229387.78, -318060.03, 1.0954376, 0.0001529271, 0.0002309553, -229387.78, -73813.36, 0.0, 10.000755, 9.885085 
4.2650428e+3, 2.940112e+2, -129690.414, -217750.56, -0.64727265, 0.00015307561, -0.00025120305, -129690.414, -71000.1, 0.0, 10.000752, 9.885862 
4.2650428e+3, 3.0392528e+2, -39955.586, -84736.75, 1.7119226, 0.0001527425, 0.00017578412, -39955.586, -39955.586, 0.0, 10.000751, 9.94182 
4.2650428e+3, 3.13869e+2, -38880.203, -82498.54, -0.05076567, 0.00015168927, -0.000051594754, -38880.203, -38880.203, 0.0, 10.000749, 9.943333 
4.2750448e+3, 1.24998674e+2, -1718974.5, -1724176.0, 0.015099993, 0.00016220307, 0.00006397535, -1718974.5, -3961.2986, 0.0, 10.000815, 9.99392 
4.2750445e+3, 1.3499245e+2, -1621607.3, -1627396.6, -1.7059193, 0.00016131092, -0.000114780974, -1621607.3, -4532.9966, 0.0, 10.000811, 9.993136 
4.2750445e+3, 1.449797e+2, -1533478.9, -1548045.8, 0.8606064, 0.00016078539, 0.00014816986, -1533478.9, -14279.723, 0.0, 10.000806, 9.9815 
4.2750445e+3, 1.5496118e+2, -1435761.8, -1450729.0, -2.082682, 0.00016062443, -0.000037911184, -1435761.8, -14381.13, 0.0, 10.000802, 9.980968 
4.2750445e+3, 1.6493605e+2, -1347719.3, -1371865.5, -0.039739717, 0.00016024905, 0.000045983237, -1347719.3, -24092.32, 0.0, 10.000798, 9.968884 
4.2750445e+3, 1.7490499e+2, -1249770.9, -1274230.4, -2.1407669, 0.0001596536, -0.000057090514, -1249770.9, -23839.535, 0.0, 10.000794, 9.968471 
4.275044e+3, 1.8486728e+2, -1161695.9, -1195641.8, 0.22863267, 0.00015892307, 0.00008811411, -1161695.9, -33395.074, 0.0, 10.000791, 9.956035 
4.275044e+3, 1.9482335e+2, -1063556.8, -1097762.1, -2.2665856, 0.00015805021, -0.00004392721, -1063556.8, -32825.395, 0.0, 10.000787, 9.955691 
4.275044e+3, 2.0477276e+2, -975402.2, -1019372.2, -0.53837395, 0.00015742934, 0.000078660036, -975402.2, -42175.043, 0.0, 10.000783, 9.942929 
4.275044e+3, 2.1471572e+2, -877124.9, -921354.06, -2.9794962, 0.00015708065, -0.00011388364, -877124.9, -41338.8, 0.0, 10.000779, 9.942588 
4.275044e+3, 2.2465199e+2, -788844.2, -843090.1, -0.6391492, 0.00015692892, 0.0001332239, -788844.2, -50433.613, 0.0, 10.000775, 9.92955 
4.275044e+3, 2.345816e+2, -690419.9, -744918.25, -2.5770183, 0.00015699929, -0.00008042886, -690419.9, -49319.547, 0.0, 10.000772, 9.929219 
4.275044e+3, 2.4450427e+2, -602104.9, -666979.5, -0.14828672, 0.00015693906, 0.00008223091, -602104.9, -58246.664, 0.0, 10.000769, 9.915777 
4.275044e+3, 2.5442016e+2, -503361.0, -568310.56, -2.4923556, 0.0001567223, -0.00009639522, -503361.0, -56678.633, 0.0, 10.000766, 9.915677 
4.275044e+3, 2.64329e+2, -415131.06, -490957.0, -0.52069515, 0.00015622808, 0.0001505371, -415131.06, -65555.07, 0.0, 10.000763, 9.901608 
4.275044e+3, 2.7423114e+2, -315855.06, -391350.28, -2.3919804, 0.0001553808, -0.00019800579, -315855.06, -63320.25, 0.0, 10.000759, 9.902029 
4.2750433e+3, 2.8412506e+2, -229391.78, -318068.38, -0.066006124, 0.00015498992, 0.0002316395, -229391.78, -73817.484, 0.0, 10.000756, 9.885079 
4.2750433e+3, 2.940112e+2, -129694.35, -217758.83, -1.7932336, 0.00015522506, -0.00025130544, -129694.35, -71004.1, 0.0, 10.000752, 9.885858 
4.2750433e+3, 3.0392528e+2, -39959.766, -84745.54, 0.9456522, 0.00015506128, 0.0001752438, -39959.766, -39959.766, 0.0, 10.000751, 9.941814 
4.2750433e+3, 3.13869e+2, -38884.426, -82507.41, -0.77076715, 0.00015429936, -0.000052049567, -38884.426, -38884.426, 0.0, 10.000749, 9.943326 
4.2850453e+3, 1.24998786e+2, -1718938.5, -1724163.9, 2.1626396, 0.00016461869, 0.0000647426, -1718938.5, -3926.4272, 0.0, 10.000841, 9.993914 
4.2850453e+3, 1.3499255e+2, -1621569.9, -1627383.8, -0.75835675, 0.00016340465, -0.000114681076, -1621569.9, -4496.699, 0.0, 10.000836, 9.99313 
4.2850453e+3, 1.449798e+2, -1533441.3, -1548033.8, 1.7953541, 0.00016297512, 0.00014826404, -1533441.3, -14243.204, 0.0, 10.000833, 9.981493 
4.2850453e+3, 1.5496127e+2, -1435724.1, -1450717.1, -0.48787016, 0.00016332974, -0.000037311074, -1435724.1, -14344.414, 0.0, 10.000829, 9.980961 
4.285045e+3, 1.6493614e+2, -1347681.6, -1371852.9, 1.6877099, 0.00016299698, 0.00004673308, -1347681.6, -24055.604, 0.0, 10.000825, 9.968878 
4.285045e+3, 1.7490506e+2, -1249734.9, -1274218.6, -0.8398064, 0.00016196269, -0.000056550536, -1249734.9, -23804.404, 0.0, 10.00082, 9.968464 
4.285045e+3, 1.8486735e+2, -1161661.1, -1195631.4, 1.2744534, 0.00016107554, 0.00008838522, -1161661.1, -33361.04, 0.0, 10.000816, 9.956028 
4.285045e+3, 1.9482341e+2, -1063521.8, -1097751.8, -1.2320621, 0.00016034111, -0.000043986493, -1063521.8, -32791.15, 0.0, 10.000813, 9.955685 
4.285045e+3, 2.0477282e+2, -975366.8, -1019361.0, 0.80344933, 0.00015985801, 0.00007876182, -975366.8, -42140.31, 0.0, 10.000809, 9.942924 
4.285045e+3, 2.1471578e+2, -877089.8, -921343.1, -1.270184, 0.00015964638, -0.00011308766, -877089.8, -41304.313, 0.0, 10.000805, 9.942582 
4.285045e+3, 2.2465204e+2, -788809.44, -843079.75, 1.0286458, 0.00015951895, 0.00013417704, -788809.44, -50399.387, 0.0, 10.000801, 9.9295435 
4.2850444e+3, 2.3458165e+2, -690385.1, -744908.0, -1.6548939, 0.00015948611, -0.000079925965, -690385.1, -49285.223, 0.0, 10.000798, 9.929213 
4.2850444e+3, 2.445043e+2, -602070.06, -666968.56, 0.6545377, 0.00015919743, 0.000082610415, -602070.06, -58212.26, 0.0, 10.000794, 9.9157715 
4.2850444e+3, 2.5442022e+2, -503327.47, -568300.3, -0.9607538, 0.00015860285, -0.00009574776, -503327.47, -56645.418, 0.0, 10.000791, 9.915671 
4.2850444e+3, 2.6432902e+2, -415098.22, -490947.7, 1.2994432, 0.0001580366, 0.00015122475, -415098.22, -65522.496, 0.0, 10.000788, 9.901603 
4.2850444e+3, 2.7423117e+2, -315821.56, -391340.78, -1.0398881, 0.00015750669, -0.00019756821, -315821.56, -63286.953, 0.0, 10.000785, 9.902022 
4.2850444e+3, 2.841251e+2, -229357.5, -318058.3, 1.0119227, 0.00015731246, 0.00023184047, -229357.5, -73783.34, 0.0, 10.000782, 9.885073 
4.2850444e+3, 2.940112e+2, -129659.71, -217748.67, -1.073872, 0.00015757719, -0.00025132144, -129659.71, -70969.555, 0.0, 10.000779, 9.885851 
4.2850444e+3, 3.039253e+2, -39925.816, -84735.445, 1.6008089, 0.00015735863, 0.00017511904, -39925.816, -39925.816, 0.0, 10.000776, 9.941809 
4.2850444e+3, 3.13869e+2, -38852.68, -82498.34, 0.19234553, 0.00015641813, -0.000052122152, -38852.68, -38852.68, 0.0, 10.000772, 9.94332 
4.2950463e+3, 1.2499891e+2, -1718945.1, -1724176.4, 0.6067128, 0.0001675, 0.000065264045, -1718945.1, -3934.3125, 0.0, 10.000841, 9.993906 
4.2950463e+3, 1.3499266e+2, -1621576.5, -1627396.3, -2.311778, 0.00016596941, -0.00011692822, -1621576.5, -4504.411, 0.0, 10.000836, 9.993122 
4.2950463e+3, 1.4497991e+2, -1533446.4, -1548043.5, 0.3568862, 0.00016528006, 0.0001464594, -1533446.4, -14249.346, 0.0, 10.000833, 9.981486 
4.295046e+3, 1.5496138e+2, -1435729.1, -1450726.8, -1.9260415, 0.0001654323, -0.0000354762, -1435729.1, -14350.472, 0.0, 10.000829, 9.980955 
4.295046e+3, 1.6493623e+2, -1347687.3, -1371863.5, 0.042294245, 0.0001651309, 0.000048669302, -1347687.3, -24062.115, 0.0, 10.000825, 9.968871 
4.295046e+3, 1.7490515e+2, -1249740.4, -1274229.4, -2.4865155, 0.00016436668, -0.000058117203, -1249740.4, -23810.754, 0.0, 10.00082, 9.968457 
4.295046e+3, 1.8486743e+2, -1161666.5, -1195642.0, -0.20000805, 0.0001637084, 0.00008667547, -1161666.5, -33367.273, 0.0, 10.000816, 9.956021 
4.295046e+3, 1.9482349e+2, -1063527.1, -1097762.3, -2.702937, 0.00016315977, -0.00004232769, -1063527.1, -32797.277, 0.0, 10.000813, 9.955678 
4.2950454e+3, 2.0477289e+2, -975371.4, -1019369.94, -0.5903998, 0.00016254943, 0.00008103057, -975371.4, -42145.5, 0.0, 10.000809, 9.942918 
4.2950454e+3, 2.1471584e+2, -877094.25, -921351.94, -2.6650963, 0.0001618719, -0.00011319283, -877094.25, -41309.36, 0.0, 10.000805, 9.942576 
4.2950454e+3, 2.246521e+2, -788815.2, -843091.25, -0.21622632, 0.00016170638, 0.00013340845, -788815.2, -50405.66, 0.0, 10.000802, 9.929537 
4.2950454e+3, 2.345817e+2, -690390.9, -744919.5, -2.891066, 0.00016211947, -0.000079421814, -690390.9, -49291.406, 0.0, 10.000798, 9.929205 
4.2950454e+3, 2.4450435e+2, -602073.8, -666976.06, -0.78475523, 0.00016169134, 0.00008373577, -602073.8, -58216.395, 0.0, 10.000794, 9.915767 
4.2950454e+3, 2.5442025e+2, -503331.06, -568307.56, -2.413275, 0.00016025786, -0.00009478084, -503331.06, -56649.363, 0.0, 10.000791, 9.915667 
4.2950454e+3, 2.6432905e+2, -415103.22, -490957.94, 0.15090595, 0.0001595271, 0.00015181948, -415103.22, -65527.81, 0.0, 10.000788, 9.901596 
4.2950454e+3, 2.742312e+2, -315826.6, -391351.16, -2.1672356, 0.00015969248, -0.0001976154, -315826.6, -63292.223, 0.0, 10.000785, 9.902016 
4.2950454e+3, 2.841251e+2, -229362.23, -318068.16, -0.0021934912, 0.00015989062, 0.00023156655, -229362.23, -73788.25, 0.0, 10.000782, 9.885067 
4.2950454e+3, 2.9401124e+2, -129664.36, -217758.39, -2.0763304, 0.00016012912, -0.00025125267, -129664.36, -70974.305, 0.0, 10.000779, 9.885845 
4.2950454e+3, 3.039253e+2, -39929.56, -84743.32, 0.33209786, 0.00015963549, 0.00017540256, -39929.56, -39929.56, 0.0, 10.000776, 9.941804 
4.2950454e+3, 3.13869e+2, -38856.32, -82506.01, -1.1090899, 0.00015805426, -0.000051819, -38856.32, -38856.32, 0.0, 10.000772, 9.9433155 
4.3050474e+3, 1.2499904e+2, -1718905.5, -1724163.5, 1.5076176, 0.00017002707, 0.00006558662, -1718905.5, -3895.9202, 0.0, 10.000869, 9.993898 
4.3050474e+3, 1.3499278e+2, -1621537.3, -1627383.8, -0.9880662, 0.00016857, -0.000116391806, -1621537.3, -4466.416, 0.0, 10.000865, 9.993115 
4.3050468e+3, 1.4498001e+2, -1533407.4, -1548029.8, 1.8639971, 0.00016779087, 0.00014714825, -1533407.4, -14211.361, 0.0, 10.00086, 9.981481 
4.3050468e+3, 1.5496147e+2, -1435691.9, -1450714.0, -0.41660053, 0.0001676898, -0.000034695593, -1435691.9, -14314.166, 0.0, 10.000855, 9.980949 
4.3050468e+3, 1.6493632e+2, -1347651.0, -1371852.5, 1.5754519, 0.00016730644, 0.000049393006, -1347651.0, -24026.904, 0.0, 10.000852, 9.968864 
4.3050468e+3, 1.7490524e+2, -1249703.5, -1274218.0, -1.1088575, 0.00016663528, -0.000057600362, -1249703.5, -23774.693, 0.0, 10.000848, 9.968451 
4.3050465e+3, 1.8486752e+2, -1161629.0, -1195629.8, 1.2375933, 0.00016611707, 0.00008717243, -1161629.0, -33330.566, 0.0, 10.000843, 9.956015 
4.3050465e+3, 1.9482356e+2, -1063490.4, -1097750.5, -0.9816421, 0.00016575764, -0.000041654395, -1063490.4, -32761.213, 0.0, 10.000839, 9.955672 
4.3050465e+3, 2.0477295e+2, -975334.94, -1019358.7, 1.1451986, 0.00016520897, 0.00008156249, -975334.94, -42109.79, 0.0, 10.000835, 9.942911 
4.3050465e+3, 2.147159e+2, -877057.75, -921340.75, -1.5747976, 0.00016445515, -0.00011314549, -877057.75, -41273.523, 0.0, 10.000832, 9.94257 
4.3050465e+3, 2.2465216e+2, -788779.06, -843080.1, 0.8980927, 0.00016410288, 0.00013364166, -788779.06, -50370.113, 0.0, 10.000828, 9.92953 
4.3050465e+3, 2.3458175e+2, -690355.9, -744909.06, -1.0039508, 0.00016420438, -0.000078243866, -690355.9, -49256.965, 0.0, 10.000824, 9.929199 
4.3050465e+3, 2.4450439e+2, -602038.7, -666965.06, 1.1912941, 0.00016369377, 0.000084885636, -602038.7, -58181.727, 0.0, 10.000821, 9.915761 
4.3050465e+3, 2.5442028e+2, -503295.2, -568296.3, -1.2403493, 0.00016245144, -0.00009482114, -503295.2, -56613.887, 0.0, 10.000817, 9.915661 
4.305046e+3, 2.6432908e+2, -415067.6, -490947.78, 1.1135209, 0.0001618158, 0.00015136722, -415067.6, -65492.516, 0.0, 10.000814, 9.901589 
4.305046e+3, 2.742312e+2, -315791.25, -391341.3, -1.0944356, 0.0001619535, -0.00019748633, -315791.25, -63257.125, 0.0, 10.000812, 9.902009 
4.305046e+3, 2.8412512e+2, -229327.03, -318057.78, 1.2440815, 0.0001620147, 0.00023217137, -229327.03, -73753.26, 0.0, 10.000809, 9.88506 
4.305046e+3, 2.9401124e+2, -129630.41, -217748.69, -0.5428445, 0.0001619672, -0.00025032138, -129630.41, -70940.5, 0.0, 10.000805, 9.8858385 
4.305046e+3, 3.039253e+2, -39895.977, -84733.516, 1.8252758, 0.0001615069, 0.0001762075, -39895.977, -39895.977, 0.0, 10.000802, 9.941798 
4.305046e+3, 3.13869e+2, -38821.813, -82495.7, 0.014052165, 0.00016043473, -0.000051811578, -38821.813, -38821.813, 0.0, 10.000799, 9.94331 
4.3150485e+3, 1.2499916e+2, -1718911.3, -1724174.3, -0.10334764, 0.00017220704, 0.00006574274, -1718911.3, -3902.88, 0.0, 10.000869, 9.993892 
4.315048e+3, 1.349929e+2, -1621543.0, -1627394.5, -2.5993621, 0.00017120622, -0.000113122675, -1621543.0, -4473.2666, 0.0, 10.000865, 9.993109 
4.315048e+3, 1.4498013e+2, -1533412.5, -1548039.5, 0.06632144, 0.00017050415, 0.0001502848, -1533412.5, -14217.6045, 0.0, 10.00086, 9.981475 
4.315048e+3, 1.549616e+2, -1435696.9, -1450723.8, -2.2162306, 0.00017009958, -0.000034949873, -1435696.9, -14320.268, 0.0, 10.000855, 9.980943 
4.315048e+3, 1.6493644e+2, -1347657.0, -1371863.9, 0.16149713, 0.00016952309, 0.00004892639, -1347657.0, -24033.805, 0.0, 10.000852, 9.968857 
4.3150473e+3, 1.7490533e+2, -1249709.3, -1274229.3, -2.5192769, 0.00016877144, -0.00005503805, -1249709.3, -23781.484, 0.0, 10.000848, 9.968443 
4.3150473e+3, 1.8486762e+2, -1161633.9, -1195639.3, -0.3537228, 0.00016830608, 0.00008983585, -1161633.9, -33336.3, 0.0, 10.000844, 9.956009 
4.3150473e+3, 1.9482365e+2, -1063495.1, -1097759.9, -2.5779648, 0.00016813897, -0.000041948344, -1063495.1, -32766.797, 0.0, 10.000839, 9.955666 
4.3150473e+3, 2.0477302e+2, -975340.8, -1019370.2, -0.19054781, 0.00016783747, 0.00008038944, -975340.8, -42116.367, 0.0, 10.000835, 9.9429035 
4.3150473e+3, 2.1471597e+2, -877063.56, -921352.25, -2.9020288, 0.00016739013, -0.000112948626, -877063.56, -41279.992, 0.0, 10.000832, 9.942563 
4.3150473e+3, 2.2465222e+2, -788783.3, -843088.56, -0.57455057, 0.00016670518, 0.00013485829, -788783.3, -50374.953, 0.0, 10.000828, 9.929524 
4.315047e+3, 2.345818e+2, -690360.0, -744917.4, -2.483978, 0.00016575104, -0.00007640389, -690360.0, -49261.652, 0.0, 10.000824, 9.9291935 
4.315047e+3, 2.4450445e+2, -602043.9, -666975.56, -0.040961917, 0.00016521386, 0.00008606006, -602043.9, -58187.426, 0.0, 10.000821, 9.915753 
4.315047e+3, 2.544203e+2, -503300.34, -568306.8, -2.4601896, 0.0001651743, -0.000095850526, -503300.34, -56619.49, 0.0, 10.000817, 9.915654 
4.315047e+3, 2.643291e+2, -415072.5, -490957.88, -0.024677882, 0.00016488881, 0.00014988665, -415072.5, -65497.777, 0.0, 10.000814, 9.901583 
4.315047e+3, 2.7423123e+2, -315796.06, -391351.28, -2.2263637, 0.00016428893, -0.00019718414, -315796.06, -63262.26, 0.0, 10.000812, 9.902002 
4.315047e+3, 2.8412515e+2, -229331.25, -318066.53, -0.02465924, 0.0001636933, 0.00023363924, -229331.25, -73757.7, 0.0, 10.000809, 9.885055 
4.315047e+3, 2.9401127e+2, -129634.5, -217757.28, -1.8247018, 0.00016310452, -0.00024854275, -129634.5, -70944.78, 0.0, 10.000805, 9.885833 
4.315047e+3, 3.039253e+2, -39900.273, -84742.55, 0.7363005, 0.00016298045, 0.00017752472, -39900.273, -39900.273, 0.0, 10.000802, 9.941792 
4.315047e+3, 3.13869e+2, -38826.145, -82504.805, -1.0526664, 0.00016354675, -0.000052094547, -38826.145, -38826.145, 0.0, 10.000799, 9.943304 
4.325049e+3, 1.249993e+2, -1718871.8, -1724161.0, 2.1595836, 0.00017443902, 0.000066294524, -1718871.8, -3864.7097, 0.0, 10.000896, 9.993885 
4.325049e+3, 1.3499305e+2, -1621503.4, -1627381.1, -0.42764542, 0.00017356865, -0.00011175162, -1621503.4, -4434.876, 0.0, 10.000893, 9.993102 
4.325049e+3, 1.4498025e+2, -1533372.5, -1548025.9, 1.8176328, 0.00017294368, 0.00015156229, -1533372.5, -14178.776, 0.0, 10.000889, 9.981468 
4.325049e+3, 1.549617e+2, -1435656.6, -1450710.1, -0.87235725, 0.0001725626, -0.00003468214, -1435656.6, -14281.178, 0.0, 10.000884, 9.980936 
4.3250483e+3, 1.6493654e+2, -1347617.4, -1371850.8, 1.6647644, 0.00017196621, 0.00004904675, -1347617.4, -23995.266, 0.0, 10.000879, 9.96885 
4.3250483e+3, 1.7490543e+2, -1249671.1, -1274217.0, -0.6918719, 0.0001711505, -0.00005418526, -1249671.1, -23744.256, 0.0, 10.000875, 9.968436 
4.3250483e+3, 1.8486771e+2, -1161596.1, -1195627.5, 1.365755, 0.00017064395, 0.00009069282, -1161596.1, -33299.516, 0.0, 10.000871, 9.956002 
4.3250483e+3, 1.9482373e+2, -1063456.9, -1097748.0, -1.5373744, 0.0001704597, -0.000041847557, -1063456.9, -32729.387, 0.0, 10.000867, 9.955659 
4.3250483e+3, 2.047731e+2, -975302.5, -1019358.0, 0.8478496, 0.00017016653, 0.000080440615, -975302.5, -42078.87, 0.0, 10.000863, 9.942897 
4.3250477e+3, 2.1471605e+2, -877026.5, -921340.75, -1.2441199, 0.0001697551, -0.00011218232, -877026.5, -41243.637, 0.0, 10.000859, 9.942556 
4.3250477e+3, 2.2465228e+2, -788746.4, -843076.8, 1.1793189, 0.00016904534, 0.0001357615, -788746.4, -50338.668, 0.0, 10.000855, 9.929519 
4.3250477e+3, 2.3458186e+2, -690322.75, -744905.56, -1.3275363, 0.00016799773, -0.00007601767, -690322.75, -49224.96, 0.0, 10.000852, 9.929188 
4.3250477e+3, 2.445045e+2, -602006.94, -666964.75, 1.0016184, 0.00016746404, 0.00008605787, -602006.94, -58150.996, 0.0, 10.000849, 9.915747 
4.3250477e+3, 2.5442037e+2, -503263.6, -568296.25, -1.367961, 0.00016754385, -0.00009608688, -503263.6, -56583.19, 0.0, 10.000845, 9.915647 
4.3250477e+3, 2.6432917e+2, -415036.0, -490947.0, 1.1217319, 0.00016720983, 0.00014984343, -415036.0, -65461.645, 0.0, 10.000842, 9.901576 
4.3250477e+3, 2.7423128e+2, -315760.7, -391341.06, -0.9472129, 0.00016634745, -0.0001964906, -315760.7, -63227.19, 0.0, 10.000838, 9.901996 
4.3250477e+3, 2.8412518e+2, -229296.0, -318056.03, 1.2914404, 0.00016565144, 0.00023470796, -229296.0, -73722.734, 0.0, 10.000834, 9.885049 
4.3250477e+3, 2.9401127e+2, -129598.914, -217746.66, -0.71084344, 0.00016518513, -0.00024759627, -129598.914, -70909.414, 0.0, 10.000832, 9.885827 
4.3250477e+3, 3.0392534e+2, -39865.098, -84732.67, 1.7386085, 0.00016519193, 0.00017813013, -39865.098, -39865.098, 0.0, 10.000829, 9.941785 
4.3250477e+3, 3.13869e+2, -38791.227, -82495.1, -0.21130481, 0.00016589955, -0.000052150364, -38791.227, -38791.227, 0.0, 10.000826, 9.943297 
4.3350497e+3, 1.24999434e+2, -1718877.8, -1724172.1, 0.6300706, 0.0001767222, 0.000067234534, -1718877.8, -3871.9783, 0.0, 10.000897, 9.993878 
4.3350497e+3, 1.3499317e+2, -1621509.1, -1627392.3, -1.9575087, 0.00017566289, -0.000112242335, -1621509.1, -4442.007, 0.0, 10.000893, 9.993095 
4.3350497e+3, 1.4498037e+2, -1533378.5, -1548037.4, 0.11361819, 0.00017511508, 0.00015101624, -1533378.5, -14186.011, 0.0, 10.000889, 9.981461 
4.3350494e+3, 1.5496182e+2, -1435662.6, -1450721.5, -2.5750866, 0.00017507843, -0.000033902223, -1435662.6, -14288.281, 0.0, 10.000884, 9.980929 
4.3350494e+3, 1.6493665e+2, -1347622.5, -1371860.8, -0.024786394, 0.00017463195, 0.000049742837, -1347622.5, -24001.537, 0.0, 10.000879, 9.968844 
4.3350494e+3, 1.7490555e+2, -1249676.3, -1274227.0, -2.384044, 0.00017376807, -0.000055009303, -1249676.3, -23750.39, 0.0, 10.000875, 9.9684305 
4.3350494e+3, 1.848678e+2, -1161602.5, -1195639.8, -0.049383435, 0.00017312811, 0.00008977783, -1161602.5, -33306.75, 0.0, 10.000871, 9.955995 
4.3350494e+3, 1.9482382e+2, -1063463.1, -1097760.1, -2.9458091, 0.00017272145, -0.000041359643, -1063463.1, -32736.496, 0.0, 10.000867, 9.955651 
4.3350488e+3, 2.0477319e+2, -975307.1, -1019367.06, -0.719744, 0.00017220233, 0.000081692626, -975307.1, -42084.27, 0.0, 10.000863, 9.942891 
4.3350488e+3, 2.1471612e+2, -877031.0, -921349.7, -2.8174138, 0.00017156111, -0.00011085701, -877031.0, -41248.887, 0.0, 10.000859, 9.942551 
4.3350488e+3, 2.2465236e+2, -788751.75, -843087.56, -0.17377947, 0.0001711286, 0.00013635751, -788751.75, -50344.74, 0.0, 10.000855, 9.929511 
4.3350488e+3, 2.3458192e+2, -690328.06, -744916.3, -2.6737392, 0.00017093177, -0.00007705805, -690328.06, -49230.914, 0.0, 10.000852, 9.92918 
4.3350488e+3, 2.4450456e+2, -602012.06, -666975.2, -0.21628745, 0.00017043114, 0.00008490089, -602012.06, -58156.707, 0.0, 10.000849, 9.91574 
4.3350488e+3, 2.5442043e+2, -503268.72, -568306.6, -2.5783477, 0.0001695672, -0.000095544914, -503268.72, -56588.78, 0.0, 10.000845, 9.91564 
4.3350488e+3, 2.643292e+2, -415040.66, -490956.53, -0.23730616, 0.00016879335, 0.00015121094, -415040.66, -65466.74, 0.0, 10.000842, 9.901569 
4.3350482e+3, 2.742313e+2, -315765.25, -391350.5, -2.317271, 0.00016813462, -0.00019541287, -315765.25, -63232.13, 0.0, 10.000838, 9.90199 
4.3350482e+3, 2.841252e+2, -229300.55, -318065.47, 0.12684472, 0.0001678843, 0.00023538503, -229300.55, -73727.58, 0.0, 10.000835, 9.885042 
4.3350482e+3, 2.940113e+2, -129603.39, -217756.05, -1.8578522, 0.00016819198, -0.00024746638, -129603.39, -70914.125, 0.0, 10.000832, 9.88582 
4.3350482e+3, 3.0392537e+2, -39869.723, -84742.4, 0.61135584, 0.00016812817, 0.000178037, -39869.723, -39869.723, 0.0, 10.000829, 9.941779 
4.3350482e+3, 3.1386903e+2, -38795.87, -82504.875, -1.3362811, 0.00016750762, -0.00005198318, -38795.87, -38795.87, 0.0, 10.000826, 9.943291 
4.3450508e+3, 1.2499958e+2, -1718835.3, -1724157.5, 1.950265, 0.0001791495, 0.00006770176, -1718835.3, -3830.969, 0.0, 10.000927, 9.993872 
4.3450508e+3, 1.349933e+2, -1621468.5, -1627378.6, -0.7650795, 0.00017797676, -0.000111885056, -1621468.5, -4402.588, 0.0, 10.000922, 9.993088 
4.3450508e+3, 1.449805e+2, -1533338.1, -1548023.8, 1.4260852, 0.00017736212, 0.00015139118, -1533338.1, -14146.961, 0.0, 10.000917, 9.981454 
4.3450502e+3, 1.5496194e+2, -1435622.1, -1450707.9, -0.99161226, 0.00017730535, -0.00003338137, -1435622.1, -14248.988, 0.0, 10.000913, 9.980923 
4.3450502e+3, 1.6493677e+2, -1347582.0, -1371847.5, 1.4613456, 0.00017694075, 0.000050194383, -1347582.0, -23962.066, 0.0, 10.000909, 9.968837 
4.3450502e+3, 1.7490566e+2, -1249635.3, -1274213.6, -1.4613233, 0.00017626287, -0.00005484606, -1249635.3, -23710.488, 0.0, 10.000905, 9.968424 
4.3450502e+3, 1.848679e+2, -1161561.9, -1195626.5, 0.9644707, 0.00017558536, 0.000089982525, -1161561.9, -33267.2, 0.0, 10.0009, 9.955988 
4.34505e+3, 1.9482392e+2, -1063424.3, -1097747.9, -1.229121, 0.00017490765, -0.00004076865, -1063424.3, -32698.563, 0.0, 10.0008955, 9.955645 
4.34505e+3, 2.0477329e+2, -975268.56, -1019354.56, 1.2067015, 0.00017434882, 0.00008241082, -975268.56, -42046.586, 0.0, 10.000892, 9.942884 
4.34505e+3, 2.147162e+2, -876992.06, -921337.1, -1.4158227, 0.00017391819, -0.00011029167, -876992.06, -41210.754, 0.0, 10.000888, 9.942544 
4.34505e+3, 2.2465244e+2, -788713.2, -843076.06, 1.0469782, 0.00017358438, 0.00013671363, -788713.2, -50306.902, 0.0, 10.000884, 9.929504 
4.34505e+3, 2.34582e+2, -690289.8, -744905.0, -1.5558869, 0.00017335964, -0.00007697458, -690289.8, -49193.297, 0.0, 10.00088, 9.929173 
4.34505e+3, 2.4450463e+2, -601974.0, -666963.4, 0.9760299, 0.00017280164, 0.00008495474, -601974.0, -58119.188, 0.0, 10.000876, 9.915733 
4.3450493e+3, 2.5442046e+2, -503231.78, -568295.5, -1.1380184, 0.00017184525, -0.00009523027, -503231.78, -56552.39, 0.0, 10.000873, 9.915634 
4.3450493e+3, 2.6432925e+2, -415004.38, -490945.94, 1.2492151, 0.00017103365, 0.00015173497, -415004.38, -65430.914, 0.0, 10.000869, 9.901564 
4.3450493e+3, 2.7423134e+2, -315728.84, -391339.94, -1.0863104, 0.00017040681, -0.00019474539, -315728.84, -63196.11, 0.0, 10.000866, 9.901983 
4.3450493e+3, 2.8412524e+2, -229264.03, -318054.97, 1.2878504, 0.00017022288, 0.00023602702, -229264.03, -73691.39, 0.0, 10.000863, 9.8850355 
4.3450493e+3, 2.9401132e+2, -129566.99, -217745.7, -0.9349944, 0.00017064386, -0.0002470808, -129566.99, -70877.99, 0.0, 10.000859, 9.885815 
4.3450493e+3, 3.0392537e+2, -39833.715, -84732.52, 1.3428336, 0.00017060761, 0.00017829081, -39833.715, -39833.715, 0.0, 10.000856, 9.941772 
4.3450493e+3, 3.1386903e+2, -38759.824, -82495.0, -0.68786645, 0.00016988683, -0.00005167359, -38759.824, -38759.824, 0.0, 10.000854, 9.943284 
4.3550518e+3, 1.24999724e+2, -1718841.5, -1724169.3, 0.087983586, 0.00018171877, 0.000067705514, -1718841.5, -3838.6052, 0.0, 10.000927, 9.993864 
4.3550518e+3, 1.3499343e+2, -1621474.6, -1627390.3, -2.627526, 0.00018050644, -0.000110696645, -1621474.6, -4410.0874, 0.0, 10.000922, 9.993081 
4.3550512e+3, 1.4498064e+2, -1533343.6, -1548034.1, -0.18200013, 0.00017968361, 0.00015266883, -1533343.6, -14153.655, 0.0, 10.000917, 9.981447 
4.3550512e+3, 1.5496206e+2, -1435627.5, -1450718.1, -2.6014805, 0.00017924943, -0.000033114207, -1435627.5, -14255.554, 0.0, 10.000913, 9.980916 
4.3550512e+3, 1.6493687e+2, -1347588.4, -1371859.9, -0.08874436, 0.00017890015, 0.00005040645, -1347588.4, -23969.656, 0.0, 10.000909, 9.968829 
4.3550512e+3, 1.7490576e+2, -1249641.6, -1274225.9, -3.0085485, 0.00017863791, -0.000053715103, -1249641.6, -23717.94, 0.0, 10.000905, 9.968415 
4.355051e+3, 1.84868e+2, -1161566.8, -1195635.9, -0.79506034, 0.00017801678, 0.000091284666, -1161566.8, -33273.02, 0.0, 10.0009, 9.955981 
4.355051e+3, 1.9482403e+2, -1063429.0, -1097757.1, -2.9950168, 0.0001770201, -0.000040076222, -1063429.0, -32704.242, 0.0, 10.0008955, 9.955639 
4.355051e+3, 2.0477338e+2, -975274.2, -1019365.75, -0.22911523, 0.00017660412, 0.000082606064, -975274.2, -42053.12, 0.0, 10.000892, 9.942878 
4.355051e+3, 2.147163e+2, -876997.7, -921348.25, -2.843924, 0.00017681607, -0.00011047152, -876997.7, -41217.168, 0.0, 10.000888, 9.942536 
4.355051e+3, 2.2465251e+2, -788718.8, -843087.3, -0.31491667, 0.00017640593, 0.00013683435, -788718.8, -50313.285, 0.0, 10.000884, 9.929497 
4.3550503e+3, 2.3458207e+2, -690295.4, -744916.2, -2.914397, 0.00017529164, -0.00007578899, -690295.4, -49199.547, 0.0, 10.00088, 9.929166 
4.3550503e+3, 2.4450469e+2, -601978.7, -666972.94, -0.4809462, 0.00017458758, 0.000086196116, -601978.7, -58124.508, 0.0, 10.000876, 9.915728 
4.3550503e+3, 2.5442052e+2, -503236.4, -568304.9, -2.601675, 0.0001743735, -0.0000951384, -503236.4, -56557.547, 0.0, 10.000873, 9.9156275 
4.3550503e+3, 2.6432928e+2, -415009.47, -490956.4, -0.045776892, 0.0001739184, 0.00015143199, -415009.47, -65436.504, 0.0, 10.000869, 9.901556 
4.3550503e+3, 2.742314e+2, -315733.9, -391350.4, -2.370145, 0.00017315513, -0.00019448016, -315733.9, -63201.6, 0.0, 10.000866, 9.901977 
4.3550503e+3, 2.8412527e+2, -229269.05, -318065.44, 0.15330367, 0.00017266568, 0.00023663465, -229269.05, -73696.78, 0.0, 10.000863, 9.885029 
4.3550503e+3, 2.9401135e+2, -129571.95, -217756.1, -2.0556035, 0.00017255194, -0.0002464444, -129571.95, -70883.25, 0.0, 10.00086, 9.885807 
4.3550503e+3, 3.039254e+2, -39838.53, -84742.64, 0.23385696, 0.00017263951, 0.00017888492, -39838.53, -39838.53, 0.0, 10.000856, 9.941765 
4.3550503e+3, 3.1386906e+2, -38764.63, -82505.09, -1.794904, 0.00017302278, -0.000051224346, -38764.63, -38764.63, 0.0, 10.000854, 9.943277 
4.365053e+3, 1.2499988e+2, -1718799.3, -1724155.0, 2.229878, 0.00018395198, 0.0000681818, -1718799.3, -3797.79, 0.0, 10.000957, 9.993857 
4.365053e+3, 1.349936e+2, -1621431.9, -1627376.0, -0.56156343, 0.00018299984, -0.00010997474, -1621431.9, -4368.793, 0.0, 10.000952, 9.993073 
4.3650523e+3, 1.4498077e+2, -1533300.6, -1548019.4, 1.7819835, 0.00018222468, 0.00015326847, -1533300.6, -14112.025, 0.0, 10.000948, 9.981441 
4.3650523e+3, 1.5496218e+2, -1435585.1, -1450703.8, -1.0617337, 0.00018162474, -0.000033006338, -1435585.1, -14214.432, 0.0, 10.000943, 9.980909 
4.3650523e+3, 1.6493699e+2, -1347546.9, -1371846.4, 1.4732271, 0.0001811158, 0.0000505837, -1347546.9, -23929.38, 0.0, 10.000938, 9.9688225 
4.3650523e+3, 1.7490588e+2, -1249601.3, -1274213.0, -0.9626164, 0.00018070015, -0.000052896317, -1249601.3, -23678.744, 0.0, 10.000934, 9.968409 
4.3650517e+3, 1.8486811e+2, -1161526.4, -1195622.9, 1.1391339, 0.00018017521, 0.00009220895, -1161526.4, -33233.77, 0.0, 10.00093, 9.955975 
4.3650517e+3, 1.9482413e+2, -1063387.9, -1097743.9, -1.8552163, 0.00017953546, -0.000039606322, -1063387.9, -32664.145, 0.0, 10.000925, 9.955631 
4.3650517e+3, 2.0477347e+2, -975233.0, -1019352.44, 0.7293469, 0.00017922047, 0.000082778955, -975233.0, -42012.81, 0.0, 10.000921, 9.942871 
4.3650517e+3, 2.1471637e+2, -876957.2, -921335.44, -1.7209872, 0.00017925656, -0.00011042515, -876957.2, -41177.543, 0.0, 10.000917, 9.94253 
4.3650514e+3, 2.2465259e+2, -788679.25, -843075.06, 1.0082554, 0.00017875782, 0.00013706392, -788679.25, -50274.53, 0.0, 10.000914, 9.92949 
4.3650514e+3, 2.3458214e+2, -690257.06, -744904.75, -1.3716552, 0.00017765368, -0.00007502587, -690257.06, -49161.97, 0.0, 10.000909, 9.929159 
4.3650514e+3, 2.4450475e+2, -601940.75, -666961.44, 1.0656102, 0.00017698888, 0.00008696995, -601940.75, -58087.207, 0.0, 10.000905, 9.915721 
4.3650514e+3, 2.5442058e+2, -503198.28, -568293.4, -1.4755591, 0.00017684877, -0.0000949782, -503198.28, -56520.008, 0.0, 10.000901, 9.915621 
4.3650514e+3, 2.6432934e+2, -414971.44, -490945.4, 0.9546091, 0.00017648678, 0.00015138995, -414971.44, -65398.996, 0.0, 10.000898, 9.901549 
4.3650514e+3, 2.7423143e+2, -315695.97, -391339.6, -1.4415216, 0.00017584086, -0.00019419944, -315695.97, -63164.13, 0.0, 10.000895, 9.901969 
4.3650514e+3, 2.8412533e+2, -229231.34, -318054.63, 1.1224502, 0.0001753825, 0.00023708318, -229231.34, -73659.46, 0.0, 10.000892, 9.885022 
4.3650514e+3, 2.9401138e+2, -129535.11, -217745.83, -1.0238272, 0.00017518169, -0.00024604256, -129535.11, -70846.73, 0.0, 10.000888, 9.8858 
4.3650514e+3, 3.0392542e+2, -39802.31, -84732.71, 1.4190869, 0.0001750999, 0.0001792886, -39802.31, -39802.31, 0.0, 10.000885, 9.941758 
4.3650508e+3, 3.1386906e+2, -38728.168, -82495.04, -0.528467, 0.00017519291, -0.000050744587, -38728.168, -38728.168, 0.0, 10.000882, 9.943271 
4.3750536e+3, 1.2500003e+2, -1718805.6, -1724167.1, 0.51140916, 0.00018585646, 0.0000691211, -1718805.6, -3805.7073, 0.0, 10.000957, 9.99385 
4.3750536e+3, 1.3499373e+2, -1621438.1, -1627387.9, -2.2803223, 0.00018545825, -0.00010970935, -1621438.1, -4376.5596, 0.0, 10.000953, 9.993066 
4.3750533e+3, 1.449809e+2, -1533307.0, -1548031.5, 0.08915732, 0.00018498139, 0.0001532043, -1533307.0, -14119.767, 0.0, 10.000948, 9.981433 
4.3750533e+3, 1.5496233e+2, -1435591.4, -1450715.9, -2.7534988, 0.00018442306, -0.0000330546, -1435591.4, -14222.027, 0.0, 10.000943, 9.980902 
4.3750533e+3, 1.6493714e+2, -1347552.3, -1371856.6, -0.29801282, 0.00018358295, 0.000050726794, -1347552.3, -23935.98, 0.0, 10.000938, 9.968816 
4.3750528e+3, 1.7490599e+2, -1249606.6, -1274223.3, -2.7369893, 0.00018245626, -0.00005238283, -1249606.6, -23685.215, 0.0, 10.000934, 9.968402 
4.3750528e+3, 1.8486823e+2, -1161532.9, -1195635.5, -0.38876477, 0.00018206655, 0.00009276353, -1161532.9, -33241.367, 0.0, 10.00093, 9.955967 
4.3750528e+3, 1.9482422e+2, -1063394.4, -1097756.5, -3.3775752, 0.00018244617, -0.000039354585, -1063394.4, -32671.596, 0.0, 10.000926, 9.955624 
4.3750528e+3, 2.0477356e+2, -975238.3, -1019362.94, -0.8239277, 0.00018219113, 0.00008292963, -975238.3, -42019.1, 0.0, 10.000921, 9.942864 
4.3750528e+3, 2.1471646e+2, -876962.44, -921345.9, -3.2763321, 0.00018124942, -0.000110157045, -876962.44, -41183.688, 0.0, 10.000917, 9.942523 
4.3750522e+3, 2.2465268e+2, -788684.44, -843085.44, -0.6031652, 0.00018065, 0.00013740038, -788684.44, -50280.535, 0.0, 10.000914, 9.929483 
4.3750522e+3, 2.3458222e+2, -690262.2, -744915.0, -2.9858153, 0.0001804375, -0.00007467654, -690262.2, -49167.836, 0.0, 10.000909, 9.9291525 
4.3750522e+3, 2.4450482e+2, -601946.2, -666972.56, -0.31570047, 0.00017999357, 0.00008728578, -601946.2, -58093.39, 0.0, 10.000905, 9.915713 
4.3750522e+3, 2.5442067e+2, -503203.72, -568304.5, -2.8454702, 0.00017927263, -0.000094751, -503203.72, -56526.074, 0.0, 10.000901, 9.915614 
4.3750522e+3, 2.643294e+2, -414976.75, -490956.28, -0.30209675, 0.00017874564, 0.0001516036, -414976.75, -65404.844, 0.0, 10.000898, 9.901543 
4.3750522e+3, 2.742315e+2, -315701.2, -391350.38, -2.690136, 0.00017846578, -0.00019390353, -315701.2, -63169.832, 0.0, 10.000895, 9.901962 
4.375052e+3, 2.8412536e+2, -229236.28, -318064.9, -0.16304813, 0.00017836837, 0.00023737586, -229236.28, -73664.805, 0.0, 10.000892, 9.8850155 
4.375052e+3, 2.940114e+2, -129539.95, -217755.98, -2.313082, 0.00017851913, -0.00024587056, -129539.95, -70851.914, 0.0, 10.000888, 9.885794 
4.375052e+3, 3.0392545e+2, -39806.99, -84742.555, 0.34910783, 0.00017798066, 0.00017950578, -39806.99, -39806.99, 0.0, 10.000885, 9.9417515 
4.375052e+3, 3.138691e+2, -38732.844, -82504.87, -1.5738071, 0.00017641697, -0.000050234747, -38732.844, -38732.844, 0.0, 10.000882, 9.943264 
4.3850547e+3, 1.250002e+2, -1718761.8, -1724152.3, 2.0890703, 0.0001883961, 0.00006935927, -1718761.8, -3763.3936, 0.0, 10.000988, 9.993842 
4.3850547e+3, 1.3499388e+2, -1621394.5, -1627373.4, -0.81600237, 0.00018782055, -0.000109178625, -1621394.5, -4334.4067, 0.0, 10.000983, 9.993058 
4.385054e+3, 1.4498106e+2, -1533263.4, -1548016.8, 1.5737225, 0.00018729782, 0.0001538072, -1533263.4, -14077.648, 0.0, 10.000978, 9.981426 
4.385054e+3, 1.5496247e+2, -1435548.4, -1450701.6, -1.109174, 0.00018682552, -0.00003260084, -1435548.4, -14180.369, 0.0, 10.000974, 9.980894 
4.385054e+3, 1.6493726e+2, -1347509.4, -1371842.4, 1.1486115, 0.00018607003, 0.00005103905, -1347509.4, -23894.38, 0.0, 10.000969, 9.968808 
4.3850538e+3, 1.7490613e+2, -1249563.8, -1274209.3, -1.8199224, 0.00018502657, -0.000052204137, -1249563.8, -23643.623, 0.0, 10.000965, 9.968395 
4.3850538e+3, 1.8486835e+2, -1161490.5, -1195621.9, 0.68509585, 0.00018462866, 0.00009303203, -1161490.5, -33200.117, 0.0, 10.00096, 9.955959 
4.3850538e+3, 1.9482434e+2, -1063352.6, -1097743.4, -1.8028667, 0.00018490464, -0.000038762882, -1063352.6, -32630.922, 0.0, 10.000956, 9.955616 
4.3850538e+3, 2.0477366e+2, -975197.06, -1019349.9, 0.8139866, 0.00018457038, 0.00008364424, -975197.06, -41978.875, 0.0, 10.000952, 9.942857 
4.3850532e+3, 2.1471657e+2, -876922.1, -921333.3, -1.9267048, 0.00018357584, -0.000109536086, -876922.1, -41144.313, 0.0, 10.000947, 9.942516 
4.3850532e+3, 2.2465275e+2, -788644.3, -843072.9, 0.59912, 0.00018304653, 0.00013787726, -788644.3, -50241.246, 0.0, 10.000943, 9.929477 
4.3850532e+3, 2.345823e+2, -690221.7, -744902.44, -1.9867687, 0.00018304322, -0.00007440059, -690221.7, -49128.168, 0.0, 10.000938, 9.929146 
4.3850532e+3, 2.445049e+2, -601906.1, -666960.56, 0.6741945, 0.00018269786, 0.00008744081, -601906.1, -58054.03, 0.0, 10.000935, 9.915707 
4.3850532e+3, 2.5442073e+2, -503164.5, -568293.06, -1.8385606, 0.0001819433, -0.00009462131, -503164.5, -56487.523, 0.0, 10.000931, 9.9156065 
4.3850532e+3, 2.6432946e+2, -414937.94, -490944.94, 0.9275817, 0.00018139955, 0.00015182118, -414937.94, -65366.62, 0.0, 10.000927, 9.901535 
4.3850526e+3, 2.7423152e+2, -315662.7, -391339.28, -1.3829474, 0.00018112468, -0.00019345408, -315662.7, -63131.84, 0.0, 10.000924, 9.901956 
4.3850526e+3, 2.841254e+2, -229197.78, -318053.8, 1.1420785, 0.00018102692, 0.00023794244, -229197.78, -73626.76, 0.0, 10.00092, 9.885009 
4.3850526e+3, 2.9401147e+2, -129501.46, -217744.98, -1.1222166, 0.00018116986, -0.00024534462, -129501.46, -70813.8, 0.0, 10.000917, 9.885787 
4.3850526e+3, 3.0392548e+2, -39769.184, -84732.15, 1.4276663, 0.00018054356, 0.00017980894, -39769.184, -39769.184, 0.0, 10.000914, 9.941745 
4.3850526e+3, 3.1386912e+2, -38695.902, -82494.9, -0.761001, 0.00017877335, -0.00005042304, -38695.902, -38695.902, 0.0, 10.000911, 9.943256 
4.3950558e+3, 1.2500036e+2, -1718768.4, -1724164.9, 0.37057123, 0.00019155789, 0.00006891137, -1718768.4, -3771.642, 0.0, 10.000988, 9.9938345 
4.3950558e+3, 1.3499404e+2, -1621401.1, -1627385.9, -2.5334282, 0.0001900893, -0.000108388274, -1621401.1, -4342.5146, 0.0, 10.000983, 9.993051 
4.3950552e+3, 1.4498122e+2, -1533269.4, -1548028.3, -0.188038, 0.00018918385, 0.00015506298, -1533269.4, -14085.114, 0.0, 10.000978, 9.981419 
4.3950552e+3, 1.5496261e+2, -1435554.3, -1450713.0, -2.8726196, 0.00018884099, -0.000031655352, -1435554.3, -14187.694, 0.0, 10.000974, 9.980887 
4.3950552e+3, 1.6493739e+2, -1347515.9, -1371855.0, -0.58618295, 0.00018857718, 0.000051517145, -1347515.9, -23902.227, 0.0, 10.000969, 9.968801 
4.3950546e+3, 1.7490625e+2, -1249570.3, -1274221.8, -3.5534432, 0.00018839454, -0.000052353465, -1249570.3, -23651.31, 0.0, 10.000965, 9.968387 
4.3950546e+3, 1.8486847e+2, -1161495.9, -1195632.5, -0.93896145, 0.000187848, 0.00009302024, -1161495.9, -33206.707, 0.0, 10.00096, 9.955953 
4.3950546e+3, 1.9482444e+2, -1063357.9, -1097753.9, -3.4280095, 0.00018692088, -0.00003783798, -1063357.9, -32637.385, 0.0, 10.000957, 9.955609 
4.3950546e+3, 2.0477377e+2, -975203.0, -1019361.5, -0.9130738, 0.00018637114, 0.00008491144, -975203.0, -41985.832, 0.0, 10.000952, 9.942849 
4.3950543e+3, 2.1471666e+2, -876928.0, -921344.94, -3.65473, 0.00018622933, -0.00010856951, -876928.0, -41151.133, 0.0, 10.000947, 9.942509 
4.3950543e+3, 2.2465284e+2, -788649.9, -843084.1, -0.88791585, 0.00018593733, 0.0001384916, -788649.9, -50247.742, 0.0, 10.000943, 9.929469 
4.3950543e+3, 2.3458238e+2, -690227.25, -744913.56, -3.4671333, 0.00018547507, -0.00007419644, -690227.25, -49134.516, 0.0, 10.000939, 9.929138 
4.3950543e+3, 2.4450497e+2, -601911.6, -666971.7, -0.8554059, 0.00018510855, 0.000087438435, -601911.6, -58060.266, 0.0, 10.000935, 9.915699 
4.3950543e+3, 2.544208e+2, -503169.9, -568304.1, -3.3703866, 0.00018485615, -0.00009458702, -503169.9, -56493.613, 0.0, 10.000931, 9.915599 
4.3950537e+3, 2.6432952e+2, -414943.1, -490955.56, -0.35898864, 0.00018444071, 0.00015204272, -414943.1, -65372.402, 0.0, 10.000927, 9.901528 
4.3950537e+3, 2.742316e+2, -315667.78, -391349.8, -2.6531699, 0.0001838173, -0.00019285409, -315667.78, -63137.477, 0.0, 10.000924, 9.901948 
4.3950537e+3, 2.8412545e+2, -229202.9, -318064.47, -0.09358896, 0.00018336541, 0.00023877739, -229202.9, -73632.37, 0.0, 10.00092, 9.885001 
4.3950537e+3, 2.940115e+2, -129506.52, -217755.58, -2.3546386, 0.00018314869, -0.00024447197, -129506.52, -70819.28, 0.0, 10.000917, 9.885779 
4.3950537e+3, 3.039255e+2, -39774.348, -84743.01, 0.16562171, 0.00018279575, 0.00018019638, -39774.348, -39774.348, 0.0, 10.000914, 9.941737 
4.3950537e+3, 3.1386915e+2, -38701.08, -82505.8, -2.02736, 0.00018223906, -0.000051295072, -38701.08, -38701.08, 0.0, 10.000911, 9.943249 
4.4050565e+3, 1.2500052e+2, -1718722.9, -1724149.1, 2.1735654, 0.00019423968, 0.0000692202, -1718722.9, -3727.7612, 0.0, 10.0010195, 9.993827 
4.4050565e+3, 1.3499421e+2, -1621356.3, -1627370.6, -0.5945391, 0.00019257444, -0.00010763757, -1621356.3, -4299.309, 0.0, 10.001015, 9.993043 
4.4050562e+3, 1.4498137e+2, -1533225.0, -1548013.4, 1.6826438, 0.00019161415, 0.00015581523, -1533225.0, -14042.261, 0.0, 10.00101, 9.981411 
4.4050562e+3, 1.5496275e+2, -1435510.1, -1450698.4, -1.3298671, 0.00019135865, -0.000031343654, -1435510.1, -14144.974, 0.0, 10.001005, 9.98088 
4.4050562e+3, 1.6493753e+2, -1347471.9, -1371840.6, 0.93603027, 0.00019118156, 0.000051786832, -1347471.9, -23859.572, 0.0, 10.001001, 9.968793 
4.4050556e+3, 1.7490639e+2, -1249526.3, -1274207.5, -1.8543273, 0.00019108504, -0.000051719693, -1249526.3, -23608.617, 0.0, 10.000997, 9.968379 
4.4050556e+3, 1.8486859e+2, -1161452.3, -1195618.1, 0.5987891, 0.00019052226, 0.00009370296, -1161452.3, -33164.246, 0.0, 10.000992, 9.955945 
4.4050556e+3, 1.9482458e+2, -1063315.6, -1097740.3, -2.3204408, 0.00018947195, -0.000037435355, -1063315.6, -32596.207, 0.0, 10.000987, 9.955603 
4.4050556e+3, 2.0477387e+2, -975161.0, -1019348.2, 0.18584126, 0.00018888243, 0.00008525184, -975161.0, -41944.938, 0.0, 10.000982, 9.9428425 
4.405055e+3, 2.1471676e+2, -876885.5, -921331.5, -2.3806353, 0.0001887912, -0.00010805571, -876885.5, -41109.65, 0.0, 10.000978, 9.942501 
4.405055e+3, 2.2465296e+2, -788607.75, -843071.25, 0.42562488, 0.00018851506, 0.00013900726, -788607.75, -50206.563, 0.0, 10.000974, 9.929462 
4.405055e+3, 2.3458247e+2, -690186.2, -744901.3, -2.3849375, 0.00018802937, -0.000073872856, -690186.2, -49094.332, 0.0, 10.00097, 9.929131 
4.405055e+3, 2.4450505e+2, -601870.8, -666959.4, 0.20072736, 0.00018770038, 0.00008774369, -601870.8, -58020.227, 0.0, 10.000965, 9.915692 
4.405055e+3, 2.5442088e+2, -503128.9, -568291.8, -2.3205595, 0.0001875583, -0.000094092444, -503128.9, -56453.332, 0.0, 10.000961, 9.915592 
4.4050547e+3, 2.6432958e+2, -414902.22, -490943.16, 0.7719978, 0.0001871567, 0.00015255983, -414902.22, -65332.188, 0.0, 10.0009575, 9.901522 
4.4050547e+3, 2.7423167e+2, -315627.97, -391338.03, -1.5560939, 0.00018642416, -0.000192527, -315627.97, -63098.246, 0.0, 10.000954, 9.901941 
4.4050547e+3, 2.841255e+2, -229163.83, -318053.22, 1.10231, 0.00018586066, 0.00023901582, -229163.83, -73593.79, 0.0, 10.00095, 9.8849945 
4.4050547e+3, 2.9401156e+2, -129467.81, -217744.66, -1.1537584, 0.00018552941, -0.00024418256, -129467.81, -70781.016, 0.0, 10.000947, 9.885773 
4.4050547e+3, 3.0392554e+2, -39735.797, -84732.9, 1.4498777, 0.0001852629, 0.0001804524, -39735.797, -39735.797, 0.0, 10.000944, 9.94173 
4.4050547e+3, 3.1386918e+2, -38660.805, -82494.92, -0.927136, 0.00018509116, -0.000051198655, -38660.805, -38660.805, 0.0, 10.000942, 9.943241 
4.4150576e+3, 1.250007e+2, -1718729.1, -1724161.1, 0.33563328, 0.00019645272, 0.0000702691, -1718729.1, -3735.7927, 0.0, 10.00102, 9.993819 
4.4150576e+3, 1.3499437e+2, -1621362.5, -1627382.5, -2.434231, 0.00019527184, -0.00010692528, -1621362.5, -4307.1924, 0.0, 10.001015, 9.993036 
4.415057e+3, 1.4498153e+2, -1533231.8, -1548026.3, -0.0769116, 0.00019457728, 0.00015607534, -1533231.8, -14050.548, 0.0, 10.00101, 9.981403 
4.415057e+3, 1.5496291e+2, -1435516.8, -1450711.1, -3.0886183, 0.00019436805, -0.00003165185, -1435516.8, -14153.104, 0.0, 10.001006, 9.980871 
4.415057e+3, 1.6493769e+2, -1347478.0, -1371852.5, -0.75157857, 0.00019388163, 0.000051852727, -1347478.0, -23867.105, 0.0, 10.001001, 9.968785 
4.4150567e+3, 1.7490652e+2, -1249532.3, -1274219.3, -3.541882, 0.00019311348, -0.000050319464, -1249532.3, -23616.02, 0.0, 10.000997, 9.968372 
4.4150567e+3, 1.8486871e+2, -1161458.6, -1195630.5, -1.2954569, 0.00019266395, 0.00009506544, -1161458.6, -33171.85, 0.0, 10.000992, 9.955937 
4.4150567e+3, 1.948247e+2, -1063321.9, -1097752.5, -4.2166905, 0.00019254668, -0.000037543767, -1063321.9, -32603.645, 0.0, 10.000987, 9.955594 
4.4150567e+3, 2.04774e+2, -975166.56, -1019359.2, -1.3645855, 0.00019208931, 0.00008468539, -975166.56, -41951.598, 0.0, 10.000982, 9.942836 
4.415056e+3, 2.1471687e+2, -876891.0, -921342.4, -3.925735, 0.00019126409, -0.000107984706, -876891.0, -41116.17, 0.0, 10.000978, 9.942494 
4.415056e+3, 2.2465305e+2, -788613.8, -843083.3, -1.2579143, 0.00019078719, 0.00013942664, -788613.8, -50213.59, 0.0, 10.000974, 9.929454 
4.415056e+3, 2.3458256e+2, -690192.2, -744913.4, -4.0718484, 0.00019070397, -0.000073432275, -690192.2, -49101.22, 0.0, 10.00097, 9.929123 
4.415056e+3, 2.4450514e+2, -601876.3, -666970.56, -1.2418078, 0.00019046981, 0.000088350025, -601876.3, -58026.56, 0.0, 10.000965, 9.915685 
4.415056e+3, 2.5442094e+2, -503134.34, -568302.9, -3.751266, 0.00019005482, -0.00009314738, -503134.34, -56459.51, 0.0, 10.000961, 9.915585 
4.4150558e+3, 2.6432964e+2, -414907.47, -490953.9, -0.7055936, 0.00018955508, 0.00015336623, -414907.47, -65338.105, 0.0, 10.0009575, 9.901514 
4.4150558e+3, 2.7423173e+2, -315633.13, -391348.7, -3.038114, 0.00018894767, -0.0001924669, -315633.13, -63104.01, 0.0, 10.000954, 9.901935 
4.4150558e+3, 2.8412557e+2, -229168.95, -318063.9, -0.18522528, 0.00018850977, 0.00023867057, -229168.95, -73599.45, 0.0, 10.00095, 9.884988 
4.4150558e+3, 2.940116e+2, -129472.87, -217755.27, -2.4244819, 0.00018830378, -0.0002444638, -129472.87, -70786.54, 0.0, 10.000947, 9.885766 
4.4150558e+3, 3.039256e+2, -39741.3, -84744.48, 0.5982623, 0.00018794085, 0.00018058, -39741.3, -39741.3, 0.0, 10.000944, 9.941722 
4.4150558e+3, 3.138692e+2, -38666.387, -82506.63, -1.7270693, 0.00018734352, -0.0000501544, -38666.387, -38666.387, 0.0, 10.000942, 9.9432335 
4.4250587e+3, 1.2500088e+2, -1718682.8, -1724145.3, 2.1139407, 0.00019893193, 0.000070839946, -1718682.8, -3691.1401, 0.0, 10.001053, 9.993812 
4.4250587e+3, 1.3499455e+2, -1621315.8, -1627366.6, -1.0218344, 0.00019796459, -0.00010638374, -1621315.8, -4262.1333, 0.0, 10.001048, 9.993028 
4.425058e+3, 1.4498168e+2, -1533185.1, -1548010.6, 1.157328, 0.00019739008, 0.0001565748, -1533185.1, -14005.556, 0.0, 10.001043, 9.981396 
4.425058e+3, 1.5496306e+2, -1435470.9, -1450695.9, -1.7732322, 0.00019720697, -0.000031207433, -1435470.9, -14108.739, 0.0, 10.001039, 9.980864 
4.425058e+3, 1.6493784e+2, -1347432.8, -1371837.4, 0.5797582, 0.00019659988, 0.000052272913, -1347432.8, -23823.28, 0.0, 10.001034, 9.968779 
4.425058e+3, 1.7490666e+2, -1249488.3, -1274204.9, -2.2786016, 0.00019556154, -0.000049892005, -1249488.3, -23573.393, 0.0, 10.001028, 9.968365 
4.4250575e+3, 1.8486886e+2, -1161414.9, -1195616.6, 0.027250882, 0.00019513116, 0.00009558911, -1161414.9, -33129.43, 0.0, 10.001023, 9.95593 
4.4250575e+3, 1.9482481e+2, -1063277.0, -1097738.3, -2.872671, 0.00019533516, -0.000036831098, -1063277.0, -32560.07, 0.0, 10.0010195, 9.955586 
4.4250575e+3, 2.0477411e+2, -975121.7, -1019344.56, -0.1524415, 0.000194945, 0.00008525535, -975121.7, -41907.887, 0.0, 10.001015, 9.942828 
4.4250572e+3, 2.1471699e+2, -876847.9, -921328.8, -3.0282707, 0.00019391214, -0.000107916094, -876847.9, -41074.164, 0.0, 10.00101, 9.942487 
4.4250572e+3, 2.2465315e+2, -788571.5, -843070.44, -0.3094309, 0.00019332342, 0.00013949792, -788571.5, -50172.28, 0.0, 10.001005, 9.929446 
4.4250572e+3, 2.3458266e+2, -690149.4, -744900.4, -2.9519107, 0.00019323679, -0.00007278838, -690149.4, -49059.37, 0.0, 10.001001, 9.929115 
4.4250572e+3, 2.4450521e+2, -601833.44, -666957.2, 0.032873668, 0.00019296602, 0.000089153335, -601833.44, -57984.55, 0.0, 10.000998, 9.915677 
4.4250572e+3, 2.5442103e+2, -503092.56, -568290.2, -2.4681697, 0.00019247466, -0.00009267835, -503092.56, -56418.52, 0.0, 10.000993, 9.915578 
4.4250566e+3, 2.6432973e+2, -414866.28, -490941.8, 0.5708793, 0.0001919985, 0.00015364727, -414866.28, -65297.65, 0.0, 10.000989, 9.901507 
4.4250566e+3, 2.742318e+2, -315591.84, -391336.7, -2.0203087, 0.00019154193, -0.00019218659, -315591.84, -63063.38, 0.0, 10.000985, 9.901927 
4.4250566e+3, 2.8412563e+2, -229127.42, -318051.75, 0.80357575, 0.00019119598, 0.00023889782, -229127.42, -73558.51, 0.0, 10.000981, 9.88498 
4.4250566e+3, 2.9401165e+2, -129431.305, -217743.2, -1.5888276, 0.00019100081, -0.00024436225, -129431.305, -70745.47, 0.0, 10.000978, 9.885758 
4.4250566e+3, 3.0392563e+2, -39700.89, -84733.2, 1.6177435, 0.00019049986, 0.0001807251, -39700.89, -39700.89, 0.0, 10.000976, 9.941714 
4.4250566e+3, 3.1386924e+2, -38628.047, -82496.38, -0.28053477, 0.00018954433, -0.000049713602, -38628.047, -38628.047, 0.0, 10.000972, 9.943226 
4.4350594e+3, 1.2500107e+2, -1718689.9, -1724158.8, 0.40942878, 0.00020167175, 0.000070943956, -1718689.9, -3700.0947, 0.0, 10.001053, 9.993803 
4.4350594e+3, 1.3499472e+2, -1621322.9, -1627380.1, -2.7249177, 0.00020065346, -0.00010600906, -1621322.9, -4270.932, 0.0, 10.001048, 9.99302 
4.4350594e+3, 1.4498186e+2, -1533191.8, -1548023.1, -0.70695245, 0.00020005667, 0.0001573081, -1533191.8, -14013.737, 0.0, 10.001043, 9.981387 
4.435059e+3, 1.5496323e+2, -1435477.4, -1450708.4, -3.6378698, 0.00019987994, -0.00003002731, -1435477.4, -14116.772, 0.0, 10.001039, 9.980856 
4.435059e+3, 1.6493799e+2, -1347439.0, -1371849.4, -1.3526155, 0.00019933651, 0.000053039505, -1347439.0, -23831.04, 0.0, 10.001034, 9.968771 
4.435059e+3, 1.749068e+2, -1249494.5, -1274216.9, -4.2129397, 0.00019842025, -0.000050415383, -1249494.5, -23580.992, 0.0, 10.001028, 9.968357 
4.4350585e+3, 1.8486899e+2, -1161421.1, -1195629.0, -1.553636, 0.00019791702, 0.00009529295, -1161421.1, -33137.043, 0.0, 10.001023, 9.955922 
4.4350585e+3, 1.9482495e+2, -1063283.3, -1097750.5, -4.4489107, 0.00019784462, -0.000035315512, -1063283.3, -32567.559, 0.0, 10.0010195, 9.955579 
4.4350585e+3, 2.0477423e+2, -975127.94, -1019356.9, -2.0653129, 0.00019745814, 0.000086936416, -975127.94, -41915.297, 0.0, 10.001015, 9.942821 
4.4350582e+3, 2.1471709e+2, -876854.0, -921341.0, -4.948267, 0.00019673185, -0.00010784982, -876854.0, -41081.4, 0.0, 10.00101, 9.942479 
4.4350582e+3, 2.2465326e+2, -788577.25, -843081.94, -1.8311508, 0.00019611817, 0.00013922885, -788577.25, -50179.035, 0.0, 10.001005, 9.92944 
4.4350582e+3, 2.3458277e+2, -690155.06, -744911.75, -4.4612484, 0.00019563166, -0.0000719456, -690155.06, -49065.984, 0.0, 10.001001, 9.929109 
4.4350582e+3, 2.4450533e+2, -601838.94, -666968.3, -1.610053, 0.00019519584, 0.00009014939, -601838.94, -57990.934, 0.0, 10.000998, 9.91567 
4.4350582e+3, 2.5442111e+2, -503097.97, -568301.25, -4.1194386, 0.00019482004, -0.00009267458, -503097.97, -56424.746, 0.0, 10.000993, 9.91557 
4.4350576e+3, 2.643298e+2, -414872.0, -490953.56, -0.83982563, 0.00019448636, 0.0001534148, -414872.0, -65304.11, 0.0, 10.000989, 9.901499 
4.4350576e+3, 2.7423188e+2, -315597.5, -391348.38, -3.4133022, 0.00019420586, -0.00019169076, -315597.5, -63069.723, 0.0, 10.000985, 9.901919 
4.4350576e+3, 2.8412572e+2, -229132.89, -318063.13, -0.40709436, 0.00019391911, 0.00023968492, -229132.89, -73564.57, 0.0, 10.000981, 9.884973 
4.4350576e+3, 2.940117e+2, -129436.69, -217754.48, -2.782686, 0.00019362304, -0.00024388643, -129436.69, -70751.375, 0.0, 10.000978, 9.885751 
4.4350576e+3, 3.039257e+2, -39705.734, -84743.41, 0.29392287, 0.00019294328, 0.00018088728, -39705.734, -39705.734, 0.0, 10.000976, 9.941708 
4.4350576e+3, 3.1386927e+2, -38632.832, -82506.47, -1.6227001, 0.00019169491, -0.00004986265, -38632.832, -38632.832, 0.0, 10.000972, 9.943219 
4.445061e+3, 1.2500125e+2, -1718640.8, -1724141.9, 2.0700462, 0.00020441433, 0.00007127646, -1718640.8, -3652.838, 0.0, 10.001087, 9.993795 
4.4450605e+3, 1.3499491e+2, -1621275.1, -1627364.0, -0.89488554, 0.00020338259, -0.000105320534, -1621275.1, -4224.9946, 0.0, 10.001082, 9.993011 
4.4450605e+3, 1.4498204e+2, -1533144.5, -1548007.1, 1.1541045, 0.0002027413, 0.00015808527, -1533144.5, -13968.261, 0.0, 10.001077, 9.9813795 
4.4450602e+3, 1.5496339e+2, -1435430.4, -1450692.6, -1.8527057, 0.00020248884, -0.000029429788, -1435430.4, -14071.448, 0.0, 10.001072, 9.980848 
4.4450602e+3, 1.6493814e+2, -1347392.3, -1371834.0, 0.22343715, 0.00020205272, 0.000053505646, -1347392.3, -23785.748, 0.0, 10.001067, 9.968762 
4.4450602e+3, 1.7490695e+2, -1249447.6, -1274201.6, -2.9474075, 0.00020143024, -0.00005003147, -1249447.6, -23535.514, 0.0, 10.001062, 9.9683485 
4.4450596e+3, 1.8486913e+2, -1161374.6, -1195613.5, -0.26919633, 0.00020083941, 0.000095684976, -1161374.6, -33091.95, 0.0, 10.001058, 9.9559145 
4.4450596e+3, 1.9482507e+2, -1063238.6, -1097736.1, -3.0590014, 0.00020028108, -0.000034820903, -1063238.6, -32524.213, 0.0, 10.001052, 9.955571 
4.4450596e+3, 2.0477436e+2, -975083.8, -1019343.25, -0.6168915, 0.00019982822, 0.000087430526, -975083.8, -41872.383, 0.0, 10.001047, 9.942812 
4.4450596e+3, 2.1471721e+2, -876808.6, -921326.9, -3.5814602, 0.00019948922, -0.00010746774, -876808.6, -41037.152, 0.0, 10.001043, 9.9424715 
4.445059e+3, 2.2465336e+2, -788531.7, -843067.3, -0.5439356, 0.00019893752, 0.00013962618, -788531.7, -50134.58, 0.0, 10.001039, 9.929432 
4.445059e+3, 2.3458287e+2, -690111.5, -744898.3, -3.2858725, 0.00019814502, -0.000071388975, -690111.5, -49023.41, 0.0, 10.001034, 9.929101 
4.445059e+3, 2.4450542e+2, -601796.25, -666955.6, -0.49058503, 0.00019758618, 0.00009064584, -601796.25, -57949.17, 0.0, 10.001029, 9.915663 
4.445059e+3, 2.5442117e+2, -503054.75, -568288.4, -3.3624682, 0.00019730613, -0.00009250041, -503054.75, -56382.39, 0.0, 10.001025, 9.915563 
4.4450587e+3, 2.6432988e+2, -414828.47, -490940.3, -0.07003775, 0.0001970414, 0.00015347711, -414828.47, -65261.355, 0.0, 10.001021, 9.901492 
4.4450587e+3, 2.7423194e+2, -315554.56, -391335.56, -2.391718, 0.00019679523, -0.00019147196, -315554.56, -63027.49, 0.0, 10.001018, 9.901912 
4.4450587e+3, 2.8412578e+2, -229090.7, -318050.78, 0.9029993, 0.00019645064, 0.00024010186, -229090.7, -73523.02, 0.0, 10.001014, 9.884965 
4.4450587e+3, 2.9401177e+2, -129395.67, -217742.84, -1.4036173, 0.00019597072, -0.0002432157, -129395.67, -70710.93, 0.0, 10.00101, 9.885743 
4.4450587e+3, 3.0392572e+2, -39665.37, -84732.41, 1.5546184, 0.00019533, 0.00018139898, -39665.37, -39665.37, 0.0, 10.001006, 9.9417 
4.4450587e+3, 3.1386933e+2, -38591.4, -82494.97, -0.92524034, 0.00019445285, -0.000050123188, -38591.4, -38591.4, 0.0, 10.001003, 9.943212 
4.4550622e+3, 1.2500145e+2, -1718647.5, -1724154.6, 0.09995487, 0.00020716041, 0.0000718321, -1718647.5, -3661.4883, 0.0, 10.001087, 9.993787 
4.4550616e+3, 1.3499509e+2, -1621281.9, -1627376.8, -2.8659513, 0.00020615161, -0.00010432532, -1621281.9, -4233.4937, 0.0, 10.001082, 9.993004 
4.4550616e+3, 1.449822e+2, -1533151.3, -1548019.9, -0.70787764, 0.00020544406, 0.0001589056, -1533151.3, -13976.7, 0.0, 10.001077, 9.981372 
4.4550616e+3, 1.5496357e+2, -1435437.0, -1450705.4, -3.7155232, 0.00020503576, -0.000029400933, -1435437.0, -14079.731, 0.0, 10.001072, 9.98084 
4.455061e+3, 1.649383e+2, -1347399.1, -1371847.5, -1.6241028, 0.00020474968, 0.000053678632, -1347399.1, -23794.275, 0.0, 10.001067, 9.968754 
4.455061e+3, 1.749071e+2, -1249454.4, -1274214.9, -4.7929564, 0.00020458885, -0.00004876134, -1249454.4, -23543.885, 0.0, 10.001062, 9.968341 
4.455061e+3, 1.8486927e+2, -1161380.8, -1195625.4, -2.2250998, 0.00020389586, 0.000096749165, -1161380.8, -33099.426, 0.0, 10.001058, 9.955907 
4.4550607e+3, 1.9482522e+2, -1063244.6, -1097747.9, -5.0191255, 0.00020264662, -0.00003532341, -1063244.6, -32531.525, 0.0, 10.001052, 9.955564 
4.4550607e+3, 2.0477448e+2, -975090.1, -1019355.8, -2.1779022, 0.00020205897, 0.0000867655, -975090.1, -41880.008, 0.0, 10.001047, 9.942804 
4.4550607e+3, 2.1471733e+2, -876814.94, -921339.4, -5.132995, 0.00020218652, -0.00010677695, -876814.94, -41044.65, 0.0, 10.001043, 9.942463 
4.45506e+3, 2.2465348e+2, -788537.7, -843079.25, -2.4669855, 0.00020178175, 0.00014067467, -788537.7, -50141.656, 0.0, 10.001039, 9.929424 
4.45506e+3, 2.3458296e+2, -690117.3, -744910.1, -5.22201, 0.00020077461, -0.00007111172, -690117.3, -49030.313, 0.0, 10.001034, 9.929093 
4.45506e+3, 2.4450551e+2, -601802.44, -666968.2, -1.9682146, 0.00020013376, 0.00009065434, -601802.44, -57956.33, 0.0, 10.001029, 9.915654 
4.45506e+3, 2.544213e+2, -503060.9, -568300.94, -4.8167195, 0.00019993036, -0.00009215979, -503060.9, -56389.414, 0.0, 10.001025, 9.915554 
4.45506e+3, 2.6433e+2, -414833.78, -490951.22, -1.5489991, 0.00019966283, 0.00015382734, -414833.78, -65267.47, 0.0, 10.001021, 9.9014845 
4.4550595e+3, 2.7423203e+2, -315559.75, -391346.28, -3.8747375, 0.00019931243, -0.00019152372, -315559.75, -63033.406, 0.0, 10.001018, 9.901905 
4.4550595e+3, 2.8412583e+2, -229096.03, -318061.88, -0.536082, 0.00019879552, 0.00024015736, -229096.03, -73529.01, 0.0, 10.001014, 9.884958 
4.4550595e+3, 2.9401183e+2, -129400.94, -217753.89, -2.8387659, 0.00019805052, -0.00024235419, -129400.94, -70716.79, 0.0, 10.00101, 9.885736 
4.4550595e+3, 3.0392578e+2, -39671.164, -84744.6, 0.46099338, 0.00019766175, 0.00018225246, -39671.164, -39671.164, 0.0, 10.001006, 9.941691 
4.4550595e+3, 3.1386936e+2, -38597.27, -82507.31, -1.9779711, 0.00019780506, -0.00005049279, -38597.27, -38597.27, 0.0, 10.001003, 9.943203 
4.465063e+3, 1.2500165e+2, -1718597.5, -1724137.4, 1.9821196, 0.000209892, 0.00007234348, -1718597.5, -3613.4536, 0.0, 10.001122, 9.993779 
4.465063e+3, 1.3499528e+2, -1621232.0, -1627359.6, -1.2087269, 0.00020900952, -0.00010363755, -1621232.0, -4185.4604, 0.0, 10.001118, 9.992995 
4.4650626e+3, 1.449824e+2, -1533101.8, -1548003.1, 0.7575278, 0.00020829483, 0.00015948658, -1533101.8, -13929.047, 0.0, 10.001112, 9.981363 
4.4650626e+3, 1.5496373e+2, -1435388.5, -1450689.3, -2.4492893, 0.00020774543, -0.000029210985, -1435388.5, -14032.888, 0.0, 10.001107, 9.980832 
4.4650626e+3, 1.6493846e+2, -1347351.0, -1371831.4, -0.23300563, 0.00020739673, 0.000053905136, -1347351.0, -23747.74, 0.0, 10.0011015, 9.968746 
4.465062e+3, 1.7490725e+2, -1249406.6, -1274199.3, -3.1210263, 0.00020725325, -0.000048062753, -1249406.6, -23497.625, 0.0, 10.001097, 9.968332 
4.465062e+3, 1.8486942e+2, -1161333.1, -1195610.0, -0.73104924, 0.00020665492, 0.0000974566, -1161333.1, -33053.344, 0.0, 10.001092, 9.955898 
4.4650614e+3, 1.9482537e+2, -1063197.1, -1097732.8, -4.046372, 0.00020558103, -0.00003509091, -1063197.1, -32485.428, 0.0, 10.001086, 9.955556 
4.4650614e+3, 2.0477463e+2, -975043.2, -1019340.56, -1.1931719, 0.00020487209, 0.00008687144, -975043.2, -41834.38, 0.0, 10.001081, 9.942797 
4.4650614e+3, 2.1471745e+2, -876769.9, -921325.2, -3.9405205, 0.00020455767, -0.0001064208, -876769.9, -41000.83, 0.0, 10.001077, 9.942455 
4.4650614e+3, 2.246536e+2, -788493.06, -843065.56, -1.2430158, 0.00020412832, 0.00014106772, -788493.06, -50098.203, 0.0, 10.001072, 9.929416 
4.465061e+3, 2.3458308e+2, -690071.44, -744895.94, -4.199023, 0.00020356852, -0.00007092307, -690071.44, -48985.523, 0.0, 10.001067, 9.929085 
4.465061e+3, 2.4450561e+2, -601756.5, -666954.06, -0.831515, 0.00020304818, 0.000090894566, -601756.5, -57911.39, 0.0, 10.001063, 9.915647 
4.465061e+3, 2.5442138e+2, -503016.5, -568287.7, -3.4615817, 0.00020257478, -0.00009156221, -503016.5, -56345.945, 0.0, 10.001059, 9.915546 
4.465061e+3, 2.6433006e+2, -414790.25, -490938.28, -0.16216284, 0.00020214231, 0.00015447846, -414790.25, -65224.777, 0.0, 10.001054, 9.901477 
4.465061e+3, 2.742321e+2, -315516.78, -391333.72, -2.9052353, 0.00020176149, -0.00019120619, -315516.78, -62991.21, 0.0, 10.00105, 9.901897 
4.4650605e+3, 2.841259e+2, -229053.05, -318049.13, 0.3178304, 0.00020129765, 0.00024026807, -229053.05, -73486.72, 0.0, 10.001046, 9.884951 
4.4650605e+3, 2.940119e+2, -129357.73, -217741.16, -2.0159633, 0.00020071931, -0.00024227516, -129357.73, -70674.2, 0.0, 10.001042, 9.885729 
4.4650605e+3, 3.0392584e+2, -39628.945, -84733.32, 1.4777318, 0.00020039115, 0.000182445, -39628.945, -39628.945, 0.0, 10.0010395, 9.941684 
4.4650605e+3, 3.1386942e+2, -38555.824, -82496.516, -0.83726805, 0.00020043651, -0.00004997252, -38555.824, -38555.824, 0.0, 10.001036, 9.943195 
4.475064e+3, 1.2500185e+2, -1718604.9, -1724151.1, 0.054619722, 0.00021261009, 0.00007281197, -1718604.9, -3622.716, 0.0, 10.001122, 9.993771 
4.475064e+3, 1.3499548e+2, -1621239.1, -1627373.3, -3.1354806, 0.00021195493, -0.000103249564, -1621239.1, -4194.5596, 0.0, 10.001118, 9.992987 
4.475064e+3, 1.4498258e+2, -1533109.0, -1548016.9, -1.2514566, 0.00021129083, 0.00015983408, -1533109.0, -13938.017, 0.0, 10.001112, 9.981355 
4.4750634e+3, 1.5496391e+2, -1435395.6, -1450702.8, -4.458517, 0.00021061461, -0.00002886387, -1435395.6, -14041.69, 0.0, 10.001107, 9.9808235 
4.4750634e+3, 1.6493863e+2, -1347357.3, -1371843.6, -2.1013505, 0.00020999572, 0.00005418391, -1347357.3, -23755.72, 0.0, 10.0011015, 9.968739 
4.475063e+3, 1.7490743e+2, -1249412.9, -1274211.4, -4.9909725, 0.000209436, -0.000047921534, -1249412.9, -23505.459, 0.0, 10.001097, 9.968325 
4.475063e+3, 1.8486959e+2, -1161340.4, -1195624.0, -2.6426413, 0.00020912448, 0.00009781625, -1161340.4, -33062.02, 0.0, 10.001092, 9.95589 
4.475063e+3, 1.948255e+2, -1063204.3, -1097746.6, -5.9553037, 0.0002090715, -0.000034141103, -1063204.3, -32493.94, 0.0, 10.001086, 9.955546 
4.4750625e+3, 2.0477477e+2, -975049.2, -1019352.4, -3.1411998, 0.00020825432, 0.0000877297, -975049.2, -41841.67, 0.0, 10.001081, 9.942789 
4.4750625e+3, 2.147176e+2, -876775.75, -921336.9, -5.8927794, 0.00020661086, -0.000106391104, -876775.75, -41007.953, 0.0, 10.001077, 9.942448 
4.4750625e+3, 2.2465372e+2, -788499.4, -843078.25, -2.8146555, 0.00020598959, 0.00014082131, -788499.4, -50105.727, 0.0, 10.001072, 9.929408 
4.4750625e+3, 2.3458318e+2, -690077.75, -744908.6, -5.7575374, 0.00020652368, -0.00007082086, -690077.75, -48992.91, 0.0, 10.001067, 9.929077 
4.475062e+3, 2.4450572e+2, -601762.3, -666965.9, -2.6016102, 0.0002063216, 0.00009136103, -601762.3, -57918.23, 0.0, 10.001063, 9.915639 
4.475062e+3, 2.5442147e+2, -503022.22, -568299.4, -5.242626, 0.00020523956, -0.00009071346, -503022.22, -56352.617, 0.0, 10.001059, 9.915539 
4.475062e+3, 2.6433015e+2, -414796.3, -490950.72, -1.7418797, 0.00020448373, 0.00015542367, -414796.3, -65231.72, 0.0, 10.001054, 9.901469 
4.475062e+3, 2.7423218e+2, -315522.78, -391346.13, -4.4708986, 0.00020414458, -0.00019052801, -315522.78, -62998.016, 0.0, 10.00105, 9.901889 
4.4750616e+3, 2.8412598e+2, -229058.5, -318060.5, -1.0154562, 0.00020395394, 0.00024043262, -229058.5, -73492.89, 0.0, 10.001046, 9.884943 
4.4750616e+3, 2.9401195e+2, -129363.06, -217752.36, -3.3301604, 0.00020396392, -0.00024296012, -129363.06, -70680.19, 0.0, 10.001042, 9.885721 
4.4750616e+3, 3.039259e+2, -39634.58, -84745.17, 0.23099196, 0.0002035095, 0.00018199233, -39634.58, -39634.58, 0.0, 10.0010395, 9.941675 
4.4750616e+3, 3.1386945e+2, -38561.504, -82508.45, -2.0743876, 0.00020236468, -0.00004858317, -38561.504, -38561.504, 0.0, 10.001036, 9.943187 
4.4850653e+3, 1.2500206e+2, -1718552.9, -1724133.0, 1.9104596, 0.00021551686, 0.00007339781, -1718552.9, -3572.7656, 0.0, 10.001159, 9.993762 
4.485065e+3, 1.3499568e+2, -1621187.9, -1627355.6, -1.2394136, 0.00021470459, -0.00010278012, -1621187.9, -4145.2466, 0.0, 10.001154, 9.992978 
4.485065e+3, 1.4498277e+2, -1533058.3, -1547999.9, 0.6145198, 0.00021404792, 0.00016034573, -1533058.3, -13889.15, 0.0, 10.001148, 9.981346 
4.4850644e+3, 1.5496409e+2, -1435345.0, -1450686.0, -2.6703377, 0.00021354407, -0.000028150916, -1435345.0, -13992.932, 0.0, 10.0011425, 9.980815 
4.4850644e+3, 1.6493881e+2, -1347307.0, -1371826.6, -0.51720023, 0.00021288203, 0.000054771255, -1347307.0, -23707.164, 0.0, 10.001138, 9.96873 
4.4850644e+3, 1.749076e+2, -1249363.9, -1274195.1, -3.7920985, 0.00021205969, -0.00004779268, -1249363.9, -23458.045, 0.0, 10.001132, 9.968316 
4.4850639e+3, 1.8486974e+2, -1161291.9, -1195608.3, -1.3102793, 0.00021168275, 0.00009799411, -1161291.9, -33015.145, 0.0, 10.001126, 9.955881 
4.4850639e+3, 1.9482565e+2, -1063155.9, -1097731.1, -4.1623254, 0.00021177022, -0.00003338439, -1063155.9, -32447.041, 0.0, 10.0011215, 9.955539 
4.4850639e+3, 2.047749e+2, -975000.94, -1019337.0, -1.456519, 0.00021108855, 0.00008850207, -975000.94, -41794.855, 0.0, 10.001117, 9.9427805 
4.4850636e+3, 2.1471773e+2, -876727.94, -921321.9, -4.7813663, 0.00020957518, -0.00010621195, -876727.94, -40961.46, 0.0, 10.001111, 9.94244 
4.4850636e+3, 2.2465384e+2, -788452.3, -843063.5, -1.7087104, 0.0002088732, 0.00014085912, -788452.3, -50059.85, 0.0, 10.001106, 9.9293995 
4.4850636e+3, 2.3458332e+2, -690032.1, -744894.75, -4.5499454, 0.0002090884, -0.00007041343, -690032.1, -48948.465, 0.0, 10.0011015, 9.929069 
4.4850636e+3, 2.4450582e+2, -601717.2, -666952.06, -1.4081546, 0.00020881856, 0.00009185237, -601717.2, -57874.168, 0.0, 10.001097, 9.915631 
4.485063e+3, 2.544216e+2, -502976.84, -568285.56, -4.205314, 0.00020796861, -0.00009047967, -502976.84, -56308.24, 0.0, 10.001092, 9.915531 
4.485063e+3, 2.6433027e+2, -414751.13, -490937.44, -0.64291394, 0.00020731908, 0.00015562728, -414751.13, -65187.47, 0.0, 10.001088, 9.901461 
4.485063e+3, 2.7423227e+2, -315478.16, -391333.25, -3.300798, 0.00020692556, -0.00019006456, -315478.16, -62954.207, 0.0, 10.001083, 9.901881 
4.485063e+3, 2.8412604e+2, -229014.23, -318047.7, 0.25773284, 0.0002066937, 0.00024092404, -229014.23, -73449.4, 0.0, 10.00108, 9.884935 
4.485063e+3, 2.94012e+2, -129319.64, -217740.05, -2.3601873, 0.00020668123, -0.00024275942, -129319.64, -70637.44, 0.0, 10.001076, 9.885714 
4.4850624e+3, 3.0392596e+2, -39592.023, -84733.31, 1.1766661, 0.00020620154, 0.00018216885, -39592.023, -39592.023, 0.0, 10.001072, 9.941668 
4.4850624e+3, 3.138695e+2, -38519.324, -82496.766, -0.8703124, 0.00020502717, -0.000048031896, -38519.324, -38519.324, 0.0, 10.001068, 9.943179 
4.4950664e+3, 1.2500228e+2, -1718560.0, -1724146.5, -0.12086246, 0.00021860834, 0.000074098134, -1718560.0, -3582.028, 0.0, 10.001159, 9.993753 
4.4950664e+3, 1.3499588e+2, -1621195.0, -1627369.1, -3.272109, 0.0002172642, -0.000102231046, -1621195.0, -4154.3467, 0.0, 10.001154, 9.99297 
4.4950658e+3, 1.4498296e+2, -1533065.5, -1548013.8, -1.3776985, 0.0002165729, 0.00016101776, -1533065.5, -13898.392, 0.0, 10.001148, 9.981338 
4.4950658e+3, 1.5496428e+2, -1435352.3, -1450699.9, -4.6619716, 0.00021653312, -0.000027080958, -1435352.3, -14002.007, 0.0, 10.001143, 9.980806 
4.4950655e+3, 1.64939e+2, -1347314.3, -1371840.5, -2.6126704, 0.00021604926, 0.000055659646, -1347314.3, -23716.086, 0.0, 10.001138, 9.968721 
4.4950655e+3, 1.7490776e+2, -1249370.9, -1274208.9, -5.887863, 0.00021511402, -0.000047675967, -1249370.9, -23466.791, 0.0, 10.001132, 9.9683075 
4.4950655e+3, 1.848699e+2, -1161298.1, -1195620.4, -3.1721423, 0.00021432815, 0.00009799471, -1161298.1, -33022.902, 0.0, 10.001127, 9.9558735 
4.495065e+3, 1.948258e+2, -1063161.9, -1097743.1, -6.024488, 0.0002136976, -0.00003281549, -1063161.9, -32454.656, 0.0, 10.0011215, 9.955531 
4.495065e+3, 2.0477505e+2, -975008.06, -1019351.1, -3.4433732, 0.00021338923, 0.00008919122, -975008.06, -41803.418, 0.0, 10.001117, 9.942772 
4.495065e+3, 2.1471786e+2, -876735.0, -921335.94, -6.768339, 0.00021342892, -0.00010588695, -876735.0, -40969.86, 0.0, 10.001112, 9.9424305 
4.4950643e+3, 2.2465397e+2, -788458.44, -843075.9, -3.5796514, 0.00021275457, 0.00014117407, -788458.44, -50067.28, 0.0, 10.001106, 9.929392 
4.4950643e+3, 2.3458344e+2, -690038.25, -744907.0, -6.418173, 0.00021127285, -0.000069708105, -690038.25, -48955.727, 0.0, 10.0011015, 9.929061 
4.4950643e+3, 2.4450594e+2, -601723.25, -666964.44, -3.075222, 0.00021055879, 0.00009236821, -601723.25, -57881.367, 0.0, 10.001097, 9.915623 
4.4950643e+3, 2.5442168e+2, -502982.88, -568297.9, -5.8640366, 0.0002107611, -0.00009084566, -502982.88, -56315.28, 0.0, 10.001093, 9.915524 
4.495064e+3, 2.6433036e+2, -414757.1, -490949.66, -2.2744741, 0.000210637, 0.00015510758, -414757.1, -65194.363, 0.0, 10.001088, 9.901453 
4.495064e+3, 2.7423236e+2, -315484.03, -391345.4, -4.9304523, 0.00021009537, -0.0001898103, -315484.03, -62960.95, 0.0, 10.001083, 9.901873 
4.495064e+3, 2.8412613e+2, -229020.25, -318060.2, -1.2196957, 0.00020951555, 0.00024173461, -229020.25, -73456.195, 0.0, 10.00108, 9.884927 
4.495064e+3, 2.940121e+2, -129325.58, -217752.52, -3.8222358, 0.00020888474, -0.00024169467, -129325.58, -70644.09, 0.0, 10.001076, 9.885705 
4.495064e+3, 3.0392602e+2, -39597.285, -84744.414, -0.17018175, 0.0002084783, 0.00018295912, -39597.285, -39597.285, 0.0, 10.001072, 9.94166 
4.4950634e+3, 3.1386957e+2, -38524.516, -82507.72, -2.2078815, 0.0002084067, -0.000048297992, -38524.516, -38524.516, 0.0, 10.001068, 9.9431715 
4.5050675e+3, 1.2500249e+2, -1718506.6, -1724128.1, 1.8695, 0.00022154201, 0.00007479896, -1718506.6, -3530.7747, 0.0, 10.001197, 9.993745 
4.5050675e+3, 1.3499609e+2, -1621142.1, -1627351.0, -1.562066, 0.00022017054, -0.000101886166, -1621142.1, -4103.514, 0.0, 10.001191, 9.992962 
4.5050675e+3, 1.4498317e+2, -1533013.0, -1547995.9, 0.25107375, 0.00021942814, 0.00016128703, -1533013.0, -13847.845, 0.0, 10.001185, 9.981329 
4.505067e+3, 1.5496448e+2, -1435300.3, -1450682.5, -3.0040936, 0.0002193134, -0.000026606212, -1435300.3, -13951.917, 0.0, 10.00118, 9.980798 
4.505067e+3, 1.6493918e+2, -1347262.6, -1371823.4, -1.0184532, 0.0002188714, 0.000056278193, -1347262.6, -23666.316, 0.0, 10.001175, 9.968713 
4.5050663e+3, 1.7490794e+2, -1249319.6, -1274192.1, -4.3068542, 0.00021809702, -0.00004697643, -1249319.6, -23417.277, 0.0, 10.001169, 9.968299 
4.5050663e+3, 1.8487006e+2, -1161247.4, -1195603.5, -1.7338854, 0.00021725436, 0.00009850744, -1161247.4, -32973.83, 0.0, 10.0011635, 9.955866 
4.5050663e+3, 1.9482598e+2, -1063112.8, -1097727.1, -5.0496807, 0.00021633983, -0.00003276908, -1063112.8, -32407.09, 0.0, 10.001158, 9.955523 
4.505066e+3, 2.0477521e+2, -974959.7, -1019336.0, -2.4190247, 0.00021601413, 0.0000892312, -974959.7, -41756.523, 0.0, 10.001152, 9.942763 
4.505066e+3, 2.14718e+2, -876686.1, -921320.75, -5.412872, 0.00021632481, -0.00010535635, -876686.1, -40922.406, 0.0, 10.001147, 9.942422 
4.505066e+3, 2.2465411e+2, -788409.6, -843060.4, -2.222247, 0.00021576547, 0.00014185047, -788409.6, -50019.72, 0.0, 10.0011425, 9.929383 
4.5050654e+3, 2.3458356e+2, -689990.6, -744892.2, -5.2451386, 0.00021422225, -0.000069275775, -689990.6, -48909.336, 0.0, 10.001137, 9.929052 
4.5050654e+3, 2.4450606e+2, -601676.6, -666950.44, -1.8220396, 0.00021342916, 0.000092663475, -601676.6, -57835.91, 0.0, 10.001132, 9.915615 
4.5050654e+3, 2.544218e+2, -502936.9, -568284.4, -4.82958, 0.0002135318, -0.0000905594, -502936.9, -56270.383, 0.0, 10.001127, 9.915515 
4.5050654e+3, 2.6433045e+2, -414711.34, -490936.06, -1.3048598, 0.00021339534, 0.00015534063, -414711.34, -65149.586, 0.0, 10.001122, 9.901444 
4.505065e+3, 2.7423245e+2, -315438.56, -391332.06, -3.97096, 0.00021295235, -0.0001896869, -315438.56, -62916.414, 0.0, 10.001118, 9.901865 
4.505065e+3, 2.8412622e+2, -228975.19, -318047.06, -0.05957742, 0.00021238654, 0.00024199803, -228975.19, -73411.96, 0.0, 10.001114, 9.884919 
4.505065e+3, 2.940122e+2, -129281.336, -217739.9, -2.4022908, 0.00021165347, -0.0002409494, -129281.33, -70600.6, 0.0, 10.001109, 9.885697 
4.505065e+3, 3.0392608e+2, -39553.867, -84732.75, 1.3308778, 0.00021124503, 0.00018367797, -39553.867, -39553.867, 0.0, 10.001105, 9.941652 
4.505065e+3, 3.1386963e+2, -38480.617, -82495.87, -1.3691863, 0.00021132138, -0.000048363087, -38480.617, -38480.617, 0.0, 10.001102, 9.943164 
4.5150688e+3, 1.2500271e+2, -1718514.4, -1724142.9, -0.21618663, 0.00022432285, 0.000075500575, -1718514.4, -3540.7847, 0.0, 10.001197, 9.993736 
4.5150682e+3, 1.3499631e+2, -1621149.8, -1627365.8, -3.6471717, 0.00022341535, -0.00010173995, -1621149.8, -4113.342, 0.0, 10.001191, 9.992952 
4.5150682e+3, 1.4498338e+2, -1533020.3, -1548009.8, -1.8016945, 0.00022260578, 0.0001611642, -1533020.3, -13857.098, 0.0, 10.001185, 9.98132 
4.5150682e+3, 1.5496467e+2, -1435307.4, -1450696.3, -5.0577936, 0.0002218911, -0.000026711044, -1435307.4, -13961.008, 0.0, 10.001181, 9.980789 
4.515068e+3, 1.6493936e+2, -1347269.8, -1371837.4, -3.1299973, 0.00022135826, 0.00005663417, -1347269.8, -23675.355, 0.0, 10.001175, 9.968704 
4.515068e+3, 1.7490813e+2, -1249326.8, -1274206.0, -6.4181147, 0.00022101143, -0.000045708755, -1249326.8, -23426.152, 0.0, 10.001169, 9.96829 
4.5150673e+3, 1.8487024e+2, -1161254.5, -1195617.5, -3.9122183, 0.000220455, 0.00009951928, -1161254.5, -32982.676, 0.0, 10.0011635, 9.955856 
4.5150673e+3, 1.9482613e+2, -1063119.9, -1097741.1, -7.2292013, 0.00021967918, -0.000033231798, -1063119.9, -32415.752, 0.0, 10.001158, 9.955514 
4.5150673e+3, 2.0477536e+2, -974966.2, -1019348.8, -4.2291245, 0.00021895552, 0.00008863867, -974966.2, -41764.47, 0.0, 10.001152, 9.942755 
4.515067e+3, 2.1471815e+2, -876692.5, -921333.44, -7.2163377, 0.00021828817, -0.000104625105, -876692.5, -40930.203, 0.0, 10.001147, 9.942414 
4.515067e+3, 2.2465426e+2, -788416.1, -843073.44, -4.328588, 0.00021792906, 0.00014287942, -788416.1, -50027.594, 0.0, 10.0011425, 9.929376 
4.515067e+3, 2.3458368e+2, -689997.06, -744905.2, -7.36173, 0.00021791783, -0.000069109294, -689997.06, -48917.035, 0.0, 10.001137, 9.929045 
4.5150664e+3, 2.4450618e+2, -601683.2, -666963.75, -3.5893877, 0.0002174015, 0.00009274395, -601683.2, -57843.63, 0.0, 10.001132, 9.9156065 
4.5150664e+3, 2.5442192e+2, -502943.38, -568297.56, -6.5790854, 0.00021628193, -0.00008963732, -502943.38, -56277.957, 0.0, 10.001127, 9.915506 
4.5150664e+3, 2.6433054e+2, -414717.34, -490948.4, -2.955483, 0.000215609, 0.0001563074, -414717.34, -65156.605, 0.0, 10.001122, 9.901437 
4.5150664e+3, 2.7423254e+2, -315444.47, -391344.28, -5.6168356, 0.00021550513, -0.00018969107, -315444.47, -62923.242, 0.0, 10.001118, 9.901856 
4.5150658e+3, 2.8412628e+2, -228980.73, -318058.66, -1.6702238, 0.00021530617, 0.00024172828, -228980.73, -73418.375, 0.0, 10.001114, 9.884912 
4.5150658e+3, 2.9401228e+2, -129286.78, -217751.38, -4.010883, 0.00021497374, -0.00024051513, -129286.78, -70606.836, 0.0, 10.00111, 9.88569 
4.5150658e+3, 3.0392617e+2, -39560.24, -84746.164, 0.08902451, 0.00021448992, 0.0001843276, -39560.24, -39560.24, 0.0, 10.001106, 9.941643 
4.5150658e+3, 3.1386968e+2, -38487.113, -82509.53, -2.565441, 0.00021378371, -0.000048232392, -38487.113, -38487.113, 0.0, 10.001102, 9.943154 
4.52507e+3, 1.2500295e+2, -1718459.0, -1724123.8, 1.6897658, 0.00022736099, 0.00007599755, -1718459.0, -3487.6516, 0.0, 10.001236, 9.993727 
4.52507e+3, 1.3499652e+2, -1621094.9, -1627347.0, -1.7427903, 0.00022644638, -0.000101067875, -1621094.9, -4060.537, 0.0, 10.00123, 9.992943 
4.52507e+3, 1.4498359e+2, -1532965.9, -1547991.1, -0.0639154, 0.00022558567, 0.00016179234, -1532965.9, -13804.798, 0.0, 10.0012245, 9.981312 
4.5250693e+3, 1.5496488e+2, -1435254.4, -1450678.5, -3.5129416, 0.00022477552, -0.000026346494, -1435254.4, -13909.955, 0.0, 10.001218, 9.98078 
4.5250693e+3, 1.6493955e+2, -1347217.3, -1371819.8, -1.5758516, 0.0002241983, 0.000056963312, -1347217.3, -23624.73, 0.0, 10.001212, 9.968696 
4.5250687e+3, 1.7490831e+2, -1249274.5, -1274188.5, -4.821259, 0.00022385911, -0.00004518268, -1249274.5, -23375.646, 0.0, 10.001206, 9.968282 
4.5250687e+3, 1.8487042e+2, -1161202.6, -1195600.9, -2.3947139, 0.00022340576, 0.00010011727, -1161202.6, -32932.457, 0.0, 10.001201, 9.955848 
4.5250684e+3, 1.9482629e+2, -1063068.0, -1097724.6, -5.818483, 0.00022283259, -0.00003269244, -1063068.0, -32365.58, 0.0, 10.001195, 9.955504 
4.5250684e+3, 2.0477551e+2, -974915.0, -1019332.0, -2.8468344, 0.00022201797, 0.000089124405, -974915.0, -41714.836, 0.0, 10.001189, 9.942746 
4.5250684e+3, 2.147183e+2, -876643.75, -921318.0, -5.977993, 0.00022094234, -0.00010418746, -876643.75, -40882.92, 0.0, 10.0011835, 9.942406 
4.5250678e+3, 2.2465439e+2, -788368.1, -843058.75, -3.0595198, 0.00022056143, 0.00014325413, -788368.1, -49980.992, 0.0, 10.001178, 9.929367 
4.5250678e+3, 2.3458381e+2, -689947.75, -744890.0, -6.192963, 0.00022096536, -0.000068814385, -689947.75, -48869.063, 0.0, 10.001173, 9.929036 
4.5250678e+3, 2.445063e+2, -601633.8, -666948.5, -2.4124095, 0.00022058949, 0.00009308117, -601633.8, -57795.484, 0.0, 10.001168, 9.915598 
4.5250675e+3, 2.5442204e+2, -502895.7, -568283.3, -5.2525587, 0.00021928211, -0.00008911199, -502895.7, -56231.41, 0.0, 10.001163, 9.915498 
4.5250675e+3, 2.6433066e+2, -414670.8, -490934.84, -1.4504732, 0.00021846227, 0.00015687406, -414670.8, -65111.14, 0.0, 10.001158, 9.901428 
4.5250675e+3, 2.7423263e+2, -315398.63, -391331.22, -4.40118, 0.0002182643, -0.00018927005, -315398.63, -62878.375, 0.0, 10.001153, 9.901849 
4.5250675e+3, 2.8412637e+2, -228934.67, -318045.0, -0.5553799, 0.00021810271, 0.00024195315, -228934.67, -73373.2, 0.0, 10.001148, 9.884903 
4.5250675e+3, 2.9401234e+2, -129240.42, -217737.64, -3.0830543, 0.00021798725, -0.00024055471, -129240.42, -70561.29, 0.0, 10.001144, 9.885682 
4.525067e+3, 3.0392623e+2, -39515.082, -84734.07, 1.1775768, 0.00021749978, 0.00018439625, -39515.082, -39515.082, 0.0, 10.001141, 9.941634 
4.525067e+3, 3.1386974e+2, -38443.234, -82498.164, -1.0959033, 0.00021646077, -0.00004750128, -38443.234, -38443.234, 0.0, 10.001137, 9.943146 
4.5350713e+3, 1.2500319e+2, -1718466.9, -1724138.5, -0.4226546, 0.00023065024, 0.000076295684, -1718466.9, -3497.755, 0.0, 10.001236, 9.993717 
4.5350707e+3, 1.3499676e+2, -1621102.5, -1627361.8, -3.8548806, 0.00022927034, -0.00009988392, -1621102.5, -4070.4746, 0.0, 10.00123, 9.992934 
4.5350707e+3, 1.4498381e+2, -1532973.5, -1548005.9, -2.3625355, 0.0002283741, 0.0001631514, -1532973.5, -13814.595, 0.0, 10.0012245, 9.981302 
4.5350707e+3, 1.5496509e+2, -1435262.0, -1450693.0, -5.8125987, 0.00022795923, -0.000025525049, -1435262.0, -13919.565, 0.0, 10.001218, 9.980771 
4.5350704e+3, 1.6493976e+2, -1347224.4, -1371833.4, -3.6684494, 0.00022738273, 0.00005726648, -1347224.4, -23633.752, 0.0, 10.001212, 9.968687 
4.5350704e+3, 1.7490849e+2, -1249281.5, -1274202.3, -6.914701, 0.00022664262, -0.000045378143, -1249281.5, -23384.506, 0.0, 10.001206, 9.968273 
4.5350698e+3, 1.8487059e+2, -1161210.0, -1195615.4, -4.5372987, 0.00022611419, 0.000100312805, -1161210.0, -32941.617, 0.0, 10.001201, 9.955838 
4.5350698e+3, 1.9482648e+2, -1063075.4, -1097739.0, -7.959508, 0.00022580604, -0.000031177384, -1063075.4, -32374.578, 0.0, 10.001195, 9.955496 
4.5350695e+3, 2.0477568e+2, -974921.7, -1019345.4, -5.1744876, 0.00022519924, 0.000090659916, -974921.7, -41723.188, 0.0, 10.001189, 9.942738 
4.5350695e+3, 2.1471846e+2, -876650.4, -921331.25, -8.311788, 0.00022426952, -0.00010403548, -876650.4, -40891.08, 0.0, 10.0011835, 9.942397 
4.5350695e+3, 2.2465454e+2, -788374.8, -843072.25, -4.8057046, 0.00022365064, 0.00014299212, -788374.8, -49989.137, 0.0, 10.001178, 9.9293585 
4.535069e+3, 2.3458396e+2, -689954.44, -744903.44, -7.919614, 0.00022338283, -0.00006839428, -689954.44, -48877.063, 0.0, 10.001173, 9.929027 
4.535069e+3, 2.4450643e+2, -601640.06, -666961.25, -4.5012035, 0.00022301484, 0.00009366855, -601640.06, -57803.016, 0.0, 10.001168, 9.915589 
4.535069e+3, 2.5442216e+2, -502901.84, -568295.94, -7.3602915, 0.00022252655, -0.00008897271, -502901.84, -56238.754, 0.0, 10.001163, 9.915489 
4.535069e+3, 2.6433077e+2, -414677.34, -490948.3, -3.2233782, 0.00022193894, 0.00015705147, -414677.34, -65118.77, 0.0, 10.001158, 9.90142 
4.5350683e+3, 2.7423272e+2, -315405.1, -391344.63, -6.1502895, 0.00022122503, -0.00018843473, -315405.1, -62885.863, 0.0, 10.001153, 9.901839 
4.5350683e+3, 2.841265e+2, -228940.63, -318057.4, -2.0434163, 0.00022078009, 0.00024265981, -228940.63, -73380.08, 0.0, 10.001148, 9.884895 
4.5350683e+3, 2.9401243e+2, -129246.25, -217749.89, -4.549065, 0.00022070287, -0.00024105581, -129246.25, -70567.96, 0.0, 10.001144, 9.8856735 
4.5350683e+3, 3.0392632e+2, -39520.88, -84746.29, -0.3296191, 0.00022028161, 0.00018389919, -39520.88, -39520.88, 0.0, 10.001141, 9.941626 
4.5350683e+3, 3.138698e+2, -38449.03, -82510.39, -2.607753, 0.0002193475, -0.000046185003, -38449.03, -38449.03, 0.0, 10.001137, 9.943137 
4.5450726e+3, 1.2500343e+2, -1718409.5, -1724118.4, 1.8251019, 0.00023376809, 0.00007706627, -1718409.5, -3442.8218, 0.0, 10.001276, 9.993709 
4.5450723e+3, 1.34997e+2, -1621046.4, -1627342.4, -1.6409506, 0.00023224378, -0.00009932898, -1621046.4, -4016.624, 0.0, 10.001269, 9.992925 
4.5450723e+3, 1.4498404e+2, -1532918.0, -1547987.3, -0.28927848, 0.00023136727, 0.00016369061, -1532918.0, -13761.312, 0.0, 10.001264, 9.981293 
4.5450717e+3, 1.549653e+2, -1435206.5, -1450674.5, -3.9265406, 0.00023113666, -0.000024801335, -1435206.5, -13866.131, 0.0, 10.001258, 9.980762 
4.5450717e+3, 1.6493995e+2, -1347169.1, -1371814.8, -1.9938498, 0.00023056554, 0.00005789454, -1347169.1, -23580.549, 0.0, 10.001251, 9.9686775 
4.5450714e+3, 1.749087e+2, -1249227.8, -1274184.5, -5.5329175, 0.00022964877, -0.000045130873, -1249227.8, -23332.723, 0.0, 10.0012455, 9.968264 
4.5450714e+3, 1.848708e+2, -1161157.3, -1195598.0, -3.1356554, 0.0002289954, 0.000100590245, -1161157.3, -32890.668, 0.0, 10.001239, 9.95583 
4.5450708e+3, 1.9482665e+2, -1063023.4, -1097722.3, -6.293454, 0.00022861622, -0.000030440848, -1063023.4, -32324.367, 0.0, 10.001233, 9.955487 
4.5450708e+3, 2.0477585e+2, -974869.94, -1019329.06, -3.543765, 0.00022815079, 0.000091438116, -974869.94, -41673.074, 0.0, 10.001227, 9.942729 
4.5450708e+3, 2.1471861e+2, -876597.94, -921314.75, -7.058032, 0.00022759195, -0.00010366682, -876597.94, -40840.18, 0.0, 10.001222, 9.942389 
4.5450702e+3, 2.2465469e+2, -788322.94, -843055.7, -3.5572233, 0.00022690043, 0.00014327407, -788322.94, -49938.703, 0.0, 10.001216, 9.92935 
4.5450702e+3, 2.3458411e+2, -689905.3, -744888.44, -6.6174426, 0.00022605876, -0.000067834066, -689905.3, -48829.324, 0.0, 10.001209, 9.929018 
4.5450702e+3, 2.4450657e+2, -601591.94, -666946.8, -3.1952903, 0.00022557858, 0.00009421745, -601591.94, -57756.152, 0.0, 10.0012045, 9.915581 
4.54507e+3, 2.5442228e+2, -502852.72, -568281.1, -6.3180666, 0.00022552935, -0.000088780944, -502852.72, -56190.84, 0.0, 10.0012, 9.915481 
4.54507e+3, 2.6433086e+2, -414628.0, -490933.53, -2.1420763, 0.00022511971, 0.0001571809, -414628.0, -65070.586, 0.0, 10.001195, 9.901411 
4.54507e+3, 2.7423283e+2, -315356.75, -391330.5, -4.8842545, 0.0002242505, -0.00018799191, -315356.75, -62838.574, 0.0, 10.001189, 9.901831 
4.54507e+3, 2.8412658e+2, -228893.22, -318043.7, -0.5548646, 0.00022364732, 0.00024320604, -228893.22, -73333.66, 0.0, 10.001184, 9.884887 
4.5450693e+3, 2.9401252e+2, -129200.28, -217737.0, -3.2689893, 0.00022340941, -0.00024069526, -129200.28, -70522.875, 0.0, 10.00118, 9.885665 
4.5450693e+3, 3.0392638e+2, -39475.742, -84733.78, 0.9462522, 0.00022297878, 0.00018413307, -39475.742, -39475.742, 0.0, 10.001176, 9.941618 
4.5450693e+3, 3.138699e+2, -38403.348, -82497.59, -1.3085344, 0.00022226007, -0.000045987155, -38403.348, -38403.348, 0.0, 10.001172, 9.943129 
4.5550737e+3, 1.2500368e+2, -1718417.4, -1724133.4, -0.4919661, 0.0002367204, 0.00007829617, -1718417.4, -3453.1177, 0.0, 10.001276, 9.993699 
4.5550737e+3, 1.3499722e+2, -1621054.3, -1627357.3, -3.9602826, 0.00023536336, -0.00009938512, -1621054.3, -4026.731, 0.0, 10.001269, 9.992916 
4.5550734e+3, 1.4498426e+2, -1532926.1, -1548002.8, -2.5067985, 0.00023456028, 0.00016343332, -1532926.1, -13771.62, 0.0, 10.001264, 9.981283 
4.5550734e+3, 1.5496552e+2, -1435214.4, -1450690.0, -6.1424465, 0.00023430891, -0.000024172241, -1435214.4, -13876.266, 0.0, 10.001258, 9.980752 
4.5550728e+3, 1.6494016e+2, -1347176.9, -1371829.8, -4.37453, 0.00023374779, 0.000058838705, -1347176.9, -23590.324, 0.0, 10.001252, 9.968668 
4.5550728e+3, 1.7490889e+2, -1249235.4, -1274199.4, -7.9138746, 0.00023287233, -0.00004445306, -1249235.4, -23342.313, 0.0, 10.0012455, 9.968255 
4.5550722e+3, 1.8487097e+2, -1161164.0, -1195611.4, -5.4072328, 0.00023204535, 0.00010094741, -1161164.0, -32899.348, 0.0, 10.001239, 9.955821 
4.5550722e+3, 1.9482683e+2, -1063030.1, -1097735.5, -8.567186, 0.00023126826, -0.000030461008, -1063030.1, -32332.873, 0.0, 10.001233, 9.955479 
4.555072e+3, 2.0477602e+2, -974877.44, -1019343.94, -5.639287, 0.00023087973, 0.000091480295, -974877.44, -41682.28, 0.0, 10.001227, 9.942719 
4.555072e+3, 2.1471877e+2, -876605.4, -921329.56, -9.147411, 0.00023091087, -0.00010308722, -876605.4, -40849.227, 0.0, 10.001222, 9.942379 
4.555072e+3, 2.2465485e+2, -788329.56, -843069.06, -5.895393, 0.00023030747, 0.00014408515, -788329.56, -49946.863, 0.0, 10.001216, 9.929341 
4.5550713e+3, 2.3458424e+2, -689911.8, -744901.6, -8.9651375, 0.0002289867, -0.00006713731, -689911.8, -48837.29, 0.0, 10.00121, 9.929009 
4.5550713e+3, 2.445067e+2, -601598.7, -666960.5, -5.0132365, 0.00022827741, 0.000094729236, -601598.7, -57764.254, 0.0, 10.0012045, 9.915572 
4.5550713e+3, 2.544224e+2, -502859.4, -568294.8, -8.110562, 0.00022829791, -0.00008853803, -502859.4, -56198.793, 0.0, 10.0012, 9.915472 
4.5550707e+3, 2.6433098e+2, -414634.25, -490946.38, -4.058107, 0.00022801363, 0.00015726371, -414634.25, -65077.99, 0.0, 10.001195, 9.901402 
4.5550707e+3, 2.7423298e+2, -315362.88, -391343.2, -6.8098397, 0.00022733981, -0.00018793072, -315362.88, -62845.785, 0.0, 10.001189, 9.901822 
4.5550707e+3, 2.8412667e+2, -228899.53, -318056.88, -2.332246, 0.00022670001, 0.00024359654, -228899.53, -73340.98, 0.0, 10.001184, 9.884878 
4.5550707e+3, 2.940126e+2, -129206.52, -217750.13, -5.0314693, 0.00022610772, -0.0002394961, -129206.52, -70530.055, 0.0, 10.00118, 9.885656 
4.5550707e+3, 3.039265e+2, -39481.555, -84746.055, -0.46049634, 0.0002255942, 0.00018507829, -39481.555, -39481.555, 0.0, 10.001176, 9.941609 
4.5550704e+3, 3.1386995e+2, -38409.13, -82509.79, -2.6776636, 0.00022519867, -0.000046877405, -38409.13, -38409.13, 0.0, 10.001172, 9.943121 
4.5650753e+3, 1.2500393e+2, -1718358.5, -1724113.1, 1.712495, 0.00023983949, 0.0000790973, -1718358.5, -3396.7148, 0.0, 10.001317, 9.99369 
4.5650747e+3, 1.3499747e+2, -1620995.6, -1627337.3, -2.1486008, 0.00023861228, -0.00009909, -1620995.6, -3970.578, 0.0, 10.001311, 9.992906 
4.5650747e+3, 1.449845e+2, -1532868.1, -1547982.9, -0.8290767, 0.00023778943, 0.0001636387, -1532868.1, -13715.877, 0.0, 10.001305, 9.981274 
4.565074e+3, 1.5496574e+2, -1435157.8, -1450670.9, -4.3169847, 0.00023736824, -0.000023639359, -1435157.8, -13821.792, 0.0, 10.001298, 9.980742 
4.565074e+3, 1.6494039e+2, -1347121.0, -1371811.1, -2.5127199, 0.00023677852, 0.000059572812, -1347121.0, -23536.521, 0.0, 10.001291, 9.968659 
4.5650738e+3, 1.749091e+2, -1249180.0, -1274181.1, -6.03285, 0.00023601823, -0.000043646207, -1249180.0, -23288.87, 0.0, 10.001286, 9.9682455 
4.5650738e+3, 1.8487117e+2, -1161108.9, -1195593.1, -3.6803164, 0.00023522315, 0.000101561665, -1161108.9, -32846.15, 0.0, 10.001279, 9.955812 
4.5650733e+3, 1.94827e+2, -1062975.9, -1097717.9, -7.334824, 0.00023439107, -0.000030316216, -1062975.9, -32280.38, 0.0, 10.001272, 9.955469 
4.5650733e+3, 2.047762e+2, -974824.06, -1019326.9, -4.385991, 0.00023388788, 0.00009163993, -974824.06, -41630.633, 0.0, 10.0012665, 9.94271 
4.5650733e+3, 2.1471895e+2, -876553.25, -921313.3, -7.575245, 0.00023373993, -0.00010238943, -876553.25, -40798.77, 0.0, 10.00126, 9.942369 
4.5650727e+3, 2.24655e+2, -788277.7, -843052.75, -4.2920403, 0.0002331897, 0.00014487363, -788277.7, -49896.523, 0.0, 10.001254, 9.929332 
4.5650727e+3, 2.3458439e+2, -689859.44, -744885.25, -7.598171, 0.00023218442, -0.000066763896, -689859.44, -48786.383, 0.0, 10.001248, 9.929001 
4.5650727e+3, 2.4450685e+2, -601546.9, -666944.6, -3.5289867, 0.00023146508, 0.00009500768, -601546.9, -57713.855, 0.0, 10.001243, 9.915563 
4.5650724e+3, 2.5442255e+2, -502809.53, -568280.06, -6.62298, 0.00023108696, -0.000087972265, -502809.53, -56150.227, 0.0, 10.001237, 9.915463 
4.5650724e+3, 2.643311e+2, -414585.2, -490931.8, -2.5629838, 0.0002306663, 0.0001578337, -414585.2, -65030.145, 0.0, 10.001231, 9.901394 
4.5650724e+3, 2.7423307e+2, -315313.9, -391328.8, -5.5157833, 0.00023019037, -0.0001877173, -315313.9, -62797.953, 0.0, 10.001226, 9.9018135 
4.5650718e+3, 2.841268e+2, -228850.6, -318042.4, -0.95537573, 0.00022967324, 0.00024381158, -228850.6, -73293.08, 0.0, 10.001222, 9.88487 
4.5650718e+3, 2.9401273e+2, -129158.04, -217736.03, -3.4415226, 0.00022909915, -0.00023878792, -129158.04, -70482.54, 0.0, 10.001217, 9.885648 
4.5650718e+3, 3.039266e+2, -39434.477, -84733.43, 1.2284676, 0.00022852665, 0.00018577259, -39434.477, -39434.477, 0.0, 10.001212, 9.9416 
4.5650718e+3, 3.1387004e+2, -38363.09, -82497.74, -1.5684106, 0.00022795866, -0.00004695388, -38363.09, -38363.09, 0.0, 10.001208, 9.943111 
4.5750767e+3, 1.2500419e+2, -1718367.3, -1724129.8, -0.61297774, 0.00024312141, 0.000079482605, -1718367.3, -3408.0212, 0.0, 10.001317, 9.993679 
4.575076e+3, 1.3499771e+2, -1621004.4, -1627353.8, -4.47197, 0.00024198783, -0.00009845363, -1621004.4, -3981.6914, 0.0, 10.001311, 9.992896 
4.5750758e+3, 1.4498472e+2, -1532875.9, -1547997.6, -3.290387, 0.00024105472, 0.00016429342, -1532875.9, -13725.951, 0.0, 10.001305, 9.981265 
4.5750758e+3, 1.5496597e+2, -1435165.4, -1450685.6, -6.7803316, 0.00024031875, -0.000023199722, -1435165.4, -13831.6875, 0.0, 10.001298, 9.980733 
4.5750752e+3, 1.6494061e+2, -1347128.6, -1371826.0, -4.930045, 0.00023966293, 0.00006010329, -1347128.6, -23546.348, 0.0, 10.001292, 9.96865 
4.5750752e+3, 1.7490932e+2, -1249187.5, -1274195.9, -8.450425, 0.0002390896, -0.00004271353, -1249187.5, -23298.518, 0.0, 10.001286, 9.968236 
4.5750752e+3, 1.8487138e+2, -1161116.8, -1195608.5, -6.0712323, 0.00023852612, 0.000102426005, -1161116.8, -32855.992, 0.0, 10.001279, 9.955803 
4.5750746e+3, 1.9482721e+2, -1062983.6, -1097733.3, -9.724226, 0.00023797223, -0.000030011168, -1062983.6, -32290.033, 0.0, 10.001273, 9.95546 
4.5750746e+3, 2.0477638e+2, -974830.94, -1019340.5, -6.717001, 0.00023716816, 0.0000919137, -974830.94, -41639.273, 0.0, 10.0012665, 9.942701 
4.5750743e+3, 2.1471912e+2, -876560.0, -921326.8, -9.907286, 0.00023609372, -0.00010157641, -876560.0, -40807.234, 0.0, 10.00126, 9.942361 
4.5750743e+3, 2.2465517e+2, -788284.75, -843067.0, -6.454954, 0.00023556274, 0.00014564059, -788284.75, -49905.227, 0.0, 10.001254, 9.929323 
4.5750737e+3, 2.3458456e+2, -689866.44, -744899.4, -9.75588, 0.00023564539, -0.00006670447, -689866.44, -48794.918, 0.0, 10.001248, 9.928992 
4.5750737e+3, 2.4450698e+2, -601553.7, -666958.44, -5.7292514, 0.00023512884, 0.00009505955, -601553.7, -57722.08, 0.0, 10.001243, 9.915554 
4.5750737e+3, 2.5442266e+2, -502816.25, -568293.75, -8.824998, 0.00023389669, -0.00008709237, -502816.25, -56158.273, 0.0, 10.001237, 9.915454 
4.575073e+3, 2.6433128e+2, -414591.78, -490945.4, -4.461695, 0.00023308514, 0.00015887752, -414591.78, -65038.01, 0.0, 10.001231, 9.901384 
4.575073e+3, 2.742332e+2, -315320.44, -391342.3, -7.395098, 0.00023280963, -0.00018735582, -315320.44, -62805.64, 0.0, 10.001226, 9.901805 
4.575073e+3, 2.8412688e+2, -228856.56, -318054.9, -2.7710364, 0.00023257009, 0.00024385618, -228856.56, -73300.14, 0.0, 10.001222, 9.884861 
4.575073e+3, 2.940128e+2, -129163.89, -217748.34, -5.2528586, 0.00023237642, -0.00023855656, -129163.89, -70489.4, 0.0, 10.001217, 9.88564 
4.5750728e+3, 3.0392668e+2, -39441.277, -84747.76, -0.41448277, 0.00023176816, 0.00018622345, -39441.277, -39441.277, 0.0, 10.001212, 9.94159 
4.5750728e+3, 3.1387016e+2, -38370.016, -82512.33, -3.1883442, 0.00023054564, -0.00004623928, -38370.016, -38370.016, 0.0, 10.001208, 9.943102 
4.5850778e+3, 1.2500446e+2, -1718305.8, -1724108.4, 1.6619092, 0.00024646666, 0.00007999166, -1718305.8, -3349.0884, 0.0, 10.001361, 9.9936695 
4.5850778e+3, 1.3499796e+2, -1620944.4, -1627333.4, -2.0149825, 0.00024516988, -0.000097661294, -1620944.4, -3924.1675, 0.0, 10.001353, 9.992886 
4.5850772e+3, 1.4498499e+2, -1532816.6, -1547977.4, -0.9468181, 0.0002441797, 0.00016512584, -1532816.6, -13669.103, 0.0, 10.001347, 9.981255 
4.5850772e+3, 1.5496622e+2, -1435107.0, -1450665.9, -4.752124, 0.00024349292, -0.000022571106, -1435107.0, -13775.563, 0.0, 10.00134, 9.980723 
4.5850766e+3, 1.6494085e+2, -1347070.8, -1371806.5, -3.0374897, 0.00024285221, 0.000060605023, -1347070.8, -23490.629, 0.0, 10.001333, 9.96864 
4.5850766e+3, 1.7490953e+2, -1249130.3, -1274176.9, -6.6607413, 0.0002422594, -0.000042260337, -1249130.3, -23243.377, 0.0, 10.001327, 9.968226 
4.5850763e+3, 1.8487158e+2, -1161060.3, -1195590.1, -4.2513185, 0.00024168653, 0.00010293381, -1161060.3, -32801.492, 0.0, 10.00132, 9.955792 
4.5850763e+3, 1.9482741e+2, -1062927.9, -1097715.4, -7.782587, 0.00024113376, -0.000029341214, -1062927.9, -32236.21, 0.0, 10.001313, 9.95545 
4.5850757e+3, 2.0477657e+2, -974775.6, -1019322.5, -4.832017, 0.00024029046, 0.00009259707, -974775.6, -41585.79, 0.0, 10.001307, 9.942693 
4.5850757e+3, 2.147193e+2, -876505.75, -921309.44, -8.346379, 0.0002391331, -0.00010104028, -876505.75, -40754.69, 0.0, 10.0013, 9.942351 
4.585075e+3, 2.2465533e+2, -788231.3, -843050.4, -4.8740163, 0.00023854274, 0.00014608091, -788231.3, -49853.477, 0.0, 10.001293, 9.929314 
4.585075e+3, 2.3458472e+2, -689813.7, -744883.3, -8.239408, 0.00023859265, -0.00006630187, -689813.7, -48743.723, 0.0, 10.001287, 9.928983 
4.585075e+3, 2.4450713e+2, -601501.2, -666942.25, -4.268189, 0.00023808372, 0.000095465875, -601501.2, -57671.066, 0.0, 10.001282, 9.9155445 
4.5850748e+3, 2.544228e+2, -502764.28, -568277.94, -7.354731, 0.00023690719, -0.0000866329, -502764.28, -56107.715, 0.0, 10.001276, 9.915445 
4.5850748e+3, 2.643314e+2, -414540.63, -490930.3, -2.8006353, 0.00023607044, 0.00015938915, -414540.63, -64988.17, 0.0, 10.00127, 9.901376 
4.5850748e+3, 2.742333e+2, -315270.38, -391327.9, -5.8604746, 0.00023566688, -0.0001867934, -315270.38, -62756.813, 0.0, 10.001265, 9.901795 
4.5850742e+3, 2.8412703e+2, -228806.81, -318040.1, -1.2607228, 0.00023539747, 0.00024429066, -228806.81, -73251.52, 0.0, 10.001259, 9.884852 
4.5850742e+3, 2.940129e+2, -129114.586, -217733.86, -3.9448879, 0.0002353086, -0.00023849457, -129114.586, -70441.14, 0.0, 10.001254, 9.885632 
4.5850742e+3, 3.0392677e+2, -39393.293, -84734.91, 1.0469093, 0.00023472267, 0.00018635347, -39393.293, -39393.293, 0.0, 10.001249, 9.941582 
4.5850742e+3, 3.1387025e+2, -38322.516, -82499.81, -1.2798722, 0.00023339874, -0.000045384764, -38322.516, -38322.516, 0.0, 10.001245, 9.943092 
4.595079e+3, 1.2500472e+2, -1718314.1, -1724124.1, -0.9379413, 0.00024987446, 0.000080620935, -1718314.1, -3360.089, 0.0, 10.001361, 9.993659 
4.595079e+3, 1.3499823e+2, -1620952.6, -1627349.1, -4.6163316, 0.00024816525, -0.00009671719, -1620952.6, -3934.9812, 0.0, 10.001354, 9.992876 
4.5950785e+3, 1.4498523e+2, -1532825.0, -1547993.5, -3.5293841, 0.0002471696, 0.0001661312, -1532825.0, -13680.01, 0.0, 10.001347, 9.981245 
4.5950782e+3, 1.5496644e+2, -1435115.4, -1450682.0, -7.334221, 0.0002468851, -0.000021758822, -1435115.4, -13786.273, 0.0, 10.00134, 9.980714 
4.5950782e+3, 1.6494107e+2, -1347078.6, -1371821.8, -5.5389237, 0.00024633828, 0.00006107906, -1347078.6, -23500.783, 0.0, 10.001333, 9.968631 
4.5950776e+3, 1.7490974e+2, -1249138.0, -1274192.1, -9.162831, 0.00024552568, -0.000042272222, -1249138.0, -23253.346, 0.0, 10.001327, 9.968217 
4.5950776e+3, 1.848718e+2, -1161067.9, -1195605.1, -6.753387, 0.00024470955, 0.00010309595, -1161067.9, -32811.17, 0.0, 10.00132, 9.955784 
4.595077e+3, 1.948276e+2, -1062935.4, -1097730.1, -10.284885, 0.00024388901, -0.000028316592, -1062935.4, -32245.715, 0.0, 10.001313, 9.9554405 
4.595077e+3, 2.0477676e+2, -974783.1, -1019337.4, -7.3420963, 0.00024326042, 0.00009367841, -974783.1, -41595.21, 0.0, 10.001307, 9.942683 
4.595077e+3, 2.1471949e+2, -876513.1, -921324.25, -10.856698, 0.00024283896, -0.0001007727, -876513.1, -40763.92, 0.0, 10.0013, 9.942342 
4.5950767e+3, 2.2465552e+2, -788238.56, -843064.94, -7.1236844, 0.00024211277, 0.00014620434, -788238.56, -49862.42, 0.0, 10.001294, 9.929304 
4.5950767e+3, 2.3458488e+2, -689820.8, -744897.75, -10.480359, 0.00024104201, -0.000065565844, -689820.8, -48752.496, 0.0, 10.001287, 9.928973 
4.595076e+3, 2.4450731e+2, -601507.94, -666956.0, -6.5304193, 0.00024035128, 0.00009621658, -601507.94, -57679.367, 0.0, 10.001282, 9.915536 
4.595076e+3, 2.5442296e+2, -502770.94, -568291.6, -9.620285, 0.00024011362, -0.000086581385, -502770.94, -56115.82, 0.0, 10.001276, 9.915436 
4.595076e+3, 2.6433155e+2, -414547.5, -490944.44, -4.8949203, 0.00023960667, 0.00015938435, -414547.5, -64996.38, 0.0, 10.00127, 9.901366 
4.5950755e+3, 2.7423346e+2, -315277.16, -391342.0, -7.942242, 0.00023875607, -0.00018603551, -315277.16, -62764.86, 0.0, 10.001265, 9.901787 
4.5950755e+3, 2.8412715e+2, -228813.17, -318053.4, -3.1360588, 0.00023815814, 0.000245104, -228813.17, -73259.06, 0.0, 10.001259, 9.884844 
4.5950755e+3, 2.9401302e+2, -129120.84, -217747.02, -5.8027844, 0.0002379065, -0.00023859703, -129120.84, -70448.48, 0.0, 10.001254, 9.885623 
4.5950755e+3, 3.039269e+2, -39399.4, -84747.805, -0.696294, 0.00023739926, 0.00018617204, -39399.4, -39399.4, 0.0, 10.001249, 9.941572 
4.5950752e+3, 3.1387034e+2, -38328.617, -82512.695, -3.011216, 0.00023651111, -0.000044393764, -38328.617, -38328.617, 0.0, 10.001245, 9.943084 
4.6050805e+3, 1.25005e+2, -1718251.4, -1724102.3, 1.6435456, 0.0002531281, 0.000081548234, -1718251.4, -3300.0706, 0.0, 10.001405, 9.9936495 
4.6050802e+3, 1.349985e+2, -1620890.5, -1627327.8, -2.309583, 0.00025141847, -0.000096202784, -1620890.5, -3875.6035, 0.0, 10.001397, 9.992866 
4.6050802e+3, 1.4498548e+2, -1532763.6, -1547972.6, -1.3258723, 0.00025044713, 0.00016659022, -1532763.6, -13621.093, 0.0, 10.00139, 9.981235 
4.6050796e+3, 1.5496671e+2, -1435054.5, -1450661.5, -5.1398497, 0.00025021157, -0.00002099717, -1435054.5, -13727.919, 0.0, 10.001384, 9.980703 
4.6050796e+3, 1.649413e+2, -1347018.5, -1371801.5, -3.4234774, 0.00024963944, 0.000061844905, -1347018.5, -23443.02, 0.0, 10.001376, 9.968621 
4.605079e+3, 1.7490998e+2, -1249079.3, -1274172.6, -7.2208824, 0.00024872593, -0.000041805688, -1249079.3, -23196.797, 0.0, 10.0013685, 9.968207 
4.605079e+3, 1.8487202e+2, -1161009.9, -1195585.9, -4.8916545, 0.0002478255, 0.00010350163, -1161009.9, -32755.37, 0.0, 10.001362, 9.955774 
4.6050787e+3, 1.9482782e+2, -1062878.5, -1097711.6, -8.488609, 0.00024693794, -0.000027723006, -1062878.5, -32190.877, 0.0, 10.001354, 9.955431 
4.6050787e+3, 2.0477696e+2, -974726.75, -1019319.4, -5.477264, 0.00024635755, 0.000094295894, -974726.75, -41540.813, 0.0, 10.001348, 9.942674 
4.605078e+3, 2.1471968e+2, -876456.8, -921306.44, -9.038946, 0.00024610886, -0.00010030855, -876456.8, -40709.465, 0.0, 10.001341, 9.942332 
4.605078e+3, 2.246557e+2, -788182.8, -843047.25, -5.2642474, 0.00024534043, 0.00014668272, -788182.8, -49808.434, 0.0, 10.001334, 9.929295 
4.6050775e+3, 2.3458505e+2, -689766.8, -744881.06, -8.606457, 0.00024398453, -0.00006488384, -689766.8, -48700.16, 0.0, 10.0013275, 9.928964 
4.6050775e+3, 2.4450746e+2, -601454.9, -666940.0, -4.6184263, 0.00024322415, 0.00009687237, -601454.9, -57627.887, 0.0, 10.001321, 9.915526 
4.6050775e+3, 2.544231e+2, -502718.03, -568275.8, -8.033403, 0.00024317414, -0.000086226166, -502718.03, -56064.395, 0.0, 10.001315, 9.915427 
4.6050772e+3, 2.6433167e+2, -414494.75, -490928.6, -3.3447626, 0.00024274165, 0.00015968324, -414494.75, -64945.043, 0.0, 10.001309, 9.901358 
4.6050772e+3, 2.7423358e+2, -315225.25, -391326.7, -6.275531, 0.00024182093, -0.00018548178, -315225.25, -62714.254, 0.0, 10.001304, 9.901777 
4.6050772e+3, 2.8412727e+2, -228762.05, -318038.44, -1.3106152, 0.00024113784, 0.00024574462, -228762.05, -73209.16, 0.0, 10.001298, 9.884835 
4.6050766e+3, 2.9401314e+2, -129070.984, -217732.81, -4.1251073, 0.0002407811, -0.00023810075, -129070.984, -70399.766, 0.0, 10.001292, 9.885613 
4.6050766e+3, 3.0392697e+2, -39350.816, -84734.47, 0.94751537, 0.00024024541, 0.00018653843, -39350.816, -39350.816, 0.0, 10.001287, 9.941564 
4.6050766e+3, 3.1387043e+2, -38280.336, -82499.516, -1.5842397, 0.00023944292, -0.00004413326, -38280.336, -38280.336, 0.0, 10.001283, 9.943074 
4.615082e+3, 1.2500529e+2, -1718260.4, -1724119.3, -1.0525, 0.0002562334, 0.00008276468, -1718260.4, -3311.8357, 0.0, 10.001405, 9.993639 
4.6150815e+3, 1.3499878e+2, -1620899.4, -1627344.8, -5.0062017, 0.00025492266, -0.000096104486, -1620899.4, -3887.1555, 0.0, 10.001398, 9.992855 
4.6150815e+3, 1.4498575e+2, -1532772.0, -1547988.8, -3.9855342, 0.00025400444, 0.00016652016, -1532772.0, -13632.123, 0.0, 10.00139, 9.981225 
4.615081e+3, 1.5496695e+2, -1435062.9, -1450677.6, -7.7991657, 0.0002534755, -0.000020284178, -1435062.9, -13738.767, 0.0, 10.001384, 9.980693 
4.615081e+3, 1.6494155e+2, -1347026.8, -1371817.5, -6.159974, 0.0002527625, 0.00006289398, -1347026.8, -23453.678, 0.0, 10.001376, 9.968611 
4.6150807e+3, 1.7491022e+2, -1249087.4, -1274188.6, -9.957476, 0.0002518632, -0.00004087506, -1249087.4, -23207.262, 0.0, 10.001369, 9.968197 
4.61508e+3, 1.8487224e+2, -1161017.6, -1195601.0, -7.570807, 0.0002510325, 0.00010414366, -1161017.6, -32765.297, 0.0, 10.001362, 9.955764 
4.61508e+3, 1.9482803e+2, -1062886.1, -1097726.8, -11.168533, 0.00025027245, -0.000027547067, -1062886.1, -32200.611, 0.0, 10.001355, 9.955421 
4.6150795e+3, 2.0477718e+2, -974734.4, -1019334.5, -7.922723, 0.0002495789, 0.000094463954, -974734.4, -41550.434, 0.0, 10.001348, 9.942664 
4.6150795e+3, 2.1471988e+2, -876464.4, -921321.5, -11.479667, 0.00024895708, -0.00009965344, -876464.4, -40718.914, 0.0, 10.001342, 9.942323 
4.6150795e+3, 2.2465588e+2, -788190.0, -843061.75, -7.8577104, 0.00024823722, 0.00014750565, -788190.0, -49817.47, 0.0, 10.001335, 9.929285 
4.6150792e+3, 2.3458524e+2, -689773.94, -744895.44, -11.205952, 0.00024740625, -0.00006425382, -689773.94, -48709.0, 0.0, 10.0013275, 9.928954 
4.6150792e+3, 2.4450763e+2, -601462.25, -666955.06, -6.8600135, 0.0002466849, 0.00009743649, -601462.25, -57636.918, 0.0, 10.001322, 9.915517 
4.6150786e+3, 2.5442326e+2, -502725.34, -568290.8, -10.25692, 0.00024609404, -0.00008557612, -502725.34, -56073.26, 0.0, 10.001315, 9.915417 
4.6150786e+3, 2.6433182e+2, -414501.44, -490942.38, -5.556371, 0.00024548837, 0.00016027688, -414501.44, -64953.176, 0.0, 10.001309, 9.901348 
4.6150786e+3, 2.7423373e+2, -315231.78, -391340.3, -8.488381, 0.0002448632, -0.00018512584, -315231.78, -62722.17, 0.0, 10.001304, 9.901769 
4.6150783e+3, 2.841274e+2, -228768.67, -318052.28, -3.4312377, 0.00024433093, 0.0002462181, -228768.67, -73217.055, 0.0, 10.001298, 9.884826 
4.6150783e+3, 2.9401326e+2, -129077.53, -217746.6, -6.2366047, 0.00024392495, -0.00023702321, -129077.53, -70407.49, 0.0, 10.001292, 9.885605 
4.6150783e+3, 3.039271e+2, -39357.34, -84748.26, -0.88495094, 0.00024325683, 0.00018743657, -39357.34, -39357.34, 0.0, 10.001287, 9.941554 
4.6150783e+3, 3.1387052e+2, -38286.88, -82513.33, -3.3862033, 0.00024220032, -0.000044581422, -38286.88, -38286.88, 0.0, 10.001283, 9.943065 
4.6250835e+3, 1.2500559e+2, -1718195.3, -1724096.9, 1.6129478, 0.0002596471, 0.00008354087, -1718195.3, -3249.5947, 0.0, 10.001451, 9.993628 
4.625083e+3, 1.3499907e+2, -1620835.1, -1627322.9, -2.506098, 0.00025837542, -0.0000954193, -1620835.1, -3825.6023, 0.0, 10.001443, 9.992845 
4.625083e+3, 1.4498602e+2, -1532708.3, -1547966.6, -1.6216145, 0.00025740257, 0.00016715542, -1532708.3, -13571.021, 0.0, 10.001435, 9.981215 
4.6250826e+3, 1.5496722e+2, -1435000.6, -1450656.5, -5.458415, 0.00025672503, -0.000019657822, -1435000.6, -13679.102, 0.0, 10.001428, 9.980683 
4.625082e+3, 1.649418e+2, -1346965.6, -1371797.0, -3.820338, 0.00025595096, 0.00006358372, -1346965.6, -23394.963, 0.0, 10.00142, 9.9686 
4.625082e+3, 1.7491046e+2, -1249027.1, -1274168.6, -7.6340866, 0.00025507974, -0.000040048384, -1249027.1, -23149.266, 0.0, 10.001412, 9.968187 
4.6250814e+3, 1.8487246e+2, -1160957.8, -1195581.3, -5.2650585, 0.000254307, 0.00010491692, -1160957.8, -32707.672, 0.0, 10.001405, 9.955754 
4.6250814e+3, 1.9482826e+2, -1062826.8, -1097707.5, -9.073294, 0.00025363616, -0.000027025791, -1062826.8, -32143.502, 0.0, 10.001398, 9.955411 
4.625081e+3, 2.0477739e+2, -974676.0, -1019315.6, -5.8468113, 0.00025285347, 0.0000949549, -974676.0, -41494.16, 0.0, 10.00139, 9.942654 
4.625081e+3, 2.1472007e+2, -876407.8, -921303.6, -9.429102, 0.0002519499, -0.00009895339, -876407.8, -40664.313, 0.0, 10.001383, 9.942313 
4.6250805e+3, 2.2465606e+2, -788134.06, -843044.2, -5.7976747, 0.00025122517, 0.00014816476, -788134.06, -49763.39, 0.0, 10.001376, 9.9292755 
4.6250805e+3, 2.3458542e+2, -689717.7, -744877.94, -9.317158, 0.00025070205, -0.00006391814, -689717.7, -48654.566, 0.0, 10.001369, 9.928945 
4.62508e+3, 2.4450782e+2, -601406.6, -666938.06, -4.8750205, 0.00025003502, 0.00009779363, -601406.6, -57582.965, 0.0, 10.001363, 9.915507 
4.62508e+3, 2.5442344e+2, -502671.28, -568274.75, -8.167071, 0.00024919581, -0.00008478604, -502671.28, -56020.793, 0.0, 10.001356, 9.915407 
4.62508e+3, 2.6433197e+2, -414448.2, -490926.56, -3.3959742, 0.00024847637, 0.00016112672, -414448.2, -64901.445, 0.0, 10.001349, 9.901339 
4.6250796e+3, 2.7423385e+2, -315179.16, -391324.9, -6.600957, 0.00024790916, -0.00018469141, -315179.16, -62670.95, 0.0, 10.001344, 9.901759 
4.6250796e+3, 2.8412753e+2, -228716.3, -318036.84, -1.5569063, 0.00024742127, 0.0002465557, -228716.28, -73166.0, 0.0, 10.001338, 9.884817 
4.6250796e+3, 2.940134e+2, -129025.68, -217731.53, -4.2722416, 0.00024704007, -0.00023634467, -129025.68, -70356.88, 0.0, 10.001332, 9.885595 
4.625079e+3, 3.039272e+2, -39307.023, -84734.83, 1.1485453, 0.00024634143, 0.000188164, -39307.023, -39307.023, 0.0, 10.001327, 9.941545 
4.625079e+3, 3.1387064e+2, -38237.605, -82500.49, -1.6402704, 0.0002451725, -0.000044242275, -38237.605, -38237.605, 0.0, 10.001321, 9.943055 
4.635085e+3, 1.2500589e+2, -1718204.5, -1724114.6, -1.1867886, 0.00026336027, 0.00008389152, -1718204.5, -3261.8628, 0.0, 10.001451, 9.993617 
4.6350846e+3, 1.3499936e+2, -1620844.4, -1627340.5, -5.30452, 0.00026177958, -0.00009416565, -1620844.4, -3837.6704, 0.0, 10.001443, 9.992833 
4.635084e+3, 1.4498632e+2, -1532716.8, -1547983.0, -4.560671, 0.00026064788, 0.00016847368, -1532716.8, -13582.24, 0.0, 10.001435, 9.981204 
4.635084e+3, 1.5496749e+2, -1435009.0, -1450672.8, -8.399053, 0.00025996173, -0.000019114994, -1435009.0, -13690.119, 0.0, 10.001428, 9.980673 
4.6350834e+3, 1.6494206e+2, -1346973.9, -1371813.1, -6.6736846, 0.00025920384, 0.00006392601, -1346973.9, -23405.77, 0.0, 10.00142, 9.968591 
4.6350834e+3, 1.7491071e+2, -1249035.3, -1274184.6, -10.487374, 0.00025837403, -0.00003932187, -1249035.3, -23159.883, 0.0, 10.001412, 9.968177 
4.635083e+3, 1.8487272e+2, -1160965.9, -1195597.4, -8.013374, 0.00025764797, 0.00010581771, -1160965.9, -32718.178, 0.0, 10.001405, 9.955744 
4.635083e+3, 1.948285e+2, -1062834.9, -1097723.4, -11.819918, 0.00025702929, -0.00002616971, -1062834.9, -32153.814, 0.0, 10.001398, 9.955401 
4.6350825e+3, 2.047776e+2, -974683.7, -1019330.9, -8.640644, 0.0002561807, 0.00009575891, -974683.7, -41503.96, 0.0, 10.00139, 9.942644 
4.6350825e+3, 2.1472028e+2, -876415.4, -921318.75, -12.22499, 0.0002550837, -0.0000982094, -876415.4, -40673.918, 0.0, 10.001383, 9.942304 
4.635082e+3, 2.2465627e+2, -788141.6, -843059.4, -8.262368, 0.0002543023, 0.00014866558, -788141.6, -49772.875, 0.0, 10.001376, 9.929266 
4.635082e+3, 2.345856e+2, -689725.2, -744893.0, -11.772124, 0.00025387702, -0.0000638673, -689725.1, -48663.87, 0.0, 10.001369, 9.928935 
4.6350816e+3, 2.4450798e+2, -601413.8, -666952.75, -7.412244, 0.00025327917, 0.000097950564, -601413.8, -57591.93, 0.0, 10.001363, 9.915498 
4.6350816e+3, 2.544236e+2, -502678.4, -568289.4, -10.708146, 0.00025247477, -0.000083859806, -502678.4, -56029.566, 0.0, 10.001356, 9.915398 
4.635081e+3, 2.6433215e+2, -414455.38, -490941.38, -5.7004976, 0.00025169898, 0.0001622253, -414455.38, -64910.188, 0.0, 10.001349, 9.901329 
4.635081e+3, 2.74234e+2, -315186.25, -391339.66, -8.890426, 0.00025095965, -0.00018418065, -315186.25, -62679.51, 0.0, 10.001344, 9.90175 
4.635081e+3, 2.8412768e+2, -228722.8, -318050.47, -3.7374985, 0.0002504129, 0.00024676186, -228722.8, -73173.88, 0.0, 10.001338, 9.884808 
4.6350807e+3, 2.9401353e+2, -129032.06, -217744.98, -6.4443994, 0.00025012836, -0.00023605241, -129032.06, -70364.55, 0.0, 10.001332, 9.885587 
4.6350807e+3, 3.0392733e+2, -39314.047, -84749.664, -0.919386, 0.0002494979, 0.00018872645, -39314.047, -39314.047, 0.0, 10.001327, 9.941534 
4.6350807e+3, 3.1387076e+2, -38244.715, -82515.51, -3.6943135, 0.00024835364, -0.000043139724, -38244.715, -38244.715, 0.0, 10.001321, 9.943045 
4.6450865e+3, 1.250062e+2, -1718136.8, -1724090.9, 1.6531458, 0.00026699388, 0.000084533145, -1718136.8, -3197.108, 0.0, 10.001498, 9.993607 
4.645086e+3, 1.3499965e+2, -1620778.4, -1627317.9, -2.4029648, 0.00026515455, -0.000093221795, -1620778.4, -3774.6282, 0.0, 10.00149, 9.992823 
4.6450853e+3, 1.4498658e+2, -1532651.8, -1547960.5, -1.7733276, 0.0002639439, 0.00016945554, -1532651.8, -13520.042, 0.0, 10.001482, 9.981194 
4.6450853e+3, 1.5496776e+2, -1434945.0, -1450651.0, -5.8563776, 0.00026335858, -0.000018360051, -1434945.0, -13628.74, 0.0, 10.001473, 9.980662 
4.645085e+3, 1.6494232e+2, -1346910.5, -1371791.5, -4.2148924, 0.00026262575, 0.0000645703, -1346910.5, -23344.967, 0.0, 10.001465, 9.96858 
4.645085e+3, 1.7491096e+2, -1248972.9, -1274163.8, -8.110574, 0.000261744, -0.00003866987, -1248972.9, -23100.06, 0.0, 10.001457, 9.968166 
4.6450844e+3, 1.8487296e+2, -1160904.5, -1195577.0, -5.561857, 0.00026094852, 0.00010650116, -1160904.5, -32659.223, 0.0, 10.00145, 9.955734 
4.6450844e+3, 1.9482872e+2, -1062774.8, -1097703.9, -9.337473, 0.00026024226, -0.000025430105, -1062774.8, -32095.95, 0.0, 10.001441, 9.955391 
4.6450838e+3, 2.0477784e+2, -974624.06, -1019311.56, -6.1580877, 0.00025942072, 0.00009650526, -974624.06, -41446.563, 0.0, 10.001433, 9.942635 
4.6450838e+3, 2.147205e+2, -876356.1, -921299.9, -9.911431, 0.00025847452, -0.00009750965, -876356.1, -40616.78, 0.0, 10.001427, 9.942293 
4.6450835e+3, 2.2465648e+2, -788083.25, -843041.06, -5.920689, 0.00025767396, 0.00014932519, -788083.25, -49716.527, 0.0, 10.001419, 9.929256 
4.6450835e+3, 2.345858e+2, -689668.44, -744875.7, -9.569889, 0.0002570376, -0.000063240506, -689668.44, -48609.07, 0.0, 10.001411, 9.9289255 
4.645083e+3, 2.4450818e+2, -601357.75, -666935.44, -5.2021937, 0.00025638286, 0.00009854555, -601357.75, -57537.645, 0.0, 10.001405, 9.915488 
4.645083e+3, 2.544238e+2, -502622.56, -568272.3, -8.516746, 0.00025570556, -0.00008329545, -502622.56, -55975.445, 0.0, 10.001398, 9.915388 
4.6450827e+3, 2.643323e+2, -414400.25, -490925.16, -3.4125912, 0.00025496553, 0.00016279455, -414400.25, -64856.684, 0.0, 10.001391, 9.9013195 
4.6450827e+3, 2.7423418e+2, -315132.16, -391324.13, -6.709786, 0.00025414556, -0.00018356144, -315132.16, -62626.926, 0.0, 10.001385, 9.901739 
4.6450827e+3, 2.841278e+2, -228669.08, -318034.56, -1.5744306, 0.00025354908, 0.00024733812, -228669.08, -73121.6, 0.0, 10.001378, 9.884798 
4.645082e+3, 2.9401368e+2, -128979.26, -217729.61, -4.4618745, 0.00025325757, -0.00023564654, -128979.26, -70313.09, 0.0, 10.001372, 9.885577 
4.645082e+3, 3.0392745e+2, -39262.758, -84735.94, 1.1196804, 0.0002526004, 0.00018917088, -39262.758, -39262.758, 0.0, 10.001366, 9.9415245 
4.645082e+3, 3.1387088e+2, -38193.805, -82502.05, -1.4558364, 0.00025139982, -0.00004234514, -38193.805, -38193.805, 0.0, 10.00136, 9.943035 
4.655088e+3, 1.2500651e+2, -1718146.0, -1724108.3, -1.486059, 0.00027055191, 0.0000854564, -1718146.0, -3209.3792, 0.0, 10.001498, 9.993595 
4.6550873e+3, 1.3499996e+2, -1620787.5, -1627335.3, -5.543305, 0.0002685025, -0.000092576935, -1620787.5, -3786.6895, 0.0, 10.00149, 9.992812 
4.6550873e+3, 1.449869e+2, -1532660.8, -1547977.9, -4.848283, 0.00026729007, 0.00017011275, -1532660.8, -13531.947, 0.0, 10.001482, 9.981183 
4.655087e+3, 1.5496805e+2, -1434953.9, -1450668.3, -8.930398, 0.0002669115, -0.000017399527, -1434953.9, -13640.441, 0.0, 10.001473, 9.980652 
4.6550864e+3, 1.6494259e+2, -1346918.9, -1371808.0, -7.241112, 0.0002662123, 0.00006550698, -1346918.9, -23356.09, 0.0, 10.001466, 9.96857 
4.6550864e+3, 1.7491123e+2, -1248981.3, -1274180.1, -11.13767, 0.0002651883, -0.000038089587, -1248981.3, -23110.984, 0.0, 10.001457, 9.968156 
4.6550858e+3, 1.848732e+2, -1160912.6, -1195593.0, -8.515596, 0.00026421112, 0.000106974825, -1160912.6, -32669.787, 0.0, 10.00145, 9.955724 
4.6550858e+3, 1.9482896e+2, -1062782.8, -1097719.8, -12.291312, 0.00026328195, -0.000024802646, -1062782.8, -32106.322, 0.0, 10.001442, 9.955381 
4.6550855e+3, 2.0477806e+2, -974632.1, -1019327.5, -8.962481, 0.00026257744, 0.00009719636, -974632.1, -41456.844, 0.0, 10.001434, 9.942624 
4.655085e+3, 2.1472071e+2, -876364.06, -921315.7, -12.712438, 0.00026211527, -0.00009685229, -876364.0, -40626.867, 0.0, 10.001427, 9.942284 
4.655085e+3, 2.2465669e+2, -788091.06, -843056.8, -8.70102, 0.00026133182, 0.00015013885, -788091.06, -49726.438, 0.0, 10.001419, 9.929246 
4.6550846e+3, 2.34586e+2, -689676.2, -744891.4, -12.349208, 0.0002601852, -0.000062055915, -689676.2, -48618.78, 0.0, 10.001411, 9.928915 
4.6550846e+3, 2.4450836e+2, -601365.0, -666950.25, -7.737339, 0.00025935148, 0.00009956483, -601365.0, -57546.777, 0.0, 10.001405, 9.915479 
4.6550846e+3, 2.5442398e+2, -502629.7, -568287.0, -11.043085, 0.00025889074, -0.00008308099, -502629.7, -55984.37, 0.0, 10.001398, 9.915379 
4.655084e+3, 2.643325e+2, -414407.63, -490940.4, -5.879666, 0.00025827577, 0.00016285184, -414407.63, -64865.75, 0.0, 10.001391, 9.901309 
4.655084e+3, 2.7423435e+2, -315139.44, -391339.3, -9.172065, 0.00025746357, -0.00018283675, -315139.44, -62635.82, 0.0, 10.001385, 9.90173 
4.6550834e+3, 2.8412795e+2, -228675.94, -318048.9, -3.9167967, 0.00025682608, 0.000248273, -228675.94, -73129.945, 0.0, 10.001378, 9.8847885 
4.6550834e+3, 2.9401383e+2, -128985.984, -217743.81, -6.7943087, 0.0002564273, -0.00023513046, -128985.984, -70321.21, 0.0, 10.001372, 9.885568 
4.6550834e+3, 3.0392757e+2, -39269.492, -84750.19, -1.0348214, 0.00025565154, 0.00018950131, -39269.492, -39269.492, 0.0, 10.001367, 9.941515 
4.655083e+3, 3.13871e+2, -38200.563, -82516.33, -3.591517, 0.0002543163, -0.00004184821, -38200.56, -38200.56, 0.0, 10.001361, 9.943026 
4.6650892e+3, 1.2500684e+2, -1718076.8, -1724084.0, 1.6428005, 0.00027404827, 0.000086447464, -1718076.8, -3143.3237, 0.0, 10.001547, 9.993585 
4.665089e+3, 1.3500027e+2, -1620719.4, -1627311.8, -2.6357374, 0.0002720447, -0.0000918314, -1620719.4, -3721.6323, 0.0, 10.001538, 9.992801 
4.665089e+3, 1.449872e+2, -1532593.4, -1547954.6, -1.9705088, 0.00027083408, 0.00017083352, -1532593.4, -13467.571, 0.0, 10.00153, 9.981173 
4.6650884e+3, 1.5496834e+2, -1434887.8, -1450645.8, -6.0155873, 0.00027041315, -0.000016482658, -1434887.8, -13577.189, 0.0, 10.00152, 9.98064 
4.6650878e+3, 1.6494289e+2, -1346853.8, -1371785.9, -4.3397465, 0.00026967103, 0.00006643263, -1346853.8, -23293.723, 0.0, 10.001512, 9.968559 
4.6650878e+3, 1.749115e+2, -1248917.5, -1274158.9, -8.40397, 0.00026860356, -0.000037345537, -1248917.5, -23049.813, 0.0, 10.001503, 9.968145 
4.6650875e+3, 1.8487346e+2, -1160849.6, -1195572.0, -5.8222847, 0.0002675876, 0.00010767458, -1160849.6, -32609.377, 0.0, 10.001494, 9.955713 
4.6650875e+3, 1.9482921e+2, -1062720.9, -1097699.5, -9.736929, 0.0002666245, -0.000024004063, -1062720.9, -32046.883, 0.0, 10.001487, 9.955371 
4.665087e+3, 2.047783e+2, -974571.0, -1019307.7, -6.2870793, 0.00026589588, 0.00009796694, -974571.0, -41398.09, 0.0, 10.001478, 9.942614 
4.6650866e+3, 2.1472095e+2, -876303.8, -921296.5, -10.0199795, 0.0002654202, -0.00009624663, -876303.8, -40568.875, 0.0, 10.001471, 9.942273 
4.6650866e+3, 2.2465691e+2, -788031.5, -843038.06, -5.933789, 0.0002646461, 0.00015081222, -788031.5, -49668.99, 0.0, 10.001463, 9.929235 
4.665086e+3, 2.3458621e+2, -689617.2, -744873.1, -9.571212, 0.00026353452, -0.000061052146, -689617.2, -48561.85, 0.0, 10.001455, 9.928905 
4.665086e+3, 2.4450856e+2, -601306.75, -666932.44, -4.9270663, 0.00026268215, 0.00010054671, -601306.75, -57490.465, 0.0, 10.001448, 9.915468 
4.6650854e+3, 2.5442415e+2, -502572.6, -568269.9, -8.587513, 0.0002621387, -0.00008254126, -502572.6, -55929.113, 0.0, 10.00144, 9.915368 
4.6650854e+3, 2.6433265e+2, -414351.25, -490923.66, -3.460927, 0.00026149242, 0.00016325797, -414351.25, -64811.11, 0.0, 10.001433, 9.901299 
4.6650854e+3, 2.742345e+2, -315083.7, -391323.03, -6.6816425, 0.0002607143, -0.00018217109, -315083.7, -62581.7, 0.0, 10.001427, 9.901719 
4.665085e+3, 2.8412813e+2, -228620.55, -318032.6, -1.3370595, 0.00026007698, 0.0002490551, -228620.55, -73076.11, 0.0, 10.00142, 9.884779 
4.665085e+3, 2.9401395e+2, -128931.49, -217728.06, -4.323761, 0.00025963163, -0.00023442954, -128931.49, -70268.18, 0.0, 10.001413, 9.885558 
4.665085e+3, 3.0392772e+2, -39216.63, -84735.88, 1.3222623, 0.00025878043, 0.00019009356, -39216.63, -39216.63, 0.0, 10.001407, 9.9415045 
4.6650845e+3, 3.1387112e+2, -38148.8, -82502.61, -1.5016116, 0.00025732745, -0.00004140319, -38148.8, -38148.8, 0.0, 10.001401, 9.943015 
4.675091e+3, 1.2500717e+2, -1718086.4, -1724102.4, -1.6666718, 0.00027748646, 0.00008750457, -1718086.4, -3156.2576, 0.0, 10.001547, 9.993573 
4.6750903e+3, 1.350006e+2, -1620728.9, -1627330.0, -5.945734, 0.00027577582, -0.0000909882, -1620728.9, -3734.348, 0.0, 10.001538, 9.992789 
4.6750903e+3, 1.4498751e+2, -1532602.4, -1547971.8, -5.247308, 0.00027457043, 0.0001716161, -1532602.4, -13479.538, 0.0, 10.00153, 9.981162 
4.6750897e+3, 1.5496865e+2, -1434896.6, -1450662.8, -9.292849, 0.00027386652, -0.000015607418, -1434896.6, -13588.957, 0.0, 10.001521, 9.98063 
4.6750894e+3, 1.6494317e+2, -1346862.6, -1371803.0, -7.5908666, 0.0002730075, 0.0000673482, -1346862.6, -23305.365, 0.0, 10.001512, 9.968549 
4.6750894e+3, 1.7491177e+2, -1248926.3, -1274176.0, -11.654912, 0.00027199194, -0.00003644271, -1248926.1, -23061.248, 0.0, 10.001503, 9.968135 
4.6750888e+3, 1.8487373e+2, -1160858.1, -1195588.5, -8.948651, 0.0002710753, 0.00010859329, -1160858.1, -32620.385, 0.0, 10.001494, 9.955703 
4.6750888e+3, 1.9482946e+2, -1062729.1, -1097715.9, -12.861985, 0.00027026088, -0.000023039722, -1062729.1, -32057.688, 0.0, 10.001487, 9.95536 
4.6750885e+3, 2.0477855e+2, -974579.0, -1019323.56, -9.216706, 0.0002693717, 0.00009881474, -974579.0, -41408.477, 0.0, 10.001478, 9.942604 
4.675088e+3, 2.1472119e+2, -876311.7, -921312.25, -12.947821, 0.0002684016, -0.00009569045, -876311.7, -40579.063, 0.0, 10.001471, 9.942263 
4.675088e+3, 2.2465713e+2, -788039.3, -843053.8, -8.786222, 0.00026762942, 0.00015135056, -788039.3, -49679.01, 0.0, 10.001463, 9.929226 
4.6750873e+3, 2.3458643e+2, -689624.94, -744888.75, -12.42184, 0.00026708012, -0.000060222566, -689624.94, -48571.68, 0.0, 10.001455, 9.928895 
4.6750873e+3, 2.4450877e+2, -601314.7, -666948.6, -7.6643825, 0.000266364, 0.00010149299, -601314.7, -57500.426, 0.0, 10.001448, 9.915458 
4.675087e+3, 2.5442433e+2, -502580.47, -568286.0, -11.318441, 0.00026544838, -0.000081686616, -502580.47, -55938.883, 0.0, 10.001441, 9.915358 
4.675087e+3, 2.6433286e+2, -414358.53, -490938.75, -6.0054536, 0.00026461954, 0.00016400176, -414358.53, -64820.21, 0.0, 10.001433, 9.901289 
4.675087e+3, 2.7423468e+2, -315090.84, -391337.97, -9.216082, 0.00026390096, -0.00018156206, -315090.84, -62590.582, 0.0, 10.001427, 9.90171 
4.6750864e+3, 2.841283e+2, -228627.58, -318047.34, -3.8239903, 0.00026330366, 0.00024968997, -228627.58, -73084.766, 0.0, 10.00142, 9.884769 
4.6750864e+3, 2.9401413e+2, -128938.43, -217742.7, -6.806551, 0.0002628705, -0.00023354932, -128938.43, -70276.64, 0.0, 10.001413, 9.885549 
4.6750858e+3, 3.039279e+2, -39223.848, -84751.16, -1.0923913, 0.00026198555, 0.00019093948, -39223.848, -39223.848, 0.0, 10.001408, 9.941494 
4.6750858e+3, 3.1387123e+2, -38156.063, -82517.98, -3.9086862, 0.000260431, -0.000041008127, -38156.063, -38156.063, 0.0, 10.001401, 9.943005 
4.6850923e+3, 1.2500751e+2, -1718014.6, -1724077.4, 1.8357818, 0.00028115438, 0.000088406574, -1718014.6, -3087.7961, 0.0, 10.001597, 9.993561 
4.6850923e+3, 1.3500091e+2, -1620658.8, -1627306.0, -2.5941715, 0.00027945542, -0.00008993246, -1620658.8, -3667.4006, 0.0, 10.001588, 9.992778 
4.6850917e+3, 1.4498782e+2, -1532533.1, -1547947.5, -1.9890066, 0.00027820066, 0.0001726231, -1532533.1, -13413.412, 0.0, 10.001578, 9.981151 
4.6850914e+3, 1.5496895e+2, -1434829.0, -1450639.6, -6.150434, 0.0002773862, -0.000014852089, -1434829.0, -13524.397, 0.0, 10.001569, 9.980619 
4.6850914e+3, 1.6494347e+2, -1346796.3, -1371780.6, -4.4032106, 0.00027646465, 0.00006808278, -1346796.3, -23241.887, 0.0, 10.001559, 9.968538 
4.6850908e+3, 1.7491207e+2, -1248860.8, -1274154.3, -8.503626, 0.00027543542, -0.000035494122, -1248860.8, -22998.648, 0.0, 10.001551, 9.968124 
4.6850902e+3, 1.8487401e+2, -1160793.3, -1195566.9, -5.686253, 0.00027454135, 0.000109624634, -1160793.3, -32558.273, 0.0, 10.001541, 9.955692 
4.6850902e+3, 1.9482975e+2, -1062665.3, -1097694.9, -9.635872, 0.0002737872, -0.000022062413, -1062665.3, -31996.377, 0.0, 10.001533, 9.95535 
4.68509e+3, 2.0477879e+2, -974516.06, -1019303.25, -5.9814677, 0.0002728446, 0.00009972474, -974516.06, -41348.074, 0.0, 10.001524, 9.942594 
4.6850893e+3, 2.1472144e+2, -876250.1, -921292.75, -9.9790535, 0.00027169829, -0.00009486206, -876250.1, -40519.89, 0.0, 10.001515, 9.942252 
4.6850893e+3, 2.2465736e+2, -787978.4, -843034.56, -5.8096523, 0.00027087214, 0.0001520703, -787978.4, -49620.367, 0.0, 10.001508, 9.929215 
4.685089e+3, 2.3458666e+2, -689564.44, -744869.9, -9.544831, 0.00027040704, -0.000059641956, -689564.44, -48513.363, 0.0, 10.0015, 9.9288845 
4.685089e+3, 2.4450898e+2, -601254.75, -666930.4, -4.718818, 0.00026973852, 0.00010214737, -601254.75, -57442.605, 0.0, 10.0014925, 9.915447 
4.6850884e+3, 2.5442454e+2, -502521.3, -568268.3, -8.288405, 0.0002688268, -0.000080704725, -502521.3, -55881.72, 0.0, 10.001485, 9.915347 
4.6850884e+3, 2.6433304e+2, -414300.06, -490921.34, -2.9084475, 0.0002679616, 0.00016501416, -414300.06, -64763.637, 0.0, 10.001477, 9.901279 
4.6850884e+3, 2.7423486e+2, -315033.53, -391321.28, -6.4049153, 0.00026715564, -0.00018089698, -315033.53, -62535.066, 0.0, 10.001471, 9.901699 
4.6850878e+3, 2.841285e+2, -228570.86, -318030.63, -1.0927163, 0.0002665002, 0.00025021605, -228570.86, -73029.734, 0.0, 10.001463, 9.88476 
4.6850878e+3, 2.9401428e+2, -128882.484, -217726.48, -4.1156454, 0.0002660491, -0.00023287577, -128882.484, -70222.29, 0.0, 10.001456, 9.885539 
4.6850875e+3, 3.0392805e+2, -39169.37, -84736.56, 1.5580723, 0.0002651678, 0.00019166805, -39169.37, -39169.37, 0.0, 10.00145, 9.9414835 
4.6850875e+3, 3.138714e+2, -38102.043, -82503.69, -1.3283647, 0.00026364863, -0.000040363902, -38102.043, -38102.043, 0.0, 10.001443, 9.942994 
4.6950942e+3, 1.2500785e+2, -1718024.6, -1724096.4, -1.7637008, 0.00028504536, 0.000089159694, -1718024.6, -3101.2478, 0.0, 10.001597, 9.993549 
4.6950936e+3, 1.3500127e+2, -1620668.6, -1627324.9, -6.19245, 0.0002830867, -0.00008867108, -1620668.6, -3680.6338, 0.0, 10.001588, 9.992766 
4.6950933e+3, 1.4498815e+2, -1532542.3, -1547965.3, -5.569744, 0.00028172994, 0.00017384707, -1532542.3, -13425.809, 0.0, 10.001578, 9.98114 
4.6950927e+3, 1.5496927e+2, -1434838.1, -1450657.3, -9.732263, 0.00028097111, -0.000014211853, -1434838.1, -13536.58, 0.0, 10.001569, 9.980608 
4.6950927e+3, 1.6494377e+2, -1346805.1, -1371797.9, -7.8009834, 0.00028003947, 0.000068643356, -1346805.1, -23253.764, 0.0, 10.001559, 9.968527 
4.695092e+3, 1.7491235e+2, -1248869.6, -1274171.4, -11.900515, 0.00027893338, -0.000034500816, -1248869.5, -23010.322, 0.0, 10.001551, 9.968113 
4.6950918e+3, 1.848743e+2, -1160801.8, -1195583.5, -8.943086, 0.0002779878, 0.000110765264, -1160801.8, -32569.521, 0.0, 10.001541, 9.955682 
4.6950918e+3, 1.9483002e+2, -1062673.6, -1097711.4, -12.892904, 0.0002772086, -0.000021071906, -1062673.6, -32007.42, 0.0, 10.001533, 9.955339 
4.6950912e+3, 2.0477907e+2, -974524.6, -1019320.25, -9.148964, 0.0002763159, 0.00010069548, -974524.6, -41359.176, 0.0, 10.001524, 9.942582 
4.6950912e+3, 2.1472168e+2, -876258.5, -921309.6, -13.14399, 0.00027530047, -0.00009377037, -876258.5, -40530.785, 0.0, 10.001515, 9.942242 
4.695091e+3, 2.2465761e+2, -787986.4, -843050.75, -8.685403, 0.00027436644, 0.00015296559, -787986.4, -49630.75, 0.0, 10.001508, 9.929205 
4.6950904e+3, 2.3458688e+2, -689572.3, -744885.94, -12.413848, 0.0002735239, -0.0000593013, -689572.3, -48523.54, 0.0, 10.0015, 9.928874 
4.6950904e+3, 2.445092e+2, -601262.56, -666946.25, -7.553546, 0.00027281756, 0.000102520455, -601262.56, -57452.55, 0.0, 10.0014925, 9.915437 
4.6950898e+3, 2.5442475e+2, -502529.0, -568284.1, -11.121866, 0.00027227285, -0.00007959929, -502529.0, -55891.465, 0.0, 10.001485, 9.915338 
4.6950898e+3, 2.6433322e+2, -414307.88, -490937.5, -5.6581507, 0.0002715124, 0.00016628661, -414307.88, -64773.414, 0.0, 10.001477, 9.901269 
4.6950898e+3, 2.7423504e+2, -315041.28, -391337.38, -9.149742, 0.0002704771, -0.00018017729, -315041.28, -62544.645, 0.0, 10.001471, 9.901689 
4.6950895e+3, 2.8412867e+2, -228578.02, -318045.63, -3.703706, 0.00026966867, 0.00025063756, -228578.02, -73038.63, 0.0, 10.001463, 9.884749 
4.6950895e+3, 2.9401442e+2, -128889.49, -217741.3, -6.71591, 0.00026917047, -0.0002324014, -128889.49, -70230.945, 0.0, 10.001456, 9.885529 
4.695089e+3, 3.039282e+2, -39176.71, -84752.12, -0.95778996, 0.00026832896, 0.00019228377, -39176.71, -39176.71, 0.0, 10.00145, 9.941473 
4.695089e+3, 3.1387156e+2, -38109.438, -82519.35, -3.8353527, 0.00026697764, -0.000039478393, -38109.438, -38109.438, 0.0, 10.001443, 9.942984 
4.7050956e+3, 1.2500823e+2, -1717950.6, -1724070.4, 1.9062191, 0.00028896265, 0.00009008061, -1717950.6, -3030.7568, 0.0, 10.00165, 9.993538 
4.7050953e+3, 1.3500161e+2, -1620596.6, -1627300.1, -2.4876444, 0.00028673152, -0.00008754332, -1620596.6, -3612.0603, 0.0, 10.001638, 9.992754 
4.7050947e+3, 1.4498849e+2, -1532471.5, -1547940.6, -1.828733, 0.00028527982, 0.00017500913, -1532471.5, -13358.314, 0.0, 10.001628, 9.981129 
4.7050947e+3, 1.5496959e+2, -1434768.8, -1450633.5, -6.1719494, 0.00028460353, -0.000013188452, -1434768.8, -13470.3545, 0.0, 10.001618, 9.980597 
4.705094e+3, 1.649441e+2, -1346736.6, -1371774.5, -4.1507998, 0.00028367314, 0.00006960742, -1346736.6, -23188.414, 0.0, 10.001608, 9.968516 
4.7050938e+3, 1.7491266e+2, -1248802.5, -1274148.9, -8.277794, 0.0002824857, -0.000033515378, -1248802.5, -22946.275, 0.0, 10.001598, 9.968102 
4.7050938e+3, 1.848746e+2, -1160735.8, -1195561.6, -5.2256155, 0.0002814659, 0.00011173012, -1160735.8, -32506.387, 0.0, 10.001589, 9.955671 
4.7050932e+3, 1.948303e+2, -1062608.5, -1097690.3, -9.389376, 0.00028061986, -0.000020171416, -1062608.5, -31945.102, 0.0, 10.00158, 9.955328 
4.705093e+3, 2.0477934e+2, -974460.06, -1019299.4, -5.5661764, 0.00027976293, 0.00010162005, -974460.06, -41297.28, 0.0, 10.001572, 9.942572 
4.705093e+3, 2.1472193e+2, -876194.4, -921289.2, -9.510107, 0.00027889406, -0.000092726244, -876194.4, -40469.195, 0.0, 10.001563, 9.942231 
4.7050923e+3, 2.2465786e+2, -787923.06, -843030.9, -4.9920225, 0.00027793777, 0.0001539872, -787923.06, -49569.887, 0.0, 10.0015545, 9.929194 
4.7050923e+3, 2.3458713e+2, -689510.44, -744866.94, -9.024745, 0.00027688243, -0.000058462596, -689510.44, -48464.01, 0.0, 10.001546, 9.928864 
4.7050917e+3, 2.4450943e+2, -601201.3, -666927.3, -4.200269, 0.00027607635, 0.00010328761, -601201.3, -57393.527, 0.0, 10.001538, 9.915426 
4.7050917e+3, 2.54425e+2, -502468.2, -568265.56, -7.840387, 0.0002755669, -0.00007877078, -502468.2, -55832.81, 0.0, 10.001531, 9.915327 
4.7050914e+3, 2.6433343e+2, -414247.8, -490919.84, -2.3994899, 0.00027483783, 0.00016712965, -414247.8, -64715.37, 0.0, 10.001523, 9.9012575 
4.7050914e+3, 2.7423525e+2, -314981.94, -391320.28, -6.001838, 0.00027382863, -0.00017937952, -314981.94, -62487.24, 0.0, 10.001515, 9.901678 
4.7050908e+3, 2.8412884e+2, -228518.97, -318028.1, -0.5865639, 0.0002730268, 0.0002514044, -228518.97, -72981.414, 0.0, 10.001508, 9.88474 
4.7050908e+3, 2.9401463e+2, -128831.516, -217724.4, -3.7654252, 0.00027250854, -0.00023164575, -128831.516, -70174.695, 0.0, 10.0015, 9.885519 
4.7050902e+3, 3.0392835e+2, -39120.566, -84737.055, 1.8463172, 0.000271606, 0.00019299833, -39120.566, -39120.566, 0.0, 10.001493, 9.9414625 
4.7050902e+3, 3.138717e+2, -38054.137, -82504.79, -1.180158, 0.00027013334, -0.000038849033, -38054.137, -38054.137, 0.0, 10.001486, 9.942973 
4.7150972e+3, 1.250086e+2, -1717960.5, -1724089.3, -2.0703228, 0.00029290683, 0.00009116372, -1717960.5, -3044.3157, 0.0, 10.00165, 9.993526 
4.7150972e+3, 1.3500197e+2, -1620606.5, -1627318.9, -6.464693, 0.00029039083, -0.00008654353, -1620606.5, -3625.3948, 0.0, 10.001639, 9.992743 
4.7150967e+3, 1.4498883e+2, -1532481.1, -1547959.1, -5.6405883, 0.00028885092, 0.0001761123, -1532481.1, -13371.302, 0.0, 10.001629, 9.981117 
4.715096e+3, 1.5496993e+2, -1434778.1, -1450651.9, -9.983108, 0.00028828313, -0.000011795238, -1434778.1, -13483.124, 0.0, 10.001618, 9.980585 
4.7150958e+3, 1.6494441e+2, -1346745.6, -1371791.9, -7.7904563, 0.00028736488, 0.00007096084, -1346745.6, -23200.531, 0.0, 10.001608, 9.968505 
4.7150958e+3, 1.7491297e+2, -1248811.4, -1274166.1, -11.919403, 0.00028609176, -0.000032536795, -1248811.4, -22958.182, 0.0, 10.001598, 9.968091 
4.7150952e+3, 1.8487489e+2, -1160744.6, -1195579.3, -8.616029, 0.00028497577, 0.00011252632, -1160744.6, -32518.268, 0.0, 10.001589, 9.95566 
4.715095e+3, 1.9483058e+2, -1062617.3, -1097707.6, -12.777451, 0.0002840226, -0.000019357136, -1062617.3, -31956.768, 0.0, 10.00158, 9.9553175 
4.715095e+3, 2.0477961e+2, -974468.44, -1019316.1, -8.744379, 0.00028318787, 0.000102500664, -974468.44, -41308.45, 0.0, 10.001572, 9.942561 
4.7150943e+3, 2.1472222e+2, -876202.7, -921305.8, -12.686183, 0.00028248073, -0.00009172722, -876202.7, -40480.156, 0.0, 10.001563, 9.94222 
4.7150937e+3, 2.2465813e+2, -787931.7, -843048.25, -8.130355, 0.00028158474, 0.00015513142, -787931.7, -49581.055, 0.0, 10.0015545, 9.929183 
4.7150937e+3, 2.3458737e+2, -689519.0, -744884.25, -12.161241, 0.00028047516, -0.000057142955, -689519.0, -48474.97, 0.0, 10.001546, 9.928852 
4.7150934e+3, 2.4450967e+2, -601209.25, -666943.56, -7.0738506, 0.00027950964, 0.00010443534, -601209.25, -57403.793, 0.0, 10.001538, 9.915416 
4.7150934e+3, 2.544252e+2, -502476.0, -568281.7, -10.704914, 0.00027871554, -0.00007820887, -502476.0, -55842.848, 0.0, 10.001531, 9.915317 
4.7150928e+3, 2.6433364e+2, -414255.84, -490936.44, -5.2407327, 0.0002779471, 0.00016755905, -414255.84, -64725.508, 0.0, 10.001523, 9.901247 
4.7150928e+3, 2.7423546e+2, -314989.88, -391336.8, -8.8413925, 0.0002772104, -0.00017850583, -314989.88, -62497.18, 0.0, 10.001515, 9.901667 
4.7150922e+3, 2.8412902e+2, -228526.42, -318043.78, -3.3829305, 0.00027656907, 0.00025250498, -228526.42, -72990.77, 0.0, 10.001508, 9.884729 
4.7150922e+3, 2.940148e+2, -128838.83, -217739.9, -6.5585003, 0.0002760568, -0.00023061816, -128838.83, -70183.82, 0.0, 10.0015, 9.885509 
4.715092e+3, 3.0392852e+2, -39128.188, -84753.22, -0.8677402, 0.00027499598, 0.00019380875, -39128.188, -39128.188, 0.0, 10.001493, 9.941452 
4.715092e+3, 3.1387186e+2, -38061.813, -82521.055, -3.8867834, 0.0002731229, -0.000038466387, -38061.813, -38061.813, 0.0, 10.001486, 9.942962 
4.7250992e+3, 1.2500899e+2, -1717885.0, -1724062.5, 2.2799602, 0.00029679138, 0.00009247436, -1717885.0, -2972.5935, 0.0, 10.001702, 9.993514 
4.7250986e+3, 1.3500234e+2, -1620532.6, -1627293.3, -2.254881, 0.0002942397, -0.00008539193, -1620532.6, -3555.2053, 0.0, 10.001691, 9.99273 
4.725098e+3, 1.4498919e+2, -1532408.4, -1547933.8, -1.2880691, 0.00029263107, 0.00017720272, -1532408.4, -13302.079, 0.0, 10.001679, 9.981106 
4.7250977e+3, 1.5497027e+2, -1434706.9, -1450627.5, -5.624421, 0.0002919614, -0.0000106682855, -1434706.9, -13415.192, 0.0, 10.001669, 9.980574 
4.7250977e+3, 1.6494475e+2, -1346675.4, -1371768.0, -3.3803089, 0.00029098857, 0.00007206619, -1346675.4, -23133.611, 0.0, 10.001658, 9.968493 
4.725097e+3, 1.749133e+2, -1248742.4, -1274143.3, -7.8235335, 0.00028970896, -0.000031512103, -1248742.4, -22892.424, 0.0, 10.001648, 9.96808 
4.7250968e+3, 1.8487522e+2, -1160676.6, -1195556.8, -4.4171515, 0.00028857746, 0.000113571914, -1160676.6, -32453.332, 0.0, 10.001638, 9.955649 
4.7250968e+3, 1.9483088e+2, -1062550.4, -1097685.9, -8.645065, 0.0002875994, -0.000018184839, -1062550.4, -31892.764, 0.0, 10.001629, 9.955306 
4.7250962e+3, 2.0477991e+2, -974402.25, -1019294.7, -4.5200915, 0.0002867097, 0.00010360534, -974402.25, -41245.066, 0.0, 10.001619, 9.94255 
4.7250956e+3, 2.147225e+2, -876137.3, -921285.06, -8.704134, 0.0002859152, -0.00009089975, -876137.3, -40417.547, 0.0, 10.001611, 9.942209 
4.7250956e+3, 2.2465838e+2, -787866.94, -843028.1, -4.1403785, 0.0002850431, 0.00015598028, -787866.94, -49518.95, 0.0, 10.001602, 9.929172 
4.7250953e+3, 2.3458762e+2, -689454.56, -744864.44, -8.142883, 0.00028408298, -0.00005593577, -689454.56, -48413.066, 0.0, 10.001594, 9.928841 
4.7250947e+3, 2.4450992e+2, -601145.4, -666924.06, -3.0682173, 0.00028310728, 0.00010563985, -601145.4, -57342.36, 0.0, 10.001586, 9.915405 
4.7250947e+3, 2.5442544e+2, -502413.5, -568263.0, -7.094417, 0.00028211263, -0.000077437486, -502413.5, -55782.633, 0.0, 10.001577, 9.915305 
4.725094e+3, 2.643339e+2, -414194.13, -490918.22, -1.7389964, 0.00028125642, 0.00016819585, -414194.13, -64665.996, 0.0, 10.001569, 9.901236 
4.725094e+3, 2.7423567e+2, -314928.75, -391319.03, -5.365609, 0.0002805756, -0.00017762337, -314928.75, -62438.16, 0.0, 10.001561, 9.901656 
4.7250938e+3, 2.8412923e+2, -228465.5, -318025.7, 0.07593994, 0.00027997504, 0.00025350286, -228465.5, -72931.836, 0.0, 10.001554, 9.884719 
4.7250938e+3, 2.9401502e+2, -128778.69, -217722.34, -3.1892729, 0.00027948216, -0.00022968475, -128778.69, -70125.56, 0.0, 10.001546, 9.885498 
4.7250938e+3, 3.039287e+2, -39069.953, -84737.73, 2.2874074, 0.00027838303, 0.00019466726, -39069.953, -39069.953, 0.0, 10.001538, 9.941441 
4.7250932e+3, 3.1387204e+2, -38004.71, -82506.23, -0.9789526, 0.0002763862, -0.000037696223, -38004.71, -38004.71, 0.0, 10.001531, 9.94295 
4.7351006e+3, 1.2500937e+2, -1717895.3, -1724082.1, -1.9842039, 0.00030062013, 0.00009400476, -1717895.3, -2986.6975, 0.0, 10.001702, 9.993502 
4.7351e+3, 1.3500273e+2, -1620542.8, -1627312.8, -6.517725, 0.0002982724, -0.00008409355, -1620542.8, -3569.0706, 0.0, 10.001691, 9.992719 
4.7351e+3, 1.4498957e+2, -1532417.9, -1547952.1, -5.332627, 0.00029661375, 0.00017828157, -1532417.9, -13315.252, 0.0, 10.00168, 9.981094 
4.7350997e+3, 1.5497065e+2, -1434716.3, -1450645.8, -9.669273, 0.00029563982, -0.0000097965785, -1434716.3, -13428.147, 0.0, 10.001669, 9.980562 
4.735099e+3, 1.649451e+2, -1346685.0, -1371786.8, -7.2278495, 0.00029454823, 0.00007293379, -1346685.0, -23146.625, 0.0, 10.001658, 9.968482 
4.7350988e+3, 1.7491363e+2, -1248751.9, -1274161.9, -11.671224, 0.00029333826, -0.000030442317, -1248751.9, -22905.21, 0.0, 10.001648, 9.968068 
4.7350988e+3, 1.8487553e+2, -1160685.6, -1195574.5, -7.9619684, 0.00029226893, 0.000114858245, -1160685.6, -32465.549, 0.0, 10.001638, 9.955638 
4.7350982e+3, 1.948312e+2, -1062559.3, -1097703.6, -12.190051, 0.00029134518, -0.000016667025, -1062559.3, -31904.758, 0.0, 10.001629, 9.955295 
4.7350976e+3, 2.047802e+2, -974411.1, -1019312.5, -7.8238616, 0.0002903262, 0.00010492658, -974411.1, -41256.93, 0.0, 10.001619, 9.942538 
4.7350976e+3, 2.147228e+2, -876146.1, -921302.7, -12.005495, 0.0002892043, -0.00009023687, -876146.1, -40429.188, 0.0, 10.001611, 9.942198 
4.7350973e+3, 2.2465868e+2, -787875.56, -843045.44, -7.26683, 0.0002883211, 0.00015654531, -787875.56, -49530.242, 0.0, 10.001602, 9.92916 
4.7350967e+3, 2.345879e+2, -689463.0, -744881.6, -11.26522, 0.00028770676, -0.00005483609, -689463.0, -48424.145, 0.0, 10.001594, 9.928829 
4.7350967e+3, 2.4451017e+2, -601154.06, -666941.9, -6.1750164, 0.0002868646, 0.00010689986, -601154.06, -57353.57, 0.0, 10.001586, 9.915393 
4.735096e+3, 2.544257e+2, -502422.1, -568280.75, -10.200444, 0.00028575037, -0.000076463664, -502422.1, -55793.63, 0.0, 10.001577, 9.915294 
4.735096e+3, 2.643341e+2, -414202.22, -490935.03, -4.6489697, 0.00028475965, 0.00016903302, -414202.22, -64676.38, 0.0, 10.00157, 9.901225 
4.7350958e+3, 2.742359e+2, -314936.75, -391335.7, -8.264839, 0.00028392603, -0.00017673188, -314936.75, -62448.31, 0.0, 10.001562, 9.901645 
4.7350958e+3, 2.8412944e+2, -228473.11, -318041.7, -2.8313823, 0.0002832509, 0.0002544024, -228473.11, -72941.51, 0.0, 10.001554, 9.884708 
4.7350952e+3, 2.940152e+2, -128786.17, -217738.19, -6.0984735, 0.00028279045, -0.00022884141, -128786.17, -70135.0, 0.0, 10.001546, 9.885488 
4.7350952e+3, 3.0392888e+2, -39077.99, -84754.78, -0.6833614, 0.00028176856, 0.00019557278, -39077.99, -39077.99, 0.0, 10.001538, 9.941429 
4.7350946e+3, 3.1387222e+2, -38012.824, -82523.445, -3.9565551, 0.00027991453, -0.00003655199, -38012.824, -38012.824, 0.0, 10.001531, 9.942939 
4.7451025e+3, 1.2500978e+2, -1717818.4, -1724054.8, 2.9002717, 0.00030456632, 0.0000955323, -1717818.4, -2913.7864, 0.0, 10.001757, 9.99349 
4.745102e+3, 1.3500313e+2, -1620467.0, -1627286.1, -1.5872868, 0.0003021813, -0.00008285849, -1620467.0, -3497.1563, 0.0, 10.001744, 9.992706 
4.7451016e+3, 1.4498994e+2, -1532343.0, -1547925.9, -0.2501718, 0.0003004653, 0.00017949383, -1532343.0, -13244.136, 0.0, 10.001733, 9.981082 
4.745101e+3, 1.54971e+2, -1434643.0, -1450620.5, -4.6805983, 0.0002994138, -0.000008337658, -1434643.0, -13358.532, 0.0, 10.001721, 9.980551 
4.745101e+3, 1.6494547e+2, -1346613.3, -1371762.9, -2.0728707, 0.0002982762, 0.00007445646, -1346613.3, -23078.418, 0.0, 10.00171, 9.96847 
4.7451004e+3, 1.7491399e+2, -1248681.3, -1274138.6, -6.651013, 0.0002970523, -0.000029041528, -1248681.3, -22837.965, 0.0, 10.001699, 9.968057 
4.7451e+3, 1.8487588e+2, -1160615.8, -1195551.8, -2.8280246, 0.00029597423, 0.000116160016, -1160615.8, -32398.863, 0.0, 10.001689, 9.955626 
4.7450995e+3, 1.9483152e+2, -1062490.0, -1097681.4, -7.427654, 0.00029504712, -0.00001544052, -1062490.0, -31838.69, 0.0, 10.001679, 9.955283 
4.7450995e+3, 2.0478052e+2, -974342.6, -1019290.7, -3.1609552, 0.00029399814, 0.0001060938, -974342.6, -41191.44, 0.0, 10.00167, 9.942527 
4.7450992e+3, 2.1472308e+2, -876078.6, -921281.6, -7.623114, 0.00029281745, -0.000089111694, -876078.6, -40364.57, 0.0, 10.00166, 9.942186 
4.7450987e+3, 2.2465897e+2, -787808.56, -843024.4, -2.9173498, 0.0002918808, 0.00015756222, -787808.56, -49466.074, 0.0, 10.001652, 9.929149 
4.7450987e+3, 2.3458816e+2, -689396.9, -744861.2, -7.1028256, 0.00029121907, -0.000054002125, -689396.9, -48360.727, 0.0, 10.001643, 9.928818 
4.745098e+3, 2.4451044e+2, -601088.7, -666922.25, -2.0562856, 0.00029040338, 0.00010774796, -601088.7, -57290.797, 0.0, 10.001635, 9.915381 
4.7450978e+3, 2.5442594e+2, -502357.22, -568261.56, -6.122212, 0.00028940343, -0.0000753667, -502357.22, -55731.242, 0.0, 10.001626, 9.915282 
4.7450978e+3, 2.6433435e+2, -414137.88, -490915.97, -0.59885585, 0.00028840583, 0.00017018653, -414137.88, -64614.41, 0.0, 10.001617, 9.901214 
4.7450972e+3, 2.742361e+2, -314873.7, -391317.44, -4.4880257, 0.00028741127, -0.00017576649, -314873.7, -62387.508, 0.0, 10.00161, 9.901633 
4.7450972e+3, 2.8412968e+2, -228410.64, -318023.25, 0.77206665, 0.00028663236, 0.00025524595, -228410.64, -72881.19, 0.0, 10.001601, 9.884697 
4.7450966e+3, 2.940154e+2, -128724.6, -217720.31, -2.6588912, 0.0002861468, -0.00022802819, -128724.6, -70075.48, 0.0, 10.001593, 9.885476 
4.7450966e+3, 3.0392912e+2, -39018.02, -84738.83, 2.578883, 0.0002851538, 0.00019641085, -39018.02, -39018.02, 0.0, 10.001585, 9.941417 
4.7450966e+3, 3.138724e+2, -37953.016, -82507.67, -0.7077956, 0.0002834082, -0.000035607587, -37953.016, -37953.016, 0.0, 10.001577, 9.942927 
4.755104e+3, 1.250102e+2, -1717828.5, -1724074.1, -1.5293834, 0.0003086268, 0.00009705795, -1717828.5, -2928.0227, 0.0, 10.001757, 9.993478 
4.755104e+3, 1.3500352e+2, -1620477.0, -1627305.4, -6.015267, 0.00030597276, -0.000081683145, -1620477.0, -3511.1572, 0.0, 10.001744, 9.992695 
4.7551036e+3, 1.4499034e+2, -1532352.8, -1547944.6, -4.5806413, 0.00030419245, 0.0001808354, -1532352.8, -13257.761, 0.0, 10.001733, 9.9810705 
4.755103e+3, 1.5497139e+2, -1434652.6, -1450639.3, -9.009577, 0.00030328115, -0.000006313568, -1434652.6, -13371.931, 0.0, 10.001721, 9.980539 
4.7551024e+3, 1.6494583e+2, -1346623.1, -1371782.1, -6.083845, 0.00030216738, 0.000076609496, -1346623.1, -23091.957, 0.0, 10.00171, 9.968458 
4.755102e+3, 1.7491433e+2, -1248691.1, -1274157.9, -10.6650715, 0.00030084923, -0.00002732154, -1248691.1, -22851.266, 0.0, 10.001699, 9.968044 
4.7551015e+3, 1.8487622e+2, -1160625.5, -1195571.1, -6.4606543, 0.0002996943, 0.00011747768, -1160625.5, -32412.098, 0.0, 10.001689, 9.955613 
4.7551015e+3, 1.9483186e+2, -1062499.8, -1097700.6, -11.057919, 0.0002987084, -0.000014493292, -1062499.8, -31851.684, 0.0, 10.001679, 9.955271 
4.7551012e+3, 2.0478085e+2, -974352.1, -1019309.7, -6.611474, 0.00029772488, 0.00010711374, -974352.1, -41204.098, 0.0, 10.00167, 9.942514 
4.7551006e+3, 2.1472341e+2, -876088.0, -921300.44, -11.070876, 0.0002967437, -0.000087541055, -876088.0, -40376.992, 0.0, 10.00166, 9.942174 
4.7551006e+3, 2.2465925e+2, -787817.5, -843042.5, -6.1654105, 0.00029571287, 0.00015901448, -787817.5, -49477.95, 0.0, 10.001652, 9.929137 
4.7551e+3, 2.3458846e+2, -689405.75, -744879.2, -10.347439, 0.00029462553, -0.000053423126, -689405.75, -48372.363, 0.0, 10.001643, 9.928806 
4.7550997e+3, 2.4451071e+2, -601097.5, -666940.25, -5.1970844, 0.0002937332, 0.0001082005, -601097.5, -57302.27, 0.0, 10.001635, 9.91537 
4.7550997e+3, 2.544262e+2, -502365.9, -568279.44, -9.258567, 0.00029307263, -0.00007415043, -502365.9, -55742.492, 0.0, 10.001626, 9.91527 
4.755099e+3, 2.6433462e+2, -414146.5, -490933.84, -3.7316034, 0.00029219096, 0.00017164522, -414146.5, -64625.49, 0.0, 10.001617, 9.901202 
4.755099e+3, 2.7423635e+2, -314882.2, -391335.2, -7.62163, 0.0002910276, -0.0001747293, -314882.2, -62398.355, 0.0, 10.00161, 9.901622 
4.7550985e+3, 2.841299e+2, -228418.56, -318039.9, -2.2869475, 0.0002901167, 0.00025603626, -228418.56, -72891.336, 0.0, 10.001601, 9.884686 
4.7550985e+3, 2.9401562e+2, -128732.37, -217736.78, -5.712418, 0.00028955063, -0.00022724336, -128732.37, -70085.37, 0.0, 10.001594, 9.885466 
4.7550982e+3, 3.0392933e+2, -39026.082, -84755.97, -0.42398974, 0.00028854006, 0.00019718462, -39026.082, -39026.082, 0.0, 10.001585, 9.941405 
4.7550982e+3, 3.1387258e+2, -37961.137, -82524.92, -3.7074342, 0.00028686985, -0.00003485484, -37961.133, -37961.133, 0.0, 10.001577, 9.942915 
4.7651058e+3, 1.2501062e+2, -1717750.4, -1724045.9, 3.3719776, 0.0003125486, 0.00009837471, -1717750.4, -2854.1167, 0.0, 10.001811, 9.993466 
4.7651055e+3, 1.3500395e+2, -1620400.3, -1627278.1, -1.0308731, 0.00030974887, -0.00008023267, -1620400.3, -3438.473, 0.0, 10.001799, 9.992682 
4.765105e+3, 1.4499076e+2, -1532276.8, -1547917.6, 0.6812454, 0.00030794623, 0.00018230134, -1532276.8, -13185.681, 0.0, 10.001786, 9.981059 
4.7651044e+3, 1.549718e+2, -1434577.4, -1450612.8, -3.65251, 0.00030713587, -0.000004950559, -1434577.4, -13300.464, 0.0, 10.001775, 9.980528 
4.7651044e+3, 1.6494621e+2, -1346549.5, -1371758.1, -0.58674335, 0.0003060533, 0.00007794244, -1346549.5, -23022.016, 0.0, 10.001763, 9.968445 
4.765104e+3, 1.7491472e+2, -1248618.1, -1274134.5, -5.646893, 0.00030469554, -0.000025944704, -1248618.1, -22782.008, 0.0, 10.001752, 9.968031 
4.7651035e+3, 1.8487658e+2, -1160553.3, -1195548.0, -1.3988304, 0.0003035024, 0.000118768534, -1160553.3, -32343.297, 0.0, 10.001741, 9.955601 
4.7651032e+3, 1.9483222e+2, -1062428.4, -1097678.1, -6.2019076, 0.00030247978, -0.000013423653, -1062428.4, -31783.67, 0.0, 10.001732, 9.955258 
4.7651026e+3, 2.0478119e+2, -974281.2, -1019287.25, -1.7080675, 0.00030149642, 0.000108181004, -974281.2, -41136.47, 0.0, 10.001721, 9.942502 
4.7651026e+3, 2.1472372e+2, -876017.9, -921278.6, -6.288005, 0.0003005552, -0.00008624011, -876017.9, -40310.03, 0.0, 10.001712, 9.942162 
4.765102e+3, 2.2465956e+2, -787748.1, -843021.0, -1.4363897, 0.00029948802, 0.00016030777, -787748.1, -49411.6, 0.0, 10.001703, 9.929125 
4.7651017e+3, 2.3458876e+2, -689337.56, -744858.5, -5.952265, 0.0002982782, -0.000052409876, -689337.56, -48307.086, 0.0, 10.001694, 9.928794 
4.7651017e+3, 2.4451101e+2, -601030.0, -666919.75, -0.8577287, 0.00029731874, 0.00010911413, -601030.0, -57237.555, 0.0, 10.001685, 9.915359 
4.765101e+3, 2.5442648e+2, -502299.2, -568259.5, -5.009683, 0.00029665697, -0.00007312122, -502299.2, -55678.453, 0.0, 10.001677, 9.915258 
4.765101e+3, 2.6433486e+2, -414080.5, -490914.6, 0.42883205, 0.00029579285, 0.00017271283, -414080.5, -64562.04, 0.0, 10.001668, 9.90119 
4.7651005e+3, 2.742366e+2, -314816.88, -391316.47, -3.6202521, 0.0002946706, -0.00017372181, -314816.88, -62335.496, 0.0, 10.001659, 9.90161 
4.7651002e+3, 2.8413013e+2, -228353.4, -318020.66, 1.6211814, 0.00029377354, 0.0002570344, -228353.4, -72828.516, 0.0, 10.001651, 9.884675 
4.7651002e+3, 2.9401585e+2, -128668.14, -217718.1, -1.966814, 0.00029318404, -0.00022618486, -128668.14, -70023.35, 0.0, 10.001642, 9.885454 
4.7650996e+3, 3.0392954e+2, -38963.82, -84739.43, 3.0277953, 0.0002920874, 0.00019815711, -38963.82, -38963.82, 0.0, 10.001634, 9.941393 
4.7650996e+3, 3.138728e+2, -37899.816, -82508.945, -0.59674746, 0.00029023897, -0.00003418553, -37899.816, -37899.816, 0.0, 10.001625, 9.9429035 
4.7751078e+3, 1.2501107e+2, -1717760.4, -1724064.9, -1.275954, 0.00031633908, 0.000099492194, -1717760.4, -2868.4092, 0.0, 10.001811, 9.993455 
4.7751075e+3, 1.3500439e+2, -1620410.0, -1627297.0, -5.677817, 0.00031351173, -0.00007851731, -1620410.0, -3452.531, 0.0, 10.001799, 9.992671 
4.775107e+3, 1.4499117e+2, -1532286.3, -1547936.1, -3.730916, 0.00031172708, 0.00018388749, -1532286.3, -13199.33, 0.0, 10.001786, 9.981048 
4.7751063e+3, 1.549722e+2, -1434586.8, -1450631.1, -8.068797, 0.00031098007, -0.000004220744, -1434586.8, -13313.878, 0.0, 10.001775, 9.980516 
4.775106e+3, 1.6494662e+2, -1346560.4, -1371779.5, -4.707703, 0.00030993574, 0.000078489575, -1346560.4, -23036.84, 0.0, 10.001763, 9.968431 
4.7751054e+3, 1.749151e+2, -1248629.0, -1274155.6, -9.764689, 0.0003085908, -0.000024896346, -1248629.0, -22796.578, 0.0, 10.001752, 9.968018 
4.7751054e+3, 1.8487693e+2, -1160563.5, -1195568.3, -5.15962, 0.0003073966, 0.00012003441, -1160563.5, -32357.197, 0.0, 10.001741, 9.955588 
4.775105e+3, 1.9483256e+2, -1062438.5, -1097698.3, -9.959909, 0.0003063584, -0.00001223557, -1062438.5, -31797.32, 0.0, 10.001732, 9.955245 
4.7751045e+3, 2.0478152e+2, -974290.94, -1019306.75, -5.258463, 0.00030531245, 0.00010929463, -974290.94, -41149.594, 0.0, 10.001721, 9.94249 
4.775104e+3, 2.1472406e+2, -876027.5, -921298.0, -9.835611, 0.000304258, -0.00008519732, -876027.5, -40322.906, 0.0, 10.001713, 9.942149 
4.775104e+3, 2.2465988e+2, -787757.75, -843040.5, -4.8836527, 0.00030321005, 0.00016144922, -787757.75, -49424.36, 0.0, 10.001703, 9.929112 
4.7751036e+3, 2.3458907e+2, -689347.06, -744877.9, -9.3963995, 0.00030216898, -0.00005097859, -689347.06, -48319.6, 0.0, 10.001694, 9.9287815 
4.775103e+3, 2.4451129e+2, -601039.0, -666938.2, -4.10493, 0.0003011514, 0.00011047153, -601039.0, -57249.42, 0.0, 10.001685, 9.915346 
4.775103e+3, 2.5442675e+2, -502308.03, -568277.75, -8.250289, 0.0003001612, -0.00007227106, -502308.03, -55690.066, 0.0, 10.001677, 9.915246 
4.7751024e+3, 2.6433516e+2, -414089.4, -490933.06, -2.7874174, 0.0002992201, 0.00017340532, -414089.4, -64573.594, 0.0, 10.001668, 9.901177 
4.775102e+3, 2.742369e+2, -314825.7, -391334.88, -6.835258, 0.00029834063, -0.00017274215, -314825.7, -62346.82, 0.0, 10.001659, 9.901598 
4.775102e+3, 2.8413036e+2, -228361.63, -318037.97, -1.5798757, 0.0002975977, 0.00025823308, -228361.63, -72839.15, 0.0, 10.001651, 9.884664 
4.7751015e+3, 2.940161e+2, -128676.195, -217735.2, -5.1672187, 0.00029703954, -0.00022486247, -128676.195, -70033.72, 0.0, 10.001642, 9.885443 
4.7751015e+3, 3.0392975e+2, -38972.473, -84757.82, -0.18807489, 0.0002957911, 0.00019932137, -38972.473, -38972.473, 0.0, 10.001634, 9.9413805 
4.775101e+3, 3.1387302e+2, -37908.555, -82527.516, -3.8156939, 0.00029352037, -0.00003359593, -37908.55, -37908.55, 0.0, 10.001625, 9.94289 
4.7851098e+3, 1.2501153e+2, -1717681.8, -1724036.4, 3.4635723, 0.00032013355, 0.00010092091, -1717681.8, -2794.3247, 0.0, 10.001865, 9.993443 
4.7851095e+3, 1.3500482e+2, -1620331.9, -1627268.8, -0.9164233, 0.00031737698, -0.00007718322, -1620331.9, -3378.7002, 0.0, 10.001853, 9.99266 
4.785109e+3, 1.449916e+2, -1532208.6, -1547908.9, 1.0720704, 0.0003156236, 0.00018513841, -1532208.6, -13125.983, 0.0, 10.001841, 9.981035 
4.7851083e+3, 1.5497263e+2, -1434509.5, -1450604.3, -3.7094421, 0.0003148682, -0.000003041952, -1434509.5, -13240.8125, 0.0, 10.001829, 9.980504 
4.785108e+3, 1.6494702e+2, -1346484.5, -1371754.9, -0.21121606, 0.0003138294, 0.00007962789, -1346484.5, -22964.97, 0.0, 10.001818, 9.968418 
4.7851074e+3, 1.7491549e+2, -1248553.6, -1274131.5, -5.143123, 0.00031250424, -0.000023766153, -1248553.6, -22725.11, 0.0, 10.001806, 9.968004 
4.785107e+3, 1.8487734e+2, -1160488.8, -1195544.4, -0.24960952, 0.00031129623, 0.00012121254, -1160488.8, -32286.184, 0.0, 10.001796, 9.955575 
4.7851065e+3, 1.9483294e+2, -1062365.0, -1097675.3, -5.186953, 0.0003102092, -0.00001095122, -1062365.0, -31727.38, 0.0, 10.001785, 9.955232 
4.7851065e+3, 2.0478188e+2, -974218.1, -1019283.8, -0.38544723, 0.00030910925, 0.00011053194, -974218.1, -41080.223, 0.0, 10.001775, 9.942477 
4.785106e+3, 2.1472439e+2, -875955.6, -921275.75, -5.1325035, 0.00030799513, -0.00008417224, -875955.6, -40254.38, 0.0, 10.001765, 9.942137 
4.7851056e+3, 2.2466022e+2, -787686.5, -843018.7, -0.13471337, 0.00030696316, 0.0001624929, -787686.5, -49356.348, 0.0, 10.001756, 9.9291 
4.785105e+3, 2.3458938e+2, -689276.44, -744856.56, -4.7020535, 0.00030602328, -0.000049656, -689276.44, -48252.07, 0.0, 10.001746, 9.928769 
4.785105e+3, 2.4451159e+2, -600968.94, -666917.06, 0.5491596, 0.00030499688, 0.00011179588, -600968.94, -57182.37, 0.0, 10.001737, 9.915334 
4.7851044e+3, 2.5442708e+2, -502239.28, -568257.5, -3.9051874, 0.00030386684, -0.00007127522, -502239.28, -55624.17, 0.0, 10.001728, 9.915234 
4.785104e+3, 2.6433542e+2, -414021.4, -490913.2, 1.4732254, 0.00030286438, 0.00017428568, -414021.4, -64508.336, 0.0, 10.0017185, 9.901165 
4.785104e+3, 2.7423716e+2, -314758.25, -391315.47, -2.6632245, 0.00030202363, -0.000171706, -314758.25, -62282.008, 0.0, 10.00171, 9.901586 
4.7851035e+3, 2.8413063e+2, -228294.2, -318017.97, 2.5058875, 0.0003013005, 0.00025934723, -228294.2, -72774.24, 0.0, 10.001701, 9.884652 
4.7851035e+3, 2.9401633e+2, -128609.54, -217715.72, -1.1855743, 0.0003007359, -0.00022377801, -128609.54, -69969.46, 0.0, 10.001693, 9.885431 
4.785103e+3, 3.0392998e+2, -38907.84, -84740.88, 3.534665, 0.00029945152, 0.0002003633, -38907.84, -38907.84, 0.0, 10.001684, 9.941368 
4.785103e+3, 3.1387323e+2, -37844.652, -82511.086, -0.29235455, 0.00029710148, -0.000032614105, -37844.652, -37844.652, 0.0, 10.001675, 9.942878 
4.7951114e+3, 1.25012e+2, -1717691.6, -1724055.3, -1.1732538, 0.00032393343, 0.000102648446, -1717691.6, -2808.7998, 0.0, 10.001865, 9.993431 
4.7951108e+3, 1.3500528e+2, -1620341.6, -1627287.5, -5.556118, 0.000321342, -0.0000762133, -1620341.6, -3392.9321, 0.0, 10.001853, 9.992647 
4.7951102e+3, 1.4499205e+2, -1532219.1, -1547929.1, -3.340034, 0.00031963264, 0.00018606933, -1532219.1, -13140.865, 0.0, 10.001842, 9.981023 
4.7951102e+3, 1.5497306e+2, -1434520.0, -1450624.4, -8.119187, 0.00031880007, -0.0000014322105, -1434520.0, -13255.447, 0.0, 10.001829, 9.980492 
4.79511e+3, 1.6494745e+2, -1346495.3, -1371775.6, -4.3574185, 0.00031773554, 0.00008133334, -1346495.3, -22979.74, 0.0, 10.001818, 9.968406 
4.7951093e+3, 1.7491591e+2, -1248564.3, -1274152.1, -9.289922, 0.00031643684, -0.000022556607, -1248564.3, -22739.623, 0.0, 10.001807, 9.967992 
4.795109e+3, 1.8487772e+2, -1160499.4, -1195565.3, -4.204887, 0.00031520275, 0.00012230764, -1160499.4, -32300.598, 0.0, 10.001796, 9.955562 
4.7951084e+3, 1.9483331e+2, -1062375.4, -1097695.9, -9.139925, 0.00031403496, -0.000009573658, -1062375.4, -31741.541, 0.0, 10.001785, 9.955219 
4.7951078e+3, 2.0478226e+2, -974228.2, -1019304.0, -4.078019, 0.00031288917, 0.00011188864, -974228.2, -41093.918, 0.0, 10.001776, 9.942464 
4.7951075e+3, 2.1472475e+2, -875965.56, -921295.75, -8.821736, 0.00031176684, -0.000083163344, -875965.56, -40267.816, 0.0, 10.001765, 9.942123 
4.7951075e+3, 2.2466058e+2, -787696.25, -843038.4, -3.6374996, 0.00031074765, 0.00016344365, -787696.25, -49369.426, 0.0, 10.001756, 9.929088 
4.795107e+3, 2.3458971e+2, -689286.0, -744876.1, -8.199438, 0.0003098442, -0.000048436807, -689286.0, -48264.902, 0.0, 10.001746, 9.928757 
4.7951064e+3, 2.4451192e+2, -600978.5, -666936.7, -2.9161181, 0.00030885634, 0.00011308941, -600978.5, -57195.043, 0.0, 10.001738, 9.915321 
4.7951064e+3, 2.5442734e+2, -502248.72, -568277.0, -7.369717, 0.0003077673, -0.00007013877, -502248.72, -55636.594, 0.0, 10.001728, 9.915221 
4.795106e+3, 2.6433572e+2, -414030.5, -490932.1, -1.7972709, 0.00030671852, 0.00017534712, -414030.5, -64520.27, 0.0, 10.001719, 9.901153 
4.7951055e+3, 2.7423742e+2, -314767.2, -391334.22, -5.9223228, 0.00030572052, -0.00017061485, -314767.2, -62293.688, 0.0, 10.00171, 9.901573 
4.7951055e+3, 2.841309e+2, -228302.61, -318035.7, -0.7953057, 0.00030488835, 0.000260381, -228302.61, -72785.234, 0.0, 10.001701, 9.884641 
4.795105e+3, 2.940166e+2, -128617.78, -217733.22, -4.4918976, 0.00030428098, -0.00022292123, -128617.78, -69980.18, 0.0, 10.001693, 9.88542 
4.795105e+3, 3.039302e+2, -38916.816, -84759.984, 0.16257793, 0.00030307195, 0.00020128858, -38916.816, -38916.816, 0.0, 10.001684, 9.941355 
4.7951046e+3, 3.1387344e+2, -37853.727, -82530.4, -3.6720035, 0.00030097188, -0.000031254847, -37853.727, -37853.727, 0.0, 10.001675, 9.942864 
4.8051134e+3, 1.2501249e+2, -1717611.1, -1724026.1, 3.579065, 0.0003279207, 0.00010397898, -1717611.1, -2732.9927, 0.0, 10.001922, 9.993419 
4.8051128e+3, 1.3500576e+2, -1620261.4, -1627258.8, -1.1330093, 0.00032532882, -0.000074944466, -1620261.4, -3317.3032, 0.0, 10.001909, 9.992636 
4.8051122e+3, 1.449925e+2, -1532139.6, -1547901.3, 1.1998782, 0.00032361544, 0.00018734194, -1532139.6, -13065.752, 0.0, 10.001897, 9.98101 
4.805112e+3, 1.5497349e+2, -1434441.0, -1450597.1, -3.4312139, 0.0003227751, -0.000000090573664, -1434441.0, -13180.835, 0.0, 10.001885, 9.980478 
4.8051113e+3, 1.6494788e+2, -1346417.6, -1371750.3, 0.5598002, 0.0003216926, 0.00008269908, -1346417.6, -22906.357, 0.0, 10.001874, 9.968392 
4.8051107e+3, 1.7491633e+2, -1248487.4, -1274127.4, -4.5804214, 0.00032036577, -0.000021212334, -1248487.4, -22666.936, 0.0, 10.001863, 9.9679785 
4.8051107e+3, 1.8487813e+2, -1160423.1, -1195540.8, 0.612255, 0.00031910738, 0.00012361105, -1160423.1, -32228.34, 0.0, 10.001851, 9.955548 
4.8051104e+3, 1.9483371e+2, -1062299.9, -1097672.1, -4.3472543, 0.0003179193, -0.000008331243, -1062299.9, -31669.854, 0.0, 10.001841, 9.955206 
4.8051098e+3, 2.0478262e+2, -974153.3, -1019280.56, 0.85613, 0.00031677066, 0.000113115726, -974153.3, -41022.727, 0.0, 10.00183, 9.9424515 
4.8051095e+3, 2.147251e+2, -875891.56, -921273.0, -4.0993805, 0.0003156643, -0.00008190239, -875891.56, -40197.38, 0.0, 10.00182, 9.94211 
4.805109e+3, 2.2466092e+2, -787622.75, -843015.7, 1.1206348, 0.00031462, 0.0001646571, -787622.75, -49299.383, 0.0, 10.00181, 9.929074 
4.805109e+3, 2.3459005e+2, -689213.5, -744854.1, -3.5396893, 0.00031364514, -0.00004736249, -689213.5, -48195.676, 0.0, 10.001801, 9.928743 
4.8051083e+3, 2.4451226e+2, -600906.7, -666915.25, 1.7388874, 0.0003126662, 0.00011415642, -600906.7, -57126.38, 0.0, 10.001791, 9.915308 
4.805108e+3, 2.5442767e+2, -502177.34, -568256.06, -2.8400285, 0.0003116817, -0.0000689221, -502177.34, -55568.29, 0.0, 10.001781, 9.915208 
4.805108e+3, 2.6433602e+2, -413959.6, -490911.22, 2.7001746, 0.00031062812, 0.00017659311, -413959.6, -64452.31, 0.0, 10.001772, 9.90114 
4.8051074e+3, 2.742377e+2, -314697.5, -391314.13, -1.6144838, 0.0003094863, -0.00016949252, -314697.5, -62226.816, 0.0, 10.001763, 9.901561 
4.8051068e+3, 2.8413117e+2, -228233.3, -318015.2, 3.3560746, 0.00030856143, 0.0002613897, -228233.3, -72718.63, 0.0, 10.001754, 9.884628 
4.8051068e+3, 2.9401684e+2, -128549.24, -217713.25, -0.52594644, 0.00030793177, -0.00022201196, -128549.24, -69914.234, 0.0, 10.001745, 9.885407 
4.8051065e+3, 3.039305e+2, -38850.055, -84742.38, 3.8940141, 0.00030674477, 0.00020221015, -38850.055, -38850.055, 0.0, 10.001736, 9.941342 
4.8051065e+3, 3.1387368e+2, -37787.086, -82513.01, -0.0068538534, 0.00030473206, -0.000030154897, -37787.086, -37787.086, 0.0, 10.001727, 9.942851 
4.8151153e+3, 1.2501298e+2, -1717621.8, -1724046.4, -1.0280224, 0.00033208876, 0.000104931045, -1717621.8, -2748.4556, 0.0, 10.001922, 9.993406 
4.8151147e+3, 1.3500623e+2, -1620271.9, -1627279.0, -5.73786, 0.0003293382, -0.00007338894, -1620271.9, -3332.5193, 0.0, 10.001909, 9.992623 
4.815114e+3, 1.4499298e+2, -1532149.8, -1547921.0, -3.2547305, 0.00032757493, 0.00018894205, -1532149.8, -13080.518, 0.0, 10.001898, 9.980998 
4.8151138e+3, 1.5497395e+2, -1434451.0, -1450616.6, -7.8875365, 0.00032679318, 0.0000009955637, -1434451.0, -13195.357, 0.0, 10.001885, 9.980467 
4.8151132e+3, 1.6494831e+2, -1346428.8, -1371771.9, -3.6852067, 0.00032570024, 0.00008374094, -1346428.8, -22921.81, 0.0, 10.001874, 9.968378 
4.8151127e+3, 1.7491674e+2, -1248498.4, -1274149.0, -8.824113, 0.00032429287, -0.000019738214, -1248498.4, -22682.127, 0.0, 10.001863, 9.967964 
4.8151124e+3, 1.8487854e+2, -1160433.8, -1195561.8, -3.4127417, 0.00032301192, 0.00012511463, -1160433.8, -32243.03, 0.0, 10.001851, 9.955535 
4.8151124e+3, 1.9483411e+2, -1062310.4, -1097692.9, -8.371618, 0.00032186147, -0.0000072173134, -1062310.4, -31684.277, 0.0, 10.001841, 9.955193 
4.8151118e+3, 2.0478302e+2, -974163.9, -1019301.6, -2.9534569, 0.00032075122, 0.00011421972, -974163.9, -41037.082, 0.0, 10.00183, 9.942437 
4.8151115e+3, 2.147255e+2, -875902.0, -921293.94, -7.9042015, 0.00031968398, -0.000080399135, -875902.0, -40211.477, 0.0, 10.001821, 9.942097 
4.815111e+3, 2.2466129e+2, -787632.7, -843035.8, -2.5159514, 0.00031857824, 0.00016612302, -787632.7, -49312.883, 0.0, 10.00181, 9.929062 
4.8151103e+3, 2.3459041e+2, -689223.25, -744874.06, -7.1734695, 0.00031742858, -0.00004642616, -689223.25, -48208.91, 0.0, 10.001801, 9.928731 
4.8151103e+3, 2.4451259e+2, -600916.5, -666935.44, -1.7528056, 0.00031643017, 0.00011500728, -600916.5, -57139.496, 0.0, 10.001791, 9.915295 
4.81511e+3, 2.54428e+2, -502187.06, -568276.06, -6.3246446, 0.0003156112, -0.00006762767, -502187.06, -55581.16, 0.0, 10.001781, 9.915195 
4.8151094e+3, 2.6433635e+2, -413969.03, -490930.88, -0.7679353, 0.0003145926, 0.00017801682, -413969.03, -64464.81, 0.0, 10.001773, 9.901128 
4.8151094e+3, 2.7423802e+2, -314706.8, -391333.66, -5.0828815, 0.00031331967, -0.00016833948, -314706.8, -62239.05, 0.0, 10.001763, 9.901547 
4.8151088e+3, 2.8413147e+2, -228242.02, -318033.63, -0.057112966, 0.00031231774, 0.00026237516, -228242.02, -72730.15, 0.0, 10.001754, 9.884616 
4.8151085e+3, 2.940171e+2, -128557.805, -217731.47, -3.9353464, 0.00031168546, -0.00022105164, -128557.805, -69925.47, 0.0, 10.001745, 9.885396 
4.8151085e+3, 3.0393073e+2, -38859.14, -84761.76, 0.50922203, 0.00031046945, 0.00020312889, -38859.14, -38859.14, 0.0, 10.001736, 9.941329 
4.815108e+3, 3.1387395e+2, -37796.254, -82532.55, -3.3912494, 0.00030838812, -0.00002930285, -37796.254, -37796.254, 0.0, 10.001727, 9.942838 
4.8251173e+3, 1.2501349e+2, -1717538.8, -1724016.3, 3.6594882, 0.00033622546, 0.000106123065, -1717538.8, -2670.3635, 0.0, 10.00198, 9.993394 
4.8251167e+3, 1.3500673e+2, -1620189.6, -1627249.5, -0.9313728, 0.0003334264, -0.00007195672, -1620189.6, -3255.1677, 0.0, 10.001967, 9.992611 
4.825116e+3, 1.4499347e+2, -1532068.4, -1547892.3, 1.687312, 0.00033163463, 0.00019042903, -1532068.4, -13003.874, 0.0, 10.001955, 9.980986 
4.8251158e+3, 1.5497443e+2, -1434370.4, -1450588.6, -3.1568148, 0.00033084414, 0.0000023517173, -1434370.4, -13119.348, 0.0, 10.001943, 9.9804535 
4.8251152e+3, 1.6494878e+2, -1346349.6, -1371746.0, 1.1723948, 0.0003297265, 0.00008503086, -1346349.6, -22847.184, 0.0, 10.00193, 9.968365 
4.8251146e+3, 1.7491719e+2, -1248420.0, -1274123.6, -3.9846702, 0.00032827823, -0.00001844884, -1248420.0, -22608.031, 0.0, 10.001919, 9.967951 
4.8251143e+3, 1.8487896e+2, -1160355.8, -1195536.8, 1.5682524, 0.00032699222, 0.00012638274, -1160355.8, -32169.227, 0.0, 10.001908, 9.955522 
4.8251137e+3, 1.9483453e+2, -1062232.9, -1097668.4, -3.588761, 0.00032587396, -0.000005992093, -1062232.9, -31610.93, 0.0, 10.001897, 9.955178 
4.8251134e+3, 2.0478341e+2, -974086.94, -1019277.5, 1.9299083, 0.000324766, 0.00011547009, -974086.94, -40964.12, 0.0, 10.001886, 9.942424 
4.8251134e+3, 2.147259e+2, -875825.9, -921270.5, -3.0238564, 0.00032366894, -0.00007905023, -875825.9, -40139.203, 0.0, 10.001876, 9.942083 
4.8251128e+3, 2.2466165e+2, -787557.25, -843012.7, 2.4159558, 0.0003225303, 0.00016744244, -787557.25, -49241.086, 0.0, 10.001866, 9.929049 
4.8251122e+3, 2.3459075e+2, -689148.6, -744851.56, -2.5216956, 0.00032134427, -0.000045280598, -689148.6, -48137.805, 0.0, 10.001856, 9.928718 
4.825112e+3, 2.4451295e+2, -600842.4, -666913.1, 2.9027708, 0.00032031577, 0.00011610693, -600842.4, -57068.777, 0.0, 10.001846, 9.915281 
4.825112e+3, 2.5442833e+2, -502113.7, -568254.3, -1.690577, 0.0003194742, -0.000066421526, -502113.7, -55511.07, 0.0, 10.001837, 9.915182 
4.8251113e+3, 2.6433665e+2, -413896.25, -490909.63, 3.8237958, 0.00031845184, 0.00017923085, -413896.25, -64395.16, 0.0, 10.001827, 9.901114 
4.8251107e+3, 2.7423832e+2, -314634.66, -391312.9, -0.6755251, 0.0003171991, -0.00016724301, -314634.66, -62169.91, 0.0, 10.001818, 9.901534 
4.8251107e+3, 2.8413177e+2, -228169.89, -318012.25, 4.231665, 0.0003162066, 0.0002634411, -228169.89, -72660.914, 0.0, 10.001808, 9.8846035 
4.8251104e+3, 2.9401743e+2, -128486.47, -217710.63, 0.1891906, 0.0003155689, -0.00021989703, -128486.47, -69856.91, 0.0, 10.0018, 9.885384 
4.8251098e+3, 3.03931e+2, -38789.86, -84743.5, 4.3332767, 0.00031429014, 0.00020422842, -38789.86, -38789.86, 0.0, 10.00179, 9.941316 
4.8251098e+3, 3.138742e+2, -37727.633, -82514.766, 0.11464487, 0.00031206134, -0.000028471937, -37727.633, -37727.633, 0.0, 10.0017805, 9.942824 
4.8351192e+3, 1.25014e+2, -1717549.0, -1724036.0, -1.0438114, 0.00034033405, 0.00010754497, -1717549.0, -2685.7844, 0.0, 10.00198, 9.9933815 
4.8351187e+3, 1.3500723e+2, -1620199.9, -1627269.1, -5.6348624, 0.0003375917, -0.00007064119, -1620199.9, -3270.3418, 0.0, 10.001967, 9.992599 
4.835118e+3, 1.4499396e+2, -1532079.0, -1547912.9, -2.844425, 0.00033579182, 0.0001918091, -1532079.0, -13019.352, 0.0, 10.001955, 9.980972 
4.8351178e+3, 1.5497491e+2, -1434381.0, -1450609.0, -7.688145, 0.00033492837, 0.0000039667216, -1434381.0, -13134.572, 0.0, 10.001943, 9.980441 
4.8351172e+3, 1.6494925e+2, -1346360.8, -1371767.8, -3.1284392, 0.0003337724, 0.00008655857, -1346360.8, -22862.9, 0.0, 10.001931, 9.968351 
4.8351166e+3, 1.7491765e+2, -1248431.0, -1274145.3, -8.286188, 0.00033232113, -0.000017335076, -1248431.0, -22623.48, 0.0, 10.00192, 9.967937 
4.8351163e+3, 1.848794e+2, -1160366.8, -1195558.5, -2.4982328, 0.0003310468, 0.00012742686, -1160366.8, -32184.564, 0.0, 10.001908, 9.955508 
4.8351157e+3, 1.9483496e+2, -1062243.9, -1097690.0, -7.6526585, 0.00032995545, -0.0000046595906, -1062243.9, -31626.002, 0.0, 10.001898, 9.955165 
4.8351154e+3, 2.0478384e+2, -974097.5, -1019298.6, -1.9764264, 0.00032881537, 0.0001168612, -974097.5, -40978.707, 0.0, 10.001886, 9.94241 
4.8351154e+3, 2.1472628e+2, -875836.3, -921291.44, -6.928581, 0.00032762255, -0.00007784801, -875836.3, -40153.523, 0.0, 10.001877, 9.94207 
4.8351148e+3, 2.2466204e+2, -787567.75, -843033.94, -1.3243966, 0.00032647833, 0.00016862273, -787567.75, -49255.363, 0.0, 10.001866, 9.929034 
4.8351142e+3, 2.3459114e+2, -689159.0, -744872.75, -6.2566233, 0.0003253883, -0.000043933982, -689159.0, -48151.82, 0.0, 10.001856, 9.928703 
4.835114e+3, 2.4451329e+2, -600852.25, -666933.4, -0.6759041, 0.0003243195, 0.0001174454, -600852.25, -57082.164, 0.0, 10.001846, 9.915269 
4.8351133e+3, 2.5442868e+2, -502123.4, -568274.44, -5.2639227, 0.00032327525, -0.00006529903, -502123.4, -55524.184, 0.0, 10.001837, 9.915169 
4.8351133e+3, 2.6433697e+2, -413906.03, -490929.97, 0.29622352, 0.00032221212, 0.00018024509, -413906.03, -64408.19, 0.0, 10.001827, 9.901101 
4.8351127e+3, 2.7423865e+2, -314644.3, -391333.16, -4.200752, 0.00032112436, -0.00016619984, -314644.3, -62182.688, 0.0, 10.001818, 9.901521 
4.8351124e+3, 2.841321e+2, -228178.92, -318031.34, 0.714874, 0.0003202241, 0.0002645849, -228178.92, -72672.93, 0.0, 10.001809, 9.884591 
4.8351124e+3, 2.940177e+2, -128495.32, -217729.48, -3.3273635, 0.00031957836, -0.00021855555, -128495.32, -69868.63, 0.0, 10.0018, 9.88537 
4.8351118e+3, 3.0393127e+2, -38799.49, -84764.04, 0.8105947, 0.00031820446, 0.00020550188, -38799.49, -38799.49, 0.0, 10.00179, 9.941301 
4.8351112e+3, 3.1387448e+2, -37737.37, -82535.52, -3.4099283, 0.00031575258, -0.00002766062, -37737.37, -37737.37, 0.0, 10.0017805, 9.94281 
4.8451212e+3, 1.2501454e+2, -1717464.4, -1724004.9, 3.857836, 0.00034450254, 0.00010892107, -1717464.4, -2606.2788, 0.0, 10.002038, 9.993369 
4.8451206e+3, 1.3500777e+2, -1620115.8, -1627238.5, -0.82254094, 0.000341754, -0.00006928243, -1620115.8, -3191.313, 0.0, 10.002026, 9.992586 
4.84512e+3, 1.4499447e+2, -1531995.9, -1547883.5, 2.1004257, 0.0003399424, 0.00019318915, -1531995.9, -12941.11, 0.0, 10.002013, 9.98096 
4.8451197e+3, 1.549754e+2, -1434298.4, -1450580.3, -2.7716982, 0.00033906137, 0.0000054064208, -1434298.4, -13056.802, 0.0, 10.002001, 9.980428 
4.845119e+3, 1.6494972e+2, -1346279.6, -1371741.3, 1.9095901, 0.00033790115, 0.00008796585, -1346279.6, -22786.443, 0.0, 10.001989, 9.968337 
4.8451185e+3, 1.7491812e+2, -1248350.5, -1274119.3, -3.4441078, 0.00033645917, -0.000016053495, -1248350.5, -22547.629, 0.0, 10.001978, 9.967923 
4.8451182e+3, 1.8487987e+2, -1160286.9, -1195533.0, 2.474271, 0.0003351623, 0.00012867471, -1160286.9, -32109.152, 0.0, 10.001966, 9.955494 
4.8451176e+3, 1.9483541e+2, -1062164.8, -1097665.1, -2.7214987, 0.00033401538, -0.000003349815, -1062164.8, -31551.229, 0.0, 10.001955, 9.955151 
4.8451173e+3, 2.0478426e+2, -974018.9, -1019273.94, 3.0464015, 0.00033284095, 0.00011815969, -974018.9, -40904.25, 0.0, 10.001945, 9.942397 
4.8451167e+3, 2.147267e+2, -875758.25, -921267.25, -2.088479, 0.00033163663, -0.00007663967, -875758.25, -40079.508, 0.0, 10.001934, 9.942056 
4.8451167e+3, 2.2466244e+2, -787490.2, -843010.25, 3.576547, 0.00033050176, 0.00016984415, -787490.2, -49181.727, 0.0, 10.001924, 9.929021 
4.845116e+3, 2.3459153e+2, -689082.1, -744849.56, -1.3943827, 0.00032944453, -0.00004258319, -689082.1, -48078.684, 0.0, 10.001913, 9.92869 
4.8451158e+3, 2.4451366e+2, -600775.75, -666910.3, 4.193415, 0.00032835265, 0.000118783595, -600775.75, -57009.33, 0.0, 10.001904, 9.915255 
4.8451152e+3, 2.5442904e+2, -502047.9, -568252.06, -0.6296096, 0.00032721885, -0.0000641425, -502047.9, -55452.152, 0.0, 10.001894, 9.915155 
4.8451146e+3, 2.6433733e+2, -413831.13, -490908.16, 4.8643203, 0.00032611858, 0.00018131775, -413831.13, -64336.664, 0.0, 10.0018835, 9.901088 
4.8451146e+3, 2.7423894e+2, -314569.9, -391311.78, 0.24177098, 0.00032506033, -0.00016508655, -314569.9, -62111.52, 0.0, 10.001875, 9.901507 
4.8451144e+3, 2.841324e+2, -228104.36, -318009.16, 5.047226, 0.0003241732, 0.00026572534, -228104.36, -72601.47, 0.0, 10.001865, 9.884578 
4.8451138e+3, 2.94018e+2, -128421.414, -217707.78, 0.89639884, 0.00032351783, -0.00021740714, -128421.414, -69797.695, 0.0, 10.001856, 9.885358 
4.8451138e+3, 3.039316e+2, -38727.703, -84745.29, 4.790264, 0.00032212838, 0.0002066347, -38727.703, -38727.703, 0.0, 10.001846, 9.941287 
4.8451132e+3, 3.1387475e+2, -37666.08, -82517.21, 0.37136158, 0.00031965246, -0.000026577682, -37666.08, -37666.08, 0.0, 10.001837, 9.942796 
4.8551235e+3, 1.2501508e+2, -1717474.9, -1724025.0, -0.8793892, 0.00034872998, 0.00011025458, -1717474.9, -2622.1396, 0.0, 10.002039, 9.993357 
4.8551226e+3, 1.350083e+2, -1620126.1, -1627258.6, -5.560418, 0.00034591535, -0.00006788154, -1620126.1, -3206.9268, 0.0, 10.002026, 9.992574 
4.855122e+3, 1.4499499e+2, -1532006.5, -1547904.3, -2.4676802, 0.00034408853, 0.00019457006, -1532006.5, -12956.884, 0.0, 10.002013, 9.980947 
4.8551217e+3, 1.549759e+2, -1434308.9, -1450600.8, -7.3393893, 0.0003432429, 0.0000066799157, -1434308.9, -13072.319, 0.0, 10.002002, 9.980415 
4.855121e+3, 1.6495022e+2, -1346291.1, -1371763.8, -2.4645584, 0.0003421109, 0.000089259294, -1346291.1, -22802.822, 0.0, 10.001989, 9.968323 
4.8551205e+3, 1.7491859e+2, -1248362.0, -1274141.8, -7.8174586, 0.0003406899, -0.0000146108505, -1248362.0, -22563.734, 0.0, 10.001978, 9.967909 
4.8551202e+3, 1.8488035e+2, -1160298.0, -1195554.9, -1.6743504, 0.00033933792, 0.00013011789, -1160298.0, -32124.805, 0.0, 10.001966, 9.95548 
4.8551196e+3, 1.9483584e+2, -1062175.8, -1097686.9, -6.869157, 0.0003380566, -0.0000020607604, -1062175.8, -31566.607, 0.0, 10.001955, 9.955137 
4.8551193e+3, 2.0478469e+2, -974029.8, -1019295.75, -0.89817697, 0.00033684573, 0.00011937075, -974029.8, -40919.438, 0.0, 10.001945, 9.942383 
4.8551187e+3, 2.1472713e+2, -875769.06, -921288.94, -6.02979, 0.00033571044, -0.0000754246, -875769.06, -40094.426, 0.0, 10.001934, 9.942042 
4.8551187e+3, 2.2466284e+2, -787500.75, -843031.7, -0.21394789, 0.00033459914, 0.00017110565, -787500.75, -49196.305, 0.0, 10.001924, 9.929007 
4.855118e+3, 2.3459192e+2, -689092.56, -744870.9, -5.180621, 0.00033351424, -0.000041227464, -689092.56, -48092.992, 0.0, 10.001914, 9.928676 
4.8551178e+3, 2.4451403e+2, -600786.06, -666931.56, 0.48666865, 0.00033241577, 0.000120122495, -600786.06, -57023.387, 0.0, 10.001904, 9.915241 
4.8551172e+3, 2.544294e+2, -502058.1, -568273.1, -4.3337293, 0.00033130049, -0.00006295259, -502058.1, -55465.938, 0.0, 10.001894, 9.915141 
4.8551166e+3, 2.643377e+2, -413841.16, -490929.03, 1.3163885, 0.0003301665, 0.00018244705, -413841.16, -64350.152, 0.0, 10.001884, 9.901073 
4.8551166e+3, 2.7423933e+2, -314579.8, -391332.53, -3.2968984, 0.00032900838, -0.0001639054, -314579.8, -62124.734, 0.0, 10.001875, 9.901494 
4.8551163e+3, 2.8413272e+2, -228113.56, -318028.66, 1.4662125, 0.00032805873, 0.00026686338, -228113.56, -72613.875, 0.0, 10.001865, 9.884565 
4.8551157e+3, 2.9401833e+2, -128430.445, -217727.05, -2.6898446, 0.00032739225, -0.0002164425, -128430.445, -69809.8, 0.0, 10.001856, 9.885345 
4.8551157e+3, 3.039319e+2, -38737.656, -84766.54, 1.1760155, 0.00032606328, 0.00020763387, -38737.656, -38737.656, 0.0, 10.001846, 9.941273 
4.855115e+3, 3.1387502e+2, -37676.152, -82538.71, -3.2464986, 0.00032375366, -0.000025234116, -37676.152, -37676.152, 0.0, 10.001837, 9.942781 
4.8651254e+3, 1.2501565e+2, -1717388.0, -1723993.1, 4.0506787, 0.0003529839, 0.00011162807, -1717388.0, -2540.7466, 0.0, 10.002099, 9.993344 
4.865125e+3, 1.3500884e+2, -1620040.1, -1627227.4, -0.75556904, 0.00035012592, -0.00006650526, -1620040.1, -3126.2476, 0.0, 10.002086, 9.99256 
4.8651245e+3, 1.4499553e+2, -1531921.4, -1547874.0, 2.4727302, 0.00034827978, 0.00019594688, -1531921.4, -12876.946, 0.0, 10.002073, 9.980934 
4.8651236e+3, 1.5497643e+2, -1434224.4, -1450571.1, -2.4302979, 0.00034743853, 0.000008054738, -1434224.4, -12992.892, 0.0, 10.002061, 9.980402 
4.865123e+3, 1.6495073e+2, -1346208.3, -1371736.6, 2.6139295, 0.0003463001, 0.00009063124, -1346208.3, -22724.877, 0.0, 10.002049, 9.968308 
4.8651224e+3, 1.7491908e+2, -1248279.6, -1274115.1, -2.7993352, 0.00034486182, -0.000013242527, -1248279.6, -22486.271, 0.0, 10.002037, 9.967895 
4.865122e+3, 1.8488081e+2, -1160216.1, -1195528.6, 3.4660113, 0.00034349645, 0.0001314651, -1160216.1, -32047.635, 0.0, 10.002026, 9.955466 
4.8651215e+3, 1.9483632e+2, -1062094.6, -1097661.1, -1.8978353, 0.00034220587, -0.00000075287704, -1062094.6, -31489.998, 0.0, 10.002014, 9.955123 
4.865121e+3, 2.0478515e+2, -973949.1, -1019270.5, 4.163471, 0.00034098545, 0.00012066484, -973949.1, -40843.203, 0.0, 10.002004, 9.9423685 
4.8651206e+3, 2.1472755e+2, -875689.0, -921264.2, -1.0844121, 0.00033984036, -0.00007411677, -875689.0, -40018.656, 0.0, 10.001993, 9.942028 
4.8651206e+3, 2.2466327e+2, -787421.1, -843007.2, 4.783717, 0.00033870782, 0.00017239814, -787421.1, -49120.785, 0.0, 10.001983, 9.928992 
4.86512e+3, 2.3459233e+2, -689013.56, -744846.9, -0.2868569, 0.00033758872, -0.00003998309, -689013.56, -48017.99, 0.0, 10.001972, 9.928661 
4.8651198e+3, 2.4451444e+2, -600707.56, -666908.0, 5.3770823, 0.0003364938, 0.00012134939, -600707.56, -56948.703, 0.0, 10.001962, 9.915227 
4.8651192e+3, 2.544298e+2, -501980.0, -568250.06, 0.39801276, 0.00033542697, -0.00006170677, -501980.0, -55391.56, 0.0, 10.001952, 9.915128 
4.8651186e+3, 2.6433805e+2, -413763.53, -490906.28, 6.0015893, 0.0003342776, 0.00018368266, -413763.53, -64276.098, 0.0, 10.001943, 9.901059 
4.8651183e+3, 2.7423966e+2, -314503.16, -391310.47, 1.2306627, 0.0003330229, -0.00016271694, -314503.16, -62051.504, 0.0, 10.001933, 9.90148 
4.8651183e+3, 2.8413305e+2, -228036.97, -318005.94, 5.8485966, 0.00033202386, 0.00026799436, -228036.97, -72540.57, 0.0, 10.001923, 9.884552 
4.8651177e+3, 2.9401866e+2, -128354.4, -217704.75, 1.497595, 0.00033137255, -0.00021538323, -128354.4, -69736.914, 0.0, 10.001913, 9.885332 
4.865117e+3, 3.039322e+2, -38663.527, -84747.12, 5.10918, 0.00033006884, 0.00020869327, -38663.523, -38663.523, 0.0, 10.001904, 9.941257 
4.865117e+3, 3.1387535e+2, -37602.094, -82519.53, 0.5568702, 0.00032779892, -0.00002406746, -37602.094, -37602.094, 0.0, 10.001894, 9.942766 
4.8751274e+3, 1.2501621e+2, -1717398.8, -1724013.9, -0.7742333, 0.00035726503, 0.00011304061, -1717398.8, -2557.14, 0.0, 10.002099, 9.993331 
4.875127e+3, 1.350094e+2, -1620050.9, -1627247.9, -5.579501, 0.00035438535, -0.00006515143, -1620050.9, -3142.3823, 0.0, 10.002087, 9.992548 
4.8751265e+3, 1.4499606e+2, -1531932.1, -1547894.8, -2.1358266, 0.00035251593, 0.00019732077, -1531932.1, -12893.019, 0.0, 10.002073, 9.980921 
4.875126e+3, 1.5497696e+2, -1434235.0, -1450591.8, -7.0394464, 0.00035164956, 0.000009527011, -1434235.0, -13008.712, 0.0, 10.002061, 9.98039 
4.8751256e+3, 1.6495125e+2, -1346219.9, -1371759.5, -1.8020471, 0.00035047173, 0.000092078895, -1346219.9, -22741.623, 0.0, 10.002049, 9.968294 
4.8751244e+3, 1.7491959e+2, -1248291.3, -1274137.9, -7.2155213, 0.0003489796, -0.000011943997, -1248291.3, -22502.736, 0.0, 10.002037, 9.96788 
4.875124e+3, 1.848813e+2, -1160227.6, -1195551.3, -0.7458448, 0.00034764077, 0.00013272197, -1160227.6, -32063.88, 0.0, 10.002026, 9.955451 
4.8751235e+3, 1.948368e+2, -1062105.9, -1097683.8, -6.1076713, 0.00034646018, 0.0000005738913, -1062105.9, -31505.96, 0.0, 10.002015, 9.955109 
4.875123e+3, 2.0478562e+2, -973960.3, -1019292.8, 0.17800042, 0.0003452559, 0.00012203897, -973960.3, -40858.863, 0.0, 10.002004, 9.942354 
4.8751226e+3, 2.14728e+2, -875700.0, -921286.4, -5.066303, 0.00034402584, -0.00007271953, -875700.0, -40034.04, 0.0, 10.001993, 9.942014 
4.8751226e+3, 2.2466369e+2, -787431.94, -843029.06, 0.9387753, 0.00034282924, 0.00017372111, -787431.94, -49135.797, 0.0, 10.001983, 9.928979 
4.875122e+3, 2.3459274e+2, -689024.2, -744868.6, -4.129088, 0.00034166963, -0.000038844024, -689024.2, -48032.72, 0.0, 10.001972, 9.928648 
4.8751217e+3, 2.4451485e+2, -600718.2, -666929.9, 1.6672103, 0.00034058798, 0.00012247034, -600718.2, -56963.285, 0.0, 10.001963, 9.915213 
4.875121e+3, 2.5443017e+2, -501990.5, -568271.8, -3.305647, 0.0003395983, -0.000060406688, -501990.5, -55405.867, 0.0, 10.001952, 9.915113 
4.8751205e+3, 2.643384e+2, -413773.88, -490927.8, 2.329672, 0.00033845095, 0.00018502059, -413773.88, -64290.098, 0.0, 10.001943, 9.901046 
4.8751202e+3, 2.7424002e+2, -314513.3, -391331.84, -2.4406588, 0.00033710286, -0.00016152063, -314513.3, -62065.22, 0.0, 10.001933, 9.901465 
4.8751202e+3, 2.841334e+2, -228046.52, -318026.2, 2.2219236, 0.00033606685, 0.00026911942, -228046.52, -72553.53, 0.0, 10.001924, 9.884539 
4.8751196e+3, 2.9401898e+2, -128363.77, -217724.75, -2.1260927, 0.0003354559, -0.00021423279, -128363.77, -69749.56, 0.0, 10.001914, 9.885319 
4.875119e+3, 3.039325e+2, -38673.707, -84768.875, 1.5076201, 0.00033414378, 0.00020981094, -38673.707, -38673.707, 0.0, 10.0019045, 9.941243 
4.875119e+3, 3.1387565e+2, -37612.383, -82541.516, -3.0440025, 0.00033179275, -0.000023068964, -37612.383, -37612.383, 0.0, 10.001895, 9.942751 
4.8851293e+3, 1.250168e+2, -1717310.1, -1723981.1, 4.2138033, 0.00036155444, 0.0001145018, -1717310.1, -2474.222, 0.0, 10.00216, 9.993319 
4.885129e+3, 1.3500996e+2, -1619962.8, -1627215.8, -0.5918665, 0.00035867485, -0.00006368051, -1619962.8, -3059.9136, 0.0, 10.002148, 9.992535 
4.8851284e+3, 1.4499663e+2, -1531844.9, -1547863.6, 3.0003383, 0.00035678849, 0.00019878063, -1531844.9, -12811.275, 0.0, 10.002134, 9.980907 
4.8851278e+3, 1.5497752e+2, -1434148.6, -1450561.3, -2.0140011, 0.00035588804, 0.000010954856, -1434148.6, -12927.673, 0.0, 10.002122, 9.980376 
4.8851275e+3, 1.6495179e+2, -1346135.3, -1371731.8, 3.3464227, 0.0003546861, 0.000093471586, -1346135.3, -22662.188, 0.0, 10.00211, 9.96828 
4.885127e+3, 1.7492011e+2, -1248207.1, -1274110.6, -2.2106025, 0.00035318005, -0.000010589526, -1248207.1, -22423.695, 0.0, 10.002098, 9.967866 
4.8851264e+3, 1.848818e+2, -1160143.8, -1195524.4, 4.392694, 0.00035185288, 0.00013406246, -1160143.8, -31984.977, 0.0, 10.002087, 9.955437 
4.885126e+3, 1.9483729e+2, -1062022.5, -1097657.1, -1.0373174, 0.00035071053, 0.0000019255829, -1062022.5, -31427.332, 0.0, 10.002075, 9.955094 
4.8851255e+3, 2.0478609e+2, -973877.4, -1019266.75, 5.353568, 0.00034951084, 0.00012339198, -973877.4, -40780.543, 0.0, 10.002065, 9.94234 
4.885125e+3, 2.1472846e+2, -875617.9, -921260.9, -0.015127105, 0.00034824922, -0.00007137582, -875617.9, -39956.35, 0.0, 10.002053, 9.941999 
4.8851246e+3, 2.2466415e+2, -787350.2, -843003.94, 6.018768, 0.00034702604, 0.00017503582, -787350.2, -49058.43, 0.0, 10.002043, 9.928964 
4.885124e+3, 2.3459317e+2, -688943.0, -744844.0, 0.7538428, 0.00034584556, -0.000037580532, -688943.0, -47955.73, 0.0, 10.002032, 9.928633 
4.8851237e+3, 2.4451526e+2, -600637.4, -666905.56, 6.548414, 0.00034474724, 0.00012370791, -600637.4, -56886.543, 0.0, 10.002023, 9.915198 
4.885123e+3, 2.5443056e+2, -501910.3, -568248.0, 1.5069964, 0.0003437459, -0.00005916495, -501910.3, -55329.62, 0.0, 10.002012, 9.915099 
4.8851225e+3, 2.643388e+2, -413694.2, -490904.56, 7.084512, 0.00034259615, 0.00018624391, -413694.2, -64214.195, 0.0, 10.002003, 9.9010315 
4.8851222e+3, 2.7424037e+2, -314434.16, -391309.1, 2.1171706, 0.00034125752, -0.00016034437, -314434.16, -61989.69, 0.0, 10.001993, 9.901451 
4.8851222e+3, 2.8413376e+2, -227967.16, -318002.6, 6.6571345, 0.000340226, 0.00027029647, -227967.16, -72477.664, 0.0, 10.001983, 9.884525 
4.8851216e+3, 2.940193e+2, -128284.99, -217701.63, 2.1528769, 0.00033961277, -0.0002129897, -128284.99, -69674.16, 0.0, 10.001973, 9.885305 
4.885121e+3, 3.0393285e+2, -38597.047, -84748.81, 5.516275, 0.00033826946, 0.00021100583, -38597.047, -38597.047, 0.0, 10.001964, 9.941228 
4.885121e+3, 3.1387594e+2, -37536.086, -82521.83, 0.6998398, 0.00033584458, -0.000022091424, -37536.086, -37536.086, 0.0, 10.001954, 9.942736 
4.895132e+3, 1.2501739e+2, -1717321.0, -1724001.9, -0.63367414, 0.00036585378, 0.000116010226, -1717321.0, -2490.8572, 0.0, 10.002161, 9.993305 
4.8951313e+3, 1.3501056e+2, -1619973.4, -1627236.4, -5.4390326, 0.00036299502, -0.00006209727, -1619973.4, -3076.2944, 0.0, 10.002148, 9.992522 
4.8951304e+3, 1.449972e+2, -1531855.9, -1547884.9, -1.6949999, 0.00036109783, 0.00020032327, -1531855.9, -12827.842, 0.0, 10.002135, 9.980894 
4.8951298e+3, 1.5497807e+2, -1434159.5, -1450582.5, -6.710036, 0.0003601547, 0.000012341464, -1434159.5, -12943.973, 0.0, 10.002123, 9.980363 
4.8951295e+3, 1.6495234e+2, -1346147.3, -1371755.1, -1.0890789, 0.0003589432, 0.00009481301, -1346147.3, -22679.477, 0.0, 10.0021105, 9.968265 
4.895129e+3, 1.7492063e+2, -1248218.9, -1274133.9, -6.6451864, 0.00035746116, -0.000009180882, -1248218.9, -22440.701, 0.0, 10.002098, 9.967851 
4.8951283e+3, 1.8488233e+2, -1160155.4, -1195547.3, 0.19065082, 0.00035613155, 0.0001354835, -1160155.4, -32001.6, 0.0, 10.002087, 9.955422 
4.895128e+3, 1.9483778e+2, -1062033.9, -1097680.0, -5.23819, 0.00035495922, 0.0000033019755, -1062033.9, -31443.668, 0.0, 10.002076, 9.955079 
4.8951274e+3, 2.0478657e+2, -973888.75, -1019289.56, 1.2900829, 0.0003537532, 0.00012472586, -973888.75, -40796.69, 0.0, 10.002065, 9.942326 
4.8951268e+3, 2.1472892e+2, -875629.1, -921283.6, -4.0763793, 0.00035251066, -0.0000700821, -875629.1, -39972.21, 0.0, 10.002054, 9.941984 
4.8951265e+3, 2.246646e+2, -787361.4, -843026.6, 2.1550252, 0.00035129662, 0.00017634362, -787361.4, -49074.066, 0.0, 10.002044, 9.928949 
4.895126e+3, 2.3459361e+2, -688954.06, -744866.5, -3.1044674, 0.0003501141, -0.000036197616, -688954.06, -47971.082, 0.0, 10.002033, 9.928618 
4.8951256e+3, 2.4451569e+2, -600648.1, -666927.75, 2.7948806, 0.0003489706, 0.00012505746, -600648.1, -56901.484, 0.0, 10.002023, 9.915184 
4.895125e+3, 2.5443098e+2, -501920.94, -568270.0, -2.243043, 0.00034787285, -0.000057977875, -501920.94, -55344.27, 0.0, 10.002013, 9.915084 
4.8951244e+3, 2.643392e+2, -413704.84, -490926.84, 3.3952587, 0.00034671658, 0.00018735895, -413704.84, -64228.766, 0.0, 10.002003, 9.901016 
4.8951244e+3, 2.742408e+2, -314444.7, -391331.25, -1.5688771, 0.0003454854, -0.00015918634, -314444.7, -62003.984, 0.0, 10.001993, 9.901437 
4.895124e+3, 2.8413412e+2, -227976.98, -318023.47, 2.9880543, 0.00034449797, 0.00027152395, -227976.98, -72491.11, 0.0, 10.001984, 9.884511 
4.8951235e+3, 2.9401967e+2, -128294.64, -217722.25, -1.5154802, 0.00034384182, -0.0002116574, -128294.64, -69687.28, 0.0, 10.001974, 9.885291 
4.895123e+3, 3.0393317e+2, -38607.68, -84771.54, 1.8598121, 0.0003424455, 0.00021227519, -38607.68, -38607.68, 0.0, 10.001964, 9.941213 
4.895123e+3, 3.1387627e+2, -37546.85, -82544.836, -2.956683, 0.00033995378, -0.00002113312, -37546.85, -37546.85, 0.0, 10.001954, 9.94272 
4.9051338e+3, 1.25018e+2, -1717230.5, -1723968.3, 4.4700413, 0.0003702081, 0.00011750544, -1717230.5, -2406.3547, 0.0, 10.002223, 9.993293 
4.9051332e+3, 1.3501115e+2, -1619883.6, -1627203.4, -0.38450795, 0.00036732902, -0.00006060166, -1619883.6, -2992.3516, 0.0, 10.002211, 9.992509 
4.905133e+3, 1.4499779e+2, -1531767.0, -1547853.3, 3.4843073, 0.0003654188, 0.00020178108, -1531767.0, -12744.652, 0.0, 10.002197, 9.980881 
4.9051324e+3, 1.5497863e+2, -1434070.9, -1450551.3, -1.6511171, 0.00036446957, 0.00001372309, -1434070.9, -12861.032, 0.0, 10.002185, 9.98035 
4.9051318e+3, 1.6495287e+2, -1346060.3, -1371726.5, 4.117081, 0.0003632586, 0.00009619409, -1346060.3, -22597.96, 0.0, 10.002172, 9.96825 
4.905131e+3, 1.7492118e+2, -1248132.6, -1274105.9, -1.5148834, 0.0003617839, -0.000007723606, -1248132.6, -22359.717, 0.0, 10.002161, 9.967836 
4.9051303e+3, 1.8488285e+2, -1160069.5, -1195519.6, 5.46219, 0.00036044166, 0.00013693128, -1160069.5, -31920.941, 0.0, 10.002149, 9.955407 
4.90513e+3, 1.9483829e+2, -1061948.8, -1097652.9, -0.12465899, 0.00035923586, 0.000004651208, -1061948.8, -31363.51, 0.0, 10.002138, 9.955065 
4.9051294e+3, 2.0478706e+2, -973803.94, -1019262.9, 6.471279, 0.00035801687, 0.00012603201, -973803.94, -40716.727, 0.0, 10.002127, 9.94231 
4.9051288e+3, 2.1472941e+2, -875544.56, -921257.25, 1.00067, 0.00035678336, -0.00006875932, -875544.56, -39892.41, 0.0, 10.002116, 9.94197 
4.9051285e+3, 2.2466508e+2, -787277.25, -843000.75, 7.2888694, 0.0003555821, 0.00017768642, -787277.25, -48994.508, 0.0, 10.002106, 9.928935 
4.905128e+3, 2.3459408e+2, -688870.56, -744841.25, 1.8988943, 0.00035441646, -0.000034830984, -688870.56, -47892.043, 0.0, 10.002095, 9.928604 
4.9051276e+3, 2.4451613e+2, -600565.06, -666902.7, 7.773385, 0.00035325953, 0.00012638736, -600565.06, -56822.684, 0.0, 10.002085, 9.91517 
4.905127e+3, 2.5443143e+2, -501838.44, -568245.5, 2.5495973, 0.00035211217, -0.00005675673, -501838.44, -55265.926, 0.0, 10.002074, 9.91507 
4.905127e+3, 2.6433963e+2, -413622.84, -490902.94, 8.126659, 0.00035094083, 0.00018852903, -413622.84, -64150.766, 0.0, 10.002065, 9.901002 
4.9051264e+3, 2.7424118e+2, -314363.13, -391307.78, 3.0204566, 0.00034973843, -0.00015799401, -314363.13, -61926.258, 0.0, 10.002055, 9.901422 
4.905126e+3, 2.8413448e+2, -227895.06, -317999.1, 7.4649477, 0.00034875984, 0.00027273726, -227895.06, -72412.89, 0.0, 10.002046, 9.884497 
4.9051255e+3, 2.9402006e+2, -128213.2, -217698.25, 2.8216581, 0.00034808496, -0.00021042542, -128213.2, -69609.414, 0.0, 10.002035, 9.885278 
4.905125e+3, 3.0393353e+2, -38528.46, -84750.94, 5.934342, 0.00034666955, 0.0002134744, -38528.46, -38528.46, 0.0, 10.002026, 9.941196 
4.905125e+3, 3.1387663e+2, -37467.96, -82524.625, 0.889032, 0.0003441585, -0.000020042255, -37467.96, -37467.96, 0.0, 10.002016, 9.942704 
4.915136e+3, 1.2501863e+2, -1717241.4, -1723989.3, -0.42475975, 0.00037461665, 0.00011898912, -1717241.4, -2423.3457, 0.0, 10.002224, 9.993279 
4.9151358e+3, 1.3501176e+2, -1619894.4, -1627224.1, -5.2804832, 0.00037167827, -0.00005918814, -1619894.4, -3009.0845, 0.0, 10.002211, 9.9924965 
4.915135e+3, 1.4499839e+2, -1531778.1, -1547875.0, -1.189381, 0.0003697529, 0.00020315945, -1531778.1, -12761.729, 0.0, 10.002197, 9.980867 
4.9151343e+3, 1.5497921e+2, -1434082.0, -1450572.9, -6.3236914, 0.00036883238, 0.000015100969, -1434082.0, -12877.842, 0.0, 10.002185, 9.980335 
4.9151337e+3, 1.6495344e+2, -1346072.4, -1371750.3, -0.36725682, 0.00036763158, 0.00009761379, -1346072.4, -22615.654, 0.0, 10.002172, 9.968235 
4.9151334e+3, 1.7492174e+2, -1248144.6, -1274129.5, -5.999358, 0.0003661484, -0.000006219094, -1248144.6, -22377.121, 0.0, 10.002161, 9.967821 
4.9151328e+3, 1.8488339e+2, -1160081.5, -1195543.3, 1.2159148, 0.00036478377, 0.0001384055, -1160081.5, -31938.135, 0.0, 10.00215, 9.955393 
4.9151322e+3, 1.9483882e+2, -1061960.5, -1097676.4, -4.3691015, 0.0003635412, 0.0000059755803, -1061960.5, -31380.408, 0.0, 10.002138, 9.9550495 
4.915132e+3, 2.0478758e+2, -973815.5, -1019286.1, 2.4451208, 0.00036230293, 0.00012731276, -973815.5, -40733.32, 0.0, 10.002127, 9.942295 
4.9151307e+3, 2.147299e+2, -875556.06, -921280.44, -3.0225062, 0.000361069, -0.000067407935, -875556.06, -39908.71, 0.0, 10.002116, 9.941955 
4.9151304e+3, 2.2466555e+2, -787288.7, -843024.0, 3.377945, 0.0003598839, 0.00017906349, -787288.7, -49010.637, 0.0, 10.002106, 9.92892 
4.9151298e+3, 2.3459452e+2, -688881.9, -744864.3, -2.008383, 0.0003587532, -0.000033478893, -688881.9, -47907.875, 0.0, 10.002095, 9.928589 
4.9151298e+3, 2.4451657e+2, -600576.2, -666925.56, 3.9842362, 0.0003576129, 0.0001276995, -600576.2, -56838.203, 0.0, 10.002085, 9.915154 
4.9151295e+3, 2.5443184e+2, -501849.4, -568268.25, -1.2360033, 0.00035646048, -0.00005550224, -501849.4, -55281.152, 0.0, 10.002075, 9.915054 
4.915129e+3, 2.6434e+2, -413633.8, -490925.8, 4.449776, 0.000355266, 0.00018975235, -413633.8, -64165.824, 0.0, 10.002065, 9.900987 
4.9151284e+3, 2.7424157e+2, -314373.9, -391330.53, -0.6499635, 0.00035401757, -0.00015676816, -314373.9, -61941.023, 0.0, 10.002055, 9.901406 
4.915128e+3, 2.841349e+2, -227905.14, -318020.47, 3.7826614, 0.00035301424, 0.00027393797, -227905.14, -72426.79, 0.0, 10.002046, 9.884483 
4.9151275e+3, 2.940204e+2, -128223.086, -217719.4, -0.8628211, 0.00035234375, -0.00020928803, -128223.086, -69622.98, 0.0, 10.002036, 9.885263 
4.9151275e+3, 3.039339e+2, -38539.473, -84774.5, 2.2370226, 0.00035094138, 0.0002146077, -38539.473, -38539.473, 0.0, 10.002026, 9.94118 
4.915127e+3, 3.1387696e+2, -37479.12, -82548.5, -2.81077, 0.00034845626, -0.000018824328, -37479.12, -37479.12, 0.0, 10.002016, 9.942688 
4.9251387e+3, 1.2501927e+2, -1717148.9, -1723954.9, 4.698053, 0.00037904023, 0.00012046799, -1717148.9, -2337.166, 0.0, 10.002287, 9.993267 
4.9251378e+3, 1.3501239e+2, -1619802.6, -1627190.4, -0.31832692, 0.00037606378, -0.00005773564, -1619802.6, -2923.3826, 0.0, 10.0022745, 9.992483 
4.9251372e+3, 1.44999e+2, -1531687.3, -1547842.5, 3.9380846, 0.00037412788, 0.0002046019, -1531687.3, -12676.734, 0.0, 10.002261, 9.980854 
4.925137e+3, 1.5497983e+2, -1433991.6, -1450540.9, -1.1856298, 0.00037322403, 0.000016549402, -1433991.6, -12793.343, 0.0, 10.002249, 9.980322 
4.9251363e+3, 1.6495404e+2, -1345983.8, -1371721.1, 4.942672, 0.0003720233, 0.00009906803, -1345983.8, -22532.686, 0.0, 10.002236, 9.96822 
4.9251354e+3, 1.749223e+2, -1248056.4, -1274100.8, -0.83122045, 0.00037052343, -0.00000475909, -1248056.4, -22294.404, 0.0, 10.002225, 9.967806 
4.9251348e+3, 1.8488394e+2, -1159993.5, -1195514.9, 6.505299, 0.00036915, 0.00013984235, -1159993.5, -31855.58, 0.0, 10.002213, 9.955378 
4.9251342e+3, 1.9483936e+2, -1061873.0, -1097648.5, 0.80433416, 0.00036790664, 0.000007359161, -1061873.0, -31298.184, 0.0, 10.002202, 9.955034 
4.925134e+3, 2.047881e+2, -973728.44, -1019258.7, 7.704259, 0.00036666798, 0.00012866895, -973728.44, -40651.34, 0.0, 10.002191, 9.942281 
4.9251333e+3, 2.1473043e+2, -875469.5, -921253.5, 2.070975, 0.00036543407, -0.000066051245, -875469.5, -39827.17, 0.0, 10.00218, 9.941939 
4.9251327e+3, 2.2466604e+2, -787202.44, -842997.4, 8.5118885, 0.00036423965, 0.00018041415, -787202.44, -48929.258, 0.0, 10.00217, 9.928905 
4.9251324e+3, 2.3459502e+2, -688796.0, -744838.1, 3.0580509, 0.00036308897, -0.000032141605, -688796.0, -47826.71, 0.0, 10.002159, 9.928574 
4.9251318e+3, 2.4451703e+2, -600490.7, -666899.94, 9.039294, 0.0003619546, 0.00012901578, -600490.7, -56757.242, 0.0, 10.002149, 9.915139 
4.9251312e+3, 2.544323e+2, -501764.38, -568243.06, 3.5917513, 0.0003608389, -0.00005421607, -501764.38, -55200.48, 0.0, 10.002139, 9.915039 
4.925131e+3, 2.643405e+2, -413549.13, -490901.0, 9.197437, 0.00035964773, 0.00019101314, -413549.13, -64085.35, 0.0, 10.002129, 9.900971 
4.9251303e+3, 2.74242e+2, -314289.84, -391306.28, 3.9612496, 0.00035836038, -0.0001555267, -314289.84, -61861.023, 0.0, 10.002119, 9.901391 
4.92513e+3, 2.8413528e+2, -227820.81, -317995.38, 8.279997, 0.00035733482, 0.00027515076, -227820.81, -72346.39, 0.0, 10.002109, 9.884468 
4.92513e+3, 2.940208e+2, -128139.164, -217694.64, 3.4663203, 0.000356665, -0.00020811691, -128139.164, -69542.836, 0.0, 10.002099, 9.885249 
4.9251294e+3, 3.0393428e+2, -38457.707, -84753.26, 6.301982, 0.0003552648, 0.00021575383, -38457.707, -38457.707, 0.0, 10.0020895, 9.941164 
4.9251288e+3, 3.138773e+2, -37397.375, -82527.516, 1.0611981, 0.000352784, -0.000017677701, -37397.375, -37397.375, 0.0, 10.00208, 9.942672 
4.9351406e+3, 1.2501992e+2, -1717160.1, -1723976.5, -0.22344905, 0.00038348025, 0.00012194342, -1717160.1, -2354.7778, 0.0, 10.002288, 9.993253 
4.93514e+3, 1.3501303e+2, -1619813.6, -1627211.9, -5.2381926, 0.00038048593, -0.000056245284, -1619813.6, -2940.727, 0.0, 10.0022745, 9.99247 
4.9351397e+3, 1.4499962e+2, -1531698.4, -1547864.1, -0.76608366, 0.0003785439, 0.00020610598, -1531698.4, -12694.021, 0.0, 10.002262, 9.98084 
4.9351385e+3, 1.5498044e+2, -1434002.8, -1450562.4, -5.8913555, 0.00037764525, 0.000018065766, -1434002.8, -12810.363, 0.0, 10.002249, 9.980309 
4.9351382e+3, 1.6495463e+2, -1345996.1, -1371745.4, 0.47593787, 0.00037643503, 0.000100556084, -1345996.1, -22550.93, 0.0, 10.002236, 9.9682045 
4.9351376e+3, 1.7492288e+2, -1248068.6, -1274124.9, -5.2970915, 0.00037491077, -0.0000033403278, -1248068.6, -22312.352, 0.0, 10.002225, 9.967791 
4.9351373e+3, 1.848845e+2, -1160005.6, -1195539.0, 2.2586572, 0.00037354132, 0.00014124469, -1160005.6, -31873.256, 0.0, 10.0022135, 9.955362 
4.9351367e+3, 1.9483991e+2, -1061885.0, -1097672.4, -3.440768, 0.00037233136, 0.000008799954, -1061885.0, -31315.559, 0.0, 10.002202, 9.955019 
4.9351358e+3, 2.0478864e+2, -973740.4, -1019282.6, 3.6511173, 0.00037111028, 0.00013009777, -973740.4, -40668.508, 0.0, 10.002191, 9.942265 
4.9351352e+3, 2.1473095e+2, -875481.3, -921277.3, -1.9788779, 0.00036987686, -0.00006468862, -875481.3, -39844.04, 0.0, 10.00218, 9.941924 
4.9351346e+3, 2.2466655e+2, -787214.0, -843020.9, 4.628743, 0.0003686488, 0.00018174066, -787214.0, -48945.746, 0.0, 10.00217, 9.928889 
4.9351344e+3, 2.345955e+2, -688807.44, -744861.5, -0.8220051, 0.00036742608, -0.000030817344, -688807.44, -47842.9, 0.0, 10.002159, 9.928558 
4.9351338e+3, 2.4451752e+2, -600502.25, -666923.75, 5.260147, 0.00036628748, 0.00013033701, -600502.25, -56773.426, 0.0, 10.002149, 9.915124 
4.9351332e+3, 2.5443277e+2, -501775.78, -568266.75, -0.18224539, 0.00036524812, -0.0000528989, -501775.78, -55216.367, 0.0, 10.002139, 9.915024 
4.935133e+3, 2.643409e+2, -413560.3, -490924.44, 5.490717, 0.0003640855, 0.00019231034, -413560.3, -64100.89, 0.0, 10.002129, 9.900956 
4.935133e+3, 2.7424243e+2, -314300.9, -391329.56, 0.2570983, 0.00036276595, -0.0001542695, -314300.9, -61876.25, 0.0, 10.002119, 9.901376 
4.9351323e+3, 2.841357e+2, -227831.19, -318017.4, 4.6052837, 0.00036172054, 0.000276376, -227831.19, -72360.79, 0.0, 10.00211, 9.884454 
4.935132e+3, 2.9402122e+2, -128149.336, -217716.44, -0.20713249, 0.0003610479, -0.00020691281, -128149.336, -69556.89, 0.0, 10.0021, 9.885234 
4.9351314e+3, 3.0393463e+2, -38469.043, -84777.54, 2.6413827, 0.0003596395, 0.00021691302, -38469.043, -38469.043, 0.0, 10.0020895, 9.941148 
4.9351308e+3, 3.1387767e+2, -37408.863, -82552.12, -2.5991282, 0.0003571426, -0.000016598031, -37408.863, -37408.863, 0.0, 10.00208, 9.942655 
4.9451432e+3, 1.2502058e+2, -1717066.0, -1723941.5, 4.89644, 0.00038793962, 0.00012346651, -1717066.0, -2267.0823, 0.0, 10.002353, 9.993239 
4.9451426e+3, 1.3501367e+2, -1619720.0, -1627177.4, -0.0741216, 0.00038495634, -0.000054740427, -1619720.0, -2853.3875, 0.0, 10.002339, 9.992456 
4.9451417e+3, 1.4500026e+2, -1531605.5, -1547830.9, 4.563962, 0.0003830135, 0.00020759339, -1531605.5, -12607.341, 0.0, 10.002327, 9.980826 
4.945141e+3, 1.5498106e+2, -1433910.4, -1450529.6, -0.738162, 0.0003821021, 0.000019536224, -1433910.4, -12724.073, 0.0, 10.002315, 9.980294 
4.9451405e+3, 1.6495524e+2, -1345905.4, -1371715.5, 5.7678394, 0.00038088503, 0.00010200494, -1345905.4, -22466.193, 0.0, 10.002302, 9.968189 
4.9451402e+3, 1.7492348e+2, -1247978.4, -1274095.5, -0.09425363, 0.00037936, -0.0000019176891, -1247978.4, -22227.898, 0.0, 10.00229, 9.967775 
4.9451393e+3, 1.8488508e+2, -1159915.6, -1195510.0, 7.6026917, 0.00037799263, 0.00014266533, -1159915.6, -31788.936, 0.0, 10.002278, 9.955346 
4.9451387e+3, 1.9484048e+2, -1061795.4, -1097643.9, 1.7727258, 0.00037678776, 0.000010243698, -1061795.4, -31231.443, 0.0, 10.002267, 9.955004 
4.945138e+3, 2.0478919e+2, -973651.06, -1019254.44, 8.945734, 0.00037556794, 0.00013152568, -973651.06, -40584.53, 0.0, 10.002256, 9.942249 
4.9451378e+3, 2.1473147e+2, -875392.44, -921249.6, 3.2080662, 0.0003743318, -0.00006331842, -875392.44, -39760.367, 0.0, 10.002245, 9.941909 
4.9451372e+3, 2.2466707e+2, -787125.44, -842993.56, 9.839796, 0.0003730968, 0.00018307615, -787125.44, -48862.23, 0.0, 10.002234, 9.928874 
4.9451366e+3, 2.3459601e+2, -688719.3, -744834.6, 4.155928, 0.00037186238, -0.000029490686, -688719.3, -47759.66, 0.0, 10.002225, 9.928543 
4.9451363e+3, 2.44518e+2, -600414.44, -666897.4, 10.216725, 0.0003707172, 0.0001316522, -600414.44, -56690.35, 0.0, 10.002214, 9.915108 
4.9451357e+3, 2.544332e+2, -501688.34, -568240.8, 4.726002, 0.00036967723, -0.000051598316, -501688.34, -55133.516, 0.0, 10.002204, 9.915009 
4.945135e+3, 2.6434138e+2, -413473.2, -490898.97, 10.35994, 0.00036852018, 0.00019358957, -413473.2, -64018.18, 0.0, 10.002194, 9.90094 
4.9451348e+3, 2.7424285e+2, -314214.16, -391304.53, 4.9063897, 0.00036721388, -0.00015302011, -314214.16, -61793.797, 0.0, 10.002185, 9.9013605 
4.9451342e+3, 2.8413615e+2, -227744.06, -317991.44, 9.099528, 0.0003661721, 0.00027761352, -227744.06, -72277.8, 0.0, 10.002175, 9.8844385 
4.945134e+3, 2.940216e+2, -128062.62, -217690.84, 4.0990453, 0.00036548977, -0.00020566286, -128062.62, -69474.164, 0.0, 10.002165, 9.88522 
4.9451333e+3, 3.0393502e+2, -38384.598, -84755.586, 6.6718907, 0.0003640681, 0.00021811199, -38384.598, -38384.598, 0.0, 10.002155, 9.941131 
4.9451333e+3, 3.1387806e+2, -37324.58, -82530.51, 1.2188116, 0.00036155293, -0.000015543303, -37324.58, -37324.58, 0.0, 10.002146, 9.942637 
4.9551454e+3, 1.2502126e+2, -1717077.1, -1723962.9, -0.019453336, 0.00039241966, 0.00012503559, -1717077.1, -2284.8333, 0.0, 10.002353, 9.993227 
4.9551445e+3, 1.3501434e+2, -1619731.0, -1627198.6, -4.99078, 0.00038947474, -0.00005322071, -1619731.0, -2870.8762, 0.0, 10.00234, 9.992443 
4.955144e+3, 1.450009e+2, -1531617.0, -1547853.3, -0.14774758, 0.00038753625, 0.00020906619, -1531617.0, -12625.273, 0.0, 10.002327, 9.980812 
4.9551436e+3, 1.5498169e+2, -1433921.8, -1450551.9, -5.4497733, 0.00038659503, 0.000020964224, -1433921.8, -12741.728, 0.0, 10.002315, 9.980281 
4.9551424e+3, 1.6495585e+2, -1345918.0, -1371740.3, 1.3151788, 0.00038537363, 0.000103417624, -1345918.0, -22484.865, 0.0, 10.002302, 9.968174 
4.955142e+3, 1.7492409e+2, -1247990.8, -1274120.0, -4.5464845, 0.00038387015, -0.0000004903235, -1247990.8, -22246.271, 0.0, 10.002291, 9.96776 
4.9551415e+3, 1.8488568e+2, -1159928.0, -1195534.6, 3.3881214, 0.00038250315, 0.00014410436, -1159928.0, -31807.125, 0.0, 10.002278, 9.955331 
4.9551412e+3, 1.9484103e+2, -1061807.6, -1097668.3, -2.4399908, 0.0003812765, 0.000011691193, -1061807.6, -31249.328, 0.0, 10.002268, 9.954988 
4.9551407e+3, 2.0478974e+2, -973663.2, -1019278.9, 4.90069, 0.00038004262, 0.00013295368, -973663.2, -40602.156, 0.0, 10.002256, 9.942234 
4.9551398e+3, 2.14732e+2, -875404.44, -921273.9, -0.83491033, 0.00037880064, -0.000061939965, -875404.44, -39777.684, 0.0, 10.002246, 9.941893 
4.9551392e+3, 2.246676e+2, -787137.5, -843018.0, 5.9714756, 0.000377584, 0.00018442121, -787137.5, -48879.414, 0.0, 10.002235, 9.928858 
4.9551386e+3, 2.345965e+2, -688731.2, -744858.94, 0.29257038, 0.00037639512, -0.000028160879, -688731.2, -47776.535, 0.0, 10.002225, 9.928527 
4.9551383e+3, 2.4451849e+2, -600426.06, -666921.4, 6.468889, 0.00037524107, 0.00013296254, -600426.06, -56706.85, 0.0, 10.002214, 9.915092 
4.9551377e+3, 2.544337e+2, -501699.84, -568264.7, 0.9816685, 0.00037412762, -0.000050312457, -501699.84, -55149.707, 0.0, 10.002205, 9.914992 
4.955137e+3, 2.6434183e+2, -413484.78, -490923.25, 6.6764607, 0.00037295432, 0.00019485278, -413484.78, -64034.332, 0.0, 10.002194, 9.900924 
4.9551368e+3, 2.7424332e+2, -314225.63, -391328.7, 1.2261007, 0.0003717045, -0.00015177717, -314225.63, -61809.645, 0.0, 10.002185, 9.901344 
4.9551368e+3, 2.8413656e+2, -227754.77, -318014.22, 5.439579, 0.00037068856, 0.0002788636, -227754.77, -72292.74, 0.0, 10.002175, 9.884424 
4.9551362e+3, 2.9402202e+2, -128073.12, -217713.36, 0.4400558, 0.00036999004, -0.00020436857, -128073.12, -69488.75, 0.0, 10.002166, 9.885204 
4.955136e+3, 3.0393547e+2, -38396.297, -84780.67, 3.0184598, 0.0003685503, 0.00021934956, -38396.297, -38396.297, 0.0, 10.002156, 9.941113 
4.9551353e+3, 3.1387842e+2, -37336.434, -82555.914, -2.4359252, 0.00036601484, -0.0000145114145, -37336.434, -37336.434, 0.0, 10.002146, 9.94262 
4.965148e+3, 1.2502196e+2, -1716981.0, -1723927.0, 5.160095, 0.00039695983, 0.00012652655, -1716981.0, -2195.542, 0.0, 10.002419, 9.993213 
4.965147e+3, 1.3501501e+2, -1619635.4, -1627163.1, 0.070075184, 0.00039400856, -0.000051700717, -1619635.4, -2781.944, 0.0, 10.002406, 9.99243 
4.9651465e+3, 1.4500158e+2, -1531522.3, -1547819.3, 5.0866146, 0.0003920672, 0.00021057387, -1531522.3, -12537.018, 0.0, 10.002394, 9.980798 
4.965146e+3, 1.5498234e+2, -1433827.3, -1450518.3, -0.25912032, 0.0003911262, 0.000022418168, -1433827.3, -12653.593, 0.0, 10.002381, 9.980267 
4.965145e+3, 1.649565e+2, -1345825.1, -1371709.5, 6.6676197, 0.0003899073, 0.00010486127, -1345825.1, -22398.178, 0.0, 10.002369, 9.968158 
4.9651444e+3, 1.7492472e+2, -1247898.4, -1274089.9, 0.6646226, 0.00038840866, 0.0000009870726, -1247898.4, -22159.906, 0.0, 10.002357, 9.967744 
4.965144e+3, 1.8488628e+2, -1159836.0, -1195504.9, 8.736172, 0.00038703927, 0.00014556591, -1159836.0, -31720.96, 0.0, 10.002345, 9.955315 
4.9651435e+3, 1.9484162e+2, -1061716.0, -1097639.0, 2.7923086, 0.0003858027, 0.000013085446, -1061716.0, -31163.44, 0.0, 10.002335, 9.954972 
4.9651426e+3, 2.0479031e+2, -973571.75, -1019250.0, 10.218645, 0.0003845637, 0.00013433078, -973571.75, -40516.316, 0.0, 10.002323, 9.942218 
4.965142e+3, 2.1473257e+2, -875313.2, -921245.3, 4.3268685, 0.00038332175, -0.000060526083, -875313.2, -39691.863, 0.0, 10.002313, 9.941877 
4.9651417e+3, 2.2466813e+2, -787046.44, -842989.94, 11.160994, 0.00038211566, 0.00018582027, -787046.44, -48793.676, 0.0, 10.002302, 9.928842 
4.965141e+3, 2.3459704e+2, -688640.56, -744831.4, 5.371596, 0.00038094915, -0.000026834661, -688640.56, -47691.082, 0.0, 10.002292, 9.928511 
4.9651405e+3, 2.44519e+2, -600335.75, -666894.1, 11.531615, 0.00037979204, 0.00013425792, -600335.75, -56621.492, 0.0, 10.002282, 9.915076 
4.9651402e+3, 2.544342e+2, -501609.9, -568237.9, 5.830813, 0.00037864532, -0.000048998023, -501609.9, -55064.582, 0.0, 10.002272, 9.914976 
4.9651396e+3, 2.643423e+2, -413395.2, -490897.06, 11.440645, 0.00037746428, 0.00019615419, -413395.2, -63949.38, 0.0, 10.002262, 9.9009075 
4.965139e+3, 2.7424377e+2, -314136.28, -391302.9, 5.845162, 0.00037623907, -0.00015052948, -314136.28, -61724.8, 0.0, 10.002253, 9.901328 
4.9651387e+3, 2.84137e+2, -227664.89, -317987.38, 9.944763, 0.00037523528, 0.0002800827, -227664.89, -72207.2, 0.0, 10.002243, 9.884409 
4.965138e+3, 2.9402247e+2, -127983.586, -217686.88, 4.799206, 0.00037453175, -0.00020314398, -127983.586, -69403.414, 0.0, 10.0022335, 9.885189 
4.9651378e+3, 3.0393586e+2, -38309.13, -84758.086, 7.0947385, 0.00037308628, 0.00022054708, -38309.13, -38309.13, 0.0, 10.002224, 9.941096 
4.9651378e+3, 3.138788e+2, -37249.402, -82533.67, 1.3746917, 0.00037054438, -0.000013388746, -37249.402, -37249.402, 0.0, 10.002214, 9.942603 
4.9751505e+3, 1.2502266e+2, -1716992.4, -1723948.9, 0.250494, 0.0004015592, 0.0001279449, -1716992.4, -2213.814, 0.0, 10.002419, 9.993199 
4.9751493e+3, 1.3501571e+2, -1619646.6, -1627185.0, -4.839316, 0.0003985594, -0.000050179468, -1619646.6, -2799.9463, 0.0, 10.002406, 9.992416 
4.975149e+3, 1.4500225e+2, -1531533.9, -1547842.0, 0.43672505, 0.00039660832, 0.00021211544, -1531533.9, -12555.287, 0.0, 10.002394, 9.980783 
4.9751478e+3, 1.54983e+2, -1433838.8, -1450540.9, -4.9084415, 0.00039569603, 0.000023897665, -1433838.8, -12671.586, 0.0, 10.002381, 9.980252 
4.9751475e+3, 1.6495715e+2, -1345838.0, -1371734.9, 2.2236109, 0.00039448604, 0.0001063352, -1345838.0, -22417.402, 0.0, 10.002369, 9.968142 
4.975147e+3, 1.7492534e+2, -1247911.1, -1274115.0, -3.7796314, 0.00039297645, 0.0000025127383, -1247911.1, -22178.82, 0.0, 10.0023575, 9.967728 
4.9751464e+3, 1.848869e+2, -1159848.6, -1195530.0, 4.540152, 0.0003916021, 0.00014704975, -1159848.6, -31739.63, 0.0, 10.002346, 9.955299 
4.9751455e+3, 1.9484222e+2, -1061728.5, -1097664.0, -1.4027841, 0.00039036683, 0.000014430404, -1061728.5, -31181.791, 0.0, 10.002335, 9.954956 
4.9751452e+3, 2.0479089e+2, -973584.2, -1019275.06, 6.2533894, 0.0003891312, 0.00013566084, -973584.2, -40534.492, 0.0, 10.002323, 9.942202 
4.9751446e+3, 2.1473314e+2, -875325.5, -921270.25, 0.3649206, 0.00038789486, -0.00005907772, -875325.5, -39709.73, 0.0, 10.002313, 9.941861 
4.975144e+3, 2.2466868e+2, -787058.7, -843014.9, 7.3112497, 0.00038669194, 0.00018727135, -787058.7, -48811.31, 0.0, 10.002302, 9.928825 
4.9751437e+3, 2.3459758e+2, -688652.6, -744856.1, 1.5245032, 0.00038552578, -0.00002551081, -688652.6, -47708.395, 0.0, 10.002293, 9.928494 
4.975143e+3, 2.4451952e+2, -600347.8, -666919.06, 7.8120193, 0.00038437112, 0.00013554018, -600347.8, -56638.63, 0.0, 10.002282, 9.91506 
4.9751425e+3, 2.544347e+2, -501621.78, -568262.6, 2.115624, 0.00038322926, -0.000047655612, -501621.78, -55081.402, 0.0, 10.002273, 9.91496 
4.9751422e+3, 2.643428e+2, -413407.06, -490921.94, 7.8205476, 0.0003820485, 0.0001974926, -413407.06, -63966.016, 0.0, 10.002263, 9.900891 
4.9751416e+3, 2.7424422e+2, -314148.0, -391327.63, 2.2300844, 0.0003808178, -0.00014927637, -314148.0, -61741.12, 0.0, 10.002253, 9.901312 
4.975141e+3, 2.8413746e+2, -227675.84, -318010.72, 6.319834, 0.00037981322, 0.0002812734, -227675.84, -72222.6, 0.0, 10.002243, 9.884393 
4.9751407e+3, 2.9402292e+2, -127994.33, -217709.94, 1.1719788, 0.00037911526, -0.00020198444, -127994.33, -69418.45, 0.0, 10.0022335, 9.885174 
4.97514e+3, 3.0393627e+2, -38321.266, -84784.125, 3.4570985, 0.00037767578, 0.0002217076, -38321.266, -38321.266, 0.0, 10.002224, 9.941079 
4.9751398e+3, 3.1387925e+2, -37261.715, -82560.09, -2.265164, 0.00037514066, -0.000012179244, -37261.715, -37261.715, 0.0, 10.002214, 9.942585 
4.9851528e+3, 1.2502338e+2, -1716894.5, -1723912.3, 5.3785863, 0.0004061643, 0.00012944119, -1716894.5, -2122.8752, 0.0, 10.002487, 9.993186 
4.985152e+3, 1.3501641e+2, -1619549.0, -1627148.8, 0.20815279, 0.0004031399, -0.00004869624, -1619549.0, -2709.2131, 0.0, 10.002474, 9.992402 
4.9851513e+3, 1.4500295e+2, -1531437.0, -1547807.0, 5.6728067, 0.00040118786, 0.0002136037, -1531437.0, -12465.162, 0.0, 10.002461, 9.980769 
4.9851504e+3, 1.5498368e+2, -1433742.4, -1450506.4, 0.26173595, 0.00040029795, 0.000025408652, -1433742.4, -12581.8125, 0.0, 10.002449, 9.980238 
4.9851498e+3, 1.649578e+2, -1345743.4, -1371703.6, 7.569588, 0.0003990951, 0.00010783579, -1345743.4, -22329.205, 0.0, 10.002437, 9.968125 
4.9851495e+3, 1.7492598e+2, -1247816.6, -1274084.1, 1.4554558, 0.0003975772, 0.0000039695883, -1247816.6, -22090.658, 0.0, 10.002425, 9.967712 
4.9851483e+3, 1.8488753e+2, -1159754.3, -1195499.5, 9.90726, 0.00039620127, 0.00014847443, -1159754.3, -31651.451, 0.0, 10.002414, 9.955283 
4.985148e+3, 1.9484283e+2, -1061634.4, -1097633.9, 3.807619, 0.00039497126, 0.000015834834, -1061634.4, -31093.7, 0.0, 10.002403, 9.95494 
4.9851474e+3, 2.047915e+2, -973490.4, -1019245.44, 11.543785, 0.00039374531, 0.00013705464, -973490.4, -40446.5, 0.0, 10.002392, 9.942185 
4.985147e+3, 2.1473372e+2, -875232.1, -921241.06, 5.519028, 0.0003925235, -0.00005768423, -875232.1, -39622.02, 0.0, 10.002381, 9.941845 
4.9851465e+3, 2.2466925e+2, -786965.5, -842986.1, 12.501062, 0.00039131832, 0.00018865126, -786965.5, -48723.625, 0.0, 10.002371, 9.928809 
4.9851456e+3, 2.3459813e+2, -688559.6, -744827.7, 6.5833173, 0.00039013108, -0.000024159392, -688559.6, -47620.7, 0.0, 10.002361, 9.928478 
4.985145e+3, 2.4452005e+2, -600254.94, -666891.1, 12.845393, 0.00038897948, 0.00013686744, -600254.94, -56550.97, 0.0, 10.002352, 9.915044 
4.9851444e+3, 2.544352e+2, -501529.25, -568235.1, 6.965919, 0.00038786937, -0.000046347366, -501529.25, -54993.883, 0.0, 10.002341, 9.914944 
4.985144e+3, 2.643433e+2, -413314.75, -490894.9, 12.600429, 0.00038669902, 0.00019877664, -413314.75, -63878.58, 0.0, 10.002332, 9.900875 
4.9851435e+3, 2.7424473e+2, -314056.06, -391301.06, 6.8388987, 0.00038545168, -0.00014802304, -314056.06, -61653.9, 0.0, 10.002322, 9.901295 
4.985143e+3, 2.8413793e+2, -227583.38, -317983.1, 10.780177, 0.00038444137, 0.0002825004, -227583.38, -72134.69, 0.0, 10.002313, 9.8843775 
4.9851426e+3, 2.9402333e+2, -127902.086, -217682.63, 5.443315, 0.0003837526, -0.00020077797, -127902.086, -69330.61, 0.0, 10.002304, 9.885158 
4.9851426e+3, 3.0393672e+2, -38231.34, -84760.86, 7.4475074, 0.00038232422, 0.00022288726, -38231.34, -38231.34, 0.0, 10.002295, 9.941061 
4.985142e+3, 3.1387964e+2, -37171.688, -82537.08, 1.5298268, 0.000379803, -0.000011034885, -37171.688, -37171.688, 0.0, 10.002285, 9.942566 
4.9951553e+3, 1.2502411e+2, -1716906.0, -1723934.5, 0.51238936, 0.00041077737, 0.00013101194, -1716906.0, -2141.584, 0.0, 10.002487, 9.993172 
4.9951544e+3, 1.3501714e+2, -1619560.4, -1627170.9, -4.656216, 0.00040775086, -0.00004724778, -1619560.4, -2727.6462, 0.0, 10.002475, 9.992389 
4.9951538e+3, 1.4500365e+2, -1531448.8, -1547829.9, 1.0315727, 0.0004058062, 0.00021504278, -1531448.8, -12483.818, 0.0, 10.002461, 9.980755 
4.995153e+3, 1.5498437e+2, -1433754.0, -1450529.1, -4.3801575, 0.00040493277, 0.000026950418, -1433754.0, -12600.186, 0.0, 10.002449, 9.980224 
4.9951524e+3, 1.6495848e+2, -1345756.4, -1371729.4, 3.202389, 0.00040373526, 0.00010936256, -1345756.4, -22348.904, 0.0, 10.002438, 9.968109 
4.9951518e+3, 1.7492664e+2, -1247829.5, -1274109.6, -2.9121718, 0.00040221168, 0.000005362614, -1247829.5, -22110.041, 0.0, 10.002425, 9.967696 
4.995151e+3, 1.8488817e+2, -1159767.3, -1195525.3, 5.776499, 0.0004008373, 0.00014984439, -1159767.3, -31670.686, 0.0, 10.002415, 9.955267 
4.9951503e+3, 1.9484346e+2, -1061647.3, -1097659.5, -0.32185927, 0.00039961637, 0.000017296428, -1061647.3, -31112.611, 0.0, 10.002403, 9.954924 
4.99515e+3, 2.047921e+2, -973503.1, -1019271.06, 7.5973206, 0.00039840618, 0.00013850955, -973503.1, -40465.188, 0.0, 10.002393, 9.942169 
4.9951494e+3, 2.1473432e+2, -875244.7, -921266.56, 1.574886, 0.00039720713, -0.000056341556, -875244.7, -39640.383, 0.0, 10.002382, 9.941828 
4.9951485e+3, 2.2466983e+2, -786978.0, -843011.56, 8.741659, 0.00039599455, 0.00018996501, -786978.0, -48741.742, 0.0, 10.002372, 9.928793 
4.995148e+3, 2.3459868e+2, -688571.94, -744853.0, 2.8274915, 0.0003947661, -0.000022780923, -688571.94, -47638.492, 0.0, 10.002361, 9.928462 
4.9951476e+3, 2.445206e+2, -600267.4, -666916.75, 9.182565, 0.00039361822, 0.00013823817, -600267.4, -56568.68, 0.0, 10.002352, 9.915027 
4.995147e+3, 2.5443575e+2, -501541.47, -568260.6, 3.307129, 0.0003925652, -0.00004507045, -501541.47, -55011.27, 0.0, 10.002342, 9.914927 
4.9951464e+3, 2.643438e+2, -413326.94, -490920.47, 9.022133, 0.00039141483, 0.00020001024, -413326.94, -63895.75, 0.0, 10.002333, 9.900858 
4.995146e+3, 2.742452e+2, -314068.1, -391326.47, 3.2639005, 0.0003901403, -0.00014676858, -314068.1, -61670.74, 0.0, 10.002323, 9.9012785 
4.9951455e+3, 2.841384e+2, -227594.66, -318007.16, 7.2214856, 0.00038911967, 0.00028376267, -227594.66, -72150.625, 0.0, 10.002314, 9.884361 
4.995145e+3, 2.940238e+2, -127913.16, -217706.4, 1.8846976, 0.00038844356, -0.00019952624, -127913.16, -69346.17, 0.0, 10.002304, 9.885142 
4.9951446e+3, 3.0393717e+2, -38243.805, -84787.63, 3.8882287, 0.00038703112, 0.00022408592, -38243.805, -38243.805, 0.0, 10.002295, 9.941043 
4.995144e+3, 3.1388006e+2, -37184.332, -82564.23, -2.0309994, 0.00038453066, -0.00000995129, -37184.332, -37184.332, 0.0, 10.002285, 9.942548 
5.0051576e+3, 1.2502486e+2, -1716806.3, -1723897.0, 5.587364, 0.00041540927, 0.00013255735, -1716806.3, -2049.0918, 0.0, 10.002556, 9.993158 
5.005157e+3, 1.3501787e+2, -1619461.0, -1627133.9, 0.4180023, 0.0004124131, -0.000045752186, -1619461.0, -2635.3335, 0.0, 10.002543, 9.992374 
5.0051564e+3, 1.4500436e+2, -1531350.0, -1547794.3, 6.2988677, 0.00041047644, 0.00021652239, -1531350.0, -12392.082, 0.0, 10.002531, 9.980741 
5.005156e+3, 1.5498507e+2, -1433655.4, -1450493.9, 0.75565904, 0.0004095885, 0.00002844748, -1433655.4, -12508.5, 0.0, 10.002519, 9.980209 
5.0051546e+3, 1.6495916e+2, -1345659.5, -1371697.3, 8.49574, 0.0004083933, 0.00011084283, -1345659.5, -22258.72, 0.0, 10.002506, 9.968093 
5.005154e+3, 1.7492731e+2, -1247732.9, -1274078.0, 2.2505448, 0.00040688898, 0.000006791638, -1247732.9, -22019.96, 0.0, 10.002495, 9.967679 
5.0051534e+3, 1.8488882e+2, -1159670.9, -1195494.1, 11.080754, 0.00040552858, 0.00015125998, -1159670.8, -31580.645, 0.0, 10.002484, 9.95525 
5.005153e+3, 1.948441e+2, -1061551.0, -1097628.8, 4.8703227, 0.00040431606, 0.000018737725, -1061551.0, -31022.645, 0.0, 10.002473, 9.954907 
5.005152e+3, 2.0479272e+2, -973407.06, -1019240.7, 12.879479, 0.00040310563, 0.00013993843, -973407.06, -40375.184, 0.0, 10.002462, 9.942152 
5.0051516e+3, 2.1473491e+2, -875148.75, -921236.5, 6.723381, 0.00040189712, -0.000054966047, -875148.75, -39550.395, 0.0, 10.002452, 9.941812 
5.005151e+3, 2.2467041e+2, -786882.25, -842982.0, 13.9113035, 0.0004006923, 0.0001913098, -786882.25, -48651.777, 0.0, 10.002442, 9.928776 
5.0051504e+3, 2.3459926e+2, -688476.5, -744823.9, 7.786557, 0.00039949093, -0.000021441409, -688476.5, -47548.66, 0.0, 10.002433, 9.928445 
5.00515e+3, 2.4452116e+2, -600172.06, -666888.0, 14.114532, 0.00039835673, 0.00013956112, -600172.06, -56478.813, 0.0, 10.002422, 9.9150095 
5.005149e+3, 2.5443628e+2, -501446.34, -568232.25, 8.141559, 0.00039730137, -0.000043777578, -501446.34, -54921.383, 0.0, 10.002413, 9.91491 
5.0051486e+3, 2.6434433e+2, -413232.0, -490892.72, 13.793999, 0.00039615115, 0.00020127984, -413232.0, -63805.9, 0.0, 10.002404, 9.900841 
5.0051486e+3, 2.7424574e+2, -313973.44, -391299.16, 7.8170867, 0.00039488001, -0.0001455135, -313973.44, -61580.984, 0.0, 10.002395, 9.901261 
5.005148e+3, 2.841389e+2, -227499.36, -317978.7, 11.614308, 0.00039386496, 0.00028500584, -227499.36, -72060.08, 0.0, 10.002385, 9.884345 
5.0051475e+3, 2.940243e+2, -127818.055, -217678.23, 6.092844, 0.0003931974, -0.00019829177, -127818.055, -69255.664, 0.0, 10.002376, 9.885126 
5.005147e+3, 3.0393758e+2, -38151.08, -84763.61, 7.8113513, 0.00039179914, 0.00022527455, -38151.074, -38151.074, 0.0, 10.002367, 9.941024 
5.005146e+3, 3.138805e+2, -37091.51, -82540.48, 1.6652776, 0.0003893214, -0.000008862645, -37091.51, -37091.51, 0.0, 10.0023575, 9.942529 
5.0151604e+3, 1.2502562e+2, -1716817.8, -1723919.3, 0.7729265, 0.00042006152, 0.00013408002, -1716817.8, -2068.0447, 0.0, 10.002557, 9.993144 
5.01516e+3, 1.3501862e+2, -1619472.4, -1627156.0, -4.396691, 0.0004171262, -0.000044211112, -1619472.4, -2654.01, 0.0, 10.002543, 9.992361 
5.0151587e+3, 1.4500509e+2, -1531362.1, -1547817.8, 1.7358748, 0.00041519818, 0.0002180413, -1531362.1, -12411.274, 0.0, 10.002531, 9.980726 
5.015158e+3, 1.549858e+2, -1433667.4, -1450517.3, -3.8069537, 0.0004142667, 0.000029903558, -1433667.4, -12527.398, 0.0, 10.002519, 9.980194 
5.0151575e+3, 1.6495986e+2, -1345672.9, -1371723.6, 4.1904163, 0.00041307084, 0.000112280395, -1345672.9, -22278.938, 0.0, 10.002507, 9.968077 
5.015157e+3, 1.74928e+2, -1247746.1, -1274104.1, -2.0551233, 0.00041160933, 0.000008255618, -1247746.1, -22039.854, 0.0, 10.002496, 9.967663 
5.0151557e+3, 1.8488948e+2, -1159684.0, -1195520.3, 7.019429, 0.00041027457, 0.00015271956, -1159684.0, -31600.342, 0.0, 10.002484, 9.955234 
5.015155e+3, 1.9484475e+2, -1061564.0, -1097654.8, 0.8099734, 0.00040906985, 0.000020160927, -1061564.0, -31042.016, 0.0, 10.002474, 9.95489 
5.015155e+3, 2.0479336e+2, -973420.06, -1019266.9, 9.017921, 0.00040784426, 0.00014134381, -973420.06, -40394.37, 0.0, 10.002463, 9.942136 
5.0151545e+3, 2.1473554e+2, -875161.6, -921262.56, 2.863896, 0.00040659588, -0.00005355852, -875161.6, -39569.25, 0.0, 10.002453, 9.941794 
5.015153e+3, 2.24671e+2, -786895.2, -843008.4, 10.210286, 0.00040541313, 0.00019268485, -786895.2, -48670.535, 0.0, 10.002442, 9.92876 
5.0151527e+3, 2.3459984e+2, -688489.25, -744850.0, 4.0897074, 0.00040430325, -0.000020137699, -688489.25, -47567.086, 0.0, 10.002433, 9.928428 
5.015152e+3, 2.445217e+2, -600184.6, -666914.06, 10.549632, 0.000403192, 0.0001408399, -600184.6, -56496.926, 0.0, 10.002423, 9.914993 
5.015152e+3, 2.5443682e+2, -501458.75, -568258.1, 4.580487, 0.00040207835, -0.000042468648, -501458.75, -54939.156, 0.0, 10.002414, 9.914893 
5.0151515e+3, 2.6434484e+2, -413244.6, -490919.13, 10.2893715, 0.0004009097, 0.00020258443, -413244.6, -63823.676, 0.0, 10.002404, 9.900824 
5.015151e+3, 2.7424622e+2, -313985.84, -391325.44, 4.3154135, 0.00039967074, -0.00014425695, -313985.84, -61598.434, 0.0, 10.002395, 9.901243 
5.0151503e+3, 2.8413936e+2, -227510.97, -318003.5, 8.132135, 0.00039867635, 0.0002862318, -227510.97, -72076.54, 0.0, 10.002386, 9.884329 
5.01515e+3, 2.9402477e+2, -127829.44, -217702.73, 2.6111085, 0.00039801345, -0.0001970727, -127829.44, -69271.74, 0.0, 10.002377, 9.88511 
5.015149e+3, 3.039381e+2, -38163.918, -84791.23, 4.329884, 0.00039662776, 0.0002264546, -38163.918, -38163.918, 0.0, 10.002367, 9.941005 
5.015149e+3, 3.1388095e+2, -37104.54, -82568.484, -1.8184544, 0.00039417454, -0.000007768404, -37104.54, -37104.54, 0.0, 10.0023575, 9.94251 
5.025163e+3, 1.2502639e+2, -1716716.1, -1723881.0, 5.8541684, 0.000424758, 0.0001355487, -1716716.1, -1973.9731, 0.0, 10.002626, 9.99313 
5.025162e+3, 1.3501936e+2, -1619370.9, -1627118.0, 0.55349696, 0.00042183895, -0.000042702628, -1619370.9, -2559.9905, 0.0, 10.002614, 9.992347 
5.025161e+3, 1.4500582e+2, -1531261.4, -1547781.4, 6.8756204, 0.00041992415, 0.00021954371, -1531261.4, -12317.774, 0.0, 10.002602, 9.980711 
5.025161e+3, 1.5498653e+2, -1433566.6, -1450481.1, 1.2778383, 0.00041900264, 0.000031354022, -1433566.6, -12433.865, 0.0, 10.002589, 9.98018 
5.02516e+3, 1.649606e+2, -1345573.9, -1371690.9, 9.44904, 0.00041781404, 0.000113714836, -1345573.9, -22186.92, 0.0, 10.002578, 9.96806 
5.025159e+3, 1.749287e+2, -1247647.4, -1274071.9, 3.0711722, 0.00041635707, 0.000009710473, -1247647.4, -21947.879, 0.0, 10.002566, 9.967646 
5.0251585e+3, 1.8489017e+2, -1159585.4, -1195488.4, 12.281161, 0.00041503058, 0.00015416088, -1159585.4, -31508.332, 0.0, 10.002556, 9.955216 
5.025158e+3, 1.9484541e+2, -1061465.5, -1097623.1, 5.9324255, 0.00041383793, 0.000021553493, -1061465.5, -30950.014, 0.0, 10.002545, 9.954873 
5.0251573e+3, 2.04794e+2, -973321.7, -1019235.75, 14.220298, 0.00041262593, 0.00014272078, -973321.6, -40302.3, 0.0, 10.002535, 9.942119 
5.025157e+3, 2.1473616e+2, -875063.3, -921231.75, 7.9011264, 0.00041139286, -0.000052161606, -875063.3, -39477.1, 0.0, 10.002524, 9.941777 
5.0251555e+3, 2.2467162e+2, -786797.0, -842978.06, 15.273497, 0.00041022184, 0.0001940573, -786797.0, -48578.33, 0.0, 10.002515, 9.928741 
5.0251555e+3, 2.3460044e+2, -688391.25, -744820.06, 9.036953, 0.0004091198, -0.000018839608, -688391.25, -47474.887, 0.0, 10.002505, 9.928411 
5.025155e+3, 2.4452229e+2, -600086.75, -666884.56, 15.477035, 0.0004080152, 0.00014211227, -600086.75, -56404.664, 0.0, 10.002496, 9.914975 
5.0251544e+3, 2.544374e+2, -501361.1, -568229.0, 9.282892, 0.00040690682, -0.000041164294, -501361.1, -54846.953, 0.0, 10.002486, 9.914876 
5.025154e+3, 2.643454e+2, -413147.1, -490890.66, 14.89919, 0.00040575056, 0.0002038783, -413147.1, -63731.492, 0.0, 10.002478, 9.900805 
5.025153e+3, 2.7424675e+2, -313888.47, -391297.28, 8.78695, 0.00040453306, -0.00014302725, -313888.47, -61506.18, 0.0, 10.002468, 9.901226 
5.0251526e+3, 2.841399e+2, -227412.81, -317974.16, 12.488923, 0.00040354993, 0.0002874302, -227412.81, -71983.336, 0.0, 10.00246, 9.884312 
5.0251526e+3, 2.9402527e+2, -127731.38, -217673.66, 6.7938104, 0.00040288433, -0.0001958609, -127731.38, -69178.484, 0.0, 10.002451, 9.885093 
5.025152e+3, 3.0393854e+2, -38068.297, -84766.53, 8.208247, 0.00040150518, 0.00022764254, -38068.293, -38068.293, 0.0, 10.002441, 9.940986 
5.0251514e+3, 3.138814e+2, -37008.777, -82544.055, 1.7786815, 0.00039907245, -0.0000066590133, -37008.777, -37008.777, 0.0, 10.002433, 9.942491 
5.0351655e+3, 1.2502716e+2, -1716728.0, -1723903.9, 1.1200285, 0.00042949876, 0.00013696792, -1716728.0, -1993.4725, 0.0, 10.002626, 9.993116 
5.0351644e+3, 1.3502014e+2, -1619382.6, -1627140.8, -4.1793804, 0.00042655412, -0.000041223662, -1619382.6, -2579.2034, 0.0, 10.002614, 9.992332 
5.0351644e+3, 1.450066e+2, -1531273.5, -1547805.0, 2.4137049, 0.00042465693, 0.00022103167, -1531273.5, -12337.319, 0.0, 10.002602, 9.980697 
5.035163e+3, 1.5498726e+2, -1433578.6, -1450504.6, -3.184177, 0.00042379572, 0.000032800308, -1433578.6, -12453.117, 0.0, 10.00259, 9.980165 
5.0351626e+3, 1.6496131e+2, -1345587.5, -1371717.8, 5.2203526, 0.00042262173, 0.00011514745, -1345587.5, -22207.656, 0.0, 10.002579, 9.968042 
5.0351614e+3, 1.749294e+2, -1247660.9, -1274098.5, -1.1577898, 0.0004211334, 0.000011157819, -1247660.9, -21968.283, 0.0, 10.002567, 9.967629 
5.0351614e+3, 1.8489085e+2, -1159598.8, -1195515.1, 8.3057375, 0.00041979886, 0.00015558608, -1159598.8, -31528.549, 0.0, 10.002556, 9.955199 
5.035161e+3, 1.9484608e+2, -1061478.9, -1097649.9, 1.957861, 0.0004186223, 0.000022918312, -1061478.9, -30969.893, 0.0, 10.002545, 9.954857 
5.0351596e+3, 2.0479466e+2, -973335.0, -1019262.6, 10.467871, 0.00041745102, 0.00014407202, -973335.0, -40322.047, 0.0, 10.002535, 9.9421015 
5.035159e+3, 2.147368e+2, -875076.44, -921258.44, 4.1515427, 0.00041628507, -0.0000507737, -875076.44, -39496.51, 0.0, 10.002525, 9.94176 
5.0351584e+3, 2.2467224e+2, -786810.1, -843004.9, 11.663389, 0.00041511617, 0.00019542825, -786810.1, -48597.535, 0.0, 10.002516, 9.928724 
5.035158e+3, 2.3460104e+2, -688404.2, -744846.75, 5.429708, 0.00041394323, -0.000017545764, -688404.2, -47493.75, 0.0, 10.002506, 9.928393 
5.035157e+3, 2.4452287e+2, -600099.75, -666911.5, 11.992468, 0.00041282995, 0.00014337966, -600099.75, -56423.414, 0.0, 10.002497, 9.914958 
5.0351566e+3, 2.5443795e+2, -501373.9, -568255.75, 5.8026943, 0.00041178666, -0.000039863342, -501373.9, -54865.367, 0.0, 10.002487, 9.914858 
5.035156e+3, 2.6434594e+2, -413159.94, -490917.63, 11.511596, 0.00041067187, 0.00020516296, -413159.94, -63749.73, 0.0, 10.002478, 9.900788 
5.035156e+3, 2.742473e+2, -313901.16, -391324.13, 5.4036126, 0.00040946578, -0.00014182198, -313901.16, -61524.074, 0.0, 10.002469, 9.901208 
5.0351554e+3, 2.841404e+2, -227424.72, -317999.6, 9.112679, 0.00040848512, 0.00028860354, -227424.72, -72000.3, 0.0, 10.0024605, 9.8842945 
5.035155e+3, 2.9402575e+2, -127743.06, -217698.81, 3.4168937, 0.00040780992, -0.00019465503, -127743.06, -69195.05, 0.0, 10.002451, 9.885076 
5.035154e+3, 3.03939e+2, -38081.6, -84795.18, 4.8207726, 0.00040643165, 0.00022883873, -38081.6, -38081.6, 0.0, 10.002442, 9.940967 
5.0351536e+3, 3.1388187e+2, -37022.29, -82573.13, -1.61103, 0.00040401556, -0.0000055345877, -37022.29, -37022.29, 0.0, 10.002433, 9.942471 
5.045168e+3, 1.2502797e+2, -1716624.5, -1723864.9, 6.02973, 0.00043424862, 0.00013843286, -1716624.4, -1897.7661, 0.0, 10.002698, 9.993102 
5.045167e+3, 1.3502093e+2, -1619279.1, -1627102.0, 0.6837844, 0.00043131682, -0.000039761177, -1619279.1, -2483.4, 0.0, 10.002686, 9.992318 
5.0451666e+3, 1.4500736e+2, -1531170.6, -1547767.8, 7.478487, 0.0004294376, 0.0002224904, -1531170.6, -12241.975, 0.0, 10.002674, 9.980681 
5.045166e+3, 1.54988e+2, -1433476.0, -1450467.8, 1.7893628, 0.00042859922, 0.000034253688, -1433476.0, -12357.838, 0.0, 10.002662, 9.980149 
5.045165e+3, 1.6496205e+2, -1345486.6, -1371684.4, 10.36804, 0.00042743763, 0.00011659195, -1345486.6, -22113.953, 0.0, 10.00265, 9.968026 
5.045165e+3, 1.7493011e+2, -1247559.9, -1274065.4, 3.8664536, 0.0004259512, 0.000012590038, -1247559.9, -21874.41, 0.0, 10.00264, 9.967612 
5.0451636e+3, 1.8489155e+2, -1159497.9, -1195482.5, 13.465606, 0.00042462727, 0.000156997, -1159497.9, -31434.492, 0.0, 10.002629, 9.955182 
5.045163e+3, 1.9484676e+2, -1061377.9, -1097617.4, 6.9661474, 0.00042347022, 0.000024298588, -1061377.9, -30875.693, 0.0, 10.002619, 9.954839 
5.045162e+3, 2.0479533e+2, -973234.2, -1019230.7, 15.550202, 0.0004223215, 0.00014542732, -973234.2, -40227.773, 0.0, 10.002609, 9.942084 
5.045162e+3, 2.1473746e+2, -874975.9, -921226.94, 9.090366, 0.0004211813, -0.000049437323, -874975.9, -39402.266, 0.0, 10.002599, 9.941743 
5.045161e+3, 2.2467288e+2, -786709.56, -842973.75, 16.634428, 0.00042002124, 0.00019675685, -786709.56, -48503.168, 0.0, 10.002589, 9.928707 
5.0451607e+3, 2.3460165e+2, -688303.6, -744815.94, 10.239408, 0.0004188381, -0.000016212422, -688303.6, -47399.22, 0.0, 10.002581, 9.928376 
5.0451595e+3, 2.4452347e+2, -599999.25, -666881.25, 16.769377, 0.00041773322, 0.00014469262, -599999.25, -56328.773, 0.0, 10.002571, 9.91494 
5.0451595e+3, 2.5443855e+2, -501273.56, -568225.9, 10.417823, 0.00041672026, -0.00003860054, -501273.56, -54770.67, 0.0, 10.0025625, 9.91484 
5.045159e+3, 2.643465e+2, -413059.66, -490888.28, 16.058403, 0.00041562718, 0.00020638721, -413059.66, -63654.96, 0.0, 10.002553, 9.90077 
5.045158e+3, 2.7424783e+2, -313801.0, -391295.13, 9.747378, 0.00041443185, -0.00014062144, -313801.0, -61429.26, 0.0, 10.002544, 9.90119 
5.0451577e+3, 2.8414094e+2, -227323.78, -317969.4, 13.304274, 0.00041346066, 0.00028979167, -227323.77, -71904.51, 0.0, 10.002536, 9.884277 
5.045157e+3, 2.940263e+2, -127642.14, -217668.84, 7.4307847, 0.0004127931, -0.00019346425, -127642.14, -69099.12, 0.0, 10.002527, 9.885059 
5.0451565e+3, 3.0393952e+2, -37983.11, -84769.766, 8.567457, 0.00041142758, 0.00022999843, -37983.11, -37983.11, 0.0, 10.002519, 9.940947 
5.0451565e+3, 3.1388232e+2, -36923.473, -82547.91, 1.9430054, 0.00040903193, -0.0000044550948, -36923.473, -36923.473, 0.0, 10.00251, 9.942451 
5.0551707e+3, 1.2502877e+2, -1716636.4, -1723887.9, 1.4144429, 0.0004390099, 0.00013994162, -1716636.4, -1917.6084, 0.0, 10.002699, 9.993088 
5.05517e+3, 1.3502172e+2, -1619290.9, -1627124.9, -3.9299269, 0.00043612698, -0.00003831306, -1619290.9, -2502.9531, 0.0, 10.0026865, 9.992304 
5.0551695e+3, 1.4500813e+2, -1531183.0, -1547791.9, 3.0958278, 0.00043426614, 0.00022392282, -1531183.0, -12261.954, 0.0, 10.002674, 9.980666 
5.055168e+3, 1.5498878e+2, -1433488.3, -1450491.6, -2.5941129, 0.00043341544, 0.00003571477, -1433488.3, -12377.513, 0.0, 10.002663, 9.980135 
5.0551677e+3, 1.649628e+2, -1345500.5, -1371711.8, 6.268332, 0.00043226415, 0.00011804863, -1345500.5, -22135.176, 0.0, 10.002651, 9.968008 
5.055167e+3, 1.7493084e+2, -1247573.6, -1274092.6, -0.23348713, 0.0004308109, 0.000014009096, -1247573.6, -21895.295, 0.0, 10.00264, 9.967594 
5.0551665e+3, 1.8489227e+2, -1159511.6, -1195509.9, 9.614814, 0.00042951506, 0.00015839559, -1159511.6, -31455.25, 0.0, 10.002629, 9.955165 
5.055165e+3, 1.9484748e+2, -1061391.5, -1097644.6, 3.1162505, 0.0004283808, 0.00002569438, -1061391.5, -30896.105, 0.0, 10.002619, 9.954822 
5.055165e+3, 2.04796e+2, -973247.75, -1019258.2, 11.88242, 0.00042723754, 0.00014678737, -973247.75, -40248.027, 0.0, 10.002609, 9.942066 
5.055164e+3, 2.1473812e+2, -874989.25, -921254.2, 5.4247284, 0.00042608427, -0.00004814834, -874989.25, -39422.17, 0.0, 10.0026, 9.941726 
5.0551635e+3, 2.2467352e+2, -786722.94, -843001.25, 13.158211, 0.00042493938, 0.00019804669, -786722.94, -48522.902, 0.0, 10.00259, 9.928689 
5.055163e+3, 2.3460227e+2, -688316.9, -744843.25, 6.7669516, 0.00042380317, -0.000014841045, -688316.9, -47418.61, 0.0, 10.002581, 9.928358 
5.0551623e+3, 2.4452408e+2, -600012.56, -666908.8, 13.396173, 0.0004227227, 0.00014604932, -600012.56, -56348.043, 0.0, 10.002572, 9.914922 
5.0551623e+3, 2.5443915e+2, -501286.7, -568253.3, 7.0484247, 0.00042170743, -0.000037372654, -501286.7, -54789.59, 0.0, 10.0025625, 9.914823 
5.055161e+3, 2.6434708e+2, -413072.88, -490916.06, 12.782878, 0.00042061752, 0.00020755563, -413072.88, -63673.77, 0.0, 10.002554, 9.900752 
5.0551605e+3, 2.742484e+2, -313814.03, -391322.75, 6.476148, 0.0004194324, -0.00013942448, -313814.03, -61447.723, 0.0, 10.002545, 9.901172 
5.05516e+3, 2.8414148e+2, -227335.98, -317995.56, 10.057631, 0.00041847726, 0.0002909946, -227335.98, -71921.97, 0.0, 10.002537, 9.88426 
5.05516e+3, 2.940268e+2, -127654.12, -217694.69, 4.1847773, 0.00041783362, -0.00019228684, -127654.12, -69116.164, 0.0, 10.002528, 9.885041 
5.0551593e+3, 3.0394e+2, -37996.73, -84799.12, 5.3218193, 0.00041649202, 0.0002311246, -37996.73, -37996.73, 0.0, 10.00252, 9.940927 
5.055159e+3, 3.138828e+2, -36937.297, -82577.7, -1.304513, 0.00041412044, -0.0000034170362, -36937.297, -36937.297, 0.0, 10.002511, 9.9424305 
5.065174e+3, 1.2502961e+2, -1716531.0, -1723848.0, 6.2582316, 0.00044380274, 0.00014141113, -1716531.0, -1820.2809, 0.0, 10.002771, 9.993073 
5.065173e+3, 1.3502252e+2, -1619185.6, -1627085.4, 0.8812908, 0.0004409693, -0.000036865353, -1619185.6, -2405.5615, 0.0, 10.002759, 9.99229 
5.065172e+3, 1.4500892e+2, -1531078.3, -1547753.9, 8.100553, 0.00043912686, 0.00022535613, -1531078.3, -12165.022, 0.0, 10.002748, 9.980651 
5.065171e+3, 1.5498957e+2, -1433383.4, -1450453.9, 2.2734199, 0.0004382635, 0.000037140762, -1433383.4, -12280.288, 0.0, 10.002736, 9.98012 
5.0651705e+3, 1.6496356e+2, -1345397.3, -1371677.5, 11.287064, 0.00043712748, 0.00011945551, -1345397.3, -22039.383, 0.0, 10.002725, 9.967991 
5.06517e+3, 1.749316e+2, -1247470.4, -1274058.6, 4.6562724, 0.00043571784, 0.000015385152, -1247470.4, -21799.355, 0.0, 10.002714, 9.967577 
5.065169e+3, 1.8489301e+2, -1159408.5, -1195476.5, 14.633985, 0.00043444958, 0.00015976412, -1159408.5, -31359.205, 0.0, 10.002705, 9.955147 
5.065169e+3, 1.948482e+2, -1061288.4, -1097611.6, 7.9884763, 0.00043332635, 0.000027079459, -1061288.4, -30799.947, 0.0, 10.002694, 9.954804 
5.0651675e+3, 2.047967e+2, -973144.6, -1019225.5, 16.830114, 0.00043218615, 0.00014815328, -973144.6, -40151.656, 0.0, 10.002685, 9.942048 
5.065167e+3, 2.1473879e+2, -874886.06, -921221.8, 10.229797, 0.0004310273, -0.000046839832, -874886.06, -39325.55, 0.0, 10.002675, 9.941708 
5.0651664e+3, 2.2467418e+2, -786619.8, -842969.4, 17.97644, 0.00042990307, 0.00019932326, -786619.8, -48426.15, 0.0, 10.002666, 9.928671 
5.065166e+3, 2.3460291e+2, -688213.9, -744811.75, 11.387146, 0.0004288168, -0.000013567812, -688213.9, -47321.82, 0.0, 10.002657, 9.92834 
5.065165e+3, 2.445247e+2, -599909.56, -666877.75, 17.993837, 0.00042776135, 0.00014731109, -599909.5, -56251.06, 0.0, 10.002648, 9.914904 
5.0651646e+3, 2.5443974e+2, -501183.56, -568222.5, 11.514431, 0.00042674158, -0.000036132045, -501183.56, -54692.355, 0.0, 10.00264, 9.9148035 
5.065164e+3, 2.6434764e+2, -412969.84, -490885.94, 17.182827, 0.00042565638, 0.00020877064, -412969.8, -63576.42, 0.0, 10.002631, 9.900733 
5.0651634e+3, 2.7424896e+2, -313711.06, -391293.0, 10.672197, 0.00042448772, -0.00013824053, -313711.06, -61350.26, 0.0, 10.002623, 9.901153 
5.065163e+3, 2.8414202e+2, -227232.11, -317964.47, 14.105272, 0.0004235498, 0.000292154, -227232.11, -71823.43, 0.0, 10.002615, 9.884243 
5.065162e+3, 2.940273e+2, -127550.24, -217663.81, 8.040238, 0.00042292432, -0.00019114341, -127550.24, -69017.46, 0.0, 10.002606, 9.885024 
5.0651616e+3, 3.0394053e+2, -37895.332, -84772.945, 8.893626, 0.00042160993, 0.00023222757, -37895.332, -37895.332, 0.0, 10.002598, 9.940907 
5.065161e+3, 3.138833e+2, -36835.53, -82551.71, 2.0160916, 0.0004192791, -0.0000023898635, -36835.53, -36835.53, 0.0, 10.00259, 9.9424095 
5.0751764e+3, 1.2503044e+2, -1716543.0, -1723871.3, 1.7544996, 0.00044862804, 0.00014284498, -1716542.9, -1840.4261, 0.0, 10.002771, 9.993058 
5.075176e+3, 1.3502334e+2, -1619197.4, -1627108.4, -3.622624, 0.00044584458, -0.000035416924, -1619197.4, -2425.4128, 0.0, 10.002759, 9.992275 
5.0751746e+3, 1.4500974e+2, -1531090.9, -1547778.5, 3.880875, 0.0004440207, 0.00022679138, -1531090.9, -12185.532, 0.0, 10.002748, 9.980636 
5.075174e+3, 1.5499035e+2, -1433395.9, -1450478.5, -1.9455277, 0.00044314438, 0.000038534934, -1433395.9, -12300.487, 0.0, 10.002736, 9.9801035 
5.0751734e+3, 1.6496432e+2, -1345411.4, -1371705.4, 7.311563, 0.00044202842, 0.000120816796, -1345411.4, -22061.102, 0.0, 10.002726, 9.967974 
5.075172e+3, 1.7493236e+2, -1247484.4, -1274086.4, 0.6799143, 0.00044067207, 0.000016721999, -1247484.4, -21820.729, 0.0, 10.002715, 9.96756 
5.0751716e+3, 1.8489374e+2, -1159422.5, -1195504.6, 10.901031, 0.00043943097, 0.00016110556, -1159422.5, -31380.482, 0.0, 10.002705, 9.955129 
5.075171e+3, 1.9484891e+2, -1061302.3, -1097639.5, 4.256658, 0.00043830776, 0.000028455455, -1061302.3, -30820.871, 0.0, 10.002695, 9.954786 
5.0751704e+3, 2.047974e+2, -973158.5, -1019253.56, 13.316208, 0.00043716832, 0.00014952561, -973158.5, -40172.406, 0.0, 10.002685, 9.94203 
5.075169e+3, 2.1473947e+2, -874899.75, -921249.7, 6.7178736, 0.0004360111, -0.00004551205, -874899.75, -39345.95, 0.0, 10.002676, 9.9416895 
5.075169e+3, 2.2467485e+2, -786633.6, -842997.7, 14.604035, 0.0004349126, 0.00020058837, -786633.6, -48446.48, 0.0, 10.002666, 9.928653 
5.0751686e+3, 2.3460355e+2, -688227.5, -744839.9, 8.01842, 0.00043387915, -0.000012385696, -688227.5, -47341.797, 0.0, 10.002658, 9.928322 
5.0751674e+3, 2.4452533e+2, -599923.06, -666905.9, 14.78029, 0.00043284934, 0.00014848475, -599923.06, -56270.773, 0.0, 10.002648, 9.9148855 
5.075167e+3, 2.5444034e+2, -501196.94, -568250.44, 8.305466, 0.00043182305, -0.000034878583, -501196.94, -54711.707, 0.0, 10.00264, 9.914785 
5.075166e+3, 2.6434827e+2, -412983.4, -490914.53, 14.040419, 0.00043074405, 0.00021003024, -412983.4, -63595.797, 0.0, 10.002632, 9.900714 
5.075166e+3, 2.7424952e+2, -313724.47, -391321.44, 7.533434, 0.0004295977, -0.00013706797, -313724.47, -61369.28, 0.0, 10.002624, 9.9011345 
5.0751656e+3, 2.8414258e+2, -227244.66, -317991.34, 10.997157, 0.00042867812, 0.0002932734, -227244.66, -71841.414, 0.0, 10.002615, 9.884225 
5.075165e+3, 2.9402786e+2, -127562.54, -217690.39, 4.933399, 0.00042806542, -0.00019003106, -127562.54, -69035.016, 0.0, 10.002607, 9.885006 
5.0751644e+3, 3.0394104e+2, -37909.367, -84803.23, 5.8031025, 0.0004267814, 0.00023330955, -37909.367, -37909.367, 0.0, 10.002599, 9.940886 
5.075164e+3, 3.1388378e+2, -36849.785, -82582.45, -1.0746477, 0.000424507, -0.00000137221, -36849.785, -36849.785, 0.0, 10.00259, 9.942389 
5.085179e+3, 1.2503129e+2, -1716435.8, -1723830.6, 6.46259, 0.00045347252, 0.00014422099, -1716435.8, -1741.5333, 0.0, 10.002845, 9.993044 
5.085178e+3, 1.3502419e+2, -1619090.0, -1627068.0, 0.941299, 0.0004507226, -0.000033994253, -1619090.0, -2326.161, 0.0, 10.002833, 9.992261 
5.085178e+3, 1.4501056e+2, -1530984.0, -1547739.8, 8.631404, 0.00044893284, 0.00022820968, -1530984.0, -12086.635, 0.0, 10.002822, 9.980619 
5.085177e+3, 1.5499115e+2, -1433288.9, -1450439.9, 2.7503583, 0.000448091, 0.000039898005, -1433288.9, -12201.37, 0.0, 10.002811, 9.980088 
5.0851756e+3, 1.6496512e+2, -1345306.1, -1371670.6, 12.168636, 0.00044699854, 0.00012216158, -1345306.1, -21963.494, 0.0, 10.002801, 9.967956 
5.085175e+3, 1.7493312e+2, -1247379.0, -1274051.8, 5.37624, 0.0004456547, 0.000018085897, -1247379.0, -21722.84, 0.0, 10.00279, 9.967542 
5.0851744e+3, 1.8489449e+2, -1159317.0, -1195470.4, 15.715959, 0.0004444236, 0.00016245342, -1159317.0, -31282.322, 0.0, 10.002781, 9.9551115 
5.085174e+3, 1.9484964e+2, -1061196.6, -1097605.5, 8.94086, 0.00044330774, 0.000029750887, -1061196.6, -30722.434, 0.0, 10.002771, 9.954768 
5.0851727e+3, 2.0479812e+2, -973052.9, -1019220.2, 18.06532, 0.00044219132, 0.00015080748, -973052.9, -40073.777, 0.0, 10.002762, 9.942012 
5.0851727e+3, 2.1474017e+2, -874794.2, -921216.56, 11.276907, 0.00044107396, -0.000044202123, -874794.2, -39247.156, 0.0, 10.002753, 9.941671 
5.085172e+3, 2.2467552e+2, -786527.94, -842965.0, 19.18327, 0.00043999616, 0.0002018737, -786527.94, -48347.45, 0.0, 10.002745, 9.928635 
5.085171e+3, 2.3460422e+2, -688121.7, -744807.44, 12.482346, 0.0004389619, -0.000011183992, -688121.7, -47242.465, 0.0, 10.002736, 9.928303 
5.08517e+3, 2.4452597e+2, -599817.3, -666874.0, 19.221798, 0.00043794452, 0.00014965629, -599817.25, -56171.23, 0.0, 10.0027275, 9.914866 
5.0851697e+3, 2.5444096e+2, -501091.25, -568218.94, 12.510673, 0.00043694637, -0.00003367387, -501091.22, -54612.074, 0.0, 10.002719, 9.914766 
5.0851697e+3, 2.6434883e+2, -412877.75, -490883.63, 18.158743, 0.0004358943, 0.00021122662, -412877.75, -63496.027, 0.0, 10.002711, 9.900695 
5.0851685e+3, 2.742501e+2, -313618.75, -391290.8, 11.5122595, 0.00043477336, -0.00013593234, -313618.75, -61269.25, 0.0, 10.002704, 9.901115 
5.085168e+3, 2.8414312e+2, -227137.89, -317959.4, 14.874251, 0.0004338704, 0.00029437811, -227137.89, -71740.164, 0.0, 10.002696, 9.884207 
5.085167e+3, 2.9402837e+2, -127455.625, -217658.6, 8.628348, 0.00043326226, -0.00018891679, -127455.625, -68933.445, 0.0, 10.002687, 9.884988 
5.085167e+3, 3.0394155e+2, -37804.95, -84776.33, 9.222284, 0.00043200422, 0.00023439211, -37804.95, -37804.95, 0.0, 10.00268, 9.940865 
5.0851667e+3, 3.1388432e+2, -36744.95, -82555.734, 2.0846539, 0.0004297878, -0.00000038170734, -36744.95, -36744.95, 0.0, 10.002672, 9.942368 
5.095182e+3, 1.2503214e+2, -1716448.0, -1723854.5, 2.1394887, 0.00045833786, 0.00014554415, -1716448.0, -1762.2329, 0.0, 10.002846, 9.99303 
5.095181e+3, 1.3502502e+2, -1619102.1, -1627091.6, -3.3800857, 0.00045560632, -0.000032594693, -1619102.1, -2346.5586, 0.0, 10.002834, 9.992246 
5.09518e+3, 1.4501138e+2, -1530996.6, -1547764.6, 4.560871, 0.0004538653, 0.00022961308, -1530996.6, -12107.474, 0.0, 10.002823, 9.980604 
5.0951797e+3, 1.5499195e+2, -1433301.4, -1450464.6, -1.3206162, 0.0004531021, 0.00004123304, -1433301.4, -12221.895, 0.0, 10.002811, 9.980073 
5.0951785e+3, 1.6496591e+2, -1345320.6, -1371699.1, 8.350035, 0.00045203636, 0.00012349198, -1345320.6, -21985.771, 0.0, 10.002801, 9.967937 
5.0951785e+3, 1.749339e+2, -1247393.3, -1274080.1, 1.5573888, 0.00045066708, 0.000019475974, -1247393.3, -21744.76, 0.0, 10.002791, 9.967524 
5.095177e+3, 1.8489525e+2, -1159331.4, -1195499.0, 12.142217, 0.00044943002, 0.00016380814, -1159331.4, -31304.074, 0.0, 10.002781, 9.955092 
5.095176e+3, 1.9485037e+2, -1061210.8, -1097634.0, 5.3674374, 0.00044832833, 0.00003097199, -1061210.8, -30743.824, 0.0, 10.002771, 9.95475 
5.0951755e+3, 2.0479885e+2, -973067.1, -1019249.0, 14.685372, 0.0004472558, 0.00015200576, -973067.1, -40095.113, 0.0, 10.002763, 9.941994 
5.0951755e+3, 2.1474087e+2, -874808.25, -921245.25, 7.8993783, 0.00044621408, -0.00004290805, -874808.25, -39268.13, 0.0, 10.002753, 9.941652 
5.0951743e+3, 2.246762e+2, -786542.0, -842993.75, 15.980643, 0.00044515228, 0.00020317874, -786542.0, -48368.2, 0.0, 10.002745, 9.928616 
5.095174e+3, 2.346049e+2, -688135.56, -744836.06, 9.282879, 0.00044406715, -0.00000996304, -688135.56, -47262.848, 0.0, 10.002736, 9.928285 
5.095173e+3, 2.4452662e+2, -599831.3, -666903.06, 16.132479, 0.0004430499, 0.00015082679, -599831.25, -56191.582, 0.0, 10.0027275, 9.914847 
5.0951725e+3, 2.544416e+2, -501105.06, -568247.8, 9.42587, 0.00044211227, -0.000032514017, -501105.06, -54632.063, 0.0, 10.00272, 9.914747 
5.095172e+3, 2.6434946e+2, -412891.56, -490912.78, 15.187252, 0.0004411066, 0.00021236457, -412891.56, -63515.84, 0.0, 10.002711, 9.900676 
5.0951713e+3, 2.7425072e+2, -313632.38, -391319.8, 8.545886, 0.00044001397, -0.00013483046, -313632.38, -61288.688, 0.0, 10.002704, 9.901095 
5.095171e+3, 2.8414372e+2, -227150.75, -317987.0, 11.946179, 0.000439126, 0.00029546992, -227150.75, -71758.63, 0.0, 10.002696, 9.884189 
5.09517e+3, 2.9402897e+2, -127468.234, -217685.88, 5.7023306, 0.00043851478, -0.00018779992, -127468.234, -68951.484, 0.0, 10.002688, 9.88497 
5.09517e+3, 3.039421e+2, -37819.418, -84807.57, 6.3030443, 0.0004372788, 0.00023547595, -37819.418, -37819.418, 0.0, 10.002681, 9.940843 
5.0951695e+3, 3.1388482e+2, -36759.645, -82587.47, -0.834806, 0.00043512174, 0.00000058401844, -36759.645, -36759.645, 0.0, 10.002673, 9.942346 
5.105185e+3, 1.2503302e+2, -1716338.9, -1723813.1, 6.6093707, 0.00046322725, 0.00014691692, -1716338.9, -1661.5869, 0.0, 10.00292, 9.993014 
5.1051843e+3, 1.3502587e+2, -1618992.8, -1627050.5, 1.0458418, 0.00046055447, -0.00003126159, -1618992.8, -2245.546, 0.0, 10.00291, 9.99223 
5.105183e+3, 1.4501223e+2, -1530887.8, -1547725.0, 9.168066, 0.00045885242, 0.00023093689, -1530887.8, -12006.741, 0.0, 10.002899, 9.980588 
5.1051825e+3, 1.5499279e+2, -1433192.3, -1450425.1, 3.1621554, 0.00045810826, 0.000042577336, -1433192.3, -12120.823, 0.0, 10.002889, 9.980057 
5.105182e+3, 1.6496672e+2, -1345213.1, -1371663.6, 12.983846, 0.00045705904, 0.00012483065, -1345213.1, -21886.203, 0.0, 10.002878, 9.967919 
5.105181e+3, 1.7493469e+2, -1247285.5, -1274044.9, 6.0621967, 0.00045570382, 0.000020782896, -1247285.5, -21644.785, 0.0, 10.002869, 9.967505 
5.10518e+3, 1.8489602e+2, -1159223.5, -1195464.1, 16.747774, 0.00045449374, 0.00016508687, -1159223.5, -31203.771, 0.0, 10.002859, 9.955074 
5.105179e+3, 1.9485113e+2, -1061102.9, -1097599.3, 9.794599, 0.0004534323, 0.000032226144, -1061102.9, -30643.21, 0.0, 10.002851, 9.954731 
5.105179e+3, 2.0479958e+2, -972959.06, -1019214.8, 19.163984, 0.00045238525, 0.00015323579, -972959.06, -39994.242, 0.0, 10.002842, 9.941975 
5.105178e+3, 2.1474159e+2, -874700.06, -921211.3, 12.236657, 0.00045135326, -0.000041701627, -874700.06, -39166.96, 0.0, 10.002833, 9.941634 
5.105177e+3, 2.246769e+2, -786433.7, -842960.3, 20.329247, 0.00045030963, 0.00020438115, -786433.7, -48266.75, 0.0, 10.002825, 9.9285965 
5.1051766e+3, 2.3460557e+2, -688027.25, -744802.8, 13.424323, 0.00044925217, -0.000008742709, -688027.25, -47161.176, 0.0, 10.002816, 9.928266 
5.105176e+3, 2.4452728e+2, -599722.94, -666870.44, 20.240808, 0.00044825728, 0.00015201786, -599722.94, -56089.676, 0.0, 10.002809, 9.914828 
5.1051754e+3, 2.5444224e+2, -500996.6, -568215.44, 13.41066, 0.00044733568, -0.00003140807, -500996.6, -54529.863, 0.0, 10.002801, 9.914728 
5.105175e+3, 2.643501e+2, -412783.1, -490881.03, 19.129147, 0.00044634892, 0.00021343087, -412783.06, -63413.41, 0.0, 10.002793, 9.900657 
5.105174e+3, 2.7425128e+2, -313523.84, -391288.38, 12.260782, 0.00044527897, -0.00013374614, -313523.84, -61186.01, 0.0, 10.002786, 9.901076 
5.1051736e+3, 2.8414428e+2, -227041.16, -317954.2, 15.517, 0.0004444158, 0.00029655788, -227041.16, -71654.73, 0.0, 10.002779, 9.88417 
5.105173e+3, 2.940295e+2, -127358.49, -217653.23, 9.092269, 0.00044383228, -0.00018672849, -127358.484, -68847.24, 0.0, 10.002771, 9.884952 
5.1051724e+3, 3.0394265e+2, -37712.15, -84779.94, 9.47231, 0.00044263218, 0.00023650244, -37712.145, -37712.145, 0.0, 10.002765, 9.940822 
5.105172e+3, 3.1388533e+2, -36651.688, -82559.89, 2.1442628, 0.0004405233, 0.000001524782, -36651.688, -36651.688, 0.0, 10.002757, 9.942324 
5.115188e+3, 1.250339e+2, -1716351.3, -1723837.1, 2.4703722, 0.00046814213, 0.00014833664, -1716351.3, -1682.5995, 0.0, 10.002921, 9.992999 
5.115187e+3, 1.3502675e+2, -1619004.9, -1627074.3, -3.091398, 0.00046556583, -0.000029989402, -1619004.9, -2266.2502, 0.0, 10.00291, 9.992216 
5.115186e+3, 1.4501308e+2, -1530900.8, -1547750.4, 5.275037, 0.00046389367, 0.00023218758, -1530900.8, -12028.062, 0.0, 10.002899, 9.980573 
5.1151854e+3, 1.5499362e+2, -1433205.1, -1450450.4, -0.7316899, 0.00046311307, 0.000043931144, -1433205.1, -12141.818, 0.0, 10.002889, 9.980041 
5.115185e+3, 1.6496755e+2, -1345227.9, -1371692.6, 9.352972, 0.00046207092, 0.00012617785, -1345227.9, -21908.951, 0.0, 10.002879, 9.967901 
5.1151836e+3, 1.7493549e+2, -1247300.1, -1274073.8, 2.4309795, 0.00046076666, 0.000022013222, -1247300.1, -21667.168, 0.0, 10.00287, 9.967487 
5.115183e+3, 1.8489681e+2, -1159238.1, -1195493.4, 13.341114, 0.00045961427, 0.0001662957, -1159238.1, -31226.09, 0.0, 10.00286, 9.955055 
5.1151824e+3, 1.948519e+2, -1061117.3, -1097628.4, 6.3881373, 0.0004586174, 0.00003351194, -1061117.3, -30665.16, 0.0, 10.002851, 9.954713 
5.115182e+3, 2.0480032e+2, -972973.6, -1019244.25, 15.951793, 0.00045757878, 0.0001544962, -972973.6, -40016.055, 0.0, 10.002842, 9.941956 
5.1151806e+3, 2.147423e+2, -874714.4, -921240.56, 9.026634, 0.000456495, -0.000040576117, -874714.4, -39188.4, 0.0, 10.002833, 9.941615 
5.11518e+3, 2.246776e+2, -786448.1, -842989.9, 17.279406, 0.0004554717, 0.00020548866, -786448.1, -48288.09, 0.0, 10.002825, 9.928577 
5.1151794e+3, 2.3460625e+2, -688041.5, -744832.25, 10.377725, 0.00045451525, -0.0000075222392, -688041.5, -47182.145, 0.0, 10.002817, 9.9282465 
5.115179e+3, 2.4452795e+2, -599737.1, -666900.06, 17.324753, 0.00045356344, 0.00015322883, -599737.1, -56110.438, 0.0, 10.00281, 9.914809 
5.115178e+3, 2.5444287e+2, -501010.63, -568244.9, 10.498944, 0.0004526163, -0.000030351664, -501010.63, -54550.246, 0.0, 10.002802, 9.914709 
5.115177e+3, 2.643507e+2, -412797.3, -490911.06, 16.327534, 0.00045162297, 0.00021443111, -412797.3, -63433.805, 0.0, 10.002794, 9.900637 
5.115177e+3, 2.7425188e+2, -313537.88, -391318.28, 9.46513, 0.00045057043, -0.0001326775, -313537.88, -61206.035, 0.0, 10.002787, 9.901056 
5.1151764e+3, 2.841449e+2, -227054.33, -317982.5, 12.77287, 0.0004497413, 0.00029764284, -227054.33, -71673.67, 0.0, 10.002779, 9.8841505 
5.115176e+3, 2.940301e+2, -127371.4, -217681.2, 6.3513513, 0.00044921413, -0.0001856989, -127371.4, -68865.75, 0.0, 10.002772, 9.8849325 
5.115175e+3, 3.0394322e+2, -37726.93, -84811.91, 6.790248, 0.000448063, 0.00023747596, -37726.926, -37726.926, 0.0, 10.002765, 9.9408 
5.1151747e+3, 3.1388587e+2, -36666.695, -82592.35, -0.53289676, 0.00044599196, 0.0000024428534, -36666.695, -36666.695, 0.0, 10.002758, 9.942302 
5.125191e+3, 1.250348e+2, -1716240.3, -1723795.0, 6.7387943, 0.0004730989, 0.0001496294, -1716240.3, -1580.3698, 0.0, 10.002997, 9.992985 
5.12519e+3, 1.3502763e+2, -1618893.5, -1627032.1, 1.1261312, 0.0004705881, -0.000028684506, -1618893.5, -2163.4656, 0.0, 10.002987, 9.992201 
5.125189e+3, 1.4501394e+2, -1530789.8, -1547710.1, 9.660503, 0.00046894373, 0.0002334804, -1530789.8, -11925.528, 0.0, 10.002976, 9.9805565 
5.125188e+3, 1.5499447e+2, -1433093.6, -1450410.1, 3.5055337, 0.00046815324, 0.00004518764, -1433093.6, -12038.681, 0.0, 10.002967, 9.980024 
5.1251876e+3, 1.6496837e+2, -1345118.0, -1371656.3, 13.699481, 0.0004671391, 0.00012741568, -1345118.0, -21807.182, 0.0, 10.002957, 9.967882 
5.1251864e+3, 1.7493631e+2, -1247190.0, -1274037.5, 6.640212, 0.00046590107, 0.000023250288, -1247190.0, -21565.014, 0.0, 10.002949, 9.967468 
5.125186e+3, 1.848976e+2, -1159128.0, -1195457.9, 17.64074, 0.00046478925, 0.00016751864, -1159128.0, -31123.664, 0.0, 10.002939, 9.955037 
5.125185e+3, 1.9485267e+2, -1061006.9, -1097593.0, 10.511839, 0.0004638065, 0.000034706907, -1061006.9, -30562.334, 0.0, 10.002931, 9.954694 
5.125184e+3, 2.0480107e+2, -972863.0, -1019209.25, 20.114315, 0.00046278484, 0.00015567114, -972863.0, -39912.84, 0.0, 10.002923, 9.9419365 
5.1251835e+3, 2.1474305e+2, -874603.6, -921205.75, 13.030509, 0.00046172118, -0.00003941276, -874603.6, -39084.836, 0.0, 10.002914, 9.941596 
5.125183e+3, 2.2467832e+2, -786337.3, -842955.7, 21.282646, 0.00046072312, 0.00020662505, -786337.3, -48184.285, 0.0, 10.002907, 9.928558 
5.125182e+3, 2.3460695e+2, -687930.6, -744798.4, 14.202512, 0.00045979774, -0.000006430038, -687930.6, -47078.074, 0.0, 10.002899, 9.928226 
5.1251817e+3, 2.4452862e+2, -599626.1, -666866.5, 21.122799, 0.0004588706, 0.00015430081, -599626.06, -56006.008, 0.0, 10.002892, 9.914789 
5.125181e+3, 2.5444353e+2, -500899.44, -568211.6, 14.109664, 0.0004579405, -0.000029271629, -500899.44, -54445.477, 0.0, 10.002885, 9.914689 
5.12518e+3, 2.6435134e+2, -412686.13, -490878.56, 19.878231, 0.00045697027, 0.00021549317, -412686.1, -63328.836, 0.0, 10.002877, 9.900617 
5.12518e+3, 2.7425253e+2, -313426.6, -391286.06, 12.846579, 0.00045594855, -0.00013166615, -313426.6, -61100.785, 0.0, 10.002871, 9.901036 
5.125179e+3, 2.8414547e+2, -226941.89, -317948.84, 16.067038, 0.0004551396, 0.00029862567, -226941.88, -71567.08, 0.0, 10.002864, 9.884131 
5.1251787e+3, 2.9403067e+2, -127258.68, -217647.64, 9.4677515, 0.0004546182, -0.0001847146, -127258.68, -68758.69, 0.0, 10.002857, 9.884913 
5.125178e+3, 3.0394375e+2, -37616.73, -84783.49, 9.6966505, 0.00045351268, 0.00023843147, -37616.727, -37616.727, 0.0, 10.002851, 9.940778 
5.1251775e+3, 3.138864e+2, -36555.895, -82564.055, 2.1334982, 0.00045154642, 0.0000033256692, -36555.895, -36555.895, 0.0, 10.002844, 9.942279 
5.135194e+3, 1.250357e+2, -1716252.8, -1723819.1, 2.830366, 0.00047809767, 0.00015080518, -1716252.8, -1601.6895, 0.0, 10.002997, 9.9929695 
5.135193e+3, 1.3502851e+2, -1618905.9, -1627056.3, -2.783052, 0.00047562385, -0.000027348333, -1618905.9, -2184.4758, 0.0, 10.002987, 9.992186 
5.1351917e+3, 1.4501482e+2, -1530803.0, -1547736.3, 6.007167, 0.0004740054, 0.00023481318, -1530803.0, -11947.369, 0.0, 10.002977, 9.98054 
5.1351917e+3, 1.5499534e+2, -1433106.8, -1450436.0, -0.14656785, 0.00047322977, 0.000046354464, -1433106.8, -12060.1875, 0.0, 10.002968, 9.980008 
5.1351905e+3, 1.649692e+2, -1345133.0, -1371686.0, 10.252938, 0.0004722631, 0.00012855262, -1345133.0, -21830.406, 0.0, 10.002958, 9.967864 
5.135189e+3, 1.7493711e+2, -1247204.9, -1274067.0, 3.191549, 0.0004711055, 0.000024494446, -1247204.9, -21587.863, 0.0, 10.002949, 9.96745 
5.1351887e+3, 1.848984e+2, -1159143.0, -1195487.9, 14.423498, 0.00047001842, 0.00016875546, -1159143.0, -31146.527, 0.0, 10.00294, 9.955018 
5.135188e+3, 1.9485345e+2, -1061021.8, -1097622.9, 7.2960362, 0.0004690028, 0.000035818102, -1061021.8, -30584.816, 0.0, 10.002932, 9.954675 
5.135187e+3, 2.0480183e+2, -972877.8, -1019239.3, 17.083393, 0.00046800624, 0.00015676723, -972877.8, -39935.145, 0.0, 10.002923, 9.941917 
5.1351863e+3, 2.147438e+2, -874618.25, -921235.6, 10.000307, 0.00046702955, -0.000038213457, -874618.25, -39106.758, 0.0, 10.002915, 9.941576 
5.1351863e+3, 2.2467905e+2, -786352.06, -842986.06, 18.396772, 0.00046606144, 0.00020778898, -786352.06, -48206.145, 0.0, 10.002908, 9.928538 
5.135185e+3, 2.3460765e+2, -687945.2, -744828.5, 11.320323, 0.0004651021, -0.0000054566012, -687945.2, -47099.547, 0.0, 10.0029, 9.928207 
5.1351845e+3, 2.445293e+2, -599640.7, -666896.9, 18.39356, 0.0004641825, 0.00015524404, -599640.7, -56027.29, 0.0, 10.0028925, 9.914769 
5.1351833e+3, 2.544442e+2, -500913.8, -568241.8, 11.385293, 0.0004633091, -0.000028168937, -500913.8, -54466.375, 0.0, 10.002885, 9.91467 
5.1351833e+3, 2.64352e+2, -412700.66, -490909.3, 17.25722, 0.00046238967, 0.00021661342, -412700.66, -63349.703, 0.0, 10.002878, 9.900597 
5.135183e+3, 2.7425313e+2, -313440.97, -391316.66, 10.231397, 0.00046141128, -0.00013070765, -313440.97, -61121.26, 0.0, 10.0028715, 9.901016 
5.135182e+3, 2.841461e+2, -226955.36, -317977.84, 13.539157, 0.00046060974, 0.00029951395, -226955.36, -71586.484, 0.0, 10.002865, 9.884112 
5.1351815e+3, 2.9403126e+2, -127271.9, -217676.33, 6.946207, 0.00046004684, -0.00018377193, -127271.9, -68777.64, 0.0, 10.002858, 9.884894 
5.135181e+3, 3.0394432e+2, -37631.914, -84816.37, 7.2360654, 0.00045898394, 0.00023937071, -37631.914, -37631.914, 0.0, 10.0028515, 9.940755 
5.1351804e+3, 3.1388694e+2, -36571.316, -82597.445, -0.32164836, 0.00045718488, 0.000004176071, -36571.316, -36571.316, 0.0, 10.002845, 9.942256 
5.145197e+3, 1.2503661e+2, -1716139.6, -1723776.3, 6.9121842, 0.00048307242, 0.0001519985, -1716139.6, -1497.603, 0.0, 10.003076, 9.992954 
5.145196e+3, 1.3502942e+2, -1618792.3, -1627013.4, 1.1108819, 0.00048066612, -0.000026097367, -1618792.3, -2079.712, 0.0, 10.003066, 9.99217 
5.145195e+3, 1.450157e+2, -1530689.8, -1547695.0, 10.038651, 0.00047911218, 0.00023605437, -1530689.8, -11842.763, 0.0, 10.003057, 9.980523 
5.1451945e+3, 1.549962e+2, -1432993.1, -1450395.0, 3.8356702, 0.00047839768, 0.000047518824, -1432993.1, -11955.038, 0.0, 10.003047, 9.979992 
5.1451933e+3, 1.6497006e+2, -1345021.0, -1371649.0, 14.330143, 0.0004774642, 0.00012969771, -1345021.0, -21726.719, 0.0, 10.003038, 9.967845 
5.145192e+3, 1.7493796e+2, -1247092.4, -1274030.1, 7.042742, 0.00047631172, 0.00002567834, -1247092.4, -21483.54, 0.0, 10.00303, 9.967431 
5.145192e+3, 1.8489921e+2, -1159030.3, -1195451.4, 18.328657, 0.0004752456, 0.00016992596, -1159030.1, -31041.701, 0.0, 10.003021, 9.954998 
5.145191e+3, 1.9485424e+2, -1060908.8, -1097586.5, 11.084733, 0.00047426726, 0.000036921294, -1060908.8, -30479.55, 0.0, 10.003014, 9.954656 
5.1451904e+3, 2.0480262e+2, -972764.7, -1019203.56, 20.891445, 0.00047330433, 0.00015783774, -972764.7, -39829.582, 0.0, 10.003006, 9.941897 
5.145189e+3, 2.1474455e+2, -874505.0, -921200.1, 13.581132, 0.0004723575, -0.000037138623, -874505.0, -39000.867, 0.0, 10.002998, 9.941557 
5.145189e+3, 2.246798e+2, -786238.6, -842951.0, 21.963686, 0.00047141008, 0.00020884951, -786238.6, -48099.87, 0.0, 10.002991, 9.928518 
5.145188e+3, 2.3460837e+2, -687831.5, -744793.7, 14.753628, 0.0004704612, -0.0000044312715, -687831.5, -46992.875, 0.0, 10.002984, 9.928187 
5.1451874e+3, 2.4452999e+2, -599526.94, -666862.6, 21.802563, 0.00046956804, 0.00015624618, -599526.94, -55920.324, 0.0, 10.002977, 9.914749 
5.145187e+3, 2.5444487e+2, -500800.03, -568207.9, 14.581518, 0.00046873992, -0.000027175753, -500800.03, -54359.188, 0.0, 10.002971, 9.914649 
5.145186e+3, 2.6435265e+2, -412586.8, -490876.0, 20.402122, 0.0004678566, 0.0002175837, -412586.8, -63242.258, 0.0, 10.002964, 9.900576 
5.1451856e+3, 2.742538e+2, -313326.97, -391283.63, 13.221295, 0.00046690262, -0.00012977779, -313326.97, -61013.45, 0.0, 10.002957, 9.900995 
5.145185e+3, 2.841467e+2, -226840.17, -317943.34, 16.477312, 0.0004661235, 0.00030042595, -226840.16, -71477.27, 0.0, 10.002952, 9.884093 
5.1451844e+3, 2.9403183e+2, -127156.38, -217641.94, 9.707645, 0.0004655803, -0.00018284738, -127156.38, -68667.92, 0.0, 10.002945, 9.884875 
5.145184e+3, 3.039449e+2, -37518.906, -84787.27, 9.824599, 0.0004645508, 0.00024026097, -37518.906, -37518.906, 0.0, 10.002939, 9.940732 
5.145183e+3, 3.1388748e+2, -36457.47, -82568.37, 2.0468786, 0.00046280553, 0.0000049636874, -36457.47, -36457.47, 0.0, 10.0029335, 9.942233 
5.1552004e+3, 1.2503754e+2, -1716152.5, -1723801.3, 3.259722, 0.00048802825, 0.00015320891, -1716152.5, -1519.5464, 0.0, 10.003076, 9.992938 
5.155199e+3, 1.3503033e+2, -1618805.0, -1627038.3, -2.5383162, 0.00048571796, -0.000024924784, -1618805.0, -2101.33, 0.0, 10.003066, 9.992155 
5.155198e+3, 1.450166e+2, -1530703.1, -1547721.3, 6.6141553, 0.00048426422, 0.00023721126, -1530703.1, -11864.877, 0.0, 10.003057, 9.980507 
5.1551974e+3, 1.5499707e+2, -1433006.3, -1450421.0, 0.40872583, 0.00048365383, 0.00004868174, -1433006.3, -11976.814, 0.0, 10.003048, 9.979976 
5.155196e+3, 1.6497092e+2, -1345036.4, -1371679.6, 11.125749, 0.00048274032, 0.00013085119, -1345036.4, -21750.602, 0.0, 10.003038, 9.967825 
5.1551956e+3, 1.749388e+2, -1247107.6, -1274060.5, 3.8391254, 0.00048152325, 0.000026806887, -1247107.6, -21507.035, 0.0, 10.003031, 9.967411 
5.155195e+3, 1.8490005e+2, -1159045.4, -1195481.9, 15.312897, 0.0004804747, 0.00017103544, -1159045.4, -31064.963, 0.0, 10.003022, 9.954979 
5.155194e+3, 1.9485503e+2, -1060923.8, -1097616.9, 8.0673685, 0.00047959865, 0.000038017777, -1060923.8, -30502.424, 0.0, 10.003015, 9.954636 
5.155193e+3, 2.0480339e+2, -972780.0, -1019234.56, 18.036465, 0.00047867736, 0.00015888516, -972780.0, -39852.504, 0.0, 10.003006, 9.941877 
5.1551926e+3, 2.147453e+2, -874520.06, -921230.94, 10.728685, 0.0004777074, -0.00003617885, -874520.06, -39023.4, 0.0, 10.002999, 9.941537 
5.155192e+3, 2.2468053e+2, -786253.6, -842981.9, 19.276567, 0.00047677223, 0.00020981449, -786253.6, -48122.14, 0.0, 10.002992, 9.928498 
5.155191e+3, 2.3460908e+2, -687846.3, -744824.4, 12.068588, 0.0004758752, -0.000003357099, -687846.3, -47014.75, 0.0, 10.002984, 9.928167 
5.15519e+3, 2.4453071e+2, -599541.9, -666893.8, 19.232548, 0.000475026, 0.00015730367, -599541.9, -55942.16, 0.0, 10.002977, 9.914729 
5.15519e+3, 2.5444555e+2, -500814.8, -568238.9, 12.016749, 0.0004742325, -0.000026283886, -500814.8, -54380.63, 0.0, 10.002971, 9.914629 
5.155189e+3, 2.643533e+2, -412601.66, -490907.38, 17.983547, 0.00047337156, 0.000218415, -412601.66, -63263.55, 0.0, 10.002964, 9.900555 
5.1551884e+3, 2.742544e+2, -313341.6, -391314.8, 10.810145, 0.00047242458, -0.00012887409, -313341.6, -61034.34, 0.0, 10.002958, 9.900974 
5.155188e+3, 2.8414732e+2, -226853.95, -317973.06, 14.179154, 0.00047168194, 0.00030136056, -226853.95, -71497.125, 0.0, 10.002952, 9.884073 
5.155187e+3, 2.9403245e+2, -127169.914, -217671.31, 7.4185147, 0.00047121532, -0.00018193918, -127169.91, -68687.32, 0.0, 10.002946, 9.884855 
5.1551867e+3, 3.0394545e+2, -37534.473, -84821.01, 7.6430955, 0.0004702107, 0.0002411061, -37534.47, -37534.47, 0.0, 10.00294, 9.940709 
5.155186e+3, 3.1388807e+2, -36473.277, -82602.63, -0.12301889, 0.00046841387, 0.000005693264, -36473.277, -36473.277, 0.0, 10.002934, 9.942209 
5.165203e+3, 1.2503847e+2, -1716037.5, -1723757.6, 6.9362507, 0.00049305457, 0.00015441631, -1716037.5, -1413.6803, 0.0, 10.003155, 9.992923 
5.165202e+3, 1.3503125e+2, -1618689.3, -1626994.5, 1.1444405, 0.0004908496, -0.000023866196, -1618689.3, -1994.6116, 0.0, 10.003146, 9.99214 
5.1652014e+3, 1.450175e+2, -1530587.6, -1547679.4, 10.408533, 0.0004894573, 0.00023825422, -1530587.6, -11758.255, 0.0, 10.003138, 9.980491 
5.1652e+3, 1.5499796e+2, -1432890.3, -1450379.1, 3.9639535, 0.00048886443, 0.000049840455, -1432890.3, -11869.4375, 0.0, 10.003129, 9.979959 
5.1651996e+3, 1.6497178e+2, -1344921.9, -1371641.8, 14.742034, 0.00048798372, 0.00013200357, -1344921.9, -21644.58, 0.0, 10.003121, 9.967806 
5.1651984e+3, 1.7493965e+2, -1246992.6, -1274022.8, 7.37127, 0.00048681477, 0.000027830449, -1246992.6, -21400.363, 0.0, 10.003113, 9.967392 
5.165198e+3, 1.8490086e+2, -1158930.1, -1195444.8, 18.864185, 0.00048580117, 0.00017202525, -1158930.1, -30957.832, 0.0, 10.003105, 9.954959 
5.165197e+3, 1.9485585e+2, -1060808.1, -1097579.8, 11.362912, 0.00048494647, 0.000039071823, -1060808.1, -30394.793, 0.0, 10.0030985, 9.954616 
5.165196e+3, 2.0480418e+2, -972664.2, -1019198.0, 21.31342, 0.00048405505, 0.00015992376, -972664.2, -39744.453, 0.0, 10.003091, 9.941857 
5.1651955e+3, 2.1474607e+2, -874404.06, -921194.6, 13.887866, 0.000483124, -0.000035240824, -874404.06, -38914.918, 0.0, 10.003084, 9.941517 
5.165195e+3, 2.2468127e+2, -786137.5, -842946.06, 22.410852, 0.00048222448, 0.0002107302, -786137.5, -48013.355, 0.0, 10.0030775, 9.928478 
5.165194e+3, 2.3460981e+2, -687730.2, -744788.9, 14.952984, 0.00048135943, -0.000002376199, -687730.2, -46905.734, 0.0, 10.003071, 9.928147 
5.165193e+3, 2.4453142e+2, -599425.6, -666858.75, 22.078043, 0.0004805311, 0.00015827223, -599425.56, -55832.797, 0.0, 10.003064, 9.914708 
5.165193e+3, 2.5444624e+2, -500698.34, -568204.06, 14.754304, 0.00047974533, -0.000025419444, -500698.34, -54270.89, 0.0, 10.003058, 9.914608 
5.165192e+3, 2.6435396e+2, -412485.1, -490873.28, 20.726324, 0.00047890726, 0.0002192323, -412485.1, -63153.51, 0.0, 10.003052, 9.900534 
5.165191e+3, 2.7425507e+2, -313224.84, -391280.97, 13.340344, 0.00047800233, -0.00012803184, -313224.84, -60923.92, 0.0, 10.003046, 9.900953 
5.1651907e+3, 2.8414795e+2, -226735.98, -317937.72, 16.648611, 0.00047728803, 0.00030221013, -226735.98, -71385.27, 0.0, 10.00304, 9.884053 
5.1651907e+3, 2.9403305e+2, -127051.66, -217636.1, 9.731846, 0.00047683102, -0.00018110685, -127051.66, -68574.99, 0.0, 10.003036, 9.884835 
5.16519e+3, 3.0394605e+2, -37418.8, -84791.22, 9.877486, 0.00047587804, 0.0002418961, -37418.797, -37418.797, 0.0, 10.00303, 9.940686 
5.165189e+3, 3.138886e+2, -36356.71, -82572.836, 1.9430982, 0.000474195, 0.00000640521, -36356.71, -36356.71, 0.0, 10.003025, 9.942185 
5.175206e+3, 1.2503943e+2, -1716050.4, -1723782.6, 3.585004, 0.0004981495, 0.00015562124, -1716050.4, -1435.7683, 0.0, 10.003156, 9.992908 
5.175205e+3, 1.3503218e+2, -1618701.9, -1627019.3, -2.207613, 0.0004960586, -0.000022912143, -1618701.9, -2016.373, 0.0, 10.003146, 9.992124 
5.175205e+3, 1.4501841e+2, -1530601.5, -1547706.6, 7.2596006, 0.00049469183, 0.00023919271, -1530601.5, -11781.066, 0.0, 10.003138, 9.9804735 
5.1752037e+3, 1.5499885e+2, -1432903.9, -1450406.1, 0.8164408, 0.0004940367, 0.000050995674, -1432903.9, -11891.894, 0.0, 10.00313, 9.979941 
5.1752025e+3, 1.6497268e+2, -1344937.5, -1371672.8, 11.786385, 0.0004932007, 0.00013315523, -1344937.5, -21668.78, 0.0, 10.003121, 9.967786 
5.175202e+3, 1.7494051e+2, -1247008.1, -1274053.5, 4.41274, 0.00049218413, 0.000028757528, -1247008.0, -21424.17, 0.0, 10.003114, 9.967372 
5.175201e+3, 1.849017e+2, -1158945.9, -1195476.3, 16.061647, 0.00049122155, 0.00017290504, -1158945.9, -30981.773, 0.0, 10.003106, 9.954939 
5.1752e+3, 1.9485667e+2, -1060823.8, -1097611.1, 8.5610485, 0.00049031345, 0.00004008695, -1060823.8, -30418.334, 0.0, 10.0030985, 9.954596 
5.1751995e+3, 2.0480497e+2, -972679.7, -1019229.5, 18.661324, 0.00048944104, 0.00016095449, -972679.7, -39767.742, 0.0, 10.003092, 9.941837 
5.175199e+3, 2.1474686e+2, -874419.4, -921225.9, 11.235512, 0.0004886064, -0.000034322366, -874419.4, -38937.81, 0.0, 10.003084, 9.941497 
5.175198e+3, 2.2468203e+2, -786153.0, -842977.94, 19.879862, 0.00048776428, 0.0002116008, -786153.0, -48036.25, 0.0, 10.0030775, 9.928457 
5.175197e+3, 2.3461054e+2, -687745.5, -744820.56, 12.42593, 0.00048691288, -0.0000014814763, -687745.5, -46928.23, 0.0, 10.003071, 9.928126 
5.1751965e+3, 2.4453214e+2, -599440.75, -666890.44, 19.706017, 0.00048608403, 0.00015915855, -599440.75, -55854.965, 0.0, 10.003065, 9.914687 
5.175196e+3, 2.5444692e+2, -500713.3, -568235.56, 12.38669, 0.000485281, -0.000024579977, -500713.3, -54292.645, 0.0, 10.003058, 9.914588 
5.1751953e+3, 2.6435465e+2, -412500.3, -490905.5, 18.515005, 0.00048446632, 0.00022003708, -412500.3, -63175.32, 0.0, 10.003053, 9.900513 
5.175194e+3, 2.742557e+2, -313239.88, -391313.03, 11.138955, 0.00048363607, -0.00012724627, -313239.88, -60945.33, 0.0, 10.003047, 9.900932 
5.175194e+3, 2.8414857e+2, -226750.06, -317968.06, 14.575144, 0.00048294262, 0.00030298112, -226750.06, -71405.53, 0.0, 10.003041, 9.884033 
5.1751935e+3, 2.9403365e+2, -127065.46, -217666.11, 7.6687446, 0.000482433, -0.00018034462, -127065.46, -68594.77, 0.0, 10.003036, 9.884815 
5.175193e+3, 3.0394664e+2, -37434.66, -84825.63, 7.9889507, 0.00048155658, 0.0002426352, -37434.66, -37434.66, 0.0, 10.003031, 9.940662 
5.1751924e+3, 3.1388915e+2, -36372.82, -82607.79, 0.07336468, 0.00048014105, 0.000007101092, -36372.82, -36372.82, 0.0, 10.003026, 9.942162 
5.1852095e+3, 1.2504038e+2, -1715933.4, -1723738.1, 7.011968, 0.00050322147, 0.00015653204, -1715933.4, -1328.0758, 0.0, 10.003236, 9.992891 
5.1852083e+3, 1.3503312e+2, -1618584.0, -1626974.6, 1.021623, 0.0005012536, -0.000021768097, -1618584.0, -1907.6646, 0.0, 10.003228, 9.992108 
5.185208e+3, 1.4501934e+2, -1530483.8, -1547663.9, 10.578523, 0.0004999547, 0.00024034122, -1530483.8, -11672.34, 0.0, 10.00322, 9.980456 
5.1852065e+3, 1.5499976e+2, -1432785.4, -1450363.4, 4.0788703, 0.0004993129, 0.000051922332, -1432785.4, -11782.155, 0.0, 10.003213, 9.979924 
5.1852053e+3, 1.6497356e+2, -1344820.4, -1371634.1, 15.04926, 0.0004985145, 0.00013403186, -1344820.4, -21560.334, 0.0, 10.003205, 9.967766 
5.1852053e+3, 1.7494136e+2, -1246890.5, -1274015.0, 7.410095, 0.00049756013, 0.000029756755, -1246890.5, -21315.063, 0.0, 10.003199, 9.967352 
5.185204e+3, 1.8490255e+2, -1158828.0, -1195438.3, 19.024027, 0.0004966428, 0.00017390146, -1158828.0, -30872.174, 0.0, 10.003191, 9.954919 
5.185203e+3, 1.948575e+2, -1060705.4, -1097573.3, 11.3900585, 0.0004957622, 0.00004095135, -1060705.4, -30308.133, 0.0, 10.003184, 9.954576 
5.1852024e+3, 2.0480579e+2, -972561.2, -1019192.1, 21.426054, 0.00049492094, 0.00016179786, -972561.2, -39657.125, 0.0, 10.003179, 9.941817 
5.185202e+3, 2.1474764e+2, -874300.8, -921188.75, 13.750449, 0.0004941212, -0.000033381515, -874300.8, -38826.91, 0.0, 10.003172, 9.941476 
5.185201e+3, 2.246828e+2, -786034.3, -842941.4, 22.362011, 0.00049331074, 0.00021251621, -786034.3, -47925.023, 0.0, 10.003165, 9.928436 
5.1852e+3, 2.346113e+2, -687626.6, -744784.25, 14.813421, 0.00049248734, -0.0000007288628, -687626.6, -46816.645, 0.0, 10.0031595, 9.928105 
5.1852e+3, 2.4453285e+2, -599321.75, -666854.56, 22.094173, 0.00049167464, 0.00015986965, -599321.75, -55743.0, 0.0, 10.003154, 9.914666 
5.185199e+3, 2.5444764e+2, -500594.16, -568199.94, 14.5338955, 0.0004908737, -0.00002376709, -500594.16, -54180.355, 0.0, 10.003148, 9.914566 
5.185198e+3, 2.6435536e+2, -412381.13, -490870.6, 20.63238, 0.00049008074, 0.00022086692, -412381.13, -63062.78, 0.0, 10.003142, 9.900491 
5.1851976e+3, 2.7425638e+2, -313120.63, -391278.5, 13.134248, 0.0004892969, -0.00012650648, -313120.63, -60832.516, 0.0, 10.003137, 9.90091 
5.185197e+3, 2.841492e+2, -226629.58, -317932.0, 16.606438, 0.000488637, 0.00030367187, -226629.58, -71291.26, 0.0, 10.003132, 9.884012 
5.1851964e+3, 2.9403427e+2, -126944.55, -217630.06, 9.552093, 0.00048814347, -0.00017964724, -126944.55, -68479.89, 0.0, 10.003127, 9.884794 
5.185196e+3, 3.0394724e+2, -37316.363, -84795.14, 9.830356, 0.000487325, 0.00024332218, -37316.363, -37316.363, 0.0, 10.003123, 9.940639 
5.185195e+3, 3.1388974e+2, -36253.723, -82577.35, 1.7245193, 0.00048602954, 0.0000077531, -36253.723, -36253.723, 0.0, 10.0031185, 9.942138 
5.195213e+3, 1.2504134e+2, -1715946.6, -1723764.0, 3.998619, 0.0005082759, 0.00015717265, -1715946.6, -1350.7639, 0.0, 10.003236, 9.992875 
5.195212e+3, 1.3503405e+2, -1618597.1, -1627000.4, -1.9909599, 0.00050643925, -0.00002044863, -1618597.1, -1930.0164, 0.0, 10.003228, 9.992092 
5.195211e+3, 1.4502026e+2, -1530497.8, -1547691.4, 7.768444, 0.00050524756, 0.00024168342, -1530497.8, -11695.402, 0.0, 10.003221, 9.980438 
5.19521e+3, 1.5500067e+2, -1432799.1, -1450390.6, 1.2676028, 0.0005046888, 0.000052638654, -1432799.1, -11804.857, 0.0, 10.003213, 9.979907 
5.195209e+3, 1.6497444e+2, -1344836.5, -1371666.1, 12.34165, 0.00050392165, 0.00013465542, -1344836.5, -21585.238, 0.0, 10.003206, 9.967746 
5.195208e+3, 1.7494224e+2, -1246906.4, -1274046.8, 4.7016897, 0.00050294626, 0.00003082284, -1246906.4, -21339.557, 0.0, 10.003199, 9.967332 
5.1952076e+3, 1.849034e+2, -1158844.0, -1195470.4, 16.461637, 0.0005020688, 0.00017500561, -1158844.0, -30896.502, 0.0, 10.003192, 9.954898 
5.1952064e+3, 1.9485833e+2, -1060721.3, -1097605.3, 8.826388, 0.0005012907, 0.00004167693, -1060721.3, -30332.055, 0.0, 10.003185, 9.954555 
5.195206e+3, 2.048066e+2, -972577.2, -1019224.56, 18.939478, 0.00050049176, 0.00016246866, -972577.2, -39681.04, 0.0, 10.003179, 9.941796 
5.195205e+3, 2.1474843e+2, -874316.56, -921221.06, 11.264748, 0.0004996701, -0.000032419826, -874316.56, -38850.41, 0.0, 10.003172, 9.941455 
5.195204e+3, 2.2468357e+2, -786050.0, -842973.6, 20.019876, 0.0004988676, 0.00021347306, -786049.94, -47948.207, 0.0, 10.003166, 9.928415 
5.1952034e+3, 2.3461205e+2, -687642.06, -744816.3, 12.473368, 0.0004980855, -0.00000010729286, -687642.06, -46839.414, 0.0, 10.0031595, 9.928084 
5.195203e+3, 2.4453357e+2, -599337.4, -666887.2, 19.907578, 0.0004973044, 0.00016041918, -599337.4, -55765.734, 0.0, 10.003154, 9.914645 
5.195202e+3, 2.5444832e+2, -500609.6, -568232.4, 12.3546, 0.0004965236, -0.00002297863, -500609.6, -54202.684, 0.0, 10.003148, 9.914545 
5.1952016e+3, 2.6435602e+2, -412396.6, -490903.34, 18.604923, 0.00049575075, 0.00022171997, -412396.56, -63084.93, 0.0, 10.003142, 9.90047 
5.1952004e+3, 2.7425706e+2, -313135.88, -391311.06, 11.115381, 0.0004949872, -0.00012580892, -313135.88, -60854.242, 0.0, 10.003138, 9.900889 
5.1952004e+3, 2.8414986e+2, -226643.92, -317962.94, 14.788934, 0.0004943728, 0.00030428858, -226643.92, -71311.88, 0.0, 10.003133, 9.883991 
5.1952e+3, 2.9403487e+2, -126958.625, -217660.69, 7.751273, 0.0004939588, -0.00017900964, -126958.62, -68500.03, 0.0, 10.003128, 9.884774 
5.1951987e+3, 3.0394784e+2, -37332.574, -84830.33, 8.215415, 0.0004931812, 0.00024396103, -37332.574, -37332.574, 0.0, 10.003123, 9.940615 
5.195198e+3, 3.138903e+2, -36270.184, -82613.09, 0.13066824, 0.0004918692, 0.000008364563, -36270.184, -36270.184, 0.0, 10.003119, 9.942113 
5.205216e+3, 1.250423e+2, -1715827.5, -1723718.9, 7.0160837, 0.0005134054, 0.00015818936, -1715827.5, -1241.098, 0.0, 10.003318, 9.992859 
5.2052146e+3, 1.3503502e+2, -1618476.9, -1626955.0, 0.89791656, 0.0005116698, -0.000019599576, -1618476.9, -1819.0741, 0.0, 10.003311, 9.992076 
5.205214e+3, 1.450212e+2, -1530377.4, -1547647.8, 10.672699, 0.00051056995, 0.00024250611, -1530377.4, -11584.26, 0.0, 10.0033045, 9.980421 
5.2052134e+3, 1.5500158e+2, -1432678.0, -1450346.9, 3.9812183, 0.0005100938, 0.000053574047, -1432678.0, -11692.774, 0.0, 10.003298, 9.97989 
5.205212e+3, 1.6497535e+2, -1344717.0, -1371626.9, 15.004717, 0.00050937134, 0.00013556686, -1344717.0, -21474.482, 0.0, 10.003292, 9.967726 
5.2052116e+3, 1.7494312e+2, -1246786.0, -1274007.4, 7.200995, 0.0005084027, 0.00003157354, -1246786.0, -21227.762, 0.0, 10.003285, 9.967312 
5.2052104e+3, 1.8490425e+2, -1158723.3, -1195431.4, 18.83887, 0.00050755986, 0.00017573721, -1158723.1, -30784.086, 0.0, 10.00328, 9.954877 
5.20521e+3, 1.9485916e+2, -1060600.3, -1097566.5, 10.974019, 0.0005068451, 0.000042535088, -1060600.3, -30219.297, 0.0, 10.003273, 9.954535 
5.205209e+3, 2.0480742e+2, -972456.06, -1019186.44, 21.008898, 0.00050607993, 0.00016331504, -972456.06, -39567.92, 0.0, 10.003267, 9.941774 
5.205208e+3, 2.1474922e+2, -874195.2, -921183.1, 13.196554, 0.0005052605, -0.000031732725, -874195.2, -38736.824, 0.0, 10.003262, 9.941434 
5.2052075e+3, 2.2468434e+2, -785928.4, -842936.06, 21.892593, 0.0005044645, 0.0002141184, -785928.4, -47834.22, 0.0, 10.003256, 9.928394 
5.205206e+3, 2.346128e+2, -687520.5, -744779.06, 14.124317, 0.0005036938, 0.0000006274899, -687520.5, -46725.246, 0.0, 10.00325, 9.928063 
5.205206e+3, 2.445343e+2, -599215.8, -666850.56, 21.553087, 0.0005029549, 0.0001611619, -599215.8, -55651.38, 0.0, 10.003244, 9.914623 
5.205205e+3, 2.5444904e+2, -500488.13, -568196.1, 13.903011, 0.0005022525, -0.000022324231, -500488.13, -54088.17, 0.0, 10.00324, 9.914523 
5.2052045e+3, 2.6435673e+2, -412275.1, -490867.78, 20.213156, 0.0005015245, 0.00022232668, -412275.06, -62970.17, 0.0, 10.003234, 9.900448 
5.205204e+3, 2.742577e+2, -313014.2, -391275.75, 12.552934, 0.0005007633, -0.00012519846, -313014.2, -60739.066, 0.0, 10.003229, 9.900867 
5.205203e+3, 2.8415048e+2, -226520.97, -317926.16, 16.264584, 0.00050015905, 0.00030490744, -226520.97, -71195.25, 0.0, 10.003225, 9.883971 
5.2052027e+3, 2.9403552e+2, -126835.41, -217624.02, 9.07351, 0.0004997661, -0.00017837663, -126835.41, -68382.93, 0.0, 10.0032215, 9.884753 
5.205202e+3, 3.0394843e+2, -37211.938, -84799.24, 9.600203, 0.0004990228, 0.00024456455, -37211.938, -37211.938, 0.0, 10.003218, 9.94059 
5.2052015e+3, 3.138909e+2, -36148.33, -82581.86, 1.3860812, 0.0004977649, 0.000008875413, -36148.33, -36148.33, 0.0, 10.003215, 9.942088 
5.215219e+3, 1.2504329e+2, -1715841.0, -1723745.3, 4.3971395, 0.0005186077, 0.0001595517, -1715841.0, -1264.2238, 0.0, 10.003319, 9.992843 
5.215218e+3, 1.3503598e+2, -1618490.3, -1626981.1, -1.7171122, 0.00051694544, -0.000019182917, -1618490.3, -1841.8336, 0.0, 10.003312, 9.992059 
5.2152175e+3, 1.4502214e+2, -1530391.8, -1547676.0, 8.184469, 0.00051592354, 0.00024285147, -1530391.8, -11607.849, 0.0, 10.003305, 9.980403 
5.215216e+3, 1.5500252e+2, -1432692.3, -1450375.0, 1.4899999, 0.0005155295, 0.00005471126, -1432692.3, -11715.991, 0.0, 10.003299, 9.979872 
5.215215e+3, 1.6497624e+2, -1344733.5, -1371659.6, 12.635517, 0.0005148643, 0.00013674318, -1344733.5, -21499.832, 0.0, 10.003292, 9.967705 
5.215215e+3, 1.74944e+2, -1246802.3, -1274039.9, 4.8316836, 0.0005139282, 0.00003203399, -1246802.3, -21252.693, 0.0, 10.003286, 9.967291 
5.215214e+3, 1.8490513e+2, -1158739.6, -1195464.5, 16.452602, 0.00051311526, 0.00017612604, -1158739.6, -30808.988, 0.0, 10.00328, 9.954856 
5.215213e+3, 1.9486001e+2, -1060616.5, -1097599.4, 8.585479, 0.0005124276, 0.000043515472, -1060616.5, -30243.781, 0.0, 10.003274, 9.954514 
5.215212e+3, 2.0480822e+2, -972472.25, -1019219.44, 18.732817, 0.0005116883, 0.0001643231, -972472.25, -39592.195, 0.0, 10.003268, 9.941753 
5.2152115e+3, 2.1475004e+2, -874211.2, -921215.94, 10.92202, 0.0005108935, -0.000031298634, -874211.2, -38760.684, 0.0, 10.003262, 9.941413 
5.2152103e+3, 2.2468512e+2, -785944.5, -842969.2, 19.695597, 0.00051010284, 0.0002144768, -785944.5, -47857.93, 0.0, 10.003256, 9.928372 
5.21521e+3, 2.3461355e+2, -687536.4, -744812.06, 11.929166, 0.0005093159, 0.0000014666915, -687536.4, -46748.543, 0.0, 10.00325, 9.928041 
5.215209e+3, 2.4453504e+2, -599231.6, -666883.6, 19.51146, 0.0005086289, 0.00016208267, -599231.6, -55674.387, 0.0, 10.003245, 9.914602 
5.2152085e+3, 2.5444975e+2, -500503.7, -568229.0, 11.867727, 0.0005080588, -0.00002179351, -500503.7, -54110.754, 0.0, 10.00324, 9.914502 
5.215208e+3, 2.643574e+2, -412290.84, -490901.2, 18.399805, 0.00050739845, 0.00022270619, -412290.84, -62992.72, 0.0, 10.003235, 9.900426 
5.215207e+3, 2.7425838e+2, -313029.75, -391309.0, 10.753753, 0.00050662324, -0.0001246684, -313029.72, -60761.195, 0.0, 10.00323, 9.900846 
5.215207e+3, 2.8415117e+2, -226535.61, -317957.75, 14.672635, 0.00050599664, 0.00030552823, -226535.61, -71216.25, 0.0, 10.003226, 9.883949 
5.215206e+3, 2.9403612e+2, -126849.76, -217655.28, 7.4997754, 0.0005055702, -0.00017774796, -126849.76, -68403.44, 0.0, 10.0032215, 9.884732 
5.2152056e+3, 3.0394903e+2, -37228.41, -84835.02, 8.356462, 0.0005048554, 0.00024513534, -37228.41, -37228.41, 0.0, 10.003219, 9.940566 
5.2152044e+3, 3.1389147e+2, -36165.06, -82618.2, 0.17981593, 0.00050371734, 0.000009293275, -36165.06, -36165.06, 0.0, 10.003215, 9.942063 
5.225223e+3, 1.2504427e+2, -1715720.1, -1723699.5, 6.8571324, 0.0005238335, 0.00016039013, -1715720.1, -1152.9146, 0.0, 10.003402, 9.992826 
5.2252215e+3, 1.3503695e+2, -1618367.6, -1626934.8, 0.7496726, 0.0005223173, -0.000018445791, -1618367.6, -1728.6804, 0.0, 10.003396, 9.992043 
5.225221e+3, 1.450231e+2, -1530269.0, -1547631.8, 10.611465, 0.0005213511, 0.00024355571, -1530269.0, -11494.338, 0.0, 10.003391, 9.980385 
5.22522e+3, 1.5500344e+2, -1432568.1, -1450330.4, 3.6428142, 0.00052092335, 0.000055450033, -1432568.1, -11600.991, 0.0, 10.003386, 9.979854 
5.2252185e+3, 1.6497716e+2, -1344610.6, -1371619.1, 14.593534, 0.0005203173, 0.00013748047, -1344610.6, -21385.938, 0.0, 10.003381, 9.967684 
5.225218e+3, 1.749449e+2, -1246679.1, -1273999.5, 6.6460257, 0.00051953347, 0.00003273372, -1246679.1, -21138.244, 0.0, 10.003375, 9.96727 
5.2252173e+3, 1.8490599e+2, -1158616.3, -1195424.9, 18.099348, 0.0005187805, 0.00017677982, -1158616.3, -30694.139, 0.0, 10.003369, 9.954835 
5.225216e+3, 1.9486086e+2, -1060492.6, -1097559.9, 10.011917, 0.0005180577, 0.000044114764, -1060492.6, -30128.234, 0.0, 10.003364, 9.954492 
5.2252156e+3, 2.0480907e+2, -972348.1, -1019180.2, 20.015272, 0.0005173266, 0.00016490865, -972348.1, -39476.15, 0.0, 10.003359, 9.941732 
5.225215e+3, 2.1475083e+2, -874087.25, -921177.06, 12.061732, 0.00051658595, -0.000030683426, -874087.25, -38644.613, 0.0, 10.003353, 9.941391 
5.225214e+3, 2.2468589e+2, -785820.6, -842931.0, 20.81187, 0.0005158266, 0.00021507834, -785820.6, -47741.727, 0.0, 10.003347, 9.92835 
5.225213e+3, 2.3461431e+2, -687412.44, -744774.1, 12.904518, 0.00051504566, 0.0000020063737, -687412.44, -46632.066, 0.0, 10.003343, 9.92802 
5.2252126e+3, 2.4453579e+2, -599107.56, -666846.06, 20.489744, 0.0005143641, 0.00016261567, -599107.56, -55557.555, 0.0, 10.003338, 9.91458 
5.225212e+3, 2.544505e+2, -500379.66, -568191.8, 12.698945, 0.00051379914, -0.000021202159, -500379.66, -53993.746, 0.0, 10.003332, 9.91448 
5.225211e+3, 2.643581e+2, -412166.9, -490864.84, 19.327425, 0.00051317865, 0.00022329637, -412166.88, -62875.586, 0.0, 10.003328, 9.900403 
5.22521e+3, 2.7425903e+2, -312905.78, -391273.03, 11.565851, 0.00051248714, -0.00012415413, -312905.78, -60643.848, 0.0, 10.003324, 9.900823 
5.22521e+3, 2.841518e+2, -226410.4, -317920.25, 15.629564, 0.0005118889, 0.00030598757, -226410.4, -71097.42, 0.0, 10.00332, 9.883928 
5.2252096e+3, 2.9403678e+2, -126724.07, -217617.81, 8.360432, 0.0005114155, -0.00017731522, -126724.07, -68283.92, 0.0, 10.003317, 9.884711 
5.2252084e+3, 3.0394965e+2, -37105.453, -84803.27, 9.359076, 0.0005107448, 0.00024556706, -37105.453, -37105.453, 0.0, 10.003314, 9.940541 
5.225208e+3, 3.1389207e+2, -36041.477, -82586.6, 1.0552192, 0.00050978584, 0.000009762592, -36041.477, -36041.477, 0.0, 10.003311, 9.942039 
5.235226e+3, 1.2504525e+2, -1715733.6, -1723725.8, 4.772852, 0.00052908465, 0.00016074831, -1715733.6, -1176.0908, 0.0, 10.003403, 9.99281 
5.235225e+3, 1.3503791e+2, -1618380.9, -1626960.9, -1.3402838, 0.0005277815, -0.000017414435, -1618380.9, -1751.5083, 0.0, 10.003397, 9.992026 
5.2352244e+3, 1.4502405e+2, -1530283.9, -1547661.1, 8.566995, 0.00052685087, 0.00024458914, -1530283.9, -11518.636, 0.0, 10.003391, 9.980367 
5.235223e+3, 1.5500438e+2, -1432582.8, -1450359.5, 1.6031768, 0.0005262833, 0.00005582276, -1432582.8, -11624.89, 0.0, 10.0033865, 9.9798355 
5.235222e+3, 1.6497807e+2, -1344627.4, -1371652.4, 12.448094, 0.00052573805, 0.00013781461, -1344627.4, -21411.65, 0.0, 10.003381, 9.967663 
5.2352214e+3, 1.7494579e+2, -1246695.6, -1274032.6, 4.494736, 0.00052521634, 0.00003365332, -1246695.6, -21163.531, 0.0, 10.003376, 9.967249 
5.235221e+3, 1.8490686e+2, -1158633.1, -1195458.8, 15.969285, 0.0005245509, 0.00017767689, -1158633.1, -30719.559, 0.0, 10.00337, 9.954813 
5.2352196e+3, 1.9486171e+2, -1060509.3, -1097593.5, 7.884948, 0.0005237363, 0.0000443636, -1060509.3, -30153.236, 0.0, 10.003365, 9.95447 
5.235219e+3, 2.0480989e+2, -972364.6, -1019213.75, 17.84279, 0.000522997, 0.00016510578, -972364.6, -39500.77, 0.0, 10.003359, 9.94171 
5.2352184e+3, 2.1475163e+2, -874103.5, -921210.5, 9.887234, 0.00052233756, -0.000029901765, -874103.5, -38668.813, 0.0, 10.003353, 9.941369 
5.235217e+3, 2.246867e+2, -785836.94, -842964.75, 18.781149, 0.0005216336, 0.00021590326, -785836.94, -47765.777, 0.0, 10.003348, 9.9283285 
5.2352166e+3, 2.3461509e+2, -687428.56, -744807.7, 10.88006, 0.000520879, 0.0000022702575, -687428.56, -46655.695, 0.0, 10.003343, 9.927998 
5.235216e+3, 2.4453653e+2, -599123.6, -666879.7, 18.600119, 0.00052016036, 0.00016279182, -599123.6, -55580.91, 0.0, 10.003338, 9.914557 
5.2352154e+3, 2.5445122e+2, -500395.5, -568225.25, 10.814375, 0.00051948323, -0.000020555117, -500395.5, -54016.668, 0.0, 10.003333, 9.914458 
5.235214e+3, 2.643588e+2, -412182.88, -490898.78, 17.68414, 0.0005188772, 0.00022408029, -412182.88, -62898.418, 0.0, 10.003328, 9.900381 
5.2352136e+3, 2.7425975e+2, -312921.56, -391306.78, 9.938957, 0.0005183594, -0.00012365467, -312921.56, -60666.25, 0.0, 10.0033245, 9.900801 
5.2352136e+3, 2.8415248e+2, -226425.23, -317952.3, 14.315884, 0.0005178362, 0.00030629802, -226425.23, -71118.67, 0.0, 10.003321, 9.883907 
5.2352124e+3, 2.940374e+2, -126738.625, -217649.53, 7.0739965, 0.0005173034, -0.00017706316, -126738.625, -68304.68, 0.0, 10.003318, 9.88469 
5.235212e+3, 3.0395025e+2, -37122.195, -84839.66, 8.350673, 0.0005166915, 0.00024587056, -37122.19, -37122.19, 0.0, 10.003315, 9.940516 
5.235211e+3, 3.1389263e+2, -36058.473, -82623.55, 0.07830424, 0.0005159661, 0.000010279178, -36058.473, -36058.473, 0.0, 10.003312, 9.942013 
5.2452296e+3, 1.2504625e+2, -1715610.1, -1723679.3, 6.869599, 0.0005343043, 0.00016134158, -1715610.1, -1062.3921, 0.0, 10.003488, 9.992793 
5.2452284e+3, 1.350389e+2, -1618255.8, -1626913.8, 0.35188013, 0.00053321646, -0.000016815351, -1618255.8, -1635.9781, 0.0, 10.003484, 9.992009 
5.245228e+3, 1.4502501e+2, -1530158.4, -1547615.8, 10.112021, 0.00053240155, 0.0002451231, -1530158.4, -11402.452, 0.0, 10.003479, 9.980349 
5.2452266e+3, 1.5500532e+2, -1432455.8, -1450313.8, 3.2039156, 0.0005318511, 0.00005622115, -1432455.8, -11507.116, 0.0, 10.003475, 9.979816 
5.2452254e+3, 1.6497901e+2, -1344501.8, -1371611.3, 13.716962, 0.00053131866, 0.00013823736, -1344501.8, -21295.057, 0.0, 10.003471, 9.967641 
5.245225e+3, 1.7494668e+2, -1246569.1, -1273991.4, 5.370759, 0.0005308055, 0.00003426099, -1246569.1, -21045.861, 0.0, 10.003467, 9.967227 
5.245224e+3, 1.8490775e+2, -1158506.3, -1195417.6, 16.527351, 0.00053020247, 0.00017830417, -1158506.3, -30601.248, 0.0, 10.003462, 9.954791 
5.245223e+3, 1.9486256e+2, -1060382.6, -1097552.9, 8.438852, 0.00052950537, 0.000044840326, -1060382.6, -30035.023, 0.0, 10.003457, 9.954449 
5.2452224e+3, 2.0481072e+2, -972238.1, -1019173.8, 18.308634, 0.0005288071, 0.00016551666, -972238.1, -39382.48, 0.0, 10.003451, 9.941689 
5.245222e+3, 2.1475245e+2, -873977.06, -921170.8, 10.169124, 0.0005281071, -0.000029466331, -873977.0, -38550.3, 0.0, 10.003447, 9.941347 
5.2452207e+3, 2.2468749e+2, -785710.44, -842925.44, 19.059792, 0.0005274094, 0.00021633242, -785710.44, -47647.04, 0.0, 10.003442, 9.928307 
5.24522e+3, 2.3461585e+2, -687302.44, -744768.94, 11.12552, 0.00052671303, 0.000002658594, -687302.44, -46537.043, 0.0, 10.003436, 9.927976 
5.2452195e+3, 2.4453728e+2, -598997.56, -666841.6, 18.949146, 0.0005260124, 0.00016318806, -598997.56, -55462.145, 0.0, 10.003432, 9.9145355 
5.245219e+3, 2.5445193e+2, -500269.28, -568187.5, 11.001609, 0.0005253058, -0.000020093461, -500269.28, -53897.53, 0.0, 10.0034275, 9.914435 
5.2452177e+3, 2.643595e+2, -412056.53, -490861.56, 17.968271, 0.0005246901, 0.00022454673, -412056.5, -62778.934, 0.0, 10.003424, 9.900358 
5.245217e+3, 2.742604e+2, -312795.22, -391269.97, 10.150641, 0.0005241878, -0.00012325967, -312795.22, -60546.547, 0.0, 10.00342, 9.900778 
5.2452165e+3, 2.841531e+2, -226297.86, -317914.1, 14.738315, 0.0005237194, 0.00030665603, -226297.84, -70997.72, 0.0, 10.003417, 9.883885 
5.245216e+3, 2.9403806e+2, -126611.23, -217611.58, 7.3958955, 0.0005232947, -0.00017669557, -126611.23, -68183.51, 0.0, 10.003414, 9.884668 
5.245215e+3, 3.0395088e+2, -36997.633, -84807.586, 8.899591, 0.0005227569, 0.0002462344, -36997.63, -36997.63, 0.0, 10.003412, 9.940491 
5.2452147e+3, 3.1389323e+2, -35932.67, -82591.336, 0.5102268, 0.0005220555, 0.000010620463, -35932.67, -35932.67, 0.0, 10.00341, 9.941988 
5.255233e+3, 1.2504725e+2, -1715624.5, -1723707.3, 5.292102, 0.0005394991, 0.0001621499, -1715624.5, -1086.5896, 0.0, 10.003488, 9.992775 
5.255232e+3, 1.3503987e+2, -1618270.0, -1626941.6, -1.2144278, 0.0005386289, -0.000016612705, -1618270.0, -1659.7766, 0.0, 10.003484, 9.991992 
5.2552307e+3, 1.4502597e+2, -1530173.1, -1547644.9, 8.541008, 0.0005380031, 0.00024519936, -1530173.1, -11426.634, 0.0, 10.00348, 9.9803295 
5.25523e+3, 1.5500627e+2, -1432470.4, -1450342.6, 1.6254758, 0.0005376136, 0.00005664342, -1432470.4, -11530.913, 0.0, 10.003476, 9.979798 
5.255229e+3, 1.6497992e+2, -1344519.3, -1371646.1, 11.906415, 0.00053705013, 0.00013874142, -1344519.3, -21321.68, 0.0, 10.003472, 9.967619 
5.255228e+3, 1.7494759e+2, -1246586.5, -1274026.0, 3.5682201, 0.00053631375, 0.000034582066, -1246586.5, -21072.035, 0.0, 10.003468, 9.967205 
5.2552277e+3, 1.8490863e+2, -1158523.0, -1195451.6, 14.469516, 0.00053574995, 0.00017868337, -1158523.0, -30626.688, 0.0, 10.003463, 9.95477 
5.2552265e+3, 1.9486342e+2, -1060399.3, -1097586.6, 6.37587, 0.0005353619, 0.000045525747, -1060399.3, -30060.045, 0.0, 10.003457, 9.954427 
5.2552253e+3, 2.0481157e+2, -972254.94, -1019208.1, 16.282745, 0.0005347496, 0.00016612325, -972254.94, -39407.51, 0.0, 10.003452, 9.941667 
5.2552253e+3, 2.1475327e+2, -873993.6, -921204.94, 8.151222, 0.0005338979, -0.000029348996, -873993.6, -38574.91, 0.0, 10.003448, 9.941325 
5.255224e+3, 2.2468828e+2, -785726.8, -842959.3, 17.11528, 0.0005331614, 0.00021639811, -785726.8, -47671.188, 0.0, 10.003442, 9.928285 
5.2552235e+3, 2.3461662e+2, -687318.56, -744802.56, 9.181444, 0.0005325523, 0.000003160928, -687318.56, -46560.758, 0.0, 10.003437, 9.927954 
5.255223e+3, 2.4453802e+2, -599013.94, -666875.94, 17.25804, 0.00053192035, 0.00016378597, -599013.94, -55485.848, 0.0, 10.003432, 9.914514 
5.2552223e+3, 2.5445265e+2, -500285.44, -568221.56, 9.324865, 0.00053126033, -0.000019802523, -500285.44, -53920.813, 0.0, 10.003428, 9.914413 
5.255221e+3, 2.643602e+2, -412072.66, -490895.84, 16.503706, 0.000530613, 0.00022472123, -412072.66, -62801.965, 0.0, 10.003425, 9.900335 
5.2552205e+3, 2.742611e+2, -312811.13, -391304.03, 8.698706, 0.00052998087, -0.00012296095, -312811.13, -60569.133, 0.0, 10.003421, 9.900755 
5.25522e+3, 2.841538e+2, -226312.89, -317946.63, 13.591688, 0.00052954874, 0.00030705746, -226312.89, -71019.22, 0.0, 10.003417, 9.883863 
5.2552193e+3, 2.9403868e+2, -126625.984, -217643.77, 6.2757435, 0.0005293856, -0.00017622208, -126625.984, -68204.51, 0.0, 10.003415, 9.884646 
5.255219e+3, 3.0395147e+2, -37014.633, -84844.555, 8.262459, 0.0005289362, 0.0002466534, -37014.633, -37014.633, 0.0, 10.003412, 9.940466 
5.255218e+3, 3.1389382e+2, -35949.95, -82628.89, -0.069438145, 0.00052806665, 0.000010800118, -35949.95, -35949.95, 0.0, 10.003411, 9.941962 
5.2652365e+3, 1.2504825e+2, -1715498.8, -1723659.6, 6.027829, 0.00054472557, 0.00016270172, -1715498.8, -970.55774, 0.0, 10.003574, 9.992758 
5.2652353e+3, 1.3504086e+2, -1618141.8, -1626893.0, -0.17785177, 0.0005439922, -0.000016597547, -1618141.8, -1541.229, 0.0, 10.003572, 9.991975 
5.265234e+3, 1.4502694e+2, -1530044.5, -1547598.6, 9.368958, 0.0005435259, 0.00024528863, -1530044.5, -11307.546, 0.0, 10.00357, 9.98031 
5.2652335e+3, 1.5500721e+2, -1432340.4, -1450296.0, 1.9790572, 0.00054331776, 0.00005740803, -1432340.4, -11410.284, 0.0, 10.003568, 9.979779 
5.265233e+3, 1.6498084e+2, -1344390.6, -1371603.6, 11.809498, 0.0005428857, 0.00013951235, -1344390.6, -21202.023, 0.0, 10.003564, 9.967597 
5.265232e+3, 1.749485e+2, -1246457.0, -1273983.5, 3.6663404, 0.00054223073, 0.00003468999, -1246457.0, -20951.465, 0.0, 10.003561, 9.967183 
5.265231e+3, 1.849095e+2, -1158393.4, -1195409.5, 14.150858, 0.00054163043, 0.00017862568, -1158393.4, -30505.693, 0.0, 10.003556, 9.954747 
5.26523e+3, 1.9486429e+2, -1060270.0, -1097545.0, 5.777554, 0.0005410848, 0.000045813264, -1060270.0, -29939.158, 0.0, 10.0035515, 9.954405 
5.2652293e+3, 2.0481241e+2, -972125.7, -1019166.6, 15.64808, 0.0005404404, 0.00016654408, -972125.7, -39286.46, 0.0, 10.003547, 9.941645 
5.265229e+3, 2.1475409e+2, -873864.9, -921164.06, 7.703357, 0.00053969026, -0.000029020486, -873864.9, -38454.145, 0.0, 10.003541, 9.941303 
5.2652276e+3, 2.2468907e+2, -785598.44, -842919.4, 16.82069, 0.0005390089, 0.00021669242, -785598.4, -47550.55, 0.0, 10.003536, 9.928263 
5.265227e+3, 2.346174e+2, -687190.06, -744763.0, 8.692946, 0.0005384032, 0.000003486015, -687190.06, -46439.84, 0.0, 10.003532, 9.927932 
5.2652264e+3, 2.4453877e+2, -598885.5, -666836.9, 16.870516, 0.00053780124, 0.00016410038, -598885.5, -55364.76, 0.0, 10.003528, 9.914491 
5.265226e+3, 2.544534e+2, -500157.34, -568183.1, 8.952438, 0.0005372025, -0.000019547819, -500157.34, -53799.848, 0.0, 10.003524, 9.914391 
5.2652246e+3, 2.643609e+2, -411944.75, -490858.22, 16.338596, 0.0005365914, 0.00022496584, -411944.75, -62680.965, 0.0, 10.003521, 9.900312 
5.265224e+3, 2.7426177e+2, -312683.1, -391266.72, 8.38337, 0.0005359637, -0.00012266365, -312683.1, -60447.78, 0.0, 10.003517, 9.900732 
5.2652234e+3, 2.8415442e+2, -226183.63, -317907.88, 13.451008, 0.00053552445, 0.00030738348, -226183.63, -70896.41, 0.0, 10.003515, 9.8838415 
5.265223e+3, 2.940393e+2, -126496.38, -217605.13, 6.0286655, 0.00053533865, -0.00017590052, -126496.38, -68081.16, 0.0, 10.003512, 9.8846245 
5.265222e+3, 3.039521e+2, -36887.945, -84811.74, 8.366269, 0.00053494854, 0.00024693616, -36887.94, -36887.94, 0.0, 10.003511, 9.94044 
5.2652216e+3, 3.1389442e+2, -35822.766, -82596.29, 0.0459033, 0.0005342587, 0.000010995134, -35822.766, -35822.766, 0.0, 10.00351, 9.9419365 
5.27524e+3, 1.2504925e+2, -1715512.3, -1723686.3, 5.141893, 0.00054998463, 0.00016301782, -1715512.3, -993.9564, 0.0, 10.003575, 9.992742 
5.2752393e+3, 1.3504183e+2, -1618155.3, -1626919.5, -1.0838503, 0.00054931524, -0.000016753082, -1618155.3, -1564.3081, 0.0, 10.003572, 9.991958 
5.275238e+3, 1.450279e+2, -1530060.3, -1547629.8, 8.225002, 0.0005489816, 0.00024539017, -1530060.3, -11332.826, 0.0, 10.003571, 9.980291 
5.2752376e+3, 1.5500817e+2, -1432356.0, -1450326.9, 0.84322524, 0.0005489734, 0.00005848338, -1432356.0, -11435.156, 0.0, 10.003568, 9.97976 
5.2752364e+3, 1.6498178e+2, -1344407.6, -1371637.6, 10.294569, 0.000548821, 0.0001405249, -1344407.6, -21228.193, 0.0, 10.003565, 9.967576 
5.275235e+3, 1.7494941e+2, -1246473.9, -1274017.4, 2.1628728, 0.0005485257, 0.00003460304, -1246473.9, -20977.207, 0.0, 10.003561, 9.967162 
5.2752346e+3, 1.8491039e+2, -1158410.8, -1195444.5, 12.161405, 0.00054781977, 0.000178169, -1158410.8, -30531.75, 0.0, 10.003557, 9.954725 
5.2752334e+3, 1.9486514e+2, -1060287.1, -1097579.9, 3.7988956, 0.0005466904, 0.00004573597, -1060287.1, -29964.793, 0.0, 10.003552, 9.954382 
5.275233e+3, 2.0481324e+2, -972142.1, -1019200.2, 13.667105, 0.0005459062, 0.0001667938, -972142.1, -39311.11, 0.0, 10.003547, 9.941623 
5.275232e+3, 2.147549e+2, -873881.06, -921197.4, 5.717004, 0.00054548885, -0.000028499135, -873881.06, -38478.355, 0.0, 10.003542, 9.941282 
5.2752316e+3, 2.2468987e+2, -785615.1, -842954.0, 15.047302, 0.0005449484, 0.0002171957, -785615.1, -47575.094, 0.0, 10.003537, 9.92824 
5.2752304e+3, 2.3461816e+2, -687206.6, -744797.44, 6.9323683, 0.0005442697, 0.0000036481104, -687206.6, -46463.965, 0.0, 10.003533, 9.927909 
5.275229e+3, 2.4453951e+2, -598901.8, -666871.2, 15.269504, 0.0005436624, 0.0001641545, -598901.8, -55388.46, 0.0, 10.003529, 9.914468 
5.275229e+3, 2.544541e+2, -500173.47, -568217.1, 7.356944, 0.0005431384, -0.000019326713, -500173.47, -53823.105, 0.0, 10.003525, 9.914368 
5.2752286e+3, 2.643616e+2, -411961.16, -490893.1, 15.076583, 0.00054262544, 0.00022527437, -411961.16, -62704.293, 0.0, 10.003521, 9.90029 
5.2752274e+3, 2.7426246e+2, -312699.3, -391301.44, 7.1442327, 0.00054212526, -0.00012236816, -312699.3, -60470.688, 0.0, 10.003518, 9.900709 
5.275227e+3, 2.841551e+2, -226198.9, -317940.94, 12.557517, 0.0005416393, 0.00030763977, -226198.9, -70918.164, 0.0, 10.003515, 9.88382 
5.275227e+3, 2.9403993e+2, -126511.375, -217637.83, 5.1669116, 0.00054117065, -0.0001757189, -126511.375, -68102.41, 0.0, 10.003513, 9.884603 
5.2752256e+3, 3.0395272e+2, -36905.016, -84848.88, 7.935392, 0.0005408131, 0.00024709353, -36905.016, -36905.016, 0.0, 10.003512, 9.940415 
5.275225e+3, 3.13895e+2, -35840.09, -82633.97, -0.3370033, 0.00054062175, 0.000011203898, -35840.09, -35840.09, 0.0, 10.003511, 9.941911 
5.2852434e+3, 1.2505026e+2, -1715381.3, -1723636.9, 5.174511, 0.0005552942, 0.00016281282, -1715381.3, -872.7733, 0.0, 10.003665, 9.992723 
5.285243e+3, 1.3504283e+2, -1618023.9, -1626870.4, -2.0124066, 0.00055482076, -0.000016506, -1618023.9, -1442.6422, 0.0, 10.003664, 9.99194 
5.2852416e+3, 1.4502887e+2, -1529929.1, -1547582.5, 6.8028955, 0.00055463094, 0.00024558243, -1529929.1, -11211.1, 0.0, 10.003662, 9.980272 
5.285241e+3, 1.550091e+2, -1432223.4, -1450279.3, -0.41616592, 0.000554715, 0.00005812149, -1432223.4, -11311.867, 0.0, 10.003661, 9.97974 
5.28524e+3, 1.649827e+2, -1344275.6, -1371592.6, 8.73238, 0.000554645, 0.00014018083, -1344275.6, -21105.244, 0.0, 10.003659, 9.967554 
5.2852386e+3, 1.7495032e+2, -1246341.8, -1273972.5, 0.9254349, 0.0005544224, 0.000034848963, -1246341.8, -20853.951, 0.0, 10.003655, 9.96714 
5.285238e+3, 1.8491127e+2, -1158279.3, -1195401.0, 10.727565, 0.00055372133, 0.00017854158, -1158279.3, -30408.86, 0.0, 10.003652, 9.954703 
5.2852374e+3, 1.9486602e+2, -1060156.3, -1097537.1, 2.8206296, 0.0005525271, 0.000045759647, -1060156.3, -29842.303, 0.0, 10.003647, 9.95436 
5.285236e+3, 2.0481409e+2, -972011.44, -1019158.25, 12.858864, 0.0005517134, 0.00016678596, -972011.44, -39188.69, 0.0, 10.003642, 9.941601 
5.2852356e+3, 2.1475573e+2, -873750.2, -921155.7, 4.5627427, 0.00055130426, -0.000028200786, -873750.2, -38355.523, 0.0, 10.003638, 9.941259 
5.285235e+3, 2.2469066e+2, -785484.3, -842912.9, 13.923294, 0.0005507946, 0.00021757747, -785484.3, -47452.066, 0.0, 10.0036335, 9.928218 
5.285234e+3, 2.3461895e+2, -687076.2, -744756.9, 5.963751, 0.00055017165, 0.000003865052, -687076.2, -46341.094, 0.0, 10.00363, 9.927887 
5.285233e+3, 2.4454029e+2, -598771.6, -666831.5, 14.512669, 0.0005496033, 0.0001643051, -598771.6, -55265.625, 0.0, 10.003626, 9.914446 
5.2852327e+3, 2.5445485e+2, -500043.2, -568177.8, 6.418557, 0.0005490984, -0.000019126326, -500043.2, -53699.98, 0.0, 10.003622, 9.914346 
5.285232e+3, 2.643623e+2, -411831.03, -490854.7, 14.307663, 0.00054861576, 0.00022549495, -411831.0, -62581.08, 0.0, 10.003619, 9.900267 
5.285231e+3, 2.742631e+2, -312569.38, -391263.53, 6.333625, 0.0005481599, -0.00012216464, -312569.38, -60347.457, 0.0, 10.003616, 9.900686 
5.28523e+3, 2.8415576e+2, -226067.97, -317901.6, 12.071377, 0.00054770225, 0.00030782213, -226067.97, -70793.7, 0.0, 10.003614, 9.883798 
5.2852297e+3, 2.940406e+2, -126380.32, -217598.72, 4.6634974, 0.00054724026, -0.00017556355, -126380.32, -67977.61, 0.0, 10.0036125, 9.884581 
5.2852297e+3, 3.0395335e+2, -36776.938, -84815.734, 7.785819, 0.00054690556, 0.00024723858, -36776.938, -36776.938, 0.0, 10.003612, 9.94039 
5.2852285e+3, 3.1389558e+2, -35711.223, -82600.9, -0.62605137, 0.0005467613, 0.000011364477, -35711.223, -35711.223, 0.0, 10.003612, 9.941884 
5.2952474e+3, 1.2505126e+2, -1715397.0, -1723667.8, 4.5009775, 0.0005606546, 0.00016213454, -1715397.0, -898.32556, 0.0, 10.003666, 9.992704 
5.295247e+3, 1.3504381e+2, -1618039.4, -1626901.0, -2.680277, 0.0005604968, -0.000015895042, -1618039.4, -1467.826, 0.0, 10.003664, 9.99192 
5.2952456e+3, 1.4502983e+2, -1529944.4, -1547612.9, 6.155706, 0.000560461, 0.0002458541, -1529944.4, -11235.887, 0.0, 10.003663, 9.980252 
5.2952445e+3, 1.5501006e+2, -1432238.6, -1450309.5, -1.0791256, 0.0005605397, 0.000056450666, -1432238.6, -11336.303, 0.0, 10.003662, 9.979721 
5.295244e+3, 1.6498363e+2, -1344292.0, -1371625.3, 7.389677, 0.0005603726, 0.00013860183, -1344291.9, -21130.654, 0.0, 10.003659, 9.967534 
5.2952427e+3, 1.7495121e+2, -1246357.9, -1274004.9, -0.38238108, 0.000559961, 0.000035396566, -1246357.9, -20878.973, 0.0, 10.003656, 9.96712 
5.2952415e+3, 1.8491216e+2, -1158295.6, -1195434.1, 8.763205, 0.0005593655, 0.0001796676, -1158295.5, -30433.914, 0.0, 10.003653, 9.954682 
5.295241e+3, 1.9486688e+2, -1060172.4, -1097569.9, 0.8456065, 0.0005585792, 0.000045874996, -1060172.4, -29866.928, 0.0, 10.003648, 9.954339 
5.29524e+3, 2.0481493e+2, -972028.56, -1019193.2, 11.080719, 0.00055783667, 0.00016654337, -972028.56, -39214.047, 0.0, 10.003643, 9.941578 
5.295239e+3, 2.1475655e+2, -873767.1, -921190.44, 2.7982254, 0.0005571402, -0.000028107017, -873767.1, -38380.457, 0.0, 10.003638, 9.941237 
5.2952385e+3, 2.2469147e+2, -785500.75, -842946.94, 12.237949, 0.00055656093, 0.00021784699, -785500.7, -47476.297, 0.0, 10.003634, 9.928196 
5.295238e+3, 2.3461972e+2, -687092.4, -744790.6, 4.27695, 0.000556111, 0.0000041315425, -687092.4, -46364.883, 0.0, 10.00363, 9.927864 
5.295237e+3, 2.4454103e+2, -598788.25, -666866.44, 13.095535, 0.0005556219, 0.00016454348, -598788.25, -55289.668, 0.0, 10.003626, 9.914423 
5.295236e+3, 2.5445557e+2, -500059.66, -568212.6, 5.017673, 0.00055508566, -0.000018945631, -500059.66, -53723.605, 0.0, 10.003623, 9.914322 
5.2952355e+3, 2.6436305e+2, -411847.53, -490889.8, 13.183038, 0.0005545713, 0.00022563424, -411847.53, -62604.52, 0.0, 10.00362, 9.900243 
5.295235e+3, 2.7426383e+2, -312585.66, -391298.47, 5.227173, 0.00055408356, -0.000122045916, -312585.66, -60370.453, 0.0, 10.003617, 9.900662 
5.2952343e+3, 2.841564e+2, -226083.33, -317934.84, 11.377879, 0.00055372284, 0.00030793634, -226083.33, -70815.53, 0.0, 10.003614, 9.883776 
5.295233e+3, 2.9404122e+2, -126395.38, -217631.6, 4.0046797, 0.0005535321, -0.00017543267, -126395.38, -67998.93, 0.0, 10.003613, 9.884559 
5.295233e+3, 3.0395395e+2, -36794.324, -84853.555, 7.6241193, 0.0005532115, 0.00024737185, -36794.324, -36794.324, 0.0, 10.0036125, 9.940363 
5.2952325e+3, 3.1389618e+2, -35728.89, -82639.32, -0.7274536, 0.0005527018, 0.000011480187, -35728.89, -35728.89, 0.0, 10.0036125, 9.941858 
5.305251e+3, 1.2505226e+2, -1715260.9, -1723617.0, 3.6892588, 0.0005664084, 0.00016219607, -1715260.9, -772.1136, 0.0, 10.003759, 9.992685 
5.30525e+3, 1.350448e+2, -1617903.1, -1626850.5, -3.4718707, 0.0005663615, -0.000016067339, -1617903.1, -1341.2047, 0.0, 10.003759, 9.991901 
5.305249e+3, 1.4503081e+2, -1529809.4, -1547564.6, 4.8049493, 0.0005663126, 0.0002456058, -1529809.4, -11110.33, 0.0, 10.003757, 9.980232 
5.305248e+3, 1.55011e+2, -1432104.8, -1450262.3, -3.2512398, 0.0005662558, 0.00005628039, -1432104.8, -11211.771, 0.0, 10.0037565, 9.979701 
5.3052473e+3, 1.6498455e+2, -1344157.4, -1371576.1, 4.905789, 0.0005659849, 0.00013850526, -1344157.4, -21005.162, 0.0, 10.003754, 9.967515 
5.305247e+3, 1.7495212e+2, -1246223.5, -1273956.4, -1.5669962, 0.0005655011, 0.00003537059, -1246223.5, -20753.42, 0.0, 10.003751, 9.967101 
5.3052455e+3, 1.8491304e+2, -1158163.1, -1195390.1, 7.4460816, 0.0005650021, 0.00017971428, -1158163.1, -30310.154, 0.0, 10.003748, 9.95466 
5.305245e+3, 1.9486773e+2, -1060039.5, -1097526.1, -0.85300356, 0.0005644854, 0.000045995683, -1060039.5, -29742.588, 0.0, 10.003743, 9.954317 
5.305244e+3, 2.0481576e+2, -971895.75, -1019150.1, 9.455129, 0.00056385656, 0.00016667043, -971895.75, -39089.523, 0.0, 10.003739, 9.941556 
5.305243e+3, 2.1475735e+2, -873634.5, -921147.9, 1.4708365, 0.0005631081, -0.000028045206, -873634.5, -38255.91, 0.0, 10.003736, 9.941215 
5.305242e+3, 2.2469226e+2, -785368.3, -842905.2, 11.042834, 0.0005625039, 0.00021793084, -785368.3, -47351.684, 0.0, 10.003732, 9.928173 
5.3052413e+3, 2.346205e+2, -686959.9, -744749.25, 2.8086858, 0.0005620593, 0.000004334618, -686959.9, -46240.02, 0.0, 10.003728, 9.927842 
5.305241e+3, 2.4454178e+2, -598655.94, -666825.94, 11.737007, 0.00056158635, 0.00016476861, -598655.94, -55164.74, 0.0, 10.003724, 9.9144 
5.3052396e+3, 2.544563e+2, -499927.6, -568172.6, 3.7168937, 0.00056107907, -0.000018812982, -499927.6, -53598.69, 0.0, 10.003721, 9.914299 
5.305239e+3, 2.6436374e+2, -411715.72, -490850.75, 12.168652, 0.00056059187, 0.00022571374, -411715.72, -62479.62, 0.0, 10.003718, 9.90022 
5.3052384e+3, 2.7426448e+2, -312453.88, -391259.84, 4.1336737, 0.00056012906, -0.00012196981, -312453.88, -60245.355, 0.0, 10.003716, 9.90064 
5.305238e+3, 2.8415707e+2, -225950.58, -317894.94, 10.54927, 0.00055979606, 0.00030803116, -225950.58, -70689.25, 0.0, 10.003715, 9.883753 
5.305237e+3, 2.9404187e+2, -126262.74, -217592.06, 3.033912, 0.0005596366, -0.00017528998, -126262.74, -67872.54, 0.0, 10.003714, 9.884537 
5.3052366e+3, 3.0395457e+2, -36664.83, -84819.97, 7.0906863, 0.0005593532, 0.00024750707, -36664.83, -36664.83, 0.0, 10.003714, 9.940337 
5.305236e+3, 3.1389675e+2, -35598.8, -82605.9, -1.1868175, 0.0005588892, 0.0000115276225, -35598.8, -35598.8, 0.0, 10.003714, 9.941832 
5.315255e+3, 1.2505327e+2, -1715276.5, -1723647.8, 3.26834, 0.0005725236, 0.00016292538, -1715276.5, -797.4892, 0.0, 10.00376, 9.992665 
5.315254e+3, 1.3504578e+2, -1617918.5, -1626881.0, -3.9049218, 0.00057240244, -0.000016950344, -1617918.5, -1366.2487, 0.0, 10.003759, 9.991882 
5.315253e+3, 1.4503177e+2, -1529826.6, -1547598.6, 4.0566235, 0.00057218893, 0.00024488597, -1529826.6, -11136.933, 0.0, 10.003758, 9.980211 
5.315252e+3, 1.5501195e+2, -1432121.8, -1450296.0, -3.980878, 0.0005718782, 0.00005746923, -1432121.8, -11238.003, 0.0, 10.0037565, 9.979679 
5.315251e+3, 1.6498548e+2, -1344170.8, -1371603.1, 3.7596164, 0.0005714973, 0.00013975093, -1344170.8, -21027.559, 0.0, 10.003755, 9.967498 
5.31525e+3, 1.7495303e+2, -1246236.6, -1273983.1, -2.7326717, 0.0005710476, 0.000034823235, -1246236.6, -20775.492, 0.0, 10.003752, 9.967084 
5.315249e+3, 1.8491393e+2, -1158180.3, -1195424.8, 5.729809, 0.0005706368, 0.00017878118, -1158180.3, -30335.99, 0.0, 10.003748, 9.9546385 
5.3152484e+3, 1.9486861e+2, -1060056.5, -1097560.5, -2.5576308, 0.0005702638, 0.00004611985, -1060056.5, -29768.004, 0.0, 10.003744, 9.954295 
5.315248e+3, 2.0481661e+2, -971912.25, -1019183.8, 7.8166466, 0.0005697875, 0.00016713148, -971912.25, -39114.227, 0.0, 10.00374, 9.941534 
5.3152466e+3, 2.1475817e+2, -873650.75, -921181.4, -0.17099437, 0.000569201, -0.00002801303, -873650.75, -38280.18, 0.0, 10.0037365, 9.941194 
5.315246e+3, 2.2469306e+2, -785385.25, -842940.25, 9.535117, 0.0005686126, 0.00021784566, -785385.2, -47376.438, 0.0, 10.003733, 9.92815 
5.3152454e+3, 2.3462127e+2, -686976.6, -744784.2, 1.3111774, 0.0005680209, 0.000004478914, -686976.6, -46264.348, 0.0, 10.003729, 9.927819 
5.315244e+3, 2.4454254e+2, -598672.5, -666860.75, 10.451675, 0.0005675069, 0.00016498026, -598672.5, -55188.67, 0.0, 10.003725, 9.914377 
5.3152436e+3, 2.5445703e+2, -499943.94, -568207.2, 2.440173, 0.00056708325, -0.000018724924, -499943.94, -53622.176, 0.0, 10.003722, 9.914277 
5.3152424e+3, 2.6436445e+2, -411732.38, -490886.22, 11.223177, 0.0005666768, 0.00022573817, -411732.38, -62503.203, 0.0, 10.003719, 9.900196 
5.3152424e+3, 2.742652e+2, -312470.34, -391295.16, 3.2096336, 0.00056629087, -0.00012193316, -312470.34, -60268.51, 0.0, 10.003717, 9.900616 
5.315242e+3, 2.8415772e+2, -225966.23, -317928.8, 10.010296, 0.0005659224, 0.0003081075, -225966.23, -70711.375, 0.0, 10.0037155, 9.883731 
5.3152406e+3, 2.940425e+2, -126278.12, -217625.61, 2.5307045, 0.0005655757, -0.00017513755, -126278.12, -67894.16, 0.0, 10.003715, 9.884514 
5.31524e+3, 3.0395517e+2, -36682.2, -84857.78, 7.153633, 0.0005653506, 0.00024764307, -36682.195, -36682.195, 0.0, 10.003714, 9.940311 
5.31524e+3, 3.1389734e+2, -35616.43, -82644.24, -1.0604107, 0.00056530704, 0.000011512253, -35616.43, -35616.43, 0.0, 10.003715, 9.941806 
5.325259e+3, 1.2505427e+2, -1715135.6, -1723595.5, 3.6225638, 0.0005785859, 0.00016297854, -1715135.6, -666.45905, 0.0, 10.003858, 9.992645 
5.325258e+3, 1.3504677e+2, -1617779.1, -1626830.0, -4.173671, 0.0005783635, -0.000016767279, -1617779.1, -1236.5405, 0.0, 10.003857, 9.991862 
5.3252566e+3, 1.4503273e+2, -1529688.8, -1547549.3, 3.4762557, 0.00057804154, 0.00024505027, -1529688.8, -11008.612, 0.0, 10.003855, 9.98019 
5.325256e+3, 1.5501289e+2, -1431985.3, -1450247.6, -4.0186543, 0.00057761505, 0.000057468642, -1431985.3, -11110.6455, 0.0, 10.003853, 9.979659 
5.325255e+3, 1.649864e+2, -1344033.1, -1371551.9, 3.1835213, 0.00057719834, 0.00013973715, -1344033.1, -20898.992, 0.0, 10.003851, 9.96748 
5.325254e+3, 1.7495394e+2, -1246100.0, -1273932.8, -4.159973, 0.00057679275, 0.00003494754, -1246100.0, -20647.7, 0.0, 10.003848, 9.967066 
5.325253e+3, 1.8491483e+2, -1158046.1, -1195379.5, 3.7702062, 0.0005764274, 0.00017892799, -1158046.1, -30210.457, 0.0, 10.003844, 9.954617 
5.325252e+3, 1.9486946e+2, -1059921.6, -1097515.4, -4.04542, 0.00057610107, 0.000046170982, -1059921.5, -29641.543, 0.0, 10.003841, 9.954274 
5.325251e+3, 2.0481746e+2, -971777.3, -1019139.75, 6.3773685, 0.0005756881, 0.00016715197, -971777.3, -38987.574, 0.0, 10.003838, 9.941512 
5.3252506e+3, 2.14759e+2, -873516.06, -921137.75, -1.9057889, 0.00057518244, -0.000027954338, -873516.06, -38153.496, 0.0, 10.003835, 9.941171 
5.3252494e+3, 2.2469385e+2, -785250.8, -842897.7, 7.8465953, 0.000574639, 0.00021792497, -785250.8, -47249.86, 0.0, 10.003831, 9.928127 
5.325249e+3, 2.3462205e+2, -686842.4, -744742.06, -0.2479877, 0.00057405245, 0.0000045594065, -686842.4, -46137.668, 0.0, 10.003828, 9.927796 
5.325248e+3, 2.4454328e+2, -598538.44, -666819.44, 9.10142, 0.0005735444, 0.00016505312, -598538.44, -55061.93, 0.0, 10.003824, 9.914353 
5.3252476e+3, 2.5445777e+2, -499809.94, -568166.4, 0.945965, 0.000573128, -0.000018670164, -499809.94, -53495.324, 0.0, 10.003822, 9.914253 
5.3252465e+3, 2.6436514e+2, -411598.72, -490846.6, 9.912493, 0.0005727398, 0.00022579123, -411598.72, -62376.47, 0.0, 10.003819, 9.900173 
5.325246e+3, 2.7426586e+2, -312336.94, -391256.06, 1.8060237, 0.00057238596, -0.000121861034, -312336.94, -60141.78, 0.0, 10.003818, 9.900592 
5.325245e+3, 2.8415838e+2, -225831.92, -317888.44, 8.932143, 0.00057203346, 0.00030817805, -225831.92, -70583.516, 0.0, 10.003817, 9.883708 
5.3252447e+3, 2.9404315e+2, -126143.82, -217585.53, 1.4602361, 0.00057168066, -0.00017509708, -126143.82, -67766.09, 0.0, 10.003816, 9.884491 
5.325244e+3, 3.039558e+2, -36551.2, -84823.71, 6.5233984, 0.0005714949, 0.00024766647, -36551.195, -36551.195, 0.0, 10.003816, 9.940286 
5.3252435e+3, 3.138979e+2, -35485.37, -82610.586, -1.8060793, 0.0005715578, 0.000011539313, -35485.37, -35485.37, 0.0, 10.003817, 9.941779 
5.3352624e+3, 1.2505527e+2, -1715152.5, -1723628.8, 3.0271268, 0.0005846058, 0.00016242119, -1715152.5, -693.2328, 0.0, 10.003859, 9.992624 
5.335262e+3, 1.3504775e+2, -1617796.0, -1626863.1, -4.763074, 0.00058425736, -0.000015622114, -1617796.0, -1262.9696, 0.0, 10.003858, 9.991841 
5.3352606e+3, 1.4503369e+2, -1529704.6, -1547580.8, 2.6461997, 0.00058387785, 0.00024601156, -1529704.6, -11033.898, 0.0, 10.003856, 9.98017 
5.33526e+3, 1.5501384e+2, -1432000.9, -1450279.0, -4.8608303, 0.00058346085, 0.000056391844, -1432000.9, -11135.567, 0.0, 10.003854, 9.979639 
5.335259e+3, 1.6498733e+2, -1344048.4, -1371582.5, 1.9811821, 0.00058307534, 0.00013858436, -1344048.3, -20923.244, 0.0, 10.003851, 9.96746 
5.3352576e+3, 1.7495483e+2, -1246115.0, -1273963.3, -5.352166, 0.00058272266, 0.00003567829, -1246115.0, -20671.59, 0.0, 10.003848, 9.967046 
5.335257e+3, 1.849157e+2, -1158062.1, -1195412.1, 2.437995, 0.00058236404, 0.00018005015, -1158062.1, -30235.178, 0.0, 10.003845, 9.9545965 
5.335256e+3, 1.9487034e+2, -1059937.4, -1097547.8, -5.3896804, 0.000581997, 0.00004615527, -1059937.4, -29665.87, 0.0, 10.003842, 9.954253 
5.3352547e+3, 2.048183e+2, -971794.4, -1019174.6, 4.873949, 0.0005815665, 0.00016677326, -971794.4, -39012.848, 0.0, 10.003839, 9.941489 
5.3352547e+3, 2.1475983e+2, -873532.9, -921172.44, -3.404374, 0.000581068, -0.000027872848, -873532.9, -38178.344, 0.0, 10.003835, 9.941149 
5.3352535e+3, 2.2469465e+2, -785267.5, -842932.25, 6.503168, 0.00058059616, 0.00021815175, -785267.5, -47274.313, 0.0, 10.003832, 9.928105 
5.335253e+3, 2.3462282e+2, -686858.75, -744776.4, -1.5893887, 0.00058015273, 0.0000045811344, -686858.75, -46161.684, 0.0, 10.003828, 9.927773 
5.3352517e+3, 2.4454404e+2, -598555.25, -666854.75, 7.974377, 0.0005796936, 0.00016499951, -598555.25, -55086.11, 0.0, 10.003825, 9.9143305 
5.335251e+3, 2.544585e+2, -499826.56, -568201.5, -0.17015417, 0.00057921495, -0.000018646466, -499826.56, -53519.074, 0.0, 10.003822, 9.91423 
5.3352505e+3, 2.6436585e+2, -411615.6, -490882.5, 9.108959, 0.0005787883, 0.00022586923, -411615.6, -62400.234, 0.0, 10.00382, 9.900149 
5.33525e+3, 2.7426654e+2, -312353.6, -391291.78, 1.0237589, 0.0005784259, -0.00012175773, -312353.6, -60165.105, 0.0, 10.0038185, 9.900568 
5.3352493e+3, 2.8415906e+2, -225847.61, -317922.44, 8.574348, 0.000578136, 0.00030824234, -225847.61, -70605.65, 0.0, 10.003818, 9.883685 
5.335249e+3, 2.9404378e+2, -126159.22, -217619.17, 1.1381645, 0.00057794194, -0.00017515909, -126159.22, -67787.72, 0.0, 10.003817, 9.884469 
5.335248e+3, 3.039564e+2, -36568.85, -84862.13, 6.681674, 0.0005777783, 0.00024758696, -36568.85, -36568.85, 0.0, 10.003817, 9.940259 
5.335247e+3, 3.1389853e+2, -35503.31, -82649.59, -1.5903643, 0.0005776619, 0.0000116039855, -35503.31, -35503.31, 0.0, 10.003818, 9.941752 
5.3452665e+3, 1.2505628e+2, -1715008.1, -1723575.5, 3.6327698, 0.00059062074, 0.00016271253, -1715008.1, -558.77185, 0.0, 10.003959, 9.992604 
5.345266e+3, 1.3504873e+2, -1617653.5, -1626811.3, -4.098683, 0.00059015205, -0.000015357768, -1617653.5, -1130.2402, 0.0, 10.003957, 9.99182 
5.3452647e+3, 1.4503466e+2, -1529563.6, -1547529.9, 2.8619165, 0.0005897568, 0.00024614032, -1529563.6, -10902.388, 0.0, 10.003954, 9.980149 
5.3452635e+3, 1.5501478e+2, -1431861.3, -1450229.1, -5.2785845, 0.0005894266, 0.000056277328, -1431861.3, -11005.169, 0.0, 10.003952, 9.979618 
5.345263e+3, 1.6498825e+2, -1343907.9, -1371530.6, 1.1574551, 0.00058906386, 0.00013849071, -1343907.9, -20791.809, 0.0, 10.003949, 9.967441 
5.3452617e+3, 1.7495576e+2, -1245974.9, -1273911.9, -5.8893642, 0.0005886701, 0.000035869965, -1245974.9, -20540.318, 0.0, 10.003947, 9.967027 
5.3452605e+3, 1.849166e+2, -1157924.4, -1195365.3, 1.612726, 0.00058829517, 0.00018033027, -1157924.4, -30106.06, 0.0, 10.003944, 9.954575 
5.34526e+3, 1.948712e+2, -1059800.3, -1097501.6, -6.758836, 0.00058793713, 0.000046321624, -1059800.3, -29537.102, 0.0, 10.003941, 9.954231 
5.345259e+3, 2.0481914e+2, -971657.6, -1019129.75, 3.2347486, 0.0005875308, 0.00016686521, -971657.6, -38884.37, 0.0, 10.003938, 9.941467 
5.345258e+3, 2.1476063e+2, -873396.0, -921127.9, -4.890093, 0.0005870726, -0.000027813257, -873396.0, -38049.496, 0.0, 10.003935, 9.941126 
5.3452575e+3, 2.2469544e+2, -785130.8, -842888.7, 5.1006684, 0.00058662926, 0.00021817975, -785130.8, -47145.438, 0.0, 10.003932, 9.928082 
5.3452563e+3, 2.346236e+2, -686722.4, -744733.3, -3.2026544, 0.00058620144, 0.0000045783563, -686722.4, -46032.832, 0.0, 10.003929, 9.927752 
5.345256e+3, 2.4454479e+2, -598419.2, -666812.8, 6.4336634, 0.0005857629, 0.00016500462, -598419.2, -54957.41, 0.0, 10.003926, 9.914308 
5.345255e+3, 2.544592e+2, -499690.72, -568160.06, -1.7733029, 0.0005853107, -0.000018588013, -499690.72, -53390.35, 0.0, 10.003924, 9.914207 
5.3452545e+3, 2.6436654e+2, -411480.1, -490842.2, 7.7388153, 0.00058490573, 0.00022593455, -411480.1, -62271.652, 0.0, 10.003922, 9.9001255 
5.345254e+3, 2.7426723e+2, -312218.38, -391252.03, -0.39475563, 0.0005845592, -0.000121743695, -312218.38, -60036.563, 0.0, 10.003921, 9.900544 
5.345253e+3, 2.841597e+2, -225711.7, -317881.56, 7.449581, 0.0005842936, 0.00030823203, -225711.7, -70476.17, 0.0, 10.00392, 9.883662 
5.345252e+3, 2.940444e+2, -126023.67, -217578.78, -0.11693608, 0.0005841352, -0.00017515765, -126023.67, -67658.375, 0.0, 10.00392, 9.884446 
5.345252e+3, 3.0395702e+2, -36436.676, -84827.766, 5.8481293, 0.0005839876, 0.00024759382, -36436.676, -36436.676, 0.0, 10.00392, 9.940233 
5.345251e+3, 3.138991e+2, -35370.746, -82615.484, -2.3887985, 0.00058385846, 0.000011608136, -35370.746, -35370.746, 0.0, 10.003921, 9.941726 
5.3552705e+3, 1.250573e+2, -1715024.9, -1723608.5, 2.7671106, 0.0005966369, 0.0001637667, -1715024.9, -585.3906, 0.0, 10.00396, 9.992583 
5.3552693e+3, 1.3504973e+2, -1617670.1, -1626844.1, -4.96934, 0.000596053, -0.000015887801, -1617670.1, -1156.4835, 0.0, 10.003958, 9.991799 
5.355269e+3, 1.4503562e+2, -1529580.9, -1547564.1, 1.8983092, 0.0005956797, 0.0002455187, -1529580.9, -10929.07, 0.0, 10.003955, 9.980128 
5.3552675e+3, 1.5501574e+2, -1431878.3, -1450263.3, -6.237005, 0.0005955059, 0.00005702937, -1431878.3, -11031.469, 0.0, 10.003953, 9.979596 
5.3552663e+3, 1.6498919e+2, -1343922.3, -1371559.9, 0.07682732, 0.00059515826, 0.00013935048, -1343922.3, -20815.342, 0.0, 10.00395, 9.9674225 
5.355266e+3, 1.7495665e+2, -1245989.3, -1273941.0, -6.981594, 0.00059463887, 0.000035574532, -1245989.3, -20563.504, 0.0, 10.003948, 9.967009 
5.3552645e+3, 1.8491748e+2, -1157941.5, -1195400.0, 0.32551414, 0.00059422693, 0.00017985026, -1157941.5, -30131.906, 0.0, 10.003945, 9.954553 
5.355264e+3, 1.9487205e+2, -1059817.1, -1097536.3, -8.041398, 0.0005939225, 0.0000466511, -1059817.1, -29562.54, 0.0, 10.003942, 9.954209 
5.3552634e+3, 2.0481998e+2, -971674.25, -1019163.94, 1.9713519, 0.0005935779, 0.00016738052, -971674.25, -38909.258, 0.0, 10.003939, 9.941445 
5.355262e+3, 2.1476147e+2, -873412.44, -921161.8, -6.1599097, 0.00059319014, -0.000027774287, -873412.44, -38073.953, 0.0, 10.003936, 9.941104 
5.355261e+3, 2.2469625e+2, -785147.8, -842924.06, 3.8872898, 0.00059273664, 0.00021802768, -785147.8, -47170.27, 0.0, 10.003933, 9.92806 
5.355261e+3, 2.3462436e+2, -686739.2, -744768.5, -4.411996, 0.000592209, 0.0000045524553, -686739.2, -46057.23, 0.0, 10.00393, 9.927728 
5.35526e+3, 2.4454553e+2, -598436.1, -666848.44, 5.4556794, 0.00059176545, 0.00016506163, -598436.1, -54981.688, 0.0, 10.003927, 9.914284 
5.3552586e+3, 2.5445995e+2, -499707.44, -568195.5, -2.741114, 0.00059141987, -0.00001849918, -499707.44, -53414.188, 0.0, 10.003924, 9.914184 
5.3552586e+3, 2.6436725e+2, -411497.06, -490878.3, 7.0707564, 0.0005910912, 0.00022598749, -411497.06, -62295.496, 0.0, 10.003922, 9.900102 
5.355258e+3, 2.742679e+2, -312235.13, -391288.0, -1.0448483, 0.0005907827, -0.000121811296, -312235.13, -60059.965, 0.0, 10.0039215, 9.90052 
5.355257e+3, 2.8416038e+2, -225727.67, -317916.16, 7.189597, 0.0005905066, 0.00030815334, -225727.67, -70498.56, 0.0, 10.003921, 9.883639 
5.355256e+3, 2.9404503e+2, -126039.36, -217613.05, -0.3417424, 0.0005902722, -0.00017509975, -126039.36, -67680.26, 0.0, 10.003921, 9.884423 
5.3552556e+3, 3.039576e+2, -36454.375, -84866.305, 6.177958, 0.0005901352, 0.00024767796, -36454.375, -36454.375, 0.0, 10.003921, 9.940207 
5.355255e+3, 3.138997e+2, -35388.71, -82654.56, -1.996153, 0.0005901446, 0.000011556664, -35388.71, -35388.71, 0.0, 10.0039215, 9.941699 
5.3652745e+3, 1.2505831e+2, -1714878.0, -1723554.4, 3.6786158, 0.0006026704, 0.00016419146, -1714878.0, -448.39206, 0.0, 10.004061, 9.992562 
5.3652734e+3, 1.350507e+2, -1617524.5, -1626791.0, -4.4351926, 0.00060207985, -0.000015723586, -1617524.5, -1020.5363, 0.0, 10.004059, 9.991778 
5.365272e+3, 1.450366e+2, -1529436.5, -1547512.4, 2.1743238, 0.0006017057, 0.0002456067, -1529436.5, -10794.194, 0.0, 10.004056, 9.980106 
5.3652716e+3, 1.5501668e+2, -1431735.0, -1450212.5, -5.9545374, 0.0006015364, 0.00005722218, -1431735.0, -10897.508, 0.0, 10.004054, 9.979575 
5.3652704e+3, 1.649901e+2, -1343778.1, -1371506.5, 0.0028408067, 0.0006012067, 0.00013955054, -1343778.1, -20680.205, 0.0, 10.004051, 9.967402 
5.36527e+3, 1.7495754e+2, -1245846.0, -1273888.4, -7.581437, 0.0006007184, 0.00003568441, -1245846.0, -20429.168, 0.0, 10.004048, 9.966989 
5.3652686e+3, 1.8491836e+2, -1157801.0, -1195352.4, -0.59308505, 0.0006003091, 0.0001799485, -1157801.0, -30000.035, 0.0, 10.0040455, 9.95453 
5.365268e+3, 1.9487293e+2, -1059676.9, -1097489.0, -8.867681, 0.0005999781, 0.000046818463, -1059676.9, -29430.717, 0.0, 10.004043, 9.954186 
5.365267e+3, 2.0482081e+2, -971534.5, -1019117.9, 0.99968797, 0.00059962197, 0.00016752616, -971534.5, -38777.707, 0.0, 10.00404, 9.941422 
5.365266e+3, 2.1476229e+2, -873273.2, -921116.4, -7.504172, 0.0005992387, -0.000027746984, -873273.2, -37942.707, 0.0, 10.004037, 9.941082 
5.365265e+3, 2.2469704e+2, -785009.06, -842879.75, 2.4361496, 0.0005988033, 0.0002180306, -785009.06, -47039.29, 0.0, 10.004034, 9.928037 
5.3652644e+3, 2.3462513e+2, -686600.56, -744724.7, -5.899763, 0.00059830886, 0.0000046355553, -686600.56, -45926.168, 0.0, 10.004032, 9.927705 
5.365264e+3, 2.4454628e+2, -598297.8, -666805.7, 4.087851, 0.000597891, 0.00016514193, -598297.8, -54850.76, 0.0, 10.004029, 9.91426 
5.365263e+3, 2.5446066e+2, -499569.56, -568153.4, -4.2243524, 0.00059756206, -0.000018519293, -499569.56, -53283.426, 0.0, 10.004027, 9.91416 
5.365262e+3, 2.6436794e+2, -411359.75, -490837.47, 5.7454724, 0.0005972566, 0.00022593529, -411359.75, -62165.066, 0.0, 10.004025, 9.900077 
5.3652614e+3, 2.742686e+2, -312098.22, -391247.78, -2.5179045, 0.0005969794, -0.00012180956, -312098.22, -59929.7, 0.0, 10.0040245, 9.9004965 
5.365261e+3, 2.84161e+2, -225590.1, -317874.78, 5.9809012, 0.00059671997, 0.0003081886, -225590.1, -70367.38, 0.0, 10.004024, 9.8836155 
5.36526e+3, 2.940457e+2, -125902.09, -217572.14, -1.5879864, 0.0005964823, -0.00017505928, -125902.09, -67549.164, 0.0, 10.004024, 9.884399 
5.3652596e+3, 3.039582e+2, -36320.65, -84831.43, 5.3519506, 0.0005963584, 0.0002476867, -36320.65, -36320.65, 0.0, 10.0040245, 9.94018 
5.365259e+3, 3.1390026e+2, -35255.207, -82620.23, -2.9021697, 0.00059640483, 0.000011480988, -35255.207, -35255.207, 0.0, 10.004025, 9.941672 
5.3752786e+3, 1.250593e+2, -1714895.5, -1723589.0, 2.698545, 0.00060872524, 0.00016405089, -1714895.5, -475.85715, 0.0, 10.004062, 9.99254 
5.3752774e+3, 1.350517e+2, -1617541.9, -1626825.5, -5.4129906, 0.00060822564, -0.000014936416, -1617541.9, -1047.6245, 0.0, 10.00406, 9.991756 
5.375276e+3, 1.4503755e+2, -1529453.6, -1547546.6, 1.132041, 0.0006078301, 0.00024633124, -1529453.6, -10820.821, 0.0, 10.004057, 9.980084 
5.3752756e+3, 1.5501763e+2, -1431752.0, -1450246.4, -7.0027933, 0.0006075291, 0.000056911762, -1431752.0, -10923.732, 0.0, 10.004055, 9.979553 
5.3752744e+3, 1.6499102e+2, -1343793.6, -1371538.0, -1.1283796, 0.0006072195, 0.00013915726, -1343793.6, -20704.86, 0.0, 10.004052, 9.967382 
5.375273e+3, 1.7495847e+2, -1245861.4, -1273919.8, -8.709382, 0.0006069032, 0.000036157726, -1245861.4, -20453.459, 0.0, 10.004049, 9.966969 
5.375273e+3, 1.8491925e+2, -1157817.9, -1195386.8, -1.7396243, 0.0006065322, 0.00018056546, -1157817.9, -30025.607, 0.0, 10.004046, 9.954508 
5.375272e+3, 1.9487378e+2, -1059693.6, -1097523.3, -10.0235, 0.00060610264, 0.00004683919, -1059693.6, -29455.887, 0.0, 10.004044, 9.9541645 
5.375271e+3, 2.0482166e+2, -971551.9, -1019153.56, -0.20263217, 0.00060566905, 0.0001673386, -971551.9, -38803.32, 0.0, 10.004041, 9.9414 
5.37527e+3, 2.1476309e+2, -873290.3, -921151.9, -8.703858, 0.00060523045, -0.00002773127, -873290.3, -37967.883, 0.0, 10.004038, 9.941058 
5.3752697e+3, 2.2469783e+2, -785026.1, -842915.25, 1.3906046, 0.0006048387, 0.00021817186, -785026.1, -47064.14, 0.0, 10.004035, 9.928013 
5.3752685e+3, 2.3462592e+2, -686617.4, -744760.0, -6.944862, 0.0006044977, 0.000004815967, -686617.4, -45950.59, 0.0, 10.004032, 9.927682 
5.375268e+3, 2.4454702e+2, -598315.0, -666841.75, 3.213194, 0.0006041331, 0.00016524244, -598315.0, -54875.227, 0.0, 10.00403, 9.914237 
5.375267e+3, 2.544614e+2, -499586.5, -568189.25, -5.091518, 0.0006037398, -0.000018638539, -499586.5, -53307.445, 0.0, 10.004028, 9.914136 
5.375266e+3, 2.6436865e+2, -411377.0, -490874.25, 5.184974, 0.0006034096, 0.00022578736, -411377.0, -62189.17, 0.0, 10.004026, 9.900053 
5.3752655e+3, 2.7426925e+2, -312115.28, -391284.38, -3.0582857, 0.00060315756, -0.000121746234, -312115.28, -59953.363, 0.0, 10.004025, 9.900472 
5.375265e+3, 2.8416166e+2, -225606.17, -317909.7, 5.8394156, 0.00060293934, 0.00030832575, -225606.17, -70389.86, 0.0, 10.0040245, 9.883593 
5.375264e+3, 2.9404628e+2, -125917.89, -217606.66, -1.6963519, 0.0006027643, -0.00017503544, -125917.89, -67571.125, 0.0, 10.0040245, 9.884377 
5.3752637e+3, 3.0395883e+2, -36338.57, -84870.47, 5.708082, 0.0006026556, 0.00024762645, -36338.57, -36338.57, 0.0, 10.004025, 9.940153 
5.375263e+3, 3.1390086e+2, -35273.406, -82659.83, -2.4909167, 0.0006026474, 0.000011382466, -35273.406, -35273.406, 0.0, 10.004026, 9.941645 
5.3852826e+3, 1.2506032e+2, -1714745.3, -1723533.9, 3.6279664, 0.00061485247, 0.00016426684, -1714745.3, -335.51254, 0.0, 10.004167, 9.992518 
5.3852814e+3, 1.3505271e+2, -1617393.0, -1626771.4, -4.6051664, 0.0006143422, -0.000014525633, -1617393.0, -908.5286, 0.0, 10.004164, 9.9917345 
5.385281e+3, 1.4503853e+2, -1529306.0, -1547493.8, 1.6781927, 0.00061394717, 0.0002467187, -1529306.0, -10682.7295, 0.0, 10.004161, 9.9800625 
5.3852797e+3, 1.5501857e+2, -1431605.4, -1450194.5, -6.8571787, 0.00061365706, 0.000057061174, -1431605.4, -10786.405, 0.0, 10.004158, 9.979531 
5.385279e+3, 1.6499196e+2, -1343646.0, -1371483.5, -1.243585, 0.000613351, 0.000139241, -1343646.0, -20566.309, 0.0, 10.004155, 9.967362 
5.385278e+3, 1.7495936e+2, -1245714.6, -1273866.1, -8.814949, 0.00061303074, 0.00003634806, -1245714.6, -20315.61, 0.0, 10.004152, 9.9669485 
5.3852767e+3, 1.8492013e+2, -1157674.0, -1195337.9, -2.0820858, 0.0006126615, 0.00018076421, -1157674.0, -29890.379, 0.0, 10.004149, 9.954485 
5.385276e+3, 1.9487464e+2, -1059550.6, -1097475.3, -10.819168, 0.00061223947, 0.00004694566, -1059550.6, -29321.355, 0.0, 10.004147, 9.954142 
5.385275e+3, 2.048225e+2, -971409.5, -1019106.7, -1.1885636, 0.0006117991, 0.00016741596, -971409.5, -38669.215, 0.0, 10.004144, 9.941377 
5.385274e+3, 2.1476391e+2, -873148.2, -921105.56, -9.697971, 0.0006113387, -0.000027615893, -873148.2, -37833.766, 0.0, 10.004142, 9.941035 
5.3852737e+3, 2.2469862e+2, -784884.56, -842870.0, 0.35841075, 0.00061096187, 0.00021826409, -784884.56, -46930.344, 0.0, 10.004139, 9.92799 
5.3852725e+3, 2.3462668e+2, -686476.5, -744715.5, -8.240635, 0.00061067665, 0.000004817093, -686476.5, -45817.266, 0.0, 10.004136, 9.927658 
5.385272e+3, 2.4454777e+2, -598174.7, -666798.3, 1.9340899, 0.00061034254, 0.00016522966, -598174.7, -54742.234, 0.0, 10.004134, 9.914213 
5.385271e+3, 2.5446212e+2, -499446.5, -568146.4, -6.4937997, 0.0006099498, -0.000018574616, -499446.5, -53174.547, 0.0, 10.004132, 9.914112 
5.385271e+3, 2.6436937e+2, -411237.6, -490832.7, 3.947718, 0.0006096252, 0.00022586575, -411237.6, -62056.613, 0.0, 10.004131, 9.900028 
5.3852695e+3, 2.7426994e+2, -311976.38, -391243.53, -4.3760686, 0.0006093852, -0.00012173127, -311976.38, -59821.086, 0.0, 10.00413, 9.900447 
5.385269e+3, 2.841623e+2, -225466.81, -317867.78, 4.764023, 0.00060918304, 0.0003082963, -225466.81, -70256.87, 0.0, 10.004129, 9.883569 
5.3852683e+3, 2.9404694e+2, -125779.15, -217565.39, -2.9142473, 0.00060902955, -0.00017508387, -125779.15, -67438.53, 0.0, 10.004129, 9.884353 
5.385268e+3, 3.039594e+2, -36203.473, -84835.19, 4.8512096, 0.0006089335, 0.0002475826, -36203.473, -36203.473, 0.0, 10.00413, 9.940126 
5.385267e+3, 3.139014e+2, -35138.42, -82625.02, -3.3373713, 0.00060892495, 0.000011379025, -35138.42, -35138.42, 0.0, 10.004131, 9.941618 
5.3952867e+3, 1.2506135e+2, -1714763.0, -1723569.0, 2.4928768, 0.0006210508, 0.00016480093, -1714763.0, -363.24512, 0.0, 10.004168, 9.9924965 
5.3952855e+3, 1.350537e+2, -1617410.6, -1626806.4, -5.7435937, 0.00062043854, -0.0000144524765, -1617410.6, -935.8543, 0.0, 10.004165, 9.991713 
5.395285e+3, 1.450395e+2, -1529324.0, -1547529.6, 0.58978677, 0.0006200634, 0.00024680392, -1529324.0, -10710.227, 0.0, 10.004162, 9.98004 
5.3952837e+3, 1.5501952e+2, -1431623.1, -1450230.1, -7.942142, 0.00061991246, 0.00005762173, -1431623.1, -10813.501, 0.0, 10.004159, 9.979508 
5.3952825e+3, 1.6499288e+2, -1343661.5, -1371514.9, -2.386363, 0.0006195949, 0.00013975114, -1343661.5, -20590.896, 0.0, 10.004156, 9.967342 
5.395282e+3, 1.7496029e+2, -1245730.0, -1273897.4, -9.966726, 0.0006191129, 0.000036284142, -1245730.0, -20339.822, 0.0, 10.004153, 9.9669285 
5.3952813e+3, 1.8492103e+2, -1157691.8, -1195374.1, -3.2615783, 0.00061871257, 0.0001805875, -1157691.8, -29916.883, 0.0, 10.00415, 9.954462 
5.39528e+3, 1.9487552e+2, -1059568.3, -1097511.4, -11.995408, 0.000618393, 0.000047127898, -1059568.3, -29347.438, 0.0, 10.004148, 9.954119 
5.3952795e+3, 2.0482333e+2, -971426.9, -1019142.4, -2.2382, 0.0006180094, 0.00016772971, -971426.9, -38694.78, 0.0, 10.004145, 9.941354 
5.3952783e+3, 2.1476473e+2, -873165.3, -921141.0, -10.753221, 0.00061755755, -0.00002741166, -873165.3, -37858.906, 0.0, 10.004142, 9.941012 
5.395277e+3, 2.2469942e+2, -784902.1, -842906.56, -0.6623098, 0.00061716995, 0.00021831183, -784902.1, -46955.695, 0.0, 10.00414, 9.927966 
5.395277e+3, 2.3462746e+2, -686493.9, -744751.9, -9.257764, 0.0006168525, 0.0000046561117, -686493.9, -45842.16, 0.0, 10.004137, 9.927634 
5.395276e+3, 2.4454853e+2, -598192.0, -666834.94, 1.185331, 0.00061652815, 0.00016511393, -598192.0, -54766.902, 0.0, 10.004135, 9.914188 
5.3952754e+3, 2.5446284e+2, -499463.66, -568182.8, -7.2339797, 0.0006161947, -0.000018346916, -499463.66, -53198.77, 0.0, 10.004133, 9.914088 
5.395274e+3, 2.6437005e+2, -411255.0, -490869.84, 3.4712937, 0.0006159032, 0.00022614682, -411255.0, -62080.855, 0.0, 10.004132, 9.900003 
5.395274e+3, 2.742706e+2, -311993.6, -391280.5, -4.8365507, 0.0006156632, -0.00012176063, -311993.6, -59844.883, 0.0, 10.004131, 9.900422 
5.395273e+3, 2.8416297e+2, -225483.19, -317903.3, 4.661218, 0.00061545445, 0.00030811617, -225483.19, -70279.6, 0.0, 10.00413, 9.883545 
5.3952724e+3, 2.9404753e+2, -125795.25, -217600.6, -2.9842732, 0.00061528553, -0.00017519838, -125795.25, -67460.76, 0.0, 10.00413, 9.88433 
5.395272e+3, 3.0396003e+2, -36221.46, -84874.41, 5.2558293, 0.0006151999, 0.0002475525, -36221.46, -36221.46, 0.0, 10.004131, 9.9401 
5.395272e+3, 3.13902e+2, -35156.67, -82664.75, -2.8819404, 0.0006152399, 0.000011460532, -35156.668, -35156.668, 0.0, 10.004132, 9.94159 
5.405291e+3, 1.2506236e+2, -1714609.8, -1723512.9, 3.6125064, 0.0006273239, 0.00016517207, -1714609.8, -219.9216, 0.0, 10.004273, 9.992474 
5.40529e+3, 1.350547e+2, -1617258.3, -1626751.1, -4.9633207, 0.00062661554, -0.000014176955, -1617258.3, -793.21106, 0.0, 10.004271, 9.991691 
5.405289e+3, 1.4504048e+2, -1529172.8, -1547475.6, 1.1486691, 0.0006262205, 0.00024706093, -1529172.8, -10568.515, 0.0, 10.004268, 9.980018 
5.4052883e+3, 1.5502046e+2, -1431473.4, -1450177.3, -7.459143, 0.0006261241, 0.000057935584, -1431473.4, -10673.007, 0.0, 10.004265, 9.9794855 
5.405287e+3, 1.6499382e+2, -1343510.9, -1371459.5, -2.1324844, 0.00062582194, 0.00014003657, -1343510.9, -20449.371, 0.0, 10.004261, 9.967321 
5.405286e+3, 1.7496118e+2, -1245580.3, -1273842.8, -10.135114, 0.00062531664, 0.000036456273, -1245580.3, -20198.992, 0.0, 10.004258, 9.9669075 
5.4052854e+3, 1.849219e+2, -1157544.8, -1195324.4, -3.6378021, 0.0006248896, 0.00018070384, -1157544.6, -29778.514, 0.0, 10.004256, 9.954439 
5.405284e+3, 1.9487637e+2, -1059421.8, -1097462.3, -12.383948, 0.00062453985, 0.000047247406, -1059421.8, -29209.46, 0.0, 10.004253, 9.954096 
5.4052836e+3, 2.0482418e+2, -971281.3, -1019094.5, -2.7577019, 0.0006241854, 0.00016784744, -971281.3, -38557.477, 0.0, 10.004251, 9.94133 
5.405283e+3, 2.1476555e+2, -873020.9, -921094.1, -11.6638, 0.00062382553, -0.000027301063, -873020.9, -37722.477, 0.0, 10.004248, 9.940989 
5.405282e+3, 2.2470021e+2, -784758.3, -842860.7, -1.6436666, 0.0006234525, 0.00021841451, -784758.3, -46819.668, 0.0, 10.004245, 9.927942 
5.4052806e+3, 2.3462822e+2, -686350.25, -744706.5, -10.278586, 0.0006230636, 0.0000047500516, -686350.25, -45706.094, 0.0, 10.004243, 9.92761 
5.40528e+3, 2.4454927e+2, -598049.0, -666790.7, 0.21739067, 0.0006227323, 0.00016518391, -598049.0, -54631.203, 0.0, 10.004241, 9.914165 
5.4052794e+3, 2.5446355e+2, -499321.5, -568139.44, -8.430711, 0.0006224675, -0.000018318731, -499321.5, -53063.676, 0.0, 10.004239, 9.914064 
5.405279e+3, 2.6437077e+2, -411113.66, -490827.72, 2.36366, 0.00062221166, 0.00022615652, -411113.66, -61946.332, 0.0, 10.004238, 9.899979 
5.4052776e+3, 2.7427128e+2, -311852.88, -391239.16, -6.084599, 0.00062196597, -0.00012174005, -311852.88, -59710.758, 0.0, 10.004237, 9.900397 
5.4052776e+3, 2.841636e+2, -225342.0, -317860.88, 3.655811, 0.00062175305, 0.00030813878, -225342.0, -70144.766, 0.0, 10.004237, 9.883522 
5.405277e+3, 2.940482e+2, -125654.62, -217558.72, -4.0153027, 0.0006215821, -0.00017518627, -125654.62, -67326.234, 0.0, 10.004237, 9.884306 
5.405276e+3, 3.0396062e+2, -36084.6, -84838.69, 4.541296, 0.0006214953, 0.00024753954, -36084.6, -36084.6, 0.0, 10.004237, 9.940072 
5.405275e+3, 3.1390256e+2, -35020.195, -82629.65, -3.7834792, 0.00062153523, 0.000011402783, -35020.19, -35020.19, 0.0, 10.004239, 9.941563 
5.4152954e+3, 1.2506339e+2, -1714628.3, -1723549.5, 2.4526198, 0.00063367, 0.00016539759, -1714628.3, -248.42876, 0.0, 10.004274, 9.992451 
5.415294e+3, 1.3505569e+2, -1617276.5, -1626787.5, -6.1167955, 0.00063287106, -0.000013721704, -1617276.5, -821.31494, 0.0, 10.0042715, 9.991667 
5.4152936e+3, 1.4504145e+2, -1529190.9, -1547511.8, -0.08487963, 0.0006324206, 0.0002474703, -1529190.9, -10596.163, 0.0, 10.004269, 9.979995 
5.4152924e+3, 1.5502143e+2, -1431491.1, -1450213.1, -8.699068, 0.0006323027, 0.00005802873, -1431491.1, -10700.223, 0.0, 10.004266, 9.979463 
5.415292e+3, 1.6499475e+2, -1343527.3, -1371492.6, -3.2937064, 0.0006320401, 0.00014012106, -1343527.3, -20474.854, 0.0, 10.004262, 9.9673 
5.4152906e+3, 1.749621e+2, -1245596.4, -1273875.8, -11.294486, 0.0006316352, 0.000036838348, -1245596.4, -20224.096, 0.0, 10.004259, 9.9668865 
5.4152894e+3, 1.8492278e+2, -1157562.5, -1195360.6, -4.759133, 0.0006311854, 0.00018108093, -1157562.5, -29804.998, 0.0, 10.004256, 9.954415 
5.415289e+3, 1.9487724e+2, -1059439.4, -1097498.4, -13.51315, 0.0006306871, 0.000047310397, -1059439.4, -29235.523, 0.0, 10.004254, 9.954072 
5.4152876e+3, 2.0482503e+2, -971299.4, -1019131.8, -3.882999, 0.000630337, 0.00016778948, -971299.4, -38583.824, 0.0, 10.0042515, 9.941306 
5.4152864e+3, 2.1476635e+2, -873038.75, -921131.2, -12.785172, 0.0006301433, -0.000027275439, -873038.75, -37748.37, 0.0, 10.004249, 9.940965 
5.4152864e+3, 2.24701e+2, -784775.9, -842897.4, -2.503028, 0.0006298074, 0.00021856515, -784775.9, -46845.043, 0.0, 10.004246, 9.9279175 
5.415285e+3, 2.3462898e+2, -686367.7, -744743.0, -11.1382, 0.0006293126, 0.0000050717613, -686367.6, -45731.023, 0.0, 10.004244, 9.927587 
5.4152846e+3, 2.4455002e+2, -598066.8, -666828.25, -0.5325809, 0.0006289594, 0.00016541978, -598066.8, -54656.293, 0.0, 10.004242, 9.91414 
5.4152834e+3, 2.5446427e+2, -499339.06, -568176.75, -9.173027, 0.0006287713, -0.000018470328, -499339.06, -53088.31, 0.0, 10.00424, 9.91404 
5.415283e+3, 2.6437142e+2, -411131.3, -490865.5, 1.9407, 0.0006285534, 0.0002259219, -411131.3, -61970.82, 0.0, 10.004239, 9.899954 
5.415282e+3, 2.7427194e+2, -311870.34, -391276.72, -6.489051, 0.00062829687, -0.00012167567, -311870.34, -59734.785, 0.0, 10.004238, 9.9003725 
5.4152817e+3, 2.8416425e+2, -225358.47, -317896.63, 3.6145008, 0.00062808197, 0.00030834237, -225358.47, -70167.555, 0.0, 10.004237, 9.883497 
5.415281e+3, 2.940488e+2, -125670.78, -217594.11, -4.029123, 0.00062792125, -0.00017506108, -125670.78, -67348.5, 0.0, 10.004238, 9.884282 
5.4152805e+3, 3.0396122e+2, -36102.977, -84878.74, 4.9278884, 0.00062782277, 0.00024754144, -36102.977, -36102.977, 0.0, 10.004238, 9.940045 
5.41528e+3, 3.139031e+2, -35038.863, -82670.29, -3.3449814, 0.00062781887, 0.000011218764, -35038.863, -35038.863, 0.0, 10.00424, 9.941535 
5.4253e+3, 1.2506442e+2, -1714471.4, -1723491.9, 3.4830663, 0.00063996844, 0.00016569639, -1714471.4, -101.60908, 0.0, 10.004383, 9.992428 
5.425299e+3, 1.3505669e+2, -1617121.3, -1626731.1, -5.083405, 0.0006392392, -0.000013420786, -1617121.3, -675.85657, 0.0, 10.00438, 9.991644 
5.4252976e+3, 1.4504243e+2, -1529036.9, -1547457.0, 0.77603054, 0.00063876814, 0.00024777313, -1529036.9, -10451.811, 0.0, 10.004376, 9.979971 
5.425297e+3, 1.5502238e+2, -1431338.0, -1450159.3, -8.251891, 0.000638541, 0.000058332644, -1431337.9, -10556.346, 0.0, 10.004374, 9.97944 
5.425296e+3, 1.6499569e+2, -1343372.9, -1371436.0, -3.0672858, 0.00063825113, 0.00014038704, -1343372.9, -20329.701, 0.0, 10.004371, 9.967279 
5.4252946e+3, 1.7496301e+2, -1245443.4, -1273820.3, -11.125512, 0.0006379006, 0.000037027872, -1245443.4, -20080.006, 0.0, 10.004367, 9.966866 
5.425294e+3, 1.849237e+2, -1157412.5, -1195310.0, -4.7537274, 0.0006374922, 0.00018124073, -1157412.5, -29663.75, 0.0, 10.004364, 9.9543915 
5.425293e+3, 1.9487812e+2, -1059290.5, -1097448.6, -13.913723, 0.0006370219, 0.000047488058, -1059290.5, -29095.121, 0.0, 10.004361, 9.954048 
5.425292e+3, 2.0482586e+2, -971151.25, -1019083.1, -4.3982377, 0.00063664746, 0.00016795415, -971151.25, -38443.9, 0.0, 10.004358, 9.941281 
5.425291e+3, 2.1476719e+2, -872891.0, -921083.1, -13.303736, 0.000636374, -0.000027156364, -872891.0, -37608.59, 0.0, 10.004356, 9.940941 
5.4252905e+3, 2.2470179e+2, -784628.94, -842850.5, -3.0516222, 0.0006360542, 0.00021867386, -784628.94, -46705.85, 0.0, 10.004354, 9.927894 
5.425289e+3, 2.3462977e+2, -686221.94, -744697.1, -12.068212, 0.0006356816, 0.0000052091805, -686221.94, -45592.824, 0.0, 10.004352, 9.927562 
5.4252887e+3, 2.4455076e+2, -597921.8, -666783.44, -1.4720618, 0.0006353596, 0.00016553861, -597921.8, -54518.633, 0.0, 10.00435, 9.914115 
5.425288e+3, 2.5446498e+2, -499194.5, -568132.56, -10.144219, 0.0006350959, -0.000018425648, -499194.5, -52950.816, 0.0, 10.004348, 9.914015 
5.425287e+3, 2.6437214e+2, -410987.5, -490822.63, 1.1362981, 0.00063484843, 0.00022592807, -410987.5, -61833.797, 0.0, 10.004347, 9.899928 
5.425287e+3, 2.7427262e+2, -311727.3, -391234.72, -7.4554434, 0.00063462026, -0.00012166302, -311727.3, -59598.332, 0.0, 10.004346, 9.900348 
5.4252857e+3, 2.8416488e+2, -225215.22, -317853.66, 2.7710786, 0.0006344297, 0.00030837604, -225215.22, -70030.63, 0.0, 10.004346, 9.883473 
5.425285e+3, 2.9404944e+2, -125528.48, -217551.9, -5.107735, 0.0006342877, -0.00017498758, -125528.48, -67212.27, 0.0, 10.004346, 9.884257 
5.4252845e+3, 3.039618e+2, -35964.504, -84842.44, 4.150047, 0.0006341869, 0.00024758052, -35964.504, -35964.504, 0.0, 10.004346, 9.940018 
5.425284e+3, 3.139037e+2, -34900.77, -82634.56, -3.9785473, 0.0006341499, 0.000011116016, -34900.77, -34900.77, 0.0, 10.004348, 9.941507 
5.435304e+3, 1.2506545e+2, -1714489.8, -1723528.5, 2.1540678, 0.0006462315, 0.00016605911, -1714489.8, -130.08778, 0.0, 10.004384, 9.992405 
5.4353034e+3, 1.3505769e+2, -1617139.4, -1626767.5, -6.42087, 0.00064571394, -0.000013257205, -1617139.4, -703.91626, 0.0, 10.004381, 9.991621 
5.435302e+3, 1.4504342e+2, -1529055.9, -1547494.9, -0.4341809, 0.0006452532, 0.00024798125, -1529055.9, -10480.376, 0.0, 10.004377, 9.979947 
5.435301e+3, 1.5502335e+2, -1431356.6, -1450196.9, -9.455592, 0.00064483925, 0.00005882324, -1431356.6, -10584.484, 0.0, 10.0043745, 9.979416 
5.4353005e+3, 1.6499661e+2, -1343389.4, -1371469.4, -4.322371, 0.00064446265, 0.00014081343, -1343389.4, -20355.285, 0.0, 10.004372, 9.967258 
5.435299e+3, 1.7496392e+2, -1245459.6, -1273853.4, -12.389098, 0.00064412516, 0.000037045535, -1245459.6, -20105.191, 0.0, 10.004368, 9.966845 
5.435298e+3, 1.8492457e+2, -1157431.1, -1195347.9, -5.937771, 0.0006438151, 0.0001812067, -1157431.1, -29691.07, 0.0, 10.004365, 9.954368 
5.4352975e+3, 1.9487898e+2, -1059308.9, -1097486.4, -15.094998, 0.00064353005, 0.000047766887, -1059308.9, -29122.004, 0.0, 10.004362, 9.954024 
5.435296e+3, 2.0482671e+2, -971169.25, -1019120.4, -5.4065666, 0.0006431059, 0.00016831617, -971169.25, -38470.203, 0.0, 10.004359, 9.941257 
5.4352957e+3, 2.14768e+2, -872908.8, -921120.2, -14.317168, 0.0006425337, -0.000026954185, -872908.8, -37634.45, 0.0, 10.004357, 9.940916 
5.435295e+3, 2.247026e+2, -784647.25, -842888.75, -4.0104184, 0.0006422111, 0.00021874491, -784647.25, -46731.97, 0.0, 10.0043545, 9.927869 
5.435294e+3, 2.3463053e+2, -686240.06, -744735.2, -13.020814, 0.0006421639, 0.0000051808715, -686240.06, -45618.48, 0.0, 10.004353, 9.927537 
5.435293e+3, 2.4455151e+2, -597939.7, -666821.1, -2.1115437, 0.0006419203, 0.00016555164, -597939.7, -54543.742, 0.0, 10.004351, 9.91409 
5.435293e+3, 2.544657e+2, -499212.1, -568170.0, -10.777119, 0.00064144516, -0.000018206261, -499212.1, -52975.465, 0.0, 10.004349, 9.91399 
5.4352915e+3, 2.6437283e+2, -411005.47, -490861.06, 0.7271693, 0.0006411081, 0.00022614897, -411005.47, -61858.57, 0.0, 10.004348, 9.899903 
5.435291e+3, 2.7427328e+2, -311745.1, -391272.97, -7.8497334, 0.00064094324, -0.00012169717, -311745.1, -59622.65, 0.0, 10.004347, 9.900322 
5.4352903e+3, 2.8416553e+2, -225232.14, -317890.4, 2.6983654, 0.00064080046, 0.00030825697, -225232.14, -70053.85, 0.0, 10.004346, 9.883449 
5.43529e+3, 2.9405004e+2, -125545.1, -217588.31, -5.149306, 0.00064068474, -0.00017496168, -125545.1, -67234.97, 0.0, 10.004347, 9.884233 
5.435289e+3, 3.039624e+2, -35982.707, -84882.2, 4.517491, 0.0006405899, 0.00024765162, -35982.707, -35982.707, 0.0, 10.004347, 9.93999 
5.4352885e+3, 3.1390426e+2, -34919.2, -82674.766, -3.574244, 0.00064052927, 0.000011085894, -34919.2, -34919.2, 0.0, 10.004348, 9.94148 
5.4453087e+3, 1.2506647e+2, -1714329.9, -1723470.1, 3.585348, 0.0006526754, 0.00016623997, -1714329.9, 19.672716, 0.0, 10.004496, 9.992381 
5.4453075e+3, 1.350587e+2, -1616980.5, -1626710.1, -5.505505, 0.00065206626, -0.000012848262, -1616980.5, -554.88965, 0.0, 10.004492, 9.991597 
5.445307e+3, 1.450444e+2, -1528898.1, -1547438.8, 0.28922817, 0.0006516006, 0.0002484237, -1528898.1, -10332.366, 0.0, 10.004488, 9.979923 
5.445306e+3, 1.5502429e+2, -1431200.5, -1450142.0, -8.725873, 0.0006512659, 0.00005910852, -1431200.5, -10437.766, 0.0, 10.004485, 9.979392 
5.4453045e+3, 1.6499756e+2, -1343232.5, -1371412.1, -3.751111, 0.0006508937, 0.00014102868, -1343232.5, -20207.604, 0.0, 10.004481, 9.9672365 
5.445304e+3, 1.7496485e+2, -1245303.6, -1273797.0, -12.216907, 0.0006504863, 0.000037277445, -1245303.6, -19958.184, 0.0, 10.004478, 9.966823 
5.445303e+3, 1.8492547e+2, -1157277.9, -1195296.3, -5.926347, 0.0006501479, 0.00018142337, -1157277.9, -29546.617, 0.0, 10.004475, 9.954343 
5.4453015e+3, 1.9487983e+2, -1059156.6, -1097435.8, -15.146573, 0.00064987695, 0.00004793582, -1059156.6, -28978.29, 0.0, 10.004472, 9.9539995 
5.445301e+3, 2.0482755e+2, -971018.06, -1019070.8, -5.52709, 0.0006494899, 0.00016849369, -971018.06, -38327.24, 0.0, 10.004469, 9.941233 
5.4453e+3, 2.1476881e+2, -872758.75, -921071.6, -14.824406, 0.0006489793, -0.00002670856, -872758.75, -37492.406, 0.0, 10.004466, 9.940891 
5.445299e+3, 2.2470339e+2, -784498.0, -842841.25, -4.5746646, 0.0006486484, 0.00021895094, -784498.0, -46590.5, 0.0, 10.004464, 9.927843 
5.4452986e+3, 2.346313e+2, -686091.3, -744688.4, -13.5662365, 0.00064851565, 0.000005227928, -686091.3, -45477.285, 0.0, 10.004462, 9.927512 
5.4452974e+3, 2.4455224e+2, -597791.75, -666775.44, -2.5772114, 0.00064825616, 0.00016556065, -597791.75, -54403.094, 0.0, 10.00446, 9.914064 
5.445297e+3, 2.5446644e+2, -499065.28, -568125.3, -11.594723, 0.0006478469, -0.000018093533, -499065.28, -52835.684, 0.0, 10.004458, 9.913964 
5.445296e+3, 2.6437354e+2, -410859.63, -490817.63, -0.08025735, 0.00064753735, 0.00022629864, -410859.63, -61719.523, 0.0, 10.004457, 9.899878 
5.4452956e+3, 2.7427396e+2, -311600.1, -391230.4, -8.754687, 0.00064735196, -0.00012159424, -311600.1, -59484.195, 0.0, 10.0044565, 9.900296 
5.4452944e+3, 2.841662e+2, -225086.84, -317846.78, 2.0403924, 0.0006471913, 0.000308287, -225086.84, -69914.85, 0.0, 10.004456, 9.883425 
5.445294e+3, 2.9405066e+2, -125400.61, -217545.4, -5.785602, 0.0006470612, -0.00017504, -125400.6, -67096.53, 0.0, 10.004456, 9.884209 
5.445293e+3, 3.03963e+2, -35842.176, -84845.44, 4.0729747, 0.0006469636, 0.00024758547, -35842.176, -35842.176, 0.0, 10.0044565, 9.939962 
5.445293e+3, 3.1390482e+2, -34779.273, -82638.71, -4.4271812, 0.00064691703, 0.0000112101825, -34779.273, -34779.273, 0.0, 10.004457, 9.941452 
5.455313e+3, 1.2506752e+2, -1714349.4, -1723508.9, 2.2190988, 0.00065928634, 0.00016626029, -1714349.4, -10.0162, 0.0, 10.004497, 9.992356 
5.455312e+3, 1.3505973e+2, -1616999.9, -1626748.6, -6.8613253, 0.00065831706, -0.000012222817, -1616999.9, -584.1402, 0.0, 10.004493, 9.991573 
5.455311e+3, 1.450454e+2, -1528917.0, -1547476.6, -1.0737749, 0.00065783283, 0.0002490725, -1528917.0, -10360.892, 0.0, 10.004489, 9.979899 
5.4553103e+3, 1.5502527e+2, -1431219.3, -1450179.6, -10.096859, 0.0006578133, 0.00005921145, -1431219.3, -10465.849, 0.0, 10.004486, 9.979367 
5.455309e+3, 1.6499849e+2, -1343249.8, -1371447.3, -5.015903, 0.0006575263, 0.00014105669, -1343249.8, -20234.053, 0.0, 10.004482, 9.967214 
5.455308e+3, 1.7496575e+2, -1245320.6, -1273831.9, -13.479631, 0.0006569755, 0.00003769877, -1245320.6, -19984.229, 0.0, 10.004479, 9.9668 
5.4553074e+3, 1.8492636e+2, -1157296.5, -1195334.4, -7.133491, 0.0006564963, 0.00018186157, -1157296.5, -29574.037, 0.0, 10.004476, 9.954318 
5.455306e+3, 1.9488071e+2, -1059175.1, -1097473.6, -16.35935, 0.00065608724, 0.000048006823, -1059175.1, -29005.26, 0.0, 10.004473, 9.953975 
5.455305e+3, 2.048284e+2, -971036.8, -1019109.6, -6.614534, 0.0006558146, 0.00016850702, -971036.8, -38354.32, 0.0, 10.00447, 9.941208 
5.4553044e+3, 2.1476963e+2, -872777.3, -921110.25, -15.907663, 0.0006556855, -0.000026425434, -872777.3, -37519.027, 0.0, 10.004467, 9.940866 
5.455304e+3, 2.2470419e+2, -784516.25, -842879.44, -5.4459853, 0.0006553414, 0.00021927578, -784516.25, -46616.54, 0.0, 10.004465, 9.927818 
5.4553026e+3, 2.3463206e+2, -686109.3, -744726.3, -14.439392, 0.00065475766, 0.0000053418084, -686109.3, -45502.85, 0.0, 10.004463, 9.927487 
5.455302e+3, 2.44553e+2, -597810.2, -666814.5, -3.282721, 0.00065439864, 0.00016556602, -597810.2, -54428.867, 0.0, 10.004461, 9.91404 
5.4553014e+3, 2.5446716e+2, -499083.56, -568164.2, -12.2887745, 0.00065430184, -0.00001807666, -499083.56, -52860.996, 0.0, 10.004459, 9.9139385 
5.4553e+3, 2.643742e+2, -410877.78, -490856.53, -0.4771029, 0.000654124, 0.00022638364, -410877.78, -61744.473, 0.0, 10.004458, 9.899852 
5.4552996e+3, 2.7427462e+2, -311618.0, -391269.06, -9.136277, 0.0006538435, -0.00012137021, -311618.0, -59508.664, 0.0, 10.004457, 9.90027 
5.455299e+3, 2.8416684e+2, -225103.72, -317883.56, 1.9696305, 0.0006536064, 0.0003084492, -225103.72, -69938.03, 0.0, 10.0044565, 9.8834 
5.4552984e+3, 2.9405126e+2, -125417.195, -217581.8, -5.834704, 0.0006534258, -0.0001752112, -125417.195, -67119.17, 0.0, 10.0044565, 9.884184 
5.455298e+3, 3.039636e+2, -35861.117, -84886.79, 4.3616734, 0.0006533175, 0.00024739682, -35861.117, -35861.117, 0.0, 10.004457, 9.939935 
5.455297e+3, 3.139054e+2, -34798.523, -82680.68, -4.0909457, 0.00065331836, 0.000011470584, -34798.523, -34798.523, 0.0, 10.004458, 9.941423 
5.4653174e+3, 1.2506855e+2, -1714186.1, -1723449.4, 3.4220293, 0.00066580233, 0.00016678144, -1714186.1, 143.12834, 0.0, 10.00461, 9.992332 
5.465316e+3, 1.3506073e+2, -1616837.9, -1626690.3, -5.562454, 0.0006648293, -0.000011976327, -1616837.9, -432.09204, 0.0, 10.004606, 9.9915495 
5.4653156e+3, 1.4504638e+2, -1528756.4, -1547419.8, 0.0555037, 0.0006643257, 0.0002492646, -1528756.4, -10209.969, 0.0, 10.004602, 9.979875 
5.4653144e+3, 1.5502623e+2, -1431059.8, -1450123.8, -9.429261, 0.0006642714, 0.00005956381, -1431059.8, -10315.862, 0.0, 10.004599, 9.979343 
5.465313e+3, 1.6499944e+2, -1343089.5, -1371388.9, -4.506812, 0.0006639845, 0.00014142925, -1343089.5, -20083.063, 0.0, 10.004595, 9.967191 
5.4653126e+3, 1.7496668e+2, -1245161.8, -1273774.6, -13.036223, 0.0006634686, 0.00003795274, -1245161.6, -19834.277, 0.0, 10.004591, 9.966777 
5.4653114e+3, 1.8492725e+2, -1157140.5, -1195281.9, -6.788088, 0.00066299154, 0.00018207324, -1157140.5, -29426.766, 0.0, 10.004588, 9.954293 
5.465311e+3, 1.9488159e+2, -1059020.0, -1097422.0, -16.344425, 0.0006625512, 0.000048253813, -1059020.0, -28858.701, 0.0, 10.004585, 9.95395 
5.4653096e+3, 2.0482925e+2, -970882.7, -1019059.2, -6.6906466, 0.0006622666, 0.00016873001, -970882.7, -38208.48, 0.0, 10.004582, 9.941182 
5.465309e+3, 2.1477047e+2, -872624.3, -921060.75, -16.048645, 0.0006621462, -0.000026289075, -872624.3, -37374.023, 0.0, 10.00458, 9.940842 
5.465308e+3, 2.2470498e+2, -784364.1, -842831.06, -5.5707107, 0.0006618055, 0.00021940997, -784364.1, -46472.22, 0.0, 10.004577, 9.9277935 
5.465307e+3, 2.3463285e+2, -685958.2, -744678.8, -14.941403, 0.0006612191, 0.0000055673354, -685958.2, -45359.234, 0.0, 10.004575, 9.927462 
5.4653066e+3, 2.4455374e+2, -597659.94, -666768.1, -3.817591, 0.00066085777, 0.00016577516, -597659.94, -54285.875, 0.0, 10.004573, 9.914014 
5.4653054e+3, 2.5446787e+2, -498934.2, -568118.75, -12.820726, 0.00066075905, -0.000018010183, -498934.2, -52718.66, 0.0, 10.004571, 9.913913 
5.4653054e+3, 2.643749e+2, -410729.38, -490812.34, -0.83786124, 0.0006605788, 0.00022638062, -410729.38, -61602.85, 0.0, 10.004569, 9.899825 
5.465304e+3, 2.742753e+2, -311470.66, -391225.88, -9.716284, 0.000660295, -0.000121350764, -311470.66, -59367.844, 0.0, 10.004568, 9.900244 
5.4653037e+3, 2.8416747e+2, -224956.25, -317839.34, 1.43347, 0.0006600615, 0.00030853684, -224956.25, -69796.84, 0.0, 10.004568, 9.883375 
5.465303e+3, 2.9405192e+2, -125270.74, -217538.4, -6.648611, 0.0006598937, -0.00017499477, -125270.74, -66978.75, 0.0, 10.004568, 9.884159 
5.4653025e+3, 3.0396417e+2, -35718.66, -84849.445, 3.7840674, 0.0006597718, 0.00024755744, -35718.66, -35718.66, 0.0, 10.004568, 9.939906 
5.465302e+3, 3.1390595e+2, -34656.58, -82643.984, -4.450842, 0.0006597203, 0.000011306332, -34656.574, -34656.574, 0.0, 10.004569, 9.941395 
5.475322e+3, 1.2506959e+2, -1714205.3, -1723487.6, 1.9569157, 0.00067224185, 0.0001677434, -1714205.3, 113.68179, 0.0, 10.004611, 9.992309 
5.4753214e+3, 1.3506176e+2, -1616856.9, -1626728.3, -7.034716, 0.0006715798, -0.000012064597, -1616856.9, -461.11075, 0.0, 10.004607, 9.991525 
5.47532e+3, 1.4504738e+2, -1528776.3, -1547459.5, -1.3902606, 0.00067105604, 0.00024905358, -1528776.3, -10239.55, 0.0, 10.004603, 9.97985 
5.4753196e+3, 1.550272e+2, -1431079.4, -1450163.3, -10.869181, 0.0006706575, 0.000060136, -1431079.4, -10344.976, 0.0, 10.0046, 9.979318 
5.4753184e+3, 1.6500038e+2, -1343106.8, -1371424.1, -5.8538814, 0.0006702956, 0.00014210535, -1343106.8, -20109.621, 0.0, 10.004596, 9.967169 
5.475317e+3, 1.749676e+2, -1245178.8, -1273809.8, -14.389952, 0.00066997204, 0.000038058308, -1245178.8, -19860.426, 0.0, 10.004592, 9.966755 
5.4753166e+3, 1.8492816e+2, -1157159.8, -1195321.4, -8.0169115, 0.0006696236, 0.00018208435, -1157159.8, -29454.875, 0.0, 10.004589, 9.9542675 
5.4753155e+3, 1.9488247e+2, -1059039.1, -1097461.4, -17.572006, 0.0006692468, 0.000048655875, -1059039.1, -28886.361, 0.0, 10.004586, 9.953924 
5.475314e+3, 2.048301e+2, -970901.6, -1019098.3, -7.8271585, 0.0006688384, 0.00016913775, -970901.6, -38235.668, 0.0, 10.004583, 9.941157 
5.4753137e+3, 2.1477129e+2, -872642.94, -921099.6, -17.188816, 0.0006683959, -0.000026283, -872642.94, -37400.723, 0.0, 10.0045805, 9.940816 
5.4753125e+3, 2.2470579e+2, -784383.1, -842870.75, -6.466774, 0.0006680733, 0.00021937504, -784383.1, -46498.984, 0.0, 10.004578, 9.927767 
5.475312e+3, 2.3463361e+2, -685976.94, -744718.3, -15.8286085, 0.00066788204, 0.000005890887, -685976.94, -45385.543, 0.0, 10.004576, 9.927436 
5.475311e+3, 2.4455449e+2, -597678.4, -666807.25, -4.524012, 0.00066760456, 0.00016616384, -597678.4, -54311.63, 0.0, 10.004574, 9.913988 
5.47531e+3, 2.544686e+2, -498952.4, -568157.56, -13.525042, 0.00066722493, -0.00001790018, -498952.38, -52743.918, 0.0, 10.004572, 9.913887 
5.4753095e+3, 2.643756e+2, -410747.9, -490852.13, -1.2820221, 0.00066692306, 0.00022629937, -410747.9, -61628.188, 0.0, 10.00457, 9.899799 
5.475309e+3, 2.7427593e+2, -311489.0, -391265.47, -10.143641, 0.0006667176, -0.000121513265, -311489.0, -59392.71, 0.0, 10.004569, 9.900218 
5.4753083e+3, 2.8416812e+2, -224973.67, -317877.28, 1.314861, 0.0006665587, 0.00030855762, -224973.67, -69820.53, 0.0, 10.004569, 9.883349 
5.475308e+3, 2.940525e+2, -125287.875, -217575.97, -6.739299, 0.0006664599, -0.00017443536, -125287.875, -67001.914, 0.0, 10.004568, 9.884134 
5.475307e+3, 3.0396476e+2, -35737.293, -84890.22, 4.0239844, 0.00066632166, 0.00024802703, -35737.293, -35737.293, 0.0, 10.004569, 9.939878 
5.475306e+3, 3.139065e+2, -34675.43, -82685.17, -4.1811733, 0.0006661291, 0.000010764828, -34675.43, -34675.43, 0.0, 10.00457, 9.941366 
5.4853266e+3, 1.2507065e+2, -1714038.6, -1723426.9, 3.5737197, 0.00067882374, 0.00016800151, -1714038.6, 270.06995, 0.0, 10.004726, 9.992284 
5.4853255e+3, 1.3506277e+2, -1616691.9, -1626668.8, -5.870657, 0.0006782056, -0.000011599074, -1616691.9, -306.04483, 0.0, 10.004723, 9.9915 
5.485325e+3, 1.4504836e+2, -1528612.6, -1547401.8, -0.3619484, 0.00067766936, 0.0002495278, -1528612.6, -10085.693, 0.0, 10.004718, 9.979824 
5.4853237e+3, 1.5502816e+2, -1430916.8, -1450106.4, -9.880305, 0.00067720294, 0.000060424707, -1430916.8, -10191.827, 0.0, 10.004714, 9.979293 
5.4853225e+3, 1.6500133e+2, -1342943.3, -1371364.8, -5.003729, 0.0006768123, 0.00014233399, -1342943.3, -19955.33, 0.0, 10.004711, 9.967146 
5.485322e+3, 1.7496853e+2, -1245016.6, -1273751.4, -13.877791, 0.00067649904, 0.00003835144, -1245016.6, -19707.258, 0.0, 10.004707, 9.966732 
5.4853207e+3, 1.8492906e+2, -1157000.8, -1195268.0, -7.6072927, 0.0006761795, 0.00018238275, -1157000.8, -29304.63, 0.0, 10.0047035, 9.954243 
5.48532e+3, 1.9488333e+2, -1058881.4, -1097409.1, -17.29107, 0.00067585043, 0.00004889926, -1058881.4, -28737.19, 0.0, 10.0047, 9.953899 
5.485319e+3, 2.0483093e+2, -970744.75, -1019047.0, -7.577151, 0.00067541347, 0.00016936443, -970744.75, -38087.12, 0.0, 10.004697, 9.941132 
5.4853183e+3, 2.147721e+2, -872486.75, -921049.1, -17.235474, 0.00067486166, -0.000026032641, -872486.75, -37252.594, 0.0, 10.004694, 9.94079 
5.485317e+3, 2.2470658e+2, -784227.94, -842821.44, -6.5645432, 0.0006745338, 0.00021959048, -784227.94, -46351.625, 0.0, 10.004691, 9.927741 
5.4853165e+3, 2.3463438e+2, -685823.25, -744670.2, -15.994452, 0.0006744522, 0.0000060066764, -685823.25, -45239.418, 0.0, 10.004689, 9.92741 
5.485316e+3, 2.4455523e+2, -597525.7, -666760.2, -4.60528, 0.0006741967, 0.00016625764, -597525.7, -54166.27, 0.0, 10.004686, 9.913961 
5.485315e+3, 2.544693e+2, -498800.56, -568111.4, -13.912592, 0.00067373604, -0.000017737562, -498800.56, -52599.13, 0.0, 10.004684, 9.913861 
5.485314e+3, 2.643763e+2, -410597.03, -490807.22, -1.6678892, 0.0006734021, 0.0002264844, -410597.03, -61484.082, 0.0, 10.0046835, 9.899773 
5.4853135e+3, 2.742766e+2, -311339.2, -391221.53, -10.637503, 0.00067322585, -0.00012136372, -311339.2, -59249.426, 0.0, 10.004683, 9.900191 
5.485313e+3, 2.8416875e+2, -224823.84, -317832.44, 0.99788785, 0.0006730829, 0.00030864318, -224823.84, -69676.98, 0.0, 10.004682, 9.883324 
5.485312e+3, 2.9405314e+2, -125139.25, -217532.08, -7.112247, 0.0006729818, -0.00017445242, -125139.25, -66859.31, 0.0, 10.004682, 9.884109 
5.485312e+3, 3.0396536e+2, -35592.754, -84852.22, 3.7807908, 0.00067283347, 0.00024801694, -35592.754, -35592.754, 0.0, 10.004682, 9.93985 
5.485311e+3, 3.139071e+2, -34531.58, -82647.89, -4.765426, 0.00067261944, 0.000010923875, -34531.58, -34531.58, 0.0, 10.004682, 9.941338 
5.495331e+3, 1.2507169e+2, -1714058.9, -1723467.1, 1.9434359, 0.0006855385, 0.00016764086, -1714058.9, 239.55864, 0.0, 10.004727, 9.992258 
5.4953307e+3, 1.350638e+2, -1616711.9, -1626708.9, -7.4977894, 0.0006847287, -0.000010646402, -1616711.9, -336.0941, 0.0, 10.004724, 9.991475 
5.4953295e+3, 1.4504938e+2, -1528632.5, -1547441.6, -1.8194877, 0.0006841869, 0.00025060444, -1528632.5, -10115.334, 0.0, 10.00472, 9.979799 
5.495329e+3, 1.5502915e+2, -1430936.4, -1450146.0, -11.340278, 0.0006838963, 0.000060463364, -1430936.4, -10221.018, 0.0, 10.004716, 9.979267 
5.495328e+3, 1.6500227e+2, -1342961.3, -1371401.4, -6.4613605, 0.0006835178, 0.00014216844, -1342961.3, -19982.646, 0.0, 10.004712, 9.967122 
5.4953265e+3, 1.7496945e+2, -1245034.4, -1273787.9, -15.334692, 0.0006830541, 0.000038809496, -1245034.4, -19734.139, 0.0, 10.004708, 9.966708 
5.495326e+3, 1.8492997e+2, -1157020.3, -1195308.0, -8.938081, 0.0006826752, 0.00018293371, -1157020.3, -29332.982, 0.0, 10.004704, 9.954217 
5.495325e+3, 1.948842e+2, -1058900.6, -1097448.9, -18.625856, 0.0006823797, 0.000049002283, -1058900.6, -28765.068, 0.0, 10.004701, 9.953874 
5.4953235e+3, 2.048318e+2, -970764.2, -1019087.3, -8.662295, 0.0006819984, 0.00016943114, -970764.2, -38114.895, 0.0, 10.004698, 9.941105 
5.495323e+3, 2.1477294e+2, -872506.0, -921089.2, -18.31694, 0.00068152574, -0.000025567222, -872506.0, -37279.91, 0.0, 10.004695, 9.940764 
5.495322e+3, 2.2470737e+2, -784247.0, -842861.44, -7.603928, 0.00068117166, 0.00022002622, -784247.0, -46378.523, 0.0, 10.004692, 9.927715 
5.495321e+3, 2.3463514e+2, -685842.06, -744709.94, -17.036085, 0.0006809472, 0.0000059385393, -685842.06, -45265.805, 0.0, 10.00469, 9.927383 
5.4953206e+3, 2.4455597e+2, -597544.7, -666800.5, -5.305252, 0.0006806588, 0.00016609067, -597544.7, -54192.582, 0.0, 10.004687, 9.913935 
5.49532e+3, 2.5447002e+2, -498819.34, -568151.5, -14.598421, 0.0006802942, -0.000017529006, -498819.34, -52624.977, 0.0, 10.004686, 9.913835 
5.495319e+3, 2.64377e+2, -410615.78, -490847.47, -2.1486, 0.0006800074, 0.00022690411, -410615.78, -61509.63, 0.0, 10.004684, 9.899746 
5.495318e+3, 2.7427727e+2, -311357.72, -391261.6, -11.107368, 0.0006798168, -0.000120938836, -311357.72, -59274.48, 0.0, 10.0046835, 9.900165 
5.4953176e+3, 2.841694e+2, -224841.38, -317870.66, 0.7856982, 0.0006796377, 0.0003087855, -224841.38, -69700.766, 0.0, 10.004683, 9.883298 
5.495317e+3, 2.9405373e+2, -125156.47, -217569.9, -7.303512, 0.00067947124, -0.00017497996, -125156.47, -66882.54, 0.0, 10.004683, 9.884083 
5.4953164e+3, 3.0396596e+2, -35611.984, -84894.33, 3.9128335, 0.0006793182, 0.00024758207, -35611.984, -35611.984, 0.0, 10.004683, 9.939821 
5.495316e+3, 3.1390762e+2, -34551.086, -82690.54, -4.59774, 0.00067918835, 0.000011702404, -34551.086, -34551.086, 0.0, 10.004683, 9.941308 
5.5053365e+3, 1.2507275e+2, -1713889.1, -1723405.6, 3.5396345, 0.00069225644, 0.00016808053, -1713889.1, 399.0303, 0.0, 10.004846, 9.992233 
5.5053353e+3, 1.3506484e+2, -1616543.0, -1626648.3, -6.0714054, 0.0006912995, -0.000010261271, -1616543.0, -177.38054, 0.0, 10.004842, 9.991449 
5.505335e+3, 1.4505038e+2, -1528465.0, -1547382.3, -0.5613342, 0.0006907511, 0.00025096184, -1528465.0, -9957.715, 0.0, 10.004837, 9.9797735 
5.5053335e+3, 1.5503012e+2, -1430770.8, -1450088.1, -10.371334, 0.00069059106, 0.000060818413, -1430770.8, -10065.033, 0.0, 10.004832, 9.979241 
5.505332e+3, 1.6500324e+2, -1342795.1, -1371341.3, -5.5622334, 0.00069023616, 0.00014251085, -1342795.1, -19825.877, 0.0, 10.004828, 9.967098 
5.505331e+3, 1.7497039e+2, -1244869.3, -1273728.8, -14.553859, 0.0006896902, 0.000039129496, -1244869.3, -19578.072, 0.0, 10.004825, 9.966684 
5.5053306e+3, 1.8493086e+2, -1156857.9, -1195253.5, -8.247045, 0.0006892445, 0.000183227, -1156857.9, -29179.479, 0.0, 10.004821, 9.95419 
5.5053294e+3, 1.9488509e+2, -1058739.4, -1097395.4, -18.22355, 0.00068889785, 0.000049264316, -1058739.4, -28612.383, 0.0, 10.004818, 9.953847 
5.505329e+3, 2.0483264e+2, -970604.1, -1019035.0, -8.310717, 0.000688565, 0.0001696776, -970604.1, -37963.21, 0.0, 10.004814, 9.941079 
5.5053276e+3, 2.1477376e+2, -872347.7, -921038.2, -18.107683, 0.000688246, -0.000025319594, -872347.7, -37129.688, 0.0, 10.00481, 9.940738 
5.5053264e+3, 2.2470817e+2, -784089.7, -842811.5, -7.3786635, 0.0006878785, 0.00022025719, -784089.7, -46229.016, 0.0, 10.004807, 9.927689 
5.5053264e+3, 2.3463592e+2, -685685.2, -744660.7, -17.055359, 0.00068745576, 0.000006133001, -685685.2, -45116.504, 0.0, 10.004806, 9.927358 
5.505325e+3, 2.4455671e+2, -597388.8, -666752.5, -5.330937, 0.0006871268, 0.0001662601, -597388.8, -54043.973, 0.0, 10.004804, 9.913908 
5.505324e+3, 2.5447074e+2, -498665.03, -568104.75, -14.769993, 0.00068690634, -0.000017371161, -498665.0, -52477.69, 0.0, 10.004801, 9.913808 
5.505324e+3, 2.6437768e+2, -410462.7, -490801.97, -2.2282548, 0.00068667444, 0.00022705673, -410462.7, -61363.332, 0.0, 10.004799, 9.899719 
5.505323e+3, 2.7427796e+2, -311205.78, -391217.1, -11.368494, 0.0006864271, -0.000120783385, -311205.78, -59129.055, 0.0, 10.004798, 9.900138 
5.505322e+3, 2.8417e+2, -224689.27, -317825.1, 0.6103816, 0.0006862084, 0.00030892817, -224689.27, -69554.94, 0.0, 10.004797, 9.883272 
5.5053216e+3, 2.9405436e+2, -125005.336, -217525.16, -7.628454, 0.00068602595, -0.00017487178, -125005.336, -66737.42, 0.0, 10.004797, 9.884058 
5.505321e+3, 3.0396652e+2, -35465.023, -84855.88, 3.7179244, 0.0006858585, 0.00024766425, -35465.023, -35465.023, 0.0, 10.004796, 9.939792 
5.5053204e+3, 3.1390816e+2, -34404.793, -82652.84, -4.9135394, 0.0006857164, 0.000011773064, -34404.793, -34404.793, 0.0, 10.004797, 9.941278 
5.515341e+3, 1.250738e+2, -1713909.6, -1723446.5, 1.8843449, 0.0006989847, 0.0001692215, -1713909.6, 368.10547, 0.0, 10.004847, 9.992208 
5.5153406e+3, 1.3506585e+2, -1616563.4, -1626689.0, -7.720627, 0.0006979203, -0.000010374573, -1616563.4, -207.84499, 0.0, 10.004843, 9.991424 
5.5153394e+3, 1.4505138e+2, -1528485.5, -1547423.4, -2.2524173, 0.00069736456, 0.000250688, -1528485.5, -9988.026, 0.0, 10.004838, 9.979747 
5.515338e+3, 1.550311e+2, -1430791.0, -1450129.0, -12.0640335, 0.0006972943, 0.00006145103, -1430791.0, -10094.853, 0.0, 10.004834, 9.979216 
5.515337e+3, 1.650042e+2, -1342813.3, -1371378.5, -7.0190716, 0.00069697294, 0.0001432988, -1342813.3, -19853.418, 0.0, 10.004829, 9.967074 
5.515336e+3, 1.7497131e+2, -1244887.1, -1273765.8, -16.014387, 0.00069640495, 0.00003932794, -1244887.1, -19605.191, 0.0, 10.004826, 9.9666605 
5.515335e+3, 1.8493178e+2, -1156878.0, -1195294.8, -9.61856, 0.0006958861, 0.00018329383, -1156878.0, -29208.453, 0.0, 10.004822, 9.954164 
5.5153346e+3, 1.9488597e+2, -1058759.3, -1097436.4, -19.593792, 0.0006954141, 0.00004966575, -1058759.3, -28640.88, 0.0, 10.004819, 9.95382 
5.5153334e+3, 2.048335e+2, -970623.8, -1019075.9, -9.594564, 0.0006951231, 0.00017008152, -970623.8, -37991.27, 0.0, 10.004815, 9.941052 
5.515332e+3, 2.1477458e+2, -872367.1, -921078.8, -19.393915, 0.0006950225, -0.00002526399, -872367.1, -37157.24, 0.0, 10.004812, 9.940711 
5.5153316e+3, 2.2470897e+2, -784109.2, -842852.44, -8.315851, 0.0006946528, 0.00022030775, -784109.2, -46256.37, 0.0, 10.004809, 9.927662 
5.5153304e+3, 2.3463671e+2, -685704.5, -744701.44, -17.985737, 0.00069398386, 0.0000065583386, -685704.5, -45143.387, 0.0, 10.0048065, 9.927331 
5.51533e+3, 2.4455747e+2, -597408.06, -666793.44, -6.1929026, 0.0006936078, 0.00016672524, -597408.06, -54070.586, 0.0, 10.004805, 9.913881 
5.515329e+3, 2.5447148e+2, -498684.06, -568145.44, -15.628213, 0.00069357315, -0.000017258464, -498684.06, -52503.793, 0.0, 10.004802, 9.913781 
5.5153286e+3, 2.643784e+2, -410481.75, -490842.97, -2.7712228, 0.00069340284, 0.00022697356, -410481.75, -61389.2, 0.0, 10.004801, 9.899692 
5.5153275e+3, 2.742786e+2, -311224.63, -391257.88, -11.894553, 0.0006930614, -0.00012086598, -311224.6, -59154.426, 0.0, 10.004799, 9.90011 
5.515327e+3, 2.8417066e+2, -224707.06, -317863.97, 0.3663213, 0.0006928002, 0.00030907072, -224707.06, -69579.0, 0.0, 10.004798, 9.883246 
5.515327e+3, 2.9405496e+2, -125022.83, -217563.63, -7.8527293, 0.0006926453, -0.00017420313, -125022.83, -66760.94, 0.0, 10.004798, 9.884031 
5.5153257e+3, 3.039671e+2, -35484.504, -84898.58, 3.7596817, 0.0006924548, 0.00024820206, -35484.504, -35484.504, 0.0, 10.004797, 9.939763 
5.515325e+3, 3.1390873e+2, -34424.547, -82696.07, -4.835935, 0.00069221517, 0.000011218298, -34424.547, -34424.547, 0.0, 10.004798, 9.941249 
5.5253464e+3, 1.2507486e+2, -1713736.3, -1723383.5, 3.5376937, 0.0007056779, 0.0001698085, -1713736.3, 530.98425, 0.0, 10.004968, 9.992182 
5.525345e+3, 1.350669e+2, -1616391.9, -1626627.4, -6.129696, 0.00070474384, -0.00001004408, -1616391.9, -46.522358, 0.0, 10.004962, 9.991398 
5.525344e+3, 1.450524e+2, -1528315.5, -1547363.6, -0.7368131, 0.00070416526, 0.0002509509, -1528315.5, -9828.002, 0.0, 10.004958, 9.979721 
5.525343e+3, 1.5503208e+2, -1430621.8, -1450070.1, -10.825364, 0.0007039225, 0.00006183034, -1430621.8, -9935.328, 0.0, 10.004953, 9.979189 
5.5253416e+3, 1.6500516e+2, -1342643.1, -1371316.9, -5.9282455, 0.00070356636, 0.00014370555, -1342643.1, -19692.744, 0.0, 10.00495, 9.967051 
5.525341e+3, 1.7497227e+2, -1244718.9, -1273705.4, -15.17565, 0.0007031002, 0.000039673898, -1244718.9, -19446.043, 0.0, 10.004945, 9.966637 
5.52534e+3, 1.8493268e+2, -1156713.0, -1195239.5, -8.813912, 0.0007026372, 0.00018360555, -1156713.0, -29052.395, 0.0, 10.004941, 9.954138 
5.525339e+3, 1.9488686e+2, -1058595.5, -1097382.3, -18.919922, 0.00070217415, 0.000049970342, -1058595.5, -28485.824, 0.0, 10.004937, 9.953794 
5.5253386e+3, 2.0483436e+2, -970461.0, -1019022.8, -8.966213, 0.0007018206, 0.00017035857, -970461.0, -37836.863, 0.0, 10.004933, 9.941026 
5.5253375e+3, 2.1477543e+2, -872205.1, -921026.6, -19.01992, 0.00070158177, -0.000025036106, -872205.1, -37003.41, 0.0, 10.0049305, 9.940684 
5.525336e+3, 2.2470978e+2, -783948.44, -842801.5, -7.9523087, 0.0007012243, 0.00022053205, -783948.44, -46103.48, 0.0, 10.004927, 9.927635 
5.5253357e+3, 2.3463748e+2, -685545.5, -744651.8, -17.83728, 0.000700734, 0.000006829583, -685545.5, -44992.023, 0.0, 10.004924, 9.927303 
5.525335e+3, 2.4455823e+2, -597250.2, -666744.9, -6.0179963, 0.00070039096, 0.00016699238, -597250.2, -53920.047, 0.0, 10.004922, 9.913855 
5.525334e+3, 2.544722e+2, -498526.97, -568097.7, -15.568931, 0.0007002192, -0.000017055288, -498526.97, -52353.773, 0.0, 10.004919, 9.9137535 
5.525333e+3, 2.6437905e+2, -410325.7, -490796.56, -2.6262665, 0.0006999887, 0.00022711644, -410325.7, -61239.93, 0.0, 10.004917, 9.899664 
5.5253327e+3, 2.742793e+2, -311069.88, -391212.6, -11.949858, 0.0006996832, -0.00012077842, -311069.84, -59006.21, 0.0, 10.004916, 9.900083 
5.525332e+3, 2.8417128e+2, -224552.47, -317817.8, 0.34424603, 0.00069944747, 0.00030919898, -224552.47, -69430.67, 0.0, 10.004914, 9.88322 
5.525331e+3, 2.9405558e+2, -124869.586, -217518.5, -8.119492, 0.0006993034, -0.00017390565, -124869.586, -66613.71, 0.0, 10.004913, 9.884006 
5.5253303e+3, 3.039677e+2, -35335.395, -84859.27, 3.6291254, 0.0006991036, 0.00024845867, -35335.395, -35335.395, 0.0, 10.004913, 9.9397335 
5.5253303e+3, 3.139093e+2, -34276.12, -82657.46, -4.89513, 0.00069882505, 0.000011127303, -34276.12, -34276.12, 0.0, 10.004913, 9.941219 
5.535351e+3, 1.2507594e+2, -1713756.9, -1723424.6, 1.6831695, 0.0007123489, 0.00016991097, -1713756.9, 499.91858, 0.0, 10.004969, 9.992155 
5.53535e+3, 1.3506795e+2, -1616412.3, -1626668.3, -7.9925847, 0.0007117523, -0.000009325142, -1616412.3, -77.12237, 0.0, 10.004964, 9.991372 
5.535349e+3, 1.450534e+2, -1528336.5, -1547405.9, -2.3962998, 0.00071113725, 0.00025168335, -1528336.5, -9858.949, 0.0, 10.004959, 9.979694 
5.535348e+3, 1.5503308e+2, -1430642.6, -1450112.1, -12.479081, 0.0007104931, 0.00006198772, -1430642.6, -9965.789, 0.0, 10.004954, 9.979162 
5.5353475e+3, 1.6500612e+2, -1342661.9, -1371355.0, -7.5812573, 0.00071004254, 0.00014377838, -1342661.9, -19720.86, 0.0, 10.004951, 9.967026 
5.535346e+3, 1.7497319e+2, -1244737.4, -1273743.4, -16.83053, 0.00070978596, 0.00004014871, -1244737.4, -19473.707, 0.0, 10.004946, 9.966612 
5.535345e+3, 1.8493359e+2, -1156733.3, -1195281.3, -10.264445, 0.00070949155, 0.00018413135, -1156733.3, -29081.623, 0.0, 10.004942, 9.95411 
5.5353445e+3, 1.9488774e+2, -1058615.6, -1097423.8, -20.374079, 0.00070915546, 0.000050189927, -1058615.6, -28514.57, 0.0, 10.004938, 9.953767 
5.535343e+3, 2.048352e+2, -970481.2, -1019064.7, -10.233119, 0.0007086478, 0.00017052446, -970481.2, -37865.44, 0.0, 10.004934, 9.940998 
5.535342e+3, 2.1477625e+2, -872225.06, -921068.25, -20.28461, 0.0007079586, -0.000024657342, -872225.06, -37031.492, 0.0, 10.004931, 9.940658 
5.5353415e+3, 2.2471058e+2, -783968.3, -842843.3, -9.102269, 0.000707626, 0.00022090827, -783968.3, -46131.27, 0.0, 10.004928, 9.927608 
5.5353403e+3, 2.3463824e+2, -685565.2, -744693.44, -18.983658, 0.00070768606, 0.0000069650787, -685565.2, -45019.305, 0.0, 10.004925, 9.927276 
5.53534e+3, 2.4455898e+2, -597269.7, -666786.25, -6.8514323, 0.00070744625, 0.00016708538, -597269.7, -53946.855, 0.0, 10.004923, 9.913827 
5.535339e+3, 2.544729e+2, -498546.2, -568138.8, -16.395533, 0.0007068545, -0.000016772881, -498546.2, -52380.08, 0.0, 10.00492, 9.913727 
5.5353385e+3, 2.6437977e+2, -410345.13, -490838.4, -3.2666013, 0.00070645707, 0.00022745771, -410345.13, -61266.176, 0.0, 10.004918, 9.899636 
5.5353373e+3, 2.7427995e+2, -311089.06, -391254.22, -12.577498, 0.00070630154, -0.00012054147, -311089.06, -59031.957, 0.0, 10.004917, 9.900055 
5.535337e+3, 2.8417194e+2, -224570.7, -317857.72, -0.024678137, 0.0007061506, 0.00030931426, -224570.7, -69455.19, 0.0, 10.004915, 9.883193 
5.535336e+3, 2.9405618e+2, -124887.52, -217558.02, -8.463859, 0.00070600264, -0.00017393545, -124887.52, -66637.66, 0.0, 10.004915, 9.883979 
5.5353355e+3, 3.0396828e+2, -35354.777, -84901.87, 3.56979, 0.00070580543, 0.00024846726, -35354.777, -35354.777, 0.0, 10.004914, 9.939704 
5.535335e+3, 3.1390986e+2, -34295.72, -82700.46, -4.934639, 0.00070553966, 0.000011444613, -34295.72, -34295.72, 0.0, 10.004914, 9.94119 
5.5453557e+3, 1.2507701e+2, -1713580.5, -1723360.9, 3.752711, 0.000719211, 0.00017015773, -1713580.5, 665.8175, 0.0, 10.005092, 9.992128 
5.545355e+3, 1.3506898e+2, -1616237.1, -1626605.6, -6.4274344, 0.0007184868, -0.0000087216895, -1616237.1, 87.77342, 0.0, 10.005086, 9.991345 
5.545354e+3, 1.4505443e+2, -1528162.8, -1547344.6, -0.9643507, 0.000717867, 0.00025231033, -1528162.8, -9695.25, 0.0, 10.005081, 9.979667 
5.545353e+3, 1.5503408e+2, -1430470.6, -1450052.3, -11.112901, 0.00071733753, 0.0000623129, -1430470.6, -9803.558, 0.0, 10.005076, 9.9791355 
5.545352e+3, 1.6500708e+2, -1342489.3, -1371292.8, -6.2546945, 0.00071689044, 0.00014401489, -1342489.3, -19557.738, 0.0, 10.005072, 9.967001 
5.545351e+3, 1.7497414e+2, -1244565.8, -1273682.1, -15.704769, 0.00071652746, 0.000040507985, -1244565.8, -19311.414, 0.0, 10.005067, 9.966587 
5.5453503e+3, 1.8493451e+2, -1156564.9, -1195224.9, -9.230979, 0.00071619876, 0.00018452537, -1156564.9, -28922.17, 0.0, 10.005063, 9.954083 
5.545349e+3, 1.9488862e+2, -1058448.6, -1097368.6, -19.627607, 0.0007159015, 0.000050529005, -1058448.6, -28356.373, 0.0, 10.005058, 9.95374 
5.545348e+3, 2.0483607e+2, -970315.5, -1019010.75, -9.491817, 0.0007154218, 0.00017084024, -970315.5, -37708.227, 0.0, 10.005054, 9.940971 
5.5453473e+3, 2.1477708e+2, -872060.7, -921015.44, -19.706905, 0.0007147487, -0.000024331435, -872060.7, -36875.293, 0.0, 10.005052, 9.94063 
5.545346e+3, 2.2471139e+2, -783805.0, -842791.6, -8.540882, 0.00071439554, 0.00022119701, -783805.0, -45975.863, 0.0, 10.005048, 9.92758 
5.5453455e+3, 2.3463903e+2, -685403.0, -744642.75, -18.555206, 0.0007143943, 0.0000071643226, -685403.0, -44864.777, 0.0, 10.005045, 9.927249 
5.545345e+3, 2.4455972e+2, -597108.6, -666736.75, -6.3642635, 0.0007141424, 0.00016726859, -597108.6, -53793.203, 0.0, 10.005042, 9.913799 
5.545344e+3, 2.5447366e+2, -498386.6, -568090.56, -16.226515, 0.00071359583, -0.000016519869, -498386.6, -52227.57, 0.0, 10.005039, 9.913698 
5.545343e+3, 2.6438046e+2, -410186.7, -490791.3, -3.1161067, 0.0007132082, 0.000227751, -410186.7, -61114.58, 0.0, 10.005037, 9.899609 
5.5453426e+3, 2.742806e+2, -310931.88, -391208.22, -12.528543, 0.00071301847, -0.000120244644, -310931.88, -58881.313, 0.0, 10.005035, 9.900027 
5.545342e+3, 2.8417256e+2, -224413.56, -317810.78, 0.17827514, 0.00071284844, 0.00030950527, -224413.56, -69304.32, 0.0, 10.005034, 9.883166 
5.5453414e+3, 2.9405683e+2, -124731.65, -217512.05, -8.299928, 0.0007127017, -0.00017399773, -124731.65, -66487.8, 0.0, 10.005033, 9.883952 
5.54534e+3, 3.0396888e+2, -35203.156, -84862.04, 3.7765656, 0.0007124869, 0.00024842948, -35203.156, -35203.156, 0.0, 10.005033, 9.939674 
5.5453396e+3, 3.139104e+2, -34144.805, -82661.375, -5.189503, 0.0007121759, 0.000011840468, -34144.805, -34144.805, 0.0, 10.005032, 9.94116 
5.5553615e+3, 1.2507808e+2, -1713602.3, -1723404.3, 1.8109713, 0.0007262477, 0.00017053113, -1713602.3, 633.5288, 0.0, 10.005093, 9.992102 
5.5553603e+3, 1.3507004e+2, -1616258.6, -1626648.8, -8.357454, 0.00072499114, -0.000008219615, -1616258.6, 55.984974, 0.0, 10.005088, 9.991318 
5.555359e+3, 1.4505544e+2, -1528183.9, -1547387.1, -2.8032367, 0.00072439434, 0.00025284436, -1528183.9, -9726.342, 0.0, 10.005082, 9.97964 
5.555358e+3, 1.5503506e+2, -1430491.5, -1450094.5, -12.956727, 0.00072442857, 0.00006278445, -1430491.5, -9834.161, 0.0, 10.005077, 9.979109 
5.555357e+3, 1.6500805e+2, -1342508.4, -1371331.8, -7.936861, 0.00072407024, 0.0001443945, -1342508.3, -19586.305, 0.0, 10.005073, 9.966976 
5.555356e+3, 1.7497508e+2, -1244584.6, -1273721.0, -17.387918, 0.00072332576, 0.000040766517, -1244584.6, -19339.525, 0.0, 10.005069, 9.966562 
5.555355e+3, 1.8493542e+2, -1156585.6, -1195267.8, -10.823905, 0.0007227858, 0.00018480427, -1156585.6, -28952.021, 0.0, 10.005064, 9.954056 
5.555354e+3, 1.9488953e+2, -1058469.3, -1097411.3, -21.220049, 0.00072245026, 0.000050972136, -1058469.3, -28385.719, 0.0, 10.00506, 9.953712 
5.555353e+3, 2.0483695e+2, -970335.94, -1019053.25, -10.841787, 0.0007221571, 0.00017128648, -970335.94, -37737.133, 0.0, 10.005056, 9.940944 
5.5553526e+3, 2.1477792e+2, -872080.94, -921057.7, -21.056326, 0.0007219078, -0.00002405204, -872080.9, -36903.703, 0.0, 10.005053, 9.940602 
5.5553514e+3, 2.2471221e+2, -783825.1, -842833.94, -9.746602, 0.00072149414, 0.0002214092, -783825.1, -46003.918, 0.0, 10.005049, 9.927552 
5.555351e+3, 2.3463982e+2, -685422.9, -744684.8, -19.761177, 0.0007208973, 0.0000074194772, -685422.9, -44892.3, 0.0, 10.005046, 9.927221 
5.5553496e+3, 2.4456047e+2, -597128.7, -666779.44, -7.320815, 0.0007205325, 0.00016753071, -597128.7, -53820.63, 0.0, 10.005043, 9.913771 
5.555349e+3, 2.5447437e+2, -498406.4, -568133.0, -17.169136, 0.0007204375, -0.000016293028, -498406.4, -52254.496, 0.0, 10.005041, 9.913671 
5.5553484e+3, 2.6438117e+2, -410206.3, -490833.6, -3.8238738, 0.0007202143, 0.00022800169, -410206.3, -61141.023, 0.0, 10.005038, 9.89958 
5.555348e+3, 2.742813e+2, -310951.22, -391250.22, -13.227285, 0.0007198294, -0.00011989601, -310951.22, -58907.234, 0.0, 10.005036, 9.899999 
5.5553466e+3, 2.8417322e+2, -224431.86, -317850.88, -0.29371902, 0.00071954913, 0.0003097624, -224431.86, -69328.91, 0.0, 10.005035, 9.88314 
5.555346e+3, 2.9405743e+2, -124749.625, -217551.72, -8.755982, 0.0007194079, -0.00017408778, -124749.625, -66511.8, 0.0, 10.005034, 9.883925 
5.5553454e+3, 3.0396944e+2, -35223.33, -84906.38, 3.6029751, 0.00071915786, 0.0002483516, -35223.33, -35223.33, 0.0, 10.0050335, 9.939644 
5.5553454e+3, 3.1391096e+2, -34165.277, -82706.3, -5.3259697, 0.00071875105, 0.000012303705, -34165.277, -34165.277, 0.0, 10.005033, 9.941129 
5.565366e+3, 1.2507917e+2, -1713422.4, -1723339.3, 3.6994305, 0.00073313084, 0.00017125405, -1713422.4, 802.7316, 0.0, 10.005218, 9.992074 
5.565365e+3, 1.3507108e+2, -1616080.3, -1626585.0, -6.417296, 0.0007318668, -0.000007928797, -1616080.3, 224.00873, 0.0, 10.005212, 9.991291 
5.5653644e+3, 1.4505649e+2, -1528007.0, -1547325.0, -0.94992787, 0.0007312601, 0.00025305472, -1528007.0, -9559.574, 0.0, 10.005207, 9.979612 
5.565363e+3, 1.5503608e+2, -1430316.3, -1450033.6, -11.472534, 0.00073128176, 0.000063256266, -1430316.3, -9668.726, 0.0, 10.005201, 9.979081 
5.5653626e+3, 1.6500904e+2, -1342332.5, -1371268.4, -6.5326505, 0.0007309337, 0.00014492981, -1342332.5, -19420.006, 0.0, 10.005197, 9.966951 
5.5653614e+3, 1.7497602e+2, -1244410.3, -1273658.8, -16.16542, 0.00073022186, 0.000041169642, -1244410.3, -19174.416, 0.0, 10.005192, 9.966537 
5.56536e+3, 1.8493636e+2, -1156414.4, -1195210.5, -9.637039, 0.0007296503, 0.00018514275, -1156414.4, -28789.79, 0.0, 10.005187, 9.954028 
5.5653596e+3, 1.9489041e+2, -1058299.1, -1097355.1, -20.193514, 0.00072921783, 0.000051314673, -1058299.1, -28224.34, 0.0, 10.005183, 9.953685 
5.5653584e+3, 2.0483781e+2, -970167.06, -1018998.3, -9.855633, 0.00072893273, 0.00017161276, -970167.06, -37576.742, 0.0, 10.005178, 9.940915 
5.565357e+3, 2.1477877e+2, -871913.8, -921004.1, -20.302357, 0.00072880223, -0.00002376343, -871913.8, -36744.85, 0.0, 10.005175, 9.940575 
5.5653566e+3, 2.2471301e+2, -783659.25, -842781.5, -8.963314, 0.00072839187, 0.00022170764, -783659.25, -45845.98, 0.0, 10.005171, 9.927525 
5.5653554e+3, 2.346406e+2, -685257.8, -744633.25, -19.23849, 0.0007276706, 0.000007780278, -685257.8, -44734.934, 0.0, 10.005168, 9.927193 
5.565355e+3, 2.4456124e+2, -596964.6, -666729.0, -6.81473, 0.0007272665, 0.00016786998, -596964.6, -53664.008, 0.0, 10.005165, 9.913743 
5.565354e+3, 2.544751e+2, -498243.97, -568083.8, -16.712042, 0.0007272317, -0.00001607342, -498243.97, -52099.2, 0.0, 10.005162, 9.913642 
5.5653536e+3, 2.6438186e+2, -410045.28, -490785.8, -3.2576325, 0.00072703493, 0.00022815101, -410045.28, -60986.844, 0.0, 10.005159, 9.899551 
5.5653524e+3, 2.7428195e+2, -310791.56, -391203.63, -12.939369, 0.00072663417, -0.00011975502, -310791.56, -58754.137, 0.0, 10.005157, 9.89997 
5.565352e+3, 2.8417385e+2, -224272.14, -317803.13, -0.021874515, 0.0007263262, 0.0003099821, -224272.14, -69175.49, 0.0, 10.005156, 9.883113 
5.565351e+3, 2.9405805e+2, -124591.016, -217504.89, -8.706039, 0.0007261414, -0.0001736732, -124591.016, -66359.23, 0.0, 10.005155, 9.883898 
5.5653507e+3, 3.0397004e+2, -35069.074, -84865.914, 3.7541606, 0.00072587177, 0.00024869316, -35069.074, -35069.074, 0.0, 10.005153, 9.939613 
5.56535e+3, 3.139115e+2, -34011.867, -82666.65, -5.1276283, 0.00072548067, 0.00001218179, -34011.867, -34011.867, 0.0, 10.005153, 9.941098 
5.5753714e+3, 1.2508026e+2, -1713443.9, -1723382.4, 1.6524676, 0.00073988986, 0.00017227893, -1713443.9, 770.547, 0.0, 10.005219, 9.992047 
5.575371e+3, 1.3507216e+2, -1616101.5, -1626627.8, -8.466147, 0.0007390735, -0.0000078206285, -1616101.5, 192.30202, 0.0, 10.005214, 9.991263 
5.5753696e+3, 1.4505751e+2, -1528028.9, -1547369.0, -2.9504366, 0.000738428, 0.00025298537, -1528028.9, -9591.553, 0.0, 10.005208, 9.979585 
5.5753684e+3, 1.5503708e+2, -1430337.8, -1450077.4, -13.469648, 0.0007379369, 0.00006372824, -1430337.8, -9700.169, 0.0, 10.005203, 9.9790535 
5.575367e+3, 1.6501e+2, -1342351.9, -1371308.1, -8.321494, 0.00073753076, 0.00014559983, -1342351.9, -19448.96, 0.0, 10.005198, 9.966926 
5.575366e+3, 1.7497699e+2, -1244429.4, -1273698.3, -17.956808, 0.00073721126, 0.000041698277, -1244429.4, -19202.924, 0.0, 10.005193, 9.966512 
5.5753654e+3, 1.8493728e+2, -1156435.5, -1195254.0, -11.268253, 0.0007367643, 0.00018553309, -1156435.5, -28819.994, 0.0, 10.005189, 9.9539995 
5.575364e+3, 1.9489132e+2, -1058320.0, -1097398.4, -21.825966, 0.0007361844, 0.000051569754, -1058320.0, -28254.045, 0.0, 10.005184, 9.953656 
5.575363e+3, 2.0483868e+2, -970187.94, -1019041.75, -11.420912, 0.00073575194, 0.0001718348, -970187.94, -37606.14, 0.0, 10.00518, 9.940887 
5.575363e+3, 2.147796e+2, -871934.44, -921047.3, -21.868471, 0.00073547394, -0.000023466653, -871934.44, -36773.707, 0.0, 10.005176, 9.940546 
5.575362e+3, 2.2471382e+2, -783679.8, -842824.9, -10.145109, 0.00073512236, 0.00022208111, -783679.8, -45874.54, 0.0, 10.005172, 9.927496 
5.5753607e+3, 2.3464139e+2, -685278.2, -744676.44, -20.410347, 0.0007346877, 0.00000823256, -685278.2, -44763.008, 0.0, 10.005169, 9.927164 
5.57536e+3, 2.44562e+2, -596984.75, -666771.9, -7.926618, 0.0007343084, 0.00016827593, -596984.75, -53691.555, 0.0, 10.005166, 9.913714 
5.5753595e+3, 2.5447583e+2, -498263.8, -568126.44, -17.826384, 0.0007339922, -0.000015859927, -498263.8, -52126.19, 0.0, 10.005163, 9.913614 
5.575358e+3, 2.6438257e+2, -410065.38, -490829.2, -4.0788684, 0.0007337016, 0.00022821239, -410065.38, -61013.793, 0.0, 10.00516, 9.899523 
5.5753577e+3, 2.7428263e+2, -310811.44, -391246.78, -13.740307, 0.0007334413, -0.00011979504, -310811.4, -58780.574, 0.0, 10.005158, 9.899941 
5.575357e+3, 2.8417453e+2, -224290.84, -317844.16, -0.5492846, 0.0007331775, 0.00031016892, -224290.84, -69200.5, 0.0, 10.0051565, 9.883085 
5.5753565e+3, 2.9405865e+2, -124609.4, -217545.5, -9.215804, 0.00073290645, -0.00017281923, -124609.4, -66383.65, 0.0, 10.005156, 9.883871 
5.575356e+3, 3.0397063e+2, -35089.2, -84910.22, 3.4494483, 0.0007326311, 0.00024939986, -35089.2, -35089.2, 0.0, 10.005155, 9.939583 
5.575355e+3, 3.139121e+2, -34032.23, -82711.43, -5.407694, 0.0007323526, 0.000011549777, -34032.23, -34032.23, 0.0, 10.005154, 9.941068 
5.585377e+3, 1.2508136e+2, -1713260.8, -1723316.0, 3.887674, 0.0007468468, 0.00017265127, -1713260.8, 942.99, 0.0, 10.005346, 9.99202 
5.585376e+3, 1.3507323e+2, -1615920.3, -1626563.0, -6.537108, 0.0007460983, -0.0000072450107, -1615920.3, 363.0819, 0.0, 10.005341, 9.991236 
5.585374e+3, 1.4505856e+2, -1527849.3, -1547306.1, -1.0608481, 0.00074542925, 0.00025356348, -1527849.3, -9422.149, 0.0, 10.005335, 9.979557 
5.5853736e+3, 1.5503809e+2, -1430159.1, -1450015.4, -11.735386, 0.0007448252, 0.00006411325, -1430159.0, -9531.359, 0.0, 10.005329, 9.979025 
5.5853724e+3, 1.6501099e+2, -1342172.3, -1371243.4, -6.689582, 0.0007443828, 0.00014593864, -1342172.3, -19279.021, 0.0, 10.005324, 9.9669 
5.585372e+3, 1.7497793e+2, -1244251.6, -1273635.0, -16.550497, 0.0007441029, 0.00004213631, -1244251.6, -19034.596, 0.0, 10.005319, 9.966486 
5.5853707e+3, 1.8493822e+2, -1156261.4, -1195195.9, -9.884285, 0.00074371527, 0.00018598033, -1156261.4, -28654.955, 0.0, 10.005314, 9.953972 
5.5853695e+3, 1.9489221e+2, -1058147.5, -1097341.6, -20.660057, 0.00074321474, 0.00005193476, -1058147.5, -28090.338, 0.0, 10.005309, 9.953628 
5.585369e+3, 2.0483956e+2, -970016.4, -1018986.06, -10.27002, 0.00074271584, 0.00017217796, -970016.4, -37443.16, 0.0, 10.005304, 9.940859 
5.5853677e+3, 2.1478043e+2, -871763.56, -920992.44, -20.92305, 0.0007422179, -0.00002308172, -871763.56, -36611.117, 0.0, 10.0053005, 9.940517 
5.585367e+3, 2.2471465e+2, -783510.2, -842771.2, -9.209005, 0.00074186485, 0.00022244116, -783510.2, -45712.926, 0.0, 10.005297, 9.927467 
5.5853665e+3, 2.3464216e+2, -685110.9, -744624.4, -19.628504, 0.00074166997, 0.00000849417, -685110.9, -44603.395, 0.0, 10.005293, 9.927135 
5.585365e+3, 2.4456275e+2, -596818.8, -666721.0, -7.098583, 0.0007413372, 0.00016852138, -596818.75, -53533.008, 0.0, 10.005289, 9.913686 
5.5853647e+3, 2.5447655e+2, -498098.6, -568076.4, -17.277975, 0.00074084185, -0.000015534664, -498098.6, -51968.145, 0.0, 10.005286, 9.913586 
5.5853635e+3, 2.6438326e+2, -409901.13, -490780.34, -3.5163734, 0.0007404618, 0.00022854442, -409901.13, -60856.426, 0.0, 10.005284, 9.899494 
5.585363e+3, 2.742833e+2, -310648.6, -391199.16, -13.25143, 0.0007402243, -0.00011954718, -310648.6, -58624.36, 0.0, 10.005281, 9.899913 
5.5853623e+3, 2.8417516e+2, -224128.4, -317795.84, 0.004958866, 0.0007399978, 0.00031036217, -224128.4, -69044.38, 0.0, 10.00528, 9.883058 
5.585362e+3, 2.9405928e+2, -124448.63, -217498.39, -8.931327, 0.0007397829, -0.00017264124, -124448.63, -66228.93, 0.0, 10.005278, 9.883843 
5.585361e+3, 3.0397123e+2, -34932.664, -84868.82, 3.76787, 0.0007395066, 0.00024958586, -34932.664, -34932.664, 0.0, 10.005276, 9.939552 
5.5853605e+3, 3.1391263e+2, -33876.34, -82670.69, -5.163594, 0.00073914346, 0.000011779231, -33876.336, -33876.336, 0.0, 10.005275, 9.941036 
5.5953825e+3, 1.2508246e+2, -1713282.9, -1723360.4, 1.6152693, 0.00075398374, 0.00017246102, -1713282.9, 910.05493, 0.0, 10.005348, 9.991992 
5.595381e+3, 1.3507429e+2, -1615942.3, -1626607.1, -8.812413, 0.0007529743, -0.000006265285, -1615942.3, 330.66754, 0.0, 10.005342, 9.991208 
5.59538e+3, 1.450596e+2, -1527871.4, -1547350.8, -3.0374155, 0.000752295, 0.0002547009, -1527871.4, -9454.48, 0.0, 10.005336, 9.979528 
5.595379e+3, 1.550391e+2, -1430181.0, -1450059.8, -13.707075, 0.0007519245, 0.000064423155, -1430181.0, -9563.197, 0.0, 10.005331, 9.978997 
5.5953777e+3, 1.6501197e+2, -1342192.0, -1371284.1, -8.689539, 0.0007514645, 0.00014599138, -1342192.0, -19308.531, 0.0, 10.005325, 9.966874 
5.595377e+3, 1.7497891e+2, -1244271.3, -1273675.5, -18.55235, 0.0007509186, 0.000042496078, -1244271.3, -19063.61, 0.0, 10.005321, 9.96646 
5.595376e+3, 1.8493915e+2, -1156282.9, -1195240.3, -11.6705265, 0.00075053354, 0.00018647683, -1156282.9, -28685.617, 0.0, 10.005315, 9.953943 
5.595375e+3, 1.9489312e+2, -1058168.8, -1097385.8, -22.448418, 0.0007503082, 0.000052395106, -1058168.8, -28120.482, 0.0, 10.00531, 9.953599 
5.595374e+3, 2.0484042e+2, -970037.6, -1019030.3, -11.761231, 0.0007498133, 0.00017262611, -970037.6, -37472.99, 0.0, 10.005306, 9.94083 
5.595373e+3, 2.147813e+2, -871784.56, -921036.44, -22.410572, 0.0007490336, -0.000022620528, -871784.56, -36640.44, 0.0, 10.005302, 9.940489 
5.5953723e+3, 2.2471547e+2, -783531.06, -842815.2, -10.714636, 0.00074862683, 0.00022278949, -783531.06, -45741.832, 0.0, 10.005298, 9.927439 
5.595372e+3, 2.3464295e+2, -685131.44, -744668.1, -21.13657, 0.0007486296, 0.000008590741, -685131.44, -44631.734, 0.0, 10.005294, 9.927107 
5.5953705e+3, 2.445635e+2, -596839.4, -666765.0, -8.175715, 0.000748362, 0.00016862793, -596839.4, -53561.063, 0.0, 10.005291, 9.913657 
5.5953693e+3, 2.544773e+2, -498118.97, -568120.1, -18.338655, 0.0007477771, -0.000015112734, -498118.97, -51995.69, 0.0, 10.005288, 9.913556 
5.5953693e+3, 2.6438397e+2, -409921.34, -490824.06, -4.4435, 0.00074731186, 0.00022911097, -409921.34, -60883.555, 0.0, 10.005285, 9.899465 
5.595368e+3, 2.74284e+2, -310668.56, -391242.6, -14.175627, 0.0007469947, -0.00011904906, -310668.56, -58650.94, 0.0, 10.005282, 9.899883 
5.5953676e+3, 2.841758e+2, -224147.56, -317837.94, -0.7195811, 0.0007467991, 0.00031056127, -224147.56, -69069.88, 0.0, 10.0052805, 9.883029 
5.595367e+3, 2.940599e+2, -124467.484, -217540.11, -9.63098, 0.00074676384, -0.00017305088, -124467.484, -66253.84, 0.0, 10.005279, 9.883815 
5.5953664e+3, 3.039718e+2, -34952.91, -84913.54, 3.3644288, 0.00074649067, 0.00024931922, -34952.91, -34952.91, 0.0, 10.005277, 9.939522 
5.595366e+3, 3.1391317e+2, -33896.793, -82715.805, -5.5526724, 0.0007458716, 0.00001275785, -33896.793, -33896.793, 0.0, 10.005276, 9.941006 
5.6053877e+3, 1.2508357e+2, -1713096.6, -1723293.5, 4.0429688, 0.0007610763, 0.00017292386, -1713096.6, 1085.4597, 0.0, 10.005478, 9.991963 
5.6053865e+3, 1.3507538e+2, -1615757.0, -1626541.1, -6.757638, 0.00075987936, -0.0000057142533, -1615757.0, 505.34747, 0.0, 10.005471, 9.991179 
5.6053853e+3, 1.4506066e+2, -1527687.6, -1547286.1, -1.1012627, 0.0007592063, 0.00025525753, -1527687.6, -9281.003, 0.0, 10.0054655, 9.9795 
5.605384e+3, 1.5504013e+2, -1429999.6, -1449996.9, -11.88086, 0.00075903017, 0.000064904336, -1429999.6, -9391.86, 0.0, 10.005459, 9.978969 
5.6053835e+3, 1.6501297e+2, -1342010.3, -1371218.9, -6.8389907, 0.0007585965, 0.00014642141, -1342010.3, -19136.512, 0.0, 10.005453, 9.966847 
5.6053823e+3, 1.7497988e+2, -1244090.4, -1273611.1, -16.91258, 0.0007579111, 0.000042899323, -1244090.4, -18892.197, 0.0, 10.005448, 9.966434 
5.605381e+3, 1.849401e+2, -1156105.0, -1195181.0, -10.1220045, 0.000757438, 0.00018688526, -1156105.0, -28516.967, 0.0, 10.005443, 9.953914 
5.6053805e+3, 1.9489405e+2, -1057992.4, -1097327.6, -21.146358, 0.0007571767, 0.000052841126, -1057992.4, -27953.064, 0.0, 10.005438, 9.95357 
5.6053793e+3, 2.0484132e+2, -969862.8, -1018973.5, -10.437251, 0.0007567503, 0.00017305285, -969862.75, -37306.81, 0.0, 10.005433, 9.940801 
5.605378e+3, 2.1478215e+2, -871611.75, -920981.2, -21.256275, 0.0007561489, -0.00002227293, -871611.75, -36476.02, 0.0, 10.005428, 9.94046 
5.6053776e+3, 2.2471629e+2, -783359.44, -842761.06, -9.565691, 0.0007557114, 0.00022311293, -783359.44, -45578.254, 0.0, 10.0054245, 9.927409 
5.605377e+3, 2.3464376e+2, -684960.4, -744614.7, -20.196676, 0.0007554528, 0.000008950693, -684960.4, -44468.42, 0.0, 10.005421, 9.927078 
5.605376e+3, 2.4456428e+2, -596669.4, -666712.75, -7.200508, 0.00075512886, 0.00016897164, -596669.4, -53398.574, 0.0, 10.005417, 9.913628 
5.605375e+3, 2.5447804e+2, -497951.03, -568069.44, -17.547228, 0.00075472705, -0.000014846806, -497951.0, -51834.96, 0.0, 10.005413, 9.913527 
5.6053746e+3, 2.643847e+2, -409754.94, -490774.75, -3.6585884, 0.00075433706, 0.0002293798, -409754.94, -60724.082, 0.0, 10.00541, 9.899436 
5.6053734e+3, 2.7428466e+2, -310503.53, -391194.44, -13.669716, 0.0007539605, -0.0001186765, -310503.53, -58492.543, 0.0, 10.005407, 9.899854 
5.605373e+3, 2.8417644e+2, -223982.45, -317788.63, -0.12671272, 0.0007537064, 0.000310892, -223982.45, -68911.12, 0.0, 10.005404, 9.883 
5.605373e+3, 2.9406053e+2, -124303.47, -217491.69, -8.95426, 0.0007536143, -0.00017295853, -124303.47, -66095.91, 0.0, 10.005403, 9.883787 
5.6053716e+3, 3.0397242e+2, -34793.4, -84871.77, 4.062878, 0.0007533143, 0.00024940158, -34793.4, -34793.4, 0.0, 10.005401, 9.93949 
5.605371e+3, 3.1391376e+2, -33738.12, -82674.88, -5.460476, 0.00075271196, 0.000013167277, -33738.12, -33738.12, 0.0, 10.0054, 9.940974 
5.615393e+3, 1.2508468e+2, -1713119.6, -1723339.4, 1.7602686, 0.00076813955, 0.00017394901, -1713119.6, 1051.5922, 0.0, 10.005479, 9.991934 
5.6153923e+3, 1.3507646e+2, -1615779.8, -1626586.9, -9.023128, 0.00076681946, -0.0000055326113, -1615779.8, 471.9922, 0.0, 10.005473, 9.991151 
5.615391e+3, 1.450617e+2, -1527709.9, -1547331.1, -3.4097538, 0.0007661667, 0.000255314, -1527709.9, -9313.632, 0.0, 10.005466, 9.979471 
5.61539e+3, 1.5504116e+2, -1430021.6, -1450041.6, -14.197602, 0.0007661496, 0.00006553352, -1430021.6, -9423.933, 0.0, 10.005461, 9.97894 
5.615389e+3, 1.6501398e+2, -1342030.5, -1371260.4, -8.805811, 0.0007657801, 0.00014717698, -1342030.5, -19166.479, 0.0, 10.005455, 9.966821 
5.6153876e+3, 1.7498085e+2, -1244110.4, -1273652.5, -18.878435, 0.00076506514, 0.000043340344, -1244110.4, -18921.703, 0.0, 10.005449, 9.966407 
5.615387e+3, 1.8494104e+2, -1156127.0, -1195226.4, -12.034347, 0.00076442613, 0.00018721796, -1156127.0, -28548.207, 0.0, 10.005445, 9.953885 
5.615386e+3, 1.9489495e+2, -1058014.1, -1097372.8, -23.057825, 0.0007638604, 0.00005327478, -1058014.1, -27983.762, 0.0, 10.005439, 9.953541 
5.6153846e+3, 2.048422e+2, -969884.3, -1019018.44, -12.18789, 0.00076355773, 0.00017346109, -969884.3, -37337.0, 0.0, 10.005434, 9.940772 
5.615384e+3, 2.14783e+2, -871633.0, -921025.8, -23.008404, 0.00076353084, -0.000022023085, -871633.0, -36505.664, 0.0, 10.005429, 9.940431 
5.6153834e+3, 2.2471711e+2, -783380.6, -842805.9, -10.970041, 0.0007630823, 0.0002234153, -783380.6, -45607.57, 0.0, 10.005425, 9.92738 
5.615382e+3, 2.3464456e+2, -684981.3, -744659.25, -21.595146, 0.00076216715, 0.000009538204, -684981.3, -44497.21, 0.0, 10.005422, 9.927049 
5.6153816e+3, 2.4456505e+2, -596690.3, -666757.5, -8.537428, 0.0007616824, 0.00016952024, -596690.3, -53427.035, 0.0, 10.005418, 9.913598 
5.6153804e+3, 2.5447875e+2, -497971.7, -568113.94, -18.880236, 0.0007616982, -0.0000147153, -497971.7, -51862.863, 0.0, 10.005414, 9.913497 
5.61538e+3, 2.6438537e+2, -409775.63, -490819.56, -4.6872287, 0.0007615217, 0.00022939157, -409775.63, -60751.723, 0.0, 10.005411, 9.8994055 
5.6153786e+3, 2.7428535e+2, -310523.97, -391239.03, -14.680268, 0.0007611034, -0.00011841325, -310523.97, -58519.65, 0.0, 10.005408, 9.899824 
5.6153786e+3, 2.841771e+2, -224001.44, -317830.47, -0.9003115, 0.00076071353, 0.0003113361, -224001.44, -68936.484, 0.0, 10.005406, 9.882973 
5.615378e+3, 2.9406112e+2, -124322.11, -217533.06, -9.722805, 0.00076036033, -0.00017243031, -124322.11, -66120.65, 0.0, 10.005404, 9.883759 
5.615377e+3, 3.03973e+2, -34814.668, -84918.71, 3.5154436, 0.00076000753, 0.00024978732, -34814.668, -34814.668, 0.0, 10.005403, 9.939458 
5.615376e+3, 3.139143e+2, -33759.74, -82722.51, -5.960455, 0.0007596576, 0.000013082207, -33759.74, -33759.74, 0.0, 10.005401, 9.940941 
5.625399e+3, 1.250858e+2, -1712929.6, -1723270.8, 4.041844, 0.00077518023, 0.00017472215, -1712929.6, 1230.6371, 0.0, 10.005611, 9.991905 
5.6253976e+3, 1.3507755e+2, -1615591.9, -1626519.9, -6.569047, 0.00077403407, -0.0000051788925, -1615591.9, 649.0759, 0.0, 10.005605, 9.991122 
5.6253964e+3, 1.4506277e+2, -1527523.9, -1547266.3, -0.95141673, 0.000773355, 0.0002555883, -1527523.9, -9138.011, 0.0, 10.005598, 9.979442 
5.625396e+3, 1.5504219e+2, -1429836.4, -1449977.5, -12.202537, 0.0007731169, 0.0000660582, -1429836.4, -9248.777, 0.0, 10.005592, 9.97891 
5.6253946e+3, 1.6501498e+2, -1341844.4, -1371193.4, -6.9432254, 0.000772719, 0.00014778171, -1341844.4, -18990.209, 0.0, 10.005586, 9.966794 
5.6253934e+3, 1.7498183e+2, -1243926.5, -1273587.1, -17.16008, 0.00077216595, 0.0000438571, -1243926.5, -18747.4, 0.0, 10.00558, 9.96638 
5.625392e+3, 1.8494199e+2, -1155946.8, -1195166.4, -10.27634, 0.0007715722, 0.00018765256, -1155946.8, -28377.246, 0.0, 10.005574, 9.9538555 
5.625391e+3, 1.9489588e+2, -1057835.1, -1097313.9, -21.457966, 0.0007709333, 0.00005363319, -1057835.1, -27813.74, 0.0, 10.0055685, 9.953512 
5.6253904e+3, 2.0484309e+2, -969706.3, -1018960.7, -10.644035, 0.00077056454, 0.00017381356, -969706.3, -37167.766, 0.0, 10.005564, 9.9407425 
5.62539e+3, 2.1478388e+2, -871456.44, -920969.25, -21.720913, 0.00077047915, -0.00002160265, -871456.44, -36337.496, 0.0, 10.005559, 9.940401 
5.6253886e+3, 2.2471794e+2, -783205.44, -842750.56, -9.638568, 0.00077005196, 0.00022384744, -783205.44, -45440.51, 0.0, 10.005554, 9.92735 
5.6253874e+3, 2.3464535e+2, -684807.94, -744605.4, -20.497581, 0.00076924585, 0.000009920077, -684807.94, -44331.69, 0.0, 10.005549, 9.927019 
5.625387e+3, 2.4456583e+2, -596518.2, -666704.7, -7.4729476, 0.000768768, 0.0001698786, -596518.1, -53262.45, 0.0, 10.005546, 9.9135685 
5.625386e+3, 2.544795e+2, -497800.7, -568062.2, -17.93737, 0.0007686718, -0.000014349392, -497800.7, -51699.15, 0.0, 10.005542, 9.913467 
5.625385e+3, 2.6438612e+2, -409605.9, -490769.25, -3.6287174, 0.00076844875, 0.00022968766, -409605.9, -60588.984, 0.0, 10.005539, 9.899376 
5.625385e+3, 2.74286e+2, -310355.8, -391189.97, -13.76725, 0.0007680655, -0.00011828304, -310355.8, -58358.176, 0.0, 10.005535, 9.899794 
5.625384e+3, 2.8417775e+2, -223833.52, -317780.53, -0.05563333, 0.00076769496, 0.0003115461, -223833.52, -68774.95, 0.0, 10.005533, 9.882944 
5.625383e+3, 2.9406178e+2, -124155.64, -217484.2, -9.39578, 0.0007673396, -0.00017181126, -124155.64, -65960.3, 0.0, 10.00553, 9.88373 
5.6253827e+3, 3.0397362e+2, -34652.59, -84875.914, 3.9048898, 0.0007669738, 0.00025034312, -34652.59, -34652.59, 0.0, 10.005528, 9.939426 
5.625382e+3, 3.1391487e+2, -33598.516, -82680.49, -5.1079564, 0.0007665951, 0.000012884986, -33598.516, -33598.516, 0.0, 10.005527, 9.940909 
5.6354046e+3, 1.2508692e+2, -1712952.1, -1723315.9, 1.4854219, 0.00078221195, 0.00017527836, -1712952.1, 1197.1398, 0.0, 10.005612, 9.991878 
5.6354034e+3, 1.3507864e+2, -1615614.1, -1626564.8, -9.140188, 0.00078149274, -0.000004676015, -1615614.1, 616.10657, 0.0, 10.005606, 9.991094 
5.635402e+3, 1.4506385e+2, -1527547.1, -1547313.3, -3.215606, 0.0007807473, 0.00025605122, -1527547.1, -9171.739, 0.0, 10.005599, 9.979412 
5.635401e+3, 1.5504323e+2, -1429859.4, -1450024.3, -14.452732, 0.00077996356, 0.00006649319, -1429859.4, -9281.965, 0.0, 10.005593, 9.978881 
5.6354e+3, 1.65016e+2, -1341864.9, -1371235.5, -9.192667, 0.00077945815, 0.00014825651, -1341864.8, -19020.543, 0.0, 10.005588, 9.966767 
5.635399e+3, 1.749828e+2, -1243946.6, -1273629.0, -19.41509, 0.00077923015, 0.000044439068, -1243946.6, -18777.227, 0.0, 10.005581, 9.966353 
5.635398e+3, 1.8494293e+2, -1155968.9, -1195212.4, -12.241959, 0.00077886245, 0.00018817518, -1155968.9, -28408.822, 0.0, 10.005575, 9.953826 
5.635397e+3, 1.9489679e+2, -1057857.1, -1097359.6, -23.424828, 0.0007783496, 0.000053927528, -1057857.1, -27844.793, 0.0, 10.00557, 9.953482 
5.635396e+3, 2.0484398e+2, -969728.3, -1019006.6, -12.485523, 0.00077775185, 0.00017411869, -969728.3, -37198.523, 0.0, 10.005565, 9.940713 
5.635395e+3, 2.1478473e+2, -871478.1, -921014.94, -23.561617, 0.00077706407, -0.000021035277, -871478.1, -36367.688, 0.0, 10.00556, 9.9403715 
5.635394e+3, 2.2471878e+2, -783227.06, -842796.3, -11.247356, 0.0007766859, 0.00022439117, -783227.06, -45470.32, 0.0, 10.005555, 9.9273205 
5.635393e+3, 2.3464617e+2, -684829.3, -744650.9, -22.098997, 0.0007766467, 0.000010125128, -684829.3, -44360.957, 0.0, 10.005551, 9.926989 
5.6353927e+3, 2.4456659e+2, -596539.25, -666749.94, -8.85197, 0.00077631994, 0.00017007347, -596539.25, -53291.152, 0.0, 10.005548, 9.913538 
5.6353915e+3, 2.5448024e+2, -497821.53, -568107.1, -19.314854, 0.0007756564, -0.000013781629, -497821.53, -51727.285, 0.0, 10.005544, 9.913438 
5.635391e+3, 2.643868e+2, -409626.84, -490814.66, -4.8028674, 0.0007751631, 0.00023022886, -409626.84, -60616.918, 0.0, 10.00554, 9.899345 
5.63539e+3, 2.7428672e+2, -310376.5, -391235.13, -14.929556, 0.00077488064, -0.0001182661, -310376.5, -58385.555, 0.0, 10.005537, 9.899764 
5.6353897e+3, 2.841784e+2, -223853.44, -317824.4, -0.9638605, 0.00077466277, 0.00031155522, -223853.44, -68801.28, 0.0, 10.005534, 9.882915 
5.6353885e+3, 2.9406238e+2, -124175.25, -217527.7, -10.27436, 0.0007745285, -0.00017111588, -124175.25, -65986.03, 0.0, 10.005531, 9.8837 
5.635388e+3, 3.0397418e+2, -34673.1, -84921.39, 3.2288196, 0.0007741839, 0.00025104368, -34673.1, -34673.1, 0.0, 10.005529, 9.939395 
5.635388e+3, 3.1391543e+2, -33619.17, -82726.25, -5.7864223, 0.00077353395, 0.00001259384, -33619.17, -33619.17, 0.0, 10.0055275, 9.940878 
5.6454104e+3, 1.2508807e+2, -1712759.3, -1723246.5, 4.3740726, 0.00078946643, 0.00017552776, -1712759.3, 1378.8636, 0.0, 10.005747, 9.991848 
5.6454086e+3, 1.3507976e+2, -1615422.5, -1626496.5, -6.909174, 0.00078857393, -0.0000038918492, -1615422.5, 796.9299, 0.0, 10.00574, 9.991064 
5.6454074e+3, 1.450649e+2, -1527357.1, -1547246.6, -1.0537654, 0.0007878175, 0.0002568922, -1527357.1, -8992.223, 0.0, 10.0057335, 9.9793825 
5.645407e+3, 1.5504427e+2, -1429671.4, -1449959.3, -12.198005, 0.0007871799, 0.00006692672, -1429671.4, -9104.158, 0.0, 10.005727, 9.978851 
5.6454057e+3, 1.65017e+2, -1341676.1, -1371167.9, -6.929304, 0.00078666804, 0.00014856223, -1341676.1, -18841.861, 0.0, 10.00572, 9.96674 
5.645405e+3, 1.749838e+2, -1243759.3, -1273562.5, -17.454897, 0.0007862832, 0.00004489307, -1243759.3, -18599.48, 0.0, 10.005714, 9.966326 
5.645403e+3, 1.849439e+2, -1155784.9, -1195151.0, -10.356599, 0.00078590174, 0.00018869388, -1155784.9, -28234.197, 0.0, 10.005708, 9.953795 
5.645402e+3, 1.9489773e+2, -1057675.0, -1097299.9, -21.773348, 0.0007855198, 0.00005442624, -1057675.0, -27671.863, 0.0, 10.005702, 9.953452 
5.6454015e+3, 2.0484488e+2, -969547.7, -1018948.1, -10.791724, 0.0007849271, 0.00017458893, -969547.7, -37026.668, 0.0, 10.005696, 9.940682 
5.645401e+3, 2.147856e+2, -871298.56, -920957.5, -22.056648, 0.0007841119, -0.000020602325, -871298.5, -36196.605, 0.0, 10.005692, 9.940341 
5.6453997e+3, 2.2471961e+2, -783048.6, -842739.94, -9.778469, 0.0007837068, 0.00022477942, -783048.6, -45300.137, 0.0, 10.005687, 9.92729 
5.645399e+3, 2.3464698e+2, -684652.8, -744595.94, -20.758223, 0.0007837514, 0.00001046044, -684652.8, -44192.37, 0.0, 10.005682, 9.926959 
5.645398e+3, 2.4456736e+2, -596364.2, -666696.4, -7.4321156, 0.0007834462, 0.00017040012, -596364.2, -53123.73, 0.0, 10.005677, 9.913508 
5.6453973e+3, 2.5448102e+2, -497647.78, -568054.7, -18.232798, 0.0007827312, -0.00001341207, -497647.78, -51560.87, 0.0, 10.005673, 9.913407 
5.645397e+3, 2.6438755e+2, -409454.22, -490763.38, -3.7963998, 0.0007821985, 0.00023065232, -409454.22, -60451.33, 0.0, 10.00567, 9.899315 
5.6453955e+3, 2.7428737e+2, -310205.3, -391185.1, -14.087579, 0.0007818916, -0.00011777496, -310205.3, -58221.1, 0.0, 10.005666, 9.899734 
5.645395e+3, 2.841791e+2, -223682.58, -317773.63, 0.017036324, 0.0007816811, 0.00031191422, -223682.58, -68636.875, 0.0, 10.005663, 9.882885 
5.6453943e+3, 2.9406303e+2, -124006.11, -217478.17, -9.211004, 0.0007815968, -0.00017115772, -124006.11, -65823.05, 0.0, 10.00566, 9.883672 
5.645394e+3, 3.039748e+2, -34508.42, -84877.96, 4.252877, 0.00078124565, 0.00025103491, -34508.42, -34508.42, 0.0, 10.005657, 9.939363 
5.645393e+3, 3.13916e+2, -33455.113, -82683.49, -5.510512, 0.00078050594, 0.000013255029, -33455.113, -33455.113, 0.0, 10.005655, 9.940845 
5.6554157e+3, 1.250892e+2, -1712783.3, -1723294.5, 1.765003, 0.00079692015, 0.00017551822, -1712783.3, 1343.7574, 0.0, 10.005749, 9.991817 
5.6554145e+3, 1.3508087e+2, -1615446.3, -1626544.3, -9.501634, 0.0007953432, -0.000002868533, -1615446.3, 762.3719, 0.0, 10.005742, 9.991034 
5.655414e+3, 1.45066e+2, -1527380.1, -1547293.3, -3.5367138, 0.0007946234, 0.00025805432, -1527380.0, -9025.769, 0.0, 10.005734, 9.979353 
5.6554127e+3, 1.5504532e+2, -1429694.0, -1450005.5, -14.688297, 0.0007947215, 0.00006735994, -1429694.0, -9137.16, 0.0, 10.005728, 9.978822 
5.655411e+3, 1.6501802e+2, -1341697.3, -1371211.3, -9.224002, 0.0007942891, 0.00014872524, -1341697.3, -18872.92, 0.0, 10.005722, 9.966712 
5.65541e+3, 1.7498478e+2, -1243780.0, -1273605.6, -19.745792, 0.0007933367, 0.00004523821, -1243780.0, -18630.025, 0.0, 10.005715, 9.966298 
5.655409e+3, 1.8494487e+2, -1155807.6, -1195197.9, -12.555871, 0.00079273636, 0.00018920931, -1155807.6, -28266.313, 0.0, 10.00571, 9.953765 
5.655408e+3, 1.9489866e+2, -1057697.4, -1097346.5, -23.975733, 0.00079248863, 0.00005510009, -1057697.4, -27703.41, 0.0, 10.005703, 9.953422 
5.6554073e+3, 2.048458e+2, -969569.94, -1018994.9, -12.644885, 0.0007921011, 0.00017520078, -969569.94, -37057.824, 0.0, 10.005698, 9.940652 
5.655406e+3, 2.1478647e+2, -871320.6, -921003.94, -23.904566, 0.00079156575, -0.00002028424, -871320.6, -36227.234, 0.0, 10.0056925, 9.9403105 
5.6554055e+3, 2.2472046e+2, -783070.5, -842786.25, -11.605726, 0.0007910686, 0.00022503495, -783070.5, -45330.246, 0.0, 10.005688, 9.927259 
5.655405e+3, 2.3464778e+2, -684674.4, -744641.94, -22.591602, 0.00079061143, 0.000010908158, -684674.4, -44221.88, 0.0, 10.005683, 9.9269285 
5.655404e+3, 2.4456815e+2, -596385.94, -666742.94, -8.895765, 0.00079021655, 0.0001708404, -596385.94, -53153.094, 0.0, 10.005678, 9.913477 
5.6554025e+3, 2.5448176e+2, -497669.25, -568101.0, -19.676458, 0.00078989257, -0.000013212152, -497669.25, -51589.695, 0.0, 10.005674, 9.913377 
5.6554025e+3, 2.6438823e+2, -409475.44, -490809.47, -5.0632296, 0.0007895183, 0.00023097478, -409475.44, -60479.62, 0.0, 10.005671, 9.899284 
5.6554013e+3, 2.742881e+2, -310226.25, -391230.9, -15.350212, 0.0007890795, -0.00011687771, -310226.25, -58248.816, 0.0, 10.005668, 9.899703 
5.655401e+3, 2.8417975e+2, -223702.31, -317817.22, -1.0844128, 0.00078875164, 0.00031257322, -223702.31, -68663.08, 0.0, 10.005664, 9.882855 
5.6554e+3, 2.9406366e+2, -124025.47, -217521.31, -10.302929, 0.0007885703, -0.00017182989, -124025.47, -65848.586, 0.0, 10.005661, 9.883642 
5.6553996e+3, 3.0397537e+2, -34530.16, -84926.16, 3.467615, 0.0007881887, 0.00025041972, -34530.16, -34530.16, 0.0, 10.005659, 9.939329 
5.655399e+3, 3.1391656e+2, -33477.17, -82732.31, -6.25667, 0.00078751537, 0.000014731747, -33477.17, -33477.17, 0.0, 10.005656, 9.940811 
5.6654215e+3, 1.2509035e+2, -1712586.5, -1723223.9, 4.389081, 0.0008041064, 0.00017634817, -1712586.5, 1529.2048, 0.0, 10.005886, 9.991787 
5.66542e+3, 1.3508199e+2, -1615251.4, -1626475.0, -6.7710466, 0.00080257107, -0.0000024891808, -1615251.4, 946.30304, 0.0, 10.005878, 9.991004 
5.6654197e+3, 1.4506708e+2, -1527186.9, -1547225.5, -0.85889196, 0.00080185744, 0.00025836777, -1527186.9, -8843.213, 0.0, 10.005871, 9.979322 
5.6654185e+3, 1.5504637e+2, -1429502.6, -1449939.3, -12.439519, 0.0008019272, 0.0000679796, -1429502.6, -8956.135, 0.0, 10.005863, 9.978791 
5.665417e+3, 1.6501907e+2, -1341505.4, -1371142.5, -6.9844265, 0.0008015022, 0.00014940051, -1341505.4, -18691.086, 0.0, 10.0058565, 9.966683 
5.665416e+3, 1.749858e+2, -1243589.6, -1273538.1, -17.591932, 0.0008005923, 0.000045722412, -1243589.6, -18449.46, 0.0, 10.00585, 9.9662695 
5.665415e+3, 1.8494584e+2, -1155620.5, -1195135.8, -10.434083, 0.000799938, 0.00018962762, -1155620.5, -28088.787, 0.0, 10.005844, 9.953734 
5.6654143e+3, 1.948996e+2, -1057511.6, -1097285.5, -22.11511, 0.0007995386, 0.00005557917, -1057511.6, -27526.814, 0.0, 10.005838, 9.953391 
5.665413e+3, 2.048467e+2, -969385.6, -1018935.0, -10.795079, 0.0007991868, 0.00017567874, -969385.6, -36882.387, 0.0, 10.005832, 9.940621 
5.665412e+3, 2.1478735e+2, -871138.6, -920945.75, -22.209404, 0.0007988839, -0.000019872447, -871138.6, -36053.89, 0.0, 10.005826, 9.94028 
5.6654114e+3, 2.2472131e+2, -782889.94, -842729.44, -9.872553, 0.0007983805, 0.00022544779, -782889.94, -45157.977, 0.0, 10.00582, 9.927229 
5.66541e+3, 2.346486e+2, -684494.4, -744585.94, -21.180405, 0.0007976543, 0.000011396102, -684494.3, -44049.875, 0.0, 10.005816, 9.926898 
5.6654096e+3, 2.4456894e+2, -596206.94, -666687.94, -7.5176344, 0.0007971921, 0.00017130874, -596206.94, -52981.816, 0.0, 10.005812, 9.913446 
5.665409e+3, 2.544825e+2, -497492.4, -568047.6, -18.342985, 0.0007970357, -0.000012873853, -497492.4, -51420.25, 0.0, 10.005807, 9.913346 
5.665408e+3, 2.6438898e+2, -409300.34, -490757.72, -3.6375778, 0.00079673866, 0.00023124953, -409300.34, -60311.633, 0.0, 10.005802, 9.899253 
5.665407e+3, 2.7428877e+2, -310052.75, -391180.44, -14.221886, 0.0007962643, -0.00011658331, -310052.75, -58082.1, 0.0, 10.005798, 9.899672 
5.665406e+3, 2.841804e+2, -223528.66, -317765.4, -0.008477676, 0.00079587416, 0.00031293865, -223528.66, -68495.92, 0.0, 10.0057955, 9.882826 
5.665406e+3, 2.9406428e+2, -123852.83, -217470.38, -9.469124, 0.00079559535, -0.00017132572, -123852.82, -65682.15, 0.0, 10.005793, 9.883613 
5.6654054e+3, 3.0397597e+2, -34362.195, -84882.164, 4.3429713, 0.0007951895, 0.00025085543, -34362.195, -34362.195, 0.0, 10.00579, 9.939297 
5.665404e+3, 3.1391713e+2, -33310.22, -82689.266, -5.3774424, 0.00079459907, 0.000014798902, -33310.22, -33310.22, 0.0, 10.005787, 9.940778 
5.6754273e+3, 1.250915e+2, -1712610.1, -1723271.3, 1.6094017, 0.00081107655, 0.00017788954, -1712610.1, 1494.2715, 0.0, 10.005887, 9.991757 
5.675426e+3, 1.350831e+2, -1615274.8, -1626522.3, -9.548393, 0.00081019895, -0.000002655511, -1615274.8, 911.91327, 0.0, 10.005879, 9.990974 
5.6754255e+3, 1.4506818e+2, -1527210.8, -1547273.9, -3.5357618, 0.0008094652, 0.00025796238, -1527210.8, -8877.818, 0.0, 10.005873, 9.979292 
5.6754243e+3, 1.5504745e+2, -1429526.3, -1449987.4, -15.113069, 0.0008088572, 0.00006875799, -1429526.3, -8990.139, 0.0, 10.005865, 9.978761 
5.675423e+3, 1.6502008e+2, -1341526.5, -1371186.1, -9.388786, 0.00080837833, 0.0001505109, -1341526.5, -18722.34, 0.0, 10.005858, 9.966656 
5.675422e+3, 1.749868e+2, -1243610.6, -1273581.6, -20.000793, 0.0008080295, 0.000046325695, -1243610.6, -18480.223, 0.0, 10.005852, 9.966242 
5.675421e+3, 1.849468e+2, -1155643.8, -1195183.8, -12.679303, 0.0008074617, 0.00018996434, -1155643.8, -28121.525, 0.0, 10.005845, 9.953704 
5.67542e+3, 1.9490054e+2, -1057534.5, -1097333.3, -24.355814, 0.00080666825, 0.000055892688, -1057534.5, -27558.986, 0.0, 10.005839, 9.953361 
5.675419e+3, 2.048476e+2, -969408.2, -1018982.3, -12.98343, 0.0008062076, 0.00017604296, -969408.2, -36913.906, 0.0, 10.005834, 9.940591 
5.675418e+3, 2.1478824e+2, -871160.94, -920992.8, -24.404839, 0.0008060951, -0.000019379799, -871160.9, -36084.805, 0.0, 10.005828, 9.940249 
5.675417e+3, 2.2472216e+2, -782912.3, -842777.0, -11.59379, 0.0008056586, 0.00022599557, -782912.3, -45188.727, 0.0, 10.005822, 9.927197 
5.675416e+3, 2.3464943e+2, -684516.5, -744633.25, -22.885452, 0.00080486346, 0.0000119182305, -684516.5, -44080.098, 0.0, 10.005817, 9.926867 
5.675415e+3, 2.4456973e+2, -596228.7, -666734.7, -9.243458, 0.0008043531, 0.0001718009, -596228.7, -53011.34, 0.0, 10.005813, 9.913416 
5.675415e+3, 2.5448325e+2, -497513.88, -568094.06, -20.077274, 0.0008041726, -0.000012416589, -497513.88, -51449.16, 0.0, 10.005808, 9.913315 
5.6754136e+3, 2.6438972e+2, -409322.06, -490804.97, -5.0583277, 0.000803883, 0.00023148466, -409322.06, -60340.473, 0.0, 10.005804, 9.899221 
5.675413e+3, 2.7428946e+2, -310074.2, -391227.44, -15.619454, 0.00080345524, -0.00011680307, -310074.2, -58110.37, 0.0, 10.0058, 9.89964 
5.675412e+3, 2.8418106e+2, -223548.8, -317810.0, -1.1225828, 0.0008030502, 0.00031305372, -223548.8, -68522.586, 0.0, 10.005796, 9.882796 
5.675412e+3, 2.940649e+2, -123872.62, -217514.52, -10.570954, 0.0008026739, -0.00016981679, -123872.62, -65708.19, 0.0, 10.005794, 9.883583 
5.675411e+3, 3.039766e+2, -34383.953, -84930.48, 3.3940976, 0.0008022493, 0.00025218874, -34383.953, -34383.953, 0.0, 10.005791, 9.939263 
5.67541e+3, 3.139177e+2, -33332.24, -82738.1, -6.2982635, 0.0008017551, 0.000013662299, -33332.24, -33332.24, 0.0, 10.005788, 9.940744 
5.685434e+3, 1.2509266e+2, -1712410.4, -1723199.1, 4.588284, 0.00081840024, 0.00017841255, -1712410.4, 1682.6731, 0.0, 10.006026, 9.991727 
5.685432e+3, 1.3508424e+2, -1615076.9, -1626451.6, -6.798308, 0.0008175715, -0.0000020230225, -1615076.9, 1098.6317, 0.0, 10.006019, 9.990944 
5.6854314e+3, 1.4506927e+2, -1527014.8, -1547205.6, -0.7471784, 0.0008167934, 0.00025857973, -1527014.8, -8692.599, 0.0, 10.006011, 9.97926 
5.68543e+3, 1.550485e+2, -1429331.1, -1449920.0, -12.515769, 0.0008160505, 0.00006923927, -1429331.1, -8805.509, 0.0, 10.006003, 9.978729 
5.685429e+3, 1.6502114e+2, -1341330.5, -1371115.9, -6.923805, 0.00081554375, 0.00015098747, -1341330.5, -18536.541, 0.0, 10.005997, 9.966627 
5.685428e+3, 1.7498781e+2, -1243416.9, -1273512.9, -17.815498, 0.0008152728, 0.0000469269, -1243416.9, -18296.402, 0.0, 10.005989, 9.966213 
5.6854266e+3, 1.849478e+2, -1155453.9, -1195120.6, -10.436913, 0.0008147773, 0.00019054515, -1155453.9, -27941.275, 0.0, 10.005982, 9.953672 
5.685426e+3, 1.9490151e+2, -1057346.4, -1097271.5, -22.20854, 0.00081405044, 0.00005630648, -1057346.4, -27380.129, 0.0, 10.005976, 9.953329 
5.685425e+3, 2.0484853e+2, -969221.06, -1018921.8, -10.873156, 0.0008135027, 0.00017644456, -969221.06, -36735.848, 0.0, 10.00597, 9.940559 
5.6854236e+3, 2.1478912e+2, -870974.6, -920933.2, -22.64582, 0.00081314205, -0.00001882783, -870974.6, -35907.234, 0.0, 10.005963, 9.940218 
5.685423e+3, 2.2472303e+2, -782727.44, -842718.56, -9.821954, 0.0008127163, 0.00022653729, -782727.44, -45012.23, 0.0, 10.005958, 9.927167 
5.685422e+3, 2.3465025e+2, -684334.25, -744576.6, -21.182653, 0.00081221666, 0.00001227311, -684334.25, -43905.94, 0.0, 10.005952, 9.926835 
5.685421e+3, 2.4457052e+2, -596048.0, -666679.5, -7.509242, 0.0008117598, 0.00017213113, -596048.0, -52838.44, 0.0, 10.005947, 9.913384 
5.6854206e+3, 2.5448403e+2, -497334.0, -568039.8, -18.679754, 0.0008113512, -0.000011922321, -497334.0, -51276.793, 0.0, 10.005942, 9.913283 
5.6854194e+3, 2.6439044e+2, -409143.2, -490751.84, -3.6562922, 0.0008109507, 0.00023197278, -409143.2, -60168.777, 0.0, 10.005939, 9.89919 
5.685419e+3, 2.7429017e+2, -309896.9, -391175.63, -14.270054, 0.00081055815, -0.0001165327, -309896.9, -57939.95, 0.0, 10.005934, 9.899609 
5.685418e+3, 2.8418174e+2, -223372.08, -317757.7, 0.25034285, 0.00081020803, 0.0003133, -223372.08, -68352.42, 0.0, 10.00593, 9.882766 
5.6854177e+3, 2.9406556e+2, -123697.82, -217463.55, -9.598541, 0.00080991245, -0.00016933502, -123697.82, -65539.65, 0.0, 10.005926, 9.883553 
5.685417e+3, 3.039772e+2, -34213.605, -84885.27, 4.35066, 0.00080948975, 0.0002526665, -34213.605, -34213.605, 0.0, 10.005923, 9.93923 
5.685416e+3, 3.1391826e+2, -33162.61, -82693.58, -5.2214527, 0.00080888224, 0.000013786895, -33162.61, -33162.61, 0.0, 10.00592, 9.940711 
5.6954396e+3, 1.2509383e+2, -1712434.4, -1723247.6, 1.5961574, 0.00082603336, 0.00017807641, -1712434.4, 1647.1484, 0.0, 10.006028, 9.991696 
5.6954384e+3, 1.3508537e+2, -1615100.6, -1626499.8, -9.7988405, 0.0008247377, -0.0000007139638, -1615100.6, 1063.6849, 0.0, 10.00602, 9.990913 
5.695437e+3, 1.4507039e+2, -1527039.0, -1547254.8, -3.3929055, 0.00082389533, 0.00026006254, -1527039.0, -8727.681, 0.0, 10.006012, 9.979229 
5.695436e+3, 1.5504959e+2, -1429355.1, -1449969.0, -15.150647, 0.0008234777, 0.00006946983, -1429355.1, -8840.044, 0.0, 10.006005, 9.978698 
5.695435e+3, 1.6502216e+2, -1341352.1, -1371160.6, -9.61176, 0.0008229651, 0.00015092849, -1341352.1, -18568.521, 0.0, 10.005998, 9.9665985 
5.695434e+3, 1.7498884e+2, -1243438.3, -1273557.5, -20.504257, 0.00082236197, 0.00004752665, -1243438.3, -18327.816, 0.0, 10.005991, 9.966185 
5.6954324e+3, 1.8494877e+2, -1155477.1, -1195169.0, -12.8359165, 0.00082192634, 0.000191333, -1155477.1, -27974.21, 0.0, 10.005983, 9.953642 
5.695432e+3, 1.9490245e+2, -1057369.4, -1097319.5, -24.614172, 0.0008216561, 0.00005680655, -1057369.4, -27412.502, 0.0, 10.005978, 9.953298 
5.6954306e+3, 2.0484945e+2, -969244.3, -1018970.5, -13.003613, 0.00082104024, 0.00017687916, -969244.3, -36768.15, 0.0, 10.005971, 9.940528 
5.6954294e+3, 2.1479002e+2, -870997.6, -920981.7, -24.766535, 0.0008200607, -0.000018225583, -870997.56, -35938.965, 0.0, 10.005965, 9.9401865 
5.695429e+3, 2.2472389e+2, -782749.94, -842766.4, -11.931794, 0.0008195981, 0.00022707378, -782749.94, -45043.188, 0.0, 10.0059595, 9.927135 
5.695428e+3, 2.3465107e+2, -684356.44, -744624.2, -23.299377, 0.0008197013, 0.000012487253, -684356.44, -43936.277, 0.0, 10.005954, 9.926804 
5.695427e+3, 2.4457133e+2, -596070.4, -666727.56, -9.201609, 0.00081938383, 0.0001723252, -596070.4, -52868.605, 0.0, 10.005949, 9.913352 
5.6954265e+3, 2.544848e+2, -497356.1, -568087.6, -20.353867, 0.000818575, -0.000011396685, -497356.1, -51306.4, 0.0, 10.005944, 9.913252 
5.695425e+3, 2.6439118e+2, -409164.97, -490799.34, -5.199216, 0.0008179637, 0.00023267571, -409164.97, -60197.785, 0.0, 10.0059395, 9.8991585 
5.6954247e+3, 2.742909e+2, -309918.4, -391222.84, -15.813792, 0.00081759633, -0.00011584429, -309918.4, -57968.35, 0.0, 10.005936, 9.899577 
5.695424e+3, 2.841824e+2, -223392.9, -317803.8, -1.1073991, 0.00081736007, 0.00031365905, -223392.9, -68379.84, 0.0, 10.005932, 9.882734 
5.6954235e+3, 2.940662e+2, -123718.32, -217509.31, -10.925296, 0.00081729627, -0.00016972754, -123718.32, -65566.44, 0.0, 10.005928, 9.883522 
5.695423e+3, 3.0397782e+2, -34235.133, -84933.3, 3.2875068, 0.00081689283, 0.00025241612, -34235.133, -34235.133, 0.0, 10.005924, 9.939197 
5.6954217e+3, 3.1391886e+2, -33184.297, -82741.914, -6.28976, 0.000815994, 0.000014986772, -33184.297, -33184.297, 0.0, 10.005921, 9.940678 
5.705446e+3, 1.2509501e+2, -1712231.4, -1723175.0, 4.8644266, 0.0008334525, 0.00017854014, -1712231.4, 1838.6461, 0.0, 10.006169, 9.991665 
5.705444e+3, 1.3508654e+2, -1614898.6, -1626428.1, -7.03515, 0.00083194696, 0.00000001689004, -1614898.6, 1254.4587, 0.0, 10.006162, 9.990882 
5.7054436e+3, 1.450715e+2, -1526838.5, -1547184.5, -0.7465475, 0.00083112536, 0.00026082483, -1526838.5, -8538.203, 0.0, 10.006153, 9.979198 
5.705442e+3, 1.5505068e+2, -1429157.5, -1449900.5, -12.514228, 0.0008309516, 0.000070034475, -1429157.4, -8653.012, 0.0, 10.0061455, 9.978667 
5.7054406e+3, 1.6502322e+2, -1341154.1, -1371090.0, -6.8622303, 0.0008304549, 0.00015139386, -1341154.1, -18380.814, 0.0, 10.006138, 9.966569 
5.70544e+3, 1.7498985e+2, -1243241.0, -1273487.8, -17.95073, 0.00082964345, 0.00004799004, -1243241.0, -18140.625, 0.0, 10.00613, 9.966155 
5.705439e+3, 1.8494979e+2, -1155283.1, -1195104.4, -10.410051, 0.00082912605, 0.0001918543, -1155283.1, -27789.98, 0.0, 10.006124, 9.953609 
5.705438e+3, 1.9490342e+2, -1057177.4, -1097256.5, -22.54136, 0.0008289019, 0.000057446134, -1057177.3, -27229.916, 0.0, 10.006116, 9.953266 
5.705437e+3, 2.0485039e+2, -969053.94, -1018908.9, -10.846666, 0.0008283583, 0.00017747446, -969053.94, -36586.93, 0.0, 10.006109, 9.9404955 
5.705436e+3, 2.1479093e+2, -870809.2, -920921.56, -22.645685, 0.0008274783, -0.000017844972, -870809.2, -35759.38, 0.0, 10.0061035, 9.940155 
5.705435e+3, 2.2472475e+2, -782562.75, -842707.44, -9.838552, 0.00082697475, 0.0002274292, -782562.75, -44864.52, 0.0, 10.006097, 9.927103 
5.705434e+3, 2.3465192e+2, -684170.25, -744566.25, -21.537807, 0.0008268828, 0.00001302581, -684170.25, -43758.26, 0.0, 10.006091, 9.926772 
5.705433e+3, 2.4457213e+2, -595885.44, -666670.94, -7.40282, 0.00082652783, 0.00017286024, -595885.44, -52691.566, 0.0, 10.006086, 9.913321 
5.705432e+3, 2.5448558e+2, -497173.25, -568032.56, -18.6932, 0.0008258648, -0.000011082327, -497173.25, -51131.117, 0.0, 10.006081, 9.913219 
5.7054317e+3, 2.643919e+2, -408983.72, -490745.72, -3.5635478, 0.00082530716, 0.00023300126, -408983.72, -60023.785, 0.0, 10.006076, 9.899126 
5.7054305e+3, 2.742916e+2, -309738.66, -391170.47, -14.5312395, 0.0008248789, -0.00011521897, -309738.66, -57795.54, 0.0, 10.006071, 9.899545 
5.70543e+3, 2.8418308e+2, -223213.16, -317750.28, 0.24601081, 0.0008245949, 0.00031421694, -223213.16, -68206.734, 0.0, 10.006067, 9.882704 
5.7054293e+3, 2.9406685e+2, -123539.97, -217456.84, -9.362907, 0.00082450156, -0.00016973066, -123539.97, -65394.41, 0.0, 10.006063, 9.883491 
5.705429e+3, 3.039784e+2, -34061.59, -84887.836, 4.8169417, 0.0008240769, 0.000252401, -34061.59, -34061.59, 0.0, 10.00606, 9.939162 
5.705428e+3, 3.1391943e+2, -33011.484, -82697.26, -5.6691236, 0.0008231685, 0.000015765572, -33011.48, -33011.48, 0.0, 10.006056, 9.940642 
5.715452e+3, 1.250962e+2, -1712256.5, -1723225.5, 1.8716333, 0.0008407021, 0.00017967845, -1712256.5, 1801.8386, 0.0, 10.006171, 9.991633 
5.7154506e+3, 1.3508768e+2, -1614923.6, -1626478.5, -10.001739, 0.00083920435, 0.0000002604396, -1614923.6, 1218.2102, 0.0, 10.006164, 9.9908495 
5.7154495e+3, 1.4507261e+2, -1526862.8, -1547233.6, -3.7750933, 0.00083847507, 0.00026098016, -1526862.8, -8573.394, 0.0, 10.006155, 9.979167 
5.715448e+3, 1.5505175e+2, -1429181.3, -1449949.4, -15.555771, 0.00083847455, 0.00007088171, -1429181.3, -8687.575, 0.0, 10.006146, 9.978636 
5.715447e+3, 1.650243e+2, -1341176.1, -1371135.5, -9.483277, 0.00083801197, 0.00015230251, -1341176.1, -18413.244, 0.0, 10.006139, 9.96654 
5.7154465e+3, 1.7499089e+2, -1243262.9, -1273533.1, -20.568718, 0.00083709805, 0.000048339694, -1243262.9, -18172.547, 0.0, 10.006132, 9.966126 
5.7154447e+3, 1.8495077e+2, -1155307.1, -1195154.1, -13.024653, 0.0008363797, 0.00019215168, -1155307.1, -27823.78, 0.0, 10.0061245, 9.953578 
5.715444e+3, 1.9490439e+2, -1057201.0, -1097306.0, -25.152658, 0.00083585473, 0.000058203408, -1057201.0, -27263.096, 0.0, 10.006118, 9.953234 
5.715443e+3, 2.0485133e+2, -969077.2, -1018957.75, -13.188159, 0.0008355014, 0.00017820543, -969077.2, -36619.32, 0.0, 10.006111, 9.940464 
5.715442e+3, 2.1479182e+2, -870832.1, -920970.1, -24.991726, 0.0008353269, -0.000017650102, -870832.1, -35791.184, 0.0, 10.006104, 9.940123 
5.715441e+3, 2.2472563e+2, -782585.8, -842756.56, -11.935094, 0.00083477906, 0.00022763343, -782585.8, -44896.18, 0.0, 10.006099, 9.927072 
5.71544e+3, 2.3465276e+2, -684193.06, -744615.1, -23.628025, 0.0008338188, 0.000013838812, -684193.06, -43789.324, 0.0, 10.006093, 9.92674 
5.7154393e+3, 2.4457294e+2, -595908.0, -666719.56, -9.343184, 0.0008332771, 0.00017368345, -595908.0, -52722.063, 0.0, 10.006087, 9.913288 
5.715439e+3, 2.5448635e+2, -497195.53, -568080.94, -20.627867, 0.0008332203, -0.000010945274, -497195.5, -51161.008, 0.0, 10.006083, 9.913188 
5.7154375e+3, 2.6439267e+2, -409006.13, -490794.6, -5.2208877, 0.0008329397, 0.00023300889, -409006.13, -60053.477, 0.0, 10.006077, 9.899094 
5.715437e+3, 2.742923e+2, -309760.78, -391219.13, -16.170956, 0.00083237805, -0.000114647984, -309760.78, -57824.64, 0.0, 10.006073, 9.899512 
5.715436e+3, 2.8418377e+2, -223233.58, -317795.7, -1.2090527, 0.0008319099, 0.00031494262, -223233.58, -68233.82, 0.0, 10.006068, 9.882673 
5.715436e+3, 2.940675e+2, -123559.97, -217501.73, -10.823573, 0.0008315656, -0.00016940065, -123559.97, -65420.78, 0.0, 10.006064, 9.883461 
5.7154346e+3, 3.0397904e+2, -34084.62, -84939.13, 3.6238632, 0.0008310853, 0.00025258836, -34084.62, -34084.62, 0.0, 10.006061, 9.939127 
5.715434e+3, 3.1392002e+2, -33034.91, -82749.33, -6.8002753, 0.0008304062, 0.000016184824, -33034.91, -33034.91, 0.0, 10.006058, 9.940607 
5.725458e+3, 1.250974e+2, -1712049.4, -1723150.9, 4.873359, 0.0008479913, 0.00018061936, -1712049.4, 1997.3131, 0.0, 10.006315, 9.991602 
5.725457e+3, 1.3508885e+2, -1614719.1, -1626405.8, -6.702939, 0.00084677286, 0.00000061695994, -1614719.1, 1411.284, 0.0, 10.006307, 9.990818 
5.725455e+3, 1.4507376e+2, -1526660.1, -1547163.1, -0.40895322, 0.000846033, 0.00026124596, -1526660.1, -8381.945, 0.0, 10.006298, 9.979135 
5.7254547e+3, 1.5505287e+2, -1428979.5, -1449879.8, -12.751098, 0.00084574136, 0.00007153364, -1428979.5, -8496.5205, 0.0, 10.00629, 9.978603 
5.7254535e+3, 1.6502535e+2, -1340973.5, -1371062.9, -6.820659, 0.0008452533, 0.00015307279, -1340973.5, -18221.018, 0.0, 10.006282, 9.966511 
5.7254523e+3, 1.7499194e+2, -1243062.6, -1273462.3, -18.023264, 0.0008445752, 0.00004896511, -1243062.6, -17982.572, 0.0, 10.006274, 9.966097 
5.725451e+3, 1.8495178e+2, -1155110.8, -1195089.1, -10.392477, 0.0008438869, 0.00019265844, -1155110.8, -27637.352, 0.0, 10.006267, 9.953546 
5.72545e+3, 1.9490537e+2, -1057005.8, -1097242.0, -22.639133, 0.0008431843, 0.000058618112, -1057005.8, -27077.443, 0.0, 10.006259, 9.953202 
5.7254493e+3, 2.0485228e+2, -968883.1, -1018894.8, -10.74423, 0.00084278005, 0.00017864628, -968883.1, -36434.555, 0.0, 10.006252, 9.940432 
5.725448e+3, 2.1479274e+2, -870640.06, -920908.75, -22.89686, 0.0008426875, -0.00001705939, -870640.06, -35608.066, 0.0, 10.006246, 9.94009 
5.7254475e+3, 2.2472651e+2, -782395.4, -842696.7, -9.783811, 0.00084216887, 0.00022822988, -782395.4, -44714.336, 0.0, 10.006239, 9.927038 
5.7254463e+3, 2.346536e+2, -684004.1, -744556.5, -21.644194, 0.00084117963, 0.000014282858, -684004.1, -43608.676, 0.0, 10.006233, 9.926707 
5.725445e+3, 2.4457376e+2, -595720.2, -666662.0, -7.389066, 0.000840612, 0.00017409712, -595720.2, -52542.28, 0.0, 10.006227, 9.913256 
5.7254446e+3, 2.5448713e+2, -497009.34, -568024.6, -18.851337, 0.00084053294, -0.000010420308, -497009.34, -50982.49, 0.0, 10.006222, 9.913156 
5.725444e+3, 2.643934e+2, -408821.53, -490740.0, -3.3458529, 0.0008402516, 0.00023345782, -408821.53, -59876.227, 0.0, 10.006216, 9.899061 
5.725443e+3, 2.7429304e+2, -309577.94, -391165.97, -14.424385, 0.0008397158, -0.000114507464, -309577.94, -57648.84, 0.0, 10.006211, 9.899479 
5.725442e+3, 2.8418446e+2, -223050.88, -317741.44, 0.44300458, 0.0008392356, 0.00031518572, -223050.88, -68057.836, 0.0, 10.0062065, 9.882642 
5.7254416e+3, 2.9406816e+2, -123378.54, -217448.52, -9.786979, 0.00083882845, -0.00016850486, -123378.54, -65245.76, 0.0, 10.006203, 9.88343 
5.725441e+3, 3.0397967e+2, -33907.91, -84892.53, 4.6765933, 0.0008383391, 0.00025342018, -33907.91, -33907.91, 0.0, 10.006198, 9.939093 
5.7254404e+3, 3.139206e+2, -32859.33, -82703.69, -5.1713257, 0.00083772937, 0.00001590751, -32859.33, -32859.33, 0.0, 10.006194, 9.940572 
5.735464e+3, 1.250986e+2, -1712073.8, -1723200.1, 1.519725, 0.00085532636, 0.00018139352, -1712073.8, 1961.1077, 0.0, 10.006317, 9.99157 
5.735463e+3, 1.3509001e+2, -1614743.3, -1626454.8, -10.074794, 0.0008546119, 0.0000010711736, -1614743.3, 1375.6876, 0.0, 10.006309, 9.9907875 
5.735462e+3, 1.4507489e+2, -1526685.5, -1547214.6, -3.3692925, 0.00085377507, 0.0002616079, -1526685.5, -8418.489, 0.0, 10.0063, 9.979102 
5.735461e+3, 1.5505397e+2, -1429004.5, -1449931.0, -15.69211, 0.0008528054, 0.000072022085, -1429004.5, -8532.468, 0.0, 10.006291, 9.978571 
5.7354593e+3, 1.6502644e+2, -1340995.6, -1371108.9, -9.775969, 0.00085224217, 0.00015372643, -1340995.6, -18253.793, 0.0, 10.006284, 9.966481 
5.735459e+3, 1.7499296e+2, -1243084.6, -1273508.0, -20.986095, 0.0008520814, 0.000049822553, -1243084.6, -18014.78, 0.0, 10.006275, 9.966067 
5.7354575e+3, 1.8495281e+2, -1155134.9, -1195139.3, -13.006255, 0.00085161685, 0.0001933421, -1155134.9, -27671.426, 0.0, 10.006268, 9.953513 
5.7354563e+3, 1.9490635e+2, -1057029.6, -1097291.9, -25.253502, 0.0008508414, 0.00005874664, -1057029.6, -27110.94, 0.0, 10.006261, 9.953169 
5.735456e+3, 2.0485322e+2, -968907.06, -1018945.06, -13.310623, 0.0008501838, 0.0001788449, -968907.06, -36467.758, 0.0, 10.006254, 9.940399 
5.7354546e+3, 2.1479365e+2, -870663.6, -920958.7, -25.463463, 0.0008496484, -0.00001613545, -870663.6, -35640.63, 0.0, 10.006247, 9.940058 
5.7354534e+3, 2.247274e+2, -782418.7, -842746.5, -11.98762, 0.00084922055, 0.00022915614, -782418.7, -44746.36, 0.0, 10.006241, 9.927006 
5.735453e+3, 2.3465447e+2, -684027.2, -744606.06, -23.83781, 0.0008489084, 0.00001441738, -684027.2, -43640.117, 0.0, 10.006234, 9.926675 
5.7354516e+3, 2.4457459e+2, -595743.06, -666711.4, -9.455573, 0.00084845006, 0.00017416744, -595743.06, -52573.176, 0.0, 10.006228, 9.913223 
5.7354504e+3, 2.544879e+2, -497031.88, -568073.7, -20.921286, 0.0008478199, -0.00000956837, -497031.88, -51012.758, 0.0, 10.006223, 9.913122 
5.7354504e+3, 2.6439416e+2, -408844.1, -490789.4, -5.185725, 0.00084730407, 0.00023427888, -408844.1, -59906.195, 0.0, 10.006218, 9.899028 
5.735449e+3, 2.7429372e+2, -309600.22, -391215.1, -16.250154, 0.00084692775, -0.000114727074, -309600.22, -57678.184, 0.0, 10.006212, 9.8994465 
5.735448e+3, 2.8418514e+2, -223072.38, -317789.25, -1.0852903, 0.00084658054, 0.00031502426, -223072.38, -68086.07, 0.0, 10.006208, 9.882609 
5.735448e+3, 2.940688e+2, -123399.71, -217495.92, -11.2837925, 0.00084626954, -0.0001671347, -123399.71, -65273.375, 0.0, 10.006204, 9.883397 
5.7354474e+3, 3.039803e+2, -33930.0, -84941.96, 3.303014, 0.00084581017, 0.00025479274, -33930.0, -33930.0, 0.0, 10.0062, 9.939058 
5.735446e+3, 3.139212e+2, -32881.55, -82753.4, -6.555191, 0.0008451341, 0.000015047452, -32881.547, -32881.547, 0.0, 10.006196, 9.940537 
5.7454705e+3, 1.2509981e+2, -1711864.3, -1723124.9, 5.2209306, 0.0008629776, 0.00018166284, -1711864.3, 2158.7324, 0.0, 10.006463, 9.991539 
5.74547e+3, 1.350912e+2, -1614534.5, -1626380.6, -7.0867867, 0.00086195825, 0.0000020206392, -1614534.5, 1572.7704, 0.0, 10.006454, 9.990755 
5.745468e+3, 1.4507605e+2, -1526478.5, -1547142.4, -0.42620224, 0.00086109125, 0.00026261553, -1526478.5, -8222.735, 0.0, 10.006446, 9.97907 
5.7454675e+3, 1.5505509e+2, -1428799.9, -1449860.4, -12.602368, 0.0008603563, 0.0000724864, -1428799.9, -8338.678, 0.0, 10.006437, 9.9785385 
5.745466e+3, 1.6502753e+2, -1340790.4, -1371035.6, -6.6528916, 0.00085979904, 0.00015404602, -1340790.4, -18059.105, 0.0, 10.006429, 9.966451 
5.7454646e+3, 1.7499404e+2, -1242880.6, -1273435.9, -18.198425, 0.0008594197, 0.000050389113, -1242880.6, -17821.092, 0.0, 10.00642, 9.966037 
5.745464e+3, 1.8495382e+2, -1154934.5, -1195072.6, -10.2726, 0.0008589559, 0.00019400667, -1154934.5, -27481.113, 0.0, 10.0064125, 9.95348 
5.745463e+3, 1.9490735e+2, -1056831.6, -1097227.0, -22.74307, 0.00085840235, 0.00005935882, -1056831.6, -26922.604, 0.0, 10.006404, 9.953136 
5.745462e+3, 2.0485419e+2, -968710.44, -1018881.7, -10.759358, 0.00085773855, 0.00017940265, -968710.44, -36280.58, 0.0, 10.006397, 9.940366 
5.745461e+3, 2.1479459e+2, -870467.94, -920896.25, -23.10706, 0.0008569579, -0.000015634108, -870467.94, -35454.008, 0.0, 10.006391, 9.940024 
5.74546e+3, 2.2472829e+2, -782224.25, -842685.06, -9.645033, 0.000856496, 0.00022962612, -782224.25, -44560.64, 0.0, 10.006383, 9.926973 
5.745459e+3, 2.3465532e+2, -683835.1, -744546.4, -21.644817, 0.0008563813, 0.000014883329, -683835.1, -43456.492, 0.0, 10.006376, 9.926641 
5.745458e+3, 2.4457541e+2, -595552.75, -666653.3, -7.208725, 0.0008559731, 0.00017462712, -595552.75, -52390.953, 0.0, 10.00637, 9.91319 
5.745457e+3, 2.544887e+2, -496842.8, -568016.8, -19.021656, 0.00085522153, -0.000009117453, -496842.78, -50831.44, 0.0, 10.006364, 9.913089 
5.745456e+3, 2.6439494e+2, -408656.03, -490733.56, -3.3507934, 0.0008546312, 0.0002347755, -408656.03, -59725.574, 0.0, 10.006359, 9.898994 
5.7454556e+3, 2.7429447e+2, -309413.63, -391160.5, -14.576308, 0.00085423904, -0.00011411705, -309413.63, -57498.723, 0.0, 10.006353, 9.899413 
5.7454544e+3, 2.8418583e+2, -222886.38, -317734.22, 0.6936948, 0.00085393095, 0.00031551224, -222886.38, -67906.875, 0.0, 10.006349, 9.882578 
5.745454e+3, 2.9406947e+2, -123215.87, -217442.4, -9.498261, 0.0008537324, -0.00016708448, -123215.87, -65096.008, 0.0, 10.006344, 9.883365 
5.745454e+3, 3.0398092e+2, -33750.81, -84894.55, 5.017025, 0.00085326604, 0.00025487246, -33750.81, -33750.81, 0.0, 10.006339, 9.939023 
5.7454526e+3, 3.1392178e+2, -32702.791, -82706.55, -5.504435, 0.000852408, 0.000015841119, -32702.79, -32702.79, 0.0, 10.006335, 9.940502 
5.755477e+3, 1.2510103e+2, -1711890.3, -1723177.3, 1.9132459, 0.0008709023, 0.0001815156, -1711890.3, 2120.7734, 0.0, 10.006465, 9.991506 
5.7554764e+3, 1.350924e+2, -1614560.3, -1626432.6, -10.376346, 0.000868906, 0.0000033821168, -1614560.3, 1535.4038, 0.0, 10.006456, 9.990722 
5.7554746e+3, 1.4507721e+2, -1526503.5, -1547193.1, -3.6522086, 0.0008680651, 0.00026415975, -1526503.5, -8259.023, 0.0, 10.006448, 9.979037 
5.7554734e+3, 1.5505621e+2, -1428824.5, -1449910.9, -15.83487, 0.00086832454, 0.00007293239, -1428824.5, -8374.354, 0.0, 10.006438, 9.978506 
5.755473e+3, 1.6502863e+2, -1340813.3, -1371083.0, -9.656344, 0.00086784037, 0.00015408965, -1340813.3, -18092.715, 0.0, 10.00643, 9.96642 
5.755471e+3, 1.7499508e+2, -1242903.3, -1273483.1, -21.19637, 0.0008666296, 0.00005071372, -1242903.3, -17854.125, 0.0, 10.006422, 9.966006 
5.7554704e+3, 1.8495487e+2, -1154959.0, -1195123.8, -13.176792, 0.0008659804, 0.00019465564, -1154959.0, -27515.729, 0.0, 10.006414, 9.953447 
5.755469e+3, 1.9490834e+2, -1056855.8, -1097277.8, -25.653677, 0.0008658933, 0.000060376187, -1056855.8, -26956.592, 0.0, 10.006406, 9.953103 
5.755468e+3, 2.0485514e+2, -968734.7, -1018932.7, -13.271853, 0.0008654298, 0.00018026153, -968734.6, -36314.22, 0.0, 10.006398, 9.940332 
5.7554674e+3, 2.1479551e+2, -870491.9, -920947.0, -25.609888, 0.0008645711, -0.00001548559, -870491.9, -35487.066, 0.0, 10.006392, 9.939992 
5.755466e+3, 2.2472918e+2, -782247.9, -842735.5, -12.175754, 0.00086397043, 0.00022971543, -782247.9, -44593.05, 0.0, 10.006385, 9.92694 
5.7554656e+3, 2.3465618e+2, -683858.44, -744596.44, -24.187254, 0.00086365046, 0.00001562821, -683858.4, -43488.234, 0.0, 10.006378, 9.926608 
5.7554644e+3, 2.4457623e+2, -595576.2, -666704.0, -9.328249, 0.00086324237, 0.000175414, -595576.2, -52422.535, 0.0, 10.0063715, 9.9131565 
5.755463e+3, 2.544895e+2, -496865.97, -568067.25, -21.115885, 0.0008627299, -0.0000090017775, -496865.97, -50862.434, 0.0, 10.006366, 9.913055 
5.7554626e+3, 2.6439568e+2, -408678.88, -490783.66, -5.272608, 0.00086219964, 0.00023500086, -408678.88, -59755.926, 0.0, 10.00636, 9.898961 
5.755462e+3, 2.742952e+2, -309436.2, -391210.28, -16.499882, 0.00086164474, -0.00011281156, -309436.2, -57528.445, 0.0, 10.006355, 9.89938 
5.755461e+3, 2.841865e+2, -222907.81, -317782.03, -1.1197776, 0.00086129684, 0.0003165451, -222907.81, -67935.16, 0.0, 10.00635, 9.882545 
5.75546e+3, 2.9407012e+2, -123236.9, -217489.73, -11.297202, 0.00086122355, -0.00016813855, -123236.9, -65123.56, 0.0, 10.006345, 9.883333 
5.7554597e+3, 3.0398154e+2, -33773.94, -84946.39, 3.574852, 0.0008607188, 0.0002538707, -33773.94, -33773.94, 0.0, 10.006341, 9.938988 
5.755459e+3, 3.139224e+2, -32726.215, -82758.96, -6.918001, 0.0008595829, 0.00001802098, -32726.215, -32726.215, 0.0, 10.006336, 9.940466 
5.765484e+3, 1.2510227e+2, -1711676.1, -1723100.5, 5.3332415, 0.0008783202, 0.00018244541, -1711676.1, 2322.76, 0.0, 10.006615, 9.991472 
5.765482e+3, 1.350936e+2, -1614348.4, -1626357.6, -6.873747, 0.00087648537, 0.0000038129026, -1614348.4, 1735.4788, 0.0, 10.006605, 9.990689 
5.7654816e+3, 1.4507838e+2, -1526293.5, -1547119.6, -0.19604756, 0.00087566854, 0.00026453144, -1526293.5, -8060.427, 0.0, 10.006596, 9.979004 
5.76548e+3, 1.5505734e+2, -1428616.4, -1449838.9, -12.785019, 0.0008758192, 0.00007366835, -1428616.3, -8177.2905, 0.0, 10.006586, 9.978473 
5.765479e+3, 1.6502972e+2, -1340604.5, -1371008.5, -6.5613737, 0.0008753283, 0.00015487381, -1340604.5, -17894.771, 0.0, 10.0065775, 9.96639 
5.765478e+3, 1.7499617e+2, -1242696.1, -1273409.9, -18.16725, 0.00087421073, 0.000051236224, -1242696.1, -17657.484, 0.0, 10.006569, 9.965976 
5.765477e+3, 1.849559e+2, -1154755.5, -1195056.3, -10.213411, 0.0008735176, 0.00019512752, -1154755.5, -27322.373, 0.0, 10.00656, 9.953414 
5.7654756e+3, 1.9490935e+2, -1056653.6, -1097211.6, -23.014713, 0.0008732483, 0.000061010196, -1056653.6, -26764.334, 0.0, 10.006553, 9.95307 
5.7654744e+3, 2.0485613e+2, -968534.06, -1018867.6, -10.582557, 0.00087282126, 0.0001808911, -968534.06, -36123.156, 0.0, 10.006544, 9.940299 
5.765474e+3, 2.1479647e+2, -870293.8, -920883.75, -23.002184, 0.0008722275, -0.00001503484, -870293.8, -35298.2, 0.0, 10.0065365, 9.939959 
5.7654727e+3, 2.2473009e+2, -782051.4, -842673.9, -9.562564, 0.00087162346, 0.00023014999, -782051.4, -44405.41, 0.0, 10.00653, 9.926907 
5.7654715e+3, 2.3465706e+2, -683662.56, -744535.7, -21.977158, 0.0008710056, 0.000016225164, -683662.56, -43300.906, 0.0, 10.006523, 9.926575 
5.765471e+3, 2.4457707e+2, -595381.3, -666644.2, -7.1347275, 0.00087052217, 0.00017601704, -595381.3, -52235.895, 0.0, 10.006516, 9.913123 
5.7654697e+3, 2.5449032e+2, -496673.4, -568009.1, -18.926872, 0.0008701927, -0.000008574399, -496673.4, -50677.758, 0.0, 10.00651, 9.913022 
5.765469e+3, 2.6439646e+2, -408488.34, -490727.47, -3.0259066, 0.0008697592, 0.00023536838, -408488.34, -59572.938, 0.0, 10.006504, 9.898928 
5.7654685e+3, 2.7429593e+2, -309247.47, -391155.6, -14.661832, 0.00086919346, -0.000112359565, -309247.47, -57346.93, 0.0, 10.006498, 9.899345 
5.765467e+3, 2.8418723e+2, -222718.83, -317725.66, 0.6781928, 0.00086877646, 0.00031704144, -222718.83, -67753.06, 0.0, 10.006493, 9.882513 
5.7654667e+3, 2.940708e+2, -123048.83, -217434.23, -9.551713, 0.00086855656, -0.00016765317, -123048.83, -64942.07, 0.0, 10.006488, 9.883301 
5.765466e+3, 3.0398217e+2, -33590.965, -84898.586, 5.3269157, 0.00086801907, 0.00025429754, -33590.965, -33590.965, 0.0, 10.006483, 9.9389515 
5.7654655e+3, 3.1392297e+2, -32544.357, -82712.2, -5.524343, 0.00086701644, 0.000018323371, -32544.357, -32544.357, 0.0, 10.006478, 9.94043 
5.7754904e+3, 1.251035e+2, -1711701.9, -1723152.5, 1.7730296, 0.00088533096, 0.00018426683, -1711701.9, 2284.8533, 0.0, 10.006617, 9.99144 
5.775489e+3, 1.350948e+2, -1614373.9, -1626409.3, -10.424991, 0.00088460086, 0.0000034734976, -1614373.9, 1698.1862, 0.0, 10.006607, 9.990657 
5.775488e+3, 1.4507954e+2, -1526319.3, -1547172.3, -3.5986097, 0.00088380557, 0.0002639332, -1526319.3, -8097.7515, 0.0, 10.0065975, 9.978971 
5.775487e+3, 1.5505849e+2, -1428641.8, -1449891.1, -16.187952, 0.00088293204, 0.00007464578, -1428641.8, -8213.941, 0.0, 10.006588, 9.978439 
5.7754856e+3, 1.6503084e+2, -1340627.4, -1371056.1, -9.671399, 0.00088236836, 0.00015627289, -1340627.4, -17928.557, 0.0, 10.006579, 9.966359 
5.7754844e+3, 1.7499724e+2, -1242718.8, -1273457.3, -21.28171, 0.00088211196, 0.000051924817, -1242718.8, -17690.734, 0.0, 10.006571, 9.965945 
5.775483e+3, 1.8495694e+2, -1154780.6, -1195108.8, -13.194301, 0.0008814924, 0.000195454, -1154780.6, -27357.795, 0.0, 10.006562, 9.95338 
5.7754827e+3, 1.9491035e+2, -1056678.5, -1097263.8, -25.987757, 0.0008805026, 0.00006132565, -1056678.5, -26799.11, 0.0, 10.006555, 9.953036 
5.775481e+3, 2.048571e+2, -968558.3, -1018918.9, -13.442168, 0.0008799752, 0.00018133038, -968558.3, -36157.02, 0.0, 10.006546, 9.940266 
5.77548e+3, 2.147974e+2, -870317.75, -920934.7, -25.874891, 0.00087993016, -0.000014330388, -870317.75, -35331.41, 0.0, 10.006538, 9.939925 
5.775479e+3, 2.24731e+2, -782075.7, -842725.9, -11.991568, 0.0008794352, 0.0002308739, -782075.7, -44438.664, 0.0, 10.006532, 9.926872 
5.775478e+3, 2.3465794e+2, -683686.6, -744587.44, -24.384447, 0.0008784445, 0.000016698812, -683686.6, -43333.57, 0.0, 10.006525, 9.92654 
5.775477e+3, 2.4457793e+2, -595404.75, -666694.94, -9.534369, 0.0008778233, 0.00017646686, -595404.75, -52267.594, 0.0, 10.006518, 9.913089 
5.7754767e+3, 2.5449112e+2, -496696.5, -568059.56, -21.340384, 0.00087762874, -0.000007885263, -496696.5, -50708.78, 0.0, 10.006512, 9.912989 
5.7754755e+3, 2.6439723e+2, -408511.88, -490779.13, -5.1437807, 0.0008773217, 0.00023585641, -408511.88, -59604.07, 0.0, 10.006505, 9.898892 
5.775475e+3, 2.7429667e+2, -309270.72, -391206.97, -16.74897, 0.0008768717, -0.00011261921, -309270.72, -57377.438, 0.0, 10.006499, 9.899311 
5.7754743e+3, 2.8418797e+2, -222740.31, -317773.75, -1.1047678, 0.0008763615, 0.00031709048, -222740.31, -67781.48, 0.0, 10.0064945, 9.882481 
5.775473e+3, 2.9407147e+2, -123069.91, -217481.77, -11.336757, 0.00087576924, -0.00016588146, -123069.91, -64969.777, 0.0, 10.00649, 9.883268 
5.7754725e+3, 3.0398282e+2, -33614.723, -84951.805, 3.6874893, 0.0008752039, 0.00025591796, -33614.723, -33614.723, 0.0, 10.006485, 9.938914 
5.775472e+3, 3.139236e+2, -32568.459, -82766.11, -7.1131577, 0.0008746768, 0.000017058073, -32568.457, -32568.457, 0.0, 10.00648, 9.9403925 
5.785497e+3, 1.2510476e+2, -1711484.8, -1723074.3, 5.5104575, 0.0008929734, 0.00018486886, -1711484.8, 2489.6528, 0.0, 10.006767, 9.991406 
5.7854956e+3, 1.3509603e+2, -1614158.9, -1626332.6, -6.8193097, 0.00089225103, 0.0000041343246, -1614158.9, 1901.2141, 0.0, 10.006757, 9.990623 
5.7854944e+3, 1.4508073e+2, -1526106.3, -1547098.3, 0.11004418, 0.00089140795, 0.0002645752, -1526106.3, -7896.355, 0.0, 10.006747, 9.978937 
5.785493e+3, 1.5505965e+2, -1428429.6, -1449818.1, -12.766248, 0.00089043233, 0.00007519379, -1428429.6, -8013.1133, 0.0, 10.006739, 9.978406 
5.785492e+3, 1.6503195e+2, -1340414.4, -1370979.8, -6.4337335, 0.000889863, 0.00015685492, -1340414.4, -17726.465, 0.0, 10.006729, 9.966328 
5.7854915e+3, 1.7499834e+2, -1242508.3, -1273382.9, -18.302435, 0.00088969583, 0.00005266625, -1242508.3, -17490.906, 0.0, 10.00672, 9.965915 
5.7854897e+3, 1.8495801e+2, -1154574.3, -1195040.3, -10.078022, 0.00088912604, 0.00019613201, -1154574.3, -27161.744, 0.0, 10.006711, 9.953346 
5.7854885e+3, 1.9491138e+2, -1056473.6, -1097196.6, -22.913185, 0.00088814594, 0.00006171591, -1056473.6, -26604.223, 0.0, 10.006702, 9.953002 
5.785488e+3, 2.048581e+2, -968354.6, -1018853.1, -10.458528, 0.0008875395, 0.00018173753, -968354.6, -35963.0, 0.0, 10.006695, 9.940232 
5.7854867e+3, 2.1479836e+2, -870115.3, -920870.1, -23.362112, 0.0008873227, -0.000013587814, -870115.3, -35138.316, 0.0, 10.006687, 9.939891 
5.785486e+3, 2.2473192e+2, -781874.75, -842662.5, -9.428582, 0.00088685617, 0.00023161311, -781874.75, -44246.754, 0.0, 10.006679, 9.926838 
5.785485e+3, 2.3465882e+2, -683488.2, -744525.94, -21.786695, 0.000886113, 0.000017063296, -683488.2, -43143.832, 0.0, 10.006672, 9.926506 
5.785484e+3, 2.4457876e+2, -595208.0, -666634.94, -6.926638, 0.00088553544, 0.00017678407, -595208.0, -52079.168, 0.0, 10.006664, 9.913054 
5.785483e+3, 2.5449196e+2, -496500.84, -568000.6, -19.194021, 0.00088514807, -0.000007235372, -496500.84, -50521.133, 0.0, 10.006658, 9.912954 
5.785482e+3, 2.64398e+2, -408317.28, -490721.38, -2.9810252, 0.0008847356, 0.00023651167, -408317.28, -59417.14, 0.0, 10.006652, 9.898858 
5.7854813e+3, 2.7429742e+2, -309077.72, -391150.6, -14.49496, 0.00088428863, -0.00011236461, -309077.72, -57191.785, 0.0, 10.006645, 9.899277 
5.785481e+3, 2.8418866e+2, -222547.95, -317716.97, 1.1431687, 0.0008838227, 0.00031733053, -222547.95, -67596.11, 0.0, 10.0066395, 9.882447 
5.78548e+3, 2.9407218e+2, -122879.59, -217426.45, -9.790544, 0.000883329, -0.0001651391, -122879.59, -64786.137, 0.0, 10.006634, 9.883235 
5.785479e+3, 3.0398345e+2, -33429.145, -84902.52, 5.173636, 0.0008827903, 0.00025665842, -33429.145, -33429.145, 0.0, 10.006629, 9.938879 
5.7854784e+3, 3.139242e+2, -32383.74, -82717.586, -5.0969076, 0.00088218425, 0.000017061766, -32383.74, -32383.74, 0.0, 10.006624, 9.940356 
5.795504e+3, 1.2510602e+2, -1711510.8, -1723126.6, 1.7304053, 0.0009011489, 0.00018446698, -1711510.8, 2451.3372, 0.0, 10.006769, 9.991374 
5.7955027e+3, 1.3509725e+2, -1614184.5, -1626384.8, -10.613684, 0.0008995282, 0.000005622888, -1614184.5, 1863.5657, 0.0, 10.006759, 9.99059 
5.7955015e+3, 1.4508192e+2, -1526132.6, -1547152.0, -3.255461, 0.0008985807, 0.00026624245, -1526132.6, -7934.4087, 0.0, 10.006749, 9.978903 
5.7955e+3, 1.5506081e+2, -1428455.8, -1449871.6, -16.11138, 0.000898266, 0.000075388256, -1428455.8, -8050.568, 0.0, 10.006741, 9.978372 
5.795499e+3, 1.6503309e+2, -1340437.9, -1371028.5, -9.87979, 0.0008977461, 0.00015676314, -1340437.9, -17760.977, 0.0, 10.006731, 9.966297 
5.7954973e+3, 1.7499942e+2, -1242531.4, -1273431.3, -21.753832, 0.0008970287, 0.000053451844, -1242531.4, -17524.768, 0.0, 10.0067215, 9.965883 
5.795497e+3, 1.8495905e+2, -1154599.4, -1195092.8, -13.147224, 0.0008964887, 0.00019710138, -1154599.4, -27197.25, 0.0, 10.006713, 9.953312 
5.7954955e+3, 1.9491242e+2, -1056498.5, -1097248.9, -25.990852, 0.0008961229, 0.00006217056, -1056498.5, -26639.13, 0.0, 10.006704, 9.952969 
5.795495e+3, 2.0485908e+2, -968379.9, -1018906.3, -13.36133, 0.00089545536, 0.00018212038, -968379.9, -35997.957, 0.0, 10.006697, 9.940197 
5.795494e+3, 2.1479931e+2, -870140.2, -920923.06, -26.251534, 0.0008944711, -0.000012813957, -870140.2, -35172.625, 0.0, 10.006688, 9.939856 
5.7954925e+3, 2.2473285e+2, -781898.94, -842714.4, -12.191729, 0.00089396583, 0.00023236465, -781898.94, -44280.008, 0.0, 10.0066805, 9.926804 
5.795492e+3, 2.3465972e+2, -683512.06, -744577.4, -24.559828, 0.00089398253, 0.000017339791, -683512.06, -43176.42, 0.0, 10.006673, 9.926473 
5.795491e+3, 2.4457961e+2, -595232.25, -666687.5, -9.346171, 0.0008935987, 0.00017699398, -595232.25, -52111.79, 0.0, 10.006666, 9.91302 
5.7954895e+3, 2.5449276e+2, -496524.78, -568052.94, -21.591341, 0.000892748, -0.000006618498, -496524.78, -50553.137, 0.0, 10.0066595, 9.912919 
5.795489e+3, 2.643988e+2, -408340.63, -490772.72, -5.208363, 0.0008920383, 0.00023730518, -408340.63, -59448.195, 0.0, 10.006653, 9.898824 
5.795488e+3, 2.742982e+2, -309100.72, -391201.6, -16.731033, 0.00089150073, -0.00011167994, -309100.72, -57222.16, 0.0, 10.006647, 9.899242 
5.795487e+3, 2.8418937e+2, -222570.66, -317767.72, -0.9021555, 0.00089119264, 0.00031773216, -222570.66, -67625.86, 0.0, 10.006641, 9.882413 
5.7954866e+3, 2.9407284e+2, -122901.98, -217476.86, -11.788437, 0.0008911883, -0.00016525375, -122901.98, -64815.223, 0.0, 10.006636, 9.883201 
5.795486e+3, 3.0398414e+2, -33451.99, -84954.03, 3.4050882, 0.0008907208, 0.000256666, -33451.99, -33451.99, 0.0, 10.006631, 9.938843 
5.7954854e+3, 3.1392482e+2, -32406.662, -82769.27, -6.8987155, 0.0008895756, 0.000018124936, -32406.66, -32406.66, 0.0, 10.006625, 9.94032 
5.805511e+3, 1.2510729e+2, -1711290.6, -1723048.0, 5.848755, 0.000908887, 0.00018497604, -1711290.6, 2659.0808, 0.0, 10.006923, 9.99134 
5.805509e+3, 1.3509849e+2, -1613965.0, -1626307.0, -7.1186895, 0.0009069958, 0.000006459525, -1613965.0, 2070.9324, 0.0, 10.006913, 9.990556 
5.8055085e+3, 1.4508313e+2, -1525914.8, -1547075.6, 0.09349552, 0.00090607203, 0.00026711766, -1525914.8, -7728.374, 0.0, 10.006903, 9.9788685 
5.805507e+3, 1.5506196e+2, -1428241.1, -1449797.5, -12.650499, 0.0009060641, 0.00007602235, -1428241.1, -7847.405, 0.0, 10.006892, 9.978337 
5.805506e+3, 1.650342e+2, -1340222.8, -1370952.0, -6.21673, 0.00090555596, 0.00015727211, -1340222.8, -17557.082, 0.0, 10.006883, 9.966265 
5.8055043e+3, 1.7500053e+2, -1242316.9, -1273355.5, -18.330284, 0.0009045612, 0.00005394976, -1242316.9, -17321.121, 0.0, 10.006874, 9.965851 
5.805503e+3, 1.8496014e+2, -1154388.4, -1195022.6, -9.899176, 0.00090395816, 0.00019768244, -1154388.4, -26996.8, 0.0, 10.006865, 9.953278 
5.8055025e+3, 1.9491345e+2, -1056290.0, -1097180.6, -23.12488, 0.00090374507, 0.000062929474, -1056290.0, -26440.814, 0.0, 10.006856, 9.952933 
5.8055013e+3, 2.0486009e+2, -968173.2, -1018839.6, -10.371959, 0.0009031482, 0.00018282411, -968173.1, -35801.094, 0.0, 10.006846, 9.940163 
5.8055e+3, 2.148003e+2, -869935.06, -920857.7, -23.238308, 0.0009021486, -0.000012408747, -869935.06, -34976.996, 0.0, 10.006839, 9.939821 
5.805499e+3, 2.2473378e+2, -781695.06, -842650.2, -9.229414, 0.00090159057, 0.00023275668, -781695.06, -44085.29, 0.0, 10.006831, 9.926769 
5.805498e+3, 2.3466061e+2, -683309.7, -744514.56, -22.040644, 0.0009015137, 0.00001803109, -683309.7, -42982.855, 0.0, 10.006823, 9.926437 
5.805497e+3, 2.4458049e+2, -595031.3, -666626.06, -6.7768054, 0.00090111746, 0.00017767046, -595031.3, -51919.363, 0.0, 10.006816, 9.912985 
5.8054966e+3, 2.544936e+2, -496325.84, -567993.06, -19.046188, 0.00090034853, -0.000006321045, -496325.84, -50362.316, 0.0, 10.006808, 9.912885 
5.8054954e+3, 2.643996e+2, -408143.25, -490714.38, -2.7003748, 0.0008996697, 0.00023762119, -408143.25, -59258.613, 0.0, 10.006802, 9.898789 
5.805495e+3, 2.7429894e+2, -308904.97, -391144.63, -14.769094, 0.0008991, -0.00011085217, -308904.97, -57033.867, 0.0, 10.006795, 9.899207 
5.805494e+3, 2.841901e+2, -222375.03, -317709.56, 1.1110852, 0.00089877215, 0.00031849265, -222375.03, -67437.35, 0.0, 10.006789, 9.88238 
5.805493e+3, 2.9407355e+2, -122708.04, -217419.97, -9.319899, 0.0008987649, -0.00016533665, -122708.04, -64628.06, 0.0, 10.0067835, 9.883167 
5.8054924e+3, 3.0398476e+2, -33263.18, -84904.58, 5.8321047, 0.00089826476, 0.00025656723, -33263.18, -33263.18, 0.0, 10.006778, 9.938806 
5.805492e+3, 3.1392542e+2, -32218.371, -82720.53, -5.773363, 0.000897043, 0.00001922134, -32218.371, -32218.371, 0.0, 10.006772, 9.940282 
5.8155173e+3, 1.2510858e+2, -1711317.9, -1723103.1, 2.1571524, 0.0009162775, 0.00018623537, -1711317.9, 2619.1833, 0.0, 10.006925, 9.991304 
5.815516e+3, 1.3509974e+2, -1613992.1, -1626361.9, -10.7739315, 0.0009146344, 0.0000067598153, -1613992.1, 2031.6285, 0.0, 10.006915, 9.990521 
5.815515e+3, 1.4508435e+2, -1525940.9, -1547128.9, -3.7419844, 0.00091383915, 0.00026734156, -1525940.9, -7766.315, 0.0, 10.006905, 9.978834 
5.815514e+3, 1.5506315e+2, -1428266.8, -1449850.3, -16.507141, 0.0009138437, 0.000077019744, -1428266.8, -7884.6084, 0.0, 10.006894, 9.978303 
5.8155125e+3, 1.6503537e+2, -1340246.6, -1371001.6, -9.530325, 0.0009133161, 0.0001582775, -1340246.6, -17592.154, 0.0, 10.006885, 9.966233 
5.815512e+3, 1.7500165e+2, -1242340.5, -1273405.0, -21.633888, 0.0009122713, 0.00005421302, -1242340.5, -17355.65, 0.0, 10.006876, 9.965819 
5.81551e+3, 1.8496123e+2, -1154414.3, -1195076.8, -13.296428, 0.0009115293, 0.00019794532, -1154414.3, -27033.291, 0.0, 10.006866, 9.953242 
5.8155096e+3, 1.9491449e+2, -1056315.5, -1097234.4, -26.519024, 0.00091108715, 0.000063938736, -1056315.5, -26476.605, 0.0, 10.006858, 9.952899 
5.8155084e+3, 2.048611e+2, -968198.2, -1018892.6, -13.375492, 0.0009106689, 0.00018379212, -968198.2, -35836.01, 0.0, 10.006848, 9.940127 
5.8155066e+3, 2.1480127e+2, -869959.8, -920910.44, -26.246912, 0.00091027404, -0.000012304715, -869959.8, -35011.29, 0.0, 10.006841, 9.939787 
5.815506e+3, 2.2473472e+2, -781720.06, -842703.8, -12.095026, 0.00090965186, 0.00023285528, -781720.06, -44119.53, 0.0, 10.006832, 9.926734 
5.815505e+3, 2.3466152e+2, -683334.4, -744567.9, -24.89853, 0.0009087779, 0.000019064377, -683334.4, -43016.426, 0.0, 10.0068245, 9.926402 
5.815504e+3, 2.4458136e+2, -595055.56, -666678.75, -9.393902, 0.0009081995, 0.00017873135, -595055.56, -51952.105, 0.0, 10.006817, 9.9129505 
5.8155036e+3, 2.5449443e+2, -496349.72, -568045.4, -21.659433, 0.00090796145, -0.000006284292, -496349.72, -50394.39, 0.0, 10.00681, 9.912849 
5.8155024e+3, 2.644004e+2, -408167.56, -490767.84, -5.057864, 0.0009075842, 0.00023754592, -408167.56, -59290.754, 0.0, 10.0068035, 9.898753 
5.815501e+3, 2.742997e+2, -308929.0, -391197.84, -17.102768, 0.00090703083, -0.00010990813, -308929.0, -57065.383, 0.0, 10.006797, 9.899171 
5.815501e+3, 2.8419083e+2, -222396.89, -317758.7, -1.0772632, 0.0009065365, 0.00031954792, -222396.89, -67466.36, 0.0, 10.006791, 9.882346 
5.8155e+3, 2.9407424e+2, -122729.39, -217468.44, -11.5276575, 0.0009061194, -0.00016538745, -122729.39, -64656.242, 0.0, 10.006784, 9.883135 
5.8154994e+3, 3.0398545e+2, -33288.152, -84960.71, 3.964536, 0.0009055007, 0.0002563865, -33288.152, -33288.152, 0.0, 10.00678, 9.9387665 
5.815499e+3, 3.1392604e+2, -32243.807, -82777.586, -7.5564804, 0.0009045856, 0.000020340267, -32243.805, -32243.805, 0.0, 10.006774, 9.940243 
5.8255243e+3, 1.2510987e+2, -1711092.8, -1723022.0, 5.9167295, 0.0009237303, 0.00018722561, -1711092.8, 2831.6438, 0.0, 10.007082, 9.991271 
5.825524e+3, 1.3510099e+2, -1613770.5, -1626283.1, -6.587215, 0.00092257, 0.0000071249406, -1613770.5, 2240.9001, 0.0, 10.007071, 9.990487 
5.825522e+3, 1.4508557e+2, -1525721.4, -1547052.6, 0.5756568, 0.00092177966, 0.00026762037, -1525721.4, -7558.861, 0.0, 10.00706, 9.9788 
5.825521e+3, 1.5506434e+2, -1428047.5, -1449774.8, -12.879138, 0.0009213287, 0.000077730096, -1428047.5, -7677.0034, 0.0, 10.00705, 9.978269 
5.8255196e+3, 1.6503651e+2, -1340026.3, -1370922.6, -6.0951233, 0.0009207651, 0.00015913589, -1340026.3, -17383.148, 0.0, 10.00704, 9.966201 
5.8255184e+3, 1.7500278e+2, -1242123.3, -1273328.3, -18.24406, 0.0009200948, 0.000054941895, -1242123.3, -17149.422, 0.0, 10.00703, 9.965787 
5.825517e+3, 1.8496232e+2, -1154201.3, -1195006.4, -9.778957, 0.0009194033, 0.00019852803, -1154201.3, -26830.945, 0.0, 10.00702, 9.953207 
5.825516e+3, 1.9491555e+2, -1056103.3, -1097164.9, -23.151438, 0.00091868587, 0.000064358865, -1056103.3, -26274.707, 0.0, 10.007011, 9.952864 
5.8255154e+3, 2.0486212e+2, -967987.2, -1018824.3, -10.08834, 0.0009182127, 0.0001842609, -967987.1, -35634.996, 0.0, 10.007002, 9.940093 
5.825514e+3, 2.1480225e+2, -869751.25, -920843.9, -23.339424, 0.00091799296, -0.000011567116, -869751.25, -34812.348, 0.0, 10.006993, 9.939752 
5.825513e+3, 2.2473568e+2, -781513.2, -842638.9, -9.127216, 0.000917404, 0.00023357978, -781513.2, -43921.96, 0.0, 10.006985, 9.926699 
5.8255124e+3, 2.3466243e+2, -683128.75, -744504.2, -22.044685, 0.00091640797, 0.000019467623, -683128.75, -42819.773, 0.0, 10.006977, 9.926367 
5.825511e+3, 2.4458225e+2, -594851.1, -666616.06, -6.5788236, 0.0009157814, 0.00017911519, -594851.1, -51756.27, 0.0, 10.006969, 9.912915 
5.82551e+3, 2.5449526e+2, -496147.2, -567984.25, -19.146574, 0.00091558095, -0.0000055705145, -496147.16, -50200.094, 0.0, 10.006962, 9.912814 
5.8255094e+3, 2.6440123e+2, -407966.88, -490708.63, -2.4748054, 0.0009152517, 0.00023821011, -407966.88, -59097.99, 0.0, 10.006954, 9.898718 
5.825508e+3, 2.743005e+2, -308730.34, -391140.25, -14.53282, 0.0009147589, -0.000109763256, -308730.34, -56874.28, 0.0, 10.0069475, 9.899136 
5.8255076e+3, 2.8419155e+2, -222198.2, -317699.72, 1.4294497, 0.000914235, 0.00031974824, -222198.2, -67274.91, 0.0, 10.006941, 9.882312 
5.825507e+3, 2.9407495e+2, -122531.75, -217410.44, -9.793987, 0.000913668, -0.00016436384, -122531.75, -64465.49, 0.0, 10.006935, 9.8831005 
5.8255064e+3, 3.039861e+2, -33095.59, -84910.055, 5.6710825, 0.0009130176, 0.00025737908, -33095.59, -33095.59, 0.0, 10.006929, 9.938729 
5.825505e+3, 3.1392667e+2, -32052.596, -82728.05, -5.120567, 0.0009122432, 0.000020058216, -32052.594, -32052.594, 0.0, 10.006924, 9.940205 
5.835532e+3, 1.2511118e+2, -1711119.0, -1723075.1, 1.688668, 0.00093124923, 0.00018799408, -1711119.0, 2792.5913, 0.0, 10.007084, 9.991237 
5.83553e+3, 1.3510226e+2, -1613796.4, -1626336.0, -10.842474, 0.0009307587, 0.000007547655, -1613796.4, 2202.5686, 0.0, 10.007072, 9.990454 
5.8355296e+3, 1.4508681e+2, -1525748.9, -1547108.8, -3.0629206, 0.0009298721, 0.00026794928, -1525748.9, -7598.4546, 0.0, 10.007062, 9.978764 
5.835528e+3, 1.5506554e+2, -1428074.8, -1449830.5, -16.489075, 0.0009285877, 0.00007820588, -1428074.8, -7715.962, 0.0, 10.007051, 9.978232 
5.8355266e+3, 1.6503769e+2, -1340050.3, -1370972.5, -9.858706, 0.0009279748, 0.00015987296, -1340050.3, -17418.47, 0.0, 10.007042, 9.966169 
5.8355254e+3, 1.750039e+2, -1242146.9, -1273377.8, -22.017893, 0.00092802243, 0.000056052842, -1242146.9, -17184.088, 0.0, 10.007031, 9.965755 
5.835524e+3, 1.849634e+2, -1154227.4, -1195061.0, -13.090171, 0.000927536, 0.00019937444, -1154227.4, -26867.791, 0.0, 10.007022, 9.953172 
5.835523e+3, 1.949166e+2, -1056129.1, -1097219.3, -26.457298, 0.0009265083, 0.000064298765, -1056129.1, -26310.928, 0.0, 10.007013, 9.952828 
5.835522e+3, 2.0486315e+2, -968012.94, -1018878.9, -13.412055, 0.0009257892, 0.00018432278, -968012.94, -35670.844, 0.0, 10.007004, 9.940057 
5.835521e+3, 2.1480323e+2, -869776.6, -920898.1, -26.665815, 0.00092539046, -0.000010309706, -869776.6, -34847.484, 0.0, 10.006995, 9.939715 
5.83552e+3, 2.2473663e+2, -781538.3, -842692.94, -12.021524, 0.0009249145, 0.00023481747, -781538.3, -43956.465, 0.0, 10.006987, 9.926662 
5.835519e+3, 2.3466337e+2, -683153.6, -744557.9, -24.92578, 0.0009243509, 0.000019355848, -683153.56, -42853.645, 0.0, 10.006979, 9.9263315 
5.835518e+3, 2.4458313e+2, -594875.9, -666669.94, -9.378109, 0.00092378637, 0.00017894577, -594875.9, -51789.707, 0.0, 10.006971, 9.912879 
5.835517e+3, 2.5449613e+2, -496171.6, -568037.75, -21.951178, 0.0009232184, -0.000004300785, -496171.6, -50232.848, 0.0, 10.006964, 9.912778 
5.835516e+3, 2.6440203e+2, -407991.13, -490762.2, -5.058031, 0.00092272845, 0.0002394816, -407991.13, -59130.215, 0.0, 10.006956, 9.898682 
5.835515e+3, 2.7430123e+2, -308754.22, -391193.44, -17.102736, 0.0009223317, -0.00011027104, -308754.22, -56905.793, 0.0, 10.006949, 9.899099 
5.8355147e+3, 2.8419232e+2, -222221.38, -317751.78, -0.7612454, 0.00092189095, 0.00031924972, -222221.38, -67305.35, 0.0, 10.006943, 9.8822775 
5.8355135e+3, 2.9407567e+2, -122554.6, -217462.1, -11.944464, 0.00092138915, -0.00016246038, -122554.6, -64495.285, 0.0, 10.006937, 9.883065 
5.8355135e+3, 3.039868e+2, -33119.39, -84963.81, 3.5911953, 0.00092077855, 0.00025933253, -33119.39, -33119.39, 0.0, 10.006931, 9.938692 
5.835513e+3, 3.139273e+2, -32076.518, -82782.08, -7.218229, 0.00092000683, 0.000018630575, -32076.516, -32076.516, 0.0, 10.006926, 9.940167 
5.845539e+3, 1.2511249e+2, -1710892.3, -1722994.0, 6.2814054, 0.00093925215, 0.00018822827, -1710892.3, 3006.4846, 0.0, 10.007242, 9.991202 
5.845538e+3, 1.3510355e+2, -1613569.9, -1626255.5, -7.0980434, 0.0009382415, 0.00000861727, -1613569.9, 2416.5798, 0.0, 10.007231, 9.990418 
5.845536e+3, 1.4508806e+2, -1525524.0, -1547030.3, 0.6528506, 0.0009373421, 0.00026908368, -1525524.0, -7385.8115, 0.0, 10.00722, 9.978728 
5.8455354e+3, 1.5506676e+2, -1427852.9, -1449754.1, -12.504497, 0.0009365318, 0.000078663434, -1427852.9, -7505.986, 0.0, 10.007209, 9.978197 
5.8455336e+3, 1.6503887e+2, -1339827.8, -1370893.3, -5.8172326, 0.0009359513, 0.00016017466, -1339827.8, -17207.576, 0.0, 10.007199, 9.966136 
5.8455324e+3, 1.7500505e+2, -1241925.3, -1273299.5, -18.419987, 0.0009355999, 0.000056708173, -1241925.3, -16973.758, 0.0, 10.007189, 9.965722 
5.845531e+3, 1.8496452e+2, -1154009.6, -1194988.5, -9.553649, 0.00093507546, 0.00020015298, -1154009.6, -26660.883, 0.0, 10.007179, 9.953136 
5.84553e+3, 1.949177e+2, -1055913.9, -1097148.8, -23.06755, 0.00093437213, 0.00006496905, -1055913.9, -26106.293, 0.0, 10.007169, 9.952792 
5.8455294e+3, 2.0486417e+2, -967799.5, -1018810.25, -9.979216, 0.00093367934, 0.00018491196, -967799.5, -35467.586, 0.0, 10.007159, 9.940021 
5.8455276e+3, 2.1480425e+2, -869564.06, -920830.44, -23.485937, 0.00093299604, -0.00000977311, -869564.06, -34644.707, 0.0, 10.007151, 9.93968 
5.845527e+3, 2.247376e+2, -781326.94, -842626.1, -8.852796, 0.00093248335, 0.00023534066, -781326.94, -43754.504, 0.0, 10.007142, 9.926627 
5.845526e+3, 2.3466429e+2, -682944.8, -744493.0, -21.909925, 0.0009321541, 0.000019908202, -682944.8, -42653.95, 0.0, 10.0071335, 9.926295 
5.8455247e+3, 2.4458402e+2, -594669.06, -666607.06, -6.3378406, 0.00093165936, 0.00017948874, -594669.06, -51591.676, 0.0, 10.007125, 9.912843 
5.845524e+3, 2.54497e+2, -495966.16, -567976.2, -19.2625, 0.0009309704, -0.0000038117103, -495966.13, -50035.8, 0.0, 10.007117, 9.912742 
5.8455235e+3, 2.6440287e+2, -407786.53, -490701.38, -2.4248874, 0.00093037053, 0.00024002026, -407786.53, -58933.668, 0.0, 10.00711, 9.898645 
5.845522e+3, 2.7430204e+2, -308551.0, -391133.9, -14.663166, 0.00092987745, -0.000109554705, -308551.0, -56710.26, 0.0, 10.007103, 9.899063 
5.8455217e+3, 2.8419307e+2, -222018.89, -317691.97, 1.7716311, 0.00092948053, 0.00031985037, -222018.89, -67110.2, 0.0, 10.007095, 9.882242 
5.845521e+3, 2.9407635e+2, -122354.7, -217404.08, -9.407447, 0.00092920935, -0.00016236778, -122354.7, -64302.39, 0.0, 10.007089, 9.883031 
5.84552e+3, 3.0398744e+2, -32924.56, -84912.27, 6.0460825, 0.0009286408, 0.00025943137, -32924.56, -32924.56, 0.0, 10.007082, 9.938654 
5.8455193e+3, 3.1392795e+2, -31882.055, -82731.086, -5.4236097, 0.0009276356, 0.000019487394, -31882.055, -31882.055, 0.0, 10.007076, 9.940129 
5.855546e+3, 1.2511382e+2, -1710920.4, -1723050.9, 2.2579765, 0.00094765844, 0.00018803442, -1710920.4, 2965.3489, 0.0, 10.007244, 9.991166 
5.855545e+3, 1.3510485e+2, -1613597.6, -1626312.1, -11.094453, 0.00094516587, 0.000010210919, -1613597.6, 2376.084, 0.0, 10.007233, 9.990382 
5.8555436e+3, 1.4508931e+2, -1525550.9, -1547085.1, -3.408784, 0.0009443223, 0.00027086987, -1525550.9, -7424.9307, 0.0, 10.007222, 9.978693 
5.8555424e+3, 1.5506798e+2, -1427879.4, -1449808.6, -16.575638, 0.000945045, 0.00007910883, -1427879.4, -7544.4067, 0.0, 10.007212, 9.978163 
5.855541e+3, 1.6504006e+2, -1339852.6, -1370944.9, -9.514124, 0.0009445625, 0.0001601262, -1339852.6, -17243.994, 0.0, 10.007201, 9.966103 
5.8555394e+3, 1.750062e+2, -1241949.8, -1273350.9, -22.100502, 0.0009429066, 0.00005699352, -1241949.8, -17009.545, 0.0, 10.007191, 9.965689 
5.855539e+3, 1.8496564e+2, -1154035.9, -1195043.8, -13.215451, 0.00094214675, 0.0002008764, -1154035.9, -26698.15, 0.0, 10.007181, 9.9531 
5.8555377e+3, 1.9491878e+2, -1055939.9, -1097203.6, -26.741783, 0.00094228174, 0.00006623583, -1055939.9, -26142.865, 0.0, 10.007171, 9.952757 
5.855536e+3, 2.0486523e+2, -967825.7, -1018865.8, -13.2251215, 0.0009418366, 0.00018593234, -967825.7, -35504.023, 0.0, 10.007162, 9.939984 
5.855535e+3, 2.1480525e+2, -869589.94, -920885.75, -26.713968, 0.0009407852, -0.000009823184, -869589.94, -34680.5, 0.0, 10.007153, 9.939644 
5.855534e+3, 2.2473857e+2, -781352.3, -842680.75, -12.10354, 0.0009401141, 0.00023528267, -781352.3, -43789.445, 0.0, 10.007144, 9.926591 
5.8555335e+3, 2.3466522e+2, -682969.8, -744547.25, -25.177649, 0.00093985535, 0.000021004493, -682969.8, -42688.168, 0.0, 10.007135, 9.92626 
5.855532e+3, 2.4458493e+2, -594694.4, -666662.3, -9.201633, 0.00093943614, 0.00018061457, -594694.4, -51625.836, 0.0, 10.007127, 9.9128065 
5.855531e+3, 2.5449786e+2, -495991.2, -568031.1, -22.094221, 0.00093882857, -0.000003959152, -495991.16, -50069.305, 0.0, 10.007119, 9.912705 
5.8555305e+3, 2.644037e+2, -407811.1, -490755.72, -5.036666, 0.0009381607, 0.00023996137, -407811.1, -58966.36, 0.0, 10.007112, 9.898609 
5.8555293e+3, 2.7430284e+2, -308575.25, -391187.88, -17.28116, 0.00093741494, -0.00010783786, -308575.25, -56742.273, 0.0, 10.007105, 9.899027 
5.855529e+3, 2.841938e+2, -222042.03, -317744.06, -0.79488957, 0.0009370293, 0.00032134977, -222042.03, -67140.76, 0.0, 10.007097, 9.882207 
5.855528e+3, 2.940771e+2, -122377.4, -217455.66, -11.955589, 0.00093712204, -0.00016375221, -122377.4, -64332.137, 0.0, 10.007091, 9.882996 
5.8555275e+3, 3.0398813e+2, -32949.375, -84968.42, 3.9071972, 0.0009365968, 0.0002580178, -32949.375, -32949.375, 0.0, 10.007084, 9.938615 
5.8555263e+3, 3.1392857e+2, -31907.16, -82787.81, -7.5390034, 0.00093516696, 0.00002221171, -31907.158, -31907.158, 0.0, 10.007078, 9.940089 
5.8655536e+3, 1.2511516e+2, -1710688.4, -1722967.6, 6.3791556, 0.0009552093, 0.00018902146, -1710688.4, 3184.2212, 0.0, 10.007406, 9.991131 
5.8655524e+3, 1.3510615e+2, -1613368.4, -1626231.0, -6.7571244, 0.0009531098, 0.000010718388, -1613368.4, 2592.5754, 0.0, 10.007394, 9.990347 
5.8655506e+3, 1.4509058e+2, -1525323.5, -1547005.6, 0.88951534, 0.000952312, 0.00027131158, -1525323.5, -7209.985, 0.0, 10.007382, 9.978658 
5.8655494e+3, 1.550692e+2, -1427653.5, -1449730.5, -12.755762, 0.0009527468, 0.000079880796, -1427653.5, -7330.6597, 0.0, 10.007371, 9.978127 
5.865548e+3, 1.6504124e+2, -1339626.0, -1370864.0, -5.562927, 0.00095223734, 0.00016092206, -1339626.0, -17029.178, 0.0, 10.00736, 9.966069 
5.865547e+3, 1.7500737e+2, -1241725.1, -1273271.5, -18.106264, 0.000950809, 0.000057514346, -1241725.1, -16796.277, 0.0, 10.00735, 9.965656 
5.865546e+3, 1.8496677e+2, -1153815.1, -1194970.6, -9.3270445, 0.00095003843, 0.00020136662, -1153815.1, -26488.477, 0.0, 10.00734, 9.953064 
5.8655447e+3, 1.9491985e+2, -1055720.5, -1097131.9, -23.310373, 0.00094992365, 0.000066941, -1055720.5, -25934.197, 0.0, 10.00733, 9.952721 
5.8655435e+3, 2.0486629e+2, -967607.8, -1018795.2, -9.749557, 0.000949484, 0.00018664412, -967607.8, -35296.473, 0.0, 10.00732, 9.939948 
5.865542e+3, 2.1480627e+2, -869374.6, -920817.0, -23.230066, 0.0009487038, -0.00000932218, -869374.56, -34475.145, 0.0, 10.007311, 9.939608 
5.8655417e+3, 2.2473957e+2, -781138.7, -842613.9, -8.636367, 0.0009480638, 0.00023577441, -781138.7, -43585.48, 0.0, 10.007301, 9.926555 
5.8655405e+3, 2.3466617e+2, -682757.1, -744481.44, -22.213345, 0.00094757386, 0.000021707543, -682757.1, -42484.758, 0.0, 10.007293, 9.926223 
5.8655393e+3, 2.4458583e+2, -594482.75, -666597.4, -6.237254, 0.00094707974, 0.00018129722, -594482.75, -51423.105, 0.0, 10.007284, 9.912769 
5.865539e+3, 2.5449872e+2, -495781.72, -567967.9, -19.049881, 0.000946578, -0.0000035655028, -495781.72, -49868.418, 0.0, 10.007276, 9.912669 
5.8655375e+3, 2.644045e+2, -407603.8, -490694.75, -1.9398196, 0.00094598654, 0.00024029336, -407603.8, -58767.285, 0.0, 10.007268, 9.898572 
5.8655363e+3, 2.7430362e+2, -308370.03, -391128.56, -14.716021, 0.0009452804, -0.00010728541, -308370.03, -56544.91, 0.0, 10.00726, 9.89899 
5.8655363e+3, 2.841946e+2, -221836.47, -317682.72, 1.6905258, 0.00094483607, 0.00032198377, -221836.47, -66942.68, 0.0, 10.007253, 9.882172 
5.865535e+3, 2.940778e+2, -122172.76, -217395.2, -9.414154, 0.0009447391, -0.00016322441, -122172.75, -64134.633, 0.0, 10.007246, 9.88296 
5.865534e+3, 3.0398884e+2, -32750.35, -84916.58, 6.450464, 0.0009441975, 0.00025847182, -32750.35, -32750.35, 0.0, 10.007239, 9.938576 
5.865534e+3, 3.1392926e+2, -31709.38, -82737.13, -5.546961, 0.00094300334, 0.000022644017, -31709.379, -31709.379, 0.0, 10.007233, 9.940049 
5.875561e+3, 1.2511651e+2, -1710716.0, -1723023.5, 2.0169113, 0.0009620858, 0.00019095952, -1710716.0, 3143.423, 0.0, 10.007408, 9.991096 
5.8755594e+3, 1.3510746e+2, -1613395.8, -1626286.5, -11.118403, 0.00096189085, 0.000010350927, -1613395.6, 2552.44, 0.0, 10.007396, 9.990312 
5.875558e+3, 1.4509186e+2, -1525351.4, -1547062.6, -3.2595584, 0.0009611294, 0.00027067083, -1525351.4, -7250.3457, 0.0, 10.007384, 9.9786215 
5.875557e+3, 1.5507045e+2, -1427681.0, -1449787.1, -16.897102, 0.00095980585, 0.00008091705, -1427681.0, -7370.2563, 0.0, 10.007374, 9.97809 
5.875556e+3, 1.6504245e+2, -1339650.6, -1370915.4, -9.410111, 0.00095916906, 0.00016240032, -1339650.6, -17065.549, 0.0, 10.007362, 9.966037 
5.875554e+3, 1.7500855e+2, -1241749.4, -1273322.6, -21.961824, 0.0009592068, 0.000058228587, -1241749.4, -16832.07, 0.0, 10.007352, 9.965623 
5.8755535e+3, 1.849679e+2, -1153842.4, -1195027.8, -13.039392, 0.0009586072, 0.0002016711, -1153842.4, -26526.898, 0.0, 10.007342, 9.953027 
5.875552e+3, 1.9492096e+2, -1055747.4, -1097188.6, -27.001646, 0.0009573632, 0.000067191075, -1055747.4, -25971.893, 0.0, 10.007332, 9.952683 
5.8755505e+3, 2.0486735e+2, -967633.9, -1018850.6, -13.321167, 0.00095673284, 0.00018710579, -967633.9, -35332.965, 0.0, 10.007322, 9.939912 
5.87555e+3, 2.148073e+2, -869400.3, -920872.1, -26.825119, 0.0009567396, -0.000008371379, -869400.3, -34510.93, 0.0, 10.007313, 9.939571 
5.875549e+3, 2.2474055e+2, -781165.0, -842670.5, -11.842381, 0.000956284, 0.00023671474, -781165.0, -43621.5, 0.0, 10.007303, 9.9265175 
5.875548e+3, 2.3466712e+2, -682783.1, -744537.8, -25.387547, 0.00095532014, 0.000022091182, -682783.1, -42520.12, 0.0, 10.007295, 9.926186 
5.875547e+3, 2.4458675e+2, -594507.9, -666652.3, -9.332253, 0.0009546296, 0.00018162007, -594507.9, -51457.24, 0.0, 10.007286, 9.912733 
5.875546e+3, 2.544996e+2, -495806.5, -568022.44, -22.165081, 0.00095425267, -0.0000027293386, -495806.5, -49901.82, 0.0, 10.0072775, 9.912632 
5.875545e+3, 2.6440537e+2, -407629.3, -490751.1, -4.7993045, 0.0009538541, 0.00024094578, -407629.3, -58801.047, 0.0, 10.00727, 9.898535 
5.875544e+3, 2.7430445e+2, -308395.22, -391184.7, -17.534472, 0.0009534245, -0.00010767944, -308395.22, -56577.99, 0.0, 10.007262, 9.8989525 
5.875543e+3, 2.8419533e+2, -221859.45, -317734.7, -0.8170913, 0.0009528648, 0.00032191424, -221859.45, -66973.2, 0.0, 10.007255, 9.882136 
5.875543e+3, 2.9407856e+2, -122195.266, -217446.5, -11.938995, 0.0009521297, -0.00016113867, -122195.266, -64164.355, 0.0, 10.007248, 9.882926 
5.8755416e+3, 3.0398953e+2, -32776.117, -84974.77, 4.0798683, 0.0009515234, 0.00026044733, -32776.117, -32776.117, 0.0, 10.007241, 9.938535 
5.875541e+3, 3.1392992e+2, -31735.545, -82796.15, -7.844705, 0.0009511004, 0.000021210679, -31735.543, -31735.543, 0.0, 10.007235, 9.940009 
5.885568e+3, 1.2511787e+2, -1710481.3, -1722939.1, 6.651641, 0.00097010337, 0.00019151282, -1710481.3, 3364.8208, 0.0, 10.007571, 9.991059 
5.885567e+3, 1.3510878e+2, -1613163.1, -1626203.8, -6.7708526, 0.00096979627, 0.0000110740675, -1613163.1, 2771.9448, 0.0, 10.007559, 9.990276 
5.885566e+3, 1.4509314e+2, -1525120.6, -1546982.3, 1.2882588, 0.0009689401, 0.0002713756, -1525120.6, -7032.2925, 0.0, 10.007547, 9.978585 
5.8855647e+3, 1.550717e+2, -1427451.0, -1449707.8, -12.5187645, 0.0009675372, 0.000081422724, -1427451.0, -7152.573, 0.0, 10.007537, 9.978054 
5.885563e+3, 1.6504367e+2, -1339419.6, -1370832.8, -5.279679, 0.0009669119, 0.00016296074, -1339419.6, -16846.586, 0.0, 10.007525, 9.966002 
5.8855623e+3, 1.7500971e+2, -1241521.4, -1273242.1, -18.222435, 0.0009670503, 0.00005909106, -1241521.3, -16615.568, 0.0, 10.007514, 9.965589 
5.8855605e+3, 1.8496905e+2, -1153618.6, -1194953.5, -9.095173, 0.0009665271, 0.00020247632, -1153618.6, -26314.313, 0.0, 10.0075035, 9.952991 
5.8855593e+3, 1.9492207e+2, -1055525.0, -1097115.6, -22.944393, 0.00096533465, 0.000067579116, -1055525.0, -25760.332, 0.0, 10.007493, 9.952646 
5.885558e+3, 2.0486842e+2, -967412.75, -1018779.44, -9.389572, 0.0009646373, 0.00018748043, -967412.75, -35122.43, 0.0, 10.0074835, 9.939875 
5.885557e+3, 2.1480833e+2, -869180.6, -920802.2, -23.544424, 0.00096445426, -0.000007589788, -869180.6, -34301.434, 0.0, 10.007474, 9.939534 
5.8855563e+3, 2.2474155e+2, -780946.75, -842601.6, -8.560593, 0.00096398377, 0.00023752374, -780946.75, -43413.03, 0.0, 10.007463, 9.92648 
5.885555e+3, 2.3466809e+2, -682567.25, -744470.75, -21.93639, 0.00096319563, 0.000022513168, -682567.25, -42313.69, 0.0, 10.007455, 9.926148 
5.885554e+3, 2.4458767e+2, -594293.9, -666587.06, -5.8555694, 0.00096256717, 0.00018200056, -594293.9, -51252.29, 0.0, 10.007445, 9.912696 
5.8855534e+3, 2.5450048e+2, -495593.94, -567958.56, -19.30118, 0.0009621209, -0.0000019907825, -495593.94, -49697.98, 0.0, 10.007437, 9.912595 
5.885552e+3, 2.6440623e+2, -407417.97, -490688.44, -1.9347087, 0.00096166105, 0.00024164736, -407417.97, -58598.06, 0.0, 10.007428, 9.898497 
5.885551e+3, 2.7430525e+2, -308185.6, -391123.47, -14.425156, 0.0009611802, -0.00010750327, -308185.6, -56376.336, 0.0, 10.007421, 9.898915 
5.8855504e+3, 2.8419614e+2, -221650.45, -317673.1, 2.300003, 0.0009606425, 0.00032211855, -221650.45, -66771.82, 0.0, 10.007413, 9.8821 
5.88555e+3, 2.9407927e+2, -121988.32, -217386.45, -9.745546, 0.0009600268, -0.00016016756, -121988.32, -63964.68, 0.0, 10.007405, 9.882889 
5.8855486e+3, 3.0399024e+2, -32574.162, -84921.16, 6.1628723, 0.0009594322, 0.00026143072, -32574.162, -32574.162, 0.0, 10.007398, 9.938496 
5.8855486e+3, 3.1393057e+2, -31534.467, -82743.31, -4.9943457, 0.00095886394, 0.000021109017, -31534.467, -31534.467, 0.0, 10.007391, 9.939969 
5.895576e+3, 1.2511924e+2, -1710509.4, -1722996.1, 2.0342534, 0.0009790506, 0.00019095806, -1710509.4, 3323.1794, 0.0, 10.007573, 9.991023 
5.8955747e+3, 1.3511012e+2, -1613190.9, -1626260.5, -11.391222, 0.0009770105, 0.000012674696, -1613190.9, 2731.0945, 0.0, 10.007561, 9.99024 
5.8955735e+3, 1.4509444e+2, -1525148.6, -1547039.9, -2.7576187, 0.0009759554, 0.00027316195, -1525148.6, -7073.1025, 0.0, 10.007549, 9.978548 
5.895572e+3, 1.5507297e+2, -1427478.9, -1449765.0, -16.550808, 0.00097582507, 0.000081504375, -1427478.9, -7192.7896, 0.0, 10.007539, 9.978017 
5.8955705e+3, 1.6504489e+2, -1339445.1, -1370885.9, -9.506681, 0.0009753223, 0.00016278565, -1339445.1, -16884.082, 0.0, 10.007527, 9.965968 
5.8955693e+3, 1.7501092e+2, -1241546.4, -1273294.8, -22.438301, 0.00097446085, 0.000060072092, -1241546.4, -16652.3, 0.0, 10.007516, 9.965555 
5.895568e+3, 1.8497021e+2, -1153645.4, -1195010.0, -12.836884, 0.00097393757, 0.00020368419, -1153645.4, -26352.467, 0.0, 10.007505, 9.952953 
5.895567e+3, 1.949232e+2, -1055551.5, -1097171.8, -26.705528, 0.00097374787, 0.00006808252, -1055551.5, -25797.844, 0.0, 10.007495, 9.95261 
5.895566e+3, 2.0486951e+2, -967440.2, -1018837.6, -13.031287, 0.00097308395, 0.00018778905, -967440.2, -35160.46, 0.0, 10.007485, 9.9398365 
5.8955646e+3, 2.1480939e+2, -869207.7, -920860.06, -27.157026, 0.00097192475, -0.000006945926, -869207.7, -34338.734, 0.0, 10.007476, 9.939496 
5.8955634e+3, 2.2474255e+2, -780972.6, -842657.56, -12.04072, 0.0009712785, 0.00023822532, -780972.6, -43448.793, 0.0, 10.007466, 9.926443 
5.895563e+3, 2.3466907e+2, -682592.75, -744526.25, -25.441532, 0.00097118854, 0.000022970036, -682592.75, -42348.73, 0.0, 10.007457, 9.926112 
5.8955616e+3, 2.4458863e+2, -594320.1, -666644.4, -9.051495, 0.0009708301, 0.00018243188, -594320.06, -51287.69, 0.0, 10.007447, 9.912658 
5.8955604e+3, 2.545014e+2, -495619.88, -568015.6, -22.461243, 0.00097015867, -0.0000013322549, -495619.88, -49732.715, 0.0, 10.007439, 9.912557 
5.89556e+3, 2.6440707e+2, -407442.97, -490743.9, -4.8958993, 0.00096943276, 0.00024238744, -407442.97, -58631.473, 0.0, 10.00743, 9.898459 
5.8955586e+3, 2.7430606e+2, -308210.2, -391178.5, -17.405758, 0.00096863596, -0.00010686108, -308210.2, -56408.99, 0.0, 10.007422, 9.898878 
5.895558e+3, 2.8419694e+2, -221675.05, -317728.53, -0.46396494, 0.0009682311, 0.00032254905, -221675.05, -66804.11, 0.0, 10.007415, 9.882063 
5.8955574e+3, 2.9408005e+2, -122012.59, -217441.56, -12.442461, 0.0009683465, -0.0001601016, -122012.59, -63996.27, 0.0, 10.007407, 9.882852 
5.895556e+3, 3.0399093e+2, -32598.623, -84976.82, 3.6856098, 0.0009678249, 0.0002616079, -32598.623, -32598.623, 0.0, 10.0074005, 9.9384575 
5.8955556e+3, 3.1393126e+2, -31558.965, -82799.09, -7.5265718, 0.0009663706, 0.00002209264, -31558.963, -31558.963, 0.0, 10.007393, 9.939931 
5.9055835e+3, 1.2512062e+2, -1710271.8, -1722911.3, 6.817411, 0.0009871622, 0.00019166502, -1710271.8, 3547.2493, 0.0, 10.007739, 9.990987 
5.9055823e+3, 1.3511147e+2, -1612953.3, -1626176.1, -7.019102, 0.0009846768, 0.000013328955, -1612953.3, 2955.5781, 0.0, 10.007728, 9.990203 
5.905581e+3, 1.4509577e+2, -1524912.8, -1546957.0, 1.4265333, 0.0009836272, 0.00027385796, -1524912.8, -6850.0054, 0.0, 10.007716, 9.978511 
5.9055793e+3, 1.5507424e+2, -1427246.9, -1449684.9, -12.393499, 0.0009839339, 0.000082331004, -1427246.9, -6973.3667, 0.0, 10.007703, 9.977981 
5.905578e+3, 1.6504614e+2, -1339212.8, -1370803.1, -5.007116, 0.0009834621, 0.00016349614, -1339212.8, -16663.785, 0.0, 10.007691, 9.965935 
5.905577e+3, 1.7501213e+2, -1241313.8, -1273212.5, -18.000048, 0.0009822354, 0.000060426486, -1241313.8, -16431.555, 0.0, 10.007681, 9.965521 
5.905576e+3, 1.8497139e+2, -1153416.4, -1194933.9, -8.623987, 0.0009816261, 0.00020412613, -1153416.4, -26134.996, 0.0, 10.00767, 9.952916 
5.9055746e+3, 1.9492432e+2, -1055325.3, -1097097.8, -23.06741, 0.0009816302, 0.00006905626, -1055325.3, -25582.752, 0.0, 10.007659, 9.952572 
5.9055734e+3, 2.0487061e+2, -967215.9, -1018765.2, -9.270275, 0.0009810705, 0.00018870499, -967215.9, -34946.88, 0.0, 10.007648, 9.939799 
5.905572e+3, 2.1481045e+2, -868984.9, -920789.06, -23.164242, 0.0009799219, -0.000006700944, -868984.9, -34126.29, 0.0, 10.007639, 9.939458 
5.9055716e+3, 2.2474357e+2, -780751.2, -842588.0, -8.136531, 0.0009792254, 0.0002384384, -780751.2, -43237.375, 0.0, 10.007628, 9.926405 
5.9055704e+3, 2.3467004e+2, -682373.06, -744458.2, -22.234287, 0.0009790191, 0.00002384829, -682373.0, -42138.613, 0.0, 10.007619, 9.926074 
5.9055686e+3, 2.4458955e+2, -594101.8, -666577.56, -5.875909, 0.0009786302, 0.00018336013, -594101.8, -51078.676, 0.0, 10.007609, 9.91262 
5.905568e+3, 2.545023e+2, -495403.75, -567950.44, -19.104452, 0.0009780269, -0.0000010647482, -495403.75, -49525.45, 0.0, 10.007601, 9.912519 
5.9055674e+3, 2.6440793e+2, -407228.6, -490680.63, -1.4847236, 0.000977344, 0.00024261496, -407228.6, -58425.61, 0.0, 10.007592, 9.898421 
5.905566e+3, 2.7430692e+2, -307997.44, -391116.66, -14.724576, 0.00097655895, -0.0001059059, -307997.44, -56204.363, 0.0, 10.007584, 9.89884 
5.9055656e+3, 2.8419772e+2, -221462.36, -317665.34, 2.2324522, 0.0009761439, 0.0003234676, -221462.36, -66599.19, 0.0, 10.007575, 9.882027 
5.9055644e+3, 2.940808e+2, -121801.83, -217379.81, -9.106495, 0.0009762202, -0.0001602413, -121801.83, -63792.91, 0.0, 10.007567, 9.882815 
5.905564e+3, 3.0399168e+2, -32393.438, -84923.12, 6.9990635, 0.0009756579, 0.0002614239, -32393.436, -32393.436, 0.0, 10.00756, 9.9384165 
5.905563e+3, 3.139319e+2, -31354.229, -82746.11, -5.7446704, 0.0009741606, 0.000023344784, -31354.229, -31354.229, 0.0, 10.007553, 9.93989 
5.915591e+3, 1.2512203e+2, -1710300.8, -1722970.0, 2.5182, 0.0009946184, 0.00019338062, -1710300.8, 3504.633, 0.0, 10.007742, 9.99095 
5.91559e+3, 1.3511282e+2, -1612982.0, -1626234.8, -11.292362, 0.0009927222, 0.000013227089, -1612982.0, 2913.4756, 0.0, 10.00773, 9.990166 
5.915588e+3, 1.4509708e+2, -1524940.9, -1547014.8, -3.276058, 0.000991841, 0.00027368314, -1524940.9, -6891.165, 0.0, 10.007718, 9.978475 
5.9155875e+3, 1.5507554e+2, -1427274.6, -1449742.1, -17.107239, 0.000991911, 0.00008375405, -1427274.6, -7013.678, 0.0, 10.007706, 9.977943 
5.915586e+3, 1.6504739e+2, -1339238.1, -1370856.3, -8.895913, 0.0009913966, 0.00016491623, -1339238.1, -16701.426, 0.0, 10.007693, 9.9659 
5.9155846e+3, 1.7501333e+2, -1241338.9, -1273265.5, -21.881145, 0.0009903174, 0.00006028311, -1241338.9, -16468.623, 0.0, 10.007683, 9.965487 
5.9155834e+3, 1.8497257e+2, -1153444.5, -1194992.9, -12.746436, 0.000989554, 0.00020395814, -1153444.5, -26174.654, 0.0, 10.007672, 9.952878 
5.915582e+3, 1.9492547e+2, -1055352.9, -1097156.3, -27.1777, 0.000989101, 0.00007040519, -1055352.9, -25621.568, 0.0, 10.007662, 9.952534 
5.915581e+3, 2.0487171e+2, -967242.56, -1018822.25, -12.963083, 0.0009887012, 0.00019010599, -967242.5, -34984.38, 0.0, 10.007651, 9.939762 
5.91558e+3, 2.148115e+2, -869011.25, -920845.75, -26.875563, 0.0009883549, -0.0000067711626, -869011.25, -34163.14, 0.0, 10.007641, 9.939421 
5.9155786e+3, 2.2474462e+2, -780778.44, -842646.75, -11.759441, 0.0009877094, 0.00023826495, -780778.44, -43274.715, 0.0, 10.007631, 9.926367 
5.9155774e+3, 2.3467104e+2, -682399.94, -744516.6, -25.831432, 0.000986734, 0.000025063397, -682399.94, -42175.242, 0.0, 10.007622, 9.926035 
5.915577e+3, 2.4459052e+2, -594127.6, -666634.2, -9.273509, 0.0009860732, 0.0001846852, -594127.6, -51113.84, 0.0, 10.007612, 9.912582 
5.9155756e+3, 2.5450322e+2, -495429.2, -568006.6, -22.51178, 0.0009857727, -0.0000011066574, -495429.16, -49559.84, 0.0, 10.007603, 9.912481 
5.9155744e+3, 2.6440883e+2, -407254.88, -490738.9, -4.558309, 0.0009853807, 0.00024243575, -407254.88, -58460.48, 0.0, 10.007594, 9.898382 
5.915574e+3, 2.7430773e+2, -308023.44, -391174.72, -17.758186, 0.0009848713, -0.000104702354, -308023.44, -56238.59, 0.0, 10.007586, 9.8988 
5.9155726e+3, 2.8419852e+2, -221485.77, -317718.44, -0.697997, 0.0009843311, 0.0003247753, -221485.77, -66630.445, 0.0, 10.007578, 9.88199 
5.915572e+3, 2.9408154e+2, -121824.67, -217432.16, -12.070808, 0.0009837486, -0.00016053801, -121824.67, -63823.234, 0.0, 10.007569, 9.88278 
5.9155715e+3, 3.039924e+2, -32420.395, -84984.2, 4.4243507, 0.0009830544, 0.00026095833, -32420.393, -32420.393, 0.0, 10.007562, 9.9383745 
5.915571e+3, 3.1393263e+2, -31381.717, -82808.234, -8.215, 0.0009821933, 0.000024806002, -31381.715, -31381.715, 0.0, 10.007555, 9.939846 
5.9255993e+3, 1.2512344e+2, -1710056.3, -1722881.6, 7.0864444, 0.0010021244, 0.00019438975, -1710056.3, 3735.207, 0.0, 10.007912, 9.990912 
5.9255975e+3, 1.351142e+2, -1612743.0, -1626149.9, -6.506016, 0.0010010449, 0.000013601911, -1612743.0, 3139.0273, 0.0, 10.007897, 9.9901285 
5.9255964e+3, 1.4509842e+2, -1524704.6, -1546932.6, 1.7174176, 0.0010002056, 0.00027394498, -1524704.6, -6667.9175, 0.0, 10.007885, 9.978436 
5.925595e+3, 1.5507683e+2, -1427037.9, -1449660.4, -12.644959, 0.0009995754, 0.000084401414, -1427037.9, -6789.62, 0.0, 10.007874, 9.977906 
5.925594e+3, 1.6504866e+2, -1338999.9, -1370770.6, -4.4349566, 0.000998992, 0.00016574799, -1338999.9, -16475.563, 0.0, 10.007861, 9.965865 
5.925592e+3, 1.7501457e+2, -1241104.0, -1273182.3, -17.547655, 0.0009984589, 0.00006110309, -1241104.0, -16245.777, 0.0, 10.00785, 9.965451 
5.9255916e+3, 1.8497376e+2, -1153213.9, -1194916.8, -8.235852, 0.0009977784, 0.00020462366, -1153213.9, -25955.732, 0.0, 10.007839, 9.95284 
5.92559e+3, 1.9492663e+2, -1055122.1, -1097080.6, -22.717129, 0.0009969445, 0.00007077403, -1055122.1, -25402.063, 0.0, 10.007829, 9.952496 
5.9255886e+3, 2.0487283e+2, -967012.75, -1018747.75, -8.851566, 0.0009964565, 0.00019052571, -967012.75, -34765.555, 0.0, 10.007818, 9.939724 
5.9255874e+3, 2.1481259e+2, -868784.6, -920773.44, -23.374245, 0.0009963262, -0.000005939839, -868784.56, -33947.035, 0.0, 10.007807, 9.939383 
5.925586e+3, 2.2474565e+2, -780554.0, -842576.3, -8.203705, 0.0009957642, 0.00023908606, -780554.0, -43060.434, 0.0, 10.007796, 9.926329 
5.9255856e+3, 2.3467204e+2, -682177.2, -744447.7, -22.117016, 0.0009947274, 0.00002541494, -682177.2, -41962.28, 0.0, 10.007786, 9.925997 
5.9255844e+3, 2.4459147e+2, -593906.06, -666566.3, -5.4794374, 0.0009940095, 0.00018502572, -593906.06, -50901.668, 0.0, 10.007776, 9.912544 
5.925583e+3, 2.5450414e+2, -495209.1, -567940.1, -19.22438, 0.0009936575, -0.00000024812218, -495209.1, -49348.824, 0.0, 10.007767, 9.912443 
5.9255826e+3, 2.644097e+2, -407036.72, -490674.5, -1.271793, 0.0009932761, 0.00024325191, -407036.72, -58250.99, 0.0, 10.007758, 9.898344 
5.9255815e+3, 2.743086e+2, -307807.66, -391112.2, -14.347433, 0.0009928533, -0.000104620005, -307807.66, -56031.098, 0.0, 10.007749, 9.898762 
5.925581e+3, 2.841993e+2, -221269.98, -317654.44, 2.7081044, 0.0009923092, 0.0003248931, -221269.98, -66422.57, 0.0, 10.00774, 9.881953 
5.92558e+3, 2.9408234e+2, -121609.766, -217369.05, -9.563259, 0.0009916013, -0.00015935981, -121609.766, -63615.895, 0.0, 10.007732, 9.882743 
5.925579e+3, 3.0399314e+2, -32211.002, -84929.195, 6.8325, 0.0009908926, 0.00026213875, -32211.002, -32211.002, 0.0, 10.007725, 9.9383335 
5.925578e+3, 3.1393328e+2, -31173.928, -82754.516, -4.99571, 0.0009901784, 0.000024451832, -31173.926, -31173.926, 0.0, 10.007717, 9.939805 
5.935607e+3, 1.2512486e+2, -1710084.8, -1722939.5, 1.8218199, 0.00100969, 0.00019483734, -1710084.8, 3692.7942, 0.0, 10.007914, 9.990875 
5.935606e+3, 1.3511558e+2, -1612770.9, -1626207.3, -11.787653, 0.001009598, 0.000014359685, -1612770.9, 3097.4932, 0.0, 10.0079, 9.990092 
5.9356046e+3, 1.4509976e+2, -1524733.8, -1546992.5, -2.589404, 0.0010086998, 0.00027455876, -1524733.8, -6710.2617, 0.0, 10.007887, 9.978398 
5.935603e+3, 1.5507814e+2, -1427066.8, -1449720.0, -16.93612, 0.0010070088, 0.00008443441, -1427066.8, -6831.415, 0.0, 10.007875, 9.977868 
5.9356016e+3, 1.6504993e+2, -1339025.5, -1370824.5, -8.83295, 0.0010063364, 0.00016611247, -1339025.5, -16513.768, 0.0, 10.007864, 9.965831 
5.9356e+3, 1.750158e+2, -1241129.3, -1273235.6, -21.963701, 0.00100666, 0.00006268809, -1241129.3, -16283.175, 0.0, 10.007852, 9.965417 
5.935599e+3, 1.8497495e+2, -1153241.9, -1194975.8, -12.013476, 0.0010062502, 0.00020595179, -1153241.9, -25995.488, 0.0, 10.007841, 9.952801 
5.9355974e+3, 1.949278e+2, -1055149.8, -1097139.3, -26.483358, 0.001005101, 0.00007036665, -1055149.8, -25441.115, 0.0, 10.007831, 9.952457 
5.935597e+3, 2.0487396e+2, -967040.75, -1018807.4, -13.019699, 0.001004328, 0.00019016878, -967040.75, -34804.555, 0.0, 10.00782, 9.939685 
5.935595e+3, 2.1481368e+2, -868812.2, -920832.7, -27.526644, 0.0010039435, -0.0000043902883, -868812.2, -33985.293, 0.0, 10.007809, 9.939343 
5.9355944e+3, 2.247467e+2, -780580.75, -842634.3, -11.913783, 0.00100349, 0.00024069847, -780580.75, -43097.504, 0.0, 10.007798, 9.92629 
5.935593e+3, 2.3467305e+2, -682203.6, -744505.3, -25.82671, 0.001002957, 0.000025080899, -682203.6, -41998.625, 0.0, 10.007789, 9.925959 
5.935592e+3, 2.4459246e+2, -593932.8, -666624.9, -8.957598, 0.0010023544, 0.00018458514, -593932.8, -50937.95, 0.0, 10.007779, 9.912505 
5.9355915e+3, 2.5450507e+2, -495235.53, -567998.44, -22.693964, 0.0010016686, 0.0000013287574, -495235.53, -49384.4, 0.0, 10.00777, 9.912404 
5.93559e+3, 2.644106e+2, -407062.72, -490732.34, -4.620797, 0.0010010732, 0.00024486176, -407062.72, -58285.76, 0.0, 10.00776, 9.898305 
5.935589e+3, 2.7430946e+2, -307833.25, -391169.6, -17.692938, 0.0010005847, -0.000105428066, -307833.25, -56065.05, 0.0, 10.007751, 9.898723 
5.9355885e+3, 2.8420013e+2, -221294.9, -317710.9, -0.1760612, 0.0010001333, 0.0003240658, -221294.9, -66455.5, 0.0, 10.007743, 9.881915 
5.935587e+3, 2.940831e+2, -121634.38, -217425.14, -12.399363, 0.0009997287, -0.00015700675, -121634.375, -63648.15, 0.0, 10.007735, 9.882705 
5.9355867e+3, 3.0399388e+2, -32236.674, -84987.61, 4.0028114, 0.0009990997, 0.00026462995, -32236.674, -32236.674, 0.0, 10.007727, 9.9382925 
5.935586e+3, 3.13934e+2, -31199.709, -82813.23, -7.8508134, 0.0009981388, 0.000022654267, -31199.707, -31199.707, 0.0, 10.007719, 9.939764 
5.945615e+3, 1.251263e+2, -1709840.0, -1722851.9, 7.2375674, 0.0010180859, 0.00019525582, -1709840.0, 3923.4192, 0.0, 10.008084, 9.990838 
5.945614e+3, 1.35117e+2, -1612525.1, -1626119.6, -7.0702353, 0.0010172089, 0.000015325051, -1612525.1, 3329.5974, 0.0, 10.008072, 9.990054 
5.945612e+3, 1.4510113e+2, -1524490.1, -1546907.4, 1.907623, 0.0010162623, 0.00027565658, -1524490.1, -6480.055, 0.0, 10.008059, 9.97836 
5.945611e+3, 1.5507947e+2, -1426828.4, -1449638.3, -12.458819, 0.0010152266, 0.00008526672, -1426828.4, -6605.983, 0.0, 10.008044, 9.977829 
5.945609e+3, 1.6505122e+2, -1338786.6, -1370739.6, -3.9129727, 0.0010146121, 0.00016660547, -1338786.6, -16287.461, 0.0, 10.008033, 9.9657955 
5.9456086e+3, 1.7501706e+2, -1240889.8, -1273151.1, -17.569777, 0.0010144133, 0.00006277095, -1240889.8, -16055.896, 0.0, 10.008022, 9.965382 
5.945607e+3, 1.8497618e+2, -1153005.3, -1194896.6, -7.6988215, 0.0010139968, 0.00020616104, -1153005.3, -25770.818, 0.0, 10.008011, 9.952763 
5.945606e+3, 1.9492897e+2, -1054915.6, -1097062.1, -22.252853, 0.0010133563, 0.00007123791, -1054915.6, -25218.504, 0.0, 10.008, 9.952419 
5.9456044e+3, 2.048751e+2, -966808.6, -1018732.3, -9.078725, 0.0010126312, 0.00019115978, -966808.6, -34583.574, 0.0, 10.007989, 9.939646 
5.945603e+3, 2.1481477e+2, -868581.7, -920759.1, -23.513607, 0.0010118166, -0.0000038416897, -868581.7, -33765.547, 0.0, 10.0079775, 9.939304 
5.945602e+3, 2.2474776e+2, -780351.8, -842562.06, -7.692688, 0.0010112533, 0.00024113074, -780351.8, -42878.926, 0.0, 10.007967, 9.926251 
5.945601e+3, 2.3467407e+2, -681977.0, -744434.8, -21.987295, 0.0010109599, 0.00002575114, -681977.0, -41781.977, 0.0, 10.0079565, 9.92592 
5.9456e+3, 2.4459343e+2, -593708.25, -666556.56, -5.1242237, 0.0010104686, 0.00018527477, -593708.25, -50723.004, 0.0, 10.007946, 9.912466 
5.945599e+3, 2.5450602e+2, -495012.84, -567931.7, -19.089834, 0.0010097458, 0.0000017861619, -495012.84, -49170.96, 0.0, 10.0079365, 9.912365 
5.945598e+3, 2.644115e+2, -406841.0, -490666.5, -1.008618, 0.0010090639, 0.00024533062, -406841.0, -58072.9, 0.0, 10.007927, 9.898266 
5.945597e+3, 2.743103e+2, -307612.47, -391104.88, -14.363423, 0.0010084283, -0.00010464714, -307612.47, -55852.758, 0.0, 10.007918, 9.898684 
5.945596e+3, 2.8420097e+2, -221074.81, -317646.0, 3.1571124, 0.0010079968, 0.00032477416, -221074.81, -66243.49, 0.0, 10.007909, 9.881877 
5.9455955e+3, 2.940839e+2, -121417.266, -217362.27, -9.093732, 0.0010078348, -0.00015688417, -121417.266, -63438.75, 0.0, 10.0079, 9.882667 
5.945595e+3, 3.039946e+2, -32024.977, -84931.61, 7.2113547, 0.0010072511, 0.0002647481, -32024.975, -32024.975, 0.0, 10.007892, 9.9382515 
5.945594e+3, 3.1393468e+2, -30988.129, -82757.664, -5.2901607, 0.0010060484, 0.000023616007, -30988.129, -30988.129, 0.0, 10.007884, 9.939722 
5.955623e+3, 1.2512775e+2, -1709869.9, -1722912.8, 2.5369327, 0.0010271462, 0.0001956567, -1709869.9, 3879.315, 0.0, 10.008087, 9.990799 
5.9556216e+3, 1.3511841e+2, -1612554.8, -1626180.1, -11.749677, 0.0010240953, 0.000016453712, -1612554.8, 3286.104, 0.0, 10.008075, 9.990016 
5.9556204e+3, 1.4510252e+2, -1524519.4, -1546967.4, -3.324911, 0.0010231104, 0.00027713474, -1524519.4, -6522.722, 0.0, 10.008061, 9.978322 
5.955619e+3, 1.550808e+2, -1426857.1, -1449697.8, -17.67692, 0.0010240764, 0.00008673143, -1426857.1, -6647.796, 0.0, 10.008047, 9.977791 
5.9556174e+3, 1.6505252e+2, -1338813.3, -1370795.5, -7.825005, 0.0010236345, 0.00016720242, -1338813.3, -16326.81, 0.0, 10.008035, 9.965759 
5.955616e+3, 1.7501833e+2, -1240916.1, -1273206.8, -21.554144, 0.0010218294, 0.00006166951, -1240916.1, -16094.622, 0.0, 10.008024, 9.965345 
5.955615e+3, 1.849774e+2, -1153033.4, -1194956.0, -11.818021, 0.0010211881, 0.00020548866, -1153033.4, -25810.938, 0.0, 10.008014, 9.952724 
5.955614e+3, 1.9493017e+2, -1054943.4, -1097121.0, -26.291718, 0.0010217032, 0.00007312122, -1054943.4, -25257.885, 0.0, 10.008002, 9.952381 
5.955612e+3, 2.0487624e+2, -966836.3, -1018791.5, -13.294466, 0.001021289, 0.00019321672, -966836.3, -34622.535, 0.0, 10.007992, 9.939608 
5.9556115e+3, 2.1481588e+2, -868609.06, -920817.94, -27.740776, 0.0010199083, -0.000004083976, -868609.06, -33803.773, 0.0, 10.00798, 9.939266 
5.95561e+3, 2.2474882e+2, -780379.3, -842621.56, -11.673958, 0.0010190634, 0.00024063172, -780379.3, -42916.938, 0.0, 10.007969, 9.926212 
5.955609e+3, 2.3467511e+2, -682004.1, -744494.0, -25.971985, 0.0010187977, 0.000027219618, -682004.1, -41819.227, 0.0, 10.007958, 9.92588 
5.955608e+3, 2.4459442e+2, -593735.4, -666616.06, -8.765846, 0.0010184136, 0.00018686129, -593735.4, -50759.83, 0.0, 10.007948, 9.912426 
5.9556067e+3, 2.5450698e+2, -495039.6, -567990.8, -22.704073, 0.0010178891, 0.0000013567994, -495039.6, -49207.023, 0.0, 10.007938, 9.912325 
5.955606e+3, 2.644124e+2, -406867.47, -490725.44, -4.2663693, 0.001017223, 0.00024489634, -406867.47, -58108.3, 0.0, 10.007929, 9.898226 
5.955605e+3, 2.7431118e+2, -307638.63, -391163.47, -17.624935, 0.0010163774, -0.00010260351, -307638.63, -55887.465, 0.0, 10.00792, 9.8986435 
5.955604e+3, 2.8420177e+2, -221099.81, -317702.66, -0.16796194, 0.0010159081, 0.00032670252, -221099.81, -66276.68, 0.0, 10.007912, 9.881839 
5.955604e+3, 2.940847e+2, -121441.75, -217418.36, -12.398314, 0.0010159371, -0.00015853035, -121441.75, -63471.016, 0.0, 10.007902, 9.882628 
5.9556025e+3, 3.0399537e+2, -32051.6, -84992.375, 4.389659, 0.001015371, 0.0002629849, -32051.6, -32051.6, 0.0, 10.007894, 9.93821 
5.9556013e+3, 3.1393543e+2, -31015.063, -82819.016, -8.09503, 0.001013933, 0.000026770967, -31015.06, -31015.06, 0.0, 10.007886, 9.93968 
5.9656316e+3, 1.2512922e+2, -1709618.9, -1722822.4, 7.61931, 0.0010348326, 0.00019672052, -1709618.9, 4116.0576, 0.0, 10.008262, 9.990761 
5.96563e+3, 1.3511983e+2, -1612307.5, -1626092.5, -6.522534, 0.0010323894, 0.000016977427, -1612307.5, 3519.344, 0.0, 10.008247, 9.989978 
5.9656286e+3, 1.451039e+2, -1524274.0, -1546881.6, 1.8210608, 0.0010314363, 0.0002775739, -1524274.0, -6291.0137, 0.0, 10.008234, 9.978283 
5.965627e+3, 1.5508215e+2, -1426612.0, -1449612.8, -12.723579, 0.001031884, 0.00008751967, -1426612.0, -6415.9663, 0.0, 10.008221, 9.977753 
5.965626e+3, 1.6505383e+2, -1338569.1, -1370711.1, -2.6910589, 0.0010314067, 0.0001679935, -1338569.1, -16095.594, 0.0, 10.008208, 9.965721 
5.9656245e+3, 1.7501959e+2, -1240675.0, -1273124.5, -17.801226, 0.0010300351, 0.00006212692, -1240675.0, -15866.012, 0.0, 10.008197, 9.965307 
5.965623e+3, 1.8497863e+2, -1152793.1, -1194873.3, -8.167324, 0.00102944, 0.00020587424, -1152793.1, -25582.709, 0.0, 10.008185, 9.952687 
5.9656215e+3, 1.9493137e+2, -1054704.5, -1097039.8, -21.641775, 0.0010296148, 0.00007369719, -1054704.5, -25030.79, 0.0, 10.008174, 9.952344 
5.965621e+3, 2.048774e+2, -966600.9, -1018715.25, -8.617353, 0.001029177, 0.00019387195, -966600.9, -34398.45, 0.0, 10.0081625, 9.939568 
5.965619e+3, 2.14817e+2, -868375.75, -920743.5, -23.459146, 0.0010281004, -0.0000034654838, -868375.75, -33581.484, 0.0, 10.008151, 9.939227 
5.965618e+3, 2.2474991e+2, -780147.8, -842549.1, -7.374709, 0.0010272977, 0.0002412603, -780147.8, -42696.008, 0.0, 10.00814, 9.926172 
5.9656173e+3, 2.3467615e+2, -681773.9, -744422.9, -22.043352, 0.0010267895, 0.000027909862, -681773.8, -41599.164, 0.0, 10.008129, 9.92584 
5.965616e+3, 2.4459542e+2, -593506.0, -666545.7, -4.775207, 0.0010263025, 0.00018750563, -593506.0, -50540.324, 0.0, 10.008119, 9.912387 
5.965615e+3, 2.5450793e+2, -494812.13, -567922.0, -18.72716, 0.0010258362, 0.0000018306681, -494812.1, -48988.977, 0.0, 10.008108, 9.912286 
5.965614e+3, 2.6441333e+2, -406642.38, -490659.3, -0.29976583, 0.0010252729, 0.00024534823, -406642.38, -57892.23, 0.0, 10.008099, 9.898186 
5.965613e+3, 2.7431208e+2, -307416.13, -391099.3, -14.25666, 0.001024585, -0.0001019895, -307416.13, -55673.6, 0.0, 10.008089, 9.898603 
5.9656125e+3, 2.8420264e+2, -220876.81, -317636.13, 3.1541767, 0.0010240893, 0.0003273451, -220876.81, -66061.93, 0.0, 10.00808, 9.881801 
5.9656113e+3, 2.940855e+2, -121219.24, -217352.52, -8.901807, 0.0010238469, -0.00015803924, -121219.24, -63256.395, 0.0, 10.008071, 9.88259 
5.96561e+3, 3.0399612e+2, -31835.104, -84936.07, 7.8250484, 0.0010232147, 0.00026342468, -31835.104, -31835.104, 0.0, 10.008062, 9.938166 
5.96561e+3, 3.139361e+2, -30800.053, -82764.07, -5.4240775, 0.0010220093, 0.000027310154, -30800.05, -30800.05, 0.0, 10.008055, 9.939636 
5.97564e+3, 1.251307e+2, -1709648.4, -1722882.5, 2.3141677, 0.0010414622, 0.00019830202, -1709648.4, 4072.035, 0.0, 10.008265, 9.990723 
5.975638e+3, 1.3512126e+2, -1612336.8, -1626152.3, -11.824117, 0.0010418012, 0.000017028724, -1612336.8, 3476.0696, 0.0, 10.00825, 9.98994 
5.975637e+3, 1.451053e+2, -1524303.5, -1546942.4, -3.1683736, 0.0010409335, 0.00027720167, -1524303.5, -6334.2227, 0.0, 10.008236, 9.978245 
5.975635e+3, 1.550835e+2, -1426641.1, -1449673.1, -17.722918, 0.0010388904, 0.000087779335, -1426641.1, -6458.3535, 0.0, 10.008224, 9.977714 
5.975634e+3, 1.6505514e+2, -1338598.9, -1370773.1, -7.028555, 0.0010382158, 0.00016893864, -1338598.9, -16138.2705, 0.0, 10.00821, 9.965681 
5.9756327e+3, 1.7502089e+2, -1240704.5, -1273186.1, -22.109362, 0.0010388762, 0.000063809995, -1240704.5, -15908.02, 0.0, 10.008199, 9.965267 
5.9756315e+3, 1.8497989e+2, -1152818.9, -1194928.0, -12.229268, 0.0010385391, 0.00020709154, -1152818.8, -25620.633, 0.0, 10.008187, 9.952652 
5.9756297e+3, 1.9493257e+2, -1054729.9, -1097094.1, -25.720493, 0.0010372001, 0.00007324638, -1054729.9, -25068.059, 0.0, 10.008177, 9.952309 
5.975629e+3, 2.0487858e+2, -966629.3, -1018776.0, -13.09634, 0.0010364758, 0.00019342754, -966629.3, -34438.406, 0.0, 10.008165, 9.939528 
5.9756273e+3, 2.1481815e+2, -868403.9, -920803.9, -27.942974, 0.0010363858, -0.00000216626, -868403.8, -33620.66, 0.0, 10.008153, 9.939187 
5.975627e+3, 2.2475101e+2, -780176.0, -842610.2, -11.363695, 0.0010358801, 0.0002427781, -780176.0, -42734.906, 0.0, 10.0081415, 9.926132 
5.975625e+3, 2.346772e+2, -681801.7, -744483.56, -25.998829, 0.0010349181, 0.000027986433, -681801.7, -41637.313, 0.0, 10.008131, 9.9258 
5.975624e+3, 2.4459644e+2, -593533.1, -666605.2, -8.542754, 0.0010341636, 0.00018740847, -593533.1, -50577.324, 0.0, 10.008121, 9.912347 
5.975623e+3, 2.5450888e+2, -494838.8, -567981.1, -22.51716, 0.0010336448, 0.000003021389, -494838.78, -49025.2, 0.0, 10.008111, 9.912246 
5.975622e+3, 2.6441428e+2, -406669.9, -490720.56, -3.9135196, 0.0010332523, 0.00024650266, -406669.9, -57928.902, 0.0, 10.0081005, 9.898145 
5.9756213e+3, 2.7431294e+2, -307443.28, -391160.3, -17.819128, 0.0010330101, -0.00010250513, -307443.28, -55709.504, 0.0, 10.008091, 9.898562 
5.97562e+3, 2.842035e+2, -220901.39, -317692.16, 0.020387683, 0.001032497, 0.0003269721, -220901.39, -66094.84, 0.0, 10.008081, 9.8817625 
5.9756196e+3, 2.940863e+2, -121243.33, -217407.86, -12.064318, 0.0010316212, -0.00015585488, -121243.33, -63288.46, 0.0, 10.008074, 9.882552 
5.9756184e+3, 3.0399692e+2, -31863.08, -84999.63, 4.7122083, 0.0010308578, 0.00026560927, -31863.08, -31863.08, 0.0, 10.008065, 9.938122 
5.975618e+3, 3.1393686e+2, -30828.469, -82828.58, -8.449311, 0.001030252, 0.000025779647, -30828.467, -30828.467, 0.0, 10.008057, 9.939591 
5.985648e+3, 1.2513219e+2, -1709395.1, -1722791.3, 7.755746, 0.0010496927, 0.00019878737, -1709395.1, 4310.6577, 0.0, 10.008441, 9.9906845 
5.985646e+3, 1.3512273e+2, -1612085.3, -1626062.6, -6.652044, 0.0010497634, 0.000017740278, -1612085.3, 3713.3218, 0.0, 10.008427, 9.989901 
5.985645e+3, 1.451067e+2, -1524053.8, -1546855.4, 2.11334, 0.0010488759, 0.00027791125, -1524053.8, -6098.292, 0.0, 10.008412, 9.978205 
5.985643e+3, 1.5508488e+2, -1426391.9, -1449587.1, -12.933746, 0.0010470477, 0.000088267916, -1426391.9, -6222.6504, 0.0, 10.0084, 9.9776745 
5.985642e+3, 1.6505648e+2, -1338351.4, -1370688.6, -2.0994363, 0.001046412, 0.00016948207, -1338351.4, -15903.809, 0.0, 10.008387, 9.965641 
5.985641e+3, 1.7502218e+2, -1240460.1, -1273104.0, -17.040567, 0.0010469413, 0.000064676635, -1240460.0, -15676.34, 0.0, 10.008374, 9.965228 
5.9856397e+3, 1.8498114e+2, -1152574.1, -1194842.3, -6.947811, 0.0010465772, 0.00020792382, -1152574.1, -25388.225, 0.0, 10.008362, 9.952616 
5.985638e+3, 1.9493379e+2, -1054487.5, -1097010.4, -20.907377, 0.0010453142, 0.00007368688, -1054487.5, -24837.662, 0.0, 10.00835, 9.952271 
5.9856373e+3, 2.0487976e+2, -966391.25, -1018699.3, -8.807751, 0.0010445776, 0.00019382752, -966391.25, -34211.914, 0.0, 10.008339, 9.939488 
5.9856355e+3, 2.148193e+2, -868166.6, -920728.3, -23.91708, 0.0010443842, -0.0000014418946, -868166.6, -33394.656, 0.0, 10.0083275, 9.939147 
5.985635e+3, 2.247521e+2, -779939.9, -842535.75, -7.1233416, 0.0010438865, 0.00024349887, -779939.9, -42509.6, 0.0, 10.008316, 9.926092 
5.985633e+3, 2.3467827e+2, -681567.8, -744410.9, -21.66165, 0.0010430536, 0.000028346425, -681567.8, -41413.84, 0.0, 10.008305, 9.92576 
5.9856325e+3, 2.4459746e+2, -593301.2, -666534.7, -4.182521, 0.0010423547, 0.00018780367, -593301.2, -50355.406, 0.0, 10.008293, 9.912306 
5.9856313e+3, 2.545099e+2, -494608.5, -567912.1, -18.834877, 0.0010418072, 0.000003908275, -494608.5, -48804.535, 0.0, 10.008283, 9.912206 
5.98563e+3, 2.6441523e+2, -406440.63, -490652.53, -0.21401232, 0.0010413408, 0.00024734452, -406440.63, -57708.875, 0.0, 10.008273, 9.898104 
5.9856296e+3, 2.7431387e+2, -307215.4, -391093.63, -13.736223, 0.0010409687, -0.000102369646, -307215.4, -55490.46, 0.0, 10.008264, 9.898521 
5.9856284e+3, 2.8420433e+2, -220674.2, -317625.28, 4.096708, 0.0010404736, 0.00032709833, -220674.2, -65876.086, 0.0, 10.008254, 9.881722 
5.985627e+3, 2.9408714e+2, -121018.67, -217342.8, -9.153694, 0.001039812, -0.0001548103, -121018.67, -63071.867, 0.0, 10.0082445, 9.882513 
5.985627e+3, 3.039977e+2, -31643.84, -84941.53, 7.4483275, 0.0010391101, 0.00026669502, -31643.838, -31643.838, 0.0, 10.008235, 9.938079 
5.985626e+3, 3.139376e+2, -30609.766, -82771.12, -4.719539, 0.0010383439, 0.000025634241, -30609.766, -30609.766, 0.0, 10.008226, 9.9395485 
5.995656e+3, 1.251337e+2, -1709425.3, -1722852.5, 2.3296742, 0.0010591848, 0.00019842212, -1709425.3, 4265.805, 0.0, 10.008443, 9.990645 
5.995655e+3, 1.3512419e+2, -1612114.8, -1626123.5, -12.089065, 0.0010566108, 0.000018969708, -1612114.8, 3669.355, 0.0, 10.008429, 9.989862 
5.995653e+3, 1.4510813e+2, -1524084.1, -1546918.3, -2.7210982, 0.0010556227, 0.00027946619, -1524084.1, -6142.75, 0.0, 10.008415, 9.978165 
5.995652e+3, 1.5508628e+2, -1426422.1, -1449649.6, -17.732023, 0.0010561208, 0.00008893559, -1426422.1, -6266.4795, 0.0, 10.008402, 9.977634 
5.995651e+3, 1.6505784e+2, -1338380.8, -1370750.0, -6.871817, 0.0010557072, 0.00016971267, -1338380.8, -15946.433, 0.0, 10.008389, 9.965602 
5.9956497e+3, 1.7502348e+2, -1240489.0, -1273164.9, -21.82131, 0.0010544155, 0.00006490788, -1240489.0, -15718.098, 0.0, 10.008377, 9.965188 
5.995648e+3, 1.8498242e+2, -1152600.6, -1194899.0, -11.290894, 0.0010538019, 0.00020845863, -1152600.6, -25427.238, 0.0, 10.008365, 9.952579 
5.995647e+3, 1.9493502e+2, -1054513.9, -1097066.8, -25.251247, 0.0010538576, 0.00007482735, -1054513.9, -24876.07, 0.0, 10.008352, 9.952235 
5.9956455e+3, 2.0488095e+2, -966420.2, -1018761.06, -13.156681, 0.001053323, 0.00019488923, -966420.2, -34252.566, 0.0, 10.008341, 9.939447 
5.9956443e+3, 2.1482043e+2, -868195.2, -920789.8, -28.250484, 0.0010521744, -0.0000011683237, -868195.2, -33434.527, 0.0, 10.008329, 9.939106 
5.995643e+3, 2.2475322e+2, -779967.8, -842596.3, -11.328721, 0.0010514589, 0.00024359647, -779967.75, -42548.42, 0.0, 10.008318, 9.926052 
5.9956414e+3, 2.3467934e+2, -681595.3, -744471.06, -25.888103, 0.0010512099, 0.000028933868, -681595.3, -41451.867, 0.0, 10.0083065, 9.92572 
5.995641e+3, 2.445985e+2, -593329.5, -666596.9, -8.067995, 0.0010508193, 0.00018858888, -593329.5, -50393.87, 0.0, 10.008296, 9.912265 
5.9956396e+3, 2.5451088e+2, -494636.5, -567974.06, -22.673178, 0.0010502622, 0.0000045540082, -494636.5, -48842.258, 0.0, 10.0082855, 9.912164 
5.995639e+3, 2.6441616e+2, -406467.4, -490712.34, -3.814548, 0.0010495303, 0.0002479393, -406467.4, -57744.957, 0.0, 10.008275, 9.898064 
5.995638e+3, 2.7431476e+2, -307241.72, -391152.94, -17.37315, 0.0010485783, -0.00010171523, -307241.72, -55525.707, 0.0, 10.0082655, 9.898481 
5.9956366e+3, 2.8420523e+2, -220700.84, -317685.72, 0.5941931, 0.0010481287, 0.00032762391, -220700.84, -65911.27, 0.0, 10.008256, 9.881681 
5.995636e+3, 2.9408795e+2, -121044.98, -217402.94, -12.568552, 0.0010483444, -0.00015466673, -121044.98, -63106.3, 0.0, 10.008246, 9.882472 
5.995635e+3, 3.0399847e+2, -31670.088, -85001.74, 4.3359103, 0.0010478548, 0.00026691146, -31670.088, -31670.088, 0.0, 10.008238, 9.938038 
5.995634e+3, 3.1393835e+2, -30636.049, -82831.414, -7.9106936, 0.0010463328, 0.00002658835, -30636.049, -30636.049, 0.0, 10.008229, 9.939507 
6.005665e+3, 1.2513521e+2, -1709168.8, -1722760.9, 7.8911433, 0.0010673348, 0.00019900991, -1709168.8, 4507.3794, 0.0, 10.008622, 9.990606 
6.005664e+3, 1.3512567e+2, -1611857.9, -1626032.3, -7.055749, 0.0010645549, 0.00001976607, -1611857.9, 3911.6753, 0.0, 10.008609, 9.989822 
6.005662e+3, 1.451096e+2, -1523829.0, -1546828.6, 2.1701589, 0.0010636364, 0.00028026153, -1523829.0, -5901.697, 0.0, 10.0085945, 9.978125 
6.005661e+3, 1.5508768e+2, -1426171.0, -1449562.8, -12.605752, 0.0010644667, 0.00008952826, -1426171.0, -6029.0967, 0.0, 10.00858, 9.977594 
6.005659e+3, 1.6505921e+2, -1338131.6, -1370665.1, -1.2820584, 0.0010640605, 0.00017025368, -1338131.6, -15710.709, 0.0, 10.008567, 9.965562 
6.005658e+3, 1.7502481e+2, -1240240.3, -1273080.9, -16.648289, 0.0010624607, 0.00006554414, -1240240.3, -15482.298, 0.0, 10.008554, 9.965148 
6.005656e+3, 1.849837e+2, -1152350.9, -1194811.8, -6.387286, 0.0010617594, 0.0002091791, -1152350.9, -25190.076, 0.0, 10.008542, 9.952541 
6.0056555e+3, 1.9493628e+2, -1054267.3, -1096981.8, -20.580055, 0.0010619473, 0.00007562115, -1054267.3, -24641.727, 0.0, 10.00853, 9.952198 
6.005654e+3, 2.0488217e+2, -966178.1, -1018682.75, -8.366621, 0.0010614815, 0.00019554613, -966178.1, -34022.348, 0.0, 10.008517, 9.939407 
6.0056525e+3, 2.148216e+2, -867954.6, -920712.9, -23.484365, 0.0010603357, -0.0000008661873, -867954.6, -33205.406, 0.0, 10.008506, 9.939066 
6.0056514e+3, 2.2475435e+2, -779728.56, -842521.1, -6.6982102, 0.0010596102, 0.00024397478, -779728.56, -42320.26, 0.0, 10.008494, 9.926011 
6.00565e+3, 2.3468041e+2, -681357.5, -744397.25, -21.851309, 0.0010593374, 0.00002985656, -681357.5, -41224.71, 0.0, 10.008483, 9.925679 
6.005649e+3, 2.4459954e+2, -593093.1, -666524.56, -3.97457, 0.0010589377, 0.00018944935, -593093.1, -50167.73, 0.0, 10.0084715, 9.912224 
6.005648e+3, 2.545119e+2, -494402.22, -567903.44, -18.319782, 0.0010583884, 0.000004654092, -494402.22, -48617.797, 0.0, 10.008461, 9.912123 
6.005647e+3, 2.644171e+2, -406234.97, -490643.88, 0.5536911, 0.0010576805, 0.00024808067, -406234.97, -57521.96, 0.0, 10.0084505, 9.898023 
6.005646e+3, 2.743157e+2, -307011.03, -391086.03, -13.974015, 0.0010567725, -0.00010054496, -307011.03, -55304.04, 0.0, 10.00844, 9.89844 
6.005645e+3, 2.8420612e+2, -220469.94, -317617.03, 3.9618182, 0.0010563162, 0.00032876706, -220469.94, -65688.99, 0.0, 10.0084305, 9.881642 
6.005644e+3, 2.940888e+2, -120815.71, -217335.58, -8.297612, 0.0010564576, -0.0001549573, -120815.71, -62885.26, 0.0, 10.008421, 9.882432 
6.005643e+3, 3.0399927e+2, -31446.984, -84943.53, 8.561119, 0.0010559441, 0.0002665241, -31446.982, -31446.982, 0.0, 10.008411, 9.937993 
6.0056424e+3, 3.1393912e+2, -30413.82, -82774.2, -5.5572653, 0.0010544716, 0.000028050692, -30413.818, -30413.818, 0.0, 10.008403, 9.939462 
6.015674e+3, 1.2513676e+2, -1709199.8, -1722824.4, 2.8837488, 0.0010744609, 0.00020033772, -1709199.8, 4461.2393, 0.0, 10.008625, 9.990565 
6.015672e+3, 1.3512717e+2, -1611888.9, -1626095.5, -12.022231, 0.0010733694, 0.000020225445, -1611888.9, 3866.0698, 0.0, 10.008612, 9.989782 
6.0156703e+3, 1.4511104e+2, -1523859.0, -1546890.4, -3.2863233, 0.0010726511, 0.00028046762, -1523859.0, -5945.9663, 0.0, 10.008597, 9.9780855 
6.015669e+3, 1.550891e+2, -1426200.4, -1449624.1, -18.085726, 0.0010722614, 0.000090066234, -1426200.4, -6072.381, 0.0, 10.008583, 9.977554 
6.0156673e+3, 1.6506058e+2, -1338161.8, -1370728.1, -5.8240924, 0.0010716963, 0.00017103963, -1338161.8, -15754.269, 0.0, 10.00857, 9.965521 
6.015667e+3, 1.7502615e+2, -1240270.1, -1273143.5, -21.169651, 0.001070968, 0.0000664966, -1240270.1, -15525.269, 0.0, 10.008557, 9.965107 
6.015665e+3, 1.84985e+2, -1152378.0, -1194869.4, -11.17777, 0.0010703052, 0.00021004393, -1152378.0, -25229.906, 0.0, 10.008545, 9.952504 
6.015664e+3, 1.9493753e+2, -1054294.0, -1097039.0, -25.364271, 0.0010697005, 0.0000761452, -1054294.0, -24680.729, 0.0, 10.008532, 9.95216 
6.015662e+3, 2.048834e+2, -966206.9, -1018744.44, -12.743545, 0.0010691991, 0.00019588991, -966206.9, -34063.055, 0.0, 10.00852, 9.939366 
6.0156614e+3, 2.1482278e+2, -867983.06, -920774.3, -27.875448, 0.0010688016, -0.0000005362058, -867983.06, -33245.406, 0.0, 10.008508, 9.939025 
6.0156596e+3, 2.247555e+2, -779757.6, -842584.1, -10.937128, 0.0010682282, 0.00024457587, -779757.6, -42360.484, 0.0, 10.008496, 9.925969 
6.015659e+3, 2.3468152e+2, -681386.2, -744459.9, -26.063263, 0.001067459, 0.0000310377, -681386.2, -41264.152, 0.0, 10.008485, 9.925638 
6.015658e+3, 2.446006e+2, -593120.9, -666585.75, -8.023542, 0.0010668034, 0.00019036644, -593120.9, -50205.816, 0.0, 10.008474, 9.912183 
6.015656e+3, 2.545129e+2, -494429.5, -567964.2, -22.388718, 0.0010662742, 0.0000043365085, -494429.5, -48655.035, 0.0, 10.008463, 9.912083 
6.0156554e+3, 2.644181e+2, -406263.47, -490707.44, -3.176774, 0.0010658159, 0.00024787587, -406263.47, -57559.996, 0.0, 10.008452, 9.89798 
6.015654e+3, 2.743166e+2, -307039.25, -391149.38, -17.646652, 0.0010654387, -0.00009897845, -307039.25, -55341.387, 0.0, 10.008443, 9.898397 
6.0156536e+3, 2.84207e+2, -220494.94, -317674.2, 0.40678287, 0.0010649348, 0.00033038587, -220494.94, -65722.7, 0.0, 10.008433, 9.881603 
6.0156524e+3, 2.9408967e+2, -120840.055, -217391.84, -11.909797, 0.0010642599, -0.00015557413, -120840.055, -62917.94, 0.0, 10.008424, 9.882394 
6.015652e+3, 3.0400008e+2, -31476.32, -85010.37, 5.232091, 0.0010635386, 0.00026567932, -31476.32, -31476.32, 0.0, 10.008414, 9.937946 
6.0156506e+3, 3.1393987e+2, -30443.742, -82842.26, -8.763521, 0.0010627435, 0.000029899073, -30443.742, -30443.742, 0.0, 10.008405, 9.939415 
6.025682e+3, 1.2513831e+2, -1708936.6, -1722729.1, 8.228738, 0.0010822798, 0.0002010786, -1708936.6, 4709.2754, 0.0, 10.008808, 9.990526 
6.025681e+3, 1.3512868e+2, -1611631.1, -1626003.9, -6.297692, 0.0010819241, 0.000020640868, -1611631.1, 4108.986, 0.0, 10.008792, 9.989742 
6.025679e+3, 1.451125e+2, -1523603.6, -1546801.6, 2.7471702, 0.0010812159, 0.00028087545, -1523603.6, -5705.0, 0.0, 10.008778, 9.9780445 
6.025678e+3, 1.5509053e+2, -1425943.6, -1449535.3, -12.761591, 0.0010801443, 0.00009076764, -1425943.6, -5829.602, 0.0, 10.008765, 9.977514 
6.025676e+3, 1.6506197e+2, -1337906.3, -1370640.4, -0.72697806, 0.0010795261, 0.00017185554, -1337906.3, -15512.322, 0.0, 10.008752, 9.965481 
6.025675e+3, 1.7502749e+2, -1240019.1, -1273058.9, -16.074738, 0.0010793544, 0.000067253895, -1240019.1, -15287.435, 0.0, 10.008738, 9.965067 
6.025674e+3, 1.8498631e+2, -1152126.6, -1194781.8, -5.814532, 0.0010787678, 0.00021064674, -1152126.6, -24991.352, 0.0, 10.008724, 9.952466 
6.0256726e+3, 1.949388e+2, -1054043.0, -1096952.4, -20.139317, 0.0010777607, 0.00007649795, -1054043.0, -24442.176, 0.0, 10.008712, 9.952123 
6.025671e+3, 2.0488462e+2, -965959.7, -1018664.4, -7.711076, 0.0010771631, 0.00019634882, -965959.7, -33827.953, 0.0, 10.008699, 9.939325 
6.0256696e+3, 2.1482398e+2, -867738.44, -920696.2, -23.3456, 0.0010769864, 0.0000003974414, -867738.4, -33012.418, 0.0, 10.008687, 9.938984 
6.0256684e+3, 2.2475664e+2, -779514.9, -842507.75, -6.3516784, 0.0010765041, 0.00024544215, -779514.9, -42128.957, 0.0, 10.008675, 9.925928 
6.025667e+3, 2.3468263e+2, -681145.1, -744385.06, -21.391037, 0.0010756851, 0.00003124833, -681145.1, -41033.95, 0.0, 10.008663, 9.925596 
6.025666e+3, 2.4460167e+2, -592881.06, -666512.44, -3.353501, 0.0010749816, 0.00019058175, -592881.06, -49976.496, 0.0, 10.008653, 9.912142 
6.025665e+3, 2.5451392e+2, -494191.06, -567892.2, -18.337757, 0.0010744075, 0.000005315495, -494191.06, -48426.633, 0.0, 10.008641, 9.912041 
6.025664e+3, 2.6441908e+2, -406026.8, -490637.6, 0.8600869, 0.001073964, 0.00024881234, -406026.8, -57332.99, 0.0, 10.008631, 9.897938 
6.025663e+3, 2.7431756e+2, -306805.06, -391081.47, -13.301306, 0.0010736756, -0.00009907568, -306805.06, -55116.402, 0.0, 10.00862, 9.8983555 
6.025662e+3, 2.8420788e+2, -220260.72, -317604.72, 4.7318773, 0.0010731876, 0.0003303306, -220260.72, -65497.305, 0.0, 10.00861, 9.881563 
6.025661e+3, 2.940905e+2, -120606.945, -217323.45, -8.768221, 0.0010724314, -0.00015415899, -120606.945, -62693.266, 0.0, 10.0086, 9.882354 
6.02566e+3, 3.040009e+2, -31249.064, -84950.83, 8.1955805, 0.001071687, 0.00026713457, -31249.063, -31249.063, 0.0, 10.008591, 9.9379015 
6.0256594e+3, 3.1394064e+2, -30217.508, -82783.77, -4.728707, 0.0010709532, 0.000029322713, -30217.506, -30217.506, 0.0, 10.008582, 9.939369 
6.0356915e+3, 1.2513986e+2, -1708966.9, -1722790.9, 2.237523, 0.0010906545, 0.0002013665, -1708966.9, 4663.627, 0.0, 10.00881, 9.990487 
6.03569e+3, 1.351302e+2, -1611660.9, -1626065.3, -12.31533, 0.0010902893, 0.000021028818, -1611660.9, 4064.3604, 0.0, 10.008795, 9.989703 
6.035688e+3, 1.45114e+2, -1523634.9, -1546866.4, -2.0647233, 0.0010894452, 0.00028144542, -1523634.9, -5750.8677, 0.0, 10.0087805, 9.9780035 
6.035687e+3, 1.5509197e+2, -1425974.8, -1449599.8, -17.53604, 0.0010881172, 0.00009159518, -1425974.8, -5874.9214, 0.0, 10.008767, 9.977472 
6.035685e+3, 1.6506337e+2, -1337936.4, -1370703.4, -6.0294456, 0.0010875282, 0.00017269279, -1337936.4, -15556.274, 0.0, 10.008754, 9.96544 
6.035684e+3, 1.7502886e+2, -1240048.8, -1273121.4, -21.384392, 0.0010876611, 0.00006786155, -1240048.8, -15330.424, 0.0, 10.008739, 9.965026 
6.035682e+3, 1.8498762e+2, -1152153.8, -1194839.9, -10.353642, 0.0010871787, 0.0002110504, -1152153.8, -25031.45, 0.0, 10.008727, 9.952428 
6.0356814e+3, 1.9494009e+2, -1054069.9, -1097010.1, -24.68056, 0.0010860765, 0.000076723125, -1054069.9, -24481.666, 0.0, 10.008715, 9.952085 
6.0356796e+3, 2.0488587e+2, -965989.56, -1018728.2, -12.384797, 0.0010853375, 0.00019689997, -965989.56, -33870.008, 0.0, 10.008702, 9.939283 
6.0356784e+3, 2.1482518e+2, -867767.9, -920759.7, -28.005947, 0.0010849705, 0.0000017962267, -867767.8, -33053.64, 0.0, 10.00869, 9.938942 
6.035677e+3, 2.2475779e+2, -779543.56, -842570.25, -10.670585, 0.001084531, 0.00024651235, -779543.56, -42169.063, 0.0, 10.0086775, 9.925887 
6.035676e+3, 2.3468375e+2, -681173.5, -744447.2, -25.714884, 0.0010840079, 0.00003071383, -681173.44, -41073.254, 0.0, 10.008666, 9.925555 
6.035675e+3, 2.4460274e+2, -592910.0, -666576.0, -7.410337, 0.0010834187, 0.00019025999, -592910.0, -50015.953, 0.0, 10.008655, 9.912099 
6.0356736e+3, 2.5451496e+2, -494219.63, -567955.5, -22.376482, 0.0010827498, 0.000007295648, -494219.6, -48465.35, 0.0, 10.008644, 9.911999 
6.0356724e+3, 2.6442006e+2, -406054.72, -490699.97, -3.1241863, 0.0010821396, 0.00025062967, -406054.72, -57370.617, 0.0, 10.008634, 9.897896 
6.035671e+3, 2.7431852e+2, -306832.44, -391143.38, -17.293777, 0.0010815954, -0.00010045301, -306832.44, -55153.105, 0.0, 10.008622, 9.8983135 
6.0356706e+3, 2.842088e+2, -220287.72, -317666.28, 1.1766967, 0.0010811723, 0.00032898746, -220287.72, -65533.22, 0.0, 10.008613, 9.881521 
6.03567e+3, 2.940914e+2, -120633.625, -217384.63, -12.2641535, 0.0010809064, -0.00015117602, -120633.625, -62728.465, 0.0, 10.008603, 9.882312 
6.035669e+3, 3.0400175e+2, -31276.67, -85014.08, 4.783639, 0.0010802823, 0.00027036376, -31276.67, -31276.67, 0.0, 10.008594, 9.937858 
6.035668e+3, 3.1394142e+2, -30245.232, -82847.3, -8.17446, 0.0010791312, 0.000026878562, -30245.23, -30245.23, 0.0, 10.008584, 9.939325 
6.0457003e+3, 1.2514144e+2, -1708703.9, -1722696.8, 8.418818, 0.0010993931, 0.00020160037, -1708703.9, 4911.147, 0.0, 10.008994, 9.990446 
6.0456985e+3, 1.3513175e+2, -1611395.9, -1625970.6, -6.964202, 0.0010980151, 0.000022040935, -1611395.9, 4314.274, 0.0, 10.008981, 9.989663 
6.045697e+3, 1.451155e+2, -1523371.8, -1546773.9, 3.2224376, 0.0010971426, 0.0002825517, -1523371.8, -5502.3447, 0.0, 10.0089655, 9.9779625 
6.0456955e+3, 1.5509343e+2, -1425716.9, -1449510.6, -11.964832, 0.0010967209, 0.00009214381, -1425716.9, -5631.3203, 0.0, 10.00895, 9.977431 
6.045694e+3, 1.6506478e+2, -1337680.6, -1370616.3, -0.20666938, 0.0010962085, 0.000173038, -1337680.6, -15314.363, 0.0, 10.008936, 9.965399 
6.0456926e+3, 1.7503025e+2, -1239792.4, -1273034.6, -15.966511, 0.0010956158, 0.000068346235, -1239792.4, -15087.517, 0.0, 10.008924, 9.964985 
6.045691e+3, 1.8498896e+2, -1151896.0, -1194749.6, -5.056947, 0.0010950251, 0.00021169388, -1151896.0, -24786.81, 0.0, 10.00891, 9.95239 
6.04569e+3, 1.9494139e+2, -1053815.6, -1096922.4, -19.641094, 0.0010944284, 0.00007754474, -1053815.6, -24240.16, 0.0, 10.008897, 9.952046 
6.0456884e+3, 2.0488712e+2, -965740.06, -1018647.6, -7.2566414, 0.0010938076, 0.00019764279, -965740.06, -33632.86, 0.0, 10.008883, 9.939242 
6.045687e+3, 2.148264e+2, -867519.4, -920680.3, -22.932976, 0.0010931593, 0.0000021949008, -867519.3, -32817.063, 0.0, 10.008872, 9.938901 
6.045686e+3, 2.2475897e+2, -779296.1, -842492.1, -5.6086454, 0.0010926139, 0.00024691125, -779296.1, -41933.137, 0.0, 10.00886, 9.925845 
6.045685e+3, 2.3468487e+2, -680927.94, -744370.7, -21.076918, 0.0010921753, 0.000031485964, -680927.94, -40838.84, 0.0, 10.008847, 9.925513 
6.0456836e+3, 2.4460384e+2, -592666.56, -666501.94, -2.8225498, 0.0010916719, 0.00019100477, -592666.56, -49783.242, 0.0, 10.008836, 9.912057 
6.0456824e+3, 2.54516e+2, -493978.47, -567883.2, -17.924704, 0.0010910901, 0.0000075533726, -493978.47, -48234.46, 0.0, 10.008824, 9.911956 
6.045681e+3, 2.6442108e+2, -405814.6, -490628.72, 1.3480213, 0.0010904445, 0.00025092647, -405814.6, -57140.367, 0.0, 10.008814, 9.897853 
6.04568e+3, 2.743195e+2, -306593.13, -391073.2, -13.233569, 0.0010897147, -0.00009947061, -306593.1, -54923.207, 0.0, 10.008803, 9.898271 
6.0456795e+3, 2.8420973e+2, -220048.84, -317595.84, 5.192931, 0.0010892758, 0.00032992163, -220048.84, -65303.37, 0.0, 10.008793, 9.88148 
6.045678e+3, 2.9409227e+2, -120397.61, -217316.23, -8.135038, 0.0010892199, -0.00015126549, -120397.61, -62501.06, 0.0, 10.008782, 9.882271 
6.0456777e+3, 3.0400255e+2, -31046.572, -84953.33, 8.788948, 0.0010886614, 0.00027021443, -31046.57, -31046.57, 0.0, 10.008773, 9.937813 
6.0456765e+3, 3.139422e+2, -30015.676, -82787.24, -5.034379, 0.0010873654, 0.000028070697, -30015.674, -30015.674, 0.0, 10.008763, 9.93928 
6.055709e+3, 1.2514304e+2, -1708735.9, -1722762.1, 3.2222307, 0.0011084189, 0.0002018006, -1708735.9, 4863.5435, 0.0, 10.008997, 9.990405 
6.0557073e+3, 1.351333e+2, -1611427.6, -1626035.8, -12.118562, 0.0011052764, 0.00002352766, -1611427.6, 4267.2314, 0.0, 10.008983, 9.989621 
6.055706e+3, 1.45117e+2, -1523402.5, -1546837.4, -2.5273416, 0.0011044588, 0.000284064, -1523402.5, -5547.9717, 0.0, 10.008968, 9.9779215 
6.0557044e+3, 1.5509489e+2, -1425747.1, -1449573.8, -17.72584, 0.0011058196, 0.00009248219, -1425747.1, -5675.9863, 0.0, 10.008953, 9.977391 
6.055703e+3, 1.6506623e+2, -1337711.5, -1370680.9, -5.0334992, 0.0011054183, 0.0001730122, -1337711.5, -15359.217, 0.0, 10.008939, 9.965357 
6.0557014e+3, 1.7503163e+2, -1239822.9, -1273098.9, -20.778742, 0.0011033213, 0.00006873958, -1239822.9, -15131.694, 0.0, 10.008926, 9.964944 
6.0557e+3, 1.8499032e+2, -1151923.8, -1194808.8, -10.125119, 0.0011024615, 0.00021252214, -1151923.8, -24827.791, 0.0, 10.008913, 9.952352 
6.055699e+3, 1.949427e+2, -1053843.0, -1096981.1, -24.704908, 0.0011028234, 0.00007882378, -1053842.9, -24280.322, 0.0, 10.0089, 9.952008 
6.055697e+3, 2.048884e+2, -965769.8, -1018711.56, -11.816749, 0.0011025188, 0.00019853337, -965769.8, -33675.063, 0.0, 10.008886, 9.9392 
6.055696e+3, 2.1482763e+2, -867548.8, -920743.94, -27.489647, 0.0011015227, 0.0000018298186, -867548.75, -32858.527, 0.0, 10.008874, 9.938859 
6.055695e+3, 2.2476016e+2, -779325.7, -842556.4, -10.074802, 0.0011007587, 0.00024679923, -779325.7, -41974.33, 0.0, 10.0088625, 9.925802 
6.0556936e+3, 2.3468602e+2, -680957.1, -744434.56, -25.546518, 0.0011002412, 0.00003326263, -680957.1, -40879.215, 0.0, 10.00885, 9.92547 
6.0556924e+3, 2.4460493e+2, -592695.6, -666566.06, -7.0994506, 0.0010998007, 0.00019256867, -592695.6, -49823.11, 0.0, 10.008839, 9.912014 
6.055691e+3, 2.5451705e+2, -494007.1, -567946.94, -22.178013, 0.0010994442, 0.0000064902365, -494007.1, -48273.46, 0.0, 10.008827, 9.911913 
6.05569e+3, 2.644221e+2, -405843.16, -490692.7, -2.4767668, 0.0010988651, 0.00025005857, -405843.16, -57178.867, 0.0, 10.008816, 9.89781 
6.055689e+3, 2.7432045e+2, -306621.34, -391136.8, -17.06037, 0.0010980063, -0.0000966729, -306621.34, -54960.99, 0.0, 10.008806, 9.898228 
6.055688e+3, 2.8421065e+2, -220075.69, -317657.03, 1.2606108, 0.0010974898, 0.00033260687, -220075.69, -65339.348, 0.0, 10.008796, 9.881438 
6.055687e+3, 2.9409313e+2, -120423.87, -217376.8, -12.044803, 0.001097425, -0.00015371469, -120423.87, -62536.016, 0.0, 10.008785, 9.882229 
6.0556865e+3, 3.0400342e+2, -31075.484, -85019.67, 5.2880297, 0.0010968888, 0.0002674713, -31075.484, -31075.484, 0.0, 10.008775, 9.937767 
6.055685e+3, 3.1394303e+2, -30044.932, -82854.29, -8.528463, 0.0010956601, 0.000032061813, -30044.93, -30044.93, 0.0, 10.008765, 9.939233 
6.0657185e+3, 1.2514466e+2, -1708465.1, -1722664.3, 8.815595, 0.0011161276, 0.00020279778, -1708465.1, 5118.487, 0.0, 10.009185, 9.990364 
6.065717e+3, 1.3513488e+2, -1611162.1, -1625941.3, -6.1420264, 0.0011140018, 0.000023936238, -1611162.0, 4517.434, 0.0, 10.009169, 9.98958 
6.065715e+3, 1.4511853e+2, -1523139.3, -1546745.4, 3.5654392, 0.0011132329, 0.00028438098, -1523139.3, -5299.689, 0.0, 10.009154, 9.9778805 
6.065713e+3, 1.550964e+2, -1425483.4, -1449482.1, -12.166697, 0.0011137225, 0.00009317742, -1425483.4, -5426.7964, 0.0, 10.00914, 9.977349 
6.065712e+3, 1.6506766e+2, -1337449.1, -1370591.0, 0.59416854, 0.0011132297, 0.00017381222, -1337449.1, -15111.079, 0.0, 10.009126, 9.965316 
6.06571e+3, 1.7503303e+2, -1239564.1, -1273011.5, -15.25106, 0.0011117941, 0.00006938067, -1239564.1, -14886.669, 0.0, 10.009111, 9.964902 
6.065709e+3, 1.8499169e+2, -1151664.3, -1194718.1, -4.5686164, 0.0011110412, 0.00021306075, -1151664.3, -24581.615, 0.0, 10.009098, 9.952312 
6.065708e+3, 1.9494402e+2, -1053584.1, -1096891.6, -19.320679, 0.0011109592, 0.00007931596, -1053584.1, -24034.512, 0.0, 10.009085, 9.951969 
6.0657066e+3, 2.0488968e+2, -965515.06, -1018628.8, -6.3832917, 0.0011105583, 0.00019908191, -965515.06, -33432.87, 0.0, 10.009071, 9.9391575 
6.065705e+3, 2.1482888e+2, -867296.5, -920663.1, -22.327456, 0.0011098245, 0.00000254063, -867296.5, -32618.406, 0.0, 10.009059, 9.938816 
6.0657036e+3, 2.2476137e+2, -779075.5, -842477.94, -4.9618044, 0.0011091555, 0.00024749548, -779075.5, -41735.848, 0.0, 10.009047, 9.925759 
6.0657024e+3, 2.3468718e+2, -680708.4, -744357.56, -20.760635, 0.0011085516, 0.00003375332, -680708.4, -40641.84, 0.0, 10.009034, 9.925427 
6.065701e+3, 2.4460605e+2, -592447.8, -666489.94, -2.2750518, 0.0011080253, 0.00019300834, -592447.8, -49586.19, 0.0, 10.009023, 9.911971 
6.0657e+3, 2.5451815e+2, -493760.63, -567872.2, -17.3932, 0.0011075836, 0.000007055538, -493760.6, -48037.47, 0.0, 10.009011, 9.91187 
6.0656995e+3, 2.6442313e+2, -405599.06, -490621.0, 2.2492795, 0.0011070684, 0.0002506471, -405599.06, -56944.83, 0.0, 10.009, 9.897766 
6.065698e+3, 2.7432144e+2, -306380.1, -391067.3, -12.93624, 0.0011064565, -0.000096185686, -306380.1, -54729.38, 0.0, 10.008988, 9.898184 
6.065697e+3, 2.842116e+2, -219833.78, -317584.75, 5.341616, 0.0011059605, 0.00033310315, -219833.78, -65106.66, 0.0, 10.008978, 9.881397 
6.0656965e+3, 2.9409406e+2, -120182.42, -217305.22, -7.7976418, 0.0011056153, -0.0001530653, -120182.42, -62303.387, 0.0, 10.008968, 9.882188 
6.065695e+3, 3.0400428e+2, -30840.559, -84958.836, 9.420729, 0.0011049886, 0.0002680798, -30840.557, -30840.557, 0.0, 10.008958, 9.937719 
6.065694e+3, 3.139438e+2, -29811.139, -82794.73, -5.142611, 0.0011039458, 0.00003235441, -29811.137, -29811.137, 0.0, 10.008948, 9.939185 
6.0757273e+3, 1.2514628e+2, -1708496.3, -1722727.9, 2.755313, 0.0011228631, 0.00020439508, -1708496.3, 5071.415, 0.0, 10.009188, 9.990323 
6.0757256e+3, 1.3513646e+2, -1611192.8, -1626004.5, -12.212464, 0.0011238517, 0.000023531096, -1611192.8, 4471.2373, 0.0, 10.0091715, 9.98954 
6.0757244e+3, 1.4512008e+2, -1523171.0, -1546811.1, -1.7248219, 0.0011231244, 0.0002837973, -1523171.0, -5346.623, 0.0, 10.009156, 9.9778385 
6.0757226e+3, 1.5509789e+2, -1425514.9, -1449547.5, -17.44428, 0.0011207378, 0.00009414489, -1425514.9, -5472.978, 0.0, 10.009143, 9.977307 
6.0757214e+3, 1.6506912e+2, -1337480.1, -1370656.0, -4.7559466, 0.0011200014, 0.00017523898, -1337480.1, -15156.437, 0.0, 10.009129, 9.965274 
6.0757196e+3, 1.7503445e+2, -1239594.8, -1273076.1, -20.597137, 0.0011208666, 0.00007021205, -1239594.8, -14931.191, 0.0, 10.009114, 9.96486 
6.0757184e+3, 1.8499306e+2, -1151692.3, -1194778.0, -9.458121, 0.0011205047, 0.0002133819, -1151692.3, -24623.074, 0.0, 10.0091, 9.952273 
6.0757166e+3, 1.9494537e+2, -1053611.8, -1096951.0, -24.203192, 0.0011189166, 0.00007921141, -1053611.8, -24075.232, 0.0, 10.009088, 9.95193 
6.0757154e+3, 2.0489098e+2, -965545.3, -1018693.8, -11.217647, 0.0011181068, 0.00019937256, -965545.3, -33475.86, 0.0, 10.009074, 9.939116 
6.0757136e+3, 2.1483013e+2, -867326.4, -920727.75, -27.172802, 0.0011180966, 0.0000040740692, -867326.4, -32660.588, 0.0, 10.009062, 9.938773 
6.075713e+3, 2.2476257e+2, -779105.56, -842543.44, -9.469403, 0.0011177603, 0.00024880932, -779105.56, -41777.836, 0.0, 10.009049, 9.925716 
6.075711e+3, 2.3468836e+2, -680738.1, -744422.75, -25.235994, 0.0011170657, 0.00003326332, -680738.1, -40683.01, 0.0, 10.009037, 9.9253845 
6.0757107e+3, 2.4460718e+2, -592476.9, -666554.2, -6.519826, 0.0011163411, 0.00019259236, -592476.9, -49626.285, 0.0, 10.009026, 9.911928 
6.075709e+3, 2.5451922e+2, -493789.28, -567936.0, -21.66881, 0.0011155783, 0.000008869306, -493789.28, -48076.75, 0.0, 10.009014, 9.911827 
6.075708e+3, 2.6442418e+2, -405628.72, -490687.3, -1.9662188, 0.0011151246, 0.00025235128, -405628.72, -56984.684, 0.0, 10.009003, 9.897722 
6.075707e+3, 2.7432242e+2, -306409.34, -391133.3, -17.088747, 0.0011150434, -0.00009746538, -306409.34, -54768.36, 0.0, 10.008991, 9.898139 
6.075706e+3, 2.8421256e+2, -219860.17, -317645.34, 1.647787, 0.0011146422, 0.00033192645, -219860.17, -65142.36, 0.0, 10.008981, 9.881356 
6.075705e+3, 2.9409498e+2, -120208.28, -217365.03, -11.540911, 0.0011138128, -0.00015004048, -120208.28, -62338.195, 0.0, 10.008971, 9.882148 
6.075704e+3, 3.0400512e+2, -30870.81, -85027.91, 5.713563, 0.0011130108, 0.00027125652, -30870.81, -30870.81, 0.0, 10.008961, 9.937672 
6.075703e+3, 3.1394464e+2, -29841.88, -82864.84, -8.739893, 0.001112242, 0.000029814777, -29841.879, -29841.879, 0.0, 10.008951, 9.9391365 
6.085737e+3, 1.2514792e+2, -1708224.6, -1722629.9, 9.153059, 0.0011315141, 0.00020467241, -1708224.6, 5326.9873, 0.0, 10.0093775, 9.990282 
6.085735e+3, 1.3513806e+2, -1610921.8, -1625907.5, -6.345121, 0.0011318403, 0.000024346002, -1610921.8, 4726.5625, 0.0, 10.009361, 9.989499 
6.085733e+3, 1.4512165e+2, -1522902.1, -1546717.0, 4.3613186, 0.0011310573, 0.0002846836, -1522902.1, -5092.9683, 0.0, 10.009346, 9.977797 
6.085732e+3, 1.550994e+2, -1425248.4, -1449455.4, -11.470142, 0.0011291878, 0.0000946597, -1425248.4, -5221.444, 0.0, 10.009332, 9.977265 
6.08573e+3, 1.6507061e+2, -1337215.5, -1370565.4, 1.1152054, 0.0011285245, 0.00017566698, -1337215.5, -14906.155, 0.0, 10.009316, 9.965231 
6.085729e+3, 1.750359e+2, -1239331.5, -1272987.0, -14.982962, 0.0011290351, 0.000070827875, -1239331.5, -14682.041, 0.0, 10.009302, 9.964818 
6.085728e+3, 1.8499444e+2, -1151427.9, -1194685.3, -3.6315026, 0.0011286314, 0.00021404668, -1151427.9, -24372.348, 0.0, 10.009289, 9.952234 
6.085726e+3, 1.9494672e+2, -1053349.4, -1096860.1, -18.520306, 0.0011273109, 0.00007978739, -1053349.4, -23826.135, 0.0, 10.009275, 9.951891 
6.085725e+3, 2.048923e+2, -965287.56, -1018610.56, -5.6627736, 0.001126545, 0.00019994627, -965287.56, -33230.953, 0.0, 10.009262, 9.939072 
6.085723e+3, 2.148314e+2, -867070.1, -920646.0, -22.026411, 0.0011263483, 0.0000047349718, -867070.1, -32416.764, 0.0, 10.009249, 9.93873 
6.085722e+3, 2.247638e+2, -778850.56, -842462.8, -4.2235613, 0.0011259537, 0.0002494072, -778850.56, -41534.816, 0.0, 10.009236, 9.925673 
6.0857207e+3, 2.3468953e+2, -680485.06, -744343.8, -19.926369, 0.0011253398, 0.0000336352, -680485.06, -40441.53, 0.0, 10.009224, 9.925342 
6.0857195e+3, 2.4460831e+2, -592225.94, -666477.9, -1.2690518, 0.0011246973, 0.00019302352, -592225.94, -49386.48, 0.0, 10.0092125, 9.911884 
6.085718e+3, 2.545203e+2, -493540.2, -567861.4, -17.189981, 0.0011240178, 0.000009687377, -493540.2, -47838.406, 0.0, 10.0092, 9.911783 
6.085717e+3, 2.644252e+2, -405380.5, -490613.5, 2.5116572, 0.0011235132, 0.00025312038, -405380.5, -56746.77, 0.0, 10.009189, 9.897678 
6.0857165e+3, 2.7432343e+2, -306162.16, -391060.7, -12.097674, 0.0011232169, -0.0000972805, -306162.16, -54531.03, 0.0, 10.009178, 9.898095 
6.0857147e+3, 2.842135e+2, -219613.66, -317572.8, 6.577969, 0.0011228063, 0.00033209924, -219613.66, -64905.28, 0.0, 10.009168, 9.881313 
6.085714e+3, 2.9409587e+2, -119964.484, -217294.52, -7.9754386, 0.00112224, -0.00014912116, -119964.484, -62103.418, 0.0, 10.009156, 9.882105 
6.0857135e+3, 3.04006e+2, -30632.81, -84964.87, 9.023619, 0.0011215239, 0.00027222015, -30632.809, -30632.809, 0.0, 10.009146, 9.937626 
6.0857123e+3, 3.1394547e+2, -29604.43, -82802.484, -4.330141, 0.0011205837, 0.000029808209, -29604.43, -29604.43, 0.0, 10.009136, 9.93909 
6.095746e+3, 1.2514958e+2, -1708256.9, -1722695.9, 3.2405741, 0.0011416208, 0.00020396286, -1708256.9, 5278.4497, 0.0, 10.009379, 9.99024 
6.0957444e+3, 1.3513967e+2, -1610953.5, -1625973.1, -12.243308, 0.0011384451, 0.00002608181, -1610953.5, 4678.898, 0.0, 10.009364, 9.989457 
6.0957426e+3, 1.4512321e+2, -1522934.1, -1546783.3, -1.2155795, 0.0011375353, 0.00028667727, -1522934.1, -5140.3696, 0.0, 10.009349, 9.977754 
6.0957414e+3, 1.5510094e+2, -1425280.1, -1449521.3, -17.02729, 0.0011387388, 0.00009483516, -1425280.1, -5268.13, 0.0, 10.009334, 9.977223 
6.0957396e+3, 1.6507208e+2, -1337247.0, -1370631.5, -4.2634215, 0.0011383854, 0.00017534474, -1337247.0, -14952.326, 0.0, 10.009319, 9.965189 
6.0957384e+3, 1.7503732e+2, -1239362.6, -1273052.5, -20.355375, 0.0011365388, 0.00007128271, -1239362.6, -14727.284, 0.0, 10.009305, 9.964775 
6.0957366e+3, 1.8499584e+2, -1151456.0, -1194745.6, -8.66784, 0.0011357676, 0.0002149728, -1151456.0, -24414.248, 0.0, 10.009292, 9.952195 
6.0957354e+3, 1.9494809e+2, -1053377.3, -1096920.1, -23.564434, 0.0011360538, 0.00008088157, -1053377.3, -23867.344, 0.0, 10.009278, 9.951852 
6.0957336e+3, 2.0489362e+2, -965318.7, -1018677.25, -10.521833, 0.0011356734, 0.00020073663, -965318.7, -33275.027, 0.0, 10.009265, 9.939029 
6.0957325e+3, 2.1483268e+2, -867100.8, -920712.4, -26.856699, 0.0011346027, 0.000004734613, -867100.8, -32459.996, 0.0, 10.009252, 9.938686 
6.0957307e+3, 2.2476505e+2, -778880.44, -842528.0, -8.851985, 0.0011338547, 0.00024946392, -778880.44, -41576.816, 0.0, 10.009239, 9.92563 
6.09573e+3, 2.3469074e+2, -680514.5, -744408.56, -24.58887, 0.0011334504, 0.000034666908, -680514.5, -40482.68, 0.0, 10.009227, 9.925298 
6.095728e+3, 2.4460946e+2, -592256.44, -666545.2, -5.6687984, 0.0011331015, 0.00019410174, -592256.44, -49428.273, 0.0, 10.009214, 9.9118395 
6.0957277e+3, 2.5452143e+2, -493570.34, -567928.4, -21.52478, 0.0011328114, 0.000009746311, -493570.34, -47879.383, 0.0, 10.009203, 9.911738 
6.0957265e+3, 2.6442626e+2, -405409.1, -490677.78, -1.5516657, 0.0011321716, 0.0002531778, -405409.1, -56785.766, 0.0, 10.0091915, 9.8976345 
6.095725e+3, 2.7432448e+2, -306190.28, -391124.44, -16.225443, 0.0011310965, -0.00009597345, -306190.28, -54569.137, 0.0, 10.009181, 9.898052 
6.095724e+3, 2.8421447e+2, -219642.5, -317638.56, 2.4784052, 0.0011305974, 0.0003333059, -219642.5, -64943.695, 0.0, 10.00917, 9.8812685 
6.095723e+3, 2.940968e+2, -119992.96, -217359.97, -11.958369, 0.0011308584, -0.00014980917, -119992.96, -62140.992, 0.0, 10.009159, 9.88206 
6.0957223e+3, 3.040069e+2, -30661.115, -85030.195, 5.35508, 0.0011304257, 0.00027149444, -30661.115, -30661.115, 0.0, 10.009149, 9.93758 
6.095722e+3, 3.139463e+2, -29632.771, -82867.875, -8.117051, 0.0011289779, 0.00003174123, -29632.77, -29632.77, 0.0, 10.009139, 9.939044 
6.1057556e+3, 1.2515126e+2, -1707981.0, -1722596.6, 9.39207, 0.0011498168, 0.00020480386, -1707981.0, 5537.9297, 0.0, 10.009572, 9.990198 
6.105754e+3, 1.3514131e+2, -1610678.5, -1625875.0, -6.238639, 0.0011467395, 0.0000266881, -1610678.5, 4937.8804, 0.0, 10.009557, 9.989415 
6.1057526e+3, 1.4512481e+2, -1522661.1, -1546687.1, 4.681979, 0.0011458773, 0.00028721063, -1522661.1, -4882.981, 0.0, 10.0095415, 9.977712 
6.10575e+3, 1.5510249e+2, -1425010.4, -1449427.6, -11.186822, 0.0011470802, 0.00009544637, -1425010.4, -5013.5747, 0.0, 10.009525, 9.9771805 
6.105749e+3, 1.6507359e+2, -1336979.1, -1370540.0, 2.01598, 0.0011467146, 0.00017596051, -1336979.1, -14699.195, 0.0, 10.00951, 9.965146 
6.105748e+3, 1.7503878e+2, -1239095.3, -1272962.0, -14.307339, 0.0011448441, 0.00007183309, -1239095.3, -14474.229, 0.0, 10.009497, 9.964732 
6.105746e+3, 1.8499729e+2, -1151187.3, -1194651.4, -2.8436234, 0.001144068, 0.0002155582, -1151187.3, -24159.408, 0.0, 10.009483, 9.952155 
6.105745e+3, 1.9494946e+2, -1053111.0, -1096828.0, -18.072699, 0.0011443687, 0.00008160142, -1053111.0, -23614.713, 0.0, 10.009469, 9.951812 
6.105743e+3, 2.0489496e+2, -965057.1, -1018592.4, -4.8075233, 0.0011440163, 0.00020137106, -965057.1, -33026.6, 0.0, 10.009455, 9.938985 
6.105742e+3, 2.1483397e+2, -866840.75, -920629.0, -21.065706, 0.0011429872, 0.000005057044, -866840.75, -32212.68, 0.0, 10.009442, 9.938643 
6.1057407e+3, 2.247663e+2, -778622.0, -842446.9, -3.1500413, 0.0011422368, 0.0002498588, -778622.0, -41330.67, 0.0, 10.00943, 9.925586 
6.1057395e+3, 2.3469195e+2, -680257.6, -744328.94, -19.63668, 0.0011417825, 0.000035550154, -680257.56, -40237.605, 0.0, 10.009418, 9.925254 
6.1057377e+3, 2.4461062e+2, -592000.75, -666466.7, -0.70057815, 0.0011414095, 0.00019491004, -592000.75, -49183.96, 0.0, 10.009405, 9.911796 
6.105737e+3, 2.5452253e+2, -493316.53, -567851.56, -16.122139, 0.001141125, 0.0000098338905, -493316.53, -47636.543, 0.0, 10.009393, 9.911695 
6.105736e+3, 2.6442733e+2, -405157.4, -490603.75, 3.8207784, 0.0011405364, 0.00025332192, -405157.4, -56544.598, 0.0, 10.009381, 9.89759 
6.105734e+3, 2.743255e+2, -305940.44, -391052.13, -12.132272, 0.0011395679, -0.00009481876, -305940.44, -54329.414, 0.0, 10.00937, 9.898007 
6.1057335e+3, 2.8421548e+2, -219392.08, -317563.88, 6.459048, 0.0011390559, 0.0003344214, -219392.06, -64702.918, 0.0, 10.009359, 9.881226 
6.1057323e+3, 2.9409775e+2, -119743.83, -217286.47, -6.7766566, 0.0011391457, -0.00015012674, -119743.83, -61901.098, 0.0, 10.009348, 9.882017 
6.105732e+3, 3.0400777e+2, -30418.807, -84967.28, 10.449022, 0.0011386747, 0.0002710793, -30418.805, -30418.805, 0.0, 10.009337, 9.937531 
6.105731e+3, 3.1394714e+2, -29391.477, -82806.15, -5.2352843, 0.0011373813, 0.00003316787, -29391.477, -29391.477, 0.0, 10.009327, 9.938995 
6.115765e+3, 1.2515296e+2, -1708013.5, -1722663.1, 3.6402905, 0.0011566024, 0.00020680338, -1708013.5, 5488.922, 0.0, 10.009575, 9.990156 
6.115764e+3, 1.3514295e+2, -1610710.9, -1625941.3, -11.96471, 0.0011563208, 0.00002644925, -1610710.9, 4889.4517, 0.0, 10.00956, 9.989372 
6.115762e+3, 1.451264e+2, -1522693.4, -1546753.6, -1.313593, 0.0011556346, 0.00028665303, -1522693.4, -4930.904, 0.0, 10.009543, 9.977669 
6.11576e+3, 1.5510406e+2, -1425042.0, -1449493.5, -17.193052, 0.0011545303, 0.000096386684, -1425041.9, -5060.432, 0.0, 10.009528, 9.9771385 
6.115759e+3, 1.6507512e+2, -1337011.0, -1370606.8, -3.13952, 0.0011539124, 0.0001772817, -1337011.0, -14745.908, 0.0, 10.009513, 9.965103 
6.1157566e+3, 1.7504027e+2, -1239126.9, -1273028.5, -19.450193, 0.0011537719, 0.00007245829, -1239126.9, -14520.301, 0.0, 10.0095, 9.964689 
6.1157554e+3, 1.8499872e+2, -1151216.1, -1194713.1, -8.164094, 0.0011532629, 0.0002158902, -1151216.1, -24202.404, 0.0, 10.009485, 9.952115 
6.1157537e+3, 1.9495086e+2, -1053139.5, -1096889.3, -23.376228, 0.0011523799, 0.00008203944, -1053139.5, -23656.799, 0.0, 10.009472, 9.951772 
6.1157525e+3, 2.048963e+2, -965087.8, -1018658.56, -9.674388, 0.0011517865, 0.0002018892, -965087.8, -33070.555, 0.0, 10.009458, 9.938941 
6.115751e+3, 2.1483529e+2, -866871.1, -920694.9, -25.959408, 0.0011514876, 0.000005629067, -866871.1, -32255.865, 0.0, 10.009445, 9.9386 
6.11575e+3, 2.2476757e+2, -778653.44, -842515.1, -7.826511, 0.0011509991, 0.00025051343, -778653.44, -41374.457, 0.0, 10.009432, 9.925541 
6.115748e+3, 2.3469315e+2, -680288.56, -744396.8, -24.262453, 0.0011503001, 0.0000363178, -680288.56, -40280.55, 0.0, 10.009419, 9.925209 
6.1157477e+3, 2.446118e+2, -592030.3, -666532.2, -5.1765738, 0.0011496642, 0.00019551262, -592030.3, -49225.043, 0.0, 10.009408, 9.911752 
6.115746e+3, 2.5452366e+2, -493345.6, -567916.56, -20.647655, 0.0011490955, 0.000009953588, -493345.6, -47676.69, 0.0, 10.009396, 9.911651 
6.1157453e+3, 2.6442844e+2, -405188.34, -490673.0, -0.40618795, 0.0011486982, 0.0002535408, -405188.34, -56586.19, 0.0, 10.009384, 9.897543 
6.115744e+3, 2.7432653e+2, -305971.13, -391121.22, -16.267458, 0.0011485034, -0.0000937877, -305971.1, -54370.266, 0.0, 10.009373, 9.897961 
6.115743e+3, 2.8421646e+2, -219418.7, -317625.13, 2.4545054, 0.0011480354, 0.0003354597, -219418.7, -64739.305, 0.0, 10.009362, 9.881184 
6.115742e+3, 2.9409873e+2, -119769.734, -217346.72, -10.881622, 0.0011472022, -0.00015014835, -119769.734, -61936.355, 0.0, 10.009351, 9.881976 
6.1157405e+3, 3.040087e+2, -30450.797, -85040.42, 6.5047646, 0.0011464509, 0.00027091653, -30450.797, -30450.797, 0.0, 10.00934, 9.937481 
6.11574e+3, 3.1394804e+2, -29424.143, -82880.73, -9.017672, 0.0011458099, 0.000034198067, -29424.143, -29424.143, 0.0, 10.00933, 9.938944 
6.125775e+3, 1.2515466e+2, -1707732.1, -1722560.9, 9.914675, 0.0011646784, 0.00020737063, -1707732.1, 5753.512, 0.0, 10.00977, 9.990114 
6.125773e+3, 1.3514462e+2, -1610434.5, -1625842.4, -5.6037498, 0.001164937, 0.000026934182, -1610434.5, 5149.4883, 0.0, 10.009753, 9.98933 
6.1257714e+3, 1.4512804e+2, -1522419.4, -1546658.0, 5.4653196, 0.0011642458, 0.00028714738, -1522419.4, -4672.7856, 0.0, 10.009737, 9.977626 
6.12577e+3, 1.5510564e+2, -1424766.6, -1449398.0, -10.92367, 0.0011626179, 0.000096976335, -1424766.6, -4800.5967, 0.0, 10.009723, 9.977095 
6.125768e+3, 1.6507664e+2, -1336736.9, -1370512.6, 2.8827016, 0.0011619752, 0.00017793803, -1336736.9, -14486.851, 0.0, 10.009708, 9.965059 
6.1257666e+3, 1.7504176e+2, -1238857.0, -1272937.3, -13.571928, 0.0011622909, 0.000073153526, -1238857.0, -14265.045, 0.0, 10.009693, 9.964645 
6.125765e+3, 1.8500017e+2, -1150945.4, -1194618.4, -1.9340453, 0.001161865, 0.0002164786, -1150945.4, -23945.906, 0.0, 10.009679, 9.952075 
6.1257637e+3, 1.9495226e+2, -1052868.9, -1096795.4, -17.177168, 0.0011606944, 0.0000823769, -1052868.9, -23400.049, 0.0, 10.0096655, 9.951732 
6.1257625e+3, 2.0489767e+2, -964821.4, -1018572.2, -3.664588, 0.0011600113, 0.00020231906, -964821.4, -32817.547, 0.0, 10.009652, 9.938897 
6.1257607e+3, 2.1483661e+2, -866607.06, -920610.5, -20.589582, 0.0011598262, 0.000006504565, -866607.06, -32004.771, 0.0, 10.009638, 9.938555 
6.1257595e+3, 2.2476883e+2, -778391.1, -842432.5, -2.3372123, 0.001159416, 0.00025130127, -778391.1, -41124.684, 0.0, 10.009625, 9.925496 
6.125758e+3, 2.3469439e+2, -680028.06, -744315.8, -18.47352, 0.0011587568, 0.00003644209, -680028.06, -40032.133, 0.0, 10.009613, 9.925164 
6.125757e+3, 2.4461299e+2, -591771.2, -666453.1, 0.6025212, 0.0011581063, 0.00019570426, -591771.2, -48977.594, 0.0, 10.009601, 9.911707 
6.125756e+3, 2.545248e+2, -493087.63, -567838.75, -15.820259, 0.0011574607, 0.000011048961, -493087.63, -47429.926, 0.0, 10.009588, 9.911606 
6.125754e+3, 2.6442954e+2, -404931.88, -490597.1, 4.32776, 0.0011570423, 0.00025456233, -404931.88, -56340.48, 0.0, 10.009577, 9.897498 
6.1257535e+3, 2.7432758e+2, -305716.94, -391047.22, -10.877586, 0.0011568951, -0.00009403719, -305716.94, -54126.426, 0.0, 10.009565, 9.897915 
6.1257523e+3, 2.8421748e+2, -219164.66, -317549.9, 7.8031864, 0.0011564664, 0.0003352177, -219164.66, -64495.137, 0.0, 10.009554, 9.88114 
6.125752e+3, 2.9409966e+2, -119517.03, -217272.75, -7.1680756, 0.0011556612, -0.0001486909, -119517.03, -61693.113, 0.0, 10.009543, 9.881932 
6.1257505e+3, 3.0400962e+2, -30204.203, -84975.766, 9.899451, 0.0011548966, 0.00027247317, -30204.201, -30204.201, 0.0, 10.009532, 9.937432 
6.1257493e+3, 3.1394887e+2, -29178.18, -82816.95, -4.120325, 0.0011541833, 0.000033543227, -29178.178, -29178.178, 0.0, 10.0095215, 9.938894 
6.1357844e+3, 1.2515637e+2, -1707764.6, -1722627.1, 3.302938, 0.0011737366, 0.00020687611, -1707764.6, 5704.2207, 0.0, 10.009773, 9.990072 
6.1357826e+3, 1.351463e+2, -1610466.1, -1625908.0, -12.233393, 0.0011728479, 0.000027962406, -1610466.1, 5101.341, 0.0, 10.009756, 9.989288 
6.1357814e+3, 1.4512967e+2, -1522452.3, -1546726.5, 0.1118811, 0.0011720178, 0.0002884284, -1522452.3, -4721.8403, 0.0, 10.00974, 9.977582 
6.135779e+3, 1.5510723e+2, -1424799.5, -1449466.3, -16.24131, 0.0011712051, 0.0000973064, -1424799.5, -4849.116, 0.0, 10.009726, 9.977051 
6.135778e+3, 1.6507821e+2, -1336769.3, -1370580.1, -2.9560883, 0.001170707, 0.0001781, -1336769.3, -14534.381, 0.0, 10.009711, 9.965015 
6.1357766e+3, 1.7504327e+2, -1238888.6, -1273004.3, -19.40774, 0.0011705209, 0.00007390175, -1238888.6, -14311.474, 0.0, 10.009696, 9.964602 
6.135775e+3, 1.8500163e+2, -1150974.1, -1194680.0, -6.912641, 0.0011700393, 0.00021726043, -1150974.1, -23988.92, 0.0, 10.009682, 9.952035 
6.1357737e+3, 1.949537e+2, -1052897.4, -1096856.6, -22.167685, 0.0011692558, 0.000082645296, -1052897.4, -23442.44, 0.0, 10.009668, 9.951691 
6.135772e+3, 2.0489906e+2, -964853.56, -1018641.1, -8.773613, 0.0011685971, 0.00020268747, -964853.56, -32863.24, 0.0, 10.009655, 9.938851 
6.1357707e+3, 2.1483795e+2, -866638.75, -920679.0, -25.665686, 0.001168063, 0.000007603748, -866638.75, -32049.543, 0.0, 10.009641, 9.93851 
6.135769e+3, 2.2477013e+2, -778421.7, -842499.4, -7.070078, 0.0011675929, 0.0002521867, -778421.7, -41167.926, 0.0, 10.009628, 9.925451 
6.1357677e+3, 2.3469563e+2, -680058.2, -744382.25, -23.235296, 0.0011671857, 0.00003609444, -680058.2, -40074.49, 0.0, 10.009615, 9.92512 
6.1357665e+3, 2.446142e+2, -591802.56, -666522.44, -3.829279, 0.001166707, 0.00019559724, -591802.56, -49020.754, 0.0, 10.0096035, 9.91166 
6.1357653e+3, 2.5452596e+2, -493118.66, -567907.8, -20.19948, 0.0011661414, 0.000012868396, -493118.66, -47472.313, 0.0, 10.009591, 9.911559 
6.135764e+3, 2.6443067e+2, -404961.53, -490663.8, -0.060573146, 0.0011655431, 0.0002561786, -404961.53, -56381.04, 0.0, 10.00958, 9.897453 
6.135763e+3, 2.7432865e+2, -305746.03, -391113.34, -15.314808, 0.001164898, -0.00009523211, -305746.03, -54165.94, 0.0, 10.009568, 9.89787 
6.135762e+3, 2.8421852e+2, -219194.1, -317617.28, 3.7305698, 0.0011645048, 0.00033403106, -219194.1, -64534.57, 0.0, 10.009557, 9.881095 
6.1357605e+3, 2.9410064e+2, -119546.16, -217339.83, -11.143136, 0.0011644406, -0.00014613675, -119546.16, -61731.805, 0.0, 10.009546, 9.8818865 
6.13576e+3, 3.0401057e+2, -30233.7, -85043.76, 6.021304, 0.0011638633, 0.00027530413, -30233.7, -30233.7, 0.0, 10.009535, 9.937385 
6.135759e+3, 3.1394976e+2, -29207.75, -82885.12, -8.085314, 0.0011625349, 0.00003164372, -29207.748, -29207.748, 0.0, 10.009524, 9.938847 
6.1457944e+3, 1.2515812e+2, -1707483.3, -1722526.0, 10.132242, 0.0011825669, 0.00020731277, -1707483.3, 5968.474, 0.0, 10.00997, 9.990029 
6.145793e+3, 1.3514799e+2, -1610182.5, -1625806.4, -6.0946283, 0.0011806922, 0.000028744424, -1610182.5, 5368.365, 0.0, 10.009954, 9.989245 
6.145791e+3, 1.4513133e+2, -1522170.4, -1546627.0, 6.1618958, 0.0011798615, 0.00028924088, -1522170.4, -4456.1494, 0.0, 10.009938, 9.977538 
6.1457896e+3, 1.5510884e+2, -1424523.3, -1449370.4, -9.993549, 0.0011799781, 0.00009784965, -1424523.3, -4588.6455, 0.0, 10.009922, 9.977008 
6.145788e+3, 1.6507977e+2, -1336495.0, -1370486.5, 3.7274327, 0.0011795646, 0.00017853522, -1336495.0, -14275.521, 0.0, 10.009907, 9.964972 
6.145786e+3, 1.7504479e+2, -1238613.1, -1272910.6, -13.018201, 0.0011786508, 0.00007438448, -1238613.1, -14050.8955, 0.0, 10.009892, 9.964559 
6.145785e+3, 1.8500312e+2, -1150696.8, -1194582.6, -0.6923309, 0.001178052, 0.00021785728, -1150696.8, -23726.13, 0.0, 10.009879, 9.951994 
6.145783e+3, 1.9495514e+2, -1052623.6, -1096761.8, -16.329052, 0.0011777551, 0.000083421975, -1052623.6, -23182.867, 0.0, 10.009864, 9.95165 
6.145782e+3, 2.0490046e+2, -964584.9, -1018554.2, -2.7471797, 0.0011772374, 0.00020334122, -964584.9, -32608.275, 0.0, 10.0098505, 9.938807 
6.14578e+3, 2.148393e+2, -866370.9, -920593.2, -19.509417, 0.0011764888, 0.000007823642, -866370.9, -31794.9, 0.0, 10.009837, 9.938465 
6.145779e+3, 2.2477144e+2, -778154.8, -842415.2, -0.94221294, 0.0011759159, 0.0002524836, -778154.8, -40913.848, 0.0, 10.009825, 9.925406 
6.145777e+3, 2.346969e+2, -679792.94, -744299.56, -17.814024, 0.0011755265, 0.00003701912, -679792.9, -39821.555, 0.0, 10.009811, 9.925075 
6.1457765e+3, 2.4461542e+2, -591539.2, -666442.0, 1.5436925, 0.0011751199, 0.0001964741, -591539.2, -48769.273, 0.0, 10.009799, 9.911614 
6.145775e+3, 2.5452715e+2, -492857.66, -567829.3, -14.612883, 0.0011746883, 0.000012925205, -492857.66, -47222.77, 0.0, 10.009787, 9.911513 
6.145774e+3, 2.6443177e+2, -404701.78, -490586.9, 5.535081, 0.0011740824, 0.00025625076, -404701.78, -56132.297, 0.0, 10.009775, 9.897407 
6.1457723e+3, 2.7432972e+2, -305486.84, -391037.5, -10.586571, 0.0011732555, -0.00009412188, -305486.84, -53917.316, 0.0, 10.009764, 9.897824 
6.145772e+3, 2.8421953e+2, -218934.88, -317540.6, 8.280414, 0.00117282, 0.0003351289, -218934.88, -64285.46, 0.0, 10.009752, 9.881049 
6.1457705e+3, 2.9410166e+2, -119289.555, -217265.1, -6.0254474, 0.0011728985, -0.00014644292, -119289.555, -61484.87, 0.0, 10.009741, 9.881842 
6.1457694e+3, 3.040115e+2, -29983.713, -84978.1, 10.969954, 0.0011723975, 0.00027490253, -29983.71, -29983.71, 0.0, 10.00973, 9.937336 
6.145769e+3, 3.1395066e+2, -28958.477, -82820.34, -4.620003, 0.0011710485, 0.000033043205, -28958.477, -28958.477, 0.0, 10.009719, 9.938797 
6.1558044e+3, 1.2515987e+2, -1707517.0, -1722595.1, 4.429224, 0.0011912388, 0.0002084413, -1707517.0, 5917.5566, 0.0, 10.009973, 9.9899845 
6.1558026e+3, 1.3514972e+2, -1610216.1, -1625875.3, -11.744548, 0.0011885164, 0.00002934263, -1610216.1, 5317.9663, 0.0, 10.009957, 9.989202 
6.155801e+3, 1.4513299e+2, -1522203.3, -1546694.8, -0.19044453, 0.0011877877, 0.00028970523, -1522203.3, -4505.31, 0.0, 10.009941, 9.977495 
6.155799e+3, 1.5511046e+2, -1424555.4, -1449437.5, -16.358057, 0.0011889009, 0.00009855344, -1424555.4, -4636.6646, 0.0, 10.009925, 9.976964 
6.155798e+3, 1.6508135e+2, -1336527.6, -1370555.1, -1.4359387, 0.0011885258, 0.00017917718, -1336527.6, -14323.639, 0.0, 10.00991, 9.964928 
6.155796e+3, 1.7504632e+2, -1238645.5, -1272978.9, -18.167458, 0.0011867307, 0.00007467472, -1238645.5, -14098.365, 0.0, 10.009895, 9.964514 
6.155794e+3, 1.850046e+2, -1150726.5, -1194645.9, -6.2149363, 0.0011859717, 0.00021831931, -1150726.5, -23770.451, 0.0, 10.009881, 9.951952 
6.155793e+3, 1.9495659e+2, -1052652.8, -1096824.8, -21.835548, 0.001186226, 0.00008457363, -1052652.8, -23226.24, 0.0, 10.009867, 9.951609 
6.155791e+3, 2.0490187e+2, -964616.5, -1018622.4, -7.651579, 0.001185933, 0.00020420623, -964616.5, -32653.688, 0.0, 10.009853, 9.938762 
6.15579e+3, 2.1484067e+2, -866402.1, -920661.06, -24.428144, 0.0011850739, 0.00000739897, -866402.06, -31839.525, 0.0, 10.00984, 9.93842 
6.1557883e+3, 2.2477275e+2, -778186.9, -842485.0, -5.731482, 0.0011843686, 0.00025235125, -778186.9, -40958.84, 0.0, 10.009828, 9.925361 
6.155787e+3, 2.3469818e+2, -679824.56, -744369.0, -22.578444, 0.001183823, 0.000038885308, -679824.5, -39865.67, 0.0, 10.009814, 9.925029 
6.155786e+3, 2.4461664e+2, -591570.06, -666510.4, -3.0929556, 0.0011834132, 0.00019807772, -591570.06, -48812.176, 0.0, 10.009802, 9.911569 
6.155785e+3, 2.545283e+2, -492888.0, -567897.25, -19.255667, 0.0011831535, 0.0000116808105, -492888.0, -47264.69, 0.0, 10.009789, 9.911468 
6.1557835e+3, 2.6443294e+2, -404732.97, -490656.97, 1.3536068, 0.0011826678, 0.00025518515, -404732.97, -56174.598, 0.0, 10.009778, 9.89736 
6.1557823e+3, 2.7433082e+2, -305517.72, -391107.28, -14.738224, 0.001181898, -0.00009130275, -305517.72, -53958.895, 0.0, 10.009767, 9.897777 
6.155781e+3, 2.8422058e+2, -218963.34, -317605.9, 3.9522402, 0.0011813634, 0.00033791884, -218963.34, -64324.184, 0.0, 10.009755, 9.881005 
6.1557806e+3, 2.9410264e+2, -119317.33, -217329.58, -10.372158, 0.0011811359, -0.00014886494, -119317.33, -61522.418, 0.0, 10.009744, 9.881798 
6.1557794e+3, 3.0401245e+2, -30015.543, -85051.336, 6.9341726, 0.0011806273, 0.00027211072, -30015.543, -30015.543, 0.0, 10.009733, 9.937284 
6.155778e+3, 3.1395158e+2, -28990.787, -82894.58, -8.612427, 0.0011797018, 0.00003688967, -28990.785, -28990.785, 0.0, 10.009722, 9.9387455 
6.1658144e+3, 1.2516165e+2, -1707227.8, -1722489.9, 10.626623, 0.0011989864, 0.00020929184, -1707227.8, 6189.442, 0.0, 10.010174, 9.989942 
6.165813e+3, 1.3515145e+2, -1609932.8, -1625773.9, -5.091502, 0.0011974815, 0.000029683031, -1609932.8, 5584.394, 0.0, 10.010156, 9.989159 
6.165811e+3, 1.4513469e+2, -1521922.3, -1546596.4, 6.8007956, 0.0011968039, 0.00028997086, -1521922.3, -4240.8237, 0.0, 10.010139, 9.97745 
6.1658096e+3, 1.551121e+2, -1424272.5, -1449339.0, -9.927576, 0.0011968665, 0.000099153396, -1424272.5, -4369.939, 0.0, 10.010125, 9.97692 
6.165808e+3, 1.6508295e+2, -1336245.9, -1370458.1, 4.993791, 0.0011963962, 0.00017990994, -1336245.9, -14057.624, 0.0, 10.01011, 9.964883 
6.165806e+3, 1.7504789e+2, -1238368.1, -1272884.9, -11.869167, 0.0011954235, 0.00007534687, -1238368.1, -13836.175, 0.0, 10.010095, 9.96447 
6.165805e+3, 1.8500611e+2, -1150448.1, -1194548.5, 0.27638975, 0.0011948012, 0.00021884957, -1150448.1, -23506.895, 0.0, 10.010079, 9.951911 
6.1658025e+3, 1.9495806e+2, -1052374.4, -1096728.0, -15.399064, 0.0011945151, 0.000084881925, -1052374.4, -22962.205, 0.0, 10.010066, 9.951568 
6.165801e+3, 2.0490329e+2, -964342.1, -1018533.2, -1.2343445, 0.0011940942, 0.00020460282, -964342.1, -32393.299, 0.0, 10.010053, 9.938717 
6.1658e+3, 2.1484204e+2, -866130.2, -920573.8, -18.506256, 0.0011935303, 0.000008201964, -866130.2, -31581.135, 0.0, 10.010039, 9.9383745 
6.165799e+3, 2.2477409e+2, -777916.94, -842400.2, 0.21428934, 0.0011929598, 0.0002531277, -777916.94, -40702.0, 0.0, 10.010026, 9.925314 
6.165797e+3, 2.3469946e+2, -679556.1, -744285.7, -16.650633, 0.001192376, 0.00003916931, -679556.1, -39609.867, 0.0, 10.010014, 9.924982 
6.165796e+3, 2.446179e+2, -591302.4, -666428.25, 2.866613, 0.0011918736, 0.00019832417, -591302.4, -48556.715, 0.0, 10.010001, 9.911523 
6.165795e+3, 2.5452954e+2, -492621.25, -567816.3, -13.708357, 0.001191459, 0.000012408524, -492621.25, -47009.668, 0.0, 10.009989, 9.911422 
6.1657935e+3, 2.6443404e+2, -404468.44, -490579.2, 6.7527704, 0.0011910138, 0.00025593408, -404468.44, -55921.35, 0.0, 10.009977, 9.897312 
6.1657923e+3, 2.743319e+2, -305256.2, -391031.8, -9.572269, 0.0011905234, -0.00009109387, -305256.2, -53708.14, 0.0, 10.009965, 9.89773 
6.165791e+3, 2.8422162e+2, -218701.03, -317527.56, 9.052668, 0.0011900405, 0.00033811526, -218701.03, -64072.215, 0.0, 10.0099535, 9.88096 
6.16579e+3, 2.9410365e+2, -119055.32, -217251.94, -5.608505, 0.0011895634, -0.00014798605, -119055.32, -61270.324, 0.0, 10.009943, 9.881753 
6.165789e+3, 3.040134e+2, -29760.35, -84985.22, 11.414906, 0.0011889663, 0.00027300333, -29760.348, -29760.348, 0.0, 10.009932, 9.937234 
6.165788e+3, 3.1395248e+2, -28736.496, -82829.68, -4.309824, 0.0011881861, 0.000036836635, -28736.496, -28736.496, 0.0, 10.009921, 9.938694 
6.175825e+3, 1.2516345e+2, -1707260.5, -1722557.0, 3.8994927, 0.0012060893, 0.00020993483, -1707260.5, 6139.104, 0.0, 10.010176, 9.9899 
6.1758226e+3, 1.351532e+2, -1609964.9, -1625840.5, -11.845849, 0.0012072934, 0.000029841025, -1609964.9, 5535.1055, 0.0, 10.010159, 9.989116 
6.1758214e+3, 1.4513639e+2, -1521956.0, -1546666.4, 1.2336321, 0.0012066273, 0.00029009904, -1521956.0, -4291.292, 0.0, 10.010142, 9.977406 
6.175819e+3, 1.5511377e+2, -1424306.1, -1449408.8, -15.463037, 0.0012041569, 0.00009967845, -1424306.0, -4419.715, 0.0, 10.010128, 9.976875 
6.175818e+3, 1.6508457e+2, -1336279.0, -1370527.4, -0.8589487, 0.001203496, 0.00018070816, -1336279.0, -14106.499, 0.0, 10.010113, 9.964838 
6.1758167e+3, 1.7504945e+2, -1238400.6, -1272953.5, -17.71795, 0.0012045822, 0.00007630008, -1238400.6, -13884.034, 0.0, 10.0100975, 9.964425 
6.175814e+3, 1.8500765e+2, -1150477.6, -1194611.9, -4.835245, 0.001204312, 0.00021943249, -1150477.6, -23551.36, 0.0, 10.010082, 9.95187 
6.175813e+3, 1.9495955e+2, -1052403.5, -1096791.0, -20.511747, 0.0012026926, 0.000084575724, -1052403.5, -23005.941, 0.0, 10.010069, 9.951526 
6.175811e+3, 2.0490474e+2, -964374.8, -1018603.44, -6.3959827, 0.001201887, 0.00020465991, -964374.8, -32440.113, 0.0, 10.010056, 9.93867 
6.17581e+3, 2.1484345e+2, -866162.4, -920643.7, -23.658249, 0.001201912, 0.000009907897, -866162.4, -31627.031, 0.0, 10.010042, 9.938329 
6.1758083e+3, 2.2477543e+2, -777948.9, -842469.94, -4.5613294, 0.0012016707, 0.00025457164, -777948.9, -40747.14, 0.0, 10.010029, 9.925268 
6.175807e+3, 2.3470075e+2, -679587.56, -744355.06, -21.413399, 0.0012011364, 0.00003829225, -679587.56, -39654.105, 0.0, 10.010016, 9.924936 
6.175806e+3, 2.4461915e+2, -591334.0, -666498.25, -1.6224792, 0.001200477, 0.00019757726, -591334.0, -48600.62, 0.0, 10.010004, 9.911476 
6.175805e+3, 2.5453073e+2, -492652.47, -567885.94, -18.207287, 0.0011996696, 0.000014591837, -492652.47, -47052.734, 0.0, 10.009992, 9.911375 
6.175803e+3, 2.644352e+2, -404500.06, -490650.2, 2.2051234, 0.0011992056, 0.00025802033, -404500.06, -55964.37, 0.0, 10.00998, 9.8972645 
6.1758024e+3, 2.7433303e+2, -305287.28, -391102.38, -14.079519, 0.0011991535, -0.000092807735, -305287.28, -53750.145, 0.0, 10.009968, 9.897681 
6.175801e+3, 2.842227e+2, -218729.9, -317594.1, 5.00454, 0.0011988329, 0.00033640314, -218729.9, -64111.543, 0.0, 10.009956, 9.880916 
6.1758006e+3, 2.9410467e+2, -119083.71, -217317.78, -9.685377, 0.0011981528, -0.00014466836, -119083.71, -61308.76, 0.0, 10.009946, 9.881708 
6.1757994e+3, 3.0401438e+2, -29792.584, -85059.18, 7.2730136, 0.0011974091, 0.00027661605, -29792.584, -29792.584, 0.0, 10.009934, 9.937182 
6.175798e+3, 3.139534e+2, -28769.14, -82904.555, -8.381941, 0.001196566, 0.00003390671, -28769.14, -28769.14, 0.0, 10.009924, 9.938642 
6.185835e+3, 1.2516525e+2, -1706971.5, -1722452.6, 11.041094, 0.0012150349, 0.00021011128, -1706971.5, 6410.3975, 0.0, 10.010378, 9.989856 
6.185833e+3, 1.3515495e+2, -1609675.0, -1625736.4, -5.4658437, 0.0012152079, 0.00003062893, -1609675.0, 5807.727, 0.0, 10.010362, 9.989072 
6.1858314e+3, 1.4513811e+2, -1521667.9, -1546564.9, 7.8317757, 0.0012145108, 0.0002909787, -1521667.9, -4020.0293, 0.0, 10.010345, 9.977362 
6.1858296e+3, 1.5511543e+2, -1424021.8, -1449309.9, -8.759262, 0.0012129488, 0.000100158584, -1424021.8, -4151.788, 0.0, 10.010329, 9.9768305 
6.185828e+3, 1.650862e+2, -1335996.4, -1370430.6, 5.984339, 0.0012123804, 0.00018105068, -1335996.4, -13839.921, 0.0, 10.010314, 9.964793 
6.185826e+3, 1.7505103e+2, -1238118.1, -1272857.5, -11.162002, 0.0012127772, 0.00007675642, -1238118.1, -13617.058, 0.0, 10.0103, 9.96438 
6.185825e+3, 1.8500918e+2, -1150193.3, -1194511.8, 1.8409764, 0.0012124104, 0.00021999428, -1150193.3, -23282.15, 0.0, 10.010285, 9.951828 
6.185823e+3, 1.9496104e+2, -1052121.8, -1096693.0, -14.092675, 0.0012112783, 0.00008523459, -1052121.8, -22738.896, 0.0, 10.010271, 9.951485 
6.185822e+3, 2.049062e+2, -964098.0, -1018513.9, 0.030054422, 0.0012105922, 0.00020527358, -964098.0, -32177.57, 0.0, 10.010257, 9.938624 
6.18582e+3, 2.1484485e+2, -865886.5, -920555.4, -17.39924, 0.0012103603, 0.0000103308885, -865886.5, -31364.95, 0.0, 10.010244, 9.938282 
6.185819e+3, 2.247768e+2, -777673.9, -842382.94, 1.7804961, 0.0012100161, 0.00025496227, -777673.9, -40485.53, 0.0, 10.010231, 9.925221 
6.185817e+3, 2.3470208e+2, -679314.25, -744269.6, -15.297137, 0.0012095437, 0.00003882027, -679314.25, -39393.71, 0.0, 10.010219, 9.92489 
6.185816e+3, 2.4462041e+2, -591062.8, -666415.7, 4.39399, 0.0012089863, 0.0001981656, -591062.8, -48341.855, 0.0, 10.010206, 9.911428 
6.185815e+3, 2.5453195e+2, -492383.22, -567805.1, -12.69994, 0.001208326, 0.000015153186, -492383.22, -46795.477, 0.0, 10.010194, 9.911327 
6.1858135e+3, 2.644364e+2, -404231.56, -490570.34, 7.6963634, 0.0012078176, 0.0002585049, -404231.56, -55707.383, 0.0, 10.010181, 9.897217 
6.1858124e+3, 2.7433416e+2, -305019.3, -391023.6, -8.3965845, 0.0012074866, -0.00009246095, -305019.3, -53493.22, 0.0, 10.010171, 9.8976345 
6.185811e+3, 2.842238e+2, -218462.31, -317515.28, 10.503048, 0.0012071433, 0.0003367794, -218462.31, -63854.54, 0.0, 10.0101595, 9.880869 
6.18581e+3, 2.941057e+2, -118818.96, -217241.08, -5.2031846, 0.0012067781, -0.00014404248, -118818.96, -61054.145, 0.0, 10.010147, 9.881661 
6.1858094e+3, 3.0401537e+2, -29534.111, -84990.9, 11.419841, 0.0012061446, 0.00027725205, -29534.107, -29534.107, 0.0, 10.010136, 9.937132 
6.185808e+3, 3.1395432e+2, -28510.938, -82836.875, -3.697103, 0.0012051146, 0.000034211196, -28510.938, -28510.938, 0.0, 10.010125, 9.938591 
6.195845e+3, 1.2516707e+2, -1707006.0, -1722523.1, 4.836278, 0.0012253292, 0.00020995838, -1707006.0, 6358.047, 0.0, 10.010381, 9.989811 
6.195844e+3, 1.3515674e+2, -1609709.1, -1625806.5, -11.620031, 0.0012217698, 0.000031873078, -1609709.0, 5756.219, 0.0, 10.010365, 9.989027 
6.195842e+3, 1.4513984e+2, -1521701.4, -1546634.4, 1.7158122, 0.0012210133, 0.00029240098, -1521701.4, -4070.6094, 0.0, 10.010348, 9.977317 
6.1958396e+3, 1.5511712e+2, -1424054.9, -1449379.0, -14.874525, 0.0012228498, 0.00010060918, -1424054.9, -4201.4854, 0.0, 10.010332, 9.976786 
6.1958385e+3, 1.6508785e+2, -1336030.0, -1370500.9, 0.48222545, 0.0012225768, 0.000181067, -1336030.0, -13889.607, 0.0, 10.010317, 9.964748 
6.1958367e+3, 1.7505264e+2, -1238151.1, -1272927.4, -16.647564, 0.0012202936, 0.00007685391, -1238151.1, -13665.839, 0.0, 10.010303, 9.9643345 
6.195835e+3, 1.8501075e+2, -1150223.4, -1194576.3, -3.5426328, 0.0012195058, 0.00022054261, -1150223.4, -23327.475, 0.0, 10.010288, 9.951786 
6.1958337e+3, 1.9496256e+2, -1052151.5, -1096757.1, -19.474998, 0.0012201805, 0.00008659868, -1052151.4, -22783.396, 0.0, 10.010274, 9.951443 
6.195832e+3, 2.0490766e+2, -964130.94, -1018584.75, -4.971202, 0.00121998, 0.00020629432, -964130.94, -32224.898, 0.0, 10.01026, 9.938578 
6.195831e+3, 2.1484627e+2, -865919.0, -920625.9, -22.382643, 0.0012188782, 0.000009819618, -865919.0, -31411.393, 0.0, 10.010247, 9.938236 
6.195829e+3, 2.2477819e+2, -777706.25, -842453.56, -3.0375893, 0.0012181168, 0.00025458797, -777706.25, -40531.363, 0.0, 10.010234, 9.925175 
6.195828e+3, 2.3470342e+2, -679346.1, -744339.8, -20.136353, 0.0012177145, 0.000040379855, -679346.1, -39438.625, 0.0, 10.0102215, 9.924843 
6.195826e+3, 2.446217e+2, -591095.3, -666487.75, -0.22982946, 0.0012174469, 0.00019973198, -591095.3, -48386.98, 0.0, 10.010209, 9.911381 
6.1958253e+3, 2.545332e+2, -492415.3, -567876.8, -17.265795, 0.0012173268, 0.0000145261265, -492415.3, -46839.67, 0.0, 10.010197, 9.91128 
6.1958236e+3, 2.644376e+2, -404262.7, -490640.5, 3.4411278, 0.0012167558, 0.00025781864, -404262.7, -55750.137, 0.0, 10.010185, 9.89717 
6.195823e+3, 2.743353e+2, -305049.97, -391093.25, -12.712222, 0.0012156259, -0.000090596295, -305049.97, -53535.074, 0.0, 10.010174, 9.897587 
6.195821e+3, 2.842249e+2, -218493.08, -317585.7, 6.057455, 0.0012151246, 0.0003386919, -218493.08, -63896.03, 0.0, 10.010162, 9.880821 
6.1958206e+3, 2.9410675e+2, -118849.21, -217311.05, -9.544827, 0.001215449, -0.0001453943, -118849.21, -61094.63, 0.0, 10.01015, 9.881614 
6.1958194e+3, 3.0401635e+2, -29565.256, -85062.99, 7.3776174, 0.0012151117, 0.00027570224, -29565.256, -29565.256, 0.0, 10.010139, 9.937081 
6.195818e+3, 3.1395525e+2, -28542.248, -82909.29, -7.8572283, 0.0012138078, 0.00003689891, -28542.248, -28542.248, 0.0, 10.010128, 9.93854 
6.205856e+3, 1.2516892e+2, -1706711.5, -1722416.4, 11.356171, 0.0012334118, 0.00021083803, -1706711.5, 6634.4478, 0.0, 10.010586, 9.989766 
6.205854e+3, 1.3515854e+2, -1609416.8, -1625701.6, -4.823985, 0.0012304699, 0.000032227355, -1609416.8, 6030.9224, 0.0, 10.010569, 9.988983 
6.205852e+3, 1.451416e+2, -1521411.1, -1546532.1, 8.598726, 0.0012297543, 0.00029266876, -1521411.1, -3797.5168, 0.0, 10.010552, 9.977272 
6.205851e+3, 1.5511884e+2, -1423766.0, -1449278.3, -8.336123, 0.0012310891, 0.000101201, -1423766.0, -3929.435, 0.0, 10.010536, 9.976741 
6.2058485e+3, 1.650895e+2, -1335742.8, -1370402.3, 7.412062, 0.0012307797, 0.00018174275, -1335742.8, -13618.61, 0.0, 10.010521, 9.964703 
6.205847e+3, 1.7505427e+2, -1237865.4, -1272830.3, -9.850826, 0.0012289048, 0.00007738416, -1237865.4, -13395.888, 0.0, 10.010507, 9.964289 
6.2058455e+3, 1.8501231e+2, -1149936.0, -1194475.3, 3.2072453, 0.0012281766, 0.00022101119, -1149936.0, -23055.521, 0.0, 10.010492, 9.951743 
6.2058437e+3, 1.949641e+2, -1051865.5, -1096657.6, -12.956089, 0.0012285679, 0.00008708831, -1051865.5, -22512.457, 0.0, 10.010479, 9.9514 
6.2058425e+3, 2.0490915e+2, -963849.44, -1018493.1, 1.7403902, 0.0012283203, 0.00020678354, -963849.44, -31957.979, 0.0, 10.010465, 9.938531 
6.205841e+3, 2.1484771e+2, -865639.1, -920535.9, -15.79014, 0.0012274132, 0.000010286025, -865639.1, -31145.645, 0.0, 10.010451, 9.9381895 
6.2058395e+3, 2.2477958e+2, -777428.06, -842366.2, 3.4800794, 0.0012267248, 0.00025510907, -777428.06, -40266.836, 0.0, 10.010439, 9.925127 
6.205838e+3, 2.3470476e+2, -679069.2, -744253.8, -14.175573, 0.0012262646, 0.000041039664, -679069.2, -39174.844, 0.0, 10.0104265, 9.924795 
6.2058365e+3, 2.44623e+2, -590819.2, -666402.9, 5.748302, 0.0012259317, 0.00020028034, -590819.2, -48123.57, 0.0, 10.010414, 9.911333 
6.2058353e+3, 2.5453445e+2, -492140.63, -567793.44, -11.02778, 0.0012257377, 0.000014677, -492140.63, -46577.24, 0.0, 10.010402, 9.911232 
6.205834e+3, 2.6443878e+2, -403990.2, -490560.47, 9.559091, 0.0012252307, 0.0002580673, -403990.2, -55489.42, 0.0, 10.01039, 9.897121 
6.205833e+3, 2.7433646e+2, -304779.53, -391015.1, -7.7533927, 0.001224333, -0.000089643814, -304779.53, -53275.93, 0.0, 10.010379, 9.897538 
6.205832e+3, 2.8422597e+2, -218221.5, -317504.5, 10.842637, 0.00122384, 0.0003395942, -218221.5, -63635.285, 0.0, 10.010367, 9.8807745 
6.2058306e+3, 2.9410782e+2, -118578.305, -217230.78, -3.7871788, 0.0012238773, -0.0001455403, -118578.305, -60834.098, 0.0, 10.010356, 9.881568 
6.2058294e+3, 3.0401736e+2, -29301.684, -84994.82, 12.876836, 0.0012234718, 0.00027548845, -29301.682, -29301.682, 0.0, 10.0103445, 9.937029 
6.205829e+3, 3.1395623e+2, -28279.75, -82842.445, -4.3487616, 0.0012224154, 0.00003803888, -28279.75, -28279.75, 0.0, 10.010333, 9.938487 
6.215866e+3, 1.2517078e+2, -1706745.1, -1722485.4, 5.06619, 0.0012399264, 0.00021245629, -1706745.1, 6582.557, 0.0, 10.010589, 9.989722 
6.215865e+3, 1.3516036e+2, -1609450.1, -1625770.4, -11.121009, 0.0012407317, 0.00003194404, -1609450.1, 5979.712, 0.0, 10.0105715, 9.988939 
6.2158626e+3, 1.4514337e+2, -1521445.6, -1546603.3, 2.4813247, 0.0012401269, 0.00029211066, -1521445.6, -3849.2856, 0.0, 10.010555, 9.977226 
6.215861e+3, 1.5512057e+2, -1423799.9, -1449348.8, -14.436728, 0.0012381499, 0.000101896185, -1423799.9, -3980.1262, 0.0, 10.010539, 9.976696 
6.2158597e+3, 1.6509119e+2, -1335776.4, -1370473.0, 1.9161781, 0.0012375665, 0.00018289447, -1335776.4, -13668.745, 0.0, 10.010524, 9.964657 
6.215857e+3, 1.7505589e+2, -1237898.8, -1272900.6, -15.340818, 0.0012383283, 0.000078229765, -1237898.8, -13445.255, 0.0, 10.0105095, 9.964243 
6.215856e+3, 1.850139e+2, -1149966.6, -1194540.8, -2.1477919, 0.0012380057, 0.00022142503, -1149966.6, -23101.674, 0.0, 10.010495, 9.951701 
6.215854e+3, 1.9496563e+2, -1051895.6, -1096722.6, -18.292835, 0.001236604, 0.00008694645, -1051895.5, -22557.672, 0.0, 10.010482, 9.951357 
6.215853e+3, 2.0491065e+2, -963882.44, -1018564.4, -3.283294, 0.0012359251, 0.00020689057, -963882.44, -32005.715, 0.0, 10.010468, 9.938484 
6.2158513e+3, 2.1484917e+2, -865671.75, -920606.75, -20.835432, 0.0012359815, 0.000011466326, -865671.75, -31192.516, 0.0, 10.010454, 9.938143 
6.2158495e+3, 2.2478098e+2, -777461.5, -842439.06, -1.2793609, 0.0012357205, 0.00025628236, -777461.5, -40314.066, 0.0, 10.010442, 9.925079 
6.215849e+3, 2.3470612e+2, -679102.2, -744326.4, -18.881384, 0.0012351109, 0.000041043906, -679102.2, -39221.156, 0.0, 10.010429, 9.924747 
6.215847e+3, 2.446243e+2, -590851.1, -666473.75, 1.1855525, 0.0012344558, 0.00020009, -590851.1, -48168.35, 0.0, 10.010417, 9.911285 
6.215846e+3, 2.545357e+2, -492172.03, -567863.8, -15.648951, 0.0012337428, 0.000015403733, -492172.03, -46621.03, 0.0, 10.010405, 9.911184 
6.215844e+3, 2.6444e+2, -404023.47, -490635.16, 5.122798, 0.0012333912, 0.00025900354, -404023.47, -55534.61, 0.0, 10.010393, 9.897071 
6.2158436e+3, 2.7433762e+2, -304812.44, -391089.56, -12.084652, 0.0012334719, -0.00008936318, -304812.44, -53320.258, 0.0, 10.010382, 9.897488 
6.2158424e+3, 2.842271e+2, -218250.39, -317571.2, 6.6864753, 0.0012331081, 0.00033975474, -218250.39, -63675.11, 0.0, 10.01037, 9.88073 
6.2158406e+3, 2.941089e+2, -118606.46, -217296.45, -8.063934, 0.0012321528, -0.00014479207, -118606.46, -60872.766, 0.0, 10.010359, 9.881522 
6.21584e+3, 3.040184e+2, -29336.219, -85074.0, 8.558159, 0.0012314146, 0.0002762646, -29336.219, -29336.219, 0.0, 10.010348, 9.936974 
6.215839e+3, 3.1395718e+2, -28314.943, -82923.1, -8.500251, 0.0012309811, 0.000038038103, -28314.941, -28314.941, 0.0, 10.010337, 9.938431 
6.225877e+3, 1.2517266e+2, -1706446.9, -1722376.9, 12.119952, 0.001248353, 0.00021266747, -1706446.9, 6862.479, 0.0, 10.010796, 9.989678 
6.2258756e+3, 1.3516219e+2, -1609155.4, -1625664.5, -4.428073, 0.0012491894, 0.000032553166, -1609155.4, 6256.5254, 0.0, 10.010777, 9.988894 
6.225874e+3, 1.4514516e+2, -1521152.9, -1546500.5, 9.687634, 0.0012485962, 0.00029279158, -1521152.9, -3574.1091, 0.0, 10.010761, 9.9771805 
6.2258714e+3, 1.5512231e+2, -1423506.8, -1449246.5, -7.4076953, 0.0012466096, 0.000102341226, -1423506.8, -3704.0586, 0.0, 10.010747, 9.97665 
6.22587e+3, 1.6509289e+2, -1335484.4, -1370372.5, 8.846318, 0.0012460276, 0.00018329533, -1335484.4, -13393.413, 0.0, 10.010732, 9.964611 
6.225868e+3, 1.7505755e+2, -1237609.8, -1272802.4, -8.662153, 0.0012468033, 0.00007876988, -1237609.8, -13172.422, 0.0, 10.010716, 9.964197 
6.2258667e+3, 1.8501551e+2, -1149676.0, -1194438.5, 4.913847, 0.0012465067, 0.00022196067, -1149676.0, -22826.871, 0.0, 10.010702, 9.951658 
6.225865e+3, 1.949672e+2, -1051605.5, -1096621.4, -11.286282, 0.0012451417, 0.00008733614, -1051605.5, -22282.895, 0.0, 10.010689, 9.951315 
6.225863e+3, 2.0491217e+2, -963596.9, -1018471.75, 3.5841594, 0.0012444581, 0.00020733733, -963596.9, -31734.998, 0.0, 10.010675, 9.9384365 
6.225862e+3, 2.1485063e+2, -865387.8, -920515.75, -14.508263, 0.0012444681, 0.000012178063, -865387.8, -30923.004, 0.0, 10.010662, 9.938095 
6.22586e+3, 2.247824e+2, -777178.9, -842349.7, 5.1887445, 0.0012442126, 0.0002568931, -777178.9, -40045.367, 0.0, 10.01065, 9.925032 
6.225859e+3, 2.3470749e+2, -678821.06, -744238.5, -12.191438, 0.0012436641, 0.000041160263, -678821.06, -38953.54, 0.0, 10.010637, 9.9247 
6.225857e+3, 2.4462563e+2, -590571.6, -666388.56, 7.7958527, 0.0012430442, 0.0002003026, -590571.6, -47901.813, 0.0, 10.010625, 9.911237 
6.2258565e+3, 2.54537e+2, -491893.47, -567779.94, -10.02397, 0.0012423366, 0.000016385431, -491893.47, -46354.996, 0.0, 10.010613, 9.911136 
6.225855e+3, 2.6444122e+2, -403745.88, -490552.75, 10.617311, 0.0012419512, 0.00025989165, -403745.88, -55269.063, 0.0, 10.010602, 9.897022 
6.2258536e+3, 2.743388e+2, -304536.56, -391008.8, -5.8760076, 0.0012419504, -0.0000896203, -304536.56, -53055.93, 0.0, 10.010591, 9.897439 
6.2258524e+3, 2.8422824e+2, -217974.63, -317489.72, 12.760912, 0.0012416233, 0.00033953195, -217974.63, -63410.426, 0.0, 10.010579, 9.880682 
6.225852e+3, 2.9411e+2, -118332.33, -217216.48, -3.7410688, 0.00124086, -0.0001434262, -118332.33, -60609.246, 0.0, 10.010568, 9.8814745 
6.22585e+3, 3.0401945e+2, -29068.355, -85003.69, 12.408718, 0.0012401378, 0.00027770796, -29068.352, -29068.352, 0.0, 10.010556, 9.936921 
6.2258494e+3, 3.139582e+2, -28047.1, -82853.39, -3.144269, 0.0012394672, 0.000037386635, -28047.1, -28047.1, 0.0, 10.010546, 9.938377 
6.235888e+3, 1.2517455e+2, -1706481.6, -1722447.6, 5.2736893, 0.001258169, 0.00021188053, -1706481.6, 6809.1533, 0.0, 10.010798, 9.989634 
6.235886e+3, 1.3516404e+2, -1609189.4, -1625734.6, -11.250521, 0.0012563732, 0.00003380273, -1609189.4, 6204.4272, 0.0, 10.010781, 9.98885 
6.2358844e+3, 1.4514695e+2, -1521187.4, -1546572.1, 4.0481186, 0.0012557226, 0.00029435894, -1521187.4, -3626.287, 0.0, 10.010765, 9.977135 
6.235882e+3, 1.5512407e+2, -1423541.1, -1449317.9, -13.02619, 0.0012560963, 0.00010260954, -1423541.1, -3755.6572, 0.0, 10.01075, 9.976604 
6.235881e+3, 1.6509458e+2, -1335518.9, -1370444.5, 2.979768, 0.0012557125, 0.00018316142, -1335518.9, -13444.648, 0.0, 10.010735, 9.964564 
6.235879e+3, 1.750592e+2, -1237643.5, -1272873.8, -14.511748, 0.0012546174, 0.00007909205, -1237643.4, -13222.459, 0.0, 10.010719, 9.96415 
6.235877e+3, 1.8501714e+2, -1149706.4, -1194503.9, -0.154416, 0.0012540745, 0.00022258553, -1149706.4, -22873.158, 0.0, 10.010705, 9.951615 
6.2358755e+3, 1.9496877e+2, -1051635.6, -1096686.5, -16.368431, 0.0012540622, 0.00008811313, -1051635.6, -22328.506, 0.0, 10.010692, 9.951272 
6.235874e+3, 2.0491369e+2, -963631.1, -1018545.3, -1.4906753, 0.0012536807, 0.00020803194, -963631.1, -31784.287, 0.0, 10.010678, 9.938389 
6.2358725e+3, 2.1485212e+2, -865421.56, -920588.9, -19.540068, 0.0012529177, 0.0000125499755, -865421.56, -30971.285, 0.0, 10.010666, 9.938046 
6.2358713e+3, 2.2478384e+2, -777211.6, -842421.5, 0.45521706, 0.001252364, 0.00025709855, -777211.6, -40092.254, 0.0, 10.010653, 9.924984 
6.2358695e+3, 2.3470889e+2, -678853.4, -744309.9, -16.968706, 0.0012520272, 0.000041367864, -678853.4, -38999.46, 0.0, 10.01064, 9.924652 
6.2358683e+3, 2.4462697e+2, -590605.44, -666463.44, 3.3294065, 0.0012516998, 0.00020081399, -590605.44, -47948.785, 0.0, 10.010628, 9.911187 
6.2358665e+3, 2.545383e+2, -491926.94, -567854.5, -14.411347, 0.0012513766, 0.000017542638, -491926.94, -46401.113, 0.0, 10.010616, 9.911086 
6.235866e+3, 2.6444247e+2, -403777.75, -490624.6, 6.2221384, 0.0012508215, 0.0002607384, -403777.75, -55313.098, 0.0, 10.010605, 9.896974 
6.235864e+3, 2.7434e+2, -304567.78, -391080.03, -10.356243, 0.0012499751, -0.00009024809, -304567.78, -53098.844, 0.0, 10.010593, 9.89739 
6.2358636e+3, 2.8422937e+2, -218006.6, -317563.0, 8.469138, 0.0012496178, 0.00033904985, -218006.6, -63453.59, 0.0, 10.010582, 9.880631 
6.235862e+3, 2.9411104e+2, -118363.92, -217289.47, -7.901353, 0.0012498993, -0.00014162982, -118363.914, -60651.566, 0.0, 10.010571, 9.881425 
6.2358606e+3, 3.0402046e+2, -29100.297, -85077.59, 8.343341, 0.0012494448, 0.00027961523, -29100.295, -29100.295, 0.0, 10.01056, 9.93687 
6.23586e+3, 3.1395918e+2, -28079.123, -82927.484, -7.3505926, 0.001247919, 0.000036288515, -28079.123, -28079.123, 0.0, 10.010549, 9.938326 
6.245899e+3, 1.2517646e+2, -1706182.6, -1722339.6, 12.237299, 0.0012668807, 0.00021254347, -1706182.6, 7089.4297, 0.0, 10.011006, 9.989588 
6.245897e+3, 1.351659e+2, -1608888.3, -1625626.3, -4.4952044, 0.0012645451, 0.0000343248, -1608888.3, 6487.2363, 0.0, 10.010991, 9.988805 
6.245895e+3, 1.4514877e+2, -1520888.0, -1546466.0, 10.845645, 0.0012639054, 0.00029482873, -1520888.0, -3344.7227, 0.0, 10.010975, 9.977089 
6.245893e+3, 1.5512584e+2, -1423246.6, -1449215.3, -6.262266, 0.0012648059, 0.00010310745, -1423246.6, -3478.5393, 0.0, 10.010959, 9.976558 
6.2458915e+3, 1.6509631e+2, -1335226.1, -1370344.1, 10.338215, 0.0012644752, 0.00018363126, -1335226.1, -13168.841, 0.0, 10.010943, 9.964518 
6.2458897e+3, 1.7506088e+2, -1237349.3, -1272773.4, -7.3241005, 0.00126298, 0.000079480924, -1237349.3, -12944.757, 0.0, 10.01093, 9.964105 
6.2458885e+3, 1.8501876e+2, -1149410.0, -1194399.4, 6.881966, 0.0012623805, 0.00022304547, -1149410.0, -22592.773, 0.0, 10.010917, 9.951572 
6.245886e+3, 1.9497037e+2, -1051342.3, -1096584.4, -9.726688, 0.001262649, 0.00008879352, -1051342.3, -22050.773, 0.0, 10.010902, 9.951228 
6.245885e+3, 2.0491526e+2, -963342.75, -1018451.56, 5.4386764, 0.0012623544, 0.00020860939, -963342.75, -31511.059, 0.0, 10.010889, 9.938341 
6.245883e+3, 2.1485363e+2, -865133.7, -920496.25, -12.4583235, 0.0012614796, 0.000012694033, -865133.6, -30698.088, 0.0, 10.010876, 9.937999 
6.245882e+3, 2.247853e+2, -776924.75, -842331.1, 7.453815, 0.0012608677, 0.00025733907, -776924.75, -39819.6, 0.0, 10.010864, 9.924935 
6.24588e+3, 2.3471029e+2, -678567.6, -744220.9, -10.787336, 0.0012605303, 0.000042273386, -678567.6, -38727.46, 0.0, 10.010852, 9.924603 
6.245879e+3, 2.4462833e+2, -590321.06, -666376.25, 9.458779, 0.0012602444, 0.00020162456, -590321.06, -47677.656, 0.0, 10.010839, 9.911138 
6.245877e+3, 2.5453958e+2, -491644.56, -567769.1, -7.872885, 0.0012600104, 0.000017393599, -491644.56, -46131.52, 0.0, 10.010828, 9.9110365 
6.2458766e+3, 2.6444373e+2, -403496.8, -490541.72, 12.69499, 0.0012594807, 0.00026065912, -403496.8, -55044.47, 0.0, 10.010817, 9.896923 
6.245875e+3, 2.743412e+2, -304287.34, -390998.25, -5.093623, 0.0012585814, -0.000089002715, -304287.34, -52830.23, 0.0, 10.010805, 9.89734 
6.245874e+3, 2.8423053e+2, -217725.3, -317479.38, 13.421363, 0.0012581805, 0.0003402792, -217725.3, -63183.637, 0.0, 10.010795, 9.880584 
6.2458724e+3, 2.9411218e+2, -118084.58, -217207.45, -2.0275726, 0.0012584309, -0.00014218531, -118084.58, -60383.07, 0.0, 10.010783, 9.881377 
6.245872e+3, 3.0402154e+2, -28828.287, -85006.695, 13.96383, 0.0012580247, 0.00027891758, -28828.283, -28828.283, 0.0, 10.010772, 9.936815 
6.2458706e+3, 3.1396016e+2, -27807.783, -82857.6, -3.680696, 0.001256661, 0.000037820973, -27807.783, -27807.783, 0.0, 10.01076, 9.9382715 
6.25591e+3, 1.251784e+2, -1706217.5, -1722411.1, 6.3075385, 0.0012748241, 0.00021423335, -1706217.5, 7035.632, 0.0, 10.01101, 9.989543 
6.255908e+3, 1.3516779e+2, -1608923.1, -1625697.6, -10.392383, 0.0012734489, 0.00003433063, -1608923.1, 6433.9214, 0.0, 10.010994, 9.988759 
6.255906e+3, 1.4515062e+2, -1520922.9, -1546538.0, 4.3787045, 0.0012728679, 0.00029452122, -1520922.9, -3397.6772, 0.0, 10.010978, 9.977043 
6.2559044e+3, 1.5512764e+2, -1423280.6, -1449286.5, -12.724514, 0.0012729779, 0.00010377047, -1423280.6, -3530.172, 0.0, 10.010962, 9.976512 
6.255902e+3, 1.6509807e+2, -1335260.5, -1370416.5, 5.2145395, 0.0012725967, 0.00018453268, -1335260.5, -13220.351, 0.0, 10.010946, 9.964471 
6.255901e+3, 1.750626e+2, -1237383.5, -1272845.5, -12.439396, 0.00127176, 0.00007992169, -1237383.5, -12995.6455, 0.0, 10.010933, 9.964058 
6.255899e+3, 1.8502042e+2, -1149441.5, -1194466.6, 1.4129102, 0.00127124, 0.00022339105, -1149441.5, -22640.51, 0.0, 10.01092, 9.951529 
6.255897e+3, 1.9497198e+2, -1051373.1, -1096651.1, -15.166349, 0.001271018, 0.00008940296, -1051373.1, -22097.422, 0.0, 10.010905, 9.951184 
6.255896e+3, 2.049168e+2, -963376.4, -1018524.25, 0.6581162, 0.001270655, 0.00020910306, -963376.4, -31560.0, 0.0, 10.010892, 9.938293 
6.2558943e+3, 2.1485513e+2, -865166.94, -920568.5, -17.269325, 0.0012701434, 0.00001268471, -865166.94, -30746.193, 0.0, 10.0108795, 9.937951 
6.2558925e+3, 2.2478676e+2, -776959.3, -842406.4, 2.7879226, 0.0012696465, 0.00025761238, -776959.3, -39868.535, 0.0, 10.010867, 9.924885 
6.2558913e+3, 2.347117e+2, -678601.75, -744295.7, -15.400288, 0.001269157, 0.000043671473, -678601.75, -38775.445, 0.0, 10.010855, 9.924553 
6.2558895e+3, 2.446297e+2, -590354.0, -666449.4, 4.925145, 0.0012687322, 0.00020264389, -590354.0, -47723.992, 0.0, 10.010842, 9.911089 
6.2558883e+3, 2.545409e+2, -491676.9, -567841.7, -12.448292, 0.0012683745, 0.00001632417, -491676.9, -46176.76, 0.0, 10.010831, 9.910988 
6.255887e+3, 2.64445e+2, -403530.88, -490618.25, 8.519725, 0.0012680098, 0.0002599312, -403530.88, -55090.934, 0.0, 10.010819, 9.896872 
6.255886e+3, 2.7434242e+2, -304321.13, -391074.56, -9.195028, 0.0012676272, -0.00008642835, -304321.1, -52875.926, 0.0, 10.010809, 9.897288 
6.255885e+3, 2.842317e+2, -217755.63, -317549.2, 9.114542, 0.0012671738, 0.0003427207, -217755.63, -63225.414, 0.0, 10.0107975, 9.880536 
6.2558836e+3, 2.9411328e+2, -118114.08, -217276.27, -6.4134707, 0.0012666218, -0.00014440509, -118114.08, -60423.535, 0.0, 10.010786, 9.88133 
6.2558824e+3, 3.040226e+2, -28863.383, -85087.49, 9.717743, 0.0012661063, 0.00027637824, -28863.38, -28863.38, 0.0, 10.010775, 9.936759 
6.255881e+3, 3.1396118e+2, -27843.506, -82939.734, -7.830406, 0.0012656322, 0.000041221465, -27843.504, -27843.504, 0.0, 10.010764, 9.938214 
6.265921e+3, 1.2518033e+2, -1705911.4, -1722299.1, 13.084501, 0.0012828247, 0.00021467259, -1705911.4, 7322.7383, 0.0, 10.011223, 9.989497 
6.265919e+3, 1.3516968e+2, -1608622.8, -1625589.5, -3.449836, 0.0012824183, 0.00003471896, -1608622.8, 6715.666, 0.0, 10.011205, 9.988714 
6.265917e+3, 1.4515246e+2, -1520624.6, -1546433.3, 11.908524, 0.0012818514, 0.0002949062, -1520624.6, -3117.5547, 0.0, 10.0111885, 9.976996 
6.2659156e+3, 1.5512945e+2, -1422979.5, -1449181.0, -5.586161, 0.0012810795, 0.00010419501, -1422979.5, -3246.7517, 0.0, 10.011174, 9.976465 
6.265914e+3, 1.6509983e+2, -1334960.4, -1370312.8, 12.316416, 0.0012806484, 0.00018502817, -1334960.4, -12937.392, 0.0, 10.01116, 9.964424 
6.2659115e+3, 1.750643e+2, -1237087.8, -1272744.9, -5.5499625, 0.0012805564, 0.000080518155, -1237087.8, -12716.708, 0.0, 10.011145, 9.96401 
6.26591e+3, 1.850221e+2, -1149144.3, -1194362.0, 8.713651, 0.0012801534, 0.00022388887, -1149144.3, -22359.594, 0.0, 10.01113, 9.951485 
6.2659085e+3, 1.949736e+2, -1051074.9, -1096546.8, -7.8223624, 0.0012794315, 0.00008960646, -1051074.9, -21815.09, 0.0, 10.011118, 9.95114 
6.2659067e+3, 2.049184e+2, -963082.25, -1018428.5, 7.9117103, 0.0012789503, 0.00020939777, -963082.25, -31281.34, 0.0, 10.011106, 9.938245 
6.2659055e+3, 2.1485667e+2, -864874.94, -920474.7, -10.660388, 0.0012787096, 0.000013463856, -864874.94, -30469.21, 0.0, 10.011093, 9.937902 
6.265904e+3, 2.2478823e+2, -776669.0, -842314.9, 9.471554, 0.001278341, 0.00025831928, -776669.0, -39592.75, 0.0, 10.011081, 9.924836 
6.2659025e+3, 2.3471314e+2, -678312.6, -744205.6, -8.509424, 0.0012778268, 0.000043710017, -678312.6, -38500.363, 0.0, 10.011068, 9.924504 
6.265901e+3, 2.4463107e+2, -590065.56, -666361.0, 11.7997265, 0.0012773382, 0.00020273024, -590065.56, -47449.15, 0.0, 10.011057, 9.911039 
6.2658995e+3, 2.5454223e+2, -491388.84, -567754.3, -6.3458567, 0.001276872, 0.000017271588, -491388.84, -45901.766, 0.0, 10.011046, 9.910938 
6.265898e+3, 2.644463e+2, -403244.47, -490533.78, 14.380488, 0.0012765267, 0.00026083173, -403244.47, -54817.113, 0.0, 10.011035, 9.896821 
6.265897e+3, 2.7434367e+2, -304037.3, -390992.25, -3.1236217, 0.001276319, -0.00008667835, -304037.3, -52604.184, 0.0, 10.0110235, 9.897238 
6.2658954e+3, 2.8423288e+2, -217470.98, -317464.4, 15.054582, 0.0012759176, 0.00034247054, -217470.98, -62952.336, 0.0, 10.011012, 9.880487 
6.265895e+3, 2.9411444e+2, -117829.61, -217192.22, -1.4454966, 0.0012752551, -0.00014314386, -117829.61, -60150.17, 0.0, 10.011003, 9.881281 
6.265893e+3, 3.0402368e+2, -28585.832, -85015.4, 14.155153, 0.001274697, 0.00027772508, -28585.828, -28585.828, 0.0, 10.010991, 9.936704 
6.2658924e+3, 3.1396222e+2, -27566.463, -82868.68, -2.9223878, 0.0012742792, 0.000040609866, -27566.463, -27566.463, 0.0, 10.010981, 9.938158 
6.275932e+3, 1.251823e+2, -1705946.1, -1722370.1, 6.1126494, 0.0012908985, 0.00021423276, -1705946.1, 7268.661, 0.0, 10.011225, 9.989452 
6.2759304e+3, 1.351716e+2, -1608656.8, -1625659.8, -10.433428, 0.0012914441, 0.00003538124, -1608656.8, 6662.878, 0.0, 10.011208, 9.988668 
6.275928e+3, 1.4515434e+2, -1520660.0, -1546506.8, 6.507852, 0.00129086, 0.0002957836, -1520660.0, -3171.3164, 0.0, 10.011191, 9.97695 
6.275926e+3, 1.5513127e+2, -1423014.9, -1449254.3, -10.955929, 0.0012891631, 0.000104453706, -1423014.9, -3299.9512, 0.0, 10.011177, 9.9764185 
6.275925e+3, 1.651016e+2, -1334995.6, -1370386.3, 6.4377575, 0.0012886843, 0.00018523821, -1334995.6, -12990.066, 0.0, 10.011163, 9.964376 
6.2759227e+3, 1.7506604e+2, -1237122.3, -1272817.8, -11.410668, 0.0012893806, 0.00008122407, -1237122.3, -12768.109, 0.0, 10.0111475, 9.9639635 
6.2759215e+3, 1.8502377e+2, -1149175.3, -1194428.9, 3.9127479, 0.0012891182, 0.00022449558, -1149175.3, -22407.137, 0.0, 10.011134, 9.951441 
6.2759197e+3, 1.9497526e+2, -1051105.6, -1096613.3, -12.636869, 0.0012879021, 0.000089530346, -1051105.6, -21861.959, 0.0, 10.011122, 9.9510975 
6.275918e+3, 2.0491998e+2, -963117.44, -1018504.0, 2.944024, 0.0012872705, 0.00020955782, -963117.44, -31332.164, 0.0, 10.011108, 9.938195 
6.2759167e+3, 2.1485822e+2, -864909.56, -920549.7, -15.591916, 0.0012872292, 0.000014797365, -864909.56, -30518.984, 0.0, 10.011096, 9.937853 
6.2759143e+3, 2.2478974e+2, -776702.94, -842389.06, 4.9341846, 0.0012869958, 0.00025932983, -776702.94, -39641.34, 0.0, 10.011084, 9.924787 
6.275913e+3, 2.3471458e+2, -678346.06, -744279.3, -13.063849, 0.0012865479, 0.000042794676, -678346.06, -38547.95, 0.0, 10.011072, 9.924455 
6.2759113e+3, 2.4463248e+2, -590100.0, -666437.25, 7.5486794, 0.0012860504, 0.0002021657, -590100.0, -47497.24, 0.0, 10.011061, 9.910988 
6.275911e+3, 2.5454357e+2, -491422.84, -567830.2, -10.567097, 0.0012854896, 0.000019644247, -491422.84, -45948.992, 0.0, 10.011049, 9.910887 
6.275909e+3, 2.6444757e+2, -403278.13, -490609.47, 9.997802, 0.0012850602, 0.0002628809, -403278.13, -54863.477, 0.0, 10.011038, 9.89677 
6.275908e+3, 2.743449e+2, -304070.3, -391067.4, -7.5136933, 0.0012847804, -0.00008892102, -304070.3, -52649.367, 0.0, 10.011027, 9.897186 
6.2759066e+3, 2.8423408e+2, -217502.83, -317537.78, 11.041972, 0.0012845045, 0.00034032395, -217502.83, -62995.87, 0.0, 10.011016, 9.880438 
6.2759054e+3, 2.9411557e+2, -117861.03, -217265.05, -5.4406443, 0.0012842268, -0.00013941861, -117861.03, -60192.83, 0.0, 10.011005, 9.881231 
6.275904e+3, 3.040248e+2, -28620.225, -85094.59, 9.966219, 0.001283675, 0.00028182028, -28620.223, -28620.223, 0.0, 10.010995, 9.936648 
6.2759036e+3, 3.1396326e+2, -27601.143, -82948.586, -7.119457, 0.0012827192, 0.000037162692, -27601.143, -27601.143, 0.0, 10.010983, 9.938103 
6.2859434e+3, 1.2518428e+2, -1705641.1, -1722259.6, 13.487543, 0.0012999071, 0.00021446578, -1705641.1, 7554.3477, 0.0, 10.011437, 9.989407 
6.2859416e+3, 1.3517354e+2, -1608349.0, -1625548.6, -3.6793416, 0.0012993487, 0.000035957502, -1608349.0, 6951.728, 0.0, 10.011422, 9.988623 
6.285939e+3, 1.4515623e+2, -1520353.9, -1546398.0, 13.460616, 0.001298785, 0.00029643066, -1520353.8, -2883.5894, 0.0, 10.011407, 9.976903 
6.285938e+3, 1.551331e+2, -1422713.6, -1449149.0, -3.9198728, 0.0012981571, 0.00010491403, -1422713.6, -3016.7556, 0.0, 10.011391, 9.976372 
6.285936e+3, 1.6510339e+2, -1334695.9, -1370283.5, 13.9539175, 0.0012977571, 0.00018558247, -1334695.9, -12707.983, 0.0, 10.011376, 9.964329 
6.285934e+3, 1.7506778e+2, -1236820.5, -1272714.6, -4.082122, 0.0012975896, 0.0000815202, -1236820.5, -12483.586, 0.0, 10.011363, 9.963916 
6.2859327e+3, 1.8502548e+2, -1148871.0, -1194321.3, 11.272193, 0.0012972124, 0.00022489765, -1148871.0, -22119.557, 0.0, 10.011351, 9.951397 
6.285931e+3, 1.9497691e+2, -1050804.5, -1096508.0, -5.6674156, 0.0012966151, 0.00009018918, -1050804.5, -21577.041, 0.0, 10.011337, 9.951053 
6.285929e+3, 2.049216e+2, -962821.44, -1018407.94, 10.073264, 0.0012961497, 0.00021014096, -962821.44, -31051.945, 0.0, 10.011324, 9.938146 
6.285927e+3, 2.1485977e+2, -864613.6, -920454.5, -8.40025, 0.001295814, 0.000014966436, -864613.6, -30238.363, 0.0, 10.0113125, 9.937803 
6.2859255e+3, 2.2479124e+2, -776407.56, -842295.6, 12.167076, 0.0012954522, 0.00025952153, -776407.56, -39360.76, 0.0, 10.011301, 9.924737 
6.2859243e+3, 2.3471604e+2, -678051.6, -744187.25, -6.384209, 0.0012950536, 0.000043475946, -678051.6, -38267.87, 0.0, 10.01129, 9.924405 
6.285923e+3, 2.4463388e+2, -589807.25, -666347.8, 14.063386, 0.001294655, 0.00020285218, -589807.25, -47218.348, 0.0, 10.011278, 9.910937 
6.2859213e+3, 2.5454494e+2, -491132.06, -567742.6, -4.1790314, 0.0012942493, 0.000019786821, -491132.06, -45671.523, 0.0, 10.011267, 9.910836 
6.28592e+3, 2.6444888e+2, -402988.0, -490523.38, 16.349014, 0.0012938039, 0.00026300375, -402988.0, -54586.17, 0.0, 10.011256, 9.896719 
6.285919e+3, 2.7434617e+2, -303780.0, -390982.06, -1.4882486, 0.0012933004, -0.00008818056, -303780.0, -52371.383, 0.0, 10.011247, 9.897135 
6.285918e+3, 2.842353e+2, -217212.23, -317451.97, 16.676815, 0.0012929983, 0.0003410754, -217212.23, -62717.1, 0.0, 10.011235, 9.880387 
6.2859166e+3, 2.9411674e+2, -117573.04, -217181.31, -0.24962315, 0.0012929548, -0.00013945515, -117573.04, -59916.164, 0.0, 10.011225, 9.881181 
6.2859154e+3, 3.040259e+2, -28338.98, -85020.625, 14.729396, 0.0012924907, 0.00028174027, -28338.977, -28338.977, 0.0, 10.011213, 9.936593 
6.285914e+3, 3.139643e+2, -27319.697, -82875.1, -2.6342597, 0.0012914117, 0.00003811512, -27319.697, -27319.697, 0.0, 10.011203, 9.938046 
6.295955e+3, 1.2518628e+2, -1705677.1, -1722333.3, 7.5109973, 0.0013095761, 0.00021517464, -1705677.1, 7498.7124, 0.0, 10.01144, 9.98936 
6.2959534e+3, 1.351755e+2, -1608384.8, -1625622.0, -9.5928135, 0.0013065053, 0.000036471814, -1608384.8, 6896.7466, 0.0, 10.011425, 9.988576 
6.295951e+3, 1.4515814e+2, -1520389.4, -1546471.3, 7.212854, 0.0013059893, 0.00029691393, -1520389.4, -2937.7979, 0.0, 10.01141, 9.976855 
6.295949e+3, 1.5513496e+2, -1422748.4, -1449221.6, -10.165111, 0.0013078006, 0.00010551716, -1422748.4, -3069.7563, 0.0, 10.011394, 9.976325 
6.2959474e+3, 1.6510521e+2, -1334731.3, -1370357.5, 8.953609, 0.0013075651, 0.00018602467, -1334731.3, -12761.034, 0.0, 10.011379, 9.964281 
6.2959456e+3, 1.7506956e+2, -1236855.6, -1272788.3, -9.067082, 0.0013053973, 0.000081534236, -1236855.5, -12535.868, 0.0, 10.011366, 9.963868 
6.295944e+3, 1.850272e+2, -1148903.3, -1194389.8, 6.0620604, 0.0013047303, 0.00022515941, -1148903.3, -22168.523, 0.0, 10.0113535, 9.951352 
6.295942e+3, 1.9497858e+2, -1050836.0, -1096576.1, -10.858444, 0.0013055181, 0.00009136116, -1050836.0, -21624.97, 0.0, 10.01134, 9.951008 
6.29594e+3, 2.0492321e+2, -962856.2, -1018482.9, 5.5099306, 0.0013054372, 0.00021101952, -962856.2, -31102.662, 0.0, 10.011328, 9.938097 
6.295939e+3, 2.1486136e+2, -864648.0, -920529.06, -12.969654, 0.0013044671, 0.000014325399, -864648.0, -30288.162, 0.0, 10.011315, 9.937755 
6.2959373e+3, 2.2479276e+2, -776442.7, -842372.2, 7.751745, 0.0013037954, 0.00025914647, -776442.7, -39410.82, 0.0, 10.011304, 9.924686 
6.2959355e+3, 2.3471753e+2, -678086.25, -744263.3, -10.784807, 0.0013034337, 0.00004527761, -678086.25, -38316.957, 0.0, 10.011292, 9.924355 
6.2959343e+3, 2.4463531e+2, -589841.9, -666424.5, 9.744023, 0.001303208, 0.00020441442, -589841.9, -47266.92, 0.0, 10.011281, 9.910886 
6.2959325e+3, 2.545463e+2, -491166.1, -567818.75, -8.476773, 0.001303129, 0.000018366278, -491166.1, -45718.996, 0.0, 10.0112705, 9.910785 
6.295932e+3, 2.644502e+2, -403022.1, -490600.25, 12.427382, 0.0013027163, 0.00026178005, -403022.1, -54633.22, 0.0, 10.01126, 9.896667 
6.29593e+3, 2.7434742e+2, -303813.72, -391058.56, -5.436554, 0.0013018883, -0.000085339656, -303813.72, -52417.566, 0.0, 10.01125, 9.897083 
6.295929e+3, 2.8423652e+2, -217245.02, -317527.1, 12.393895, 0.0013014546, 0.00034386458, -217245.02, -62761.84, 0.0, 10.011239, 9.880336 
6.295928e+3, 2.941179e+2, -117605.11, -217255.77, -4.471921, 0.0013015331, -0.00014213697, -117605.11, -59959.652, 0.0, 10.011228, 9.88113 
6.2959266e+3, 3.0402702e+2, -28373.58, -85100.734, 10.721276, 0.0013012125, 0.00027872683, -28373.578, -28373.578, 0.0, 10.011217, 9.936538 
6.2959254e+3, 3.1396535e+2, -27354.625, -82955.9, -6.7366343, 0.0013003058, 0.000042169184, -27354.625, -27354.625, 0.0, 10.011207, 9.93799 
6.305967e+3, 1.2518829e+2, -1705365.4, -1722219.1, 14.089899, 0.0013174817, 0.00021586321, -1705365.4, 7790.7764, 0.0, 10.011657, 9.989314 
6.3059646e+3, 1.3517746e+2, -1608077.1, -1625510.9, -2.6101403, 0.0013155431, 0.00003673891, -1608077.1, 7185.1704, 0.0, 10.011641, 9.98853 
6.305962e+3, 1.4516006e+2, -1520083.5, -1546363.5, 14.67707, 0.0013150595, 0.00029709667, -1520083.5, -2650.812, 0.0, 10.011625, 9.976809 
6.305961e+3, 1.5513684e+2, -1422441.0, -1449113.8, -3.0995462, 0.0013158752, 0.00010592798, -1422441.0, -2780.7795, 0.0, 10.011611, 9.976277 
6.305959e+3, 1.6510704e+2, -1334424.8, -1370251.6, 16.320875, 0.0013155831, 0.00018654762, -1334424.8, -12472.475, 0.0, 10.011597, 9.964233 
6.305957e+3, 1.7507131e+2, -1236552.1, -1272684.6, -1.8587013, 0.0013142511, 0.000082059334, -1236552.1, -12249.843, 0.0, 10.011583, 9.9638195 
6.305955e+3, 1.8502893e+2, -1148597.9, -1194282.1, 13.474924, 0.0013137206, 0.00022558394, -1148597.9, -21880.166, 0.0, 10.011571, 9.951307 
6.305954e+3, 1.9498026e+2, -1050530.3, -1096469.0, -3.5188632, 0.0013139605, 0.00009158485, -1050530.3, -21335.746, 0.0, 10.011559, 9.950964 
6.3059515e+3, 2.0492487e+2, -962554.5, -1018384.5, 12.966266, 0.0013137434, 0.00021130171, -962554.5, -30817.06, 0.0, 10.011547, 9.938046 
6.30595e+3, 2.1486294e+2, -864347.8, -920432.3, -5.9111695, 0.0013130556, 0.000014929567, -864347.8, -30003.578, 0.0, 10.011535, 9.937704 
6.3059485e+3, 2.2479431e+2, -776144.06, -842278.1, 14.771266, 0.0013125264, 0.00025974604, -776144.06, -39127.285, 0.0, 10.011524, 9.924635 
6.3059473e+3, 2.3471901e+2, -677788.56, -744170.56, -3.9646502, 0.0013121581, 0.000045524237, -677788.56, -38033.875, 0.0, 10.011513, 9.924303 
6.3059455e+3, 2.4463674e+2, -589544.6, -666333.2, 16.588184, 0.0013118556, 0.00020460451, -589544.6, -46983.773, 0.0, 10.011502, 9.910835 
6.3059443e+3, 2.545477e+2, -490869.13, -567728.44, -1.7816257, 0.0013116202, 0.000018834917, -490869.13, -45435.625, 0.0, 10.011493, 9.910733 
6.305943e+3, 2.6445153e+2, -402726.97, -490513.4, 18.796755, 0.0013112518, 0.00026232726, -402726.97, -54351.156, 0.0, 10.011482, 9.896614 
6.3059413e+3, 2.743487e+2, -303520.84, -390973.8, 0.13529119, 0.0013107109, -0.0000849547, -303520.84, -52137.258, 0.0, 10.011472, 9.897031 
6.30594e+3, 2.8423774e+2, -216950.56, -317439.0, 17.778841, 0.0013103166, 0.00034417672, -216950.55, -62479.445, 0.0, 10.011461, 9.880286 
6.305939e+3, 2.941191e+2, -117310.37, -217168.17, 1.4078647, 0.0013101082, -0.00014178356, -117310.37, -59676.49, 0.0, 10.011452, 9.88108 
6.305938e+3, 3.040281e+2, -28086.37, -85026.68, 16.090185, 0.0013096976, 0.0002791142, -28086.365, -28086.365, 0.0, 10.011441, 9.93648 
6.305937e+3, 3.1396642e+2, -27068.05, -82883.08, -2.8939571, 0.001308985, 0.000042588683, -27068.05, -27068.05, 0.0, 10.011431, 9.937932 
6.315978e+3, 1.2519032e+2, -1705400.6, -1722291.0, 7.5454917, 0.001324204, 0.00021653208, -1705400.6, 7735.613, 0.0, 10.01166, 9.989268 
6.315976e+3, 1.3517945e+2, -1608111.8, -1625582.1, -9.173318, 0.0013258964, 0.000036840273, -1608111.8, 7131.0273, 0.0, 10.011643, 9.988484 
6.315974e+3, 1.45162e+2, -1520119.9, -1546438.3, 9.168644, 0.0013254322, 0.0002970789, -1520119.9, -2706.117, 0.0, 10.011628, 9.976761 
6.315972e+3, 1.5513873e+2, -1422476.9, -1449188.1, -8.571548, 0.0013228932, 0.0001062065, -1422476.9, -2835.1938, 0.0, 10.011614, 9.97623 
6.3159704e+3, 1.6510889e+2, -1334460.6, -1370326.4, 10.944687, 0.0013223941, 0.0001871253, -1334460.5, -12526.353, 0.0, 10.0116005, 9.964185 
6.3159686e+3, 1.7507312e+2, -1236587.4, -1272758.9, -7.225761, 0.0013238497, 0.000082939754, -1236587.4, -12302.664, 0.0, 10.011586, 9.963772 
6.315967e+3, 1.8503068e+2, -1148630.0, -1194350.9, 8.784733, 0.0013237478, 0.00022612367, -1148630.0, -21929.41, 0.0, 10.011574, 9.951262 
6.315965e+3, 1.9498198e+2, -1050562.0, -1096537.4, -8.200069, 0.0013221082, 0.00009115423, -1050562.0, -21384.11, 0.0, 10.011561, 9.950918 
6.315963e+3, 2.0492652e+2, -962590.25, -1018461.2, 8.40252, 0.0013213967, 0.00021117393, -962590.25, -30868.984, 0.0, 10.01155, 9.937997 
6.315962e+3, 2.1486455e+2, -864383.0, -920508.5, -10.471047, 0.0013216231, 0.000016400292, -864383.0, -30054.498, 0.0, 10.0115385, 9.9376545 
6.3159597e+3, 2.2479586e+2, -776179.44, -842355.3, 10.521854, 0.0013215487, 0.00026102268, -776179.44, -39177.95, 0.0, 10.011527, 9.924584 
6.3159585e+3, 2.3472051e+2, -677823.44, -744247.3, -8.185157, 0.0013211438, 0.00004469053, -677823.44, -38083.496, 0.0, 10.011517, 9.9242525 
6.3159573e+3, 2.446382e+2, -589579.44, -666410.3, 12.612858, 0.0013205926, 0.00020384479, -589579.44, -47032.813, 0.0, 10.011506, 9.910784 
6.3159555e+3, 2.5454912e+2, -490903.44, -567805.1, -5.7909274, 0.0013198681, 0.000020625883, -490903.44, -45483.695, 0.0, 10.011496, 9.910682 
6.3159543e+3, 2.6445287e+2, -402762.63, -490593.47, 14.690419, 0.0013195511, 0.0002641107, -402762.63, -54400.06, 0.0, 10.011485, 9.89656 
6.315953e+3, 2.7435002e+2, -303555.97, -391053.47, -3.8831184, 0.0013197183, -0.00008628717, -303555.97, -52185.06, 0.0, 10.011475, 9.896976 
6.315952e+3, 2.84239e+2, -216982.17, -317512.1, 14.031966, 0.0013194819, 0.0003427603, -216982.17, -62523.23, 0.0, 10.011465, 9.880237 
6.315951e+3, 2.9412028e+2, -117341.336, -217240.33, -2.4622052, 0.001318708, -0.0001392989, -117341.336, -59719.168, 0.0, 10.011455, 9.881031 
6.315949e+3, 3.0402926e+2, -28123.691, -85112.29, 11.952154, 0.0013180467, 0.00028188626, -28123.69, -28123.69, 0.0, 10.011445, 9.93642 
6.3159484e+3, 3.139675e+2, -27105.99, -82970.125, -6.8660064, 0.0013175383, 0.000040459643, -27105.99, -27105.99, 0.0, 10.011435, 9.937871 
6.32599e+3, 1.2519237e+2, -1705088.1, -1722177.1, 14.794466, 0.0013331325, 0.0002166261, -1705088.1, 8027.94, 0.0, 10.011877, 9.989222 
6.3259876e+3, 1.3518144e+2, -1607799.4, -1625469.1, -2.5057251, 0.001334016, 0.00003742964, -1607799.4, 7423.834, 0.0, 10.011862, 9.988439 
6.325986e+3, 1.4516395e+2, -1519808.9, -1546328.1, 16.388683, 0.0013335445, 0.00029772858, -1519808.9, -2414.319, 0.0, 10.011847, 9.976713 
6.325984e+3, 1.5514064e+2, -1422167.6, -1449079.8, -1.3036958, 0.0013317419, 0.0001065085, -1422167.6, -2544.6472, 0.0, 10.011832, 9.976182 
6.325982e+3, 1.6511075e+2, -1334152.5, -1370220.3, 18.428974, 0.0013313107, 0.00018733996, -1334152.5, -12236.523, 0.0, 10.011819, 9.964136 
6.3259804e+3, 1.7507493e+2, -1236279.5, -1272653.6, -0.0050059594, 0.0013322007, 0.00008331466, -1236279.5, -12012.543, 0.0, 10.0118065, 9.963723 
6.3259786e+3, 1.8503244e+2, -1148319.4, -1194241.0, 16.342428, 0.001332025, 0.0002265752, -1148319.4, -21636.162, 0.0, 10.011794, 9.951218 
6.325977e+3, 1.9498369e+2, -1050252.6, -1096428.9, -0.81950796, 0.0013307906, 0.0000916004, -1050252.6, -21091.57, 0.0, 10.011783, 9.950873 
6.325975e+3, 2.0492819e+2, -962285.7, -1018362.3, 15.783766, 0.0013301915, 0.00021157484, -962285.7, -30580.813, 0.0, 10.011771, 9.937946 
6.325974e+3, 2.1486618e+2, -864079.0, -920410.75, -3.3693204, 0.0013302338, 0.000016715863, -864079.0, -29766.395, 0.0, 10.011761, 9.937604 
6.3259715e+3, 2.2479744e+2, -775876.0, -842259.2, 17.731989, 0.0013300782, 0.0002613291, -775876.0, -38889.86, 0.0, 10.01175, 9.924533 
6.32597e+3, 2.3472203e+2, -677520.7, -744152.4, -1.0798731, 0.0013297019, 0.000045068668, -677520.7, -37795.605, 0.0, 10.01174, 9.924201 
6.3259685e+3, 2.4463966e+2, -589278.1, -666318.44, 19.523623, 0.0013292395, 0.00020429578, -589278.1, -46745.895, 0.0, 10.01173, 9.910731 
6.3259673e+3, 2.5455052e+2, -490603.38, -567714.8, 0.38688633, 0.0013286717, 0.00002115168, -490603.38, -45197.47, 0.0, 10.01172, 9.910629 
6.3259655e+3, 2.6445425e+2, -402462.9, -490504.3, 20.77887, 0.0013283236, 0.00026450673, -402462.9, -54113.664, 0.0, 10.01171, 9.896507 
6.325965e+3, 2.7435133e+2, -303256.38, -390965.28, 2.7305129, 0.0013282315, -0.000086268825, -303256.38, -51898.293, 0.0, 10.011702, 9.896924 
6.325963e+3, 2.8424025e+2, -216682.33, -317423.7, 20.243277, 0.0013279791, 0.00034289036, -216682.33, -62235.68, 0.0, 10.011691, 9.880184 
6.325962e+3, 2.941215e+2, -117043.43, -217153.7, 2.033191, 0.0013275084, -0.00013841638, -117043.43, -59433.06, 0.0, 10.011682, 9.880979 
6.325961e+3, 3.0403042e+2, -27832.201, -85035.555, 15.864697, 0.001326942, 0.00028273938, -27832.195, -27832.195, 0.0, 10.011672, 9.936363 
6.32596e+3, 3.139686e+2, -26813.936, -82893.72, -1.5411341, 0.0013262297, 0.000040168605, -26813.936, -26813.936, 0.0, 10.011662, 9.937814 
6.336002e+3, 1.2519445e+2, -1705124.9, -1722251.6, 8.55451, 0.001343587, 0.00021633484, -1705124.9, 7970.972, 0.0, 10.01188, 9.989175 
6.336e+3, 1.3518347e+2, -1607835.5, -1625543.1, -8.682898, 0.001340631, 0.0000383513, -1607835.5, 7367.9404, 0.0, 10.011865, 9.988391 
6.335998e+3, 1.4516592e+2, -1519845.0, -1546402.8, 10.844092, 0.0013401369, 0.000298832, -1519845.0, -2469.8044, 0.0, 10.011849, 9.9766655 
6.3359964e+3, 1.5514256e+2, -1422203.4, -1449153.9, -6.841372, 0.0013418687, 0.00010682981, -1422203.4, -2599.2773, 0.0, 10.011835, 9.976134 
6.335994e+3, 1.6511263e+2, -1334189.0, -1370296.1, 13.372642, 0.001341691, 0.00018731017, -1334189.0, -12291.332, 0.0, 10.011822, 9.9640875 
6.335992e+3, 1.7507675e+2, -1236315.3, -1272729.0, -5.0340915, 0.0013397193, 0.00008334335, -1236315.3, -12066.22, 0.0, 10.011809, 9.963675 
6.3359904e+3, 1.8503423e+2, -1148351.9, -1194310.4, 11.757175, 0.0013391267, 0.00022696683, -1148351.9, -21686.041, 0.0, 10.011798, 9.951172 
6.3359886e+3, 1.9498543e+2, -1050284.6, -1096497.9, -5.4074817, 0.0013398646, 0.00009265284, -1050284.6, -21140.605, 0.0, 10.0117855, 9.950829 
6.335987e+3, 2.0492989e+2, -962321.94, -1018440.06, 11.473768, 0.0013397941, 0.00021234185, -962321.94, -30633.615, 0.0, 10.011775, 9.937895 
6.335985e+3, 2.1486782e+2, -864114.75, -920488.06, -7.647537, 0.0013388979, 0.000016235606, -864114.75, -29818.135, 0.0, 10.011764, 9.937552 
6.335983e+3, 2.2479902e+2, -775911.56, -842336.75, 13.716184, 0.0013382934, 0.00026096933, -775911.56, -38940.938, 0.0, 10.011753, 9.924481 
6.335982e+3, 2.3472357e+2, -677555.75, -744229.44, -5.1276855, 0.0013379903, 0.000046290043, -677555.75, -37845.664, 0.0, 10.011744, 9.9241495 
6.33598e+3, 2.4464114e+2, -589314.44, -666398.6, 15.62406, 0.0013378486, 0.00020558605, -589314.4, -46796.668, 0.0, 10.011733, 9.910678 
6.335979e+3, 2.5455195e+2, -490639.13, -567794.5, -3.4290488, 0.0013378815, 0.000020796679, -490639.13, -45247.2, 0.0, 10.0117235, 9.910576 
6.3359773e+3, 2.6445562e+2, -402497.4, -490582.13, 17.12204, 0.0013374456, 0.0002639417, -402497.4, -54161.633, 0.0, 10.011714, 9.896455 
6.335977e+3, 2.7435264e+2, -303290.34, -391042.5, -1.0364819, 0.0013364307, -0.00008529961, -303290.34, -51945.195, 0.0, 10.011704, 9.896872 
6.335975e+3, 2.842415e+2, -216717.14, -317503.34, 16.300093, 0.0013360429, 0.00034410384, -216717.14, -62282.934, 0.0, 10.011695, 9.88013 
6.335974e+3, 2.9412267e+2, -117077.73, -217232.98, -1.7414453, 0.0013364708, -0.00013865872, -117077.73, -59479.254, 0.0, 10.011685, 9.880924 
6.3359725e+3, 3.0403158e+2, -27866.92, -85116.03, 12.155699, 0.0013362374, 0.00028224822, -27866.918, -27866.918, 0.0, 10.011675, 9.936307 
6.335972e+3, 3.139697e+2, -26848.744, -82974.41, -5.472441, 0.0013350429, 0.00004117415, -26848.742, -26848.742, 0.0, 10.011665, 9.9377575 
6.3460135e+3, 1.2519653e+2, -1704809.3, -1722136.5, 15.19451, 0.0013518839, 0.00021696115, -1704809.3, 8266.18, 0.0, 10.012099, 9.989128 
6.346012e+3, 1.351855e+2, -1607519.8, -1625428.8, -1.8220739, 0.0013493205, 0.000038554008, -1607519.8, 7663.651, 0.0, 10.012085, 9.988344 
6.34601e+3, 1.4516792e+2, -1519531.0, -1546291.4, 18.017231, 0.0013488623, 0.00029898595, -1519531.0, -2175.202, 0.0, 10.012071, 9.976617 
6.3460076e+3, 1.551445e+2, -1421891.1, -1449044.3, 0.066863954, 0.0013502969, 0.000107281005, -1421891.1, -2306.0022, 0.0, 10.012056, 9.976087 
6.346006e+3, 1.651145e+2, -1333877.6, -1370188.8, 20.91831, 0.0013500934, 0.0001878055, -1333877.6, -11998.565, 0.0, 10.012044, 9.964039 
6.346004e+3, 1.750786e+2, -1236003.6, -1272622.3, 2.4147232, 0.0013483521, 0.00008364337, -1236003.6, -11772.619, 0.0, 10.0120325, 9.963625 
6.346002e+3, 1.85036e+2, -1148037.5, -1194199.1, 19.224176, 0.0013478085, 0.00022724325, -1148037.5, -21389.305, 0.0, 10.012021, 9.951126 
6.3460004e+3, 1.9498718e+2, -1049971.6, -1096388.1, 1.7736238, 0.0013484188, 0.000093073206, -1049971.6, -20844.727, 0.0, 10.01201, 9.950783 
6.3459986e+3, 2.0493159e+2, -962013.44, -1018339.5, 18.943941, 0.0013483316, 0.0002127512, -962013.44, -30341.756, 0.0, 10.011999, 9.937844 
6.345997e+3, 2.1486945e+2, -863806.5, -920388.44, -0.21885838, 0.0013475303, 0.000016476371, -863806.5, -29526.049, 0.0, 10.01199, 9.937502 
6.3459957e+3, 2.2480063e+2, -775604.3, -842239.94, 21.040667, 0.0013469794, 0.00026127152, -775604.25, -38649.33, 0.0, 10.01198, 9.92443 
6.345994e+3, 2.3472512e+2, -677249.06, -744133.8, 1.534765, 0.0013466855, 0.000046899444, -677249.06, -37554.17, 0.0, 10.0119705, 9.924098 
6.345992e+3, 2.4464265e+2, -589008.1, -666304.4, 22.26635, 0.0013465037, 0.00020607536, -589008.1, -46505.04, 0.0, 10.011961, 9.9106245 
6.345991e+3, 2.5455338e+2, -490333.5, -567701.44, 3.5907097, 0.0013464404, 0.000020681944, -490333.5, -44955.695, 0.0, 10.011951, 9.910523 
6.34599e+3, 2.6445702e+2, -402193.4, -490492.78, 23.84342, 0.0013460494, 0.00026396307, -402193.4, -53871.21, 0.0, 10.011943, 9.8964 
6.3459885e+3, 2.7435398e+2, -302987.34, -390954.63, 4.2292023, 0.0013452494, -0.0000842434, -302987.34, -51655.27, 0.0, 10.011934, 9.896816 
6.345987e+3, 2.8424278e+2, -216412.25, -317412.16, 21.215742, 0.0013448959, 0.00034508918, -216412.25, -61990.582, 0.0, 10.011925, 9.880078 
6.345986e+3, 2.9412392e+2, -116773.29, -217142.69, 4.4859934, 0.0013451208, -0.00013919748, -116773.29, -59186.832, 0.0, 10.011916, 9.880873 
6.3459843e+3, 3.0403274e+2, -27570.264, -85039.32, 17.938549, 0.0013448434, 0.00028159728, -27570.258, -27570.258, 0.0, 10.011907, 9.936248 
6.345983e+3, 3.139708e+2, -26552.34, -82898.73, -2.2241726, 0.001343833, 0.00004244459, -26552.34, -26552.34, 0.0, 10.011897, 9.937696 
6.356026e+3, 1.2519862e+2, -1704845.3, -1722209.8, 9.420477, 0.0013587407, 0.00021820313, -1704845.3, 8209.613, 0.0, 10.012102, 9.989081 
6.356024e+3, 1.3518755e+2, -1607555.6, -1625501.8, -7.5999026, 0.001359445, 0.00003827101, -1607555.6, 7607.73, 0.0, 10.012088, 9.988297 
6.356022e+3, 1.4516993e+2, -1519568.0, -1546367.3, 12.386975, 0.0013590599, 0.00029850035, -1519568.0, -2231.8838, 0.0, 10.0120735, 9.976569 
6.35602e+3, 1.5514645e+2, -1421927.4, -1449119.5, -5.535436, 0.0013575909, 0.00010782066, -1421927.4, -2361.3865, 0.0, 10.012059, 9.976038 
6.356018e+3, 1.6511641e+2, -1333914.0, -1370264.9, 16.341478, 0.0013571733, 0.00018865711, -1333914.0, -12053.661, 0.0, 10.012047, 9.963989 
6.3560164e+3, 1.7508046e+2, -1236039.8, -1272698.0, -2.1510847, 0.0013577703, 0.00008413125, -1236039.8, -11826.9375, 0.0, 10.012035, 9.963576 
6.356014e+3, 1.8503782e+2, -1148070.9, -1194269.9, 14.69703, 0.0013575921, 0.00022744408, -1148070.8, -21440.309, 0.0, 10.012024, 9.95108 
6.356013e+3, 1.9498894e+2, -1050004.1, -1096458.4, -2.7298858, 0.0013566415, 0.000093061506, -1050004.1, -20894.6, 0.0, 10.0120125, 9.950737 
6.356011e+3, 2.0493329e+2, -962049.6, -1018417.25, 14.974922, 0.001356166, 0.00021291734, -962049.56, -30394.734, 0.0, 10.012002, 9.937793 
6.356009e+3, 2.1487112e+2, -863842.2, -920465.8, -4.209558, 0.0013561661, 0.000017217042, -863842.2, -29578.086, 0.0, 10.011992, 9.93745 
6.3560075e+3, 2.2480224e+2, -775641.25, -842320.3, 17.24496, 0.0013560121, 0.0002620306, -775641.25, -38702.12, 0.0, 10.011983, 9.9243765 
6.3560057e+3, 2.3472667e+2, -677285.5, -744213.7, -2.1946828, 0.0013556832, 0.00004708328, -677285.5, -37605.895, 0.0, 10.011973, 9.924045 
6.3560045e+3, 2.4464415e+2, -589043.56, -666382.8, 18.665302, 0.0013552149, 0.00020601356, -589043.56, -46555.2, 0.0, 10.011964, 9.910572 
6.3560027e+3, 2.5455484e+2, -490368.28, -567779.3, -0.08673431, 0.0013545803, 0.000020747992, -490368.28, -45004.74, 0.0, 10.011955, 9.910471 
6.3560015e+3, 2.6445842e+2, -402230.7, -490576.34, 20.274944, 0.0013543249, 0.0002643992, -402230.7, -53922.234, 0.0, 10.011947, 9.896344 
6.356e+3, 2.7435532e+2, -303024.25, -391038.0, 0.7954964, 0.0013545171, -0.000083145045, -303024.25, -51705.344, 0.0, 10.011937, 9.89676 
6.355999e+3, 2.842441e+2, -216444.55, -317486.66, 17.708576, 0.0013543135, 0.00034590185, -216444.53, -62035.52, 0.0, 10.011929, 9.880028 
6.3559973e+3, 2.9412514e+2, -116804.695, -217216.03, 0.7996754, 0.0013535827, -0.00013991327, -116804.695, -59230.39, 0.0, 10.01192, 9.880822 
6.355996e+3, 3.0403394e+2, -27609.271, -85128.82, 14.083954, 0.0013530039, 0.00028086663, -27609.27, -27609.27, 0.0, 10.01191, 9.936185 
6.355995e+3, 3.1397194e+2, -26592.113, -82989.95, -5.881564, 0.0013526337, 0.00004387315, -26592.113, -26592.113, 0.0, 10.011901, 9.9376335 
6.3660383e+3, 1.2520073e+2, -1704525.4, -1722092.5, 16.303148, 0.0013671528, 0.0002181559, -1704525.4, 8508.8, 0.0, 10.012324, 9.989035 
6.366036e+3, 1.3518962e+2, -1607239.1, -1625387.1, -1.0030146, 0.0013680211, 0.000038686227, -1607239.1, 7903.969, 0.0, 10.012309, 9.988251 
6.366034e+3, 1.4517194e+2, -1519253.0, -1546255.9, 19.755249, 0.0013676462, 0.00029901532, -1519253.0, -1936.6387, 0.0, 10.012295, 9.976521 
6.3660324e+3, 1.5514843e+2, -1421610.3, -1449007.9, 1.6807884, 0.0013660406, 0.000108096174, -1421610.3, -2063.584, 0.0, 10.012283, 9.975989 
6.36603e+3, 1.6511834e+2, -1333597.5, -1370155.3, 23.66936, 0.0013656492, 0.00018889205, -1333597.5, -11755.964, 0.0, 10.012272, 9.963941 
6.366028e+3, 1.7508234e+2, -1235725.9, -1272590.5, 4.9539437, 0.0013664279, 0.00008451407, -1235725.9, -11531.423, 0.0, 10.0122595, 9.963527 
6.3660264e+3, 1.8503965e+2, -1147754.5, -1194158.0, 22.31092, 0.0013662769, 0.00022781853, -1147754.5, -21141.85, 0.0, 10.012249, 9.951035 
6.3660246e+3, 1.9499072e+2, -1049686.8, -1096346.8, 4.825363, 0.0013652017, 0.000093275135, -1049686.8, -20594.586, 0.0, 10.012239, 9.95069 
6.366023e+3, 2.0493503e+2, -961736.25, -1018315.1, 22.445395, 0.0013647112, 0.00021320034, -961736.25, -30098.361, 0.0, 10.01223, 9.937741 
6.366021e+3, 2.148728e+2, -863530.0, -920365.1, 2.7281828, 0.0013648083, 0.00001780305, -863530.0, -29282.322, 0.0, 10.01222, 9.937399 
6.366019e+3, 2.2480386e+2, -775329.9, -842221.75, 24.335964, 0.0013646832, 0.00026249606, -775329.9, -38406.68, 0.0, 10.012212, 9.924324 
6.366018e+3, 2.3472826e+2, -676974.56, -744116.2, 5.122068, 0.0013643105, 0.000046977013, -676974.56, -37310.32, 0.0, 10.012203, 9.923992 
6.366017e+3, 2.4464567e+2, -588733.3, -666288.0, 25.795876, 0.0013638624, 0.00020605205, -588733.3, -46259.875, 0.0, 10.012195, 9.910519 
6.366015e+3, 2.545563e+2, -490058.25, -567685.56, 5.969511, 0.00136332, 0.000021740909, -490058.25, -44709.08, 0.0, 10.012187, 9.910417 
6.366014e+3, 2.6445985e+2, -401921.25, -490484.56, 26.087244, 0.0013630743, 0.00026525577, -401921.25, -53626.62, 0.0, 10.012179, 9.89629 
6.366012e+3, 2.7435666e+2, -302715.84, -390947.7, 7.393014, 0.0013631766, -0.00008374423, -302715.84, -51410.23, 0.0, 10.012171, 9.896706 
6.366011e+3, 2.8424537e+2, -216135.22, -317395.03, 23.96394, 0.0013629565, 0.00034534084, -216135.22, -61738.95, 0.0, 10.012162, 9.879974 
6.36601e+3, 2.941264e+2, -116495.84, -217125.44, 5.1171846, 0.0013623048, -0.00013848138, -116495.84, -58933.777, 0.0, 10.012155, 9.880769 
6.3660085e+3, 3.0403513e+2, -27307.01, -85049.77, 17.614023, 0.0013617926, 0.00028245148, -27307.004, -27307.004, 0.0, 10.012146, 9.936126 
6.3660073e+3, 3.1397304e+2, -26289.342, -82911.414, -0.8763377, 0.0013614715, 0.00004298337, -26289.342, -26289.342, 0.0, 10.012137, 9.937573 
6.376051e+3, 1.2520286e+2, -1704562.5, -1722167.4, 9.984759, 0.0013766384, 0.00021724902, -1704562.5, 8450.804, 0.0, 10.012327, 9.988987 
6.3760483e+3, 1.3519171e+2, -1607275.3, -1625461.3, -7.2825, 0.001375571, 0.000039572402, -1607275.3, 7847.3813, 0.0, 10.012312, 9.988203 
6.3760465e+3, 1.4517398e+2, -1519290.0, -1546332.3, 15.022672, 0.001375166, 0.00030020258, -1519290.0, -1993.6218, 0.0, 10.012298, 9.976471 
6.376044e+3, 1.5515043e+2, -1421647.1, -1449084.0, -3.0267107, 0.0013753003, 0.000108194705, -1421647.1, -2119.9746, 0.0, 10.012286, 9.975941 
6.3760424e+3, 1.6512027e+2, -1333634.9, -1370232.5, 18.774687, 0.0013750963, 0.0001887131, -1333634.9, -11812.25, 0.0, 10.012275, 9.96389 
6.3760406e+3, 1.7508422e+2, -1235762.3, -1272667.0, 0.08323586, 0.0013745914, 0.00008482645, -1235762.3, -11586.312, 0.0, 10.012262, 9.963477 
6.376039e+3, 1.8504149e+2, -1147787.5, -1194228.8, 18.474213, 0.001374239, 0.00022831147, -1147787.5, -21192.934, 0.0, 10.012252, 9.950988 
6.376037e+3, 1.9499251e+2, -1049719.5, -1096417.1, 0.98435557, 0.0013740174, 0.000093646035, -1049719.5, -20644.943, 0.0, 10.012242, 9.9506445 
6.376035e+3, 2.0493677e+2, -961773.8, -1018395.25, 18.569168, 0.0013737661, 0.00021356533, -961773.8, -30152.99, 0.0, 10.012234, 9.937689 
6.3760334e+3, 2.1487449e+2, -863566.9, -920444.75, -1.1038041, 0.0013734789, 0.000018279523, -863566.9, -29335.78, 0.0, 10.012224, 9.937346 
6.3760316e+3, 2.248055e+2, -775366.25, -842300.94, 20.87944, 0.0013731325, 0.00026276085, -775366.25, -38459.08, 0.0, 10.012215, 9.924272 
6.3760304e+3, 2.3472983e+2, -677010.3, -744194.9, 1.6245646, 0.0013727122, 0.00004668663, -677010.3, -37361.637, 0.0, 10.012207, 9.92394 
6.3760287e+3, 2.446472e+2, -588770.9, -666370.8, 22.511295, 0.0013724932, 0.00020616857, -588770.9, -46312.465, 0.0, 10.012198, 9.910463 
6.3760275e+3, 2.545578e+2, -490095.38, -567768.0, 2.7701404, 0.0013724928, 0.000023349641, -490095.38, -44760.69, 0.0, 10.012191, 9.910361 
6.3760257e+3, 2.6446125e+2, -401957.0, -490564.9, 22.77207, 0.0013721711, 0.0002663866, -401957.0, -53676.316, 0.0, 10.012182, 9.896235 
6.3760245e+3, 2.7435803e+2, -302750.84, -391027.3, 3.983016, 0.0013714492, -0.0000854744, -302750.84, -51458.645, 0.0, 10.012175, 9.896651 
6.3760227e+3, 2.8424668e+2, -216170.94, -317476.88, 20.624609, 0.0013711, 0.00034386947, -216170.94, -61787.547, 0.0, 10.012166, 9.879918 
6.376022e+3, 2.9412764e+2, -116531.125, -217206.92, 1.9058378, 0.0013712303, -0.00013561132, -116531.125, -58981.418, 0.0, 10.012157, 9.880713 
6.3760203e+3, 3.0403632e+2, -27343.467, -85133.96, 14.199391, 0.0013710349, 0.00028558445, -27343.463, -27343.463, 0.0, 10.01215, 9.936067 
6.37602e+3, 3.139742e+2, -26325.938, -82995.96, -4.4626927, 0.0013703604, 0.00004054579, -26325.938, -26325.938, 0.0, 10.01214, 9.937514 
6.386063e+3, 1.2520501e+2, -1704243.1, -1722051.0, 16.586708, 0.0013853303, 0.00021776538, -1704243.1, 8749.209, 0.0, 10.012549, 9.988939 
6.3860613e+3, 1.351938e+2, -1606952.6, -1625344.0, -0.8272324, 0.0013837835, 0.000039890423, -1606952.6, 8149.4736, 0.0, 10.012537, 9.988156 
6.3860583e+3, 1.4517602e+2, -1518968.5, -1546217.8, 21.826492, 0.0013834306, 0.00030044746, -1518968.5, -1692.2073, 0.0, 10.012524, 9.976422 
6.3860565e+3, 1.5515243e+2, -1421329.8, -1448972.4, 3.7463462, 0.0013841083, 0.00010847927, -1421329.8, -1822.0999, 0.0, 10.012511, 9.975892 
6.386055e+3, 1.6512223e+2, -1333318.4, -1370123.5, 26.289263, 0.0013839323, 0.00018901385, -1333318.4, -11514.893, 0.0, 10.0125, 9.9638405 
6.386053e+3, 1.7508613e+2, -1235443.0, -1272557.4, 7.4207034, 0.0013829683, 0.000085122, -1235443.0, -11285.755, 0.0, 10.012491, 9.963428 
6.386051e+3, 1.8504335e+2, -1147465.0, -1194114.3, 25.853508, 0.0013825822, 0.00022864426, -1147465.0, -20888.527, 0.0, 10.012482, 9.950941 
6.3860494e+3, 1.9499433e+2, -1049399.3, -1096304.6, 8.056085, 0.0013827407, 0.00009405705, -1049399.3, -20342.326, 0.0, 10.012471, 9.950598 
6.3860476e+3, 2.0493852e+2, -961458.25, -1018292.56, 25.957731, 0.0013825747, 0.0002138833, -961458.25, -29854.664, 0.0, 10.012463, 9.937636 
6.386046e+3, 2.1487619e+2, -863250.6, -920342.5, 6.338094, 0.0013820741, 0.000018331282, -863250.6, -29036.209, 0.0, 10.012455, 9.937294 
6.386044e+3, 2.2480716e+2, -775050.2, -842201.0, 28.235807, 0.0013816773, 0.0002629429, -775050.1, -38159.195, 0.0, 10.012447, 9.924218 
6.386042e+3, 2.3473144e+2, -676694.5, -744096.0, 8.228718, 0.0013813799, 0.000047420686, -676694.5, -37061.473, 0.0, 10.01244, 9.923886 
6.386041e+3, 2.4464874e+2, -588455.9, -666274.3, 28.976921, 0.0013812132, 0.00020676458, -588455.9, -46012.58, 0.0, 10.012433, 9.910409 
6.386039e+3, 2.5455928e+2, -489781.34, -567672.9, 9.558833, 0.0013811848, 0.000023029213, -489781.34, -44461.258, 0.0, 10.012425, 9.910307 
6.386038e+3, 2.6446268e+2, -401643.56, -490472.2, 29.360168, 0.0013808573, 0.00026617481, -401643.56, -53376.94, 0.0, 10.012418, 9.896179 
6.386037e+3, 2.743594e+2, -302437.0, -390935.38, 9.411158, 0.0013801557, -0.00008433713, -302437.0, -51158.297, 0.0, 10.012411, 9.896596 
6.386035e+3, 2.8424802e+2, -215855.56, -317383.28, 25.53217, 0.0013798277, 0.00034496924, -215855.55, -61485.14, 0.0, 10.012404, 9.879864 
6.386034e+3, 2.9412892e+2, -116216.9, -217114.72, 7.49775, 0.0013799806, -0.00013636601, -116216.9, -58679.62, 0.0, 10.012397, 9.880659 
6.3860327e+3, 3.0403754e+2, -27036.504, -85053.88, 19.199596, 0.0013797799, 0.0002847334, -27036.498, -27036.498, 0.0, 10.012389, 9.936006 
6.3860315e+3, 3.1397533e+2, -26018.693, -82916.516, -1.2511275, 0.0013790608, 0.000042122618, -26018.693, -26018.693, 0.0, 10.012381, 9.937452 
6.3960755e+3, 1.2520717e+2, -1704280.3, -1722126.3, 11.457049, 0.0013935082, 0.000219228, -1704280.3, 8690.88, 0.0, 10.012552, 9.988892 
6.396073e+3, 1.3519591e+2, -1606989.8, -1625419.1, -5.9122515, 0.001392474, 0.000039828006, -1606989.8, 8091.6577, 0.0, 10.012539, 9.988109 
6.3960713e+3, 1.4517808e+2, -1519006.3, -1546294.4, 16.456995, 0.001392227, 0.00030006387, -1519006.1, -1750.1007, 0.0, 10.0125265, 9.976374 
6.3960695e+3, 1.5515444e+2, -1421366.4, -1449048.4, -1.6022358, 0.0013926291, 0.000108888635, -1421366.4, -1878.5048, 0.0, 10.012514, 9.975843 
6.396067e+3, 1.651242e+2, -1333355.6, -1370201.3, 22.468151, 0.0013923743, 0.00018963592, -1333355.6, -11571.436, 0.0, 10.012503, 9.963791 
6.3960654e+3, 1.7508803e+2, -1235480.1, -1272634.8, 3.614115, 0.0013915198, 0.00008540877, -1235480.1, -11341.592, 0.0, 10.012493, 9.963377 
6.3960636e+3, 1.8504521e+2, -1147499.1, -1194186.5, 21.820574, 0.0013912143, 0.00022887123, -1147499.1, -20940.957, 0.0, 10.012485, 9.950894 
6.396062e+3, 1.9499613e+2, -1049432.6, -1096376.3, 4.0524473, 0.0013914236, 0.00009449228, -1049432.6, -20393.533, 0.0, 10.012475, 9.950551 
6.39606e+3, 2.0494029e+2, -961495.4, -1018372.1, 22.692585, 0.0013912373, 0.00021416922, -961495.4, -29909.139, 0.0, 10.012466, 9.937585 
6.396058e+3, 2.1487792e+2, -863287.25, -920421.7, 3.0504975, 0.0013906448, 0.000018106568, -863287.25, -29089.715, 0.0, 10.012458, 9.937242 
6.3960564e+3, 2.2480883e+2, -775088.2, -842283.44, 25.087753, 0.0013903152, 0.00026307616, -775088.2, -38213.55, 0.0, 10.012451, 9.924164 
6.396055e+3, 2.3473305e+2, -676732.0, -744177.94, 5.1355653, 0.0013902535, 0.00004883498, -676732.0, -37114.76, 0.0, 10.012444, 9.923832 
6.3960534e+3, 2.446503e+2, -588492.75, -666355.6, 25.90582, 0.0013900184, 0.00020767619, -588492.75, -46064.69, 0.0, 10.012436, 9.910355 
6.3960516e+3, 2.5456077e+2, -489817.5, -567753.6, 6.450782, 0.0013895782, 0.000021425141, -489817.5, -44512.113, 0.0, 10.012428, 9.910253 
6.3960505e+3, 2.6446414e+2, -401681.4, -490557.06, 26.532116, 0.0013892929, 0.00026507425, -401681.4, -53428.953, 0.0, 10.012422, 9.896123 
6.3960487e+3, 2.743608e+2, -302474.47, -391019.94, 6.6396985, 0.0013891825, -0.000081282815, -302474.47, -51209.42, 0.0, 10.012415, 9.896539 
6.396048e+3, 2.8424937e+2, -215890.11, -317462.47, 22.409595, 0.0013889777, 0.00034778495, -215890.11, -61532.79, 0.0, 10.012408, 9.87981 
6.396046e+3, 2.941302e+2, -116250.58, -217192.92, 4.316343, 0.0013886399, -0.00013954219, -116250.58, -58725.832, 0.0, 10.012401, 9.880606 
6.3960457e+3, 3.0403876e+2, -27075.844, -85144.37, 15.864798, 0.0013882164, 0.00028122318, -27075.84, -27075.84, 0.0, 10.012392, 9.935943 
6.396044e+3, 3.1397653e+2, -26058.523, -83008.29, -4.5564427, 0.0013876603, 0.000046385176, -26058.523, -26058.523, 0.0, 10.012384, 9.937388 
6.4060885e+3, 1.2520935e+2, -1703954.6, -1722006.4, 17.521643, 0.0014016192, 0.00021952177, -1703954.6, 8995.19, 0.0, 10.012778, 9.988845 
6.406086e+3, 1.3519804e+2, -1606668.6, -1625302.4, 0.34613082, 0.0014014615, 0.000040099458, -1606668.6, 8391.986, 0.0, 10.012764, 9.988061 
6.406084e+3, 1.4518017e+2, -1518686.4, -1546181.3, 23.626627, 0.0014012121, 0.00030030395, -1518686.4, -1450.6057, 0.0, 10.012752, 9.976325 
6.406082e+3, 1.5515646e+2, -1421042.8, -1448934.0, 5.2872324, 0.0014007947, 0.000109086686, -1421042.8, -1574.7415, 0.0, 10.012742, 9.975794 
6.40608e+3, 1.6512617e+2, -1333032.3, -1370089.1, 29.588099, 0.001400509, 0.00018987681, -1333032.3, -11267.403, 0.0, 10.0127325, 9.96374 
6.4060783e+3, 1.7508997e+2, -1235159.8, -1272525.0, 10.543804, 0.0014003688, 0.000085772816, -1235159.8, -11040.159, 0.0, 10.012723, 9.963327 
6.406076e+3, 1.8504709e+2, -1147176.0, -1194072.1, 29.229307, 0.0014001671, 0.00022918101, -1147176.0, -20636.252, 0.0, 10.012714, 9.950848 
6.406074e+3, 1.9499797e+2, -1049107.5, -1096261.8, 11.432548, 0.001399887, 0.00009457548, -1049107.5, -20086.406, 0.0, 10.012707, 9.950504 
6.406073e+3, 2.0494208e+2, -961174.1, -1018267.4, 30.095903, 0.0013996039, 0.00021433913, -961174.1, -29605.363, 0.0, 10.0127, 9.937531 
6.4060706e+3, 2.1487965e+2, -862966.9, -920318.2, 9.910088, 0.0013993115, 0.000018679724, -862966.9, -28786.293, 0.0, 10.012692, 9.937189 
6.4060694e+3, 2.248105e+2, -774768.7, -842182.44, 31.969355, 0.0013991039, 0.00026356796, -774768.7, -37910.47, 0.0, 10.012686, 9.924109 
6.4060676e+3, 2.3473467e+2, -676412.7, -744077.94, 12.114663, 0.0013989748, 0.000048731334, -676412.7, -36811.38, 0.0, 10.012679, 9.923778 
6.406066e+3, 2.4465187e+2, -588173.44, -666257.75, 32.832, 0.0013986804, 0.00020762626, -588173.44, -45760.77, 0.0, 10.012673, 9.910299 
6.4060646e+3, 2.545623e+2, -489497.34, -567656.25, 12.688166, 0.0013981898, 0.000022160022, -489497.34, -44206.8, 0.0, 10.012668, 9.910197 
6.406063e+3, 2.644656e+2, -401362.2, -490462.84, 32.301643, 0.0013979293, 0.00026577903, -401362.2, -53124.01, 0.0, 10.012662, 9.896066 
6.4060616e+3, 2.743622e+2, -302156.88, -390927.6, 12.373814, 0.0013979343, -0.000081590246, -302156.88, -50905.53, 0.0, 10.012655, 9.8964815 
6.40606e+3, 2.842507e+2, -215570.69, -317367.2, 27.824203, 0.00139779, 0.0003474915, -215570.69, -61226.53, 0.0, 10.01265, 9.879756 
6.406059e+3, 2.941315e+2, -115930.625, -217098.11, 9.048653, 0.0013974407, -0.00013848403, -115930.625, -58418.523, 0.0, 10.012643, 9.880551 
6.4060575e+3, 3.0403998e+2, -26762.922, -85063.445, 19.911783, 0.0013969532, 0.0002823159, -26762.914, -26762.914, 0.0, 10.012637, 9.93588 
6.406057e+3, 3.139777e+2, -25744.227, -82927.67, -0.58187777, 0.0013962601, 0.000045640478, -25744.227, -25744.227, 0.0, 10.01263, 9.937325 
6.416101e+3, 1.2521154e+2, -1703991.9, -1722081.0, 11.674902, 0.0014097241, 0.0002190402, -1703991.9, 8936.52, 0.0, 10.01278, 9.988797 
6.4160985e+3, 1.3520017e+2, -1606704.9, -1625376.4, -5.500159, 0.0014106558, 0.000040592593, -1606704.9, 8334.773, 0.0, 10.012766, 9.988014 
6.4160967e+3, 1.4518227e+2, -1518724.3, -1546259.0, 19.56711, 0.0014103317, 0.00030095893, -1518724.3, -1509.0172, 0.0, 10.012754, 9.976275 
6.416095e+3, 1.551585e+2, -1421080.5, -1449011.5, 1.2614086, 0.001408761, 0.00010914648, -1421080.5, -1632.522, 0.0, 10.012745, 9.975744 
6.4160925e+3, 1.6512816e+2, -1333070.4, -1370167.9, 25.331305, 0.0014084786, 0.00018986547, -1333070.4, -11325.14, 0.0, 10.012735, 9.96369 
6.416091e+3, 1.750919e+2, -1235197.0, -1272603.0, 6.3172684, 0.001409433, 0.00008618585, -1235197.0, -11096.482, 0.0, 10.012726, 9.963277 
6.416089e+3, 1.8504898e+2, -1147209.8, -1194144.1, 26.114136, 0.0014093476, 0.00022954511, -1147209.8, -20688.652, 0.0, 10.012717, 9.950801 
6.416087e+3, 1.9499981e+2, -1049141.0, -1096333.4, 8.308941, 0.0014082339, 0.000094431125, -1049141.0, -20138.006, 0.0, 10.01271, 9.950457 
6.4160854e+3, 2.0494388e+2, -961212.7, -1018349.44, 26.968826, 0.0014078073, 0.00021443685, -961212.7, -29661.525, 0.0, 10.012703, 9.937478 
6.4160836e+3, 2.1488139e+2, -863004.8, -920399.7, 6.8237395, 0.0014080681, 0.000019777652, -863004.8, -28841.29, 0.0, 10.012695, 9.937136 
6.416082e+3, 2.248122e+2, -774806.4, -842264.25, 29.200274, 0.0014080155, 0.00026429316, -774806.4, -37964.71, 0.0, 10.012689, 9.924056 
6.41608e+3, 2.347363e+2, -676449.75, -744159.2, 9.33305, 0.0014076182, 0.000047626127, -676449.75, -36864.438, 0.0, 10.012683, 9.923723 
6.416079e+3, 2.4465346e+2, -588211.6, -666341.9, 30.367607, 0.0014072733, 0.00020694657, -588211.6, -45814.434, 0.0, 10.012677, 9.910243 
6.416077e+3, 2.545638e+2, -489535.13, -567740.0, 10.24955, 0.0014069778, 0.000024447414, -489535.13, -44259.523, 0.0, 10.012671, 9.910142 
6.416076e+3, 2.6446706e+2, -401400.22, -490547.84, 29.53493, 0.0014067304, 0.00026767855, -401400.22, -53176.45, 0.0, 10.012666, 9.8960085 
6.416074e+3, 2.743636e+2, -302194.16, -391011.97, 9.618474, 0.0014065283, -0.00008413093, -302194.16, -50956.605, 0.0, 10.012659, 9.896424 
6.416073e+3, 2.8425205e+2, -215606.2, -317448.78, 25.235512, 0.0014064009, 0.0003451367, -215606.2, -61275.3, 0.0, 10.012652, 9.879701 
6.4160717e+3, 2.941328e+2, -115965.555, -217179.0, 6.418631, 0.0014063613, -0.00013460628, -115965.555, -58466.207, 0.0, 10.012647, 9.880496 
6.4160705e+3, 3.0404124e+2, -26802.48, -85154.18, 17.076612, 0.0014059198, 0.00028647028, -26802.475, -26802.475, 0.0, 10.01264, 9.935817 
6.416069e+3, 3.1397885e+2, -25784.348, -83019.52, -3.3496149, 0.0014048952, 0.00004156213, -25784.348, -25784.348, 0.0, 10.012633, 9.937262 
6.426114e+3, 1.2521374e+2, -1703668.3, -1721962.9, 18.181791, 0.0014188117, 0.00021905907, -1703668.1, 9238.634, 0.0, 10.013005, 9.9887495 
6.426112e+3, 1.3520233e+2, -1606377.3, -1625257.0, 0.5050807, 0.0014186151, 0.0000408356, -1606377.3, 8641.235, 0.0, 10.012995, 9.987966 
6.4261097e+3, 1.4518437e+2, -1518397.4, -1546142.4, 26.025505, 0.0014182841, 0.0003013056, -1518397.4, -1202.7806, 0.0, 10.012984, 9.976226 
6.426107e+3, 1.5516056e+2, -1420757.0, -1448897.5, 7.75266, 0.0014177401, 0.00010948213, -1420757.0, -1329.159, 0.0, 10.012974, 9.975695 
6.4261055e+3, 1.6513017e+2, -1332747.6, -1370056.5, 32.48097, 0.0014175512, 0.00019010782, -1332747.6, -11022.035, 0.0, 10.012965, 9.963639 
6.426104e+3, 1.7509386e+2, -1234871.5, -1272491.0, 13.31952, 0.0014177206, 0.00008625803, -1234871.5, -10790.0625, 0.0, 10.012959, 9.963225 
6.4261013e+3, 1.8505089e+2, -1146880.4, -1194027.1, 33.335205, 0.0014175315, 0.00022969866, -1146880.4, -20377.918, 0.0, 10.012951, 9.950753 
6.4261e+3, 1.9500168e+2, -1048813.0, -1096218.0, 15.18288, 0.0014169737, 0.00009490962, -1048813.0, -19828.223, 0.0, 10.012944, 9.95041 
6.4260983e+3, 2.049457e+2, -960889.4, -1018244.1, 34.02138, 0.0014167042, 0.00021484896, -960889.4, -29355.916, 0.0, 10.0129385, 9.937425 
6.426096e+3, 2.1488315e+2, -862680.7, -920294.94, 13.869511, 0.0014167198, 0.00001972897, -862680.7, -28534.377, 0.0, 10.012933, 9.937082 
6.426095e+3, 2.248139e+2, -774482.0, -842161.44, 36.306343, 0.0014165438, 0.00026428574, -774481.94, -37656.977, 0.0, 10.012928, 9.924001 
6.426093e+3, 2.3473795e+2, -676124.75, -744057.06, 15.937939, 0.0014161521, 0.00004819216, -676124.75, -36555.57, 0.0, 10.012923, 9.923669 
6.426091e+3, 2.4465504e+2, -587887.5, -666242.7, 36.650425, 0.0014159151, 0.00020751968, -587887.5, -45505.887, 0.0, 10.012918, 9.910187 
6.42609e+3, 2.5456536e+2, -489212.2, -567642.4, 16.285957, 0.001415842, 0.000024390849, -489212.2, -43951.62, 0.0, 10.012913, 9.910086 
6.426088e+3, 2.6446855e+2, -401077.28, -490452.0, 35.46764, 0.001415614, 0.00026757142, -401077.25, -52867.96, 0.0, 10.012908, 9.895951 
6.426087e+3, 2.74365e+2, -301869.75, -390916.4, 15.383858, 0.0014151859, -0.00008358943, -301869.75, -50646.12, 0.0, 10.012904, 9.896367 
6.426086e+3, 2.8425342e+2, -215280.28, -317352.53, 30.336393, 0.0014149472, 0.00034575, -215280.28, -60962.73, 0.0, 10.012899, 9.879643 
6.4260846e+3, 2.941341e+2, -115640.74, -217084.22, 10.6562805, 0.0014149459, -0.0001346766, -115640.74, -58154.195, 0.0, 10.012894, 9.88044 
6.426083e+3, 3.040425e+2, -26484.49, -85070.38, 20.611994, 0.0014146902, 0.00028629237, -26484.484, -26484.484, 0.0, 10.012888, 9.935755 
6.426082e+3, 3.1398004e+2, -25466.32, -82936.38, 0.41670513, 0.0014140605, 0.00004210835, -25466.32, -25466.32, 0.0, 10.012881, 9.937199 
6.436127e+3, 1.2521595e+2, -1703706.4, -1722039.8, 13.61201, 0.0014285474, 0.00021940889, -1703706.4, 9178.754, 0.0, 10.013008, 9.988701 
6.4361244e+3, 1.352045e+2, -1606415.3, -1625333.5, -3.9953485, 0.0014258043, 0.000040911495, -1606415.3, 8582.038, 0.0, 10.012998, 9.987917 
6.4361227e+3, 1.4518648e+2, -1518435.6, -1546220.1, 21.494019, 0.0014255138, 0.00030144636, -1518435.6, -1261.8531, 0.0, 10.012987, 9.976176 
6.436121e+3, 1.5516263e+2, -1420794.4, -1448974.6, 3.23206, 0.0014273983, 0.00010999767, -1420794.4, -1386.8898, 0.0, 10.012977, 9.975645 
6.4361185e+3, 1.6513218e+2, -1332785.9, -1370135.8, 29.30582, 0.0014273584, 0.00019051747, -1332785.9, -11080.045, 0.0, 10.012968, 9.963588 
6.4361167e+3, 1.7509583e+2, -1234909.3, -1272569.8, 10.17047, 0.0014255303, 0.00008610943, -1234909.3, -10847.165, 0.0, 10.01296, 9.963175 
6.436115e+3, 1.8505281e+2, -1146915.4, -1194100.9, 30.224491, 0.0014250976, 0.0002297157, -1146915.4, -20431.662, 0.0, 10.012954, 9.950706 
6.4361125e+3, 1.9500355e+2, -1048847.3, -1096291.1, 12.093223, 0.0014259958, 0.00009579432, -1048847.3, -19880.842, 0.0, 10.012947, 9.950362 
6.436111e+3, 2.0494752e+2, -960927.75, -1018326.0, 31.510674, 0.0014260769, 0.00021546509, -960927.75, -29412.14, 0.0, 10.012941, 9.937371 
6.4361095e+3, 2.1488492e+2, -862718.5, -920376.3, 11.363245, 0.0014253274, 0.000018930452, -862718.5, -28589.49, 0.0, 10.012936, 9.937028 
6.436107e+3, 2.2481559e+2, -774520.75, -842245.4, 34.07516, 0.0014248491, 0.00026380215, -774520.75, -37712.547, 0.0, 10.012931, 9.923945 
6.436106e+3, 2.347396e+2, -676163.0, -744140.44, 13.716114, 0.0014246453, 0.00004985741, -676163.0, -36610.098, 0.0, 10.012926, 9.923614 
6.436105e+3, 2.4465665e+2, -587926.25, -666327.8, 34.30706, 0.0014246181, 0.00020891399, -587926.25, -45560.33, 0.0, 10.012921, 9.9101305 
6.436103e+3, 2.545669e+2, -489250.2, -567726.94, 13.9822, 0.0014247788, 0.000022789356, -489250.2, -44004.734, 0.0, 10.012917, 9.910028 
6.436102e+3, 2.6447004e+2, -401115.38, -490537.44, 33.522617, 0.0014245744, 0.00026614626, -401115.34, -52920.62, 0.0, 10.012912, 9.895894 
6.4361e+3, 2.7436647e+2, -301907.44, -391001.4, 13.379035, 0.0014239167, -0.00008100884, -301907.4, -50697.836, 0.0, 10.012908, 9.89631 
6.436099e+3, 2.842548e+2, -215317.63, -317437.47, 27.85821, 0.0014234855, 0.00034832268, -215317.63, -61013.547, 0.0, 10.012903, 9.879586 
6.436097e+3, 2.9413545e+2, -115677.33, -217168.55, 8.292159, 0.0014233397, -0.00013736045, -115677.33, -58203.645, 0.0, 10.0128975, 9.880382 
6.4360964e+3, 3.0404374e+2, -26523.396, -85160.08, 17.984219, 0.0014233583, 0.00028325157, -26523.39, -26523.39, 0.0, 10.012892, 9.935692 
6.4360946e+3, 3.1398124e+2, -25505.39, -83026.664, -2.4354703, 0.0014235986, 0.000045723362, -25505.39, -25505.39, 0.0, 10.012885, 9.937136 
6.4461404e+3, 1.2521818e+2, -1703376.6, -1721918.3, 19.093042, 0.0014362923, 0.0002196714, -1703376.6, 9486.672, 0.0, 10.013237, 9.988653 
6.4461374e+3, 1.3520668e+2, -1606088.1, -1625214.3, 1.8171608, 0.0014348475, 0.00004101653, -1606088.1, 8887.711, 0.0, 10.013226, 9.987869 
6.4461356e+3, 1.4518861e+2, -1518109.9, -1546104.8, 28.066368, 0.0014346582, 0.00030153384, -1518109.8, -956.8737, 0.0, 10.013216, 9.976127 
6.446134e+3, 1.5516472e+2, -1420465.9, -1448858.6, 9.461247, 0.0014355367, 0.00011019384, -1420465.9, -1078.7552, 0.0, 10.013208, 9.975595 
6.446132e+3, 1.6513422e+2, -1332457.1, -1370021.5, 36.041573, 0.0014354018, 0.00019077827, -1332457.1, -10771.173, 0.0, 10.013202, 9.963537 
6.4461297e+3, 1.7509781e+2, -1234581.8, -1272457.0, 16.779636, 0.0014343361, 0.0000863938, -1234581.8, -10539.012, 0.0, 10.013195, 9.963124 
6.446128e+3, 1.8505475e+2, -1146584.8, -1193983.8, 37.164654, 0.001434054, 0.00022994546, -1146584.8, -20119.95, 0.0, 10.013189, 9.950658 
6.446126e+3, 1.9500543e+2, -1048515.3, -1096174.3, 18.920385, 0.001434511, 0.00009589358, -1048515.3, -19567.355, 0.0, 10.013185, 9.950314 
6.4461243e+3, 2.0494933e+2, -960599.3, -1018218.6, 38.5531, 0.0014344696, 0.00021560189, -960599.3, -29101.645, 0.0, 10.01318, 9.937317 
6.4461225e+3, 2.148867e+2, -862389.75, -920269.6, 18.080347, 0.0014339188, 0.000019274092, -862389.75, -28278.14, 0.0, 10.013176, 9.936975 
6.446121e+3, 2.2481732e+2, -774192.75, -842141.94, 40.67876, 0.0014335919, 0.0002641392, -774192.75, -37401.418, 0.0, 10.013172, 9.92389 
6.446119e+3, 2.3474127e+2, -675835.25, -744038.06, 19.999994, 0.0014334896, 0.000049962597, -675835.25, -36298.633, 0.0, 10.013168, 9.923557 
6.446117e+3, 2.4465825e+2, -587597.9, -666226.75, 40.569347, 0.0014333767, 0.0002089871, -587597.8, -45247.7, 0.0, 10.013165, 9.910074 
6.446116e+3, 2.5456846e+2, -488920.28, -567626.06, 20.20808, 0.0014332411, 0.000023054467, -488920.28, -43690.04, 0.0, 10.013163, 9.909972 
6.446114e+3, 2.6447153e+2, -400786.47, -490440.66, 39.190228, 0.001433045, 0.00026648436, -400786.44, -52606.363, 0.0, 10.01316, 9.895835 
6.446113e+3, 2.743679e+2, -301579.97, -390906.44, 18.00207, 0.0014327622, -0.00008073882, -301579.97, -50384.457, 0.0, 10.013156, 9.896251 
6.446112e+3, 2.8425616e+2, -214987.63, -317338.7, 32.14996, 0.0014324893, 0.00034850207, -214987.61, -60697.043, 0.0, 10.013152, 9.87953 
6.4461106e+3, 2.9413676e+2, -115346.21, -217069.94, 13.363869, 0.0014322182, -0.00013730522, -115346.21, -57885.49, 0.0, 10.013148, 9.880326 
6.446109e+3, 3.04045e+2, -26199.666, -85076.68, 22.218859, 0.001432072, 0.00028339325, -26199.658, -26199.658, 0.0, 10.0131445, 9.935627 
6.4461076e+3, 3.1398243e+2, -25180.17, -82943.62, -0.2991144, 0.0014320936, 0.00004626327, -25180.17, -25180.17, 0.0, 10.01314, 9.937069 
6.4561534e+3, 1.2522042e+2, -1703414.3, -1721993.6, 14.245249, 0.0014427891, 0.00021987136, -1703414.3, 9427.011, 0.0, 10.013239, 9.9886055 
6.456151e+3, 1.3520887e+2, -1606125.3, -1625289.3, -3.0405698, 0.0014451062, 0.00004114374, -1606125.3, 8829.183, 0.0, 10.013228, 9.987822 
6.456149e+3, 1.4519076e+2, -1518148.9, -1546184.0, 24.534979, 0.0014450541, 0.00030159115, -1518148.9, -1016.8913, 0.0, 10.013219, 9.976076 
6.456147e+3, 1.551668e+2, -1420504.4, -1448937.4, 5.98735, 0.0014427209, 0.000110179375, -1420504.4, -1137.7878, 0.0, 10.013211, 9.975545 
6.456145e+3, 1.6513626e+2, -1332495.9, -1370101.4, 32.922302, 0.0014423376, 0.00019093782, -1332495.9, -10829.966, 0.0, 10.013205, 9.963486 
6.456143e+3, 1.7509979e+2, -1234619.9, -1272536.3, 13.672491, 0.001443812, 0.000086959866, -1234619.9, -10596.63, 0.0, 10.013198, 9.963073 
6.456141e+3, 1.8505669e+2, -1146619.9, -1194057.9, 34.778942, 0.0014439331, 0.00023031469, -1146619.9, -20174.086, 0.0, 10.013192, 9.950609 
6.456139e+3, 1.9500732e+2, -1048549.9, -1096247.9, 16.552797, 0.0014427231, 0.00009548132, -1048549.9, -19620.447, 0.0, 10.013187, 9.950266 
6.4561373e+3, 2.0495118e+2, -960638.5, -1018301.9, 36.503994, 0.0014422557, 0.00021542716, -960638.5, -29158.87, 0.0, 10.013183, 9.937263 
6.4561355e+3, 2.1488847e+2, -862428.3, -920352.4, 16.033918, 0.0014425289, 0.000020363981, -862428.3, -28334.271, 0.0, 10.013179, 9.93692 
6.456134e+3, 2.2481906e+2, -774232.25, -842227.06, 38.793205, 0.0014426464, 0.00026501116, -774232.25, -37457.887, 0.0, 10.013175, 9.923834 
6.4561325e+3, 2.3474295e+2, -675874.0, -744122.7, 18.163063, 0.0014425858, 0.00004904583, -675874.0, -36353.844, 0.0, 10.013172, 9.923501 
6.45613e+3, 2.4465989e+2, -587636.5, -666311.8, 39.060287, 0.0014421967, 0.0002081981, -587636.5, -45302.246, 0.0, 10.013168, 9.910017 
6.456129e+3, 2.5457e+2, -488958.47, -567710.6, 18.639357, 0.0014414275, 0.000024547717, -488958.47, -43743.555, 0.0, 10.013166, 9.909915 
6.456127e+3, 2.6447302e+2, -400826.78, -490530.3, 37.262524, 0.0014412302, 0.00026797917, -400826.78, -52661.453, 0.0, 10.013163, 9.895775 
6.456126e+3, 2.7436936e+2, -301619.63, -390995.7, 16.203445, 0.0014417077, -0.000081992264, -301619.63, -50438.246, 0.0, 10.013159, 9.896191 
6.456125e+3, 2.8425753e+2, -215023.2, -317420.38, 30.489454, 0.0014418196, 0.00034710788, -215023.19, -60746.2, 0.0, 10.013156, 9.879475 
6.4561236e+3, 2.941381e+2, -115381.05, -217150.6, 11.501072, 0.0014414426, -0.00013543796, -115381.05, -57933.39, 0.0, 10.013152, 9.880271 
6.456122e+3, 3.0404627e+2, -26242.326, -85173.93, 19.911953, 0.0014408481, 0.0002856364, -26242.318, -26242.318, 0.0, 10.013148, 9.935559 
6.456121e+3, 3.1398365e+2, -25223.504, -83042.57, -2.3721926, 0.0014399382, 0.000044767534, -25223.504, -25223.504, 0.0, 10.013144, 9.937 
6.4661664e+3, 1.2522267e+2, -1703085.0, -1721873.0, 19.813208, 0.0014517312, 0.00021987395, -1703085.0, 9734.289, 0.0, 10.013468, 9.988558 
6.4661646e+3, 1.3521108e+2, -1605794.4, -1625168.6, 2.0311139, 0.0014531414, 0.000041567906, -1605794.4, 9138.42, 0.0, 10.013459, 9.987774 
6.466162e+3, 1.4519292e+2, -1517818.4, -1546066.3, 30.485233, 0.0014530685, 0.0003019993, -1517818.4, -707.5479, 0.0, 10.013452, 9.976026 
6.4661604e+3, 1.5516892e+2, -1420174.3, -1448820.5, 12.065076, 0.0014515263, 0.000110165194, -1420174.3, -828.2121, 0.0, 10.013445, 9.975495 
6.466158e+3, 1.6513832e+2, -1332166.1, -1369987.3, 39.4673, 0.0014512687, 0.00019088438, -1332166.0, -10520.225, 0.0, 10.013439, 9.963434 
6.466156e+3, 1.751018e+2, -1234288.9, -1272422.4, 19.935337, 0.0014522449, 0.00008722763, -1234288.9, -10285.271, 0.0, 10.013434, 9.963021 
6.4661545e+3, 1.8505864e+2, -1146284.8, -1193938.8, 41.500805, 0.0014522681, 0.00023062632, -1146284.8, -19858.123, 0.0, 10.013431, 9.950562 
6.466152e+3, 1.9500923e+2, -1048214.1, -1096129.3, 23.128256, 0.0014513457, 0.00009556802, -1048214.1, -19303.338, 0.0, 10.013427, 9.950217 
6.46615e+3, 2.0495303e+2, -960307.0, -1018193.9, 43.1226, 0.001451002, 0.0002155141, -960306.94, -28845.46, 0.0, 10.013424, 9.937207 
6.466149e+3, 2.1489027e+2, -862096.4, -920245.06, 22.314993, 0.0014512343, 0.000020678379, -862096.4, -28019.92, 0.0, 10.013422, 9.936865 
6.466147e+3, 2.2482081e+2, -773899.9, -842121.7, 45.19754, 0.0014512668, 0.000265286, -773899.8, -37142.516, 0.0, 10.01342, 9.923778 
6.4661455e+3, 2.3474462e+2, -675540.4, -744017.56, 24.557552, 0.001451074, 0.000048998445, -675540.4, -36036.684, 0.0, 10.013418, 9.923446 
6.4661443e+3, 2.446615e+2, -587303.44, -666210.1, 45.092144, 0.0014507801, 0.000208226, -587303.4, -44985.07, 0.0, 10.013417, 9.90996 
6.4661425e+3, 2.545716e+2, -488625.84, -567610.2, 23.73056, 0.001450361, 0.000025098067, -488625.8, -43426.3, 0.0, 10.013415, 9.909858 
6.4661413e+3, 2.6447454e+2, -400493.53, -490431.13, 42.14008, 0.0014501702, 0.00026845015, -400493.53, -52343.016, 0.0, 10.013413, 9.895717 
6.4661396e+3, 2.743708e+2, -301284.84, -390896.75, 21.817375, 0.0014502401, -0.000082324244, -301284.84, -50117.707, 0.0, 10.013412, 9.8961315 
6.4661384e+3, 2.8425893e+2, -214687.08, -317321.38, 35.397446, 0.0014502613, 0.00034683407, -214687.06, -60423.73, 0.0, 10.013411, 9.879416 
6.4661366e+3, 2.9413942e+2, -115045.86, -217053.02, 14.288491, 0.001450206, -0.00013453374, -115045.86, -57611.28, 0.0, 10.013408, 9.880213 
6.4661354e+3, 3.0404755e+2, -25913.191, -85087.27, 21.956055, 0.0014497656, 0.0002865929, -25913.184, -25913.184, 0.0, 10.013405, 9.935495 
6.466134e+3, 3.1398484e+2, -24892.229, -82955.57, 1.352257, 0.0014487697, 0.000044181044, -24892.229, -24892.229, 0.0, 10.013402, 9.936935 
6.47618e+3, 1.2522493e+2, -1703124.1, -1721950.9, 15.595219, 0.0014622561, 0.00021975557, -1703124.1, 9672.942, 0.0, 10.01347, 9.988508 
6.4761776e+3, 1.3521329e+2, -1605832.9, -1625245.9, -2.0938816, 0.0014597804, 0.000042173815, -1605832.9, 9078.293, 0.0, 10.013461, 9.987724 
6.476176e+3, 1.4519507e+2, -1517857.3, -1546144.9, 27.263432, 0.0014595884, 0.0003026235, -1517857.1, -767.5604, 0.0, 10.0134535, 9.975976 
6.476174e+3, 1.5517102e+2, -1420212.6, -1448898.8, 8.851093, 0.0014613967, 0.000110153174, -1420212.6, -887.2718, 0.0, 10.013447, 9.975445 
6.4761716e+3, 1.6514038e+2, -1332205.6, -1370068.4, 36.953503, 0.001461501, 0.00019069792, -1332205.6, -10579.992, 0.0, 10.013441, 9.963383 
6.476169e+3, 1.751038e+2, -1234327.8, -1272502.8, 17.461645, 0.0014600329, 0.00008730089, -1234327.8, -10343.783, 0.0, 10.013436, 9.96297 
6.4761674e+3, 1.8506059e+2, -1146320.3, -1194013.4, 39.67128, 0.0014596396, 0.00023089764, -1146320.3, -19912.826, 0.0, 10.0134325, 9.950513 
6.476166e+3, 1.9501114e+2, -1048249.1, -1096203.5, 21.309437, 0.0014602614, 0.00009597814, -1048249.1, -19357.074, 0.0, 10.01343, 9.950169 
6.476164e+3, 2.0495489e+2, -960347.0, -1018278.56, 41.562977, 0.0014603932, 0.00021577063, -960346.94, -28903.707, 0.0, 10.013427, 9.937153 
6.476162e+3, 2.1489207e+2, -862135.7, -920329.1, 20.784246, 0.0014600258, 0.000020486952, -862135.7, -28076.896, 0.0, 10.013425, 9.93681 
6.476161e+3, 2.2482254e+2, -773939.25, -842206.7, 44.042896, 0.0014596337, 0.00026517367, -773939.25, -37199.074, 0.0, 10.013423, 9.923721 
6.4761585e+3, 2.3474632e+2, -675579.2, -744102.06, 23.374142, 0.0014592018, 0.000049523027, -675579.2, -36092.14, 0.0, 10.013422, 9.923389 
6.4761573e+3, 2.4466315e+2, -587344.1, -666299.1, 43.833523, 0.0014592423, 0.00020878771, -587344.1, -45041.844, 0.0, 10.01342, 9.909901 
6.4761555e+3, 2.5457314e+2, -488665.9, -567698.7, 22.575401, 0.0014598016, 0.00002502131, -488665.9, -43481.84, 0.0, 10.013418, 9.909798 
6.4761543e+3, 2.6447603e+2, -400532.25, -490517.6, 41.139713, 0.0014596222, 0.00026824666, -400532.22, -52396.594, 0.0, 10.013417, 9.8956585 
6.4761525e+3, 2.7437225e+2, -301322.94, -390982.56, 20.668894, 0.0014585401, -0.00008203564, -301322.94, -50170.113, 0.0, 10.013415, 9.896073 
6.4761513e+3, 2.8426033e+2, -214726.77, -317411.25, 33.782063, 0.0014581643, 0.00034730756, -214726.75, -60477.152, 0.0, 10.013413, 9.879355 
6.47615e+3, 2.9414076e+2, -115084.87, -217142.52, 12.891755, 0.0014586971, -0.0001342828, -115084.87, -57663.426, 0.0, 10.0134115, 9.880152 
6.476149e+3, 3.0404884e+2, -25952.709, -85178.266, 20.577066, 0.0014587992, 0.00028668385, -25952.701, -25952.701, 0.0, 10.013409, 9.9354315 
6.476147e+3, 3.1398606e+2, -24931.975, -83046.87, -0.3164155, 0.0014582754, 0.00004421621, -24931.975, -24931.975, 0.0, 10.013406, 9.936872 
6.486194e+3, 1.252272e+2, -1702792.9, -1721829.0, 20.269659, 0.0014705366, 0.00022019871, -1702792.9, 9981.982, 0.0, 10.0137005, 9.988461 
6.486191e+3, 1.3521552e+2, -1605499.8, -1625124.0, 2.9126213, 0.0014684991, 0.000042074935, -1605499.8, 9389.615, 0.0, 10.013694, 9.987676 
6.4861894e+3, 1.4519726e+2, -1517524.6, -1546026.3, 32.854267, 0.0014683242, 0.00030246517, -1517524.5, -456.2055, 0.0, 10.013687, 9.975925 
6.486187e+3, 1.5517314e+2, -1419880.0, -1448781.1, 14.148521, 0.0014697602, 0.0001103761, -1419880.0, -575.4887, 0.0, 10.013682, 9.975394 
6.486185e+3, 1.6514246e+2, -1331873.0, -1369953.3, 43.039085, 0.0014698205, 0.00019100342, -1331873.0, -10267.671, 0.0, 10.013678, 9.96333 
6.486183e+3, 1.7510584e+2, -1233993.4, -1272387.5, 23.468163, 0.0014686156, 0.00008740951, -1233993.4, -10029.252, 0.0, 10.013676, 9.962917 
6.486181e+3, 1.8506256e+2, -1145981.8, -1193893.1, 45.95689, 0.0014683254, 0.00023096956, -1145981.8, -19593.656, 0.0, 10.013674, 9.950464 
6.486179e+3, 1.9501306e+2, -1047910.4, -1096083.9, 27.38524, 0.0014688956, 0.000096167656, -1047910.4, -19037.135, 0.0, 10.013672, 9.95012 
6.4861774e+3, 2.0495676e+2, -960012.06, -1018169.4, 47.94638, 0.0014689675, 0.0002159351, -960012.0, -28587.07, 0.0, 10.013671, 9.937098 
6.4861757e+3, 2.1489389e+2, -861799.06, -920220.06, 27.019468, 0.0014685316, 0.00002048319, -861799.06, -27758.05, 0.0, 10.013671, 9.936754 
6.4861745e+3, 2.2482431e+2, -773602.4, -842100.1, 50.074295, 0.001468225, 0.00026529172, -773602.3, -36879.395, 0.0, 10.013671, 9.923665 
6.486172e+3, 2.3474804e+2, -675242.0, -743996.3, 28.767075, 0.001468041, 0.000050069855, -675242.0, -35771.594, 0.0, 10.013671, 9.923332 
6.486171e+3, 2.4466477e+2, -587006.56, -666195.44, 49.135765, 0.0014680531, 0.00020914232, -587006.56, -44720.363, 0.0, 10.013671, 9.9098425 
6.4861697e+3, 2.5457475e+2, -488327.22, -567595.44, 28.285337, 0.0014682733, 0.000024487203, -488327.2, -43158.645, 0.0, 10.013672, 9.9097395 
6.486168e+3, 2.6447758e+2, -400194.0, -490417.94, 46.33466, 0.0014681158, 0.00026789107, -400193.97, -52073.277, 0.0, 10.013672, 9.895597 
6.486167e+3, 2.743737e+2, -300984.8, -390884.1, 24.235453, 0.0014674888, -0.00008092758, -300984.8, -49846.348, 0.0, 10.013672, 9.896013 
6.486165e+3, 2.8426176e+2, -214385.48, -317309.3, 36.876312, 0.0014671626, 0.0003483663, -214385.48, -60149.645, 0.0, 10.013672, 9.879297 
6.486164e+3, 2.941421e+2, -114741.984, -217040.6, 17.478415, 0.0014672168, -0.00013524707, -114741.984, -57333.723, 0.0, 10.013671, 9.880094 
6.4861625e+3, 3.0405012e+2, -25617.43, -85091.34, 24.39748, 0.0014672454, 0.00028554737, -25617.42, -25617.42, 0.0, 10.01367, 9.935365 
6.4861614e+3, 3.1398728e+2, -24596.771, -82961.02, 0.7380541, 0.0014672268, 0.0000455562, -24596.771, -24596.771, 0.0, 10.013667, 9.936804 
6.496208e+3, 1.2522948e+2, -1702831.0, -1721905.3, 16.952454, 0.0014774175, 0.00022098387, -1702831.0, 9921.464, 0.0, 10.013702, 9.988412 
6.4962053e+3, 1.3521774e+2, -1605537.8, -1625199.9, -0.42012534, 0.0014785656, 0.000041528452, -1605537.8, 9329.736, 0.0, 10.013696, 9.987628 
6.496203e+3, 1.4519943e+2, -1517564.5, -1546106.5, 29.924381, 0.0014784931, 0.0003018144, -1517564.5, -517.5577, 0.0, 10.01369, 9.975875 
6.4962006e+3, 1.5517528e+2, -1419919.0, -1448860.5, 11.266552, 0.0014771901, 0.00011074522, -1419919.0, -635.43195, 0.0, 10.013684, 9.975344 
6.496199e+3, 1.6514453e+2, -1331912.6, -1370034.5, 41.321487, 0.0014769495, 0.00019161603, -1331912.6, -10327.696, 0.0, 10.01368, 9.963278 
6.496197e+3, 1.7510787e+2, -1234032.6, -1272468.4, 21.777866, 0.0014777324, 0.0000875386, -1234032.6, -10088.325, 0.0, 10.013678, 9.962865 
6.4961946e+3, 1.8506454e+2, -1146018.0, -1193968.8, 44.568672, 0.0014778745, 0.00023091376, -1146018.0, -19649.248, 0.0, 10.013676, 9.950415 
6.496193e+3, 1.9501498e+2, -1047945.8, -1096159.0, 26.010084, 0.0014773741, 0.00009621509, -1047945.8, -19091.482, 0.0, 10.013675, 9.950071 
6.4961916e+3, 2.0495863e+2, -960052.25, -1018254.5, 47.193924, 0.0014770472, 0.00021604105, -960052.25, -28645.701, 0.0, 10.013674, 9.937041 
6.496189e+3, 2.1489571e+2, -861838.75, -920304.6, 26.273329, 0.0014768874, 0.000020603193, -861838.75, -27815.58, 0.0, 10.013674, 9.936699 
6.496188e+3, 2.2482607e+2, -773643.3, -842187.94, 49.386337, 0.0014769917, 0.00026555688, -773643.25, -36937.625, 0.0, 10.013674, 9.923607 
6.496186e+3, 2.3474973e+2, -675282.25, -744083.56, 28.130394, 0.0014773605, 0.000050617866, -675282.25, -35828.58, 0.0, 10.013674, 9.923275 
6.4961845e+3, 2.4466643e+2, -587046.4, -666282.44, 48.6287, 0.0014771114, 0.00020935787, -587046.3, -44776.305, 0.0, 10.013675, 9.909784 
6.496183e+3, 2.5457633e+2, -488366.3, -567681.9, 27.71097, 0.001476158, 0.00002368027, -488366.3, -43213.344, 0.0, 10.013675, 9.909682 
6.4961815e+3, 2.6447913e+2, -400235.97, -490510.97, 45.650593, 0.00147603, 0.0002674532, -400235.94, -52130.254, 0.0, 10.013675, 9.895535 
6.49618e+3, 2.7437517e+2, -301026.28, -390976.8, 23.69995, 0.0014768786, -0.00007932415, -301026.28, -49902.22, 0.0, 10.013675, 9.89595 
6.4961785e+3, 2.8426316e+2, -214422.31, -317393.22, 36.29494, 0.0014768883, 0.00034977205, -214422.3, -60200.285, 0.0, 10.013675, 9.87924 
6.4961773e+3, 2.9414347e+2, -114777.93, -217123.33, 16.690027, 0.0014757927, -0.00013695561, -114777.92, -57382.914, 0.0, 10.013675, 9.880037 
6.496176e+3, 3.040514e+2, -25661.855, -85192.26, 22.847368, 0.0014753544, 0.00028366502, -25661.848, -25661.848, 0.0, 10.013674, 9.935295 
6.496175e+3, 3.139885e+2, -24641.752, -83063.7, -0.62180316, 0.0014758465, 0.0000476963, -24641.752, -24641.752, 0.0, 10.013671, 9.936732 
6.506221e+3, 1.2523177e+2, -1702495.9, -1721781.6, 21.523844, 0.0014857975, 0.000220634, -1702495.9, 10234.171, 0.0, 10.013935, 9.988363 
6.5062195e+3, 1.3521999e+2, -1605204.5, -1625078.3, 3.7625291, 0.0014870664, 0.000041705018, -1605204.5, 9641.053, 0.0, 10.013928, 9.987579 
6.5062165e+3, 1.4520161e+2, -1517231.8, -1545988.3, 35.10336, 0.0014870422, 0.0003021301, -1517231.8, -206.25862, 0.0, 10.013924, 9.975823 
6.506215e+3, 1.5517741e+2, -1419583.0, -1448741.5, 16.378277, 0.001485716, 0.000110841596, -1419583.0, -320.31354, 0.0, 10.013922, 9.975293 
6.506213e+3, 1.6514662e+2, -1331575.9, -1369917.5, 46.86828, 0.0014854497, 0.00019161441, -1331575.9, -10011.386, 0.0, 10.01392, 9.963226 
6.506211e+3, 1.751099e+2, -1233696.3, -1272352.4, 27.161606, 0.0014862062, 0.00008755291, -1233696.1, -9771.864, 0.0, 10.013918, 9.962813 
6.506209e+3, 1.8506652e+2, -1145677.6, -1193848.0, 50.539955, 0.0014863338, 0.00023099578, -1145677.5, -19328.232, 0.0, 10.013918, 9.950366 
6.506207e+3, 1.9501692e+2, -1047602.94, -1096037.8, 31.777601, 0.0014858295, 0.00009641425, -1047602.9, -18767.545, 0.0, 10.01392, 9.950022 
6.506205e+3, 2.0496053e+2, -959712.75, -1018143.7, 53.01905, 0.0014856288, 0.00021628774, -959712.75, -28324.63, 0.0, 10.013921, 9.936986 
6.5062034e+3, 2.1489754e+2, -861498.7, -920194.5, 31.769531, 0.001485726, 0.000020827974, -861498.6, -27493.375, 0.0, 10.013923, 9.936643 
6.5062016e+3, 2.2482784e+2, -773302.94, -842080.3, 54.89672, 0.0014858083, 0.000265611, -773302.9, -36614.574, 0.0, 10.013925, 9.92355 
6.5062004e+3, 2.3475145e+2, -674940.5, -743976.1, 33.630043, 0.0014858603, 0.00005034478, -674940.5, -35503.574, 0.0, 10.0139265, 9.923217 
6.506198e+3, 2.446681e+2, -586704.06, -666177.56, 53.78572, 0.0014856051, 0.00020932898, -586704.0, -44450.184, 0.0, 10.013929, 9.909725 
6.506197e+3, 2.5457793e+2, -488022.97, -567577.5, 31.925253, 0.0014849929, 0.000024535599, -488022.97, -42885.62, 0.0, 10.013931, 9.909622 
6.506195e+3, 2.6448065e+2, -399892.34, -490409.1, 49.476784, 0.0014848779, 0.00026806662, -399892.3, -51801.66, 0.0, 10.013933, 9.895474 
6.506194e+3, 2.743767e+2, -300682.2, -390875.78, 28.23883, 0.0014853453, -0.00008030283, -300682.16, -49572.52, 0.0, 10.013935, 9.895889 
6.506192e+3, 2.8426456e+2, -214076.17, -317290.63, 40.288013, 0.0014853805, 0.0003489233, -214076.16, -59867.98, 0.0, 10.013937, 9.879181 
6.5061915e+3, 2.941448e+2, -114431.695, -217021.61, 18.693012, 0.0014848387, -0.00013543935, -114431.69, -57049.945, 0.0, 10.013938, 9.879977 
6.50619e+3, 3.0405268e+2, -25321.547, -85103.26, 23.937922, 0.0014844526, 0.0002853319, -25321.54, -25321.54, 0.0, 10.013939, 9.935227 
6.5061885e+3, 3.1398973e+2, -24297.535, -82973.68, 1.9280757, 0.0014842842, 0.00004637561, -24297.535, -24297.535, 0.0, 10.01394, 9.936665 
6.5162355e+3, 1.2523407e+2, -1702535.8, -1721860.0, 17.964348, 0.0014951496, 0.0002195777, -1702535.6, 10171.877, 0.0, 10.013937, 9.988315 
6.516233e+3, 1.3522223e+2, -1605243.1, -1625155.8, 0.27339038, 0.0014945999, 0.000042331125, -1605243.1, 9580.351, 0.0, 10.01393, 9.987531 
6.516231e+3, 1.4520381e+2, -1517271.5, -1546068.5, 33.365475, 0.0014945914, 0.00030304622, -1517271.5, -267.54443, 0.0, 10.0139265, 9.975773 
6.5162283e+3, 1.5517956e+2, -1419622.6, -1448821.5, 14.655183, 0.0014949633, 0.00011076355, -1419622.6, -380.9713, 0.0, 10.013924, 9.975242 
6.5162265e+3, 1.651487e+2, -1331616.4, -1369999.8, 45.35222, 0.0014948449, 0.00019122448, -1331616.4, -10072.457, 0.0, 10.013922, 9.963174 
6.516225e+3, 1.7511193e+2, -1233735.8, -1272433.9, 25.693796, 0.001494298, 0.00008749094, -1233735.8, -9831.494, 0.0, 10.013921, 9.962761 
6.516223e+3, 1.8506852e+2, -1145714.1, -1193924.4, 50.15989, 0.0014941299, 0.00023116129, -1145714.1, -19384.367, 0.0, 10.013921, 9.950316 
6.5162206e+3, 1.9501886e+2, -1047639.06, -1096113.8, 31.41415, 0.0014943013, 0.000096710195, -1047639.0, -18822.691, 0.0, 10.013922, 9.949972 
6.5162194e+3, 2.049624e+2, -959753.94, -1018230.3, 52.795055, 0.0014945589, 0.00021662287, -959753.9, -28384.326, 0.0, 10.013924, 9.93693 
6.516217e+3, 2.1489936e+2, -861539.0, -920280.4, 31.572994, 0.0014948954, 0.000021111033, -861539.0, -27551.709, 0.0, 10.013926, 9.936586 
6.516215e+3, 2.2482961e+2, -773343.7, -842167.9, 54.965538, 0.0014946816, 0.00026552685, -773343.6, -36672.758, 0.0, 10.013927, 9.9234915 
6.516214e+3, 2.3475316e+2, -674980.6, -744063.2, 33.67241, 0.0014938721, 0.00004956085, -674980.6, -35560.54, 0.0, 10.013929, 9.92316 
6.516212e+3, 2.4466974e+2, -586745.8, -666268.56, 53.913364, 0.0014937739, 0.00020915123, -586745.8, -44508.234, 0.0, 10.013932, 9.909664 
6.516211e+3, 2.545795e+2, -488064.3, -567668.06, 32.134884, 0.001494459, 0.000026424737, -488064.3, -42942.65, 0.0, 10.013934, 9.909562 
6.516209e+3, 2.6448217e+2, -399933.03, -490499.1, 49.446793, 0.0014943464, 0.00026933113, -399933.0, -51857.426, 0.0, 10.013937, 9.895414 
6.516208e+3, 2.7437815e+2, -300721.97, -390965.03, 28.125938, 0.001493261, -0.000082893086, -300721.97, -49626.793, 0.0, 10.013939, 9.895829 
6.516206e+3, 2.84266e+2, -214116.63, -317382.16, 40.030853, 0.0014931242, 0.00034667, -214116.61, -59922.31, 0.0, 10.01394, 9.879119 
6.516205e+3, 2.9414618e+2, -114471.56, -217112.7, 18.555244, 0.0014942071, -0.00013191003, -114471.56, -57103.12, 0.0, 10.013942, 9.879915 
6.516204e+3, 3.04054e+2, -25363.36, -85198.69, 23.715488, 0.0014942042, 0.00028921285, -25363.352, -25363.352, 0.0, 10.013943, 9.935161 
6.5162027e+3, 3.1399095e+2, -24339.676, -83069.69, 1.5464925, 0.0014926489, 0.00004289188, -24339.676, -24339.676, 0.0, 10.013944, 9.936598 
6.526249e+3, 1.2523636e+2, -1702202.0, -1721737.8, 21.71575, 0.0015037992, 0.00021988527, -1702202.0, 10483.022, 0.0, 10.014169, 9.988265 
6.526247e+3, 1.3522449e+2, -1604904.5, -1625031.6, 4.025039, 0.0015028247, 0.00004235738, -1604904.5, 9896.967, 0.0, 10.014167, 9.987481 
6.526245e+3, 1.4520602e+2, -1516932.9, -1545947.6, 37.61202, 0.0015028167, 0.00030301794, -1516932.9, 49.485023, 0.0, 10.014164, 9.975721 
6.5262425e+3, 1.5518172e+2, -1419286.1, -1448702.6, 18.705877, 0.0015035761, 0.00011088478, -1419286.1, -65.56442, 0.0, 10.014162, 9.975191 
6.526241e+3, 1.6515082e+2, -1331279.9, -1369883.1, 50.326935, 0.0015034989, 0.00019130441, -1331279.8, -9756.427, 0.0, 10.014161, 9.963121 
6.526239e+3, 1.7511398e+2, -1233395.9, -1272316.3, 30.587994, 0.0015026696, 0.00008735249, -1233395.9, -9511.621, 0.0, 10.014163, 9.962708 
6.5262365e+3, 1.8507051e+2, -1145369.5, -1193802.0, 55.58156, 0.0015024934, 0.0002311134, -1145369.4, -19059.207, 0.0, 10.014166, 9.950267 
6.526235e+3, 1.9502081e+2, -1047293.6, -1095991.9, 36.646755, 0.00150292, 0.0000970491, -1047293.56, -18496.313, 0.0, 10.014169, 9.949923 
6.526233e+3, 2.049643e+2, -959411.8, -1018118.8, 58.27907, 0.00150325, 0.0002169092, -959411.75, -28060.742, 0.0, 10.014173, 9.9368725 
6.526231e+3, 2.1490121e+2, -861194.4, -920168.5, 36.874073, 0.0015034763, 0.000020905798, -861194.3, -27225.03, 0.0, 10.014177, 9.93653 
6.5262294e+3, 2.2483139e+2, -772998.1, -842058.7, 59.95543, 0.0015032683, 0.00026535723, -772998.06, -36344.598, 0.0, 10.014182, 9.923433 
6.526228e+3, 2.3475489e+2, -674633.75, -743954.3, 38.04723, 0.001502587, 0.00004998217, -674633.75, -35230.54, 0.0, 10.014186, 9.9231 
6.5262264e+3, 2.446714e+2, -586398.75, -666161.94, 57.886795, 0.0015024951, 0.00020948374, -586398.75, -44177.453, 0.0, 10.014191, 9.909605 
6.5262246e+3, 2.5458112e+2, -487717.4, -567562.56, 36.266735, 0.00150305, 0.000025909087, -487717.4, -42611.43, 0.0, 10.014194, 9.909502 
6.5262234e+3, 2.6448372e+2, -399585.75, -490396.2, 53.41248, 0.001502964, 0.00026900118, -399585.72, -51525.24, 0.0, 10.014198, 9.895352 
6.526222e+3, 2.743796e+2, -300372.44, -390862.13, 31.135523, 0.0015020922, -0.00008179618, -300372.44, -49291.758, 0.0, 10.014203, 9.895767 
6.5262204e+3, 2.842674e+2, -213764.14, -317277.72, 42.291866, 0.0015019184, 0.00034765684, -213764.13, -59583.715, 0.0, 10.014207, 9.879058 
6.526219e+3, 2.9414752e+2, -114118.46, -217008.92, 21.284851, 0.0015026384, -0.00013303239, -114118.45, -56763.293, 0.0, 10.01421, 9.879854 
6.526218e+3, 3.0405527e+2, -25017.072, -85107.89, 25.751045, 0.0015026882, 0.00028799268, -25017.06, -25017.06, 0.0, 10.014213, 9.935093 
6.526217e+3, 3.1399214e+2, -23992.555, -82979.35, 1.9327544, 0.0015017759, 0.00004444403, -23992.555, -23992.555, 0.0, 10.0142145, 9.936528 
6.536264e+3, 1.2523867e+2, -1702241.5, -1721815.9, 19.804585, 0.0015120248, 0.00022102943, -1702241.5, 10420.946, 0.0, 10.014171, 9.988216 
6.5362614e+3, 1.3522674e+2, -1604943.9, -1625109.6, 2.142213, 0.0015115174, 0.000042006188, -1604943.9, 9835.409, 0.0, 10.014168, 9.9874325 
6.536259e+3, 1.4520822e+2, -1516973.9, -1546029.1, 35.663246, 0.0015115011, 0.00030240047, -1516973.9, -13.113983, 0.0, 10.014166, 9.97567 
6.5362567e+3, 1.5518387e+2, -1419325.9, -1448783.3, 16.80976, 0.0015118112, 0.00011112223, -1419325.9, -126.49025, 0.0, 10.014164, 9.97514 
6.536255e+3, 1.6515292e+2, -1331320.1, -1369965.4, 50.038185, 0.0015117074, 0.00019167128, -1331320.1, -9817.377, 0.0, 10.014164, 9.963068 
6.536253e+3, 1.7511605e+2, -1233436.1, -1272398.3, 30.291912, 0.0015112496, 0.000087171946, -1233436.1, -9571.967, 0.0, 10.014166, 9.962656 
6.536251e+3, 1.8507251e+2, -1145407.1, -1193879.5, 55.692947, 0.0015112475, 0.00023093446, -1145407.0, -19116.469, 0.0, 10.014168, 9.950216 
6.536249e+3, 1.9502276e+2, -1047330.25, -1096068.6, 36.75329, 0.0015116568, 0.00009739924, -1047330.2, -18552.09, 0.0, 10.014172, 9.949873 
6.536247e+3, 2.049662e+2, -959453.25, -1018205.94, 59.015366, 0.0015118152, 0.00021715094, -959453.2, -28120.752, 0.0, 10.014175, 9.936816 
6.5362453e+3, 2.1490304e+2, -861234.94, -920255.0, 37.641136, 0.0015117154, 0.000020401963, -861234.94, -27283.643, 0.0, 10.01418, 9.936473 
6.5362436e+3, 2.2483318e+2, -773040.25, -842148.8, 60.710037, 0.0015117057, 0.00026514326, -773040.2, -36404.19, 0.0, 10.014185, 9.923374 
6.5362424e+3, 2.347566e+2, -674675.6, -744044.06, 38.87231, 0.0015117746, 0.00005114705, -674675.56, -35289.273, 0.0, 10.014189, 9.923041 
6.5362406e+3, 2.4467306e+2, -586440.5, -666252.2, 58.446644, 0.0015115936, 0.00021012424, -586440.44, -44235.48, 0.0, 10.014194, 9.909545 
6.5362394e+3, 2.5458273e+2, -487758.16, -567652.06, 36.80385, 0.0015111198, 0.00002389613, -487758.13, -42667.867, 0.0, 10.014197, 9.909443 
6.5362376e+3, 2.6448527e+2, -399628.13, -490489.88, 54.382866, 0.0015110757, 0.00026768234, -399628.1, -51582.73, 0.0, 10.014201, 9.89529 
6.5362364e+3, 2.743811e+2, -300414.5, -390955.56, 32.15139, 0.0015115307, -0.00007840515, -300414.5, -49348.35, 0.0, 10.014206, 9.895704 
6.5362346e+3, 2.8426883e+2, -213804.0, -317367.34, 42.735783, 0.0015114072, 0.00035065625, -213803.98, -59637.504, 0.0, 10.01421, 9.878998 
6.5362334e+3, 2.9414886e+2, -114157.26, -217097.55, 21.693832, 0.0015105177, -0.00013705576, -114157.25, -56815.383, 0.0, 10.014214, 9.879794 
6.536232e+3, 3.0405656e+2, -25061.611, -85209.19, 25.757538, 0.0015104105, 0.00028359485, -25061.602, -25061.602, 0.0, 10.014216, 9.935022 
6.536231e+3, 3.1399336e+2, -24037.584, -83081.945, 1.920894, 0.0015114084, 0.00004913408, -24037.584, -24037.584, 0.0, 10.014218, 9.936458 
6.546278e+3, 1.25241e+2, -1701902.4, -1721690.6, 22.900963, 0.0015200201, 0.00022083896, -1701902.4, 10737.385, 0.0, 10.014406, 9.988168 
6.5462756e+3, 1.35229e+2, -1604607.1, -1624986.5, 5.2210183, 0.0015202961, 0.000042192718, -1604607.1, 10150.0205, 0.0, 10.014403, 9.987383 
6.546273e+3, 1.4521043e+2, -1516637.0, -1545909.8, 39.804123, 0.0015203323, 0.00030257157, -1516637.0, 302.07092, 0.0, 10.014403, 9.975618 
6.546271e+3, 1.5518604e+2, -1418983.6, -1448661.8, 20.824467, 0.0015200214, 0.000110916364, -1418983.6, 194.5863, 0.0, 10.014405, 9.975088 
6.546269e+3, 1.6515502e+2, -1330977.5, -1369846.5, 54.100704, 0.0015198779, 0.00019157985, -1330977.5, -9495.399, 0.0, 10.014407, 9.963016 
6.546267e+3, 1.7511809e+2, -1233095.9, -1272281.4, 33.916416, 0.0015199234, 0.00008765409, -1233095.9, -9251.865, 0.0, 10.014409, 9.962603 
6.546265e+3, 1.8507452e+2, -1145063.0, -1193758.1, 60.484295, 0.0015200323, 0.00023121963, -1145062.9, -18791.91, 0.0, 10.014413, 9.950167 
6.546263e+3, 1.9502471e+2, -1046981.7, -1095945.9, 41.201694, 0.0015201743, 0.00009674645, -1046981.6, -18222.617, 0.0, 10.0144205, 9.949822 
6.546262e+3, 2.049681e+2, -959105.7, -1018092.06, 63.580593, 0.0015202322, 0.00021654986, -959105.6, -27791.773, 0.0, 10.014428, 9.936759 
6.5462595e+3, 2.1490489e+2, -860884.5, -920140.56, 42.02499, 0.0015201985, 0.000020842657, -860884.44, -26951.23, 0.0, 10.014436, 9.936417 
6.5462583e+3, 2.2483496e+2, -772689.8, -842037.5, 64.334785, 0.0015202928, 0.00026570683, -772689.75, -36071.258, 0.0, 10.014442, 9.923315 
6.5462565e+3, 2.3475833e+2, -674326.3, -743934.4, 42.58955, 0.0015205053, 0.000050867966, -674326.3, -34956.875, 0.0, 10.014447, 9.922982 
6.546255e+3, 2.4467473e+2, -586090.7, -666144.8, 62.481518, 0.0015203122, 0.00020981324, -586090.6, -43901.957, 0.0, 10.014454, 9.909485 
6.5462536e+3, 2.5458434e+2, -487404.75, -567543.94, 40.32572, 0.001519652, 0.00002445865, -487404.75, -42330.203, 0.0, 10.0144615, 9.909382 
6.546252e+3, 2.6448682e+2, -399274.38, -490385.3, 57.20932, 0.0015195962, 0.00026821025, -399274.34, -51244.09, 0.0, 10.014468, 9.895227 
6.5462506e+3, 2.7438256e+2, -300061.66, -390852.56, 34.69198, 0.0015202488, -0.00007899723, -300061.63, -49009.984, 0.0, 10.014473, 9.895641 
6.546249e+3, 2.8427023e+2, -213448.02, -317261.22, 44.962334, 0.001520236, 0.00035010427, -213448.0, -59295.39, 0.0, 10.01448, 9.878937 
6.546248e+3, 2.9415023e+2, -113798.4, -216990.9, 23.48818, 0.0015193434, -0.00013606742, -113798.39, -56469.82, 0.0, 10.014485, 9.879733 
6.5462464e+3, 3.0405787e+2, -24708.97, -85117.61, 26.519947, 0.0015191385, 0.0002846491, -24708.959, -24708.959, 0.0, 10.014491, 9.934952 
6.546245e+3, 3.139946e+2, -23682.2, -82990.13, 2.2805607, 0.0015199071, 0.000048175898, -23682.197, -23682.197, 0.0, 10.014496, 9.936386 
6.556292e+3, 1.252433e+2, -1701942.6, -1721769.3, 20.704918, 0.0015279143, 0.00021982602, -1701942.6, 10674.395, 0.0, 10.014407, 9.988118 
6.55629e+3, 1.3523127e+2, -1604646.3, -1625064.4, 3.0685573, 0.0015291385, 0.000042701377, -1604646.3, 10088.642, 0.0, 10.014405, 9.987334 
6.5562874e+3, 1.4521267e+2, -1516677.9, -1545991.5, 39.56876, 0.0015292641, 0.00030322117, -1516677.9, 239.4474, 0.0, 10.014405, 9.975567 
6.5562856e+3, 1.551882e+2, -1419024.4, -1448743.3, 20.616716, 0.0015282541, 0.000110436864, -1419024.4, 132.64299, 0.0, 10.014407, 9.975036 
6.556284e+3, 1.6515714e+2, -1331019.5, -1369931.0, 53.501335, 0.001528066, 0.00019120413, -1331019.5, -9558.065, 0.0, 10.014409, 9.962961 
6.5562814e+3, 1.7512015e+2, -1233136.8, -1272365.1, 33.398865, 0.0015286775, 0.00008853321, -1233136.6, -9312.867, 0.0, 10.014411, 9.962548 
6.5562797e+3, 1.8507652e+2, -1145100.8, -1193836.9, 62.131653, 0.0015288538, 0.00023178097, -1145100.8, -18849.414, 0.0, 10.014416, 9.950115 
6.556278e+3, 1.9502667e+2, -1047019.1, -1096024.3, 42.590034, 0.0015285844, 0.00009547938, -1047019.1, -18279.242, 0.0, 10.014423, 9.949772 
6.556276e+3, 2.0497e+2, -959147.9, -1018180.0, 65.20812, 0.0015285916, 0.00021543383, -959147.8, -27852.582, 0.0, 10.014431, 9.936702 
6.556274e+3, 2.1490674e+2, -860926.1, -920228.0, 43.951942, 0.0015288673, 0.000021856331, -860926.06, -27010.93, 0.0, 10.014439, 9.936359 
6.5562725e+3, 2.2483675e+2, -772732.2, -842127.25, 65.27175, 0.0015290028, 0.00026673832, -772732.1, -36131.1, 0.0, 10.014445, 9.923256 
6.556271e+3, 2.3476006e+2, -674367.7, -744023.4, 43.492622, 0.0015289738, 0.000049696486, -674367.6, -35015.145, 0.0, 10.01445, 9.922924 
6.5562695e+3, 2.4467641e+2, -586133.25, -666237.06, 64.36953, 0.0015288193, 0.00020891897, -586133.2, -43960.848, 0.0, 10.014457, 9.909424 
6.5562683e+3, 2.5458595e+2, -487447.0, -567635.8, 42.235016, 0.001528511, 0.000026610387, -487447.0, -42388.21, 0.0, 10.014464, 9.909321 
6.5562665e+3, 2.6448834e+2, -399317.72, -490480.22, 58.416237, 0.0015284118, 0.00026987246, -399317.7, -51302.59, 0.0, 10.014471, 9.895164 
6.5562654e+3, 2.7438405e+2, -300103.94, -390946.78, 35.935165, 0.0015285461, -0.000082059596, -300103.94, -49066.76, 0.0, 10.014477, 9.895578 
6.5562636e+3, 2.8427166e+2, -213488.28, -317352.28, 46.595055, 0.0015286782, 0.00034735372, -213488.27, -59349.535, 0.0, 10.0144825, 9.878875 
6.5562624e+3, 2.9415157e+2, -113838.17, -217081.25, 25.040827, 0.0015287913, -0.00013197391, -113838.164, -56522.914, 0.0, 10.014489, 9.879672 
6.556261e+3, 3.0405915e+2, -24754.525, -85220.266, 27.31094, 0.0015285308, 0.00028907933, -24754.512, -24754.512, 0.0, 10.014495, 9.934881 
6.55626e+3, 3.139958e+2, -23728.123, -83094.0, 3.154383, 0.0015277377, 0.000043711236, -23728.123, -23728.123, 0.0, 10.014499, 9.936315 
6.5663064e+3, 1.2524562e+2, -1701606.1, -1721645.9, 23.44699, 0.0015367699, 0.00021991986, -1701606.1, 10988.217, 0.0, 10.014641, 9.988069 
6.566304e+3, 1.3523354e+2, -1604304.1, -1624938.9, 5.57365, 0.0015370637, 0.00004261142, -1604304.1, 10408.539, 0.0, 10.014644, 9.987285 
6.566302e+3, 1.4521487e+2, -1516335.3, -1545869.1, 42.729813, 0.0015371939, 0.00030315062, -1516335.3, 560.4068, 0.0, 10.014647, 9.975515 
6.5663004e+3, 1.5519035e+2, -1418683.0, -1448622.5, 23.712908, 0.001537038, 0.00011056792, -1418682.9, 452.89096, 0.0, 10.014648, 9.974984 
6.566298e+3, 1.6515924e+2, -1330677.1, -1369812.8, 57.153336, 0.001536993, 0.0001913158, -1330677.0, -9236.372, 0.0, 10.014653, 9.962908 
6.5662956e+3, 1.751222e+2, -1232789.4, -1272245.0, 37.081524, 0.001537086, 0.000088421264, -1232789.4, -8985.689, 0.0, 10.014659, 9.962495 
6.566294e+3, 1.8507852e+2, -1144751.3, -1193717.6, 66.2324, 0.0015371309, 0.00023164006, -1144751.1, -18519.475, 0.0, 10.014667, 9.950061 
6.5662926e+3, 1.950286e+2, -1046669.3, -1095905.8, 44.559917, 0.0015371009, 0.00009549438, -1046669.25, -17948.523, 0.0, 10.014675, 9.9497175 
6.56629e+3, 2.049719e+2, -958796.1, -1018060.4, 67.337944, 0.001537242, 0.00021542587, -958796.0, -27519.387, 0.0, 10.014685, 9.936648 
6.566289e+3, 2.1490857e+2, -860573.2, -920108.75, 47.77069, 0.0015375465, 0.00002164878, -860573.2, -26676.066, 0.0, 10.014694, 9.936305 
6.566287e+3, 2.2483853e+2, -772380.7, -842016.2, 69.046974, 0.0015375463, 0.0002666175, -772380.6, -35797.113, 0.0, 10.014704, 9.923197 
6.5662855e+3, 2.3476177e+2, -674012.4, -743911.4, 46.715595, 0.0015372081, 0.00004996276, -674012.3, -34676.74, 0.0, 10.014713, 9.922864 
6.5662843e+3, 2.4467807e+2, -585777.25, -666128.06, 67.30703, 0.0015371806, 0.00020918366, -585777.2, -43621.19, 0.0, 10.014722, 9.909362 
6.5662825e+3, 2.5458753e+2, -487091.84, -567528.3, 44.698032, 0.0015374856, 0.000026441156, -487091.8, -42048.734, 0.0, 10.0147295, 9.909259 
6.5662813e+3, 2.644899e+2, -398961.25, -490374.38, 60.7745, 0.0015374527, 0.00026969425, -398961.22, -50961.195, 0.0, 10.014739, 9.895101 
6.5662795e+3, 2.7438554e+2, -299743.16, -390839.9, 38.326866, 0.0015369977, -0.00008173715, -299743.16, -48720.457, 0.0, 10.014749, 9.895515 
6.5662783e+3, 2.8427306e+2, -213124.75, -317245.13, 48.02423, 0.0015369861, 0.00034769523, -213124.73, -58999.86, 0.0, 10.014758, 9.878812 
6.566277e+3, 2.9415295e+2, -113475.48, -216975.63, 25.214235, 0.0015375332, -0.00013224057, -113475.47, -56173.45, 0.0, 10.014766, 9.879608 
6.566276e+3, 3.0406043e+2, -24397.537, -85125.875, 26.769861, 0.0015374642, 0.00028878282, -24397.525, -24397.525, 0.0, 10.014772, 9.934812 
6.566274e+3, 3.1399703e+2, -23367.283, -82998.46, 3.1443498, 0.0015365168, 0.00004421775, -23367.283, -23367.283, 0.0, 10.01478, 9.936244 
6.576321e+3, 1.2524794e+2, -1701646.9, -1721725.5, 22.896803, 0.001546218, 0.00022067875, -1701646.9, 10924.714, 0.0, 10.014643, 9.988019 
6.576319e+3, 1.3523582e+2, -1604344.6, -1625018.1, 5.0954714, 0.0015444716, 0.00004214853, -1604344.6, 10345.813, 0.0, 10.014645, 9.987235 
6.576317e+3, 1.4521709e+2, -1516377.0, -1545951.5, 42.436153, 0.0015445566, 0.00030263542, -1516376.9, 496.9316, 0.0, 10.0146475, 9.975464 
6.576315e+3, 1.5519252e+2, -1418723.6, -1448704.1, 23.448704, 0.0015461731, 0.00011106206, -1418723.6, 390.94147, 0.0, 10.01465, 9.974933 
6.576313e+3, 1.6516136e+2, -1330718.6, -1369896.9, 58.09037, 0.0015463819, 0.00019171667, -1330718.6, -9298.645, 0.0, 10.014655, 9.962854 
6.5763104e+3, 1.7512427e+2, -1232830.4, -1272328.6, 38.020195, 0.0015453164, 0.000087702865, -1232830.3, -9046.827, 0.0, 10.014662, 9.962441 
6.576309e+3, 1.8508054e+2, -1144794.5, -1193806.4, 68.239235, 0.0015451153, 0.00023106876, -1144794.5, -18582.438, 0.0, 10.014668, 9.950004 
6.5763074e+3, 1.9503057e+2, -1046712.0, -1095994.0, 46.67915, 0.0015457132, 0.00009628385, -1046712.0, -18010.332, 0.0, 10.014677, 9.94966 
6.576305e+3, 2.0497379e+2, -958834.25, -1018140.25, 69.96179, 0.0015460949, 0.00021608538, -958834.2, -27576.098, 0.0, 10.014687, 9.936596 
6.576304e+3, 2.1491042e+2, -860610.9, -920188.2, 50.319473, 0.0015462535, 0.000020691603, -860610.9, -26731.79, 0.0, 10.014697, 9.936254 
6.576302e+3, 2.2484031e+2, -772424.44, -842108.2, 71.22933, 0.0015460151, 0.00026579283, -772424.4, -35858.336, 0.0, 10.014707, 9.923137 
6.5763e+3, 2.3476352e+2, -674055.44, -744002.9, 48.942318, 0.001545342, 0.000051106035, -674055.4, -34736.73, 0.0, 10.014715, 9.922804 
6.576299e+3, 2.4467973e+2, -585821.2, -666222.4, 69.34456, 0.0015454936, 0.00021015081, -585821.1, -43681.453, 0.0, 10.014725, 9.909299 
6.576297e+3, 2.5458914e+2, -487134.78, -567621.9, 46.802692, 0.0015465502, 0.000024839126, -487134.75, -42107.36, 0.0, 10.014733, 9.909197 
6.576296e+3, 2.6449144e+2, -399004.2, -490468.8, 63.548122, 0.0015466495, 0.0002683835, -399004.16, -51019.21, 0.0, 10.014742, 9.895038 
6.5762943e+3, 2.7438703e+2, -299785.75, -390933.94, 41.022217, 0.0015455869, -0.0000793314, -299785.75, -48777.543, 0.0, 10.014752, 9.895452 
6.576293e+3, 2.842745e+2, -213167.95, -317341.22, 49.798946, 0.0015452594, 0.00034993625, -213167.94, -59056.926, 0.0, 10.014761, 9.878747 
6.5762913e+3, 2.941543e+2, -113517.64, -217071.0, 27.155237, 0.001545869, -0.00013520257, -113517.63, -56228.797, 0.0, 10.014769, 9.879543 
6.576291e+3, 3.040617e+2, -24441.768, -85226.28, 28.79298, 0.0015461384, 0.00028556885, -24441.754, -24441.754, 0.0, 10.014776, 9.934742 
6.576289e+3, 3.1399825e+2, -23411.844, -83099.52, 4.9083576, 0.0015459175, 0.000047791207, -23411.844, -23411.844, 0.0, 10.014784, 9.936173 
6.586336e+3, 1.2525025e+2, -1701306.1, -1721599.6, 24.129122, 0.0015541038, 0.00022052808, -1701306.0, 11242.874, 0.0, 10.014879, 9.98797 
6.586334e+3, 1.3523807e+2, -1604003.9, -1624893.3, 6.5218635, 0.0015533502, 0.000042100786, -1604003.8, 10664.442, 0.0, 10.014883, 9.9871855 
6.586332e+3, 1.452193e+2, -1516035.6, -1545830.4, 44.72922, 0.0015534511, 0.00030259692, -1516035.6, 816.5703, 0.0, 10.014888, 9.975411 
6.5863293e+3, 1.5519468e+2, -1418377.5, -1448581.4, 25.47952, 0.0015541886, 0.00011094503, -1418377.5, 715.82697, 0.0, 10.014895, 9.97488 
6.5863276e+3, 1.6516347e+2, -1330370.6, -1369776.3, 60.497856, 0.0015543492, 0.00019161167, -1330370.5, -8971.223, 0.0, 10.014903, 9.9628 
6.586326e+3, 1.7512633e+2, -1232480.3, -1272207.9, 39.968693, 0.0015540088, 0.000087695065, -1232480.3, -8716.951, 0.0, 10.014912, 9.962387 
6.586324e+3, 1.8508254e+2, -1144443.9, -1193688.4, 71.107765, 0.0015540096, 0.00023106589, -1144443.8, -18251.295, 0.0, 10.014921, 9.949947 
6.5863216e+3, 1.9503252e+2, -1046359.7, -1095876.0, 49.89947, 0.0015543076, 0.000096196636, -1046359.6, -17677.01, 0.0, 10.014933, 9.949604 
6.5863204e+3, 2.0497568e+2, -958477.6, -1018017.56, 73.33923, 0.001554449, 0.00021600287, -958477.5, -27237.953, 0.0, 10.014944, 9.9365425 
6.5863186e+3, 2.1491225e+2, -860253.25, -920065.9, 52.852566, 0.0015544262, 0.00002070334, -860253.2, -26392.105, 0.0, 10.0149555, 9.9362 
6.586317e+3, 2.248421e+2, -772069.94, -841996.2, 73.135506, 0.0015543947, 0.000265833, -772069.9, -35521.285, 0.0, 10.014967, 9.923077 
6.586315e+3, 2.3476523e+2, -673698.9, -743890.94, 50.760136, 0.0015543352, 0.000051106712, -673698.8, -34397.0, 0.0, 10.014979, 9.922744 
6.586313e+3, 2.4468139e+2, -585462.3, -666112.1, 71.23667, 0.0015544508, 0.0002101052, -585462.25, -43338.805, 0.0, 10.014992, 9.909238 
6.586312e+3, 2.5459075e+2, -486771.84, -567510.7, 48.750645, 0.0015547471, 0.000024739487, -486771.8, -41760.066, 0.0, 10.015004, 9.909135 
6.58631e+3, 2.64493e+2, -398640.9, -490361.75, 64.86226, 0.0015547994, 0.00026835388, -398640.88, -50670.95, 0.0, 10.015016, 9.894973 
6.586309e+3, 2.743885e+2, -299423.28, -390828.47, 41.12686, 0.0015545415, -0.000079139994, -299423.25, -48429.438, 0.0, 10.015027, 9.895387 
6.586308e+3, 2.842759e+2, -212801.42, -317231.78, 49.54194, 0.0015543837, 0.00035009044, -212801.39, -58704.14, 0.0, 10.015038, 9.878684 
6.5863067e+3, 2.9415563e+2, -113146.914, -216960.4, 27.964977, 0.0015543388, -0.00013542523, -113146.91, -55871.21, 0.0, 10.01505, 9.879481 
6.586305e+3, 3.04063e+2, -24077.486, -85131.766, 28.761671, 0.0015544269, 0.00028534132, -24077.473, -24077.473, 0.0, 10.01506, 9.934669 
6.5863043e+3, 3.1399944e+2, -23045.736, -83005.29, 2.5204415, 0.0015546987, 0.00004810261, -23045.736, -23045.736, 0.0, 10.01507, 9.9361 
6.596351e+3, 1.2525257e+2, -1701346.9, -1721678.5, 23.909678, 0.0015610883, 0.00021982008, -1701346.8, 11179.448, 0.0, 10.01488, 9.987921 
6.596349e+3, 1.3524035e+2, -1604043.8, -1624971.5, 6.291214, 0.001563128, 0.00004229305, -1604043.8, 10602.305, 0.0, 10.014884, 9.987137 
6.5963465e+3, 1.4522153e+2, -1516077.9, -1545913.9, 45.895233, 0.0015632806, 0.00030283886, -1516077.9, 752.5752, 0.0, 10.01489, 9.975359 
6.596344e+3, 1.5519686e+2, -1418419.3, -1448664.4, 26.699165, 0.0015615657, 0.00011045269, -1418419.3, 652.88116, 0.0, 10.014896, 9.974828 
6.5963423e+3, 1.6516559e+2, -1330413.8, -1369862.8, 62.24744, 0.0015614998, 0.00019119486, -1330413.6, -9035.062, 0.0, 10.014905, 9.962745 
6.5963405e+3, 1.7512837e+2, -1232522.6, -1272293.8, 41.783176, 0.0015630038, 0.00008810815, -1232522.6, -8779.419, 0.0, 10.014914, 9.962332 
6.596338e+3, 1.8508454e+2, -1144486.4, -1193775.5, 73.8882, 0.0015634719, 0.00023139782, -1144486.3, -18313.498, 0.0, 10.014923, 9.949891 
6.596337e+3, 1.9503446e+2, -1046401.7, -1095962.5, 52.670303, 0.001562918, 0.000095574236, -1046401.6, -17738.096, 0.0, 10.014935, 9.949548 
6.596335e+3, 2.0497757e+2, -958517.94, -1018101.25, 76.479675, 0.0015625351, 0.00021546842, -958517.8, -27296.771, 0.0, 10.014946, 9.936489 
6.5963334e+3, 2.149141e+2, -860292.94, -920149.06, 56.037582, 0.0015623142, 0.000021296477, -860292.9, -26449.787, 0.0, 10.014957, 9.936146 
6.5963316e+3, 2.2484387e+2, -772113.8, -842088.4, 76.32654, 0.0015627549, 0.00026638902, -772113.7, -35582.543, 0.0, 10.01497, 9.923017 
6.59633e+3, 2.3476695e+2, -673741.94, -743982.56, 53.969925, 0.0015638691, 0.000050403134, -673741.9, -34456.906, 0.0, 10.014981, 9.922684 
6.5963286e+3, 2.4468304e+2, -585506.1, -666206.0, 74.74011, 0.0015638199, 0.00020944016, -585506.06, -43398.84, 0.0, 10.014994, 9.909176 
6.5963274e+3, 2.5459233e+2, -486815.1, -567604.06, 52.2095, 0.001562461, 0.000025558566, -486815.06, -41818.95, 0.0, 10.015007, 9.909073 
6.5963256e+3, 2.644945e+2, -398686.78, -490461.34, 67.78731, 0.0015623593, 0.00026910263, -398686.72, -50731.816, 0.0, 10.015018, 9.894906 
6.5963244e+3, 2.7438995e+2, -299468.28, -390927.56, 44.220333, 0.0015637416, -0.000080319754, -299468.25, -48488.773, 0.0, 10.01503, 9.89532 
6.5963227e+3, 2.842773e+2, -212842.3, -317323.3, 52.994396, 0.0015640445, 0.0003489566, -212842.27, -58758.715, 0.0, 10.015041, 9.878623 
6.596322e+3, 2.9415697e+2, -113187.016, -217050.88, 31.182537, 0.0015629318, -0.00013395917, -113187.01, -55924.438, 0.0, 10.015053, 9.87942 
6.59632e+3, 3.0406424e+2, -24126.314, -85240.87, 31.092623, 0.0015625294, 0.00028695373, -24126.299, -24126.299, 0.0, 10.015064, 9.934594 
6.596319e+3, 3.1400064e+2, -23095.145, -83116.19, 5.1436253, 0.0015631345, 0.000046392797, -23095.145, -23095.145, 0.0, 10.015073, 9.936024 
6.606366e+3, 1.2525488e+2, -1701006.4, -1721553.8, 24.704914, 0.0015697776, 0.00021962143, -1701006.4, 11497.194, 0.0, 10.015118, 9.987871 
6.6063637e+3, 1.352426e+2, -1603699.4, -1624845.5, 6.5402575, 0.001571086, 0.000042117124, -1603699.3, 10924.574, 0.0, 10.015124, 9.987086 
6.606361e+3, 1.4522372e+2, -1515732.3, -1545790.8, 46.868664, 0.001571274, 0.0003027199, -1515732.3, 1076.5718, 0.0, 10.015133, 9.9753065 
6.6063595e+3, 1.55199e+2, -1418072.0, -1448541.3, 27.619577, 0.0015702868, 0.00011041905, -1418071.9, 979.1005, 0.0, 10.015142, 9.974775 
6.6063577e+3, 1.6516767e+2, -1330065.3, -1369742.5, 63.87357, 0.0015702952, 0.00019117081, -1330065.1, -8707.103, 0.0, 10.015153, 9.96269 
6.6063553e+3, 1.7513043e+2, -1232170.5, -1272172.5, 43.33422, 0.0015712684, 0.00008802538, -1232170.5, -8447.414, 0.0, 10.015165, 9.962277 
6.6063535e+3, 1.8508652e+2, -1144132.8, -1193656.3, 75.80274, 0.0015716086, 0.00023127644, -1144132.6, -17979.275, 0.0, 10.015178, 9.949835 
6.6063523e+3, 1.950364e+2, -1046046.3, -1095843.4, 54.1305, 0.0015713106, 0.000095431584, -1046046.25, -17401.691, 0.0, 10.015191, 9.9494915 
6.60635e+3, 2.0497945e+2, -958158.3, -1017978.06, 78.10852, 0.0015711464, 0.00021535481, -958158.2, -26955.559, 0.0, 10.015205, 9.936435 
6.606349e+3, 2.149159e+2, -859931.3, -920025.9, 57.60139, 0.0015711075, 0.000021263844, -859931.25, -26106.074, 0.0, 10.01522, 9.936091 
6.606347e+3, 2.2484565e+2, -771754.2, -841974.3, 77.841995, 0.0015714174, 0.00026634563, -771754.06, -35240.246, 0.0, 10.015234, 9.9229555 
6.606345e+3, 2.3476866e+2, -673379.5, -743868.1, 55.188923, 0.0015720732, 0.00005025318, -673379.44, -34111.203, 0.0, 10.015249, 9.922623 
6.606344e+3, 2.446847e+2, -585142.9, -666094.94, 75.47181, 0.0015720885, 0.00020939243, -585142.8, -43051.74, 0.0, 10.0152645, 9.909112 
6.606342e+3, 2.545939e+2, -486450.66, -567493.5, 52.152824, 0.001571375, 0.000025846402, -486450.63, -41470.016, 0.0, 10.01528, 9.909009 
6.606341e+3, 2.64496e+2, -398320.38, -490352.3, 67.4829, 0.0015713095, 0.00026922714, -398320.3, -50380.29, 0.0, 10.015294, 9.894842 
6.606339e+3, 2.7439138e+2, -299098.3, -390817.9, 44.720238, 0.0015720003, -0.00008095237, -299098.3, -48133.055, 0.0, 10.015309, 9.895255 
6.6063386e+3, 2.8427866e+2, -212469.52, -317213.63, 52.848763, 0.0015722151, 0.0003484715, -212469.48, -58399.54, 0.0, 10.015324, 9.878557 
6.606337e+3, 2.9415828e+2, -112813.69, -216942.06, 28.822237, 0.001571794, -0.00013313084, -112813.68, -55564.09, 0.0, 10.015337, 9.8793545 
6.6063356e+3, 3.0406553e+2, -23757.646, -85143.08, 27.908882, 0.0015715887, 0.00028780574, -23757.635, -23757.635, 0.0, 10.01535, 9.934522 
6.6063344e+3, 3.1400183e+2, -22721.47, -83016.71, 3.8791726, 0.0015716897, 0.000045458222, -22721.47, -22721.47, 0.0, 10.015364, 9.93595 
6.6163814e+3, 1.252572e+2, -1701048.9, -1721635.4, 25.663635, 0.0015794936, 0.00021972191, -1701048.9, 11432.142, 0.0, 10.015119, 9.987821 
6.616379e+3, 1.3524486e+2, -1603741.0, -1624926.5, 7.6131663, 0.0015779943, 0.000041710467, -1603741.0, 10860.792, 0.0, 10.015125, 9.987036 
6.616377e+3, 1.4522594e+2, -1515775.0, -1545874.6, 48.79225, 0.0015782116, 0.00030237527, -1515774.9, 1012.26685, 0.0, 10.015134, 9.975254 
6.616374e+3, 1.5520117e+2, -1418114.0, -1448624.5, 29.560562, 0.0015798315, 0.00011064626, -1418113.9, 915.9987, 0.0, 10.015143, 9.974723 
6.6163725e+3, 1.6516979e+2, -1330108.6, -1369829.3, 66.809555, 0.0015800905, 0.00019137042, -1330108.5, -8771.13, 0.0, 10.015155, 9.962635 
6.6163707e+3, 1.7513248e+2, -1232213.4, -1272258.6, 46.324253, 0.0015791281, 0.0000876418, -1232213.4, -8510.27, 0.0, 10.015167, 9.962222 
6.616369e+3, 1.8508852e+2, -1144176.8, -1193745.4, 79.285614, 0.0015789891, 0.00023087961, -1144176.6, -18042.791, 0.0, 10.01518, 9.949778 
6.616367e+3, 1.9503832e+2, -1046089.6, -1095932.0, 57.636986, 0.0015796039, 0.00009556567, -1046089.56, -17463.912, 0.0, 10.015193, 9.949434 
6.6163653e+3, 2.0498133e+2, -958198.8, -1018062.0, 82.11597, 0.0015800995, 0.00021548147, -958198.7, -27014.47, 0.0, 10.015207, 9.93638 
6.6163635e+3, 2.1491773e+2, -859971.25, -920109.2, 61.625343, 0.0015804683, 0.000020848242, -859971.2, -26163.844, 0.0, 10.015222, 9.936037 
6.616362e+3, 2.248474e+2, -771798.75, -842067.7, 82.109375, 0.0015802897, 0.00026594024, -771798.7, -35302.14, 0.0, 10.015237, 9.9228945 
6.6163605e+3, 2.3477036e+2, -673423.44, -743961.0, 59.45306, 0.0015795178, 0.000050435494, -673423.4, -34171.83, 0.0, 10.015252, 9.922562 
6.616359e+3, 2.4468632e+2, -585188.6, -666192.2, 79.67529, 0.0015797341, 0.00020970857, -585188.56, -43113.53, 0.0, 10.015267, 9.909048 
6.6163576e+3, 2.545955e+2, -486495.7, -567590.25, 56.462147, 0.0015810336, 0.000025789532, -486495.66, -41530.496, 0.0, 10.015282, 9.908945 
6.616356e+3, 2.6449752e+2, -398364.63, -490448.28, 71.86414, 0.0015811188, 0.0002689606, -398364.56, -50439.348, 0.0, 10.015297, 9.894778 
6.616355e+3, 2.7439284e+2, -299141.75, -390913.2, 48.95101, 0.001579737, -0.000081230566, -299141.72, -48190.688, 0.0, 10.015312, 9.895191 
6.6163534e+3, 2.8428006e+2, -212514.92, -317313.97, 56.689037, 0.001579537, 0.0003483965, -212514.89, -58458.51, 0.0, 10.0153265, 9.87849 
6.616352e+3, 2.9415962e+2, -112858.414, -217042.02, 32.93299, 0.0015808467, -0.00013273334, -112858.4, -55621.707, 0.0, 10.01534, 9.879287 
6.616351e+3, 3.0406675e+2, -23802.947, -85244.79, 31.911707, 0.0015812482, 0.00028815237, -23802.93, -23802.93, 0.0, 10.015354, 9.934452 
6.61635e+3, 3.14003e+2, -22766.863, -83118.7, 7.5223184, 0.0015803588, 0.000045030578, -22766.861, -22766.861, 0.0, 10.0153675, 9.935881 
6.626397e+3, 1.2525949e+2, -1700706.8, -1721509.8, 24.876198, 0.0015874021, 0.00021967644, -1700706.6, 11751.781, 0.0, 10.015356, 9.98777 
6.626394e+3, 1.352471e+2, -1603395.1, -1624799.8, 7.123524, 0.0015866174, 0.000041631167, -1603395.1, 11184.626, 0.0, 10.015367, 9.986986 
6.626392e+3, 1.4522813e+2, -1515427.9, -1545751.5, 48.96341, 0.0015869186, 0.0003022044, -1515427.8, 1337.8629, 0.0, 10.015379, 9.975201 
6.62639e+3, 1.5520331e+2, -1417763.8, -1448500.6, 29.379711, 0.0015880455, 0.00011032933, -1417763.6, 1245.2416, 0.0, 10.015391, 9.974669 
6.626388e+3, 1.6517188e+2, -1329756.9, -1369707.6, 67.19736, 0.0015882422, 0.00019114527, -1329756.8, -8439.765, 0.0, 10.015405, 9.96258 
6.626386e+3, 1.7513451e+2, -1231859.3, -1272136.8, 46.515186, 0.0015876167, 0.000087730754, -1231859.1, -8176.024, 0.0, 10.01542, 9.962167 
6.626384e+3, 1.8509048e+2, -1143821.3, -1193626.1, 79.81365, 0.0015875765, 0.0002309277, -1143821.1, -17706.68, 0.0, 10.015435, 9.94972 
6.6263825e+3, 1.9504024e+2, -1045731.3, -1095812.1, 57.963726, 0.0015880618, 0.000095232244, -1045731.25, -17124.41, 0.0, 10.015452, 9.949377 
6.6263807e+3, 2.0498319e+2, -957835.25, -1017937.2, 82.58076, 0.0015884837, 0.0002151224, -957835.1, -26669.18, 0.0, 10.015469, 9.936325 
6.626379e+3, 2.1491954e+2, -859605.56, -919984.3, 61.815796, 0.0015888343, 0.000020818661, -859605.5, -25815.863, 0.0, 10.015487, 9.935983 
6.6263777e+3, 2.2484915e+2, -771435.56, -841952.94, 82.23252, 0.0015887576, 0.00026607158, -771435.5, -34956.094, 0.0, 10.015504, 9.922833 
6.626376e+3, 2.3477206e+2, -673057.75, -743846.06, 59.109657, 0.0015882124, 0.00005055257, -673057.7, -33822.695, 0.0, 10.015522, 9.9225 
6.626375e+3, 2.4468796e+2, -584821.2, -666079.3, 79.049065, 0.0015883642, 0.0002095763, -584821.1, -42762.055, 0.0, 10.01554, 9.908985 
6.626373e+3, 2.5459707e+2, -486126.0, -567477.25, 56.07299, 0.0015892754, 0.000025147316, -486125.97, -41176.133, 0.0, 10.015558, 9.908882 
6.626372e+3, 2.64499e+2, -397993.9, -490338.88, 71.068146, 0.0015894145, 0.00026862067, -397993.84, -50083.324, 0.0, 10.015576, 9.8947115 
6.62637e+3, 2.7439427e+2, -298768.63, -390803.78, 46.70715, 0.0015886127, -0.0000802978, -298768.6, -47831.61, 0.0, 10.0155945, 9.895125 
6.6263694e+3, 2.8428143e+2, -212137.23, -317201.5, 53.835274, 0.0015885035, 0.00034915117, -212137.2, -58094.23, 0.0, 10.015612, 9.878426 
6.6263676e+3, 2.9416093e+2, -112477.94, -216929.17, 31.465874, 0.0015892717, -0.00013403545, -112477.92, -55253.99, 0.0, 10.015629, 9.879223 
6.626367e+3, 3.04068e+2, -23428.709, -85147.03, 29.870424, 0.001589549, 0.00028677474, -23428.695, -23428.695, 0.0, 10.015646, 9.934378 
6.626365e+3, 3.1400415e+2, -22389.57, -83020.53, 2.7065153, 0.0015891274, 0.000046396573, -22389.57, -22389.57, 0.0, 10.015662, 9.935805 
6.6364115e+3, 1.2526178e+2, -1700748.4, -1721589.9, 27.141548, 0.0015942795, 0.00021952522, -1700748.4, 11687.631, 0.0, 10.015357, 9.9877205 
6.63641e+3, 1.3524935e+2, -1603436.4, -1624879.5, 9.362478, 0.0015962726, 0.000041733292, -1603436.4, 11121.341, 0.0, 10.0153675, 9.986936 
6.6364074e+3, 1.4523034e+2, -1515471.9, -1545837.1, 51.892494, 0.0015966883, 0.00030213126, -1515471.8, 1272.3534, 0.0, 10.01538, 9.975147 
6.636405e+3, 1.5520544e+2, -1417806.9, -1448585.6, 32.386814, 0.0015955041, 0.00010968135, -1417806.9, 1181.1287, 0.0, 10.015392, 9.974616 
6.636403e+3, 1.6517395e+2, -1329800.9, -1369795.1, 71.03037, 0.0015954566, 0.00019065701, -1329800.8, -8504.261, 0.0, 10.015407, 9.962524 
6.6364014e+3, 1.7513654e+2, -1231902.6, -1272223.8, 50.383133, 0.0015965046, 0.000088084635, -1231902.6, -8239.344, 0.0, 10.015422, 9.962111 
6.6363996e+3, 1.8509246e+2, -1143866.0, -1193716.3, 84.31763, 0.0015969028, 0.0002312264, -1143865.9, -17770.715, 0.0, 10.015437, 9.949663 
6.636398e+3, 1.9504216e+2, -1045775.3, -1095901.6, 62.500614, 0.0015966473, 0.00009461781, -1045775.25, -17187.182, 0.0, 10.015454, 9.949319 
6.636396e+3, 2.0498505e+2, -957876.6, -1018022.3, 87.47318, 0.0015965636, 0.00021447375, -957876.5, -26728.752, 0.0, 10.0154705, 9.936271 
6.636394e+3, 2.1492134e+2, -859646.2, -920068.8, 66.715034, 0.0015966418, 0.00002101041, -859646.1, -25874.176, 0.0, 10.015489, 9.935927 
6.636393e+3, 2.2485091e+2, -771481.4, -842048.25, 87.51516, 0.0015970162, 0.00026650823, -771481.25, -35018.973, 0.0, 10.015506, 9.922771 
6.636392e+3, 2.3477373e+2, -673103.06, -743941.0, 64.44729, 0.0015976779, 0.00005060984, -673103.0, -33884.465, 0.0, 10.015524, 9.922438 
6.63639e+3, 2.4468957e+2, -584866.6, -666175.4, 84.24727, 0.0015976095, 0.00020916693, -584866.56, -42823.35, 0.0, 10.015543, 9.908922 
6.636389e+3, 2.5459862e+2, -486170.47, -567572.6, 61.21548, 0.001596714, 0.000024173853, -486170.4, -41235.82, 0.0, 10.01556, 9.908818 
6.636387e+3, 2.6450053e+2, -398041.16, -490440.8, 76.42569, 0.0015968498, 0.0002682449, -398041.1, -50145.164, 0.0, 10.015578, 9.894644 
6.636386e+3, 2.743957e+2, -298815.44, -390905.44, 52.243847, 0.0015981953, -0.000078691075, -298815.4, -47892.38, 0.0, 10.015596, 9.895058 
6.636385e+3, 2.8428277e+2, -212180.27, -317296.2, 59.043415, 0.0015984763, 0.0003503583, -212180.23, -58150.56, 0.0, 10.0156145, 9.878362 
6.6363835e+3, 2.941622e+2, -112519.81, -217022.63, 36.440914, 0.0015973623, -0.00013630868, -112519.8, -55308.527, 0.0, 10.015632, 9.879159 
6.6363823e+3, 3.0406922e+2, -23479.113, -85258.984, 34.42547, 0.0015970843, 0.00028441745, -23479.094, -23479.094, 0.0, 10.015649, 9.9343 
6.636381e+3, 3.1400532e+2, -22440.676, -83134.33, 7.5530415, 0.0015979904, 0.000048769754, -22440.676, -22440.676, 0.0, 10.015665, 9.935727 
6.6464275e+3, 1.2526406e+2, -1700403.8, -1721463.6, 25.694607, 0.001602747, 0.00021900155, -1700403.8, 12009.931, 0.0, 10.015596, 9.98767 
6.6464245e+3, 1.3525158e+2, -1603089.8, -1624753.1, 7.3469396, 0.0016043973, 0.000041675074, -1603089.8, 11446.169, 0.0, 10.01561, 9.986885 
6.646423e+3, 1.452325e+2, -1515123.8, -1545713.9, 50.657055, 0.0016048262, 0.0003021713, -1515123.6, 1599.1483, 0.0, 10.015625, 9.975094 
6.646421e+3, 1.5520756e+2, -1417454.4, -1448460.9, 31.150993, 0.0016039722, 0.00010948468, -1417454.4, 1512.8019, 0.0, 10.015642, 9.974563 
6.646419e+3, 1.6517602e+2, -1329446.4, -1369672.9, 70.1344, 0.0016039739, 0.00019035248, -1329446.3, -8170.0435, 0.0, 10.015659, 9.962469 
6.646417e+3, 1.7513855e+2, -1231545.6, -1272101.0, 49.199436, 0.0016048127, 0.00008779413, -1231545.5, -7902.0093, 0.0, 10.0156765, 9.962056 
6.646415e+3, 1.8509442e+2, -1143507.5, -1193596.0, 83.47773, 0.0016051925, 0.00023103248, -1143507.4, -17431.404, 0.0, 10.015696, 9.949605 
6.646414e+3, 1.9504406e+2, -1045414.3, -1095781.0, 61.429104, 0.0016050985, 0.00009459668, -1045414.2, -16844.725, 0.0, 10.015715, 9.949262 
6.6464114e+3, 2.0498687e+2, -957510.25, -1017897.0, 86.54152, 0.0016050611, 0.00021450316, -957510.1, -26380.377, 0.0, 10.015735, 9.936215 
6.64641e+3, 2.1492313e+2, -859276.6, -919942.9, 65.44139, 0.0016050717, 0.00002097109, -859276.56, -25522.146, 0.0, 10.015756, 9.935872 
6.6464084e+3, 2.2485264e+2, -771114.1, -841932.06, 86.08306, 0.0016054072, 0.000266287, -771114.06, -34668.676, 0.0, 10.015777, 9.922709 
6.646407e+3, 2.347754e+2, -672734.3, -743825.1, 62.893936, 0.0016060598, 0.00005008949, -672734.25, -33532.06, 0.0, 10.015797, 9.922376 
6.646406e+3, 2.4469118e+2, -584496.1, -666062.0, 82.57648, 0.0016060772, 0.00020891687, -584496.06, -42468.543, 0.0, 10.015819, 9.908857 
6.646404e+3, 2.5460017e+2, -485795.84, -567458.25, 58.779785, 0.0016053723, 0.000024826626, -485795.78, -40876.27, 0.0, 10.015841, 9.908754 
6.646403e+3, 2.64502e+2, -397664.6, -490328.8, 73.47142, 0.0016055023, 0.00026864628, -397664.53, -49783.06, 0.0, 10.0158615, 9.894578 
6.646401e+3, 2.743971e+2, -298437.84, -390794.1, 49.866444, 0.0016066079, -0.000079913116, -298437.84, -47528.55, 0.0, 10.0158825, 9.894991 
6.6464e+3, 2.842841e+2, -211799.48, -317183.9, 56.258503, 0.0016068664, 0.0003492759, -211799.45, -57782.895, 0.0, 10.015903, 9.878296 
6.6463995e+3, 2.941635e+2, -112135.61, -216909.78, 31.843395, 0.0016060094, -0.0001349809, -112135.59, -54936.81, 0.0, 10.015924, 9.879093 
6.646398e+3, 3.040704e+2, -23098.982, -85158.336, 29.04063, 0.0016058189, 0.0002858597, -23098.969, -23098.969, 0.0, 10.0159445, 9.934226 
6.646397e+3, 3.1400645e+2, -22055.863, -83032.3, 3.6859686, 0.0016065735, 0.000047101057, -22055.863, -22055.863, 0.0, 10.0159645, 9.935652 
6.656443e+3, 1.2526633e+2, -1700447.5, -1721546.8, 28.585943, 0.0016121642, 0.00021826096, -1700447.5, 11943.857, 0.0, 10.015597, 9.987618 
6.6564405e+3, 1.352538e+2, -1603132.5, -1624835.5, 10.366556, 0.0016116564, 0.000041501124, -1603132.5, 11381.659, 0.0, 10.015611, 9.986834 
6.656439e+3, 1.4523466e+2, -1515167.8, -1545799.3, 55.014305, 0.0016120404, 0.0003022565, -1515167.6, 1533.9506, 0.0, 10.015626, 9.97504 
6.6564363e+3, 1.5520969e+2, -1417498.0, -1448546.0, 35.503258, 0.0016130551, 0.0001095399, -1417498.0, 1448.4861, 0.0, 10.015643, 9.974509 
6.6564345e+3, 1.6517809e+2, -1329491.8, -1369761.9, 74.854546, 0.0016132772, 0.00019014739, -1329491.6, -8235.521, 0.0, 10.01566, 9.962413 
6.656433e+3, 1.7514054e+2, -1231590.0, -1272189.3, 53.98328, 0.0016128125, 0.00008711644, -1231589.9, -7966.0356, 0.0, 10.015678, 9.962 
6.656431e+3, 1.8509635e+2, -1143552.9, -1193687.1, 88.929855, 0.0016129073, 0.0002305388, -1143552.8, -17495.863, 0.0, 10.015697, 9.949547 
6.656429e+3, 1.9504595e+2, -1045459.0, -1095871.4, 66.912544, 0.0016134983, 0.00009491177, -1045458.9, -16907.914, 0.0, 10.015717, 9.9492035 
6.656428e+3, 2.049887e+2, -957552.6, -1017983.6, 92.570984, 0.0016138317, 0.00021491667, -957552.5, -26440.727, 0.0, 10.015737, 9.936159 
6.6564256e+3, 2.1492492e+2, -859318.56, -920029.0, 71.49667, 0.001613901, 0.000020779446, -859318.44, -25581.43, 0.0, 10.015758, 9.935816 
6.6564244e+3, 2.2485434e+2, -771160.5, -842027.9, 92.092224, 0.0016139109, 0.0002656701, -771160.4, -34731.844, 0.0, 10.015779, 9.9226465 
6.6564226e+3, 2.3477705e+2, -672779.7, -743920.25, 68.89824, 0.0016138351, 0.000049233975, -672779.6, -33593.633, 0.0, 10.0157995, 9.922314 
6.6564214e+3, 2.4469276e+2, -584543.2, -666161.25, 89.22111, 0.0016141186, 0.00020875777, -584543.06, -42531.152, 0.0, 10.0158205, 9.9087925 
6.6564196e+3, 2.546017e+2, -485842.56, -567557.2, 65.52288, 0.001614783, 0.00002639936, -485842.5, -40937.953, 0.0, 10.015842, 9.908689 
6.656419e+3, 2.6450345e+2, -397711.25, -490428.34, 79.6005, 0.0016149064, 0.0002694762, -397711.16, -49843.992, 0.0, 10.015864, 9.894512 
6.656417e+3, 2.743985e+2, -298483.3, -390892.78, 55.89899, 0.001614366, -0.00008277035, -298483.28, -47587.637, 0.0, 10.015884, 9.894925 
6.6564167e+3, 2.8428543e+2, -211845.9, -317285.7, 62.64091, 0.001614359, 0.0003468739, -211845.86, -57842.293, 0.0, 10.015905, 9.878227 
6.656415e+3, 2.9416475e+2, -112181.586, -217011.19, 38.410618, 0.0016150201, -0.00013158942, -112181.58, -54995.145, 0.0, 10.015926, 9.8790245 
6.656414e+3, 3.040716e+2, -23147.07, -85264.53, 35.116337, 0.0016152977, 0.00028947866, -23147.05, -23147.05, 0.0, 10.015947, 9.934154 
6.656413e+3, 3.1400755e+2, -22103.982, -83138.96, 9.561768, 0.0016150314, 0.000043097458, -22103.98, -22103.98, 0.0, 10.015967, 9.935578 
6.666458e+3, 1.2526858e+2, -1700103.1, -1721420.8, 25.469608, 0.0016204846, 0.00021829615, -1700103.0, 12266.255, 0.0, 10.015837, 9.987568 
6.6664565e+3, 1.3525599e+2, -1602782.0, -1624707.1, 7.4625583, 0.0016199595, 0.000041102707, -1602782.0, 11710.615, 0.0, 10.015856, 9.986783 
6.666454e+3, 1.4523682e+2, -1514815.8, -1545674.9, 52.52188, 0.0016203001, 0.00030179747, -1514815.8, 1864.7983, 0.0, 10.015874, 9.974986 
6.666452e+3, 1.5521178e+2, -1417144.4, -1448421.5, 32.54231, 0.0016212432, 0.00010935695, -1417144.4, 1781.526, 0.0, 10.015893, 9.974455 
6.66645e+3, 1.6518013e+2, -1329136.3, -1369639.4, 72.40399, 0.001621525, 0.00019003563, -1329136.1, -7899.9883, 0.0, 10.015914, 9.962357 
6.666448e+3, 1.7514253e+2, -1231230.3, -1272065.5, 51.43818, 0.0016212417, 0.00008688919, -1231230.1, -7625.6973, 0.0, 10.015936, 9.961944 
6.666447e+3, 1.8509829e+2, -1143191.0, -1193565.9, 86.547844, 0.0016213428, 0.00023030657, -1143190.9, -17152.836, 0.0, 10.015958, 9.949489 
6.6664445e+3, 1.9504781e+2, -1045094.25, -1095749.6, 64.2098, 0.0016217725, 0.00009477746, -1045094.1, -16561.49, 0.0, 10.015981, 9.949145 
6.6664433e+3, 2.0499052e+2, -957183.06, -1017857.4, 89.92711, 0.0016221332, 0.00021474011, -957182.9, -26088.887, 0.0, 10.016004, 9.936103 
6.666442e+3, 2.1492666e+2, -858947.06, -919902.9, 68.60475, 0.0016224162, 0.00002042354, -858947.0, -25227.174, 0.0, 10.0160265, 9.9357605 
6.6664404e+3, 2.2485603e+2, -770790.56, -841911.25, 89.26194, 0.0016224416, 0.00026544573, -770790.44, -34378.543, 0.0, 10.016051, 9.922584 
6.666439e+3, 2.3477869e+2, -672405.25, -743802.44, 65.608055, 0.0016221749, 0.00004946666, -672405.2, -33235.164, 0.0, 10.016076, 9.92225 
6.6664374e+3, 2.4469434e+2, -584166.94, -666045.6, 85.53754, 0.0016224677, 0.00020881703, -584166.9, -42170.34, 0.0, 10.016101, 9.908728 
6.666436e+3, 2.5460318e+2, -485466.16, -567442.56, 61.87889, 0.0016233637, 0.000025587127, -485466.1, -40576.26, 0.0, 10.016124, 9.908624 
6.6664344e+3, 2.6450488e+2, -397333.25, -490316.47, 75.80511, 0.00162351, 0.00026886843, -397333.2, -49480.11, 0.0, 10.016149, 9.894444 
6.666434e+3, 2.7439988e+2, -298100.2, -390779.56, 51.234833, 0.0016227431, -0.00008189161, -298100.16, -47217.953, 0.0, 10.016174, 9.894857 
6.666432e+3, 2.8428674e+2, -211458.36, -317171.03, 57.270325, 0.0016227029, 0.00034764953, -211458.33, -57467.535, 0.0, 10.016199, 9.87816 
6.6664314e+3, 2.94166e+2, -111792.92, -216897.13, 33.491856, 0.0016235798, -0.0001329703, -111792.914, -54618.582, 0.0, 10.016223, 9.878958 
6.66643e+3, 3.040728e+2, -22763.564, -85163.04, 29.882164, 0.0016239595, 0.00028802603, -22763.55, -22763.55, 0.0, 10.016246, 9.934078 
6.666429e+3, 3.1400862e+2, -21715.396, -83035.87, 2.8891864, 0.0016236339, 0.000044534598, -21715.395, -21715.395, 0.0, 10.01627, 9.935502 
6.676475e+3, 1.2527083e+2, -1700146.3, -1721502.6, 30.23582, 0.0016281902, 0.00021875146, -1700146.1, 12201.161, 0.0, 10.015838, 9.987517 
6.6764724e+3, 1.352582e+2, -1602824.9, -1624788.9, 12.202071, 0.0016288949, 0.000040561557, -1602824.9, 11646.195, 0.0, 10.015856, 9.9867325 
6.67647e+3, 1.4523895e+2, -1514861.8, -1545762.9, 57.460426, 0.0016291952, 0.0003010198, -1514861.6, 1797.9581, 0.0, 10.015875, 9.974931 
6.676468e+3, 1.5521386e+2, -1417189.3, -1448508.8, 37.58357, 0.0016289415, 0.00010901923, -1417189.1, 1716.3281, 0.0, 10.015894, 9.9744 
6.6764665e+3, 1.6518216e+2, -1329181.6, -1369728.6, 78.54457, 0.0016291884, 0.00018995922, -1329181.5, -7965.263, 0.0, 10.015915, 9.9623 
6.676464e+3, 1.751445e+2, -1231275.1, -1272154.3, 57.575752, 0.0016299464, 0.00008691043, -1231275.1, -7689.9634, 0.0, 10.015937, 9.961887 
6.676463e+3, 1.851002e+2, -1143237.6, -1193658.5, 92.97975, 0.0016302251, 0.00023021376, -1143237.4, -17218.209, 0.0, 10.015959, 9.9494295 
6.676461e+3, 1.9504967e+2, -1045140.06, -1095841.5, 70.70575, 0.0016300096, 0.00009436751, -1045140.0, -16625.51, 0.0, 10.015982, 9.949086 
6.6764593e+3, 2.0499232e+2, -957226.25, -1017945.1, 96.73979, 0.0016301966, 0.00021420834, -957226.1, -26149.701, 0.0, 10.016005, 9.936047 
6.676458e+3, 2.149284e+2, -858989.44, -919989.9, 75.41175, 0.0016307723, 0.00001996521, -858989.4, -25286.592, 0.0, 10.016028, 9.935703 
6.6764563e+3, 2.2485773e+2, -770838.06, -842009.0, 96.815704, 0.0016310143, 0.00026543983, -770837.94, -34442.477, 0.0, 10.016052, 9.922521 
6.676455e+3, 2.347803e+2, -672452.4, -743899.8, 73.225464, 0.0016308842, 0.000050306408, -672452.3, -33298.16, 0.0, 10.016078, 9.922187 
6.6764534e+3, 2.4469589e+2, -584214.56, -666144.75, 92.619095, 0.0016310374, 0.00020898439, -584214.44, -42233.13, 0.0, 10.016102, 9.908663 
6.676452e+3, 2.5460467e+2, -485512.5, -567540.8, 68.9456, 0.0016314856, 0.000023398614, -485512.44, -40637.18, 0.0, 10.016127, 9.908559 
6.676451e+3, 2.645063e+2, -397381.44, -490419.44, 83.66037, 0.0016316718, 0.00026743038, -397381.38, -49542.21, 0.0, 10.01615, 9.894377 
6.67645e+3, 2.7440122e+2, -298148.16, -390882.28, 59.175518, 0.0016315255, -0.00007888297, -298148.13, -47279.22, 0.0, 10.016176, 9.89479 
6.6764486e+3, 2.8428802e+2, -211504.69, -317271.13, 64.48435, 0.0016315914, 0.00035023317, -211504.64, -57526.484, 0.0, 10.016201, 9.878094 
6.6764474e+3, 2.9416722e+2, -111837.94, -216996.13, 40.67068, 0.0016319089, -0.00013709955, -111837.92, -54675.523, 0.0, 10.016225, 9.878891 
6.676446e+3, 3.040739e+2, -22814.11, -85274.445, 37.18958, 0.0016321738, 0.00028365813, -22814.088, -22814.088, 0.0, 10.016249, 9.934002 
6.6764456e+3, 3.140097e+2, -21766.527, -83148.6, 10.252492, 0.0016323616, 0.000049084367, -21766.525, -21766.525, 0.0, 10.016273, 9.935425 
6.68649e+3, 1.2527303e+2, -1699797.9, -1721375.5, 26.035177, 0.0016361584, 0.00021812294, -1699797.9, 12527.678, 0.0, 10.01608, 9.987466 
6.6864884e+3, 1.3526036e+2, -1602475.1, -1624661.8, 7.445212, 0.0016372307, 0.00004037847, -1602475.1, 11974.725, 0.0, 10.0161, 9.986681 
6.6864866e+3, 1.4524107e+2, -1514510.0, -1545638.9, 53.377045, 0.0016376171, 0.00030094222, -1514510.0, 2128.8933, 0.0, 10.016123, 9.974876 
6.686484e+3, 1.5521593e+2, -1416831.5, -1448382.5, 33.535233, 0.0016371891, 0.00010873964, -1416831.5, 2053.8018, 0.0, 10.016147, 9.974345 
6.6864824e+3, 1.6518416e+2, -1328821.6, -1369604.9, 74.626625, 0.0016373743, 0.00018963382, -1328821.5, -7624.9116, 0.0, 10.016171, 9.962243 
6.6864806e+3, 1.7514646e+2, -1230913.3, -1272030.4, 53.160564, 0.0016381756, 0.00008668623, -1230913.1, -7347.089, 0.0, 10.016195, 9.96183 
6.686479e+3, 1.8510209e+2, -1142874.0, -1193536.8, 88.73899, 0.0016385617, 0.00023000212, -1142873.8, -16873.088, 0.0, 10.016221, 9.94937 
6.686477e+3, 1.9505149e+2, -1044773.1, -1095719.0, 66.321106, 0.0016385127, 0.000094081595, -1044773.0, -16276.476, 0.0, 10.016247, 9.949027 
6.686476e+3, 2.049941e+2, -956853.56, -1017818.4, 92.43338, 0.0016386203, 0.00021395784, -956853.44, -25794.41, 0.0, 10.0162735, 9.935989 
6.686474e+3, 2.1493012e+2, -858612.94, -919862.2, 70.64923, 0.0016388734, 0.00001986089, -858612.8, -24926.879, 0.0, 10.016301, 9.935647 
6.686473e+3, 2.2485937e+2, -770463.56, -841890.6, 91.90696, 0.0016392125, 0.0002652725, -770463.44, -34084.246, 0.0, 10.016328, 9.922457 
6.686471e+3, 2.3478189e+2, -672077.2, -743782.2, 68.19782, 0.0016396163, 0.000049859547, -672077.1, -32938.594, 0.0, 10.0163555, 9.922123 
6.68647e+3, 2.4469742e+2, -583837.1, -666029.2, 87.60346, 0.001639749, 0.00020868976, -583837.0, -41870.684, 0.0, 10.016383, 9.908597 
6.686468e+3, 2.5460613e+2, -485129.44, -567423.56, 63.482906, 0.0016395634, 0.000023734536, -485129.38, -40268.453, 0.0, 10.016413, 9.908493 
6.6864675e+3, 2.6450768e+2, -396996.7, -490305.34, 77.60832, 0.0016397258, 0.00026758542, -396996.63, -49171.13, 0.0, 10.01644, 9.894308 
6.686466e+3, 2.7440256e+2, -297763.53, -390769.53, 52.94608, 0.0016402801, -0.00007986958, -297763.5, -46907.594, 0.0, 10.016467, 9.894721 
6.6864645e+3, 2.842893e+2, -211115.94, -317155.94, 58.138798, 0.001640485, 0.0003493811, -211115.9, -57150.08, 0.0, 10.016496, 9.878026 
6.686464e+3, 2.9416838e+2, -111443.7, -216879.3, 33.925472, 0.0016402168, -0.00013617883, -111443.695, -54292.98, 0.0, 10.016524, 9.878824 
6.686463e+3, 3.0407503e+2, -22424.07, -85171.58, 29.886707, 0.0016403326, 0.0002846524, -22424.055, -22424.055, 0.0, 10.016553, 9.933925 
6.686462e+3, 3.1401074e+2, -21372.324, -83044.76, 2.6996152, 0.0016409896, 0.000047777517, -21372.322, -21372.322, 0.0, 10.01658, 9.935348 
6.696506e+3, 1.2527524e+2, -1699843.4, -1721460.5, 31.289013, 0.0016443104, 0.00021687469, -1699843.3, 12460.662, 0.0, 10.01608, 9.987413 
6.6965044e+3, 1.3526252e+2, -1602519.4, -1624746.0, 12.807175, 0.001645241, 0.000040372142, -1602519.4, 11909.411, 0.0, 10.016101, 9.986629 
6.6965026e+3, 1.4524318e+2, -1514555.6, -1545726.5, 60.146523, 0.0016457854, 0.0003012394, -1514555.5, 2062.7559, 0.0, 10.016124, 9.974822 
6.696501e+3, 1.5521798e+2, -1416876.9, -1448469.8, 40.29897, 0.0016457826, 0.00010847894, -1416876.8, 1988.4739, 0.0, 10.016148, 9.974291 
6.6964984e+3, 1.6518614e+2, -1328869.0, -1369696.8, 81.44734, 0.0016458943, 0.00018915518, -1328868.8, -7691.739, 0.0, 10.016172, 9.962186 
6.6964966e+3, 1.7514838e+2, -1230959.5, -1272121.5, 60.066563, 0.0016461636, 0.00008630381, -1230959.5, -7412.3584, 0.0, 10.016196, 9.961773 
6.6964954e+3, 1.8510397e+2, -1142920.9, -1193629.8, 96.342804, 0.0016466124, 0.0002297036, -1142920.8, -16938.363, 0.0, 10.016222, 9.949311 
6.696493e+3, 1.9505331e+2, -1044819.4, -1095811.5, 73.92701, 0.001647191, 0.000093854316, -1044819.3, -16340.536, 0.0, 10.016248, 9.948968 
6.696492e+3, 2.0499586e+2, -956898.25, -1017908.2, 100.54717, 0.0016472794, 0.00021385628, -956898.06, -25856.24, 0.0, 10.016274, 9.935932 
6.69649e+3, 2.1493183e+2, -858657.0, -919951.44, 78.81344, 0.0016468731, 0.000019940284, -858656.94, -24987.604, 0.0, 10.016302, 9.935589 
6.696489e+3, 2.2486101e+2, -770511.8, -841988.94, 99.97324, 0.0016472371, 0.00026499666, -770511.6, -34148.48, 0.0, 10.01633, 9.922394 
6.696487e+3, 2.3478346e+2, -672124.4, -743879.75, 76.27581, 0.0016483768, 0.000048668386, -672124.3, -33001.18, 0.0, 10.016356, 9.92206 
6.6964865e+3, 2.4469893e+2, -583885.56, -666130.06, 96.53026, 0.0016485603, 0.00020812204, -583885.44, -41933.902, 0.0, 10.016385, 9.908531 
6.6964847e+3, 2.546076e+2, -485177.6, -567524.06, 72.44748, 0.0016476668, 0.000025492105, -485177.53, -40330.766, 0.0, 10.016414, 9.908427 
6.696484e+3, 2.6450908e+2, -397046.06, -490409.25, 85.84096, 0.0016477722, 0.00026863086, -397046.0, -49234.016, 0.0, 10.016442, 9.894239 
6.6964823e+3, 2.7440387e+2, -297811.72, -390872.63, 61.235893, 0.001649042, -0.00008314403, -297811.7, -46968.566, 0.0, 10.016469, 9.894652 
6.696482e+3, 2.8429052e+2, -211162.8, -317257.4, 67.217865, 0.0016493994, 0.0003465641, -211162.75, -57209.047, 0.0, 10.016498, 9.877958 
6.6964805e+3, 2.9416955e+2, -111490.07, -216980.11, 42.98039, 0.0016485587, -0.00013239191, -111490.055, -54350.855, 0.0, 10.016526, 9.8787565 
6.6964793e+3, 3.0407614e+2, -22475.877, -85284.055, 38.316666, 0.0016485145, 0.00028868928, -22475.854, -22475.854, 0.0, 10.016555, 9.933848 
6.696479e+3, 3.1401178e+2, -21424.453, -83158.36, 11.268622, 0.0016495937, 0.000043115833, -21424.451, -21424.451, 0.0, 10.016582, 9.93527 
6.706523e+3, 1.2527743e+2, -1699496.0, -1721334.4, 25.4825, 0.0016526539, 0.00021680135, -1699496.0, 12786.634, 0.0, 10.016322, 9.987361 
6.7065203e+3, 1.3526464e+2, -1602164.8, -1624616.9, 6.9778986, 0.0016531533, 0.000039844614, -1602164.8, 12243.2, 0.0, 10.016349, 9.986576 
6.7065185e+3, 1.4524524e+2, -1514198.9, -1545600.8, 54.46112, 0.001653722, 0.0003006918, -1514198.8, 2399.1594, 0.0, 10.016375, 9.974767 
6.706517e+3, 1.5521999e+2, -1416518.5, -1448344.1, 34.109577, 0.0016541491, 0.000108303226, -1416518.4, 2327.065, 0.0, 10.016401, 9.974236 
6.7065144e+3, 1.651881e+2, -1328508.5, -1369573.3, 75.57569, 0.0016543721, 0.00018903342, -1328508.4, -7350.481, 0.0, 10.016429, 9.962128 
6.706513e+3, 1.7515029e+2, -1230594.0, -1271996.4, 54.13509, 0.0016544594, 0.000085946886, -1230594.0, -7065.5103, 0.0, 10.0164585, 9.961716 
6.7065114e+3, 1.851058e+2, -1142552.9, -1193507.0, 90.349754, 0.0016547746, 0.00022931739, -1142552.8, -16588.508, 0.0, 10.016487, 9.949252 
6.7065096e+3, 1.950551e+2, -1044448.75, -1095688.1, 67.40503, 0.0016552641, 0.00009363136, -1044448.7, -15987.408, 0.0, 10.016517, 9.948908 
6.7065084e+3, 2.0499757e+2, -956522.8, -1017780.7, 94.05441, 0.0016555316, 0.00021364877, -956522.6, -25497.738, 0.0, 10.016546, 9.935874 
6.7065066e+3, 2.1493348e+2, -858279.44, -919823.94, 72.16774, 0.0016555692, 0.000019604584, -858279.4, -24626.41, 0.0, 10.016576, 9.935532 
6.7065054e+3, 2.2486262e+2, -770135.25, -841870.2, 93.3838, 0.0016558195, 0.0002647229, -770135.1, -33787.688, 0.0, 10.016607, 9.922329 
6.7065036e+3, 2.34785e+2, -671743.06, -743759.7, 69.30717, 0.0016562653, 0.00004865554, -671743.0, -32635.014, 0.0, 10.016639, 9.921995 
6.706503e+3, 2.447004e+2, -583502.7, -666012.8, 89.208435, 0.001656509, 0.00020802302, -583502.56, -41565.527, 0.0, 10.01667, 9.908464 
6.706501e+3, 2.54609e+2, -484794.38, -567407.75, 64.76449, 0.0016565094, 0.000024924095, -484794.3, -39961.387, 0.0, 10.016701, 9.908361 
6.7065006e+3, 2.6451042e+2, -396660.47, -490294.6, 78.1329, 0.0016567077, 0.00026815606, -396660.4, -48861.598, 0.0, 10.016732, 9.894172 
6.706499e+3, 2.7440512e+2, -297420.4, -390756.3, 53.604366, 0.0016571187, -0.0000828555, -297420.38, -46589.758, 0.0, 10.016765, 9.894585 
6.706498e+3, 2.8429174e+2, -210767.58, -317141.16, 59.10209, 0.001657338, 0.00034683797, -210767.55, -56825.67, 0.0, 10.016797, 9.87789 
6.706497e+3, 2.9417068e+2, -111093.87, -216864.66, 33.916527, 0.0016572867, -0.00013313795, -111093.86, -53965.805, 0.0, 10.016829, 9.878687 
6.706496e+3, 3.040772e+2, -22083.53, -85178.836, 29.058195, 0.0016574182, 0.00028787093, -22083.516, -22083.516, 0.0, 10.01686, 9.933773 
6.706495e+3, 3.1401277e+2, -21026.133, -83050.93, 2.676831, 0.0016578054, 0.00004358248, -21026.133, -21026.133, 0.0, 10.0168915, 9.935194 
6.716539e+3, 1.2527959e+2, -1699541.4, -1721419.3, 32.857067, 0.0016611149, 0.00021736074, -1699541.3, 12720.165, 0.0, 10.016322, 9.987309 
6.716537e+3, 1.3526675e+2, -1602209.8, -1624701.5, 14.360226, 0.00166105, 0.000039009068, -1602209.8, 12177.5, 0.0, 10.016349, 9.986525 
6.716535e+3, 1.452473e+2, -1514246.5, -1545691.0, 61.804695, 0.0016615695, 0.00029966162, -1514246.4, 2331.4153, 0.0, 10.016376, 9.97471 
6.7165333e+3, 1.5522198e+2, -1416565.0, -1448433.5, 41.54157, 0.0016624074, 0.00010814746, -1416564.9, 2260.9722, 0.0, 10.016402, 9.974179 
6.7165315e+3, 1.6519004e+2, -1328555.9, -1369665.1, 83.98991, 0.0016628411, 0.00018908452, -1328555.6, -7416.8374, 0.0, 10.01643, 9.96207 
6.716529e+3, 1.7515218e+2, -1230641.0, -1272087.8, 62.541492, 0.0016629585, 0.000085591164, -1230640.9, -7130.893, 0.0, 10.0164585, 9.961658 
6.716528e+3, 1.8510763e+2, -1142601.8, -1193602.6, 98.851875, 0.0016630363, 0.00022887025, -1142601.5, -16655.174, 0.0, 10.016488, 9.949191 
6.716526e+3, 1.9505686e+2, -1044496.75, -1095783.1, 75.99635, 0.0016630336, 0.0000933905, -1044496.6, -16052.63, 0.0, 10.016517, 9.948848 
6.716525e+3, 2.0499928e+2, -956568.0, -1017871.1, 103.047615, 0.0016635864, 0.00021336047, -956567.8, -25559.615, 0.0, 10.016547, 9.935817 
6.716523e+3, 2.1493514e+2, -858323.94, -919913.7, 81.146904, 0.0016646766, 0.000019020146, -858323.8, -24686.984, 0.0, 10.016577, 9.935473 
6.716522e+3, 2.2486421e+2, -770184.5, -841970.06, 103.012695, 0.0016647406, 0.00026443825, -770184.3, -33852.457, 0.0, 10.016608, 9.922265 
6.716521e+3, 2.3478653e+2, -671791.9, -743859.1, 78.974625, 0.0016637109, 0.000049288352, -671791.75, -32698.684, 0.0, 10.01664, 9.921931 
6.7165196e+3, 2.4470186e+2, -583552.6, -666115.44, 98.56308, 0.0016640197, 0.00020816825, -583552.5, -41629.695, 0.0, 10.016671, 9.908398 
6.716518e+3, 2.5461036e+2, -484843.28, -567509.6, 74.19481, 0.0016657868, 0.000023026709, -484843.2, -40023.86, 0.0, 10.016702, 9.908294 
6.716517e+3, 2.6451176e+2, -396709.66, -490397.94, 88.31881, 0.0016661603, 0.00026681207, -396709.56, -48923.688, 0.0, 10.016734, 9.894104 
6.716516e+3, 2.744064e+2, -297469.1, -390859.16, 63.737095, 0.0016648571, -0.0000805624, -297469.06, -46650.742, 0.0, 10.016767, 9.894516 
6.716515e+3, 2.8429294e+2, -210817.19, -317246.72, 68.78858, 0.0016647814, 0.00034884643, -210817.14, -56886.89, 0.0, 10.016798, 9.87782 
6.7165136e+3, 2.941718e+2, -111142.52, -216969.55, 43.814754, 0.0016662624, -0.00013647071, -111142.51, -54025.344, 0.0, 10.0168295, 9.878616 
6.7165124e+3, 3.0407825e+2, -22134.14, -85288.62, 39.17689, 0.0016667537, 0.00028428907, -22134.115, -22134.115, 0.0, 10.016861, 9.933698 
6.716512e+3, 3.1401372e+2, -21076.818, -83161.23, 12.553447, 0.0016658421, 0.000046948786, -21076.814, -21076.814, 0.0, 10.016893, 9.935119 
6.726555e+3, 1.2528172e+2, -1699189.5, -1721291.6, 25.542234, 0.0016688386, 0.00021672797, -1699189.4, 13051.183, 0.0, 10.016567, 9.987256 
6.7265534e+3, 1.352688e+2, -1601855.4, -1624573.4, 6.6200495, 0.0016695074, 0.000038935366, -1601855.4, 12511.543, 0.0, 10.016597, 9.986471 
6.726551e+3, 1.452493e+2, -1513889.8, -1545566.1, 54.350025, 0.0016700937, 0.00029958397, -1513889.8, 2668.3125, 0.0, 10.016627, 9.974655 
6.726549e+3, 1.5522394e+2, -1416202.0, -1448306.1, 33.94239, 0.0016703916, 0.00010756008, -1416202.0, 2604.7058, 0.0, 10.016659, 9.974124 
6.726548e+3, 1.6519195e+2, -1328190.4, -1369540.1, 76.22532, 0.0016707305, 0.00018846753, -1328190.3, -7070.104, 0.0, 10.01669, 9.962012 
6.7265457e+3, 1.7515402e+2, -1230273.6, -1271962.8, 54.203365, 0.0016711628, 0.00008538971, -1230273.5, -6781.6123, 0.0, 10.016722, 9.961599 
6.7265445e+3, 1.8510942e+2, -1142232.4, -1193479.5, 90.561104, 0.0016714241, 0.0002287366, -1142232.1, -16303.326, 0.0, 10.016754, 9.949131 
6.726543e+3, 1.9505858e+2, -1044123.5, -1095659.0, 67.63387, 0.0016714783, 0.00009299246, -1044123.4, -15696.339, 0.0, 10.016788, 9.948788 
6.7265415e+3, 2.0500095e+2, -956189.2, -1017743.06, 94.62328, 0.0016718755, 0.00021294814, -956189.06, -25197.207, 0.0, 10.016821, 9.935758 
6.7265403e+3, 2.1493673e+2, -857941.9, -919784.94, 72.18678, 0.0016726004, 0.000018842673, -857941.8, -24320.75, 0.0, 10.016854, 9.935415 
6.7265385e+3, 2.2486575e+2, -769804.2, -841850.25, 93.966, 0.0016728177, 0.00026426747, -769804.06, -33487.348, 0.0, 10.016889, 9.9222 
6.7265373e+3, 2.3478802e+2, -671409.9, -743739.6, 69.649124, 0.00167248, 0.000048888778, -671409.8, -32331.268, 0.0, 10.016923, 9.921866 
6.726536e+3, 2.4470328e+2, -583168.2, -665997.56, 89.21206, 0.0016727484, 0.00020776196, -583168.06, -41259.184, 0.0, 10.016957, 9.908331 
6.726535e+3, 2.5461173e+2, -484454.25, -567390.56, 64.86639, 0.0016736661, 0.000022859625, -484454.22, -39648.12, 0.0, 10.016993, 9.908228 
6.726534e+3, 2.6451305e+2, -396319.0, -490282.4, 78.71731, 0.0016739889, 0.00026672598, -396318.94, -48545.633, 0.0, 10.017028, 9.894034 
6.7265326e+3, 2.744076e+2, -297077.1, -390744.22, 53.21009, 0.0016735807, -0.00008075117, -297077.06, -46270.637, 0.0, 10.017063, 9.894446 
6.726532e+3, 2.8429407e+2, -210420.47, -317128.84, 58.082207, 0.0016736928, 0.0003486016, -210420.44, -56501.4, 0.0, 10.017098, 9.877751 
6.726531e+3, 2.9417288e+2, -110741.25, -216850.5, 33.983437, 0.001674451, -0.0001367166, -110741.234, -53634.63, 0.0, 10.017135, 9.878549 
6.7265296e+3, 3.0407926e+2, -21737.209, -85183.92, 29.383385, 0.0016747649, 0.0002840756, -21737.195, -21737.195, 0.0, 10.017171, 9.9336195 
6.726529e+3, 3.1401464e+2, -20674.238, -83054.86, 0.8702026, 0.0016744452, 0.000046839403, -20674.238, -20674.238, 0.0, 10.017207, 9.9350395 
6.736572e+3, 1.2528382e+2, -1699236.5, -1721378.8, 33.714653, 0.0016761941, 0.00021542203, -1699236.4, 12983.555, 0.0, 10.016567, 9.987203 
6.73657e+3, 1.3527088e+2, -1601901.4, -1624659.8, 14.850497, 0.0016782884, 0.00003925012, -1601901.4, 12445.417, 0.0, 10.016597, 9.986418 
6.7365676e+3, 1.4525132e+2, -1513937.8, -1545656.8, 63.552773, 0.0016790044, 0.00030000848, -1513937.6, 2600.8608, 0.0, 10.016627, 9.974599 
6.7365664e+3, 1.5522589e+2, -1416249.5, -1448396.5, 43.147808, 0.0016782602, 0.00010671663, -1416249.5, 2538.1719, 0.0, 10.016659, 9.974068 
6.7365646e+3, 1.6519383e+2, -1328239.9, -1369635.0, 85.311966, 0.001678338, 0.00018746541, -1328239.8, -7138.0215, 0.0, 10.016691, 9.961953 
6.736563e+3, 1.7515583e+2, -1230322.1, -1272056.8, 63.3814, 0.0016792304, 0.000085249274, -1230322.0, -6847.9795, 0.0, 10.016723, 9.96154 
6.736561e+3, 1.851112e+2, -1142281.4, -1193575.3, 100.37265, 0.0016799038, 0.00022875074, -1142281.1, -16369.579, 0.0, 10.016755, 9.94907 
6.73656e+3, 1.9506028e+2, -1044171.94, -1095754.1, 77.44473, 0.0016803251, 0.0000924905, -1044171.8, -15761.448, 0.0, 10.016788, 9.948727 
6.736558e+3, 2.0500259e+2, -956236.2, -1017835.94, 104.708725, 0.0016803278, 0.00021245278, -956236.0, -25260.26, 0.0, 10.016821, 9.9356985 
6.736557e+3, 2.1493833e+2, -857988.1, -919877.25, 82.32079, 0.0016799057, 0.00001887089, -857988.0, -24382.492, 0.0, 10.016855, 9.935356 
6.7365557e+3, 2.2486728e+2, -769854.44, -841951.4, 104.365326, 0.0016804627, 0.00026413775, -769854.3, -33552.543, 0.0, 10.016889, 9.922135 
6.736554e+3, 2.3478948e+2, -671459.44, -743840.1, 80.09202, 0.0016820068, 0.000047891263, -671459.4, -32395.1, 0.0, 10.016923, 9.921801 
6.7365533e+3, 2.4470466e+2, -583218.25, -666099.94, 100.13627, 0.001682178, 0.00020703231, -583218.1, -41322.895, 0.0, 10.016958, 9.908265 
6.736552e+3, 2.5461304e+2, -484503.7, -567492.3, 75.76754, 0.0016808123, 0.000023651162, -484503.63, -39710.523, 0.0, 10.0169935, 9.908161 
6.736551e+3, 2.6451427e+2, -396370.8, -490389.88, 89.594894, 0.0016809617, 0.0002673294, -396370.72, -48609.76, 0.0, 10.017029, 9.893964 
6.73655e+3, 2.744088e+2, -297128.2, -390851.22, 64.29874, 0.0016828827, -0.000082362465, -297128.16, -46333.348, 0.0, 10.017064, 9.894376 
6.7365485e+3, 2.842952e+2, -210468.63, -317230.8, 69.55516, 0.0016834459, 0.00034706914, -210468.58, -56560.484, 0.0, 10.017099, 9.877684 
6.736548e+3, 2.9417396e+2, -110788.36, -216951.34, 45.235912, 0.0016822391, -0.00013522846, -110788.336, -53692.03, 0.0, 10.017136, 9.878481 
6.736547e+3, 3.0408022e+2, -21791.898, -85301.09, 40.741722, 0.0016820851, 0.00028575517, -21791.873, -21791.873, 0.0, 10.017172, 9.93354 
6.736546e+3, 3.1401557e+2, -20729.787, -83173.76, 12.686577, 0.0016834097, 0.000044739998, -20729.785, -20729.785, 0.0, 10.017208, 9.934958 
6.746589e+3, 1.252859e+2, -1698883.8, -1721251.8, 24.87609, 0.0016846781, 0.00021514326, -1698883.8, 13315.925, 0.0, 10.016813, 9.987149 
6.746587e+3, 1.3527289e+2, -1601542.1, -1624530.1, 5.6432543, 0.0016860394, 0.000038704486, -1601542.1, 12784.992, 0.0, 10.016849, 9.986364 
6.746585e+3, 1.4525329e+2, -1513576.1, -1545530.4, 54.130226, 0.0016867303, 0.00029947338, -1513576.0, 2943.2322, 0.0, 10.016883, 9.974542 
6.746583e+3, 1.5522778e+2, -1415885.5, -1448269.8, 33.188847, 0.0016865915, 0.000106443695, -1415885.4, 2883.5781, 0.0, 10.016917, 9.97401 
6.746582e+3, 1.6519567e+2, -1327873.3, -1369510.3, 75.29224, 0.0016867804, 0.00018721046, -1327873.1, -6789.547, 0.0, 10.0169525, 9.961894 
6.7465794e+3, 1.7515762e+2, -1229950.5, -1271930.3, 53.241524, 0.0016873298, 0.00008479248, -1229950.5, -6493.957, 0.0, 10.016989, 9.961481 
6.746578e+3, 1.8511291e+2, -1141907.5, -1193451.0, 89.95669, 0.0016878893, 0.00022828959, -1141907.4, -16012.657, 0.0, 10.017025, 9.949009 
6.7465764e+3, 1.9506195e+2, -1043795.8, -1095629.6, 66.43526, 0.0016884111, 0.000092208815, -1043795.75, -15401.695, 0.0, 10.01706, 9.948666 
6.746575e+3, 2.050042e+2, -955855.25, -1017707.6, 93.68366, 0.0016885775, 0.00021221151, -955855.06, -24895.057, 0.0, 10.0170965, 9.935639 
6.7465734e+3, 2.1493986e+2, -857604.06, -919748.4, 71.079636, 0.0016883818, 0.000018535586, -857603.94, -24013.576, 0.0, 10.017134, 9.935296 
6.746573e+3, 2.2486876e+2, -769471.4, -841830.75, 93.04296, 0.0016888345, 0.0002637523, -769471.25, -33183.992, 0.0, 10.017172, 9.92207 
6.746571e+3, 2.3479088e+2, -671073.44, -743719.1, 68.52828, 0.0016899321, 0.00004750272, -671073.4, -32022.967, 0.0, 10.017209, 9.921736 
6.7465705e+3, 2.4470602e+2, -582830.44, -665981.44, 88.49243, 0.0016901736, 0.00020674667, -582830.4, -40948.336, 0.0, 10.017247, 9.908197 
6.746569e+3, 2.5461432e+2, -484113.38, -567373.75, 63.49359, 0.0016894487, 0.000023586428, -484113.34, -39332.797, 0.0, 10.017285, 9.908093 
6.746568e+3, 2.645155e+2, -395977.94, -490272.53, 77.26842, 0.0016896619, 0.00026717276, -395977.88, -48228.8, 0.0, 10.017324, 9.893895 
6.746567e+3, 2.7440995e+2, -296732.13, -390733.5, 52.70388, 0.0016909617, -0.00008297731, -296732.1, -45948.51, 0.0, 10.017364, 9.894307 
6.746566e+3, 2.8429627e+2, -210069.23, -317114.13, 57.988724, 0.0016913621, 0.00034654237, -210069.2, -56171.64, 0.0, 10.017403, 9.877613 
6.7465657e+3, 2.9417494e+2, -110385.14, -216834.08, 31.883284, 0.0016905816, -0.00013496983, -110385.13, -53298.668, 0.0, 10.017444, 9.87841 
6.7465645e+3, 3.0408114e+2, -21390.85, -85192.34, 27.32937, 0.0016906777, 0.00028602217, -21390.838, -21390.838, 0.0, 10.017484, 9.933464 
6.7465633e+3, 3.1401643e+2, -20323.893, -83063.26, 1.2962635, 0.0016920004, 0.000043947304, -20323.893, -20323.893, 0.0, 10.017524, 9.934882 
6.7566055e+3, 1.2528792e+2, -1698931.9, -1721340.5, 34.885345, 0.0016937875, 0.00021540081, -1698931.9, 13247.8545, 0.0, 10.016812, 9.987095 
6.756604e+3, 1.3527487e+2, -1601589.6, -1624618.5, 15.711541, 0.0016932646, 0.000037661095, -1601589.6, 12717.965, 0.0, 10.016848, 9.98631 
6.7566013e+3, 1.4525521e+2, -1513625.9, -1545623.9, 64.13718, 0.0016938477, 0.00029839532, -1513625.8, 2874.5115, 0.0, 10.016883, 9.974484 
6.7566e+3, 1.5522966e+2, -1415934.4, -1448362.4, 43.26099, 0.0016951953, 0.00010645319, -1415934.3, 2816.3113, 0.0, 10.016917, 9.973953 
6.7565984e+3, 1.6519749e+2, -1327923.1, -1369605.4, 85.940254, 0.0016956958, 0.00018733658, -1327922.9, -6857.129, 0.0, 10.0169525, 9.961834 
6.7565966e+3, 1.7515938e+2, -1229999.9, -1272024.9, 63.897415, 0.0016954815, 0.00008414416, -1229999.8, -6560.4746, 0.0, 10.016989, 9.961421 
6.7565954e+3, 1.851146e+2, -1141958.5, -1193549.6, 100.5339, 0.0016956419, 0.00022754981, -1141958.3, -16080.251, 0.0, 10.017025, 9.948947 
6.7565936e+3, 1.9506358e+2, -1043845.94, -1095727.5, 77.089874, 0.0016961092, 0.00009202277, -1043845.8, -15467.787, 0.0, 10.01706, 9.948604 
6.7565924e+3, 2.0500576e+2, -955902.9, -1017801.44, 104.92062, 0.0016967434, 0.00021208255, -955902.75, -24958.12, 0.0, 10.017097, 9.935579 
6.7565906e+3, 2.149414e+2, -857651.25, -919841.6, 82.318855, 0.0016975296, 0.000017975883, -857651.1, -24075.572, 0.0, 10.017135, 9.935237 
6.75659e+3, 2.248702e+2, -769522.75, -841933.0, 104.498215, 0.0016976381, 0.00026320905, -769522.56, -33249.547, 0.0, 10.017172, 9.922004 
6.756589e+3, 2.3479226e+2, -671123.94, -743820.7, 80.00396, 0.001697013, 0.000047438145, -671123.8, -32087.027, 0.0, 10.017209, 9.92167 
6.7565876e+3, 2.4470733e+2, -582882.4, -666086.6, 100.41207, 0.0016974182, 0.00020668817, -582882.25, -41013.164, 0.0, 10.017247, 9.908129 
6.7565864e+3, 2.5461558e+2, -484164.78, -567478.44, 75.55161, 0.0016989362, 0.000023010729, -484164.72, -39396.434, 0.0, 10.017286, 9.908025 
6.756585e+3, 2.6451668e+2, -396028.78, -490376.94, 89.45484, 0.0016993418, 0.0002665671, -396028.7, -48291.188, 0.0, 10.017325, 9.8938265 
6.7565846e+3, 2.7441105e+2, -296781.94, -390837.06, 64.74504, 0.0016984041, -0.0000830331, -296781.9, -46009.23, 0.0, 10.017364, 9.894238 
6.7565835e+3, 2.842973e+2, -210121.45, -317223.53, 70.67602, 0.0016983093, 0.00034657723, -210121.4, -56234.08, 0.0, 10.017404, 9.877541 
6.756582e+3, 2.941759e+2, -110437.0, -216943.28, 44.9738, 0.0016992749, -0.00013544668, -110436.984, -53360.03, 0.0, 10.017444, 9.878338 
6.756582e+3, 3.0408207e+2, -21442.627, -85301.97, 40.27853, 0.0017000128, 0.00028545503, -21442.602, -21442.602, 0.0, 10.017484, 9.93339 
6.756581e+3, 3.1401724e+2, -20375.209, -83172.8, 13.871794, 0.0017004131, 0.000043904583, -20375.205, -20375.205, 0.0, 10.017525, 9.934807 
6.7666227e+3, 1.2528993e+2, -1698575.1, -1721212.3, 23.989765, 0.0017014573, 0.00021475228, -1698575.1, 13585.014, 0.0, 10.017062, 9.9870405 
6.766621e+3, 1.3527682e+2, -1601228.5, -1624488.9, 4.5217476, 0.0017016267, 0.000037365175, -1601228.5, 13059.971, 0.0, 10.0171, 9.986256 
6.7666185e+3, 1.452571e+2, -1513262.5, -1545497.6, 52.681297, 0.0017022409, 0.00029810786, -1513262.4, 3219.4429, 0.0, 10.017139, 9.974426 
6.7666173e+3, 1.5523149e+2, -1415565.6, -1448234.4, 31.456001, 0.0017030194, 0.00010586892, -1415565.6, 3167.087, 0.0, 10.0171795, 9.973895 
6.7666155e+3, 1.6519926e+2, -1327551.9, -1369479.3, 73.71448, 0.0017034836, 0.00018677316, -1327551.8, -6503.2554, 0.0, 10.017218, 9.961774 
6.766614e+3, 1.751611e+2, -1229626.1, -1271898.5, 51.110027, 0.0017037214, 0.00008389689, -1229626.1, -6203.5933, 0.0, 10.017257, 9.961361 
6.7666125e+3, 1.8511626e+2, -1141582.6, -1193425.3, 87.48102, 0.0017039902, 0.00022732305, -1141582.5, -15720.641, 0.0, 10.017296, 9.948885 
6.766611e+3, 1.9506517e+2, -1043466.2, -1095602.1, 63.817524, 0.0017042388, 0.00009153434, -1043466.1, -15103.627, 0.0, 10.017336, 9.948542 
6.7666095e+3, 2.050073e+2, -955518.25, -1017672.3, 91.39809, 0.0017047812, 0.00021153924, -955518.1, -24588.49, 0.0, 10.017376, 9.935519 
6.7666084e+3, 2.1494286e+2, -857264.9, -919712.7, 68.306206, 0.0017056005, 0.000017583534, -857264.8, -23703.64, 0.0, 10.017415, 9.935177 
6.766607e+3, 2.248716e+2, -769137.6, -841812.2, 90.54866, 0.0017058138, 0.00026296297, -769137.5, -32878.23, 0.0, 10.017456, 9.921938 
6.766606e+3, 2.347936e+2, -670735.25, -743699.2, 65.68572, 0.0017053685, 0.00004733543, -670735.2, -31711.51, 0.0, 10.017497, 9.921604 
6.766605e+3, 2.447086e+2, -582491.44, -665966.56, 85.98839, 0.0017057641, 0.00020642894, -582491.4, -40634.703, 0.0, 10.017539, 9.908062 
6.766604e+3, 2.546168e+2, -483772.13, -567358.6, 61.36506, 0.001707064, 0.000022265474, -483772.06, -39015.57, 0.0, 10.01758, 9.907957 
6.766603e+3, 2.645178e+2, -395634.53, -490260.44, 75.34413, 0.0017074305, 0.00026597886, -395634.47, -47908.09, 0.0, 10.017622, 9.893756 
6.766602e+3, 2.744121e+2, -296383.6, -390719.8, 49.439976, 0.001706663, -0.0000826985, -296383.56, -45621.313, 0.0, 10.017666, 9.894168 
6.766601e+3, 2.842983e+2, -209718.28, -317103.8, 55.38985, 0.0017067026, 0.0003468403, -209718.25, -55840.66, 0.0, 10.017709, 9.877472 
6.7666e+3, 2.9417682e+2, -110031.8, -216823.69, 31.155752, 0.0017077554, -0.00013653576, -110031.79, -52963.883, 0.0, 10.017752, 9.878268 
6.7665994e+3, 3.0408293e+2, -21041.432, -85195.19, 27.18909, 0.0017083883, 0.00028436558, -21041.42, -21041.42, 0.0, 10.0177965, 9.933311 
6.766599e+3, 3.14018e+2, -19966.041, -83063.07, -1.4265125, 0.001708412, 0.000044742625, -19966.041, -19966.041, 0.0, 10.017842, 9.934729 
6.77664e+3, 1.252919e+2, -1698624.3, -1721302.4, 35.335377, 0.001708382, 0.00021359384, -1698624.1, 13516.649, 0.0, 10.017061, 9.986986 
6.7766374e+3, 1.3527873e+2, -1601277.0, -1624578.5, 15.867769, 0.0017106197, 0.000037434944, -1601277.0, 12992.775, 0.0, 10.0171, 9.9862 
6.7766356e+3, 1.4525896e+2, -1513313.4, -1545592.6, 64.23149, 0.0017113402, 0.00029822072, -1513313.3, 3150.3604, 0.0, 10.017139, 9.974368 
6.7766345e+3, 1.552333e+2, -1415615.9, -1448328.8, 43.046898, 0.0017104577, 0.000104940525, -1415615.9, 3099.209, 0.0, 10.017179, 9.973836 
6.7766327e+3, 1.6520101e+2, -1327603.5, -1369577.1, 85.172386, 0.0017106978, 0.00018581461, -1327603.4, -6571.938, 0.0, 10.017218, 9.961713 
6.776631e+3, 1.7516276e+2, -1229677.0, -1271995.6, 62.62557, 0.0017120322, 0.00008383549, -1229677.0, -6270.883, 0.0, 10.017257, 9.961301 
6.7766297e+3, 1.8511787e+2, -1141634.4, -1193524.6, 99.3669, 0.0017126829, 0.00022734163, -1141634.3, -15788.168, 0.0, 10.017296, 9.948822 
6.7766285e+3, 1.9506672e+2, -1043517.4, -1095700.9, 75.7349, 0.0017126385, 0.000090860034, -1043517.3, -15170.046, 0.0, 10.017336, 9.948479 
6.776627e+3, 2.0500879e+2, -955567.75, -1017768.44, 103.3134, 0.0017127881, 0.00021075345, -955567.56, -24652.533, 0.0, 10.017375, 9.935458 
6.776626e+3, 2.1494427e+2, -857313.44, -919808.06, 80.24962, 0.0017131147, 0.0000172597, -857313.3, -23766.172, 0.0, 10.017415, 9.935116 
6.7766243e+3, 2.2487299e+2, -769190.06, -841915.94, 103.28719, 0.0017136773, 0.00026285127, -769189.94, -32944.063, 0.0, 10.017456, 9.921871 
6.776624e+3, 2.347949e+2, -670787.4, -743802.56, 78.49496, 0.0017144517, 0.00004717536, -670787.3, -31776.367, 0.0, 10.017497, 9.921537 
6.7766225e+3, 2.4470983e+2, -582543.6, -666070.9, 98.700966, 0.0017147443, 0.00020603443, -582543.56, -40698.96, 0.0, 10.017538, 9.907994 
6.7766213e+3, 2.5461796e+2, -483823.22, -567462.06, 74.02798, 0.0017144814, 0.000021430627, -483823.13, -39078.07, 0.0, 10.01758, 9.90789 
6.776621e+3, 2.6451892e+2, -395688.25, -490370.03, 88.92391, 0.0017146848, 0.000265396, -395688.16, -47972.52, 0.0, 10.017622, 9.893684 
6.7766196e+3, 2.7441314e+2, -296437.03, -390829.16, 63.292973, 0.0017154125, -0.0000822104, -296437.0, -45684.805, 0.0, 10.017666, 9.894096 
6.7766184e+3, 2.8429925e+2, -209768.61, -317207.56, 69.258194, 0.0017159273, 0.0003471761, -209768.56, -55900.34, 0.0, 10.017709, 9.877403 
6.7766184e+3, 2.9417774e+2, -110080.73, -216926.13, 44.7873, 0.001716145, -0.00013793171, -110080.71, -53021.504, 0.0, 10.017753, 9.878201 
6.776617e+3, 3.040837e+2, -21097.621, -85313.42, 41.814663, 0.0017162684, 0.00028302427, -21097.594, -21097.594, 0.0, 10.0177965, 9.933231 
6.7766166e+3, 3.1401873e+2, -20023.266, -83183.08, 13.716419, 0.0017162429, 0.000045983455, -20023.262, -20023.262, 0.0, 10.017843, 9.934648 
6.786657e+3, 1.2529382e+2, -1698264.4, -1721174.0, 22.968372, 0.0017165497, 0.00021315042, -1698264.3, 13857.697, 0.0, 10.017313, 9.98693 
6.7866546e+3, 1.352806e+2, -1600911.9, -1624448.3, 2.783911, 0.0017183189, 0.000036779424, -1600911.9, 13339.6455, 0.0, 10.017357, 9.986144 
6.7866534e+3, 1.4526075e+2, -1512945.8, -1545465.4, 50.528034, 0.001719088, 0.00029763064, -1512945.6, 3500.267, 0.0, 10.0174, 9.974309 
6.7866516e+3, 1.5523504e+2, -1415244.4, -1448200.4, 28.872765, 0.0017187108, 0.00010466937, -1415244.4, 3453.5996, 0.0, 10.017443, 9.973777 
6.78665e+3, 1.6520269e+2, -1327229.4, -1369450.8, 70.386734, 0.0017189786, 0.0001855248, -1327229.3, -6214.361, 0.0, 10.017486, 9.961652 
6.7866486e+3, 1.751644e+2, -1229299.0, -1271868.3, 47.449677, 0.0017199032, 0.0000832227, -1229298.9, -5908.766, 0.0, 10.017529, 9.961239 
6.786647e+3, 1.8511945e+2, -1141254.4, -1193399.3, 83.643974, 0.0017205385, 0.00022672178, -1141254.3, -15423.572, 0.0, 10.0175705, 9.948759 
6.786646e+3, 1.9506823e+2, -1043135.75, -1095575.6, 59.523586, 0.0017208483, 0.00009052803, -1043135.7, -14803.136, 0.0, 10.017612, 9.948416 
6.7866445e+3, 2.0501022e+2, -955181.3, -1017639.56, 86.97424, 0.0017210618, 0.00021051109, -955181.2, -24280.291, 0.0, 10.017655, 9.935397 
6.786643e+3, 2.1494566e+2, -856923.3, -919678.25, 63.529984, 0.0017211676, 0.0000169148, -856923.25, -23389.572, 0.0, 10.017699, 9.935054 
6.786642e+3, 2.248743e+2, -768801.1, -841793.6, 86.406715, 0.0017217022, 0.00026237272, -768801.06, -32568.033, 0.0, 10.017742, 9.921805 
6.786641e+3, 2.3479615e+2, -670397.9, -743681.06, 61.469063, 0.0017226489, 0.000046532947, -670397.8, -31399.082, 0.0, 10.017786, 9.921471 
6.78664e+3, 2.4471103e+2, -582152.4, -665951.5, 81.81627, 0.0017229613, 0.00020561629, -582152.25, -40319.266, 0.0, 10.01783, 9.907926 
6.786639e+3, 2.5461906e+2, -483427.4, -567341.6, 56.480213, 0.0017225504, 0.000021664975, -483427.38, -38693.21, 0.0, 10.017876, 9.907822 
6.786638e+3, 2.6451996e+2, -395290.0, -490250.97, 71.44104, 0.0017228095, 0.0002654111, -395289.94, -47584.52, 0.0, 10.017921, 9.893615 
6.786638e+3, 2.7441412e+2, -296038.06, -390710.94, 46.63151, 0.0017238319, -0.00008343998, -296038.03, -45295.363, 0.0, 10.017967, 9.894027 
6.786637e+3, 2.8430015e+2, -209366.55, -317090.0, 53.074543, 0.0017243075, 0.00034610767, -209366.53, -55507.137, 0.0, 10.018014, 9.877333 
6.786636e+3, 2.9417855e+2, -109673.1, -216807.08, 26.99751, 0.0017240569, -0.00013703988, -109673.1, -52622.047, 0.0, 10.018063, 9.87813 
6.7866355e+3, 3.0408448e+2, -20691.598, -85202.91, 24.527723, 0.0017242074, 0.00028398196, -20691.59, -20691.59, 0.0, 10.018112, 9.933155 
6.786635e+3, 3.140194e+2, -19612.957, -83071.1, -1.6774435, 0.0017249027, 0.000044372875, -19612.957, -19612.957, 0.0, 10.018161, 9.93457 
6.7966735e+3, 1.252957e+2, -1698315.6, -1721267.6, 35.725147, 0.0017253979, 0.00021306498, -1698315.6, 13787.88, 0.0, 10.017312, 9.986873 
6.7966723e+3, 1.3528243e+2, -1600962.4, -1624541.3, 15.624955, 0.0017253599, 0.000035701774, -1600962.4, 13271.246, 0.0, 10.017356, 9.986088 
6.7966706e+3, 1.4526252e+2, -1512998.0, -1545562.5, 63.292614, 0.0017261466, 0.00029663995, -1512997.9, 3430.6965, 0.0, 10.017399, 9.974249 
6.796669e+3, 1.5523675e+2, -1415296.0, -1448297.0, 41.664433, 0.0017274204, 0.000104712846, -1415296.0, 3385.1733, 0.0, 10.017442, 9.973718 
6.7966676e+3, 1.6520435e+2, -1327282.4, -1369550.4, 83.09234, 0.0017278502, 0.00018555822, -1327282.3, -6283.508, 0.0, 10.017485, 9.96159 
6.796666e+3, 1.7516598e+2, -1229351.4, -1271967.4, 60.195454, 0.0017275772, 0.00008229012, -1229351.3, -5976.6885, 0.0, 10.017528, 9.961178 
6.7966646e+3, 1.8512097e+2, -1141307.8, -1193500.9, 96.18328, 0.0017279832, 0.00022573634, -1141307.6, -15491.856, 0.0, 10.01757, 9.948695 
6.7966634e+3, 1.9506969e+2, -1043188.25, -1095676.5, 72.118004, 0.0017289778, 0.0000903506, -1043188.2, -14869.962, 0.0, 10.017612, 9.948352 
6.796662e+3, 2.0501162e+2, -955231.94, -1017737.4, 100.19915, 0.0017295022, 0.00021052879, -955231.8, -24344.604, 0.0, 10.017655, 9.935335 
6.796661e+3, 2.1494699e+2, -856973.56, -919775.6, 76.778305, 0.0017295505, 0.000016526426, -856973.5, -23452.953, 0.0, 10.017698, 9.934993 
6.7966604e+3, 2.2487557e+2, -768854.75, -841898.25, 99.559654, 0.0017298558, 0.00026167266, -768854.6, -32634.09, 0.0, 10.017742, 9.921739 
6.796659e+3, 2.3479736e+2, -670450.4, -743784.9, 74.637314, 0.0017303918, 0.000045617915, -670450.3, -31463.43, 0.0, 10.017785, 9.921404 
6.796658e+3, 2.4471216e+2, -582206.25, -666058.75, 96.06208, 0.0017307915, 0.00020516502, -582206.1, -40384.3, 0.0, 10.01783, 9.907857 
6.7966574e+3, 2.5462013e+2, -483481.13, -567448.5, 70.87207, 0.0017310154, 0.000022422422, -483481.06, -38757.4, 0.0, 10.017876, 9.907753 
6.796656e+3, 2.6452097e+2, -395343.13, -490357.4, 85.67186, 0.0017314478, 0.00026570846, -395343.06, -47647.457, 0.0, 10.017921, 9.893546 
6.796655e+3, 2.7441505e+2, -296089.94, -390816.4, 60.76783, 0.0017320975, -0.00008557539, -296089.9, -45356.37, 0.0, 10.017966, 9.893957 
6.796655e+3, 2.84301e+2, -209420.4, -317200.5, 68.628746, 0.0017322568, 0.00034429948, -209420.38, -55569.418, 0.0, 10.018014, 9.87726 
6.7966545e+3, 2.9417935e+2, -109726.74, -216917.36, 42.92214, 0.0017317651, -0.00013499435, -109726.73, -52683.418, 0.0, 10.018063, 9.878057 
6.796653e+3, 3.040852e+2, -20745.678, -85314.47, 40.580517, 0.001732236, 0.00028609886, -20745.652, -20745.652, 0.0, 10.018111, 9.93308 
6.7966527e+3, 3.1402004e+2, -19666.766, -83182.72, 14.199841, 0.0017340317, 0.00004126452, -19666.762, -19666.762, 0.0, 10.018161, 9.934495 
6.806691e+3, 1.2529753e+2, -1697952.0, -1721138.6, 21.160131, 0.0017331347, 0.0002125406, -1697952.0, 14133.544, 0.0, 10.017567, 9.986815 
6.80669e+3, 1.352842e+2, -1600592.5, -1624409.9, 0.6965834, 0.0017334467, 0.000035251145, -1600592.5, 13623.723, 0.0, 10.017615, 9.986031 
6.806688e+3, 1.4526424e+2, -1512625.5, -1545434.4, 47.295063, 0.0017342367, 0.00029615153, -1512625.5, 3786.2673, 0.0, 10.017663, 9.974189 
6.8066865e+3, 1.552384e+2, -1414920.0, -1448167.9, 25.047604, 0.0017351961, 0.000104092716, -1414920.0, 3744.9172, 0.0, 10.01771, 9.973657 
6.8066853e+3, 1.6520593e+2, -1326904.3, -1369423.4, 65.650955, 0.0017356718, 0.00018496565, -1326904.1, -5921.062, 0.0, 10.0177555, 9.961528 
6.8066835e+3, 1.7516752e+2, -1228970.5, -1271839.8, 42.253754, 0.0017357728, 0.000081875485, -1228970.4, -5610.841, 0.0, 10.017801, 9.961115 
6.8066823e+3, 1.8512243e+2, -1140924.8, -1193375.0, 77.563675, 0.0017361634, 0.00022536647, -1140924.6, -15123.242, 0.0, 10.017847, 9.948631 
6.806681e+3, 1.9507109e+2, -1042802.0, -1095550.0, 53.07455, 0.0017367728, 0.00008989671, -1042801.94, -14497.522, 0.0, 10.017893, 9.948288 
6.80668e+3, 2.0501298e+2, -954841.9, -1017607.7, 80.76356, 0.0017373407, 0.00021002325, -954841.75, -23967.691, 0.0, 10.017938, 9.935273 
6.806679e+3, 2.1494827e+2, -856583.0, -919646.75, 56.907715, 0.0017378541, 0.000016003742, -856583.0, -23074.957, 0.0, 10.017983, 9.93493 
6.8066776e+3, 2.2487679e+2, -768465.06, -841776.4, 79.75246, 0.0017381678, 0.00026127373, -768465.0, -32256.375, 0.0, 10.018029, 9.921672 
6.806677e+3, 2.347985e+2, -670056.75, -743662.06, 54.43725, 0.0017382414, 0.000045490564, -670056.7, -31081.025, 0.0, 10.018077, 9.921337 
6.806676e+3, 2.4471325e+2, -581810.94, -665937.5, 75.859955, 0.0017386405, 0.00020486009, -581810.8, -39999.574, 0.0, 10.018125, 9.907788 
6.806675e+3, 2.5462115e+2, -483086.1, -567328.56, 50.856953, 0.0017393711, 0.000021446496, -483086.06, -38372.285, 0.0, 10.018171, 9.907684 
6.8066746e+3, 2.6452187e+2, -394946.53, -490239.78, 66.090744, 0.0017398361, 0.00026498485, -394946.47, -47260.094, 0.0, 10.01822, 9.893476 
6.806674e+3, 2.744159e+2, -295688.28, -390697.47, 40.411167, 0.0017399549, -0.00008495019, -295688.25, -44963.258, 0.0, 10.0182705, 9.893887 
6.806673e+3, 2.8430182e+2, -209014.52, -317080.6, 48.74129, 0.0017401123, 0.00034479675, -209014.5, -55171.395, 0.0, 10.018321, 9.87719 
6.806672e+3, 2.941801e+2, -109319.62, -216798.1, 24.063248, 0.0017402965, -0.0001365214, -109319.61, -52283.445, 0.0, 10.018373, 9.877986 
6.8066716e+3, 3.0408585e+2, -20341.688, -85205.15, 22.984333, 0.001740816, 0.00028449646, -20341.68, -20341.68, 0.0, 10.018425, 9.933002 
6.8066716e+3, 3.1402063e+2, -19255.156, -83070.375, -4.51459, 0.0017417762, 0.000042354295, -19255.156, -19255.156, 0.0, 10.01848, 9.934418 
6.816709e+3, 1.2529932e+2, -1698004.1, -1721233.6, 35.776844, 0.0017403087, 0.00021175167, -1698004.1, 14063.886, 0.0, 10.017566, 9.986758 
6.816707e+3, 1.3528593e+2, -1600644.3, -1624504.5, 15.285568, 0.0017421107, 0.000035089975, -1600644.3, 13554.916, 0.0, 10.017614, 9.985972 
6.8167055e+3, 1.4526592e+2, -1512679.9, -1545534.5, 61.133068, 0.0017428977, 0.00029590176, -1512679.8, 3715.5125, 0.0, 10.017662, 9.974127 
6.816704e+3, 1.5524001e+2, -1414973.5, -1448267.3, 38.95071, 0.0017425118, 0.000103088656, -1414973.5, 3675.623, 0.0, 10.017709, 9.973596 
6.8167025e+3, 1.6520749e+2, -1326958.6, -1369525.1, 79.31236, 0.0017429679, 0.00018400993, -1326958.5, -5990.663, 0.0, 10.017755, 9.961465 
6.816702e+3, 1.75169e+2, -1229024.3, -1271941.0, 55.942173, 0.0017442663, 0.00008170252, -1229024.3, -5679.2563, 0.0, 10.0178, 9.961052 
6.8167e+3, 1.8512386e+2, -1140979.5, -1193478.6, 91.19636, 0.0017447575, 0.00022528834, -1140979.4, -15191.975, 0.0, 10.017846, 9.948566 
6.8166995e+3, 1.9507244e+2, -1042856.3, -1095653.0, 66.77072, 0.0017444347, 0.00008926366, -1042856.2, -14565.093, 0.0, 10.017892, 9.948223 
6.816698e+3, 2.0501427e+2, -954894.2, -1017707.56, 94.36183, 0.0017449023, 0.00020921155, -954894.0, -24032.67, 0.0, 10.017937, 9.93521 
6.8166965e+3, 2.149495e+2, -856634.44, -919745.9, 70.515465, 0.0017461301, 0.000015384105, -856634.4, -23138.451, 0.0, 10.0179825, 9.934867 
6.816696e+3, 2.2487794e+2, -768519.9, -841882.6, 94.319466, 0.0017465822, 0.000261006, -768519.75, -32322.596, 0.0, 10.018028, 9.921604 
6.816695e+3, 2.3479961e+2, -670111.3, -743767.94, 69.073944, 0.0017461957, 0.00004573873, -670111.25, -31146.377, 0.0, 10.018076, 9.921269 
6.816694e+3, 2.4471428e+2, -581865.56, -666044.2, 90.34037, 0.0017465489, 0.00020459988, -581865.44, -40064.29, 0.0, 10.018123, 9.907721 
6.8166935e+3, 2.546221e+2, -483139.56, -567434.4, 65.346855, 0.0017476872, 0.000019548841, -483139.53, -38435.18, 0.0, 10.01817, 9.907616 
6.8166924e+3, 2.645228e+2, -395001.6, -490349.63, 82.00013, 0.0017481071, 0.00026371254, -395001.53, -47323.918, 0.0, 10.018219, 9.893404 
6.816692e+3, 2.7441674e+2, -295743.16, -390807.03, 56.516434, 0.0017476476, -0.0000829253, -295743.13, -45026.227, 0.0, 10.01827, 9.893816 
6.816691e+3, 2.843026e+2, -209067.83, -317187.5, 65.17454, 0.0017479742, 0.0003464592, -209067.8, -55232.08, 0.0, 10.01832, 9.87712 
6.816691e+3, 2.9418075e+2, -109371.75, -216903.92, 40.45889, 0.001749287, -0.0001399254, -109371.734, -52342.25, 0.0, 10.018372, 9.877917 
6.81669e+3, 3.0408645e+2, -20398.424, -85321.336, 40.69626, 0.0017497082, 0.00028094935, -20398.398, -20398.398, 0.0, 10.018424, 9.932925 
6.8166894e+3, 3.1402117e+2, -19312.396, -83187.67, 13.523754, 0.0017488429, 0.00004559768, -19312.393, -19312.393, 0.0, 10.018479, 9.934339 
6.826727e+3, 1.2530106e+2, -1697634.1, -1721103.4, 19.507774, 0.0017480958, 0.00021100744, -1697634.1, 14416.92, 0.0, 10.017826, 9.986699 
6.826725e+3, 1.3528761e+2, -1600270.5, -1624373.3, -1.9039594, 0.001749923, 0.0000345274, -1600270.5, 13912.227, 0.0, 10.017878, 9.985913 
6.826724e+3, 1.4526753e+2, -1512303.8, -1545405.9, 42.681873, 0.0017507959, 0.0002954128, -1512303.8, 4075.8113, 0.0, 10.017929, 9.974066 
6.826722e+3, 1.5524156e+2, -1414592.6, -1448137.1, 19.986164, 0.0017505416, 0.00010258339, -1414592.6, 4041.2737, 0.0, 10.01798, 9.973534 
6.826721e+3, 1.6520897e+2, -1326575.5, -1369397.1, 59.047184, 0.00175093, 0.00018348181, -1326575.4, -5622.126, 0.0, 10.01803, 9.961401 
6.826719e+3, 1.7517042e+2, -1228638.8, -1271812.8, 35.03823, 0.0017519775, 0.000081150894, -1228638.8, -5307.7505, 0.0, 10.018078, 9.960988 
6.8267184e+3, 1.8512522e+2, -1140592.6, -1193351.9, 69.427795, 0.0017525785, 0.00022474233, -1140592.5, -14818.458, 0.0, 10.0181265, 9.948502 
6.826717e+3, 1.9507374e+2, -1042468.1, -1095526.5, 44.585, 0.0017527019, 0.00008874691, -1042468.06, -14189.677, 0.0, 10.018174, 9.948158 
6.826716e+3, 2.0501548e+2, -954502.1, -1017578.3, 71.79021, 0.0017530981, 0.00020876438, -954502.06, -23652.775, 0.0, 10.018222, 9.935146 
6.826715e+3, 2.1495067e+2, -856239.7, -919616.25, 47.411934, 0.0017537486, 0.000015048985, -856239.6, -22755.16, 0.0, 10.0182705, 9.934804 
6.8267137e+3, 2.2487904e+2, -768126.56, -841759.44, 71.07346, 0.0017542638, 0.00026057358, -768126.5, -31940.107, 0.0, 10.018319, 9.921536 
6.826713e+3, 2.3480064e+2, -669718.5, -743646.1, 45.650974, 0.0017546038, 0.000044994416, -669718.5, -30763.762, 0.0, 10.018367, 9.921202 
6.8267125e+3, 2.4471524e+2, -581471.2, -665923.75, 67.22631, 0.0017549862, 0.00020403958, -581471.1, -39679.465, 0.0, 10.018417, 9.907652 
6.826711e+3, 2.54623e+2, -482741.2, -567313.0, 41.90488, 0.001755387, 0.000019717649, -482741.16, -38045.625, 0.0, 10.018468, 9.907547 
6.8267107e+3, 2.6452363e+2, -394601.5, -490230.28, 58.988335, 0.0017557554, 0.00026371362, -394601.47, -46931.977, 0.0, 10.01852, 9.893334 
6.8267107e+3, 2.744175e+2, -295343.13, -390688.94, 33.853554, 0.0017560514, -0.000084145206, -295343.13, -44633.63, 0.0, 10.018572, 9.893745 
6.82671e+3, 2.8430325e+2, -208664.94, -317069.22, 43.386467, 0.001756477, 0.0003453472, -208664.92, -54835.938, 0.0, 10.018625, 9.877049 
6.826709e+3, 2.9418138e+2, -108964.14, -216784.5, 18.082174, 0.0017570468, -0.00013923069, -108964.14, -51940.703, 0.0, 10.018682, 9.877847 
6.8267083e+3, 3.04087e+2, -19992.313, -85210.54, 19.785717, 0.0017573796, 0.00028175025, -19992.305, -19992.305, 0.0, 10.01874, 9.932848 
6.8267083e+3, 3.1402165e+2, -18900.3, -83074.6, -6.492501, 0.0017573438, 0.000044148626, -18900.3, -18900.3, 0.0, 10.018799, 9.934261 
6.8367445e+3, 1.2530275e+2, -1697689.1, -1721202.9, 35.142513, 0.0017562326, 0.00021026556, -1697689.1, 14345.342, 0.0, 10.017824, 9.986639 
6.8367434e+3, 1.3528924e+2, -1600324.5, -1624471.9, 13.812956, 0.0017573152, 0.00003370834, -1600324.5, 13842.252, 0.0, 10.017877, 9.985853 
6.8367416e+3, 1.4526911e+2, -1512359.3, -1545508.0, 58.002113, 0.001758317, 0.00029476374, -1512359.1, 4004.989, 0.0, 10.017928, 9.974003 
6.8367404e+3, 1.5524307e+2, -1414647.9, -1448238.9, 35.29518, 0.0017589695, 0.0001022998, -1414647.8, 3971.3606, 0.0, 10.017979, 9.973472 
6.8367386e+3, 1.6521043e+2, -1326632.1, -1369502.1, 73.514626, 0.0017592682, 0.00018314128, -1326632.0, -5692.8555, 0.0, 10.018028, 9.961336 
6.8367374e+3, 1.7517179e+2, -1228694.6, -1271917.0, 49.577682, 0.0017593205, 0.00008036772, -1228694.6, -5377.0996, 0.0, 10.018077, 9.960923 
6.836736e+3, 1.8512653e+2, -1140648.8, -1193457.3, 83.652626, 0.0017600303, 0.0002239177, -1140648.6, -14887.415, 0.0, 10.018125, 9.948436 
6.8367356e+3, 1.9507499e+2, -1042523.6, -1095631.3, 58.84104, 0.0017613022, 0.000088257344, -1042523.56, -14257.368, 0.0, 10.018172, 9.948092 
6.8367344e+3, 2.0501667e+2, -954556.2, -1017680.6, 86.42201, 0.0017616486, 0.00020847339, -954556.06, -23718.37, 0.0, 10.018221, 9.935082 
6.836733e+3, 2.149518e+2, -856293.3, -919718.06, 62.084717, 0.0017610716, 0.000014823316, -856293.25, -22819.748, 0.0, 10.018269, 9.934739 
6.8367326e+3, 2.248801e+2, -768182.7, -841866.7, 85.78126, 0.0017616096, 0.00026002177, -768182.56, -32006.49, 0.0, 10.018317, 9.921469 
6.8367314e+3, 2.3480162e+2, -669773.75, -743752.6, 60.394966, 0.0017632598, 0.000043710887, -669773.7, -30828.576, 0.0, 10.018366, 9.921134 
6.836731e+3, 2.4471615e+2, -581526.94, -666031.9, 83.14764, 0.0017637112, 0.00020329889, -581526.9, -39744.14, 0.0, 10.018415, 9.907582 
6.83673e+3, 2.5462386e+2, -482796.66, -567420.75, 57.91364, 0.0017628164, 0.000020916805, -482796.63, -38109.4, 0.0, 10.018466, 9.907478 
6.8367296e+3, 2.6452437e+2, -394657.3, -490339.2, 75.26762, 0.0017631334, 0.0002643393, -394657.25, -46995.36, 0.0, 10.0185175, 9.893264 
6.836729e+3, 2.7441818e+2, -295397.94, -390797.06, 50.206646, 0.0017648488, -0.000087064065, -295397.9, -44695.316, 0.0, 10.01857, 9.893675 
6.8367285e+3, 2.843039e+2, -208720.08, -317178.94, 61.41665, 0.0017653301, 0.0003427846, -208720.03, -54897.266, 0.0, 10.018623, 9.876978 
6.836728e+3, 2.9418194e+2, -109018.734, -216893.67, 36.296623, 0.0017642094, -0.0001364545, -109018.72, -52000.832, 0.0, 10.01868, 9.877775 
6.836727e+3, 3.040875e+2, -20048.922, -85324.15, 39.137505, 0.0017644692, 0.00028476314, -20048.898, -20048.898, 0.0, 10.018738, 9.932773 
6.836727e+3, 3.1402203e+2, -18957.27, -83188.8, 13.080287, 0.0017666273, 0.000040251125, -18957.268, -18957.268, 0.0, 10.018797, 9.934185 
6.846763e+3, 1.2530437e+2, -1697314.6, -1721072.1, 16.778656, 0.0017641706, 0.0002097874, -1697314.6, 14703.944, 0.0, 10.018087, 9.986578 
6.846761e+3, 1.352908e+2, -1599943.1, -1624338.5, -5.1295757, 0.0017650431, 0.000033110227, -1599943.1, 14208.301, 0.0, 10.018146, 9.985793 
6.84676e+3, 1.452706e+2, -1511975.8, -1545377.9, 37.04657, 0.0017659896, 0.00029411985, -1511975.6, 4373.77, 0.0, 10.018201, 9.973939 
6.846758e+3, 1.552445e+2, -1414262.4, -1448108.6, 13.436998, 0.0017667164, 0.000101684265, -1414262.4, 4342.6895, 0.0, 10.018254, 9.973408 
6.846757e+3, 1.652118e+2, -1326245.0, -1369373.5, 50.226013, 0.0017671551, 0.00018256897, -1326244.9, -5319.2183, 0.0, 10.018307, 9.961271 
6.846756e+3, 1.751731e+2, -1228304.9, -1271788.0, 25.805334, 0.0017674055, 0.00007985754, -1228304.9, -5000.1543, 0.0, 10.018358, 9.960858 
6.8467546e+3, 1.8512776e+2, -1140257.4, -1193329.8, 58.660366, 0.0017680076, 0.00022342044, -1140257.4, -14508.325, 0.0, 10.018409, 9.94837 
6.8467534e+3, 1.9507617e+2, -1042131.0, -1095504.1, 33.21748, 0.0017688812, 0.00008772286, -1042131.0, -13876.317, 0.0, 10.018458, 9.948027 
6.846752e+3, 2.0501778e+2, -954160.94, -1017550.94, 60.2703, 0.0017693444, 0.00020790794, -954160.9, -23334.059, 0.0, 10.018508, 9.935018 
6.8467516e+3, 2.1495284e+2, -855898.25, -919589.5, 35.51957, 0.0017693915, 0.000014235778, -855898.25, -22434.96, 0.0, 10.018558, 9.934675 
6.846751e+3, 2.2488107e+2, -767788.7, -841743.75, 59.218716, 0.0017698759, 0.00025955247, -767788.6, -31622.156, 0.0, 10.018608, 9.9214 
6.84675e+3, 2.3480253e+2, -669377.5, -743629.6, 33.523933, 0.0017707752, 0.000043505574, -669377.44, -30441.277, 0.0, 10.01866, 9.921065 
6.84675e+3, 2.44717e+2, -581129.8, -665910.44, 56.506798, 0.0017712453, 0.00020296167, -581129.8, -39355.32, 0.0, 10.018711, 9.907514 
6.8467486e+3, 2.546246e+2, -482400.28, -567300.75, 31.177221, 0.0017712134, 0.00002001248, -482400.28, -37720.605, 0.0, 10.018764, 9.907409 
6.846748e+3, 2.645251e+2, -394259.6, -490220.47, 49.292152, 0.001771621, 0.0002635945, -394259.56, -46604.586, 0.0, 10.018817, 9.893194 
6.8467474e+3, 2.7441883e+2, -294996.94, -390677.84, 24.266457, 0.0017725121, -0.00008678567, -294996.9, -44300.547, 0.0, 10.018873, 9.893605 
6.846747e+3, 2.8430444e+2, -208316.23, -317060.66, 36.67413, 0.0017728538, 0.00034301943, -208316.22, -54498.98, 0.0, 10.01893, 9.876907 
6.846747e+3, 2.9418242e+2, -108612.86, -216775.69, 11.669975, 0.0017724705, -0.00013763267, -108612.86, -51599.79, 0.0, 10.01899, 9.877704 
6.846747e+3, 3.040879e+2, -19644.791, -85212.49, 16.39759, 0.0017729223, 0.0002834944, -19644.787, -19644.787, 0.0, 10.019051, 9.932697 
6.846746e+3, 3.140224e+2, -18547.594, -83074.84, -9.129107, 0.0017745018, 0.000040782903, -18547.592, -18547.592, 0.0, 10.019114, 9.93411 
6.8567806e+3, 1.2530595e+2, -1697370.8, -1721173.6, 34.422344, 0.0017720172, 0.00020940376, -1697370.8, 14632.389, 0.0, 10.018086, 9.986517 
6.8567795e+3, 1.352923e+2, -1599999.1, -1624439.8, 12.474597, 0.0017729794, 0.000032579188, -1599999.1, 14137.507, 0.0, 10.018144, 9.985731 
6.8567777e+3, 1.4527205e+2, -1512034.1, -1545484.3, 53.00612, 0.0017737788, 0.00029344973, -1512034.0, 4301.172, 0.0, 10.018199, 9.973874 
6.8567765e+3, 1.552459e+2, -1414319.9, -1448214.3, 29.475843, 0.001774142, 0.00010085357, -1414319.9, 4271.6343, 0.0, 10.018252, 9.973343 
6.856775e+3, 1.6521311e+2, -1326302.9, -1369480.4, 65.68956, 0.0017748306, 0.00018183359, -1326302.8, -5389.9683, 0.0, 10.018305, 9.9612055 
6.856774e+3, 1.7517436e+2, -1228362.4, -1271894.4, 41.27251, 0.0017758963, 0.00007945171, -1228362.4, -5069.923, 0.0, 10.018356, 9.960793 
6.856773e+3, 1.8512896e+2, -1140315.8, -1193438.1, 73.474014, 0.0017762848, 0.00022305569, -1140315.6, -14578.249, 0.0, 10.018407, 9.948302 
6.856772e+3, 1.9507729e+2, -1042188.7, -1095611.9, 48.10997, 0.0017759776, 0.00008712596, -1042188.6, -13944.945, 0.0, 10.018456, 9.947959 
6.856771e+3, 2.0501885e+2, -954216.56, -1017655.1, 75.16407, 0.0017766408, 0.00020716368, -954216.44, -23399.953, 0.0, 10.018506, 9.934953 
6.8567705e+3, 2.1495382e+2, -855953.25, -919693.06, 50.42399, 0.0017782376, 0.000013427431, -855953.25, -22499.639, 0.0, 10.018556, 9.934609 
6.8567693e+3, 2.24882e+2, -767846.06, -841852.44, 74.87599, 0.0017786344, 0.00025909155, -767846.0, -31688.563, 0.0, 10.018606, 9.921331 
6.856769e+3, 2.348034e+2, -669434.5, -743737.8, 49.234905, 0.0017777521, 0.00004381496, -669434.44, -30506.643, 0.0, 10.018657, 9.920997 
6.856768e+3, 2.4471778e+2, -581186.94, -666019.44, 72.55825, 0.0017782149, 0.00020279677, -581186.9, -39420.125, 0.0, 10.018709, 9.907444 
6.8567675e+3, 2.5462535e+2, -482456.63, -567409.0, 47.32089, 0.0017801241, 0.000018001216, -482456.6, -37783.945, 0.0, 10.018761, 9.90734 
6.856767e+3, 2.6452577e+2, -394316.03, -490329.53, 66.85021, 0.0017806906, 0.00026212275, -394316.0, -46667.332, 0.0, 10.018815, 9.893125 
6.8567663e+3, 2.744194e+2, -295052.88, -390786.38, 41.894386, 0.001779638, -0.00008490651, -295052.84, -44362.156, 0.0, 10.01887, 9.893536 
6.8567663e+3, 2.8430498e+2, -208372.7, -317170.75, 55.638542, 0.0017797485, 0.0003446534, -208372.67, -54560.41, 0.0, 10.018928, 9.876836 
6.856766e+3, 2.9418287e+2, -108668.734, -216885.17, 30.902584, 0.0017813302, -0.00014086565, -108668.73, -51659.902, 0.0, 10.018987, 9.877633 
6.856766e+3, 3.0408826e+2, -19701.754, -85324.85, 37.11123, 0.0017821033, 0.00028001273, -19701.732, -19701.732, 0.0, 10.019048, 9.932623 
6.856765e+3, 3.1402266e+2, -18604.348, -83187.4, 11.665021, 0.0017816878, 0.000043555025, -18604.344, -18604.344, 0.0, 10.019112, 9.934035 
6.866799e+3, 1.2530746e+2, -1696987.1, -1721040.8, 14.1280775, 0.001779458, 0.00020852349, -1696987.1, 15001.261, 0.0, 10.018356, 9.986454 
6.866797e+3, 1.3529375e+2, -1599612.6, -1624306.4, -8.9266, 0.0017808804, 0.000032039497, -1599612.6, 14509.856, 0.0, 10.018417, 9.985668 
6.866796e+3, 1.4527342e+2, -1511645.6, -1545353.5, 29.369509, 0.0017817852, 0.00029295648, -1511645.6, 4676.115, 0.0, 10.018476, 9.973809 
6.866795e+3, 1.5524721e+2, -1413927.3, -1448082.3, 5.2121778, 0.0017819265, 0.000100152414, -1413927.3, 4651.4126, 0.0, 10.018533, 9.973277 
6.8667936e+3, 1.6521436e+2, -1325908.8, -1369350.3, 39.360374, 0.0017824866, 0.00018112223, -1325908.6, -5008.1143, 0.0, 10.018588, 9.961138 
6.8667924e+3, 1.7517553e+2, -1227968.0, -1271765.1, 14.087905, 0.0017835067, 0.00007891607, -1227968.0, -4687.083, 0.0, 10.018641, 9.960726 
6.866791e+3, 1.8513006e+2, -1139920.8, -1193310.1, 44.95351, 0.0017840526, 0.00022255846, -1139920.6, -14194.171, 0.0, 10.018693, 9.948235 
6.8667907e+3, 1.9507834e+2, -1041793.0, -1095484.5, 19.131626, 0.00178409, 0.000086534004, -1041793.0, -13559.537, 0.0, 10.018744, 9.947892 
6.8667895e+3, 2.0501982e+2, -953818.44, -1017525.44, 45.445713, 0.001784659, 0.00020658411, -953818.44, -23011.488, 0.0, 10.018796, 9.934887 
6.866789e+3, 2.1495475e+2, -855555.0, -919564.4, 20.116556, 0.0017857354, 0.000012967389, -855555.0, -22110.348, 0.0, 10.018847, 9.934544 
6.866788e+3, 2.2488284e+2, -767449.75, -841728.9, 44.562794, 0.0017862174, 0.00025861812, -767449.7, -31300.525, 0.0, 10.018899, 9.921264 
6.8667877e+3, 2.3480417e+2, -669038.94, -743615.8, 18.66289, 0.0017860478, 0.00004319093, -669038.94, -30118.75, 0.0, 10.01895, 9.920928 
6.866787e+3, 2.4471849e+2, -580790.7, -665898.2, 42.391968, 0.001786509, 0.0002022494, -580790.7, -39030.855, 0.0, 10.019004, 9.907375 
6.8667865e+3, 2.5462598e+2, -482059.16, -567288.3, 17.188679, 0.0017876304, 0.000017779525, -482059.16, -37392.742, 0.0, 10.019058, 9.907271 
6.866786e+3, 2.645263e+2, -393917.88, -490210.9, 37.68539, 0.0017881265, 0.00026183724, -393917.88, -46274.777, 0.0, 10.0191145, 9.893054 
6.866786e+3, 2.744199e+2, -294654.28, -390668.72, 12.563239, 0.0017878456, -0.0000857082, -294654.28, -43968.445, 0.0, 10.019172, 9.893465 
6.866785e+3, 2.843054e+2, -207971.77, -317052.47, 27.751589, 0.0017881488, 0.0003439142, -207971.75, -54163.67, 0.0, 10.019232, 9.876766 
6.8667847e+3, 2.9418322e+2, -108265.72, -216767.05, 3.6714065, 0.0017891806, -0.00014080414, -108265.72, -51260.406, 0.0, 10.019294, 9.8775625 
6.8667847e+3, 3.0408856e+2, -19300.555, -85214.7, 12.584276, 0.001789773, 0.0002801634, -19300.553, -19300.553, 0.0, 10.019359, 9.9325485 
6.8667847e+3, 3.140229e+2, -18195.451, -83074.055, -12.981084, 0.0017896962, 0.000042831853, -18195.447, -18195.447, 0.0, 10.019428, 9.93396 
6.8768173e+3, 1.253089e+2, -1697046.5, -1721147.4, 32.649597, 0.0017867327, 0.00020736702, -1697046.4, 14927.721, 0.0, 10.018354, 9.986389 
6.876816e+3, 1.3529514e+2, -1599671.1, -1624412.3, 9.641092, 0.0017887806, 0.00003143379, -1599671.1, 14437.788, 0.0, 10.018415, 9.985603 
6.8768144e+3, 1.4527474e+2, -1511705.4, -1545462.4, 46.718304, 0.0017899141, 0.00029250808, -1511705.4, 4603.4214, 0.0, 10.018474, 9.9737425 
6.876814e+3, 1.5524846e+2, -1413986.8, -1448190.8, 22.535093, 0.0017899257, 0.000099478115, -1413986.8, 4579.5825, 0.0, 10.018531, 9.973211 
6.8768126e+3, 1.6521555e+2, -1325969.4, -1369461.3, 55.116337, 0.0017901686, 0.00018038662, -1325969.3, -5080.3755, 0.0, 10.018586, 9.96107 
6.876811e+3, 1.7517667e+2, -1228027.8, -1271875.4, 29.925697, 0.0017907068, 0.00007826987, -1228027.8, -4757.917, 0.0, 10.018639, 9.960657 
6.87681e+3, 1.8513112e+2, -1139980.4, -1193420.4, 60.2792, 0.001791591, 0.00022194731, -1139980.3, -14264.107, 0.0, 10.018691, 9.948167 
6.8768096e+3, 1.9507931e+2, -1041852.3, -1095594.3, 34.487675, 0.0017927391, 0.000085905034, -1041852.3, -13628.478, 0.0, 10.018743, 9.947824 
6.8768084e+3, 2.0502074e+2, -953876.2, -1017632.5, 60.69529, 0.001793072, 0.00020605163, -953876.1, -23078.197, 0.0, 10.018793, 9.93482 
6.876808e+3, 2.1495558e+2, -855612.2, -919670.75, 35.40229, 0.0017925894, 0.000012642494, -855612.2, -22175.836, 0.0, 10.018845, 9.934478 
6.876807e+3, 2.2488362e+2, -767508.5, -841838.9, 60.3386, 0.001793244, 0.00025809725, -767508.44, -31366.951, 0.0, 10.018896, 9.921194 
6.8768066e+3, 2.3480487e+2, -669097.3, -743725.25, 34.504692, 0.001795028, 0.00004205559, -669097.25, -30184.05, 0.0, 10.018948, 9.920859 
6.876806e+3, 2.4471913e+2, -580848.6, -666007.25, 59.150814, 0.00179549, 0.00020147495, -580848.6, -39095.08, 0.0, 10.019001, 9.907307 
6.8768054e+3, 2.5462654e+2, -482116.53, -567396.7, 33.983448, 0.0017944681, 0.000018431185, -482116.5, -37455.75, 0.0, 10.019055, 9.907202 
6.8768054e+3, 2.645268e+2, -393976.03, -490321.38, 55.71129, 0.0017947811, 0.00026212315, -393976.0, -46337.887, 0.0, 10.019111, 9.892983 
6.876805e+3, 2.7442035e+2, -294712.0, -390778.66, 30.83205, 0.0017966316, -0.000087908185, -294711.97, -44030.406, 0.0, 10.019168, 9.893394 
6.876804e+3, 2.8430575e+2, -208028.28, -317160.63, 47.76853, 0.0017973342, 0.0003419383, -208028.27, -54223.754, 0.0, 10.019228, 9.876697 
6.876804e+3, 2.941835e+2, -108321.28, -216874.27, 23.700403, 0.0017965478, -0.00013910235, -108321.28, -51318.887, 0.0, 10.01929, 9.877494 
6.876804e+3, 3.0408877e+2, -19359.248, -85328.63, 35.081722, 0.0017967153, 0.00028213134, -19359.229, -19359.229, 0.0, 10.019355, 9.932473 
6.8768036e+3, 3.1402305e+2, -18255.107, -83189.02, 10.116656, 0.0017981691, 0.00004029225, -18255.107, -18255.107, 0.0, 10.0194235, 9.933884 
6.8868357e+3, 1.2531027e+2, -1696655.5, -1721013.5, 10.40894, 0.0017946817, 0.00020682123, -1696655.5, 15305.12, 0.0, 10.018631, 9.986324 
6.8868345e+3, 1.3529645e+2, -1599274.8, -1624276.4, -13.532553, 0.001796218, 0.000030612813, -1599274.8, 14821.303, 0.0, 10.018696, 9.9855385 
6.886833e+3, 1.4527598e+2, -1511307.6, -1545329.5, 20.473375, 0.0017973067, 0.0002917004, -1511307.6, 4988.9023, 0.0, 10.018758, 9.973675 
6.886832e+3, 1.5524964e+2, -1413588.5, -1448058.5, -4.8233466, 0.0017976778, 0.000098949546, -1413588.5, 4966.3438, 0.0, 10.018817, 9.973143 
6.886831e+3, 1.6521664e+2, -1325570.1, -1369330.3, 25.466389, 0.0017980573, 0.00017989065, -1325570.0, -4692.001, 0.0, 10.018874, 9.961001 
6.8868303e+3, 1.7517771e+2, -1227627.1, -1271744.6, -0.32655424, 0.0017985268, 0.00007758827, -1227627.1, -4367.4126, 0.0, 10.018929, 9.960588 
6.886829e+3, 1.851321e+2, -1139579.5, -1193291.1, 28.189629, 0.0017992913, 0.00022125366, -1139579.5, -13872.831, 0.0, 10.018982, 9.948097 
6.886828e+3, 1.9508022e+2, -1041453.0, -1095466.8, 1.6611488, 0.0018002681, 0.00008535811, -1041453.0, -13237.985, 0.0, 10.019034, 9.947755 
6.8868273e+3, 2.0502156e+2, -953475.7, -1017503.0, 27.158215, 0.0018007304, 0.00020554043, -953475.7, -22685.904, 0.0, 10.019086, 9.934753 
6.886827e+3, 2.1495634e+2, -855212.44, -919542.75, 1.3555896, 0.0018006759, 0.000012060309, -855212.44, -21783.605, 0.0, 10.019137, 9.93441 
6.886826e+3, 2.2488432e+2, -767110.6, -841715.0, 26.142897, 0.0018012705, 0.0002575215, -767110.6, -30975.941, 0.0, 10.01919, 9.921125 
6.8868256e+3, 2.3480551e+2, -668700.7, -743603.1, 0.10721471, 0.0018024947, 0.0000415651, -668700.7, -29793.633, 0.0, 10.019242, 9.920791 
6.886825e+3, 2.4471968e+2, -580452.4, -665886.44, 25.386354, 0.0018029719, 0.00020100252, -580452.4, -38704.35, 0.0, 10.019297, 9.907237 
6.886825e+3, 2.5462705e+2, -481720.78, -567277.25, -0.042666953, 0.0018025935, 0.00001790327, -481720.78, -37064.832, 0.0, 10.019352, 9.907133 
6.8868244e+3, 2.6452726e+2, -393579.72, -490202.25, 22.844795, 0.0018030186, 0.0002616167, -393579.7, -45945.695, 0.0, 10.019409, 9.892915 
6.8868244e+3, 2.7442068e+2, -294315.78, -390660.72, -1.3342502, 0.0018043497, -0.000088293375, -294315.78, -43637.656, 0.0, 10.019467, 9.893326 
6.886824e+3, 2.8430602e+2, -207631.11, -317044.97, 17.681887, 0.0018048754, 0.00034157358, -207631.11, -53829.375, 0.0, 10.019529, 9.876626 
6.886824e+3, 2.941837e+2, -107921.29, -216758.5, -6.92471, 0.0018043508, -0.00013957742, -107921.29, -50920.973, 0.0, 10.019595, 9.877423 
6.886824e+3, 3.0408892e+2, -18959.938, -85216.125, 7.2481394, 0.001804706, 0.00028162645, -18959.938, -18959.938, 0.0, 10.019663, 9.932401 
6.886823e+3, 3.140231e+2, -17852.584, -83075.1, -15.834636, 0.0018062403, 0.000039908078, -17852.58, -17852.58, 0.0, 10.019734, 9.933812 
6.8968546e+3, 1.253116e+2, -1696717.0, -1721123.9, 30.568783, 0.0018029758, 0.00020653725, -1696716.9, 15230.777, 0.0, 10.018629, 9.986258 
6.896853e+3, 1.352977e+2, -1599335.9, -1624386.4, 6.60728, 0.0018034658, 0.000029633711, -1599335.9, 14747.916, 0.0, 10.018694, 9.985472 
6.896852e+3, 1.4527717e+2, -1511370.6, -1545443.5, 38.189644, 0.0018043733, 0.00029068132, -1511370.6, 4914.36, 0.0, 10.018756, 9.973605 
6.896851e+3, 1.5525074e+2, -1413650.6, -1448171.8, 12.9516535, 0.0018053299, 0.00009843883, -1413650.6, 4893.1943, 0.0, 10.018814, 9.973074 
6.89685e+3, 1.652177e+2, -1325632.3, -1369443.8, 41.970673, 0.001806066, 0.0001794595, -1325632.3, -4764.3896, 0.0, 10.018871, 9.960932 
6.896849e+3, 1.7517868e+2, -1227689.1, -1271857.8, 16.175665, 0.0018066907, 0.000076847835, -1227689.1, -4438.9443, 0.0, 10.018927, 9.960519 
6.896848e+3, 1.85133e+2, -1139641.8, -1193405.0, 43.403072, 0.0018071097, 0.00022047936, -1139641.8, -13943.897, 0.0, 10.018979, 9.948028 
6.896847e+3, 1.9508106e+2, -1041514.5, -1095579.8, 16.965609, 0.0018072714, 0.0000848061, -1041514.44, -13307.661, 0.0, 10.019032, 9.947684 
6.896847e+3, 2.0502232e+2, -953535.1, -1017612.3, 42.607807, 0.0018080444, 0.00020499353, -953535.06, -22752.818, 0.0, 10.019083, 9.934686 
6.896846e+3, 2.1495704e+2, -855271.7, -919651.56, 16.818508, 0.0018093978, 0.000011304806, -855271.7, -21849.695, 0.0, 10.0191345, 9.934342 
6.896845e+3, 2.2488494e+2, -767170.9, -841826.1, 41.92842, 0.0018098213, 0.00025687745, -767170.9, -31042.373, 0.0, 10.019186, 9.921056 
6.8968445e+3, 2.3480606e+2, -668760.3, -743713.56, 15.9331665, 0.0018092407, 0.000041360894, -668760.3, -29858.736, 0.0, 10.019238, 9.920721 
6.8968445e+3, 2.4472019e+2, -580511.94, -665997.06, 42.380833, 0.0018097401, 0.00020064559, -580511.9, -38768.684, 0.0, 10.019293, 9.907167 
6.8968445e+3, 2.5462747e+2, -481780.1, -567387.4, 17.116312, 0.0018113892, 0.000016737096, -481780.1, -37128.27, 0.0, 10.019348, 9.9070635 
6.896844e+3, 2.645276e+2, -393637.84, -490310.38, 41.285034, 0.0018120682, 0.0002606763, -393637.8, -46007.273, 0.0, 10.019404, 9.892847 
6.8968433e+3, 2.7442098e+2, -294373.03, -390767.97, 17.09553, 0.0018115634, -0.00008779344, -294373.03, -43697.72, 0.0, 10.019464, 9.893258 
6.8968433e+3, 2.8430626e+2, -207690.2, -317156.4, 38.72642, 0.0018116314, 0.0003419935, -207690.19, -53890.574, 0.0, 10.019525, 9.876555 
6.8968433e+3, 2.9418388e+2, -107980.38, -216869.73, 14.621992, 0.0018124168, -0.00014120106, -107980.38, -50981.47, 0.0, 10.01959, 9.877352 
6.8968433e+3, 3.0408898e+2, -19017.379, -85324.17, 30.702927, 0.0018132627, 0.0002798342, -19017.365, -19017.365, 0.0, 10.019658, 9.93233 
6.8968433e+3, 3.140231e+2, -17909.385, -83182.68, 7.60739, 0.0018141271, 0.00004059386, -17909.383, -17909.383, 0.0, 10.01973, 9.933742 
6.906873e+3, 1.2531283e+2, -1696315.0, -1720987.3, 6.3390536, 0.0018102443, 0.00020564334, -1696315.0, 15620.59, 0.0, 10.018913, 9.986189 
6.906872e+3, 1.3529888e+2, -1598931.3, -1624249.4, -18.857668, 0.0018112934, 0.000029108303, -1598931.3, 15141.052, 0.0, 10.018982, 9.985403 
6.906871e+3, 1.4527828e+2, -1510964.9, -1545309.1, 9.171752, 0.0018122618, 0.00029017343, -1510964.9, 5309.239, 0.0, 10.019046, 9.973535 
6.9068694e+3, 1.5525179e+2, -1413243.0, -1448037.4, -16.971848, 0.0018128213, 0.00009764428, -1413243.0, 5290.7607, 0.0, 10.019107, 9.973003 
6.9068694e+3, 1.6521865e+2, -1325224.6, -1369311.0, 9.062605, 0.0018134912, 0.00017863736, -1325224.6, -4366.171, 0.0, 10.019165, 9.960861 
6.906868e+3, 1.7517957e+2, -1227283.4, -1271727.0, -17.746086, 0.0018143477, 0.00007624044, -1227283.4, -4041.9712, 0.0, 10.01922, 9.960448 
6.906867e+3, 1.8513381e+2, -1139236.5, -1193275.1, 7.5369835, 0.0018148887, 0.00021994201, -1139236.5, -13546.751, 0.0, 10.019274, 9.947957 
6.9068664e+3, 1.950818e+2, -1041110.06, -1095451.4, -19.444502, 0.0018150652, 0.00008419879, -1041110.06, -12910.597, 0.0, 10.019327, 9.947614 
6.906866e+3, 2.05023e+2, -953130.7, -1017482.5, 5.0702963, 0.001815743, 0.00020436583, -953130.7, -22355.055, 0.0, 10.019379, 9.934617 
6.906865e+3, 2.1495765e+2, -854870.75, -919524.6, -21.371815, 0.0018168989, 0.000010706843, -854870.75, -21454.75, 0.0, 10.019429, 9.934274 
6.9068646e+3, 2.248855e+2, -766772.56, -841702.6, 3.8318114, 0.0018173974, 0.00025632148, -766772.56, -30649.344, 0.0, 10.019481, 9.920986 
6.906864e+3, 2.3480654e+2, -668363.3, -743591.8, -22.476538, 0.0018171762, 0.00004085845, -668363.3, -29466.348, 0.0, 10.019534, 9.920651 
6.906864e+3, 2.4472058e+2, -580115.6, -665875.6, 4.550663, 0.0018177013, 0.00020012552, -580115.6, -38376.363, 0.0, 10.0195875, 9.907099 
6.906864e+3, 2.546278e+2, -481386.7, -567268.5, -20.41471, 0.001819006, 0.000016122902, -481386.7, -36738.13, 0.0, 10.019643, 9.906995 
6.9068635e+3, 2.6452786e+2, -393245.25, -490193.28, 5.4153385, 0.0018195966, 0.00026014165, -393245.25, -45617.277, 0.0, 10.0197, 9.892777 
6.9068635e+3, 2.744212e+2, -293979.78, -390651.7, -19.142096, 0.0018192995, -0.0000880325, -293979.78, -43306.36, 0.0, 10.019761, 9.893188 
6.906863e+3, 2.8430638e+2, -207295.77, -317039.84, 4.681343, 0.0018195369, 0.0003417093, -207295.77, -53497.38, 0.0, 10.019824, 9.876487 
6.906863e+3, 2.9418394e+2, -107587.05, -216754.84, -17.98442, 0.0018204408, -0.00014196693, -107587.05, -50588.7, 0.0, 10.01989, 9.877283 
6.906863e+3, 3.0408898e+2, -18626.229, -85215.22, 2.1507826, 0.0018211667, 0.0002791045, -18626.229, -18626.229, 0.0, 10.01996, 9.932259 
6.9068635e+3, 3.1402302e+2, -17510.305, -83070.195, -21.345854, 0.0018215784, 0.000040663992, -17510.299, -17510.299, 0.0, 10.020038, 9.933669 
6.916892e+3, 1.25314e+2, -1696379.4, -1721103.0, 27.48242, 0.0018170447, 0.00020441612, -1696379.4, 15544.691, 0.0, 10.018911, 9.986119 
6.9168913e+3, 1.3529997e+2, -1598995.3, -1624364.6, 2.2531438, 0.0018194256, 0.000028733148, -1598995.3, 15066.252, 0.0, 10.018979, 9.985333 
6.91689e+3, 1.4527932e+2, -1511030.1, -1545426.9, 27.747814, 0.0018205713, 0.00028986583, -1511030.1, 5233.9033, 0.0, 10.019044, 9.973463 
6.916889e+3, 1.5525274e+2, -1413307.9, -1448154.6, 1.5972387, 0.0018202735, 0.00009666498, -1413307.9, 5216.4, 0.0, 10.019105, 9.972932 
6.9168884e+3, 1.6521955e+2, -1325289.8, -1369429.1, 25.356487, 0.0018206667, 0.00017758009, -1325289.8, -4440.1064, 0.0, 10.019162, 9.960789 
6.916887e+3, 1.7518039e+2, -1227348.0, -1271844.5, -1.3890808, 0.0018217826, 0.00007564721, -1227348.0, -4114.5674, 0.0, 10.0192175, 9.960376 
6.9168866e+3, 1.8513456e+2, -1139300.3, -1193391.1, 22.974468, 0.0018226715, 0.00021946737, -1139300.3, -13617.828, 0.0, 10.019271, 9.9478855 
6.916886e+3, 1.9508247e+2, -1041173.8, -1095567.0, -3.968944, 0.0018232801, 0.00008351608, -1041173.8, -12980.941, 0.0, 10.019323, 9.947542 
6.9168854e+3, 2.0502362e+2, -953192.7, -1017595.0, 19.929453, 0.001823669, 0.00020365507, -953192.7, -22422.986, 0.0, 10.019375, 9.934547 
6.916885e+3, 2.1495819e+2, -854932.06, -919636.44, -6.4737325, 0.0018238242, 0.0000101429605, -854932.06, -21521.314, 0.0, 10.019425, 9.934204 
6.916884e+3, 2.2488596e+2, -766834.2, -841815.2, 19.703062, 0.0018245203, 0.00025576266, -766834.2, -30715.563, 0.0, 10.019477, 9.920917 
6.9168836e+3, 2.3480693e+2, -668425.0, -743704.06, -6.520662, 0.0018257253, 0.000040158313, -668425.0, -29531.926, 0.0, 10.019529, 9.920582 
6.9168836e+3, 2.447209e+2, -580176.0, -665985.4, 21.176584, 0.0018262749, 0.0001994842, -580176.0, -38439.93, 0.0, 10.019583, 9.90703 
6.9168836e+3, 2.5462806e+2, -481446.2, -567377.44, -3.774371, 0.001826067, 0.000015753847, -481446.2, -36800.19, 0.0, 10.019638, 9.906926 
6.916883e+3, 2.6452804e+2, -393305.38, -490303.75, 24.390942, 0.001826402, 0.00025978114, -393305.38, -45679.293, 0.0, 10.019695, 9.892708 
6.916883e+3, 2.744213e+2, -294040.0, -390761.88, 0.17930152, 0.0018273359, -0.00008870362, -294040.0, -43367.793, 0.0, 10.019755, 9.893119 
6.916883e+3, 2.8430644e+2, -207354.22, -317146.63, 26.030966, 0.0018280466, 0.00034102015, -207354.2, -53556.35, 0.0, 10.019818, 9.876419 
6.916883e+3, 2.941839e+2, -107644.34, -216860.48, 3.351509, 0.0018284541, -0.00014231616, -107644.34, -50645.867, 0.0, 10.019884, 9.877216 
6.916883e+3, 3.040889e+2, -18686.04, -85326.29, 27.277905, 0.0018287646, 0.00027890378, -18686.027, -18686.027, 0.0, 10.019955, 9.932186 
6.9168836e+3, 3.1402287e+2, -17571.26, -83182.29, 4.5851593, 0.0018288743, 0.000040351617, -17571.26, -17571.26, 0.0, 10.020032, 9.933597 
6.926911e+3, 1.253151e+2, -1695965.5, -1720964.0, 1.6216438, 0.0018247459, 0.00020375015, -1695965.5, 15947.8545, 0.0, 10.019205, 9.986048 
6.92691e+3, 1.35301e+2, -1598578.9, -1624225.3, -25.065788, 0.0018267146, 0.000027793862, -1598578.9, 15472.591, 0.0, 10.019276, 9.985262 
6.926909e+3, 1.4528026e+2, -1510613.6, -1545290.0, -3.9337401, 0.0018278862, 0.00028897647, -1510613.6, 5641.04, 0.0, 10.019342, 9.973391 
6.9269085e+3, 1.5525362e+2, -1412892.4, -1448019.4, -31.312847, 0.001827989, 0.00009612201, -1412892.3, 5623.467, 0.0, 10.019403, 9.972858 
6.9269073e+3, 1.6522035e+2, -1324874.6, -1369295.0, -10.945737, 0.0018284258, 0.00017706404, -1324874.6, -4032.8037, 0.0, 10.019463, 9.960715 
6.926907e+3, 1.7518112e+2, -1226933.9, -1271712.0, -38.55611, 0.001829257, 0.00007487475, -1226933.9, -3707.64, 0.0, 10.019518, 9.960302 
6.9269055e+3, 1.8513522e+2, -1138888.0, -1193259.6, -16.766735, 0.0018300997, 0.00021867295, -1138888.0, -13211.979, 0.0, 10.019571, 9.947813 
6.9269055e+3, 1.9508305e+2, -1040766.3, -1095439.0, -44.536514, 0.0018308811, 0.00008291522, -1040766.3, -12579.171, 0.0, 10.019622, 9.94747 
6.926905e+3, 2.0502412e+2, -952786.3, -1017465.9, -21.639921, 0.0018313496, 0.00020313295, -952786.3, -22021.629, 0.0, 10.019672, 9.934477 
6.9269043e+3, 2.1495864e+2, -854528.1, -919509.6, -48.62481, 0.0018315, 0.000009589189, -854528.06, -21121.66, 0.0, 10.019723, 9.9341345 
6.926904e+3, 2.2488634e+2, -766433.44, -841690.8, -22.666523, 0.0018321709, 0.00025514784, -766433.4, -30318.443, 0.0, 10.0197735, 9.920846 
6.926903e+3, 2.3480724e+2, -668029.75, -743583.56, -49.040966, 0.0018333339, 0.00003945129, -668029.7, -29139.604, 0.0, 10.019824, 9.920511 
6.926903e+3, 2.4472114e+2, -579782.75, -665865.6, -20.299917, 0.0018338696, 0.00019889226, -579782.75, -38048.965, 0.0, 10.0198765, 9.906961 
6.926903e+3, 2.546282e+2, -481054.22, -567259.4, -45.51834, 0.0018336739, 0.00001550732, -481054.22, -36409.81, 0.0, 10.019932, 9.9068575 
6.926903e+3, 2.6452813e+2, -392914.3, -490185.63, -15.637688, 0.0018341051, 0.00025943216, -392914.3, -45289.164, 0.0, 10.019989, 9.892641 
6.926903e+3, 2.7442133e+2, -293653.0, -390646.8, -38.819786, 0.0018352274, -0.00008966947, -293652.97, -42981.043, 0.0, 10.020048, 9.893052 
6.926903e+3, 2.843064e+2, -206968.44, -317034.4, -9.860053, 0.0018358313, 0.00034016307, -206968.44, -53170.188, 0.0, 10.020111, 9.876351 
6.926903e+3, 2.9418382e+2, -107256.305, -216748.38, -33.041058, 0.0018357533, -0.00014213739, -107256.3, -50256.758, 0.0, 10.020181, 9.877148 
6.926903e+3, 3.040887e+2, -18298.324, -85215.14, -4.983701, 0.0018361494, 0.00027911065, -18298.324, -18298.324, 0.0, 10.020253, 9.932118 
6.926903e+3, 3.140226e+2, -17181.857, -83070.26, -25.223528, 0.0018371453, 0.00003921225, -17181.848, -17181.848, 0.0, 10.020331, 9.933528 
6.9369304e+3, 1.2531613e+2, -1696033.5, -1721086.0, 23.625774, 0.0018329037, 0.00020331384, -1696033.5, 15869.773, 0.0, 10.019203, 9.985973 
6.936929e+3, 1.3530196e+2, -1598646.4, -1624346.6, -3.0467424, 0.0018336348, 0.000026520256, -1598646.4, 15395.741, 0.0, 10.019274, 9.985188 
6.9369286e+3, 1.4528114e+2, -1510681.9, -1545413.0, 14.797516, 0.0018347541, 0.0002877644, -1510681.9, 5564.233, 0.0, 10.01934, 9.973315 
6.9369274e+3, 1.5525442e+2, -1412960.1, -1448141.8, -12.580452, 0.0018358541, 0.000095727584, -1412960.1, 5547.742, 0.0, 10.019401, 9.972784 
6.936927e+3, 1.6522108e+2, -1324942.1, -1369416.9, 5.4915547, 0.0018364869, 0.00017674934, -1324942.1, -4107.493, 0.0, 10.01946, 9.960641 
6.936926e+3, 1.7518178e+2, -1227001.4, -1271833.5, -22.097775, 0.0018367941, 0.00007397067, -1227001.3, -3781.496, 0.0, 10.019514, 9.960228 
6.936925e+3, 1.851358e+2, -1138954.5, -1193379.5, -2.215651, 0.001837397, 0.00021767967, -1138954.5, -13284.213, 0.0, 10.0195675, 9.94774 
6.936925e+3, 1.9508357e+2, -1040832.25, -1095558.3, -29.899921, 0.0018382056, 0.00008229866, -1040832.2, -12650.08, 0.0, 10.019618, 9.947396 
6.9369245e+3, 2.0502457e+2, -952850.06, -1017580.9, -6.9044294, 0.0018389357, 0.00020264545, -952850.06, -22089.707, 0.0, 10.019668, 9.934406 
6.936924e+3, 2.14959e+2, -854592.06, -919624.4, -33.87156, 0.0018395702, 0.000008987972, -854592.06, -21189.248, 0.0, 10.019717, 9.934064 
6.936924e+3, 2.2488663e+2, -766496.8, -841804.44, -7.874035, 0.0018401106, 0.00025446014, -766496.8, -30384.746, 0.0, 10.019768, 9.920776 
6.936923e+3, 2.3480746e+2, -668092.3, -743696.44, -34.20773, 0.0018405021, 0.000038706723, -668092.3, -29204.45, 0.0, 10.019818, 9.920442 
6.9369227e+3, 2.447213e+2, -579844.6, -665977.0, -3.559585, 0.0018410046, 0.00019828824, -579844.6, -38112.34, 0.0, 10.019871, 9.906893 
6.9369227e+3, 2.546283e+2, -481116.34, -567370.44, -28.581816, 0.0018415876, 0.000015252555, -481116.3, -36472.78, 0.0, 10.019925, 9.906788 
6.9369227e+3, 2.6452816e+2, -392974.44, -490292.72, 2.7397995, 0.0018422804, 0.0002590381, -392974.44, -45349.496, 0.0, 10.019982, 9.892574 
6.9369227e+3, 2.7442127e+2, -293712.16, -390752.9, -20.431044, 0.0018430585, -0.00009078814, -293712.16, -43039.74, 0.0, 10.020041, 9.892985 
6.9369227e+3, 2.843063e+2, -207029.44, -317144.56, 12.362286, 0.0018432753, 0.00033921513, -207029.44, -53230.055, 0.0, 10.020104, 9.876282 
6.9369227e+3, 2.941836e+2, -107317.61, -216858.47, -10.230586, 0.0018427591, -0.00014178907, -107317.61, -50316.27, 0.0, 10.020173, 9.877078 
6.936923e+3, 3.0408847e+2, -18356.62, -85318.77, 20.760618, 0.0018434877, 0.00027943813, -18356.613, -18356.613, 0.0, 10.020246, 9.932052 
6.936924e+3, 3.140223e+2, -17239.635, -83173.22, 0.67451453, 0.0018458865, 0.000037681548, -17239.635, -17239.635, 0.0, 10.020324, 9.933462 
6.94695e+3, 1.2531707e+2, -1695606.1, -1720943.8, -4.1490774, 0.0018401821, 0.00020246474, -1695606.1, 16287.912, 0.0, 10.019506, 9.985899 
6.946949e+3, 1.3530281e+2, -1598217.3, -1624204.5, -32.190254, 0.0018412453, 0.00002591074, -1598217.3, 15816.483, 0.0, 10.01958, 9.985113 
6.9469476e+3, 1.4528193e+2, -1510253.3, -1545273.5, -19.530363, 0.001842355, 0.00028712783, -1510253.3, 5985.1855, 0.0, 10.019648, 9.973239 
6.946947e+3, 1.5525512e+2, -1412533.1, -1448004.1, -48.2562, 0.0018431237, 0.000094835865, -1412533.0, 5967.861, 0.0, 10.01971, 9.972708 
6.9469464e+3, 1.652217e+2, -1324517.1, -1369280.6, -34.26061, 0.0018437848, 0.00017589219, -1324517.1, -3688.7168, 0.0, 10.019767, 9.960566 
6.946946e+3, 1.7518233e+2, -1226581.0, -1271700.6, -62.93702, 0.0018444433, 0.000073418865, -1226580.9, -3366.601, 0.0, 10.01982, 9.960153 
6.946945e+3, 1.8513627e+2, -1138536.5, -1193247.1, -45.803307, 0.0018450732, 0.00021716357, -1138536.5, -12870.92, 0.0, 10.019872, 9.947665 
6.9469446e+3, 1.9508399e+2, -1040418.0, -1095428.9, -74.205956, 0.0018455996, 0.000081561164, -1040417.94, -12239.795, 0.0, 10.019921, 9.947322 
6.9469446e+3, 2.050249e+2, -952438.9, -1017451.1, -52.74552, 0.0018463165, 0.0002018568, -952438.8, -21681.764, 0.0, 10.019969, 9.934335 
6.946944e+3, 2.1495928e+2, -854188.44, -919499.56, -80.42245, 0.001847208, 0.0000083164505, -854188.4, -20788.139, 0.0, 10.020016, 9.933992 
6.9469434e+3, 2.2488682e+2, -766097.0, -841681.1, -54.27917, 0.0018477621, 0.0002539287, -766097.0, -29986.828, 0.0, 10.020064, 9.920706 
6.9469434e+3, 2.3480758e+2, -667696.0, -743575.9, -80.92194, 0.0018479218, 0.000038338276, -667695.9, -28809.238, 0.0, 10.020114, 9.920371 
6.946943e+3, 2.4472134e+2, -579451.1, -665856.3, -49.39503, 0.0018484722, 0.00019778588, -579451.06, -37719.37, 0.0, 10.020164, 9.906824 
6.946943e+3, 2.546283e+2, -480730.0, -567254.4, -74.01913, 0.0018494035, 0.000014295284, -480729.94, -36086.25, 0.0, 10.020215, 9.90672 
6.946943e+3, 2.6452807e+2, -392590.88, -490177.78, -40.269176, 0.0018500416, 0.00025824714, -392590.84, -44965.105, 0.0, 10.02027, 9.892508 
6.946943e+3, 2.7442113e+2, -293329.5, -390639.44, -63.576702, 0.0018502824, -0.00009066586, -293329.44, -42655.594, 0.0, 10.02033, 9.892919 
6.9469434e+3, 2.8430605e+2, -206647.77, -317031.94, -27.49348, 0.0018505659, 0.00033927258, -206647.77, -52846.28, 0.0, 10.020394, 9.876215 
6.9469434e+3, 2.9418334e+2, -106939.74, -216748.78, -48.46995, 0.0018508879, -0.00014305027, -106939.73, -49935.625, 0.0, 10.020461, 9.877012 
6.946944e+3, 3.0408812e+2, -17981.168, -85211.586, -12.001273, 0.001851623, 0.00027815264, -17981.166, -17981.166, 0.0, 10.020535, 9.931985 
6.9469446e+3, 3.140219e+2, -16858.402, -83063.195, -31.818178, 0.0018528611, 0.00003823145, -16858.387, -16858.387, 0.0, 10.0206175, 9.933396 
6.9569695e+3, 1.2531793e+2, -1695676.9, -1721071.0, 18.817877, 0.0018470685, 0.00020137295, -1695676.9, 16208.68, 0.0, 10.019505, 9.985822 
6.9569683e+3, 1.353036e+2, -1598287.9, -1624331.5, -9.333806, 0.0018492136, 0.000025542298, -1598287.9, 15737.987, 0.0, 10.019577, 9.985036 
6.956968e+3, 1.4528264e+2, -1510325.0, -1545402.4, -0.81866765, 0.0018503332, 0.00028671706, -1510325.0, 5906.4194, 0.0, 10.019644, 9.973161 
6.9569665e+3, 1.5525576e+2, -1412604.5, -1448132.5, -29.51965, 0.0018501512, 0.00009365299, -1412604.4, 5890.213, 0.0, 10.019706, 9.97263 
6.9569665e+3, 1.6522227e+2, -1324587.6, -1369407.3, -18.566147, 0.0018507519, 0.0001747215, -1324587.6, -3764.6682, 0.0, 10.019763, 9.960488 
6.956966e+3, 1.7518282e+2, -1226651.1, -1271826.8, -47.21012, 0.0018521692, 0.00007297515, -1226651.0, -3441.4673, 0.0, 10.019816, 9.960075 
6.9569653e+3, 1.8513669e+2, -1138605.1, -1193370.1, -31.700264, 0.0018529535, 0.00021681564, -1138605.1, -12943.551, 0.0, 10.019868, 9.94759 
6.956965e+3, 1.950843e+2, -1040486.75, -1095551.6, -60.04989, 0.0018530687, 0.00008071375, -1040486.7, -12311.838, 0.0, 10.019917, 9.9472475 
6.956964e+3, 2.0502517e+2, -952505.5, -1017569.6, -39.5823, 0.001853643, 0.00020087705, -952505.5, -21750.947, 0.0, 10.019964, 9.934262 
6.956964e+3, 2.1495946e+2, -854254.5, -919617.4, -67.218475, 0.0018546456, 0.000007562797, -854254.44, -20856.012, 0.0, 10.02001, 9.933919 
6.9569635e+3, 2.2488694e+2, -766161.8, -841796.2, -39.826233, 0.0018552868, 0.00025341727, -766161.75, -30052.713, 0.0, 10.020058, 9.920635 
6.9569635e+3, 2.3480763e+2, -667761.1, -743690.75, -66.37974, 0.0018555018, 0.000038088565, -667761.06, -28874.842, 0.0, 10.020107, 9.9203005 
6.9569635e+3, 2.4472132e+2, -579514.1, -665966.7, -34.110428, 0.001856134, 0.00019728701, -579514.06, -37782.1, 0.0, 10.020157, 9.906756 
6.9569635e+3, 2.5462818e+2, -480792.16, -567363.9, -58.694633, 0.0018571783, 0.0000129774235, -480792.1, -36147.492, 0.0, 10.020208, 9.906652 
6.9569635e+3, 2.6452792e+2, -392652.6, -490286.38, -21.719042, 0.0018576079, 0.00025724384, -392652.6, -45025.258, 0.0, 10.020264, 9.89244 
6.9569635e+3, 2.744209e+2, -293391.56, -390747.78, -44.670444, 0.0018572671, -0.00009003236, -293391.53, -42715.438, 0.0, 10.020323, 9.892851 
6.9569635e+3, 2.8430575e+2, -206708.45, -317137.22, -5.6729817, 0.001857835, 0.0003397384, -206708.45, -52904.08, 0.0, 10.020386, 9.87615 
6.956964e+3, 2.94183e+2, -106999.58, -216853.1, -26.509733, 0.0018595498, -0.00014508235, -106999.57, -49991.934, 0.0, 10.020453, 9.876947 
6.956964e+3, 3.0408767e+2, -18041.14, -85316.195, 14.856037, 0.0018601345, 0.00027611156, -18041.137, -18041.137, 0.0, 10.020527, 9.931919 
6.956965e+3, 3.1402138e+2, -16919.158, -83168.266, -4.160647, 0.001859049, 0.00003968354, -16919.158, -16919.158, 0.0, 10.020608, 9.93333 
6.966989e+3, 1.253187e+2, -1695232.3, -1720924.8, -10.193448, 0.0018544049, 0.00020049678, -1695232.3, 16645.656, 0.0, 10.019821, 9.985742 
6.9669884e+3, 1.353043e+2, -1597844.6, -1624186.9, -40.335606, 0.0018564542, 0.000024701496, -1597844.5, 16174.493, 0.0, 10.019895, 9.984956 
6.966987e+3, 1.4528327e+2, -1509883.4, -1545259.9, -37.7891, 0.0018576663, 0.00028595066, -1509883.4, 6341.97, 0.0, 10.019962, 9.973081 
6.9669867e+3, 1.5525632e+2, -1412166.0, -1447992.6, -67.8379, 0.0018577254, 0.00009300627, -1412165.9, 6323.494, 0.0, 10.020023, 9.972549 
6.966986e+3, 1.6522273e+2, -1324151.9, -1369268.6, -61.601635, 0.0018582662, 0.00017404807, -1324151.8, -3333.367, 0.0, 10.02008, 9.960409 
6.966986e+3, 1.7518319e+2, -1226220.6, -1271691.9, -91.42866, 0.0018593451, 0.000072150106, -1226220.5, -3014.6099, 0.0, 10.020131, 9.959997 
6.9669855e+3, 1.8513699e+2, -1138179.0, -1193235.9, -79.315056, 0.0018601903, 0.00021601644, -1138178.9, -12520.321, 0.0, 10.020179, 9.947514 
6.966985e+3, 1.9508453e+2, -1040069.2, -1095422.9, -108.5781, 0.0018607343, 0.00008010217, -1040068.94, -11896.314, 0.0, 10.020224, 9.947171 
6.966984e+3, 2.0502532e+2, -952092.0, -1017440.56, -89.550804, 0.0018612872, 0.00020033405, -952091.9, -21338.834, 0.0, 10.020268, 9.934189 
6.9669837e+3, 2.1495953e+2, -853846.9, -919492.44, -117.84582, 0.0018618377, 0.000006973467, -853846.6, -20449.023, 0.0, 10.020312, 9.933846 
6.9669837e+3, 2.2488695e+2, -765759.3, -841671.8, -90.66781, 0.001862514, 0.0002527308, -765759.2, -29650.24, 0.0, 10.020356, 9.920565 
6.9669837e+3, 2.3480757e+2, -667368.56, -743572.44, -117.37378, 0.0018632715, 0.000037251328, -667368.4, -28481.55, 0.0, 10.0204, 9.92023 
6.9669837e+3, 2.4472119e+2, -579125.94, -665848.44, -83.65541, 0.0018638844, 0.00019663338, -579125.9, -37392.61, 0.0, 10.020447, 9.906689 
6.9669837e+3, 2.54628e+2, -480408.2, -567248.7, -108.333855, 0.0018642857, 0.000012879444, -480408.06, -35761.49, 0.0, 10.020496, 9.906585 
6.9669837e+3, 2.6452765e+2, -392271.8, -490170.9, -68.82289, 0.0018647542, 0.00025699817, -392271.75, -44641.81, 0.0, 10.020549, 9.892375 
6.9669837e+3, 2.7442056e+2, -293018.16, -390636.94, -90.74023, 0.0018652478, -0.00009123909, -293018.06, -42338.72, 0.0, 10.020605, 9.892786 
6.9669837e+3, 2.8430536e+2, -206338.86, -317029.28, -47.55404, 0.0018658304, 0.00033863742, -206338.84, -52530.58, 0.0, 10.020666, 9.876085 
6.966984e+3, 2.9418254e+2, -106630.92, -216746.67, -68.23255, 0.0018665091, -0.00014471535, -106630.88, -49618.727, 0.0, 10.020735, 9.876882 
6.966985e+3, 3.0408716e+2, -17673.586, -85208.99, -20.905363, 0.0018670273, 0.00027655845, -17673.58, -17673.58, 0.0, 10.020809, 9.931855 
6.9669855e+3, 3.140208e+2, -16550.568, -83060.29, -37.599472, 0.0018672359, 0.00003830984, -16550.547, -16550.547, 0.0, 10.020891, 9.933267 
6.9770086e+3, 1.2531942e+2, -1695307.9, -1721060.8, 12.786914, 0.0018619885, 0.00019968368, -1695307.9, 16563.041, 0.0, 10.019819, 9.98566 
6.977008e+3, 1.3530493e+2, -1597919.8, -1624322.3, -17.335754, 0.0018633879, 0.000023560431, -1597919.8, 16093.217, 0.0, 10.019892, 9.984874 
6.9770074e+3, 1.452838e+2, -1509958.0, -1545394.3, -19.288858, 0.0018647216, 0.00028496195, -1509958.0, 6262.015, 0.0, 10.0199585, 9.973 
6.977007e+3, 1.5525678e+2, -1412240.6, -1448126.5, -49.400826, 0.0018655825, 0.000092545815, -1412240.5, 6244.311, 0.0, 10.02002, 9.972468 
6.977006e+3, 1.652231e+2, -1324225.6, -1369400.5, -46.747417, 0.0018660639, 0.00017354682, -1324225.5, -3410.8823, 0.0, 10.020075, 9.960329 
6.9770056e+3, 1.7518349e+2, -1226294.3, -1271823.4, -76.52584, 0.0018663125, 0.00007109258, -1226294.1, -3091.2722, 0.0, 10.020126, 9.959916 
6.9770056e+3, 1.8513721e+2, -1138250.5, -1193363.0, -66.892914, 0.0018671647, 0.00021495143, -1138250.4, -12594.025, 0.0, 10.020174, 9.947436 
6.977005e+3, 1.9508469e+2, -1040140.3, -1095549.4, -96.081085, 0.0018685018, 0.00007954006, -1040140.2, -11968.956, 0.0, 10.020218, 9.947093 
6.9770044e+3, 2.0502537e+2, -952160.75, -1017562.0, -77.291885, 0.0018690994, 0.00019993511, -952160.7, -21408.318, 0.0, 10.020262, 9.934114 
6.9770044e+3, 2.1495953e+2, -853916.0, -919613.7, -105.55973, 0.0018689545, 0.0000064056208, -853915.9, -20518.201, 0.0, 10.020306, 9.933772 
6.9770044e+3, 2.2488686e+2, -765826.1, -841788.06, -78.367935, 0.0018696415, 0.0002519111, -765826.0, -29716.305, 0.0, 10.020349, 9.920493 
6.977004e+3, 2.3480742e+2, -667434.75, -743688.0, -105.01587, 0.001871128, 0.00003609813, -667434.6, -28546.332, 0.0, 10.020392, 9.920159 
6.977004e+3, 2.4472098e+2, -579190.2, -665959.7, -68.91732, 0.0018716697, 0.00019586826, -579190.1, -37454.71, 0.0, 10.020439, 9.906621 
6.977004e+3, 2.546277e+2, -480472.84, -567359.7, -93.41217, 0.0018711275, 0.000013280239, -480472.75, -35823.39, 0.0, 10.020488, 9.906517 
6.9770044e+3, 2.645273e+2, -392334.03, -490276.5, -51.71608, 0.0018717495, 0.0002570546, -392334.0, -44700.625, 0.0, 10.02054, 9.89231 
6.9770044e+3, 2.7442014e+2, -293079.72, -390741.66, -73.49972, 0.001873696, -0.000093325485, -293079.7, -42396.254, 0.0, 10.020596, 9.892722 
6.977005e+3, 2.8430486e+2, -206401.28, -317135.66, -25.60388, 0.0018741607, 0.0003367868, -206401.27, -52588.3, 0.0, 10.020657, 9.8760195 
6.9770056e+3, 2.9418197e+2, -106693.5, -216852.8, -45.744797, 0.0018727124, -0.00014330838, -106693.484, -49675.996, 0.0, 10.020724, 9.876817 
6.9770056e+3, 3.0408654e+2, -17732.717, -85307.33, 6.315783, 0.0018732141, 0.00027809883, -17732.717, -17732.717, 0.0, 10.020798, 9.931794 
6.977006e+3, 3.1402013e+2, -16609.896, -83158.17, -9.837984, 0.0018763562, 0.000035607634, -16609.896, -16609.896, 0.0, 10.02088, 9.933206 
6.987029e+3, 1.2532003e+2, -1694845.8, -1720910.0, -17.666178, 0.0018693273, 0.00019893068, -1694845.8, 17019.146, 0.0, 10.020149, 9.985576 
6.987028e+3, 1.3530546e+2, -1597458.4, -1624172.9, -49.457943, 0.0018706875, 0.000022795319, -1597458.3, 16549.473, 0.0, 10.020224, 9.98479 
6.9870275e+3, 1.4528424e+2, -1509499.6, -1545247.6, -58.514347, 0.0018719556, 0.00028415007, -1509499.5, 6716.0464, 0.0, 10.020289, 9.972916 
6.987027e+3, 1.5525714e+2, -1411788.4, -1447984.4, -90.45367, 0.0018727079, 0.00009166949, -1411788.3, 6693.0522, 0.0, 10.020348, 9.972384 
6.9870263e+3, 1.6522339e+2, -1323778.1, -1369259.1, -93.23076, 0.0018733147, 0.00017273142, -1323777.9, -2965.9937, 0.0, 10.0204, 9.960248 
6.987026e+3, 1.7518368e+2, -1225855.0, -1271687.4, -124.20281, 0.0018738956, 0.00007046084, -1225854.6, -2653.7312, 0.0, 10.020448, 9.959835 
6.987026e+3, 1.8513733e+2, -1137816.5, -1193227.3, -118.29551, 0.0018746512, 0.00021433845, -1137816.3, -12160.948, 0.0, 10.020492, 9.947358 
6.987025e+3, 1.9508472e+2, -1039714.8, -1095419.3, -148.41852, 0.0018754831, 0.0000787866, -1039714.4, -11543.581, 0.0, 10.020532, 9.947015 
6.987025e+3, 2.0502535e+2, -951742.0, -1017432.2, -131.57834, 0.0018761756, 0.0001991544, -951741.7, -20989.0, 0.0, 10.020571, 9.93404 
6.987025e+3, 2.1495941e+2, -853509.1, -919491.1, -160.60489, 0.0018767221, 0.0000057082643, -853508.75, -20110.002, 0.0, 10.020607, 9.933697 
6.987025e+3, 2.2488669e+2, -765425.2, -841664.9, -133.31046, 0.0018773703, 0.00025133937, -765425.0, -29313.453, 0.0, 10.020646, 9.920423 
6.9870245e+3, 2.3480716e+2, -667041.6, -743569.75, -160.20227, 0.0018780732, 0.000035692883, -667041.25, -28150.477, 0.0, 10.020686, 9.920088 
6.9870245e+3, 2.4472064e+2, -578802.8, -665841.0, -122.71435, 0.0018786305, 0.00019532414, -578802.6, -37064.07, 0.0, 10.020727, 9.906553 
6.987025e+3, 2.5462732e+2, -480096.53, -567247.56, -146.85143, 0.0018789707, 0.000012269085, -480096.28, -35443.105, 0.0, 10.020771, 9.906449 
6.987025e+3, 2.645268e+2, -391963.06, -490164.28, -101.92656, 0.0018796409, 0.0002562277, -391962.97, -44325.105, 0.0, 10.020819, 9.892246 
6.987025e+3, 2.744196e+2, -292714.03, -390632.9, -123.29801, 0.0018806411, -0.00009318259, -292713.88, -42025.34, 0.0, 10.020872, 9.892658 
6.987025e+3, 2.843043e+2, -206039.88, -317029.38, -70.651634, 0.0018810321, 0.00033686918, -206039.83, -52221.14, 0.0, 10.02093, 9.875957 
6.987026e+3, 2.9418135e+2, -106337.76, -216750.3, -89.38369, 0.0018806268, -0.0001446092, -106337.69, -49313.848, 0.0, 10.020996, 9.876753 
6.987027e+3, 3.0408585e+2, -17379.691, -85203.08, -30.328333, 0.001881261, 0.00027672498, -17379.678, -17379.678, 0.0, 10.021069, 9.931735 
6.9870275e+3, 3.1401938e+2, -16255.838, -83052.98, -44.940907, 0.0018832505, 0.000036056386, -16255.808, -16255.808, 0.0, 10.021151, 9.933146 
6.997049e+3, 1.2532057e+2, -1694924.5, -1721052.3, 5.7924285, 0.0018765749, 0.00019814937, -1694924.5, 16935.125, 0.0, 10.020147, 9.98549 
6.997048e+3, 1.3530593e+2, -1597537.3, -1624315.0, -26.160652, 0.0018781964, 0.000022124565, -1597537.3, 16465.986, 0.0, 10.020221, 9.984704 
6.9970477e+3, 1.4528462e+2, -1509579.0, -1545390.0, -41.09357, 0.0018793108, 0.00028337227, -1509578.9, 6633.043, 0.0, 10.020286, 9.972829 
6.997047e+3, 1.5525742e+2, -1411867.5, -1448126.1, -72.989525, 0.0018795355, 0.00009053685, -1411867.3, 6611.178, 0.0, 10.020344, 9.972298 
6.997047e+3, 1.6522358e+2, -1323854.8, -1369396.1, -79.81078, 0.0018803385, 0.00017170548, -1323854.6, -3044.6477, 0.0, 10.020396, 9.960164 
6.9970465e+3, 1.751838e+2, -1225931.6, -1271823.9, -110.788445, 0.001881786, 0.00006996226, -1225931.4, -2731.6052, 0.0, 10.020443, 9.959752 
6.9970465e+3, 1.8513736e+2, -1137890.8, -1193358.5, -107.43163, 0.0018824008, 0.00021387279, -1137890.5, -12235.623, 0.0, 10.020486, 9.947278 
6.997046e+3, 1.9508468e+2, -1039789.3, -1095550.3, -137.46735, 0.00188215, 0.00007788586, -1039789.0, -11617.7295, 0.0, 10.020525, 9.946935 
6.997045e+3, 2.0502523e+2, -951813.7, -1017557.4, -121.85266, 0.0018829582, 0.00019814126, -951813.5, -21059.568, 0.0, 10.020564, 9.933964 
6.997045e+3, 2.1495922e+2, -853580.6, -919615.75, -150.84637, 0.0018847801, 0.0000048973284, -853580.3, -20179.592, 0.0, 10.0206, 9.933621 
6.997045e+3, 2.2488642e+2, -765493.4, -841782.4, -122.35659, 0.001885373, 0.00025082388, -765493.2, -29379.01, 0.0, 10.020638, 9.920351 
6.997045e+3, 2.3480682e+2, -667110.3, -743687.06, -149.16962, 0.0018846415, 0.000035572397, -667110.0, -28215.852, 0.0, 10.020678, 9.920016 
6.997045e+3, 2.4472024e+2, -578868.5, -665951.7, -110.37577, 0.0018852492, 0.00019483821, -578868.4, -37125.74, 0.0, 10.020719, 9.9064865 
6.997045e+3, 2.5462684e+2, -480161.84, -567357.44, -134.39436, 0.001887275, 0.00001056682, -480161.63, -35503.74, 0.0, 10.0207615, 9.906383 
6.997046e+3, 2.645263e+2, -392026.2, -490269.34, -85.68779, 0.0018879342, 0.0002549622, -392026.13, -44382.914, 0.0, 10.020808, 9.892182 
6.997046e+3, 2.74419e+2, -292777.34, -390737.5, -106.76823, 0.0018869299, -0.00009208386, -292777.25, -42082.766, 0.0, 10.020861, 9.892594 
6.9970465e+3, 2.843036e+2, -206102.72, -317132.22, -49.639366, 0.0018872746, 0.00033777862, -206102.7, -52277.438, 0.0, 10.020919, 9.875895 
6.997047e+3, 2.9418057e+2, -106400.555, -216852.63, -67.95223, 0.0018893331, -0.00014718146, -106400.51, -49369.473, 0.0, 10.020984, 9.876691 
6.9970477e+3, 3.0408505e+2, -17439.232, -85298.24, -3.0862741, 0.0018901645, 0.00027400703, -17439.232, -17439.232, 0.0, 10.021056, 9.931676 
6.997048e+3, 3.1401852e+2, -16315.401, -83147.66, -16.9963, 0.0018891445, 0.00003789005, -16315.397, -16315.397, 0.0, 10.021138, 9.933088 
7.0070696e+3, 1.2532102e+2, -1694439.5, -1720895.6, -25.447117, 0.0018835934, 0.00019711172, -1694439.5, 17415.707, 0.0, 10.020494, 9.9854 
7.007069e+3, 1.3530627e+2, -1597057.8, -1624162.4, -59.858883, 0.0018854123, 0.000021334861, -1597057.6, 16942.018, 0.0, 10.020566, 9.984614 
7.0070684e+3, 1.4528488e+2, -1509104.0, -1545239.4, -82.73142, 0.0018866323, 0.00028267247, -1509103.8, 7105.49, 0.0, 10.020629, 9.972741 
7.007068e+3, 1.552576e+2, -1411399.6, -1447980.3, -116.19237, 0.001886862, 0.00008980374, -1411399.3, 7077.469, 0.0, 10.020683, 9.97221 
7.007067e+3, 1.6522369e+2, -1323392.9, -1369251.4, -129.26784, 0.0018875288, 0.00017092323, -1323392.6, -2583.5637, 0.0, 10.020732, 9.960079 
7.007067e+3, 1.7518382e+2, -1225480.5, -1271685.9, -161.7874, 0.0018887055, 0.00006912666, -1225480.0, -2280.2725, 0.0, 10.020773, 9.959666 
7.0070666e+3, 1.851373e+2, -1137447.1, -1193220.5, -162.77423, 0.0018894899, 0.00021308666, -1137446.6, -11791.076, 0.0, 10.02081, 9.947197 
7.0070666e+3, 1.9508451e+2, -1039358.7, -1095420.0, -193.76894, 0.001889814, 0.000077240766, -1039358.0, -11185.277, 0.0, 10.0208435, 9.946855 
7.0070666e+3, 2.0502497e+2, -951391.5, -1017427.94, -180.17169, 0.0018905072, 0.00019754328, -951391.0, -20634.793, 0.0, 10.020875, 9.933887 
7.0070666e+3, 2.149589e+2, -853169.9, -919493.3, -209.94406, 0.001891552, 0.0000042529427, -853169.25, -19765.521, 0.0, 10.0209055, 9.933544 
7.007066e+3, 2.2488603e+2, -765090.5, -841658.44, -181.57103, 0.0018922137, 0.0002501129, -765090.06, -28972.094, 0.0, 10.020937, 9.9202795 
7.007066e+3, 2.3480636e+2, -666721.56, -743571.4, -208.58542, 0.0018924302, 0.000034769404, -666721.0, -27822.402, 0.0, 10.020968, 9.919946 
7.0070666e+3, 2.4471971e+2, -578487.44, -665835.1, -167.96097, 0.001893072, 0.00019419147, -578487.1, -36739.39, 0.0, 10.021003, 9.906421 
7.0070666e+3, 2.5462624e+2, -479790.56, -567246.75, -191.73862, 0.0018941178, 0.0000103577, -479790.16, -35126.484, 0.0, 10.02104, 9.906317 
7.0070666e+3, 2.6452562e+2, -391661.4, -490158.28, -139.39577, 0.0018946844, 0.00025463515, -391661.22, -44011.61, 0.0, 10.021082, 9.89212 
7.0070666e+3, 2.744183e+2, -292422.9, -390632.4, -159.62505, 0.0018946218, -0.000093163595, -292422.66, -41721.176, 0.0, 10.02113, 9.892532 
7.007067e+3, 2.8430286e+2, -205755.28, -317029.88, -97.09849, 0.001895124, 0.00033677157, -205755.19, -51922.32, 0.0, 10.021183, 9.8758335 
7.0070684e+3, 2.9417974e+2, -106059.75, -216754.42, -114.27392, 0.0018963323, -0.00014706032, -106059.63, -49020.4, 0.0, 10.021244, 9.876631 
7.007069e+3, 3.0408418e+2, -17101.225, -85197.32, -41.19966, 0.0018970126, 0.00027425072, -17101.2, -17101.2, 0.0, 10.021315, 9.931621 
7.0070696e+3, 3.1401753e+2, -15976.789, -83045.89, -53.0777, 0.0018968183, 0.000036900572, -15976.747, -15976.747, 0.0, 10.021397, 9.933033 
7.01709e+3, 1.253214e+2, -1694524.0, -1721048.5, -2.8274398, 0.0018905534, 0.000195921, -1694524.0, 17327.502, 0.0, 10.020492, 9.985308 
7.017089e+3, 1.3530657e+2, -1597142.0, -1624314.5, -37.256836, 0.0018925271, 0.000020397358, -1597141.9, 16855.01, 0.0, 10.020563, 9.984522 
7.017089e+3, 1.4528508e+2, -1509186.4, -1545387.8, -66.309525, 0.0018939583, 0.00028194275, -1509186.3, 7021.0815, 0.0, 10.020625, 9.9726515 
7.0170885e+3, 1.552577e+2, -1411482.4, -1448128.4, -99.87368, 0.0018944484, 0.00008918545, -1411482.0, 6993.625, 0.0, 10.020679, 9.97212 
7.0170885e+3, 1.6522369e+2, -1323473.8, -1369395.3, -117.92334, 0.0018948284, 0.00017019104, -1323473.5, -2664.6228, 0.0, 10.020727, 9.959991 
7.017088e+3, 1.7518374e+2, -1225561.4, -1271829.3, -150.37079, 0.0018952353, 0.00006807596, -1225560.9, -2360.5166, 0.0, 10.020768, 9.959579 
7.017088e+3, 1.8513714e+2, -1137524.3, -1193356.0, -154.51042, 0.0018963156, 0.00021209144, -1137523.9, -11866.692, 0.0, 10.020804, 9.947115 
7.0170873e+3, 1.9508429e+2, -1039435.94, -1095555.1, -185.44649, 0.0018979369, 0.00007664674, -1039435.3, -11260.246, 0.0, 10.020837, 9.946772 
7.0170873e+3, 2.0502466e+2, -951465.9, -1017556.7, -172.69368, 0.0018984223, 0.000197071, -951465.44, -20706.104, 0.0, 10.020867, 9.933809 
7.017087e+3, 2.1495852e+2, -853244.75, -919621.9, -202.42441, 0.0018977764, 0.0000036285142, -853244.1, -19836.51, 0.0, 10.020898, 9.933466 
7.017087e+3, 2.2488554e+2, -765160.8, -841777.4, -173.71965, 0.0018985625, 0.00024925754, -765160.44, -29037.838, 0.0, 10.020927, 9.920208 
7.017087e+3, 2.3480582e+2, -666791.94, -743689.8, -200.65001, 0.0019007634, 0.000033605615, -666791.4, -27887.436, 0.0, 10.020958, 9.919874 
7.0170873e+3, 2.447191e+2, -578554.1, -665945.4, -157.52113, 0.0019014218, 0.00019343013, -578553.8, -36800.06, 0.0, 10.020992, 9.906354 
7.0170873e+3, 2.5462556e+2, -479857.56, -567356.6, -181.15771, 0.0019003338, 0.000010758591, -479857.2, -35186.87, 0.0, 10.021029, 9.906251 
7.017088e+3, 2.645249e+2, -391725.6, -490261.47, -125.33023, 0.001900772, 0.00025468695, -391725.44, -44068.555, 0.0, 10.0210705, 9.892059 
7.0170885e+3, 2.7441752e+2, -292487.2, -390735.0, -145.24529, 0.0019029576, -0.00009527, -292486.97, -41777.586, 0.0, 10.021116, 9.892471 
7.017089e+3, 2.8430197e+2, -205818.81, -317130.4, -77.29596, 0.0019036971, 0.0003348607, -205818.77, -51977.41, 0.0, 10.02117, 9.875774 
7.017089e+3, 2.9417884e+2, -106123.11, -216854.34, -94.03186, 0.0019025669, -0.00014577997, -106123.03, -49074.75, 0.0, 10.021231, 9.876571 
7.0170903e+3, 3.040832e+2, -17160.635, -85287.98, -13.859835, 0.0019029515, 0.00027579247, -17160.633, -17160.633, 0.0, 10.0213, 9.931566 
7.0170915e+3, 3.1401652e+2, -16037.3, -83136.41, -24.750038, 0.0019053088, 0.000034592398, -16037.291, -16037.291, 0.0, 10.021381, 9.93298 
7.0271105e+3, 1.2532169e+2, -1694015.8, -1720885.8, -34.739697, 0.0018978332, 0.00019523899, -1694015.6, 17833.088, 0.0, 10.020857, 9.985212 
7.02711e+3, 1.3530675e+2, -1596639.1, -1624155.9, -71.31987, 0.0018995154, 0.000019447389, -1596638.9, 17356.146, 0.0, 10.0209255, 9.984427 
7.02711e+3, 1.4528517e+2, -1508690.1, -1545231.8, -109.6493, 0.0019008656, 0.0002809611, -1508689.9, 7516.647, 0.0, 10.020985, 9.972558 
7.027109e+3, 1.552577e+2, -1410997.6, -1447979.5, -145.45609, 0.0019014459, 0.00008840521, -1410997.0, 7478.6543, 0.0, 10.021033, 9.972027 
7.027109e+3, 1.6522361e+2, -1322997.3, -1369246.8, -170.5173, 0.0019019984, 0.0001694914, -1322996.6, -2186.8296, 0.0, 10.021074, 9.959903 
7.0271087e+3, 1.7518356e+2, -1225098.0, -1271688.9, -204.32314, 0.0019026453, 0.00006735906, -1225097.1, -1895.004, 0.0, 10.021108, 9.959491 
7.0271087e+3, 1.8513687e+2, -1137070.1, -1193215.6, -213.35529, 0.0019035694, 0.00021135423, -1137069.4, -11409.616, 0.0, 10.021137, 9.947032 
7.0271087e+3, 1.9508395e+2, -1038996.9, -1095423.8, -245.4718, 0.0019046557, 0.00007588168, -1038995.8, -10817.289, 0.0, 10.021161, 9.946689 
7.0271087e+3, 2.0502423e+2, -951038.06, -1017426.6, -235.08443, 0.0019052795, 0.00019632449, -951037.25, -20273.723, 0.0, 10.021184, 9.93373 
7.0271087e+3, 2.1495801e+2, -852833.56, -919501.44, -265.60864, 0.0019054442, 0.0000029423384, -852832.5, -19419.926, 0.0, 10.021204, 9.933388 
7.027108e+3, 2.2488496e+2, -764758.9, -841654.2, -236.93661, 0.00190618, 0.00024864782, -764758.1, -28629.848, 0.0, 10.021226, 9.920136 
7.0271087e+3, 2.3480517e+2, -666404.56, -743575.0, -264.0276, 0.0019074527, 0.0000330835, -666403.7, -27493.318, 0.0, 10.021248, 9.919803 
7.0271087e+3, 2.4471837e+2, -578176.44, -665829.75, -218.82463, 0.0019080832, 0.00019283354, -578175.94, -36415.08, 0.0, 10.021274, 9.906289 
7.0271087e+3, 2.5462478e+2, -479494.84, -567249.3, -242.201, 0.0019079413, 0.000009921727, -479494.2, -34816.15, 0.0, 10.021302, 9.906185 
7.0271087e+3, 2.6452404e+2, -391371.63, -490152.97, -182.24869, 0.0019085342, 0.00025395668, -391371.28, -43706.074, 0.0, 10.021336, 9.891999 
7.027109e+3, 2.744166e+2, -292145.1, -390633.1, -201.08453, 0.0019099236, -0.00009545859, -292144.7, -41426.383, 0.0, 10.021376, 9.892412 
7.02711e+3, 2.84301e+2, -205485.5, -317032.56, -126.65287, 0.0019104588, 0.00033467007, -205485.36, -51634.5, 0.0, 10.021422, 9.875715 
7.027111e+3, 2.941778e+2, -105797.71, -216761.27, -142.21921, 0.001909882, -0.00014667201, -105797.53, -48739.18, 0.0, 10.02148, 9.876513 
7.0271116e+3, 3.040821e+2, -16838.89, -85188.92, -53.23703, 0.0019104634, 0.00027481458, -16838.85, -16838.85, 0.0, 10.021545, 9.931516 
7.027113e+3, 3.140154e+2, -15720.699, -83038.945, -61.30185, 0.0019124987, 0.000034460605, -15720.644, -15720.644, 0.0, 10.021623, 9.932929 
7.037131e+3, 1.253219e+2, -1694104.3, -1721046.8, -12.643069, 0.0019052783, 0.00019472312, -1694104.3, 17742.47, 0.0, 10.020855, 9.985115 
7.0371306e+3, 1.3530685e+2, -1596728.0, -1624316.5, -49.411346, 0.001906497, 0.000018409899, -1596727.9, 17266.043, 0.0, 10.020923, 9.984329 
7.0371306e+3, 1.4528519e+2, -1508778.1, -1545389.9, -95.45021, 0.0019076305, 0.00027982044, -1508777.9, 7428.4717, 0.0, 10.020981, 9.972462 
7.0371306e+3, 1.5525763e+2, -1411085.5, -1448137.0, -131.22481, 0.0019082193, 0.000087475564, -1411085.0, 7391.446, 0.0, 10.0210285, 9.971931 
7.0371306e+3, 1.6522343e+2, -1323081.3, -1369396.3, -161.63669, 0.0019091334, 0.00016873018, -1323080.6, -2269.2324, 0.0, 10.021069, 9.959812 
7.03713e+3, 1.7518331e+2, -1225182.5, -1271838.0, -195.47087, 0.0019104778, 0.00006672599, -1225181.6, -1976.9453, 0.0, 10.021102, 9.9594 
7.03713e+3, 1.8513653e+2, -1137150.9, -1193356.5, -208.15353, 0.0019110448, 0.00021067126, -1137150.0, -11486.878, 0.0, 10.021131, 9.946946 
7.0371294e+3, 1.950835e+2, -1039077.8, -1095564.4, -240.15753, 0.0019107899, 0.000074976946, -1039076.8, -10894.037, 0.0, 10.021153, 9.946604 
7.0371294e+3, 2.050237e+2, -951115.44, -1017559.1, -231.11911, 0.0019117055, 0.00019539187, -951114.6, -20345.994, 0.0, 10.021175, 9.93365 
7.0371294e+3, 2.149574e+2, -852911.3, -919633.7, -261.61115, 0.0019137441, 0.0000021712383, -852910.3, -19491.834, 0.0, 10.021195, 9.933308 
7.0371294e+3, 2.2488429e+2, -764830.94, -841774.06, -232.10898, 0.0019143571, 0.00024808818, -764830.2, -28695.307, 0.0, 10.021215, 9.920065 
7.0371294e+3, 2.348044e+2, -666477.0, -743694.6, -259.1283, 0.0019134369, 0.000032792075, -666476.1, -27558.48, 0.0, 10.021237, 9.919731 
7.0371294e+3, 2.4471755e+2, -578244.75, -665939.9, -211.6392, 0.0019140121, 0.00019227082, -578244.25, -36475.42, 0.0, 10.021262, 9.906223 
7.03713e+3, 2.546239e+2, -479563.5, -567359.06, -234.81581, 0.0019161724, 0.0000084714175, -479562.88, -34876.223, 0.0, 10.02129, 9.90612 
7.0371306e+3, 2.645231e+2, -391436.1, -490253.2, -170.67125, 0.0019170302, 0.0002528358, -391435.8, -43761.355, 0.0, 10.021322, 9.891941 
7.0371306e+3, 2.7441558e+2, -292209.56, -390732.6, -189.27917, 0.0019162899, -0.00009484241, -292209.2, -41481.11, 0.0, 10.021361, 9.892354 
7.037131e+3, 2.8429997e+2, -205550.08, -317131.03, -108.41436, 0.0019164316, 0.00033520034, -205549.97, -51688.758, 0.0, 10.021408, 9.875658 
7.0371324e+3, 2.941767e+2, -105863.13, -216859.66, -123.26386, 0.0019176959, -0.00014858549, -105863.0, -48793.7, 0.0, 10.021463, 9.876455 
7.0371336e+3, 3.0408093e+2, -16897.668, -85272.45, -27.261133, 0.0019186907, 0.0002726867, -16897.658, -16897.658, 0.0, 10.021529, 9.931467 
7.037134e+3, 3.140142e+2, -15778.981, -83121.125, -34.640995, 0.0019190873, 0.000035264056, -15778.964, -15778.964, 0.0, 10.0216055, 9.932882 
7.0471525e+3, 1.2532201e+2, -1693567.3, -1720876.1, -44.55814, 0.0019119915, 0.00019360706, -1693567.1, 18278.344, 0.0, 10.02124, 9.985014 
7.047152e+3, 1.3530688e+2, -1596201.4, -1624152.8, -84.21955, 0.0019136108, 0.00001768708, -1596201.1, 17792.59, 0.0, 10.021304, 9.984228 
7.047152e+3, 1.4528511e+2, -1508259.8, -1545227.8, -140.55759, 0.0019148533, 0.00027916124, -1508259.3, 7947.8237, 0.0, 10.021357, 9.972363 
7.047152e+3, 1.5525745e+2, -1410580.3, -1447983.0, -178.26003, 0.0019152822, 0.00008661787, -1410579.4, 7898.7827, 0.0, 10.021398, 9.971833 
7.0471513e+3, 1.6522317e+2, -1322586.6, -1369243.3, -216.68076, 0.0019160521, 0.0001678262, -1322585.6, -1771.4644, 0.0, 10.02143, 9.95972 
7.0471513e+3, 1.7518294e+2, -1224705.3, -1271695.4, -252.37357, 0.001917258, 0.00006592748, -1224703.9, -1495.5529, 0.0, 10.021453, 9.959307 
7.047151e+3, 1.8513606e+2, -1136685.3, -1193213.1, -270.48236, 0.0019180023, 0.00020994856, -1136684.0, -11016.322, 0.0, 10.021472, 9.94686 
7.047151e+3, 1.9508295e+2, -1038630.8, -1095431.9, -303.56277, 0.0019182122, 0.00007429797, -1038629.2, -10441.079, 0.0, 10.021485, 9.946517 
7.047151e+3, 2.0502308e+2, -950682.25, -1017428.6, -297.25122, 0.0019190067, 0.00019471723, -950680.94, -19906.174, 0.0, 10.021496, 9.933569 
7.047151e+3, 2.149567e+2, -852497.5, -919514.25, -328.61737, 0.0019203678, 0.0000014579063, -852495.9, -19070.482, 0.0, 10.021504, 9.933227 
7.047151e+3, 2.2488351e+2, -764428.44, -841650.94, -299.0574, 0.0019210401, 0.00024737706, -764427.25, -28284.672, 0.0, 10.021514, 9.919993 
7.047151e+3, 2.3480356e+2, -666093.5, -743582.06, -326.3001, 0.0019209491, 0.000032119653, -666092.1, -27166.06, 0.0, 10.021524, 9.91966 
7.047151e+3, 2.4471664e+2, -577873.25, -665825.75, -276.5574, 0.0019215923, 0.00019166495, -577872.4, -36094.492, 0.0, 10.021539, 9.906159 
7.0471513e+3, 2.546229e+2, -479209.56, -567254.56, -299.19934, 0.0019229682, 0.000007978121, -479208.56, -34512.22, 0.0, 10.021556, 9.906056 
7.047152e+3, 2.6452208e+2, -391093.03, -490147.97, -230.144, 0.0019236678, 0.00025231673, -391092.5, -43407.777, 0.0, 10.021579, 9.891883 
7.0471525e+3, 2.7441448e+2, -291880.6, -390635.03, -247.98872, 0.0019234896, -0.0000955195, -291880.0, -41141.063, 0.0, 10.02161, 9.892296 
7.047153e+3, 2.842988e+2, -205232.2, -317036.3, -160.195, 0.0019238725, 0.00033454888, -205231.98, -51359.38, 0.0, 10.021648, 9.875604 
7.047154e+3, 2.9417548e+2, -105558.79, -216772.25, -172.95844, 0.0019249631, -0.0001489777, -105558.52, -48477.31, 0.0, 10.021696, 9.876401 
7.047155e+3, 3.0407965e+2, -16598.744, -85179.77, -66.330154, 0.0019257829, 0.00027237734, -16598.68, -16598.68, 0.0, 10.021756, 9.93142 
7.047156e+3, 3.1401289e+2, -15482.064, -83028.5, -71.64429, 0.0019259838, 0.000034858716, -15481.988, -15481.988, 0.0, 10.0218315, 9.932837 
7.057173e+3, 1.2532207e+2, -1693662.0, -1721049.1, -24.218292, 0.0019184351, 0.00019218754, -1693662.0, 18183.043, 0.0, 10.021238, 9.984908 
7.057173e+3, 1.3530682e+2, -1596296.3, -1624325.3, -63.974022, 0.001920818, 0.000016997157, -1596296.1, 17698.139, 0.0, 10.021301, 9.984123 
7.057173e+3, 1.4528495e+2, -1508351.6, -1545393.5, -128.62636, 0.0019222986, 0.00027864525, -1508351.3, 7857.4077, 0.0, 10.021353, 9.972263 
7.0571727e+3, 1.5525718e+2, -1410672.6, -1448148.5, -166.44427, 0.0019225135, 0.0000857223, -1410671.9, 7808.814, 0.0, 10.021393, 9.971732 
7.0571727e+3, 1.6522281e+2, -1322675.5, -1369401.0, -211.35568, 0.0019229129, 0.00016679827, -1322674.5, -1856.9133, 0.0, 10.021424, 9.959624 
7.0571727e+3, 1.7518248e+2, -1224794.4, -1271852.6, -246.97781, 0.0019236227, 0.00006498641, -1224793.0, -1580.3104, 0.0, 10.021447, 9.959211 
7.0571727e+3, 1.8513551e+2, -1136768.9, -1193358.6, -269.02646, 0.0019247633, 0.00020913727, -1136767.6, -11094.67, 0.0, 10.021464, 9.946773 
7.0571727e+3, 1.9508232e+2, -1038715.2, -1095577.3, -302.04404, 0.0019262128, 0.00007365198, -1038713.56, -10519.31, 0.0, 10.021477, 9.946429 
7.0571727e+3, 2.0502236e+2, -950762.8, -1017565.3, -297.39148, 0.0019267157, 0.0001940931, -950761.5, -19979.732, 0.0, 10.021486, 9.933487 
7.0571727e+3, 2.149559e+2, -852578.5, -919650.7, -328.7075, 0.0019262728, 0.000000716735, -852576.9, -19143.662, 0.0, 10.021494, 9.933145 
7.0571727e+3, 2.2488263e+2, -764502.44, -841772.25, -298.31223, 0.0019270842, 0.0002465411, -764501.3, -28350.154, 0.0, 10.021503, 9.919921 
7.0571727e+3, 2.3480262e+2, -666168.3, -743703.25, -325.45258, 0.0019291245, 0.000031219377, -666166.94, -27231.611, 0.0, 10.021513, 9.919587 
7.0571727e+3, 2.4471562e+2, -577942.56, -665934.56, -273.19684, 0.0019298748, 0.00019099937, -577941.7, -36153.902, 0.0, 10.021525, 9.9060955 
7.0571727e+3, 2.5462183e+2, -479279.1, -567362.8, -295.7157, 0.0019291472, 0.000007847714, -479278.13, -34571.215, 0.0, 10.021542, 9.9059925 
7.057173e+3, 2.645209e+2, -391158.75, -490246.94, -221.61766, 0.0019295017, 0.00025202605, -391158.25, -43462.37, 0.0, 10.0215645, 9.891826 
7.057174e+3, 2.7441326e+2, -291947.16, -390733.72, -238.99734, 0.001931071, -0.000096827585, -291946.6, -41195.95, 0.0, 10.021594, 9.89224 
7.057175e+3, 2.8429756e+2, -205296.67, -317129.28, -144.81477, 0.0019319578, 0.0003333212, -205296.48, -51411.62, 0.0, 10.021631, 9.875551 
7.0571756e+3, 2.9417416e+2, -105623.016, -216864.36, -157.16284, 0.0019319626, -0.0001487369, -105622.79, -48528.82, 0.0, 10.021679, 9.8763485 
7.057177e+3, 3.040783e+2, -16657.664, -85259.39, -41.072495, 0.0019323613, 0.00027285863, -16657.639, -16657.639, 0.0, 10.021737, 9.9313755 
7.057178e+3, 3.1401148e+2, -15542.538, -83107.91, -45.05826, 0.0019330329, 0.000033858923, -15542.508, -15542.508, 0.0, 10.0218115, 9.932792 
7.0671946e+3, 1.2532203e+2, -1693093.9, -1720869.9, -55.715256, 0.0019255392, 0.00019148267, -1693093.9, 18751.502, 0.0, 10.021647, 9.9848 
7.0671946e+3, 1.3530669e+2, -1595740.6, -1624153.9, -98.25848, 0.0019275374, 0.000015945434, -1595740.4, 18255.357, 0.0, 10.021705, 9.9840145 
7.0671946e+3, 1.452847e+2, -1507807.1, -1545224.4, -174.63489, 0.0019289644, 0.0002775877, -1507806.4, 8404.73, 0.0, 10.021748, 9.972159 
7.0671946e+3, 1.5525684e+2, -1410146.1, -1447990.1, -215.0465, 0.0019294186, 0.000085001644, -1410145.0, 8339.215, 0.0, 10.021778, 9.971628 
7.0671946e+3, 1.6522235e+2, -1322161.9, -1369243.0, -268.81433, 0.0019299566, 0.00016615089, -1322160.4, -1338.2963, 0.0, 10.021799, 9.959526 
7.0671946e+3, 1.7518193e+2, -1224300.8, -1271706.3, -306.0862, 0.001930703, 0.00006418878, -1224298.8, -1080.6368, 0.0, 10.021811, 9.959114 
7.0671946e+3, 1.8513487e+2, -1136289.8, -1193211.9, -334.3259, 0.0019317084, 0.00020830984, -1136287.9, -10608.549, 0.0, 10.021816, 9.946683 
7.067194e+3, 1.9508159e+2, -1038259.25, -1095443.9, -368.70493, 0.001932854, 0.000072903735, -1038256.9, -10055.409, 0.0, 10.021815, 9.94634 
7.067194e+3, 2.0502155e+2, -950323.8, -1017434.1, -366.9147, 0.0019334827, 0.0001933981, -950321.75, -19531.988, 0.0, 10.021812, 9.933405 
7.067194e+3, 2.1495499e+2, -852162.0, -919532.3, -399.08688, 0.0019336033, 0.000000044308276, -852159.6, -18717.6, 0.0, 10.021807, 9.933062 
7.067194e+3, 2.2488165e+2, -764099.6, -841649.0, -368.85498, 0.0019343832, 0.00024588197, -764097.9, -27937.092, 0.0, 10.021802, 9.919849 
7.067194e+3, 2.3480156e+2, -665788.8, -743592.8, -396.11353, 0.0019357895, 0.00003055746, -665786.8, -26841.19, 0.0, 10.021797, 9.919516 
7.0671946e+3, 2.4471451e+2, -577577.75, -665822.6, -341.0142, 0.00193648, 0.00019036536, -577576.44, -35777.676, 0.0, 10.021797, 9.906033 
7.0671946e+3, 2.5462064e+2, -478934.3, -567261.7, -363.2447, 0.0019363039, 0.0000072940047, -478932.8, -34214.344, 0.0, 10.021802, 9.9059305 
7.0671946e+3, 2.645197e+2, -390827.16, -490143.7, -283.90936, 0.0019368537, 0.0002514621, -390826.34, -43118.293, 0.0, 10.021812, 9.891771 
7.067196e+3, 2.7441198e+2, -291635.38, -390640.78, -299.70767, 0.0019381713, -0.00009747111, -291634.47, -40871.12, 0.0, 10.02183, 9.892185 
7.0671964e+3, 2.842962e+2, -204999.16, -317041.44, -197.20679, 0.001938831, 0.00033273, -204998.81, -51100.734, 0.0, 10.021856, 9.875499 
7.0671976e+3, 2.9417276e+2, -105337.99, -216783.33, -208.31467, 0.0019386391, -0.00014911198, -105337.61, -48229.914, 0.0, 10.021897, 9.876297 
7.067198e+3, 3.0407685e+2, -16378.448, -85168.89, -81.10139, 0.0019391999, 0.0002724679, -16378.354, -16378.354, 0.0, 10.021948, 9.931335 
7.0672e+3, 3.1400996e+2, -15274.244, -83021.37, -81.35315, 0.0019405083, 0.000033208722, -15274.146, -15274.146, 0.0, 10.022014, 9.932754 
7.0772165e+3, 1.2532192e+2, -1693194.3, -1721053.8, -37.420483, 0.0019329608, 0.00019102571, -1693194.1, 18652.162, 0.0, 10.021646, 9.984688 
7.0772165e+3, 1.3530648e+2, -1595841.4, -1624337.4, -80.149605, 0.0019341033, 0.00001464947, -1595841.1, 18156.62, 0.0, 10.021702, 9.983903 
7.0772165e+3, 1.4528438e+2, -1507904.9, -1545401.0, -166.24129, 0.0019353386, 0.00027625074, -1507904.1, 8310.116, 0.0, 10.021744, 9.972052 
7.0772165e+3, 1.552564e+2, -1410244.3, -1448166.3, -206.67462, 0.0019362188, 0.000084269224, -1410243.1, 8245.252, 0.0, 10.021773, 9.971521 
7.0772165e+3, 1.6522181e+2, -1322254.6, -1369407.4, -267.39508, 0.0019371005, 0.00016558668, -1322253.1, -1425.8213, 0.0, 10.021793, 9.959427 
7.0772165e+3, 1.751813e+2, -1224394.3, -1271870.6, -304.6826, 0.0019381329, 0.000063386615, -1224392.4, -1168.006, 0.0, 10.021804, 9.959015 
7.077216e+3, 1.8513414e+2, -1136377.5, -1193363.6, -337.77524, 0.0019387685, 0.00020741402, -1136375.5, -10689.1, 0.0, 10.021809, 9.946591 
7.077216e+3, 1.9508077e+2, -1038347.44, -1095595.3, -372.03372, 0.0019389375, 0.00007204463, -1038345.06, -10135.545, 0.0, 10.021806, 9.946249 
7.077216e+3, 2.0502065e+2, -950407.25, -1017574.7, -371.79068, 0.0019398725, 0.00019260387, -950405.2, -19606.53, 0.0, 10.021802, 9.93332 
7.077216e+3, 2.1495399e+2, -852246.6, -919672.94, -403.92184, 0.0019415385, -0.00000065475604, -852244.2, -18792.441, 0.0, 10.021795, 9.932978 
7.077216e+3, 2.2488059e+2, -764175.8, -841771.4, -373.25537, 0.0019422156, 0.00024524183, -764174.0, -28002.758, 0.0, 10.02179, 9.919778 
7.077216e+3, 2.3480041e+2, -665865.44, -743714.9, -400.44318, 0.0019418048, 0.000029947918, -665863.4, -26906.531, 0.0, 10.021784, 9.919444 
7.077216e+3, 2.4471329e+2, -577648.56, -665931.3, -341.99594, 0.0019423525, 0.00018971108, -577647.2, -35836.59, 0.0, 10.021783, 9.90597 
7.0772165e+3, 2.546194e+2, -479006.25, -567370.25, -363.96942, 0.001943891, 0.0000064789483, -479004.75, -34273.805, 0.0, 10.021786, 9.905868 
7.0772165e+3, 2.6451835e+2, -390893.03, -490238.13, -279.8104, 0.00194485, 0.00025073523, -390892.25, -43171.17, 0.0, 10.021795, 9.891718 
7.077217e+3, 2.744106e+2, -291701.25, -390734.34, -295.3719, 0.0019450475, -0.000097857424, -291700.38, -40923.484, 0.0, 10.0218115, 9.892133 
7.077218e+3, 2.8429478e+2, -205064.73, -317132.56, -184.54018, 0.0019451659, 0.00033238478, -205064.44, -51152.313, 0.0, 10.021838, 9.875448 
7.0772195e+3, 2.9417127e+2, -105404.984, -216874.6, -194.73886, 0.0019451926, -0.0001498265, -105404.64, -48282.4, 0.0, 10.021876, 9.876246 
7.07722e+3, 3.0407533e+2, -16436.145, -85238.91, -58.512115, 0.0019461698, 0.00027165553, -16436.096, -16436.096, 0.0, 10.021927, 9.931298 
7.077222e+3, 3.140084e+2, -15331.658, -83089.61, -57.887585, 0.0019481058, 0.000032696687, -15331.609, -15331.609, 0.0, 10.021992, 9.932717 
7.0872384e+3, 1.2532175e+2, -1692590.9, -1720864.5, -67.81802, 0.0019395082, 0.00018990578, -1692590.6, 19257.389, 0.0, 10.02208, 9.984571 
7.087239e+3, 1.3530616e+2, -1595254.8, -1624158.1, -113.82409, 0.0019410547, 0.000013988596, -1595254.3, 18746.404, 0.0, 10.022128, 9.983787 
7.087239e+3, 1.4528397e+2, -1507331.6, -1545223.8, -212.93839, 0.001942338, 0.00027561188, -1507330.5, 8887.743, 0.0, 10.02216, 9.971941 
7.0872384e+3, 1.5525588e+2, -1409692.3, -1448001.5, -255.83691, 0.001942959, 0.000083314, -1409690.5, 8802.952, 0.0, 10.022178, 9.971411 
7.0872384e+3, 1.6522118e+2, -1321718.8, -1369243.4, -326.51727, 0.0019437568, 0.00016459692, -1321716.5, -883.1515, 0.0, 10.022185, 9.959325 
7.0872384e+3, 1.7518057e+2, -1223884.0, -1271721.3, -365.8781, 0.0019448526, 0.00006263798, -1223881.3, -649.7959, 0.0, 10.0221815, 9.958913 
7.087238e+3, 1.8513332e+2, -1135884.4, -1193213.3, -405.6336, 0.0019456224, 0.00020675016, -1135881.5, -10187.04, 0.0, 10.022171, 9.946499 
7.087238e+3, 1.9507985e+2, -1037880.25, -1095459.6, -441.17346, 0.0019459836, 0.00007131541, -1037876.9, -9658.364, 0.0, 10.022154, 9.946156 
7.087238e+3, 2.0501964e+2, -949960.5, -1017442.1, -444.39706, 0.0019468283, 0.0001918518, -949957.56, -19149.055, 0.0, 10.022134, 9.933235 
7.087238e+3, 2.1495292e+2, -851828.44, -919556.2, -477.4635, 0.0019481465, -0.0000013946868, -851825.06, -18362.629, 0.0, 10.02211, 9.932893 
7.087238e+3, 2.2487941e+2, -763773.75, -841648.75, -446.62112, 0.001948853, 0.00024456438, -763771.2, -27588.48, 0.0, 10.022088, 9.919705 
7.087238e+3, 2.3479918e+2, -665488.9, -743606.1, -474.0299, 0.001948874, 0.000029376752, -665486.0, -26517.01, 0.0, 10.022067, 9.919372 
7.087238e+3, 2.44712e+2, -577289.5, -665820.3, -412.7599, 0.0019495196, 0.00018911363, -577287.6, -35464.164, 0.0, 10.02205, 9.905908 
7.0872384e+3, 2.5461802e+2, -478673.9, -567273.3, -434.00845, 0.001950766, 0.000005730733, -478671.78, -33927.414, 0.0, 10.022037, 9.905807 
7.087239e+3, 2.6451692e+2, -390577.1, -490139.84, -343.54956, 0.0019515664, 0.00025006762, -390575.9, -42840.867, 0.0, 10.022031, 9.891665 
7.087239e+3, 2.7440912e+2, -291405.38, -390646.44, -358.16467, 0.0019517314, -0.000098126, -291404.1, -40612.734, 0.0, 10.022036, 9.89208 
7.08724e+3, 2.8429323e+2, -204785.27, -317048.1, -238.50952, 0.0019520458, 0.0003320909, -204784.77, -50857.676, 0.0, 10.022049, 9.8754015 
7.0872414e+3, 2.941697e+2, -105146.02, -216800.63, -246.02037, 0.0019525609, -0.00015069926, -105145.48, -48007.813, 0.0, 10.022075, 9.8762 
7.0872426e+3, 3.040737e+2, -16186.094, -85156.38, -96.72136, 0.001953448, 0.00027077968, -16185.958, -16185.958, 0.0, 10.022115, 9.931264 
7.0872444e+3, 3.1400678e+2, -15089.95, -83009.73, -93.444016, 0.0019544433, 0.000032725697, -15089.821, -15089.821, 0.0, 10.022174, 9.932685 
7.097261e+3, 1.2532151e+2, -1692697.5, -1721061.3, -52.424896, 0.001945738, 0.00018845762, -1692697.4, 19153.059, 0.0, 10.022079, 9.984451 
7.097261e+3, 1.3530582e+2, -1595362.1, -1624354.6, -98.631516, 0.0019482118, 0.0000134832235, -1595361.8, 18642.443, 0.0, 10.022125, 9.983667 
7.097261e+3, 1.4528349e+2, -1507434.6, -1545410.3, -208.56552, 0.00194963, 0.00027520672, -1507433.5, 8789.385, 0.0, 10.022156, 9.971828 
7.097261e+3, 1.5525529e+2, -1409795.9, -1448187.6, -251.55876, 0.0019497218, 0.00008218801, -1409794.3, 8704.964, 0.0, 10.022173, 9.971298 
7.097261e+3, 1.6522048e+2, -1321816.6, -1369416.9, -330.37683, 0.0019502437, 0.00016336261, -1321814.4, -974.10046, 0.0, 10.022179, 9.95922 
7.0972604e+3, 1.7517976e+2, -1223982.5, -1271894.4, -369.69647, 0.001951311, 0.000061836996, -1223979.6, -740.29785, 0.0, 10.022174, 9.958808 
7.0972604e+3, 1.8513241e+2, -1135975.5, -1193370.4, -414.38467, 0.0019524134, 0.00020611042, -1135972.5, -10269.198, 0.0, 10.022162, 9.946404 
7.09726e+3, 1.9507886e+2, -1037972.7, -1095616.9, -449.83597, 0.0019534584, 0.000070575996, -1037969.2, -9740.894, 0.0, 10.022143, 9.946061 
7.09726e+3, 2.0501855e+2, -950047.7, -1017587.25, -455.51492, 0.001954051, 0.00019105637, -950044.6, -19225.404, 0.0, 10.022122, 9.933149 
7.09726e+3, 2.1495174e+2, -851916.2, -919701.1, -488.5288, 0.0019541825, -0.0000022006802, -851912.7, -18438.701, 0.0, 10.022098, 9.932806 
7.09726e+3, 2.2487816e+2, -763851.8, -841772.5, -456.49222, 0.0019549746, 0.00024381341, -763849.1, -27654.123, 0.0, 10.022074, 9.919633 
7.09726e+3, 2.3479785e+2, -665568.44, -743730.0, -483.78098, 0.0019563837, 0.00002875847, -665565.44, -26583.457, 0.0, 10.022052, 9.9193 
7.09726e+3, 2.4471058e+2, -577361.6, -665927.1, -419.76163, 0.0019572093, 0.00018850593, -577359.6, -35522.543, 0.0, 10.022034, 9.905848 
7.0972604e+3, 2.5461656e+2, -478746.28, -567379.5, -440.87186, 0.0019573239, 0.000004961262, -478744.1, -33985.48, 0.0, 10.022018, 9.9057455 
7.097261e+3, 2.645154e+2, -390643.88, -490232.5, -343.88623, 0.0019577164, 0.00024940338, -390642.7, -42892.836, 0.0, 10.022013, 9.891615 
7.097261e+3, 2.7440757e+2, -291473.6, -390738.9, -357.9625, 0.0019583486, -0.00009842035, -291472.3, -40665.645, 0.0, 10.022015, 9.89203 
7.097262e+3, 2.8429163e+2, -204850.48, -317132.03, -230.40213, 0.0019591588, 0.00033175037, -204850.02, -50907.156, 0.0, 10.022027, 9.875357 
7.0972633e+3, 2.9416806e+2, -105211.46, -216883.77, -237.36633, 0.0019602212, -0.00015165067, -105210.96, -48057.086, 0.0, 10.022052, 9.876156 
7.0972645e+3, 3.0407202e+2, -16243.669, -85221.125, -76.48573, 0.001960811, 0.00026990188, -16243.584, -16243.584, 0.0, 10.022091, 9.9312315 
7.0972663e+3, 3.1400505e+2, -15148.933, -83073.7, -71.70148, 0.0019602478, 0.00003290555, -15148.856, -15148.856, 0.0, 10.022148, 9.932653 
7.107283e+3, 1.253212e+2, -1692054.0, -1720860.1, -80.918724, 0.0019525661, 0.0001876357, -1692053.8, 19799.684, 0.0, 10.022543, 9.984327 
7.1072835e+3, 1.3530537e+2, -1594740.1, -1624166.4, -130.66002, 0.0019547148, 0.000012445347, -1594739.5, 19268.941, 0.0, 10.022578, 9.983542 
7.1072835e+3, 1.4528294e+2, -1506829.6, -1545224.0, -255.036, 0.001956119, 0.00027419048, -1506828.0, 9400.353, 0.0, 10.022595, 9.971711 
7.1072835e+3, 1.5525462e+2, -1409217.1, -1448016.5, -300.89935, 0.0019564924, 0.00008146594, -1409214.8, 9291.007, 0.0, 10.022598, 9.971181 
7.107283e+3, 1.6521971e+2, -1321256.9, -1369246.1, -390.64447, 0.001957091, 0.0001626817, -1321253.6, -405.73224, 0.0, 10.022588, 9.959112 
7.107283e+3, 1.7517889e+2, -1223451.5, -1271740.0, -432.018, 0.0019580342, 0.00006099164, -1223447.6, -199.55696, 0.0, 10.022567, 9.9587 
7.107283e+3, 1.8513143e+2, -1135465.4, -1193215.3, -484.2873, 0.0019590629, 0.0002052524, -1135461.4, -9748.284, 0.0, 10.022537, 9.946308 
7.107282e+3, 1.9507776e+2, -1037495.25, -1095480.1, -521.23395, 0.0019600736, 0.00006984434, -1037490.56, -9251.637, 0.0, 10.022499, 9.945966 
7.107282e+3, 2.0501736e+2, -949594.1, -1017453.75, -530.39233, 0.0019607365, 0.00019039812, -949590.0, -18759.213, 0.0, 10.022459, 9.933062 
7.107282e+3, 2.1495047e+2, -851493.3, -919584.56, -564.3474, 0.0019610617, -0.0000028457343, -851488.6, -18002.236, 0.0, 10.022416, 9.932719 
7.1072817e+3, 2.2487682e+2, -763448.1, -841649.0, -532.54913, 0.0019618673, 0.00024313093, -763444.5, -27236.32, 0.0, 10.022373, 9.919561 
7.107282e+3, 2.3479643e+2, -665198.06, -743624.3, -559.91925, 0.0019631174, 0.00002797465, -665194.06, -26198.188, 0.0, 10.022331, 9.919229 
7.107282e+3, 2.447091e+2, -577012.2, -665819.3, -492.24564, 0.001963872, 0.00018781955, -577009.44, -35157.816, 0.0, 10.022293, 9.905787 
7.107282e+3, 2.54615e+2, -478424.25, -567286.1, -512.93207, 0.001963985, 0.0000046158966, -478421.28, -33647.547, 0.0, 10.022263, 9.905686 
7.107283e+3, 2.645138e+2, -390340.8, -490136.34, -409.36932, 0.001964534, 0.0002489818, -390339.13, -42573.617, 0.0, 10.022238, 9.891566 
7.1072835e+3, 2.7440593e+2, -291198.88, -390657.1, -421.61798, 0.001965468, -0.000099360506, -291197.1, -40374.297, 0.0, 10.0222225, 9.891982 
7.107284e+3, 2.8428996e+2, -204596.58, -317055.63, -283.78934, 0.0019661493, 0.0003308871, -204595.86, -50636.434, 0.0, 10.022219, 9.875314 
7.107286e+3, 2.9416633e+2, -104977.69, -216817.6, -288.9622, 0.0019665288, -0.00015167963, -104976.945, -47806.086, 0.0, 10.022231, 9.876113 
7.1072865e+3, 3.0407026e+2, -16019.5205, -85142.9, -114.18265, 0.0019671775, 0.0002699165, -16019.332, -16019.332, 0.0, 10.022258, 9.931205 
7.107289e+3, 3.1400323e+2, -14941.18, -83001.65, -105.18613, 0.0019676776, 0.000031954783, -14941.017, -14941.017, 0.0, 10.022303, 9.932628 
7.1173054e+3, 1.2532084e+2, -1692167.9, -1721071.0, -69.522514, 0.0019596894, 0.00018702242, -1692167.6, 19689.295, 0.0, 10.022542, 9.984199 
7.1173054e+3, 1.3530488e+2, -1594854.5, -1624376.8, -119.446396, 0.001961006, 0.000011078688, -1594854.0, 19159.18, 0.0, 10.022575, 9.983414 
7.1173054e+3, 1.4528231e+2, -1506938.5, -1545422.0, -255.79817, 0.0019623146, 0.000272871, -1506936.9, 9297.519, 0.0, 10.022593, 9.97159 
7.1173054e+3, 1.5525389e+2, -1409326.9, -1448214.3, -301.75995, 0.0019633002, 0.00008082054, -1409324.6, 9188.426, 0.0, 10.0225935, 9.971061 
7.1173054e+3, 1.6521886e+2, -1321359.5, -1369428.1, -400.31558, 0.0019641104, 0.00016215566, -1321356.3, -499.94183, 0.0, 10.022582, 9.959002 
7.1173054e+3, 1.7517792e+2, -1223555.4, -1271922.0, -441.67294, 0.0019649167, 0.00006005913, -1223551.4, -293.87286, 0.0, 10.022559, 9.9585905 
7.1173054e+3, 1.8513036e+2, -1135561.0, -1193379.0, -500.01566, 0.0019656878, 0.00020423913, -1135556.6, -9833.102, 0.0, 10.022528, 9.94621 
7.117305e+3, 1.950766e+2, -1037591.56, -1095643.8, -536.8488, 0.001966343, 0.00006904925, -1037586.6, -9336.296, 0.0, 10.022489, 9.945868 
7.117305e+3, 2.050161e+2, -949684.4, -1017603.06, -547.978, 0.0019672145, 0.00018972937, -949679.94, -18836.848, 0.0, 10.022447, 9.932973 
7.117304e+3, 2.1494913e+2, -851585.3, -919734.3, -581.8667, 0.0019682823, -0.0000034769325, -851580.3, -18080.768, 0.0, 10.022402, 9.932631 
7.117304e+3, 2.2487538e+2, -763528.7, -841773.8, -549.87317, 0.0019690676, 0.00024242265, -763524.8, -27302.654, 0.0, 10.022358, 9.919489 
7.117304e+3, 2.3479494e+2, -665279.2, -743748.75, -577.1733, 0.0019694967, 0.00002708146, -665274.94, -26264.395, 0.0, 10.022314, 9.919156 
7.117305e+3, 2.4470754e+2, -577085.4, -665925.4, -505.24612, 0.0019700597, 0.0001870808, -577082.5, -35215.555, 0.0, 10.022276, 9.905727 
7.117305e+3, 2.546134e+2, -478499.25, -567392.25, -525.649, 0.001970696, 0.00000436296, -478496.13, -33706.49, 0.0, 10.022243, 9.905627 
7.1173054e+3, 2.6451215e+2, -390408.03, -490223.97, -416.19293, 0.0019716166, 0.00024862358, -390406.28, -42624.355, 0.0, 10.022217, 9.89152 
7.1173054e+3, 2.744042e+2, -291266.47, -390743.84, -428.1059, 0.0019727596, -0.000100587145, -291264.63, -40424.957, 0.0, 10.022201, 9.891936 
7.1173066e+3, 2.8428817e+2, -204662.33, -317136.1, -280.24527, 0.0019730441, 0.0003297891, -204661.64, -50684.89, 0.0, 10.022196, 9.875273 
7.117308e+3, 2.941645e+2, -105045.08, -216898.06, -284.4458, 0.0019722674, -0.0001513989, -105044.35, -47855.785, 0.0, 10.022206, 9.876072 
7.117309e+3, 3.0406842e+2, -16075.703, -85197.2, -97.93729, 0.001973132, 0.00027026204, -16075.564, -16075.564, 0.0, 10.02223, 9.931181 
7.117311e+3, 3.1400138e+2, -14997.83, -83054.1, -87.69239, 0.0019756972, 0.000030530326, -14997.717, -14997.717, 0.0, 10.022275, 9.932606 
7.127328e+3, 1.2532042e+2, -1691481.1, -1720856.9, -95.35037, 0.0019661044, 0.0001860159, -1691480.9, 20380.203, 0.0, 10.023038, 9.984065 
7.1273285e+3, 1.3530433e+2, -1594193.0, -1624177.5, -148.97691, 0.0019677107, 0.00001028361, -1594192.3, 19826.342, 0.0, 10.023058, 9.983281 
7.1273285e+3, 1.4528164e+2, -1506297.3, -1545225.1, -301.3406, 0.0019690115, 0.0002720694, -1506295.0, 9946.0205, 0.0, 10.023059, 9.971466 
7.1273285e+3, 1.5525308e+2, -1408716.9, -1448035.1, -350.3887, 0.001969751, 0.000079889556, -1408713.8, 9807.08, 0.0, 10.023042, 9.970936 
7.127328e+3, 1.6521794e+2, -1320772.6, -1369249.5, -461.02322, 0.0019705505, 0.00016124011, -1320768.3, 97.01516, 0.0, 10.023011, 9.958889 
7.127328e+3, 1.7517687e+2, -1223003.9, -1271763.3, -504.63824, 0.001971543, 0.00005932171, -1222998.6, 269.00604, 0.0, 10.022967, 9.958477 
7.127328e+3, 1.8512921e+2, -1135033.4, -1193219.1, -571.0434, 0.0019723715, 0.00020355513, -1135027.9, -9293.141, 0.0, 10.022916, 9.94611 
7.127328e+3, 1.9507536e+2, -1037099.56, -1095503.8, -609.4194, 0.001972956, 0.00006829866, -1037093.25, -8830.744, 0.0, 10.022856, 9.945767 
7.1273273e+3, 2.0501477e+2, -949220.6, -1017466.9, -624.7722, 0.0019738146, 0.00018895009, -949214.9, -18358.719, 0.0, 10.022792, 9.932883 
7.1273273e+3, 2.1494769e+2, -851160.6, -919619.4, -659.6025, 0.0019749498, -0.000004258628, -851154.3, -17640.752, 0.0, 10.022723, 9.932541 
7.127327e+3, 2.2487387e+2, -763126.44, -841651.2, -627.3555, 0.0019757184, 0.00024174522, -763121.44, -26884.531, 0.0, 10.022656, 9.919416 
7.127327e+3, 2.3479335e+2, -664911.44, -743644.56, -654.87964, 0.0019760586, 0.000026602947, -664906.0, -25879.973, 0.0, 10.022592, 9.919085 
7.127327e+3, 2.447059e+2, -576741.94, -665818.4, -579.41766, 0.0019767105, 0.00018653389, -576738.2, -34855.125, 0.0, 10.022531, 9.905669 
7.1273273e+3, 2.546117e+2, -478192.38, -567304.1, -598.999, 0.001977599, 0.0000034815293, -478188.34, -33382.03, 0.0, 10.022474, 9.905569 
7.127328e+3, 2.6451036e+2, -390124.3, -490133.6, -481.76657, 0.0019784495, 0.00024784185, -390122.0, -42322.902, 0.0, 10.022428, 9.891475 
7.127328e+3, 2.744024e+2, -291011.63, -390667.94, -492.29456, 0.0019790884, -0.00010069347, -291009.2, -40151.92, 0.0, 10.022393, 9.8918915 
7.127329e+3, 2.8428632e+2, -204430.77, -317064.53, -333.4208, 0.0019794349, 0.000329659, -204429.77, -50435.03, 0.0, 10.022369, 9.875235 
7.1273303e+3, 2.9416263e+2, -104841.49, -216840.38, -334.68027, 0.0019794519, -0.00015246077, -104840.49, -47633.563, 0.0, 10.022362, 9.876036 
7.127331e+3, 3.040665e+2, -15885.563, -85127.414, -132.54518, 0.0019803497, 0.0002691518, -15885.31, -15885.31, 0.0, 10.02237, 9.931161 
7.127333e+3, 3.1399944e+2, -14825.353, -82990.9, -118.66511, 0.0019818242, 0.00003074587, -14825.146, -14825.146, 0.0, 10.022402, 9.932588 
7.137351e+3, 1.2531996e+2, -1691601.6, -1721081.8, -88.479904, 0.0019722825, 0.00018479316, -1691601.4, 20264.182, 0.0, 10.023038, 9.983927 
7.1373516e+3, 1.3530374e+2, -1594314.9, -1624402.4, -142.41138, 0.0019746362, 0.000009605107, -1594314.3, 19710.281, 0.0, 10.023056, 9.983143 
7.1373516e+3, 1.4528091e+2, -1506412.9, -1545435.6, -308.3125, 0.0019759485, 0.0002714378, -1506410.5, 9837.671, 0.0, 10.023055, 9.971337 
7.1373516e+3, 1.5525223e+2, -1408833.5, -1448245.5, -357.4271, 0.0019761052, 0.000078754696, -1408830.4, 9698.9795, 0.0, 10.023036, 9.970808 
7.137351e+3, 1.6521695e+2, -1320880.6, -1369441.0, -477.972, 0.0019767864, 0.0001600958, -1320875.9, -0.9943001, 0.0, 10.023005, 9.958773 
7.137351e+3, 1.7517579e+2, -1223112.9, -1271954.5, -521.5836, 0.0019780986, 0.000058589314, -1223107.3, 171.0668, 0.0, 10.02296, 9.958362 
7.1373504e+3, 1.85128e+2, -1135133.0, -1193389.5, -594.14355, 0.0019790982, 0.00020293558, -1135127.0, -9380.47, 0.0, 10.022906, 9.946008 
7.1373504e+3, 1.9507405e+2, -1037201.0, -1095674.5, -632.39215, 0.0019797347, 0.00006750192, -1037194.2, -8918.875, 0.0, 10.022844, 9.945665 
7.13735e+3, 2.0501336e+2, -949314.7, -1017620.8, -650.93945, 0.0019804905, 0.00018806687, -949308.5, -18438.563, 0.0, 10.0227785, 9.932793 
7.13735e+3, 2.149462e+2, -851255.7, -919773.25, -685.718, 0.0019813506, -0.0000051409306, -851248.8, -17720.621, 0.0, 10.022709, 9.93245 
7.13735e+3, 2.248723e+2, -763208.8, -841777.25, -652.11707, 0.0019821026, 0.00024102973, -763203.44, -26951.053, 0.0, 10.02264, 9.919345 
7.13735e+3, 2.347917e+2, -664995.94, -743771.0, -679.5119, 0.0019826835, 0.00002623817, -664990.1, -25947.912, 0.0, 10.022573, 9.919012 
7.13735e+3, 2.4470417e+2, -576816.8, -665922.5, -600.7458, 0.0019835152, 0.00018604446, -576812.8, -34912.914, 0.0, 10.022511, 9.905612 
7.13735e+3, 2.546099e+2, -478267.94, -567407.75, -620.13617, 0.0019845406, 0.0000022967324, -478263.63, -33439.957, 0.0, 10.022453, 9.905513 
7.13735e+3, 2.6450855e+2, -390191.8, -490217.84, -495.0861, 0.00198512, 0.00024688293, -390189.38, -42372.406, 0.0, 10.022405, 9.891431 
7.1373504e+3, 2.7440053e+2, -291080.88, -390751.97, -505.0714, 0.001985023, -0.00010040634, -291078.3, -40202.78, 0.0, 10.0223675, 9.891849 
7.137351e+3, 2.842844e+2, -204496.28, -317137.47, -336.2883, 0.0019856133, 0.00032986837, -204495.28, -50481.883, 0.0, 10.022343, 9.8752 
7.137353e+3, 2.941607e+2, -104908.055, -216912.77, -336.74893, 0.0019871586, -0.0001540753, -104907.05, -47681.105, 0.0, 10.022334, 9.876 
7.1373534e+3, 3.0406454e+2, -15940.978, -85173.75, -120.88285, 0.0019880168, 0.00026748455, -15940.767, -15940.767, 0.0, 10.022341, 9.931144 
7.137355e+3, 3.139975e+2, -14881.891, -83035.68, -105.40264, 0.001987134, 0.000031558546, -14881.728, -14881.728, 0.0, 10.02237, 9.932572 
7.147375e+3, 1.2531945e+2, -1690865.0, -1720852.5, -110.50652, 0.0019787624, 0.00018381048, -1690864.6, 21005.771, 0.0, 10.023569, 9.983784 
7.147375e+3, 1.353031e+2, -1593610.6, -1624191.8, -168.73338, 0.001980957, 0.000008676652, -1593609.6, 20421.084, 0.0, 10.02357, 9.983 
7.147375e+3, 1.4528014e+2, -1505733.0, -1545227.0, -352.05734, 0.0019822954, 0.0002705531, -1505729.9, 10525.8955, 0.0, 10.023549, 9.971205 
7.147375e+3, 1.5525131e+2, -1408190.1, -1448057.5, -404.333, 0.0019826717, 0.00007798581, -1408186.0, 10352.199, 0.0, 10.02351, 9.970676 
7.147375e+3, 1.6521592e+2, -1320263.9, -1369253.8, -538.0395, 0.0019833571, 0.0001593252, -1320257.9, 627.098, 0.0, 10.023456, 9.958653 
7.147374e+3, 1.7517462e+2, -1222536.0, -1271789.5, -584.13275, 0.0019844577, 0.00005774846, -1222529.0, 760.6326, 0.0, 10.023388, 9.958242 
7.147374e+3, 1.8512674e+2, -1134584.8, -1193223.4, -665.7233, 0.0019854787, 0.00020210378, -1134577.3, -8818.332, 0.0, 10.02331, 9.945904 
7.1473736e+3, 1.9507268e+2, -1036696.5, -1095532.4, -705.56903, 0.0019863488, 0.00006675231, -1036688.0, -8399.299, 0.0, 10.023221, 9.945561 
7.147373e+3, 2.050119e+2, -948842.3, -1017482.94, -728.31226, 0.0019870931, 0.00018739203, -948834.56, -17950.258, 0.0, 10.02313, 9.9327 
7.1473724e+3, 2.1494465e+2, -850824.4, -919657.7, -764.12634, 0.0019877271, -0.0000057611574, -850815.94, -17272.447, 0.0, 10.023035, 9.932358 
7.1473724e+3, 2.2487067e+2, -762803.94, -841653.2, -730.7717, 0.001988531, 0.00024036909, -762797.1, -26528.7, 0.0, 10.022941, 9.919272 
7.1473724e+3, 2.3479e+2, -664635.3, -743670.25, -758.2398, 0.0019894673, 0.000025418458, -664628.0, -25569.045, 0.0, 10.022846, 9.918941 
7.1473724e+3, 2.4470241e+2, -576484.7, -665819.0, -675.0117, 0.001990269, 0.00018532111, -576479.6, -34562.336, 0.0, 10.022758, 9.905557 
7.1473724e+3, 2.5460806e+2, -477973.44, -567323.56, -693.7469, 0.0019907998, 0.0000019840415, -477968.06, -33126.426, 0.0, 10.022676, 9.9054575 
7.1473724e+3, 2.645067e+2, -389923.66, -490130.63, -560.54944, 0.001991436, 0.0002464961, -389920.5, -42085.125, 0.0, 10.022604, 9.89139 
7.147373e+3, 2.7439862e+2, -290850.34, -390683.44, -568.6457, 0.001991989, -0.0001013703, -290847.13, -39952.75, 0.0, 10.022542, 9.8918085 
7.1473736e+3, 2.8428248e+2, -204294.03, -317074.03, -387.49695, 0.0019925835, 0.0003289729, -204292.7, -50260.117, 0.0, 10.022495, 9.875168 
7.147375e+3, 2.941587e+2, -104736.12, -216864.16, -385.30115, 0.001993301, -0.00015407297, -104734.8, -47489.367, 0.0, 10.022466, 9.87597 
7.147376e+3, 3.0406255e+2, -15784.52, -85111.36, -152.52164, 0.0019941183, 0.00026754328, -15784.184, -15784.184, 0.0, 10.022454, 9.931131 
7.147378e+3, 3.1399545e+2, -14748.887, -82982.42, -132.5845, 0.0019942555, 0.00003061412, -14748.63, -14748.63, 0.0, 10.022467, 9.932562 
7.157398e+3, 1.2531893e+2, -1690994.3, -1721094.4, -109.89088, 0.0019854216, 0.000182884, -1690993.9, 20881.688, 0.0, 10.023569, 9.983635 
7.1573985e+3, 1.3530242e+2, -1593740.8, -1624433.4, -168.31389, 0.0019870955, 0.0000075185326, -1593739.9, 20297.504, 0.0, 10.023568, 9.982852 
7.1573985e+3, 1.4527932e+2, -1505854.6, -1545449.8, -366.18655, 0.0019884415, 0.00026952472, -1505851.3, 10412.5, 0.0, 10.023546, 9.971069 
7.1573985e+3, 1.5525036e+2, -1408313.3, -1448280.3, -418.6266, 0.0019893574, 0.00007727116, -1408308.9, 10238.657, 0.0, 10.023505, 9.97054 
7.157398e+3, 1.6521482e+2, -1320377.8, -1369455.6, -563.1747, 0.0019900869, 0.00015863894, -1320371.3, 524.4209, 0.0, 10.023449, 9.958531 
7.157397e+3, 1.7517342e+2, -1222651.5, -1271991.5, -609.21564, 0.001990792, 0.000056792913, -1222643.9, 657.5719, 0.0, 10.023378, 9.95812 
7.157397e+3, 1.8512543e+2, -1134688.9, -1193400.8, -698.12384, 0.0019917483, 0.00020112185, -1134680.6, -8908.784, 0.0, 10.023298, 9.945798 
7.1573967e+3, 1.9507127e+2, -1036801.94, -1095709.9, -737.8699, 0.0019928897, 0.00006596089, -1036792.7, -8489.988, 0.0, 10.023209, 9.945456 
7.157396e+3, 2.0501037e+2, -948939.7, -1017641.5, -763.2246, 0.0019936666, 0.00018674348, -948931.2, -18031.943, 0.0, 10.023116, 9.932607 
7.1573955e+3, 2.1494302e+2, -850924.1, -919816.94, -798.9461, 0.0019940787, -0.000006318485, -850914.9, -17355.527, 0.0, 10.023019, 9.932264 
7.157395e+3, 2.2486895e+2, -762889.06, -841780.4, -765.45294, 0.0019949526, 0.00023968157, -762881.6, -26596.5, 0.0, 10.0229225, 9.9192 
7.157395e+3, 2.3478822e+2, -664721.56, -743797.3, -792.83075, 0.0019962506, 0.000024386301, -664713.6, -25637.246, 0.0, 10.022826, 9.918868 
7.157395e+3, 2.4470057e+2, -576560.4, -665921.44, -704.6636, 0.0019969128, 0.00018450369, -576554.8, -34619.52, 0.0, 10.022736, 9.905501 
7.157395e+3, 2.546062e+2, -478051.25, -567426.2, -723.12775, 0.0019967775, 0.000001950419, -478045.4, -33185.242, 0.0, 10.022653, 9.905402 
7.157395e+3, 2.6450473e+2, -389991.9, -490210.1, -582.5557, 0.0019975821, 0.0002463273, -389988.53, -42134.133, 0.0, 10.022578, 9.891351 
7.1573955e+3, 2.7439663e+2, -290919.72, -390762.22, -590.16125, 0.0019993165, -0.00010285326, -290916.22, -40002.465, 0.0, 10.022515, 9.89177 
7.157396e+3, 2.8428045e+2, -204359.19, -317140.66, -397.34912, 0.001999804, 0.00032762103, -204357.78, -50305.46, 0.0, 10.022466, 9.875138 
7.157397e+3, 2.9415667e+2, -104803.04, -216930.53, -394.17804, 0.0019987752, -0.0001534723, -104801.66, -47536.22, 0.0, 10.022434, 9.87594 
7.1573985e+3, 3.0406046e+2, -15838.654, -85147.31, -146.64375, 0.0019995635, 0.0002682865, -15838.344, -15838.344, 0.0, 10.022421, 9.931123 
7.1574e+3, 3.1399336e+2, -14804.341, -83016.53, -125.01457, 0.0020019915, 0.000028957927, -14804.111, -14804.111, 0.0, 10.022431, 9.932556 
7.1674216e+3, 1.253184e+2, -1690204.9, -1720848.5, -127.168655, 0.0019917043, 0.00018200856, -1690204.4, 21676.516, 0.0, 10.024139, 9.983481 
7.167422e+3, 1.3530172e+2, -1592987.9, -1624208.4, -189.81148, 0.0019934648, 0.0000065929494, -1592986.6, 21057.527, 0.0, 10.024117, 9.982698 
7.167422e+3, 1.4527847e+2, -1505130.5, -1545227.6, -406.85468, 0.0019947751, 0.0002685695, -1505126.4, 11145.723, 0.0, 10.024073, 9.970928 
7.1674216e+3, 1.5524937e+2, -1407632.4, -1448082.4, -462.96573, 0.0019955696, 0.00007639607, -1407627.1, 10930.109, 0.0, 10.024007, 9.9704 
7.1674216e+3, 1.6521372e+2, -1319728.4, -1369258.1, -621.83954, 0.0019963721, 0.0001578035, -1319720.5, 1186.0701, 0.0, 10.023924, 9.958406 
7.1674216e+3, 1.7517218e+2, -1222049.1, -1271820.1, -670.329, 0.0019973058, 0.00005600588, -1222040.0, 1273.6277, 0.0, 10.023827, 9.957995 
7.1674204e+3, 1.8512407e+2, -1134119.1, -1193228.4, -768.7812, 0.0019982157, 0.00020036918, -1134109.1, -8323.974, 0.0, 10.023718, 9.94569 
7.16742e+3, 1.9506977e+2, -1036279.5, -1095563.6, -810.3369, 0.0019990467, 0.00006523048, -1036268.44, -7951.362, 0.0, 10.023601, 9.945347 
7.167419e+3, 2.050088e+2, -948454.44, -1017499.56, -840.67163, 0.0019998914, 0.00018600635, -948444.2, -17529.586, 0.0, 10.023477, 9.932513 
7.167419e+3, 2.1494137e+2, -850489.75, -919702.4, -877.3438, 0.0020007703, -0.0000071044756, -850478.6, -16903.03, 0.0, 10.023349, 9.932171 
7.1674186e+3, 2.2486721e+2, -762485.2, -841656.8, -843.61096, 0.0020016148, 0.0002389749, -762476.2, -26173.936, 0.0, 10.023222, 9.919128 
7.167418e+3, 2.3478639e+2, -664363.8, -743698.0, -871.1567, 0.0020023864, 0.000023866332, -664354.25, -25260.086, 0.0, 10.023097, 9.918797 
7.1674174e+3, 2.4469869e+2, -576235.3, -665819.0, -778.5497, 0.0020030881, 0.00018394712, -576228.5, -34274.793, 0.0, 10.022977, 9.905447 
7.1674174e+3, 2.5460425e+2, -477773.47, -567347.9, -796.197, 0.0020035722, 0.0000011475489, -477766.4, -32887.277, 0.0, 10.022863, 9.905349 
7.1674174e+3, 2.6450273e+2, -389745.3, -490128.6, -646.3339, 0.0020044176, 0.00024559087, -389741.16, -41867.355, 0.0, 10.02276, 9.8913145 
7.167418e+3, 2.7439463e+2, -290713.4, -390700.53, -652.01196, 0.0020054313, -0.00010306534, -290709.16, -39775.66, 0.0, 10.022671, 9.891735 
7.1674186e+3, 2.8427842e+2, -204184.69, -317084.16, -445.7941, 0.0020058623, 0.00032739915, -204182.94, -50110.566, 0.0, 10.022596, 9.875113 
7.167419e+3, 2.941546e+2, -104665.61, -216891.95, -439.5446, 0.0020056337, -0.00015439485, -104663.89, -47378.156, 0.0, 10.02254, 9.875916 
7.167421e+3, 3.0405837e+2, -15720.73, -85093.63, -173.67874, 0.0020065473, 0.00026731068, -15720.296, -15720.296, 0.0, 10.022503, 9.93112 
7.167423e+3, 3.139913e+2, -14715.227, -82974.24, -147.31548, 0.0020080863, 0.00002898295, -14714.909, -14714.909, 0.0, 10.022493, 9.932555 
7.1774465e+3, 1.2531783e+2, -1690341.4, -1721106.0, -133.29654, 0.0019978883, 0.00018109685, -1690340.9, 21545.563, 0.0, 10.02414, 9.983323 
7.1774465e+3, 1.3530101e+2, -1593126.3, -1624466.0, -196.31676, 0.0019999868, 0.0000056305557, -1593125.0, 20926.244, 0.0, 10.0241165, 9.98254 
7.1774465e+3, 1.452776e+2, -1505260.0, -1545465.4, -429.73492, 0.0020012264, 0.0002676278, -1505255.5, 11025.106, 0.0, 10.02407, 9.970783 
7.1774465e+3, 1.5524836e+2, -1407763.5, -1448320.0, -485.8999, 0.0020016397, 0.000075363154, -1407757.6, 10809.506, 0.0, 10.024001, 9.970255 
7.177446e+3, 1.6521257e+2, -1319847.6, -1369470.0, -656.625, 0.002002505, 0.00015684271, -1319838.9, 1078.9926, 0.0, 10.023917, 9.958278 
7.1774447e+3, 1.751709e+2, -1222170.0, -1272032.0, -705.15015, 0.0020039158, 0.00005521694, -1222160.0, 1166.1958, 0.0, 10.023817, 9.957868 
7.177444e+3, 1.8512267e+2, -1134228.0, -1193413.6, -811.112, 0.002004772, 0.00019964909, -1134216.9, -8418.037, 0.0, 10.023706, 9.94558 
7.177444e+3, 1.9506827e+2, -1036390.7, -1095749.4, -852.5019, 0.0020050784, 0.00006446483, -1036378.5, -8046.608, 0.0, 10.023586, 9.945236 
7.177443e+3, 2.0500718e+2, -948555.8, -1017662.7, -886.70496, 0.0020059992, 0.00018518222, -948544.44, -17613.977, 0.0, 10.023461, 9.932417 
7.1774423e+3, 2.1493965e+2, -850592.7, -919865.8, -923.307, 0.0020075254, -0.000008007601, -850580.4, -16988.008, 0.0, 10.023332, 9.932075 
7.177441e+3, 2.2486542e+2, -762572.1, -841785.06, -888.33746, 0.0020082954, 0.00023822061, -762562.2, -26242.357, 0.0, 10.023203, 9.919056 
7.177441e+3, 2.3478453e+2, -664453.3, -743826.75, -915.7696, 0.0020082346, 0.00002351753, -664442.75, -25330.326, 0.0, 10.023075, 9.918725 
7.1774405e+3, 2.4469677e+2, -576312.8, -665919.8, -818.9667, 0.0020090183, 0.00018350086, -576305.3, -34332.723, 0.0, 10.022953, 9.905394 
7.1774405e+3, 2.5460228e+2, -477852.5, -567448.4, -836.3458, 0.0020106283, -0.000000007396062, -477844.7, -32946.156, 0.0, 10.022838, 9.905296 
7.1774405e+3, 2.6450074e+2, -389813.3, -490202.78, -677.51385, 0.002011432, 0.00024464328, -389808.75, -41915.094, 0.0, 10.022733, 9.89128 
7.177441e+3, 2.7439255e+2, -290783.38, -390774.34, -682.669, 0.0020110405, -0.00010281313, -290778.7, -39825.027, 0.0, 10.022641, 9.891701 
7.177441e+3, 2.842763e+2, -204249.75, -317143.38, -464.29868, 0.002011429, 0.0003275975, -204247.83, -50155.016, 0.0, 10.022564, 9.875089 
7.1774423e+3, 2.9415247e+2, -104732.625, -216950.89, -456.97598, 0.0020129508, -0.00015592622, -104730.76, -47424.344, 0.0, 10.022506, 9.875893 
7.1774435e+3, 3.0405626e+2, -15773.291, -85118.53, -174.97691, 0.00201405, 0.0002656976, -15772.85, -15772.85, 0.0, 10.022467, 9.93112 
7.177445e+3, 3.139892e+2, -14768.786, -82996.82, -146.91133, 0.0020134274, 0.000029646013, -14768.471, -14768.471, 0.0, 10.022455, 9.932558 
7.187471e+3, 1.2531728e+2, -1689491.9, -1720841.0, -144.3246, 0.002003984, 0.00017996621, -1689491.1, 22400.62, 0.0, 10.024754, 9.983158 
7.187471e+3, 1.353003e+2, -1592321.8, -1624226.8, -212.32852, 0.0020061547, 0.0000047816325, -1592320.4, 21737.85, 0.0, 10.024704, 9.982375 
7.187471e+3, 1.4527674e+2, -1504489.1, -1545228.1, -466.3482, 0.0020074593, 0.00026682866, -1504483.8, 11805.332, 0.0, 10.02463, 9.9706335 
7.18747e+3, 1.5524733e+2, -1407041.8, -1448110.4, -526.03735, 0.00200794, 0.00007450771, -1407035.0, 11542.167, 0.0, 10.024533, 9.970105 
7.1874696e+3, 1.6521141e+2, -1319162.0, -1369261.5, -712.24677, 0.002008736, 0.00015596725, -1319151.9, 1777.4176, 0.0, 10.024419, 9.958146 
7.187469e+3, 1.751696e+2, -1221537.4, -1271852.8, -763.6661, 0.002009931, 0.000054410157, -1221525.8, 1813.1484, 0.0, 10.024287, 9.957735 
7.1874684e+3, 1.8512125e+2, -1133633.1, -1193233.0, -880.1228, 0.0020109045, 0.00019888187, -1133620.1, -7807.4556, 0.0, 10.024144, 9.945467 
7.187467e+3, 1.9506674e+2, -1035852.25, -1095599.6, -923.20636, 0.0020116367, 0.00006371425, -1035838.0, -7491.1445, 0.0, 10.02399, 9.945124 
7.187466e+3, 2.0500557e+2, -948059.1, -1017517.7, -962.41, 0.002012489, 0.00018446245, -948045.8, -17099.37, 0.0, 10.023831, 9.932321 
7.187466e+3, 2.1493791e+2, -850150.2, -919749.9, -1000.07916, 0.0020134896, -0.000008696279, -850135.8, -16526.533, 0.0, 10.023667, 9.931978 
7.187465e+3, 2.248636e+2, -762164.8, -841659.7, -965.2746, 0.0020143087, 0.0002375394, -762153.1, -25815.533, 0.0, 10.023504, 9.918984 
7.187464e+3, 2.3478265e+2, -664102.2, -743730.8, -992.84424, 0.0020149106, 0.000022789112, -664089.8, -24958.936, 0.0, 10.023341, 9.918653 
7.1874636e+3, 2.4469481e+2, -575999.3, -665820.4, -890.81335, 0.00201573, 0.00018283528, -575990.5, -33998.797, 0.0, 10.023186, 9.905342 
7.1874636e+3, 2.546003e+2, -477589.56, -567374.6, -907.2673, 0.00201663, -0.00000045073278, -477580.4, -32662.305, 0.0, 10.023037, 9.905245 
7.1874636e+3, 2.6449868e+2, -389585.75, -490125.88, -738.5146, 0.002017411, 0.00024414898, -389580.34, -41666.72, 0.0, 10.0229, 9.891248 
7.1874636e+3, 2.743905e+2, -290604.13, -390721.06, -741.74915, 0.0020177318, -0.00010358074, -290598.63, -39624.67, 0.0, 10.022777, 9.89167 
7.1874636e+3, 2.8427422e+2, -204107.4, -317094.7, -508.81555, 0.0020182217, 0.00032687723, -204105.11, -49991.76, 0.0, 10.022669, 9.87507 
7.187465e+3, 2.9415035e+2, -104632.85, -216922.52, -497.96268, 0.0020190466, -0.00015618514, -104630.65, -47303.52, 0.0, 10.022582, 9.8758745 
7.187466e+3, 3.0405414e+2, -15696.944, -85075.41, -195.958, 0.0020200445, 0.0002654881, -15696.391, -15696.391, 0.0, 10.022516, 9.931126 
7.187468e+3, 3.1398705e+2, -14725.553, -82967.0, -163.19403, 0.0020201139, 0.00002903598, -14725.163, -14725.163, 0.0, 10.022481, 9.932566 
7.1974957e+3, 1.2531674e+2, -1689638.1, -1721118.0, -159.30228, 0.0020101105, 0.00017872606, -1689637.4, 22259.768, 0.0, 10.0247555, 9.982987 
7.1974957e+3, 1.3529958e+2, -1592469.6, -1624503.5, -227.53363, 0.0020122426, 0.0000038235275, -1592468.0, 21597.223, 0.0, 10.024703, 9.982205 
7.197495e+3, 1.4527585e+2, -1504625.3, -1545479.3, -498.9543, 0.0020136372, 0.0002660659, -1504619.1, 11678.572, 0.0, 10.024627, 9.97048 
7.1974945e+3, 1.552463e+2, -1407179.9, -1448361.5, -558.853, 0.002014361, 0.000073635594, -1407172.4, 11414.93, 0.0, 10.0245285, 9.969952 
7.197494e+3, 1.6521022e+2, -1319288.0, -1369485.6, -757.9875, 0.0020150288, 0.00015507838, -1319276.5, 1664.2233, 0.0, 10.024411, 9.95801 
7.1974933e+3, 1.7516829e+2, -1221665.5, -1272077.1, -809.3249, 0.0020157672, 0.000053526976, -1221652.5, 1699.2307, 0.0, 10.024278, 9.9576 
7.197493e+3, 1.8511981e+2, -1133746.8, -1193425.5, -934.36694, 0.0020168896, 0.00019803828, -1133732.1, -7905.311, 0.0, 10.024132, 9.945352 
7.197491e+3, 1.950652e+2, -1035967.8, -1095792.5, -977.3605, 0.002018376, 0.00006291707, -1035951.8, -7589.7954, 0.0, 10.023975, 9.945009 
7.1974903e+3, 2.050039e+2, -948163.94, -1017685.56, -1020.0509, 0.0020191092, 0.00018374305, -948149.0, -17186.307, 0.0, 10.023814, 9.932222 
7.197489e+3, 2.1493615e+2, -850257.75, -919918.56, -1057.6063, 0.0020191136, -0.000009317752, -850241.7, -16615.19, 0.0, 10.023648, 9.93188 
7.1974885e+3, 2.2486176e+2, -762254.7, -841789.3, -1022.5252, 0.002020016, 0.00023685429, -762241.56, -25885.94, 0.0, 10.023483, 9.918912 
7.197488e+3, 2.3478073e+2, -664194.1, -743860.6, -1049.9713, 0.002021816, 0.000021897633, -664180.25, -25030.594, 0.0, 10.023318, 9.918581 
7.197487e+3, 2.4469285e+2, -576077.5, -665918.5, -942.51685, 0.002022615, 0.00018210727, -576067.6, -34056.566, 0.0, 10.02316, 9.905292 
7.197486e+3, 2.5459826e+2, -477670.16, -567472.9, -958.721, 0.0020221875, -0.0000006672795, -477659.9, -32721.975, 0.0, 10.023008, 9.905195 
7.197486e+3, 2.6449662e+2, -389654.63, -490195.47, -780.85474, 0.0020229262, 0.00024385664, -389648.56, -41714.69, 0.0, 10.022869, 9.891217 
7.197486e+3, 2.743884e+2, -290674.97, -390790.22, -783.45776, 0.0020247733, -0.00010476124, -290668.84, -39674.35, 0.0, 10.022743, 9.891641 
7.197486e+3, 2.842721e+2, -204171.28, -317144.75, -537.2143, 0.002025396, 0.00032579503, -204168.73, -50034.61, 0.0, 10.022634, 9.875054 
7.1974874e+3, 2.9414824e+2, -104698.65, -216972.03, -525.3596, 0.0020245789, -0.00015595788, -104696.195, -47348.164, 0.0, 10.022545, 9.87586 
7.1974885e+3, 3.04052e+2, -15748.288, -85090.016, -205.4568, 0.0020253805, 0.0002658686, -15747.68, -15747.68, 0.0, 10.022477, 9.931134 
7.1974903e+3, 3.1398496e+2, -14779.039, -82979.71, -170.59114, 0.0020271768, 0.000027927932, -14778.612, -14778.612, 0.0, 10.022438, 9.932577 
7.2075206e+3, 1.2531623e+2, -1688724.8, -1720832.0, -162.92422, 0.0020162605, 0.00017793039, -1688724.0, 23178.072, 0.0, 10.025414, 9.982811 
7.2075206e+3, 1.352989e+2, -1591606.9, -1624246.3, -235.97502, 0.002018251, 0.0000028060992, -1591605.3, 22466.682, 0.0, 10.025333, 9.982029 
7.20752e+3, 1.4527501e+2, -1503801.5, -1545225.3, -529.7759, 0.0020195958, 0.0002650183, -1503794.8, 12511.271, 0.0, 10.025226, 9.970321 
7.2075194e+3, 1.552453e+2, -1406413.6, -1448139.6, -593.8637, 0.002020338, 0.00007283887, -1406405.1, 12191.982, 0.0, 10.025093, 9.969793 
7.207519e+3, 1.6520907e+2, -1318563.3, -1369264.1, -809.6262, 0.0020211353, 0.00015431186, -1318550.3, 2401.8093, 0.0, 10.024941, 9.957871 
7.207518e+3, 1.75167e+2, -1221001.5, -1271889.1, -863.6175, 0.0020220832, 0.000052655832, -1220986.9, 2377.5571, 0.0, 10.024772, 9.957461 
7.2075164e+3, 1.8511839e+2, -1133125.6, -1193236.8, -999.7104, 0.0020231064, 0.00019717545, -1133109.0, -7268.2285, 0.0, 10.02459, 9.945234 
7.207516e+3, 1.9506367e+2, -1035408.25, -1095637.4, -1044.7281, 0.0020241984, 0.000062177714, -1035390.1, -7013.0254, 0.0, 10.024395, 9.944892 
7.207514e+3, 2.0500226e+2, -947651.7, -1017535.06, -1093.0953, 0.0020250303, 0.00018305841, -947634.56, -16655.758, 0.0, 10.024196, 9.932123 
7.2075135e+3, 2.1493442e+2, -849809.44, -919802.25, -1131.63, 0.002025651, -0.000010027354, -849791.1, -16147.487, 0.0, 10.02399, 9.931782 
7.207512e+3, 2.2485992e+2, -761846.6, -841663.4, -1096.4218, 0.002026545, 0.00023616618, -761831.56, -25458.018, 0.0, 10.023786, 9.91884 
7.207511e+3, 2.3477882e+2, -663846.56, -743766.2, -1123.9519, 0.0020277, 0.000021240838, -663830.75, -24662.447, 0.0, 10.0235815, 9.9185095 
7.2075105e+3, 2.4469087e+2, -575772.5, -665820.75, -1011.0086, 0.0020284941, 0.00018144955, -575761.1, -33730.855, 0.0, 10.023385, 9.905243 
7.207509e+3, 2.5459623e+2, -477424.5, -567405.1, -1026.3975, 0.0020287125, -0.0000013193991, -477412.78, -32455.127, 0.0, 10.023196, 9.905147 
7.207509e+3, 2.6449457e+2, -389449.7, -490123.9, -837.7061, 0.002029566, 0.00024323307, -389442.72, -41488.754, 0.0, 10.023019, 9.891191 
7.2075087e+3, 2.7438632e+2, -290524.16, -390744.97, -837.95026, 0.0020308008, -0.00010521678, -290517.16, -39502.305, 0.0, 10.022858, 9.891615 
7.207509e+3, 2.8427002e+2, -204062.17, -317104.8, -575.7826, 0.0020313102, 0.00032536153, -204059.23, -49904.582, 0.0, 10.022714, 9.875042 
7.20751e+3, 2.9414612e+2, -104637.695, -216954.92, -560.5875, 0.0020310096, -0.00015655722, -104634.9, -47266.22, 0.0, 10.022592, 9.875849 
7.2075105e+3, 3.040499e+2, -15715.1045, -85056.32, -219.59785, 0.0020319629, 0.00026522542, -15714.409, -15714.409, 0.0, 10.022492, 9.93115 
7.207513e+3, 3.1398284e+2, -14787.706, -82963.164, -179.0794, 0.0020333505, 0.000027529239, -14787.236, -14787.236, 0.0, 10.022424, 9.932596 
7.217546e+3, 1.2531576e+2, -1688879.4, -1721126.6, -187.5153, 0.0020224622, 0.0001772584, -1688878.3, 23028.51, 0.0, 10.025416, 9.982629 
7.217546e+3, 1.3529824e+2, -1591763.9, -1624541.0, -260.97977, 0.0020242955, 0.0000016181491, -1591761.8, 22316.627, 0.0, 10.025333, 9.981847 
7.2175455e+3, 1.4527418e+2, -1503946.4, -1545493.1, -574.00366, 0.0020255193, 0.00026388458, -1503938.5, 12375.685, 0.0, 10.025223, 9.970156 
7.217545e+3, 1.5524429e+2, -1406560.6, -1448407.4, -638.1398, 0.002026184, 0.000071975584, -1406550.9, 12056.031, 0.0, 10.025088, 9.969629 
7.217544e+3, 1.6520792e+2, -1318695.0, -1369498.9, -867.8199, 0.002027184, 0.00015353998, -1318680.1, 2283.2058, 0.0, 10.024934, 9.957728 
7.2175425e+3, 1.751657e+2, -1221135.6, -1272124.1, -921.86914, 0.0020286005, 0.000051734933, -1221119.0, 2258.1384, 0.0, 10.024761, 9.957319 
7.2175413e+3, 1.8511696e+2, -1133244.5, -1193438.0, -1066.9248, 0.0020294106, 0.00019627254, -1133225.6, -7370.883, 0.0, 10.024576, 9.945115 
7.21754e+3, 1.950621e+2, -1035529.9, -1095839.4, -1111.769, 0.0020296818, 0.00006141295, -1035509.4, -7117.136, 0.0, 10.02438, 9.944772 
7.2175384e+3, 2.050006e+2, -947760.4, -1017707.5, -1164.5828, 0.002030687, 0.0001823477, -947741.0, -16745.99, 0.0, 10.024178, 9.932023 
7.217537e+3, 2.1493267e+2, -849920.6, -919975.4, -1203.0056, 0.0020324446, -0.000010779831, -849899.94, -16239.14, 0.0, 10.02397, 9.931682 
7.2175354e+3, 2.2485809e+2, -761938.56, -841793.75, -1166.9246, 0.0020332811, 0.00023545476, -761921.5, -25529.879, 0.0, 10.023763, 9.918768 
7.217535e+3, 2.3477691e+2, -663941.25, -743897.1, -1194.3599, 0.0020331282, 0.0000206803, -663923.44, -24736.387, 0.0, 10.023557, 9.918438 
7.2175336e+3, 2.446889e+2, -575852.5, -665917.25, -1076.1382, 0.0020338832, 0.00018086511, -575839.6, -33790.02, 0.0, 10.023357, 9.905194 
7.217533e+3, 2.5459424e+2, -477506.94, -567501.7, -1091.2015, 0.0020355273, -0.0000021826447, -477493.72, -32516.254, 0.0, 10.023166, 9.905099 
7.2175324e+3, 2.644925e+2, -389518.1, -490186.88, -892.45013, 0.0020365107, 0.00024252354, -389510.16, -41536.055, 0.0, 10.022986, 9.891166 
7.217532e+3, 2.7438426e+2, -290594.66, -390807.34, -892.1696, 0.0020363724, -0.00010539707, -290586.72, -39551.492, 0.0, 10.022822, 9.891591 
7.217532e+3, 2.842679e+2, -204125.63, -317147.0, -615.51843, 0.0020366625, 0.00032518787, -204122.27, -49947.063, 0.0, 10.0226755, 9.875032 
7.217533e+3, 2.94144e+2, -104704.07, -216997.0, -599.0293, 0.0020376712, -0.00015747479, -104700.875, -47311.563, 0.0, 10.022551, 9.87584 
7.217533e+3, 3.040478e+2, -15764.369, -85057.5, -239.32413, 0.0020389117, 0.0002642506, -15763.542, -15763.542, 0.0, 10.022449, 9.93117 
7.2175354e+3, 3.139808e+2, -14838.062, -82961.42, -196.92764, 0.0020390006, 0.000027449472, -14837.493, -14837.493, 0.0, 10.022378, 9.932619 
7.2275716e+3, 1.2531535e+2, -1687894.9, -1720817.1, -181.89255, 0.0020281882, 0.0001760025, -1687893.9, 24016.736, 0.0, 10.026126, 9.98244 
7.227571e+3, 1.3529764e+2, -1590839.8, -1624265.6, -260.9473, 0.002030259, 0.0000008369516, -1590837.6, 23246.47, 0.0, 10.026009, 9.981659 
7.227571e+3, 1.452734e+2, -1503066.8, -1545220.3, -597.7999, 0.002031584, 0.0002631388, -1503058.4, 13263.362, 0.0, 10.025862, 9.969988 
7.2275704e+3, 1.5524337e+2, -1405745.6, -1448170.6, -665.8447, 0.0020321882, 0.000070994996, -1405735.1, 12880.919, 0.0, 10.025689, 9.9694605 
7.2275686e+3, 1.6520683e+2, -1317927.3, -1369263.6, -913.28345, 0.0020330972, 0.00015253862, -1317911.0, 3063.0225, 0.0, 10.025495, 9.957582 
7.227568e+3, 1.7516446e+2, -1220436.1, -1271926.3, -970.53955, 0.002034381, 0.00005098888, -1220417.8, 2971.4531, 0.0, 10.025282, 9.957172 
7.227566e+3, 1.8511559e+2, -1132593.5, -1193239.0, -1127.4858, 0.0020353212, 0.00019559523, -1132572.5, -6704.3647, 0.0, 10.025055, 9.944993 
7.2275645e+3, 1.9506061e+2, -1034949.44, -1095678.6, -1174.1691, 0.0020359664, 0.000060642597, -1034926.75, -6519.8633, 0.0, 10.024816, 9.944651 
7.227563e+3, 2.04999e+2, -947232.7, -1017551.7, -1232.8595, 0.0020369084, 0.00018153996, -947211.1, -16200.325, 0.0, 10.0245695, 9.931922 
7.2275615e+3, 2.1493095e+2, -849462.7, -919856.7, -1272.3079, 0.0020382102, -0.000011579207, -849439.7, -15762.144, 0.0, 10.024318, 9.93158 
7.2275597e+3, 2.2485629e+2, -761526.5, -841665.7, -1236.2285, 0.002039092, 0.00023473961, -761507.44, -25098.258, 0.0, 10.024067, 9.918696 
7.227558e+3, 2.3477505e+2, -663598.75, -743805.2, -1263.8578, 0.002039514, 0.00002007913, -663578.8, -24373.504, 0.0, 10.023817, 9.918366 
7.2275573e+3, 2.4468698e+2, -575558.1, -665821.6, -1139.6602, 0.0020403424, 0.00018027771, -575543.75, -33475.277, 0.0, 10.023574, 9.905148 
7.227556e+3, 2.5459224e+2, -477278.4, -567439.2, -1153.6204, 0.002041437, -0.0000028204097, -477263.66, -32266.879, 0.0, 10.023339, 9.905053 
7.227555e+3, 2.6449051e+2, -389335.56, -490121.1, -943.0911, 0.0020423518, 0.00024186906, -389326.75, -41332.984, 0.0, 10.023119, 9.891144 
7.227555e+3, 2.743822e+2, -290472.94, -390771.06, -940.7698, 0.0020426223, -0.00010591463, -290464.13, -39409.03, 0.0, 10.022914, 9.89157 
7.227555e+3, 2.8426588e+2, -204050.83, -317114.53, -647.327, 0.0020430589, 0.00032469069, -204047.13, -49851.938, 0.0, 10.022728, 9.875029 
7.227555e+3, 2.9414198e+2, -104686.2, -216991.31, -626.6404, 0.002043853, -0.00015809272, -104682.71, -47273.387, 0.0, 10.022564, 9.875838 
7.2275555e+3, 3.0404574e+2, -15780.112, -85037.01, -243.91016, 0.002045001, 0.00026367218, -15779.253, -15779.253, 0.0, 10.022426, 9.931195 
7.2275573e+3, 3.139788e+2, -14899.314, -82959.74, -196.40703, 0.0020451695, 0.000027221105, -14898.747, -14898.747, 0.0, 10.022323, 9.932647 
7.237598e+3, 1.25315e+2, -1688060.0, -1721133.1, -218.29674, 0.002033803, 0.00017453224, -1688058.6, 23855.477, 0.0, 10.02613, 9.9822445 
7.237598e+3, 1.352971e+2, -1591007.0, -1624581.5, -297.6039, 0.0020362455, 0.000000019472965, -1591004.4, 23085.05, 0.0, 10.026009, 9.981463 
7.2375965e+3, 1.4527267e+2, -1503218.9, -1545502.8, -654.86554, 0.0020377275, 0.00026255555, -1503208.8, 13120.059, 0.0, 10.02586, 9.969814 
7.237596e+3, 1.5524246e+2, -1405900.3, -1448453.3, -723.13873, 0.0020382795, 0.00006990213, -1405888.0, 12736.86, 0.0, 10.025683, 9.969288 
7.237595e+3, 1.6520576e+2, -1318066.4, -1369511.6, -985.5755, 0.0020389766, 0.00015143925, -1318047.5, 2936.9705, 0.0, 10.025487, 9.957432 
7.237593e+3, 1.7516325e+2, -1220577.9, -1272174.8, -1042.754, 0.0020399203, 0.000050247385, -1220556.8, 2844.3115, 0.0, 10.02527, 9.957023 
7.237591e+3, 1.8511425e+2, -1132717.4, -1193448.1, -1209.511, 0.0020410812, 0.00019496337, -1132693.3, -6811.8696, 0.0, 10.025041, 9.944868 
7.2375894e+3, 1.9505915e+2, -1035076.1, -1095888.5, -1256.0997, 0.0020425161, 0.00005983218, -1035050.2, -6628.828, 0.0, 10.024798, 9.944526 
7.2375876e+3, 2.049974e+2, -947345.06, -1017728.7, -1319.3436, 0.0020433094, 0.00018067996, -947320.3, -16294.016, 0.0, 10.02455, 9.931819 
7.237585e+3, 2.1492925e+2, -849578.06, -920034.7, -1358.6531, 0.00204352, -0.0000123777545, -849551.9, -15857.772, 0.0, 10.024296, 9.931478 
7.237584e+3, 2.2485453e+2, -761621.25, -841797.6, -1322.0732, 0.0020444621, 0.00023401905, -761599.44, -25172.822, 0.0, 10.024043, 9.918624 
7.237582e+3, 2.347732e+2, -663696.5, -743937.75, -1349.5637, 0.002046146, 0.00001947228, -663673.8, -24450.336, 0.0, 10.023789, 9.918295 
7.2375804e+3, 2.4468507e+2, -575638.94, -665914.94, -1219.5549, 0.0020470363, 0.00017974406, -575622.5, -33535.313, 0.0, 10.023544, 9.905103 
7.237579e+3, 2.545903e+2, -477361.84, -567532.5, -1233.2764, 0.002046927, -0.0000033880247, -477344.97, -32329.076, 0.0, 10.023307, 9.905009 
7.237578e+3, 2.6448852e+2, -389404.53, -490179.16, -1011.8298, 0.0020476626, 0.00024131544, -389394.38, -41381.16, 0.0, 10.023083, 9.891123 
7.2375774e+3, 2.743802e+2, -290544.88, -390828.9, -1008.77997, 0.002049043, -0.00010656338, -290534.72, -39460.0, 0.0, 10.022876, 9.891551 
7.2375774e+3, 2.8426385e+2, -204112.7, -317145.6, -700.3911, 0.002049734, 0.00032408547, -204108.38, -49893.438, 0.0, 10.022686, 9.875029 
7.2375774e+3, 2.9413995e+2, -104750.23, -217021.52, -678.6233, 0.0020496955, -0.00015854952, -104746.125, -47317.074, 0.0, 10.02252, 9.875839 
7.237578e+3, 3.0404377e+2, -15827.798, -85027.28, -274.82526, 0.0020506228, 0.00026335847, -15826.706, -15826.706, 0.0, 10.022379, 9.931224 
7.23758e+3, 3.139768e+2, -14949.966, -82948.04, -224.903, 0.002051345, 0.000026960635, -14949.223, -14949.223, 0.0, 10.022272, 9.932679 
7.2476244e+3, 1.2531477e+2, -1687000.0, -1720797.6, -201.92871, 0.0020397324, 0.00017377036, -1686998.8, 24917.479, 0.0, 10.026893, 9.982042 
7.247624e+3, 1.3529667e+2, -1590014.9, -1624284.3, -286.64597, 0.0020419082, -0.0000011219881, -1590012.5, 24081.176, 0.0, 10.026733, 9.981262 
7.247623e+3, 1.4527206e+2, -1502277.9, -1545209.6, -669.40234, 0.0020433678, 0.00026138485, -1502267.4, 14067.427, 0.0, 10.026543, 9.969635 
7.247622e+3, 1.5524167e+2, -1405032.9, -1448200.9, -742.28644, 0.0020440463, 0.000069159236, -1405020.1, 13612.534, 0.0, 10.026322, 9.969109 
7.24762e+3, 1.6520481e+2, -1317252.3, -1369260.4, -1023.5726, 0.0020448533, 0.00015073104, -1317232.1, 3761.8042, 0.0, 10.026081, 9.957278 
7.2476184e+3, 1.7516214e+2, -1219840.4, -1271965.4, -1083.6631, 0.0020458847, 0.000049308437, -1219817.9, 3594.1777, 0.0, 10.025819, 9.956869 
7.2476166e+3, 1.85113e+2, -1132034.5, -1193238.5, -1262.8981, 0.0020469858, 0.00019399943, -1132008.5, -6114.8105, 0.0, 10.025542, 9.944741 
7.247614e+3, 1.9505775e+2, -1034471.4, -1095721.1, -1311.6005, 0.0020482198, 0.000059057198, -1034443.3, -6008.3945, 0.0, 10.025252, 9.944399 
7.2476125e+3, 2.0499592e+2, -946798.75, -1017565.7, -1381.1608, 0.0020490868, 0.00018000389, -946771.8, -15730.783, 0.0, 10.024956, 9.931716 
7.24761e+3, 2.1492766e+2, -849110.25, -919913.44, -1421.4558, 0.0020496813, -0.000013049325, -849081.75, -15371.927, 0.0, 10.0246525, 9.931375 
7.247608e+3, 2.2485283e+2, -761205.5, -841667.4, -1384.8864, 0.0020506373, 0.00023332272, -761181.7, -24738.527, 0.0, 10.02435, 9.918552 
7.247606e+3, 2.3477145e+2, -663357.75, -743847.44, -1412.4381, 0.002051953, 0.000018664996, -663333.0, -24092.271, 0.0, 10.024048, 9.918224 
7.247604e+3, 2.4468324e+2, -575354.2, -665821.25, -1275.8801, 0.0020528245, 0.0001789849, -575336.2, -33231.207, 0.0, 10.023754, 9.905059 
7.2476023e+3, 2.5458843e+2, -477150.28, -567475.7, -1288.7377, 0.0020530082, -0.000003880776, -477131.88, -32097.746, 0.0, 10.023469, 9.904966 
7.247602e+3, 2.6448664e+2, -389244.88, -490118.25, -1054.9102, 0.002053895, 0.00024081436, -389233.84, -41202.082, 0.0, 10.023198, 9.891107 
7.2476006e+3, 2.743783e+2, -290455.06, -390801.78, -1049.2366, 0.0020551584, -0.00010728155, -290444.1, -39350.684, 0.0, 10.0229435, 9.891536 
7.2476e+3, 2.8426194e+2, -204075.77, -317123.0, -722.43787, 0.0020557416, 0.00032338596, -204071.14, -49837.465, 0.0, 10.022709, 9.875032 
7.2476e+3, 2.9413807e+2, -104774.83, -217027.72, -696.8975, 0.0020555775, -0.00015889986, -104770.5, -47322.746, 0.0, 10.022501, 9.875844 
7.2476006e+3, 3.0404186e+2, -15891.174, -85017.54, -269.36414, 0.002056587, 0.00026302008, -15890.124, -15890.124, 0.0, 10.022319, 9.93126 
7.2476023e+3, 3.1397495e+2, -15070.503, -82962.42, -213.23692, 0.0020577423, 0.000026173191, -15069.833, -15069.833, 0.0, 10.022171, 9.932718 
7.257651e+3, 1.2531464e+2, -1687174.3, -1721133.1, -251.43076, 0.0020458202, 0.00017325206, -1687172.4, 24745.225, 0.0, 10.026897, 9.981834 
7.257651e+3, 1.3529633e+2, -1590192.0, -1624619.9, -336.56314, 0.0020475192, -0.0000025576671, -1590188.8, 23908.354, 0.0, 10.026734, 9.981054 
7.2576493e+3, 1.4527151e+2, -1502439.3, -1545510.1, -741.3504, 0.0020488724, 0.00026008207, -1502426.5, 13913.736, 0.0, 10.02654, 9.96945 
7.257648e+3, 1.5524094e+2, -1405197.1, -1448501.6, -814.2845, 0.0020497194, 0.00006845986, -1405181.8, 13458.067, 0.0, 10.026318, 9.9689245 
7.2576463e+3, 1.652039e+2, -1317397.6, -1369519.9, -1111.5164, 0.0020507292, 0.00015014359, -1317373.9, 3628.8389, 0.0, 10.0260725, 9.957121 
7.2576445e+3, 1.7516108e+2, -1219988.8, -1272225.5, -1171.6642, 0.0020520196, 0.000048261565, -1219962.5, 3459.8984, 0.0, 10.025807, 9.956712 
7.257642e+3, 1.8511179e+2, -1132164.0, -1193456.8, -1361.3287, 0.0020529295, 0.00019291704, -1132133.8, -6228.304, 0.0, 10.025528, 9.944612 
7.25764e+3, 1.9505642e+2, -1034604.0, -1095940.3, -1409.8871, 0.0020535833, 0.00005826642, -1034571.56, -6123.6357, 0.0, 10.025235, 9.944269 
7.2576374e+3, 2.0499445e+2, -946914.8, -1017747.06, -1484.4968, 0.0020545996, 0.00017938117, -946883.7, -15828.496, 0.0, 10.024936, 9.931611 
7.257635e+3, 2.1492611e+2, -849229.7, -920095.94, -1524.6226, 0.0020560478, -0.000013650608, -849196.94, -15471.902, 0.0, 10.024629, 9.93127 
7.2576326e+3, 2.2485118e+2, -761302.56, -841800.06, -1487.6329, 0.0020569733, 0.00023264864, -761275.1, -24815.85, 0.0, 10.024323, 9.918481 
7.2576296e+3, 2.3476973e+2, -663458.0, -743980.75, -1515.0977, 0.0020573402, 0.000017839235, -663429.5, -24172.0, 0.0, 10.024018, 9.918153 
7.257628e+3, 2.4468148e+2, -575436.5, -665912.7, -1372.1941, 0.002058108, 0.00017823768, -575415.7, -33293.375, 0.0, 10.023722, 9.905016 
7.257626e+3, 2.5458664e+2, -477236.0, -567567.44, -1384.7021, 0.0020592124, -0.000004367115, -477214.78, -32162.896, 0.0, 10.023433, 9.904924 
7.257624e+3, 2.644848e+2, -389313.5, -490169.0, -1139.7208, 0.0020603156, 0.0002404202, -389300.63, -41250.824, 0.0, 10.023159, 9.891092 
7.2576237e+3, 2.7437642e+2, -290526.1, -390851.8, -1133.501, 0.0020610283, -0.00010797421, -290513.28, -39401.703, 0.0, 10.022902, 9.891522 
7.2576225e+3, 2.8426006e+2, -204136.44, -317144.88, -790.0185, 0.0020613587, 0.00032271983, -204130.92, -49879.03, 0.0, 10.022665, 9.875039 
7.2576225e+3, 2.941362e+2, -104839.27, -217049.47, -763.0377, 0.0020613375, -0.0001591773, -104834.086, -47368.215, 0.0, 10.022453, 9.875853 
7.257623e+3, 3.0404004e+2, -15936.759, -84993.375, -314.131, 0.0020625475, 0.0002627853, -15935.33, -15935.33, 0.0, 10.022267, 9.9313 
7.257624e+3, 3.139732e+2, -15117.625, -82935.09, -255.86238, 0.0020639359, 0.00002530897, -15116.659, -15116.659, 0.0, 10.022117, 9.932762 
7.267679e+3, 1.2531467e+2, -1686032.1, -1720769.4, -222.19443, 0.0020512466, 0.00017191621, -1686030.8, 25886.629, 0.0, 10.027719, 9.981619 
7.267678e+3, 1.3529614e+2, -1589127.8, -1624300.0, -313.42725, 0.0020532298, -0.0000032621917, -1589125.0, 24973.873, 0.0, 10.027511, 9.98084 
7.2676766e+3, 1.4527112e+2, -1501432.5, -1545193.9, -745.1099, 0.002054689, 0.0002593819, -1501419.9, 14924.159, 0.0, 10.027269, 9.96926 
7.267675e+3, 1.5524036e+2, -1404272.8, -1448230.9, -822.33014, 0.0020553835, 0.00006738565, -1404257.4, 14388.098, 0.0, 10.0269985, 9.968736 
7.267673e+3, 1.6520315e+2, -1316533.5, -1369251.5, -1139.3983, 0.0020563367, 0.00014901868, -1316508.9, 4501.263, 0.0, 10.026703, 9.956959 
7.2676706e+3, 1.7516015e+2, -1219210.0, -1272003.9, -1202.9169, 0.0020576622, 0.00004748978, -1219182.6, 4248.716, 0.0, 10.026386, 9.956551 
7.267668e+3, 1.8511072e+2, -1131446.1, -1193234.6, -1405.7343, 0.0020586615, 0.00019223771, -1131414.3, -5498.3594, 0.0, 10.026054, 9.944479 
7.267665e+3, 1.9505523e+2, -1033972.9, -1095765.0, -1456.2864, 0.002059453, 0.000057461173, -1033938.56, -5478.9595, 0.0, 10.025708, 9.944137 
7.267663e+3, 2.0499314e+2, -946348.2, -1017575.9, -1537.5544, 0.0020604478, 0.00017851911, -946315.0, -15246.974, 0.0, 10.025354, 9.931506 
7.26766e+3, 2.1492468e+2, -848750.1, -919970.9, -1578.6176, 0.0020617633, -0.00001450981, -848715.2, -14976.245, 0.0, 10.024994, 9.931165 
7.267657e+3, 2.2484969e+2, -760881.6, -841667.1, -1541.5397, 0.002062714, 0.00023191223, -760852.25, -24378.25, 0.0, 10.024634, 9.91841 
7.2676545e+3, 2.3476815e+2, -663121.8, -743891.7, -1569.2125, 0.0020632592, 0.000017293303, -663091.3, -23818.406, 0.0, 10.024275, 9.918081 
7.2676516e+3, 2.4467984e+2, -575160.6, -665820.0, -1419.5159, 0.0020641428, 0.00017764748, -575138.44, -33000.09, 0.0, 10.023924, 9.904975 
7.267649e+3, 2.5458494e+2, -477042.8, -567516.25, -1430.841, 0.0020652078, -0.0000052251844, -477020.2, -31951.904, 0.0, 10.0235815, 9.904884 
7.267648e+3, 2.644831e+2, -389178.53, -490114.6, -1172.3359, 0.0020662267, 0.00023958557, -389164.9, -41098.484, 0.0, 10.023254, 9.891081 
7.267646e+3, 2.7437472e+2, -290466.72, -390833.88, -1163.9104, 0.002066696, -0.00010831148, -290453.22, -39324.89, 0.0, 10.022946, 9.891513 
7.2676456e+3, 2.8425837e+2, -204135.42, -317129.56, -801.40576, 0.0020671617, 0.0003223953, -204129.73, -49861.12, 0.0, 10.022659, 9.8750515 
7.267645e+3, 2.9413453e+2, -104911.24, -217068.16, -769.7857, 0.0020677294, -0.00016006845, -104905.96, -47423.492, 0.0, 10.022397, 9.875868 
7.267645e+3, 3.040384e+2, -16055.025, -84998.74, -295.22147, 0.0020688989, 0.00026193325, -16053.761, -16053.761, 0.0, 10.022164, 9.931347 
7.267646e+3, 3.1397155e+2, -15296.945, -82966.414, -231.30739, 0.0020695, 0.000025283687, -15296.154, -15296.154, 0.0, 10.02197, 9.932812 
7.277706e+3, 1.2531482e+2, -1686217.4, -1721127.6, -286.91895, 0.0020565065, 0.00017034731, -1686215.0, 25700.844, 0.0, 10.027724, 9.981396 
7.277705e+3, 1.3529606e+2, -1589316.1, -1624658.1, -378.41843, 0.002059028, -0.000003944857, -1589312.1, 24787.496, 0.0, 10.027513, 9.980618 
7.277704e+3, 1.4527084e+2, -1501601.8, -1545510.1, -833.4529, 0.0020606457, 0.00025897904, -1501586.0, 14760.76, 0.0, 10.027267, 9.969066 
7.2777015e+3, 1.5523988e+2, -1404445.3, -1448547.5, -910.8885, 0.002061071, 0.000066129964, -1404426.5, 14223.693, 0.0, 10.026993, 9.968541 
7.2777e+3, 1.652025e+2, -1316686.3, -1369524.9, -1244.9344, 0.002061852, 0.00014773359, -1316657.0, 4359.5547, 0.0, 10.026694, 9.956793 
7.277697e+3, 1.7515934e+2, -1219366.3, -1272277.8, -1308.4089, 0.0020631372, 0.00004677803, -1219333.9, 4105.496, 0.0, 10.026374, 9.956385 
7.277694e+3, 1.8510975e+2, -1131581.0, -1193461.4, -1522.2375, 0.0020642902, 0.0001917042, -1131543.5, -5618.15, 0.0, 10.026039, 9.9443445 
7.277691e+3, 1.9505413e+2, -1034111.2, -1095992.9, -1572.7024, 0.0020654497, 0.000056634766, -1034071.25, -5600.789, 0.0, 10.025689, 9.944002 
7.277688e+3, 2.049919e+2, -946467.8, -1017761.3, -1659.5414, 0.002066359, 0.00017758709, -946429.25, -15349.151, 0.0, 10.025332, 9.931399 
7.277685e+3, 2.1492335e+2, -848873.3, -920157.56, -1700.4249, 0.0020671252, -0.000015400254, -848832.75, -15080.781, 0.0, 10.024969, 9.931058 
7.277682e+3, 2.2484826e+2, -760981.4, -841801.25, -1662.8206, 0.002068087, 0.00023119358, -760947.2, -24459.28, 0.0, 10.024606, 9.918338 
7.277678e+3, 2.3476666e+2, -663225.5, -744026.9, -1690.3557, 0.0020692402, 0.000016906473, -663190.1, -23902.584, 0.0, 10.024243, 9.918011 
7.277676e+3, 2.446783e+2, -575244.06, -665908.2, -1534.3944, 0.0020702446, 0.00017722455, -575218.1, -33064.594, 0.0, 10.023889, 9.904936 
7.2776735e+3, 2.5458336e+2, -477129.28, -567604.44, -1545.486, 0.0020709867, -0.0000061737283, -477102.88, -32019.041, 0.0, 10.023543, 9.904845 
7.277671e+3, 2.6448148e+2, -389247.3, -490159.9, -1274.4674, 0.0020717618, 0.00023874665, -389231.22, -41148.977, 0.0, 10.023213, 9.891071 
7.2776693e+3, 2.743731e+2, -290539.2, -390879.06, -1265.2852, 0.0020721902, -0.00010848331, -290523.22, -39379.035, 0.0, 10.0229025, 9.891505 
7.277668e+3, 2.842568e+2, -204194.23, -317139.13, -886.1736, 0.0020729091, 0.0003222527, -204187.28, -49902.83, 0.0, 10.022612, 9.875069 
7.2776675e+3, 2.9413292e+2, -104972.78, -217076.7, -853.3478, 0.0020741115, -0.00016106255, -104966.29, -47468.164, 0.0, 10.0223465, 9.875887 
7.2776675e+3, 3.040368e+2, -16098.457, -84962.45, -354.84216, 0.0020751567, 0.00026106014, -16096.629, -16096.629, 0.0, 10.02211, 9.931397 
7.277668e+3, 3.1397006e+2, -15343.927, -82928.03, -288.30606, 0.0020745958, 0.000025646083, -15342.697, -15342.697, 0.0, 10.021912, 9.932865 
7.287734e+3, 1.2531519e+2, -1684987.4, -1720732.4, -242.91069, 0.0020621005, 0.00016948959, -1684985.6, 26926.484, 0.0, 10.028607, 9.981167 
7.2877336e+3, 1.3529623e+2, -1588174.0, -1624312.3, -340.35782, 0.0020643778, -0.0000052104824, -1588170.8, 25927.375, 0.0, 10.028344, 9.980389 
7.287731e+3, 1.4527078e+2, -1500524.9, -1545169.5, -823.6683, 0.0020660353, 0.00025769082, -1500509.6, 15837.707, 0.0, 10.028047, 9.968864 
7.287729e+3, 1.5523961e+2, -1403460.4, -1448257.6, -905.9918, 0.0020666332, 0.000065376575, -1403442.1, 15210.627, 0.0, 10.027718, 9.968341 
7.2877264e+3, 1.6520204e+2, -1315768.3, -1369237.1, -1260.8696, 0.0020674707, 0.0001470169, -1315738.5, 5282.4336, 0.0, 10.027363, 9.956623 
7.2877234e+3, 1.7515872e+2, -1218542.8, -1272041.5, -1327.4828, 0.002068725, 0.000045778852, -1218509.9, 4935.636, 0.0, 10.026985, 9.956215 
7.2877204e+3, 1.8510897e+2, -1130825.5, -1193225.6, -1554.9396, 0.0020698768, 0.000190669, -1130786.8, -4853.796, 0.0, 10.026592, 9.944207 
7.287717e+3, 1.950532e+2, -1033451.56, -1095808.8, -1607.5247, 0.0020710637, 0.000055829772, -1033410.1, -4930.7373, 0.0, 10.026184, 9.943865 
7.287713e+3, 2.049909e+2, -945878.6, -1017580.56, -1701.3164, 0.002071998, 0.00017688161, -945838.25, -14748.071, 0.0, 10.025768, 9.931293 
7.28771e+3, 2.149222e+2, -848379.4, -920027.25, -1743.1222, 0.002072836, -0.000016133998, -848336.94, -14573.822, 0.0, 10.025344, 9.930951 
7.287706e+3, 2.2484703e+2, -760553.44, -841664.4, -1705.5638, 0.0020738714, 0.00023040177, -760517.6, -24017.625, 0.0, 10.02492, 9.918267 
7.2877026e+3, 2.3476537e+2, -662892.06, -743938.8, -1733.1752, 0.002075079, 0.000015965597, -662855.0, -23554.723, 0.0, 10.024497, 9.91794 
7.2876996e+3, 2.4467695e+2, -574977.44, -665817.1, -1569.7582, 0.0020760433, 0.00017638701, -574950.3, -32783.555, 0.0, 10.024083, 9.904898 
7.2876966e+3, 2.5458196e+2, -476952.06, -567558.2, -1579.9171, 0.0020765397, -0.0000065942763, -476924.5, -31827.03, 0.0, 10.02368, 9.904808 
7.287694e+3, 2.6448008e+2, -389134.84, -490110.03, -1294.9108, 0.0020774677, 0.00023829043, -389118.25, -41022.152, 0.0, 10.023291, 9.891066 
7.2876924e+3, 2.743717e+2, -290513.5, -390871.0, -1283.0298, 0.0020784189, -0.000109374945, -290497.1, -39339.008, 0.0, 10.022922, 9.8915 
7.2876906e+3, 2.8425533e+2, -204233.56, -317133.7, -883.40594, 0.0020790966, 0.00032134767, -204226.66, -49928.37, 0.0, 10.022574, 9.875091 
7.2876894e+3, 2.9413152e+2, -105090.125, -217107.4, -846.3076, 0.0020794703, -0.00016137451, -105083.734, -47572.02, 0.0, 10.022256, 9.87591 
7.2876894e+3, 3.0403545e+2, -16268.772, -84980.586, -321.58957, 0.002080465, 0.00026083546, -16267.267, -16267.267, 0.0, 10.021965, 9.931455 
7.28769e+3, 3.1396875e+2, -15588.386, -82978.28, -248.67758, 0.0020812284, 0.000024655239, -15587.468, -15587.468, 0.0, 10.021715, 9.932926 
7.297763e+3, 1.2531574e+2, -1685182.8, -1721111.9, -324.76627, 0.002067875, 0.00016893887, -1685179.9, 26727.004, 0.0, 10.028613, 9.980931 
7.2977614e+3, 1.3529652e+2, -1588372.8, -1624691.8, -422.57895, 0.002069635, -0.000006905771, -1588367.8, 25727.336, 0.0, 10.028347, 9.980153 
7.2977597e+3, 1.4527085e+2, -1500703.5, -1545504.5, -930.5283, 0.0020712754, 0.00025627646, -1500684.1, 15662.365, 0.0, 10.028046, 9.968658 
7.2977567e+3, 1.552395e+2, -1403642.8, -1448593.0, -1012.91583, 0.002072169, 0.00006473827, -1403619.9, 15034.053, 0.0, 10.027712, 9.968135 
7.2977537e+3, 1.6520174e+2, -1315927.9, -1369522.8, -1385.6466, 0.002073112, 0.00014651916, -1315892.0, 5131.9526, 0.0, 10.027354, 9.9564495 
7.297751e+3, 1.7515823e+2, -1218706.1, -1272328.0, -1452.3171, 0.0020743578, 0.00004467395, -1218666.8, 4783.4604, 0.0, 10.026973, 9.956042 
7.297747e+3, 1.8510833e+2, -1130965.9, -1193461.6, -1691.4553, 0.0020754184, 0.00018951607, -1130920.1, -4980.8823, 0.0, 10.026576, 9.944067 
7.297743e+3, 1.9505243e+2, -1033595.7, -1096045.8, -1743.956, 0.0020764633, 0.000055028417, -1033547.06, -5060.0044, 0.0, 10.026164, 9.943725 
7.2977394e+3, 2.0498997e+2, -946001.75, -1017770.06, -1843.596, 0.00207746, 0.00017627762, -945954.44, -14855.371, 0.0, 10.025744, 9.931184 
7.2977346e+3, 2.149212e+2, -848506.56, -920218.2, -1885.1656, 0.0020785462, -0.000016734562, -848457.06, -14683.982, 0.0, 10.025317, 9.930842 
7.297731e+3, 2.2484592e+2, -760655.75, -841799.4, -1847.5271, 0.0020796286, 0.00022966086, -760613.75, -24102.93, 0.0, 10.024891, 9.918196 
7.2977275e+3, 2.3476417e+2, -662998.2, -744074.8, -1875.0629, 0.0020806922, 0.0000149535745, -662954.9, -23643.045, 0.0, 10.024464, 9.917869 
7.297724e+3, 2.4467571e+2, -575062.2, -665903.06, -1704.5544, 0.0020814873, 0.00017556833, -575030.2, -32851.367, 0.0, 10.024046, 9.9048605 
7.297721e+3, 2.545807e+2, -477040.84, -567644.7, -1714.3932, 0.0020818962, -0.0000067847664, -477008.4, -31898.525, 0.0, 10.023639, 9.904772 
7.297718e+3, 2.644788e+2, -389203.47, -490148.03, -1416.9855, 0.0020830422, 0.00023813455, -389183.56, -41074.875, 0.0, 10.023247, 9.891063 
7.2977155e+3, 2.7437043e+2, -290585.22, -390908.38, -1404.5065, 0.0020847116, -0.00011040802, -290565.56, -39394.848, 0.0, 10.022874, 9.8914995 
7.297713e+3, 2.8425404e+2, -204290.45, -317132.44, -986.55273, 0.0020852317, 0.00032031603, -204281.83, -49971.043, 0.0, 10.022523, 9.875116 
7.297712e+3, 2.9413027e+2, -105151.09, -217105.7, -947.9677, 0.0020842864, -0.00016132546, -105143.07, -47619.125, 0.0, 10.022201, 9.875937 
7.2977114e+3, 3.0403426e+2, -16310.162, -84930.1, -399.04288, 0.0020852606, 0.00026104742, -16307.841, -16307.841, 0.0, 10.021907, 9.931517 
7.2977114e+3, 3.1396762e+2, -15632.582, -82925.07, -323.62943, 0.002088014, 0.000023377139, -15631.025, -15631.025, 0.0, 10.021653, 9.932992 
7.307792e+3, 1.2531656e+2, -1683859.6, -1720683.1, -263.55728, 0.0020730488, 0.00016751379, -1683857.8, 28040.895, 0.0, 10.029562, 9.980687 
7.3077905e+3, 1.352971e+2, -1587147.8, -1624318.0, -367.8158, 0.0020750074, -0.0000075854005, -1587144.1, 26945.201, 0.0, 10.029239, 9.979911 
7.307788e+3, 1.4527123e+2, -1499551.1, -1545136.0, -905.3215, 0.0020767606, 0.00025556094, -1499533.1, 16809.809, 0.0, 10.028877, 9.968447 
7.307785e+3, 1.5523964e+2, -1402592.9, -1448281.0, -992.3115, 0.0020775364, 0.0000635514, -1402571.3, 16081.158, 0.0, 10.028483, 9.967924 
7.3077816e+3, 1.652017e+2, -1314952.5, -1369214.3, -1386.528, 0.0020784603, 0.00014524508, -1314917.1, 6107.28, 0.0, 10.028063, 9.956271 
7.307778e+3, 1.7515801e+2, -1217834.9, -1272076.1, -1456.6158, 0.0020798037, 0.0000438377, -1217795.9, 5656.565, 0.0, 10.027619, 9.955865 
7.307774e+3, 1.8510796e+2, -1130169.6, -1193210.6, -1709.9312, 0.002080917, 0.00018879391, -1130123.3, -4180.302, 0.0, 10.027158, 9.943925 
7.3077697e+3, 1.9505191e+2, -1032904.4, -1095851.3, -1764.4796, 0.0020819611, 0.00005415141, -1032854.94, -4362.778, 0.0, 10.026682, 9.943583 
7.307765e+3, 2.0498933e+2, -945387.2, -1017577.9, -1871.3444, 0.0020829996, 0.00017532399, -945338.7, -14233.278, 0.0, 10.0261965, 9.931075 
7.307761e+3, 2.1492045e+2, -847997.06, -920081.56, -1913.6893, 0.0020842105, -0.000017671491, -847946.25, -14165.7705, 0.0, 10.025703, 9.930734 
7.3077565e+3, 2.2484508e+2, -760219.8, -841658.4, -1876.0015, 0.0020852755, 0.0002288639, -760176.56, -23657.494, 0.0, 10.02521, 9.918124 
7.307752e+3, 2.3476326e+2, -662664.5, -743986.56, -1903.7646, 0.0020861425, 0.00001435385, -662619.94, -23299.162, 0.0, 10.024718, 9.917798 
7.307748e+3, 2.4467474e+2, -574802.25, -665811.94, -1725.569, 0.002087088, 0.00017490717, -574769.56, -32581.195, 0.0, 10.024235, 9.904825 
7.307744e+3, 2.545797e+2, -476881.1, -567603.6, -1734.2468, 0.002087918, -0.000007756823, -476847.94, -31728.209, 0.0, 10.023762, 9.904738 
7.3077404e+3, 2.6447776e+2, -389115.63, -490104.2, -1421.9204, 0.0020890129, 0.00023716746, -389095.63, -40976.89, 0.0, 10.023305, 9.891063 
7.307738e+3, 2.743694e+2, -290590.8, -390909.47, -1407.0515, 0.0020899398, -0.000110827365, -290571.06, -39390.348, 0.0, 10.022869, 9.891501 
7.3077357e+3, 2.8425306e+2, -204367.06, -317134.3, -967.8552, 0.0020905535, 0.00031993026, -204358.77, -50038.113, 0.0, 10.022456, 9.875148 
7.307734e+3, 2.941293e+2, -105317.49, -217149.13, -924.3898, 0.0020907044, -0.0001622899, -105309.85, -47776.367, 0.0, 10.022072, 9.875971 
7.3077327e+3, 3.0403334e+2, -16538.299, -84963.97, -348.00787, 0.0020916846, 0.0002601089, -16536.53, -16536.53, 0.0, 10.021718, 9.931584 
7.3077327e+3, 3.1396678e+2, -15941.682, -82994.37, -266.4471, 0.00209326, 0.000023168135, -15940.623, -15940.623, 0.0, 10.021406, 9.9330635 
7.317822e+3, 1.2531762e+2, -1684066.0, -1721085.8, -364.51297, 0.002078099, 0.00016595967, -1684062.5, 27826.0, 0.0, 10.02957, 9.980436 
7.3178196e+3, 1.352979e+2, -1587358.3, -1624720.8, -469.03647, 0.0020804813, -0.000008220047, -1587352.4, 26729.25, 0.0, 10.029242, 9.979661 
7.3178166e+3, 1.452718e+2, -1499738.4, -1545487.9, -1032.5878, 0.0020823781, 0.00025528832, -1499715.1, 16622.361, 0.0, 10.028876, 9.968229 
7.3178136e+3, 1.5523998e+2, -1402783.8, -1448633.3, -1119.7465, 0.0020828673, 0.00006216445, -1402756.5, 15892.613, 0.0, 10.028478, 9.967708 
7.3178095e+3, 1.6520183e+2, -1315119.5, -1369513.6, -1532.5704, 0.002083692, 0.00014379491, -1315076.4, 5946.6523, 0.0, 10.028054, 9.95609 
7.317806e+3, 1.7515798e+2, -1218006.1, -1272376.5, -1602.6697, 0.0020851798, 0.00004309967, -1217958.9, 5493.899, 0.0, 10.027606, 9.955683 
7.3178005e+3, 1.8510775e+2, -1130315.6, -1193455.5, -1868.1796, 0.0020863614, 0.00018828979, -1130260.4, -4315.4634, 0.0, 10.027141, 9.943779 
7.317796e+3, 1.9505157e+2, -1033054.5, -1096097.5, -1922.666, 0.0020874026, 0.00005326439, -1032995.94, -4500.371, 0.0, 10.026661, 9.943438 
7.317791e+3, 2.0498887e+2, -945513.44, -1017770.44, -2035.9667, 0.0020884655, 0.00017431077, -945456.1, -14346.048, 0.0, 10.026172, 9.930965 
7.317786e+3, 2.1491987e+2, -848127.56, -920275.7, -2078.0867, 0.002089698, -0.00001859322, -848067.8, -14281.575, 0.0, 10.025675, 9.930624 
7.3177814e+3, 2.2484441e+2, -760324.9, -841794.94, -2040.1912, 0.0020906748, 0.00022816763, -760273.8, -23748.115, 0.0, 10.025179, 9.918054 
7.3177767e+3, 2.3476252e+2, -662774.1, -744124.44, -2067.8286, 0.0020913726, 0.000014036904, -662721.56, -23393.484, 0.0, 10.024683, 9.917727 
7.317772e+3, 2.4467394e+2, -574888.2, -665894.8, -1882.7362, 0.0020924823, 0.00017449606, -574849.25, -32653.092, 0.0, 10.024196, 9.904792 
7.3177683e+3, 2.5457886e+2, -476970.94, -567686.9, -1891.1898, 0.002093975, -0.00000887759, -476931.5, -31803.635, 0.0, 10.023719, 9.904705 
7.317764e+3, 2.644769e+2, -389184.16, -490136.13, -1565.3275, 0.0020948453, 0.00023617127, -389159.88, -41032.867, 0.0, 10.023259, 9.891065 
7.3177606e+3, 2.7436852e+2, -290663.25, -390941.13, -1549.7649, 0.0020946446, -0.000110912246, -290639.3, -39450.332, 0.0, 10.022819, 9.891505 
7.317758e+3, 2.8425223e+2, -204421.55, -317120.13, -1092.1864, 0.0020954194, 0.00031991495, -204410.97, -50082.242, 0.0, 10.022402, 9.875183 
7.3177564e+3, 2.941285e+2, -105375.836, -217134.0, -1047.3612, 0.002097388, -0.00016339922, -105366.016, -47824.83, 0.0, 10.022014, 9.876009 
7.3177546e+3, 3.040326e+2, -16577.31, -84900.18, -445.01062, 0.0020983703, 0.00025908175, -16574.412, -16574.412, 0.0, 10.021655, 9.931658 
7.3177546e+3, 3.1396613e+2, -15984.288, -82928.34, -360.78186, 0.0020976253, 0.000023532013, -15982.344, -15982.344, 0.0, 10.02134, 9.93314 
7.3278517e+3, 1.2531902e+2, -1682643.1, -1720619.9, -283.8715, 0.0020833067, 0.00016502752, -1682641.0, 29233.604, 0.0, 10.030587, 9.980179 
7.327849e+3, 1.3529906e+2, -1586045.9, -1624316.6, -394.77072, 0.002085623, -0.000009533365, -1586041.9, 28028.438, 0.0, 10.030194, 9.9794035 
7.327846e+3, 1.4527269e+2, -1498507.3, -1545090.5, -988.7029, 0.002087596, 0.00025389608, -1498486.3, 17842.262, 0.0, 10.029764, 9.968007 
7.327842e+3, 1.5524067e+2, -1401665.0, -1448297.5, -1080.8141, 0.0020881153, 0.0000613002, -1401640.0, 17002.363, 0.0, 10.029299, 9.967485 
7.327838e+3, 1.6520232e+2, -1314082.8, -1369181.9, -1515.9755, 0.0020889577, 0.00014295195, -1314041.0, 6977.212, 0.0, 10.028806, 9.955904 
7.327834e+3, 1.7515828e+2, -1217083.8, -1272106.9, -1589.3263, 0.0020904934, 0.000042038027, -1217037.9, 6411.9355, 0.0, 10.028288, 9.955498 
7.3278284e+3, 1.8510789e+2, -1129475.9, -1193187.8, -1869.1705, 0.0020917393, 0.0001871824, -1129421.0, -3477.4155, 0.0, 10.027754, 9.943631 
7.327823e+3, 1.9505155e+2, -1032329.1, -1095891.3, -1925.6667, 0.0020928339, 0.000052315772, -1032270.9, -3775.1528, 0.0, 10.027203, 9.94329 
7.3278177e+3, 2.049887e+2, -944870.94, -1017565.4, -2046.4928, 0.0020938737, 0.0001734624, -944813.4, -13701.886, 0.0, 10.026643, 9.930856 
7.327812e+3, 2.149196e+2, -847599.06, -920130.94, -2089.398, 0.0020950413, -0.000019371879, -847538.94, -13750.24, 0.0, 10.026074, 9.930514 
7.3278064e+3, 2.2484405e+2, -759878.1, -841648.1, -2051.4727, 0.0020961426, 0.00022733716, -759826.7, -23297.621, 0.0, 10.025506, 9.917982 
7.327801e+3, 2.347621e+2, -662439.9, -744035.7, -2079.2002, 0.0020971266, 0.000012949694, -662386.9, -23054.732, 0.0, 10.024938, 9.917657 
7.327796e+3, 2.4467348e+2, -574634.94, -665803.8, -1885.9916, 0.0020982134, 0.0001734776, -574595.94, -32395.178, 0.0, 10.024379, 9.904759 
7.3277915e+3, 2.5457838e+2, -476825.8, -567650.0, -1893.4541, 0.002099204, -0.000009417617, -476786.34, -31653.586, 0.0, 10.02383, 9.904674 
7.327788e+3, 2.6447642e+2, -389118.13, -490096.72, -1552.0464, 0.0021001876, 0.00023564666, -389094.28, -40962.25, 0.0, 10.0233, 9.89107 
7.327784e+3, 2.7436805e+2, -290701.3, -390951.84, -1533.9016, 0.0021006996, -0.0001118117, -290677.84, -39483.914, 0.0, 10.02279, 9.891512 
7.32778e+3, 2.8425178e+2, -204537.52, -317130.3, -1054.322, 0.002101548, 0.0003189334, -204527.66, -50194.203, 0.0, 10.022304, 9.875224 
7.327778e+3, 2.941281e+2, -105589.93, -217189.47, -1004.77576, 0.0021026386, -0.00016400113, -105580.88, -48035.4, 0.0, 10.021847, 9.876053 
7.3277766e+3, 3.0403224e+2, -16861.992, -84949.68, -374.20294, 0.0021034328, 0.0002586578, -16859.936, -16859.936, 0.0, 10.021422, 9.931736 
7.3277754e+3, 3.1396583e+2, -16361.04, -83018.71, -283.7951, 0.002103952, 0.00002279724, -16359.832, -16359.832, 0.0, 10.021042, 9.933222 
7.3378825e+3, 1.2532069e+2, -1682860.8, -1721045.0, -406.4937, 0.0020886697, 0.00016449422, -1682856.4, 29001.844, 0.0, 10.030596, 9.979914 
7.3378795e+3, 1.3530046e+2, -1586267.1, -1624741.4, -517.64075, 0.002090712, -0.000011373667, -1586260.1, 27796.365, 0.0, 10.030198, 9.979139 
7.337876e+3, 1.4527386e+2, -1498703.5, -1545460.5, -1138.3363, 0.0020927323, 0.00025247005, -1498675.8, 17641.371, 0.0, 10.029763, 9.967778 
7.337872e+3, 1.5524161e+2, -1401865.8, -1448668.1, -1230.5491, 0.0020933633, 0.000060607395, -1401833.4, 16799.746, 0.0, 10.029293, 9.9672575 
7.3378664e+3, 1.6520303e+2, -1314256.9, -1369494.1, -1685.2328, 0.00209422, 0.00014241284, -1314205.5, 6805.579, 0.0, 10.028796, 9.955714 
7.3378617e+3, 1.7515881e+2, -1217262.1, -1272420.0, -1758.636, 0.002095779, 0.00004091712, -1217206.1, 6238.4214, 0.0, 10.028275, 9.955308 
7.3378557e+3, 1.8510824e+2, -1129627.3, -1193441.4, -2051.061, 0.0020970409, 0.00018600958, -1129561.4, -3621.3154, 0.0, 10.027736, 9.943481 
7.3378503e+3, 1.9505176e+2, -1032485.1, -1096146.4, -2107.565, 0.002098143, 0.00005139194, -1032415.44, -3921.8643, 0.0, 10.027181, 9.943139 
7.3378444e+3, 2.049888e+2, -945000.5, -1017761.3, -2235.209, 0.00209914, 0.0001727576, -944931.9, -13821.275, 0.0, 10.026617, 9.930744 
7.3378384e+3, 2.1491958e+2, -847733.25, -920328.6, -2277.8188, 0.0021001813, -0.000019939525, -847661.9, -13872.907, 0.0, 10.026044, 9.930403 
7.337832e+3, 2.2484393e+2, -759985.75, -841785.56, -2240.0298, 0.00210141, 0.00022662393, -759924.44, -23394.229, 0.0, 10.025472, 9.917912 
7.337826e+3, 2.3476192e+2, -662552.25, -744174.56, -2267.689, 0.0021028335, 0.000011823683, -662489.3, -23155.29, 0.0, 10.0248995, 9.917586 
7.3378205e+3, 2.4467324e+2, -574722.25, -665884.4, -2067.154, 0.0021037334, 0.00017253731, -574675.4, -32472.295, 0.0, 10.024337, 9.904728 
7.337815e+3, 2.5457808e+2, -476917.38, -567731.1, -2074.401, 0.0021039792, -0.0000096171525, -476870.0, -31734.627, 0.0, 10.023785, 9.904644 
7.3378104e+3, 2.644761e+2, -389186.44, -490121.9, -1719.2351, 0.0021050835, 0.00023555377, -389157.2, -41022.39, 0.0, 10.023251, 9.891079 
7.337807e+3, 2.7436778e+2, -290773.9, -390976.8, -1700.4554, 0.0021069695, -0.00011279247, -290745.06, -39548.477, 0.0, 10.022736, 9.891522 
7.3378026e+3, 2.842515e+2, -204589.69, -317103.9, -1201.7668, 0.00210783, 0.0003178701, -204576.86, -50241.008, 0.0, 10.022245, 9.87527 
7.3377997e+3, 2.9412788e+2, -105645.9, -217161.89, -1150.7931, 0.0021071273, -0.0001641757, -105634.02, -48086.613, 0.0, 10.021786, 9.876101 
7.337798e+3, 3.0403212e+2, -16898.785, -84872.98, -493.1358, 0.002107667, 0.00025878428, -16895.207, -16895.207, 0.0, 10.021357, 9.931819 
7.3377967e+3, 3.1396577e+2, -16402.645, -82940.42, -399.86642, 0.002110491, 0.000021993317, -16400.242, -16400.242, 0.0, 10.020971, 9.933309 
7.3479134e+3, 1.253228e+2, -1681334.8, -1720540.1, -303.54013, 0.0020938395, 0.0001630336, -1681332.4, 30505.03, 0.0, 10.031685, 9.979642 
7.3479104e+3, 1.353023e+2, -1584861.8, -1624303.8, -421.24585, 0.0020956385, -0.000012289776, -1584857.3, 29181.168, 0.0, 10.031218, 9.9788685 
7.347906e+3, 1.4527546e+2, -1497387.8, -1545030.6, -1073.423, 0.0020977545, 0.0002514927, -1497363.5, 18937.965, 0.0, 10.030709, 9.967545 
7.3479015e+3, 1.5524296e+2, -1400674.6, -1448306.5, -1170.414, 0.002098543, 0.000059424234, -1400645.9, 17973.955, 0.0, 10.030165, 9.967025 
7.347896e+3, 1.652042e+2, -1313156.1, -1369137.8, -1647.5602, 0.002099413, 0.00014112663, -1313107.6, 7892.2017, 0.0, 10.0295925, 9.955521 
7.34789e+3, 1.7515975e+2, -1216285.3, -1272130.8, -1724.242, 0.0021009087, 0.000039900362, -1216232.1, 7203.1406, 0.0, 10.0289955, 9.955115 
7.347884e+3, 1.8510902e+2, -1128740.4, -1193155.0, -2031.4178, 0.002102213, 0.00018508262, -1128676.4, -2744.06, 0.0, 10.02838, 9.943328 
7.3478776e+3, 1.9505239e+2, -1031722.9, -1095926.8, -2089.8992, 0.0021034102, 0.0000504414, -1031654.94, -3167.5066, 0.0, 10.027748, 9.9429865 
7.347871e+3, 2.0498928e+2, -944327.3, -1017541.2, -2225.053, 0.0021044884, 0.00017173367, -944259.75, -13153.978, 0.0, 10.027107, 9.930634 
7.3478645e+3, 2.1491997e+2, -847183.44, -920173.75, -2268.1624, 0.0021056137, -0.000021047334, -847113.0, -13327.837, 0.0, 10.026458, 9.930292 
7.347858e+3, 2.2484423e+2, -759526.3, -841632.06, -2230.4573, 0.0021068207, 0.00022563926, -759465.75, -22938.441, 0.0, 10.025807, 9.917841 
7.3478514e+3, 2.3476215e+2, -662214.56, -744083.94, -2258.3257, 0.0021080638, 0.000011101571, -662152.3, -22820.518, 0.0, 10.025156, 9.917516 
7.3478454e+3, 2.446734e+2, -574472.94, -665792.4, -2049.2134, 0.0021091115, 0.00017176918, -574427.0, -32225.639, 0.0, 10.024515, 9.904698 
7.3478395e+3, 2.5457823e+2, -476785.88, -567697.94, -2055.4438, 0.0021097166, -0.0000107357, -476739.44, -31605.469, 0.0, 10.023886, 9.904615 
7.347834e+3, 2.6447627e+2, -389141.75, -490086.8, -1684.4529, 0.0021108356, 0.00023441504, -389113.63, -40980.188, 0.0, 10.023274, 9.891089 
7.3478293e+3, 2.7436793e+2, -290843.13, -390996.6, -1663.2137, 0.0021121695, -0.00011338977, -290815.5, -39620.39, 0.0, 10.022683, 9.891535 
7.3478246e+3, 2.842517e+2, -204743.36, -317121.3, -1141.4248, 0.0021130892, 0.000317369, -204731.77, -50397.684, 0.0, 10.022117, 9.87532 
7.3478216e+3, 2.9412812e+2, -105906.82, -217228.69, -1085.4943, 0.00211306, -0.00016508297, -105896.234, -48351.105, 0.0, 10.021583, 9.876154 
7.3478186e+3, 3.040324e+2, -17240.242, -84937.83, -399.60086, 0.0021136238, 0.00025774448, -17237.883, -17237.883, 0.0, 10.021079, 9.931909 
7.3478174e+3, 3.1396616e+2, -16848.967, -83052.4, -300.0519, 0.0021160108, 0.000021108941, -16847.607, -16847.607, 0.0, 10.02062, 9.933401 
7.3579454e+3, 1.2532526e+2, -1681562.5, -1720987.4, -449.43594, 0.002098995, 0.0001615876, -1681557.4, 30256.107, 0.0, 10.031694, 9.9793625 
7.357941e+3, 1.3530448e+2, -1585094.5, -1624751.3, -567.38086, 0.0021006023, -0.000013258073, -1585086.4, 28930.746, 0.0, 10.031221, 9.97859 
7.357937e+3, 1.4527737e+2, -1497593.3, -1545418.1, -1247.8416, 0.0021028356, 0.0002510843, -1497560.8, 18722.11, 0.0, 10.030708, 9.967305 
7.357932e+3, 1.5524465e+2, -1400884.1, -1448694.1, -1344.9685, 0.0021037094, 0.00005813874, -1400846.4, 17757.107, 0.0, 10.03016, 9.966786 
7.357926e+3, 1.6520564e+2, -1313337.1, -1369462.9, -1841.827, 0.0021045408, 0.00013977822, -1313276.8, 7708.927, 0.0, 10.029583, 9.955322 
7.357919e+3, 1.75161e+2, -1216471.3, -1272457.0, -1918.5637, 0.00210598, 0.00003901885, -1216405.6, 7017.313, 0.0, 10.028981, 9.954918 
7.3579127e+3, 1.851101e+2, -1128897.6, -1193417.6, -2238.9292, 0.002107294, 0.00018442835, -1128820.0, -2898.2163, 0.0, 10.028361, 9.943172 
7.3579055e+3, 1.9505331e+2, -1031884.6, -1096190.8, -2297.4312, 0.0021085232, 0.000049564595, -1031802.6, -3324.2615, 0.0, 10.027725, 9.942831 
7.3578984e+3, 2.0499009e+2, -944459.3, -1017739.1, -2439.6902, 0.0021097097, 0.000170748, -944378.2, -13280.139, 0.0, 10.027081, 9.930522 
7.357891e+3, 2.1492064e+2, -847320.6, -920373.56, -2482.5078, 0.002110965, -0.000022107797, -847236.4, -13457.848, 0.0, 10.026425, 9.930181 
7.357884e+3, 2.2484481e+2, -759636.9, -841771.1, -2445.3037, 0.0021120308, 0.00022478781, -759564.2, -23042.586, 0.0, 10.025771, 9.917769 
7.3578763e+3, 2.3476265e+2, -662329.94, -744224.5, -2473.1267, 0.0021129076, 0.000010769372, -662255.3, -22928.572, 0.0, 10.025116, 9.917445 
7.35787e+3, 2.4467388e+2, -574561.44, -665870.5, -2256.428, 0.0021140883, 0.00017139292, -574505.75, -32308.932, 0.0, 10.024471, 9.90467 
7.357863e+3, 2.5457868e+2, -476879.4, -567776.94, -2262.4495, 0.002115549, -0.000011920858, -476823.13, -31693.45, 0.0, 10.023838, 9.904588 
7.357857e+3, 2.644767e+2, -389210.2, -490105.88, -1877.5759, 0.0021165214, 0.00023330131, -389175.28, -41046.03, 0.0, 10.023222, 9.891103 
7.357852e+3, 2.7436835e+2, -290915.38, -391015.16, -1855.8083, 0.0021167528, -0.00011362397, -290881.0, -39690.234, 0.0, 10.022627, 9.89155 
7.357847e+3, 2.8425217e+2, -204792.19, -317081.56, -1314.1075, 0.0021177046, 0.00031733976, -204776.8, -50447.414, 0.0, 10.022057, 9.875376 
7.3578435e+3, 2.9412866e+2, -105960.84, -217188.19, -1256.6998, 0.0021191507, -0.0001658956, -105946.64, -48406.773, 0.0, 10.021517, 9.876212 
7.35784e+3, 3.0403298e+2, -17275.28, -84847.99, -543.65216, 0.0021198306, 0.0002567934, -17270.906, -17270.906, 0.0, 10.021009, 9.932003 
7.357838e+3, 3.1396687e+2, -16887.705, -82960.53, -441.44147, 0.0021207086, 0.000020580941, -16884.756, -16884.756, 0.0, 10.020547, 9.933499 
7.3679775e+3, 1.2532823e+2, -1679925.9, -1720439.4, -321.69055, 0.002103464, 0.00016022904, -1679923.3, 31860.969, 0.0, 10.032861, 9.979076 
7.3679733e+3, 1.3530716e+2, -1583593.6, -1624278.6, -446.2292, 0.00210566, -0.000014608863, -1583588.8, 30402.006, 0.0, 10.032308, 9.978305 
7.3679686e+3, 1.4527978e+2, -1496191.4, -1544954.9, -1158.2104, 0.0021081134, 0.000249678, -1496163.9, 20095.15, 0.0, 10.031714, 9.96706 
7.3679626e+3, 1.5524682e+2, -1399616.3, -1448304.1, -1260.1641, 0.0021085981, 0.00005713248, -1399583.6, 18998.416, 0.0, 10.031085, 9.966542 
7.3679554e+3, 1.652076e+2, -1312167.5, -1369078.8, -1780.0486, 0.0021093765, 0.0001387006, -1312111.9, 8854.52, 0.0, 10.030427, 9.955121 
7.367949e+3, 1.7516278e+2, -1215437.3, -1272146.3, -1859.8933, 0.0021111106, 0.00003776941, -1215376.4, 8029.3203, 0.0, 10.029742, 9.954717 
7.367941e+3, 1.851117e+2, -1127961.8, -1193111.3, -2194.6877, 0.0021125367, 0.00018317158, -1127888.0, -1981.6884, 0.0, 10.02904, 9.943015 
7.3679334e+3, 1.9505474e+2, -1031082.1, -1095956.0, -2254.9673, 0.0021136098, 0.000048536254, -1031003.9, -2539.456, 0.0, 10.028321, 9.942674 
7.3679256e+3, 2.0499139e+2, -943751.7, -1017501.56, -2405.103, 0.0021147924, 0.0001697755, -943673.4, -12588.002, 0.0, 10.027593, 9.93041 
7.3679173e+3, 2.1492183e+2, -846746.75, -920206.75, -2448.3064, 0.0021162012, -0.000023169487, -846665.2, -12898.274, 0.0, 10.0268545, 9.930069 
7.3679096e+3, 2.248459e+2, -759162.56, -841610.06, -2410.9402, 0.0021173705, 0.00022371732, -759092.1, -22581.234, 0.0, 10.026115, 9.917699 
7.367902e+3, 2.3476367e+2, -661986.0, -744130.75, -2438.9648, 0.002118239, 0.000009654992, -661913.6, -22596.896, 0.0, 10.025377, 9.917375 
7.367894e+3, 2.4467483e+2, -574313.4, -665775.8, -2213.7463, 0.002119475, 0.00017033076, -574259.9, -32072.549, 0.0, 10.024648, 9.904643 
7.3678875e+3, 2.5457963e+2, -476759.88, -567746.5, -2218.7173, 0.0021209016, -0.000012735028, -476705.8, -31585.389, 0.0, 10.02393, 9.904562 
7.3678803e+3, 2.6447764e+2, -389185.5, -490075.16, -1817.0907, 0.0021219286, 0.00023247565, -389152.78, -41032.74, 0.0, 10.02323, 9.891119 
7.3678744e+3, 2.7436933e+2, -291012.6, -391043.2, -1793.0618, 0.0021221328, -0.00011463403, -290980.47, -39799.063, 0.0, 10.0225525, 9.891567 
7.367869e+3, 2.8425318e+2, -204980.34, -317104.2, -1228.5519, 0.002123204, 0.00031626568, -204966.88, -50647.223, 0.0, 10.021899, 9.875437 
7.367864e+3, 2.941297e+2, -106269.586, -217266.33, -1166.1392, 0.0021247312, -0.00016676812, -106257.336, -48727.83, 0.0, 10.021276, 9.876276 
7.3678607e+3, 3.0403414e+2, -17675.984, -84930.81, -423.96478, 0.0021253761, 0.0002560675, -17673.313, -17673.313, 0.0, 10.020687, 9.932101 
7.367858e+3, 3.1396812e+2, -17401.04, -83094.53, -315.94635, 0.002126431, 0.000019938729, -17399.52, -17399.52, 0.0, 10.020145, 9.9336 
7.37801e+3, 1.2533161e+2, -1680165.3, -1720909.5, -494.23486, 0.0021078517, 0.00015930964, -1680159.3, 31591.904, 0.0, 10.03287, 9.978783 
7.3780054e+3, 1.3531025e+2, -1583836.9, -1624748.0, -618.9044, 0.002110792, -0.000016411403, -1583827.6, 30132.93, 0.0, 10.032312, 9.978012 
7.378e+3, 1.4528261e+2, -1496405.0, -1545359.3, -1359.0206, 0.002113486, 0.0002485341, -1496367.4, 19864.086, 0.0, 10.0317135, 9.96681 
7.377993e+3, 1.5524939e+2, -1399835.4, -1448709.3, -1461.0815, 0.002113442, 0.000056302193, -1399791.8, 18765.207, 0.0, 10.031079, 9.966293 
7.3779863e+3, 1.6520995e+2, -1312355.8, -1369416.4, -2001.6263, 0.0021141148, 0.00013794375, -1312285.6, 8657.825, 0.0, 10.0304165, 9.954916 
7.3779786e+3, 1.7516491e+2, -1215630.1, -1272484.6, -2081.562, 0.0021162326, 0.00003657858, -1215554.0, 7830.7563, 0.0, 10.029727, 9.954513 
7.37797e+3, 1.8511365e+2, -1128124.0, -1193382.0, -2429.4148, 0.0021177444, 0.00018200993, -1128033.6, -2146.4827, 0.0, 10.02902, 9.942854 
7.377962e+3, 1.9505653e+2, -1031249.8, -1096228.5, -2489.7554, 0.0021185433, 0.000047595255, -1031154.56, -2707.7085, 0.0, 10.028297, 9.942513 
7.377953e+3, 2.0499302e+2, -943886.4, -1017701.1, -2647.7598, 0.002119682, 0.00016899501, -943791.5, -12722.349, 0.0, 10.027564, 9.930299 
7.3779446e+3, 2.1492335e+2, -846886.4, -920408.25, -2690.6475, 0.0021211968, -0.000023932826, -846788.06, -13036.212, 0.0, 10.026821, 9.929957 
7.3779356e+3, 2.2484735e+2, -759275.75, -841750.5, -2653.6826, 0.002122457, 0.00022288841, -759190.44, -22693.77, 0.0, 10.026078, 9.917627 
7.3779273e+3, 2.3476504e+2, -662105.0, -744273.3, -2681.6487, 0.0021234928, 0.000008612632, -662017.56, -22714.314, 0.0, 10.025335, 9.917304 
7.377919e+3, 2.4467616e+2, -574403.44, -665851.5, -2449.3281, 0.002124613, 0.00016946094, -574337.9, -32163.594, 0.0, 10.024602, 9.904617 
7.377911e+3, 2.5458094e+2, -476854.2, -567822.7, -2454.2737, 0.0021258264, -0.000013124165, -476788.03, -31680.395, 0.0, 10.023879, 9.904537 
7.377904e+3, 2.6447892e+2, -389253.7, -490088.72, -2037.8534, 0.0021268267, 0.00023218153, -389212.5, -41105.215, 0.0, 10.023175, 9.891136 
7.377897e+3, 2.7437064e+2, -291086.22, -391057.03, -2013.1927, 0.002127511, -0.00011558989, -291045.7, -39877.23, 0.0, 10.022493, 9.891587 
7.377891e+3, 2.8425452e+2, -205026.66, -317051.3, -1429.6179, 0.0021286728, 0.00031523552, -205008.4, -50702.1, 0.0, 10.021835, 9.875503 
7.3778856e+3, 2.9413113e+2, -106319.44, -217211.56, -1365.9943, 0.0021297308, -0.00016722435, -106302.62, -48787.137, 0.0, 10.021209, 9.876346 
7.3778814e+3, 3.0403563e+2, -17708.324, -84829.42, -594.7244, 0.002130287, 0.00025597878, -17703.055, -17703.055, 0.0, 10.020615, 9.932205 
7.3778784e+3, 3.1396973e+2, -17439.9, -82992.78, -483.70947, 0.0021320248, 0.000019669838, -17436.332, -17436.332, 0.0, 10.020067, 9.933707 
7.388044e+3, 1.2533562e+2, -1678417.1, -1720317.0, -338.5349, 0.0021130817, 0.00015778492, -1678414.4, 33297.453, 0.0, 10.034113, 9.978482 
7.3880386e+3, 1.3531396e+2, -1582234.0, -1624236.1, -469.7104, 0.0021150724, -0.00001726405, -1582228.8, 31695.346, 0.0, 10.033469, 9.977715 
7.388032e+3, 1.4528604e+2, -1494910.4, -1544858.3, -1241.9332, 0.0021178992, 0.0002473859, -1494879.5, 21318.219, 0.0, 10.0327835, 9.966556 
7.388025e+3, 1.5525256e+2, -1398488.8, -1448289.0, -1348.5433, 0.0021185912, 0.000054770644, -1398452.3, 20073.455, 0.0, 10.03206, 9.96604 
7.388017e+3, 1.6521288e+2, -1311116.5, -1369003.8, -1911.4926, 0.002119327, 0.00013632045, -1311053.5, 9861.075, 0.0, 10.031308, 9.954707 
7.388008e+3, 1.7516765e+2, -1214535.0, -1272150.0, -1994.3983, 0.0021209754, 0.00003549518, -1214466.1, 8891.775, 0.0, 10.030531, 9.954305 
7.387999e+3, 1.851162e+2, -1127134.9, -1193053.1, -2356.8682, 0.0021225214, 0.00018100657, -1127050.8, -1188.6766, 0.0, 10.029736, 9.942692 
7.3879904e+3, 1.9505891e+2, -1030405.25, -1095977.0, -2418.8342, 0.0021237293, 0.00004633948, -1030316.1, -1892.7413, 0.0, 10.028922, 9.942351 
7.387981e+3, 2.0499529e+2, -943142.25, -1017444.4, -2584.3105, 0.0021249277, 0.0001676866, -943052.5, -12005.465, 0.0, 10.0281, 9.930187 
7.387971e+3, 2.1492551e+2, -846283.94, -920226.5, -2627.3093, 0.0021261554, -0.000025073256, -846190.7, -12459.892, 0.0, 10.027268, 9.929846 
7.387962e+3, 2.2484942e+2, -758782.4, -841579.44, -2590.511, 0.0021274786, 0.00022185972, -758701.4, -22224.834, 0.0, 10.026435, 9.917557 
7.387953e+3, 2.3476705e+2, -661753.2, -744175.4, -2618.579, 0.0021288702, 0.000007516515, -661670.06, -22386.305, 0.0, 10.0256, 9.917233 
7.387943e+3, 2.446781e+2, -574155.3, -665754.44, -2377.0876, 0.0021300493, 0.00016830117, -574093.6, -31938.371, 0.0, 10.024776, 9.904592 
7.387935e+3, 2.5458285e+2, -476741.75, -567793.5, -2381.2878, 0.0021308311, -0.000014240092, -476679.53, -31590.646, 0.0, 10.023965, 9.904513 
7.3879266e+3, 2.6448083e+2, -389243.72, -490059.3, -1948.5432, 0.0021319508, 0.00023105221, -389206.06, -41117.504, 0.0, 10.02317, 9.891157 
7.3879194e+3, 2.7437255e+2, -291211.53, -391092.97, -1921.4777, 0.002133194, -0.0001166874, -291174.6, -40025.082, 0.0, 10.022397, 9.89161 
7.387913e+3, 2.842565e+2, -205250.23, -317080.53, -1314.006, 0.0021344689, 0.00031419916, -205234.8, -50947.883, 0.0, 10.02165, 9.875573 
7.387907e+3, 2.941332e+2, -106669.85, -217299.05, -1245.7118, 0.002134769, -0.00016803588, -106655.82, -49160.457, 0.0, 10.020934, 9.876419 
7.387902e+3, 3.040378e+2, -18161.586, -84927.11, -446.61282, 0.0021352596, 0.00025507485, -18158.598, -18158.598, 0.0, 10.020251, 9.932313 
7.3878986e+3, 3.13972e+2, -18023.459, -83150.29, -329.8807, 0.0021381353, 0.00001841167, -18021.79, -18021.79, 0.0, 10.019613, 9.933819 
7.398078e+3, 1.253401e+2, -1678666.3, -1720808.1, -539.0125, 0.002118565, 0.00015664363, -1678659.4, 33008.484, 0.0, 10.034123, 9.978175 
7.398072e+3, 1.3531813e+2, -1582488.8, -1624726.9, -670.325, 0.00211924, -0.00001818907, -1582478.1, 31404.996, 0.0, 10.033474, 9.977408 
7.398065e+3, 1.4528993e+2, -1495133.1, -1545279.0, -1472.0538, 0.0021221596, 0.00024692962, -1495090.0, 21069.586, 0.0, 10.032783, 9.966295 
7.398057e+3, 1.552562e+2, -1398716.0, -1448709.8, -1578.774, 0.002123808, 0.000053229054, -1398666.1, 19823.97, 0.0, 10.032054, 9.96578 
7.398048e+3, 1.652163e+2, -1311310.9, -1369352.9, -2161.8042, 0.0021245896, 0.00013481421, -1311230.5, 9650.727, 0.0, 10.031297, 9.954494 
7.398039e+3, 1.7517084e+2, -1214735.3, -1272500.3, -2244.8296, 0.0021255997, 0.00003468595, -1214648.1, 8678.529, 0.0, 10.030515, 9.954093 
7.3980296e+3, 1.851192e+2, -1127302.6, -1193331.9, -2621.0244, 0.002127106, 0.00018040823, -1127198.8, -1366.1141, 0.0, 10.029715, 9.942527 
7.3980194e+3, 1.9506176e+2, -1030578.0, -1096257.3, -2683.113, 0.0021287873, 0.00004520919, -1030468.56, -2072.9646, 0.0, 10.028896, 9.942187 
7.3980093e+3, 2.0499799e+2, -943278.5, -1017644.3, -2856.2249, 0.0021300833, 0.00016649984, -943168.94, -12148.381, 0.0, 10.0280695, 9.930076 
7.3979986e+3, 2.149281e+2, -846426.3, -920429.0, -2898.9395, 0.00213093, -0.000025970723, -846312.94, -12607.502, 0.0, 10.027233, 9.929734 
7.3979884e+3, 2.2485189e+2, -758898.56, -841721.3, -2863.556, 0.002132204, 0.00022114429, -758799.7, -22347.605, 0.0, 10.026395, 9.917486 
7.3979783e+3, 2.3476945e+2, -661874.44, -744319.0, -2891.6814, 0.0021339897, 0.000006794687, -661773.1, -22513.09, 0.0, 10.025557, 9.917163 
7.397968e+3, 2.4468048e+2, -574246.56, -665828.75, -2642.325, 0.0021351257, 0.00016756533, -574170.4, -32038.406, 0.0, 10.024729, 9.904568 
7.397959e+3, 2.5458518e+2, -476838.88, -567869.2, -2646.4407, 0.002135628, -0.000015196858, -476762.0, -31696.19, 0.0, 10.023911, 9.90449 
7.39795e+3, 2.6448318e+2, -389312.25, -490067.06, -2199.9868, 0.0021367306, 0.00023016712, -389264.22, -41198.707, 0.0, 10.023113, 9.891181 
7.397942e+3, 2.7437493e+2, -291284.06, -391100.2, -2172.6213, 0.0021385972, -0.00011742559, -291236.78, -40110.586, 0.0, 10.022336, 9.891635 
7.397934e+3, 2.8425893e+2, -205292.81, -317015.22, -1544.8264, 0.0021399136, 0.00031366857, -205271.45, -51008.32, 0.0, 10.021584, 9.8756485 
7.3979276e+3, 2.941357e+2, -106718.18, -217232.77, -1475.1053, 0.0021394643, -0.00016847557, -106698.49, -49227.668, 0.0, 10.020863, 9.876497 
7.397922e+3, 3.040404e+2, -18193.074, -84814.86, -648.2373, 0.0021399066, 0.00025453628, -18186.766, -18186.766, 0.0, 10.020175, 9.9324255 
7.397918e+3, 3.139747e+2, -18059.574, -83036.89, -528.8999, 0.0021436485, 0.000017505065, -18055.27, -18055.27, 0.0, 10.019532, 9.933934 
7.408113e+3, 1.2534533e+2, -1676799.9, -1720166.9, -352.67584, 0.0021225465, 0.00015498787, -1676797.0, 34819.656, 0.0, 10.035446, 9.977862 
7.408106e+3, 1.3532306e+2, -1580784.0, -1624175.0, -490.3172, 0.0021244623, -0.00001964449, -1580778.5, 33056.52, 0.0, 10.0347, 9.9770975 
7.408098e+3, 1.4529456e+2, -1493546.3, -1544739.6, -1323.3267, 0.0021275778, 0.0002452535, -1493512.1, 22602.049, 0.0, 10.033915, 9.966031 
7.4080896e+3, 1.5526056e+2, -1397285.9, -1448255.6, -1434.396, 0.002128124, 0.000052029885, -1397245.5, 21201.826, 0.0, 10.033092, 9.965518 
7.40808e+3, 1.6522041e+2, -1309996.8, -1368908.3, -2039.8202, 0.002128813, 0.00013350917, -1309926.3, 10914.559, 0.0, 10.03224, 9.95428 
7.40807e+3, 1.7517474e+2, -1213578.0, -1272140.4, -2125.5173, 0.0021306896, 0.0000331745, -1213500.9, 9787.384, 0.0, 10.031361, 9.953878 
7.40806e+3, 1.8512292e+2, -1126259.5, -1192979.3, -2515.391, 0.0021323734, 0.00017888527, -1126164.9, -368.62997, 0.0, 10.030466, 9.94236 
7.4080485e+3, 1.950653e+2, -1029686.8, -1095986.1, -2578.8303, 0.0021334668, 0.000043993776, -1029586.7, -1225.9181, 0.0, 10.029554, 9.94202 
7.408038e+3, 2.0500138e+2, -942493.2, -1017365.1, -2759.6394, 0.0021347755, 0.00016534058, -942391.56, -11404.48, 0.0, 10.028632, 9.929965 
7.4080265e+3, 2.149314e+2, -845793.6, -920230.56, -2802.1038, 0.0021362342, -0.00002731842, -845688.3, -12015.256, 0.0, 10.0276985, 9.929624 
7.408015e+3, 2.2485512e+2, -758384.6, -841539.9, -2766.4192, 0.0021375492, 0.00021979745, -758292.75, -21872.135, 0.0, 10.026765, 9.917415 
7.408004e+3, 2.347726e+2, -661508.8, -744214.25, -2794.7673, 0.0021386547, 0.000005559166, -661414.44, -22185.23, 0.0, 10.025831, 9.917091 
7.407993e+3, 2.4468358e+2, -573992.1, -665725.8, -2536.6614, 0.0021399294, 0.00016633945, -573922.0, -31820.37, 0.0, 10.024906, 9.904545 
7.407983e+3, 2.5458828e+2, -476732.72, -567840.44, -2539.846, 0.002141323, -0.000016433296, -476661.97, -31626.268, 0.0, 10.023992, 9.904469 
7.4079734e+3, 2.6448625e+2, -389317.1, -490040.7, -2076.4316, 0.002142495, 0.0002289721, -389274.28, -41238.91, 0.0, 10.023097, 9.891205 
7.407964e+3, 2.7437806e+2, -291430.38, -391142.25, -2047.293, 0.0021432107, -0.000118385964, -291388.38, -40292.555, 0.0, 10.022223, 9.891662 
7.4079555e+3, 2.842621e+2, -205543.13, -317045.88, -1396.4586, 0.0021446077, 0.00031267304, -205525.64, -51293.402, 0.0, 10.021375, 9.875729 
7.4079484e+3, 2.941389e+2, -107111.016, -217328.97, -1321.7585, 0.0021455393, -0.00016979701, -107095.164, -49656.06, 0.0, 10.0205555, 9.876581 
7.407942e+3, 3.0404374e+2, -18702.447, -84931.016, -466.8185, 0.0021461807, 0.00025309686, -18699.158, -18699.158, 0.0, 10.01977, 9.932541 
7.407937e+3, 3.1397814e+2, -18706.121, -83216.61, -342.60736, 0.0021482457, 0.00001682676, -18704.303, -18704.303, 0.0, 10.019032, 9.934052 
7.4181485e+3, 1.2535112e+2, -1677059.8, -1720678.5, -584.5869, 0.002126218, 0.00015391626, -1677051.9, 34508.043, 0.0, 10.035457, 9.977542 
7.418141e+3, 1.3532852e+2, -1581048.4, -1624685.4, -722.28937, 0.0021300386, -0.000021565535, -1581036.5, 32744.996, 0.0, 10.034706, 9.976779 
7.4181324e+3, 1.4529973e+2, -1493776.4, -1545175.1, -1583.981, 0.0021333224, 0.0002440854, -1493727.6, 22335.836, 0.0, 10.033914, 9.965761 
7.418122e+3, 1.5526547e+2, -1397521.9, -1448691.6, -1695.2296, 0.0021322286, 0.00005120878, -1397465.8, 20933.543, 0.0, 10.033085, 9.96525 
7.418112e+3, 1.6522507e+2, -1310198.0, -1369268.3, -2321.475, 0.0021327278, 0.00013275178, -1310106.9, 10688.198, 0.0, 10.0322275, 9.954061 
7.4181014e+3, 1.7517918e+2, -1213784.1, -1272500.9, -2407.291, 0.0021358537, 0.000031804975, -1213685.6, 9559.195, 0.0, 10.031343, 9.953661 
7.41809e+3, 1.8512717e+2, -1126431.6, -1193264.9, -2810.0886, 0.0021377162, 0.00017757548, -1126313.8, -559.15027, 0.0, 10.030443, 9.942192 
7.418078e+3, 1.9506939e+2, -1029865.2, -1096273.6, -2873.6902, 0.0021378538, 0.000043061464, -1029741.06, -1420.2627, 0.0, 10.029527, 9.941853 
7.4180657e+3, 2.0500535e+2, -942631.25, -1017564.7, -3063.1257, 0.0021391641, 0.00016454468, -942506.25, -11557.7705, 0.0, 10.028599, 9.929855 
7.418054e+3, 2.1493523e+2, -845937.2, -920432.3, -3105.336, 0.0021414494, -0.000028346, -845807.94, -12172.439, 0.0, 10.027661, 9.929514 
7.418041e+3, 2.2485885e+2, -758503.44, -841683.56, -3070.698, 0.0021427232, 0.00021876593, -758390.25, -22006.318, 0.0, 10.026724, 9.917343 
7.41803e+3, 2.3477627e+2, -661633.9, -744360.44, -3099.1023, 0.0021429544, 0.000004615596, -661517.94, -22324.645, 0.0, 10.0257845, 9.917021 
7.418018e+3, 2.446872e+2, -574085.1, -665798.3, -2834.3525, 0.0021442426, 0.00016554927, -573997.6, -31931.457, 0.0, 10.024856, 9.904523 
7.4180067e+3, 2.5459185e+2, -476830.4, -567913.8, -2837.7358, 0.0021469286, -0.00001724245, -476742.06, -31741.666, 0.0, 10.023937, 9.904448 
7.417996e+3, 2.6448986e+2, -389385.63, -490044.78, -2359.703, 0.0021479882, 0.00022828957, -389330.34, -41330.273, 0.0, 10.023037, 9.891232 
7.4179864e+3, 2.743817e+2, -291504.66, -391146.8, -2330.1455, 0.0021472995, -0.00011896943, -291450.2, -40389.965, 0.0, 10.02216, 9.89169 
7.417977e+3, 2.842658e+2, -205582.47, -316967.06, -1660.7523, 0.0021486746, 0.0003121113, -205557.72, -51361.598, 0.0, 10.021306, 9.8758135 
7.4179685e+3, 2.941427e+2, -107154.48, -217247.94, -1585.0818, 0.0021514804, -0.00017076844, -107131.66, -49729.543, 0.0, 10.020481, 9.87667 
7.417962e+3, 3.040476e+2, -18732.023, -84810.02, -700.87964, 0.0021524003, 0.00025219368, -18724.59, -18724.59, 0.0, 10.019691, 9.93266 
7.417956e+3, 3.1398216e+2, -18742.879, -83096.28, -573.9665, 0.0021519274, 0.000016741848, -18737.76, -18737.76, 0.0, 10.018947, 9.934174 
7.428185e+3, 1.2535776e+2, -1675075.3, -1719987.3, -363.9092, 0.0021316805, 0.0001520134, -1675072.3, 36422.492, 0.0, 10.0368595, 9.977218 
7.4281764e+3, 1.3533483e+2, -1579236.0, -1624089.0, -507.71994, 0.0021337443, -0.000022647742, -1579230.3, 34489.203, 0.0, 10.036006, 9.976457 
7.428166e+3, 1.4530575e+2, -1492092.3, -1544593.8, -1400.3333, 0.002137117, 0.00024254754, -1492054.9, 23949.5, 0.0, 10.03511, 9.965488 
7.428156e+3, 1.5527123e+2, -1396008.8, -1448203.1, -1515.6239, 0.0021374545, 0.000049565046, -1395964.8, 22378.088, 0.0, 10.034179, 9.964978 
7.428145e+3, 1.6523057e+2, -1308809.5, -1368790.6, -2162.9426, 0.0021380587, 0.00013099941, -1308731.6, 12009.51, 0.0, 10.033219, 9.95384 
7.4281335e+3, 1.7518447e+2, -1212560.4, -1272112.1, -2250.9597, 0.0021401364, 0.000030502408, -1212475.5, 10717.493, 0.0, 10.032235, 9.953441 
7.4281204e+3, 1.8513227e+2, -1125330.1, -1192885.6, -2667.0017, 0.0021420321, 0.0001762701, -1125225.0, 479.62402, 0.0, 10.031234, 9.942021 
7.428108e+3, 1.950743e+2, -1028926.75, -1095981.6, -2731.661, 0.0021431053, 0.000041490293, -1028815.7, -543.15076, 0.0, 10.030215, 9.941682 
7.428095e+3, 2.0501012e+2, -941803.06, -1017261.1, -2928.0325, 0.0021444298, 0.00016298752, -941689.6, -10788.051, 0.0, 10.029187, 9.929747 
7.4280816e+3, 2.149399e+2, -845267.94, -920213.0, -2969.566, 0.0021458594, -0.000029657765, -845150.44, -11560.754, 0.0, 10.02815, 9.929404 
7.428069e+3, 2.2486345e+2, -757963.0, -841488.44, -2934.908, 0.0021472764, 0.00021750417, -757860.0, -21521.025, 0.0, 10.02711, 9.917272 
7.4280554e+3, 2.3478077e+2, -661253.06, -744248.0, -2963.345, 0.002148535, 0.0000031358545, -661147.4, -21998.346, 0.0, 10.026069, 9.916949 
7.428043e+3, 2.4469167e+2, -573823.25, -665690.1, -2689.533, 0.0021498264, 0.00016403355, -573744.56, -31722.18, 0.0, 10.025038, 9.904501 
7.428031e+3, 2.5459632e+2, -476722.75, -567882.9, -2692.4148, 0.0021512723, -0.000018451026, -476643.3, -31686.469, 0.0, 10.024017, 9.904427 
7.428019e+3, 2.644943e+2, -389396.44, -490016.97, -2198.1047, 0.002152467, 0.00022706568, -389348.44, -41391.965, 0.0, 10.023015, 9.891259 
7.4280083e+3, 2.7438614e+2, -291670.4, -391194.1, -2166.651, 0.0021532963, -0.00012041756, -291623.25, -40606.91, 0.0, 10.022032, 9.89172 
7.427998e+3, 2.842703e+2, -205859.11, -317000.47, -1474.2262, 0.0021548346, 0.00031067026, -205839.56, -51687.902, 0.0, 10.021074, 9.875903 
7.427989e+3, 2.9414734e+2, -107580.82, -217350.03, -1394.3229, 0.002155712, -0.00017181358, -107563.12, -50206.367, 0.0, 10.020146, 9.876763 
7.4279815e+3, 3.0405232e+2, -19288.096, -84941.46, -483.86713, 0.0021566984, 0.00025105636, -19284.531, -19284.531, 0.0, 10.019251, 9.932782 
7.427975e+3, 3.13987e+2, -19453.898, -83300.37, -352.57257, 0.0021586192, 0.000015156619, -19451.951, -19451.951, 0.0, 10.018399, 9.9342985 
7.438221e+3, 1.2536506e+2, -1675344.3, -1720517.3, -628.9085, 0.0021375336, 0.00015081865, -1675335.5, 36087.813, 0.0, 10.036871, 9.976886 
7.438212e+3, 1.3534181e+2, -1579510.6, -1624618.0, -772.814, 0.002137137, -0.000023772578, -1579497.4, 34153.773, 0.0, 10.036011, 9.976127 
7.438202e+3, 1.4531243e+2, -1492330.4, -1545043.3, -1694.5538, 0.0021404873, 0.00024194457, -1492276.0, 23663.127, 0.0, 10.0351095, 9.965211 
7.4381906e+3, 1.5527761e+2, -1396252.1, -1448652.4, -1809.965, 0.0021429677, 0.00004806696, -1396189.8, 22090.611, 0.0, 10.034171, 9.964702 
7.438178e+3, 1.6523671e+2, -1309015.9, -1369159.3, -2476.9626, 0.0021436575, 0.0001296097, -1308914.1, 11766.92, 0.0, 10.033206, 9.953616 
7.4381655e+3, 1.7519039e+2, -1212772.8, -1272481.6, -2565.222, 0.0021441646, 0.000029609986, -1212662.8, 10472.213, 0.0, 10.032216, 9.953218 
7.438152e+3, 1.8513797e+2, -1125507.4, -1193177.6, -2994.5198, 0.0021459777, 0.0001755129, -1125375.1, 273.48657, 0.0, 10.031209, 9.94185 
7.438138e+3, 1.9507985e+2, -1029109.44, -1096275.3, -3059.2864, 0.0021483053, 0.000040191197, -1028970.4, -752.1892, 0.0, 10.030187, 9.941511 
7.438124e+3, 2.0501553e+2, -941941.5, -1017458.44, -3263.7856, 0.002149684, 0.00016167446, -941800.7, -10952.058, 0.0, 10.029154, 9.929638 
7.43811e+3, 2.1494521e+2, -845413.0, -920413.2, -3305.126, 0.0021498692, -0.000030520016, -845267.6, -11729.827, 0.0, 10.0281105, 9.9292965 
7.438096e+3, 2.2486866e+2, -758085.0, -841633.75, -3272.8442, 0.0021513419, 0.0002168211, -757957.0, -21669.035, 0.0, 10.027066, 9.917201 
7.4380815e+3, 2.3478591e+2, -661380.4, -744395.44, -3301.487, 0.0021541524, 0.0000020551438, -661249.3, -22150.582, 0.0, 10.026021, 9.916878 
7.438068e+3, 2.4469675e+2, -573917.8, -665762.56, -3020.547, 0.0021552567, 0.00016299833, -573818.56, -31846.041, 0.0, 10.024985, 9.90448 
7.4380547e+3, 2.546014e+2, -476823.0, -567956.9, -3023.625, 0.00215493, -0.000019222807, -476722.78, -31815.623, 0.0, 10.02396, 9.904407 
7.438042e+3, 2.644994e+2, -389465.47, -490017.1, -2516.2092, 0.0021560944, 0.0002263413, -389402.56, -41495.773, 0.0, 10.022953, 9.89129 
7.43803e+3, 2.7439126e+2, -291744.44, -391194.34, -2484.6902, 0.002159404, -0.00012155959, -291682.4, -40716.086, 0.0, 10.021966, 9.891752 
7.4380195e+3, 2.8427544e+2, -205894.97, -316910.44, -1773.5258, 0.0021609897, 0.00030965748, -205866.64, -51765.59, 0.0, 10.021004, 9.875997 
7.4380094e+3, 2.941526e+2, -107621.69, -217258.05, -1692.6443, 0.002158946, -0.0001722072, -107595.56, -50290.383, 0.0, 10.02007, 9.876861 
7.4380004e+3, 3.0405772e+2, -19317.418, -84813.67, -754.3291, 0.002159938, 0.000250775, -19308.73, -19308.73, 0.0, 10.019169, 9.932907 
7.437993e+3, 3.139925e+2, -19490.408, -83173.516, -620.59357, 0.0021652183, 0.000014085832, -19484.36, -19484.36, 0.0, 10.0183115, 9.934425 
7.448259e+3, 1.2537336e+2, -1673237.6, -1719772.3, -371.32425, 0.0021408943, 0.000148843, -1673234.6, 38107.305, 0.0, 10.038354, 9.97655 
7.448249e+3, 1.3534977e+2, -1577591.5, -1623976.1, -520.8464, 0.002142494, -0.000025212972, -1577585.8, 35987.46, 0.0, 10.037383, 9.975794 
7.4482375e+3, 1.4532007e+2, -1490549.5, -1544418.3, -1471.8757, 0.0021459581, 0.00023993876, -1490509.3, 25354.826, 0.0, 10.036371, 9.96493 
7.448225e+3, 1.5528497e+2, -1394652.0, -1448125.4, -1590.7036, 0.002146856, 0.00004647804, -1394604.6, 23603.396, 0.0, 10.035324, 9.964423 
7.448212e+3, 1.6524383e+2, -1307549.6, -1368645.8, -2277.5662, 0.0021475125, 0.00012788238, -1307464.8, 13146.412, 0.0, 10.03425, 9.95339 
7.448198e+3, 1.7519727e+2, -1211483.4, -1272063.3, -2367.656, 0.0021493898, 0.000027891958, -1211391.0, 11676.472, 0.0, 10.033152, 9.952993 
7.4481833e+3, 1.8514466e+2, -1124347.5, -1192770.5, -2808.6035, 0.002151271, 0.00017381685, -1124232.4, 1350.6256, 0.0, 10.032038, 9.941676 
7.4481684e+3, 1.9508637e+2, -1028118.8, -1095958.6, -2873.9883, 0.0021524522, 0.000038749906, -1027997.3, 156.97105, 0.0, 10.03091, 9.941339 
7.448154e+3, 2.0502192e+2, -941065.1, -1017126.5, -3085.0837, 0.0021538555, 0.00016023692, -940940.2, -10154.125, 0.0, 10.029771, 9.929532 
7.448138e+3, 2.1495147e+2, -844705.5, -920171.0, -3125.1877, 0.0021552127, -0.000032214364, -844576.3, -11100.058, 0.0, 10.028622, 9.92919 
7.448123e+3, 2.2487484e+2, -757516.56, -841424.44, -3092.4583, 0.0021567962, 0.00021513374, -757402.75, -21175.389, 0.0, 10.027472, 9.917129 
7.448108e+3, 2.3479204e+2, -660977.3, -744271.94, -3121.186, 0.0021584847, 0.0000006564454, -660860.56, -21821.773, 0.0, 10.026319, 9.916806 
7.448093e+3, 2.4470282e+2, -573640.5, -665645.1, -2831.5254, 0.0021596553, 0.00016159413, -573553.44, -31640.406, 0.0, 10.025176, 9.904459 
7.4480784e+3, 2.546074e+2, -476710.5, -567922.1, -2833.9722, 0.0021606626, -0.000020809406, -476622.53, -31774.645, 0.0, 10.024042, 9.9043865 
7.4480647e+3, 2.6450545e+2, -389479.7, -489988.16, -2310.8542, 0.0021619657, 0.00022471433, -389426.6, -41579.145, 0.0, 10.022926, 9.891319 
7.448052e+3, 2.7439734e+2, -291921.4, -391244.53, -2278.1484, 0.0021636651, -0.00012284765, -291869.2, -40962.492, 0.0, 10.02183, 9.891784 
7.44804e+3, 2.842816e+2, -206188.06, -316941.72, -1544.7733, 0.0021652563, 0.00030836932, -206166.53, -52125.73, 0.0, 10.020756, 9.876094 
7.4480295e+3, 2.9415885e+2, -108077.32, -217364.02, -1459.6844, 0.0021649085, -0.00017379489, -108057.82, -50813.9, 0.0, 10.01971, 9.876963 
7.4480194e+3, 3.040641e+2, -19917.928, -84960.96, -497.03406, 0.002166434, 0.0002490239, -19914.13, -19914.13, 0.0, 10.018695, 9.933034 
7.448011e+3, 3.13999e+2, -20257.807, -83399.49, -360.01932, 0.0021698175, 0.000012667801, -20255.754, -20255.754, 0.0, 10.017723, 9.934554 
7.4582976e+3, 1.253824e+2, -1673515.0, -1720318.3, -672.2866, 0.0021437209, 0.00014790191, -1673505.4, 37748.066, 0.0, 10.038365, 9.976209 
7.458286e+3, 1.3535845e+2, -1577874.9, -1624521.1, -821.9459, 0.0021484809, -0.00002697413, -1577860.5, 35627.51, 0.0, 10.037387, 9.975454 
7.458274e+3, 1.4532846e+2, -1490794.1, -1544878.6, -1801.0277, 0.0021519237, 0.00023875789, -1490734.3, 25047.719, 0.0, 10.036368, 9.964645 
7.4582607e+3, 1.5529308e+2, -1394902.5, -1448585.8, -1920.1564, 0.0021503617, 0.000045338573, -1394833.9, 23294.787, 0.0, 10.035315, 9.964141 
7.4582464e+3, 1.6525167e+2, -1307761.6, -1369022.3, -2626.4226, 0.00215085, 0.00012686657, -1307649.3, 12885.104, 0.0, 10.034235, 9.953162 
7.4582314e+3, 1.7520489e+2, -1211700.6, -1272440.1, -2716.763, 0.0021548276, 0.00002645381, -1211579.4, 11413.417, 0.0, 10.033132, 9.952767 
7.458216e+3, 1.8515208e+2, -1124528.4, -1193066.9, -3169.5608, 0.0021567538, 0.00017253472, -1124382.1, 1128.164, 0.0, 10.032012, 9.941503 
7.4582e+3, 1.9509363e+2, -1028306.3, -1096256.9, -3235.1235, 0.0021560509, 0.000037832044, -1028152.6, -69.36261, 0.0, 10.030878, 9.941165 
7.458183e+3, 2.0502901e+2, -941204.3, -1017320.5, -3455.028, 0.002157533, 0.0001593191, -941047.75, -10331.368, 0.0, 10.029735, 9.929427 
7.458167e+3, 2.1495847e+2, -844850.6, -920367.44, -3495.0122, 0.0021606728, -0.00003350658, -844689.2, -11281.549, 0.0, 10.028581, 9.929085 
7.4581504e+3, 2.2488174e+2, -757641.1, -841571.7, -3464.5857, 0.0021622195, 0.00021396189, -757498.3, -21338.75, 0.0, 10.027426, 9.917057 
7.458134e+3, 2.3479888e+2, -661107.44, -744421.6, -3493.6719, 0.0021621203, -0.0000002228148, -660961.2, -21989.453, 0.0, 10.026269, 9.916735 
7.458118e+3, 2.4470961e+2, -573736.56, -665717.1, -3198.0967, 0.002163257, 0.00016087016, -573625.5, -31779.06, 0.0, 10.025122, 9.904439 
7.4581033e+3, 2.546142e+2, -476812.3, -567995.8, -3201.0056, 0.0021665404, -0.00002194742, -476700.1, -31918.621, 0.0, 10.023983, 9.904367 
7.458088e+3, 2.645122e+2, -389549.8, -489987.06, -2665.362, 0.0021677339, 0.00022360314, -389479.13, -41698.137, 0.0, 10.022862, 9.891351 
7.458074e+3, 2.7440414e+2, -291996.4, -391243.72, -2632.6785, 0.0021669848, -0.00012357337, -291926.63, -41086.74, 0.0, 10.021762, 9.891817 
7.458061e+3, 2.842885e+2, -206219.89, -316839.8, -1882.0709, 0.002168343, 0.00030778887, -206187.89, -52214.53, 0.0, 10.020683, 9.876196 
7.458049e+3, 2.9416582e+2, -108114.77, -217260.1, -1796.3923, 0.0021710047, -0.00017486677, -108085.22, -50909.77, 0.0, 10.019631, 9.8770685 
7.4580383e+3, 3.0407116e+2, -19947.64, -84828.984, -806.9075, 0.0021732198, 0.00024789997, -19937.607, -19937.607, 0.0, 10.018611, 9.933163 
7.458029e+3, 3.1400624e+2, -20294.285, -83268.81, -667.9593, 0.00217273, 0.000012364591, -20287.201, -20287.201, 0.0, 10.017633, 9.934686 
7.468336e+3, 1.2539257e+2, -1671286.9, -1719517.6, -373.97864, 0.0021491104, 0.00014572422, -1671284.0, 39869.61, 0.0, 10.039928, 9.975864 
7.4683243e+3, 1.353683e+2, -1575847.5, -1623830.8, -528.7831, 0.0021519628, -0.00002827784, -1575841.6, 37549.902, 0.0, 10.038831, 9.975113 
7.468311e+3, 1.4533798e+2, -1488915.5, -1544208.1, -1535.1058, 0.0021553684, 0.00023662431, -1488872.9, 26815.686, 0.0, 10.037694, 9.964359 
7.468296e+3, 1.553023e+2, -1393216.8, -1448019.6, -1657.2601, 0.0021556597, 0.00004349368, -1393166.8, 24871.402, 0.0, 10.036524, 9.963857 
7.4682814e+3, 1.6526067e+2, -1306217.8, -1368470.9, -2381.335, 0.0021562027, 0.0001249925, -1306126.8, 14319.527, 0.0, 10.035329, 9.952933 
7.4682647e+3, 1.7521365e+2, -1210341.8, -1271988.1, -2472.787, 0.0021585799, 0.000025001296, -1210242.8, 12664.273, 0.0, 10.034112, 9.952539 
7.468248e+3, 1.8516065e+2, -1123307.0, -1192629.0, -2935.7563, 0.002160563, 0.00017093967, -1123182.9, 2243.6548, 0.0, 10.03288, 9.941327 
7.468231e+3, 1.9510199e+2, -1027264.0, -1095914.6, -3001.593, 0.002161481, 0.00003588552, -1027133.0, 868.1739, 0.0, 10.031635, 9.94099 
7.4682134e+3, 2.0503725e+2, -940278.8, -1016957.9, -3226.6208, 0.0021630363, 0.00015741296, -940143.3, -9507.62, 0.0, 10.030381, 9.929324 
7.4681956e+3, 2.1496661e+2, -844098.8, -920097.25, -3264.5413, 0.0021647818, -0.000035153567, -843958.9, -10630.94, 0.0, 10.029119, 9.928982 
7.468178e+3, 2.248898e+2, -757038.3, -841345.2, -3233.3137, 0.0021663602, 0.00021224913, -756914.5, -20833.766, 0.0, 10.027853, 9.916984 
7.4681604e+3, 2.3480685e+2, -660677.6, -744285.0, -3262.423, 0.002167451, -0.000002148828, -660550.5, -21656.94, 0.0, 10.026585, 9.916661 
7.4681437e+3, 2.4471754e+2, -573439.44, -665589.25, -2959.0774, 0.0021687092, 0.0001589856, -573344.5, -31575.75, 0.0, 10.025325, 9.904418 
7.468127e+3, 2.546221e+2, -476687.66, -567954.7, -2961.737, 0.0021709576, -0.000023345094, -476591.66, -31887.662, 0.0, 10.024074, 9.904346 
7.468111e+3, 2.645201e+2, -389558.84, -489953.66, -2410.8743, 0.0021722713, 0.00022220664, -389501.0, -41797.54, 0.0, 10.022839, 9.891382 
7.4680954e+3, 2.744121e+2, -292176.88, -391293.88, -2377.2058, 0.0021726221, -0.00012528889, -292119.88, -41357.844, 0.0, 10.021622, 9.8918495 
7.468082e+3, 2.842965e+2, -206522.17, -316866.66, -1606.58, 0.0021741418, 0.0003060327, -206498.78, -52603.926, 0.0, 10.020426, 9.876301 
7.4680686e+3, 2.9417396e+2, -108591.766, -217367.27, -1517.4817, 0.0021754275, -0.00017632556, -108570.59, -51474.715, 0.0, 10.019253, 9.877178 
7.4680567e+3, 3.040794e+2, -20585.354, -84991.92, -505.3842, 0.0021778923, 0.00024626422, -20581.389, -20581.389, 0.0, 10.018111, 9.933291 
7.4680465e+3, 3.1401458e+2, -21110.406, -83516.945, -364.4899, 0.0021787332, 0.000010955557, -21108.277, -21108.277, 0.0, 10.017011, 9.934815 
7.4783766e+3, 1.254036e+2, -1671572.3, -1720077.4, -713.34814, 0.002155027, 0.00014451788, -1671561.8, 39483.74, 0.0, 10.039939, 9.975514 
7.4783635e+3, 1.3537897e+2, -1576138.6, -1624389.1, -868.38464, 0.0021550865, -0.0000295986, -1576123.0, 37163.934, 0.0, 10.038834, 9.974765 
7.4783486e+3, 1.4534834e+2, -1489165.8, -1544677.8, -1901.535, 0.00215818, 0.00023564951, -1489100.8, 26486.293, 0.0, 10.03769, 9.964069 
7.478333e+3, 1.5531237e+2, -1393473.3, -1448489.1, -2024.0549, 0.0021614078, 0.0000419959, -1393399.0, 24540.473, 0.0, 10.036513, 9.963569 
7.4783164e+3, 1.6527048e+2, -1306434.0, -1368852.4, -2766.12, 0.0021618952, 0.00012383616, -1306311.6, 14038.413, 0.0, 10.035313, 9.9527025 
7.4782985e+3, 1.7522323e+2, -1210564.0, -1272370.1, -2858.0437, 0.0021618402, 0.000024061843, -1210432.1, 12380.878, 0.0, 10.034089, 9.952311 
7.4782807e+3, 1.8517002e+2, -1123492.4, -1192929.0, -3332.1616, 0.0021638358, 0.00016994837, -1123332.9, 2001.6638, 0.0, 10.032852, 9.941153 
7.478263e+3, 1.951112e+2, -1027455.44, -1096216.3, -3397.969, 0.0021669737, 0.000034373636, -1027287.94, 622.9764, 0.0, 10.031601, 9.940816 
7.478244e+3, 2.0504633e+2, -940416.9, -1017145.44, -3630.828, 0.0021686447, 0.00015592933, -940245.44, -9698.679, 0.0, 10.030342, 9.929224 
7.4782246e+3, 2.1497558e+2, -844242.6, -920287.25, -3669.0776, 0.002168302, -0.00003616328, -844066.0, -10826.027, 0.0, 10.029075, 9.928883 
7.478206e+3, 2.2489868e+2, -757165.8, -841494.75, -3641.116, 0.002169731, 0.00021140237, -757008.9, -21015.266, 0.0, 10.027805, 9.916912 
7.478187e+3, 2.3481566e+2, -660810.5, -744437.1, -3670.6243, 0.0021728051, -0.0000036139115, -660649.7, -21842.486, 0.0, 10.026533, 9.916589 
7.478169e+3, 2.447263e+2, -573537.4, -665662.75, -3362.5562, 0.0021740063, 0.00015767435, -573414.8, -31731.967, 0.0, 10.0252695, 9.904397 
7.478151e+3, 2.5463086e+2, -476790.6, -568029.75, -3365.921, 0.0021743972, -0.000024035113, -476666.6, -32048.35, 0.0, 10.0240135, 9.904326 
7.478134e+3, 2.6452887e+2, -389629.3, -489951.63, -2803.4946, 0.0021756038, 0.00022162967, -389551.03, -41933.355, 0.0, 10.022774, 9.891415 
7.4781173e+3, 2.744209e+2, -292254.2, -391293.22, -2770.034, 0.002178448, -0.0001265418, -292176.78, -41500.855, 0.0, 10.021552, 9.891884 
7.478102e+3, 2.8430536e+2, -206552.02, -316755.9, -1984.6941, 0.0021799284, 0.00030487636, -206516.3, -52708.234, 0.0, 10.02035, 9.87641 
7.478088e+3, 2.9418293e+2, -108624.8, -217253.02, -1895.3374, 0.0021785633, -0.00017683236, -108591.74, -51583.77, 0.0, 10.019173, 9.877291 
7.4780744e+3, 3.040885e+2, -20615.158, -84859.11, -856.7348, 0.00218117, 0.0002458617, -20603.734, -20603.734, 0.0, 10.018026, 9.933421 
7.478064e+3, 3.140238e+2, -21150.656, -83388.23, -714.09296, 0.0021845798, 0.000010322914, -21142.465, -21142.465, 0.0, 10.016918, 9.934945 
7.488417e+3, 1.2541594e+2, -1669224.3, -1719219.1, -371.05316, 0.0021582234, 0.0001420936, -1669221.5, 41703.176, 0.0, 10.041579, 9.975163 
7.488403e+3, 1.3539095e+2, -1574003.3, -1623647.9, -530.56885, 0.0021605685, -0.000030831765, -1573997.6, 39171.863, 0.0, 10.040348, 9.974417 
7.488387e+3, 1.4536001e+2, -1487189.1, -1543959.1, -1588.455, 0.0021633129, 0.00023332472, -1487144.8, 28328.06, 0.0, 10.039079, 9.963778 
7.48837e+3, 1.5532374e+2, -1391700.5, -1447880.6, -1713.1239, 0.0021649057, 0.000040121427, -1391648.4, 26179.672, 0.0, 10.037779, 9.96328 
7.488352e+3, 1.6528158e+2, -1304812.4, -1368261.8, -2470.5361, 0.002165556, 0.00012178246, -1304716.4, 15524.908, 0.0, 10.036456, 9.952471 
7.4883336e+3, 1.7523411e+2, -1209137.8, -1271884.3, -2563.0557, 0.00216715, 0.000022044673, -1209033.3, 13673.234, 0.0, 10.035112, 9.952081 
7.4883145e+3, 1.851807e+2, -1122209.6, -1192457.6, -3044.9275, 0.0021691495, 0.00016787885, -1122077.9, 3152.0315, 0.0, 10.033758, 9.940978 
7.488294e+3, 1.951217e+2, -1026357.9, -1095843.6, -3110.297, 0.002170997, 0.000032540393, -1026218.94, 1589.0841, 0.0, 10.0323925, 9.940642 
7.4882746e+3, 2.0505668e+2, -939438.94, -1016749.5, -3346.2822, 0.002172601, 0.00015423111, -939294.4, -8849.162, 0.0, 10.031019, 9.929127 
7.4882543e+3, 2.1498586e+2, -843444.0, -919986.9, -3381.8196, 0.0021734068, -0.000038021477, -843294.9, -10155.494, 0.0, 10.029639, 9.928784 
7.488234e+3, 2.2490886e+2, -756525.1, -841248.4, -3352.7876, 0.0021750731, 0.00020949847, -756392.7, -20498.822, 0.0, 10.028255, 9.916839 
7.488214e+3, 2.3482576e+2, -660347.75, -744283.44, -3381.871, 0.00217732, -0.000005261604, -660211.75, -21503.6, 0.0, 10.02687, 9.916515 
7.488194e+3, 2.4473636e+2, -573213.06, -665522.2, -3066.5933, 0.0021783519, 0.00015585164, -573111.3, -31527.037, 0.0, 10.025491, 9.904374 
7.488175e+3, 2.5464088e+2, -476643.4, -567978.56, -3070.1052, 0.0021793908, -0.000026105863, -476540.3, -32020.42, 0.0, 10.024118, 9.9043045 
7.488156e+3, 2.645389e+2, -389622.72, -489909.5, -2495.1216, 0.0021810269, 0.00021948163, -389560.66, -42041.387, 0.0, 10.0227585, 9.891446 
7.4881387e+3, 2.7443096e+2, -292431.8, -391341.16, -2461.1614, 0.002183475, -0.0001282671, -292370.63, -41793.402, 0.0, 10.021413, 9.891916 
7.488122e+3, 2.843155e+2, -206856.31, -316775.84, -1656.0795, 0.002184853, 0.00030327274, -206831.36, -53122.707, 0.0, 10.020087, 9.876521 
7.4881065e+3, 2.9419318e+2, -109109.086, -217355.63, -1563.7234, 0.0021834173, -0.00017851693, -109086.5, -52179.063, 0.0, 10.018785, 9.877407 
7.488092e+3, 3.0409887e+2, -21276.275, -85032.78, -507.3604, 0.0021865356, 0.00024385536, -21272.238, -21272.238, 0.0, 10.017509, 9.933549 
7.4880797e+3, 3.1403434e+2, -22010.486, -83657.98, -363.99295, 0.0021901375, 0.000007882802, -22008.336, -22008.336, 0.0, 10.016265, 9.935074 
7.4984586e+3, 1.2542923e+2, -1669514.9, -1719788.3, -750.3441, 0.002160882, 0.0001411163, -1669503.6, 41290.78, 0.0, 10.041589, 9.974808 
7.498443e+3, 1.3540389e+2, -1574301.6, -1624216.6, -910.35535, 0.002166852, -0.000032189808, -1574285.0, 38757.652, 0.0, 10.04035, 9.974064 
7.4984264e+3, 1.4537261e+2, -1487444.8, -1544435.1, -1993.6835, 0.0021688403, 0.00023231257, -1487375.1, 27974.021, 0.0, 10.039073, 9.963486 
7.498408e+3, 1.5533608e+2, -1391961.3, -1448355.8, -2118.945, 0.002167889, 0.000038771606, -1391881.8, 25825.473, 0.0, 10.037767, 9.96299 
7.498389e+3, 1.6529363e+2, -1305031.6, -1368646.6, -2892.986, 0.0021686046, 0.000120588775, -1304900.4, 15222.648, 0.0, 10.036437, 9.952239 
7.4983686e+3, 1.7524594e+2, -1209363.3, -1272269.4, -2986.2292, 0.0021728047, 0.000020323461, -1209221.9, 13368.657, 0.0, 10.035089, 9.951851 
7.4983484e+3, 1.8519232e+2, -1122398.1, -1192758.1, -3477.6404, 0.0021747353, 0.0001663154, -1122226.6, 2889.352, 0.0, 10.033727, 9.940804 
7.498327e+3, 1.9513316e+2, -1026554.3, -1096146.3, -3543.3223, 0.0021741427, 0.00003154163, -1026374.4, 1321.398, 0.0, 10.032354, 9.94047 
7.4983054e+3, 2.05068e+2, -939578.1, -1016930.94, -3785.8586, 0.0021757304, 0.00015325515, -939393.25, -9059.039, 0.0, 10.030976, 9.929032 
7.498284e+3, 2.1499707e+2, -843586.6, -920169.44, -3821.3564, 0.0021786843, -0.000039298793, -843396.44, -10367.096, 0.0, 10.0295925, 9.92869 
7.498262e+3, 2.2492e+2, -756653.6, -841398.44, -3796.3782, 0.002180373, 0.00020861586, -756483.9, -20699.287, 0.0, 10.028207, 9.916766 
7.4982405e+3, 2.3483683e+2, -660479.06, -744434.94, -3826.7014, 0.0021809824, -0.0000060503426, -660305.0, -21705.402, 0.0, 10.026818, 9.916442 
7.4982196e+3, 2.4474739e+2, -573311.25, -665597.8, -3508.195, 0.002181705, 0.00015493298, -573178.06, -31701.85, 0.0, 10.025435, 9.904352 
7.4981993e+3, 2.5465187e+2, -476750.84, -568058.2, -3512.121, 0.0021841817, -0.000027659975, -476615.94, -32203.889, 0.0, 10.024056, 9.904283 
7.498179e+3, 2.6454994e+2, -389696.97, -489909.7, -2928.6077, 0.002185953, 0.00021803721, -389611.47, -42200.066, 0.0, 10.022691, 9.891479 
7.49816e+3, 2.74442e+2, -292509.7, -391341.16, -2895.1729, 0.002187603, -0.00012922027, -292424.97, -41955.965, 0.0, 10.021342, 9.891951 
7.498142e+3, 2.843266e+2, -206881.75, -316656.06, -2075.5745, 0.002188567, 0.00030260836, -206842.52, -53242.78, 0.0, 10.020012, 9.876636 
7.4981254e+3, 2.942044e+2, -109140.81, -217233.63, -1983.2847, 0.002188017, -0.00017939392, -109104.44, -52307.086, 0.0, 10.018703, 9.877526 
7.49811e+3, 3.0411023e+2, -21309.906, -84902.89, -905.2062, 0.002191687, 0.00024292833, -21297.023, -21297.023, 0.0, 10.017422, 9.933678 
7.498096e+3, 3.1404582e+2, -22050.852, -83531.266, -760.9593, 0.0021940332, 0.000006857336, -22041.434, -22041.434, 0.0, 10.016173, 9.935203 
7.508501e+3, 1.2544398e+2, -1667047.6, -1718869.9, -360.76788, 0.0021659401, 0.0001385324, -1667045.1, 43604.695, 0.0, 10.043306, 9.974452 
7.508484e+3, 1.354183e+2, -1572062.8, -1623423.8, -524.31036, 0.0021705425, -0.000033560344, -1572057.4, 40844.15, 0.0, 10.04193, 9.973711 
7.5084656e+3, 1.4538668e+2, -1485374.4, -1543668.1, -1627.8491, 0.0021721069, 0.00022973865, -1485329.0, 29882.168, 0.0, 10.040522, 9.963192 
7.5084466e+3, 1.5534985e+2, -1390102.5, -1447702.9, -1754.4734, 0.0021730454, 0.000036609956, -1390049.1, 27522.988, 0.0, 10.039086, 9.962699 
7.508426e+3, 1.6530718e+2, -1303331.4, -1368014.9, -2541.6023, 0.0021740047, 0.00011845554, -1303231.6, 16758.85, 0.0, 10.03763, 9.952006 
7.508404e+3, 1.7525923e+2, -1207865.9, -1271746.3, -2634.786, 0.0021766904, 0.00001858928, -1207757.4, 14702.826, 0.0, 10.036157, 9.95162 
7.508382e+3, 1.8520541e+2, -1121053.8, -1192254.0, -3132.6985, 0.0021784506, 0.00016439706, -1120916.3, 4071.4482, 0.0, 10.034671, 9.940629 
7.50836e+3, 1.9514607e+2, -1025407.4, -1095746.6, -3198.3467, 0.0021791987, 0.000029322413, -1025262.2, 2306.957, 0.0, 10.033175, 9.940296 
7.508337e+3, 2.0508079e+2, -938548.8, -1016495.4, -3438.2178, 0.002180939, 0.00015105428, -938397.44, -8188.5273, 0.0, 10.03168, 9.928945 
7.5083137e+3, 2.1500976e+2, -842736.56, -919829.44, -3468.312, 0.002182924, -0.000041230338, -842580.9, -9675.978, 0.0, 10.030184, 9.928602 
7.5082904e+3, 2.2493261e+2, -755971.8, -841135.6, -3441.2278, 0.0021845952, 0.00020661345, -755833.0, -20172.008, 0.0, 10.028687, 9.916688 
7.508268e+3, 2.3484938e+2, -659971.44, -744263.06, -3472.762, 0.0021859386, -0.000008278986, -659828.6, -21351.875, 0.0, 10.027185, 9.916364 
7.508245e+3, 2.4475987e+2, -572943.5, -665434.2, -3152.6636, 0.0021869713, 0.00015266138, -572836.2, -31482.314, 0.0, 10.025683, 9.904329 
7.508223e+3, 2.5466436e+2, -476575.4, -567991.94, -3156.0066, 0.0021892122, -0.000029511839, -476466.56, -32176.656, 0.0, 10.0241785, 9.904261 
7.5082016e+3, 2.6456237e+2, -389671.16, -489857.9, -2558.5188, 0.0021909357, 0.00021616621, -389605.88, -42316.645, 0.0, 10.022689, 9.891509 
7.508182e+3, 2.744545e+2, -292669.1, -391380.25, -2524.8374, 0.0021919599, -0.00013117935, -292604.53, -42258.023, 0.0, 10.0212145, 9.891982 
7.508162e+3, 2.8433916e+2, -207171.5, -316662.28, -1689.2887, 0.0021931722, 0.0003004857, -207145.44, -53668.88, 0.0, 10.019755, 9.876751 
7.508144e+3, 2.942171e+2, -109627.09, -217330.61, -1594.965, 0.00219371, -0.00018145125, -109603.484, -52930.492, 0.0, 10.0183115, 9.877646 
7.508127e+3, 3.0412304e+2, -21990.572, -85090.336, -502.05344, 0.0021977476, 0.0002409636, -21986.578, -21986.578, 0.0, 10.016892, 9.933801 
7.5081116e+3, 3.1405875e+2, -22933.527, -83816.9, -359.3986, 0.0021985348, 0.0000050774315, -22931.406, -22931.406, 0.0, 10.015506, 9.935327 
7.518544e+3, 1.2545982e+2, -1667344.9, -1719445.5, -783.4204, 0.002171491, 0.00013734511, -1667333.1, 43161.5, 0.0, 10.043312, 9.974094 
7.5185263e+3, 1.3543378e+2, -1572365.6, -1623998.3, -947.48016, 0.0021739027, -0.000035111785, -1572348.3, 40401.563, 0.0, 10.04193, 9.973355 
7.518506e+3, 1.4540185e+2, -1485632.8, -1544146.3, -2072.7336, 0.00217469, 0.0002287367, -1485559.4, 29503.213, 0.0, 10.040513, 9.962898 
7.518485e+3, 1.5536474e+2, -1390368.0, -1448181.3, -2200.0623, 0.0021786718, 0.000034950954, -1390284.4, 27142.078, 0.0, 10.039072, 9.962408 
7.518463e+3, 1.6532178e+2, -1303554.9, -1368401.8, -3002.224, 0.0021796783, 0.00011725857, -1303416.1, 16431.178, 0.0, 10.037609, 9.951775 
7.5184405e+3, 1.7527361e+2, -1208094.0, -1272132.5, -3095.992, 0.0021799, 0.000017532106, -1207944.8, 14374.623, 0.0, 10.03613, 9.95139 
7.518417e+3, 1.8521959e+2, -1121244.8, -1192556.5, -3603.0317, 0.0021814972, 0.0001632608, -1121063.3, 3785.5168, 0.0, 10.034637, 9.9404545 
7.518393e+3, 1.9516008e+2, -1025605.56, -1096050.0, -3669.2131, 0.0021840513, 0.000027812352, -1025415.0, 2016.9757, 0.0, 10.033135, 9.940123 
7.5183684e+3, 2.0509467e+2, -938680.2, -1016659.1, -3912.664, 0.0021860818, 0.00014948762, -938484.4, -8411.413, 0.0, 10.031635, 9.928863 
7.518344e+3, 2.1502356e+2, -842871.1, -919993.8, -3947.1033, 0.0021865484, -0.000042400945, -842669.6, -9899.923, 0.0, 10.030136, 9.92852 
7.5183195e+3, 2.2494633e+2, -756106.4, -841293.94, -3923.6067, 0.0021878793, 0.00020583543, -755926.06, -20399.488, 0.0, 10.028635, 9.916611 
7.518295e+3, 2.3486301e+2, -660111.5, -744424.3, -3951.9712, 0.0021904625, -0.000009831546, -659926.7, -21583.572, 0.0, 10.027131, 9.916286 
7.518271e+3, 2.4477345e+2, -573045.94, -665511.3, -3633.68, 0.0021918071, 0.0001513713, -572903.3, -31682.633, 0.0, 10.025624, 9.904307 
7.5182474e+3, 2.5467792e+2, -476683.56, -568071.4, -3638.295, 0.0021934079, -0.00003026892, -476538.94, -32381.977, 0.0, 10.024115, 9.904239 
7.518225e+3, 2.6457596e+2, -389746.47, -489860.0, -3031.3872, 0.0021946281, 0.00021553396, -389654.75, -42498.51, 0.0, 10.02262, 9.89154 
7.5182027e+3, 2.7446812e+2, -292750.16, -391383.44, -2998.795, 0.0021958572, -0.00013238515, -292659.06, -42445.855, 0.0, 10.021142, 9.8920145 
7.518182e+3, 2.8435284e+2, -207195.47, -316537.06, -2154.199, 0.0021970978, 0.0002992825, -207153.05, -53810.51, 0.0, 10.019678, 9.87687 
7.518162e+3, 2.942309e+2, -109653.12, -217200.95, -2060.7937, 0.0021985995, -0.00018235148, -109613.64, -53075.887, 0.0, 10.01823, 9.87777 
7.518144e+3, 3.0413696e+2, -22025.936, -84968.74, -946.56085, 0.002202871, 0.00024059208, -22011.703, -22011.703, 0.0, 10.016807, 9.933923 
7.5181276e+3, 3.140728e+2, -22981.207, -83702.25, -803.48535, 0.0022017406, 0.0000048313623, -22970.576, -22970.576, 0.0, 10.015412, 9.935448 
7.528589e+3, 1.254773e+2, -1664767.3, -1718466.8, -342.4339, 0.0021749954, 0.00013473643, -1664765.0, 45558.176, 0.0, 10.045097, 9.973738 
7.528569e+3, 1.354509e+2, -1570024.0, -1623149.9, -509.08688, 0.0021792527, -0.00003638334, -1570019.1, 42562.77, 0.0, 10.043574, 9.9730015 
7.5285476e+3, 1.4541866e+2, -1483468.5, -1543326.1, -1650.7384, 0.002179306, 0.00022610782, -1483423.0, 31474.889, 0.0, 10.042019, 9.962606 
7.5285256e+3, 1.5538125e+2, -1388428.0, -1447482.1, -1778.0216, 0.0021824073, 0.00003281647, -1388374.5, 28890.098, 0.0, 10.040441, 9.962118 
7.528502e+3, 1.6533802e+2, -1301779.5, -1367725.8, -2587.892, 0.002183706, 0.00011491828, -1301678.1, 18009.84, 0.0, 10.038847, 9.951545 
7.5284773e+3, 1.7528963e+2, -1206524.4, -1271566.4, -2680.0583, 0.0021849193, 0.000015439251, -1206414.1, 15748.137, 0.0, 10.037241, 9.951162 
7.528452e+3, 1.8523541e+2, -1119834.8, -1192014.6, -3191.9954, 0.0021863997, 0.00016110131, -1119693.9, 4999.704, 0.0, 10.035623, 9.940281 
7.528426e+3, 1.9517572e+2, -1024400.75, -1095616.9, -3255.8298, 0.0021883983, 0.000025805577, -1024252.2, 3026.3384, 0.0, 10.033992, 9.939951 
7.5284004e+3, 2.0511018e+2, -937610.5, -1016217.9, -3494.0115, 0.0021903275, 0.00014755329, -937455.5, -7534.6655, 0.0, 10.032371, 9.928761 
7.528375e+3, 2.1503899e+2, -841981.56, -919648.6, -3532.9663, 0.002191083, -0.000044824385, -841821.2, -9202.575, 0.0, 10.030759, 9.928418 
7.528348e+3, 2.2496167e+2, -755358.56, -840968.94, -3507.4387, 0.002192836, 0.00020306565, -755215.1, -19838.838, 0.0, 10.029143, 9.916555 
7.5283223e+3, 2.348783e+2, -659543.0, -744193.4, -3526.351, 0.0021956065, -0.000011980387, -659396.4, -21203.016, 0.0, 10.027525, 9.916231 
7.528296e+3, 2.4478869e+2, -572639.0, -665329.3, -3205.5933, 0.0021966095, 0.0001494894, -572528.3, -31456.975, 0.0, 10.025899, 9.904282 
7.5282717e+3, 2.5469312e+2, -476468.44, -567987.44, -3210.706, 0.0021974624, -0.00003246024, -476355.94, -32348.082, 0.0, 10.024263, 9.904213 
7.528247e+3, 2.6459116e+2, -389686.28, -489794.78, -2591.8555, 0.0021993823, 0.0002129398, -389619.22, -42612.105, 0.0, 10.022641, 9.891565 
7.5282234e+3, 2.7448332e+2, -292885.72, -391414.78, -2560.3325, 0.0022018417, -0.00013464922, -292819.25, -42755.406, 0.0, 10.021031, 9.892041 
7.5282013e+3, 2.8436816e+2, -207462.58, -316529.34, -1702.5391, 0.0022028205, 0.00029720043, -207436.02, -54243.54, 0.0, 10.019435, 9.876987 
7.52818e+3, 2.9424635e+2, -110116.15, -217283.64, -1608.4441, 0.0022019902, -0.00018425762, -110092.016, -53705.516, 0.0, 10.017852, 9.877892 
7.52816e+3, 3.0415252e+2, -22700.22, -85161.49, -486.96716, 0.002206565, 0.0002381352, -22696.426, -22696.426, 0.0, 10.016285, 9.934038 
7.5281423e+3, 3.1408843e+2, -23881.494, -84006.28, -347.28232, 0.0022085477, 0.0000023275447, -23879.488, -23879.488, 0.0, 10.014737, 9.935561 
7.538634e+3, 1.25496e+2, -1665066.1, -1719042.0, -808.6639, 0.0021779342, 0.00013376246, -1665054.1, 45085.836, 0.0, 10.045101, 9.973381 
7.5386125e+3, 1.3546924e+2, -1570332.4, -1623726.1, -976.3342, 0.0021853198, -0.0000375989, -1570314.5, 42087.617, 0.0, 10.043569, 9.972646 
7.53859e+3, 1.4543669e+2, -1483730.1, -1543802.3, -2137.8594, 0.0021841023, 0.0002253218, -1483654.1, 31067.092, 0.0, 10.0420065, 9.9623165 
7.5385654e+3, 1.5539896e+2, -1388694.0, -1447956.8, -2266.227, 0.0021856017, 0.000031400963, -1388607.5, 28483.334, 0.0, 10.040422, 9.96183 
7.5385404e+3, 1.6535552e+2, -1302002.6, -1368107.0, -3087.247, 0.0021870034, 0.000113668655, -1301858.8, 17657.89, 0.0, 10.038822, 9.951318 
7.538514e+3, 1.7530689e+2, -1206754.4, -1271947.9, -3180.4333, 0.0021899827, 0.000013862623, -1206599.6, 15393.59, 0.0, 10.0372095, 9.950937 
7.538488e+3, 1.8525247e+2, -1120025.4, -1192311.5, -3702.712, 0.0021913985, 0.00015963436, -1119836.1, 4690.2847, 0.0, 10.035586, 9.940111 
7.5384605e+3, 1.951926e+2, -1024591.5, -1095911.0, -3767.5566, 0.0021917955, 0.000024828765, -1024393.0, 2720.063, 0.0, 10.033954, 9.939783 
7.5384325e+3, 2.0512694e+2, -937755.8, -1016414.5, -4002.5083, 0.0021935788, 0.00014672053, -937552.7, -7795.9727, 0.0, 10.032328, 9.928657 
7.538405e+3, 2.1505561e+2, -842136.3, -919849.0, -4044.1765, 0.0021955096, -0.000046420013, -841926.44, -9470.914, 0.0, 10.030709, 9.928314 
7.5383776e+3, 2.2497824e+2, -755474.4, -841080.25, -4023.2874, 0.002197427, 0.00020167745, -755285.7, -20071.842, 0.0, 10.029088, 9.916512 
7.5383496e+3, 2.3489483e+2, -659666.75, -744309.44, -4040.8071, 0.0021998428, -0.000013027498, -659474.25, -21442.89, 0.0, 10.027463, 9.916185 
7.538323e+3, 2.4480519e+2, -572751.1, -665414.9, -3726.911, 0.0022001946, 0.00014893986, -572601.5, -31691.77, 0.0, 10.025834, 9.904257 
7.538296e+3, 2.547096e+2, -476582.5, -568074.1, -3733.2866, 0.0022006007, -0.000033557193, -476430.44, -32583.943, 0.0, 10.024198, 9.904188 
7.53827e+3, 2.6460764e+2, -389765.38, -489805.16, -3107.586, 0.0022030117, 0.00021166953, -389668.94, -42823.16, 0.0, 10.0225725, 9.891591 
7.538245e+3, 2.744998e+2, -292967.97, -391425.2, -3077.6096, 0.0022074785, -0.00013593765, -292871.88, -42969.66, 0.0, 10.02096, 9.892068 
7.538221e+3, 2.8438473e+2, -207483.42, -316402.4, -2212.4087, 0.0022078098, 0.0002965247, -207438.5, -54408.336, 0.0, 10.01936, 9.877106 
7.538198e+3, 2.94263e+2, -110142.336, -217153.66, -2119.4478, 0.0022041071, -0.00018472082, -110100.375, -53877.406, 0.0, 10.01777, 9.8780155 
7.538177e+3, 3.0416936e+2, -22742.842, -85054.33, -984.0654, 0.002208965, 0.00023712114, -22727.305, -22727.305, 0.0, 10.016199, 9.934151 
7.538157e+3, 3.141054e+2, -23932.408, -83905.23, -845.0163, 0.0022147165, 0.00000080801914, -23920.506, -23920.506, 0.0, 10.014646, 9.935672 
7.54868e+3, 1.2551653e+2, -1662380.0, -1718000.0, -314.3096, 0.00218246, 0.00013056184, -1662378.3, 47560.457, 0.0, 10.046951, 9.973027 
7.5486565e+3, 1.3548942e+2, -1567899.8, -1622823.9, -483.3529, 0.0021896595, -0.000038963295, -1567895.5, 44308.914, 0.0, 10.045268, 9.972295 
7.5486326e+3, 1.4545654e+2, -1481483.4, -1542931.5, -1654.155, 0.0021876472, 0.00022226604, -1481438.9, 33087.742, 0.0, 10.04356, 9.9620285 
7.548607e+3, 1.5541855e+2, -1386674.1, -1447208.5, -1781.433, 0.0021904118, 0.000029081622, -1386621.8, 30277.16, 0.0, 10.041839, 9.961546 
7.54858e+3, 1.6537483e+2, -1300154.0, -1367384.1, -2606.58, 0.002192183, 0.00011136937, -1300053.1, 19274.232, 0.0, 10.040102, 9.951093 
7.548552e+3, 1.7532597e+2, -1205122.1, -1271340.6, -2696.8694, 0.0021942542, 0.000012009749, -1205012.4, 16793.646, 0.0, 10.038357, 9.950715 
7.548524e+3, 1.8527137e+2, -1118553.5, -1191731.1, -3218.3318, 0.0021952724, 0.00015748604, -1118412.1, 5929.061, 0.0, 10.036607, 9.939941 
7.5484943e+3, 1.9521134e+2, -1023313.5, -1095433.9, -3280.332, 0.002196519, 0.000022096183, -1023164.6, 3764.8735, 0.0, 10.034854, 9.939615 
7.548465e+3, 2.0514552e+2, -936631.3, -1015962.75, -3509.4111, 0.002198569, 0.00014425472, -936476.4, -6901.8647, 0.0, 10.033106, 9.928537 
7.548436e+3, 2.1507409e+2, -841205.4, -919500.1, -3554.767, 0.0022002552, -0.00004847693, -841044.3, -8769.81, 0.0, 10.031365, 9.928195 
7.548407e+3, 2.2499663e+2, -754659.06, -840686.4, -3529.2505, 0.002201922, 0.00019922169, -754514.5, -19480.95, 0.0, 10.029624, 9.916485 
7.5483775e+3, 2.3491317e+2, -659036.5, -744013.2, -3536.6765, 0.0022041546, -0.0000156281, -658889.56, -21038.215, 0.0, 10.027882, 9.916158 
7.548349e+3, 2.4482353e+2, -572305.4, -665214.56, -3220.1514, 0.0022048673, 0.0001462704, -572193.94, -31463.963, 0.0, 10.026134, 9.904229 
7.5483197e+3, 2.547279e+2, -476321.63, -567969.2, -3226.709, 0.0022062962, -0.000035850135, -476208.2, -32541.16, 0.0, 10.024376, 9.904159 
7.548292e+3, 2.6462594e+2, -389658.16, -489723.75, -2592.4397, 0.0022088361, 0.00020927166, -389591.06, -42924.7, 0.0, 10.022627, 9.891609 
7.5482655e+3, 2.7451816e+2, -293055.2, -391440.2, -2564.6956, 0.0022108012, -0.00013823014, -292988.38, -43265.754, 0.0, 10.0208845, 9.892087 
7.54824e+3, 2.8440312e+2, -207702.5, -316370.4, -1691.7815, 0.0022113728, 0.00029431164, -207676.17, -54826.24, 0.0, 10.019147, 9.877222 
7.548216e+3, 2.942815e+2, -110572.24, -217219.25, -1599.1364, 0.0022107337, -0.00018684707, -110548.266, -54506.715, 0.0, 10.017412, 9.878137 
7.548192e+3, 3.0418795e+2, -23402.66, -85253.484, -462.26505, 0.0022159237, 0.00023424425, -23399.205, -23399.205, 0.0, 10.015692, 9.934253 
7.548171e+3, 3.1412408e+2, -24820.32, -84217.805, -329.40915, 0.0022181221, -0.0000017582075, -24818.494, -24818.494, 0.0, 10.013984, 9.935772 
7.5587267e+3, 1.2553842e+2, -1662682.5, -1718571.1, -828.3391, 0.0021872474, 0.00012943115, -1662670.3, 47053.97, 0.0, 10.046948, 9.972675 
7.558702e+3, 1.3551095e+2, -1568207.3, -1623393.9, -998.6563, 0.002193822, -0.00004035697, -1568189.3, 43804.066, 0.0, 10.045259, 9.971945 
7.558676e+3, 1.4547777e+2, -1481743.0, -1543399.5, -2183.3445, 0.0021904716, 0.00022119573, -1481665.9, 32652.785, 0.0, 10.043544, 9.961744 
7.5586486e+3, 1.5543948e+2, -1386941.4, -1447676.5, -2312.1938, 0.002195368, 0.000027600141, -1386853.4, 29840.363, 0.0, 10.041816, 9.961264 
7.55862e+3, 1.6539553e+2, -1300376.6, -1367756.8, -3147.1702, 0.00219732, 0.00011043434, -1300229.9, 18894.678, 0.0, 10.040073, 9.950872 
7.55859e+3, 1.7534645e+2, -1205347.5, -1271711.1, -3239.1228, 0.0021977506, 0.00001092997, -1205189.8, 16415.742, 0.0, 10.038323, 9.950498 
7.5585604e+3, 1.8529165e+2, -1118741.9, -1192021.3, -3765.4355, 0.002198478, 0.00015625566, -1118548.9, 5593.5996, 0.0, 10.036568, 9.939776 
7.55853e+3, 1.9523145e+2, -1023506.3, -1095723.6, -3828.9827, 0.0022005779, 0.000020494337, -1023303.9, 3428.5278, 0.0, 10.03481, 9.939451 
7.5584984e+3, 2.0516548e+2, -936795.94, -1016187.1, -4055.4836, 0.0022030869, 0.00014289013, -936589.3, -7210.4565, 0.0, 10.033058, 9.928417 
7.5584674e+3, 2.1509396e+2, -841377.75, -919727.1, -4100.2314, 0.0022045716, -0.00004943092, -841163.75, -9083.779, 0.0, 10.031311, 9.928076 
7.5584364e+3, 2.2501642e+2, -754756.25, -840754.4, -4077.4434, 0.0022054499, 0.00019882811, -754563.4, -19723.672, 0.0, 10.029564, 9.916469 
7.5584054e+3, 2.3493296e+2, -659141.44, -744086.6, -4086.8713, 0.0022072059, -0.000016880942, -658945.3, -21287.645, 0.0, 10.027818, 9.916141 
7.5583744e+3, 2.4484327e+2, -572420.94, -665304.6, -3778.9934, 0.002208498, 0.00014497258, -572267.5, -31731.021, 0.0, 10.026067, 9.9042015 
7.558344e+3, 2.5474763e+2, -476437.06, -568059.75, -3787.2512, 0.0022114434, -0.000036895988, -476280.78, -32806.996, 0.0, 10.024309, 9.904131 
7.558315e+3, 2.6464567e+2, -389742.25, -489746.72, -3150.4902, 0.0022134676, 0.00020876588, -389643.1, -43169.918, 0.0, 10.022558, 9.891625 
7.558287e+3, 2.7453786e+2, -293143.34, -391463.78, -3124.3809, 0.002212795, -0.00013936093, -293044.16, -43514.895, 0.0, 10.020812, 9.892104 
7.5582594e+3, 2.844229e+2, -207723.38, -316245.3, -2250.6216, 0.0022134832, 0.00029350893, -207676.72, -55020.773, 0.0, 10.019072, 9.877338 
7.558233e+3, 2.9430145e+2, -110595.94, -217089.63, -2159.8306, 0.0022173405, -0.00018744842, -110552.15, -54705.785, 0.0, 10.017332, 9.878259 
7.558209e+3, 3.0420798e+2, -23452.66, -85167.57, -1012.16693, 0.0022227708, 0.00023322998, -23436.064, -23436.064, 0.0, 10.015607, 9.934349 
7.5581855e+3, 3.1414422e+2, -24882.36, -84141.305, -880.3438, 0.00221862, -0.0000016416972, -24869.283, -24869.283, 0.0, 10.013892, 9.935865 
7.568774e+3, 1.2556234e+2, -1659903.6, -1717469.3, -276.2666, 0.0021914802, 0.00012658373, -1659902.3, 49587.55, 0.0, 10.048852, 9.972329 
7.5687486e+3, 1.3553452e+2, -1565685.4, -1622433.6, -446.62955, 0.0021988354, -0.000041669864, -1565681.9, 46080.48, 0.0, 10.0470085, 9.9716015 
7.56872e+3, 1.4550102e+2, -1479414.6, -1542474.1, -1635.297, 0.0021943636, 0.00021821265, -1479372.3, 34718.383, 0.0, 10.045143, 9.961464 
7.568691e+3, 1.5546244e+2, -1384852.1, -1446880.5, -1761.4829, 0.002199349, 0.000025192172, -1384802.1, 31666.432, 0.0, 10.043269, 9.960987 
7.5686604e+3, 1.6541824e+2, -1298463.8, -1366990.8, -2593.769, 0.0022019094, 0.00010791053, -1298365.8, 20536.13, 0.0, 10.0413885, 9.950654 
7.5686294e+3, 1.7536896e+2, -1203647.4, -1271058.9, -2682.2998, 0.0022025404, 0.000008797082, -1203540.9, 17844.049, 0.0, 10.039508, 9.950281 
7.568598e+3, 1.8531397e+2, -1117206.1, -1191401.0, -3204.364, 0.002203018, 0.00015415889, -1117068.0, 6855.766, 0.0, 10.037625, 9.9396105 
7.568565e+3, 1.952536e+2, -1022170.9, -1095209.6, -3264.7952, 0.0022053155, 0.000018190369, -1022025.2, 4490.0586, 0.0, 10.035744, 9.939287 
7.568532e+3, 2.051875e+2, -935616.6, -1015699.6, -3480.6997, 0.0022077453, 0.00014033573, -935465.6, -6302.553, 0.0, 10.033868, 9.928303 
7.568499e+3, 2.1511585e+2, -840390.9, -919342.0, -3521.8835, 0.0022087006, -0.000051930565, -840234.06, -8368.777, 0.0, 10.032, 9.927961 
7.568466e+3, 2.2503826e+2, -753878.4, -840313.06, -3490.9792, 0.0022099263, 0.00019624582, -753737.6, -19111.957, 0.0, 10.030134, 9.916453 
7.568433e+3, 2.3495477e+2, -658447.4, -743742.6, -3495.4111, 0.0022127293, -0.00001931044, -658304.4, -20860.56, 0.0, 10.028271, 9.916124 
7.568401e+3, 2.4486506e+2, -571918.3, -665078.56, -3185.309, 0.0022139277, 0.00014229097, -571809.56, -31486.725, 0.0, 10.026403, 9.904169 
7.568369e+3, 2.5476938e+2, -476110.84, -567925.44, -3194.1533, 0.0022148837, -0.00003917894, -475999.84, -32739.367, 0.0, 10.024532, 9.904097 
7.5683373e+3, 2.646674e+2, -389569.25, -489639.97, -2555.2666, 0.0022176243, 0.00020625655, -389504.06, -43244.04, 0.0, 10.022658, 9.891635 
7.568307e+3, 2.7455962e+2, -293169.1, -391456.25, -2531.8386, 0.0022191426, -0.00014213833, -293103.9, -43787.895, 0.0, 10.020781, 9.892114 
7.5682783e+3, 2.8444472e+2, -207879.64, -316183.75, -1655.6056, 0.0022196267, 0.00029095617, -207854.34, -55412.24, 0.0, 10.018901, 9.877451 
7.56825e+3, 2.9432335e+2, -110964.24, -217126.58, -1566.2915, 0.0022203622, -0.0001893542, -110941.14, -55309.77, 0.0, 10.017016, 9.878377 
7.5682235e+3, 3.0423e+2, -24069.54, -85365.3, -425.38623, 0.0022258481, 0.00023039666, -24066.586, -24066.586, 0.0, 10.015137, 9.934432 
7.5681984e+3, 3.141663e+2, -25742.527, -84460.59, -302.46533, 0.0022257366, -0.0000042200777, -25740.97, -25740.97, 0.0, 10.013258, 9.9359455 
7.5788236e+3, 1.2558775e+2, -1660203.3, -1718027.9, -837.2483, 0.002195265, 0.00012585717, -1660191.1, 49049.684, 0.0, 10.048845, 9.971986 
7.5787956e+3, 1.355596e+2, -1565994.3, -1622993.4, -1009.213, 0.0022042585, -0.000042862488, -1565976.5, 45540.2, 0.0, 10.046993, 9.971261 
7.578766e+3, 1.4552578e+2, -1479674.4, -1542930.1, -2208.7126, 0.0021980552, 0.00021787272, -1479597.4, 34250.61, 0.0, 10.045121, 9.961189 
7.578734e+3, 1.5548694e+2, -1385115.3, -1447334.8, -2336.9248, 0.002202799, 0.000023751663, -1385027.6, 31200.996, 0.0, 10.043242, 9.960715 
7.578702e+3, 1.654425e+2, -1298683.4, -1367352.9, -3172.7744, 0.0022057674, 0.000106829124, -1298537.1, 20127.096, 0.0, 10.041356, 9.950441 
7.578669e+3, 1.7539299e+2, -1203872.1, -1271420.3, -3263.0437, 0.0022068177, 0.000007433341, -1203714.8, 17434.514, 0.0, 10.039471, 9.950071 
7.578635e+3, 1.8533781e+2, -1117396.6, -1191686.6, -3787.6724, 0.0022074, 0.00015316505, -1117204.0, 6485.9634, 0.0, 10.037582, 9.939449 
7.5786006e+3, 1.952773e+2, -1022363.94, -1095493.0, -3849.6135, 0.0022091689, 0.00001750722, -1022161.9, 4121.2314, 0.0, 10.035696, 9.939129 
7.578566e+3, 2.0521106e+2, -935779.1, -1015911.06, -4063.2932, 0.0022112646, 0.00013931119, -935573.6, -6641.465, 0.0, 10.033813, 9.928193 
7.5785315e+3, 2.151393e+2, -840565.4, -919557.94, -4105.4146, 0.0022122036, -0.000053501175, -840352.6, -8717.095, 0.0, 10.031937, 9.927852 
7.5784963e+3, 2.2506164e+2, -753978.0, -840372.94, -4075.5032, 0.0022136578, 0.00019585725, -753786.1, -19389.736, 0.0, 10.030067, 9.916446 
7.578461e+3, 2.3497815e+2, -658548.0, -743804.75, -4081.8447, 0.002217238, -0.000020119438, -658353.06, -21138.41, 0.0, 10.028204, 9.916115 
7.578427e+3, 2.4488842e+2, -572034.75, -665173.9, -3778.095, 0.0022180704, 0.00014126796, -571881.75, -31787.857, 0.0, 10.026338, 9.904138 
7.578394e+3, 2.5479272e+2, -476225.72, -568021.06, -3788.689, 0.0022168867, -0.000039800503, -476069.63, -33037.777, 0.0, 10.024467, 9.904064 
7.5783604e+3, 2.646907e+2, -389656.4, -489674.4, -3155.4187, 0.0022199508, 0.0002057861, -389556.97, -43525.484, 0.0, 10.022592, 9.891643 
7.578328e+3, 2.7458298e+2, -293262.94, -391492.75, -3133.9102, 0.0022256433, -0.0001436503, -293163.03, -44075.64, 0.0, 10.020708, 9.892123 
7.5782967e+3, 2.844681e+2, -207903.34, -316064.66, -2262.156, 0.0022254214, 0.00029018763, -207856.05, -55643.125, 0.0, 10.018824, 9.877564 
7.578267e+3, 2.943469e+2, -110988.35, -217001.6, -2175.1768, 0.0022211801, -0.00018954402, -110943.74, -55542.72, 0.0, 10.016936, 9.878495 
7.578239e+3, 3.042536e+2, -24130.604, -85308.77, -1030.9753, 0.0022268083, 0.00022976645, -24113.234, -24113.234, 0.0, 10.015054, 9.934507 
7.5782126e+3, 3.1419e+2, -25815.266, -84414.45, -910.3643, 0.0022324077, -0.0000057373577, -25801.127, -25801.127, 0.0, 10.013168, 9.936016 
7.5888735e+3, 1.2561539e+2, -1657335.5, -1716861.4, -225.72649, 0.002199392, 0.00012250493, -1657334.6, 51635.22, 0.0, 10.050795, 9.971651 
7.588843e+3, 1.3558692e+2, -1563401.1, -1621978.6, -395.91382, 0.0022092012, -0.000044618268, -1563398.4, 47850.555, 0.0, 10.0487795, 9.970928 
7.5888115e+3, 1.455528e+2, -1477281.5, -1541954.4, -1589.5498, 0.002202466, 0.00021509922, -1477242.5, 36340.758, 0.0, 10.046753, 9.960921 
7.588778e+3, 1.5551369e+2, -1382959.0, -1446487.0, -1713.4106, 0.0022070433, 0.000021426427, -1382912.8, 33053.715, 0.0, 10.044731, 9.960449 
7.588744e+3, 1.6546899e+2, -1296705.8, -1366538.3, -2540.3267, 0.00221039, 0.000104117986, -1296613.5, 21790.914, 0.0, 10.042706, 9.950233 
7.588709e+3, 1.754193e+2, -1202111.3, -1270721.6, -2625.3345, 0.00221148, 0.0000052612418, -1202011.0, 18880.578, 0.0, 10.040687, 9.949865 
7.588673e+3, 1.8536393e+2, -1115803.3, -1191025.8, -3139.496, 0.0022116138, 0.00015096218, -1115672.5, 7761.5806, 0.0, 10.038671, 9.939291 
7.588637e+3, 1.9530325e+2, -1020967.0, -1094936.1, -3196.9744, 0.002213686, 0.000014918577, -1020829.06, 5199.609, 0.0, 10.036663, 9.938972 
7.5886e+3, 2.052369e+2, -934545.9, -1015389.75, -3402.535, 0.0022159698, 0.00013679861, -934402.9, -5723.8296, 0.0, 10.034655, 9.9280815 
7.5885636e+3, 2.15165e+2, -839534.2, -919143.56, -3443.1545, 0.0022171838, -0.000055846616, -839385.56, -8002.037, 0.0, 10.03265, 9.927741 
7.5885266e+3, 2.250873e+2, -753044.9, -839888.0, -3395.245, 0.0022183675, 0.00019311505, -752912.3, -18767.35, 0.0, 10.030664, 9.916441 
7.5884897e+3, 2.350038e+2, -657778.6, -743407.3, -3394.2385, 0.0022213787, -0.000022531583, -657644.3, -20681.078, 0.0, 10.028698, 9.916109 
7.588454e+3, 2.4491407e+2, -571453.5, -664911.7, -3087.099, 0.0022226362, 0.00013855979, -571351.6, -31508.969, 0.0, 10.026727, 9.9040985 
7.588418e+3, 2.5481832e+2, -475809.78, -567845.94, -3098.9558, 0.0022226127, -0.00004244928, -475705.53, -32924.496, 0.0, 10.024751, 9.904024 
7.588383e+3, 2.6471627e+2, -389392.53, -489528.56, -2474.9033, 0.002225882, 0.00020276704, -389331.4, -43550.508, 0.0, 10.022754, 9.8916445 
7.5883484e+3, 2.7460855e+2, -293206.25, -391450.66, -2456.0183, 0.0022292838, -0.0001459234, -293144.88, -44308.094, 0.0, 10.020733, 9.892125 
7.588316e+3, 2.8449374e+2, -207978.63, -315966.7, -1583.844, 0.002229132, 0.00028792856, -207955.39, -55993.6, 0.0, 10.018709, 9.877671 
7.588284e+3, 2.9437262e+2, -111274.59, -217002.06, -1499.1787, 0.0022274137, -0.00019224542, -111253.34, -56104.543, 0.0, 10.016677, 9.878607 
7.5882536e+3, 3.0427945e+2, -24682.59, -85501.71, -372.91205, 0.0022331544, 0.0002267943, -24680.303, -24680.303, 0.0, 10.014638, 9.934564 
7.588225e+3, 3.1421587e+2, -26617.168, -84733.8, -264.08987, 0.0022360878, -0.000008179586, -26615.967, -26615.967, 0.0, 10.012585, 9.9360695 
7.598924e+3, 1.2564468e+2, -1657634.1, -1717402.0, -837.36993, 0.0022032058, 0.000122005426, -1657622.5, 51060.285, 0.0, 10.050779, 9.971324 
7.598892e+3, 1.3561587e+2, -1563704.3, -1622518.4, -1009.45917, 0.002213962, -0.000045970104, -1563687.0, 47278.117, 0.0, 10.0487585, 9.970602 
7.5988585e+3, 1.4558147e+2, -1477535.1, -1542390.1, -2205.1123, 0.0022063958, 0.0002151004, -1477460.3, 35842.027, 0.0, 10.046725, 9.960661 
7.5988233e+3, 1.555421e+2, -1383219.3, -1446923.1, -2331.4197, 0.0022111437, 0.000020238196, -1383134.1, 32553.943, 0.0, 10.044697, 9.960192 
7.5987864e+3, 1.654972e+2, -1296924.3, -1366884.6, -3158.0757, 0.002214485, 0.00010320182, -1296781.9, 21346.244, 0.0, 10.042666, 9.950034 
7.5987494e+3, 1.7544729e+2, -1202332.3, -1271066.0, -3245.1724, 0.0022152124, 0.000004348058, -1202179.4, 18437.867, 0.0, 10.040643, 9.949668 
7.598712e+3, 1.8539175e+2, -1115993.3, -1191300.6, -3757.2637, 0.0022150865, 0.00014990718, -1115806.3, 7355.141, 0.0, 10.038622, 9.939138 
7.598673e+3, 1.9533092e+2, -1021160.7, -1095209.0, -3816.1985, 0.0022174201, 0.000013716842, -1020964.56, 4793.0117, 0.0, 10.036609, 9.938823 
7.598635e+3, 2.0526442e+2, -934711.9, -1015601.06, -4022.542, 0.0022197547, 0.00013656537, -934512.3, -6103.1265, 0.0, 10.034596, 9.927973 
7.598596e+3, 2.1519242e+2, -839704.75, -919354.9, -4063.1643, 0.002221598, -0.00005631292, -839498.0, -8383.306, 0.0, 10.032588, 9.927634 
7.598557e+3, 2.2511469e+2, -753132.44, -839928.94, -4008.8562, 0.0022221, 0.00019291836, -752947.6, -19071.006, 0.0, 10.0306, 9.916445 
7.598519e+3, 2.3503119e+2, -657872.1, -743452.94, -4018.1047, 0.0022237755, -0.000023225428, -657683.9, -20988.98, 0.0, 10.028629, 9.916111 
7.5984806e+3, 2.4494143e+2, -571578.2, -665015.0, -3718.3088, 0.0022252395, 0.00013808721, -571430.44, -31855.959, 0.0, 10.026656, 9.904064 
7.598443e+3, 2.5484565e+2, -475936.97, -567951.9, -3723.9568, 0.0022278347, -0.000043438995, -475786.5, -33273.27, 0.0, 10.024678, 9.903988 
7.5984055e+3, 2.647436e+2, -389492.66, -489577.94, -3115.4402, 0.0022307856, 0.00020194962, -389395.75, -43882.504, 0.0, 10.02268, 9.8916445 
7.59837e+3, 2.7463582e+2, -293304.25, -391498.06, -3100.0989, 0.002230931, -0.00014639397, -293206.47, -44637.33, 0.0, 10.02066, 9.892125 
7.5983346e+3, 2.8452107e+2, -208000.95, -315854.0, -2235.8582, 0.0022306636, 0.0002875393, -207954.63, -56260.992, 0.0, 10.018635, 9.877778 
7.5983006e+3, 2.944001e+2, -111298.0, -216884.14, -2155.0205, 0.002233574, -0.00019342138, -111254.03, -56374.49, 0.0, 10.0166, 9.878718 
7.598268e+3, 3.04307e+2, -24757.578, -85484.18, -1035.8103, 0.0022394094, 0.00022688927, -24739.916, -24739.916, 0.0, 10.014558, 9.934611 
7.598238e+3, 3.1424347e+2, -26701.469, -84725.52, -930.3884, 0.0022360804, -0.000007663916, -26686.555, -26686.555, 0.0, 10.012501, 9.936111 
7.6089764e+3, 1.2567642e+2, -1654701.9, -1716177.1, -161.88797, 0.002208474, 0.00011873915, -1654701.4, 53670.246, 0.0, 10.052758, 9.971006 
7.608942e+3, 1.3564731e+2, -1561047.0, -1621445.9, -330.15897, 0.0022179335, -0.0000474282, -1561045.3, 49611.85, 0.0, 10.050572, 9.970287 
7.608906e+3, 1.4561261e+2, -1475083.5, -1541360.1, -1511.172, 0.002210188, 0.00021236666, -1475049.1, 37947.938, 0.0, 10.048383, 9.960409 
7.6088685e+3, 1.55573e+2, -1381012.8, -1446025.6, -1630.9995, 0.0022155964, 0.00001770137, -1380971.9, 34413.375, 0.0, 10.0462055, 9.959944 
7.6088303e+3, 1.6552787e+2, -1294898.1, -1366023.6, -2438.7893, 0.0022195233, 0.00010037791, -1294814.6, 23012.947, 0.0, 10.044036, 9.949841 
7.608791e+3, 1.7547776e+2, -1200516.5, -1270317.4, -2518.633, 0.0022197135, 0.0000027760673, -1200425.8, 19892.793, 0.0, 10.041883, 9.949478 
7.608751e+3, 1.8542206e+2, -1114342.6, -1190591.6, -3014.2498, 0.002219029, 0.0001479361, -1114223.8, 8640.668, 0.0, 10.039738, 9.9389925 
7.6087105e+3, 1.9536108e+2, -1019703.6, -1094602.8, -3066.5522, 0.0022221198, 0.000010500077, -1019578.3, 5883.632, 0.0, 10.037604, 9.938679 
7.60867e+3, 2.0529446e+2, -933414.94, -1015035.6, -3261.7573, 0.0022246353, 0.00013413587, -933284.8, -5170.0405, 0.0, 10.035472, 9.927868 
7.608629e+3, 2.1522237e+2, -838595.3, -918888.44, -3298.3364, 0.0022259625, -0.000057842342, -838460.06, -7638.789, 0.0, 10.033346, 9.92753 
7.6085883e+3, 2.2514455e+2, -752154.4, -839468.1, -3228.1091, 0.0022264877, 0.00018991814, -752035.2, -18451.223, 0.0, 10.031246, 9.916396 
7.608547e+3, 2.35061e+2, -657057.94, -743079.2, -3250.4583, 0.0022292484, -0.000026451275, -656935.25, -20532.568, 0.0, 10.029172, 9.916062 
7.608507e+3, 2.4497122e+2, -570879.3, -664632.6, -2946.66, 0.0022307695, 0.00013533341, -570786.75, -31504.291, 0.0, 10.027095, 9.904076 
7.6084673e+3, 2.5487545e+2, -475401.34, -567655.8, -2931.9387, 0.0022319895, -0.000045342316, -475308.25, -33087.156, 0.0, 10.025012, 9.903997 
7.608428e+3, 2.647734e+2, -389146.38, -489402.7, -2329.4329, 0.0022355232, 0.00019946952, -389092.28, -43871.152, 0.0, 10.022902, 9.891633 
7.60839e+3, 2.7466565e+2, -293147.4, -391420.1, -2319.6072, 0.0022363325, -0.0001487668, -293092.7, -44815.547, 0.0, 10.020757, 9.892113 
7.608353e+3, 2.8455094e+2, -207964.9, -315715.13, -1464.1718, 0.002236311, 0.00028503806, -207945.02, -56543.734, 0.0, 10.018599, 9.87787 
7.608317e+3, 2.9443002e+2, -111472.945, -216845.06, -1390.053, 0.002237858, -0.00019533647, -111454.61, -56868.36, 0.0, 10.016419, 9.878815 
7.6082826e+3, 3.0433697e+2, -25213.05, -85668.02, -302.2078, 0.002243369, 0.00022459851, -25211.541, -25211.541, 0.0, 10.014223, 9.934632 
7.60825e+3, 3.1427348e+2, -27405.158, -85033.79, -213.57025, 0.0022426818, -0.000013336736, -27404.367, -27404.367, 0.0, 10.011998, 9.93613 
7.6190287e+3, 1.2570998e+2, -1654992.3, -1716688.3, -822.8402, 0.002213182, 0.00011865799, -1654981.3, 53061.605, 0.0, 10.052735, 9.9707 
7.6189923e+3, 1.3568054e+2, -1561345.5, -1621958.1, -993.32996, 0.0022220137, -0.00004775072, -1561329.3, 49002.086, 0.0, 10.050542, 9.969982 
7.618954e+3, 1.4564559e+2, -1475332.5, -1541769.9, -2170.7715, 0.0022131784, 0.00021253635, -1475261.6, 37412.26, 0.0, 10.0483465, 9.96017 
7.618915e+3, 1.5560573e+2, -1381264.3, -1446433.1, -2293.472, 0.0022197468, 0.000016608847, -1381183.6, 33880.855, 0.0, 10.0461645, 9.959706 
7.6188743e+3, 1.6556038e+2, -1295108.9, -1366344.8, -3093.2983, 0.002224137, 0.00009992387, -1294974.8, 22534.021, 0.0, 10.04399, 9.949658 
7.618833e+3, 1.7551011e+2, -1200731.6, -1270637.0, -3176.219, 0.002223071, 0.000002537978, -1200587.6, 19413.93, 0.0, 10.041832, 9.949299 
7.61879e+3, 1.8545425e+2, -1114529.6, -1190847.1, -3667.3901, 0.0022224023, 0.00014721851, -1114353.9, 8195.1045, 0.0, 10.039681, 9.938856 
7.618748e+3, 1.9539313e+2, -1019893.25, -1094856.0, -3722.262, 0.0022260996, 0.000009203997, -1019708.9, 5438.964, 0.0, 10.037544, 9.938544 
7.618705e+3, 2.0532641e+2, -933577.0, -1015234.6, -3918.5364, 0.0022284263, 0.00013459772, -933389.44, -5587.6196, 0.0, 10.035411, 9.927769 
7.618662e+3, 2.1525422e+2, -838754.7, -919083.7, -3956.512, 0.0022289904, -0.000057484947, -838560.3, -8051.015, 0.0, 10.033285, 9.927432 
7.61862e+3, 2.251763e+2, -752284.6, -839597.5, -3871.8533, 0.002229668, 0.00018962688, -752113.25, -18840.508, 0.0, 10.031181, 9.916342 
7.618577e+3, 2.350927e+2, -657203.1, -743217.4, -3896.747, 0.0022333753, -0.000027543128, -657026.94, -20934.938, 0.0, 10.029098, 9.916006 
7.618534e+3, 2.4500291e+2, -570963.94, -664638.0, -3599.369, 0.0022345365, 0.00013516963, -570825.9, -31853.96, 0.0, 10.027015, 9.904107 
7.618493e+3, 2.5490716e+2, -475488.66, -567663.7, -3586.0747, 0.0022343446, -0.000045669334, -475349.34, -33439.133, 0.0, 10.024931, 9.904028 
7.618451e+3, 2.6480514e+2, -389264.6, -489478.25, -3009.5366, 0.0022379518, 0.00019943486, -389174.3, -44264.152, 0.0, 10.022822, 9.891618 
7.618411e+3, 2.7469736e+2, -293255.7, -391492.03, -3003.2737, 0.0022412944, -0.00014980236, -293163.97, -45197.64, 0.0, 10.020684, 9.8920965 
7.618372e+3, 2.8458267e+2, -207992.44, -315625.72, -2164.0967, 0.00224075, 0.00028434864, -207948.94, -56858.824, 0.0, 10.018529, 9.877958 
7.6183337e+3, 2.9446185e+2, -111498.83, -216750.11, -2093.727, 0.0022395686, -0.00019470436, -111457.195, -57183.03, 0.0, 10.016349, 9.878907 
7.618297e+3, 3.0436885e+2, -25305.596, -85704.516, -1022.0403, 0.0022451165, 0.00022482901, -25288.305, -25288.305, 0.0, 10.01415, 9.934638 
7.6182616e+3, 3.143054e+2, -27511.627, -85081.21, -937.00696, 0.0022468623, -0.000015885462, -27496.38, -27496.38, 0.0, 10.011916, 9.936132 
7.629083e+3, 1.257462e+2, -1652006.6, -1715403.3, -82.47081, 0.002217163, 0.00011508564, -1652006.6, 55681.32, 0.0, 10.054731, 9.9704075 
7.6290435e+3, 1.3571648e+2, -1558650.0, -1620832.6, -246.48058, 0.0022271639, -0.000049223218, -1558649.0, 51330.16, 0.0, 10.052364, 9.969693 
7.6290035e+3, 1.4568126e+2, -1472846.6, -1540691.3, -1395.8625, 0.002218206, 0.00020948371, -1472817.9, 39506.438, 0.0, 10.05001, 9.959941 
7.628961e+3, 1.5564117e+2, -1379017.0, -1445484.0, -1509.3956, 0.002223336, 0.000014673461, -1378982.8, 35734.434, 0.0, 10.047684, 9.95948 
7.628919e+3, 1.6559562e+2, -1293041.1, -1365437.0, -2282.16, 0.0022283231, 0.00009774334, -1292969.3, 24194.164, 0.0, 10.045374, 9.949484 
7.628875e+3, 1.7554517e+2, -1198871.5, -1269840.4, -2356.3984, 0.002228164, 0.00000054771846, -1198793.3, 20864.627, 0.0, 10.043089, 9.949126 
7.628831e+3, 1.8548916e+2, -1112832.1, -1190095.9, -2824.744, 0.0022270866, 0.00014518981, -1112729.0, 9477.702, 0.0, 10.040818, 9.938722 
7.628786e+3, 1.9542792e+2, -1018377.8, -1094202.3, -2873.2185, 0.002230245, 0.0000068060504, -1018269.1, 6537.8887, 0.0, 10.0385685, 9.938412 
7.628741e+3, 2.0536107e+2, -932211.5, -1014628.7, -3054.0164, 0.002232807, 0.00013212481, -932098.5, -4636.387, 0.0, 10.036327, 9.927665 
7.628696e+3, 2.1528877e+2, -837550.1, -918562.3, -3090.2297, 0.0022339295, -0.00005978851, -837432.44, -7261.848, 0.0, 10.034101, 9.92733 
7.6286507e+3, 2.2521077e+2, -751227.56, -839119.4, -2990.434, 0.002234688, 0.00018676359, -751125.94, -18191.072, 0.0, 10.031888, 9.91627 
7.628606e+3, 2.351271e+2, -656324.8, -742832.94, -3018.7175, 0.0022382436, -0.000029446237, -656219.6, -20464.764, 0.0, 10.029691, 9.9159355 
7.628561e+3, 2.450373e+2, -570161.44, -664158.8, -2709.3516, 0.002239792, 0.00013276067, -570083.44, -31448.563, 0.0, 10.027502, 9.904154 
7.628518e+3, 2.549416e+2, -474844.38, -567268.8, -2683.8564, 0.0022392655, -0.00004847786, -474766.5, -33193.754, 0.0, 10.025317, 9.904072 
7.628474e+3, 2.6483956e+2, -388827.9, -489273.0, -2116.8867, 0.0022429393, 0.00019695237, -388783.3, -44210.73, 0.0, 10.023109, 9.89159 
7.628432e+3, 2.7473179e+2, -292973.22, -391368.0, -2116.6484, 0.0022462932, -0.00015128715, -292927.7, -45298.645, 0.0, 10.020871, 9.892065 
7.62839e+3, 2.8461713e+2, -207806.52, -315428.06, -1299.8522, 0.002246037, 0.00028242994, -207790.81, -57038.17, 0.0, 10.018599, 9.878034 
7.6283497e+3, 2.9449636e+2, -111514.11, -216649.06, -1236.8014, 0.0022448462, -0.00019808815, -111499.56, -57563.625, 0.0, 10.016283, 9.878986 
7.6283103e+3, 3.0440342e+2, -25619.63, -85863.03, -212.06348, 0.0022499517, 0.00022226092, -25618.885, -25618.885, 0.0, 10.013928, 9.934618 
7.6282734e+3, 3.143399e+2, -28085.963, -85370.7, -147.03758, 0.0022521587, -0.00001139254, -28085.586, -28085.586, 0.0, 10.011519, 9.936109 
7.639137e+3, 1.2578438e+2, -1652290.0, -1715878.4, -795.7481, 0.0022200607, 0.000115261806, -1652280.1, 55033.555, 0.0, 10.054696, 9.970128 
7.6390964e+3, 1.3575438e+2, -1558935.4, -1621303.9, -961.6752, 0.0022325213, -0.000048996735, -1558920.5, 50687.13, 0.0, 10.052324, 9.969417 
7.6390535e+3, 1.4571892e+2, -1473083.6, -1541063.8, -2096.452, 0.0022224982, 0.00020990866, -1473019.1, 38936.08, 0.0, 10.049965, 9.959728 
7.6390094e+3, 1.5567861e+2, -1379258.9, -1445856.3, -2213.392, 0.0022263946, 0.000013679007, -1379185.5, 35164.676, 0.0, 10.047633, 9.959269 
7.6389647e+3, 1.6563289e+2, -1293245.8, -1365730.8, -2972.5647, 0.002231733, 0.00009807784, -1293124.1, 23674.107, 0.0, 10.04532, 9.949322 
7.638918e+3, 1.7558227e+2, -1199076.8, -1270130.9, -3050.3442, 0.0022320133, 0.000000060687526, -1198946.0, 20348.229, 0.0, 10.043032, 9.948968 
7.6388717e+3, 1.8552612e+2, -1113013.8, -1190333.6, -3509.0818, 0.0022308289, 0.00014498415, -1112854.8, 8989.703, 0.0, 10.040757, 9.938598 
7.6388246e+3, 1.9546475e+2, -1018561.25, -1094437.5, -3560.803, 0.002233765, 0.0000073663077, -1018394.5, 6051.42, 0.0, 10.038505, 9.938291 
7.6387775e+3, 2.053978e+2, -932379.06, -1014830.5, -3737.5134, 0.002235779, 0.00013266962, -932210.0, -5107.914, 0.0, 10.036262, 9.927565 
7.63873e+3, 2.153254e+2, -837719.44, -918762.9, -3774.9612, 0.0022376003, -0.000060571227, -837543.94, -7732.384, 0.0, 10.034032, 9.927232 
7.638683e+3, 2.2524732e+2, -751381.2, -839278.8, -3668.2844, 0.0022384003, 0.0001880756, -751228.4, -18651.695, 0.0, 10.031815, 9.9162 
7.6386356e+3, 2.3516358e+2, -656491.44, -742999.5, -3697.8608, 0.0022409596, -0.000028560322, -656333.7, -20936.305, 0.0, 10.029609, 9.915864 
7.638589e+3, 2.4507378e+2, -570230.7, -664122.44, -3389.433, 0.0022422862, 0.00013239356, -570108.44, -31831.068, 0.0, 10.027416, 9.904215 
7.638543e+3, 2.5497812e+2, -474913.56, -567234.1, -3371.3257, 0.002243101, -0.000049124636, -474790.63, -33575.918, 0.0, 10.025231, 9.904132 
7.6384974e+3, 2.6487613e+2, -388958.53, -489373.16, -2828.4004, 0.0022461265, 0.00019773626, -388878.94, -44664.555, 0.0, 10.023028, 9.891559 
7.6384526e+3, 2.747683e+2, -293090.13, -391462.88, -2827.878, 0.0022492781, -0.00015123586, -293008.88, -45737.723, 0.0, 10.0208, 9.892033 
7.6384085e+3, 2.8465366e+2, -207842.5, -315362.44, -2041.7162, 0.0022484895, 0.0002826214, -207803.73, -57409.156, 0.0, 10.01853, 9.878105 
7.638366e+3, 2.9453298e+2, -111550.125, -216579.38, -1982.3174, 0.0022484919, -0.00019918176, -111512.73, -57935.574, 0.0, 10.0162115, 9.879061 
7.6383245e+3, 3.0444005e+2, -25735.588, -85959.73, -990.20874, 0.0022538065, 0.0002236755, -25719.313, -25719.313, 0.0, 10.013858, 9.934581 
7.638285e+3, 3.143765e+2, -28206.52, -85476.42, -931.4193, 0.0022536288, -0.0000017855434, -28191.375, -28191.375, 0.0, 10.011449, 9.936066 
7.649193e+3, 1.2582548e+2, -1649283.3, -1714540.9, 13.950286, 0.0022264165, 0.00011243351, -1649283.3, 57627.625, 0.0, 10.056685, 9.969867 
7.6491493e+3, 1.357952e+2, -1556218.0, -1620125.3, -141.83153, 0.0022352336, -0.00005080221, -1556217.8, 52989.79, 0.0, 10.05414, 9.969159 
7.649104e+3, 1.4575952e+2, -1470579.0, -1539938.5, -1235.4265, 0.0022268968, 0.00020799872, -1470557.0, 41000.26, 0.0, 10.051622, 9.959527 
7.6490575e+3, 1.5571903e+2, -1376991.4, -1444860.1, -1340.6925, 0.0022309509, 0.00001161642, -1376964.9, 36989.28, 0.0, 10.049148, 9.959071 
7.6490104e+3, 1.6567312e+2, -1291153.6, -1364780.9, -2060.748, 0.002236617, 0.00009545885, -1291096.0, 25307.953, 0.0, 10.046704, 9.949168 
7.648962e+3, 1.7562234e+2, -1197175.9, -1269284.1, -2128.5803, 0.0022363646, -0.0000019240933, -1197113.1, 21788.436, 0.0, 10.0443, 9.948816 
7.648913e+3, 1.8556607e+2, -1111268.8, -1189541.8, -2557.9277, 0.0022345167, 0.00014373173, -1111185.3, 10267.792, 0.0, 10.041916, 9.938473 
7.648864e+3, 1.9550456e+2, -1016979.56, -1093732.6, -2603.8105, 0.0022384538, 0.0000055841897, -1016891.4, 7164.3774, 0.0, 10.039562, 9.938169 
7.648814e+3, 2.054375e+2, -930940.06, -1014180.5, -2759.771, 0.0022405684, 0.00012919215, -930848.6, -4135.634, 0.0, 10.037221, 9.927462 
7.648765e+3, 2.15365e+2, -836428.75, -918189.94, -2794.7236, 0.0022428539, -0.000063356376, -836333.3, -6909.7974, 0.0, 10.034899, 9.927132 
7.648715e+3, 2.2528684e+2, -750241.25, -838762.6, -2678.9028, 0.0022431673, 0.0001865523, -750160.25, -17970.803, 0.0, 10.032577, 9.916121 
7.6486653e+3, 2.3520301e+2, -655531.5, -742576.1, -2707.6243, 0.0022455608, -0.000030161651, -655447.4, -20436.441, 0.0, 10.030255, 9.915787 
7.6486164e+3, 2.451132e+2, -569340.25, -663604.9, -2380.2551, 0.0022476986, 0.00012916051, -569280.2, -31389.063, 0.0, 10.027962, 9.904252 
7.648568e+3, 2.5501758e+2, -474160.2, -566791.25, -2365.1667, 0.0022491373, -0.000050846178, -474099.84, -33271.75, 0.0, 10.025692, 9.904166 
7.6485205e+3, 2.649156e+2, -388374.4, -489083.56, -1829.7885, 0.002251877, 0.0001960333, -388341.2, -44513.473, 0.0, 10.023407, 9.891536 
7.6484734e+3, 2.7480772e+2, -292628.03, -391237.63, -1827.2212, 0.0022535643, -0.00015451976, -292594.2, -45709.445, 0.0, 10.021099, 9.892009 
7.6484275e+3, 2.8469312e+2, -207473.83, -315084.94, -1080.0887, 0.0022537091, 0.00028064917, -207462.98, -57455.01, 0.0, 10.018726, 9.878168 
7.648382e+3, 2.945725e+2, -111385.46, -216401.95, -1027.0322, 0.0022550968, -0.00019695694, -111375.42, -58185.527, 0.0, 10.016271, 9.879125 
7.6483387e+3, 3.0447954e+2, -25887.389, -86094.84, -92.68832, 0.0022592058, 0.0002187157, -25887.246, -25887.246, 0.0, 10.01377, 9.934508 
7.6482964e+3, 3.144159e+2, -28591.22, -85734.75, -58.578857, 0.0022590891, -0.00003132223, -28591.16, -28591.16, 0.0, 10.011206, 9.935984 
7.6592493e+3, 1.2586871e+2, -1649552.6, -1714965.0, -750.2384, 0.0022317742, 0.00011343207, -1649544.0, 56943.29, 0.0, 10.056637, 9.9696245 
7.6592034e+3, 1.358382e+2, -1556490.8, -1620547.5, -907.7385, 0.002237172, -0.000051124636, -1556477.9, 52308.395, 0.0, 10.054086, 9.968919 
7.659156e+3, 1.458023e+2, -1470805.0, -1540267.9, -1975.972, 0.0022301355, 0.00021031896, -1470748.9, 40389.15, 0.0, 10.051566, 9.959345 
7.659107e+3, 1.5576161e+2, -1377217.6, -1445187.3, -2084.9302, 0.0022351658, 0.000011631031, -1377153.8, 36383.035, 0.0, 10.0490885, 9.95889 
7.6590574e+3, 1.6571556e+2, -1291347.5, -1365040.9, -2781.0977, 0.002240863, 0.000095311574, -1291242.6, 24745.414, 0.0, 10.046642, 9.949031 
7.659006e+3, 1.7566465e+2, -1197370.6, -1269542.0, -2853.9224, 0.002238907, -0.0000016201353, -1197257.9, 21229.088, 0.0, 10.044235, 9.948681 
7.658955e+3, 1.8560825e+2, -1111449.6, -1189767.5, -3268.1248, 0.0022374152, 0.00014519156, -1111313.5, 9726.224, 0.0, 10.041849, 9.938358 
7.6589036e+3, 1.9554663e+2, -1017160.06, -1093952.6, -3317.4116, 0.002242475, 0.0000067424025, -1017017.06, 6626.4834, 0.0, 10.039493, 9.938058 
7.658852e+3, 2.0547946e+2, -931112.6, -1014381.5, -3467.0496, 0.0022437957, 0.00012981646, -930968.5, -4666.704, 0.0, 10.037148, 9.927364 
7.658799e+3, 2.1540686e+2, -836606.1, -918391.56, -3504.7542, 0.0022460956, -0.00006330868, -836456.25, -7442.96, 0.0, 10.0348215, 9.927035 
7.6587474e+3, 2.2532861e+2, -750404.4, -838931.94, -3392.7058, 0.0022459994, 0.00018973078, -750274.56, -18494.535, 0.0, 10.032496, 9.916046 
7.6586956e+3, 2.3524472e+2, -655695.75, -742743.9, -3422.6335, 0.0022480825, -0.000028898956, -655561.4, -20959.154, 0.0, 10.030173, 9.915713 
7.6586443e+3, 2.4515487e+2, -569424.0, -663603.4, -3086.746, 0.0022501997, 0.00012894653, -569322.94, -31840.33, 0.0, 10.027877, 9.904288 
7.658594e+3, 2.550593e+2, -474254.0, -566797.9, -3084.993, 0.002252888, -0.000050577702, -474151.28, -33732.05, 0.0, 10.025601, 9.904201 
7.658544e+3, 2.649573e+2, -388507.56, -489167.0, -2566.3613, 0.0022548146, 0.00019769119, -388442.16, -45023.42, 0.0, 10.023315, 9.8915205 
7.658495e+3, 2.748494e+2, -292756.3, -391319.8, -2555.1917, 0.0022558768, -0.00015590801, -292690.1, -46214.152, 0.0, 10.021011, 9.891992 
7.6584464e+3, 2.8473485e+2, -207533.19, -315044.34, -1860.0126, 0.0022561448, 0.00028048872, -207501.02, -57902.03, 0.0, 10.018645, 9.878227 
7.658398e+3, 2.946143e+2, -111419.02, -216345.8, -1813.1656, 0.0022592852, -0.0001914905, -111387.695, -58607.46, 0.0, 10.016207, 9.879187 
7.658352e+3, 3.0452132e+2, -26018.182, -86263.26, -920.3716, 0.0022623679, 0.0002178556, -26004.125, -26004.125, 0.0, 10.013714, 9.934415 
7.6583076e+3, 3.1445754e+2, -28731.158, -85917.61, -892.16125, 0.0022598847, -0.00006504981, -28717.242, -28717.242, 0.0, 10.011148, 9.935882 
7.669307e+3, 1.2591508e+2, -1646550.9, -1713576.1, 130.6422, 0.0022361488, 0.00011036968, -1646550.6, 59482.21, 0.0, 10.058598, 9.969406 
7.669258e+3, 1.3588434e+2, -1553786.8, -1619323.1, -12.420677, 0.002240969, -0.00005318454, -1553786.8, 54547.297, 0.0, 10.055868, 9.968702 
7.669208e+3, 1.4584826e+2, -1468312.6, -1539102.9, -1020.1826, 0.0022363898, 0.000208267, -1468297.9, 42389.758, 0.0, 10.053193, 9.95918 
7.669157e+3, 1.558074e+2, -1374946.9, -1444142.5, -1114.1311, 0.0022383723, 0.000010787302, -1374929.0, 38159.016, 0.0, 10.050582, 9.958729 
7.6691043e+3, 1.657612e+2, -1289243.3, -1364053.3, -1758.2662, 0.0022440846, 0.000092841765, -1289202.0, 26338.744, 0.0, 10.048018, 9.948899 
7.669051e+3, 1.7571016e+2, -1195438.1, -1268647.1, -1819.9725, 0.0022438683, -0.0000030067938, -1195392.9, 22648.02, 0.0, 10.045507, 9.948552 
7.6689976e+3, 1.8565364e+2, -1109662.0, -1188936.8, -2196.5457, 0.002242523, 0.00014411712, -1109601.3, 10993.628, 0.0, 10.043026, 9.938244 
7.6689434e+3, 1.9559191e+2, -1015512.9, -1093196.3, -2239.5957, 0.0022468918, 0.0000042588827, -1015448.4, 7751.388, 0.0, 10.040584, 9.937946 
7.668889e+3, 2.0552462e+2, -929599.75, -1013689.2, -2366.9568, 0.00224824, 0.00012752508, -929533.2, -3674.1038, 0.0, 10.038154, 9.927261 
7.6688343e+3, 2.1545194e+2, -835225.6, -917768.2, -2402.1687, 0.002250613, -0.00006456522, -835155.75, -6584.2007, 0.0, 10.035744, 9.926935 
7.66878e+3, 2.253736e+2, -749155.06, -838361.7, -2284.5928, 0.002251086, 0.00018735489, -749096.56, -17757.373, 0.0, 10.033329, 9.91596 
7.6687264e+3, 2.3528962e+2, -654593.94, -742249.2, -2315.3582, 0.0022544072, -0.00003075346, -654532.9, -20370.604, 0.0, 10.030912, 9.915631 
7.668673e+3, 2.4519971e+2, -568438.9, -663127.7, -1972.575, 0.0022563701, 0.00012680526, -568397.8, -31354.563, 0.0, 10.028523, 9.904243 
7.66862e+3, 2.551041e+2, -473415.97, -566401.6, -2000.1145, 0.0022571369, -0.000054116797, -473372.97, -33392.63, 0.0, 10.026155, 9.904154 
7.6685673e+3, 2.650021e+2, -387721.03, -488675.3, -1479.7502, 0.0022593932, 0.00019608112, -387699.34, -44719.59, 0.0, 10.023784, 9.891582 
7.6685154e+3, 2.748943e+2, -292097.8, -390897.2, -1437.1908, 0.002262072, -0.00015027584, -292076.9, -46040.57, 0.0, 10.021399, 9.892049 
7.668465e+3, 2.8477973e+2, -207011.55, -314711.72, -770.2847, 0.0022630286, 0.00027962957, -207006.03, -57847.1, 0.0, 10.018951, 9.878267 
7.6684153e+3, 2.946592e+2, -111027.195, -216081.31, -735.24744, 0.0022647553, -0.0002120716, -111022.05, -58682.074, 0.0, 10.016428, 9.879225 
7.6683664e+3, 3.0456626e+2, -25930.498, -86358.26, 67.97184, 0.0022652096, 0.0002312992, -25930.422, -25930.422, 0.0, 10.013821, 9.93427 
7.668319e+3, 3.145024e+2, -28863.016, -86126.77, 63.06343, 0.0022672312, 0.000024727764, -28862.945, -28862.945, 0.0, 10.011107, 9.935731 
7.679366e+3, 1.2596375e+2, -1646804.4, -1713936.5, -684.306, 0.0022384268, 0.00011151584, -1646797.4, 58758.44, 0.0, 10.05853, 9.969211 
7.6793146e+3, 1.3593283e+2, -1554039.8, -1619679.8, -828.63196, 0.0022452825, -0.000051958064, -1554029.3, 53829.645, 0.0, 10.055799, 9.96851 
7.679261e+3, 1.4589657e+2, -1468522.8, -1539377.4, -1795.2504, 0.002241203, 0.00021058804, -1468477.4, 41736.79, 0.0, 10.0531225, 9.959038 
7.6792073e+3, 1.5585558e+2, -1375155.8, -1444413.5, -1893.0865, 0.0022406369, 0.000011257651, -1375104.1, 37511.79, 0.0, 10.05051, 9.958588 
7.6791525e+3, 1.6580924e+2, -1289428.4, -1364278.8, -2503.2742, 0.0022463007, 0.000093531686, -1289344.8, 25725.139, 0.0, 10.047947, 9.948788 
7.6790965e+3, 1.7575811e+2, -1195619.9, -1268868.1, -2570.3767, 0.0022468283, -0.0000009569734, -1195529.9, 22041.31, 0.0, 10.045436, 9.9484415 
7.6790404e+3, 1.8570147e+2, -1109838.4, -1189147.8, -2926.647, 0.0022462911, 0.00014526949, -1109730.6, 10395.554, 0.0, 10.042954, 9.938139 
7.678984e+3, 1.9563964e+2, -1015687.06, -1093401.3, -2974.4812, 0.0022500763, 0.000004255675, -1015573.4, 7158.6777, 0.0, 10.04051, 9.937846 
7.678927e+3, 2.0557226e+2, -929772.8, -1013890.75, -3096.9058, 0.0022510581, 0.00013191426, -929658.94, -4266.655, 0.0, 10.038079, 9.927162 
7.6788706e+3, 2.1549946e+2, -835401.5, -917968.2, -3137.833, 0.0022524623, -0.000061848456, -835282.44, -7176.6997, 0.0, 10.0356655, 9.926839 
7.678814e+3, 2.2542104e+2, -749323.6, -838545.2, -3030.8347, 0.0022541557, 0.00018742151, -749220.75, -18346.482, 0.0, 10.03325, 9.915875 
7.6787573e+3, 2.3533697e+2, -654762.0, -742430.94, -3066.3547, 0.0022581404, -0.000029488101, -654654.9, -20956.707, 0.0, 10.030832, 9.915546 
7.678702e+3, 2.4524699e+2, -568606.2, -663288.4, -2711.8274, 0.002258793, 0.00013100344, -568528.6, -31948.734, 0.0, 10.028434, 9.904177 
7.678646e+3, 2.551513e+2, -473610.03, -566576.56, -2738.8289, 0.0022591327, -0.000055851033, -473529.44, -34011.766, 0.0, 10.026048, 9.904086 
7.678591e+3, 2.6504934e+2, -387804.56, -488609.78, -2227.8315, 0.0022613653, 0.00019653034, -387755.34, -45238.418, 0.0, 10.023669, 9.891672 
7.6785374e+3, 2.7494162e+2, -292176.63, -390831.16, -2192.1868, 0.002266249, -0.00014091883, -292127.94, -46555.348, 0.0, 10.021288, 9.892139 
7.678484e+3, 2.848271e+2, -207106.02, -314716.5, -1577.9176, 0.0022668105, 0.00028126608, -207082.88, -58388.26, 0.0, 10.018857, 9.878302 
7.678431e+3, 2.947066e+2, -111074.35, -216064.08, -1542.075, 0.0022674135, -0.00023442069, -111051.71, -59176.21, 0.0, 10.016366, 9.879258 
7.67838e+3, 3.0461362e+2, -26091.984, -86633.25, -806.21826, 0.0022648124, 0.00025451335, -26081.25, -26081.25, 0.0, 10.013782, 9.934095 
7.6783293e+3, 3.1454965e+2, -29018.828, -86407.26, -817.11993, 0.002267572, 0.000147477, -29007.197, -29007.197, 0.0, 10.011076, 9.935549 
7.6894253e+3, 1.2601581e+2, -1643857.1, -1712511.5, 271.54773, 0.0022446506, 0.000108801105, -1643856.1, 61189.58, 0.0, 10.060425, 9.969043 
7.689371e+3, 1.3598472e+2, -1551384.6, -1618413.1, 148.37608, 0.0022470467, -0.0000524512, -1551384.4, 55966.0, 0.0, 10.057517, 9.968348 
7.6893157e+3, 1.4594834e+2, -1466074.3, -1538181.0, -734.6646, 0.0022459335, 0.00020841495, -1466066.8, 43640.16, 0.0, 10.054696, 9.958915 
7.6892585e+3, 1.5590721e+2, -1372908.8, -1443327.0, -812.91455, 0.0022457126, 0.000010287872, -1372899.4, 39210.504, 0.0, 10.051963, 9.9584675 
7.6892006e+3, 1.6586077e+2, -1287334.9, -1363259.8, -1355.26, 0.0022508567, 0.00009233841, -1287310.6, 27254.318, 0.0, 10.049298, 9.948683 
7.689143e+3, 1.758095e+2, -1193664.1, -1267926.1, -1409.9175, 0.0022516104, -0.000001586864, -1193637.4, 23429.893, 0.0, 10.046706, 9.9483385 
7.689084e+3, 1.8575278e+2, -1108010.0, -1188284.0, -1721.3677, 0.0022500085, 0.00014382217, -1107973.1, 11650.158, 0.0, 10.044151, 9.938029 
7.689025e+3, 1.9569084e+2, -1013964.06, -1092596.9, -1765.8586, 0.0022542584, 0.00000087497494, -1013924.44, 8305.8955, 0.0, 10.041645, 9.9377365 
7.688966e+3, 2.0562336e+2, -928171.1, -1013168.25, -1870.455, 0.002256325, 0.00013036179, -928130.0, -3238.3174, 0.0, 10.039146, 9.92704 
7.688907e+3, 2.1555044e+2, -833903.5, -917296.9, -1916.1161, 0.0022586675, -0.000060875343, -833859.5, -6253.1885, 0.0, 10.036668, 9.926723 
7.688848e+3, 2.2547188e+2, -747939.6, -837941.06, -1812.4235, 0.0022595252, 0.00018320608, -747903.1, -17527.11, 0.0, 10.034184, 9.915754 
7.688789e+3, 2.353877e+2, -653488.94, -741883.3, -1858.8334, 0.0022622873, -0.000034157176, -653449.8, -20248.748, 0.0, 10.031696, 9.91543 
7.68873e+3, 2.4529763e+2, -567459.06, -662764.56, -1509.3647, 0.00226401, 0.00013212902, -567435.2, -31351.49, 0.0, 10.029201, 9.904098 
7.6886725e+3, 2.5520185e+2, -472655.75, -566151.94, -1543.6658, 0.0022662214, -0.00005070053, -472630.25, -33608.016, 0.0, 10.0266905, 9.904008 
7.6886153e+3, 2.6509988e+2, -386879.53, -488016.88, -1012.408, 0.002268163, 0.00019299789, -386869.4, -44847.855, 0.0, 10.024215, 9.891756 
7.6885587e+3, 2.7499223e+2, -291370.38, -390304.4, -974.6063, 0.002269692, -0.0001598275, -291360.78, -46284.24, 0.0, 10.02176, 9.89222 
7.6885027e+3, 2.848778e+2, -206390.92, -314270.13, -373.86618, 0.0022712473, 0.00028053188, -206389.63, -58191.84, 0.0, 10.019284, 9.878352 
7.688448e+3, 2.9475743e+2, -110391.06, -215640.22, -337.20917, 0.0022757926, -0.00018115675, -110389.984, -59012.21, 0.0, 10.016777, 9.879305 
7.6883936e+3, 3.0466425e+2, -25701.166, -86659.47, 277.58435, 0.0022718909, 0.00020736309, -25699.902, -25699.902, 0.0, 10.014127, 9.933877 
7.6883405e+3, 3.1459978e+2, -28799.479, -86525.83, 232.89479, 0.0022794087, -0.00019005964, -28798.54, -28798.54, 0.0, 10.011308, 9.935323 
7.6994854e+3, 1.2607037e+2, -1644090.5, -1712791.1, -593.1663, 0.0022489415, 0.00010984678, -1644085.4, 60425.734, 0.0, 10.060335, 9.968907 
7.699428e+3, 1.3603914e+2, -1551612.6, -1618684.4, -715.7685, 0.0022478346, -0.00004985442, -1551605.0, 55212.047, 0.0, 10.057427, 9.968215 
7.69937e+3, 1.4600262e+2, -1466267.9, -1538390.3, -1538.4851, 0.0022477063, 0.00021057336, -1466235.0, 42939.77, 0.0, 10.054608, 9.95882 
7.699311e+3, 1.5596141e+2, -1373095.1, -1443530.4, -1619.96, 0.0022490993, 0.000011228863, -1373057.9, 38520.77, 0.0, 10.051877, 9.958375 
7.69925e+3, 1.659149e+2, -1287509.9, -1363446.8, -2114.213, 0.0022542763, 0.00009487764, -1287451.1, 26583.547, 0.0, 10.049216, 9.948599 
7.699189e+3, 1.7586355e+2, -1193831.1, -1268106.4, -2175.0405, 0.0022538549, 0.0000012353419, -1193767.5, 22770.244, 0.0, 10.046627, 9.948256 
7.699128e+3, 1.8580672e+2, -1108186.6, -1188491.4, -2459.926, 0.0022522388, 0.00014721298, -1108111.4, 10983.303, 0.0, 10.044076, 9.937927 
7.6990664e+3, 1.9574468e+2, -1014134.1, -1092798.8, -2510.6885, 0.0022567816, 0.0000016601772, -1014054.06, 7648.626, 0.0, 10.041573, 9.937636 
7.699005e+3, 2.0567708e+2, -928353.75, -1013404.2, -2612.4836, 0.002258808, 0.00013427738, -928273.56, -3908.4512, 0.0, 10.039078, 9.926916 
7.6989436e+3, 2.1560404e+2, -834078.3, -917521.94, -2664.8357, 0.0022627441, -0.000055270917, -833993.3, -6912.378, 0.0, 10.0366, 9.926603 
7.6988816e+3, 2.2552538e+2, -748127.06, -838186.8, -2575.2834, 0.0022620335, 0.00018589242, -748053.5, -18201.658, 0.0, 10.034114, 9.915624 
7.69882e+3, 2.3544104e+2, -653684.4, -742129.25, -2629.1733, 0.002262951, -0.0000365026, -653606.3, -20928.041, 0.0, 10.031619, 9.915301 
7.6987594e+3, 2.4535088e+2, -567648.75, -662963.2, -2299.3728, 0.0022658082, 0.00013644187, -567593.3, -32031.469, 0.0, 10.029106, 9.904007 
7.698699e+3, 2.55255e+2, -472877.94, -566362.2, -2339.7227, 0.0022710247, -0.000040325704, -472819.4, -34318.168, 0.0, 10.026572, 9.903921 
7.698639e+3, 2.6515305e+2, -386990.66, -487966.4, -1798.9243, 0.002271384, 0.0001948707, -386958.63, -45458.07, 0.0, 10.024081, 9.891846 
7.6985806e+3, 2.7504548e+2, -291494.94, -390264.28, -1773.136, 0.0022693654, -0.00018115006, -291463.1, -46908.23, 0.0, 10.021619, 9.892306 
7.698522e+3, 2.8493115e+2, -206515.25, -314260.22, -1186.464, 0.0022719298, 0.00028245323, -206502.19, -58826.977, 0.0, 10.019156, 9.878412 
7.698465e+3, 2.9481086e+2, -110465.164, -215607.22, -1132.7029, 0.0022821315, -0.00010863151, -110452.96, -59598.902, 0.0, 10.016684, 9.879363 
7.698408e+3, 3.0471748e+2, -25914.291, -87041.48, -619.72687, 0.0022771794, 0.00014916879, -25908.01, -25908.01, 0.0, 10.014086, 9.933629 
7.6983523e+3, 3.146525e+2, -28921.426, -86875.51, -672.1836, 0.002286364, -0.00062047556, -28913.63, -28913.63, 0.0, 10.011334, 9.935065 
7.7095467e+3, 1.2612854e+2, -1641252.1, -1711338.1, 442.7251, 0.002253797, 0.00010902746, -1641249.3, 62691.66, 0.0, 10.06212, 9.968809 
7.709487e+3, 1.3609721e+2, -1549062.5, -1617387.9, 348.72168, 0.0022504015, -0.000050465213, -1549060.6, 57187.22, 0.0, 10.059038, 9.968122 
7.709425e+3, 1.4606065e+2, -1463912.6, -1537173.3, -360.01532, 0.002254638, 0.00020946804, -1463910.9, 44695.477, 0.0, 10.056089, 9.958752 
7.7093625e+3, 1.5601934e+2, -1370903.9, -1442403.6, -416.52032, 0.002251983, 0.000010081629, -1370901.4, 40109.5, 0.0, 10.053261, 9.958309 
7.7093e+3, 1.6597275e+2, -1285448.5, -1362405.3, -823.2336, 0.0022566582, 0.000093273426, -1285439.8, 28027.828, 0.0, 10.050529, 9.948522 
7.709237e+3, 1.7592134e+2, -1191858.4, -1267116.0, -870.05774, 0.0022579937, -0.0000014696517, -1191848.3, 24123.162, 0.0, 10.04789, 9.94818 
7.709173e+3, 1.8586442e+2, -1106315.8, -1187601.4, -1101.7725, 0.0022576386, 0.00014730936, -1106300.9, 12228.381, 0.0, 10.045297, 9.937815 
7.7091086e+3, 1.9580226e+2, -1012312.75, -1091938.6, -1152.0803, 0.0022621732, 0.0000033114623, -1012296.1, 8842.284, 0.0, 10.042768, 9.937525 
7.709044e+3, 2.0573452e+2, -926627.4, -1012653.2, -1238.9945, 0.0022628985, 0.00012964566, -926609.56, -2807.3909, 0.0, 10.040241, 9.926757 
7.7089804e+3, 2.1566132e+2, -832405.56, -916795.6, -1301.9645, 0.0022674077, -0.000059894082, -832385.5, -5865.948, 0.0, 10.037731, 9.926452 
7.7089167e+3, 2.255825e+2, -746561.4, -837556.1, -1234.5308, 0.0022668901, 0.00018751572, -746544.6, -17252.563, 0.0, 10.035195, 9.91544 
7.708852e+3, 2.3549798e+2, -652218.1, -741547.7, -1308.0374, 0.0022707523, -0.00003037816, -652199.0, -20078.773, 0.0, 10.032638, 9.915123 
7.708789e+3, 2.4540766e+2, -566321.4, -662415.3, -1024.2911, 0.002273298, 0.00013144025, -566310.44, -31304.979, 0.0, 10.030019, 9.903865 
7.708726e+3, 2.5531164e+2, -471764.06, -565920.1, -1086.1249, 0.0022753049, -0.00006412893, -471751.53, -33805.156, 0.0, 10.027346, 9.903785 
7.7086633e+3, 2.6520962e+2, -385939.3, -487380.13, -528.1301, 0.0022761468, 0.00019582573, -385936.56, -44990.516, 0.0, 10.024739, 9.891864 
7.708602e+3, 2.751021e+2, -290600.06, -389762.34, -531.6479, 0.0022753498, -0.00011403455, -290597.22, -46597.48, 0.0, 10.022178, 9.892323 
7.708542e+3, 2.8498787e+2, -205551.72, -313518.03, 101.430145, 0.0022795333, 0.0002822483, -205551.63, -58432.082, 0.0, 10.019676, 9.878609 
7.7084816e+3, 2.9486758e+2, -109490.3, -214869.1, 207.0494, 0.0022900472, -0.00030892444, -109489.89, -59191.793, 0.0, 10.017218, 9.879554 
7.7084225e+3, 3.0477446e+2, -25251.895, -87020.11, 633.52716, 0.0022761396, 0.00032986572, -25245.398, -25245.398, 0.0, 10.014651, 9.933331 
7.7083635e+3, 3.1471e+2, -28183.201, -86835.45, 541.9234, 0.00227636, 0.00056520104, -28178.195, -28178.195, 0.0, 10.01196, 9.934751 
7.719609e+3, 1.2618938e+2, -1641461.4, -1711515.3, -469.22836, 0.0022540847, 0.0001103372, -1641458.3, 61886.42, 0.0, 10.062001, 9.96875 
7.7195454e+3, 1.36158e+2, -1549260.8, -1617553.8, -560.43195, 0.0022525252, -0.000049216273, -1549256.1, 56395.977, 0.0, 10.058923, 9.968066 
7.7194816e+3, 1.4612138e+2, -1464085.4, -1537299.3, -1181.9801, 0.0022597893, 0.00021521522, -1464066.4, 43944.715, 0.0, 10.055979, 9.958719 
7.719416e+3, 1.5608007e+2, -1371066.4, -1442524.1, -1242.0244, 0.0022527943, 0.000012592713, -1371044.8, 39371.14, 0.0, 10.053157, 9.958276 
7.7193505e+3, 1.6603343e+2, -1285616.3, -1362550.0, -1583.2957, 0.0022577897, 0.00009572041, -1285583.6, 27289.344, 0.0, 10.050431, 9.94847 
7.719285e+3, 1.7598197e+2, -1192014.8, -1267255.3, -1636.879, 0.0022584144, -0.00000033751283, -1191979.1, 23398.254, 0.0, 10.047799, 9.948127 
7.719218e+3, 1.8592496e+2, -1106502.1, -1187818.5, -1832.3402, 0.0022617718, 0.00015279013, -1106460.9, 11475.032, 0.0, 10.045216, 9.937708 
7.7191514e+3, 1.958627e+2, -1012482.94, -1092142.6, -1888.437, 0.0022659064, 0.000011460082, -1012438.2, 8107.8916, 0.0, 10.042694, 9.937422 
7.719085e+3, 2.0579483e+2, -926832.7, -1012948.9, -1974.3783, 0.002264048, 0.00013089979, -926787.44, -3576.188, 0.0, 10.040177, 9.92659 
7.719018e+3, 2.1572146e+2, -832593.3, -917078.44, -2044.4987, 0.002268176, -0.0000630078, -832543.9, -6613.6006, 0.0, 10.037677, 9.926288 
7.718952e+3, 2.2564246e+2, -746769.5, -837896.06, -2007.169, 0.0022696522, 0.00019692008, -746725.3, -18020.84, 0.0, 10.035147, 9.9152355 
7.718885e+3, 2.3555773e+2, -652415.1, -741875.3, -2091.5164, 0.002275068, -0.000016111975, -652366.25, -20831.713, 0.0, 10.032592, 9.914924 
7.718819e+3, 2.4546723e+2, -566500.5, -662705.7, -1873.4169, 0.0022753198, 0.00013205963, -566464.0, -32042.281, 0.0, 10.029972, 9.90369 
7.718753e+3, 2.55371e+2, -471947.97, -566204.56, -1954.7532, 0.0022751307, -0.000089385576, -471907.44, -34542.875, 0.0, 10.02729, 9.903617 
7.718688e+3, 2.6526895e+2, -386113.63, -487482.6, -1388.1627, 0.0022770723, 0.00020271177, -386094.63, -45729.77, 0.0, 10.024614, 9.8918495 
7.7186245e+3, 2.7516147e+2, -290960.13, -389957.25, -1411.9557, 0.0022794146, -0.000031517535, -290940.0, -47521.934, 0.0, 10.021928, 9.892307 
7.718561e+3, 2.8504723e+2, -205738.4, -313306.25, -724.6541, 0.0022843338, 0.00028255617, -205733.53, -59196.246, 0.0, 10.019405, 9.878871 
7.718499e+3, 2.9492706e+2, -109576.26, -214611.9, -588.46606, 0.0022941928, -0.000550289, -109572.96, -59857.727, 0.0, 10.017017, 9.879812 
7.718437e+3, 3.048343e+2, -25514.729, -87528.02, -226.03477, 0.0022694755, 0.0005716904, -25513.904, -25513.904, 0.0, 10.014619, 9.932993 
7.718376e+3, 3.147705e+2, -28080.121, -87185.555, -331.5976, 0.0022536707, 0.0020799728, -28078.26, -28078.26, 0.0, 10.012186, 9.934396 
7.7296716e+3, 1.2625411e+2, -1638815.9, -1710055.3, 649.64465, 0.0022602268, 0.000108289685, -1638810.0, 63900.324, 0.0, 10.063613, 9.968741 
7.729605e+3, 1.3622272e+2, -1546883.4, -1616240.9, 599.3271, 0.002252525, -0.000050829774, -1546878.3, 58139.746, 0.0, 10.060373, 9.9680605 
7.729538e+3, 1.461861e+2, -1461883.3, -1536079.1, 129.5591, 0.0022648692, 0.00021589178, -1461883.0, 45493.875, 0.0, 10.057323, 9.958717 
7.72947e+3, 1.5614477e+2, -1368974.6, -1441366.6, 101.86811, 0.0022585469, 0.000012570189, -1368974.5, 40807.254, 0.0, 10.054438, 9.958276 
7.7294016e+3, 1.6609813e+2, -1283615.9, -1361489.5, -128.01791, 0.0022616647, 0.00009469665, -1283615.6, 28623.324, 0.0, 10.051681, 9.948431 
7.729333e+3, 1.7604661e+2, -1190034.0, -1266214.3, -165.28896, 0.0022631013, 0.0000006719013, -1190033.6, 24710.113, 0.0, 10.049045, 9.948085 
7.729264e+3, 1.8598953e+2, -1104581.4, -1186898.8, -296.35425, 0.0022665442, 0.00015216017, -1104580.4, 12722.747, 0.0, 10.046467, 9.937592 
7.729195e+3, 1.9592716e+2, -1010542.8, -1091215.4, -353.66208, 0.002270368, 0.000009095181, -1010541.25, 9373.18, 0.0, 10.0439625, 9.937308 
7.7291256e+3, 2.0585912e+2, -924947.6, -1012160.06, -425.83203, 0.002268884, 0.00012865012, -924945.56, -2364.446, 0.0, 10.041463, 9.926385 
7.729056e+3, 2.1578555e+2, -830690.3, -916285.75, -511.0307, 0.002274571, -0.000055845434, -830687.3, -5385.1885, 0.0, 10.03898, 9.926084 
7.7289873e+3, 2.257063e+2, -744950.94, -837243.94, -518.61694, 0.0022774881, 0.00019698816, -744948.0, -16869.26, 0.0, 10.03644, 9.914951 
7.728918e+3, 2.3562129e+2, -650640.9, -741245.94, -638.58563, 0.002280378, -0.0000434939, -650636.4, -19724.518, 0.0, 10.03386, 9.914645 
7.7288496e+3, 2.4553049e+2, -564864.5, -662210.56, -523.35406, 0.0022805678, 0.00013195271, -564861.7, -31059.943, 0.0, 10.031178, 9.903361 
7.728781e+3, 2.55434e+2, -470460.75, -565780.3, -668.9578, 0.0022822518, -0.000008546565, -470456.06, -33708.86, 0.0, 10.028399, 9.903296 
7.728713e+3, 2.6533163e+2, -384874.72, -487005.47, -228.50748, 0.0022844174, 0.00019489256, -384874.22, -45123.74, 0.0, 10.025482, 9.891687 
7.7286464e+3, 2.7522382e+2, -290281.63, -389756.9, -311.68558, 0.0022847725, -0.00027268816, -290280.66, -47473.49, 0.0, 10.022422, 9.892152 
7.728581e+3, 2.8510997e+2, -204778.66, -312229.4, 623.8894, 0.0022864668, 0.00029003646, -204775.03, -58852.29, 0.0, 10.019777, 9.879355 
7.728516e+3, 2.949908e+2, -108474.36, -213475.88, 847.8878, 0.0022919397, 0.00014992943, -108467.516, -59376.977, 0.0, 10.017494, 9.880289 
7.728452e+3, 3.0489698e+2, -24578.861, -87535.86, 1328.5682, 0.0022912307, -0.0001118051, -24550.838, -24550.838, 0.0, 10.015445, 9.932548 
7.728389e+3, 3.1482983e+2, -26263.145, -86782.74, 1163.03, 0.00234013, -0.002120001, -26240.803, -26240.803, 0.0, 10.01362, 9.933935 
7.739735e+3, 1.2632169e+2, -1638990.3, -1710094.9, -305.31546, 0.002263182, 0.000111736066, -1638988.9, 63059.137, 0.0, 10.0634575, 9.968783 
7.7396655e+3, 1.3629034e+2, -1547042.9, -1616272.1, -351.22772, 0.0022507443, -0.00005030425, -1547041.1, 57314.13, 0.0, 10.060226, 9.968102 
7.739595e+3, 1.4625376e+2, -1462032.3, -1536104.4, -698.78174, 0.0022652645, 0.00022293442, -1462025.6, 44688.11, 0.0, 10.057185, 9.958759 
7.739524e+3, 1.562125e+2, -1369108.1, -1441384.8, -727.8756, 0.0022600645, 0.00001445442, -1369100.9, 40017.395, 0.0, 10.054309, 9.958317 
7.7394533e+3, 1.6616584e+2, -1283779.3, -1361585.8, -871.2375, 0.0022629143, 0.00009712916, -1283769.5, 27805.82, 0.0, 10.051563, 9.948419 
7.739382e+3, 1.7611432e+2, -1190182.9, -1266304.6, -914.2262, 0.002264159, 0.000007756383, -1190171.9, 23908.307, 0.0, 10.048937, 9.948071 
7.73931e+3, 1.8605718e+2, -1104791.1, -1187134.1, -1000.55945, 0.0022671197, 0.00015623594, -1104779.0, 11861.252, 0.0, 10.046372, 9.937479 
7.739239e+3, 1.9599469e+2, -1010728.8, -1091432.1, -1062.6769, 0.0022719174, 0.000009106096, -1010714.9, 8537.797, 0.0, 10.0438795, 9.9372 
7.739167e+3, 2.059265e+2, -925196.2, -1012531.94, -1130.4982, 0.0022706657, 0.00013700571, -925181.56, -3260.7083, 0.0, 10.041393, 9.926171 
7.739095e+3, 2.1585272e+2, -830918.0, -916653.44, -1220.718, 0.0022766797, -0.000042327334, -830900.6, -6256.774, 0.0, 10.038926, 9.925862 
7.7390236e+3, 2.257732e+2, -745214.56, -837741.44, -1268.327, 0.002281821, 0.00020133107, -745197.2, -17773.95, 0.0, 10.036411, 9.914635 
7.738952e+3, 2.3568784e+2, -650858.56, -741720.94, -1395.0187, 0.0022802893, -0.00006711209, -650837.2, -20577.508, 0.0, 10.03386, 9.914327 
7.738881e+3, 2.455967e+2, -565090.7, -662772.75, -1367.2881, 0.0022816444, 0.0001411252, -565071.56, -31918.805, 0.0, 10.031207, 9.902971 
7.7388096e+3, 2.554999e+2, -470641.0, -566313.3, -1527.9832, 0.0022886617, 0.00008456032, -470616.63, -34515.2, 0.0, 10.028455, 9.90291 
7.7387387e+3, 2.6539713e+2, -384964.25, -487341.13, -1241.3783, 0.0022884554, 0.00018825773, -384949.2, -45840.617, 0.0, 10.025529, 9.891433 
7.738669e+3, 2.7528882e+2, -290401.84, -390086.44, -1384.9633, 0.0022842044, -0.0005508953, -290382.63, -48212.754, 0.0, 10.022438, 9.891917 
7.7386004e+3, 2.8517538e+2, -204760.92, -311605.53, -278.238, 0.0022811384, 0.00031132012, -204760.2, -59478.66, 0.0, 10.01951, 9.879889 
7.738533e+3, 2.9505745e+2, -109225.43, -213231.28, -146.84323, 0.002283414, 0.0010072718, -109225.22, -60787.74, 0.0, 10.016708, 9.880824 
7.7384675e+3, 3.0496222e+2, -25587.875, -88567.76, 598.98193, 0.0023142877, -0.000988129, -25582.18, -25582.18, 0.0, 10.0149765, 9.932073 
7.738403e+3, 3.1489107e+2, -25709.572, -87070.195, 506.82492, 0.0024412612, -0.0074000526, -25705.387, -25705.387, 0.0, 10.014226, 9.933445 
7.7497995e+3, 1.2639338e+2, -1636651.5, -1708661.3, 900.93384, 0.002266936, 0.00011146352, -1636640.3, 64705.215, 0.0, 10.064811, 9.968886 
7.749727e+3, 1.3636214e+2, -1544934.5, -1614965.5, 908.93805, 0.0022530896, -0.00004971055, -1544922.8, 58728.992, 0.0, 10.061442, 9.968208 
7.749653e+3, 1.4632565e+2, -1460059.5, -1534899.1, 762.33044, 0.002271654, 0.00022412687, -1460051.8, 45957.418, 0.0, 10.058334, 9.958842 
7.749579e+3, 1.5628445e+2, -1367168.0, -1440200.8, 773.26166, 0.0022620826, 0.000013013447, -1367159.9, 41253.055, 0.0, 10.055444, 9.958401 
7.7495056e+3, 1.6623786e+2, -1281881.8, -1360522.1, 769.75226, 0.0022636806, 0.00009470216, -1281874.3, 28995.404, 0.0, 10.052721, 9.9484215 
7.749432e+3, 1.7618634e+2, -1188209.8, -1265207.9, 745.2986, 0.0022694117, 0.0000063935177, -1188202.6, 25171.885, 0.0, 10.05015, 9.948072 
7.749357e+3, 1.8612914e+2, -1102820.6, -1186178.0, 737.7933, 0.0022715398, 0.00015425136, -1102814.1, 13120.911, 0.0, 10.04765, 9.937364 
7.7492833e+3, 1.9606654e+2, -1008647.0, -1090427.0, 675.77075, 0.0022764534, 0.000016288504, -1008641.4, 9907.111, 0.0, 10.0452385, 9.937081 
7.749209e+3, 2.0599817e+2, -923112.4, -1011674.3, 619.5991, 0.0022767498, 0.00013760805, -923108.0, -1889.4775, 0.0, 10.042823, 9.92593 
7.749135e+3, 2.1592411e+2, -828738.8, -915753.5, 512.1266, 0.002282118, -0.00007070179, -828735.8, -4791.633, 0.0, 10.040424, 9.925621 
7.749061e+3, 2.258443e+2, -743055.25, -837015.1, 422.1718, 0.0022849664, 0.00020282679, -743053.3, -16326.98, 0.0, 10.0379715, 9.914257 
7.748987e+3, 2.3575865e+2, -648633.8, -740973.75, 259.85712, 0.0022877643, 0.000027567843, -648633.06, -19067.322, 0.0, 10.035473, 9.913944 
7.7489126e+3, 2.4566698e+2, -562952.8, -662225.0, 163.77582, 0.002292551, 0.00012783638, -562952.56, -30488.436, 0.0, 10.032831, 9.902459 
7.7488387e+3, 2.5556943e+2, -468542.16, -565803.06, -63.883736, 0.002298422, -0.00019626146, -468542.1, -33122.16, 0.0, 10.030065, 9.9023905 
7.7487653e+3, 2.654663e+2, -383202.0, -487207.7, -63.57524, 0.002295433, 0.00022272923, -383201.94, -44771.367, 0.0, 10.027004, 9.89074 
7.748692e+3, 2.7535796e+2, -288985.97, -390102.75, -381.8406, 0.0022860025, 0.00026907306, -288984.53, -47492.086, 0.0, 10.023674, 9.891252 
7.74862e+3, 2.8524348e+2, -203975.92, -311207.88, 399.72272, 0.0022915464, 0.00024502998, -203974.44, -59360.043, 0.0, 10.020009, 9.87986 
7.7485496e+3, 2.951236e+2, -110214.37, -213719.39, 327.0312, 0.0023139487, -0.001402005, -110213.336, -62424.18, 0.0, 10.016015, 9.880791 
7.748482e+3, 3.0503234e+2, -25452.447, -88494.87, 2764.1724, 0.0022579548, 0.0015588781, -25331.48, -25331.48, 0.0, 10.015074, 9.932048 
7.7484185e+3, 3.1497085e+2, -21624.191, -85080.984, 2821.1987, 0.0022084971, 0.0071543795, -21499.012, -21499.012, 0.0, 10.017025, 9.933413 
7.7598643e+3, 1.264681e+2, -1636781.8, -1708528.5, -90.22377, 0.0022629902, 0.00011169769, -1636781.6, 63831.633, 0.0, 10.0646105, 9.969056 
7.7597874e+3, 1.3643703e+2, -1545041.8, -1614820.0, -73.79392, 0.0022543285, -0.00004690644, -1545041.6, 57876.11, 0.0, 10.061256, 9.968377 
7.759711e+3, 1.464007e+2, -1460180.3, -1534800.4, -54.79417, 0.0022742455, 0.00022970309, -1460180.3, 45093.5, 0.0, 10.058162, 9.958978 
7.759635e+3, 1.5635963e+2, -1367264.9, -1440089.6, -44.73417, 0.0022603215, 0.000017845447, -1367264.9, 40411.293, 0.0, 10.055287, 9.958536 
7.759558e+3, 1.6631313e+2, -1282045.9, -1360566.5, 62.647808, 0.0022631264, 0.00009888407, -1282045.9, 28086.19, 0.0, 10.052579, 9.948453 
7.7594817e+3, 1.7626165e+2, -1188351.3, -1265237.9, 32.18535, 0.0022705444, 0.000012861133, -1188351.3, 24285.303, 0.0, 10.05002, 9.948105 
7.759405e+3, 1.862044e+2, -1103058.3, -1186423.0, 80.63854, 0.0022728152, 0.00016061935, -1103058.3, 12139.295, 0.0, 10.047535, 9.937254 
7.7593285e+3, 1.9614169e+2, -1008869.06, -1090670.6, 14.314004, 0.0022757968, 0.000020844154, -1008869.06, 8942.998, 0.0, 10.045135, 9.936966 
7.759252e+3, 2.0607314e+2, -923427.44, -1012130.1, -37.90733, 0.0022794616, 0.00014801281, -923427.44, -2943.55, 0.0, 10.042732, 9.925672 
7.7591753e+3, 2.1599881e+2, -829031.75, -916196.75, -148.87444, 0.0022848092, -0.0000814499, -829031.5, -5819.289, 0.0, 10.040346, 9.925363 
7.7590984e+3, 2.2591868e+2, -743430.56, -837669.44, -270.1965, 0.0022835138, 0.00020769887, -743429.75, -17432.252, 0.0, 10.037912, 9.913854 
7.759023e+3, 2.3583268e+2, -648976.2, -741615.56, -420.67197, 0.0022906712, 0.00010905, -648974.3, -20134.0, 0.0, 10.035436, 9.913534 
7.758946e+3, 2.4574044e+2, -563336.75, -663077.56, -603.5866, 0.0022977404, 0.00012580614, -563333.1, -31588.922, 0.0, 10.032846, 9.901885 
7.758869e+3, 2.5564215e+2, -468818.75, -566611.6, -825.0969, 0.0023014518, -0.00044666653, -468811.78, -34104.23, 0.0, 10.030153, 9.901805 
7.7587926e+3, 2.6553854e+2, -383500.47, -488317.84, -1002.6564, 0.0022975493, 0.0002727591, -383490.88, -45768.035, 0.0, 10.027198, 9.889904 
7.758716e+3, 2.7542996e+2, -289051.38, -391061.9, -1294.4352, 0.002287823, 0.0010822719, -289034.97, -48248.105, 0.0, 10.024006, 9.890442 
7.75864e+3, 2.853142e+2, -204020.28, -311506.9, -824.9531, 0.002300039, 0.00014970537, -204013.94, -60092.93, 0.0, 10.020069, 9.879613 
7.7585655e+3, 2.9519215e+2, -111140.69, -214466.94, -921.90173, 0.0023352446, -0.0039277743, -111132.46, -64015.06, 0.0, 10.015486, 9.880533 
7.758497e+3, 3.0510488e+2, -25972.979, -89310.05, 3011.7039, 0.002183359, 0.004440359, -25830.092, -25830.092, 0.0, 10.014973, 9.931563 
7.7584356e+3, 3.1505695e+2, -18678.678, -81382.21, 1588.421, 0.0018559254, 0.027398791, -18638.467, -18638.467, 0.0, 10.018082, 9.935445 
7.769929e+3, 1.2654714e+2, -1634891.3, -1707156.5, 1204.1941, 0.0022685148, 0.0001099986, -1634871.1, 64967.555, 0.0, 10.0655985, 9.969308 
7.76985e+3, 1.3651633e+2, -1543324.6, -1613545.3, 1290.0635, 0.0022544737, -0.00004381953, -1543300.9, 58839.855, 0.0, 10.062142, 9.968629 
7.7697694e+3, 1.464802e+2, -1458544.3, -1533644.9, 1572.1595, 0.0022761314, 0.00022638396, -1458511.4, 45983.188, 0.0, 10.059039, 9.959166 
7.76969e+3, 1.5643933e+2, -1365543.4, -1438892.0, 1632.2146, 0.0022667893, 0.000012117974, -1365507.1, 41388.113, 0.0, 10.056224, 9.958724 
7.769611e+3, 1.6639294e+2, -1280294.5, -1359513.0, 1910.3289, 0.002268425, 0.00010076802, -1280248.5, 29101.377, 0.0, 10.053614, 9.948504 
7.769532e+3, 1.7634152e+2, -1186404.1, -1264086.4, 1903.4082, 0.0022737025, 0.00003334878, -1186357.5, 25496.195, 0.0, 10.051187, 9.948157 
7.769453e+3, 1.8628424e+2, -1101032.0, -1185422.9, 2036.9066, 0.0022783387, 0.00015493325, -1100982.9, 13432.325, 0.0, 10.048843, 9.937144 
7.769374e+3, 1.9622137e+2, -1006623.44, -1089569.4, 1967.0009, 0.0022803664, -0.00004179752, -1006576.8, 10454.446, 0.0, 10.046595, 9.93685 
7.7692956e+3, 2.0615266e+2, -921124.4, -1011204.25, 1921.49, 0.0022834048, 0.00016603273, -921083.4, -1378.9252, 0.0, 10.044325, 9.925383 
7.769217e+3, 2.160782e+2, -826549.8, -915171.25, 1791.099, 0.002289951, 0.00011092373, -826513.6, -4079.3972, 0.0, 10.042056, 9.925087 
7.7691376e+3, 2.2599754e+2, -740876.56, -836723.56, 1633.5168, 0.0022919031, 0.0001547093, -740848.75, -15624.092, 0.0, 10.039723, 9.913482 
7.7690583e+3, 2.3591076e+2, -646323.1, -740641.3, 1474.8025, 0.0023073412, -0.00045888568, -646300.06, -18224.877, 0.0, 10.037327, 9.913151 
7.7689797e+3, 2.4581861e+2, -560693.8, -662319.5, 1215.9186, 0.0023013456, 0.0002596216, -560679.25, -29701.088, 0.0, 10.034825, 9.901324 
7.7689e+3, 2.55721e+2, -466063.22, -565815.75, 966.7579, 0.0022746613, 0.0012335888, -466053.88, -32119.01, 0.0, 10.032219, 9.901235 
7.7688205e+3, 2.6561514e+2, -380693.28, -487673.72, 633.5238, 0.0023139226, -0.000019578163, -380689.53, -43717.48, 0.0, 10.029375, 9.889187 
7.768741e+3, 2.7550212e+2, -286067.63, -390336.5, 313.589, 0.0024029587, -0.0038375703, -286066.7, -45986.914, 0.0, 10.026309, 9.889726 
7.768661e+3, 2.853901e+2, -202342.33, -311452.6, -259.01404, 0.00230125, 0.00072160753, -202341.72, -59164.176, 0.0, 10.021487, 9.878886 
7.7685803e+3, 2.9527846e+2, -112150.74, -215968.81, -449.3082, 0.0020445227, 0.010498152, -112148.8, -65877.15, 0.0, 10.01519, 9.879612 
7.768513e+3, 3.0516094e+2, -31616.527, -102932.68, 5692.3545, 0.0024877004, -0.012011471, -31165.03, -31165.03, 0.0, 10.01581, 9.921994 
7.768457e+3, 3.1505632e+2, -14740.917, -83495.125, 794.92914, 0.0032381613, -0.04748929, -14731.727, -14731.727, 0.0, 10.022534, 9.931938 
7.7799946e+3, 1.2662937e+2, -1634963.4, -1706805.5, 188.14447, 0.0022667919, 0.00011264947, -1634962.9, 64069.914, 0.0, 10.065345, 9.969637 
7.779912e+3, 1.3659889e+2, -1543357.0, -1613170.6, 286.152, 0.0022514241, -0.000036548678, -1543355.9, 57975.7, 0.0, 10.0619135, 9.968961 
7.779829e+3, 1.4656307e+2, -1458623.1, -1533388.3, 789.8114, 0.0022716476, 0.00023031981, -1458614.8, 45067.8, 0.0, 10.058829, 9.959417 
7.7797467e+3, 1.5652242e+2, -1365597.8, -1438626.0, 850.96783, 0.002265052, 0.0000088180395, -1365587.9, 40492.98, 0.0, 10.056031, 9.958973 
7.7796644e+3, 1.664762e+2, -1280456.8, -1359491.9, 1265.3105, 0.0022694997, 0.00010866219, -1280436.5, 28097.219, 0.0, 10.053442, 9.94859 
7.7795833e+3, 1.764249e+2, -1186544.1, -1264057.0, 1252.9121, 0.0022693772, 0.00005798142, -1186523.9, 24512.746, 0.0, 10.05103, 9.948239 
7.7795017e+3, 1.8636759e+2, -1101307.9, -1185688.9, 1447.2588, 0.0022776604, 0.00015411395, -1101283.0, 12315.369, 0.0, 10.048703, 9.937034 
7.7794206e+3, 1.9630454e+2, -1006879.06, -1089829.0, 1369.4575, 0.0022832118, -0.00010733857, -1006856.5, 9359.614, 0.0, 10.046469, 9.936734 
7.7793396e+3, 2.0623572e+2, -921519.3, -1011761.3, 1315.4204, 0.0022819832, 0.00019612645, -921500.1, -2609.4478, 0.0, 10.044209, 9.925073 
7.779259e+3, 2.161611e+2, -826918.9, -915700.8, 1182.8577, 0.0022842474, 0.00034678626, -826903.1, -5281.26, 0.0, 10.041949, 9.924787 
7.7791774e+3, 2.2607987e+2, -741318.5, -837394.0, 968.0186, 0.0022957867, 0.000091784634, -741308.75, -16890.85, 0.0, 10.039612, 9.913093 
7.779096e+3, 2.3599218e+2, -646794.8, -741347.7, 809.9416, 0.002320412, -0.0011665262, -646787.9, -19510.502, 0.0, 10.037203, 9.912742 
7.779014e+3, 2.4590026e+2, -561274.44, -663274.3, 488.672, 0.0022983055, 0.00046698676, -561272.06, -31094.006, 0.0, 10.034711, 9.900747 
7.778932e+3, 2.5580367e+2, -466615.56, -566765.6, 271.182, 0.0022382978, 0.003423139, -466614.84, -33490.105, 0.0, 10.0321245, 9.900646 
7.77885e+3, 2.6569504e+2, -381122.3, -488682.8, -162.92117, 0.0023287637, -0.00048027956, -381122.06, -44932.844, 0.0, 10.029409, 9.888492 
7.7787673e+3, 2.7557638e+2, -286185.97, -391203.22, -469.6074, 0.0025365679, -0.01039225, -286183.84, -46831.9, 0.0, 10.026553, 9.889016 
7.778683e+3, 2.8546962e+2, -201846.81, -312312.9, -2186.1052, 0.0022880896, 0.0017555897, -201803.58, -59405.586, 0.0, 10.022245, 9.87792 
7.778595e+3, 2.9537213e+2, -110775.67, -216905.36, -2273.061, 0.0016665721, 0.030207831, -110727.01, -65372.96, 0.0, 10.016764, 9.878206 
7.778529e+3, 3.0521235e+2, -40479.195, -122080.33, 7678.216, 0.0029059038, -0.035528213, -39763.004, -39763.004, 0.0, 10.016144, 9.909006 
7.778478e+3, 3.1517664e+2, 490.38278, -44681.3, 1350.6162, 0.0020654611, 0.030081486, 530.7297, 530.7297, 0.0, 10.019527, 9.959736 
7.79006e+3, 1.2671608e+2, -1633726.4, -1705567.8, 1564.7391, 0.0022694166, 0.0001075222, -1633692.3, 64490.855, 0.0, 10.065822, 9.970069 
7.7899736e+3, 1.3668604e+2, -1542182.1, -1611963.9, 1755.6287, 0.002254653, -0.000032985154, -1542138.0, 58339.6, 0.0, 10.062354, 9.969396 
7.789888e+3, 1.4665058e+2, -1457447.6, -1532317.5, 2595.6267, 0.0022770748, 0.00023042166, -1457357.8, 45467.195, 0.0, 10.059343, 9.959736 
7.7898026e+3, 1.5661027e+2, -1364179.4, -1437434.1, 2719.5618, 0.0022660275, 0.0000029965224, -1364078.5, 41141.58, 0.0, 10.056706, 9.959287 
7.7897185e+3, 1.6656427e+2, -1278900.9, -1358463.3, 3336.8293, 0.0022688026, 0.00010904105, -1278761.1, 28909.729, 0.0, 10.054319, 9.948702 
7.789635e+3, 1.7651308e+2, -1184625.4, -1262852.6, 3348.537, 0.002273459, 0.00007024904, -1184482.3, 25690.281, 0.0, 10.05215, 9.948342 
7.789551e+3, 1.8645571e+2, -1099217.6, -1184660.0, 3631.3667, 0.0022832486, 0.00014590248, -1099063.6, 13671.104, 0.0, 10.050057, 9.936911 
7.789468e+3, 1.9639254e+2, -1004439.0, -1088627.8, 3544.9827, 0.0022899825, -0.00014545137, -1004290.0, 11063.893, 0.0, 10.048057, 9.936609 
7.789385e+3, 2.063235e+2, -918935.94, -1010748.3, 3476.1328, 0.0022858893, 0.00021169231, -918804.5, -774.1471, 0.0, 10.04601, 9.924726 
7.789302e+3, 2.1624865e+2, -824067.75, -914550.6, 3316.295, 0.0022868996, 0.00047685232, -823946.4, -3182.3389, 0.0, 10.043931, 9.924446 
7.789218e+3, 2.2616687e+2, -738389.7, -836328.0, 3001.486, 0.002302035, 0.000042872838, -738297.8, -14732.435, 0.0, 10.041701, 9.912651 
7.7891344e+3, 2.3607841e+2, -643778.3, -740224.75, 2811.4, 0.002323649, -0.0015931944, -643696.44, -17264.299, 0.0, 10.0393505, 9.912319 
7.78905e+3, 2.4598654e+2, -558222.56, -662175.75, 2427.3728, 0.002303853, 0.00060693984, -558165.94, -28833.332, 0.0, 10.036901, 9.900295 
7.788965e+3, 2.5589046e+2, -463548.4, -565649.0, 2233.9048, 0.0022545964, 0.0047810045, -463499.53, -31225.5, 0.0, 10.0343275, 9.90021 
7.788881e+3, 2.657801e+2, -377683.72, -487251.06, 1861.9036, 0.0023343207, -0.00084728934, -377652.1, -42296.207, 0.0, 10.031807, 9.888171 
7.788795e+3, 2.75658e+2, -282358.44, -389674.72, 1610.4983, 0.002515367, -0.014570343, -282334.28, -43782.234, 0.0, 10.029259, 9.888618 
7.7887064e+3, 2.8555438e+2, -197854.38, -312054.13, -916.8925, 0.0023056653, 0.0026800164, -197847.02, -56279.47, 0.0, 10.025628, 9.876363 
7.7886146e+3, 2.9546493e+2, -105936.734, -217300.88, -1114.3475, 0.0017700623, 0.043100387, -105925.586, -61481.37, 0.0, 10.021184, 9.875734 
7.788546e+3, 3.052697e+2, -53235.066, -152834.89, 8132.133, 0.0029115651, -0.051437426, -52575.46, -52575.46, 0.0, 10.017929, 9.8875885 
7.788494e+3, 3.1522498e+2, 4123.0713, -27100.621, -2032.6901, 0.0017944314, 0.028996311, 4254.845, 4254.845, 0.0, 10.015216, 9.973833 
7.800126e+3, 1.2680611e+2, -1633700.0, -1704922.6, 547.10815, 0.002260054, 0.00010970902, -1633695.9, 63604.867, 0.0, 10.065515, 9.970605 
7.8000355e+3, 1.3677661e+2, -1542114.3, -1611296.1, 754.0598, 0.002250688, -0.0000313727, -1542106.0, 57483.9, 0.0, 10.062075, 9.9699335 
7.799947e+3, 1.4674164e+2, -1457474.0, -1531866.6, 1883.8339, 0.0022786718, 0.00023756275, -1457426.3, 44506.38, 0.0, 10.05909, 9.96013 
7.7998596e+3, 1.567017e+2, -1364168.0, -1436973.0, 2011.4733, 0.002261857, 0.0000052942887, -1364112.5, 40211.56, 0.0, 10.056481, 9.959673 
7.799773e+3, 1.6665596e+2, -1279057.0, -1358369.5, 2792.318, 0.0022635262, 0.00011423042, -1278958.9, 27813.4, 0.0, 10.054121, 9.948847 
7.799687e+3, 1.7660493e+2, -1184749.4, -1262748.8, 2799.2717, 0.0022730103, 0.000084883286, -1184649.1, 24623.37, 0.0, 10.051974, 9.948481 
7.799601e+3, 1.8654756e+2, -1099532.5, -1184970.1, 3139.3323, 0.0022828146, 0.00014995776, -1099417.3, 12417.348, 0.0, 10.049904, 9.936778 
7.7995163e+3, 1.9648422e+2, -1004721.44, -1088922.5, 3042.7605, 0.0022893453, -0.00016983901, -1004611.6, 9843.681, 0.0, 10.047924, 9.936475 
7.7994305e+3, 2.0641498e+2, -919388.56, -1011411.1, 2935.7537, 0.0022830046, 0.00023148998, -919295.0, -2161.0176, 0.0, 10.045892, 9.924349 
7.799346e+3, 2.163398e+2, -824500.06, -915205.75, 2765.1892, 0.0022871208, 0.00057435565, -824415.9, -4545.1533, 0.0, 10.043824, 9.924066 
7.79926e+3, 2.2625747e+2, -738901.9, -837162.0, 2328.7676, 0.0023066737, 0.000013564187, -738846.75, -16169.363, 0.0, 10.041599, 9.912151 
7.7991736e+3, 2.3616831e+2, -644282.1, -741045.2, 2117.911, 0.0023156533, -0.0019016752, -644235.75, -18684.547, 0.0, 10.0392475, 9.911826 
7.799087e+3, 2.4607633e+2, -558763.7, -662962.44, 1606.4247, 0.0023025481, 0.00073403865, -558738.94, -30286.2, 0.0, 10.036746, 9.899849 
7.799e+3, 2.5598052e+2, -464213.25, -566496.0, 1405.724, 0.0022787862, 0.005818588, -464193.94, -32802.402, 0.0, 10.034088, 9.899765 
7.7989125e+3, 2.658687e+2, -378319.34, -487837.13, 1028.0707, 0.0023294867, -0.0011866911, -378309.7, -43822.086, 0.0, 10.031477, 9.887936 
7.798825e+3, 2.7574402e+2, -283203.78, -390483.22, 748.6857, 0.0024397345, -0.017842853, -283198.56, -45489.17, 0.0, 10.028836, 9.888277 
7.7987325e+3, 2.8564277e+2, -197917.8, -313998.56, -2150.8672, 0.0023273486, 0.0036412398, -197877.95, -57176.38, 0.0, 10.026369, 9.874699 
7.7986366e+3, 2.9555926e+2, -103989.48, -219888.14, -1968.5382, 0.002007346, 0.053538002, -103956.05, -60436.313, 0.0, 10.023983, 9.872644 
7.798564e+3, 3.0533054e+2, -69687.38, -188860.39, 8209.478, 0.0027824934, -0.0650297, -69124.51, -69124.51, 0.0, 10.01866, 9.863296 
7.798509e+3, 3.1525633e+2, 18165.307, 12959.004, -967.3137, 0.0022284398, 0.007981651, 18339.22, 18339.22, 0.0, 10.010528, 10.003521 
7.8101915e+3, 1.2690072e+2, -1633362.6, -1703883.1, 1991.3812, 0.0022654443, 0.000112249385, -1633306.5, 63067.26, 0.0, 10.065296, 9.971277 
7.810098e+3, 1.3687186e+2, -1541691.3, -1610220.9, 2315.1926, 0.002247261, -0.000039076214, -1541613.1, 57043.383, 0.0, 10.061917, 9.970596 
7.810006e+3, 1.4683746e+2, -1456916.8, -1530933.9, 3876.2493, 0.002282078, 0.00023768665, -1456714.3, 44279.316, 0.0, 10.059128, 9.960607 
7.809916e+3, 1.56798e+2, -1363144.1, -1435800.3, 4077.4814, 0.0022701344, 0.000013217656, -1362916.0, 40464.273, 0.0, 10.056822, 9.960143 
7.8098273e+3, 1.6675258e+2, -1277751.3, -1357381.1, 5098.829, 0.0022682399, 0.00010365234, -1277426.1, 28399.383, 0.0, 10.0548, 9.949031 
7.809739e+3, 1.7670171e+2, -1182878.8, -1261479.9, 5139.1294, 0.0022758632, 0.000058245263, -1182544.3, 25779.771, 0.0, 10.053025, 9.948653 
7.809652e+3, 1.8664438e+2, -1097370.6, -1183938.5, 5564.7144, 0.0022889322, 0.0001624906, -1097014.4, 13871.528, 0.0, 10.051324, 9.936618 
7.809565e+3, 1.9658092e+2, -1002015.2, -1087617.8, 5457.599, 0.002289592, -0.00009377738, -1001668.6, 11839.038, 0.0, 10.049704, 9.936311 
7.8094774e+3, 2.0651127e+2, -916430.1, -1010300.25, 5300.6465, 0.0022866582, 0.00019853689, -916131.75, 58.37774, 0.0, 10.047982, 9.923911 
7.8093904e+3, 2.1643552e+2, -821144.6, -913913.1, 5087.8145, 0.0023033782, 0.00035248228, -820866.44, -1933.7401, 0.0, 10.04619, 9.923616 
7.809303e+3, 2.2635286e+2, -735454.2, -836115.94, 4466.873, 0.002310998, 0.00008746409, -735256.3, -13513.622, 0.0, 10.044156, 9.911455 
7.809214e+3, 2.3626345e+2, -640665.4, -739894.7, 4165.314, 0.0022994196, -0.0012547844, -640490.9, -15871.985, 0.0, 10.041914, 9.911157 
7.809125e+3, 2.4617015e+2, -555195.8, -661802.06, 3407.9495, 0.0023145569, 0.0005481794, -555087.0, -27553.799, 0.0, 10.039364, 9.8992195 
7.809035e+3, 2.5607234e+2, -460911.84, -565434.9, 3133.9683, 0.0023497334, 0.003941505, -460817.97, -30326.418, 0.0, 10.03652, 9.899177 
7.8089446e+3, 2.65962e+2, -375041.66, -486311.72, 2712.7053, 0.002312553, -0.00078999647, -374975.56, -41402.363, 0.0, 10.0336895, 9.887767 
7.808854e+3, 2.7584115e+2, -280350.72, -389191.5, 2527.7366, 0.0022374887, -0.01249851, -280292.03, -43534.484, 0.0, 10.030784, 9.888099 
7.808761e+3, 2.8573477e+2, -191688.75, -310994.97, 1078.7964, 0.0023697058, 0.0028175917, -191679.0, -51878.95, 0.0, 10.030605, 9.874549 
7.808666e+3, 2.956394e+2, -92748.1, -216169.36, 1467.0347, 0.0025962675, 0.038303796, -92730.664, -49996.68, 0.0, 10.032374, 9.870977 
7.808584e+3, 3.054263e+2, -78815.6, -215039.08, 6368.5737, 0.002304229, -0.047533944, -78518.516, -78518.516, 0.0, 10.021595, 9.844472 
7.808513e+3, 3.153376e+2, 23075.58, 46707.03, -1829.262, 0.0024860096, 0.029466242, 46847.79, 46847.79, 0.0, 10.000257, 10.031648 
7.8202564e+3, 1.2699871e+2, -1633228.3, -1702871.8, 1002.06805, 0.0022564281, 0.00011581643, -1633213.8, 62199.523, 0.0, 10.064912, 9.972079 
7.82016e+3, 1.3697065e+2, -1541486.8, -1609186.4, 1349.8234, 0.002239391, -0.000043746855, -1541459.9, 56228.45, 0.0, 10.061585, 9.971387 
7.8200656e+3, 1.4693694e+2, -1456864.8, -1530243.5, 3287.5042, 0.0022762963, 0.00024901776, -1456717.8, 43300.984, 0.0, 10.058834, 9.961169 
7.8199726e+3, 1.5689805e+2, -1363057.3, -1435098.4, 3495.5356, 0.0022628382, 0.0000331235, -1362888.0, 39511.73, 0.0, 10.056555, 9.9607 
7.819882e+3, 1.66853e+2, -1277890.4, -1357180.5, 4706.7407, 0.0022646708, 0.00009724826, -1277612.0, 27229.307, 0.0, 10.054571, 9.949259 
7.8197926e+3, 1.7680234e+2, -1182982.8, -1261285.3, 4739.8, 0.0022709577, 0.000026474205, -1182696.9, 24640.959, 0.0, 10.05283, 9.948861 
7.819703e+3, 1.8674506e+2, -1097729.9, -1184308.4, 5220.9956, 0.002287139, 0.00018783743, -1097416.1, 12482.982, 0.0, 10.051161, 9.936453 
7.819615e+3, 1.9668151e+2, -1002320.56, -1087965.4, 5103.024, 0.0022827801, 0.000007752548, -1002017.56, 10504.355, 0.0, 10.049577, 9.93614 
7.8195256e+3, 2.0661142e+2, -916937.2, -1011113.25, 4875.9053, 0.0022899113, 0.00016005017, -916685.4, -1476.6348, 0.0, 10.047884, 9.9234295 
7.819437e+3, 2.1653496e+2, -821625.6, -914737.1, 4644.5674, 0.002311755, 0.000056972505, -821394.5, -3436.4048, 0.0, 10.046117, 9.923112 
7.819347e+3, 2.2645198e+2, -736099.25, -837357.56, 3837.1477, 0.0022993858, 0.00021079618, -735954.06, -15182.7705, 0.0, 10.044117, 9.910662 
7.8192556e+3, 2.3636244e+2, -641213.25, -741049.5, 3511.5432, 0.0022803268, -0.00033759107, -641089.9, -17440.982, 0.0, 10.041919, 9.910393 
7.819164e+3, 2.462674e+2, -555633.7, -662891.44, 2479.7476, 0.0023263716, 0.00024501033, -555576.4, -28996.26, 0.0, 10.039429, 9.898465 
7.819072e+3, 2.561669e+2, -461200.75, -566398.94, 2153.4265, 0.0024147541, 0.0012069711, -461156.7, -31591.596, 0.0, 10.036659, 9.898464 
7.8189784e+3, 2.6605886e+2, -375364.06, -486831.63, 1457.3892, 0.002288725, -0.00001082351, -375345.0, -42721.152, 0.0, 10.033602, 9.887459 
7.818885e+3, 2.7594364e+2, -281242.88, -389945.03, 1160.0243, 0.0020233397, -0.0044103777, -281230.5, -45477.156, 0.0, 10.030294, 9.88784 
7.818791e+3, 2.8582925e+2, -192523.61, -311100.44, 1265.1521, 0.0024100172, 0.0009955635, -192510.11, -53636.234, 0.0, 10.029926, 9.874827 
7.818699e+3, 2.9571638e+2, -95093.48, -218919.39, 1216.0287, 0.0031996067, 0.014481503, -95081.53, -53102.14, 0.0, 10.031467, 9.869603 
7.818605e+3, 3.055373e+2, -90924.055, -239709.78, 790.177, 0.0017404562, -0.017654818, -90919.86, -90919.86, 0.0, 10.021181, 9.82834 
7.818513e+3, 3.1538722e+2, 31947.514, 61785.504, -2944.845, 0.0011767194, 0.0022272526, 62073.367, 62073.367, 0.0, 10.0015335, 10.041289 
7.8303206e+3, 1.2710118e+2, -1634112.0, -1702135.3, 2480.7598, 0.0022653036, 0.000103152066, -1634021.6, 60387.39, 0.0, 10.0637665, 9.973053 
7.8302205e+3, 1.370741e+2, -1542035.8, -1608279.8, 2975.4773, 0.0022430026, -0.000047044006, -1541902.4, 54772.082, 0.0, 10.060657, 9.972348 
7.8301233e+3, 1.470412e+2, -1457093.8, -1529490.3, 5443.5063, 0.0022769952, 0.00025049696, -1456686.8, 42310.137, 0.0, 10.058271, 9.961847 
7.830029e+3, 1.57003e+2, -1362550.9, -1433961.5, 5748.062, 0.002263955, 0.000042985746, -1362091.1, 39280.035, 0.0, 10.056461, 9.961371 
7.829937e+3, 1.669584e+2, -1276914.6, -1356237.9, 7242.1113, 0.0022636757, 0.00008254693, -1276258.9, 27549.447, 0.0, 10.054988, 9.949549 
7.8298455e+3, 1.76908e+2, -1181192.4, -1259949.1, 7323.9067, 0.0022732792, -0.0000057475095, -1180517.1, 25785.156, 0.0, 10.053786, 9.949122 
7.829755e+3, 1.8685082e+2, -1095462.4, -1183212.6, 7903.5396, 0.0022942591, 0.00020857551, -1094756.1, 14106.619, 0.0, 10.05265, 9.936294 
7.829665e+3, 1.9678716e+2, -999286.44, -1086495.5, 7787.2915, 0.0022908438, 0.00011724918, -998596.56, 12889.882, 0.0, 10.051578, 9.935965 
7.829575e+3, 2.0671657e+2, -913509.8, -1009898.2, 7478.636, 0.002296723, 0.000098609926, -912933.0, 1245.3358, 0.0, 10.050347, 9.922864 
7.8294843e+3, 2.166393e+2, -817609.0, -913255.4, 7206.9653, 0.0023080497, -0.00029676588, -817069.0, -133.34209, 0.0, 10.048987, 9.9225235 
7.8293926e+3, 2.2655594e+2, -731878.3, -836230.56, 6173.68, 0.0023032532, 0.00036600858, -731514.3, -11761.783, 0.0, 10.047324, 9.909684 
7.8292996e+3, 2.3646617e+2, -636648.6, -739773.44, 5751.128, 0.002310408, 0.00075497857, -636328.9, -13696.582, 0.0, 10.045371, 9.909405 
7.8292054e+3, 2.4636883e+2, -550974.2, -661785.56, 4351.535, 0.0023291649, -0.00019784688, -550803.56, -25217.314, 0.0, 10.043036, 9.897302 
7.8291106e+3, 2.5626478e+2, -456536.22, -565404.2, 3824.0972, 0.0023423592, -0.0021614428, -456402.06, -27796.172, 0.0, 10.040327, 9.897219 
7.8290135e+3, 2.661588e+2, -371982.75, -487207.3, 2288.1145, 0.0023245024, 0.0011261646, -371937.3, -40292.83, 0.0, 10.03672, 9.885607 
7.8289163e+3, 2.76049e+2, -279190.72, -390722.5, 1666.9294, 0.0023002727, 0.0057140407, -279165.8, -44444.984, 0.0, 10.032416, 9.886236 
7.828822e+3, 2.8592387e+2, -188927.34, -308325.4, 3601.6624, 0.0023464912, -0.0018431343, -188818.8, -50871.98, 0.0, 10.03194, 9.875646 
7.828731e+3, 2.9578978e+2, -90898.89, -215686.97, 3133.225, 0.0024020765, -0.015595191, -90820.266, -49560.33, 0.0, 10.033817, 9.870564 
7.828627e+3, 3.056711e+2, -79895.8, -221263.03, 872.0646, 0.0026035341, 0.019551639, -79890.414, -79890.414, 0.0, 10.022909, 9.839311 
7.828517e+3, 3.1548905e+2, 32475.475, 60213.637, 5811.4165, 0.0036421549, -0.013977362, 61381.977, 61381.977, 0.0, 10.002483, 10.03918 
7.840384e+3, 1.2720704e+2, -1633790.4, -1700646.4, 1585.0664, 0.002241216, 0.00010550716, -1633752.9, 59618.734, 0.0, 10.063325, 9.974179 
7.840281e+3, 1.3718109e+2, -1541657.9, -1606773.4, 2112.2612, 0.0022354869, -0.000043196316, -1541589.4, 54036.56, 0.0, 10.06026, 9.973465 
7.8401816e+3, 1.4714915e+2, -1456946.5, -1528487.3, 5035.5737, 0.002271866, 0.00025499958, -1456593.8, 41345.266, 0.0, 10.05792, 9.962635 
7.840086e+3, 1.5711175e+2, -1362350.0, -1432948.5, 5355.3477, 0.0022559096, 0.000050940016, -1361946.0, 38359.555, 0.0, 10.056155, 9.962146 
7.8399915e+3, 1.6706769e+2, -1277010.9, -1355873.8, 7063.1167, 0.0022561075, 0.00007931249, -1276383.3, 26354.09, 0.0, 10.054726, 9.949899 
7.8398997e+3, 1.7701763e+2, -1181249.3, -1259596.8, 7146.9614, 0.0022697763, -0.000031133713, -1180602.6, 24625.363, 0.0, 10.053565, 9.949445 
7.839808e+3, 1.8696055e+2, -1095838.6, -1183566.8, 7774.7803, 0.0022910004, 0.00023257658, -1095154.9, 12632.481, 0.0, 10.052471, 9.936151 
7.8397167e+3, 1.9689682e+2, -999616.4, -1086856.9, 7653.7007, 0.0022899443, 0.00021699446, -998950.0, 11461.922, 0.0, 10.05144, 9.935793 
7.839625e+3, 2.068257e+2, -914107.6, -1010891.3, 7236.1206, 0.0022944317, 0.000049861963, -913569.6, -460.6784, 0.0, 10.050254, 9.922266 
7.839533e+3, 2.1674761e+2, -818150.25, -914245.25, 6955.8604, 0.0022991144, -0.0006095409, -817649.3, -1775.1404, 0.0, 10.048939, 9.921901 
7.8394395e+3, 2.2666378e+2, -732690.0, -837861.56, 5708.58, 0.0023110039, 0.00053226127, -732381.0, -13685.403, 0.0, 10.047313, 9.908626 
7.8393453e+3, 2.3657365e+2, -637423.94, -741426.06, 5293.1274, 0.0023393622, 0.0017711348, -637155.25, -15576.272, 0.0, 10.045397, 9.908307 
7.839249e+3, 2.464739e+2, -551795.4, -663715.8, 3632.5293, 0.0023239008, -0.000649604, -551677.6, -27121.053, 0.0, 10.043132, 9.895985 
7.8391504e+3, 2.5636628e+2, -457308.0, -567469.9, 3079.2434, 0.002229489, -0.0053778207, -457222.0, -29610.9, 0.0, 10.040519, 9.895758 
7.83905e+3, 2.66262e+2, -372653.5, -490166.03, 1061.4529, 0.0023619202, 0.0023917663, -372643.9, -42010.91, 0.0, 10.037369, 9.88333 
7.838949e+3, 2.7615693e+2, -278640.66, -392720.63, 766.6677, 0.002676111, 0.015667845, -278635.5, -44972.605, 0.0, 10.033732, 9.884256 
7.838854e+3, 2.8602058e+2, -190284.75, -308152.6, 4143.17, 0.0022331304, -0.0051691965, -190139.28, -53140.36, 0.0, 10.030673, 9.876373 
7.8387624e+3, 2.9586565e+2, -98430.09, -217426.69, 2488.472, 0.0012483887, -0.045684446, -98378.08, -57861.727, 0.0, 10.02786, 9.872283 
7.838651e+3, 3.0581465e+2, -67883.74, -192919.66, -6263.573, 0.0039337007, 0.059372704, -67570.76, -67570.76, 0.0, 10.021292, 9.858667 
7.8385186e+3, 3.1563452e+2, 18414.895, 9442.733, -953.25696, 0.0007148143, 0.0059991083, 18515.057, 18515.057, 0.0, 10.011543, 9.999563 
7.850446e+3, 1.2731715e+2, -1636270.4, -1700358.3, 3011.2793, 0.002247339, 0.00011280444, -1636129.1, 56163.508, 0.0, 10.060995, 9.975507 
7.8503406e+3, 1.372925e+2, -1543453.1, -1606119.1, 3725.9902, 0.002237828, -0.000043358723, -1543232.3, 51301.832, 0.0, 10.058359, 9.974784 
7.850239e+3, 1.4726168e+2, -1458164.3, -1527954.9, 7292.93, 0.0022776488, 0.00023958809, -1457410.4, 39425.992, 0.0, 10.056601, 9.963578 
7.8501415e+3, 1.5722522e+2, -1362512.3, -1431882.1, 7734.776, 0.0022673386, 0.00004332183, -1361660.3, 37533.32, 0.0, 10.055515, 9.963061 
7.850046e+3, 1.6718185e+2, -1276474.3, -1354962.6, 9762.751, 0.002266567, 0.00008641835, -1275278.1, 26340.434, 0.0, 10.05478, 9.950359 
7.849953e+3, 1.7713225e+2, -1179633.3, -1258152.5, 9930.093, 0.002271673, -0.000020901072, -1178396.9, 25707.857, 0.0, 10.054327, 9.949876 
7.849861e+3, 1.870753e+2, -1093538.0, -1182332.1, 10686.44, 0.0022952228, 0.00021204396, -1092269.9, 14392.778, 0.0, 10.053936, 9.936091 
7.849769e+3, 1.9701149e+2, -996287.3, -1085136.4, 10618.7295, 0.0022965576, 0.00017039446, -995035.8, 14252.253, 0.0, 10.053597, 9.935696 
7.8496766e+3, 2.0694007e+2, -910209.1, -1009466.2, 10134.731, 0.0022905318, 0.00006653533, -909184.9, 2803.3303, 0.0, 10.053045, 9.921661 
7.849584e+3, 2.1686147e+2, -813391.25, -912393.4, 9860.106, 0.0022911811, -0.00046439044, -812418.75, 2339.5957, 0.0, 10.052308, 9.921291 
7.849489e+3, 2.2677666e+2, -727532.9, -836309.2, 8381.057, 0.002333866, 0.0004748757, -726890.94, -9301.46, 0.0, 10.051164, 9.90759 
7.849392e+3, 2.3668519e+2, -631724.06, -739659.9, 7958.2813, 0.0023874782, 0.0013285746, -631140.44, -10654.453, 0.0, 10.0496435, 9.90723 
7.849294e+3, 2.4658467e+2, -545865.1, -662153.06, 5979.996, 0.0023055642, -0.00049794524, -545558.44, -22087.459, 0.0, 10.047667, 9.894642 
7.849193e+3, 2.564766e+2, -451319.2, -566058.6, 5375.9326, 0.0021169423, -0.0040579266, -451067.84, -24538.137, 0.0, 10.045183, 9.894275 
7.8490907e+3, 2.6636913e+2, -366386.06, -489415.53, 3112.511, 0.0024230215, 0.0020407645, -366307.34, -36724.38, 0.0, 10.042564, 9.88117 
7.8489864e+3, 2.762591e+2, -271463.94, -391509.8, 2548.946, 0.0030422148, 0.011872361, -271409.84, -38748.633, 0.0, 10.03954, 9.882118 
7.848885e+3, 2.8612435e+2, -190504.69, -310422.88, 3389.8354, 0.0021544064, -0.004442791, -190408.94, -54426.88, 0.0, 10.031369, 9.87443 
7.848784e+3, 2.9597583e+2, -110029.06, -222680.89, 1180.9335, 0.0003103159, -0.0348403, -110016.68, -70578.54, 0.0, 10.0197315, 9.872639 
7.8486717e+3, 3.059206e+2, -49333.406, -153561.94, -1209.9446, 0.00467862, 0.047190987, -49319.363, -49319.363, 0.0, 10.021043, 9.884804 
7.848544e+3, 3.157223e+2, 30524.115, -10611.461, 6410.1143, 0.0019006269, -0.05900613, 31499.854, 31499.854, 0.0, 10.031098, 9.976184 
7.8605074e+3, 1.2743038e+2, -1635787.5, -1698316.0, 2268.5178, 0.002223029, 0.00010583269, -1635705.3, 55477.7, 0.0, 10.06044, 9.9770355 
7.860399e+3, 1.3740727e+2, -1542840.8, -1604023.6, 3037.9412, 0.0022266922, -0.000040573264, -1542690.3, 50719.12, 0.0, 10.0578985, 9.976302 
7.860295e+3, 1.4737771e+2, -1457864.9, -1526536.3, 7146.092, 0.002267972, 0.0002288218, -1457129.1, 38569.87, 0.0, 10.056198, 9.964657 
7.860197e+3, 1.5734234e+2, -1362178.9, -1430484.4, 7604.373, 0.0022497564, 0.000037640155, -1361342.5, 36703.16, 0.0, 10.055156, 9.964108 
7.860101e+3, 1.6729979e+2, -1276481.8, -1354307.3, 9858.251, 0.0022588095, 0.00010010966, -1275252.4, 25210.486, 0.0, 10.054471, 9.950921 
7.860007e+3, 1.7725074e+2, -1179582.9, -1257506.1, 10030.201, 0.0022675004, 0.000003701546, -1178312.5, 24630.982, 0.0, 10.054074, 9.950404 
7.8599143e+3, 1.8719403e+2, -1093841.1, -1182462.4, 10830.088, 0.0022941963, 0.00019757023, -1092536.9, 12962.365, 0.0, 10.053726, 9.93611 
7.8598225e+3, 1.9713019e+2, -996554.25, -1085287.1, 10757.132, 0.002296221, 0.000098749995, -995268.8, 12856.102, 0.0, 10.053428, 9.9356785 
7.85973e+3, 2.0705853e+2, -910866.3, -1010458.7, 10133.19, 0.002284912, 0.000106969805, -909845.75, 981.40314, 0.0, 10.052905, 9.921089 
7.859636e+3, 2.1697952e+2, -814023.9, -913398.25, 9859.364, 0.0022778336, -0.00023356672, -813055.1, 546.3022, 0.0, 10.052192, 9.920695 
7.85954e+3, 2.2689363e+2, -728466.06, -837968.75, 8105.4653, 0.0023424632, 0.00038315562, -727869.3, -11426.227, 0.0, 10.051061, 9.90656 
7.859442e+3, 2.3680058e+2, -632661.3, -741368.3, 7717.8335, 0.0024213358, 0.00058047555, -632116.06, -12761.168, 0.0, 10.049554, 9.906155 
7.8593415e+3, 2.4669968e+2, -547211.2, -664448.9, 5393.8125, 0.002273608, -0.00019072504, -546963.56, -24619.62, 0.0, 10.047458, 9.893236 
7.8592384e+3, 2.565919e+2, -452991.5, -568646.56, 4861.735, 0.0020319498, -0.0016964191, -452787.47, -27386.969, 0.0, 10.044807, 9.892752 
7.8591335e+3, 2.6648e+2, -368465.84, -492743.1, 2760.5977, 0.0024836883, 0.0012114784, -368404.56, -39908.098, 0.0, 10.042135, 9.879173 
7.8590256e+3, 2.7636284e+2, -273609.7, -394979.97, 2344.1724, 0.003285515, 0.0046963384, -273564.44, -41919.88, 0.0, 10.039095, 9.880001 
7.858916e+3, 2.862333e+2, -191938.84, -313912.34, 788.62714, 0.002071668, -0.0022592403, -191933.75, -57018.99, 0.0, 10.031475, 9.871973 
7.858803e+3, 2.9609823e+2, -107798.62, -221136.6, -314.5711, -0.0003380775, -0.013145583, -107797.74, -69557.67, 0.0, 10.020948, 9.872965 
7.8586936e+3, 3.060169e+2, -29674.922, -114004.45, 192.82176, 0.0050634067, 0.018227099, -29674.48, -29674.48, 0.0, 10.021767, 9.91103 
7.858576e+3, 3.1593847e+2, -2732.275, -76644.79, -235.7051, 0.0033366894, 0.031715814, -2731.5232, -2731.5232, 0.0, 10.029723, 9.932236 
7.8705657e+3, 1.2754717e+2, -1640188.1, -1698528.3, 3535.741, 0.0022545808, 0.0000767894, -1639974.6, 50063.582, 0.0, 10.056673, 9.978834 
7.870455e+3, 1.375259e+2, -1546111.9, -1603653.6, 4513.562, 0.002222216, -0.000023838758, -1545760.0, 46486.89, 0.0, 10.054848, 9.978067 
7.8703505e+3, 1.4749785e+2, -1460247.3, -1526255.5, 9332.505, 0.002260186, 0.00023443262, -1458953.1, 35568.637, 0.0, 10.053985, 9.965927 
7.8702515e+3, 1.5746371e+2, -1363184.6, -1429499.6, 9938.081, 0.002246642, 0.00002085986, -1361727.4, 35128.977, 0.0, 10.0538225, 9.965348 
7.870155e+3, 1.6742213e+2, -1276538.3, -1353375.6, 12565.928, 0.0022513003, 0.00009174226, -1274535.4, 24728.377, 0.0, 10.054006, 9.951676 
7.8700614e+3, 1.7737389e+2, -1178328.6, -1255910.3, 12877.477, 0.0022650212, 0.00004492682, -1176247.0, 25489.598, 0.0, 10.054461, 9.951137 
7.869969e+3, 1.8731758e+2, -1091691.6, -1181008.3, 13866.798, 0.0022939749, 0.00017788452, -1089588.3, 14700.197, 0.0, 10.05497, 9.936311 
7.869877e+3, 1.9725388e+2, -993159.6, -1083220.6, 13928.811, 0.0023027197, 0.00000235591, -991054.56, 15858.243, 0.0, 10.055499, 9.935851 
7.869784e+3, 2.0718221e+2, -906688.0, -1008643.44, 13295.464, 0.0023077508, 0.00016901568, -904982.7, 4632.328, 0.0, 10.055782, 9.920693 
7.86969e+3, 2.1710302e+2, -808692.25, -911010.06, 13132.631, 0.0023130905, 0.00007225866, -807033.56, 5357.636, 0.0, 10.055841, 9.920287 
7.8695935e+3, 2.2701609e+2, -722495.8, -835766.7, 11166.946, 0.002322519, 0.00020219038, -721405.4, -6162.408, 0.0, 10.055353, 9.905713 
7.869494e+3, 2.3692153e+2, -625929.9, -738778.2, 10838.748, 0.0023262603, -0.00041702876, -624898.25, -6728.6006, 0.0, 10.054361, 9.90532 
7.8693914e+3, 2.4682078e+2, -540546.3, -662371.1, 8057.4194, 0.002336671, 0.00027252745, -540015.7, -18858.498, 0.0, 10.05242, 9.891996 
7.869286e+3, 2.5671387e+2, -446335.2, -566232.8, 7645.461, 0.0023683046, 0.0013796446, -445849.63, -21644.654, 0.0, 10.049629, 9.891822 
7.8691775e+3, 2.6659834e+2, -360959.03, -488140.22, 5903.547, 0.0023343682, -0.00018885816, -360685.56, -33348.64, 0.0, 10.04676, 9.87976 
7.8690666e+3, 2.7647513e+2, -266839.66, -390958.2, 5930.3564, 0.0022739887, -0.004851086, -266556.94, -36012.78, 0.0, 10.043324, 9.880403 
7.86895e+3, 2.863564e+2, -186404.8, -311340.6, 2682.1582, 0.0024327023, 0.0015751779, -186347.23, -52638.67, 0.0, 10.035157, 9.871642 
7.868828e+3, 2.9624143e+2, -104116.07, -221216.47, 2886.9783, 0.0026102648, 0.0160869, -104044.94, -67208.61, 0.0, 10.024148, 9.871125 
7.868713e+3, 3.060963e+2, -36922.664, -134509.03, 1235.224, 0.0015783575, -0.01999865, -36907.03, -36907.03, 0.0, 10.024148, 9.896235 
7.868604e+3, 3.1599197e+2, 13410.612, -44608.887, -9886.139, 0.0007087645, -0.022822563, 15048.886, 15048.886, 0.0, 10.030576, 9.95403 
7.880622e+3, 1.2766665e+2, -1639414.5, -1695797.9, 3080.8792, 0.0022164793, 0.000059214803, -1639246.6, 49620.746, 0.0, 10.056061, 9.9808235 
7.8805095e+3, 1.3764738e+2, -1545248.0, -1600913.4, 4119.126, 0.0022064745, -0.00001415953, -1544944.9, 46111.586, 0.0, 10.0543165, 9.980028 
7.8804046e+3, 1.4762099e+2, -1459760.0, -1524319.0, 9510.071, 0.002253899, 0.00023381042, -1458388.3, 34926.74, 0.0, 10.053518, 9.967369 
7.880305e+3, 1.5758829e+2, -1362641.0, -1427572.4, 10133.984, 0.00223825, 0.0000081501885, -1361096.1, 34539.336, 0.0, 10.053414, 9.96676 
7.880209e+3, 1.6754787e+2, -1276330.9, -1352185.5, 12978.455, 0.002235228, 0.0000824223, -1274171.8, 23859.86, 0.0, 10.05365, 9.952605 
7.880116e+3, 1.7750058e+2, -1178068.4, -1254721.9, 13294.473, 0.0022576991, 0.000075273776, -1175828.1, 24667.002, 0.0, 10.054154, 9.952042 
7.880024e+3, 1.8744485e+2, -1091774.5, -1180593.3, 14306.696, 0.002285032, 0.00016111447, -1089526.9, 13514.23, 0.0, 10.054717, 9.936701 
7.8799325e+3, 1.9738148e+2, -993192.2, -1082830.8, 14360.376, 0.002289825, -0.00008205375, -990947.8, 14714.398, 0.0, 10.055302, 9.936197 
7.87984e+3, 2.0730999e+2, -907119.7, -1009132.44, 13555.454, 0.002317298, 0.00024335195, -905349.1, 3013.6438, 0.0, 10.055623, 9.920457 
7.879746e+3, 2.172307e+2, -809085.3, -911502.25, 13383.426, 0.0023493895, 0.0003322003, -807365.3, 3774.445, 0.0, 10.055716, 9.92003 
7.879648e+3, 2.271429e+2, -723311.5, -837082.25, 11000.8125, 0.0022955057, 0.000019014276, -722257.56, -8257.245, 0.0, 10.055206, 9.904932 
7.879548e+3, 2.37047e+2, -626776.0, -740080.44, 10608.905, 0.002212973, -0.001281027, -625791.25, -8851.145, 0.0, 10.054176, 9.904561 
7.879444e+3, 2.4694636e+2, -541651.56, -664329.7, 7147.1973, 0.0024190047, 0.00077998464, -541236.56, -21310.252, 0.0, 10.05227, 9.890783 
7.879335e+3, 2.568401e+2, -447020.75, -567523.8, 6754.267, 0.0027360215, 0.0041867536, -446643.34, -23675.936, 0.0, 10.049556, 9.890999 
7.879224e+3, 2.667213e+2, -361828.78, -487512.84, 4290.876, 0.0020936308, -0.001691299, -361682.44, -35550.695, 0.0, 10.045672, 9.880681 
7.879108e+3, 2.7659303e+2, -269940.97, -391616.66, 3477.851, 0.0010564567, -0.013870719, -269841.63, -40452.277, 0.0, 10.040799, 9.881188 
7.8789854e+3, 2.8648546e+2, -184680.17, -310235.28, -1964.7506, 0.002897388, 0.005871238, -184649.42, -52206.082, 0.0, 10.036089, 9.871887 
7.8788567e+3, 2.9639003e+2, -96277.38, -221031.16, -944.5771, 0.006120976, 0.044501383, -96270.234, -60891.152, 0.0, 10.03093, 9.86796 
7.8787345e+3, 3.0617476e+2, -52842.484, -170486.23, 3560.1887, -0.0027663605, -0.059946287, -52734.84, -52734.84, 0.0, 10.025383, 9.871687 
7.8786373e+3, 3.1612307e+2, 27531.66, 10235.239, -2533.1738, 0.0059658694, 0.02866319, 27895.027, 27895.027, 0.0, 10.0197525, 9.996736 
7.890675e+3, 1.2778871e+2, -1646039.4, -1696723.8, 3939.62, 0.0021858255, 0.00011359138, -1645735.0, 41936.11, 0.0, 10.050698, 9.983056 
7.890562e+3, 1.3777159e+2, -1550104.9, -1600912.4, 5219.697, 0.002228385, -0.00004008063, -1549574.3, 40264.746, 0.0, 10.050062, 9.982227 
7.8904563e+3, 1.4774711e+2, -1463374.5, -1524260.4, 11330.721, 0.0022647544, 0.00019577185, -1461334.3, 30744.6, 0.0, 10.05034, 9.969035 
7.8903574e+3, 1.5771614e+2, -1364688.0, -1426698.9, 12132.533, 0.0022661258, 0.00003606763, -1362398.8, 31983.725, 0.0, 10.051231, 9.968402 
7.890262e+3, 1.676771e+2, -1277209.6, -1351173.8, 15380.43, 0.0022685071, 0.000079041645, -1274138.9, 22626.11, 0.0, 10.052437, 9.953824 
7.89017e+3, 1.7763099e+2, -1177537.5, -1253010.0, 15926.095, 0.002286992, 0.00003719926, -1174314.5, 24902.479, 0.0, 10.053863, 9.953219 
7.890079e+3, 1.8757625e+2, -1090147.6, -1178805.0, 17222.45, 0.002295908, 0.00016295169, -1086919.5, 14833.881, 0.0, 10.055362, 9.93744 
7.889989e+3, 1.9751364e+2, -990126.9, -1080341.1, 17525.139, 0.0022630834, -0.000028840888, -986842.06, 17524.91, 0.0, 10.056905, 9.936894 
7.8898966e+3, 2.0744245e+2, -903029.44, -1006765.75, 16850.186, 0.0023015602, 0.00016351682, -900361.06, 6703.687, 0.0, 10.058188, 9.920582 
7.889803e+3, 2.1736313e+2, -803532.3, -908428.06, 16922.715, 0.0023611125, 0.00006136342, -800869.8, 8972.241, 0.0, 10.059269, 9.920116 
7.889706e+3, 2.2727536e+2, -717037.4, -834512.25, 14349.697, 0.0023131794, 0.00018951343, -715309.94, -2607.8342, 0.0, 10.059618, 9.904262 
7.889605e+3, 2.3717937e+2, -619307.6, -736875.5, 14109.348, 0.0022199682, -0.00039967278, -617638.06, -1995.1937, 0.0, 10.059381, 9.903923 
7.889499e+3, 2.4707678e+2, -533670.7, -661530.9, 10120.928, 0.002410231, 0.00036083875, -532874.5, -14226.24, 0.0, 10.058089, 9.889572 
7.889388e+3, 2.569677e+2, -438525.63, -564483.2, 9592.652, 0.0027106258, 0.0017439382, -437799.25, -16082.142, 0.0, 10.055737, 9.889792 
7.8892714e+3, 2.6685056e+2, -355899.75, -486030.6, 5263.3647, 0.0021655147, -0.00045846205, -355687.2, -30822.021, 0.0, 10.050211, 9.87927 
7.889149e+3, 2.7672577e+2, -267973.44, -391790.63, 4283.8237, 0.0012541082, -0.006565496, -267825.4, -39737.04, 0.0, 10.042559, 9.880093 
7.8890246e+3, 2.866095e+2, -174600.77, -304422.75, 1189.5479, 0.0027849025, 0.0025327958, -174589.86, -43362.457, 0.0, 10.042567, 9.872504 
7.8888965e+3, 2.9649958e+2, -75531.53, -212828.64, 1065.7096, 0.0055658924, 0.022704868, -75523.26, -41219.637, 0.0, 10.045864, 9.86611 
7.888762e+3, 3.0631492e+2, -59131.46, -190987.45, -834.8583, -0.002115806, -0.031716805, -59126.176, -59126.176, 0.0, 10.028266, 9.856474 
7.8886414e+3, 3.1622025e+2, 12032.086, 27293.357, 7.193227, 0.004405893, 0.019280355, 27293.361, 27293.361, 0.0, 9.998403, 10.018578 
7.900726e+3, 1.2791236e+2, -1645125.6, -1693343.5, 3864.68, 0.0021476403, 0.000114228766, -1644817.9, 41641.56, 0.0, 10.04992, 9.985544 
7.900612e+3, 1.3789767e+2, -1549026.0, -1597517.9, 5257.411, 0.0022304675, -0.00007560965, -1548462.5, 40140.703, 0.0, 10.049431, 9.984656 
7.900506e+3, 1.4787532e+2, -1462655.4, -1521708.5, 11884.902, 0.0022345998, 0.00014969341, -1460353.1, 30469.197, 0.0, 10.049805, 9.970905 
7.900408e+3, 1.5784624e+2, -1363877.5, -1424136.5, 12694.523, 0.0022473964, 0.000040621795, -1361312.4, 31795.027, 0.0, 10.050777, 9.970245 
7.9003143e+3, 1.6780886e+2, -1276595.0, -1349096.4, 16119.838, 0.0022668906, 0.00006110619, -1273172.5, 22301.264, 0.0, 10.052044, 9.955338 
7.9002243e+3, 1.7776422e+2, -1176858.1, -1250961.1, 16671.078, 0.0022831562, -0.000016506827, -1173280.4, 24630.904, 0.0, 10.053545, 9.954683 
7.9001343e+3, 1.8771079e+2, -1089732.6, -1177331.4, 18003.008, 0.0022927346, 0.00017878541, -1086177.1, 14257.857, 0.0, 10.0550785, 9.938524 
7.9000455e+3, 1.976493e+2, -989701.3, -1078900.6, 18293.58, 0.0022422695, 0.000040538784, -986095.3, 16942.139, 0.0, 10.056649, 9.937948 
7.899955e+3, 2.0757875e+2, -902953.3, -1006143.6, 17470.043, 0.0022919783, 0.00007900614, -900075.9, 5653.079, 0.0, 10.057991, 9.921083 
7.8998625e+3, 2.1749976e+2, -803395.6, -907869.2, 17517.273, 0.0023539525, -0.00022157782, -800536.75, 7966.32, 0.0, 10.0591545, 9.920537 
7.8997654e+3, 2.2741239e+2, -717362.3, -835151.6, 14472.877, 0.002320052, 0.00042538985, -715610.06, -4250.7344, 0.0, 10.059613, 9.903847 
7.8996646e+3, 2.3731658e+2, -619445.1, -737411.4, 14205.138, 0.0022388108, 0.0005938376, -617758.75, -3460.5474, 0.0, 10.059494, 9.903515 
7.8995574e+3, 2.4721192e+2, -534230.7, -663154.0, 9377.469, 0.0023468493, -0.00025931792, -533552.2, -16228.272, 0.0, 10.058279, 9.888408 
7.899444e+3, 2.5709966e+2, -439015.4, -566153.2, 8528.864, 0.0025453563, -0.0013458182, -438445.8, -18022.0, 0.0, 10.055998, 9.888556 
7.8993225e+3, 2.6698476e+2, -355381.0, -488243.66, 2196.7874, 0.002315389, 0.0013954535, -355344.7, -31794.969, 0.0, 10.051538, 9.877134 
7.899193e+3, 2.768644e+2, -264922.03, -392290.1, 1669.513, 0.0018399511, 0.003277537, -264900.16, -38170.395, 0.0, 10.045418, 9.878356 
7.899067e+3, 2.8673518e+2, -174876.81, -304479.47, 635.98755, 0.0024314777, -0.0027588906, -174873.7, -44878.695, 0.0, 10.042378, 9.872623 
7.89894e+3, 2.966046e+2, -85401.36, -220252.27, -2293.866, 0.0037902757, -0.008200418, -85362.35, -52089.496, 0.0, 10.040216, 9.86398 
7.8987914e+3, 3.06474e+2, -67964.42, -207688.58, -9946.064, 0.0003574168, 0.012756786, -67259.98, -67259.98, 0.0, 10.027153, 9.845762 
7.898637e+3, 3.1632355e+2, 33325.418, 50271.035, 3281.6243, -0.0014530622, 0.0061913626, 50884.344, 50884.344, 0.0, 10.007465, 10.029826 
7.9107726e+3, 1.2803666e+2, -1653693.6, -1694691.8, 4077.8284, 0.0022873809, -0.000017359675, -1653291.9, 31949.137, 0.0, 10.043081, 9.988351 
7.910658e+3, 1.3802496e+2, -1555362.1, -1597766.8, 5673.6226, 0.0022271422, 0.000007101068, -1554616.1, 32739.697, 0.0, 10.04402, 9.987363 
7.910554e+3, 1.4800493e+2, -1467506.9, -1521873.8, 12882.134, 0.0021610274, 0.00020503742, -1464609.0, 24943.14, 0.0, 10.04566, 9.972987 
7.910457e+3, 1.5797786e+2, -1367102.8, -1423455.1, 13871.18, 0.0021834413, 0.000031251784, -1363873.4, 27944.107, 0.0, 10.04766, 9.9723015 
7.9103655e+3, 1.6794248e+2, -1278500.5, -1347858.8, 17709.111, 0.0022026359, 0.00007802259, -1274240.5, 19923.764, 0.0, 10.049833, 9.957257 
7.9102767e+3, 1.7789978e+2, -1177470.3, -1249080.4, 18560.607, 0.0021990058, 0.000034985376, -1172945.4, 23637.363, 0.0, 10.052177, 9.956562 
7.910189e+3, 1.8784812e+2, -1089177.9, -1175056.9, 20333.305, 0.0022886312, 0.00023889283, -1084606.9, 14482.193, 0.0, 10.054569, 9.9402 
7.9101026e+3, 1.9778831e+2, -987775.3, -1075939.5, 21064.93, 0.0023805301, 0.00011690173, -983000.9, 18674.246, 0.0, 10.057047, 9.939591 
7.910014e+3, 2.0771915e+2, -899735.5, -1002998.8, 20655.309, 0.0023542584, 0.00014579548, -895757.2, 8595.736, 0.0, 10.059455, 9.922293 
7.9099226e+3, 2.1764135e+2, -798407.3, -903868.3, 21196.273, 0.0022768865, -0.00014998869, -794306.6, 12808.684, 0.0, 10.061817, 9.921694 
7.909827e+3, 2.2755441e+2, -711119.75, -831583.56, 18300.074, 0.0023685468, 0.00023076791, -708401.06, 1566.1539, 0.0, 10.063576, 9.904051 
7.909727e+3, 2.3745862e+2, -611227.0, -732917.6, 18516.676, 0.0025233505, 0.00016827746, -608471.8, 4434.1265, 0.0, 10.06482, 9.903647 
7.9096186e+3, 2.4735373e+2, -525207.75, -659680.4, 13223.559, 0.002277533, -0.00031027026, -523919.75, -7985.809, 0.0, 10.06475, 9.887294 
7.9095036e+3, 2.5724074e+2, -428742.13, -562527.0, 12582.095, 0.0019084878, -0.00086578756, -427569.1, -8528.012, 0.0, 10.063533, 9.887042 
7.909379e+3, 2.671224e+2, -344128.4, -486707.56, 4979.275, 0.002624362, 0.0009984868, -343954.75, -21753.654, 0.0, 10.060809, 9.87341 
7.909246e+3, 2.769972e+2, -251594.0, -390196.38, 3873.942, 0.003663334, 0.0015816003, -251485.8, -26058.188, 0.0, 10.056307, 9.874267 
7.9091114e+3, 2.8686503e+2, -170724.83, -309045.88, 128.48622, 0.0016878083, -0.0017652164, -170724.7, -42001.6, 0.0, 10.047927, 9.866792 
7.9089725e+3, 2.9673254e+2, -91580.63, -224435.66, -4877.921, -0.0010848923, -0.0028918665, -91401.77, -59380.313, 0.0, 10.036387, 9.862976 
7.9088235e+3, 3.066055e+2, -47808.703, -167852.48, -6025.1143, 0.0068065724, 0.0048013786, -47507.055, -47507.055, 0.0, 10.027918, 9.871356 
7.9086596e+3, 3.1645134e+2, 26607.537, 7699.259, 17060.787, 0.0063964324, -0.03298315, 36658.555, 36658.555, 0.0, 10.019735, 9.993825 
7.9208153e+3, 1.2816113e+2, -1652521.5, -1690686.1, 4580.177, 0.0022571804, -0.00011471648, -1651979.5, 32041.629, 0.0, 10.042256, 9.991264 
7.920702e+3, 1.3815242e+2, -1553955.9, -1593751.1, 6221.884, 0.0022181966, 0.000039597424, -1553005.8, 33100.79, 0.0, 10.043406, 9.990186 
7.9205996e+3, 1.4813492e+2, -1466458.3, -1518613.1, 13765.035, 0.002118587, 0.00020642014, -1463048.3, 25230.018, 0.0, 10.045098, 9.975326 
7.920505e+3, 1.5811014e+2, -1366031.6, -1420226.3, 14778.29, 0.0021501526, -0.000011651787, -1362263.8, 28257.377, 0.0, 10.047139, 9.974608 
7.920415e+3, 1.6807707e+2, -1277384.5, -1344591.5, 18733.094, 0.0021600018, 0.00007469851, -1272515.6, 20329.559, 0.0, 10.049347, 9.959577 
7.9203284e+3, 1.7803673e+2, -1176320.5, -1245826.0, 19552.225, 0.002147939, 0.000077793724, -1171198.0, 24042.701, 0.0, 10.051734, 9.958863 
7.920244e+3, 1.8798731e+2, -1087924.8, -1171770.1, 21385.666, 0.0022804025, 0.00025392039, -1082785.1, 14939.758, 0.0, 10.054214, 9.94248 
7.9201597e+3, 1.9792977e+2, -986425.06, -1072669.1, 22107.734, 0.002447714, 0.0000957726, -981088.2, 19200.73, 0.0, 10.056791, 9.941822 
7.920073e+3, 2.0786269e+2, -898640.3, -1000229.56, 21675.059, 0.0023647745, 0.00019458303, -894209.0, 8737.2, 0.0, 10.05921, 9.924203 
7.919985e+3, 2.1778686e+2, -797368.2, -901189.8, 22220.555, 0.0022202013, 0.000009645364, -792812.3, 12876.928, 0.0, 10.061569, 9.923557 
7.919891e+3, 2.27701e+2, -710569.0, -830193.3, 19005.992, 0.0024049934, -0.000019229707, -707621.94, 908.76605, 0.0, 10.063464, 9.9050045 
7.919792e+3, 2.376058e+2, -610489.75, -731584.6, 19283.012, 0.0027381054, -0.00048638377, -607493.3, 3970.1943, 0.0, 10.064903, 9.9044695 
7.9196835e+3, 2.475017e+2, -525397.75, -660562.56, 13141.978, 0.0021977033, 0.000012144661, -524131.84, -9648.002, 0.0, 10.064956, 9.886595 
7.9195666e+3, 2.5738895e+2, -429079.16, -564039.75, 12600.38, 0.0013706528, 0.00062019203, -427912.8, -10323.96, 0.0, 10.063883, 9.885858 
7.9194397e+3, 2.6726586e+2, -345785.34, -491729.6, 4267.246, 0.0028201283, -0.00013788513, -345660.7, -24865.725, 0.0, 10.0614605, 9.869756 
7.919304e+3, 2.7713394e+2, -253230.13, -395861.97, 3496.612, 0.0051064407, -0.0032637261, -253144.45, -29057.014, 0.0, 10.057232, 9.870012 
7.919159e+3, 2.8700247e+2, -175588.22, -319142.47, -1508.5896, 0.0010053294, 0.0013178395, -175572.38, -48195.26, 0.0, 10.047777, 9.860041 
7.919005e+3, 2.9687372e+2, -94226.42, -226620.44, -4943.8745, -0.005143037, 0.012565111, -94042.06, -63401.156, 0.0, 10.03481, 9.862068 
7.918856e+3, 3.0673283e+2, -24856.29, -120575.36, -9750.845, 0.01275168, -0.020081501, -23873.076, -23873.076, 0.0, 10.028082, 9.902816 
7.9186815e+3, 3.166909e+2, -13107.115, -81337.95, 4510.5205, 0.008477989, 0.051388137, -12810.231, -12810.231, 0.0, 10.022204, 9.932095 
7.930853e+3, 1.2828448e+2, -1662629.3, -1692851.4, 3819.9644, 0.0018695093, 0.00023093693, -1662153.9, 20658.174, 0.0, 10.03449, 9.994131 
7.930742e+3, 1.3827826e+2, -1561195.0, -1594377.5, 5506.995, 0.0022703859, -0.00008139241, -1560305.0, 24568.17, 0.0, 10.037405, 9.99304 
7.9306424e+3, 1.4826345e+2, -1471971.4, -1518565.6, 13268.969, 0.0022590293, 0.00006787854, -1468457.6, 18560.754, 0.0, 10.040283, 9.977952 
7.9305506e+3, 1.5824139e+2, -1370448.5, -1419641.0, 14461.554, 0.002377579, -0.0000053000986, -1366512.1, 22722.615, 0.0, 10.043026, 9.977184 
7.9304624e+3, 1.6821094e+2, -1280656.4, -1343207.3, 18784.766, 0.002417306, 0.000033644417, -1275448.6, 16084.767, 0.0, 10.045872, 9.962304 
7.930379e+3, 1.7817324e+2, -1178732.3, -1243960.8, 19960.303, 0.0024054127, -0.00004255273, -1173109.0, 20793.879, 0.0, 10.048792, 9.961604 
7.9302967e+3, 1.881266e+2, -1089079.5, -1168891.3, 22383.688, 0.002261137, -0.00001673576, -1083230.5, 13129.583, 0.0, 10.051926, 9.945509 
7.9302156e+3, 1.9807194e+2, -986448.5, -1069162.6, 23638.482, 0.0021009673, -0.00030897505, -980169.6, 18725.96, 0.0, 10.055224, 9.944873 
7.9301316e+3, 2.080082e+2, -897339.5, -995963.56, 23943.578, 0.002224479, 0.0001199093, -891833.94, 9686.387, 0.0, 10.058484, 9.927289 
7.930047e+3, 2.1793589e+2, -794551.7, -896088.5, 25354.916, 0.002495103, 0.0004894363, -788572.4, 15656.596, 0.0, 10.06183, 9.926673 
7.929955e+3, 2.2785258e+2, -705943.06, -824558.7, 23020.006, 0.0023364748, 0.0000228277, -701632.2, 5412.906, 0.0, 10.065106, 9.907731 
7.929858e+3, 2.3775955e+2, -603384.6, -724902.56, 24395.148, 0.0020675936, -0.0011204549, -598670.1, 11286.603, 0.0, 10.06831, 9.906987 
7.929751e+3, 2.476589e+2, -516684.63, -654868.06, 18527.58, 0.002367906, 0.0016269688, -514243.56, -1300.2382, 0.0, 10.070216, 9.887501 
7.929635e+3, 2.575494e+2, -417323.25, -556502.1, 19195.176, 0.0028286215, 0.005110545, -414724.44, 1291.843, 0.0, 10.071078, 9.887013 
7.929506e+3, 2.6742104e+2, -332042.63, -484379.03, 11203.4, 0.0020692043, -0.0030627986, -331223.1, -11948.937, 0.0, 10.070469, 9.869823 
7.929363e+3, 2.7728105e+2, -237383.77, -387252.06, 11264.519, 0.0010871398, -0.016248312, -236541.81, -13895.852, 0.0, 10.067579, 9.870237 
7.9292125e+3, 2.871677e+2, -163738.1, -311882.1, 4153.5938, 0.0036453386, 0.0100568235, -163621.72, -37862.84, 0.0, 10.054952, 9.860748 
7.9290503e+3, 2.9706457e+2, -92009.125, -226789.6, 4035.7317, 0.007273114, 0.05259902, -91888.39, -63116.55, 0.0, 10.036631, 9.860413 
7.9288685e+3, 3.0684072e+2, -28860.426, -134852.27, -4657.5225, -0.007118528, -0.07347151, -28656.156, -28656.156, 0.0, 10.030557, 9.891814 
7.9286927e+3, 3.1677842e+2, 5473.362, -50230.19, -7379.2593, -0.0080326935, -0.017294213, 6434.3413, 6434.3413, 0.0, 10.02518, 9.95181 
7.940887e+3, 1.2840544e+2, -1661740.0, -1688811.8, 4778.368, 0.0017502474, 0.00036375728, -1660921.3, 20705.148, 0.0, 10.033424, 9.997214 
7.9407793e+3, 1.3840207e+2, -1560391.9, -1590497.8, 6774.0435, 0.0022951527, -0.0002202628, -1558937.9, 24721.82, 0.0, 10.036348, 9.996026 
7.940682e+3, 1.483901e+2, -1470943.5, -1514774.1, 14496.78, 0.0022545524, -0.00007619117, -1466582.6, 19194.482, 0.0, 10.039466, 9.980763 
7.9405934e+3, 1.5837093e+2, -1368960.1, -1415671.5, 15626.252, 0.0024285417, -0.00003655464, -1364214.8, 23750.521, 0.0, 10.042539, 9.979949 
7.940509e+3, 1.683434e+2, -1278500.1, -1338381.3, 19945.99, 0.0024935768, -0.000019178608, -1272464.6, 17770.61, 0.0, 10.0455885, 9.9655075 
7.9404277e+3, 1.7830886e+2, -1176382.1, -1239027.0, 21054.502, 0.0024643366, -0.00015500876, -1169963.5, 22610.322, 0.0, 10.048643, 9.964827 
7.9403484e+3, 1.8826565e+2, -1086781.5, -1163293.4, 23588.195, 0.0021950912, -0.00019895412, -1080093.9, 14903.301, 0.0, 10.051447, 9.949329 
7.9402703e+3, 1.982148e+2, -984827.56, -1063882.3, 24880.229, 0.0018927203, -0.00052713003, -977649.06, 19846.564, 0.0, 10.054307, 9.948735 
7.94019e+3, 2.0815526e+2, -895295.5, -989958.25, 25386.771, 0.0021893608, 0.00005571552, -888917.06, 11162.069, 0.0, 10.057635, 9.931582 
7.940108e+3, 2.1808745e+2, -792178.6, -889946.7, 26924.063, 0.0026987882, 0.0007238641, -785254.44, 17489.102, 0.0, 10.061228, 9.930948 
7.94002e+3, 2.2800812e+2, -703529.8, -818523.3, 24537.178, 0.0022084757, -0.000043332147, -698513.0, 7007.851, 0.0, 10.064608, 9.911885 
7.939926e+3, 2.3791881e+2, -600992.9, -719146.44, 25846.36, 0.001397108, -0.0016941524, -595586.3, 12809.689, 0.0, 10.067931, 9.910925 
7.9398215e+3, 2.4782263e+2, -514934.78, -651137.8, 19265.266, 0.0026375444, 0.0027656448, -512262.25, -923.7093, 0.0, 10.070149, 9.889951 
7.9397076e+3, 2.5771743e+2, -415013.28, -552220.94, 20127.396, 0.0044475137, 0.008498291, -412121.7, 2247.8027, 0.0, 10.071284, 9.889701 
7.9395753e+3, 2.675863e+2, -332177.47, -482702.2, 10583.697, 0.0009402039, -0.005820177, -331436.94, -13782.24, 0.0, 10.069581, 9.871307 
7.9394263e+3, 2.77441e+2, -239051.61, -385815.6, 9667.735, -0.0038668155, -0.02737129, -238417.52, -17339.143, 0.0, 10.0653925, 9.872183 
7.93927e+3, 2.8734598e+2, -161514.56, -308156.47, -2599.6213, 0.0069341445, 0.018750114, -161468.48, -37456.42, 0.0, 10.055028, 9.863016 
7.9390997e+3, 2.972669e+2, -88496.516, -228259.95, -1671.8402, 0.021959571, 0.08888359, -88476.52, -61687.074, 0.0, 10.040141, 9.85765 
7.938879e+3, 3.0695778e+2, -43938.13, -163927.45, -3171.5684, -0.030958258, -0.12904112, -43854.355, -43854.355, 0.0, 10.029483, 9.872801 
7.9387224e+3, 3.169731e+2, 22836.707, 7328.7866, -11427.469, -0.00092682417, 0.041158326, 28892.56, 28892.56, 0.0, 10.015505, 9.995324 
7.950918e+3, 1.2852067e+2, -1670778.6, -1689428.6, 2529.1458, 0.0031411725, -0.0005495129, -1670441.8, 10055.877, 0.0, 10.025884, 10.0009775 
7.9508126e+3, 1.3852185e+2, -1567553.6, -1590530.8, 4621.269, 0.0022875587, -0.000095615476, -1566659.0, 15826.762, 0.0, 10.030154, 9.999414 
7.9507184e+3, 1.4851287e+2, -1477108.9, -1515063.4, 12192.292, 0.00164904, 0.00011742122, -1473529.8, 11044.183, 0.0, 10.034241, 9.983462 
7.9506326e+3, 1.5849625e+2, -1374283.3, -1415497.5, 13326.713, 0.001567942, 0.000020007943, -1370349.5, 16387.246, 0.0, 10.037821, 9.982655 
7.9505515e+3, 1.6847192e+2, -1282665.3, -1336855.5, 17745.816, 0.0016602194, 0.00029372404, -1277371.3, 11604.196, 0.0, 10.041259, 9.968841 
7.9504734e+3, 1.78441e+2, -1180074.4, -1237074.0, 18934.416, 0.00173129, 0.000541415, -1174357.9, 16920.787, 0.0, 10.044524, 9.9683075 
7.950398e+3, 1.8840219e+2, -1089867.8, -1159617.4, 21752.98, 0.0023055086, 0.0008275641, -1083639.8, 10019.505, 0.0, 10.047076, 9.954004 
7.9503226e+3, 1.9835627e+2, -988237.06, -1060177.5, 23704.035, 0.0030381172, 0.00082082953, -981129.0, 14980.327, 0.0, 10.0496435, 9.95357 
7.950246e+3, 2.0830151e+2, -897292.0, -983989.06, 25448.379, 0.0028652826, 0.0004823815, -890374.06, 8271.517, 0.0, 10.05322, 9.937713 
7.9501677e+3, 2.1823879e+2, -793588.5, -883843.8, 28037.838, 0.0024417676, -0.00010821215, -785587.75, 15672.039, 0.0, 10.0572815, 9.936912 
7.950083e+3, 2.2816558e+2, -703355.94, -811148.5, 27069.775, 0.002219561, -0.0007913756, -696939.9, 7036.9126, 0.0, 10.061532, 9.918195 
7.949993e+3, 2.38083e+2, -599001.75, -710622.1, 30070.414, 0.0021677602, -0.0019355348, -591416.3, 15369.523, 0.0, 10.065993, 9.917388 
7.949892e+3, 2.4799038e+2, -510164.9, -641337.06, 25271.727, 0.003354803, -0.0009366251, -505464.47, 4228.9297, 0.0, 10.070142, 9.896177 
7.949781e+3, 2.578883e+2, -406464.3, -540487.9, 28453.18, 0.004703614, 0.00091128686, -400673.9, 12020.408, 0.0, 10.073845, 9.895871 
7.9496455e+3, 2.6777175e+2, -323328.5, -473039.16, 19041.998, -0.00016241075, -0.0016217976, -320944.47, -5108.3467, 0.0, 10.073239, 9.8754 
7.949492e+3, 2.7764314e+2, -228733.36, -375042.2, 20382.65, -0.006179908, -0.0075217457, -225946.88, -6850.3833, 0.0, 10.06993, 9.876532 
7.9493296e+3, 2.875251e+2, -146243.1, -297664.7, 6838.7686, 0.0071290764, 0.006063534, -145934.86, -23680.855, 0.0, 10.063942, 9.864869 
7.949151e+3, 2.9741135e+2, -66398.414, -214441.38, 7578.9243, 0.02575152, 0.031129254, -66011.43, -40642.31, 0.0, 10.053707, 9.859474 
7.948915e+3, 3.0721036e+2, -40963.984, -159087.75, 5344.9116, -0.021987315, -0.054973602, -40722.63, -40722.63, 0.0, 10.029583, 9.874821 
7.9487544e+3, 3.171866e+2, -11372.121, -12220.09, -2919.1377, 0.036709275, 0.06433769, -8846.339, -8846.339, 0.0, 9.992559, 9.991514 
7.9609436e+3, 1.2863167e+2, -1669782.8, -1685281.4, 4320.7617, 0.003436797, -0.0010495278, -1668659.6, 10750.131, 0.0, 10.024876, 10.004102 
7.960842e+3, 1.3863647e+2, -1565692.3, -1586168.9, 5854.7227, 0.002253324, 0.000049489485, -1564136.5, 17225.922, 0.0, 10.029809, 10.002354 
7.960752e+3, 1.4863035e+2, -1475228.1, -1510698.3, 13074.089, 0.0013804977, 0.00027828355, -1470930.0, 12492.33, 0.0, 10.033905, 9.986397 
7.96067e+3, 1.5861657e+2, -1372707.8, -1411292.8, 14390.626, 0.0011826196, 0.00006997726, -1367931.8, 17625.584, 0.0, 10.037304, 9.985596 
7.960592e+3, 1.6859573e+2, -1281025.3, -1331568.8, 18914.738, 0.0012758081, 0.0004431234, -1274730.8, 13031.2705, 0.0, 10.040313, 9.972683 
7.960518e+3, 1.7856877e+2, -1179080.6, -1232061.0, 20208.443, 0.0014317364, 0.0008345777, -1172252.5, 17774.18, 0.0, 10.043147, 9.972212 
7.960444e+3, 1.885347e+2, -1086857.4, -1152002.5, 22894.283, 0.0023790835, 0.0013060815, -1079616.4, 12744.292, 0.0, 10.046304, 9.959252 
7.960373e+3, 1.984942e+2, -983879.75, -1051736.6, 24769.955, 0.0035429199, 0.0015031953, -975800.0, 18957.693, 0.0, 10.049707, 9.958954 
7.960299e+3, 2.0844537e+2, -891935.4, -972891.56, 26547.027, 0.0031457776, 0.00062697945, -884006.7, 13229.032, 0.0, 10.053006, 9.944966 
7.960225e+3, 2.1838933e+2, -789183.44, -873377.06, 28862.586, 0.002318225, -0.0006531312, -780239.2, 19545.02, 0.0, 10.05654, 9.944082 
7.960144e+3, 2.2832447e+2, -697574.75, -798250.75, 28192.566, 0.0023393072, -0.0007643769, -690217.56, 12201.625, 0.0, 10.060974, 9.926864 
7.96006e+3, 2.382512e+2, -592871.25, -697500.8, 31337.252, 0.0027353147, -0.0011185228, -584203.6, 20933.395, 0.0, 10.065686, 9.9261265 
7.959963e+3, 2.4816473e+2, -503656.9, -627110.2, 26260.29, 0.003633025, -0.0038243702, -498303.13, 9681.163, 0.0, 10.069723, 9.90569 
7.959854e+3, 2.5806862e+2, -399988.63, -526399.4, 29081.605, 0.004247839, -0.006294484, -393619.16, 17307.004, 0.0, 10.073488, 9.905318 
7.959718e+3, 2.67971e+2, -317451.1, -461957.03, 17286.322, -0.00060923153, 0.0042958995, -315412.0, -1529.1143, 0.0, 10.073604, 9.882472 
7.959562e+3, 2.7786306e+2, -221463.89, -363195.06, 18773.283, -0.006122726, 0.015271687, -219019.39, -2078.9534, 0.0, 10.071251, 9.883707 
7.959393e+3, 2.877172e+2, -142202.17, -293110.75, 1926.1606, 0.0064723827, -0.011616041, -142177.58, -21808.99, 0.0, 10.065402, 9.867137 
7.959204e+3, 2.9756266e+2, -62737.273, -210350.06, 800.5334, 0.024352185, -0.03966322, -62732.934, -38851.8, 0.0, 10.054963, 9.861542 
7.958956e+3, 3.0751362e+2, -24739.393, -144801.95, -9925.004, -0.0088697355, 0.055215046, -23924.47, -23924.47, 0.0, 10.037265, 9.8804655 
7.958756e+3, 3.1731844e+2, -4432.0986, -33588.41, -21730.463, 0.043892376, -0.039489616, 7157.1987, 7157.1987, 0.0, 10.0070715, 9.969748 
7.970962e+3, 1.2873878e+2, -1678068.1, -1689392.4, 1268.1746, -0.00096186827, 0.001526861, -1677927.8, 430.9639, 0.0, 10.019642, 10.004528 
7.97087e+3, 1.3874237e+2, -1571797.3, -1588037.6, 1933.7537, 0.0023349226, 0.00038270454, -1571570.1, 8753.508, 0.0, 10.025402, 10.003717 
7.9707855e+3, 1.4873846e+2, -1479349.8, -1509319.0, 8201.496, 0.003175334, 0.00014600514, -1477252.1, 5110.557, 0.0, 10.029688, 9.989653 
7.970707e+3, 1.5872785e+2, -1376900.4, -1409866.8, 9300.528, 0.0039707823, -0.00014893184, -1374457.5, 10010.009, 0.0, 10.0329895, 9.988926 
7.970632e+3, 1.6870998e+2, -1285218.3, -1328924.0, 13487.224, 0.0040164106, -0.00088840775, -1281391.3, 5251.628, 0.0, 10.035427, 9.977059 
7.9705596e+3, 1.786862e+2, -1184534.1, -1230506.0, 14856.448, 0.0036322763, -0.0018475474, -1180150.9, 8724.932, 0.0, 10.037645, 9.976218 
7.9704875e+3, 1.8865576e+2, -1091468.8, -1149166.8, 17727.307, 0.0017955514, -0.0021316211, -1086457.5, 4716.5884, 0.0, 10.04096, 9.963983 
7.970417e+3, 1.9861966e+2, -988413.75, -1048904.0, 19277.887, 0.000020872489, -0.0023113398, -982792.4, 10735.466, 0.0, 10.044415, 9.963652 
7.9703474e+3, 2.0857812e+2, -896503.06, -967658.5, 20856.867, 0.0014031893, -0.0012369339, -890840.25, 5095.189, 0.0, 10.046602, 9.95176 
7.9702777e+3, 2.1853118e+2, -795562.7, -868310.1, 23704.73, 0.003462, 0.00022594172, -788520.25, 9875.918, 0.0, 10.048615, 9.951544 
7.9702014e+3, 2.2847849e+2, -702044.3, -787389.1, 24706.78, 0.002555833, 0.0031230329, -695407.9, 5504.691, 0.0, 10.052195, 9.938481 
7.970119e+3, 2.38419e+2, -598584.56, -687565.44, 29434.012, 0.0009854945, 0.005615938, -589729.4, 13766.104, 0.0, 10.056224, 9.937455 
7.9700255e+3, 2.4834517e+2, -507410.75, -612621.56, 27042.137, 0.0010535673, 0.0028191663, -500867.16, 5351.366, 0.0, 10.060049, 9.92 
7.9699206e+3, 2.582624e+2, -403213.25, -511618.75, 33378.105, 0.0017800851, -0.00080558605, -393760.38, 15268.661, 0.0, 10.064198, 9.919542 
7.969792e+3, 2.6817554e+2, -316713.94, -442927.7, 25050.488, 0.0041022464, 0.004506222, -311923.78, -44.55954, 0.0, 10.065976, 9.898337 
7.969641e+3, 2.7807805e+2, -218204.06, -343738.44, 33641.258, 0.006393462, 0.009167489, -209757.11, 5076.1406, 0.0, 10.065795, 9.898526 
7.9694563e+3, 2.8794414e+2, -135357.36, -281594.5, 21425.768, 0.0030678578, -0.015279866, -132282.83, -14137.95, 0.0, 10.066516, 9.873028 
7.9692453e+3, 2.978018e+2, -36175.926, -189507.28, 25134.496, -0.0021645555, -0.0351725, -32160.941, -10620.894, 0.0, 10.06982, 9.866864 
7.9689854e+3, 3.0775926e+2, 7109.649, -140320.28, 4891.1323, -0.03620745, 0.07145108, 7271.739, 7271.739, 0.0, 10.063275, 9.869368 
7.9687005e+3, 3.1754756e+2, 43500.637, 4744.083, -21200.355, -0.062376738, -0.0324298, 52844.7, 52844.7, 0.0, 10.032392, 9.98238 
7.980982e+3, 1.2883691e+2, -1673515.1, -1685782.5, 1659.3967, -0.0017572215, 0.0025873396, -1673294.6, 4102.068, 0.0, 10.021952, 10.005574 
7.9808944e+3, 1.3884048e+2, -1575945.4, -1588302.1, 4042.7737, 0.0024519812, -0.000009389633, -1574740.3, 4621.5996, 0.0, 10.021958, 10.005401 
7.9808146e+3, 1.4883906e+2, -1483107.4, -1507632.0, 10511.69, 0.0036485149, -0.00042710776, -1479218.5, 2158.3035, 0.0, 10.025673, 9.992826 
7.98074e+3, 1.5883163e+2, -1379431.0, -1407872.1, 11763.069, 0.0048170104, -0.0006426376, -1375196.4, 8254.541, 0.0, 10.0299015, 9.991797 
7.980668e+3, 1.6881649e+2, -1282253.8, -1323530.3, 14978.204, 0.004911192, -0.0016755994, -1277391.4, 8207.82, 0.0, 10.035585, 9.980383 
7.980599e+3, 1.7879573e+2, -1176801.5, -1222735.6, 15283.792, 0.00424093, -0.0030231725, -1172180.9, 15621.767, 0.0, 10.040915, 9.979474 
7.9805285e+3, 1.88769e+2, -1086903.9, -1141254.5, 17960.121, 0.0014076619, -0.003714701, -1081505.3, 8559.21, 0.0, 10.041405, 9.968806 
7.98046e+3, 1.9873749e+2, -989938.94, -1043939.9, 19799.133, -0.0013240485, -0.0042031207, -983457.6, 8915.464, 0.0, 10.040853, 9.968671 
7.980393e+3, 2.087031e+2, -895748.06, -957841.56, 22387.766, 0.0007580067, -0.0025720953, -888518.0, 6193.036, 0.0, 10.042885, 9.959956 
7.9803264e+3, 2.1866505e+2, -793467.06, -857339.2, 26642.87, 0.0037747188, -0.00026251154, -783812.8, 13272.197, 0.0, 10.045605, 9.960137 
7.980253e+3, 2.2862446e+2, -695910.3, -768640.4, 28197.555, 0.0024065806, 0.0037409083, -686258.9, 13224.258, 0.0, 10.049345, 9.952066 
7.9801744e+3, 2.3857942e+2, -592352.7, -669031.7, 32725.838, -0.000102502025, 0.0074397293, -580284.9, 21639.684, 0.0, 10.05361, 9.950858 
7.9800844e+3, 2.4852203e+2, -494126.8, -584149.25, 30698.629, -0.00060742046, 0.005017138, -484654.88, 19831.56, 0.0, 10.059408, 9.9389515 
7.979985e+3, 2.5845832e+2, -387718.56, -482639.2, 36847.055, 0.0002623498, 0.0013874372, -375094.06, 32016.29, 0.0, 10.065398, 9.93804 
7.9798603e+3, 2.6838896e+2, -297197.6, -404314.72, 26649.188, 0.006433207, 0.0017055825, -290933.94, 18854.768, 0.0, 10.06659, 9.923477 
7.979712e+3, 2.7831018e+2, -200389.05, -307356.6, 35386.152, 0.012165718, -0.0010147967, -189742.53, 22816.479, 0.0, 10.065968, 9.92254 
7.979522e+3, 2.8820324e+2, -124739.18, -261784.47, 26168.559, 0.00083938945, -0.014922969, -119912.34, -4304.477, 0.0, 10.067594, 9.885447 
7.9793066e+3, 2.980894e+2, -31227.764, -171044.44, 31957.822, -0.012411133, -0.0148116965, -24269.477, -5544.41, 0.0, 10.066416, 9.880352 
7.979092e+3, 3.0801183e+2, -70900.05, -179975.17, 29180.1, 0.035807066, 0.029281367, -63584.363, -63584.363, 0.0, 10.009743, 9.865039 
7.978773e+3, 3.1784585e+2, -94572.69, -10924.485, 21395.06, 0.020377064, -0.010827795, -5769.8247, -5769.8247, 0.0, 9.914005, 10.021426 
7.991017e+3, 1.2891847e+2, -1668088.6, -1676475.5, -5277.854, 0.013817836, -0.0052120755, -1665541.1, 11061.896, 0.0, 10.022299, 10.011254 
7.990913e+3, 1.3893089e+2, -1579305.6, -1585069.6, -923.4743, 0.0021000335, -0.0035587517, -1579161.3, -682.35785, 0.0, 10.017527, 10.009878 
7.990831e+3, 1.4893512e+2, -1488581.8, -1506814.9, 7224.999, -0.0030099673, -0.0014343995, -1486066.0, -5630.721, 0.0, 10.020552, 9.996181 
7.990759e+3, 1.5893254e+2, -1385364.6, -1409876.5, 8567.561, -0.0056429314, 0.0007835366, -1382667.0, -208.42923, 0.0, 10.025668, 9.992924 
7.9906946e+3, 1.6892079e+2, -1286486.8, -1327397.4, 11150.589, -0.005089533, 0.0047867456, -1283645.0, 930.3558, 0.0, 10.033678, 9.979135 
7.9906344e+3, 1.7890328e+2, -1176373.6, -1222159.4, 8283.782, -0.0033536132, 0.00858919, -1174921.0, 11828.302, 0.0, 10.041012, 9.979985 
7.99057e+3, 1.8888204e+2, -1087698.5, -1135928.5, 7555.3604, 0.003939727, 0.010467471, -1086542.6, 2415.751, 0.0, 10.038206, 9.974006 
7.990506e+3, 1.9885689e+2, -996249.25, -1039638.7, 10132.106, 0.011408579, 0.011072286, -993999.8, -2794.8442, 0.0, 10.033282, 9.97549 
7.990435e+3, 2.0882729e+2, -899829.44, -945684.8, 14682.023, 0.0068955077, 0.0059605124, -895531.4, -2039.4973, 0.0, 10.033777, 9.972631 
7.990363e+3, 2.1879433e+2, -800385.0, -848430.7, 19732.088, 0.00036359858, -0.00069472607, -793320.0, 2490.9077, 0.0, 10.035447, 9.971259 
7.990295e+3, 2.287559e+2, -704597.1, -757922.7, 21441.19, 0.0028547645, -0.008649411, -697045.5, 1140.4305, 0.0, 10.036816, 9.965573 
7.9902256e+3, 2.3871541e+2, -605250.75, -659771.3, 26596.453, 0.0073806033, -0.016173352, -594425.7, 6156.06, 0.0, 10.037993, 9.964989 
7.9901433e+3, 2.4867913e+2, -502890.75, -562969.8, 26534.861, 0.009993098, -0.0154162515, -492849.47, 10088.95, 0.0, 10.042284, 9.961715 
7.990049e+3, 2.586441e+2, -399884.25, -463330.72, 33780.598, 0.010209806, -0.011264885, -385266.44, 20017.32, 0.0, 10.046077, 9.960616 
7.989902e+3, 2.6861444e+2, -302977.5, -368632.34, 26593.246, -0.012109052, 0.0033125551, -293557.53, 14020.263, 0.0, 10.045811, 9.957413 
7.989733e+3, 2.785838e+2, -202713.5, -266547.88, 41585.94, -0.030943336, 0.017603587, -182208.39, 27673.14, 0.0, 10.046222, 9.95926 
7.9895955e+3, 2.8853005e+2, -143476.64, -201911.2, 43196.844, 0.034378722, 0.010040606, -120543.98, -8133.526, 0.0, 10.024691, 9.9443 
8.001024e+3, 1.2901722e+2, -1680671.8, -1685602.3, 6276.1914, -0.0017308891, 0.0025426948, -1676394.0, -761.3885, 0.0, 10.015598, 10.008906 
8.0009305e+3, 1.3902651e+2, -1581087.4, -1590015.8, 1403.5062, 0.002227863, 0.0036785528, -1580872.0, -3328.154, 0.0, 10.018279, 10.006394 
8.000859e+3, 1.4902258e+2, -1480998.1, -1509190.1, 173.31232, 0.0032685292, 0.001754181, -1480997.1, -1414.1317, 0.0, 10.028283, 9.990819 
8.0007964e+3, 1.5901229e+2, -1366415.4, -1401831.5, -8766.57, 0.0048984266, 0.00003605159, -1364364.3, 17319.688, 0.0, 10.038567, 9.991562 
8.000736e+3, 1.6899873e+2, -1281445.1, -1319216.5, -1280.1539, 0.0047615124, -0.0020373873, -1281401.8, 2412.3235, 0.0, 10.034351, 9.984166 
8.000678e+3, 1.7898066e+2, -1193325.0, -1225894.1, 3696.185, 0.004390852, -0.0048571033, -1192910.8, -6922.4253, 0.0, 10.027849, 9.984548 
8.0006045e+3, 1.8896271e+2, -1092138.8, -1130986.9, 4520.396, 0.0008259794, -0.0058228998, -1091619.8, -3455.899, 0.0, 10.032041, 9.980356 
8.0005306e+3, 1.98943e+2, -985949.2, -1030091.94, 7886.619, -0.0011790445, -0.0057098633, -984582.44, 5774.574, 0.0, 10.038016, 9.979205 
8.000466e+3, 2.0892307e+2, -890978.75, -937413.06, 1749.4401, 0.0017868371, -0.0025175803, -890912.9, 1641.5171, 0.0, 10.037824, 9.976132 
8.000403e+3, 2.1890175e+2, -794830.06, -839628.6, -5889.1646, 0.0042707315, 0.00025000775, -794068.8, 696.19904, 0.0, 10.036354, 9.976974 
8.0003333e+3, 2.2888382e+2, -694422.3, -737028.4, -7370.39, 0.0031594834, 0.004273418, -693183.3, 3757.9788, 0.0, 10.036437, 9.979978 
8.00026e+3, 2.3886606e+2, -597028.3, -640298.2, -2809.8276, 0.0013667605, 0.007164478, -596846.6, 2268.9434, 0.0, 10.036529, 9.979142 
8.000176e+3, 2.4884953e+2, -497121.9, -533453.6, -6205.922, -0.0018845889, 0.008400988, -496091.1, 5187.3916, 0.0, 10.034277, 9.986109 
8.000082e+3, 2.5883543e+2, -402561.72, -432857.66, -3254.8608, -0.0038690006, 0.0074751107, -402216.0, 1201.3291, 0.0, 10.030074, 9.989876 
7.9999626e+3, 2.6882705e+2, -309023.22, -316658.88, -2249.6956, 0.010306364, -0.0033163778, -308409.7, -2912.614, 0.0, 10.017463, 10.007354 
7.999815e+3, 2.788295e+2, -225975.98, -230177.13, 23714.293, 0.017633108, -0.00868968, -204269.4, 3201.6956, 0.0, 10.00939, 10.0026655 
7.99958e+3, 2.8885216e+2, -91992.15, -78247.21, -1233.9294, -0.015200212, -0.0026971612, -78137.31, 31114.236, 0.0, 10.015974, 10.034099 
