coord_x,coord_y,stress_xx,stress_yy,tau_xy,velocity_x,velocity_y,stress_1,eps,damage,lx,ly
2.5063604e+0, 1.22692354e+2, -1711130.6, -1741108.8, -110.686745, 0.00000026310394, 0.0011032467, -1711130.3, 26484.799, 0.0, 5.0127206, 4.993189 
2.5064915e+0, 1.2768501e+2, -1662939.9, -1694916.5, -113.99068, 0.0000024738374, -0.0032268993, -1662939.5, 25747.496, 0.0, 5.0129824, 4.9921484 
2.5066155e+0, 1.3267624e+2, -1617201.8, -1653664.8, -126.099, 0.0000013892967, 0.0035114794, -1617201.4, 22571.64, 0.0, 5.0132303, 4.9893975 
2.5067338e+0, 1.3766538e+2, -1568541.0, -1606440.9, -128.95615, 0.000004564037, -0.0012112545, -1568540.6, 22338.824, 0.0, 5.013467, 4.9886985 
2.5068456e+0, 1.426528e+2, -1523087.3, -1565765.4, -140.33385, 0.0000025765335, 0.00036771712, -1523086.9, 18915.742, 0.0, 5.0136905, 4.9858 
2.5069514e+0, 1.4763875e+2, -1474298.6, -1518211.0, -142.7951, -0.0000042767815, -0.00092728395, -1474298.1, 18842.12, 0.0, 5.0139036, 4.985217 
2.507052e+0, 1.5262279e+2, -1428914.8, -1477679.8, -152.73553, -0.0000088906945, 0.0012894945, -1428914.3, 15382.485, 0.0, 5.014106, 4.982289 
2.5071484e+0, 1.576051e+2, -1380120.4, -1430061.3, -155.02489, -0.000009051683, -0.0012873012, -1380119.9, 15350.113, 0.0, 5.0142984, 4.9817266 
2.507241e+0, 1.6258566e+2, -1334781.3, -1389632.8, -163.32124, -0.0000066804973, 0.0012948303, -1334780.8, 11879.822, 0.0, 5.014483, 4.9787483 
2.50733e+0, 1.6756445e+2, -1285913.5, -1341826.6, -165.10257, -0.0000021167348, -0.0011503022, -1285913.0, 11955.331, 0.0, 5.01466, 4.978244 
2.5074154e+0, 1.725415e+2, -1240625.4, -1301533.1, -172.19536, -0.00000016780542, 0.0011645564, -1240624.9, 8468.409, 0.0, 5.01483, 4.9752016 
2.507497e+0, 1.7751677e+2, -1191704.3, -1253593.8, -173.916, -0.00000077089965, -0.0011951941, -1191703.8, 8631.861, 0.0, 5.0149937, 4.9747357 
2.5075763e+0, 1.8249026e+2, -1146560.5, -1213653.5, -179.78365, -0.00000040561528, 0.0012500255, -1146560.0, 5035.292, 0.0, 5.0151525, 4.9715586 
2.5076535e+0, 1.8746188e+2, -1097590.8, -1165607.6, -181.34023, 0.0000011581683, -0.0013080083, -1097590.3, 5283.208, 0.0, 5.0153065, 4.9711204 
2.5077283e+0, 1.9243181e+2, -1052347.1, -1125517.4, -185.97833, -0.00000007041573, 0.0012946258, -1052346.6, 1821.6323, 0.0, 5.0154567, 4.96797 
2.507801e+0, 1.9739985e+2, -1003315.6, -1077345.0, -186.89748, -0.0000035863377, -0.0013210162, -1003315.1, 2166.3384, 0.0, 5.0156026, 4.967566 
2.5078723e+0, 2.0236622e+2, -958089.9, -1037368.6, -190.22295, -0.000006068322, 0.0012938321, -958089.44, -1278.2834, 0.0, 5.0157456, 4.964359 
2.5079423e+0, 2.0733064e+2, -909016.94, -989121.6, -190.56519, -0.0000058064084, -0.0013461846, -909016.5, -856.7459, 0.0, 5.0158854, 4.96397 
2.508012e+0, 2.122934e+2, -863786.56, -949227.2, -191.75255, -0.0000055130004, 0.0013794757, -863786.1, -4261.342, 0.0, 5.0160246, 4.9607086 
2.5080815e+0, 2.1725416e+2, -814648.4, -900876.8, -192.11476, -0.0000036982792, -0.0014225867, -814647.94, -3738.8296, 0.0, 5.016163, 4.960343 
2.508151e+0, 2.222133e+2, -769407.56, -861072.75, -192.42624, -0.000003494416, 0.0014399451, -769407.2, -7097.441, 0.0, 5.016302, 4.957025 
2.50822e+0, 2.2717041e+2, -720210.6, -812643.0, -192.6099, -0.000004430586, -0.0013812681, -720210.25, -6480.232, 0.0, 5.0164413, 4.956673 
2.5082907e+0, 2.3212583e+2, -674958.75, -772944.75, -191.4265, -0.0000061718997, 0.0014867162, -674958.4, -9791.525, 0.0, 5.0165825, 4.953293 
2.5083622e+0, 2.3707922e+2, -625674.94, -724391.25, -191.15352, -0.0000068936197, -0.001634683, -625674.56, -9050.873, 0.0, 5.016726, 4.9529686 
2.5084355e+0, 2.4203093e+2, -580423.06, -684841.5, -188.8218, -0.0000084368585, 0.0017210033, -580422.75, -12325.865, 0.0, 5.0168724, 4.949504 
2.5085104e+0, 2.4698055e+2, -531024.6, -636114.2, -188.06357, -0.000010567538, -0.001673505, -531024.3, -11433.604, 0.0, 5.0170226, 4.949224 
2.5085872e+0, 2.5192845e+2, -485867.9, -596945.25, -184.5761, -0.000011872351, 0.0016982582, -485867.6, -14766.348, 0.0, 5.017177, 4.945597 
2.508667e+0, 2.5687423e+2, -436181.75, -547665.06, -183.40434, -0.000013210931, -0.0016998675, -436181.44, -13549.044, 0.0, 5.017337, 4.9454937 
2.5087494e+0, 2.618183e+2, -391238.7, -509166.44, -178.88573, -0.000014123458, 0.0016965772, -391238.4, -17057.656, 0.0, 5.0175014, 4.941598 
2.5088358e+0, 2.6676026e+2, -341177.56, -459140.75, -177.26288, -0.000013174143, -0.0016295911, -341177.3, -15427.726, 0.0, 5.0176735, 4.941739 
2.5089252e+0, 2.7170035e+2, -296501.78, -421465.22, -171.61876, -0.0000107985825, 0.001700667, -296501.53, -19164.963, 0.0, 5.017852, 4.937512 
2.509019e+0, 2.7663836e+2, -246062.13, -370688.78, -169.62703, -0.000009572497, -0.0019144531, -246061.89, -17118.012, 0.0, 5.0180397, 4.937899 
2.5091162e+0, 2.815746e+2, -201428.48, -333346.84, -162.99069, -0.000010103158, 0.0021888448, -201428.28, -20859.459, 0.0, 5.0182343, 4.933515 
2.509219e+0, 2.8650874e+2, -150666.28, -281946.88, -160.24123, -0.000011222184, -0.0026398317, -150666.1, -18451.795, 0.0, 5.01844, 4.9341054 
2.509325e+0, 2.9144052e+2, -107679.27, -248702.75, -152.74002, -0.0000132496325, 0.0016342114, -107679.11, -23796.156, 0.0, 5.018653, 4.928224 
2.5094387e+0, 2.9636958e+2, -56874.496, -197358.66, -149.73799, -0.000014063857, -0.00047825105, -56874.336, -21296.148, 0.0, 5.01888, 4.9287715 
2.5095564e+0, 3.0130547e+2, -15335.426, -134381.98, -139.11357, -0.000011841506, 0.002245065, -15335.264, -15335.264, 0.0, 5.0191145, 4.942446 
2.509682e+0, 3.0624852e+2, -13556.293, -131492.63, -135.26279, -0.000004016454, -0.0053925794, -13556.138, -13556.138, 0.0, 5.0193644, 4.943379 
2.5098118e+0, 3.1120896e+2, 25577.912, -40826.934, -121.467255, 0.0000069177527, 0.0038656308, 25578.133, 25578.133, 0.0, 5.019622, 4.976472 
2.509951e+0, 3.1618652e+2, 28059.76, -36399.57, -117.118675, 0.00003070422, -0.001022713, 28059.973, 28059.973, 0.0, 5.0198956, 4.9779897 
7.519081e+0, 1.2269208e+2, -1711135.9, -1741119.4, 88.65593, 0.000000797071, 0.0011024388, -1711135.6, 26482.076, 0.0, 5.0127206, 4.9931855 
7.5194746e+0, 1.2768473e+2, -1662945.3, -1694927.4, 84.28367, 0.000007420595, -0.003229059, -1662945.0, 25744.72, 0.0, 5.0129824, 4.9921446 
7.519846e+0, 1.3267595e+2, -1617206.3, -1653674.1, 53.81398, 0.0000041654475, 0.0035110735, -1617206.3, 22569.502, 0.0, 5.0132303, 4.9893947 
7.5202024e+0, 1.3766508e+2, -1568545.5, -1606450.1, 50.21536, 0.0000136585895, -0.0012098155, -1568545.4, 22336.807, 0.0, 5.013467, 4.9886956 
7.520537e+0, 1.4265251e+2, -1523091.4, -1565773.9, 21.32884, 0.000007793055, 0.00037157783, -1523091.4, 18914.076, 0.0, 5.0136905, 4.985797 
7.520854e+0, 1.4763846e+2, -1474302.6, -1518219.4, 18.429255, -0.000012771156, -0.0009200215, -1474302.6, 18840.502, 0.0, 5.0139036, 4.985214 
7.521156e+0, 1.5262249e+2, -1428918.5, -1477687.8, -6.337835, -0.000026672278, 0.0012962724, -1428918.5, 15381.0625, 0.0, 5.014106, 4.982286 
7.521446e+0, 1.5760481e+2, -1380124.1, -1430069.3, -8.895258, -0.000027158529, -0.0012830946, -1380124.1, 15348.704, 0.0, 5.0142984, 4.981724 
7.5217235e+0, 1.6258536e+2, -1334784.3, -1389639.3, -29.23286, -0.000020007154, 0.0012965257, -1334784.3, 11879.226, 0.0, 5.0144835, 4.9787464 
7.52199e+0, 1.6756417e+2, -1285916.5, -1341833.0, -31.109617, -0.0000063167454, -0.0011524999, -1285916.5, 11954.8125, 0.0, 5.01466, 4.9782414 
7.5222456e+0, 1.725412e+2, -1240628.3, -1301539.4, -48.25996, -0.00000050156837, 0.0011608212, -1240628.3, 8467.97, 0.0, 5.01483, 4.9751997 
7.522491e+0, 1.7751648e+2, -1191707.3, -1253600.3, -49.968983, -0.000002320554, -0.001198373, -1191707.3, 8631.356, 0.0, 5.0149937, 4.9747334 
7.5227296e+0, 1.8248996e+2, -1146563.3, -1213659.4, -63.45733, -0.0000011912963, 0.001251161, -1146563.3, 5035.1577, 0.0, 5.0151525, 4.971556 
7.5229603e+0, 1.8746158e+2, -1097593.5, -1165613.4, -64.95546, 0.0000034833495, -0.0013029892, -1097593.5, 5283.0825, 0.0, 5.0153065, 4.9711185 
7.523185e+0, 1.9243151e+2, -1052348.6, -1125520.8, -75.790375, -0.00000019651952, 0.001298815, -1052348.6, 1822.684, 0.0, 5.0154567, 4.967969 
7.523403e+0, 1.9739954e+2, -1003317.1, -1077348.1, -76.796974, -0.000010760876, -0.0013155293, -1003317.0, 2167.4846, 0.0, 5.0156026, 4.9675646 
7.5236166e+0, 2.023659e+2, -958090.3, -1037369.4, -84.5207, -0.000018194596, 0.001302034, -958090.25, -1276.0249, 0.0, 5.0157456, 4.964359 
7.5238264e+0, 2.0733032e+2, -909017.4, -989122.44, -85.0626, -0.000017423774, -0.0013407759, -909017.3, -854.49506, 0.0, 5.0158854, 4.9639697 
7.524036e+0, 2.1229307e+2, -863787.0, -949228.1, -87.22872, -0.000016516815, 0.0013803698, -863786.94, -4259.119, 0.0, 5.0160246, 4.960708 
7.5242436e+0, 2.1725386e+2, -814648.9, -900877.7, -87.7833, -0.000011088301, -0.0014232969, -814648.8, -3736.6174, 0.0, 5.016163, 4.960343 
7.524453e+0, 2.2221299e+2, -769407.8, -861073.06, -87.48024, -0.000010463919, 0.0014394857, -769407.75, -7094.95, 0.0, 5.016302, 4.9570246 
7.524661e+0, 2.2717011e+2, -720210.9, -812643.2, -87.8217, -0.000013296764, -0.0013815935, -720210.8, -6477.7275, 0.0, 5.016441, 4.956673 
7.5248724e+0, 2.3212552e+2, -674958.44, -772943.9, -83.485146, -0.00001847589, 0.0014849119, -674958.4, -9788.517, 0.0, 5.0165825, 4.953293 
7.525087e+0, 2.370789e+2, -625674.7, -724390.3, -83.14262, -0.000020670173, -0.0016361227, -625674.56, -9047.843, 0.0, 5.0167255, 4.952969 
7.5253063e+0, 2.4203062e+2, -580422.44, -684839.6, -75.919044, -0.00002528562, 0.0017212658, -580422.4, -12322.432, 0.0, 5.016872, 4.9495044 
7.525531e+0, 2.4698023e+2, -531023.9, -636112.2, -74.75452, -0.000031694293, -0.0016728742, -531023.8, -11430.118, 0.0, 5.0170226, 4.9492245 
7.5257623e+0, 2.5192812e+2, -485866.78, -596942.25, -64.741035, -0.00003557876, 0.0016988906, -485866.75, -14762.456, 0.0, 5.0171766, 4.9455986 
7.5260013e+0, 2.5687394e+2, -436180.7, -547662.2, -62.855427, -0.00003966377, -0.0016999239, -436180.66, -13545.236, 0.0, 5.017337, 4.9454947 
7.5262487e+0, 2.61818e+2, -391237.38, -509162.97, -49.98707, -0.000042296855, 0.0016963342, -391237.38, -17053.594, 0.0, 5.0175014, 4.941599 
7.526507e+0, 2.6675996e+2, -341176.25, -459137.22, -47.227135, -0.000039543083, -0.0016270214, -341176.22, -15423.662, 0.0, 5.0176735, 4.9417405 
7.5267756e+0, 2.7170005e+2, -296500.2, -421461.0, -31.31282, -0.00003233697, 0.0017040619, -296500.2, -19160.629, 0.0, 5.017852, 4.9375134 
7.527057e+0, 2.7663806e+2, -246060.48, -370684.34, -27.953424, -0.00002869072, -0.0019117912, -246060.48, -17113.637, 0.0, 5.0180397, 4.9379005 
7.5273484e+0, 2.815743e+2, -201426.47, -333341.44, -9.582942, -0.00003028356, 0.002193423, -201426.47, -20854.69, 0.0, 5.018234, 4.933517 
7.5276566e+0, 2.8650844e+2, -150664.23, -281941.34, -4.841323, -0.00003375129, -0.0026321744, -150664.23, -18447.002, 0.0, 5.01844, 4.934108 
7.527976e+0, 2.9144022e+2, -107677.38, -248697.53, 15.996902, -0.000039618415, 0.0016426855, -107677.38, -23791.52, 0.0, 5.0186524, 4.928226 
7.528316e+0, 2.9636925e+2, -56872.727, -197353.66, 21.909962, -0.000042210977, -0.00047135257, -56872.723, -21291.637, 0.0, 5.0188794, 4.9287734 
7.5286686e+0, 3.0130517e+2, -15332.943, -134375.23, 46.597275, -0.00003558768, 0.002250311, -15332.925, -15332.925, 0.0, 5.0191145, 4.9424486 
7.5290453e+0, 3.0624822e+2, -13553.749, -131485.63, 53.855747, -0.000012073943, -0.0053876, -13553.725, -13553.725, 0.0, 5.019364, 4.943382 
7.529435e+0, 3.1120867e+2, 25580.635, -40819.293, 82.27707, 0.000020787797, 0.003871475, 25580.738, 25580.738, 0.0, 5.0196214, 4.9764752 
7.5298536e+0, 3.1618622e+2, 28062.18, -36392.06, 91.232254, 0.000091696515, -0.0010052175, 28062.309, 28062.309, 0.0, 5.019895, 4.9779925 
1.2531812e+1, 1.2269153e+2, -1711080.9, -1741108.3, -132.72868, 0.0000038202143, 0.0011039085, -1711080.4, 26542.781, 0.0, 5.012742, 4.9931784 
1.2532468e+1, 1.2768418e+2, -1662894.1, -1694918.5, -143.9329, 0.000012966064, -0.0032310877, -1662893.5, 25801.746, 0.0, 5.013003, 4.9921374 
1.2533087e+1, 1.3267538e+2, -1617158.1, -1653664.8, -198.59077, 0.0000070149363, 0.0035116859, -1617157.0, 22624.191, 0.0, 5.0132494, 4.989388 
1.253368e+1, 1.3766453e+2, -1568501.4, -1606442.9, -207.91275, 0.000020363364, -0.0012057702, -1568500.3, 22387.514, 0.0, 5.0134845, 4.9886894 
1.2534237e+1, 1.4265195e+2, -1523049.9, -1565766.4, -259.51883, 0.000010935756, 0.00037818748, -1523048.3, 18962.715, 0.0, 5.013707, 4.9857917 
1.2534766e+1, 1.4763787e+2, -1474264.5, -1518213.6, -267.29782, -0.000019807865, -0.0009109993, -1474262.9, 18885.951, 0.0, 5.013919, 4.9852085 
1.2535268e+1, 1.5262192e+2, -1428882.4, -1477682.3, -311.61932, -0.000039050603, 0.0013049382, -1428880.4, 15424.993, 0.0, 5.0141206, 4.9822807 
1.2535751e+1, 1.5760422e+2, -1380089.6, -1430064.6, -318.55777, -0.00003762009, -0.0012777089, -1380087.6, 15391.097, 0.0, 5.0143127, 4.9817185 
1.2536211e+1, 1.6258477e+2, -1334753.1, -1389635.4, -356.47516, -0.000027082957, 0.0012991091, -1334750.8, 11918.533, 0.0, 5.0144963, 4.9787416 
1.2536655e+1, 1.6756356e+2, -1285891.5, -1341832.1, -362.84723, -0.000006774205, -0.0011530494, -1285889.3, 11987.96, 0.0, 5.014671, 4.9782367 
1.253708e+1, 1.725406e+2, -1240605.4, -1301536.9, -393.65094, 0.0000009872518, 0.0011598008, -1240602.9, 8499.291, 0.0, 5.0148396, 4.975196 
1.2537488e+1, 1.7751586e+2, -1191685.8, -1253598.5, -397.97357, -0.000004568521, -0.001197268, -1191683.3, 8661.357, 0.0, 5.015003, 4.97473 
1.2537886e+1, 1.8248935e+2, -1146544.4, -1213659.8, -422.93607, -0.000003295898, 0.0012552362, -1146541.8, 5062.6504, 0.0, 5.015161, 4.9715524 
1.253827e+1, 1.8746097e+2, -1097577.0, -1165615.0, -427.90594, 0.000005580553, -0.0012962262, -1097574.4, 5308.2627, 0.0, 5.015314, 4.971114 
1.2538645e+1, 1.9243088e+2, -1052334.0, -1125517.6, -448.55157, 0.0000004040766, 0.001307075, -1052331.3, 1846.1309, 0.0, 5.0154624, 4.967967 
1.2539007e+1, 1.9739893e+2, -1003310.3, -1077348.8, -450.56125, -0.000014659267, -0.0013065364, -1003307.56, 2183.0105, 0.0, 5.0156054, 4.967563 
1.2539363e+1, 2.0236528e+2, -958088.0, -1037370.56, -464.0989, -0.000024374107, 0.0013098224, -958085.25, -1264.9542, 0.0, 5.0157466, 4.964358 
1.2539712e+1, 2.0732969e+2, -909017.3, -989124.6, -466.13913, -0.000023021239, -0.0013360952, -909014.6, -845.7123, 0.0, 5.015886, 4.9639688 
1.254006e+1, 2.1229245e+2, -863789.56, -949230.7, -471.36404, -0.000021429338, 0.0013823016, -863786.94, -4253.016, 0.0, 5.016024, 4.9607077 
1.2540406e+1, 2.1725324e+2, -814655.5, -900882.2, -472.75476, -0.00001315441, -0.001423801, -814652.94, -3734.6099, 0.0, 5.016161, 4.960342 
1.2540752e+1, 2.2221236e+2, -769417.94, -861077.8, -473.1524, -0.000013957666, 0.0014380246, -769415.5, -7096.577, 0.0, 5.0162983, 4.9570246 
1.2541099e+1, 2.2716947e+2, -720225.56, -812650.0, -473.6618, -0.000018632365, -0.0013825189, -720223.2, -6483.96, 0.0, 5.016436, 4.956673 
1.254145e+1, 2.321249e+2, -674977.2, -772950.8, -466.8532, -0.000026087753, 0.0014835813, -674974.94, -9798.921, 0.0, 5.0165753, 4.953294 
1.2541808e+1, 2.3707828e+2, -625698.5, -724399.56, -465.9587, -0.000028464929, -0.0016372801, -625696.3, -9063.436, 0.0, 5.016717, 4.95297 
1.2542172e+1, 2.4203e+2, -580450.25, -684849.2, -453.90552, -0.000037047554, 0.00172116, -580448.3, -12342.239, 0.0, 5.0168614, 4.949506 
1.2542546e+1, 2.4697961e+2, -531056.2, -636123.56, -451.31342, -0.00004759938, -0.0016717282, -531054.25, -11454.393, 0.0, 5.01701, 4.949226 
1.254293e+1, 2.5192752e+2, -485902.94, -596953.94, -434.4977, -0.000051858096, 0.0017003143, -485901.22, -14790.851, 0.0, 5.017163, 4.9456005 
1.254333e+1, 2.568733e+2, -436220.97, -547675.6, -430.1871, -0.000057882527, -0.00169999, -436219.3, -13577.803, 0.0, 5.017321, 4.9454966 
1.254374e+1, 2.6181737e+2, -391280.6, -509176.56, -408.12567, -0.0000620719, 0.0016965481, -391279.2, -17089.375, 0.0, 5.0174847, 4.9416018 
1.254417e+1, 2.6675934e+2, -341222.9, -459152.1, -402.08362, -0.00005793853, -0.0016226373, -341221.53, -15462.928, 0.0, 5.0176554, 4.9417434 
1.2544617e+1, 2.7169943e+2, -296549.7, -421475.84, -374.6644, -0.000047339705, 0.0017097966, -296548.56, -19202.994, 0.0, 5.0178328, 4.9375167 
1.2545086e+1, 2.766375e+2, -246113.03, -370700.25, -367.12546, -0.00004141119, -0.0019074917, -246111.94, -17159.129, 0.0, 5.018019, 4.937904 
1.254557e+1, 2.815737e+2, -201481.3, -333356.8, -335.3363, -0.000043862936, 0.0022003, -201480.45, -20902.736, 0.0, 5.0182123, 4.933521 
1.2546083e+1, 2.8650784e+2, -150721.31, -281957.3, -325.12454, -0.000050206774, -0.0026185787, -150720.5, -18497.389, 0.0, 5.018417, 4.9341116 
1.2546615e+1, 2.914396e+2, -107737.016, -248714.73, -289.22754, -0.00005974253, 0.0016583222, -107736.42, -23844.707, 0.0, 5.018629, 4.92823 
1.2547182e+1, 2.963687e+2, -56934.7, -197372.03, -276.99466, -0.000062864005, -0.00045997562, -56934.156, -21347.254, 0.0, 5.018855, 4.9287777 
1.2547769e+1, 3.013046e+2, -15395.464, -134391.6, -230.82574, -0.00005256297, 0.0022589387, -15395.017, -15395.017, 0.0, 5.019089, 4.942454 
1.2548397e+1, 3.0624765e+2, -13617.231, -131502.03, -216.15762, -0.000017936065, -0.0053755124, -13616.835, -13616.835, 0.0, 5.019338, 4.9433866 
1.2549046e+1, 3.112081e+2, 25518.336, -40832.758, -160.11519, 0.000031215408, 0.0038878063, 25518.723, 25518.723, 0.0, 5.0195956, 4.976481 
1.2549742e+1, 3.1618568e+2, 28000.588, -36404.633, -141.52249, 0.00014134182, -0.0009773374, 28000.9, 28000.9, 0.0, 5.0198693, 4.977999 
1.7544556e+1, 1.2269071e+2, -1711096.6, -1741140.5, 64.93046, 0.000007980301, 0.0011075469, -1711096.5, 26534.637, 0.0, 5.012742, 4.993168 
1.754547e+1, 1.2768334e+2, -1662909.6, -1694950.9, 52.52191, 0.000018808361, -0.0032327252, -1662909.6, 25793.75, 0.0, 5.013003, 4.992127 
1.7546338e+1, 1.3267455e+2, -1617171.8, -1653693.1, -20.598396, 0.000009646626, 0.003513395, -1617171.8, 22617.787, 0.0, 5.0132494, 4.989379 
1.7547163e+1, 1.3766366e+2, -1568515.0, -1606471.1, -30.648546, 0.00002427031, -0.0011990513, -1568514.9, 22381.18, 0.0, 5.013485, 4.98868 
1.7547946e+1, 1.4265108e+2, -1523062.0, -1565791.8, -99.61413, 0.0000115184575, 0.00038763075, -1523061.8, 18957.744, 0.0, 5.013707, 4.985783 
1.7548683e+1, 1.4763701e+2, -1474276.5, -1518239.0, -107.86946, -0.000026019494, -0.0009001548, -1474276.3, 18881.057, 0.0, 5.0139194, 4.9852004 
1.754939e+1, 1.5262103e+2, -1428893.5, -1477705.8, -166.65575, -0.00004692798, 0.0013155268, -1428892.9, 15421.015, 0.0, 5.0141206, 4.982273 
1.7550065e+1, 1.5760334e+2, -1380100.8, -1430088.1, -173.8873, -0.000041519186, -0.0012710743, -1380100.1, 15387.205, 0.0, 5.0143127, 4.981711 
1.7550708e+1, 1.6258387e+2, -1334764.0, -1389658.4, -225.09753, -0.000028990009, 0.0013025978, -1334763.0, 11915.057, 0.0, 5.0144963, 4.9787335 
1.7551327e+1, 1.6756265e+2, -1285902.3, -1341855.0, -231.56007, -0.000004523002, -0.0011519865, -1285901.4, 11984.636, 0.0, 5.014671, 4.978229 
1.7551921e+1, 1.7253968e+2, -1240612.9, -1301552.8, -271.2275, 0.0000032221683, 0.0011614329, -1240611.6, 8499.393, 0.0, 5.0148396, 4.9751906 
1.7552492e+1, 1.7751496e+2, -1191693.1, -1253614.1, -275.69333, -0.000008651047, -0.0011918674, -1191691.9, 8661.607, 0.0, 5.015003, 4.9747243 
1.7553048e+1, 1.8248843e+2, -1146553.3, -1213678.8, -308.54834, -0.000007933576, 0.0012622084, -1146551.9, 5061.478, 0.0, 5.015161, 4.9715457 
1.7553586e+1, 1.8746004e+2, -1097585.9, -1165633.8, -313.4329, 0.0000061675173, -0.0012878301, -1097584.4, 5307.2266, 0.0, 5.015314, 4.971108 
1.7554107e+1, 1.9242996e+2, -1052337.3, -1125524.5, -341.60852, 0.00000031685474, 0.0013192467, -1052335.8, 1850.7527, 0.0, 5.0154624, 4.9679646 
1.7554612e+1, 1.9739799e+2, -1003313.7, -1077355.6, -343.7571, -0.000016810569, -0.0012941129, -1003312.1, 2187.6113, 0.0, 5.0156054, 4.967561 
1.7555109e+1, 2.0236436e+2, -958090.75, -1037376.06, -360.40503, -0.000026272126, 0.0013171129, -958089.06, -1259.6277, 0.0, 5.0157466, 4.964356 
1.7555597e+1, 2.0732877e+2, -909020.1, -989130.06, -362.60403, -0.000024381676, -0.0013321989, -909018.5, -840.39124, 0.0, 5.015886, 4.9639673 
1.7556083e+1, 2.1229152e+2, -863791.4, -949234.0, -369.35788, -0.000022125918, 0.0013851781, -863789.8, -4246.668, 0.0, 5.016024, 4.9607067 
1.7556567e+1, 2.172523e+2, -814657.4, -900885.4, -370.94293, -0.000011810497, -0.0014241852, -814655.75, -3728.269, 0.0, 5.016161, 4.960341 
1.755705e+1, 2.222114e+2, -769418.6, -861078.25, -370.92526, -0.000015924523, 0.0014354213, -769417.06, -7088.963, 0.0, 5.0162983, 4.9570246 
1.7557535e+1, 2.2716853e+2, -720226.25, -812650.4, -371.6301, -0.00002236302, -0.0013841433, -720224.75, -6476.3574, 0.0, 5.0164356, 4.956673 
1.7558025e+1, 2.3212396e+2, -674976.44, -772948.06, -361.78046, -0.000030868956, 0.0014825488, -674975.1, -9789.923, 0.0, 5.0165753, 4.9532948 
1.7558526e+1, 2.3707734e+2, -625697.9, -724396.8, -360.85425, -0.000031993044, -0.0016383714, -625696.56, -9054.493, 0.0, 5.0167165, 4.952971 
1.7559032e+1, 2.4202907e+2, -580448.4, -684843.56, -343.78387, -0.000045354984, 0.0017203714, -580447.25, -12332.064, 0.0, 5.0168614, 4.949508 
1.7559555e+1, 2.4697869e+2, -531054.4, -636117.94, -340.8108, -0.000059795435, -0.0016704646, -531053.25, -11444.272, 0.0, 5.01701, 4.9492283 
1.7560093e+1, 2.519266e+2, -485899.97, -596945.6, -317.50424, -0.000062127394, 0.0017020745, -485899.06, -14779.58, 0.0, 5.017163, 4.945604 
1.756065e+1, 2.5687242e+2, -436218.0, -547667.1, -312.40018, -0.00006929211, -0.001700448, -436217.13, -13566.553, 0.0, 5.017321, 4.9455 
1.7561224e+1, 2.6181644e+2, -391276.88, -509166.1, -281.8108, -0.00007489658, 0.0016967091, -391276.2, -17077.318, 0.0, 5.017484, 4.9416056 
1.7561825e+1, 2.667584e+2, -341219.13, -459141.34, -274.74182, -0.00006958837, -0.0016169514, -341218.47, -15450.87, 0.0, 5.0176554, 4.941747 
1.7562449e+1, 2.716985e+2, -296544.97, -421462.72, -236.96803, -0.000057129502, 0.0017172657, -296544.53, -19190.0, 0.0, 5.0178323, 4.9375215 
1.7563105e+1, 2.7663657e+2, -246108.31, -370686.8, -228.03683, -0.00004898712, -0.0019022468, -246107.89, -17146.15, 0.0, 5.0180187, 4.937909 
1.7563781e+1, 2.815728e+2, -201475.56, -333340.78, -184.45053, -0.000052213607, 0.0022088904, -201475.3, -20888.717, 0.0, 5.018212, 4.933527 
1.75645e+1, 2.8650695e+2, -150715.48, -281940.88, -172.14366, -0.000061691324, -0.002599603, -150715.25, -18483.33, 0.0, 5.0184164, 4.934118 
1.7565243e+1, 2.9143873e+2, -107731.36, -248698.45, -122.886635, -0.000074949094, 0.0016802078, -107731.26, -23830.791, 0.0, 5.0186286, 4.928236 
1.7566036e+1, 2.963678e+2, -56929.36, -197356.25, -107.721245, -0.00007678773, -0.0004447358, -56929.273, -21333.678, 0.0, 5.0188546, 4.9287834 
1.7566858e+1, 3.013037e+2, -15388.874, -134372.63, -47.19394, -0.00006374471, 0.0022703088, -15388.855, -15388.855, 0.0, 5.0190883, 4.942461 
1.7567736e+1, 3.0624676e+2, -13610.6, -131482.66, -29.059732, -0.000022575488, -0.0053580245, -13610.593, -13610.593, 0.0, 5.0193377, 4.943394 
1.7568642e+1, 3.1120723e+2, 25526.408, -40809.35, 41.715683, 0.000036355756, 0.0039125923, 25526.434, 25526.434, 0.0, 5.0195947, 4.97649 
1.7569615e+1, 3.1618482e+2, 28008.346, -36380.34, 64.702385, 0.00017411182, -0.0009377644, 28008.41, 28008.41, 0.0, 5.0198684, 4.9780083 
2.255732e+1, 1.2268961e+2, -1710986.5, -1741118.5, -154.83243, 0.000015725764, 0.0011130325, -1710985.8, 26656.2, 0.0, 5.0127854, 4.9931536 
2.2558494e+1, 1.2768222e+2, -1662808.5, -1694933.4, -174.05206, 0.000025582725, -0.003232663, -1662807.5, 25906.717, 0.0, 5.0130434, 4.9921126 
2.2559604e+1, 1.3267343e+2, -1617075.9, -1653674.8, -271.31244, 0.000012583529, 0.003517504, -1617073.9, 22726.643, 0.0, 5.0132875, 4.989366 
2.2560667e+1, 1.3766253e+2, -1568427.5, -1606457.1, -287.00668, 0.00002641284, -0.0011906755, -1568425.4, 22481.914, 0.0, 5.0135202, 4.9886675 
2.2561668e+1, 1.4264993e+2, -1522980.3, -1565777.6, -378.44943, 0.00001265216, 0.00039779308, -1522977.0, 19053.764, 0.0, 5.01374, 4.9857717 
2.2562619e+1, 1.4763585e+2, -1474201.6, -1518228.4, -391.67923, -0.000026776412, -0.0008899827, -1474198.1, 18970.508, 0.0, 5.01395, 4.985189 
2.2563525e+1, 1.5261985e+2, -1428823.5, -1477695.1, -469.69067, -0.000047643836, 0.0013254134, -1428819.0, 15506.41, 0.0, 5.014149, 4.9822626 
2.256439e+1, 1.5760216e+2, -1380037.4, -1430080.9, -481.01022, -0.000037753904, -0.0012631727, -1380032.8, 15466.175, 0.0, 5.0143394, 4.9817004 
2.2565217e+1, 1.6258268e+2, -1334704.6, -1389650.3, -548.84326, -0.000024206605, 0.0013095714, -1334699.1, 11990.585, 0.0, 5.0145206, 4.9787245 
2.256601e+1, 1.6756146e+2, -1285847.9, -1341849.4, -557.58276, -0.000000058034473, -0.0011444403, -1285842.3, 12055.466, 0.0, 5.0146937, 4.97822 
2.2566773e+1, 1.7253849e+2, -1240569.6, -1301559.1, -613.5125, 0.000006993268, 0.0011710206, -1240563.4, 8559.511, 0.0, 5.01486, 4.9751787 
2.2567505e+1, 1.7751373e+2, -1191659.4, -1253624.9, -628.01886, -0.000007961297, -0.0011795438, -1191653.0, 8712.528, 0.0, 5.0150204, 4.974713 
2.2568214e+1, 1.8248722e+2, -1146517.4, -1213669.1, -672.3221, -0.000008110938, 0.0012746773, -1146510.6, 5114.7637, 0.0, 5.015175, 4.9715424 
2.2568905e+1, 1.874588e+2, -1097559.6, -1165628.9, -672.7738, 0.000010063996, -0.0012764323, -1097553.0, 5350.7803, 0.0, 5.0153246, 4.9711046 
2.2569574e+1, 1.9242872e+2, -1052320.0, -1125526.4, -708.3497, 0.000005790643, 0.0013323452, -1052313.1, 1885.4841, 0.0, 5.0154705, 4.9679604 
2.2570221e+1, 1.9739674e+2, -1003301.9, -1077360.0, -714.10443, -0.000012454772, -0.0012826102, -1003295.0, 2216.8923, 0.0, 5.0156116, 4.9675565 
2.2570857e+1, 2.023631e+2, -958083.7, -1037379.5, -737.57465, -0.000022606742, 0.0013243373, -958076.8, -1235.1471, 0.0, 5.0157504, 4.964353 
2.2571486e+1, 2.0732751e+2, -909020.8, -989137.1, -741.8941, -0.000019085668, -0.0013269, -909014.0, -823.6434, 0.0, 5.015887, 4.963964 
2.2572108e+1, 2.1229027e+2, -863798.7, -949240.56, -752.433, -0.000016834947, 0.0013893967, -863792.06, -4236.647, 0.0, 5.016022, 4.9607053 
2.2572728e+1, 2.1725103e+2, -814673.2, -900895.75, -754.9248, -0.0000070814745, -0.0014215321, -814666.56, -3726.7852, 0.0, 5.016156, 4.96034 
2.2573346e+1, 2.2221015e+2, -769441.25, -861088.44, -755.7072, -0.000012551727, 0.0014367402, -769435.0, -7094.5854, 0.0, 5.01629, 4.957025 
2.2573966e+1, 2.2716728e+2, -720257.56, -812664.4, -756.4407, -0.000020050906, -0.0013821017, -720251.3, -6490.6587, 0.0, 5.0164247, 4.956673 
2.2574595e+1, 2.321227e+2, -675014.75, -772962.1, -744.1184, -0.000029686942, 0.0014844316, -675009.1, -9811.635, 0.0, 5.016561, 4.953296 
2.2575234e+1, 2.3707609e+2, -625744.9, -724414.8, -742.5324, -0.000029993438, -0.0016373051, -625739.25, -9084.94, 0.0, 5.0166993, 4.9529724 
2.2575884e+1, 2.4202782e+2, -580502.3, -684861.7, -720.48425, -0.00004557398, 0.0017207194, -580497.4, -12369.912, 0.0, 5.016841, 4.949511 
2.2576553e+1, 2.4697743e+2, -531117.2, -636140.0, -716.0368, -0.00006140869, -0.0016683172, -531112.3, -11491.1, 0.0, 5.0169864, 4.949231 
2.2577243e+1, 2.5192535e+2, -485969.25, -596967.6, -685.69116, -0.00006327894, 0.0017039012, -485965.03, -14833.333, 0.0, 5.017136, 4.9456077 
2.2577955e+1, 2.5687116e+2, -436294.88, -547692.2, -678.10834, -0.00007153123, -0.0017007532, -436290.75, -13628.025, 0.0, 5.0172915, 4.945504 
2.2578691e+1, 2.6181522e+2, -391360.28, -509191.66, -638.1015, -0.00007668735, 0.0016975494, -391356.8, -17145.844, 0.0, 5.017452, 4.941611 
2.2579461e+1, 2.6675716e+2, -341309.47, -459169.44, -627.5865, -0.000070232505, -0.0016106446, -341306.13, -15526.469, 0.0, 5.01762, 4.941753 
2.2580262e+1, 2.7169728e+2, -296640.78, -421490.63, -577.9744, -0.00005684683, 0.0017259497, -296638.13, -19271.6, 0.0, 5.0177946, 4.937528 
2.2581102e+1, 2.7663535e+2, -246210.0, -370716.84, -564.71674, -0.000047971476, -0.0018944234, -246207.44, -17233.768, 0.0, 5.0179787, 4.937916 
2.2581974e+1, 2.815716e+2, -201581.67, -333369.63, -507.49176, -0.000051807565, 0.0022203398, -201579.72, -20981.277, 0.0, 5.0181694, 4.933535 
2.2582893e+1, 2.8650573e+2, -150827.08, -281971.38, -489.47653, -0.00006311626, -0.0025778124, -150825.25, -18581.549, 0.0, 5.018372, 4.9341264 
2.2583847e+1, 2.9143754e+2, -107848.6, -248731.56, -424.84732, -0.00007853043, 0.0017050472, -107847.32, -23935.164, 0.0, 5.018582, 4.928244 
2.2584866e+1, 2.963666e+2, -57051.09, -197391.58, -403.2621, -0.00008010434, -0.00042573523, -57049.93, -21442.713, 0.0, 5.0188065, 4.9287915 
2.2585921e+1, 3.0130255e+2, -15512.238, -134404.64, -320.92712, -0.00006608467, 0.0022857478, -15511.372, -15511.372, 0.0, 5.0190387, 4.9424706 
2.2587048e+1, 3.062456e+2, -13736.599, -131515.16, -294.94687, -0.000023145205, -0.005338305, -13735.86, -13735.86, 0.0, 5.0192866, 4.943404 
2.2588211e+1, 3.1120607e+2, 25401.6, -40835.9, -196.2816, 0.000040139923, 0.003939256, 25402.18, 25402.18, 0.0, 5.019543, 4.9765024 
2.2589459e+1, 3.1618366e+2, 27882.555, -36405.797, -163.39458, 0.00019305934, -0.00089347496, 27882.97, 27882.97, 0.0, 5.019816, 4.9780216 
2.7570108e+1, 1.2268825e+2, -1711012.5, -1741172.5, 39.827026, 0.000023935956, 0.001120372, -1711012.5, 26642.814, 0.0, 5.012786, 4.993136 
2.7571538e+1, 1.2768085e+2, -1662834.0, -1694986.9, 19.568594, 0.000032077733, -0.0032308262, -1662834.0, 25893.848, 0.0, 5.013044, 4.992095 
2.7572894e+1, 1.3267203e+2, -1617098.3, -1653721.9, -96.30431, 0.000014999435, 0.0035240788, -1617098.0, 22716.25, 0.0, 5.013288, 4.9893503 
2.7574188e+1, 1.3766111e+2, -1568450.0, -1606504.5, -112.804955, 0.000025910926, -0.0011805635, -1568449.6, 22471.502, 0.0, 5.0135202, 4.9886513 
2.757541e+1, 1.426485e+2, -1523000.4, -1565820.3, -221.24771, 0.0000132761725, 0.0004088119, -1522999.3, 19045.48, 0.0, 5.0137405, 4.9857574 
2.757657e+1, 1.4763442e+2, -1474221.8, -1518271.0, -234.9224, -0.000023512785, -0.0008803914, -1474220.5, 18962.402, 0.0, 5.01395, 4.9851747 
2.7577674e+1, 1.5261841e+2, -1428841.3, -1477733.0, -327.46884, -0.000042958163, 0.0013346162, -1428839.0, 15500.637, 0.0, 5.014149, 4.9822497 
2.757873e+1, 1.5760069e+2, -1380055.0, -1430118.5, -339.1493, -0.00002823762, -0.001254117, -1380052.8, 15460.628, 0.0, 5.0143394, 4.9816875 
2.757974e+1, 1.625812e+2, -1334719.1, -1389681.3, -419.83676, -0.0000145706335, 0.001319782, -1334715.9, 11988.41, 0.0, 5.0145206, 4.9787145 
2.7580702e+1, 1.6755997e+2, -1285862.3, -1341880.4, -428.72525, 0.000004923368, -0.0011308206, -1285859.0, 12053.399, 0.0, 5.014694, 4.9782095 
2.7581632e+1, 1.7253697e+2, -1240595.0, -1301613.1, -494.77414, 0.000010518865, 0.0011881151, -1240591.0, 8546.746, 0.0, 5.0148606, 4.97516 
2.7582526e+1, 1.7751221e+2, -1191684.6, -1253678.8, -509.31592, -0.0000044056505, -0.0011608121, -1191680.4, 8700.026, 0.0, 5.0150204, 4.9746947 
2.758339e+1, 1.8248567e+2, -1146518.1, -1213670.9, -561.51794, -0.000005861041, 0.0012921618, -1146513.5, 5126.9946, 0.0, 5.015175, 4.971542 
2.758423e+1, 1.8745728e+2, -1097560.8, -1165631.1, -562.0294, 0.000015091721, -0.0012624544, -1097556.1, 5362.6787, 0.0, 5.0153246, 4.9711037 
2.7585047e+1, 1.9242719e+2, -1052329.4, -1125546.1, -604.27234, 0.000014410681, 0.0013460269, -1052324.4, 1889.3098, 0.0, 5.0154705, 4.9679537 
2.7585834e+1, 1.973952e+2, -1003311.2, -1077379.5, -610.13904, -0.000004196675, -0.0012724564, -1003306.1, 2220.9277, 0.0, 5.0156116, 4.96755 
2.7586612e+1, 2.0236154e+2, -958089.94, -1037392.3, -637.3594, -0.000016192911, 0.0013310588, -958084.8, -1227.8948, 0.0, 5.0157504, 4.964349 
2.7587375e+1, 2.0732597e+2, -909027.1, -989149.75, -641.95544, -0.000010111393, -0.0013206864, -909021.94, -816.37775, 0.0, 5.015887, 4.96396 
2.7588132e+1, 2.1228871e+2, -863802.0, -949246.6, -654.1603, -0.000008752333, 0.0013944764, -863797.0, -4226.3193, 0.0, 5.0160217, 4.9607034 
2.7588883e+1, 2.1724948e+2, -814676.5, -900901.56, -656.8501, -0.0000022281133, -0.0014163929, -814671.5, -3716.4285, 0.0, 5.0161557, 4.960338 
2.7589637e+1, 2.222086e+2, -769442.1, -861088.56, -657.36365, -0.0000072434136, 0.0014413855, -769437.4, -7081.658, 0.0, 5.0162897, 4.957025 
2.759039e+1, 2.2716571e+2, -720258.44, -812664.44, -658.2435, -0.000015071024, -0.0013770288, -720253.75, -6477.773, 0.0, 5.016424, 4.9566736 
2.7591157e+1, 2.3212114e+2, -675013.6, -772957.4, -642.9709, -0.000025860307, 0.0014886411, -675009.44, -9796.628, 0.0, 5.0165606, 4.953298 
2.7591932e+1, 2.3707454e+2, -625743.8, -724410.1, -641.32086, -0.000025502373, -0.0016346955, -625739.7, -9070.066, 0.0, 5.016699, 4.9529743 
2.7592725e+1, 2.4202625e+2, -580499.3, -684852.25, -614.3218, -0.000040620424, 0.0017215717, -580495.7, -12352.975, 0.0, 5.0168405, 4.9495144 
2.759354e+1, 2.4697587e+2, -531114.4, -636130.7, -609.52783, -0.00005525591, -0.0016660214, -531110.8, -11474.4, 0.0, 5.016986, 4.9492345 
2.759438e+1, 2.519238e+2, -485964.63, -596953.9, -572.35333, -0.000058119283, 0.0017050055, -485961.66, -14814.8, 0.0, 5.017135, 4.945613 
2.7595246e+1, 2.5686958e+2, -436290.22, -547678.0, -564.0751, -0.000067168425, -0.0017018527, -436287.38, -13609.507, 0.0, 5.0172906, 4.9455094 
2.7596143e+1, 2.6181367e+2, -391354.2, -509173.78, -515.5237, -0.00007005988, 0.0016981519, -391351.9, -17125.865, 0.0, 5.0174513, 4.9416175 
2.7597085e+1, 2.6675564e+2, -341303.3, -459151.03, -503.91357, -0.00006238671, -0.0016047749, -341301.16, -15506.486, 0.0, 5.017619, 4.9417596 
2.7598056e+1, 2.7169576e+2, -296633.2, -421468.5, -443.71002, -0.00004922712, 0.0017347588, -296631.63, -19250.168, 0.0, 5.0177937, 4.9375362 
2.7599084e+1, 2.7663383e+2, -246202.48, -370694.34, -429.00806, -0.00004108401, -0.0018853309, -246201.0, -17212.48, 0.0, 5.0179777, 4.9379244 
2.7600142e+1, 2.8157008e+2, -201572.39, -333342.53, -359.97626, -0.000045493744, 0.002233248, -201571.4, -20958.201, 0.0, 5.0181684, 4.933545 
2.7601266e+1, 2.8650424e+2, -150817.67, -281943.56, -339.85645, -0.00005718423, -0.0025550004, -150816.8, -18558.441, 0.0, 5.0183706, 4.934137 
2.760243e+1, 2.9143608e+2, -107839.734, -248704.44, -261.53378, -0.00007339463, 0.0017310923, -107839.25, -23912.537, 0.0, 5.0185804, 4.9282546 
2.760367e+1, 2.9636514e+2, -57042.824, -197365.34, -236.8945, -0.00007496933, -0.0004047935, -57042.426, -21420.746, 0.0, 5.018805, 4.9288015 
2.7604958e+1, 3.013011e+2, -15501.895, -134372.98, -139.92337, -0.00006204009, 0.002303387, -15501.73, -15501.73, 0.0, 5.0190372, 4.9424825 
2.7606335e+1, 3.0624413e+2, -13726.062, -131482.53, -110.26653, -0.000022402342, -0.0053184405, -13725.958, -13725.958, 0.0, 5.019285, 4.9434166 
2.7607754e+1, 3.1120464e+2, 25414.736, -40796.28, 3.1051724, 0.000037409034, 0.0039656796, 25414.736, 25414.736, 0.0, 5.0195413, 4.9765177 
2.7609274e+1, 3.1618226e+2, 27895.568, -36364.348, 40.33072, 0.0001848939, -0.00084570196, 27895.594, 27895.594, 0.0, 5.0198135, 4.978038 
3.2582927e+1, 1.2268661e+2, -1710849.3, -1741140.3, -178.26372, 0.00003484479, 0.0011283148, -1710848.3, 26823.096, 0.0, 5.0128503, 4.993115 
3.2584614e+1, 1.2767918e+2, -1662683.5, -1694961.0, -204.78185, 0.00003946465, -0.0032265922, -1662682.1, 26061.926, 0.0, 5.013104, 4.992074 
3.2586208e+1, 1.3267034e+2, -1616956.5, -1653695.1, -344.91183, 0.000018052195, 0.003533368, -1616953.3, 22877.51, 0.0, 5.0133443, 4.9893317 
3.2587734e+1, 1.3765943e+2, -1568320.6, -1606484.3, -366.95654, 0.000027079845, -0.0011702683, -1568317.1, 22620.643, 0.0, 5.0135727, 4.9886327 
3.2589173e+1, 1.4264679e+2, -1522879.0, -1565800.1, -497.33438, 0.00001623625, 0.00041958698, -1522873.3, 19188.354, 0.0, 5.0137897, 4.98574 
3.259054e+1, 1.4763267e+2, -1474109.9, -1518255.8, -516.09595, -0.000015896649, -0.0008699121, -1474103.8, 19096.066, 0.0, 5.013996, 4.9851575 
3.2591847e+1, 1.5261665e+2, -1428737.8, -1477718.1, -628.422, -0.00003312258, 0.0013453243, -1428729.8, 15627.183, 0.0, 5.0141916, 4.9822345 
3.259309e+1, 1.5759893e+2, -1379962.9, -1430109.1, -644.7304, -0.000017208005, -0.0012434012, -1379954.5, 15576.126, 0.0, 5.014378, 4.9816723 
3.259428e+1, 1.6257942e+2, -1334633.6, -1389670.4, -742.9595, -0.0000057365605, 0.0013318526, -1334623.6, 12098.15, 0.0, 5.0145564, 4.978701 
3.2595414e+1, 1.6755816e+2, -1285785.6, -1341873.9, -756.5447, 0.000008402156, -0.0011159799, -1285775.4, 12154.614, 0.0, 5.0147266, 4.978196 
3.2596508e+1, 1.7253515e+2, -1240535.3, -1301623.0, -835.3844, 0.00001271164, 0.0012050071, -1240523.9, 8631.647, 0.0, 5.014889, 4.9751434 
3.2597557e+1, 1.7751038e+2, -1191638.8, -1253695.1, -848.05273, 0.0000004378953, -0.0011441561, -1191627.3, 8771.177, 0.0, 5.015044, 4.9746776 
3.2598576e+1, 1.8248384e+2, -1146469.5, -1213661.0, -911.882, -0.00000054313375, 0.0013084676, -1146457.1, 5201.4316, 0.0, 5.0151944, 4.971536 
3.2599562e+1, 1.8745543e+2, -1097525.0, -1165627.6, -920.50745, 0.000022054348, -0.0012470979, -1097512.6, 5424.2817, 0.0, 5.01534, 4.971098 
3.2600522e+1, 1.9242533e+2, -1052306.8, -1125551.6, -973.7751, 0.000022755821, 0.0013589934, -1052293.8, 1938.0479, 0.0, 5.0154815, 4.9679465 
3.2601452e+1, 1.9739334e+2, -1003296.2, -1077388.5, -980.6562, 0.0000039108186, -0.001262666, -1003283.2, 2262.0774, 0.0, 5.01562, 4.9675426 
3.2602364e+1, 2.0235968e+2, -958082.25, -1037399.6, -1014.13257, -0.000008379809, 0.0013415996, -958069.3, -1194.1215, 0.0, 5.0157557, 4.9643435 
3.260326e+1, 2.073241e+2, -909032.06, -989162.8, -1019.88824, -0.0000020547993, -0.0013106025, -909019.06, -795.14716, 0.0, 5.0158873, 4.9639554 
3.2604152e+1, 2.1228683e+2, -863815.8, -949258.0, -1035.472, -0.0000017150513, 0.0014007691, -863803.25, -4214.1978, 0.0, 5.016018, 4.960701 
3.2605034e+1, 2.172476e+2, -814703.25, -900918.75, -1038.8976, 0.000003013994, -0.0014095485, -814690.75, -3717.2634, 0.0, 5.016147, 4.9603357 
3.2605922e+1, 2.2220673e+2, -769478.5, -861105.0, -1040.103, -0.000002822989, 0.001448739, -769466.7, -7092.5615, 0.0, 5.0162773, 4.957025 
3.2606807e+1, 2.2716384e+2, -720306.3, -812685.9, -1041.2001, -0.000008733186, -0.0013701604, -720294.56, -6500.1753, 0.0, 5.0164075, 4.9566736 
3.2607704e+1, 2.3211926e+2, -675070.7, -772978.5, -1023.7472, -0.000019427953, 0.0014937979, -675060.0, -9828.818, 0.0, 5.016539, 4.9533005 
3.260862e+1, 2.3707266e+2, -625812.6, -724436.44, -1021.4576, -0.000018208993, -0.0016308323, -625802.06, -9114.068, 0.0, 5.0166736, 4.9529767 
3.260955e+1, 2.4202438e+2, -580577.5, -684878.0, -989.67755, -0.000031668293, 0.0017252403, -580568.06, -12407.025, 0.0, 5.0168104, 4.9495187 
3.2610512e+1, 2.4697402e+2, -531204.4, -636161.6, -983.26337, -0.000045498065, -0.0016612887, -531195.2, -11540.46, 0.0, 5.0169516, 4.9492393 
3.2611495e+1, 2.5192192e+2, -486063.47, -596984.2, -938.48425, -0.000048557165, 0.001708267, -486055.53, -14890.426, 0.0, 5.017097, 4.9456196 
3.2612517e+1, 2.5686777e+2, -436400.3, -547712.94, -927.7053, -0.000056232075, -0.0016991416, -436392.6, -13696.545, 0.0, 5.017248, 4.945516 
3.2613575e+1, 2.6181182e+2, -391472.9, -509208.63, -869.3649, -0.00005786405, 0.0017021137, -391466.5, -17222.32, 0.0, 5.0174046, 4.941626 
3.2614678e+1, 2.6675382e+2, -341431.66, -459189.3, -854.09265, -0.000050904357, -0.0015967877, -341425.47, -15612.759, 0.0, 5.017569, 4.941768 
3.2615826e+1, 2.7169394e+2, -296769.78, -421506.66, -781.8038, -0.000038011578, 0.0017459276, -296764.9, -19365.49, 0.0, 5.01774, 4.9375463 
3.2617033e+1, 2.76632e+2, -246348.33, -370735.8, -762.4897, -0.000030118665, -0.0018726401, -246343.64, -17337.273, 0.0, 5.01792, 4.937935 
3.261828e+1, 2.8156826e+2, -201725.19, -333382.22, -679.5127, -0.00003511233, 0.0022495207, -201721.67, -21090.729, 0.0, 5.0181074, 4.9335575 
3.2619607e+1, 2.8650245e+2, -150978.63, -281985.75, -653.44415, -0.00004711633, -0.0025322519, -150975.36, -18699.393, 0.0, 5.0183063, 4.9341497 
3.2620978e+1, 2.9143426e+2, -108009.6, -248751.22, -559.3003, -0.00006305366, 0.0017561375, -108007.38, -24063.176, 0.0, 5.018513, 4.928267 
3.2622445e+1, 2.9636338e+2, -57220.508, -197415.97, -528.1436, -0.00006260501, -0.00038179784, -57218.52, -21579.463, 0.0, 5.0187345, 4.9288135 
3.2623962e+1, 3.012993e+2, -15683.021, -134418.83, -409.10254, -0.00005164601, 0.0023238976, -15681.611, -15681.611, 0.0, 5.018964, 4.9424973 
3.262558e+1, 3.062424e+2, -13912.698, -131529.52, -371.22452, -0.000020232075, -0.005300644, -13911.527, -13911.527, 0.0, 5.0192094, 4.943432 
3.2627255e+1, 3.112029e+2, 25228.168, -40834.97, -229.76256, 0.000030141242, 0.0039862967, 25228.967, 25228.967, 0.0, 5.0194635, 4.9765368 
3.2629043e+1, 3.1618053e+2, 27705.172, -36402.563, -182.43861, 0.00016429348, -0.0007989594, 27705.691, 27705.691, 0.0, 5.019734, 4.9780574 
3.7595776e+1, 1.226847e+2, -1710884.5, -1741214.3, 12.4864025, 0.000044192777, 0.0011370335, -1710884.5, 26805.566, 0.0, 5.0128508, 4.99309 
3.7597716e+1, 1.2767725e+2, -1662718.5, -1695035.1, -15.003169, 0.000046024958, -0.0032201284, -1662718.5, 26044.55, 0.0, 5.013105, 4.992049 
3.7599555e+1, 1.3266839e+2, -1616987.4, -1653760.8, -173.86052, 0.00002034503, 0.0035453439, -1616986.5, 22863.354, 0.0, 5.013345, 4.98931 
3.7601307e+1, 1.3765743e+2, -1568351.6, -1606550.0, -196.56862, 0.000028410948, -0.0011597117, -1568350.6, 22606.598, 0.0, 5.013573, 4.9886107 
3.760296e+1, 1.426448e+2, -1522907.1, -1565860.5, -343.48584, 0.000019971481, 0.0004301697, -1522904.4, 19176.732, 0.0, 5.01379, 4.98572 
3.7604538e+1, 1.4763066e+2, -1474137.9, -1518315.9, -362.83765, -0.000005659013, -0.00085858395, -1474135.0, 19084.703, 0.0, 5.0139966, 4.9851375 
3.7606037e+1, 1.5261462e+2, -1428763.1, -1477772.6, -490.14224, -0.000019952386, 0.0013573884, -1428758.3, 15618.625, 0.0, 5.014192, 4.982216 
3.760747e+1, 1.5759686e+2, -1379988.0, -1430163.4, -506.71796, -0.000006264709, -0.0012312697, -1379983.0, 15567.89, 0.0, 5.0143785, 4.981654 
3.7608838e+1, 1.6257735e+2, -1334656.0, -1389718.6, -617.19434, 0.0000009703652, 0.0013455581, -1334649.1, 12093.016, 0.0, 5.0145564, 4.9786844 
3.761014e+1, 1.6755609e+2, -1285808.0, -1341922.0, -631.0996, 0.000009186899, -0.0011001333, -1285800.9, 12149.547, 0.0, 5.0147266, 4.97818 
3.7611398e+1, 1.7253307e+2, -1240557.1, -1301669.8, -721.4584, 0.000012273728, 0.001221511, -1240548.6, 8627.488, 0.0, 5.0148892, 4.9751277 
3.7612602e+1, 1.7750825e+2, -1191660.5, -1253741.6, -733.9849, 0.000005047279, -0.0011298237, -1191651.9, 8767.326, 0.0, 5.015044, 4.974662 
3.7613773e+1, 1.824817e+2, -1146484.6, -1213693.5, -805.7074, 0.0000062342897, 0.001323281, -1146474.9, 5204.4863, 0.0, 5.0151944, 4.971525 
3.7614906e+1, 1.8745328e+2, -1097540.3, -1165660.1, -814.62195, 0.00002924822, -0.0012308157, -1097530.5, 5427.379, 0.0, 5.01534, 4.971087 
3.7616006e+1, 1.9242316e+2, -1052317.6, -1125574.8, -872.9523, 0.000029049825, 0.0013706887, -1052307.3, 1945.704, 0.0, 5.0154815, 4.967939 
3.7617072e+1, 1.9739117e+2, -1003307.3, -1077411.6, -880.0134, 0.000010001574, -0.0012538795, -1003296.9, 2269.594, 0.0, 5.0156198, 4.967535 
3.7618122e+1, 2.0235752e+2, -958090.6, -1037416.44, -918.59375, -0.0000011198457, 0.001355267, -958080.0, -1183.5546, 0.0, 5.015755, 4.9643383 
3.761915e+1, 2.0732191e+2, -909040.4, -989179.25, -924.4586, 0.0000030260524, -0.0012974995, -909029.75, -784.50946, 0.0, 5.015887, 4.9639497 
3.7620172e+1, 2.1228465e+2, -863820.6, -949266.4, -942.1177, 0.0000020952962, 0.0014073772, -863810.2, -4199.7944, 0.0, 5.0160174, 4.9606986 
3.7621185e+1, 2.1724543e+2, -814708.2, -900926.94, -945.7678, 0.0000062427343, -0.0014018937, -814697.8, -3702.9302, 0.0, 5.0161467, 4.9603333 
3.76222e+1, 2.2220455e+2, -769480.25, -861105.9, -946.3192, -0.0000018360814, 0.0014579662, -769470.44, -7074.926, 0.0, 5.0162764, 4.957025 
3.7623215e+1, 2.2716165e+2, -720308.06, -812686.5, -947.4847, -0.0000036335575, -0.0013622701, -720298.3, -6482.551, 0.0, 5.0164065, 4.956674 
3.7624246e+1, 2.321171e+2, -675069.6, -772972.44, -927.3475, -0.000012880246, 0.0014991597, -675060.8, -9808.256, 0.0, 5.0165386, 4.953303 
3.7625295e+1, 2.3707049e+2, -625811.7, -724430.3, -924.94183, -0.00001042586, -0.0016266631, -625803.0, -9093.652, 0.0, 5.0166726, 4.952979 
3.7626365e+1, 2.4202222e+2, -580573.6, -684864.94, -888.3358, -0.000020905369, 0.001730668, -580566.06, -12383.671, 0.0, 5.0168095, 4.949524 
3.7627465e+1, 2.4697185e+2, -531200.6, -636148.3, -881.56647, -0.00003421883, -0.0016551994, -531193.25, -11517.256, 0.0, 5.0169506, 4.9492445 
3.7628594e+1, 2.5191978e+2, -486057.0, -596964.2, -829.77045, -0.000036677186, 0.0017124814, -486050.8, -14864.482, 0.0, 5.017096, 4.9456267 
3.7629768e+1, 2.568656e+2, -436394.1, -547692.8, -818.4117, -0.00004099459, -0.0016940575, -436388.1, -13670.903, 0.0, 5.017247, 4.9455237 
3.763098e+1, 2.6180965e+2, -391464.47, -509182.88, -751.1908, -0.000042393793, 0.001707965, -391459.7, -17194.465, 0.0, 5.0174036, 4.9416356 
3.7632248e+1, 2.6675168e+2, -341423.2, -459162.8, -734.81683, -0.00003798843, -0.0015883603, -341418.6, -15584.951, 0.0, 5.0175676, 4.941778 
3.7633565e+1, 2.716918e+2, -296759.5, -421475.2, -651.9526, -0.000025457013, 0.0017576701, -296756.06, -19335.828, 0.0, 5.017738, 4.937558 
3.7634954e+1, 2.766299e+2, -246338.05, -370703.63, -631.07, -0.000017563027, -0.0018583012, -246334.84, -17307.746, 0.0, 5.017918, 4.937947 
3.763639e+1, 2.8156617e+2, -201712.48, -333343.56, -536.17053, -0.000023420667, 0.0022671542, -201710.3, -21058.75, 0.0, 5.0181055, 4.9335723 
3.7637913e+1, 2.8650036e+2, -150965.9, -281946.2, -507.92035, -0.00003566961, -0.0025117474, -150963.94, -18667.516, 0.0, 5.0183043, 4.9341645 
3.7639493e+1, 2.914322e+2, -107998.04, -248713.38, -399.83368, -0.00004992819, 0.0017779313, -107996.9, -24032.389, 0.0, 5.018511, 4.9282813 
3.764118e+1, 2.963613e+2, -57209.938, -197379.5, -365.52448, -0.000045788704, -0.00035908812, -57208.984, -21549.758, 0.0, 5.018732, 4.928828 
3.7642926e+1, 3.0129728e+2, -15669.371, -134374.22, -231.57278, -0.000038055405, 0.0023445175, -15668.92, -15668.92, 0.0, 5.0189614, 4.9425144 
3.7644792e+1, 3.0624038e+2, -13898.688, -131483.23, -189.81422, -0.000019920608, -0.0052868496, -13898.382, -13898.382, 0.0, 5.019207, 4.94345 
3.7646717e+1, 3.1120092e+2, 25246.11, -40778.47, -33.489174, 0.000012870324, 0.003999732, 25246.125, 25246.125, 0.0, 5.0194607, 4.9765587 
3.7648773e+1, 3.1617856e+2, 27723.398, -36343.563, 18.18317, 0.00011803407, -0.00075752893, 27723.404, 27723.404, 0.0, 5.019731, 4.9780807 
4.2608672e+1, 1.2268253e+2, -1710670.4, -1741172.0, -203.54327, 0.000054159034, 0.0011445226, -1710669.0, 27042.404, 0.0, 5.0129356, 4.9930625 
4.2610863e+1, 1.2767504e+2, -1662519.9, -1695001.1, -237.04243, 0.000051661515, -0.0032145826, -1662518.1, 26266.496, 0.0, 5.0131845, 4.9920216 
4.2612937e+1, 1.3266616e+2, -1616799.5, -1653725.8, -420.1011, 0.000022635693, 0.0035553235, -1616794.6, 23077.113, 0.0, 5.0134196, 4.989285 
4.2614913e+1, 1.3765518e+2, -1568179.1, -1606522.9, -448.40625, 0.000027721173, -0.0011500412, -1568173.9, 22805.395, 0.0, 5.0136433, 4.9885855 
4.2616788e+1, 1.426425e+2, -1522746.3, -1565834.3, -616.65936, 0.000022749895, 0.0004406643, -1522737.5, 19366.07, 0.0, 5.013855, 4.9856973 
4.261857e+1, 1.4762835e+2, -1473990.4, -1518296.5, -640.86914, 0.0000051239904, -0.00084702304, -1473981.1, 19261.113, 0.0, 5.014057, 4.985114 
4.262026e+1, 1.5261228e+2, -1428626.0, -1477753.6, -787.98175, -0.000007394618, 0.0013704759, -1428613.4, 15786.321, 0.0, 5.0142484, 4.9821954 
4.2621875e+1, 1.5759452e+2, -1379864.8, -1430151.1, -808.81244, 0.0000025218085, -0.0012180548, -1379851.8, 15722.055, 0.0, 5.01443, 4.981633 
4.2623416e+1, 1.6257498e+2, -1334545.8, -1389706.5, -936.2651, 0.0000058105747, 0.0013596446, -1334529.9, 12235.452, 0.0, 5.0146027, 4.978667 
4.262489e+1, 1.675537e+2, -1285717.0, -1341919.4, -953.24255, 0.000009215907, -0.0010850321, -1285700.8, 12273.062, 0.0, 5.014766, 4.978162 
4.2626303e+1, 1.7253065e+2, -1240481.1, -1301675.0, -1058.3075, 0.000009625271, 0.0012370279, -1240462.9, 8736.83, 0.0, 5.0149236, 4.9751096 
4.2627662e+1, 1.7750584e+2, -1191596.6, -1253752.5, -1074.7667, 0.0000061563396, -0.0011160227, -1191578.0, 8864.927, 0.0, 5.0150747, 4.9746437 
4.262898e+1, 1.8247926e+2, -1146427.4, -1213694.9, -1158.2119, 0.000010943164, 0.001337298, -1146407.5, 5295.891, 0.0, 5.01522, 4.9715123 
4.2630255e+1, 1.8745084e+2, -1097495.9, -1165667.4, -1169.7327, 0.000030686177, -0.0012151989, -1097475.9, 5506.121, 0.0, 5.015361, 4.9710746 
4.2631495e+1, 1.9242072e+2, -1052283.1, -1125579.1, -1237.0906, 0.000027234235, 0.0013845082, -1052262.3, 2014.8265, 0.0, 5.0154977, 4.96793 
4.26327e+1, 1.9738872e+2, -1003291.9, -1077425.6, -1246.5233, 0.000009848561, -0.0012392579, -1003270.94, 2319.7935, 0.0, 5.01563, 4.9675255 
4.2633876e+1, 2.0235503e+2, -958087.3, -1037428.8, -1292.4216, 0.00000019527792, 0.0013717089, -958066.25, -1145.4882, 0.0, 5.0157595, 4.964332 
4.2635036e+1, 2.0731942e+2, -909051.6, -989198.06, -1299.5652, 0.0000037444418, -0.0012836581, -909030.56, -760.97473, 0.0, 5.015886, 4.963944 
4.2636186e+1, 2.1228217e+2, -863843.6, -949283.9, -1320.8329, -0.00000055792736, 0.0014195668, -863823.25, -4188.3994, 0.0, 5.016011, 4.9606953 
4.2637324e+1, 2.1724294e+2, -814745.94, -900951.0, -1325.3899, 0.0000022912006, -0.0013901648, -814725.56, -3706.2166, 0.0, 5.016135, 4.9603305 
4.2638466e+1, 2.2220205e+2, -769529.25, -861128.56, -1326.3981, -0.0000047367103, 0.0014673092, -769510.06, -7090.0337, 0.0, 5.016259, 4.957025 
4.263961e+1, 2.2715916e+2, -720371.25, -812715.44, -1327.76, -0.000004027462, -0.00135407, -720352.2, -6511.9014, 0.0, 5.0163846, 4.956674 
4.264077e+1, 2.321146e+2, -675143.8, -773000.0, -1305.7931, -0.000011586323, 0.001506902, -675126.4, -9849.354, 0.0, 5.016511, 4.9533057 
4.2641953e+1, 2.37068e+2, -625900.75, -724464.3, -1302.7269, -0.0000072681546, -0.0016192443, -625883.56, -9149.767, 0.0, 5.0166397, 4.9529824 
4.2643154e+1, 2.4201971e+2, -580674.06, -684897.5, -1261.3616, -0.000014884426, 0.001737477, -580658.8, -12452.019, 0.0, 5.0167713, 4.9495296 
4.2644393e+1, 2.4696936e+2, -531315.8, -636187.06, -1252.9657, -0.000026254495, -0.0016473104, -531300.9, -11600.534, 0.0, 5.0169067, 4.94925 
4.264567e+1, 2.519173e+2, -486183.3, -597001.56, -1193.5322, -0.000026642736, 0.0017208292, -486170.44, -14959.858, 0.0, 5.017047, 4.945636 
4.264699e+1, 2.5686312e+2, -436534.13, -547735.8, -1179.5542, -0.000028186227, -0.0016843312, -436521.63, -13780.261, 0.0, 5.017193, 4.945533 
4.2648354e+1, 2.6180723e+2, -391615.06, -509224.9, -1102.0925, -0.000028579636, 0.0017178085, -391604.75, -17315.44, 0.0, 5.017344, 4.941647 
4.2649785e+1, 2.6674923e+2, -341586.8, -459209.66, -1082.0093, -0.000025072768, -0.0015778651, -341576.88, -15719.247, 0.0, 5.0175033, 4.94179 
4.265127e+1, 2.716894e+2, -296933.94, -421521.78, -986.83234, -0.00001420647, 0.0017703311, -296926.13, -19482.031, 0.0, 5.0176687, 4.9375725 
4.2652836e+1, 2.7662748e+2, -246524.81, -370754.5, -961.06366, -0.0000071609406, -0.0018429436, -246517.38, -17466.566, 0.0, 5.017844, 4.937961 
4.2654458e+1, 2.815638e+2, -201908.81, -333392.4, -851.98944, -0.000012645126, 0.0022844677, -201903.3, -21228.18, 0.0, 5.0180264, 4.933589 
4.2656177e+1, 2.8649798e+2, -151173.4, -281998.6, -817.72186, -0.000023912125, -0.0024939307, -151168.3, -18848.48, 0.0, 5.018221, 4.934182 
4.265796e+1, 2.9142985e+2, -108217.98, -248772.36, -693.5689, -0.000036128054, 0.0017964153, -108214.555, -24226.81, 0.0, 5.018423, 4.9282985 
4.2659867e+1, 2.9635894e+2, -57441.047, -197443.89, -652.36975, -0.000028455002, -0.00033911478, -57438.008, -21755.71, 0.0, 5.01864, 4.928844 
4.266184e+1, 3.0129495e+2, -15906.602, -134433.11, -496.13907, -0.000023157882, 0.0023633775, -15904.525, -15904.525, 0.0, 5.018865, 4.9425344 
4.2663944e+1, 3.0623806e+2, -14145.547, -131544.56, -446.18237, -0.000019040837, -0.005273578, -14143.852, -14143.852, 0.0, 5.019107, 4.9434705 
4.2666122e+1, 3.1119862e+2, 24997.652, -40828.41, -261.70236, -0.0000049045625, 0.0040099933, 24998.693, 24998.693, 0.0, 5.0193567, 4.976585 
4.2668447e+1, 3.161763e+2, 27467.344, -36393.813, -199.54922, 0.00006605753, -0.00072740193, 27467.969, 27467.969, 0.0, 5.0196233, 4.978108 
4.7621608e+1, 1.2268008e+2, -1710714.3, -1741265.6, -17.383188, 0.00006143978, 0.0011515719, -1710714.3, 27021.055, 0.0, 5.012936, 4.9930315 
4.7624046e+1, 1.2767258e+2, -1662563.8, -1695094.8, -51.729824, 0.00005427398, -0.0032097124, -1662563.6, 26245.256, 0.0, 5.013185, 4.99199 
4.7626355e+1, 1.3266365e+2, -1616838.9, -1653810.5, -253.71117, 0.000023138506, 0.0035635517, -1616837.1, 23059.2, 0.0, 5.0134206, 4.9892564 
4.7628555e+1, 1.3765265e+2, -1568218.5, -1606607.4, -282.81195, 0.000023345796, -0.0011410193, -1568216.4, 22787.738, 0.0, 5.0136437, 4.9885573 
4.763064e+1, 1.4263995e+2, -1522781.9, -1565911.3, -467.09268, 0.000023011777, 0.00045109735, -1522776.9, 19351.75, 0.0, 5.013856, 4.9856715 
4.7632626e+1, 1.4762577e+2, -1474026.0, -1518373.3, -491.826, 0.000014831539, -0.00083521794, -1474020.5, 19247.049, 0.0, 5.0140576, 4.9850883 
4.763451e+1, 1.5260968e+2, -1428658.1, -1477823.4, -654.2102, 0.0000029621942, 0.0013845288, -1428649.5, 15775.744, 0.0, 5.014249, 4.9821715 
4.7636306e+1, 1.575919e+2, -1379896.9, -1430220.5, -675.4114, 0.000007762276, -0.0012039458, -1379887.9, 15711.823, 0.0, 5.0144305, 4.98161 
4.763802e+1, 1.6257232e+2, -1334573.0, -1389765.9, -816.5388, 0.000007487153, 0.0013738958, -1334561.0, 12230.349, 0.0, 5.014603, 4.9786468 
4.7639656e+1, 1.6755103e+2, -1285744.4, -1341978.6, -833.5959, 0.000007148818, -0.001070776, -1285732.0, 12268.053, 0.0, 5.0147667, 4.978142 
4.7641227e+1, 1.7252797e+2, -1240509.8, -1301736.8, -948.5801, 0.0000034002971, 0.0012514902, -1240495.1, 8730.974, 0.0, 5.014924, 4.9750886 
4.7642735e+1, 1.7750312e+2, -1191625.1, -1253813.8, -965.4362, 0.0000023328168, -0.0011028798, -1191610.1, 8859.419, 0.0, 5.0150747, 4.974623 
4.7644198e+1, 1.8247654e+2, -1146447.1, -1213737.4, -1056.6833, 0.000012195925, 0.0013502275, -1146430.6, 5299.534, 0.0, 5.01522, 4.971498 
4.7645614e+1, 1.8744808e+2, -1097515.4, -1165708.9, -1068.0762, 0.000025036878, -0.001200648, -1097498.6, 5510.2236, 0.0, 5.015361, 4.9710603 
4.764699e+1, 1.9241795e+2, -1052298.4, -1125611.1, -1142.3961, 0.000015939648, 0.0013998684, -1052280.6, 2023.571, 0.0, 5.0154977, 4.967919 
4.7648326e+1, 1.9738594e+2, -1003307.9, -1077458.6, -1151.8954, 0.0000018641724, -0.0012197446, -1003289.94, 2327.9119, 0.0, 5.0156293, 4.9675145 
4.7649634e+1, 2.0235226e+2, -958097.94, -1037449.9, -1202.0323, -0.0000062556774, 0.0013897563, -958079.75, -1131.772, 0.0, 5.015759, 4.964325 
4.765092e+1, 2.0731665e+2, -909062.4, -989218.75, -1209.5726, -0.0000018748353, -0.0012701463, -909044.1, -747.2262, 0.0, 5.0158854, 4.9639373 
4.7652194e+1, 2.1227938e+2, -863850.44, -949295.4, -1232.7959, -0.0000117928585, 0.001436348, -863832.6, -4170.4414, 0.0, 5.0160103, 4.960692 
4.7653458e+1, 2.1724014e+2, -814752.8, -900962.2, -1237.6492, -0.000011093946, -0.0013753604, -814735.06, -3688.3274, 0.0, 5.0161343, 4.960327 
4.7654724e+1, 2.2219925e+2, -769532.25, -861130.75, -1237.9175, -0.000013863424, 0.0014757421, -769515.5, -7068.116, 0.0, 5.0162582, 4.957025 
4.7655994e+1, 2.2715637e+2, -720374.44, -812717.4, -1239.2438, -0.0000121731755, -0.0013465484, -720357.8, -6490.121, 0.0, 5.016383, 4.956674 
4.765728e+1, 2.321118e+2, -675143.06, -772992.8, -1214.8868, -0.000017615625, 0.0015159518, -675128.0, -9823.577, 0.0, 5.01651, 4.953309 
4.7658592e+1, 2.370652e+2, -625900.2, -724456.9, -1211.6509, -0.000010478502, -0.0016097898, -625885.25, -9124.146, 0.0, 5.0166383, 4.9529853 
4.7659928e+1, 2.4201694e+2, -580669.56, -684880.7, -1165.592, -0.000015212408, 0.001744365, -580656.56, -12422.447, 0.0, 5.01677, 4.9495363 
4.7661301e+1, 2.4696659e+2, -531311.56, -636169.94, -1156.8091, -0.000023323015, -0.0016390734, -531298.8, -11571.224, 0.0, 5.0169053, 4.949257 
4.7662717e+1, 2.5191453e+2, -486175.56, -596975.9, -1090.1978, -0.000020216714, 0.001731653, -486164.84, -14927.076, 0.0, 5.017045, 4.9456453 
4.766418e+1, 2.5686038e+2, -436526.47, -547709.44, -1075.6187, -0.000019550003, -0.0016719243, -436516.06, -13747.635, 0.0, 5.017191, 4.945543 
4.76657e+1, 2.6180446e+2, -391604.47, -509190.9, -989.1387, -0.000018194538, 0.0017296035, -391596.16, -17279.871, 0.0, 5.017342, 4.94166 
4.766729e+1, 2.667465e+2, -341576.38, -459175.0, -968.0253, -0.000013953688, -0.0015671402, -341568.4, -15683.943, 0.0, 5.0175014, 4.9418035 
4.7668937e+1, 2.7168664e+2, -296921.06, -421480.44, -862.1751, -0.0000060466823, 0.0017820209, -296915.1, -19444.285, 0.0, 5.0176663, 4.9375877 
4.767068e+1, 2.7662477e+2, -246512.02, -370712.25, -834.7472, -0.0000007195229, -0.0018286628, -246506.4, -17429.053, 0.0, 5.017842, 4.9379773 
4.7672486e+1, 2.815611e+2, -201893.16, -333342.3, -713.63837, -0.000004800459, 0.0022995248, -201889.28, -21187.8, 0.0, 5.018024, 4.933608 
4.7674397e+1, 2.864953e+2, -151157.92, -281947.53, -677.05927, -0.000013974677, -0.0024805048, -151154.42, -18808.414, 0.0, 5.018218, 4.9342012 
4.7676384e+1, 2.914272e+2, -108204.0, -248723.38, -538.8501, -0.000024127608, 0.0018097296, -108201.93, -24188.195, 0.0, 5.0184197, 4.928317 
4.767851e+1, 2.9635632e+2, -57428.37, -197396.48, -494.42102, -0.000013223223, -0.00032357097, -57426.625, -21718.52, 0.0, 5.0186367, 4.9288626 
4.7680706e+1, 3.0129233e+2, -15890.546, -134376.31, -323.25876, -0.000010145801, 0.002378495, -15889.664, -15889.664, 0.0, 5.0188613, 4.942557 
4.768305e+1, 3.0623546e+2, -14129.271, -131485.78, -269.20703, -0.000021015401, -0.0052630748, -14128.654, -14128.654, 0.0, 5.0191026, 4.9434934 
4.7685474e+1, 3.1119606e+2, 25019.81, -40754.418, -69.45111, -0.000027697703, 0.0040153335, 25019.885, 25019.885, 0.0, 5.0193524, 4.976614 
4.768806e+1, 3.1617376e+2, 27490.346, -36315.91, -2.9167488, 0.0000007699008, -0.0007109258, 27490.346, 27490.346, 0.0, 5.0196185, 4.978139 
5.2634597e+1, 1.2267738e+2, -1710449.9, -1741213.9, -230.39622, 0.00006780254, 0.0011610703, -1710448.1, 27313.688, 0.0, 5.013041, 4.9929967 
5.2637285e+1, 1.2766983e+2, -1662316.4, -1695051.6, -270.7834, 0.000055811688, -0.003201717, -1662314.3, 26521.602, 0.0, 5.013284, 4.9919558 
5.2639824e+1, 1.3266088e+2, -1616604.8, -1653767.4, -497.16776, 0.00002236277, 0.003573879, -1616598.0, 23325.477, 0.0, 5.013514, 4.989225 
5.2642244e+1, 1.3764983e+2, -1568002.6, -1606573.6, -531.878, 0.00001823155, -0.0011296715, -1567995.3, 23036.328, 0.0, 5.0137315, 4.988526 
5.264454e+1, 1.4263712e+2, -1522579.6, -1565877.8, -737.29877, 0.00002130624, 0.00046319998, -1522567.0, 19589.412, 0.0, 5.0139375, 4.985643 
5.264672e+1, 1.4762291e+2, -1473841.5, -1518348.8, -766.8453, 0.000021788897, -0.00082354015, -1473828.3, 19467.385, 0.0, 5.014134, 4.9850597 
5.2648795e+1, 1.526068e+2, -1428488.0, -1477799.4, -949.0657, 0.00001130993, 0.0013968219, -1428469.8, 15983.84, 0.0, 5.014319, 4.9821463 
5.265077e+1, 1.5758896e+2, -1379745.5, -1430205.6, -974.0559, 0.000011079808, -0.0011918016, -1379726.8, 15901.591, 0.0, 5.0144944, 4.981584 
5.265265e+1, 1.6256939e+2, -1334435.9, -1389750.6, -1133.1122, 0.000005402577, 0.0013858584, -1334412.6, 12407.559, 0.0, 5.0146604, 4.9786243 
5.2654445e+1, 1.6754806e+2, -1285626.6, -1341972.9, -1153.8169, 0.000000040814164, -0.0010590113, -1285603.0, 12426.178, 0.0, 5.0148177, 4.9781194 
5.265617e+1, 1.7252497e+2, -1240412.1, -1301742.6, -1282.5836, -0.0000064099368, 0.001262931, -1240385.4, 8870.043, 0.0, 5.0149684, 4.975065 
5.265783e+1, 1.7750011e+2, -1191545.3, -1253828.1, -1303.284, -0.000005881236, -0.0010922203, -1191518.0, 8981.036, 0.0, 5.0151134, 4.9746 
5.2659434e+1, 1.824735e+2, -1146375.4, -1213739.1, -1406.1582, 0.0000050946373, 0.0013619735, -1146346.1, 5413.7754, 0.0, 5.0152526, 4.9714823 
5.266099e+1, 1.8744504e+2, -1097462.4, -1165719.3, -1419.6217, 0.000010144958, -0.0011882758, -1097432.9, 5605.908, 0.0, 5.0153866, 4.971045 
5.26625e+1, 1.9241488e+2, -1052260.1, -1125620.3, -1504.1427, -0.000001989954, 0.0014134537, -1052229.3, 2104.9026, 0.0, 5.0155168, 4.967907 
5.266396e+1, 1.9738287e+2, -1003289.56, -1077476.8, -1515.4863, -0.000011423081, -0.0012042882, -1003258.6, 2389.3938, 0.0, 5.015641, 4.967503 
5.26654e+1, 2.0234917e+2, -958094.3, -1037465.8, -1571.5521, -0.000019358251, 0.0014050723, -958063.2, -1084.9326, 0.0, 5.0157638, 4.9643173 
5.266681e+1, 2.0731355e+2, -909077.94, -989243.5, -1580.8188, -0.000016029808, -0.0012567284, -909046.75, -719.5272, 0.0, 5.0158834, 4.963929 
5.2668196e+1, 2.1227628e+2, -863879.94, -949318.2, -1608.0648, -0.000026876889, 0.0014502219, -863849.7, -4157.0845, 0.0, 5.016002, 4.960688 
5.2669585e+1, 2.1723703e+2, -814800.7, -900993.2, -1613.969, -0.000027640514, -0.0013618756, -814770.44, -3693.3062, 0.0, 5.0161195, 4.9603233 
5.2670974e+1, 2.2219613e+2, -769593.2, -861159.44, -1614.7782, -0.000030598458, 0.0014866267, -769564.7, -7086.838, 0.0, 5.0162373, 4.957025 
5.267236e+1, 2.2715326e+2, -720453.0, -812753.94, -1616.1155, -0.000026669877, -0.0013355319, -720424.7, -6526.5703, 0.0, 5.016356, 4.956674 
5.267377e+1, 2.3210868e+2, -675235.1, -773026.94, -1589.8992, -0.000029019755, 0.0015269758, -675209.3, -9874.42, 0.0, 5.0164757, 4.9533124 
5.2675205e+1, 2.3706208e+2, -626010.2, -724498.8, -1585.8649, -0.00002093049, -0.00159718, -625984.6, -9193.101, 0.0, 5.0165977, 4.952989 
5.267667e+1, 2.4201384e+2, -580792.4, -684919.8, -1534.9862, -0.000023760773, 0.0017558933, -580769.75, -12505.295, 0.0, 5.016723, 4.949544 
5.267818e+1, 2.4696349e+2, -531451.94, -636216.44, -1524.5388, -0.0000271132, -0.0016273181, -531429.75, -11671.893, 0.0, 5.016852, 4.949265 
5.267973e+1, 2.5191143e+2, -486329.3, -597020.5, -1450.0533, -0.000020692809, 0.0017443732, -486310.3, -15042.344, 0.0, 5.0169854, 4.945657 
5.268134e+1, 2.568573e+2, -436696.53, -547760.4, -1432.9272, -0.000017909799, -0.0016573905, -436678.06, -13879.52, 0.0, 5.017125, 4.9455543 
5.268301e+1, 2.6180142e+2, -391787.22, -509240.22, -1336.273, -0.000014375459, 0.0017435472, -391772.03, -17425.783, 0.0, 5.01727, 4.9416747 
5.268475e+1, 2.6674345e+2, -341775.13, -459230.25, -1311.503, -0.0000099769395, -0.0015563382, -341760.47, -15846.173, 0.0, 5.0174227, 4.941818 
5.268656e+1, 2.7168363e+2, -297132.97, -421535.16, -1193.2687, -0.00000510062, 0.0017933535, -297121.53, -19621.043, 0.0, 5.017582, 4.937606 
5.268848e+1, 2.7662176e+2, -246739.06, -370772.34, -1161.0348, -0.0000016688252, -0.0018131981, -246728.19, -17621.34, 0.0, 5.017751, 4.937996 
5.269046e+1, 2.815581e+2, -202131.98, -333399.75, -1025.7856, -0.0000048571883, 0.0023148374, -202123.97, -21393.18, 0.0, 5.0179276, 4.9336295 
5.269256e+1, 2.8649235e+2, -151411.36, -282009.75, -983.0156, -0.000010677487, -0.002470423, -151403.97, -19028.86, 0.0, 5.0181155, 4.9342237 
5.269475e+1, 2.914242e+2, -108473.586, -248794.17, -828.52075, -0.000017092434, 0.0018184324, -108468.695, -24426.068, 0.0, 5.018312, 4.9283385 
5.2697086e+1, 2.963534e+2, -57712.51, -197474.22, -777.23975, -0.0000032094201, -0.00030889024, -57708.19, -21971.402, 0.0, 5.018523, 4.9288836 
5.2699506e+1, 3.0128944e+2, -16183.256, -134447.78, -583.94135, -0.0000018536876, 0.0023945984, -16180.373, -16180.373, 0.0, 5.018742, 4.9425817 
5.2702093e+1, 3.062326e+2, -14435.628, -131560.9, -521.2238, -0.000024743264, -0.005254797, -14433.308, -14433.308, 0.0, 5.018978, 4.9435196 
5.270476e+1, 3.111932e+2, 24709.867, -40815.234, -293.04468, -0.000049376944, 0.0040152813, 24711.178, 24711.178, 0.0, 5.0192227, 4.976647 
5.27076e+1, 3.1617096e+2, 27169.383, -36377.348, -216.35231, -0.00005918662, -0.0007039286, 27170.12, 27170.12, 0.0, 5.019484, 4.9781737 
5.7647634e+1, 1.22674406e+2, -1710502.9, -1741327.8, -49.17235, 0.00007035695, 0.0011731855, -1710502.8, 27288.193, 0.0, 5.013042, 4.992959 
5.7650566e+1, 1.2766683e+2, -1662368.8, -1695164.6, -90.34539, 0.000053981028, -0.003190737, -1662368.5, 26496.748, 0.0, 5.0132856, 4.991918 
5.765334e+1, 1.3265784e+2, -1616652.4, -1653871.0, -336.12628, 0.000018172092, 0.0035861607, -1616649.4, 23303.973, 0.0, 5.013515, 4.98919 
5.765598e+1, 1.3764678e+2, -1568050.3, -1606677.1, -371.5272, 0.000010333325, -0.0011162626, -1568046.6, 23015.117, 0.0, 5.0137324, 4.988491 
5.7658476e+1, 1.42634e+2, -1522622.4, -1565971.1, -593.0404, 0.00001580131, 0.00047682456, -1522614.3, 19572.682, 0.0, 5.0139384, 4.9856114 
5.7660854e+1, 1.4761977e+2, -1473884.3, -1518442.0, -623.18616, 0.000024275823, -0.00081197737, -1473875.5, 19450.926, 0.0, 5.014135, 4.9850283 
5.766311e+1, 1.5260363e+2, -1428525.9, -1477882.5, -821.04016, 0.000015958967, 0.0014073941, -1428512.3, 15972.399, 0.0, 5.01432, 4.982118 
5.7665265e+1, 1.5758577e+2, -1379783.4, -1430288.3, -846.334, 0.000010814321, -0.0011815979, -1379769.1, 15890.491, 0.0, 5.014495, 4.9815564 
5.766731e+1, 1.6256616e+2, -1334469.3, -1389823.9, -1019.3913, -0.0000020067132, 0.0013956027, -1334450.5, 12401.315, 0.0, 5.014661, 4.9785995 
5.7669264e+1, 1.6754481e+2, -1285659.9, -1342045.8, -1040.2539, -0.000013593113, -0.0010497576, -1285640.8, 12420.274, 0.0, 5.014818, 4.9780946 
5.767114e+1, 1.725217e+2, -1240446.8, -1301817.9, -1178.5166, -0.000021209431, 0.0012711985, -1240424.1, 8863.354, 0.0, 5.014969, 4.97504 
5.767294e+1, 1.774968e+2, -1191580.1, -1253903.5, -1199.5822, -0.000019820644, -0.0010843239, -1191557.0, 8974.383, 0.0, 5.0151134, 4.9745746 
5.767469e+1, 1.8247017e+2, -1146399.0, -1213790.1, -1310.6401, -0.000011776484, 0.0013722326, -1146373.5, 5418.9063, 0.0, 5.0152526, 4.971465 
5.7676375e+1, 1.8744169e+2, -1097486.5, -1165771.0, -1324.058, -0.000015457572, -0.0011785215, -1097460.9, 5610.63, 0.0, 5.0153866, 4.9710274 
5.767801e+1, 1.9241154e+2, -1052278.9, -1125659.6, -1415.9486, -0.000028258932, 0.0014247759, -1052251.5, 2115.5356, 0.0, 5.0155163, 4.9678936 
5.76796e+1, 1.973795e+2, -1003308.0, -1077514.9, -1427.4426, -0.000032109376, -0.0011934137, -1003280.56, 2400.4832, 0.0, 5.015641, 4.96749 
5.768116e+1, 2.0234579e+2, -958107.8, -1037492.6, -1487.6143, -0.000041625375, 0.0014171249, -958080.0, -1068.6085, 0.0, 5.0157633, 4.9643083 
5.768269e+1, 2.0731017e+2, -909092.0, -989270.56, -1497.1534, -0.000041557756, -0.0012440581, -909064.06, -703.5797, 0.0, 5.015883, 4.9639206 
5.76842e+1, 2.1227288e+2, -863888.8, -949333.3, -1526.2864, -0.000048938404, 0.0014603678, -863861.56, -4135.723, 0.0, 5.016001, 4.9606833 
5.76857e+1, 2.1723363e+2, -814809.8, -901008.0, -1532.3052, -0.000050652325, -0.0013507577, -814782.6, -3672.131, 0.0, 5.016118, 4.9603186 
5.7687205e+1, 2.2219273e+2, -769597.4, -861162.5, -1532.4277, -0.000058269645, 0.0014987509, -769571.75, -7060.515, 0.0, 5.016236, 4.9570246 
5.768872e+1, 2.2714986e+2, -720457.56, -812757.0, -1533.7782, -0.000050523257, -0.0013224614, -720432.06, -6500.604, 0.0, 5.0163546, 4.9566736 
5.7690245e+1, 2.3210528e+2, -675234.7, -773018.06, -1505.1855, -0.000048486952, 0.0015383058, -675211.5, -9843.31, 0.0, 5.0164742, 4.9533167 
5.76918e+1, 2.370587e+2, -626010.1, -724489.9, -1500.9852, -0.000040910138, -0.001583313, -625987.25, -9162.398, 0.0, 5.0165963, 4.9529934 
5.769339e+1, 2.4201046e+2, -580787.5, -684899.2, -1445.3223, -0.000042503838, 0.0017701898, -580767.44, -12469.7295, 0.0, 5.0167212, 4.949552 
5.769503e+1, 2.4696012e+2, -531447.3, -636195.4, -1434.5956, -0.0000392939, -0.0016139196, -531427.7, -11636.642, 0.0, 5.01685, 4.949273 
5.769671e+1, 2.5190806e+2, -486320.66, -596989.3, -1352.8468, -0.000029571589, 0.0017570242, -486304.13, -15003.09, 0.0, 5.016983, 4.9456687 
5.7698464e+1, 2.5685394e+2, -436688.06, -547728.3, -1335.0428, -0.000024543508, -0.001642856, -436672.0, -13840.529, 0.0, 5.0171223, 4.945567 
5.7700276e+1, 2.6179805e+2, -391775.13, -509198.6, -1229.331, -0.00001831187, 0.001757591, -391762.25, -17383.195, 0.0, 5.017267, 4.9416904 
5.770218e+1, 2.667401e+2, -341763.2, -459187.63, -1203.563, -0.000014220555, -0.0015473505, -341750.84, -15803.901, 0.0, 5.01742, 4.941835 
5.7704145e+1, 2.7168033e+2, -297118.25, -421484.66, -1074.5939, -0.000012659721, 0.0018023981, -297108.97, -19576.031, 0.0, 5.0175786, 4.937625 
5.7706225e+1, 2.7661848e+2, -246724.72, -370721.03, -1040.5973, -0.000010998058, -0.0017986817, -246715.98, -17576.857, 0.0, 5.0177474, 4.9380155 
5.770838e+1, 2.8155482e+2, -202114.05, -333338.4, -893.3244, -0.0000138373325, 0.0023283486, -202107.97, -21345.111, 0.0, 5.0179234, 4.9336534 
5.771068e+1, 2.864891e+2, -151393.66, -281947.13, -848.18256, -0.000015580808, -0.0024655252, -151388.16, -18981.21, 0.0, 5.018111, 4.9342475 
5.7713056e+1, 2.9142103e+2, -108458.016, -248734.58, -679.4258, -0.000017178005, 0.0018207069, -108454.73, -24380.502, 0.0, 5.018307, 4.928362 
5.771561e+1, 2.9635018e+2, -57698.656, -197416.63, -624.83136, -0.0000006521811, -0.0002971412, -57695.863, -21927.705, 0.0, 5.018518, 4.9289064 
5.771825e+1, 3.0128625e+2, -16165.223, -134378.31, -416.74188, -0.0000014962951, 0.0024093057, -16163.754, -16163.754, 0.0, 5.018737, 4.9426093 
5.7721066e+1, 3.0622947e+2, -14417.423, -131488.78, -349.8403, -0.00003398162, -0.0052510276, -14416.377, -14416.377, 0.0, 5.0189724, 4.943548 
5.7723975e+1, 3.111901e+2, 24734.895, -40724.855, -106.05629, -0.000074852345, 0.0040081143, 24735.066, 24735.066, 0.0, 5.0192165, 4.9766827 
5.772708e+1, 3.161679e+2, 27195.174, -36282.09, -24.890085, -0.00012147998, -0.00070620235, 27195.184, 27195.184, 0.0, 5.0194774, 4.978212 
6.266074e+1, 1.2267117e+2, -1710187.5, -1741266.1, -258.02283, 0.000069941096, 0.0011786186, -1710185.4, 27637.281, 0.0, 5.013167, 4.9929175 
6.266391e+1, 1.2766355e+2, -1662072.1, -1695112.4, -304.9563, 0.000050325474, -0.0031838564, -1662069.3, 26828.07, 0.0, 5.0134044, 4.991877 
6.266691e+1, 1.3265453e+2, -1616370.1, -1653819.1, -575.84094, 0.000013694251, 0.0035953699, -1616361.3, 23624.553, 0.0, 5.013628, 4.9891524 
6.266976e+1, 1.3764341e+2, -1567788.4, -1606635.6, -616.7892, 0.0000021707785, -0.0011066496, -1567778.5, 23316.088, 0.0, 5.013839, 4.988453 
6.267246e+1, 1.4263062e+2, -1522376.5, -1565929.5, -859.8311, 0.000010229741, 0.0004865575, -1522359.5, 19860.604, 0.0, 5.0140376, 4.985577 
6.2675035e+1, 1.4761634e+2, -1473661.0, -1518411.6, -894.89526, 0.000026378468, -0.0008041744, -1473643.1, 19716.922, 0.0, 5.0142264, 4.984994 
6.267747e+1, 1.5260015e+2, -1428319.5, -1477851.8, -1112.9146, 0.000019729081, 0.0014144717, -1428294.5, 16224.058, 0.0, 5.0144043, 4.9820876 
6.26798e+1, 1.5758227e+2, -1379599.0, -1430268.4, -1142.2664, 0.000009630605, -0.0011740406, -1379573.3, 16120.508, 0.0, 5.014572, 4.981526 
6.268201e+1, 1.6256264e+2, -1334301.9, -1389804.1, -1333.2158, -0.000008951834, 0.0014029471, -1334269.9, 12616.389, 0.0, 5.014731, 4.9785724 
6.2684107e+1, 1.6754127e+2, -1285513.6, -1342036.0, -1357.4309, -0.000026621701, -0.0010428451, -1285481.1, 12614.63, 0.0, 5.0148807, 4.978068 
6.2686133e+1, 1.7251813e+2, -1240324.9, -1301822.9, -1509.36, -0.00003722503, 0.0012766486, -1240287.9, 9034.638, 0.0, 5.0150237, 4.975012 
6.2688076e+1, 1.7749321e+2, -1191481.4, -1253919.8, -1534.0427, -0.000034770248, -0.001077969, -1191443.8, 9122.941, 0.0, 5.0151606, 4.9745464 
6.2689954e+1, 1.8246655e+2, -1146309.0, -1213789.8, -1656.9833, -0.000030809126, 0.0013806139, -1146268.4, 5559.549, 0.0, 5.0152926, 4.9714465 
6.269177e+1, 1.8743807e+2, -1097420.1, -1165782.4, -1672.8594, -0.000041923715, -0.0011716946, -1097379.3, 5727.9414, 0.0, 5.0154185, 4.9710083 
6.2693536e+1, 1.9240788e+2, -1052231.5, -1125669.9, -1774.7225, -0.0000546619, 0.0014357991, -1052188.6, 2214.2563, 0.0, 5.0155396, 4.9678793 
6.269524e+1, 1.9737582e+2, -1003284.0, -1077535.3, -1788.077, -0.00005561578, -0.0011820443, -1003241.0, 2476.0486, 0.0, 5.015656, 4.967476 
6.269692e+1, 2.0234211e+2, -958101.4, -1037511.3, -1854.6473, -0.00006332512, 0.0014260968, -958058.06, -1010.6112, 0.0, 5.0157704, 4.9642987 
6.269856e+1, 2.0730647e+2, -909108.5, -989299.94, -1865.5349, -0.00006426572, -0.0012340657, -909065.1, -668.4717, 0.0, 5.0158815, 4.963911 
6.2700194e+1, 2.1226919e+2, -863921.75, -949360.06, -1898.1528, -0.000073135074, 0.0014730266, -863879.56, -4117.4517, 0.0, 5.015992, 4.960678 
6.2701803e+1, 2.1722993e+2, -814865.1, -901044.7, -1904.9406, -0.00007676627, -0.0013375615, -814823.0, -3676.2236, 0.0, 5.0161014, 4.960314 
6.2703425e+1, 2.2218902e+2, -769669.56, -861196.5, -1905.3206, -0.000084536616, 0.0015108266, -769629.9, -7082.306, 0.0, 5.016211, 4.957024 
6.270505e+1, 2.2714615e+2, -720551.6, -812800.75, -1906.584, -0.00007513455, -0.0013075245, -720512.25, -6544.3726, 0.0, 5.0163217, 4.9566736 
6.2706697e+1, 2.3210157e+2, -675344.56, -773058.6, -1876.0326, -0.00007172045, 0.0015526775, -675308.56, -9903.991, 0.0, 5.0164337, 4.953321 
6.270837e+1, 2.3705499e+2, -626141.3, -724539.6, -1870.9733, -0.0000642997, -0.0015673138, -626105.75, -9244.578, 0.0, 5.0165477, 4.9529977 
6.271008e+1, 2.4200675e+2, -580934.44, -684945.8, -1810.3713, -0.00006192956, 0.0017865419, -580902.94, -12568.972, 0.0, 5.016665, 4.949561 
6.2711847e+1, 2.4695642e+2, -531614.56, -636250.44, -1798.124, -0.000053106534, -0.0015989845, -531583.7, -11756.508, 0.0, 5.016786, 4.9492826 
6.271366e+1, 2.519044e+2, -486502.94, -597041.75, -1708.446, -0.00004228561, 0.0017696214, -486476.53, -15139.456, 0.0, 5.016912, 4.945682 
6.271555e+1, 2.5685027e+2, -436890.2, -547788.5, -1688.2603, -0.000034892975, -0.0016284365, -436864.5, -13997.103, 0.0, 5.0170436, 4.9455805 
6.27175e+1, 2.617944e+2, -391992.88, -509256.88, -1572.4556, -0.000025879315, 0.0017717365, -391971.78, -17556.959, 0.0, 5.017181, 4.941708 
6.271954e+1, 2.6673648e+2, -341999.6, -459252.63, -1543.1732, -0.000022832923, -0.0015380109, -341979.3, -15996.76, 0.0, 5.0173264, 4.941853 
6.272167e+1, 2.716767e+2, -297370.38, -421549.03, -1402.0223, -0.000024747696, 0.0018113494, -297354.56, -19786.193, 0.0, 5.017478, 4.9376464 
6.2723917e+1, 2.7661487e+2, -246995.39, -370792.03, -1363.1581, -0.00002362526, -0.0017858484, -246980.39, -17806.06, 0.0, 5.0176396, 4.9380374 
6.272625e+1, 2.8155124e+2, -202398.88, -333406.0, -1201.6519, -0.000024320263, 0.0023396912, -202387.86, -21590.03, 0.0, 5.0178084, 4.933679 
6.2728727e+1, 2.8648555e+2, -151695.88, -282020.28, -1150.2664, -0.000022966537, -0.002462967, -151685.72, -19244.07, 0.0, 5.017989, 4.9342747 
6.27313e+1, 2.9141748e+2, -108779.88, -248818.38, -965.0555, -0.000020529076, 0.0018201936, -108773.234, -24664.545, 0.0, 5.0181785, 4.9283876 
6.2734056e+1, 2.9634672e+2, -58038.47, -197508.94, -903.52893, -0.000000598974, -0.00028809375, -58032.613, -22230.246, 0.0, 5.018382, 4.9289317 
6.273691e+1, 3.012828e+2, -16515.736, -134463.16, -673.554, -0.0000013732673, 0.002422516, -16511.89, -16511.89, 0.0, 5.0185943, 4.9426394 
6.273996e+1, 3.0622602e+2, -14784.869, -131578.14, -598.06036, -0.000039975097, -0.0052451775, -14781.807, -14781.807, 0.0, 5.0188227, 4.9435797 
6.274311e+1, 3.1118667e+2, 24362.654, -40797.285, -325.78125, -0.000090412104, 0.0040028132, 24364.283, 24364.283, 0.0, 5.01906, 4.9767227 
6.274647e+1, 3.1616452e+2, 26810.094, -36354.85, -234.44357, -0.00016242304, -0.0007145763, 26810.965, 26810.965, 0.0, 5.0193152, 4.978254 
6.7673904e+1, 1.2266769e+2, -1710248.9, -1741399.4, -82.015816, 0.00006342562, 0.0011781197, -1710248.6, 27608.094, 0.0, 5.013169, 4.992873 
6.7677313e+1, 1.2766002e+2, -1662132.9, -1695245.0, -129.5695, 0.000042346008, -0.0031807665, -1662132.4, 26799.57, 0.0, 5.0134063, 4.9918323 
6.768053e+1, 1.3265096e+2, -1616425.9, -1653941.8, -420.51074, 0.0000064697065, 0.003601709, -1616421.1, 23599.664, 0.0, 5.0136294, 4.989111 
6.7683595e+1, 1.3763982e+2, -1567843.9, -1606758.0, -462.13275, -0.000008688101, -0.0011005056, -1567838.4, 23291.643, 0.0, 5.01384, 4.988412 
6.76865e+1, 1.4262697e+2, -1522426.3, -1566039.9, -722.021, 0.0000022861732, 0.0004927701, -1522414.3, 19841.588, 0.0, 5.0140395, 4.9855394 
6.7689264e+1, 1.4761266e+2, -1473710.8, -1518521.6, -757.68256, 0.000025900092, -0.000799852, -1473698.0, 19698.223, 0.0, 5.014228, 4.9849567 
6.769188e+1, 1.5259643e+2, -1428363.4, -1477949.3, -991.3441, 0.000020465113, 0.0014181966, -1428343.6, 16211.477, 0.0, 5.0144053, 4.982054 
6.7694366e+1, 1.5757853e+2, -1379643.0, -1430365.6, -1021.0498, 0.0000054477773, -0.0011692377, -1379622.4, 16108.195, 0.0, 5.014573, 4.981493 
6.769673e+1, 1.6255885e+2, -1334340.4, -1389889.6, -1225.7892, -0.00001744377, 0.00140766, -1334313.3, 12610.066, 0.0, 5.014732, 4.9785433 
6.769899e+1, 1.6753745e+2, -1285551.9, -1342120.8, -1250.3, -0.000041027237, -0.0010386269, -1285524.4, 12608.828, 0.0, 5.0148816, 4.9780393 
6.7701155e+1, 1.7251429e+2, -1240365.4, -1301912.0, -1412.32, -0.00005634936, 0.0012789054, -1240333.0, 9027.192, 0.0, 5.0150247, 4.974982 
6.770324e+1, 1.7748934e+2, -1191522.0, -1254008.6, -1436.8867, -0.00005241265, -0.0010735614, -1191489.0, 9115.66, 0.0, 5.015161, 4.9745164 
6.7705244e+1, 1.8246265e+2, -1146336.1, -1213849.4, -1568.4414, -0.000053618634, 0.0013865926, -1146299.8, 5566.4116, 0.0, 5.015293, 4.971426 
6.770719e+1, 1.8743414e+2, -1097448.1, -1165843.0, -1584.8837, -0.000071205395, -0.001168741, -1097411.4, 5734.201, 0.0, 5.015419, 4.970988 
6.7709076e+1, 1.9240394e+2, -1052253.3, -1125716.1, -1693.9253, -0.0000835217, 0.0014454948, -1052214.1, 2227.3542, 0.0, 5.0155396, 4.9678636 
6.77109e+1, 1.9737187e+2, -1003305.94, -1077581.0, -1707.456, -0.000084626015, -0.0011709334, -1003266.75, 2489.0762, 0.0, 5.0156555, 4.9674606 
6.7712694e+1, 2.0233813e+2, -958117.4, -1037543.2, -1778.0636, -0.000087426175, 0.0014313316, -958077.6, -991.23615, 0.0, 5.0157695, 4.964288 
6.7714447e+1, 2.073025e+2, -909125.0, -989331.7, -1788.9938, -0.00008740147, -0.0012277723, -909085.1, -649.4303, 0.0, 5.015881, 4.9639006 
6.771618e+1, 2.122652e+2, -863932.5, -949378.3, -1823.5984, -0.000102932085, 0.0014869577, -863893.6, -4092.3958, 0.0, 5.015991, 4.9606724 
6.7717904e+1, 2.1722594e+2, -814876.25, -901062.56, -1830.5955, -0.00010954006, -0.001323698, -814837.44, -3651.463, 0.0, 5.0161, 4.9603086 
6.771963e+1, 2.2218505e+2, -769674.8, -861200.25, -1830.0854, -0.00011288584, 0.0015213568, -769638.25, -7051.463, 0.0, 5.016209, 4.9570236 
6.7721367e+1, 2.2714216e+2, -720557.44, -812804.4, -1831.3679, -0.00010380372, -0.0012924091, -720521.06, -6514.029, 0.0, 5.0163198, 4.956673 
6.772313e+1, 2.320976e+2, -675344.7, -773048.44, -1798.3563, -0.000101760685, 0.0015683739, -675311.6, -9867.888, 0.0, 5.0164313, 4.9533253 
6.7724913e+1, 2.3705101e+2, -626141.9, -724529.2, -1793.1915, -0.00009376686, -0.0015510137, -626109.2, -9208.926, 0.0, 5.0165453, 4.9530025 
6.7726743e+1, 2.4200276e+2, -580929.7, -684922.2, -1727.696, -0.00008431089, 0.0018031115, -580901.0, -12528.007, 0.0, 5.016662, 4.9495707 
6.772863e+1, 2.4695246e+2, -531610.25, -636226.2, -1715.1061, -0.000070569935, -0.0015844043, -531582.1, -11716.001, 0.0, 5.016783, 4.949292 
6.773057e+1, 2.5190043e+2, -486493.94, -597005.44, -1618.067, -0.00006057585, 0.0017804059, -486470.25, -15094.322, 0.0, 5.0169086, 4.9456964 
6.773259e+1, 2.568463e+2, -436881.63, -547751.5, -1597.3474, -0.000050489998, -0.001615891, -436858.63, -13952.536, 0.0, 5.0170403, 4.9455953 
6.773467e+1, 2.6179048e+2, -391980.16, -509208.63, -1472.4012, -0.000038432947, 0.0017841699, -391961.66, -17508.307, 0.0, 5.017177, 4.9417267 
6.773687e+1, 2.6673257e+2, -341987.16, -459203.0, -1441.9922, -0.000037107005, -0.0015303685, -341969.44, -15948.54, 0.0, 5.017322, 4.9418726 
6.773914e+1, 2.7167282e+2, -297354.72, -421489.97, -1290.2557, -0.000042861167, 0.0018182689, -297341.3, -19734.814, 0.0, 5.017473, 4.9376693 
6.7741555e+1, 2.7661103e+2, -246980.23, -370731.94, -1249.556, -0.000041571308, -0.0017764665, -246967.61, -17755.377, 0.0, 5.017635, 4.9380608 
6.774406e+1, 2.8154743e+2, -202379.47, -333333.8, -1075.863, -0.000038853283, 0.0023471585, -202370.63, -21535.135, 0.0, 5.017803, 4.933707 
6.774671e+1, 2.8648174e+2, -151676.8, -281946.56, -1022.03326, -0.00003530163, -0.0024644858, -151668.78, -19189.742, 0.0, 5.0179834, 4.9343033 
6.7749476e+1, 2.914137e+2, -108763.445, -248748.36, -822.4772, -0.000029732024, 0.0018150052, -108758.61, -24612.818, 0.0, 5.018172, 4.9284153 
6.775243e+1, 2.9634297e+2, -58024.105, -197441.23, -757.5625, -0.000006109004, -0.0002836281, -58019.99, -22180.787, 0.0, 5.018376, 4.9289584 
6.77555e+1, 3.0127904e+2, -16496.541, -134381.56, -512.9504, -0.0000054133134, 0.0024321184, -16494.309, -16494.309, 0.0, 5.018587, 4.9426723 
6.775878e+1, 3.0622232e+2, -14765.565, -131493.42, -433.23236, -0.000048009253, -0.0052400627, -14763.957, -14763.957, 0.0, 5.018815, 4.9436135 
6.7762166e+1, 3.1118304e+2, 24389.885, -40690.957, -144.89943, -0.00010450267, 0.0039965506, 24390.207, 24390.207, 0.0, 5.019052, 4.976765 
6.776578e+1, 3.161609e+2, 26837.885, -36242.7, -49.002426, -0.00019794701, -0.00072823773, 26837.922, 26837.922, 0.0, 5.019306, 4.978299 
7.268715e+1, 1.22663945e+2, -1709881.4, -1741327.3, -284.89835, 0.000054829023, 0.0011786459, -1709878.8, 28014.68, 0.0, 5.013314, 4.992825 
7.269079e+1, 1.2765624e+2, -1661785.3, -1695183.0, -338.14413, 0.000034203833, -0.0031776659, -1661781.8, 27187.271, 0.0, 5.013545, 4.9917846 
7.269423e+1, 1.3264711e+2, -1616094.1, -1653880.5, -654.829, 0.0000008627102, 0.0036051343, -1616082.8, 23975.686, 0.0, 5.013762, 4.9890666 
7.2697496e+1, 1.3763593e+2, -1567533.8, -1606707.6, -701.9891, -0.000015738231, -0.0010975511, -1567521.3, 23646.867, 0.0, 5.0139656, 4.988367 
7.27006e+1, 1.4262305e+2, -1522134.4, -1565989.6, -984.5556, -0.0000033008364, 0.0004951015, -1522112.3, 20182.14, 0.0, 5.014157, 4.9854994 
7.2703546e+1, 1.4760868e+2, -1473445.3, -1518484.5, -1025.4281, 0.000026165673, -0.0007997058, -1473421.9, 20013.137, 0.0, 5.0143366, 4.9849167 
7.2706336e+1, 1.5259244e+2, -1428117.4, -1477910.8, -1279.4568, 0.00002295389, 0.0014179943, -1428084.5, 16509.818, 0.0, 5.0145054, 4.982019 
7.270898e+1, 1.5757447e+2, -1379423.4, -1430339.9, -1313.2134, 0.000004318417, -0.001168289, -1379389.5, 16380.731, 0.0, 5.0146646, 4.981457 
7.271151e+1, 1.6255479e+2, -1334139.9, -1389863.9, -1535.409, -0.000022252903, 0.0014087238, -1334097.6, 12865.629, 0.0, 5.014815, 4.9785123 
7.2713906e+1, 1.6753334e+2, -1285375.4, -1342106.4, -1563.5184, -0.00005016648, -0.0010381833, -1285332.4, 12841.006, 0.0, 5.0149565, 4.9780083 
7.271621e+1, 1.7251015e+2, -1240215.9, -1301914.4, -1739.8518, -0.000067427034, 0.0012786086, -1240166.9, 9233.911, 0.0, 5.0150914, 4.9749494 
7.2718424e+1, 1.7748517e+2, -1191397.5, -1254022.8, -1767.6415, -0.00006264612, -0.0010738956, -1191347.6, 9297.877, 0.0, 5.015219, 4.974484 
7.2720563e+1, 1.8245845e+2, -1146224.1, -1213846.1, -1911.8754, -0.000071384, 0.0013864471, -1146170.1, 5737.1113, 0.0, 5.0153418, 4.971404 
7.2722626e+1, 1.8742992e+2, -1097365.0, -1165852.9, -1931.5072, -0.00009351984, -0.001167543, -1097310.5, 5876.438, 0.0, 5.0154576, 4.970966 
7.272462e+1, 1.9239971e+2, -1052190.6, -1125723.9, -2049.7866, -0.000101786725, 0.0014473248, -1052133.5, 2349.5176, 0.0, 5.015569, 4.9678473 
7.272656e+1, 1.9736761e+2, -1003271.06, -1077601.8, -2065.0193, -0.00010194817, -0.0011680296, -1003213.75, 2583.7854, 0.0, 5.0156755, 4.9674444 
7.272846e+1, 2.0233387e+2, -958104.56, -1037562.6, -2141.879, -0.00010328617, 0.0014369559, -958046.9, -918.66614, 0.0, 5.0157795, 4.9642773 
7.2730327e+1, 2.0729822e+2, -909139.5, -989363.4, -2153.8745, -0.000104916784, -0.0012199358, -909081.7, -604.0767, 0.0, 5.015881, 4.9638896 
7.273217e+1, 2.1226092e+2, -863967.0, -949407.5, -2191.92, -0.000120539495, 0.0014975703, -863910.75, -4067.5083, 0.0, 5.0159817, 4.9606667 
7.273399e+1, 2.1722163e+2, -814938.1, -901104.06, -2199.3333, -0.00012925378, -0.00131098, -814882.06, -3653.9946, 0.0, 5.016081, 4.960303 
7.273582e+1, 2.2218074e+2, -769756.56, -861238.75, -2198.8604, -0.00013474117, 0.0015356141, -769703.75, -7074.863, 0.0, 5.016181, 4.9570236 
7.273767e+1, 2.2713785e+2, -720665.75, -812854.44, -2200.0298, -0.00012376861, -0.00127695, -720613.25, -6564.0713, 0.0, 5.0162816, 4.956673 
7.273953e+1, 2.3209329e+2, -675472.6, -773095.7, -2164.7236, -0.00012172239, 0.0015842877, -675424.7, -9938.818, 0.0, 5.016384, 4.9533305 
7.274143e+1, 2.370467e+2, -626294.8, -724587.0, -2158.737, -0.000114753115, -0.0015343835, -626247.4, -9305.05, 0.0, 5.0164886, 4.953008 
7.274337e+1, 2.419985e+2, -581101.3, -684977.2, -2088.2476, -0.00010103436, 0.001818143, -581059.4, -12644.355, 0.0, 5.016597, 4.9495807 
7.274537e+1, 2.4694817e+2, -531805.9, -636290.9, -2074.19, -0.00008346533, -0.001571384, -531764.7, -11856.646, 0.0, 5.016709, 4.949303 
7.274743e+1, 2.5189617e+2, -486708.28, -597067.7, -1969.3595, -0.00007379565, 0.0017920694, -486673.16, -15255.436, 0.0, 5.016825, 4.9457116 
7.274958e+1, 2.5684208e+2, -437119.22, -547822.75, -1946.2852, -0.00006365474, -0.0016035096, -437085.0, -14137.279, 0.0, 5.0169477, 4.9456115 
7.27518e+1, 2.6178625e+2, -392235.7, -509277.4, -1811.088, -0.0000514552, 0.0017957925, -392207.7, -17712.863, 0.0, 5.0170765, 4.941747 
7.275413e+1, 2.6672837e+2, -342265.38, -459280.1, -1777.245, -0.00005033352, -0.0015213839, -342238.38, -16176.231, 0.0, 5.0172124, 4.9418936 
7.275655e+1, 2.7166864e+2, -297651.53, -421566.13, -1613.3541, -0.00005765481, 0.001825561, -297630.53, -19982.984, 0.0, 5.017355, 4.9376945 
7.2759116e+1, 2.7660683e+2, -247298.25, -370815.53, -1567.7032, -0.00005609642, -0.0017698552, -247278.36, -18025.336, 0.0, 5.017508, 4.938087 
7.2761786e+1, 2.8154328e+2, -202713.83, -333413.53, -1379.7465, -0.000050867315, 0.0023515092, -202699.27, -21823.252, 0.0, 5.017668, 4.9337378 
7.276462e+1, 2.8647763e+2, -152031.19, -282032.6, -1319.8528, -0.000044187982, -0.0024662253, -152017.8, -19498.53, 0.0, 5.0178404, 4.9343348 
7.276757e+1, 2.9140964e+2, -109140.375, -248846.38, -1103.8757, -0.000035560108, 0.0018101874, -109131.66, -24945.936, 0.0, 5.018021, 4.9284453 
7.2770727e+1, 2.963389e+2, -58421.684, -197548.89, -1031.9453, -0.000011685145, -0.0002819796, -58414.027, -22535.193, 0.0, 5.0182166, 4.9289885 
7.2774005e+1, 3.0127504e+2, -16906.18, -134480.67, -765.6973, -0.000010699258, 0.0024387971, -16901.193, -16901.193, 0.0, 5.0184207, 4.9427075 
7.2777504e+1, 3.0621836e+2, -15194.487, -131597.6, -677.5079, -0.00005079221, -0.0052319206, -15190.544, -15190.544, 0.0, 5.0186405, 4.9436507 
7.278113e+1, 3.111791e+2, 23955.7, -40775.305, -360.62912, -0.00010510172, 0.0039959736, 23957.709, 23957.709, 0.0, 5.01887, 4.976812 
7.278499e+1, 3.16157e+2, 26389.04, -36326.977, -254.49355, -0.00020494187, -0.0007434181, 26390.072, 26390.072, 0.0, 5.0191174, 4.9783487 
7.7700454e+1, 1.2265996e+2, -1709950.9, -1741480.0, -114.19932, 0.000039300136, 0.0011797979, -1709950.5, 27982.059, 0.0, 5.013316, 4.992774 
7.770433e+1, 1.276522e+2, -1661854.0, -1695335.0, -168.05478, 0.000022786686, -0.003174798, -1661853.3, 27155.44, 0.0, 5.0135474, 4.991733 
7.770798e+1, 1.3264303e+2, -1616157.8, -1654022.3, -505.49567, -0.000006030703, 0.003605599, -1616151.0, 23947.531, 0.0, 5.0137644, 4.9890184 
7.771146e+1, 1.3763179e+2, -1567597.0, -1606848.6, -553.27155, -0.000022082977, -0.001097715, -1567589.1, 23619.447, 0.0, 5.013968, 4.9883194 
7.7714753e+1, 1.4261886e+2, -1522191.4, -1566118.0, -854.0183, -0.000009439928, 0.00049375836, -1522174.9, 20160.516, 0.0, 5.014159, 4.9854555 
7.771788e+1, 1.4760447e+2, -1473502.3, -1518612.5, -895.4841, 0.00002444955, -0.0008036256, -1473484.5, 19991.932, 0.0, 5.014339, 4.984873 
7.772084e+1, 1.5258816e+2, -1428166.9, -1478022.6, -1165.3478, 0.000024419975, 0.001413846, -1428139.6, 16496.43, 0.0, 5.0145073, 4.981981 
7.7723646e+1, 1.5757017e+2, -1379473.1, -1430451.4, -1199.522, 0.0000034281347, -0.0011712918, -1379445.0, 16367.454, 0.0, 5.014666, 4.9814196 
7.7726316e+1, 1.6255045e+2, -1334183.6, -1389962.0, -1434.9315, -0.00002625569, 0.0014059966, -1334146.8, 12859.08, 0.0, 5.0148163, 4.978479 
7.772886e+1, 1.6752897e+2, -1285419.1, -1342204.3, -1463.3784, -0.000057095593, -0.0010418622, -1285381.4, 12834.848, 0.0, 5.014958, 4.977975 
7.77313e+1, 1.7250574e+2, -1240261.8, -1302016.6, -1650.1962, -0.00007355352, 0.001275348, -1240217.6, 9226.273, 0.0, 5.0150924, 4.9749146 
7.773364e+1, 1.7748073e+2, -1191443.0, -1254124.0, -1677.9126, -0.00006833522, -0.0010794052, -1191398.1, 9290.912, 0.0, 5.01522, 4.9744496 
7.77359e+1, 1.8245398e+2, -1146255.6, -1213916.4, -1831.9615, -0.00008705473, 0.001379884, -1146206.0, 5745.089, 0.0, 5.0153427, 4.9713798 
7.773808e+1, 1.8742542e+2, -1097396.1, -1165921.3, -1851.9362, -0.0001122968, -0.0011681024, -1097346.1, 5884.8623, 0.0, 5.015458, 4.970943 
7.77402e+1, 1.9239518e+2, -1052214.6, -1125775.5, -1977.2108, -0.00011326631, 0.001441223, -1052161.5, 2365.792, 0.0, 5.015569, 4.9678297 
7.774223e+1, 1.9736308e+2, -1003296.06, -1077654.4, -1993.0538, -0.00011161397, -0.0011740131, -1003242.7, 2599.2336, 0.0, 5.0156755, 4.967427 
7.774424e+1, 2.0232931e+2, -958122.94, -1037599.44, -2073.638, -0.000115148774, 0.0014419284, -958068.9, -896.0523, 0.0, 5.015779, 4.964265 
7.77462e+1, 2.0729366e+2, -909158.25, -989399.56, -2085.4275, -0.000121153185, -0.0012118468, -909104.06, -581.7485, 0.0, 5.01588, 4.9638777 
7.7748144e+1, 2.1225633e+2, -863979.1, -949427.8, -2125.869, -0.00013051125, 0.0015033981, -863926.3, -4038.2283, 0.0, 5.0159807, 4.9606605 
7.7750075e+1, 2.1721707e+2, -814951.1, -901124.5, -2133.3328, -0.00014080029, -0.001300952, -814898.4, -3625.4421, 0.0, 5.0160794, 4.9602966 
7.7752006e+1, 2.2217616e+2, -769763.0, -861243.1, -2131.963, -0.00015508788, 0.0015519907, -769713.4, -7039.582, 0.0, 5.0161786, 4.9570227 
7.7753943e+1, 2.2713327e+2, -720672.7, -812858.25, -2133.1343, -0.00013981533, -0.0012630019, -720623.4, -6529.3145, 0.0, 5.016279, 4.9566727 
7.775591e+1, 2.3208871e+2, -675473.6, -773084.5, -2095.0938, -0.0001360224, 0.0015986168, -675428.7, -9897.977, 0.0, 5.0163813, 4.953336 
7.775792e+1, 2.3704214e+2, -626296.3, -724575.1, -2088.9653, -0.000131332, -0.0015189678, -626251.94, -9264.762, 0.0, 5.0164857, 4.9530134 
7.7759963e+1, 2.4199393e+2, -581097.4, -684951.2, -2013.4811, -0.000115740135, 0.0018301521, -581058.3, -12598.606, 0.0, 5.016593, 4.949591 
7.776208e+1, 2.4694362e+2, -531802.4, -636263.94, -1999.0779, -0.00009509823, -0.0015615547, -531764.1, -11811.462, 0.0, 5.0167046, 4.949314 
7.776426e+1, 2.5189164e+2, -486699.7, -597027.2, -1886.9321, -0.00008486697, 0.0018029448, -486667.44, -15205.24, 0.0, 5.016821, 4.945728 
7.7766526e+1, 2.5683755e+2, -437111.13, -547781.1, -1863.1948, -0.00007693995, -0.001592904, -437079.78, -14087.733, 0.0, 5.0169435, 4.945628 
7.7768874e+1, 2.6178175e+2, -392222.9, -509222.6, -1718.8129, -0.00006747076, 0.0018048143, -392197.66, -17658.69, 0.0, 5.0170712, 4.941769 
7.777135e+1, 2.6672387e+2, -342253.2, -459224.2, -1683.895, -0.0000653946, -0.0015130691, -342228.97, -16122.891, 0.0, 5.0172067, 4.941916 
7.777391e+1, 2.7166417e+2, -297635.5, -421498.8, -1509.2507, -0.00007242794, 0.0018312345, -297617.13, -19925.896, 0.0, 5.017349, 4.937721 
7.777663e+1, 2.7660242e+2, -247282.84, -370746.88, -1461.6284, -0.00007087683, -0.0017673577, -247265.55, -17969.098, 0.0, 5.0175014, 4.938114 
7.777945e+1, 2.8153887e+2, -202693.92, -333331.72, -1261.3845, -0.00006446108, 0.0023514878, -202681.75, -21762.594, 0.0, 5.017661, 4.9337697 
7.7782464e+1, 2.8647327e+2, -152011.75, -281948.97, -1198.9447, -0.000053778895, -0.0024698877, -152000.7, -19438.615, 0.0, 5.0178328, 4.9343677 
7.7785593e+1, 2.914053e+2, -109123.81, -248766.38, -968.492, -0.000042192147, 0.0018038129, -109117.09, -24888.875, 0.0, 5.018013, 4.9284773 
7.7788943e+1, 2.963346e+2, -58407.51, -197471.3, -893.0826, -0.000020924053, -0.00028455502, -58401.777, -22480.752, 0.0, 5.018208, 4.92902 
7.779242e+1, 3.0127078e+2, -16886.752, -134387.75, -612.2678, -0.000021056318, 0.0024413143, -16883.563, -16883.563, 0.0, 5.018411, 4.942745 
7.7796143e+1, 3.0621412e+2, -15174.919, -131501.08, -519.86, -0.00005430907, -0.0052232905, -15172.596, -15172.596, 0.0, 5.0186305, 4.94369 
7.7799994e+1, 3.111749e+2, 23984.447, -40653.895, -186.42004, -0.00010277716, 0.0039980756, 23984.984, 23984.984, 0.0, 5.0188594, 4.976861 
7.78041e+1, 3.1615287e+2, 26418.86, -36198.105, -75.679184, -0.00020479229, -0.00076137774, 26418.951, 26418.951, 0.0, 5.019106, 4.978401 
8.2713854e+1, 1.2265573e+2, -1709528.3, -1741396.6, -310.3079, 0.000024763609, 0.0011808091, -1709525.1, 28448.895, 0.0, 5.0134835, 4.992719 
8.2717955e+1, 1.276479e+2, -1661453.8, -1695262.9, -370.16107, 0.000014462922, -0.003175383, -1661449.8, 27601.008, 0.0, 5.0137076, 4.9916787 
8.272183e+1, 1.326387e+2, -1615775.1, -1653950.9, -733.95734, -0.000008807055, 0.003601307, -1615761.0, 24380.037, 0.0, 5.0139165, 4.9889674 
8.27255e+1, 1.376274e+2, -1567238.5, -1606789.4, -787.1129, -0.000022544928, -0.0011009178, -1567222.9, 24028.846, 0.0, 5.0141125, 4.988269 
8.272898e+1, 1.4261441e+2, -1521852.8, -1566058.9, -1111.4961, -0.000008242024, 0.00048979203, -1521824.8, 20554.152, 0.0, 5.014295, 4.985409 
8.2732284e+1, 1.4759997e+2, -1473190.9, -1518567.0, -1157.9541, 0.000027306638, -0.0008106314, -1473161.4, 20359.135, 0.0, 5.0144663, 4.9848266 
8.273541e+1, 1.5258363e+2, -1427878.9, -1477977.1, -1449.8268, 0.000028388193, 0.001407463, -1427836.9, 16843.648, 0.0, 5.0146246, 4.9819393 
8.2738376e+1, 1.575656e+2, -1379219.3, -1430422.4, -1489.2056, 0.000007022738, -0.0011747588, -1379176.0, 16681.283, 0.0, 5.014772, 4.9813786 
8.274119e+1, 1.6254582e+2, -1333950.9, -1389929.9, -1740.7694, -0.000022324832, 0.0014028443, -1333896.8, 13154.273, 0.0, 5.014912, 4.9784436 
8.2743865e+1, 1.6752432e+2, -1285211.3, -1342184.3, -1772.0941, -0.000051087172, -0.0010461562, -1285156.1, 13105.671, 0.0, 5.015045, 4.9779396 
8.2746434e+1, 1.7250104e+2, -1240082.0, -1302016.8, -1973.6605, -0.000067021756, 0.0012723127, -1240019.1, 9470.729, 0.0, 5.015172, 4.9748764 
8.27489e+1, 1.7747599e+2, -1191288.6, -1254135.8, -2005.9637, -0.00006438953, -0.0010826451, -1191224.8, 9510.731, 0.0, 5.015291, 4.974412 
8.2751274e+1, 1.8244922e+2, -1146117.3, -1213906.6, -2174.6633, -0.00008551194, 0.0013747243, -1146047.5, 5950.2495, 0.0, 5.015402, 4.9713554 
8.275356e+1, 1.8742064e+2, -1097294.3, -1165927.6, -2196.0273, -0.000112465335, -0.0011694309, -1097224.0, 6053.9014, 0.0, 5.015505, 4.9709187 
8.275578e+1, 1.9239038e+2, -1052137.9, -1125780.9, -2329.9263, -0.00011172813, 0.0014376737, -1052064.3, 2510.2192, 0.0, 5.0156045, 4.9678116 
8.2757926e+1, 1.9735827e+2, -1003251.6, -1077675.5, -2347.5764, -0.0001067457, -0.0011771513, -1003177.7, 2711.5728, 0.0, 5.0157, 4.967408 
8.2760024e+1, 2.0232448e+2, -958100.4, -1037617.5, -2433.912, -0.000109824905, 0.0014446257, -958025.94, -805.6595, 0.0, 5.015793, 4.9642525 
8.2762086e+1, 2.072888e+2, -909167.6, -989432.25, -2446.8225, -0.00011813333, -0.0012059661, -909093.1, -523.1961, 0.0, 5.015883, 4.9638653 
8.2764125e+1, 2.1225147e+2, -864014.6, -949458.9, -2490.7446, -0.0001272733, 0.0015092368, -863942.06, -4006.337, 0.0, 5.015971, 4.9606543 
8.2766145e+1, 2.1721219e+2, -815017.3, -901169.4, -2498.6904, -0.00013910058, -0.0012928097, -814944.9, -3624.2246, 0.0, 5.0160594, 4.9602904 
8.2768166e+1, 2.2217128e+2, -769852.94, -861285.44, -2497.3633, -0.00015441507, 0.0015647833, -769784.75, -7063.2065, 0.0, 5.0161476, 4.9570227 
8.2770205e+1, 2.271284e+2, -720793.9, -812914.1, -2498.3374, -0.00014010636, -0.0012521909, -720726.1, -6584.2886, 0.0, 5.016237, 4.956673 
8.277227e+1, 2.3208384e+2, -675618.06, -773137.75, -2457.862, -0.00013580019, 0.0016091429, -675556.1, -9977.668, 0.0, 5.016328, 4.9533415 
8.277437e+1, 2.3703727e+2, -626470.4, -724640.8, -2450.8894, -0.00013282766, -0.0015083204, -626409.25, -9374.3545, 0.0, 5.0164213, 4.9530196 
8.277652e+1, 2.4198906e+2, -581293.8, -685014.5, -2370.138, -0.00011805157, 0.0018392525, -581239.7, -12732.299, 0.0, 5.016518, 4.949603 
8.277874e+1, 2.4693877e+2, -532027.06, -636338.7, -2354.255, -0.000096715135, -0.0015520058, -531973.94, -11973.785, 0.0, 5.016619, 4.9493265 
8.278103e+1, 2.5188679e+2, -486946.72, -597099.6, -2234.2458, -0.00008800923, 0.0018128032, -486901.44, -15391.85, 0.0, 5.016725, 4.9457455 
8.2783407e+1, 2.5683272e+2, -437385.63, -547864.0, -2207.988, -0.00008274737, -0.0015848861, -437341.53, -14302.266, 0.0, 5.0168366, 4.9456463 
8.278588e+1, 2.6177695e+2, -392519.2, -509303.34, -2053.3296, -0.00007408229, 0.0018114042, -392483.1, -17897.125, 0.0, 5.0169544, 4.9417925 
8.2788485e+1, 2.667191e+2, -342575.66, -459314.56, -2014.8997, -0.000070684946, -0.0015071476, -342540.9, -16388.049, 0.0, 5.01708, 4.94194 
8.2791185e+1, 2.7165943e+2, -297978.9, -421587.84, -1827.7844, -0.000078103476, 0.0018341054, -297951.88, -20214.12, 0.0, 5.0172124, 4.9377494 
8.279405e+1, 2.7659768e+2, -247650.42, -370844.4, -1775.3058, -0.00007543843, -0.0017683754, -247624.84, -18282.143, 0.0, 5.017355, 4.9381433 
8.2797027e+1, 2.8153417e+2, -203080.08, -333424.94, -1560.7771, -0.000066848, 0.0023481436, -203061.39, -22096.299, 0.0, 5.017505, 4.9338045 
8.280021e+1, 2.8646863e+2, -152420.56, -282049.1, -1492.1758, -0.00005400081, -0.0024750216, -152403.39, -19795.707, 0.0, 5.017668, 4.9344034 
8.280351e+1, 2.9140067e+2, -109557.984, -248879.63, -1245.0986, -0.000041273117, 0.0017966096, -109546.86, -25273.38, 0.0, 5.017839, 4.928512 
8.280705e+1, 2.9633e+2, -58864.727, -197595.11, -1162.6398, -0.000023854833, -0.000288537, -58854.98, -22889.03, 0.0, 5.0180254, 4.929054 
8.281073e+1, 3.0126622e+2, -17357.156, -134501.69, -860.2165, -0.00002434544, 0.0024420344, -17350.84, -17350.84, 0.0, 5.01822, 4.9427857 
8.281467e+1, 3.062096e+2, -15665.979, -131620.08, -759.05853, -0.00004989423, -0.0052172295, -15661.01, -15661.01, 0.0, 5.0184307, 4.9437323 
8.281874e+1, 3.1117043e+2, 23487.867, -40751.066, -396.7751, -0.00008715088, 0.0039999317, 23490.316, 23490.316, 0.0, 5.0186515, 4.976914 
8.28231e+1, 3.1614846e+2, 25906.605, -36294.418, -276.04346, -0.00017918988, -0.00077233184, 25907.83, 25907.83, 0.0, 5.0188904, 4.9784575 
8.772733e+1, 1.2265124e+2, -1709606.0, -1741570.1, -145.43753, 0.000005270767, 0.0011810962, -1709605.3, 28412.656, 0.0, 5.0134864, 4.9926605 
8.773166e+1, 1.2764338e+2, -1661530.6, -1695435.1, -205.83994, 0.0000055819255, -0.0031798775, -1661529.4, 27565.807, 0.0, 5.0137105, 4.99162 
8.773574e+1, 1.3263409e+2, -1615846.0, -1654111.1, -591.0849, -0.000010925323, 0.0035922215, -1615836.9, 24349.154, 0.0, 5.01392, 4.988913 
8.7739617e+1, 1.3762274e+2, -1567309.1, -1606948.9, -644.9114, -0.000020933507, -0.001107257, -1567298.6, 23998.654, 0.0, 5.014116, 4.9882145 
8.774327e+1, 1.4260972e+2, -1521916.6, -1566204.6, -988.28577, -0.0000033023882, 0.00048287623, -1521894.6, 20530.33, 0.0, 5.014298, 4.985359 
8.774675e+1, 1.4759521e+2, -1473254.9, -1518712.4, -1035.2104, 0.0000315645, -0.00082103297, -1473231.4, 20335.674, 0.0, 5.0144687, 4.984777 
8.775003e+1, 1.5257885e+2, -1427936.1, -1478107.9, -1344.8839, 0.00003154037, 0.0013983616, -1427900.0, 16827.51, 0.0, 5.014627, 4.9818945 
8.775314e+1, 1.5756077e+2, -1379276.5, -1430552.5, -1384.6599, 0.00001156693, -0.0011796713, -1379239.1, 16665.617, 0.0, 5.0147743, 4.9813337 
8.77561e+1, 1.6254094e+2, -1333998.0, -1390038.3, -1647.335, -0.000014193653, 0.0013980428, -1333949.6, 13149.313, 0.0, 5.014914, 4.9784064 
8.775891e+1, 1.6751939e+2, -1285258.5, -1342292.4, -1679.2562, -0.000036322574, -0.0010522405, -1285209.1, 13100.932, 0.0, 5.015047, 4.9779024 
8.776161e+1, 1.724961e+2, -1240135.1, -1302136.3, -1891.7974, -0.00005233529, 0.001268342, -1240077.5, 9461.022, 0.0, 5.0151734, 4.974836 
8.776419e+1, 1.77471e+2, -1191342.0, -1254254.5, -1924.2242, -0.000055332184, -0.0010852512, -1191283.1, 9501.215, 0.0, 5.015292, 4.9743714 
8.776668e+1, 1.8244419e+2, -1146150.6, -1213981.9, -2105.1152, -0.00007150775, 0.0013691155, -1146085.3, 5961.764, 0.0, 5.015403, 4.9713297 
8.776907e+1, 1.8741557e+2, -1097327.8, -1166002.0, -2126.5454, -0.00009917586, -0.0011733914, -1097262.0, 6065.446, 0.0, 5.0155053, 4.9708934 
8.7771386e+1, 1.923853e+2, -1052164.1, -1125838.3, -2266.5833, -0.00010261349, 0.0014350613, -1052094.5, 2529.7068, 0.0, 5.0156045, 4.967792 
8.777363e+1, 1.9735317e+2, -1003279.2, -1077733.9, -2284.2441, -0.000092862334, -0.0011790806, -1003209.2, 2730.0313, 0.0, 5.0156994, 4.9673886 
8.7775826e+1, 2.0231937e+2, -958120.56, -1037658.2, -2374.94, -0.00009294041, 0.0014434027, -958049.7, -779.3017, 0.0, 5.015792, 4.9642386 
8.777797e+1, 2.0728368e+2, -909188.8, -989473.1, -2388.4817, -0.00010170469, -0.0012038717, -909117.8, -497.64728, 0.0, 5.015882, 4.963852 
8.77801e+1, 2.1224634e+2, -864028.3, -949481.5, -2433.9407, -0.00011696976, 0.0015136731, -863959.06, -3972.966, 0.0, 5.0159698, 4.960647 
8.7782204e+1, 2.1720704e+2, -815031.8, -901191.8, -2442.0044, -0.0001305412, -0.0012881266, -814962.7, -3591.6099, 0.0, 5.0160575, 4.9602838 
8.7784314e+1, 2.2216614e+2, -769860.6, -861290.5, -2440.1187, -0.00013926307, 0.0015724773, -769795.5, -7023.502, 0.0, 5.016145, 4.9570217 
8.7786436e+1, 2.2712325e+2, -720802.4, -812918.8, -2440.9824, -0.00013120519, -0.0012458139, -720737.75, -6545.425, 0.0, 5.016234, 4.9566727 
8.77886e+1, 2.320787e+2, -675620.0, -773125.5, -2397.5493, -0.00012740449, 0.0016147727, -675561.06, -9932.155, 0.0, 5.0163245, 4.953347 
8.7790793e+1, 2.3703213e+2, -626473.06, -724627.9, -2390.3362, -0.00012518924, -0.0015036883, -626414.9, -9329.656, 0.0, 5.0164175, 4.9530263 
8.779304e+1, 2.4198394e+2, -581290.56, -684985.7, -2304.3801, -0.0001133801, 0.0018439867, -581239.4, -12681.707, 0.0, 5.016514, 4.949615 
8.779536e+1, 2.4693365e+2, -532024.6, -636309.06, -2288.159, -0.00009307293, -0.001544568, -531974.44, -11924.118, 0.0, 5.0166144, 4.949339 
8.7797755e+1, 2.518817e+2, -486938.7, -597054.56, -2160.8857, -0.00008759566, 0.0018197045, -486896.3, -15336.705, 0.0, 5.0167193, 4.9457636 
8.7800246e+1, 2.5682765e+2, -437378.28, -547817.6, -2133.8484, -0.00008539148, -0.0015808771, -437337.06, -14247.988, 0.0, 5.016831, 4.9456654 
8.7802833e+1, 2.617719e+2, -392506.8, -509242.47, -1969.9037, -0.00007576356, 0.0018143709, -392473.6, -17837.99, 0.0, 5.0169477, 4.941817 
8.7805563e+1, 2.6671407e+2, -342564.03, -459252.3, -1930.2952, -0.000070704555, -0.0015048471, -342532.13, -16329.8955, 0.0, 5.0170727, 4.941965 
8.7808394e+1, 2.7165443e+2, -297963.16, -421512.94, -1732.0543, -0.000079539466, 0.001832965, -297938.88, -20152.012, 0.0, 5.0172043, 4.9377794 
8.781141e+1, 2.765927e+2, -247635.61, -370768.22, -1677.5452, -0.00007499499, -0.001773905, -247612.75, -18221.238, 0.0, 5.017347, 4.938174 
8.781454e+1, 2.8152925e+2, -203060.25, -333333.75, -1450.5646, -0.0000635696, 0.0023404777, -203044.1, -22030.51, 0.0, 5.017496, 4.9338408 
8.781787e+1, 2.864637e+2, -152401.28, -281955.6, -1379.3334, -0.00004993583, -0.002483055, -152386.6, -19730.78, 0.0, 5.017658, 4.934441 
8.782135e+1, 2.913958e+2, -109541.95, -248789.98, -1117.5519, -0.000037675687, 0.0017869753, -109532.984, -25211.736, 0.0, 5.0178285, 4.9285483 
8.7825084e+1, 2.9632518e+2, -58851.465, -197508.03, -1031.4941, -0.000025232268, -0.00029532006, -58843.793, -22830.426, 0.0, 5.0180144, 4.9290895 
8.7828946e+1, 3.0126145e+2, -17337.932, -134397.0, -714.36005, -0.00002574438, 0.0024395888, -17333.572, -17333.572, 0.0, 5.018208, 4.9428287 
8.78331e+1, 3.0620486e+2, -15646.452, -131511.02, -608.89685, -0.000043672073, -0.005214819, -15643.253, -15643.253, 0.0, 5.0184183, 4.943777 
8.783739e+1, 3.1116575e+2, 23517.045, -40615.87, -229.52788, -0.00006740115, 0.0040003466, 23517.865, 23517.865, 0.0, 5.018638, 4.9769697 
8.784199e+1, 3.1614384e+2, 25937.563, -36150.285, -103.95953, -0.00014606232, -0.00078096957, 25937.736, 25937.736, 0.0, 5.018876, 4.9785166 
9.274091e+1, 1.2264653e+2, -1709124.5, -1741474.6, -333.58798, -0.000011373292, 0.001177051, -1709121.1, 28943.09, 0.0, 5.0136766, 4.992598 
9.274546e+1, 1.276386e+2, -1661075.4, -1695352.6, -400.16693, 0.0000014050879, -0.0031860145, -1661070.8, 28071.254, 0.0, 5.013892, 4.991558 
9.274975e+1, 1.3262925e+2, -1615411.5, -1654029.0, -812.6766, -0.00000721773, 0.0035840326, -1615394.4, 24839.146, 0.0, 5.014093, 4.988856 
9.2753816e+1, 1.3761784e+2, -1566902.6, -1606880.9, -871.8288, -0.000011811047, -0.0011140784, -1566883.6, 24461.682, 0.0, 5.01428, 4.9881573 
9.2757654e+1, 1.4260475e+2, -1521532.1, -1566135.9, -1239.6628, 0.00000651928, 0.00047611663, -1521497.6, 20975.852, 0.0, 5.0144525, 4.985307 
9.276129e+1, 1.475902e+2, -1472902.1, -1518659.4, -1291.1133, 0.000038286213, -0.00083003537, -1472865.8, 20750.389, 0.0, 5.0146127, 4.984725 
9.2764723e+1, 1.5257378e+2, -1427606.8, -1478053.9, -1622.3086, 0.000038975355, 0.001389319, -1427554.6, 17222.527, 0.0, 5.0147605, 4.9818482 
9.2767984e+1, 1.5755565e+2, -1378978.3, -1430514.0, -1665.173, 0.00002321959, -0.001185554, -1378924.5, 17030.2, 0.0, 5.0148973, 4.9812875 
9.277107e+1, 1.625358e+2, -1333731.8, -1390016.3, -1947.307, 0.0000029718249, 0.0013925943, -1333664.5, 13484.917, 0.0, 5.0150266, 4.9783597 
9.277401e+1, 1.675142e+2, -1285023.9, -1342285.1, -1992.4431, -0.000011841871, -0.001058027, -1284954.6, 13406.315, 0.0, 5.015149, 4.977856 
9.2776835e+1, 1.7249085e+2, -1239921.0, -1302116.0, -2220.49, -0.000026444965, 0.001262085, -1239841.9, 9747.956, 0.0, 5.0152636, 4.9747996 
9.2779523e+1, 1.774657e+2, -1191164.0, -1254251.3, -2247.335, -0.000033673263, -0.0010905269, -1191084.0, 9752.117, 0.0, 5.0153704, 4.9743357 
9.278212e+1, 1.824389e+2, -1145995.5, -1213971.8, -2440.1387, -0.00004669119, 0.0013625837, -1145908.1, 6191.0156, 0.0, 5.0154696, 4.9713016 
9.27846e+1, 1.8741025e+2, -1097208.4, -1166008.9, -2464.959, -0.00007246772, -0.001180932, -1097120.1, 6259.616, 0.0, 5.0155597, 4.9708652 
9.278701e+1, 1.9237992e+2, -1052071.9, -1125842.4, -2614.8508, -0.000077108874, 0.0014312606, -1051979.3, 2697.4807, 0.0, 5.0156465, 4.967771 
9.2789346e+1, 1.9734778e+2, -1003222.0, -1077754.3, -2634.864, -0.00006525381, -0.0011816792, -1003129.0, 2862.9583, 0.0, 5.015729, 4.9673676 
9.279163e+1, 2.0231396e+2, -958091.1, -1037676.1, -2731.8064, -0.0000642743, 0.0014401653, -957997.5, -674.15826, 0.0, 5.015809, 4.964225 
9.279385e+1, 2.0727827e+2, -909196.0, -989508.1, -2746.7075, -0.00007436345, -0.0012036349, -909102.2, -428.96283, 0.0, 5.015886, 4.963838 
9.2796063e+1, 2.122409e+2, -864061.8, -949513.4, -2795.3599, -0.00009113091, 0.0015173502, -863970.5, -3931.2043, 0.0, 5.0159616, 4.96064 
9.279825e+1, 2.1720162e+2, -815101.56, -901239.94, -2804.0234, -0.000104144885, -0.0012851618, -815010.4, -3586.0664, 0.0, 5.0160365, 4.9602766 
9.2800444e+1, 2.221607e+2, -769957.75, -861336.2, -2802.4805, -0.00011020204, 0.0015761474, -769871.9, -7046.535, 0.0, 5.0161114, 4.9570217 
9.280265e+1, 2.271178e+2, -720935.06, -812980.0, -2803.1074, -0.000107017746, -0.0012411831, -720849.75, -6604.1504, 0.0, 5.016187, 4.9566727 
9.280489e+1, 2.3207326e+2, -675779.75, -773184.25, -2756.973, -0.000105424035, 0.0016182904, -675701.75, -10019.59, 0.0, 5.0162654, 4.953354 
9.2807174e+1, 2.370267e+2, -626667.06, -724701.0, -2748.868, -0.000106311694, -0.0015007738, -626590.06, -9451.616, 0.0, 5.0163455, 4.953033 
9.280951e+1, 2.4197851e+2, -581511.25, -685056.75, -2657.456, -0.00009698397, 0.0018477213, -581443.1, -12832.335, 0.0, 5.01643, 4.9496284 
9.281193e+1, 2.4692826e+2, -532278.2, -636393.4, -2639.5505, -0.00007880652, -0.0015390626, -532211.3, -12107.959, 0.0, 5.016518, 4.9493527 
9.2814416e+1, 2.518763e+2, -487217.84, -597136.56, -2504.1448, -0.0000765172, 0.0018237456, -487160.8, -15548.388, 0.0, 5.016611, 4.945783 
9.2817014e+1, 2.568223e+2, -437689.25, -547911.9, -2474.521, -0.000076143, -0.0015801397, -437633.72, -14492.001, 0.0, 5.0167103, 4.945686 
9.2819715e+1, 2.6176655e+2, -392843.03, -509335.0, -2300.0073, -0.00006735355, 0.0018143095, -392797.63, -18109.621, 0.0, 5.016815, 4.9418426 
9.2822564e+1, 2.6670873e+2, -342929.44, -459355.4, -2256.7861, -0.00006187953, -0.0015042693, -342885.72, -16631.332, 0.0, 5.016929, 4.941992 
9.2825526e+1, 2.7164912e+2, -298352.56, -421614.8, -2045.8124, -0.00006958555, 0.0018307909, -298318.63, -20479.865, 0.0, 5.0170493, 4.9378114 
9.282867e+1, 2.7658746e+2, -248052.56, -370879.84, -1986.3016, -0.00006262345, -0.0017813632, -248020.45, -18577.371, 0.0, 5.017181, 4.9382067 
9.283194e+1, 2.81524e+2, -203498.14, -333440.4, -1744.7095, -0.000049921724, 0.002331475, -203474.72, -22409.904, 0.0, 5.0173197, 4.9338794 
9.283543e+1, 2.8645852e+2, -152864.25, -282069.66, -1667.195, -0.000037083977, -0.0024890602, -152842.75, -20136.098, 0.0, 5.017472, 4.934481 
9.2839074e+1, 2.9139066e+2, -110033.195, -248918.31, -1388.5077, -0.000026196756, 0.0017808628, -110019.32, -25647.617, 0.0, 5.017632, 4.9285874 
9.2842984e+1, 2.9632008e+2, -59368.563, -197647.94, -1295.1794, -0.000019703619, -0.00030360644, -59356.434, -23292.986, 0.0, 5.0178075, 4.929128 
9.2847043e+1, 3.012564e+2, -17869.162, -134525.6, -956.1324, -0.000021741884, 0.0024322914, -17861.326, -17861.326, 0.0, 5.017992, 4.9428744 
9.2851394e+1, 3.0619982e+2, -16199.484, -131644.53, -842.01385, -0.000031343883, -0.0052125896, -16193.344, -16193.344, 0.0, 5.0181932, 4.943825 
9.285591e+1, 3.1116077e+2, 22958.44, -40725.938, -433.5851, -0.000040344556, 0.004004069, 22961.393, 22961.393, 0.0, 5.0184045, 4.977029 
9.286074e+1, 3.1613892e+2, 25363.111, -36258.426, -297.8868, -0.00010176781, -0.0007865926, 25364.55, 25364.55, 0.0, 5.018635, 4.9785795 
9.7754586e+1, 1.2264158e+2, -1709210.5, -1741669.8, -175.41708, -0.000030529798, 0.0011692385, -1709209.5, 28903.137, 0.0, 5.013681, 4.9925323 
9.7759354e+1, 1.2763357e+2, -1661160.8, -1695546.8, -242.4931, -0.0000019631473, -0.0031949887, -1661159.0, 28032.107, 0.0, 5.0138965, 4.9914923 
9.776384e+1, 1.3262418e+2, -1615489.4, -1654207.6, -677.0797, -0.0000015446983, 0.003575341, -1615477.5, 24805.754, 0.0, 5.0140967, 4.988795 
9.776809e+1, 1.376127e+2, -1566980.4, -1607059.0, -736.7434, 0.00000092307516, -0.001122592, -1566966.9, 24428.719, 0.0, 5.014283, 4.988096 
9.7772104e+1, 1.4259957e+2, -1521601.9, -1566297.0, -1124.8566, 0.000017737982, 0.00046834486, -1521573.6, 20950.803, 0.0, 5.014456, 4.985252 
9.77759e+1, 1.4758496e+2, -1472971.9, -1518819.8, -1176.859, 0.000044530287, -0.0008390724, -1472941.8, 20725.818, 0.0, 5.014616, 4.98467 
9.777949e+1, 1.5256847e+2, -1427667.4, -1478194.9, -1525.8867, 0.000047677757, 0.00137875, -1427621.4, 17207.709, 0.0, 5.014764, 4.9817996 
9.7782874e+1, 1.575503e+2, -1379038.9, -1430654.9, -1569.2245, 0.000038327784, -0.0011939557, -1378991.3, 17015.887, 0.0, 5.0149, 4.981239 
9.7786105e+1, 1.6253039e+2, -1333802.1, -1390176.9, -1862.4965, 0.000025135121, 0.0013850898, -1333740.8, 13461.599, 0.0, 5.0150294, 4.978305 
9.778916e+1, 1.6750874e+2, -1285094.4, -1342444.6, -1907.8195, 0.000018213439, -0.0010651578, -1285031.0, 13383.467, 0.0, 5.0151515, 4.977802 
9.77921e+1, 1.7248535e+2, -1239961.9, -1302211.5, -2148.068, 0.000006491375, 0.0012519624, -1239887.9, 9755.872, 0.0, 5.0152655, 4.9747663 
9.7794896e+1, 1.774602e+2, -1191205.8, -1254346.8, -2175.1548, -0.0000035536484, -0.001099789, -1191130.9, 9759.452, 0.0, 5.015372, 4.974303 
9.779759e+1, 1.8243332e+2, -1146034.8, -1214060.3, -2380.8596, -0.00001551547, 0.0013539626, -1145951.5, 6202.113, 0.0, 5.0154705, 4.971271 
9.7800165e+1, 1.8740465e+2, -1097248.8, -1166098.6, -2405.893, -0.000037388374, -0.0011935999, -1097164.8, 6269.804, 0.0, 5.0155606, 4.9708347 
9.780266e+1, 1.9237432e+2, -1052102.5, -1125909.6, -2561.633, -0.00004050597, 0.0014244482, -1052013.8, 2718.102, 0.0, 5.0156465, 4.967748 
9.7805077e+1, 1.9734213e+2, -1003253.1, -1077820.3, -2581.9153, -0.000029011435, -0.0011868414, -1003163.9, 2883.4124, 0.0, 5.015729, 4.967345 
9.780743e+1, 2.023083e+2, -958113.56, -1037721.25, -2683.3914, -0.000028948385, 0.0014332222, -958023.2, -644.373, 0.0, 5.0158086, 4.96421 
9.7809744e+1, 2.0727259e+2, -909219.6, -989553.5, -2698.5764, -0.000041562223, -0.0012072617, -909129.1, -400.2144, 0.0, 5.015885, 4.963823 
9.7812027e+1, 2.1223521e+2, -864077.44, -949538.9, -2749.2134, -0.00005562593, 0.0015182763, -863989.06, -3894.0464, 0.0, 5.0159597, 4.960632 
9.781429e+1, 2.1719593e+2, -815118.25, -901265.25, -2757.9612, -0.00006647865, -0.0012856886, -815030.06, -3549.8826, 0.0, 5.016034, 4.960269 
9.7816557e+1, 2.22155e+2, -769966.75, -861342.0, -2755.7944, -0.000073933996, 0.0015741966, -769883.7, -7002.4937, 0.0, 5.0161085, 4.9570208 
9.7818846e+1, 2.271121e+2, -720945.1, -812985.4, -2756.3125, -0.00007400615, -0.0012402452, -720862.7, -6561.1865, 0.0, 5.016184, 4.9566727 
9.782116e+1, 2.3206757e+2, -675782.7, -773170.8, -2707.1372, -0.00007588721, 0.0016176986, -675707.5, -9969.442, 0.0, 5.016261, 4.9533606 
9.7823524e+1, 2.3702101e+2, -626671.1, -724686.94, -2698.7964, -0.000081823695, -0.0015014277, -626596.9, -9402.63, 0.0, 5.016341, 4.95304 
9.7825944e+1, 2.4197282e+2, -581508.75, -685024.9, -2601.9758, -0.000074156276, 0.0018486575, -581443.4, -12776.91, 0.0, 5.016424, 4.9496417 
9.782845e+1, 2.4692258e+2, -532276.6, -636360.3, -2583.6714, -0.000059004124, -0.0015368887, -532212.5, -12053.621, 0.0, 5.016512, 4.949367 
9.783102e+1, 2.5187066e+2, -487210.25, -597086.6, -2440.8691, -0.000059856204, 0.0018237662, -487156.06, -15488.255, 0.0, 5.0166044, 4.9458036 
9.783372e+1, 2.5681666e+2, -437682.72, -547860.75, -2410.4873, -0.000059934762, -0.0015837343, -437630.03, -14433.112, 0.0, 5.016703, 4.945707 
9.783653e+1, 2.6176092e+2, -392831.28, -509268.3, -2226.2866, -0.000053754684, 0.001810176, -392788.72, -18045.773, 0.0, 5.016807, 4.9418697 
9.783949e+1, 2.6670316e+2, -342918.66, -459287.03, -2181.706, -0.00004897299, -0.0015065691, -342877.78, -16568.719, 0.0, 5.0169206, 4.94202 
9.784257e+1, 2.7164355e+2, -298337.38, -421532.4, -1959.4188, -0.00005323363, 0.001826378, -298306.22, -20413.09, 0.0, 5.0170403, 4.9378448 
9.7845846e+1, 2.7658194e+2, -248038.55, -370796.03, -1897.7151, -0.00004357175, -0.0017917665, -248009.22, -18512.088, 0.0, 5.017171, 4.938241 
9.7849256e+1, 2.8151852e+2, -203478.69, -333339.84, -1643.3502, -0.000031343705, 0.0023199124, -203457.89, -22339.393, 0.0, 5.0173087, 4.93392 
9.7852904e+1, 2.8645307e+2, -152845.52, -281966.34, -1563.1, -0.000020439235, -0.0024950483, -152826.6, -20066.676, 0.0, 5.01746, 4.934523 
9.7856706e+1, 2.9138526e+2, -110018.08, -248818.92, -1269.5176, -0.000011616488, 0.0017760738, -110006.47, -25581.895, 0.0, 5.017619, 4.9286284 
9.7860795e+1, 2.963147e+2, -59356.535, -197551.11, -1172.4362, -0.000012038445, -0.0003145738, -59346.59, -23230.664, 0.0, 5.017794, 4.9291687 
9.7865033e+1, 3.0125102e+2, -17850.834, -134409.63, -818.0263, -0.000017455006, 0.0024195842, -17845.094, -17845.094, 0.0, 5.0179777, 4.9429226 
9.786959e+1, 3.0619457e+2, -16180.925, -131523.64, -699.518, -0.000018113493, -0.005212112, -16176.683, -16176.683, 0.0, 5.0181785, 4.943875 
9.7874314e+1, 3.1115556e+2, 22987.127, -40577.227, -273.3964, -0.00001228187, 0.004008939, 22988.303, 22988.303, 0.0, 5.0183883, 4.9770904 
9.787938e+1, 3.1613377e+2, 25393.758, -36099.656, -132.46674, -0.000056648274, -0.00079164724, 25394.043, 25394.043, 0.0, 5.0186176, 4.978646 
1.0276837e+2, 1.226364e+2, -1708666.4, -1741561.1, -356.27148, -0.00004180613, 0.001178323, -1708662.6, 29500.879, 0.0, 5.0138955, 4.992462 
1.0277335e+2, 1.2762831e+2, -1660648.3, -1695453.9, -429.67072, -0.0000012459371, -0.0031983352, -1660642.9, 28599.684, 0.0, 5.014101, 4.9914227 
1.0277804e+2, 1.3261884e+2, -1615001.3, -1654114.6, -892.46606, 0.000007052545, 0.0035657182, -1614980.9, 25354.504, 0.0, 5.014291, 4.9887304 
1.0278247e+2, 1.3760734e+2, -1566526.0, -1606982.8, -957.69995, 0.000017928744, -0.0011278943, -1566503.4, 24945.021, 0.0, 5.014467, 4.9880323 
1.02786645e+2, 1.4259411e+2, -1521173.4, -1566220.0, -1371.3864, 0.000033655047, 0.00046476588, -1521131.8, 21446.08, 0.0, 5.014628, 4.985194 
1.02790594e+2, 1.4757945e+2, -1472579.0, -1518760.4, -1428.2942, 0.000052778727, -0.00084476767, -1472534.9, 21186.607, 0.0, 5.014776, 4.984612 
1.0279433e+2, 1.5256292e+2, -1427298.6, -1478134.6, -1799.5276, 0.000056820918, 0.0013718816, -1427235.0, 17648.559, 0.0, 5.014913, 4.9817476 
1.0279785e+2, 1.5754469e+2, -1378700.0, -1430609.5, -1848.4852, 0.00005428914, -0.0011992024, -1378634.3, 17427.861, 0.0, 5.0150404, 4.981187 
1.028012e+2, 1.6252472e+2, -1333503.5, -1390159.9, -2158.1133, 0.00004955354, 0.0013811399, -1333421.4, 13836.403, 0.0, 5.0151577, 4.978249 
1.0280438e+2, 1.6750301e+2, -1284834.9, -1342446.4, -2205.0225, 0.000051564806, -0.0010681286, -1284750.6, 13719.913, 0.0, 5.0152664, 4.977746 
1.0280742e+2, 1.7247958e+2, -1239718.3, -1302179.0, -2462.3093, 0.000042677788, 0.0012473869, -1239621.3, 10078.984, 0.0, 5.0153666, 4.9747295 
1.02810316e+2, 1.7745438e+2, -1191005.8, -1254335.3, -2495.135, 0.000030150675, -0.0011040588, -1190907.6, 10039.584, 0.0, 5.015458, 4.9742656 
1.028131e+2, 1.8242748e+2, -1145865.9, -1214050.6, -2716.5586, 0.00001825414, 0.0013497695, -1145757.9, 6453.016, 0.0, 5.0155435, 4.97124 
1.02815755e+2, 1.8739878e+2, -1097115.4, -1166105.9, -2743.3818, 0.0000005296973, -0.0011997872, -1097006.4, 6485.7183, 0.0, 5.015621, 4.9708037 
1.0281834e+2, 1.923684e+2, -1051996.9, -1125913.3, -2907.3513, -0.0000009852297, 0.0014193562, -1051882.8, 2906.9482, 0.0, 5.0156946, 4.9677243 
1.0282082e+2, 1.9733621e+2, -1003187.8, -1077842.5, -2929.3596, 0.00000892691, -0.0011910024, -1003073.06, 3032.2498, 0.0, 5.015763, 4.967322 
1.0282326e+2, 2.0230235e+2, -958078.6, -1037740.25, -3037.578, 0.000008399062, 0.0014290254, -957963.0, -525.9111, 0.0, 5.015828, 4.9641943 
1.0282563e+2, 2.0726661e+2, -909225.0, -989591.25, -3054.1572, -0.0000054606203, -0.0012102572, -909109.1, -321.84082, 0.0, 5.01589, 4.9638076 
1.0282799e+2, 2.1222925e+2, -864112.25, -949573.2, -3108.1965, -0.00001700175, 0.0015169248, -863999.3, -3845.781, 0.0, 5.0159516, 4.960624 
1.0283031e+2, 2.1718994e+2, -815192.75, -901317.25, -3117.4795, -0.000025042773, -0.0012887121, -815080.06, -3541.2952, 0.0, 5.0160117, 4.9602613 
1.0283266e+2, 2.2214901e+2, -770071.75, -861391.4, -3115.4453, -0.00003268889, 0.0015704753, -769965.6, -7025.7627, 0.0, 5.016072, 4.9570208 
1.0283501e+2, 2.2710612e+2, -721089.9, -813052.0, -3115.7476, -0.000037075682, -0.001242399, -720984.44, -6624.31, 0.0, 5.016133, 4.9566727 
1.02837384e+2, 2.3206158e+2, -675957.5, -773234.7, -3063.6902, -0.000043207838, 0.0016145473, -675861.1, -10064.465, 0.0, 5.0161963, 4.9533677 
1.0283982e+2, 2.3701502e+2, -626884.3, -724766.9, -3054.3398, -0.000053675412, -0.001505467, -626789.1, -9536.333, 0.0, 5.016262, 4.953048 
1.0284232e+2, 2.4196686e+2, -581752.06, -685102.8, -2951.7039, -0.000047617123, 0.0018450591, -581667.8, -12942.917, 0.0, 5.0163317, 4.9496565 
1.028449e+2, 2.4691662e+2, -532556.8, -636452.94, -2931.6062, -0.000035456607, -0.0015406759, -532474.2, -12257.006, 0.0, 5.0164056, 4.9493823 
1.0284757e+2, 2.518647e+2, -487519.6, -597177.3, -2780.4443, -0.000038684295, 0.0018192525, -487449.13, -15723.193, 0.0, 5.0164843, 4.9458256 
1.0285036e+2, 2.5681075e+2, -438026.78, -547964.75, -2747.3733, -0.00004045688, -0.0015906242, -437958.16, -14703.345, 0.0, 5.0165696, 4.9457297 
1.0285326e+2, 2.6175508e+2, -393203.38, -509370.56, -2552.138, -0.000037102458, 0.0018028227, -393147.34, -18346.713, 0.0, 5.0166607, 4.941899 
1.0285633e+2, 2.6669732e+2, -343324.03, -459401.47, -2503.7517, -0.000031685955, -0.0015111436, -343270.03, -16903.61, 0.0, 5.016761, 4.94205 
1.0285952e+2, 2.7163777e+2, -298769.5, -421645.38, -2268.3076, -0.000032408254, 0.0018204094, -298727.66, -20777.46, 0.0, 5.016868, 4.93788 
1.02862924e+2, 2.7657613e+2, -248501.45, -370919.72, -2201.2952, -0.000021602153, -0.001802066, -248461.89, -18908.04, 0.0, 5.016987, 4.9382777 
1.0286646e+2, 2.815128e+2, -203965.42, -333458.44, -1931.867, -0.000009932544, 0.002309174, -203936.61, -22761.77, 0.0, 5.0171127, 4.9339633 
1.02870256e+2, 2.8644738e+2, -153360.6, -282093.16, -1845.145, -0.00000009426095, -0.0025009627, -153334.16, -20518.322, 0.0, 5.0172524, 4.934568 
1.02874205e+2, 2.913796e+2, -110564.6, -248961.19, -1534.2515, 0.0000064940505, 0.0017712782, -110547.59, -26067.547, 0.0, 5.0174003, 4.928672 
1.02878466e+2, 2.9630908e+2, -59931.242, -197705.67, -1429.568, -0.0000014524426, -0.00032572288, -59916.41, -23745.426, 0.0, 5.0175643, 4.929212 
1.02882884e+2, 3.0124548e+2, -18441.277, -134552.23, -1052.5619, -0.000010671578, 0.002405287, -18431.736, -18431.736, 0.0, 5.017738, 4.9429736 
1.0288764e+2, 3.0618906e+2, -16794.865, -131671.25, -925.2957, -0.0000039818483, -0.0052166455, -16787.412, -16787.412, 0.0, 5.017928, 4.9439287 
1.0289257e+2, 3.1115007e+2, 22367.338, -40699.168, -469.76486, 0.000017068873, 0.004008674, 22370.838, 22370.838, 0.0, 5.018129, 4.977156 
1.0289786e+2, 3.1612837e+2, 24756.781, -36219.105, -318.14297, -0.000010566112, -0.00079619605, 24758.441, 24758.441, 0.0, 5.0183496, 4.978716 
1.0778227e+2, 1.22631006e+2, -1708760.8, -1741778.5, -205.92961, -0.00005067128, 0.0012002975, -1708759.5, 29456.854, 0.0, 5.013901, 4.9923882 
1.0778745e+2, 1.2762284e+2, -1660742.3, -1695670.6, -279.76746, -0.000000317883, -0.0031986018, -1660740.0, 28556.246, 0.0, 5.0141063, 4.9913487 
1.07792325e+2, 1.3261332e+2, -1615086.4, -1654312.9, -765.37054, 0.000015143417, 0.003553211, -1615071.5, 25318.21, 0.0, 5.014296, 4.9886627 
1.0779694e+2, 1.3760172e+2, -1566611.0, -1607180.0, -831.1059, 0.00003576154, -0.0011323675, -1566594.0, 24909.379, 0.0, 5.0144715, 4.9879646 
1.0780127e+2, 1.4258844e+2, -1521249.5, -1566398.1, -1265.7504, 0.00005102475, 0.000462633, -1521214.0, 21419.365, 0.0, 5.014632, 4.985133 
1.0780537e+2, 1.4757371e+2, -1472655.4, -1518938.0, -1323.2068, 0.000060395807, -0.00084976363, -1472617.6, 21160.111, 0.0, 5.01478, 4.984551 
1.07809246e+2, 1.5255712e+2, -1427367.9, -1478296.5, -1710.84, 0.000063922205, 0.0013661432, -1427310.4, 17629.912, 0.0, 5.014917, 4.9816923 
1.0781289e+2, 1.5753885e+2, -1378769.4, -1430770.9, -1760.2172, 0.00006865558, -0.0012039689, -1378709.9, 17409.645, 0.0, 5.0150437, 4.9811316 
1.0781635e+2, 1.6251881e+2, -1333575.3, -1390325.5, -2083.7283, 0.000073818315, 0.0013779326, -1333498.9, 13816.874, 0.0, 5.015161, 4.9781923 
1.0781965e+2, 1.6749705e+2, -1284906.9, -1342611.5, -2131.054, 0.00008550315, -0.001070057, -1284828.3, 13700.707, 0.0, 5.0152693, 4.9776893 
1.0782278e+2, 1.7247356e+2, -1239768.8, -1302297.6, -2401.8857, 0.0000792641, 0.0012451021, -1239676.6, 10082.495, 0.0, 5.015369, 4.9746885 
1.0782578e+2, 1.7744832e+2, -1191057.4, -1254453.4, -2434.634, 0.000064697735, -0.0011067918, -1190964.0, 10042.6, 0.0, 5.01546, 4.974225 
1.0782865e+2, 1.8242139e+2, -1145907.5, -1214145.4, -2666.8555, 0.000051954237, 0.0013465531, -1145803.5, 6467.0903, 0.0, 5.0155444, 4.9712076 
1.0783138e+2, 1.8739265e+2, -1097157.4, -1166199.4, -2693.9888, 0.00003844976, -0.0012030614, -1097052.5, 6499.6973, 0.0, 5.015622, 4.970772 
1.0783404e+2, 1.9236226e+2, -1052030.5, -1125986.4, -2865.3655, 0.000038546, 0.0014127648, -1051919.6, 2930.312, 0.0, 5.0156946, 4.9676995 
1.078366e+2, 1.9733003e+2, -1003222.7, -1077916.0, -2887.838, 0.000045578745, -0.001197475, -1003111.25, 3054.6196, 0.0, 5.0157623, 4.967297 
1.07839085e+2, 2.0229615e+2, -958104.06, -1037790.9, -3000.482, 0.00004455231, 0.0014244772, -957991.25, -493.44043, 0.0, 5.015827, 4.9641776 
1.0784153e+2, 2.072604e+2, -909251.75, -989641.94, -3017.194, 0.000030353527, -0.0012155357, -909138.7, -290.49402, 0.0, 5.0158887, 4.963791 
1.0784394e+2, 2.1222302e+2, -864129.94, -949601.4, -3073.366, 0.000020971907, 0.001510869, -864019.56, -3804.997, 0.0, 5.0159497, 4.960615 
1.0784633e+2, 2.171837e+2, -815211.75, -901345.3, -3082.8345, 0.000016033166, -0.0012965872, -815101.56, -3501.6697, 0.0, 5.016009, 4.9602532 
1.0784873e+2, 2.2214277e+2, -770082.44, -861398.0, -3080.2173, 0.00000937483, 0.0015628171, -769978.6, -6977.6543, 0.0, 5.0160685, 4.95702 
1.0785114e+2, 2.2709988e+2, -721101.8, -813058.2, -3080.4792, -0.000000084062, -0.0012493641, -720998.75, -6577.4688, 0.0, 5.016129, 4.956672 
1.0785359e+2, 2.3205534e+2, -675961.6, -773220.0, -3025.1975, -0.000011018171, 0.0016073101, -675867.56, -10009.807, 0.0, 5.0161915, 4.953375 
1.0785609e+2, 2.3700881e+2, -626889.56, -724751.1, -3015.696, -0.000025413663, -0.001514108, -626796.75, -9482.903, 0.0, 5.0162563, 4.953056 
1.0785866e+2, 2.4196064e+2, -581750.3, -685067.75, -2907.525, -0.000020906271, 0.0018359422, -581668.56, -12882.728, 0.0, 5.016325, 4.9496717 
1.0786131e+2, 2.4691044e+2, -532556.2, -636416.44, -2886.9773, -0.000011618326, -0.0015509904, -532476.0, -12198.066, 0.0, 5.0163984, 4.9493985 
1.0786406e+2, 2.5185853e+2, -487512.72, -597122.75, -2728.0432, -0.000016571496, 0.0018096317, -487444.88, -15658.338, 0.0, 5.016476, 4.9458485 
1.07866935e+2, 2.568046e+2, -438021.16, -547908.75, -2694.1062, -0.000020976871, -0.0016014968, -437955.13, -14639.958, 0.0, 5.016561, 4.945753 
1.0786992e+2, 2.6174894e+2, -393192.13, -509297.34, -2489.0872, -0.000020877464, 0.0017913667, -393138.78, -18278.06, 0.0, 5.016651, 4.9419284 
1.0787309e+2, 2.6669124e+2, -343314.22, -459326.94, -2439.1882, -0.000013748101, -0.0015189338, -343262.94, -16836.715, 0.0, 5.016751, 4.9420805 
1.0787639e+2, 2.716317e+2, -298754.88, -421555.03, -2191.959, -0.000011121538, 0.001811822, -298715.75, -20706.078, 0.0, 5.0168567, 4.937917 
1.07879914e+2, 2.7657014e+2, -248488.17, -370827.6, -2122.661, -0.00000049636054, -0.0018136995, -248451.34, -18838.4, 0.0, 5.0169744, 4.9383154 
1.0788358e+2, 2.8150678e+2, -203946.48, -333348.2, -1840.2097, 0.000010407566, 0.0022977127, -203920.31, -22686.771, 0.0, 5.0171, 4.934008 
1.07887514e+2, 2.8644145e+2, -153342.56, -281979.78, -1750.586, 0.000019792105, -0.0025083306, -153318.73, -20444.656, 0.0, 5.017238, 4.934614 
1.0789161e+2, 2.913737e+2, -110550.555, -248851.7, -1424.44, 0.000023847228, 0.0017649629, -110535.89, -25998.04, 0.0, 5.0173855, 4.9287176 
1.0789603e+2, 2.963032e+2, -59920.652, -197598.67, -1315.8179, 0.000007780953, -0.000338527, -59908.08, -23679.734, 0.0, 5.0175486, 4.9292574 
1.0790062e+2, 3.012397e+2, -18424.377, -134425.14, -922.6501, -0.00000598094, 0.002388445, -18417.037, -18417.037, 0.0, 5.0177207, 4.943027 
1.0790557e+2, 3.0618328e+2, -16777.896, -131538.61, -790.7936, 0.000006590292, -0.005226709, -16772.447, -16772.447, 0.0, 5.01791, 4.943984 
1.079107e+2, 3.111444e+2, 22395.105, -40536.133, -317.09662, 0.000042360163, 0.0040028826, 22396.703, 22396.703, 0.0, 5.01811, 4.9772243 
1.07916206e+2, 3.1612277e+2, 24786.281, -36045.043, -159.96713, 0.000027244247, -0.00080021983, 24786.701, 24786.701, 0.0, 5.018329, 4.978789 
1.12796284e+2, 1.2262538e+2, -1708151.8, -1741656.1, -378.29828, -0.000056273086, 0.001177328, -1708147.5, 30123.896, 0.0, 5.014141, 4.99231 
1.1280167e+2, 1.2761715e+2, -1660170.0, -1695566.9, -458.76147, 0.0000037243667, -0.003211575, -1660164.1, 29188.004, 0.0, 5.0143347, 4.9912705 
1.1280673e+2, 1.3260753e+2, -1614542.9, -1654209.3, -973.44904, 0.000024945763, 0.0035438892, -1614519.0, 25927.264, 0.0, 5.014512, 4.988591 
1.12811506e+2, 1.3759588e+2, -1566106.0, -1607095.3, -1045.1421, 0.000052586984, -0.0011392728, -1566079.4, 25481.293, 0.0, 5.014675, 4.9878936 
1.12816e+2, 1.4258252e+2, -1520775.1, -1566314.3, -1506.8135, 0.00006577076, 0.00045577477, -1520725.3, 21966.068, 0.0, 5.014823, 4.9850683 
1.12820245e+2, 1.4756773e+2, -1472222.3, -1518874.5, -1569.8507, 0.00006544654, -0.0008565719, -1472169.5, 21666.816, 0.0, 5.0149574, 4.9844866 
1.1282424e+2, 1.5255107e+2, -1426963.5, -1478231.5, -1977.6343, 0.00006816108, 0.0013598477, -1426887.3, 18112.285, 0.0, 5.0150814, 4.9816346 
1.1282801e+2, 1.5753275e+2, -1378402.0, -1430724.0, -2030.3318, 0.00007944623, -0.0012094665, -1378323.4, 17855.895, 0.0, 5.015196, 4.9810743 
1.12831585e+2, 1.6251265e+2, -1333249.5, -1390305.8, -2372.266, 0.00009164721, 0.0013737464, -1333151.0, 14225.041, 0.0, 5.0153003, 4.9781322 
1.1283498e+2, 1.6749083e+2, -1284619.5, -1342610.4, -2424.633, 0.000110519104, -0.0010727571, -1284518.4, 14071.593, 0.0, 5.015396, 4.9776297 
1.12838216e+2, 1.724673e+2, -1239499.4, -1302266.3, -2714.62, 0.000107642794, 0.0012431456, -1239382.3, 10438.412, 0.0, 5.0154815, 4.9746456 
1.1284129e+2, 1.77442e+2, -1190834.0, -1254443.5, -2750.546, 0.000091409864, -0.0011083764, -1190715.4, 10353.121, 0.0, 5.015557, 4.9741826 
1.12844236e+2, 1.8241502e+2, -1145720.1, -1214134.0, -2996.2644, 0.000078637095, 0.001344395, -1145589.1, 6743.661, 0.0, 5.015625, 4.9711733 
1.12847045e+2, 1.8738626e+2, -1097014.1, -1166207.5, -3025.9932, 0.00006882312, -0.0012047397, -1096882.0, 6732.7476, 0.0, 5.0156875, 4.9707384 
1.1284976e+2, 1.9235584e+2, -1051919.3, -1125992.0, -3207.0789, 0.00006826068, 0.0014071879, -1051780.6, 3132.1775, 0.0, 5.015745, 4.9676743 
1.1285237e+2, 1.9732358e+2, -1003154.5, -1077942.3, -3231.293, 0.000071827555, -0.0012039366, -1003015.1, 3213.8547, 0.0, 5.015798, 4.9672713 
1.1285493e+2, 2.0228969e+2, -958066.56, -1037812.5, -3350.6304, 0.00006940959, 0.0014191237, -957926.0, -364.86206, 0.0, 5.015848, 4.96416 
1.1285742e+2, 2.0725392e+2, -909257.9, -989683.56, -3368.7605, 0.000055005385, -0.0012232466, -909117.0, -205.26273, 0.0, 5.015895, 4.963774 
1.1285989e+2, 2.1221653e+2, -864169.56, -949639.7, -3428.0754, 0.000048451595, 0.0015027057, -864032.3, -3754.0579, 0.0, 5.01594, 4.9606066 
1.12862326e+2, 2.171772e+2, -815294.25, -901402.9, -3438.1646, 0.000046953042, -0.0013045624, -815157.2, -3493.5862, 0.0, 5.015984, 4.9602447 
1.12864785e+2, 2.2213626e+2, -770197.0, -861451.8, -3435.9934, 0.000041805786, 0.0015544699, -770067.8, -7002.977, 0.0, 5.016029, 4.95702 
1.1286724e+2, 2.2709337e+2, -721259.3, -813130.6, -3436.1401, 0.00002674611, -0.0012582002, -721131.0, -6645.877, 0.0, 5.0160737, 4.9566727 
1.1286975e+2, 2.3204882e+2, -676152.2, -773289.4, -3377.8132, 0.000013813943, 0.0015990995, -676034.9, -10113.29, 0.0, 5.0161204, 4.953383 
1.128723e+2, 2.370023e+2, -627122.25, -724837.9, -3367.4321, -0.0000010674883, -0.0015235469, -627006.3, -9628.779, 0.0, 5.0161705, 4.953065 
1.1287493e+2, 2.4195415e+2, -582015.06, -685151.94, -3253.1548, 0.0000014098945, 0.0018250002, -581912.5, -13063.105, 0.0, 5.016224, 4.949688 
1.12877645e+2, 2.4690394e+2, -532860.6, -636516.3, -3230.9138, 0.000007954799, -0.0015619148, -532760.06, -12418.651, 0.0, 5.016282, 4.9494157 
1.1288046e+2, 2.518521e+2, -487849.38, -597220.8, -3063.4858, 0.000002286716, 0.0018006654, -487763.63, -15913.86, 0.0, 5.0163455, 4.945873 
1.1288342e+2, 2.5679815e+2, -438396.13, -548021.25, -3026.5798, -0.0000033344393, -0.0016115778, -438312.63, -14934.465, 0.0, 5.016415, 4.9457784 
1.1288649e+2, 2.6174253e+2, -393597.84, -509407.75, -2810.2512, -0.0000049208047, 0.0017807264, -393529.7, -18606.238, 0.0, 5.0164914, 4.941961 
1.12889744e+2, 2.6668483e+2, -343756.66, -459450.97, -2756.1616, 0.0000022967122, -0.0015270747, -343691.03, -17202.379, 0.0, 5.016577, 4.942114 
1.1289315e+2, 2.7162534e+2, -299226.9, -421677.5, -2495.0842, 0.0000080394875, 0.0018034314, -299176.1, -21104.363, 0.0, 5.016669, 4.9379563 
1.12896785e+2, 2.7656382e+2, -248994.63, -370961.94, -2420.369, 0.000020849853, -0.0018232329, -248946.61, -19271.98, 0.0, 5.016773, 4.938356 
1.1290056e+2, 2.8150055e+2, -204479.6, -333477.06, -2122.3557, 0.000030871826, 0.002287827, -204444.69, -23149.88, 0.0, 5.016885, 4.934056 
1.1290462e+2, 2.8643522e+2, -153907.06, -282117.63, -2025.9196, 0.000037109865, -0.0025154892, -153875.06, -20940.195, 0.0, 5.0170107, 4.934664 
1.1290887e+2, 2.9136756e+2, -111150.14, -249006.89, -1682.013, 0.000038527498, 0.0017592713, -111129.625, -26531.47, 0.0, 5.0171447, 4.928766 
1.1291344e+2, 2.9629713e+2, -60551.816, -197767.48, -1565.7701, 0.000017845316, -0.00034809439, -60533.953, -24245.77, 0.0, 5.017296, 4.929305 
1.129182e+2, 3.0123362e+2, -19073.477, -134581.02, -1149.3165, 0.0000006141648, 0.002375093, -19062.043, -19062.043, 0.0, 5.0174565, 4.943084 
1.12923324e+2, 3.0617732e+2, -17452.814, -131699.53, -1008.20386, 0.000016854347, -0.0052394653, -17443.918, -17443.918, 0.0, 5.0176353, 4.9440436 
1.1292866e+2, 3.1113848e+2, 21713.115, -40669.9, -504.72357, 0.00006591976, 0.0039915387, 21717.2, 21717.2, 0.0, 5.017824, 4.977297 
1.1293438e+2, 3.161169e+2, 24085.426, -36176.086, -336.52774, 0.00006256208, -0.00080243807, 24087.305, 24087.305, 0.0, 5.0180345, 4.978866 
1.1781043e+2, 1.2261955e+2, -1708254.9, -1741896.9, -237.00478, -0.00006301048, 0.0011160506, -1708253.3, 30075.365, 0.0, 5.0141478, 4.9922276 
1.17816e+2, 1.2761123e+2, -1660272.8, -1695806.8, -317.95572, 0.0000075774997, -0.003237657, -1660269.9, 29140.146, 0.0, 5.0143414, 4.9911885 
1.1782125e+2, 1.3260154e+2, -1614636.0, -1654428.8, -856.06946, 0.00003316074, 0.0035346418, -1614617.5, 25887.46, 0.0, 5.0145183, 4.988516 
1.17826186e+2, 1.375898e+2, -1566198.9, -1607313.8, -928.22174, 0.00006568343, -0.0011506163, -1566177.9, 25442.18, 0.0, 5.014681, 4.9878182 
1.1783083e+2, 1.4257638e+2, -1520858.8, -1566512.6, -1411.6901, 0.00007601108, 0.0004428103, -1520815.1, 21936.371, 0.0, 5.014828, 4.985 
1.17835194e+2, 1.4756152e+2, -1472306.5, -1519072.5, -1475.1104, 0.000066174565, -0.0008673264, -1472260.0, 21637.15, 0.0, 5.014962, 4.9844184 
1.17839314e+2, 1.5254481e+2, -1427036.3, -1478404.4, -1898.5072, 0.000067962654, 0.0013505715, -1426966.1, 18094.832, 0.0, 5.0150857, 4.981575 
1.1784321e+2, 1.5752642e+2, -1378475.1, -1430896.5, -1951.9178, 0.00008537768, -0.0012181328, -1378402.6, 17838.68, 0.0, 5.0151997, 4.9810147 
1.17846884e+2, 1.6250627e+2, -1333329.0, -1390490.3, -2308.4019, 0.0001021342, 0.0013662159, -1333236.0, 14202.756, 0.0, 5.015304, 4.9780684 
1.1785038e+2, 1.6748439e+2, -1284699.5, -1342794.6, -2360.7878, 0.00012623085, -0.0010788458, -1284603.8, 14049.415, 0.0, 5.0153995, 4.9775662 
1.178537e+2, 1.7246078e+2, -1239555.0, -1302397.1, -2666.3235, 0.00012743195, 0.0012386503, -1239442.0, 10442.38, 0.0, 5.0154843, 4.9746003 
1.1785685e+2, 1.7743546e+2, -1190890.9, -1254574.1, -2702.8328, 0.00010945082, -0.0011123086, -1190776.4, 10356.274, 0.0, 5.0155587, 4.974138 
1.1785986e+2, 1.8240844e+2, -1145766.1, -1214238.6, -2958.4485, 0.00009731403, 0.0013397734, -1145638.5, 6758.9087, 0.0, 5.0156264, 4.9711375 
1.1786273e+2, 1.8737963e+2, -1097060.8, -1166311.1, -2988.353, 0.00009074097, -0.0012083774, -1096932.1, 6747.643, 0.0, 5.015688, 4.9707026 
1.1786551e+2, 1.9234918e+2, -1051955.9, -1126071.1, -3176.6672, 0.00008750141, 0.0013993337, -1051820.0, 3158.1558, 0.0, 5.015745, 4.967647 
1.1786817e+2, 1.973169e+2, -1003193.0, -1078022.6, -3201.083, 0.000087081025, -0.0012139762, -1003056.3, 3238.2063, 0.0, 5.0157976, 4.9672446 
1.1787078e+2, 2.0228298e+2, -958095.1, -1037868.3, -3325.5178, 0.00008266403, 0.0014098092, -957956.75, -329.81107, 0.0, 5.015847, 4.964142 
1.1787331e+2, 2.072472e+2, -909287.8, -989739.2, -3344.2148, 0.0000679479, -0.0012363036, -909149.0, -171.35449, 0.0, 5.015893, 4.963756 
1.1787583e+2, 2.1220978e+2, -864189.94, -949671.1, -3405.1987, 0.0000649372, 0.0014898273, -864054.5, -3710.1575, 0.0, 5.0159373, 4.960597 
1.1787832e+2, 2.1717045e+2, -815316.2, -901434.25, -3415.398, 0.00006702097, -0.0013153374, -815180.94, -3451.132, 0.0, 5.0159807, 4.9602356 
1.17880814e+2, 2.221295e+2, -770209.75, -861459.6, -3413.0315, 0.000063864165, 0.0015428172, -770082.25, -6951.2456, 0.0, 5.0160246, 4.957019 
1.1788332e+2, 2.270866e+2, -721273.56, -813137.8, -3413.2515, 0.000042689066, -0.0012711039, -721146.94, -6595.5806, 0.0, 5.0160685, 4.956672 
1.1788587e+2, 2.3204209e+2, -676157.8, -773273.75, -3351.568, 0.000030244095, 0.0015879193, -676042.3, -10054.555, 0.0, 5.0161147, 4.953391 
1.1788847e+2, 2.3699556e+2, -627129.2, -724821.0, -3341.0322, 0.000017872328, -0.0015355069, -627015.06, -9571.425, 0.0, 5.016164, 4.953074 
1.1789115e+2, 2.4194741e+2, -582014.4, -685113.8, -3220.746, 0.000017455166, 0.0018105063, -581913.9, -12998.479, 0.0, 5.0162163, 4.9497046 
1.1789393e+2, 2.4689724e+2, -532861.4, -636476.94, -3198.1023, 0.000021571272, -0.0015752473, -532762.75, -12355.584, 0.0, 5.016274, 4.9494333 
1.1789681e+2, 2.518454e+2, -487843.34, -597161.5, -3022.9736, 0.00001580593, 0.0017902931, -487759.8, -15844.443, 0.0, 5.016336, 4.9458976 
1.17899835e+2, 2.5679147e+2, -438391.44, -547960.0, -2984.9531, 0.000009937784, -0.0016229989, -438310.16, -14866.65, 0.0, 5.016405, 4.9458046 
1.1790299e+2, 2.6173586e+2, -393587.06, -509327.6, -2758.5898, 0.000007895943, 0.001768908, -393521.34, -18532.826, 0.0, 5.01648, 4.9419937 
1.17906325e+2, 2.666782e+2, -343747.5, -459369.25, -2702.91, 0.0000137648985, -0.0015373686, -343684.38, -17130.986, 0.0, 5.0165644, 4.9421477 
1.1790982e+2, 2.7161878e+2, -299212.78, -421578.84, -2429.667, 0.000022196371, 0.0017934501, -299164.56, -21028.457, 0.0, 5.016656, 4.937997 
1.1791355e+2, 2.7655727e+2, -248982.22, -370861.44, -2352.612, 0.000038908034, -0.0018327349, -248936.81, -19198.234, 0.0, 5.016759, 4.938398 
1.1791745e+2, 2.8149405e+2, -204461.02, -333356.38, -2041.1853, 0.000047629597, 0.0022774693, -204428.7, -23070.379, 0.0, 5.0168695, 4.9341054 
1.17921636e+2, 2.864288e+2, -153889.61, -281993.4, -1941.6761, 0.00004877766, -0.002524139, -153860.19, -20862.3, 0.0, 5.016994, 4.9347153 
1.1792601e+2, 2.9136118e+2, -111137.586, -248887.72, -1582.2145, 0.00004759602, 0.0017525345, -111119.414, -26458.738, 0.0, 5.0171275, 4.928816 
1.1793073e+2, 2.962908e+2, -60543.305, -197651.1, -1461.8082, 0.000024853867, -0.0003570112, -60527.723, -24177.504, 0.0, 5.0172772, 4.929355 
1.1793565e+2, 3.0122733e+2, -19057.988, -134441.94, -1028.2723, 0.0000044554704, 0.0023627281, -19048.826, -19048.826, 0.0, 5.0174365, 4.9431424 
1.17940955e+2, 3.061711e+2, -17437.266, -131553.78, -882.3428, 0.000022097103, -0.005255887, -17430.443, -17430.443, 0.0, 5.017614, 4.9441056 
1.1794648e+2, 3.111323e+2, 21739.559, -40492.46, -360.20984, 0.00008138269, 0.0039743315, 21741.643, 21741.643, 0.0, 5.017802, 4.977372 
1.1795241e+2, 3.1611085e+2, 24113.318, -35986.855, -186.13947, 0.000082658895, -0.0008034252, 24113.895, 24113.895, 0.0, 5.01801, 4.9789467 
1.22824706e+2, 1.2261351e+2, -1707580.8, -1741760.5, -401.7497, -0.00004941173, 0.0011839349, -1707576.0, 30811.72, 0.0, 5.014414, 4.9921417 
1.2283047e+2, 1.2760511e+2, -1659640.8, -1695691.5, -488.9788, 0.000016026197, -0.0032367173, -1659634.1, 29835.959, 0.0, 5.0145936, 4.9911027 
1.2283588e+2, 1.3259533e+2, -1614035.6, -1654313.8, -1056.2698, 0.000038836606, 0.0035122386, -1614007.9, 26557.97, 0.0, 5.0147567, 4.988437 
1.2284098e+2, 1.3758351e+2, -1565640.9, -1607220.0, -1133.9895, 0.0000749214, -0.0011561363, -1565610.0, 26071.734, 0.0, 5.0149055, 4.98774 
1.2284576e+2, 1.4257002e+2, -1520335.9, -1566420.8, -1645.5356, 0.000082631006, 0.00044264388, -1520277.1, 22536.691, 0.0, 5.0150385, 4.9849286 
1.22850254e+2, 1.475551e+2, -1471831.8, -1519004.4, -1713.9537, 0.00006180798, -0.0008725813, -1471769.5, 22190.678, 0.0, 5.0151567, 4.9843473 
1.2285449e+2, 1.525383e+2, -1426597.9, -1478341.8, -2158.718, 0.00006074033, 0.001343092, -1426508.0, 18616.729, 0.0, 5.0152655, 4.981509 
1.2285849e+2, 1.5751983e+2, -1378078.0, -1430854.0, -2220.8882, 0.000083615974, -0.0012237143, -1377984.8, 18320.928, 0.0, 5.015366, 4.980949 
1.2286227e+2, 1.6249964e+2, -1332970.3, -1390461.0, -2596.6677, 0.00010366557, 0.0013612852, -1332853.1, 14650.591, 0.0, 5.015456, 4.9780054 
1.2286585e+2, 1.6747768e+2, -1284383.0, -1342785.5, -2649.1973, 0.00012887806, -0.001083234, -1284263.1, 14455.713, 0.0, 5.0155373, 4.9775033 
1.22869246e+2, 1.7245403e+2, -1239264.1, -1302364.6, -2973.7705, 0.00013104326, 0.0012344677, -1239124.3, 10826.394, 0.0, 5.015606, 4.9745536 
1.2287246e+2, 1.7742865e+2, -1190652.5, -1254566.5, -3013.424, 0.000111952686, -0.0011143418, -1190510.8, 10688.552, 0.0, 5.0156627, 4.974091 
1.22875534e+2, 1.824016e+2, -1145564.8, -1214228.4, -3281.5027, 0.00010006724, 0.0013387877, -1145408.3, 7056.2383, 0.0, 5.0157137, 4.9711 
1.22878455e+2, 1.8737274e+2, -1096906.9, -1166323.3, -3314.046, 0.00009699024, -0.0012102973, -1096749.0, 6998.2153, 0.0, 5.015759, 4.9706655 
1.2288128e+2, 1.9234227e+2, -1051837.4, -1126079.5, -3512.986, 0.00009168234, 0.0013970239, -1051671.5, 3374.4329, 0.0, 5.0158, 4.967619 
1.2288399e+2, 1.9730996e+2, -1003121.94, -1078052.9, -3539.8918, 0.00008639413, -0.001217942, -1002955.06, 3407.5466, 0.0, 5.015836, 4.9672165 
1.22886635e+2, 2.02276e+2, -958059.3, -1037894.44, -3670.9531, 0.000079697566, 0.0014040219, -957890.9, -195.67511, 0.0, 5.0158687, 4.964123 
1.2288921e+2, 2.0724021e+2, -909299.06, -989787.0, -3691.1682, 0.00006527212, -0.001243882, -909130.2, -84.017876, 0.0, 5.0158978, 4.963737 
1.2289176e+2, 2.1220277e+2, -864235.4, -949714.2, -3755.4292, 0.000064669075, 0.001481924, -864070.7, -3657.7183, 0.0, 5.0159264, 4.9605875 
1.2289428e+2, 2.1716343e+2, -815408.2, -901498.2, -3766.4329, 0.00007067296, -0.0013237554, -815243.7, -3445.177, 0.0, 5.015953, 4.9602265 
1.2289681e+2, 2.2212248e+2, -770336.7, -861519.25, -3764.61, 0.000071943046, 0.001532696, -770181.5, -6981.72, 0.0, 5.0159802, 4.957019 
1.2289935e+2, 2.2707959e+2, -721446.3, -813217.1, -3764.754, 0.00004778672, -0.0012815661, -721292.1, -6672.005, 0.0, 5.016008, 4.9566727 
1.2290194e+2, 2.3203507e+2, -676365.44, -773349.3, -3699.8804, 0.000036639136, 0.0015764108, -676224.5, -10167.966, 0.0, 5.016038, 4.9534 
1.22904584e+2, 2.3698856e+2, -627381.2, -724914.9, -3688.555, 0.00002645158, -0.001548203, -627241.9, -9729.583, 0.0, 5.0160704, 4.9530835 
1.2290731e+2, 2.4194042e+2, -582301.1, -685204.5, -3561.984, 0.000024632998, 0.0017984945, -582178.0, -13194.037, 0.0, 5.0161066, 4.9497223 
1.2291014e+2, 2.4689026e+2, -533191.06, -636584.44, -3537.486, 0.000027148488, -0.0015869918, -533070.2, -12594.609, 0.0, 5.016148, 4.949452 
1.2291307e+2, 2.5183842e+2, -488206.75, -597266.06, -3353.5203, 0.000022559716, 0.0017787504, -488103.72, -16120.205, 0.0, 5.0161943, 4.9459243 
1.22916155e+2, 2.5678456e+2, -438796.5, -548080.44, -3312.4617, 0.00001767462, -0.0016332007, -438696.2, -15184.802, 0.0, 5.0162477, 4.9458323 
1.2291937e+2, 2.6172897e+2, -394025.6, -509445.63, -3074.5842, 0.000015423355, 0.0017591076, -393943.75, -18887.664, 0.0, 5.016307, 4.942029 
1.2292279e+2, 2.666714e+2, -344225.6, -459501.6, -3014.4956, 0.000020669313, -0.0015470424, -344146.8, -17526.213, 0.0, 5.016376, 4.9421844 
1.2292637e+2, 2.7161193e+2, -299723.34, -421709.78, -2727.0085, 0.00003212355, 0.0017851968, -299662.4, -21459.455, 0.0, 5.0164523, 4.9380403 
1.229302e+2, 2.765505e+2, -249530.48, -371005.38, -2644.3584, 0.00005040672, -0.0018391857, -249472.95, -19667.947, 0.0, 5.0165405, 4.938442 
1.229342e+2, 2.8148735e+2, -205038.56, -333494.22, -2316.7793, 0.000057290334, 0.0022704394, -204996.8, -23572.51, 0.0, 5.016637, 4.934158 
1.229385e+2, 2.8642213e+2, -154501.64, -282141.1, -2210.255, 0.000054515163, -0.0025294942, -154463.38, -21400.06, 0.0, 5.016747, 4.9347696 
1.2294299e+2, 2.9135457e+2, -111788.336, -249054.6, -1832.6127, 0.000052148993, 0.0017489726, -111763.875, -27038.291, 0.0, 5.016866, 4.9288692 
1.22947864e+2, 2.9628423e+2, -61229.336, -197833.11, -1704.1356, 0.000029890036, -0.0003620758, -61208.082, -24793.467, 0.0, 5.017002, 4.9294076 
1.2295293e+2, 3.0122083e+2, -19764.754, -134610.38, -1246.4735, 0.0000074768527, 0.0023544203, -19751.227, -19751.227, 0.0, 5.0171485, 4.943205 
1.22958414e+2, 3.0616465e+2, -18172.924, -131727.64, -1091.18, 0.000025627107, -0.005270473, -18162.44, -18162.44, 0.0, 5.017314, 4.944171 
1.22964114e+2, 3.1112593e+2, 20995.01, -40637.395, -539.0099, 0.00009474408, 0.0039565815, 20999.723, 20999.723, 0.0, 5.01749, 4.977452 
1.22970246e+2, 3.1610453e+2, 23346.957, -36129.285, -352.98813, 0.00010014181, -0.00080591894, 23349.05, 23349.05, 0.0, 5.017688, 4.9790316 
1.2783912e+2, 1.2260729e+2, -1707691.8, -1742023.1, -270.82217, -0.00002408834, 0.001356084, -1707689.6, 30759.041, 0.0, 5.0144215, 4.9920516 
1.2784506e+2, 1.2759879e+2, -1659751.1, -1695953.3, -358.42712, 0.000025243029, -0.0032171435, -1659747.6, 29784.404, 0.0, 5.014601, 4.991013 
1.2785064e+2, 1.3258891e+2, -1614135.3, -1654552.8, -949.49805, 0.000039284885, 0.0034756232, -1614112.9, 26515.807, 0.0, 5.0147643, 4.9883547 
1.2785588e+2, 1.3757701e+2, -1565740.8, -1607458.5, -1027.6176, 0.00007828105, -0.0011609707, -1565715.5, 26029.832, 0.0, 5.0149126, 4.9876575 
1.278608e+2, 1.4256345e+2, -1520425.8, -1566637.5, -1562.7069, 0.000083761886, 0.0004491104, -1520373.0, 22505.256, 0.0, 5.0150447, 4.9848533 
1.278654e+2, 1.4754845e+2, -1471921.9, -1519220.4, -1631.3265, 0.000050919643, -0.00087636115, -1471865.8, 22159.604, 0.0, 5.0151625, 4.9842725 
1.2786976e+2, 1.5253158e+2, -1426684.3, -1478548.0, -2090.0347, 0.000045510726, 0.0013340333, -1426600.1, 18590.49, 0.0, 5.015271, 4.9814377 
1.2787385e+2, 1.5751305e+2, -1378165.1, -1431060.0, -2153.1853, 0.000073432595, -0.0012299543, -1378077.6, 18294.566, 0.0, 5.015371, 4.980878 
1.2787773e+2, 1.6249277e+2, -1333047.9, -1390644.6, -2543.9578, 0.0000959325, 0.0013552249, -1332935.8, 14635.262, 0.0, 5.0154605, 4.977942 
1.278814e+2, 1.6747077e+2, -1284462.0, -1342968.6, -2596.358, 0.000119169476, -0.0010894652, -1284347.0, 14439.698, 0.0, 5.015541, 4.9774404 
1.2788485e+2, 1.7244706e+2, -1239324.9, -1302506.8, -2939.2412, 0.000119888835, 0.0012270211, -1239188.4, 10830.636, 0.0, 5.015609, 4.974504 
1.2788813e+2, 1.7742161e+2, -1190714.3, -1254708.5, -2979.3708, 0.00010010327, -0.0011185751, -1190575.9, 10692.345, 0.0, 5.015665, 4.974042 
1.2789124e+2, 1.8239452e+2, -1145615.1, -1214343.4, -3256.2585, 0.00008807059, 0.0013371712, -1145461.3, 7072.609, 0.0, 5.015715, 4.9710603 
1.2789421e+2, 1.8736564e+2, -1096959.5, -1166439.9, -3289.0376, 0.00008821111, -0.0012159381, -1096804.1, 7012.7314, 0.0, 5.01576, 4.9706254 
1.2789708e+2, 1.9233511e+2, -1051878.9, -1126168.8, -3495.231, 0.000081703874, 0.001394817, -1051714.8, 3401.1711, 0.0, 5.0158, 4.9675884 
1.2789983e+2, 1.9730276e+2, -1003164.44, -1078140.8, -3522.4312, 0.00007046479, -0.001221343, -1002999.3, 3433.6042, 0.0, 5.015835, 4.967187 
1.2790251e+2, 2.022688e+2, -958091.1, -1037955.5, -3658.4868, 0.00006137479, 0.0013966251, -957923.94, -158.10368, 0.0, 5.0158668, 4.9641027 
1.279051e+2, 2.0723297e+2, -909332.8, -989848.5, -3679.1067, 0.000047604164, -0.0012509783, -909165.06, -48.15022, 0.0, 5.0158954, 4.9637175 
1.2790768e+2, 2.1219553e+2, -864258.75, -949749.3, -3745.135, 0.000048319627, 0.001474281, -864095.0, -3611.1003, 0.0, 5.015923, 4.960577 
1.2791023e+2, 2.1715617e+2, -815433.25, -901533.06, -3756.4033, 0.000058461992, -0.0013336968, -815269.7, -3400.1462, 0.0, 5.015949, 4.9602165 
1.2791279e+2, 2.2211522e+2, -770351.75, -861528.06, -3754.2512, 0.00006611252, 0.0015208191, -770197.44, -6926.56, 0.0, 5.0159755, 4.957018 
1.2791535e+2, 2.2707234e+2, -721463.0, -813225.25, -3754.558, 0.00004136471, -0.0012922985, -721309.6, -6618.422, 0.0, 5.016002, 4.9566727 
1.2791798e+2, 2.3202781e+2, -676373.06, -773333.1, -3686.2056, 0.000031800246, 0.0015619887, -676233.1, -10105.586, 0.0, 5.016031, 4.9534087 
1.2792066e+2, 2.369813e+2, -627390.4, -724897.5, -3674.7603, 0.000023692764, -0.001564163, -627252.06, -9668.813, 0.0, 5.0160627, 4.953093 
1.2792341e+2, 2.419332e+2, -582301.9, -685163.5, -3542.1013, 0.000021829543, 0.0017864386, -582180.06, -13125.278, 0.0, 5.016098, 4.949741 
1.2792629e+2, 2.4688305e+2, -533193.25, -636541.6, -3517.0862, 0.00002340718, -0.0015994766, -533073.7, -12527.533, 0.0, 5.0161386, 4.9494715 
1.2792927e+2, 2.5183123e+2, -488201.5, -597201.25, -3325.2407, 0.000020911104, 0.0017637946, -488100.13, -16046.219, 0.0, 5.016184, 4.9459515 
1.279324e+2, 2.567774e+2, -438793.03, -548014.1, -3283.1025, 0.000018041465, -0.0016447267, -438694.44, -15112.924, 0.0, 5.016236, 4.945861 
1.2793568e+2, 2.6172185e+2, -394015.56, -509358.66, -3034.9314, 0.000015578784, 0.0017487111, -393935.75, -18809.848, 0.0, 5.016294, 4.9420652 
1.2793916e+2, 2.6666427e+2, -344217.25, -459412.38, -2973.0757, 0.000020764515, -0.0015584836, -344140.56, -17450.523, 0.0, 5.016362, 4.9422216 
1.2794282e+2, 2.716049e+2, -299709.9, -421602.56, -2673.2336, 0.00003547429, 0.0017762759, -299651.3, -21379.3, 0.0, 5.016437, 4.9380846 
1.2794673e+2, 2.7654353e+2, -249519.02, -370896.06, -2588.1868, 0.00005323925, -0.0018453122, -249463.86, -19590.252, 0.0, 5.016524, 4.938488 
1.2795083e+2, 2.8148037e+2, -205020.56, -333362.94, -2246.7786, 0.00005774802, 0.002263904, -204981.23, -23488.832, 0.0, 5.016619, 4.9342117 
1.2795524e+2, 2.8641522e+2, -154485.14, -282006.06, -2136.9834, 0.00005200547, -0.0025343597, -154449.34, -21318.453, 0.0, 5.016728, 4.934826 
1.2795986e+2, 2.9134768e+2, -111777.31, -248924.83, -1743.5886, 0.000049477185, 0.0017458088, -111755.15, -26962.543, 0.0, 5.0168457, 4.928924 
1.2796487e+2, 2.9627743e+2, -61222.9, -197706.33, -1610.7733, 0.000029590872, -0.0003663736, -61203.89, -24722.791, 0.0, 5.0169806, 4.9294624 
1.2797008e+2, 3.0121407e+2, -19751.252, -134459.69, -1135.214, 0.0000055738583, 0.00234718, -19740.018, -19740.018, 0.0, 5.017125, 4.9432693 
1.2797572e+2, 3.0615795e+2, -18159.521, -131569.5, -974.76086, 0.000022732054, -0.0052856286, -18151.145, -18151.145, 0.0, 5.017289, 4.9442387 
1.279816e+2, 3.1111935e+2, 21020.295, -40444.168, -403.3601, 0.00009925234, 0.003936616, 21022.941, 21022.941, 0.0, 5.0174637, 4.9775343 
1.2798794e+2, 3.1609803e+2, 23373.742, -35923.03, -211.04524, 0.00010173284, -0.00081142207, 23374.494, 23374.494, 0.0, 5.0176597, 4.97912 
1.3285369e+2, 1.2260084e+2, -1706955.9, -1741873.8, -427.61072, -0.0000355694, 0.0011346664, -1706950.6, 31561.246, 0.0, 5.0147114, 4.991958 
1.328598e+2, 1.2759225e+2, -1659058.8, -1695826.0, -521.2279, 0.000027057224, -0.0032679888, -1659051.4, 30544.664, 0.0, 5.0148773, 4.9909196 
1.3286553e+2, 1.3258229e+2, -1613476.5, -1654424.8, -1142.1057, 0.000043226373, 0.003496933, -1613444.6, 27248.936, 0.0, 5.0150256, 4.9882693 
1.3287093e+2, 1.375703e+2, -1565129.1, -1607354.1, -1225.4298, 0.00007751423, -0.0011679314, -1565093.6, 26717.41, 0.0, 5.0151587, 4.987572 
1.3287596e+2, 1.4255665e+2, -1519849.9, -1566533.9, -1789.0883, 0.00007789999, 0.00043194875, -1519781.4, 23163.408, 0.0, 5.015276, 4.9847755 
1.3288067e+2, 1.4754158e+2, -1471393.3, -1519140.3, -1862.455, 0.000036536985, -0.0008837647, -1471320.8, 22771.86, 0.0, 5.015378, 4.9841948 
1.3288513e+2, 1.5252465e+2, -1426207.6, -1478499.0, -2343.7046, 0.000027516802, 0.0013294787, -1426102.9, 19155.83, 0.0, 5.0154705, 4.981358 
1.3288932e+2, 1.5750603e+2, -1377738.6, -1431035.4, -2418.651, 0.000056300898, -0.0012375613, -1377629.0, 18812.021, 0.0, 5.015554, 4.9807982 
1.3289326e+2, 1.6248567e+2, -1332647.3, -1390589.5, -2829.9944, 0.000078952486, 0.0013471692, -1332509.4, 15131.11, 0.0, 5.0156255, 4.9778814 
1.32897e+2, 1.674636e+2, -1284117.9, -1342940.9, -2879.8604, 0.0000989384, -0.0010946641, -1283977.3, 14879.557, 0.0, 5.015687, 4.97738 
1.3290052e+2, 1.7243983e+2, -1239021.1, -1302477.9, -3240.8792, 0.00009699716, 0.0012221717, -1238856.0, 11233.706, 0.0, 5.015737, 4.974453 
1.3290384e+2, 1.7741436e+2, -1190459.6, -1254703.1, -3284.6667, 0.0000781874, -0.0011229024, -1190292.1, 11047.273, 0.0, 5.0157766, 4.973991 
1.3290702e+2, 1.823872e+2, -1145396.4, -1214333.0, -3574.291, 0.00006478238, 0.0013337861, -1145211.5, 7393.9385, 0.0, 5.01581, 4.9710193 
1.3291e+2, 1.8735828e+2, -1096793.5, -1166454.9, -3610.2393, 0.00006669733, -0.00122047, -1096606.9, 7282.0493, 0.0, 5.0158367, 4.9705844 
1.329129e+2, 1.9232772e+2, -1051752.4, -1126179.6, -3825.774, 0.000059331203, 0.0013902009, -1051556.3, 3632.1157, 0.0, 5.015858, 4.9675574 
1.3291568e+2, 1.9729535e+2, -1003089.9, -1078175.4, -3855.0803, 0.000043569977, -0.0012266521, -1002892.44, 3613.2004, 0.0, 5.0158753, 4.9671564 
1.3291839e+2, 2.0226136e+2, -958055.6, -1037985.6, -3998.1711, 0.00003184642, 0.0013901532, -957856.1, -17.358797, 0.0, 5.015889, 4.9640822 
1.3292101e+2, 2.0722552e+2, -909348.44, -989902.25, -4020.2588, 0.000017568123, -0.0012583444, -909148.3, 41.805183, 0.0, 5.0158997, 4.963697 
1.329236e+2, 2.1218805e+2, -864310.75, -949797.5, -4089.385, 0.000022045118, 0.0014648092, -864115.6, -3558.3584, 0.0, 5.0159097, 4.9605665 
1.3292617e+2, 2.1714868e+2, -815535.7, -901603.7, -4101.379, 0.000036650887, -0.0013443469, -815340.7, -3397.6853, 0.0, 5.0159183, 4.9602065 
1.3292874e+2, 2.2210772e+2, -770491.6, -861593.94, -4099.4497, 0.000047619244, 0.001509829, -770307.56, -6963.154, 0.0, 5.015927, 4.9570174 
1.3293132e+2, 2.2706483e+2, -721651.7, -813311.94, -4099.943, 0.000024865956, -0.0013023686, -721468.6, -6703.935, 0.0, 5.015936, 4.9566727 
1.3293396e+2, 2.320203e+2, -676598.6, -773415.56, -4028.3037, 0.00001802904, 0.0015517485, -676431.3, -10230.265, 0.0, 5.0159473, 4.9534183 
1.3293666e+2, 2.3697382e+2, -627663.06, -724999.2, -4016.0947, 0.000012793172, -0.0015740267, -627497.7, -9841.037, 0.0, 5.0159616, 4.9531035 
1.3293946e+2, 2.4192572e+2, -582611.7, -685261.1, -3877.094, 0.0000121943895, 0.0017782485, -582465.44, -13337.444, 0.0, 5.01598, 4.94976 
1.3294235e+2, 2.468756e+2, -533549.25, -636657.25, -3850.1597, 0.000012617681, -0.0016086394, -533405.7, -12786.479, 0.0, 5.0160027, 4.949492 
1.3294537e+2, 2.518238e+2, -488593.63, -597313.44, -3649.439, 0.000014343874, 0.0017545989, -488471.28, -16344.536, 0.0, 5.016031, 4.9459805 
1.3294855e+2, 2.5676998e+2, -439229.47, -548143.06, -3604.1826, 0.000015531868, -0.0016508914, -439110.34, -15456.287, 0.0, 5.016066, 4.9458914 
1.3295187e+2, 2.617145e+2, -394487.4, -509484.38, -3344.1187, 0.000012730807, 0.0017427232, -394390.22, -19192.121, 0.0, 5.0161076, 4.9421034 
1.3295542e+2, 2.6665697e+2, -344732.0, -459553.47, -3277.8586, 0.000017922099, -0.0015670256, -344638.5, -17876.645, 0.0, 5.0161586, 4.9422617 
1.3295914e+2, 2.7159762e+2, -300260.0, -421742.3, -2963.5432, 0.00003606203, 0.0017693057, -300187.75, -21844.346, 0.0, 5.0162177, 4.9381313 
1.3296314e+2, 2.765363e+2, -250109.64, -371049.6, -2872.8315, 0.00005245663, -0.0018457443, -250041.44, -20096.9, 0.0, 5.0162883, 4.9385366 
1.3296732e+2, 2.814732e+2, -205642.89, -333509.7, -2514.93, 0.000054446406, 0.0022642985, -205593.45, -24030.621, 0.0, 5.0163674, 4.9342694 
1.3297184e+2, 2.8640807e+2, -155145.64, -282163.72, -2397.8738, 0.000047558362, -0.0025382023, -155100.39, -21899.652, 0.0, 5.016461, 4.9348855 
1.3297655e+2, 2.9134065e+2, -112480.33, -249103.48, -1985.8751, 0.000047137873, 0.0017420413, -112451.47, -27589.58, 0.0, 5.0165634, 4.9289823 
1.3298169e+2, 2.9627046e+2, -61964.37, -197901.4, -1844.8635, 0.000032020595, -0.00036220052, -61939.336, -25389.527, 0.0, 5.016683, 4.92952 
1.3298704e+2, 3.0120715e+2, -20516.053, -134640.77, -1344.6665, 0.000007529272, 0.0023525555, -20500.213, -20500.213, 0.0, 5.0168133, 4.943337 
1.3299283e+2, 3.061511e+2, -18956.643, -131756.63, -1174.4932, 0.000022664095, -0.005298266, -18944.416, -18944.416, 0.0, 5.0169635, 4.94431 
1.3299887e+2, 3.1111255e+2, 20212.316, -40600.13, -572.89374, 0.00010530479, 0.003914532, 20217.715, 20217.715, 0.0, 5.017125, 4.977621 
1.330054e+2, 3.1609133e+2, 22539.922, -36077.145, -368.46628, 0.00010578674, -0.00080732204, 22542.238, 22542.238, 0.0, 5.0173087, 4.9792123 
1.3786839e+2, 1.2259416e+2, -1707074.0, -1742157.4, -307.18155, -0.00008190152, 0.0005958713, -1707071.4, 31505.883, 0.0, 5.0147204, 4.9918604 
1.3787468e+2, 1.2758553e+2, -1659176.3, -1696108.5, -401.04507, 0.00001958834, -0.0033791293, -1659171.9, 30490.088, 0.0, 5.0148864, 4.990822 
1.3788055e+2, 1.325755e+2, -1613582.0, -1654682.0, -1046.8102, 0.000047284906, 0.0035604278, -1613555.4, 27204.848, 0.0, 5.015034, 4.98818 
1.3788608e+2, 1.3756342e+2, -1565234.9, -1607610.5, -1130.3605, 0.00007086468, -0.0011805193, -1565204.8, 26673.875, 0.0, 5.015167, 4.9874835 
1.3789123e+2, 1.4254968e+2, -1519945.1, -1566767.3, -1718.0366, 0.000064325366, 0.00039279202, -1519882.1, 23131.135, 0.0, 5.0152836, 4.9846945 
1.3789606e+2, 1.4753452e+2, -1471489.1, -1519373.3, -1791.755, 0.000017064169, -0.0008971043, -1471422.1, 22739.648, 0.0, 5.015385, 4.9841137 
1.3790059e+2, 1.5251748e+2, -1426313.8, -1478751.4, -2287.579, 0.000004761549, 0.0013254662, -1426214.1, 19114.564, 0.0, 5.015477, 4.981271 
1.3790487e+2, 1.5749878e+2, -1377845.3, -1431287.3, -2362.6748, 0.00003119975, -0.0012497205, -1377741.0, 18770.996, 0.0, 5.0155597, 4.980711 
1.3790889e+2, 1.6247836e+2, -1332716.3, -1390759.5, -2790.9973, 0.000052498926, 0.001333689, -1332582.4, 15129.734, 0.0, 5.015631, 4.9778223 
1.3791268e+2, 1.6745624e+2, -1284189.6, -1343111.9, -2841.612, 0.000068304194, -0.0011035738, -1284052.9, 14876.085, 0.0, 5.0156913, 4.9773207 
1.3791627e+2, 1.7243241e+2, -1239087.1, -1302632.9, -3219.3694, 0.000062449064, 0.0012151127, -1238924.5, 11238.005, 0.0, 5.0157404, 4.9743996 
1.3791962e+2, 1.7740688e+2, -1190526.9, -1254857.9, -3263.1968, 0.000045895613, -0.0011321094, -1190361.8, 11050.925, 0.0, 5.015779, 4.9739375 
1.3792281e+2, 1.8237968e+2, -1145451.8, -1214459.4, -3562.6777, 0.000030330553, 0.0013243626, -1145268.4, 7410.885, 0.0, 5.015812, 4.9709754 
1.3792585e+2, 1.873507e+2, -1096850.3, -1166580.6, -3599.201, 0.00003242687, -0.0012282326, -1096665.0, 7298.1313, 0.0, 5.0158377, 4.9705415 
1.3792875e+2, 1.9232011e+2, -1051797.3, -1126275.8, -3821.747, 0.000024810246, 0.0013792086, -1051601.6, 3661.3372, 0.0, 5.015858, 4.967525 
1.3793156e+2, 1.9728771e+2, -1003136.8, -1078271.8, -3851.6116, 0.0000051464, -0.0012380037, -1002939.9, 3640.6726, 0.0, 5.0158744, 4.967124 
1.3793427e+2, 2.022537e+2, -958090.8, -1038052.4, -3999.2559, -0.000009365806, 0.0013805884, -957891.3, 22.647945, 0.0, 5.0158873, 4.964061 
1.379369e+2, 2.0721781e+2, -909385.7, -989969.06, -4021.3962, -0.000025575007, -0.0012695945, -909185.5, 79.949455, 0.0, 5.015897, 4.9636755 
1.379395e+2, 2.1218035e+2, -864336.9, -949835.7, -4092.581, -0.000015132752, 0.0014501207, -864141.44, -3508.69, 0.0, 5.015906, 4.9605556 
1.3794208e+2, 2.1714096e+2, -815563.8, -901641.7, -4104.94, 0.0000040829063, -0.0013587852, -815368.5, -3349.903, 0.0, 5.015913, 4.9601955 
1.3794465e+2, 2.221e+2, -770509.4, -861604.44, -4102.283, 0.000015001414, 0.0014964907, -770325.0, -6904.9443, 0.0, 5.015921, 4.957017 
1.3794726e+2, 2.2705711e+2, -721671.2, -813321.6, -4102.9966, -0.0000031848335, -0.0013153024, -721487.9, -6647.4917, 0.0, 5.0159287, 4.9566727 
1.379499e+2, 2.3201258e+2, -676608.44, -773398.9, -4027.7126, -0.000006405045, 0.0015418928, -676441.1, -10164.46, 0.0, 5.0159397, 4.953428 
1.3795263e+2, 2.369661e+2, -627674.6, -724981.06, -4015.4248, -0.000007940019, -0.0015818188, -627509.2, -9777.024, 0.0, 5.0159526, 4.953114 
1.3795543e+2, 2.4191803e+2, -582614.1, -685217.4, -3870.4675, -0.0000061113715, 0.0017698605, -582468.4, -13264.955, 0.0, 5.0159698, 4.94978 
1.3795836e+2, 2.4686792e+2, -533553.44, -636611.5, -3842.8823, -0.000007142756, -0.0016183987, -533410.3, -12715.895, 0.0, 5.0159917, 4.949513 
1.379614e+2, 2.5181615e+2, -488589.94, -597244.2, -3633.9219, 0.00000069881776, 0.0017473408, -488468.53, -16266.852, 0.0, 5.0160184, 4.9460106 
1.3796462e+2, 2.567624e+2, -439227.56, -548071.56, -3587.5732, 0.000007652554, -0.0016556823, -439109.44, -15380.752, 0.0, 5.0160527, 4.9459224 
1.3796797e+2, 2.6170692e+2, -394478.44, -509390.4, -3317.1382, 0.0000040746677, 0.0017373223, -394382.78, -19110.348, 0.0, 5.016093, 4.942143 
1.3797158e+2, 2.6664943e+2, -344725.13, -459457.38, -3249.0483, 0.000009294059, -0.0015757559, -344633.2, -17797.416, 0.0, 5.016143, 4.9423027 
1.3797535e+2, 2.715901e+2, -300247.72, -421626.72, -2922.068, 0.000030963514, 0.001761382, -300177.4, -21760.527, 0.0, 5.0162, 4.93818 
1.3797942e+2, 2.7652884e+2, -250099.64, -370931.63, -2828.8472, 0.000045132492, -0.0018444608, -250033.45, -20015.932, 0.0, 5.0162697, 4.9385867 
1.3798368e+2, 2.814658e+2, -205625.92, -333367.75, -2456.9355, 0.000044171982, 0.0022674564, -205578.69, -23943.404, 0.0, 5.0163474, 4.9343286 
1.3798828e+2, 2.8640077e+2, -155130.39, -282017.63, -2336.456, 0.000037420214, -0.002543583, -155087.39, -21814.787, 0.0, 5.016439, 4.9349465 
1.3799311e+2, 2.9133335e+2, -112471.27, -248963.33, -1908.3125, 0.00004067, 0.001735547, -112444.6, -27511.445, 0.0, 5.01654, 4.9290423 
1.3799837e+2, 2.9626322e+2, -61960.53, -197764.53, -1762.7806, 0.000031972166, -0.0003544717, -61937.652, -25317.168, 0.0, 5.0166583, 4.9295797 
1.3800384e+2, 3.0119997e+2, -20504.979, -134478.4, -1244.1466, 0.0000074150867, 0.0023645717, -20491.398, -20491.398, 0.0, 5.016787, 4.943407 
1.380098e+2, 3.06144e+2, -18945.893, -131586.05, -1068.4661, 0.000019383388, -0.005311316, -18935.758, -18935.758, 0.0, 5.0169353, 4.944384 
1.3801599e+2, 3.1110555e+2, 20235.707, -40391.555, -447.07303, 0.000105765685, 0.0038890408, 20239.004, 20239.004, 0.0, 5.0170946, 4.9777107 
1.380227e+2, 3.160844e+2, 22564.693, -35854.613, -235.925, 0.0001006261, -0.00079907675, 22565.646, 22565.646, 0.0, 5.0172763, 4.979308 
1.4288329e+2, 1.2258748e+2, -1706275.5, -1741994.1, -457.55557, 0.00005624898, 0.0017606382, -1706269.6, 32373.184, 0.0, 5.015035, 4.9917593 
1.4288971e+2, 1.2757865e+2, -1658422.0, -1695964.6, -555.6592, 0.000051697785, -0.0031184538, -1658413.8, 31315.635, 0.0, 5.015186, 4.990722 
1.4289574e+2, 1.3256846e+2, -1612865.5, -1654541.5, -1231.6232, 0.000014951683, 0.0032906942, -1612829.1, 28000.023, 0.0, 5.0153184, 4.9880877 
1.4290138e+2, 1.3755631e+2, -1564567.6, -1607494.4, -1320.6798, 0.00006111518, -0.0011907181, -1564527.1, 27421.117, 0.0, 5.015435, 4.987391 
1.4290665e+2, 1.425425e+2, -1519317.9, -1566655.5, -1938.4214, 0.00006109432, 0.0004700371, -1519238.6, 23844.943, 0.0, 5.0155354, 4.9846096 
1.4291155e+2, 1.4752723e+2, -1470912.9, -1519286.8, -2018.4664, -0.00000089910765, -0.00090923475, -1470828.9, 23404.246, 0.0, 5.0156207, 4.984029 
1.4291619e+2, 1.5251014e+2, -1425793.8, -1478701.6, -2533.5378, -0.000020446176, 0.0012822764, -1425672.6, 19728.174, 0.0, 5.0156956, 4.981182 
1.4292054e+2, 1.5749133e+2, -1377376.0, -1431262.1, -2611.5671, 0.000006298581, -0.0012629901, -1377249.6, 19335.291, 0.0, 5.0157614, 4.980623 
1.429246e+2, 1.6247085e+2, -1332271.8, -1390691.4, -3064.5637, 0.000025243022, 0.0013323474, -1332111.5, 15674.399, 0.0, 5.015813, 4.977758 
1.4292845e+2, 1.6744864e+2, -1283813.9, -1343077.1, -3122.3164, 0.000034151646, -0.0011137633, -1283649.9, 15353.531, 0.0, 5.01585, 4.977257 
1.4293207e+2, 1.7242476e+2, -1238757.9, -1302599.3, -3518.6929, 0.000025320393, 0.0012035685, -1238564.5, 11672.925, 0.0, 5.015879, 4.974345 
1.4293545e+2, 1.7739917e+2, -1190248.9, -1254848.1, -3564.7722, 0.000013126339, -0.001139033, -1190052.8, 11435.421, 0.0, 5.0159, 4.9738836 
1.4293867e+2, 1.8237193e+2, -1145216.9, -1214448.9, -3876.8079, -0.0000022044894, 0.0013183616, -1145000.5, 7754.6895, 0.0, 5.0159135, 4.970931 
1.4294171e+2, 1.8734291e+2, -1096671.3, -1166595.3, -3915.6995, -0.0000015226575, -0.0012327069, -1096452.6, 7586.9404, 0.0, 5.01592, 4.9704976 
1.4294463e+2, 1.9231229e+2, -1051659.3, -1126286.0, -4147.477, -0.00001212814, 0.0013734727, -1051429.5, 3910.2537, 0.0, 5.0159216, 4.967492 
1.4294744e+2, 1.9727983e+2, -1003056.5, -1078309.5, -4179.1836, -0.00003446733, -0.0012418184, -1002825.1, 3832.573, 0.0, 5.0159183, 4.967091 
1.4295016e+2, 2.0224579e+2, -958050.9, -1038084.4, -4333.376, -0.00005016844, 0.0013778656, -957816.94, 174.42345, 0.0, 5.0159116, 4.9640384 
1.4295278e+2, 2.072099e+2, -909401.2, -990026.2, -4356.9893, -0.000064791755, -0.0012739686, -909166.44, 176.66548, 0.0, 5.015902, 4.9636536 
1.429554e+2, 2.1217239e+2, -864394.94, -949888.44, -4430.886, -0.00005114599, 0.0014446896, -864165.94, -3455.3545, 0.0, 5.015891, 4.960544 
1.4295796e+2, 2.1713302e+2, -815675.44, -901718.25, -4444.0723, -0.000030514318, -0.001363437, -815446.5, -3349.994, 0.0, 5.0158796, 4.9601846 
1.4296056e+2, 2.2209205e+2, -770660.7, -861675.9, -4441.386, -0.000017338956, 0.001492114, -770444.5, -6946.416, 0.0, 5.015868, 4.9570165 
1.4296316e+2, 2.2704914e+2, -721874.75, -813415.4, -4442.2437, -0.000033152908, -0.0013202776, -721659.7, -6741.3276, 0.0, 5.0158577, 4.956673 
1.429658e+2, 2.3200464e+2, -676852.2, -773488.06, -4363.505, -0.00003176759, 0.0015393749, -676655.56, -10300.963, 0.0, 5.015849, 4.9534383 
1.4296852e+2, 2.3695818e+2, -627969.94, -725091.1, -4350.386, -0.00002786782, -0.0015833436, -627775.44, -9965.458, 0.0, 5.0158434, 4.953125 
1.4297132e+2, 2.419101e+2, -582948.56, -685322.8, -4198.872, -0.000023971359, 0.0017669551, -582776.6, -13495.549, 0.0, 5.0158415, 4.949801 
1.4297426e+2, 2.4686001e+2, -533937.2, -636736.1, -4169.392, -0.000025411733, -0.0016227991, -533768.4, -12996.49, 0.0, 5.015845, 4.9495354 
1.4297733e+2, 2.518083e+2, -489013.0, -597365.25, -3951.2827, -0.000012885143, 0.0017451422, -488869.13, -16590.215, 0.0, 5.0158534, 4.946042 
1.4298056e+2, 2.5675455e+2, -439698.03, -548210.1, -3901.7815, -0.0000005025552, -0.0016562189, -439557.9, -15752.309, 0.0, 5.0158696, 4.9459553 
1.4298396e+2, 2.616991e+2, -394986.9, -509525.28, -3619.4128, -0.00000247996, 0.0017367216, -394872.66, -19523.68, 0.0, 5.0158916, 4.942185 
1.429876e+2, 2.6664168e+2, -345279.3, -459608.63, -3546.8362, 0.0000018796738, -0.0015779978, -345169.4, -18257.49, 0.0, 5.015924, 4.9423456 
1.4299142e+2, 2.715824e+2, -300839.47, -421776.22, -3205.1187, 0.000025130239, 0.0017604928, -300754.56, -22262.006, 0.0, 5.0159636, 4.938231 
1.4299555e+2, 2.7652115e+2, -250735.73, -371096.2, -3106.2737, 0.000038495873, -0.0018370188, -250655.63, -20562.94, 0.0, 5.016016, 4.938639 
1.4299987e+2, 2.814582e+2, -206296.4, -333524.6, -2717.4656, 0.00003623818, 0.002276594, -206238.39, -24528.482, 0.0, 5.016076, 4.9343905 
1.4300457e+2, 2.8639323e+2, -155841.31, -282185.78, -2589.4438, 0.000029295796, -0.002543058, -155788.27, -22441.66, 0.0, 5.0161514, 4.9350114 
1.4300948e+2, 2.9132587e+2, -113227.86, -249154.44, -2142.3076, 0.0000362894, 0.0017344449, -113194.1, -28187.572, 0.0, 5.016236, 4.9291053 
1.4301485e+2, 2.962558e+2, -62758.88, -197973.53, -1988.618, 0.000036506714, -0.0003408948, -62729.637, -26036.396, 0.0, 5.016338, 4.9296427 
1.4302045e+2, 3.0119264e+2, -21329.07, -134672.31, -1445.1487, 0.00001380355, 0.0023832326, -21310.648, -21310.648, 0.0, 5.016451, 4.943481 
1.4302653e+2, 3.0613673e+2, -19805.232, -131786.27, -1259.199, 0.000020768102, -0.0053163227, -19791.074, -19791.074, 0.0, 5.0165844, 4.944462 
1.4303288e+2, 3.1109837e+2, 19363.525, -40559.348, -607.5632, 0.000109301094, 0.0038725694, 19369.686, 19369.686, 0.0, 5.0167294, 4.977805 
1.4303976e+2, 3.1607732e+2, 21663.754, -36020.94, -384.37335, 0.0001002038, -0.0007883282, 21666.316, 21666.316, 0.0, 5.016897, 4.9794087 
1.478983e+2, 1.225804e+2, -1706403.3, -1742303.8, -348.62762, -0.000037635364, 0.00079160376, -1706399.9, 32312.28, 0.0, 5.0150456, 4.9916525 
1.479049e+2, 1.2757161e+2, -1658543.3, -1696261.0, -447.0286, 0.00011453244, -0.0025603177, -1658538.0, 31260.242, 0.0, 5.0151963, 4.9906197 
1.4791104e+2, 1.3256124e+2, -1612977.8, -1654818.5, -1148.8901, -0.000050462146, 0.0027478002, -1612946.3, 27953.732, 0.0, 5.0153284, 4.9879913 
1.4791681e+2, 1.3754904e+2, -1564679.6, -1607770.3, -1237.6182, 0.000045762656, -0.0012038494, -1564644.1, 27375.393, 0.0, 5.0154448, 4.987295 
1.4792217e+2, 1.4253514e+2, -1519421.0, -1566912.0, -1880.0223, 0.00006380904, 0.0006365101, -1519346.8, 23808.863, 0.0, 5.0155444, 4.98452 
1.4792717e+2, 1.475198e+2, -1471017.0, -1519543.0, -1961.2314, -0.000019775542, -0.00092364557, -1470937.9, 23368.322, 0.0, 5.015629, 4.9839396 
1.4793187e+2, 1.5250257e+2, -1425901.5, -1478962.8, -2491.148, -0.00005063137, 0.0012042149, -1425784.8, 19690.088, 0.0, 5.015703, 4.9810915 
1.4793628e+2, 1.5748368e+2, -1377485.1, -1431523.0, -2568.7168, -0.000021147966, -0.0012814415, -1377363.3, 19296.566, 0.0, 5.0157685, 4.980532 
1.4794041e+2, 1.6246311e+2, -1332351.9, -1390888.3, -3043.3162, -0.000005555718, 0.0013362102, -1332194.1, 15667.342, 0.0, 5.0158186, 4.9776893 
1.4794429e+2, 1.6744086e+2, -1283896.1, -1343274.1, -3101.4333, -0.000005895296, -0.0011298277, -1283734.5, 15345.164, 0.0, 5.015855, 4.977188 
1.4794794e+2, 1.7241691e+2, -1238825.3, -1302760.9, -3509.8105, -0.000016325992, 0.0011837069, -1238633.1, 11681.203, 0.0, 5.015883, 4.974289 
1.4795133e+2, 1.7739126e+2, -1190318.0, -1255009.1, -3556.799, -0.000023735553, -0.0011495918, -1190123.0, 11442.626, 0.0, 5.015903, 4.973828 
1.4795457e+2, 1.8236397e+2, -1145275.3, -1214582.8, -3879.641, -0.000036251153, 0.0013095695, -1145058.8, 7774.4443, 0.0, 5.015916, 4.9708853 
1.4795764e+2, 1.8733491e+2, -1096730.6, -1166727.4, -3918.8003, -0.000038558414, -0.0012400929, -1096511.9, 7606.0313, 0.0, 5.015921, 4.9704523 
1.4796056e+2, 1.9230424e+2, -1051706.8, -1126388.0, -4158.2334, -0.000054488984, 0.0013666817, -1051475.9, 3942.6755, 0.0, 5.0159216, 4.9674573 
1.4796335e+2, 1.9727176e+2, -1003106.9, -1078413.1, -4190.067, -0.000078540645, -0.0012444603, -1002874.44, 3862.364, 0.0, 5.015917, 4.9670563 
1.4796606e+2, 2.0223768e+2, -958088.9, -1038156.25, -4348.8364, -0.000094518524, 0.0013754498, -957853.4, 217.4111, 0.0, 5.0159097, 4.964015 
1.479687e+2, 2.0720176e+2, -909441.4, -990097.75, -4373.061, -0.00010474293, -0.0012777649, -909205.0, 217.75874, 0.0, 5.0158987, 4.9636307 
1.4797129e+2, 2.1216427e+2, -864423.5, -949929.6, -4448.0425, -0.000091003894, 0.0014421699, -864192.75, -3402.3638, 0.0, 5.015887, 4.960532 
1.4797385e+2, 2.1712486e+2, -815706.4, -901759.25, -4461.5737, -0.0000713891, -0.001364797, -815475.7, -3299.222, 0.0, 5.015874, 4.960173 
1.4797641e+2, 2.2208388e+2, -770680.75, -861687.7, -4458.1416, -0.000053536412, 0.0014903265, -770462.9, -6884.828, 0.0, 5.0158615, 4.9570155 
1.47979e+2, 2.2704099e+2, -721897.0, -813426.25, -4459.26, -0.00006907577, -0.0013231784, -721680.25, -6681.848, 0.0, 5.0158496, 4.9566727 
1.4798164e+2, 2.3199648e+2, -676864.1, -773470.56, -4376.8657, -0.00006213901, 0.0015388028, -676666.2, -10231.648, 0.0, 5.01584, 4.9534483 
1.4798436e+2, 2.3695002e+2, -627983.75, -725072.0, -4363.622, -0.00005104659, -0.0015836903, -627788.06, -9898.188, 0.0, 5.015833, 4.9531364 
1.4798717e+2, 2.4190196e+2, -582952.94, -685276.5, -4205.748, -0.000045379034, 0.0017647895, -582780.4, -13419.594, 0.0, 5.01583, 4.9498224 
1.4799011e+2, 2.468519e+2, -533943.6, -636687.8, -4175.6772, -0.000045870645, -0.0016264472, -533774.2, -12922.823, 0.0, 5.0158324, 4.949558 
1.4799318e+2, 2.518002e+2, -489011.16, -597291.56, -3949.248, -0.0000299806, 0.0017435031, -488867.3, -16509.182, 0.0, 5.0158396, 4.946074 
1.4799643e+2, 2.567465e+2, -439698.13, -548133.8, -3898.4673, -0.000012782365, -0.0016568113, -439558.16, -15673.659, 0.0, 5.0158544, 4.9459887 
1.4799985e+2, 2.6169106e+2, -394979.63, -509424.8, -3605.594, -0.000011077766, 0.0017365882, -394866.13, -19438.627, 0.0, 5.015875, 4.9422274 
1.4800352e+2, 2.6663366e+2, -345274.4, -459505.78, -3531.0767, -0.000008288887, -0.0015785458, -345165.38, -18175.355, 0.0, 5.015906, 4.94239 
1.4800738e+2, 2.7157447e+2, -300828.94, -421652.47, -3176.5403, 0.000014556068, 0.0017616956, -300745.5, -22175.29, 0.0, 5.015944, 4.9382834 
1.4801157e+2, 2.765133e+2, -250727.83, -370969.9, -3075.2258, 0.000027952101, -0.0018280786, -250649.23, -20479.443, 0.0, 5.0159945, 4.9386935 
1.4801595e+2, 2.814504e+2, -206280.88, -333371.94, -2671.9111, 0.00002551551, 0.0022872367, -206224.73, -24438.287, 0.0, 5.016053, 4.934455 
1.4802071e+2, 2.8638548e+2, -155827.77, -282028.5, -2540.2375, 0.000018096443, -0.0025411085, -155776.66, -22354.162, 0.0, 5.0161266, 4.935078 
1.480257e+2, 2.913182e+2, -113221.484, -249004.33, -2076.7407, 0.00002865681, 0.0017343885, -113189.73, -28107.957, 0.0, 5.0162096, 4.92917 
1.4803119e+2, 2.962482e+2, -62758.36, -197827.22, -1918.3561, 0.00003935719, -0.00032604398, -62731.117, -25963.277, 0.0, 5.0163097, 4.929707 
1.480369e+2, 3.011851e+2, -21320.703, -134498.0, -1356.0675, 0.000019509233, 0.0024038472, -21304.457, -21304.457, 0.0, 5.016421, 4.943557 
1.4804313e+2, 3.0612928e+2, -19797.367, -131602.69, -1164.222, 0.00001977354, -0.005318799, -19785.244, -19785.244, 0.0, 5.0165524, 4.944542 
1.4804961e+2, 3.1109098e+2, 19383.865, -40336.754, -492.38434, 0.00010820221, 0.0038596736, 19387.924, 19387.924, 0.0, 5.016695, 4.977902 
1.4805666e+2, 3.1607005e+2, 21684.877, -35783.91, -261.8943, 0.00009279617, -0.000777276, 21686.07, 21686.07, 0.0, 5.0168605, 4.9795117 
1.5291351e+2, 1.225732e+2, -1705538.1, -1742124.4, -493.27625, -0.00008710272, 0.00030106318, -1705531.5, 33251.156, 0.0, 5.0153856, 4.991544 
1.5292028e+2, 1.2756449e+2, -1657733.9, -1696104.9, -598.8909, 0.00026212574, -0.0013184322, -1657724.5, 32143.623, 0.0, 5.0155177, 4.990514 
1.5292652e+2, 1.3255376e+2, -1612205.5, -1654658.6, -1328.5465, -0.00019307708, 0.0015943993, -1612163.9, 28809.342, 0.0, 5.015633, 4.9878955 
1.529324e+2, 1.3754158e+2, -1563951.8, -1607632.9, -1418.7653, 0.00003139493, -0.0012160151, -1563905.8, 28186.885, 0.0, 5.015735, 4.9871993 
1.5293786e+2, 1.4252764e+2, -1518749.4, -1566813.6, -2095.6724, 0.00009629918, 0.0010180953, -1518658.1, 24571.125, 0.0, 5.015819, 4.9844193 
1.5294293e+2, 1.4751214e+2, -1470399.9, -1519471.3, -2191.617, -0.00003157958, -0.0009298861, -1470302.3, 24078.998, 0.0, 5.0158854, 4.9838395 
1.529477e+2, 1.524948e+2, -1425323.6, -1478881.3, -2743.1301, -0.00008117621, 0.0010597548, -1425183.5, 20367.51, 0.0, 5.01594, 4.981004 
1.5295216e+2, 1.5747586e+2, -1376968.6, -1431471.8, -2817.6428, -0.000040318835, -0.0012948227, -1376823.4, 19913.338, 0.0, 5.015985, 4.9804454 
1.5295634e+2, 1.624552e+2, -1331873.9, -1390818.0, -3314.7415, -0.00002401939, 0.0013701875, -1331688.0, 16251.009, 0.0, 5.0160146, 4.977619 
1.5296024e+2, 1.6743286e+2, -1283482.0, -1343234.8, -3376.3193, -0.00003557421, -0.0011404933, -1283291.8, 15866.19, 0.0, 5.0160294, 4.977118 
1.5296389e+2, 1.7240886e+2, -1238458.1, -1302717.6, -3799.9138, -0.000048556492, 0.0011575217, -1238234.3, 12159.054, 0.0, 5.016036, 4.974231 
1.5296732e+2, 1.7738315e+2, -1190014.1, -1254996.5, -3851.0813, -0.00005037886, -0.0011592768, -1189786.8, 11858.465, 0.0, 5.016035, 4.97377 
1.5297055e+2, 1.823558e+2, -1145016.4, -1214565.6, -4187.397, -0.000060625218, 0.0013069988, -1144765.3, 8147.9844, 0.0, 5.016027, 4.9708385 
1.529736e+2, 1.8732668e+2, -1096532.1, -1166739.1, -4228.675, -0.00006516514, -0.0012459583, -1096278.4, 7920.1416, 0.0, 5.0160117, 4.970406 
1.5297651e+2, 1.9229597e+2, -1051553.8, -1126396.0, -4478.547, -0.00008446403, 0.0013611757, -1051286.8, 4212.725, 0.0, 5.015991, 4.967422 
1.529793e+2, 1.9726348e+2, -1003014.44, -1078449.0, -4512.254, -0.00010767182, -0.0012470607, -1002745.5, 4072.584, 0.0, 5.0159655, 4.9670215 
1.5298198e+2, 2.0222937e+2, -958042.25, -1038188.06, -4676.2915, -0.00012231822, 0.0013719818, -957770.4, 381.9681, 0.0, 5.0159373, 4.963991 
1.5298459e+2, 2.0719342e+2, -909454.7, -990156.8, -4701.745, -0.0001299474, -0.0012819166, -909181.7, 322.8628, 0.0, 5.0159054, 4.963608 
1.5298717e+2, 2.1215588e+2, -864480.9, -949983.75, -4779.123, -0.00011788187, 0.0014375864, -864214.6, -3342.2622, 0.0, 5.015873, 4.9605203 
1.529897e+2, 2.1711649e+2, -815822.6, -901839.4, -4793.508, -0.00010145544, -0.00136821, -815556.3, -3297.7454, 0.0, 5.0158386, 4.9601617 
1.5299225e+2, 2.220755e+2, -770841.25, -861763.2, -4789.792, -0.000080589394, 0.0014881295, -770589.6, -6929.393, 0.0, 5.0158057, 4.957015 
1.5299481e+2, 2.270326e+2, -722114.5, -813525.94, -4790.9214, -0.000093873015, -0.0013236376, -721864.1, -6783.58, 0.0, 5.0157733, 4.956673 
1.5299743e+2, 2.319881e+2, -677125.2, -773565.9, -4704.778, -0.000082558254, 0.0015389274, -676896.2, -10379.546, 0.0, 5.0157433, 4.9534593 
1.5300012e+2, 2.3694165e+2, -628299.9, -725189.7, -4690.735, -0.000067632616, -0.0015838464, -628073.3, -10101.496, 0.0, 5.015716, 4.953149 
1.5300292e+2, 2.4189362e+2, -583312.2, -685389.9, -4526.1455, -0.00006080364, 0.0017661612, -583111.9, -13669.27, 0.0, 5.0156927, 4.949845 
1.5300584e+2, 2.4684358e+2, -534356.4, -636821.94, -4494.1724, -0.0000602766, -0.0016248048, -534159.6, -13226.658, 0.0, 5.0156746, 4.9495816 
1.5300891e+2, 2.517919e+2, -489465.84, -597421.6, -4258.207, -0.000042021344, 0.0017456615, -489298.16, -16858.691, 0.0, 5.015662, 4.946108 
1.5301217e+2, 2.5673822e+2, -440204.28, -548283.0, -4204.334, -0.000022105616, -0.0016530473, -440040.97, -16075.487, 0.0, 5.015657, 4.946024 
1.5301561e+2, 2.6168287e+2, -395526.75, -509570.16, -3899.516, -0.000017231216, 0.0017414555, -395393.56, -19885.47, 0.0, 5.0156584, 4.942272 
1.5301931e+2, 2.666255e+2, -345870.72, -459668.38, -3820.457, -0.000014066722, -0.0015735603, -345742.63, -18672.453, 0.0, 5.0156703, 4.9424367 
1.530232e+2, 2.7156633e+2, -301466.16, -421813.34, -3450.9443, 0.000008141287, 0.0017685848, -301367.28, -22717.416, 0.0, 5.0156894, 4.9383383 
1.530274e+2, 2.7650523e+2, -251412.23, -371146.66, -3343.9136, 0.000019211697, -0.0018167878, -251318.92, -21070.012, 0.0, 5.0157213, 4.9387503 
1.5303184e+2, 2.8144234e+2, -207001.8, -333540.3, -2923.292, 0.000016449521, 0.002299665, -206934.3, -25069.33, 0.0, 5.0157614, 4.934522 
1.5303667e+2, 2.8637752e+2, -156592.19, -282209.0, -2784.193, 0.000011706854, -0.0025338056, -156530.52, -23030.178, 0.0, 5.015817, 4.935148 
1.5304175e+2, 2.9131034e+2, -114034.695, -249208.9, -2301.4019, 0.000027782475, 0.0017407606, -113995.52, -28836.58, 0.0, 5.0158825, 4.9292383 
1.5304731e+2, 2.962404e+2, -63615.617, -198050.55, -2134.4478, 0.000047882302, -0.00030932247, -63581.74, -26737.389, 0.0, 5.015966, 4.9297748 
1.5305312e+2, 3.0117738e+2, -22205.41, -134705.63, -1547.2462, 0.000030155306, 0.002423858, -22184.135, -22184.135, 0.0, 5.01606, 4.943636 
1.5305947e+2, 3.0612162e+2, -20720.611, -131817.4, -1345.2769, 0.000024267005, -0.0053147525, -20704.324, -20704.324, 0.0, 5.0161753, 4.944626 
1.5306608e+2, 3.110834e+2, 18446.303, -40516.93, -643.4801, 0.000112399, 0.0038586906, 18453.324, 18453.324, 0.0, 5.016302, 4.978003 
1.5307328e+2, 3.160626e+2, 20716.63, -35962.09, -400.13165, 0.000095514704, -0.00076646014, 20719.455, 20719.455, 0.0, 5.016453, 4.97962 
1.579289e+2, 1.2256582e+2, -1705661.3, -1742434.4, -397.17065, -0.00017906807, -0.00035850462, -1705657.0, 33197.984, 0.0, 5.0153985, 4.991436 
1.5793581e+2, 1.2755723e+2, -1657863.8, -1696423.5, -506.13895, 0.00047466712, 0.00047008434, -1657857.1, 32081.959, 0.0, 5.0155287, 4.990403 
1.5794212e+2, 1.3254607e+2, -1612317.8, -1654938.8, -1258.312, -0.00039840885, -0.00004179487, -1612280.6, 28767.992, 0.0, 5.0156436, 4.9877977 
1.5794812e+2, 1.3753395e+2, -1564062.9, -1607911.9, -1347.8187, 0.000014931505, -0.0012351465, -1564021.5, 28145.865, 0.0, 5.0157456, 4.9871016 
1.579537e+2, 1.4251997e+2, -1518878.3, -1567129.3, -2051.7842, 0.00014934453, 0.0015632223, -1518791.1, 24513.371, 0.0, 5.0158296, 4.9843097 
1.5795882e+2, 1.4750428e+2, -1470528.6, -1519785.5, -2147.8494, -0.000040838597, -0.0009324988, -1470435.1, 24022.918, 0.0, 5.0158954, 4.9837303 
1.5796362e+2, 1.5248685e+2, -1425420.5, -1479126.0, -2715.8186, -0.00011569846, 0.0008595774, -1425283.5, 20345.41, 0.0, 5.0159492, 4.9809184 
1.5796813e+2, 1.5746783e+2, -1377069.1, -1431717.6, -2790.3396, -0.00005692242, -0.0013103719, -1376927.0, 19888.32, 0.0, 5.0159926, 4.9803596 
1.5797235e+2, 1.6244711e+2, -1331958.5, -1391026.1, -3310.0122, -0.000037131478, 0.0014214929, -1331773.6, 16244.739, 0.0, 5.0160213, 4.9775467 
1.5797625e+2, 1.6742468e+2, -1283567.6, -1343442.0, -3371.7852, -0.00006183402, -0.0011534987, -1283378.4, 15859.7295, 0.0, 5.016035, 4.977046 
1.5797992e+2, 1.7240061e+2, -1238530.3, -1302892.3, -3807.1587, -0.000077871664, 0.001120244, -1238305.9, 12168.267, 0.0, 5.016041, 4.9741697 
1.5798335e+2, 1.7737485e+2, -1190088.4, -1255171.5, -3858.8152, -0.00007332103, -0.0011739419, -1189860.4, 11866.097, 0.0, 5.016039, 4.9737096 
1.5798657e+2, 1.8234745e+2, -1145076.3, -1214705.0, -4205.2974, -0.00008162127, 0.0013042969, -1144823.1, 8171.9365, 0.0, 5.0160294, 4.9707904 
1.579896e+2, 1.8731828e+2, -1096595.0, -1166880.3, -4246.9453, -0.000087851, -0.0012559608, -1096339.4, 7941.4883, 0.0, 5.016013, 4.970358 
1.5799251e+2, 1.9228753e+2, -1051603.9, -1126504.6, -4504.595, -0.000109349756, 0.0013516641, -1051334.0, 4248.2715, 0.0, 5.0159917, 4.9673853 
1.5799525e+2, 1.9725499e+2, -1003066.2, -1078555.8, -4538.6484, -0.00013000774, -0.0012540816, -1002794.3, 4106.913, 0.0, 5.0159645, 4.966985 
1.5799792e+2, 2.0222086e+2, -958081.8, -1038263.0, -4707.0938, -0.00014253551, 0.0013633354, -957806.44, 429.32672, 0.0, 5.015935, 4.963967 
1.5800048e+2, 2.071849e+2, -909497.1, -990232.4, -4732.982, -0.00014893488, -0.0012903613, -909220.56, 367.60968, 0.0, 5.015902, 4.9635835 
1.5800303e+2, 2.1214734e+2, -864511.4, -950027.44, -4811.5054, -0.00014019724, 0.0014271677, -864241.5, -3285.3206, 0.0, 5.015868, 4.9605074 
1.5800554e+2, 2.171079e+2, -815855.8, -901882.8, -4826.3184, -0.00012838954, -0.0013773994, -815585.9, -3243.3708, 0.0, 5.015833, 4.96015 
1.5800805e+2, 2.2206692e+2, -770862.94, -861775.2, -4821.5483, -0.00010605015, 0.0014817482, -770607.94, -6863.7163, 0.0, 5.0157986, 4.957014 
1.5801057e+2, 2.2702403e+2, -722138.7, -813536.94, -4822.988, -0.00011532786, -0.0013258072, -721884.9, -6720.3096, 0.0, 5.0157647, 4.9566736 
1.5801316e+2, 2.3197953e+2, -677139.0, -773547.44, -4732.906, -0.00010044563, 0.0015354215, -676907.2, -10306.535, 0.0, 5.0157332, 4.95347 
1.5801583e+2, 2.3693311e+2, -628316.06, -725169.8, -4718.7485, -0.000083863495, -0.0015880765, -628086.75, -10031.015, 0.0, 5.0157046, 4.953161 
1.5801862e+2, 2.4188507e+2, -583318.56, -685341.0, -4547.7646, -0.00007585397, 0.0017666164, -583116.25, -13589.916, 0.0, 5.01568, 4.9498677 
1.5802152e+2, 2.4683507e+2, -534365.2, -636771.0, -4515.0713, -0.00007428388, -0.0016228822, -534166.5, -13150.03, 0.0, 5.015661, 4.949606 
1.5802458e+2, 2.5178343e+2, -489465.84, -597343.2, -4270.468, -0.000054451764, 0.0017464559, -489297.03, -16774.398, 0.0, 5.0156465, 4.946142 
1.5802783e+2, 2.5672978e+2, -440206.9, -548202.56, -4215.2837, -0.000033236833, -0.0016498493, -440042.63, -15994.309, 0.0, 5.01564, 4.94606 
1.5803127e+2, 2.6167443e+2, -395521.72, -509463.84, -3899.6921, -0.00002574961, 0.0017463946, -395388.4, -19797.842, 0.0, 5.01564, 4.942318 
1.5803498e+2, 2.6661712e+2, -345868.22, -459559.0, -3818.6023, -0.000021039143, -0.0015682835, -345740.1, -18587.951, 0.0, 5.01565, 4.9424844 
1.5803888e+2, 2.7155805e+2, -301457.8, -421681.5, -3436.0698, 0.00000005106198, 0.0017761475, -301359.7, -22628.348, 0.0, 5.0156674, 4.9383945 
1.5804312e+2, 2.7649698e+2, -251406.83, -371011.97, -3326.4175, 0.0000070241904, -0.0018071131, -251314.39, -20984.568, 0.0, 5.015697, 4.9388084 
1.580476e+2, 2.8143418e+2, -206988.72, -333378.1, -2890.895, 0.0000036403346, 0.0023102486, -206922.63, -24977.367, 0.0, 5.0157356, 4.934591 
1.5805249e+2, 2.863694e+2, -156581.47, -282042.0, -2747.9668, 0.0000036546155, -0.0025260623, -156521.31, -22941.379, 0.0, 5.0157895, 4.9352193 
1.5805763e+2, 2.9130226e+2, -114031.28, -249048.33, -2248.3428, 0.00002646296, 0.0017483839, -113993.85, -28756.01, 0.0, 5.015853, 4.9293084 
1.5806326e+2, 2.962324e+2, -63618.516, -197893.77, -2076.459, 0.000055074222, -0.0002944282, -63586.41, -26663.848, 0.0, 5.015934, 4.9298444 
1.5806916e+2, 3.0116946e+2, -22200.803, -134520.56, -1470.3455, 0.000038423794, 0.002440468, -22181.559, -22181.559, 0.0, 5.016026, 4.9437175 
1.5807562e+2, 3.061138e+2, -20716.994, -131622.97, -1262.1326, 0.00002628618, -0.0053098626, -20702.633, -20702.633, 0.0, 5.016139, 4.9447117 
1.5808238e+2, 3.110757e+2, 18463.387, -40279.863, -539.63, 0.000111719244, 0.0038625656, 18468.344, 18468.344, 0.0, 5.0162635, 4.978107 
1.5808974e+2, 3.1605497e+2, 20734.428, -35708.848, -288.52032, 0.00009099073, -0.0007568325, 20735.902, 20735.902, 0.0, 5.0164113, 4.979731 
1.6294447e+2, 1.2255832e+2, -1704694.9, -1742202.6, -542.20355, -0.00018707628, -0.00053868396, -1704687.0, 34241.473, 0.0, 5.015772, 4.9913282 
1.6295154e+2, 1.2754986e+2, -1657015.3, -1696286.3, -672.6874, 0.00076126336, 0.0026406765, -1657003.8, 33007.742, 0.0, 5.0158715, 4.9902806 
1.629579e+2, 1.3253814e+2, -1611495.1, -1654752.9, -1446.8423, -0.00066510227, -0.002016366, -1611446.8, 29679.416, 0.0, 5.0159645, 4.9877024 
1.6296403e+2, 1.3752614e+2, -1563277.3, -1607745.1, -1535.6566, 0.00000078027404, -0.0012598289, -1563224.3, 29019.568, 0.0, 5.016055, 4.987006 
1.6296968e+2, 1.425121e+2, -1518159.6, -1567032.4, -2270.9111, 0.00022894879, 0.002222943, -1518054.3, 25327.107, 0.0, 5.0161247, 4.9841986 
1.6297485e+2, 1.4749627e+2, -1469860.4, -1519713.1, -2370.2595, -0.000041189003, -0.00093434704, -1469747.9, 24788.795, 0.0, 5.016174, 4.983619 
1.629797e+2, 1.524787e+2, -1424782.4, -1479013.4, -2962.0925, -0.00014542649, 0.0006199289, -1424621.1, 21087.725, 0.0, 5.0162067, 4.980832 
1.6298425e+2, 1.5745962e+2, -1376511.3, -1431644.6, -3038.7927, -0.000059813123, -0.0013242272, -1376344.4, 20551.455, 0.0, 5.0162234, 4.9802732 
1.6298848e+2, 1.6243882e+2, -1331450.9, -1390946.9, -3579.523, -0.000033254943, 0.0014909479, -1331236.3, 16863.268, 0.0, 5.0162287, 4.9774737 
1.6299239e+2, 1.6741632e+2, -1283118.8, -1343391.4, -3643.1545, -0.00007317498, -0.0011600486, -1282899.4, 16420.684, 0.0, 5.016223, 4.9769735 
1.6299605e+2, 1.7239216e+2, -1238128.8, -1302839.9, -4093.4316, -0.00009383705, 0.0010855937, -1237870.9, 12685.876, 0.0, 5.016207, 4.9741087 
1.6299945e+2, 1.7736636e+2, -1189753.6, -1255151.3, -4147.552, -0.00008069456, -0.0011820131, -1189491.6, 12318.166, 0.0, 5.016183, 4.973648 
1.6300267e+2, 1.823389e+2, -1144788.8, -1214679.9, -4506.483, -0.000086033615, 0.0013091264, -1144499.4, 8579.463, 0.0, 5.0161514, 4.9707413 
1.6300568e+2, 1.873097e+2, -1096372.5, -1166886.0, -4550.758, -0.00009337481, -0.0012589887, -1096080.0, 8285.052, 0.0, 5.016113, 4.970309 
1.6300853e+2, 1.9227889e+2, -1051431.6, -1126507.9, -4817.577, -0.00011465935, 0.0013462838, -1051123.8, 4543.151, 0.0, 5.016069, 4.967348 
1.6301125e+2, 1.9724631e+2, -1002957.94, -1078587.9, -4853.376, -0.000131846, -0.0012551415, -1002647.8, 4338.4707, 0.0, 5.0160193, 4.966949 
1.6301388e+2, 2.0221214e+2, -958023.25, -1038292.0, -5028.0493, -0.00014277961, 0.001362524, -957709.5, 611.6165, 0.0, 5.0159674, 4.963942 
1.6301641e+2, 2.0717615e+2, -909502.44, -990290.6, -5055.255, -0.0001498712, -0.0012904658, -909187.4, 486.4396, 0.0, 5.0159116, 4.963559 
1.630189e+2, 2.1213858e+2, -864564.06, -950080.94, -5136.317, -0.00014264854, 0.0014257095, -864256.7, -3214.703, 0.0, 5.015856, 4.960495 
1.6302134e+2, 2.1709915e+2, -815972.7, -901964.6, -5151.9517, -0.00013548804, -0.001377841, -815665.1, -3236.68, 0.0, 5.0157976, 4.960138 
1.6302381e+2, 2.2205815e+2, -771028.56, -861852.94, -5146.4404, -0.00011622445, 0.001483381, -770737.9, -6907.6235, 0.0, 5.015741, 4.957014 
1.6302629e+2, 2.2701526e+2, -722365.94, -813640.75, -5148.1626, -0.00012222053, -0.00132195, -722076.5, -6825.9434, 0.0, 5.0156846, 4.956674 
1.6302885e+2, 2.3197076e+2, -677413.8, -773647.3, -5054.18, -0.000105156105, 0.0015398213, -677149.06, -10462.505, 0.0, 5.015631, 4.953482 
1.6303147e+2, 2.3692435e+2, -628650.75, -725294.0, -5039.2295, -0.00008655756, -0.0015843651, -628388.7, -10247.155, 0.0, 5.01558, 4.953174 
1.6303422e+2, 2.4187635e+2, -583700.6, -685461.3, -4861.406, -0.00007727404, 0.0017723219, -583468.9, -13856.935, 0.0, 5.0155334, 4.9498916 
1.6303709e+2, 2.4682635e+2, -534805.9, -636914.2, -4826.703, -0.00007758699, -0.0016150479, -534578.2, -13476.361, 0.0, 5.0154924, 4.9496317 
1.6304012e+2, 2.5177473e+2, -489952.25, -597482.2, -4572.2573, -0.000057099514, 0.0017548844, -489758.2, -17150.434, 0.0, 5.0154567, 4.9461784 
1.6304336e+2, 2.5672114e+2, -440749.2, -548362.44, -4513.79, -0.000034701945, -0.0016412222, -440560.2, -16427.145, 0.0, 5.015429, 4.946098 
1.6304678e+2, 2.6166582e+2, -396108.84, -509620.2, -4185.7114, -0.000026273217, 0.0017566229, -395954.7, -20279.813, 0.0, 5.0154076, 4.942366 
1.6305047e+2, 2.666086e+2, -346508.7, -459733.9, -4100.06, -0.0000207841, -0.0015562304, -346360.44, -19124.434, 0.0, 5.0153966, 4.942534 
1.6305439e+2, 2.7154952e+2, -302142.63, -421854.63, -3702.2295, -0.0000013692149, 0.0017897009, -302028.25, -23213.578, 0.0, 5.0153937, 4.9384537 
1.6305867e+2, 2.764885e+2, -252142.19, -371202.06, -3586.7534, 0.0000023501825, -0.0017924319, -252034.23, -21621.684, 0.0, 5.0154037, 4.938869 
1.6306317e+2, 2.8142577e+2, -207763.48, -333559.9, -3133.6028, -0.0000010151543, 0.0023264147, -207685.48, -25658.113, 0.0, 5.0154223, 4.9346623 
1.630681e+2, 2.8636113e+2, -157402.64, -282236.66, -2983.128, 0.0000012292493, -0.0025126934, -157331.4, -23670.09, 0.0, 5.015457, 4.9352937 
1.6307329e+2, 2.9129404e+2, -114903.97, -249267.44, -2463.6477, 0.000028905853, 0.0017614339, -114858.81, -29540.313, 0.0, 5.0155015, 4.9293814 
1.63079e+2, 2.9622424e+2, -64537.7, -198132.42, -2283.0562, 0.000067687535, -0.00027468058, -64498.695, -27496.193, 0.0, 5.015565, 4.929918 
1.63085e+2, 3.0116138e+2, -23149.436, -134743.23, -1652.1483, 0.000053683732, 0.002460331, -23124.98, -23124.98, 0.0, 5.015639, 4.9438024 
1.6309156e+2, 3.061058e+2, -21706.97, -131853.52, -1433.3127, 0.000035224257, -0.005300475, -21688.322, -21688.322, 0.0, 5.0157347, 4.9448013 
1.6309842e+2, 3.110678e+2, 17458.137, -40473.633, -680.7712, 0.000116948606, 0.0038753073, 17466.135, 17466.135, 0.0, 5.0158424, 4.978215 
1.631059e+2, 3.160472e+2, 19697.082, -35899.742, -416.6548, 0.000095375486, -0.0007391498, 19700.203, 19700.203, 0.0, 5.015975, 4.979847 
1.6796023e+2, 1.2255053e+2, -1704789.5, -1742476.5, -465.22104, -0.00040191726, -0.0021645052, -1704783.8, 34220.992, 0.0, 5.015789, 4.99123 
1.6796744e+2, 1.2754233e+2, -1657173.3, -1696672.4, -605.4939, 0.0011069928, 0.0051151454, -1657164.0, 32921.117, 0.0, 5.015885, 4.9901466 
1.6797383e+2, 1.3253005e+2, -1611604.0, -1655028.0, -1388.0402, -0.0009834986, -0.0042577083, -1611559.6, 29645.879, 0.0, 5.0159755, 4.987606 
1.6798007e+2, 1.3751815e+2, -1563387.0, -1608019.9, -1476.5975, -0.000014978722, -0.0012950784, -1563338.3, 28983.799, 0.0, 5.0160656, 4.9869103 
1.6798581e+2, 1.4250411e+2, -1518295.1, -1567359.8, -2242.0208, 0.0003258898, 0.0029672913, -1518192.9, 25266.91, 0.0, 5.0161347, 4.984085 
1.6799103e+2, 1.4748807e+2, -1469994.1, -1520038.3, -2339.0508, -0.000037481663, -0.00093946856, -1469885.1, 24731.88, 0.0, 5.016184, 4.9835067 
1.6799591e+2, 1.5247038e+2, -1424881.6, -1479264.8, -2954.41, -0.0001764486, 0.0003446664, -1424721.6, 21068.756, 0.0, 5.0162163, 4.980744 
1.6800047e+2, 1.5745123e+2, -1376612.9, -1431896.4, -3031.4465, -0.000057877747, -0.0013444806, -1376447.1, 20530.814, 0.0, 5.0162315, 4.9801855 
1.680047e+2, 1.6243038e+2, -1331535.3, -1391157.9, -3588.8438, -0.000020832924, 0.0015676139, -1331320.0, 16862.441, 0.0, 5.016236, 4.9774 
1.6800861e+2, 1.674078e+2, -1283205.3, -1343602.5, -3652.939, -0.00007751924, -0.0011678523, -1282985.1, 16418.611, 0.0, 5.0162287, 4.9769 
1.6801225e+2, 1.7238356e+2, -1238203.1, -1303020.9, -4116.8286, -0.00010362705, 0.0010472528, -1237942.6, 12698.448, 0.0, 5.0162125, 4.9740453 
1.6801564e+2, 1.7735769e+2, -1189829.8, -1255331.9, -4171.0957, -0.00008024995, -0.0011905717, -1189565.1, 12329.526, 0.0, 5.0161867, 4.9735856 
1.6801882e+2, 1.8233018e+2, -1144851.1, -1214826.8, -4540.184, -0.0000821032, 0.0013137178, -1144557.8, 8606.573, 0.0, 5.0161543, 4.9706903 
1.6802178e+2, 1.8730092e+2, -1096436.9, -1167031.8, -4585.2227, -0.00008993901, -0.0012614535, -1096140.3, 8310.807, 0.0, 5.0161147, 4.9702587 
1.6802461e+2, 1.9227007e+2, -1051483.0, -1126620.5, -4859.573, -0.0001096607, 0.0013390179, -1051170.0, 4583.396, 0.0, 5.0160694, 4.9673095 
1.6802727e+2, 1.9723746e+2, -1003012.06, -1078700.6, -4896.0347, -0.00012289485, -0.0012569393, -1002696.6, 4376.414, 0.0, 5.016019, 4.966911 
1.6802984e+2, 2.0220324e+2, -958064.5, -1038371.1, -5074.853, -0.00013339867, 0.0013623582, -957745.06, 663.1518, 0.0, 5.015965, 4.9639163 
1.6803232e+2, 2.0716724e+2, -909546.8, -990369.94, -5102.1406, -0.00014294234, -0.0012896919, -909226.0, 535.16205, 0.0, 5.0159082, 4.963534 
1.6803475e+2, 2.1212964e+2, -864596.06, -950126.75, -5185.058, -0.00013568683, 0.0014257429, -864282.9, -3153.3386, 0.0, 5.015851, 4.9604816 
1.6803715e+2, 2.1709019e+2, -816007.7, -902010.06, -5201.213, -0.00013343518, -0.0013768622, -815694.3, -3178.1748, 0.0, 5.0157914, 4.9601254 
1.6803955e+2, 2.2204919e+2, -771051.94, -861865.94, -5194.0737, -0.00012147799, 0.0014859181, -770755.8, -6837.866, 0.0, 5.0157332, 4.957013 
1.6804197e+2, 2.270063e+2, -722392.2, -813652.7, -5196.1177, -0.00012393684, -0.001319027, -722097.3, -6758.9995, 0.0, 5.015675, 4.9566746 
1.6804448e+2, 2.3196182e+2, -677429.1, -773627.7, -5098.008, -0.000105549436, 0.0015453056, -677159.75, -10385.464, 0.0, 5.01562, 4.953494 
1.6804706e+2, 2.3691541e+2, -628668.9, -725272.75, -5082.951, -0.000084650055, -0.001579326, -628402.2, -10173.079, 0.0, 5.015568, 4.953187 
1.6804974e+2, 2.4186742e+2, -583708.7, -685409.56, -4898.784, -0.00007375613, 0.0017767765, -583473.25, -13773.929, 0.0, 5.0155196, 4.9499164 
1.6805258e+2, 2.4681745e+2, -534816.8, -636860.56, -4863.217, -0.00007805093, -0.0016078944, -534585.56, -13396.6045, 0.0, 5.0154767, 4.9496574 
1.6805558e+2, 2.5176588e+2, -489954.1, -597399.25, -4599.5938, -0.00005727017, 0.0017644205, -489757.56, -17062.97, 0.0, 5.015439, 4.946215 
1.680588e+2, 2.5671232e+2, -440754.0, -548277.0, -4539.8286, -0.000033665852, -0.0016333939, -440562.66, -16343.147, 0.0, 5.0154095, 4.9461365 
1.680622e+2, 2.6165703e+2, -396105.8, -509507.47, -4200.7554, -0.00002591056, 0.0017660356, -395950.44, -20189.504, 0.0, 5.0153866, 4.9424148 
1.6806588e+2, 2.6659986e+2, -346508.7, -459618.16, -4112.9683, -0.000020221627, -0.0015436694, -346359.34, -19037.805, 0.0, 5.0153737, 4.942585 
1.680698e+2, 2.7154085e+2, -302136.53, -421714.66, -3701.7139, -0.0000031295576, 0.0018031067, -302022.06, -23122.383, 0.0, 5.015369, 4.9385138 
1.6807407e+2, 2.7647993e+2, -252139.55, -371059.22, -3583.3774, -0.0000026170487, -0.0017784825, -252031.67, -21534.723, 0.0, 5.0153766, 4.9389315 
1.6807859e+2, 2.8141725e+2, -207753.25, -333388.5, -3114.9026, -0.0000057806014, 0.0023425464, -207676.08, -25564.975, 0.0, 5.0153933, 4.934736 
1.6808355e+2, 2.8635263e+2, -157395.02, -282060.03, -2960.3882, -0.0000029509815, -0.0024994668, -157324.75, -23580.451, 0.0, 5.015426, 4.93537 
1.680888e+2, 2.9128563e+2, -114903.9, -249096.67, -2423.4775, 0.000028181528, 0.0017743299, -114860.14, -29459.393, 0.0, 5.0154686, 4.9294567 
1.6809456e+2, 2.9621595e+2, -64544.55, -197965.58, -2237.6516, 0.00007806418, -0.00025541574, -64507.03, -27423.023, 0.0, 5.0155296, 4.9299927 
1.6810061e+2, 3.0115312e+2, -23148.707, -134546.75, -1587.8193, 0.000067214154, 0.0024786037, -23126.078, -23126.078, 0.0, 5.015601, 4.9438896 
1.6810727e+2, 3.0609766e+2, -21707.541, -131647.36, -1362.3766, 0.00004182904, -0.0052922587, -21690.66, -21690.66, 0.0, 5.0156946, 4.944893 
1.6811426e+2, 3.110597e+2, 17471.504, -40222.887, -588.6178, 0.000116425814, 0.0038905693, 17477.508, 17477.508, 0.0, 5.0157995, 4.9783263 
1.6812187e+2, 3.1603926e+2, 19711.314, -35631.387, -316.19803, 0.00008850225, -0.00071851595, 19713.121, 19713.121, 0.0, 5.0159287, 4.9799657 
1.7297621e+2, 1.2254272e+2, -1703639.0, -1742131.6, -613.5583, -0.00046760953, -0.0024801253, -1703629.1, 35452.14, 0.0, 5.0162187, 4.991132 
1.7298356e+2, 1.2753469e+2, -1656284.3, -1696601.6, -799.843, 0.0015433079, 0.008010931, -1656268.4, 33891.75, 0.0, 5.0162597, 4.9899864 
1.7298993e+2, 1.3252172e+2, -1610740.5, -1654833.0, -1593.3114, -0.0013767196, -0.006841782, -1610683.0, 30604.15, 0.0, 5.0163126, 4.987506 
1.7299631e+2, 1.3750997e+2, -1562585.0, -1607854.9, -1688.3822, -0.000027673897, -0.0013265046, -1562522.1, 29880.006, 0.0, 5.0163827, 4.9868107 
1.7300211e+2, 1.4249593e+2, -1517538.9, -1567209.1, -2475.2825, 0.0004556448, 0.003846241, -1517415.8, 26124.209, 0.0, 5.016435, 4.9839897 
1.7300735e+2, 1.4747971e+2, -1469277.8, -1519907.0, -2553.385, -0.000024592355, -0.000925721, -1469149.3, 25549.67, 0.0, 5.0164714, 4.9834113 
1.7301226e+2, 1.5246189e+2, -1424212.1, -1479145.4, -3190.763, -0.00020613968, 0.00004262863, -1424027.4, 21846.072, 0.0, 5.0164857, 4.980654 
1.7301683e+2, 1.5744269e+2, -1376013.9, -1431811.9, -3272.167, -0.00004580157, -0.0013526527, -1375822.6, 21239.082, 0.0, 5.016478, 4.9800954 
1.7302106e+2, 1.6242175e+2, -1330983.0, -1391060.8, -3849.1016, 0.0000049199716, 0.0016699086, -1330737.4, 17529.502, 0.0, 5.016459, 4.977326 
1.7302495e+2, 1.6739908e+2, -1282722.6, -1343539.5, -3915.5828, -0.00007069833, -0.0011653109, -1282471.5, 17017.475, 0.0, 5.016429, 4.9768257 
1.7302856e+2, 1.7237478e+2, -1237771.6, -1302958.1, -4394.2437, -0.00010149522, 0.0010126809, -1237476.8, 13250.376, 0.0, 5.01639, 4.9739823 
1.7303191e+2, 1.7734885e+2, -1189463.8, -1255300.6, -4450.902, -0.00006665649, -0.0011928447, -1189164.1, 12817.122, 0.0, 5.016342, 4.973522 
1.7303506e+2, 1.8232128e+2, -1144538.1, -1214795.1, -4832.4297, -0.000063120795, 0.0013238298, -1144207.3, 9044.268, 0.0, 5.0162864, 4.9706388 
1.7303796e+2, 1.8729198e+2, -1096190.9, -1167030.4, -4880.0405, -0.00007262636, -0.0012608881, -1095856.3, 8682.495, 0.0, 5.0162234, 4.970208 
1.7304073e+2, 1.9226108e+2, -1051288.3, -1126617.0, -5164.0806, -0.00009137935, 0.0013329072, -1050935.9, 4905.6167, 0.0, 5.0161552, 4.967271 
1.7304333e+2, 1.9722842e+2, -1002886.0, -1078729.4, -5202.5024, -0.00009979991, -0.0012573962, -1002530.8, 4630.7476, 0.0, 5.016081, 4.966872 
1.7304583e+2, 2.0219418e+2, -957989.2, -1038395.8, -5387.8604, -0.00010775199, 0.0013634482, -957629.75, 867.2773, 0.0, 5.0160036, 4.9638896 
1.7304823e+2, 2.0715815e+2, -909539.94, -990425.44, -5416.733, -0.00011585514, -0.0012897905, -909178.8, 671.45416, 0.0, 5.015923, 4.963508 
1.730506e+2, 2.1212053e+2, -864643.25, -950179.2, -5502.3794, -0.00011066953, 0.0014247035, -864290.75, -3071.9263, 0.0, 5.015841, 4.9604683 
1.7305292e+2, 2.1708107e+2, -816122.56, -902092.25, -5519.4907, -0.00011558779, -0.0013777249, -815769.6, -3164.1104, 0.0, 5.015757, 4.960113 
1.7305525e+2, 2.2204007e+2, -771218.75, -861944.25, -5511.4683, -0.00010783157, 0.0014847855, -770885.2, -6877.7046, 0.0, 5.015675, 4.957013 
1.7305762e+2, 2.2699718e+2, -722625.75, -813759.2, -5513.7603, -0.000107465676, -0.0013210131, -722293.4, -6865.5713, 0.0, 5.015593, 4.9566755 
1.7306004e+2, 2.319527e+2, -677715.0, -773730.7, -5411.6123, -0.00008827747, 0.0015461612, -677411.0, -10547.285, 0.0, 5.015514, 4.953507 
1.7306256e+2, 2.3690629e+2, -629020.44, -725402.5, -5395.7354, -0.00006708368, -0.0015777268, -628719.25, -10400.901, 0.0, 5.015437, 4.9532013 
1.7306519e+2, 2.4185832e+2, -584111.2, -685535.56, -5204.5044, -0.000056451292, 0.0017783799, -583844.8, -14056.358, 0.0, 5.015365, 4.949942 
1.7306796e+2, 2.468084e+2, -535282.6, -637011.4, -5166.8647, -0.00006393314, -0.0016037334, -535020.9, -13743.038, 0.0, 5.0152984, 4.9496846 
1.7307091e+2, 2.5175685e+2, -490470.44, -597546.5, -4893.017, -0.00004562018, 0.0017713688, -490247.3, -17464.188, 0.0, 5.015238, 4.946254 
1.7307408e+2, 2.5670332e+2, -441331.3, -548446.9, -4829.9595, -0.000022586059, -0.001627653, -441113.97, -16806.31, 0.0, 5.015185, 4.946177 
1.7307743e+2, 2.616481e+2, -396732.25, -509674.28, -4478.0254, -0.000014666044, 0.0017739295, -396554.97, -20706.34, 0.0, 5.0151386, 4.9424663 
1.730811e+2, 2.6659095e+2, -347192.66, -459805.28, -4385.6396, -0.000010278266, -0.0015318937, -347022.13, -19613.402, 0.0, 5.015104, 4.9426384 
1.7308499e+2, 2.71532e+2, -302868.2, -421899.78, -3958.7976, 0.0000024624262, 0.001815688, -302736.66, -23750.348, 0.0, 5.0150766, 4.9385767 
1.7308928e+2, 2.7647114e+2, -252926.19, -371262.8, -3834.4695, 0.00000017015458, -0.0017675821, -252802.06, -22219.115, 0.0, 5.015063, 4.938997 
1.730938e+2, 2.8140855e+2, -208582.81, -333584.2, -3347.682, -0.0000035320597, 0.002354783, -208493.22, -26296.793, 0.0, 5.0150585, 4.934812 
1.7309879e+2, 2.86344e+2, -158273.81, -282269.1, -3185.4434, -0.0000021416283, -0.0024880553, -158192.03, -24363.164, 0.0, 5.0150704, 4.9354496 
1.7310405e+2, 2.912771e+2, -115837.125, -249330.69, -2628.0974, 0.00003078561, 0.0017859581, -115785.41, -30300.863, 0.0, 5.015093, 4.9295354 
1.7310987e+2, 2.9620746e+2, -65527.574, -198220.34, -2433.2744, 0.00009146143, -0.00024143727, -65482.97, -28315.94, 0.0, 5.015135, 4.930071 
1.73116e+2, 3.0114475e+2, -24163.475, -134785.0, -1758.636, 0.00008403364, 0.0024903612, -24135.523, -24135.523, 0.0, 5.0151873, 4.9439807 
1.7312273e+2, 3.0608934e+2, -22765.945, -131894.02, -1522.1802, 0.000049880728, -0.005283393, -22744.717, -22744.717, 0.0, 5.015262, 4.9449887 
1.7312981e+2, 3.1105155e+2, 16397.219, -40430.746, -718.2129, 0.000115250776, 0.003910792, 16406.295, 16406.295, 0.0, 5.0153494, 4.9784417 
1.7313755e+2, 3.160312e+2, 18603.885, -35835.56, -432.17905, 0.0000858788, -0.00069746637, 18607.316, 18607.316, 0.0, 5.015463, 4.980089 
1.779924e+2, 1.2253469e+2, -1703687.6, -1742348.8, -565.56287, -0.00077616214, -0.0036854653, -1703679.3, 35480.73, 0.0, 5.016244, 4.9910483 
1.7799987e+2, 1.2752691e+2, -1656504.3, -1697129.3, -772.97125, 0.002048179, 0.011230684, -1656489.5, 33746.727, 0.0, 5.016276, 4.9898043 
1.780062e+2, 1.325132e+2, -1610861.6, -1655135.1, -1547.5187, -0.0018290498, -0.009687377, -1610807.6, 30563.05, 0.0, 5.016324, 4.9874005 
1.7801268e+2, 1.3750164e+2, -1562708.3, -1608156.1, -1643.3475, -0.000041560936, -0.0013613823, -1562649.0, 29834.957, 0.0, 5.0163927, 4.9867063 
1.7801856e+2, 1.4248759e+2, -1517635.9, -1567453.1, -2455.295, 0.0006065896, 0.004821484, -1517515.1, 26106.592, 0.0, 5.016444, 4.9839044 
1.7802383e+2, 1.4747119e+2, -1469373.8, -1520149.0, -2532.4106, -0.000008735412, -0.0009042447, -1469247.8, 25534.621, 0.0, 5.0164804, 4.9833264 
1.7802873e+2, 1.5245324e+2, -1424320.6, -1479411.6, -3201.7952, -0.00023865797, -0.00028595148, -1424135.1, 21823.037, 0.0, 5.0164943, 4.9805613 
1.780333e+2, 1.5743399e+2, -1376123.3, -1432078.3, -3281.9807, -0.00003054343, -0.001360799, -1375931.4, 21215.58, 0.0, 5.0164857, 4.9800024 
1.7803752e+2, 1.6241299e+2, -1331069.8, -1391277.0, -3874.5642, 0.000036414694, 0.0017832797, -1330821.5, 17531.385, 0.0, 5.016466, 4.97725 
1.7804137e+2, 1.6739023e+2, -1282810.8, -1343755.3, -3941.263, -0.00005953593, -0.0011610416, -1282556.9, 17018.94, 0.0, 5.016435, 4.9767504 
1.7804495e+2, 1.7236584e+2, -1237847.3, -1303143.8, -4432.2856, -0.000094353876, 0.0009752579, -1237547.8, 13266.953, 0.0, 5.016395, 4.9739175 
1.7804825e+2, 1.7733985e+2, -1189541.0, -1255485.9, -4489.947, -0.000046756693, -0.0011954991, -1189236.8, 12832.718, 0.0, 5.0163465, 4.973458 
1.7805134e+2, 1.8231222e+2, -1144602.4, -1214948.0, -4882.134, -0.00003674945, 0.001333002, -1144265.3, 9075.038, 0.0, 5.0162897, 4.970586 
1.7805418e+2, 1.8728286e+2, -1096256.6, -1167181.1, -4930.31, -0.000048746962, -0.0012628869, -1095915.6, 8712.428, 0.0, 5.016226, 4.970156 
1.7805688e+2, 1.9225192e+2, -1051341.4, -1126735.0, -5222.6245, -0.00006768282, 0.0013225746, -1050981.4, 4949.8633, 0.0, 5.0161557, 4.9672303 
1.780594e+2, 1.9721922e+2, -1002942.7, -1078848.8, -5261.3584, -0.000070825, -0.0012618912, -1002579.75, 4671.9224, 0.0, 5.0160804, 4.966832 
1.7806183e+2, 2.0218495e+2, -958032.56, -1038479.9, -5451.4897, -0.000075138305, 0.0013605831, -957664.8, 922.6589, 0.0, 5.0160017, 4.9638624 
1.7806415e+2, 2.071489e+2, -909586.3, -990508.94, -5481.1084, -0.00007923044, -0.0012956487, -909216.75, 724.22504, 0.0, 5.015919, 4.963481 
1.7806643e+2, 2.1211125e+2, -864676.75, -950227.4, -5568.1353, -0.00007876105, 0.001418069, -864315.9, -3006.113, 0.0, 5.015836, 4.9604545 
1.7806868e+2, 2.1707179e+2, -816159.3, -902139.94, -5585.756, -0.00009273403, -0.0013846469, -815798.0, -3101.4192, 0.0, 5.0157504, 4.9600997 
1.7807093e+2, 2.2203076e+2, -771243.5, -861957.75, -5576.3755, -0.00008611168, 0.0014761928, -770902.0, -6803.4453, 0.0, 5.0156665, 4.957012 
1.7807321e+2, 2.2698788e+2, -722653.75, -813771.7, -5579.003, -0.00008419521, -0.0013312068, -722313.44, -6794.5313, 0.0, 5.015583, 4.956676 
1.7807557e+2, 2.319434e+2, -677731.6, -773709.7, -5472.697, -0.00006454125, 0.0015391968, -677420.6, -10465.868, 0.0, 5.015502, 4.95352 
1.78078e+2, 2.3689702e+2, -629040.2, -725379.8, -5456.6357, -0.00004397143, -0.0015832455, -628732.06, -10322.809, 0.0, 5.015424, 4.953215 
1.7808054e+2, 2.4184908e+2, -584120.56, -685480.6, -5258.6533, -0.000034736084, 0.0017731882, -583848.44, -13969.274, 0.0, 5.01535, 4.949968 
1.7808327e+2, 2.4679917e+2, -535295.44, -636954.7, -5220.1855, -0.00004426613, -0.0016064742, -535028.06, -13659.794, 0.0, 5.015281, 4.9497123 
1.7808615e+2, 2.5174764e+2, -490473.8, -597458.75, -4937.071, -0.000030812527, 0.0017717461, -490246.47, -17373.23, 0.0, 5.0152183, 4.9462934 
1.7808926e+2, 2.5669414e+2, -441338.03, -548356.4, -4872.5225, -0.000009766721, -0.0016281724, -441116.66, -16719.264, 0.0, 5.015164, 4.946218 
1.7809257e+2, 2.61639e+2, -396731.0, -509555.1, -4509.091, -0.0000006776886, 0.001775999, -396551.1, -20613.186, 0.0, 5.0151157, 4.942518 
1.780962e+2, 2.6658192e+2, -347195.06, -459683.28, -4414.3955, 0.0000010526204, -0.0015254648, -347022.1, -19524.635, 0.0, 5.0150785, 4.9426923 
1.7810006e+2, 2.71523e+2, -302864.25, -421751.78, -3973.7974, 0.000007375505, 0.0018229726, -302731.56, -23657.084, 0.0, 5.015049, 4.938641 
1.7810434e+2, 2.7646223e+2, -252926.05, -371111.63, -3846.4297, 0.0000024195224, -0.001763373, -252801.0, -22130.53, 0.0, 5.0150332, 4.939063 
1.7810886e+2, 2.813997e+2, -208575.14, -333403.34, -3343.496, -0.0000027369772, 0.002359905, -208485.66, -26202.41, 0.0, 5.0150266, 4.9348903 
1.7811385e+2, 2.8633523e+2, -158269.25, -282082.7, -3176.935, -0.000004102062, -0.0024825237, -158187.8, -24272.9, 0.0, 5.015036, 4.9355307 
1.7811914e+2, 2.912684e+2, -115840.445, -249149.47, -2601.6614, 0.000029468001, 0.0017922042, -115789.695, -30219.916, 0.0, 5.015056, 4.9296155 
1.78125e+2, 2.9619884e+2, -65538.336, -198043.13, -2401.3428, 0.00010038042, -0.00023531899, -65494.83, -28243.357, 0.0, 5.0150957, 4.930151 
1.7813118e+2, 3.0113623e+2, -24166.56, -134576.83, -1707.5039, 0.0000962116, 0.002493719, -24140.16, -24140.16, 0.0, 5.0151453, 4.9440737 
1.7813799e+2, 3.0608094e+2, -22770.775, -131675.89, -1463.9182, 0.00005181422, -0.005278191, -22751.102, -22751.102, 0.0, 5.015218, 4.9450865 
1.7814514e+2, 3.110432e+2, 16406.84, -40165.73, -638.09143, 0.00010425346, 0.003930649, 16414.035, 16414.035, 0.0, 5.015302, 4.9785595 
1.78153e+2, 3.1602302e+2, 18614.459, -35551.688, -343.09686, 0.000069758906, -0.0006793518, 18616.633, 18616.633, 0.0, 5.0154123, 4.980216 
1.830089e+2, 1.22526586e+2, -1702261.3, -1741815.9, -681.24414, -0.0008267228, -0.004807459, -1702249.5, 36989.88, 0.0, 5.016754, 4.9909725 
1.8301642e+2, 1.2751904e+2, -1655592.8, -1697200.4, -969.1753, 0.00268714, 0.014569733, -1655570.3, 34743.223, 0.0, 5.016691, 4.9895773 
1.8302265e+2, 1.3250452e+2, -1609973.9, -1654969.1, -1724.4882, -0.0023938518, -0.012617331, -1609907.9, 31547.852, 0.0, 5.0166783, 4.9872823 
1.8302923e+2, 1.3749313e+2, -1561900.1, -1608028.4, -1836.9419, -0.00005330788, -0.001402517, -1561827.1, 30740.232, 0.0, 5.0167203, 4.986589 
1.8303517e+2, 1.4247908e+2, -1516834.6, -1567239.5, -2673.8523, 0.0008030259, 0.0058298577, -1516693.3, 27011.844, 0.0, 5.016751, 4.983826 
1.8304045e+2, 1.474625e+2, -1468621.3, -1519958.5, -2744.5042, 0.000013984559, -0.000873211, -1468474.9, 26392.553, 0.0, 5.0167713, 4.983249 
1.8304536e+2, 1.5244445e+2, -1423632.8, -1479270.5, -3441.3804, -0.00028190797, -0.00061823655, -1423420.6, 22623.715, 0.0, 5.016767, 4.9804764 
1.8304993e+2, 1.5742514e+2, -1375494.9, -1431967.3, -3514.3633, -0.000012257538, -0.0013628482, -1375277.0, 21956.676, 0.0, 5.0167394, 4.979918 
1.830541e+2, 1.6240405e+2, -1330489.8, -1391167.8, -4121.1025, 0.00007565502, 0.001907425, -1330211.1, 18229.092, 0.0, 5.016699, 4.977175 
1.8305792e+2, 1.6738123e+2, -1282295.5, -1343676.8, -4188.8604, -0.00004316894, -0.0011485976, -1282011.0, 17653.088, 0.0, 5.0166464, 4.976676 
1.8306145e+2, 1.7235678e+2, -1237386.5, -1303072.9, -4694.362, -0.00008383135, 0.0009432546, -1237052.8, 13850.935, 0.0, 5.016584, 4.9738517 
1.8306468e+2, 1.7733072e+2, -1189147.9, -1255447.6, -4755.6055, -0.00002454805, -0.0011918931, -1188808.5, 13350.485, 0.0, 5.0165124, 4.9733925 
1.8306771e+2, 1.8230303e+2, -1144261.8, -1214909.1, -5161.817, -0.000007712546, 0.0013513936, -1143886.6, 9543.787, 0.0, 5.016433, 4.970532 
1.8307047e+2, 1.872736e+2, -1095985.9, -1167174.9, -5212.9707, -0.000021816984, -0.0012571857, -1095606.3, 9112.513, 0.0, 5.0163445, 4.970103 
1.8307309e+2, 1.9224261e+2, -1051125.4, -1126727.8, -5517.308, -0.000039718598, 0.0013220606, -1050724.9, 5297.532, 0.0, 5.0162506, 4.967189 
1.8307552e+2, 1.9720988e+2, -1002797.5, -1078873.6, -5558.8784, -0.00003595913, -0.0012584132, -1002393.5, 4949.763, 0.0, 5.01615, 4.966791 
1.8307787e+2, 2.0217559e+2, -957943.1, -1038502.25, -5755.5996, -0.00003563366, 0.0013641743, -957534.0, 1145.4003, 0.0, 5.0160465, 4.963834 
1.8308009e+2, 2.0713948e+2, -909569.44, -990563.9, -5787.2324, -0.00003603295, -0.0012938073, -909158.0, 875.13135, 0.0, 5.0159383, 4.963454 
1.8308228e+2, 2.1210182e+2, -864715.3, -950278.44, -5877.731, -0.000038617287, 0.0014181565, -864313.44, -2911.3062, 0.0, 5.0158296, 4.96044 
1.8308441e+2, 2.1706235e+2, -816270.5, -902222.75, -5896.872, -0.00005818082, -0.0013844683, -815867.9, -3078.7498, 0.0, 5.0157185, 4.9600863 
1.8308657e+2, 2.2202131e+2, -771411.06, -862036.75, -5887.1523, -0.00005254321, 0.0014764161, -771030.2, -6839.0156, 0.0, 5.0156083, 4.9570117 
1.8308875e+2, 2.2697842e+2, -722892.9, -813880.9, -5890.243, -0.000049032416, -0.0013308492, -722513.1, -6901.6455, 0.0, 5.0154986, 4.9566765 
1.83091e+2, 2.3193397e+2, -678026.8, -773815.4, -5779.918, -0.000029522127, 0.0015399887, -677679.3, -10632.009, 0.0, 5.015392, 4.953533 
1.8309335e+2, 2.3688759e+2, -629405.2, -725514.0, -5763.2095, -0.000010966963, -0.001581933, -629060.8, -10559.14, 0.0, 5.0152884, 4.9532304 
1.8309583e+2, 2.4183966e+2, -584541.0, -685611.2, -5558.2153, -0.0000030709966, 0.0017766333, -584236.25, -14264.833, 0.0, 5.0151887, 4.9499955 
1.8309845e+2, 2.4678978e+2, -535784.44, -637112.2, -5517.6865, -0.000012004954, -0.0016019498, -535484.9, -14024.654, 0.0, 5.0150943, 4.9497414 
1.8310125e+2, 2.517383e+2, -491017.38, -597612.6, -5223.9404, -0.0000031681766, 0.0017769804, -490761.97, -17797.115, 0.0, 5.015006, 4.9463344 
1.831043e+2, 2.5668484e+2, -441947.4, -548535.0, -5156.0967, 0.000012333879, -0.0016225325, -441698.56, -17209.97, 0.0, 5.0149264, 4.946261 
1.8310755e+2, 2.6162973e+2, -397393.47, -509730.8, -4779.4673, 0.000021326767, 0.0017833572, -397190.5, -21161.863, 0.0, 5.0148535, 4.9425726 
1.8311113e+2, 2.6657268e+2, -347919.97, -459881.06, -4679.854, 0.000021625125, -0.0015170786, -347724.7, -20137.05, 0.0, 5.014792, 4.942749 
1.8311496e+2, 2.7151388e+2, -303641.16, -421948.06, -4223.0913, 0.000021403202, 0.0018321696, -303490.6, -24326.533, 0.0, 5.014739, 4.938708 
1.831192e+2, 2.7645314e+2, -253761.78, -371327.56, -4089.5098, 0.000014011817, -0.0017560872, -253619.7, -22860.31, 0.0, 5.0147, 4.9391327 
1.831237e+2, 2.813907e+2, -209457.44, -333611.63, -3567.5078, 0.000007978881, 0.0023672327, -209355.02, -26983.57, 0.0, 5.01467, 4.9349713 
1.8312868e+2, 2.8632632e+2, -159205.39, -282305.78, -3392.97, 0.0000035723037, -0.0024771986, -159111.94, -25109.668, 0.0, 5.014658, 4.9356155 
1.8313397e+2, 2.912596e+2, -116834.98, -249398.33, -2796.343, 0.0000355297, 0.0017984452, -116776.016, -31119.684, 0.0, 5.014656, 4.9296994 
1.8313988e+2, 2.9619008e+2, -66585.37, -198313.69, -2586.6094, 0.000111240755, -0.00022510086, -66534.59, -29197.393, 0.0, 5.014675, 4.930235 
1.8314609e+2, 3.0112755e+2, -25247.225, -134830.14, -1867.8478, 0.00010791469, 0.0025025432, -25215.396, -25215.396, 0.0, 5.0147047, 4.944171 
1.8315296e+2, 3.0607235e+2, -23898.313, -131938.61, -1612.8074, 0.000055009416, -0.005270968, -23874.242, -23874.242, 0.0, 5.0147576, 4.9451885 
1.8316017e+2, 3.1103477e+2, 15262.0, -40387.586, -756.46606, 0.000094191324, 0.0039505507, 15272.281, 15272.281, 0.0, 5.014823, 4.9786825 
1.8316814e+2, 3.1601468e+2, 17434.193, -35769.57, -447.07697, 0.00005647856, -0.0006504456, 17437.951, 17437.951, 0.0, 5.014916, 4.980347 
1.8802562e+2, 1.2251827e+2, -1702217.1, -1741886.5, -667.9867, -0.0011794477, -0.007297313, -1702205.9, 37115.035, 0.0, 5.0167885, 4.9909325 
1.8803318e+2, 1.2751105e+2, -1655916.8, -1697961.5, -1001.51715, 0.0034235755, 0.018021856, -1655892.9, 34498.76, 0.0, 5.016712, 4.9893165 
1.8803924e+2, 1.324957e+2, -1610123.5, -1655342.4, -1684.5322, -0.0030453533, -0.0156240985, -1610060.9, 31481.33, 0.0, 5.016692, 4.987152 
1.8804596e+2, 1.3748446e+2, -1562047.0, -1608396.5, -1801.0083, -0.000068797424, -0.0014614279, -1561977.1, 30675.098, 0.0, 5.0167346, 4.98646 
1.8805194e+2, 1.4247043e+2, -1516907.4, -1567447.5, -2656.7493, 0.0010259643, 0.006857669, -1516768.1, 27021.787, 0.0, 5.016763, 4.9837513 
1.8805723e+2, 1.4745368e+2, -1468700.3, -1520167.3, -2727.169, 0.00003553964, -0.00084293075, -1468556.3, 26397.76, 0.0, 5.016781, 4.9831753 
1.8806213e+2, 1.5243551e+2, -1423725.6, -1479501.3, -3460.0051, -0.00033585355, -0.00096138753, -1423511.9, 22620.168, 0.0, 5.016775, 4.980396 
1.8806666e+2, 1.5741615e+2, -1375588.1, -1432198.6, -3533.6401, 0.0000049708756, -0.0013656017, -1375368.4, 21953.422, 0.0, 5.016747, 4.979837 
1.8807082e+2, 1.62395e+2, -1330575.6, -1391382.9, -4158.817, 0.00011785222, 0.0020351207, -1330292.5, 18236.508, 0.0, 5.016706, 4.9771 
1.8807457e+2, 1.673721e+2, -1282381.5, -1343890.5, -4227.487, -0.000025559482, -0.001134315, -1282092.4, 17661.34, 0.0, 5.016653, 4.976601 
1.8807803e+2, 1.7234756e+2, -1237464.1, -1303266.3, -4746.7603, -0.000073519994, 0.00091009657, -1237123.5, 13870.448, 0.0, 5.01659, 4.973784 
1.880812e+2, 1.7732145e+2, -1189228.0, -1255641.4, -4809.194, -0.0000029108169, -0.0011890875, -1188881.5, 13368.447, 0.0, 5.0165176, 4.973325 
1.8808414e+2, 1.8229368e+2, -1144328.5, -1215069.9, -5227.3657, 0.000020552287, 0.0013717099, -1143944.4, 9577.562, 0.0, 5.0164366, 4.9704757 
1.8808682e+2, 1.872642e+2, -1096056.1, -1167337.1, -5279.2915, 0.0000041637695, -0.0012517235, -1095667.3, 9143.544, 0.0, 5.016347, 4.9700465 
1.8808934e+2, 1.9223318e+2, -1051182.5, -1126855.6, -5592.497, -0.000012356807, 0.0013231155, -1050771.4, 5343.549, 0.0, 5.0162516, 4.967145 
1.8809168e+2, 1.9720039e+2, -1002856.7, -1078999.1, -5634.6973, -0.0000010658198, -0.0012549647, -1002441.94, 4994.264, 0.0, 5.0161495, 4.9667487 
1.8809392e+2, 2.0216605e+2, -957989.0, -1038591.9, -5836.803, 0.0000040825535, 0.0013665102, -957568.5, 1204.2408, 0.0, 5.016044, 4.9638042 
1.8809603e+2, 2.0712993e+2, -909618.8, -990653.56, -5869.096, 0.0000066854213, -0.0012920296, -909195.94, 930.82965, 0.0, 5.015935, 4.9634247 
1.8809812e+2, 2.1209225e+2, -864751.4, -950331.2, -5961.481, 0.0000018675403, 0.0014170154, -864338.06, -2842.0864, 0.0, 5.015824, 4.9604244 
1.8810014e+2, 2.1705274e+2, -816310.1, -902274.75, -5981.1836, -0.000021140151, -0.0013854121, -815895.94, -3012.834, 0.0, 5.0157113, 4.9600716 
1.8810219e+2, 2.2201172e+2, -771437.6, -862051.75, -5970.121, -0.000017034272, 0.001476973, -771046.0, -6760.7275, 0.0, 5.0155993, 4.9570107 
1.8810424e+2, 2.2696882e+2, -722922.9, -813894.5, -5973.548, -0.000011696879, -0.0013286029, -722532.3, -6826.739, 0.0, 5.015488, 4.956677 
1.881064e+2, 2.3192436e+2, -678044.94, -773793.7, -5858.9106, 0.000007496055, 0.0015399002, -677687.75, -10546.465, 0.0, 5.0153794, 4.9535465 
1.8810864e+2, 2.3687801e+2, -629427.0, -725490.8, -5841.974, 0.000023271248, -0.0015822102, -629073.0, -10477.459, 0.0, 5.0152736, 4.953245 
1.88111e+2, 2.4183011e+2, -584551.7, -685553.3, -5630.259, 0.000029889614, 0.0017804909, -584238.75, -14173.721, 0.0, 5.015172, 4.950023 
1.8811356e+2, 2.4678026e+2, -535798.8, -637052.1, -5588.8394, 0.000023391585, -0.0015980944, -535491.25, -13937.647, 0.0, 5.0150757, 4.949771 
1.8811625e+2, 2.517288e+2, -491021.78, -597519.4, -5285.462, 0.000027765, 0.0017793283, -490760.1, -17702.207, 0.0, 5.0149856, 4.9463763 
1.8811923e+2, 2.566754e+2, -441955.88, -548439.6, -5216.013, 0.000035280536, -0.001618538, -441700.97, -17119.775, 0.0, 5.0149035, 4.946305 
1.881224e+2, 2.6162034e+2, -397393.6, -509604.84, -4827.468, 0.00004326867, 0.001788441, -397186.3, -21065.543, 0.0, 5.0148287, 4.942628 
1.8812594e+2, 2.6656336e+2, -347923.97, -459751.7, -4725.4097, 0.000042772444, -0.0015134696, -347724.66, -20045.432, 0.0, 5.014765, 4.9428067 
1.881297e+2, 2.715046e+2, -303638.88, -421791.6, -4254.418, 0.000035419805, 0.0018369711, -303485.88, -24230.838, 0.0, 5.014709, 4.9387765 
1.8813388e+2, 2.7644393e+2, -253763.77, -371167.72, -4117.483, 0.000025465237, -0.001752444, -253619.53, -22769.875, 0.0, 5.0146675, 4.9392033 
1.8813835e+2, 2.8138155e+2, -209451.77, -333420.56, -3578.793, 0.000018726165, 0.002370223, -209348.55, -26887.572, 0.0, 5.014635, 4.9350543 
1.8814333e+2, 2.8631726e+2, -159203.27, -282108.9, -3399.6997, 0.000011013046, -0.002477781, -159109.3, -25018.334, 0.0, 5.0146203, 4.935702 
1.8814862e+2, 2.9125062e+2, -116840.95, -249205.8, -2784.1995, 0.000039707695, 0.0017992961, -116782.414, -31038.236, 0.0, 5.014616, 4.9297857 
1.8815455e+2, 2.961812e+2, -66599.555, -198125.44, -2568.5557, 0.000116485375, -0.00021767667, -66549.414, -29125.21, 0.0, 5.014632, 4.9303207 
1.8816078e+2, 3.0111876e+2, -25253.793, -134609.53, -1830.3981, 0.00011220315, 0.002509669, -25223.164, -25223.164, 0.0, 5.014659, 4.94427 
1.881677e+2, 3.0606368e+2, -23907.307, -131708.03, -1567.6927, 0.0000518073, -0.0052672727, -23884.514, -23884.514, 0.0, 5.0147085, 4.945293 
1.88175e+2, 3.110262e+2, 15267.946, -40107.496, -688.7612, 0.00007567479, 0.003966002, 15276.512, 15276.512, 0.0, 5.0147705, 4.978808 
1.8818304e+2, 3.1600624e+2, 17440.924, -35469.465, -369.734, 0.000030347444, -0.00061818445, 17443.508, 17443.508, 0.0, 5.01486, 4.980482 
1.930427e+2, 1.2251032e+2, -1700483.8, -1741104.1, -631.1714, -0.0014083593, -0.007160917, -1700474.0, 38924.887, 0.0, 5.0173793, 4.990899 
1.930502e+2, 1.2750313e+2, -1655032.1, -1698309.3, -1114.1659, 0.004298579, 0.021750871, -1655003.4, 35465.977, 0.0, 5.0171747, 4.988975 
1.9305606e+2, 1.3248682e+2, -1609203.6, -1655278.4, -1732.8265, -0.0038173606, -0.018855253, -1609138.6, 32490.63, 0.0, 5.017082, 4.986983 
1.9306289e+2, 1.3747574e+2, -1561175.0, -1608352.0, -1895.257, -0.000087577246, -0.0015159353, -1561099.0, 31638.773, 0.0, 5.017108, 4.986293 
1.930689e+2, 1.4246169e+2, -1515984.0, -1567169.5, -2803.1914, 0.001287389, 0.0079752235, -1515830.9, 28044.533, 0.0, 5.01711, 4.9836755 
1.9307417e+2, 1.4744477e+2, -1467890.4, -1519943.0, -2877.7354, 0.0000544266, -0.00079620455, -1467731.8, 27309.566, 0.0, 5.0170894, 4.9831004 
1.9307904e+2, 1.5242647e+2, -1423014.4, -1479348.9, -3640.57, -0.0004079653, -0.0013179408, -1422780.0, 23440.566, 0.0, 5.017056, 4.9803114 
1.9308354e+2, 1.5740706e+2, -1374929.9, -1432073.4, -3721.667, 0.000017265762, -0.0013607953, -1374688.5, 22722.375, 0.0, 5.0170107, 4.979752 
1.9308765e+2, 1.6238585e+2, -1329965.4, -1391268.6, -4372.19, 0.00016165445, 0.0021788331, -1329655.1, 18963.621, 0.0, 5.0169516, 4.9770207 
1.9309133e+2, 1.6736284e+2, -1281830.6, -1343805.0, -4447.4805, -0.000010404133, -0.0011137804, -1281513.1, 18331.21, 0.0, 5.0168786, 4.9765224 
1.9309473e+2, 1.7233823e+2, -1236968.3, -1303190.4, -4988.162, -0.00006896432, 0.00087977544, -1236594.6, 14490.803, 0.0, 5.0167933, 4.973713 
1.9309781e+2, 1.7731205e+2, -1188803.8, -1255600.3, -5056.6396, 0.000011907872, -0.0011803205, -1188423.1, 13918.881, 0.0, 5.016697, 4.973254 
1.9310065e+2, 1.8228422e+2, -1143958.8, -1215027.5, -5492.3174, 0.00004032775, 0.0013963211, -1143536.8, 10077.815, 0.0, 5.0165915, 4.970417 
1.9310324e+2, 1.872547e+2, -1095760.8, -1167329.5, -5549.321, 0.000022557058, -0.0012430024, -1095333.0, 9571.04, 0.0, 5.0164766, 4.9699883 
1.9310565e+2, 1.9222361e+2, -1050946.0, -1126847.1, -5874.839, 0.000009343528, 0.001326751, -1050494.0, 5714.7534, 0.0, 5.0163546, 4.9670997 
1.9310786e+2, 1.9719078e+2, -1002695.1, -1079024.0, -5920.479, 0.000027710039, -0.0012482046, -1002238.6, 5291.8306, 0.0, 5.016227, 4.9667044 
1.9310999e+2, 2.0215641e+2, -957886.8, -1038614.0, -6131.3228, 0.00003803926, 0.0013716833, -957423.75, 1443.5835, 0.0, 5.0160947, 4.9637737 
1.9311199e+2, 2.0712024e+2, -909593.2, -990710.06, -6166.1675, 0.000043572152, -0.0012872465, -909127.1, 1094.5435, 0.0, 5.015958, 4.9633946 
1.9311394e+2, 2.1208255e+2, -864783.75, -950382.94, -6262.8315, 0.000040410778, 0.0014201383, -864327.94, -2736.8206, 0.0, 5.0158205, 4.9604087 
1.9311583e+2, 2.1704303e+2, -816419.7, -902359.94, -6284.151, 0.000017216898, -0.0013839422, -815962.6, -2984.2505, 0.0, 5.01568, 4.960057 
1.9311775e+2, 2.2200198e+2, -771607.1, -862132.7, -6272.632, 0.000018342014, 0.0014774592, -771174.56, -6793.936, 0.0, 5.0155406, 4.9570103 
1.931197e+2, 2.269591e+2, -723168.06, -814007.25, -6276.711, 0.000027373824, -0.0013294274, -722736.4, -6935.443, 0.0, 5.015402, 4.9566774 
1.9312172e+2, 2.3191464e+2, -678349.4, -773902.3, -6158.242, 0.00004638563, 0.0015376512, -677954.1, -10717.53, 0.0, 5.015266, 4.9535604 
1.9312385e+2, 2.368683e+2, -629806.06, -725629.94, -6140.6396, 0.00006178809, -0.0015854641, -629414.1, -10723.423, 0.0, 5.0151324, 4.9532604 
1.931261e+2, 2.4182042e+2, -584990.1, -685688.5, -5921.7817, 0.00006934311, 0.0017784325, -584643.06, -14483.063, 0.0, 5.0150037, 4.950052 
1.9312853e+2, 2.467706e+2, -536310.1, -637215.9, -5878.3223, 0.00006212327, -0.0016006741, -535968.9, -14320.596, 0.0, 5.01488, 4.9498014 
1.9313113e+2, 2.5171918e+2, -491590.94, -597679.4, -5564.28, 0.000061787636, 0.0017758767, -491299.88, -18147.686, 0.0, 5.014763, 4.9464197 
1.9313401e+2, 2.5666583e+2, -442595.38, -548626.2, -5491.4673, 0.00006420063, -0.0016212217, -442311.72, -17636.678, 0.0, 5.014654, 4.94635 
1.9313708e+2, 2.616108e+2, -398090.03, -509788.4, -5089.1772, 0.00007066994, 0.0017866194, -397858.66, -21644.516, 0.0, 5.0145526, 4.9426856 
1.9314054e+2, 2.665539e+2, -348687.34, -459958.78, -4982.213, 0.00006898376, -0.0015174294, -348464.7, -20692.693, 0.0, 5.014463, 4.942867 
1.9314423e+2, 2.7149522e+2, -304458.4, -421997.8, -4494.656, 0.000056636174, 0.0018331285, -304286.8, -24939.607, 0.0, 5.014382, 4.9388475 
1.9314836e+2, 2.764346e+2, -254646.39, -371395.1, -4351.3, 0.0000467299, -0.0017576689, -254484.45, -23543.354, 0.0, 5.014315, 4.9392767 
1.9315279e+2, 2.8137228e+2, -210384.39, -333639.8, -3792.949, 0.00004010508, 0.0023629367, -210267.78, -27716.14, 0.0, 5.0142584, 4.9351406 
1.9315773e+2, 2.863081e+2, -160193.58, -282344.0, -3605.5696, 0.000026655202, -0.0024896609, -160087.25, -25906.479, 0.0, 5.0142198, 4.9357915 
1.9316301e+2, 2.9124156e+2, -117893.77, -249468.0, -2967.717, 0.00004909437, 0.0017891997, -117826.87, -31993.756, 0.0, 5.014192, 4.929875 
1.9316892e+2, 2.9617223e+2, -67709.34, -198411.3, -2742.3955, 0.00012450085, -0.00021851128, -67651.83, -30139.578, 0.0, 5.0141864, 4.93041 
1.9317518e+2, 3.0110988e+2, -26399.857, -134876.61, -1979.2102, 0.00011842183, 0.0025103106, -26363.758, -26363.758, 0.0, 5.014191, 4.944374 
1.9318214e+2, 3.060549e+2, -25103.842, -131985.38, -1704.1943, 0.0000520511, -0.005271345, -25076.676, -25076.676, 0.0, 5.01422, 4.9454017 
1.9318947e+2, 3.1101754e+2, 14051.742, -40343.13, -794.0801, 0.000060166647, 0.003969982, 14063.332, 14063.332, 0.0, 5.0142617, 4.9789386 
1.9319761e+2, 3.1599772e+2, 16186.343, -35701.78, -460.1581, 0.00000690602, -0.0005987281, 16190.424, 16190.424, 0.0, 5.014333, 4.9806213 
1.9806e+2, 1.225027e+2, -1700429.4, -1741054.6, -662.70416, -0.0019797524, -0.004268161, -1700418.5, 39055.035, 0.0, 5.017392, 4.990909 
1.9806747e+2, 1.2749521e+2, -1655544.4, -1699482.8, -1243.8536, 0.005280727, 0.02564961, -1655509.3, 35037.805, 0.0, 5.017202, 4.9885755 
1.9807306e+2, 1.3247788e+2, -1609408.4, -1655834.5, -1700.3733, -0.00468196, -0.02220316, -1609346.1, 32370.719, 0.0, 5.0171113, 4.986785 
1.9807997e+2, 1.3746694e+2, -1561402.1, -1608911.3, -1855.8342, -0.0001158067, -0.0015795884, -1561329.8, 31494.293, 0.0, 5.0171275, 4.9860983 
1.9808604e+2, 1.4245287e+2, -1516057.1, -1567387.9, -2797.798, 0.0015770381, 0.009133066, -1515905.0, 28056.922, 0.0, 5.017124, 4.9835963 
1.9809127e+2, 1.4743574e+2, -1467962.0, -1520156.9, -2877.8455, 0.000069488844, -0.0007436399, -1467803.9, 27325.832, 0.0, 5.017103, 4.9830227 
1.9809608e+2, 1.5241735e+2, -1423105.1, -1479598.1, -3662.6257, -0.000496168, -0.0016847495, -1422868.6, 23441.494, 0.0, 5.017069, 4.980222 
1.9810055e+2, 1.5739787e+2, -1375024.8, -1432325.1, -3746.9368, 0.000023672506, -0.0013557405, -1374780.8, 22720.18, 0.0, 5.017022, 4.979663 
1.981046e+2, 1.6237658e+2, -1330053.9, -1391501.9, -4419.107, 0.00020412455, 0.0023273565, -1329737.8, 18971.768, 0.0, 5.0169616, 4.9769382 
1.9810821e+2, 1.6735348e+2, -1281921.4, -1344038.6, -4496.806, 0.000001278501, -0.0010936202, -1281597.5, 18338.447, 0.0, 5.016887, 4.97644 
1.981115e+2, 1.723288e+2, -1237050.9, -1303401.8, -5055.574, -0.00007117972, 0.0008475767, -1236667.9, 14510.048, 0.0, 5.0168014, 4.973638 
1.981145e+2, 1.7730254e+2, -1188889.9, -1255812.5, -5125.158, 0.000019764306, -0.0011719215, -1188499.6, 13935.622, 0.0, 5.0167027, 4.97318 
1.9811724e+2, 1.8227465e+2, -1144030.9, -1215203.6, -5574.3774, 0.000051650666, 0.0014182447, -1143597.0, 10111.512, 0.0, 5.016596, 4.9703555 
1.9811971e+2, 1.8724506e+2, -1095836.0, -1167505.3, -5632.7646, 0.00003274858, -0.0012373041, -1095396.0, 9602.557, 0.0, 5.0164795, 4.9699273 
1.9812201e+2, 1.9221391e+2, -1051007.0, -1126985.1, -5967.5874, 0.000024066596, 0.001327005, -1050541.1, 5762.6675, 0.0, 5.016356, 4.9670525 
1.981241e+2, 1.9718103e+2, -1002759.4, -1079161.4, -6014.2886, 0.000048605394, -0.0012445659, -1002288.9, 5337.061, 0.0, 5.0162263, 4.966658 
1.9812608e+2, 2.0214662e+2, -957936.6, -1038712.4, -6230.865, 0.000063817046, 0.0013728605, -957458.8, 1504.3916, 0.0, 5.0160923, 4.9637413 
1.9812794e+2, 2.0711043e+2, -909646.7, -990807.8, -6266.05, 0.000071485396, -0.0012864792, -909165.75, 1152.0701, 0.0, 5.015954, 4.963363 
1.9812976e+2, 2.1207272e+2, -864822.94, -950440.9, -6365.612, 0.000072823175, 0.0014205611, -864352.25, -2664.6973, 0.0, 5.015815, 4.9603915 
1.9813152e+2, 2.1703318e+2, -816462.5, -902416.7, -6387.539, 0.000051377592, -0.0013865911, -815990.4, -2915.4546, 0.0, 5.0156727, 4.960041 
1.981333e+2, 2.2199212e+2, -771636.25, -862150.2, -6374.464, 0.000047342357, 0.001472013, -771189.5, -6712.232, 0.0, 5.015531, 4.957009 
1.9813511e+2, 2.2694923e+2, -723200.9, -814023.4, -6378.8296, 0.00006206779, -0.0013383852, -722755.06, -6857.4585, 0.0, 5.0153904, 4.9566774 
1.98137e+2, 2.3190479e+2, -678369.44, -773880.2, -6256.242, 0.00008078072, 0.0015287186, -677961.4, -10628.158, 0.0, 5.015252, 4.9535747 
1.9813898e+2, 2.3685846e+2, -629829.9, -725605.94, -6238.409, 0.000097294374, -0.0015960241, -629425.25, -10638.086, 0.0, 5.015117, 4.953276 
1.981411e+2, 2.4181059e+2, -585002.1, -685627.56, -6012.851, 0.0001076556, 0.0017664278, -584644.1, -14387.884, 0.0, 5.0149856, 4.9500813 
1.9814341e+2, 2.467608e+2, -536326.2, -637152.9, -5968.3613, 0.00009735797, -0.0016133778, -535974.1, -14229.938, 0.0, 5.01486, 4.9498324 
1.9814591e+2, 2.5170943e+2, -491596.7, -597581.6, -5644.346, 0.000092243914, 0.0017630862, -491296.94, -18049.186, 0.0, 5.0147405, 4.946464 
1.9814867e+2, 2.5665614e+2, -442605.38, -548525.7, -5569.9272, 0.000091630136, -0.001634229, -442313.25, -17543.104, 0.0, 5.01463, 4.9463964 
1.9815165e+2, 2.6160118e+2, -398091.25, -509655.28, -5155.33, 0.000095486495, 0.0017743467, -397853.53, -21544.799, 0.0, 5.014526, 4.9427443 
1.98155e+2, 2.6654428e+2, -348692.84, -459822.22, -5045.7637, 0.000092190865, -0.0015321625, -348464.2, -20598.19, 0.0, 5.0144334, 4.942928 
1.9815862e+2, 2.7148566e+2, -304457.4, -421832.7, -4543.554, 0.00007640697, 0.00181767, -304281.78, -24841.24, 0.0, 5.0143495, 4.93892 
1.9816267e+2, 2.7642515e+2, -254650.11, -371226.6, -4396.4604, 0.00006765866, -0.0017745754, -254484.55, -23450.824, 0.0, 5.0142803, 4.9393516 
1.9816704e+2, 2.8136292e+2, -210379.92, -333437.7, -3820.833, 0.00006112379, 0.0023431464, -210261.39, -27617.916, 0.0, 5.0142207, 4.935229 
1.9817196e+2, 2.8629884e+2, -160192.98, -282135.47, -3628.6702, 0.000040559906, -0.0025146506, -160085.11, -25813.387, 0.0, 5.014179, 4.9358835 
1.981772e+2, 2.9123232e+2, -117901.99, -249264.0, -2971.0923, 0.000054735097, 0.0017663265, -117834.83, -31911.668, 0.0, 5.0141487, 4.9299664 
1.981831e+2, 2.9616314e+2, -67726.77, -198212.23, -2739.3716, 0.00012695488, -0.0002305953, -67669.29, -30067.89, 0.0, 5.0141397, 4.930501 
1.9818936e+2, 3.0110088e+2, -26408.926, -134641.8, -1956.3827, 0.00011801366, 0.0025013636, -26373.574, -26373.574, 0.0, 5.0141416, 4.94448 
1.9819635e+2, 3.06046e+2, -25115.793, -131739.88, -1673.3113, 0.000046329824, -0.0052856663, -25089.54, -25089.54, 0.0, 5.014167, 4.9455132 
1.9820371e+2, 3.1100875e+2, 14054.313, -40047.33, -739.8154, 0.00003651321, 0.00396146, 14064.428, 14064.428, 0.0, 5.014205, 4.9790716 
1.9821191e+2, 3.1598908e+2, 16188.564, -35386.363, -395.39935, -0.000030626965, -0.0005900521, 16191.596, 16191.596, 0.0, 5.014272, 4.980764 
2.030776e+2, 1.2249409e+2, -1698753.6, -1739610.4, -306.19974, -0.002084826, -0.013964945, -1698751.4, 40806.61, 0.0, 5.017816, 4.9911757 
2.0308508e+2, 1.2748702e+2, -1654838.4, -1700460.0, -1280.028, 0.006634481, 0.025868788, -1654802.5, 35824.832, 0.0, 5.0177217, 4.987999 
2.0309031e+2, 1.3246927e+2, -1608086.1, -1655572.8, -1746.2749, -0.0058584968, -0.022270007, -1608022.0, 33779.2, 0.0, 5.0176353, 4.986616 
2.0309731e+2, 1.3745818e+2, -1560343.0, -1608768.9, -1868.2814, -0.00013822473, -0.0016146749, -1560271.0, 32638.896, 0.0, 5.0175624, 4.9859343 
2.0310341e+2, 1.4244397e+2, -1515099.3, -1567188.4, -2814.196, 0.001976641, 0.009188954, -1514947.6, 29101.45, 0.0, 5.0175023, 4.9834785 
2.0310855e+2, 1.4742674e+2, -1467070.6, -1519988.6, -2941.0854, 0.00008407261, -0.00070968736, -1466907.8, 28310.283, 0.0, 5.01746, 4.9829063 
2.0311332e+2, 1.524082e+2, -1422277.6, -1479441.8, -3781.7563, -0.00062775426, -0.0016840494, -1422028.5, 24371.127, 0.0, 5.0174, 4.980115 
2.0311774e+2, 1.5738864e+2, -1374283.8, -1432211.8, -3889.4785, 0.000022015287, -0.0013462433, -1374023.8, 23567.621, 0.0, 5.017325, 4.9795556 
2.031217e+2, 1.6236727e+2, -1329374.5, -1391387.9, -4597.67, 0.00025207718, 0.0023496198, -1329035.5, 19765.465, 0.0, 5.017237, 4.9768443 
2.0312522e+2, 1.6734405e+2, -1281317.0, -1343961.0, -4690.379, 0.0000055724413, -0.0010749829, -1280967.8, 19060.643, 0.0, 5.017138, 4.9763465 
2.0312843e+2, 1.7231928e+2, -1236504.6, -1303322.3, -5278.431, -0.00008564914, 0.0008615721, -1236090.3, 15180.945, 0.0, 5.017026, 4.9735584 
2.0313132e+2, 1.7729294e+2, -1188425.1, -1255772.8, -5356.214, 0.000017105558, -0.0011583745, -1188001.9, 14527.465, 0.0, 5.0169, 4.9730997 
2.0313393e+2, 1.8226498e+2, -1143629.0, -1215160.0, -5825.236, 0.000054448705, 0.0014318938, -1143157.8, 10645.489, 0.0, 5.016765, 4.9702907 
2.0313627e+2, 1.8723533e+2, -1095516.6, -1167500.5, -5889.948, 0.000032497046, -0.0012227225, -1095037.9, 10056.094, 0.0, 5.01662, 4.9698634 
2.0313841e+2, 1.9220412e+2, -1050748.6, -1126975.9, -6238.741, 0.000026262434, 0.0013376797, -1050241.4, 6158.2856, 0.0, 5.016469, 4.967003 
2.0314036e+2, 1.971712e+2, -1002583.75, -1079190.5, -6289.6167, 0.00005662854, -0.0012345193, -1002070.75, 5651.585, 0.0, 5.0163107, 4.966609 
2.0314221e+2, 2.0213674e+2, -957822.0, -1038736.06, -6515.7104, 0.00007678007, 0.0013845736, -957300.6, 1759.4098, 0.0, 5.0161486, 4.9637074 
2.0314391e+2, 2.0710053e+2, -909613.4, -990867.2, -6553.9043, 0.00008978096, -0.0012748629, -909088.1, 1326.8947, 0.0, 5.015981, 4.9633307 
2.0314556e+2, 2.1206276e+2, -864854.06, -950496.3, -6658.1147, 0.000094021, 0.0014311778, -864339.56, -2554.5742, 0.0, 5.0158124, 4.960374 
2.0314717e+2, 2.1702322e+2, -816573.9, -902506.56, -6681.886, 0.00007442652, -0.0013774916, -816057.44, -2884.8796, 0.0, 5.0156417, 4.9600244 
2.031488e+2, 2.2198215e+2, -771810.0, -862234.94, -6668.8213, 0.00007078164, 0.0014793356, -771320.8, -6745.849, 0.0, 5.0154715, 4.957007 
2.0315045e+2, 2.2693928e+2, -723454.75, -814141.6, -6674.0117, 0.00009114831, -0.0013350683, -722966.25, -6970.9395, 0.0, 5.015301, 4.956677 
2.031522e+2, 2.3189482e+2, -678686.25, -773993.75, -6547.827, 0.00010946245, 0.0015316317, -678238.5, -10807.676, 0.0, 5.0151343, 4.953589 
2.0315403e+2, 2.368485e+2, -630225.6, -725751.56, -6529.4897, 0.0001239164, -0.0015944157, -629781.4, -10896.754, 0.0, 5.01497, 4.9532924 
2.03156e+2, 2.4180068e+2, -585459.3, -685768.25, -6296.9478, 0.00013564239, 0.0017661485, -585065.56, -14712.042, 0.0, 5.01481, 4.950112 
2.0315816e+2, 2.4675092e+2, -536859.9, -637323.5, -6250.566, 0.00012648597, -0.0016150975, -536472.44, -14631.334, 0.0, 5.014656, 4.949865 
2.0316051e+2, 2.5169957e+2, -492192.13, -597748.56, -5915.8784, 0.00011706943, 0.0017621723, -491861.63, -18517.29, 0.0, 5.014508, 4.94651 
2.0316315e+2, 2.566463e+2, -443275.16, -548720.25, -5838.123, 0.00011333874, -0.001637257, -442952.9, -18086.643, 0.0, 5.0143685, 4.9464445 
2.0316602e+2, 2.615914e+2, -398821.22, -509846.34, -5409.3613, 0.00011700878, 0.0017697905, -398558.28, -22153.973, 0.0, 5.0142365, 4.942806 
2.0316927e+2, 2.665346e+2, -349493.75, -460038.47, -5294.8403, 0.000113336064, -0.0015390681, -349240.72, -21279.742, 0.0, 5.014117, 4.9429917 
2.0317277e+2, 2.7147603e+2, -305317.34, -422047.66, -4775.663, 0.00009556245, 0.0018093468, -305122.28, -25587.436, 0.0, 5.0140057, 4.938995 
2.0317675e+2, 2.764156e+2, -255577.02, -371464.0, -4621.8306, 0.00008978637, -0.0017855037, -255392.98, -24265.727, 0.0, 5.0139103, 4.9394298 
2.0318104e+2, 2.8135344e+2, -211360.0, -333666.38, -4025.8662, 0.00008492605, 0.002328172, -211227.64, -28491.422, 0.0, 5.0138245, 4.9353204 
2.031859e+2, 2.8628945e+2, -161235.0, -282381.22, -3825.342, 0.00006056418, -0.002532467, -161114.33, -26750.8, 0.0, 5.0137577, 4.9359784 
2.031911e+2, 2.9122305e+2, -119010.664, -249537.6, -3144.5415, 0.000066882436, 0.0017508679, -118934.95, -32920.92, 0.0, 5.0137024, 4.930062 
2.0319699e+2, 2.9615396e+2, -68897.38, -198511.5, -2902.35, 0.00013031645, -0.0002406271, -68832.43, -31141.086, 0.0, 5.0136695, 4.9305964 
2.0320323e+2, 3.010918e+2, -27619.473, -134921.63, -2093.8994, 0.00011676101, 0.002493357, -27578.627, -27578.627, 0.0, 5.0136476, 4.9445906 
2.0321023e+2, 3.0603704e+2, -26380.9, -132031.16, -1798.3059, 0.000043207518, -0.0052922596, -26350.3, -26350.3, 0.0, 5.01365, 4.945629 
2.0321763e+2, 3.109999e+2, 12766.898, -40295.504, -833.1743, 0.000020446267, 0.003957801, 12779.978, 12779.978, 0.0, 5.013666, 4.9792104 
2.0322588e+2, 3.159804e+2, 14858.665, -35632.656, -472.5142, -0.000051005456, -0.0005955324, 14863.087, 14863.087, 0.0, 5.0137134, 4.9809117 
2.0809537e+2, 1.224873e+2, -1698229.5, -1738475.3, -93.803215, -0.0025094317, -0.0068556066, -1698229.3, 41395.266, 0.0, 5.017801, 4.9915566 
2.0810297e+2, 1.2747858e+2, -1655784.1, -1702519.1, -1349.4965, 0.008232938, 0.023508992, -1655745.3, 34964.625, 0.0, 5.0177484, 4.987308 
2.0810781e+2, 1.3246088e+2, -1608188.4, -1655978.8, -1778.2769, -0.0072535137, -0.020117482, -1608122.3, 33761.176, 0.0, 5.0176773, 4.986461 
2.0811488e+2, 1.3744941e+2, -1560467.8, -1609167.1, -1898.3436, -0.00017572899, -0.0016331627, -1560393.8, 32601.963, 0.0, 5.0175924, 4.9857874 
2.0812096e+2, 1.42435e+2, -1515242.1, -1567590.8, -2823.0408, 0.0024356314, 0.008491807, -1515090.3, 29046.758, 0.0, 5.017525, 4.9833345 
2.0812601e+2, 1.474177e+2, -1467215.4, -1520389.5, -2956.8523, 0.0000944953, -0.0006927969, -1467051.4, 28255.213, 0.0, 5.017481, 4.982763 
2.0813069e+2, 1.5239906e+2, -1422394.1, -1479776.4, -3825.191, -0.00079008884, -0.0014370881, -1422140.3, 24349.03, 0.0, 5.0174193, 4.9799943 
2.0813505e+2, 1.5737934e+2, -1374406.4, -1432548.1, -3935.002, 0.000012610659, -0.001335514, -1374141.3, 23541.283, 0.0, 5.0173416, 4.979435 
2.0813894e+2, 1.6235784e+2, -1329478.3, -1391674.1, -4661.035, 0.00030079135, 0.002283902, -1329130.9, 19762.373, 0.0, 5.0172515, 4.976742 
2.0814237e+2, 1.6733453e+2, -1281425.8, -1344247.4, -4756.069, 0.0000028755724, -0.0010616665, -1281067.8, 19053.822, 0.0, 5.01715, 4.976245 
2.0814547e+2, 1.7230968e+2, -1236595.4, -1303561.1, -5364.2324, -0.000109876986, 0.0009020582, -1236168.5, 15196.815, 0.0, 5.017036, 4.9734735 
2.0814821e+2, 1.7728324e+2, -1188521.1, -1256013.6, -5443.695, 0.0000052793375, -0.0011465482, -1188084.9, 14539.37, 0.0, 5.016908, 4.973015 
2.081507e+2, 1.8225522e+2, -1143707.4, -1215354.6, -5926.359, 0.000049567618, 0.0014349514, -1143220.4, 10678.539, 0.0, 5.016771, 4.9702225 
2.0815289e+2, 1.8722549e+2, -1095599.5, -1167696.1, -5992.123, 0.000023026574, -0.0012072425, -1095104.9, 10085.455, 0.0, 5.016624, 4.969795 
2.0815489e+2, 1.9219422e+2, -1050814.4, -1127126.4, -6350.854, 0.000017085735, 0.0013486386, -1050289.5, 6207.19, 0.0, 5.016471, 4.966951 
2.0815668e+2, 1.9716126e+2, -1002654.4, -1079342.6, -6402.3257, 0.000052776846, -0.0012268764, -1002123.56, 5696.2446, 0.0, 5.0163107, 4.9665575 
2.0815836e+2, 2.0212676e+2, -957876.56, -1038844.5, -6634.5195, 0.0000775423, 0.001397993, -957336.56, 1821.4086, 0.0, 5.0161467, 4.9636717 
2.081599e+2, 2.070905e+2, -909671.44, -990973.9, -6673.693, 0.00009825812, -0.0012623138, -909127.25, 1385.9669, 0.0, 5.0159774, 4.963296 
2.081614e+2, 2.1205272e+2, -864897.0, -950560.56, -6780.302, 0.000102930004, 0.001441538, -864363.7, -2480.1833, 0.0, 5.0158067, 4.960355 
2.0816283e+2, 2.1701315e+2, -816620.6, -902569.4, -6804.5654, 0.00008448949, -0.0013672815, -816085.25, -2814.0483, 0.0, 5.0156336, 4.9600067 
2.0816427e+2, 2.2197208e+2, -771842.25, -862256.0, -6790.451, 0.00008592323, 0.0014886055, -771335.1, -6661.3716, 0.0, 5.015461, 4.9570045 
2.0816575e+2, 2.2692919e+2, -723490.94, -814160.94, -6795.821, 0.000110955945, -0.0013304086, -722984.44, -6890.345, 0.0, 5.0152893, 4.956676 
2.0816733e+2, 2.3188475e+2, -678708.75, -773972.2, -6665.5474, 0.00012882269, 0.0015354558, -678244.6, -10715.061, 0.0, 5.0151196, 4.9536033 
2.08169e+2, 2.3683846e+2, -630252.1, -725727.94, -6646.8076, 0.0001396185, -0.0015915256, -629791.6, -10808.407, 0.0, 5.014953, 4.953308 
2.081708e+2, 2.4179064e+2, -585473.4, -685705.56, -6407.238, 0.00015174768, 0.0017666526, -585065.44, -14613.601, 0.0, 5.014791, 4.950142 
2.0817283e+2, 2.467409e+2, -536878.2, -637258.3, -6359.881, 0.00014680075, -0.0016169421, -536476.8, -14537.668, 0.0, 5.0146346, 4.9498973 
2.0817502e+2, 2.516896e+2, -492199.63, -597646.56, -6015.3174, 0.00013264372, 0.0017620974, -491857.6, -18415.596, 0.0, 5.014484, 4.946556 
2.0817752e+2, 2.5663638e+2, -443286.88, -548614.9, -5935.729, 0.00012547315, -0.0016408229, -442953.4, -17989.97, 0.0, 5.0143423, 4.946493 
2.0818025e+2, 2.6158154e+2, -398823.47, -509706.0, -5494.2197, 0.00013081775, 0.0017628975, -398551.9, -22050.938, 0.0, 5.014208, 4.9428678 
2.0818338e+2, 2.6652482e+2, -349500.8, -459894.9, -5376.953, 0.00012699864, -0.0015481194, -349239.53, -21182.535, 0.0, 5.0140853, 4.943056 
2.0818678e+2, 2.714663e+2, -305317.5, -421873.66, -4842.687, 0.00010753023, 0.0017983902, -305116.63, -25486.453, 0.0, 5.0139713, 4.9390717 
2.0819068e+2, 2.7640593e+2, -255582.13, -371286.16, -4684.934, 0.00010557327, -0.0017995784, -255392.73, -24170.918, 0.0, 5.0138726, 4.939509 
2.0819487e+2, 2.813439e+2, -211356.5, -333452.88, -4071.1785, 0.000102769955, 0.0023092797, -211220.9, -28390.967, 0.0, 5.0137844, 4.9354134 
2.0819966e+2, 2.8627998e+2, -161235.89, -282161.13, -3865.6812, 0.00007657833, -0.0025527973, -161112.44, -26656.133, 0.0, 5.0137143, 4.9360757 
2.082048e+2, 2.912137e+2, -119020.305, -249320.39, -3164.4846, 0.00007512617, 0.001733098, -118943.5, -32837.64, 0.0, 5.0136557, 4.930159 
2.0821066e+2, 2.961447e+2, -68916.93, -198299.3, -2915.5452, 0.00012603634, -0.00025657, -68851.266, -31069.057, 0.0, 5.0136194, 4.9306936 
2.0821688e+2, 3.0108264e+2, -27630.73, -134672.3, -2086.8618, 0.00010657797, 0.0024793404, -27590.06, -27590.06, 0.0, 5.013594, 4.9447036 
2.0822388e+2, 3.0602798e+2, -26395.754, -131771.02, -1782.7611, 0.000032261378, -0.0053007184, -26365.602, -26365.602, 0.0, 5.0135927, 4.945748 
2.0823127e+2, 3.10991e+2, 12767.143, -39981.95, -793.3959, -0.000002892288, 0.003950252, 12779.073, 12779.073, 0.0, 5.013605, 4.9793525 
2.0823959e+2, 3.159716e+2, 14857.642, -35299.426, -421.48364, -0.00008045777, -0.0006128532, 14861.183, 14861.183, 0.0, 5.013648, 4.9810624 
2.1311319e+2, 1.2247989e+2, -1697085.8, -1737239.8, -97.76833, -0.0034211637, -0.0019574973, -1697085.5, 42611.605, 0.0, 5.0180364, 4.9918475 
2.1312104e+2, 1.2746927e+2, -1654756.0, -1702868.4, -1383.681, 0.008895768, 0.012962731, -1654716.1, 36084.977, 0.0, 5.0182743, 4.986935 
2.1312577e+2, 1.324533e+2, -1606551.0, -1655527.9, -1826.7375, -0.007813538, -0.010753449, -1606483.0, 35474.863, 0.0, 5.0182996, 4.9863067 
2.1313274e+2, 1.3744076e+2, -1559136.0, -1608853.0, -1951.754, -0.00021376136, -0.0015351584, -1559059.5, 34021.246, 0.0, 5.0181103, 4.9856396 
2.1313873e+2, 1.4242584e+2, -1514174.0, -1567501.1, -2841.3008, 0.002612717, 0.0053746123, -1514023.0, 30203.79, 0.0, 5.017976, 4.9831457 
2.131437e+2, 1.4740866e+2, -1466236.3, -1520344.5, -3027.5874, 0.00009636768, -0.00072703644, -1466067.4, 29327.854, 0.0, 5.0179024, 4.9825745 
2.1314831e+2, 1.5238997e+2, -1421428.4, -1479604.1, -3955.423, -0.00086272875, -0.00037468775, -1421160.6, 25417.732, 0.0, 5.0178084, 4.979864 
2.1315259e+2, 1.5737003e+2, -1373548.4, -1432427.0, -4078.0657, -0.0000014575121, -0.001298335, -1373267.3, 24506.578, 0.0, 5.0176945, 4.979306 
2.1315637e+2, 1.6234836e+2, -1328705.4, -1391561.1, -4832.735, 0.0003115014, 0.0019465081, -1328335.9, 20650.217, 0.0, 5.0175686, 4.976628 
2.1315967e+2, 1.6732498e+2, -1280755.6, -1344182.9, -4943.0664, -0.0000047494427, -0.001057193, -1280372.6, 19842.596, 0.0, 5.0174327, 4.976132 
2.1316263e+2, 1.7230004e+2, -1235992.4, -1303476.9, -5579.7217, -0.00012725945, 0.0010344206, -1235534.1, 15925.633, 0.0, 5.0172844, 4.9733834 
2.1316524e+2, 1.772735e+2, -1188013.0, -1255974.3, -5666.857, -0.00001011481, -0.0011290069, -1187543.8, 15175.998, 0.0, 5.0171247, 4.9729257 
2.1316756e+2, 1.8224539e+2, -1143267.9, -1215308.6, -6168.1885, 0.00003713481, 0.0014080767, -1142743.6, 11251.723, 0.0, 5.016956, 4.970151 
2.1316959e+2, 1.872156e+2, -1095252.5, -1167695.1, -6239.412, 0.000008342495, -0.0011973504, -1094719.1, 10568.222, 0.0, 5.0167775, 4.9697237 
2.1317142e+2, 1.9218427e+2, -1050533.8, -1127116.8, -6612.648, 0.0000025651696, 0.0013727942, -1049966.9, 6627.389, 0.0, 5.0165935, 4.966897 
2.1317303e+2, 1.9715123e+2, -1002462.0, -1079373.8, -6668.439, 0.000041041083, -0.0012146742, -1001888.06, 6029.8994, 0.0, 5.0164027, 4.966504 
2.1317454e+2, 2.0211668e+2, -957751.75, -1038870.7, -6909.1943, 0.00006880306, 0.001406636, -957167.44, 2089.1145, 0.0, 5.0162077, 4.9636345 
2.131759e+2, 2.070804e+2, -909633.6, -991038.06, -6951.2925, 0.00009395355, -0.0012497944, -909044.3, 1567.8845, 0.0, 5.0160074, 4.96326 
2.131772e+2, 2.1204259e+2, -864925.4, -950619.44, -7062.776, 0.00009948107, 0.001455963, -864347.1, -2364.4282, 0.0, 5.015806, 4.960335 
2.1317844e+2, 2.17003e+2, -816734.56, -902664.7, -7088.983, 0.00008674464, -0.0013553833, -816153.6, -2783.0024, 0.0, 5.0156026, 4.9599886 
2.1317971e+2, 2.2196192e+2, -772022.8, -862346.06, -7075.152, 0.00009086595, 0.0014982248, -771472.0, -6698.684, 0.0, 5.0153995, 4.957002 
2.13181e+2, 2.2691903e+2, -723755.75, -814286.06, -7081.21, 0.000117443364, -0.0013233734, -723205.2, -7011.588, 0.0, 5.015197, 4.956675 
2.1318237e+2, 2.3187459e+2, -679039.3, -774091.75, -6947.3433, 0.00013407864, 0.0015396302, -678534.2, -10905.133, 0.0, 5.0149965, 4.953618 
2.1318386e+2, 2.3682833e+2, -630665.25, -725880.94, -6928.1177, 0.00014185347, -0.0015905078, -630163.8, -11081.26, 0.0, 5.0147996, 4.9533243 
2.131855e+2, 2.4178052e+2, -585951.7, -685853.4, -6681.511, 0.00015341336, 0.0017664102, -585506.8, -14955.848, 0.0, 5.0146074, 4.950174 
2.1318734e+2, 2.4673083e+2, -537437.4, -637437.5, -6632.3496, 0.0001532069, -0.0016204016, -536999.4, -14961.451, 0.0, 5.0144205, 4.9499307 
2.1318938e+2, 2.5167957e+2, -492823.5, -597821.3, -6276.8745, 0.00013722337, 0.0017570733, -492449.6, -18909.213, 0.0, 5.01424, 4.9466043 
2.1319172e+2, 2.566264e+2, -443988.53, -548818.5, -6193.9014, 0.00012727513, -0.0016486609, -443623.84, -18562.49, 0.0, 5.0140686, 4.9465437 
2.1319431e+2, 2.615716e+2, -399587.97, -509905.5, -5738.167, 0.00013435449, 0.0017516394, -399290.28, -22691.969, 0.0, 5.0139046, 4.942932 
2.1319728e+2, 2.6651493e+2, -350340.16, -460120.84, -5615.944, 0.00013246325, -0.0015626665, -350053.63, -21899.932, 0.0, 5.0137534, 4.943123 
2.1320054e+2, 2.714565e+2, -306219.16, -422098.34, -5064.215, 0.00011454966, 0.0017832209, -305998.25, -26272.07, 0.0, 5.013611, 4.939151 
2.1320432e+2, 2.7639624e+2, -256554.0, -371534.2, -4899.7505, 0.000118753924, -0.0018149763, -256345.58, -25028.56, 0.0, 5.0134845, 4.939591 
2.1320844e+2, 2.8133425e+2, -212384.5, -333691.25, -4265.422, 0.0001198576, 0.0022897199, -212234.7, -29310.424, 0.0, 5.0133686, 4.93551 
2.1321313e+2, 2.8627044e+2, -162330.28, -282418.03, -4051.5054, 0.00009323269, -0.0025772767, -162193.75, -27644.078, 0.0, 5.0132713, 4.9361763 
2.132182e+2, 2.9120424e+2, -120185.33, -249604.98, -3326.4487, 0.0000847503, 0.0017091925, -120099.89, -33901.65, 0.0, 5.013186, 4.9302607 
2.13224e+2, 2.9613534e+2, -70148.6, -198611.2, -3066.7913, 0.00012215177, -0.0002745668, -70075.43, -32201.842, 0.0, 5.013124, 4.930795 
2.1323018e+2, 3.0107343e+2, -28906.076, -134964.86, -2212.6013, 0.00009827685, 0.002464853, -28859.938, -28859.938, 0.0, 5.013073, 4.9448214 
2.1323717e+2, 3.060189e+2, -27730.691, -132076.83, -1895.6863, 0.000030046978, -0.0053155315, -27696.262, -27696.262, 0.0, 5.013047, 4.945871 
2.1324457e+2, 3.1098202e+2, 11406.808, -40243.195, -874.3021, -0.000009193112, 0.003928591, 11421.604, 11421.604, 0.0, 5.013036, 4.9794993 
2.132529e+2, 3.159628e+2, 13449.997, -35560.64, -485.67493, -0.00008177672, -0.00064551114, 13454.81, 13454.81, 0.0, 5.0130568, 4.981219 
2.1813129e+2, 1.2247161e+2, -1697176.1, -1737590.1, 389.46896, -0.0026987533, -0.00303413, -1697172.4, 42605.895, 0.0, 5.018072, 4.9917145 
2.181393e+2, 1.2745935e+2, -1655014.6, -1703384.6, -1249.7887, 0.008921351, -0.0029388636, -1654982.4, 35916.113, 0.0, 5.018272, 4.986767 
2.1814406e+2, 1.3244618e+2, -1606802.9, -1656010.6, -1979.8046, -0.0078112166, 0.0031694851, -1606723.4, 35304.176, 0.0, 5.018292, 4.986151 
2.1815085e+2, 1.3743211e+2, -1559292.9, -1609275.4, -2095.4434, -0.00023612409, -0.001337206, -1559205.3, 33960.125, 0.0, 5.0181317, 4.98549 
2.1815671e+2, 1.4241655e+2, -1514394.6, -1568110.3, -2891.68, 0.0026051614, 0.0007347464, -1514239.4, 30078.525, 0.0, 5.018008, 4.982928 
2.1816161e+2, 1.473996e+2, -1466477.0, -1520964.8, -3074.808, 0.00009104255, -0.0008099042, -1466304.0, 29180.053, 0.0, 5.017928, 4.9823556 
2.1816613e+2, 1.5238088e+2, -1421563.3, -1479985.8, -4029.8022, -0.00088060176, 0.0011910483, -1421286.6, 25380.723, 0.0, 5.0178294, 4.9797273 
2.1817027e+2, 1.5736066e+2, -1373684.3, -1432805.0, -4154.2456, -0.000019787642, -0.0012452364, -1373393.8, 24471.9, 0.0, 5.017714, 4.979171 
2.1817394e+2, 1.6233881e+2, -1328828.1, -1391901.9, -4924.3965, 0.00029578406, 0.0014363411, -1328446.0, 20633.73, 0.0, 5.017586, 4.9765058 
2.181771e+2, 1.6731536e+2, -1280885.9, -1344525.1, -5035.263, -0.000017439632, -0.0010641533, -1280490.0, 19819.607, 0.0, 5.0174465, 4.9760103 
2.181799e+2, 1.7229031e+2, -1236091.4, -1303740.8, -5688.7563, -0.00014245177, 0.0012184114, -1235616.3, 15938.698, 0.0, 5.017296, 4.9732895 
2.1818236e+2, 1.7726369e+2, -1188116.8, -1256238.1, -5777.0635, -0.000029844914, -0.0011121464, -1187630.3, 15185.772, 0.0, 5.0171337, 4.9728327 
2.1818452e+2, 1.8223548e+2, -1143352.1, -1215521.1, -6291.173, 0.000017625503, 0.0013581791, -1142807.8, 11284.654, 0.0, 5.0169625, 4.970076 
2.1818636e+2, 1.8720561e+2, -1095343.3, -1167911.4, -6363.1636, -0.000012105979, -0.0011972381, -1094789.5, 10595.626, 0.0, 5.0167823, 4.9696484 
2.1818802e+2, 1.9217423e+2, -1050604.9, -1127281.3, -6745.497, -0.000018205214, 0.0014006861, -1050016.0, 6676.8057, 0.0, 5.016596, 4.9668403 
2.1818943e+2, 1.9714113e+2, -1002537.2, -1079536.9, -6802.0615, 0.000020944508, -0.001204528, -1001940.94, 6076.0464, 0.0, 5.0164027, 4.966449 
2.1819074e+2, 2.0210654e+2, -957810.1, -1038987.6, -7048.8696, 0.000050479804, 0.00140532, -957202.6, 2153.4297, 0.0, 5.0162053, 4.963596 
2.1819189e+2, 2.070702e+2, -909696.3, -991154.0, -7091.607, 0.00007723656, -0.0012436729, -909083.56, 1628.5044, 0.0, 5.0160036, 4.963223 
2.1819301e+2, 2.1203238e+2, -864972.06, -950690.4, -7205.683, 0.00008361699, 0.0014674301, -864370.56, -2287.7349, 0.0, 5.0157995, 4.960314 
2.1819405e+2, 2.1699277e+2, -816785.25, -902733.6, -7232.29, 0.00007961969, -0.0013485356, -816180.94, -2709.9722, 0.0, 5.0155935, 4.959969 
2.181951e+2, 2.2195168e+2, -772058.25, -862370.56, -7217.444, 0.00008370667, 0.0015015741, -771485.1, -6611.362, 0.0, 5.0153885, 4.956999 
2.181962e+2, 2.2690877e+2, -723795.4, -814308.56, -7223.527, 0.000110076, -0.0013207408, -723222.5, -6928.405, 0.0, 5.0151834, 4.9566736 
2.1819738e+2, 2.3186435e+2, -679064.56, -774071.3, -7085.4453, 0.0001254862, 0.0015374661, -678539.06, -10809.604, 0.0, 5.0149813, 4.9536324 
2.1819867e+2, 2.3681809e+2, -630695.0, -725858.4, -7065.748, 0.00013076694, -0.0015977091, -630173.25, -10990.453, 0.0, 5.014782, 4.9533405 
2.182001e+2, 2.4177031e+2, -585968.25, -685789.2, -6812.149, 0.00014062016, 0.0017593936, -585505.5, -14854.515, 0.0, 5.014587, 4.9502053 
2.1820177e+2, 2.4672066e+2, -537458.25, -637370.3, -6761.9272, 0.00014530504, -0.0016312082, -537002.7, -14865.06, 0.0, 5.0143976, 4.9499645 
2.1820362e+2, 2.5166944e+2, -492832.72, -597714.7, -6396.352, 0.00012972811, 0.0017416432, -492444.06, -18804.385, 0.0, 5.014214, 4.946653 
2.1820578e+2, 2.566163e+2, -444002.5, -548708.75, -6311.357, 0.000117148746, -0.0016660946, -443623.44, -18463.3, 0.0, 5.01404, 4.946595 
2.1820821e+2, 2.6156157e+2, -399592.06, -509759.16, -5842.576, 0.00012527034, 0.0017308048, -399283.1, -22586.535, 0.0, 5.0138736, 4.9429975 
2.1821102e+2, 2.6650497e+2, -350349.06, -459970.44, -5717.5376, 0.0001261043, -0.0015878236, -350051.66, -21800.387, 0.0, 5.0137196, 4.943191 
2.1821415e+2, 2.7144662e+2, -306220.94, -421916.2, -5150.121, 0.00011137972, 0.0017585262, -305992.16, -26169.117, 0.0, 5.013574, 4.9392314 
2.1821782e+2, 2.763864e+2, -256561.1, -371347.94, -4981.4814, 0.00012236084, -0.0018381958, -256345.31, -24932.264, 0.0, 5.0134444, 4.9396744 
2.182218e+2, 2.8132457e+2, -212382.33, -333466.7, -4329.1987, 0.00012779394, 0.0022627139, -212227.75, -29208.3, 0.0, 5.0133257, 4.9356084 
2.1822639e+2, 2.8626084e+2, -162332.88, -282186.66, -4110.146, 0.00010153447, -0.002611179, -162192.1, -27548.252, 0.0, 5.013225, 4.9362793 
2.1823138e+2, 2.9119477e+2, -120196.33, -249374.38, -3364.124, 0.00008638052, 0.0016746792, -120108.77, -33817.383, 0.0, 5.013136, 4.930364 
2.1823712e+2, 2.9612595e+2, -70170.26, -198385.58, -3097.384, 0.00010944782, -0.0003011147, -70095.48, -32129.756, 0.0, 5.01307, 4.9308987 
2.1824324e+2, 3.010641e+2, -28919.553, -134700.84, -2222.644, 0.00008146771, 0.0024433217, -28872.871, -28872.871, 0.0, 5.0130157, 4.944941 
2.182502e+2, 3.0600974e+2, -27748.193, -131801.84, -1896.9065, 0.000022330505, -0.0053403033, -27713.623, -27713.623, 0.0, 5.012986, 4.9459968 
2.182576e+2, 3.10973e+2, 11404.971, -39912.37, -850.179, -0.000018603856, 0.00389215, 11419.052, 11419.052, 0.0, 5.01297, 4.9796495 
2.1826595e+2, 3.159539e+2, 13446.196, -35210.32, -449.56674, -0.0000879882, -0.0006912894, 13450.35, 13450.35, 0.0, 5.012986, 4.981378 
2.2314966e+2, 1.2246412e+2, -1695848.9, -1737810.3, 59.88297, -0.0030254733, 0.010265922, -1695848.8, 44003.016, 0.0, 5.0187016, 4.9913325 
2.2315766e+2, 1.2744953e+2, -1653742.0, -1702425.4, -1622.373, 0.00781502, -0.014382123, -1653688.0, 37306.707, 0.0, 5.0186243, 4.98691 
2.2316259e+2, 1.3243853e+2, -1606045.8, -1655835.6, -2221.36, -0.0068245986, 0.0131452205, -1605946.8, 36155.81, 0.0, 5.0185876, 4.9860644 
2.2316922e+2, 1.374234e+2, -1558017.1, -1608838.8, -2267.0425, -0.00023835039, -0.0011559908, -1557916.1, 35334.598, 0.0, 5.018599, 4.9854064 
2.2317496e+2, 1.4240733e+2, -1513127.1, -1567954.9, -3058.8796, 0.002277915, -0.002593749, -1512957.0, 31451.158, 0.0, 5.0185328, 4.982725 
2.2317976e+2, 1.473905e+2, -1465408.9, -1520913.6, -3230.6785, 0.00007743268, -0.0008817272, -1465221.5, 30351.611, 0.0, 5.0183873, 4.9821506 
2.2318417e+2, 1.5237175e+2, -1420546.0, -1479812.8, -4191.4727, -0.0007892864, 0.0023155913, -1420251.0, 26505.93, 0.0, 5.018241, 4.9795866 
2.2318819e+2, 1.5735127e+2, -1372754.3, -1432671.5, -4322.735, -0.00003482972, -0.0012023147, -1372444.0, 25513.736, 0.0, 5.018096, 4.979032 
2.231917e+2, 1.6232926e+2, -1327980.1, -1391773.9, -5118.267, 0.0002473859, 0.0010691391, -1327572.1, 21601.371, 0.0, 5.0179334, 4.9763827 
2.231947e+2, 1.6730571e+2, -1280158.0, -1344454.6, -5232.8306, -0.00002497263, -0.0010730509, -1279734.9, 20669.232, 0.0, 5.0177536, 4.9758883 
2.2319734e+2, 1.7228058e+2, -1235439.5, -1303648.8, -5903.7637, -0.00014009283, 0.0013492214, -1234932.4, 16718.16, 0.0, 5.017565, 4.973193 
2.2319962e+2, 1.7725383e+2, -1187566.8, -1256193.9, -5997.591, -0.000044448407, -0.0010985692, -1187046.6, 15865.99, 0.0, 5.017368, 4.972737 
2.2320159e+2, 1.8222553e+2, -1142875.8, -1215470.1, -6528.316, -0.0000032027444, 0.0013248553, -1142293.4, 11896.599, 0.0, 5.017163, 4.969999 
2.2320323e+2, 1.8719558e+2, -1094965.8, -1167907.5, -6604.672, -0.000029870784, -0.0011922782, -1094372.5, 11110.768, 0.0, 5.0169487, 4.9695716 
2.2320469e+2, 1.9216414e+2, -1050299.9, -1127270.0, -6998.695, -0.000033223587, 0.0014271148, -1049668.6, 7122.9243, 0.0, 5.016729, 4.966782 
2.232059e+2, 1.97131e+2, -1002326.9, -1079568.3, -7058.9434, 0.0000035232836, -0.0011890867, -1001687.06, 6429.355, 0.0, 5.016503, 4.9663916 
2.2320698e+2, 2.0209634e+2, -957671.9, -1039014.06, -7314.5103, 0.000030313424, 0.001414519, -957019.4, 2436.5667, 0.0, 5.0162725, 4.963556 
2.2320792e+2, 2.0705998e+2, -909650.1, -991220.9, -7360.0, 0.00005719137, -0.0012283999, -908991.4, 1820.9609, 0.0, 5.016038, 4.9631844 
2.232088e+2, 2.1202211e+2, -864996.6, -950752.0, -7478.8047, 0.00006533382, 0.0014866476, -864349.3, -2165.8862, 0.0, 5.0158014, 4.960292 
2.232096e+2, 2.1698248e+2, -816900.6, -902833.7, -7507.0527, 0.000068244175, -0.0013325802, -816249.75, -2677.9905, 0.0, 5.015563, 4.959949 
2.2321047e+2, 2.2194138e+2, -772244.4, -862465.4, -7492.3213, 0.00007068309, 0.001516287, -771626.44, -6651.8047, 0.0, 5.015325, 4.9569955 
2.2321132e+2, 2.2689848e+2, -724070.56, -814440.44, -7499.017, 0.00009615423, -0.0013073368, -723452.5, -7057.526, 0.0, 5.0150876, 4.956672 
2.2321229e+2, 2.3185405e+2, -679409.5, -774197.3, -7357.354, 0.000107979606, 0.0015473879, -678841.8, -11011.484, 0.0, 5.014853, 4.953647 
2.2321336e+2, 2.3680781e+2, -631127.56, -726019.9, -7337.0757, 0.000110801346, -0.0015919888, -630563.6, -11280.106, 0.0, 5.0146213, 4.953357 
2.2321458e+2, 2.4176008e+2, -586469.9, -685945.0, -7076.2046, 0.0001196291, 0.001764045, -585969.06, -15217.621, 0.0, 5.0143943, 4.950238 
2.2321603e+2, 2.4671043e+2, -538044.8, -637559.0, -7024.103, 0.00012554575, -0.0016297676, -537551.5, -15313.735, 0.0, 5.0141735, 4.95 
2.2321768e+2, 2.5165924e+2, -493486.8, -597898.4, -6647.5776, 0.0001112551, 0.0017396635, -493065.28, -19325.893, 0.0, 5.0139585, 4.9467034 
2.2321966e+2, 2.566062e+2, -444738.75, -548922.94, -6559.1396, 0.00010078607, -0.0016699814, -444327.44, -19068.082, 0.0, 5.013753, 4.9466476 
2.232219e+2, 2.615515e+2, -400394.5, -509968.94, -6075.6055, 0.00011054513, 0.0017249922, -400058.66, -23263.467, 0.0, 5.0135555, 4.9430647 
2.2322457e+2, 2.66495e+2, -351229.75, -460207.5, -5945.644, 0.00011319153, -0.0015971039, -350906.3, -22557.107, 0.0, 5.013371, 4.943261 
2.2322753e+2, 2.7143672e+2, -307167.1, -422151.8, -5360.22, 0.00010310517, 0.0017480401, -306917.75, -26997.533, 0.0, 5.0131955, 4.9393144 
2.2323103e+2, 2.7637658e+2, -257581.67, -371608.34, -5184.6797, 0.00012115162, -0.0018466354, -257346.42, -25837.014, 0.0, 5.0130367, 4.9397607 
2.2323488e+2, 2.8131482e+2, -213462.06, -333716.44, -4511.579, 0.00013153427, 0.0022521685, -213293.03, -30178.129, 0.0, 5.012889, 4.9357104 
2.2323936e+2, 2.862512e+2, -163482.58, -282455.84, -4283.926, 0.000107404245, -0.002628185, -163328.53, -28590.26, 0.0, 5.0127597, 4.936385 
2.2324425e+2, 2.9118523e+2, -121420.336, -249671.3, -3513.685, 0.00008718332, 0.0016552147, -121324.15, -34939.367, 0.0, 5.0126424, 4.930472 
2.232499e+2, 2.9611653e+2, -71466.31, -198711.88, -3236.2605, 0.000097205935, -0.0003150673, -71384.055, -33326.008, 0.0, 5.0125484, 4.9310064 
2.2325595e+2, 3.010548e+2, -30262.795, -135007.31, -2335.7837, 0.000068030036, 0.0024317806, -30210.734, -30210.734, 0.0, 5.012467, 4.945066 
2.2326286e+2, 3.0600056e+2, -29154.729, -132122.6, -1996.8245, 0.000022915594, -0.0053550345, -29116.018, -29116.018, 0.0, 5.012411, 4.946127 
2.2327024e+2, 3.1096396e+2, 9970.695, -40188.242, -917.66815, -0.000010014491, 0.0038637212, 9987.479, 9987.479, 0.0, 5.0123696, 4.979804 
2.2327858e+2, 3.1594503e+2, 11960.454, -35488.195, -500.38345, -0.00006041243, -0.0007391335, 11965.73, 11965.73, 0.0, 5.012363, 4.981542 
2.2816855e+2, 1.2245406e+2, -1696850.0, -1740168.4, 409.666, -0.0009711789, 0.0021981788, -1696846.1, 43104.094, 0.0, 5.01877, 4.990524 
2.2817609e+2, 1.2743975e+2, -1653195.9, -1701389.5, -1652.4534, 0.0059562568, -0.022910846, -1653139.3, 37951.23, 0.0, 5.018641, 4.9872427 
2.2818133e+2, 1.324305e+2, -1606121.1, -1655978.8, -2192.587, -0.005219345, 0.020567192, -1606024.9, 36156.42, 0.0, 5.0185847, 4.9860187 
2.281878e+2, 1.374146e+2, -1558043.3, -1608956.0, -2257.3923, -0.00023267172, -0.0009766319, -1557943.3, 35393.688, 0.0, 5.0186124, 4.985361 
2.2819343e+2, 1.4239816e+2, -1513343.6, -1568508.1, -3171.8796, 0.0017376575, -0.005071466, -1513161.8, 31336.395, 0.0, 5.018555, 4.982531 
2.2819816e+2, 1.4738138e+2, -1465626.6, -1521475.0, -3336.7756, 0.000054023465, -0.00095182983, -1465428.0, 30234.697, 0.0, 5.0184107, 4.981953 
2.2820242e+2, 1.5236254e+2, -1420688.0, -1480213.6, -4290.946, -0.0006328709, 0.0031512263, -1420380.4, 26466.984, 0.0, 5.0182633, 4.9794426 
2.2820628e+2, 1.5734182e+2, -1372900.9, -1433070.0, -4422.5654, -0.000049677234, -0.0011704615, -1372577.6, 25472.621, 0.0, 5.0181155, 4.97889 
2.2820963e+2, 1.6231965e+2, -1328108.9, -1392123.8, -5242.078, 0.00017606742, 0.0007895109, -1327682.4, 21585.209, 0.0, 5.01795, 4.976258 
2.2821246e+2, 1.67296e+2, -1280291.4, -1344805.1, -5356.1245, -0.00003115349, -0.0010875246, -1279849.6, 20649.557, 0.0, 5.017768, 4.975764 
2.282149e+2, 1.7227076e+2, -1235543.8, -1303928.3, -6037.929, -0.00012936011, 0.0014419692, -1235014.8, 16731.813, 0.0, 5.017577, 4.9730935 
2.2821698e+2, 1.7724392e+2, -1187675.4, -1256472.5, -6132.0415, -0.00005764976, -0.0010916644, -1187133.1, 15876.584, 0.0, 5.017378, 4.972638 
2.2821875e+2, 1.8221553e+2, -1142964.6, -1215696.5, -6674.735, -0.000027337996, 0.0012966235, -1142357.1, 11930.812, 0.0, 5.0171704, 4.969919 
2.2822018e+2, 1.8718551e+2, -1095059.6, -1168134.0, -6751.711, -0.000049103455, -0.0011891616, -1094441.0, 11141.101, 0.0, 5.016954, 4.9694924 
2.282214e+2, 1.9215399e+2, -1050374.1, -1127444.1, -7153.983, -0.000047456615, 0.0014470015, -1049715.6, 7175.37, 0.0, 5.0167317, 4.9667215 
2.282224e+2, 1.9712079e+2, -1002406.0, -1079742.0, -7215.0083, -0.0000152523435, -0.0011766017, -1001738.6, 6477.803, 0.0, 5.0165033, 4.9663324 
2.2822325e+2, 2.0208609e+2, -957733.56, -1039139.2, -7476.032, 0.000004572178, 0.0014243086, -957052.7, 2503.8267, 0.0, 5.0162706, 4.9635143 
2.2822395e+2, 2.0704968e+2, -909716.3, -991344.56, -7521.8853, 0.000029970837, -0.0012134014, -909029.0, 1884.2932, 0.0, 5.0160336, 4.9631443 
2.282246e+2, 2.1201178e+2, -865046.3, -950828.44, -7643.604, 0.000040740455, 0.0015041241, -864370.56, -2085.8594, 0.0, 5.015795, 4.960269 
2.2822517e+2, 2.1697214e+2, -816954.56, -902907.9, -7672.0625, 0.000048733382, -0.0013177672, -816275.1, -2601.9014, 0.0, 5.015554, 4.959928 
2.2822578e+2, 2.2193101e+2, -772282.6, -862493.4, -7656.136, 0.00004813647, 0.0015315149, -771637.5, -6561.2515, 0.0, 5.0153136, 4.956991 
2.2822641e+2, 2.268881e+2, -724113.44, -814466.4, -7662.64, 0.00007276379, -0.0012943973, -723468.2, -6971.5864, 0.0, 5.015074, 4.95667 
2.2822714e+2, 2.318437e+2, -679437.3, -774177.6, -7516.8877, 0.00007909526, 0.0015578143, -678844.6, -10912.743, 0.0, 5.0148363, 4.9536614 
2.2822799e+2, 2.3679747e+2, -631160.1, -725997.9, -7496.007, 0.00007947143, -0.0015852423, -630571.3, -11186.403, 0.0, 5.014602, 4.953374 
2.2822897e+2, 2.4174973e+2, -586488.6, -685879.0, -7227.9727, 0.00008826248, 0.0017682383, -585965.75, -15113.152, 0.0, 5.0143723, 4.950271 
2.2823021e+2, 2.4670015e+2, -538068.3, -637489.94, -7174.654, 0.00009259518, -0.0016284541, -537553.25, -15214.653, 0.0, 5.0141487, 4.950035 
2.2823164e+2, 2.51649e+2, -493498.3, -597788.25, -6787.7515, 0.00008012569, 0.0017384413, -493058.38, -19218.566, 0.0, 5.0139313, 4.9467545 
2.2823341e+2, 2.56596e+2, -444755.1, -548809.1, -6697.26, 0.000074680494, -0.0016736478, -444325.8, -18966.574, 0.0, 5.013723, 4.9467015 
2.2823545e+2, 2.615414e+2, -400400.5, -509816.34, -6200.2173, 0.000085464846, 0.0017203835, -400050.28, -23155.787, 0.0, 5.0135226, 4.943133 
2.2823793e+2, 2.6648492e+2, -351240.88, -460050.63, -6067.333, 0.00008890704, -0.0016042937, -350903.6, -22455.78, 0.0, 5.013335, 4.9433327 
2.2824073e+2, 2.7142674e+2, -307170.72, -421961.22, -5465.838, 0.000084289626, 0.0017381359, -306911.06, -26892.97, 0.0, 5.0131564, 4.9393992 
2.2824407e+2, 2.763667e+2, -257591.03, -371413.63, -5285.938, 0.00010866234, -0.0018541646, -257346.08, -25739.67, 0.0, 5.0129943, 4.9398484 
2.2824778e+2, 2.81305e+2, -213461.55, -333480.9, -4594.6, 0.00012352066, 0.0022439775, -213285.92, -30074.94, 0.0, 5.0128427, 4.935814 
2.2825213e+2, 2.862415e+2, -163487.13, -282212.88, -4361.697, 0.00010245753, -0.0026425715, -163327.1, -28493.807, 0.0, 5.01271, 4.9364934 
2.2825688e+2, 2.9117563e+2, -121433.3, -249427.89, -3570.4133, 0.00007788633, 0.0016371562, -121333.78, -34855.05, 0.0, 5.012589, 4.9305816 
2.2826244e+2, 2.9610705e+2, -71490.52, -198473.61, -3285.6982, 0.000075314936, -0.00032901572, -71405.56, -33254.64, 0.0, 5.012491, 4.931116 
2.282684e+2, 3.0104545e+2, -30278.367, -134728.39, -2363.831, 0.000045824578, 0.002419102, -30224.898, -30224.898, 0.0, 5.0124054, 4.945193 
2.2827527e+2, 3.0599132e+2, -29174.51, -131832.08, -2015.859, 0.000016475698, -0.005370775, -29134.94, -29134.94, 0.0, 5.012346, 4.9462605 
2.2828259e+2, 3.1095487e+2, 9966.181, -39841.867, -910.1634, -0.000004832384, 0.0038336434, 9982.807, 9982.807, 0.0, 5.0123, 4.979962 
2.2829095e+2, 3.1593612e+2, 11952.988, -35123.17, -480.1702, -0.000035429264, -0.00079214823, 11957.886, 11957.886, 0.0, 5.012288, 4.9817085 
2.3318766e+2, 1.2244593e+2, -1695307.0, -1740959.1, 552.1366, -0.0020223742, 0.0114202155, -1695300.3, 44729.684, 0.0, 5.019617, 4.989847 
2.3319463e+2, 1.2743135e+2, -1651292.0, -1699802.1, -1780.1173, 0.002657925, -0.019314587, -1651226.8, 39946.266, 0.0, 5.0191355, 4.9875236 
2.3320037e+2, 1.3242146e+2, -1605299.3, -1655938.9, -2108.4531, -0.0023510158, 0.017390253, -1605211.6, 37058.188, 0.0, 5.018937, 4.9858594 
2.3320664e+2, 1.3740574e+2, -1556982.9, -1608804.4, -2296.5828, -0.00018535444, -0.0009800334, -1556881.3, 36542.652, 0.0, 5.0190463, 4.9852004 
2.3321213e+2, 1.4238924e+2, -1512157.5, -1568261.0, -3419.555, 0.00078224106, -0.0040050372, -1511949.9, 32635.768, 0.0, 5.0190244, 4.9823856 
2.3321679e+2, 1.4737219e+2, -1464489.9, -1521255.1, -3535.9563, 0.000020958034, -0.00093853835, -1464270.5, 31482.043, 0.0, 5.0188646, 4.9818068 
2.3322095e+2, 1.5235318e+2, -1419626.3, -1480023.8, -4473.4785, -0.00033028034, 0.0028001813, -1419296.6, 27642.318, 0.0, 5.0186906, 4.9793 
2.332246e+2, 1.5733236e+2, -1371953.6, -1432936.1, -4608.184, -0.000052509065, -0.0011761152, -1371607.4, 26535.566, 0.0, 5.018505, 4.9787474 
2.3322776e+2, 1.6231006e+2, -1327236.1, -1391972.9, -5449.3154, 0.00006388095, 0.0009077585, -1326780.6, 22580.807, 0.0, 5.0183034, 4.976139 
2.332304e+2, 1.672863e+2, -1279520.5, -1344702.0, -5559.092, -0.00003454169, -0.0010812236, -1279049.8, 21544.645, 0.0, 5.018087, 4.9756465 
2.3323263e+2, 1.7226094e+2, -1234853.1, -1303826.9, -6251.4185, -0.000093807656, 0.0014073808, -1234291.0, 17551.775, 0.0, 5.0178614, 4.9729924 
2.3323448e+2, 1.77234e+2, -1187087.5, -1256418.1, -6348.9873, -0.000059542526, -0.0010880338, -1186510.9, 16596.064, 0.0, 5.017627, 4.972539 
2.3323603e+2, 1.8220553e+2, -1142454.8, -1215637.8, -6906.1934, -0.000044636807, 0.0013147249, -1141808.8, 12577.304, 0.0, 5.017384, 4.9698386 
2.3323722e+2, 1.8717542e+2, -1094650.8, -1168121.0, -6986.0645, -0.000053898395, -0.001182478, -1093992.4, 11688.636, 0.0, 5.0171328, 4.9694133 
2.3323822e+2, 1.9214383e+2, -1050041.6, -1127426.8, -7398.7153, -0.00004763339, 0.0014488384, -1049340.5, 7650.052, 0.0, 5.0168757, 4.9666605 
2.3323895e+2, 1.9711056e+2, -1002173.5, -1079770.5, -7462.6743, -0.000024616867, -0.0011712275, -1001462.4, 6854.249, 0.0, 5.0166125, 4.966272 
2.3323956e+2, 2.0207582e+2, -957576.44, -1039162.56, -7731.897, -0.000010721279, 0.0014326075, -956850.2, 2806.9849, 0.0, 5.0163455, 4.963472 
2.3324001e+2, 2.0703937e+2, -909657.2, -991410.4, -7780.1294, 0.000013805663, -0.0012061486, -908923.3, 2090.9849, 0.0, 5.0160737, 4.9631033 
2.332404e+2, 2.1200143e+2, -865064.1, -950890.6, -7905.99, 0.000022826136, 0.0015122119, -864341.94, -1955.894, 0.0, 5.0158, 4.9602456 
2.3324071e+2, 2.1696176e+2, -817067.94, -903010.44, -7935.7617, 0.00003352852, -0.0013099075, -816341.3, -2566.5159, 0.0, 5.0155244, 4.959906 
2.3324105e+2, 2.2192062e+2, -772471.2, -862591.25, -7919.929, 0.000030230854, 0.0015398958, -771780.5, -6602.525, 0.0, 5.0152497, 4.956987 
2.3324142e+2, 2.2687773e+2, -724396.94, -814603.6, -7926.8003, 0.000052533018, -0.0012876125, -723705.7, -7107.308, 0.0, 5.014975, 4.9566674 
2.332419e+2, 2.3183331e+2, -679795.4, -774309.4, -7777.34, 0.000052861884, 0.0015638609, -679159.7, -11126.107, 0.0, 5.0147033, 4.9536767 
2.332425e+2, 2.3678711e+2, -631611.3, -726167.2, -7755.726, 0.00004812773, -0.0015814067, -630979.4, -11492.96, 0.0, 5.0144353, 4.953391 
2.3324324e+2, 2.417394e+2, -587012.5, -686042.56, -7480.1143, 0.0000545949, 0.0017696294, -586450.7, -15496.791, 0.0, 5.0141716, 4.950305 
2.3324421e+2, 2.4668986e+2, -538682.06, -637688.4, -7424.994, 0.00005997358, -0.0016276963, -538128.3, -15688.836, 0.0, 5.013914, 4.9500713 
2.3324542e+2, 2.5163874e+2, -494184.2, -597982.0, -7026.8647, 0.000049718867, 0.0017393809, -493710.63, -19770.328, 0.0, 5.013663, 4.9468064 
2.3324698e+2, 2.5658578e+2, -445527.38, -549034.6, -6932.9087, 0.000046917357, -0.0016758959, -445065.1, -19605.87, 0.0, 5.013422, 4.9467564 
2.332488e+2, 2.6153126e+2, -401242.75, -510037.22, -6420.712, 0.000058908117, 0.0017171634, -400865.16, -23871.291, 0.0, 5.013189, 4.9432034 
2.3325107e+2, 2.6647484e+2, -352166.22, -460300.66, -6282.935, 0.000064875676, -0.0016071829, -351802.4, -23255.928, 0.0, 5.0129695, 4.943406 
2.3325366e+2, 2.7141675e+2, -308164.84, -422209.3, -5662.9546, 0.00006668449, 0.0017333115, -307884.34, -27768.379, 0.0, 5.012759, 4.9394865 
2.3325683e+2, 2.7635682e+2, -258664.19, -371688.06, -5476.0884, 0.00009351056, -0.0018559634, -258399.5, -26696.092, 0.0, 5.012566, 4.939939 
2.3326036e+2, 2.812952e+2, -214597.73, -333744.63, -4763.6475, 0.00011007469, 0.002244075, -214407.58, -31100.555, 0.0, 5.0123835, 4.9359207 
2.3326457e+2, 2.8623182e+2, -164697.58, -282497.28, -4522.3135, 0.00009475288, -0.0026444888, -164524.22, -29595.96, 0.0, 5.0122204, 4.9366045 
2.3326918e+2, 2.9116604e+2, -122721.516, -249739.64, -3706.6748, 0.00006895028, 0.001632174, -122613.44, -36040.832, 0.0, 5.012069, 4.930695 
2.3327462e+2, 2.960976e+2, -72854.586, -198815.95, -3411.0967, 0.000053602464, -0.0003330141, -72762.27, -34518.6, 0.0, 5.0119424, 4.93123 
2.3328048e+2, 3.010361e+2, -31692.563, -135050.83, -2462.9106, 0.000024827395, 0.002413678, -31633.908, -31633.908, 0.0, 5.0118275, 4.945324 
2.3328727e+2, 3.059821e+2, -30655.428, -132169.89, -2101.9143, 0.000016466618, -0.0053768363, -30611.926, -30611.926, 0.0, 5.0117407, 4.9463973 
2.3329455e+2, 3.109458e+2, 8455.462, -40134.266, -963.83325, 0.000019122775, 0.0038158526, 8474.573, 8474.573, 0.0, 5.011668, 4.980124 
2.3330286e+2, 3.159272e+2, 10387.308, -35418.793, -516.71173, 0.000022929846, -0.0008324657, 10393.136, 10393.136, 0.0, 5.0116315, 4.98188 
2.3820761e+2, 1.2243597e+2, -1696151.8, -1742740.3, 400.5597, 0.0013552154, 0.0013175226, -1696148.3, 43979.305, 0.0, 5.01963, 4.9892554 
2.3821336e+2, 1.2742375e+2, -1650779.4, -1698999.8, -2084.3125, -0.00155031, -0.008216593, -1650689.4, 40558.094, 0.0, 5.0191875, 4.9877625 
2.3821968e+2, 1.3241181e+2, -1605461.4, -1656545.6, -2018.578, 0.0012836994, 0.0077961762, -1605381.8, 36982.754, 0.0, 5.018996, 4.9856305 
2.382257e+2, 1.3739677e+2, -1557230.6, -1609462.1, -2206.9136, -0.0001091618, -0.0011351276, -1557137.6, 36374.098, 0.0, 5.019078, 4.984967 
2.3823103e+2, 1.4238045e+2, -1512275.6, -1568592.5, -3528.7622, -0.00042490204, -0.0008160661, -1512055.4, 32616.39, 0.0, 5.019043, 4.982267 
2.3823565e+2, 1.4736298e+2, -1464600.9, -1521579.6, -3647.43, -0.00002352935, -0.0008683816, -1464368.4, 31474.602, 0.0, 5.0188847, 4.9816895 
2.3823968e+2, 1.5234372e+2, -1419774.5, -1480425.3, -4600.041, 0.000056190038, 0.0017379659, -1419427.6, 27604.13, 0.0, 5.01871, 4.979157 
2.382431e+2, 1.5732285e+2, -1372108.4, -1433341.6, -4733.96, -0.000049115162, -0.0012133784, -1371744.6, 26491.502, 0.0, 5.0185223, 4.978604 
2.3824605e+2, 1.6230047e+2, -1327356.1, -1392298.5, -5595.444, -0.000075714364, 0.0012575819, -1326877.5, 22578.02, 0.0, 5.018319, 4.976023 
2.3824847e+2, 1.6727655e+2, -1279641.1, -1345024.8, -5705.231, -0.000038731396, -0.0010659306, -1279147.1, 21542.813, 0.0, 5.018101, 4.9755316 
2.3825051e+2, 1.7225109e+2, -1234960.0, -1304113.9, -6409.392, -0.00004565094, 0.0012928332, -1234371.0, 17568.566, 0.0, 5.017874, 4.9728904 
2.3825212e+2, 1.7722404e+2, -1187197.8, -1256703.3, -6507.184, -0.000056938068, -0.0010916346, -1186593.9, 16610.672, 0.0, 5.0176373, 4.9724383 
2.382534e+2, 1.8219548e+2, -1142545.3, -1215871.3, -7076.045, -0.000060630024, 0.0013554712, -1141868.6, 12615.805, 0.0, 5.0173926, 4.9697556 
2.3825437e+2, 1.871653e+2, -1094744.4, -1168351.0, -7156.2827, -0.00005233246, -0.0011783259, -1094055.0, 11725.211, 0.0, 5.017139, 4.9693327 
2.382551e+2, 1.9213362e+2, -1050117.4, -1127607.8, -7577.208, -0.00004313388, 0.0014341846, -1049383.4, 7707.2637, 0.0, 5.0168796, 4.9665976 
2.3825558e+2, 1.971003e+2, -1002255.0, -1079952.3, -7641.671, -0.000033071818, -0.0011756532, -1001510.56, 6906.6426, 0.0, 5.016614, 4.96621 
2.382559e+2, 2.020655e+2, -957639.8, -1039293.7, -7916.615, -0.00002397878, 0.0014352432, -956879.4, 2878.911, 0.0, 5.016344, 4.963428 
2.3825607e+2, 2.07029e+2, -909725.0, -991539.1, -7965.411, -0.00000028570227, -0.0012092089, -908956.7, 2159.1565, 0.0, 5.01607, 4.9630613 
2.382562e+2, 2.1199104e+2, -865115.44, -950971.2, -8093.747, 0.0000026306725, 0.0015088925, -864359.1, -1871.1833, 0.0, 5.0157933, 4.9602213 
2.3825625e+2, 2.1695136e+2, -817124.06, -903088.8, -8123.506, 0.000014513076, -0.0013117733, -816363.1, -2486.261, 0.0, 5.0155153, 4.9598837 
2.3825632e+2, 2.2191021e+2, -772511.3, -862621.7, -8106.859, 0.000009286934, 0.0015380976, -771787.8, -6507.6304, 0.0, 5.015238, 4.956982 
2.3825641e+2, 2.2686729e+2, -724442.2, -814631.94, -8113.366, 0.00002764959, -0.0012909024, -723718.1, -7017.4956, 0.0, 5.014961, 4.9566646 
2.382566e+2, 2.318229e+2, -679825.2, -774290.06, -7959.6904, 0.0000218493, 0.001561055, -679159.2, -11023.412, 0.0, 5.014686, 4.9536915 
2.3825693e+2, 2.3677671e+2, -631646.25, -726145.3, -7937.2993, 0.0000108653385, -0.001585563, -630984.2, -11395.731, 0.0, 5.014415, 4.953408 
2.3825742e+2, 2.4172902e+2, -587033.4, -685975.1, -7654.037, 0.000013400275, 0.0017623252, -586444.75, -15389.074, 0.0, 5.014148, 4.9503393 
2.3825814e+2, 2.466795e+2, -538708.1, -637617.8, -7597.6816, 0.000021531523, -0.0016345598, -538127.94, -15586.989, 0.0, 5.0138884, 4.950108 
2.3825909e+2, 2.5162846e+2, -494197.84, -597868.4, -7188.8813, 0.000013257624, 0.00173457, -493701.72, -19660.42, 0.0, 5.013634, 4.9468594 
2.3826039e+2, 2.5657555e+2, -445546.2, -548916.9, -7092.615, 0.000011306644, -0.0016847416, -445061.8, -19502.152, 0.0, 5.01339, 4.946812 
2.3826198e+2, 2.6152107e+2, -401250.78, -509878.5, -6566.5728, 0.000024539493, 0.0017070426, -400855.25, -23761.572, 0.0, 5.013154, 4.943275 
2.3826404e+2, 2.6646474e+2, -352179.9, -460137.72, -6425.757, 0.0000331779, -0.0016149904, -351798.8, -23153.229, 0.0, 5.012931, 4.943481 
2.3826642e+2, 2.714067e+2, -308170.63, -422010.44, -5789.0786, 0.000041472118, 0.0017237779, -307877.0, -27662.705, 0.0, 5.0127172, 4.939575 
2.3826939e+2, 2.7634686e+2, -258676.08, -371484.75, -5597.8345, 0.00006813424, -0.0018620571, -258398.98, -26598.158, 0.0, 5.0125203, 4.940031 
2.3827274e+2, 2.8128538e+2, -214599.69, -333499.13, -4866.791, 0.00008395353, 0.0022416683, -214400.81, -30997.334, 0.0, 5.0123343, 4.9360294 
2.3827678e+2, 2.8622207e+2, -164704.94, -282244.06, -4620.0337, 0.0000753429, -0.0026465503, -164523.61, -29500.008, 0.0, 5.0121675, 4.9367175 
2.3828125e+2, 2.9115644e+2, -122736.805, -249483.64, -3783.0322, 0.000050022223, 0.0016273182, -122623.99, -35957.16, 0.0, 5.0120125, 4.930811 
2.3828655e+2, 2.9608807e+2, -72881.46, -198564.78, -3480.0483, 0.000021541748, -0.00033846556, -72785.18, -34448.41, 0.0, 5.0118814, 4.931346 
2.382923e+2, 3.0102673e+2, -31711.05, -134758.53, -2509.433, -0.0000070370843, 0.0024058938, -31649.977, -31649.977, 0.0, 5.0117626, 4.9454575 
2.3829901e+2, 3.0597287e+2, -30678.46, -131865.89, -2139.044, 0.0000068720387, -0.005384225, -30633.264, -30633.264, 0.0, 5.011671, 4.946537 
2.383062e+2, 3.1093672e+2, 8447.93, -39773.06, -973.2742, 0.000038827162, 0.0037984536, 8467.566, 8467.566, 0.0, 5.0115943, 4.980289 
2.3831448e+2, 3.159183e+2, 10376.511, -35038.35, -513.0338, 0.000076120254, -0.00086843484, 10382.306, 10382.306, 0.0, 5.0115523, 4.982054 
2.4322754e+2, 1.2242737e+2, -1694851.6, -1742441.9, 792.1053, 0.0018499909, -0.0027131403, -1694838.4, 45373.477, 0.0, 5.0201364, 4.9891047 
2.4323249e+2, 1.2741666e+2, -1648933.9, -1698579.1, -2029.4056, -0.0059583047, 0.0049147923, -1648851.1, 42465.973, 0.0, 5.019907, 4.987549 
2.4323946e+2, 1.32402e+2, -1603647.0, -1656291.1, -2016.1571, 0.005106033, -0.0035409392, -1603569.9, 38890.51, 0.0, 5.019738, 4.9853525 
2.4324508e+2, 1.3738781e+2, -1555958.9, -1609473.8, -2248.9805, -0.00001319213, -0.0013625148, -1555864.5, 37734.984, 0.0, 5.0196395, 4.98469 
2.4325018e+2, 1.4237168e+2, -1511053.5, -1568234.1, -3694.5676, -0.0016932704, 0.0029563762, -1510815.9, 33941.715, 0.0, 5.019504, 4.982162 
2.4325477e+2, 1.4735375e+2, -1463416.3, -1521233.9, -3803.9055, -0.00007099368, -0.00076469936, -1463167.0, 32766.254, 0.0, 5.0193324, 4.981588 
2.4325866e+2, 1.5233424e+2, -1418710.4, -1480217.4, -4776.1416, 0.00046822755, 0.0004869822, -1418341.6, 28782.902, 0.0, 5.019135, 4.9790215 
2.4326183e+2, 1.5731338e+2, -1371151.0, -1433188.4, -4906.049, -0.000041371826, -0.0012572721, -1370765.5, 27563.578, 0.0, 5.018912, 4.9784684 
2.4326454e+2, 1.6229092e+2, -1326463.6, -1392126.4, -5782.2236, -0.00021871213, 0.0016737578, -1325958.4, 23590.898, 0.0, 5.0186763, 4.9759097 
2.4326676e+2, 1.6726685e+2, -1278836.1, -1344894.5, -5891.9478, -0.00003803285, -0.00104512, -1278314.6, 22470.445, 0.0, 5.0184298, 4.9754186 
2.4326853e+2, 1.7224124e+2, -1234234.0, -1303998.3, -6611.782, 0.000012965774, 0.0011561038, -1233613.0, 18423.018, 0.0, 5.0181704, 4.9727883 
2.4326989e+2, 1.7721412e+2, -1186574.0, -1256636.3, -6712.3745, -0.00004264864, -0.0010993059, -1185936.8, 17365.1, 0.0, 5.0178995, 4.972337 
2.4327092e+2, 1.8218546e+2, -1142000.1, -1215802.0, -7295.7817, -0.00006445608, 0.0014009472, -1141285.9, 13296.804, 0.0, 5.017619, 4.9696727 
2.432716e+2, 1.871552e+2, -1094301.3, -1168327.0, -7378.7896, -0.00004056507, -0.0011767946, -1093572.9, 12306.335, 0.0, 5.01733, 4.969251 
2.4327207e+2, 1.9212344e+2, -1049753.9, -1127582.5, -7811.552, -0.000026423277, 0.0014172262, -1048977.6, 8212.709, 0.0, 5.0170355, 4.9665337 
2.4327224e+2, 1.9709006e+2, -1001995.8, -1079974.0, -7879.2466, -0.000025981757, -0.0011779747, -1001207.6, 7309.922, 0.0, 5.016733, 4.966147 
2.4327229e+2, 2.020552e+2, -957461.56, -1039312.0, -8161.643, -0.00002462266, 0.001441634, -956655.7, 3203.441, 0.0, 5.016427, 4.9633837 
2.4327217e+2, 2.0701867e+2, -909649.75, -991602.1, -8212.723, -0.0000045182237, -0.0012074059, -908834.8, 2382.316, 0.0, 5.016116, 4.9630184 
2.4327199e+2, 2.1198067e+2, -865121.2, -951030.94, -8345.399, -0.0000062934414, 0.0015107426, -864318.0, -1728.459, 0.0, 5.0158033, 4.9601965 
2.4327174e+2, 2.1694097e+2, -817231.5, -903191.7, -8376.375, 0.000007697588, -0.0013068127, -816422.9, -2444.1357, 0.0, 5.0154886, 4.9598613 
2.4327151e+2, 2.218998e+2, -772699.2, -862720.5, -8360.055, 0.00000035207734, 0.0015442595, -771929.44, -6547.266, 0.0, 5.0151744, 4.956978 
2.4327132e+2, 2.2685689e+2, -724731.06, -814772.75, -8366.601, 0.0000130353465, -0.0012840892, -723960.25, -7157.614, 0.0, 5.0148606, 4.9566617 
2.4327122e+2, 2.3181249e+2, -680193.56, -774425.9, -8208.9375, 0.0000017216431, 0.0015685352, -679483.8, -11246.066, 0.0, 5.0145493, 4.9537067 
2.4327125e+2, 2.3676631e+2, -632113.25, -726320.94, -8185.6104, -0.0000143738, -0.0015786976, -631407.25, -11717.038, 0.0, 5.014242, 4.9534254 
2.4327144e+2, 2.4171866e+2, -587578.3, -686145.6, -7894.206, -0.000017073351, 0.0017685385, -586950.06, -15792.86, 0.0, 5.0139394, 4.9503746 
2.432719e+2, 2.4666917e+2, -539348.7, -637825.44, -7835.845, -0.000008511878, -0.0016281058, -538729.1, -16086.995, 0.0, 5.0136433, 4.9501457 
2.4327257e+2, 2.5161818e+2, -494914.75, -598071.1, -7414.9995, -0.0000139199965, 0.0017403692, -494384.5, -20242.455, 0.0, 5.013354, 4.946914 
2.432736e+2, 2.5656533e+2, -446355.22, -549153.75, -7315.027, -0.000013552451, -0.001679903, -445837.28, -20177.453, 0.0, 5.013075, 4.94687 
2.4327493e+2, 2.615109e+2, -402134.3, -510111.0, -6773.4355, 0.0000007861509, 0.0017108364, -401711.06, -24517.838, 0.0, 5.012804, 4.9433484 
2.4327675e+2, 2.6645464e+2, -353151.84, -460401.2, -6627.483, 0.00000936567, -0.0016114411, -352743.84, -23999.496, 0.0, 5.0125465, 4.9435577 
2.432789e+2, 2.713967e+2, -309215.97, -422272.22, -5971.4463, 0.000022174965, 0.0017263239, -308901.44, -28589.174, 0.0, 5.0122995, 4.9396667 
2.4328166e+2, 2.7633694e+2, -259805.5, -371774.5, -5773.1387, 0.000047507343, -0.001855277, -259508.63, -27610.744, 0.0, 5.0120697, 4.9401255 
2.432848e+2, 2.8127557e+2, -215796.45, -333778.56, -5020.3325, 0.000061274484, 0.0022522986, -215583.22, -32083.678, 0.0, 5.011851, 4.936141 
2.4328867e+2, 2.862124e+2, -165980.34, -282545.53, -4764.8647, 0.00005634847, -0.002636169, -165785.89, -30667.355, 0.0, 5.011652, 4.9368343 
2.4329296e+2, 2.9114687e+2, -124093.7, -249812.53, -3902.9128, 0.000032785643, 0.0016347977, -123972.66, -37212.047, 0.0, 5.011465, 4.9309306 
2.4329813e+2, 2.9607865e+2, -74318.08, -198925.55, -3589.1362, -0.0000016299596, -0.00032757976, -74214.78, -35785.414, 0.0, 5.011303, 4.931466 
2.4330373e+2, 3.010174e+2, -33200.21, -135098.77, -2591.3418, -0.000026006388, 0.0024139585, -33134.35, -33134.35, 0.0, 5.0111547, 4.9455953 
2.4331033e+2, 3.059637e+2, -32237.61, -132222.19, -2207.317, 0.0000067020706, -0.0053851563, -32188.904, -32188.904, 0.0, 5.0110345, 4.9466815 
2.4331743e+2, 3.1092766e+2, 6857.014, -40084.633, -1008.7975, 0.00007137829, 0.0037850512, 6878.684, 6878.684, 0.0, 5.01093, 4.980458 
2.4332565e+2, 3.1590945e+2, 8728.5, -35353.504, -531.65094, 0.00014616102, -0.000871794, 8734.911, 8734.911, 0.0, 5.010863, 4.982233 
2.482478e+2, 1.2241961e+2, -1694539.0, -1741616.3, 339.4258, 0.0032055655, -0.0025439637, -1694536.5, 45751.45, 0.0, 5.0200953, 4.9893966 
2.4825194e+2, 1.2740982e+2, -1649485.1, -1699966.8, -2181.6084, -0.0104739815, 0.019089319, -1649391.0, 41993.016, 0.0, 5.019963, 4.9870644 
2.4825959e+2, 1.3239214e+2, -1603843.6, -1657099.9, -2087.2664, 0.009006515, -0.01571307, -1603762.0, 38795.156, 0.0, 5.0198245, 4.9850435 
2.4826473e+2, 1.3737884e+2, -1556270.1, -1610324.8, -2299.2432, 0.00009730706, -0.0016492604, -1556172.5, 37514.94, 0.0, 5.019684, 4.984387 
2.4826956e+2, 1.4236295e+2, -1511134.1, -1568504.1, -3788.6282, -0.0029893243, 0.0069998163, -1510885.0, 33958.31, 0.0, 5.019526, 4.982062 
2.4827409e+2, 1.4734451e+2, -1463493.4, -1521490.9, -3907.5874, -0.00012496489, -0.00063855445, -1463231.4, 32792.51, 0.0, 5.019353, 4.9814925 
2.4827781e+2, 1.5232474e+2, -1418845.0, -1480588.3, -4919.6064, 0.00088894553, -0.0008534872, -1418455.4, 28762.238, 0.0, 5.019154, 4.978889 
2.4828075e+2, 1.5730387e+2, -1371289.9, -1433562.5, -5049.8384, -0.000032955588, -0.001311192, -1370883.0, 27539.193, 0.0, 5.0189295, 4.978335 
2.482832e+2, 1.6228132e+2, -1326576.6, -1392441.8, -5942.2363, -0.00036506302, 0.002116436, -1326044.9, 23598.293, 0.0, 5.018693, 4.9757967 
2.4828519e+2, 1.6725712e+2, -1278950.9, -1345209.4, -6053.6606, -0.000036732188, -0.0010249397, -1278402.4, 22478.148, 0.0, 5.018445, 4.975306 
2.4828672e+2, 1.7223139e+2, -1234339.0, -1304286.1, -6791.1787, 0.00007429069, 0.0010051939, -1233685.8, 18446.834, 0.0, 5.018184, 4.9726853 
2.482878e+2, 1.7720416e+2, -1186683.8, -1256925.6, -6892.3843, -0.000023545623, -0.0011139782, -1186013.8, 17385.506, 0.0, 5.017911, 4.9722342 
2.4828854e+2, 1.8217541e+2, -1142090.4, -1216040.8, -7488.4126, -0.00006380399, 0.0014439751, -1141339.8, 13341.234, 0.0, 5.017629, 4.969588 
2.4828894e+2, 1.8714507e+2, -1094395.5, -1168563.8, -7571.8003, -0.00002623512, -0.0011817598, -1093630.4, 12348.016, 0.0, 5.0173373, 4.9691677 
2.482891e+2, 1.9211325e+2, -1049831.3, -1127771.8, -8013.9375, -0.000006203307, 0.001395072, -1049015.8, 8274.522, 0.0, 5.0170403, 4.9664674 
2.4828899e+2, 1.9707981e+2, -1002077.6, -1080160.6, -8082.3755, -0.000013368802, -0.0011839789, -1001249.8, 7368.2866, 0.0, 5.0167356, 4.9660826 
2.4828872e+2, 2.0204489e+2, -957525.75, -1039447.94, -8370.654, -0.000023346078, 0.0014441081, -956679.2, 3281.0503, 0.0, 5.0164266, 4.963338 
2.482883e+2, 2.0700832e+2, -909719.25, -991736.6, -8422.238, -0.000008746382, -0.0012083588, -908863.3, 2455.3494, 0.0, 5.016113, 4.9629745 
2.482878e+2, 2.1197027e+2, -865173.7, -951115.1, -8557.515, -0.000013938954, 0.001509938, -864329.9, -1638.4481, 0.0, 5.015797, 4.960171 
2.4828723e+2, 2.1693054e+2, -817289.4, -903273.75, -8588.291, 0.0000019055379, -0.0013038953, -816439.94, -2359.0984, 0.0, 5.0154796, 4.9598374 
2.4828668e+2, 2.2188936e+2, -772740.6, -862752.44, -8571.435, -0.000008276559, 0.0015487435, -771931.7, -6447.2476, 0.0, 5.015162, 4.9569726 
2.4828617e+2, 2.2684646e+2, -724777.9, -814802.44, -8577.395, -0.000002267157, -0.0012774407, -723967.94, -7063.036, 0.0, 5.0148454, 4.956659 
2.4828577e+2, 2.3180206e+2, -680224.7, -774406.3, -8415.385, -0.000018178021, 0.0015752733, -679478.7, -11138.702, 0.0, 5.014531, 4.953722 
2.4828547e+2, 2.367559e+2, -632150.0, -726298.8, -8391.115, -0.00003860687, -0.0015727424, -631407.94, -11615.666, 0.0, 5.0142207, 4.953443 
2.4828538e+2, 2.4170826e+2, -587600.5, -686075.6, -8091.7593, -0.000047718368, 0.0017758338, -586940.06, -15681.016, 0.0, 5.013915, 4.95041 
2.4828553e+2, 2.4665883e+2, -539376.56, -637752.25, -8032.045, -0.000040267583, -0.0016207526, -538725.1, -15981.575, 0.0, 5.013616, 4.950184 
2.4828592e+2, 2.5160787e+2, -494929.6, -597952.2, -7600.101, -0.000042153417, 0.0017442065, -494371.94, -20128.918, 0.0, 5.0133233, 4.9469695 
2.4828668e+2, 2.5655508e+2, -446376.03, -549031.25, -7497.755, -0.000039239112, -0.0016747115, -445831.28, -20071.043, 0.0, 5.013041, 4.946928 
2.4828774e+2, 2.6150075e+2, -402144.1, -509945.88, -6941.928, -0.000024608162, 0.0017149306, -401698.9, -24405.908, 0.0, 5.012767, 4.9434233 
2.4828929e+2, 2.6644456e+2, -353167.44, -460231.1, -6792.899, -0.000018212488, -0.00160957, -352738.2, -23894.809, 0.0, 5.012506, 4.943636 
2.482912e+2, 2.7138668e+2, -309223.47, -422064.6, -6119.487, -0.0000025716167, 0.0017282048, -308892.6, -28482.135, 0.0, 5.012255, 4.9397597 
2.4829373e+2, 2.76327e+2, -259819.61, -371562.03, -5916.7886, 0.000019991381, -0.0018489137, -259507.19, -27512.07, 0.0, 5.0120215, 4.9402223 
2.4829665e+2, 2.8126574e+2, -215800.58, -333522.34, -5144.881, 0.000030168481, 0.0022625944, -215576.14, -31980.385, 0.0, 5.011799, 4.936255 
2.4830031e+2, 2.862027e+2, -165990.19, -282281.38, -4883.813, 0.000026455087, -0.002626109, -165785.45, -30571.85, 0.0, 5.0115957, 4.9369526 
2.4830441e+2, 2.911373e+2, -124111.414, -249544.36, -4000.0005, 0.0000052511373, 0.0016420861, -123983.984, -37129.48, 0.0, 5.011405, 4.931052 
2.4830942e+2, 2.9606918e+2, -74347.87, -198662.23, -3678.6047, -0.000031200976, -0.00031480868, -74239.1, -35717.04, 0.0, 5.0112386, 4.931588 
2.4831489e+2, 3.0100808e+2, -33221.184, -134792.25, -2656.9116, -0.000050697705, 0.0024240424, -33151.73, -33151.73, 0.0, 5.0110855, 4.945736 
2.4832135e+2, 3.059545e+2, -32263.066, -131903.0, -2263.1982, -0.0000031254676, -0.0053886464, -32211.688, -32211.688, 0.0, 5.010961, 4.9468284 
2.4832834e+2, 3.1091863e+2, 6845.9756, -39709.996, -1035.6527, 0.00009429703, 0.0037677856, 6869.0024, 6869.0024, 0.0, 5.010852, 4.9806294 
2.4833652e+2, 3.159006e+2, 8713.714, -34959.254, -545.10944, 0.00019826948, -0.00085936015, 8720.517, 8720.517, 0.0, 5.010779, 4.9824142 
2.5326818e+2, 1.2241113e+2, -1693282.5, -1740126.9, 226.27917, 0.00518106, -0.011677645, -1693281.5, 47089.64, 0.0, 5.020326, 4.989773 
2.532721e+2, 1.2740183e+2, -1648163.5, -1700771.3, -2005.9232, -0.012775249, 0.021166617, -1648087.1, 43375.098, 0.0, 5.0207157, 4.9864306 
2.532801e+2, 1.3238335e+2, -1601471.3, -1656448.3, -2294.0896, 0.010985502, -0.017422635, -1601375.6, 41267.703, 0.0, 5.020727, 4.984818 
2.5328475e+2, 1.3736999e+2, -1554650.3, -1610021.0, -2422.6682, 0.00016882802, -0.0016858535, -1554544.4, 39229.773, 0.0, 5.0203314, 4.984173 
2.5328928e+2, 1.4235397e+2, -1509847.3, -1568187.8, -3811.7441, -0.0036429132, 0.0075517152, -1509599.3, 35331.934, 0.0, 5.020025, 4.981925 
2.532937e+2, 1.4733538e+2, -1462298.4, -1521216.5, -3974.0422, -0.00016114698, -0.00061318773, -1462031.5, 34082.0, 0.0, 5.019821, 4.981358 
2.5329724e+2, 1.5231544e+2, -1417736.8, -1480347.3, -5045.369, 0.0010946756, -0.0010189565, -1417332.9, 29975.998, 0.0, 5.0195913, 4.978759 
2.532999e+2, 1.5729445e+2, -1370275.4, -1433367.8, -5175.945, -0.000031683332, -0.0013146154, -1369853.5, 28660.932, 0.0, 5.0193357, 4.978205 
2.5330207e+2, 1.6227178e+2, -1325639.8, -1392263.0, -6087.6855, -0.00043935134, 0.0021724335, -1325088.0, 24648.566, 0.0, 5.0190687, 4.975677 
2.533038e+2, 1.6724744e+2, -1278104.6, -1345075.9, -6209.6006, -0.00003218945, -0.0010209401, -1277533.8, 23441.348, 0.0, 5.0187907, 4.9751863 
2.5330508e+2, 1.7222162e+2, -1233568.6, -1304156.4, -6973.7773, 0.00011033687, 0.0009901098, -1232886.3, 19342.135, 0.0, 5.0184975, 4.9725804 
2.5330585e+2, 1.771943e+2, -1186016.9, -1256845.4, -7078.9907, -0.00000777848, -0.0011132836, -1185316.4, 18179.725, 0.0, 5.0181894, 4.97213 
2.533063e+2, 1.8216544e+2, -1141503.5, -1215960.4, -7692.1797, -0.000054386495, 0.0014494559, -1140717.1, 14061.52, 0.0, 5.017872, 4.9695005 
2.533064e+2, 1.8713501e+2, -1093914.5, -1168531.1, -7780.601, -0.0000075724956, -0.0011816527, -1093111.8, 12965.2, 0.0, 5.017544, 4.9690824 
2.5330624e+2, 1.9210312e+2, -1049435.3, -1127738.6, -8235.999, 0.000016182272, 0.0013933697, -1048578.4, 8811.268, 0.0, 5.0172086, 4.9664 
2.533058e+2, 1.970696e+2, -1001790.2, -1080174.9, -8307.787, 0.0000044118733, -0.001187842, -1000919.3, 7798.695, 0.0, 5.0168657, 4.9660172 
2.533052e+2, 2.0203464e+2, -957323.6, -1039459.75, -8604.3955, -0.000012504459, 0.0014401072, -956431.94, 3628.82, 0.0, 5.0165186, 4.963291 
2.5330442e+2, 2.0699802e+2, -909625.9, -991795.94, -8658.313, -0.000001905108, -0.0012142438, -908723.44, 2696.1438, 0.0, 5.016166, 4.9629297 
2.5330362e+2, 2.1195994e+2, -865165.2, -951171.0, -8798.073, -0.000008689983, 0.0015016614, -864274.44, -1481.7233, 0.0, 5.015812, 4.9601455 
2.533027e+2, 2.1692018e+2, -817389.2, -903375.56, -8829.721, 0.000010360169, -0.0013116527, -816491.9, -2309.514, 0.0, 5.0154557, 4.9598136 
2.5330183e+2, 2.2187898e+2, -772926.3, -862850.94, -8812.955, -0.0000025749212, 0.0015429636, -772070.75, -6484.661, 0.0, 5.0150995, 4.956968 
2.5330096e+2, 2.2683607e+2, -725070.06, -814945.06, -8818.683, -0.0000021141327, -0.0012810401, -724212.94, -7206.3164, 0.0, 5.0147443, 4.956656 
2.5330022e+2, 2.3179169e+2, -680601.2, -774544.8, -8652.479, -0.00002268697, 0.0015721049, -679810.94, -11369.316, 0.0, 5.0143914, 4.953738 
2.532996e+2, 2.3674555e+2, -632631.1, -726479.6, -8627.118, -0.000045931316, -0.0015732972, -631844.7, -11950.904, 0.0, 5.0140424, 4.953461 
2.5329918e+2, 2.4169795e+2, -588165.1, -686251.75, -8319.183, -0.00005953175, 0.0017774346, -587464.5, -16104.309, 0.0, 5.013698, 4.9504466 
2.53299e+2, 2.4664855e+2, -540042.75, -637968.0, -8257.213, -0.000055075463, -0.0016178454, -539351.4, -16507.047, 0.0, 5.0133615, 4.950223 
2.532991e+2, 2.515976e+2, -495676.75, -598163.3, -7812.8506, -0.00005236858, 0.0017463691, -495084.56, -20741.201, 0.0, 5.013031, 4.9470267 
2.5329953e+2, 2.565449e+2, -447221.6, -549279.3, -7706.818, -0.000047816924, -0.0016691856, -446642.9, -20782.9, 0.0, 5.0127115, 4.946988 
2.533003e+2, 2.614906e+2, -403069.22, -510189.88, -7134.6504, -0.0000362829, 0.0017218413, -402596.13, -25204.006, 0.0, 5.0124006, 4.9435005 
2.5330156e+2, 2.6643455e+2, -354186.16, -460507.75, -6980.5166, -0.00003278128, -0.0016018037, -353729.8, -24788.13, 0.0, 5.0121036, 4.9437165 
2.5330323e+2, 2.7137673e+2, -310320.5, -422339.97, -6287.1367, -0.000014608253, 0.0017367277, -309968.75, -29460.82, 0.0, 5.011817, 4.939855 
2.533055e+2, 2.763172e+2, -261006.73, -371867.53, -6077.4214, 0.0000021041194, -0.0018355764, -260674.56, -28582.951, 0.0, 5.011548, 4.9403214 
2.5330818e+2, 2.8125602e+2, -217059.95, -333817.97, -5282.952, 0.0000070927754, 0.0022819228, -216821.39, -33130.176, 0.0, 5.01129, 4.936372 
2.533116e+2, 2.8619307e+2, -167332.39, -282600.16, -5012.852, 0.0000046174455, -0.0026016934, -167114.8, -31806.926, 0.0, 5.0110536, 4.9370747 
2.533155e+2, 2.911278e+2, -125538.914, -249891.0, -4103.272, -0.000011463265, 0.0016663786, -125403.664, -38456.098, 0.0, 5.0108294, 4.9311776 
2.533203e+2, 2.9605982e+2, -75859.52, -199042.38, -3770.7283, -0.000044819462, -0.00028777798, -75744.21, -37130.313, 0.0, 5.0106306, 4.9317136 
2.533256e+2, 3.0099884e+2, -34788.164, -135151.02, -2720.2844, -0.000059404527, 0.002447646, -34714.49, -34714.49, 0.0, 5.0104456, 4.9458804 
2.5333193e+2, 3.0594543e+2, -33903.008, -132278.1, -2312.5288, -0.0000046215528, -0.0053713275, -33848.676, -33848.676, 0.0, 5.010291, 4.9469795 
2.533388e+2, 3.1090972e+2, 5171.7114, -40042.016, -1051.7582, 0.00012353575, 0.003777251, 5196.164, 5196.164, 0.0, 5.010154, 4.9808054 
2.533469e+2, 3.1589186e+2, 6979.9727, -35294.59, -543.8089, 0.0002496633, -0.0008134058, 6986.967, 6986.967, 0.0, 5.010054, 4.9826 
2.5828835e+2, 1.2240459e+2, -1692585.3, -1738789.0, -101.496796, 0.003737653, -0.0024148321, -1692585.0, 47850.21, 0.0, 5.0203433, 4.9902043 
2.582927e+2, 1.2739314e+2, -1649152.3, -1702903.6, -1727.7518, -0.013739662, 0.016029064, -1649096.8, 42450.594, 0.0, 5.0207396, 4.9857173 
2.583009e+2, 1.3237515e+2, -1601645.1, -1656947.6, -2557.2441, 0.011813107, -0.013016049, -1601527.1, 41196.51, 0.0, 5.0207577, 4.9846387 
2.5830507e+2, 1.3736123e+2, -1554790.0, -1610468.3, -2680.0703, 0.00021274932, -0.0015531955, -1554661.3, 39198.92, 0.0, 5.020365, 4.9840083 
2.5830927e+2, 1.4234488e+2, -1509984.9, -1568624.9, -3920.9583, -0.003916305, 0.0060687484, -1509723.9, 35296.457, 0.0, 5.020057, 4.981765 
2.583135e+2, 1.4732625e+2, -1462452.3, -1521660.6, -4087.7542, -0.00018805845, -0.0006602829, -1462171.4, 34031.516, 0.0, 5.0198474, 4.981198 
2.5831684e+2, 1.5230623e+2, -1417857.8, -1480707.9, -5200.7505, 0.0011720436, -0.00050845323, -1417430.3, 29968.826, 0.0, 5.019614, 4.978628 
2.583192e+2, 1.5728506e+2, -1370395.5, -1433724.9, -5334.466, -0.0000372521, -0.0012884181, -1369949.4, 28657.096, 0.0, 5.019358, 4.9780755 
2.5832114e+2, 1.6226225e+2, -1325756.8, -1392607.6, -6263.238, -0.00047298963, 0.0020030132, -1325175.0, 24654.975, 0.0, 5.019089, 4.975552 
2.583226e+2, 1.672378e+2, -1278228.9, -1345424.8, -6387.614, -0.000027310005, -0.0010316133, -1277627.1, 23442.55, 0.0, 5.018809, 4.975061 
2.5832358e+2, 1.7221186e+2, -1233673.6, -1304454.8, -7174.3223, 0.00012882473, 0.0010500202, -1232953.8, 19370.172, 0.0, 5.0185137, 4.972473 
2.5832403e+2, 1.7718443e+2, -1186126.5, -1257143.6, -7280.3857, 0.000003645052, -0.0011071793, -1185387.9, 18204.848, 0.0, 5.018203, 4.972023 
2.5832418e+2, 1.8215549e+2, -1141596.0, -1216211.3, -7908.0034, -0.000042545595, 0.0014288125, -1140767.0, 14109.298, 0.0, 5.017883, 4.969411 
2.5832394e+2, 1.8712497e+2, -1094011.9, -1168780.6, -7997.4287, 0.000010879041, -0.0011832052, -1093166.0, 13009.439, 0.0, 5.0175524, 4.968994 
2.5832346e+2, 1.9209298e+2, -1049514.1, -1127936.1, -8463.151, 0.000035795856, 0.001398642, -1048611.1, 8877.684, 0.0, 5.0172143, 4.966331 
2.5832266e+2, 1.9705941e+2, -1001873.7, -1080368.9, -8535.78, 0.000020744892, -0.0011954168, -1000956.2, 7861.777, 0.0, 5.0168686, 4.9659505 
2.583217e+2, 2.0202439e+2, -957389.0, -1039601.06, -8838.571, -0.00000078399455, 0.0014281061, -956449.5, 3711.7507, 0.0, 5.016518, 4.9632435 
2.5832063e+2, 2.0698772e+2, -909697.25, -991936.0, -8892.729, 0.000005658744, -0.0012273319, -908746.6, 2773.9404, 0.0, 5.0161633, 4.962884 
2.5831944e+2, 2.119496e+2, -865218.75, -951258.06, -9035.813, -0.0000024211936, 0.0014838562, -864280.06, -1386.0419, 0.0, 5.0158057, 4.960119 
2.5831816e+2, 2.1690983e+2, -817448.4, -903460.4, -9067.248, 0.000020569802, -0.0013310838, -816502.9, -2218.9824, 0.0, 5.0154467, 4.9597893 
2.5831693e+2, 2.218686e+2, -772968.44, -862883.7, -9049.787, 0.000004460531, 0.0015262809, -772066.7, -6378.8823, 0.0, 5.015087, 4.9569626 
2.583157e+2, 2.268257e+2, -725118.0, -814975.4, -9054.801, 0.00000035158064, -0.0012957986, -724214.6, -7106.3057, 0.0, 5.0147285, 4.956653 
2.583146e+2, 2.317813e+2, -680633.06, -774524.2, -8884.365, -0.000025203206, 0.0015575005, -679799.8, -11256.531, 0.0, 5.014373, 4.9537544 
2.5831366e+2, 2.3673518e+2, -632669.06, -726456.44, -8857.968, -0.00005005298, -0.0015833698, -631839.75, -11844.531, 0.0, 5.014021, 4.95348 
2.5831288e+2, 2.4168763e+2, -588187.94, -686178.4, -8541.849, -0.00006660523, 0.0017691542, -587448.9, -15987.46, 0.0, 5.0136733, 4.9504843 
2.5831237e+2, 2.4663825e+2, -540071.7, -637891.4, -8478.324, -0.00006733527, -0.0016245407, -539342.3, -16397.11, 0.0, 5.013333, 4.950263 
2.583121e+2, 2.515874e+2, -495692.47, -598039.56, -8022.3286, -0.00005926247, 0.0017405978, -495067.44, -20623.717, 0.0, 5.012999, 4.947085 
2.5831226e+2, 2.5653473e+2, -447243.53, -549151.6, -7914.018, -0.00005374921, -0.0016710365, -446632.6, -20672.83, 0.0, 5.0126762, 4.947049 
2.583127e+2, 2.614805e+2, -403079.66, -510017.34, -7326.9497, -0.00004867405, 0.0017225209, -402579.97, -25088.77, 0.0, 5.0123615, 4.9435787 
2.583137e+2, 2.664245e+2, -354203.03, -460330.3, -7169.692, -0.00004900949, -0.0015981952, -353720.84, -24680.861, 0.0, 5.0120606, 4.943798 
2.5831503e+2, 2.713668e+2, -310328.94, -422122.88, -6458.4565, -0.000028776303, 0.0017412361, -309957.06, -29351.701, 0.0, 5.0117702, 4.939953 
2.5831705e+2, 2.7630734e+2, -261022.11, -371645.34, -6244.3403, -0.000020683497, -0.0018261918, -260670.75, -28482.695, 0.0, 5.011497, 4.940423 
2.5831947e+2, 2.8124627e+2, -217065.06, -333550.28, -5429.8027, -0.000022841241, 0.002298568, -216812.52, -33025.906, 0.0, 5.011235, 4.936491 
2.5832266e+2, 2.8618348e+2, -167343.52, -282323.8, -5153.8325, -0.000024861161, -0.0025770625, -167112.97, -31710.93, 0.0, 5.0109944, 4.9371986 
2.5832632e+2, 2.9111832e+2, -125558.016, -249609.63, -4221.765, -0.00003439253, 0.0016924195, -125414.51, -38374.004, 0.0, 5.010766, 4.9313054 
2.5833094e+2, 2.9605046e+2, -75890.97, -198765.78, -3881.4045, -0.00006174815, -0.00026047588, -75768.484, -37062.902, 0.0, 5.0105624, 4.931842 
2.5833607e+2, 3.0098963e+2, -34810.41, -134829.38, -2805.1125, -0.00007333559, 0.0024716181, -34731.8, -34731.8, 0.0, 5.010373, 4.9460278 
2.5834224e+2, 3.0593637e+2, -33930.098, -131942.86, -2387.3447, -0.000017958175, -0.0053495667, -33871.984, -33871.984, 0.0, 5.010214, 4.947134 
2.5834897e+2, 3.109008e+2, 5157.584, -39652.918, -1096.1997, 0.0001376762, 0.0037947372, 5184.3843, 5184.3843, 0.0, 5.0100713, 4.980984 
2.5835693e+2, 3.1588316e+2, 6961.8647, -34884.1, -574.6815, 0.0002700022, -0.0007517586, 6969.7554, 6969.7554, 0.0, 5.0099654, 4.98279 
2.6330912e+2, 1.22396685e+2, -1690797.6, -1737887.3, -725.16064, 0.0047766375, -0.002021627, -1690786.5, 49726.27, 0.0, 5.0209336, 4.9902105 
2.6331398e+2, 1.2738363e+2, -1647861.0, -1703072.8, -1545.0441, -0.011577125, 0.0037532889, -1647817.8, 43822.785, 0.0, 5.021343, 4.985366 
2.633218e+2, 1.323677e+2, -1599954.3, -1656315.9, -2735.7336, 0.009909398, -0.002490855, -1599821.8, 42975.055, 0.0, 5.021365, 4.984551 
2.6332578e+2, 1.3735266e+2, -1553108.0, -1609821.0, -2787.896, 0.00017466521, -0.001219041, -1552971.3, 40972.773, 0.0, 5.0209665, 4.9839306 
2.633297e+2, 1.423358e+2, -1508573.1, -1568394.3, -3891.3916, -0.0032800564, 0.0025427972, -1508321.1, 36788.26, 0.0, 5.020629, 4.981564 
2.6333362e+2, 1.473173e+2, -1461212.4, -1521523.9, -4102.9487, -0.00018315054, -0.0007819366, -1460934.5, 35356.04, 0.0, 5.0203643, 4.9809933 
2.6333666e+2, 1.5229724e+2, -1416658.4, -1480452.3, -5269.61, 0.00094416353, 0.00069276046, -1416226.0, 31261.135, 0.0, 5.0200887, 4.978485 
2.633388e+2, 1.5727583e+2, -1369280.0, -1433504.1, -5417.787, -0.00005625587, -0.001225585, -1368826.1, 29870.85, 0.0, 5.0198035, 4.9779353 
2.6334044e+2, 1.6225284e+2, -1324735.1, -1392425.3, -6380.096, -0.00040895972, 0.0016100664, -1324139.0, 25783.346, 0.0, 5.0195017, 4.9754157 
2.633416e+2, 1.6722828e+2, -1277321.6, -1345297.8, -6518.8457, -0.000026634838, -0.0010500512, -1276702.1, 24460.84, 0.0, 5.0191827, 4.9749255 
2.6334226e+2, 1.7220223e+2, -1232846.1, -1304314.5, -7335.7573, 0.00010648467, 0.0011889706, -1232101.0, 20317.295, 0.0, 5.01885, 4.9723606 
2.633424e+2, 1.7717469e+2, -1185406.8, -1257051.6, -7448.4336, 0.000006812455, -0.0010931579, -1184640.6, 19047.701, 0.0, 5.0185018, 4.971913 
2.633422e+2, 1.8214563e+2, -1140965.0, -1216122.3, -8096.1045, -0.000024933222, 0.0013841518, -1140102.8, 14870.146, 0.0, 5.0181437, 4.9693184 
2.633416e+2, 1.8711501e+2, -1093494.9, -1168742.9, -8190.74, 0.000026460806, -0.001188394, -1092613.6, 13659.28, 0.0, 5.017773, 4.968903 
2.6334077e+2, 1.9208296e+2, -1049084.4, -1127894.5, -8670.483, 0.000048975762, 0.001409491, -1048141.75, 9445.352, 0.0, 5.017396, 4.9662604 
2.633396e+2, 1.9704932e+2, -1001558.6, -1080377.6, -8746.884, 0.0000365897, -0.001202786, -1000599.6, 8317.28, 0.0, 5.01701, 4.965882 
2.633383e+2, 2.0201422e+2, -957163.4, -1039607.0, -9058.904, 0.000016365471, 0.0014131081, -956179.7, 4081.028, 0.0, 5.0166197, 4.963195 
2.6333678e+2, 2.069775e+2, -909586.2, -991991.8, -9115.504, 0.000021898572, -0.0012397043, -908589.94, 3030.5847, 0.0, 5.016224, 4.962837 
2.6333523e+2, 2.1193936e+2, -865198.44, -951310.94, -9263.0, 0.000012584614, 0.0014729669, -864213.25, -1218.9321, 0.0, 5.0158257, 4.960092 
2.633336e+2, 2.1689954e+2, -817540.9, -903561.1, -9295.299, 0.00003714554, -0.0013430207, -816547.94, -2163.4539, 0.0, 5.0154257, 4.959765 
2.6333198e+2, 2.2185832e+2, -773150.44, -862981.06, -9278.11, 0.00002119209, 0.0015156941, -772202.2, -6413.703, 0.0, 5.0150256, 4.9569573 
2.6333037e+2, 2.2681542e+2, -725412.06, -815119.4, -9282.895, 0.0000157596, -0.0013001617, -724461.56, -7252.5005, 0.0, 5.014627, 4.9566503 
2.633289e+2, 2.3177104e+2, -681016.5, -774664.3, -9108.32, -0.000010838971, 0.0015570294, -680138.8, -11494.86, 0.0, 5.01423, 4.953771 
2.6332757e+2, 2.3672493e+2, -633163.1, -726641.3, -9080.657, -0.000035741952, -0.0015807213, -632289.2, -12193.473, 0.0, 5.0138373, 4.953499 
2.6332644e+2, 2.4167739e+2, -588769.5, -686358.6, -8755.449, -0.000054791577, 0.0017708455, -587990.2, -16428.53, 0.0, 5.0134497, 4.9505224 
2.6332557e+2, 2.4662806e+2, -540760.75, -638113.7, -8689.568, -0.00005939919, -0.0016199972, -539991.2, -16946.22, 0.0, 5.013069, 4.950304 
2.6332495e+2, 2.5157723e+2, -496467.88, -598258.25, -8220.5, -0.000047836977, 0.001746987, -495808.25, -21265.207, 0.0, 5.012696, 4.947144 
2.6332474e+2, 2.5652465e+2, -448122.5, -549408.75, -8108.3765, -0.000043865173, -0.0016632378, -447477.5, -21419.021, 0.0, 5.0123334, 4.9471116 
2.6332486e+2, 2.614705e+2, -404043.28, -510271.06, -7504.32, -0.000043972927, 0.0017317806, -403515.78, -25926.547, 0.0, 5.01198, 4.9436593 
2.6332554e+2, 2.6641458e+2, -355266.72, -460619.3, -7341.8965, -0.00004785275, -0.0015842455, -354757.53, -25620.355, 0.0, 5.0116405, 4.943882 
2.6332653e+2, 2.7135697e+2, -311475.63, -422410.34, -6609.8564, -0.000027196851, 0.0017562081, -311083.16, -30381.498, 0.0, 5.011312, 4.940053 
2.6332828e+2, 2.7629763e+2, -262264.16, -371964.6, -6388.544, -0.000030298039, -0.0018099648, -261893.36, -29610.002, 0.0, 5.0110016, 4.940527 
2.6333037e+2, 2.8123668e+2, -218384.13, -333860.38, -5550.256, -0.000040537787, 0.002318163, -218117.97, -34237.164, 0.0, 5.010703, 4.936613 
2.6333335e+2, 2.8617397e+2, -168751.0, -282658.66, -5265.0435, -0.000039679006, -0.0025498504, -168508.16, -33013.164, 0.0, 5.010426, 4.9373264 
2.6333675e+2, 2.9110897e+2, -127055.23, -249972.64, -4305.924, -0.000039000275, 0.0017223265, -126904.57, -39772.38, 0.0, 5.0101624, 4.931437 
2.6334116e+2, 2.9604122e+2, -77475.78, -199163.1, -3953.7117, -0.00005799157, -0.0002259919, -77347.45, -38551.484, 0.0, 5.009925, 4.9319744 
2.6334605e+2, 3.0098054e+2, -36454.258, -135206.06, -2847.2288, -0.00006906411, 0.0025049818, -36372.234, -36372.234, 0.0, 5.0097027, 4.9461794 
2.6335204e+2, 3.0592743e+2, -35652.277, -132337.33, -2415.3823, -0.000023979179, -0.005322554, -35591.973, -35591.973, 0.0, 5.009511, 4.947293 
2.6335862e+2, 3.1089205e+2, 3396.6323, -40004.664, -1090.4469, 0.00015207274, 0.00381542, 3424.0125, 3424.0125, 0.0, 5.009338, 4.9811683 
2.633665e+2, 3.158746e+2, 5137.0483, -35238.027, -550.48755, 0.00027551758, -0.0006696264, 5144.5522, 5144.5522, 0.0, 5.0092034, 4.982985 
2.6832974e+2, 1.22388974e+2, -1691018.5, -1738932.5, -824.82623, 0.0017587246, 0.0030399982, -1691004.3, 49583.914, 0.0, 5.021062, 4.9898043 
2.683357e+2, 1.2737365e+2, -1648048.6, -1703500.5, -1213.5812, -0.007586568, -0.01247502, -1648022.1, 43716.27, 0.0, 5.0213523, 4.985221 
2.683428e+2, 1.3236062e+2, -1600108.5, -1656486.9, -2965.0078, 0.006459615, 0.011274691, -1599953.0, 42913.063, 0.0, 5.0213337, 4.98451 
2.6834673e+2, 1.3734423e+2, -1553113.6, -1609903.5, -3043.7202, 0.00007849621, -0.00075152604, -1552951.0, 41075.785, 0.0, 5.0209813, 4.9838963 
2.6835042e+2, 1.4232673e+2, -1508788.5, -1569015.9, -4056.2407, -0.0021332423, -0.0020648886, -1508516.5, 36681.73, 0.0, 5.0206666, 4.98134 
2.68354e+2, 1.4730844e+2, -1461446.5, -1522167.8, -4261.6133, -0.00015817316, -0.00095799693, -1461148.9, 35228.527, 0.0, 5.0203977, 4.9807634 
2.683567e+2, 1.5228836e+2, -1416788.0, -1480865.6, -5442.2725, 0.00054377504, 0.0022522956, -1416329.0, 31245.137, 0.0, 5.0201187, 4.978333 
2.6835862e+2, 1.5726666e+2, -1369409.6, -1433908.1, -5594.203, -0.000085210275, -0.0011427739, -1368928.0, 29858.906, 0.0, 5.019831, 4.9777875 
2.6836e+2, 1.6224346e+2, -1324864.8, -1392817.3, -6582.104, -0.00029210866, 0.001097929, -1324233.0, 25781.273, 0.0, 5.019527, 4.975273 
2.6836082e+2, 1.672188e+2, -1277460.1, -1345693.3, -6722.3394, -0.000030560986, -0.0010762941, -1276804.3, 24451.56, 0.0, 5.019204, 4.9747825 
2.6836112e+2, 1.7219265e+2, -1232955.6, -1304634.6, -7559.788, 0.00005967265, 0.0013661969, -1232167.0, 20345.209, 0.0, 5.018868, 4.9722447 
2.683609e+2, 1.7716496e+2, -1185520.6, -1257368.3, -7673.868, 0.0000031915906, -0.0010780356, -1184710.1, 19073.34, 0.0, 5.0185175, 4.971799 
2.6836035e+2, 1.821358e+2, -1141060.8, -1216387.4, -8337.61, -0.0000072236535, 0.0013238556, -1140148.9, 14920.346, 0.0, 5.018156, 4.9692235 
2.6835936e+2, 1.871051e+2, -1093596.3, -1169006.5, -8432.985, 0.00003788782, -0.0011994373, -1092664.8, 13705.364, 0.0, 5.0177827, 4.96881 
2.6835814e+2, 1.9207297e+2, -1049164.8, -1128099.5, -8923.848, 0.000054577606, 0.0014194733, -1048168.5, 9516.531, 0.0, 5.0174026, 4.9661884 
2.6835662e+2, 1.9703925e+2, -1001645.3, -1080581.6, -9001.107, 0.000047400958, -0.0012136103, -1000631.94, 8383.597, 0.0, 5.0170135, 4.9658113 
2.6835492e+2, 2.0200409e+2, -957230.6, -1039754.56, -9319.913, 0.00003096329, 0.0013924653, -956191.2, 4168.825, 0.0, 5.0166197, 4.9631453 
2.6835302e+2, 2.0696732e+2, -909659.4, -992137.1, -9376.996, 0.000037606267, -0.0012569495, -908606.7, 3113.507, 0.0, 5.016221, 4.9627895 
2.6835108e+2, 2.1192916e+2, -865253.0, -951401.0, -9527.489, 0.000026182797, 0.0014615391, -864211.9, -1117.4838, 0.0, 5.0158195, 4.960065 
2.6834902e+2, 2.168893e+2, -817601.44, -903648.75, -9559.468, 0.000050034094, -0.001354953, -816552.25, -2067.4414, 0.0, 5.0154166, 4.9597397 
2.6834702e+2, 2.2184807e+2, -773193.5, -863014.8, -9542.033, 0.00003659311, 0.0015029336, -772191.0, -6302.0244, 0.0, 5.015013, 4.956952 
2.6834503e+2, 2.2680517e+2, -725461.25, -815150.7, -9546.0205, 0.000031206935, -0.0013049091, -724456.5, -7146.934, 0.0, 5.014611, 4.9566474 
2.6834315e+2, 2.3176078e+2, -681048.7, -774642.06, -9367.182, 0.000006119243, 0.0015585226, -680120.4, -11376.018, 0.0, 5.0142107, 4.953788 
2.6834142e+2, 2.367147e+2, -633201.56, -726616.1, -9338.417, -0.000017826264, -0.0015770191, -632277.2, -12081.203, 0.0, 5.013815, 4.9535184 
2.6833987e+2, 2.416672e+2, -588792.25, -686281.4, -9004.538, -0.000039469403, 0.0017710339, -587967.5, -16305.865, 0.0, 5.0134234, 4.9505615 
2.6833862e+2, 2.466179e+2, -540789.9, -638033.1, -8937.139, -0.000046754252, -0.0016164266, -539975.3, -16830.797, 0.0, 5.0130396, 4.950346 
2.6833764e+2, 2.5156713e+2, -496483.38, -598128.7, -8455.926, -0.000033560584, 0.0017530147, -495784.72, -21142.588, 0.0, 5.012663, 4.9472046 
2.683371e+2, 2.565146e+2, -448144.4, -549274.6, -8341.481, -0.000033420383, -0.0016577096, -447461.0, -21304.078, 0.0, 5.0122967, 4.9471755 
2.6833686e+2, 2.614605e+2, -404053.44, -510090.47, -7722.166, -0.000037874295, 0.0017379214, -403494.03, -25807.059, 0.0, 5.0119395, 4.943741 
2.6833716e+2, 2.664047e+2, -355283.66, -460433.72, -7556.5728, -0.000046166355, -0.001572658, -354743.38, -25509.273, 0.0, 5.011596, 4.943968 
2.6833785e+2, 2.7134717e+2, -311483.38, -422182.4, -6805.8164, -0.000027364502, 0.001768712, -311066.5, -30268.84, 0.0, 5.0112634, 4.940155 
2.6833928e+2, 2.7628794e+2, -262279.22, -371731.06, -6580.166, -0.00004343636, -0.0017980197, -261885.05, -29506.707, 0.0, 5.0109487, 4.9406333 
2.683411e+2, 2.8122708e+2, -218388.95, -333580.1, -5720.8735, -0.000063106345, 0.0023313244, -218105.53, -34130.85, 0.0, 5.010646, 4.9367375 
2.6834375e+2, 2.8616455e+2, -168761.9, -282369.1, -5429.623, -0.000059136502, -0.0025294134, -168503.0, -32915.414, 0.0, 5.0103645, 4.9374566 
2.6834694e+2, 2.9109964e+2, -127073.664, -249676.0, -4446.678, -0.000046586098, 0.0017463871, -126912.59, -39689.098, 0.0, 5.0100965, 4.9315715 
2.6835108e+2, 2.9603207e+2, -77506.87, -198870.6, -4086.4167, -0.000055820456, -0.00019580037, -77369.43, -38483.48, 0.0, 5.009854, 4.9321094 
2.6835576e+2, 3.009715e+2, -36476.984, -134868.83, -2952.6936, -0.00006948938, 0.002536119, -36388.457, -36388.457, 0.0, 5.009627, 4.9463334 
2.6836154e+2, 3.0591854e+2, -35680.625, -131986.0, -2510.4922, -0.000043422995, -0.005299888, -35615.223, -35615.223, 0.0, 5.00943, 4.9474545 
2.6836795e+2, 3.1088337e+2, 3381.0605, -39597.516, -1153.8339, 0.00014674939, 0.0038308883, 3412.015, 3412.015, 0.0, 5.009251, 4.9813557 
2.6837566e+2, 3.1586608e+2, 5117.943, -34805.645, -600.4584, 0.00024075591, -0.0005796044, 5126.972, 5126.972, 0.0, 5.00911, 4.983185 
2.7335137e+2, 1.223813e+2, -1688536.1, -1739320.5, -1142.676, 0.0012113234, 0.009897163, -1688510.5, 52152.887, 0.0, 5.022235, 4.9891005 
2.7335787e+2, 1.273647e+2, -1646141.0, -1702200.5, -1118.8278, -0.0021453027, -0.019819576, -1646118.6, 45707.4, 0.0, 5.021911, 4.985375 
2.733638e+2, 1.3235305e+2, -1599260.4, -1656279.1, -2864.2336, 0.0017556525, 0.017454928, -1599116.9, 43823.293, 0.0, 5.0216618, 4.9844184 
2.7336794e+2, 1.3733597e+2, -1551674.4, -1609414.8, -3010.4006, -0.00007417775, -0.0005013855, -1551517.9, 42589.785, 0.0, 5.02151, 4.983801 
2.7337158e+2, 1.4231808e+2, -1507272.4, -1568769.5, -4098.106, -0.000569715, -0.0041331523, -1507000.5, 38282.34, 0.0, 5.0212812, 4.981124 
2.733747e+2, 1.472998e+2, -1460075.8, -1522004.9, -4298.406, -0.0001071734, -0.0010407506, -1459778.9, 36683.324, 0.0, 5.020967, 4.9805427 
2.7337706e+2, 1.522796e+2, -1415469.4, -1480610.6, -5493.7725, 0.000010705404, 0.0029636545, -1415009.3, 32650.863, 0.0, 5.0206456, 4.978164 
2.733787e+2, 1.5725766e+2, -1368203.9, -1433705.4, -5666.9185, -0.00011892938, -0.0010994255, -1367717.1, 31157.97, 0.0, 5.0203204, 4.9776206 
2.7337977e+2, 1.6223426e+2, -1323752.8, -1392616.5, -6695.938, -0.0001290165, 0.00086681417, -1323107.6, 26996.627, 0.0, 5.019975, 4.9751263 
2.7338022e+2, 1.672095e+2, -1276479.4, -1345555.5, -6844.154, -0.00003581801, -0.0010858782, -1275807.8, 25539.215, 0.0, 5.0196085, 4.9746366 
2.7338016e+2, 1.7218322e+2, -1232066.3, -1304483.6, -7705.7437, -0.000007677525, 0.0014496646, -1231255.4, 21349.32, 0.0, 5.0192294, 4.972124 
2.733796e+2, 1.771554e+2, -1184751.9, -1257271.6, -7826.989, -0.0000063690236, -0.0010695469, -1183916.8, 19960.441, 0.0, 5.018837, 4.9716806 
2.7337867e+2, 1.8212613e+2, -1140385.1, -1216287.8, -8511.848, 0.000008171061, 0.0012998136, -1139442.3, 15721.752, 0.0, 5.018434, 4.969126 
2.733773e+2, 1.8709534e+2, -1093041.9, -1168962.6, -8611.694, 0.00004091436, -0.0012005526, -1092077.4, 14388.431, 0.0, 5.018019, 4.968714 
2.7337566e+2, 1.9206312e+2, -1048703.3, -1128051.4, -9117.6045, 0.000053059048, 0.0014294347, -1047669.1, 10112.446, 0.0, 5.017597, 4.966114 
2.7337372e+2, 1.9702932e+2, -1001303.9, -1080586.1, -9199.288, 0.000055965764, -0.0012127323, -1000250.44, 8862.285, 0.0, 5.0171657, 4.9657393 
2.733716e+2, 2.019941e+2, -956983.7, -1039755.8, -9526.935, 0.0000449618, 0.0013879407, -955901.25, 4556.5376, 0.0, 5.0167294, 4.963094 
2.7336928e+2, 2.0695731e+2, -909532.25, -992190.4, -9586.374, 0.000051302737, -0.0012619986, -908435.0, 3383.5247, 0.0, 5.0162883, 4.9627404 
2.733669e+2, 2.1191908e+2, -865219.25, -951450.4, -9741.545, 0.000040426225, 0.0014580396, -864132.5, -939.37054, 0.0, 5.0158443, 4.9600368 
2.7336445e+2, 2.1687923e+2, -817686.1, -903748.4, -9774.515, 0.000067045126, -0.0013579522, -816589.94, -2006.2539, 0.0, 5.015399, 4.959714 
2.73362e+2, 2.2183797e+2, -773371.9, -863110.8, -9757.607, 0.000059344085, 0.0014979558, -772323.2, -6335.1157, 0.0, 5.014953, 4.9569473 
2.733596e+2, 2.2679505e+2, -725757.2, -815295.6, -9761.158, 0.000055201766, -0.0013060202, -724705.44, -7296.7344, 0.0, 5.0145082, 4.9566445 
2.7335727e+2, 2.3175067e+2, -681437.8, -774782.8, -9577.901, 0.00003416325, 0.0015579015, -680465.2, -11621.731, 0.0, 5.0140657, 4.953806 
2.7335513e+2, 2.3670462e+2, -633706.1, -726803.5, -9547.681, 0.000013826731, -0.0015759622, -632737.06, -12442.234, 0.0, 5.013627, 4.953539 
2.733532e+2, 2.4165714e+2, -589389.0, -686464.75, -9204.278, -0.00000802384, 0.0017710272, -588524.0, -16763.814, 0.0, 5.0131936, 4.950602 
2.7335152e+2, 2.466079e+2, -541499.4, -638260.56, -9134.426, -0.000017353901, -0.0016146253, -540644.6, -17401.922, 0.0, 5.012768, 4.950389 
2.7335015e+2, 2.5155717e+2, -497283.38, -598352.2, -8639.355, -0.0000015976154, 0.001754781, -496550.22, -21810.459, 0.0, 5.0123496, 4.947267 
2.733492e+2, 2.565047e+2, -449054.22, -549539.1, -8521.139, -0.0000030579859, -0.0016527156, -448336.75, -22082.83, 0.0, 5.011942, 4.9472413 
2.7334857e+2, 2.6145068e+2, -405052.9, -510352.13, -7884.2495, -0.000010661437, 0.0017434139, -404465.84, -26682.613, 0.0, 5.0115433, 4.9438252 
2.733485e+2, 2.6639497e+2, -356388.16, -460732.25, -7713.115, -0.000027259834, -0.0015650211, -355821.1, -26491.592, 0.0, 5.0111594, 4.9440556 
2.7334887e+2, 2.7133757e+2, -312675.8, -422479.7, -6940.683, -0.000011683206, 0.0017798638, -312238.84, -31346.686, 0.0, 5.010787, 4.94026 
2.7334994e+2, 2.762784e+2, -263572.94, -372061.8, -6707.786, -0.000032861382, -0.0017834081, -263159.78, -30688.035, 0.0, 5.0104322, 4.9407425 
2.7335143e+2, 2.812177e+2, -219764.97, -333902.6, -5823.22, -0.000057571746, 0.002346782, -219468.64, -35401.715, 0.0, 5.0100904, 4.936866 
2.733538e+2, 2.8615528e+2, -170230.78, -282717.6, -5522.329, -0.000057824225, -0.00251162, -169960.31, -34281.773, 0.0, 5.0097713, 4.93759 
2.7335665e+2, 2.9109052e+2, -128636.43, -250052.86, -4510.943, -0.000036365247, 0.0017680026, -128469.07, -41155.953, 0.0, 5.009466, 4.93171 
2.7336055e+2, 2.9602307e+2, -79162.75, -199283.23, -4138.6367, -0.000027601465, -0.00015972159, -79020.33, -40046.137, 0.0, 5.009187, 4.932249 
2.73365e+2, 3.0096266e+2, -38197.35, -135261.89, -2973.8677, -0.000042396816, 0.0025780934, -38106.324, -38106.324, 0.0, 5.008925, 4.9464927 
2.7337056e+2, 3.0590987e+2, -37486.03, -132398.33, -2516.9568, -0.000049335038, -0.0052741575, -37419.332, -37419.332, 0.0, 5.008693, 4.9476213 
2.7337676e+2, 3.1087485e+2, 1530.7303, -39968.59, -1125.4952, 0.0001418564, 0.0038437084, 1561.2322, 1561.2322, 0.0, 5.008481, 4.9815483 
2.7338433e+2, 3.158578e+2, 3198.0557, -35178.36, -554.0077, 0.00018835373, -0.00047935615, 3206.0518, 3206.0518, 0.0, 5.0083084, 4.98339 
2.7837333e+2, 1.2237232e+2, -1689631.5, -1742201.1, -1187.487, -0.0018336513, 0.004250146, -1689604.8, 51146.64, 0.0, 5.0223746, 4.9880853 
2.783804e+2, 1.2735635e+2, -1645551.5, -1701200.6, -1274.8588, 0.004096719, -0.022026798, -1645522.3, 46385.61, 0.0, 5.0219545, 4.985683 
2.7838492e+2, 1.3234523e+2, -1599440.9, -1656653.1, -2920.5203, -0.003596325, 0.019313376, -1599292.3, 43724.74, 0.0, 5.021662, 4.984295 
2.7838945e+2, 1.3732783e+2, -1551806.6, -1609787.5, -3087.5981, -0.00026658704, -0.0003907858, -1551642.6, 42544.816, 0.0, 5.021531, 4.9836674 
2.7839306e+2, 1.423097e+2, -1507483.4, -1569364.3, -4304.797, 0.0012066881, -0.004764643, -1507185.4, 38179.78, 0.0, 5.0213146, 4.980911 
2.7839565e+2, 1.4729124e+2, -1460283.9, -1522605.1, -4500.171, -0.00004076403, -0.0010713877, -1459960.5, 36585.42, 0.0, 5.0210023, 4.980326 
2.7839765e+2, 1.5227087e+2, -1415625.0, -1481099.6, -5698.587, -0.00059168716, 0.003190717, -1415132.8, 32612.797, 0.0, 5.0206804, 4.977985 
2.7839902e+2, 1.5724874e+2, -1368368.8, -1434195.4, -5872.765, -0.0001577335, -0.0010826006, -1367848.9, 31113.69, 0.0, 5.020351, 4.9774427 
2.7839974e+2, 1.6222517e+2, -1323889.3, -1393031.1, -6930.631, 0.000056115085, 0.00079180073, -1323201.4, 26992.047, 0.0, 5.020002, 4.974975 
2.7839983e+2, 1.6720027e+2, -1276622.3, -1345969.3, -7079.25, -0.00004380102, -0.0010878596, -1275906.9, 25530.635, 0.0, 5.0196323, 4.974487 
2.7839938e+2, 1.7217384e+2, -1232181.1, -1304824.5, -7958.1167, -0.00008784249, 0.0014774282, -1231319.6, 21376.906, 0.0, 5.0192494, 4.9720006 
2.7839842e+2, 1.771459e+2, -1184873.5, -1257611.6, -8080.1826, -0.000020646, -0.0010684252, -1183986.8, 19983.482, 0.0, 5.018854, 4.9715586 
2.7839708e+2, 1.8211654e+2, -1140483.5, -1216564.0, -8781.1045, 0.000019022567, 0.0012940528, -1139483.1, 15774.993, 0.0, 5.018448, 4.969027 
2.7839532e+2, 1.8708563e+2, -1093147.9, -1169240.4, -8881.3, 0.000035898654, -0.0011994576, -1092125.1, 14435.804, 0.0, 5.0180297, 4.968616 
2.7839324e+2, 1.9205333e+2, -1048787.3, -1128267.3, -9398.496, 0.000044199543, 0.0014362597, -1047691.0, 10186.496, 0.0, 5.0176044, 4.966038 
2.783909e+2, 1.9701946e+2, -1001393.5, -1080798.9, -9480.995, 0.000059433267, -0.0012094534, -1000277.1, 8932.286, 0.0, 5.0171695, 4.965666 
2.7838832e+2, 2.0198418e+2, -957053.1, -1039909.75, -9815.536, 0.000052989362, 0.0013877713, -955906.2, 4648.9023, 0.0, 5.01673, 4.9630423 
2.7838558e+2, 2.0694733e+2, -909608.06, -992342.25, -9875.1455, 0.000057882484, -0.0012644244, -908445.7, 3470.6313, 0.0, 5.0162854, 4.962691 
2.7838275e+2, 2.1190906e+2, -865275.56, -951544.0, -10033.301, 0.000048672853, 0.0014541537, -864124.0, -832.7417, 0.0, 5.015838, 4.960008 
2.7837986e+2, 2.1686918e+2, -817748.6, -903839.5, -10065.91, 0.000079295234, -0.0013614072, -816587.4, -1905.2115, 0.0, 5.0153894, 4.9596877 
2.7837697e+2, 2.218279e+2, -773415.7, -863144.9, -10048.898, 0.0000786178, 0.0014917806, -772304.06, -6217.37, 0.0, 5.01494, 4.956942 
2.7837408e+2, 2.2678497e+2, -725807.1, -815326.94, -10051.636, 0.000076307275, -0.0013098812, -724692.4, -7185.0527, 0.0, 5.014492, 4.9566417 
2.7837133e+2, 2.3174061e+2, -681469.94, -774758.25, -9864.038, 0.000060925875, 0.0015503324, -680438.4, -11496.349, 0.0, 5.0140457, 4.9538236 
2.7836877e+2, 2.3669457e+2, -633744.5, -726775.75, -9832.781, 0.000045668145, -0.0015829247, -632716.56, -12323.409, 0.0, 5.013604, 4.9535594 
2.783664e+2, 2.4164712e+2, -589411.2, -686383.25, -9480.4795, 0.000024916853, 0.0017651154, -588493.0, -16634.752, 0.0, 5.013167, 4.950643 
2.7836433e+2, 2.4659793e+2, -541527.94, -638175.2, -9409.116, 0.000013708841, -0.0016200356, -540620.44, -17280.143, 0.0, 5.0127378, 4.9504333 
2.783625e+2, 2.5154728e+2, -497297.38, -598215.06, -8901.573, 0.00003197559, 0.0017467241, -496518.22, -21681.344, 0.0, 5.0123158, 4.947331 
2.7836114e+2, 2.5649488e+2, -449074.97, -549397.7, -8781.277, 0.000029428116, -0.0016549242, -448312.16, -21961.785, 0.0, 5.0119042, 4.947308 
2.783601e+2, 2.6144093e+2, -405061.4, -510162.28, -8128.49, 0.000018778483, 0.0017412, -404436.44, -26557.488, 0.0, 5.011502, 4.9439106 
2.7835968e+2, 2.663853e+2, -356403.34, -460536.38, -7954.1787, -0.000008675692, -0.0015678189, -355799.28, -26374.914, 0.0, 5.0111136, 4.944145 
2.7835965e+2, 2.7132797e+2, -312681.56, -422239.88, -7162.608, 0.0000019328752, 0.0017827041, -312215.28, -31229.238, 0.0, 5.010737, 4.940367 
2.7836034e+2, 2.7626893e+2, -263585.94, -371815.44, -6925.557, -0.000021122622, -0.0017751526, -263144.6, -30580.047, 0.0, 5.010378, 4.940854 
2.7836153e+2, 2.812083e+2, -219767.5, -333607.97, -6018.7173, -0.000049509337, 0.0023551136, -219450.17, -35291.605, 0.0, 5.010031, 4.936996 
2.7836356e+2, 2.8614604e+2, -170239.6, -282413.22, -5711.5537, -0.000058800553, -0.0025038708, -169949.52, -34180.664, 0.0, 5.009708, 4.9377265 
2.7836612e+2, 2.9108143e+2, -128652.625, -249739.89, -4675.2974, -0.000030438076, 0.0017801257, -128472.375, -41070.297, 0.0, 5.009398, 4.931851 
2.7836975e+2, 2.9601413e+2, -79192.086, -198973.73, -4294.8, 0.00000071772695, -0.00012921769, -79038.29, -39976.543, 0.0, 5.0091143, 4.932391 
2.783739e+2, 3.009539e+2, -38218.63, -134906.3, -3101.815, -0.00001657783, 0.0026175047, -38119.223, -38119.223, 0.0, 5.0088463, 4.946655 
2.7837923e+2, 3.0590126e+2, -37513.38, -132027.05, -2634.673, -0.00006621652, -0.0052546654, -37439.992, -37439.992, 0.0, 5.008609, 4.947792 
2.7838522e+2, 3.1086642e+2, 1514.718, -39542.11, -1210.1595, 0.00011602535, 0.0038476347, 1550.3568, 1550.3568, 0.0, 5.0083904, 4.9817443 
2.783926e+2, 3.1584957e+2, 3178.139, -34724.324, -625.30634, 0.00009284075, -0.00037830698, 3188.4524, 3188.4524, 0.0, 5.0082107, 4.983599 
2.8339624e+2, 1.2236499e+2, -1686950.6, -1742419.6, -695.46063, -0.0029845722, 0.0077702818, -1686941.9, 53881.316, 0.0, 5.0235987, 4.9874125 
2.8340322e+2, 1.2734966e+2, -1643212.4, -1699884.8, -1304.2826, 0.008895888, -0.012817588, -1643182.4, 48791.258, 0.0, 5.0226994, 4.985752 
2.8340644e+2, 1.3233674e+2, -1598254.8, -1656647.0, -2682.5664, -0.00767405, 0.01148481, -1598131.8, 44968.32, 0.0, 5.0221825, 4.984043 
2.834113e+2, 1.3731983e+2, -1550432.4, -1609708.1, -2961.6582, -0.0004267901, -0.0006376245, -1550284.8, 43981.01, 0.0, 5.022119, 4.983408 
2.834148e+2, 1.4230177e+2, -1505910.5, -1569005.8, -4399.8594, 0.002558568, -0.0021582637, -1505605.1, 39837.69, 0.0, 5.0219307, 4.980731 
2.83417e+2, 1.472829e+2, -1458767.8, -1522270.3, -4566.8984, 0.000023087632, -0.00096597045, -1458440.9, 38186.89, 0.0, 5.0215993, 4.9801493 
2.8341857e+2, 1.5226226e+2, -1414217.9, -1480837.6, -5773.043, -0.0010367101, 0.0023318604, -1413721.4, 34108.82, 0.0, 5.021245, 4.977801 
2.8341964e+2, 1.5724e+2, -1367106.1, -1434006.1, -5958.3184, -0.0001814662, -0.0011193069, -1366579.6, 32468.473, 0.0, 5.020868, 4.977258 
2.8342003e+2, 1.622163e+2, -1322713.6, -1392804.8, -7047.184, 0.00019908774, 0.0010813235, -1322012.0, 28268.264, 0.0, 5.020473, 4.974826 
2.8341967e+2, 1.6719122e+2, -1275574.9, -1345800.9, -7196.791, -0.000048494407, -0.0010678155, -1274844.9, 26681.219, 0.0, 5.020059, 4.97434 
2.8341886e+2, 1.7216466e+2, -1231236.3, -1304659.8, -8095.2954, -0.00014968537, 0.0013869953, -1230354.3, 22432.236, 0.0, 5.0196323, 4.9718747 
2.834175e+2, 1.7713661e+2, -1184060.1, -1257508.0, -8222.649, -0.00003482908, -0.0010721127, -1183150.9, 20910.51, 0.0, 5.0191917, 4.971434 
2.834157e+2, 1.8210712e+2, -1139765.0, -1216451.8, -8942.525, 0.000025806085, 0.0013303424, -1138736.0, 16614.338, 0.0, 5.018742, 4.968927 
2.8341347e+2, 1.8707612e+2, -1092555.9, -1169186.5, -9046.588, 0.00003194251, -0.0011920433, -1091502.4, 15151.767, 0.0, 5.0182805, 4.968517 
2.8341097e+2, 1.9204374e+2, -1048295.2, -1128211.4, -9577.12, 0.00003643364, 0.0014285152, -1047163.5, 10808.077, 0.0, 5.0178103, 4.965961 
2.8340814e+2, 1.9700979e+2, -1001027.2, -1080798.0, -9662.861, 0.00006052792, -0.0012103159, -999873.4, 9430.84, 0.0, 5.0173316, 4.965591 
2.8340513e+2, 2.0197444e+2, -956784.9, -1039905.44, -10006.483, 0.00006140179, 0.0013903248, -955597.25, 5053.325, 0.0, 5.0168476, 4.96299 
2.834019e+2, 2.0693754e+2, -909464.75, -992392.0, -10067.845, 0.000066139386, -0.0012667923, -908260.0, 3752.2722, 0.0, 5.016359, 4.9626403 
2.8339863e+2, 2.1189924e+2, -865229.3, -951589.8, -10230.265, 0.00006001283, 0.0014473059, -864033.94, -646.33594, 0.0, 5.0158677, 4.9599795 
2.8339523e+2, 2.1685931e+2, -817826.56, -903938.1, -10263.53, 0.000093791, -0.001366782, -816620.2, -1841.4177, 0.0, 5.015374, 4.9596615 
2.8339183e+2, 2.2181803e+2, -773591.1, -863239.4, -10246.596, 0.00009747008, 0.0014855628, -772434.9, -6251.45, 0.0, 5.0148807, 4.9569373 
2.8338853e+2, 2.267751e+2, -726104.44, -815471.94, -10248.815, 0.00009865628, -0.001315829, -724944.1, -7340.055, 0.0, 5.0143886, 4.95664 
2.833853e+2, 2.3173076e+2, -681864.2, -774899.7, -10056.676, 0.00008960986, 0.0015431573, -680789.5, -11750.838, 0.0, 5.0138984, 4.953842 
2.8338227e+2, 2.3668474e+2, -634258.6, -726965.44, -10024.203, 0.00008184065, -0.0015858866, -633187.1, -12697.475, 0.0, 5.0134125, 4.953581 
2.8337944e+2, 2.4163732e+2, -590022.0, -686569.25, -9662.304, 0.000066318076, 0.0017631185, -589064.5, -17110.057, 0.0, 5.0129313, 4.950685 
2.833769e+2, 2.4658817e+2, -542256.4, -638406.9, -9588.459, 0.000054142725, -0.0016226057, -541309.5, -17873.48, 0.0, 5.0124583, 4.950478 
2.8337467e+2, 2.5153756e+2, -498120.44, -598443.06, -9066.92, 0.0000757138, 0.0017424785, -497307.56, -22375.504, 0.0, 5.0119925, 4.947396 
2.8337285e+2, 2.5648522e+2, -450012.66, -549668.4, -8943.139, 0.00007021523, -0.001652902, -449216.47, -22771.57, 0.0, 5.011538, 4.9473767 
2.833714e+2, 2.6143137e+2, -406092.94, -510430.03, -8272.146, 0.000057231184, 0.0017450311, -405441.16, -27468.434, 0.0, 5.0110927, 4.943999 
2.8337055e+2, 2.6637578e+2, -357545.47, -460842.56, -8092.475, 0.000027314833, -0.0015637116, -356915.34, -27398.117, 0.0, 5.0106616, 4.944237 
2.833701e+2, 2.7131858e+2, -313917.2, -422546.1, -7278.7813, 0.000036780595, 0.0017921951, -313431.63, -32353.691, 0.0, 5.0102425, 4.940477 
2.8337047e+2, 2.7625966e+2, -264927.84, -372156.6, -7034.89, 0.000008512657, -0.0017589714, -264468.28, -31812.98, 0.0, 5.009842, 4.940968 
2.8337124e+2, 2.811992e+2, -221196.22, -333941.0, -6101.6953, -0.000024079623, 0.0023707605, -220866.95, -36618.816, 0.0, 5.0094543, 4.93713 
2.8337297e+2, 2.8613704e+2, -171765.98, -282773.4, -5784.7344, -0.000038242597, -0.0024945247, -171465.34, -35608.273, 0.0, 5.009091, 4.937866 
2.8337517e+2, 2.9107258e+2, -130277.8, -250128.47, -4719.19, -0.00000043506452, 0.0017894305, -130092.266, -42603.367, 0.0, 5.008742, 4.931996 
2.8337848e+2, 2.960054e+2, -80917.016, -199399.69, -4326.437, 0.000050717907, -0.00010535915, -80759.24, -41612.14, 0.0, 5.008419, 4.932538 
2.8338236e+2, 3.009453e+2, -40015.156, -135314.92, -3102.0015, 0.000026523538, 0.0026488772, -39914.293, -39914.293, 0.0, 5.008113, 4.9468217 
2.8338745e+2, 3.0589288e+2, -39402.426, -132456.73, -2620.6702, -0.00007013629, -0.0052360184, -39328.68, -39328.68, 0.0, 5.007838, 4.9479675 
2.8339317e+2, 3.1085822e+2, -426.16266, -39931.9, -1160.7822, 0.00009683787, 0.0038520922, -392.0852, -392.0852, 0.0, 5.007583, 4.981946 
2.8340036e+2, 3.1584162e+2, 1161.4265, -35115.82, -557.6651, -0.0000031745874, -0.00031724232, 1169.9971, 1169.9971, 0.0, 5.0073686, 4.983815 
2.884197e+2, 1.2235674e+2, -1687587.4, -1743874.3, -749.3189, -0.00449616, -0.0021124694, -1687577.5, 53326.633, 0.0, 5.023632, 4.9869184 
2.8842634e+2, 1.2734385e+2, -1643073.1, -1699979.1, -1902.5604, 0.012882643, 0.0024319917, -1643009.6, 49020.984, 0.0, 5.0227804, 4.9856815 
2.884283e+2, 1.3232793e+2, -1598469.5, -1657494.0, -2715.6865, -0.011023798, -0.001345614, -1598344.8, 44841.688, 0.0, 5.0222692, 4.9837213 
2.8843337e+2, 1.3731194e+2, -1550761.6, -1610625.3, -2972.436, -0.0005710079, -0.0011067854, -1550614.4, 43728.902, 0.0, 5.02217, 4.98308 
2.8843686e+2, 1.4229408e+2, -1506052.8, -1569455.1, -4604.459, 0.0036677243, 0.0021061562, -1505720.1, 39797.984, 0.0, 5.021963, 4.9805665 
2.884386e+2, 1.4727464e+2, -1458893.3, -1522696.0, -4778.303, 0.000084070314, -0.0007836636, -1458537.4, 38171.234, 0.0, 5.021634, 4.9799914 
2.8843978e+2, 1.5225366e+2, -1414388.5, -1481355.3, -6014.9233, -0.0013945682, 0.0009139409, -1413852.6, 34061.668, 0.0, 5.0212793, 4.9776125 
2.8844053e+2, 1.5723138e+2, -1367288.8, -1434531.3, -6198.8896, -0.00019880607, -0.0011898814, -1366722.1, 32410.682, 0.0, 5.020898, 4.9770684 
2.8844053e+2, 1.6220756e+2, -1322847.8, -1393214.3, -7311.2207, 0.0003164936, 0.0015544998, -1322096.1, 28269.945, 0.0, 5.0204997, 4.9746766 
2.8843975e+2, 1.6718228e+2, -1275712.0, -1346205.3, -7461.4277, -0.00005252579, -0.0010379893, -1274930.9, 26682.85, 0.0, 5.0200834, 4.9741936 
2.8843847e+2, 1.7215556e+2, -1231355.1, -1305013.1, -8377.896, -0.00020336025, 0.0012344385, -1230414.3, 22461.393, 0.0, 5.019654, 4.9717464 
2.8843668e+2, 1.7712739e+2, -1184186.0, -1257860.8, -8505.085, -0.00005143615, -0.0010807338, -1183216.9, 20934.742, 0.0, 5.01921, 4.9713073 
2.8843445e+2, 1.820978e+2, -1139865.9, -1216736.9, -9239.851, 0.000028040242, 0.0013850859, -1138770.9, 16670.896, 0.0, 5.0187564, 4.9688244 
2.8843176e+2, 1.8706669e+2, -1092663.0, -1169469.9, -9344.909, 0.000025946201, -0.0011836519, -1091542.4, 15204.064, 0.0, 5.0182915, 4.968416 
2.884288e+2, 1.9203421e+2, -1048380.8, -1128433.3, -9886.568, 0.00002511255, 0.001409835, -1047177.9, 10886.994, 0.0, 5.017818, 4.965883 
2.8842548e+2, 1.9700018e+2, -1001119.25, -1081017.8, -9972.908, 0.000055762874, -0.0012168123, -999893.25, 9505.013, 0.0, 5.0173354, 4.965515 
2.88422e+2, 2.0196478e+2, -956855.9, -1040064.06, -10323.581, 0.0000655697, 0.0013916825, -955594.2, 5150.9883, 0.0, 5.0168486, 4.962936 
2.8841826e+2, 2.0692782e+2, -909542.2, -992548.0, -10384.798, 0.00006925145, -0.001272286, -908262.7, 3844.718, 0.0, 5.016356, 4.962589 
2.8841448e+2, 2.1188948e+2, -865286.56, -951685.6, -10550.766, 0.000065660905, 0.0014348446, -864016.8, -533.6306, 0.0, 5.0158615, 4.9599504 
2.8841057e+2, 2.1684955e+2, -817890.3, -904031.6, -10583.762, 0.00010246764, -0.0013773978, -816609.0, -1734.4788, 0.0, 5.0153646, 4.9596343 
2.8840673e+2, 2.2180822e+2, -773635.3, -863273.4, -10566.349, 0.0001077557, 0.0014757724, -772406.6, -6127.2446, 0.0, 5.0148673, 4.9569325 
2.8840292e+2, 2.267653e+2, -726154.8, -815502.6, -10567.964, 0.00011400846, -0.0013277209, -724921.8, -7221.7837, 0.0, 5.014372, 4.9566374 
2.8839922e+2, 2.3172097e+2, -681896.6, -774873.75, -10371.539, 0.000111281144, 0.0015315884, -680753.75, -11619.1455, 0.0, 5.0138783, 4.953861 
2.883957e+2, 2.3667498e+2, -634297.2, -726935.6, -10338.109, 0.00011228258, -0.0015913999, -633157.5, -12572.172, 0.0, 5.0133886, 4.953603 
2.8839236e+2, 2.4162757e+2, -590043.56, -686483.56, -9967.344, 0.00010451984, 0.0017574773, -589024.2, -16974.36, 0.0, 5.012904, 4.950728 
2.8838938e+2, 2.4657847e+2, -542284.25, -638316.7, -9891.961, 0.00009107939, -0.0016297759, -541275.94, -17744.963, 0.0, 5.0124273, 4.9505243 
2.8838664e+2, 2.5152794e+2, -498133.4, -598299.9, -9357.476, 0.00011620721, 0.0017343673, -497266.72, -22240.271, 0.0, 5.011958, 4.947462 
2.883844e+2, 2.5647566e+2, -450032.16, -549519.75, -9231.86, 0.00010629736, -0.0016556368, -449182.72, -22644.145, 0.0, 5.0114994, 4.947447 
2.883825e+2, 2.614219e+2, -406099.38, -510230.72, -8544.51, 0.00009007428, 0.0017447771, -405402.94, -27337.268, 0.0, 5.0110497, 4.944088 
2.8838122e+2, 2.6636642e+2, -357558.66, -460636.6, -8361.764, 0.000061798324, -0.0015632443, -356884.75, -27275.527, 0.0, 5.010615, 4.944331 
2.8838038e+2, 2.713093e+2, -313920.72, -422295.03, -7528.377, 0.00007120669, 0.0017973658, -313400.25, -32231.291, 0.0, 5.0101914, 4.9405885 
2.8838032e+2, 2.7625048e+2, -264938.5, -371898.3, -7280.2637, 0.00003493311, -0.0017465727, -264445.25, -31700.057, 0.0, 5.009786, 4.9410844 
2.883807e+2, 2.8119013e+2, -221195.75, -333632.28, -6323.4424, -0.0000030308852, 0.0023823644, -220841.25, -36504.434, 0.0, 5.0093937, 4.937266 
2.8838205e+2, 2.8612813e+2, -171772.17, -282454.03, -5999.9487, -0.000020680707, -0.0024928953, -171447.86, -35503.508, 0.0, 5.0090256, 4.9380083 
2.883839e+2, 2.9106382e+2, -130291.08, -249798.08, -4908.9917, 0.000027232423, 0.0017886888, -130089.766, -42515.008, 0.0, 5.0086713, 4.932144 
2.883869e+2, 2.959968e+2, -80943.2, -199071.33, -4508.1353, 0.00009657959, -0.00009371568, -80771.41, -41539.92, 0.0, 5.0083437, 4.9326878 
2.8839046e+2, 3.0093685e+2, -40033.89, -134940.6, -3254.9722, 0.00006120889, 0.0026678517, -39922.387, -39922.387, 0.0, 5.008032, 4.946992 
2.8839526e+2, 3.058846e+2, -39427.965, -132065.77, -2763.6875, -0.00008628534, -0.0052267876, -39345.586, -39345.586, 0.0, 5.0077505, 4.9481463 
2.8840077e+2, 3.108501e+2, -440.9477, -39484.19, -1269.2809, 0.000057844387, 0.0038494181, -399.7274, -399.7274, 0.0, 5.0074887, 4.9821515 
2.8840768e+2, 3.1583375e+2, 1142.3337, -34638.14, -652.86896, -0.00013575668, -0.0002803877, 1154.2424, 1154.2424, 0.0, 5.007267, 4.984035 
2.9344365e+2, 1.2235009e+2, -1685280.0, -1742676.6, 40.844776, -0.005086902, -0.004542207, -1685280.0, 55689.258, 0.0, 5.0243874, 4.986941 
2.9344973e+2, 1.2733811e+2, -1641009.6, -1700072.1, -2014.2468, 0.014166119, 0.014002522, -1640941.0, 51145.7, 0.0, 5.0237074, 4.9851975 
2.9345095e+2, 1.3231964e+2, -1596195.0, -1657168.3, -2648.815, -0.012036565, -0.011087367, -1596080.1, 47187.438, 0.0, 5.0231996, 4.9833755 
2.9345593e+2, 1.3730425e+2, -1549038.4, -1610559.3, -2902.9517, -0.0006265185, -0.001491835, -1548901.6, 45516.87, 0.0, 5.022914, 4.98274 
2.934592e+2, 1.4228651e+2, -1504402.0, -1569021.9, -4639.6646, 0.00400145, 0.0053392895, -1504070.5, 41521.797, 0.0, 5.022598, 4.980403 
2.9346058e+2, 1.472666e+2, -1457300.5, -1522277.5, -4819.558, 0.00012243225, -0.00063508755, -1456944.9, 39842.496, 0.0, 5.022247, 4.979835 
2.9346135e+2, 1.5224534e+2, -1412928.5, -1481054.9, -6101.675, -0.0014780505, -0.0001597005, -1412386.3, 35609.55, 0.0, 5.021859, 4.9774337 
2.934617e+2, 1.5722296e+2, -1365975.1, -1434306.8, -6281.9023, -0.00018822908, -0.0012461185, -1365402.4, 33812.684, 0.0, 5.0214295, 4.9768887 
2.9346126e+2, 1.6219904e+2, -1321624.3, -1392961.0, -7412.9365, 0.00036177435, 0.0019120284, -1320862.1, 29587.52, 0.0, 5.020986, 4.974529 
2.9346004e+2, 1.6717358e+2, -1274613.8, -1346009.3, -7565.3423, -0.000048507914, -0.0010187412, -1273821.0, 27878.105, 0.0, 5.020527, 4.974048 
2.9345834e+2, 1.721467e+2, -1230361.3, -1304829.5, -8502.955, -0.00021480503, 0.0011125891, -1229402.6, 23559.793, 0.0, 5.020054, 4.971618 
2.9345605e+2, 1.7711842e+2, -1183324.4, -1257738.5, -8633.3125, -0.000055188444, -0.0010924138, -1182335.9, 21903.66, 0.0, 5.019565, 4.971181 
2.9345337e+2, 1.8208872e+2, -1139108.3, -1216612.4, -9384.639, 0.000030524363, 0.0014204994, -1137988.1, 17542.602, 0.0, 5.0190654, 4.9687214 
2.934502e+2, 1.8705752e+2, -1092036.8, -1169403.9, -9492.899, 0.000025139832, -0.00118259, -1090889.0, 15947.41, 0.0, 5.0185547, 4.9683156 
2.9344672e+2, 1.9202493e+2, -1047856.2, -1128366.4, -10047.876, 0.00002097119, 0.0013936025, -1046621.2, 11534.602, 0.0, 5.018036, 4.965804 
2.934429e+2, 1.9699085e+2, -1000726.6, -1081010.0, -10136.904, 0.000055927583, -0.0012179944, -999466.5, 10023.376, 0.0, 5.0175076, 4.9654384 
2.934389e+2, 2.0195536e+2, -956564.75, -1040053.44, -10496.749, 0.00007069582, 0.0013999912, -955265.25, 5572.189, 0.0, 5.016975, 4.9628816 
2.9343465e+2, 2.0691836e+2, -909380.56, -992593.06, -10560.038, 0.000073097675, -0.0012672566, -908061.3, 4138.8354, 0.0, 5.0164366, 4.962537 
2.9343036e+2, 2.1187997e+2, -865228.56, -951728.25, -10730.253, 0.00007008971, 0.0014377579, -863917.3, -340.97714, 0.0, 5.0158954, 4.959921 
2.9342598e+2, 2.1684001e+2, -817960.7, -904128.8, -10764.028, 0.00010408303, -0.0013724704, -816636.4, -1668.4061, 0.0, 5.0153527, 4.959607 
2.9342157e+2, 2.2179867e+2, -773806.7, -863366.75, -10746.784, 0.00011273444, 0.0014825792, -772535.2, -6162.197, 0.0, 5.0148096, 4.9569273 
2.9341725e+2, 2.2675575e+2, -726453.4, -815648.56, -10748.3545, 0.00012288746, -0.0013187918, -725176.44, -7382.7407, 0.0, 5.014268, 4.956635 
2.93413e+2, 2.3171143e+2, -682296.56, -775016.4, -10547.489, 0.00012687105, 0.0015419842, -681111.9, -11883.712, 0.0, 5.013728, 4.953881 
2.9340896e+2, 2.3666546e+2, -634822.06, -727128.1, -10512.8125, 0.00013563521, -0.0015808812, -633639.9, -12961.2, 0.0, 5.0131927, 4.953625 
2.9340515e+2, 2.4161808e+2, -590668.3, -686672.4, -10132.323, 0.00013456804, 0.001764744, -589610.56, -17467.771, 0.0, 5.012663, 4.9507713 
2.9340163e+2, 2.4656904e+2, -543031.4, -638552.6, -10054.5625, 0.00012220627, -0.0016200718, -541984.5, -18360.988, 0.0, 5.0121403, 4.9505715 
2.9339844e+2, 2.5151852e+2, -498980.2, -598532.94, -9505.71, 0.0001506726, 0.0017445649, -498080.66, -22962.215, 0.0, 5.0116253, 4.94753 
2.933957e+2, 2.5646633e+2, -450998.1, -549796.44, -9376.607, 0.00013983925, -0.0016470861, -450116.1, -23486.197, 0.0, 5.0111213, 4.9475183 
2.9339334e+2, 2.6141265e+2, -407163.88, -510504.78, -8670.565, 0.00012571458, 0.0017526534, -406441.44, -28285.283, 0.0, 5.010627, 4.94418 
2.9339162e+2, 2.6635727e+2, -358738.9, -460950.66, -8482.487, 0.000098346405, -0.0015549753, -358039.75, -28340.941, 0.0, 5.0101476, 4.9444275 
2.933903e+2, 2.7130026e+2, -315198.88, -422609.6, -7626.0195, 0.00010672755, 0.0018069238, -314660.13, -33402.63, 0.0, 5.00968, 4.940703 
2.933898e+2, 2.7624157e+2, -266327.22, -372249.0, -7370.795, 0.00006796841, -0.0017361916, -265816.78, -32984.215, 0.0, 5.009231, 4.9412036 
2.9338977e+2, 2.8118134e+2, -222676.03, -333975.3, -6386.5674, 0.000029759334, 0.0023873013, -222310.77, -37887.83, 0.0, 5.0087957, 4.9374056 
2.9339072e+2, 2.8611952e+2, -173357.61, -282826.4, -6053.246, 0.0000119857905, -0.0025006675, -173023.89, -36994.836, 0.0, 5.0083847, 4.938154 
2.933922e+2, 2.9105532e+2, -131981.34, -250198.94, -4931.8013, 0.00006953569, 0.0017768058, -131775.95, -44117.945, 0.0, 5.007989, 4.9322968 
2.9339486e+2, 2.9598847e+2, -82737.53, -199509.83, -4518.6226, 0.00014785692, -0.00009298419, -82562.94, -43249.74, 0.0, 5.00762, 4.9328427 
2.9339808e+2, 3.0092868e+2, -41906.043, -135364.48, -3234.6216, 0.00009622782, 0.002674787, -41794.227, -41794.227, 0.0, 5.0072675, 4.947167 
2.9340258e+2, 3.058766e+2, -41400.63, -132513.25, -2729.8982, -0.00009362806, -0.0052276063, -41318.91, -41318.91, 0.0, 5.006945, 4.94833 
2.9340777e+2, 3.108423e+2, -2472.8826, -39893.008, -1199.6816, 0.00003517201, 0.0038404013, -2434.4604, -2434.4604, 0.0, 5.0066442, 4.9823623 
2.9341447e+2, 3.1582618e+2, -972.59845, -35049.74, -565.4846, -0.00023104419, -0.00028674465, -963.2173, -963.2173, 0.0, 5.0063844, 4.9842606 
2.9846805e+2, 1.223439e+2, -1684875.5, -1741685.6, 93.26096, -0.0049055507, -0.0069904127, -1684875.4, 56154.74, 0.0, 5.024351, 4.9872847 
2.9847342e+2, 1.2733242e+2, -1641833.0, -1702084.1, -2521.243, 0.014021694, 0.023374915, -1641727.8, 50414.777, 0.0, 5.023777, 4.984502 
2.9847422e+2, 1.3231169e+2, -1596405.0, -1658099.5, -2855.4792, -0.011819593, -0.018953757, -1596273.1, 47072.48, 0.0, 5.0233064, 4.9830165 
2.9847884e+2, 1.372967e+2, -1549344.1, -1611505.0, -3069.1416, -0.0006314906, -0.0018310292, -1549192.9, 45299.56, 0.0, 5.022981, 4.9823947 
2.984818e+2, 1.4227901e+2, -1504517.0, -1569462.9, -4840.3257, 0.003928451, 0.007946408, -1504158.3, 41507.758, 0.0, 5.0226407, 4.9802365 
2.984828e+2, 1.4725868e+2, -1457420.3, -1522702.6, -5030.7, 0.00014682466, -0.00050938176, -1457034.9, 39830.152, 0.0, 5.022284, 4.979676 
2.9848325e+2, 1.5223715e+2, -1413084.3, -1481536.4, -6371.0674, -0.0014197764, -0.0010283112, -1412496.3, 35579.746, 0.0, 5.021892, 4.9772577 
2.9848313e+2, 1.5721469e+2, -1366138.4, -1434793.3, -6551.074, -0.00016447717, -0.0012966722, -1365518.9, 33777.355, 0.0, 5.02146, 4.976712 
2.9848227e+2, 1.6219063e+2, -1321753.6, -1393365.4, -7701.4917, 0.00036783973, 0.0021979946, -1320934.8, 29597.293, 0.0, 5.0210137, 4.974381 
2.984806e+2, 1.67165e+2, -1274748.0, -1346411.1, -7855.0015, -0.00004174731, -0.001006687, -1273897.1, 27886.053, 0.0, 5.0205517, 4.973902 
2.984784e+2, 1.7213798e+2, -1230479.1, -1305184.3, -8813.619, -0.0002053634, 0.0010082882, -1229453.4, 23594.615, 0.0, 5.020076, 4.9714894 
2.9847565e+2, 1.7710957e+2, -1183448.3, -1258091.6, -8944.819, -0.000054095122, -0.0011065749, -1182391.3, 21934.967, 0.0, 5.019583, 4.9710536 
2.9847243e+2, 1.8207976e+2, -1139209.4, -1216902.9, -9710.625, 0.000031196938, 0.0014432085, -1138014.1, 17604.443, 0.0, 5.0190806, 4.968617 
2.9846874e+2, 1.8704845e+2, -1092143.4, -1169690.0, -9819.425, 0.00002422421, -0.0011875558, -1090919.3, 16005.993, 0.0, 5.018566, 4.968214 
2.9846475e+2, 1.9201578e+2, -1047942.3, -1128593.0, -10386.582, 0.000016755668, 0.0013769242, -1046626.2, 11619.361, 0.0, 5.0180445, 4.9657245 
2.9846042e+2, 1.969816e+2, -1000820.25, -1081236.1, -10475.92, 0.000054767883, -0.0012189831, -999477.94, 10102.43, 0.0, 5.0175123, 4.96536 
2.9845586e+2, 2.0194608e+2, -956637.06, -1040217.06, -10842.958, 0.000070559116, 0.0014084405, -955253.3, 5675.3145, 0.0, 5.016976, 4.9628263 
2.9845113e+2, 2.06909e+2, -909459.4, -992753.56, -10906.651, 0.0000717342, -0.0012607388, -908054.94, 4236.907, 0.0, 5.0164337, 4.9624844 
2.9844627e+2, 2.1187058e+2, -865287.0, -951827.1, -11079.786, 0.00006750926, 0.0014456809, -863890.94, -222.49443, 0.0, 5.015889, 4.959891 
2.9844132e+2, 2.1683058e+2, -818026.0, -904225.2, -11113.259, 0.000093954375, -0.0013633694, -816616.25, -1555.9019, 0.0, 5.0153427, 4.9595795 
2.984364e+2, 2.2178924e+2, -773852.25, -863402.4, -11095.749, 0.00010763613, 0.0014934082, -772497.9, -6032.385, 0.0, 5.0147963, 4.9569225 
2.9843152e+2, 2.267463e+2, -726505.4, -815680.8, -11096.731, 0.000120138255, -0.0013038907, -725145.25, -7259.0396, 0.0, 5.0142508, 4.9566326 
2.9842675e+2, 2.3170199e+2, -682329.75, -774989.25, -10891.291, 0.00013110632, 0.0015590705, -681066.8, -11746.168, 0.0, 5.0137076, 4.9539003 
2.984222e+2, 2.3665604e+2, -634861.25, -727096.3, -10855.6875, 0.00014740053, -0.0015672497, -633600.8, -12829.861, 0.0, 5.0131683, 4.953648 
2.984178e+2, 2.4160871e+2, -590690.1, -686583.25, -10466.102, 0.0001518697, 0.0017728587, -589561.1, -17326.354, 0.0, 5.0126343, 4.950816 
2.9841378e+2, 2.4655971e+2, -543059.4, -638458.2, -10387.017, 0.00014225658, -0.0016076422, -541941.56, -18226.58, 0.0, 5.0121083, 4.9506197 
2.9841006e+2, 2.5150925e+2, -498992.75, -598383.7, -9825.062, 0.00017249088, 0.0017583023, -498030.8, -22821.47, 0.0, 5.0115895, 4.947599 
2.9840684e+2, 2.5645715e+2, -451016.84, -549640.4, -9694.215, 0.00016157523, -0.0016395588, -450072.97, -23352.916, 0.0, 5.0110817, 4.947592 
2.9840395e+2, 2.6140353e+2, -407169.06, -510296.28, -8971.555, 0.00015246971, 0.0017579634, -406394.38, -28148.842, 0.0, 5.010583, 4.944273 
2.9840174e+2, 2.6634827e+2, -358750.38, -460734.47, -8780.5625, 0.00012469444, -0.0015497431, -357999.9, -28212.684, 0.0, 5.010099, 4.9445257 
2.9839996e+2, 2.7129135e+2, -315200.03, -422346.44, -7903.699, 0.00012974764, 0.0018109122, -314620.16, -33275.277, 0.0, 5.009627, 4.9408193 
2.9839903e+2, 2.7623278e+2, -266335.84, -371978.13, -7644.3, 0.00009086672, -0.0017349322, -265785.56, -32866.81, 0.0, 5.0091734, 4.941325 
2.9839855e+2, 2.8117266e+2, -222673.39, -333652.63, -6636.031, 0.00005410023, 0.0023809578, -222278.0, -37770.13, 0.0, 5.0087333, 4.9375477 
2.9839912e+2, 2.86111e+2, -173361.2, -282491.9, -6296.4097, 0.000036877005, -0.0025214357, -172999.14, -36886.586, 0.0, 5.0083175, 4.938303 
2.984002e+2, 2.9104698e+2, -131991.0, -249850.31, -5148.418, 0.000102776794, 0.0017509748, -131766.52, -44026.52, 0.0, 5.0079165, 4.932452 
2.984025e+2, 2.9598024e+2, -82760.15, -199161.75, -4727.169, 0.00018443848, -0.00010628021, -82568.49, -43174.867, 0.0, 5.007542, 4.9330006 
2.9840535e+2, 3.0092067e+2, -41922.31, -134971.38, -3415.1907, 0.00011248933, 0.0026672045, -41797.13, -41797.13, 0.0, 5.007184, 4.947345 
2.9840952e+2, 3.0586874e+2, -41424.004, -132102.89, -2901.1265, -0.00011623393, -0.005242693, -41331.28, -41331.28, 0.0, 5.006855, 4.948517 
2.984144e+2, 3.1083465e+2, -2485.5408, -39424.563, -1334.979, -0.0000045012803, 0.0038215697, -2437.3574, -2437.3574, 0.0, 5.006547, 4.982577 
2.9842085e+2, 3.1581873e+2, -989.73865, -34549.82, -687.50555, -0.00034731993, -0.00031800175, -975.6604, -975.6604, 0.0, 5.006279, 4.9844904 
3.0349267e+2, 1.2233793e+2, -1682910.6, -1740005.8, 443.20856, -0.0044293175, -0.008027664, -1682907.1, 58181.363, 0.0, 5.0248528, 4.987591 
3.034975e+2, 1.2732558e+2, -1640117.5, -1702761.6, -2625.3792, 0.012235454, 0.020096917, -1640007.8, 52201.7, 0.0, 5.024677, 4.9838386 
3.0349824e+2, 1.32305e+2, -1593719.8, -1657369.9, -2975.2988, -0.010240002, -0.016195856, -1593581.0, 49830.277, 0.0, 5.024331, 4.9827576 
3.035023e+2, 1.372895e+2, -1547219.9, -1611015.9, -3092.446, -0.00056932465, -0.0017278921, -1547070.4, 47492.734, 0.0, 5.023812, 4.982153 
3.0350477e+2, 1.4227147e+2, -1502722.9, -1569039.5, -4791.5454, 0.0034073987, 0.0070122154, -1502378.5, 43361.277, 0.0, 5.02334, 4.980038 
3.0350542e+2, 1.4725105e+2, -1455792.4, -1522358.3, -5019.7, 0.0001541536, -0.0005509779, -1455416.0, 41523.906, 0.0, 5.022928, 4.97948 
3.0350545e+2, 1.5222937e+2, -1411565.0, -1481183.1, -6425.5757, -0.0012002514, -0.0007164123, -1410976.9, 37175.473, 0.0, 5.0224867, 4.9770894 
3.0350488e+2, 1.5720671e+2, -1364746.4, -1434499.5, -6602.0356, -0.000119147866, -0.0012855113, -1364127.0, 35247.402, 0.0, 5.022012, 4.976546 
3.0350354e+2, 1.6218248e+2, -1320471.3, -1393092.3, -7772.689, 0.00033746735, 0.0020856326, -1319648.6, 30963.28, 0.0, 5.021522, 4.97423 
3.035014e+2, 1.6715671e+2, -1273598.3, -1346200.6, -7933.232, -0.000026377558, -0.001019148, -1272741.5, 29122.941, 0.0, 5.021015, 4.9737525 
3.034987e+2, 1.7212954e+2, -1229434.3, -1304978.1, -8917.006, -0.00016694039, 0.0010349589, -1228396.0, 24734.574, 0.0, 5.020494, 4.9713607 
3.0349544e+2, 1.7710103e+2, -1182537.4, -1257946.1, -9051.233, -0.00003883137, -0.001115428, -1181466.1, 22943.908, 0.0, 5.0199556, 4.9709272 
3.034917e+2, 1.8207107e+2, -1138406.0, -1216762.6, -9834.224, 0.000033876506, 0.001421287, -1137190.6, 18512.926, 0.0, 5.019407, 4.968511 
3.0348745e+2, 1.8703967e+2, -1091476.1, -1169610.0, -9946.47, 0.000027840073, -0.0011961213, -1090229.9, 16781.445, 0.0, 5.0188446, 4.968111 
3.0348295e+2, 1.9200692e+2, -1047382.94, -1128514.8, -10528.547, 0.000020461914, 0.0013763339, -1046038.9, 12293.491, 0.0, 5.0182753, 4.9656434 
3.0347803e+2, 1.9697265e+2, -1000396.0, -1081217.6, -10620.755, 0.000058636113, -0.0012221093, -999023.6, 10644.39, 0.0, 5.017696, 4.9652815 
3.0347294e+2, 2.0193706e+2, -956320.75, -1040198.1, -10996.066, 0.000073298375, 0.0014055629, -954903.2, 6113.7837, 0.0, 5.017112, 4.9627705 
3.034676e+2, 2.0689993e+2, -909278.9, -992793.06, -11061.4375, 0.00007135834, -0.0012615634, -907838.6, 4542.0586, 0.0, 5.0165215, 4.962431 
3.0346215e+2, 2.1186146e+2, -865212.94, -951864.4, -11238.622, 0.00006680316, 0.0014451524, -863779.0, -21.318651, 0.0, 5.0159287, 4.9598603 
3.0345663e+2, 2.1682146e+2, -818087.3, -904320.1, -11272.864, 0.000084688865, -0.001362994, -816638.0, -1488.1449, 0.0, 5.015334, 4.959552 
3.0345115e+2, 2.2178009e+2, -774020.3, -863494.5, -11255.209, 0.0000986708, 0.0014937575, -772626.2, -6070.983, 0.0, 5.0147395, 4.9569173 
3.034457e+2, 2.2673716e+2, -726806.4, -815827.7, -11255.784, 0.000109881235, -0.0013032815, -725405.25, -7429.3545, 0.0, 5.0141454, 4.9566307 
3.0344036e+2, 2.3169284e+2, -682737.1, -775133.44, -11045.222, 0.00012596512, 0.001557634, -681435.06, -12024.852, 0.0, 5.013554, 4.953921 
3.0343524e+2, 2.366469e+2, -635398.6, -727292.06, -11008.193, 0.00014841123, -0.0015703833, -634098.3, -13238.036, 0.0, 5.0129676, 4.953672 
3.034303e+2, 2.4159962e+2, -591333.2, -686777.06, -10608.63, 0.00015869694, 0.0017691955, -590168.25, -17844.443, 0.0, 5.012386, 4.9508615 
3.0342573e+2, 2.4655068e+2, -543830.0, -638700.6, -10527.274, 0.00015147189, -0.0016070053, -542675.9, -18872.37, 0.0, 5.0118117, 4.950669 
3.0342147e+2, 2.5150028e+2, -499867.63, -598623.44, -9950.495, 0.00018175338, 0.0017593532, -498875.0, -23577.658, 0.0, 5.0112457, 4.9476695 
3.0341768e+2, 2.5644824e+2, -452016.4, -549925.3, -9816.361, 0.00017107221, -0.0016422634, -451041.94, -24234.62, 0.0, 5.01069, 4.9476666 
3.0341431e+2, 2.613947e+2, -408272.2, -510579.97, -9074.591, 0.0001677423, 0.0017538235, -407473.53, -29141.555, 0.0, 5.0101447, 4.9443684 
3.034116e+2, 2.6633954e+2, -359973.06, -461058.78, -8878.511, 0.00014036636, -0.0015538201, -359199.16, -29326.504, 0.0, 5.0096145, 4.944626 
3.0340934e+2, 2.7128273e+2, -316525.47, -422671.97, -7978.5024, 0.00014567719, 0.0018074922, -315929.13, -34499.87, 0.0, 5.009096, 4.9409385 
3.034079e+2, 2.7622432e+2, -267778.38, -372341.75, -7712.316, 0.0001172123, -0.00174267, -267212.6, -34210.69, 0.0, 5.008597, 4.9414496 
3.0340698e+2, 2.8116435e+2, -224213.66, -334010.47, -6675.915, 0.000086604574, 0.002366271, -223809.23, -39219.51, 0.0, 5.0081115, 4.937692 
3.0340704e+2, 2.8610277e+2, -175010.73, -282880.16, -6327.052, 0.000058843852, -0.0025462685, -174640.89, -38447.957, 0.0, 5.0076513, 4.938454 
3.0340776e+2, 2.910389e+2, -133749.2, -250265.7, -5148.3086, 0.0001255859, 0.0017212479, -133522.17, -45703.3, 0.0, 5.007206, 4.9326115 
3.034096e+2, 2.9597238e+2, -84628.9, -199615.92, -4715.543, 0.0002171795, -0.00013213581, -84435.836, -44964.957, 0.0, 5.0067883, 4.933163 
3.0341208e+2, 3.0091295e+2, -43875.598, -135413.05, -3374.0906, 0.00013453992, 0.002640637, -43751.395, -43751.395, 0.0, 5.0063868, 4.9475274 
3.034159e+2, 3.0586123e+2, -43483.3, -132569.63, -2847.1997, -0.00011834191, -0.0052652475, -43392.4, -43392.4, 0.0, 5.006015, 4.948709 
3.0342045e+2, 3.1082734e+2, -4609.7544, -39855.19, -1245.0002, -0.000010315653, 0.0038010445, -4565.831, -4565.831, 0.0, 5.005665, 4.9827957 
3.0342656e+2, 3.158116e+2, -3202.4749, -34985.723, -581.00195, -0.00038858945, -0.0004063379, -3191.8577, -3191.8577, 0.0, 5.0053577, 4.984724 
3.0851763e+2, 1.2233266e+2, -1682433.9, -1739142.5, 639.83154, -0.0035208948, -0.0026871888, -1682426.6, 58713.44, 0.0, 5.024876, 4.9878635 
3.0852193e+2, 1.2731819e+2, -1640963.9, -1704650.3, -2779.4124, 0.0096106995, 0.010390422, -1640842.8, 51438.984, 0.0, 5.02471, 4.983201 
3.0852276e+2, 1.3229895e+2, -1593900.3, -1657944.5, -3314.3591, -0.0079776915, -0.008113466, -1593729.1, 49741.375, 0.0, 5.024374, 4.9825473 
3.0852613e+2, 1.3728249e+2, -1547344.4, -1611518.8, -3419.7915, -0.00046883497, -0.0013802218, -1547162.6, 47469.12, 0.0, 5.023864, 4.9819617 
3.08528e+2, 1.4226396e+2, -1502882.5, -1569616.6, -5034.2466, 0.002661906, 0.0043098093, -1502504.9, 43308.54, 0.0, 5.0233927, 4.9798217 
3.085284e+2, 1.4724357e+2, -1455982.1, -1522951.9, -5262.3057, 0.00015053054, -0.0006865966, -1455571.1, 41442.02, 0.0, 5.02297, 4.9792624 
3.0852798e+2, 1.522218e+2, -1411699.4, -1481633.1, -6713.4688, -0.00090114854, 0.0001820727, -1411060.8, 37165.734, 0.0, 5.0225224, 4.976923 
3.085269e+2, 1.5719888e+2, -1364881.5, -1434942.0, -6892.59, -0.00006421902, -0.0012415088, -1364209.8, 35241.23, 0.0, 5.0220456, 4.9763827 
3.0852506e+2, 1.6217446e+2, -1320600.6, -1393511.1, -8086.251, 0.000287373, 0.0017740282, -1319714.5, 30975.838, 0.0, 5.0215526, 4.974076 
3.085224e+2, 1.6714858e+2, -1273735.5, -1346619.8, -8248.189, -0.000008387849, -0.0010449828, -1272813.8, 29130.35, 0.0, 5.021042, 4.9736 
3.0851918e+2, 1.7212127e+2, -1229548.5, -1305333.5, -9254.46, -0.0001151695, 0.0011259702, -1228434.8, 24776.793, 0.0, 5.0205173, 4.971231 
3.0851537e+2, 1.7709263e+2, -1182657.3, -1258298.5, -9390.02, -0.000017170649, -0.001122906, -1181509.0, 22983.416, 0.0, 5.0199757, 4.9708 
3.085111e+2, 1.8206257e+2, -1138506.5, -1217058.6, -10188.941, 0.00003522335, 0.0013769537, -1137206.5, 18580.56, 0.0, 5.019423, 4.9684043 
3.085063e+2, 1.8703105e+2, -1091584.1, -1169904.8, -10302.169, 0.000030957515, -0.001208604, -1090251.8, 16844.072, 0.0, 5.0188575, 4.968006 
3.085012e+2, 1.919982e+2, -1047469.75, -1128747.3, -10896.455, 0.000025678077, 0.0013822176, -1046034.25, 12383.527, 0.0, 5.0182843, 4.965561 
3.0849573e+2, 1.9696386e+2, -1000489.1, -1081446.3, -10989.179, 0.000061381084, -0.0012284019, -999023.94, 10730.288, 0.0, 5.017701, 4.965202 
3.0849004e+2, 2.019282e+2, -956393.3, -1040364.94, -11372.292, 0.000072668234, 0.0013949057, -954880.44, 6223.4033, 0.0, 5.017113, 4.9627137 
3.084841e+2, 2.0689102e+2, -909358.75, -992957.4, -11437.99, 0.00006522819, -0.001268089, -907822.06, 4646.0415, 0.0, 5.016519, 4.962377 
3.084781e+2, 2.118525e+2, -865272.06, -951965.3, -11618.452, 0.000060485305, 0.0014373173, -863741.94, 103.53631, 0.0, 5.0159225, 4.95983 
3.0847198e+2, 2.1681246e+2, -818153.9, -904418.75, -11652.615, 0.000069182955, -0.0013699715, -816607.56, -1369.6168, 0.0, 5.0153236, 4.9595237 
3.0846587e+2, 2.2177109e+2, -774066.6, -863530.3, -11634.356, 0.000079609825, 0.0014860205, -772578.4, -5934.902, 0.0, 5.014725, 4.9569125 
3.0845985e+2, 2.2672816e+2, -726859.4, -815859.5, -11634.627, 0.00008788554, -0.0013125377, -725363.56, -7299.343, 0.0, 5.0141277, 4.956629 
3.0845392e+2, 2.3168384e+2, -682770.94, -775104.44, -11419.33, 0.00010828802, 0.0015430588, -681379.6, -11881.216, 0.0, 5.0135326, 4.953942 
3.0844823e+2, 2.3663794e+2, -635438.6, -727257.9, -11381.607, 0.00013567062, -0.0015863602, -634048.8, -13100.569, 0.0, 5.012942, 4.9536963 
3.0844268e+2, 2.4159068e+2, -591355.9, -686684.94, -10972.94, 0.00015167582, 0.0017563654, -590109.1, -17697.7, 0.0, 5.0123563, 4.9509077 
3.0843753e+2, 2.4654178e+2, -543858.75, -638602.25, -10890.393, 0.0001466092, -0.0016165113, -542623.06, -18732.387, 0.0, 5.011779, 4.950719 
3.084327e+2, 2.5149146e+2, -499880.03, -598467.7, -10300.408, 0.00017487927, 0.0017485438, -498815.34, -23431.477, 0.0, 5.0112085, 4.9477415 
3.0842838e+2, 2.5643948e+2, -452034.97, -549762.4, -10164.868, 0.0001637765, -0.0016551199, -450988.88, -24095.783, 0.0, 5.010649, 4.947743 
3.0842444e+2, 2.6138604e+2, -408277.1, -510363.84, -9405.91, 0.00016574447, 0.001739529, -407417.72, -29000.787, 0.0, 5.010099, 4.944465 
3.084212e+2, 2.6633096e+2, -359984.16, -460833.84, -9206.948, 0.00013861113, -0.0015688626, -359150.5, -29193.889, 0.0, 5.009565, 4.944728 
3.0841842e+2, 2.712743e+2, -316526.03, -422398.7, -8286.631, 0.00014480726, 0.001794426, -315881.38, -34369.23, 0.0, 5.009042, 4.9410596 
3.084165e+2, 2.7621597e+2, -267785.8, -372059.53, -8016.411, 0.00013059998, -0.0017615225, -267173.13, -34089.586, 0.0, 5.008538, 4.941576 
3.0841506e+2, 2.8115612e+2, -224209.8, -333675.94, -6954.963, 0.00010729474, 0.0023404832, -223769.67, -39099.633, 0.0, 5.008047, 4.937839 
3.084147e+2, 2.8609473e+2, -175013.44, -282533.63, -6599.6567, 0.000062910796, -0.002580323, -174609.86, -38338.105, 0.0, 5.007582, 4.938608 
3.0841494e+2, 2.91031e+2, -133756.86, -249901.39, -5393.961, 0.00012558249, 0.0016821758, -133506.89, -45610.75, 0.0, 5.0071316, 4.9327736 
3.0841643e+2, 2.9596466e+2, -84649.305, -199250.42, -4953.2607, 0.00022890622, -0.00017187222, -84435.61, -44889.08, 0.0, 5.006708, 4.933328 
3.0841848e+2, 3.009054e+2, -43889.555, -135001.4, -3584.2102, 0.00013896909, 0.0025969965, -43748.773, -43748.773, 0.0, 5.0063004, 4.9477134 
3.084219e+2, 3.0585384e+2, -43503.684, -132139.58, -3048.4343, -0.0001308278, -0.005299378, -43398.965, -43398.965, 0.0, 5.0059223, 4.9489045 
3.084261e+2, 3.108202e+2, -4620.082, -39368.805, -1408.8955, -0.000026892154, 0.003773785, -4563.052, -4563.052, 0.0, 5.0055647, 4.983018 
3.0843195e+2, 3.158047e+2, -3218.2168, -34469.35, -731.1223, -0.0004355628, -0.00052446715, -3201.1216, -3201.1216, 0.0, 5.0052495, 4.984961 
3.1354302e+2, 1.2232688e+2, -1680380.0, -1738584.3, 577.09564, -0.0024171358, 0.0008506198, -1680374.4, 60822.426, 0.0, 5.0256586, 4.9876633 
3.1354672e+2, 1.2731053e+2, -1638947.3, -1704176.9, -2804.8337, 0.006559861, -0.0025144643, -1638826.9, 53529.914, 0.0, 5.0254955, 4.9829726 
3.1354782e+2, 1.3229348e+2, -1591733.4, -1657183.0, -3362.073, -0.0054293033, 0.0026501904, -1591561.1, 51963.074, 0.0, 5.025164, 4.982414 
3.135504e+2, 1.3727586e+2, -1545171.1, -1610742.8, -3418.6255, -0.00034516345, -0.0008867302, -1544993.4, 49703.348, 0.0, 5.024655, 4.9818344 
3.1355172e+2, 1.4225675e+2, -1500959.9, -1569202.0, -4978.2764, 0.0018245057, 0.000712436, -1500598.6, 45285.406, 0.0, 5.024151, 4.9795923 
3.135517e+2, 1.4723647e+2, -1454286.5, -1522662.3, -5224.7715, 0.00013699426, -0.0008807751, -1453889.6, 43193.207, 0.0, 5.023656, 4.979028 
3.1355086e+2, 1.5221463e+2, -1410089.6, -1481242.1, -6714.0444, -0.00057545886, 0.0013755994, -1409461.6, 38835.18, 0.0, 5.023149, 4.9767523 
3.1354925e+2, 1.5719144e+2, -1363395.6, -1434604.0, -6901.236, -0.000009696199, -0.0011735165, -1362733.0, 36791.023, 0.0, 5.0226293, 4.976216 
3.135469e+2, 1.621668e+2, -1319239.6, -1393217.3, -8126.8916, 0.0002275004, 0.0013662813, -1318357.3, 32408.133, 0.0, 5.0220914, 4.9739175 
3.1354374e+2, 1.671408e+2, -1272520.1, -1346395.3, -8296.742, 0.0000127805315, -0.0010815414, -1271599.8, 30420.543, 0.0, 5.0215316, 4.9734426 
3.1353995e+2, 1.7211337e+2, -1228441.8, -1305105.4, -9329.574, -0.000057537505, 0.0012473632, -1227322.8, 25966.29, 0.0, 5.0209584, 4.9710994 
3.1353554e+2, 1.7708458e+2, -1181690.1, -1258132.4, -9469.996, 0.0000073196293, -0.0011293872, -1180534.5, 24036.82, 0.0, 5.020368, 4.9706707 
3.135307e+2, 1.8205439e+2, -1137651.6, -1216900.5, -10288.41, 0.000039601946, 0.0013165239, -1136337.8, 19529.398, 0.0, 5.0197678, 4.968296 
3.1352532e+2, 1.8702278e+2, -1090871.3, -1169811.1, -10406.435, 0.000038833838, -0.0012303871, -1089522.5, 17654.348, 0.0, 5.019153, 4.9678993 
3.1351963e+2, 1.9198982e+2, -1046871.06, -1128655.1, -11014.728, 0.000036270412, 0.0013801913, -1045413.56, 13086.221, 0.0, 5.01853, 4.9654784 
3.1351352e+2, 1.9695541e+2, -1000031.9, -1081416.0, -11110.116, 0.00006796847, -0.0012435771, -998542.44, 11294.571, 0.0, 5.017897, 4.9651217 
3.1350723e+2, 2.0191967e+2, -956049.1, -1040336.44, -11503.01, 0.000078049576, 0.0013741473, -954507.44, 6679.8145, 0.0, 5.017259, 4.9626565 
3.1350067e+2, 2.0688245e+2, -909157.0, -992990.9, -11570.387, 0.00006655127, -0.0012808748, -907589.44, 4962.633, 0.0, 5.0166144, 4.9623218 
3.1349406e+2, 2.118439e+2, -865181.56, -951997.0, -11755.095, 0.000060828937, 0.0014297285, -863618.06, 311.85876, 0.0, 5.0159683, 4.959799 
3.134873e+2, 2.1680382e+2, -818205.4, -904510.9, -11790.076, 0.000058482165, -0.0013769424, -816623.75, -1301.1173, 0.0, 5.015319, 4.959495 
3.134806e+2, 2.2176242e+2, -774230.94, -863620.9, -11770.966, 0.00006410344, 0.0014792242, -772706.94, -5978.632, 0.0, 5.0146694, 4.9569077 
3.134739e+2, 2.267195e+2, -727163.4, -816007.5, -11771.2, 0.00007100644, -0.0013172213, -725630.2, -7481.1426, 0.0, 5.0140214, 4.956627 
3.1346738e+2, 2.316752e+2, -683187.1, -775251.7, -11550.612, 0.00009183633, 0.0015406375, -681760.06, -12176.878, 0.0, 5.013376, 4.9539623 
3.1346104e+2, 2.3662932e+2, -635990.7, -727458.6, -11511.979, 0.0001188807, -0.0015842295, -634564.06, -13531.307, 0.0, 5.0127354, 4.9537206 
3.1345493e+2, 2.415821e+2, -592019.9, -686885.1, -11093.379, 0.00013961704, 0.0017631293, -590739.9, -18244.305, 0.0, 5.0120997, 4.9509544 
3.1344914e+2, 2.4653323e+2, -544656.1, -638852.6, -11008.582, 0.00013451495, -0.0016085027, -543386.6, -19412.324, 0.0, 5.0114717, 4.95077 
3.1344372e+2, 2.5148296e+2, -500787.28, -598717.2, -10403.744, 0.00015876695, 0.001757384, -499694.22, -24227.266, 0.0, 5.010852, 4.9478145 
3.134388e+2, 2.564311e+2, -453071.84, -550058.5, -10265.437, 0.00014417316, -0.0016426151, -451997.22, -25021.81, 0.0, 5.0102434, 4.9478207 
3.134343e+2, 2.6137772e+2, -409422.7, -510659.63, -9487.011, 0.00014993073, 0.0017544938, -408541.3, -30042.924, 0.0, 5.0096445, 4.944564 
3.134305e+2, 2.6632276e+2, -361255.8, -461172.28, -9283.372, 0.00013101063, -0.0015597522, -360400.63, -30363.56, 0.0, 5.0090613, 4.9448314 
3.1342715e+2, 2.7126616e+2, -317906.47, -422739.5, -8339.631, 0.00014133802, 0.0017987379, -317247.2, -35655.723, 0.0, 5.0084896, 4.9411826 
3.1342468e+2, 2.76208e+2, -269287.5, -372439.4, -8062.8315, 0.00013338386, -0.001765156, -268661.1, -35499.457, 0.0, 5.007938, 4.9417048 
3.134228e+2, 2.8114828e+2, -225814.08, -334051.28, -6972.776, 0.00011448891, 0.0023307921, -225366.73, -40619.957, 0.0, 5.0074, 4.9379888 
3.134219e+2, 2.8608707e+2, -176733.36, -282941.47, -6608.273, 0.0000625007, -0.0025965835, -176323.77, -39976.816, 0.0, 5.006888, 4.9387646 
3.1342167e+2, 2.910235e+2, -135590.23, -250334.38, -5371.1816, 0.00012574415, 0.0016571634, -135339.36, -47369.586, 0.0, 5.006391, 4.93294 
3.1342268e+2, 2.959573e+2, -86598.82, -199722.58, -4918.852, 0.00023584731, -0.0002106041, -86385.336, -46766.85, 0.0, 5.005922, 4.9334984 
3.1342432e+2, 3.0089822e+2, -45929.246, -135463.0, -3520.2935, 0.00014140931, 0.0025454413, -45791.047, -45791.047, 0.0, 5.0054684, 4.9479036 
3.1342736e+2, 3.058469e+2, -45651.93, -132626.9, -2971.9211, -0.0001244648, -0.0053313887, -45550.496, -45550.496, 0.0, 5.0050464, 4.9491043 
3.1343117e+2, 3.1081343e+2, -6835.8574, -39821.688, -1296.2451, -0.0000037368784, 0.0037555427, -6784.9976, -6784.9976, 0.0, 5.004646, 4.9832444 
3.1343666e+2, 3.1579816e+2, -5526.444, -34930.9, -601.842, -0.0003832529, -0.0006701653, -5514.131, -5514.131, 0.0, 5.00429, 4.9852014 
3.185688e+2, 1.2232106e+2, -1680779.8, -1739927.6, 714.244, -0.001226816, 0.0052173194, -1680771.1, 60482.65, 0.0, 5.025772, 4.987166 
3.185719e+2, 1.2730283e+2, -1638904.5, -1704228.1, -2876.5012, 0.0032837503, -0.01669797, -1638778.0, 53654.3, 0.0, 5.0255246, 4.982942 
3.1857324e+2, 1.322883e+2, -1591882.1, -1657490.3, -3649.7393, -0.0027369743, 0.014428937, -1591679.8, 51895.203, 0.0, 5.025164, 4.9823127 
3.1857508e+2, 1.3726945e+2, -1545220.1, -1611002.4, -3725.2207, -0.00020655508, -0.00031981542, -1545009.9, 49749.62, 0.0, 5.0246882, 4.981733 
3.185758e+2, 1.4224972e+2, -1501157.8, -1569846.4, -5280.139, 0.0009404867, -0.0032236276, -1500754.3, 45198.61, 0.0, 5.0242004, 4.9793553 
3.1857535e+2, 1.4722958e+2, -1454506.9, -1523332.5, -5519.801, 0.00011651092, -0.0011054284, -1454067.0, 43083.28, 0.0, 5.0237007, 4.978784 
3.1857407e+2, 1.5220769e+2, -1410221.9, -1481711.5, -7023.341, -0.00023733485, 0.0026808102, -1409538.4, 38826.47, 0.0, 5.0231895, 4.9765773 
3.185719e+2, 1.571842e+2, -1363529.9, -1435063.9, -7213.8374, 0.00004330214, -0.0010929909, -1362809.8, 36785.3, 0.0, 5.022667, 4.976045 
3.18569e+2, 1.6215935e+2, -1319370.1, -1393654.5, -8469.266, 0.00016128439, 0.00092246477, -1318416.8, 32421.773, 0.0, 5.0221252, 4.973756 
3.1856525e+2, 1.6713321e+2, -1272660.3, -1346834.8, -8640.133, 0.00003461633, -0.0011240073, -1271667.1, 30427.418, 0.0, 5.021561, 4.9732814 
3.185609e+2, 1.7210567e+2, -1228554.9, -1305470.8, -9694.636, 0.00000094143536, 0.0013810463, -1227351.8, 26012.822, 0.0, 5.020984, 4.970965 
3.1855595e+2, 1.7707673e+2, -1181809.6, -1258493.9, -9836.33, 0.00003165987, -0.00113449, -1180568.0, 24080.29, 0.0, 5.02039, 4.9705396 
3.1855047e+2, 1.820464e+2, -1137751.5, -1217203.4, -10672.232, 0.00004460225, 0.0012488049, -1136342.9, 19602.432, 0.0, 5.019786, 4.9681864 
3.185445e+2, 1.870147e+2, -1090979.5, -1170113.1, -10792.332, 0.00004697983, -0.001257106, -1089534.0, 17722.053, 0.0, 5.019167, 4.9677916 
3.1853816e+2, 1.9198164e+2, -1046956.8, -1128891.1, -11412.858, 0.000045995755, 0.00137295, -1045396.75, 13183.169, 0.0, 5.01854, 4.9653945 
3.1853142e+2, 1.9694714e+2, -1000125.2, -1081649.8, -11509.102, 0.00007174575, -0.0012636618, -998531.56, 11386.401, 0.0, 5.0179033, 4.96504 
3.1852448e+2, 2.0191135e+2, -956121.5, -1040506.6, -11910.678, 0.000081954735, 0.001347361, -954472.56, 6796.3774, 0.0, 5.0172615, 4.962599 
3.185173e+2, 2.0687406e+2, -909237.44, -993159.3, -11978.147, 0.00006613331, -0.0012990017, -907561.25, 5072.997, 0.0, 5.0166125, 4.9622664 
3.1851e+2, 2.1183546e+2, -865240.9, -952100.4, -12166.609, 0.000057525038, 0.0014208319, -863568.8, 443.6895, 0.0, 5.015962, 4.9597673 
3.1850263e+2, 2.1679537e+2, -818272.44, -904611.4, -12202.014, 0.000042768057, -0.0013860544, -816581.06, -1175.559, 0.0, 5.0153084, 4.9594665 
3.1849524e+2, 2.2175395e+2, -774277.6, -863657.1, -12181.941, 0.000042327883, 0.0014704543, -772647.06, -5835.667, 0.0, 5.0146556, 4.956903 
3.184879e+2, 2.2671102e+2, -727217.0, -816039.6, -12182.225, 0.000049419636, -0.0013229954, -725576.5, -7344.3564, 0.0, 5.0140033, 4.9566255 
3.1848073e+2, 2.3166671e+2, -683221.94, -775222.6, -11956.52, 0.00006766942, 0.001541812, -681693.44, -12027.267, 0.0, 5.013354, 4.953984 
3.1847376e+2, 2.3662087e+2, -636031.56, -727423.44, -11917.383, 0.00009150898, -0.0015760659, -634503.1, -13387.586, 0.0, 5.012709, 4.953746 
3.1846702e+2, 2.4157369e+2, -592042.9, -686790.0, -11489.776, 0.000117052004, 0.0017756008, -590669.5, -18091.49, 0.0, 5.012069, 4.951002 
3.1846064e+2, 2.4652489e+2, -544685.1, -638750.2, -11403.791, 0.000109745444, -0.0015959954, -543322.4, -19266.154, 0.0, 5.0114374, 4.950822 
3.1845456e+2, 2.5147468e+2, -500800.56, -598557.7, -10785.32, 0.00012822854, 0.0017721734, -499624.78, -24076.563, 0.0, 5.0108137, 4.9478884 
3.1844905e+2, 2.5642288e+2, -453091.13, -549890.7, -10645.696, 0.00010838272, -0.0016226437, -451934.16, -24878.25, 0.0, 5.0102005, 4.9478993 
3.1844395e+2, 2.613696e+2, -409427.8, -510436.75, -9849.793, 0.000115356655, 0.0017786033, -408476.28, -29898.266, 0.0, 5.0095973, 4.9446635 
3.1843954e+2, 2.6631472e+2, -361267.1, -460940.03, -9643.375, 0.00010770051, -0.0015442357, -360342.66, -30227.006, 0.0, 5.00901, 4.9449368 
3.1843564e+2, 2.7125826e+2, -317906.53, -422456.9, -8678.7705, 0.00012259613, 0.0018048836, -317191.0, -35522.023, 0.0, 5.0084333, 4.9413075 
3.1843263e+2, 2.7620023e+2, -269294.22, -372147.2, -8397.7705, 0.00011551527, -0.0017683286, -268613.1, -35375.234, 0.0, 5.007877, 4.9418354 
3.184302e+2, 2.8114066e+2, -225809.3, -333705.66, -7282.3257, 0.00009851035, 0.0023225266, -225320.02, -40498.387, 0.0, 5.007334, 4.9381404 
3.184288e+2, 2.8607956e+2, -176735.4, -282583.16, -6911.4355, 0.00004284594, -0.0026107575, -176286.02, -39865.76, 0.0, 5.006817, 4.9389234 
3.1842807e+2, 2.9101616e+2, -135595.44, -249953.11, -5647.117, 0.000107506305, 0.0016320613, -135317.25, -47275.77, 0.0, 5.0063148, 4.9331093 
3.1842858e+2, 2.9595017e+2, -86615.61, -199337.58, -5187.3047, 0.00021974879, -0.00025590957, -86377.4, -46688.9, 0.0, 5.0058393, 4.933672 
3.1842977e+2, 3.0089122e+2, -45939.582, -135032.02, -3760.837, 0.00012090107, 0.0024834005, -45781.11, -45781.11, 0.0, 5.00538, 4.9480977 
3.184324e+2, 3.058401e+2, -45668.21, -132177.17, -3203.4895, -0.00013077907, -0.0053693126, -45549.746, -45549.746, 0.0, 5.0049515, 4.949308 
3.1843582e+2, 3.1080687e+2, -6842.194, -39316.457, -1489.5604, 0.0000086992095, 0.0037366024, -6774.0127, -6774.0127, 0.0, 5.0045443, 4.9834747 
3.1844094e+2, 3.1579185e+2, -5539.374, -34398.406, -781.1926, -0.00032986657, -0.0008268157, -5518.243, -5518.243, 0.0, 5.00418, 4.985445 
3.2359532e+2, 1.22315355e+2, -1678417.1, -1740438.4, 751.9996, -0.000036908117, 0.008816247, -1678408.0, 62901.656, 0.0, 5.0269213, 4.9864345 
3.235975e+2, 1.2729643e+2, -1636213.4, -1702469.3, -2791.6543, -0.00017886503, -0.021592712, -1636096.0, 56399.023, 0.0, 5.0263305, 4.9831266 
3.2359904e+2, 1.3228282e+2, -1590115.5, -1656951.0, -3462.6807, 0.00008368778, 0.01847564, -1589936.6, 53691.863, 0.0, 5.025826, 4.982168 
3.2360017e+2, 1.3726345e+2, -1543218.9, -1610379.0, -3588.2808, -0.00006365083, -0.00010953289, -1543027.6, 51790.7, 0.0, 5.0254364, 4.981576 
3.2360032e+2, 1.4224337e+2, -1499179.5, -1569378.3, -5242.276, 0.00000083174814, -0.0045876554, -1498790.1, 47224.887, 0.0, 5.024972, 4.9791374 
3.2359943e+2, 1.4722313e+2, -1452696.0, -1522956.6, -5469.8877, 0.0000776878, -0.001196096, -1452272.6, 44940.75, 0.0, 5.024419, 4.978563 
3.2359767e+2, 1.522011e+2, -1408513.1, -1481307.0, -6983.2393, 0.000100528, 0.0031292774, -1407849.4, 40580.117, 0.0, 5.023857, 4.9763913 
3.235949e+2, 1.5717739e+2, -1361963.8, -1434725.0, -7188.7036, 0.000084267725, -0.0010642896, -1361260.3, 38401.516, 0.0, 5.023286, 4.975862 
3.235914e+2, 1.6215235e+2, -1317925.0, -1393333.0, -8483.917, 0.00007879052, 0.0007627497, -1316982.3, 33924.98, 0.0, 5.022695, 4.9735913 
3.235871e+2, 1.6712606e+2, -1271368.5, -1346586.0, -8660.002, 0.00004817295, -0.0011513251, -1270384.4, 31780.39, 0.0, 5.022079, 4.9731193 
3.2358214e+2, 1.7209835e+2, -1227378.8, -1305223.1, -9739.527, 0.000055507393, 0.00141537, -1226178.6, 27257.46, 0.0, 5.0214515, 4.970827 
3.2357654e+2, 1.7706928e+2, -1180780.0, -1258311.9, -9888.182, 0.00005169627, -0.0011463924, -1179538.9, 25182.338, 0.0, 5.020807, 4.9704046 
3.2357046e+2, 1.8203883e+2, -1136843.6, -1217028.9, -10745.414, 0.000047070498, 0.0012118552, -1135428.6, 20590.81, 0.0, 5.0201507, 4.9680743 
3.235638e+2, 1.8700702e+2, -1090221.4, -1170005.8, -10870.657, 0.000052262883, -0.0012834001, -1088766.8, 18564.537, 0.0, 5.0194798, 4.967682 
3.235568e+2, 1.9197388e+2, -1046314.6, -1128784.9, -11505.839, 0.000054439228, 0.0013530595, -1044739.5, 13916.592, 0.0, 5.0188017, 4.965309 
3.2354945e+2, 1.969393e+2, -999632.4, -1081610.1, -11605.055, 0.00007841013, -0.0012847439, -998021.2, 11973.742, 0.0, 5.0181127, 4.964957 
3.2354185e+2, 2.0190342e+2, -955745.75, -1040468.0, -12017.6455, 0.00008903151, 0.0013289119, -954074.06, 7272.5254, 0.0, 5.017419, 4.962539 
3.2353395e+2, 2.0686607e+2, -909009.1, -993184.25, -12087.303, 0.000072156756, -0.0013149651, -907307.8, 5404.6685, 0.0, 5.016718, 4.96221 
3.23526e+2, 2.1182744e+2, -865131.9, -952125.94, -12279.892, 0.00006479096, 0.0014066421, -863431.7, 659.4805, 0.0, 5.0160146, 4.9597354 
3.2351792e+2, 2.1678731e+2, -818311.7, -904700.2, -12316.517, 0.000041380557, -0.0013999578, -816590.06, -1105.5957, 0.0, 5.015308, 4.959437 
3.235099e+2, 2.2174588e+2, -774434.94, -863745.44, -12295.527, 0.000038314527, 0.0014595633, -772773.1, -5882.6567, 0.0, 5.014602, 4.9568977 
3.2350186e+2, 2.2670294e+2, -727520.5, -816187.8, -12296.1, 0.000040956824, -0.0013321047, -725846.9, -7535.649, 0.0, 5.013897, 4.9566236 
3.2349402e+2, 2.3165867e+2, -683644.06, -775371.5, -12064.376, 0.000056280154, 0.0015368912, -682083.8, -12338.633, 0.0, 5.013195, 4.9540052 
3.2348636e+2, 2.3661284e+2, -636596.6, -727628.2, -12024.1455, 0.00007428952, -0.0015789663, -635035.1, -13840.87, 0.0, 5.0124974, 4.9537716 
3.2347894e+2, 2.4156569e+2, -592724.8, -686995.1, -11586.213, 0.00009979338, 0.0017732208, -591321.7, -18665.328, 0.0, 5.011805, 4.9510508 
3.234719e+2, 2.4651694e+2, -545506.94, -639007.56, -11498.029, 0.00009106706, -0.0015959012, -544113.75, -19979.637, 0.0, 5.011121, 4.9508753 
3.2346517e+2, 2.514668e+2, -501740.28, -598817.1, -10864.109, 0.00010253181, 0.0017758308, -500539.28, -24913.813, 0.0, 5.0104446, 4.947963 
3.2345903e+2, 2.5641507e+2, -454166.66, -550198.5, -10721.341, 0.00007837261, -0.0016218342, -452984.25, -25851.877, 0.0, 5.00978, 4.9479795 
3.2345328e+2, 2.6136187e+2, -410618.1, -510745.16, -9905.166, 0.000087468106, 0.0017782577, -409647.63, -30994.006, 0.0, 5.0091248, 4.9447656 
3.2344827e+2, 2.6630712e+2, -362589.4, -461293.28, -9693.86, 0.0000828555, -0.0015525041, -361646.38, -31456.17, 0.0, 5.0084863, 4.9450445 
3.2344377e+2, 2.7125078e+2, -319342.8, -422813.7, -8704.793, 0.00009761441, 0.001785985, -318615.6, -36873.234, 0.0, 5.007859, 4.941435 
3.2344016e+2, 2.7619287e+2, -270857.44, -372545.16, -8417.187, 0.00009910732, -0.0017958921, -270165.4, -36855.47, 0.0, 5.007253, 4.941968 
3.2343712e+2, 2.8113344e+2, -227480.94, -334100.34, -7273.0664, 0.00008844941, 0.0022921532, -226987.1, -42094.76, 0.0, 5.0066605, 4.938295 
3.2343522e+2, 2.8607252e+2, -178530.28, -283012.84, -6893.2983, 0.000024932595, -0.0026430213, -178077.45, -41588.07, 0.0, 5.0060935, 4.939085 
3.2343397e+2, 2.9100928e+2, -137509.11, -250406.78, -5596.617, 0.000086393105, 0.0015929835, -137232.34, -49123.367, 0.0, 5.0055423, 4.933282 
3.23434e+2, 2.9594344e+2, -88648.35, -199829.9, -5125.9604, 0.0001979873, -0.0003065956, -88412.52, -48658.26, 0.0, 5.0050197, 4.933849 
3.2343468e+2, 3.008847e+2, -48065.82, -135514.19, -3670.4412, 0.00010076513, 0.0024206392, -47912.035, -47912.035, 0.0, 5.0045133, 4.9482956 
3.2343686e+2, 3.058338e+2, -47905.56, -132685.81, -3100.41, -0.000115480965, -0.0054128715, -47792.33, -47792.33, 0.0, 5.00404, 4.949516 
3.2343984e+2, 3.108008e+2, -9150.411, -39793.97, -1351.1067, 0.00006225223, 0.003716666, -9090.955, -9090.955, 0.0, 5.003588, 4.9837084 
3.2344458e+2, 3.1578597e+2, -7943.419, -34889.215, -626.9357, -0.00018853045, -0.00094937906, -7928.84, -7928.84, 0.0, 5.003183, 4.985691 
3.2862237e+2, 1.2230922e+2, -1679389.8, -1742964.4, 580.51746, 0.0014603996, 0.0063582426, -1679384.5, 61985.277, 0.0, 5.027037, 4.9855475 
3.2862347e+2, 1.2729077e+2, -1635614.0, -1701547.8, -3087.5273, -0.003743877, -0.021829067, -1635469.8, 57080.83, 0.0, 5.0263953, 4.983399 
3.2862514e+2, 1.3227727e+2, -1590251.9, -1657413.3, -3649.6116, 0.0029698429, 0.018692391, -1590054.3, 53628.668, 0.0, 5.0258646, 4.9819975 
3.2862562e+2, 1.372577e+2, -1543370.8, -1610889.9, -3787.555, 0.00008495496, -0.000084014864, -1543159.0, 51715.9, 0.0, 5.025478, 4.9813867 
3.2862517e+2, 1.422374e+2, -1499354.4, -1569952.4, -5568.6807, -0.0009663888, -0.0046772347, -1498917.9, 47155.816, 0.0, 5.025017, 4.978926 
3.2862386e+2, 1.4721695e+2, -1452867.0, -1523531.6, -5796.4385, 0.0000284666, -0.0012173906, -1452394.6, 44879.348, 0.0, 5.024465, 4.97835 
3.2862157e+2, 1.5219472e+2, -1408657.4, -1481822.6, -7320.282, 0.0004371402, 0.0031538338, -1407932.1, 40559.836, 0.0, 5.023902, 4.9761987 
3.286182e+2, 1.571708e+2, -1362117.1, -1435240.8, -7527.9805, 0.000118550015, -0.0010612956, -1361350.1, 38376.047, 0.0, 5.0233264, 4.9756713 
3.2861412e+2, 1.6214558e+2, -1318054.6, -1393781.5, -8856.257, -0.0000127413605, 0.0007459979, -1317032.6, 33940.78, 0.0, 5.0227313, 4.973425 
3.2860917e+2, 1.6711915e+2, -1271506.0, -1347033.4, -9033.329, 0.000056418707, -0.0011689413, -1270440.5, 31791.975, 0.0, 5.0221114, 4.9729543 
3.286036e+2, 1.7209129e+2, -1227493.4, -1305605.0, -10133.931, 0.00010703779, 0.001401819, -1226200.1, 27305.355, 0.0, 5.02148, 4.9706864 
3.2859734e+2, 1.7706206e+2, -1180903.3, -1258692.4, -10284.787, 0.0000682617, -0.0011607214, -1179566.5, 25225.34, 0.0, 5.020831, 4.970266 
3.285906e+2, 1.820315e+2, -1136943.0, -1217339.9, -11160.301, 0.000047077294, 0.0011904289, -1135422.5, 20668.854, 0.0, 5.0201707, 4.967961 
3.2858327e+2, 1.8699957e+2, -1090329.4, -1170316.0, -11287.031, 0.000053532083, -0.0013081947, -1088767.1, 18637.123, 0.0, 5.0194955, 4.967571 
3.285756e+2, 1.9196633e+2, -1046400.4, -1129028.3, -11935.563, 0.000058801674, 0.0013275793, -1044710.8, 14019.205, 0.0, 5.018813, 4.9652224 
3.2856756e+2, 1.9693166e+2, -999727.2, -1081853.1, -12035.447, 0.00008296219, -0.0013073912, -997999.75, 12069.995, 0.0, 5.01812, 4.9648724 
3.2855922e+2, 2.018957e+2, -955818.9, -1040644.6, -12457.153, 0.000092026225, 0.0013142773, -954027.3, 7394.7734, 0.0, 5.017422, 4.962479 
3.285507e+2, 2.0685832e+2, -909089.75, -993356.94, -12527.731, 0.00007504015, -0.0013303941, -907266.75, 5521.7515, 0.0, 5.0167165, 4.962153 
3.2854202e+2, 2.1181962e+2, -865190.94, -952231.7, -12723.958, 0.00007031518, 0.0013884008, -863369.06, 798.6075, 0.0, 5.0160093, 4.959703 
3.2853323e+2, 2.1677947e+2, -818379.06, -904803.4, -12761.324, 0.00003917345, -0.0014177418, -816534.1, -972.8878, 0.0, 5.0152984, 4.9594073 
3.2852447e+2, 2.2173803e+2, -774481.5, -863782.94, -12739.419, 0.00003542268, 0.0014466821, -772699.7, -5732.2847, 0.0, 5.0145884, 4.9568925 
3.2851577e+2, 2.2669509e+2, -727574.06, -816220.5, -12740.313, 0.000029920366, -0.0013448354, -725779.4, -7391.143, 0.0, 5.013879, 4.956622 
3.285072e+2, 2.3165081e+2, -683678.06, -775340.5, -12503.09, 0.00004294308, 0.0015266837, -682003.25, -12181.142, 0.0, 5.0131726, 4.9540277 
3.2849884e+2, 2.3660502e+2, -636636.94, -727590.56, -12462.527, 0.000054259075, -0.0015893556, -634960.25, -13689.336, 0.0, 5.0124707, 4.953798 
3.2849073e+2, 2.4155791e+2, -592747.25, -686896.4, -12015.364, 0.0000758782, 0.0017608379, -591238.06, -18505.408, 0.0, 5.0117745, 4.9511 
3.2848302e+2, 2.4650921e+2, -545535.2, -638900.6, -11926.415, 0.00006677344, -0.0016053263, -544035.8, -19825.984, 0.0, 5.011086, 4.9509296 
3.2847562e+2, 2.5145915e+2, -501752.72, -598652.1, -11278.917, 0.00006923193, 0.0017709323, -500457.2, -24756.615, 0.0, 5.010405, 4.9480395 
3.2846877e+2, 2.564075e+2, -454185.1, -550024.2, -11134.603, 0.000040041356, -0.0016346321, -452908.47, -25701.79, 0.0, 5.009736, 4.948061 
3.284624e+2, 2.613544e+2, -410621.9, -510513.9, -10300.709, 0.000051651965, 0.0017614486, -409570.75, -30843.74, 0.0, 5.0090766, 4.944869 
3.2845676e+2, 2.6629975e+2, -362599.2, -461052.25, -10086.869, 0.000044818902, -0.0015763678, -361576.38, -31313.828, 0.0, 5.0084333, 4.945153 
3.2845163e+2, 2.7124354e+2, -319341.2, -422521.4, -9076.408, 0.000055035376, 0.0017502003, -318548.84, -36735.277, 0.0, 5.007802, 4.941564 
3.2844743e+2, 2.7618572e+2, -270863.13, -372243.53, -8784.525, 0.00006780324, -0.001840566, -270107.56, -36727.758, 0.0, 5.0071907, 4.942103 
3.2844383e+2, 2.8112647e+2, -227474.83, -333743.72, -7615.196, 0.00006447069, 0.0022458385, -226931.9, -41971.113, 0.0, 5.0065928, 4.9384513 
3.2844132e+2, 2.860657e+2, -178530.5, -282642.63, -7229.32, -0.000009819876, -0.0026894398, -178030.9, -41474.67, 0.0, 5.0060205, 4.939249 
3.2843947e+2, 2.9100263e+2, -137511.03, -250010.03, -5904.112, 0.000044542256, 0.0015414202, -137202.03, -49027.84, 0.0, 5.005464, 4.933458 
3.28439e+2, 2.9593694e+2, -88661.625, -199427.92, -5425.981, 0.000151894, -0.00036552554, -88396.46, -48578.76, 0.0, 5.0049353, 4.9340296 
3.2843918e+2, 3.008784e+2, -48072.332, -135064.81, -3941.9436, 0.000058090252, 0.0023527956, -47894.074, -47894.074, 0.0, 5.004423, 4.9484973 
3.2844087e+2, 3.0582774e+2, -47917.316, -132216.95, -3362.2498, -0.00011340479, -0.0054642097, -47783.43, -47783.43, 0.0, 5.0039434, 4.9497266 
3.284434e+2, 3.1079492e+2, -9153.442, -39273.355, -1573.7474, 0.00010270022, 0.0036910516, -9071.438, -9071.438, 0.0, 5.003485, 4.9839444 
3.284478e+2, 3.1578037e+2, -7954.599, -34345.625, -834.9276, -0.000057486304, -0.0010502326, -7928.211, -7928.211, 0.0, 5.003072, 4.9859395 
3.3365017e+2, 1.2230428e+2, -1676780.3, -1743098.1, 916.8647, 0.0025325206, 0.006031283, -1676767.5, 64650.574, 0.0, 5.0282145, 4.9849267 
3.3365002e+2, 1.2728676e+2, -1632654.8, -1699964.6, -2886.746, -0.0073574306, -0.0133558465, -1632531.3, 60058.88, 0.0, 5.027357, 4.9834504 
3.3365172e+2, 1.322716e+2, -1588152.3, -1656995.3, -3332.2937, 0.005940833, 0.011682399, -1587991.3, 55747.063, 0.0, 5.026699, 4.981729 
3.3365154e+2, 1.3725239e+2, -1541373.3, -1610556.1, -3541.6418, 0.00023739989, -0.00043112773, -1541192.4, 53734.17, 0.0, 5.0262866, 4.981105 
3.336505e+2, 1.4223215e+2, -1497321.9, -1569410.4, -5485.2695, -0.0019716527, -0.0023587837, -1496906.9, 49218.227, 0.0, 5.0257964, 4.9787283 
3.336487e+2, 1.4721128e+2, -1450930.0, -1523029.8, -5706.476, -0.00003898655, -0.0010976018, -1450481.3, 46848.344, 0.0, 5.0252123, 4.978157 
3.3364585e+2, 1.5218875e+2, -1406858.4, -1481409.5, -7252.9375, 0.0007656774, 0.0023695359, -1406159.3, 42390.98, 0.0, 5.0246077, 4.9759974 
3.336419e+2, 1.5716472e+2, -1360480.4, -1434908.9, -7473.8354, 0.0001346178, -0.0011249654, -1359737.4, 40048.492, 0.0, 5.023978, 4.97547 
3.3363712e+2, 1.6213934e+2, -1316531.0, -1393435.6, -8841.522, -0.00012448998, 0.0009900877, -1315527.6, 35506.973, 0.0, 5.0233307, 4.973255 
3.3363158e+2, 1.6711272e+2, -1270134.1, -1346755.5, -9024.366, 0.000053213767, -0.0011563564, -1269085.6, 33209.95, 0.0, 5.022659, 4.972788 
3.3362538e+2, 1.720847e+2, -1226248.4, -1305340.9, -10150.75, 0.00015039818, 0.0013093803, -1224966.4, 28603.672, 0.0, 5.021974, 4.9705415 
3.336184e+2, 1.7705533e+2, -1179815.9, -1258500.1, -10308.712, 0.00007694303, -0.0011810717, -1178487.8, 26369.998, 0.0, 5.0212708, 4.9701233 
3.3361095e+2, 1.8202464e+2, -1135977.1, -1217146.9, -11206.078, 0.00003761596, 0.0012027074, -1134458.5, 21700.072, 0.0, 5.020557, 4.967845 
3.3360296e+2, 1.869926e+2, -1089520.4, -1170195.4, -11337.287, 0.00004883239, -0.001323194, -1087957.5, 19515.123, 0.0, 5.019828, 4.9674563 
3.3359456e+2, 1.9195925e+2, -1045713.8, -1128909.4, -12002.294, 0.00006208048, 0.0013033672, -1044016.9, 14782.453, 0.0, 5.0190916, 4.9651337 
3.335858e+2, 1.969245e+2, -999194.6, -1081802.4, -12105.832, 0.00008728888, -0.0013255836, -997457.1, 12682.751, 0.0, 5.0183444, 4.964786 
3.3357674e+2, 2.0188847e+2, -955409.8, -1040595.5, -12537.576, 0.00009906386, 0.0012987528, -953602.9, 7890.075, 0.0, 5.017592, 4.9624176 
3.3356744e+2, 2.0685104e+2, -908834.94, -993373.9, -12609.995, 0.00008850814, -0.0013506095, -906994.1, 5865.8354, 0.0, 5.016832, 4.962095 
3.3355805e+2, 2.1181229e+2, -865058.9, -952249.2, -12810.677, 0.00009031646, 0.0013658997, -863215.6, 1023.9251, 0.0, 5.01607, 4.95967 
3.3354852e+2, 2.1677211e+2, -818401.8, -904887.0, -12849.567, 0.000054077154, -0.0014393257, -816533.06, -899.6497, 0.0, 5.0153036, 4.9593773 
3.3353904e+2, 2.2173063e+2, -774627.9, -863866.7, -12826.054, 0.000050357892, 0.0014253135, -772821.0, -5781.255, 0.0, 5.014539, 4.9568872 
3.3352956e+2, 2.266877e+2, -727872.9, -816366.7, -12827.098, 0.000037504382, -0.0013668002, -726051.1, -7590.537, 0.0, 5.013774, 4.95662 
3.335203e+2, 2.3164344e+2, -684101.4, -775488.4, -12583.362, 0.000048314825, 0.0015052394, -682400.4, -12506.038, 0.0, 5.0130124, 4.95405 
3.335112e+2, 2.3659767e+2, -637210.0, -727796.8, -12541.705, 0.000052501036, -0.001610476, -635505.7, -14162.821, 0.0, 5.0122557, 4.953825 
3.3350235e+2, 2.4155058e+2, -593444.7, -687105.4, -12083.588, 0.00007054304, 0.0017425425, -591910.8, -19106.563, 0.0, 5.011504, 4.95115 
3.334939e+2, 2.4650195e+2, -546378.9, -639164.2, -11992.697, 0.000058284637, -0.001619448, -544853.9, -20572.994, 0.0, 5.010761, 4.9509845 
3.334858e+2, 2.5145194e+2, -502720.06, -598918.56, -11329.388, 0.000049571805, 0.0017601171, -501403.8, -25632.783, 0.0, 5.010025, 4.9481173 
3.3347827e+2, 2.5640038e+2, -455295.7, -550341.9, -11181.821, 0.000017234659, -0.00164881, -453997.9, -26721.604, 0.0, 5.009301, 4.948144 
3.334712e+2, 2.6134738e+2, -411854.34, -510834.9, -10327.141, 0.00003021427, 0.0017475177, -410788.34, -31992.613, 0.0, 5.008588, 4.944974 
3.3346486e+2, 2.6629284e+2, -363969.28, -461420.34, -10108.883, 0.000018332192, -0.0015862801, -362931.72, -32601.55, 0.0, 5.0078917, 4.945264 
3.334591e+2, 2.7123672e+2, -320831.1, -422893.72, -9074.052, 0.000024742563, 0.0017391869, -320030.63, -38150.625, 0.0, 5.007207, 4.9416947 
3.3345425e+2, 2.7617908e+2, -272487.88, -372660.03, -8775.588, 0.000051834475, -0.0018613423, -271724.9, -38279.98, 0.0, 5.0065427, 4.9422398 
3.3345002e+2, 2.8111994e+2, -229214.47, -334157.94, -7576.918, 0.000056955025, 0.0022213596, -228670.23, -43645.766, 0.0, 5.0058928, 4.93861 
3.3344692e+2, 2.8605935e+2, -180397.97, -283093.16, -7182.247, -0.00003275341, -0.0027121273, -179898.1, -43279.82, 0.0, 5.005269, 4.9394155 
3.334445e+2, 2.9099646e+2, -139501.53, -250483.55, -5823.551, 0.000011425523, 0.001514995, -139196.8, -50962.246, 0.0, 5.004661, 4.9336367 
3.334435e+2, 2.9593098e+2, -90777.67, -199941.58, -5334.82, 0.00012132895, -0.00039773132, -90517.586, -50641.32, 0.0, 5.0040827, 4.9342136 
3.334431e+2, 3.0087262e+2, -50286.78, -135567.69, -3820.9473, 0.00004046181, 0.002310499, -50115.93, -50115.93, 0.0, 5.003521, 4.9487033 
3.334443e+2, 3.0582213e+2, -50245.734, -132746.4, -3227.1272, -0.00008454828, -0.005506828, -50119.695, -50119.695, 0.0, 5.002995, 4.9499426 
3.3344638e+2, 3.107896e+2, -11556.946, -39776.75, -1403.0927, 0.00016992314, 0.0036590488, -11487.356, -11487.356, 0.0, 5.0024915, 4.9841847 
3.3345032e+2, 3.1577528e+2, -10456.852, -34867.715, -647.5249, 0.0001247812, -0.0011150814, -10439.6875, -10439.6875, 0.0, 5.002037, 4.986191 
3.3867854e+2, 1.2229931e+2, -1677369.1, -1744538.0, 418.35635, 0.0040710997, -0.00018779823, -1677366.5, 64100.31, 0.0, 5.028265, 4.984429 
3.38677e+2, 1.2728357e+2, -1632469.1, -1700027.0, -3352.8306, -0.010980064, -0.0010136858, -1632303.1, 60318.285, 0.0, 5.0274515, 4.9833846 
3.3867875e+2, 1.3226597e+2, -1588311.0, -1657802.9, -3541.9565, 0.008934908, 0.0015156909, -1588131.0, 55662.465, 0.0, 5.0268016, 4.981413 
3.3867785e+2, 1.3724743e+2, -1541643.5, -1611444.0, -3737.6514, 0.0003943937, -0.00095589424, -1541443.9, 53531.53, 0.0, 5.0263567, 4.9807773 
3.386762e+2, 1.4222728e+2, -1497449.5, -1569924.1, -5806.963, -0.0029876851, 0.0010143887, -1496987.1, 49185.605, 0.0, 5.025849, 4.9785337 
3.3867392e+2, 1.4720592e+2, -1451046.5, -1523520.9, -6038.698, -0.00011572235, -0.00090795686, -1450546.8, 46835.37, 0.0, 5.0252647, 4.977969 
3.386705e+2, 1.5218306e+2, -1407008.3, -1481961.0, -7620.2124, 0.0010873488, 0.0012314277, -1406241.4, 42364.695, 0.0, 5.0246572, 4.975791 
3.3866587e+2, 1.5715893e+2, -1360645.6, -1435468.9, -7843.1084, 0.0001413437, -0.0012185476, -1359832.4, 40010.344, 0.0, 5.024023, 4.9752626 
3.3866045e+2, 1.621334e+2, -1316659.8, -1393899.1, -9242.376, -0.00024548415, 0.0013524632, -1315569.3, 35523.58, 0.0, 5.0233707, 4.973082 
3.3865425e+2, 1.6710655e+2, -1270268.4, -1347211.8, -9427.185, 0.000043876633, -0.0011266656, -1269130.1, 33225.64, 0.0, 5.0226946, 4.972619 
3.3864734e+2, 1.7207837e+2, -1226364.8, -1305740.8, -10576.903, 0.00018833365, 0.0011829342, -1224979.6, 28652.422, 0.0, 5.0220056, 4.9703937 
3.3863968e+2, 1.7704888e+2, -1179941.8, -1258898.3, -10737.126, 0.000081467886, -0.0012026377, -1178507.6, 26413.375, 0.0, 5.0212975, 4.969978 
3.3863154e+2, 1.8201806e+2, -1136076.8, -1217469.0, -11652.915, 0.000022040362, 0.0012335592, -1134441.3, 21781.826, 0.0, 5.020579, 4.967727 
3.386228e+2, 1.8698588e+2, -1089630.9, -1170519.9, -11785.726, 0.000039068946, -0.0013337875, -1087948.6, 19589.605, 0.0, 5.019845, 4.96734 
3.386137e+2, 1.9195244e+2, -1045800.7, -1129162.9, -12464.215, 0.00006253363, 0.0012805727, -1043976.94, 14889.095, 0.0, 5.0191045, 4.9650426 
3.3860412e+2, 1.9691761e+2, -999289.75, -1082052.5, -12568.695, 0.000087254484, -0.0013402789, -997423.1, 12784.317, 0.0, 5.0183525, 4.9646983 
3.3859435e+2, 2.018815e+2, -955482.25, -1040776.06, -13010.234, 0.00010243037, 0.001282362, -953541.9, 8019.3647, 0.0, 5.0175962, 4.962356 
3.385843e+2, 2.0684399e+2, -908915.56, -993551.06, -13083.651, 0.00010047516, -0.0013734717, -906939.1, 5989.68, 0.0, 5.0168314, 4.962036 
3.3857414e+2, 2.1180522e+2, -865117.4, -952357.6, -13288.634, 0.00010940044, 0.0013417661, -863138.1, 1170.7556, 0.0, 5.016065, 4.9596367 
3.385638e+2, 2.16765e+2, -818468.44, -904992.4, -13328.805, 0.000068833186, -0.0014625754, -816461.75, -758.70264, 0.0, 5.0152946, 4.959347 
3.3855355e+2, 2.2172351e+2, -774672.7, -863903.3, -13304.166, 0.0000646765, 0.0013987367, -772731.25, -5621.6978, 0.0, 5.014525, 4.9568825 
3.3854336e+2, 2.2668058e+2, -727925.1, -816398.56, -13306.09, 0.0000452581, -0.001392817, -725967.25, -7436.861, 0.0, 5.013756, 4.9566193 
3.3853328e+2, 2.3163632e+2, -684133.6, -775454.94, -13056.998, 0.000053752494, 0.0014783458, -682303.44, -12339.378, 0.0, 5.01299, 4.9540734 
3.3852345e+2, 2.3659058e+2, -637248.56, -727756.3, -13015.414, 0.000050259143, -0.0016384263, -635414.06, -14001.757, 0.0, 5.012229, 4.9538527 
3.3851385e+2, 2.4154353e+2, -593465.0, -687002.5, -12547.933, 0.00006492617, 0.0017207447, -591811.0, -18937.639, 0.0, 5.011473, 4.9512014 
3.3850467e+2, 2.4649496e+2, -546405.25, -639052.7, -12456.518, 0.00004809177, -0.0016369466, -544759.7, -20410.314, 0.0, 5.0107255, 4.9510407 
3.3849585e+2, 2.5144503e+2, -502729.72, -598746.44, -11779.785, 0.00002617388, 0.0017436516, -501305.66, -25466.762, 0.0, 5.0099854, 4.9481964 
3.3848757e+2, 2.5639355e+2, -455311.44, -550160.7, -11630.795, -0.000008930068, -0.0016656929, -453906.06, -26562.709, 0.0, 5.0092573, 4.9482284 
3.384798e+2, 2.6134065e+2, -411855.78, -510596.94, -10757.745, 0.0000032472926, 0.001732171, -410697.34, -31835.48, 0.0, 5.008539, 4.9450803 
3.3847278e+2, 2.6628622e+2, -363977.1, -461172.6, -10536.798, -0.000016036294, -0.0015933117, -362847.94, -32452.768, 0.0, 5.0078382, 4.945376 
3.3846632e+2, 2.7123022e+2, -320826.78, -422592.25, -9480.64, -0.000013768799, 0.0017371114, -319951.1, -38007.254, 0.0, 5.0071487, 4.941828 
3.3846077e+2, 2.761727e+2, -272490.5, -372348.3, -9177.934, 0.000027129585, -0.0018738937, -271653.97, -38146.563, 0.0, 5.0064797, 4.9423785 
3.3845592e+2, 2.811137e+2, -229204.5, -333788.97, -7953.4126, 0.000039547762, 0.0022035774, -228603.13, -43517.633, 0.0, 5.0058246, 4.9387717 
3.384522e+2, 2.8605327e+2, -180394.78, -282710.47, -7552.6436, -0.00006805696, -0.0027268967, -179840.28, -43162.633, 0.0, 5.005195, 4.9395843 
3.3844915e+2, 2.9099056e+2, -139499.11, -250071.11, -6164.758, -0.000037216174, 0.0014973357, -139156.47, -50864.266, 0.0, 5.0045815, 4.9338183 
3.3844754e+2, 2.959253e+2, -90786.05, -199522.56, -5668.682, 0.00007575695, -0.00042159643, -90491.32, -50559.215, 0.0, 5.0039973, 4.9344006 
3.3844662e+2, 3.0086714e+2, -50286.92, -135097.63, -4124.592, 0.000010881214, 0.00227723, -50086.805, -50086.805, 0.0, 5.0034294, 4.9489126 
3.384473e+2, 3.0581686e+2, -50250.45, -132255.13, -3519.9785, -0.00006903343, -0.0055471873, -50099.637, -50099.637, 0.0, 5.0028973, 4.9501624 
3.3844885e+2, 3.1078452e+2, -11555.328, -39238.79, -1655.7491, 0.00021395716, 0.0036196199, -11456.649, -11456.649, 0.0, 5.002387, 4.984428 
3.3845237e+2, 3.1577045e+2, -10466.477, -34312.375, -884.3099, 0.00027131516, -0.0011532808, -10433.728, -10433.728, 0.0, 5.001924, 4.986444 
3.4370738e+2, 1.22295916e+2, -1674559.8, -1743380.6, 808.4387, 0.0049378583, -0.0027195003, -1674550.3, 66949.95, 0.0, 5.0292525, 4.984325 
3.4370473e+2, 1.2728107e+2, -1629849.0, -1699710.3, -3052.823, -0.014023924, 0.009584259, -1629715.9, 62930.02, 0.0, 5.028537, 4.9829583 
3.437064e+2, 1.3226116e+2, -1585624.9, -1657296.8, -3274.8447, 0.011497132, -0.007251826, -1585475.5, 58365.25, 0.0, 5.027876, 4.981057 
3.437047e+2, 1.3724306e+2, -1539386.1, -1611144.8, -3486.5837, 0.0005404201, -0.0014254675, -1539217.1, 55801.04, 0.0, 5.0272875, 4.980425 
3.4370244e+2, 1.4222297e+2, -1495284.3, -1569356.6, -5633.0, -0.003853611, 0.0039184745, -1494858.3, 51356.65, 0.0, 5.0266824, 4.978319 
3.4369957e+2, 1.4720112e+2, -1448995.5, -1522994.5, -5888.0767, -0.00019499964, -0.0007537479, -1448529.9, 48899.133, 0.0, 5.0260572, 4.977762 
3.4369555e+2, 1.5217794e+2, -1405110.8, -1481527.6, -7526.558, 0.0013464094, 0.00023688997, -1404376.5, 44279.695, 0.0, 5.025402, 4.975578 
3.4369025e+2, 1.5715368e+2, -1358922.0, -1435122.3, -7759.521, 0.00013642384, -0.0012998666, -1358139.9, 41754.06, 0.0, 5.02471, 4.97505 
3.4368414e+2, 1.62128e+2, -1315054.5, -1393534.3, -9193.935, -0.00035606424, 0.001669189, -1313991.8, 37153.785, 0.0, 5.024002, 4.9729033 
3.4367725e+2, 1.6710097e+2, -1268819.8, -1346915.3, -9386.891, 0.00003104473, -0.0011057564, -1267707.4, 34703.22, 0.0, 5.0232716, 4.9724445 
3.4366962e+2, 1.720726e+2, -1225049.1, -1305458.3, -10566.017, 0.00021203373, 0.0010704024, -1223683.9, 30004.63, 0.0, 5.022527, 4.970242 
3.4366122e+2, 1.7704298e+2, -1178792.0, -1258691.3, -10732.698, 0.00007635959, -0.0012205585, -1177375.4, 27603.502, 0.0, 5.021762, 4.969829 
3.436523e+2, 1.8201202e+2, -1135052.0, -1217260.0, -11669.952, 0.000004894627, 0.0012628448, -1133427.5, 22854.709, 0.0, 5.0209875, 4.967606 
3.4364283e+2, 1.8697974e+2, -1088768.8, -1170385.8, -11808.549, 0.000031671203, -0.0013342714, -1087094.5, 20504.055, 0.0, 5.020198, 4.967221 
3.4363294e+2, 1.9194618e+2, -1045067.7, -1129030.4, -12502.337, 0.000063995016, 0.0012642333, -1043245.56, 15681.89, 0.0, 5.0194006, 4.9649506 
3.436226e+2, 1.9691126e+2, -998717.7, -1081990.6, -12609.619, 0.00008609123, -0.0013559524, -996850.1, 13419.573, 0.0, 5.018592, 4.9646087 
3.4361202e+2, 2.0187508e+2, -955038.2, -1040715.6, -13062.313, 0.000106728774, 0.0012676511, -953090.94, 8533.311, 0.0, 5.017779, 4.9622927 
3.4360117e+2, 2.068375e+2, -908631.75, -993559.9, -13137.849, 0.00011485854, -0.0013871476, -906645.8, 6346.6084, 0.0, 5.0169578, 4.9619756 
3.435902e+2, 2.1179868e+2, -864960.25, -952366.9, -13347.476, 0.00013230248, 0.0013270057, -862967.5, 1405.4756, 0.0, 5.016135, 4.9596024 
3.4357914e+2, 2.1675843e+2, -818471.56, -905069.8, -13389.322, 0.00009159195, -0.0014805456, -816448.6, -681.2403, 0.0, 5.015307, 4.9593153 
3.4356806e+2, 2.2171693e+2, -774804.94, -863981.44, -13362.782, 0.00008905809, 0.0013789004, -772845.6, -5671.4976, 0.0, 5.0144806, 4.956877 
3.4355703e+2, 2.2667398e+2, -728216.56, -816542.0, -13365.442, 0.00006654054, -0.0014116644, -726238.4, -7643.4414, 0.0, 5.0136538, 4.9566174 
3.435462e+2, 2.3162974e+2, -684554.56, -775600.8, -13109.51, 0.0000712123, 0.0014594368, -682704.56, -12676.036, 0.0, 5.0128303, 4.9540963 
3.4353554e+2, 2.3658404e+2, -637825.25, -727963.0, -13067.363, 0.000056425408, -0.0016572713, -635969.1, -14492.586, 0.0, 5.012012, 4.95388 
3.4352517e+2, 2.4153703e+2, -594172.6, -687213.25, -12588.909, 0.00006753954, 0.001706534, -592499.4, -19562.223, 0.0, 5.0111985, 4.951253 
3.435152e+2, 2.4648851e+2, -547265.9, -639320.6, -12495.568, 0.000048122412, -0.0016509297, -545599.9, -21187.232, 0.0, 5.0103936, 4.951097 
3.4350562e+2, 2.5143862e+2, -503719.9, -599018.5, -11802.941, 0.00001765156, 0.0017301616, -502279.84, -26378.357, 0.0, 5.009596, 4.9482765 
3.434966e+2, 2.5638723e+2, -456450.88, -550486.56, -11650.794, -0.000021511694, -0.0016773193, -455028.88, -27623.791, 0.0, 5.0088115, 4.9483137 
3.4348807e+2, 2.6133442e+2, -413122.97, -510927.47, -10756.215, -0.000014635516, 0.0017218048, -411954.0, -33031.35, 0.0, 5.0080366, 4.9451876 
3.4348032e+2, 2.662801e+2, -365390.0, -461553.7, -10530.596, -0.000037184705, -0.0016032609, -364250.3, -33795.453, 0.0, 5.00728, 4.945489 
3.434731e+2, 2.7122423e+2, -322366.13, -422977.94, -9449.316, -0.000036388068, 0.0017263648, -321486.34, -39483.996, 0.0, 5.006534, 4.9419627 
3.434669e+2, 2.7616686e+2, -274170.38, -372780.13, -9139.709, 0.000009566256, -0.0018881627, -273330.4, -39765.895, 0.0, 5.0058103, 4.9425197 
3.4346133e+2, 2.8110802e+2, -231004.86, -334219.06, -7885.3433, 0.000027150918, 0.002188159, -230405.92, -45264.78, 0.0, 5.0051003, 4.9389353 
3.4345695e+2, 2.860478e+2, -182331.33, -283180.03, -7475.925, -0.000084348634, -0.0027389014, -181780.14, -45048.547, 0.0, 5.0044165, 4.939756 
3.434533e+2, 2.9098526e+2, -141565.19, -250563.17, -6052.974, -0.0000595423, 0.0014850359, -141230.08, -52885.656, 0.0, 5.003749, 4.9340043 
3.4345105e+2, 2.9592013e+2, -92982.84, -200055.58, -5545.8115, 0.00004555079, -0.00043138635, -92696.37, -52713.902, 0.0, 5.0031123, 4.934592 
3.4344956e+2, 3.008622e+2, -52586.59, -135619.4, -3970.4607, -0.000010211848, 0.0022658736, -52397.16, -52397.16, 0.0, 5.002493, 4.9491267 
3.4344968e+2, 3.0581215e+2, -52670.16, -132805.05, -3350.747, -0.000050061008, -0.005572207, -52530.297, -52530.297, 0.0, 5.001912, 4.950387 
3.434507e+2, 3.1078002e+2, -14057.251, -39767.01, -1451.5562, 0.00025587066, 0.0035929775, -13975.557, -13975.557, 0.0, 5.001354, 4.9846764 
3.434537e+2, 3.1576625e+2, -13075.372, -34865.33, -661.1531, 0.00042342368, -0.001115109, -13055.33, -13055.33, 0.0, 5.0008473, 4.9867015 
3.4873676e+2, 1.22293025e+2, -1674388.8, -1743106.1, 194.37404, 0.005993871, -0.0066013206, -1674388.3, 67140.34, 0.0, 5.029268, 4.984408 
3.48733e+2, 1.2727892e+2, -1630456.4, -1701373.9, -3448.3323, -0.016776413, 0.01912063, -1630289.1, 62377.62, 0.0, 5.028626, 4.982368 
3.4873453e+2, 1.3225679e+2, -1585829.3, -1658265.1, -3610.9004, 0.013837476, -0.015140777, -1585649.8, 58233.89, 0.0, 5.0279927, 4.9806814 
3.4873202e+2, 1.3723907e+2, -1539650.3, -1612115.6, -3801.415, 0.0006820348, -0.0018589722, -1539451.4, 55605.785, 0.0, 5.0273776, 4.9800606 
3.4872904e+2, 1.42219e+2, -1495400.8, -1569940.3, -5969.9805, -0.004641159, 0.0065328684, -1494925.6, 51328.24, 0.0, 5.0267544, 4.9780912 
3.4872565e+2, 1.4719668e+2, -1449122.9, -1523563.3, -6235.475, -0.0002748334, -0.0006149982, -1448604.3, 48868.355, 0.0, 5.0261207, 4.9775434 
3.48721e+2, 1.5217319e+2, -1405257.3, -1482104.3, -7927.385, 0.00157356, -0.0006614243, -1404448.0, 44254.855, 0.0, 5.025459, 4.9753594 
3.4871498e+2, 1.571488e+2, -1359084.0, -1435703.5, -8162.6357, 0.00012518099, -0.0013708929, -1358224.0, 41717.93, 0.0, 5.0247607, 4.9748325 
3.4870812e+2, 1.6212294e+2, -1315182.8, -1394020.3, -9625.223, -0.00046130308, 0.0019596028, -1314024.6, 37170.582, 0.0, 5.0240464, 4.9727206 
3.487005e+2, 1.6709569e+2, -1268956.8, -1347396.0, -9820.768, 0.000017528904, -0.0010866321, -1267745.9, 34716.43, 0.0, 5.023311, 4.9722657 
3.4869215e+2, 1.7206715e+2, -1225165.1, -1305872.6, -11025.533, 0.00022787045, 0.0009713216, -1223686.0, 30055.922, 0.0, 5.0225616, 4.970088 
3.4868297e+2, 1.7703737e+2, -1178918.4, -1259104.1, -11194.195, 0.00006590265, -0.0012337462, -1177384.9, 27648.816, 0.0, 5.021791, 4.9696774 
3.486733e+2, 1.8200628e+2, -1135153.1, -1217596.9, -12149.747, -0.00001286282, 0.0012916606, -1133399.9, 22938.482, 0.0, 5.021012, 4.9674826 
3.4866303e+2, 1.8697387e+2, -1088880.1, -1170721.9, -12290.549, 0.000024087993, -0.0013273013, -1087074.3, 20581.662, 0.0, 5.020217, 4.967099 
3.4865233e+2, 1.9194022e+2, -1045154.4, -1129291.8, -12997.808, 0.0000620648, 0.0012518532, -1043192.2, 15793.682, 0.0, 5.019415, 4.9648566 
3.4864122e+2, 1.969052e+2, -998813.4, -1082249.1, -13106.076, 0.00007937487, -0.001371696, -996803.1, 13525.903, 0.0, 5.0186014, 4.964518 
3.4862983e+2, 2.0186894e+2, -955110.4, -1040902.0, -13569.031, 0.00010632419, 0.0012552076, -953015.44, 8668.913, 0.0, 5.017784, 4.962229 
3.4861812e+2, 2.0683132e+2, -908712.56, -993743.2, -13645.521, 0.00012328173, -0.0013951662, -906576.4, 6476.6636, 0.0, 5.016958, 4.9619145 
3.4860635e+2, 2.1179244e+2, -865017.9, -952478.4, -13860.195, 0.00014814793, 0.001316987, -862873.94, 1560.1062, 0.0, 5.016131, 4.959568 
3.4859443e+2, 2.1675216e+2, -818537.7, -905178.1, -13903.854, 0.00010912581, -0.0014958645, -816361.06, -532.2774, 0.0, 5.0152984, 4.959284 
3.4858254e+2, 2.2171064e+2, -774848.6, -864019.1, -13876.186, 0.00010807673, 0.0013636544, -772739.2, -5503.4688, 0.0, 5.0144672, 4.956872 
3.485707e+2, 2.2666769e+2, -728267.6, -816574.6, -13880.189, 0.0000845189, -0.0014271528, -726137.3, -7480.7603, 0.0, 5.013636, 4.956616 
3.4855902e+2, 2.3162346e+2, -684584.94, -775566.0, -13618.708, 0.00008379737, 0.0014438621, -682590.1, -12500.107, 0.0, 5.012809, 4.95412 
3.4854755e+2, 2.3657778e+2, -637862.1, -727920.9, -13577.077, 0.000056612185, -0.0016719262, -635859.8, -14322.076, 0.0, 5.011986, 4.9539084 
3.4853637e+2, 2.4153082e+2, -594190.7, -687106.75, -13089.533, 0.000064522195, 0.0016953772, -592381.9, -19383.906, 0.0, 5.0111675, 4.9513054 
3.485256e+2, 2.4648236e+2, -547289.8, -639204.94, -12995.713, 0.00004160637, -0.0016645376, -545487.75, -21014.8, 0.0, 5.0103583, 4.951155 
3.485152e+2, 2.5143254e+2, -503726.8, -598841.2, -12289.432, 0.0000050982385, 0.0017170296, -502164.6, -26203.506, 0.0, 5.0095563, 4.9483576 
3.485054e+2, 2.5638124e+2, -456463.75, -550299.7, -12135.818, -0.000038281458, -0.0016883122, -454919.66, -27455.795, 0.0, 5.008767, 4.9484005 
3.4849608e+2, 2.6132852e+2, -413120.7, -510681.5, -11222.614, -0.00004144842, 0.0017118742, -411846.38, -32865.902, 0.0, 5.007988, 4.945297 
3.484876e+2, 2.6627433e+2, -365394.53, -461298.34, -10994.271, -0.00006606868, -0.0016165854, -364150.3, -33638.742, 0.0, 5.0072265, 4.945604 
3.4847966e+2, 2.712186e+2, -322357.38, -422665.66, -9891.222, -0.00006583263, 0.0017084373, -321391.3, -39333.508, 0.0, 5.0064754, 4.9420996 
3.484727e+2, 2.7616137e+2, -274168.5, -372457.25, -9577.239, -0.00002130733, -0.0019059016, -273244.0, -39625.4, 0.0, 5.005747, 4.9426627 
3.4846643e+2, 2.8110266e+2, -230989.66, -333836.88, -8297.126, -0.0000015312324, 0.0021714151, -230324.58, -45130.87, 0.0, 5.0050316, 4.9391017 
3.4846136e+2, 2.860426e+2, -182322.7, -282783.56, -7882.084, -0.00011054016, -0.0027521288, -181708.05, -44925.58, 0.0, 5.004342, 4.93993 
3.4845704e+2, 2.9098025e+2, -141555.73, -250132.8, -6428.6934, -0.00008981811, 0.0014728544, -141176.42, -52782.887, 0.0, 5.003669, 4.9341927 
3.4845418e+2, 2.959153e+2, -92983.61, -199617.0, -5914.1323, -0.00000049998494, -0.00043788113, -92656.6, -52626.918, 0.0, 5.0030265, 4.934786 
3.4845203e+2, 3.0085757e+2, -52578.73, -135128.03, -4306.978, -0.00005257148, 0.0022632557, -52354.625, -52354.625, 0.0, 5.0024004, 4.949344 
3.4845155e+2, 3.0580777e+2, -52667.39, -132291.77, -3675.4717, -0.000057898695, -0.00559053, -52498.09, -52498.09, 0.0, 5.0018134, 4.9506154 
3.4845203e+2, 3.1077588e+2, -14049.788, -39208.64, -1735.5424, 0.00025779157, 0.003569229, -13930.629, -13930.629, 0.0, 5.0012484, 4.9849277 
3.4845456e+2, 3.1576234e+2, -13081.348, -34291.836, -928.25116, 0.00050951645, -0.0010305064, -13040.802, -13040.802, 0.0, 5.0007324, 4.9869623 
3.5376653e+2, 1.2229134e+2, -1671308.0, -1741069.8, 429.99207, 0.0064597274, -0.0070456993, -1671305.3, 70239.75, 0.0, 5.0301857, 4.9846272 
3.5376206e+2, 1.2727676e+2, -1628278.8, -1702015.8, -3087.0085, -0.018442502, 0.021009348, -1628149.8, 64538.133, 0.0, 5.029723, 4.981621 
3.5376328e+2, 1.322537e+2, -1582931.6, -1657628.4, -3432.855, 0.015274176, -0.016758166, -1582774.3, 61139.566, 0.0, 5.0291324, 4.9803367 
3.5375994e+2, 1.3723582e+2, -1537089.5, -1611600.0, -3596.0452, 0.00078187353, -0.001975592, -1536916.3, 58172.7, 0.0, 5.028396, 4.979737 
3.5375622e+2, 1.4221552e+2, -1493043.9, -1569386.6, -5751.986, -0.0051181065, 0.007045522, -1492613.0, 53674.992, 0.0, 5.027675, 4.97783 
3.5375223e+2, 1.471929e+2, -1446964.3, -1523099.3, -6052.6445, -0.0003294835, -0.0006050143, -1446486.0, 51023.668, 0.0, 5.026974, 4.9772863 
3.537469e+2, 1.5216912e+2, -1403243.6, -1481637.8, -7810.2935, 0.0017063892, -0.00086514076, -1402473.1, 46269.47, 0.0, 5.026248, 4.9751363 
3.5374013e+2, 1.5714453e+2, -1357251.4, -1435320.3, -8053.001, 0.00011595781, -0.0013967572, -1356429.4, 43554.31, 0.0, 5.0254884, 4.9746127 
3.5373256e+2, 1.6211848e+2, -1313485.3, -1393634.3, -9547.164, -0.000528728, 0.0020141564, -1312363.8, 38875.14, 0.0, 5.024714, 4.972532 
3.5372412e+2, 1.6709104e+2, -1267431.4, -1347088.1, -9751.881, 0.0000056629833, -0.001094765, -1266254.9, 36252.92, 0.0, 5.0239196, 4.97208 
3.53715e+2, 1.7206234e+2, -1223774.1, -1305567.4, -10986.478, 0.0002347075, 0.0009443512, -1222324.1, 31465.035, 0.0, 5.0231113, 4.9699306 
3.5370505e+2, 1.7703241e+2, -1177698.5, -1258878.0, -11161.431, 0.00006191618, -0.0012270339, -1176191.9, 28890.621, 0.0, 5.0222826, 4.9695225 
3.5369456e+2, 1.8200119e+2, -1134068.9, -1217371.6, -12137.9375, -0.000018425038, 0.0013085523, -1132336.3, 24052.137, 0.0, 5.0214434, 4.967356 
3.536834e+2, 1.8696864e+2, -1087967.0, -1170574.8, -12283.516, 0.000018711207, -0.0013271021, -1086179.1, 21528.107, 0.0, 5.02059, 4.966975 
3.536719e+2, 1.9193487e+2, -1044370.9, -1129142.1, -13005.852, 0.00005687492, 0.0012440046, -1042420.4, 16617.87, 0.0, 5.0197296, 4.9647613 
3.536599e+2, 1.9689977e+2, -998198.8, -1082175.1, -13116.538, 0.000071704395, -0.0013740987, -996197.75, 14184.527, 0.0, 5.018857, 4.9644256 
3.5364768e+2, 2.0186342e+2, -954628.7, -1040830.75, -13590.835, 0.00010216822, 0.0012534411, -952536.7, 9201.719, 0.0, 5.017981, 4.9621625 
3.5363513e+2, 2.0682575e+2, -908396.4, -993743.0, -13669.47, 0.00012679526, -0.0013995925, -906260.44, 6847.278, 0.0, 5.0170965, 4.9618516 
3.536225e+2, 2.117868e+2, -864835.8, -952478.8, -13888.32, 0.00015887567, 0.001311042, -862687.6, 1801.5687, 0.0, 5.01621, 4.9595323 
3.536097e+2, 2.167465e+2, -818521.3, -905249.4, -13933.633, 0.00012258519, -0.0015060473, -816337.75, -453.45203, 0.0, 5.0153184, 4.959252 
3.53597e+2, 2.2170496e+2, -774965.2, -864091.4, -13903.771, 0.00012522383, 0.0013490217, -772846.56, -5555.1787, 0.0, 5.014428, 4.9568663 
3.5358426e+2, 2.2666202e+2, -728548.94, -816714.6, -13908.608, 0.000097421194, -0.0014477953, -726406.8, -7694.5845, 0.0, 5.013537, 4.956614 
3.5357174e+2, 2.3161778e+2, -685001.6, -775708.8, -13639.729, 0.00009401925, 0.0014213203, -682995.0, -12849.381, 0.0, 5.01265, 4.954144 
3.535594e+2, 2.3657213e+2, -638441.8, -728127.5, -13597.374, 0.00005913526, -0.0016955535, -636425.6, -14832.581, 0.0, 5.011767, 4.9539366 
3.535474e+2, 2.415252e+2, -594905.44, -687317.56, -13098.021, 0.00006264811, 0.0016696348, -593084.9, -20031.959, 0.0, 5.0108895, 4.951359 
3.5353577e+2, 2.464768e+2, -548164.06, -639475.6, -13002.1, 0.000036899593, -0.001695687, -546348.75, -21821.486, 0.0, 5.0100203, 4.9512134 
3.5352454e+2, 2.5142705e+2, -504737.6, -599117.75, -12279.211, -0.0000042103093, 0.001686119, -503166.2, -27151.44, 0.0, 5.0091586, 4.94844 
3.5351393e+2, 2.5637585e+2, -457629.53, -550632.2, -12121.656, -0.000046178375, -0.0017182727, -456075.6, -28558.96, 0.0, 5.008311, 4.948488 
3.535038e+2, 2.6132324e+2, -414419.94, -511018.5, -11186.314, -0.000053126685, 0.0016823801, -413141.47, -34109.176, 0.0, 5.0074725, 4.9454083 
3.5349447e+2, 2.6626918e+2, -366847.2, -461689.28, -10952.464, -0.0000801252, -0.0016484341, -365598.8, -35036.58, 0.0, 5.006652, 4.9457207 
3.534858e+2, 2.7121353e+2, -323942.28, -423062.28, -9822.776, -0.00008108482, 0.0016754501, -322978.22, -40870.973, 0.0, 5.0058427, 4.942239 
3.5347807e+2, 2.7615646e+2, -275900.97, -372903.16, -9501.692, -0.000037277612, -0.0019289799, -274979.0, -41312.41, 0.0, 5.0050564, 4.942808 
3.5347104e+2, 2.8109792e+2, -232848.88, -334282.16, -8191.498, -0.000013667584, 0.0021533037, -232191.61, -46951.402, 0.0, 5.004284, 4.9392705 
3.5346526e+2, 2.86038e+2, -184324.63, -283270.63, -7768.2915, -0.00012013195, -0.0027707056, -183718.45, -46891.234, 0.0, 5.0035377, 4.940107 
3.5346022e+2, 2.9097587e+2, -143692.45, -250640.86, -6278.2993, -0.00010421546, 0.0014554629, -143325.16, -54888.67, 0.0, 5.0028076, 4.934385 
3.534567e+2, 2.9591113e+2, -95257.33, -200167.22, -5752.4824, -0.000026768692, -0.0004423046, -94942.84, -54872.152, 0.0, 5.0021105, 4.934984 
3.534539e+2, 3.008536e+2, -54962.492, -135668.75, -4113.593, -0.00007059163, 0.002266843, -54753.367, -54753.367, 0.0, 5.00143, 4.949566 
3.5345283e+2, 3.05804e+2, -55181.93, -132864.75, -3466.594, -0.00005330872, -0.005613312, -55027.54, -55027.54, 0.0, 5.0007906, 4.950848 
3.534527e+2, 3.1077236e+2, -16657.16, -39762.996, -1493.1163, 0.00025511248, 0.0035308634, -16561.072, -16561.072, 0.0, 5.000173, 4.985184 
3.5345468e+2, 3.1575912e+2, -15807.032, -34875.246, -665.0735, 0.00056399946, -0.00093100197, -15783.863, -15783.863, 0.0, 4.999609, 4.987229 
3.5879675e+2, 1.2229022e+2, -1670783.8, -1740178.4, -92.07775, 0.0068333494, -0.006795634, -1670783.6, 70772.47, 0.0, 5.0302234, 4.9849024 
3.5879165e+2, 1.2727468e+2, -1629264.6, -1704378.4, -3330.4402, -0.019610625, 0.019579444, -1629117.1, 63590.98, 0.0, 5.0297956, 4.9808083 
3.587925e+2, 1.3225129e+2, -1583151.1, -1658509.5, -3863.8335, 0.016299177, -0.01564918, -1582953.6, 60983.96, 0.0, 5.029224, 4.9800024 
3.5878837e+2, 1.3723299e+2, -1537267.0, -1612399.4, -4022.5442, 0.0008635496, -0.0019453306, -1537052.3, 58064.508, 0.0, 5.0284877, 4.979429 
3.5878387e+2, 1.4221236e+2, -1493194.3, -1570105.6, -6149.4824, -0.005450802, 0.0066488623, -1492705.6, 53613.36, 0.0, 5.027761, 4.977551 
3.587792e+2, 1.4718948e+2, -1447147.9, -1523826.1, -6450.0625, -0.00037151892, -0.0006470156, -1446609.1, 50933.996, 0.0, 5.0270467, 4.977011 
3.5877317e+2, 1.5216549e+2, -1403387.5, -1482236.0, -8251.323, 0.0017951584, -0.0007594083, -1402533.3, 46245.09, 0.0, 5.0263104, 4.9749084 
3.587656e+2, 1.5714066e+2, -1357406.3, -1435912.4, -8494.902, 0.000107921245, -0.001397569, -1356497.5, 43524.164, 0.0, 5.0255437, 4.9743896 
3.5875723e+2, 1.621144e+2, -1313614.3, -1394145.1, -10014.754, -0.0005790046, 0.0019690304, -1312387.5, 38891.453, 0.0, 5.0247636, 4.972339 
3.5874805e+2, 1.6708677e+2, -1267573.0, -1347597.4, -10221.167, -0.0000054873553, -0.0011107594, -1266288.1, 36261.62, 0.0, 5.023963, 4.9718904 
3.587381e+2, 1.7205788e+2, -1223889.3, -1305995.4, -11480.968, 0.00023838379, 0.00095386046, -1222314.0, 31518.795, 0.0, 5.023149, 4.9697704 
3.5872734e+2, 1.770278e+2, -1177825.9, -1259307.5, -11658.235, 0.000060297065, -0.0012077464, -1176190.6, 28937.008, 0.0, 5.0223145, 4.9693646 
3.5871598e+2, 1.8199643e+2, -1134168.5, -1217718.3, -12652.841, -0.00001986571, 0.0013220925, -1132294.4, 24140.688, 0.0, 5.02147, 4.9672284 
3.58704e+2, 1.8696377e+2, -1088078.8, -1170922.5, -12799.612, 0.00001229617, -0.0013280633, -1086146.3, 21608.867, 0.0, 5.020611, 4.9668493 
3.5869163e+2, 1.9192988e+2, -1044456.1, -1129409.5, -13536.404, 0.000047203313, 0.0012414329, -1042351.4, 16735.836, 0.0, 5.0197453, 4.9646654 
3.5867876e+2, 1.9689468e+2, -998296.25, -1082444.8, -13648.081, 0.000059977163, -0.0013673378, -996138.0, 14294.139, 0.0, 5.018868, 4.9643307 
3.5866565e+2, 2.0185827e+2, -954701.1, -1041023.8, -14132.663, 0.00008973721, 0.0012577861, -952446.25, 9342.777, 0.0, 5.0179873, 4.9620957 
3.5865223e+2, 2.0682052e+2, -908477.56, -993932.25, -14212.752, 0.00012035375, -0.0014022473, -906175.7, 6983.319, 0.0, 5.0170975, 4.9617887 
3.586387e+2, 2.1178153e+2, -864892.7, -952593.0, -14436.332, 0.00015826906, 0.0013085288, -862577.44, 1963.5466, 0.0, 5.0162067, 4.959497 
3.5862502e+2, 2.1674117e+2, -818587.1, -905360.6, -14483.814, 0.0001237382, -0.0015118917, -816233.4, -297.05328, 0.0, 5.0153103, 4.9592195 
3.5861138e+2, 2.2169961e+2, -775007.94, -864130.0, -14453.38, 0.00013128667, 0.0013357732, -772722.56, -5378.8975, 0.0, 5.0144153, 4.956861 
3.5859782e+2, 2.2665668e+2, -728599.4, -816748.3, -14460.115, 0.00009662301, -0.0014698252, -726287.94, -7523.407, 0.0, 5.01352, 4.956612 
3.5858437e+2, 2.3161246e+2, -685030.1, -775671.9, -14185.806, 0.00009282286, 0.0013977584, -682861.9, -12664.087, 0.0, 5.012628, 4.954169 
3.5857117e+2, 2.3656683e+2, -638476.8, -728082.94, -14144.446, 0.000052852123, -0.0017211626, -636297.06, -14652.175, 0.0, 5.0117407, 4.953966 
3.5855827e+2, 2.4151996e+2, -594920.56, -687206.25, -13635.787, 0.000049496386, 0.0016376786, -592947.94, -19843.568, 0.0, 5.010859, 4.951413 
3.5854578e+2, 2.4647161e+2, -548185.0, -639355.2, -13539.982, 0.000022251264, -0.0017344021, -546216.6, -21638.46, 0.0, 5.0099854, 4.951273 
3.5853368e+2, 2.5142193e+2, -504740.6, -598933.56, -12803.686, -0.00002352592, 0.0016485448, -503031.22, -26966.264, 0.0, 5.009119, 4.9485235 
3.585222e+2, 2.563708e+2, -457638.56, -550438.2, -12644.43, -0.0000628674, -0.0017565256, -455946.56, -28380.59, 0.0, 5.0082664, 4.9485774 
3.5851127e+2, 2.613183e+2, -414412.47, -510761.8, -11691.109, -0.0000705195, 0.0016438508, -413014.16, -33933.516, 0.0, 5.0074234, 4.9455214 
3.5850114e+2, 2.6626435e+2, -366846.3, -461422.94, -11454.877, -0.0001008122, -0.0016885119, -365478.7, -34869.273, 0.0, 5.0065985, 4.9458394 
3.584916e+2, 2.7120885e+2, -323927.75, -422738.03, -10302.817, -0.000105080515, 0.0016358804, -322864.9, -40711.746, 0.0, 5.0057845, 4.94238 
3.5848314e+2, 2.7615193e+2, -275893.78, -372568.88, -9977.483, -0.00006333907, -0.00195387, -274874.78, -41163.72, 0.0, 5.004993, 4.9429555 
3.5847533e+2, 2.8109354e+2, -232827.8, -333886.9, -8641.599, -0.00003658501, 0.00213502, -232094.17, -46811.04, 0.0, 5.0042152, 4.9394417 
3.584688e+2, 2.860338e+2, -184309.69, -282860.53, -8213.239, -0.00014136892, -0.00279173, -183629.89, -46761.49, 0.0, 5.0034633, 4.9402857 
3.5846305e+2, 2.9097185e+2, -143674.7, -250192.1, -6691.6416, -0.00013266814, 0.0014362076, -143255.95, -54780.105, 0.0, 5.002728, 4.93458 
3.584588e+2, 2.9590732e+2, -95249.836, -199708.89, -6158.2017, -0.00006745459, -0.0004458004, -94888.04, -54779.95, 0.0, 5.002024, 4.935186 
3.5845533e+2, 3.0084997e+2, -54946.895, -135156.97, -4486.593, -0.000102594044, 0.0022741405, -54696.715, -54696.715, 0.0, 5.0013375, 4.949791 
3.584536e+2, 3.0580062e+2, -55172.438, -132331.27, -3826.9988, -0.00007295593, -0.005636458, -54983.09, -54983.09, 0.0, 5.000691, 4.951084 
3.5845286e+2, 3.1076923e+2, -16643.305, -39182.914, -1812.4333, 0.00020962465, 0.0034859956, -16498.494, -16498.494, 0.0, 5.0000663, 4.985444 
3.584543e+2, 3.1575626e+2, -15806.838, -34278.293, -966.255, 0.0005279533, -0.0008128514, -15756.43, -15756.43, 0.0, 4.9994926, 4.987499 
3.6382753e+2, 1.222898e+2, -1667449.8, -1738133.6, 75.56739, 0.006912226, -0.004985637, -1667449.8, 74110.39, 0.0, 5.031252, 4.9850707 
3.63822e+2, 1.2727286e+2, -1627128.5, -1705027.1, -2936.43, -0.019816086, 0.014663105, -1627017.9, 65707.82, 0.0, 5.0308766, 4.980067 
3.6382234e+2, 1.3224985e+2, -1580339.9, -1657812.4, -3697.4563, 0.016484028, -0.0116898455, -1580163.8, 63788.02, 0.0, 5.0303135, 4.9797025 
3.6381742e+2, 1.3723089e+2, -1534552.3, -1611697.1, -3844.7695, 0.00090979313, -0.0017574318, -1534361.1, 60776.258, 0.0, 5.029535, 4.9791536 
3.6381218e+2, 1.4220981e+2, -1490682.4, -1569537.1, -5966.687, -0.005483152, 0.005299086, -1490233.5, 56110.36, 0.0, 5.0287476, 4.977263 
3.6380672e+2, 1.4718679e+2, -1444885.3, -1523381.3, -6280.238, -0.000377055, -0.00074844895, -1444386.0, 53183.543, 0.0, 5.0279503, 4.9767237 
3.637999e+2, 1.5216257e+2, -1401262.9, -1481728.4, -8118.775, 0.001805452, -0.00034022323, -1400451.9, 48354.914, 0.0, 5.0271397, 4.9746795 
3.6379153e+2, 1.5713747e+2, -1355465.3, -1435485.1, -8366.302, 0.00010580395, -0.0013916071, -1354599.9, 45452.906, 0.0, 5.02631, 4.974166 
3.6378238e+2, 1.62111e+2, -1311822.8, -1393732.0, -9914.807, -0.0005860112, 0.0018027565, -1310639.8, 40672.633, 0.0, 5.025467, 4.972142 
3.6377233e+2, 1.6708319e+2, -1265966.6, -1347271.5, -10128.667, 0.0000009231382, -0.0011286422, -1264723.8, 37861.043, 0.0, 5.0246034, 4.971696 
3.6376157e+2, 1.7205413e+2, -1222421.4, -1305662.8, -11414.925, 0.00024745945, 0.0010061587, -1220884.5, 32985.14, 0.0, 5.023727, 4.9696093 
3.6374992e+2, 1.7702387e+2, -1176539.1, -1259062.6, -11596.893, 0.0000656522, -0.0012006485, -1174940.5, 30225.604, 0.0, 5.0228314, 4.969204 
3.6373767e+2, 1.8199235e+2, -1133017.5, -1217468.9, -12611.654, -0.000018733095, 0.0013073155, -1131174.3, 25300.582, 0.0, 5.0219264, 4.967099 
3.6372483e+2, 1.8695958e+2, -1087107.3, -1170757.4, -12761.753, 0.000010645703, -0.0013270779, -1085203.6, 22592.555, 0.0, 5.021005, 4.9667215 
3.6371154e+2, 1.9192557e+2, -1043622.75, -1129244.3, -13514.3545, 0.000044150056, 0.0012534476, -1041540.3, 17589.084, 0.0, 5.0200787, 4.9645667 
3.6369777e+2, 1.9689028e+2, -997638.6, -1082359.9, -13628.215, 0.000049742484, -0.0013561473, -995500.4, 14974.905, 0.0, 5.0191402, 4.964234 
3.6368376e+2, 2.0185378e+2, -954180.7, -1040936.56, -14121.646, 0.00007394803, 0.0012636716, -951939.94, 9893.041, 0.0, 5.018198, 4.962029 
3.636694e+2, 2.0681596e+2, -908131.06, -993921.75, -14203.129, 0.00010292248, -0.0014059468, -905840.8, 7362.7686, 0.0, 5.017247, 4.9617243 
3.6365494e+2, 2.1177693e+2, -864684.06, -952584.1, -14430.82, 0.00014375658, 0.0013005313, -862375.56, 2210.4963, 0.0, 5.016295, 4.9594603 
3.6364034e+2, 2.1673656e+2, -818550.75, -905425.6, -14479.99, 0.00011562144, -0.0015158757, -816200.9, -219.12843, 0.0, 5.015337, 4.9591856 
3.636258e+2, 2.2169498e+2, -775110.3, -864196.4, -14446.964, 0.00013030048, 0.0013293828, -772826.06, -5436.8125, 0.0, 5.014381, 4.9568553 
3.6361125e+2, 2.2665203e+2, -728873.0, -816885.3, -14454.191, 0.0000935793, -0.00148568, -726560.0, -7749.8965, 0.0, 5.0134234, 4.95661 
3.635969e+2, 2.3160782e+2, -685444.1, -775812.25, -14171.853, 0.0000898114, 0.0013758421, -683273.75, -13030.491, 0.0, 5.01247, 4.9541936 
3.6358276e+2, 2.3656222e+2, -639059.5, -728289.94, -14129.914, 0.000043820975, -0.0017456461, -636875.44, -15185.307, 0.0, 5.0115204, 4.953995 
3.6356896e+2, 2.4151538e+2, -595644.3, -687418.0, -13608.839, 0.000035114317, 0.0016137612, -593668.8, -20519.605, 0.0, 5.0105762, 4.951468 
3.6355555e+2, 2.464671e+2, -549073.56, -639629.4, -13511.021, 0.000009483133, -0.0017601156, -547100.7, -22478.305, 0.0, 5.0096416, 4.951333 
3.635426e+2, 2.514175e+2, -505770.03, -599213.75, -12757.964, -0.000034306508, 0.0016236575, -504059.47, -27951.012, 0.0, 5.0087132, 4.9486084 
3.6353022e+2, 2.5636646e+2, -458831.0, -550778.2, -12594.839, -0.000060910177, -0.0017785858, -457136.97, -29528.377, 0.0, 5.0077996, 4.9486675 
3.6351836e+2, 2.6131406e+2, -415744.47, -511106.66, -11619.814, -0.00006505889, 0.0016241794, -414349.0, -35226.723, 0.0, 5.0068946, 4.945636 
3.6350742e+2, 2.6626024e+2, -368337.34, -461823.84, -11378.471, -0.000101937025, -0.0017029825, -366972.38, -36322.484, 0.0, 5.0060086, 4.9459596 
3.6349705e+2, 2.7120486e+2, -325556.72, -423145.0, -10199.589, -0.00010923759, 0.0016309691, -324502.06, -42309.727, 0.0, 5.0051336, 4.9425235 
3.6348772e+2, 2.7614808e+2, -277678.03, -373028.06, -9867.03, -0.00006803426, -0.0019427467, -276667.7, -42918.906, 0.0, 5.0042825, 4.943105 
3.6347914e+2, 2.8108987e+2, -234745.47, -334347.13, -8500.127, -0.000036670437, 0.002150819, -234025.27, -48705.99, 0.0, 5.0034447, 4.9396152 
3.634718e+2, 2.860303e+2, -186375.83, -283364.84, -8063.889, -0.0001342034, -0.0027809525, -185709.95, -48807.17, 0.0, 5.0026336, 4.940468 
3.6346528e+2, 2.909685e+2, -145880.38, -250714.05, -6504.754, -0.00012927152, 0.001449761, -145478.31, -56969.938, 0.0, 5.0018387, 4.934779 
3.634603e+2, 2.9590422e+2, -97602.03, -200275.06, -5959.387, -0.00007350994, -0.00041311013, -97257.3, -57118.715, 0.0, 5.0010767, 4.9353924 
3.6345613e+2, 3.008471e+2, -57418.98, -135716.8, -4255.045, -0.00009854129, 0.0023161687, -57188.42, -57188.42, 0.0, 5.0003314, 4.9500213 
3.6345375e+2, 3.0579796e+2, -57787.5, -132928.64, -3578.8035, -0.0000712265, -0.005633407, -57617.438, -57617.438, 0.0, 4.999628, 4.9513254 
3.6345235e+2, 3.1076682e+2, -19361.496, -39762.605, -1531.3136, 0.00016765992, 0.0034566503, -19247.195, -19247.195, 0.0, 4.998946, 4.9857106 
3.6345312e+2, 3.1575415e+2, -18653.938, -34888.277, -661.79285, 0.00046435633, -0.00069992244, -18627.004, -18627.004, 0.0, 4.99832, 4.987777 
3.6885875e+2, 1.2228976e+2, -1667066.0, -1737696.3, -310.634, 0.0067715505, -0.0030021407, -1667064.6, 74495.85, 0.0, 5.0313253, 4.985179 
3.688529e+2, 1.2727132e+2, -1627936.4, -1707060.8, -3125.7075, -0.019614087, 0.008581779, -1627813.1, 64927.496, 0.0, 5.0309567, 4.979359 
3.6885265e+2, 1.3224891e+2, -1580519.1, -1658573.1, -4145.33, 0.016319929, -0.0067696944, -1580299.5, 63661.53, 0.0, 5.0303965, 4.9794116 
3.6884698e+2, 1.3722922e+2, -1534693.5, -1612383.6, -4306.9365, 0.0009422893, -0.0015057556, -1534455.5, 60698.223, 0.0, 5.0296183, 4.9788866 
3.6884093e+2, 1.4220765e+2, -1490871.9, -1570309.0, -6440.2017, -0.0053874124, 0.0036344533, -1490353.1, 56011.633, 0.0, 5.028827, 4.9769697 
3.6883467e+2, 1.4718449e+2, -1445099.4, -1524164.1, -6744.0415, -0.00036593448, -0.0008646906, -1444528.3, 53063.652, 0.0, 5.028021, 4.976431 
3.6882702e+2, 1.5216008e+2, -1401408.5, -1482336.9, -8601.373, 0.0017825462, 0.00019241184, -1400504.5, 48326.703, 0.0, 5.027203, 4.974448 
3.6881784e+2, 1.5713471e+2, -1355617.8, -1436083.6, -8848.65, 0.000107318134, -0.0013766427, -1354656.1, 45423.68, 0.0, 5.026368, 4.9739404 
3.6880782e+2, 1.6210799e+2, -1311953.4, -1394260.4, -10421.929, -0.0005736005, 0.0015996237, -1310654.1, 40687.527, 0.0, 5.0255194, 4.9719424 
3.6879697e+2, 1.6708e+2, -1266110.6, -1347800.9, -10637.067, 0.00001418939, -0.0011409984, -1264748.3, 37867.66, 0.0, 5.0246496, 4.971498 
3.687853e+2, 1.7205077e+2, -1222532.8, -1306097.6, -11945.788, 0.00025872476, 0.001078176, -1220858.6, 33043.82, 0.0, 5.0237675, 4.9694457 
3.6877275e+2, 1.7702036e+2, -1176665.4, -1259503.1, -12129.447, 0.00007495731, -0.0011957914, -1174925.9, 30274.693, 0.0, 5.022866, 4.969041 
3.687596e+2, 1.8198869e+2, -1133114.4, -1217822.1, -13162.924, -0.000018160617, 0.0012859426, -1131116.0, 25394.771, 0.0, 5.021955, 4.9669685 
3.6874583e+2, 1.8695578e+2, -1087219.3, -1171116.1, -13314.246, 0.000009314753, -0.0013218066, -1085157.0, 22676.313, 0.0, 5.0210285, 4.9665914 
3.687316e+2, 1.9192167e+2, -1043708.56, -1129521.5, -14080.984, 0.000042076423, 0.0012742754, -1041457.06, 17710.605, 0.0, 5.0200963, 4.9644666 
3.687169e+2, 1.9688627e+2, -997735.3, -1082635.1, -14195.858, 0.000035467798, -0.0013418348, -995424.5, 15090.014, 0.0, 5.0191526, 4.9641366 
3.6870193e+2, 2.0184968e+2, -954251.06, -1041130.94, -14699.366, 0.000050115137, 0.0012722904, -951831.44, 10041.608, 0.0, 5.018205, 4.9619617 
3.6868662e+2, 2.068118e+2, -908212.5, -994115.94, -14782.473, 0.000072591836, -0.0014064924, -905739.9, 7504.402, 0.0, 5.017249, 4.9616594 
3.6867124e+2, 2.1177272e+2, -864740.94, -952701.7, -15015.429, 0.000113884795, 0.0012923314, -862248.3, 2378.9194, 0.0, 5.016292, 4.959424 
3.6865568e+2, 2.1673231e+2, -818616.5, -905539.8, -15067.115, 0.00009337404, -0.0015167636, -816078.94, -55.66743, 0.0, 5.0153294, 4.9591527 
3.6864012e+2, 2.2169071e+2, -775151.75, -864234.8, -15033.79, 0.00011453665, 0.0013288254, -772683.06, -5252.0913, 0.0, 5.0143685, 4.95685 
3.6862466e+2, 2.2664776e+2, -728922.1, -816918.7, -15043.599, 0.000078488396, -0.0014948234, -726421.4, -7569.5527, 0.0, 5.0134068, 4.956609 
3.6860934e+2, 2.3160358e+2, -685470.6, -775773.56, -14756.043, 0.000074331816, 0.0013572115, -683120.56, -12835.669, 0.0, 5.0124483, 4.954219 
3.6859426e+2, 2.36558e+2, -639092.6, -728244.1, -14715.671, 0.000022276616, -0.0017679596, -636726.4, -14994.959, 0.0, 5.0114946, 4.9540253 
3.6857954e+2, 2.415112e+2, -595656.3, -687302.56, -14185.273, 0.000009299312, 0.0015977282, -593510.94, -20320.828, 0.0, 5.010546, 4.951524 
3.6856517e+2, 2.4646299e+2, -549091.6, -639505.1, -14087.82, -0.00001420803, -0.0017758021, -546947.4, -22284.719, 0.0, 5.009607, 4.951394 
3.6855128e+2, 2.5141346e+2, -505769.0, -599023.2, -13321.902, -0.000053261418, 0.0016063929, -503903.22, -27755.156, 0.0, 5.008674, 4.948694 
3.68538e+2, 2.5636253e+2, -458836.1, -550578.75, -13157.164, -0.00006256768, -0.0017900463, -456986.47, -29339.172, 0.0, 5.0077558, 4.9487586 
3.6852527e+2, 2.6131022e+2, -415731.7, -510841.97, -12164.139, -0.0000628302, 0.0016158236, -414200.6, -35040.625, 0.0, 5.0068464, 4.945752 
3.685134e+2, 2.6625648e+2, -368330.84, -461548.88, -11920.38, -0.00010898205, -0.0017044978, -366830.66, -36144.29, 0.0, 5.0059557, 4.9460816 
3.6850217e+2, 2.7120125e+2, -325535.25, -422808.94, -10719.087, -0.000119561446, 0.0016444575, -324368.06, -42140.527, 0.0, 5.005076, 4.942669 
3.68492e+2, 2.7614465e+2, -277663.56, -372681.0, -10382.601, -0.000080238904, -0.001912261, -276542.28, -42759.81, 0.0, 5.0042195, 4.943257 
3.6848256e+2, 2.8108656e+2, -234716.73, -333937.94, -8989.43, -0.000046430316, 0.002184641, -233908.86, -48557.465, 0.0, 5.0033765, 4.9397917 
3.6847445e+2, 2.8602722e+2, -186353.38, -282940.9, -8548.488, -0.00013426854, -0.0027533653, -185602.63, -48669.527, 0.0, 5.0025597, 4.940652 
3.684671e+2, 2.9096562e+2, -145852.1, -250244.06, -6957.9375, -0.00013296223, 0.0014814989, -145390.38, -56853.563, 0.0, 5.001759, 4.934982 
3.6846137e+2, 2.959015e+2, -97582.89, -199792.84, -6405.382, -0.00008789587, -0.00036091113, -97183.03, -57018.074, 0.0, 5.000991, 4.935602 
3.6845645e+2, 3.0084464e+2, -57391.656, -135180.31, -4667.779, -0.00010520913, 0.002377407, -57112.563, -57112.563, 0.0, 5.000239, 4.9502554 
3.6845338e+2, 3.0579576e+2, -57767.63, -132371.19, -3978.9424, -0.00009176652, -0.005614461, -57556.01, -57556.01, 0.0, 4.9995284, 4.95157 
3.6845127e+2, 3.1076482e+2, -19337.129, -39155.324, -1890.569, 0.00008518587, 0.0034386737, -19158.389, -19158.389, 0.0, 4.9988384, 4.985981 
3.6845142e+2, 3.1575248e+2, -18642.516, -34259.54, -1002.20636, 0.00030805115, -0.0005775613, -18578.463, -18578.463, 0.0, 4.9982023, 4.98806 
3.7389073e+2, 1.2229003e+2, -1663728.6, -1736290.4, -82.03955, 0.006665381, -0.0024734992, -1663728.5, 77829.31, 0.0, 5.0324936, 4.9850693 
3.7388453e+2, 1.2727085e+2, -1625293.6, -1706924.9, -2704.0498, -0.019047892, 0.0065711546, -1625204.1, 67541.195, 0.0, 5.0320926, 4.9788494 
3.7388358e+2, 1.3224837e+2, -1577677.0, -1657842.3, -3944.05, 0.015832592, -0.0051832623, -1577483.4, 66482.92, 0.0, 5.0314927, 4.97912 
3.7387714e+2, 1.3722824e+2, -1531971.9, -1611684.9, -4134.2085, 0.0009620197, -0.0014289467, -1531758.1, 63405.125, 0.0, 5.0306697, 4.978608 
3.738703e+2, 1.4220636e+2, -1488306.8, -1569667.0, -6297.607, -0.005169905, 0.0030783294, -1487822.3, 58555.363, 0.0, 5.029822, 4.976702 
3.738632e+2, 1.4718297e+2, -1442745.4, -1523623.9, -6583.733, -0.00033346517, -0.0009229285, -1442213.0, 55393.895, 0.0, 5.028945, 4.976166 
3.7385467e+2, 1.5215833e+2, -1399204.4, -1481794.3, -8448.424, 0.0017386049, 0.00034702817, -1398349.0, 50499.285, 0.0, 5.028061, 4.9742174 
3.7384462e+2, 1.5713271e+2, -1353593.1, -1435621.8, -8699.495, 0.00012700904, -0.001382419, -1352680.6, 47418.69, 0.0, 5.027164, 4.973714 
3.7383375e+2, 1.6210577e+2, -1310078.0, -1393814.5, -10300.528, -0.00052963017, 0.0015246448, -1308829.6, 42533.785, 0.0, 5.026253, 4.971742 
3.7382197e+2, 1.670776e+2, -1264422.0, -1347441.0, -10519.676, 0.00003692095, -0.0011588137, -1263109.8, 39529.715, 0.0, 5.0253196, 4.971301 
3.7380937e+2, 1.7204818e+2, -1220988.0, -1305735.5, -11851.626, 0.00026576192, 0.0010870788, -1219361.8, 34565.95, 0.0, 5.0243735, 4.9692817 
3.7379587e+2, 1.7701761e+2, -1175307.9, -1259230.5, -12038.475, 0.000084876614, -0.00120663, -1173615.1, 31612.346, 0.0, 5.0234084, 4.968878 
3.737818e+2, 1.819858e+2, -1131898.9, -1217550.1, -13091.779, -0.0000072884213, 0.0012737383, -1129942.5, 26596.734, 0.0, 5.0224347, 4.9668355 
3.7376702e+2, 1.8695275e+2, -1086189.6, -1170932.0, -13246.208, 0.000022948267, -0.0013087745, -1084167.4, 23695.69, 0.0, 5.0214443, 4.9664598 
3.7375185e+2, 1.9191852e+2, -1042823.56, -1129336.5, -14026.016, 0.000047924033, 0.0012912835, -1040606.44, 18592.06, 0.0, 5.020448, 4.964366 
3.7373617e+2, 1.9688302e+2, -997033.0, -1082532.0, -14141.474, 0.000019233252, -0.001346618, -994754.7, 15791.609, 0.0, 5.01944, 4.964039 
3.7372023e+2, 2.0184636e+2, -953692.6, -1041029.0, -14653.896, 0.000021801827, 0.0012630208, -951299.44, 10606.18, 0.0, 5.0184293, 4.9618936 
3.7370396e+2, 2.0680842e+2, -907835.2, -994095.2, -14737.989, 0.00004213593, -0.0014028086, -905386.6, 7890.8315, 0.0, 5.01741, 4.961593 
3.7368754e+2, 2.1176928e+2, -864506.6, -952683.25, -14974.112, 0.00008533474, 0.0012961482, -862033.1, 2627.8374, 0.0, 5.01639, 4.959387 
3.73671e+2, 2.1672884e+2, -818561.06, -905598.06, -15026.86, 0.00007316841, -0.0015169967, -816039.75, 17.543259, 0.0, 5.015363, 4.9591184 
3.7365448e+2, 2.2168721e+2, -775241.3, -864295.94, -14990.315, 0.00009801232, 0.0013269669, -772785.75, -5320.5293, 0.0, 5.0143385, 4.9568443 
3.73638e+2, 2.2664428e+2, -729187.94, -817052.7, -15000.823, 0.000060893166, -0.0014972339, -726697.5, -7811.415, 0.0, 5.013313, 4.956607 
3.736217e+2, 2.3160008e+2, -685881.25, -775911.56, -14704.8125, 0.00005726339, 0.0013525034, -683540.4, -13221.27, 0.0, 5.012291, 4.954244 
3.7360564e+2, 2.3655455e+2, -639677.4, -728451.5, -14663.816, 0.000006979457, -0.0017795077, -637317.94, -15552.586, 0.0, 5.011273, 4.954055 
3.735899e+2, 2.4150778e+2, -596387.6, -687515.06, -14120.607, -0.0000047214594, 0.0015875504, -594249.75, -21026.148, 0.0, 5.01026, 4.95158 
3.7357458e+2, 2.4645962e+2, -549994.6, -639783.25, -14020.819, -0.000024429233, -0.0017845595, -547856.1, -23160.576, 0.0, 5.0092573, 4.951455 
3.735597e+2, 2.514102e+2, -506816.78, -599306.5, -13237.745, -0.00005456463, 0.0015968393, -504959.4, -28779.207, 0.0, 5.0082607, 4.9487815 
3.735455e+2, 2.563593e+2, -460051.78, -550924.25, -13068.334, -0.00005124353, -0.0018019304, -458209.78, -30531.223, 0.0, 5.0072794, 4.948851 
3.7353182e+2, 2.613071e+2, -417091.6, -511192.56, -12052.893, -0.000051519382, 0.0016009795, -415572.34, -36382.11, 0.0, 5.006306, 4.9458694 
3.73519e+2, 2.662535e+2, -369856.47, -461958.28, -11803.559, -0.00009931142, -0.0017164624, -368367.8, -37652.395, 0.0, 5.005352, 4.946205 
3.7350687e+2, 2.7119842e+2, -327204.22, -423224.0, -10574.778, -0.00010861282, 0.0016418955, -326053.4, -43798.14, 0.0, 5.0044093, 4.9428167 
3.7349582e+2, 2.7614197e+2, -279494.72, -373150.63, -10231.036, -0.000078520905, -0.0018989334, -278390.1, -44581.42, 0.0, 5.0034895, 4.9434114 
3.734855e+2, 2.810841e+2, -236688.86, -334411.4, -8805.896, -0.000044020137, 0.002201248, -235901.69, -50525.69, 0.0, 5.002584, 4.93997 
3.7347654e+2, 2.860249e+2, -188481.89, -283461.84, -8357.378, -0.00011187666, -0.0027440991, -187752.13, -50796.25, 0.0, 5.001705, 4.9408383 
3.7346837e+2, 2.909635e+2, -148125.75, -250779.1, -6728.949, -0.000109986446, 0.0014954443, -147686.55, -59128.855, 0.0, 5.0008426, 4.935189 
3.734618e+2, 2.9589963e+2, -100010.01, -200373.11, -6164.814, -0.00008651701, -0.00032514695, -99632.75, -59449.035, 0.0, 5.000013, 4.9358172 
3.7345615e+2, 3.0084297e+2, -59947.125, -135757.4, -4395.4, -0.00010454495, 0.0024241994, -59693.137, -59693.137, 0.0, 4.9991994, 4.9504943 
3.7345228e+2, 3.057943e+2, -60479.64, -132992.38, -3690.942, -0.0001038349, -0.0055938484, -60292.254, -60292.254, 0.0, 4.998427, 4.9518194 
3.7344947e+2, 3.1076366e+2, -22164.549, -39761.234, -1572.1838, 0.000014731981, 0.0034359423, -22025.186, -22025.186, 0.0, 4.997675, 4.986257 
3.7344894e+2, 3.1575158e+2, -21611.44, -34897.242, -660.82526, 0.00015741758, -0.0004851273, -21578.65, -21578.65, 0.0, 4.9969807, 4.9883485 
3.7892318e+2, 1.222906e+2, -1663682.9, -1736791.5, -392.97952, 0.00638007, -0.0022288596, -1663680.9, 77871.51, 0.0, 5.032621, 4.984843 
3.789167e+2, 1.2727094e+2, -1625605.9, -1708058.5, -2920.0134, -0.01837568, 0.006395279, -1625502.6, 67241.695, 0.0, 5.0321975, 4.978426 
3.78915e+2, 1.3224812e+2, -1577858.9, -1658618.1, -4408.554, 0.015258613, -0.005079099, -1577618.9, 66349.71, 0.0, 5.0315776, 4.978823 
3.7890783e+2, 1.3722771e+2, -1532186.6, -1612455.6, -4613.8125, 0.0009796043, -0.0014216756, -1531922.4, 63246.094, 0.0, 5.0307384, 4.978321 
3.7890014e+2, 1.4220555e+2, -1488501.9, -1570365.8, -6810.736, -0.0049149077, 0.0030295618, -1487939.1, 58446.426, 0.0, 5.0298834, 4.9764423 
3.7889215e+2, 1.471819e+2, -1442925.5, -1524306.0, -7089.6978, -0.00029172713, -0.00094462186, -1442312.5, 55304.77, 0.0, 5.0290093, 4.975909 
3.7888277e+2, 1.5215702e+2, -1399350.9, -1482406.9, -8966.081, 0.0016904047, 0.00034098362, -1398394.0, 50467.15, 0.0, 5.0281243, 4.9739847 
3.788718e+2, 1.5713118e+2, -1353747.8, -1436230.5, -9217.269, 0.00015424353, -0.0013901108, -1352730.4, 47384.113, 0.0, 5.027223, 4.973484 
3.7886e+2, 1.6210403e+2, -1310204.5, -1394343.6, -10845.464, -0.0004736735, 0.0015146596, -1308829.0, 42551.566, 0.0, 5.026307, 4.971542 
3.7884727e+2, 1.6707565e+2, -1264559.9, -1347969.0, -11065.691, 0.00006454491, -0.0011722139, -1263116.9, 39541.848, 0.0, 5.0253677, 4.971103 
3.7883374e+2, 1.7204605e+2, -1221096.9, -1306177.5, -12419.762, 0.00027086053, 0.0010746432, -1219320.9, 34627.797, 0.0, 5.024416, 4.969115 
3.788193e+2, 1.770153e+2, -1175431.4, -1259675.1, -12607.659, 0.00009408385, -0.0012179604, -1173585.0, 31664.99, 0.0, 5.0234447, 4.968713 
3.7880424e+2, 1.8198335e+2, -1131995.8, -1217912.3, -13680.249, 0.000007980687, 0.001270333, -1129870.1, 26693.066, 0.0, 5.022465, 4.9667015 
3.7878847e+2, 1.8695018e+2, -1086300.3, -1171296.6, -13836.007, 0.000041719446, -0.0012876724, -1084104.6, 23783.662, 0.0, 5.021469, 4.966327 
3.7877232e+2, 1.9191581e+2, -1042905.8, -1129614.6, -14629.406, 0.00005225948, 0.0013086858, -1040504.06, 18720.87, 0.0, 5.0204673, 4.9642653 
3.7875563e+2, 1.9688024e+2, -997128.1, -1082810.9, -14746.084, -0.0000028995623, -0.0013565875, -994661.3, 15912.43, 0.0, 5.0194535, 4.9639406 
3.7873864e+2, 2.0184347e+2, -953762.0, -1041226.8, -15268.611, -0.000013564445, 0.0012514711, -951173.2, 10760.6875, 0.0, 5.018437, 4.9618254 
3.7872133e+2, 2.0680547e+2, -907916.4, -994293.2, -15354.309, 0.0000041914586, -0.0013926994, -905268.2, 8038.129, 0.0, 5.017412, 4.9615273 
3.7870392e+2, 2.1176629e+2, -864562.7, -952802.75, -15596.288, 0.000047027275, 0.0013082349, -861887.2, 2803.1526, 0.0, 5.016387, 4.9593496 
3.7868634e+2, 2.1672581e+2, -818625.9, -905714.4, -15651.994, 0.000042820186, -0.0015136186, -815898.25, 188.73787, 0.0, 5.015356, 4.9590845 
3.7866879e+2, 2.2168416e+2, -775281.0, -864335.0, -15614.91, 0.00006885379, 0.0013294099, -772622.44, -5127.3, 0.0, 5.0143266, 4.956839 
3.7865126e+2, 2.2664122e+2, -729235.3, -817086.4, -15628.468, 0.000030450014, -0.0014925877, -726537.9, -7621.8594, 0.0, 5.013296, 4.9566054 
3.7863398e+2, 2.3159705e+2, -685905.3, -775871.4, -15327.694, 0.000027629572, 0.0013591403, -683365.56, -13016.71, 0.0, 5.01227, 4.9542704 
3.7861687e+2, 2.3655154e+2, -639708.3, -728404.25, -15288.743, -0.000017096449, -0.0017805535, -637146.9, -15352.068, 0.0, 5.0112476, 4.9540854 
3.7860012e+2, 2.4150482e+2, -596396.4, -687395.8, -14736.683, -0.000025152536, 0.0015842974, -594069.44, -20816.758, 0.0, 5.0102305, 4.9516377 
3.7858382e+2, 2.4645673e+2, -550009.2, -639655.3, -14637.378, -0.000041718933, -0.001786145, -547679.75, -22955.752, 0.0, 5.009223, 4.951518 
3.7856796e+2, 2.5140736e+2, -506810.7, -599108.9, -13841.241, -0.00006024361, 0.0015960004, -504779.72, -28571.773, 0.0, 5.008222, 4.94887 
3.7855276e+2, 2.563566e+2, -460051.47, -550717.2, -13670.598, -0.000046680612, -0.001809671, -458035.06, -30329.701, 0.0, 5.0072365, 4.948945 
3.785381e+2, 2.6130447e+2, -417072.6, -510918.22, -12637.912, -0.000050789567, 0.0015876191, -415400.47, -36184.47, 0.0, 5.0062585, 4.945989 
3.7852436e+2, 2.66251e+2, -369843.94, -461673.9, -12386.355, -0.000097050994, -0.0017283583, -368202.56, -37462.582, 0.0, 5.0053, 4.9463305 
3.7851125e+2, 2.7119607e+2, -327175.22, -422875.03, -11135.364, -0.00010363964, 0.0016359834, -325896.63, -43618.15, 0.0, 5.004352, 4.942967 
3.784993e+2, 2.7613974e+2, -279472.3, -372790.03, -10788.222, -0.00008891421, -0.0018893315, -278241.34, -44410.996, 0.0, 5.0034275, 4.9435678 
3.784881e+2, 2.8108203e+2, -236652.08, -333988.56, -9336.501, -0.000056670644, 0.002214565, -235764.61, -50368.566, 0.0, 5.0025163, 4.940151 
3.7847823e+2, 2.8602305e+2, -188451.22, -283024.1, -8883.823, -0.00010061917, -0.0027393966, -187623.94, -50649.844, 0.0, 5.001632, 4.941027 
3.784692e+2, 2.9096183e+2, -148086.13, -250288.14, -7224.243, -0.0000981115, 0.001505605, -147578.0, -59004.023, 0.0, 5.000764, 4.9353986 
3.7846187e+2, 2.9589817e+2, -99978.61, -199867.84, -6653.1563, -0.00010321313, -0.00029269047, -99537.42, -59339.574, 0.0, 4.999928, 4.936035 
3.784553e+2, 3.0084175e+2, -59907.793, -135198.14, -4851.061, -0.00012934396, 0.0024687143, -59596.52, -59596.52, 0.0, 4.999108, 4.9507365 
3.7845072e+2, 3.0579334e+2, -60448.637, -132413.45, -4134.8467, -0.00014570312, -0.005567494, -60211.844, -60211.844, 0.0, 4.9983277, 4.9520717 
3.7844712e+2, 3.1076297e+2, -22128.965, -39130.918, -1975.7813, -0.00009344283, 0.0034487913, -21902.38, -21902.38, 0.0, 4.997567, 4.986536 
3.7844592e+2, 3.1575117e+2, -21588.12, -34241.586, -1044.8251, -0.00007208177, -0.00039326234, -21502.426, -21502.426, 0.0, 4.996863, 4.9886413 
3.8395655e+2, 1.22291334e+2, -1660528.0, -1736551.4, -144.3019, 0.00645055, -0.0040425058, -1660527.8, 81017.305, 0.0, 5.033961, 4.984266 
3.8394955e+2, 1.2727219e+2, -1622105.0, -1706614.4, -2531.1433, -0.018406287, 0.011063136, -1622029.3, 70702.82, 0.0, 5.033431, 4.9782987 
3.839472e+2, 1.3224833e+2, -1574905.4, -1657827.1, -4186.4263, 0.0152949225, -0.008902246, -1574694.6, 69272.086, 0.0, 5.032711, 4.9785333 
3.8393912e+2, 1.3722797e+2, -1529514.8, -1611823.4, -4418.1626, 0.0010180743, -0.0016410269, -1529278.3, 65887.61, 0.0, 5.0317826, 4.978024 
3.8393053e+2, 1.4220569e+2, -1485951.8, -1569663.8, -6617.56, -0.004868899, 0.0042764605, -1485431.8, 60952.375, 0.0, 5.030859, 4.9762034 
3.8392162e+2, 1.4718169e+2, -1440496.5, -1523654.5, -6881.231, -0.00025274328, -0.00087405316, -1439930.9, 57688.492, 0.0, 5.029943, 4.9756765 
3.839113e+2, 1.5215653e+2, -1397073.8, -1481835.4, -8779.351, 0.0017213318, -0.0000836236, -1396174.0, 52692.01, 0.0, 5.0290084, 4.973751 
3.8389945e+2, 1.5713048e+2, -1351652.5, -1435747.6, -9036.754, 0.00019079457, -0.0014317515, -1350692.4, 49428.85, 0.0, 5.028046, 4.9732523 
3.838867e+2, 1.6210313e+2, -1308247.0, -1393854.6, -10695.136, -0.00044294327, 0.0016342126, -1306931.0, 44458.285, 0.0, 5.027068, 4.971343 
3.83873e+2, 1.6707455e+2, -1262789.5, -1347565.8, -10917.349, 0.00008238776, -0.0011878897, -1261406.1, 41263.33, 0.0, 5.026065, 4.9709077 
3.8385847e+2, 1.7204477e+2, -1219477.5, -1305786.0, -12294.648, 0.00028212057, 0.0010084982, -1217760.3, 36201.08, 0.0, 5.0250487, 4.968948 
3.8384297e+2, 1.7701386e+2, -1174003.6, -1259373.8, -12486.033, 0.00011423943, -0.0012200398, -1172215.0, 33049.188, 0.0, 5.024012, 4.968548 
3.8382694e+2, 1.8198176e+2, -1130720.1, -1217614.3, -13577.138, 0.000032821827, 0.0012900071, -1128648.1, 27930.736, 0.0, 5.0229664, 4.9665675 
3.8381016e+2, 1.8694843e+2, -1085213.9, -1171084.9, -13733.356, 0.000060305116, -0.0012942648, -1083071.0, 24834.332, 0.0, 5.0219045, 4.966196 
3.8379294e+2, 1.9191398e+2, -1041967.5, -1129406.6, -14538.789, 0.000055083547, 0.0012890999, -1039613.5, 19629.6, 0.0, 5.020838, 4.9641643 
3.8377517e+2, 1.9687828e+2, -996380.25, -1082689.9, -14655.442, -0.000012288242, -0.0013569483, -993959.6, 16633.195, 0.0, 5.0197577, 4.9638414 
3.8375717e+2, 2.0184144e+2, -953163.75, -1041109.4, -15186.168, -0.000030424333, 0.0012616259, -950615.3, 11338.465, 0.0, 5.018676, 4.961756 
3.837388e+2, 2.0680338e+2, -907506.75, -994260.44, -15272.36, -0.00001693345, -0.001381177, -904896.7, 8430.248, 0.0, 5.0175843, 4.96146 
3.8372034e+2, 2.1176413e+2, -864303.6, -952773.0, -15516.1, 0.00002015315, 0.0013193369, -861661.25, 3050.172, 0.0, 5.016493, 4.9593124 
3.8370165e+2, 2.1672362e+2, -818549.0, -905762.56, -15571.73, 0.000015741249, -0.0015098406, -815852.1, 256.33044, 0.0, 5.0153966, 4.9590507 
3.836831e+2, 2.2168197e+2, -775353.4, -864389.06, -15530.559, 0.000041660747, 0.0013322324, -772722.1, -5205.3965, 0.0, 5.0143023, 4.956833 
3.836645e+2, 2.26639e+2, -729490.1, -817216.56, -15544.549, 0.00001117448, -0.0014824388, -726817.2, -7879.513, 0.0, 5.013206, 4.956603 
3.8364613e+2, 2.3159485e+2, -686310.56, -776005.4, -15235.039, 0.000014663209, 0.0013760339, -683793.5, -13423.06, 0.0, 5.0121136, 4.9542966 
3.8362798e+2, 2.3654938e+2, -640294.7, -728610.75, -15194.826, -0.000024999381, -0.0017754588, -637753.5, -15937.437, 0.0, 5.011025, 4.9541163 
3.8361016e+2, 2.415027e+2, -597133.25, -687607.44, -14628.754, -0.000032431166, 0.0015822867, -594826.75, -21553.244, 0.0, 5.0099416, 4.951696 
3.8359284e+2, 2.4645467e+2, -550923.1, -639935.5, -14526.471, -0.00004938848, -0.0017883957, -548612.44, -23868.223, 0.0, 5.0088687, 4.9515805 
3.8357592e+2, 2.5140536e+2, -507874.66, -599394.44, -13712.424, -0.000058524576, 0.0015969137, -505864.28, -29636.838, 0.0, 5.0078015, 4.9489594 
3.8355973e+2, 2.5635472e+2, -461289.4, -551067.4, -13536.845, -0.000032808566, -0.0018070828, -459292.72, -31568.809, 0.0, 5.0067506, 4.94904 
3.8354406e+2, 2.613027e+2, -418460.34, -511274.0, -12482.0, -0.00003513684, 0.0015903211, -416811.03, -37577.508, 0.0, 5.005707, 4.9461102 
3.8352934e+2, 2.6624936e+2, -371404.94, -462091.78, -12224.553, -0.000074491836, -0.0017235404, -369785.97, -39029.727, 0.0, 5.004682, 4.9464574 
3.8351524e+2, 2.7119455e+2, -328885.13, -423298.16, -10945.429, -0.00007380983, 0.0016432401, -327632.8, -45339.414, 0.0, 5.0036683, 4.9431195 
3.835023e+2, 2.761384e+2, -281351.0, -373269.94, -10591.093, -0.000073462856, -0.0018762491, -280146.47, -46302.74, 0.0, 5.0026784, 4.943727 
3.8349015e+2, 2.8108084e+2, -238679.28, -334475.6, -9106.4375, -0.000044649856, 0.0022282044, -237821.31, -52413.56, 0.0, 5.0017023, 4.940335 
3.834794e+2, 2.8602204e+2, -190642.14, -283561.8, -8646.442, -0.00006335774, -0.0027266513, -189844.4, -52860.465, 0.0, 5.0007534, 4.941219 
3.834695e+2, 2.9096103e+2, -150427.19, -250836.16, -6948.8013, -0.000057082296, 0.0015249767, -149948.58, -61366.71, 0.0, 4.9998198, 4.9356127 
3.834612e+2, 2.9589757e+2, -102480.87, -200462.73, -6366.29, -0.000084131796, -0.00026737244, -102068.96, -61865.414, 0.0, 4.998919, 4.936258 
3.8345385e+2, 3.0084136e+2, -62547.207, -135793.75, -4533.759, -0.00011585106, 0.002495227, -62267.65, -62267.65, 0.0, 4.998034, 4.950983 
3.8344842e+2, 3.0579326e+2, -63255.45, -133059.17, -3803.12, -0.00014613953, -0.005535693, -63048.855, -63048.855, 0.0, 4.997189, 4.9523287 
3.8344404e+2, 3.1076312e+2, -25061.283, -39765.156, -1616.542, -0.00014702084, 0.0034803255, -24885.658, -24885.658, 0.0, 4.9963627, 4.9868193 
3.8344207e+2, 3.1575164e+2, -24674.691, -34911.254, -663.6287, -0.00021642166, -0.00039718996, -24631.85, -24631.85, 0.0, 4.9955955, 4.9889383 
3.8899052e+2, 1.22292385e+2, -1660918.1, -1738409.9, -386.95233, 0.006487832, -0.0060809315, -1660916.3, 80618.57, 0.0, 5.0341887, 4.9835434 
3.8898298e+2, 1.2727404e+2, -1621823.9, -1706508.6, -2831.3792, -0.018751275, 0.017186388, -1621729.4, 70984.91, 0.0, 5.033531, 4.9782853 
3.889799e+2, 1.3224891e+2, -1575221.0, -1658654.3, -4710.2954, 0.015614483, -0.013889176, -1574955.9, 69004.98, 0.0, 5.0327477, 4.9782434 
3.889709e+2, 1.3722871e+2, -1529799.4, -1612663.0, -4937.5454, 0.0010680142, -0.0019156733, -1529506.3, 65652.336, 0.0, 5.031835, 4.977722 
3.889614e+2, 1.4220636e+2, -1486105.0, -1570286.6, -7123.437, -0.004916996, 0.005930385, -1485506.5, 60871.17, 0.0, 5.030923, 4.975968 
3.889516e+2, 1.4718197e+2, -1440626.6, -1524251.8, -7393.468, -0.00021460332, -0.0007643808, -1439978.0, 57638.574, 0.0, 5.030011, 4.9754467 
3.8894033e+2, 1.5215653e+2, -1397212.5, -1482452.8, -9330.616, 0.0017872396, -0.0006276107, -1396203.1, 52662.95, 0.0, 5.029076, 4.973515 
3.889275e+2, 1.571303e+2, -1351809.3, -1436374.6, -9587.691, 0.00023178529, -0.001475133, -1350735.8, 49387.348, 0.0, 5.0281076, 4.9730153 
3.8891375e+2, 1.6210274e+2, -1308364.3, -1394373.6, -11274.353, -0.00042332307, 0.0018026155, -1306911.0, 44482.21, 0.0, 5.0271235, 4.971145 
3.8889906e+2, 1.6707394e+2, -1262922.3, -1348089.9, -11498.705, 0.0000963824, -0.0011961581, -1261397.1, 41278.285, 0.0, 5.026114, 4.970711 
3.8888347e+2, 1.7204396e+2, -1219585.4, -1306232.1, -12899.771, 0.000297639, 0.00093272666, -1217705.6, 36263.49, 0.0, 5.025092, 4.9687796 
3.88867e+2, 1.770129e+2, -1174126.0, -1259822.9, -13092.551, 0.00013792634, -0.0012111159, -1172170.4, 33103.094, 0.0, 5.0240493, 4.9683814 
3.8884988e+2, 1.8198065e+2, -1130814.3, -1217977.9, -14202.148, 0.000059270173, 0.0013224533, -1128558.6, 28031.049, 0.0, 5.022998, 4.9664326 
3.8883203e+2, 1.8694721e+2, -1085319.1, -1171445.3, -14359.0, 0.00007685691, -0.0013077246, -1082988.3, 24929.213, 0.0, 5.02193, 4.9660645 
3.8881376e+2, 1.919126e+2, -1042047.3, -1129686.5, -15179.718, 0.000054471006, 0.00126171, -1039492.56, 19763.84, 0.0, 5.020858, 4.9640627 
3.8879493e+2, 1.9687682e+2, -996474.06, -1082972.4, -15297.751, -0.0000199678, -0.0013449274, -993848.25, 16758.78, 0.0, 5.019772, 4.963742 
3.8877583e+2, 2.0183992e+2, -953231.5, -1041309.9, -15838.69, -0.00004655911, 0.0012842601, -950469.9, 11498.954, 0.0, 5.0186844, 4.9616866 
3.8875633e+2, 2.0680177e+2, -907585.9, -994460.9, -15927.077, -0.00004027051, -0.0013674146, -904758.0, 8584.658, 0.0, 5.0175877, 4.961393 
3.8873678e+2, 2.1176249e+2, -864355.8, -952890.9, -16175.47, -0.000012609278, 0.0013367807, -861493.06, 3234.5867, 0.0, 5.0164914, 4.959276 
3.8871706e+2, 2.1672194e+2, -818610.1, -905876.4, -16234.484, -0.00002088286, -0.0014985725, -815687.8, 437.18787, 0.0, 5.0153904, 4.9590178 
3.8869736e+2, 2.2168025e+2, -775391.0, -864428.5, -16194.14, 0.000003872948, 0.0013408577, -772537.1, -5003.6187, 0.0, 5.014291, 4.9568276 
3.886777e+2, 2.266373e+2, -729535.8, -817251.4, -16211.589, -0.000015771207, -0.0014647217, -726635.5, -7681.0474, 0.0, 5.0131903, 4.9566016 
3.886582e+2, 2.3159316e+2, -686330.9, -775961.9, -15897.836, -0.0000037363238, 0.0014040163, -683594.6, -13207.583, 0.0, 5.012093, 4.954324 
3.88639e+2, 2.365477e+2, -640321.4, -728559.94, -15860.263, -0.000037995535, -0.0017607245, -637557.2, -15724.8, 0.0, 5.011, 4.954148 
3.8862008e+2, 2.4150106e+2, -597136.9, -687482.44, -15285.327, -0.00004686264, 0.0015874455, -594620.8, -21331.465, 0.0, 5.0099125, 4.951755 
3.886017e+2, 2.464531e+2, -550933.3, -639802.94, -15184.064, -0.00006527059, -0.0017843137, -548410.6, -23651.137, 0.0, 5.0088353, 4.951645 
3.8858372e+2, 2.5140387e+2, -507863.4, -599189.94, -14357.583, -0.0000664104, 0.0016056311, -505659.4, -29417.484, 0.0, 5.0077634, 4.9490504 
3.8856643e+2, 2.563533e+2, -461284.1, -550853.4, -14181.165, -0.000029072191, -0.0017929736, -459092.47, -31355.023, 0.0, 5.006708, 4.9491367 
3.8854975e+2, 2.6130143e+2, -418435.38, -510990.3, -13110.261, -0.000027640679, 0.0016073788, -416614.16, -37368.156, 0.0, 5.0056596, 4.946233 
3.88534e+2, 2.662482e+2, -371386.1, -461797.78, -12851.131, -0.000058908638, -0.001703204, -369594.9, -38827.44, 0.0, 5.0046306, 4.946586 
3.885189e+2, 2.7119353e+2, -328848.34, -422936.22, -11549.949, -0.000050090086, 0.0016643717, -327451.25, -45148.0, 0.0, 5.0036116, 4.943274 
3.8850498e+2, 2.7613753e+2, -281320.5, -372895.53, -11193.029, -0.00006471556, -0.0018541595, -279972.25, -46120.258, 0.0, 5.002617, 4.9438887 
3.8849184e+2, 2.8108016e+2, -238634.48, -334039.16, -9681.717, -0.000042678614, 0.0022503133, -237661.89, -52247.56, 0.0, 5.001635, 4.9405203 
3.8848013e+2, 2.860216e+2, -190602.97, -283110.56, -9218.205, -0.000037039936, -0.0027016934, -189693.34, -52704.69, 0.0, 5.0006814, 4.941412 
3.884693e+2, 2.9096076e+2, -150375.52, -250324.19, -7490.126, -0.000026872167, 0.0015570682, -149817.33, -61232.754, 0.0, 4.999742, 4.93583 
3.8846013e+2, 2.9589754e+2, -102436.57, -199934.61, -6900.9946, -0.000074083175, -0.00023683917, -101950.54, -61746.504, 0.0, 4.9988356, 4.936484 
3.8845187e+2, 3.0084157e+2, -62495.12, -135212.17, -5036.659, -0.000114527174, 0.0025216062, -62147.92, -62147.92, 0.0, 4.997944, 4.951233 
3.884456e+2, 3.057937e+2, -63211.86, -132459.73, -4295.3525, -0.00016192393, -0.0054939985, -62946.44, -62946.44, 0.0, 4.9970913, 4.952588 
3.8844037e+2, 3.1076387e+2, -25013.055, -39115.215, -2069.5117, -0.00021880731, 0.0035321303, -24715.625, -24715.625, 0.0, 4.996257, 4.987105 
3.8843766e+2, 3.1575266e+2, -24638.313, -34235.31, -1096.6586, -0.00040181124, -0.00043221918, -24514.592, -24514.592, 0.0, 4.995479, 4.9892383 
3.9402565e+2, 1.22294255e+2, -1657621.8, -1739109.9, -13.09122, 0.00716409, -0.005953802, -1657621.8, 83894.7, 0.0, 5.0357947, 4.9825273 
3.94017e+2, 1.2727617e+2, -1617813.4, -1704113.8, -2624.692, -0.020210583, 0.01836442, -1617733.6, 74959.89, 0.0, 5.034786, 4.978461 
3.9401335e+2, 1.3225082e+2, -1572429.9, -1657818.0, -4430.7544, 0.016902061, -0.014818378, -1572200.5, 71741.66, 0.0, 5.0338006, 4.978008 
3.940033e+2, 1.3723046e+2, -1527085.5, -1611914.6, -4626.982, 0.0011495142, -0.0019566044, -1526833.9, 68307.76, 0.0, 5.0328736, 4.9774666 
3.9399284e+2, 1.4220788e+2, -1483475.6, -1569591.8, -6816.6006, -0.0053080902, 0.006240556, -1482939.4, 63423.434, 0.0, 5.031935, 4.9757094 
3.939821e+2, 1.471832e+2, -1438118.6, -1523616.3, -7111.5005, -0.00020645888, -0.000733982, -1437531.1, 60073.47, 0.0, 5.030984, 4.9751897 
3.9396992e+2, 1.5215749e+2, -1394825.5, -1481827.1, -9114.656, 0.0019506111, -0.000722497, -1393880.9, 54975.723, 0.0, 5.0299973, 4.973282 
3.9395607e+2, 1.5713103e+2, -1349618.5, -1435842.4, -9374.32, 0.0002656982, -0.0014970904, -1348611.0, 51504.86, 0.0, 5.0289626, 4.9727845 
3.9394128e+2, 1.6210325e+2, -1306323.9, -1393841.8, -11088.833, -0.00045373014, 0.0018149588, -1304940.8, 46447.18, 0.0, 5.0279126, 4.9709477 
3.9392555e+2, 1.6707426e+2, -1261080.0, -1347655.3, -11315.743, 0.000104106046, -0.0011971273, -1259625.5, 43046.684, 0.0, 5.0268364, 4.9705143 
3.9390892e+2, 1.7204411e+2, -1217894.3, -1305800.1, -12739.798, 0.00032564512, 0.000920207, -1216085.1, 37882.504, 0.0, 5.0257483, 4.968615 
3.9389133e+2, 1.7701289e+2, -1172633.4, -1259489.1, -12933.883, 0.00014871144, -0.0012253388, -1170748.3, 34525.387, 0.0, 5.0246387, 4.9682164 
3.9387313e+2, 1.8198049e+2, -1129474.9, -1217648.8, -14060.103, 0.00006439973, 0.0013099468, -1127287.3, 29304.096, 0.0, 5.02352, 4.966299 
3.938542e+2, 1.869469e+2, -1084173.1, -1171204.4, -14215.916, 0.000096355354, -0.0013162983, -1081909.9, 26010.457, 0.0, 5.0223856, 4.965934 
3.938348e+2, 1.919122e+2, -1041059.0, -1129458.1, -15051.07, 0.000074989155, 0.0012599194, -1038566.6, 20693.836, 0.0, 5.021246, 4.96396 
3.9381486e+2, 1.9687632e+2, -995680.44, -1082830.9, -15169.48, -0.0000041870817, -0.0013285188, -993115.5, 17496.578, 0.0, 5.020092, 4.963642 
3.9379463e+2, 2.0183931e+2, -952592.75, -1041173.56, -15715.359, -0.000043987355, 0.001302248, -949887.3, 12087.431, 0.0, 5.0189366, 4.961618 
3.93774e+2, 2.068011e+2, -907138.94, -994409.8, -15802.253, -0.000053111762, -0.0013692003, -904365.75, 8983.446, 0.0, 5.0177727, 4.9613266 
3.937533e+2, 2.1176176e+2, -864064.75, -952847.3, -16051.276, -0.00003732257, 0.0013330588, -861251.94, 3482.8372, 0.0, 5.016608, 4.9592385 
3.9373243e+2, 2.1672118e+2, -818508.7, -905914.25, -16110.611, -0.00003301873, -0.0014801896, -815633.7, 498.66785, 0.0, 5.0154395, 4.958984 
3.937116e+2, 2.2167948e+2, -775445.6, -864473.6, -16066.473, 0.00000018325856, 0.001369883, -772634.94, -5093.83, 0.0, 5.014272, 4.9568224 
3.936908e+2, 2.2663651e+2, -729778.44, -817375.25, -16083.174, -0.000017999002, -0.0014459203, -726918.9, -7956.814, 0.0, 5.0131035, 4.9565997 
3.936702e+2, 2.3159239e+2, -686728.7, -776090.75, -15759.585, -0.000005383054, 0.001418393, -684030.9, -13636.263, 0.0, 5.0119386, 4.954351 
3.9364985e+2, 2.3654696e+2, -640905.2, -728764.1, -15720.698, -0.00003823007, -0.0017453466, -638177.0, -16337.364, 0.0, 5.010778, 4.9541793 
3.9362982e+2, 2.4150038e+2, -597876.5, -687692.44, -15131.783, -0.000048831178, 0.0016054697, -595395.7, -22099.54, 0.0, 5.0096216, 4.9518147 
3.936103e+2, 2.4645248e+2, -551857.9, -640085.5, -15027.42, -0.00005993343, -0.0017700725, -549368.56, -24602.904, 0.0, 5.008476, 4.951709 
3.9359123e+2, 2.5140333e+2, -508944.03, -599478.7, -14182.647, -0.000049245664, 0.0016222277, -506774.25, -30526.902, 0.0, 5.0073357, 4.9491425 
3.9357287e+2, 2.5635284e+2, -462546.6, -551210.44, -14001.43, -0.000009422086, -0.0017704437, -460388.1, -32646.16, 0.0, 5.006212, 4.9492335 
3.9355507e+2, 2.613011e+2, -419853.6, -511353.5, -12908.792, -0.0000067298156, 0.001632406, -418067.3, -38817.887, 0.0, 5.0050955, 4.946357 
3.9353824e+2, 2.66248e+2, -372983.6, -462225.28, -12643.828, -0.000030512061, -0.0016744565, -371226.78, -40457.17, 0.0, 5.0039983, 4.946716 
3.935221e+2, 2.7119347e+2, -330600.5, -423369.06, -11314.409, -0.000014704352, 0.0016941975, -329240.5, -46936.473, 0.0, 5.002911, 4.943431 
3.9350718e+2, 2.7613762e+2, -283249.06, -373387.7, -10951.011, -0.000035772795, -0.00182376, -281937.7, -48086.555, 0.0, 5.001848, 4.944052 
3.93493e+2, 2.8108045e+2, -240719.77, -334541.9, -9405.832, -0.000017104909, 0.0022848456, -239786.11, -54374.313, 0.0, 5.000798, 4.940708 
3.9348033e+2, 2.8602204e+2, -192858.08, -283667.16, -8935.464, 0.000003910299, -0.0026523166, -191987.19, -55002.984, 0.0, 4.999778, 4.941608 
3.934685e+2, 2.909614e+2, -152783.89, -250885.08, -7170.101, 0.000015262196, 0.0016162252, -152262.61, -63684.48, 0.0, 4.9987707, 4.936052 
3.934584e+2, 2.9589844e+2, -105014.3, -200543.97, -6569.776, -0.000039238377, -0.00019392025, -104564.6, -64369.266, 0.0, 4.997796, 4.936715 
3.9344922e+2, 3.008427e+2, -65218.344, -135825.28, -4675.835, -0.00007930376, 0.0025496646, -64910.04, -64910.04, 0.0, 4.9968367, 4.951488 
3.9344203e+2, 3.057951e+2, -66109.734, -133127.6, -3920.5415, -0.00013285957, -0.005435992, -65881.164, -65881.164, 0.0, 4.9959164, 4.9528527 
3.9343598e+2, 3.107655e+2, -28043.174, -39776.45, -1669.4023, -0.00021632081, 0.0036092922, -27810.275, -27810.275, 0.0, 4.9950137, 4.987395 
3.934324e+2, 3.1575462e+2, -27831.912, -34937.676, -675.3811, -0.0004569895, -0.000526756, -27768.29, -27768.29, 0.0, 4.99417, 4.989541 
3.9906153e+2, 1.22296475e+2, -1658479.5, -1741981.8, -127.07129, 0.007460369, -0.0072125993, -1658479.4, 83015.32, 0.0, 5.0360346, 4.9814663 
3.9905164e+2, 1.2727858e+2, -1617281.5, -1703355.9, -3199.0542, -0.021915937, 0.017226953, -1617162.8, 75507.15, 0.0, 5.0348563, 4.978677 
3.990473e+2, 1.3225345e+2, -1572741.9, -1658486.0, -4954.684, 0.018417558, -0.013806466, -1572456.5, 71459.76, 0.0, 5.0338044, 4.9777865 
3.9903617e+2, 1.3723275e+2, -1527244.9, -1612554.1, -5128.242, 0.0012350576, -0.0018754244, -1526937.8, 68181.27, 0.0, 5.032938, 4.977225 
3.990247e+2, 1.4220989e+2, -1483595.8, -1570282.3, -7337.624, -0.005783036, 0.0059251003, -1482979.0, 63364.164, 0.0, 5.0320277, 4.9754376 
3.990131e+2, 1.4718497e+2, -1438277.8, -1524325.5, -7640.153, -0.00020490435, -0.00072935625, -1437604.6, 59982.633, 0.0, 5.031062, 4.974918 
3.989999e+2, 1.52159e+2, -1394959.6, -1482439.3, -9704.047, 0.00213719, -0.00059287064, -1393896.0, 54945.586, 0.0, 5.030066, 4.9730473 
3.9898503e+2, 1.5713231e+2, -1349763.9, -1436450.0, -9961.613, 0.00029731664, -0.0014961105, -1348633.8, 51469.484, 0.0, 5.0290246, 4.972554 
3.9896917e+2, 1.6210432e+2, -1306441.9, -1394365.6, -11702.583, -0.00049799023, 0.0017653302, -1304910.9, 46466.598, 0.0, 5.0279684, 4.9707484 
3.9895236e+2, 1.6707514e+2, -1261214.5, -1348184.1, -11931.177, 0.00010866914, -0.0011854491, -1259607.4, 43056.22, 0.0, 5.026886, 4.970316 
3.9893466e+2, 1.7204481e+2, -1217997.5, -1306237.9, -13379.533, 0.0003567077, 0.0009440985, -1216013.5, 37947.387, 0.0, 5.0257916, 4.9684505 
3.9891595e+2, 1.7701341e+2, -1172752.4, -1259934.9, -13574.962, 0.00015550337, -0.0012418278, -1170687.5, 34580.984, 0.0, 5.0246763, 4.9680514 
3.9889663e+2, 1.8198085e+2, -1129565.0, -1218009.0, -14720.059, 0.000060906157, 0.0012893266, -1127179.4, 29408.213, 0.0, 5.0235524, 4.9661655 
3.9887655e+2, 1.8694714e+2, -1084275.5, -1171564.3, -14877.378, 0.00011483413, -0.0013136269, -1081809.5, 26108.396, 0.0, 5.0224123, 4.9658027 
3.98856e+2, 1.9191232e+2, -1041139.44, -1129746.0, -15729.163, 0.00010093556, 0.0012757196, -1038430.06, 20829.092, 0.0, 5.021267, 4.963856 
3.988349e+2, 1.9687635e+2, -995769.44, -1083111.3, -15848.941, 0.000015567959, -0.0013068576, -992982.44, 17629.365, 0.0, 5.0201073, 4.9635425 
3.9881352e+2, 2.0183927e+2, -952654.7, -1041370.7, -16404.613, -0.000042121916, 0.001325786, -949718.44, 12256.81, 0.0, 5.0189466, 4.9615493 
3.9879176e+2, 2.0680098e+2, -907212.4, -994606.1, -16494.695, -0.00006900586, -0.0013662801, -904202.8, 9147.562, 0.0, 5.0177774, 4.961261 
3.9876986e+2, 2.1176158e+2, -864114.0, -952966.44, -16749.31, -0.00006866504, 0.0013279032, -861061.5, 3674.9534, 0.0, 5.0166078, 4.959202 
3.9874783e+2, 2.1672098e+2, -818567.25, -906029.75, -16812.465, -0.000047426078, -0.0014521301, -815446.8, 687.5612, 0.0, 5.0154343, 4.95895 
3.9872584e+2, 2.2167926e+2, -775478.6, -864510.0, -16769.746, -0.000001710782, 0.0014156229, -772424.7, -4881.4097, 0.0, 5.014262, 4.956818 
3.9870384e+2, 2.266363e+2, -729818.94, -817406.56, -16790.465, -0.000023174289, -0.0014169979, -726710.56, -7746.3125, 0.0, 5.013089, 4.956599 
3.986821e+2, 2.3159218e+2, -686743.9, -776043.8, -16463.11, -0.000013638274, 0.0014344286, -683805.5, -13408.83, 0.0, 5.0119195, 4.9543796 
3.9866057e+2, 2.365468e+2, -640928.06, -728711.75, -16427.52, -0.000045616976, -0.0017215002, -637954.56, -16113.218, 0.0, 5.010754, 4.9542117 
3.986394e+2, 2.4150026e+2, -597875.56, -687563.56, -15830.686, -0.00005809851, 0.0016389625, -595163.3, -21865.885, 0.0, 5.0095935, 4.9518757 
3.9861876e+2, 2.4645242e+2, -551863.56, -639949.2, -15727.811, -0.000058640417, -0.0017426453, -549139.56, -24373.303, 0.0, 5.0084434, 4.9517746 
3.9859855e+2, 2.5140333e+2, -508927.28, -599268.2, -14870.917, -0.000035054647, 0.0016503907, -506542.38, -30295.146, 0.0, 5.0072985, 4.9492354 
3.9857903e+2, 2.5635296e+2, -462536.03, -550991.1, -14689.38, 0.0000013298593, -0.0017350755, -460160.44, -32419.598, 0.0, 5.0061707, 4.949332 
3.9856014e+2, 2.613013e+2, -419822.22, -511061.94, -13581.299, 0.00000414161, 0.0016700614, -417843.5, -38596.27, 0.0, 5.005049, 4.9464827 
3.9854223e+2, 2.6624835e+2, -372957.8, -461922.56, -13315.18, -0.000012753981, -0.0016330346, -371007.7, -40241.57, 0.0, 5.0039473, 4.9468474 
3.98525e+2, 2.7119398e+2, -330555.5, -422995.8, -11964.341, 0.0000067840238, 0.0017374005, -329032.1, -46732.945, 0.0, 5.002856, 4.943589 
3.98509e+2, 2.761383e+2, -283209.44, -373000.84, -11599.461, -0.000018439112, -0.0017799074, -281735.2, -47890.555, 0.0, 5.0017877, 4.944218 
3.984938e+2, 2.8108126e+2, -240665.55, -334092.8, -10027.099, -0.0000035200317, 0.00233557, -239601.52, -54197.938, 0.0, 5.000733, 4.9408984 
3.9848012e+2, 2.8602308e+2, -192809.78, -283204.34, -9553.386, 0.000026754631, -0.0025809698, -191811.16, -54837.105, 0.0, 4.999707, 4.9418054 
3.9846724e+2, 2.9096267e+2, -152718.6, -250351.61, -7759.1465, 0.000035946003, 0.0016984298, -152105.8, -63539.87, 0.0, 4.998695, 4.936276 
3.9845622e+2, 2.9589993e+2, -104954.68, -199991.77, -7153.0815, -0.00002080195, -0.0001343041, -104419.31, -64238.46, 0.0, 4.9977145, 4.9369493 
3.9844605e+2, 3.0084443e+2, -65149.95, -135218.64, -5227.8555, -0.000060048416, 0.0025894758, -64762.043, -64762.043, 0.0, 4.9967484, 4.9517465 
3.9843795e+2, 3.057971e+2, -66049.33, -132504.27, -4462.95, -0.00011974326, -0.005360409, -65750.945, -65750.945, 0.0, 4.9958215, 4.9531193 
3.9843097e+2, 3.107678e+2, -27978.781, -39106.44, -2173.7266, -0.00022449497, 0.0037117172, -27569.229, -27569.229, 0.0, 4.994911, 4.9876866 
3.9842656e+2, 3.1575716e+2, -27779.658, -34244.88, -1160.2506, -0.00053315377, -0.00062878075, -27577.744, -27577.744, 0.0, 4.994058, 4.9898453 
4.040985e+2, 1.2230091e+2, -1654635.3, -1741761.0, 775.18207, 0.0077478015, -0.0002528058, -1654628.3, 86822.92, 0.0, 5.037685, 4.980732 
4.0408716e+2, 1.272812e+2, -1613723.5, -1701740.8, -3159.6394, -0.021683173, 0.0068260143, -1613610.3, 79034.06, 0.0, 5.03608, 4.978612 
4.040816e+2, 1.3225783e+2, -1569980.1, -1657564.8, -4541.3813, 0.018312804, -0.005230176, -1569745.3, 74127.93, 0.0, 5.0348263, 4.9775934 
4.0406966e+2, 1.3723613e+2, -1524256.6, -1611536.6, -4662.862, 0.0011990636, -0.0013737328, -1524008.3, 71077.71, 0.0, 5.034041, 4.977027 
4.0405732e+2, 1.4221267e+2, -1480723.0, -1569542.0, -7012.0547, -0.0057527823, 0.0031022574, -1480172.8, 66142.95, 0.0, 5.0331388, 4.975147 
4.040447e+2, 1.4718774e+2, -1435663.0, -1523725.1, -7344.7925, -0.00018966345, -0.0008953874, -1435054.6, 62505.51, 0.0, 5.03209, 4.974623 
4.0403044e+2, 1.5216164e+2, -1392468.6, -1481732.9, -9462.03, 0.0021329364, 0.00036091608, -1391476.6, 57339.29, 0.0, 5.031017, 4.972827 
4.040145e+2, 1.5713462e+2, -1347469.0, -1435827.6, -9712.554, 0.00030725912, -0.0014150497, -1346414.0, 53666.61, 0.0, 5.029907, 4.9723406 
4.0399757e+2, 1.621064e+2, -1304325.1, -1393793.3, -11476.298, -0.0004962873, 0.0014630647, -1302876.4, 48480.773, 0.0, 5.028783, 4.9705524 
4.039796e+2, 1.6707705e+2, -1259303.1, -1347714.9, -11707.058, 0.00009063332, -0.0012072843, -1257779.1, 44865.74, 0.0, 5.0276318, 4.97012 
4.0396076e+2, 1.7204654e+2, -1216239.9, -1305766.4, -13176.786, 0.00033969973, 0.0010382496, -1214340.8, 39603.105, 0.0, 5.026469, 4.9682894 
4.0394092e+2, 1.7701498e+2, -1171194.8, -1259561.5, -13370.8955, 0.00015020516, -0.0012463949, -1169215.9, 36037.242, 0.0, 5.025286, 4.9678903 
4.0392044e+2, 1.8198226e+2, -1128165.4, -1217654.3, -14533.064, 0.000062691644, 0.0012525489, -1125864.4, 30709.352, 0.0, 5.024096, 4.9660306 
4.0389916e+2, 1.8694843e+2, -1083072.5, -1171297.9, -14691.859, 0.00014076718, -0.0012967407, -1080690.3, 27215.158, 0.0, 5.0228877, 4.965671 
4.0387747e+2, 1.919135e+2, -1040099.8, -1129493.8, -15555.361, 0.00013343738, 0.0013131076, -1037470.4, 21777.355, 0.0, 5.0216722, 4.963753 
4.0385517e+2, 1.968774e+2, -994923.4, -1082942.4, -15672.828, 0.00003620766, -0.0013027914, -992215.94, 18385.414, 0.0, 5.020445, 4.9634447 
4.0383255e+2, 2.0184024e+2, -951971.5, -1041214.4, -16234.572, -0.000030952688, 0.0013169518, -949109.94, 12855.733, 0.0, 5.019214, 4.96148 
4.038096e+2, 2.0680189e+2, -906727.75, -994538.8, -16324.093, -0.000056368306, -0.0013475122, -903791.25, 9550.138, 0.0, 5.017975, 4.961194 
4.037865e+2, 2.1176246e+2, -863788.6, -952908.5, -16579.654, -0.000057135785, 0.0013642224, -860804.1, 3923.8828, 0.0, 5.0167365, 4.9591637 
4.0376323e+2, 2.167218e+2, -818438.9, -906056.56, -16642.121, -0.000029311877, -0.0014225697, -815384.3, 741.9592, 0.0, 5.0154924, 4.9589157 
4.0374005e+2, 2.2168007e+2, -775511.1, -864543.44, -16594.297, 0.000009156369, 0.0014398005, -772518.75, -4983.3647, 0.0, 5.0142503, 4.9568133 
4.0371686e+2, 2.266371e+2, -730043.6, -817520.3, -16613.654, -0.000014351264, -0.0013924501, -726994.6, -8038.2095, 0.0, 5.013008, 4.9565983 
4.036939e+2, 2.3159298e+2, -687130.06, -776166.4, -16276.585, -0.000005010324, 0.0014608067, -684247.9, -13859.182, 0.0, 5.0117683, 4.954407 
4.0367118e+2, 2.3654763e+2, -641508.25, -728914.56, -16239.569, -0.000023007497, -0.0016894174, -638588.56, -16755.46, 0.0, 5.0105324, 4.954243 
4.036488e+2, 2.4150114e+2, -598617.6, -687771.56, -15628.214, -0.00003281953, 0.0016753769, -595957.44, -22668.703, 0.0, 5.0093007, 4.9519367 
4.0362695e+2, 2.4645337e+2, -552797.25, -640233.0, -15521.519, -0.000041835316, -0.0017199123, -550123.6, -25366.686, 0.0, 5.00808, 4.95184 
4.0360555e+2, 2.5140437e+2, -510021.63, -599558.25, -14645.39, -0.00001592639, 0.0016653548, -507686.97, -31449.844, 0.0, 5.006865, 4.9493294 
4.0358493e+2, 2.563541e+2, -463819.25, -551352.9, -14458.424, 0.000016269738, -0.0017154759, -461492.9, -33763.13, 0.0, 5.0056663, 4.9494314 
4.0356487e+2, 2.6130256e+2, -421267.0, -511430.88, -13327.749, 0.00001727028, 0.0016924806, -419338.22, -40103.105, 0.0, 5.004474, 4.9466095 
4.035458e+2, 2.6624972e+2, -374588.16, -462358.13, -13055.528, 0.000005900007, -0.0016084752, -372687.34, -41934.64, 0.0, 5.003302, 4.946981 
4.0352747e+2, 2.711955e+2, -332347.06, -423438.53, -11675.978, 0.00002843684, 0.0017604879, -330874.28, -48589.957, 0.0, 5.0021396, 4.9437494 
4.0351033e+2, 2.7613997e+2, -285183.13, -373505.22, -11305.316, -0.0000067762244, -0.001757767, -283759.0, -49930.805, 0.0, 5.0010014, 4.9443855 
4.0349406e+2, 2.8108314e+2, -242802.13, -334608.6, -9698.402, -0.0000021344028, 0.0023622008, -241788.78, -56403.395, 0.0, 4.9998755, 4.9410906 
4.0347928e+2, 2.860251e+2, -195124.3, -283777.72, -9217.291, 0.00003657031, -0.0025440531, -194176.13, -57222.203, 0.0, 4.9987803, 4.942005 
4.0346542e+2, 2.9096493e+2, -155190.8, -250924.42, -7386.0015, 0.000050352588, 0.0017360271, -154624.3, -66080.555, 0.0, 4.9976974, 4.936505 
4.0345335e+2, 2.9590243e+2, -107602.62, -200614.48, -6769.578, 0.000002890677, -0.00011463163, -107112.5, -66956.15, 0.0, 4.9966464, 4.9371877 
4.034422e+2, 3.0084717e+2, -67949.195, -135845.7, -4815.9634, -0.000032241427, 0.0025919827, -67609.3, -67609.3, 0.0, 4.9956107, 4.9520097 
4.0343314e+2, 3.058001e+2, -69028.695, -133189.31, -4037.8428, -0.00008619535, -0.005326009, -68775.58, -68775.58, 0.0, 4.994614, 4.953392 
4.034252e+2, 3.1077108e+2, -31096.504, -39793.99, -1725.8936, -0.00017921237, 0.0037830449, -30766.543, -30766.543, 0.0, 4.9936347, 4.987982 
4.034199e+2, 3.1576073e+2, -31067.23, -34982.875, -694.4853, -0.00048243662, -0.0007352303, -30947.705, -30947.705, 0.0, 4.992715, 4.99015 
4.0913615e+2, 1.2230548e+2, -1655413.1, -1743447.0, 686.832, 0.007270198, 0.00028456378, -1655407.8, 85998.68, 0.0, 5.037704, 4.9801693 
4.0912336e+2, 1.2728423e+2, -1613703.6, -1702179.0, -4085.5593, -0.020381832, -0.006011668, -1613515.4, 79099.266, 0.0, 5.0361814, 4.97842 
4.0911633e+2, 1.3226303e+2, -1569867.6, -1657963.8, -4951.833, 0.017310163, 0.005419611, -1569590.1, 74232.26, 0.0, 5.03496, 4.9773984 
4.091037e+2, 1.3724013e+2, -1524212.6, -1611965.1, -5065.3794, 0.0011064206, -0.0007552552, -1523921.3, 71125.6, 0.0, 5.03415, 4.9768333 
4.090905e+2, 1.4221601e+2, -1480891.3, -1570318.8, -7604.92, -0.005432639, -0.00040712787, -1480249.1, 66033.96, 0.0, 5.033228, 4.974848 
4.0907678e+2, 1.471911e+2, -1435884.6, -1524540.9, -7929.333, -0.00016069437, -0.0010928733, -1435181.0, 62346.207, 0.0, 5.032163, 4.9743185 
4.0906146e+2, 1.5216488e+2, -1392593.5, -1482302.1, -10076.341, 0.002027348, 0.0015647749, -1391475.6, 57308.56, 0.0, 5.03108, 4.9726095 
4.0904438e+2, 1.5713756e+2, -1347596.5, -1436383.9, -10328.231, 0.0003077056, -0.0012979616, -1346410.9, 53641.16, 0.0, 5.029966, 4.972129 
4.090263e+2, 1.6210908e+2, -1304443.3, -1394312.0, -12121.166, -0.00046616883, 0.0010993718, -1302837.1, 48494.004, 0.0, 5.028837, 4.970356 
4.090072e+2, 1.6707955e+2, -1259437.5, -1348242.8, -12353.3, 0.000066672364, -0.0012284868, -1257751.1, 44869.254, 0.0, 5.0276804, 4.9699225 
4.0898722e+2, 1.720489e+2, -1216338.3, -1306196.6, -13846.351, 0.0003030257, 0.0011646185, -1214253.1, 39667.81, 0.0, 5.0265126, 4.9681273 
4.0896618e+2, 1.7701715e+2, -1171306.6, -1259995.9, -14042.306, 0.00014223832, -0.0012331755, -1169136.4, 36095.582, 0.0, 5.0253243, 4.967729 
4.089445e+2, 1.8198429e+2, -1128255.9, -1218021.5, -15226.331, 0.00006563841, 0.0012215696, -1125743.5, 30810.56, 0.0, 5.0241294, 4.9658947 
4.0892202e+2, 1.8695031e+2, -1083171.6, -1171659.6, -15388.138, 0.00016596835, -0.0012683048, -1080571.9, 27314.95, 0.0, 5.0229154, 4.965539 
4.088991e+2, 1.9191527e+2, -1040172.1, -1129774.8, -16267.555, 0.00016315751, 0.0013665663, -1037310.1, 21920.285, 0.0, 5.021695, 4.963651 
4.0887555e+2, 1.9687909e+2, -995005.6, -1083218.3, -16388.66, 0.00005124734, -0.0012923208, -992059.25, 18525.715, 0.0, 5.020462, 4.9633465 
4.0885174e+2, 2.0184183e+2, -952029.9, -1041413.75, -16961.824, -0.00002208288, 0.0013056385, -948919.4, 13030.79, 0.0, 5.0192256, 4.9614105 
4.088275e+2, 2.0680343e+2, -906797.8, -994737.44, -17054.256, -0.00004391706, -0.001315018, -903606.3, 9720.211, 0.0, 5.017981, 4.9611273 
4.0880322e+2, 2.1176393e+2, -863833.3, -953027.7, -17317.32, -0.00003975118, 0.0014282713, -860589.1, 4124.484, 0.0, 5.0167375, 4.9591265 
4.0877873e+2, 2.1672325e+2, -818491.94, -906171.44, -17383.738, -0.000009069098, -0.0013825741, -815171.1, 941.11096, 0.0, 5.015489, 4.958882 
4.0875423e+2, 2.2168148e+2, -775537.25, -864576.4, -17337.246, 0.000007993452, 0.0014632915, -772280.56, -4758.983, 0.0, 5.014242, 4.95681 
4.0872982e+2, 2.2663853e+2, -730078.06, -817548.1, -17361.582, -0.000013584553, -0.0013597739, -726758.06, -7815.529, 0.0, 5.012995, 4.9565988 
4.0870562e+2, 2.3159443e+2, -687140.4, -776117.56, -17022.598, -0.00000271886, 0.0015039635, -683994.94, -13620.283, 0.0, 5.01175, 4.9544363 
4.0868166e+2, 2.3654912e+2, -641526.5, -728861.3, -16989.523, -0.0000019822828, -0.0016433144, -638337.94, -16519.168, 0.0, 5.0105104, 4.9542756 
4.086581e+2, 2.4150266e+2, -598609.7, -687637.0, -16370.911, -0.0000069634048, 0.0017223124, -595694.75, -22420.83, 0.0, 5.009274, 4.951999 
4.08635e+2, 2.4645495e+2, -552795.94, -640091.44, -16266.384, -0.000033697776, -0.0016878358, -549863.44, -25121.932, 0.0, 5.008049, 4.951907 
4.086124e+2, 2.5140604e+2, -509996.94, -599340.06, -15378.585, -0.0000093132785, 0.0016857794, -507423.9, -31203.025, 0.0, 5.0068293, 4.949425 
4.0859056e+2, 2.5635585e+2, -463801.6, -551126.1, -15192.522, 0.00001853865, -0.0016924617, -461233.9, -33521.375, 0.0, 5.005626, 4.949532 
4.085693e+2, 2.613044e+2, -421228.53, -511130.84, -14047.069, 0.00001477194, 0.0017197882, -419084.8, -39868.07, 0.0, 5.004429, 4.946738 
4.0854907e+2, 2.6625174e+2, -374554.88, -462046.4, -13774.447, 0.0000069318876, -0.001579264, -372437.5, -41704.457, 0.0, 5.0032525, 4.9471154 
4.0852958e+2, 2.7119762e+2, -332294.13, -423055.53, -12374.097, 0.00003151761, 0.0017865176, -330637.3, -48374.105, 0.0, 5.002085, 4.943911 
4.085113e+2, 2.761423e+2, -285135.56, -373109.0, -12002.675, -0.000018364666, -0.0017328078, -283527.38, -49721.938, 0.0, 5.000942, 4.9445543 
4.0849394e+2, 2.8108564e+2, -242738.64, -334146.97, -10368.746, -0.000030160829, 0.0023916962, -241577.23, -56216.363, 0.0, 4.9998116, 4.9412847 
4.0847802e+2, 2.8602782e+2, -195066.86, -283302.5, -9884.527, 0.000013913364, -0.0025091392, -193973.11, -57045.668, 0.0, 4.998711, 4.942207 
4.084631e+2, 2.9096785e+2, -155113.06, -250371.31, -8025.4824, 0.000034646055, 0.0017659628, -154441.66, -65926.47, 0.0, 4.997623, 4.936736 
4.0844995e+2, 2.959056e+2, -107529.02, -200041.16, -7404.258, 0.0000010301902, -0.000100294914, -106940.164, -66814.71, 0.0, 4.996567, 4.937429 
4.0843782e+2, 3.008506e+2, -67864.72, -135215.14, -5419.7593, -0.000034236116, 0.0025915047, -67431.37, -67431.37, 0.0, 4.995525, 4.9522758 
4.0842775e+2, 3.058038e+2, -68950.875, -132542.3, -4632.931, -0.00008181367, -0.0052983123, -68615.12, -68615.12, 0.0, 4.9945226, 4.9536667 
4.0841883e+2, 3.1077504e+2, -31017.6, -39110.645, -2283.0828, -0.0001574639, 0.0038536459, -30417.96, -30417.96, 0.0, 4.993536, 4.988277 
4.0841264e+2, 3.15765e+2, -31003.846, -34287.223, -1232.679, -0.0004612335, -0.0008160366, -30592.576, -30592.576, 0.0, 4.9926066, 4.990454 
4.1417417e+2, 1.2231223e+2, -1651665.9, -1741414.5, 1858.4508, 0.004265901, 0.005458262, -1651627.5, 89712.766, 0.0, 5.038922, 4.980242 
4.1416094e+2, 1.2728937e+2, -1610573.1, -1701919.0, -3838.4102, -0.013236533, -0.011497996, -1610412.0, 82152.22, 0.0, 5.0375085, 4.977858 
4.141514e+2, 1.3226874e+2, -1566282.4, -1656823.5, -4448.266, 0.011412921, 0.009964818, -1566064.4, 77702.07, 0.0, 5.0362997, 4.9771237 
4.1413847e+2, 1.3724515e+2, -1520929.5, -1610944.8, -4596.9795, 0.00073925796, -0.0004934241, -1520695.4, 74302.26, 0.0, 5.035383, 4.9765735 
4.141245e+2, 1.4222062e+2, -1477891.6, -1569421.4, -7322.1816, -0.0034954401, -0.001901106, -1477309.6, 68928.53, 0.0, 5.0343623, 4.974598 
4.1410947e+2, 1.4719559e+2, -1433152.6, -1523777.9, -7620.33, -0.000038072838, -0.0011605063, -1432516.3, 64967.05, 0.0, 5.033209, 4.974069 
4.1409296e+2, 1.5216918e+2, -1390038.3, -1481538.4, -9767.673, 0.0013670459, 0.0021010186, -1389007.3, 59734.824, 0.0, 5.032047, 4.9724 
4.1407478e+2, 1.571416e+2, -1345234.8, -1435714.3, -10019.819, 0.00024734257, -0.0012336185, -1344138.4, 55873.9, 0.0, 5.0308685, 4.9719214 
4.140556e+2, 1.621129e+2, -1302255.3, -1393691.9, -11842.407, -0.00027542002, 0.0009509292, -1300746.4, 50547.21, 0.0, 5.029673, 4.9701657 
4.1403526e+2, 1.670832e+2, -1257455.4, -1347727.5, -12074.311, 0.000046931887, -0.0012358661, -1255868.3, 46716.27, 0.0, 5.0284476, 4.9697313 
4.1401404e+2, 1.7205237e+2, -1214515.1, -1305697.6, -13587.891, 0.00020300398, 0.0012274984, -1212533.3, 41353.49, 0.0, 5.027213, 4.967964 
4.1399178e+2, 1.7702046e+2, -1169681.3, -1259591.3, -13785.604, 0.00012819208, -0.001197988, -1167615.1, 37584.402, 0.0, 5.0259576, 4.967568 
4.1396886e+2, 1.8198743e+2, -1126798.0, -1217639.9, -14988.378, 0.00008219075, 0.001233182, -1124388.9, 32134.158, 0.0, 5.024693, 4.9657593 
4.1394517e+2, 1.8695335e+2, -1081910.0, -1171362.5, -15149.351, 0.0001675571, -0.001262518, -1079414.0, 28443.252, 0.0, 5.02341, 4.9654093 
4.1392097e+2, 1.9191818e+2, -1039074.5, -1129497.3, -16041.114, 0.00016488729, 0.0013749133, -1036313.1, 22888.791, 0.0, 5.022121, 4.9635477 
4.1389614e+2, 1.9688189e+2, -994109.25, -1083028.4, -16162.681, 0.000078711, -0.0012631016, -991262.5, 19294.953, 0.0, 5.020817, 4.9632473 
4.1387105e+2, 2.0184454e+2, -951300.06, -1041240.94, -16743.006, 0.000017320734, 0.0013459725, -948284.4, 13639.086, 0.0, 5.0195103, 4.961339 
4.1384557e+2, 2.0680608e+2, -906270.25, -994653.3, -16834.377, -0.00000409447, -0.0012758943, -903172.4, 10128.156, 0.0, 5.018194, 4.961059 
4.1381997e+2, 2.1176653e+2, -863472.6, -952952.06, -17097.21, -0.000011187827, 0.0014619513, -860317.06, 4371.0723, 0.0, 5.016878, 4.9590893 
4.137942e+2, 2.167258e+2, -818328.7, -906180.4, -17160.96, 0.0000056999734, -0.0013740794, -815095.44, 991.713, 0.0, 5.015559, 4.9588485 
4.1376844e+2, 2.2168402e+2, -775540.9, -864597.9, -17109.457, 0.000010500503, 0.0014656887, -772367.0, -4870.278, 0.0, 5.0142403, 4.956805 
4.1374275e+2, 2.2664107e+2, -730283.5, -817655.4, -17133.352, 0.000008832703, -0.001330264, -727043.9, -8126.1943, 0.0, 5.012921, 4.9565973 
4.1371724e+2, 2.3159699e+2, -687513.7, -776233.0, -16785.05, 0.00002468487, 0.0015489259, -684444.25, -14094.578, 0.0, 5.011603, 4.954465 
4.1369203e+2, 2.365517e+2, -642099.4, -729059.5, -16749.244, 0.000021962771, -0.0016158215, -638984.9, -17191.402, 0.0, 5.0102906, 4.954308 
4.1366714e+2, 2.4150528e+2, -599348.06, -687841.0, -16115.382, 0.000012570969, 0.0017408087, -596504.7, -23256.416, 0.0, 5.0089817, 4.9520617 
4.136428e+2, 2.4645764e+2, -553731.75, -640374.6, -16007.018, -0.000020819609, -0.0016677391, -550869.06, -26153.934, 0.0, 5.007684, 4.951974 
4.1361895e+2, 2.514088e+2, -511099.38, -599629.94, -15100.376, 0.0000057455086, 0.0017069919, -508594.63, -32400.836, 0.0, 5.0063915, 4.949521 
4.1359586e+2, 2.5635874e+2, -465102.75, -551492.3, -14909.717, 0.00003327431, -0.0016711678, -462601.9, -34917.465, 0.0, 5.0051146, 4.949633 
4.1357338e+2, 2.6130742e+2, -422698.66, -511504.88, -13740.577, 0.00003283585, 0.001742122, -420621.22, -41433.652, 0.0, 5.0038433, 4.946868 
4.1355193e+2, 2.6625484e+2, -376216.97, -462489.66, -13461.61, 0.000023537363, -0.0015534471, -374165.28, -43462.742, 0.0, 5.002594, 4.947252 
4.1353124e+2, 2.712009e+2, -334123.8, -423507.3, -12032.133, 0.000046546334, 0.0018078162, -332532.47, -50301.2, 0.0, 5.0013537, 4.944075 
4.135118e+2, 2.7614576e+2, -287155.34, -373625.9, -11654.556, -0.0000028784461, -0.0017161957, -285612.1, -51840.234, 0.0, 5.000138, 4.9447255 
4.1349322e+2, 2.8108925e+2, -244928.8, -334675.4, -9985.147, -0.000021136271, 0.0024099688, -243831.27, -58505.75, 0.0, 4.998933, 4.941482 
4.1347623e+2, 2.8603163e+2, -197444.72, -283892.78, -9492.734, 0.00002037025, -0.002490422, -196414.61, -59524.516, 0.0, 4.9977593, 4.9424114 
4.1346014e+2, 2.909719e+2, -157655.31, -250960.2, -7595.7383, 0.000046174704, 0.0017789954, -157041.0, -68565.26, 0.0, 4.996598, 4.936971 
4.1344592e+2, 2.9590985e+2, -110252.22, -200681.97, -6964.8984, 0.000035460947, -0.0000883486, -109718.93, -69635.28, 0.0, 4.995469, 4.937674 
4.134327e+2, 3.008551e+2, -70743.39, -135858.92, -4953.3003, 0.000005328798, 0.002598, -70368.76, -70368.76, 0.0, 4.9943547, 4.952547 
4.134216e+2, 3.058086e+2, -72013.58, -133246.17, -4153.9204, -0.000032864587, -0.005277172, -71733.07, -71733.07, 0.0, 4.993282, 4.9539466 
4.1341165e+2, 3.1078014e+2, -34224.055, -39828.098, -1782.945, -0.00006725423, 0.003913514, -33704.902, -33704.902, 0.0, 4.992226, 4.9885755 
4.1340452e+2, 3.1577036e+2, -34388.824, -35068.754, -716.9107, -0.00029789665, -0.00084628887, -33935.355, -33935.355, 0.0, 4.991229, 4.990758 
4.1921288e+2, 1.2231933e+2, -1651694.3, -1741002.6, 1508.271, 0.0025594747, 0.005738697, -1651668.8, 89601.79, 0.0, 5.038819, 4.980428 
4.1919938e+2, 1.2729558e+2, -1611057.9, -1703687.3, -4636.453, -0.004152789, -0.013700395, -1610826.4, 81676.97, 0.0, 5.0376725, 4.977198 
4.1918695e+2, 1.3227485e+2, -1565984.0, -1657398.1, -4866.14, 0.0038411294, 0.011825125, -1565725.8, 77980.8, 0.0, 5.0365524, 4.9768124 
4.191738e+2, 1.3725081e+2, -1520977.5, -1611651.0, -5031.0293, 0.00029396833, -0.00037188444, -1520699.1, 74243.09, 0.0, 5.035511, 4.9762793 
4.1915908e+2, 1.4222592e+2, -1478050.6, -1570054.8, -7922.64, -0.0009908457, -0.0024864646, -1477373.4, 68812.63, 0.0, 5.0344243, 4.97436 
4.191427e+2, 1.4720073e+2, -1433288.8, -1524391.5, -8221.218, 0.00011859083, -0.0011574564, -1432552.8, 64880.215, 0.0, 5.0332766, 4.973835 
4.1912487e+2, 1.5217413e+2, -1390139.9, -1482084.9, -10386.263, 0.00051197596, 0.0023527122, -1388981.3, 59712.348, 0.0, 5.032115, 4.972188 
4.1910562e+2, 1.5714632e+2, -1345355.6, -1436269.3, -10647.036, 0.00016840748, -0.0011795494, -1344125.4, 55840.805, 0.0, 5.030929, 4.9717097 
4.1908523e+2, 1.621174e+2, -1302361.5, -1394193.0, -12508.381, -0.000022340293, 0.00091274997, -1300688.3, 50561.258, 0.0, 5.0297284, 4.969975 
4.1906366e+2, 1.6708753e+2, -1257575.9, -1348238.9, -12744.419, 0.00003191394, -0.001222409, -1255818.5, 46723.8, 0.0, 5.0284986, 4.969539 
4.190412e+2, 1.720565e+2, -1214609.5, -1306135.4, -14283.348, 0.000081953745, 0.0012765216, -1212432.3, 41413.984, 0.0, 5.0272593, 4.9677987 
4.190177e+2, 1.7702444e+2, -1169787.3, -1260029.0, -14485.874, 0.000112255744, -0.0011450229, -1167518.9, 37641.605, 0.0, 5.0259986, 4.9674044 
4.1899353e+2, 1.8199128e+2, -1126880.9, -1218006.0, -15712.489, 0.000102713835, 0.0012717634, -1124247.6, 32237.912, 0.0, 5.024729, 4.965623 
4.1896853e+2, 1.8695703e+2, -1082000.5, -1171719.3, -15877.075, 0.00015764046, -0.0012491288, -1079273.8, 28547.412, 0.0, 5.0234404, 4.965278 
4.1894302e+2, 1.9192176e+2, -1039142.4, -1129781.5, -16788.453, 0.00015241888, 0.0013785125, -1036132.75, 23034.205, 0.0, 5.0221457, 4.963444 
4.1891694e+2, 1.9688538e+2, -994187.9, -1083308.8, -16914.87, 0.000104488856, -0.0012178025, -991085.44, 19437.975, 0.0, 5.020836, 4.963147 
4.1889054e+2, 2.0184794e+2, -951355.2, -1041446.0, -17507.998, 0.000057125868, 0.0014191547, -948072.4, 13817.884, 0.0, 5.019524, 4.961267 
4.188637e+2, 2.068094e+2, -906334.7, -994853.9, -17603.725, 0.00003622634, -0.0012222315, -902962.3, 10305.704, 0.0, 5.018203, 4.960991 
4.188368e+2, 2.1176979e+2, -863508.7, -953066.6, -17873.348, 0.00000682729, 0.0014925489, -860073.44, 4582.7407, 0.0, 5.0168815, 4.959053 
4.1880968e+2, 2.1672903e+2, -818374.75, -906291.1, -17942.316, 0.0000013304788, -0.0013645096, -814854.0, 1201.4808, 0.0, 5.0155573, 4.9588156 
4.1878262e+2, 2.2168724e+2, -775563.5, -864632.8, -17895.344, 0.000002888062, 0.001477163, -772102.56, -4637.3354, 0.0, 5.014233, 4.956801 
4.1875562e+2, 2.2664428e+2, -730314.7, -817686.7, -17924.49, 0.000024689843, -0.0012889025, -726780.44, -7894.253, 0.0, 5.0129094, 4.9565964 
4.187288e+2, 2.3160021e+2, -687517.3, -776181.0, -17574.873, 0.00004523454, 0.0016060574, -684160.7, -13842.64, 0.0, 5.011587, 4.9544945 
4.1870227e+2, 2.3655497e+2, -642110.2, -729002.2, -17543.463, 0.00003089637, -0.0015823834, -638701.9, -16940.35, 0.0, 5.01027, 4.9543414 
4.1867608e+2, 2.4150859e+2, -599333.06, -687702.75, -16903.201, 0.000014775453, 0.0017615949, -596210.2, -22994.39, 0.0, 5.008957, 4.952125 
4.1865042e+2, 2.4646102e+2, -553725.2, -640230.94, -16797.945, -0.000018347291, -0.0016393492, -550577.8, -25895.756, 0.0, 5.0076547, 4.9520416 
4.186253e+2, 2.5141227e+2, -511068.94, -599407.2, -15881.2705, 0.000010022696, 0.0017425815, -508300.6, -32140.72, 0.0, 5.006357, 4.9496183 
4.1860092e+2, 2.5636232e+2, -465078.6, -551260.9, -15692.841, 0.00003641955, -0.001637123, -462310.03, -34660.477, 0.0, 5.0050755, 4.9497356 
4.1857722e+2, 2.6131105e+2, -422651.3, -511195.84, -14508.607, 0.00004375647, 0.001775116, -420334.6, -41183.066, 0.0, 5.0038, 4.946999 
4.185545e+2, 2.6625866e+2, -376174.94, -462169.0, -14230.206, 0.000030369243, -0.0015143191, -373881.3, -43216.168, 0.0, 5.0025463, 4.947389 
4.1853255e+2, 2.7120486e+2, -334061.4, -423113.3, -12781.115, 0.0000467768, 0.0018425639, -332263.3, -50070.887, 0.0, 5.001301, 4.9442406 
4.185119e+2, 2.7614987e+2, -287098.44, -373218.66, -12403.927, 0.0000033518631, -0.0016875084, -285347.5, -51616.176, 0.0, 5.00008, 4.9448977 
4.1849214e+2, 2.8109357e+2, -244854.39, -334199.13, -10708.557, -0.000018193548, 0.0024404845, -243588.83, -58305.645, 0.0, 4.9988704, 4.941681 
4.1847396e+2, 2.8603616e+2, -197375.5, -283402.63, -10213.939, 0.000014623755, -0.0024610455, -196179.44, -59333.715, 0.0, 4.997692, 4.942618 
4.1845673e+2, 2.909766e+2, -157563.7, -250388.9, -8289.369, 0.000042457123, 0.0018024849, -156829.27, -68400.03, 0.0, 4.996526, 4.937208 
4.1844139e+2, 2.9591483e+2, -110164.0, -200090.45, -7654.2666, 0.000057221594, -0.00005959203, -109517.15, -69482.4, 0.0, 4.9953923, 4.937921 
4.1842702e+2, 3.0086035e+2, -70642.09, -135206.22, -5611.9565, 0.000030213347, 0.0026273143, -70157.93, -70157.93, 0.0, 4.994272, 4.9528203 
4.1841486e+2, 3.0581412e+2, -71918.02, -132576.89, -4804.0903, -0.0000030340289, -0.0052395826, -71539.91, -71539.91, 0.0, 4.993193, 4.954228 
4.184039e+2, 3.1078598e+2, -34131.39, -39133.89, -2393.8364, 0.0000033079834, 0.0039847638, -33170.46, -33170.46, 0.0, 4.9921308, 4.9888735 
4.1839576e+2, 3.157765e+2, -34316.188, -34374.89, -1309.8181, -0.00015973776, -0.00082130043, -33035.39, -33035.39, 0.0, 4.991125, 4.9910593 
4.242516e+2, 1.2232676e+2, -1648767.4, -1739793.9, 1808.7229, -0.0034209464, -0.0006153891, -1648731.4, 92466.46, 0.0, 5.0398526, 4.98032 
4.2423895e+2, 1.2730424e+2, -1607136.8, -1702537.4, -3955.7717, 0.006946142, -0.0043091415, -1606973.0, 85445.484, 0.0, 5.0391593, 4.9768515 
4.2422348e+2, 1.3228144e+2, -1561766.6, -1656181.4, -4376.46, -0.0053783506, 0.004117328, -1561564.3, 82077.805, 0.0, 5.038156, 4.976435 
4.2420995e+2, 1.3725774e+2, -1517669.3, -1610891.8, -4622.1846, -0.00021954699, -0.00076339795, -1517440.6, 77433.68, 0.0, 5.036812, 4.9759007 
4.2419437e+2, 1.4223285e+2, -1475073.3, -1569096.9, -7496.0903, 0.0020639345, 0.000082218794, -1474479.4, 71638.836, 0.0, 5.035537, 4.9741406 
4.241765e+2, 1.472072e+2, -1430442.9, -1523481.9, -7778.937, 0.00029714825, -0.0009863892, -1429796.9, 67572.68, 0.0, 5.034342, 4.9736247 
4.241574e+2, 1.5218028e+2, -1387493.0, -1481317.3, -9979.418, -0.00053385977, 0.0015273178, -1386443.3, 62190.125, 0.0, 5.033122, 4.971961 
4.24137e+2, 1.5715231e+2, -1342930.9, -1435621.0, -10257.502, 0.00007152622, -0.0012219159, -1341809.3, 58098.2, 0.0, 5.031864, 4.9714794 
4.2411542e+2, 1.6212322e+2, -1300093.3, -1393542.5, -12157.28, 0.0002909319, 0.0012136137, -1298537.6, 52654.965, 0.0, 5.0305934, 4.969781 
4.2409256e+2, 1.6709313e+2, -1255509.0, -1347689.6, -12398.247, 0.000036218597, -0.0011591363, -1253870.6, 48616.883, 0.0, 5.029297, 4.969345 
4.2406878e+2, 1.720619e+2, -1212708.6, -1305613.5, -13962.757, -0.000050444916, 0.0012297381, -1210655.5, 43137.855, 0.0, 5.02799, 4.9676294 
4.24044e+2, 1.7702968e+2, -1168091.0, -1259602.8, -14169.417, 0.000071931645, -0.0011329774, -1165947.4, 39161.95, 0.0, 5.0266585, 4.967238 
4.240185e+2, 1.8199636e+2, -1125350.6, -1217594.6, -15416.694, 0.00010482423, 0.0013147261, -1122842.3, 33593.605, 0.0, 5.025318, 4.965486 
4.239922e+2, 1.86962e+2, -1080674.3, -1171398.6, -15580.809, 0.00014460251, -0.0012163916, -1078073.0, 29699.61, 0.0, 5.0239587, 4.965145 
4.2396536e+2, 1.9192657e+2, -1037987.94, -1129483.5, -16507.97, 0.00013847806, 0.0014033702, -1035100.6, 24019.068, 0.0, 5.0225925, 4.963338 
4.239379e+2, 1.9689009e+2, -993239.9, -1083103.6, -16636.396, 0.00012558914, -0.001171794, -990258.9, 20218.377, 0.0, 5.02121, 4.963044 
4.239101e+2, 2.0185257e+2, -950574.9, -1041250.6, -17235.305, 0.00008591113, 0.0014721454, -947409.4, 14435.592, 0.0, 5.019826, 4.9611955 
4.2388195e+2, 2.0681395e+2, -905758.94, -994747.2, -17328.346, 0.000049936134, -0.0012082101, -902503.75, 10719.687, 0.0, 5.018432, 4.960923 
4.238537e+2, 2.1177429e+2, -863104.94, -952974.56, -17598.125, 0.000007186608, 0.0014920663, -859781.75, 4830.3755, 0.0, 5.0170374, 4.9590144 
4.2382523e+2, 2.167335e+2, -818180.3, -906290.5, -17666.479, 0.000015970914, -0.0013267263, -814770.06, 1241.703, 0.0, 5.0156384, 4.9587803 
4.2379677e+2, 2.2169168e+2, -775542.44, -864643.75, -17615.518, 0.000016662038, 0.0015325015, -772186.2, -4764.518, 0.0, 5.0142403, 4.9567957 
4.237684e+2, 2.2664872e+2, -730499.2, -817785.06, -17641.914, 0.00003132282, -0.0012595897, -727068.3, -8225.6, 0.0, 5.012842, 4.956595 
4.2374024e+2, 2.3160467e+2, -687872.4, -776286.75, -17281.713, 0.000043390995, 0.0016199779, -684614.5, -14339.968, 0.0, 5.0114455, 4.954524 
4.2371234e+2, 2.3655944e+2, -642669.6, -729193.6, -17247.107, 0.000031987325, -0.0015615597, -639358.44, -17640.748, 0.0, 5.010055, 4.9543743 
4.236848e+2, 2.4151312e+2, -600064.8, -687902.9, -16592.57, 0.00002305209, 0.0017883284, -597035.0, -23863.447, 0.0, 5.0086665, 4.952188 
4.2365783e+2, 2.4646561e+2, -554665.56, -640516.2, -16483.727, 0.000011553321, -0.0016119168, -551609.44, -26972.281, 0.0, 5.007288, 4.9521084 
4.2363134e+2, 2.5141692e+2, -512183.03, -599698.6, -15547.129, 0.000050703715, 0.0017661983, -509503.16, -33388.957, 0.0, 5.005914, 4.949716 
4.2360568e+2, 2.5636706e+2, -466395.28, -551630.3, -15353.606, 0.00005015873, -0.0016288434, -463713.94, -36111.066, 0.0, 5.004557, 4.9498386 
4.2358062e+2, 2.6131594e+2, -424140.56, -511573.5, -14144.72, 0.00005095518, 0.0017748637, -421909.22, -42805.44, 0.0, 5.0032063, 4.947131 
4.2355663e+2, 2.6626366e+2, -377864.47, -462620.06, -13860.66, 0.000047669146, -0.0015011209, -375655.3, -45039.313, 0.0, 5.001877, 4.947528 
4.235334e+2, 2.7121e+2, -335926.56, -423573.9, -12382.821, 0.00006883009, 0.0018585508, -334210.72, -52068.85, 0.0, 5.0005555, 4.9444075 
4.235115e+2, 2.761552e+2, -289162.84, -373748.38, -12000.033, 0.000035357123, -0.0016776407, -287493.38, -53814.3, 0.0, 4.999258, 4.945072 
4.234905e+2, 2.8109908e+2, -247097.19, -334742.16, -10269.054, 0.000008729042, 0.0024514364, -245910.08, -60680.91, 0.0, 4.9979715, 4.941882 
4.234711e+2, 2.8604192e+2, -199812.4, -284010.94, -9767.167, 0.000016112406, -0.0024412964, -198694.25, -61904.59, 0.0, 4.996718, 4.9428263 
4.2345268e+2, 2.9098257e+2, -160168.05, -250991.53, -7804.6196, 0.00003697273, 0.0018269588, -159502.27, -71131.24, 0.0, 4.995476, 4.9374495 
4.2343616e+2, 2.9592103e+2, -112955.62, -200746.42, -7159.7134, 0.00008446152, -0.000030629257, -112375.55, -72401.414, 0.0, 4.9942675, 4.938173 
4.2342067e+2, 3.0086678e+2, -73595.65, -135864.7, -5090.791, 0.000067011984, 0.0026532237, -73182.195, -73182.195, 0.0, 4.993072, 4.9530993 
4.2340738e+2, 3.0582085e+2, -75063.3, -133298.64, -4269.842, 0.0000411866, -0.005218683, -74751.9, -74751.9, 0.0, 4.9919205, 4.9545155 
4.233953e+2, 3.10793e+2, -37428.27, -39877.277, -1838.0044, 0.00009663168, 0.004019471, -36444.23, -36444.23, 0.0, 4.9907866, 4.989177 
4.2338613e+2, 3.157838e+2, -37801.29, -35195.023, -737.6009, 0.000033311466, -0.00078245887, -35000.758, -35000.758, 0.0, 4.989711, 4.9913645 
4.292913e+2, 1.2233536e+2, -1648717.8, -1740329.9, 1090.9922, -0.0049381964, -0.0017304763, -1648704.8, 92408.92, 0.0, 5.039988, 4.9800787 
4.2927918e+2, 1.2731387e+2, -1607113.8, -1703088.3, -4188.742, 0.017890526, 0.007396028, -1606931.3, 85392.91, 0.0, 5.0392857, 4.97661 
4.292607e+2, 1.322886e+2, -1561989.6, -1657222.1, -5018.2676, -0.014544741, -0.005622229, -1561726.0, 81845.81, 0.0, 5.038278, 4.976034 
4.292467e+2, 1.3726543e+2, -1517921.0, -1611962.6, -5270.8325, -0.0007007615, -0.0012283605, -1517626.5, 77172.49, 0.0, 5.0369267, 4.975493 
4.2923018e+2, 1.4224058e+2, -1475081.5, -1569627.3, -8043.2715, 0.0051185265, 0.0033650245, -1474402.1, 71640.21, 0.0, 5.035643, 4.973916 
4.2921084e+2, 1.4721441e+2, -1430471.3, -1523999.1, -8352.368, 0.000470903, -0.0007710019, -1429731.1, 67567.695, 0.0, 5.034436, 4.9734097 
4.291904e+2, 1.5218715e+2, -1387583.0, -1481917.9, -10617.821, -0.001578767, 0.00046434943, -1386402.6, 62163.426, 0.0, 5.0332065, 4.9717236 
4.2916882e+2, 1.5715905e+2, -1343052.3, -1436245.5, -10905.515, -0.000019778194, -0.0012704738, -1341793.0, 58048.465, 0.0, 5.031939, 4.971238 
4.29146e+2, 1.6212977e+2, -1300177.1, -1394054.9, -12840.649, 0.0006101852, 0.0016127189, -1298452.5, 52675.844, 0.0, 5.0306606, 4.9695807 
4.291218e+2, 1.6709945e+2, -1255610.3, -1348206.8, -13090.337, 0.000048468635, -0.0010688844, -1253795.3, 48630.32, 0.0, 5.029357, 4.9691463 
4.290967e+2, 1.7206804e+2, -1212793.4, -1306067.8, -14686.44, -0.00017916765, 0.0011719078, -1210535.6, 43197.832, 0.0, 5.0280433, 4.967455 
4.2907062e+2, 1.7703563e+2, -1168190.1, -1260054.9, -14899.542, 0.00002447339, -0.0011212312, -1165834.0, 39216.953, 0.0, 5.026705, 4.9670672 
4.2904377e+2, 1.8200217e+2, -1125424.0, -1217963.5, -16172.734, 0.00010156752, 0.0013725552, -1122679.0, 33699.977, 0.0, 5.025358, 4.965347 
4.2901608e+2, 1.8696766e+2, -1080762.1, -1171768.3, -16342.773, 0.00012970512, -0.0011627236, -1077916.3, 29800.824, 0.0, 5.023992, 4.9650087 
4.289879e+2, 1.9193213e+2, -1038051.2, -1129774.3, -17291.291, 0.000117093026, 0.0014506427, -1034899.75, 24165.555, 0.0, 5.02262, 4.963231 
4.2895904e+2, 1.9689554e+2, -993315.25, -1083394.5, -17424.9, 0.00013600856, -0.0011139248, -990062.06, 20361.836, 0.0, 5.0212326, 4.9629397 
4.289299e+2, 2.0185792e+2, -950621.06, -1041453.1, -18037.383, 0.000100147954, 0.0015292036, -947170.3, 14622.183, 0.0, 5.0198426, 4.9611235 
4.2890033e+2, 2.0681925e+2, -905816.2, -994945.4, -18136.662, 0.00004053242, -0.0011921679, -902266.94, 10904.721, 0.0, 5.0184426, 4.9608555 
4.2887068e+2, 2.1177952e+2, -863138.75, -953095.56, -18416.463, -0.00001158522, 0.0014981569, -859514.44, 5046.4375, 0.0, 5.0170426, 4.958976 
4.288408e+2, 2.1673872e+2, -818225.06, -906409.75, -18490.574, 0.000024259265, -0.0012630975, -814504.9, 1455.956, 0.0, 5.0156384, 4.9587445 
4.2881098e+2, 2.2169685e+2, -775559.25, -864677.75, -18444.432, 0.000019001158, 0.0016175789, -771892.75, -4521.787, 0.0, 5.014235, 4.9567914 
4.2878118e+2, 2.266539e+2, -730523.94, -817814.44, -18476.291, 0.000015764132, -0.0012191717, -726774.2, -7982.212, 0.0, 5.0128326, 4.956594 
4.2875162e+2, 2.3160985e+2, -687869.4, -776231.8, -18115.96, 0.000016954074, 0.0016322708, -684299.5, -14075.836, 0.0, 5.011431, 4.9545546 
4.2872232e+2, 2.3656467e+2, -642676.2, -729136.0, -18086.63, 0.000016156993, -0.0015297547, -639045.1, -17378.63, 0.0, 5.010036, 4.9544077 
4.286934e+2, 2.4151841e+2, -600045.5, -687763.75, -17428.361, 0.000018360905, 0.0018338586, -596709.6, -23589.78, 0.0, 5.0086427, 4.952252 
4.2866507e+2, 2.4647094e+2, -554653.5, -640371.9, -17323.75, 0.00003640638, -0.0015690253, -551284.75, -26699.941, 0.0, 5.00726, 4.952176 
4.286372e+2, 2.5142235e+2, -512143.6, -599469.5, -16376.842, 0.00009096396, 0.0017997472, -509173.38, -33112.3, 0.0, 5.005882, 4.9498153 
4.2861018e+2, 2.563726e+2, -466361.94, -551392.5, -16186.738, 0.000051525487, -0.0016152881, -463384.8, -35836.08, 0.0, 5.004521, 4.949943 
4.2858377e+2, 2.613216e+2, -424084.03, -511257.78, -14963.661, 0.000037949936, 0.0017776593, -421587.0, -42538.516, 0.0, 5.0031652, 4.9472647 
4.2855847e+2, 2.6626948e+2, -377813.75, -462293.6, -14681.707, 0.00005071597, -0.0014818714, -375334.97, -44775.625, 0.0, 5.001831, 4.947667 
4.2853394e+2, 2.7121598e+2, -335853.88, -423170.78, -13185.564, 0.00008001942, 0.0018849284, -333906.2, -51822.52, 0.0, 5.000505, 4.9445753 
4.2851076e+2, 2.761613e+2, -289094.34, -373331.63, -12804.101, 0.000055726818, -0.0016567223, -287191.13, -53571.918, 0.0, 4.999203, 4.945247 
4.2848843e+2, 2.8110537e+2, -247009.75, -334254.84, -11047.458, 0.000020339863, 0.0024729997, -245632.6, -60465.14, 0.0, 4.997912, 4.942084 
4.2846778e+2, 2.860484e+2, -199730.95, -283511.4, -10543.738, -0.0000071590994, -0.0024058826, -198424.4, -61698.508, 0.0, 4.996654, 4.9430346 
4.284481e+2, 2.9098928e+2, -160060.63, -250402.5, -8553.684, 0.0000012367617, 0.0018736538, -159257.88, -70952.81, 0.0, 4.9954066, 4.9376917 
4.2843038e+2, 2.95928e+2, -112850.02, -200134.58, -7905.2573, 0.000082361425, 0.000018565906, -112139.83, -72234.08, 0.0, 4.9941936, 4.9384255 
4.284137e+2, 3.0087402e+2, -73475.414, -135188.6, -5806.058, 0.000072432675, 0.0026975942, -72933.92, -72933.92, 0.0, 4.992993, 4.9533796 
4.2839926e+2, 3.058284e+2, -74948.516, -132605.75, -4976.7603, 0.00004852279, -0.0051834066, -74522.09, -74522.09, 0.0, 4.991835, 4.9548044 
4.283861e+2, 3.1080082e+2, -37317.93, -39163.727, -2503.6697, 0.00014466482, 0.0040560598, -35572.477, -35572.477, 0.0, 4.990695, 4.989481 
4.2837584e+2, 3.1579196e+2, -37714.55, -34490.742, -1387.0669, 0.00015070476, -0.0007007356, -33976.1, -33976.1, 0.0, 4.989611, 4.991668 
4.3433183e+2, 1.2234537e+2, -1645357.3, -1740495.9, 627.7254, -0.0074881264, -0.00082550914, -1645353.1, 95662.37, 0.0, 5.0415115, 4.9792795 
4.343196e+2, 1.2732378e+2, -1602823.5, -1700993.4, -3295.6956, 0.021362962, 0.007431288, -1602713.0, 89514.15, 0.0, 5.040734, 4.9765935 
4.342994e+2, 1.322983e+2, -1558396.5, -1656250.6, -4504.808, -0.01748768, -0.005697331, -1558189.5, 85287.125, 0.0, 5.0396595, 4.975684 
4.342843e+2, 1.3727477e+2, -1514573.1, -1611151.8, -4755.6226, -0.0008649732, -0.0012240851, -1514339.5, 80367.84, 0.0, 5.038235, 4.9751277 
4.3426654e+2, 1.422496e+2, -1471868.4, -1568736.6, -7438.7085, 0.0061080377, 0.0034157294, -1471300.5, 74653.52, 0.0, 5.0368743, 4.973617 
4.3424588e+2, 1.4722313e+2, -1427503.8, -1523227.4, -7803.574, 0.00052990735, -0.0007615686, -1426871.8, 70341.766, 0.0, 5.035585, 4.9731135 
4.342241e+2, 1.5219557e+2, -1384795.8, -1481146.4, -10146.598, -0.001922989, 0.0004591784, -1383738.8, 64744.695, 0.0, 5.0342755, 4.971468 
4.3420124e+2, 1.5716723e+2, -1340496.9, -1435590.4, -10449.099, -0.000043954995, -0.0012388859, -1339362.3, 60399.22, 0.0, 5.032931, 4.9709835 
4.341771e+2, 1.6213772e+2, -1297788.9, -1393392.9, -12419.17, 0.0007220333, 0.0016598824, -1296201.9, 54848.652, 0.0, 5.031577, 4.9693666 
4.3415156e+2, 1.6710716e+2, -1253439.5, -1347649.8, -12680.561, 0.000044299937, -0.0010385591, -1251762.6, 50587.37, 0.0, 5.0301995, 4.9689336 
4.341251e+2, 1.7207554e+2, -1210793.8, -1305520.4, -14308.702, -0.00023956901, 0.0011919931, -1208679.6, 44980.13, 0.0, 5.028812, 4.967276 
4.3409762e+2, 1.7704298e+2, -1166407.6, -1259603.4, -14526.439, 0.0000004355587, -0.0011049293, -1164195.9, 40783.152, 0.0, 5.027398, 4.9668937 
4.340694e+2, 1.8200934e+2, -1123818.1, -1217531.3, -15820.293, 0.00009512966, 0.0013959127, -1121219.5, 35089.098, 0.0, 5.0259767, 4.9652033 
4.3404028e+2, 1.869747e+2, -1079370.9, -1171433.3, -15993.075, 0.00010583088, -0.0011200159, -1076671.8, 30976.42, 0.0, 5.0245357, 4.9648685 
4.3401068e+2, 1.9193904e+2, -1036832.06, -1129449.4, -16955.625, 0.00007876745, 0.0014948989, -1033825.56, 25172.13, 0.0, 5.0230894, 4.9631233 
4.339804e+2, 1.9690233e+2, -992306.56, -1083164.6, -17087.953, 0.00010741863, -0.0011046771, -989199.06, 21158.266, 0.0, 5.0216284, 4.962835 
4.3394983e+2, 2.0186463e+2, -949787.94, -1041240.4, -17707.148, 0.00007907462, 0.0015271865, -946479.1, 15247.692, 0.0, 5.0201635, 4.9610486 
4.3391883e+2, 2.0682587e+2, -905196.75, -994825.1, -17806.078, 0.00004193953, -0.0011585802, -901788.9, 11317.781, 0.0, 5.018688, 4.9607844 
4.338877e+2, 2.1178609e+2, -862698.4, -952991.56, -18087.09, -0.000008569448, 0.0015485621, -859210.0, 5286.456, 0.0, 5.017212, 4.9589353 
4.338564e+2, 2.1674524e+2, -817998.9, -906399.56, -18158.746, 0.000015050735, -0.0012346142, -814414.2, 1482.6803, 0.0, 5.015732, 4.9587073 
4.3382514e+2, 2.2170337e+2, -775508.6, -864674.1, -18106.645, -0.00001151662, 0.001623325, -771972.06, -4664.7944, 0.0, 5.014251, 4.956787 
4.3379387e+2, 2.2666039e+2, -730683.8, -817900.4, -18134.2, -0.000017801962, -0.0012225165, -727063.56, -8335.265, 0.0, 5.0127735, 4.9565935 
4.3376288e+2, 2.3161635e+2, -688207.44, -776330.4, -17764.232, -0.000014219833, 0.0016267877, -684761.25, -14601.346, 0.0, 5.0112953, 4.9545836 
4.3373218e+2, 2.365712e+2, -643229.4, -729326.9, -17731.857, 0.000017120637, -0.0015147063, -639720.5, -18118.096, 0.0, 5.0098224, 4.95444 
4.3370184e+2, 2.4152498e+2, -600776.2, -687961.3, -17058.621, 0.00003647398, 0.0018575569, -597557.4, -24502.025, 0.0, 5.008352, 4.9523163 
4.3367207e+2, 2.464776e+2, -555594.2, -640655.44, -16949.047, 0.00003806737, -0.0015603494, -552341.4, -27821.69, 0.0, 5.0068927, 4.952244 
4.336428e+2, 2.5142908e+2, -513258.94, -599758.94, -15981.018, 0.00008109499, 0.0017961964, -510400.84, -34405.684, 0.0, 5.005438, 4.9499145 
4.3361434e+2, 2.5637943e+2, -467686.4, -551763.8, -15786.699, 0.000033918463, -0.001610768, -464819.97, -37338.117, 0.0, 5.003999, 4.950047 
4.3358657e+2, 2.6132855e+2, -425587.6, -511638.2, -14539.161, 0.000027443451, 0.0017851675, -423197.44, -44216.977, 0.0, 5.002566, 4.9473987 
4.3355986e+2, 2.6627654e+2, -379525.88, -462751.22, -14251.8955, 0.00005051455, -0.0014798797, -377152.97, -46662.992, 0.0, 5.001153, 4.947807 
4.3353397e+2, 2.7122322e+2, -337747.25, -423636.78, -12725.84, 0.00007912584, 0.0018796435, -335901.4, -53888.527, 0.0, 4.9997478, 4.9447455 
4.3350944e+2, 2.7616873e+2, -291190.06, -373868.16, -12337.936, 0.000048871436, -0.0016740628, -289388.16, -55841.445, 0.0, 4.9983687, 4.9454246 
4.334858e+2, 2.8111297e+2, -249288.75, -334806.9, -10545.615, 0.000003276831, 0.0024434482, -248007.52, -62914.36, 0.0, 4.996999, 4.942288 
4.3346387e+2, 2.860562e+2, -202215.34, -284135.47, -10034.908, -0.000034968594, -0.002432093, -201004.02, -64354.457, 0.0, 4.9956617, 4.9432454 
4.334429e+2, 2.9099733e+2, -162717.88, -251013.3, -8005.3994, -0.000023320092, 0.0018547832, -161997.94, -73771.375, 0.0, 4.9943357, 4.937939 
4.3342394e+2, 2.959363e+2, -115701.44, -200798.25, -7345.9966, 0.0000783363, 0.000003724785, -115071.95, -75247.195, 0.0, 4.9930444, 4.9386854 
4.33406e+2, 3.0088258e+2, -76498.24, -135859.2, -5220.379, 0.000070451766, 0.002679814, -76042.64, -76042.64, 0.0, 4.991765, 4.953666 
4.3339038e+2, 3.058372e+2, -78175.07, -133346.1, -4378.194, 0.00004870553, -0.00521072, -77829.79, -77829.79, 0.0, 4.9905305, 4.955099 
4.3337604e+2, 3.1080994e+2, -40705.445, -39928.51, -1883.5585, 0.00017900145, 0.0040266234, -38393.777, -38393.777, 0.0, 4.989315, 4.989792 
4.333647e+2, 3.1580138e+2, -41300.18, -35340.434, -751.048, 0.00026092236, -0.00061264384, -35247.242, -35247.242, 0.0, 4.9881587, 4.991979 
4.3937325e+2, 1.2235554e+2, -1645751.6, -1742506.3, -492.68994, -0.008830594, -0.0068644322, -1645749.1, 95166.695, 0.0, 5.0417686, 4.978494 
4.3936032e+2, 1.2733418e+2, -1602531.4, -1700886.8, -3435.935, 0.021794986, 0.003974313, -1602411.5, 89713.71, 0.0, 5.0408373, 4.9765797 
4.3933898e+2, 1.3230917e+2, -1558742.0, -1657227.0, -5203.9087, -0.017867036, -0.0027624213, -1558467.8, 84902.39, 0.0, 5.039713, 4.975338 
4.393225e+2, 1.3728501e+2, -1514724.5, -1612061.6, -5471.6187, -0.0008956742, -0.0010708836, -1514417.9, 80189.29, 0.0, 5.0383596, 4.9747686 
4.3930343e+2, 1.4225939e+2, -1471897.8, -1569515.8, -8070.76, 0.0062550283, 0.002465667, -1471235.0, 74623.23, 0.0, 5.037024, 4.973289 
4.3928143e+2, 1.4723267e+2, -1427620.6, -1524049.5, -8439.932, 0.0005498181, -0.0007959697, -1426887.5, 70232.6, 0.0, 5.0357046, 4.9727855 
4.3925834e+2, 1.5220486e+2, -1384879.0, -1481811.8, -10826.265, -0.001972064, 0.00081173383, -1383684.6, 64708.004, 0.0, 5.0343757, 4.971202 
4.3923414e+2, 1.5717621e+2, -1340598.1, -1436260.5, -11138.144, -0.00003899427, -0.0011675794, -1339318.4, 60354.984, 0.0, 5.033024, 4.9707184 
4.3920863e+2, 1.6214643e+2, -1297856.4, -1393953.4, -13139.652, 0.00075135217, 0.0016055694, -1296092.1, 54872.96, 0.0, 5.031661, 4.969143 
4.3918172e+2, 1.6711567e+2, -1253537.3, -1348218.4, -13408.082, 0.000040481387, -0.0010124578, -1251675.1, 50591.46, 0.0, 5.030271, 4.968713 
4.3915385e+2, 1.7208387e+2, -1210867.9, -1305994.1, -15068.62, -0.0002666926, 0.0012550688, -1208538.0, 45040.367, 0.0, 5.028874, 4.967092 
4.3912494e+2, 1.770511e+2, -1166497.5, -1260071.0, -15293.86, -0.000012414837, -0.0010677491, -1164061.3, 40838.137, 0.0, 5.027451, 4.9667153 
4.390953e+2, 1.820173e+2, -1123885.8, -1217917.3, -16613.027, 0.00008603302, 0.0014232239, -1121036.9, 35193.637, 0.0, 5.0260224, 4.9650564 
4.3906477e+2, 1.8698253e+2, -1079453.9, -1171818.0, -16792.191, 0.00007464349, -0.0010711419, -1076495.8, 31075.768, 0.0, 5.024574, 4.964725 
4.390337e+2, 1.9194673e+2, -1036886.94, -1129743.5, -17775.34, 0.000030264575, 0.0015540961, -1033600.5, 25321.719, 0.0, 5.023121, 4.963014 
4.3900195e+2, 1.9690993e+2, -992374.75, -1083456.4, -17914.594, 0.000058394096, -0.0010907557, -988977.9, 21305.09, 0.0, 5.021653, 4.9627295 
4.389699e+2, 2.0187213e+2, -949833.5, -1041454.7, -18550.281, 0.000035677283, 0.0015214683, -946220.2, 15433.217, 0.0, 5.0201826, 4.9609723 
4.3893743e+2, 2.068333e+2, -905253.25, -995034.44, -18656.367, 0.000035349116, -0.0011040723, -901530.8, 11503.03, 0.0, 5.018701, 4.960713 
4.3890485e+2, 2.1179347e+2, -862728.44, -953117.44, -18948.074, -0.000014056707, 0.001633436, -858917.1, 5507.1177, 0.0, 5.0172186, 4.9588943 
4.3887204e+2, 2.1675256e+2, -818038.75, -906522.5, -19025.598, -0.000019901245, -0.0012005728, -814121.3, 1703.7339, 0.0, 5.0157337, 4.9586697 
4.388393e+2, 2.2171068e+2, -775518.0, -864705.7, -18978.893, -0.00007150398, 0.0016163298, -771647.3, -4411.676, 0.0, 5.0142484, 4.9567833 
4.388066e+2, 2.266677e+2, -730703.44, -817928.7, -19013.129, -0.00007276815, -0.0012223826, -726739.2, -8082.5, 0.0, 5.012765, 4.956593 
4.387741e+2, 2.3162368e+2, -688201.44, -776277.75, -18646.193, -0.00006331881, 0.0016367339, -684416.56, -14328.502, 0.0, 5.011282, 4.9546137 
4.3874192e+2, 2.3657855e+2, -643231.75, -729272.5, -18619.668, 0.0000061575874, -0.0014866798, -639375.25, -17844.93, 0.0, 5.009805, 4.9544725 
4.3871012e+2, 2.415324e+2, -600748.2, -687817.56, -17942.691, 0.000047638583, 0.0018904937, -597195.6, -24212.82, 0.0, 5.0083303, 4.9523816 
4.3867886e+2, 2.4648508e+2, -555572.9, -640506.56, -17838.465, 0.000014591277, -0.0015453559, -551978.44, -27531.996, 0.0, 5.006867, 4.952313 
4.3864816e+2, 2.5143662e+2, -513211.1, -599526.3, -16861.389, 0.000032578075, 0.0017976055, -510034.22, -34113.082, 0.0, 5.005408, 4.950014 
4.3861824e+2, 2.5638708e+2, -467647.0, -551524.9, -16672.324, -0.000008501314, -0.0015896509, -464454.56, -37047.816, 0.0, 5.0039644, 4.950151 
4.3858904e+2, 2.6133633e+2, -425524.28, -511318.2, -15411.897, 0.00000091716714, 0.0018156138, -422839.7, -43935.5, 0.0, 5.002526, 4.947533 
4.3856096e+2, 2.6628447e+2, -379467.13, -462419.94, -15128.138, 0.00002979424, -0.0014658766, -376794.3, -46381.957, 0.0, 5.0011096, 4.9479475 
4.3853366e+2, 2.7123126e+2, -337663.66, -423223.72, -13583.886, 0.000051027695, 0.0018809331, -335558.8, -53625.055, 0.0, 4.9996996, 4.9449167 
4.3850777e+2, 2.7617696e+2, -291110.75, -373441.66, -13197.981, 0.000005251258, -0.0016856448, -289046.8, -55580.965, 0.0, 4.9983163, 4.9456024 
4.3848276e+2, 2.811214e+2, -249191.11, -334311.0, -11382.212, -0.00005257741, 0.0024135788, -247695.36, -62684.926, 0.0, 4.9969416, 4.9424925 
4.384595e+2, 2.8606486e+2, -202124.5, -283629.9, -10870.944, -0.00009139411, -0.0024638204, -200699.48, -64134.7, 0.0, 4.9956, 4.9434557 
4.384372e+2, 2.910062e+2, -162594.89, -250404.56, -8813.689, -0.00007138262, 0.0018292897, -161718.98, -73579.41, 0.0, 4.994269, 4.9381876 
4.3841693e+2, 2.959454e+2, -115577.445, -200161.63, -8151.741, 0.000040849525, -0.0000192163, -114798.99, -75063.75, 0.0, 4.9929733, 4.9389462 
4.3839774e+2, 3.0089197e+2, -76360.43, -135161.05, -5996.8027, 0.000027954453, 0.0026553487, -75755.08, -75755.08, 0.0, 4.9916887, 4.9539533 
4.383809e+2, 3.058469e+2, -78043.98, -132633.88, -5146.7695, 0.0000017911843, -0.0052421056, -77562.98, -77562.98, 0.0, 4.9904485, 4.955394 
4.3836534e+2, 3.1081995e+2, -40578.297, -39193.69, -2608.197, 0.00014557579, 0.0039861496, -37187.48, -37187.48, 0.0, 4.989227, 4.9901023 
4.3835285e+2, 3.158117e+2, -41197.887, -34617.047, -1461.7186, 0.00025704264, -0.00048407307, -34306.98, -34306.98, 0.0, 4.9880614, 4.992289 
4.4441685e+2, 1.22370265e+2, -1640978.8, -1740888.8, -205.10617, -0.00026953148, 0.0084566, -1640978.4, 99793.2, 0.0, 5.0435333, 4.9781637 
4.4440094e+2, 1.2734616e+2, -1599053.0, -1700440.4, -2518.096, 0.012218847, -0.0024844198, -1598990.5, 93017.34, 0.0, 5.0422826, 4.9760222 
4.4438016e+2, 1.3232188e+2, -1555401.6, -1656389.6, -4601.4463, -0.009950651, 0.00263206, -1555192.4, 88053.336, 0.0, 5.041013, 4.974983 
4.443616e+2, 1.3729683e+2, -1511205.5, -1611124.6, -4875.8633, -0.0005548225, -0.00083295774, -1510968.1, 83523.08, 0.0, 5.0397177, 4.974421 
4.4434088e+2, 1.4227065e+2, -1468426.3, -1568591.8, -7536.2607, 0.0036694652, 0.00068937574, -1467862.4, 77885.336, 0.0, 5.0383635, 4.972949 
4.4431776e+2, 1.4724377e+2, -1424495.9, -1523305.0, -7922.19, 0.00043951327, -0.000875439, -1423864.6, 73146.57, 0.0, 5.03693, 4.9724436 
4.4429332e+2, 1.5221572e+2, -1381951.0, -1481023.1, -10321.354, -0.0010957172, 0.0014217644, -1380887.1, 67399.07, 0.0, 5.035504, 4.9709234 
4.4426766e+2, 1.5718672e+2, -1337894.4, -1435583.4, -10644.169, 0.000033356308, -0.0011069761, -1336748.0, 62822.254, 0.0, 5.034077, 4.9704413 
4.4424072e+2, 1.6215667e+2, -1295321.1, -1393259.0, -12684.247, 0.0004945524, 0.0014300713, -1293705.1, 57159.68, 0.0, 5.0326357, 4.968911 
4.4421238e+2, 1.671257e+2, -1251249.5, -1347639.4, -12959.447, 0.00004510098, -0.0010173733, -1249537.5, 52630.88, 0.0, 5.0311613, 4.968485 
4.4418308e+2, 1.7209367e+2, -1208768.5, -1305421.9, -14644.31, -0.00016116949, 0.001332986, -1206598.4, 46883.742, 0.0, 5.0296817, 4.966903 
4.441527e+2, 1.7706072e+2, -1164624.8, -1259596.5, -14872.9795, 0.0000025316974, -0.0010300664, -1162350.0, 42455.043, 0.0, 5.028179, 4.9665327 
4.4412154e+2, 1.8202676e+2, -1122194.8, -1217454.5, -16209.3545, 0.000043807227, 0.0014283332, -1119512.1, 36625.832, 0.0, 5.026672, 4.964908 
4.4408953e+2, 1.8699183e+2, -1077987.3, -1171456.8, -16388.7, 0.000019246365, -0.0010805752, -1075197.0, 32283.348, 0.0, 5.0251455, 4.9645805 
4.4405696e+2, 1.9195591e+2, -1035600.4, -1129395.5, -17383.355, -0.000024978204, 0.0015502163, -1032482.3, 26350.078, 0.0, 5.0236154, 4.962903 
4.4402373e+2, 1.9691898e+2, -991308.8, -1083206.8, -17522.322, 0.000022734446, -0.0010746156, -988081.2, 22113.063, 0.0, 5.02207, 4.9626217 
4.4399017e+2, 2.0188108e+2, -948952.5, -1041227.1, -18164.691, 0.000008622504, 0.0015452047, -945505.44, 16060.151, 0.0, 5.0205216, 4.9608946 
4.4395617e+2, 2.0684218e+2, -904591.3, -994901.25, -18269.072, 0.00001788436, -0.0010800906, -901035.6, 11911.255, 0.0, 5.0189624, 4.960639 
4.4392207e+2, 2.1180229e+2, -862245.94, -952993.3, -18559.002, -0.00004538614, 0.0016475334, -858597.1, 5740.7354, 0.0, 5.017402, 4.958854 
4.4388774e+2, 2.1676134e+2, -817773.4, -906493.06, -18630.863, -0.00007507909, -0.0012192981, -814019.8, 1719.2856, 0.0, 5.01584, 4.958633 
4.4385347e+2, 2.2171941e+2, -775437.1, -864692.56, -18578.959, -0.00013732394, 0.0015896746, -771724.25, -4574.329, 0.0, 5.0142756, 4.956777 
4.4381922e+2, 2.2667643e+2, -730845.06, -818012.4, -18610.479, -0.00010677152, -0.0012020897, -727037.94, -8466.9, 0.0, 5.012713, 4.9565897 
4.4378522e+2, 2.3163243e+2, -688525.6, -776369.7, -18233.594, -0.00009199859, 0.0016727467, -684891.3, -14888.95, 0.0, 5.011151, 4.9546432 
4.4375148e+2, 2.3658735e+2, -643771.4, -729456.44, -18201.383, -0.00003677203, -0.001480546, -640065.3, -18621.0, 0.0, 5.0095963, 4.954505 
4.437182e+2, 2.415412e+2, -601466.0, -688008.56, -17508.219, 0.0000044142857, 0.0018800918, -598058.1, -25161.781, 0.0, 5.0080433, 4.952446 
4.436854e+2, 2.4649395e+2, -556505.4, -640786.7, -17399.443, -0.000024555819, -0.001533624, -553054.6, -28695.264, 0.0, 5.006502, 4.9523807 
4.4365323e+2, 2.514456e+2, -514325.88, -599814.5, -16403.037, -0.0000026205294, 0.0018210582, -511286.63, -35453.33, 0.0, 5.0049634, 4.9501143 
4.4362184e+2, 2.5639614e+2, -468983.34, -551901.1, -16210.317, -0.000023980372, -0.0015724441, -465926.9, -38608.957, 0.0, 5.0034385, 4.9502554 
4.4359118e+2, 2.6134548e+2, -427046.7, -511701.94, -14922.817, 0.000004253982, 0.0018147988, -424493.13, -45678.836, 0.0, 5.001919, 4.94767 
4.435616e+2, 2.6629376e+2, -381201.6, -462882.84, -14632.942, 0.000014777367, -0.0014945031, -378659.28, -48338.14, 0.0, 5.0004225, 4.94809 
4.4353288e+2, 2.712407e+2, -339583.44, -423694.63, -13058.31, 0.000020932705, 0.0018395928, -337602.78, -55761.727, 0.0, 4.998932, 4.9450903 
4.4350556e+2, 2.7618662e+2, -293242.88, -373988.16, -12666.109, -0.0000043356563, -0.001715232, -291302.63, -57931.234, 0.0, 4.997468, 4.9457827 
4.4347915e+2, 2.8113124e+2, -251516.27, -334877.3, -10815.555, -0.0000450481, 0.0023794088, -250135.88, -65221.723, 0.0, 4.9960113, 4.9426994 
4.4345447e+2, 2.8607485e+2, -204664.97, -284273.88, -10297.448, -0.00008478702, -0.0025140787, -203354.56, -66888.07, 0.0, 4.9945874, 4.9436684 
4.4343084e+2, 2.9101646e+2, -165312.08, -251026.3, -8198.967, -0.000064280495, 0.001779644, -164534.86, -76495.766, 0.0, 4.9931736, 4.9384418 
4.4340923e+2, 2.9595593e+2, -118495.23, -200835.39, -7526.4927, 0.000047259506, -0.000047755188, -117812.91, -78180.72, 0.0, 4.9917974, 4.9392138 
4.4338873e+2, 3.0090278e+2, -79460.57, -135849.27, -5347.411, 0.000035721554, 0.0026401966, -78957.945, -78957.945, 0.0, 4.990431, 4.954247 
4.433706e+2, 3.0585796e+2, -81363.02, -133400.88, -4485.6406, 0.000017444752, -0.0052639362, -80979.195, -80979.195, 0.0, 4.989108, 4.955694 
4.433538e+2, 3.1083134e+2, -44071.18, -39986.855, -1926.5505, 0.00016343161, 0.0039403634, -39221.523, -39221.523, 0.0, 4.987806, 4.9904203 
4.433401e+2, 3.1582344e+2, -44900.883, -35499.004, -766.15814, 0.00029398224, -0.0003657545, -35436.98, -35436.98, 0.0, 4.9865637, 4.992607 
4.494598e+2, 1.2238395e+2, -1640806.1, -1741475.1, -1387.8063, -0.006087721, 0.0025625727, -1640787.0, 99850.44, 0.0, 5.043733, 4.977875 
4.4944206e+2, 1.2735914e+2, -1599588.5, -1702349.9, -3153.3699, 0.00031348158, -0.0083782235, -1599491.8, 92388.89, 0.0, 5.0424533, 4.9753127 
4.4942215e+2, 1.3233542e+2, -1555518.6, -1657293.1, -5257.8296, 0.00009689802, 0.007711188, -1555247.6, 87865.45, 0.0, 5.0411515, 4.97462 
4.4940135e+2, 1.3730952e+2, -1511373.5, -1612026.9, -5532.2866, -0.00015068223, -0.0006184185, -1511070.4, 83296.445, 0.0, 5.039833, 4.974069 
4.4937888e+2, 1.4228283e+2, -1468605.9, -1569491.8, -8280.868, 0.0003730598, -0.0009762287, -1467930.6, 77697.914, 0.0, 5.038472, 4.9726014 
4.4935462e+2, 1.4725573e+2, -1424643.5, -1524193.0, -8664.139, 0.00031349284, -0.00092614605, -1423895.1, 72998.81, 0.0, 5.0370493, 4.972094 
4.493289e+2, 1.5222743e+2, -1382009.5, -1481725.9, -11057.219, 0.00003949674, 0.0020212375, -1380798.1, 67373.31, 0.0, 5.0356226, 4.9706364 
4.493017e+2, 1.571981e+2, -1337994.1, -1436300.4, -11383.016, 0.0001263168, -0.0010406243, -1336693.3, 62765.508, 0.0, 5.03418, 4.9701567 
4.4927326e+2, 1.6216777e+2, -1295392.9, -1393859.3, -13459.482, 0.00016299203, 0.0012680724, -1293586.1, 57169.87, 0.0, 5.0327253, 4.968672 
4.4924346e+2, 1.6713656e+2, -1251344.6, -1348238.8, -13738.757, 0.00005930943, -0.0010097916, -1249434.3, 52627.51, 0.0, 5.03124, 4.9682508 
4.4921267e+2, 1.7210436e+2, -1208833.9, -1305914.5, -15447.801, -0.000011876943, 0.0014245183, -1206435.0, 46942.586, 0.0, 5.0297503, 4.9667096 
4.491808e+2, 1.770712e+2, -1164708.3, -1260084.0, -15682.514, 0.00002798949, -0.000978962, -1162195.8, 42506.63, 0.0, 5.028239, 4.9663453 
4.4914812e+2, 1.8203707e+2, -1122251.5, -1217846.0, -17041.898, -0.000009312443, 0.0014449689, -1119304.3, 36732.76, 0.0, 5.026723, 4.9647574 
4.491146e+2, 1.8700197e+2, -1078063.1, -1171848.5, -17228.463, -0.0000444129, -0.0010860349, -1074998.4, 32382.549, 0.0, 5.025188, 4.9644337 
4.4908047e+2, 1.9196592e+2, -1035651.4, -1129699.5, -18243.508, -0.000083337785, 0.0015439433, -1032236.5, 26497.686, 0.0, 5.0236497, 4.9627895 
4.4904572e+2, 1.9692889e+2, -991374.06, -1083508.8, -18390.434, -0.00001534459, -0.0010420297, -987838.94, 22258.135, 0.0, 5.0220976, 4.962512 
4.4901058e+2, 2.018909e+2, -948993.25, -1041447.9, -19049.854, -0.000024070881, 0.0016006912, -945222.0, 16247.379, 0.0, 5.020543, 4.9608154 
4.4897503e+2, 2.0685193e+2, -904641.75, -995116.1, -19161.572, -0.000017542952, -0.001045646, -900750.8, 12100.569, 0.0, 5.018978, 4.9605646 
4.4893932e+2, 2.1181196e+2, -862265.7, -953114.8, -19462.555, -0.00010154791, 0.0016539962, -858271.8, 5971.1226, 0.0, 5.017412, 4.958814 
4.4890344e+2, 2.1677099e+2, -817805.8, -906612.6, -19542.355, -0.0001519057, -0.0012340331, -813695.7, 1948.8682, 0.0, 5.015844, 4.958596 
4.4886762e+2, 2.2172904e+2, -775445.3, -864732.7, -19499.72, -0.00021950188, 0.0015844777, -771372.5, -4316.9287, 0.0, 5.014274, 4.9567704 
4.4883183e+2, 2.2668606e+2, -730862.7, -818051.0, -19537.934, -0.00014968545, -0.0011503417, -726684.7, -8207.982, 0.0, 5.012707, 4.9565854 
4.4879627e+2, 2.3164207e+2, -688511.06, -776314.9, -19163.107, -0.00013049848, 0.0017389753, -684510.94, -14603.041, 0.0, 5.0111403, 4.9546733 
4.48761e+2, 2.36597e+2, -643764.5, -729398.2, -19137.273, -0.00010863703, -0.0014593565, -639682.3, -18332.775, 0.0, 5.0095816, 4.954538 
4.4872615e+2, 2.4155092e+2, -601431.3, -687865.0, -18441.79, -0.00007602854, 0.0018767763, -597660.94, -24859.799, 0.0, 5.008024, 4.952511 
4.4869184e+2, 2.4650376e+2, -556480.6, -640640.4, -18339.713, -0.00008303987, -0.0015006304, -552657.75, -28394.277, 0.0, 5.0064783, 4.952449 
4.486581e+2, 2.514555e+2, -514274.25, -599582.2, -17337.672, -0.000045891527, 0.0018776814, -510885.25, -35148.684, 0.0, 5.004935, 4.950214 
4.486252e+2, 2.5640613e+2, -468937.3, -551661.44, -17151.781, -0.000044177144, -0.0015336674, -465522.13, -38301.895, 0.0, 5.0034056, 4.95036 
4.4859302e+2, 2.6135558e+2, -426972.0, -511373.72, -15850.166, 0.0000020766065, 0.0018220858, -424093.6, -45378.16, 0.0, 5.0018816, 4.947807 
4.4856197e+2, 2.6630402e+2, -381132.28, -462544.7, -15565.388, -0.000016375336, -0.0015180468, -378257.78, -48036.92, 0.0, 5.0003815, 4.9482327 
4.4853175e+2, 2.712511e+2, -339488.88, -423273.34, -13974.951, -0.000030146519, 0.0018052403, -337219.38, -55480.15, 0.0, 4.998886, 4.945264 
4.4850296e+2, 2.7619717e+2, -293152.97, -373554.44, -13586.316, -0.000021068861, -0.0017254623, -290919.2, -57651.395, 0.0, 4.997418, 4.945963 
4.484751e+2, 2.8114197e+2, -251407.47, -334374.03, -11714.375, -0.00003348289, 0.0023719368, -249785.19, -64976.508, 0.0, 4.995957, 4.942906 
4.4844902e+2, 2.860858e+2, -204561.36, -283761.2, -11197.14, -0.00007516075, -0.0025446957, -203008.77, -66649.8, 0.0, 4.9945292, 4.94388 
4.4842398e+2, 2.910276e+2, -165169.69, -250397.75, -9070.705, -0.000060612132, 0.0017476897, -164215.0, -76285.67, 0.0, 4.9931116, 4.938696 
4.48401e+2, 2.9596737e+2, -118350.75, -200175.48, -8396.778, 0.000042104617, -0.000051252064, -117497.97, -77978.18, 0.0, 4.99173, 4.9394817 
4.4837913e+2, 3.0091453e+2, -79305.01, -135132.81, -6190.0522, 0.00003234963, 0.0026575753, -78626.91, -78626.91, 0.0, 4.9903584, 4.9545393 
4.4835967e+2, 3.0587003e+2, -81215.586, -132673.73, -5320.885, 0.000020193329, -0.0052517997, -80671.16, -80671.16, 0.0, 4.98903, 4.9559927 
4.4834155e+2, 3.1084365e+2, -43926.277, -39233.78, -2715.5164, 0.00014573405, 0.0039185197, -37991.31, -37991.31, 0.0, 4.9877214, 4.990736 
4.4832662e+2, 3.158361e+2, -44780.367, -34754.633, -1543.0883, 0.00023559685, -0.00021352514, -34522.508, -34522.508, 0.0, 4.9864697, 4.9929237 
4.5450625e+2, 1.2239897e+2, -1635934.4, -1739362.6, -205.22495, 0.012349887, -0.0050721294, -1635934.0, 104556.27, 0.0, 5.0454373, 4.9777374 
4.5448422e+2, 1.2737483e+2, -1595853.3, -1702048.0, -2598.3154, -0.0104730185, -0.0025642016, -1595789.6, 95937.23, 0.0, 5.0440445, 4.9746366 
4.5446494e+2, 1.3234954e+2, -1551633.4, -1656169.6, -4702.3335, 0.009173789, 0.0029537142, -1551422.4, 91552.54, 0.0, 5.042632, 4.974272 
4.544419e+2, 1.3732375e+2, -1507791.5, -1611039.4, -4980.767, 0.00016287684, -0.00080559147, -1507551.8, 86675.695, 0.0, 5.0412097, 4.9737296 
4.5441768e+2, 1.422969e+2, -1465223.4, -1568562.9, -7765.537, -0.0025966628, 0.0006322321, -1464643.1, 80847.6, 0.0, 5.0397725, 4.972282 
4.5439228e+2, 1.4726934e+2, -1421405.5, -1523343.1, -8137.62, 0.00021678561, -0.000822244, -1420759.9, 76000.836, 0.0, 5.0383034, 4.9717736 
4.543652e+2, 1.5224066e+2, -1378915.0, -1480869.1, -10554.947, 0.0010651276, 0.0015101052, -1377833.8, 70208.13, 0.0, 5.036811, 4.970352 
4.543364e+2, 1.572111e+2, -1335171.0, -1435578.5, -10883.515, 0.00021282982, -0.0010621023, -1334004.9, 65326.688, 0.0, 5.0352774, 4.9698734 
4.543064e+2, 1.6218051e+2, -1292758.3, -1393122.1, -12984.277, -0.000121741716, 0.0014540333, -1291105.8, 59525.496, 0.0, 5.0337358, 4.968438 
4.542751e+2, 1.6714907e+2, -1248953.5, -1347612.5, -13260.641, 0.00009617848, -0.0009790907, -1247202.3, 54737.188, 0.0, 5.0321665, 4.968022 
4.542428e+2, 1.721166e+2, -1206633.8, -1305298.6, -14983.54, 0.00014078552, 0.0013787567, -1204408.5, 48848.938, 0.0, 5.030594, 4.966519 
4.5420936e+2, 1.7708327e+2, -1162745.0, -1259575.5, -15216.749, 0.00004465182, -0.0009933823, -1160410.0, 44174.09, 0.0, 5.0290003, 4.966159 
4.541751e+2, 1.8204896e+2, -1120476.4, -1217346.6, -16588.59, -0.000060420094, 0.0014422317, -1117714.5, 38205.98, 0.0, 5.0274024, 4.964608 
4.5413998e+2, 1.8701372e+2, -1076524.8, -1171459.8, -16774.186, -0.0000703749, -0.0011008772, -1073648.1, 33617.645, 0.0, 5.0257854, 4.964287 
4.5410427e+2, 1.9197755e+2, -1034301.06, -1129327.8, -17796.916, -0.00009685782, 0.0015245574, -1031077.4, 27543.06, 0.0, 5.024167, 4.9626756 
4.5406792e+2, 1.9694038e+2, -990251.2, -1083238.8, -17941.797, -0.000042583906, -0.0010460576, -986909.44, 23075.016, 0.0, 5.0225353, 4.962402 
4.540312e+2, 2.019023e+2, -948055.56, -1041193.9, -18604.254, -0.00006971717, 0.0015954342, -944476.94, 16880.824, 0.0, 5.0209017, 4.960737 
4.53994e+2, 2.0686324e+2, -903924.7, -994957.1, -18710.988, -0.00007002178, -0.0010877261, -900228.8, 12511.719, 0.0, 5.019258, 4.960491 
4.5395672e+2, 2.1182321e+2, -861737.5, -952975.06, -19010.928, -0.00015490061, 0.0016121995, -857934.75, 6197.991, 0.0, 5.0176125, 4.9587717 
4.5391923e+2, 2.167822e+2, -817508.2, -906575.94, -19087.979, -0.00017576743, -0.0012073123, -813589.8, 1944.8967, 0.0, 5.0159626, 4.958556 
4.5388177e+2, 2.2174022e+2, -775336.3, -864708.7, -19039.791, -0.00023986968, 0.0016372396, -771449.2, -4503.0947, 0.0, 5.014312, 4.9567633 
4.5384437e+2, 2.2669724e+2, -730976.06, -818123.7, -19071.207, -0.00019125866, -0.0011373505, -726985.3, -8617.947, 0.0, 5.0126653, 4.9565816 
4.5380723e+2, 2.3165324e+2, -688807.2, -776393.1, -18684.027, -0.00019051484, 0.0017264975, -684988.0, -15189.489, 0.0, 5.0110183, 4.9547033 
4.5377037e+2, 2.366082e+2, -644281.75, -729571.0, -18651.783, -0.00016644415, -0.0014555865, -640381.25, -19141.375, 0.0, 5.0093803, 4.9545712 
4.537339e+2, 2.4156216e+2, -602135.94, -688050.1, -17941.426, -0.00011518367, 0.0018887388, -598539.8, -25848.754, 0.0, 5.007742, 4.952575 
4.53698e+2, 2.4651505e+2, -557414.7, -640922.06, -17834.576, -0.000075018994, -0.0014827288, -553765.25, -29612.527, 0.0, 5.0061126, 4.9525166 
4.536627e+2, 2.5146684e+2, -515398.0, -599870.0, -16810.793, -0.000020642807, 0.001888991, -512175.44, -36550.336, 0.0, 5.004486, 4.950316 
4.5362824e+2, 2.564176e+2, -470279.13, -552035.6, -16618.865, -0.00004705103, -0.001547696, -467030.06, -39922.3, 0.0, 5.0028763, 4.950466 
4.5359448e+2, 2.6136714e+2, -428501.2, -511758.1, -15289.325, -0.0000076370525, 0.0017856777, -425782.25, -47180.4, 0.0, 5.0012712, 4.947944 
4.535619e+2, 2.6631573e+2, -382883.28, -463014.88, -15000.361, -0.000015883297, -0.0015509296, -380167.3, -50061.367, 0.0, 4.999688, 4.948375 
4.5353016e+2, 2.7126297e+2, -341433.0, -423752.22, -13381.328, -0.00002589821, 0.0017828337, -339312.44, -57689.59, 0.0, 4.9981093, 4.9454384 
4.5349982e+2, 2.7620924e+2, -295318.56, -374113.3, -12987.613, -0.0000035579953, -0.0017354968, -293233.03, -60083.348, 0.0, 4.996557, 4.946144 
4.534705e+2, 2.8115422e+2, -253772.0, -334953.6, -11080.884, -0.000004416055, 0.0023563874, -252286.69, -67597.94, 0.0, 4.995012, 4.9431143 
4.5344293e+2, 2.8609827e+2, -207142.89, -284419.16, -10557.2, -0.00005406892, -0.0025825955, -205726.56, -69489.54, 0.0, 4.993501, 4.944094 
4.5341644e+2, 2.9104027e+2, -167928.69, -251023.63, -8390.268, -0.000050458664, 0.0017061512, -167089.97, -79284.79, 0.0, 4.991999, 4.9389563 
4.5339206e+2, 2.959803e+2, -121323.44, -200856.44, -7707.1963, 0.000047889276, -0.0000652211, -120583.45, -81190.45, 0.0, 4.990532, 4.9397564 
4.5336878e+2, 3.0092773e+2, -82473.49, -135834.39, -5477.736, 0.000053526448, 0.0026640077, -81916.98, -81916.98, 0.0, 4.9890733, 4.9548397 
4.5334792e+2, 3.0588356e+2, -84616.01, -133460.98, -4595.9385, 0.000041927815, -0.0052506444, -84187.33, -84187.33, 0.0, 4.9876585, 4.9562993 
4.533285e+2, 3.1085747e+2, -47515.92, -40052.348, -1970.5138, 0.00013040865, 0.0038630052, -39564.043, -39564.043, 0.0, 4.9862638, 4.9910607 
4.5331225e+2, 3.1585026e+2, -48592.887, -35664.43, -785.2755, 0.00017895432, -0.00019249303, -35616.91, -35616.91, 0.0, 4.98493, 4.99325 
4.5955023e+2, 1.2241663e+2, -1635667.3, -1739999.8, -359.22733, -0.0023450255, 0.0056469566, -1635666.0, 104651.25, 0.0, 5.0456896, 4.9774065 
4.595274e+2, 1.2739153e+2, -1596426.0, -1703778.5, -3461.6628, -0.019003836, 0.004747434, -1596314.5, 95248.84, 0.0, 5.04416, 4.9740133 
4.5950827e+2, 1.3236439e+2, -1551935.3, -1657128.5, -5422.793, 0.016538925, -0.0032134848, -1551656.4, 91172.83, 0.0, 5.0427003, 4.973925 
4.5948306e+2, 1.3733886e+2, -1507943.4, -1611912.4, -5689.4907, 0.00037509174, -0.0010058098, -1507633.0, 86446.34, 0.0, 5.041325, 4.9733877 
4.5945716e+2, 1.423119e+2, -1465283.8, -1569345.1, -8511.868, -0.005003302, 0.002781055, -1464592.1, 80751.47, 0.0, 5.039908, 4.9719605 
4.5943052e+2, 1.4728382e+2, -1421498.5, -1524142.4, -8896.636, 0.00016482774, -0.00068554166, -1420733.1, 75885.62, 0.0, 5.0384274, 4.9714518 
4.59402e+2, 1.5225476e+2, -1378991.0, -1481582.4, -11359.969, 0.0019177081, 0.0008196205, -1377748.3, 70155.41, 0.0, 5.0369234, 4.9700646 
4.5937163e+2, 1.5722498e+2, -1335282.1, -1436305.9, -11682.799, 0.00029096392, -0.0010801852, -1333948.8, 65246.785, 0.0, 5.035377, 4.9695873 
4.5934004e+2, 1.6219416e+2, -1292828.0, -1393717.3, -13805.93, -0.00034342578, 0.0017256427, -1290972.9, 59524.598, 0.0, 5.0338244, 4.9682016 
4.5930722e+2, 1.6716246e+2, -1249040.5, -1348204.8, -14085.5205, 0.0001459415, -0.0009268, -1247078.5, 54729.633, 0.0, 5.0322466, 4.96779 
4.592733e+2, 1.721298e+2, -1206690.6, -1305790.9, -15830.692, 0.00028313173, 0.0013202915, -1204223.3, 48905.08, 0.0, 5.0306654, 4.966325 
4.5923826e+2, 1.7709626e+2, -1162823.4, -1260069.6, -16069.215, 0.000061132465, -0.0010050292, -1160236.8, 44220.07, 0.0, 5.0290623, 4.9659686 
4.5920238e+2, 1.8206178e+2, -1120524.5, -1217738.8, -17463.232, -0.000102631595, 0.0014533157, -1117482.6, 38312.195, 0.0, 5.0274563, 4.9644566 
4.5916566e+2, 1.8702638e+2, -1076593.9, -1171858.0, -17656.908, -0.00008505084, -0.0010973568, -1073426.5, 33715.07, 0.0, 5.025831, 4.9641366 
4.5912832e+2, 1.9199006e+2, -1034343.7, -1129636.1, -18698.133, -0.00010247052, 0.001524023, -1030806.1, 27691.473, 0.0, 5.0242057, 4.9625597 
4.5909032e+2, 1.969528e+2, -990308.44, -1083546.4, -18851.21, -0.00007327969, -0.0010403516, -986641.25, 23221.506, 0.0, 5.022567, 4.962289 
4.5905197e+2, 2.0191461e+2, -948083.6, -1041408.5, -19530.357, -0.0001287169, 0.0015905852, -944161.25, 17075.727, 0.0, 5.0209265, 4.960659 
4.5901316e+2, 2.0687547e+2, -903966.1, -995169.4, -19646.639, -0.00013814468, -0.0011288835, -899914.0, 12706.564, 0.0, 5.0192766, 4.960417 
4.589742e+2, 2.118354e+2, -861755.1, -953106.94, -19961.176, -0.00021742986, 0.001584897, -857583.9, 6429.4395, 0.0, 5.017625, 4.958728 
4.5893505e+2, 2.1679434e+2, -817538.3, -906708.9, -20046.277, -0.0001950875, -0.0011389796, -813239.06, 2176.599, 0.0, 5.0159693, 4.9585147 
4.5889595e+2, 2.2175235e+2, -775334.8, -864747.7, -20006.023, -0.00025523445, 0.0017334011, -771062.6, -4235.3765, 0.0, 5.014313, 4.956756 
4.588569e+2, 2.2670935e+2, -730983.8, -818160.4, -20044.195, -0.0002493518, -0.0011137298, -726595.94, -8347.338, 0.0, 5.0126624, 4.9565773 
4.5881808e+2, 2.3166536e+2, -688783.9, -776337.2, -19660.617, -0.00027176397, 0.0017123631, -684571.6, -14891.931, 0.0, 5.0110106, 4.9547334 
4.587796e+2, 2.3662037e+2, -644269.2, -729513.56, -19636.22, -0.00022973752, -0.0014303455, -639963.44, -18842.797, 0.0, 5.0093675, 4.9546037 
4.5874152e+2, 2.4157438e+2, -602095.94, -687907.2, -18927.531, -0.00015181754, 0.001935317, -598106.5, -25535.184, 0.0, 5.0077243, 4.9526396 
4.5870402e+2, 2.4652733e+2, -557381.25, -640775.5, -18828.965, -0.00005576509, -0.0014439161, -553327.06, -29294.66, 0.0, 5.0060916, 4.952584 
4.5866707e+2, 2.514792e+2, -515331.9, -599628.8, -17798.68, 0.000016564827, 0.0019059579, -511727.94, -36223.957, 0.0, 5.004461, 4.950418 
4.58631e+2, 2.5643006e+2, -470218.44, -551786.75, -17615.098, -0.00005959379, -0.001557466, -466576.94, -39591.332, 0.0, 5.0028477, 4.950573 
4.5859566e+2, 2.6137975e+2, -428415.25, -511427.9, -16274.474, -0.00003883503, 0.00175979, -425338.7, -46860.195, 0.0, 5.001238, 4.948081 
4.5856148e+2, 2.6632845e+2, -382804.56, -462678.03, -15992.671, -0.000020249596, -0.001558822, -379721.44, -49740.242, 0.0, 4.999651, 4.9485164 
4.5852816e+2, 2.7127588e+2, -341327.28, -423328.38, -14359.481, -0.000017918848, 0.0017953444, -338885.47, -57388.91, 0.0, 4.9980674, 4.945612 
4.584963e+2, 2.762223e+2, -295215.75, -373676.8, -13970.188, 0.0000042488623, -0.0017167575, -292802.53, -59780.906, 0.0, 4.996512, 4.946324 
4.5846543e+2, 2.8116748e+2, -253647.98, -334444.4, -12041.583, 0.000003951176, 0.0023656012, -251891.55, -67332.695, 0.0, 4.994962, 4.943321 
4.5843637e+2, 2.861117e+2, -207024.72, -283900.72, -11519.822, -0.000055935932, -0.0025934756, -205335.6, -69230.54, 0.0, 4.993448, 4.944307 
4.584084e+2, 2.9105398e+2, -167767.13, -250377.47, -9328.092, -0.00006734185, 0.0016905136, -166726.92, -79055.97, 0.0, 4.991941, 4.939215 
4.5838252e+2, 2.9599428e+2, -121157.99, -200176.25, -8645.523, 0.000025175672, -0.000056121135, -120223.13, -80967.055, 0.0, 4.99047, 4.94003 
4.5835778e+2, 3.0094197e+2, -82295.79, -135096.4, -6388.853, 0.00004826432, 0.002692639, -81533.734, -81533.734, 0.0, 4.9890056, 4.955138 
4.5833555e+2, 3.058981e+2, -84446.016, -132712.78, -5500.944, 0.000024789586, -0.0052251397, -83827.01, -83827.01, 0.0, 4.9875855, 4.956604 
4.583147e+2, 3.1087235e+2, -47349.434, -39279.965, -2829.0671, 0.000050334893, 0.003818921, -38386.95, -38386.95, 0.0, 4.986184, 4.9913816 
4.5829716e+2, 3.1586546e+2, -48450.676, -34897.285, -1633.5321, 0.000004704298, -0.00020556492, -34703.184, -34703.184, 0.0, 4.9848413, 4.993573 
4.6459824e+2, 1.2243309e+2, -1631325.6, -1739418.6, 717.76715, 0.011262654, -0.0044684825, -1631320.8, 108835.21, 0.0, 5.047491, 4.976718 
4.6457303e+2, 1.2740846e+2, -1592013.5, -1701857.4, -3239.1382, -0.011980996, 0.00072903367, -1591918.1, 99479.29, 0.0, 5.0457044, 4.9738936 
4.645511e+2, 1.3238186e+2, -1548163.1, -1655931.3, -4764.9785, 0.010762957, 0.00017202554, -1547952.9, 94705.25, 0.0, 5.0441165, 4.973633 
4.6452507e+2, 1.373557e+2, -1504193.5, -1610750.6, -5015.554, 0.00012080832, -0.0009060142, -1503957.9, 89956.51, 0.0, 5.04274, 4.9730873 
4.6449792e+2, 1.423283e+2, -1461696.9, -1568344.3, -7950.6846, -0.0030469035, 0.0017407463, -1461107.4, 84075.555, 0.0, 5.0412846, 4.9716287 
4.6446958e+2, 1.4729999e+2, -1418173.4, -1523278.9, -8353.3, 0.00028477405, -0.0007057328, -1417513.6, 78946.81, 0.0, 5.039718, 4.971118 
4.6443942e+2, 1.5227064e+2, -1375811.4, -1480620.3, -10858.634, 0.0012861646, 0.0011591197, -1374698.1, 73049.72, 0.0, 5.0381284, 4.969808 
4.644075e+2, 1.5724057e+2, -1332362.3, -1435468.8, -11163.915, 0.00026803734, -0.0010556452, -1331167.3, 67875.39, 0.0, 5.0364933, 4.9693336 
4.6437433e+2, 1.622095e+2, -1290119.6, -1392928.6, -13290.69, -0.000097663826, 0.0016307833, -1288429.3, 61917.92, 0.0, 5.0348573, 4.967974 
4.6433988e+2, 1.6717757e+2, -1246568.4, -1347526.6, -13564.542, 0.00020565152, -0.0009359554, -1244777.8, 56882.375, 0.0, 5.0331984, 4.9675665 
4.6430433e+2, 1.7214468e+2, -1204407.8, -1305125.8, -15321.233, 0.00025323383, 0.0013349555, -1202128.8, 50853.574, 0.0, 5.0315356, 4.966138 
4.6426764e+2, 1.7711096e+2, -1160783.4, -1259519.8, -15553.892, 0.00008849832, -0.0010273452, -1158391.1, 45921.555, 0.0, 5.029849, 4.9657836 
4.642301e+2, 1.820763e+2, -1118676.0, -1217205.6, -16956.88, -0.000052783227, 0.0014205145, -1115839.5, 39812.945, 0.0, 5.028161, 4.9643064 
4.6419168e+2, 1.8704076e+2, -1074984.8, -1171440.1, -17148.006, -0.000076630335, -0.0011173963, -1072026.9, 34973.84, 0.0, 5.026454, 4.9639874 
4.641527e+2, 1.9200431e+2, -1032922.25, -1129230.8, -18192.855, -0.00012124343, 0.0014957488, -1029600.2, 28757.875, 0.0, 5.0247474, 4.9624457 
4.64113e+2, 1.9696692e+2, -989116.94, -1083243.6, -18340.46, -0.000100435405, -0.0010987896, -985669.56, 24054.818, 0.0, 5.023028, 4.962179 
4.6407294e+2, 2.0192863e+2, -947084.3, -1041126.56, -19020.645, -0.00015434374, 0.0015318934, -943382.94, 17716.729, 0.0, 5.0213065, 4.960581 
4.6403244e+2, 2.0688942e+2, -903200.25, -994992.56, -19133.326, -0.00013166465, -0.0011373162, -899371.75, 13112.252, 0.0, 5.0195746, 4.9603415 
4.639918e+2, 2.1184927e+2, -861181.9, -952947.44, -19445.863, -0.00020318133, 0.0016016894, -857231.25, 6646.173, 0.0, 5.0178404, 4.958685 
4.6395096e+2, 2.1680817e+2, -817196.25, -906654.25, -19523.693, -0.00019171931, -0.0011387346, -813121.0, 2159.2798, 0.0, 5.0161037, 4.958473 
4.6391016e+2, 2.2176613e+2, -775179.6, -864698.8, -19473.89, -0.00026346036, 0.0017135349, -771126.8, -4434.606, 0.0, 5.014366, 4.956751 
4.6386942e+2, 2.2672313e+2, -731056.8, -818211.2, -19502.873, -0.00026346536, -0.0011362592, -726891.6, -8778.004, 0.0, 5.0126333, 4.956575 
4.6382892e+2, 2.3167916e+2, -689050.94, -776404.75, -19107.727, -0.00028321167, 0.0016964099, -685054.2, -15509.519, 0.0, 5.010899, 4.9547625 
4.6378872e+2, 2.3663417e+2, -644771.1, -729683.6, -19077.537, -0.0002158459, -0.0014074135, -640681.8, -19696.459, 0.0, 5.009172, 4.954635 
4.6374896e+2, 2.4158822e+2, -602789.0, -688083.8, -18352.44, -0.00012992151, 0.001965844, -599007.8, -26572.158, 0.0, 5.0074453, 4.952706 
4.6370977e+2, 2.4654123e+2, -558297.7, -641044.9, -18246.396, -0.000059449383, -0.0014587858, -554452.9, -30556.705, 0.0, 5.005731, 4.9526534 
4.6367118e+2, 2.514932e+2, -516437.72, -599909.1, -17193.498, -0.000006498114, 0.0018648129, -513034.9, -37667.94, 0.0, 5.004019, 4.9505196 
4.6363345e+2, 2.5644416e+2, -471549.13, -552158.7, -17006.615, -0.00006862602, -0.0015580077, -468108.03, -41260.434, 0.0, 5.002323, 4.950678 
4.6359646e+2, 2.6139396e+2, -429940.4, -511811.22, -15641.415, -0.000028954064, 0.0017770859, -427053.88, -48714.473, 0.0, 5.0006294, 4.9482183 
4.6356064e+2, 2.6634276e+2, -384560.7, -463151.28, -15355.426, -0.0000011865221, -0.0015712144, -381667.0, -51826.18, 0.0, 4.998956, 4.9486585 
4.635257e+2, 2.7129033e+2, -343280.78, -423806.53, -13691.257, -0.0000035267497, 0.0017581683, -341016.6, -59661.863, 0.0, 4.9972863, 4.9457884 
4.6349224e+2, 2.7623695e+2, -297391.2, -374234.94, -13294.466, -0.000007761241, -0.0017764856, -295156.2, -62278.07, 0.0, 4.9956465, 4.9465075 
4.6345982e+2, 2.8118232e+2, -256026.8, -335025.44, -11330.006, -0.000012320493, 0.0022836837, -254433.95, -70020.47, 0.0, 4.9940114, 4.943532 
4.6342918e+2, 2.8612676e+2, -209634.16, -284566.78, -10802.1045, -0.00003606832, -0.0026731482, -208108.03, -72150.36, 0.0, 4.9924097, 4.944523 
4.6339965e+2, 2.9106924e+2, -170562.53, -251004.81, -8570.235, -0.00004067517, 0.0016128406, -169659.61, -82138.26, 0.0, 4.9908137, 4.9394813 
4.633723e+2, 2.9600984e+2, -124175.664, -200860.7, -7878.9604, 0.000008548553, -0.0001347967, -123374.51, -84270.71, 0.0, 4.989253, 4.9403114 
4.6334606e+2, 3.009578e+2, -85516.6, -135804.39, -5599.9883, 0.000027903863, 0.0026210258, -84900.54, -84900.54, 0.0, 4.9876995, 4.9554453 
4.6332237e+2, 3.0591422e+2, -87908.2, -133511.6, -4700.9556, 0.0000003342235, -0.0052557783, -87428.66, -87428.66, 0.0, 4.98619, 4.956917 
4.6330005e+2, 3.108888e+2, -51018.9, -40123.516, -2014.3715, -0.000022537317, 0.0037624233, -39763.02, -39763.02, 0.0, 4.984697, 4.9917097 
4.632811e+2, 3.158822e+2, -52360.332, -35838.367, -811.1044, -0.00008720478, -0.0002791365, -35798.645, -35798.645, 0.0, 4.9832654, 4.993903 
4.696453e+2, 1.22451e+2, -1631860.9, -1740861.4, 796.3432, 0.007154128, -0.008260468, -1631855.1, 108125.47, 0.0, 5.0475616, 4.9762115 
4.6961978e+2, 1.274261e+2, -1591625.6, -1701811.3, -4181.5234, -0.0011281059, -0.005100157, -1591467.3, 99757.27, 0.0, 5.045862, 4.973835 
4.6959424e+2, 1.3240042e+2, -1548039.5, -1656556.4, -5491.1646, 0.0015299688, 0.005306742, -1547762.3, 94713.86, 0.0, 5.0443006, 4.97334 
4.6956772e+2, 1.3737346e+2, -1504209.1, -1611462.1, -5743.1035, -0.00018702456, -0.0007738591, -1503902.4, 89837.914, 0.0, 5.0428805, 4.972787 
4.6953946e+2, 1.4234558e+2, -1461846.3, -1569200.0, -8793.375, 0.00010236929, 0.00010859935, -1461130.8, 83882.92, 0.0, 5.0413957, 4.9712954 
4.6950924e+2, 1.473171e+2, -1418364.3, -1524156.9, -9162.589, 0.0004386055, -0.0007245186, -1417576.6, 78716.24, 0.0, 5.0398145, 4.9707837 
4.6947736e+2, 1.5228753e+2, -1375906.5, -1481267.9, -11692.967, 0.00024293069, 0.00172771, -1374624.5, 72958.21, 0.0, 5.0382175, 4.9695544 
4.6944392e+2, 1.5725712e+2, -1332455.0, -1436108.0, -12000.276, 0.00022537676, -0.0010075524, -1331083.9, 67796.586, 0.0, 5.0365815, 4.969083 
4.694091e+2, 1.622258e+2, -1290189.4, -1393509.6, -14147.024, 0.0002880114, 0.001475512, -1288287.3, 61900.156, 0.0, 5.034942, 4.967745 
4.6937296e+2, 1.6719365e+2, -1246651.6, -1348107.1, -14423.485, 0.00027100282, -0.0009368415, -1244641.0, 56861.445, 0.0, 5.0332766, 4.96734 
4.6933573e+2, 1.7216057e+2, -1204455.6, -1305604.4, -16205.732, 0.00017403485, 0.0013885988, -1201922.6, 50903.977, 0.0, 5.0316076, 4.9659486 
4.6929735e+2, 1.7712666e+2, -1160851.0, -1260004.9, -16445.775, 0.00011962792, -0.0010291638, -1158194.5, 45964.516, 0.0, 5.0299134, 4.9655957 
4.6925816e+2, 1.8209183e+2, -1118714.6, -1217598.0, -17871.691, 0.000024962921, 0.0014037503, -1115583.8, 39916.582, 0.0, 5.0282183, 4.964154 
4.6921802e+2, 1.8705612e+2, -1075043.5, -1171841.0, -18071.055, -0.00006289341, -0.0011199979, -1071779.9, 35070.258, 0.0, 5.026504, 4.9638352 
4.691773e+2, 1.9201954e+2, -1032950.75, -1129534.5, -19134.002, -0.0001479458, 0.0014835696, -1029298.3, 28910.492, 0.0, 5.0247903, 4.96233 
4.6913588e+2, 1.9698203e+2, -989161.8, -1083546.0, -19291.844, -0.00013110672, -0.0011472293, -985370.9, 24205.39, 0.0, 5.023063, 4.962067 
4.6909413e+2, 2.0194365e+2, -947104.7, -1041344.4, -19991.02, -0.0001747233, 0.0014874954, -943039.4, 17913.092, 0.0, 5.021334, 4.960501 
4.6905187e+2, 2.0690435e+2, -903235.5, -995212.7, -20113.95, -0.000111334, -0.0011065507, -899029.25, 13308.275, 0.0, 5.019596, 4.9602637 
4.690095e+2, 2.1186414e+2, -861187.25, -953076.0, -20440.959, -0.00017940695, 0.0016609657, -856845.25, 6886.264, 0.0, 5.0178566, 4.9586415 
4.6896693e+2, 2.16823e+2, -817213.5, -906784.06, -20527.273, -0.00019726175, -0.0011328603, -812733.3, 2401.5645, 0.0, 5.0161147, 4.9584317 
4.6892437e+2, 2.2178094e+2, -775163.56, -864730.4, -20486.959, -0.000282247, 0.0016835917, -770699.94, -4152.8687, 0.0, 5.014372, 4.956745 
4.688819e+2, 2.2673795e+2, -731053.5, -818243.0, -20525.035, -0.00027356698, -0.0011399065, -726463.44, -8494.935, 0.0, 5.0126333, 4.9565716 
4.6883968e+2, 2.3169397e+2, -689021.6, -776353.8, -20137.738, -0.00028220195, 0.0017155706, -684601.8, -15202.479, 0.0, 5.010894, 4.95479 
4.6879777e+2, 2.3664904e+2, -644750.7, -729632.25, -20115.893, -0.00018947016, -0.0013545896, -640224.8, -19385.018, 0.0, 5.009163, 4.9546647 
4.6875626e+2, 2.4160314e+2, -602734.06, -687934.1, -19390.94, -0.0001020508, 0.0020193486, -598528.4, -26238.746, 0.0, 5.007432, 4.952771 
4.6871537e+2, 2.465562e+2, -558248.94, -640889.6, -19294.738, -0.000088342116, -0.0014626301, -553966.06, -30216.572, 0.0, 5.005714, 4.9527225 
4.6867505e+2, 2.5150824e+2, -516363.1, -599671.9, -18237.941, -0.00007064363, 0.0018331005, -512545.4, -37325.93, 0.0, 5.0039973, 4.950619 
4.6863565e+2, 2.564593e+2, -471483.8, -551918.7, -18060.729, -0.000091025475, -0.0015232312, -467614.6, -40915.566, 0.0, 5.002297, 4.950781 
4.68597e+2, 2.6140925e+2, -429847.78, -511483.6, -16687.236, -0.000019383473, 0.001844052, -426568.47, -48378.81, 0.0, 5.000599, 4.948354 
4.6855947e+2, 2.663582e+2, -384472.53, -462814.78, -16409.828, 0.000006432055, -0.0015550533, -381174.16, -51484.383, 0.0, 4.9989223, 4.9487987 
4.6852288e+2, 2.7130592e+2, -343161.13, -423374.75, -14731.029, -0.000009373931, 0.0017287561, -340541.38, -59339.18, 0.0, 4.997248, 4.945964 
4.684878e+2, 2.762527e+2, -297275.47, -373790.44, -14339.796, -0.00005354523, -0.0018407037, -294676.3, -61952.54, 0.0, 4.9956045, 4.946689 
4.6845374e+2, 2.8119823e+2, -255891.94, -334511.22, -12356.887, -0.00006718489, 0.0021925478, -253995.5, -69738.23, 0.0, 4.993965, 4.94374 
4.6842152e+2, 2.8614292e+2, -209504.75, -284044.16, -11833.384, -0.00003329716, -0.0027515613, -207671.27, -71871.89, 0.0, 4.9923596, 4.944736 
4.683904e+2, 2.9108563e+2, -170383.16, -250341.7, -9579.078, -0.000023642378, 0.0015384611, -169251.6, -81890.836, 0.0, 4.9907594, 4.9397454 
4.6836144e+2, 2.960265e+2, -123990.01, -200161.44, -8889.732, -0.000038513335, -0.00022579127, -122966.27, -84025.766, 0.0, 4.9891953, 4.9405904 
4.683337e+2, 3.0097473e+2, -85317.984, -135047.61, -6583.579, -0.000036793797, 0.0025285345, -84461.164, -84461.164, 0.0, 4.987637, 4.955749 
4.6830848e+2, 3.0593148e+2, -87717.805, -132746.47, -5680.8003, -0.00007383644, -0.005284784, -87012.17, -87012.17, 0.0, 4.986122, 4.957226 
4.682847e+2, 3.1090635e+2, -50836.71, -39346.21, -2951.3008, -0.00015800458, 0.0037360336, -38632.508, -38632.508, 0.0, 4.984623, 4.992031 
4.682643e+2, 3.159001e+2, -52202.707, -35066.74, -1738.2633, -0.0002675087, -0.00034122745, -34892.188, -34892.188, 0.0, 4.9831815, 4.994227 
4.746908e+2, 1.2247471e+2, -1627979.3, -1740246.3, 2172.6584, -0.021542719, 0.023887934, -1627937.3, 111811.08, 0.0, 5.0491533, 4.9756365 
4.7466785e+2, 1.274461e+2, -1587360.9, -1700670.0, -3607.2903, 0.01280731, -0.0056378623, -1587246.1, 103782.45, 0.0, 5.047511, 4.9734073 
4.7463813e+2, 1.3242017e+2, -1543642.3, -1655033.8, -4904.522, -0.010491328, 0.00592962, -1543426.8, 98855.91, 0.0, 5.045926, 4.973054 
4.746113e+2, 1.3739285e+2, -1500233.6, -1610160.5, -5170.801, -0.0005040256, -0.00083500764, -1499990.9, 93559.5, 0.0, 5.0443673, 4.9724984 
4.745819e+2, 1.4236468e+2, -1458135.0, -1567906.3, -8286.311, 0.0041469834, -0.00001873208, -1457513.1, 87313.39, 0.0, 5.042766, 4.9710636 
4.7454965e+2, 1.4733596e+2, -1414930.6, -1523000.0, -8596.639, 0.0005592755, -0.0006788573, -1414251.0, 81856.77, 0.0, 5.041092, 4.9705544 
4.7451597e+2, 1.5230617e+2, -1372723.6, -1480251.6, -11113.909, -0.0011517453, 0.001773349, -1371587.0, 75812.98, 0.0, 5.039413, 4.9693203 
4.7448096e+2, 1.5727553e+2, -1329489.0, -1435205.6, -11412.8955, 0.00013457617, -0.001011188, -1328270.9, 70429.27, 0.0, 5.0377054, 4.9688473 
4.7444454e+2, 1.6224396e+2, -1287414.9, -1392663.3, -13573.252, 0.00073954306, 0.0014665634, -1285692.6, 64316.86, 0.0, 5.0359926, 4.9675283 
4.7440666e+2, 1.6721159e+2, -1244108.6, -1347371.8, -13840.582, 0.0003212844, -0.0009432811, -1242285.6, 59040.99, 0.0, 5.0342484, 4.967126 
4.7436768e+2, 1.721783e+2, -1202105.3, -1304900.9, -15635.96, 0.000049919858, 0.0013755135, -1199779.5, 52873.35, 0.0, 5.0325, 4.965764 
4.7432756e+2, 1.771442e+2, -1158741.4, -1259420.9, -15871.306, 0.00012748495, -0.0010403441, -1156298.6, 47688.44, 0.0, 5.0307245, 4.965411 
4.7428662e+2, 1.8210918e+2, -1116789.5, -1217026.0, -17305.963, 0.00009719696, 0.001392013, -1113885.8, 41444.414, 0.0, 5.0289493, 4.9640045 
4.742447e+2, 1.8707332e+2, -1073357.1, -1171385.0, -17499.975, -0.000046371835, -0.0011590031, -1070326.8, 36354.875, 0.0, 5.027153, 4.9636865 
4.7420222e+2, 1.9203658e+2, -1031456.3, -1129094.8, -18564.986, -0.00015213822, 0.0014341646, -1028045.5, 29996.102, 0.0, 5.0253572, 4.962216 
4.7415903e+2, 1.9699897e+2, -987906.4, -1083214.9, -18717.13, -0.00010116698, -0.0011804953, -984362.44, 25047.852, 0.0, 5.0235467, 4.9619565 
4.741155e+2, 2.0196047e+2, -946045.44, -1041032.8, -19415.992, -0.00013077546, 0.0014624221, -942230.0, 18557.482, 0.0, 5.0217347, 4.9604235 
4.7407147e+2, 2.0692112e+2, -902413.06, -995011.75, -19532.563, -0.00007702703, -0.0011251909, -898461.5, 13711.854, 0.0, 5.019914, 4.960187 
4.740273e+2, 2.1188083e+2, -860552.8, -952882.4, -19854.07, -0.00015387044, 0.0016423197, -856464.56, 7103.517, 0.0, 5.018092, 4.958601 
4.7398293e+2, 2.1683963e+2, -816812.25, -906696.3, -19930.02, -0.00016967514, -0.0011643112, -812591.4, 2380.4888, 0.0, 5.0162687, 4.9583926 
4.7393858e+2, 2.2179754e+2, -774959.44, -864662.1, -19881.59, -0.00024470693, 0.0016639937, -770750.44, -4366.042, 0.0, 5.014442, 4.9567385 
4.7389436e+2, 2.2675453e+2, -731091.06, -818283.75, -19913.04, -0.0002066867, -0.0010838569, -726758.56, -8952.675, 0.0, 5.012618, 4.9565663 
4.7385034e+2, 2.3171057e+2, -689255.1, -776404.56, -19513.393, -0.00021864763, 0.001793354, -685085.44, -15848.703, 0.0, 5.0107937, 4.9548197 
4.7380665e+2, 2.3666565e+2, -645215.44, -729783.0, -19481.582, -0.00017961246, -0.0013319077, -640943.4, -20266.324, 0.0, 5.0089793, 4.954697 
4.737634e+2, 2.4161978e+2, -603391.5, -688094.56, -18737.902, -0.00012346284, 0.0020147455, -599431.5, -27304.957, 0.0, 5.0071654, 4.9528375 
4.7372073e+2, 2.4657293e+2, -559136.8, -641146.6, -18635.695, -0.00010683712, -0.0014297736, -555100.7, -31514.998, 0.0, 5.005364, 4.952792 
4.7367868e+2, 2.51525e+2, -517451.5, -599946.1, -17558.926, -0.000082907136, 0.0018791929, -513869.63, -38814.65, 0.0, 5.0035615, 4.95072 
4.7363752e+2, 2.5647616e+2, -472811.03, -552291.56, -17376.563, -0.00006583436, -0.0014983087, -469178.1, -42644.453, 0.0, 5.001774, 4.950885 
4.735971e+2, 2.614262e+2, -431375.2, -511862.6, -15974.801, 0.000020977457, 0.0018369987, -428320.5, -50297.26, 0.0, 4.999988, 4.948493 
4.7355792e+2, 2.663753e+2, -386229.8, -463282.22, -15689.961, 0.000010533047, -0.0016074892, -383157.44, -53635.41, 0.0, 4.998226, 4.9489436 
4.735196e+2, 2.7132314e+2, -345120.22, -423851.22, -13979.396, -0.000019343086, 0.0016458133, -342711.72, -61678.74, 0.0, 4.9964647, 4.946142 
4.7348282e+2, 2.7627012e+2, -299471.66, -374354.94, -13582.255, -0.000041646046, -0.0019207977, -297084.25, -64531.37, 0.0, 4.9947314, 4.9468737 
4.7344708e+2, 2.8121585e+2, -258304.75, -335103.94, -11564.671, -0.000031848784, 0.0021178685, -256601.1, -72516.555, 0.0, 4.993002, 4.9439516 
4.734132e+2, 2.8616074e+2, -212155.14, -284724.72, -11035.774, 0.000025201241, -0.0028094626, -210514.03, -74889.43, 0.0, 4.9913063, 4.944953 
4.7338048e+2, 2.911037e+2, -173221.53, -250974.47, -8741.806, 0.000026238653, 0.0014784692, -172250.81, -85067.05, 0.0, 4.989615, 4.9400167 
4.7334993e+2, 2.960448e+2, -127054.53, -200851.78, -8044.3247, -0.000039953968, -0.00031847114, -126187.836, -87427.01, 0.0, 4.9879594, 4.9408774 
4.7332054e+2, 3.0099335e+2, -88591.8, -135764.9, -5717.782, -0.000034296754, 0.0024271172, -87908.65, -87908.65, 0.0, 4.9863105, 4.9560614 
4.7329378e+2, 3.059504e+2, -91245.08, -133562.23, -4806.9863, -0.000042701005, -0.0052889637, -90705.9, -90705.9, 0.0, 4.984702, 4.957543 
4.7326848e+2, 3.109256e+2, -54590.79, -40227.406, -2069.9153, -0.00014721937, 0.0037673516, -39935.063, -39935.063, 0.0, 4.9831066, 4.9923577 
4.732466e+2, 3.159196e+2, -56209.766, -36052.402, -852.9629, -0.00025368237, -0.0004598775, -36016.375, -36016.375, 0.0, 4.9815726, 4.9945545 
4.797418e+2, 1.2249348e+2, -1627230.9, -1738278.4, 337.7907, -0.0020140046, -0.004848913, -1627229.9, 112334.44, 0.0, 5.0490565, 4.9763327 
4.7971657e+2, 1.2746738e+2, -1587624.9, -1702009.9, -4164.8325, 0.025408758, -0.0041636457, -1587473.4, 103346.68, 0.0, 5.0476775, 4.9728885 
4.796829e+2, 1.3244078e+2, -1543340.4, -1655605.1, -5457.0386, -0.021700803, 0.0048336503, -1543075.8, 99005.016, 0.0, 5.046177, 4.9727473 
4.7965556e+2, 1.3741323e+2, -1500230.4, -1610887.0, -5788.1855, -0.0007019777, -0.00093042373, -1499928.4, 93422.19, 0.0, 5.0445185, 4.9721885 
4.7962493e+2, 1.4238486e+2, -1458157.0, -1568449.4, -9014.961, 0.00795257, 0.0004565316, -1457425.0, 87203.78, 0.0, 5.042866, 4.9708395 
4.7959065e+2, 1.4735588e+2, -1414952.1, -1523534.0, -9357.574, 0.0006379694, -0.00059546164, -1414151.6, 81761.04, 0.0, 5.0411897, 4.970334 
4.7955516e+2, 1.5232582e+2, -1372778.5, -1480851.5, -11923.053, -0.002482119, 0.0016365626, -1371478.8, 75728.52, 0.0, 5.039509, 4.9690795 
4.7951856e+2, 1.5729496e+2, -1329552.6, -1435813.4, -12241.3125, 0.00005298064, -0.0010085385, -1328160.6, 70349.125, 0.0, 5.037799, 4.968605 
4.7948048e+2, 1.6226317e+2, -1287456.5, -1393210.4, -14444.071, 0.0011670715, 0.0015412191, -1285519.1, 64302.063, 0.0, 5.0360823, 4.9673085 
4.7944078e+2, 1.6723058e+2, -1244166.0, -1347921.4, -14721.953, 0.000364015, -0.0009258863, -1242117.5, 59023.105, 0.0, 5.034331, 4.9669085 
4.7940004e+2, 1.7219707e+2, -1202140.1, -1305375.9, -16550.797, -0.000071989736, 0.0013639076, -1199551.6, 52917.32, 0.0, 5.032576, 4.965575 
4.7935817e+2, 1.7716278e+2, -1158796.6, -1259905.3, -16795.658, 0.00012960826, -0.0010284863, -1156079.6, 47725.3, 0.0, 5.030793, 4.9652224 
4.793154e+2, 1.821276e+2, -1116814.4, -1217414.4, -18256.15, 0.00016368424, 0.0014114449, -1113603.9, 41545.773, 0.0, 5.029011, 4.963852 
4.792717e+2, 1.8709159e+2, -1073402.0, -1171778.0, -18460.906, -0.000029065466, -0.00117733, -1070051.8, 36450.816, 0.0, 5.0272064, 4.9635363 
4.7922742e+2, 1.920547e+2, -1031475.75, -1129400.0, -19547.342, -0.00015110275, 0.0014059007, -1027717.94, 30146.023, 0.0, 5.025403, 4.9620986 
4.7918242e+2, 1.9701698e+2, -987941.1, -1083519.3, -19711.283, -0.00006010157, -0.0011777653, -984035.6, 25198.098, 0.0, 5.0235853, 4.9618425 
4.7913706e+2, 2.019784e+2, -946051.56, -1041245.8, -20428.545, -0.000078977886, 0.0014753622, -941852.8, 18759.037, 0.0, 5.021767, 4.960344 
4.7909123e+2, 2.0693895e+2, -902435.2, -995230.7, -20555.63, -0.000054081567, -0.0011280621, -898085.7, 13912.918, 0.0, 5.0199404, 4.9601083 
4.790452e+2, 2.1189861e+2, -860541.7, -953001.2, -20893.025, -0.0001404711, 0.0016301135, -856039.75, 7354.1665, 0.0, 5.0181127, 4.958559 
4.7899902e+2, 2.1685737e+2, -816816.06, -906817.8, -20980.04, -0.00014245171, -0.0011719108, -812165.75, 2632.2732, 0.0, 5.0162826, 4.958353 
4.7895288e+2, 2.2181526e+2, -774938.2, -864702.6, -20945.645, -0.00020275386, 0.001686513, -770291.3, -4080.5503, 0.0, 5.0144506, 4.956729 
4.789068e+2, 2.2677225e+2, -731081.1, -818326.8, -20986.225, -0.00013024613, -0.00097464805, -726295.56, -8663.191, 0.0, 5.0126224, 4.9565578 
4.7886097e+2, 2.3172829e+2, -689210.6, -776348.25, -20592.89, -0.0001503242, 0.0019214216, -684589.1, -15525.979, 0.0, 5.010793, 4.954848 
4.7881547e+2, 2.366834e+2, -645180.6, -729724.56, -20570.707, -0.00019118769, -0.001288014, -640441.2, -19938.037, 0.0, 5.0089746, 4.954728 
4.7877038e+2, 2.4163757e+2, -603329.2, -687948.9, -19829.488, -0.00017736829, 0.0020218445, -598912.9, -26960.662, 0.0, 5.007155, 4.952901 
4.787259e+2, 2.4659078e+2, -559084.75, -640998.56, -19738.936, -0.00013392094, -0.0013496266, -554576.3, -31165.662, 0.0, 5.0053487, 4.9528584 
4.7868207e+2, 2.5154296e+2, -517373.0, -599713.25, -18662.424, -0.00008793454, 0.0019909884, -513340.63, -38461.527, 0.0, 5.003542, 4.950818 
4.7863913e+2, 2.5649422e+2, -472737.6, -552053.3, -18490.904, -0.000038308182, -0.0014460745, -468638.63, -42281.78, 0.0, 5.001751, 4.9509864 
4.7859696e+2, 2.6144436e+2, -431267.88, -511525.88, -17080.594, 0.00005225658, 0.0018283952, -427784.0, -49938.668, 0.0, 4.9999614, 4.948631 
4.78556e+2, 2.663936e+2, -386127.66, -462936.22, -16806.953, -0.000009952536, -0.0016547514, -382611.03, -53268.336, 0.0, 4.9981956, 4.9490867 
4.7851592e+2, 2.7134162e+2, -344990.7, -423418.03, -15086.642, -0.00005323194, 0.001576985, -342188.66, -61336.527, 0.0, 4.99643, 4.9463177 
4.7847742e+2, 2.7628872e+2, -299346.2, -373911.13, -14697.643, -0.000026918668, -0.001970161, -296553.7, -64183.48, 0.0, 4.9946933, 4.947055 
4.7844e+2, 2.8123468e+2, -258158.08, -334588.2, -12662.796, 0.000017806844, 0.002090454, -256114.75, -72214.76, 0.0, 4.9929595, 4.9441595 
4.7840443e+2, 2.8617978e+2, -212011.47, -284199.06, -12139.833, 0.00008005566, -0.0028186543, -210024.6, -74586.625, 0.0, 4.9912615, 4.945166 
4.7836998e+2, 2.9112294e+2, -173021.73, -250296.44, -9825.205, 0.000060647206, 0.0014628547, -171792.06, -84797.22, 0.0, 4.989566, 4.9402843 
4.7833776e+2, 2.9606435e+2, -126848.43, -200136.72, -9130.487, -0.000049303406, -0.00037588103, -125728.05, -87158.87, 0.0, 4.987907, 4.9411607 
4.783068e+2, 3.0101317e+2, -88373.88, -134994.45, -6778.159, -0.00003395683, 0.0023581693, -87408.4, -87408.4, 0.0, 4.986253, 4.9563684 
4.7827843e+2, 3.0597058e+2, -91034.98, -132786.08, -5866.225, -0.000003216638, -0.005246361, -90226.41, -90226.41, 0.0, 4.98464, 4.957854 
4.7825152e+2, 3.1094608e+2, -54394.91, -39457.098, -3088.8472, -0.00012222116, 0.0038635016, -38843.582, -38843.582, 0.0, 4.983039, 4.9926744 
4.7822815e+2, 3.159404e+2, -56038.29, -35290.45, -1861.7223, -0.00026541657, -0.00056647044, -35124.72, -35124.72, 0.0, 4.981496, 4.994872 
4.847913e+2, 1.22517146e+2, -1623460.8, -1737187.3, 835.1963, -0.00408048, -0.008361846, -1623454.6, 115877.78, 0.0, 5.050498, 4.9759874 
4.847651e+2, 1.274916e+2, -1583300.8, -1700961.9, -2877.0105, 0.025744, 0.0029139358, -1583230.4, 107352.4, 0.0, 5.0493746, 4.9724064 
4.847299e+2, 1.3246323e+2, -1538773.6, -1654233.4, -4612.553, -0.022257015, -0.0012838092, -1538589.6, 103271.164, 0.0, 5.047911, 4.9723587 
4.8470083e+2, 1.3743587e+2, -1496293.5, -1609850.9, -5018.794, -0.00065780577, -0.0011217317, -1496072.1, 97056.73, 0.0, 5.046046, 4.9717927 
4.8466846e+2, 1.4240737e+2, -1454465.1, -1567255.5, -8232.999, 0.008132025, 0.0025766646, -1453867.4, 90540.76, 0.0, 5.04425, 4.970568 
4.846324e+2, 1.4737792e+2, -1411489.3, -1522450.9, -8605.043, 0.00055010436, -0.0005082996, -1410825.9, 84870.85, 0.0, 5.0424967, 4.970066 
4.8459515e+2, 1.523475e+2, -1369530.5, -1479870.6, -11213.481, -0.002639302, 0.00090181263, -1368402.4, 78592.44, 0.0, 5.0407414, 4.968816 
4.8455682e+2, 1.5731642e+2, -1326530.4, -1434950.8, -11546.035, 0.00000846597, -0.0010547878, -1325314.5, 72984.88, 0.0, 5.0389566, 4.96834 
4.8451698e+2, 1.622844e+2, -1284598.3, -1392333.5, -13786.447, 0.0011666957, 0.0017775752, -1282862.0, 66751.01, 0.0, 5.0371633, 4.9670877 
4.8447546e+2, 1.6725156e+2, -1241544.5, -1347158.5, -14063.614, 0.0003381406, -0.0009184514, -1239703.8, 61231.137, 0.0, 5.0353317, 4.9666896 
4.844329e+2, 1.7221783e+2, -1199709.5, -1304640.4, -15912.058, -0.00010816987, 0.0012692765, -1197349.6, 54915.813, 0.0, 5.0334973, 4.9653873 
4.8438922e+2, 1.7718334e+2, -1156605.6, -1259286.9, -16153.102, 0.00010659232, -0.0010542051, -1154124.4, 49478.883, 0.0, 5.031633, 4.9650354 
4.8434463e+2, 1.82148e+2, -1114814.4, -1216811.0, -17624.098, 0.00017418867, 0.0014220114, -1111855.0, 43094.797, 0.0, 5.0297685, 4.963701 
4.8429906e+2, 1.8711181e+2, -1071644.4, -1171285.4, -17823.025, 0.000007752983, -0.001192563, -1068552.4, 37752.008, 0.0, 5.02788, 4.9633884 
4.8425293e+2, 1.920748e+2, -1029914.1, -1128928.4, -18910.277, -0.000103320446, 0.0013774805, -1026425.5, 31241.629, 0.0, 5.0259933, 4.9619846 
4.8420608e+2, 1.9703694e+2, -986620.25, -1083158.8, -19066.857, -0.000017672375, -0.0011997374, -982990.9, 26047.143, 0.0, 5.0240917, 4.961731 
4.8415884e+2, 2.0199826e+2, -944920.5, -1040894.44, -19780.537, -0.00004552969, 0.001447141, -941003.5, 19413.73, 0.0, 5.022191, 4.9602685 
4.8411113e+2, 2.0695871e+2, -901542.94, -994992.75, -19898.07, -0.000028951148, -0.0011844278, -897482.5, 14322.295, 0.0, 5.020282, 4.9600334 
4.8406327e+2, 2.1191832e+2, -859847.75, -952780.9, -20230.154, -0.000099422636, 0.00158579, -855634.94, 7565.845, 0.0, 5.018369, 4.958518 
4.840152e+2, 2.1687703e+2, -816366.1, -906710.75, -20308.992, -0.000054406893, -0.0011509707, -812010.75, 2594.638, 0.0, 5.016454, 4.9583125 
4.8396716e+2, 2.2183488e+2, -774686.0, -864609.2, -20265.207, -0.000099380624, 0.0017190967, -770330.0, -4311.542, 0.0, 5.014537, 4.956723 
4.8391923e+2, 2.2679184e+2, -731066.9, -818341.0, -20293.31, -0.00006469477, -0.0009869119, -726579.0, -9138.696, 0.0, 5.0126247, 4.9565535 
4.8387152e+2, 2.317479e+2, -689392.3, -776371.75, -19884.7, -0.00011233021, 0.0018828561, -685062.0, -16190.917, 0.0, 5.0107102, 4.954879 
4.8382413e+2, 2.3670302e+2, -645603.44, -729852.5, -19852.248, -0.00016419859, -0.0013164945, -641159.9, -20849.049, 0.0, 5.0088053, 4.9547615 
4.8377723e+2, 2.4165723e+2, -603960.8, -688100.8, -19093.238, -0.00015359327, 0.0020041328, -599830.9, -28071.326, 0.0, 5.006898, 4.9529653 
4.8373088e+2, 2.4661049e+2, -559963.25, -641256.1, -18996.53, -0.00009288476, -0.0013381353, -555743.2, -32525.74, 0.0, 5.005003, 4.9529257 
4.8368523e+2, 2.5156277e+2, -518456.25, -599980.4, -17896.94, -0.00005353874, 0.001994253, -514700.38, -40015.168, 0.0, 5.003107, 4.9509206 
4.836404e+2, 2.565141e+2, -474052.34, -552413.56, -17715.906, -0.0000456692, -0.001511647, -470233.25, -44071.17, 0.0, 5.001231, 4.9510937 
4.8359644e+2, 2.6146436e+2, -432786.88, -511902.84, -16277.94, 0.00002067256, 0.0017369813, -429568.63, -51919.137, 0.0, 4.9993544, 4.948769 
4.8355365e+2, 2.6641372e+2, -387889.16, -463410.06, -16001.767, -0.000021520222, -0.0016736434, -384638.53, -55493.004, 0.0, 4.997499, 4.949229 
4.835118e+2, 2.713619e+2, -346962.6, -423902.78, -14253.93, -0.000038195994, 0.0015980732, -344406.8, -63753.277, 0.0, 4.9956427, 4.9464946 
4.8347148e+2, 2.7630916e+2, -301560.25, -374485.72, -13860.413, -0.000009613552, -0.0019790756, -299014.75, -66844.74, 0.0, 4.993815, 4.947238 
4.834323e+2, 2.8125528e+2, -260591.23, -335187.5, -11789.67, 0.00002882825, 0.0020714959, -258772.28, -75074.266, 0.0, 4.9919896, 4.9443717 
4.8339498e+2, 2.8620058e+2, -214682.0, -284885.1, -11260.839, 0.00008561655, -0.00280713, -212919.95, -77686.01, 0.0, 4.990201, 4.945384 
4.8335886e+2, 2.91144e+2, -175879.94, -250924.52, -8908.519, 0.00005818562, 0.0014742805, -174836.9, -88048.33, 0.0, 4.9884124, 4.9405613 
4.8332492e+2, 2.960857e+2, -129947.11, -200827.28, -8205.8545, -0.000033235592, -0.00040920184, -129009.516, -90649.3, 0.0, 4.986657, 4.9414535 
4.8329228e+2, 3.0103478e+2, -91693.266, -135714.5, -5832.4907, 0.00002283898, 0.0023005144, -90933.61, -90933.61, 0.0, 4.9849076, 4.9566875 
4.8326224e+2, 3.0599248e+2, -94611.27, -133606.48, -4911.4673, 0.00007118237, -0.005237536, -94002.19, -94002.19, 0.0, 4.983201, 4.9581776 
4.832337e+2, 3.109683e+2, -58207.6, -40359.996, -2127.428, -0.000044274133, 0.003893751, -40109.91, -40109.91, 0.0, 4.9815025, 4.993002 
4.8320875e+2, 3.159629e+2, -60105.65, -36303.465, -892.6507, -0.00015281183, -0.0007991187, -36270.035, -36270.035, 0.0, 4.9798675, 4.9951982 
4.8984125e+2, 1.22543275e+2, -1623567.6, -1738702.4, -223.95091, -0.009386041, 0.0015596253, -1623567.1, 115509.125, 0.0, 5.0507727, 4.975358 
4.8981422e+2, 1.27517e+2, -1583456.8, -1702108.3, -3268.1592, 0.023732541, 0.010299977, -1583366.8, 106967.01, 0.0, 5.049547, 4.971948 
4.8977786e+2, 1.324868e+2, -1538967.4, -1655281.3, -5454.2295, -0.020618485, -0.007887966, -1538712.1, 102917.56, 0.0, 5.0480437, 4.971953 
4.8974684e+2, 1.3745968e+2, -1496420.0, -1610887.1, -5848.727, -0.000566268, -0.0012467635, -1496121.9, 96773.6, 0.0, 5.0462055, 4.971377 
4.8971257e+2, 1.4243108e+2, -1454398.8, -1567928.1, -8991.36, 0.0075448076, 0.0049029663, -1453691.1, 90484.78, 0.0, 5.044416, 4.97027 
4.896748e+2, 1.474011e+2, -1411467.0, -1523140.0, -9396.164, 0.0004436278, -0.00042242045, -1410681.9, 84787.71, 0.0, 5.042646, 4.9697704 
4.8963577e+2, 1.523703e+2, -1369529.9, -1480534.4, -12051.0205, -0.0025184734, 0.00010833106, -1368236.6, 78534.85, 0.0, 5.0408745, 4.968537 
4.8959565e+2, 1.5733902e+2, -1326580.3, -1435640.1, -12396.564, -0.000020855914, -0.0010796443, -1325188.9, 72889.07, 0.0, 5.0390725, 4.9680605 
4.8955396e+2, 1.6230677e+2, -1284613.4, -1392892.4, -14683.59, 0.0010682784, 0.0020600723, -1282657.4, 66736.44, 0.0, 5.0372663, 4.9668584 
4.8951066e+2, 1.6727367e+2, -1241584.9, -1347725.1, -14974.076, 0.0002991189, -0.0008908368, -1239512.8, 61205.473, 0.0, 5.035424, 4.966462 
4.8946622e+2, 1.7223974e+2, -1199728.4, -1305121.4, -16859.201, -0.000119556214, 0.0011882928, -1197097.1, 54953.75, 0.0, 5.033581, 4.9651933 
4.8942065e+2, 1.7720504e+2, -1156651.0, -1259778.1, -17111.281, 0.00007954272, -0.0010565353, -1153886.0, 49504.715, 0.0, 5.0317063, 4.964843 
4.8937422e+2, 1.8216953e+2, -1114831.5, -1217205.3, -18611.107, 0.00017094078, 0.0014615527, -1111553.1, 43185.723, 0.0, 5.029834, 4.963545 
4.8932678e+2, 1.871332e+2, -1071677.3, -1171677.4, -18822.621, 0.000046208188, -0.0011736349, -1068251.6, 37843.223, 0.0, 5.0279374, 4.9632373 
4.892787e+2, 1.9209604e+2, -1029920.06, -1129231.0, -19932.447, -0.000050021885, 0.0013837042, -1026068.8, 31390.188, 0.0, 5.026044, 4.961867 
4.8922998e+2, 1.9705807e+2, -986643.56, -1083464.3, -20101.66, 0.000014803718, -0.001195015, -982636.0, 26195.104, 0.0, 5.024135, 4.961616 
4.891808e+2, 2.0201927e+2, -944911.75, -1041098.75, -20834.473, -0.000029486726, 0.0014428889, -940592.9, 19618.367, 0.0, 5.022227, 4.9601912 
4.891312e+2, 2.0697966e+2, -901554.0, -995206.25, -20965.611, -0.000014149905, -0.0012188538, -897074.75, 14524.836, 0.0, 5.0203104, 4.959956 
4.890814e+2, 2.119392e+2, -859831.44, -952906.2, -21316.715, -0.00006417335, 0.0015723421, -855181.6, 7814.4946, 0.0, 5.018392, 4.9584737 
4.8903146e+2, 2.1689788e+2, -816363.8, -906841.5, -21406.78, 0.000032434138, -0.0010837017, -811554.7, 2846.473, 0.0, 5.016472, 4.958269 
4.8898152e+2, 2.218557e+2, -774649.75, -864641.7, -21376.576, 0.0000049817017, 0.0017875964, -769830.1, -4015.62, 0.0, 5.0145497, 4.9567156 
4.8893163e+2, 2.2681265e+2, -731043.25, -818376.4, -21415.137, -0.000020954258, -0.0010071588, -726074.7, -8838.262, 0.0, 5.0126324, 4.9565473 
4.88882e+2, 2.317687e+2, -689338.3, -776313.94, -21016.734, -0.0000994147, 0.0018232801, -684526.06, -15858.922, 0.0, 5.0107126, 4.954907 
4.8883274e+2, 2.3672386e+2, -645561.1, -729794.1, -20996.873, -0.00013488339, -0.001331128, -640617.4, -20510.822, 0.0, 5.0088024, 4.9547925 
4.887839e+2, 2.4167812e+2, -603893.56, -687962.2, -20244.15, -0.000115203045, 0.0020167069, -599272.6, -27717.89, 0.0, 5.0068903, 4.9530263 
4.887357e+2, 2.4663146e+2, -559902.8, -641115.4, -20159.814, -0.000043221396, -0.001318808, -555173.8, -32161.701, 0.0, 5.004992, 4.952989 
4.8868814e+2, 2.5158378e+2, -518360.63, -599739.2, -19058.738, -0.000022235681, 0.0019851695, -514118.25, -39639.14, 0.0, 5.003092, 4.9510202 
4.8864144e+2, 2.5653523e+2, -473962.1, -552164.44, -18890.574, -0.0000862864, -0.0015894852, -469638.0, -43683.03, 0.0, 5.0012126, 4.951198 
4.885956e+2, 2.614856e+2, -432673.13, -511576.03, -17449.64, -0.00005757348, 0.0016520714, -428986.34, -51545.14, 0.0, 4.9993315, 4.9489026 
4.8855096e+2, 2.6643512e+2, -387782.66, -463079.03, -17186.463, -0.00005021661, -0.0016400096, -384045.34, -55109.5, 0.0, 4.9974723, 4.949366 
4.885073e+2, 2.7138343e+2, -346825.0, -423477.75, -15429.948, -0.000025168836, 0.0016975699, -343835.6, -63393.266, 0.0, 4.9956117, 4.9466662 
4.884652e+2, 2.763309e+2, -301423.34, -374047.16, -15045.578, -0.000018189954, -0.0019320968, -298429.72, -66472.586, 0.0, 4.993781, 4.947416 
4.8842412e+2, 2.8127718e+2, -260429.55, -334670.2, -12956.958, -0.00001000151, 0.0020944965, -258233.19, -74749.87, 0.0, 4.9919524, 4.944578 
4.8838505e+2, 2.8622273e+2, -214524.58, -284357.5, -12435.454, 0.00003534761, -0.0027464135, -212376.23, -77359.11, 0.0, 4.9901605, 4.945596 
4.8834714e+2, 2.911664e+2, -175661.66, -250232.52, -10068.143, 0.000005498432, 0.0015383601, -174326.22, -87756.77, 0.0, 4.988368, 4.9408326 
4.8831147e+2, 2.961083e+2, -129719.75, -200095.95, -9370.577, -0.00003421882, -0.00039274755, -128493.43, -90355.086, 0.0, 4.98661, 4.941741 
4.8827708e+2, 3.0105773e+2, -91450.27, -134922.13, -6970.998, 0.00007297581, 0.0022835783, -90359.78, -90359.78, 0.0, 4.984856, 4.9570007 
4.8824537e+2, 3.060158e+2, -94373.984, -132806.8, -6052.0713, 0.00011306045, -0.005212197, -93443.484, -93443.484, 0.0, 4.983145, 4.9584947 
4.8821515e+2, 3.1099188e+2, -57990.27, -39581.355, -3230.5454, -0.000005193381, 0.0039292993, -39030.895, -39030.895, 0.0, 4.981442, 4.9933195 
4.8818856e+2, 3.1598678e+2, -59917.79, -35542.566, -1985.5498, -0.000116810224, -0.0010493924, -35381.887, -35381.887, 0.0, 4.9797974, 4.995513 
4.94893e+2, 1.2256981e+2, -1618614.6, -1737483.0, 229.83215, -0.009482089, -0.003349048, -1618614.3, 120202.07, 0.0, 5.052714, 4.974812 
4.9486446e+2, 1.2754403e+2, -1578680.1, -1700288.5, -2240.4133, 0.022322511, 0.013022365, -1578638.9, 111430.0, 0.0, 5.051281, 4.971703 
4.9482676e+2, 1.3251302e+2, -1534673.0, -1653880.1, -4699.0557, -0.019640291, -0.01040444, -1534488.1, 106884.695, 0.0, 5.049653, 4.9716353 
4.9479377e+2, 1.3748579e+2, -1492281.3, -1609596.6, -5060.588, -0.0004813215, -0.0012868912, -1492063.3, 100576.25, 0.0, 5.0477695, 4.971048 
4.947576e+2, 1.4245692e+2, -1450484.5, -1566799.4, -8170.443, 0.007153453, 0.005801796, -1449913.4, 94009.086, 0.0, 5.045914, 4.9699225 
4.9471804e+2, 1.474265e+2, -1407838.0, -1522161.1, -8609.39, 0.00033273725, -0.00041493686, -1407193.3, 88027.39, 0.0, 5.0440497, 4.9694214 
4.9467722e+2, 1.5239532e+2, -1366082.3, -1479502.9, -11305.121, -0.0024685194, -0.00023910709, -1364966.4, 81559.69, 0.0, 5.042186, 4.968252 
4.946352e+2, 1.5736379e+2, -1323416.6, -1434752.1, -11653.708, -0.00006059274, -0.0011137438, -1322209.9, 75625.39, 0.0, 5.040289, 4.9677763 
4.9459165e+2, 1.6233128e+2, -1281642.0, -1391986.6, -13963.905, 0.0009735098, 0.0021512676, -1279902.4, 69251.36, 0.0, 5.0383925, 4.9666257 
4.945464e+2, 1.6729793e+2, -1238866.6, -1346943.4, -14254.057, 0.00023011415, -0.0009043656, -1237018.3, 63462.344, 0.0, 5.0364647, 4.9662313 
4.945001e+2, 1.7226374e+2, -1197202.6, -1304344.0, -16158.792, -0.00016440936, 0.0011309489, -1194818.6, 56996.805, 0.0, 5.034536, 4.9650035 
4.9445263e+2, 1.7722888e+2, -1154379.3, -1259122.9, -16404.623, 0.00004724455, -0.001065941, -1151870.1, 51287.0, 0.0, 5.0325747, 4.964655 
4.9440423e+2, 1.8219317e+2, -1112758.3, -1216569.8, -17910.135, 0.00016332578, 0.0014754154, -1109755.3, 44751.906, 0.0, 5.030617, 4.9633927 
4.9435484e+2, 1.8715666e+2, -1069845.9, -1171150.6, -18113.607, 0.00006010065, -0.0011781355, -1066704.5, 39160.31, 0.0, 5.0286365, 4.963089 
4.9430487e+2, 1.9211937e+2, -1028284.7, -1128721.6, -19223.531, -0.000023835568, 0.0013682325, -1024731.06, 32499.307, 0.0, 5.026659, 4.961754 
4.9425414e+2, 1.9708127e+2, -985252.3, -1083068.9, -19383.94, 0.00003159767, -0.0012248975, -981551.06, 27052.578, 0.0, 5.0246654, 4.961505 
4.9420306e+2, 2.0204237e+2, -943716.44, -1040714.6, -20111.293, -0.000009731241, 0.0014231206, -939712.0, 20272.883, 0.0, 5.0226727, 4.960117 
4.941515e+2, 2.0700267e+2, -900608.5, -994944.3, -20233.277, 0.00003092149, -0.001215694, -896451.94, 14922.078, 0.0, 5.0206704, 4.959881 
4.9409974e+2, 2.1196213e+2, -859082.2, -952655.06, -20576.646, -0.0000028408547, 0.0015761682, -854757.25, 8014.0327, 0.0, 5.0186667, 4.9584346 
4.940478e+2, 2.1692076e+2, -815857.6, -906704.6, -20653.363, 0.00008702434, -0.0011118783, -811382.6, 2794.2346, 0.0, 5.0166616, 4.95823 
4.9399588e+2, 2.2187854e+2, -774339.6, -864513.75, -20611.197, 0.000065013985, 0.0017348437, -769851.8, -4261.227, 0.0, 5.0146546, 4.9567127 
4.9394402e+2, 2.2683547e+2, -730978.4, -818359.94, -20636.096, 0.00004287444, -0.001060603, -726350.1, -9337.45, 0.0, 5.012651, 4.956546 
4.9389246e+2, 2.3179154e+2, -689483.2, -776322.75, -20223.889, -0.00002418729, 0.0017825746, -685004.3, -16560.918, 0.0, 5.0106435, 4.9549365 
4.9384123e+2, 2.367467e+2, -645957.1, -729914.2, -20195.37, -0.000051092768, -0.001318263, -641351.9, -21469.29, 0.0, 5.0086436, 4.954824 
4.9379045e+2, 2.41701e+2, -604497.25, -688097.1, -19422.615, -0.000054914883, 0.0020346253, -600205.2, -28874.695, 0.0, 5.0066423, 4.953092 
4.937403e+2, 2.4665439e+2, -560744.6, -641350.6, -19326.732, -0.00004695492, -0.0013767508, -556350.25, -33562.906, 0.0, 5.0046577, 4.9530582 
4.9369076e+2, 2.516068e+2, -519409.44, -599992.7, -18200.889, -0.000059515787, 0.0018938108, -515489.22, -41235.492, 0.0, 5.00267, 4.951122 
4.9364218e+2, 2.5655833e+2, -475255.22, -552519.1, -18027.375, -0.00010532884, -0.0016038246, -471256.03, -45527.406, 0.0, 5.0007014, 4.9513025 
4.935944e+2, 2.615088e+2, -434181.53, -511952.3, -16562.814, -0.00007205382, 0.0016892203, -430801.1, -53587.26, 0.0, 4.998729, 4.949039 
4.935479e+2, 2.6645842e+2, -389539.84, -463554.75, -16294.45, -0.0000629554, -0.0016044603, -386111.4, -57404.125, 0.0, 4.9967785, 4.9495063 
4.9350232e+2, 2.714069e+2, -348791.47, -423955.03, -14504.729, -0.00002852625, 0.0017127566, -346089.53, -65877.11, 0.0, 4.994826, 4.9468446 
4.934583e+2, 2.7635452e+2, -303628.3, -374610.3, -14110.662, -0.000046032783, -0.0019697705, -300926.1, -69200.51, 0.0, 4.9929056, 4.9476013 
4.9341542e+2, 2.81301e+2, -262860.84, -335264.97, -11984.121, -0.000057030134, 0.0020371235, -260928.83, -77678.81, 0.0, 4.990983, 4.944792 
4.9337447e+2, 2.8624675e+2, -217212.4, -285049.5, -11457.252, 0.000023070494, -0.0027589637, -215329.61, -80547.805, 0.0, 4.9890947, 4.9458146 
4.9333477e+2, 2.9119062e+2, -178544.97, -250857.84, -9053.178, 0.00001777714, 0.001535842, -177428.78, -91096.89, 0.0, 4.987204, 4.9411144 
4.932973e+2, 2.9613283e+2, -132844.14, -200781.89, -8347.145, -0.000013690615, -0.00043559112, -131833.61, -93935.54, 0.0, 4.985349, 4.9420404 
4.932611e+2, 3.0108255e+2, -94798.3, -135638.9, -5926.757, 0.00009710969, 0.0022059623, -93955.6, -93955.6, 0.0, 4.983499, 4.957326 
4.9322763e+2, 3.0604088e+2, -97982.266, -133626.9, -5002.385, 0.00013107604, -0.005258545, -97293.54, -97293.54, 0.0, 4.9816933, 4.9588237 
4.931957e+2, 3.1101733e+2, -61842.42, -40497.95, -2181.1643, 0.000055547258, 0.003945076, -40277.34, -40277.34, 0.0, 4.9798923, 4.993647 
4.9316746e+2, 3.1601253e+2, -64038.684, -36584.21, -933.64233, 0.0000621767, -0.0011434486, -36552.496, -36552.496, 0.0, 4.9781528, 4.9958353 
4.9994612e+2, 1.2259789e+2, -1618806.9, -1738870.0, -692.31116, -0.00515682, -0.003953853, -1618802.9, 119738.3, 0.0, 5.0529222, 4.974258 
4.999155e+2, 1.2757209e+2, -1578565.1, -1700756.1, -2797.5305, 0.020909453, 0.014577323, -1578501.1, 111292.914, 0.0, 5.051427, 4.9714813 
4.998764e+2, 1.325405e+2, -1534758.3, -1654669.8, -5583.8955, -0.018634183, -0.011875099, -1534498.9, 106604.59, 0.0, 5.0497775, 4.9713187 
4.9984142e+2, 1.375131e+2, -1492316.8, -1610385.9, -5969.947, -0.00038039408, -0.0012726893, -1492015.6, 100356.3, 0.0, 5.047916, 4.970721 
4.9980333e+2, 1.4248393e+2, -1450541.3, -1567684.8, -9069.803, 0.0067714206, 0.0063513275, -1449843.3, 93814.63, 0.0, 5.04607, 4.9695597 
4.9976197e+2, 1.4745308e+2, -1407907.1, -1523057.1, -9489.026, 0.0002365881, -0.00040796012, -1407130.4, 87829.72, 0.0, 5.044202, 4.969056 
4.9971923e+2, 1.5242156e+2, -1366073.3, -1480200.9, -12205.501, -0.0024039585, -0.0004397404, -1364782.5, 81486.445, 0.0, 5.0423293, 4.9679575 
4.9967533e+2, 1.5738975e+2, -1323451.8, -1435472.1, -12563.198, -0.00009085228, -0.0011206305, -1322060.0, 75520.81, 0.0, 5.0404167, 4.9674816 
4.9962983e+2, 1.6235697e+2, -1281641.1, -1392567.1, -14904.542, 0.00088371703, 0.0022208174, -1279673.4, 69228.484, 0.0, 5.038506, 4.9663844 
4.995827e+2, 1.6732337e+2, -1238907.8, -1347542.4, -15203.116, 0.00016026608, -0.0008973034, -1236820.3, 63411.055, 0.0, 5.036563, 4.965991 
4.9953443e+2, 1.7228897e+2, -1197214.0, -1304830.0, -17143.139, -0.00021059893, 0.0011128061, -1194549.0, 57019.246, 0.0, 5.0346227, 4.964807 
4.99485e+2, 1.772539e+2, -1154412.3, -1259614.5, -17401.223, 0.000017217986, -0.0010429706, -1151608.6, 51303.24, 0.0, 5.032653, 4.9644604 
4.9943462e+2, 1.8221802e+2, -1112762.5, -1216965.0, -18934.115, 0.00015236679, 0.0015178419, -1109428.8, 44834.84, 0.0, 5.0306873, 4.963235 
4.9938327e+2, 1.8718137e+2, -1069869.3, -1171546.9, -19151.084, 0.00006468313, -0.0011529059, -1066381.8, 39241.063, 0.0, 5.028698, 4.962935 
4.993313e+2, 1.9214392e+2, -1028279.56, -1129021.0, -20284.854, -0.000008536334, 0.0013869955, -1024348.5, 32641.217, 0.0, 5.0267124, 4.9616365 
4.992786e+2, 1.971057e+2, -985267.3, -1083374.0, -20460.33, 0.000036384004, -0.0012255003, -981171.25, 27192.918, 0.0, 5.024711, 4.9613895 
4.992255e+2, 2.020667e+2, -943700.4, -1040920.3, -21209.14, -0.0000006783384, 0.0014396623, -939274.94, 20471.379, 0.0, 5.022711, 4.9600387 
4.991719e+2, 2.0702693e+2, -900613.06, -995163.94, -21345.514, 0.00006638753, -0.001160207, -896017.5, 15118.724, 0.0, 5.0207024, 4.9598007 
4.9911815e+2, 2.1198635e+2, -859052.1, -952772.4, -21707.77, 0.00004587292, 0.0016225354, -854268.3, 8265.835, 0.0, 5.018693, 4.9583926 
4.990642e+2, 2.1694492e+2, -815842.9, -906829.06, -21797.508, 0.00011213156, -0.0011345815, -810890.4, 3049.7678, 0.0, 5.0166826, 4.958188 
4.990103e+2, 2.2190267e+2, -774292.1, -864540.7, -21772.8, 0.00009221435, 0.0016846748, -769314.0, -3959.8318, 0.0, 5.01467, 4.956707 
4.9895644e+2, 2.268596e+2, -730945.1, -818391.0, -21811.813, 0.00009571123, -0.0010783115, -725806.5, -9030.319, 0.0, 5.0126605, 4.956541 
4.9890286e+2, 2.3181567e+2, -689424.44, -776273.6, -21414.238, 0.00005535919, 0.0017918405, -684431.44, -16224.658, 0.0, 5.0106483, 4.954962 
4.9884963e+2, 2.3677087e+2, -645907.25, -729866.25, -21398.926, 0.000033677123, -0.0012579962, -640767.8, -21122.113, 0.0, 5.0086446, 4.9548507 
4.9879685e+2, 2.417252e+2, -604413.06, -687951.25, -20630.848, -0.000004887352, 0.0020914534, -599595.8, -28502.547, 0.0, 5.0066395, 4.953154 
4.9874473e+2, 2.4667865e+2, -560667.8, -641199.94, -20549.314, -0.000087794106, -0.0014246538, -555727.3, -33177.82, 0.0, 5.0046506, 4.953124 
4.986932e+2, 2.5163114e+2, -519308.28, -599762.06, -19426.3, -0.00013795537, 0.0018119032, -514863.22, -40848.105, 0.0, 5.0026584, 4.951217 
4.9864268e+2, 2.5658277e+2, -475163.47, -552287.06, -19266.91, -0.00012839053, -0.001549341, -470618.1, -45129.156, 0.0, 5.000685, 4.9514008 
4.985929e+2, 2.6153335e+2, -434062.03, -511633.5, -17801.63, -0.000077480305, 0.0018178121, -430171.88, -53198.84, 0.0, 4.998709, 4.949169 
4.9854445e+2, 2.6648316e+2, -389423.03, -463227.53, -17546.873, -0.00009264273, -0.0015325018, -385463.72, -56998.45, 0.0, 4.9967556, 4.9496408 
4.9849695e+2, 2.7143174e+2, -348636.94, -423520.8, -15747.662, -0.00006451102, 0.00172495, -345460.06, -65491.08, 0.0, 4.9947996, 4.947018 
4.9845102e+2, 2.7637956e+2, -303475.53, -374160.53, -15365.623, -0.000106746076, -0.0020069098, -300279.8, -68799.414, 0.0, 4.9928756, 4.9477825 
4.9840623e+2, 2.8132623e+2, -262688.9, -334747.34, -13227.87, -0.00013382702, 0.001984406, -260337.38, -77334.46, 0.0, 4.990949, 4.944998 
4.9836344e+2, 2.8627217e+2, -217044.86, -284525.5, -12710.8125, 0.00000089844826, -0.0027680085, -214730.02, -80197.38, 0.0, 4.9890585, 4.9460244 
4.9832183e+2, 2.9121628e+2, -178308.02, -250153.36, -10293.097, 0.000033299402, 0.0015376577, -176862.44, -90782.02, 0.0, 4.9871645, 4.9413896 
4.982825e+2, 2.961588e+2, -132594.78, -200034.0, -9593.342, -0.000011593506, -0.0004721649, -131256.66, -93612.875, 0.0, 4.985307, 4.9423323 
4.982445e+2, 3.011088e+2, -94534.23, -134833.38, -7147.513, 0.00006858317, 0.0021331883, -93304.086, -93304.086, 0.0, 4.9834533, 4.957642 
4.9820924e+2, 3.0606744e+2, -97725.57, -132817.97, -6228.2314, 0.000086061176, -0.0053063463, -96652.96, -96652.96, 0.0, 4.9816437, 4.9591427 
4.981755e+2, 3.1104425e+2, -61610.45, -39722.953, -3372.518, 0.000049729737, 0.003988183, -39215.086, -39215.086, 0.0, 4.9798374, 4.9939613 
4.9814555e+2, 3.1603974e+2, -63840.242, -35838.426, -2116.7417, 0.00015215472, -0.0010871172, -35679.316, -35679.316, 0.0, 4.978089, 4.996143 
5.049999e+2, 1.226281e+2, -1614006.0, -1737774.8, -11.777511, -0.0061084293, -0.0058625126, -1614006.0, 124239.05, 0.0, 5.054825, 4.9736896 
5.049675e+2, 1.2760223e+2, -1573757.5, -1698887.4, -1805.6365, 0.018743275, 0.014633221, -1573731.4, 115767.0, 0.0, 5.053167, 4.9712496 
5.049271e+2, 1.3257034e+2, -1530408.9, -1653256.0, -4809.498, -0.016878322, -0.012137297, -1530220.9, 110590.195, 0.0, 5.0514107, 4.9709935 
5.048901e+2, 1.3754262e+2, -1488145.4, -1609090.1, -5211.965, -0.0002874186, -0.0012569301, -1487921.1, 104161.56, 0.0, 5.0494957, 4.9703856 
5.0485e+2, 1.4251311e+2, -1446509.5, -1566385.3, -8318.4, 0.0061178072, 0.006400662, -1445935.0, 97436.79, 0.0, 5.0475855, 4.96926 
5.0480676e+2, 1.4748193e+2, -1404118.6, -1521890.4, -8705.716, 0.00014408388, -0.00048174066, -1403478.6, 91198.79, 0.0, 5.0456386, 4.968754 
5.047621e+2, 1.524501e+2, -1362507.8, -1479110.4, -11441.163, -0.0022359693, -0.0005288512, -1361395.8, 84593.5, 0.0, 5.0436816, 4.967674 
5.047162e+2, 1.5741798e+2, -1320168.1, -1434527.6, -11794.243, -0.00011367822, -0.0011398117, -1318964.4, 78339.68, 0.0, 5.0416756, 4.967196 
5.046687e+2, 1.6238494e+2, -1278550.8, -1391594.4, -14147.204, 0.0007636524, 0.0022179154, -1276807.1, 71820.57, 0.0, 5.0396714, 4.9661555 
5.046196e+2, 1.673511e+2, -1236095.9, -1346709.5, -14435.198, 0.00009187747, -0.00092337903, -1234243.1, 65716.414, 0.0, 5.037635, 4.965762 
5.0456935e+2, 1.7231646e+2, -1194610.3, -1304013.5, -16380.548, -0.0002444986, 0.0010805748, -1192210.4, 59088.51, 0.0, 5.035605, 4.9646177 
5.045179e+2, 1.772812e+2, -1152062.3, -1258922.3, -16629.22, -0.000020737289, -0.0010450366, -1149534.3, 53110.184, 0.0, 5.0335484, 4.964272 
5.0446546e+2, 1.8224514e+2, -1110607.5, -1216284.5, -18164.86, 0.000120072735, 0.001520898, -1107572.3, 46425.652, 0.0, 5.0314984, 4.9630847 
5.044121e+2, 1.872083e+2, -1067963.5, -1170981.1, -18371.213, 0.000058944148, -0.0011610585, -1064785.4, 40573.484, 0.0, 5.0294223, 4.9627886 
5.0435805e+2, 1.9217071e+2, -1026575.94, -1128474.8, -19501.18, 0.0000054495117, 0.0013960854, -1022971.4, 33755.766, 0.0, 5.027351, 4.9615254 
5.0430334e+2, 1.9713238e+2, -983815.56, -1082949.3, -19666.375, 0.000051556188, -0.0012144868, -980056.6, 28046.209, 0.0, 5.0252624, 4.9612784 
5.0424814e+2, 2.0209327e+2, -942446.2, -1040503.25, -20408.164, 0.0000134240745, 0.0014446299, -938368.3, 21117.713, 0.0, 5.023176, 4.9599667 
5.0419253e+2, 2.070534e+2, -899610.06, -994871.75, -20532.012, 0.00006482478, -0.0011767343, -895373.2, 15503.7, 0.0, 5.0210814, 4.9597263 
5.0413674e+2, 2.1201272e+2, -858242.0, -952484.8, -20883.28, 0.000053341024, 0.0015910135, -853821.8, 8453.7, 0.0, 5.0189877, 4.9583564 
5.040807e+2, 2.1697125e+2, -815281.1, -906660.4, -20958.305, 0.0001369306, -0.0011858116, -810703.56, 2978.506, 0.0, 5.016891, 4.9581513 
5.0402474e+2, 2.2192897e+2, -773936.06, -864393.3, -20923.277, 0.00013982829, 0.0016411619, -769330.8, -4234.4453, 0.0, 5.014791, 4.9567027 
5.0396883e+2, 2.2688589e+2, -730841.94, -818360.2, -20951.193, 0.00015702099, -0.0010760782, -726084.94, -9566.358, 0.0, 5.0126934, 4.9565377 
5.039132e+2, 2.3184194e+2, -689526.9, -776258.7, -20537.977, 0.00012023528, 0.0017947272, -684909.3, -16960.088, 0.0, 5.010593, 4.954993 
5.038579e+2, 2.3679717e+2, -646252.44, -729958.7, -20508.838, 0.00006521508, -0.0013083409, -641497.6, -22109.541, 0.0, 5.008503, 4.9548836 
5.038031e+2, 2.4175152e+2, -604966.75, -688060.25, -19718.922, 0.0000065183112, 0.0020152284, -600524.75, -29689.375, 0.0, 5.006409, 4.953221 
5.0374895e+2, 2.4670501e+2, -561471.25, -641415.25, -19627.395, -0.000067505665, -0.0014676302, -556912.44, -34621.36, 0.0, 5.00433, 4.9531937 
5.036954e+2, 2.5165758e+2, -520332.03, -600005.94, -18481.768, -0.00010256043, 0.0017968441, -516253.63, -42497.633, 0.0, 5.0022454, 4.9513173 
5.036428e+2, 2.566093e+2, -476442.9, -552638.4, -18313.525, -0.00008224297, -0.0015335423, -472269.8, -47040.766, 0.0, 5.00018, 4.9515038 
5.035911e+2, 2.6156e+2, -435555.38, -511992.3, -16817.588, -0.000048745416, 0.0018295868, -432018.8, -55306.645, 0.0, 4.998111, 4.9493093 
5.0354064e+2, 2.665099e+2, -391158.63, -463680.38, -16550.596, -0.00010163707, -0.0015810635, -387560.1, -59356.9, 0.0, 4.9960675, 4.949786 
5.034911e+2, 2.7145863e+2, -350589.1, -423987.63, -14716.415, -0.00006226768, 0.0016557333, -347748.38, -68042.836, 0.0, 4.9940186, 4.9471974 
5.0344324e+2, 2.764066e+2, -305686.03, -374725.16, -14329.534, -0.000041890646, -0.0019960636, -302829.97, -71614.72, 0.0, 4.991998, 4.947968 
5.033965e+2, 2.8135344e+2, -265139.6, -335348.1, -12156.972, -0.000047511006, 0.002047912, -263094.16, -80358.14, 0.0, 4.9899735, 4.945211 
5.0335175e+2, 2.862996e+2, -219753.55, -285224.9, -11633.341, 0.000060906485, -0.0027380507, -217747.9, -83484.1, 0.0, 4.987986, 4.9462423 
5.0330824e+2, 2.9124394e+2, -181207.28, -250773.8, -9177.563, 0.00007764088, 0.00153416, -180016.9, -94207.484, 0.0, 4.985994, 4.9416757 
5.03267e+2, 2.9618675e+2, -135735.6, -200713.3, -8469.994, 0.000033597324, -0.00046503334, -134649.66, -97279.664, 0.0, 4.98404, 4.9426365 
5.032271e+2, 3.0113703e+2, -97910.62, -135554.56, -6008.5347, 0.000096595235, 0.0021320258, -96974.83, -96974.83, 0.0, 4.982086, 4.957969 
5.0319e+2, 3.0609602e+2, -101380.414, -133654.03, -5088.2305, 0.00013539413, -0.005327071, -100597.22, -100597.22, 0.0, 4.980176, 4.959472 
5.0315446e+2, 3.110731e+2, -65521.844, -40666.508, -2237.9, 0.00015439908, 0.004020386, -40466.62, -40466.62, 0.0, 4.9782686, 4.994287 
5.031227e+2, 3.1606892e+2, -68031.38, -36920.348, -982.57684, 0.00032872817, -0.0010114796, -36889.348, -36889.348, 0.0, 4.9764223, 4.9964595 
5.1005477e+2, 1.2266003e+2, -1614115.8, -1739142.4, -943.20074, -0.004664566, -0.0029248137, -1614108.6, 123823.46, 0.0, 5.0550647, 4.973127 
5.100204e+2, 1.2763356e+2, -1573540.5, -1699383.9, -2482.0032, 0.016484603, 0.014168968, -1573491.6, 115699.85, 0.0, 5.053364, 4.9709945 
5.0997853e+2, 1.3260143e+2, -1530404.1, -1654066.1, -5684.558, -0.0149487825, -0.011908332, -1530143.4, 110362.92, 0.0, 5.0515785, 4.9706497 
5.0993943e+2, 1.3757333e+2, -1488188.9, -1609943.1, -6103.167, -0.00018435574, -0.0012014706, -1487883.8, 103897.914, 0.0, 5.0496507, 4.9700336 
5.0989735e+2, 1.425435e+2, -1446510.8, -1567102.4, -9245.262, 0.0054252855, 0.0063035158, -1445806.1, 97267.98, 0.0, 5.0477295, 4.9689593 
5.0985223e+2, 1.47512e+2, -1404159.6, -1522632.9, -9638.5625, 0.000071803406, -0.0005431673, -1403380.6, 91002.03, 0.0, 5.045769, 4.9684505 
5.098056e+2, 1.5247987e+2, -1362545.6, -1479813.9, -12412.294, -0.002029886, -0.0005329547, -1361246.3, 84451.234, 0.0, 5.0438046, 4.9673877 
5.097577e+2, 1.5744746e+2, -1320221.8, -1435242.0, -12750.222, -0.00012080841, -0.0011287834, -1318825.3, 78189.75, 0.0, 5.041793, 4.966909 
5.0970817e+2, 1.6241416e+2, -1278548.1, -1392166.4, -15124.567, 0.0006481667, 0.0022221224, -1276569.3, 71772.125, 0.0, 5.039783, 4.965919 
5.09657e+2, 1.6738008e+2, -1236117.8, -1347293.8, -15427.301, 0.000031912572, -0.0009227614, -1234016.6, 65658.85, 0.0, 5.0377374, 4.9655256 
5.096047e+2, 1.7234524e+2, -1194601.8, -1304492.6, -17402.535, -0.00026821686, 0.0010866907, -1191911.8, 59105.207, 0.0, 5.035698, 4.9644217 
5.0955117e+2, 1.7730977e+2, -1152085.8, -1259413.8, -17661.34, -0.000053147833, -0.0010122731, -1149254.1, 53110.31, 0.0, 5.0336294, 4.964077 
5.0949675e+2, 1.8227352e+2, -1110603.3, -1216675.8, -19225.41, 0.000084993684, 0.0015500461, -1107226.3, 46493.43, 0.0, 5.03157, 4.9629283 
5.0944126e+2, 1.8723655e+2, -1067976.5, -1171373.1, -19447.154, 0.00005119767, -0.0011402165, -1064439.8, 40642.36, 0.0, 5.029486, 4.9626355 
5.0938517e+2, 1.9219883e+2, -1026558.94, -1128769.0, -20602.285, 0.000014604221, 0.0014465902, -1022562.44, 33889.313, 0.0, 5.027407, 4.9614096 
5.093283e+2, 1.9716036e+2, -983822.6, -1083257.5, -20784.004, 0.00005848679, -0.0011554495, -979653.2, 28175.39, 0.0, 5.025311, 4.9611616 
5.092711e+2, 2.0212117e+2, -942419.6, -1040705.8, -21547.834, 0.000015425747, 0.0014861096, -937903.1, 21309.654, 0.0, 5.023217, 4.9598894 
5.092133e+2, 2.0708121e+2, -899604.6, -995088.4, -21687.213, 0.0000372634, -0.001176677, -894909.7, 15694.787, 0.0, 5.021116, 4.9596477 
5.091554e+2, 2.1204047e+2, -858202.06, -952597.6, -22059.514, 0.000033932483, 0.0015804023, -853301.3, 8702.297, 0.0, 5.019016, 4.958316 
5.0909734e+2, 2.1699895e+2, -815259.1, -906783.6, -22150.559, 0.00014365216, -0.0011977153, -810180.1, 3230.423, 0.0, 5.0169134, 4.95811 
5.090392e+2, 2.2195664e+2, -773886.1, -864431.5, -22136.219, 0.00017252554, 0.001647034, -768764.06, -3938.944, 0.0, 5.0148087, 4.956693 
5.089813e+2, 2.2691356e+2, -730803.3, -818403.25, -22178.889, 0.00019835265, -0.0010287098, -725508.06, -9260.626, 0.0, 5.0127063, 4.956528 
5.0892353e+2, 2.3186961e+2, -689453.94, -776204.2, -21778.76, 0.00015844055, 0.0018331179, -684293.3, -16615.271, 0.0, 5.010602, 4.955019 
5.0886613e+2, 2.3682486e+2, -646190.06, -729904.94, -21765.262, 0.000060743554, -0.0013560698, -640869.44, -21752.738, 0.0, 5.0085073, 4.954911 
5.088092e+2, 2.4177925e+2, -604875.94, -687918.7, -20985.799, -0.00001049319, 0.0019334358, -599873.94, -29310.373, 0.0, 5.0064087, 4.9532814 
5.08753e+2, 2.4673282e+2, -561389.56, -641272.25, -20910.988, -0.000037464586, -0.0014657347, -556246.75, -34228.227, 0.0, 5.0043254, 4.9532566 
5.086974e+2, 2.5168544e+2, -520223.88, -599781.3, -19771.6, -0.00003679424, 0.0018519019, -515581.2, -42098.484, 0.0, 5.002237, 4.9514103 
5.0864273e+2, 2.5663728e+2, -476338.9, -552409.0, -19618.613, -0.000027262473, -0.0014958681, -471577.28, -46622.39, 0.0, 5.000169, 4.9516 
5.0858897e+2, 2.6158807e+2, -435413.2, -511655.97, -18121.084, -0.000029127053, 0.0018265104, -431325.4, -54888.438, 0.0, 4.998096, 4.9494443 
5.0853646e+2, 2.665381e+2, -391020.0, -463333.75, -17871.156, -0.0001229054, -0.0016423091, -386844.53, -58917.926, 0.0, 4.996049, 4.949927 
5.084849e+2, 2.71487e+2, -350423.3, -423556.8, -16035.101, -0.00006460649, 0.0015935479, -347062.0, -67634.58, 0.0, 4.9939966, 4.9473686 
5.08435e+2, 2.7643517e+2, -305522.7, -374285.16, -15663.798, 0.00005897306, -0.0019179271, -302122.66, -71187.336, 0.0, 4.991974, 4.948144 
5.0838625e+2, 2.8138223e+2, -264951.78, -334831.72, -13481.348, 0.00009101903, 0.0022114215, -262441.13, -79986.945, 0.0, 4.9899454, 4.945415 
5.083395e+2, 2.8632855e+2, -219568.1, -284700.72, -12968.318, 0.00013131283, -0.0026461058, -217080.98, -83100.98, 0.0, 4.987956, 4.9464507 
5.0829405e+2, 2.9127315e+2, -180947.63, -250059.03, -10500.543, 0.00010624707, 0.0015709416, -179387.42, -93864.07, 0.0, 4.985961, 4.941952 
5.082509e+2, 2.9621622e+2, -135465.61, -199955.1, -9801.117, 0.000073514166, -0.00039372247, -134008.94, -96927.914, 0.0, 4.9840035, 4.94293 
5.0820905e+2, 3.011668e+2, -97632.71, -134750.31, -7319.3525, 0.000119748955, 0.0022121354, -96241.52, -96241.52, 0.0, 4.9820457, 4.958284 
5.0817e+2, 3.061261e+2, -101110.9, -132849.94, -6405.525, 0.00018955967, -0.0052901893, -99866.9, -99866.9, 0.0, 4.9801316, 4.9597883 
5.081326e+2, 3.1110352e+2, -65278.43, -39901.277, -3518.4517, 0.00025879202, 0.004084594, -39422.492, -39422.492, 0.0, 4.97822, 4.994596 
5.08099e+2, 3.1609964e+2, -67826.78, -36194.895, -2258.3992, 0.0003908929, -0.0008570835, -36034.47, -36034.47, 0.0, 4.976364, 4.9967575 
5.1511073e+2, 1.2269396e+2, -1609091.5, -1737878.0, -184.41481, -0.0049536554, -0.0042488645, -1609091.3, 128508.23, 0.0, 5.057033, 4.9725823 
5.150743e+2, 1.2766714e+2, -1568536.8, -1697516.9, -1510.2808, 0.0141401645, 0.012404672, -1568519.0, 120343.18, 0.0, 5.055194, 4.970719 
5.1503104e+2, 1.32635e+2, -1525843.9, -1652591.0, -4867.178, -0.013003731, -0.010546406, -1525657.3, 114520.01, 0.0, 5.053294, 4.970305 
5.149898e+2, 1.376064e+2, -1483920.3, -1608636.9, -5295.2476, -0.000083436535, -0.0011541527, -1483695.9, 107761.74, 0.0, 5.051274, 4.9696813 
5.149456e+2, 1.4257616e+2, -1442414.4, -1565735.6, -8460.129, 0.004721478, 0.005775753, -1441836.6, 100917.195, 0.0, 5.049261, 4.968675 
5.1489854e+2, 1.4754441e+2, -1400344.9, -1521418.5, -8846.541, -0.0000050380863, -0.0006207768, -1399701.9, 94363.1, 0.0, 5.0472093, 4.968163 
5.148499e+2, 1.5251204e+2, -1358884.8, -1478524.0, -11629.267, -0.0018171184, -0.0004063128, -1357764.9, 87617.37, 0.0, 5.0451584, 4.9671693 
5.1479995e+2, 1.5747938e+2, -1316812.3, -1434085.3, -11928.921, -0.00010895111, -0.0011585829, -1315611.1, 81091.24, 0.0, 5.0430636, 4.9666886 
5.147483e+2, 1.6244583e+2, -1275399.6, -1391167.6, -14302.888, 0.0005510606, 0.0021306083, -1273658.8, 74372.34, 0.0, 5.04097, 4.9656887 
5.1469505e+2, 1.6741148e+2, -1233229.8, -1346430.5, -14599.379, -0.000020654436, -0.00094336993, -1231377.1, 67990.52, 0.0, 5.038838, 4.9652934 
5.146406e+2, 1.7237642e+2, -1191901.3, -1303613.1, -16582.56, -0.00028752378, 0.0010934366, -1189491.6, 61219.633, 0.0, 5.0367107, 4.9642386 
5.14585e+2, 1.7734075e+2, -1149652.5, -1258664.4, -16825.557, -0.0000697012, -0.0010198958, -1147114.6, 54946.28, 0.0, 5.034551, 4.963896 
5.1452845e+2, 1.8230432e+2, -1108382.1, -1215954.4, -18383.488, 0.00007190554, 0.0015368273, -1105327.3, 48090.613, 0.0, 5.0324025, 4.9627814 
5.144708e+2, 1.8726717e+2, -1066006.0, -1170771.3, -18592.424, 0.00006150555, -0.0011352682, -1062804.3, 41977.676, 0.0, 5.0302324, 4.9624906 
5.144126e+2, 1.9222932e+2, -1024784.2, -1128175.4, -19741.768, 0.000027248821, 0.0014690008, -1021142.9, 35010.133, 0.0, 5.0280676, 4.961303 
5.143536e+2, 1.9719072e+2, -982308.1, -1082798.3, -19910.018, 0.000048631242, -0.0011413924, -978507.1, 29023.98, 0.0, 5.0258837, 4.961052 
5.142942e+2, 2.0215142e+2, -941100.94, -1040251.1, -20663.2, 0.0000061986193, 0.0014908153, -936967.0, 21949.342, 0.0, 5.0237036, 4.9598193 
5.142343e+2, 2.0711134e+2, -898541.0, -994761.2, -20786.838, 0.00003425745, -0.001199938, -894242.4, 16066.599, 0.0, 5.0215154, 4.9595757 
5.141743e+2, 2.1207054e+2, -857341.7, -952285.56, -21147.3, 0.00004788042, 0.0015581885, -852844.5, 8864.394, 0.0, 5.0193276, 4.9582796 
5.14114e+2, 2.1702896e+2, -814652.1, -906592.8, -21223.844, 0.00015769171, -0.0012043938, -809989.25, 3127.1147, 0.0, 5.0171375, 4.958073 
5.1405376e+2, 2.2198662e+2, -773480.06, -864253.25, -21195.113, 0.0001897706, 0.0016325171, -768775.0, -4243.6235, 0.0, 5.014946, 4.9566917 
5.139937e+2, 2.269435e+2, -730644.2, -818339.8, -21221.05, 0.00018575811, -0.0010976107, -725778.94, -9825.026, 0.0, 5.012758, 4.956527 
5.139338e+2, 2.3189954e+2, -689500.7, -776156.6, -20802.33, 0.00015768524, 0.0017325194, -684765.7, -17381.084, 0.0, 5.010565, 4.9550524 
5.138743e+2, 2.368548e+2, -646490.94, -729971.06, -20774.773, 0.00010349311, -0.0014497137, -641606.7, -22783.63, 0.0, 5.0083804, 4.954946 
5.138152e+2, 2.4180923e+2, -605396.75, -688014.44, -19974.885, 0.00005451182, 0.0018575665, -600820.75, -30551.139, 0.0, 5.0061903, 4.9533467 
5.137568e+2, 2.4676284e+2, -562167.5, -641479.94, -19889.873, 0.00002964005, -0.0014908379, -557459.06, -35734.89, 0.0, 5.0040145, 4.953324 
5.136991e+2, 2.5171554e+2, -521216.0, -600001.2, -18723.81, 0.000021954676, 0.0018385366, -516992.56, -43804.79, 0.0, 5.001834, 4.951514 
5.136424e+2, 2.5666744e+2, -477575.25, -552728.56, -18556.008, -0.00002492315, -0.0015691824, -473243.3, -48584.152, 0.0, 4.9996767, 4.9517074 
5.1358646e+2, 2.6161835e+2, -436868.1, -511995.7, -17027.98, -0.0000552677, 0.001745018, -433188.8, -57048.543, 0.0, 4.9975114, 4.949584 
5.1353186e+2, 2.665685e+2, -392733.0, -463778.22, -16773.215, -0.00009067514, -0.0016164607, -388972.06, -61343.434, 0.0, 4.99537, 4.9500704 
5.134783e+2, 2.7151754e+2, -352362.22, -424020.47, -14907.244, 0.000017479699, 0.0016876969, -349384.75, -70256.65, 0.0, 4.993222, 4.947546 
5.134263e+2, 2.764659e+2, -307716.56, -374847.22, -14531.033, 0.00014876507, -0.0018156873, -304706.2, -74071.67, 0.0, 4.991104, 4.948326 
5.1337546e+2, 2.8141308e+2, -267379.38, -335419.78, -12312.652, 0.00015904481, 0.0023129066, -265219.8, -83068.11, 0.0, 4.988979, 4.945628 
5.133267e+2, 2.8635964e+2, -222252.98, -285386.63, -11791.693, 0.00015305814, -0.0025713765, -220122.5, -86446.91, 0.0, 4.9868927, 4.9466686 
5.1327926e+2, 2.913044e+2, -183825.31, -250659.56, -9288.625, 0.000119606586, 0.0016298302, -182558.39, -97341.66, 0.0, 4.9847975, 4.9422417 
5.13234e+2, 2.962478e+2, -138608.22, -200624.2, -8582.924, 0.00014015952, -0.00029901686, -137442.27, -100670.66, 0.0, 4.9827347, 4.9432383 
5.1319027e+2, 3.011987e+2, -101032.94, -135470.05, -6086.8193, 0.00017997604, 0.0022986, -99988.74, -99988.74, 0.0, 4.9806695, 4.9586153 
5.131492e+2, 3.0615827e+2, -104796.234, -133686.2, -5166.168, 0.00022852636, -0.0053120577, -103900.2, -103900.2, 0.0, 4.978652, 4.960122 
5.1310986e+2, 3.1113598e+2, -69228.41, -40851.5, -2279.901, 0.00032635167, 0.004021064, -40669.492, -40669.492, 0.0, 4.976638, 4.9949245 
5.130744e+2, 3.1613243e+2, -72062.21, -37292.746, -1016.77985, 0.00046156955, -0.00084150315, -37263.035, -37263.035, 0.0, 4.9746842, 4.9970737 
5.201678e+2, 1.22729525e+2, -1609133.0, -1739138.0, -1100.5215, -0.0028729879, -0.0023896305, -1609123.8, 128127.25, 0.0, 5.057279, 4.9720526 
5.201292e+2, 1.27702e+2, -1568345.8, -1698140.9, -2243.7178, 0.011838658, 0.010372805, -1568307.0, 120213.64, 0.0, 5.0554056, 4.9704146 
5.2008444e+2, 1.326699e+2, -1525805.9, -1653428.6, -5742.4814, -0.011006448, -0.0088396855, -1525548.0, 114287.34, 0.0, 5.0534825, 4.969943 
5.2004087e+2, 1.3764074e+2, -1483931.0, -1609512.9, -6177.129, 0.000019498975, -0.0010885177, -1483627.9, 107493.02, 0.0, 5.0514474, 4.969313 
5.199946e+2, 1.426101e+2, -1442371.6, -1566425.5, -9378.9, 0.004022589, 0.0051572802, -1441666.5, 100754.64, 0.0, 5.0494175, 4.9683776 
5.1994556e+2, 1.475781e+2, -1400371.0, -1522148.4, -9777.313, -0.00005658325, -0.00066406745, -1399591.0, 94143.7, 0.0, 5.047343, 4.967863 
5.198949e+2, 1.525455e+2, -1358844.9, -1479044.6, -12609.59, -0.001580178, -0.00020082454, -1357536.3, 87518.04, 0.0, 5.0452757, 4.9669476 
5.1984274e+2, 1.5751259e+2, -1316808.3, -1434626.5, -12932.988, -0.000082691884, -0.0011619912, -1315405.3, 80971.64, 0.0, 5.043169, 4.9664655 
5.19789e+2, 1.624788e+2, -1275428.4, -1391752.5, -15338.518, 0.00046518364, 0.0020525963, -1273439.9, 74268.14, 0.0, 5.041069, 4.965455 
5.1973367e+2, 1.6744423e+2, -1233267.6, -1347024.5, -15625.065, -0.000060899547, -0.00092931074, -1231160.4, 67886.38, 0.0, 5.038934, 4.9650574 
5.1967704e+2, 1.7240895e+2, -1191884.1, -1304077.5, -17634.232, -0.0002959691, 0.0011421444, -1189177.6, 61214.79, 0.0, 5.0368032, 4.964049 
5.196193e+2, 1.773731e+2, -1149652.9, -1259135.5, -17894.594, -0.000075989534, -0.0009958806, -1146802.3, 54941.7, 0.0, 5.0346365, 4.9637065 
5.195606e+2, 1.8233648e+2, -1108355.1, -1216331.3, -19479.137, 0.00006735706, 0.0015592715, -1104948.5, 48154.188, 0.0, 5.03248, 4.9626284 
5.195008e+2, 1.8729918e+2, -1066010.3, -1171163.4, -19703.023, 0.00007598806, -0.0010862744, -1062439.6, 42028.645, 0.0, 5.0302987, 4.962337 
5.194403e+2, 1.9226119e+2, -1024754.25, -1128455.6, -20880.756, 0.00003615083, 0.0015241952, -1020707.7, 35132.96, 0.0, 5.0281253, 4.9611926 
5.1937914e+2, 1.9722249e+2, -982304.5, -1083103.8, -21066.766, 0.000027545339, -0.0010989916, -978078.75, 29141.137, 0.0, 5.025934, 4.9609356 
5.1931757e+2, 2.0218307e+2, -941061.06, -1040447.3, -21844.205, -0.00001577647, 0.0015336962, -936471.8, 22134.313, 0.0, 5.023748, 4.959744 
5.192555e+2, 2.0714293e+2, -898525.56, -994974.8, -21985.895, 0.00002502362, -0.0011791653, -893750.25, 16249.246, 0.0, 5.021552, 4.9594975 
5.1919323e+2, 2.1210207e+2, -857296.5, -952405.1, -22368.994, 0.000052334133, 0.0015806868, -852298.1, 9101.887, 0.0, 5.019358, 4.9582367 
5.191308e+2, 2.1706045e+2, -814622.7, -906721.7, -22462.756, 0.00015016219, -0.0011677434, -809436.1, 3371.7903, 0.0, 5.017163, 4.9580293 
5.190684e+2, 2.2201806e+2, -773416.1, -864282.2, -22454.656, 0.00018244631, 0.0016529005, -768170.06, -3946.848, 0.0, 5.0149665, 4.956685 
5.19006e+2, 2.2697493e+2, -730595.3, -818376.56, -22498.92, 0.00013692211, -0.0011585497, -725164.6, -9518.754, 0.0, 5.0127726, 4.95652 
5.18944e+2, 2.3193099e+2, -689421.1, -776102.1, -22098.94, 0.00012728304, 0.0016349575, -684112.25, -17035.76, 0.0, 5.0105753, 4.9550786 
5.1888233e+2, 2.3688628e+2, -646421.4, -729919.2, -22090.467, 0.00014634503, -0.0015094372, -640937.25, -22422.596, 0.0, 5.0083866, 4.9549737 
5.188211e+2, 2.4184075e+2, -605299.8, -687882.56, -21304.133, 0.00013083914, 0.0018332673, -600127.8, -30167.041, 0.0, 5.006193, 4.9534035 
5.1876056e+2, 2.4679442e+2, -562076.25, -641347.25, -21236.738, 0.000090863985, -0.0014828262, -556745.4, -35330.59, 0.0, 5.004015, 4.9533825 
5.1870066e+2, 2.517472e+2, -521087.03, -599763.9, -20076.15, 0.000057553432, 0.0018383244, -516260.28, -43382.594, 0.0, 5.0018306, 4.95161 
5.186417e+2, 2.5669917e+2, -477452.53, -552484.5, -19926.852, -0.00006332953, -0.00164476, -472488.78, -48140.676, 0.0, 4.999669, 4.9518085 
5.1858366e+2, 2.616502e+2, -436720.8, -511673.0, -18404.229, -0.0001197545, 0.0016773875, -432445.6, -56617.516, 0.0, 4.9975, 4.9497137 
5.185269e+2, 2.6660052e+2, -392590.3, -463451.9, -18168.244, -0.00005552099, -0.0015063684, -388203.7, -60888.668, 0.0, 4.995356, 4.950203 
5.1847124e+2, 2.715497e+2, -352186.63, -423600.6, -16300.275, 0.0001106671, 0.001895515, -348642.0, -69828.984, 0.0, 4.993205, 4.9477124 
5.184172e+2, 2.764982e+2, -307541.13, -374417.53, -15940.27, 0.0002014934, -0.001662927, -303936.03, -73618.18, 0.0, 4.9910855, 4.948497 
5.1836425e+2, 2.8144562e+2, -267175.28, -334905.22, -13714.189, 0.00015835157, 0.0024213728, -264503.78, -82670.47, 0.0, 4.988957, 4.94583 
5.1831335e+2, 2.8639233e+2, -222054.4, -284865.88, -13206.052, 0.00011804271, -0.0024651976, -219390.8, -86035.65, 0.0, 4.986868, 4.946874 
5.182638e+2, 2.9133737e+2, -183550.4, -249940.4, -10699.256, 0.00009670408, 0.0017434417, -181868.73, -96974.77, 0.0, 4.984769, 4.9425187 
5.1821655e+2, 2.9628104e+2, -138320.25, -199860.34, -10005.721, 0.00019234829, -0.00015473449, -136734.3, -100288.34, 0.0, 4.982704, 4.943533 
5.181707e+2, 3.0123225e+2, -100731.47, -134651.58, -7490.8, 0.00022279102, 0.0024219288, -99150.875, -99150.875, 0.0, 4.9806347, 4.9589334 
5.181277e+2, 3.0619213e+2, -104501.07, -132864.28, -6578.4053, 0.00020598604, -0.005324782, -103049.586, -103049.586, 0.0, 4.978614, 4.9604425 
5.180864e+2, 3.1117016e+2, -68962.17, -40073.477, -3655.1594, 0.0002863761, 0.0039222664, -39618.18, -39618.18, 0.0, 4.976595, 4.9952364 
5.1804894e+2, 3.161669e+2, -71840.56, -36562.535, -2392.101, 0.0003246502, -0.0008532104, -36401.074, -36401.074, 0.0, 4.974631, 4.997372 
5.2522606e+2, 1.2276748e+2, -1603924.8, -1737661.9, -251.7762, -0.0030598992, -0.002735931, -1603924.3, 132954.7, 0.0, 5.0592866, 4.971559 
5.251852e+2, 1.277394e+2, -1563258.1, -1696326.1, -1245.4457, 0.009521875, 0.007945995, -1563246.5, 124907.555, 0.0, 5.057287, 4.970097 
5.2513885e+2, 1.327074e+2, -1521085.9, -1651870.8, -4852.731, -0.008952037, -0.006746636, -1520906.1, 118561.61, 0.0, 5.055254, 4.969599 
5.250931e+2, 1.3767767e+2, -1479511.8, -1608124.6, -5285.0645, 0.00006181786, -0.0010903415, -1479294.9, 111464.13, 0.0, 5.053122, 4.968963 
5.2504456e+2, 1.4264661e+2, -1438160.0, -1565010.1, -8517.481, 0.0032674093, 0.004326531, -1437590.6, 104472.81, 0.0, 5.0509925, 4.9680886 
5.249935e+2, 1.4761436e+2, -1396479.3, -1520904.5, -8911.925, -0.000082690596, -0.00073973555, -1395844.1, 97535.22, 0.0, 5.0488124, 4.967571 
5.2494067e+2, 1.5258151e+2, -1355147.0, -1477756.3, -11759.151, -0.0013082132, 0.000037449485, -1354029.4, 90672.086, 0.0, 5.046648, 4.96672 
5.2488637e+2, 1.5754831e+2, -1313387.9, -1433483.9, -12084.472, -0.00006954357, -0.0011948358, -1312183.9, 83842.836, 0.0, 5.0444493, 4.966236 
5.248304e+2, 1.625143e+2, -1272175.3, -1390563.3, -14481.088, 0.00036219918, 0.0019113795, -1270429.6, 76930.44, 0.0, 5.042264, 4.9652843 
5.247729e+2, 1.6747953e+2, -1230256.8, -1345964.8, -14726.823, -0.00008108653, -0.0009649411, -1228411.8, 70289.01, 0.0, 5.0400486, 4.9648843 
5.247141e+2, 1.7244406e+2, -1189125.1, -1303168.5, -16733.719, -0.00027220455, 0.0011569601, -1186720.5, 63327.94, 0.0, 5.0378366, 4.9638658 
5.2465403e+2, 1.77408e+2, -1147146.6, -1258354.0, -16982.816, -0.00005807419, -0.000999463, -1144611.0, 56791.02, 0.0, 5.035585, 4.963523 
5.245931e+2, 1.823712e+2, -1106043.8, -1215546.8, -18566.316, 0.000075508455, 0.0015457968, -1102981.5, 49781.008, 0.0, 5.03334, 4.9624896 
5.245311e+2, 1.8733372e+2, -1063967.6, -1170511.6, -18772.14, 0.00009268839, -0.0010933554, -1060756.9, 43372.875, 0.0, 5.031067, 4.9621983 
5.244684e+2, 1.922956e+2, -1022918.1, -1127821.0, -19937.764, 0.000049922513, 0.0015274798, -1019256.56, 36246.918, 0.0, 5.028805, 4.961091 
5.24405e+2, 1.9725676e+2, -980725.44, -1082605.0, -20106.623, 0.000031041014, -0.0010887646, -976900.8, 29983.15, 0.0, 5.0265284, 4.9608293 
5.2434117e+2, 2.0221725e+2, -939678.1, -1039954.1, -20872.635, -0.0000037897594, 0.0015564797, -935506.94, 22764.309, 0.0, 5.0242553, 4.959677 
5.2427685e+2, 2.07177e+2, -897405.25, -994615.8, -20997.064, 0.000037577287, -0.001158047, -893063.8, 16601.758, 0.0, 5.0219703, 4.9594274 
5.242124e+2, 2.1213606e+2, -856377.44, -952056.8, -21363.797, 0.00006136858, 0.0015895133, -851823.94, 9242.922, 0.0, 5.0196896, 4.958204 
5.241477e+2, 2.1709438e+2, -813955.9, -906494.94, -21438.479, 0.00012157512, -0.0012091225, -809230.5, 3244.875, 0.0, 5.0174065, 4.9579954 
5.240831e+2, 2.2205196e+2, -772953.06, -864069.94, -21414.31, 0.00016208204, 0.0015896412, -768171.25, -4280.18, 0.0, 5.015123, 4.9566865 
5.2401847e+2, 2.270088e+2, -730389.94, -818286.5, -21442.68, 0.00013773015, -0.0012144679, -725437.94, -10123.951, 0.0, 5.0128393, 4.9565206 
5.2395415e+2, 2.3196484e+2, -689428.7, -776035.2, -21024.203, 0.00016162042, 0.0015929156, -684594.75, -17850.092, 0.0, 5.0105524, 4.955112 
5.2389026e+2, 2.3692013e+2, -646683.06, -729967.9, -21002.35, 0.00019220995, -0.001529446, -641686.5, -23503.818, 0.0, 5.008274, 4.9550076 
5.2382684e+2, 2.4187464e+2, -605774.0, -687949.4, -20192.809, 0.00016282118, 0.0018121083, -601080.2, -31451.559, 0.0, 5.00599, 4.953471 
5.23764e+2, 2.4682835e+2, -562798.1, -641521.56, -20109.236, 0.00007304344, -0.0015504471, -557958.9, -36876.605, 0.0, 5.003723, 4.953452 
5.237019e+2, 2.5178117e+2, -522024.66, -599954.94, -18921.895, 0.00003526645, 0.0017664906, -517673.28, -45128.703, 0.0, 5.001447, 4.9517145 
5.236408e+2, 2.5673324e+2, -478652.97, -552786.3, -18762.918, -0.00004223787, -0.0016409737, -474174.66, -50160.5, 0.0, 4.9991903, 4.9519153 
5.2358055e+2, 2.616844e+2, -438151.88, -512003.03, -17211.232, -0.000085587286, 0.0017292699, -434337.75, -58844.56, 0.0, 4.9969254, 4.9498525 
5.235216e+2, 2.666348e+2, -394276.47, -463887.25, -16965.764, -0.000029998344, -0.0014360903, -390361.66, -63382.598, 0.0, 4.994688, 4.950344 
5.234637e+2, 2.7158412e+2, -354087.75, -424035.47, -15060.615, 0.00012117939, 0.001958142, -350982.84, -72507.03, 0.0, 4.9924426, 4.947893 
5.2340746e+2, 2.7653277e+2, -309692.72, -374947.78, -14687.1875, 0.00019116451, -0.0016673737, -306539.38, -76560.305, 0.0, 4.99023, 4.9486837 
5.2335244e+2, 2.8148034e+2, -269570.78, -335477.63, -12424.346, 0.00014580155, 0.002379241, -267306.4, -85813.555, 0.0, 4.988003, 4.9460425 
5.2329946e+2, 2.864273e+2, -224731.06, -285552.44, -11910.825, 0.00015292496, -0.0024458284, -222481.72, -89468.88, 0.0, 4.98581, 4.947089 
5.232477e+2, 2.9137254e+2, -186426.39, -250528.97, -9370.205, 0.00015998326, 0.0017917595, -185084.78, -100535.29, 0.0, 4.983606, 4.9428115 
5.231984e+2, 2.9631647e+2, -141455.69, -200513.33, -8669.53, 0.00021335411, -0.00015575037, -140209.33, -104110.57, 0.0, 4.981437, 4.943845 
5.2315044e+2, 3.0126798e+2, -104126.766, -135361.03, -6143.882, 0.00017740791, 0.002382635, -102961.7, -102961.7, 0.0, 4.979261, 4.9592667 
5.231053e+2, 3.0622816e+2, -108189.914, -133696.05, -5229.6772, 0.00014943357, -0.005363851, -107159.29, -107159.29, 0.0, 4.9771347, 4.9607778 
5.23062e+2, 3.1120652e+2, -72934.36, -41032.69, -2318.7524, 0.00023121979, 0.0038918129, -40865.035, -40865.035, 0.0, 4.975007, 4.995563 
5.2302253e+2, 3.1620353e+2, -76129.9, -37688.402, -1067.1276, 0.00030859432, -0.0007324662, -37658.8, -37658.8, 0.0, 4.9729347, 4.9976845 
5.3028536e+2, 1.2280701e+2, -1603887.5, -1738781.4, -1157.1598, -0.0017304193, -0.0011429121, -1603877.6, 132613.81, 0.0, 5.0595365, 4.971074 
5.3024215e+2, 1.2777819e+2, -1563105.4, -1697070.6, -2024.9891, 0.0073112682, 0.005517036, -1563074.8, 124699.22, 0.0, 5.057507, 4.96975 
5.301941e+2, 1.327463e+2, -1521017.3, -1652692.3, -5739.2246, -0.006895286, -0.0045250366, -1520767.6, 118318.99, 0.0, 5.055451, 4.9692383 
5.30146e+2, 1.3771595e+2, -1479499.8, -1608985.5, -6178.7407, 0.000102980506, -0.001075139, -1479205.6, 111178.14, 0.0, 5.053302, 4.968598 
5.300952e+2, 1.4268447e+2, -1438097.4, -1565707.3, -9457.342, 0.0025377164, 0.0034947991, -1437400.4, 104291.96, 0.0, 5.051158, 4.967785 
5.30042e+2, 1.4765202e+2, -1396459.8, -1521630.6, -9859.206, -0.00008219666, -0.00077633467, -1395687.9, 97322.65, 0.0, 5.048964, 4.967264 
5.2998704e+2, 1.526189e+2, -1355082.3, -1478321.3, -12740.491, -0.0010196829, 0.0003269317, -1353778.9, 90556.086, 0.0, 5.046785, 4.966475 
5.2993053e+2, 1.5758541e+2, -1313378.0, -1434079.0, -13088.701, -0.00004549477, -0.0011853453, -1311975.0, 83688.055, 0.0, 5.044567, 4.96599 
5.298723e+2, 1.6255118e+2, -1272110.0, -1390971.3, -15522.144, 0.00027074316, 0.0018049163, -1270116.4, 76882.26, 0.0, 5.042366, 4.965109 
5.2981263e+2, 1.6751623e+2, -1230237.0, -1346399.1, -15797.692, -0.0000872709, -0.00096513215, -1228126.9, 70214.125, 0.0, 5.040136, 4.964707 
5.297516e+2, 1.724806e+2, -1189139.0, -1303644.4, -17841.14, -0.00023699054, 0.001210983, -1186423.5, 63266.85, 0.0, 5.037916, 4.963679 
5.296893e+2, 1.7744432e+2, -1147163.3, -1258832.0, -18083.04, -0.000030934014, -0.00096240727, -1144308.0, 56737.96, 0.0, 5.035663, 4.9633355 
5.296261e+2, 1.8240736e+2, -1106009.0, -1215909.8, -19691.318, 0.00008762852, 0.0015714734, -1102587.4, 49820.777, 0.0, 5.0334163, 4.9623423 
5.295618e+2, 1.8736973e+2, -1063944.4, -1170880.8, -19918.184, 0.00010930037, -0.0010656596, -1060354.9, 43421.918, 0.0, 5.0311394, 4.962051 
5.294969e+2, 1.9233148e+2, -1022863.7, -1128092.1, -21111.66, 0.000060768114, 0.001569787, -1018786.1, 36365.668, 0.0, 5.02887, 4.960981 
5.2943116e+2, 1.9729254e+2, -980707.06, -1082902.5, -21299.781, 0.000032667922, -0.0010360993, -976445.44, 30087.988, 0.0, 5.0265827, 4.9607153 
5.2936506e+2, 2.0225292e+2, -939628.94, -1040147.2, -22094.473, 0.0000058316837, 0.0016190768, -934986.8, 22934.83, 0.0, 5.0243015, 4.959603 
5.292985e+2, 2.072126e+2, -897378.7, -994829.6, -22238.266, 0.000039269467, -0.0010942358, -892543.8, 16772.98, 0.0, 5.022011, 4.9593487 
5.2923167e+2, 2.1217158e+2, -856316.3, -952167.94, -22628.19, 0.000053059746, 0.0016385284, -851242.9, 9475.773, 0.0, 5.019724, 4.9581633 
5.2916473e+2, 2.1712986e+2, -813914.1, -906618.0, -22723.21, 0.000069182184, -0.0012235371, -808643.94, 3483.7441, 0.0, 5.0174346, 4.957954 
5.290978e+2, 2.220874e+2, -772880.94, -864099.9, -22724.152, 0.00011819891, 0.0015534572, -767533.44, -3989.8647, 0.0, 5.0151453, 4.9566793 
5.290309e+2, 2.2704425e+2, -730333.0, -818326.94, -22774.451, 0.00013387862, -0.0012174218, -724788.0, -9821.458, 0.0, 5.012857, 4.956512 
5.2896434e+2, 2.320003e+2, -689341.56, -775988.7, -22375.56, 0.00019623945, 0.0016187419, -683904.5, -17507.373, 0.0, 5.010566, 4.9551353 
5.288981e+2, 2.3695563e+2, -646604.44, -729925.2, -22374.664, 0.00021656125, -0.0014908495, -640976.2, -23141.227, 0.0, 5.0082846, 4.955031 
5.288324e+2, 2.4191016e+2, -605661.4, -687810.7, -21579.482, 0.00015865228, 0.0018373146, -600337.7, -31057.16, 0.0, 5.0059967, 4.95353 
5.2876735e+2, 2.4686392e+2, -562694.3, -641382.5, -21516.453, 0.000009097974, -0.0016003298, -557195.2, -36461.527, 0.0, 5.003726, 4.953513 
5.28703e+2, 2.518168e+2, -521891.7, -599728.0, -20342.348, -0.000025355906, 0.0017147928, -516895.9, -44700.69, 0.0, 5.001446, 4.9518075 
5.286397e+2, 2.56769e+2, -478527.06, -552558.56, -20204.889, -0.0000136954295, -0.001554749, -473371.72, -49707.953, 0.0, 4.999186, 4.9520106 
5.2857715e+2, 2.6172024e+2, -437996.03, -511687.78, -18658.066, -0.000029896974, 0.0018763634, -433541.25, -58399.57, 0.0, 4.9969177, 4.949979 
5.28516e+2, 2.666708e+2, -394123.25, -463567.47, -18431.672, -0.00003392728, -0.0013480308, -389534.4, -62907.965, 0.0, 4.9946785, 4.950474 
5.2845585e+2, 2.7162027e+2, -353892.03, -423599.78, -16526.178, 0.00006245781, 0.001988608, -350172.5, -72050.73, 0.0, 4.9924297, 4.9480643 
5.283974e+2, 2.7656907e+2, -309500.25, -374502.1, -16173.255, 0.0001213645, -0.0017080907, -305698.5, -76075.195, 0.0, 4.990214, 4.9488597 
5.2834016e+2, 2.8151685e+2, -269362.66, -334974.0, -13913.657, 0.000101475525, 0.0023020047, -266534.06, -85398.82, 0.0, 4.987983, 4.9462404 
5.2828497e+2, 2.8646398e+2, -224528.9, -285051.16, -13415.593, 0.0001982275, -0.002430635, -221688.47, -89035.234, 0.0, 4.985789, 4.9472876 
5.282311e+2, 2.9140946e+2, -186134.33, -249804.38, -10871.932, 0.00023663149, 0.0018454855, -184329.08, -100141.45, 0.0, 4.983582, 4.9430895 
5.281796e+2, 2.9635367e+2, -141148.19, -199741.17, -10185.676, 0.00018111689, -0.0002061736, -139428.03, -103693.95, 0.0, 4.981412, 4.944141 
5.2812946e+2, 3.0130547e+2, -103812.75, -134549.89, -7646.507, 0.00004357738, 0.0022839336, -102015.6, -102015.6, 0.0, 4.9792314, 4.959581 
5.2808225e+2, 3.0626598e+2, -107884.766, -132886.64, -6741.0186, 0.000030064657, -0.005368114, -106183.07, -106183.07, 0.0, 4.977102, 4.9610925 
5.2803683e+2, 3.1124467e+2, -72660.5, -40276.77, -3797.6016, 0.00008020671, 0.0039500115, -39837.39, -39837.39, 0.0, 4.9749703, 4.9958653 
5.279953e+2, 3.16242e+2, -75899.06, -36983.38, -2552.0798, 0.00014518069, -0.0004537656, -36816.73, -36816.73, 0.0, 4.9728885, 4.997972 
5.3534585e+2, 1.2284921e+2, -1598512.3, -1737110.5, -231.37326, -0.0015701202, -0.0010083432, -1598511.9, 137565.97, 0.0, 5.0615797, 4.9706273 
5.353003e+2, 1.2781976e+2, -1557949.6, -1695298.4, -996.8612, 0.005353072, 0.0031783795, -1557942.4, 129424.164, 0.0, 5.059431, 4.9693975 
5.352505e+2, 1.3278791e+2, -1516170.0, -1651058.5, -4791.4194, -0.0051345173, -0.0024708025, -1516000.0, 122678.516, 0.0, 5.0572658, 4.968898 
5.3519994e+2, 1.3775702e+2, -1474966.9, -1607525.3, -5226.5093, 0.00012388577, -0.0010951721, -1474761.1, 115220.23, 0.0, 5.055014, 4.968253 
5.351469e+2, 1.4272511e+2, -1433766.9, -1564214.8, -8527.157, 0.0018948015, 0.0026798171, -1433211.9, 108082.16, 0.0, 5.0527716, 4.967503 
5.350915e+2, 1.476924e+2, -1392428.4, -1520301.3, -8917.143, -0.00010431459, -0.0008493122, -1391809.5, 100805.09, 0.0, 5.0504794, 4.966978 
5.350343e+2, 1.5265903e+2, -1351279.0, -1477016.9, -11811.027, -0.00078484457, 0.0005626699, -1350179.1, 93762.47, 0.0, 5.0482025, 4.9662313 
5.3497547e+2, 1.5762526e+2, -1309878.5, -1432935.6, -12157.182, -0.000013999061, -0.0011862796, -1308688.9, 86583.74, 0.0, 5.045884, 4.965743 
5.34915e+2, 1.6259076e+2, -1268810.1, -1389794.1, -14592.853, 0.0002083765, 0.0016965983, -1267074.9, 79535.88, 0.0, 5.0435853, 4.964923 
5.34853e+2, 1.6755562e+2, -1227223.4, -1345371.6, -14868.903, -0.00008571888, -0.0010045831, -1225380.9, 72574.33, 0.0, 5.04126, 4.964518 
5.347897e+2, 1.7251979e+2, -1186282.9, -1302539.5, -16894.611, -0.00020445968, 0.001204768, -1183877.5, 65428.773, 0.0, 5.0389533, 4.9635596 
5.3472507e+2, 1.7748336e+2, -1144542.1, -1257847.6, -17088.197, -0.000002627304, -0.0009817457, -1142021.0, 58642.22, 0.0, 5.036621, 4.9632154 
5.3465956e+2, 1.8244626e+2, -1103647.0, -1215099.3, -18683.428, 0.000099509845, 0.0015537996, -1100598.4, 51428.582, 0.0, 5.0342946, 4.9622035 
5.34593e+2, 1.8740846e+2, -1061825.4, -1170192.0, -18896.234, 0.00013082879, -0.0010533566, -1058624.9, 44772.402, 0.0, 5.031935, 4.961911 
5.345257e+2, 1.9237006e+2, -1020942.2, -1127408.5, -20087.053, 0.000080476595, 0.0015927876, -1017278.44, 37495.273, 0.0, 5.0295787, 4.9608817 
5.344576e+2, 1.9733098e+2, -979061.4, -1082360.9, -20255.018, 0.000046328147, -0.0010235703, -975231.75, 30924.947, 0.0, 5.027198, 4.960613 
5.343892e+2, 2.0229127e+2, -938187.0, -1039612.56, -21030.674, 0.000029144185, 0.0016254638, -933999.2, 23546.734, 0.0, 5.024827, 4.959541 
5.3432024e+2, 2.0725083e+2, -896192.94, -994428.3, -21152.088, 0.00004227332, -0.0011063366, -891832.06, 17109.99, 0.0, 5.02245, 4.9592824 
5.3425115e+2, 2.1220975e+2, -855330.56, -951780.9, -21524.705, 0.000055228495, 0.001625448, -850744.94, 9599.713, 0.0, 5.020077, 4.9581323 
5.3418183e+2, 2.1716796e+2, -813189.0, -906358.44, -21600.31, 0.00006166461, -0.001233483, -808424.8, 3329.463, 0.0, 5.0176983, 4.9579215 
5.341126e+2, 2.2212546e+2, -772365.4, -863859.75, -21583.51, 0.00011586754, 0.001546483, -767529.44, -4358.814, 0.0, 5.0153203, 4.9566813 
5.340434e+2, 2.2708228e+2, -730075.56, -818211.25, -21617.387, 0.00012680054, -0.0012341664, -725058.94, -10465.034, 0.0, 5.0129423, 4.956512 
5.3397447e+2, 2.3203832e+2, -689290.8, -775887.7, -21195.102, 0.00019435973, 0.0015922049, -684381.5, -18356.887, 0.0, 5.010563, 4.9551706 
5.339059e+2, 2.3699364e+2, -646804.5, -729939.5, -21176.867, 0.00019229649, -0.0015398759, -641721.0, -24258.516, 0.0, 5.008193, 4.955066 
5.338379e+2, 2.419482e+2, -606077.1, -687843.4, -20358.572, 0.00013924661, 0.001789454, -601288.6, -32380.777, 0.0, 5.005814, 4.9535995 
5.337705e+2, 2.4690199e+2, -563373.3, -641531.4, -20280.281, 0.000016444732, -0.0016219465, -558424.4, -38063.867, 0.0, 5.003449, 4.953584 
5.3370386e+2, 2.5185496e+2, -522797.38, -599903.75, -19080.803, 0.000006400219, 0.001723051, -518334.0, -46512.473, 0.0, 5.0010743, 4.9519105 
5.336382e+2, 2.568072e+2, -479695.47, -552847.5, -18931.375, 0.000021279091, -0.0015111192, -475086.53, -51797.17, 0.0, 4.9987197, 4.9521155 
5.3357345e+2, 2.6175854e+2, -439385.56, -511985.97, -17348.732, -0.000010781683, 0.0019083319, -435452.9, -60686.473, 0.0, 4.996356, 4.950122 
5.3350997e+2, 2.667092e+2, -395766.5, -463969.8, -17105.818, -0.000037618545, -0.0013905287, -391716.72, -65466.61, 0.0, 4.9940243, 4.9506197 
5.3344756e+2, 2.7165878e+2, -355764.0, -424017.0, -15164.98, 0.000047681686, 0.0019411944, -352546.25, -74802.08, 0.0, 4.991678, 4.948246 
5.333868e+2, 2.7660775e+2, -311647.72, -375030.7, -14807.375, 0.00015691546, -0.001654189, -308359.1, -79114.98, 0.0, 4.9893613, 4.949045 
5.3332734e+2, 2.8155568e+2, -271764.13, -335545.97, -12516.2705, 0.00017246648, 0.0023941726, -269395.94, -88641.54, 0.0, 4.9870276, 4.9464526 
5.332699e+2, 2.8650302e+2, -227201.34, -285734.38, -12007.966, 0.0002463524, -0.0023583923, -224833.7, -92563.07, 0.0, 4.9847336, 4.947501 
5.332138e+2, 2.914487e+2, -188992.03, -250371.67, -9427.385, 0.0002553955, 0.001895077, -187576.7, -103773.76, 0.0, 4.9824247, 4.943386 
5.331601e+2, 2.9639322e+2, -144265.31, -200373.8, -8734.111, 0.00016710901, -0.00021565372, -142937.17, -107590.51, 0.0, 4.980151, 4.9444566 
5.331077e+2, 3.0134532e+2, -107203.0, -135258.53, -6191.437, 0.000010525983, 0.0022521245, -105897.41, -105897.41, 0.0, 4.9778624, 4.959912 
5.330584e+2, 3.0630612e+2, -111583.16, -133727.0, -5284.6035, 0.000042897194, -0.005323575, -110386.65, -110386.65, 0.0, 4.975622, 4.9614244 
5.330107e+2, 3.1128508e+2, -76663.21, -41261.168, -2362.6714, 0.000033899247, 0.0039651976, -41104.18, -41104.18, 0.0, 4.9733763, 4.996185 
5.3296715e+2, 3.162827e+2, -80224.86, -38137.582, -1130.4662, 0.00006583588, -0.00045476868, -38107.24, -38107.24, 0.0, 4.9711847, 4.9982767 
5.404073e+2, 1.2289296e+2, -1598428.3, -1738126.5, -1133.1224, -0.0006810605, -0.000090919115, -1598419.0, 137230.05, 0.0, 5.061827, 4.970178 
5.403594e+2, 1.278628e+2, -1557826.9, -1696135.6, -1812.5977, 0.003570735, 0.0010086682, -1557803.1, 129141.625, 0.0, 5.0596566, 4.9690175 
5.403077e+2, 1.32831e+2, -1516070.0, -1651862.0, -5690.854, -0.0034336892, -0.000438293, -1515832.0, 122424.25, 0.0, 5.0574718, 4.9685397 
5.402548e+2, 1.3779953e+2, -1474927.1, -1608368.6, -6136.0825, 0.0001427358, -0.0010895003, -1474645.5, 114919.13, 0.0, 5.055201, 4.9678907 
5.4019934e+2, 1.427672e+2, -1433676.3, -1564888.0, -9480.083, 0.0013002312, 0.001931724, -1432994.9, 107886.53, 0.0, 5.052943, 4.967205 
5.4014164e+2, 1.4773427e+2, -1392385.6, -1521007.5, -9882.677, -0.000099285986, -0.00086632784, -1391630.6, 100573.61, 0.0, 5.0506363, 4.966676 
5.400822e+2, 1.5270063e+2, -1351207.6, -1477616.3, -12813.286, -0.00054194184, 0.00083770085, -1349921.9, 93611.984, 0.0, 5.048348, 4.9659715 
5.40021e+2, 1.5766656e+2, -1309839.1, -1433557.6, -13174.653, 0.00003007282, -0.001146669, -1308451.8, 86416.0, 0.0, 5.0460196, 4.965481 
5.399582e+2, 1.6263182e+2, -1268726.8, -1390264.0, -15636.928, 0.00016212725, 0.0016371702, -1266747.1, 79461.12, 0.0, 5.0437074, 4.9647183 
5.3989387e+2, 1.6759647e+2, -1227195.1, -1345873.1, -15938.697, -0.00007438831, -0.0009951559, -1225091.8, 72462.984, 0.0, 5.0413632, 4.9643116 
5.3982824e+2, 1.7256048e+2, -1186185.3, -1302823.1, -18002.207, -0.00016863125, 0.0012444746, -1183470.0, 65437.49, 0.0, 5.0390406, 4.963434 
5.3976136e+2, 1.7752393e+2, -1144486.9, -1258152.1, -18235.998, 0.000028319355, -0.00095766544, -1141632.8, 58632.965, 0.0, 5.036694, 4.9630904 
5.396934e+2, 1.8248668e+2, -1103641.3, -1215476.9, -19869.975, 0.00010963949, 0.0015792326, -1100215.8, 51415.055, 0.0, 5.03436, 4.9620576 
5.396245e+2, 1.8744874e+2, -1061824.8, -1170572.5, -20079.328, 0.00015091796, -0.0009907829, -1058235.8, 44766.87, 0.0, 5.031998, 4.9617653 
5.3955483e+2, 1.924102e+2, -1020893.56, -1127681.3, -21297.818, 0.00009637956, 0.0016608313, -1016802.6, 37577.695, 0.0, 5.02964, 4.960774 
5.3948444e+2, 1.9737102e+2, -979022.56, -1082645.5, -21485.252, 0.000052714477, -0.00097345456, -974744.44, 31019.969, 0.0, 5.027257, 4.9605017 
5.394136e+2, 2.0233119e+2, -938111.1, -1039793.44, -22286.18, 0.000043952405, 0.0016663445, -933441.06, 23713.56, 0.0, 5.024881, 4.9594684 
5.393423e+2, 2.072907e+2, -896147.8, -994632.0, -22430.926, 0.0000298052, -0.0010872538, -891279.56, 17271.96, 0.0, 5.022495, 4.959206 
5.3927076e+2, 2.1224955e+2, -855259.06, -951892.4, -22833.727, 0.000041490766, 0.0016465137, -850135.3, 9819.38, 0.0, 5.0201144, 4.9580913 
5.391991e+2, 2.172077e+2, -813137.6, -906484.75, -22932.459, 0.000045452318, -0.0011940355, -807808.1, 3556.5796, 0.0, 5.0177293, 4.957878 
5.3912747e+2, 2.221652e+2, -772282.8, -863893.9, -22941.121, 0.000101732534, 0.001594789, -766859.0, -4077.6895, 0.0, 5.0153465, 4.9566717 
5.390558e+2, 2.2712198e+2, -730006.8, -818257.44, -22999.303, 0.00009589149, -0.0012114552, -724372.6, -10167.86, 0.0, 5.0129647, 4.9565005 
5.3898454e+2, 2.3207802e+2, -689188.44, -775837.1, -22596.746, 0.00015807313, 0.001594838, -683649.56, -18014.088, 0.0, 5.010581, 4.9551945 
5.3891367e+2, 2.3703337e+2, -646716.4, -729896.7, -22603.453, 0.00013156388, -0.001569397, -640970.94, -23897.846, 0.0, 5.0082064, 4.95509 
5.388433e+2, 2.4198796e+2, -605958.1, -687709.25, -21807.215, 0.000098055985, 0.0017663473, -600504.8, -31986.707, 0.0, 5.0058227, 4.9536567 
5.3877354e+2, 2.4694183e+2, -563261.94, -641399.5, -21752.55, 0.00003334308, -0.001582859, -557614.5, -37644.336, 0.0, 5.0034547, 4.9536424 
5.387045e+2, 2.5189486e+2, -522654.9, -599685.2, -20568.475, 0.000055489956, 0.0018039901, -517506.8, -46076.37, 0.0, 5.001077, 4.952 
5.3863645e+2, 2.5684723e+2, -479556.78, -552627.44, -20442.602, 0.00003762561, -0.0014435896, -474226.5, -51329.047, 0.0, 4.9987206, 4.9522066 
5.3856933e+2, 2.6179865e+2, -439207.0, -511656.44, -18865.732, -0.000030978605, 0.0019292668, -434588.78, -60215.266, 0.0, 4.9963536, 4.950252 
5.385035e+2, 2.667494e+2, -395594.6, -463636.97, -18646.06, -0.000060688177, -0.0014511395, -390819.97, -64964.098, 0.0, 4.9940186, 4.950753 
5.3843886e+2, 2.7169916e+2, -355563.34, -423596.88, -16714.629, 0.000033305118, 0.0019024303, -351678.66, -74330.234, 0.0, 4.9916687, 4.9484115 
5.3837585e+2, 2.7664834e+2, -311450.75, -374609.1, -16380.241, 0.00021770013, -0.0015072813, -307455.25, -78608.64, 0.0, 4.98935, 4.949212 
5.3831404e+2, 2.8159642e+2, -271540.1, -335045.9, -14092.63, 0.0002697341, 0.0026149852, -268553.25, -88198.16, 0.0, 4.987014, 4.9466476 
5.382543e+2, 2.8654397e+2, -226982.03, -285234.6, -13601.229, 0.00026210758, -0.0022166595, -223962.8, -92093.31, 0.0, 4.9847183, 4.9476976 
5.381959e+2, 2.9148987e+2, -188679.97, -249640.11, -11022.475, 0.00021364698, 0.0019834393, -186748.17, -103348.59, 0.0, 4.9824066, 4.9436655 
5.3813994e+2, 2.9643467e+2, -143941.94, -199599.22, -10346.812, 0.00013708514, -0.00016191526, -142080.69, -107140.31, 0.0, 4.98013, 4.944753 
5.380854e+2, 3.0138704e+2, -106881.98, -134464.5, -7798.961, 0.0000030646834, 0.0023014129, -104829.54, -104829.54, 0.0, 4.977837, 4.9602194 
5.380337e+2, 3.063482e+2, -111272.27, -132938.95, -6900.8755, 0.000088056026, -0.0052012946, -109261.03, -109261.03, 0.0, 4.975594, 4.9617305 
5.3798395e+2, 3.1132746e+2, -76388.125, -40537.97, -3950.7588, -0.000014913351, 0.0039962563, -40107.75, -40107.75, 0.0, 4.9733443, 4.996474 
5.379381e+2, 3.163253e+2, -79992.555, -37463.68, -2727.5308, -0.00017512937, -0.00058146793, -37289.465, -37289.465, 0.0, 4.9711432, 4.9985514 
5.4547006e+2, 1.229396e+2, -1592919.3, -1736288.4, -148.85898, -0.0006204444, 0.00011238934, -1592919.1, 142272.92, 0.0, 5.063897, 4.9697733 
5.454197e+2, 1.2790884e+2, -1552588.0, -1694341.6, -752.03577, 0.0021274986, -0.0008047353, -1552584.0, 133909.42, 0.0, 5.061617, 4.968655 
5.4536605e+2, 1.3287702e+2, -1511108.0, -1650154.5, -4693.3506, -0.0020221588, 0.0012425777, -1510949.8, 126855.53, 0.0, 5.0593247, 4.968205 
5.453106e+2, 1.37845e+2, -1470285.5, -1606838.0, -5130.6626, 0.00008150047, -0.0011447382, -1470093.0, 119026.125, 0.0, 5.0569496, 4.9675517 
5.452528e+2, 1.4281228e+2, -1429246.6, -1563336.3, -8488.984, 0.0007603627, 0.0012561912, -1428711.3, 111728.42, 0.0, 5.0545907, 4.966926 
5.4519284e+2, 1.4777908e+2, -1388263.3, -1519623.9, -8879.011, -0.00006770967, -0.0008759218, -1387665.9, 104099.26, 0.0, 5.052183, 4.966393 
5.4513097e+2, 1.5274519e+2, -1347298.6, -1476240.3, -11809.151, -0.00030639104, 0.0010613238, -1346226.0, 96871.33, 0.0, 5.0497994, 4.965735 
5.4506737e+2, 1.5771082e+2, -1306214.0, -1432337.1, -12155.187, 0.00006124609, -0.0011794814, -1305053.3, 89380.89, 0.0, 5.047378, 4.9652395 
5.450022e+2, 1.6267581e+2, -1265322.9, -1389063.6, -14618.382, 0.0001123296, 0.0015200172, -1263619.4, 82157.78, 0.0, 5.04497, 4.964519 
5.449354e+2, 1.6764024e+2, -1224093.6, -1344833.5, -14911.495, -0.000060867093, -0.0010015459, -1222279.4, 74846.48, 0.0, 5.042526, 4.964109 
5.448674e+2, 1.7260405e+2, -1183296.0, -1301770.4, -16970.701, -0.00014163926, 0.0012771101, -1180913.0, 67567.58, 0.0, 5.040105, 4.963285 
5.447981e+2, 1.775673e+2, -1141880.3, -1257242.6, -17209.018, 0.000042992167, -0.0009663642, -1139367.9, 60472.89, 0.0, 5.0376625, 4.9629397 
5.447278e+2, 1.8252991e+2, -1101188.5, -1214473.4, -18820.957, 0.000106046624, 0.0015577243, -1098143.4, 53063.816, 0.0, 5.0352397, 4.9619823 
5.4465646e+2, 1.8749185e+2, -1059609.3, -1169689.4, -18975.629, 0.0001607319, -0.0009826758, -1056430.1, 46150.023, 0.0, 5.032798, 4.961689 
5.4458433e+2, 1.9245322e+2, -1018925.25, -1126946.9, -20171.422, 0.00010670433, 0.0016632924, -1015281.44, 38677.477, 0.0, 5.03036, 4.960686 
5.4451156e+2, 1.9741389e+2, -977296.1, -1082040.8, -20333.055, 0.00005395023, -0.0009844634, -973487.5, 31856.678, 0.0, 5.0278964, 4.960409 
5.4443824e+2, 2.0237397e+2, -936588.5, -1039223.8, -21123.78, 0.000058069352, 0.0016532263, -932410.94, 24324.531, 0.0, 5.025437, 4.959404 
5.443645e+2, 2.0733336e+2, -894896.8, -994201.4, -21248.691, 0.000047361347, -0.001102864, -890541.2, 17592.248, 0.0, 5.0229583, 4.959138 
5.442906e+2, 2.1229213e+2, -854213.4, -951466.7, -21630.877, 0.000060176873, 0.0016348563, -849619.3, 9918.107, 0.0, 5.020488, 4.958064 
5.4421645e+2, 2.1725021e+2, -812351.2, -906188.06, -21706.418, 0.00002736257, -0.0012140146, -807573.3, 3374.7651, 0.0, 5.018014, 4.957848 
5.4414237e+2, 2.2220765e+2, -771701.0, -863613.56, -21691.01, 0.00007088335, 0.0015657143, -766839.1, -4473.977, 0.0, 5.0155435, 4.9566765 
5.4406834e+2, 2.2716442e+2, -729678.44, -818101.2, -21728.916, 0.000052660842, -0.0012772856, -724627.3, -10838.4, 0.0, 5.0130744, 4.956503 
5.4399467e+2, 2.3212044e+2, -689071.4, -775698.56, -21302.611, 0.00013437412, 0.0015258563, -684116.25, -18896.445, 0.0, 5.0106006, 4.955231 
5.4392135e+2, 2.3707578e+2, -646866.2, -729883.25, -21292.432, 0.00012964178, -0.0016128897, -641723.6, -25066.145, 0.0, 5.0081325, 4.9551263 
5.438485e+2, 2.420304e+2, -606328.1, -687717.3, -20471.75, 0.00011101519, 0.0017520125, -601468.94, -33366.695, 0.0, 5.005656, 4.953727 
5.437764e+2, 2.469843e+2, -563892.1, -641524.7, -20400.895, 0.000027883814, -0.0015754212, -558857.5, -39303.492, 0.0, 5.003196, 4.9537125 
5.437049e+2, 2.519374e+2, -523502.5, -599825.06, -19187.31, 0.000045855835, 0.0018094294, -518950.34, -47936.535, 0.0, 5.0007253, 4.952106 
5.4363453e+2, 2.568898e+2, -480657.7, -552876.5, -19044.744, 0.00002998539, -0.0014868557, -475943.2, -53463.023, 0.0, 4.998278, 4.952314 
5.43565e+2, 2.618413e+2, -440535.16, -511924.4, -17435.51, -0.000017725017, 0.0018797566, -436504.4, -62549.03, 0.0, 4.995815, 4.9503946 
5.4349685e+2, 2.667922e+2, -397198.5, -464022.47, -17206.557, 0.000023200007, -0.001438799, -393028.22, -67591.61, 0.0, 4.9933796, 4.950897 
5.4342973e+2, 2.7174208e+2, -357406.7, -424003.63, -15243.177, 0.00011432197, 0.0019574298, -354083.56, -77155.6, 0.0, 4.9909296, 4.9485903 
5.433644e+2, 2.7669138e+2, -313559.06, -375126.8, -14900.794, 0.00023022718, -0.0014532055, -310142.34, -81717.54, 0.0, 4.9885144, 4.949393 
5.4330015e+2, 2.8163964e+2, -273884.9, -335586.47, -12579.297, 0.0002527656, 0.0026526477, -271418.88, -91487.086, 0.0, 4.986079, 4.9468613 
5.4323816e+2, 2.8658733e+2, -229597.98, -285886.22, -12076.756, 0.00023659115, -0.0021640821, -227116.31, -95671.93, 0.0, 4.9836845, 4.9479127 
5.431774e+2, 2.9153347e+2, -191490.6, -250176.22, -9466.51, 0.00018910035, 0.002058854, -190001.34, -107029.0, 0.0, 4.9812665, 4.943965 
5.431191e+2, 2.9647854e+2, -147038.05, -200216.11, -8787.125, 0.00015651398, -0.00009395887, -145623.69, -111113.22, 0.0, 4.9788785, 4.9450693 
5.430622e+2, 3.014312e+2, -110260.57, -135158.3, -6236.0938, 0.00006069528, 0.0023649356, -108785.96, -108785.96, 0.0, 4.9764724, 4.9605527 
5.430083e+2, 3.0639264e+2, -114949.35, -133759.95, -5325.65, 0.00014653339, -0.005117667, -113546.22, -113546.22, 0.0, 4.9741225, 4.9620647 
5.4295623e+2, 3.1137216e+2, -80383.74, -41521.65, -2396.7737, -0.00005227268, 0.003945479, -41374.387, -41374.387, 0.0, 4.971757, 4.9967904 
5.4290813e+2, 3.163703e+2, -84305.16, -38613.535, -1180.7914, -0.00019126033, -0.0008532372, -38583.043, -38583.043, 0.0, 4.969448, 4.998853 
5.505337e+2, 1.2298777e+2, -1592782.3, -1737238.0, -1049.587, -0.00046010662, 0.00032281075, -1592774.6, 141945.23, 0.0, 5.0641527, 4.9693427 
5.5048096e+2, 1.2795644e+2, -1552472.6, -1695201.5, -1593.6636, 0.00086021994, -0.0023839322, -1552454.9, 133572.1, 0.0, 5.061843, 4.9682684 
5.504252e+2, 1.3292456e+2, -1510999.1, -1650944.6, -5611.026, -0.00071135664, 0.0028428675, -1510774.5, 126564.83, 0.0, 5.0595307, 4.9678516 
5.5036724e+2, 1.3789201e+2, -1470219.8, -1607659.3, -6057.3545, 0.000039560666, -0.0011651122, -1469953.3, 118705.1, 0.0, 5.0571423, 4.9671946 
5.5030704e+2, 1.4285891e+2, -1429130.8, -1564000.9, -9455.29, 0.000298291, 0.0006789848, -1428471.1, 111511.766, 0.0, 5.0547705, 4.966628 
5.502447e+2, 1.4782545e+2, -1388195.6, -1520321.1, -9861.109, -0.000012334646, -0.0008214767, -1387463.8, 103846.93, 0.0, 5.0523477, 4.966091 
5.5018044e+2, 1.5279129e+2, -1347195.4, -1476809.9, -12824.452, -0.00007444197, 0.0013264087, -1345938.6, 96706.82, 0.0, 5.0499516, 4.9654827 
5.501144e+2, 1.5775664e+2, -1306152.9, -1432938.1, -13190.156, 0.000100060606, -0.0011656561, -1304795.1, 89190.016, 0.0, 5.0475173, 4.964983 
5.500467e+2, 1.627214e+2, -1265229.5, -1389558.3, -15690.145, 0.00007632947, 0.0014574749, -1263280.0, 82050.664, 0.0, 5.0450997, 4.964303 
5.4997754e+2, 1.676856e+2, -1224029.3, -1345352.1, -16004.921, -0.000039516286, -0.0009520105, -1221953.5, 74727.984, 0.0, 5.042647, 4.963889 
5.49907e+2, 1.726492e+2, -1183197.9, -1302162.3, -18087.885, -0.00011483328, 0.0013658211, -1180508.5, 67529.57, 0.0, 5.0402136, 4.9631143 
5.4983526e+2, 1.7761227e+2, -1141833.4, -1257662.5, -18351.82, 0.000056489425, -0.00092338264, -1138995.3, 60404.848, 0.0, 5.037754, 4.9627676 
5.497625e+2, 1.8257473e+2, -1101062.4, -1214651.1, -20001.385, 0.0001004208, 0.0015862256, -1097643.3, 53124.586, 0.0, 5.035315, 4.9619 
5.496887e+2, 1.8753661e+2, -1059531.1, -1169894.0, -20201.39, 0.00016221983, -0.00093087665, -1055949.6, 46192.016, 0.0, 5.0328574, 4.961605 
5.496142e+2, 1.9249786e+2, -1018886.6, -1127198.8, -21442.465, 0.00010595014, 0.0017020172, -1014796.2, 38725.15, 0.0, 5.0304112, 4.960591 
5.4953885e+2, 1.9745845e+2, -977272.25, -1082313.6, -21609.008, 0.00004418347, -0.00095290644, -973000.56, 31907.055, 0.0, 5.027945, 4.960308 
5.4946315e+2, 2.0241843e+2, -936533.4, -1039427.4, -22427.756, 0.000056567045, 0.0016832218, -931857.3, 24442.498, 0.0, 5.025484, 4.959327 
5.493869e+2, 2.0737773e+2, -894846.5, -994415.25, -22569.473, 0.00005486392, -0.001075825, -889969.5, 17729.025, 0.0, 5.0230055, 4.959058 
5.4931056e+2, 2.1233644e+2, -854118.3, -951569.1, -22977.633, 0.00006595681, 0.0016642272, -848972.2, 10130.957, 0.0, 5.0205317, 4.958024 
5.492339e+2, 2.1729448e+2, -812279.1, -906309.56, -23082.229, -0.00001473398, -0.0012039078, -806918.6, 3595.6877, 0.0, 5.0180516, 4.9578047 
5.491573e+2, 2.2225189e+2, -771601.1, -863642.75, -23094.574, 0.0000133511085, 0.0015636062, -766131.44, -4199.726, 0.0, 5.0155745, 4.9566684 
5.490809e+2, 2.2720861e+2, -729600.44, -818147.4, -23160.348, -0.000014801029, -0.0013169921, -723908.5, -10552.94, 0.0, 5.013099, 4.956492 
5.4900473e+2, 2.3216465e+2, -688963.56, -775653.9, -22760.654, 0.00009448066, 0.0014877196, -683351.1, -18564.674, 0.0, 5.01062, 4.955254 
5.48929e+2, 2.3712003e+2, -646769.4, -729848.2, -22778.857, 0.0001247244, -0.0016110691, -640933.7, -24709.83, 0.0, 5.008149, 4.955147 
5.4885364e+2, 2.4207468e+2, -606197.56, -687589.9, -21980.121, 0.00011980648, 0.0017898666, -600641.1, -32972.816, 0.0, 5.005669, 4.953781 
5.487791e+2, 2.4702862e+2, -563769.56, -641401.94, -21935.592, -0.0000052350097, -0.0015323617, -558000.25, -38880.703, 0.0, 5.0032067, 4.953767 
5.487052e+2, 2.519818e+2, -523343.66, -599602.2, -20738.969, -0.0000054636416, 0.0018305501, -518068.47, -47489.78, 0.0, 5.000733, 4.952196 
5.486323e+2, 2.569343e+2, -480506.4, -552654.1, -20624.176, -0.0000058265814, -0.0015304401, -475026.94, -52982.76, 0.0, 4.998282, 4.952406 
5.485604e+2, 2.6188588e+2, -440354.03, -511615.06, -19031.16, -0.000006910086, 0.0018497368, -435590.0, -62071.69, 0.0, 4.9958153, 4.9505177 
5.4848975e+2, 2.6683694e+2, -397022.03, -463714.47, -18828.018, 0.00013499029, -0.0013448639, -392073.8, -67075.56, 0.0, 4.993379, 4.951021 
5.4842025e+2, 2.7178696e+2, -357194.13, -423597.06, -16872.69, 0.00020762246, 0.0020970767, -353152.8, -76664.61, 0.0, 4.990926, 4.9487495 
5.483524e+2, 2.767364e+2, -313352.34, -374722.22, -16553.51, 0.00018407786, -0.0014116005, -309172.06, -81188.44, 0.0, 4.9885087, 4.9495525 
5.482859e+2, 2.8168485e+2, -273647.2, -335090.66, -14239.093, 0.00014540617, 0.0026286251, -270507.78, -91018.81, 0.0, 4.9860706, 4.9470544 
5.482214e+2, 2.8663275e+2, -229367.9, -285392.06, -13757.995, 0.00016064013, -0.0021249906, -226171.67, -95172.16, 0.0, 4.9836726, 4.948107 
5.4815835e+2, 2.915791e+2, -191167.84, -249450.28, -11161.601, 0.00013941947, 0.0021657236, -189103.42, -106578.27, 0.0, 4.981252, 4.944242 
5.4809767e+2, 2.9652447e+2, -146702.36, -199452.0, -10503.02, 0.00017264482, 0.000014509717, -144688.02, -110627.54, 0.0, 4.978863, 4.945361 
5.4803836e+2, 3.0147746e+2, -109916.125, -134353.75, -7946.2183, 0.0001280123, 0.0024667268, -107559.555, -107559.555, 0.0, 4.976454, 4.9608626 
5.4798216e+2, 3.064392e+2, -114613.88, -132957.53, -7047.1167, 0.00016407216, -0.0050168713, -112219.19, -112219.19, 0.0, 4.9741, 4.962375 
5.4792774e+2, 3.11419e+2, -80093.305, -40806.68, -4101.9897, -0.00019880642, 0.0038859325, -40382.953, -40382.953, 0.0, 4.9717307, 4.997075 
5.478774e+2, 3.1641737e+2, -84055.85, -37945.664, -2892.6157, -0.00034937673, -0.0011807767, -37764.914, -37764.914, 0.0, 4.969413, 4.9991245 
5.5559886e+2, 1.2303923e+2, -1587158.8, -1735359.4, -29.353071, 0.00085667917, 0.0018255371, -1587158.8, 147056.88, 0.0, 5.0662694, 4.9689283 
5.5554354e+2, 1.2800728e+2, -1547151.1, -1693367.9, -503.85965, 0.00035466385, -0.0029749393, -1547149.4, 138379.28, 0.0, 5.063835, 4.967903 
5.554854e+2, 1.3297515e+2, -1505948.3, -1649164.3, -4558.063, -0.0002619468, 0.0034532498, -1505803.4, 131040.25, 0.0, 5.061411, 4.967528 
5.55425e+2, 1.3794215e+2, -1465476.8, -1606048.5, -4994.7188, 0.000041222153, -0.0012446147, -1465299.5, 122867.43, 0.0, 5.058922, 4.966867 
5.553622e+2, 1.4290869e+2, -1424611.1, -1562399.9, -8404.84, 0.00016854916, 0.00039461648, -1424100.4, 115394.56, 0.0, 5.0564504, 4.9663496 
5.552975e+2, 1.4787495e+2, -1383984.1, -1518885.3, -8796.539, 0.000006329625, -0.0008095012, -1383413.0, 107412.6, 0.0, 5.053926, 4.9658103 
5.5523074e+2, 1.5284051e+2, -1343197.9, -1475374.1, -11753.077, 0.0000012287961, 0.0014273387, -1342160.9, 100002.22, 0.0, 5.051432, 4.965252 
5.5516225e+2, 1.5780558e+2, -1302449.5, -1431664.0, -12101.66, 0.00012979859, -0.0011843304, -1301325.9, 92179.73, 0.0, 5.0489016, 4.964747 
5.5509204e+2, 1.6277006e+2, -1261734.9, -1388296.3, -14593.089, 0.0000857185, 0.001401031, -1260074.1, 84779.54, 0.0, 5.046392, 4.9641104 
5.5502033e+2, 1.6773404e+2, -1220808.9, -1344241.5, -14888.832, -0.000027354587, -0.0009604839, -1219038.4, 77168.37, 0.0, 5.0438495, 4.9636903 
5.549473e+2, 1.7269744e+2, -1180195.9, -1301066.4, -16961.488, -0.00011366006, 0.0013760886, -1177860.9, 69704.55, 0.0, 5.041321, 4.9629583 
5.5487305e+2, 1.7766029e+2, -1139130.3, -1256724.5, -17207.514, 0.0000663194, -0.0009278116, -1136664.0, 62265.414, 0.0, 5.038761, 4.962608 
5.5479777e+2, 1.8262261e+2, -1098580.9, -1213711.3, -18848.09, 0.000085903, 0.0015635173, -1095573.8, 54725.1, 0.0, 5.0362225, 4.96179 
5.547215e+2, 1.8758431e+2, -1057344.5, -1169109.8, -19050.271, 0.0001355962, -0.00096441474, -1054186.6, 47487.49, 0.0, 5.033666, 4.96149 
5.546444e+2, 1.9254546e+2, -1016850.1, -1126309.6, -20269.352, 0.00008213846, 0.0016727614, -1013217.3, 39837.582, 0.0, 5.0311313, 4.960555 
5.5456656e+2, 1.9750595e+2, -975480.25, -1081561.0, -20384.023, 0.000035897225, -0.00095361617, -971698.2, 32743.777, 0.0, 5.0285845, 4.960264 
5.5448836e+2, 2.0246585e+2, -934961.56, -1038774.3, -21168.492, 0.00006391047, 0.0016808033, -930811.06, 25023.895, 0.0, 5.0260463, 4.9592876 
5.544096e+2, 2.0742507e+2, -893506.3, -993882.75, -21271.672, 0.00005901818, -0.001085097, -889184.5, 18050.037, 0.0, 5.0234895, 4.9590144 
5.543307e+2, 2.1238372e+2, -852999.2, -951116.0, -21661.164, 0.00007045974, 0.0016458085, -848429.9, 10210.0625, 0.0, 5.020933, 4.9579926 
5.5425155e+2, 2.1734168e+2, -811422.8, -905988.2, -21746.236, -0.000032532374, -0.0012625571, -806661.75, 3390.0889, 0.0, 5.018363, 4.95777 
5.5417246e+2, 2.2229902e+2, -770947.75, -863318.4, -21735.771, 0.0000036695847, 0.0015108701, -766088.7, -4618.9556, 0.0, 5.0157957, 4.9566765 
5.540935e+2, 2.2725572e+2, -729216.06, -817955.7, -21779.781, -0.000009855753, -0.0013336474, -724158.75, -11264.777, 0.0, 5.0132275, 4.9564967 
5.540148e+2, 2.3221172e+2, -688794.8, -775483.2, -21350.828, 0.00010504608, 0.0014886955, -683821.56, -19496.52, 0.0, 5.010658, 4.9552927 
5.5393654e+2, 2.371671e+2, -646856.6, -729800.4, -21349.523, 0.00009948637, -0.0016298078, -641683.9, -25921.348, 0.0, 5.0080976, 4.9551835 
5.538587e+2, 2.4212176e+2, -606495.7, -687555.7, -20522.688, 0.00008745948, 0.0017688667, -601595.94, -34389.06, 0.0, 5.0055275, 4.953853 
5.5378157e+2, 2.4707575e+2, -564327.4, -641486.6, -20458.375, -0.000044853197, -0.001563359, -559238.56, -40580.707, 0.0, 5.002973, 4.9538383 
5.537052e+2, 2.5202894e+2, -524125.63, -599708.6, -19232.006, -0.000020273439, 0.001805928, -519513.5, -49396.965, 0.0, 5.000405, 4.9523015 
5.536298e+2, 2.569815e+2, -481558.1, -552880.56, -19104.336, 0.00005623932, -0.0015199898, -476763.2, -55181.813, 0.0, 4.997858, 4.952512 
5.535554e+2, 2.619332e+2, -441637.7, -511863.84, -17480.447, 0.00008891008, 0.0018832312, -437527.13, -64472.348, 0.0, 4.995294, 4.950658 
5.534823e+2, 2.6688433e+2, -398566.4, -464076.38, -17263.275, 0.00019616442, -0.00131874, -394295.6, -69761.84, 0.0, 4.9927635, 4.951162 
5.5341035e+2, 2.7183446e+2, -358960.75, -423957.1, -15271.219, 0.00019430528, 0.002099547, -355551.5, -79528.914, 0.0, 4.9902134, 4.948932 
5.5334e+2, 2.7678406e+2, -315389.6, -375196.97, -14935.569, 0.00012690284, -0.0014813524, -311867.22, -84350.53, 0.0, 4.987698, 4.949736 
5.5327106e+2, 2.8173265e+2, -275937.75, -335605.56, -12586.928, 0.00011956696, 0.0025198965, -273391.22, -94370.68, 0.0, 4.985157, 4.9472666 
5.532042e+2, 2.8668073e+2, -231954.22, -286033.25, -12099.566, 0.00021403136, -0.002155098, -229370.52, -98841.125, 0.0, 4.982652, 4.948319 
5.531386e+2, 2.916273e+2, -193946.42, -249960.4, -9472.735, 0.00018743204, 0.0021809125, -192387.83, -110334.84, 0.0, 4.9801235, 4.944545 
5.530755e+2, 2.965729e+2, -149739.6, -200034.58, -8805.948, 0.0001383792, -0.000052001793, -148242.38, -114656.62, 0.0, 4.977633, 4.945679 
5.530138e+2, 3.0152616e+2, -113226.766, -135017.94, -6252.3184, 0.00011261666, 0.002377622, -111560.3, -111560.3, 0.0, 4.9751167, 4.9611945 
5.529552e+2, 3.064882e+2, -118236.43, -133758.34, -5352.6216, 0.00022819736, -0.0049777017, -116569.61, -116569.61, 0.0, 4.9726524, 4.962706 
5.5289835e+2, 3.114683e+2, -84061.08, -41799.207, -2455.9702, -0.00022320231, 0.003962448, -41656.96, -41656.96, 0.0, 4.9701605, 4.9973803 
5.5284566e+2, 3.164669e+2, -88362.33, -39112.047, -1265.3193, -0.00024459464, -0.0011472029, -39079.56, -39079.56, 0.0, 4.9677267, 4.9994154 
5.606647e+2, 1.23092026e+2, -1586998.0, -1736237.3, -902.7883, -0.00028183177, 0.00053423765, -1586992.6, 146705.66, 0.0, 5.0665193, 4.968525 
5.606071e+2, 1.2805979e+2, -1547026.8, -1694237.1, -1384.9855, 0.00016390764, -0.0031685124, -1547013.6, 138000.56, 0.0, 5.064066, 4.9675117 
5.605465e+2, 1.3302733e+2, -1505808.1, -1649929.1, -5488.444, -0.00005000948, 0.0038015055, -1505599.4, 130732.875, 0.0, 5.0616245, 4.9671807 
5.604836e+2, 1.3799393e+2, -1465388.6, -1606845.6, -5940.0254, 0.00006283948, -0.0012628916, -1465139.6, 122519.9, 0.0, 5.0591183, 4.966517 
5.604183e+2, 1.4296013e+2, -1424483.5, -1563065.5, -9389.013, 0.00015993908, 0.00029419694, -1423850.3, 115140.6, 0.0, 5.0566344, 4.96605 
5.60351e+2, 1.4792609e+2, -1383890.0, -1519571.4, -9796.448, 0.00004414582, -0.0007423307, -1383186.4, 107138.15, 0.0, 5.0540986, 4.965509 
5.602817e+2, 1.5289137e+2, -1343062.6, -1475926.4, -12783.883, 0.000052236985, 0.0015400418, -1341843.8, 99821.0, 0.0, 5.0515933, 4.965002 
5.6021065e+2, 1.5785615e+2, -1302361.0, -1432250.6, -13153.331, 0.00017000877, -0.0011392972, -1301042.4, 91967.49, 0.0, 5.0490484, 4.964493 
5.601379e+2, 1.628204e+2, -1261617.0, -1388768.1, -15679.085, 0.0001205981, 0.0014233727, -1259712.1, 84648.16, 0.0, 5.0465264, 4.963901 
5.600637e+2, 1.6778415e+2, -1220735.4, -1344749.1, -15999.702, -0.0000104016, -0.00091893796, -1218704.5, 77011.09, 0.0, 5.043971, 4.963475 
5.599881e+2, 1.7274736e+2, -1180086.9, -1301461.4, -18107.783, -0.000118173964, 0.0014264127, -1177443.0, 69633.266, 0.0, 5.0414333, 4.962786 
5.599113e+2, 1.7771004e+2, -1139049.4, -1257148.5, -18379.623, 0.00007226345, -0.00088081224, -1136255.1, 62186.934, 0.0, 5.038867, 4.962429 
5.598334e+2, 1.8267216e+2, -1098463.8, -1214013.5, -20047.408, 0.00006451778, 0.0015934882, -1095084.4, 54728.664, 0.0, 5.0363183, 4.9616575 
5.5975455e+2, 1.8763372e+2, -1057278.3, -1169456.1, -20274.984, 0.000101044556, -0.00095413794, -1053726.3, 47463.492, 0.0, 5.033748, 4.9613495 
5.59675e+2, 1.9259478e+2, -1016696.8, -1126402.6, -21531.957, 0.00004951977, 0.0016965921, -1012622.06, 39949.418, 0.0, 5.0311985, 4.960507 
5.5959463e+2, 1.9755521e+2, -975382.2, -1081696.5, -21694.094, 0.000016000487, -0.00090244063, -971125.8, 32833.367, 0.0, 5.028636, 4.96021 
5.595138e+2, 2.0251508e+2, -934883.7, -1038908.75, -22525.037, 0.000055970933, 0.0017190503, -930215.75, 25136.932, 0.0, 5.0260878, 4.959238 
5.594325e+2, 2.0747423e+2, -893446.2, -994034.4, -22647.254, 0.000043342112, -0.0010514384, -888582.4, 18170.48, 0.0, 5.0235267, 4.9589615 
5.59351e+2, 2.124328e+2, -852935.6, -951254.94, -23069.148, 0.00005169456, 0.0016712, -847791.94, 10366.812, 0.0, 5.020969, 4.9579453 
5.592693e+2, 2.1739072e+2, -811359.8, -906134.75, -23169.732, -0.00006629711, -0.001282002, -805998.75, 3572.4424, 0.0, 5.0183997, 4.95772 
5.591877e+2, 2.2234803e+2, -770832.7, -863345.9, -23185.492, -0.000016043723, 0.0014988864, -765347.25, -4357.826, 0.0, 5.015831, 4.956668 
5.591061e+2, 2.2730471e+2, -729115.9, -817999.7, -23264.365, -0.000007901551, -0.0012910389, -723394.9, -10981.128, 0.0, 5.0132594, 4.956485 
5.590249e+2, 2.3226075e+2, -688663.94, -775435.5, -22861.777, 0.000105219246, 0.0015532363, -683009.06, -19164.242, 0.0, 5.010685, 4.955314 
5.58944e+2, 2.3721611e+2, -646745.06, -729768.7, -22892.145, 0.000042960648, -0.0016051689, -640851.4, -25569.195, 0.0, 5.008119, 4.9552026 
5.5886364e+2, 2.4217081e+2, -606352.4, -687428.25, -22091.445, 0.000019984247, 0.0017796634, -600723.7, -33997.52, 0.0, 5.0055447, 4.953907 
5.5878395e+2, 2.4712485e+2, -564194.4, -641366.75, -22058.268, -0.000104038736, -0.0015696266, -558334.4, -40157.742, 0.0, 5.002987, 4.9538913 
5.5870503e+2, 2.5207812e+2, -523961.2, -599501.4, -20855.451, -0.00003809596, 0.001815932, -518585.84, -48951.17, 0.0, 5.000416, 4.9523864 
5.586271e+2, 2.5703076e+2, -481399.88, -552678.7, -20758.908, 0.00013734397, -0.0014350491, -475794.88, -54696.24, 0.0, 4.997867, 4.9525957 
5.585502e+2, 2.6198256e+2, -441444.6, -511566.56, -19151.951, 0.00019492072, 0.001990533, -436554.75, -63983.69, 0.0, 4.9953003, 4.950776 
5.5847454e+2, 2.669338e+2, -398380.56, -463782.56, -18961.867, 0.00020578403, -0.0012836466, -393280.7, -69231.695, 0.0, 4.992768, 4.95128 
5.5840003e+2, 2.7188405e+2, -358731.25, -423542.72, -16984.508, 0.0001016565, 0.0020763397, -354550.03, -79013.555, 0.0, 4.9902134, 4.9490943 
5.5832726e+2, 2.7683383e+2, -315170.13, -374786.94, -16676.594, 0.000035909405, -0.0015675181, -310822.28, -83793.36, 0.0, 4.9876947, 4.9498987 
5.5825573e+2, 2.8178257e+2, -275699.53, -335131.4, -14344.448, 0.00010577388, 0.002407548, -272418.5, -93887.43, 0.0, 4.9851503, 4.9474525 
5.5818635e+2, 2.8673083e+2, -231722.61, -285566.94, -13881.655, 0.00031045586, -0.0021892195, -228354.45, -98316.38, 0.0, 4.9826446, 4.948503 
5.5811834e+2, 2.9167765e+2, -193606.63, -249232.39, -11265.616, 0.0002611855, 0.002168471, -191411.66, -109852.18, 0.0, 4.980114, 4.944822 
5.5805266e+2, 2.9662353e+2, -149388.95, -199271.5, -10619.921, 0.000041025905, -0.0002033939, -147222.11, -114132.59, 0.0, 4.977622, 4.9459705 
5.579886e+2, 3.015771e+2, -112884.03, -134248.92, -8071.2676, 0.000006279855, 0.0021928435, -110177.67, -110177.67, 0.0, 4.9751015, 4.9614916 
5.579275e+2, 3.0653942e+2, -117907.41, -133001.84, -7183.906, 0.00026843668, -0.004943393, -115034.98, -115034.98, 0.0, 4.972634, 4.9629993 
5.5786824e+2, 3.1151983e+2, -83782.7, -41151.04, -4283.3525, -0.00024407107, 0.0041897744, -40724.934, -40724.934, 0.0, 4.970139, 4.9976406 
5.578131e+2, 3.165187e+2, -88120.05, -38508.89, -3094.115, -0.00017895315, -0.00077344326, -38316.664, -38316.664, 0.0, 4.967698, 4.9996624 
5.6573206e+2, 1.2314828e+2, -1581269.6, -1734202.1, 205.52312, -0.00021558155, 0.00056406844, -1581269.3, 151877.73, 0.0, 5.068653, 4.9681535 
5.6567186e+2, 1.2811561e+2, -1541628.1, -1692365.5, -284.52505, 0.00020861426, -0.0031593891, -1541627.6, 142839.45, 0.0, 5.0660877, 4.9671445 
5.6560874e+2, 1.3308278e+2, -1500657.0, -1648072.4, -4404.8394, -0.00012427632, 0.0037851785, -1500525.5, 135263.4, 0.0, 5.0635366, 4.9668665 
5.655433e+2, 1.3804902e+2, -1460561.9, -1605161.9, -4841.371, 0.00002824217, -0.0012933075, -1460400.0, 126719.72, 0.0, 5.0609226, 4.9662013 
5.654754e+2, 1.4301488e+2, -1419883.8, -1561396.8, -8284.694, 0.0001924498, 0.00026080187, -1419400.5, 119053.86, 0.0, 5.0583386, 4.965782 
5.654055e+2, 1.4798053e+2, -1379586.8, -1518063.5, -8672.086, 0.000069773174, -0.0007611073, -1379045.8, 110745.23, 0.0, 5.055705, 4.9652376 
5.653336e+2, 1.5294553e+2, -1338977.8, -1474429.4, -11650.125, 0.00006931829, 0.0015399131, -1337983.0, 103151.11, 0.0, 5.053103, 4.9647775 
5.6525993e+2, 1.5791003e+2, -1298579.3, -1430920.0, -11998.469, 0.00019616485, -0.0011326888, -1297500.3, 94981.65, 0.0, 5.0504584, 4.964263 
5.6518465e+2, 1.6287404e+2, -1258047.4, -1387441.1, -14509.425, 0.00014990615, 0.0014163401, -1256440.4, 87394.32, 0.0, 5.047841, 4.9637184 
5.651077e+2, 1.6783756e+2, -1217453.4, -1343584.1, -14806.549, 0.0000033576296, -0.0009602, -1215738.6, 79453.71, 0.0, 5.045192, 4.963286 
5.6502956e+2, 1.7280054e+2, -1177012.5, -1300304.6, -16892.865, -0.00013102042, 0.0013708993, -1174739.9, 71815.18, 0.0, 5.0425625, 4.96264 
5.649501e+2, 1.7776302e+2, -1136246.6, -1256144.9, -17139.102, 0.00004727664, -0.00092981016, -1133844.8, 64078.02, 0.0, 5.0399075, 4.962275 
5.6486964e+2, 1.8272498e+2, -1095870.3, -1213021.5, -18788.748, 0.000019505209, 0.0015551675, -1092930.6, 56364.85, 0.0, 5.0372667, 4.961545 
5.6478816e+2, 1.8768638e+2, -1054976.8, -1168630.1, -18990.092, 0.00008101425, -0.00097241777, -1051887.8, 48786.105, 0.0, 5.0346017, 4.961227 
5.647059e+2, 1.926473e+2, -1014617.1, -1125585.8, -20236.822, 0.000033890617, 0.0016669027, -1011041.8, 41015.12, 0.0, 5.0319543, 4.9604287 
5.6462294e+2, 1.9760759e+2, -973602.4, -1081041.6, -20400.262, -0.000015846561, -0.0009542943, -969859.25, 33586.71, 0.0, 5.0292926, 4.960124 
5.645395e+2, 2.0256735e+2, -933263.6, -1038156.2, -21207.438, 0.000034322737, 0.0016587753, -929138.1, 25702.207, 0.0, 5.026653, 4.95923 
5.644556e+2, 2.0752645e+2, -892075.25, -993410.75, -21285.768, 0.00004148266, -0.0010981872, -887785.75, 18455.389, 0.0, 5.0240073, 4.958949 
5.643715e+2, 2.1248497e+2, -851764.0, -950681.6, -21665.453, 0.00006926568, 0.0016401125, -847226.8, 10420.649, 0.0, 5.0213714, 4.957953 
5.6428725e+2, 2.1744284e+2, -810412.3, -905676.2, -21714.523, -0.000049482787, -0.0012902763, -805696.1, 3364.1504, 0.0, 5.018726, 4.957724 
5.6420296e+2, 2.2240011e+2, -770117.7, -862999.1, -21700.303, -0.000008875388, 0.0015052906, -765297.9, -4818.9, 0.0, 5.0160766, 4.956671 
5.641188e+2, 2.2735676e+2, -728653.5, -817783.94, -21762.416, -0.000027007556, -0.0012971214, -723623.75, -11719.889, 0.0, 5.013419, 4.9564824 
5.6403494e+2, 2.3231274e+2, -688400.56, -775212.2, -21336.102, 0.000077417884, 0.0015532224, -683440.1, -20104.977, 0.0, 5.0107555, 4.955355 
5.6395143e+2, 2.372681e+2, -646754.06, -729676.94, -21345.156, 0.000009276266, -0.0016080828, -641582.2, -26809.555, 0.0, 5.0080953, 4.9552407 
5.6386846e+2, 2.4222282e+2, -606584.56, -687358.5, -20512.023, 0.000019518466, 0.0017900952, -601674.2, -35457.605, 0.0, 5.0054264, 4.9539795 
5.637862e+2, 2.4717687e+2, -564691.3, -641421.2, -20460.307, -0.00007023142, -0.0015460425, -559576.44, -41909.645, 0.0, 5.002776, 4.9539623 
5.637047e+2, 2.5213018e+2, -524681.06, -599578.06, -19226.555, -0.0000062960776, 0.0018441976, -520033.84, -50909.336, 0.0, 5.0001116, 4.9524903 
5.636242e+2, 2.5708288e+2, -482378.9, -552874.06, -19114.182, 0.00013914933, -0.0014181487, -477529.8, -56941.83, 0.0, 4.9974713, 4.9526987 
5.6354463e+2, 2.6203477e+2, -442645.56, -511771.88, -17474.918, 0.00018775497, 0.001995312, -438479.1, -66419.37, 0.0, 4.994809, 4.9509163 
5.634664e+2, 2.6698607e+2, -399852.1, -464107.25, -17267.746, 0.00019969151, -0.0013020152, -395505.63, -71968.83, 0.0, 4.99218, 4.9514203 
5.6338936e+2, 2.7193645e+2, -360442.34, -423875.72, -15260.959, 0.00006813586, 0.002078391, -356961.78, -81938.586, 0.0, 4.9895225, 4.9492755 
5.63314e+2, 2.768863e+2, -317175.1, -375248.22, -14944.886, 0.000025037643, -0.0015052233, -313554.78, -87040.46, 0.0, 4.986898, 4.9500794 
5.6323993e+2, 2.8183523e+2, -277958.84, -335626.97, -12579.172, 0.00012885104, 0.0024819202, -275334.38, -97319.34, 0.0, 4.9842496, 4.9476647 
5.6316805e+2, 2.8678367e+2, -234257.13, -286181.63, -12104.544, 0.0003144616, -0.0021640372, -231573.98, -102053.44, 0.0, 4.981644, 4.9487147 
5.630974e+2, 2.9173064e+2, -196310.92, -249683.88, -9451.151, 0.00023897887, 0.0021508536, -194686.75, -113646.766, 0.0, 4.9790096, 4.945134 
5.630292e+2, 2.966768e+2, -152359.48, -199803.28, -8791.469, 0.000033407196, -0.0002788184, -150782.8, -118215.445, 0.0, 4.9764147, 4.9462957 
5.629626e+2, 3.0163065e+2, -116140.56, -134896.05, -6249.043, 0.00006360679, 0.0020949063, -114249.2, -114249.2, 0.0, 4.973788, 4.961818 
5.6289905e+2, 3.0659327e+2, -121474.17, -133793.06, -5357.433, 0.00040612125, -0.004949891, -119470.234, -119470.234, 0.0, 4.9712124, 4.963321 
5.6283724e+2, 3.1157392e+2, -87698.01, -42148.906, -2513.7415, -0.00014846234, 0.0042029517, -42010.598, -42010.598, 0.0, 4.968597, 4.9979305 
5.6277966e+2, 3.16573e+2, -92357.45, -39673.26, -1336.6458, 0.000053380336, -0.0010041984, -39639.37, -39639.37, 0.0, 4.9660473, 4.9999385 
5.708004e+2, 1.2320626e+2, -1581090.3, -1735065.8, -669.5158, 0.0002589469, 0.0011015268, -1581087.3, 151491.48, 0.0, 5.0689073, 4.967753 
5.707376e+2, 1.2817314e+2, -1541499.0, -1693241.0, -1183.5127, 0.00034705267, -0.0030192798, -1541489.8, 142413.56, 0.0, 5.066321, 4.9667506 
5.7067186e+2, 1.3313991e+2, -1500488.1, -1648804.8, -5340.5835, -0.00023423528, 0.0037569313, -1500296.0, 134932.97, 0.0, 5.0637546, 4.9665284 
5.706038e+2, 1.3810582e+2, -1460429.1, -1605910.8, -5801.7417, 0.0000123492055, -0.0012379094, -1460198.1, 126365.086, 0.0, 5.061127, 4.965864 
5.705333e+2, 1.4307135e+2, -1419719.6, -1562027.6, -9276.11, 0.00026257767, 0.00033570587, -1419117.5, 118783.44, 0.0, 5.0585303, 4.9654913 
5.7046074e+2, 1.4803669e+2, -1379468.6, -1518725.3, -9684.507, 0.0001080664, -0.00071680744, -1378798.4, 110442.3, 0.0, 5.055882, 4.964944 
5.703862e+2, 1.530014e+2, -1338823.8, -1474964.5, -12696.01, 0.0000912876, 0.0015905839, -1337649.9, 102936.664, 0.0, 5.053267, 4.964533 
5.703099e+2, 1.5796565e+2, -1298470.0, -1431490.4, -13066.534, 0.00023391201, -0.0010650698, -1297198.6, 94738.19, 0.0, 5.0506096, 4.9640126 
5.7023185e+2, 1.6292942e+2, -1257900.4, -1387885.6, -15611.494, 0.00018479949, 0.0014762159, -1256051.8, 87240.28, 0.0, 5.0479813, 4.9635167 
5.701524e+2, 1.678927e+2, -1217347.3, -1344064.0, -15937.58, 0.000012619583, -0.0009360855, -1215373.5, 79278.23, 0.0, 5.04532, 4.9630775 
5.700715e+2, 1.728555e+2, -1176875.9, -1300674.5, -18056.783, -0.0001460632, 0.001378255, -1174296.0, 71720.41, 0.0, 5.0426803, 4.9624743 
5.699894e+2, 1.7781779e+2, -1136151.3, -1256550.5, -18332.625, 0.000022954517, -0.00092188787, -1133421.8, 63964.14, 0.0, 5.040014, 4.9621034 
5.6990623e+2, 1.827796e+2, -1095741.9, -1213323.9, -20020.717, -0.000026379843, 0.0015742482, -1092426.5, 56333.707, 0.0, 5.0373654, 4.961412 
5.698221e+2, 1.8774086e+2, -1054878.5, -1168968.6, -20249.857, 0.000059903483, -0.00092965784, -1051391.0, 48748.965, 0.0, 5.0346937, 4.961085 
5.697372e+2, 1.9270162e+2, -1014491.44, -1125832.1, -21527.283, 0.000013731056, 0.0016841874, -1010474.1, 41050.207, 0.0, 5.032039, 4.960322 
5.6965154e+2, 1.9766182e+2, -973512.94, -1081320.8, -21715.264, -0.000058544498, -0.00096858654, -969303.25, 33611.293, 0.0, 5.0293674, 4.960011 
5.695655e+2, 2.0262149e+2, -933091.6, -1038199.7, -22557.6, -0.0000039104166, 0.0016456369, -928455.0, 25854.707, 0.0, 5.0267158, 4.9592032 
5.694789e+2, 2.0758055e+2, -891948.75, -993481.5, -22685.057, 0.000023491193, -0.0010980366, -887110.9, 18599.963, 0.0, 5.0240555, 4.95892 
5.693922e+2, 2.1253906e+2, -851633.4, -950693.3, -23113.582, 0.000074315314, 0.0016496702, -846505.7, 10611.662, 0.0, 5.021409, 4.9579496 
5.6930524e+2, 2.1749693e+2, -810306.1, -905706.44, -23199.193, -0.00004301009, -0.0012414659, -804963.75, 3566.519, 0.0, 5.0187564, 4.957718 
5.6921834e+2, 2.2245419e+2, -770033.56, -863063.44, -23220.943, -0.000024048117, 0.0015700841, -764559.5, -4610.4556, 0.0, 5.0161037, 4.956655 
5.6913155e+2, 2.274108e+2, -728574.5, -817866.5, -23299.342, -0.000080286285, -0.001270627, -722860.56, -11486.27, 0.0, 5.0134478, 4.9564595 
5.69045e+2, 2.3236679e+2, -688266.25, -775172.06, -22899.506, 0.000013425888, 0.001581446, -682601.5, -19795.895, 0.0, 5.0107837, 4.955375 
5.689589e+2, 2.3732215e+2, -646626.44, -729648.44, -22945.168, -0.00004115736, -0.0015689547, -640707.0, -26464.078, 0.0, 5.0081224, 4.9552574 
5.688732e+2, 2.422769e+2, -606422.7, -687239.1, -22139.16, 0.000022609596, 0.0018503525, -600755.25, -35068.68, 0.0, 5.005451, 4.9540286 
5.6878835e+2, 2.47231e+2, -564543.44, -641315.2, -22123.975, -0.00002081784, -0.0014639186, -558624.1, -41487.805, 0.0, 5.002797, 4.9540086 
5.687042e+2, 2.5218436e+2, -524502.25, -599382.25, -20915.709, 0.000021761176, 0.0019271307, -519056.1, -50462.664, 0.0, 5.0001287, 4.9525695 
5.6862104e+2, 2.5713715e+2, -482210.7, -552688.44, -20836.893, 0.00008231921, -0.0013873598, -476511.13, -56454.93, 0.0, 4.9974856, 4.952776 
5.6853884e+2, 2.620891e+2, -442441.53, -511483.03, -19222.092, 0.000105947816, 0.001997313, -437450.63, -65923.58, 0.0, 4.9948196, 4.951031 
5.68458e+2, 2.6704055e+2, -399660.03, -463827.03, -19046.752, 0.0001629893, -0.001301004, -394432.28, -71429.32, 0.0, 4.9921865, 4.9515343 
5.6837827e+2, 2.7199104e+2, -360214.06, -423491.84, -17065.625, 0.000037551446, 0.0021365548, -355905.0, -81416.95, 0.0, 4.989526, 4.949427 
5.6830037e+2, 2.769411e+2, -316954.97, -374872.44, -16779.342, 0.000027149381, -0.0013259153, -312445.0, -86467.375, 0.0, 4.9868994, 4.9502296 
5.6822366e+2, 2.8189015e+2, -277705.8, -335158.84, -14425.845, 0.00013797772, 0.0026902563, -274287.06, -96810.37, 0.0, 4.984248, 4.9478483 
5.681491e+2, 2.8683877e+2, -234012.67, -285721.9, -13979.672, 0.00022636967, -0.0020781974, -230475.25, -101494.734, 0.0, 4.981641, 4.9488964 
5.6807595e+2, 2.91786e+2, -195949.52, -248937.45, -11344.063, 0.00012655453, 0.0021561172, -193623.05, -113125.28, 0.0, 4.9790034, 4.9454184 
5.680052e+2, 2.9673246e+2, -151992.66, -199030.23, -10708.4375, 0.000059190108, -0.000279177, -149669.55, -117647.41, 0.0, 4.976406, 4.9465914 
5.67936e+2, 3.0168656e+2, -115794.18, -134150.48, -8178.2866, 0.00019255711, 0.0020749937, -112679.125, -112679.125, 0.0, 4.973776, 4.962107 
5.678698e+2, 3.0664948e+2, -121144.01, -133069.73, -7300.8496, 0.0005345553, -0.0049651093, -117680.414, -117680.414, 0.0, 4.9711976, 4.9636035 
5.6780547e+2, 3.1163037e+2, -87421.36, -41547.516, -4454.992, -0.00009062967, 0.0040823584, -41118.88, -41118.88, 0.0, 4.968581, 4.998173 
5.6774545e+2, 3.1662962e+2, -92112.34, -39111.953, -3266.8794, 0.00011491894, -0.0016984649, -38911.344, -38911.344, 0.0, 4.9660254, 5.000169 
5.758701e+2, 1.2326769e+2, -1575261.0, -1732952.5, 463.86804, 0.00013435207, 0.0010280972, -1575259.6, 156717.22, 0.0, 5.071074, 4.9673915 
5.7580465e+2, 1.2823416e+2, -1536005.4, -1691285.9, -54.1403, 0.00036824003, -0.0030458076, -1536005.4, 147299.98, 0.0, 5.0683713, 4.966397 
5.757362e+2, 1.3320056e+2, -1495260.1, -1646894.3, -4205.583, -0.0002802969, 0.0037553604, -1495143.5, 139491.16, 0.0, 5.0656934, 4.966219 
5.756654e+2, 1.381661e+2, -1455520.8, -1604155.4, -4660.414, -0.000054803546, -0.001210537, -1455374.8, 130597.67, 0.0, 5.062957, 4.96556 
5.755922e+2, 1.4313132e+2, -1415047.5, -1560293.6, -8122.7813, 0.00024330747, 0.00034754263, -1414594.6, 122718.664, 0.0, 5.0602565, 4.965234 
5.7551694e+2, 1.4809632e+2, -1375096.8, -1517147.5, -8507.878, 0.000101376245, -0.00074159063, -1374589.0, 114067.12, 0.0, 5.057508, 4.964686 
5.754397e+2, 1.5306076e+2, -1334677.4, -1473407.9, -11497.031, 0.00009631744, 0.0015512432, -1333731.0, 106273.73, 0.0, 5.054795, 4.9643188 
5.7536066e+2, 1.5802474e+2, -1294621.6, -1430096.6, -11844.085, 0.00026643858, -0.0011023768, -1293593.9, 97763.82, 0.0, 5.052039, 4.963794 
5.7527995e+2, 1.6298826e+2, -1254262.9, -1386498.3, -14365.927, 0.00020094826, 0.0014406366, -1252720.3, 89995.055, 0.0, 5.0493164, 4.963344 
5.751977e+2, 1.6795133e+2, -1213999.0, -1342839.3, -14666.915, -0.000022971302, -0.00097380095, -1212350.4, 81726.85, 0.0, 5.0465612, 4.962898 
5.7511413e+2, 1.7291391e+2, -1173739.6, -1299464.9, -16759.363, -0.0001852756, 0.0013456598, -1171544.0, 73899.99, 0.0, 5.0438285, 4.9623356 
5.750293e+2, 1.7787601e+2, -1133292.8, -1255494.3, -17008.309, 0.000021091872, -0.0009696126, -1130969.6, 65845.71, 0.0, 5.0410705, 4.9619584 
5.749434e+2, 1.8283764e+2, -1093087.9, -1212280.3, -18668.016, -0.00003638746, 0.0015056195, -1090232.5, 57958.9, 0.0, 5.038333, 4.9613066 
5.748566e+2, 1.8779872e+2, -1052486.5, -1168076.0, -18864.904, 0.000042248827, -0.0009957597, -1049485.5, 50087.23, 0.0, 5.0355763, 4.9609704 
5.747689e+2, 1.9275935e+2, -1012298.4, -1124948.3, -20115.133, -0.0000042323422, 0.0016025085, -1008814.3, 42144.31, 0.0, 5.032834, 4.960247 
5.7468057e+2, 1.9771941e+2, -971595.5, -1080589.6, -20265.957, -0.00006810064, -0.0010366612, -967949.3, 34400.848, 0.0, 5.0300717, 4.959928 
5.745918e+2, 2.0267895e+2, -931404.25, -1037511.7, -21094.24, -0.000002097704, 0.0015897665, -927364.5, 26381.967, 0.0, 5.0273256, 4.9591503 
5.745025e+2, 2.076379e+2, -890550.5, -992932.2, -21219.873, 0.000047088233, -0.0011464912, -886326.7, 18822.012, 0.0, 5.0245657, 4.9588675 
5.7441306e+2, 2.1259636e+2, -850423.0, -950089.06, -21628.186, 0.000103282146, 0.0016045716, -845931.94, 10624.012, 0.0, 5.0218244, 4.9579606 
5.743234e+2, 2.1755417e+2, -809358.25, -905235.3, -21689.727, -0.000029713077, -0.001272591, -804679.8, 3289.4785, 0.0, 5.0190825, 4.957725 
5.7423383e+2, 2.2251141e+2, -769254.4, -862554.25, -21662.818, -0.00002299319, 0.0015394819, -764469.94, -5081.65, 0.0, 5.0163474, 4.9567137 
5.741443e+2, 2.2746801e+2, -728021.2, -817479.6, -21676.775, -0.000088977584, -0.0013337325, -723045.44, -12231.889, 0.0, 5.0136156, 4.956511 
5.740551e+2, 2.3242399e+2, -687949.1, -774912.8, -21232.748, 0.0000138860705, 0.001533472, -683041.94, -20796.957, 0.0, 5.010873, 4.955418 
5.7396626e+2, 2.3737934e+2, -646550.44, -729512.25, -21256.709, -0.000013481614, -0.0015935267, -641421.1, -27738.654, 0.0, 5.008129, 4.9552956 
5.7387793e+2, 2.4233408e+2, -606558.1, -687131.6, -20423.807, 0.00008871974, 0.0018188506, -601676.8, -36550.688, 0.0, 5.0053706, 4.954096 
5.737903e+2, 2.472882e+2, -564948.8, -641338.4, -20392.55, 0.000038428523, -0.0015403928, -559845.8, -43269.92, 0.0, 5.0026226, 4.9540725 
5.737034e+2, 2.5224158e+2, -525124.8, -599406.06, -19150.748, 0.000041104533, 0.0018332981, -520478.16, -52445.4, 0.0, 4.9998593, 4.952675 
5.7361764e+2, 2.571944e+2, -483100.28, -552836.44, -19051.506, 0.00007129121, -0.001489354, -478234.97, -58739.906, 0.0, 4.9971223, 4.952879 
5.735327e+2, 2.621464e+2, -443567.6, -511656.53, -17407.447, 0.00011609765, 0.0019176053, -439375.38, -68410.09, 0.0, 4.994358, 4.951168 
5.7344925e+2, 2.6709792e+2, -401072.63, -464132.0, -17218.639, 0.00022267179, -0.0013410035, -396677.34, -74236.875, 0.0, 4.9916234, 4.951669 
5.733669e+2, 2.7204856e+2, -361864.6, -423798.8, -15208.671, 0.000062173516, 0.0021038048, -358331.5, -84406.875, 0.0, 4.988859, 4.9496055 
5.732862e+2, 2.7699873e+2, -318881.66, -375303.03, -14908.438, -0.00002295584, -0.0013724007, -315184.6, -89771.52, 0.0, 4.986134, 4.950406 
5.7320684e+2, 2.819479e+2, -279872.9, -335606.22, -12517.798, 0.000069854264, 0.0026420963, -277190.5, -100279.64, 0.0, 4.983382, 4.948061 
5.731297e+2, 2.8689665e+2, -236468.31, -286296.0, -12062.375, 0.0001757437, -0.0021498012, -233701.83, -105288.625, 0.0, 4.9806705, 4.9491076 
5.7305384e+2, 2.9184407e+2, -198581.67, -249340.69, -9396.809, 0.00009969064, 0.0021157395, -196897.94, -116969.44, 0.0, 4.9779253, 4.945735 
5.7298046e+2, 2.967908e+2, -154910.94, -199530.03, -8755.684, 0.00010068089, -0.00018710202, -153254.3, -121804.14, 0.0, 4.9752192, 4.9469185 
5.7290864e+2, 3.0174518e+2, -118991.61, -134758.7, -6230.3906, 0.00029257915, 0.0021617548, -116826.87, -116826.87, 0.0, 4.9724846, 4.962437 
5.728399e+2, 3.0670834e+2, -124617.92, -133811.22, -5340.7437, 0.00062895863, -0.0050535486, -122168.1, -122168.1, 0.0, 4.969811, 4.963927 
5.7277286e+2, 3.1168953e+2, -91240.18, -42525.15, -2573.189, -0.000039120856, 0.0041013905, -42389.605, -42389.605, 0.0, 4.967082, 4.9984517 
5.727103e+2, 3.1668895e+2, -96251.79, -40254.51, -1400.8677, 0.00024589585, -0.001460769, -40219.49, -40219.49, 0.0, 4.9644175, 5.000433 
5.809407e+2, 1.2333087e+2, -1575090.4, -1733799.8, -426.943, -0.000019885618, 0.0009299036, -1575089.1, 156268.48, 0.0, 5.0713196, 4.9670014 
5.808726e+2, 1.2829696e+2, -1535845.9, -1692120.4, -974.3391, 0.0003938921, -0.0029963432, -1535839.8, 146850.25, 0.0, 5.0686083, 4.966016 
5.8080137e+2, 1.3326299e+2, -1495071.9, -1647615.8, -5150.794, -0.00029111025, 0.0038551192, -1494898.1, 139124.88, 0.0, 5.0659165, 4.9658823 
5.807278e+2, 1.3822816e+2, -1455369.1, -1604878.4, -5631.3467, -0.00009126908, -0.0011284974, -1455157.3, 130206.86, 0.0, 5.0631623, 4.9652314 
5.8065194e+2, 1.4319307e+2, -1414861.1, -1560897.4, -9116.646, 0.00024462954, 0.00041331953, -1414294.1, 122414.08, 0.0, 5.0604506, 4.9649515 
5.805739e+2, 1.4815778e+2, -1374938.3, -1517760.6, -9530.199, 0.000103892984, -0.00068613415, -1374305.1, 113748.87, 0.0, 5.0576906, 4.964406 
5.8049387e+2, 1.5312195e+2, -1334491.9, -1473917.8, -12550.063, 0.00010357959, 0.0015926281, -1333371.3, 106033.92, 0.0, 5.0549664, 4.96408 
5.804121e+2, 1.5808566e+2, -1294478.5, -1430634.9, -12926.571, 0.00029858752, -0.0010720707, -1293262.1, 97498.6, 0.0, 5.0521965, 4.9635525 
5.803286e+2, 1.6304895e+2, -1254087.4, -1386919.4, -15482.489, 0.00021587979, 0.00147075, -1252306.6, 89813.83, 0.0, 5.0494623, 4.963148 
5.802436e+2, 1.680118e+2, -1213865.8, -1343295.5, -15816.557, -0.000055544544, -0.0009449105, -1211961.0, 81523.64, 0.0, 5.046695, 4.962696 
5.801572e+2, 1.7297418e+2, -1173576.9, -1299815.9, -17940.621, -0.00021778775, 0.001385783, -1171076.8, 73776.47, 0.0, 5.0439525, 4.9621744 
5.800697e+2, 1.779361e+2, -1133165.5, -1255876.5, -18223.555, 0.000021211008, -0.0009499378, -1130516.4, 65710.0, 0.0, 5.0411844, 4.9617915 
5.79981e+2, 1.8289758e+2, -1092932.5, -1212562.6, -19917.826, -0.000041072068, 0.001493729, -1089703.4, 57900.527, 0.0, 5.038438, 4.961179 
5.7989144e+2, 1.8785852e+2, -1052370.1, -1168396.9, -20145.65, 0.000023076387, -0.0010076107, -1048971.8, 50014.98, 0.0, 5.035671, 4.960834 
5.79801e+2, 1.9281903e+2, -1012146.44, -1125163.6, -21438.2, -0.00002846282, 0.0015772365, -1008216.5, 42157.28, 0.0, 5.0329223, 4.9601507 
5.797099e+2, 1.9777896e+2, -971473.25, -1080841.9, -21620.668, -0.000079209356, -0.0010383187, -967354.3, 34412.145, 0.0, 5.0301538, 4.9598217 
5.7961833e+2, 2.0273842e+2, -931269.4, -1037711.9, -22485.441, -0.000008491452, 0.0015962622, -926714.4, 26449.344, 0.0, 5.0274024, 4.959065 
5.795263e+2, 2.0769729e+2, -890433.8, -993142.0, -22638.791, 0.000060638897, -0.0011421582, -885665.25, 18901.697, 0.0, 5.024636, 4.958782 
5.794341e+2, 2.1265566e+2, -850239.94, -950108.75, -23079.338, 0.00011059517, 0.0016121654, -845164.3, 10810.369, 0.0, 5.0218844, 4.9579453 
5.7934165e+2, 2.1761344e+2, -809216.2, -905284.1, -23187.285, -0.000044294047, -0.0012626596, -803912.44, 3475.8977, 0.0, 5.01913, 4.957706 
5.792494e+2, 2.225707e+2, -769057.44, -862430.3, -23205.51, -0.000045050943, 0.0015404942, -763608.25, -4801.047, 0.0, 5.0163846, 4.9567595 
5.791571e+2, 2.2752735e+2, -727857.5, -817384.1, -23274.719, -0.000111093395, -0.0013637237, -722168.2, -11936.044, 0.0, 5.0136433, 4.9565516 
5.790652e+2, 2.3248336e+2, -687827.6, -774886.6, -22875.717, 0.000008360365, 0.0015221876, -682182.8, -20519.54, 0.0, 5.0108957, 4.955437 
5.789736e+2, 2.3743872e+2, -646435.94, -729503.1, -22926.033, 0.000012119597, -0.0015874429, -640528.6, -27427.977, 0.0, 5.0081525, 4.955309 
5.788826e+2, 2.4239346e+2, -606409.75, -687047.25, -22121.654, 0.0001474308, 0.0018018383, -600739.7, -36195.598, 0.0, 5.005394, 4.954135 
5.7879215e+2, 2.473476e+2, -564802.8, -641267.2, -22122.69, 0.00007689766, -0.0016246221, -558863.6, -42869.98, 0.0, 5.0026474, 4.954107 
5.7870257e+2, 2.5230104e+2, -524929.0, -599214.75, -20906.818, 0.00003332433, 0.0017251687, -519449.25, -51999.348, 0.0, 4.999882, 4.952751 
5.78614e+2, 2.5725394e+2, -482917.28, -552658.7, -20848.17, 0.00005711032, -0.001595602, -477160.25, -58248.77, 0.0, 4.9971423, 4.952953 
5.7852644e+2, 2.6220605e+2, -443357.47, -511395.63, -19239.084, 0.00014554059, 0.0018522147, -438294.1, -67913.29, 0.0, 4.994374, 4.9512725 
5.784402e+2, 2.6715767e+2, -400876.28, -463886.3, -19084.64, 0.00029962382, -0.0013531855, -395546.7, -73691.695, 0.0, 4.9916363, 4.95177 
5.78355e+2, 2.721084e+2, -361624.7, -423432.5, -17100.947, 0.00008129378, 0.002059109, -357208.72, -83870.71, 0.0, 4.988868, 4.94975 
5.782717e+2, 2.770587e+2, -318655.34, -374950.63, -16832.29, -0.00013335265, -0.0015110879, -314006.4, -89181.26, 0.0, 4.9861403, 4.9505477 
5.781896e+2, 2.8200805e+2, -279615.25, -335157.28, -14459.781, -0.00007731241, 0.0024853377, -276076.28, -99754.93, 0.0, 4.9833837, 4.948238 
5.7810974e+2, 2.8695697e+2, -236223.48, -285859.78, -14037.8125, 0.000115943454, -0.0022910316, -232528.47, -104706.484, 0.0, 4.980669, 4.9492817 
5.7803124e+2, 2.9190463e+2, -198216.89, -248613.5, -11396.339, 0.00009061557, 0.0020648353, -195759.63, -116424.586, 0.0, 4.977921, 4.9460135 
5.779551e+2, 2.968517e+2, -154541.98, -198785.81, -10781.697, 0.000121681194, -0.000022041648, -152054.47, -121200.68, 0.0, 4.9752145, 4.947204 
5.778806e+2, 3.0180633e+2, -118628.73, -134008.03, -8258.934, 0.00034196404, 0.002320297, -115033.84, -115033.84, 0.0, 4.9724765, 4.962728 
5.778092e+2, 3.0676976e+2, -124265.51, -133079.66, -7375.427, 0.0006231094, -0.0052003646, -120080.77, -120080.77, 0.0, 4.969802, 4.964211 
5.7773954e+2, 3.117512e+2, -90955.87, -41968.992, -4612.184, -0.00013630097, 0.004263658, -41538.53, -41538.53, 0.0, 4.967075, 4.9986763 
5.7767427e+2, 3.1675097e+2, -95999.01, -39741.605, -3419.6978, 0.00010273455, -0.00038700036, -39534.496, -39534.496, 0.0, 4.9644046, 5.0006433 
5.8601284e+2, 1.2339776e+2, -1569169.3, -1731599.4, 752.008, 0.00008195258, 0.00101748, -1569165.9, 161536.44, 0.0, 5.073513, 4.966655 
5.8594185e+2, 1.2836343e+2, -1530258.3, -1690075.6, 198.22894, 0.00036073913, -0.0029163032, -1530258.0, 151780.55, 0.0, 5.070686, 4.965678 
5.858678e+2, 1.333291e+2, -1489760.4, -1645627.1, -3970.5122, -0.00041223364, 0.0038531662, -1489659.3, 143715.88, 0.0, 5.06788, 4.9655867 
5.8579147e+2, 1.3829392e+2, -1450383.6, -1603039.3, -4443.5166, -0.00012015161, -0.0012077322, -1450254.4, 134465.48, 0.0, 5.0650125, 4.9649444 
5.8571273e+2, 1.432585e+2, -1410131.8, -1559109.5, -7897.339, 0.0002619273, 0.00035649273, -1409714.3, 126352.7, 0.0, 5.062195, 4.964703 
5.8563185e+2, 1.4822291e+2, -1370507.6, -1516117.6, -8295.924, 0.000055902772, -0.00068437075, -1370036.5, 117379.2, 0.0, 5.0593324, 4.964162 
5.8554894e+2, 1.531868e+2, -1330294.9, -1472308.5, -11288.368, 0.000033790817, 0.0015690658, -1329403.3, 109366.39, 0.0, 5.0565095, 4.963875 
5.854644e+2, 1.5815024e+2, -1290571.1, -1429175.6, -11635.874, 0.00026297345, -0.0011502, -1289601.0, 100526.836, 0.0, 5.0536423, 4.963347 
5.8537805e+2, 1.631133e+2, -1250396.6, -1385479.1, -14159.11, 0.00020292815, 0.0014023507, -1248928.5, 92561.46, 0.0, 5.050814, 4.962984 
5.852902e+2, 1.6807592e+2, -1210462.5, -1342014.0, -14466.757, -0.000060846236, -0.0009899759, -1208890.4, 83965.83, 0.0, 5.0479517, 4.9625263 
5.85201e+2, 1.730381e+2, -1170381.5, -1298547.3, -16555.617, -0.00021277183, 0.0013298776, -1168277.5, 75949.38, 0.0, 5.0451183, 4.9620466 
5.8511066e+2, 1.7799982e+2, -1130243.0, -1254761.4, -16808.564, 0.000024090585, -0.0010310669, -1128013.9, 67588.01, 0.0, 5.042261, 4.961656 
5.850192e+2, 1.8296112e+2, -1090214.9, -1211461.1, -18469.203, -0.000044195647, 0.0013933148, -1087464.0, 59517.29, 0.0, 5.039425, 4.961083 
5.849268e+2, 1.879219e+2, -1049924.6, -1167450.8, -18660.723, 0.000023916193, -0.0011084845, -1047032.8, 51332.773, 0.0, 5.0365696, 4.960729 
5.848335e+2, 1.9288227e+2, -1009898.94, -1124234.8, -19923.328, -0.00001865747, 0.0014791159, -1006526.75, 43227.367, 0.0, 5.0337353, 4.960081 
5.8473957e+2, 1.9784206e+2, -969478.2, -1080053.9, -20068.219, -0.000038457107, -0.0011002175, -965948.7, 35199.43, 0.0, 5.030884, 4.9597445 
5.846452e+2, 2.0280139e+2, -929472.1, -1036945.3, -20898.879, 0.000023562112, 0.0015476508, -925551.25, 26995.281, 0.0, 5.028048, 4.959021 
5.845504e+2, 2.0776013e+2, -888888.56, -992502.3, -21008.48, 0.00008515071, -0.0011910478, -884791.0, 19159.87, 0.0, 5.0251956, 4.9587355 
5.844554e+2, 2.1271843e+2, -848917.3, -949506.06, -21424.188, 0.00012718755, 0.0015587019, -844544.3, 10815.23, 0.0, 5.0223527, 4.9579296 
5.843602e+2, 2.1767615e+2, -808179.25, -904825.7, -21519.584, -0.000024814299, -0.0013075246, -803604.2, 3169.7632, 0.0, 5.0195007, 4.9576864 
5.8426505e+2, 2.2263333e+2, -768236.8, -861968.06, -21521.447, -0.000015720405, 0.0015176855, -763531.56, -5338.098, 0.0, 5.0166583, 4.956786 
5.8417e+2, 2.2758994e+2, -727319.2, -817067.0, -21595.035, -0.000060950784, -0.0013730777, -722393.4, -12774.587, 0.0, 5.0138216, 4.956573 
5.840753e+2, 2.3254593e+2, -687454.8, -774493.94, -21156.623, 0.00005363417, 0.0015135274, -682584.8, -21534.82, 0.0, 5.010986, 4.9555244 
5.839809e+2, 2.3750131e+2, -646296.7, -729233.8, -21149.078, 0.000025603984, -0.0016369364, -641215.0, -28727.797, 0.0, 5.0081635, 4.9553895 
5.838871e+2, 2.4245608e+2, -606478.44, -686847.06, -20285.918, 0.00018098635, 0.0017485439, -601648.4, -37717.89, 0.0, 5.005327, 4.954226 
5.8379394e+2, 2.4741024e+2, -565098.9, -641184.7, -20244.945, 0.0001530498, -0.001674298, -560047.5, -44667.71, 0.0, 5.0025034, 4.9541917 
5.8370155e+2, 2.5236368e+2, -525458.75, -599210.56, -18994.87, 0.00010346426, 0.0016886046, -520854.1, -54018.27, 0.0, 4.9996514, 4.952847 
5.836102e+2, 2.5731662e+2, -483719.2, -552788.5, -18926.463, 0.00011836546, -0.001601282, -478872.97, -60575.805, 0.0, 4.996817, 4.9530435 
5.8351976e+2, 2.622688e+2, -444379.5, -511520.9, -17295.04, 0.00021268941, 0.0018724619, -440186.3, -70420.31, 0.0, 4.993952, 4.951407 
5.8343077e+2, 2.672205e+2, -402177.75, -464142.75, -17121.621, 0.0003333342, -0.0013502102, -397761.6, -76521.98, 0.0, 4.991116, 4.9519005 
5.833429e+2, 2.7217126e+2, -363163.16, -423689.94, -15107.767, 0.00009953585, 0.0020194198, -359601.75, -86879.92, 0.0, 4.988245, 4.9499245 
5.832567e+2, 2.7712166e+2, -320487.53, -375343.88, -14824.712, -0.000072936666, -0.0015820477, -316737.56, -92529.6, 0.0, 4.985413, 4.950719 
5.8317196e+2, 2.8207117e+2, -281704.63, -335567.38, -12419.244, -0.0000030143399, 0.0024483248, -278979.03, -103276.06, 0.0, 4.982548, 4.948449 
5.830893e+2, 2.870202e+2, -238629.6, -286411.2, -11989.858, 0.00017824379, -0.0022749377, -235789.77, -108587.58, 0.0, 4.97972, 4.94949 
5.83008e+2, 2.9196805e+2, -200787.38, -248965.6, -9306.252, 0.00013431552, 0.0020509523, -199052.25, -120338.83, 0.0, 4.976864, 4.9463377 
5.829292e+2, 2.9691535e+2, -157368.66, -199228.98, -8674.425, 0.00014906643, -0.00016458104, -155642.31, -125412.52, 0.0, 4.974061, 4.9475355 
5.8285195e+2, 3.0187026e+2, -121722.98, -134567.23, -6157.774, 0.0003495727, 0.0022117398, -119247.805, -119247.805, 0.0, 4.9712253, 4.9630566 
5.827778e+2, 3.0683398e+2, -127647.05, -133781.78, -5295.861, 0.0005761818, -0.005001899, -124594.375, -124594.375, 0.0, 4.9684525, 4.964531 
5.8270544e+2, 3.1181565e+2, -94684.76, -42937.855, -2642.257, -0.00003587276, 0.004394507, -42803.29, -42803.29, 0.0, 4.965618, 4.998938 
5.826374e+2, 3.168155e+2, -100066.695, -40886.277, -1483.4851, 0.0006401409, -0.0012949539, -40849.113, -40849.113, 0.0, 4.962834, 5.0008903 
5.910858e+2, 1.2346651e+2, -1568973.3, -1732415.8, -146.43517, 0.00022945188, 0.0011708818, -1568973.1, 161055.48, 0.0, 5.073762, 4.9662743 
5.9101206e+2, 1.2843178e+2, -1530094.1, -1690887.5, -740.3381, 0.00038750167, -0.0027643633, -1530090.6, 151278.1, 0.0, 5.070918, 4.965307 
5.909351e+2, 1.3339706e+2, -1489565.6, -1646325.9, -4935.597, -0.00048685368, 0.003925463, -1489410.4, 143298.66, 0.0, 5.0681, 4.96526 
5.908559e+2, 1.3836154e+2, -1450208.1, -1603728.1, -5437.502, -0.00013078023, -0.0012117472, -1450015.9, 134041.39, 0.0, 5.0652204, 4.9646273 
5.9077424e+2, 1.433258e+2, -1409926.4, -1559694.9, -8902.673, 0.0002944323, 0.00038391683, -1409399.0, 126008.34, 0.0, 5.062392, 4.964426 
5.9069055e+2, 1.4828993e+2, -1370323.3, -1516697.4, -9333.728, 0.000024767305, -0.0006053515, -1369730.5, 117028.4, 0.0, 5.0595183, 4.9638925 
5.906048e+2, 1.5325354e+2, -1330083.4, -1472792.4, -12350.158, -0.000025209438, 0.0016240492, -1329022.5, 109093.0, 0.0, 5.0566854, 4.9636436 
5.9051734e+2, 1.5821673e+2, -1290384.8, -1429664.4, -12731.116, 0.00023116049, -0.0011395358, -1289230.6, 100245.57, 0.0, 5.0538073, 4.963119 
5.904281e+2, 1.6317956e+2, -1250191.3, -1385881.3, -15286.662, 0.00019406289, 0.0014268779, -1248490.4, 92350.05, 0.0, 5.0509677, 4.962792 
5.9033746e+2, 1.6814196e+2, -1210300.5, -1342448.4, -15629.566, -0.00005956407, -0.00095195055, -1208477.1, 83731.75, 0.0, 5.0480924, 4.96233 
5.9024537e+2, 1.7310397e+2, -1170187.5, -1298870.5, -17752.318, -0.00019866193, 0.0013417901, -1167783.4, 75797.84, 0.0, 5.0452485, 4.961893 
5.901521e+2, 1.7806552e+2, -1130086.6, -1255122.1, -18040.121, 0.00002566014, -0.0010398423, -1127535.9, 67422.26, 0.0, 5.042382, 4.961495 
5.9005773e+2, 1.8302666e+2, -1090026.6, -1211719.1, -19738.057, -0.00004993146, 0.001376623, -1086905.3, 59433.688, 0.0, 5.0395374, 4.960961 
5.899625e+2, 1.8798728e+2, -1049772.5, -1167746.9, -19964.508, 0.000024451705, -0.0011303959, -1046485.56, 51239.043, 0.0, 5.0366735, 4.960598 
5.898664e+2, 1.9294752e+2, -1009724.6, -1124448.1, -21266.176, -0.000011875483, 0.0014581163, -1005909.44, 43204.92, 0.0, 5.033831, 4.959983 
5.897696e+2, 1.9790721e+2, -969335.0, -1080293.8, -21444.229, -0.0000017007804, -0.0010990651, -965334.8, 35174.637, 0.0, 5.0309706, 4.959642 
5.896724e+2, 2.0286646e+2, -929300.7, -1037094.56, -22320.465, 0.00004023869, 0.0015610476, -924861.7, 27047.148, 0.0, 5.028128, 4.958953 
5.895747e+2, 2.0782512e+2, -888738.5, -992670.5, -22467.682, 0.00008515448, -0.0011723674, -884089.44, 19224.49, 0.0, 5.0252695, 4.958664 
5.894769e+2, 2.1278335e+2, -848752.75, -949622.75, -22927.525, 0.00011648436, 0.0015625259, -843785.94, 10937.39, 0.0, 5.0224223, 4.957878 
5.893788e+2, 2.17741e+2, -808032.0, -904962.0, -23060.215, -0.000024182797, -0.0012986342, -802825.5, 3312.8584, 0.0, 5.0195665, 4.95763 
5.8928084e+2, 2.2269815e+2, -768053.8, -861992.9, -23093.814, -0.000003605634, 0.001555739, -762683.5, -5125.3154, 0.0, 5.016717, 4.9567723 
5.891829e+2, 2.2765473e+2, -727169.75, -817123.6, -23210.54, -0.00002569642, -0.0013175121, -721533.94, -12550.151, 0.0, 5.013871, 4.956552 
5.890854e+2, 2.3261075e+2, -687214.8, -774305.3, -22811.227, 0.000076444616, 0.001556153, -681601.75, -21186.97, 0.0, 5.0110264, 4.955593 
5.889882e+2, 2.3756617e+2, -646089.5, -729076.2, -22864.467, 0.0000019666932, -0.0016507667, -640206.9, -28355.398, 0.0, 5.0081954, 4.9554515 
5.8889157e+2, 2.4252102e+2, -606283.44, -686683.2, -22048.61, 0.00017475142, 0.0017465813, -600633.9, -37339.75, 0.0, 5.005353, 4.9542933 
5.887956e+2, 2.4747524e+2, -564922.4, -641044.8, -22051.828, 0.00021447692, -0.0016523335, -558995.7, -44252.88, 0.0, 5.0025253, 4.9542527 
5.8870035e+2, 2.5242877e+2, -525292.3, -599081.6, -20842.568, 0.0001771779, 0.0017309904, -519812.1, -53613.844, 0.0, 4.9996715, 4.952905 
5.886062e+2, 2.5738174e+2, -483559.4, -552680.06, -20803.31, 0.00018442135, -0.0015181102, -477781.25, -60122.133, 0.0, 4.996838, 4.953094 
5.8851296e+2, 2.62334e+2, -444163.13, -511278.72, -19205.963, 0.00026576666, 0.0019731189, -439055.75, -69928.54, 0.0, 4.9939713, 4.9515047 
5.8842117e+2, 2.6728573e+2, -401971.6, -463917.4, -19071.193, 0.00031051828, -0.0013006908, -396571.0, -75971.06, 0.0, 4.991134, 4.9519935 
5.883304e+2, 2.7223668e+2, -362914.06, -423350.9, -17092.979, 0.000089572946, 0.0020230224, -358414.72, -86333.71, 0.0, 4.9882607, 4.9500585 
5.882414e+2, 2.771872e+2, -320254.2, -375024.8, -16846.104, 0.000054648975, -0.001583325, -315487.56, -91921.7, 0.0, 4.9854255, 4.9508476 
5.881538e+2, 2.8213683e+2, -281435.47, -335140.72, -14469.397, 0.0001615407, 0.0025033166, -277785.2, -102725.836, 0.0, 4.982556, 4.9486175 
5.880683e+2, 2.8708607e+2, -238377.84, -286002.22, -14079.42, 0.00027499427, -0.0021444228, -234526.88, -107969.984, 0.0, 4.979724, 4.949655 
5.8798426e+2, 2.920341e+2, -200401.95, -248222.48, -11408.378, 0.0001832057, 0.0020598345, -197819.73, -119753.65, 0.0, 4.976863, 4.9466224 
5.8790267e+2, 2.9698166e+2, -156991.55, -198480.83, -10802.815, 0.00014904104, -0.00053999876, -154347.28, -124767.3, 0.0, 4.974056, 4.947825 
5.8782256e+2, 3.0193686e+2, -121367.28, -133863.86, -8275.77, 0.0002636107, 0.0019061267, -117245.93, -117245.93, 0.0, 4.9712195, 4.9633317 
5.8774567e+2, 3.0690092e+2, -127294.19, -133102.34, -7407.717, 0.00040754213, -0.0045125084, -122241.64, -122241.64, 0.0, 4.96845, 4.9647956 
5.8767056e+2, 3.118828e+2, -94407.98, -42451.83, -4763.0327, 0.0001379072, 0.004426856, -42018.793, -42018.793, 0.0, 4.965618, 4.999136 
5.8759993e+2, 3.1688252e+2, -99821.91, -40445.69, -3588.1543, 0.0014967659, -0.0040914635, -40229.64, -40229.64, 0.0, 4.9628286, 5.0010724 
5.9616023e+2, 1.2353908e+2, -1562975.5, -1730150.0, 1072.5354, 0.0001594627, 0.000983981, -1562968.6, 166348.64, 0.0, 5.075981, 4.9659367 
5.960836e+2, 1.2850398e+2, -1524441.8, -1688777.1, 471.9188, 0.00044070126, -0.002758233, -1524440.4, 156220.88, 0.0, 5.0730157, 4.9649816 
5.9600365e+2, 1.334689e+2, -1484184.5, -1644255.3, -3699.649, -0.0005117329, 0.003918778, -1484099.0, 147906.0, 0.0, 5.070082, 4.9649816 
5.959215e+2, 1.3843302e+2, -1445147.9, -1601804.8, -4188.3228, -0.00020947534, -0.0012958555, -1445036.0, 138320.52, 0.0, 5.0670905, 4.964358 
5.958369e+2, 1.4339699e+2, -1405135.4, -1557841.4, -7613.4727, 0.00024867678, 0.0002979471, -1404756.8, 129953.04, 0.0, 5.064155, 4.964189 
5.957503e+2, 1.483608e+2, -1365833.6, -1514977.4, -8034.0615, -0.00001852938, -0.00066701794, -1365402.1, 120662.195, 0.0, 5.0611744, 4.9636655 
5.956615e+2, 1.5332416e+2, -1325842.5, -1471130.8, -11012.296, -0.00007621133, 0.0015906756, -1325012.5, 112410.92, 0.0, 5.0582414, 4.963449 
5.9557116e+2, 1.582871e+2, -1286427.0, -1428139.1, -11370.118, 0.00019116048, -0.0011581789, -1285520.5, 103266.164, 0.0, 5.055266, 4.962929 
5.95479e+2, 1.632497e+2, -1246455.4, -1384385.5, -13885.527, 0.00016917202, 0.0013839739, -1245071.4, 95081.82, 0.0, 5.052332, 4.9626393 
5.953854e+2, 1.6821186e+2, -1206846.8, -1341107.5, -14196.0, -0.00006490963, -0.0010395064, -1205362.1, 86161.73, 0.0, 5.049363, 4.962172 
5.9529036e+2, 1.7317367e+2, -1166937.5, -1297539.4, -16275.15, -0.00017818731, 0.0012438298, -1164939.9, 77958.44, 0.0, 5.046429, 4.9617767 
5.951942e+2, 1.7813501e+2, -1127109.0, -1253945.6, -16528.467, 0.000035388606, -0.0011264053, -1124990.5, 69286.445, 0.0, 5.0434737, 4.961371 
5.9509695e+2, 1.8309599e+2, -1087250.8, -1210564.6, -18187.273, -0.000036044992, 0.0013034189, -1084624.4, 61035.13, 0.0, 5.0405426, 4.960872 
5.949987e+2, 1.8805645e+2, -1047257.8, -1166737.3, -18376.705, 0.00005481384, -0.0011838153, -1044495.2, 52551.566, 0.0, 5.037593, 4.9605026 
5.948997e+2, 1.9301656e+2, -1007412.75, -1123462.1, -19640.645, 0.000016550204, 0.0013799289, -1004178.8, 44259.098, 0.0, 5.034664, 4.959922 
5.9480006e+2, 1.9797608e+2, -967278.8, -1079444.0, -19775.83, 0.000035789613, -0.0012139992, -963894.25, 35940.21, 0.0, 5.0317187, 4.959575 
5.946999e+2, 2.0293523e+2, -927445.75, -1036277.1, -20617.273, 0.000052380612, 0.0014504939, -923670.9, 27564.082, 0.0, 5.0287924, 4.9589157 
5.945993e+2, 2.0789377e+2, -887124.7, -991976.2, -20726.023, 0.00010611317, -0.0012428386, -883176.5, 19464.695, 0.0, 5.025852, 4.958624 
5.944986e+2, 2.128519e+2, -847337.1, -948962.4, -21148.252, 0.00013713328, 0.0015125636, -843111.9, 10939.615, 0.0, 5.0229235, 4.957865 
5.943976e+2, 2.1780947e+2, -806856.6, -904428.6, -21241.918, 0.00001547019, -0.0013265606, -802432.7, 3034.7004, 0.0, 5.019987, 4.9576116 
5.9429675e+2, 2.2276653e+2, -767087.06, -861483.2, -21238.523, 0.000029808118, 0.0015289037, -762528.7, -5640.7104, 0.0, 5.0170493, 4.956786 
5.9419596e+2, 2.2772305e+2, -726479.56, -816761.7, -21326.93, -0.00002179069, -0.0013656014, -721695.2, -13380.936, 0.0, 5.014111, 4.9565587 
5.940955e+2, 2.3267901e+2, -686744.3, -773952.0, -20906.092, 0.00006282534, 0.0015225172, -681991.56, -22245.904, 0.0, 5.011171, 4.95564 
5.9399545e+2, 2.3763442e+2, -645904.4, -728868.0, -20973.361, 0.0000024221763, -0.0016755151, -640903.7, -29720.988, 0.0, 5.008242, 4.9554925 
5.938959e+2, 2.4258925e+2, -606291.94, -686429.0, -20136.03, 0.00021046742, 0.0017416137, -601516.94, -38891.582, 0.0, 5.005306, 4.954393 
5.9379715e+2, 2.4754348e+2, -565196.6, -640927.8, -20115.375, 0.00028508186, -0.0016532857, -560185.3, -46111.453, 0.0, 5.0023875, 4.954345 
5.9369904e+2, 2.5249705e+2, -525756.25, -598946.6, -18851.98, 0.00022479804, 0.0017165643, -521185.84, -55656.906, 0.0, 4.9994473, 4.9530416 
5.93602e+2, 2.5745007e+2, -484253.5, -552668.06, -18749.176, 0.00018144977, -0.0015672877, -479452.2, -62462.87, 0.0, 4.996536, 4.953222 
5.9350586e+2, 2.624024e+2, -445083.47, -511350.84, -17105.795, 0.0002569565, 0.001914525, -440928.44, -72471.54, 0.0, 4.9935875, 4.9516387 
5.9341115e+2, 2.673542e+2, -403146.44, -464118.66, -16953.328, 0.00030594843, -0.0013454893, -398749.63, -78820.54, 0.0, 4.9906626, 4.9521203 
5.9331757e+2, 2.723052e+2, -364317.16, -423572.53, -14958.015, 0.00012802618, 0.0020150058, -360755.38, -89345.86, 0.0, 4.987694, 4.9502187 
5.932257e+2, 2.772558e+2, -321944.66, -375383.16, -14705.759, 0.0001609232, -0.0015301392, -318165.1, -95271.5, 0.0, 4.9847584, 4.951002 
5.931352e+2, 2.8220552e+2, -283384.94, -335509.78, -12316.174, 0.00025298368, 0.0025605336, -280621.34, -106235.22, 0.0, 4.981778, 4.9488153 
5.930468e+2, 2.8715488e+2, -240662.53, -286525.1, -11932.103, 0.00029882367, -0.0021685138, -237743.88, -111861.28, 0.0, 4.978827, 4.9498487 
5.929599e+2, 2.9210308e+2, -202870.72, -248489.23, -9225.234, 0.00018189505, 0.0020582061, -201075.77, -123685.8, 0.0, 4.975838, 4.946961 
5.9287536e+2, 2.9705092e+2, -159834.69, -198895.6, -8605.968, 0.00013643548, -0.00037043358, -158022.66, -129121.53, 0.0, 4.9728937, 4.948168 
5.9279245e+2, 3.0200636e+2, -124499.8, -134379.77, -6051.352, 0.00026919183, 0.0018740296, -121628.11, -121628.11, 0.0, 4.969947, 4.9636836 
5.927128e+2, 3.0697063e+2, -130621.6, -133721.14, -5162.382, 0.0005852575, -0.005213023, -126781.38, -126781.38, 0.0, 4.967113, 4.9651384 
5.92635e+2, 3.119528e+2, -98009.15, -43424.414, -2618.7083, 0.00023181277, 0.0046026027, -43299.066, -43299.066, 0.0, 4.9642234, 4.9993677 
5.925614e+2, 3.169529e+2, -103587.38, -41534.254, -1502.9731, 0.0007688649, -0.0012153998, -41497.87, -41497.87, 0.0, 4.9613857, 5.0012827 
6.012356e+2, 1.23613626e+2, -1562768.8, -1730946.4, 160.82289, 0.00016333333, 0.00089595554, -1562768.6, 165818.08, 0.0, 5.076229, 4.965564 
6.01156e+2, 1.2857814e+2, -1524247.4, -1689554.8, -481.40552, 0.0005052795, -0.00270302, -1524246.0, 155688.58, 0.0, 5.0732527, 4.96462 
6.010731e+2, 1.3354269e+2, -1483954.3, -1644909.5, -4673.988, -0.00051925285, 0.0039777397, -1483818.6, 147463.2, 0.0, 5.070307, 4.9646683 
6.009879e+2, 1.3850649e+2, -1444942.3, -1602450.8, -5200.1704, -0.00025702096, -0.0012709433, -1444770.8, 137865.9, 0.0, 5.067301, 4.964054 
6.0090035e+2, 1.4347014e+2, -1404915.1, -1558412.9, -8634.263, 0.00023141496, 0.0003199205, -1404431.0, 129561.914, 0.0, 5.0643544, 4.963917 
6.0081065e+2, 1.4843367e+2, -1365630.6, -1515535.5, -9091.134, -0.000041471594, -0.00064802996, -1365081.3, 120268.96, 0.0, 5.0613623, 4.963403 
6.00719e+2, 1.5339676e+2, -1325613.3, -1471591.9, -12084.625, -0.00010582294, 0.0016464912, -1324619.6, 112092.39, 0.0, 5.0584188, 4.963225 
6.0062563e+2, 1.5835945e+2, -1286220.4, -1428603.0, -12479.76, 0.00017011052, -0.0010810465, -1285134.9, 102942.73, 0.0, 5.055433, 4.962709 
6.0053045e+2, 1.6332182e+2, -1246217.6, -1384749.5, -15017.318, 0.00015142467, 0.0014293548, -1244608.4, 94837.914, 0.0, 5.0524907, 4.9624586 
6.004339e+2, 1.682838e+2, -1206638.8, -1341495.5, -15368.826, -0.00007458609, -0.0010364796, -1204909.5, 85909.49, 0.0, 5.049513, 4.961988 
6.003359e+2, 1.732454e+2, -1166705.1, -1297836.8, -17480.451, -0.00016110107, 0.001249623, -1164414.9, 77780.24, 0.0, 5.0465693, 4.9616284 
6.002368e+2, 1.782066e+2, -1126917.4, -1254279.6, -17775.41, 0.000041280764, -0.0011129137, -1124483.1, 69092.38, 0.0, 5.0436025, 4.9612155 
6.001365e+2, 1.8316741e+2, -1087035.6, -1210807.1, -19470.693, -0.000024422021, 0.0013205297, -1084044.9, 60914.51, 0.0, 5.0406623, 4.9607534 
6.000353e+2, 1.8812774e+2, -1047078.06, -1167012.9, -19699.281, 0.00007858695, -0.0011525153, -1043925.3, 52422.793, 0.0, 5.037703, 4.960377 
5.999334e+2, 1.9308773e+2, -1007207.3, -1123650.9, -21002.998, 0.000033088887, 0.0013859759, -1003534.8, 44205.63, 0.0, 5.0347667, 4.95983 
5.998308e+2, 1.9804715e+2, -967099.9, -1079657.8, -21175.781, 0.00005499718, -0.0012482813, -963247.8, 35890.242, 0.0, 5.031814, 4.959479 
5.9972775e+2, 2.0300618e+2, -927249.75, -1036424.3, -22062.623, 0.00003686862, 0.0014116269, -922959.75, 27579.729, 0.0, 5.028881, 4.9588456 
5.9962416e+2, 2.0796464e+2, -886954.94, -992146.0, -22211.385, 0.00010594209, -0.0012486393, -882457.25, 19489.283, 0.0, 5.0259333, 4.9585495 
5.995205e+2, 2.129227e+2, -847145.8, -949055.8, -22680.611, 0.00013621313, 0.0015326464, -842326.06, 11031.397, 0.0, 5.022998, 4.957821 
5.9941655e+2, 2.1788022e+2, -806692.25, -904551.56, -22818.563, 0.000031192958, -0.001291413, -801633.0, 3140.9421, 0.0, 5.020055, 4.9575605 
5.993128e+2, 2.2283727e+2, -766897.0, -861528.75, -22862.48, 0.000032396587, 0.0015475793, -761663.06, -5468.116, 0.0, 5.0171127, 4.956764 
5.992091e+2, 2.2779372e+2, -726311.2, -816841.6, -22996.64, -0.000060923314, -0.0013767275, -720804.5, -13182.873, 0.0, 5.014171, 4.9565263 
5.991057e+2, 2.3274969e+2, -686555.4, -773962.56, -22611.982, 0.0000027883857, 0.0015358248, -681052.2, -21998.938, 0.0, 5.011226, 4.9556346 
5.9900266e+2, 2.3770507e+2, -645742.2, -728909.9, -22724.502, -0.000023803928, -0.0016432158, -639938.06, -29447.586, 0.0, 5.0082917, 4.9554796 
5.9890026e+2, 2.4265991e+2, -606053.06, -686263.5, -21924.473, 0.000226062, 0.0017858002, -600451.5, -38518.64, 0.0, 5.0053477, 4.954455 
5.987985e+2, 2.4761419e+2, -564988.06, -640796.56, -21960.309, 0.00032459653, -0.0016150621, -559086.06, -45705.133, 0.0, 5.0024223, 4.954399 
5.986975e+2, 2.5256783e+2, -525489.2, -598650.6, -20744.902, 0.00023022707, 0.0017298955, -520016.38, -55181.168, 0.0, 4.9994755, 4.9531555 
5.985975e+2, 2.5752097e+2, -484013.66, -552406.2, -20695.93, 0.000120119454, -0.0016264603, -478238.63, -61943.984, 0.0, 4.996559, 4.953327 
5.984985e+2, 2.6247334e+2, -444874.66, -511137.56, -19104.676, 0.00018820592, 0.001822141, -439761.1, -71999.85, 0.0, 4.9936066, 4.9517283 
5.9840095e+2, 2.6742527e+2, -402952.34, -463933.28, -18988.95, 0.00027461565, -0.0014056622, -397522.78, -78290.22, 0.0, 4.9906807, 4.9522014 
5.983044e+2, 2.7237633e+2, -364096.9, -423315.66, -17037.924, 0.0001547342, 0.0020322385, -359544.8, -88832.8, 0.0, 4.9877095, 4.9503255 
5.982096e+2, 2.7732706e+2, -321737.47, -375147.72, -16820.146, 0.00021712575, -0.001419053, -316881.84, -94686.74, 0.0, 4.984772, 4.9511027 
5.9811616e+2, 2.8227693e+2, -283132.47, -335159.53, -14473.535, 0.00025802985, 0.002630754, -279377.13, -105690.62, 0.0, 4.9817905, 4.948957 
5.9802485e+2, 2.8722638e+2, -240418.33, -286194.5, -14132.208, 0.00023196838, -0.0022900826, -236406.9, -111225.15, 0.0, 4.9788394, 4.9499836 
5.9793496e+2, 2.9217485e+2, -202445.38, -247718.97, -11455.754, 0.000102091406, 0.0020675436, -199711.75, -123024.875, 0.0, 4.9758463, 4.9472537 
5.978475e+2, 2.9712301e+2, -159417.97, -198125.88, -10862.025, 0.00007605963, 0.0002047786, -156578.25, -128383.73, 0.0, 4.972898, 4.948463 
5.9776175e+2, 3.0207872e+2, -124061.695, -133550.3, -8222.719, 0.00032338983, 0.001972821, -119312.76, -119312.76, 0.0, 4.9699497, 4.9640026 
5.976793e+2, 3.0704314e+2, -130195.37, -132912.06, -7321.666, 0.0009763551, -0.007010918, -124107.11, -124107.11, 0.0, 4.9671144, 4.9654503 
5.9759855e+2, 3.1202573e+2, -97768.414, -43067.12, -4765.8804, 0.000021882091, 0.0050780834, -42654.996, -42654.996, 0.0, 4.964228, 4.999518 
5.97522e+2, 3.170268e+2, -103380.23, -41244.71, -3631.9236, -0.0019294729, 0.007287432, -41033.137, -41033.137, 0.0, 4.961389, 5.001408 
6.0631245e+2, 1.23692214e+2, -1556708.8, -1728599.3, 1418.3105, 0.00023544455, 0.00080854824, -1556697.1, 171119.38, 0.0, 5.0784645, 4.965245 
6.062297e+2, 1.2865633e+2, -1518533.6, -1687364.5, 770.74243, 0.0004522288, -0.0028444321, -1518530.1, 160637.97, 0.0, 5.075366, 4.9643126 
6.0614365e+2, 1.3362055e+2, -1478525.1, -1642784.0, -3389.5962, -0.0006169313, 0.0038489746, -1478455.3, 152063.61, 0.0, 5.072304, 4.9644003 
6.060555e+2, 1.38584e+2, -1439831.5, -1600464.9, -3902.8245, -0.00030595815, -0.0013148384, -1439736.8, 142140.27, 0.0, 5.0691853, 4.9637976 
6.059648e+2, 1.4354734e+2, -1400064.9, -1556481.9, -7283.35, 0.00021820412, 0.0002832288, -1399726.5, 133509.72, 0.0, 5.0661325, 4.963697 
6.0587215e+2, 1.4851059e+2, -1361077.0, -1513734.1, -7718.9497, -0.00007781571, -0.0007443543, -1360687.6, 123908.805, 0.0, 5.063035, 4.9631944 
6.057773e+2, 1.5347342e+2, -1321317.1, -1469857.8, -10663.571, -0.00013525086, 0.0015484956, -1320555.5, 115405.25, 0.0, 5.059989, 4.963046 
6.0568094e+2, 1.5843585e+2, -1282208.4, -1426990.9, -11041.225, 0.00017222046, -0.0011386795, -1281371.3, 105957.625, 0.0, 5.056902, 4.9625406 
6.055828e+2, 1.6339801e+2, -1242447.4, -1383206.0, -13527.387, 0.00014552103, 0.0013886171, -1241159.1, 97540.56, 0.0, 5.053865, 4.9623156 
6.054832e+2, 1.6835976e+2, -1203132.9, -1340076.4, -13849.645, -0.00009722281, -0.0010865963, -1201746.3, 88328.3, 0.0, 5.050795, 4.961849 
6.053821e+2, 1.7332119e+2, -1163414.8, -1296460.3, -15909.8, -0.00014991914, 0.0012062006, -1161538.8, 79913.85, 0.0, 5.0477633, 4.9615197 
6.0528e+2, 1.7828217e+2, -1123891.3, -1253044.9, -16165.675, 0.00004611953, -0.0011508211, -1121898.6, 70936.19, 0.0, 5.0447087, 4.961103 
6.051767e+2, 1.8324283e+2, -1084208.8, -1209590.5, -17808.146, -0.0000116718475, 0.0012612174, -1081728.5, 62491.984, 0.0, 5.0416822, 4.960677 
6.050725e+2, 1.88203e+2, -1044508.6, -1165938.9, -18000.004, 0.00010578297, -0.0012288587, -1041896.6, 53714.094, 0.0, 5.038638, 4.9602942 
6.049676e+2, 1.9316281e+2, -1004833.6, -1122604.3, -19258.844, 0.000056568813, 0.0013031212, -1001764.25, 45240.21, 0.0, 5.0356193, 4.959778 
6.048619e+2, 1.981221e+2, -964969.56, -1078739.6, -19387.762, 0.0000898727, -0.0013336883, -961756.4, 36647.016, 0.0, 5.032585, 4.9594226 
6.047559e+2, 2.0308103e+2, -925325.0, -1035549.44, -20235.277, 0.000047333517, 0.0013317764, -921727.56, 28078.457, 0.0, 5.0295687, 4.958815 
6.0464936e+2, 2.0803937e+2, -885273.25, -991397.2, -20340.002, 0.0001367358, -0.0013186325, -881508.4, 19705.813, 0.0, 5.0265393, 4.958515 
6.045427e+2, 2.1299735e+2, -845664.3, -948338.6, -20769.523, 0.00015791129, 0.0014427579, -841622.06, 11004.043, 0.0, 5.023521, 4.9578147 
6.044358e+2, 2.1795474e+2, -805455.56, -903968.44, -20868.084, 0.000055531735, -0.0013952053, -801217.4, 2826.209, 0.0, 5.0204964, 4.9575467 
6.0432905e+2, 2.2291172e+2, -765848.56, -860966.06, -20869.799, 0.00005404565, 0.0014580342, -761470.94, -6005.652, 0.0, 5.017475, 4.956781 
6.042223e+2, 2.278681e+2, -725498.56, -816411.56, -20967.545, -0.000028285778, -0.0014494192, -720895.8, -14003.061, 0.0, 5.0144553, 4.9565334 
6.0411596e+2, 2.3282398e+2, -685940.3, -773548.06, -20538.99, 0.00002455223, 0.0014758473, -681364.1, -23039.176, 0.0, 5.011426, 4.955675 
6.040099e+2, 2.3777932e+2, -645390.5, -728638.4, -20614.732, -0.000007831402, -0.0017043924, -640565.3, -30802.568, 0.0, 5.0084033, 4.955511 
6.039046e+2, 2.4273415e+2, -605915.1, -685995.4, -19782.033, 0.00023230103, 0.0017382408, -601294.94, -40089.52, 0.0, 5.005366, 4.954527 
6.037999e+2, 2.476884e+2, -565137.2, -640679.9, -19817.223, 0.00031709898, -0.0016607435, -560254.1, -47600.414, 0.0, 5.0023437, 4.954462 
6.036959e+2, 2.5264207e+2, -525858.3, -598518.4, -18593.877, 0.00022665362, 0.0016984551, -521376.56, -57268.61, 0.0, 4.9992976, 4.953268 
6.0359293e+2, 2.5759518e+2, -484670.75, -552422.56, -18555.86, 0.00014538888, -0.001664069, -479921.56, -64354.38, 0.0, 4.996283, 4.953431 
6.0349095e+2, 2.6254764e+2, -445719.88, -511105.1, -16934.559, 0.00020769257, 0.0017843565, -441594.2, -74560.86, 0.0, 4.9932394, 4.951889 
6.033904e+2, 2.674996e+2, -404048.5, -464035.53, -16768.713, 0.00024250532, -0.001411517, -399679.22, -81175.22, 0.0, 4.9902287, 4.9523516 
6.032909e+2, 2.7245077e+2, -365409.94, -423460.03, -14769.512, 0.0001502312, 0.0019851553, -361868.28, -91885.5, 0.0, 4.9871716, 4.9504976 
6.0319316e+2, 2.7740154e+2, -323301.1, -375417.2, -14510.887, 0.00023792902, -0.0015897907, -319533.2, -98067.94, 0.0, 4.984148, 4.9512677 
6.030967e+2, 2.823515e+2, -284913.56, -335470.84, -12128.566, 0.00023249644, 0.0025361136, -282154.53, -109198.8, 0.0, 4.9810805, 4.949143 
6.030024e+2, 2.8730106e+2, -242433.66, -286621.5, -11783.524, 0.00014511809, -0.0020964465, -239487.75, -115037.9, 0.0, 4.978048, 4.950163 
6.0290956e+2, 2.9224962e+2, -204697.69, -248020.67, -9162.966, 0.00009677018, 0.0020999454, -202839.39, -126885.56, 0.0, 4.974929, 4.9475303 
6.028191e+2, 2.9719794e+2, -162187.84, -198650.77, -8687.398, 0.00028057638, -0.0003856121, -160223.83, -132763.48, 0.0, 4.971795, 4.9487395 
6.0273033e+2, 3.0215394e+2, -127227.664, -134032.4, -6081.7847, 0.00036500694, 0.0019231441, -123661.234, -123661.234, 0.0, 4.9686613, 4.964371 
6.02645e+2, 3.0711877e+2, -133877.13, -133622.58, -5208.916, 0.00046626254, -0.0051762783, -128539.38, -128539.38, 0.0, 4.9656434, 4.9658165 
6.025615e+2, 3.1210142e+2, -101540.09, -43957.03, -2548.3257, 0.00029722945, 0.0044222237, -43844.477, -43844.477, 0.0, 4.962746, 4.9998164 
6.024824e+2, 3.1710187e+2, -106597.6, -41932.26, -1306.8251, 0.00036184787, -0.001292956, -41905.863, -41905.863, 0.0, 4.9601173, 5.0016894 
6.1139023e+2, 1.2377285e+2, -1556479.1, -1729353.4, 489.31866, 0.000317846, 0.0008297081, -1556477.8, 170548.47, 0.0, 5.078712, 4.9648867 
6.1130446e+2, 1.2873657e+2, -1518314.9, -1688099.4, -205.22453, 0.00046546117, -0.0028387222, -1518314.6, 160067.05, 0.0, 5.075603, 4.9639664 
6.112153e+2, 1.3370045e+2, -1478277.0, -1643414.1, -4376.3145, -0.0006442095, 0.0038476395, -1478161.1, 151574.72, 0.0, 5.07253, 4.964095 
6.111239e+2, 1.3866358e+2, -1439599.1, -1601077.4, -4923.0396, -0.0003181129, -0.0012888048, -1439449.1, 141648.0, 0.0, 5.0693994, 4.963505 
6.110301e+2, 1.4362662e+2, -1399808.8, -1556999.4, -8308.352, 0.00022997566, 0.00033014218, -1399370.9, 133088.4, 0.0, 5.0663347, 4.963442 
6.109343e+2, 1.4858958e+2, -1360840.8, -1514238.1, -8787.123, -0.000085539905, -0.00071756094, -1360339.0, 123483.25, 0.0, 5.063225, 4.96295 
6.1083645e+2, 1.5355216e+2, -1321072.8, -1470304.6, -11745.197, -0.00014151832, 0.0015655949, -1320154.0, 115035.09, 0.0, 5.0601687, 4.9628263 
6.1073697e+2, 1.5851437e+2, -1281973.5, -1427419.1, -12164.759, 0.000182818, -0.0010991481, -1280963.1, 105596.38, 0.0, 5.057072, 4.9623322 
6.1063564e+2, 1.634763e+2, -1242189.9, -1383553.6, -14666.489, 0.00014359808, 0.0014573983, -1240684.3, 97248.125, 0.0, 5.054027, 4.962139 
6.1053294e+2, 1.6843787e+2, -1202888.1, -1340417.3, -15036.046, -0.000115637515, -0.0010195214, -1201263.4, 88045.77, 0.0, 5.0509496, 4.9616795 
6.104288e+2, 1.733991e+2, -1163153.4, -1296732.5, -17115.85, -0.00013476466, 0.0012746551, -1160995.1, 79693.8, 0.0, 5.0479097, 4.9613776 
6.1032367e+2, 1.7835994e+2, -1123660.0, -1253340.5, -17419.768, 0.00004245963, -0.0010817873, -1121360.8, 70712.02, 0.0, 5.0448456, 4.960958 
6.102173e+2, 1.8332043e+2, -1083956.3, -1209803.8, -19100.57, -0.000012832826, 0.0013063422, -1081121.1, 62338.656, 0.0, 5.04181, 4.960565 
6.101101e+2, 1.8828048e+2, -1044295.3, -1166190.6, -19337.88, 0.00011758493, -0.0012044427, -1041301.0, 53550.445, 0.0, 5.038756, 4.9601746 
6.100021e+2, 1.9324018e+2, -1004601.1, -1122778.6, -20635.807, 0.0000630535, 0.0013222444, -1001101.4, 45144.96, 0.0, 5.035729, 4.9596887 
6.0989344e+2, 1.9819936e+2, -964764.75, -1078937.0, -20810.135, 0.00010724113, -0.0013199764, -961089.94, 36556.406, 0.0, 5.0326867, 4.9593296 
6.097843e+2, 2.0315817e+2, -925104.56, -1035685.25, -21707.73, 0.00003603552, 0.001353199, -920995.9, 28053.988, 0.0, 5.0296636, 4.9587474 
6.0967475e+2, 2.0811644e+2, -885075.25, -991554.6, -21854.629, 0.00013893275, -0.0013006431, -880764.2, 19694.72, 0.0, 5.026628, 4.958443 
6.095651e+2, 2.1307434e+2, -845445.4, -948426.0, -22334.043, 0.00014647901, 0.0014193885, -840810.25, 11061.244, 0.0, 5.0236044, 4.95777 
6.0945517e+2, 2.1803167e+2, -805264.9, -904089.44, -22479.531, 0.000047076002, -0.0014395593, -800391.75, 2897.8247, 0.0, 5.0205736, 4.957494 
6.093454e+2, 2.229886e+2, -765637.1, -861011.25, -22528.215, 0.000044153236, 0.0014354684, -760583.5, -5871.7954, 0.0, 5.017545, 4.956757 
6.0923564e+2, 2.2794494e+2, -725319.7, -816496.94, -22677.625, -0.0000130880835, -0.0014594472, -719990.75, -13851.208, 0.0, 5.0145187, 4.9564996 
6.0912627e+2, 2.3290081e+2, -685731.75, -773542.7, -22300.443, 0.00003121613, 0.0014590677, -680392.94, -22820.957, 0.0, 5.011484, 4.955675 
6.0901725e+2, 2.3785612e+2, -645205.9, -728672.06, -22428.887, -0.000017314373, -0.0017310035, -639560.6, -30550.676, 0.0, 5.008458, 4.9554996 
6.089089e+2, 2.4281096e+2, -605706.06, -685956.2, -21641.92, 0.00019489309, 0.0017223614, -600241.75, -39789.1, 0.0, 5.005417, 4.954543 
6.0880107e+2, 2.4776521e+2, -564952.9, -640681.25, -21729.19, 0.00025355097, -0.0016852082, -559161.0, -47260.074, 0.0, 5.0023913, 4.954466 
6.0869414e+2, 2.527189e+2, -525632.8, -598398.8, -20548.135, 0.0001885093, 0.0016985582, -520231.25, -56876.387, 0.0, 4.9993396, 4.9533167 
6.085882e+2, 2.576721e+2, -484475.78, -552342.2, -20556.846, 0.00017944862, -0.0016503237, -478734.72, -63920.99, 0.0, 4.996319, 4.9534693 
6.084832e+2, 2.626246e+2, -445432.13, -510780.8, -18980.865, 0.0002290409, 0.0018087903, -440319.1, -74040.055, 0.0, 4.9932685, 4.9520154 
6.083796e+2, 2.675767e+2, -403793.63, -463755.22, -18871.295, 0.00016581756, -0.0013598874, -398348.8, -80600.26, 0.0, 4.9902515, 4.9524655 
6.082771e+2, 2.7252796e+2, -365147.5, -423141.1, -16929.988, 0.00009195232, 0.0019182209, -360566.94, -91340.74, 0.0, 4.9871907, 4.950627 
6.0817635e+2, 2.774788e+2, -323053.84, -375124.28, -16715.834, 0.00019400974, -0.0019128666, -318149.56, -97441.875, 0.0, 4.9841647, 4.951389 
6.0807693e+2, 2.8242892e+2, -284679.97, -335175.6, -14376.386, 0.00013172308, 0.0023698239, -280873.84, -108677.07, 0.0, 4.981091, 4.949268 
6.0797954e+2, 2.8737867e+2, -242232.23, -286361.66, -14074.257, -0.0000013241739, -0.0016792149, -238125.66, -114436.48, 0.0, 4.978051, 4.950279 
6.0788363e+2, 2.9232734e+2, -204422.89, -247618.08, -11543.54, 0.00012150712, 0.0020819928, -201531.52, -126339.266, 0.0, 4.974937, 4.9476953 
6.077901e+2, 2.9727566e+2, -161880.38, -198248.95, -11067.996, 0.0006620502, -0.0019731254, -158776.9, -132078.06, 0.0, 4.971818, 4.948898 
6.0769826e+2, 3.0223203e+2, -126754.04, -133225.27, -8364.76, 0.0003002858, 0.0018483667, -121020.91, -121020.91, 0.0, 4.968681, 4.964677 
6.076097e+2, 3.0719772e+2, -133416.48, -132823.63, -7485.4595, -0.0009667274, 0.0000056556223, -125628.73, -125628.73, 0.0, 4.965658, 4.9661202 
6.075236e+2, 3.1217986e+2, -101056.25, -43146.207, -4508.6563, 0.001089237, 0.0019094603, -42797.28, -42797.28, 0.0, 4.962768, 5.000127 
6.0744256e+2, 3.1717822e+2, -106123.4, -41140.664, -3239.226, 0.0074172784, -0.028102547, -40979.594, -40979.594, 0.0, 4.9601393, 5.0019927 
6.1646944e+2, 1.2385771e+2, -1550369.8, -1726926.0, 1779.7855, 0.000245584, 0.00072237704, -1550351.8, 175842.8, 0.0, 5.0809584, 4.9645886 
6.1638045e+2, 1.2882106e+2, -1512551.1, -1685823.5, 1080.5803, 0.00052823, -0.0027927416, -1512544.4, 165009.22, 0.0, 5.077726, 4.963682 
6.16288e+2, 1.3378459e+2, -1472798.0, -1641201.1, -3045.3035, -0.0006002812, 0.0038148602, -1472743.0, 156168.19, 0.0, 5.0745363, 4.9638505 
6.161934e+2, 1.3874738e+2, -1434443.8, -1599004.8, -3572.3052, -0.00033952598, -0.0014716291, -1434366.3, 145909.56, 0.0, 5.0712905, 4.9632726 
6.1609644e+2, 1.4371015e+2, -1394926.5, -1555002.5, -6894.2007, 0.00022188238, 0.00018602921, -1394630.1, 137010.56, 0.0, 5.0681186, 4.96324 
6.159975e+2, 1.4867282e+2, -1356248.3, -1512362.9, -7352.5034, -0.00007916514, -0.000762875, -1355902.8, 127103.7, 0.0, 5.064904, 4.9627614 
6.158964e+2, 1.5363514e+2, -1316734.1, -1468500.6, -10246.643, -0.00014395828, 0.0015154725, -1316045.5, 118330.22, 0.0, 5.0617485, 4.9626646 
6.1579376e+2, 1.5859711e+2, -1277907.8, -1425729.4, -10635.449, 0.00016911695, -0.0011851426, -1277146.5, 108602.06, 0.0, 5.058554, 4.9621816 
6.1568934e+2, 1.6355884e+2, -1238371.6, -1381938.5, -13075.069, 0.0001405183, 0.0013978736, -1237190.5, 99933.086, 0.0, 5.0554132, 4.9620123 
6.1558354e+2, 1.6852018e+2, -1199339.3, -1338920.8, -13422.043, -0.00010728085, -0.001028813, -1198060.3, 90442.11, 0.0, 5.05224, 4.9615607 
6.1547625e+2, 1.7348124e+2, -1159829.0, -1295295.8, -15438.294, -0.000102866485, 0.0012734616, -1158091.9, 81792.164, 0.0, 5.0491114, 4.9612837 
6.15368e+2, 1.784419e+2, -1120593.6, -1252039.5, -15708.603, 0.000037037, -0.0011013411, -1118742.5, 72527.195, 0.0, 5.0459604, 4.960861 
6.1525846e+2, 1.8340223e+2, -1081085.1, -1208528.4, -17331.428, -0.000024108178, 0.0012604153, -1078770.1, 63888.14, 0.0, 5.0428424, 4.9605002 
6.151482e+2, 1.8836209e+2, -1041673.0, -1165054.5, -17523.621, 0.00011695435, -0.001271014, -1039232.44, 54819.125, 0.0, 5.0397067, 4.960103 
6.150371e+2, 1.9332166e+2, -1002177.3, -1121682.9, -18767.467, 0.00007165467, 0.0012706171, -999299.4, 46148.49, 0.0, 5.0365987, 4.9596434 
6.149253e+2, 1.9828069e+2, -962576.75, -1077959.4, -18897.52, 0.00014520061, -0.0013556392, -959560.5, 37288.707, 0.0, 5.033476, 4.959283 
6.1481315e+2, 2.032394e+2, -923117.0, -1034749.75, -19748.08, 0.00003873306, 0.0012919937, -919726.5, 28527.418, 0.0, 5.030372, 4.9587255 
6.147005e+2, 2.0819752e+2, -883316.8, -990736.6, -19848.602, 0.00012305847, -0.0013957085, -879766.6, 19897.553, 0.0, 5.027259, 4.958418 
6.145878e+2, 2.1315533e+2, -843882.56, -947648.4, -20285.092, 0.000117862146, 0.0013187816, -840058.0, 11019.741, 0.0, 5.024156, 4.9577684 
6.144748e+2, 2.1811256e+2, -803938.3, -903439.4, -20387.275, 0.00006886545, -0.0015180178, -799923.06, 2573.781, 0.0, 5.021046, 4.9574857 
6.1436194e+2, 2.230694e+2, -764509.75, -860395.94, -20394.559, 0.00008022985, 0.0013835614, -760352.2, -6432.3687, 0.0, 5.0179367, 4.9567757 
6.142491e+2, 2.2802565e+2, -724437.06, -816016.7, -20504.637, 0.00003137386, -0.0015050693, -720055.75, -14707.203, 0.0, 5.0148287, 4.9565096 
6.1413664e+2, 2.3298146e+2, -685033.5, -773072.44, -20082.387, 0.000046887904, 0.0014002312, -680668.9, -23887.307, 0.0, 5.0117145, 4.9557185 
6.140246e+2, 2.379367e+2, -644743.56, -728337.25, -20177.713, -0.00004404385, -0.0017874101, -640127.94, -31907.754, 0.0, 5.008611, 4.9555316 
6.139131e+2, 2.4289149e+2, -605432.1, -685631.94, -19348.709, 0.00015465623, 0.0016931975, -601008.2, -41344.867, 0.0, 5.0054893, 4.9546075 
6.138023e+2, 2.4784571e+2, -564925.25, -640496.1, -19403.89, 0.00025378467, -0.0017185595, -560234.25, -49122.17, 0.0, 5.0023823, 4.9545193 
6.136923e+2, 2.5279936e+2, -525809.4, -598208.9, -18187.76, 0.0002303166, 0.0016815276, -521497.2, -58930.97, 0.0, 4.9992404, 4.9534116 
6.1358327e+2, 2.5775254e+2, -484942.44, -552309.8, -18169.375, 0.00023442015, -0.0016413833, -480354.5, -66329.25, 0.0, 4.996122, 4.9535522 
6.134752e+2, 2.627051e+2, -446119.44, -510726.66, -16578.63, 0.00025891772, 0.0017806162, -442113.63, -76623.19, 0.0, 4.992971, 4.95215 
6.133685e+2, 2.6765716e+2, -404783.7, -463859.34, -16487.09, 0.00015427922, -0.001492043, -400493.9, -83534.055, 0.0, 4.9898515, 4.9525895 
6.13263e+2, 2.726085e+2, -366336.6, -423213.03, -14531.533, 0.000120038065, 0.0018581329, -362838.97, -94402.06, 0.0, 4.9866986, 4.9508014 
6.131592e+2, 2.7755946e+2, -324485.3, -375321.06, -14304.934, 0.00019415402, -0.0017183603, -320736.4, -100818.94, 0.0, 4.9835896, 4.9515553 
6.1305666e+2, 2.8250962e+2, -286379.63, -335414.22, -11955.073, 0.00017385346, 0.0023366858, -283620.2, -112214.2, 0.0, 4.980408, 4.9494653 
6.129562e+2, 2.8745937e+2, -244309.55, -286781.13, -11618.572, 0.00023872497, -0.002380692, -241338.92, -118440.734, 0.0, 4.977236, 4.950469 
6.1285716e+2, 2.9240823e+2, -206511.5, -247797.94, -9007.814, 0.000191902, 0.0019824114, -204631.77, -130232.414, 0.0, 4.974074, 4.947989 
6.1276054e+2, 2.973569e+2, -163824.17, -198377.48, -8488.404, 0.00015534424, -0.0002627849, -161851.52, -135949.1, 0.0, 4.9710093, 4.9491844 
6.1266553e+2, 3.023133e+2, -129439.44, -133911.2, -6102.696, 0.00013894918, 0.001996478, -125175.93, -125175.93, 0.0, 4.967649, 4.9648585 
6.1257386e+2, 3.0727854e+2, -137675.97, -134208.23, -5562.152, 0.00023073077, -0.004780192, -130115.97, -130115.97, 0.0, 4.964065, 4.9662952 
6.124849e+2, 3.122614e+2, -105168.79, -45168.37, -2297.5266, 0.000429482, 0.0049946913, -45080.523, -45080.523, 0.0, 4.9613595, 4.9999747 
6.124012e+2, 3.1726164e+2, -107374.6, -41959.684, -1880.9375, 0.0010966124, -0.0036772785, -41905.64, -41905.64, 0.0, 4.9597745, 5.0018306 
6.215496e+2, 1.23944685e+2, -1550104.3, -1727628.3, 846.34296, 0.0002382011, 0.0007239991, -1550100.1, 175241.94, 0.0, 5.0812087, 4.964247 
6.214574e+2, 1.289077e+2, -1512312.5, -1686509.1, 94.5441, 0.00061030476, -0.0026672266, -1512312.4, 164392.25, 0.0, 5.0779595, 4.963355 
6.213617e+2, 1.3387088e+2, -1472529.1, -1641779.1, -4037.2185, -0.00052548863, 0.003883894, -1472432.9, 155632.69, 0.0, 5.0747585, 4.963565 
6.2126386e+2, 1.3883334e+2, -1434182.4, -1599559.0, -4601.7104, -0.00030787947, -0.0015248581, -1434054.4, 145378.97, 0.0, 5.0715027, 4.9630003 
6.211636e+2, 1.4379582e+2, -1394648.5, -1555484.4, -7922.268, 0.00025746616, 0.00017675961, -1394259.3, 136541.73, 0.0, 5.068321, 4.9629974 
6.2106144e+2, 1.4875826e+2, -1355981.6, -1512822.5, -8425.742, -0.00004764121, -0.0006921025, -1355530.4, 126638.95, 0.0, 5.0650964, 4.9625316 
6.2095714e+2, 1.5372033e+2, -1316450.3, -1468890.1, -11329.873, -0.00013534381, 0.00158684, -1315612.8, 117928.13, 0.0, 5.061932, 4.962463 
6.2085134e+2, 1.5868206e+2, -1277630.3, -1426097.4, -11766.267, 0.00015310723, -0.0011375623, -1276703.5, 108212.484, 0.0, 5.058729, 4.9619923 
6.2074363e+2, 1.636436e+2, -1238093.6, -1382268.8, -14221.905, 0.00014027717, 0.0014619277, -1236704.1, 99588.85, 0.0, 5.055579, 4.96184 
6.206346e+2, 1.6860475e+2, -1199072.8, -1339235.3, -14618.528, -0.000093472256, -0.00092500483, -1197564.4, 90109.36, 0.0, 5.052397, 4.9613996 
6.205242e+2, 1.7356564e+2, -1159546.3, -1295544.0, -16651.645, -0.000071219605, 0.0013843275, -1157537.1, 81519.836, 0.0, 5.04926, 4.961149 
6.2041277e+2, 1.7852612e+2, -1120330.3, -1252297.5, -16972.404, 0.00002743857, -0.0010080555, -1118182.4, 72261.74, 0.0, 5.046102, 4.9607277 
6.203002e+2, 1.8348633e+2, -1080802.5, -1208717.9, -18626.684, -0.000045703844, 0.00133087, -1078145.3, 63688.887, 0.0, 5.0429773, 4.960394 
6.201867e+2, 1.8844606e+2, -1041418.25, -1165270.8, -18870.064, 0.00009472669, -0.0012280567, -1038607.0, 54621.688, 0.0, 5.0398335, 4.959992 
6.200724e+2, 1.9340551e+2, -1001912.56, -1121845.9, -20158.813, 0.00005622701, 0.0013334776, -998614.9, 46011.254, 0.0, 5.036718, 4.9595547 
6.1995757e+2, 1.9836442e+2, -962336.6, -1078138.1, -20339.117, 0.00015246698, -0.0012787917, -958868.2, 37160.42, 0.0, 5.033587, 4.959193 
6.198423e+2, 2.0332302e+2, -922865.5, -1034872.9, -21237.559, 0.000009674081, 0.0013256647, -918973.9, 28460.352, 0.0, 5.0304756, 4.9586587 
6.197265e+2, 2.0828108e+2, -883090.25, -990880.56, -21386.686, 0.00007858938, -0.0014010768, -879002.0, 19843.35, 0.0, 5.027355, 4.9583483 
6.1961067e+2, 2.1323882e+2, -843642.94, -947739.2, -21880.18, 0.00005632536, 0.0013215394, -839230.94, 11028.654, 0.0, 5.024246, 4.9577203 
6.1949456e+2, 2.1819599e+2, -803722.4, -903556.8, -22035.113, 0.000060530365, -0.0014989303, -799075.2, 2604.1003, 0.0, 5.021131, 4.957432 
6.193786e+2, 2.2315277e+2, -764275.56, -860450.06, -22095.135, 0.000084696745, 0.0014196608, -759442.3, -6339.5747, 0.0, 5.0180163, 4.956746 
6.192627e+2, 2.2810897e+2, -724227.94, -816105.0, -22259.29, 0.000037292404, -0.0014665809, -719119.2, -14587.237, 0.0, 5.0149035, 4.956471 
6.191472e+2, 2.3306476e+2, -684801.06, -773079.75, -21889.969, 0.000021723201, 0.0014140882, -679671.25, -23705.908, 0.0, 5.0117826, 4.9557114 
6.190319e+2, 2.3801997e+2, -644546.7, -728391.7, -22041.393, -0.00011304041, -0.0017772419, -639105.5, -31701.355, 0.0, 5.0086727, 4.955512 
6.1891735e+2, 2.4297476e+2, -605211.06, -685600.4, -21266.508, 0.000078192366, 0.0017302174, -599931.8, -41084.51, 0.0, 5.005544, 4.9546213 
6.1880344e+2, 2.4792898e+2, -564736.0, -640511.1, -21378.604, 0.00024079115, -0.0016938625, -559120.56, -48824.43, 0.0, 5.0024314, 4.9545197 
6.186903e+2, 2.5288266e+2, -525584.0, -598120.94, -20221.365, 0.00026817806, 0.0017053596, -520327.72, -58577.6, 0.0, 4.999285, 4.9534497 
6.185782e+2, 2.5783584e+2, -484745.28, -552271.44, -20254.15, 0.0002628766, -0.0016016187, -479136.1, -65927.195, 0.0, 4.996164, 4.953575 
6.1846703e+2, 2.627884e+2, -445893.88, -510600.53, -18711.588, 0.00025645876, 0.0017515005, -440872.6, -76198.82, 0.0, 4.993008, 4.952205 
6.1835724e+2, 2.6774055e+2, -404588.13, -463777.47, -18671.033, 0.00013315583, -0.0016972026, -399190.63, -83047.7, 0.0, 4.9898834, 4.952632 
6.182486e+2, 2.7269197e+2, -366075.4, -422943.84, -16754.014, 0.00014632892, 0.0018345657, -361506.56, -93887.57, 0.0, 4.986723, 4.950913 
6.1814165e+2, 2.7764305e+2, -324262.06, -375098.2, -16578.73, 0.00017305705, -0.0011989841, -319333.25, -100235.25, 0.0, 4.9836063, 4.9516544 
6.1803603e+2, 2.8259328e+2, -286106.16, -335065.53, -14320.1, 0.0002732407, 0.002328964, -282225.3, -111639.52, 0.0, 4.980422, 4.94961 
6.179325e+2, 2.8754306e+2, -244034.97, -286451.4, -14027.563, 0.0007008368, -0.003928418, -239815.63, -117737.46, 0.0, 4.977254, 4.950606 
6.1783034e+2, 2.9249227e+2, -206092.75, -247102.48, -11336.408, 0.00020152947, 0.0019457993, -203167.64, -129591.83, 0.0, 4.9740853, 4.948258 
6.177305e+2, 2.9744166e+2, -163459.4, -197722.69, -10822.849, -0.0011532312, 0.004232938, -160327.11, -135255.31, 0.0, 4.9710045, 4.949447 
6.176323e+2, 3.0239764e+2, -129446.875, -134162.86, -8817.699, -0.000031424694, 0.0017829771, -122677.33, -122677.33, 0.0, 4.967654, 4.9647923 
6.1753744e+2, 3.073614e+2, -137671.27, -134481.27, -8273.378, 0.003869775, -0.019548498, -127650.54, -127650.54, 0.0, 4.9640803, 4.966216 
6.1744523e+2, 3.1234643e+2, -105875.85, -47235.723, -3396.4114, -0.0024410854, 0.016033847, -47039.66, -47039.66, 0.0, 4.9614053, 4.999219 
6.1735815e+2, 3.17353e+2, -107991.445, -44049.35, -2956.9832, -0.020371076, 0.078583546, -43912.9, -43912.9, 0.0, 4.959865, 5.001046 
6.2663114e+2, 1.2403609e+2, -1543962.3, -1725127.0, 2164.4, 0.00019706572, 0.0006025133, -1543936.4, 180510.06, 0.0, 5.08346, 4.96397 
6.265356e+2, 1.2899873e+2, -1506521.4, -1684152.3, 1412.4127, 0.00058271986, -0.002737247, -1506510.1, 169302.36, 0.0, 5.080083, 4.963096 
6.2643653e+2, 1.3396159e+2, -1467023.3, -1639486.5, -2656.5168, -0.00047217947, 0.003791404, -1466982.3, 160194.2, 0.0, 5.0767655, 4.963345 
6.263354e+2, 1.3892373e+2, -1428995.6, -1597401.3, -3198.3083, -0.00023615822, -0.0016347962, -1428934.9, 149612.47, 0.0, 5.0733957, 4.9627943 
6.262318e+2, 1.4388596e+2, -1389739.8, -1553411.8, -6444.2974, 0.00031532158, 0.000106980275, -1389486.4, 140431.3, 0.0, 5.0701065, 4.962818 
6.2612635e+2, 1.4884812e+2, -1351365.1, -1510869.1, -6921.5537, -0.000016801816, -0.0007468833, -1351065.4, 130223.305, 0.0, 5.066776, 4.9623666 
6.260188e+2, 1.5380996e+2, -1312091.4, -1467018.1, -9750.229, -0.00013283183, 0.0015392345, -1311480.1, 121182.35, 0.0, 5.063513, 4.9623213 
6.259097e+2, 1.5877146e+2, -1273534.1, -1424330.3, -10155.979, 0.00011414654, -0.0011635405, -1272853.3, 111186.72, 0.0, 5.0602145, 4.961864 
6.2579876e+2, 1.6373278e+2, -1234243.9, -1380586.4, -12540.138, 0.000121071804, 0.0014316746, -1233177.1, 102241.9, 0.0, 5.0569715, 4.961731 
6.256865e+2, 1.6869372e+2, -1195479.5, -1337657.6, -12899.351, -0.00007209104, -0.0009590481, -1194318.6, 92483.01, 0.0, 5.053696, 4.9613013 
6.2557286e+2, 1.7365445e+2, -1156180.3, -1294037.9, -14859.48, -0.000020648817, 0.0013445523, -1154596.9, 83589.85, 0.0, 5.0504723, 4.961071 
6.254582e+2, 1.7861477e+2, -1117213.1, -1250901.9, -15150.835, 0.000036475176, -0.0010589828, -1115517.6, 74057.96, 0.0, 5.0472255, 4.960656 
6.253424e+2, 1.835748e+2, -1077904.1, -1207403.9, -16734.432, -0.000046031528, 0.0012987556, -1075776.6, 65190.527, 0.0, 5.044019, 4.9603357 
6.252258e+2, 1.8853436e+2, -1038746.6, -1164062.4, -16937.734, 0.000076386284, -0.0012483629, -1036497.7, 55865.6, 0.0, 5.0407968, 4.959936 
6.2510836e+2, 1.9349366e+2, -999445.4, -1120699.3, -18160.719, 0.000020330817, 0.0012808025, -996783.75, 46978.35, 0.0, 5.0376024, 4.959517 
6.249903e+2, 1.9845244e+2, -960087.7, -1077094.8, -18294.014, 0.00013167798, -0.0013630999, -957294.1, 37871.918, 0.0, 5.0343957, 4.959157 
6.248718e+2, 2.0341092e+2, -920811.8, -1033880.44, -19142.814, -0.0000033708793, 0.0012285139, -917658.8, 28914.059, 0.0, 5.0312076, 4.9586425 
6.247529e+2, 2.0836885e+2, -881260.94, -989999.8, -19241.842, 0.00011316523, -0.0015022869, -877956.44, 20028.762, 0.0, 5.0280104, 4.9583306 
6.246338e+2, 2.1332647e+2, -842010.25, -946913.94, -19683.78, 0.00006916793, 0.0012434459, -838438.5, 10962.022, 0.0, 5.024825, 4.9577203 
6.245146e+2, 2.1828352e+2, -802311.5, -902845.6, -19795.611, 0.000072487834, -0.0015498421, -798554.06, 2267.2708, 0.0, 5.0216346, 4.957428 
6.2439543e+2, 2.2324023e+2, -763049.94, -859772.75, -19813.152, 0.00006520531, 0.0013716603, -759148.6, -6902.9478, 0.0, 5.018444, 4.9567666 
6.242764e+2, 2.2819634e+2, -723224.3, -815547.7, -19934.457, -0.0000026679995, -0.0015241718, -719104.0, -15428.09, 0.0, 5.0152574, 4.9564843 
6.241577e+2, 2.3315203e+2, -683986.3, -772548.06, -19521.92, 0.0000065589256, 0.001386676, -679874.0, -24764.033, 0.0, 5.0120583, 4.9557524 
6.2403935e+2, 2.3810717e+2, -643974.5, -727996.6, -19638.143, -0.00006810099, -0.0017459827, -639611.1, -33061.54, 0.0, 5.0088677, 4.9555426 
6.239217e+2, 2.430619e+2, -604829.06, -685207.25, -18822.08, 0.000103366765, 0.0017561901, -600639.9, -42646.582, 0.0, 5.0056562, 4.954689 
6.238046e+2, 2.4801606e+2, -564605.9, -640263.3, -18900.97, 0.00024080065, -0.0017016177, -560146.75, -50704.0, 0.0, 5.002461, 4.9545746 
6.236883e+2, 2.5296968e+2, -525632.06, -597861.6, -17707.17, 0.00030961554, 0.0016718892, -521524.7, -60627.6, 0.0, 4.999234, 4.953544 
6.23573e+2, 2.5792286e+2, -485037.6, -552154.8, -17706.31, 0.00032681655, -0.0016949475, -480652.9, -68296.695, 0.0, 4.9960327, 4.9536552 
6.2345874e+2, 2.628754e+2, -446379.25, -510471.78, -16124.318, 0.00028751898, 0.001714218, -442551.34, -78730.21, 0.0, 4.992791, 4.9523273 
6.233458e+2, 2.6782754e+2, -405347.75, -463799.7, -16049.168, 0.0001252807, -0.0015829415, -401231.06, -85940.86, 0.0, 4.9895744, 4.9527416 
6.23234e+2, 2.7277896e+2, -367057.56, -422927.1, -14096.87, 0.00021025137, 0.0017225754, -363702.2, -96935.94, 0.0, 4.9863095, 4.951081 
6.231238e+2, 2.7773008e+2, -325591.94, -375262.38, -13905.462, 0.00026251242, -0.0017995068, -321964.0, -103718.695, 0.0, 4.983074, 4.95181 
6.23015e+2, 2.8268042e+2, -287590.53, -335190.56, -11615.76, 0.00026039034, 0.0023001784, -284907.22, -115175.29, 0.0, 4.9798174, 4.9498105 
6.2290835e+2, 2.8763038e+2, -245617.34, -286633.63, -11333.932, 0.00053029135, -0.0025734294, -242693.84, -121471.54, 0.0, 4.976617, 4.9507985 
6.228029e+2, 2.925796e+2, -208088.73, -247230.1, -8748.987, 0.00011714468, 0.0019438453, -206222.16, -133502.16, 0.0, 4.973258, 4.9485517 
6.226999e+2, 2.975288e+2, -166406.97, -198277.92, -8332.486, -0.0009905869, 0.0007099433, -164359.97, -140142.33, 0.0, 4.969838, 4.9497347 
6.225985e+2, 3.0248532e+2, -131903.48, -134418.83, -6142.0195, 0.00009579971, 0.0015577017, -126891.695, -126891.695, 0.0, 4.966647, 4.965115 
6.2250036e+2, 3.0745015e+2, -138169.61, -133921.55, -5175.3345, 0.0037566025, -0.010734054, -130451.33, -130451.33, 0.0, 4.9637856, 4.9665236 
6.224047e+2, 3.1243294e+2, -113049.25, -53701.383, -1138.3047, -0.0038716435, 0.01006304, -53679.56, -53679.56, 0.0, 4.959499, 4.9976525 
6.223139e+2, 3.1743446e+2, -126076.93, -55164.703, -2153.2708, -0.02487517, 0.03861018, -55099.375, -55099.375, 0.0, 4.9540095, 4.9994893 
6.3171375e+2, 1.2412971e+2, -1543692.9, -1725794.8, 1236.7764, 0.0002274213, 0.00054463407, -1543684.4, 179844.39, 0.0, 5.083703, 4.963645 
6.3161474e+2, 1.2909201e+2, -1506234.6, -1684770.9, 427.20584, 0.00055542117, -0.0027024227, -1506233.6, 168664.75, 0.0, 5.080322, 4.9627895 
6.3151234e+2, 1.3405456e+2, -1466712.8, -1640004.4, -3643.7937, -0.00040379236, 0.0038178859, -1466636.1, 159629.3, 0.0, 5.076992, 4.963079 
6.314078e+2, 1.390164e+2, -1428704.5, -1597898.6, -4228.785, -0.00014323274, -0.0016254421, -1428598.9, 149040.4, 0.0, 5.0736074, 4.9625425 
6.3130087e+2, 1.4397834e+2, -1389432.3, -1553839.0, -7470.5146, 0.00038009378, 0.00016210956, -1389093.5, 139918.67, 0.0, 5.0703096, 4.9625945 
6.31192e+2, 1.4894025e+2, -1351060.1, -1511267.5, -7996.6313, 0.000014444697, -0.00067813345, -1350662.0, 129723.69, 0.0, 5.06697, 4.9621572 
6.310811e+2, 1.5390189e+2, -1311778.6, -1467364.4, -10829.237, -0.00011511989, 0.0016169345, -1311028.5, 120733.21, 0.0, 5.0636983, 4.9621344 
6.309687e+2, 1.5886316e+2, -1273227.8, -1424650.9, -11285.854, 0.00009609188, -0.0010680265, -1272391.1, 110750.086, 0.0, 5.0603905, 4.9616904 
6.308545e+2, 1.6382429e+2, -1233932.5, -1380864.9, -13687.023, 0.000109150205, 0.0015199482, -1232668.4, 101853.75, 0.0, 5.05714, 4.9615765 
6.3073903e+2, 1.6878507e+2, -1195174.6, -1337916.1, -14098.302, -0.000058835845, -0.00087257294, -1193795.5, 92111.18, 0.0, 5.053856, 4.961158 
6.306221e+2, 1.7374562e+2, -1155875.1, -1294268.4, -16077.23, 0.000014775772, 0.0014293466, -1154032.0, 83261.22, 0.0, 5.050626, 4.9609413 
6.3050413e+2, 1.7870577e+2, -1116916.0, -1251123.9, -16427.623, 0.000027952281, -0.0009913708, -1114934.5, 73749.15, 0.0, 5.0473723, 4.960533 
6.3038504e+2, 1.8366568e+2, -1077598.1, -1207581.3, -18032.86, -0.00005327844, 0.0013928188, -1075142.9, 64933.695, 0.0, 5.04416, 4.9602313 
6.302652e+2, 1.8862513e+2, -1038456.06, -1164247.3, -18292.668, 0.000050511288, -0.0011327468, -1035849.94, 55623.918, 0.0, 5.040931, 4.959833 
6.3014454e+2, 1.9358431e+2, -999144.56, -1120838.3, -19562.77, -0.000038960196, 0.0013441236, -996077.06, 46796.766, 0.0, 5.0377307, 4.959433 
6.300233e+2, 1.9854297e+2, -959810.1, -1077252.0, -19750.31, 0.00008401342, -0.0013395676, -956577.6, 37701.258, 0.0, 5.034517, 4.959071 
6.299015e+2, 2.0350136e+2, -920529.0, -1033996.8, -20650.387, -0.000034739747, 0.0012513602, -916887.6, 28799.016, 0.0, 5.0313215, 4.958575 
6.2977946e+2, 2.0845918e+2, -881003.94, -990138.44, -20805.09, 0.00012812616, -0.0014885666, -877172.25, 19927.582, 0.0, 5.0281167, 4.9582596 
6.296572e+2, 2.1341673e+2, -841743.25, -947007.3, -21304.213, 0.000057433772, 0.0012757169, -837595.0, 10920.841, 0.0, 5.0249257, 4.9576674 
6.295348e+2, 2.1837372e+2, -802066.9, -902966.2, -21473.273, 0.00005186085, -0.0014993837, -797687.06, 2250.3882, 0.0, 5.0217304, 4.957369 
6.294125e+2, 2.2333036e+2, -762791.56, -859837.75, -21546.316, 0.0000035140718, 0.0014052186, -758222.94, -6860.5903, 0.0, 5.0185337, 4.9567304 
6.292902e+2, 2.282864e+2, -722994.44, -815643.94, -21725.676, -0.00008737504, -0.0015182742, -718152.94, -15359.8545, 0.0, 5.0153403, 4.9564414 
6.291684e+2, 2.3324208e+2, -683744.25, -772585.0, -21378.246, -0.000037587626, 0.001440099, -678867.56, -24640.06, 0.0, 5.012134, 4.955734 
6.2904686e+2, 2.381972e+2, -643764.0, -728075.0, -21553.363, -0.000025363863, -0.0016227112, -638573.6, -32906.164, 0.0, 5.008937, 4.955513 
6.28926e+2, 2.431519e+2, -604588.56, -685190.75, -20797.3, 0.00011844491, 0.0018376448, -599538.75, -42427.387, 0.0, 5.0057197, 4.9546957 
6.2880564e+2, 2.4810602e+2, -564399.25, -640298.4, -20937.633, 0.0001995884, -0.0016788619, -559006.56, -50445.555, 0.0, 5.0025187, 4.9545665 
6.286862e+2, 2.530597e+2, -525395.06, -597795.4, -19804.03, 0.00031585104, 0.0016632647, -520332.03, -60316.83, 0.0, 4.999285, 4.953574 
6.2856776e+2, 2.5801283e+2, -484837.72, -552140.94, -19862.104, 0.0003684338, -0.0017954942, -479413.34, -67939.04, 0.0, 4.996077, 4.9536705 
6.284502e+2, 2.629654e+2, -446143.78, -510342.3, -18343.398, 0.00028498337, 0.0017153433, -441272.2, -78333.5, 0.0, 4.992828, 4.952386 
6.2833405e+2, 2.6791763e+2, -405148.8, -463722.4, -18326.48, 0.00008082441, -0.0012931166, -399887.44, -85480.38, 0.0, 4.989605, 4.9527855 
6.28219e+2, 2.7286908e+2, -366810.28, -422713.7, -16437.916, 0.0002529162, 0.001525659, -362335.1, -96452.266, 0.0, 4.986335, 4.951175 
6.2810564e+2, 2.778202e+2, -325375.28, -375099.16, -16302.537, 0.00036208436, -0.003116474, -320506.97, -103144.8, 0.0, 4.9830956, 4.951889 
6.2799364e+2, 2.8277075e+2, -287345.9, -334917.9, -14027.75, 0.00008858665, 0.0023694239, -283517.56, -114671.11, 0.0, 4.9798293, 4.9499316 
6.278837e+2, 2.877212e+2, -245397.3, -286394.88, -13775.169, -0.00016489161, 0.0009823426, -241198.81, -120866.42, 0.0, 4.9766245, 4.9509106 
6.277751e+2, 2.9267016e+2, -207749.86, -246787.75, -11346.743, -0.000020046675, 0.0015363175, -204691.44, -132858.98, 0.0, 4.9732785, 4.94873 
6.2766874e+2, 2.976185e+2, -166027.42, -197836.42, -10925.181, 0.00041152575, -0.010176566, -162636.52, -139298.02, 0.0, 4.9698772, 4.949905 
6.2756413e+2, 3.0257654e+2, -131138.36, -133019.6, -8277.707, 0.00024898833, 0.0024129667, -123748.0, -123748.0, 0.0, 4.9666734, 4.9656353 
6.2746274e+2, 3.075451e+2, -137519.81, -132729.13, -7325.3574, -0.00025316098, 0.02272769, -127417.414, -127417.414, 0.0, 4.9638, 4.9669743 
6.2736344e+2, 3.1252035e+2, -116318.83, -61365.73, -5331.903, -0.0031601475, -0.020961048, -60853.176, -60853.176, 0.0, 4.959482, 4.9948797 
6.2728286e+2, 3.1748542e+2, -88001.86, 32824.42, -3879.0732, 0.13318467, -0.33195782, 32948.83, 32948.83, 0.0, 4.9538317, 5.0321517 
6.367976e+2, 1.2422793e+2, -1537543.6, -1723229.3, 2591.388, 0.00023628876, 0.00026420382, -1537507.5, 185058.67, 0.0, 5.08595, 4.963391 
6.366952e+2, 1.291899e+2, -1500427.6, -1682337.8, 1784.0327, 0.00041370248, -0.0027727238, -1500410.1, 173528.89, 0.0, 5.0824423, 4.962557 
6.365892e+2, 1.3415213e+2, -1461197.3, -1637644.5, -2218.499, -0.0004001208, 0.0037387146, -1461169.4, 164139.73, 0.0, 5.0789957, 4.962882 
6.3648134e+2, 1.3911368e+2, -1423509.1, -1595666.1, -2774.1262, -0.00009140809, -0.00175654, -1423464.5, 153221.4, 0.0, 5.0754943, 4.962363 
6.363709e+2, 1.4407538e+2, -1384514.4, -1551691.0, -5925.5415, 0.00038663743, 0.000058056372, -1384304.6, 143756.63, 0.0, 5.072089, 4.9624414 
6.3625866e+2, 1.4903703e+2, -1346427.4, -1509231.8, -6422.186, 0.00000012410217, -0.0007521834, -1346174.4, 133262.73, 0.0, 5.0686455, 4.96202 
6.361444e+2, 1.5399845e+2, -1307408.0, -1465419.8, -9168.412, -0.00009897802, 0.0015390847, -1306877.9, 123937.64, 0.0, 5.065275, 4.9620166 
6.3602865e+2, 1.5895951e+2, -1269119.8, -1422805.9, -9588.319, 0.00011437109, -0.0011448966, -1268523.9, 113673.27, 0.0, 5.061871, 4.961588 
6.35911e+2, 1.6392045e+2, -1230068.8, -1379111.9, -11908.379, 0.00011708058, 0.0014291827, -1229123.3, 104456.68, 0.0, 5.0585294, 4.961489 
6.357922e+2, 1.6888101e+2, -1191555.1, -1336259.9, -12277.156, -0.000067295216, -0.0009679518, -1190520.9, 94445.45, 0.0, 5.055157, 4.961083 
6.356719e+2, 1.738414e+2, -1152484.0, -1292702.6, -14172.944, 0.000028438215, 0.0013519466, -1151065.8, 85288.8, 0.0, 5.0518427, 4.960878 
6.3555074e+2, 1.7880137e+2, -1113760.8, -1249657.8, -14482.02, 0.000015895277, -0.0010527726, -1112234.5, 75512.11, 0.0, 5.0485053, 4.9604783 
6.3542837e+2, 1.8376112e+2, -1074661.4, -1206200.0, -16008.586, -0.000038597536, 0.0013406598, -1072741.1, 66400.01, 0.0, 5.0452123, 4.960188 
6.3530517e+2, 1.8872043e+2, -1035738.56, -1162965.8, -16233.13, 0.00007776012, -0.0011884241, -1033700.0, 56839.945, 0.0, 5.0419064, 4.959794 
6.3518125e+2, 1.9367945e+2, -996625.2, -1119624.6, -17428.822, -0.000033567016, 0.0012635149, -994203.25, 47738.133, 0.0, 5.038631, 4.959408 
6.3505673e+2, 1.9863798e+2, -957503.7, -1076140.3, -17570.1, 0.000097145065, -0.0014302678, -954956.25, 38391.586, 0.0, 5.0353436, 4.959047 
6.3493174e+2, 2.0359623e+2, -918417.4, -1032952.06, -18409.38, -0.0000214351, 0.0011744209, -915531.1, 29225.66, 0.0, 5.0320745, 4.9585633 
6.3480645e+2, 2.0855394e+2, -879102.2, -989194.7, -18512.563, 0.00016502963, -0.0015484324, -876072.56, 20098.729, 0.0, 5.0287976, 4.958248 
6.34681e+2, 2.1351136e+2, -840030.4, -946116.2, -18958.482, 0.00006882834, 0.0011962145, -836744.1, 10844.324, 0.0, 5.025533, 4.9576735 
6.345553e+2, 2.1846822e+2, -800557.9, -902178.9, -19077.045, 0.00006787221, -0.0016309046, -797094.6, 1916.6869, 0.0, 5.0222683, 4.957372 
6.3442975e+2, 2.2342476e+2, -761464.94, -859097.7, -19101.502, 0.000027449187, 0.0012571587, -757860.9, -7423.6284, 0.0, 5.019001, 4.9567504 
6.343043e+2, 2.283807e+2, -721883.9, -815017.1, -19236.854, -0.000034882632, -0.0016282153, -718066.94, -16197.865, 0.0, 5.015734, 4.9564567 
6.341792e+2, 2.3333628e+2, -682817.3, -771990.1, -18849.58, 0.000016852055, 0.0013550675, -678996.56, -25692.236, 0.0, 5.012453, 4.955773 
6.340544e+2, 2.382913e+2, -643062.4, -727604.1, -18981.979, 0.000032598793, -0.0017184434, -638996.0, -34250.7, 0.0, 5.009181, 4.955544 
6.339303e+2, 2.4324593e+2, -604065.9, -684730.3, -18188.045, 0.00012950388, 0.0017179894, -600154.56, -43964.625, 0.0, 5.005887, 4.954758 
6.3380677e+2, 2.4819997e+2, -564110.6, -639974.9, -18295.498, 0.00017905698, -0.0017930297, -559928.94, -52288.613, 0.0, 5.0026097, 4.954616 
6.336841e+2, 2.531536e+2, -525292.94, -597472.44, -17133.695, 0.00035153815, 0.001660922, -521432.28, -62337.297, 0.0, 4.9992948, 4.9536605 
6.335623e+2, 2.5810668e+2, -484996.3, -551961.7, -17164.463, 0.0004308221, -0.0016757963, -480853.1, -70298.555, 0.0, 4.996, 4.9537454 
6.3344157e+2, 2.6305926e+2, -446496.75, -510136.03, -15618.673, 0.00033129693, 0.0016818653, -442870.22, -80850.86, 0.0, 4.9926605, 4.95251 
6.3332206e+2, 2.6801142e+2, -405781.25, -463673.8, -15576.465, 0.00014478495, -0.0015839222, -401856.38, -88368.21, 0.0, 4.9893446, 4.9528947 
6.3320386e+2, 2.729629e+2, -367628.6, -422631.25, -13656.495, 0.00032554189, 0.0016078321, -364424.5, -99461.02, 0.0, 4.9859877, 4.951334 
6.330872e+2, 2.7791408e+2, -326449.88, -375152.9, -13504.204, 0.00030590454, -0.0024052262, -322956.1, -106514.12, 0.0, 4.9826612, 4.9520373 
6.3297194e+2, 2.8286463e+2, -288695.84, -334904.28, -11178.79, 0.00006343408, 0.002137886, -286133.56, -118206.94, 0.0, 4.9792633, 4.950161 
6.328587e+2, 2.8781497e+2, -247257.72, -286640.2, -10909.802, -0.000023537963, -0.00085203885, -244437.44, -125024.1, 0.0, 4.975882, 4.951124 
6.327468e+2, 2.9276422e+2, -209432.8, -246897.02, -8453.861, 0.00006091907, 0.001706184, -207613.52, -136703.02, 0.0, 4.9725924, 4.948965 
6.326372e+2, 2.97713e+2, -166994.38, -197653.45, -8118.6353, 0.0002908479, -0.0063961213, -164977.25, -142565.27, 0.0, 4.969452, 4.95013 
6.325293e+2, 3.0267072e+2, -133307.88, -133482.08, -6064.8364, 0.00010782528, 0.0022148897, -127329.52, -127329.52, 0.0, 4.9658394, 4.9658055 
6.324245e+2, 3.076387e+2, -142868.88, -134920.5, -5859.3804, -0.00046055304, 0.016009329, -131814.69, -131814.69, 0.0, 4.961892, 4.9669895 
6.3232213e+2, 3.1261432e+2, -117590.414, -65599.98, -3163.3115, -0.0016396692, -0.01505792, -65408.215, -65408.215, 0.0, 4.9597774, 4.9931784 
6.322174e+2, 3.1764644e+2, -123034.05, -74532.414, -1387.6519, -0.07633564, 0.36530897, -74492.74, -74492.74, 0.0, 4.9591236, 4.9901767 
6.4188254e+2, 1.2432851e+2, -1537245.0, -1723841.8, 1661.9954, 0.00024771804, 0.00022960432, -1537230.3, 184350.25, 0.0, 5.086192, 4.963085 
6.417766e+2, 1.2929013e+2, -1500127.3, -1682901.4, 794.9333, 0.00036968032, -0.0027116067, -1500123.8, 172832.89, 0.0, 5.082673, 4.962273 
6.416671e+2, 1.3425206e+2, -1460869.3, -1638113.0, -3205.0532, -0.00033705818, 0.0037850873, -1460811.4, 163518.38, 0.0, 5.0792174, 4.962635 
6.4155567e+2, 1.3921334e+2, -1423180.8, -1596096.5, -3802.2688, -0.000052391864, -0.0017580392, -1423097.3, 152612.19, 0.0, 5.075707, 4.962134 
6.4144176e+2, 1.4417478e+2, -1384174.0, -1552059.6, -6943.0903, 0.0003800527, 0.00008590515, -1383887.4, 143199.77, 0.0, 5.0722923, 4.9622383 
6.413261e+2, 1.491362e+2, -1346089.6, -1509567.6, -7493.711, -0.0000009391369, -0.0006908092, -1345746.9, 132718.5, 0.0, 5.068839, 4.961833 
6.412083e+2, 1.540974e+2, -1307069.5, -1465712.9, -10242.386, -0.00006692054, 0.0015901986, -1306411.0, 123434.734, 0.0, 5.0654593, 4.9618487 
6.410891e+2, 1.5905824e+2, -1268785.8, -1423069.1, -10715.571, 0.00013290477, -0.0010999396, -1268045.1, 113184.27, 0.0, 5.0620456, 4.9614353 
6.4096814e+2, 1.6401902e+2, -1229729.6, -1379345.5, -13050.212, 0.00012322937, 0.0014669382, -1228599.9, 104013.95, 0.0, 5.058699, 4.96135 
6.4084595e+2, 1.6897942e+2, -1191211.0, -1336467.1, -13474.139, -0.00007681114, -0.0009298168, -1189971.6, 94030.24, 0.0, 5.055322, 4.960955 
6.4072233e+2, 1.7393966e+2, -1152139.3, -1292891.5, -15392.019, 0.00003639507, 0.0014140985, -1150475.8, 84915.84, 0.0, 5.0520034, 4.96076 
6.405977e+2, 1.788995e+2, -1113417.9, -1249829.3, -15764.088, -0.000005978274, -0.000965229, -1111619.8, 75165.336, 0.0, 5.0486603, 4.9603696 
6.4047205e+2, 1.8385911e+2, -1074327.6, -1206364.8, -17315.158, -0.000034046872, 0.0014271773, -1072094.6, 66086.164, 0.0, 5.045361, 4.9600854 
6.403456e+2, 1.8881826e+2, -1035408.6, -1163113.5, -17607.264, 0.00009251984, -0.0011235286, -1033025.5, 56555.54, 0.0, 5.0420485, 4.9597015 
6.402183e+2, 1.937772e+2, -996299.75, -1119757.9, -18830.48, -0.000036704103, 0.0013205693, -993491.5, 47492.004, 0.0, 5.0387673, 4.9593234 
6.400906e+2, 1.9873561e+2, -957187.9, -1076271.6, -19039.762, 0.000098380224, -0.001375424, -954217.75, 38173.215, 0.0, 5.0354743, 4.9589667 
6.3996226e+2, 2.0369378e+2, -918101.94, -1033067.2, -19933.979, -0.00003385349, 0.0012345572, -914743.7, 29057.24, 0.0, 5.0322003, 4.958492 
6.398337e+2, 2.0865138e+2, -878798.44, -989315.8, -20100.854, 0.00016598766, -0.0014744448, -875256.06, 19960.275, 0.0, 5.0289187, 4.9581776 
6.397049e+2, 2.1360873e+2, -839725.5, -946208.44, -20598.525, 0.000047350983, 0.0012400763, -835879.75, 10754.503, 0.0, 5.025648, 4.9576163 
6.39576e+2, 2.185655e+2, -800278.25, -902292.56, -20779.18, 0.00005337006, -0.0016563095, -796208.1, 1849.8224, 0.0, 5.0223756, 4.957312 
6.394472e+2, 2.2352198e+2, -761184.56, -859179.4, -20873.768, 0.000039197967, 0.0012047426, -756923.56, -7439.0522, 0.0, 5.019101, 4.9567056 
6.3931847e+2, 2.2847785e+2, -721629.06, -815123.7, -21072.531, 0.000013333798, -0.0016426318, -717099.06, -16182.086, 0.0, 5.015827, 4.956407 
6.3919014e+2, 2.3343338e+2, -682556.1, -772054.75, -20747.941, 0.000048110684, 0.0013412907, -677980.2, -25627.506, 0.0, 5.01254, 4.9557414 
6.3906205e+2, 2.3838833e+2, -642826.9, -727699.8, -20944.988, 0.00004669619, -0.001790852, -637939.5, -34145.28, 0.0, 5.0092616, 4.9555054 
6.389346e+2, 2.4334294e+2, -603815.7, -684757.44, -20218.533, 0.000102318, 0.0016183376, -599046.3, -43807.145, 0.0, 5.00596, 4.954747 
6.3880783e+2, 2.4829695e+2, -563900.2, -640054.94, -20389.742, 0.00013137025, -0.0018749001, -558784.6, -52094.746, 0.0, 5.002675, 4.9545913 
6.386819e+2, 2.5325057e+2, -525061.3, -597469.6, -19300.592, 0.00035547971, 0.0017270804, -520238.0, -62093.457, 0.0, 4.9993525, 4.9536676 
6.3855684e+2, 2.582037e+2, -484795.66, -551998.4, -19394.666, 0.0004512773, -0.0014335201, -479600.03, -69995.99, 0.0, 4.996051, 4.9537425 
6.384328e+2, 2.6315624e+2, -446256.84, -510048.25, -17920.14, 0.00035633764, 0.0016318994, -441567.47, -80498.55, 0.0, 4.992704, 4.9525537 
6.3831e+2, 2.6810837e+2, -405581.25, -463640.56, -17942.498, 0.0002180422, -0.0021518029, -400483.88, -87945.92, 0.0, 4.9893804, 4.952924 
6.381884e+2, 2.7306e+2, -367394.7, -422476.28, -16083.213, 0.00034226984, 0.0019065457, -363042.44, -99030.62, 0.0, 4.9860144, 4.9514093 
6.380685e+2, 2.7801138e+2, -326247.97, -375032.7, -15997.082, 0.000057976045, -0.0005268333, -321470.22, -105982.12, 0.0, 4.98268, 4.952105 
6.379499e+2, 2.8296182e+2, -288379.4, -334505.47, -13748.138, 0.00010365691, 0.0014653425, -284592.6, -117618.59, 0.0, 4.9792776, 4.9503284 
6.3783336e+2, 2.8791183e+2, -246955.8, -286299.97, -13472.444, 0.00075016986, -0.0064430325, -242784.7, -124320.7, 0.0, 4.9759016, 4.9512696 
6.377182e+2, 2.928619e+2, -209123.81, -246574.77, -10806.355, 0.00015931304, 0.0029312856, -206229.38, -136276.31, 0.0, 4.9726186, 4.9490995 
6.376053e+2, 2.9781225e+2, -166722.19, -197432.17, -10484.8545, -0.001504357, 0.009192875, -163483.97, -142044.73, 0.0, 4.9694815, 4.9502273 
6.3749397e+2, 3.0276793e+2, -133517.05, -134400.94, -8982.166, -0.0001097938, -0.0013004796, -124965.96, -124965.96, 0.0, 4.9658747, 4.965491 
6.373857e+2, 3.0773136e+2, -143224.94, -136309.63, -8736.94, 0.0038678646, -0.029930351, -130371.02, -130371.02, 0.0, 4.961953, 4.9664936 
6.372812e+2, 3.1271622e+2, -118379.44, -68676.266, -3162.5132, -0.00080684863, 0.03862479, -68475.85, -68475.85, 0.0, 4.9599757, 4.991994 
6.3717395e+2, 3.1768653e+2, -95702.66, -13787.587, -1500.4678, -0.09678695, -0.18979001, -13760.111, -13760.111, 0.0, 4.9594636, 5.01238 
6.469688e+2, 1.24433875e+2, -1531102.4, -1721204.6, 3039.831, 0.000095890166, 0.00023932547, -1531053.9, 189494.03, 0.0, 5.0884275, 4.962859 
6.4685917e+2, 1.2939516e+2, -1494329.3, -1680384.0, 2181.4226, 0.0003889803, -0.0027563395, -1494303.6, 177623.72, 0.0, 5.0847783, 4.9620748 
6.4674616e+2, 1.3435681e+2, -1455359.1, -1635674.6, -1734.7831, -0.0002387946, 0.0036824383, -1455342.5, 167960.77, 0.0, 5.081208, 4.962469 
6.4663106e+2, 1.393178e+2, -1417985.0, -1593776.3, -2295.9084, -0.00011220826, -0.0018814558, -1417955.0, 156730.61, 0.0, 5.0775814, 4.961988 
6.465136e+2, 1.44279e+2, -1379264.8, -1549841.1, -5333.0503, 0.00028588803, -0.000010365016, -1379098.1, 146967.48, 0.0, 5.0740595, 4.962113 
6.463945e+2, 1.492402e+2, -1341461.3, -1507452.0, -5848.9985, -0.000007598284, -0.00077473145, -1341255.4, 136190.73, 0.0, 5.0705023, 4.961726 
6.462732e+2, 1.5420116e+2, -1302703.3, -1463693.5, -8499.739, -0.000025406007, 0.0014628744, -1302255.8, 126572.77, 0.0, 5.0670247, 4.961759 
6.461505e+2, 1.5916184e+2, -1264676.3, -1421144.5, -8929.302, 0.00013500008, -0.001262732, -1264168.4, 116045.83, 0.0, 5.063516, 4.9613624 
6.460261e+2, 1.6412242e+2, -1225867.6, -1377527.0, -11168.878, 0.00013934505, 0.0013097657, -1225049.5, 106550.93, 0.0, 5.060081, 4.9612856 
6.459004e+2, 1.6908264e+2, -1187583.5, -1334737.4, -11543.921, -0.00005484681, -0.0010504376, -1186683.4, 96306.836, 0.0, 5.056618, 4.9609046 
6.457734e+2, 1.7404273e+2, -1148739.0, -1291269.0, -13372.194, 0.00005752422, 0.0013003902, -1147495.3, 86886.25, 0.0, 5.05322, 4.9607134 
6.4564544e+2, 1.7900239e+2, -1110233.9, -1248288.0, -13698.344, -0.0000073066376, -0.0010514096, -1108887.8, 76888.99, 0.0, 5.049797, 4.960335 
6.4551634e+2, 1.8396187e+2, -1071354.0, -1204914.8, -15161.035, -0.0000057061725, 0.0013470235, -1069654.6, 67519.31, 0.0, 5.046423, 4.9600573 
6.453865e+2, 1.8892087e+2, -1032638.25, -1161738.5, -15411.816, 0.00013116903, -0.0012432705, -1030823.9, 57751.723, 0.0, 5.0430355, 4.959685 
6.45256e+2, 1.9387965e+2, -993739.9, -1118491.6, -16548.115, 0.00002099723, 0.001235781, -991582.1, 48397.3, 0.0, 5.0396824, 4.9593053 
6.4512485e+2, 1.9883792e+2, -954812.44, -1075073.8, -16716.316, 0.00017118469, -0.0014289137, -952532.1, 38856.234, 0.0, 5.036321, 4.958959 
6.4499325e+2, 2.0379594e+2, -915926.25, -1031966.3, -17538.56, -0.000010142737, 0.0011463836, -913333.3, 29466.275, 0.0, 5.032978, 4.9584846 
6.4486134e+2, 2.087534e+2, -876809.06, -988295.44, -17653.842, 0.00016265098, -0.0015704787, -874080.4, 20136.092, 0.0, 5.02963, 4.9581747 
6.4472926e+2, 2.1371064e+2, -837918.9, -945250.5, -18097.42, 0.000052409774, 0.0011513017, -834949.56, 10685.9795, 0.0, 5.026291, 4.9576254 
6.44597e+2, 2.1866727e+2, -798669.6, -901430.7, -18225.88, 0.000112256974, -0.0017273389, -795532.8, 1527.761, 0.0, 5.02295, 4.95732 
6.444649e+2, 2.2362363e+2, -759756.3, -858376.25, -18267.404, 0.00009864181, 0.0011512002, -756481.4, -7993.1763, 0.0, 5.0196075, 4.956726 
6.443328e+2, 2.2857937e+2, -720397.94, -814416.56, -18418.314, 0.0000619675, -0.0016920972, -716918.56, -16996.63, 0.0, 5.016266, 4.956426 
6.4420116e+2, 2.335348e+2, -681492.9, -771382.6, -18047.951, 0.00008378955, 0.0012852058, -678004.6, -26645.932, 0.0, 5.0129113, 4.9557796 
6.4406985e+2, 2.3848966e+2, -641965.3, -727139.9, -18203.566, 0.0000780465, -0.0018283983, -638237.94, -35436.664, 0.0, 5.009567, 4.9555354 
6.439391e+2, 2.4344417e+2, -603133.6, -684226.3, -17440.492, 0.00013081261, 0.0015778331, -599541.8, -45294.65, 0.0, 5.0061917, 4.9548016 
6.4380896e+2, 2.4839807e+2, -563446.0, -639650.0, -17575.178, 0.00017671078, -0.0019409565, -559587.94, -53888.973, 0.0, 5.002831, 4.9546356 
6.436797e+2, 2.533516e+2, -524784.3, -597072.1, -16458.146, 0.00039552277, 0.0017159026, -521213.6, -64059.293, 0.0, 4.999432, 4.9537444 
6.435513e+2, 2.5830466e+2, -484758.84, -551732.2, -16520.994, 0.00041293833, -0.001348332, -480905.2, -72290.67, 0.0, 4.9960504, 4.9538097 
6.434239e+2, 2.6325715e+2, -446409.78, -509775.66, -15032.312, 0.000333179, 0.0014474958, -443024.5, -82944.336, 0.0, 4.9926195, 4.95266 
6.432978e+2, 2.6820916e+2, -405992.63, -463509.88, -15038.53, 0.0002965643, -0.002756638, -402297.94, -90747.84, 0.0, 4.9892097, 4.9530187 
6.431728e+2, 2.7316085e+2, -368024.1, -422337.66, -13165.111, 0.00033052982, 0.00206843, -365001.22, -101977.734, 0.0, 4.9857473, 4.951549 
6.430494e+2, 2.7811232e+2, -327187.53, -375046.8, -13080.398, -0.0002566115, 0.0009066525, -323845.84, -109347.1, 0.0, 4.982305, 4.952238 
6.4292747e+2, 2.8306255e+2, -289511.78, -334433.1, -10875.89, 0.00022143294, 0.0006623782, -287017.16, -121030.664, 0.0, 4.9788036, 4.950535 
6.428076e+2, 2.8801227e+2, -248371.67, -286371.47, -10699.225, 0.0017331449, -0.011094988, -245566.31, -128086.66, 0.0, 4.97533, 4.951467 
6.4268905e+2, 2.929631e+2, -211067.78, -246598.56, -7946.237, -0.00015941315, 0.0045351204, -209371.63, -140410.08, 0.0, 4.971807, 4.9494166 
6.425726e+2, 2.9791474e+2, -169606.19, -197891.39, -7575.255, -0.004496641, 0.022235008, -167705.17, -147270.03, 0.0, 4.9683366, 4.9505324 
6.4245826e+2, 3.0286887e+2, -134974.53, -133996.77, -5554.4565, 0.0005523101, -0.005897394, -128909.72, -128909.72, 0.0, 4.9651947, 4.965903 
6.423474e+2, 3.0782914e+2, -142070.48, -135470.72, -4394.5693, 0.012520851, -0.0678833, -133275.02, -133275.02, 0.0, 4.962346, 4.9665966 
6.422383e+2, 3.128208e+2, -126553.57, -78419.92, 526.9046, -0.010033972, 0.08483247, -78414.16, -78414.16, 0.0, 4.9582725, 4.989151 
6.421499e+2, 3.1780404e+2, -103128.516, 225.88849, -6175.61, 0.10561719, 0.011950056, 593.5841, 593.5841, 0.0, 4.953488, 5.020129 
6.5205604e+2, 1.24541685e+2, -1530772.6, -1721746.4, 2111.9136, 0.0000319711, 0.00036377273, -1530749.3, 188742.16, 0.0, 5.088667, 4.9625793 
6.519428e+2, 1.2950264e+2, -1494014.9, -1680876.0, 1197.5016, 0.00042365555, -0.0026472895, -1494007.3, 176866.83, 0.0, 5.084998, 4.9618216 
6.51826e+2, 1.3446401e+2, -1455019.5, -1636084.1, -2710.7173, -0.00012022259, 0.0037513347, -1454979.0, 167273.67, 0.0, 5.0814204, 4.962248 
6.5170735e+2, 1.3942473e+2, -1417629.6, -1594133.6, -3319.482, -0.00012739103, -0.0018350712, -1417567.1, 156070.5, 0.0, 5.0777884, 4.9617867 
6.515863e+2, 1.4438573e+2, -1378905.8, -1550150.4, -6342.2495, 0.0002303586, 0.000058306257, -1378671.3, 146348.7, 0.0, 5.074257, 4.9619327 
6.5146357e+2, 1.4934668e+2, -1341104.0, -1507723.3, -6913.7324, 0.000012805035, -0.0007148462, -1340817.6, 135584.95, 0.0, 5.070689, 4.9615645 
6.5133876e+2, 1.5430748e+2, -1302336.4, -1463928.4, -9564.984, 0.000022422108, 0.0014880328, -1301772.1, 126014.63, 0.0, 5.0672073, 4.961612 
6.512125e+2, 1.5926793e+2, -1264294.4, -1421338.9, -10053.14, 0.000114727765, -0.0012617984, -1263653.4, 115520.9, 0.0, 5.0636954, 4.961231 
6.510846e+2, 1.6422838e+2, -1225487.5, -1377707.6, -12305.39, 0.00014445359, 0.0013234062, -1224499.3, 106062.86, 0.0, 5.060256, 4.961162 
6.509555e+2, 1.6918844e+2, -1187199.1, -1334888.0, -12738.642, -0.000034324923, -0.0009936269, -1186108.5, 95844.92, 0.0, 5.0567875, 4.960795 
6.50825e+2, 1.7414838e+2, -1148361.5, -1291421.0, -14588.629, 0.00007302858, 0.001335589, -1146888.9, 86457.1, 0.0, 5.0533857, 4.960606 
6.506936e+2, 1.791079e+2, -1109851.8, -1248414.9, -14978.082, -0.0000030960914, -0.0010098511, -1108251.1, 76491.5, 0.0, 5.049958, 4.9602394 
6.505611e+2, 1.8406726e+2, -1070980.6, -1205043.4, -16468.645, 0.000015611653, 0.0014134253, -1068987.3, 67153.805, 0.0, 5.04658, 4.959964 
6.5042794e+2, 1.8902612e+2, -1032266.25, -1161855.4, -16791.69, 0.00014303712, -0.0012180278, -1030125.75, 57418.227, 0.0, 5.0431876, 4.959599 
6.5029395e+2, 1.9398482e+2, -993376.1, -1118606.5, -17958.182, 0.00005667236, 0.001304538, -990851.8, 48097.035, 0.0, 5.0398297, 4.9592233 
6.501595e+2, 1.9894296e+2, -954454.56, -1075186.4, -18204.756, 0.00021158929, -0.0013285126, -951769.25, 38589.574, 0.0, 5.036464, 4.9588804 
6.500245e+2, 2.0390089e+2, -915571.3, -1032065.3, -19069.217, -0.000024085139, 0.0011993161, -912529.25, 29241.79, 0.0, 5.0331163, 4.958414 
6.4988923e+2, 2.0885827e+2, -876467.0, -988401.6, -19254.229, 0.00012430144, -0.001522617, -873247.6, 19941.303, 0.0, 5.029763, 4.958105 
6.497538e+2, 2.138154e+2, -837586.25, -945356.75, -19765.064, 0.000032623364, 0.0011977841, -834075.7, 10533.129, 0.0, 5.026418, 4.957559 
6.496182e+2, 2.1877195e+2, -798348.7, -901534.44, -19960.16, 0.00014751962, -0.0016645066, -794622.2, 1412.4792, 0.0, 5.0230713, 4.9572587 
6.494827e+2, 2.2372824e+2, -759448.7, -858484.1, -20069.924, 0.00012175861, 0.0012532828, -755536.0, -8072.9795, 0.0, 5.0197225, 4.956667 
6.4934736e+2, 2.2868392e+2, -720105.5, -814529.2, -20288.852, 0.00006520364, -0.0016047611, -715930.6, -17033.096, 0.0, 5.0163736, 4.9563694 
6.4921236e+2, 2.3363928e+2, -681204.0, -771464.8, -19991.656, 0.00008463771, 0.0013330255, -676974.3, -26639.45, 0.0, 5.013011, 4.9557385 
6.4907765e+2, 2.3859406e+2, -641716.25, -727267.4, -20214.08, 0.000074943695, -0.0017513658, -637180.5, -35402.445, 0.0, 5.0096564, 4.9554834 
6.489436e+2, 2.4354853e+2, -602881.1, -684308.25, -19532.807, 0.00013202813, 0.0016623162, -598438.0, -45213.65, 0.0, 5.0062733, 4.9547696 
6.4881015e+2, 2.4850236e+2, -563227.7, -639773.2, -19732.834, 0.00020715335, -0.0019201187, -558440.1, -53763.37, 0.0, 5.0029044, 4.9545937 
6.486774e+2, 2.5345588e+2, -524548.9, -597119.5, -18693.533, 0.00039922295, 0.0017281638, -520016.63, -63884.242, 0.0, 4.999498, 4.953733 
6.485457e+2, 2.584089e+2, -484561.94, -551829.5, -18825.79, 0.0003022322, -0.0012844319, -479651.7, -72058.87, 0.0, 4.9961076, 4.9537854 
6.484149e+2, 2.6336133e+2, -446192.4, -509788.22, -17419.035, 0.00023504272, 0.0012236729, -441733.88, -82675.07, 0.0, 4.9926686, 4.952669 
6.482854e+2, 2.6831332e+2, -405810.88, -463567.84, -17492.201, 0.0003108537, -0.0033960196, -400926.3, -90397.14, 0.0, 4.989251, 4.953016 
6.48157e+2, 2.732651e+2, -367818.56, -422297.3, -15699.468, 0.00022659948, 0.0021801651, -363618.2, -101616.55, 0.0, 4.9857793, 4.951585 
6.4803016e+2, 2.7821675e+2, -327018.28, -375046.28, -15684.876, -0.00066100643, 0.0021526993, -322349.75, -108874.12, 0.0, 4.982328, 4.9522643 
6.479049e+2, 2.831668e+2, -289276.88, -334291.6, -13509.173, 0.00033372635, -0.0003792391, -285533.9, -120568.96, 0.0, 4.978828, 4.9506097 
6.477816e+2, 2.8811622e+2, -248115.13, -286211.2, -13318.561, 0.0027222899, -0.015605424, -243920.7, -127460.03, 0.0, 4.97536, 4.951546 
6.4765936e+2, 2.9306787e+2, -210551.64, -245862.61, -10542.993, -0.0009316425, 0.0065990393, -207643.3, -139708.83, 0.0, 4.9718404, 4.9496975 
6.475392e+2, 2.980208e+2, -169013.34, -197026.47, -10112.027, -0.008429924, 0.034602657, -165744.58, -146348.75, 0.0, 4.9683795, 4.950856 
6.474224e+2, 3.0297372e+2, -133549.06, -131421.7, -7520.439, 0.002122748, -0.012324264, -124890.09, -124890.09, 0.0, 4.965279, 4.966826 
6.4730984e+2, 3.0793193e+2, -141220.1, -134716.61, -6373.8745, 0.02451022, -0.10435753, -130812.93, -130812.93, 0.0, 4.9625254, 4.966821 
6.471933e+2, 3.1292886e+2, -132006.28, -91563.234, -3169.4072, -0.031677675, 0.12554578, -91316.37, -91316.37, 0.0, 4.9583364, 4.9843693 
6.4709383e+2, 3.1790218e+2, -109089.38, -10782.088, -7663.247, 0.02561604, 0.0023816605, -10188.31, -10188.31, 0.0, 4.952901, 5.0163493 
6.5714455e+2, 1.2465446e+2, -1524648.8, -1719023.5, 3501.7437, -0.000066212124, 0.00034507408, -1524585.6, 193800.69, 0.0, 5.090882, 4.962391 
6.570276e+2, 1.2961511e+2, -1488239.8, -1678271.1, 2612.4182, 0.00035985938, -0.0025962736, -1488203.9, 181568.0, 0.0, 5.08708, 4.9616613 
6.569071e+2, 1.3457622e+2, -1449545.0, -1633581.1, -1193.2429, -0.000037015096, 0.0037414331, -1449537.4, 171615.72, 0.0, 5.083388, 4.962113 
6.5678465e+2, 1.3953668e+2, -1412462.4, -1591735.8, -1761.2904, -0.00012077705, -0.0018848618, -1412445.0, 160095.6, 0.0, 5.0796404, 4.961676 
6.566599e+2, 1.4449745e+2, -1374024.1, -1547855.5, -4669.5156, 0.0002092342, -0.00000033255128, -1373898.9, 150026.11, 0.0, 5.0760026, 4.961841 
6.565336e+2, 1.4945818e+2, -1336499.8, -1505527.8, -5196.731, 0.000059433994, -0.00081286405, -1336340.1, 138969.56, 0.0, 5.0723314, 4.9614925 
6.5640515e+2, 1.5441881e+2, -1297995.0, -1461845.3, -7733.8438, 0.00006107053, 0.001361351, -1297630.8, 129064.93, 0.0, 5.0687556, 4.9615498 
6.562754e+2, 1.5937908e+2, -1260197.4, -1419340.6, -8173.0913, 0.00004296064, -0.0013873065, -1259778.8, 118306.29, 0.0, 5.065152, 4.9611864 
6.561439e+2, 1.6433935e+2, -1221636.4, -1375824.9, -10321.3545, 0.000114662114, 0.0011957919, -1220948.6, 108525.84, 0.0, 5.061627, 4.9611216 
6.560113e+2, 1.6929926e+2, -1183571.9, -1333081.1, -10698.229, 0.000005766734, -0.0010937161, -1182810.3, 98057.19, 0.0, 5.058075, 4.960771 
6.558773e+2, 1.7425904e+2, -1144957.3, -1289723.9, -12448.774, 0.00013276494, 0.0011772976, -1143894.6, 88366.984, 0.0, 5.054596, 4.9605837 
6.557424e+2, 1.792184e+2, -1106649.6, -1246792.1, -12784.519, 0.00006403502, -0.0012273958, -1105492.9, 78166.945, 0.0, 5.0510945, 4.9602294 
6.5560645e+2, 1.8417759e+2, -1067983.9, -1203527.8, -14179.125, 0.00009400037, 0.0012352552, -1066516.5, 68542.99, 0.0, 5.0476465, 4.9599524 
6.5546983e+2, 1.8913633e+2, -1029457.7, -1160411.1, -14454.0205, 0.00017711072, -0.0013801502, -1027881.25, 58582.73, 0.0, 5.044185, 4.959597 
6.5533245e+2, 1.9409487e+2, -990764.5, -1117262.9, -15523.814, 0.000079086894, 0.0011801636, -988887.25, 48982.938, 0.0, 5.04076, 4.95922 
6.551946e+2, 1.9905289e+2, -952014.1, -1073907.0, -15730.062, 0.00023191632, -0.0013998346, -950016.9, 39264.72, 0.0, 5.0373316, 4.958887 
6.5505624e+2, 2.0401068e+2, -913321.0, -1030883.7, -16511.008, 0.0000003985541, 0.001109135, -911046.1, 29649.072, 0.0, 5.0339193, 4.958419 
6.5491754e+2, 2.089679e+2, -874390.94, -987294.06, -16646.965, 0.0001668497, -0.0016228652, -871987.6, 20126.896, 0.0, 5.030504, 4.9581146 
6.5477866e+2, 2.139249e+2, -835693.4, -944342.2, -17092.91, 0.00007040372, 0.0011238949, -833067.7, 10468.04, 0.0, 5.0270967, 4.9575667 
6.546398e+2, 2.1888131e+2, -796627.7, -900585.25, -17232.596, 0.00018433608, -0.0017018191, -793845.56, 1117.4867, 0.0, 5.023687, 4.957274 
6.545009e+2, 2.2383747e+2, -757903.4, -857615.25, -17297.994, 0.00011782018, 0.0012291588, -754987.75, -8595.077, 0.0, 5.0202765, 4.9566836 
6.5436214e+2, 2.2879298e+2, -718724.8, -813724.3, -17467.98, 0.000045174405, -0.001616843, -715614.75, -17786.162, 0.0, 5.016868, 4.956393 
6.5422374e+2, 2.3374824e+2, -679996.94, -770728.1, -17124.236, 0.00010352051, 0.0013409128, -676872.6, -27605.479, 0.0, 5.0134425, 4.955767 
6.540857e+2, 2.3870288e+2, -640698.44, -726623.75, -17304.217, 0.00014218083, -0.0017013897, -637344.5, -36632.848, 0.0, 5.0100226, 4.9555106 
6.539482e+2, 2.4365725e+2, -602034.9, -683703.75, -16592.525, 0.00016698186, 0.0017681585, -598792.5, -46633.45, 0.0, 5.0065722, 4.954814 
6.5381134e+2, 2.4861096e+2, -562580.75, -639272.0, -16751.684, 0.00019577652, -0.0017629587, -559081.4, -55468.734, 0.0, 5.0031357, 4.954633 
6.5367526e+2, 2.5356436e+2, -524070.84, -596644.0, -15686.733, 0.00041526876, 0.001804722, -520825.28, -65755.96, 0.0, 4.99966, 4.9537954 
6.5354e+2, 2.5851724e+2, -484307.6, -551478.2, -15792.466, 0.00031546847, -0.001321947, -480779.9, -74248.92, 0.0, 4.9961953, 4.9538383 
6.5340585e+2, 2.6346964e+2, -446115.56, -509451.13, -14374.344, 0.00016325568, 0.0014160282, -443005.9, -85008.31, 0.0, 4.992682, 4.95275 
6.532728e+2, 2.6842156e+2, -405957.47, -463353.72, -14434.766, 0.00016841802, -0.002807659, -402531.7, -93063.23, 0.0, 4.989189, 4.9530873 
6.531411e+2, 2.733732e+2, -368159.56, -422094.53, -12647.464, 0.00029544608, 0.0021107509, -365341.06, -104398.77, 0.0, 4.9856353, 4.951689 
6.530107e+2, 2.7832463e+2, -327624.3, -374986.0, -12639.784, -0.0002986513, 0.00084078254, -324462.16, -112043.93, 0.0, 4.9820943, 4.952358 
6.528819e+2, 2.832748e+2, -290077.28, -334255.75, -10538.272, 0.00022055482, -0.00011070341, -287692.25, -123785.734, 0.0, 4.978515, 4.9507275 
6.527551e+2, 2.882245e+2, -249106.86, -286271.47, -10488.972, 0.0017591579, -0.011977365, -246350.92, -130951.55, 0.0, 4.974981, 4.951659 
6.526294e+2, 2.9317576e+2, -212087.75, -245988.69, -8053.836, -0.0006816499, 0.0062338337, -210271.69, -143394.55, 0.0, 4.9712353, 4.9498844 
6.525058e+2, 2.9812786e+2, -171472.19, -197511.83, -7899.2813, -0.005924002, 0.025258483, -169263.28, -150916.27, 0.0, 4.9674354, 4.951062 
6.5238583e+2, 3.0308184e+2, -135719.73, -131514.56, -5472.9565, 0.0019058727, -0.012329435, -127754.2, -127754.2, 0.0, 4.964386, 4.9671483 
6.5227e+2, 3.080427e+2, -143218.0, -135454.9, -5686.1553, 0.019001374, -0.07932911, -132451.78, -132451.78, 0.0, 4.9618344, 4.966826 
6.521497e+2, 3.130348e+2, -137487.06, -95572.49, -1611.6406, -0.030180268, 0.10688005, -95510.62, -95510.62, 0.0, 4.956733, 4.9835787 
6.5203947e+2, 3.180077e+2, -94292.7, 38326.57, 555.30475, -0.022505555, -0.022141336, 38328.895, 38328.895, 0.0, 4.9499784, 5.0358624 
6.6223407e+2, 1.24769785e+2, -1524352.5, -1719530.0, 2599.0857, 0.00006493743, 0.00040480858, -1524317.9, 192938.39, 0.0, 5.091096, 4.962136 
6.621133e+2, 1.2973014e+2, -1487847.3, -1678656.0, 1641.2922, 0.0002143454, -0.0023823928, -1487833.1, 180811.48, 0.0, 5.08731, 4.9614396 
6.6198903e+2, 1.34691e+2, -1449162.5, -1633905.1, -2153.1758, 0.000017997905, 0.0038630983, -1449137.4, 170890.9, 0.0, 5.083599, 4.9619207 
6.618628e+2, 1.396512e+2, -1412111.9, -1592029.3, -2763.7612, -0.000024183486, -0.0018526139, -1412069.4, 159348.9, 0.0, 5.0798287, 4.961506 
6.617344e+2, 1.4461179e+2, -1373651.9, -1548103.0, -5653.587, 0.00023440633, 0.000070766015, -1373468.8, 149335.81, 0.0, 5.0761905, 4.961687 
6.616043e+2, 1.4957231e+2, -1336089.9, -1505716.5, -6243.6416, 0.00008436912, -0.00072283496, -1335860.4, 138330.94, 0.0, 5.0725226, 4.961357 
6.614722e+2, 1.5453275e+2, -1297585.5, -1462016.3, -8780.225, 0.00009858057, 0.0014249122, -1297117.9, 128461.08, 0.0, 5.068942, 4.9614234 
6.6133887e+2, 1.5949287e+2, -1259779.1, -1419470.8, -9282.919, -0.000003205371, -0.0013322033, -1259241.4, 117728.65, 0.0, 5.0653324, 4.9610777 
6.612038e+2, 1.6445298e+2, -1221221.1, -1375954.0, -11444.346, 0.00009439903, 0.0012404823, -1220379.3, 107981.51, 0.0, 5.0618052, 4.961015 
6.610676e+2, 1.6941273e+2, -1183138.8, -1333167.9, -11882.616, 0.00004274225, -0.0010301315, -1182203.4, 97551.78, 0.0, 5.058251, 4.9606805 
6.609301e+2, 1.7437239e+2, -1144535.0, -1289820.4, -13655.81, 0.00017735719, 0.0012068986, -1143262.6, 87887.984, 0.0, 5.054768, 4.9604936 
6.607917e+2, 1.7933162e+2, -1106223.8, -1246865.6, -14057.983, 0.00010539689, -0.0012517141, -1104832.4, 77717.82, 0.0, 5.051262, 4.96015 
6.606523e+2, 1.842907e+2, -1067571.0, -1203621.0, -15482.578, 0.00014978445, 0.001242631, -1065831.4, 68119.59, 0.0, 5.0478115, 4.9598684 
6.6051215e+2, 1.8924932e+2, -1029034.0, -1160475.0, -15832.797, 0.0001851649, -0.001348937, -1027153.75, 58202.844, 0.0, 5.044348, 4.959526 
6.603713e+2, 1.9420776e+2, -990365.9, -1117364.0, -16938.762, 0.000064026244, 0.0012333608, -988145.44, 48618.387, 0.0, 5.0409184, 4.959139 
6.6023e+2, 1.9916569e+2, -951611.94, -1073990.0, -17226.658, 0.00021232148, -0.0013021722, -949233.25, 38943.043, 0.0, 5.037486, 4.9588146 
6.600882e+2, 2.0412336e+2, -912935.7, -1030981.94, -18051.477, 0.00000031607547, 0.0011970428, -910237.0, 29353.814, 0.0, 5.034068, 4.9583445 
6.599461e+2, 2.0908047e+2, -874013.3, -987385.5, -18266.64, 0.00018176368, -0.0015552855, -871142.9, 19868.29, 0.0, 5.030647, 4.9580464 
6.5980387e+2, 2.140374e+2, -835340.56, -944473.2, -18774.824, 0.00007459542, 0.0012195621, -832200.94, 10232.389, 0.0, 5.0272355, 4.9574885 
6.596615e+2, 2.189937e+2, -796273.94, -900697.06, -18984.578, 0.00018051965, -0.0015769014, -792929.56, 932.0693, 0.0, 5.0238214, 4.9572053 
6.595193e+2, 2.2394978e+2, -757573.0, -857747.25, -19121.578, 0.000074596246, 0.0013245201, -754047.1, -8754.976, 0.0, 5.0204034, 4.9566126 
6.593771e+2, 2.289052e+2, -718418.06, -813866.2, -19360.72, -0.000009191293, -0.0015283201, -714640.44, -17911.482, 0.0, 5.0169854, 4.956323 
6.592353e+2, 2.3386039e+2, -679704.6, -770864.06, -19101.697, 0.00009103279, 0.0014679689, -675863.8, -27695.604, 0.0, 5.0135508, 4.9557047 
6.590938e+2, 2.3881494e+2, -640438.0, -726792.2, -19352.879, 0.00018378068, -0.0015476046, -636299.2, -36685.535, 0.0, 5.0101223, 4.955442 
6.589529e+2, 2.4376924e+2, -601774.44, -683835.25, -18722.418, 0.0001689271, 0.001966275, -597704.7, -46643.066, 0.0, 5.0066633, 4.9547625 
6.588126e+2, 2.4872288e+2, -562354.6, -639442.4, -18954.035, 0.000121724705, -0.0014934187, -557946.4, -55430.5, 0.0, 5.0032187, 4.9545727 
6.5867305e+2, 2.5367624e+2, -523845.38, -596774.7, -17979.127, 0.0003897472, 0.0019600454, -519653.9, -65680.73, 0.0, 4.999734, 4.9537535 
6.585344e+2, 2.5862902e+2, -484118.16, -551649.8, -18159.338, 0.00033064905, -0.0013573531, -479544.8, -74109.18, 0.0, 4.9962597, 4.953787 
6.583967e+2, 2.6358142e+2, -445930.47, -509586.84, -16828.395, 0.000038627037, 0.0018593756, -441755.5, -84853.32, 0.0, 4.992737, 4.952716 
6.5826017e+2, 2.6853338e+2, -405812.06, -463532.13, -16962.152, -0.00012767506, -0.0015734633, -401196.5, -92823.8, 0.0, 4.989234, 4.9530435 
6.581249e+2, 2.7348486e+2, -368004.78, -422210.13, -15268.166, 0.0004330283, 0.0017997173, -364000.03, -104151.766, 0.0, 4.985671, 4.9516706 
6.5799123e+2, 2.7843598e+2, -327504.94, -375162.44, -15314.644, 0.00049471343, -0.0021801533, -323007.97, -111680.836, 0.0, 4.9821253, 4.952321 
6.578587e+2, 2.8338656e+2, -289947.94, -334417.66, -13197.286, -0.00026827076, 0.0014107262, -286326.3, -123515.0, 0.0, 4.978547, 4.950694 
6.5772814e+2, 2.8833702e+2, -248989.7, -286497.47, -13154.072, -0.00092074205, -0.00201535, -244836.44, -130539.99, 0.0, 4.9750195, 4.9516 
6.575993e+2, 2.9328686e+2, -211979.66, -246324.16, -10869.794, 0.00075484614, 0.0024564015, -208828.55, -143040.17, 0.0, 4.9712915, 4.949777 
6.574726e+2, 2.9823613e+2, -171396.03, -197999.9, -10527.876, 0.002898719, -0.005453944, -167733.95, -150448.4, 0.0, 4.9675064, 4.950893 
6.5734845e+2, 3.0319384e+2, -135995.03, -132939.19, -7218.2573, -0.0014448538, -0.002152989, -127088.914, -127088.914, 0.0, 4.9644823, 4.9666266 
6.572279e+2, 3.081626e+2, -143109.7, -136077.13, -7800.857, -0.0075650397, 0.014944172, -131036.69, -131036.69, 0.0, 4.9619455, 4.9665875 
6.5710866e+2, 3.1313655e+2, -132181.52, -83681.516, -6117.3906, 0.007892207, -0.0047018845, -82921.81, -82921.81, 0.0, 4.9567256, 4.987945 
6.569893e+2, 3.1810796e+2, -116162.805, -10842.138, -2515.353, -0.009706806, -0.17789827, -10782.099, -10782.099, 0.0, 4.9497538, 5.0176983 
6.673249e+2, 1.2489025e+2, -1518298.9, -1716775.5, 4027.9578, 0.0002826833, 0.0002646072, -1518217.1, 197858.48, 0.0, 5.0932794, 4.9619718 
6.6720015e+2, 1.2985034e+2, -1482118.6, -1675974.0, 3086.2036, -0.0001392112, -0.0022302063, -1482069.5, 185397.1, 0.0, 5.089362, 4.9613185 
6.67072e+2, 1.3481095e+2, -1443727.0, -1631307.6, -608.7956, -0.000018650084, 0.0038249427, -1443725.0, 175127.58, 0.0, 5.0855365, 4.9618306 
6.66942e+2, 1.3977094e+2, -1406990.0, -1589544.0, -1157.9801, 0.00016471292, -0.002047896, -1406982.6, 163262.23, 0.0, 5.081649, 4.9614377 
6.6680974e+2, 1.4473133e+2, -1368827.5, -1545753.9, -3904.7542, 0.00028580686, -0.000045163546, -1368741.4, 152891.6, 0.0, 5.077906, 4.9616256 
6.66676e+2, 1.4969169e+2, -1331526.5, -1503452.3, -4447.084, 0.00004398248, -0.0007302719, -1331411.6, 141609.97, 0.0, 5.0741386, 4.961318 
6.665402e+2, 1.5465194e+2, -1293283.3, -1459871.5, -6862.2944, 0.0001320489, 0.0013638469, -1293001.1, 131409.88, 0.0, 5.0704665, 4.9613905 
6.664031e+2, 1.5961187e+2, -1255715.6, -1417402.9, -7306.965, 0.000025551586, -0.001446223, -1255386.0, 120417.664, 0.0, 5.066767, 4.9610643 
6.662644e+2, 1.6457184e+2, -1217397.6, -1374007.0, -9349.378, 0.00013983987, 0.001096221, -1216841.5, 110354.5, 0.0, 5.0631585, 4.961002 
6.6612464e+2, 1.6953143e+2, -1179520.8, -1331282.8, -9725.285, 0.0000867636, -0.0011804668, -1178900.1, 99691.82, 0.0, 5.0595255, 4.9606857 
6.6598356e+2, 1.7449096e+2, -1141135.5, -1288049.5, -11390.066, 0.00021718194, 0.0010638194, -1140257.6, 89730.99, 0.0, 5.0559697, 4.960497 
6.6584164e+2, 1.7945002e+2, -1103009.6, -1245156.4, -11731.057, 0.00013716769, -0.0013968194, -1102047.9, 79341.67, 0.0, 5.052394, 4.9601674 
6.6569865e+2, 1.8440899e+2, -1064564.5, -1202042.3, -13049.384, 0.00017404226, 0.0010980946, -1063336.8, 69455.01, 0.0, 5.048878, 4.959874 
6.6555506e+2, 1.8936744e+2, -1026189.8, -1158943.0, -13346.399, 0.00019372998, -0.0014617683, -1024861.3, 59337.527, 0.0, 5.045352, 4.959547 
6.654107e+2, 1.9432576e+2, -987712.06, -1115949.9, -14352.961, 0.00007774703, 0.0011132822, -986125.25, 49482.188, 0.0, 5.0418625, 4.9591494 
6.652659e+2, 1.9928351e+2, -949117.0, -1072634.4, -14592.33, 0.0002179017, -0.0014611727, -947416.5, 39605.004, 0.0, 5.0383716, 4.9588346 
6.6512066e+2, 2.0424107e+2, -910612.56, -1029718.0, -15324.9795, 0.0000326727, 0.0010801376, -908672.4, 29764.947, 0.0, 5.0348964, 4.9583607 
6.6497517e+2, 2.0919803e+2, -871854.6, -986194.5, -15485.999, 0.00022327523, -0.0015770087, -869794.4, 20064.738, 0.0, 5.0314174, 4.958066 
6.6482943e+2, 2.1415481e+2, -833350.4, -943364.1, -15923.831, 0.00009253454, 0.0011967404, -831091.9, 10190.795, 0.0, 5.0279484, 4.957508 
6.6468364e+2, 2.1911095e+2, -794432.56, -899649.0, -16082.62, 0.00017647438, -0.001640765, -792029.2, 683.41394, 0.0, 5.0244803, 4.9572296 
6.6453797e+2, 2.2406688e+2, -755900.0, -856791.8, -16150.344, 0.00007757742, 0.0012227321, -753377.75, -9233.249, 0.0, 5.021007, 4.9566317 
6.6439235e+2, 2.2902216e+2, -716893.5, -812959.1, -16337.438, 0.000033504835, -0.001607069, -714191.1, -18608.254, 0.0, 5.0175333, 4.9563527 
6.642471e+2, 2.3397718e+2, -678352.5, -770052.4, -16040.071, 0.0001411779, 0.0014002834, -675627.75, -28604.213, 0.0, 5.014042, 4.9557276 
6.6410214e+2, 2.389316e+2, -639247.94, -726048.56, -16239.089, 0.00022519015, -0.0016510328, -636309.4, -37838.855, 0.0, 5.0105553, 4.955468 
6.639578e+2, 2.4388574e+2, -600739.0, -683145.6, -15570.524, 0.00016253631, 0.001813375, -597895.1, -47975.195, 0.0, 5.0070395, 4.9547963 
6.638139e+2, 2.4883923e+2, -561496.8, -638851.1, -15763.097, 0.00005371054, -0.0016297541, -558408.0, -57032.375, 0.0, 5.0035353, 4.9546 
6.6367096e+2, 2.5379243e+2, -523143.16, -596216.56, -14767.35, 0.00037441013, 0.0018689008, -520271.66, -67437.38, 0.0, 4.9999895, 4.9537973 
6.635288e+2, 2.5874507e+2, -483616.94, -551201.6, -14921.591, 0.00036892926, -0.0014346639, -480469.13, -76170.93, 0.0, 4.996448, 4.953823 
6.633876e+2, 2.6369736e+2, -445608.4, -509175.38, -13576.956, -0.00003439997, 0.0017571256, -442830.0, -87063.93, 0.0, 4.992854, 4.952772 
6.632476e+2, 2.6864916e+2, -405700.97, -463236.94, -13688.935, -0.00038568245, -0.00159944, -402610.16, -95372.2, 0.0, 4.98928, 4.9530907 
6.6310877e+2, 2.7360052e+2, -368034.97, -421937.6, -11992.306, 0.0006238978, 0.0017981002, -365487.3, -106772.58, 0.0, 4.9856606, 4.9517345 
6.629715e+2, 2.785515e+2, -327722.16, -374997.66, -12061.883, 0.0013827307, -0.0024439949, -324822.53, -114627.445, 0.0, 4.982053, 4.952375 
6.628353e+2, 2.83502e+2, -290490.38, -334345.16, -10007.372, -0.0007302129, 0.0017150094, -288314.72, -126634.75, 0.0, 4.9783497, 4.95077 
6.62701e+2, 2.8845254e+2, -250025.52, -286726.78, -10026.257, -0.0035289803, -0.00009340568, -247465.11, -134300.33, 0.0, 4.974661, 4.9516397 
6.625689e+2, 2.934019e+2, -212638.67, -246542.64, -7809.2197, 0.0023400534, 0.0016552281, -210926.42, -146265.44, 0.0, 4.9710994, 4.9497466 
6.6243935e+2, 2.9835024e+2, -171168.83, -197904.08, -7552.6006, 0.011362409, -0.0133563895, -169182.78, -153015.86, 0.0, 4.967645, 4.9508305 
6.623104e+2, 3.0330887e+2, -139366.69, -134574.64, -4065.381, -0.0054715998, 0.0017462858, -132251.73, -132251.73, 0.0, 4.963358, 4.9664907 
6.621842e+2, 3.0828026e+2, -151996.36, -139977.78, -4491.81, -0.03253059, 0.048611782, -138484.55, -138484.55, 0.0, 4.958816, 4.9665103 
6.6206676e+2, 3.1324753e+2, -130285.04, -75038.49, -4878.121, 0.04372302, -0.06139941, -74611.08, -74611.08, 0.0, 4.9559526, 4.9913974 
6.6194004e+2, 3.182571e+2, -103861.45, 275.28522, -643.5004, -0.0027343344, 0.115632005, 279.2615, 279.2615, 0.0, 4.95312, 5.020319 
6.724166e+2, 1.2501341e+2, -1517869.1, -1717157.6, 3137.629, 0.00008954459, 0.00032876688, -1517819.8, 197049.06, 0.0, 5.0935245, 4.961744 
6.7228794e+2, 1.2997322e+2, -1481782.4, -1676311.8, 2135.724, -0.0000148350655, -0.002104075, -1481759.0, 184503.55, 0.0, 5.089554, 4.961132 
6.7215586e+2, 1.349336e+2, -1443357.3, -1631566.1, -1549.8118, 0.000121901154, 0.0039139832, -1443344.5, 174306.22, 0.0, 5.0857253, 4.9616723 
6.72022e+2, 1.3989335e+2, -1406575.3, -1589730.3, -2146.5627, 0.00017418023, -0.0019536314, -1406550.1, 162495.02, 0.0, 5.0818415, 4.9613023 
6.7188585e+2, 1.4485358e+2, -1368409.8, -1545923.0, -4863.788, 0.00027259352, 0.0000550796, -1368276.6, 152158.33, 0.0, 5.078096, 4.961498 
6.7174834e+2, 1.4981376e+2, -1331087.4, -1503566.6, -5471.504, 0.000088305555, -0.0006195805, -1330914.0, 140911.2, 0.0, 5.074325, 4.961211 
6.716088e+2, 1.5477386e+2, -1292843.3, -1459978.3, -7888.3374, 0.00020860061, 0.0014590493, -1292471.8, 130744.44, 0.0, 5.0706515, 4.9612875 
6.71468e+2, 1.5973362e+2, -1255249.9, -1417456.6, -8398.883, 0.000032960495, -0.0013504624, -1254816.1, 119794.305, 0.0, 5.066951, 4.960981 
6.713257e+2, 1.6469346e+2, -1216941.4, -1374070.3, -10448.737, 0.00017016413, 0.0011598293, -1216249.6, 109754.39, 0.0, 5.063339, 4.9609175 
6.711823e+2, 1.6965294e+2, -1179050.4, -1331307.9, -10888.927, 0.00012627018, -0.0011421123, -1178275.6, 99125.6, 0.0, 5.0597034, 4.9606166 
6.7103755e+2, 1.7461233e+2, -1140674.5, -1288098.8, -12579.738, 0.0002464473, 0.0011351851, -1139608.9, 89190.19, 0.0, 5.0561476, 4.960421 
6.70892e+2, 1.795713e+2, -1102527.5, -1245165.0, -12996.008, 0.00015094482, -0.0013009481, -1101353.0, 78848.055, 0.0, 5.0525713, 4.9601064 
6.707455e+2, 1.8453015e+2, -1064110.0, -1202102.1, -14344.455, 0.00016121032, 0.0011680976, -1062634.6, 68969.73, 0.0, 5.0490527, 4.9597983 
6.705983e+2, 1.8948852e+2, -1025723.7, -1158968.1, -14718.991, 0.00016418537, -0.0013725746, -1024117.1, 58895.434, 0.0, 5.045523, 4.9594855 
6.704505e+2, 1.9444671e+2, -987278.5, -1116024.1, -15763.927, 0.00006313447, 0.0011987813, -985376.44, 49045.652, 0.0, 5.0420284, 4.9590745 
6.703022e+2, 1.9940434e+2, -948678.4, -1072683.1, -16090.337, 0.00018704197, -0.0014377136, -946624.6, 39212.645, 0.0, 5.0385327, 4.9587717 
6.7015344e+2, 2.0436181e+2, -910204.1, -1029820.0, -16867.908, 0.000028077926, 0.0011399034, -907871.0, 29383.043, 0.0, 5.035054, 4.958282 
6.700044e+2, 2.0931868e+2, -871436.94, -986273.4, -17116.258, 0.00022172097, -0.0014120395, -868940.06, 19736.75, 0.0, 5.031573, 4.957998 
6.6985524e+2, 2.1427536e+2, -832964.06, -943493.8, -17613.824, 0.000076658696, 0.0013447513, -830225.0, 9876.322, 0.0, 5.028099, 4.9574256 
6.69706e+2, 2.1923137e+2, -794050.3, -899756.7, -17849.74, 0.00013935608, -0.0015618332, -791117.56, 414.8912, 0.0, 5.024624, 4.9571595 
6.695568e+2, 2.2418721e+2, -755556.4, -856954.94, -18004.736, 0.00006161558, 0.0012543608, -752454.3, -9489.024, 0.0, 5.021143, 4.9565473 
6.694077e+2, 2.2914238e+2, -716566.2, -813122.06, -18263.469, 0.00005687041, -0.0015608822, -713227.1, -18822.527, 0.0, 5.0176606, 4.956273 
6.6925895e+2, 2.3409732e+2, -678043.4, -770222.3, -18051.969, 0.00016330965, 0.00143674, -674634.2, -28788.043, 0.0, 5.014161, 4.95565 
6.6911054e+2, 2.3905161e+2, -638966.6, -726240.94, -18321.639, 0.00021448226, -0.0017019676, -635276.4, -37982.15, 0.0, 5.010666, 4.9553876 
6.689627e+2, 2.4400567e+2, -600484.3, -683353.2, -17753.748, 0.000107235945, 0.0016466023, -596841.0, -48096.383, 0.0, 5.0071397, 4.954716 
6.688154e+2, 2.4895906e+2, -561276.2, -639082.4, -18017.012, -0.000056899553, -0.0018191967, -557306.6, -57105.332, 0.0, 5.003624, 4.9545174 
6.6866887e+2, 2.5391218e+2, -522948.34, -596460.0, -17113.709, 0.0003028994, 0.0017661438, -519159.53, -67498.83, 0.0, 5.0000677, 4.9537163 
6.685232e+2, 2.5886476e+2, -483452.44, -551469.56, -17347.197, 0.00035679835, -0.0015019506, -479283.7, -76158.17, 0.0, 4.996516, 4.9537387 
6.683784e+2, 2.638169e+2, -445452.8, -509414.22, -16095.186, -0.00013347573, 0.0013674406, -441631.0, -87036.49, 0.0, 4.992912, 4.952703 
6.682348e+2, 2.687686e+2, -405590.84, -463528.2, -16277.972, -0.00068881584, -0.0023213197, -401330.7, -95263.06, 0.0, 4.989327, 4.953009 
6.6809255e+2, 2.7371997e+2, -367942.78, -422212.1, -14666.082, 0.0007576398, 0.0020763522, -364232.94, -106688.75, 0.0, 4.9856944, 4.951664 
6.679517e+2, 2.78671e+2, -327644.66, -375298.38, -14777.671, 0.0022177186, -0.00083737983, -323434.06, -114410.02, 0.0, 4.982084, 4.9522963 
6.6781175e+2, 2.836212e+2, -290349.4, -334544.38, -12757.858, -0.0012889701, 0.00063163764, -286930.97, -126418.74, 0.0, 4.9783893, 4.950722 
6.676736e+2, 2.8857127e+2, -249878.8, -287029.53, -12699.692, -0.0061789644, -0.0052252286, -245952.45, -133950.66, 0.0, 4.9747233, 4.951545 
6.6753846e+2, 2.935213e+2, -212533.89, -247044.81, -10289.742, 0.0039588846, 0.004771162, -209698.81, -146207.67, 0.0, 4.9711814, 4.94957 
6.6740614e+2, 2.9847074e+2, -171046.58, -198387.81, -10169.705, 0.019232927, 0.0026035905, -167678.75, -152692.69, 0.0, 4.9677315, 4.950659 
6.6727173e+2, 3.0342695e+2, -139111.06, -134538.5, -7452.989, -0.01016894, -0.00633273, -129029.01, -129029.01, 0.0, 4.9634023, 4.9665227 
6.67139e+2, 3.0839455e+2, -152208.84, -140453.38, -7651.2974, -0.055723187, 0.0027790682, -136682.78, -136682.78, 0.0, 4.958751, 4.9664054 
6.67024e+2, 3.1337282e+2, -127009.61, -69091.39, -5499.0703, 0.072498485, -0.016772011, -68573.91, -68573.91, 0.0, 4.956189, 4.9935017 
6.6689205e+2, 3.183803e+2, -114089.6, -27132.773, -647.4278, -0.0056387205, 0.13734378, -27127.953, -27127.953, 0.0, 4.9538345, 5.0098996 
6.7750955e+2, 1.251419e+2, -1511886.6, -1714327.3, 4538.279, -0.00062058604, 0.000299454, -1511785.0, 201824.58, 0.0, 5.0956664, 4.961624 
6.7737687e+2, 1.3010144e+2, -1476129.4, -1673553.8, 3591.1716, 0.00059885945, -0.0022990378, -1476064.1, 188941.84, 0.0, 5.0915623, 4.9610558 
6.772408e+2, 1.3506164e+2, -1438009.9, -1628920.8, 42.284897, 0.00037722316, 0.0038266508, -1438009.9, 178386.16, 0.0, 5.08762, 4.9616165 
6.771029e+2, 1.400212e+2, -1401526.3, -1587176.0, -486.87213, -0.00014136548, -0.0018265529, -1401524.9, 166267.25, 0.0, 5.083621, 4.9612746 
6.76963e+2, 1.4498125e+2, -1363652.9, -1543504.1, -3049.2026, 0.00016414926, 0.0000645443, -1363601.3, 155582.48, 0.0, 5.079774, 4.961476 
6.768216e+2, 1.4994124e+2, -1326587.3, -1501227.9, -3597.8088, 0.00028020656, -0.00077056116, -1326513.3, 144062.64, 0.0, 5.075905, 4.961212 
6.766783e+2, 1.549012e+2, -1288603.9, -1457771.8, -5877.526, 0.00035664742, 0.0013307942, -1288399.9, 133568.3, 0.0, 5.072143, 4.961288 
6.765337e+2, 1.5986083e+2, -1251230.3, -1415309.4, -6322.514, 0.0000083355035, -0.0013969131, -1250986.9, 122376.914, 0.0, 5.068357, 4.9610047 
6.763876e+2, 1.6482054e+2, -1213155.5, -1372043.8, -8240.917, 0.00019800776, 0.0010613222, -1212729.3, 112029.43, 0.0, 5.064667, 4.9609394 
6.7624056e+2, 1.6977987e+2, -1175459.9, -1329344.9, -8609.859, 0.00021235079, -0.0013022912, -1174979.6, 101177.74, 0.0, 5.060958, 4.9606543 
6.7609215e+2, 1.7473914e+2, -1137305.0, -1286282.3, -10178.871, 0.0002792368, 0.0010230003, -1136612.8, 90943.66, 0.0, 5.0573354, 4.9604425 
6.759431e+2, 1.7969796e+2, -1099315.9, -1243380.4, -10530.107, 0.000154329, -0.0013113734, -1098550.4, 80409.54, 0.0, 5.053696, 4.960149 
6.7579293e+2, 1.846567e+2, -1061088.4, -1200441.3, -11764.199, 0.00016556944, 0.0011377973, -1060102.3, 70262.15, 0.0, 5.050119, 4.959828 
6.756422e+2, 1.8961488e+2, -1022844.25, -1157340.4, -12076.703, 0.00013683946, -0.0014641578, -1021768.44, 60005.59, 0.0, 5.046533, 4.9595323 
6.754908e+2, 1.9457296e+2, -984588.3, -1114529.1, -13015.232, 0.00006406556, 0.0010880003, -983297.5, 49887.387, 0.0, 5.0429826, 4.959103 
6.75339e+2, 1.9953044e+2, -946122.2, -1071209.4, -13286.748, 0.00019429537, -0.0015606196, -944726.44, 39875.004, 0.0, 5.039431, 4.9588213 
6.751867e+2, 2.0448777e+2, -907839.56, -1028507.44, -13962.03, 0.000035315243, 0.001012893, -906245.1, 29774.549, 0.0, 5.035902, 4.9583006 
6.7503417e+2, 2.0944448e+2, -869190.06, -984994.94, -14160.498, 0.00020567034, -0.0015089229, -867483.7, 19960.295, 0.0, 5.0323753, 4.958028 
6.7488146e+2, 2.1440102e+2, -830862.6, -942293.3, -14574.598, 0.000072367526, 0.0012564387, -828987.9, 9882.104, 0.0, 5.028854, 4.9574523 
6.7472875e+2, 2.1935686e+2, -792098.56, -898625.6, -14750.688, 0.00015430486, -0.0015587262, -790093.75, 208.96638, 0.0, 5.0253267, 4.957187 
6.7457604e+2, 2.2431253e+2, -753756.06, -855907.8, -14862.298, 0.00008742239, 0.0013069332, -751637.6, -9900.52, 0.0, 5.021796, 4.95657 
6.7442346e+2, 2.2926754e+2, -714890.1, -812110.9, -15062.33, 0.000067237444, -0.0014916876, -712610.0, -19431.885, 0.0, 5.018266, 4.956306 
6.7427117e+2, 2.3422232e+2, -676525.2, -769323.75, -14798.074, 0.00014784421, 0.0015041011, -674222.56, -29601.25, 0.0, 5.0147204, 4.955666 
6.741192e+2, 2.3917642e+2, -637574.44, -725381.9, -15015.1, 0.00017423103, -0.0016279299, -635077.9, -39006.727, 0.0, 5.011177, 4.955413 
6.7396784e+2, 2.4413031e+2, -599247.2, -682574.25, -14424.868, 0.00010271026, 0.0017588483, -596820.7, -49297.645, 0.0, 5.007599, 4.954738 
6.73817e+2, 2.4908353e+2, -560200.2, -638371.0, -14636.182, -0.000027861868, -0.0016511421, -557549.7, -58568.195, 0.0, 5.004025, 4.9545426 
6.7366695e+2, 2.5403646e+2, -522023.72, -595789.4, -13704.026, 0.0002679074, 0.0016609621, -519560.1, -69117.414, 0.0, 5.0004106, 4.9537544 
6.7351764e+2, 2.5898883e+2, -482702.53, -550891.56, -13892.193, 0.0002615925, -0.0018826115, -479980.9, -78071.48, 0.0, 4.9968, 4.953772 
6.7336935e+2, 2.6394087e+2, -444871.66, -508906.06, -12617.1, -0.000083980805, 0.001508983, -442475.28, -89095.75, 0.0, 4.9931355, 4.9527397 
6.732221e+2, 2.6889247e+2, -405184.5, -463093.88, -12766.868, -0.0005046036, -0.0015929674, -402494.8, -97641.04, 0.0, 4.989487, 4.953048 
6.7307615e+2, 2.738435e+2, -367707.75, -421777.1, -11105.216, 0.0005846235, 0.00126175, -365515.75, -109182.414, 0.0, 4.9857802, 4.951737 
6.7293173e+2, 2.7879423e+2, -327699.06, -375037.8, -11220.343, 0.001715981, -0.0034610021, -325174.25, -117357.83, 0.0, 4.9820743, 4.9523506 
6.7278814e+2, 2.837447e+2, -290655.8, -334399.44, -9283.681, -0.0010637335, 0.002255735, -288767.1, -129465.15, 0.0, 4.9782915, 4.950774 
6.726463e+2, 2.886951e+2, -250441.33, -286983.72, -9283.469, -0.005032113, 0.0015657565, -248218.14, -137430.14, 0.0, 4.9745297, 4.9516044 
6.7250746e+2, 2.9364398e+2, -213699.19, -246990.73, -6628.263, 0.003697755, 0.0006255512, -212428.06, -150139.1, 0.0, 4.9707193, 4.9497504 
6.723713e+2, 2.98592e+2, -173209.0, -198789.27, -6375.7837, 0.01691362, -0.015282528, -171707.94, -157909.84, 0.0, 4.966913, 4.950832 
6.72233e+2, 3.0355108e+2, -140902.98, -134576.22, -4177.409, -0.010186869, 0.0045307376, -132499.6, -132499.6, 0.0, 4.962678, 4.966785 
6.7209613e+2, 3.0852258e+2, -153637.84, -141094.63, -4166.36, -0.05117395, 0.052749652, -139836.84, -139836.84, 0.0, 4.958302, 4.966333 
6.719779e+2, 3.1349027e+2, -128850.875, -69904.41, -3898.6775, 0.072705515, -0.07613351, -69647.67, -69647.67, 0.0, 4.9555984, 4.9934196 
6.7184156e+2, 3.184884e+2, -107132.89, -498.3005, -617.59784, -0.027713344, -0.02415955, -494.72366, -494.72366, 0.0, 4.951832, 5.0205646 
6.8260354e+2, 1.2527318e+2, -1511519.3, -1714664.4, 3669.921, -0.00021308067, 0.00035096533, -1511453.0, 200870.0, 0.0, 5.0958714, 4.961432 
6.824667e+2, 1.3023247e+2, -1475672.9, -1673753.4, 2665.6196, 0.00033776468, -0.002113278, -1475637.0, 188084.77, 0.0, 5.0917764, 4.960905 
6.8232656e+2, 1.3519245e+2, -1437564.5, -1629080.9, -867.80914, 0.00034099858, 0.0038656332, -1437560.6, 177553.28, 0.0, 5.08782, 4.961487 
6.8218464e+2, 1.4015184e+2, -1401080.0, -1587279.3, -1446.2999, 0.00003763179, -0.0018234086, -1401068.8, 165443.23, 0.0, 5.083808, 4.9611707 
6.820407e+2, 1.4511174e+2, -1363200.6, -1543592.9, -3981.758, 0.00025165084, 0.00014388228, -1363112.8, 154792.23, 0.0, 5.07996, 4.9613776 
6.818955e+2, 1.5007156e+2, -1326094.6, -1501240.0, -4604.371, 0.00028369325, -0.00065942004, -1325973.6, 143325.03, 0.0, 5.076092, 4.9611397 
6.8174833e+2, 1.550314e+2, -1288128.3, -1457790.4, -6875.0757, 0.00039989475, 0.0013958825, -1287850.1, 132842.05, 0.0, 5.0723233, 4.961218 
6.816e+2, 1.599909e+2, -1250743.0, -1415285.9, -7380.4326, 0.000007063121, -0.0013272469, -1250412.6, 121676.484, 0.0, 5.068532, 4.9609523 
6.814501e+2, 1.649505e+2, -1212661.0, -1372039.1, -9308.376, 0.00021455428, 0.0011586917, -1212119.1, 111365.84, 0.0, 5.064849, 4.9608784 
6.812993e+2, 1.6990972e+2, -1174924.1, -1329288.5, -9752.595, 0.00023995439, -0.001193544, -1174310.4, 100574.4, 0.0, 5.061146, 4.960609 
6.811473e+2, 1.7486888e+2, -1136803.0, -1286287.4, -11343.548, 0.00025480162, 0.0011300204, -1135947.1, 90337.79, 0.0, 5.0575204, 4.9603786 
6.809945e+2, 1.798276e+2, -1098799.0, -1243340.0, -11767.849, 0.00013349553, -0.0011395491, -1097847.3, 79842.195, 0.0, 5.0538764, 4.960104 
6.8084073e+2, 1.8478625e+2, -1060604.5, -1200459.8, -13035.525, 0.0001728585, 0.0013256405, -1059399.9, 69695.0, 0.0, 5.0502963, 4.9597654 
6.806865e+2, 1.8974432e+2, -1022344.3, -1157320.8, -13433.777, 0.00010424446, -0.0013300881, -1021020.25, 59485.31, 0.0, 5.046708, 4.9594855 
6.805315e+2, 1.947023e+2, -984122.1, -1114581.6, -14417.579, 0.00003352771, 0.0012009172, -982547.75, 49369.59, 0.0, 5.043156, 4.959033 
6.803761e+2, 1.9965969e+2, -945634.3, -1071220.9, -14777.722, 0.00015395731, -0.0014396339, -943918.9, 39416.1, 0.0, 5.0396047, 4.9587665 
6.8022025e+2, 2.0461692e+2, -907386.7, -1028595.8, -15507.375, -0.0000023102525, 0.0011383354, -905434.1, 29320.012, 0.0, 5.0360746, 4.9582214 
6.800642e+2, 2.095735e+2, -868727.1, -985059.2, -15796.8955, 0.00014047556, -0.0013961251, -866620.25, 19559.389, 0.0, 5.0325456, 4.957959 
6.7990804e+2, 2.1452992e+2, -830445.56, -942433.0, -16274.626, 0.00002839251, 0.0013254425, -828128.4, 9478.324, 0.0, 5.029018, 4.9573617 
6.797517e+2, 2.1948566e+2, -791684.4, -898744.6, -16536.967, 0.00014422374, -0.0013828434, -789188.25, -147.68454, 0.0, 5.0254836, 4.9571085 
6.7959553e+2, 2.2444125e+2, -753386.4, -856100.6, -16732.977, 0.00010195078, 0.0015518982, -750729.2, -10253.227, 0.0, 5.021947, 4.95647 
6.794393e+2, 2.293961e+2, -714532.9, -812295.06, -17008.357, 0.000050261668, -0.0012653222, -711658.3, -19740.1, 0.0, 5.0184083, 4.956214 
6.7928356e+2, 2.3435079e+2, -676203.5, -769543.2, -16844.074, 0.000084405336, 0.0016899616, -673256.9, -29894.363, 0.0, 5.014852, 4.9555674 
6.7912805e+2, 2.3930477e+2, -637290.44, -725633.2, -17142.621, 0.00008149299, -0.0014267593, -634080.56, -39267.117, 0.0, 5.011297, 4.9553094 
6.7897314e+2, 2.4425854e+2, -598992.75, -682838.25, -16644.31, 0.00007884401, 0.00206224, -595809.5, -49543.086, 0.0, 5.0077066, 4.9546366 
6.788187e+2, 2.4921164e+2, -559974.9, -638647.9, -16937.904, 0.0000044200365, -0.001287461, -556483.2, -58757.21, 0.0, 5.004121, 4.954443 
6.786651e+2, 2.5416443e+2, -521822.16, -596063.1, -16112.076, 0.00017762405, 0.0015730234, -518476.22, -69287.71, 0.0, 5.000494, 4.9536624 
6.785122e+2, 2.5911668e+2, -482545.0, -551206.06, -16380.849, 0.000058563455, -0.002366582, -478837.16, -78180.56, 0.0, 4.9968705, 4.9536724 
6.783603e+2, 2.6406866e+2, -444748.25, -509240.8, -15210.472, -0.0000075870216, 0.0020172729, -441340.9, -89214.19, 0.0, 4.9931927, 4.952639 
6.782094e+2, 2.6902026e+2, -405089.22, -463426.84, -15429.634, -0.00013042543, -0.000071765135, -401259.66, -97658.664, 0.0, 4.9895306, 4.9529557 
6.7805976e+2, 2.7397096e+2, -367586.75, -421992.84, -13873.253, 0.000061554325, -0.00053018, -364253.38, -109168.95, 0.0, 4.9858103, 4.9516907 
6.779115e+2, 2.7892122e+2, -327600.84, -375333.72, -14005.944, 0.00015978274, -0.0091578, -323794.7, -117222.7, 0.0, 4.982109, 4.9522743 
6.7776453e+2, 2.8387257e+2, -290541.66, -334743.03, -12059.787, -0.00012403083, 0.0067137047, -287465.4, -129417.125, 0.0, 4.9783425, 4.950672 
6.776193e+2, 2.888242e+2, -250171.14, -287078.84, -12007.34, -0.0006628792, 0.018900646, -246608.61, -137086.1, 0.0, 4.9746017, 4.951581 
6.77476e+2, 2.9377007e+2, -213014.02, -246197.2, -9323.32, 0.0007835103, -0.013353995, -210573.9, -149520.77, 0.0, 4.9708033, 4.950037 
6.7733496e+2, 2.9871416e+2, -172564.9, -198079.34, -9157.097, 0.0031025927, -0.07136092, -169618.64, -157016.81, 0.0, 4.9669957, 4.9510903 
6.7719465e+2, 3.036833e+2, -140227.13, -133831.86, -7175.9805, -0.0023767801, 0.046012405, -129173.31, -129173.31, 0.0, 4.9627657, 4.9670568 
6.770568e+2, 3.0866832e+2, -154073.08, -143176.42, -6850.175, -0.010666748, 0.22794253, -139872.08, -139872.08, 0.0, 4.9584417, 4.9655647 
6.769261e+2, 3.1359136e+2, -131958.34, -78895.2, -4923.0376, 0.018020285, -0.3251691, -78442.33, -78442.33, 0.0, 4.955888, 4.9900527 
6.7678994e+2, 3.1860352e+2, -112372.195, -12468.169, -6701.8853, -0.046051204, -0.09425205, -12020.59, -12020.59, 0.0, 4.95177, 5.016191 
6.8769866e+2, 1.2540998e+2, -1505639.4, -1711776.5, 5091.3516, 0.00086667965, 0.00024089316, -1505513.6, 205468.73, 0.0, 5.0979614, 4.9613547 
6.8755746e+2, 1.3036908e+2, -1470129.6, -1670942.3, 4138.031, -0.0009836133, -0.0017779605, -1470044.4, 192338.66, 0.0, 5.0937314, 4.9608703 
6.874133e+2, 1.3532886e+2, -1432332.4, -1626392.5, 751.8322, 0.0000023566668, 0.0036913361, -1432329.4, 181447.84, 0.0, 5.0896606, 4.961469 
6.872674e+2, 1.4028803e+2, -1396137.3, -1584675.6, 261.96466, 0.0008381804, -0.002354402, -1396137.0, 169040.45, 0.0, 5.0855365, 4.9611816 
6.871194e+2, 1.452478e+2, -1358551.8, -1541135.4, -2097.7842, 0.00055472, -0.00009569523, -1358527.8, 158043.86, 0.0, 5.0815887, 4.9613895 
6.8697023e+2, 1.502075e+2, -1321673.3, -1498814.9, -2656.6797, -0.000037371814, -0.0006085073, -1321633.4, 146332.97, 0.0, 5.077626, 4.961189 
6.8681914e+2, 1.5516722e+2, -1283951.3, -1455475.1, -4777.857, 0.00029515073, 0.0012664396, -1283818.3, 135542.86, 0.0, 5.0737724, 4.9612727 
6.8666697e+2, 1.6012658e+2, -1246788.0, -1413051.4, -5199.5547, 0.00010622165, -0.0016041517, -1246625.6, 124133.74, 0.0, 5.0698996, 4.961021 
6.8651336e+2, 1.6508609e+2, -1208941.3, -1369963.3, -6975.2397, 0.00023316694, 0.0010109008, -1208639.6, 113516.52, 0.0, 5.0661464, 4.960929 
6.863588e+2, 1.700452e+2, -1171368.1, -1327245.0, -7347.269, 0.00015624776, -0.0011792409, -1171022.6, 102534.51, 0.0, 5.062378, 4.9606814 
6.8620306e+2, 1.7500424e+2, -1133457.3, -1284383.8, -8806.778, 0.00017257618, 0.001063514, -1132945.1, 92013.3, 0.0, 5.058689, 4.960435 
6.8604666e+2, 1.7996283e+2, -1095595.0, -1241463.1, -9154.737, 0.00013053596, -0.0013005527, -1095022.6, 81341.63, 0.0, 5.0549884, 4.96018 
6.8588924e+2, 1.8492134e+2, -1057593.9, -1198733.5, -10296.299, 0.000266873, 0.0011888432, -1056846.6, 70924.16, 0.0, 5.051355, 4.959816 
6.8573135e+2, 1.8987928e+2, -1019451.8, -1155607.0, -10627.278, 0.00018335965, -0.001419988, -1018627.3, 60555.57, 0.0, 5.047717, 4.9595566 
6.855727e+2, 1.9483714e+2, -981407.5, -1113020.3, -11494.903, 0.00003631228, 0.0011405101, -980411.06, 50184.88, 0.0, 5.044119, 4.959075 
6.854138e+2, 1.9979437e+2, -943027.4, -1069669.3, -11790.334, 0.000102101236, -0.0014228801, -941939.0, 40076.02, 0.0, 5.040522, 4.9588284 
6.8525434e+2, 2.0475146e+2, -904939.5, -1027181.06, -12418.444, -0.000034542372, 0.0011393827, -903690.6, 29744.977, 0.0, 5.036951, 4.9582567 
6.850947e+2, 2.0970787e+2, -866376.7, -983656.9, -12653.8545, 0.000059656802, -0.0014365675, -865027.0, 19835.8, 0.0, 5.0333815, 4.95801 
6.849349e+2, 2.1466413e+2, -828254.2, -941168.2, -13048.066, -0.0000025943427, 0.0012479047, -826766.0, 9525.509, 0.0, 5.0298133, 4.9573855 
6.847752e+2, 2.1961969e+2, -789593.4, -897505.6, -13255.186, 0.00017757762, -0.0014063495, -787989.06, -261.91528, 0.0, 5.0262394, 4.957143 
6.846154e+2, 2.2457507e+2, -751428.4, -854959.4, -13385.672, 0.00013491263, 0.0015067278, -749725.7, -10561.381, 0.0, 5.0226645, 4.956489 
6.8445563e+2, 2.2952975e+2, -712677.8, -811182.7, -13599.788, 0.000047964768, -0.0013581612, -710834.7, -20226.125, 0.0, 5.0190864, 4.9562426 
6.842963e+2, 2.3448423e+2, -674490.1, -768541.4, -13404.138, 0.00007607174, 0.0015959009, -672617.06, -30562.365, 0.0, 5.0154905, 4.9555774 
6.841372e+2, 2.39438e+2, -635683.94, -724649.06, -13652.629, 0.0000838882, -0.0014669758, -633635.94, -40128.277, 0.0, 5.0118914, 4.9553347 
6.839787e+2, 2.4439159e+2, -597546.56, -681969.7, -13124.066, 0.00012567222, 0.0019443727, -595553.44, -50590.785, 0.0, 5.0082536, 4.9546432 
6.8382066e+2, 2.4934447e+2, -558661.5, -637821.4, -13368.462, 0.00006032108, -0.0014706714, -556464.8, -60040.465, 0.0, 5.004617, 4.954459 
6.8366337e+2, 2.5429708e+2, -520666.6, -595306.94, -12534.646, 0.00013364069, 0.0016527643, -518617.84, -70729.21, 0.0, 5.000935, 4.95368 
6.8350685e+2, 2.5924912e+2, -481545.34, -550506.8, -12768.731, -0.000050416744, -0.0019992199, -479257.06, -79898.54, 0.0, 4.9972534, 4.953697 
6.833513e+2, 2.6420093e+2, -443902.5, -508593.1, -11578.512, 0.00006235851, 0.002036279, -441892.6, -91061.71, 0.0, 4.9935184, 4.952673 
6.831968e+2, 2.6915228e+2, -404426.56, -462849.25, -11752.023, 0.00008638036, -0.00045525547, -402151.22, -99843.75, 0.0, 4.9897885, 4.9529953 
6.8304336e+2, 2.7410287e+2, -367180.25, -421499.34, -10222.493, -0.00017280361, 0.00026005728, -365320.13, -111528.58, 0.0, 4.985973, 4.9517436 
6.828913e+2, 2.7905306e+2, -327500.0, -374965.44, -10424.882, -0.00048949296, -0.007128902, -325311.28, -120031.61, 0.0, 4.9821596, 4.952334 
6.827407e+2, 2.8400412e+2, -290664.06, -334359.72, -8496.302, 0.00052300777, 0.0064042215, -289070.16, -132310.78, 0.0, 4.9782896, 4.9507833 
6.825918e+2, 2.8895536e+2, -250604.83, -286792.3, -8468.108, 0.0016730299, 0.016159851, -248721.28, -140484.31, 0.0, 4.9744277, 4.951712 
6.824442e+2, 2.939016e+2, -214404.83, -246045.45, -6144.3716, -0.001010358, -0.012883129, -213253.53, -153488.56, 0.0, 4.9702325, 4.9502954 
6.822986e+2, 2.98846e+2, -175113.38, -198362.13, -6260.67, -0.004580821, -0.06800283, -173534.66, -162223.67, 0.0, 4.965995, 4.951381 
6.821558e+2, 3.0381545e+2, -140605.95, -133046.48, -4483.807, 0.003074984, 0.051365033, -130961.85, -130961.85, 0.0, 4.962519, 4.967404 
6.8201596e+2, 3.0880132e+2, -152601.98, -143190.67, -4158.976, 0.014254143, 0.24195486, -141616.17, -141616.17, 0.0, 4.959163, 4.965205 
6.818756e+2, 3.1371656e+2, -136985.22, -84893.4, -1783.4485, -0.016792092, -0.37802792, -84832.414, -84832.414, 0.0, 4.9548965, 4.988254 
6.817466e+2, 3.1877038e+2, -103380.36, 23743.016, -3719.6167, 0.032062642, 0.26633984, 23851.758, 23851.758, 0.0, 4.948733, 5.0309415 
6.927946e+2, 1.255497e+2, -1505228.5, -1712000.5, 4226.0776, 0.00010289718, 0.00037927178, -1505142.1, 204470.97, 0.0, 5.0981593, 4.9612045 
6.9264925e+2, 1.3050857e+2, -1469770.4, -1671105.0, 3242.7285, -0.0003797547, -0.0016724045, -1469718.1, 191297.83, 0.0, 5.0938916, 4.960759 
6.925008e+2, 1.3546817e+2, -1431794.5, -1626435.5, -102.63221, 0.00017333549, 0.003742299, -1431794.4, 180617.52, 0.0, 5.089875, 4.9613724 
6.923508e+2, 1.4042719e+2, -1395443.9, -1584577.1, -664.3621, 0.00080033205, -0.0022799047, -1395441.6, 168372.11, 0.0, 5.0857897, 4.961114 
6.921989e+2, 1.4538683e+2, -1358030.5, -1541120.3, -3002.8816, 0.0006073869, -0.0000076374035, -1357981.4, 157227.8, 0.0, 5.081782, 4.9613237 
6.9204557e+2, 1.503464e+2, -1321254.4, -1498779.1, -3619.4517, -0.000029516921, -0.00048702655, -1321180.6, 145424.61, 0.0, 5.0777674, 4.961156 
6.918906e+2, 1.5530603e+2, -1283475.0, -1455411.0, -5732.9185, 0.00028524082, 0.0013594938, -1283284.0, 134716.89, 0.0, 5.073933, 4.9612403 
6.917346e+2, 1.602653e+2, -1246224.5, -1412916.0, -6232.1704, 0.000066256594, -0.0015145696, -1245991.8, 123408.29, 0.0, 5.070083, 4.961003 
6.9157714e+2, 1.6522472e+2, -1208413.9, -1369891.6, -8010.36, 0.00020081195, 0.0011159988, -1208017.5, 112780.29, 0.0, 5.066327, 4.9608917 
6.914188e+2, 1.7018372e+2, -1170823.8, -1327126.0, -8457.756, 0.00012406737, -0.0010059387, -1170367.4, 101832.17, 0.0, 5.0625544, 4.9606633 
6.912593e+2, 1.7514269e+2, -1132922.5, -1284321.9, -9938.38, 0.00010288555, 0.001210758, -1132272.9, 91328.81, 0.0, 5.0588727, 4.9603953 
6.910991e+2, 1.8010117e+2, -1095014.8, -1241346.6, -10366.859, 0.00007491818, -0.0012249926, -1094284.0, 80724.555, 0.0, 5.0551796, 4.9601564 
6.909381e+2, 1.850596e+2, -1057059.5, -1198713.8, -11545.232, 0.0003054421, 0.0012923792, -1056124.6, 70291.266, 0.0, 5.051545, 4.959761 
6.907765e+2, 1.9001746e+2, -1018894.8, -1155535.3, -11966.482, 0.00021273454, -0.0012535746, -1017854.75, 59974.246, 0.0, 5.0479045, 4.9595222 
6.906143e+2, 1.949752e+2, -980895.1, -1113050.0, -12883.189, -0.000007241047, 0.0013183167, -979650.94, 49592.035, 0.0, 5.0443068, 4.9590077 
6.904518e+2, 1.9993234e+2, -942489.5, -1069653.5, -13270.588, 0.000015051464, -0.0011836432, -941119.4, 39543.758, 0.0, 5.04071, 4.958778 
6.902888e+2, 2.0488931e+2, -904454.94, -1027267.9, -13955.895, -0.00007526663, 0.0013432804, -902889.0, 29195.707, 0.0, 5.037135, 4.9581733 
6.901255e+2, 2.0984562e+2, -865887.3, -983719.6, -14285.045, -0.00003257068, -0.001284582, -864180.25, 19332.822, 0.0, 5.033561, 4.957939 
6.899622e+2, 2.1480174e+2, -827812.25, -941323.1, -14753.83, -0.000040800736, 0.0013732344, -825925.94, 9016.993, 0.0, 5.029989, 4.9572854 
6.8979883e+2, 2.1975715e+2, -789152.5, -897644.6, -15050.159, 0.0002003177, -0.0012761017, -787103.4, -723.5295, 0.0, 5.02641, 4.957052 
6.8963546e+2, 2.2471242e+2, -751039.8, -855182.9, -15265.357, 0.00014971179, 0.0015664439, -748848.3, -11029.973, 0.0, 5.022827, 4.956374 
6.8947214e+2, 2.2966695e+2, -712308.75, -811405.75, -15556.206, 0.00002543794, -0.001370998, -709924.1, -20660.066, 0.0, 5.019239, 4.9561334 
6.8930924e+2, 2.3462129e+2, -674177.0, -768840.44, -15469.039, 0.000057554662, 0.0015715096, -671713.3, -31001.771, 0.0, 5.015631, 4.9554486 
6.891465e+2, 2.3957491e+2, -635406.94, -724968.1, -15790.857, 0.00008857189, -0.0014396709, -632704.3, -40538.344, 0.0, 5.0120187, 4.955206 
6.8898445e+2, 2.4452834e+2, -597296.94, -682301.75, -15384.931, 0.00015618745, 0.0017844903, -594598.1, -50975.633, 0.0, 5.008369, 4.9545164 
6.8882275e+2, 2.4948105e+2, -558447.75, -638176.5, -15708.591, 0.0000712939, -0.0017932358, -555464.4, -60378.523, 0.0, 5.00472, 4.954331 
6.886619e+2, 2.5443357e+2, -520502.13, -595714.9, -14979.804, 0.00005031465, 0.0019056936, -517628.44, -71077.414, 0.0, 5.0010242, 4.9535403 
6.885016e+2, 2.5938553e+2, -481401.06, -550898.25, -15300.421, -0.00018481557, -0.0012187888, -478181.7, -80159.695, 0.0, 4.9973288, 4.9535704 
6.8834233e+2, 2.643371e+2, -443781.63, -508966.8, -14225.091, 0.00004876465, 0.0016872556, -440812.56, -91315.87, 0.0, 4.993578, 4.95256 
6.881841e+2, 2.692882e+2, -404351.47, -463249.7, -14489.094, 0.00009513023, -0.00193223, -400980.1, -100004.42, 0.0, 4.9898314, 4.9528813 
6.8802696e+2, 2.7423912e+2, -367133.06, -421935.5, -13068.595, -0.00031480583, 0.003067614, -364176.2, -111719.36, 0.0, 4.986008, 4.95162 
6.878711e+2, 2.7918968e+2, -327372.06, -375270.9, -13246.415, -0.0005950273, 0.00036054276, -323952.84, -120011.21, 0.0, 4.9822044, 4.9522524 
6.877167e+2, 2.8413936e+2, -290349.4, -334346.44, -11301.117, 0.0007122936, 0.0007871212, -287616.34, -132182.19, 0.0, 4.978355, 4.9508038 
6.87564e+2, 2.8908908e+2, -250286.75, -286853.38, -11311.902, 0.00195157, -0.0050049713, -247070.33, -140143.6, 0.0, 4.9745092, 4.9516993 
6.874123e+2, 2.9403934e+2, -214120.38, -246212.81, -9190.418, -0.0014318655, 0.0066325944, -211674.84, -153259.28, 0.0, 4.970319, 4.9502425 
6.872624e+2, 2.989888e+2, -174792.02, -198438.81, -9016.44, -0.005552823, 0.0026394643, -171746.34, -161834.06, 0.0, 4.96608, 4.9513607 
6.8711627e+2, 3.039455e+2, -139868.86, -132620.88, -6447.5327, 0.0033092196, -0.0064148256, -128848.66, -128848.66, 0.0, 4.9626923, 4.967525 
6.8697345e+2, 3.089153e+2, -151349.81, -142393.14, -6548.8477, 0.015715413, 0.022364065, -138937.83, -138937.83, 0.0, 4.9594917, 4.9653926 
6.868279e+2, 3.1388545e+2, -135666.34, -83210.55, -4219.845, -0.016334131, -0.04768645, -82873.25, -82873.25, 0.0, 4.9550786, 4.9888344 
6.8669134e+2, 3.1889576e+2, -114963.89, -1845.7771, -7382.1885, 0.014344748, 0.16908942, -1366.0435, -1366.0435, 0.0, 4.948476, 5.0215936 
6.978915e+2, 1.2569511e+2, -1499499.8, -1709046.4, 5604.0005, -0.0018948833, 0.000367901, -1499350.0, 208838.17, 0.0, 5.1001744, 4.961184 
6.9774216e+2, 1.3065377e+2, -1464346.4, -1668216.8, 4748.355, 0.0019065061, -0.002094092, -1464235.8, 195357.42, 0.0, 5.0957837, 4.9607787 
6.975894e+2, 1.3561325e+2, -1426698.1, -1623700.5, 1601.336, 0.0006285958, 0.0036961413, -1426685.1, 184305.08, 0.0, 5.0916524, 4.961399 
6.974351e+2, 1.4057216e+2, -1390619.8, -1581899.5, 1078.847, -0.00027036117, -0.0018722266, -1390613.6, 171779.36, 0.0, 5.087457, 4.961177 
6.9727904e+2, 1.4553167e+2, -1353502.0, -1538591.0, -1106.2421, 0.00043345793, 0.000050769388, -1353495.4, 160294.38, 0.0, 5.0833497, 4.9613867 
6.971218e+2, 1.504911e+2, -1316959.6, -1496295.3, -1599.9108, 0.0004828446, -0.0007351573, -1316945.4, 148241.88, 0.0, 5.079241, 4.961251 
6.969629e+2, 1.5545066e+2, -1279418.3, -1453060.0, -3519.1204, 0.0003934025, 0.0012864405, -1279347.0, 137236.58, 0.0, 5.0753303, 4.961329 
6.9680285e+2, 1.6040984e+2, -1242349.9, -1410603.4, -3942.86, -0.00020504493, -0.0013779207, -1242257.6, 125725.96, 0.0, 5.071408, 4.9611154 
6.966416e+2, 1.6536915e+2, -1204762.1, -1367724.0, -5564.3667, 0.00014944117, 0.0010675862, -1204572.4, 114809.875, 0.0, 5.0675845, 4.960988 
6.9647944e+2, 1.7032805e+2, -1167324.8, -1324987.9, -5923.6978, 0.00026387733, -0.0012202718, -1167102.5, 103682.625, 0.0, 5.0637517, 4.96078 
6.9631624e+2, 1.7528692e+2, -1129622.3, -1282339.4, -7249.857, 0.000116336974, 0.0010543655, -1129278.9, 92909.2, 0.0, 5.0600157, 4.9604855 
6.9615227e+2, 1.802453e+2, -1091822.8, -1239374.5, -7600.252, -0.000031550917, -0.0013234876, -1091432.4, 82163.69, 0.0, 5.0562778, 4.960266 
6.959875e+2, 1.8520363e+2, -1054056.6, -1196920.5, -8645.565, 0.00023220004, 0.0012055129, -1053535.3, 71469.234, 0.0, 5.052598, 4.959832 
6.958223e+2, 1.9016135e+2, -1015987.94, -1153738.4, -8989.982, 0.00016993923, -0.0012570935, -1015403.75, 61015.145, 0.0, 5.048915, 4.959616 
6.956564e+2, 1.9511896e+2, -978150.56, -1111411.6, -9781.888, -0.0000228635, 0.0012632931, -977436.4, 50397.863, 0.0, 5.04528, 4.959066 
6.954903e+2, 2.0007592e+2, -939819.75, -1068005.0, -10098.967, -0.0000017107411, -0.0012757261, -939029.0, 40226.977, 0.0, 5.0416484, 4.9588575 
6.9532365e+2, 2.0503277e+2, -901933.8, -1025763.8, -10681.378, -0.0000021559447, 0.0012419621, -901019.2, 29659.861, 0.0, 5.0380397, 4.95822 
6.9515693e+2, 2.0998888e+2, -863445.75, -982214.2, -10946.538, 0.000058265316, -0.0013474429, -862445.25, 19663.826, 0.0, 5.0344305, 4.958004 
6.949899e+2, 2.1494484e+2, -825508.1, -939957.5, -11335.726, 0.000031815645, 0.001323805, -824396.2, 9144.484, 0.0, 5.030828, 4.957318 
6.948229e+2, 2.1990006e+2, -786902.9, -896261.0, -11558.611, 0.00019780752, -0.0013771782, -785694.56, -714.97845, 0.0, 5.0272217, 4.957104 
6.94656e+2, 2.2485512e+2, -748924.5, -853950.1, -11718.258, 0.00017776345, 0.0014323578, -747632.94, -11212.94, 0.0, 5.0236115, 4.956388 
6.944891e+2, 2.2980942e+2, -710264.7, -810184.1, -11950.08, 0.00012599277, -0.001419686, -708855.4, -20987.637, 0.0, 5.019994, 4.956158 
6.943226e+2, 2.3476355e+2, -672249.94, -767698.94, -11822.55, 0.00017150019, 0.0014755899, -670807.4, -31490.076, 0.0, 5.0163507, 4.955463 
6.941562e+2, 2.3971693e+2, -633581.1, -723853.1, -12078.908, 0.00019141643, -0.0015899723, -631992.8, -41218.684, 0.0, 5.012699, 4.95523 
6.9399047e+2, 2.4467012e+2, -595606.25, -681306.4, -11641.907, 0.00021892921, 0.0016173414, -594052.94, -51820.066, 0.0, 5.0090137, 4.9545164 
6.938251e+2, 2.4962258e+2, -556860.25, -637202.56, -11910.608, 0.00008382482, -0.0019708576, -555131.7, -61433.176, 0.0, 5.005323, 4.954344 
6.936605e+2, 2.545749e+2, -519062.56, -594828.5, -11167.927, 0.000019195093, 0.0017624085, -517450.72, -72284.7, 0.0, 5.0015793, 4.953545 
6.934965e+2, 2.595266e+2, -480093.22, -550058.6, -11437.179, -0.00017985379, -0.0013546081, -478271.06, -81631.67, 0.0, 4.997834, 4.953583 
6.9333357e+2, 2.644779e+2, -442633.47, -508162.53, -10347.51, 0.00007640297, 0.0012703965, -441038.34, -92921.77, 0.0, 4.9940205, 4.9525886 
6.931715e+2, 2.6942876e+2, -403403.5, -462543.72, -10581.956, 0.000050351962, -0.002590748, -401567.1, -101969.04, 0.0, 4.990204, 4.952908 
6.9301057e+2, 2.743796e+2, -366385.38, -421295.8, -9185.973, -0.00037241826, 0.0035559628, -364889.4, -113809.2, 0.0, 4.9863048, 4.9516582 
6.928509e+2, 2.7933007e+2, -326863.06, -374695.97, -9406.091, -0.00043669355, 0.0021347401, -325079.88, -122513.98, 0.0, 4.9824066, 4.952311 
6.926927e+2, 2.8427917e+2, -290217.47, -333842.22, -7649.619, 0.0007407751, -0.0017505168, -288915.0, -134850.75, 0.0, 4.978403, 4.950907 
6.92536e+2, 2.892282e+2, -250596.77, -286590.7, -7896.865, 0.0016727186, -0.012779637, -248940.45, -143377.0, 0.0, 4.9744062, 4.951785 
6.923802e+2, 2.9418004e+2, -214217.3, -245876.75, -6060.3223, -0.001360806, 0.015867092, -213096.86, -156060.03, 0.0, 4.970295, 4.9503226 
6.922262e+2, 2.9913148e+2, -174754.28, -198238.08, -5795.7144, -0.004726034, 0.033402786, -173401.81, -164887.98, 0.0, 4.9661393, 4.951358 
6.920765e+2, 3.0408144e+2, -141462.05, -133506.55, -3614.2678, 0.0033298605, -0.040066615, -132109.78, -132109.78, 0.0, 4.9622355, 4.9673595 
6.9193006e+2, 3.0904317e+2, -154826.42, -143736.13, -4646.473, 0.014792368, -0.08775664, -142046.75, -142046.75, 0.0, 4.958288, 4.96539 
6.9178003e+2, 3.1404635e+2, -136035.25, -78750.61, -3865.2085, -0.011620247, 0.1544739, -78490.984, -78490.984, 0.0, 4.9541287, 4.9908276 
6.9163346e+2, 3.1900272e+2, -103400.32, 23469.596, -4052.1582, -0.028196163, -0.1970075, 23598.887, 23598.887, 0.0, 4.948775, 5.030803 
7.029896e+2, 1.2584352e+2, -1499285.5, -1709258.3, 4765.5713, -0.00023394736, 0.00045907247, -1499177.4, 207556.36, 0.0, 5.100278, 4.9610844 
7.028356e+2, 1.30802e+2, -1463794.0, -1668158.1, 3853.651, 0.0008986137, -0.0018853793, -1463721.4, 194419.06, 0.0, 5.0959806, 4.960725 
7.026786e+2, 1.3576135e+2, -1426248.1, -1623659.9, 764.06555, 0.00023184187, 0.0037495904, -1426245.3, 183293.58, 0.0, 5.091807, 4.96136 
7.025202e+2, 1.4072016e+2, -1390235.8, -1581840.4, 183.7637, 0.00012696272, -0.00178694, -1390235.6, 170707.14, 0.0, 5.087577, 4.961161 
7.0236e+2, 1.4567956e+2, -1352983.4, -1538481.6, -1977.9023, 0.00059256726, 0.00024253665, -1352962.3, 159378.11, 0.0, 5.08352, 4.9613643 
7.021986e+2, 1.5063891e+2, -1316291.6, -1496058.4, -2524.0808, 0.00033144173, -0.0005006477, -1316256.1, 147482.6, 0.0, 5.0794497, 4.9612536 
7.0203567e+2, 1.5559837e+2, -1278849.4, -1452900.3, -4434.181, 0.00032076202, 0.0014985012, -1278736.5, 136399.4, 0.0, 5.075511, 4.961321 
7.018717e+2, 1.605575e+2, -1241811.4, -1410402.9, -4942.3877, -0.00019497545, -0.0011359388, -1241666.6, 124869.96, 0.0, 5.0715647, 4.961133 
7.017065e+2, 1.6551673e+2, -1204216.1, -1367559.9, -6564.152, 0.00015984436, 0.001226417, -1203952.8, 113983.13, 0.0, 5.067753, 4.960989 
7.015406e+2, 1.7047556e+2, -1166720.5, -1324770.3, -7002.6807, 0.00025861422, -0.0011463525, -1166410.9, 102928.664, 0.0, 5.063933, 4.9607944 
7.013735e+2, 1.7543438e+2, -1129052.5, -1282216.1, -8347.944, 0.0000928015, 0.0011859229, -1128598.9, 92144.25, 0.0, 5.060201, 4.9604664 
7.0120585e+2, 1.8039268e+2, -1091212.1, -1239194.3, -8790.28, -0.0000815796, -0.001137177, -1090691.9, 81459.86, 0.0, 5.0564675, 4.9602656 
7.010374e+2, 1.8535092e+2, -1053481.4, -1196860.9, -9875.127, 0.00014844302, 0.0013553805, -1052804.5, 70756.55, 0.0, 5.0527964, 4.9597883 
7.0086855e+2, 1.9030854e+2, -1015364.4, -1153613.8, -10309.222, 0.00007306924, -0.0010365881, -1014599.9, 60376.434, 0.0, 5.0491195, 4.9595933 
7.00699e+2, 1.9526608e+2, -977590.94, -1111417.4, -11147.126, -0.00005694111, 0.0014472143, -976668.8, 49723.773, 0.0, 5.0454826, 4.959 
7.0052916e+2, 2.0022291e+2, -939242.3, -1067967.0, -11557.084, -0.000021379354, -0.001133577, -938212.94, 39602.527, 0.0, 5.0418477, 4.95881 
7.003589e+2, 2.0517965e+2, -901416.2, -1025851.44, -12206.828, 0.000053423533, 0.0013646699, -900230.06, 29009.586, 0.0, 5.0382366, 4.9581313 
7.001885e+2, 2.1013562e+2, -862914.2, -982268.9, -12568.605, 0.00013098454, -0.0012131184, -861605.0, 19065.934, 0.0, 5.0346255, 4.9579296 
7.000179e+2, 2.1509148e+2, -825025.6, -940114.75, -13041.206, 0.000101799575, 0.0014817803, -823566.4, 8537.258, 0.0, 5.0310197, 4.9572105 
6.9984734e+2, 2.2004654e+2, -786441.5, -896442.06, -13351.701, 0.00017292918, -0.0013061593, -784844.1, -1300.076, 0.0, 5.0274076, 4.956993 
6.996768e+2, 2.2500145e+2, -748506.94, -854183.06, -13609.886, 0.00018774046, 0.001422434, -746782.3, -11796.394, 0.0, 5.023786, 4.9562654 
6.995063e+2, 2.299556e+2, -709881.2, -810439.75, -13932.376, 0.00023856634, -0.0013135489, -707986.56, -21551.41, 0.0, 5.020156, 4.9560347 
6.993361e+2, 2.3490956e+2, -671928.7, -768045.6, -13913.81, 0.0002969871, 0.001519355, -669955.06, -32068.732, 0.0, 5.016502, 4.9553146 
6.991661e+2, 2.3986274e+2, -633283.94, -724196.06, -14251.486, 0.00026725535, -0.0017148949, -631102.2, -41757.23, 0.0, 5.0128374, 4.9550896 
6.989967e+2, 2.4481578e+2, -595364.25, -681711.94, -13942.984, 0.00022792994, 0.0015233418, -593168.6, -52363.48, 0.0, 5.009137, 4.954362 
6.988276e+2, 2.497681e+2, -556657.1, -637620.1, -14288.955, 0.000034613284, -0.0020076807, -554209.3, -61936.844, 0.0, 5.0054297, 4.9541936 
6.9865936e+2, 2.547202e+2, -518911.88, -595298.9, -13681.007, -0.000059202688, 0.0014844901, -516535.5, -72793.74, 0.0, 5.001671, 4.9533844 
6.9849163e+2, 2.5967172e+2, -479966.3, -550506.94, -14030.855, -0.00018014517, -0.0019116441, -477277.97, -82060.875, 0.0, 4.9979086, 4.953438 
6.983249e+2, 2.646229e+2, -442561.7, -508666.3, -13076.399, 0.000045526078, 0.0008695039, -440069.0, -93373.44, 0.0, 4.994079, 4.952432 
6.9815904e+2, 2.695736e+2, -403361.5, -463037.4, -13403.299, -0.00012379202, -0.0028421048, -400489.3, -102310.945, 0.0, 4.9902453, 4.952764 
6.979943e+2, 2.745242e+2, -366320.56, -421747.9, -12079.179, -0.00047302328, 0.002166176, -363802.56, -114139.67, 0.0, 4.9863462, 4.9515285 
6.9783074e+2, 2.794744e+2, -326761.38, -375130.94, -12285.93, -0.00026836622, -0.00045217003, -323819.66, -122668.67, 0.0, 4.9824605, 4.952182 
6.976685e+2, 2.8442374e+2, -290031.25, -334208.5, -10536.041, 0.0004087113, -0.00090068247, -287647.13, -134999.73, 0.0, 4.9784803, 4.9507904 
6.9750786e+2, 2.8937304e+2, -250362.9, -286944.5, -10750.536, 0.0006915464, -0.008036458, -247437.5, -143293.2, 0.0, 4.9745016, 4.951665 
6.973482e+2, 2.943237e+2, -213901.25, -246150.83, -8931.157, -0.00075964443, 0.010089885, -211593.06, -155964.89, 0.0, 4.970411, 4.9502215 
6.971903e+2, 2.9927376e+2, -174658.58, -199213.31, -8534.883, -0.0020974118, 0.015543473, -171983.42, -164865.86, 0.0, 4.9662933, 4.95099 
6.970364e+2, 3.0422628e+2, -142040.39, -136009.56, -6157.7813, 0.0020501178, -0.025278106, -132168.53, -132168.53, 0.0, 4.9623847, 4.9664383 
6.968855e+2, 3.091911e+2, -153561.86, -141883.17, -7731.5005, 0.007944377, -0.034509353, -138033.64, -138033.64, 0.0, 4.958413, 4.966049 
6.9673175e+2, 3.1418425e+2, -130971.164, -68440.43, -5637.4287, -0.007201536, 0.08631846, -67936.26, -67936.26, 0.0, 4.9542956, 4.994568 
6.965849e+2, 3.191616e+2, -120951.41, -19874.678, -2007.0104, 0.015266998, -0.06046898, -19834.842, -19834.842, 0.0, 4.949301, 5.014552 
7.080888e+2, 1.2599775e+2, -1493667.0, -1706215.1, 6249.744, 0.0030584005, 0.0003872358, -1493483.4, 211738.95, 0.0, 5.1022305, 4.9611216 
7.0792973e+2, 1.3095614e+2, -1458552.1, -1665175.1, 5384.168, -0.002985282, -0.0014002193, -1458411.9, 198217.94, 0.0, 5.097777, 4.9608197 
7.077687e+2, 1.3591535e+2, -1421285.0, -1620774.4, 2463.1484, -0.00069714175, 0.0035121038, -1421254.6, 186774.98, 0.0, 5.0934997, 4.961475 
7.076062e+2, 1.4087404e+2, -1385553.4, -1579061.5, 1982.7759, 0.0019785697, -0.002416354, -1385533.1, 173901.6, 0.0, 5.089167, 4.9612923 
7.074416e+2, 1.4583345e+2, -1348600.5, -1535885.9, 24.403019, 0.0009912811, 0.00018305205, -1348600.5, 162231.97, 0.0, 5.0850167, 4.9614806 
7.07276e+2, 1.5079275e+2, -1312127.8, -1493519.3, -427.43915, -0.0006983189, -0.00010753944, -1312126.8, 150104.58, 0.0, 5.080862, 4.9613934 
7.0710915e+2, 1.5575212e+2, -1274933.6, -1450518.8, -2154.937, 0.00010069593, 0.0015452198, -1274907.1, 138722.23, 0.0, 5.076848, 4.961445 
7.069413e+2, 1.6071114e+2, -1238052.1, -1408013.4, -2553.4084, 0.00032470937, -0.0013461652, -1238013.8, 127017.266, 0.0, 5.072832, 4.961295 
7.0677215e+2, 1.6567035e+2, -1200655.1, -1365298.1, -3986.0637, 0.0003000971, 0.0011246467, -1200558.6, 115872.08, 0.0, 5.068961, 4.961136 
7.066023e+2, 1.7062908e+2, -1163288.1, -1322542.8, -4333.9106, 0.00002310721, -0.0011662499, -1163170.3, 104664.66, 0.0, 5.0650926, 4.9609547 
7.0643145e+2, 1.7558783e+2, -1125817.4, -1280174.3, -5512.8955, 0.000036626454, 0.0011290811, -1125620.8, 93618.49, 0.0, 5.061315, 4.9605856 
7.062601e+2, 1.8054603e+2, -1088062.0, -1237136.5, -5867.1943, 0.00008672894, -0.0011564968, -1087831.5, 82817.414, 0.0, 5.057542, 4.9604106 
7.060879e+2, 1.8550417e+2, -1050495.3, -1194978.8, -6804.1626, 0.00021098739, 0.0012470724, -1050175.5, 71883.695, 0.0, 5.0538373, 4.95989 
7.059153e+2, 1.9046167e+2, -1012432.8, -1151705.8, -7154.283, -0.000015559774, -0.0011784824, -1012066.25, 61409.53, 0.0, 5.0501323, 4.959718 
7.0574206e+2, 1.9541907e+2, -974803.75, -1109674.1, -7863.9336, -0.000052302352, 0.0012865007, -974346.8, 50546.51, 0.0, 5.046468, 4.959082 
7.055686e+2, 2.0037575e+2, -936515.75, -1066216.8, -8194.238, 0.00006825636, -0.0012761974, -936000.1, 40317.61, 0.0, 5.042806, 4.958908 
7.053947e+2, 2.0533231e+2, -898825.75, -1024263.0, -8735.643, 0.00018698104, 0.0012653164, -898220.3, 29523.178, 0.0, 5.0391707, 4.958187 
7.0522076e+2, 2.102881e+2, -860363.3, -980660.8, -9025.833, 0.00016560339, -0.0013172029, -859689.9, 19486.781, 0.0, 5.0355387, 4.958003 
7.0504653e+2, 2.1524374e+2, -822581.56, -938638.8, -9419.187, 0.0001071773, 0.0013476831, -821822.06, 8789.23, 0.0, 5.031915, 4.957247 
7.0487225e+2, 2.201986e+2, -784035.94, -894960.0, -9668.839, 0.0001827996, -0.0013735929, -783199.5, -1145.7288, 0.0, 5.028285, 4.9570417 
7.0469815e+2, 2.251533e+2, -746207.2, -852823.25, -9877.05, 0.00023441177, 0.0013650191, -745299.94, -11802.136, 0.0, 5.024643, 4.9562817 
7.045239e+2, 2.301072e+2, -707635.2, -809082.0, -10129.64, 0.0003049752, -0.0013608178, -706633.56, -21684.104, 0.0, 5.0209904, 4.9560623 
7.043502e+2, 2.3506093e+2, -669790.2, -766807.06, -10076.37, 0.0003155162, 0.0015104763, -668754.7, -32351.674, 0.0, 5.0173125, 4.955313 
7.041764e+2, 2.4001385e+2, -631203.5, -722957.7, -10359.513, 0.00024569582, -0.0016914884, -630048.4, -42184.195, 0.0, 5.0136223, 4.955102 
7.0400333e+2, 2.4496664e+2, -593402.44, -680579.7, -10039.992, 0.00020294281, 0.001648585, -592261.06, -52934.203, 0.0, 5.00989, 4.954354 
7.038305e+2, 2.4991868e+2, -554782.7, -636484.44, -10331.226, 0.0000117497075, -0.0017849396, -553496.5, -62699.7, 0.0, 5.0061436, 4.954206 
7.036585e+2, 2.5487053e+2, -517197.47, -594281.8, -9711.132, -0.00008452828, 0.0016824692, -515992.88, -73724.19, 0.0, 5.002337, 4.953378 
7.03487e+2, 2.5982174e+2, -478373.22, -549515.4, -10010.323, -0.00011462377, -0.0017142469, -476991.53, -83244.88, 0.0, 4.998526, 4.953446 
7.0331645e+2, 2.6477268e+2, -441105.8, -507725.84, -9052.884, 0.0001641249, 0.0010952593, -439897.56, -94670.03, 0.0, 4.994645, 4.9524465 
7.0314676e+2, 2.6972315e+2, -402059.5, -462173.03, -9328.506, -0.00002227813, -0.0026407077, -400645.16, -103932.24, 0.0, 4.9907575, 4.952777 
7.02978e+2, 2.7467346e+2, -365229.4, -420950.75, -8085.5854, -0.0005311385, 0.002321063, -364079.84, -115880.02, 0.0, 4.986778, 4.9515557 
7.028105e+2, 2.7962342e+2, -325931.8, -374446.9, -8378.507, -0.00032050678, -0.00051488914, -324525.6, -124835.12, 0.0, 4.982796, 4.9522133 
7.026444e+2, 2.8457257e+2, -289531.53, -333633.47, -6786.879, 0.0004616619, -0.0007957642, -288510.72, -137321.77, 0.0, 4.9786882, 4.9508424 
7.0247966e+2, 2.8952172e+2, -250215.75, -286590.75, -7085.09, 0.00074309314, -0.0070855264, -248884.45, -146197.1, 0.0, 4.974594, 4.951691 
7.02316e+2, 2.9447195e+2, -213561.4, -245679.9, -5400.8696, -0.0007510582, 0.009258966, -212677.55, -158502.78, 0.0, 4.970565, 4.9502654 
7.021541e+2, 2.9942143e+2, -174499.3, -199164.38, -5107.41, -0.0015786105, 0.010843029, -173483.53, -167813.6, 0.0, 4.966446, 4.9508867 
7.0199597e+2, 3.0437425e+2, -144424.45, -137645.0, -2633.684, 0.0023407806, -0.02208184, -136742.11, -136742.11, 0.0, 4.9617286, 4.966086 
7.0184064e+2, 3.093401e+2, -157992.5, -143656.95, -3528.1619, 0.0071193655, -0.014775774, -142835.67, -142835.67, 0.0, 4.9568777, 4.966031 
7.016826e+2, 3.1432897e+2, -127174.234, -61091.094, -5596.3335, -0.010063876, 0.037395503, -60620.51, -60620.51, 0.0, 4.954647, 4.9970465 
7.015298e+2, 3.1932065e+2, -112913.92, -4212.015, -2.665466, -0.009600122, 0.007977039, -4212.015, -4212.015, 0.0, 4.9499345, 5.019966 
7.131883e+2, 1.2615512e+2, -1493160.0, -1706214.1, 5408.5415, 0.00022973103, 0.0002843662, -1493022.8, 210657.25, 0.0, 5.1024175, 4.961054 
7.1302515e+2, 1.3111341e+2, -1458384.4, -1665161.3, 4520.1113, -0.0005258672, -0.0012323314, -1458285.6, 196803.1, 0.0, 5.0978074, 4.9608316 
7.128596e+2, 1.3607256e+2, -1420985.1, -1620630.4, 1688.1826, -0.00042553825, 0.0036068307, -1420970.9, 185518.17, 0.0, 5.0935626, 4.961515 
7.126926e+2, 1.4103118e+2, -1385096.5, -1578849.5, 1159.5787, 0.0012903854, -0.0023153066, -1385089.6, 172805.16, 0.0, 5.089285, 4.9613295 
7.12524e+2, 1.4599052e+2, -1348043.5, -1535668.3, -768.1557, 0.0008606333, 0.00037241838, -1348040.4, 161252.73, 0.0, 5.0851793, 4.961499 
7.123542e+2, 1.5094976e+2, -1311451.8, -1493182.1, -1313.8917, -0.0007228322, 0.00017055722, -1311442.3, 149250.36, 0.0, 5.081052, 4.9614406 
7.121832e+2, 1.5590909e+2, -1274337.9, -1450257.6, -3029.13, 0.00010388497, 0.0016555971, -1274285.8, 137805.5, 0.0, 5.0770183, 4.9614763 
7.120113e+2, 1.6086805e+2, -1237456.9, -1407708.4, -3481.5344, 0.00045863906, -0.0013145999, -1237385.8, 126107.74, 0.0, 5.072991, 4.961348 
7.1183825e+2, 1.6582723e+2, -1200052.9, -1365050.6, -4920.779, 0.00033331575, 0.0012864115, -1199906.3, 114987.11, 0.0, 5.0691357, 4.9611626 
7.116645e+2, 1.7078592e+2, -1162618.3, -1322228.0, -5376.1025, -0.00008996033, -0.00094533345, -1162437.4, 103860.6, 0.0, 5.0652814, 4.960999 
7.1148986e+2, 1.7574461e+2, -1125192.5, -1279983.1, -6574.3477, -0.000020589598, 0.0012843881, -1124913.8, 92789.01, 0.0, 5.061509, 4.9605856 
7.113147e+2, 1.8070276e+2, -1087392.3, -1236878.1, -7019.435, 0.0001765212, -0.0009452584, -1087063.4, 82049.67, 0.0, 5.05774, 4.960433 
7.111388e+2, 1.8566082e+2, -1049883.4, -1194860.0, -7990.861, 0.0002520735, 0.0013919736, -1049444.3, 71079.78, 0.0, 5.054039, 4.959864 
7.109624e+2, 1.9061823e+2, -1011785.06, -1151538.5, -8436.545, -0.00009054962, -0.0010811811, -1011277.6, 60663.895, 0.0, 5.050338, 4.9597087 
7.107855e+2, 1.9557554e+2, -974206.0, -1109647.9, -9205.929, -0.00005792962, 0.0013781779, -973583.2, 49776.68, 0.0, 5.0466795, 4.9590235 
7.106084e+2, 2.0053212e+2, -935886.56, -1066153.6, -9637.671, 0.00013037343, -0.0011710263, -935177.4, 39607.945, 0.0, 5.0430217, 4.9588623 
7.104309e+2, 2.0548856e+2, -898256.5, -1024342.25, -10246.191, 0.0003044644, 0.0014294467, -897429.25, 28782.916, 0.0, 5.0393877, 4.958093 
7.1025324e+2, 2.1044421e+2, -859777.1, -980706.2, -10633.709, 0.00016430602, -0.001182611, -858849.2, 18797.674, 0.0, 5.035754, 4.957923 
7.100754e+2, 2.153997e+2, -822081.9, -938842.56, -11112.02, 0.00007126955, 0.0013649202, -821033.75, 8049.207, 0.0, 5.0321226, 4.9571176 
7.098975e+2, 2.2035441e+2, -783546.6, -895142.75, -11452.073, 0.0001942529, -0.0012798638, -782383.5, -1856.5435, 0.0, 5.028482, 4.956926 
7.0971966e+2, 2.2530892e+2, -745793.8, -853137.75, -11773.429, 0.00028270835, 0.001505574, -744517.7, -12545.087, 0.0, 5.0248303, 4.956126 
7.0954186e+2, 2.3026264e+2, -707255.25, -809417.1, -12104.546, 0.00033335225, -0.0012969781, -705840.7, -22414.393, 0.0, 5.021165, 4.955906 
7.0936435e+2, 2.3521617e+2, -669459.75, -767203.3, -12177.374, 0.0002679503, 0.0016035595, -667965.5, -33083.918, 0.0, 5.0174747, 4.9551435 
7.0918703e+2, 2.4016891e+2, -630907.56, -723366.4, -12549.377, 0.00015402718, -0.0014993582, -629234.5, -42889.78, 0.0, 5.013769, 4.9549356 
7.090102e+2, 2.4512152e+2, -593187.6, -681095.7, -12351.324, 0.00013826034, 0.0019636662, -591485.2, -53675.918, 0.0, 5.0100207, 4.9541597 
7.0883363e+2, 2.5007334e+2, -554589.9, -636974.7, -12736.856, -0.00004075629, -0.0014213911, -552665.6, -63384.33, 0.0, 5.0062566, 4.9540296 
7.0865786e+2, 2.55025e+2, -517051.63, -594816.3, -12264.535, -0.00014980668, 0.0020803013, -515163.22, -74408.25, 0.0, 5.0024347, 4.953193 
7.0848256e+2, 2.599761e+2, -478263.78, -550045.4, -12640.649, -0.00010518399, -0.0011684914, -476102.84, -83868.164, 0.0, 4.998605, 4.953272 
7.0830816e+2, 2.6492682e+2, -441047.53, -508306.1, -11852.177, 0.0002643679, 0.0016269957, -439020.1, -95302.805, 0.0, 4.9947076, 4.952264 
7.0813453e+2, 2.6987708e+2, -402042.22, -462760.4, -12205.352, 0.00008321602, -0.0022026554, -399680.6, -104476.04, 0.0, 4.9908013, 4.9526005 
7.079619e+2, 2.748273e+2, -365188.0, -421531.8, -11033.221, -0.00072158733, 0.0035416137, -363104.53, -116412.23, 0.0, 4.9868283, 4.951379 
7.077905e+2, 2.7977714e+2, -325834.5, -374974.63, -11295.932, -0.00068497815, 0.0012014963, -323362.25, -125178.086, 0.0, 4.982861, 4.952049 
7.0762044e+2, 2.8472587e+2, -289315.5, -334021.88, -9728.775, 0.00079865, -0.0018152829, -287290.13, -137603.47, 0.0, 4.978778, 4.9507155 
7.0745164e+2, 2.8967467e+2, -249979.02, -287064.63, -9899.833, 0.0015498132, -0.009857281, -247501.78, -146313.52, 0.0, 4.97471, 4.9515214 
7.072838e+2, 2.946256e+2, -213231.77, -246099.8, -8131.0596, -0.001976678, 0.015106417, -211330.27, -158661.13, 0.0, 4.9707093, 4.9501033 
7.0711774e+2, 2.9957554e+2, -173937.2, -199197.5, -8078.492, -0.004339449, 0.02273146, -171574.6, -167414.52, 0.0, 4.966619, 4.95085 
7.069555e+2, 3.0452567e+2, -143932.31, -137439.47, -5825.6743, 0.005594654, -0.036875516, -134016.72, -134016.72, 0.0, 4.961824, 4.966169 
7.0679575e+2, 3.094897e+2, -157058.88, -142457.2, -6101.1416, 0.01348826, -0.04871662, -140243.52, -140243.52, 0.0, 4.956974, 4.9664707 
7.06633e+2, 3.1448767e+2, -126741.83, -62444.14, -5367.7456, -0.024876978, 0.11101809, -61999.105, -61999.105, 0.0, 4.955013, 4.9964485 
7.0648056e+2, 3.1947276e+2, -120062.02, -22693.295, -6951.7695, 0.018846365, 0.02901779, -22199.469, -22199.469, 0.0, 4.950236, 5.0130906 
7.1828836e+2, 1.2631848e+2, -1487877.4, -1703250.9, 6708.5728, -0.0050384696, -0.00011068717, -1487668.5, 214410.44, 0.0, 5.1042438, 4.961124 
7.1812177e+2, 1.3127665e+2, -1453270.3, -1662051.5, 6039.707, 0.0059551955, -0.0015545469, -1453095.6, 200393.3, 0.0, 5.0995264, 4.9610033 
7.179512e+2, 1.3623585e+2, -1416167.5, -1617605.8, 3459.5632, 0.00023396817, 0.0036464394, -1416108.1, 188780.75, 0.0, 5.0951686, 4.961715 
7.177796e+2, 1.4119448e+2, -1380615.6, -1576025.3, 3033.2625, -0.0016811251, -0.0019376115, -1380568.5, 175725.78, 0.0, 5.0907836, 4.961517 
7.1760696e+2, 1.4615376e+2, -1343856.3, -1533036.5, 1327.4174, 0.00044440897, 0.00032879438, -1343847.0, 163846.42, 0.0, 5.086591, 4.9616656 
7.174331e+2, 1.5111293e+2, -1307440.9, -1490545.6, 852.54285, 0.0004080676, -0.00020226398, -1307436.9, 151656.75, 0.0, 5.082385, 4.961647 
7.1725786e+2, 1.5607223e+2, -1270558.5, -1447763.3, -672.58966, 0.00031308518, 0.0013631007, -1270556.0, 139936.39, 0.0, 5.078281, 4.96167 
7.170819e+2, 1.6103116e+2, -1233840.0, -1405273.3, -979.69293, 0.000058825724, -0.0014740576, -1233834.4, 128060.38, 0.0, 5.0741954, 4.9615507 
7.16905e+2, 1.659903e+2, -1196641.1, -1362796.6, -2206.3196, 0.00027960367, 0.001165182, -1196611.9, 116683.31, 0.0, 5.070291, 4.9613276 
7.167274e+2, 1.7094894e+2, -1159284.3, -1319934.0, -2570.792, 0.000080780555, -0.0010209465, -1159243.1, 105457.33, 0.0, 5.066396, 4.961198 
7.165488e+2, 1.7590758e+2, -1122027.3, -1277856.8, -3588.6375, 0.0000031043435, 0.0011490255, -1121944.6, 94161.31, 0.0, 5.0625877, 4.960745 
7.1636987e+2, 1.8086563e+2, -1084278.9, -1234717.3, -3934.416, 0.00015056088, -0.0010598956, -1084176.0, 83340.91, 0.0, 5.0587907, 4.960618 
7.1619016e+2, 1.858236e+2, -1046914.7, -1192872.0, -4745.9907, 0.00030284797, 0.0011994576, -1046760.5, 72168.23, 0.0, 5.055065, 4.9600015 
7.1601015e+2, 1.907809e+2, -1008859.06, -1149542.1, -5099.0903, -0.00000922416, -0.0012947621, -1008674.5, 61672.805, 0.0, 5.0513453, 4.9598594 
7.158296e+2, 1.9573808e+2, -971407.5, -1107830.8, -5733.762, 0.000072584065, 0.0012770722, -971167.0, 50599.945, 0.0, 5.047671, 4.959121 
7.1564883e+2, 2.006945e+2, -933100.44, -1064302.4, -6083.1655, 0.00024285562, -0.0011779363, -932819.0, 40375.004, 0.0, 5.0440025, 4.958978 
7.154676e+2, 2.0565078e+2, -895567.06, -1022639.6, -6579.722, 0.0003598512, 0.0013739383, -895227.25, 29395.324, 0.0, 5.0403605, 4.9581623 
7.152863e+2, 2.1060622e+2, -857085.9, -978962.1, -6895.2227, 0.000115599774, -0.001260834, -856697.0, 19362.244, 0.0, 5.03672, 4.9580116 
7.151048e+2, 2.155615e+2, -819486.75, -937252.75, -7292.42, 0.00004327632, 0.0012773213, -819036.94, 8460.503, 0.0, 5.0330796, 4.957157 
7.1492326e+2, 2.2051597e+2, -780954.75, -893505.1, -7558.512, 0.0002283046, -0.0013286733, -780449.44, -1505.7251, 0.0, 5.029429, 4.9569874 
7.147418e+2, 2.2547024e+2, -743299.44, -851660.75, -7830.3647, 0.00029091403, 0.0014573708, -742736.5, -12344.838, 0.0, 5.025768, 4.9561377 
7.1456033e+2, 2.3042369e+2, -704770.9, -807914.06, -8087.8013, 0.00027736937, -0.001395396, -704140.56, -22292.547, 0.0, 5.022094, 4.955932 
7.1437913e+2, 2.3537695e+2, -667054.5, -765803.75, -8130.335, 0.0001699414, 0.0015260779, -666389.6, -33083.69, 0.0, 5.0183897, 4.9551425 
7.1419805e+2, 2.403294e+2, -628550.9, -721974.44, -8436.67, 0.000056686567, -0.001538536, -627795.1, -43023.207, 0.0, 5.0146646, 4.9549427 
7.1401745e+2, 2.4528171e+2, -590945.9, -679823.3, -8219.452, 0.00012454584, 0.001860264, -590192.1, -53952.68, 0.0, 5.010888, 4.95414 
7.1383715e+2, 2.502332e+2, -552408.75, -635700.75, -8553.402, 0.000024283561, -0.0015681111, -551539.44, -63824.824, 0.0, 5.0070963, 4.954025 
7.1365756e+2, 2.551846e+2, -514978.75, -593632.7, -8088.94, -0.00012055683, 0.001912045, -514155.5, -74964.28, 0.0, 5.0032434, 4.953173 
7.134784e+2, 2.6013532e+2, -476289.94, -548891.8, -8414.442, -0.000040280363, -0.0013028097, -475327.47, -84653.44, 0.0, 4.9993753, 4.9532604 
7.133001e+2, 2.6508576e+2, -439215.4, -507255.4, -7657.441, 0.00021624191, 0.0016791306, -438364.25, -96204.66, 0.0, 4.9954348, 4.952237 
7.1312255e+2, 2.7003574e+2, -400312.6, -461700.7, -7989.4604, 0.000014041609, -0.0020329237, -399289.8, -105639.86, 0.0, 4.991481, 4.9526005 
7.1294606e+2, 2.7498567e+2, -363709.47, -420590.38, -6923.549, -0.00049991865, 0.0035607852, -362878.84, -117738.2, 0.0, 4.9874167, 4.9513807 
7.127706e+2, 2.7993515e+2, -324657.3, -374169.97, -7272.862, -0.00023439787, 0.0011166828, -323611.1, -126975.66, 0.0, 4.9833403, 4.952053 
7.1259636e+2, 2.8488365e+2, -288401.44, -333365.97, -5954.9307, 0.0006242478, -0.001669317, -287626.16, -139485.63, 0.0, 4.9791656, 4.9507117 
7.1242344e+2, 2.898322e+2, -249318.22, -286386.47, -6236.9155, 0.0009811085, -0.0093742255, -248296.97, -148652.47, 0.0, 4.974978, 4.9515805 
7.1225166e+2, 2.947831e+2, -213273.77, -245528.95, -4394.3486, -0.0014626792, 0.016269714, -212685.81, -161559.66, 0.0, 4.970685, 4.950256 
7.1208155e+2, 2.9973274e+2, -174870.94, -199408.13, -4432.2505, -0.0027907316, 0.023547681, -174094.86, -171475.7, 0.0, 4.966347, 4.9508348 
7.119145e+2, 3.0468196e+2, -143612.17, -137407.83, -3378.4421, 0.0051864493, -0.042827062, -135923.36, -135923.36, 0.0, 4.9620576, 4.966023 
7.1175e+2, 3.096456e+2, -156519.67, -143169.38, -3387.3481, 0.011393025, -0.052834146, -142359.1, -142359.1, 0.0, 4.957446, 4.9659534 
7.1158355e+2, 3.1464607e+2, -129565.57, -62459.66, -2703.116, -0.028513834, 0.11861917, -62350.95, -62350.95, 0.0, 4.953856, 4.9968843 
7.114261e+2, 3.1961784e+2, -111650.13, 3585.4253, -6295.0605, 0.003136939, -0.11344497, 3928.29, 3928.29, 0.0, 4.9489746, 5.023246 
7.233903e+2, 1.2648523e+2, -1487681.4, -1703220.4, 5938.985, -0.0006340248, 0.0002952239, -1487517.9, 212927.2, 0.0, 5.1042805, 4.961139 
7.232182e+2, 1.3144325e+2, -1452741.1, -1661800.4, 5244.7495, 0.002554947, -0.0015703411, -1452609.6, 199246.61, 0.0, 5.099667, 4.961043 
7.230433e+2, 1.364024e+2, -1415734.3, -1617386.3, 2675.4404, -0.0006314633, 0.003742502, -1415698.8, 187557.94, 0.0, 5.095273, 4.961762 
7.228675e+2, 1.4136101e+2, -1380186.8, -1575680.1, 2165.9585, -0.0004890974, -0.0016612448, -1380162.8, 174499.66, 0.0, 5.090858, 4.9616203 
7.2269046e+2, 1.4632028e+2, -1343452.4, -1532707.1, 555.353, 0.0007896662, 0.00044783342, -1343450.8, 162610.69, 0.0, 5.0866585, 4.9617677 
7.2251236e+2, 1.5127943e+2, -1306995.0, -1490193.3, 19.69936, 0.000082682265, -0.00018381378, -1306995.0, 150466.73, 0.0, 5.082466, 4.961752 
7.223331e+2, 1.5623873e+2, -1269946.4, -1447392.9, -1503.5919, 0.00018567944, 0.0014779906, -1269933.6, 138926.77, 0.0, 5.078434, 4.9617467 
7.22153e+2, 1.6119766e+2, -1233068.1, -1404805.3, -1882.9961, 0.00011796093, -0.0012762509, -1233047.5, 127215.45, 0.0, 5.0743985, 4.9616385 
7.219721e+2, 1.6615678e+2, -1195951.8, -1362460.5, -3095.7605, 0.0003028595, 0.0013038918, -1195894.3, 115769.484, 0.0, 5.0704856, 4.9613743 
7.217906e+2, 1.7111538e+2, -1158568.6, -1319528.8, -3553.337, 0.00007471732, -0.000856982, -1158490.3, 104579.1, 0.0, 5.066586, 4.9612722 
7.216082e+2, 1.7607398e+2, -1121357.0, -1277581.3, -4587.5044, -0.0000043959944, 0.0012418537, -1121222.4, 93252.69, 0.0, 5.062784, 4.960772 
7.214255e+2, 1.81032e+2, -1083555.5, -1234383.1, -5031.3823, 0.0001610296, -0.00096709584, -1083387.8, 82498.69, 0.0, 5.058997, 4.960663 
7.212421e+2, 1.8598993e+2, -1046238.6, -1192687.9, -5888.046, 0.00033119923, 0.0012934164, -1046002.25, 71296.445, 0.0, 5.055281, 4.959991 
7.210583e+2, 1.9094715e+2, -1008142.94, -1149322.0, -6346.8203, 0.0000075928747, -0.0011944995, -1007858.2, 60859.85, 0.0, 5.0515695, 4.9598594 
7.2087395e+2, 1.9590424e+2, -970750.56, -1107774.8, -7035.949, 0.00014562612, 0.0014510257, -970390.2, 49748.3, 0.0, 5.047902, 4.9590645 
7.2068954e+2, 2.0086055e+2, -932413.56, -1064210.1, -7486.36, 0.00029091333, -0.0009579837, -931989.7, 39577.055, 0.0, 5.044237, 4.9589343 
7.205047e+2, 2.0581669e+2, -894967.9, -1022720.2, -8054.8843, 0.00037276046, 0.001507021, -894462.0, 28534.68, 0.0, 5.04059, 4.958062 
7.203197e+2, 2.1077198e+2, -856486.94, -979016.9, -8472.079, 0.000083112514, -0.0011519631, -855903.94, 18530.867, 0.0, 5.036942, 4.9579253 
7.2013456e+2, 2.157271e+2, -818977.4, -937479.44, -8964.378, 0.000028997798, 0.0014303139, -818303.06, 7571.4097, 0.0, 5.0332947, 4.957016 
7.199494e+2, 2.2068138e+2, -780454.8, -893717.2, -9323.305, 0.00024636433, -0.0012063404, -779692.5, -2369.898, 0.0, 5.029635, 4.956857 
7.1976423e+2, 2.2563548e+2, -742884.1, -852019.0, -9712.593, 0.00028396572, 0.0015218608, -742026.44, -13254.053, 0.0, 5.025963, 4.9559636 
7.195791e+2, 2.305887e+2, -704373.9, -808248.6, -10055.911, 0.00017642113, -0.0013971464, -703409.3, -23178.506, 0.0, 5.022274, 4.9557743 
7.1939415e+2, 2.3554176e+2, -666756.3, -766301.5, -10236.236, 0.000039206905, 0.0015499748, -665714.6, -34023.88, 0.0, 5.0185556, 4.954937 
7.192094e+2, 2.4049398e+2, -628291.5, -722488.56, -10631.3545, -0.000047475398, -0.0015365115, -627106.5, -43947.563, 0.0, 5.0148144, 4.95474 
7.19025e+2, 2.4544603e+2, -590735.8, -680390.8, -10564.231, 0.00009232782, 0.001667878, -589507.8, -54878.96, 0.0, 5.0110226, 4.9539266 
7.1884096e+2, 2.503973e+2, -552250.75, -636303.6, -10989.519, 0.000055495304, -0.0018702942, -550837.7, -64731.09, 0.0, 5.007213, 4.953809 
7.186575e+2, 2.553484e+2, -514874.38, -594298.25, -10668.302, -0.00011510032, 0.0015509556, -513466.38, -75880.875, 0.0, 5.003345, 4.952943 
7.184745e+2, 2.6029888e+2, -476241.44, -549606.3, -11087.421, -0.000046780016, -0.0017913776, -474602.44, -85531.55, 0.0, 4.9994597, 4.9530215 
7.182923e+2, 2.652491e+2, -439221.34, -508009.72, -10496.077, -0.000036434845, 0.0013922618, -437655.44, -97096.7, 0.0, 4.995498, 4.951995 
7.181108e+2, 2.7019885e+2, -400344.03, -462433.75, -10904.057, -0.00027220696, -0.00217083, -398484.75, -106433.21, 0.0, 4.9915266, 4.952374 
7.179304e+2, 2.751485e+2, -363670.8, -421234.8, -9916.391, -0.00006506304, 0.0025291243, -362010.44, -118465.34, 0.0, 4.987473, 4.9511814 
7.1775085e+2, 2.8009772e+2, -324590.78, -374863.0, -10217.559, 0.0005546625, -0.00046303266, -322593.47, -127550.85, 0.0, 4.9834185, 4.9518266 
7.175724e+2, 2.8504622e+2, -288281.88, -334086.88, -8906.491, -0.0004319843, -0.00034699537, -286611.0, -140063.66, 0.0, 4.979272, 4.9504623 
7.1739525e+2, 2.899948e+2, -248910.58, -286580.4, -9123.52, -0.0012240569, -0.0059600226, -246817.22, -148765.84, 0.0, 4.97511, 4.9515066 
7.172197e+2, 2.9494482e+2, -212572.19, -245141.08, -7330.324, 0.0013834668, 0.010610387, -210998.39, -161457.44, 0.0, 4.970831, 4.950384 
7.1704566e+2, 2.9989383e+2, -174709.78, -200340.47, -7267.595, 0.0036045287, 0.011016789, -172792.47, -171752.1, 0.0, 4.96651, 4.9504848 
7.1687305e+2, 3.0484515e+2, -143969.81, -139998.56, -6072.9614, -0.0026443058, -0.02499362, -135594.86, -135594.86, 0.0, 4.962309, 4.965035 
7.167032e+2, 3.098103e+2, -154199.38, -140477.63, -6659.7603, -0.0077083274, -0.013955458, -137776.9, -137776.9, 0.0, 4.9578633, 4.966793 
7.165373e+2, 3.1480065e+2, -127318.336, -57973.938, -4400.6563, 0.00406924, 0.0562384, -57695.78, -57695.78, 0.0, 4.9538856, 4.998579 
7.163743e+2, 3.1978908e+2, -122036.48, -22047.22, -4801.741, 0.020506743, -0.005714007, -21817.158, -21817.158, 0.0, 4.94923, 5.013738 
7.284931e+2, 1.266581e+2, -1482567.1, -1700050.9, 7343.0024, 0.0062306724, 0.0007154523, -1482319.5, 216431.44, 0.0, 5.105993, 4.961331 
7.283147e+2, 1.3161604e+2, -1447969.4, -1658843.1, 6754.0815, -0.0069601317, -0.0017707278, -1447753.3, 202409.44, 0.0, 5.1012716, 4.9612174 
7.281361e+2, 1.3657513e+2, -1411292.9, -1614596.8, 4444.7017, -0.0018167907, 0.0034928108, -1411195.8, 190368.17, 0.0, 5.096768, 4.961935 
7.2795635e+2, 1.4153373e+2, -1375879.4, -1572692.1, 4086.9597, 0.0037194062, -0.0019079566, -1375794.5, 177175.31, 0.0, 5.0922527, 4.961909 
7.2777474e+2, 1.464931e+2, -1339382.3, -1529808.8, 2708.4385, 0.0014860475, 0.0002892505, -1339343.8, 165024.11, 0.0, 5.0879703, 4.962067 
7.275921e+2, 1.514523e+2, -1303178.5, -1487479.0, 2290.5413, -0.0017142172, -0.00021771129, -1303150.0, 152617.47, 0.0, 5.0837064, 4.962025 
7.274088e+2, 1.5641163e+2, -1266362.9, -1444869.4, 998.9112, -0.00015437069, 0.0014852574, -1266357.4, 140808.86, 0.0, 5.079615, 4.961984 
7.2722477e+2, 1.6137055e+2, -1229596.4, -1402281.1, 733.76965, 0.00087380415, -0.0012467469, -1229593.3, 128975.63, 0.0, 5.0755324, 4.9618998 
7.270399e+2, 1.6632964e+2, -1192666.5, -1360106.5, -265.99982, 0.00045616194, 0.0011886591, -1192666.0, 117303.64, 0.0, 5.071578, 4.9615965 
7.268544e+2, 1.712882e+2, -1155345.1, -1317145.0, -608.5835, -0.00018412118, -0.0010402527, -1155342.9, 106032.83, 0.0, 5.067647, 4.96152 
7.2666824e+2, 1.7624676e+2, -1118286.0, -1275374.4, -1441.0969, 0.000042023137, 0.0009589449, -1118272.8, 94508.94, 0.0, 5.06382, 4.9609714 
7.264817e+2, 1.812047e+2, -1080509.0, -1232150.9, -1774.8038, 0.0003803781, -0.0012703871, -1080488.3, 83705.625, 0.0, 5.060019, 4.9608784 
7.262945e+2, 1.8616256e+2, -1043316.8, -1190641.0, -2462.7258, 0.00041796584, 0.0011446523, -1043275.7, 72331.13, 0.0, 5.0562916, 4.9601493 
7.2610694e+2, 1.9111967e+2, -1005213.25, -1147227.9, -2825.2612, -0.000015298825, -0.0011944197, -1005157.06, 61870.105, 0.0, 5.052576, 4.9600368 
7.2591895e+2, 1.9607665e+2, -967906.56, -1105838.4, -3371.1982, 0.00013510713, 0.0013350607, -967824.25, 50624.848, 0.0, 5.0489078, 4.959189 
7.2573084e+2, 2.0103277e+2, -929549.75, -1062227.6, -3736.36, 0.00029004164, -0.0011660693, -929444.6, 40434.38, 0.0, 5.045244, 4.9590755 
7.2554237e+2, 2.0598872e+2, -892182.06, -1020893.9, -4190.9214, 0.00041887726, 0.0013076046, -892045.75, 29264.883, 0.0, 5.041599, 4.9581485 
7.253538e+2, 2.1094382e+2, -853683.75, -977150.94, -4529.3867, 0.00016199808, -0.0012695959, -853517.8, 19232.928, 0.0, 5.037953, 4.9580255 
7.251649e+2, 2.1589874e+2, -816248.44, -935765.25, -4935.583, 0.00006670667, 0.0014381256, -816045.0, 8147.549, 0.0, 5.034307, 4.9570627 
7.2497606e+2, 2.2085275e+2, -777679.1, -891953.0, -5220.5493, 0.0001938252, -0.001247262, -777441.1, -1797.9236, 0.0, 5.0306587, 4.9569182 
7.2478724e+2, 2.2580658e+2, -740167.56, -850390.2, -5559.0034, 0.0002206491, 0.0014554593, -739887.9, -12792.269, 0.0, 5.026988, 4.9559784 
7.245984e+2, 2.3075952e+2, -701656.2, -806591.9, -5831.9756, 0.00013200835, -0.0014024869, -701333.06, -22776.2, 0.0, 5.023296, 4.9558024 
7.244098e+2, 2.3571227e+2, -664118.4, -764780.94, -5989.6196, 0.00003244195, 0.0015638291, -663763.25, -33743.54, 0.0, 5.019569, 4.954924 
7.242212e+2, 2.4066417e+2, -625650.9, -720924.5, -6321.3613, 0.000031836684, -0.0015176615, -625233.3, -43742.16, 0.0, 5.0158205, 4.9547477 
7.240331e+2, 2.4561588e+2, -588179.6, -678963.6, -6245.348, 0.00018844727, 0.0016320406, -587752.0, -54787.83, 0.0, 5.0120173, 4.953895 
7.2384524e+2, 2.505668e+2, -549731.56, -634866.2, -6600.8833, 0.00022404942, -0.00197482, -549222.8, -64777.516, 0.0, 5.0081887, 4.953791 
7.236579e+2, 2.5551757e+2, -512452.03, -592968.56, -6279.786, -0.000010951502, 0.0015086338, -511965.2, -76037.64, 0.0, 5.004298, 4.952901 
7.23471e+2, 2.6046768e+2, -473867.6, -548275.7, -6648.72, 0.000011749736, -0.001883511, -473278.2, -85861.555, 0.0, 5.00039, 4.9529924 
7.2328484e+2, 2.6541758e+2, -436959.06, -506768.8, -6066.255, -0.000008443566, 0.0013605029, -436435.84, -97527.984, 0.0, 4.996394, 4.9519525 
7.2309935e+2, 2.703669e+2, -398214.88, -461229.28, -6427.4463, -0.00011561959, -0.0021278108, -397565.94, -107161.734, 0.0, 4.9923697, 4.9523444 
7.229149e+2, 2.7531612e+2, -361781.88, -420135.9, -5614.347, 0.00015041877, 0.0018170298, -361246.63, -119344.71, 0.0, 4.9882274, 4.9511585 
7.2273123e+2, 2.8026497e+2, -323005.2, -373899.06, -6013.9346, 0.0007157196, -0.0016010153, -322304.2, -128900.875, 0.0, 4.9840617, 4.951808 
7.2254866e+2, 2.852134e+2, -287002.66, -333274.94, -4840.7056, -0.0006384598, 0.00090946356, -286501.66, -141592.83, 0.0, 4.979804, 4.9504437 
7.223672e+2, 2.9016182e+2, -247894.8, -285750.56, -5201.7725, -0.0015676678, -0.0032519333, -247193.03, -150778.48, 0.0, 4.9755177, 4.951553 
7.221876e+2, 2.9511085e+2, -211888.77, -244319.77, -3927.1292, 0.0022544635, 0.0054600523, -211420.0, -163505.77, 0.0, 4.9710913, 4.950496 
7.2200924e+2, 3.000591e+2, -174756.06, -200429.83, -4018.4497, 0.0054766135, 0.00092106697, -174141.8, -174141.8, 0.0, 4.96662, 4.9503403 
7.2183186e+2, 3.050124e+2, -144443.47, -140830.31, -2539.0635, -0.0060802316, -0.010064513, -139520.7, -139520.7, 0.0, 4.9623647, 4.964651 
7.2165734e+2, 3.0997875e+2, -155087.17, -141513.56, -2631.4023, -0.014293837, 0.02063436, -141021.3, -141021.3, 0.0, 4.957774, 4.9663987 
7.214891e+2, 3.1495845e+2, -125956.195, -55195.402, -4405.783, 0.021476755, -0.030710831, -54922.14, -54922.14, 0.0, 4.954059, 4.999454 
7.2131693e+2, 3.199572e+2, -117976.664, -6939.7104, -1712.7863, -0.013245287, -0.0047070226, -6913.2964, -6913.2964, 0.0, 4.9482155, 5.0196285 
7.335954e+2, 1.2683424e+2, -1482522.9, -1699988.1, 6644.1045, 0.0010398971, 0.00040947308, -1482320.1, 214704.58, 0.0, 5.10595, 4.961397 
7.334133e+2, 1.3179223e+2, -1447410.8, -1658330.4, 5852.918, -0.0024068346, -0.0012026788, -1447248.4, 201187.69, 0.0, 5.101366, 4.961367 
7.332297e+2, 1.3675131e+2, -1410847.9, -1614099.5, 3703.9885, -0.0016469369, 0.0033598274, -1410780.4, 189056.94, 0.0, 5.096816, 4.962102 
7.330452e+2, 1.4170992e+2, -1375460.3, -1572228.8, 3388.63, 0.0025416797, -0.0022614042, -1375401.9, 175841.1, 0.0, 5.0922956, 4.9620676 
7.328594e+2, 1.4666937e+2, -1338929.6, -1529370.6, 2007.1456, 0.0014619413, 0.00036050988, -1338908.5, 163731.84, 0.0, 5.088036, 4.9622073 
7.326725e+2, 1.5162863e+2, -1302621.4, -1486960.1, 1484.085, -0.0016018153, 0.00010336146, -1302609.4, 151430.11, 0.0, 5.0838013, 4.9621797 
7.3248506e+2, 1.5658799e+2, -1265743.8, -1444383.0, 234.70358, -0.00025971068, 0.0016762494, -1265743.5, 139694.52, 0.0, 5.079746, 4.9621105 
7.32297e+2, 1.6154692e+2, -1228872.0, -1401719.6, -118.571915, 0.00094783684, -0.0010992328, -1228872.0, 127968.52, 0.0, 5.075693, 4.9620385 
7.3210806e+2, 1.6650602e+2, -1191972.1, -1359664.0, -1110.4547, 0.0005121979, 0.0012961085, -1191964.9, 116276.3, 0.0, 5.0717516, 4.9616895 
7.319186e+2, 1.7146459e+2, -1154580.6, -1316643.9, -1542.1411, -0.00021834024, -0.0009514526, -1154565.9, 105081.14, 0.0, 5.0678377, 4.9616265 
7.3172855e+2, 1.7642315e+2, -1117544.5, -1275010.0, -2387.581, 0.000092213675, 0.0010391356, -1117508.4, 93544.82, 0.0, 5.06403, 4.9610224 
7.3153824e+2, 1.8138106e+2, -1079708.6, -1231740.9, -2825.6768, 0.00046511265, -0.0012041553, -1079656.1, 82809.47, 0.0, 5.060244, 4.9609394 
7.313472e+2, 1.8633887e+2, -1042588.75, -1190411.6, -3551.092, 0.00043458966, 0.0012586265, -1042503.5, 71375.58, 0.0, 5.056522, 4.960148 
7.31156e+2, 1.912959e+2, -1004448.75, -1146957.3, -4014.944, -0.00006214075, -0.000978564, -1004335.75, 60964.35, 0.0, 5.0528116, 4.960049 
7.3096436e+2, 1.9625278e+2, -967211.6, -1105744.4, -4617.1357, 0.00009905607, 0.0014554508, -967057.9, 49665.008, 0.0, 5.0491476, 4.9591403 
7.3077255e+2, 2.0120879e+2, -928836.0, -1062109.0, -5090.673, 0.0002933246, -0.0011176555, -928641.9, 39512.168, 0.0, 5.0454855, 4.9590364 
7.305804e+2, 2.0616461e+2, -891556.75, -1020963.5, -5626.756, 0.0004435952, 0.00135819, -891312.5, 28274.387, 0.0, 5.0418377, 4.958047 
7.303881e+2, 2.1111956e+2, -853056.7, -977215.7, -6073.6743, 0.00020905123, -0.001164171, -852760.3, 18268.172, 0.0, 5.0381885, 4.957929 
7.3019564e+2, 2.1607432e+2, -815711.3, -936011.06, -6570.527, 0.00012275409, 0.0016763542, -815353.56, 7118.398, 0.0, 5.034538, 4.9569077 
7.300032e+2, 2.2102812e+2, -777150.75, -892183.0, -6960.0913, 0.000117588075, -0.0011422265, -776731.1, -2806.4504, 0.0, 5.03088, 4.956774 
7.298106e+2, 2.2598174e+2, -739748.4, -850806.0, -7418.1772, 0.00011654547, 0.0015163547, -739255.06, -13875.8125, 0.0, 5.027196, 4.955779 
7.2961813e+2, 2.3093444e+2, -701269.56, -807018.25, -7789.6772, 0.000108509324, -0.0012108695, -700698.8, -23856.21, 0.0, 5.0234885, 4.9556074 
7.294258e+2, 2.3588696e+2, -663810.1, -765325.4, -8094.697, 0.00007724711, 0.0017233642, -663168.7, -34860.83, 0.0, 5.019747, 4.9546967 
7.2923344e+2, 2.4083857e+2, -625380.56, -721474.1, -8519.332, 0.00012997218, -0.0014268481, -624631.1, -44849.11, 0.0, 5.0159802, 4.954528 
7.290416e+2, 2.4579005e+2, -587978.9, -679625.6, -8605.685, 0.00026690238, 0.0017269201, -587177.8, -55920.395, 0.0, 5.012164, 4.953644 
7.288498e+2, 2.5074068e+2, -549580.6, -635568.25, -9051.367, 0.00035533693, -0.0019666266, -548638.2, -65897.02, 0.0, 5.008319, 4.953535 
7.286586e+2, 2.556912e+2, -512358.16, -593722.0, -8906.77, 0.000078253164, 0.001615909, -511394.56, -77168.555, 0.0, 5.0044084, 4.9526377 
7.284678e+2, 2.6064098e+2, -473846.22, -549070.0, -9359.87, 0.000010196027, -0.0017804004, -472699.1, -86981.19, 0.0, 5.000474, 4.9527273 
7.2827774e+2, 2.6559064e+2, -436985.0, -507585.4, -8967.551, 0.00006888215, 0.0014437797, -435863.78, -98652.2, 0.0, 4.9964566, 4.9516916 
7.2808826e+2, 2.705397e+2, -398289.5, -462095.56, -9396.841, 0.000121277764, -0.002026746, -396934.4, -108223.83, 0.0, 4.9924183, 4.9520726 
7.278997e+2, 2.754886e+2, -361791.66, -420969.9, -8659.973, -0.000010060758, 0.0012336926, -360550.4, -120338.836, 0.0, 4.988294, 4.950891 
7.2771186e+2, 2.8043714e+2, -322911.6, -374618.7, -8973.015, 0.00017225515, -0.0025258688, -321398.72, -129682.74, 0.0, 4.984153, 4.951569 
7.275252e+2, 2.8538552e+2, -286768.25, -333852.3, -7834.034, -0.000065237655, 0.0019432544, -285499.0, -142277.64, 0.0, 4.9799275, 4.950242 
7.273396e+2, 2.9033378e+2, -247697.23, -286544.13, -8151.3496, -0.00039013367, -0.001381733, -246056.14, -151327.52, 0.0, 4.9756675, 4.951262 
7.271552e+2, 2.952818e+2, -211702.39, -245274.31, -6942.3774, -0.00031666955, 0.0011353027, -210323.4, -164084.27, 0.0, 4.9712644, 4.950138 
7.269723e+2, 3.0022955e+2, -174143.48, -200569.2, -6883.34, 0.0007225242, -0.005952039, -172458.02, -172458.02, 0.0, 4.9668245, 4.9502573 
7.2679174e+2, 3.0518493e+2, -143480.2, -140431.38, -5079.9473, -0.00043422295, 0.0045727165, -136652.03, -136652.03, 0.0, 4.962616, 4.9647436 
7.266134e+2, 3.101519e+2, -154238.63, -141923.13, -5557.39, -0.003829034, 0.041651096, -139786.14, -139786.14, 0.0, 4.95813, 4.9661546 
7.264381e+2, 3.151231e+2, -126799.555, -59934.293, -6443.795, 0.004984525, -0.06473468, -59318.97, -59318.97, 0.0, 4.954494, 4.9976053 
7.262635e+2, 3.2013014e+2, -120460.99, -12859.099, -6255.5225, -0.0012688175, 0.057244893, -12496.649, -12496.649, 0.0, 4.948148, 5.017579 
7.386981e+2, 1.2701653e+2, -1477520.1, -1696793.6, 8259.903, -0.006213115, -0.00038358322, -1477209.4, 218028.73, 0.0, 5.107615, 4.961617 
7.385131e+2, 1.319747e+2, -1442970.0, -1655073.9, 7398.196, 0.008492696, -0.000651079, -1442712.3, 203935.84, 0.0, 5.1027646, 4.961737 
7.383237e+2, 1.3693383e+2, -1406494.1, -1610810.8, 5487.142, -0.0016586474, 0.0028733015, -1406346.9, 191701.47, 0.0, 5.0981736, 4.9625034 
7.3813426e+2, 1.4189255e+2, -1371450.3, -1569312.0, 5357.7007, -0.0021097597, -0.0030753354, -1371305.3, 178147.81, 0.0, 5.093582, 4.962381 
7.379445e+2, 1.4685208e+2, -1335217.9, -1526668.5, 4234.935, 0.0013247733, 0.00016244384, -1335124.3, 165725.44, 0.0, 5.08924, 4.962488 
7.377535e+2, 1.5181142e+2, -1299026.1, -1484175.8, 3856.041, 0.00013925317, 0.00023243068, -1298945.9, 153302.36, 0.0, 5.084939, 4.96252 
7.3756176e+2, 1.5677081e+2, -1262350.5, -1441738.1, 2858.615, -0.00026411336, 0.001497098, -1262305.0, 141341.36, 0.0, 5.0808296, 4.9624295 
7.373696e+2, 1.6172978e+2, -1225585.6, -1399101.5, 2612.4639, 0.00027617998, -0.0014197022, -1225546.4, 129501.98, 0.0, 5.0767384, 4.9623675 
7.371767e+2, 1.6668893e+2, -1188854.3, -1357219.5, 1854.2098, 0.00063278625, 0.0010830826, -1188833.9, 117614.67, 0.0, 5.072765, 4.961973 
7.3698336e+2, 1.7164752e+2, -1151498.4, -1314192.4, 1552.5784, 0.00018641567, -0.0010840939, -1151483.6, 106370.695, 0.0, 5.068837, 4.9619203 
7.3678946e+2, 1.7660604e+2, -1114585.3, -1272735.6, 923.65674, 0.00014628704, 0.000952089, -1114579.9, 94680.766, 0.0, 5.065019, 4.9612594 
7.3659533e+2, 1.8156391e+2, -1076735.8, -1229422.0, 595.0025, 0.0003701977, -0.0012405395, -1076733.4, 83940.12, 0.0, 5.061233, 4.9611926 
7.3640066e+2, 1.8652165e+2, -1039703.94, -1188266.4, 47.611336, 0.00042344825, 0.0010683389, -1039703.94, 72383.94, 0.0, 5.0575137, 4.9603405 
7.362057e+2, 1.9147858e+2, -1001517.06, -1144740.4, -306.2258, 0.000018973335, -0.0012092628, -1001516.44, 61993.574, 0.0, 5.0538135, 4.960263 
7.360103e+2, 1.9643532e+2, -964337.44, -1103680.8, -758.646, 0.00017239709, 0.0012422637, -964333.3, 50600.6, 0.0, 5.0501614, 4.9592953 
7.3581487e+2, 2.0139119e+2, -925914.5, -1060004.4, -1143.5197, 0.00035252937, -0.0012808035, -925904.75, 40461.76, 0.0, 5.046515, 4.9591994 
7.35619e+2, 2.0634685e+2, -888691.9, -1019016.7, -1559.1501, 0.0004861138, 0.001377813, -888673.2, 29127.932, 0.0, 5.04288, 4.9581494 
7.3542315e+2, 2.1130158e+2, -850112.56, -975211.8, -1927.9404, 0.00016271863, -0.0010885961, -850082.8, 19162.006, 0.0, 5.0392566, 4.9580417 
7.35227e+2, 2.1625608e+2, -812794.9, -934150.8, -2330.5747, 0.000010495576, 0.0017383171, -812750.1, 7940.5796, 0.0, 5.0356255, 4.956961 
7.3503083e+2, 2.2120962e+2, -774157.56, -890251.0, -2656.4438, -0.000020701174, -0.0011244057, -774096.8, -1950.6155, 0.0, 5.0319886, 4.956845 
7.348347e+2, 2.2616294e+2, -736800.25, -849038.06, -3056.2876, 0.000036403566, 0.0014996101, -736717.06, -13113.528, 0.0, 5.0283184, 4.955788 
7.3463845e+2, 2.3111531e+2, -698276.7, -805202.8, -3351.0486, 0.00016826908, -0.001187726, -698171.75, -23101.693, 0.0, 5.024623, 4.95563 
7.344423e+2, 2.3606749e+2, -660861.56, -763647.5, -3648.1008, 0.00017776099, 0.0016612347, -660732.25, -34193.6, 0.0, 5.0208874, 4.954671 
7.3424625e+2, 2.4101873e+2, -622411.56, -719759.94, -3995.4377, 0.00022783894, -0.0016326783, -622247.9, -44231.344, 0.0, 5.0171237, 4.9545155 
7.340506e+2, 2.4596983e+2, -585060.7, -678045.56, -4091.4016, 0.00025924575, 0.0016393325, -584881.0, -55385.508, 0.0, 5.0133095, 4.953589 
7.33855e+2, 2.5092006e+2, -546631.25, -633921.44, -4489.9907, 0.00029144654, -0.0019954327, -546400.9, -65417.766, 0.0, 5.009465, 4.953505 
7.336599e+2, 2.558702e+2, -509517.78, -592255.4, -4371.812, 0.000059951766, 0.0016696388, -509287.4, -76815.54, 0.0, 5.005539, 4.952555 
7.334651e+2, 2.6081958e+2, -471037.88, -547548.94, -4785.772, 0.00007219426, -0.0015927139, -470739.7, -86771.87, 0.0, 5.001579, 4.952678 
7.3327106e+2, 2.6576883e+2, -434300.03, -506165.03, -4433.8184, 0.0001607803, 0.0016021214, -434027.53, -98562.07, 0.0, 4.9975224, 4.9516287 
7.330775e+2, 2.707175e+2, -395747.78, -460725.75, -4858.5205, 0.00029421377, -0.0018177818, -395386.5, -108418.01, 0.0, 4.993429, 4.9520197 
7.328847e+2, 2.7566603e+2, -359459.9, -419710.3, -4279.4746, -0.000095031006, 0.0016882707, -359157.47, -120684.38, 0.0, 4.9892287, 4.9508386 
7.326928e+2, 2.8061414e+2, -320835.3, -373486.03, -4717.2427, -0.00007184669, -0.001957836, -320416.0, -130434.7, 0.0, 4.9849944, 4.9515176 
7.3250186e+2, 2.855621e+2, -284964.6, -332834.75, -3857.2427, 0.00044942927, 0.002030424, -284655.78, -143164.8, 0.0, 4.980664, 4.950202 
7.323121e+2, 2.9050997e+2, -246209.67, -285662.97, -4350.386, 0.00055460277, -0.0014828442, -245735.66, -152733.6, 0.0, 4.976287, 4.9512286 
7.3212296e+2, 2.9545766e+2, -210473.94, -244528.98, -3195.8862, -0.0016678066, 0.0013287966, -210176.61, -165661.1, 0.0, 4.9717927, 4.950099 
7.3193556e+2, 3.00405e+2, -173358.81, -200353.05, -3086.0686, -0.0016691244, -0.0057031643, -173010.48, -173010.48, 0.0, 4.967254, 4.9500766 
7.317513e+2, 3.0535996e+2, -143154.48, -140545.72, -2526.4382, 0.0033860125, 0.004967072, -139006.81, -139006.81, 0.0, 4.9629035, 4.9645095 
7.31569e+2, 3.103266e+2, -155170.6, -143497.9, -3136.4016, 0.0031175204, 0.045665726, -142708.55, -142708.55, 0.0, 4.9581428, 4.9655128 
7.31387e+2, 3.1529507e+2, -128315.58, -60614.965, -3481.6577, -0.0071597905, -0.095196724, -60436.387, -60436.387, 0.0, 4.9540687, 4.9974666 
7.31209e+2, 3.203005e+2, -111365.62, 7703.005, -3261.1968, 0.0032637662, -0.00063076045, 7792.2593, 7792.2593, 0.0, 4.948311, 5.0249834 
7.4380285e+2, 1.2720259e+2, -1477001.9, -1696357.5, 7316.5986, -0.0007977047, -0.00007824972, -1476758.1, 216656.48, 0.0, 5.107705, 4.961744 
7.436118e+2, 1.3216074e+2, -1443205.0, -1654823.0, 6694.9707, 0.004223655, -0.0009544199, -1442993.5, 201831.6, 0.0, 5.102552, 4.9619484 
7.434182e+2, 1.3712e+2, -1406214.6, -1610246.3, 4877.563, -0.0021830741, 0.0030451643, -1406098.1, 190125.86, 0.0, 5.0981307, 4.9627366 
7.4322444e+2, 1.420788e+2, -1370837.5, -1568660.6, 4633.016, -0.00059093296, -0.0027812521, -1370729.0, 176898.66, 0.0, 5.093671, 4.9625816 
7.430301e+2, 1.4703839e+2, -1334640.8, -1526084.6, 3578.7427, 0.0015117839, 0.0003094886, -1334573.9, 164449.97, 0.0, 5.08933, 4.9626656 
7.428348e+2, 1.5199779e+2, -1298373.9, -1483501.9, 3152.087, -0.0004577723, 0.00033042644, -1298320.3, 152101.66, 0.0, 5.0850425, 4.962723 
7.4263895e+2, 1.5695722e+2, -1261677.1, -1441122.4, 2172.2405, -0.00045940667, 0.0014985419, -1261650.9, 140168.42, 0.0, 5.0809574, 4.9626 
7.424426e+2, 1.6191627e+2, -1224847.8, -1398432.6, 1795.0864, 0.0004298153, -0.0014141704, -1224829.1, 128391.49, 0.0, 5.0768824, 4.9625497 
7.4224573e+2, 1.668755e+2, -1188153.9, -1356676.1, 1049.1516, 0.0007745748, 0.0012424149, -1188147.4, 116472.78, 0.0, 5.072921, 4.962107 
7.4204844e+2, 1.7183413e+2, -1150719.4, -1313595.3, 667.7952, 0.00022160323, -0.00085036026, -1150716.6, 105308.91, 0.0, 5.069015, 4.962064 
7.4185073e+2, 1.7679268e+2, -1113798.1, -1272275.5, 46.390114, 0.00013842134, 0.0011553318, -1113798.1, 93633.65, 0.0, 5.0652304, 4.9613414 
7.416528e+2, 1.8175054e+2, -1075875.4, -1228930.6, -388.1637, 0.0003773783, -0.0010129773, -1075874.4, 82970.37, 0.0, 5.061469, 4.961276 
7.4145436e+2, 1.8670821e+2, -1038907.56, -1187965.0, -976.17615, 0.0003772341, 0.001153211, -1038901.2, 71358.42, 0.0, 5.0577602, 4.9603553 
7.412557e+2, 1.9166507e+2, -1000686.2, -1144397.1, -1436.6003, 0.000017801889, -0.0011729103, -1000671.8, 61010.563, 0.0, 5.0540648, 4.960292 
7.410566e+2, 1.9662175e+2, -963617.9, -1103541.4, -1951.7437, 0.00018703537, 0.0013330133, -963590.6, 49516.35, 0.0, 5.0504045, 4.959259 
7.4085754e+2, 2.015775e+2, -925192.6, -1059874.9, -2449.3857, 0.00033773476, -0.001178229, -925148.1, 39392.48, 0.0, 5.0467577, 4.959162 
7.406581e+2, 2.0653303e+2, -888024.94, -1019074.4, -2934.8457, 0.00050691486, 0.0016607105, -887959.25, 28017.22, 0.0, 5.0431356, 4.958044 
7.404585e+2, 2.1148759e+2, -849433.25, -975268.6, -3417.0476, 0.00009942154, -0.00083312014, -849340.5, 18081.404, 0.0, 5.0395145, 4.9579372 
7.4025875e+2, 2.164419e+2, -812238.3, -934421.3, -3914.9983, -0.00010685744, 0.0018805783, -812113.0, 6756.7847, 0.0, 5.03587, 4.9567904 
7.4005896e+2, 2.2139521e+2, -773626.6, -890513.0, -4357.4385, -0.00008546213, -0.00096611003, -773464.4, -3137.0454, 0.0, 5.032217, 4.956686 
7.3985904e+2, 2.2634828e+2, -736389.5, -849513.06, -4883.304, 0.000023365057, 0.0016408091, -736179.06, -14392.036, 0.0, 5.0285335, 4.9555645 
7.396592e+2, 2.313004e+2, -697893.3, -805669.8, -5271.3037, 0.00023462647, -0.0011178763, -697636.1, -24379.914, 0.0, 5.024822, 4.9554167 
7.3945934e+2, 2.3625231e+2, -660561.7, -764287.4, -5746.043, 0.00023723942, 0.0016288767, -660244.4, -35516.85, 0.0, 5.0210795, 4.9544034 
7.3925954e+2, 2.4120322e+2, -622143.1, -720409.56, -6172.6167, 0.00027083897, -0.0017975527, -621756.94, -45548.527, 0.0, 5.017301, 4.9542522 
7.3906e+2, 2.4615404e+2, -584892.9, -678859.2, -6448.331, 0.0001946979, 0.001635178, -584452.44, -56762.1, 0.0, 5.013469, 4.953281 
7.3886055e+2, 2.5110394e+2, -546513.94, -634734.94, -6948.6094, 0.00011898861, -0.001971842, -545970.0, -66788.76, 0.0, 5.009599, 4.9532094 
7.386616e+2, 2.5605375e+2, -509503.28, -593206.94, -7004.1436, -0.00008459013, 0.0016656338, -508921.25, -78247.914, 0.0, 5.0056496, 4.9522243 
7.384628e+2, 2.610028e+2, -471074.84, -548495.56, -7523.4644, 0.000015902173, -0.001417462, -470350.53, -88177.91, 0.0, 5.0016627, 4.9523616 
7.382647e+2, 2.6595172e+2, -434393.4, -507151.13, -7369.2344, 0.0001455766, 0.0017485417, -433654.53, -99981.04, 0.0, 4.997583, 4.951311 
7.380671e+2, 2.7090004e+2, -395857.53, -461720.1, -7826.2334, 0.00025977788, -0.0016247622, -394940.34, -109760.52, 0.0, 4.9934826, 4.9517026 
7.3787016e+2, 2.7584836e+2, -359465.0, -420636.03, -7347.581, -0.00029935176, 0.002824454, -358594.8, -121908.45, 0.0, 4.9893103, 4.9505353 
7.37674e+2, 2.807962e+2, -320808.56, -374472.16, -7703.353, -0.00038643027, -0.00046281065, -319724.66, -131527.14, 0.0, 4.9851027, 4.95118 
7.37479e+2, 2.8574356e+2, -284819.16, -333735.4, -6862.396, 0.00055711315, 0.0006889144, -283874.66, -144160.8, 0.0, 4.9808054, 4.9498816 
7.372848e+2, 2.9069102e+2, -245842.56, -286226.38, -7325.3496, 0.0008982958, -0.0036335525, -244554.86, -153326.06, 0.0, 4.976461, 4.951013 
7.370913e+2, 2.956395e+2, -209862.39, -244739.44, -6168.729, -0.0015268518, 0.008424965, -208803.48, -166071.08, 0.0, 4.9720035, 4.9499936 
7.3689944e+2, 3.005867e+2, -173530.52, -202596.23, -5921.487, -0.0018032982, 0.0039436426, -172370.45, -172370.45, 0.0, 4.9675107, 4.9492254 
7.367108e+2, 3.0553725e+2, -143898.83, -144286.83, -5334.2036, 0.002205137, -0.015302321, -138755.1, -138755.1, 0.0, 4.9631915, 4.9631004 
7.3652387e+2, 3.1050208e+2, -151782.08, -138115.3, -6591.446, 0.0009928795, 0.011228123, -135454.36, -135454.36, 0.0, 4.958502, 4.9673553 
7.363381e+2, 3.154842e+2, -123853.11, -52553.035, -4947.8022, 0.0013070216, -0.0019690138, -52211.33, -52211.33, 0.0, 4.954368, 5.00038 
7.361544e+2, 3.2048446e+2, -123736.01, -24409.04, -4324.3965, 0.0007201164, 0.048173618, -24221.125, -24221.125, 0.0, 4.948923, 5.012983 
7.489082e+2, 1.2739503e+2, -1472795.9, -1693324.1, 8261.697, 0.0057827905, 0.0001863125, -1472486.9, 219041.8, 0.0, 5.1090536, 4.962059 
7.487103e+2, 1.3235316e+2, -1438825.9, -1651561.6, 8334.307, -0.0062006344, -0.0017674282, -1438499.9, 204439.34, 0.0, 5.10393, 4.9623275 
7.485131e+2, 1.3731265e+2, -1402223.5, -1607134.1, 6834.9995, -0.0019781233, 0.0032756163, -1401995.8, 192340.33, 0.0, 5.0993733, 4.963131 
7.4831533e+2, 1.4227162e+2, -1367169.9, -1565686.9, 6637.121, 0.0041782837, -0.0022387283, -1366948.3, 178789.94, 0.0, 5.0948014, 4.962984 
7.481161e+2, 1.4723128e+2, -1331197.6, -1523249.1, 5856.6772, 0.0014441444, 0.00020339621, -1331019.1, 166114.47, 0.0, 5.090398, 4.96305 
7.479162e+2, 1.5219074e+2, -1295079.4, -1480727.1, 5606.922, -0.002787303, -0.000087895605, -1294910.3, 153620.61, 0.0, 5.086061, 4.963111 
7.477164e+2, 1.571503e+2, -1258571.0, -1438501.1, 4902.957, -0.00053589465, 0.0011372954, -1258437.5, 141489.61, 0.0, 5.081932, 4.962956 
7.4751616e+2, 1.6210942e+2, -1221789.6, -1395768.8, 4634.913, 0.0014975391, -0.0016672052, -1221666.3, 129661.414, 0.0, 5.0778317, 4.962932 
7.473152e+2, 1.6706872e+2, -1185241.8, -1354181.1, 4142.6094, 0.0008338605, 0.0011381807, -1185140.3, 117586.27, 0.0, 5.0738487, 4.962441 
7.47114e+2, 1.7202741e+2, -1147787.6, -1311026.4, 3922.143, -0.00017950122, -0.0008383355, -1147693.5, 106438.06, 0.0, 5.0699406, 4.9624243 
7.469125e+2, 1.7698596e+2, -1110944.0, -1269867.1, 3533.465, 0.00025052179, 0.0010528322, -1110865.5, 94672.17, 0.0, 5.0661635, 4.9616427 
7.4671084e+2, 1.819438e+2, -1072987.6, -1226518.9, 3203.007, 0.000708585, -0.0011528117, -1072920.9, 84030.0, 0.0, 5.062421, 4.9615703 
7.4650866e+2, 1.8690142e+2, -1036075.06, -1185717.0, 2803.2036, 0.00040172494, 0.00094568037, -1036022.56, 72343.67, 0.0, 5.0587287, 4.960585 
7.463063e+2, 1.9185817e+2, -997760.5, -1142055.3, 2443.837, -0.00010010697, -0.0014018638, -997719.1, 62070.773, 0.0, 5.0550594, 4.960542 
7.461036e+2, 1.9681476e+2, -960736.0, -1101356.0, 2087.3179, 0.00013329553, 0.0013413874, -960705.0, 50510.52, 0.0, 5.05142, 4.9594455 
7.4590087e+2, 2.0177037e+2, -922210.06, -1057634.1, 1698.1973, 0.00028804175, -0.0010807415, -922188.75, 40461.83, 0.0, 5.0478096, 4.9593525 
7.4569774e+2, 2.067257e+2, -885038.2, -1016975.0, 1346.4321, 0.00039933002, 0.0016664634, -885024.44, 29063.957, 0.0, 5.0442243, 4.9581676 
7.454946e+2, 2.1168002e+2, -846323.8, -973099.2, 929.27814, 0.0000054708357, -0.00094342185, -846317.0, 19219.172, 0.0, 5.040645, 4.9580674 
7.452912e+2, 2.1663406e+2, -809142.75, -932423.4, 526.9704, -0.00006964109, 0.0016675064, -809140.5, 7846.073, 0.0, 5.037033, 4.9568467 
7.4508774e+2, 2.2158708e+2, -770427.9, -888438.75, 149.96678, 0.00011587476, -0.0010815995, -770427.7, -1980.776, 0.0, 5.033412, 4.956756 
7.448842e+2, 2.2653985e+2, -733193.2, -847579.1, -317.6179, 0.00015821504, 0.0016088962, -733192.3, -13282.635, 0.0, 5.0297556, 4.955575 
7.446806e+2, 2.314916e+2, -694608.9, -803694.94, -618.65173, 0.00026958398, -0.0013536982, -694605.4, -23222.934, 0.0, 5.0260773, 4.9554286 
7.4447703e+2, 2.3644312e+2, -657244.8, -762391.06, -1087.644, 0.00023354667, 0.0013708362, -657233.56, -34376.168, 0.0, 5.022362, 4.95438 
7.442734e+2, 2.4139364e+2, -618790.3, -718515.94, -1429.5037, 0.00029024246, -0.0018754617, -618769.8, -44427.72, 0.0, 5.0186024, 4.9542217 
7.4407005e+2, 2.4634406e+2, -581570.7, -677085.7, -1730.0404, 0.00013120372, 0.0016378112, -581539.4, -55711.203, 0.0, 5.014777, 4.95321 
7.4386674e+2, 2.512935e+2, -543173.8, -632914.06, -2157.5396, 0.00012501773, -0.00197105, -543121.94, -65798.38, 0.0, 5.0109067, 4.953158 
7.4366385e+2, 2.5624287e+2, -506225.4, -591486.9, -2223.4756, 0.000022991428, 0.0015522969, -506167.47, -77347.48, 0.0, 5.0069456, 4.9521465 
7.434611e+2, 2.6119146e+2, -467831.28, -546762.25, -2685.3218, 0.00010326783, -0.0015460353, -467740.03, -87416.21, 0.0, 5.0029397, 4.952301 
7.432589e+2, 2.6613992e+2, -431255.16, -505552.63, -2564.485, 0.000056801127, 0.0016180222, -431166.75, -99337.63, 0.0, 4.9988346, 4.95122 
7.4305713e+2, 2.710878e+2, -392857.47, -460176.1, -3010.692, 0.00012797989, -0.0017022515, -392723.1, -109383.0, 0.0, 4.994682, 4.9516187 
7.428561e+2, 2.7603567e+2, -356637.28, -419212.38, -2741.5503, -0.00028631257, 0.0031319559, -356517.4, -121666.484, 0.0, 4.990451, 4.9504414 
7.4265563e+2, 2.8098306e+2, -318251.66, -373146.66, -3239.161, -0.00025782626, 0.000041041243, -318061.2, -131694.55, 0.0, 4.9861374, 4.951103 
7.4245626e+2, 2.8592983e+2, -282792.22, -332694.0, -2623.5288, 0.00052290474, -0.0000949328, -282654.66, -144765.95, 0.0, 4.9816523, 4.9497952 
7.4225765e+2, 2.9087684e+2, -244113.34, -285256.56, -3172.8247, 0.0009127607, -0.004575052, -243870.11, -154461.98, 0.0, 4.977185, 4.95096 
7.420599e+2, 2.9582542e+2, -207814.14, -243600.27, -2470.809, -0.0008583805, 0.012528054, -207644.36, -166734.31, 0.0, 4.9728312, 4.949959 
7.4186355e+2, 3.007722e+2, -172246.72, -202807.48, -2283.3877, -0.0007985543, 0.008803396, -172077.05, -172077.05, 0.0, 4.968255, 4.9487495 
7.4167013e+2, 3.0571973e+2, -144744.05, -145876.05, -1316.1158, 0.0012436103, -0.03167748, -143877.39, -143877.39, 0.0, 4.963249, 4.962431 
7.414785e+2, 3.1068376e+2, -152490.28, -137239.36, -1996.0325, -0.0004323059, -0.004819945, -136982.45, -136982.45, 0.0, 4.958147, 4.96775 
7.412886e+2, 3.1567398e+2, -120547.78, -46316.266, -4710.5596, 0.0077598086, 0.03606605, -46018.54, -46018.54, 0.0, 4.95476, 5.0024123 
7.410987e+2, 3.2066014e+2, -122197.305, -23016.645, -2383.87, -0.012015786, -0.06189915, -22959.379, -22959.379, 0.0, 4.949469, 5.0130877 
7.5401264e+2, 1.2759109e+2, -1473074.9, -1692913.4, 7661.8496, -0.00031996035, 0.0002972038, -1472808.3, 216799.2, 0.0, 5.1087785, 4.962356 
7.5381094e+2, 1.3254936e+2, -1437991.3, -1650727.6, 7517.984, -0.0012595094, -0.0012618254, -1437725.9, 203290.44, 0.0, 5.1040735, 4.962564 
7.536085e+2, 1.3750894e+2, -1401866.9, -1606500.5, 6133.416, -0.00227622, 0.0034913141, -1401683.3, 190729.36, 0.0, 5.0993485, 4.96338 
7.5340605e+2, 1.4246804e+2, -1366872.0, -1564996.9, 5903.845, 0.0032358093, -0.0021168785, -1366696.3, 177117.23, 0.0, 5.0947375, 4.963271 
7.532025e+2, 1.4742784e+2, -1330719.4, -1522507.9, 5210.996, 0.0016563988, 0.00040013393, -1330577.9, 164629.5, 0.0, 5.09041, 4.9633164 
7.5299835e+2, 1.5238746e+2, -1294395.9, -1479888.0, 4929.044, -0.002675748, 0.00010446908, -1294265.0, 152338.19, 0.0, 5.086144, 4.963378 
7.527944e+2, 1.5734711e+2, -1257801.4, -1437708.3, 4297.034, -0.0005902826, 0.0012831343, -1257698.9, 140299.53, 0.0, 5.0820675, 4.963182 
7.5259006e+2, 1.6230635e+2, -1220837.1, -1394849.6, 3924.3535, 0.00164066, -0.0015359502, -1220748.8, 128649.12, 0.0, 5.078021, 4.9631767 
7.523851e+2, 1.6726574e+2, -1184236.8, -1353370.8, 3475.5972, 0.00072688854, 0.0012839459, -1184165.4, 116630.42, 0.0, 5.074087, 4.9626255 
7.521799e+2, 1.722245e+2, -1146766.3, -1310258.1, 3153.7397, -0.00038874758, -0.0006150581, -1146705.5, 105494.66, 0.0, 5.0701933, 4.9625907 
7.519746e+2, 1.7718308e+2, -1110113.4, -1269338.8, 2719.8713, 0.00033530177, 0.0011522651, -1110067.0, 93539.07, 0.0, 5.0663824, 4.9617434 
7.5176924e+2, 1.8214092e+2, -1072143.1, -1225934.3, 2275.0122, 0.0008869927, -0.0010624059, -1072109.4, 82909.7, 0.0, 5.062632, 4.9616957 
7.515633e+2, 1.8709853e+2, -1035272.94, -1185307.8, 1887.2179, 0.00039374977, 0.0011284779, -1035249.2, 71185.26, 0.0, 5.0589576, 4.9606433 
7.5135726e+2, 1.9205526e+2, -996917.06, -1141675.4, 1422.066, -0.0002440859, -0.0012695399, -996903.06, 60955.438, 0.0, 5.0553102, 4.9605823 
7.511509e+2, 1.9701177e+2, -959925.94, -1101168.6, 987.3396, 0.000020164482, 0.0015787933, -959919.06, 49365.88, 0.0, 5.0516953, 4.95941 
7.509445e+2, 2.0196725e+2, -921370.44, -1057442.8, 475.6211, 0.00022191613, -0.00081349927, -921368.8, 39352.32, 0.0, 5.0480947, 4.959316 
7.5073785e+2, 2.0692244e+2, -884332.3, -1017021.2, 41.3231, 0.00032651448, 0.0018098817, -884332.3, 27828.18, 0.0, 5.044497, 4.9580564 
7.505311e+2, 2.1187657e+2, -845640.0, -973143.44, -509.40442, -0.000011240505, -0.000911474, -845638.0, 17972.035, 0.0, 5.0409045, 4.957965 
7.50324e+2, 2.1683039e+2, -808591.8, -932721.56, -1000.51746, 0.000011748146, 0.0015859808, -808583.75, 6478.774, 0.0, 5.037282, 4.9566636 
7.50117e+2, 2.2178318e+2, -769898.94, -888759.44, -1491.384, 0.00030896434, -0.0010847008, -769880.2, -3355.0913, 0.0, 5.033653, 4.9565706 
7.499098e+2, 2.267357e+2, -732744.6, -848074.1, -2094.0974, 0.00030521606, 0.0017817068, -732706.6, -14716.282, 0.0, 5.0299926, 4.9553323 
7.4970245e+2, 2.3168713e+2, -694183.8, -804204.5, -2507.6453, 0.00022237336, -0.0014617051, -694126.7, -24660.49, 0.0, 5.0263033, 4.955188 
7.4949515e+2, 2.3663834e+2, -656948.8, -763110.94, -3141.275, 0.00019288926, 0.0012124918, -656855.94, -35911.816, 0.0, 5.0225673, 4.9540806 
7.4928784e+2, 2.4158856e+2, -618573.3, -719281.3, -3586.636, 0.00031358338, -0.0017704245, -618445.75, -46013.813, 0.0, 5.018779, 4.9539204 
7.490806e+2, 2.4653861e+2, -581442.06, -677979.5, -4086.022, 0.000024445766, 0.0017228175, -581269.44, -57347.934, 0.0, 5.0149336, 4.952875 
7.488734e+2, 2.5148767e+2, -543090.9, -633797.0, -4606.3374, 0.00007105213, -0.0019434218, -542857.5, -67436.96, 0.0, 5.0110373, 4.952839 
7.486666e+2, 2.564367e+2, -506236.0, -592510.94, -4885.933, 0.00016561834, 0.0014588139, -505960.2, -79039.77, 0.0, 5.0070553, 4.951792 
7.484598e+2, 2.6138487e+2, -467897.3, -547789.25, -5454.1733, 0.00014969894, -0.0018234762, -467526.66, -89098.664, 0.0, 5.003022, 4.951958 
7.482535e+2, 2.6633298e+2, -431408.1, -506697.72, -5546.1123, -0.00022126989, 0.0013418205, -431001.75, -101065.05, 0.0, 4.998895, 4.950848 
7.480476e+2, 2.712805e+2, -392991.13, -461302.4, -6006.3804, -0.0003119818, -0.0019727326, -392467.0, -111015.66, 0.0, 4.9947453, 4.9512525 
7.4784243e+2, 2.7622798e+2, -356723.53, -420380.06, -5790.3955, -0.00027747187, 0.002733512, -356201.13, -123234.81, 0.0, 4.9905386, 4.950053 
7.4763775e+2, 2.8117496e+2, -318211.47, -374178.56, -6277.248, -0.00003132635, -0.00036824538, -317516.06, -133030.19, 0.0, 4.986255, 4.9507484 
7.4743384e+2, 2.8612143e+2, -282578.84, -333549.28, -5720.2446, -0.000034833654, -0.00027684818, -281944.78, -145934.3, 0.0, 4.981809, 4.9494877 
7.472308e+2, 2.9106805e+2, -243958.17, -286462.7, -6023.033, 0.00009019115, -0.0044810213, -243121.17, -155587.72, 0.0, 4.977384, 4.9505086 
7.47029e+2, 2.9601604e+2, -207490.47, -244770.27, -5302.659, 0.00016775951, 0.011695922, -206750.9, -167707.83, 0.0, 4.973092, 4.9494944 
7.468283e+2, 3.0096233e+2, -171383.4, -202922.31, -5436.892, 0.0010460706, 0.006854693, -170472.47, -170472.47, 0.0, 4.9685535, 4.948643 
7.4662954e+2, 3.059105e+2, -143891.8, -145632.6, -4326.9805, -0.00025459816, -0.026267858, -140348.53, -140348.53, 0.0, 4.963468, 4.96249 
7.464327e+2, 3.108745e+2, -152033.08, -138198.66, -4529.0386, -0.0045390087, 0.00024442087, -136847.86, -136847.86, 0.0, 4.9584203, 4.967355 
7.462395e+2, 3.1586173e+2, -120575.63, -50296.16, -6470.8447, 0.008352991, 0.044396706, -49705.336, -49705.336, 0.0, 4.955386, 5.000777 
7.4604636e+2, 3.208542e+2, -120725.64, -23877.01, -5903.9487, -0.0013870167, 0.014673941, -23518.428, -23518.428, 0.0, 4.9501543, 5.0126524 
7.591174e+2, 1.277935e+2, -1468720.5, -1689322.3, 9345.09, -0.0056709424, 0.00018717897, -1468325.4, 219298.56, 0.0, 5.1100783, 4.9628778 
7.589123e+2, 1.3275208e+2, -1434397.8, -1647707.0, 8953.1, 0.007534551, -0.0005197088, -1434022.6, 205007.16, 0.0, 5.1051555, 4.9630017 
7.587041e+2, 1.3771172e+2, -1398392.1, -1603495.1, 7951.018, -0.0037761196, 0.003195791, -1398084.4, 192341.11, 0.0, 5.100391, 4.96383 
7.5849676e+2, 1.4267099e+2, -1363485.4, -1561888.5, 7994.966, -0.00021696737, -0.0026606494, -1363163.8, 178660.89, 0.0, 5.0957236, 4.963783 
7.582893e+2, 1.4763105e+2, -1327571.0, -1519552.5, 7605.883, 0.0025195018, 0.0003180133, -1327270.1, 165945.66, 0.0, 5.0913334, 4.963804 
7.580809e+2, 1.5259087e+2, -1291373.9, -1476967.8, 7496.004, -0.0010982312, 0.00023591805, -1291071.6, 153537.84, 0.0, 5.0870233, 4.963875 
7.5787264e+2, 1.575507e+2, -1254965.8, -1434958.4, 7159.0986, -0.0008105191, 0.0012654812, -1254681.5, 141321.83, 0.0, 5.0829105, 4.963636 
7.5766426e+2, 1.6251007e+2, -1218009.9, -1392043.5, 6905.2544, 0.0010754594, -0.0016508058, -1217736.3, 129665.07, 0.0, 5.0788546, 4.9636545 
7.5745535e+2, 1.6746959e+2, -1181498.4, -1350725.4, 6732.0645, 0.00067429885, 0.001047915, -1181230.9, 117567.25, 0.0, 5.074926, 4.9630446 
7.5724626e+2, 1.7242838e+2, -1144091.1, -1307794.4, 6523.7456, -0.00028928078, -0.0008488781, -1143831.6, 106370.28, 0.0, 5.0710464, 4.9629416 
7.570372e+2, 1.7738697e+2, -1107502.0, -1267017.4, 6325.468, 0.00043715135, 0.00089749554, -1107251.6, 94356.29, 0.0, 5.0672474, 4.9620385 
7.5682807e+2, 1.8234482e+2, -1069291.6, -1223239.6, 6029.2046, 0.0009351999, -0.0012894061, -1069055.9, 83965.016, 0.0, 5.063531, 4.9621024 
7.5661844e+2, 1.8730249e+2, -1032424.6, -1182745.6, 5858.527, 0.0004085786, 0.0011982721, -1032196.6, 72239.06, 0.0, 5.0598917, 4.9609866 
7.5640875e+2, 1.9225918e+2, -994050.7, -1139291.1, 5507.3247, -0.00023220261, -0.0011422702, -993842.1, 62018.113, 0.0, 5.0562935, 4.9608436 
7.561988e+2, 1.972155e+2, -957044.9, -1098949.6, 5236.566, -0.00007058808, 0.0014672528, -956851.94, 50436.457, 0.0, 5.0527277, 4.9595904 
7.559889e+2, 2.0217082e+2, -918312.94, -1055089.9, 4803.844, 0.00021982827, -0.0010080707, -918144.4, 40581.934, 0.0, 5.049182, 4.9595184 
7.557786e+2, 2.0712578e+2, -881260.75, -1014823.9, 4506.1304, 0.00043570454, 0.0015737867, -881108.9, 29058.78, 0.0, 5.0456295, 4.9581823 
7.555683e+2, 2.1207967e+2, -842371.0, -970764.06, 4029.4038, 0.0001256701, -0.0011051588, -842244.6, 19374.715, 0.0, 5.0420904, 4.9581304 
7.553577e+2, 2.1703327e+2, -805284.1, -930481.8, 3647.0525, 0.000071148264, 0.0015351764, -805178.0, 7896.225, 0.0, 5.0385156, 4.9567604 
7.5514704e+2, 2.2198574e+2, -766463.7, -886526.6, 3240.0886, 0.00029124648, -0.0011876004, -766376.3, -1836.4506, 0.0, 5.0349464, 4.9566402 
7.549361e+2, 2.269379e+2, -729251.7, -845977.06, 2698.0396, 0.00026687834, 0.0016660575, -729189.3, -13180.747, 0.0, 5.0313396, 4.9553323 
7.5472516e+2, 2.3188898e+2, -690552.8, -802017.44, 2333.2456, 0.00017911704, -0.0014856458, -690504.0, -23015.85, 0.0, 5.027694, 4.955202 
7.545141e+2, 2.3683977e+2, -653331.8, -761108.25, 1722.9867, 0.00014651884, 0.0011833434, -653304.3, -34334.043, 0.0, 5.023987, 4.9540234 
7.54303e+2, 2.4178953e+2, -614844.6, -717136.06, 1349.8997, 0.00039067992, -0.0017634046, -614826.8, -44364.37, 0.0, 5.0202208, 4.953905 
7.540919e+2, 2.4673913e+2, -577744.25, -675992.94, 844.96045, -0.00000953485, 0.0017313783, -577737.0, -55780.617, 0.0, 5.01639, 4.952801 
7.538808e+2, 2.5168774e+2, -539359.6, -631761.94, 405.17032, -0.000074364936, -0.0019114518, -539357.9, -65897.8, 0.0, 5.0124993, 4.952783 
7.5367e+2, 2.5663626e+2, -502553.8, -590633.7, 76.05468, 0.00009316117, 0.0015377672, -502553.75, -77589.15, 0.0, 5.008521, 4.951685 
7.534592e+2, 2.6158395e+2, -464177.5, -545854.44, -419.60397, 0.00016525737, -0.001743796, -464175.34, -87698.13, 0.0, 5.0044937, 4.951872 
7.532488e+2, 2.6653156e+2, -427698.25, -504835.75, -561.43866, -0.00015757354, 0.001493209, -427694.16, -99703.445, 0.0, 5.0003724, 4.9507384 
7.530387e+2, 2.714785e+2, -389467.38, -459498.22, -1058.2649, -0.00027501123, -0.0018063394, -389451.4, -109940.91, 0.0, 4.996148, 4.951161 
7.528292e+2, 2.7642542e+2, -353571.78, -418841.63, -1004.8624, -0.00027654952, 0.0021436599, -353556.3, -122525.13, 0.0, 4.99182, 4.9499297 
7.526202e+2, 2.8137186e+2, -315259.66, -372688.63, -1640.781, 0.000041344167, -0.0011383551, -315212.84, -132656.8, 0.0, 4.987451, 4.950652 
7.5241196e+2, 2.8631797e+2, -279545.66, -332088.84, -1380.7461, 0.00004784899, 0.00018373036, -279509.4, -145425.34, 0.0, 4.983038, 4.949374 
7.522045e+2, 2.9126406e+2, -241325.94, -285281.56, -1768.6273, 0.0000942895, -0.0039064186, -241254.89, -155642.75, 0.0, 4.978483, 4.950359 
7.519981e+2, 2.962112e+2, -206182.67, -244243.56, -1175.7926, 0.00020753614, 0.00906735, -206146.39, -169015.1, 0.0, 4.9737225, 4.9493213 
7.517929e+2, 3.011569e+2, -170526.42, -202488.25, -1572.9962, 0.001619997, 0.004095828, -170449.19, -170449.19, 0.0, 4.9689975, 4.948522 
7.515892e+2, 3.0610546e+2, -141219.4, -144123.33, -1631.9011, 0.000023524773, -0.022463646, -140487.03, -140487.03, 0.0, 4.964501, 4.962505 
7.513876e+2, 3.1106928e+2, -150853.53, -139804.77, -1173.0271, -0.0048146937, 0.010716175, -139681.6, -139681.6, 0.0, 4.959394, 4.96627 
7.511896e+2, 3.1605136e+2, -123047.984, -52713.816, -3110.5405, 0.00516544, -0.000032528722, -52576.52, -52576.52, 0.0, 4.9548793, 5.0000205 
7.509924e+2, 3.2104504e+2, -114126.79, -1802.621, -3531.2202, 0.00035490282, -0.032170564, -1691.7168, -1691.7168, 0.0, 4.948953, 5.0211163 
7.6422393e+2, 1.2799941e+2, -1468624.8, -1688542.3, 8471.253, 0.002068041, -0.0000464983, -1468298.9, 217306.98, 0.0, 5.109892, 4.963257 
7.640126e+2, 1.3295834e+2, -1434333.6, -1646797.9, 7929.4243, 0.0021233766, 0.00028582217, -1434038.1, 202970.19, 0.0, 5.1049285, 4.963442 
7.638001e+2, 1.3791817e+2, -1398209.1, -1602517.8, 7199.307, -0.003445186, 0.0028809388, -1397955.8, 190446.27, 0.0, 5.1002116, 4.9642677 
7.635883e+2, 1.428777e+2, -1363116.3, -1560935.0, 7321.103, 0.0019256711, -0.003088279, -1362845.6, 176953.1, 0.0, 5.095634, 4.9641705 
7.633763e+2, 1.4783806e+2, -1327055.1, -1518585.0, 7019.6094, 0.0025085967, 0.0006087199, -1326798.3, 164388.94, 0.0, 5.0913134, 4.9641604 
7.6316345e+2, 1.5279812e+2, -1290789.0, -1475996.6, 6827.906, -0.0018820812, 0.00072472094, -1290537.6, 152041.02, 0.0, 5.0870333, 4.96422 
7.629512e+2, 1.5775809e+2, -1254465.4, -1434127.0, 6553.2056, -0.00084451126, 0.0014411161, -1254226.6, 139744.22, 0.0, 5.082917, 4.963934 
7.627387e+2, 1.6271763e+2, -1217407.6, -1391195.3, 6217.399, 0.0014274009, -0.0015904185, -1217185.5, 128181.89, 0.0, 5.0789027, 4.9639406 
7.6252586e+2, 1.6767728e+2, -1180781.6, -1349965.0, 6050.987, 0.0006513434, 0.0010841825, -1180565.5, 116197.34, 0.0, 5.0750475, 4.9632654 
7.62313e+2, 1.7263618e+2, -1143219.6, -1306984.0, 5740.3735, -0.00048944703, -0.0007457863, -1143018.6, 105146.84, 0.0, 5.0712247, 4.9631557 
7.621001e+2, 1.7759481e+2, -1106641.3, -1266361.4, 5632.342, 0.00043616665, 0.0011340652, -1106442.9, 93127.89, 0.0, 5.0674562, 4.9621854 
7.618872e+2, 1.8255274e+2, -1068312.5, -1222477.8, 5249.2656, 0.0009089586, -0.0011042875, -1068134.0, 82849.22, 0.0, 5.063768, 4.9622746 
7.616739e+2, 1.8751043e+2, -1031498.56, -1182184.4, 4981.684, 0.00032987105, 0.0014743648, -1031334.06, 71063.79, 0.0, 5.060148, 4.9610825 
7.614607e+2, 1.9246711e+2, -993144.5, -1138869.6, 4493.497, -0.00022433442, -0.00084323034, -993006.06, 60816.582, 0.0, 5.056567, 4.9608865 
7.6124716e+2, 1.9742331e+2, -956213.25, -1098759.9, 4198.3867, -0.00011944782, 0.0015296157, -956089.7, 49162.145, 0.0, 5.0530157, 4.959548 
7.610337e+2, 2.023785e+2, -917453.25, -1054871.4, 3653.6563, 0.00025670297, -0.0010293914, -917356.1, 39334.902, 0.0, 5.0494733, 4.9594865 
7.6081985e+2, 2.073333e+2, -880545.5, -1014874.94, 3299.4446, 0.0005357471, 0.0014850366, -880464.56, 27669.365, 0.0, 5.0459094, 4.958064 
7.6060593e+2, 2.1228704e+2, -841642.5, -970777.1, 2694.1245, 0.00020042362, -0.0011675656, -841586.3, 18000.998, 0.0, 5.042365, 4.9580297 
7.603917e+2, 2.1724044e+2, -804641.2, -930703.7, 2191.9224, 0.00015543927, 0.0017318252, -804603.06, 6440.8896, 0.0, 5.038792, 4.956589 
7.601775e+2, 2.2219265e+2, -765886.75, -886865.06, 1653.171, 0.00023638406, -0.0011600788, -765864.1, -3351.9373, 0.0, 5.035213, 4.9564357 
7.59963e+2, 2.2714448e+2, -728823.8, -846563.8, 972.7983, 0.00018762321, 0.0015237703, -728815.75, -14831.682, 0.0, 5.031586, 4.955054 
7.5974834e+2, 2.3209524e+2, -690172.94, -802605.56, 478.07443, 0.00019123094, -0.0013835451, -690170.9, -24704.281, 0.0, 5.0279164, 4.9549356 
7.595336e+2, 2.370457e+2, -653079.94, -761929.2, -285.68533, 0.00007970401, 0.0013867134, -653079.2, -36127.074, 0.0, 5.024193, 4.953686 
7.5931865e+2, 2.4199508e+2, -614602.25, -717905.25, -768.105, 0.00031291446, -0.0016372729, -614596.56, -46148.477, 0.0, 5.0204086, 4.9535956 
7.591038e+2, 2.4694434e+2, -577607.25, -676947.44, -1497.3418, -0.00009765001, 0.0018400528, -577584.7, -57639.19, 0.0, 5.0165596, 4.95244 
7.588888e+2, 2.5189257e+2, -539316.1, -632790.9, -2043.2891, -0.0003253605, -0.0017082641, -539271.5, -67818.52, 0.0, 5.0126395, 4.9524093 
7.5867397e+2, 2.568407e+2, -502595.22, -591775.9, -2610.024, -0.00015070621, 0.0018135201, -502518.9, -79557.53, 0.0, 5.008637, 4.9512873 
7.5845915e+2, 2.6178795e+2, -464300.63, -547030.94, -3187.3096, 0.0000009045588, -0.0014584988, -464178.03, -89699.94, 0.0, 5.004577, 4.951477 
7.582447e+2, 2.6673514e+2, -427905.72, -506121.03, -3584.5752, -0.000040447223, 0.0018854038, -427741.78, -101746.336, 0.0, 5.0004306, 4.9503207 
7.580304e+2, 2.7168167e+2, -389611.34, -460696.56, -4108.7104, -0.00014492407, -0.0014674283, -389374.66, -111855.27, 0.0, 4.996215, 4.9507704 
7.578166e+2, 2.7662802e+2, -353643.2, -420079.78, -4108.3477, -0.00054662395, 0.0011546372, -353390.1, -124344.98, 0.0, 4.9919224, 4.949512 
7.576033e+2, 2.8157404e+2, -315208.16, -373842.97, -4627.261, -0.00037882244, -0.0024099352, -314845.25, -134270.95, 0.0, 4.9875917, 4.9502463 
7.5739074e+2, 2.865199e+2, -279399.78, -333283.8, -4376.0747, 0.00053324207, 0.0013378363, -279046.7, -146942.47, 0.0, 4.9832244, 4.9489365 
7.571788e+2, 2.9146558e+2, -241004.98, -286237.9, -4817.336, 0.0004766697, -0.0031265523, -240497.63, -156860.78, 0.0, 4.9787016, 4.949991 
7.569674e+2, 2.9641172e+2, -205777.16, -245083.33, -4311.6123, -0.0020661436, 0.0035595184, -205309.75, -170144.14, 0.0, 4.973949, 4.948994 
7.5675756e+2, 3.01357e+2, -170491.69, -204403.58, -4310.513, -0.0006507407, -0.00048317946, -169952.36, -169952.36, 0.0, 4.9692693, 4.9477906 
7.565502e+2, 3.0630642e+2, -140779.94, -146172.27, -4307.7256, 0.003987211, -0.00778321, -138394.19, -138394.19, 0.0, 4.964971, 4.961635 
7.563438e+2, 3.1126937e+2, -148240.03, -137393.88, -4891.71, -0.0008422849, 0.018876113, -135513.63, -135513.63, 0.0, 4.959965, 4.9669642 
7.5613916e+2, 3.162484e+2, -121504.11, -51154.7, -5628.907, -0.00525097, -0.011418339, -50707.156, -50707.156, 0.0, 4.9551015, 5.000607 
7.559378e+2, 3.2124877e+2, -121303.55, -19104.922, -6179.178, 0.002838271, 0.036204852, -18732.668, -18732.668, 0.0, 4.948976, 5.0149083 
7.693303e+2, 1.2821172e+2, -1464604.3, -1684914.1, 10066.515, 0.006649267, -0.00033781744, -1464145.3, 219379.88, 0.0, 5.1110406, 4.9638605 
7.691126e+2, 1.3317104e+2, -1431097.3, -1643371.9, 9689.973, -0.005926212, 0.00049480033, -1430655.8, 204268.03, 0.0, 5.1057696, 4.964127 
7.6889634e+2, 1.3813119e+2, -1394873.3, -1599011.1, 9227.792, -0.0015430038, 0.0021354072, -1394457.0, 191857.31, 0.0, 5.101095, 4.964956 
7.6868016e+2, 1.4309105e+2, -1360011.1, -1557679.0, 9518.04, 0.0057987883, -0.0038040474, -1359553.9, 178153.75, 0.0, 5.0964737, 4.964796 
7.684633e+2, 1.4805178e+2, -1324256.0, -1515542.1, 9517.241, 0.0015750536, 0.0006531101, -1323783.6, 165308.95, 0.0, 5.092075, 4.9647474 
7.682461e+2, 1.5301211e+2, -1288111.9, -1473024.4, 9458.1875, -0.0038854897, 0.0009272333, -1287629.4, 152852.06, 0.0, 5.0877624, 4.9647985 
7.680299e+2, 1.5797229e+2, -1251924.9, -1431300.8, 9493.802, -0.00042777183, 0.0011691264, -1251423.8, 140448.02, 0.0, 5.08363, 4.964467 
7.6781356e+2, 1.6293201e+2, -1214894.4, -1388425.0, 9359.997, 0.002493424, -0.0020040225, -1214391.0, 128875.54, 0.0, 5.079622, 4.964452 
7.675967e+2, 1.678918e+2, -1178349.6, -1347338.1, 9468.935, 0.0006317091, 0.0008374111, -1177820.8, 116839.65, 0.0, 5.0757737, 4.963723 
7.6737994e+2, 1.7285088e+2, -1140611.5, -1304111.8, 9255.053, -0.00092610274, -0.00082982425, -1140089.3, 105972.14, 0.0, 5.071984, 4.9636807 
7.671634e+2, 1.7780966e+2, -1104031.0, -1263607.4, 9410.919, 0.0003706136, 0.0012438162, -1103477.9, 93987.484, 0.0, 5.068253, 4.96265 
7.6694685e+2, 1.8276763e+2, -1065703.9, -1219957.8, 9171.681, 0.00096815894, -0.0010462077, -1065160.4, 83717.05, 0.0, 5.0646186, 4.9626355 
7.6672995e+2, 1.8772525e+2, -1028865.1, -1179813.4, 9105.592, 0.00028874783, 0.0013475257, -1028317.8, 71974.93, 0.0, 5.0610514, 4.961366 
7.6651317e+2, 1.9268183e+2, -990251.25, -1136230.9, 8732.237, -0.00014503182, -0.0010225612, -989730.75, 61987.453, 0.0, 5.057536, 4.961231 
7.6629615e+2, 1.9763796e+2, -953265.2, -1096264.4, 8630.5, 0.000009196899, 0.0012080327, -952746.2, 50401.99, 0.0, 5.054048, 4.9598117 
7.660792e+2, 2.02593e+2, -914299.1, -1052275.1, 8166.521, 0.00034927728, -0.0013481175, -913817.44, 40771.195, 0.0, 5.0505815, 4.9597507 
7.6586175e+2, 2.0754765e+2, -877331.56, -1012431.75, 7964.9404, 0.0005366431, 0.0014054428, -876863.56, 29169.547, 0.0, 5.0470815, 4.9582458 
7.656444e+2, 2.1250115e+2, -838249.2, -968319.94, 7450.7036, 0.000116720905, -0.0011860493, -837823.8, 19664.992, 0.0, 5.0436163, 4.958183 
7.654266e+2, 2.1745425e+2, -801140.06, -928377.5, 7045.8423, 0.00010494884, 0.0016315007, -800751.1, 8197.434, 0.0, 5.0401196, 4.956663 
7.652088e+2, 2.2240613e+2, -762184.1, -884427.6, 6558.162, 0.0002090854, -0.0013254908, -761833.3, -1413.1554, 0.0, 5.03661, 4.9565187 
7.649907e+2, 2.273576e+2, -725068.6, -844299.6, 5950.0845, 0.00017916411, 0.0013139192, -724772.44, -12876.661, 0.0, 5.033042, 4.955053 
7.647724e+2, 2.3230797e+2, -686215.4, -800154.06, 5522.9775, 0.00030092782, -0.0013359069, -685948.3, -22566.229, 0.0, 5.029426, 4.9549785 
7.6455384e+2, 2.3725803e+2, -649059.9, -759582.2, 4812.7344, -0.000013736751, 0.0016452522, -648850.7, -33979.22, 0.0, 5.025749, 4.9536743 
7.643352e+2, 2.4220695e+2, -610548.56, -715706.56, 4409.065, -0.00003607075, -0.0015346928, -610364.0, -43991.836, 0.0, 5.022011, 4.9535146 
7.6411647e+2, 2.4715565e+2, -573472.94, -674764.8, 3642.3716, -0.00035568103, 0.0018213667, -573342.1, -55467.324, 0.0, 5.0181966, 4.952343 
7.6389754e+2, 2.5210336e+2, -535108.4, -630570.9, 3158.3489, -0.00037182917, -0.0014482306, -535004.0, -65616.7, 0.0, 5.014303, 4.952317 
7.636787e+2, 2.5705096e+2, -498313.56, -589540.44, 2534.7505, -0.00010957169, 0.0020782005, -498243.2, -77342.34, 0.0, 5.010322, 4.9511967 
7.634599e+2, 2.6199764e+2, -460109.5, -544913.0, 2053.0544, 0.00010939926, -0.0014085291, -460059.8, -87636.555, 0.0, 5.006247, 4.9513555 
7.632413e+2, 2.6694423e+2, -423750.6, -504108.13, 1578.311, 0.00022474484, 0.001852748, -423719.6, -99773.17, 0.0, 5.0021, 4.9501696 
7.630227e+2, 2.718902e+2, -385557.66, -458703.16, 998.8897, 0.000097329925, -0.001274075, -385544.0, -110067.945, 0.0, 4.997841, 4.9506364 
7.6280457e+2, 2.76836e+2, -349781.53, -418212.22, 718.3871, -0.0003961504, 0.0014147793, -349773.97, -122766.84, 0.0, 4.9934783, 4.949373 
7.6258683e+2, 2.817814e+2, -311674.47, -372106.16, 73.40653, -0.00024565164, -0.002164569, -311674.38, -133132.42, 0.0, 4.9890203, 4.9501243 
7.623699e+2, 2.8672674e+2, -276469.63, -331924.47, 97.24318, 0.0008105792, 0.0017522164, -276469.44, -146392.05, 0.0, 4.9844484, 4.9487796 
7.621533e+2, 2.916718e+2, -238274.77, -284902.72, -559.2937, 0.0007491149, -0.0028457567, -238268.05, -156652.34, 0.0, 4.9798346, 4.949873 
7.619372e+2, 2.9661724e+2, -202725.17, -243678.2, -436.38257, -0.0029678098, 0.002220284, -202720.53, -169569.84, 0.0, 4.975201, 4.9488554 
7.617227e+2, 3.0156195e+2, -168274.25, -204142.81, -300.40247, -0.0012499462, -0.0009228337, -168271.73, -168271.73, 0.0, 4.970367, 4.947314 
7.61511e+2, 3.0651093e+2, -140451.55, -146902.25, -583.566, 0.0066911876, -0.0048851697, -140399.17, -140399.17, 0.0, 4.9654107, 4.9610944 
7.6129967e+2, 3.1147325e+2, -147786.86, -136718.48, -1258.4135, 0.0012483038, 0.023580158, -136577.2, -136577.2, 0.0, 4.9601903, 4.9670177 
7.6108867e+2, 3.164494e+2, -118982.945, -47984.42, -3998.1104, -0.01246447, -0.05111689, -47759.984, -47759.984, 0.0, 4.9557576, 5.0013895 
7.6088345e+2, 3.214494e+2, -117144.52, -13211.604, -2882.2764, 0.0076167863, -0.012884788, -13131.733, -13131.733, 0.0, 4.9498496, 5.016467 
7.744348e+2, 1.2842843e+2, -1464541.3, -1683908.0, 8905.005, -0.011431742, -0.00043284145, -1464180.4, 217220.27, 0.0, 5.1107864, 4.9643493 
7.74215e+2, 1.3338779e+2, -1431411.4, -1642779.9, 9272.117, 0.0086580515, -0.0018428703, -1431005.4, 201793.89, 0.0, 5.1054373, 4.9645143 
7.739924e+2, 1.383484e+2, -1394715.4, -1598142.5, 8898.689, -0.0038041621, 0.0025465062, -1394326.9, 189858.48, 0.0, 5.100929, 4.9653516 
7.737716e+2, 1.4330855e+2, -1359565.9, -1556658.1, 8982.936, 0.0019259811, -0.0030246137, -1359157.3, 176418.75, 0.0, 5.096405, 4.9651966 
7.7355075e+2, 1.4826943e+2, -1323808.1, -1514570.8, 8996.182, 0.0019817112, 0.0005683942, -1323384.8, 163574.88, 0.0, 5.0920253, 4.9651184 
7.733292e+2, 1.5323001e+2, -1287417.8, -1471809.0, 8871.966, -0.003085803, 0.000784788, -1286991.8, 151354.2, 0.0, 5.0877724, 4.9652243 
7.731089e+2, 1.5819044e+2, -1251103.3, -1430142.3, 8994.983, -0.0003401472, 0.0012268578, -1250652.5, 139081.28, 0.0, 5.083716, 4.9648366 
7.728885e+2, 1.6315039e+2, -1213991.3, -1387292.9, 8821.434, 0.0025447567, -0.0018524178, -1213543.4, 127582.81, 0.0, 5.079748, 4.964796 
7.726678e+2, 1.6811039e+2, -1177536.9, -1346391.0, 8990.086, 0.0005083569, 0.0011077161, -1177059.5, 115458.734, 0.0, 5.075903, 4.964003 
7.724472e+2, 1.7306961e+2, -1139714.1, -1303108.1, 8636.42, -0.0012178115, -0.00056727044, -1139258.9, 104658.93, 0.0, 5.0721383, 4.96397 
7.722269e+2, 1.7802852e+2, -1103117.3, -1262759.4, 8756.537, 0.00022642812, 0.001450931, -1102638.4, 92682.24, 0.0, 5.0684505, 4.962866 
7.7200675e+2, 1.8298654e+2, -1064751.4, -1219236.4, 8417.08, 0.0009912652, -0.0008818757, -1064294.1, 82437.98, 0.0, 5.064857, 4.962792 
7.717864e+2, 1.8794416e+2, -1027946.06, -1179310.0, 8356.139, 0.00032304012, 0.0013607258, -1027486.2, 70661.35, 0.0, 5.0613217, 4.9614334 
7.7156603e+2, 1.9290072e+2, -989233.8, -1135608.6, 7877.9453, -0.00008150814, -0.0010229645, -988811.0, 60762.105, 0.0, 5.0578227, 4.961334 
7.713455e+2, 1.9785678e+2, -952372.94, -1095906.9, 7724.4243, 0.00008630011, 0.0011767657, -951958.44, 49045.023, 0.0, 5.054333, 4.9598246 
7.71125e+2, 2.0281175e+2, -913403.44, -1051971.3, 7109.1484, 0.00037196476, -0.0014119486, -913039.6, 39405.125, 0.0, 5.0508757, 4.9597435 
7.709041e+2, 2.0776628e+2, -876500.9, -1012363.0, 6822.1816, 0.0005089764, 0.0015512415, -876159.1, 27731.377, 0.0, 5.0473933, 4.958153 
7.706832e+2, 2.1271959e+2, -837472.25, -968370.1, 6180.943, 0.00006242379, -0.0010457123, -837181.06, 18167.09, 0.0, 5.043925, 4.9580526 
7.704619e+2, 2.1767241e+2, -800528.94, -928707.1, 5676.1855, 0.00009422561, 0.0015946903, -800278.06, 6532.4634, 0.0, 5.0404077, 4.9564476 
7.702406e+2, 2.2262402e+2, -761598.44, -884736.4, 5051.3945, 0.00021014872, -0.0012789682, -761391.56, -3106.7854, 0.0, 5.0368786, 4.9563217 
7.700189e+2, 2.2757518e+2, -724641.7, -844914.0, 4308.5845, 0.00012806359, 0.0013978619, -724487.5, -14724.112, 0.0, 5.0332956, 4.9547606 
7.6979697e+2, 2.3252524e+2, -685782.0, -800696.75, 3736.1711, 0.000275853, -0.001098141, -685660.6, -24407.762, 0.0, 5.0296636, 4.9547205 
7.6957476e+2, 2.3747498e+2, -648736.56, -760333.0, 2826.027, -0.00013821188, 0.0020617847, -648665.0, -35919.492, 0.0, 5.025973, 4.953352 
7.693523e+2, 2.4242349e+2, -610351.8, -716632.4, 2281.151, -0.00038575783, -0.001282368, -610302.9, -46052.74, 0.0, 5.0222087, 4.9531455 
7.691297e+2, 2.4737175e+2, -573452.2, -675991.0, 1345.15, -0.0006407988, 0.0018753713, -573434.56, -57677.324, 0.0, 5.018368, 4.951887 
7.68907e+2, 2.52319e+2, -535084.4, -631647.7, 742.6588, -0.00046011957, -0.0010883511, -535078.6, -67804.63, 0.0, 5.014442, 4.9519286 
7.6868415e+2, 2.5726616e+2, -498375.47, -590766.3, -149.02977, -0.000103468075, 0.0024184985, -498375.22, -79583.44, 0.0, 5.0104423, 4.950767 
7.684612e+2, 2.6221237e+2, -460279.4, -546259.3, -745.8422, 0.00014800597, -0.0012671032, -460272.94, -89953.96, 0.0, 5.0063386, 4.9508977 
7.682385e+2, 2.6715848e+2, -424036.97, -505637.88, -1454.0927, 0.00039984906, 0.0016920419, -424011.1, -102163.77, 0.0, 5.0021667, 4.9496646 
7.680157e+2, 2.7210394e+2, -385775.22, -460154.75, -2031.4597, 0.00014228171, -0.0010217121, -385719.78, -112338.23, 0.0, 4.9979205, 4.950153 
7.677933e+2, 2.7704936e+2, -349879.75, -419617.13, -2392.9575, -0.00014873204, 0.0027986749, -349797.72, -124881.51, 0.0, 4.993596, 4.948892 
7.6757115e+2, 2.8199428e+2, -311635.25, -373382.44, -2988.7578, 0.0000035223386, -0.0008684021, -311490.9, -135034.81, 0.0, 4.9891734, 4.949673 
7.673496e+2, 2.8693894e+2, -276283.47, -333108.72, -2990.2473, 0.00039562825, 0.0008524481, -276126.53, -148127.9, 0.0, 4.9846454, 4.9483447 
7.6712847e+2, 2.9188362e+2, -238000.22, -286152.4, -3503.318, 0.00034769555, -0.0026657442, -237746.67, -158205.89, 0.0, 4.980081, 4.9493923 
7.6690793e+2, 2.968292e+2, -202250.22, -244904.77, -3379.0217, -0.002174695, 0.008963695, -201984.2, -170910.56, 0.0, 4.9755263, 4.94835 
7.6668864e+2, 3.01773e+2, -167737.02, -205406.94, -3360.8481, -0.0008505874, 0.0024564348, -167439.52, -167439.52, 0.0, 4.9707313, 4.9467754 
7.664718e+2, 3.0671972e+2, -140104.28, -148273.23, -3606.4004, 0.004733469, -0.016505728, -138739.98, -138739.98, 0.0, 4.965701, 4.9605527 
7.662554e+2, 3.1168193e+2, -145863.94, -135065.28, -4095.9695, -0.0026316561, 0.010516068, -133687.47, -133687.47, 0.0, 4.960594, 4.967526 
7.6604104e+2, 3.166634e+2, -116714.15, -47382.97, -6229.581, -0.0024908432, 0.009618663, -46827.67, -46827.67, 0.0, 4.956487, 5.0014253 
7.6582897e+2, 3.2166114e+2, -120254.984, -25972.121, -6109.036, 0.0011092562, 0.036668286, -25577.936, -25577.936, 0.0, 4.95079, 5.011645 
7.795405e+2, 1.2865159e+2, -1461954.0, -1680686.6, 9780.349, -0.016234146, -0.001642204, -1461517.6, 217695.47, 0.0, 5.1113796, 4.96508 
7.793172e+2, 1.3361113e+2, -1428063.4, -1639521.3, 10870.391, 0.022206612, -0.0046052583, -1427506.0, 203103.89, 0.0, 5.106374, 4.9650955 
7.7908826e+2, 1.3857234e+2, -1392172.9, -1595251.8, 10907.794, -0.008325372, 0.00309672, -1391588.6, 190402.06, 0.0, 5.101598, 4.9659324 
7.788628e+2, 1.4353281e+2, -1357198.6, -1553745.1, 11118.453, -0.0033788306, -0.002296361, -1356571.6, 176806.8, 0.0, 5.096998, 4.9658194 
7.7863824e+2, 1.4849383e+2, -1321561.5, -1511732.9, 11516.43, 0.0035325536, -0.00016168614, -1320866.6, 163893.95, 0.0, 5.092599, 4.965719 
7.784125e+2, 1.534547e+2, -1285102.4, -1468733.5, 11623.388, -0.0011833576, -0.00002698395, -1284369.5, 151774.3, 0.0, 5.0883336, 4.96591 
7.7818793e+2, 1.5841551e+2, -1248930.1, -1427231.6, 12060.916, -0.0006097296, 0.0009979826, -1248117.9, 139410.03, 0.0, 5.084265, 4.9654684 
7.779636e+2, 1.6337577e+2, -1211771.8, -1384378.0, 12051.619, 0.0020636027, -0.0018600503, -1210934.4, 127983.19, 0.0, 5.080325, 4.965416 
7.777391e+2, 1.6833597e+2, -1175344.5, -1343616.9, 12505.994, 0.00041155223, 0.0011347324, -1174420.1, 115887.45, 0.0, 5.0765133, 4.964556 
7.7751476e+2, 1.7329535e+2, -1137427.4, -1300342.9, 12299.7295, -0.0013227438, -0.0006416358, -1136504.0, 105201.61, 0.0, 5.0727997, 4.964496 
7.772909e+2, 1.7825434e+2, -1100790.9, -1260111.1, 12688.485, 0.00008280257, 0.0010809418, -1099786.6, 93321.04, 0.0, 5.069167, 4.9633226 
7.770672e+2, 1.8321241e+2, -1062226.9, -1216480.5, 12497.553, 0.0010742705, -0.0013039582, -1061220.9, 83297.45, 0.0, 5.0656457, 4.9632525 
7.768433e+2, 1.8817005e+2, -1025339.06, -1176659.8, 12666.748, 0.0005967961, 0.0009941092, -1024286.1, 71647.42, 0.0, 5.062183, 4.9618196 
7.766195e+2, 1.9312662e+2, -986372.25, -1132826.0, 12289.067, 0.000030212472, -0.0012989226, -985348.25, 62010.957, 0.0, 5.058776, 4.9617243 
7.763955e+2, 1.9808264e+2, -949433.0, -1093272.8, 12322.662, 0.00008396965, 0.001195352, -948385.0, 50405.098, 0.0, 5.0553613, 4.960128 
7.7617157e+2, 2.0303749e+2, -910243.6, -1049289.6, 11801.698, 0.00038977375, -0.0013188823, -909249.06, 40983.555, 0.0, 5.051997, 4.960021 
7.759472e+2, 2.079918e+2, -873182.9, -1009799.56, 11663.718, 0.00036765775, 0.0014264665, -872194.2, 29486.295, 0.0, 5.0486155, 4.9583435 
7.757229e+2, 2.1294485e+2, -833875.56, -965679.5, 11090.4375, -0.000066411696, -0.0012270507, -832948.9, 20191.643, 0.0, 5.045247, 4.9582424 
7.754981e+2, 2.1789739e+2, -796815.75, -926169.44, 10699.538, 0.00014308754, 0.0013897814, -795936.7, 8669.037, 0.0, 5.0418158, 4.956547 
7.752733e+2, 2.2284868e+2, -757637.3, -882024.6, 10155.064, 0.00031164358, -0.0012841048, -756813.7, -730.6043, 0.0, 5.0383635, 4.956449 
7.7504796e+2, 2.2779949e+2, -720572.8, -842345.2, 9499.862, -0.000022684366, 0.0014641351, -719836.2, -12270.928, 0.0, 5.034857, 4.9548078 
7.7482253e+2, 2.3274909e+2, -681531.7, -798108.25, 8995.07, -0.0000070318624, -0.0012456225, -680841.7, -21782.604, 0.0, 5.0313034, 4.954741 
7.745966e+2, 2.3769832e+2, -644441.8, -757976.5, 8102.557, -0.00025445686, 0.0017160913, -643866.44, -33309.79, 0.0, 5.027678, 4.9532657 
7.7437043e+2, 2.4264635e+2, -605809.4, -713987.8, 7597.989, -0.00019138934, -0.0014892904, -605278.4, -43212.336, 0.0, 5.0239677, 4.9531384 
7.74144e+2, 2.4759407e+2, -568859.06, -673506.0, 6705.267, -0.0004197167, 0.0014326521, -568431.2, -54852.977, 0.0, 5.020177, 4.951808 
7.739173e+2, 2.5254074e+2, -530397.75, -629143.94, 6209.486, -0.00026311888, -0.0018220888, -530008.8, -64908.098, 0.0, 5.016289, 4.9518433 
7.7369046e+2, 2.574873e+2, -493638.03, -588399.44, 5279.743, 0.0000011496434, 0.0015095568, -493344.78, -76720.414, 0.0, 5.0123363, 4.9506173 
7.734634e+2, 2.624329e+2, -455462.63, -543885.5, 4729.9834, 0.00006233802, -0.0018284151, -455210.34, -87052.85, 0.0, 5.008267, 4.9507394 
7.732365e+2, 2.6737836e+2, -419171.56, -503307.9, 3959.77, 0.0003331691, 0.0012531823, -418985.6, -99293.51, 0.0, 5.0041184, 4.9494877 
7.730095e+2, 2.723232e+2, -381065.78, -457864.78, 3326.3557, 0.00013842843, -0.0015678323, -380921.97, -109688.945, 0.0, 4.9998074, 4.949997 
7.727827e+2, 2.7726796e+2, -345479.38, -417565.63, 2689.7485, 0.000018231247, 0.0023855546, -345379.16, -122605.06, 0.0, 4.995377, 4.9487104 
7.72556e+2, 2.8221226e+2, -307561.06, -371462.53, 1925.8, 0.00025313886, -0.00088496343, -307503.1, -133182.88, 0.0, 4.9908285, 4.9495077 
7.7232987e+2, 2.8715628e+2, -272488.47, -331361.9, 1612.9303, 0.00019740785, 0.00071641983, -272444.3, -146575.23, 0.0, 4.986199, 4.9481707 
7.7210414e+2, 2.9210034e+2, -234599.38, -284644.44, 1012.38776, 0.00023594506, -0.0023992907, -234578.9, -157161.7, 0.0, 4.9814963, 4.949202 
7.71879e+2, 2.9704544e+2, -199516.9, -243770.25, 866.4269, -0.0013102796, 0.01081193, -199499.95, -170545.52, 0.0, 4.9767065, 4.948136 
7.716549e+2, 3.019884e+2, -165544.86, -204688.73, 676.154, -0.00013647287, 0.002929404, -165533.19, -165533.19, 0.0, 4.971747, 4.946488 
7.7143276e+2, 3.0693355e+2, -137887.55, -147470.69, -89.24104, 0.0032854166, -0.026372239, -137886.72, -137886.72, 0.0, 4.966699, 4.9603133 
7.712113e+2, 3.1189588e+2, -144118.05, -134374.44, -165.80359, -0.0043289615, 0.009477597, -134371.63, -134371.63, 0.0, 4.9613943, 4.967336 
7.7099293e+2, 3.1687903e+2, -116106.85, -46067.34, -3406.3508, 0.0071256855, 0.016518692, -45902.063, -45902.063, 0.0, 4.9566736, 5.001716 
7.707749e+2, 3.2186842e+2, -116071.14, -16683.217, -3270.8682, -0.00089070614, -0.048101135, -16575.688, -16575.688, 0.0, 4.950998, 5.014748 
7.8465056e+2, 1.2887864e+2, -1462411.4, -1679356.5, 10142.671, 0.025677767, -0.0006441129, -1461938.1, 215050.84, 0.0, 5.110805, 4.9658384 
7.844141e+2, 1.3383861e+2, -1427101.9, -1638223.3, 9633.548, -0.02312944, -0.0027018401, -1426663.1, 201717.7, 0.0, 5.106465, 4.965518 
7.841855e+2, 1.387999e+2, -1392262.8, -1594346.8, 9946.475, 0.0010155091, 0.0031822852, -1391774.4, 187986.45, 0.0, 5.101309, 4.9663997 
7.839559e+2, 1.4376077e+2, -1357021.3, -1552335.4, 10406.547, 0.009653448, -0.0024160817, -1356468.4, 174676.06, 0.0, 5.0967216, 4.9664493 
7.8372544e+2, 1.4872228e+2, -1320979.0, -1510280.5, 11026.711, 0.0008029454, 0.00016553926, -1320338.9, 162182.8, 0.0, 5.092509, 4.9662704 
7.8349537e+2, 1.5368354e+2, -1284377.0, -1467313.3, 11074.98, -0.005201137, 0.00038998816, -1283709.0, 150192.23, 0.0, 5.0883145, 4.9664187 
7.8326714e+2, 1.5864465e+2, -1248242.6, -1425978.4, 11616.201, -0.0000009494256, 0.0012771795, -1247486.6, 137795.78, 0.0, 5.0842724, 4.965907 
7.830389e+2, 1.6360518e+2, -1210888.1, -1383057.6, 11570.175, 0.0031612888, -0.0016278586, -1210114.1, 126555.234, 0.0, 5.080406, 4.9658437 
7.828106e+2, 1.6856563e+2, -1174367.9, -1342431.0, 12069.955, 0.00012278731, 0.0014025057, -1173505.5, 114551.48, 0.0, 5.0766716, 4.9649014 
7.825826e+2, 1.7352521e+2, -1136250.8, -1299107.5, 11789.721, -0.0017284825, -0.00045432532, -1135401.6, 104051.43, 0.0, 5.0730357, 4.964824 
7.823551e+2, 1.784843e+2, -1099554.6, -1259039.1, 12220.077, 0.00015177942, 0.0010196047, -1098623.6, 92230.24, 0.0, 5.069468, 4.9635644 
7.8212786e+2, 1.834425e+2, -1061013.3, -1215479.9, 11915.282, 0.0011830006, -0.0013572094, -1060099.5, 82164.08, 0.0, 5.065948, 4.963472 
7.819005e+2, 1.884002e+2, -1024350.3, -1175961.5, 12074.269, 0.00061439205, 0.0011146691, -1023394.7, 70283.336, 0.0, 5.06245, 4.9619513 
7.816732e+2, 1.9335678e+2, -985343.6, -1132137.3, 11574.665, -0.00006363229, -0.0011626517, -984436.56, 60666.965, 0.0, 5.059059, 4.961848 
7.8144586e+2, 1.9831277e+2, -948447.2, -1092843.8, 11545.448, 0.000058005666, 0.0013966152, -947529.9, 49004.984, 0.0, 5.0556803, 4.960148 
7.812186e+2, 2.0326753e+2, -909262.5, -1048924.6, 10899.846, 0.00046569225, -0.001082716, -908416.94, 39561.34, 0.0, 5.052323, 4.960019 
7.809908e+2, 2.0822164e+2, -872363.25, -1009738.1, 10699.813, 0.000314832, 0.0014107822, -871534.8, 27893.063, 0.0, 5.0489287, 4.9582443 
7.807631e+2, 2.1317452e+2, -833089.1, -965646.25, 9987.238, -0.00017326248, -0.0012807567, -832340.9, 18548.986, 0.0, 5.0455484, 4.9581413 
7.8053486e+2, 2.1812682e+2, -796172.5, -926443.44, 9469.154, 0.00015896342, 0.0013348748, -795487.75, 6869.563, 0.0, 5.0421104, 4.956345 
7.8030664e+2, 2.2307785e+2, -756999.06, -882285.75, 8767.967, 0.0003217526, -0.0011686218, -756388.44, -2551.2695, 0.0, 5.0386486, 4.956259 
7.800777e+2, 2.2802837e+2, -720040.2, -842848.7, 7948.5425, -0.00014538407, 0.0017111338, -719527.9, -14205.688, 0.0, 5.0351386, 4.954538 
7.7984864e+2, 2.3297758e+2, -681097.9, -798755.75, 7286.5425, -0.0003285541, -0.0013094775, -680648.3, -23828.494, 0.0, 5.031565, 4.954433 
7.796191e+2, 2.3792638e+2, -644194.06, -758965.8, 6216.898, -0.00039452472, 0.0013377992, -643858.3, -35536.617, 0.0, 5.0279164, 4.952854 
7.793892e+2, 2.42874e+2, -605527.44, -714793.9, 5553.4556, -0.000015813886, -0.0015744603, -605245.9, -45411.07, 0.0, 5.0241795, 4.9528046 
7.7915895e+2, 2.4782129e+2, -568700.5, -674559.0, 4411.3574, -0.00023049317, 0.0011647926, -568517.0, -57165.914, 0.0, 5.020373, 4.951399 
7.789284e+2, 2.5276744e+2, -530397.94, -630436.7, 3770.9463, -0.00014271642, -0.002651491, -530256.0, -67377.47, 0.0, 5.0164576, 4.9513655 
7.7869755e+2, 2.5771347e+2, -493720.63, -589760.1, 2610.8257, 0.00006257277, 0.00029328492, -493649.72, -79242.414, 0.0, 5.012471, 4.9501357 
7.784664e+2, 2.6265857e+2, -455736.1, -545481.94, 1934.8754, -0.00032261285, -0.0025642896, -455694.38, -89749.11, 0.0, 5.0083585, 4.950196 
7.782353e+2, 2.6760352e+2, -419479.25, -504872.0, 904.4924, -0.00008280432, 0.0007574195, -419469.7, -101984.79, 0.0, 5.0041766, 4.9489756 
7.78004e+2, 2.7254772e+2, -381315.38, -459419.0, 244.95473, -0.00014046094, -0.0027511157, -381314.6, -112282.65, 0.0, 4.999887, 4.9494796 
7.7777284e+2, 2.7749193e+2, -345609.56, -419121.03, -457.5895, -0.0001526401, 0.00034477166, -345606.72, -125027.25, 0.0, 4.995504, 4.9481754 
7.775417e+2, 2.824357e+2, -307565.4, -372984.9, -1132.9606, -0.00011837311, -0.0019388683, -307545.8, -135415.47, 0.0, 4.991005, 4.948961 
7.773109e+2, 2.8737935e+2, -272333.56, -332838.9, -1495.8538, -0.0003903222, 0.0016813668, -272296.6, -148614.17, 0.0, 4.98643, 4.9476194 
7.770806e+2, 2.923227e+2, -234259.4, -285928.72, -2022.6364, -0.00016801915, -0.0032323785, -234180.34, -158942.31, 0.0, 4.9817715, 4.9487 
7.7685076e+2, 2.9726666e+2, -199087.14, -245057.38, -2178.2788, -0.0010639448, 0.0043186736, -198984.16, -172197.3, 0.0, 4.977016, 4.947619 
7.7662176e+2, 3.0220944e+2, -164958.02, -205845.19, -2348.9673, 0.0000850585, -0.00024732624, -164823.52, -164823.52, 0.0, 4.9721, 4.945999 
7.7639467e+2, 3.0715564e+2, -136998.34, -148603.7, -2999.0894, 0.0022951113, -0.011958835, -136269.13, -136269.13, 0.0, 4.967174, 4.959783 
7.761681e+2, 3.1211656e+2, -142470.55, -134181.52, -3324.4004, -0.005841113, 0.01237946, -133012.97, -133012.97, 0.0, 4.9619455, 4.9672546 
7.7594453e+2, 3.1709686e+2, -114838.72, -46979.582, -6377.691, 0.0052181114, 0.008268206, -46385.383, -46385.383, 0.0, 4.957233, 5.0012555 
7.7572054e+2, 3.220923e+2, -118505.95, -25140.764, -6792.0054, -0.010360162, 0.016116213, -24649.254, -24649.254, 0.0, 4.951384, 5.0117135 
7.897575e+2, 1.2911195e+2, -1459218.1, -1675278.9, 12923.081, 0.037218954, 0.0008257797, -1458447.9, 216255.63, 0.0, 5.1114955, 4.9668093 
7.8951085e+2, 1.3407251e+2, -1425709.5, -1635529.0, 10685.79, -0.06724613, -0.00022470405, -1425166.8, 200922.36, 0.0, 5.1066427, 4.96627 
7.892832e+2, 1.3903393e+2, -1390231.9, -1591184.5, 11855.735, 0.016814377, 0.002460996, -1389534.9, 187932.8, 0.0, 5.1017003, 4.967197 
7.8904897e+2, 1.4399534e+2, -1354792.1, -1548715.6, 12805.274, 0.025162067, -0.0032779633, -1353950.3, 174895.58, 0.0, 5.0971146, 4.9673986 
7.888122e+2, 1.4895754e+2, -1319107.8, -1506983.4, 13678.706, -0.004836991, 0.0005300041, -1318117.0, 162099.17, 0.0, 5.0928307, 4.9671383 
7.885779e+2, 1.5391926e+2, -1282635.1, -1464291.3, 13864.913, -0.011079896, 0.00092508044, -1281583.0, 150008.19, 0.0, 5.088646, 4.967189 
7.8834647e+2, 1.5888071e+2, -1246464.3, -1423006.0, 14781.505, 0.0016265532, 0.0012232246, -1245235.1, 137734.05, 0.0, 5.0846515, 4.9666324 
7.881145e+2, 1.6384158e+2, -1209002.8, -1380046.8, 14949.9, 0.0051361537, -0.0018386524, -1207705.9, 126646.99, 0.0, 5.080834, 4.9665585 
7.8788227e+2, 1.688023e+2, -1172480.3, -1339549.9, 15734.873, -0.0004063507, 0.0012947257, -1171011.3, 114726.375, 0.0, 5.077146, 4.965545 
7.876506e+2, 1.7376213e+2, -1134175.1, -1296147.8, 15613.789, -0.002308505, -0.00058323925, -1132683.6, 104447.586, 0.0, 5.073585, 4.96546 
7.8741974e+2, 1.787214e+2, -1097381.3, -1256182.4, 16314.033, 0.0006698339, 0.0007896332, -1095722.6, 92807.69, 0.0, 5.0700984, 4.9641223 
7.87189e+2, 1.8367973e+2, -1058627.6, -1212579.6, 16098.519, 0.0014616596, -0.0015204832, -1056962.3, 82976.375, 0.0, 5.0666714, 4.964002 
7.8695816e+2, 1.8863751e+2, -1021873.5, -1173194.5, 16510.771, 0.00021777664, 0.0012161671, -1020092.94, 71259.43, 0.0, 5.063256, 4.962393 
7.8672755e+2, 1.9359411e+2, -982591.75, -1129262.0, 16170.206, -0.00033064507, -0.0010134488, -980830.2, 61947.605, 0.0, 5.0599723, 4.9622774 
7.864969e+2, 1.9855002e+2, -945511.7, -1090076.0, 16326.875, 0.00007038246, 0.0013173189, -943690.7, 50519.273, 0.0, 5.056709, 4.960486 
7.8626627e+2, 2.0350465e+2, -905987.06, -1045985.75, 15775.148, 0.00055948383, -0.0012016088, -904231.5, 41422.9, 0.0, 5.0534725, 4.960361 
7.860352e+2, 2.0845862e+2, -868924.9, -1006936.44, 15743.873, 0.00041447137, 0.0012099374, -867151.6, 29953.975, 0.0, 5.050183, 4.9584904 
7.8580415e+2, 2.1341127e+2, -829371.06, -962739.8, 15117.799, -0.00007125371, -0.0014053602, -827678.9, 20890.736, 0.0, 5.046911, 4.958376 
7.855725e+2, 2.1836329e+2, -792264.94, -923678.6, 14719.356, 0.00012220819, 0.0012311841, -790636.44, 9403.533, 0.0, 5.043587, 4.9564824 
7.8534085e+2, 2.2331399e+2, -752801.44, -879413.25, 14110.109, 0.00018727653, -0.0012756105, -751248.06, 275.11853, 0.0, 5.040236, 4.9563847 
7.851084e+2, 2.2826408e+2, -715690.0, -840115.9, 13366.173, -0.00026918293, 0.0015906855, -714270.4, -11258.1875, 0.0, 5.0368233, 4.954573 
7.8487587e+2, 2.3321287e+2, -676499.5, -795890.4, 12766.113, -0.0002748797, -0.0012581805, -675149.7, -20635.684, 0.0, 5.033337, 4.9544783 
7.8464264e+2, 2.3816116e+2, -639450.75, -756258.5, 11753.985, -0.00025818803, 0.0013432564, -638279.75, -32259.072, 0.0, 5.0297813, 4.952807 
7.8440905e+2, 2.4310824e+2, -600572.06, -711986.1, 11157.926, 0.00014567257, -0.0013545555, -599465.6, -41926.465, 0.0, 5.0261197, 4.952762 
7.84175e+2, 2.4805498e+2, -563661.8, -671940.6, 9997.248, -0.000072583214, 0.0016390746, -562746.5, -53685.484, 0.0, 5.0223846, 4.951262 
7.839405e+2, 2.5300053e+2, -525144.94, -627656.3, 9370.75, -0.00009925586, -0.0019704483, -524295.4, -63700.824, 0.0, 5.0185337, 4.951259 
7.837057e+2, 2.579459e+2, -488447.66, -587239.3, 8164.157, 0.00020396402, 0.00092831586, -487777.53, -75647.68, 0.0, 5.0146027, 4.9499226 
7.8347045e+2, 2.628903e+2, -450318.7, -542733.44, 7550.3364, -0.00007236434, -0.0018703287, -449705.88, -86031.445, 0.0, 5.0105095, 4.9500585 
7.8323513e+2, 2.678346e+2, -414103.56, -502252.22, 6489.64, 0.00017015493, 0.0012548234, -413628.34, -98407.67, 0.0, 5.006329, 4.948798 
7.829994e+2, 2.7277806e+2, -376167.4, -456935.1, 5703.029, 0.0001330585, -0.002380032, -375766.7, -108992.05, 0.0, 5.00196, 4.949297 
7.827638e+2, 2.7772152e+2, -340683.13, -416828.22, 4745.778, -0.00007380767, 0.00043774594, -340388.5, -122059.305, 0.0, 4.997503, 4.9479685 
7.825281e+2, 2.826646e+2, -302903.56, -370858.6, 3929.334, -0.00005850111, -0.0018952816, -302677.13, -132790.13, 0.0, 4.9929094, 4.9487457 
7.822927e+2, 2.876076e+2, -267995.22, -330875.75, 3297.3687, -0.00010835206, 0.0019653314, -267822.78, -146377.25, 0.0, 4.988207, 4.9474115 
7.8205764e+2, 2.9255012e+2, -230351.92, -284270.44, 2594.156, -0.000011513786, -0.0036287166, -230227.4, -157218.44, 0.0, 4.9834065, 4.9484553 
7.818229e+2, 2.9749316e+2, -195547.48, -243499.84, 2101.119, -0.0011278233, 0.0012926662, -195455.6, -170888.22, 0.0, 4.978493, 4.9474154 
7.8158903e+2, 3.0243543e+2, -161906.2, -204719.6, 1739.0383, 0.00045738314, -0.0008373395, -161835.69, -161835.69, 0.0, 4.9734297, 4.9457145 
7.81357e+2, 3.073817e+2, -134552.63, -147704.92, 588.4959, 0.00382718, -0.006041489, -134526.34, -134526.34, 0.0, 4.9682665, 4.9595323 
7.81125e+2, 3.123416e+2, -140684.34, -133557.36, 322.05832, -0.0067101554, 0.016660726, -133542.83, -133542.83, 0.0, 4.9627953, 4.9670043 
7.808963e+2, 3.17318e+2, -113775.92, -45756.836, -3097.4568, 0.008203962, -0.034023862, -45616.074, -45616.074, 0.0, 4.957647, 5.0014005 
7.8066784e+2, 3.2231545e+2, -113646.97, -15525.71, -3290.5088, 0.003559077, -0.01223333, -15415.485, -15415.485, 0.0, 4.951859, 5.014779 
7.9485893e+2, 1.2934822e+2, -1459861.4, -1674431.3, 11321.238, -0.0075654797, 0.00047433842, -1459265.8, 213122.11, 0.0, 5.1109347, 4.967401 
7.9461664e+2, 1.3430992e+2, -1425910.5, -1633006.5, 9565.811, -0.016149154, 0.0021109714, -1425469.6, 198293.8, 0.0, 5.1059318, 4.967486 
7.9437804e+2, 1.3927205e+2, -1389687.6, -1588675.5, 11313.698, 0.004973023, 0.0016765152, -1389046.5, 186087.61, 0.0, 5.101351, 4.968229 
7.941392e+2, 1.4423412e+2, -1354497.9, -1547170.9, 12234.886, 0.012650988, -0.0037133978, -1353724.0, 172781.73, 0.0, 5.096863, 4.968062 
7.938997e+2, 1.491969e+2, -1319035.6, -1505644.5, 13179.79, -0.0021476094, 0.0014027202, -1318109.4, 159761.27, 0.0, 5.092535, 4.9677486 
7.936613e+2, 1.5415908e+2, -1282130.5, -1462652.3, 13420.765, -0.008132694, 0.0016608719, -1281138.3, 148102.9, 0.0, 5.0884824, 4.9678392 
7.934257e+2, 1.591209e+2, -1245684.3, -1421426.8, 14483.2295, 0.0012460337, 0.0011790076, -1244498.6, 136116.83, 0.0, 5.0846353, 4.9671907 
7.931899e+2, 1.6408212e+2, -1208113.0, -1378531.8, 14595.771, 0.004692344, -0.0019478446, -1206872.0, 125123.48, 0.0, 5.08088, 4.967068 
7.92954e+2, 1.6904318e+2, -1171666.1, -1338254.9, 15444.743, -0.00035928597, 0.0013856897, -1170246.4, 113130.66, 0.0, 5.077213, 4.965968 
7.927188e+2, 1.7400326e+2, -1133335.0, -1294915.1, 15252.501, -0.002323261, -0.00041325614, -1131907.8, 102860.24, 0.0, 5.0736756, 4.9658523 
7.924845e+2, 1.7896275e+2, -1096619.3, -1255166.9, 15970.742, 0.0007840613, 0.0010048044, -1095026.5, 91138.56, 0.0, 5.0702047, 4.9644322 
7.922504e+2, 1.8392123e+2, -1057640.4, -1211564.0, 15633.395, 0.0014133789, -0.0013360516, -1056068.6, 81503.336, 0.0, 5.0668764, 4.964268 
7.920161e+2, 1.8887909e+2, -1020719.7, -1172317.9, 16025.473, -0.000115792995, 0.0014076283, -1019044.1, 69940.83, 0.0, 5.0635667, 4.9625626 
7.917822e+2, 1.9383574e+2, -981407.5, -1128406.0, 15591.065, -0.00045084572, -0.00081801304, -979772.06, 60637.848, 0.0, 5.060299, 4.9624357 
7.9154825e+2, 1.987916e+2, -944537.1, -1089564.1, 15713.759, 0.00021455812, 0.0013085145, -942854.06, 48988.4, 0.0, 5.0570145, 4.9605365 
7.9131436e+2, 2.0374617e+2, -904989.25, -1045485.7, 15036.954, 0.0005742371, -0.0012115422, -903397.9, 39889.67, 0.0, 5.0537863, 4.960407 
7.9108e+2, 2.0870002e+2, -868035.56, -1006748.8, 14907.739, 0.00039244475, 0.0012015942, -866451.5, 28288.367, 0.0, 5.050508, 4.958425 
7.908457e+2, 2.136525e+2, -828500.5, -962618.94, 14135.523, -0.000029700797, -0.0012652107, -827026.9, 19178.537, 0.0, 5.0472374, 4.95829 
7.9061073e+2, 2.186043e+2, -791512.06, -923846.7, 13600.885, 0.00008082171, 0.0014022808, -790128.7, 7549.3115, 0.0, 5.0439153, 4.9563 
7.9037565e+2, 2.235547e+2, -752090.5, -879656.5, 12844.331, 0.000008923523, -0.0011275822, -750810.1, -1646.0664, 0.0, 5.040556, 4.956183 
7.901398e+2, 2.2850446e+2, -715132.56, -840684.4, 11924.032, -0.0004227713, 0.0016485353, -714010.1, -13353.765, 0.0, 5.037132, 4.9542665 
7.899037e+2, 2.3345292e+2, -675966.7, -796455.75, 11148.654, -0.00023128038, -0.00095695956, -674943.8, -22782.217, 0.0, 5.033629, 4.9541826 
7.896669e+2, 2.3840082e+2, -639065.44, -757153.25, 9919.016, -0.00016677749, 0.0017404918, -638238.06, -34565.883, 0.0, 5.0300646, 4.9524064 
7.8942966e+2, 2.4334744e+2, -600277.56, -712994.25, 9163.757, 0.00018500237, -0.0008384767, -599537.4, -44342.15, 0.0, 5.0263796, 4.9523344 
7.891918e+2, 2.482937e+2, -563529.06, -673225.9, 7782.906, 0.000068552035, 0.002453275, -562979.6, -56257.66, 0.0, 5.022616, 4.9507546 
7.889534e+2, 2.5323877e+2, -525125.7, -628983.44, 6997.148, -0.00024923365, -0.00056995964, -524656.44, -66395.91, 0.0, 5.018717, 4.950761 
7.8871465e+2, 2.5818357e+2, -488630.34, -588890.9, 5533.416, 0.00011389712, 0.0025809417, -488325.88, -78524.56, 0.0, 5.0147486, 4.9493356 
7.8847533e+2, 2.6312745e+2, -450507.13, -544187.06, 4737.4717, 0.0002598477, -0.0002935494, -450268.16, -88916.67, 0.0, 5.010607, 4.949565 
7.882358e+2, 2.6807112e+2, -414480.03, -504011.9, 3410.181, 0.0005502491, 0.0024388833, -414350.34, -101446.95, 0.0, 5.00639, 4.9482183 
7.8799576e+2, 2.7301404e+2, -376458.94, -458675.38, 2592.0632, 0.00021506113, -0.0008338112, -376377.28, -111914.695, 0.0, 5.0020514, 4.94871 
7.8775567e+2, 2.779569e+2, -340833.22, -418551.13, 1613.3503, -0.0002975585, 0.002281702, -340799.75, -124777.48, 0.0, 4.997649, 4.947367 
7.8751546e+2, 2.8289926e+2, -302859.88, -372412.5, 851.5992, 0.00013782931, -0.0012695607, -302849.44, -135262.44, 0.0, 4.993107, 4.948182 
7.872755e+2, 2.878415e+2, -267777.97, -332392.84, 152.96254, 0.00082589214, 0.0008785731, -267777.6, -148624.64, 0.0, 4.988467, 4.946836 
7.870356e+2, 2.927835e+2, -230087.92, -285879.22, -477.28058, -0.00007211783, -0.0032489193, -230083.84, -159362.58, 0.0, 4.9837055, 4.9478283 
7.8679585e+2, 2.9772633e+2, -195106.17, -245008.39, -1016.39636, -0.0033309648, 0.0058057597, -195085.48, -172803.69, 0.0, 4.978844, 4.9468045 
7.865572e+2, 3.0266756e+2, -161358.88, -206206.2, -1306.0319, 0.00009797895, 0.000008173822, -161320.88, -161320.88, 0.0, 4.9738216, 4.945095 
7.863203e+2, 3.0761236e+2, -133682.17, -149083.22, -2437.0068, 0.0056085633, -0.011974717, -133305.73, -133305.73, 0.0, 4.968768, 4.9589067 
7.860828e+2, 3.1257254e+2, -138534.34, -132148.42, -2897.3806, -0.005888682, 0.013836275, -131029.8, -131029.8, 0.0, 4.963321, 4.9673843 
7.8584784e+2, 3.17552e+2, -111447.04, -44849.176, -6051.0327, -0.0026056087, 0.0037841543, -44303.848, -44303.848, 0.0, 4.958316, 5.0015707 
7.8561467e+2, 3.2254922e+2, -115650.0, -24670.545, -6392.536, -0.00082491606, 0.036368594, -24223.578, -24223.578, 0.0, 4.952564, 5.011375 
7.9996383e+2, 1.2959103e+2, -1457154.5, -1670521.9, 13100.598, -0.011380762, 0.0008848622, -1456353.3, 213655.4, 0.0, 5.1114597, 4.968385 
7.997221e+2, 1.3455375e+2, -1424503.8, -1628490.6, 11901.395, 0.037779607, 0.0029517321, -1423811.8, 197562.83, 0.0, 5.1057296, 4.969025 
7.9947144e+2, 1.395168e+2, -1387659.1, -1584396.4, 13799.509, -0.016860826, 0.00045434368, -1386695.9, 186039.2, 0.0, 5.101513, 4.9695053 
7.992286e+2, 1.4447962e+2, -1353018.4, -1543949.9, 14669.854, -0.004154566, -0.004197831, -1351897.8, 172201.92, 0.0, 5.097016, 4.9689865 
7.989873e+2, 1.4944302e+2, -1317694.3, -1502520.3, 15922.378, 0.004957015, 0.0019232914, -1316332.5, 159126.45, 0.0, 5.092672, 4.968641 
7.9874474e+2, 1.5440571e+2, -1280657.6, -1459296.3, 16445.605, -0.0025826418, 0.0017760735, -1279156.3, 147668.23, 0.0, 5.08864, 4.968798 
7.985046e+2, 1.5936798e+2, -1244258.9, -1418247.3, 17802.688, -0.00060989975, 0.00062164105, -1242456.0, 135738.05, 0.0, 5.084831, 4.968066 
7.982651e+2, 1.6432965e+2, -1206600.1, -1375428.0, 18052.383, 0.0032699339, -0.0024528706, -1204691.4, 124878.09, 0.0, 5.0811415, 4.9678855 
7.980259e+2, 1.6929111e+2, -1170095.9, -1335263.6, 19190.453, 0.00039601847, 0.0011152702, -1167895.5, 113051.64, 0.0, 5.077545, 4.966707 
7.977872e+2, 1.7425153e+2, -1131513.6, -1291830.0, 19173.4, -0.0019378716, -0.00054258615, -1129252.4, 103082.67, 0.0, 5.0741096, 4.966575 
7.975494e+2, 1.7921126e+2, -1094699.5, -1252227.1, 20184.1, 0.00037041696, 0.0010092526, -1092154.5, 91575.17, 0.0, 5.070731, 4.9650574 
7.97312e+2, 1.8416992e+2, -1055470.6, -1208551.9, 20006.701, 0.0011328057, -0.0013589066, -1052899.1, 82235.734, 0.0, 5.0675077, 4.9648695 
7.9707456e+2, 1.8912785e+2, -1018345.56, -1169379.8, 20645.193, -0.0001095276, 0.0011850165, -1015574.4, 70972.75, 0.0, 5.0643196, 4.963078 
7.968375e+2, 1.9408457e+2, -978685.94, -1125300.1, 20302.547, -0.00030390683, -0.001046434, -975926.44, 62044.934, 0.0, 5.0611796, 4.9629483 
7.9660034e+2, 1.9904043e+2, -941626.1, -1086551.4, 20640.662, 0.0005104736, 0.0009871973, -938743.75, 50660.22, 0.0, 5.0580115, 4.96096 
7.963633e+2, 2.0399494e+2, -901729.1, -1042375.56, 20086.506, 0.0006275142, -0.0014673903, -898916.7, 41932.895, 0.0, 5.0549235, 4.9608016 
7.9612565e+2, 2.0894866e+2, -864511.8, -1003761.6, 20120.959, 0.00014579078, 0.0011595741, -861662.75, 30640.39, 0.0, 5.051791, 4.9587135 
7.958881e+2, 2.1390097e+2, -824625.9, -959495.0, 19450.947, -0.0001195765, -0.0011624679, -821876.7, 21893.914, 0.0, 5.0486536, 4.9585657 
7.956499e+2, 2.1885246e+2, -787414.1, -920848.75, 19057.908, 0.00008566262, 0.0014336999, -784745.56, 10500.399, 0.0, 5.0454607, 4.956474 
7.954115e+2, 2.2380254e+2, -747650.8, -876521.2, 18377.814, -0.000012971862, -0.0011928971, -745081.25, 1654.0748, 0.0, 5.04223, 4.956349 
7.951722e+2, 2.287519e+2, -710487.5, -837734.56, 17556.746, -0.00036886116, 0.0014920459, -708109.56, -9877.898, 0.0, 5.0389338, 4.954314 
7.949327e+2, 2.3369986e+2, -671009.3, -793365.5, 16869.707, -0.00011139528, -0.001092039, -668726.0, -18984.521, 0.0, 5.035546, 4.954229 
7.9469234e+2, 2.3864722e+2, -633903.25, -754188.8, 15686.302, -0.00013868103, 0.0014592786, -631891.25, -30633.898, 0.0, 5.032097, 4.95236 
7.944515e+2, 2.4359326e+2, -594844.6, -709956.56, 15013.347, 0.0000818134, -0.0012262103, -592918.75, -40132.52, 0.0, 5.028525, 4.9522653 
7.942098e+2, 2.4853888e+2, -557857.94, -670207.0, 13638.202, 0.00010817551, 0.0018675065, -556226.1, -51906.82, 0.0, 5.0248675, 4.9506373 
7.939676e+2, 2.5348327e+2, -519301.75, -625922.6, 12922.262, -0.000014136962, -0.0010843824, -517757.94, -61893.508, 0.0, 5.0210295, 4.9506354 
7.937247e+2, 2.5842738e+2, -482701.25, -585919.44, 11459.254, 0.00021112993, 0.0019224725, -481444.34, -74032.055, 0.0, 5.01712, 4.9491606 
7.9348135e+2, 2.633705e+2, -444522.88, -541261.6, 10662.746, 0.00026658637, -0.00060433295, -443361.53, -84391.97, 0.0, 5.0130115, 4.9493637 
7.9323745e+2, 2.6831344e+2, -408418.8, -501074.63, 9245.565, 0.00042572315, 0.002449525, -407505.25, -96976.62, 0.0, 5.008819, 4.948016 
7.9299307e+2, 2.7325562e+2, -370550.4, -455891.78, 8313.625, 0.0000028979907, -0.000585076, -369748.06, -107652.75, 0.0, 5.0044374, 4.9484806 
7.9274845e+2, 2.7819777e+2, -335161.1, -415964.47, 7009.4526, -0.0003268764, 0.0027809422, -334557.53, -120895.14, 0.0, 4.9999514, 4.947119 
7.9250365e+2, 2.8313932e+2, -297475.8, -369935.3, 6020.4536, 0.00047713824, -0.0006464543, -296979.0, -131744.23, 0.0, 4.995291, 4.947958 
7.9225904e+2, 2.880808e+2, -262864.38, -330249.03, 4952.1475, 0.0014003167, 0.0015331715, -262502.4, -145694.31, 0.0, 4.9904885, 4.946575 
7.9201424e+2, 2.9302207e+2, -225607.03, -283932.06, 4196.8784, 0.0003166715, -0.0022424872, -225306.58, -156922.98, 0.0, 4.9855657, 4.9475756 
7.9176944e+2, 2.979642e+2, -191070.38, -243431.97, 3311.7454, -0.0034898627, 0.007417277, -190861.75, -170911.06, 0.0, 4.98056, 4.946495 
7.915258e+2, 3.0290455e+2, -157761.64, -204660.45, 2970.4958, 0.0004926139, 0.00014073485, -157574.25, -157574.25, 0.0, 4.975339, 4.944868 
7.912838e+2, 3.0784795e+2, -131231.69, -148423.52, 1494.6885, 0.0072433027, -0.019437227, -131102.7, -131102.7, 0.0, 4.969931, 4.958532 
7.910409e+2, 3.1280848e+2, -135644.63, -130104.38, 762.71295, -0.0050848997, 0.01555258, -130001.3, -130001.3, 0.0, 4.9644065, 4.9675317 
7.908001e+2, 3.177877e+2, -111631.695, -48548.965, -3211.2627, -0.0047118254, -0.0032459109, -48385.914, -48385.914, 0.0, 4.9591513, 4.9997253 
7.905621e+2, 3.2277873e+2, -113610.98, -22370.252, -2899.0444, 0.0015277222, -0.03641489, -22278.232, -22278.232, 0.0, 4.9531975, 5.0116873 
8.050694e+2, 1.2983964e+2, -1457944.4, -1669043.9, 9245.761, -0.007082967, 0.0008717311, -1457540.3, 210031.55, 0.0, 5.1107006, 4.969279 
8.048193e+2, 1.3480256e+2, -1425519.3, -1627460.9, 12388.963, 0.016523682, -0.00020920542, -1424762.0, 194173.28, 0.0, 5.104971, 4.9697704 
8.0456746e+2, 1.3976653e+2, -1387751.0, -1583047.9, 13866.175, -0.010984581, 0.0017121339, -1386771.4, 183516.5, 0.0, 5.1011252, 4.9701705 
8.043202e+2, 1.4472973e+2, -1352765.3, -1542586.0, 14223.555, 0.0008239313, -0.003184036, -1351705.4, 169943.17, 0.0, 5.096785, 4.9695807 
8.0407387e+2, 1.4969341e+2, -1317409.1, -1501035.5, 15644.202, 0.0034958504, 0.0015977818, -1316085.9, 156919.03, 0.0, 5.0924454, 4.969268 
8.0382735e+2, 1.5465663e+2, -1280021.9, -1457466.4, 16249.228, -0.0038544482, 0.0016069381, -1278546.3, 145819.1, 0.0, 5.0885, 4.9695015 
8.035837e+2, 1.5961944e+2, -1243546.8, -1416563.0, 17657.293, -0.00014078207, 0.00079905364, -1241763.1, 133966.75, 0.0, 5.0847683, 4.96868 
8.033405e+2, 1.645815e+2, -1205753.0, -1373821.3, 17805.834, 0.0036380175, -0.0021895207, -1203887.3, 123213.93, 0.0, 5.0811563, 4.9684386 
8.030977e+2, 1.6954333e+2, -1169153.5, -1333755.4, 18992.203, 0.00022255958, 0.0014384504, -1166990.5, 111484.914, 0.0, 5.0776324, 4.9671903 
8.028556e+2, 1.7450404e+2, -1130229.3, -1290215.5, 18938.1, -0.0021827677, -0.00031140863, -1128018.1, 101842.266, 0.0, 5.074327, 4.9670353 
8.026146e+2, 1.7946404e+2, -1093165.1, -1250695.6, 19941.111, 0.00027173528, 0.0011269633, -1090680.0, 90572.52, 0.0, 5.0710855, 4.9654236 
8.0237395e+2, 1.844229e+2, -1054066.3, -1207144.3, 19671.451, 0.0011635239, -0.0012394557, -1051578.8, 81076.914, 0.0, 5.0678267, 4.965213 
8.021333e+2, 1.8938097e+2, -1017279.9, -1168359.3, 20337.398, -0.00006392501, 0.001140728, -1014590.06, 69476.555, 0.0, 5.06457, 4.9633217 
8.0189306e+2, 1.9433777e+2, -977546.9, -1124315.5, 19879.135, -0.0002873034, -0.0010488561, -974902.0, 60587.934, 0.0, 5.061468, 4.963165 
8.016528e+2, 1.9929366e+2, -940504.2, -1085831.4, 20175.75, 0.00059909787, 0.0010118687, -937755.2, 49166.973, 0.0, 5.0583477, 4.961063 
8.014126e+2, 2.0424818e+2, -900594.06, -1041720.3, 19496.432, 0.0006605359, -0.0013289955, -897950.2, 40417.773, 0.0, 5.0552745, 4.960879 
8.0117184e+2, 2.092018e+2, -863513.0, -1003439.8, 19419.182, -0.000027961338, 0.0013630128, -860867.94, 28954.508, 0.0, 5.052147, 4.958677 
8.0093116e+2, 2.1415395e+2, -823644.8, -959226.3, 18608.258, -0.0002465489, -0.00088971684, -821137.25, 20154.11, 0.0, 5.0490084, 4.9585137 
8.006897e+2, 2.1910524e+2, -786580.2, -920924.3, 18068.719, 0.00011714662, 0.0016843678, -784192.44, 8576.367, 0.0, 5.0458126, 4.956307 
8.00448e+2, 2.2405502e+2, -746844.1, -876646.06, 17237.545, -0.000056028148, -0.0010582072, -744594.0, -333.1481, 0.0, 5.042575, 4.956171 
8.0020547e+2, 2.2900404e+2, -709828.4, -838226.5, 16232.128, -0.0003602265, 0.0014309156, -707808.1, -12047.6875, 0.0, 5.0392785, 4.9540143 
7.999625e+2, 2.3395164e+2, -670434.94, -793966.7, 15387.314, -0.00010795877, -0.0010740419, -668547.1, -21273.107, 0.0, 5.0358686, 4.9539037 
7.9971856e+2, 2.3889856e+2, -633495.6, -755089.25, 14004.363, -0.00008972071, 0.001372625, -631903.56, -33109.344, 0.0, 5.032394, 4.9519477 
7.9947406e+2, 2.438441e+2, -594581.75, -711015.4, 13136.561, -0.00021469052, -0.0015478187, -593118.06, -42790.027, 0.0, 5.0287824, 4.9518185 
7.992287e+2, 2.4878916e+2, -557721.56, -671472.2, 11513.255, -0.0002222839, 0.0011476616, -556568.0, -54701.47, 0.0, 5.0250964, 4.950139 
7.989827e+2, 2.5373298e+2, -519305.9, -627345.06, 10602.645, 0.0000801052, -0.0018308633, -518275.25, -64858.06, 0.0, 5.021221, 4.950101 
7.9873586e+2, 2.586764e+2, -482838.38, -587532.2, 8855.025, 0.00019067516, 0.0006245542, -482094.72, -77123.484, 0.0, 5.0172744, 4.948582 
7.984882e+2, 2.6361895e+2, -444810.56, -542999.94, 7863.9688, -0.00022705403, -0.0017358665, -444184.75, -87649.95, 0.0, 5.013117, 4.948765 
7.982401e+2, 2.685613e+2, -408911.84, -503169.94, 6196.576, -0.00036971207, 0.0019253397, -408506.22, -100406.3, 0.0, 5.0088916, 4.9473143 
7.979914e+2, 2.735028e+2, -370872.97, -457795.8, 5226.9453, -0.00053026964, -0.0009978804, -370559.78, -110886.375, 0.0, 5.004543, 4.947833 
7.9774237e+2, 2.784442e+2, -335410.2, -418011.13, 3858.3381, -0.00041585192, 0.0022731607, -335230.34, -123982.61, 0.0, 5.000109, 4.9464016 
7.97493e+2, 2.833852e+2, -297523.8, -371798.06, 2885.4783, 0.00014406376, 0.00008084335, -297411.88, -134585.61, 0.0, 4.995503, 4.947279 
7.972434e+2, 2.8832617e+2, -262685.25, -332021.78, 1772.9608, 0.00021443538, 0.0042400495, -262639.94, -148235.36, 0.0, 4.990775, 4.9458976 
7.96994e+2, 2.932666e+2, -225242.34, -285579.84, 1075.733, 0.00053482933, -0.0008368871, -225223.16, -159234.92, 0.0, 4.9859076, 4.9469194 
7.9674447e+2, 2.982077e+2, -190427.55, -244788.06, 138.07388, -0.0010302897, 0.005393183, -190427.19, -172861.86, 0.0, 4.980961, 4.9459233 
7.964954e+2, 3.031476e+2, -156899.94, -205530.58, -219.08249, 0.0009077835, -0.00083027664, -156898.95, -156898.95, 0.0, 4.9757447, 4.944468 
7.962476e+2, 3.080915e+2, -129825.26, -148583.53, -1616.4064, 0.0030450549, -0.010473422, -129686.99, -129686.99, 0.0, 4.970428, 4.9583507 
7.959997e+2, 3.1305096e+2, -134373.3, -130895.51, -2368.8274, -0.005755143, 0.01758917, -129695.85, -129695.85, 0.0, 4.9649606, 4.9671116 
7.957547e+2, 3.180288e+2, -107411.47, -44384.44, -6498.6646, 0.0038088935, 0.00040272696, -43721.344, -43721.344, 0.0, 4.960035, 5.0009956 
7.955107e+2, 3.2302377e+2, -111935.64, -24160.07, -6336.2236, 0.0056632967, 0.019472763, -23705.04, -23705.04, 0.0, 4.95409, 5.0109186 
8.101734e+2, 1.3009462e+2, -1456813.6, -1665201.6, 8775.677, -0.005462911, -0.002166287, -1456444.8, 208627.56, 0.0, 5.110528, 4.9705725 
8.099147e+2, 1.350581e+2, -1423678.6, -1624628.8, 14799.465, -0.015356811, -0.0027097873, -1422594.6, 193835.67, 0.0, 5.1053405, 4.970474 
8.096637e+2, 1.4002287e+2, -1387485.3, -1580823.8, 16277.994, 0.004004691, 0.003111952, -1386124.3, 181651.69, 0.0, 5.1009426, 4.9709206 
8.094116e+2, 1.4498648e+2, -1352134.5, -1539693.5, 16502.162, 0.010091184, -0.0028102407, -1350693.6, 168439.03, 0.0, 5.096638, 4.970533 
8.0915964e+2, 1.4995053e+2, -1316548.4, -1498018.8, 18421.008, -0.0016976652, 0.0004905567, -1314697.4, 155787.67, 0.0, 5.0924067, 4.9702005 
8.0890936e+2, 1.5491438e+2, -1278983.4, -1454226.8, 19308.105, -0.00711716, 0.0010287148, -1276881.3, 144957.98, 0.0, 5.0885034, 4.9704885 
8.0866265e+2, 1.5987778e+2, -1242605.1, -1413502.8, 21011.422, 0.001817569, 0.0007661876, -1240059.8, 133138.25, 0.0, 5.084791, 4.9695897 
8.0841583e+2, 1.6484034e+2, -1204645.0, -1370747.5, 21314.037, 0.0048337625, -0.0021596835, -1201953.6, 122611.2, 0.0, 5.081263, 4.969311 
8.081695e+2, 1.6980255e+2, -1167928.0, -1330732.4, 22849.72, -0.00065045204, 0.0015206743, -1164781.9, 111153.14, 0.0, 5.077824, 4.9679985 
8.0792415e+2, 1.7476363e+2, -1128725.3, -1287054.9, 23026.494, -0.0027029547, -0.0003199159, -1125444.4, 101871.95, 0.0, 5.074625, 4.9678397 
8.0768013e+2, 1.7972392e+2, -1091491.1, -1247572.9, 24248.05, 0.0006961362, 0.000897076, -1087810.9, 90894.9, 0.0, 5.071489, 4.966159 
8.074363e+2, 1.8468305e+2, -1052054.8, -1203907.3, 24068.787, 0.0015829006, -0.0014425865, -1048331.06, 81775.03, 0.0, 5.068366, 4.9659233 
8.0719244e+2, 1.8964133e+2, -1015055.0, -1165190.6, 25015.922, 0.00006322567, 0.00091230223, -1010996.5, 70518.51, 0.0, 5.0652337, 4.9639463 
8.0694914e+2, 1.9459829e+2, -974953.06, -1121032.4, 24744.508, -0.00046754687, -0.0011946931, -970875.4, 62061.516, 0.0, 5.0622835, 4.963758 
8.067059e+2, 1.9955425e+2, -937624.8, -1082649.6, 25250.836, 0.00024653712, 0.0010935294, -933354.06, 51014.445, 0.0, 5.0593224, 4.9615455 
8.0646265e+2, 2.0450874e+2, -897319.3, -1038422.75, 24705.182, 0.00049800513, -0.0010435941, -893118.8, 42695.617, 0.0, 5.0564084, 4.9613285 
8.0621886e+2, 2.0946226e+2, -859949.4, -1000225.94, 24790.297, -0.000032839816, 0.0015496017, -855697.2, 31572.936, 0.0, 5.053433, 4.9590273 
8.059751e+2, 2.1441422e+2, -819660.6, -955842.8, 24098.166, -0.0002543775, -0.0009238851, -815522.06, 23218.766, 0.0, 5.050454, 4.958852 
8.0573046e+2, 2.1936527e+2, -782306.4, -917665.9, 23715.816, 0.00021496293, 0.001495124, -778271.44, 11949.227, 0.0, 5.0474143, 4.9565334 
8.0548567e+2, 2.2431475e+2, -742185.56, -873220.75, 23001.537, 0.00019819906, -0.0012684759, -738265.25, 3450.3752, 0.0, 5.044321, 4.9563913 
8.052398e+2, 2.2926337e+2, -704906.8, -834950.06, 22100.01, -0.00017928302, 0.0009652515, -701253.7, -8034.716, 0.0, 5.0411744, 4.954119 
8.049935e+2, 2.3421052e+2, -665135.1, -790521.4, 21361.428, 0.00015872726, -0.0013342672, -661595.8, -16858.932, 0.0, 5.037906, 4.954007 
8.047461e+2, 2.3915693e+2, -627952.1, -751791.4, 20037.986, 0.00030464228, 0.0012643369, -624790.56, -28528.514, 0.0, 5.0345674, 4.9519424 
8.044981e+2, 2.4410191e+2, -588730.6, -707532.94, 19286.178, 0.00022388258, -0.0016594366, -585678.2, -37876.88, 0.0, 5.031058, 4.951834 
8.042489e+2, 2.4904633e+2, -551675.25, -668201.0, 17683.342, -0.0000063784146, 0.0007806023, -549050.8, -49704.85, 0.0, 5.027497, 4.950032 
8.03999e+2, 2.539895e+2, -513020.84, -623967.56, 16872.236, 0.0003519434, -0.0018230216, -510511.75, -59608.766, 0.0, 5.023713, 4.949993 
8.0374825e+2, 2.5893226e+2, -476371.5, -584198.75, 15110.439, 0.0005938196, 0.00074972963, -474294.0, -71829.984, 0.0, 5.019851, 4.948426 
8.034965e+2, 2.638739e+2, -438091.88, -539571.3, 14193.228, -0.00021122453, -0.0023105093, -436144.16, -82108.43, 0.0, 5.0157905, 4.9486017 
8.03244e+2, 2.6881543e+2, -402071.56, -499945.25, 12496.501, -0.00043232896, 0.001095878, -400501.22, -94892.14, 0.0, 5.01165, 4.947055 
8.029909e+2, 2.737561e+2, -364206.03, -454617.9, 11411.91, -0.00031146873, -0.0017590215, -362787.88, -105596.98, 0.0, 5.007228, 4.947598 
8.027373e+2, 2.786966e+2, -329119.22, -415158.16, 9712.659, -0.00015467084, 0.0014010353, -328036.44, -119262.47, 0.0, 5.0026693, 4.9461174 
8.024832e+2, 2.836367e+2, -291601.6, -369138.38, 8573.282, 0.00022316632, -0.0006825673, -290664.94, -130303.664, 0.0, 4.9979286, 4.9469943 
8.022288e+2, 2.8857684e+2, -257137.31, -329689.1, 7116.3296, 0.000012173966, 0.00397135, -256445.89, -144497.92, 0.0, 4.9930744, 4.945567 
8.019744e+2, 2.9351643e+2, -220101.02, -283289.44, 6203.106, 0.00076932606, -0.0011113451, -219497.83, -155957.56, 0.0, 4.9880238, 4.946664 
8.017199e+2, 2.984566e+2, -186002.3, -243022.61, 4840.6455, 0.00042654102, 0.0040414254, -185594.28, -170467.73, 0.0, 4.982838, 4.9456024 
8.0146545e+2, 3.0339587e+2, -152564.55, -203307.48, 4196.971, 0.0012820762, -0.0007098941, -152219.75, -152219.75, 0.0, 4.977483, 4.9443755 
8.012121e+2, 3.083393e+2, -126381.74, -147348.1, 2188.8032, 0.0011669967, -0.009581872, -126155.67, -126155.67, 0.0, 4.971947, 4.958012 
8.0095893e+2, 3.13298e+2, -131153.47, -129668.62, 1476.9764, -0.005284423, 0.017765215, -128757.97, -128757.97, 0.0, 4.9663744, 4.9668097 
8.007089e+2, 3.182735e+2, -107811.95, -48205.477, -2873.2344, 0.008204112, -0.020927172, -48067.297, -48067.297, 0.0, 4.9608107, 4.9991317 
8.004574e+2, 3.232678e+2, -109932.4, -20414.598, -2967.4219, -0.008671609, -0.013491306, -20316.34, -20316.34, 0.0, 4.9544635, 5.0118713 
8.152819e+2, 1.303549e+2, -1456938.0, -1663326.3, 9758.003, 0.04428509, -0.00082182995, -1456477.6, 206044.64, 0.0, 5.109971, 4.971515 
8.150107e+2, 1.3531855e+2, -1423734.8, -1624389.0, 13776.349, -0.045069408, -0.000028289576, -1422793.3, 191084.94, 0.0, 5.1051903, 4.970663 
8.147594e+2, 1.4028305e+2, -1388295.8, -1580088.3, 15500.277, 0.017313547, 0.0026392657, -1387051.1, 178175.28, 0.0, 5.100361, 4.9714723 
8.1450224e+2, 1.4524737e+2, -1351893.8, -1537550.3, 16075.482, 0.016088974, -0.0029442306, -1350512.1, 166063.81, 0.0, 5.096235, 4.9714713 
8.142453e+2, 1.5021217e+2, -1315801.9, -1496011.3, 18180.842, -0.0063801007, 0.001082049, -1313986.0, 153934.92, 0.0, 5.0922813, 4.970955 
8.139915e+2, 1.551765e+2, -1278257.8, -1452451.6, 19038.787, -0.009062249, 0.0014340455, -1276201.1, 143069.33, 0.0, 5.0884194, 4.9711466 
8.137415e+2, 1.601403e+2, -1241802.5, -1411723.8, 20795.348, 0.0035718542, 0.0007886057, -1239294.5, 131330.61, 0.0, 5.0847545, 4.9702225 
8.134911e+2, 1.6510338e+2, -1203562.1, -1368761.8, 21094.402, 0.0055054743, -0.0020196668, -1200911.1, 121075.945, 0.0, 5.08131, 4.969976 
8.132412e+2, 1.7006606e+2, -1166803.5, -1328897.0, 22728.014, -0.0015088941, 0.0018115283, -1163677.0, 109675.914, 0.0, 5.0779314, 4.96858 
8.129927e+2, 1.7502755e+2, -1127727.4, -1285328.1, 22904.15, -0.003086388, -0.000092344926, -1124466.3, 100263.95, 0.0, 5.074698, 4.9684024 
8.127457e+2, 1.7998816e+2, -1090775.5, -1246203.5, 24162.123, 0.0011331296, 0.0008932313, -1087106.0, 89010.22, 0.0, 5.071518, 4.9666176 
8.124986e+2, 1.8494758e+2, -1051060.8, -1202479.3, 23899.906, 0.0017874343, -0.0013395745, -1047377.94, 80135.78, 0.0, 5.0685077, 4.966351 
8.1225175e+2, 1.8990609e+2, -1013844.3, -1163891.8, 24845.523, -0.000022121127, 0.0011478118, -1009837.3, 69083.02, 0.0, 5.0655036, 4.96427 
8.120055e+2, 1.948632e+2, -973652.44, -1119831.1, 24484.436, -0.0006921937, -0.0008969226, -969660.4, 60680.29, 0.0, 5.0626082, 4.964027 
8.117593e+2, 1.9981924e+2, -936371.8, -1081687.9, 24912.293, -0.000048334237, 0.0013307588, -932219.6, 49551.938, 0.0, 5.0596747, 4.9617195 
8.115132e+2, 2.0477377e+2, -896131.6, -1037604.94, 24282.594, 0.00034720727, -0.0008014113, -892079.75, 41137.47, 0.0, 5.056761, 4.9614563 
8.112664e+2, 2.0972724e+2, -858885.75, -999705.5, 24258.846, 0.00006122615, 0.0018474716, -854823.9, 29849.459, 0.0, 5.0537868, 4.9590545 
8.110196e+2, 2.1467909e+2, -818579.9, -955392.2, 23439.924, -0.00026725917, -0.0008086059, -814675.4, 21469.826, 0.0, 5.050824, 4.958851 
8.107719e+2, 2.1962994e+2, -781318.5, -917542.25, 22898.951, 0.00016174794, 0.001362817, -777572.25, 10054.565, 0.0, 5.0478015, 4.9564157 
8.10524e+2, 2.2457922e+2, -741246.94, -873180.56, 22020.371, 0.00030129158, -0.0011839739, -737668.7, 1455.034, 0.0, 5.0446987, 4.956252 
8.102749e+2, 2.2952755e+2, -704128.4, -835270.4, 20917.533, 0.0000029762377, 0.00097512966, -700872.75, -10242.8545, 0.0, 5.041542, 4.953867 
8.1002533e+2, 2.3447435e+2, -664441.75, -790962.4, 19980.74, 0.00028291042, -0.001203919, -661361.3, -19210.068, 0.0, 5.038254, 4.953724 
8.0977446e+2, 2.3942037e+2, -627429.94, -752594.5, 18423.783, 0.00039358105, 0.0013723093, -624774.4, -31093.875, 0.0, 5.0348988, 4.951545 
8.0952287e+2, 2.443649e+2, -588284.0, -708366.4, 17468.217, 0.00052297313, -0.0013796785, -585794.56, -40570.594, 0.0, 5.031357, 4.951443 
8.0927014e+2, 2.4930881e+2, -551433.56, -669423.7, 15580.936, 0.00022699435, 0.0009273291, -549410.75, -52637.3, 0.0, 5.0277658, 4.9495287 
8.090164e+2, 2.5425145e+2, -512950.16, -625371.56, 14555.717, 0.0004002123, -0.0011790844, -511096.13, -62760.715, 0.0, 5.023934, 4.94945 
8.0876166e+2, 2.5919366e+2, -476469.63, -585849.8, 12495.151, 0.00072043063, 0.001881606, -475060.38, -75158.664, 0.0, 5.0200305, 4.9478188 
8.085058e+2, 2.6413462e+2, -438381.4, -541391.4, 11398.013, -0.00030932887, -0.0021900942, -437135.3, -85655.09, 0.0, 5.015909, 4.9479666 
8.082491e+2, 2.6907533e+2, -402579.84, -502079.88, 9405.898, -0.00044006636, 0.00045321797, -401698.5, -98637.875, 0.0, 5.011718, 4.946346 
8.079916e+2, 2.7401525e+2, -364580.72, -456646.53, 8257.771, -0.00017814066, -0.0025908577, -363845.9, -109196.47, 0.0, 5.0073304, 4.946911 
8.077335e+2, 2.78955e+2, -329341.63, -417272.6, 6511.317, -0.00056025235, 0.00017391414, -328862.1, -122622.31, 0.0, 5.002846, 4.9453683 
8.074747e+2, 2.8389424e+2, -291612.38, -371154.0, 5424.471, 0.00006568149, -0.0030751831, -291244.13, -133408.28, 0.0, 4.9981785, 4.9462476 
8.072155e+2, 2.888335e+2, -256944.63, -331645.44, 3908.1365, 0.0001590055, 0.0004586863, -256740.72, -147309.25, 0.0, 4.9933953, 4.944815 
8.06956e+2, 2.9377237e+2, -219714.55, -284973.25, 3016.4739, 0.000057608653, -0.0036809046, -219575.4, -158544.89, 0.0, 4.9883785, 4.9459934 
8.0669624e+2, 2.9871204e+2, -185387.34, -244589.16, 1635.5474, -0.0015616517, 0.0036663844, -185342.2, -172720.27, 0.0, 4.9832644, 4.944946 
8.0643666e+2, 3.0365068e+2, -151920.38, -204945.5, 1032.4286, 0.0013537704, -0.00029356344, -151900.28, -151900.28, 0.0, 4.9779296, 4.94369 
8.061782e+2, 3.085933e+2, -124940.04, -147850.45, -971.52185, 0.004503383, -0.0093912445, -124898.914, -124898.914, 0.0, 4.9725165, 4.957679 
8.059191e+2, 3.1355122e+2, -129581.16, -129908.34, -1705.6945, -0.006334587, 0.01391426, -128031.23, -128031.23, 0.0, 4.9669433, 4.966592 
8.056631e+2, 3.1852803e+2, -103571.92, -44249.547, -6146.987, 0.0026580293, -0.0010025718, -43619.293, -43619.293, 0.0, 4.961705, 5.000344 
8.054073e+2, 3.2352188e+2, -109122.3, -24326.105, -6384.2026, 0.0011655808, 0.017923549, -23848.14, -23848.14, 0.0, 4.955327, 5.0103617 
8.203829e+2, 1.3062076e+2, -1457168.9, -1660522.1, 12059.271, 0.027859757, 0.0013304516, -1456456.3, 203460.97, 0.0, 5.109384, 4.9726734 
8.2010764e+2, 1.3558474e+2, -1424511.5, -1623188.5, 14442.078, -0.057207327, 0.001397601, -1423467.1, 187802.81, 0.0, 5.104728, 4.9712152 
8.198537e+2, 1.4054938e+2, -1388672.8, -1577512.4, 17461.494, 0.026392005, 0.0015390259, -1387071.8, 175544.84, 0.0, 5.0998187, 4.972508 
8.1959194e+2, 1.4551468e+2, -1351633.5, -1534100.9, 18335.791, 0.018796954, -0.0031224128, -1349809.3, 164147.27, 0.0, 5.095808, 4.972742 
8.1933045e+2, 1.5048036e+2, -1315735.1, -1493099.0, 20748.229, -0.009931394, 0.0016477706, -1313340.3, 151952.47, 0.0, 5.0919166, 4.9720044 
8.190732e+2, 1.5544522e+2, -1278067.0, -1449573.9, 21944.639, -0.01001579, 0.0014433549, -1275303.8, 141333.3, 0.0, 5.088132, 4.972144 
8.1881994e+2, 1.6040953e+2, -1241447.1, -1408745.9, 24133.83, 0.0051368875, 0.00033736258, -1238035.3, 129951.53, 0.0, 5.0845494, 4.971205 
8.18566e+2, 1.6537324e+2, -1202870.3, -1365494.6, 24669.13, 0.0059234737, -0.0022037504, -1199210.5, 120132.15, 0.0, 5.0812063, 4.971006 
8.183129e+2, 1.7033646e+2, -1165979.5, -1325702.1, 26590.436, -0.002200231, 0.0017321395, -1161669.0, 109033.99, 0.0, 5.077928, 4.9695287 
8.180613e+2, 1.7529845e+2, -1126512.5, -1281889.8, 26962.225, -0.003212709, -0.0002916366, -1121966.8, 100108.58, 0.0, 5.0748315, 4.969368 
8.1781125e+2, 1.802595e+2, -1089371.3, -1242903.0, 28515.66, 0.0016460745, 0.0006068081, -1084246.1, 89210.98, 0.0, 5.0717883, 4.9674654 
8.1756127e+2, 1.8521932e+2, -1049275.3, -1199057.4, 28430.363, 0.0018772669, -0.0013972224, -1044060.44, 80790.43, 0.0, 5.0689354, 4.9671664 
8.1731147e+2, 1.9017811e+2, -1011810.6, -1160596.1, 29655.06, -0.00034104686, 0.0012974363, -1006117.75, 70136.9, 0.0, 5.066085, 4.9649687 
8.1706244e+2, 1.9513541e+2, -971200.8, -1116387.9, 29457.553, -0.0008673288, -0.0005684044, -965451.75, 62221.33, 0.0, 5.063352, 4.964701 
8.1681335e+2, 2.0009157e+2, -933576.7, -1078269.1, 30088.9, -0.000089374225, 0.00151276, -927569.1, 51533.797, 0.0, 5.0605855, 4.962304 
8.1656444e+2, 2.0504615e+2, -892863.1, -1033958.9, 29592.846, 0.0003996937, -0.0009876498, -886907.8, 43640.258, 0.0, 5.057848, 4.9620385 
8.163148e+2, 2.0999959e+2, -855287.2, -996170.6, 29770.809, 0.0003113507, 0.0014790458, -849254.5, 32749.756, 0.0, 5.0550513, 4.959519 
8.1606513e+2, 2.1495134e+2, -814552.9, -951727.06, 29138.096, 0.000017842478, -0.0011801132, -808620.06, 24856.895, 0.0, 5.0522604, 4.9592834 
8.1581444e+2, 2.19902e+2, -776945.6, -914006.25, 28726.096, 0.00021100664, 0.0008406874, -771168.5, 13791.911, 0.0, 5.0494237, 4.9567204 
8.155635e+2, 2.2485104e+2, -736454.75, -869484.75, 27996.082, 0.0004529914, -0.0013502741, -730803.1, 5656.6157, 0.0, 5.046486, 4.956538 
8.1531125e+2, 2.2979905e+2, -699012.0, -831710.0, 26998.414, 0.00031265448, 0.0010110558, -693729.3, -5760.047, 0.0, 5.043502, 4.95403 
8.150584e+2, 2.3474543e+2, -658891.7, -787197.7, 26202.871, 0.000342261, -0.0013287322, -653746.8, -14251.894, 0.0, 5.040375, 4.9538846 
8.1480426e+2, 2.3969091e+2, -621560.8, -748996.25, 24690.895, 0.0003071187, 0.0011341878, -616944.2, -25914.994, 0.0, 5.0371957, 4.951573 
8.145492e+2, 2.4463491e+2, -582025.25, -704598.44, 23835.18, 0.0005378007, -0.0011662313, -577553.5, -34975.566, 0.0, 5.0338016, 4.951468 
8.142927e+2, 2.4957821e+2, -544899.1, -665787.94, 21950.174, 0.0002935357, 0.001315045, -541036.94, -46903.26, 0.0, 5.030354, 4.9494505 
8.1403524e+2, 2.5452012e+2, -506029.75, -621566.94, 20955.848, 0.0003028479, -0.0009804602, -502346.25, -56643.29, 0.0, 5.0266695, 4.9493666 
8.137765e+2, 2.5946158e+2, -469307.66, -582229.8, 18848.875, 0.00054293615, 0.002484433, -466244.53, -68967.87, 0.0, 5.0229034, 4.94762 
8.1351656e+2, 2.6440176e+2, -431007.4, -537701.4, 17779.973, 0.000017853445, -0.0012164745, -428122.47, -79259.82, 0.0, 5.018862, 4.947763 
8.132556e+2, 2.6934165e+2, -395041.97, -498338.94, 15700.666, 0.00006300494, 0.0013069466, -392708.28, -92256.83, 0.0, 5.014722, 4.946146 
8.1299365e+2, 2.7428064e+2, -357245.63, -453041.94, 14431.832, 0.00026895473, -0.002018636, -355118.66, -103069.67, 0.0, 5.0102687, 4.9466968 
8.1273085e+2, 2.7921945e+2, -322349.06, -414060.7, 12377.53, -0.00034829116, 0.00016833427, -320707.94, -117059.69, 0.0, 5.0056896, 4.945069 
8.124673e+2, 2.8415778e+2, -284898.7, -367965.44, 11111.911, 0.00030702763, -0.0031219858, -283437.94, -128185.086, 0.0, 5.0008917, 4.9460096 
8.122031e+2, 2.8909606e+2, -250833.89, -328994.53, 9255.137, 0.0006480636, 0.00003129179, -249752.92, -142895.38, 0.0, 4.995921, 4.9444847 
8.1193846e+2, 2.94034e+2, -213975.44, -282469.47, 8144.852, 0.00011253853, -0.004786006, -213020.22, -154554.3, 0.0, 4.9907594, 4.9456806 
8.116734e+2, 2.9897276e+2, -180123.92, -242317.28, 6422.5283, -0.0019438915, 0.0022368736, -179467.61, -169401.42, 0.0, 4.985459, 4.9446473 
8.114086e+2, 3.039107e+2, -146944.39, -202834.69, 5612.2407, 0.0022857152, 0.00015967646, -146386.4, -146386.4, 0.0, 4.9800076, 4.943396 
8.1114477e+2, 3.0885243e+2, -121229.445, -147152.73, 3166.8035, 0.0068717436, -0.009820761, -120848.195, -120848.195, 0.0, 4.9742837, 4.957033 
8.108797e+2, 3.138095e+2, -125597.4, -127490.98, 2193.3503, -0.007343854, 0.011528277, -124155.22, -124155.22, 0.0, 4.968495, 4.9666386 
8.1061757e+2, 3.1878617e+2, -103787.516, -47969.746, -3027.8296, -0.0011718075, -0.0045980695, -47805.98, -47805.98, 0.0, 4.962591, 4.9984403 
8.1035644e+2, 3.2377732e+2, -107304.875, -23010.94, -2538.0137, 0.0011947665, -0.016179152, -22934.59, -22934.59, 0.0, 4.956147, 5.0101967 
8.254786e+2, 1.3088818e+2, -1457715.9, -1658363.3, 14022.147, -0.03491082, 0.0036517181, -1456740.8, 200555.4, 0.0, 5.1085615, 4.973844 
8.252106e+2, 1.3585289e+2, -1423996.0, -1619219.9, 12141.323, -0.00260269, -0.0037967016, -1423243.9, 185398.53, 0.0, 5.104018, 4.972922 
8.24944e+2, 1.4081968e+2, -1388771.9, -1574863.0, 16558.152, 0.002360795, 0.0038608087, -1387310.0, 172657.33, 0.0, 5.0991435, 4.9737477 
8.246798e+2, 1.4578576e+2, -1351481.9, -1531807.9, 17633.705, 0.009556354, -0.0019305336, -1349773.6, 161526.19, 0.0, 5.095329, 4.973769 
8.244163e+2, 1.5075213e+2, -1315353.1, -1490705.3, 20077.53, -0.0035220594, 0.0013903397, -1313083.6, 149545.95, 0.0, 5.091542, 4.973008 
8.241549e+2, 1.5571786e+2, -1277315.0, -1446966.8, 21454.041, -0.0076704826, 0.0013928487, -1274644.0, 139321.16, 0.0, 5.087885, 4.973159 
8.2389784e+2, 1.60683e+2, -1240692.1, -1406432.4, 23981.832, 0.003884746, 0.00052767916, -1237291.8, 128015.05, 0.0, 5.0843835, 4.9720764 
8.2364076e+2, 1.6564733e+2, -1201974.4, -1363267.3, 24522.326, 0.0053327484, -0.0020087133, -1198328.5, 118327.92, 0.0, 5.0811243, 4.971811 
8.2338446e+2, 1.7061113e+2, -1165052.6, -1323676.4, 26556.105, -0.0022146234, 0.0018329087, -1160724.9, 107286.35, 0.0, 5.077915, 4.970227 
8.231298e+2, 1.7557365e+2, -1125304.0, -1279749.8, 26906.945, -0.0030936487, -0.00016039111, -1120750.6, 98627.73, 0.0, 5.074922, 4.9700584 
8.228769e+2, 1.8053515e+2, -1088073.4, -1241010.5, 28522.902, 0.0019805834, 0.0007352015, -1082927.0, 87828.61, 0.0, 5.07198, 4.968022 
8.22624e+2, 1.8549536e+2, -1047694.8, -1197106.6, 28419.865, 0.0017762812, -0.0011907293, -1042471.6, 79673.92, 0.0, 5.0692425, 4.967692 
8.223715e+2, 1.9045447e+2, -1010201.7, -1158903.9, 29622.9, -0.00071223365, 0.0014468917, -1004517.75, 69028.7, 0.0, 5.066463, 4.965373 
8.2211965e+2, 1.9541202e+2, -969752.8, -1114833.3, 29353.176, -0.0009584734, -0.00045572047, -964039.0, 60923.535, 0.0, 5.063683, 4.9650826 
8.218678e+2, 2.0036834e+2, -932401.44, -1077099.1, 29974.676, 0.00010817688, 0.0016556182, -926437.8, 49952.758, 0.0, 5.0608735, 4.962575 
8.216161e+2, 2.0532303e+2, -891569.0, -1032809.25, 29342.316, 0.0005343953, -0.0008536611, -885715.75, 42118.855, 0.0, 5.0581884, 4.962282 
8.213636e+2, 2.102765e+2, -854004.5, -995330.44, 29402.578, 0.00029417913, 0.001332218, -848131.44, 31159.01, 0.0, 5.0554457, 4.9596324 
8.2111114e+2, 2.1522824e+2, -813266.5, -950954.8, 28636.135, 0.00017516119, -0.0011454537, -807548.3, 23214.861, 0.0, 5.052667, 4.9593706 
8.2085764e+2, 2.201788e+2, -775822.44, -913667.9, 28045.566, 0.0003102833, 0.0008063763, -770334.8, 11912.771, 0.0, 5.049837, 4.9566607 
8.206037e+2, 2.2512768e+2, -735358.4, -869230.5, 27136.904, 0.0006013916, -0.0011080727, -730066.7, 3681.887, 0.0, 5.046899, 4.9564524 
8.203484e+2, 2.3007545e+2, -698077.6, -831851.0, 25953.39, 0.00043440037, 0.0012915339, -693218.9, -7958.336, 0.0, 5.0439115, 4.9538116 
8.200923e+2, 2.3502152e+2, -658021.3, -787418.8, 24975.674, 0.00015865861, -0.0011368309, -653367.94, -16578.65, 0.0, 5.0407686, 4.953649 
8.198349e+2, 2.3996663e+2, -620888.5, -749694.6, 23193.266, 0.00012814277, 0.0013190868, -616839.5, -28512.18, 0.0, 5.0375805, 4.951186 
8.195764e+2, 2.4491021e+2, -581480.3, -705418.06, 22144.889, 0.00026683693, -0.0005097333, -577642.4, -37761.97, 0.0, 5.0341434, 4.9510617 
8.193163e+2, 2.49853e+2, -544609.1, -667048.2, 19986.605, -0.000057840523, 0.0023141317, -541429.2, -49987.92, 0.0, 5.030654, 4.9489155 
8.190551e+2, 2.5479427e+2, -505858.1, -622899.5, 18776.947, -0.00055673666, -0.00046117077, -502919.5, -59902.51, 0.0, 5.0269237, 4.9488297 
8.1879246e+2, 2.597351e+2, -469443.5, -584089.25, 16362.19, -0.00012464767, 0.003261495, -467154.03, -72556.9, 0.0, 5.0231047, 4.9469385 
8.1852853e+2, 2.6467472e+2, -431284.78, -539545.56, 15052.88, 0.0001750038, 0.0005549993, -429230.75, -83041.734, 0.0, 5.018989, 4.9471216 
8.1826335e+2, 2.696139e+2, -395554.84, -500543.38, 12644.628, 0.00013048745, 0.0033422483, -394053.4, -96268.6, 0.0, 5.0147967, 4.945408 
8.1799704e+2, 2.7455214e+2, -357596.2, -455155.78, 11289.629, 0.0001267479, -0.000041348594, -356306.78, -106916.95, 0.0, 5.0103936, 4.9459686 
8.1772953e+2, 2.7949023e+2, -322529.3, -416192.6, 9181.444, -0.00004926115, 0.0023089775, -321637.78, -120641.586, 0.0, 5.005884, 4.9443073 
8.1746125e+2, 2.8442782e+2, -284863.38, -369919.63, 7970.305, 0.0006034532, -0.0004182093, -284122.94, -131515.69, 0.0, 5.0011497, 4.94528 
8.171921e+2, 2.8936544e+2, -250514.27, -330880.94, 6000.1694, -0.00020626579, 0.00346024, -250068.77, -145850.52, 0.0, 4.996279, 4.9437437 
8.169223e+2, 2.9430234e+2, -213462.8, -284248.13, 4921.939, -0.0005979872, -0.0035523372, -213122.19, -157285.6, 0.0, 4.9911776, 4.944953 
8.1665206e+2, 2.9924014e+2, -179365.8, -244063.34, 3190.3813, -0.0019518617, 0.0019543367, -179208.86, -171762.63, 0.0, 4.9859686, 4.943898 
8.163817e+2, 3.0417746e+2, -145957.44, -204029.88, 2447.0752, 0.0018876017, 0.000783622, -145854.52, -145854.52, 0.0, 4.9805155, 4.9428453 
8.161121e+2, 3.091187e+2, -119276.35, -147173.0, 1.5498124, 0.004077788, -0.006794902, -119276.35, -119276.35, 0.0, 4.9749756, 4.9568295 
8.158414e+2, 3.14075e+2, -124165.4, -128513.71, -1122.2292, -0.009313976, 0.012733502, -123892.85, -123892.85, 0.0, 4.969135, 4.9661255 
8.1557393e+2, 3.1905067e+2, -99314.5, -43681.742, -6143.318, 0.003411381, -0.0025862495, -43011.438, -43011.438, 0.0, 4.9635067, 4.999767 
8.153066e+2, 3.2404298e+2, -105580.89, -25198.684, -6083.75, 0.0027887896, 0.011231437, -24740.84, -24740.84, 0.0, 4.9570904, 5.00926 
8.3058405e+2, 1.311607e+2, -1459467.0, -1654973.1, 17108.813, 0.010702627, -0.000028472658, -1457981.1, 196644.31, 0.0, 5.10716, 4.9755874 
8.303098e+2, 1.3612723e+2, -1424762.6, -1614291.6, 13822.71, 0.030409232, -0.006771473, -1423759.9, 182194.13, 0.0, 5.1027527, 4.9751043 
8.3003324e+2, 1.4109603e+2, -1388095.0, -1570601.3, 18909.742, -0.021596065, 0.005700958, -1386156.4, 171102.95, 0.0, 5.098724, 4.97529 
8.297671e+2, 1.460629e+2, -1351834.6, -1528568.9, 20154.697, 0.0033844505, -0.001583487, -1349565.3, 159018.75, 0.0, 5.094679, 4.975074 
8.295012e+2, 1.5103006e+2, -1316016.4, -1487316.1, 22872.639, 0.004100812, 0.00055814756, -1313015.0, 146890.95, 0.0, 5.090755, 4.974415 
8.2923585e+2, 1.5599689e+2, -1277467.8, -1443183.0, 24482.568, -0.005741218, 0.0010418287, -1273926.5, 137304.34, 0.0, 5.087261, 4.9746175 
8.289751e+2, 1.6096298e+2, -1240701.0, -1402945.8, 27319.42, 0.0019555604, 0.00044529937, -1236224.4, 126338.45, 0.0, 5.0839186, 4.973349 
8.2871497e+2, 1.6592808e+2, -1201748.0, -1359854.0, 28092.457, 0.004749194, -0.002175692, -1196904.9, 117000.02, 0.0, 5.0807953, 4.972991 
8.2845575e+2, 1.7089257e+2, -1164582.3, -1320262.8, 30438.537, -0.001965511, 0.0016201804, -1158842.5, 106410.42, 0.0, 5.0777245, 4.9713326 
8.281982e+2, 1.7585574e+2, -1124457.5, -1276220.4, 31017.914, -0.0028773209, -0.00018480564, -1118362.8, 98251.195, 0.0, 5.07489, 4.9711275 
8.2794255e+2, 1.808178e+2, -1086969.1, -1237554.1, 32941.58, 0.00217234, 0.00064759515, -1080078.3, 87907.6, 0.0, 5.0721035, 4.9689856 
8.27687e+2, 1.8577847e+2, -1046183.56, -1193501.8, 33024.027, 0.0016472558, -0.0011892829, -1039119.4, 80251.805, 0.0, 5.069529, 4.9686313 
8.2743174e+2, 1.9073796e+2, -1008360.9, -1155323.6, 34426.344, -0.0010278573, 0.0013921834, -1000696.2, 70072.07, 0.0, 5.066918, 4.9662213 
8.271772e+2, 1.9569582e+2, -967430.6, -1111017.1, 34295.434, -0.0009671709, -0.00080234295, -959659.75, 62521.508, 0.0, 5.064315, 4.9659276 
8.2692283e+2, 2.006524e+2, -929731.1, -1073388.0, 35188.16, 0.0005025773, 0.0011490448, -921574.94, 52031.75, 0.0, 5.0616918, 4.9632974 
8.266685e+2, 2.0560727e+2, -888439.2, -1028961.25, 34795.434, 0.0009007232, -0.0011963303, -880295.25, 44753.61, 0.0, 5.0591927, 4.962967 
8.264134e+2, 2.1056083e+2, -850504.94, -991623.5, 35057.09, 0.00006100071, 0.0010383511, -842275.8, 34228.152, 0.0, 5.056655, 4.9601727 
8.261582e+2, 2.1551259e+2, -809232.0, -946959.9, 34442.727, 0.000058462232, -0.0011369002, -801098.94, 26877.715, 0.0, 5.05407, 4.9599223 
8.25902e+2, 2.2046305e+2, -771415.75, -909788.1, 34045.773, 0.0006936179, 0.0008968388, -763492.7, 15969.251, 0.0, 5.051437, 4.9570837 
8.2564515e+2, 2.2541176e+2, -730435.5, -865162.25, 33312.89, 0.0007671239, -0.0011805269, -722648.56, 8316.375, 0.0, 5.048704, 4.956847 
8.253868e+2, 2.3035926e+2, -692740.9, -827849.1, 32272.994, 0.0002888907, 0.0012025214, -685427.75, -2948.2808, 0.0, 5.0459204, 4.954093 
8.251277e+2, 2.3530501e+2, -652186.06, -783227.0, 31439.855, 0.00013001832, -0.00094557134, -645033.3, -11022.081, 0.0, 5.042975, 4.9539104 
8.2486707e+2, 2.4024968e+2, -614627.5, -745603.06, 29762.62, 0.00005868607, 0.0014457811, -608181.5, -22627.965, 0.0, 5.0399966, 4.951324 
8.2460517e+2, 2.4519272e+2, -574732.0, -701146.5, 28825.486, 0.00018175787, -0.00044728658, -568469.4, -31357.488, 0.0, 5.036752, 4.951175 
8.243416e+2, 2.5013492e+2, -537529.44, -662947.94, 26729.635, -0.00007365029, 0.0024147402, -532070.3, -43391.67, 0.0, 5.033438, 4.948897 
8.240766e+2, 2.5507548e+2, -498367.53, -618556.3, 25638.016, -0.00041427938, -0.000788776, -493127.06, -52865.85, 0.0, 5.0298448, 4.9488406 
8.238101e+2, 2.6001546e+2, -461652.75, -579972.6, 23250.88, 0.00003966692, 0.0022385034, -457247.75, -65398.395, 0.0, 5.0261965, 4.946805 
8.235421e+2, 2.6495427e+2, -423097.34, -535122.4, 21988.434, 0.0007671762, -0.0002201473, -418936.0, -75486.65, 0.0, 5.022209, 4.947041 
8.2327265e+2, 2.6989254e+2, -387275.1, -496451.13, 19572.395, 0.00062409474, 0.0024060677, -383872.34, -88818.2, 0.0, 5.0181146, 4.9451704 
8.230017e+2, 2.748299e+2, -349481.3, -451171.56, 18068.322, 0.00055438426, -0.0004996939, -346366.34, -99698.375, 0.0, 5.013653, 4.9457307 
8.2272965e+2, 2.797671e+2, -314656.25, -412422.9, 15598.307, 0.00080097467, 0.0024617254, -312227.9, -113944.414, 0.0, 5.0090494, 4.9440503 
8.224565e+2, 2.8470376e+2, -277459.4, -366402.44, 14066.24, 0.0012022052, 0.000017906501, -275287.88, -125384.22, 0.0, 5.004152, 4.9450135 
8.221821e+2, 2.8964046e+2, -243669.67, -327794.2, 11691.814, 0.00008695842, 0.003929813, -242074.94, -140550.89, 0.0, 4.999093, 4.9434214 
8.2190716e+2, 2.945764e+2, -207030.56, -281243.84, 10402.344, -0.00052276446, -0.002872132, -205600.06, -152448.7, 0.0, 4.9938126, 4.9446893 
8.2163155e+2, 2.9951322e+2, -173693.81, -241855.0, 8218.16, -0.0011546663, 0.002398321, -172716.95, -167946.28, 0.0, 4.988391, 4.943467 
8.213557e+2, 3.0444962e+2, -140200.94, -201182.4, 7272.716, 0.0022080122, 0.0007703419, -139345.58, -139345.58, 0.0, 4.982855, 4.9426746 
8.2108027e+2, 3.0939007e+2, -115046.12, -145833.4, 4102.115, 0.0033867364, -0.0065299906, -114508.92, -114508.92, 0.0, 4.9768987, 4.956322 
8.208037e+2, 3.1434572e+2, -120082.02, -126630.1, 3037.2004, -0.00949012, 0.013750066, -118890.2, -118890.2, 0.0, 4.9708714, 4.965877 
8.205307e+2, 3.1931996e+2, -98785.16, -47902.492, -2879.1555, 0.008527704, -0.011792399, -47740.094, -47740.094, 0.0, 4.964832, 4.997484 
8.202566e+2, 3.2431144e+2, -102488.336, -23164.203, -2165.6355, -0.003470791, -0.008948994, -23105.123, -23105.123, 0.0, 4.958322, 5.009203 
8.356822e+2, 1.3143878e+2, -1461832.3, -1651676.1, 12315.116, 0.0040297927, 0.005829562, -1461036.8, 190863.64, 0.0, 5.1052833, 4.9776235 
8.3539987e+2, 1.3640688e+2, -1425696.3, -1611324.1, 14157.387, -0.0160967, 0.000073995994, -1424622.6, 178590.34, 0.0, 5.101603, 4.976691 
8.351272e+2, 1.4137599e+2, -1387133.4, -1567356.9, 18471.182, 0.0024522026, 0.0029086152, -1385259.8, 169255.66, 0.0, 5.0984097, 4.9765577 
8.34855e+2, 1.4634405e+2, -1351564.0, -1525887.8, 19329.191, 0.009949023, -0.0026413223, -1349446.5, 156382.08, 0.0, 5.094174, 4.976243 
8.34584e+2, 1.5131238e+2, -1316286.1, -1484886.6, 22568.256, -0.0029790134, 0.001500895, -1313317.5, 143821.53, 0.0, 5.090081, 4.975571 
8.343157e+2, 1.5628016e+2, -1277112.3, -1440330.6, 24336.143, -0.0076504108, 0.0014577985, -1273561.0, 134893.66, 0.0, 5.086785, 4.9758244 
8.340523e+2, 1.6124715e+2, -1240146.1, -1400421.0, 27294.422, 0.0041711414, 0.00024780157, -1235625.5, 124152.7, 0.0, 5.0836215, 4.9743524 
8.33789e+2, 1.6621305e+2, -1200979.4, -1357340.8, 28047.492, 0.0052661854, -0.0020902888, -1196100.6, 115011.72, 0.0, 5.0806003, 4.973943 
8.3352673e+2, 1.7117827e+2, -1163703.5, -1317916.3, 30516.936, -0.0028665941, 0.0019235715, -1157884.1, 104568.945, 0.0, 5.077628, 4.972177 
8.332665e+2, 1.761421e+2, -1123285.8, -1273826.9, 31126.773, -0.003042345, 0.000096079064, -1117103.6, 96704.086, 0.0, 5.0749183, 4.971931 
8.3300817e+2, 1.811047e+2, -1085747.6, -1235374.4, 33071.613, 0.0025432983, 0.0007361535, -1078763.8, 86410.375, 0.0, 5.072209, 4.969677 
8.3275e+2, 1.860659e+2, -1045074.9, -1191498.8, 33203.71, 0.0016078969, -0.0009224635, -1037897.3, 78657.195, 0.0, 5.0696225, 4.9692698 
8.324922e+2, 1.9102582e+2, -1007395.5, -1153575.1, 34550.066, -0.0011857582, 0.0016603272, -999640.9, 68306.45, 0.0, 5.067006, 4.9667735 
8.322351e+2, 1.9598404e+2, -966092.5, -1109204.1, 34383.93, -0.00093088753, -0.00061187224, -958260.1, 61096.613, 0.0, 5.0645556, 4.9664354 
8.319782e+2, 2.009409e+2, -928168.4, -1071746.9, 35178.24, 0.0007598241, 0.0011122942, -920012.6, 50766.754, 0.0, 5.0620627, 4.963689 
8.317213e+2, 2.05896e+2, -886861.8, -1027390.8, 34693.76, 0.0011409908, -0.0011267696, -878763.4, 43455.813, 0.0, 5.0595837, 4.963327 
8.3146363e+2, 2.1084972e+2, -849073.94, -990424.3, 34803.77, -0.00008797425, 0.0010926132, -840969.2, 32703.564, 0.0, 5.057054, 4.9604025 
8.312057e+2, 2.158016e+2, -807811.44, -945874.94, 34123.426, -0.00020511104, -0.00074868655, -799838.06, 25306.38, 0.0, 5.0544844, 4.960109 
8.309469e+2, 2.2075209e+2, -770131.75, -909079.9, 33531.832, 0.0008752884, 0.0013267698, -762462.9, 14166.717, 0.0, 5.051858, 4.957141 
8.3068717e+2, 2.257007e+2, -729146.25, -864525.9, 32669.45, 0.0005399643, -0.0009102011, -721674.9, 6458.487, 0.0, 5.049137, 4.9568777 
8.3042604e+2, 2.3064807e+2, -691573.56, -827637.06, 31376.86, -0.00017957971, 0.0015134008, -684686.56, -5037.2285, 0.0, 5.046369, 4.95398 
8.3016396e+2, 2.3559362e+2, -651142.06, -783187.06, 30400.332, -0.00011419041, -0.00039373888, -644479.25, -13296.243, 0.0, 5.0433974, 4.953752 
8.2990015e+2, 2.4053797e+2, -613801.3, -745946.25, 28439.893, -0.0001709786, 0.001841757, -607940.5, -25212.123, 0.0, 5.0403833, 4.9510565 
8.2963496e+2, 2.454806e+2, -574089.44, -701736.06, 27285.09, -0.00036197947, -0.00042270555, -568501.75, -34211.043, 0.0, 5.037101, 4.9508414 
8.29368e+2, 2.5042233e+2, -537084.0, -663963.56, 24891.855, -0.00023914999, 0.0023606266, -532375.4, -46513.367, 0.0, 5.033763, 4.9484386 
8.2909936e+2, 2.5536236e+2, -498087.8, -619670.44, 23523.127, -0.00012570426, -0.0008806233, -493695.38, -56246.035, 0.0, 5.030106, 4.9483786 
8.2882905e+2, 2.603017e+2, -461726.25, -581678.1, 20825.688, -0.000056129156, 0.0013576858, -458213.44, -69169.836, 0.0, 5.0263953, 4.946176 
8.28557e+2, 2.6523975e+2, -423309.8, -536890.06, 19235.49, 0.00051882275, -0.001582549, -420140.6, -79489.85, 0.0, 5.022348, 4.94642 
8.282833e+2, 2.701773e+2, -387879.72, -498843.16, 16531.313, 0.00065982406, 0.0009289874, -385469.25, -93206.6, 0.0, 5.018181, 4.944367 
8.2800794e+2, 2.7511388e+2, -349798.63, -453275.84, 14863.491, 0.00048502217, -0.0020118037, -347705.97, -103821.78, 0.0, 5.0137844, 4.945 
8.277312e+2, 2.8005037e+2, -314879.72, -414843.13, 12374.256, 0.00008115105, 0.0018660049, -313370.72, -117863.49, 0.0, 5.009272, 4.94318 
8.2745314e+2, 2.849861e+2, -277392.6, -368545.16, 10813.1875, 0.0004659717, -0.0013360466, -276127.4, -128990.52, 0.0, 5.0044518, 4.944204 
8.271738e+2, 2.899219e+2, -243368.81, -329934.9, 8441.963, -0.0000972519, 0.0026301679, -242553.23, -143787.06, 0.0, 4.999488, 4.942576 
8.268936e+2, 2.9485717e+2, -206526.52, -283169.9, 7168.684, -0.0005125914, -0.0026031565, -205861.77, -155461.25, 0.0, 4.994257, 4.9438972 
8.266124e+2, 2.9979318e+2, -172710.56, -243383.28, 4946.1885, -0.0025837626, 0.0034447443, -172366.08, -170338.78, 0.0, 4.988949, 4.9427805 
8.263312e+2, 3.0472854e+2, -139231.05, -202712.1, 4059.8484, 0.0020734807, -0.00055060623, -138972.45, -138972.45, 0.0, 4.983407, 4.9419956 
8.2605e+2, 3.0966812e+2, -113078.016, -146173.31, 860.0864, 0.0037303187, -0.00884341, -113055.68, -113055.68, 0.0, 4.9776473, 4.9559827 
8.257671e+2, 3.146236e+2, -118395.03, -126954.16, -332.1969, -0.011399886, 0.015701825, -118382.164, -118382.164, 0.0, 4.9715023, 4.9656134 
8.254879e+2, 3.1959707e+2, -94237.56, -43512.31, -5819.022, 0.0059225154, -0.008130904, -42853.332, -42853.332, 0.0, 4.965758, 4.9988484 
8.252081e+2, 3.2458848e+2, -102033.78, -27213.965, -5715.3457, -0.0012879403, 0.014429008, -26779.898, -26779.898, 0.0, 4.9590735, 5.0076656 
8.4077877e+2, 1.3172214e+2, -1462177.3, -1648324.3, 12104.097, 0.0033032573, 0.005039478, -1461393.5, 187729.5, 0.0, 5.104548, 4.979025 
8.404898e+2, 1.36692e+2, -1426536.9, -1606931.8, 17011.781, -0.048760667, 0.002639111, -1424946.6, 175472.17, 0.0, 5.100416, 4.978665 
8.4022015e+2, 1.4166188e+2, -1389281.6, -1564377.5, 20850.35, 0.030077714, -0.00021398834, -1386833.0, 164880.52, 0.0, 5.0969877, 4.978149 
8.399415e+2, 1.466313e+2, -1352980.9, -1522733.0, 21583.656, 0.013760085, -0.0032446631, -1350279.5, 152733.89, 0.0, 5.0930657, 4.977736 
8.3966535e+2, 1.5160082e+2, -1317100.8, -1481361.8, 25447.447, -0.012267496, 0.0022566577, -1313248.8, 141063.31, 0.0, 5.089203, 4.977067 
8.3939475e+2, 1.5656963e+2, -1277630.8, -1436497.0, 27566.465, -0.008974418, 0.0013047387, -1272983.4, 132634.61, 0.0, 5.0859904, 4.9773817 
8.391289e+2, 1.6153759e+2, -1240713.6, -1396962.6, 30685.582, 0.0074831145, -0.00035435258, -1234903.4, 122028.55, 0.0, 5.082918, 4.9757266 
8.3886236e+2, 1.6650446e+2, -1201125.6, -1353735.9, 31579.492, 0.0057473853, -0.0021257766, -1194849.1, 113407.46, 0.0, 5.0800714, 4.975281 
8.3859724e+2, 1.7147052e+2, -1163624.0, -1314406.3, 34409.51, -0.0041123545, 0.0020176126, -1156142.8, 103446.33, 0.0, 5.0772505, 4.9734006 
8.383345e+2, 1.7643508e+2, -1122769.5, -1270049.1, 35206.992, -0.003208315, 0.000032282773, -1114786.0, 96150.35, 0.0, 5.0746946, 4.9731717 
8.3807373e+2, 1.813984e+2, -1084983.5, -1231701.4, 37428.125, 0.0030253138, 0.0005829638, -1075987.1, 86308.914, 0.0, 5.072144, 4.970799 
8.3781296e+2, 1.8636024e+2, -1043835.75, -1187625.3, 37685.52, 0.0016291029, -0.0008665204, -1034557.5, 79112.516, 0.0, 5.0697417, 4.970372 
8.375527e+2, 1.913207e+2, -1005791.9, -1149715.3, 39342.617, -0.0015361912, 0.0016730279, -995739.44, 69317.95, 0.0, 5.067314, 4.9677777 
8.372934e+2, 1.9627939e+2, -964008.1, -1105212.0, 39409.023, -0.0007627901, -0.0006492516, -953754.0, 62708.223, 0.0, 5.0650597, 4.9673977 
8.370341e+2, 2.0123662e+2, -925707.7, -1067844.1, 40428.31, 0.0011948777, 0.00095856754, -915013.2, 52868.04, 0.0, 5.06276, 4.9645324 
8.3677477e+2, 2.0619203e+2, -883917.1, -1023225.5, 40205.254, 0.0011321855, -0.0011841868, -873146.4, 46171.74, 0.0, 5.060464, 4.9641714 
8.3651465e+2, 2.1114598e+2, -845730.56, -986290.4, 40523.0, -0.0001856189, 0.00090512814, -834884.8, 35884.703, 0.0, 5.058137, 4.961139 
8.3625436e+2, 2.1609801e+2, -803883.9, -941480.94, 40072.24, -0.0001980158, -0.0009153108, -793064.44, 29175.326, 0.0, 5.0557914, 4.960833 
8.359929e+2, 2.2104858e+2, -765734.1, -904735.3, 39648.293, 0.000853831, 0.0012709743, -755220.2, 18504.008, 0.0, 5.0533915, 4.9577465 
8.3573055e+2, 2.2599716e+2, -724282.3, -860064.5, 39057.9, 0.00027288022, -0.0009911184, -713849.0, 11379.238, 0.0, 5.050873, 4.957432 
8.354666e+2, 2.3094438e+2, -686133.9, -823161.94, 37892.098, -0.0006110819, 0.0012730962, -676353.7, 391.82852, 0.0, 5.048365, 4.9544234 
8.352017e+2, 2.3588967e+2, -645153.4, -778569.94, 37131.152, -0.00015026248, -0.00063230714, -635515.6, -7234.002, 0.0, 5.045624, 4.9541388 
8.349349e+2, 2.408337e+2, -607347.25, -741389.25, 35226.105, 0.00030820447, 0.0015300036, -598653.75, -18823.488, 0.0, 5.0428295, 4.9513264 
8.3466643e+2, 2.4577586e+2, -567127.94, -696998.56, 34291.19, 0.00015107202, -0.0011623991, -558629.75, -27232.773, 0.0, 5.0397515, 4.951088 
8.3439606e+2, 2.50717e+2, -529594.75, -659248.6, 31895.268, 0.00021799677, 0.0014015994, -522173.22, -39199.566, 0.0, 5.03665, 4.9485826 
8.3412385e+2, 2.5565648e+2, -490163.97, -614870.8, 30730.084, 0.0006325184, -0.0013751948, -483002.75, -48436.168, 0.0, 5.0331907, 4.9484644 
8.3384967e+2, 2.6059508e+2, -453367.25, -576862.75, 28008.9, 0.000447147, 0.0006495978, -447311.72, -61143.875, 0.0, 5.0296626, 4.94619 
8.335735e+2, 2.6553237e+2, -414623.72, -532081.56, 26525.895, 0.0005560593, -0.0020017647, -408911.13, -71128.52, 0.0, 5.025765, 4.9463687 
8.332956e+2, 2.704691e+2, -378873.56, -494178.72, 23819.643, 0.00084045896, 0.0008022296, -374146.72, -84743.914, 0.0, 5.021756, 4.944202 
8.3301574e+2, 2.7540475e+2, -340822.2, -448518.78, 22023.438, 0.00062264607, -0.0023703298, -336492.56, -95459.09, 0.0, 5.0173244, 4.944892 
8.3273417e+2, 2.8034016e+2, -306381.8, -410719.97, 19312.676, 0.00013393519, 0.0007571816, -302921.84, -110255.04, 0.0, 5.0127134, 4.9429035 
8.3245116e+2, 2.85275e+2, -269153.97, -364364.6, 17390.543, 0.00032292653, -0.0014991717, -266076.97, -121771.414, 0.0, 5.007754, 4.9440203 
8.3216673e+2, 2.9020974e+2, -235884.44, -326615.94, 14736.55, 0.00081806874, 0.0020488198, -233550.95, -137605.25, 0.0, 5.0026026, 4.9421844 
8.3188117e+2, 2.9514405e+2, -199244.97, -279634.2, 13133.35, 0.0005569489, -0.002568885, -197153.75, -149564.3, 0.0, 4.9972324, 4.943654 
8.315944e+2, 3.0007905e+2, -166233.44, -240602.33, 10466.12, -0.0019840333, 0.0040484816, -164788.58, -164788.58, 0.0, 4.9916806, 4.94239 
8.3130753e+2, 3.0501342e+2, -132902.78, -199370.02, 9401.785, 0.0028399774, -0.0016122533, -131598.48, -131598.48, 0.0, 4.985967, 4.941871 
8.3102053e+2, 3.0995217e+2, -108540.586, -145064.25, 5529.658, 0.006036882, -0.00884816, -107721.76, -107721.76, 0.0, 4.9797993, 4.955275 
8.307312e+2, 3.1490704e+2, -113102.97, -124181.91, 4148.079, -0.011592517, 0.016309613, -111722.01, -111722.01, 0.0, 4.9736447, 4.9654903 
8.3044595e+2, 3.1988007e+2, -93743.375, -49278.656, -2058.1978, 0.00574198, -0.006742965, -49183.586, -49183.586, 0.0, 4.967404, 4.995848 
8.301604e+2, 3.248682e+2, -98176.28, -24737.13, -1697.5839, 0.0022402273, -0.012744761, -24697.91, -24697.91, 0.0, 4.960597, 5.007631 
8.458793e+2, 1.3200815e+2, -1464456.0, -1649093.6, 9534.827, 0.048832964, -0.018542191, -1463964.9, 182354.95, 0.0, 5.103576, 4.9792857 
8.4558254e+2, 1.3698018e+2, -1427500.9, -1604479.3, 17032.902, -0.042730987, -0.010515153, -1425876.5, 171718.25, 0.0, 5.099371, 4.9800277 
8.453091e+2, 1.4195332e+2, -1390492.6, -1562364.9, 20447.049, 0.031065376, 0.007878879, -1388093.5, 160763.95, 0.0, 5.095953, 4.9793487 
8.4502655e+2, 1.4692323e+2, -1353010.0, -1519661.5, 21145.848, 0.012546167, -0.0012667602, -1350368.8, 149783.69, 0.0, 5.092344, 4.9791403 
8.447467e+2, 1.5189344e+2, -1316812.1, -1478509.9, 25450.838, -0.014753312, -0.00019568062, -1312900.9, 138543.8, 0.0, 5.0886984, 4.978286 
8.444733e+2, 1.5686339e+2, -1277247.5, -1433710.4, 27620.139, -0.008801668, 0.00076746894, -1272514.9, 130224.11, 0.0, 5.085548, 4.9785495 
8.442048e+2, 1.618324e+2, -1240297.6, -1394425.1, 30779.055, 0.00940611, 0.000498615, -1234378.4, 119664.23, 0.0, 5.0825596, 4.9767632 
8.439353e+2, 1.668001e+2, -1200285.3, -1350912.9, 31745.91, 0.0056366804, -0.0016493121, -1193867.9, 111491.31, 0.0, 5.079851, 4.9763484 
8.436674e+2, 1.7176694e+2, -1162661.9, -1311802.9, 34632.207, -0.005372257, 0.0019782032, -1155012.3, 101672.05, 0.0, 5.0771475, 4.974332 
8.434022e+2, 1.7673229e+2, -1121579.5, -1267317.0, 35445.74, -0.0034070294, 0.00020236509, -1113415.9, 94608.125, 0.0, 5.0746694, 4.974112 
8.431392e+2, 1.8169631e+2, -1083727.8, -1229242.6, 37666.613, 0.003545769, 0.0007272675, -1074555.9, 84820.79, 0.0, 5.072214, 4.9716 
8.42876e+2, 1.8665877e+2, -1042101.2, -1184910.3, 37941.086, 0.0017431832, -0.0007350664, -1032647.0, 78097.41, 0.0, 5.0699787, 4.971184 
8.426134e+2, 1.9161983e+2, -1003925.8, -1147241.5, 39535.82, -0.0017831512, 0.0017784397, -993742.8, 68383.29, 0.0, 5.067666, 4.9684534 
8.423518e+2, 1.9657901e+2, -962173.3, -1102740.0, 39591.92, -0.0006642876, -0.00059858046, -951789.0, 61736.887, 0.0, 5.065395, 4.968086 
8.420903e+2, 2.015367e+2, -924127.56, -1065776.0, 40582.945, 0.0018184129, 0.00085325073, -913324.25, 51616.203, 0.0, 5.0630684, 4.965093 
8.418286e+2, 2.0649254e+2, -882259.8, -1021175.25, 40231.477, 0.001096862, -0.00091603765, -871449.56, 44923.637, 0.0, 5.060808, 4.964713 
8.415661e+2, 2.1144684e+2, -844119.56, -984543.5, 40502.406, -0.00043550823, 0.0012098445, -833274.94, 34546.223, 0.0, 5.0585175, 4.9615617 
8.4130335e+2, 2.163991e+2, -802245.44, -939890.7, 39939.246, -0.000345492, -0.00061816926, -791496.1, 27792.92, 0.0, 5.056213, 4.9611874 
8.410395e+2, 2.2134987e+2, -764147.8, -903514.1, 39279.47, 0.0007894894, 0.0015238622, -753839.56, 16932.252, 0.0, 5.053854, 4.9579625 
8.407746e+2, 2.2629854e+2, -722692.8, -858876.0, 38576.895, 0.00024412628, -0.0004932064, -712524.3, 9750.38, 0.0, 5.05134, 4.9576373 
8.40508e+2, 2.3124573e+2, -684773.44, -822492.5, 37159.145, -0.00082578347, 0.0014154783, -675387.0, -1594.7573, 0.0, 5.0488214, 4.9544597 
8.4024024e+2, 2.3619093e+2, -643913.06, -778068.56, 36245.582, -0.00034644414, -0.0005436269, -634746.7, -9417.464, 0.0, 5.0460563, 4.954131 
8.399705e+2, 2.4113478e+2, -606232.25, -741325.0, 34002.504, 0.000510339, 0.001724877, -598156.6, -21277.152, 0.0, 5.0432715, 4.9511743 
8.39699e+2, 2.4607669e+2, -566199.94, -697221.44, 32874.22, 0.0006973515, -0.0011128384, -558414.2, -29965.402, 0.0, 5.040158, 4.9508567 
8.3942527e+2, 2.5101745e+2, -528956.6, -659970.4, 30156.846, 0.0003214218, 0.0010681041, -522348.38, -42319.008, 0.0, 5.037003, 4.948214 
8.3914953e+2, 2.5595644e+2, -489697.47, -615749.8, 28683.988, 0.00034946034, -0.0015931525, -483477.2, -51850.5, 0.0, 5.0334907, 4.948067 
8.3887166e+2, 2.608946e+2, -453219.47, -578314.3, 25614.62, 0.0005605801, 0.00087920064, -448177.75, -64945.098, 0.0, 5.0299087, 4.945623 
8.385915e+2, 2.658313e+2, -414719.34, -533655.4, 23862.922, 0.00003590662, -0.0015394179, -410110.2, -75257.2, 0.0, 5.0259166, 4.945803 
8.383094e+2, 2.7076745e+2, -379298.44, -496264.0, 20745.92, -0.00008704731, 0.0022791615, -375727.78, -89248.9, 0.0, 5.0218353, 4.9435067 
8.380251e+2, 2.7570236e+2, -341075.66, -450524.5, 18844.736, -0.00036897074, -0.0014596707, -337921.88, -99805.055, 0.0, 5.0174594, 4.944201 
8.377389e+2, 2.8063703e+2, -306448.28, -412944.72, 16014.116, -0.0004021838, 0.0019162114, -304092.3, -114335.09, 0.0, 5.0129647, 4.9420915 
8.374509e+2, 2.8557107e+2, -268935.44, -366295.78, 14119.073, -0.00031284598, -0.00006384465, -266929.25, -125525.49, 0.0, 5.0080757, 4.943277 
8.3716124e+2, 2.905049e+2, -235463.11, -328826.0, 11453.037, -0.0005100588, 0.003257414, -234078.67, -141026.2, 0.0, 5.003055, 4.941296 
8.368705e+2, 2.9543814e+2, -198567.98, -281585.9, 9857.945, 0.0007622428, -0.0027446833, -197413.47, -152706.6, 0.0, 4.9977417, 4.942839 
8.365782e+2, 3.0037206e+2, -165081.78, -242174.3, 7214.44, -0.0021254297, 0.0025798324, -164412.45, -164412.45, 0.0, 4.992323, 4.9416466 
8.3628535e+2, 3.0530575e+2, -131958.55, -200968.52, 6143.212, 0.0014688972, -0.0014078715, -131415.95, -131415.95, 0.0, 4.9865217, 4.9411645 
8.3599234e+2, 3.102439e+2, -106269.266, -144897.02, 2158.5417, 0.0048240325, -0.0071911803, -106149.016, -106149.016, 0.0, 4.9805694, 4.955119 
8.3569694e+2, 3.1519774e+2, -111395.13, -125106.664, 927.17285, -0.0116729885, 0.014928038, -111332.72, -111332.72, 0.0, 4.974373, 4.964988 
8.354053e+2, 3.201696e+2, -88919.86, -44255.637, -5486.2964, 0.0058853314, -0.00798207, -43591.6, -43591.6, 0.0, 4.9683185, 4.9974613 
8.3511305e+2, 3.251581e+2, -97116.016, -29014.576, -5706.7993, -0.0028994975, 0.013392846, -28539.666, -28539.666, 0.0, 4.961598, 5.0059366 
8.509694e+2, 1.3230534e+2, -1465146.1, -1643951.9, 9496.526, 0.008630235, 0.014317557, -1464643.1, 178765.17, 0.0, 5.102257, 4.9815855 
8.506734e+2, 1.3727438e+2, -1429735.5, -1601926.6, 19910.258, -0.037052922, -0.019170413, -1427463.3, 167248.27, 0.0, 5.0979614, 4.981489 
8.50396e+2, 1.4225022e+2, -1392924.8, -1559780.3, 22555.938, 0.02769105, 0.015955277, -1389929.4, 156018.58, 0.0, 5.0944843, 4.980834 
8.501103e+2, 1.4722066e+2, -1354818.6, -1516118.0, 23258.928, 0.013414152, -0.00072044827, -1351531.8, 145706.02, 0.0, 5.090968, 4.980897 
8.49827e+2, 1.5219176e+2, -1318482.9, -1475281.0, 28003.445, -0.016442742, -0.0034405203, -1313631.8, 134889.23, 0.0, 5.087492, 4.9798408 
8.495508e+2, 1.5716307e+2, -1278565.9, -1430410.9, 30536.326, -0.00903295, 0.00028130985, -1272655.1, 127146.97, 0.0, 5.0845056, 4.9800453 
8.4927976e+2, 1.6213326e+2, -1241409.1, -1391204.8, 33993.03, 0.011442971, 0.0014392266, -1234056.0, 117038.38, 0.0, 5.081661, 4.9781513 
8.490075e+2, 1.6710185e+2, -1200849.9, -1347230.3, 35156.48, 0.0055828164, -0.0015685548, -1192844.1, 109557.97, 0.0, 5.079117, 4.977811 
8.48737e+2, 1.7206958e+2, -1163050.9, -1308267.4, 38343.64, -0.006953579, 0.0014673242, -1153548.3, 100170.04, 0.0, 5.076556, 4.9756656 
8.484696e+2, 1.7703585e+2, -1121472.1, -1263467.4, 39383.934, -0.0035991222, 0.00012247202, -1111280.1, 93768.805, 0.0, 5.07425, 4.9754696 
8.4820443e+2, 1.820007e+2, -1083343.9, -1225475.6, 41918.953, 0.0041724695, 0.000638092, -1071901.9, 84491.54, 0.0, 5.071958, 4.9728465 
8.479391e+2, 1.8696393e+2, -1041258.1, -1180887.3, 42420.48, 0.0020207278, -0.00100272, -1029380.75, 78373.125, 0.0, 5.0698967, 4.972432 
8.476743e+2, 1.9192567e+2, -1002744.1, -1143233.4, 44244.47, -0.0018298826, 0.0014748392, -989971.4, 69157.28, 0.0, 5.067762, 4.9696074 
8.474105e+2, 1.9688554e+2, -960419.75, -1098394.1, 44487.38, -0.00060437125, -0.0006280226, -947319.44, 63202.49, 0.0, 5.065683, 4.969269 
8.471469e+2, 2.0184383e+2, -921979.2, -1061436.5, 45722.227, 0.0021594267, 0.0006352806, -908325.56, 53605.15, 0.0, 5.0635567, 4.966177 
8.46883e+2, 2.0680024e+2, -879506.94, -1016490.44, 45729.1, 0.0009937047, -0.0009828692, -865644.2, 47713.83, 0.0, 5.0615144, 4.965816 
8.4661824e+2, 2.11755e+2, -840994.7, -980113.0, 46232.07, -0.0009871029, 0.0012922428, -827032.1, 37769.32, 0.0, 5.0594535, 4.9624724 
8.4635335e+2, 2.167076e+2, -798578.94, -935114.25, 45950.73, -0.0004524464, -0.0005260274, -784554.75, 31711.291, 0.0, 5.057341, 4.962129 
8.4608716e+2, 2.2165857e+2, -759951.5, -898757.7, 45519.836, 0.0009037416, 0.0014950591, -746355.56, 21391.04, 0.0, 5.055244, 4.9587736 
8.458199e+2, 2.2660744e+2, -717796.44, -853799.75, 45103.17, 0.00050001824, -0.00034751632, -704198.4, 15049.36, 0.0, 5.0529985, 4.9584346 
8.455508e+2, 2.3155467e+2, -679395.44, -817551.1, 43867.633, -0.00033306956, 0.0014042738, -666643.44, 4121.272, 0.0, 5.05073, 4.955097 
8.452804e+2, 2.364998e+2, -637866.75, -772795.94, 43212.633, 0.00010766138, -0.0007548463, -625213.94, -2911.613, 0.0, 5.0482216, 4.954766 
8.4500784e+2, 2.4144349e+2, -599649.06, -736244.75, 41097.6, 0.0006489111, 0.0016006926, -588237.4, -14383.202, 0.0, 5.045724, 4.951618 
8.447333e+2, 2.4638513e+2, -558806.3, -691660.6, 40221.26, 0.001193881, -0.0009506819, -547578.3, -22152.39, 0.0, 5.0428925, 4.951342 
8.444563e+2, 2.5132546e+2, -521076.78, -654660.4, 37530.375, 0.0006571529, 0.0010916147, -511254.78, -34244.29, 0.0, 5.0400014, 4.9484954 
8.44177e+2, 2.5626394e+2, -481246.4, -610314.06, 36308.62, 0.0001697435, -0.0015480969, -471733.44, -43120.125, 0.0, 5.0367284, 4.948289 
8.438955e+2, 2.6120147e+2, -444251.84, -572962.44, 33189.95, 0.00078783435, 0.0012014234, -436197.38, -55971.883, 0.0, 5.0333905, 4.945711 
8.436113e+2, 2.6613745e+2, -405302.75, -528164.0, 31476.184, 0.0005571304, -0.0013644575, -397708.22, -65855.305, 0.0, 5.0295854, 4.9458623 
8.433249e+2, 2.7107275e+2, -369589.9, -490874.63, 28462.188, -0.000039588267, 0.00199724, -363242.78, -79755.62, 0.0, 5.02565, 4.9434733 
8.4303606e+2, 2.7600685e+2, -331537.13, -445202.38, 26321.459, -0.0003766745, -0.0010387135, -325737.75, -90604.8, 0.0, 5.0212083, 4.9441843 
8.427452e+2, 2.8094053e+2, -297348.34, -408130.34, 23256.4, 0.00023697646, 0.0017927099, -292664.2, -105881.27, 0.0, 5.016601, 4.9419518 
8.4245217e+2, 2.8587362e+2, -260112.61, -361609.25, 20945.914, 0.0004523951, 0.000107997264, -255959.89, -117521.39, 0.0, 5.0115957, 4.9431586 
8.4215724e+2, 2.9080638e+2, -227196.38, -324799.0, 18005.838, 0.0003342588, 0.0032448277, -223980.6, -133883.11, 0.0, 5.00644, 4.9410114 
8.4186095e+2, 2.9573858e+2, -190555.6, -277430.5, 16135.8125, 0.0014427954, -0.0031758505, -187655.4, -145893.34, 0.0, 5.0009885, 4.9426622 
8.4156305e+2, 3.0067152e+2, -158226.92, -239231.38, 13134.078, -0.00051264104, 0.0027021966, -156150.58, -156150.58, 0.0, 4.9952765, 4.9411774 
8.412643e+2, 3.056044e+2, -124723.016, -197068.48, 11826.441, 0.002009134, -0.0007141253, -122838.805, -122838.805, 0.0, 4.9894443, 4.9410515 
8.4096503e+2, 3.1054178e+2, -100758.56, -143773.2, 7334.893, 0.004394777, -0.0045224885, -99542.2, -99542.2, 0.0, 4.98322, 4.9541655 
8.406637e+2, 3.1549427e+2, -105114.055, -121671.58, 5726.7095, -0.009522838, 0.010556436, -103326.38, -103326.38, 0.0, 4.9769087, 4.964878 
8.403654e+2, 3.204652e+2, -87013.75, -49242.336, -1268.9392, 0.006664281, -0.009664435, -49199.754, -49199.754, 0.0, 4.9705114, 4.994462 
8.4006715e+2, 3.254509e+2, -92653.75, -26665.523, -744.05383, -0.000610446, -0.0143424915, -26657.135, -26657.135, 0.0, 4.9634695, 5.005666 
8.560581e+2, 1.3260631e+2, -1465979.6, -1639044.6, 7972.7124, -0.0293721, 0.025646653, -1465613.1, 174845.45, 0.0, 5.100727, 4.984003 
8.5576236e+2, 1.3757508e+2, -1432314.4, -1603341.9, 19709.266, -0.041675795, -0.0097040245, -1430072.5, 161692.06, 0.0, 5.0970154, 4.981512 
8.554824e+2, 1.4254981e+2, -1393860.6, -1557417.9, 22112.605, 0.03134968, 0.010786194, -1390923.8, 152088.27, 0.0, 5.093508, 4.9821205 
8.5519296e+2, 1.4752191e+2, -1354759.9, -1512994.0, 22845.979, 0.013064749, -0.0016605818, -1351527.4, 142758.2, 0.0, 5.0902777, 4.982305 
8.5490626e+2, 1.5249445e+2, -1318224.3, -1472340.1, 27762.59, -0.019498121, -0.0014983816, -1313375.6, 132179.13, 0.0, 5.0869536, 4.9811068 
8.546276e+2, 1.5746672e+2, -1278066.9, -1427350.9, 30394.658, -0.008559166, 0.0008585741, -1272115.6, 124710.664, 0.0, 5.0840583, 4.9813085 
8.5435414e+2, 1.6243784e+2, -1240846.4, -1388290.6, 34048.223, 0.013349252, 0.0009820532, -1233363.6, 114745.84, 0.0, 5.0812936, 4.979318 
8.540792e+2, 1.674075e+2, -1199950.1, -1344109.8, 35272.73, 0.005218923, -0.0014962233, -1191782.4, 107624.41, 0.0, 5.0788636, 4.978994 
8.538062e+2, 1.723762e+2, -1162003.4, -1305281.6, 38531.813, -0.008145241, 0.0016838525, -1152298.4, 98415.055, 0.0, 5.0764136, 4.976746 
8.535367e+2, 1.7734337e+2, -1120113.0, -1260346.1, 39606.664, -0.0034857998, 0.00017489067, -1109700.0, 92335.336, 0.0, 5.0742235, 4.976544 
8.532694e+2, 1.8230906e+2, -1081963.0, -1222548.1, 42218.54, 0.004782802, 0.00052724354, -1070259.0, 83112.484, 0.0, 5.0719914, 4.9738245 
8.53002e+2, 1.8727313e+2, -1039862.75, -1177871.3, 42680.92, 0.0020598024, -0.00092466944, -1027729.8, 76993.78, 0.0, 5.0699224, 4.973446 
8.527351e+2, 1.922357e+2, -1001405.6, -1140374.3, 44573.703, -0.0017892126, 0.0014568048, -988337.6, 67752.85, 0.0, 5.067803, 4.9705553 
8.524693e+2, 1.9719635e+2, -958862.8, -1095450.1, 44899.125, -0.00048241107, -0.000429248, -945425.44, 62050.49, 0.0, 5.065804, 4.970215 
8.522036e+2, 2.0215535e+2, -920382.9, -1058921.8, 46132.824, 0.0020543353, 0.0009633056, -906426.75, 52451.168, 0.0, 5.0637865, 4.9669285 
8.5193753e+2, 2.0711234e+2, -877551.5, -1013851.3, 45900.656, 0.00074063527, -0.00047842378, -863535.2, 46764.24, 0.0, 5.061875, 4.966554 
8.516708e+2, 2.1206762e+2, -838973.5, -977730.25, 46236.863, -0.0015448002, 0.001650189, -824978.0, 36759.82, 0.0, 5.059894, 4.9630876 
8.514038e+2, 2.1702069e+2, -796574.06, -932799.9, 45866.188, -0.0005722245, -0.00015669677, -782570.75, 30627.123, 0.0, 5.0577874, 4.9627213 
8.511354e+2, 2.2197203e+2, -758167.1, -896900.9, 45302.297, 0.0008830756, 0.0015786511, -744684.4, 19990.3, 0.0, 5.0556774, 4.959218 
8.508657e+2, 2.2692123e+2, -716018.9, -851982.56, 44734.09, -0.000005076374, -0.000053157455, -702620.94, 13551.578, 0.0, 5.053433, 4.95887 
8.505943e+2, 2.318687e+2, -677748.7, -816225.2, 43280.293, -0.00038388546, 0.0017475976, -665334.5, 2352.7776, 0.0, 5.051188, 4.9553623 
8.5032135e+2, 2.3681396e+2, -636256.3, -771621.0, 42508.293, 0.0002475277, -0.00054486515, -624014.6, -4791.018, 0.0, 5.0486884, 4.954979 
8.5004604e+2, 2.4175763e+2, -598237.94, -735539.44, 40083.28, 0.00047969594, 0.0016163503, -587392.75, -16617.3, 0.0, 5.0461755, 4.951685 
8.497686e+2, 2.466992e+2, -557606.5, -691316.3, 39004.72, 0.0006640894, -0.0006266642, -547060.2, -24712.387, 0.0, 5.0433183, 4.951297 
8.4948844e+2, 2.5163937e+2, -520151.25, -655073.2, 35924.61, 0.0004080058, 0.0017022281, -511182.13, -37247.938, 0.0, 5.0404305, 4.9481916 
8.4920585e+2, 2.5657758e+2, -480507.8, -610801.25, 34395.914, -0.00009232904, -0.000519524, -471985.16, -46445.0, 0.0, 5.037076, 4.9480014 
8.489207e+2, 2.615147e+2, -443961.88, -574224.3, 30827.076, 0.000103749466, 0.00269444, -437034.9, -59878.26, 0.0, 5.03366, 4.945203 
8.486327e+2, 2.6645005e+2, -405257.75, -529502.1, 28887.14, -0.00018723674, -0.0007388331, -398869.84, -70080.05, 0.0, 5.0297513, 4.945376 
8.483421e+2, 2.7138475e+2, -369850.03, -492675.25, 25405.674, -0.0006864856, 0.0023268114, -364802.47, -84372.51, 0.0, 5.025739, 4.942877 
8.4804875e+2, 2.7631816e+2, -331706.72, -447070.06, 23090.215, -0.0011563172, -0.00060303434, -327256.8, -95174.7, 0.0, 5.0213475, 4.9435415 
8.4775317e+2, 2.8125107e+2, -297287.9, -410264.66, 19922.156, -0.0011134055, 0.0019896044, -293877.8, -110138.29, 0.0, 5.0168796, 4.9411616 
8.474552e+2, 2.8618336e+2, -259631.05, -363292.56, 17573.006, 0.00007730207, -0.0003402586, -256733.03, -121329.78, 0.0, 5.0119734, 4.942486 
8.4715515e+2, 2.9111534e+2, -226605.11, -326910.44, 14798.147, -0.0004089468, 0.0033871806, -224467.48, -137397.61, 0.0, 5.0069504, 4.9401283 
8.4685326e+2, 2.960466e+2, -189704.8, -279117.03, 12706.177, -0.00003389433, -0.0033521894, -187934.22, -149190.39, 0.0, 5.001531, 4.9419146 
8.465497e+2, 3.009787e+2, -156918.92, -240775.52, 9749.65, -0.001698182, 0.0032455146, -155800.28, -155800.28, 0.0, 4.9959784, 4.9404173 
8.4624493e+2, 3.0591083e+2, -123348.14, -198197.48, 8479.615, 0.0014492201, 0.00089460897, -122399.516, -122399.516, 0.0, 4.9900813, 4.94049 
8.459396e+2, 3.108473e+2, -98269.52, -143181.53, 3881.9602, 0.004172303, -0.004346638, -97936.46, -97936.46, 0.0, 4.9839964, 4.9541674 
8.4563166e+2, 3.157988e+2, -104019.78, -123540.71, 2345.061, -0.012512261, 0.011573399, -103742.02, -103742.02, 0.0, 4.9775743, 4.964062 
8.453274e+2, 3.2076892e+2, -82806.24, -45992.28, -4706.82, 0.008848972, -0.006771283, -45400.023, -45400.023, 0.0, 4.9714556, 4.9954357 
8.450223e+2, 3.2575518e+2, -91209.18, -29627.232, -4994.1523, -0.00061038096, 0.020442056, -29224.848, -29224.848, 0.0, 4.9644175, 5.0044484 
8.611566e+2, 1.3290486e+2, -1468387.5, -1634370.5, 9707.617, 0.055920634, -0.027108261, -1467821.6, 169710.77, 0.0, 5.0987296, 4.986475 
8.6085016e+2, 1.3788e+2, -1437766.4, -1604285.4, 19789.1, -0.03881555, -0.0021921436, -1435446.9, 153329.14, 0.0, 5.094867, 4.982168 
8.60567e+2, 1.4285423e+2, -1397146.9, -1554462.6, 23367.664, 0.03521164, 0.003482207, -1393749.1, 146279.58, 0.0, 5.091558, 4.983967 
8.602735e+2, 1.4782839e+2, -1357801.6, -1510363.4, 24629.512, 0.008649278, -0.0022388424, -1353924.0, 137358.19, 0.0, 5.0885267, 4.9839406 
8.599843e+2, 1.5280242e+2, -1321041.1, -1469737.8, 30122.23, -0.021083988, 0.0012518909, -1315170.9, 127365.64, 0.0, 5.08535, 4.982648 
8.597034e+2, 1.5777569e+2, -1279974.3, -1424003.6, 32965.65, -0.006289433, 0.0008785487, -1272787.6, 121010.88, 0.0, 5.0827265, 4.9829655 
8.594274e+2, 1.6274786e+2, -1242343.9, -1384837.5, 36992.184, 0.014417845, -0.00031575494, -1233312.9, 111758.21, 0.0, 5.08016, 4.980902 
8.591499e+2, 1.6771883e+2, -1201082.8, -1340520.9, 38438.813, 0.0042025, -0.0014619565, -1191188.5, 105167.38, 0.0, 5.077883, 4.9805474 
8.588748e+2, 1.7268868e+2, -1162875.4, -1301662.6, 42011.87, -0.0087834345, 0.0020955966, -1151148.9, 96502.48, 0.0, 5.075576, 4.978231 
8.586034e+2, 1.7765681e+2, -1120501.9, -1256440.5, 43356.363, -0.002946957, 0.000015750496, -1107851.1, 91112.45, 0.0, 5.0735593, 4.978042 
8.583341e+2, 1.826235e+2, -1081970.4, -1218497.6, 46146.1, 0.0053451844, 0.000010918362, -1067836.4, 82453.586, 0.0, 5.071491, 4.975289 
8.5806465e+2, 1.8758862e+2, -1039383.1, -1173503.6, 46942.605, 0.0018259662, -0.0009825203, -1024585.7, 77046.0, 0.0, 5.0695906, 4.974937 
8.577958e+2, 1.925522e+2, -1000423.9, -1135725.6, 49074.813, -0.0022453212, 0.0014270184, -984498.56, 68489.92, 0.0, 5.067656, 4.97205 
8.5752815e+2, 1.9751386e+2, -957308.2, -1090435.1, 49630.406, -0.00043918894, -0.00062450155, -940842.3, 63521.996, 0.0, 5.0658603, 4.971742 
8.572606e+2, 2.0247369e+2, -918744.1, -1054612.3, 51214.375, 0.0021305617, 0.0008064589, -901602.06, 54156.12, 0.0, 5.064052, 4.968115 
8.569927e+2, 2.0743132e+2, -875403.9, -1009215.6, 51354.25, 0.00076509616, -0.0005271476, -857967.25, 49206.13, 0.0, 5.0623183, 4.967769 
8.56724e+2, 2.123872e+2, -836313.56, -972886.2, 51886.72, -0.001540489, 0.0013342217, -818837.1, 39768.758, 0.0, 5.060551, 4.9642663 
8.56455e+2, 2.1734087e+2, -793199.25, -927467.75, 51762.324, -0.0002555325, -0.0005787639, -775561.2, 34498.73, 0.0, 5.05869, 4.963953 
8.5618454e+2, 2.2229272e+2, -754288.6, -891620.5, 51536.7, 0.0013099066, 0.0008617701, -737099.75, 24431.928, 0.0, 5.0568347, 4.960313 
8.559128e+2, 2.2724237e+2, -711530.06, -846470.94, 51253.047, 0.00017041231, -0.00062121113, -694270.75, 18754.482, 0.0, 5.0548425, 4.9599285 
8.5563904e+2, 2.321902e+2, -672514.8, -810416.5, 50114.9, -0.00051895535, 0.0013178935, -656226.44, 8310.028, 0.0, 5.0528884, 4.9563913 
8.553637e+2, 2.3713575e+2, -630240.3, -765513.0, 49692.973, 0.00040656707, -0.0009083223, -613947.7, 2122.1497, 0.0, 5.0506988, 4.9559736 
8.5508585e+2, 2.4207953e+2, -591648.0, -729830.5, 47549.938, 0.0006859306, 0.0010253072, -576866.7, -9245.788, 0.0, 5.048534, 4.9523797 
8.548056e+2, 2.47021e+2, -550129.56, -685226.25, 46670.94, 0.00073205197, -0.0011027073, -535574.56, -16380.235, 0.0, 5.04603, 4.9519625 
8.5452265e+2, 2.5196096e+2, -511907.8, -648954.6, 43675.547, 0.00055498135, 0.0016833707, -499172.3, -28389.328, 0.0, 5.0434914, 4.9487123 
8.542368e+2, 2.5689876e+2, -471596.97, -604617.7, 42409.203, 0.0006127097, -0.00062636926, -459226.6, -36833.96, 0.0, 5.0404468, 4.9484076 
8.5394794e+2, 2.6183537e+2, -434430.06, -567968.6, 38890.91, 0.00021342776, 0.0022425966, -423929.44, -49915.195, 0.0, 5.037289, 4.945528 
8.5365593e+2, 2.6677018e+2, -395174.0, -523088.56, 37115.16, -0.00023671617, -0.00084528065, -385184.88, -59531.883, 0.0, 5.0336037, 4.945663 
8.5336125e+2, 2.7170408e+2, -359443.06, -486642.16, 33604.97, -0.00015685408, 0.001693318, -351110.72, -73810.28, 0.0, 5.029805, 4.9429417 
8.5306334e+2, 2.7663672e+2, -321296.56, -440817.97, 31189.156, -0.00023136915, -0.0008821566, -313647.3, -84686.8, 0.0, 5.0253725, 4.9437065 
8.5276294e+2, 2.815687e+2, -287538.4, -404843.4, 27732.363, -0.0003781739, 0.0012882171, -281312.56, -100685.73, 0.0, 5.020759, 4.9411025 
8.524598e+2, 2.865001e+2, -250304.11, -357792.75, 25072.732, 0.00030059024, -0.0010802397, -244743.34, -112444.02, 0.0, 5.015648, 4.942552 
8.5215443e+2, 2.914311e+2, -218093.66, -322313.06, 21970.816, 0.00097195816, 0.0026167354, -213651.28, -129675.65, 0.0, 5.0104322, 4.9399624 
8.5184693e+2, 2.9636148e+2, -181203.83, -274284.13, 19630.416, 0.000476515, -0.0036846711, -177233.2, -141575.25, 0.0, 5.0049543, 4.9418654 
8.515375e+2, 3.0129257e+2, -149408.67, -237142.1, 16453.395, -0.0007390863, 0.0041386397, -146424.53, -146424.53, 0.0, 4.9991727, 4.9400563 
8.5122687e+2, 3.0622375e+2, -115589.91, -193757.39, 14716.149, 0.0024916518, 0.00027103937, -112911.17, -112911.17, 0.0, 4.993219, 4.9404335 
8.509153e+2, 3.1115934e+2, -92311.445, -142111.81, 9575.366, 0.005392117, -0.002106521, -90533.8, -90533.8, 0.0, 4.986958, 4.9530106 
8.5060084e+2, 3.1610942e+2, -96282.23, -119133.23, 7791.7744, -0.0128359, 0.0065021925, -93878.27, -93878.27, 0.0, 4.9806423, 4.9640474 
8.5029024e+2, 3.210787e+2, -78919.37, -48574.47, 181.72893, 0.011219601, -0.0055598244, -48573.383, -48573.383, 0.0, 4.9741583, 4.9930477 
8.4997857e+2, 3.260614e+2, -86610.44, -29625.66, 326.34952, -0.002330863, -0.008288651, -29623.791, -29623.791, 0.0, 4.966826, 5.003093 
8.662375e+2, 1.3321288e+2, -1469651.3, -1633357.5, 12119.051, -0.029081518, 0.023996865, -1468759.0, 165755.33, 0.0, 5.0977993, 4.9873347 
8.65939e+2, 1.3818605e+2, -1438144.6, -1598662.4, 18457.668, -0.0054204557, 0.0033824858, -1436049.5, 149727.33, 0.0, 5.093409, 4.9847846 
8.656471e+2, 1.4316145e+2, -1396570.5, -1549670.8, 22354.566, 0.008453869, -0.0017389467, -1393373.3, 143644.73, 0.0, 5.090731, 4.9860024 
8.653531e+2, 1.4813787e+2, -1357966.4, -1506419.1, 23495.197, 0.00680793, -0.002249799, -1354336.6, 133912.53, 0.0, 5.0875487, 4.9857655 
8.6506206e+2, 1.5311371e+2, -1321593.1, -1466543.5, 29834.012, -0.011768949, 0.003782553, -1315692.8, 123793.17, 0.0, 5.0843887, 4.984202 
8.6477816e+2, 1.5808809e+2, -1279631.4, -1420378.8, 32907.348, -0.005123008, 0.0007746798, -1272317.5, 118419.484, 0.0, 5.0820894, 4.98451 
8.644995e+2, 1.6306151e+2, -1241665.0, -1381328.3, 37055.61, 0.011798708, -0.0012964975, -1232442.4, 109555.09, 0.0, 5.079722, 4.982304 
8.6421996e+2, 1.680338e+2, -1200249.4, -1337064.3, 38517.047, 0.0032679962, -0.0010086736, -1190151.1, 103118.016, 0.0, 5.0775294, 4.981893 
8.639429e+2, 1.7300482e+2, -1161787.4, -1298116.5, 42260.496, -0.008460551, 0.0026692832, -1149750.0, 94803.16, 0.0, 5.0753355, 4.9795485 
8.636697e+2, 1.7797406e+2, -1119189.6, -1252801.3, 43703.207, -0.0022256786, 0.000018681796, -1106164.5, 89690.15, 0.0, 5.0734076, 4.9793506 
8.6339843e+2, 1.8294182e+2, -1080602.8, -1214969.6, 46562.695, 0.005786985, -0.0002077256, -1066044.6, 81125.83, 0.0, 5.0713987, 4.976529 
8.6312693e+2, 1.8790805e+2, -1037763.56, -1169890.9, 47316.684, 0.0015711215, -0.0006763373, -1022566.7, 75934.664, 0.0, 5.0695915, 4.9761667 
8.628563e+2, 1.9287266e+2, -998602.3, -1132314.5, 49414.902, -0.0028121932, 0.0017810467, -982322.56, 67525.53, 0.0, 5.0677924, 4.9731503 
8.62587e+2, 1.9783528e+2, -954956.44, -1086763.5, 49798.094, -0.0006394415, -0.00021551576, -938257.75, 62956.754, 0.0, 5.066191, 4.9728436 
8.623176e+2, 2.02796e+2, -916321.1, -1051106.0, 51231.586, 0.0022659353, 0.0009832282, -899058.9, 53540.723, 0.0, 5.0644565, 4.969123 
8.62048e+2, 2.0775452e+2, -873160.44, -1005768.7, 51558.49, 0.00075896626, -0.00033991248, -855473.4, 48532.793, 0.0, 5.062655, 4.9687924 
8.617774e+2, 2.1271122e+2, -834220.8, -969753.94, 51999.28, -0.0016002348, 0.0014332547, -816569.4, 38861.18, 0.0, 5.0608816, 4.965188 
8.615065e+2, 2.1766569e+2, -790915.2, -924257.94, 51902.41, -0.0005966591, -0.00029614143, -773094.4, 33782.3, 0.0, 5.0590906, 4.9648733 
8.612342e+2, 2.2261822e+2, -752018.2, -888816.44, 51487.875, 0.001224418, 0.0009897904, -734805.1, 23536.553, 0.0, 5.0573015, 4.9610715 
8.609603e+2, 2.2756848e+2, -709206.5, -843725.4, 51152.285, 0.000327234, -0.00041180322, -691965.1, 17864.074, 0.0, 5.055344, 4.960655 
8.606845e+2, 2.3251684e+2, -670309.2, -807961.25, 49756.566, -0.0006827343, 0.0014263712, -654207.4, 7127.847, 0.0, 5.0533857, 4.957025 
8.604069e+2, 2.3746292e+2, -628160.06, -763240.0, 49017.984, -0.000014092315, -0.00058348855, -612247.0, 616.54285, 0.0, 5.0511703, 4.956559 
8.601267e+2, 2.4240702e+2, -589913.75, -728497.5, 46624.957, 0.0002385561, 0.0014098446, -575687.7, -11276.242, 0.0, 5.04902, 4.95264 
8.598438e+2, 2.473487e+2, -548618.94, -684298.2, 45622.188, 0.00064014766, -0.00034712584, -534705.25, -18721.914, 0.0, 5.046486, 4.952102 
8.59558e+2, 2.522886e+2, -510781.28, -648702.44, 42274.523, 0.00041261688, 0.0022182679, -498854.9, -31282.398, 0.0, 5.0438833, 4.9486594 
8.592689e+2, 2.5722623e+2, -470688.9, -604492.94, 40722.34, -0.00003991652, -0.00086763705, -459269.88, -40085.703, 0.0, 5.0407586, 4.9483495 
8.5897666e+2, 2.6216257e+2, -433675.9, -568355.9, 36744.01, -0.00047248878, 0.0019234844, -424303.47, -53495.395, 0.0, 5.037599, 4.9453073 
8.5868084e+2, 2.670971e+2, -394815.53, -523945.6, 34638.848, -0.00086497184, -0.00055020425, -386110.56, -63660.973, 0.0, 5.0338154, 4.9453235 
8.583821e+2, 2.7203044e+2, -359503.06, -488215.63, 30557.059, -0.0008169956, 0.0015460474, -352617.06, -78514.96, 0.0, 5.029931, 4.942405 
8.5807985e+2, 2.769625e+2, -321370.22, -442552.0, 27938.201, -0.000055780205, -0.0012329066, -315239.28, -89471.44, 0.0, 5.0255194, 4.9431086 
8.5777473e+2, 2.8189388e+2, -287200.66, -406567.5, 24303.645, -0.00004063979, 0.0013769096, -282442.03, -105002.15, 0.0, 5.0210705, 4.9404473 
8.5746616e+2, 2.868245e+2, -249771.27, -359496.8, 21632.48, -0.0010000708, -0.002182582, -245660.4, -116540.5, 0.0, 5.01605, 4.9418564 
8.571557e+2, 2.917548e+2, -217052.64, -323754.8, 18675.064, 0.0000308893, 0.0022142606, -213878.55, -133075.94, 0.0, 5.011003, 4.9392905 
8.568427e+2, 2.966845e+2, -180053.48, -275685.06, 16170.855, 0.0007998242, -0.0038856168, -177393.08, -144901.34, 0.0, 5.0055647, 4.9411964 
8.5652745e+2, 3.0161467e+2, -147762.77, -238264.78, 13101.586, -0.0011112092, 0.0030671393, -145904.27, -145904.27, 0.0, 4.999956, 4.9394155 
8.5621065e+2, 3.0654496e+2, -114571.69, -195560.94, 11290.002, 0.0023412947, 0.0013374606, -113027.3, -113027.3, 0.0, 4.9938593, 4.939617 
8.5589296e+2, 3.1147927e+2, -89767.086, -141547.98, 6418.036, 0.005569968, -0.00482788, -88983.45, -88983.45, 0.0, 4.987776, 4.9529657 
8.5557204e+2, 3.164286e+2, -94792.664, -120582.78, 4368.474, -0.013442732, 0.0075711226, -94072.805, -94072.805, 0.0, 4.981387, 4.9633403 
8.552545e+2, 3.2139733e+2, -75873.61, -47890.594, -2928.8584, 0.008811351, -0.0024487085, -47587.33, -47587.33, 0.0, 4.9750843, 4.993081 
8.54936e+2, 3.2637855e+2, -85278.49, -32646.223, -3572.873, -0.005495816, 0.006834646, -32404.791, -32404.791, 0.0, 4.9676957, 5.0018992 
8.7132746e+2, 1.3351643e+2, -1473284.0, -1625970.6, 10478.678, 0.001777169, -0.013950389, -1472568.3, 158971.3, 0.0, 5.0946054, 4.991318 
8.710233e+2, 1.3849641e+2, -1441370.4, -1593490.5, 20949.96, 0.006377823, 0.008306792, -1438537.9, 144197.56, 0.0, 5.090965, 4.9876313 
8.7072575e+2, 1.4347292e+2, -1400765.4, -1546590.5, 24326.453, -0.013731624, -0.0074133547, -1396814.4, 137151.11, 0.0, 5.0883303, 4.9881167 
8.704315e+2, 1.4845179e+2, -1361075.4, -1502297.0, 25029.594, 0.01273396, -0.002003338, -1356770.5, 128402.09, 0.0, 5.085426, 4.9880924 
8.70138e+2, 1.534296e+2, -1324367.0, -1462910.5, 32115.764, -0.004521772, 0.0059786392, -1317284.4, 119105.875, 0.0, 5.082566, 4.9862065 
8.698511e+2, 1.584053e+2, -1281945.9, -1416682.0, 35416.094, -0.006956549, 0.0002467557, -1273203.8, 114424.58, 0.0, 5.0804787, 4.98643 
8.6957043e+2, 1.6338018e+2, -1243807.5, -1377891.6, 39660.074, 0.009881959, -0.0022665919, -1232955.1, 105919.586, 0.0, 5.0782766, 4.9840426 
8.692891e+2, 1.683539e+2, -1201883.5, -1333397.3, 41328.273, 0.0034258321, -0.00062160817, -1189974.5, 100157.586, 0.0, 5.0762815, 4.983611 
8.690102e+2, 1.7332625e+2, -1162929.9, -1294058.1, 45438.64, -0.008486083, 0.0029170052, -1148723.6, 92679.44, 0.0, 5.074257, 4.9813094 
8.687352e+2, 1.7829679e+2, -1119903.4, -1248540.8, 47022.18, -0.0018247433, -0.0002246234, -1104547.9, 88143.9, 0.0, 5.072494, 4.9811 
8.6846215e+2, 1.8326585e+2, -1080997.0, -1210690.6, 50140.03, 0.0062417025, -0.0004226812, -1063873.5, 80121.47, 0.0, 5.0706487, 4.9782023 
8.68189e+2, 1.8823335e+2, -1037702.1, -1165377.8, 51212.53, 0.0012503711, -0.00056152395, -1019698.7, 75614.88, 0.0, 5.069012, 4.9778385 
8.679167e+2, 1.9319907e+2, -998324.7, -1128029.4, 53611.527, -0.0032495505, 0.0016834714, -979034.1, 67615.42, 0.0, 5.067381, 4.9746604 
8.6764586e+2, 1.9816269e+2, -954359.25, -1082364.8, 54384.605, -0.00049882045, -0.00031183896, -934373.7, 63632.37, 0.0, 5.0659328, 4.9743156 
8.6737496e+2, 2.0312446e+2, -914993.0, -1045792.1, 55991.15, 0.0024489656, 0.0006895711, -894298.94, 55081.6, 0.0, 5.0643682, 4.9708195 
8.671036e+2, 2.0808417e+2, -871294.75, -1000132.06, 56556.535, 0.0006610189, -0.00060640485, -849990.56, 50784.902, 0.0, 5.062765, 4.9705067 
8.668313e+2, 2.1304195e+2, -832016.0, -964231.6, 57381.52, -0.0014628181, 0.001108045, -810585.94, 41603.293, 0.0, 5.061195, 4.9667673 
8.665587e+2, 2.1799743e+2, -788148.6, -918414.25, 57730.098, -0.0005440512, -0.00038717999, -766246.75, 37378.75, 0.0, 5.05962, 4.966461 
8.662846e+2, 2.2295086e+2, -748715.4, -882939.56, 57617.11, 0.0009293977, 0.00088203116, -727375.44, 27706.375, 0.0, 5.0580916, 4.9625463 
8.6600894e+2, 2.2790197e+2, -705208.0, -837406.2, 57730.695, 0.00037044304, -0.0004119808, -683546.5, 23014.754, 0.0, 5.0563893, 4.962163 
8.657311e+2, 2.3285098e+2, -665734.5, -801872.9, 56541.938, -0.00028741793, 0.0012480587, -645314.06, 12746.684, 0.0, 5.054767, 4.958289 
8.654514e+2, 2.377976e+2, -622701.06, -756713.7, 56360.84, 0.00032030922, -0.0006296174, -602149.5, 7434.4043, 0.0, 5.0529037, 4.95781 
8.651689e+2, 2.4274212e+2, -583596.1, -721682.94, 54223.67, 0.00034998945, 0.0012714473, -564848.9, -3721.2908, 0.0, 5.051107, 4.95383 
8.648837e+2, 2.4768418e+2, -541312.5, -676940.7, 53684.203, 0.0009107066, -0.00050234084, -522635.3, -9939.664, 0.0, 5.0489364, 4.953317 
8.645951e+2, 2.5262424e+2, -502587.47, -641337.56, 50608.438, 0.00034886762, 0.0015125879, -486089.88, -21806.848, 0.0, 5.046743, 4.94969 
8.64303e+2, 2.575619e+2, -461491.44, -596939.9, 49535.82, -0.00031674234, -0.0014531213, -445308.75, -29414.738, 0.0, 5.044069, 4.94924 
8.6400753e+2, 2.62498e+2, -423731.13, -561146.25, 45671.055, -0.00033250844, 0.0011423555, -409936.72, -42416.56, 0.0, 5.0413165, 4.9458966 
8.63708e+2, 2.674321e+2, -384012.44, -516542.13, 43730.63, 0.00000940139, -0.0009809539, -370883.34, -51717.316, 0.0, 5.0379014, 4.9458194 
8.634051e+2, 2.723649e+2, -348172.2, -481020.97, 39621.137, 0.00003466164, 0.0015802826, -337252.97, -66428.86, 0.0, 5.0342846, 4.942718 
8.6309826e+2, 2.7729616e+2, -310183.9, -435655.13, 36931.707, 0.0010605016, -0.0018394679, -300120.44, -77622.48, 0.0, 5.02987, 4.9433284 
8.6278826e+2, 2.8222674e+2, -276386.53, -399641.4, 32998.676, 0.0012910023, 0.00091348146, -268107.94, -93930.02, 0.0, 5.025232, 4.9407644 
8.624743e+2, 2.8715646e+2, -239827.02, -353750.38, 29727.705, -0.00048523454, -0.0024559812, -232536.31, -106669.945, 0.0, 5.020018, 4.9418616 
8.6215836e+2, 2.920859e+2, -207897.9, -317953.1, 26543.838, 0.00106509, 0.0018861155, -201830.4, -124272.29, 0.0, 5.0145993, 4.9394736 
8.6183953e+2, 2.9701474e+2, -171990.58, -270692.1, 23665.129, 0.0006065928, -0.004207915, -166609.84, -137354.58, 0.0, 5.008826, 4.941245 
8.6151856e+2, 3.0194387e+2, -140283.08, -234063.11, 20530.186, -0.00040852543, 0.002871655, -135985.56, -135985.56, 0.0, 5.0031414, 4.939195 
8.611957e+2, 3.0687326e+2, -105409.68, -189876.75, 18493.533, 0.0026871162, 0.000022854114, -101538.09, -101538.09, 0.0, 4.997514, 4.9397173 
8.6087185e+2, 3.118067e+2, -82892.89, -139685.47, 13425.304, 0.007303465, -0.001392624, -79879.18, -79879.18, 0.0, 4.9911275, 4.951862 
8.605441e+2, 3.1675485e+2, -86935.13, -115919.33, 10635.753, -0.016380783, 0.0059148204, -83451.13, -83451.13, 0.0, 4.9845853, 4.963293 
8.602211e+2, 3.217217e+2, -69587.97, -49603.26, 2545.526, 0.015448846, -0.006167453, -49284.125, -49284.125, 0.0, 4.978791, 4.99054 
8.598957e+2, 3.2669908e+2, -74683.56, -30009.19, 1499.9143, -0.005621638, -0.026242051, -29958.889, -29958.889, 0.0, 4.9723754, 5.000515 
8.764153e+2, 1.3383076e+2, -1477816.0, -1628683.3, 7498.7847, 0.039883383, -0.0024683324, -1477444.1, 151014.89, 0.0, 5.0930777, 4.991176 
8.7610084e+2, 1.3880982e+2, -1441165.0, -1589559.9, 21026.5, -0.036466837, -0.003784114, -1438243.3, 141420.78, 0.0, 5.090138, 4.989385 
8.758095e+2, 1.4379005e+2, -1403108.0, -1544503.5, 24069.264, 0.03573329, 0.0035187851, -1399123.1, 131734.45, 0.0, 5.086777, 4.9895883 
8.755074e+2, 1.4876944e+2, -1361540.8, -1498327.9, 25059.408, 0.010414575, -0.0014525745, -1357094.4, 124965.07, 0.0, 5.084326, 4.9899807 
8.7520957e+2, 1.5374827e+2, -1324137.9, -1459104.4, 32524.418, -0.029243285, 0.0009895703, -1316709.0, 116558.18, 0.0, 5.081838, 4.987855 
8.749235e+2, 1.5872587e+2, -1281804.4, -1413229.1, 35500.24, -0.0045358003, 0.00035141828, -1272828.1, 111658.66, 0.0, 5.079791, 4.98794 
8.746418e+2, 1.6370226e+2, -1243476.0, -1374274.4, 39590.082, 0.021148853, -0.0003046136, -1232426.3, 103291.78, 0.0, 5.0776563, 4.9855685 
8.743573e+2, 1.6867726e+2, -1200996.5, -1329291.6, 41437.4, 0.0019001773, -0.0005282273, -1188776.8, 98186.42, 0.0, 5.075817, 4.9852295 
8.740763e+2, 1.7365094e+2, -1161957.9, -1290119.1, 45723.086, -0.013376246, 0.0021718617, -1147317.9, 90903.13, 0.0, 5.073881, 4.9828258 
8.7380016e+2, 1.7862293e+2, -1118674.0, -1244503.8, 47278.637, -0.0008946382, -0.00017086751, -1102889.8, 86605.914, 0.0, 5.072218, 4.982606 
8.735256e+2, 1.8359333e+2, -1079440.4, -1206653.1, 50404.47, 0.008349663, -0.00012318873, -1061890.3, 78895.43, 0.0, 5.070529, 4.979635 
8.7325054e+2, 1.8856211e+2, -1035672.8, -1161122.9, 51451.832, 0.00060023787, -0.00030052013, -1017270.06, 74821.75, 0.0, 5.069062, 4.979271 
8.729767e+2, 1.9352905e+2, -996295.1, -1123933.8, 54001.344, -0.004305611, 0.0017426319, -976513.94, 66901.734, 0.0, 5.0674725, 4.976019 
8.727045e+2, 1.984939e+2, -952375.4, -1078204.3, 54727.586, -0.00008644253, -0.00019957939, -931903.1, 62857.066, 0.0, 5.0659947, 4.9757113 
8.7243205e+2, 2.0345692e+2, -912913.9, -1041522.44, 56247.86, 0.002870618, 0.0007525966, -891784.75, 54337.676, 0.0, 5.0644555, 4.9722404 
8.72159e+2, 2.0841792e+2, -868995.0, -995822.4, 56856.06, 0.00024039, -0.00020876611, -847238.8, 50265.79, 0.0, 5.062949, 4.971903 
8.718852e+2, 2.1337691e+2, -829472.5, -960008.5, 57489.164, -0.0014870408, 0.0013708067, -807764.0, 41142.605, 0.0, 5.061501, 4.968083 
8.71611e+2, 2.1833357e+2, -785424.0, -914160.2, 57842.684, -0.0002141812, -0.00006082282, -763252.94, 37078.434, 0.0, 5.0600076, 4.9677534 
8.7133527e+2, 2.232881e+2, -745979.5, -878889.2, 57465.707, 0.0008446107, 0.0010489008, -724579.06, 27197.89, 0.0, 5.0585246, 4.963749 
8.710578e+2, 2.2824027e+2, -702447.5, -833432.75, 57628.508, -0.00009069268, -0.0001485323, -680702.94, 22542.91, 0.0, 5.056851, 4.9633307 
8.707782e+2, 2.3319025e+2, -663172.3, -798586.6, 56261.227, -0.0006686822, 0.0016459855, -642847.75, 11888.376, 0.0, 5.055266, 4.959208 
8.704966e+2, 2.3813769e+2, -620196.9, -753564.56, 55979.746, 0.0004246683, -0.000033838256, -599814.9, 6436.34, 0.0, 5.0534, 4.958692 
8.70212e+2, 2.430829e+2, -581213.4, -718719.1, 53554.42, 0.00046297195, 0.0014811029, -562816.75, -5028.6533, 0.0, 5.051564, 4.9546785 
8.699245e+2, 2.4802557e+2, -539254.06, -674322.2, 52894.105, 0.0003308162, -0.0009847862, -521005.6, -11655.808, 0.0, 5.049318, 4.95408 
8.696334e+2, 2.5296623e+2, -500941.2, -639757.5, 49277.375, -0.0005318503, 0.0015654025, -485227.34, -24296.246, 0.0, 5.0471187, 4.9501 
8.6933845e+2, 2.579043e+2, -459952.5, -595484.44, 48078.953, -0.001286321, -0.0006395594, -444629.28, -32091.809, 0.0, 5.0444107, 4.949628 
8.6903983e+2, 2.628404e+2, -422863.22, -561179.5, 43616.41, -0.00089220185, 0.0011345599, -410258.06, -46094.32, 0.0, 5.0416074, 4.945805 
8.6873686e+2, 2.6777434e+2, -383498.03, -516942.38, 41393.61, -0.00007096916, -0.0009794611, -371700.94, -55889.594, 0.0, 5.038099, 4.9456444 
8.6843e+2, 2.727069e+2, -347827.66, -481814.53, 36459.184, -0.0001088275, 0.001528794, -338549.28, -71077.05, 0.0, 5.0344334, 4.942449 
8.681186e+2, 2.7763763e+2, -310293.94, -437439.9, 33702.94, 0.0006467137, -0.0022174001, -301912.7, -82761.875, 0.0, 5.030003, 4.942719 
8.6780375e+2, 2.8256765e+2, -275721.3, -400880.47, 29419.348, 0.00041414436, 0.00014312792, -269151.03, -98314.42, 0.0, 5.025578, 4.9402676 
8.6748457e+2, 2.874969e+2, -238987.58, -355126.66, 26250.355, -0.00145441, -0.0021754694, -233329.95, -110799.16, 0.0, 5.020477, 4.9412684 
8.67163e+2, 2.9242554e+2, -206562.33, -319182.7, 23052.67, -0.0014714855, 0.0017949683, -202026.28, -127796.38, 0.0, 5.015259, 4.9388466 
8.668382e+2, 2.973536e+2, -170650.67, -271828.6, 20015.604, -0.0020998195, -0.0039162156, -166834.97, -140900.17, 0.0, 5.0094666, 4.9406567 
8.6651134e+2, 3.0228207e+2, -138177.8, -234335.03, 17400.54, -0.0050867368, 0.0029304218, -135125.88, -135125.88, 0.0, 5.003976, 4.938815 
8.661829e+2, 3.072111e+2, -103318.14, -190235.44, 15419.567, 0.0001626531, 0.0034374876, -100663.7, -100663.7, 0.0, 4.9983573, 4.9393253 
8.6585265e+2, 3.1214353e+2, -80430.64, -139673.28, 9886.277, 0.0058273827, -0.0013185699, -78824.4, -78824.4, 0.0, 4.9920564, 4.9515686 
8.6551774e+2, 3.170905e+2, -86991.64, -119431.05, 7228.773, -0.020514358, 0.012605115, -85453.7, -85453.7, 0.0, 4.9850736, 4.9619474 
8.651897e+2, 3.2205504e+2, -67828.734, -51896.688, 1163.0714, 0.017789137, -0.0051123677, -51812.227, -51812.227, 0.0, 4.9797454, 4.989454 
8.648594e+2, 3.2703412e+2, -72021.77, -34793.73, -2986.9434, 0.0011952171, 0.026598638, -34555.6, -34555.6, 0.0, 4.974119, 4.998284 
8.814916e+2, 1.3414945e+2, -1483927.0, -1628472.3, 10181.388, -0.010381043, 0.015300053, -1483213.4, 142122.2, 0.0, 5.0903654, 4.9925046 
8.8117754e+2, 1.3912746e+2, -1446717.4, -1588144.9, 21075.004, -0.06414159, -0.01384749, -1443643.6, 132907.53, 0.0, 5.0873957, 4.99114 
8.8089144e+2, 1.4411157e+2, -1408151.3, -1542635.6, 24771.592, 0.09056018, 0.018150417, -1403733.5, 123973.234, 0.0, 5.0842175, 4.991388 
8.805803e+2, 1.4909105e+2, -1365200.4, -1495186.5, 26440.656, -0.0022132667, -0.0035872334, -1360027.9, 118879.91, 0.0, 5.082136, 4.992027 
8.8027906e+2, 1.540711e+2, -1327632.6, -1456407.0, 34358.934, -0.057440143, -0.0055702315, -1319038.8, 111064.78, 0.0, 5.0798535, 4.9896398 
8.7999487e+2, 1.5905082e+2, -1285014.5, -1410678.0, 37512.074, 0.0034792603, 0.0016503106, -1274668.5, 106633.84, 0.0, 5.0779877, 4.9895787 
8.79712e+2, 1.6402878e+2, -1245825.1, -1370584.4, 41820.543, 0.03537116, 0.0023487182, -1233103.6, 99414.77, 0.0, 5.0760283, 4.987497 
8.79424e+2, 1.690051e+2, -1202835.9, -1325159.1, 43811.33, -0.0023245432, -0.0010796937, -1188763.4, 94987.1, 0.0, 5.07434, 4.9872327 
8.7914103e+2, 1.7398031e+2, -1163590.0, -1286157.9, 48375.66, -0.020217828, 0.0010439056, -1146797.6, 88195.66, 0.0, 5.0725603, 4.9846873 
8.788644e+2, 1.7895393e+2, -1119823.5, -1240289.3, 50103.594, 0.0014081021, 0.00009513691, -1101708.6, 84543.086, 0.0, 5.0710764, 4.9844675 
8.785885e+2, 1.8392581e+2, -1080299.9, -1202307.9, 53584.105, 0.011637672, 0.00020270955, -1060108.1, 77419.06, 0.0, 5.0695167, 4.981474 
8.7831163e+2, 1.8889599e+2, -1036205.6, -1156546.0, 54889.406, -0.00061656773, -0.00041656155, -1014930.75, 73888.96, 0.0, 5.0681686, 4.981131 
8.780363e+2, 1.9386439e+2, -996376.0, -1118950.9, 57634.137, -0.006023945, 0.001447211, -973533.5, 66595.78, 0.0, 5.0667195, 4.977947 
8.777629e+2, 1.9883075e+2, -952108.8, -1072946.8, 58724.27, 0.00043648735, -0.0002876919, -928272.25, 63186.74, 0.0, 5.0653687, 4.9776683 
8.774891e+2, 2.0379522e+2, -912366.6, -1036201.06, 60528.203, 0.0035332786, 0.0004853304, -887696.3, 55110.77, 0.0, 5.063974, 4.974144 
8.772145e+2, 2.0875764e+2, -868039.94, -990254.44, 61472.01, -0.00017652432, -0.0003395194, -842470.2, 51705.16, 0.0, 5.0626316, 4.973812 
8.7693936e+2, 2.1371798e+2, -828048.44, -954093.0, 62524.94, -0.0017374188, 0.0009340734, -802294.75, 43269.348, 0.0, 5.0613585, 4.9700236 
8.7666374e+2, 2.1867603e+2, -783502.94, -907888.06, 63253.52, 0.00019015656, -0.00042897728, -756988.56, 39986.66, 0.0, 5.0600486, 4.9697275 
8.7638646e+2, 2.2363192e+2, -743498.44, -872360.1, 63195.426, 0.0011690992, 0.0006149335, -717679.6, 30727.922, 0.0, 5.058801, 4.9656916 
8.7610745e+2, 2.2858538e+2, -699247.0, -826509.3, 63877.297, -0.00005566911, -0.00073727814, -672715.9, 27147.846, 0.0, 5.057409, 4.9652796 
8.7582624e+2, 2.3353656e+2, -659273.1, -791410.9, 62875.74, -0.00084778125, 0.00091689057, -634136.44, 17205.723, 0.0, 5.056119, 4.9611087 
8.755429e+2, 2.384852e+2, -615474.3, -745889.3, 63321.31, 0.0005171778, -0.0004919851, -589788.44, 13057.23, 0.0, 5.054568, 4.960621 
8.752564e+2, 2.4343139e+2, -575734.75, -711069.4, 61243.383, 0.00077122013, 0.0009480968, -552135.3, 2237.4885, 0.0, 5.053118, 4.9564066 
8.7496674e+2, 2.4837494e+2, -532599.94, -665836.6, 61260.715, 0.00066612905, -0.001654772, -508714.8, -2788.8547, 0.0, 5.051298, 4.9558907 
8.746733e+2, 2.533163e+2, -493386.28, -631429.94, 58067.88, -0.00011742758, 0.00082801696, -472208.94, -14708.458, 0.0, 5.0495844, 4.9516144 
8.743758e+2, 2.5825498e+2, -451194.34, -586794.06, 57350.117, -0.00073944003, -0.00061230815, -430191.84, -21090.652, 0.0, 5.047391, 4.9510345 
8.740743e+2, 2.631913e+2, -412861.13, -552519.44, 53165.273, -0.00026040158, 0.0012540092, -394925.5, -34200.605, 0.0, 5.0451627, 4.9469485 
8.737679e+2, 2.6812524e+2, -372265.3, -508109.25, 51552.258, 0.0008537152, -0.001021138, -354916.97, -42544.11, 0.0, 5.0422206, 4.946598 
8.734571e+2, 2.730575e+2, -335667.8, -473295.94, 46481.77, 0.0007650678, 0.0019062818, -321440.13, -57403.438, 0.0, 5.039015, 4.943095 
8.731411e+2, 2.7798757e+2, -297549.25, -428845.84, 43639.02, 0.0016835975, -0.002514101, -284368.22, -68646.38, 0.0, 5.03483, 4.9432845 
8.7282133e+2, 2.829171e+2, -264082.44, -393380.88, 38917.316, 0.0020151837, 0.001986597, -253272.55, -85859.82, 0.0, 5.0300922, 4.940603 
8.7249655e+2, 2.878456e+2, -228712.42, -348285.63, 35063.293, -0.00011427363, 0.0016244849, -219189.05, -100075.37, 0.0, 5.024487, 4.941601 
8.721694e+2, 2.9277316e+2, -197182.77, -312941.03, 31641.418, 0.00015039659, 0.0025548032, -189098.47, -118274.64, 0.0, 5.019005, 4.939073 
8.718385e+2, 2.9769972e+2, -161941.95, -266046.28, 28423.75, 0.0006637309, -0.009205813, -154686.98, -132143.88, 0.0, 5.012986, 4.9408236 
8.7150574e+2, 3.0262798e+2, -131090.27, -229276.66, 25697.963, -0.0027157057, 0.0047688433, -124771.13, -124771.13, 0.0, 5.0069265, 4.9389462 
8.7117106e+2, 3.0755746e+2, -96795.12, -185137.92, 23390.576, -0.0018118325, 0.01431182, -90984.21, -90984.21, 0.0, 5.001058, 4.939564 
8.708353e+2, 3.1248724e+2, -72628.53, -137760.58, 17586.8, 0.0085976785, -0.0014172291, -68183.19, -68183.19, 0.0, 4.995919, 4.950211 
8.7049425e+2, 3.1742996e+2, -71873.695, -112978.41, 14427.705, -0.017589116, -0.016311109, -67315.14, -67315.14, 0.0, 4.991254, 4.9612412 
8.701605e+2, 3.2239738e+2, -60134.695, -56936.008, 8265.45, 0.02065288, 0.021854563, -50116.59, -50116.59, 0.0, 4.9847918, 4.9850926 
8.698228e+2, 3.2738116e+2, -67916.87, -36866.285, 2164.7913, -0.018453434, 0.11955461, -36716.086, -36716.086, 0.0, 4.976917, 4.9958987 
8.865726e+2, 1.3446403e+2, -1481269.1, -1618485.9, 12230.953, -0.0028955212, -0.018757848, -1480187.5, 142065.23, 0.0, 5.0893164, 4.9964094 
8.8625777e+2, 1.39449e+2, -1449183.4, -1584480.5, 18886.447, -0.03354885, 0.002379747, -1446596.4, 126803.46, 0.0, 5.0854135, 4.9933553 
8.8596255e+2, 1.4443213e+2, -1408128.1, -1537401.3, 24241.389, 0.05437403, 0.0020583207, -1403731.9, 120833.42, 0.0, 5.0830584, 4.9937305 
8.85653e+2, 1.4941521e+2, -1365272.0, -1491317.3, 25831.854, -0.0028269747, -0.0024017657, -1360183.5, 115547.85, 0.0, 5.081226, 4.993795 
8.8535196e+2, 1.5439746e+2, -1327669.3, -1452473.0, 33674.746, -0.03905781, 0.0009683736, -1319162.8, 107742.4, 0.0, 5.0789614, 4.9914145 
8.850643e+2, 1.5937819e+2, -1284487.0, -1406279.4, 37323.945, 0.0034613598, 0.0009678099, -1273958.9, 104135.13, 0.0, 5.0772705, 4.9914236 
8.847789e+2, 1.6435765e+2, -1245187.1, -1366290.6, 41929.89, 0.027467513, -0.000022494733, -1232086.9, 97208.586, 0.0, 5.075405, 4.9892564 
8.844901e+2, 1.6933586e+2, -1202187.8, -1320864.0, 43812.793, -0.002896511, -0.0006751996, -1187765.6, 92743.29, 0.0, 5.073723, 4.9889917 
8.84206e+2, 1.743127e+2, -1162718.1, -1281905.8, 48546.23, -0.017562164, 0.0017634956, -1145447.4, 86288.48, 0.0, 5.0720654, 4.9863706 
8.839278e+2, 1.792878e+2, -1118294.4, -1235679.8, 50334.836, 0.0022069686, 0.00015930893, -1099666.8, 83313.12, 0.0, 5.0708137, 4.986166 
8.8365036e+2, 1.8426125e+2, -1078482.4, -1197547.8, 53779.086, 0.011137409, 0.00015784173, -1057788.4, 76451.77, 0.0, 5.0693607, 4.9831743 
8.833722e+2, 1.89233e+2, -1034293.44, -1151697.3, 55079.156, -0.0011871698, -0.00019723602, -1012499.25, 73017.68, 0.0, 5.06804, 4.9828525 
8.8309556e+2, 1.9420299e+2, -994207.8, -1113921.5, 57861.09, -0.0061956816, 0.0014838638, -970813.56, 65997.44, 0.0, 5.066677, 4.9796915 
8.8282096e+2, 1.9917098e+2, -949578.5, -1067777.8, 58871.113, 0.0008831381, -0.0001639228, -925260.06, 62864.684, 0.0, 5.0654597, 4.979405 
8.825457e+2, 2.0413706e+2, -909477.6, -1030978.6, 60701.05, 0.0035548604, 0.0006139058, -884348.9, 55108.25, 0.0, 5.0642214, 4.9758286 
8.8226974e+2, 2.0910108e+2, -864734.2, -984705.9, 61522.074, -0.00054513017, -0.000052775835, -838794.06, 52015.715, 0.0, 5.06301, 4.9755526 
8.819933e+2, 2.1406299e+2, -824783.94, -948578.44, 62513.945, -0.0017043514, 0.0010785313, -798708.06, 43475.02, 0.0, 5.061731, 4.971756 
8.817164e+2, 2.1902268e+2, -780319.9, -902418.9, 63343.645, 0.00023449583, -0.00014881494, -753395.2, 40183.055, 0.0, 5.0603924, 4.9714646 
8.8143766e+2, 2.2398017e+2, -740247.0, -866930.5, 63141.918, 0.0009698229, 0.0010946419, -714151.2, 30843.445, 0.0, 5.0591784, 4.967407 
8.811572e+2, 2.2893524e+2, -696013.7, -821181.6, 63776.965, -0.00034154084, -0.000117546886, -669243.0, 27192.021, 0.0, 5.0578036, 4.96696 
8.808745e+2, 2.3388793e+2, -656009.4, -786163.0, 62607.81, -0.000963856, 0.0012436693, -630782.6, 17116.186, 0.0, 5.056543, 4.9627533 
8.8058954e+2, 2.3883806e+2, -612262.75, -740737.75, 62998.63, 0.00039591404, -0.00016758183, -586526.44, 12861.052, 0.0, 5.05499, 4.962236 
8.8030124e+2, 2.4378571e+2, -572764.4, -706523.6, 60738.082, 0.000044243465, 0.0016669728, -549300.2, 1600.3882, 0.0, 5.0535455, 4.957807 
8.8000965e+2, 2.4873061e+2, -529797.75, -661581.25, 60557.273, 0.000015825366, -0.00012627958, -506197.03, -3756.6711, 0.0, 5.051702, 4.9572067 
8.797142e+2, 2.53673e+2, -490900.13, -628126.6, 57030.035, -0.00016284762, 0.0014242682, -470293.4, -16288.006, 0.0, 5.0500073, 4.952603 
8.794144e+2, 2.586125e+2, -448863.06, -583679.7, 56292.313, -0.00088884315, -0.0006977498, -428449.34, -22851.55, 0.0, 5.047778, 4.951981 
8.7911004e+2, 2.6354966e+2, -411070.53, -550637.9, 51415.133, -0.0011254078, 0.0020193083, -394175.03, -36960.99, 0.0, 5.045511, 4.947499 
8.788006e+2, 2.68484e+2, -371038.03, -507013.13, 49558.25, -0.00008224274, 0.0003207675, -354892.78, -46035.5, 0.0, 5.0424585, 4.9469247 
8.784861e+2, 2.7341625e+2, -334931.2, -473479.5, 43606.113, -0.0007094499, 0.0027264322, -322349.38, -61827.895, 0.0, 5.039212, 4.9430184 
8.7816584e+2, 2.783461e+2, -297079.84, -429701.9, 40461.375, 0.00039378027, -0.0019267076, -285710.28, -73500.805, 0.0, 5.0350204, 4.9429865 
8.7784123e+2, 2.832753e+2, -263390.03, -395028.28, 34992.313, 0.0018554261, 0.004244201, -254666.42, -90762.96, 0.0, 5.030502, 4.9399495 
8.775106e+2, 2.882036e+2, -227506.6, -349264.75, 31505.248, -0.0009590984, 0.008223785, -219837.56, -104231.07, 0.0, 5.0250125, 4.941129 
8.771779e+2, 2.9312983e+2, -195353.4, -313400.34, 28114.969, -0.0005531733, 0.00015695709, -188999.34, -121670.25, 0.0, 5.0197186, 4.938691 
8.7684155e+2, 2.980545e+2, -160193.81, -267129.63, 24715.447, 0.0058871573, -0.025246784, -154757.81, -135691.08, 0.0, 5.0137916, 4.940181 
8.765026e+2, 3.0298382e+2, -129026.32, -229237.83, 22284.17, 0.002461935, 0.0065320213, -124294.4, -124294.4, 0.0, 5.0077224, 4.9386773 
8.761605e+2, 3.0791613e+2, -96641.35, -187514.0, 20193.688, -0.007544558, 0.052788116, -92356.0, -92356.0, 0.0, 5.001476, 4.9385905 
8.7582034e+2, 3.12839e+2, -70184.49, -137142.06, 16747.906, 0.008187314, -0.023055064, -66229.05, -66229.05, 0.0, 4.996791, 4.9501114 
8.754778e+2, 3.1776989e+2, -67322.86, -113177.39, 13718.162, 0.0052108923, -0.14199702, -63532.203, -63532.203, 0.0, 4.9931936, 4.9604464 
8.751315e+2, 3.2275862e+2, -60752.37, -64142.574, 3617.7007, -0.0043882183, 0.13576536, -58452.336, -58452.336, 0.0, 4.9857035, 4.9821835 
8.747896e+2, 3.2768384e+2, -58260.04, -2145.1653, -3016.4604, 0.016997848, -0.28764683, -1983.4811, -1983.4811, 0.0, 4.974292, 5.0100713 
8.916519e+2, 1.3478601e+2, -1491696.9, -1620327.5, 12397.326, 0.01793511, 0.0020828203, -1490512.9, 128584.26, 0.0, 5.08502, 4.997852 
8.9133555e+2, 1.3977216e+2, -1453144.6, -1579036.9, 19054.785, 0.0014464145, 0.009559998, -1450323.8, 119909.27, 0.0, 5.0825133, 4.9965467 
8.91029e+2, 1.447555e+2, -1411648.4, -1533091.1, 25018.361, -0.0050869673, -0.016946757, -1406696.3, 114700.164, 0.0, 5.080627, 4.9963117 
8.9072454e+2, 1.4974293e+2, -1370511.8, -1489271.6, 26682.943, 0.0056500225, 0.0041511822, -1364792.1, 107727.68, 0.0, 5.078519, 4.995736 
8.904243e+2, 1.5472709e+2, -1331860.3, -1449265.8, 34948.484, -0.00660666, 0.0087920865, -1322244.5, 101430.4, 0.0, 5.0765104, 4.993614 
8.901315e+2, 1.5970877e+2, -1287372.9, -1402102.3, 38862.125, -0.002603766, -0.0023544983, -1275448.5, 99405.9, 0.0, 5.0752215, 4.993753 
8.898435e+2, 1.6469014e+2, -1247918.8, -1362752.8, 43425.914, 0.010916639, -0.0031435823, -1233346.0, 92690.98, 0.0, 5.073583, 4.9912505 
8.8955504e+2, 1.6967054e+2, -1204471.0, -1317048.5, 45582.54, 0.00016668017, 0.00089269294, -1188329.1, 88900.04, 0.0, 5.0720606, 4.9909997 
8.892702e+2, 1.7464906e+2, -1164591.1, -1277826.6, 50673.883, -0.009847444, 0.0028514334, -1145225.9, 83213.71, 0.0, 5.070553, 4.988392 
8.889899e+2, 1.796257e+2, -1119867.4, -1231399.0, 52657.79, 0.00086256774, -0.00037009397, -1098934.6, 80733.93, 0.0, 5.069414, 4.988198 
8.887111e+2, 1.8460089e+2, -1079754.0, -1193075.9, 56294.344, 0.007593492, -0.00015444306, -1056543.1, 74368.72, 0.0, 5.06808, 4.9852085 
8.884321e+2, 1.8957448e+2, -1035108.9, -1146680.1, 57719.05, -0.0006986074, 0.00012505871, -1010622.9, 71547.68, 0.0, 5.066866, 4.9850216 
8.8815445e+2, 1.9454621e+2, -994923.5, -1108916.9, 60901.945, -0.0046432577, 0.0013047841, -968507.56, 64940.06, 0.0, 5.0655794, 4.981815 
8.878785e+2, 1.9951591e+2, -949984.75, -1062458.4, 62125.27, 0.0010259736, -0.0006296885, -922423.44, 62320.836, 0.0, 5.06446, 4.981586 
8.87602e+2, 2.0448379e+2, -909492.6, -1025245.4, 64282.605, 0.0029641832, 0.00026781077, -880870.9, 55188.203, 0.0, 5.063341, 4.978089 
8.8732487e+2, 2.0944968e+2, -864498.8, -978752.25, 65473.75, -0.00089801545, -0.00003292382, -834733.25, 52660.24, 0.0, 5.062232, 4.977833 
8.8704723e+2, 2.1441343e+2, -824212.2, -942235.9, 66829.57, -0.001592977, 0.0009975806, -794069.2, 44679.523, 0.0, 5.0610633, 4.974106 
8.867691e+2, 2.19375e+2, -779267.25, -895642.75, 67911.7, 0.00044345163, -0.00025276715, -748024.5, 42100.99, 0.0, 5.0598774, 4.973897 
8.864891e+2, 2.2433436e+2, -738791.06, -859785.1, 68268.85, 0.00090167345, 0.0007243523, -708071.1, 33452.43, 0.0, 5.0588174, 4.9698896 
8.8620734e+2, 2.2929138e+2, -694017.9, -813455.6, 69422.16, -0.0004168751, -0.00028868517, -662162.8, 30782.014, 0.0, 5.0576186, 4.969554 
8.859232e+2, 2.3424593e+2, -653536.44, -778138.4, 68875.56, -0.0008962887, 0.0009485948, -622965.2, 21425.156, 0.0, 5.056579, 4.965324 
8.8563687e+2, 2.3919794e+2, -608970.5, -732058.5, 69741.65, 0.00059725204, -0.00066037866, -577500.7, 18360.07, 0.0, 5.055322, 4.9648824 
8.85347e+2, 2.4414739e+2, -568747.0, -697556.06, 68121.39, 0.0005242976, 0.0010882309, -539404.7, 7951.5054, 0.0, 5.0542216, 4.960371 
8.850537e+2, 2.4909413e+2, -524616.3, -651919.94, 68899.27, 0.00034782605, 0.00014137203, -494466.97, 4411.167, 0.0, 5.0528297, 4.959802 
8.8475627e+2, 2.5403798e+2, -484713.0, -618370.5, 66144.29, -0.0003245302, 0.0015972303, -457514.38, -7085.9976, 0.0, 5.051628, 4.9549932 
8.844545e+2, 2.5897887e+2, -441221.25, -572995.0, 66296.96, -0.0008077885, -0.0008230018, -413639.6, -11632.062, 0.0, 5.0499496, 4.954431 
8.841477e+2, 2.6391703e+2, -402141.38, -540208.56, 62050.957, -0.0010848301, 0.0014209844, -378352.78, -24739.191, 0.0, 5.0483932, 4.9495134 
8.838354e+2, 2.688521e+2, -359958.6, -495514.38, 61156.68, 0.0002879884, -0.00052625476, -336445.84, -31196.217, 0.0, 5.0461926, 4.948913 
8.8351744e+2, 2.737847e+2, -322656.25, -463162.28, 55481.355, 0.0005569942, 0.002360396, -303390.16, -46479.426, 0.0, 5.043743, 4.9442286 
8.83193e+2, 2.7871445e+2, -283375.63, -418829.38, 52837.684, 0.0011967167, -0.00094681623, -265202.84, -56602.918, 0.0, 5.040119, 4.944149 
8.8286334e+2, 2.83643e+2, -249803.56, -386007.06, 46519.676, 0.0021406214, 0.005981395, -235431.5, -75130.82, 0.0, 5.035815, 4.9403987 
8.825268e+2, 2.885701e+2, -215023.11, -341016.63, 42067.2, 0.00062791805, 0.008044243, -202268.69, -90253.0, 0.0, 5.029909, 4.941521 
8.821878e+2, 2.9349563e+2, -185923.48, -305861.94, 37813.05, 0.0012085531, 0.00076756795, -174997.48, -111252.71, 0.0, 5.0233436, 4.9393773 
8.8184446e+2, 2.984196e+2, -153185.75, -261295.17, 34245.51, 0.0038716942, -0.024693187, -143250.88, -127761.72, 0.0, 5.016679, 4.9405737 
8.815e+2, 3.0334845e+2, -119167.75, -224121.58, 32387.443, 0.0001711526, 0.015111784, -109978.04, -109978.04, 0.0, 5.0121274, 4.9381104 
8.811523e+2, 3.0828e+2, -82877.23, -181341.47, 28305.852, -0.009203955, 0.07074198, -75320.06, -75320.06, 0.0, 5.007291, 4.937858 
8.808069e+2, 3.13198e+2, -62305.844, -133523.63, 24318.537, 0.008336539, -0.03680381, -54794.156, -54794.156, 0.0, 5.000424, 4.9494176 
8.8046116e+2, 3.1812295e+2, -63393.418, -111299.055, 21227.676, 0.014583256, -0.21057509, -55340.742, -55340.742, 0.0, 4.9954376, 4.959666 
8.801062e+2, 3.2313034e+2, -52999.152, -78946.28, 9654.749, -0.018200934, 0.29178977, -49800.902, -49800.902, 0.0, 4.992743, 4.9733577 
8.797533e+2, 3.2806605e+2, -42757.91, -22359.984, 10362.065, -0.027204728, 0.04964341, -18019.648, -18019.648, 0.0, 4.9856462, 4.9973245 
8.967221e+2, 1.351101e+2, -1495538.5, -1618394.0, 9432.729, -0.016958944, 0.026603924, -1494818.5, 121103.01, 0.0, 5.082769, 4.9996324 
8.9640874e+2, 1.4009567e+2, -1452031.6, -1571741.1, 20407.291, 0.0072157257, -0.0037650403, -1448648.4, 118414.39, 0.0, 5.0814233, 4.9995384 
8.960994e+2, 1.4508426e+2, -1411533.8, -1529080.0, 23858.248, -0.012437796, 0.00013981541, -1406875.9, 111298.72, 0.0, 5.0797777, 4.9980907 
8.957934e+2, 1.5007162e+2, -1371636.3, -1484983.1, 25850.822, 0.008538183, 0.0018423202, -1366018.9, 103279.59, 0.0, 5.077056, 4.997905 
8.9549166e+2, 1.550574e+2, -1332765.3, -1444462.0, 35377.13, -0.0049320334, 0.0013300795, -1322503.3, 97934.63, 0.0, 5.075061, 4.9959464 
8.9519775e+2, 1.6004215e+2, -1287443.4, -1397175.0, 39118.746, -0.0031746617, -0.00080781657, -1274925.6, 96661.695, 0.0, 5.074127, 4.995957 
8.949085e+2, 1.6502552e+2, -1248057.6, -1358812.6, 43374.805, 0.01039481, -0.000056064324, -1233092.8, 89657.54, 0.0, 5.072679, 4.993024 
8.9461875e+2, 1.700072e+2, -1203573.0, -1312411.0, 45645.063, -0.000044220113, 0.00027848713, -1186964.5, 86965.164, 0.0, 5.0714855, 4.9928555 
8.943328e+2, 1.7498745e+2, -1163073.6, -1272682.1, 50815.848, -0.009659897, 0.0014160619, -1143140.0, 81983.26, 0.0, 5.0701585, 4.9903393 
8.9405143e+2, 1.7996608e+2, -1118437.0, -1226340.9, 52703.816, 0.0012269681, -0.0002447079, -1096966.8, 79366.03, 0.0, 5.069001, 4.990127 
8.937714e+2, 1.8494308e+2, -1078121.8, -1187889.6, 56341.574, 0.007400623, 0.00021872972, -1054350.6, 73207.54, 0.0, 5.06774, 4.9871464 
8.9349127e+2, 1.8991849e+2, -1032939.1, -1141186.5, 57805.81, -0.0010556027, 0.00018519355, -1007873.9, 70925.35, 0.0, 5.0667124, 4.986981 
8.932125e+2, 1.9489208e+2, -992322.0, -1103115.0, 60973.176, -0.004487023, 0.001176823, -965338.25, 64719.73, 0.0, 5.0655603, 4.9838214 
8.929355e+2, 1.9986376e+2, -947142.06, -1056467.4, 62028.816, 0.0013788705, -0.00040831536, -919127.2, 62208.355, 0.0, 5.06451, 4.9836326 
8.926578e+2, 2.0483358e+2, -906439.5, -1019060.75, 64326.87, 0.002693917, 0.0004852806, -877258.44, 55372.758, 0.0, 5.063456, 4.980176 
8.9237964e+2, 2.098015e+2, -861116.0, -972263.4, 65310.816, -0.001301866, 0.00021685819, -830934.56, 53011.13, 0.0, 5.062427, 4.979996 
8.9210075e+2, 2.1476735e+2, -820630.06, -935520.75, 66642.59, -0.0016888719, 0.0013472697, -790091.3, 45189.14, 0.0, 5.0613065, 4.976329 
8.918214e+2, 2.1973105e+2, -775636.5, -888868.1, 67765.02, 0.00081753515, 0.0002136909, -743949.2, 42686.98, 0.0, 5.06014, 4.97614 
8.915402e+2, 2.2469255e+2, -734869.06, -852585.5, 68043.336, 0.0010121263, 0.00078241446, -703759.6, 34253.715, 0.0, 5.059133, 4.97226 
8.9125717e+2, 2.2965182e+2, -690029.44, -806292.3, 69115.664, -0.0006339152, -0.00020358143, -657848.94, 31563.512, 0.0, 5.057975, 4.971899 
8.909718e+2, 2.3460867e+2, -649469.9, -770884.1, 68525.586, -0.0011980366, 0.0012831062, -618628.56, 22206.924, 0.0, 5.056959, 4.9676886 
8.9068407e+2, 2.39563e+2, -604894.6, -724777.2, 69284.75, 0.000443395, 0.00018250772, -573220.8, 19062.248, 0.0, 5.0557003, 4.9672685 
8.9039284e+2, 2.4451467e+2, -564682.5, -690456.5, 67611.234, 0.00065194885, 0.0015348408, -535232.9, 8523.893, 0.0, 5.054633, 4.9626803 
8.900981e+2, 2.4946366e+2, -520554.06, -644862.5, 68238.91, 0.00065046694, 0.0004148773, -490406.1, 4850.6147, 0.0, 5.0532455, 4.962108 
8.8979894e+2, 2.5440967e+2, -480871.88, -611816.9, 65293.2, -0.0008187122, 0.0021438072, -453878.97, -7093.1587, 0.0, 5.0520396, 4.957132 
8.894954e+2, 2.5935262e+2, -437741.84, -566888.44, 65330.89, -0.0013938773, -0.00018173635, -410457.44, -12112.802, 0.0, 5.050292, 4.956449 
8.891864e+2, 2.6429242e+2, -399268.3, -535555.25, 60741.387, -0.0016530594, 0.0017388719, -376126.25, -26192.1, 0.0, 5.0487223, 4.9510345 
8.888718e+2, 2.692288e+2, -357403.56, -491333.97, 59540.996, -0.0002471172, -0.0015329833, -334761.47, -33204.09, 0.0, 5.0464554, 4.9503093 
8.885508e+2, 2.741622e+2, -320970.88, -461352.3, 53089.98, 0.0004990472, 0.0006805208, -303154.3, -49943.715, 0.0, 5.04401, 4.9448195 
8.882225e+2, 2.7909255e+2, -282375.47, -418327.75, 50161.76, 0.0011177373, -0.00012367862, -265871.1, -60976.66, 0.0, 5.0403204, 4.9443116 
8.87888e+2, 2.8402048e+2, -248831.17, -387425.6, 42532.707, 0.00007018212, 0.0027428246, -236819.5, -80217.48, 0.0, 5.036259, 4.939834 
8.8754576e+2, 2.889463e+2, -213548.3, -342387.25, 38356.99, 0.0010499926, -0.000297142, -202993.6, -94663.16, 0.0, 5.030568, 4.9408836 
8.8719994e+2, 2.9387197e+2, -184139.31, -306852.2, 33021.656, 0.00017832451, 0.001313551, -175817.63, -115759.555, 0.0, 5.0241117, 4.9387875 
8.8684845e+2, 2.987973e+2, -151184.06, -261743.53, 30989.334, -0.011241489, -0.0026906587, -143090.39, -131301.89, 0.0, 5.0174994, 4.9401474 
8.8649946e+2, 3.0372253e+2, -118899.76, -228718.45, 31026.81, -0.017075602, 0.012984443, -110740.09, -110740.09, 0.0, 5.013186, 4.9359684 
8.8614845e+2, 3.086468e+2, -83994.79, -188377.97, 24437.867, -0.0068148696, 0.025121655, -78556.77, -78556.77, 0.0, 5.0081306, 4.9349837 
8.8579494e+2, 3.1356928e+2, -63561.457, -137462.83, 19283.691, 0.007515316, -0.0082621155, -58832.246, -58832.246, 0.0, 5.000492, 4.9480286 
8.8544095e+2, 3.185082e+2, -64724.516, -111670.086, 20395.883, -0.013306676, -0.037745427, -57101.26, -57101.26, 0.0, 4.9948945, 4.9597816 
8.850885e+2, 3.2348382e+2, -48884.215, -74564.38, 13827.855, 0.0032221945, 0.14051513, -42854.29, -42854.29, 0.0, 4.99376, 4.9745145 
8.847348e+2, 3.2841447e+2, -24910.89, 12499.962, 4890.186, 0.04126798, -0.11828174, 13128.622, 13128.622, 0.0, 4.9865847, 5.0101523 
9.017945e+2, 1.354312e+2, -1501308.9, -1612180.1, 7209.3955, 0.005488133, -0.014329563, -1500842.0, 111932.695, 0.0, 5.0787754, 5.0036674 
9.014772e+2, 1.404232e+2, -1459851.0, -1570721.1, 21548.81, -0.0063708257, -0.005036255, -1455810.0, 108043.164, 0.0, 5.0777106, 5.0016527 
9.0116996e+2, 1.4541541e+2, -1418261.5, -1527976.1, 23502.41, 0.0077076326, 0.01808735, -1413438.9, 101490.375, 0.0, 5.0765495, 4.9999895 
9.008597e+2, 1.5040225e+2, -1375452.5, -1480904.0, 26183.334, 0.009648404, -0.007194931, -1369309.1, 96749.0, 0.0, 5.0745125, 5.000478 
9.0055525e+2, 1.5539046e+2, -1336144.5, -1440418.9, 36567.79, -0.0194647, -0.006757652, -1324599.0, 92574.93, 0.0, 5.0727468, 4.9983916 
9.002624e+2, 1.603787e+2, -1290839.0, -1393469.5, 39987.57, -0.00073915656, 0.004193018, -1277098.4, 91190.77, 0.0, 5.0718865, 4.998247 
8.999727e+2, 1.6536388e+2, -1251320.1, -1355783.3, 44275.215, 0.0193384, 0.0038986693, -1235079.6, 84354.805, 0.0, 5.0706625, 4.994966 
8.996808e+2, 1.7034669e+2, -1206116.9, -1308790.6, 46875.973, -0.0026290955, -0.0020437285, -1187935.1, 82667.56, 0.0, 5.0696826, 4.9948945 
8.993936e+2, 1.7532885e+2, -1165087.0, -1268465.0, 52062.086, -0.014719945, -0.00059793954, -1143412.4, 78365.01, 0.0, 5.0684814, 4.9925194 
8.991119e+2, 1.8030977e+2, -1120252.6, -1221915.0, 54162.035, 0.003387437, 0.0006430684, -1096805.0, 76159.46, 0.0, 5.067387, 4.9923425 
8.9883095e+2, 1.8528871e+2, -1079756.3, -1183366.0, 58061.375, 0.010272577, 0.0007996637, -1053748.1, 70422.805, 0.0, 5.066206, 4.989352 
8.985494e+2, 1.9026592e+2, -1034363.25, -1136511.0, 59698.074, -0.0024487225, -0.00037891234, -1006872.5, 68521.69, 0.0, 5.06526, 4.989198 
8.9826965e+2, 1.9524154e+2, -993354.4, -1097838.0, 63056.086, -0.0061202412, 0.0007900743, -963710.4, 62922.746, 0.0, 5.0641794, 4.9862075 
8.979918e+2, 2.0021541e+2, -948072.25, -1051022.8, 64384.73, 0.0019489581, 0.00006903258, -917115.1, 60774.195, 0.0, 5.063165, 4.9860544 
8.977131e+2, 2.0518737e+2, -907152.56, -1013103.44, 66974.305, 0.0032539207, 0.0005852432, -874735.06, 54429.11, 0.0, 5.062126, 4.9827633 
8.974338e+2, 2.1015747e+2, -861683.7, -966114.6, 68194.05, -0.0017125395, -0.0000924986, -828010.4, 52446.87, 0.0, 5.0611506, 4.982619 
8.9715385e+2, 2.151256e+2, -820794.0, -928601.8, 69837.36, -0.001841118, 0.0006362693, -786477.2, 45292.125, 0.0, 5.0600924, 4.979179 
8.968735e+2, 2.2009175e+2, -775722.7, -881825.4, 71346.64, 0.0012778832, -0.00027308916, -739865.1, 43235.918, 0.0, 5.058979, 4.979001 
8.9659107e+2, 2.2505574e+2, -734716.9, -844957.94, 72199.77, 0.00113747, 0.00037010215, -699001.94, 35452.05, 0.0, 5.058021, 4.9752817 
8.963069e+2, 2.3001757e+2, -689464.6, -798075.3, 73528.46, -0.0008948406, -0.00043602, -652361.5, 33466.47, 0.0, 5.0569706, 4.9750667 
8.9602035e+2, 2.3497704e+2, -648542.8, -761990.7, 73546.945, -0.0012531971, 0.00060512644, -612386.44, 24838.9, 0.0, 5.0560446, 4.9710307 
8.9573145e+2, 2.3993418e+2, -603545.44, -715459.0, 74991.98, 0.00062228605, -0.00012324529, -565934.3, 22711.264, 0.0, 5.0549593, 4.9706693 
8.954388e+2, 2.4488857e+2, -562638.44, -680155.3, 74233.8, 0.00025042653, 0.0011625036, -526722.6, 13369.812, 0.0, 5.0540934, 4.9663115 
8.9514273e+2, 2.4984036e+2, -517985.22, -634114.25, 75621.87, 0.00023784135, -0.00006848081, -480707.44, 10857.692, 0.0, 5.052922, 4.965776 
8.9484215e+2, 2.5478905e+2, -477357.44, -599982.06, 73776.9, -0.0004023049, 0.00063123665, -442741.5, 326.13443, 0.0, 5.052055, 4.960981 
8.945371e+2, 2.597348e+2, -432984.44, -554339.25, 75042.4, 0.00042004703, -0.0016490793, -397157.38, -2558.3508, 0.0, 5.0508537, 4.9602675 
8.942264e+2, 2.646772e+2, -392950.75, -522217.3, 71813.54, 0.00007436318, 0.00036350702, -360968.06, -14804.71, 0.0, 5.0499887, 4.9547515 
8.939095e+2, 2.696161e+2, -349349.5, -477415.16, 72441.81, 0.00001692702, -0.00041798092, -316697.16, -18935.316, 0.0, 5.048542, 4.9538217 
8.9358586e+2, 2.7455106e+2, -310848.0, -447627.7, 67336.53, 0.00062228355, 0.0005048102, -283261.9, -33861.766, 0.0, 5.047179, 4.9477262 
8.932546e+2, 2.7948254e+2, -268634.1, -403218.06, 66176.39, 0.0031844364, -0.0007050471, -241546.4, -40473.17, 0.0, 5.045038, 4.946961 
8.9291555e+2, 2.8441083e+2, -233695.67, -374472.94, 58615.656, 0.001909021, 0.003934133, -212485.42, -59707.895, 0.0, 5.0419874, 4.941276 
8.9256734e+2, 2.893357e+2, -198400.75, -331616.75, 53779.086, 0.0022710804, 0.00065551326, -179400.23, -74885.56, 0.0, 5.03668, 4.9414034 
8.922145e+2, 2.9425913e+2, -171069.61, -299633.2, 46502.293, 0.0053878757, -0.0030722818, -156012.81, -99756.484, 0.0, 5.0297093, 4.938386 
8.918556e+2, 2.991815e+2, -145428.25, -259058.84, 41794.063, 0.0029753528, -0.013369592, -131711.83, -123702.65, 0.0, 5.020325, 4.939523 
8.915012e+2, 3.0410516e+2, -117634.37, -223147.83, 43918.605, -0.006471131, -0.0008595924, -101746.24, -101746.24, 0.0, 5.0139327, 4.9369817 
8.9114475e+2, 3.0902633e+2, -82180.03, -185576.77, 40742.273, -0.0049543325, -0.009522872, -68055.5, -68055.5, 0.0, 5.010065, 4.934296 
8.907871e+2, 3.1394783e+2, -52097.1, -142875.69, 35432.793, 0.013053399, 0.002930837, -39904.535, -39904.535, 0.0, 5.0079956, 4.942164 
8.9043117e+2, 3.1889063e+2, -31450.795, -108748.17, 29279.607, -0.009301156, 0.07475703, -21612.201, -21612.201, 0.0, 5.0098023, 4.9542027 
8.90074e+2, 3.2383308e+2, -20615.084, -62874.457, 16012.989, 0.004264011, -0.102986716, -15232.896, -15232.896, 0.0, 5.0043383, 4.9741616 
8.897057e+2, 3.287993e+2, -40806.934, -57532.26, -1757.3125, -0.011999893, 0.055673696, -40624.29, -40624.29, 0.0, 4.9930863, 4.9812384 
9.068633e+2, 1.3575944e+2, -1501487.3, -1607646.1, 7369.8364, 0.018210713, -0.022383483, -1500978.1, 108579.68, 0.0, 5.0776777, 5.005738 
9.065422e+2, 1.4075379e+2, -1461059.4, -1568585.4, 21559.61, -0.032780692, 0.005006823, -1456897.6, 103715.47, 0.0, 5.076672, 5.0028915 
9.062413e+2, 1.4574486e+2, -1420134.4, -1522790.5, 23527.248, 0.060006216, -0.003545769, -1414999.1, 96701.3, 0.0, 5.074572, 5.002702 
9.0592235e+2, 1.5073709e+2, -1375647.0, -1475230.9, 26948.178, -0.009540139, -0.0010381396, -1368822.3, 93954.36, 0.0, 5.073198, 5.003039 
9.056159e+2, 1.5572746e+2, -1336445.9, -1436826.1, 37323.246, -0.049690664, 0.0031023808, -1324089.5, 89781.68, 0.0, 5.071844, 5.000047 
9.0532696e+2, 1.607158e+2, -1291055.1, -1389757.6, 40085.836, 0.015428189, -0.0005647512, -1276826.4, 88159.08, 0.0, 5.07099, 4.999944 
9.050364e+2, 1.6570279e+2, -1250629.3, -1350860.6, 44220.004, 0.036139958, -0.0010559248, -1233909.4, 82203.65, 0.0, 5.0699177, 4.9970045 
9.0474105e+2, 1.706883e+2, -1204925.6, -1303537.4, 46991.137, -0.0129875215, 0.0005139575, -1186119.5, 81135.36, 0.0, 5.069103, 4.996971 
9.044531e+2, 1.7567241e+2, -1163771.5, -1263162.1, 51977.258, -0.023559725, 0.0016285757, -1141555.4, 76855.38, 0.0, 5.0679502, 4.9945903 
9.041719e+2, 1.8065502e+2, -1118685.3, -1216454.1, 54063.73, 0.009338598, -0.0003072652, -1094682.3, 74898.95, 0.0, 5.066943, 4.9944277 
9.038898e+2, 1.8563598e+2, -1077730.0, -1177609.1, 57985.387, 0.014678125, 0.000052286843, -1051143.3, 69624.34, 0.0, 5.0659084, 4.9914765 
9.036066e+2, 1.906154e+2, -1031920.6, -1130493.3, 59500.16, -0.005581604, 0.0002201799, -1003945.0, 68024.48, 0.0, 5.0650983, 4.991356 
9.03326e+2, 1.9559313e+2, -990499.25, -1091221.9, 62736.887, -0.008246102, 0.0011599177, -960410.75, 62776.844, 0.0, 5.0640845, 4.9885416 
9.030475e+2, 2.0056923e+2, -945085.5, -1044319.56, 64203.984, 0.0035340926, 0.00014878786, -913560.7, 60861.176, 0.0, 5.063123, 4.9883957 
9.027678e+2, 2.0554355e+2, -903923.0, -1005963.94, 66732.3, 0.0042401943, 0.0006657723, -870941.75, 54731.938, 0.0, 5.0620985, 4.985259 
9.024872e+2, 2.105161e+2, -858340.6, -958836.7, 67787.64, -0.002480636, 0.00020169606, -824208.4, 52734.336, 0.0, 5.061145, 4.9851656 
9.0220624e+2, 2.1548674e+2, -816845.56, -920690.5, 69470.305, -0.0022165813, 0.0006380845, -782038.2, 46192.02, 0.0, 5.060239, 4.9818816 
9.019248e+2, 2.2045554e+2, -771362.3, -873644.2, 70696.49, 0.0018033235, -0.00029730328, -735248.5, 44287.426, 0.0, 5.059261, 4.9817414 
9.016413e+2, 2.2542234e+2, -730008.0, -836064.5, 71575.05, 0.0014298973, 0.000808422, -693957.75, 36903.676, 0.0, 5.0583234, 4.978261 
9.013559e+2, 2.3038709e+2, -684842.3, -789326.7, 72977.24, -0.0012096724, 0.0001993203, -647335.25, 34871.535, 0.0, 5.05727, 4.9780073 
9.010682e+2, 2.3534954e+2, -643476.9, -752261.2, 73017.58, -0.0013200261, 0.000733168, -606819.2, 26755.635, 0.0, 5.0563493, 4.97432 
9.007782e+2, 2.4030985e+2, -598571.9, -705914.8, 74163.555, 0.00055022334, -0.000104689614, -560696.3, 24267.62, 0.0, 5.055269, 4.9739013 
9.004843e+2, 2.452676e+2, -557308.9, -669781.8, 73550.055, -0.00024401471, 0.001433584, -520959.4, 15418.703, 0.0, 5.0544214, 4.969828 
9.00187e+2, 2.5022283e+2, -512679.66, -623652.5, 74828.57, 0.00011723395, 0.0002945983, -475009.97, 12806.782, 0.0, 5.053216, 4.9693527 
8.998851e+2, 2.5517505e+2, -471910.66, -589235.25, 72944.14, -0.00068024645, 0.00091284444, -436966.8, 2317.8982, 0.0, 5.0523615, 4.9646587 
8.995788e+2, 2.6012442e+2, -427722.53, -543771.6, 74238.5, 0.00026354045, -0.0014521653, -391522.88, -742.0286, 0.0, 5.0511165, 4.963914 
8.9926654e+2, 2.650703e+2, -387594.44, -511699.75, 70710.6, 0.00040963248, 0.00026207796, -355569.9, -13259.046, 0.0, 5.0503063, 4.958355 
8.989481e+2, 2.700128e+2, -344360.4, -467632.28, 71319.61, -0.00022806595, 0.00073882384, -311733.53, -17859.182, 0.0, 5.0488405, 4.957185 
8.986221e+2, 2.749506e+2, -306540.5, -439615.28, 65787.99, -0.0020236834, 0.00054284435, -279508.22, -34022.527, 0.0, 5.0474896, 4.950466 
8.982885e+2, 2.7988434e+2, -265248.28, -396936.2, 64353.563, 0.001327792, -0.0019274013, -239022.66, -41885.957, 0.0, 5.045257, 4.949137 
8.979456e+2, 2.848145e+2, -231668.02, -373411.94, 55292.508, -0.0015158346, 0.007854589, -212650.63, -63827.84, 0.0, 5.042479, 4.941521 
8.975915e+2, 2.8973937e+2, -196757.0, -333132.97, 50531.73, -0.0056499676, 0.010334257, -180074.16, -79517.1, 0.0, 5.0374913, 4.940578 
8.972328e+2, 2.9465765e+2, -169295.0, -304961.7, 42556.938, 0.008426089, -0.037765477, -157050.53, -104721.586, 0.0, 5.031162, 4.93597 
8.968677e+2, 2.9957515e+2, -143323.22, -266089.56, 37885.273, 0.033011444, -0.06724449, -132573.27, -128462.06, 0.0, 5.0222125, 4.9364104 
8.965067e+2, 3.045014e+2, -112816.266, -217232.56, 40910.58, 0.019281967, -0.00956432, -98696.695, -98696.695, 0.0, 5.0151043, 4.938415 
8.961409e+2, 3.0942607e+2, -84246.266, -187230.33, 38888.4, -0.01575464, -0.002022347, -71211.27, -71211.27, 0.0, 5.009765, 4.9335804 
8.9578176e+2, 3.143347e+2, -69270.5, -175393.28, 41755.55, 0.009305033, -0.057714947, -54811.246, -54811.246, 0.0, 5.006951, 4.930699 
8.954318e+2, 3.1926286e+2, -38885.9, -122401.73, 34679.543, 0.020646395, -0.025762862, -26363.115, -26363.115, 0.0, 5.009338, 4.949332 
8.950617e+2, 3.2422316e+2, -17145.645, -59617.363, 8616.515, -0.024857352, 0.0039353436, -15464.13, -15464.13, 0.0, 5.004555, 4.975711 
8.9468724e+2, 3.2917464e+2, -10248.009, -6437.212, -1391.6075, -0.011417095, 0.020375194, -5983.137, -5983.137, 0.0, 4.9970064, 4.9984035 
9.119246e+2, 1.3609414e+2, -1509195.4, -1610551.9, 8040.0503, -0.01752477, 0.021171512, -1508561.6, 97716.11, 0.0, 5.0748525, 5.006114 
9.1160494e+2, 1.4108543e+2, -1470841.0, -1569693.9, 20770.27, -0.053101834, 0.0082110325, -1466654.3, 90708.555, 0.0, 5.072469, 5.0045567 
9.113102e+2, 1.4607611e+2, -1426189.4, -1519135.8, 23052.688, 0.11738693, -0.028763456, -1420785.9, 87668.31, 0.0, 5.0710373, 5.005645 
9.109818e+2, 1.5107481e+2, -1379194.9, -1471621.4, 26823.318, -0.037932795, 0.012361341, -1371974.4, 87492.55, 0.0, 5.070817, 5.0054054 
9.106744e+2, 1.5606685e+2, -1340638.4, -1435437.4, 37475.027, -0.08209321, 0.016323248, -1327613.6, 82931.36, 0.0, 5.06967, 5.001549 
9.103904e+2, 1.610544e+2, -1295272.8, -1388274.5, 40081.805, 0.038415536, -0.009397808, -1280382.5, 81284.81, 0.0, 5.068783, 5.0014925 
9.100986e+2, 1.6604339e+2, -1253650.6, -1347241.0, 44456.367, 0.054676734, -0.008221542, -1235900.0, 76875.305, 0.0, 5.0678043, 4.9992323 
9.097993e+2, 1.7103231e+2, -1207572.9, -1299678.4, 47330.48, -0.028012106, 0.0059335055, -1187587.5, 76296.305, 0.0, 5.0671177, 4.999217 
9.0951097e+2, 1.7601833e+2, -1166123.9, -1259202.6, 52423.508, -0.033837896, 0.0055936156, -1142562.3, 72458.54, 0.0, 5.066093, 4.996804 
9.0923077e+2, 1.8100233e+2, -1120824.8, -1212491.1, 54571.316, 0.01801235, -0.0028722924, -1095392.9, 70784.72, 0.0, 5.065189, 4.996591 
9.089476e+2, 1.8598549e+2, -1079475.6, -1173123.4, 58625.74, 0.020042295, -0.0017024089, -1051269.8, 66072.96, 0.0, 5.064229, 4.993784 
9.0866256e+2, 1.9096741e+2, -1033542.8, -1125661.1, 60526.42, -0.01040732, 0.0017604735, -1003543.44, 64976.473, 0.0, 5.0634284, 4.9937716 
9.083812e+2, 1.9594736e+2, -991976.7, -1085982.5, 63743.887, -0.010876846, 0.0018499005, -959780.1, 59936.227, 0.0, 5.0624113, 4.991093 
9.0810233e+2, 2.0092566e+2, -946518.4, -1038941.94, 65334.473, 0.006264392, -0.00081254035, -912704.44, 58224.508, 0.0, 5.0614514, 4.9909945 
9.0782154e+2, 2.0590247e+2, -904993.4, -999877.7, 68012.94, 0.0056551904, -0.00015395811, -869510.75, 52645.484, 0.0, 5.0604587, 4.98809 
9.075397e+2, 2.108777e+2, -859465.7, -952630.4, 69428.336, -0.004002123, 0.00032988063, -822440.56, 50958.33, 0.0, 5.059489, 4.9880433 
9.0725785e+2, 2.1585105e+2, -817793.25, -913742.75, 71254.34, -0.0029816208, 0.0007420426, -779868.3, 44791.66, 0.0, 5.058542, 4.985027 
9.0697557e+2, 2.2082266e+2, -772357.5, -866463.56, 72893.27, 0.00243336, -0.00039362093, -732649.9, 43288.258, 0.0, 5.057542, 4.984961 
9.0669096e+2, 2.2579244e+2, -730777.06, -828030.7, 73988.49, 0.0017747333, 0.00036062597, -690866.5, 36367.97, 0.0, 5.056565, 4.9817815 
9.064044e+2, 2.3076043e+2, -685647.6, -780974.06, 75652.53, -0.0015823499, 0.000098702585, -643895.56, 34652.84, 0.0, 5.055464, 4.981661 
9.061156e+2, 2.3572625e+2, -644072.3, -742847.7, 76270.53, -0.001384885, 0.00031836354, -602595.6, 27287.51, 0.0, 5.0544868, 4.978354 
9.0582436e+2, 2.4069017e+2, -599150.4, -695806.7, 77835.88, 0.00044628343, -0.0005488642, -555859.56, 25377.094, 0.0, 5.0533457, 4.9781814 
9.0552926e+2, 2.456518e+2, -557754.0, -658601.8, 77793.6, 0.00008745381, 0.000954339, -515471.88, 17141.021, 0.0, 5.0524125, 4.9744916 
9.052308e+2, 2.506112e+2, -513044.1, -611857.6, 80042.14, 0.0011766019, -0.000048925554, -468388.28, 15622.717, 0.0, 5.0512037, 4.974213 
9.0492755e+2, 2.5556776e+2, -471871.75, -575914.75, 79231.945, 0.00037987862, 0.0007870365, -429109.6, 6326.7046, 0.0, 5.0503335, 4.970037 
9.046198e+2, 2.6052177e+2, -427447.1, -529536.8, 81872.22, 0.0006829585, -0.0005281469, -382010.7, 4876.163, 0.0, 5.0491405, 4.969557 
9.043062e+2, 2.6547235e+2, -386920.1, -495825.34, 80331.15, 0.0000957476, 0.0007580669, -344325.4, -5954.631, 0.0, 5.048381, 4.964469 
9.0398645e+2, 2.704197e+2, -342673.06, -449933.9, 83006.914, 0.0018421928, -0.00093526545, -297478.56, -7591.3955, 0.0, 5.0472455, 4.9637017 
9.036587e+2, 2.753625e+2, -302899.88, -419916.5, 80354.34, 0.00013268007, -0.00044976678, -262009.8, -20560.67, 0.0, 5.0467734, 4.957172 
9.033229e+2, 2.803012e+2, -259030.17, -374328.78, 83095.81, 0.0018570703, -0.0013429978, -215544.14, -22492.55, 0.0, 5.0455737, 4.9562545 
9.0297633e+2, 2.852354e+2, -223971.95, -350890.9, 77907.79, -0.0028931063, 0.0069894493, -186948.95, -42250.58, 0.0, 5.0439334, 4.947887 
9.0261865e+2, 2.9016346e+2, -184569.34, -308071.7, 78868.56, 0.00043912607, 0.008929694, -146153.36, -49753.37, 0.0, 5.041109, 4.946614 
9.0225124e+2, 2.950811e+2, -160978.97, -289151.3, 69616.27, 0.0021912465, -0.04998046, -130442.41, -82271.45, 0.0, 5.035012, 4.938457 
9.018733e+2, 2.9999885e+2, -144706.77, -256722.19, 69138.44, 0.0042768023, -0.05778371, -111737.02, -111737.02, 0.0, 5.023477, 4.9374375 
9.015137e+2, 3.0491698e+2, -102204.25, -238487.72, 77009.88, 0.0063583553, 0.02311852, -67516.914, -67516.914, 0.0, 5.027861, 4.923417 
9.01155e+2, 3.0982253e+2, -13147.429, -197316.0, 44096.496, -0.011461639, 0.026478639, -3133.6418, -3133.6418, 0.0, 5.0445395, 4.9147224 
9.007882e+2, 3.1472012e+2, 2648.2249, -153793.83, 27116.695, 0.0024219165, -0.048883427, 7215.145, 7215.145, 0.0, 5.033814, 4.927751 
9.0042937e+2, 3.1964618e+2, -26053.93, -118619.914, 31273.65, 0.010859602, -0.031188305, -16478.56, -16478.56, 0.0, 5.013968, 4.9489946 
9.000534e+2, 3.246192e+2, -7211.029, -63606.965, 2299.1458, -0.0064106616, 0.14707123, -7117.4526, -7117.4526, 0.0, 5.009573, 4.97227 
8.9967877e+2, 3.2954133e+2, -7365.987, -15905.253, 3890.769, 0.005044755, -0.05661401, -5859.1284, -5859.1284, 0.0, 5.0005455, 4.993198 
9.169926e+2, 1.3642159e+2, -1506715.3, -1604693.3, 8636.668, 0.017406499, 0.007545258, -1505959.8, 97108.75, 0.0, 5.074719, 5.0081377 
9.1666615e+2, 1.4141715e+2, -1472809.0, -1564071.6, 18126.145, -0.055816233, 0.0055718455, -1469340.6, 84771.375, 0.0, 5.070302, 5.007523 
9.1637105e+2, 1.4641213e+2, -1429848.1, -1515488.6, 23497.836, 0.12580822, -0.014584048, -1423824.5, 81336.86, 0.0, 5.0685816, 5.008074 
9.160416e+2, 1.5141098e+2, -1378689.6, -1467134.8, 27190.486, -0.049971305, 0.0063719144, -1370999.3, 85173.51, 0.0, 5.0700603, 5.007304 
9.157352e+2, 1.5640458e+2, -1339327.1, -1431364.3, 36932.164, -0.084366314, 0.009427172, -1326339.8, 80895.66, 0.0, 5.069373, 5.0030804 
9.1545135e+2, 1.6139477e+2, -1294842.3, -1384194.0, 39291.74, 0.048823975, -0.00464282, -1280022.1, 78309.42, 0.0, 5.0680823, 5.003224 
9.1515785e+2, 1.6638575e+2, -1252517.3, -1341065.8, 44281.67, 0.056027807, -0.0048866887, -1234173.0, 75246.89, 0.0, 5.066983, 5.00174 
9.148569e+2, 1.7137648e+2, -1206706.3, -1294230.0, 47284.934, -0.035963256, 0.0034004543, -1186040.1, 74470.78, 0.0, 5.066337, 5.0014606 
9.145687e+2, 1.7636466e+2, -1164934.4, -1253894.3, 52196.887, -0.03503965, 0.0039237114, -1140836.0, 70790.81, 0.0, 5.0654945, 4.998915 
9.1428846e+2, 1.8135096e+2, -1118911.1, -1206893.5, 54185.164, 0.023638992, -0.0019265466, -1093108.0, 69653.02, 0.0, 5.064855, 4.998684 
9.1400397e+2, 1.8633628e+2, -1076974.5, -1166491.5, 58257.348, 0.02103329, -0.0012393836, -1048267.06, 65637.945, 0.0, 5.063942, 4.9962144 
9.137177e+2, 1.9132046e+2, -1031144.56, -1119236.4, 60177.805, -0.01408687, 0.0015751108, -1000615.6, 64444.293, 0.0, 5.063146, 4.996132 
9.134359e+2, 1.9630283e+2, -988955.4, -1078895.6, 63208.445, -0.011831684, 0.0017338139, -956352.2, 59880.555, 0.0, 5.0622654, 4.99363 
9.1315633e+2, 2.0128363e+2, -943063.7, -1031658.5, 64783.785, 0.008442636, -0.0007245413, -908880.5, 58540.242, 0.0, 5.0614643, 4.993536 
9.1287446e+2, 2.0626304e+2, -900889.5, -991762.6, 67174.734, 0.0063542076, -0.000074899486, -865227.8, 53394.79, 0.0, 5.060591, 4.990872 
9.1259146e+2, 2.1124105e+2, -855146.75, -944404.25, 68795.43, -0.0053334325, 0.00064308266, -817772.2, 52065.75, 0.0, 5.059713, 4.990825 
9.1230863e+2, 2.1621732e+2, -812982.4, -904604.06, 70327.73, -0.0033608745, 0.0012906629, -774861.0, 46209.434, 0.0, 5.058791, 4.988127 
9.120254e+2, 2.21192e+2, -767607.1, -857299.44, 72049.93, 0.003341023, 0.0000390621, -727586.5, 44732.195, 0.0, 5.0577655, 4.9880934 
9.1173965e+2, 2.2616498e+2, -725640.7, -818070.7, 72939.99, 0.0020183178, 0.00041740426, -685507.2, 38076.535, 0.0, 5.0568023, 4.9851937 
9.1145176e+2, 2.3113644e+2, -680228.9, -770387.8, 74546.59, -0.0018068369, 0.00045010203, -638191.44, 36671.965, 0.0, 5.055715, 4.9852953 
9.111618e+2, 2.3610611e+2, -638173.44, -731215.06, 74890.93, -0.0014275536, 0.001158476, -596530.56, 29630.088, 0.0, 5.054744, 4.9823627 
9.108693e+2, 2.4107404e+2, -593282.06, -683978.9, 76774.52, 0.00045185717, -0.000034277946, -549463.2, 28011.715, 0.0, 5.0535626, 4.982289 
9.10573e+2, 2.4603997e+2, -551250.6, -645206.75, 76568.06, -0.000053168566, 0.0012958052, -508397.72, 20410.896, 0.0, 5.052597, 4.9791803 
9.102732e+2, 2.5100404e+2, -506509.13, -598326.0, 78621.11, 0.00022044251, 0.00058323477, -461374.38, 18786.484, 0.0, 5.0513787, 4.978973 
9.099687e+2, 2.5596568e+2, -464330.56, -560129.94, 77929.88, 0.0005040564, 0.0008371341, -420756.5, 10779.933, 0.0, 5.0505395, 4.975584 
9.096596e+2, 2.609253e+2, -419790.38, -513488.75, 80208.93, 0.0005781141, 0.00014024088, -373750.84, 9181.193, 0.0, 5.049339, 4.975226 
9.093445e+2, 2.65882e+2, -378271.88, -477342.03, 78737.93, -0.00074215885, 0.001392343, -334783.38, -427.00964, 0.0, 5.048548, 4.9710336 
9.0902346e+2, 2.7083585e+2, -334329.6, -431403.1, 81654.34, -0.000024803245, -0.0010657989, -287875.56, -2066.9058, 0.0, 5.0472894, 4.970358 
9.086943e+2, 2.7578592e+2, -293197.47, -398345.56, 78760.39, -0.00086972, 0.0018002574, -251076.08, -13776.963, 0.0, 5.0468574, 4.9649 
9.0835685e+2, 2.8073224e+2, -249960.88, -353846.22, 81273.07, -0.0009847768, 0.0021874618, -205449.67, -16622.848, 0.0, 5.0456147, 4.9636154 
9.080075e+2, 2.8567302e+2, -213578.95, -328848.44, 74933.08, -0.0066713416, 0.0019840759, -176679.42, -36269.836, 0.0, 5.0441313, 4.9558134 
9.0764797e+2, 2.9060796e+2, -176447.36, -292323.5, 75863.87, 0.006233388, -0.0014197916, -138927.88, -46883.22, 0.0, 5.0415125, 4.9522295 
9.072715e+2, 2.9553086e+2, -154391.31, -286143.94, 61103.09, -0.014129551, -0.018858207, -130416.22, -86638.33, 0.0, 5.0367684, 4.9391685 
9.068761e+2, 3.004525e+2, -136308.08, -247535.47, 65915.67, -0.07696174, 0.00066425104, -105679.336, -105679.336, 0.0, 5.025404, 4.9399276 
9.065245e+2, 3.05353e+2, -150625.8, -329001.25, 102825.375, -0.05322243, 0.031544313, -103697.734, -103697.734, 0.0, 5.026658, 4.8904815 
9.0619e+2, 3.1021518e+2, -63176.273, -294695.34, 59386.24, 0.02058893, -0.008297357, -48832.023, -48832.023, 0.0, 5.042702, 4.879887 
9.058123e+2, 3.151005e+2, 14977.078, -142711.02, 12144.37, 0.033640467, -0.064734295, 15906.8955, 15906.8955, 0.0, 5.035751, 4.931675 
9.054317e+2, 3.2003745e+2, -22538.254, -132884.95, 23062.08, 0.0065876604, 0.03427119, -17912.29, -17912.29, 0.0, 5.0171914, 4.9429584 
9.0504324e+2, 3.2498872e+2, 964.04846, -76566.66, -1779.1056, -0.061140154, 0.016202087, 1004.85236, 1004.85236, 0.0, 5.0155144, 4.9651437 
9.04667e+2, 3.299257e+2, -3540.053, 4340.247, 5808.834, 0.042135626, -0.015238487, 7419.1665, 7419.1665, 0.0, 4.997524, 5.0021605 
9.2205226e+2, 1.3674846e+2, -1516063.0, -1602211.8, 10058.682, -0.0047071525, -0.013177484, -1514904.1, 84961.08, 0.0, 5.0699573, 5.011278 
9.217259e+2, 1.4174913e+2, -1477854.6, -1559622.0, 14938.163, -0.040935684, 0.00010909336, -1475211.0, 75647.875, 0.0, 5.0669594, 5.010684 
9.214265e+2, 1.4674985e+2, -1434526.1, -1512662.1, 23577.043, 0.10675153, 0.0111949425, -1427963.1, 73888.734, 0.0, 5.065804, 5.0103993 
9.211001e+2, 1.517471e+2, -1384134.5, -1465863.0, 27139.64, -0.056204766, -0.005329904, -1375943.1, 76935.82, 0.0, 5.0672684, 5.009104 
9.2079586e+2, 1.5674222e+2, -1344357.9, -1430200.1, 35847.77, -0.06865453, -0.004818952, -1331356.8, 72569.93, 0.0, 5.066788, 5.0047374 
9.2050976e+2, 1.6173647e+2, -1298424.1, -1381519.5, 38416.523, 0.052969575, 0.0050174845, -1283385.3, 71597.66, 0.0, 5.0658283, 5.0052366 
9.202142e+2, 1.6672964e+2, -1254903.9, -1336467.8, 43751.402, 0.04623358, 0.0033160055, -1235874.9, 70174.945, 0.0, 5.064863, 5.0043454 
9.1991353e+2, 1.7172137e+2, -1209435.5, -1290746.6, 46618.344, -0.03911786, -0.0028102326, -1188235.3, 68895.586, 0.0, 5.0643015, 5.003643 
9.1962564e+2, 1.767118e+2, -1167416.9, -1250457.1, 51690.105, -0.029286882, -0.000563305, -1142636.3, 65588.56, 0.0, 5.0635867, 5.0010185 
9.1934454e+2, 1.8170099e+2, -1121030.3, -1203020.1, 53800.824, 0.026414305, 0.0016967304, -1094385.6, 64945.035, 0.0, 5.063027, 5.000898 
9.190588e+2, 1.8668848e+2, -1078713.3, -1161808.1, 57871.258, 0.018181773, 0.00083021715, -1049019.8, 61433.656, 0.0, 5.0621214, 4.9987025 
9.1877186e+2, 1.9167466e+2, -1033009.0, -1114722.3, 59852.703, -0.016115006, -0.00055488537, -1001397.6, 60191.06, 0.0, 5.061314, 4.9985642 
9.184895e+2, 1.9665956e+2, -990431.94, -1073695.4, 62937.547, -0.010609671, 0.0004641402, -956602.8, 56133.695, 0.0, 5.060468, 4.9962864 
9.1820925e+2, 2.0164314e+2, -944660.75, -1026524.6, 64915.125, 0.009408146, 0.00026292805, -908850.3, 55047.06, 0.0, 5.059653, 4.9961734 
9.179263e+2, 2.0662516e+2, -902251.75, -985810.0, 67117.98, 0.0058577866, 0.0004061576, -864971.94, 50101.676, 0.0, 5.058729, 4.993816 
9.176424e+2, 2.1160589e+2, -856636.8, -938320.75, 68962.27, -0.0059443694, 0.00002235424, -817329.8, 48932.676, 0.0, 5.057789, 4.993838 
9.173587e+2, 2.1658514e+2, -814315.4, -897893.9, 70375.99, -0.0028786915, 0.0007041443, -774256.44, 43209.453, 0.0, 5.056821, 4.991378 
9.170744e+2, 2.2156304e+2, -768990.75, -850279.75, 72295.31, 0.003927975, 0.0001382767, -726698.0, 41984.652, 0.0, 5.055727, 4.9914804 
9.167874e+2, 2.2653943e+2, -726794.1, -809886.75, 73164.99, 0.0019155004, 0.00040496996, -684202.4, 35711.71, 0.0, 5.054646, 4.9890394 
9.164983e+2, 2.3151456e+2, -681741.1, -762063.75, 75241.5, -0.0024479209, 0.00032011827, -636613.44, 34544.492, 0.0, 5.0534143, 4.989243 
9.162071e+2, 2.3648813e+2, -639768.7, -721938.0, 75358.266, -0.0012120438, 0.00090100826, -595023.2, 27393.781, 0.0, 5.05222, 4.986744 
9.159133e+2, 2.4146028e+2, -595166.2, -674113.44, 77562.1, 0.0011919452, -0.00003638786, -547610.8, 26078.885, 0.0, 5.0508, 4.986986 
9.1561544e+2, 2.4643084e+2, -553339.4, -634009.9, 77631.42, 0.00023571296, 0.00032187835, -506189.97, 18788.004, 0.0, 5.0495143, 4.98448 
9.153141e+2, 2.5140005e+2, -509066.66, -586408.94, 79828.14, -0.00019624156, -0.00008802861, -459036.1, 17243.752, 0.0, 5.0479813, 4.984675 
9.150082e+2, 2.5636733e+2, -467322.38, -546239.94, 79699.32, 0.0015193478, -0.00018001653, -417848.72, 9751.525, 0.0, 5.0466194, 4.9821997 
9.146975e+2, 2.6133326e+2, -424043.75, -499104.13, 82792.56, 0.0016852663, -0.0002381527, -370672.22, 8262.125, 0.0, 5.0448527, 4.982227 
9.143806e+2, 2.6629698e+2, -382548.53, -459382.6, 82098.71, 0.000022439259, 0.0005509405, -330323.03, -33.69203, 0.0, 5.043429, 4.97956 
9.1405785e+2, 2.7125895e+2, -340226.63, -412788.38, 86331.195, 0.001871582, -0.00037239713, -282862.53, -1200.0746, 0.0, 5.0414557, 4.9793987 
9.1372633e+2, 2.7621812e+2, -299895.47, -374433.28, 85645.92, -0.0037747647, 0.0032481742, -243760.97, -10697.334, 0.0, 5.0398345, 4.976289 
9.1338724e+2, 2.811745e+2, -259221.27, -329284.78, 91489.734, -0.00086680776, 0.0021815856, -196285.7, -11793.381, 0.0, 5.037671, 4.975485 
9.1303617e+2, 2.861267e+2, -219333.56, -292220.34, 89554.74, 0.0074403426, -0.0022963507, -159091.0, -23128.12, 0.0, 5.0359683, 4.971898 
9.126682e+2, 2.9107696e+2, -192319.92, -254071.6, 99268.61, -0.013676501, 0.0061091897, -119236.28, -31787.195, 0.0, 5.029636, 4.9700184 
9.1228884e+2, 2.9601577e+2, -173559.16, -226876.22, 98047.21, 0.026873099, -0.017637689, -98610.93, -59573.49, 0.0, 5.02062, 4.966041 
9.118859e+2, 3.009525e+2, -173250.5, -168429.78, 109271.85, 0.056930326, -0.048641432, -61541.7, -61541.7, 0.0, 4.9994154, 4.9773564 
9.2710984e+2, 1.370793e+2, -1521041.1, -1597362.5, 10740.078, -0.0065557375, -0.000070384944, -1519558.5, 77065.01, 0.0, 5.0666704, 5.0144997 
9.267837e+2, 1.4208086e+2, -1479523.9, -1554955.3, 14072.17, -0.023076134, -0.003785692, -1476984.1, 70624.195, 0.0, 5.0651855, 5.01312 
9.264787e+2, 1.4708373e+2, -1432599.3, -1507186.4, 24016.549, 0.066859566, 0.008272109, -1425535.1, 73044.81, 0.0, 5.0654993, 5.012399 
9.26159e+2, 1.5208368e+2, -1385275.4, -1461769.6, 26637.19, -0.039430913, -0.0011430121, -1376913.6, 72666.664, 0.0, 5.06585, 5.0111847 
9.258554e+2, 1.5708098e+2, -1345759.1, -1425065.4, 35054.03, -0.04421538, -0.0038447839, -1332486.3, 68120.55, 0.0, 5.065024, 5.00734 
9.255652e+2, 1.6207728e+2, -1297636.4, -1375778.3, 38368.742, 0.039161645, 0.00077841326, -1281947.0, 69696.26, 0.0, 5.064945, 5.007624 
9.2526895e+2, 1.6707288e+2, -1253772.1, -1331256.8, 43486.168, 0.03174767, 0.0025344123, -1234273.4, 68412.78, 0.0, 5.064248, 5.006428 
9.2496985e+2, 1.7206694e+2, -1208954.3, -1285884.6, 46007.207, -0.031526744, -0.00020855098, -1187450.8, 66293.62, 0.0, 5.0634584, 5.0057216 
9.2468166e+2, 1.7705938e+2, -1166007.4, -1244401.9, 51232.63, -0.021489149, -0.00038764853, -1140697.3, 64121.316, 0.0, 5.0629044, 5.0034385 
9.24399e+2, 1.820508e+2, -1119030.9, -1196910.9, 53430.465, 0.023186173, 0.00043822062, -1091856.4, 64046.223, 0.0, 5.0626082, 5.0032153 
9.2411256e+2, 1.8704078e+2, -1076134.8, -1154995.8, 57274.402, 0.0140517745, 0.00074856903, -1046030.2, 60970.688, 0.0, 5.0618114, 5.0012193 
9.238253e+2, 1.9202943e+2, -1030247.06, -1108002.4, 59065.684, -0.015205155, -0.00009514029, -998412.44, 59699.426, 0.0, 5.061106, 5.0010085 
9.235424e+2, 1.9701685e+2, -987085.7, -1066208.3, 61999.47, -0.008627667, 0.00038496105, -953100.9, 56134.32, 0.0, 5.0603576, 4.9989595 
9.2326105e+2, 2.020031e+2, -941079.2, -1018923.75, 63989.13, 0.009354017, 0.00022082259, -905104.5, 55265.195, 0.0, 5.059631, 4.9988565 
9.2297715e+2, 2.0698795e+2, -898032.56, -977306.3, 66081.71, 0.004906877, 0.0005288139, -860611.8, 50906.547, 0.0, 5.0588074, 4.996778 
9.2269236e+2, 2.1197161e+2, -852370.44, -929895.06, 67821.89, -0.005942313, 0.000037233258, -813015.4, 49663.188, 0.0, 5.057916, 4.996754 
9.224076e+2, 2.1695393e+2, -809299.8, -888162.75, 69046.164, -0.0024469646, 0.00048968603, -769218.94, 44632.92, 0.0, 5.057015, 4.994731 
9.221222e+2, 2.2193515e+2, -763928.9, -840556.6, 71084.92, 0.0038352828, 0.00026092693, -721489.94, 43545.98, 0.0, 5.055952, 4.9948273 
9.2183393e+2, 2.2691515e+2, -721088.44, -798946.3, 71557.695, 0.0016282208, 0.00085731456, -678555.94, 37676.004, 0.0, 5.0549006, 4.9928145 
9.215436e+2, 2.3189408e+2, -676139.9, -751248.4, 73561.45, -0.0025606095, 0.0005995896, -631101.06, 36337.426, 0.0, 5.053653, 4.992996 
9.2125094e+2, 2.368717e+2, -633198.25, -709149.1, 73711.836, -0.0012232321, 0.00092882995, -588254.6, 30403.277, 0.0, 5.0524907, 4.9911942 
9.209556e+2, 2.4184835e+2, -588598.25, -661225.94, 75682.234, 0.0015374826, 0.00024323497, -540968.7, 28918.129, 0.0, 5.0510435, 4.991503 
9.2065614e+2, 2.4682388e+2, -545702.25, -618685.6, 75287.32, -0.00022311795, 0.0003703047, -498528.97, 22597.25, 0.0, 5.049738, 4.9898915 
9.203531e+2, 2.5179854e+2, -501476.84, -570613.0, 77833.336, -0.0007401519, -0.000262312, -450880.5, 21493.873, 0.0, 5.048122, 4.9903073 
9.2004544e+2, 2.5677213e+2, -458478.7, -527694.1, 77006.01, 0.0022343795, 0.00058216864, -408661.16, 14972.477, 0.0, 5.046745, 4.988851 
9.1973275e+2, 2.617448e+2, -414919.8, -479623.66, 80238.29, 0.00040020645, 0.00012225605, -360756.8, 14144.404, 0.0, 5.044927, 4.9892616 
9.1941375e+2, 2.6671645e+2, -371276.1, -434934.4, 79404.3, -0.0014299093, 0.00009734967, -317559.13, 8619.959, 0.0, 5.0434556, 4.9884496 
9.190893e+2, 2.716874e+2, -328816.7, -387502.47, 82980.33, 0.0039181705, -0.0007986043, -270144.0, 7320.37, 0.0, 5.0413723, 4.9886713 
9.187542e+2, 2.766576e+2, -284582.8, -340404.75, 81084.48, -0.010880069, 0.00456728, -226739.98, 2016.8773, 0.0, 5.039722, 4.9887958 
9.1841274e+2, 2.8162673e+2, -243493.52, -294903.84, 88179.64, -0.010977774, 0.0035553463, -177348.78, 2711.6707, 0.0, 5.0376425, 4.9881663 
9.1806257e+2, 2.8659388e+2, -193501.73, -238334.47, 83104.11, 0.03616455, -0.009202675, -129843.79, 1539.4305, 0.0, 5.036437, 4.9916277 
9.176808e+2, 2.9156753e+2, -163826.44, -190201.84, 88705.98, -0.04914494, 0.02223251, -87333.23, -4692.343, 0.0, 5.0294323, 4.993631 
9.17295e+2, 2.9653764e+2, -120777.19, -124954.32, 77471.5, 0.038943827, -0.023147361, -45366.105, -11436.253, 0.0, 5.022312, 5.003775 
9.168675e+2, 3.0151477e+2, -91804.51, -41309.094, 47450.723, 0.047545303, -0.0060711764, -12807.216, -12807.216, 0.0, 5.005389, 5.0244966 
9.321656e+2, 1.3740937e+2, -1529733.4, -1595347.5, 7907.3936, 0.010232028, 0.0062430464, -1528793.9, 64595.01, 0.0, 5.062171, 5.01743 
9.318386e+2, 1.4241354e+2, -1482987.8, -1551820.6, 12809.586, -0.008901585, 0.0037657851, -1480681.3, 63666.84, 0.0, 5.062839, 5.0153627 
9.3152857e+2, 1.474158e+2, -1437758.4, -1505874.4, 23106.158, 0.021380767, -0.010276765, -1430660.0, 64665.62, 0.0, 5.0627737, 5.014213 
9.312164e+2, 1.5242024e+2, -1391167.1, -1460450.5, 25025.164, -0.013528242, 0.0062212446, -1383073.5, 63208.402, 0.0, 5.0627646, 5.013179 
9.3091273e+2, 1.5742058e+2, -1349044.6, -1420479.8, 33536.035, -0.018245706, 0.007690156, -1335768.3, 61510.5, 0.0, 5.062404, 5.0102224 
9.30618e+2, 1.6241781e+2, -1300468.4, -1371900.0, 36932.117, 0.018404122, -0.006771439, -1284807.1, 63498.63, 0.0, 5.0626903, 5.010088 
9.3032193e+2, 1.6741568e+2, -1257022.1, -1329271.8, 41621.04, 0.016832849, -0.0036222322, -1238035.1, 61291.81, 0.0, 5.0621986, 5.0081472 
9.300251e+2, 1.7241283e+2, -1211471.6, -1283090.0, 44451.844, -0.018705336, 0.006370791, -1190199.6, 60155.254, 0.0, 5.06157, 5.007642 
9.2973614e+2, 1.7740732e+2, -1167693.0, -1239894.3, 49904.074, -0.01341462, 0.0031873551, -1142200.9, 59207.99, 0.0, 5.0610223, 5.005948 
9.294518e+2, 1.8240045e+2, -1121025.0, -1193014.5, 51987.902, 0.016147098, -0.0036729702, -1093787.1, 58688.953, 0.0, 5.060724, 5.005512 
9.29165e+2, 1.8739302e+2, -1077882.4, -1150889.1, 55649.746, 0.009761365, -0.0008521254, -1047832.06, 55716.734, 0.0, 5.0599885, 5.0035634 
9.288779e+2, 1.9238453e+2, -1032046.94, -1103924.4, 57676.895, -0.011853884, 0.002775835, -1000028.25, 54603.926, 0.0, 5.0592785, 5.0033417 
9.285941e+2, 1.9737428e+2, -988487.3, -1061134.3, 60627.484, -0.00615159, 0.0012293574, -954134.9, 51597.543, 0.0, 5.058504, 5.0016522 
9.2831177e+2, 2.0236298e+2, -942700.7, -1014087.1, 62526.563, 0.008329436, -0.0012976796, -906396.9, 50446.176, 0.0, 5.057737, 5.0014877 
9.2802703e+2, 2.0735072e+2, -899222.9, -971509.8, 64637.832, 0.0039848145, -0.00002354438, -861309.6, 46653.637, 0.0, 5.0569186, 4.999742 
9.2774147e+2, 2.1233745e+2, -853649.2, -924183.0, 66263.05, -0.0057663303, 0.00079204835, -813852.44, 45240.844, 0.0, 5.0560184, 4.999689 
9.274557e+2, 2.1732283e+2, -810356.44, -881539.25, 67513.305, -0.0023148824, 0.0005500225, -769627.5, 40609.082, 0.0, 5.055035, 4.9980264 
9.2716914e+2, 2.2230734e+2, -765189.44, -833944.2, 69331.555, 0.0034349163, -0.00024236049, -722180.3, 39208.125, 0.0, 5.053889, 4.998156 
9.268796e+2, 2.2729087e+2, -722084.25, -791202.25, 69682.49, 0.0014712025, 0.00047621832, -678861.7, 33688.3, 0.0, 5.052708, 4.996615 
9.2658794e+2, 2.3227358e+2, -677392.5, -743425.94, 71568.92, -0.0021991148, 0.00053173566, -631591.6, 32127.863, 0.0, 5.0513225, 4.9968905 
9.262938e+2, 2.3725529e+2, -634386.9, -700262.75, 71183.63, -0.00061837654, 0.00063756615, -588890.0, 26008.727, 0.0, 5.04995, 4.995573 
9.259968e+2, 2.4223638e+2, -590399.94, -652432.94, 73172.15, 0.0013204431, -0.000038047798, -541942.0, 24142.1, 0.0, 5.048235, 4.9959793 
9.256954e+2, 2.4721678e+2, -547514.8, -608267.4, 72269.516, 0.000071588074, 0.000012515096, -499497.22, 17778.643, 0.0, 5.046553, 4.9951487 
9.2539054e+2, 2.521969e+2, -504184.34, -560190.6, 74515.85, 0.00040342726, 0.0001199729, -452583.53, 15887.193, 0.0, 5.0445337, 4.9957457 
9.2508066e+2, 2.5717652e+2, -461260.3, -514978.9, 73001.17, 0.0019574729, 0.0010112086, -410334.03, 9336.7295, 0.0, 5.042607, 4.99539 
9.247655e+2, 2.6215595e+2, -419155.38, -466728.38, 75587.73, -0.0006121496, 0.0012265004, -363699.84, 7172.5254, 0.0, 5.0400405, 4.996231 
9.244442e+2, 2.671353e+2, -376296.53, -419596.0, 73351.516, 0.0001243233, 0.0010564454, -321466.5, 608.41003, 0.0, 5.0376077, 4.9967875 
9.2411715e+2, 2.7211496e+2, -335191.97, -371560.1, 76339.28, 0.007294586, -0.0001804873, -274900.9, -1626.6158, 0.0, 5.034736, 4.9976115 
9.2377883e+2, 2.7709544e+2, -289583.56, -319215.03, 72347.26, -0.009148277, 0.0034658287, -230550.58, -6084.5664, 0.0, 5.0323925, 5.0000916 
9.234335e+2, 2.8207693e+2, -254009.58, -274776.22, 77243.09, -0.012060311, 0.0055777626, -186455.05, -10807.476, 0.0, 5.027784, 5.0002975 
9.230808e+2, 2.8705823e+2, -206831.83, -213594.55, 68223.484, 0.052055966, -0.009075273, -141905.95, -15074.835, 0.0, 5.0236974, 5.007079 
9.226928e+2, 2.9204705e+2, -163769.98, -157362.27, 62853.395, -0.0300827, 0.0052470537, -97631.12, -19690.295, 0.0, 5.0202293, 5.011012 
9.2229015e+2, 2.970429e+2, -102946.56, -87713.8, 38506.684, -0.020815019, 0.0053178477, -56077.48, -27095.607, 0.0, 5.0182047, 5.021704 
9.2185074e+2, 3.0203998e+2, 8617.989, 1601.9408, -19148.256, -0.058381524, 0.032482415, 24576.91, 24576.91, 0.0, 5.034256, 5.032957 
9.37215e+2, 1.3773672e+2, -1532633.5, -1590946.4, 8085.1733, -0.0016838226, -0.00082998583, -1531533.3, 58647.19, 0.0, 5.0598946, 5.020028 
9.368921e+2, 1.4274503e+2, -1481320.4, -1544616.4, 14312.637, 0.0007443774, 0.0058919177, -1478234.4, 62864.96, 0.0, 5.062096, 5.0181274 
9.365795e+2, 1.4774938e+2, -1438871.4, -1502958.9, 23164.469, 0.00219352, -0.0068042334, -1431375.4, 60681.137, 0.0, 5.0616736, 5.015718 
9.3627e+2, 1.5275438e+2, -1392964.3, -1456447.0, 25141.457, -0.0028073273, -0.0014081981, -1384213.6, 58793.9, 0.0, 5.061096, 5.0153413 
9.359666e+2, 1.5775783e+2, -1348834.9, -1413796.0, 33830.04, -0.008692441, 0.005512624, -1334417.1, 59556.6, 0.0, 5.061067, 5.013142 
9.3567055e+2, 1.6275868e+2, -1300770.0, -1366733.0, 36533.74, 0.009925135, 0.00032329664, -1284532.8, 60432.617, 0.0, 5.06144, 5.0124555 
9.353746e+2, 1.6775815e+2, -1256859.8, -1324302.3, 40990.59, 0.010711354, -0.0029527652, -1237502.3, 58468.266, 0.0, 5.061183, 5.0103445 
9.350786e+2, 1.7275693e+2, -1209792.0, -1277264.8, 44274.715, -0.013835125, 0.001071144, -1187865.1, 59117.47, 0.0, 5.0610647, 5.0098944 
9.347893e+2, 1.7775416e+2, -1165866.0, -1233848.8, 49408.453, -0.009505303, 0.002648979, -1139885.6, 58124.016, 0.0, 5.0605288, 5.00828 
9.3450403e+2, 1.8274996e+2, -1119532.4, -1187074.9, 51102.383, 0.013852357, -0.0009426598, -1092050.5, 57000.46, 0.0, 5.0601006, 5.0078754 
9.342166e+2, 1.8774478e+2, -1075369.8, -1143960.0, 54611.65, 0.007347989, -0.00070655684, -1045177.8, 54923.73, 0.0, 5.059603, 5.0061684 
9.3392926e+2, 1.9273874e+2, -1028995.8, -1096937.8, 56826.605, -0.011084691, 0.0016582408, -996760.4, 54400.49, 0.0, 5.0591354, 5.0058584 
9.336449e+2, 1.9773124e+2, -984875.06, -1053369.9, 59634.914, -0.004791322, 0.001324028, -950353.25, 51880.918, 0.0, 5.0584464, 5.004413 
9.3336165e+2, 2.0272273e+2, -939033.94, -1006519.9, 61231.19, 0.008490226, -0.0008096778, -902863.75, 50453.93, 0.0, 5.0577416, 5.0041585 
9.3307596e+2, 2.0771329e+2, -894986.94, -962880.6, 63309.39, 0.0032130536, -0.00008259002, -857097.44, 47312.746, 0.0, 5.0569606, 5.002773 
9.327895e+2, 2.1270303e+2, -849408.44, -915687.7, 64860.87, -0.0060000718, 0.0008957102, -809711.5, 45799.055, 0.0, 5.05609, 5.002673 
9.3250275e+2, 2.176916e+2, -805470.75, -872005.06, 65901.4, -0.0018909295, 0.0007841394, -764915.9, 41706.688, 0.0, 5.055176, 5.001357 
9.32215e+2, 2.2267947e+2, -760122.4, -824340.2, 67597.89, 0.0036989837, -0.00019241513, -717395.06, 40346.63, 0.0, 5.054106, 5.0014873 
9.3192405e+2, 2.2766648e+2, -716298.1, -780477.2, 67778.805, 0.0016293383, 0.00052632816, -673396.3, 35472.586, 0.0, 5.053012, 5.00032 
9.3163097e+2, 2.3265299e+2, -671607.0, -732744.44, 69562.31, -0.0019715047, 0.0007200671, -626193.06, 33808.168, 0.0, 5.051634, 5.000591 
9.313352e+2, 2.3763877e+2, -627583.5, -687618.44, 68933.44, -0.0000843864, 0.00063319184, -582415.44, 28724.936, 0.0, 5.050309, 4.999971 
9.3103635e+2, 2.4262431e+2, -583618.25, -639537.5, 70876.41, 0.0014650777, 0.00011635533, -535386.0, 26896.264, 0.0, 5.048545, 5.00051 
9.3073297e+2, 2.4760954e+2, -539848.9, -593746.5, 69499.445, 0.00014313705, 0.0004969848, -492256.34, 21170.475, 0.0, 5.0469046, 5.0002694 
9.304258e+2, 2.5259492e+2, -496588.94, -545388.25, 71395.125, -0.0006077599, 0.00033634645, -445539.22, 19030.955, 0.0, 5.04479, 5.001031 
9.301133e+2, 2.575804e+2, -452260.38, -497116.44, 69686.016, 0.0000007907051, 0.0011887401, -401482.16, 14230.406, 0.0, 5.0428686, 5.0018044 
9.2979574e+2, 2.6256642e+2, -410307.97, -448649.75, 72142.05, -0.0011650944, 0.0014290166, -354833.03, 12016.83, 0.0, 5.0401964, 5.0027914 
9.2947125e+2, 2.6755324e+2, -365484.25, -397310.97, 69067.53, -0.000770017, 0.0018096766, -310520.53, 7458.6123, 0.0, 5.0377464, 5.004942 
9.2914057e+2, 2.725414e+2, -324246.6, -348418.2, 72545.92, -0.00023385382, 0.0019305483, -262786.63, 6308.2275, 0.0, 5.0347567, 5.0061755 
9.2880017e+2, 2.7753085e+2, -276738.9, -291927.03, 67730.64, -0.0033658186, -0.00095853896, -216177.92, 4020.2166, 0.0, 5.032357, 5.0102882 
9.284501e+2, 2.8252375e+2, -238275.81, -240492.89, 71020.1, -0.004290502, 0.0011268532, -168355.61, 2912.213, 0.0, 5.0276513, 5.013131 
9.2808783e+2, 2.875197e+2, -189437.02, -180004.5, 61412.297, 0.015325229, 0.003911187, -123127.625, -819.9307, 0.0, 5.024266, 5.019577 
9.277011e+2, 2.9251683e+2, -143356.31, -123160.51, 55937.98, -0.014665037, -0.01290453, -76416.305, -3080.3977, 0.0, 5.0217996, 5.0235467 
9.272912e+2, 2.9752603e+2, -89904.4, -65986.32, 39151.258, -0.033713043, 0.023873603, -37008.34, -12762.753, 0.0, 5.019985, 5.028962 
9.2687005e+2, 3.025189e+2, -14180.12, -20765.635, 16783.064, 0.04028815, -0.05481582, -369.85086, -369.85086, 0.0, 5.0310574, 5.0240664 
9.422627e+2, 1.3806401e+2, -1538858.1, -1589655.5, 5542.3857, -0.0008098693, -0.0032296714, -1538260.4, 48712.508, 0.0, 5.0566316, 5.0221386 
9.419422e+2, 1.430744e+2, -1488220.9, -1543000.8, 12423.886, -0.0003722595, -0.00766823, -1485534.9, 52336.727, 0.0, 5.058489, 5.020492 
9.4163007e+2, 1.4808467e+2, -1444581.1, -1503346.6, 20355.42, 0.001816773, 0.019459186, -1438219.1, 50551.49, 0.0, 5.0589843, 5.0169744 
9.41321e+2, 1.5308782e+2, -1395869.8, -1453792.1, 23210.064, 0.0032974696, -0.010920601, -1387716.9, 52022.79, 0.0, 5.0590076, 5.017346 
9.410174e+2, 1.5809323e+2, -1351295.4, -1409856.0, 32074.676, -0.011107688, -0.0092234155, -1337146.3, 53540.496, 0.0, 5.0588946, 5.0156307 
9.407217e+2, 1.6309914e+2, -1304079.4, -1364581.4, 34071.813, 0.006917858, 0.012764213, -1288767.1, 52861.754, 0.0, 5.0592537, 5.0143414 
9.4042623e+2, 1.6810036e+2, -1259134.9, -1321111.6, 38484.063, 0.011528095, 0.005253716, -1240713.8, 51903.195, 0.0, 5.059222, 5.0124836 
9.401302e+2, 1.7309973e+2, -1211531.1, -1273688.6, 41876.57, -0.013446045, -0.008964359, -1190460.8, 53162.348, 0.0, 5.059263, 5.01209 
9.398406e+2, 1.780998e+2, -1167956.4, -1231115.6, 46887.246, -0.00925203, -0.0011820393, -1143005.6, 51616.906, 0.0, 5.0587373, 5.0101843 
9.3955505e+2, 1.8309881e+2, -1121310.6, -1183690.4, 48610.953, 0.014878594, 0.006307554, -1094743.9, 50888.355, 0.0, 5.058318, 5.0100026 
9.3926716e+2, 1.8809561e+2, -1076522.9, -1139432.6, 52053.844, 0.0068011996, 0.0012312712, -1047158.25, 49505.18, 0.0, 5.057858, 5.008678 
9.389793e+2, 1.9309154e+2, -1030357.56, -1092763.1, 54400.86, -0.012677982, -0.002697233, -998846.2, 48857.24, 0.0, 5.0573826, 5.0082483 
9.386946e+2, 1.9808695e+2, -986000.94, -1048853.6, 56888.977, -0.0041624033, 0.0004770102, -952435.2, 46313.23, 0.0, 5.056725, 5.0069103 
9.3841064e+2, 2.0308138e+2, -940074.3, -1001852.7, 58494.105, 0.009755562, 0.0017858845, -904814.4, 44988.344, 0.0, 5.0560336, 5.0066953 
9.38124e+2, 2.0807457e+2, -895642.9, -957362.6, 60386.203, 0.0025776098, 0.00033408613, -858688.1, 42181.457, 0.0, 5.055241, 5.005614 
9.378366e+2, 2.1306713e+2, -850201.2, -910519.44, 61778.207, -0.0070441626, -0.00029344845, -811613.5, 40328.94, 0.0, 5.054376, 5.0053935 
9.37549e+2, 2.180589e+2, -805614.6, -865559.2, 62599.016, -0.0013047863, 0.0005790182, -766182.5, 36840.625, 0.0, 5.053474, 5.0045333 
9.372602e+2, 2.2305006e+2, -760559.4, -818570.7, 64194.633, 0.004159304, 0.0005683255, -719121.56, 34988.18, 0.0, 5.0524044, 5.0044346 
9.3696785e+2, 2.2804043e+2, -716124.0, -773293.75, 63857.21, 0.0013056651, 0.000449671, -674745.75, 30458.607, 0.0, 5.0512753, 5.003799 
9.3667334e+2, 2.330305e+2, -671499.2, -725678.9, 65270.07, -0.0025538679, 0.0002539329, -627920.5, 28381.027, 0.0, 5.0498686, 5.0040565 
9.363759e+2, 2.3802017e+2, -627256.94, -679756.0, 64081.82, 0.000103754806, 0.0005257534, -584256.75, 23145.9, 0.0, 5.0484304, 5.003803 
9.360753e+2, 2.4300982e+2, -583585.6, -632201.44, 65236.105, 0.002360634, 0.0004924246, -538275.8, 20228.217, 0.0, 5.046604, 5.0042043 
9.3576974e+2, 2.4799944e+2, -538956.4, -584287.1, 63193.297, 0.0003342659, 0.0003946673, -494486.72, 15119.22, 0.0, 5.044843, 5.004831 
9.3546015e+2, 2.5298962e+2, -496126.56, -536488.7, 64338.21, -0.0015154335, 0.00036212467, -448878.56, 11823.73, 0.0, 5.042577, 5.0054965 
9.3514514e+2, 2.579802e+2, -451492.22, -487020.13, 60928.85, 0.00028707986, 0.000008799971, -405790.56, 6003.7134, 0.0, 5.0403976, 5.006894 
9.348249e+2, 2.6297182e+2, -409430.88, -438432.22, 61728.234, 0.0017483631, -0.00068260066, -360523.0, 2353.1443, 0.0, 5.037635, 5.008024 
9.344971e+2, 2.6796493e+2, -363301.78, -385645.97, 56930.78, 0.00026596308, 0.00023650247, -316457.25, -2513.3704, 0.0, 5.0352974, 5.010773 
9.3416274e+2, 2.729602e+2, -322260.5, -336568.5, 57552.94, -0.0013422297, 0.0015408108, -271418.63, -6428.215, 0.0, 5.031942, 5.0123568 
9.3381935e+2, 2.7795708e+2, -274565.0, -280169.5, 49621.043, 0.0019343278, -0.0022626044, -227667.14, -11646.885, 0.0, 5.0292525, 5.0167747 
9.334656e+2, 2.8295815e+2, -229203.38, -225355.67, 47859.117, 0.0050728824, -0.0024786426, -179381.75, -12371.8545, 0.0, 5.026599, 5.0201902 
9.330974e+2, 2.8796378e+2, -172935.98, -166978.16, 33426.684, 0.001991174, 0.011325018, -136397.92, -18442.47, 0.0, 5.026559, 5.0247107 
9.3271166e+2, 2.9296866e+2, -115337.375, -109824.97, 24228.78, -0.0044043157, -0.0041955044, -88196.13, -19288.69, 0.0, 5.0286107, 5.027274 
9.3230903e+2, 2.9797903e+2, -39719.684, -55908.1, 6251.2534, 0.038762305, -0.0071257777, -37586.754, -17781.154, 0.0, 5.037786, 5.0266995 
9.318877e+2, 3.0298623e+2, 26917.063, -22048.045, 5772.9175, 0.0037829978, 0.025556218, 27588.475, 27588.475, 0.0, 5.0495195, 5.0160217 
9.4730836e+2, 1.3839196e+2, -1540250.0, -1584927.8, 6307.2944, 0.00050239085, 0.008304081, -1539376.6, 44382.5, 0.0, 5.0550427, 5.024473 
9.4698995e+2, 1.4340232e+2, -1490719.1, -1540273.6, 13365.735, -0.00058069604, -0.008631854, -1487344.0, 47313.64, 0.0, 5.0568466, 5.0221744 
9.4667923e+2, 1.4841591e+2, -1443720.1, -1495643.4, 20160.24, 0.004313811, 0.02516266, -1436811.6, 48712.9, 0.0, 5.057719, 5.020193 
9.4637007e+2, 1.5342079e+2, -1395497.0, -1448524.4, 23693.01, -0.000054625158, -0.017143643, -1386453.1, 50023.547, 0.0, 5.0580654, 5.019587 
9.460669e+2, 1.5842849e+2, -1352298.3, -1406479.9, 32240.309, -0.012354977, -0.010899141, -1337277.9, 50123.332, 0.0, 5.0577254, 5.0173473 
9.4577205e+2, 1.6343683e+2, -1304675.1, -1360149.0, 33866.977, 0.011032693, 0.016950957, -1288636.4, 49683.125, 0.0, 5.058026, 5.0164514 
9.454765e+2, 1.6844001e+2, -1258165.3, -1315250.3, 38356.938, 0.011240195, 0.006065543, -1238896.4, 50391.867, 0.0, 5.0583887, 5.0149026 
9.4518054e+2, 1.7344147e+2, -1210031.3, -1267817.0, 41157.305, -0.01701549, -0.01141233, -1188637.8, 51636.395, 0.0, 5.058657, 5.0144143 
9.448911e+2, 1.784441e+2, -1166269.1, -1225096.4, 45882.965, -0.008321554, -0.0017419802, -1141181.4, 50067.01, 0.0, 5.0581675, 5.0125523 
9.4460535e+2, 1.8344572e+2, -1119323.8, -1177502.5, 47861.945, 0.017713845, 0.007826579, -1092404.6, 49827.88, 0.0, 5.0578475, 5.0123916 
9.4431674e+2, 1.8844488e+2, -1074016.8, -1132643.8, 51105.645, 0.005812497, 0.001302767, -1044414.44, 48826.18, 0.0, 5.057489, 5.011238 
9.4402844e+2, 1.9344324e+2, -1027575.44, -1085981.5, 53182.023, -0.014522385, -0.003967878, -996106.0, 48150.65, 0.0, 5.057137, 5.0107574 
9.437434e+2, 1.9844137e+2, -982447.94, -1041274.5, 55503.5, -0.0033361628, 0.000037467977, -949045.75, 46229.13, 0.0, 5.0566516, 5.009629 
9.4345886e+2, 2.0343865e+2, -936363.94, -994349.6, 57278.31, 0.011084878, 0.0023019055, -901158.75, 45142.77, 0.0, 5.0560627, 5.0093436 
9.4317126e+2, 2.0843461e+2, -891158.75, -948825.75, 58785.656, 0.0021012896, 0.0002274718, -854516.1, 42825.117, 0.0, 5.055385, 5.0085864 
9.42883e+2, 2.1343002e+2, -845648.94, -902255.56, 60288.906, -0.007283287, -0.0010831978, -807350.25, 41035.973, 0.0, 5.0546184, 5.0082326 
9.4259447e+2, 2.1842489e+2, -800387.5, -856371.3, 60749.945, -0.00056380004, 0.00026991323, -761490.7, 37945.707, 0.0, 5.0538273, 5.0076575 
9.423045e+2, 2.2341925e+2, -755341.56, -809417.4, 62248.4, 0.004494369, 0.00062567834, -714512.6, 35979.016, 0.0, 5.052761, 5.007559 
9.4201076e+2, 2.2841293e+2, -710363.1, -763204.1, 61845.598, 0.00077171414, 0.0004893945, -669531.0, 32022.717, 0.0, 5.05168, 5.007251 
9.4171476e+2, 2.3340651e+2, -665903.5, -716049.94, 62962.938, -0.0026053777, 0.00030042237, -623205.06, 29411.563, 0.0, 5.05029, 5.0073557 
9.414156e+2, 2.383998e+2, -620815.7, -668532.94, 61598.0, 0.0000060351504, 0.0005356281, -578617.1, 25065.023, 0.0, 5.0489025, 5.0076675 
9.41113e+2, 2.4339332e+2, -577179.25, -621053.25, 62626.945, 0.001677864, 0.0007091967, -532758.4, 21987.62, 0.0, 5.0470743, 5.0080585 
9.4080526e+2, 2.4838704e+2, -532176.4, -572451.8, 60148.324, 0.0006935532, 0.00079145684, -488884.22, 16923.377, 0.0, 5.0453362, 5.0089393 
9.4049335e+2, 2.5338152e+2, -489396.28, -524498.7, 60958.668, -0.0010851077, 0.00041207098, -443512.44, 13348.854, 0.0, 5.0430026, 5.0097194 
9.401755e+2, 2.583766e+2, -443855.3, -473383.1, 57535.4, -0.00066901144, -0.00092401484, -399219.75, 8689.488, 0.0, 5.040883, 5.011724 
9.398522e+2, 2.6337323e+2, -402206.4, -424998.6, 58339.98, -0.00048318037, -0.00055404333, -354159.88, 4782.1484, 0.0, 5.0379767, 5.0128655 
9.3952143e+2, 2.6837128e+2, -355870.47, -371526.2, 52677.99, -0.000031258947, -0.00070746784, -310441.9, -480.94318, 0.0, 5.0355825, 5.01592 
9.391834e+2, 2.7337193e+2, -314337.4, -320818.2, 53071.49, -0.0020665375, -0.00052445673, -264407.47, -3452.949, 0.0, 5.0321164, 5.018173 
9.3883586e+2, 2.7837476e+2, -267285.4, -266108.28, 45709.984, -0.0035645943, -0.00095036015, -220983.06, -9056.085, 0.0, 5.029456, 5.0219984 
9.384791e+2, 2.8338087e+2, -222676.5, -212531.02, 44364.676, -0.0007287269, -0.00060136436, -172950.0, -10082.502, 0.0, 5.0266895, 5.0250545 
9.381106e+2, 2.883895e+2, -169483.58, -159228.1, 32685.736, 0.008659057, 0.0021222658, -131270.33, -17486.57, 0.0, 5.0265565, 5.0276337 
9.3772435e+2, 2.93399e+2, -112512.305, -105253.19, 27481.125, -0.015316257, 0.0015997852, -81162.97, -16472.486, 0.0, 5.029112, 5.028731 
9.373288e+2, 2.984078e+2, -39298.727, -57467.934, 16720.361, 0.0017298823, -0.005963769, -29354.39, -13750.524, 0.0, 5.039099, 5.0250883 
9.369163e+2, 3.0341125e+2, 29213.877, -21064.85, 14238.352, -0.050831325, 0.022889698, 32966.004, 32966.004, 0.0, 5.0510216, 5.015381 
9.5235145e+2, 1.3871688e+2, -1545341.3, -1582487.8, 4180.9595, 0.000008082351, -0.0055512595, -1544876.5, 35698.527, 0.0, 5.0520663, 5.0268216 
9.520355e+2, 1.437307e+2, -1496722.4, -1542052.3, 12087.456, -0.0001564281, 0.007821965, -1493700.6, 37739.15, 0.0, 5.0543647, 5.022855 
9.517264e+2, 1.4874329e+2, -1446361.8, -1490083.9, 17192.959, 0.0066948486, 0.0079633985, -1440410.9, 41905.55, 0.0, 5.0550756, 5.02348 
9.5141685e+2, 1.537527e+2, -1399468.3, -1446632.9, 20306.902, -0.0059867394, -0.019979058, -1391929.9, 41294.24, 0.0, 5.0555916, 5.0215573 
9.511149e+2, 1.5876372e+2, -1354747.8, -1405672.9, 29105.43, -0.011675438, 0.0027614697, -1341539.0, 42577.18, 0.0, 5.05615, 5.018523 
9.508209e+2, 1.6377239e+2, -1305493.1, -1357061.0, 30781.695, 0.017000431, 0.015801992, -1291123.4, 43907.895, 0.0, 5.0566826, 5.018298 
9.5052516e+2, 1.6877721e+2, -1260096.6, -1312315.5, 35365.61, 0.009290622, -0.0014673067, -1242246.6, 43737.32, 0.0, 5.0565567, 5.0169377 
9.502292e+2, 1.737818e+2, -1212489.4, -1265688.6, 37811.453, -0.021447517, -0.008336505, -1192858.6, 44080.31, 0.0, 5.056753, 5.0162053 
9.499404e+2, 1.7878683e+2, -1167328.5, -1221313.3, 42312.797, -0.0061436133, 0.00236356, -1144131.6, 43758.055, 0.0, 5.0565276, 5.014796 
9.496544e+2, 1.8379022e+2, -1120340.9, -1174064.4, 44399.36, 0.020957517, 0.0051008253, -1095309.9, 43546.53, 0.0, 5.0563006, 5.014476 
9.4936514e+2, 1.887918e+2, -1074967.3, -1129101.9, 47662.207, 0.0040657003, -0.0006315365, -1047222.8, 42618.08, 0.0, 5.0559506, 5.013357 
9.490765e+2, 1.9379294e+2, -1028343.6, -1082233.5, 49502.582, -0.016699037, -0.0016974664, -998927.8, 41901.707, 0.0, 5.055635, 5.0129333 
9.487913e+2, 1.9879356e+2, -982752.0, -1036752.94, 51615.68, -0.0021868637, 0.0011397016, -951501.25, 40322.168, 0.0, 5.0551877, 5.0120616 
9.4850624e+2, 2.0379329e+2, -936601.8, -989873.4, 53380.754, 0.012144423, 0.0014095918, -903580.5, 39245.56, 0.0, 5.0546436, 5.011736 
9.4821775e+2, 2.0879208e+2, -891142.2, -944158.25, 54595.156, 0.0016055461, 0.00049305125, -856959.94, 36878.17, 0.0, 5.0540156, 5.0110326 
9.4792885e+2, 2.1379036e+2, -845267.06, -897295.9, 55994.676, -0.007963382, 0.00020936657, -809538.8, 35316.07, 0.0, 5.0533466, 5.0107393 
9.476395e+2, 2.1878801e+2, -799555.56, -850790.1, 56055.066, -0.00022585457, 0.00035814286, -763541.56, 32336.309, 0.0, 5.0526075, 5.0103707 
9.473485e+2, 2.2378534e+2, -754367.0, -803995.0, 57187.844, 0.0047160676, 0.0002103434, -716841.75, 30062.322, 0.0, 5.051624, 5.0101886 
9.470534e+2, 2.2878219e+2, -708572.8, -756768.3, 56284.21, 0.00015697983, 0.0004716165, -671444.6, 26490.344, 0.0, 5.0506687, 5.0102077 
9.46756e+2, 2.3377901e+2, -663723.9, -709611.75, 57087.277, -0.0032238192, 0.0003457763, -625142.4, 23823.9, 0.0, 5.0494328, 5.0102654 
9.4645524e+2, 2.3877566e+2, -618221.2, -661961.8, 54929.625, 0.00046725804, 0.00057453784, -580968.1, 19031.082, 0.0, 5.048154, 5.0106106 
9.461508e+2, 2.4377261e+2, -574080.4, -614560.44, 55208.348, 0.0017876707, 0.0007017131, -535518.9, 15510.138, 0.0, 5.046513, 5.0109296 
9.4584095e+2, 2.4876986e+2, -527933.06, -564809.3, 52010.285, 0.000637059, 0.0008078914, -491189.34, 10866.712, 0.0, 5.0449853, 5.012183 
9.455268e+2, 2.5376797e+2, -484424.72, -517072.9, 51668.49, 0.000014966726, 0.0000051820925, -446562.94, 6511.7085, 0.0, 5.04296, 5.012786 
9.452064e+2, 2.5876686e+2, -437791.78, -465921.13, 46566.05, 0.0006324722, -0.00017352415, -403212.75, 872.6307, 0.0, 5.0412116, 5.0147195 
9.448802e+2, 2.6376736e+2, -394477.16, -417195.22, 45774.395, 0.0003189122, 0.0006070476, -358673.47, -3593.6377, 0.0, 5.0388594, 5.015812 
9.445465e+2, 2.6876917e+2, -346635.34, -364105.4, 38840.273, 0.00054486294, -0.000085249216, -315559.97, -9498.241, 0.0, 5.0370555, 5.0185914 
9.442057e+2, 2.737735e+2, -301802.03, -313115.13, 36584.883, 0.0019677144, -0.0012640547, -270439.0, -13419.558, 0.0, 5.034835, 5.0205092 
9.4385517e+2, 2.7878004e+2, -250781.48, -258728.1, 26867.902, -0.0015730071, 0.0007439932, -227594.69, -19639.291, 0.0, 5.033912, 5.02357 
9.4349617e+2, 2.8378925e+2, -201545.23, -204764.94, 23104.076, 0.0021290325, 0.00044685506, -179995.0, -21129.416, 0.0, 5.0329833, 5.0261226 
9.4312716e+2, 2.8879958e+2, -145446.11, -153022.6, 12034.324, 0.013849438, -0.0037803561, -136617.86, -26853.158, 0.0, 5.0347023, 5.027255 
9.4274354e+2, 2.9381257e+2, -84145.61, -99513.266, 8026.8076, -0.014366156, 0.004716761, -80717.695, -20080.02, 0.0, 5.03942, 5.027298 
9.423563e+2, 2.988215e+2, -22101.99, -60627.953, 3766.8477, 0.00888612, 0.00011761989, -21737.145, -10187.458, 0.0, 5.0466733, 5.021242 
9.4196343e+2, 3.0381927e+2, 43596.867, -22535.717, 828.8766, 0.041497488, -0.01051191, 43607.254, 43607.254, 0.0, 5.0572658, 5.012672 
9.573923e+2, 1.3903935e+2, -1547368.0, -1577555.9, 3697.717, -0.001298171, -0.008319316, -1546921.8, 30493.117, 0.0, 5.050131, 5.029414 
9.570793e+2, 1.4405474e+2, -1497589.9, -1537615.6, 13162.466, -0.0035321636, 0.0004853635, -1493649.3, 34615.168, 0.0, 5.0531034, 5.024933 
9.567718e+2, 1.4906874e+2, -1447604.1, -1485853.4, 16981.402, 0.010271964, -0.00622764, -1441153.0, 37973.74, 0.0, 5.0536437, 5.0255933 
9.564617e+2, 1.5408403e+2, -1402728.6, -1443893.3, 20377.564, -0.009548793, 0.004893128, -1394347.5, 35629.31, 0.0, 5.053557, 5.0234613 
9.5616186e+2, 1.5909493e+2, -1354784.1, -1400818.4, 29663.938, -0.011933528, 0.0052735843, -1340254.8, 40615.477, 0.0, 5.0551043, 5.0206804 
9.5586956e+2, 1.6410331e+2, -1303029.6, -1351129.3, 30273.436, 0.022455169, -0.0065204194, -1288415.8, 43372.234, 0.0, 5.0565248, 5.0204062 
9.5557284e+2, 1.691123e+2, -1259160.8, -1307346.0, 34312.33, 0.0077975, -0.0026896463, -1241327.4, 41372.74, 0.0, 5.0558863, 5.0189786 
9.5527655e+2, 1.7412059e+2, -1212354.1, -1260653.1, 37044.41, -0.026579157, 0.0060055256, -1192282.8, 41336.08, 0.0, 5.0557013, 5.0184593 
9.549886e+2, 1.7912672e+2, -1165396.9, -1214515.3, 41488.34, -0.0042621, 0.0018869574, -1141743.6, 42815.004, 0.0, 5.0559063, 5.017465 
9.547028e+2, 1.8413177e+2, -1118211.0, -1168117.3, 43306.574, 0.02481503, -0.0039419546, -1093183.0, 42326.188, 0.0, 5.055956, 5.0167236 
9.5441264e+2, 1.891366e+2, -1072528.4, -1122718.1, 46487.32, 0.0018357015, -0.00050559686, -1044795.0, 41666.777, 0.0, 5.0556464, 5.015748 
9.541237e+2, 1.9414067e+2, -1025578.44, -1075622.1, 48166.477, -0.019326478, 0.0031558159, -996322.3, 41099.543, 0.0, 5.055416, 5.015375 
9.538386e+2, 1.991434e+2, -979507.06, -1029499.3, 50175.387, -0.000189781, 0.00067701127, -948446.25, 39948.793, 0.0, 5.055046, 5.0146966 
9.5355296e+2, 2.0414555e+2, -933253.4, -982844.5, 51884.75, 0.014123122, -0.0015477587, -900543.75, 38830.184, 0.0, 5.0545936, 5.0142603 
9.5326364e+2, 2.0914726e+2, -887081.75, -936443.1, 53052.52, 0.00025797382, -0.000093588635, -853250.0, 37107.05, 0.0, 5.054142, 5.013733 
9.52974e+2, 2.1414846e+2, -840979.1, -889436.75, 54335.207, -0.008916646, 0.0011572631, -805715.5, 35629.832, 0.0, 5.0535493, 5.013468 
9.5268404e+2, 2.1914884e+2, -794862.5, -842490.1, 54360.54, 0.0005414193, 0.00032819711, -759328.5, 33013.12, 0.0, 5.052892, 5.0132337 
9.5239186e+2, 2.2414903e+2, -749560.44, -795688.9, 55369.176, 0.0056150104, -0.00035389265, -712643.75, 30696.121, 0.0, 5.0519605, 5.0130424 
9.5209545e+2, 2.2914892e+2, -703549.06, -748266.9, 54226.77, -0.00021370873, 0.0006953998, -667252.5, 27088.43, 0.0, 5.0510592, 5.0131183 
9.5179677e+2, 2.341488e+2, -658682.9, -701151.8, 54945.906, -0.0035187318, 0.0007841478, -621011.0, 24331.201, 0.0, 5.049838, 5.013166 
9.5149446e+2, 2.3914845e+2, -612527.2, -652616.7, 52711.84, 0.00076009595, 0.00027812007, -576177.5, 20168.195, 0.0, 5.048676, 5.0137897 
9.511882e+2, 2.4414858e+2, -568406.75, -605502.2, 52907.81, 0.002536987, 0.00058338675, -530889.75, 16454.959, 0.0, 5.047088, 5.013998 
9.508764e+2, 2.4914895e+2, -522221.84, -556049.9, 49277.426, 0.0006488495, 0.0013252217, -487036.44, 11304.724, 0.0, 5.045631, 5.0151305 
9.5055985e+2, 2.541501e+2, -478886.38, -508682.66, 49026.32, -0.0013579542, 0.0010975116, -442544.56, 6785.545, 0.0, 5.043604, 5.0156145 
9.502371e+2, 2.5915182e+2, -432106.44, -457419.44, 43902.69, -0.000094929266, 0.00012822615, -399072.3, 1240.637, 0.0, 5.041914, 5.0175714 
9.499084e+2, 2.6415524e+2, -389182.3, -409326.28, 42796.094, -0.0011382104, 0.0009775667, -355288.97, -4009.8435, 0.0, 5.03949, 5.018494 
9.49572e+2, 2.6915964e+2, -341913.03, -357382.34, 35858.086, -0.0007727183, 0.00011459552, -312964.9, -10729.415, 0.0, 5.037674, 5.0208664 
9.492286e+2, 2.741662e+2, -297754.53, -307271.7, 33732.457, -0.00092906435, 0.00005980845, -268446.66, -15275.348, 0.0, 5.0353327, 5.0225244 
9.488763e+2, 2.7917403e+2, -248965.02, -255991.22, 24976.469, -0.0013180806, -0.0002432283, -227255.8, -23160.953, 0.0, 5.034134, 5.02451 
9.4851583e+2, 2.8418443e+2, -200554.39, -203190.27, 21771.111, -0.0008719639, 0.0010935012, -180061.36, -25068.273, 0.0, 5.0330987, 5.02667 
9.4814706e+2, 2.891952e+2, -146220.0, -153673.56, 14023.435, 0.0037730385, -0.0003116716, -135436.6, -29549.586, 0.0, 5.034645, 5.026946 
9.4776887e+2, 2.9420766e+2, -82501.03, -95863.26, 11881.977, -0.013605479, -0.0007086136, -75550.62, -18785.398, 0.0, 5.0397143, 5.028393 
9.473889e+2, 2.9921827e+2, -19169.814, -56642.42, 10641.649, 0.0022171072, 0.003313263, -16358.641, -8696.824, 0.0, 5.047795, 5.021956 
9.470021e+2, 3.042149e+2, 49985.707, -19798.676, 12608.957, -0.015093152, -0.015049617, 52194.066, 52194.066, 0.0, 5.060002, 5.0123787 
9.624311e+2, 1.3936144e+2, -1552488.1, -1577576.4, 2215.0352, 0.00086148793, 0.016905077, -1552294.1, 21964.684, 0.0, 5.047686, 5.030681 
9.621215e+2, 1.4437641e+2, -1500456.1, -1533394.1, 10563.882, -0.0050412687, -0.008034786, -1497359.3, 27752.627, 0.0, 5.050717, 5.0276194 
9.618153e+2, 1.4939265e+2, -1449643.9, -1484342.5, 12394.173, 0.013883604, -0.017237687, -1445671.5, 30280.762, 0.0, 5.0520897, 5.0270114 
9.615048e+2, 1.5441352e+2, -1403337.9, -1441722.8, 17184.408, -0.012945789, 0.035436288, -1396768.9, 29978.89, 0.0, 5.052507, 5.0248585 
9.612072e+2, 1.5942326e+2, -1356473.9, -1398159.0, 26888.732, -0.013606039, 0.0033064727, -1343295.6, 34356.87, 0.0, 5.053439, 5.0225444 
9.6091694e+2, 1.6443166e+2, -1305651.5, -1349549.8, 26027.695, 0.028132906, -0.030960388, -1293553.5, 35016.824, 0.0, 5.054641, 5.022015 
9.606192e+2, 1.6944528e+2, -1260851.3, -1305637.1, 29795.082, 0.007859013, 0.0016966672, -1245972.4, 33464.41, 0.0, 5.054353, 5.020487 
9.603224e+2, 1.7445685e+2, -1212988.4, -1257398.9, 33211.37, -0.032300252, 0.022999177, -1195242.8, 35080.555, 0.0, 5.0543113, 5.02044 
9.600355e+2, 1.7946343e+2, -1165815.5, -1210759.4, 37381.89, -0.0032485784, -0.001670421, -1144671.0, 36587.84, 0.0, 5.054495, 5.0196385 
9.597502e+2, 1.844701e+2, -1119079.0, -1165460.9, 38948.535, 0.029396772, -0.013986761, -1096940.0, 35253.48, 0.0, 5.054584, 5.018494 
9.594593e+2, 1.894784e+2, -1072735.0, -1119299.5, 41948.363, 0.00021839609, 0.002412336, -1048040.94, 35071.332, 0.0, 5.054403, 5.0177264 
9.591699e+2, 1.9448516e+2, -1025417.3, -1071966.8, 43443.566, -0.02271918, 0.009415965, -999406.56, 34639.414, 0.0, 5.0542808, 5.017388 
9.588851e+2, 1.9948962e+2, -979072.0, -1025273.6, 45397.15, 0.0015842209, -0.0006040216, -951236.06, 33766.094, 0.0, 5.0539083, 5.016908 
9.5859915e+2, 2.0449409e+2, -932583.25, -978785.56, 46819.563, 0.016602764, -0.004747073, -903475.9, 32482.31, 0.0, 5.053572, 5.0163746 
9.583089e+2, 2.0949876e+2, -885816.5, -931740.3, 47775.992, -0.0014192892, 0.0005543107, -855770.9, 31141.268, 0.0, 5.053237, 5.0160356 
9.5801866e+2, 2.1450277e+2, -839425.6, -884931.6, 48677.953, -0.011210813, 0.00332099, -808445.56, 29427.564, 0.0, 5.0527925, 5.015648 
9.5772827e+2, 2.1950568e+2, -792665.4, -837394.06, 48531.813, 0.0013646262, 0.000629728, -761592.9, 27251.791, 0.0, 5.052275, 5.0155783 
9.574353e+2, 2.2450854e+2, -746809.4, -790534.4, 49057.402, 0.006840632, -0.0007728106, -714963.44, 24853.371, 0.0, 5.051565, 5.0153213 
9.5713764e+2, 2.2951129e+2, -700001.6, -742442.56, 47835.51, -0.00069221196, 0.0009146731, -668891.0, 21898.928, 0.0, 5.050868, 5.015559 
9.568378e+2, 2.3451406e+2, -654471.94, -695334.7, 48029.74, -0.0042840266, 0.0014192234, -622708.56, 19054.258, 0.0, 5.049925, 5.015491 
9.5653427e+2, 2.3951651e+2, -607514.44, -646688.6, 45178.938, 0.0013500535, 0.0008081017, -577859.4, 14879.17, 0.0, 5.0490665, 5.016044 
9.5622665e+2, 2.4451934e+2, -562360.06, -599563.4, 44853.367, 0.003402026, 0.0002724125, -532404.06, 11306.835, 0.0, 5.0479226, 5.0160737 
9.559129e+2, 2.4952236e+2, -514887.3, -549922.1, 40675.47, 0.0004317084, 0.0008378079, -488117.53, 6563.879, 0.0, 5.0469613, 5.0170984 
9.5559454e+2, 2.545261e+2, -469998.13, -502610.13, 39546.895, -0.0018591292, 0.0011699159, -443527.47, 2117.2139, 0.0, 5.0455837, 5.017326 
9.5526993e+2, 2.5953022e+2, -421709.94, -451692.66, 33570.48, 0.0004967857, 0.00047686166, -399935.6, -3331.0945, 0.0, 5.0445757, 5.0189257 
9.549391e+2, 2.6453546e+2, -376331.2, -403498.9, 31331.41, 0.00087034964, -0.00044095205, -355765.7, -8212.7295, 0.0, 5.0431714, 5.0195026 
9.546007e+2, 2.6954147e+2, -327040.4, -352554.94, 23372.014, 0.0006376778, -0.00047934472, -313170.63, -14677.019, 0.0, 5.0424542, 5.021068 
9.542552e+2, 2.7454916e+2, -279827.97, -302836.4, 19819.818, 0.0004421335, 0.00008299845, -268415.56, -18997.484, 0.0, 5.0415187, 5.0220284 
9.539015e+2, 2.795575e+2, -228320.69, -251959.5, 11018.634, -0.00079867005, -0.0005834351, -223981.23, -23644.64, 0.0, 5.0417056, 5.0232773 
9.535404e+2, 2.8456765e+2, -177431.84, -200193.67, 6362.471, 0.001783884, 0.0003873657, -175774.11, -24537.105, 0.0, 5.041996, 5.02454 
9.5317256e+2, 2.8957796e+2, -124311.09, -153307.61, -1292.9475, 0.008618356, 0.0023944543, -124253.555, -22117.492, 0.0, 5.043702, 5.023703 
9.527985e+2, 2.945888e+2, -64372.137, -96705.42, -5404.484, -0.010334948, -0.002575466, -63492.7, -10462.526, 0.0, 5.0472927, 5.025328 
9.5242447e+2, 2.995992e+2, -10463.454, -57017.31, -5723.2275, 0.011052716, 0.0031862329, -9770.178, -5841.6787, 0.0, 5.051338, 5.020583 
9.5204914e+2, 3.046003e+2, 47314.836, -22550.518, -1407.367, 0.0014940669, 0.010192754, 47343.176, 47343.176, 0.0, 5.0589476, 5.0119295 
9.674699e+2, 1.396757e+2, -1550813.4, -1571832.8, 3788.9673, 0.009705554, -0.00024302238, -1550151.3, 21027.588, 0.0, 5.0472794, 5.032782 
9.6716213e+2, 1.446969e+2, -1503676.9, -1528875.4, 10824.703, 0.0018150314, 0.0069406168, -1499665.5, 22304.945, 0.0, 5.0483637, 5.03026 
9.668573e+2, 1.4971335e+2, -1454243.5, -1482897.1, 12356.68, 0.01672193, -0.023513144, -1449650.9, 23158.93, 0.0, 5.0497336, 5.0286326 
9.665468e+2, 1.5473644e+2, -1401763.5, -1437202.9, 17619.965, -0.029438518, 0.035827152, -1394494.1, 29089.176, 0.0, 5.05228, 5.026495 
9.662523e+2, 1.5974794e+2, -1355192.6, -1393610.6, 26234.854, -0.010474942, 0.004120855, -1341886.3, 32584.484, 0.0, 5.053037, 5.0242934 
9.659636e+2, 1.6475813e+2, -1306466.3, -1344714.4, 24677.287, 0.043338977, -0.03320129, -1294370.1, 31000.713, 0.0, 5.0532126, 5.0243673 
9.656642e+2, 1.6977485e+2, -1259861.3, -1299662.4, 28836.902, 0.0028555654, 0.0039826925, -1244724.8, 31482.434, 0.0, 5.0534782, 5.0229807 
9.653671e+2, 1.747889e+2, -1211086.4, -1251923.5, 32702.414, -0.04384179, 0.02698391, -1192951.5, 34117.74, 0.0, 5.0539618, 5.022517 
9.650821e+2, 1.79797e+2, -1164552.1, -1205682.9, 36134.836, 0.0019851692, -0.0034559572, -1143540.4, 34449.76, 0.0, 5.05392, 5.0216994 
9.647971e+2, 1.8480578e+2, -1117674.6, -1159965.3, 37539.03, 0.037380725, -0.016923971, -1095735.0, 33168.758, 0.0, 5.053977, 5.020724 
9.6450514e+2, 1.8981695e+2, -1070252.0, -1112935.0, 40731.695, -0.0034317065, 0.004157673, -1045609.5, 34184.883, 0.0, 5.0541, 5.0201216 
9.642155e+2, 1.9482619e+2, -1022769.1, -1065599.4, 42080.57, -0.027448045, 0.0115181, -996967.94, 33735.93, 0.0, 5.0540595, 5.0197515 
9.63931e+2, 1.9983277e+2, -976202.2, -1018640.75, 43955.61, 0.0040654344, -0.0021996258, -948612.1, 33027.32, 0.0, 5.053732, 5.019354 
9.6364486e+2, 2.0483972e+2, -929517.25, -972313.56, 45160.457, 0.019604858, -0.0063084983, -900941.94, 31629.152, 0.0, 5.053505, 5.018726 
9.633538e+2, 2.0984721e+2, -882169.7, -924449.56, 46388.53, -0.0027471385, 0.0016793436, -852331.25, 31166.236, 0.0, 5.053269, 5.0186353 
9.6306306e+2, 2.1485376e+2, -835932.56, -877979.7, 47005.746, -0.012381558, 0.0039904355, -805463.06, 28970.225, 0.0, 5.0528145, 5.018148 
9.627722e+2, 2.1985917e+2, -788888.56, -829840.0, 47004.43, 0.0024975052, -0.0007627193, -758093.7, 27286.791, 0.0, 5.0523086, 5.0182953 
9.624784e+2, 2.248647e+2, -742963.0, -783438.1, 47315.867, 0.007735017, -0.0019245083, -711738.44, 24587.904, 0.0, 5.051716, 5.017834 
9.621797e+2, 2.2987024e+2, -695634.7, -734890.6, 46134.14, -0.0013208423, 0.0006793522, -665126.7, 22145.51, 0.0, 5.051161, 5.0181823 
9.6187884e+2, 2.3487565e+2, -650160.7, -688224.6, 46152.824, -0.004544824, 0.0015178247, -619269.7, 18949.322, 0.0, 5.0502872, 5.0179358 
9.615741e+2, 2.3988059e+2, -602849.56, -639453.5, 43390.78, 0.00097563607, 0.00013819376, -574058.8, 15111.803, 0.0, 5.0495663, 5.018486 
9.6126515e+2, 2.4488583e+2, -557895.9, -592828.3, 43114.813, 0.0027908029, -0.0004301558, -528843.75, 11275.206, 0.0, 5.0484486, 5.018328 
9.6094996e+2, 2.4989113e+2, -510252.25, -543354.0, 38804.21, -0.0008847204, -0.000117979995, -484616.66, 6450.4385, 0.0, 5.047606, 5.0192456 
9.606301e+2, 2.5489703e+2, -465622.0, -496668.06, 37412.668, -0.0020231619, 0.0011574083, -440639.8, 1369.3999, 0.0, 5.046229, 5.0192623 
9.603039e+2, 2.5990298e+2, -417916.9, -447390.13, 31839.148, 0.0010095256, 0.0014403232, -397569.34, -4618.173, 0.0, 5.045317, 5.0202208 
9.5997137e+2, 2.6490945e+2, -372940.53, -400094.84, 29449.084, 0.00034681376, 0.0006603075, -354089.5, -10201.831, 0.0, 5.043927, 5.020467 
9.596313e+2, 2.6991606e+2, -324574.56, -350780.72, 22305.691, -0.00015770587, -0.0009703242, -311808.1, -16984.86, 0.0, 5.043178, 5.0214276 
9.592846e+2, 2.7492377e+2, -278421.5, -302730.16, 18866.053, -0.0013339286, 0.00010794996, -268133.56, -22386.791, 0.0, 5.0420847, 5.021849 
9.589303e+2, 2.7993158e+2, -229382.56, -255619.44, 10564.068, -0.001856742, 0.0005190526, -225657.81, -28987.791, 0.0, 5.0419755, 5.0217943 
9.58569e+2, 2.849398e+2, -179233.06, -204914.03, 5857.801, -0.000449931, -0.0013118018, -177960.0, -30370.033, 0.0, 5.042156, 5.0226793 
9.58202e+2, 2.8994763e+2, -128737.21, -161617.88, 793.7097, 0.001851003, -0.00049810775, -128718.06, -30204.602, 0.0, 5.0435777, 5.02051 
9.578317e+2, 2.949544e+2, -70175.016, -108772.25, -2094.8198, -0.014843248, -0.0025430284, -70061.66, -20614.035, 0.0, 5.0473013, 5.020632 
9.574621e+2, 2.9996064e+2, -10370.538, -60965.93, -2828.6626, -0.006958814, -0.00017834597, -10212.886, -9826.257, 0.0, 5.052463, 5.018458 
9.570959e+2, 3.0496293e+2, 53961.23, -15455.502, 3634.6536, -0.00043909234, 0.008413887, 54151.02, 54151.02, 0.0, 5.0605655, 5.013904 
9.725043e+2, 1.3998875e+2, -1552670.1, -1568506.1, 2199.7307, -0.012249144, -0.00967679, -1552370.3, 15740.136, 0.0, 5.045626, 5.034767 
9.722009e+2, 1.4501415e+2, -1505052.3, -1526083.0, 7123.8335, 0.008658419, 0.013875071, -1502866.4, 15995.173, 0.0, 5.04689, 5.0320573 
9.7189796e+2, 1.5003191e+2, -1453537.4, -1480517.6, 9321.501, 0.025061877, -0.02065362, -1450630.1, 19057.898, 0.0, 5.0492315, 5.0298467 
9.715872e+2, 1.5505554e+2, -1402026.5, -1434881.8, 14574.922, -0.050242998, 0.026763905, -1396493.0, 23963.377, 0.0, 5.051355, 5.027885 
9.712963e+2, 1.6006924e+2, -1357492.4, -1393346.4, 21742.926, -0.007003091, 0.0013110609, -1347239.0, 24082.916, 0.0, 5.0515647, 5.025269 
9.710091e+2, 1.6508189e+2, -1307373.6, -1341845.6, 20316.398, 0.061577756, -0.02880047, -1297966.9, 24231.16, 0.0, 5.0517855, 5.026232 
9.707076e+2, 1.7010093e+2, -1259601.3, -1295204.4, 24438.438, -0.004609829, 0.005645322, -1247168.1, 25843.389, 0.0, 5.052202, 5.0253425 
9.704106e+2, 1.7511688e+2, -1211717.9, -1249972.8, 27924.537, -0.05695312, 0.02501478, -1196998.0, 26857.248, 0.0, 5.052809, 5.023959 
9.7012794e+2, 1.8012668e+2, -1164937.8, -1204091.6, 30974.035, 0.009916852, -0.0051934677, -1147872.5, 26886.664, 0.0, 5.0529304, 5.02295 
9.6984303e+2, 1.8513769e+2, -1117080.6, -1156521.1, 32487.783, 0.046076905, -0.016701324, -1098796.4, 26854.904, 0.0, 5.0530257, 5.022609 
9.695499e+2, 1.901513e+2, -1069642.9, -1109480.1, 35534.867, -0.009550662, 0.0055239894, -1048824.8, 27693.066, 0.0, 5.053145, 5.0220175 
9.692604e+2, 1.9516267e+2, -1021877.1, -1062184.8, 36455.91, -0.032801848, 0.011557528, -1000375.06, 27031.281, 0.0, 5.0532384, 5.021574 
9.689765e+2, 2.0017141e+2, -974761.2, -1014741.44, 38260.785, 0.0076739336, -0.0034563427, -951583.1, 26737.492, 0.0, 5.0530496, 5.0212884 
9.6869004e+2, 2.0518088e+2, -927672.2, -968318.1, 39095.637, 0.022226423, -0.0061472836, -903932.8, 25295.088, 0.0, 5.0529604, 5.0206423 
9.6839833e+2, 2.1019095e+2, -879966.56, -920148.7, 40373.063, -0.0051954268, 0.0032642714, -854961.75, 25167.39, 0.0, 5.0528126, 5.020627 
9.681072e+2, 2.1519983e+2, -833109.75, -873421.8, 40425.633, -0.013627456, 0.00404999, -808093.9, 22948.121, 0.0, 5.052558, 5.020155 
9.678161e+2, 2.2020765e+2, -785207.7, -824596.6, 40374.14, 0.003890175, -0.0022528803, -759980.6, 21984.771, 0.0, 5.0522804, 5.020459 
9.6752167e+2, 2.2521587e+2, -738839.8, -778649.6, 40334.61, 0.008321086, -0.0022424008, -713766.0, 19118.717, 0.0, 5.051953, 5.0197334 
9.6722215e+2, 2.3022404e+2, -690644.9, -729533.56, 39066.98, -0.0026377118, 0.0012345605, -666450.8, 17353.756, 0.0, 5.0516553, 5.0201893 
9.6692055e+2, 2.3523182e+2, -644434.3, -683103.44, 38611.3, -0.0053395377, 0.0012437644, -620587.2, 14141.553, 0.0, 5.0511513, 5.019701 
9.666151e+2, 2.4023907e+2, -595868.9, -633596.9, 35716.992, 0.0014437778, -0.0011468204, -574340.4, 11317.376, 0.0, 5.0508404, 5.0203586 
9.663051e+2, 2.4524678e+2, -549611.94, -587017.2, 34895.867, 0.0026203957, -0.0008465163, -528722.75, 7859.325, 0.0, 5.050304, 5.019944 
9.659888e+2, 2.5025433e+2, -500908.03, -537921.2, 30630.99, -0.00067684555, 0.00030718144, -483627.03, 3880.942, 0.0, 5.050004, 5.020518 
9.656679e+2, 2.55262e+2, -454596.88, -491183.0, 28917.02, -0.00036209566, 0.00086672197, -438672.56, -239.27748, 0.0, 5.0493755, 5.0202394 
9.6534055e+2, 2.6026937e+2, -405137.2, -441757.13, 23101.295, 0.002081885, 0.00028714616, -393969.63, -4608.6953, 0.0, 5.0492444, 5.020924 
9.650068e+2, 2.6527712e+2, -357721.47, -394870.44, 20413.756, 0.00011894925, 0.0011639948, -348696.44, -8411.747, 0.0, 5.0490546, 5.0205183 
9.6466595e+2, 2.702845e+2, -307641.72, -346949.5, 13591.133, -0.00025703324, 0.0015426922, -303400.13, -12187.838, 0.0, 5.0493712, 5.020537 
9.6431875e+2, 2.752918e+2, -259192.81, -299175.78, 9410.965, 0.0027136456, 0.0007258278, -257088.47, -14948.115, 0.0, 5.049362, 5.020434 
9.63964e+2, 2.8029856e+2, -208426.92, -252924.11, 2318.016, 0.0011009407, -0.00086639205, -208306.48, -15232.385, 0.0, 5.0503244, 5.0195756 
9.636028e+2, 2.8530508e+2, -156029.48, -203144.45, -2912.898, 0.00031485193, -0.0008052184, -155850.08, -11840.03, 0.0, 5.0517797, 5.0195723 
9.632372e+2, 2.9031062e+2, -106718.8, -162666.45, -7067.201, 0.0056782146, 0.0010116369, -105839.89, -10883.962, 0.0, 5.053371, 5.0162044 
9.6286947e+2, 2.9531375e+2, -57943.184, -115743.664, -9083.718, -0.004643621, 0.0013593651, -56549.234, -10623.779, 0.0, 5.0537643, 5.015567 
9.625038e+2, 3.0031645e+2, -7402.368, -64700.703, -7413.235, 0.014917763, -0.0002107645, -6458.7856, -6458.7856, 0.0, 5.054208, 5.0164914 
9.621421e+2, 3.0531934e+2, 40344.61, -17946.18, -334.32867, 0.0044331737, -0.002529458, 40346.527, 40346.527, 0.0, 5.054605, 5.0154595 
9.7753906e+2, 1.402999e+2, -1555066.1, -1565826.1, 1378.4628, -0.019194536, -0.0023682446, -1554892.4, 10169.252, 0.0, 5.044091, 5.036364 
9.7723794e+2, 1.4532593e+2, -1507749.1, -1523781.0, 7359.3086, 0.0099314805, 0.005936187, -1504883.3, 10923.658, 0.0, 5.045217, 5.0336356 
9.769375e+2, 1.5034643e+2, -1454961.9, -1478871.1, 10226.935, 0.023529666, -0.012974964, -1451184.3, 15421.158, 0.0, 5.0482793, 5.0308514 
9.766297e+2, 1.553699e+2, -1401559.8, -1430036.5, 13824.036, -0.046953127, 0.015662204, -1395952.9, 21422.855, 0.0, 5.050539, 5.0299225 
9.7633904e+2, 1.603869e+2, -1357723.3, -1388989.6, 19977.467, -0.0056651295, 0.0013434996, -1347989.3, 20219.67, 0.0, 5.0504847, 5.0272937 
9.7605133e+2, 1.6540281e+2, -1307029.4, -1337256.0, 19595.342, 0.057120092, -0.01619776, -1297396.3, 21656.861, 0.0, 5.050926, 5.0282354 
9.757507e+2, 1.7042261e+2, -1258730.4, -1289997.9, 23505.053, -0.006759216, 0.0030321134, -1246134.8, 23724.367, 0.0, 5.051436, 5.0275297 
9.7545487e+2, 1.754399e+2, -1211883.0, -1246189.5, 26773.92, -0.054440964, 0.01492719, -1197238.9, 23450.775, 0.0, 5.05189, 5.0257254 
9.7517264e+2, 1.8045276e+2, -1163588.9, -1199506.4, 29752.871, 0.011941074, -0.003092022, -1146795.0, 24768.719, 0.0, 5.052509, 5.024765 
9.7488755e+2, 1.8546629e+2, -1114402.4, -1150429.4, 31029.002, 0.044013105, -0.010643422, -1096537.1, 25893.865, 0.0, 5.052872, 5.024829 
9.745943e+2, 1.9048144e+2, -1067891.0, -1103935.8, 34022.293, -0.012818673, 0.0037969311, -1047412.44, 25870.037, 0.0, 5.052693, 5.024191 
9.743052e+2, 1.9549493e+2, -1020254.5, -1056665.3, 34810.363, -0.032012682, 0.008250273, -999176.3, 24973.826, 0.0, 5.0527344, 5.0237727 
9.740216e+2, 2.0050642e+2, -972376.9, -1008829.8, 36775.707, 0.010640877, -0.0026837573, -949558.75, 25478.766, 0.0, 5.052801, 5.0235205 
9.7373474e+2, 2.0551828e+2, -924953.56, -962138.4, 37627.87, 0.022223502, -0.0049971966, -901575.3, 24346.041, 0.0, 5.0528097, 5.0229354 
9.734426e+2, 2.1053052e+2, -877068.44, -913613.8, 38815.11, -0.00744033, 0.0020790705, -852440.06, 24361.316, 0.0, 5.052674, 5.0230427 
9.731514e+2, 2.155419e+2, -830042.1, -866967.4, 38785.215, -0.013812397, 0.0031447378, -805549.4, 22140.328, 0.0, 5.0525193, 5.022498 
9.728601e+2, 2.2055236e+2, -781830.6, -817975.94, 38953.78, 0.0055095437, -0.00196632, -756961.25, 21625.945, 0.0, 5.052357, 5.022818 
9.7256505e+2, 2.2556303e+2, -735186.6, -771719.1, 38833.887, 0.008359188, -0.0019541972, -710537.5, 18944.846, 0.0, 5.0520883, 5.0221906 
9.722649e+2, 2.3057364e+2, -686811.2, -722575.06, 37757.305, -0.0039987583, 0.001016354, -662915.44, 17463.045, 0.0, 5.051879, 5.0226264 
9.719627e+2, 2.355838e+2, -640669.56, -676674.1, 37180.836, -0.005668173, 0.0013326601, -617362.06, 13917.128, 0.0, 5.0514474, 5.0219336 
9.716566e+2, 2.4059342e+2, -592077.94, -627251.1, 34565.504, 0.0024396332, -0.00036142915, -570882.25, 11302.976, 0.0, 5.051169, 5.022553 
9.7134584e+2, 2.456033e+2, -546285.3, -581551.9, 33606.63, 0.0029114953, -0.0000031044435, -525966.8, 7121.63, 0.0, 5.050591, 5.021851 
9.710286e+2, 2.5061277e+2, -497431.25, -532321.06, 29809.8, -0.0020871453, 0.00097520615, -480337.06, 3658.4272, 0.0, 5.050357, 5.022444 
9.707069e+2, 2.5562197e+2, -451509.75, -486885.0, 28158.07, -0.0020648006, 0.0008902634, -435944.88, -1039.1324, 0.0, 5.0498247, 5.0216513 
9.703788e+2, 2.6063064e+2, -402433.8, -438585.5, 22718.625, 0.00091713574, 0.000004137589, -391477.4, -5656.491, 0.0, 5.049761, 5.0218916 
9.700447e+2, 2.6563925e+2, -355759.88, -393113.1, 20056.55, -0.00096231623, 0.0014159962, -347030.63, -10294.496, 0.0, 5.0495234, 5.0209928 
9.6970344e+2, 2.7064687e+2, -306669.22, -347071.0, 14169.745, -0.0017390714, 0.002231752, -302195.06, -14533.987, 0.0, 5.049836, 5.020295 
9.693556e+2, 2.7565336e+2, -258774.31, -300474.16, 9776.771, -0.0009997999, -0.00080430106, -256595.9, -17997.975, 0.0, 5.049835, 5.019736 
9.690014e+2, 2.8065875e+2, -210239.84, -257928.81, 3333.1182, 0.000038886017, -0.0036973031, -210008.02, -20463.0, 0.0, 5.050574, 5.0175695 
9.686413e+2, 2.8566343e+2, -159493.2, -209791.58, -1881.0607, -0.0010151011, 0.00060497865, -159422.95, -18924.645, 0.0, 5.051597, 5.0171213 
9.682771e+2, 2.906663e+2, -112563.49, -172510.86, -5388.5313, 0.003969282, 0.0046776095, -112082.98, -20613.615, 0.0, 5.0528398, 5.012644 
9.679099e+2, 2.9566544e+2, -62139.863, -125751.93, -8905.396, -0.011142279, 0.004246557, -60916.67, -18438.21, 0.0, 5.0539994, 5.0116158 
9.675455e+2, 3.006652e+2, -6774.542, -66630.66, -8340.119, 0.007192473, 0.0038517178, -5634.1875, -5634.1875, 0.0, 5.0550075, 5.0153327 
9.671818e+2, 3.0566776e+2, 41368.824, -12424.597, -433.73734, -0.020506823, -0.016124839, 41372.32, 41372.32, 0.0, 5.054034, 5.017717 
9.825768e+2, 1.4060673e+2, -1553506.3, -1563702.6, -567.56396, 0.014183533, 0.0031077615, -1553474.8, 8579.329, 0.0, 5.0441575, 5.0371246 
9.822734e+2, 1.4563403e+2, -1504835.1, -1518577.9, 4022.5835, 0.0059242207, -0.0042297784, -1503744.3, 9043.806, 0.0, 5.045177, 5.035525 
9.819745e+2, 1.5065862e+2, -1456397.3, -1479146.4, 8070.1963, 0.0077194893, 0.003943188, -1453825.1, 9720.69, 0.0, 5.0474463, 5.031288 
9.8167247e+2, 1.5568063e+2, -1401462.0, -1427350.4, 9905.771, -0.030410698, 0.004578566, -1398106.6, 16223.571, 0.0, 5.0496798, 5.0314155 
9.8138124e+2, 1.6070051e+2, -1357707.6, -1385885.6, 14943.271, 0.002327689, -0.00174437, -1351258.9, 13876.735, 0.0, 5.0494213, 5.029068 
9.8109156e+2, 1.6572037e+2, -1306785.4, -1334553.8, 15093.759, 0.04180327, 0.00095857336, -1300161.3, 15779.795, 0.0, 5.050052, 5.0297947 
9.8079294e+2, 1.707405e+2, -1257527.9, -1287361.6, 18488.625, -0.008870665, 0.0035817511, -1248688.9, 18054.977, 0.0, 5.0509686, 5.0288963 
9.804992e+2, 1.7575821e+2, -1210974.0, -1243915.1, 21636.61, -0.042396948, 0.0020093832, -1200252.3, 17317.787, 0.0, 5.0513554, 5.0270057 
9.802166e+2, 1.807743e+2, -1163096.0, -1197310.3, 24352.998, 0.013155052, 0.000507425, -1150442.1, 17970.162, 0.0, 5.0517855, 5.026115 
9.79931e+2, 1.857906e+2, -1113523.5, -1147957.8, 24981.443, 0.036567193, 0.001727339, -1100400.9, 18851.803, 0.0, 5.052229, 5.0262475 
9.7963846e+2, 1.9080651e+2, -1066386.1, -1100897.6, 27803.307, -0.0132942675, 0.0030496253, -1050919.1, 19177.633, 0.0, 5.052184, 5.0257597 
9.7935003e+2, 1.9582167e+2, -1018230.7, -1053227.0, 28414.865, -0.026216172, 0.0034008124, -1002358.4, 18589.893, 0.0, 5.0523562, 5.0254383 
9.7906613e+2, 2.0083627e+2, -969974.5, -1005357.3, 30207.393, 0.012615948, 0.001955197, -952659.2, 19145.986, 0.0, 5.0525684, 5.025147 
9.787789e+2, 2.0585042e+2, -922139.2, -958252.94, 30718.494, 0.020201191, 0.0007719198, -904563.56, 18102.732, 0.0, 5.052674, 5.024667 
9.7848684e+2, 2.1086435e+2, -873894.75, -909651.2, 31668.914, -0.007935881, 0.0020193693, -855406.06, 18123.482, 0.0, 5.0526786, 5.0247426 
9.7819567e+2, 2.1587822e+2, -825979.2, -862113.3, 31439.121, -0.011770116, 0.00382829, -807785.56, 16608.098, 0.0, 5.052731, 5.024428 
9.7790414e+2, 2.2089158e+2, -777363.25, -813309.5, 31413.36, 0.00663362, 0.0032109118, -759144.75, 16117.934, 0.0, 5.052776, 5.024605 
9.776086e+2, 2.2590448e+2, -730121.2, -766842.44, 31086.033, 0.0081156865, 0.0012750168, -712378.44, 13757.976, 0.0, 5.0527205, 5.0239735 
9.773083e+2, 2.3091726e+2, -680794.4, -716959.94, 29986.248, -0.0036375006, 0.0012637222, -663860.56, 13150.461, 0.0, 5.0527897, 5.0245657 
9.7700584e+2, 2.3593013e+2, -633805.6, -670965.7, 29181.918, -0.0034619444, 0.003204316, -617790.8, 10094.004, 0.0, 5.052716, 5.0237665 
9.7669935e+2, 2.409424e+2, -584352.06, -621385.94, 26856.723, 0.0045057833, 0.003604793, -570247.5, 8517.229, 0.0, 5.05279, 5.024299 
9.763878e+2, 2.4595429e+2, -537556.94, -575583.7, 25779.08, 0.0033339802, 0.0019169657, -524538.0, 5110.5313, 0.0, 5.0526323, 5.0234675 
9.7607017e+2, 2.5096583e+2, -487636.88, -526127.06, 22176.006, -0.0015898192, 0.0013234257, -477519.6, 3016.0142, 0.0, 5.0528607, 5.0239515 
9.7574806e+2, 2.559772e+2, -440071.75, -480637.88, 20607.398, -0.0016162752, 0.0025816439, -431439.97, -16.343262, 0.0, 5.0530953, 5.0228477 
9.7541976e+2, 2.609876e+2, -389735.53, -432537.38, 16395.74, 0.0013034464, 0.001352826, -384176.88, -1855.304, 0.0, 5.0536947, 5.022736 
9.750857e+2, 2.6599696e+2, -341597.38, -387205.84, 13996.806, 0.0025967378, -0.0015430659, -337644.47, -4414.9736, 0.0, 5.0541434, 5.0215063 
9.7474474e+2, 2.7100518e+2, -290893.63, -341324.47, 8817.663, 0.0026852374, -0.0032564967, -289396.34, -5247.489, 0.0, 5.0553174, 5.020361 
9.743968e+2, 2.7601266e+2, -240938.9, -295823.25, 5099.7734, 0.0008904218, 0.0029412021, -240469.06, -5392.9917, 0.0, 5.05656, 5.0188627 
9.74043e+2, 2.8101802e+2, -191236.4, -253570.3, 893.35974, 0.00007611313, 0.005343448, -191223.61, -5199.5405, 0.0, 5.0580153, 5.0162234 
9.736837e+2, 2.8602034e+2, -141064.06, -207063.56, -3387.6077, 0.0020220687, -0.00006794016, -140890.63, -3889.9304, 0.0, 5.0590663, 5.0152116 
9.7332e+2, 2.9102084e+2, -96780.16, -170900.55, -5376.0166, 0.0074025993, -0.0011257865, -96392.266, -8396.871, 0.0, 5.0593953, 5.0106764 
9.729519e+2, 2.9601783e+2, -55052.625, -128054.766, -5986.6416, -0.010467979, -0.0042238533, -54564.938, -15539.69, 0.0, 5.0573335, 5.009584 
9.725872e+2, 3.0101615e+2, -8529.04, -69128.48, -2867.9446, 0.010680847, 0.0015032116, -8393.613, -8393.613, 0.0, 5.054494, 5.01476 
9.7222364e+2, 3.0601943e+2, 31531.2, -15173.463, 1041.1371, -0.0007842619, -0.00684548, 31554.396, 31554.396, 0.0, 5.0499105, 5.0185533 
9.87611e+2, 1.4090954e+2, -1555889.5, -1562572.3, 3268.035, 0.00825109, 0.008989748, -1554557.0, 4529.589, 0.0, 5.0429034, 5.038102 
9.873068e+2, 1.4593883e+2, -1504877.3, -1514572.3, 3420.684, -0.019089503, 0.0020493942, -1503791.9, 6009.444, 0.0, 5.0443177, 5.0373015 
9.870133e+2, 1.5096481e+2, -1457630.1, -1477187.5, 8263.469, 0.013073616, 0.008335267, -1454606.1, 5938.554, 0.0, 5.0464816, 5.032421 
9.8671526e+2, 1.5598586e+2, -1400840.3, -1422829.0, 8721.08, -0.009252152, -0.017775645, -1397801.4, 13537.613, 0.0, 5.0489798, 5.033304 
9.8642117e+2, 1.6101019e+2, -1357792.0, -1381559.6, 12759.541, -0.0023015626, -0.00031161285, -1352239.4, 9861.544, 0.0, 5.0484214, 5.0310526 
9.8613036e+2, 1.660334e+2, -1308147.4, -1331380.3, 14368.879, 0.022811806, 0.0167437, -1301286.6, 11586.712, 0.0, 5.048731, 5.031539 
9.858357e+2, 1.7105292e+2, -1256836.0, -1283407.6, 17675.695, -0.004850463, -0.005462307, -1248009.8, 15672.206, 0.0, 5.0503874, 5.0305634 
9.8554367e+2, 1.7607136e+2, -1209772.4, -1240832.6, 20193.766, -0.028299479, -0.014656058, -1199827.5, 14673.241, 0.0, 5.0511956, 5.028168 
9.852597e+2, 1.8109061e+2, -1162314.3, -1193828.3, 22633.275, 0.010221042, 0.0023507401, -1150493.3, 14818.819, 0.0, 5.051342, 5.0275583 
9.8497367e+2, 1.8610929e+2, -1111902.0, -1142056.1, 22958.436, 0.027394531, 0.0063010035, -1099512.6, 16616.76, 0.0, 5.0516405, 5.0286107 
9.846823e+2, 1.9112642e+2, -1065046.4, -1095708.6, 26291.63, -0.01226775, -0.004729252, -1049942.5, 17019.207, 0.0, 5.0516253, 5.0278697 
9.8439443e+2, 1.9614334e+2, -1017096.94, -1049157.6, 27011.043, -0.021760741, -0.0058824625, -1001717.6, 16078.181, 0.0, 5.0519376, 5.0270963 
9.8411036e+2, 2.0116064e+2, -967885.94, -1000368.75, 28468.836, 0.011451359, 0.0011042674, -951351.44, 17274.854, 0.0, 5.0523887, 5.0270176 
9.838228e+2, 2.0617719e+2, -919400.94, -952056.6, 28857.033, 0.016251452, 0.0010665987, -902572.7, 16891.344, 0.0, 5.052538, 5.026943 
9.8353094e+2, 2.1119307e+2, -871631.4, -903898.6, 30044.25, -0.009287709, -0.0023482842, -853662.94, 16645.242, 0.0, 5.052419, 5.026932 
9.8323995e+2, 2.1620916e+2, -823719.1, -856224.0, 29989.791, -0.010884751, -0.0016544943, -805861.0, 15289.661, 0.0, 5.0524497, 5.0266857 
9.8294824e+2, 2.2122516e+2, -774686.4, -806929.8, 29834.637, 0.0063821734, 0.0004756497, -756896.25, 15097.569, 0.0, 5.052586, 5.027006 
9.826524e+2, 2.262407e+2, -727231.56, -760475.75, 29823.598, 0.006393879, 0.00049693475, -709710.7, 13130.75, 0.0, 5.0526342, 5.0263257 
9.82352e+2, 2.3125589e+2, -677834.0, -710621.56, 28735.969, -0.004916386, -0.0009048386, -661144.4, 12548.177, 0.0, 5.0527463, 5.0268984 
9.820492e+2, 2.362711e+2, -630818.5, -664345.8, 27956.139, -0.0039981743, 0.0001390586, -614985.1, 9558.207, 0.0, 5.0526257, 5.026229 
9.8174244e+2, 2.4128582e+2, -581631.1, -615236.2, 25817.727, 0.0036759067, 0.0006278133, -567629.8, 7769.3223, 0.0, 5.052697, 5.026598 
9.8143053e+2, 2.463002e+2, -534517.44, -569474.2, 25021.805, 0.0016389042, 0.00054770464, -521473.9, 4784.2905, 0.0, 5.052689, 5.0257034 
9.811128e+2, 2.5131395e+2, -484629.44, -520186.9, 21915.957, -0.0026811406, -0.00068307604, -474187.72, 2935.8015, 0.0, 5.05297, 5.026102 
9.807907e+2, 2.563275e+2, -437755.97, -475600.0, 20229.186, -0.0016998276, 0.002050555, -428978.47, -988.316, 0.0, 5.053077, 5.0247345 
9.804625e+2, 2.6133958e+2, -387704.84, -428120.7, 16390.658, 0.0010174612, -0.00024012357, -381893.28, -3021.9333, 0.0, 5.053711, 5.0243654 
9.801285e+2, 2.6635018e+2, -339916.97, -383630.63, 13983.673, 0.0022426976, -0.0046207453, -335826.44, -6059.3853, 0.0, 5.054162, 5.0228324 
9.797882e+2, 2.713595e+2, -290335.63, -339805.47, 10045.513, 0.0024219402, -0.0068631154, -288373.56, -7698.062, 0.0, 5.0552864, 5.020929 
9.7944117e+2, 2.763682e+2, -241026.56, -295043.5, 6319.1416, 0.00060455105, 0.0065896492, -240297.17, -8706.19, 0.0, 5.0563836, 5.019226 
9.7908825e+2, 2.8137386e+2, -192361.66, -254188.97, 2477.5332, -0.0015514607, 0.013443136, -192262.53, -9726.491, 0.0, 5.057709, 5.0160933 
9.787293e+2, 2.8637427e+2, -143155.28, -209438.9, -2514.8584, -0.0022195876, -0.006556278, -143060.0, -9527.759, 0.0, 5.058663, 5.014462 
9.783651e+2, 2.913738e+2, -97399.21, -169383.5, -5157.2915, -0.0037741822, -0.015541848, -97031.59, -12494.357, 0.0, 5.058933, 5.011382 
9.779948e+2, 2.963722e+2, -53492.45, -124570.74, -7472.423, -0.024551935, -0.015539301, -52715.37, -17162.367, 0.0, 5.057495, 5.010758 
9.776282e+2, 3.013718e+2, -9670.604, -71359.914, -5856.371, 0.004948037, 0.0009279322, -9119.561, -9119.561, 0.0, 5.0544276, 5.013956 
9.772644e+2, 3.0637914e+2, 30937.477, -15704.899, 152.30215, 0.033614136, 0.04494545, 30937.975, 30937.975, 0.0, 5.0497165, 5.01845 
9.92645e+2, 1.4120838e+2, -1551901.1, -1557483.4, 2026.2849, 0.0053105424, -0.013363524, -1551243.1, 4915.6626, 0.0, 5.0435357, 5.0395293 
9.9234074e+2, 1.4624123e+2, -1501910.3, -1512937.9, 1548.3445, -0.031950668, 0.008403353, -1501697.0, 5140.3687, 0.0, 5.0450625, 5.037612 
9.920516e+2, 1.5126686e+2, -1456762.6, -1475561.6, 6597.2017, 0.020390406, 0.005368741, -1454678.5, 2906.05, 0.0, 5.046281, 5.0331984 
9.917567e+2, 1.5628752e+2, -1399861.0, -1419393.0, 5551.957, 0.0043562087, -0.041822255, -1398393.3, 9989.463, 0.0, 5.0484247, 5.0348816 
9.9146e+2, 1.6131686e+2, -1354343.0, -1377325.4, 7801.309, -0.010990703, 0.007616239, -1351945.1, 7150.5444, 0.0, 5.048736, 5.0325336 
9.9116886e+2, 1.6634202e+2, -1305195.9, -1328746.4, 10269.869, 0.0069496995, 0.03053329, -1301346.6, 8502.235, 0.0, 5.049134, 5.032448 
9.9087805e+2, 1.7135999e+2, -1255315.4, -1281917.6, 12888.891, 0.00045401196, -0.0212617, -1250095.1, 10577.321, 0.0, 5.050359, 5.0313 
9.905875e+2, 1.7637981e+2, -1208922.0, -1240090.8, 14528.748, -0.016945897, -0.02876397, -1203200.1, 8277.644, 0.0, 5.050986, 5.0287466 
9.9030215e+2, 1.8140206e+2, -1161062.6, -1192636.3, 16863.545, 0.004443758, 0.009150517, -1153749.5, 8510.144, 0.0, 5.051169, 5.028307 
9.9001604e+2, 1.8642208e+2, -1108802.8, -1138215.9, 16547.74, 0.017610984, 0.009184245, -1101370.9, 11693.078, 0.0, 5.051693, 5.0302057 
9.897258e+2, 1.9144034e+2, -1061748.9, -1092178.9, 19215.898, -0.01113099, -0.013471037, -1052453.8, 11431.601, 0.0, 5.0517993, 5.029319 
9.8943835e+2, 1.9645911e+2, -1014747.5, -1047737.6, 19790.863, -0.018633928, -0.01220294, -1005478.9, 9222.277, 0.0, 5.0521007, 5.0278277 
9.891543e+2, 2.0147832e+2, -964857.3, -997695.7, 20975.172, 0.0091972705, -0.000044355125, -954639.1, 10873.79, 0.0, 5.052579, 5.0281863 
9.888667e+2, 2.0649697e+2, -915573.1, -948012.94, 20809.955, 0.012546631, -0.00008275056, -905408.56, 10921.7295, 0.0, 5.052784, 5.0285807 
9.885748e+2, 2.1151493e+2, -867431.7, -899543.94, 21809.645, -0.011577337, -0.0067344173, -856405.3, 10748.846, 0.0, 5.0527434, 5.02866 
9.882839e+2, 2.1653305e+2, -819423.5, -852385.06, 21525.32, -0.011905121, -0.007523867, -808794.25, 9182.472, 0.0, 5.0529103, 5.028183 
9.8799235e+2, 2.2155146e+2, -769712.25, -802327.25, 21402.986, 0.006300788, -0.005165093, -759112.06, 9684.179, 0.0, 5.0531893, 5.028723 
9.8769647e+2, 2.2656998e+2, -721320.7, -754421.0, 21292.662, 0.005645688, -0.0020944476, -710902.6, 8711.708, 0.0, 5.0533633, 5.028514 
9.873958e+2, 2.3158796e+2, -671938.44, -705402.8, 20173.998, -0.0070794346, -0.0025519528, -662460.75, 7977.2554, 0.0, 5.0536404, 5.0287237 
9.870929e+2, 2.3660529e+2, -624205.44, -658473.06, 19651.846, -0.006271758, -0.006310158, -615267.0, 6001.7764, 0.0, 5.05371, 5.028215 
9.86786e+2, 2.4162257e+2, -574219.5, -608579.75, 17710.322, 0.0018697105, -0.008049257, -566725.5, 5373.7593, 0.0, 5.053996, 5.028786 
9.8647416e+2, 2.466404e+2, -526048.9, -561966.0, 17381.668, 0.0016545546, -0.0033797151, -519014.8, 3908.8596, 0.0, 5.054327, 5.0280657 
9.861564e+2, 2.516572e+2, -476160.22, -513979.13, 14836.067, -0.0025439064, -0.0016620439, -471034.78, 2724.3127, 0.0, 5.0549245, 5.027855 
9.8583454e+2, 2.5667223e+2, -428151.28, -468281.56, 13853.425, 0.00049369474, -0.007391985, -423833.5, 778.9586, 0.0, 5.055374, 5.0267363 
9.8550653e+2, 2.6168722e+2, -377404.5, -420693.53, 11024.255, 0.0018123728, -0.0042766654, -374758.72, 707.3265, 0.0, 5.0563717, 5.0262346 
9.851722e+2, 2.6670197e+2, -328688.5, -375940.34, 9273.828, -0.0041060043, 0.00848912, -326933.56, -612.6268, 0.0, 5.0572696, 5.0245876 
9.848325e+2, 2.717135e+2, -278175.97, -331081.97, 7225.8916, -0.0056387316, 0.0060514817, -277206.78, 0.6393491, 0.0, 5.058695, 5.022909 
9.844871e+2, 2.7672118e+2, -227865.02, -286217.8, 5447.1694, 0.00031560942, -0.012634305, -227360.89, 770.84344, 0.0, 5.060244, 5.021059 
9.8413557e+2, 2.817276e+2, -179139.73, -246263.75, 3717.482, 0.0010726188, -0.015136673, -178934.48, 134.39583, 0.0, 5.0619054, 5.01743 
9.837775e+2, 2.8673267e+2, -130867.94, -203601.53, 625.32117, 0.004274387, 0.004133578, -130862.555, -842.8613, 0.0, 5.062912, 5.014981 
9.834137e+2, 2.9173398e+2, -85705.14, -161669.38, -1665.8206, 0.010799627, 0.00648556, -85668.63, -4661.277, 0.0, 5.0626593, 5.012775 
9.830406e+2, 2.9673237e+2, -49021.93, -121935.43, -5136.958, -0.007297432, 0.0026109265, -48661.797, -16638.32, 0.0, 5.058917, 5.0113025 
9.8266894e+2, 3.017294e+2, -11133.776, -72144.26, -4329.38, 0.013286716, -0.002060251, -10828.09, -10828.09, 0.0, 5.053913, 5.014008 
9.822971e+2, 3.0673382e+2, 23020.506, -18042.574, 1042.7355, 0.005319632, 0.019145997, 23046.967, 23046.967, 0.0, 5.046591, 5.0189867 
9.976804e+2, 1.4150652e+2, -1555422.4, -1555288.3, -819.0605, 0.02077097, -0.0132792285, -1554533.5, -1297.3986, 0.0, 5.041536, 5.041238 
9.973775e+2, 1.4654082e+2, -1501365.8, -1513239.6, 552.06494, -0.032251537, 0.023282904, -1501340.1, 2560.2727, 0.0, 5.0453134, 5.0374165 
9.970895e+2, 1.515674e+2, -1453390.3, -1470956.1, 5030.3228, 0.021725489, 0.024630131, -1452051.6, 2588.19, 0.0, 5.046719, 5.0346 
9.9679744e+2, 1.5658866e+2, -1403348.8, -1417766.6, 4405.156, 0.026036248, -0.03406201, -1402109.4, 3322.427, 0.0, 5.0464573, 5.036423 
9.96499e+2, 1.6162147e+2, -1356289.4, -1376408.6, 6517.3853, -0.017767781, 0.033889387, -1354362.8, 1747.6417, 0.0, 5.047574, 5.0334616 
9.9620825e+2, 1.6664712e+2, -1304734.6, -1328411.3, 9052.236, -0.007921471, 0.055828195, -1301670.3, 5188.3687, 0.0, 5.0492177, 5.032556 
9.959218e+2, 1.7166315e+2, -1254957.1, -1281038.4, 10450.606, 0.017868508, -0.015490015, -1251286.3, 6415.3145, 0.0, 5.050265, 5.0316863 
9.9563193e+2, 1.7668505e+2, -1207087.8, -1235116.8, 11457.977, 0.0025422869, -0.018538158, -1203000.0, 5486.955, 0.0, 5.0506535, 5.0306845 
9.953438e+2, 1.8171121e+2, -1160728.5, -1189327.5, 14967.988, -0.004418046, 0.036852185, -1154327.4, 4903.035, 0.0, 5.050531, 5.0298114 
9.950583e+2, 1.8673176e+2, -1109466.8, -1137058.1, 14950.494, 0.008684111, 0.031058684, -1102919.4, 7109.932, 0.0, 5.051084, 5.030947 
9.947709e+2, 1.9174951e+2, -1059789.3, -1088688.5, 16160.375, 0.0023406113, -0.005997466, -1052560.5, 8294.778, 0.0, 5.0518503, 5.0305758 
9.944836e+2, 1.9677056e+2, -1012191.6, -1043303.8, 16868.922, -0.0058267824, 0.0009344637, -1004800.94, 6847.9126, 0.0, 5.0522203, 5.029384 
9.941983e+2, 2.0179239e+2, -963486.2, -993367.94, 18597.902, 0.0071501173, 0.02030221, -954571.0, 7864.057, 0.0, 5.05219, 5.0299487 
9.9391097e+2, 2.0681238e+2, -914390.4, -943783.06, 18054.344, 0.012623413, 0.015093901, -905807.06, 7432.103, 0.0, 5.0523314, 5.030346 
9.9362004e+2, 2.1183203e+2, -865372.2, -894408.1, 18963.785, -0.002539898, 0.0031929817, -856007.2, 8039.5283, 0.0, 5.0524936, 5.030657 
9.9332905e+2, 2.1685281e+2, -816824.1, -846465.25, 19030.541, -0.0047382987, 0.0060194936, -807523.94, 7319.0786, 0.0, 5.05275, 5.030416 
9.930371e+2, 2.2187383e+2, -767164.9, -796257.6, 18947.188, 0.008355533, 0.010035367, -757824.1, 7812.752, 0.0, 5.052984, 5.0310316 
9.927411e+2, 2.2689441e+2, -719107.06, -747979.4, 18540.25, 0.007959169, 0.007549213, -710045.5, 6389.6577, 0.0, 5.0529394, 5.031064 
9.9244064e+2, 2.31915e+2, -669856.4, -698791.75, 17676.752, -0.0032045308, 0.0049425415, -661481.5, 5751.6704, 0.0, 5.053131, 5.03138 
9.921377e+2, 2.3693557e+2, -621076.5, -650562.56, 17639.38, -0.002242375, 0.004331892, -612830.3, 5201.331, 0.0, 5.05343, 5.031239 
9.918307e+2, 2.4195601e+2, -571323.1, -601561.5, 15797.658, 0.0049810545, 0.003940778, -564575.5, 4255.862, 0.0, 5.053795, 5.0314674 
9.915188e+2, 2.4697627e+2, -523202.56, -554078.4, 15388.08, 0.0040900926, 0.003320359, -516843.16, 2789.2197, 0.0, 5.0539594, 5.0311303 
9.912011e+2, 2.5199616e+2, -473958.28, -507024.84, 13174.534, -0.001145777, 0.0058622193, -469351.16, 1086.1787, 0.0, 5.05446, 5.0306315 
9.908794e+2, 2.5701398e+2, -425706.72, -460836.7, 12909.529, 0.0015495695, -0.0023276494, -421472.97, -209.18222, 0.0, 5.054935, 5.029683 
9.905519e+2, 2.6203212e+2, -375573.94, -414126.66, 10998.022, 0.0027453764, 0.0032100915, -372657.2, -570.5206, 0.0, 5.055864, 5.028885 
9.902178e+2, 2.6705047e+2, -326433.78, -368512.44, 9149.496, -0.0065425453, 0.022412715, -324530.4, -1623.5957, 0.0, 5.0567894, 5.027559 
9.8987883e+2, 2.720645e+2, -275682.7, -322916.97, 7443.223, -0.011452408, 0.017284974, -274537.56, -768.9946, 0.0, 5.0582356, 5.0261197 
9.89535e+2, 2.7707347e+2, -226805.77, -279943.9, 5359.1196, -0.0017121525, -0.02050133, -226270.67, -1591.0917, 0.0, 5.059479, 5.02372 
9.8918456e+2, 2.820822e+2, -177568.67, -239703.44, 3568.5918, -0.00062916445, -0.030760327, -177364.39, -1770.9143, 0.0, 5.0613713, 5.0200706 
9.888277e+2, 2.8709403e+2, -128257.12, -197038.61, 1065.8372, 0.0063564153, 0.031052496, -128240.61, -1762.4141, 0.0, 5.062918, 5.017366 
9.884646e+2, 2.9209998e+2, -83081.3, -156038.0, -4382.187, 0.026253005, 0.058146726, -82819.02, -5398.6235, 0.0, 5.062893, 5.0146832 
9.880884e+2, 2.97099e+2, -47347.97, -119704.12, -8551.74, 0.016599018, 0.041545656, -46350.98, -17921.04, 0.0, 5.059273, 5.0119762 
9.8770714e+2, 3.020918e+2, -9537.646, -70855.695, -6915.1743, -0.010549606, -0.011205679, -8767.458, -8767.458, 0.0, 5.054402, 5.014312 
9.873189e+2, 3.070817e+2, 24018.8, -14595.2, -4596.064, -0.106323846, -0.13991793, 24558.314, 24558.314, 0.0, 5.0460854, 5.0206695 
1.0027122e+3, 1.4180449e+2, -1550869.9, -1547798.0, -1732.5974, 0.01193798, 0.0197495, -1547018.6, 3298.4954, 0.0, 5.041655, 5.0438986 
1.0024128e+3, 1.4683165e+2, -1500524.8, -1512662.8, 1031.8367, -0.046946853, -0.019106314, -1500437.6, 612.34534, 0.0, 5.045619, 5.0374365 
1.0021264e+3, 1.5186207e+2, -1451899.4, -1468832.0, 2947.0789, 0.0056187967, 0.013034355, -1451401.0, 351.45026, 0.0, 5.04685, 5.03531 
1.001838e+3, 1.5688224e+2, -1400248.9, -1415354.1, 1785.2235, 0.04769288, -0.06332669, -1400040.8, 2513.7976, 0.0, 5.047186, 5.037006 
1.00153774e+3, 1.619164e+2, -1350792.3, -1371866.0, 3514.0774, -0.02700095, 0.008017949, -1350221.8, 2997.9211, 0.0, 5.048904, 5.0345097 
1.0012466e+3, 1.6694409e+2, -1302966.6, -1328870.0, 6519.447, -0.036796875, 0.04129889, -1301418.4, 2529.958, 0.0, 5.0499387, 5.0321703 
1.0009649e+3, 1.7195873e+2, -1255427.3, -1283708.6, 7668.3228, 0.025319077, -0.0379334, -1253481.9, 1323.1399, 0.0, 5.050423, 5.0308156 
1.00067645e+3, 1.7698064e+2, -1203256.0, -1230761.4, 6531.5884, 0.018854592, -0.04720569, -1201783.8, 3806.5217, 0.0, 5.0511594, 5.0321274 
1.00038506e+3, 1.820104e+2, -1155906.1, -1185210.5, 8532.808, -0.020325603, 0.022586457, -1153602.6, 2696.2656, 0.0, 5.0514703, 5.031008 
1.0000993e+3, 1.8703203e+2, -1106898.9, -1137688.5, 9067.278, -0.012285169, 0.021495685, -1104427.0, 2659.536, 0.0, 5.0519576, 5.030564 
9.9981546e+2, 1.920483e+2, -1057339.4, -1088722.5, 10232.913, 0.008829744, -0.030730318, -1054297.6, 3629.5332, 0.0, 5.0524855, 5.030558 
9.9952894e+2, 1.970709e+2, -1008056.4, -1039506.0, 9914.927, 0.0044671004, -0.021826813, -1005191.56, 3514.0935, 0.0, 5.05276, 5.030794 
9.992411e+2, 2.0209625e+2, -959984.6, -990989.2, 11194.665, -0.0073553654, 0.01372391, -956365.1, 3092.0, 0.0, 5.052708, 5.0308933 
9.989537e+2, 2.0711727e+2, -910140.44, -940126.06, 10557.421, -0.0028668821, 0.002281691, -906796.3, 3455.0227, 0.0, 5.0529156, 5.0317144 
9.98665e+2, 2.1213832e+2, -860784.7, -890163.0, 11062.636, 0.0018831259, -0.013101945, -857084.9, 3960.1472, 0.0, 5.0530925, 5.0322266 
9.9837404e+2, 2.1716231e+2, -812355.5, -842076.2, 10933.411, -0.0001925455, -0.0025721125, -808766.75, 3043.0073, 0.0, 5.053245, 5.0320816 
9.980806e+2, 2.2218625e+2, -762503.44, -791420.3, 10605.887, -0.0033630864, 0.0063362503, -759030.56, 3544.681, 0.0, 5.0534596, 5.0328784 
9.977845e+2, 2.2720842e+2, -714312.4, -742761.56, 10216.311, -0.0023984134, -0.007389672, -711023.75, 2334.693, 0.0, 5.0534167, 5.03305 
9.974854e+2, 2.3223211e+2, -664260.25, -691711.3, 9637.254, 0.0005842507, -0.008029173, -661214.75, 2911.0503, 0.0, 5.053601, 5.03405 
9.9718255e+2, 2.3725766e+2, -615135.7, -642445.25, 10313.062, 0.0012998969, 0.0033290498, -611678.75, 3194.8594, 0.0, 5.0539007, 5.0342646 
9.968749e+2, 2.422817e+2, -566014.94, -595219.4, 8389.568, 0.0006368714, 0.007421719, -563776.44, 1862.2145, 0.0, 5.0543814, 5.0337887 
9.9656284e+2, 2.4730425e+2, -517788.88, -547254.2, 8735.003, -0.0014419117, -0.0028368055, -515394.03, 1027.0311, 0.0, 5.05457, 5.0335894 
9.9624544e+2, 2.523273e+2, -467143.97, -496654.3, 7037.6484, -0.0048441724, -0.004269116, -465551.56, 1643.4263, 0.0, 5.055011, 5.034426 
9.959237e+2, 2.5735277e+2, -418610.72, -450370.84, 7611.4883, -0.0051059327, 0.020230139, -416880.8, 1060.773, 0.0, 5.055643, 5.033441 
9.9559754e+2, 2.6237178e+2, -368698.75, -404497.63, 7108.143, 0.002697135, -0.006229949, -367339.0, 1415.6411, 0.0, 5.056731, 5.0322394 
9.952667e+2, 2.6738665e+2, -319010.25, -358135.7, 6081.304, 0.018113332, -0.057747174, -318086.8, 1523.0854, 0.0, 5.057849, 5.0311 
9.949289e+2, 2.7240822e+2, -269958.78, -314760.28, 5440.509, 0.016717838, -0.023383545, -269307.6, 1092.6367, 0.0, 5.0590754, 5.0289097 
9.9458367e+2, 2.7743253e+2, -221179.52, -268625.94, 4077.4314, 0.0072923372, 0.058708478, -220831.66, 331.59323, 0.0, 5.05979, 5.0278254 
9.9423385e+2, 2.8244495e+2, -169748.97, -225323.06, 4451.5376, -0.0029826895, 0.043097023, -169394.66, 2647.4514, 0.0, 5.0621634, 5.0250716 
9.938772e+2, 2.8744578e+2, -114737.84, -179478.61, 5392.701, -0.014496842, -0.055959333, -114291.72, 8742.321, 0.0, 5.065979, 5.0225677 
9.9350995e+2, 2.9245102e+2, -68637.414, -141073.56, -1766.0514, -0.031771243, -0.07371607, -68594.38, 5387.636, 0.0, 5.066948, 5.018552 
9.9312776e+2, 2.974563e+2, -37648.547, -106834.195, -6024.8, -0.04374328, -0.054273054, -37127.816, -12198.741, 0.0, 5.061325, 5.015907 
9.927512e+2, 3.024645e+2, -11481.871, -71513.01, -5336.7705, 0.0389128, 0.037880305, -11011.124, -11011.124, 0.0, 5.0540104, 5.014192 
9.92367e+2, 3.0747473e+2, 1915.1328, -25785.607, -10458.686, 0.09862473, 0.12739794, 5420.363, 5420.363, 0.0, 5.0384965, 5.019691 
1.0077459e+3, 1.4209604e+2, -1543135.6, -1543810.3, 1734.7438, 0.014310003, -0.0016200717, -1541705.6, 5753.7046, 0.0, 5.044216, 5.0439863 
1.0074496e+3, 1.4712545e+2, -1499874.5, -1513001.6, 1749.0372, -0.0422818, -0.0056499373, -1499645.4, -1474.3729, 0.0, 5.0460143, 5.0370874 
1.00716636e+3, 1.5215732e+2, -1449581.5, -1463438.0, -1159.1073, 0.031880375, 0.028741604, -1449485.3, -625.9187, 0.0, 5.046499, 5.0374136 
1.0068745e+3, 1.5717979e+2, -1401541.1, -1417285.5, 1980.633, 0.034852847, -0.04153901, -1401295.9, -1657.3208, 0.0, 5.046896, 5.036512 
1.0065766e+3, 1.6221233e+2, -1351159.4, -1377176.1, 2986.6086, -0.04043123, 0.028032904, -1350821.0, -501.44803, 0.0, 5.049742, 5.0323176 
1.00629024e+3, 1.6723797e+2, -1296911.9, -1324486.0, 538.39453, -0.015318629, 0.04225635, -1296901.4, 4167.2305, 0.0, 5.0514026, 5.0331144 
1.00600675e+3, 1.722544e+2, -1252947.9, -1280611.1, 3317.1746, 0.032485, -0.037435036, -1252555.6, -648.09424, 0.0, 5.0505257, 5.0319896 
1.0057164e+3, 1.772785e+2, -1204954.9, -1234334.5, 4656.458, 0.00040732324, -0.026400844, -1204234.5, -1563.118, 0.0, 5.050845, 5.031161 
1.0054285e+3, 1.823071e+2, -1154526.1, -1187209.8, 3872.875, -0.013629457, 0.039324455, -1154073.5, -682.4754, 0.0, 5.052123, 5.030169 
1.0051447e+3, 1.8732777e+2, -1102851.8, -1134833.9, 3231.4675, 0.008645528, 0.019694688, -1102528.5, 1659.7908, 0.0, 5.0527234, 5.0313964 
1.0048581e+3, 1.9234589e+2, -1055519.4, -1087554.1, 5084.048, -0.0009925718, -0.027231287, -1054731.9, 278.85965, 0.0, 5.052582, 5.031126 
1.00457095e+3, 1.973704e+2, -1006488.7, -1038282.94, 4459.2173, -0.011696526, -0.010792672, -1005875.1, -104.123344, 0.0, 5.05272, 5.031464 
1.00428656e+3, 2.0239665e+2, -957056.4, -987618.9, 4537.5103, 0.010392844, 0.020821005, -956396.94, 116.70498, 0.0, 5.0527873, 5.032294 
1.0039988e+3, 2.0741974e+2, -907796.1, -937979.94, 4587.0093, 0.009204009, 0.0119501585, -907114.44, 172.84312, 0.0, 5.0529666, 5.032714 
1.00370795e+3, 2.1244152e+2, -857893.06, -886631.75, 4994.0503, -0.010467965, -0.015751021, -857050.0, 1023.866, 0.0, 5.053071, 5.033775 
1.00341745e+3, 2.1746777e+2, -809571.3, -837619.1, 4859.423, -0.0067701754, -0.005713315, -808753.25, 63.0652, 0.0, 5.0529594, 5.034102 
1.00312606e+3, 2.2249469e+2, -759639.56, -785353.0, 4630.153, 0.009834207, 0.005581684, -758831.25, 720.837, 0.0, 5.0528593, 5.0356345 
1.0028292e+3, 2.275224e+2, -711174.44, -736819.6, 5171.0425, 0.0050664824, 0.01398886, -710171.0, 109.29274, 0.0, 5.0529656, 5.035709 
1.002529e+3, 2.3254713e+2, -660704.75, -685180.9, 4603.3345, -0.0048801186, -0.0074068643, -659867.6, 1171.1226, 0.0, 5.053237, 5.0368857 
1.00222625e+3, 2.3757428e+2, -613174.56, -638305.6, 3873.0496, -0.0019572012, -0.008724195, -612591.2, -817.48615, 0.0, 5.053283, 5.036374 
1.0019192e+3, 2.426029e+2, -562015.44, -585583.94, 2925.5608, 0.0020092826, 0.0007814848, -561657.7, 833.8577, 0.0, 5.053591, 5.03798 
1.001607e+3, 2.4763201e+2, -513699.88, -538697.75, 5643.171, -0.0026402266, 0.014762752, -512485.0, 719.2655, 0.0, 5.0540566, 5.037264 
1.0012904e+3, 2.52657e+2, -463871.1, -490481.9, 3900.722, 0.002227027, -0.004618575, -463311.1, 649.8103, 0.0, 5.054664, 5.037146 
1.00096956e+3, 2.5767943e+2, -415716.75, -443007.97, 2134.8162, 0.0095582735, -0.043468975, -415550.78, -808.8511, 0.0, 5.0548944, 5.0367837 
1.0006423e+3, 2.627129e+2, -366363.63, -397107.72, 1705.6968, -0.0006952018, 0.03272724, -366269.28, -855.4841, 0.0, 5.0558057, 5.0356297 
1.00030944e+3, 2.6773944e+2, -315269.38, -347997.66, 2500.646, -0.011842791, 0.05475056, -315079.4, 1074.7607, 0.0, 5.0570784, 5.0354085 
9.9997324e+2, 2.7275455e+2, -266550.97, -305384.88, 2675.6614, -0.0056897583, -0.022106418, -266367.5, 637.477, 0.0, 5.0583634, 5.032882 
9.9962896e+2, 2.777717e+2, -215732.58, -257159.16, 4670.9214, -0.011279865, -0.055250738, -215212.45, 2624.381, 0.0, 5.059602, 5.03237 
9.992843e+2, 2.8280044e+2, -171366.3, -215762.98, 5466.8335, 0.013225077, 0.044573583, -170703.03, -2147.4768, 0.0, 5.0591664, 5.0300903 
9.9892986e+2, 2.8781062e+2, -124161.54, -169598.95, 4123.269, -0.0051271105, -0.025350057, -123790.41, -4334.249, 0.0, 5.0592833, 5.0293136 
9.9856913e+2, 2.9283443e+2, -67420.21, -121025.12, 7456.28, 0.04762758, 0.057788014, -66402.39, 3818.8174, 0.0, 5.0632586, 5.027778 
9.9817216e+2, 2.9784092e+2, -29906.047, -90542.32, 14515.228, -0.058847863, 0.031779718, -26610.479, -5453.4697, 0.0, 5.061603, 5.0219493 
9.977901e+2, 3.0283314e+2, 310.40543, -68140.56, -8061.7285, 0.052811895, -0.04975521, 1247.0492, 1247.0492, 0.0, 5.0587115, 5.013556 
9.9737275e+2, 3.0783573e+2, 9926.796, -206.64063, 3783.647, -0.05150593, -0.023441488, 11183.653, 11183.653, 0.0, 5.0368395, 5.0302596 
