coord_x,coord_y,stress_xx,stress_yy,tau_xy,velocity_x,velocity_y,stress_1,damage
1.2207031e-2, 1.1746209e-2, -0.00009486666, -39992.125, -0.016782362, 0.0, -0.00000027576823, -0.00009485961, 0.0 
1.2207031e-2, 3.5238627e-2, -0.00085367373, -39992.574, -0.050347112, 0.0, -0.0000008273051, -0.00085361034, 0.0 
1.2207031e-2, 5.873148e-2, -0.002075231, -39953.188, -0.08248504, 0.0, -0.00000036355775, -0.0020750605, 0.0 
1.2207031e-2, 8.222475e-2, -0.0034407503, -39953.277, -0.115318365, 0.0, -0.0000015147962, -0.0034404173, 0.0 
1.2207031e-2, 1.05718456e-1, -0.0048819743, -39914.004, -0.14617224, 0.0, -0.0000010516812, -0.0048814393, 0.0 
1.2207031e-2, 1.2921257e-1, -0.006062351, -39914.227, -0.17778777, 0.0, -0.000001724238, -0.006061559, 0.0 
1.2207031e-2, 1.5270713e-1, -0.0072801705, -39874.844, -0.2079421, 0.0, -0.000001422066, -0.007279086, 0.0 
1.2207031e-2, 1.762021e-1, -0.008189556, -39875.164, -0.23848437, 0.0, -0.0000022109957, -0.008188129, 0.0 
1.2207031e-2, 1.9969752e-1, -0.009258863, -39835.684, -0.26809847, 0.0, -0.0000015263531, -0.009257059, 0.0 
1.2207031e-2, 2.2319335e-1, -0.010116759, -39836.1, -0.29790387, 0.0, -0.0000021256906, -0.010114531, 0.0 
1.2207031e-2, 2.466896e-1, -0.011197453, -39796.527, -0.3268426, 0.0, -0.0000016545996, -0.011194769, 0.0 
1.2207031e-2, 2.7018628e-1, -0.012063889, -39797.035, -0.35522, 0.0, -0.0000020490884, -0.012060719, 0.0 
1.2207031e-2, 2.936834e-1, -0.013149584, -39757.38, -0.38308358, 0.0, -0.000001324757, -0.013145892, 0.0 
1.2207031e-2, 3.1718093e-1, -0.013979791, -39757.97, -0.41033325, 0.0, -0.0000015142003, -0.013975556, 0.0 
1.2207031e-2, 3.406789e-1, -0.015021885, -39718.223, -0.4369836, 0.0, -0.00000077260245, -0.015017077, 0.0 
1.2207031e-2, 3.641773e-1, -0.015757307, -39718.914, -0.46171778, 0.0, -0.00000051997097, -0.01575194, 0.0 
1.2207031e-2, 3.876761e-1, -0.0166422, -39679.05, -0.486838, 0.0, 0.0000001142211, -0.016636226, 0.0 
1.2207031e-2, 4.111753e-1, -0.01710771, -39679.855, -0.5133404, 0.0, 0.0000006922638, -0.017101068, 0.0 
1.2207031e-2, 4.3467498e-1, -0.017617222, -39639.9, -0.5388026, 0.0, 0.0000016647436, -0.017609898, 0.0 
1.2207031e-2, 4.5817506e-1, -0.017644348, -39640.824, -0.5546891, 0.0, 0.000002007761, -0.017636584, 0.0 
1.2207031e-2, 4.816756e-1, -0.017681347, -39600.703, -0.5737198, 0.0, 0.0000032769904, -0.017673034, 0.0 
1.2207031e-2, 5.0517654e-1, -0.017370539, -39601.74, -0.6138109, 0.0, 0.0000040536897, -0.017361024, 0.0 
1.2207031e-2, 5.286779e-1, -0.017120356, -39561.58, -0.64864606, 0.0, 0.0000055232763, -0.017109722, 0.0 
1.2207031e-2, 5.521797e-1, -0.016701061, -39562.727, -0.6221701, 0.0, 0.000005606101, -0.016691277, 0.0 
1.2207031e-2, 5.756819e-1, -0.016350947, -39522.387, -0.74290115, 0.0, 0.000007254962, -0.016336983, 0.0 
1.2207031e-2, 5.991846e-1, -0.015887607, -39523.56, -0.7510476, 0.0, 0.000007918562, -0.015873335, 0.0 
1.2207031e-2, 6.2268764e-1, -0.015379701, -39483.285, -0.8490732, 0.0, 0.000010066504, -0.015361441, 0.0 
1.2207031e-2, 6.461911e-1, -0.014726452, -39484.7, -0.6267207, 0.0, 0.000009426729, -0.014716504, 0.0 
1.2207031e-2, 6.696951e-1, -0.013929428, -39443.992, -0.4531736, 0.0, 0.000011645842, -0.0139242215, 0.0 
1.2207031e-2, 6.931994e-1, -0.013071351, -39445.07, -0.91794705, 0.0, 0.000011981784, -0.013049988, 0.0 
1.2207031e-2, 7.167042e-1, -0.012084189, -39404.582, -1.8417988, 0.0, 0.000014682789, -0.011998102, 0.0 
1.2207031e-2, 7.402094e-1, -0.011156639, -39406.33, -1.883777, 0.0, 0.000013245205, -0.011066587, 0.0 
1.2207031e-2, 7.63715e-1, -0.010144136, -39366.242, -1.3685629, 0.0, 0.000016183934, -0.010096558, 0.0 
1.2207031e-2, 7.872211e-1, -0.00929405, -39367.355, -0.8246866, 0.0, 0.000015453415, -0.009276774, 0.0 
1.2207031e-2, 8.107276e-1, -0.008416427, -39326.605, -0.78950584, 0.0, 0.000018453034, -0.008400578, 0.0 
1.2207031e-2, 8.342345e-1, -0.007728456, -39328.004, -0.8669228, 0.0, 0.000017127268, -0.0077093462, 0.0 
1.2207031e-2, 8.5774183e-1, -0.0069924784, -39287.664, -0.84448737, 0.0, 0.000020201169, -0.0069743264, 0.0 
1.2207031e-2, 8.812496e-1, -0.006470798, -39288.85, -0.844346, 0.0, 0.000019434245, -0.0064526526, 0.0 
1.2207031e-2, 9.047578e-1, -0.005927522, -39248.566, -0.84851694, 0.0, 0.000022345988, -0.0059091784, 0.0 
1.2207031e-2, 9.282664e-1, -0.0056474763, -39249.72, -0.8449786, 0.0, 0.000021772707, -0.0056292857, 0.0 
1.2207031e-2, 9.5177543e-1, -0.005351988, -39209.496, -0.8385297, 0.0, 0.000024757806, -0.0053340555, 0.0 
1.2207031e-2, 9.7528493e-1, -0.0053154733, -39210.55, -0.83241254, 0.0, 0.000024611938, -0.005297802, 0.0 
1.2207031e-2, 9.987948e-1, -0.005260206, -39170.457, -0.8211336, 0.0, 0.000027329666, -0.005242992, 0.0 
1.2207031e-2, 1.0223051e+0, -0.0054354793, -39171.363, -0.806504, 0.0, 0.000027735992, -0.0054188743, 0.0 
1.2207031e-2, 1.04581594e+0, -0.0056046443, -39131.42, -0.80538756, 0.0, 0.00003065127, -0.005588068, 0.0 
1.2207031e-2, 1.06932715e+0, -0.0060161944, -39132.176, -0.7789134, 0.0, 0.000031641353, -0.00600069, 0.0 
1.2207031e-2, 1.09283864e+0, -0.0064347275, -39092.367, -0.7413462, 0.0, 0.00003400289, -0.0064206687, 0.0 
1.2207031e-2, 1.1163507e+0, -0.0070596593, -39093.016, -0.7118769, 0.0, 0.000035608085, -0.0070466963, 0.0 
1.2207031e-2, 1.1398631e+0, -0.0076651983, -39053.3, -0.683813, 0.0, 0.000038772003, -0.0076532247, 0.0 
1.2207031e-2, 1.1633761e+0, -0.0084183635, -39053.848, -0.6610423, 0.0, 0.00004137552, -0.008407175, 0.0 
1.2207031e-2, 1.18688926e+0, -0.00911702, -39014.258, -0.59826946, 0.0, 0.000043066644, -0.009107847, 0.0 
1.2207031e-2, 1.2104031e+0, -0.009877552, -39014.695, -0.524029, 0.0, 0.000045302495, -0.009870513, 0.0 
1.2207031e-2, 1.23391725e+0, -0.010566529, -38975.363, -0.5661982, 0.0, 0.00005031193, -0.010558303, 0.0 
1.2207031e-2, 1.2574318e+0, -0.011255902, -38975.863, -0.6201147, 0.0, 0.000053450334, -0.011246037, 0.0 
1.2207031e-2, 1.2809469e+0, -0.011912989, -38937.742, -0.3397555, 0.0, 0.000055200264, -0.011910025, 0.0 
1.2207031e-2, 1.3044623e+0, -0.012525459, -38937.805, -0.07232484, 0.0, 0.00005703366, -0.012525325, 0.0 
1.2207031e-2, 1.3279781e+0, -0.013102011, -38898.543, -0.11316832, 0.0, 0.00006430576, -0.013101682, 0.0 
1.2207031e-2, 1.3514943e+0, -0.013570779, -38899.03, -3.2117252, 0.0, 0.00006677178, -0.013305601, 0.0 
1.2207031e-2, 1.375011e+0, -0.013988118, -38859.81, 1.24904, 0.0, 0.00006877854, -0.013947971, 0.0 
1.2207031e-2, 1.3985282e+0, -0.014261212, -38859.285, -5.5105457, 0.0, 0.00007273442, -0.013479775, 0.0 
1.2207031e-2, 1.4220457e+0, -0.014469518, -38819.797, 0.6875225, 0.0, 0.00007765086, -0.014457342, 0.0 
1.2207031e-2, 1.4455637e+0, -0.014516836, -38819.996, -0.034441464, 0.0, 0.000078944715, -0.014516805, 0.0 
1.2207031e-2, 1.4690821e+0, -0.014603309, -38781.42, -0.066743806, 0.0, 0.0000850819, -0.014603194, 0.0 
1.2207031e-2, 1.4926009e+0, -0.014515303, -38781.047, 0.003120805, 0.0, 0.000085058586, -0.014515303, 0.0 
1.2207031e-2, 1.5161201e+0, -0.014488024, -38742.227, -0.010454453, 0.0, 0.000091996524, -0.014488021, 0.0 
1.2207031e-2, 1.53964e+0, -0.014266079, -38741.914, 0.047722377, 0.0, 0.000091479604, -0.014266021, 0.0 
1.2207031e-2, 1.56316e+0, -0.0140862325, -38703.18, 0.09279565, 0.0, 0.00009865867, -0.01408601, 0.0 
1.2207031e-2, 1.5866806e+0, -0.013711515, -38702.703, 0.12580884, 0.0, 0.000096415286, -0.013711106, 0.0 
1.2207031e-2, 1.6102014e+0, -0.013402112, -38664.145, 0.16951257, 0.0, 0.00010363074, -0.013401369, 0.0 
1.2207031e-2, 1.633723e+0, -0.012927177, -38663.465, 0.17245302, 0.0, 0.000103383885, -0.012926408, 0.0 
1.2207031e-2, 1.6572447e+0, -0.012521734, -38625.15, -0.06948256, 0.0, 0.000109935834, -0.01252161, 0.0 
1.2207031e-2, 1.680767e+0, -0.011983977, -38624.363, 0.19401811, 0.0, 0.0001052855, -0.011983003, 0.0 
1.2207031e-2, 1.7042896e+0, -0.011514007, -38585.97, 0.38308, 0.0, 0.00011184122, -0.011510204, 0.0 
1.2207031e-2, 1.7278127e+0, -0.010947344, -38584.92, 0.06956156, 0.0, 0.0001143645, -0.010947218, 0.0 
1.2207031e-2, 1.7513363e+0, -0.010456431, -38547.22, 0.056096062, 0.0, 0.0001185314, -0.01045635, 0.0 
1.2207031e-2, 1.7748603e+0, -0.009920196, -38546.22, 0.68904406, 0.0, 0.00011178316, -0.009907879, 0.0 
1.2207031e-2, 1.7983846e+0, -0.009488908, -38507.62, 0.7257488, 0.0, 0.000118472955, -0.009475229, 0.0 
1.2207031e-2, 1.8219094e+0, -0.009087775, -38506.457, -0.87711304, 0.0, 0.000121494224, -0.009067795, 0.0 
1.2207031e-2, 1.8454346e+0, -0.008789902, -38469.45, 0.30394447, 0.0, 0.00012277161, -0.008787501, 0.0 
1.2207031e-2, 1.8689604e+0, -0.0085494565, -38467.69, 1.0781974, 0.0, 0.00011857741, -0.008519237, 0.0 
1.2207031e-2, 1.8924865e+0, -0.008397294, -38428.832, -5.995468, 0.0, 0.00012458787, -0.007461912, 0.0 
1.2207031e-2, 1.916013e+0, -0.008263822, -38428.094, -1.3764666, 0.0, 0.0001230292, -0.0082145175, 0.0 
1.2207031e-2, 1.9395399e+0, -0.008204413, -38391.7, -0.70082664, 0.0, 0.00012471521, -0.008191619, 0.0 
1.2207031e-2, 1.9630674e+0, -0.008200374, -38389.61, 0.3727456, 0.0, 0.00012430531, -0.008196755, 0.0 
1.2207031e-2, 1.9865951e+0, -0.008219962, -38351.594, 0.43296975, 0.0, 0.0001266224, -0.0082150735, 0.0 
1.2207031e-2, 2.0101233e+0, -0.0083269775, -38350.188, 0.3829511, 0.0, 0.0001248587, -0.0083231535, 0.0 
1.2207031e-2, 2.033652e+0, -0.008449651, -38312.69, 0.44932467, 0.0, 0.00012728415, -0.008444381, 0.0 
1.2207031e-2, 2.0571811e+0, -0.008683958, -38311.03, 0.4334357, 0.0, 0.0001257551, -0.008679055, 0.0 
1.2207031e-2, 2.0807107e+0, -0.008905675, -38273.582, 0.44401014, 0.0, 0.000129533, -0.008900524, 0.0 
1.2207031e-2, 2.1042407e+0, -0.009201455, -38271.918, 0.47130924, 0.0, 0.00012635082, -0.009195651, 0.0 
1.2207031e-2, 2.127771e+0, -0.009459724, -38234.516, 0.48847792, 0.0, 0.00013011083, -0.009453483, 0.0 
1.2207031e-2, 2.1513017e+0, -0.009807506, -38232.68, 0.49372926, 0.0, 0.00012739263, -0.00980113, 0.0 
1.2207031e-2, 2.1748328e+0, -0.010117414, -38195.504, 0.4923104, 0.0, 0.00013316305, -0.010111068, 0.0 
1.2207031e-2, 2.1983644e+0, -0.010548727, -38193.543, 0.519112, 0.0, 0.00012857927, -0.010541672, 0.0 
1.2207031e-2, 2.2218966e+0, -0.0109565845, -38156.457, 0.5653779, 0.0, 0.00013363184, -0.010948207, 0.0 
1.2207031e-2, 2.2454293e+0, -0.011467633, -38154.355, 0.5387122, 0.0, 0.00013007189, -0.011460026, 0.0 
1.2207031e-2, 2.2689621e+0, -0.011870184, -38117.387, 0.5299669, 0.0, 0.00013726128, -0.011862815, 0.0 
1.2207031e-2, 2.2924955e+0, -0.0122826565, -38115.234, 0.57004136, 0.0, 0.00013131878, -0.012274131, 0.0 
1.2207031e-2, 2.3160294e+0, -0.012516223, -38078.395, 0.6539107, 0.0, 0.00013842089, -0.012504993, 0.0 
1.2207031e-2, 2.3395637e+0, -0.01271639, -38075.945, 0.6420686, 0.0, 0.0001339342, -0.012705563, 0.0 
1.2207031e-2, 2.3630981e+0, -0.012749597, -38039.418, 0.5737056, 0.0, 0.00014019295, -0.0127409445, 0.0 
1.2207031e-2, 2.3866332e+0, -0.012798051, -38036.754, 0.6216656, 0.0, 0.00013269002, -0.012787891, 0.0 
1.2207031e-2, 2.4101686e+0, -0.012766344, -38000.52, 0.70873547, 0.0, 0.00014386974, -0.012753125, 0.0 
1.2207031e-2, 2.4337046e+0, -0.012798691, -37997.36, 0.6449845, 0.0, 0.00013986717, -0.012787743, 0.0 
1.2207031e-2, 2.4572411e+0, -0.012785665, -37961.547, 0.6925758, 0.0, 0.00013903425, -0.0127730295, 0.0 
1.2207031e-2, 2.4807778e+0, -0.012773242, -37958.254, 0.8168857, 0.0, 0.00013059344, -0.012755662, 0.0 
1.2207031e-2, 2.5043148e+0, -0.01269305, -37922.285, 0.581807, 0.0, 0.00014870812, -0.012684124, 0.0 
1.2207031e-2, 2.5278527e+0, -0.012532372, -37919.152, 0.42860365, 0.0, 0.00014805238, -0.012527527, 0.0 
1.2207031e-2, 2.5513905e+0, -0.0123057235, -37884.63, 0.926689, 0.0, 0.00013433195, -0.012283056, 0.0 
1.2207031e-2, 2.5749293e+0, -0.01198293, -37880.434, 1.0703417, 0.0, 0.00012559586, -0.011952686, 0.0 
1.2207031e-2, 2.598468e+0, -0.011668361, -37845.47, 0.38675472, 0.0, 0.00015052126, -0.011664408, 0.0 
1.2207031e-2, 2.6220074e+0, -0.011312682, -37842.215, 0.40605673, 0.0, 0.00015237535, -0.011308325, 0.0 
1.2207031e-2, 2.645547e+0, -0.01102578, -37807.16, -0.21832721, 0.0, 0.00013067051, -0.011024519, 0.0 
1.2207031e-2, 2.6690874e+0, -0.010733089, -37802.2, 1.377855, 0.0, 0.00012361164, -0.010682868, 0.0 
1.2207031e-2, 2.692628e+0, -0.010551844, -37767.297, 0.3014631, 0.0, 0.00014632987, -0.010549437, 0.0 
1.2207031e-2, 2.716169e+0, -0.010391912, -37763.586, 0.09573556, 0.0, 0.00014565595, -0.010391669, 0.0 
1.2207031e-2, 2.7397105e+0, -0.010326266, -37729.113, 0.879, 0.0, 0.00012830803, -0.010305787, 0.0 
1.2207031e-2, 2.7632526e+0, -0.01021372, -37723.73, 0.7318841, 0.0, 0.00012983222, -0.010199521, 0.0 
1.2207031e-2, 2.7867946e+0, -0.010177003, -37689.754, 0.24549541, 0.0, 0.00013709799, -0.010175404, 0.0 
1.2207031e-2, 2.8103375e+0, -0.010059308, -37685.23, 0.7654484, 0.0, 0.00013090743, -0.010043761, 0.0 
1.2207031e-2, 2.8338808e+0, -0.010018369, -37650.15, 0.5694642, 0.0, 0.0001290723, -0.010009755, 0.0 
1.2207031e-2, 2.8574243e+0, -0.009893765, -37645.78, -0.20619488, 0.0, 0.00013268746, -0.009892635, 0.0 
1.2207031e-2, 2.8809685e+0, -0.009856643, -37612.082, 0.54746664, 0.0, 0.00012777449, -0.009848675, 0.0 
1.2207031e-2, 2.904513e+0, -0.009775482, -37606.02, 0.62005085, 0.0, 0.0001268432, -0.009765259, 0.0 
1.2207031e-2, 2.9280576e+0, -0.0098073315, -37572.816, -0.115957454, 0.0, 0.00013108549, -0.009806974, 0.0 
1.2207031e-2, 2.951603e+0, -0.009853671, -37569.125, 1.819093, 0.0, 0.00012352013, -0.009765591, 0.0 
1.2207031e-2, 2.9751486e+0, -0.010150614, -37532.918, -13.009801, 0.0, 0.00012770682, -0.0056411074, 0.0 
1.2207031e-2, 2.9986948e+0, -0.010232633, -37527.17, -1.2141726, 0.0, 0.00012884676, -0.010193349, 0.0 
1.2207031e-2, 3.0222416e+0, -0.010521013, -37494.125, -1.3655258, 0.0, 0.00013296747, -0.010471282, 0.0 
1.2207031e-2, 3.0457887e+0, -0.010750651, -37489.242, -0.096163504, 0.0, 0.00012131934, -0.010750405, 0.0 
1.2207031e-2, 3.069336e+0, -0.011004159, -37455.188, 0.12765695, 0.0, 0.00012553767, -0.011003724, 0.0 
1.2207031e-2, 3.092884e+0, -0.011160234, -37449.902, -0.007118658, 0.0, 0.00013495325, -0.011160232, 0.0 
1.2207031e-2, 3.1164324e+0, -0.011320131, -37416.285, -0.046470612, 0.0, 0.0001435704, -0.011320073, 0.0 
1.2207031e-2, 3.139981e+0, -0.0113967955, -37410.773, 0.07665238, 0.0, 0.000119005315, -0.011396639, 0.0 
1.2207031e-2, 3.1635302e+0, -0.011449474, -37377.18, 0.08525497, 0.0, 0.00012096357, -0.011449279, 0.0 
1.2207031e-2, 3.18708e+0, -0.0114512835, -37371.53, -0.19076042, 0.0, 0.00014554425, -0.011450309, 0.0 
1.2207031e-2, 3.2106298e+0, -0.011452699, -37338.3, -0.32703066, 0.0, 0.00016343323, -0.011449835, 0.0 
1.2207031e-2, 3.2341805e+0, -0.011456756, -37332.76, 0.06752724, 0.0, 0.000119615484, -0.011456634, 0.0 
1.2207031e-2, 3.2577312e+0, -0.011490665, -37299.28, 0.26983145, 0.0, 0.0001120679, -0.011488713, 0.0 
1.2207031e-2, 3.2812828e+0, -0.011560719, -37292.742, -0.39434195, 0.0, 0.00015792387, -0.011556549, 0.0 
1.2207031e-2, 3.3048344e+0, -0.011637795, -37260.637, -0.8825606, 0.0, 0.00018707183, -0.01161689, 0.0 
1.2207031e-2, 3.3283865e+0, -0.01172842, -37254.69, 0.1206508, 0.0, 0.00012602679, -0.01172803, 0.0 
1.2207031e-2, 3.3519393e+0, -0.011735485, -37221.26, 0.6565123, 0.0, 0.00010843226, -0.011723906, 0.0 
1.2207031e-2, 3.3754924e+0, -0.011759835, -37213.934, -0.6257032, 0.0, 0.00016891674, -0.011749315, 0.0 
1.2207031e-2, 3.3990458e+0, -0.011687622, -37182.805, -1.5590205, 0.0, 0.00019595104, -0.011622255, 0.0 
1.2207031e-2, 3.4225994e+0, -0.011644376, -37176.3, -0.032477096, 0.0, 0.00013763364, -0.0116443485, 0.0 
1.2207031e-2, 3.446154e+0, -0.011507208, -37143.273, 0.58392143, 0.0, 0.0001288556, -0.011498028, 0.0 
1.2207031e-2, 3.4697086e+0, -0.01144729, -37135.63, -0.695823, 0.0, 0.00017496185, -0.011434252, 0.0 
1.2207031e-2, 3.4932637e+0, -0.011363006, -37105.19, -0.74832827, 0.0, 0.00017855712, -0.011347914, 0.0 
1.2207031e-2, 3.5168195e+0, -0.011359581, -37096.94, 0.0659003, 0.0, 0.00015416708, -0.011359464, 0.0 
1.2207031e-2, 3.5403755e+0, -0.011303154, -37065.273, -0.69182795, 0.0, 0.0001642983, -0.01129024, 0.0 
1.2207031e-2, 3.563932e+0, -0.011299979, -37058.254, -0.7152395, 0.0, 0.00017300784, -0.011286175, 0.0 
1.2207031e-2, 3.5874888e+0, -0.011224901, -37027.11, 0.54285544, 0.0, 0.00016477611, -0.011216943, 0.0 
1.2207031e-2, 3.6110464e+0, -0.011192993, -37017.484, -0.37433264, 0.0, 0.00017692082, -0.011189207, 0.0 
1.2207031e-2, 3.634604e+0, -0.011109414, -36988.145, -1.2095584, 0.0, 0.00017036266, -0.011069859, 0.0 
1.2207031e-2, 3.658162e+0, -0.011098632, -36979.715, 0.10172787, 0.0, 0.00016381947, -0.011098351, 0.0 
1.2207031e-2, 3.6817208e+0, -0.011057211, -36947.715, -0.6800706, 0.0, 0.00018788052, -0.011044694, 0.0 
1.2207031e-2, 3.7052798e+0, -0.011101518, -36941.152, -1.2156633, 0.0, 0.00019416284, -0.011061513, 0.0 
1.2207031e-2, 3.7288392e+0, -0.011089601, -36912.332, 2.858456, 0.0, 0.00014994197, -0.010868245, 0.0 
1.2207031e-2, 3.752399e+0, -0.011486295, -36900.49, -22.987839, 0.0, 0.00016082804, 0.0028344016, 0.0 
1.2207031e-2, 3.7759596e+0, -0.011082091, -36868.168, -0.5870955, 0.0, 0.00020712178, -0.011072742, 0.0 
1.2207031e-2, 3.79952e+0, -0.011087174, -36861.465, -1.3720478, 0.0, 0.00020642848, -0.011036104, 0.0 
1.2207031e-2, 3.8230816e+0, -0.011072745, -36832.273, -0.17882179, 0.0, 0.00014789119, -0.011071877, 0.0 
1.2207031e-2, 3.8466433e+0, -0.011122516, -36822.133, -0.076329485, 0.0, 0.0001451485, -0.011122358, 0.0 
1.2207031e-2, 3.8702053e+0, -0.011175049, -36792.535, -1.1773788, 0.0, 0.00022060961, -0.011137372, 0.0 
1.2207031e-2, 3.8937676e+0, -0.011260261, -36784.273, -1.1802646, 0.0, 0.00022012116, -0.01122239, 0.0 
1.2207031e-2, 3.9173305e+0, -0.011313294, -36755.094, -0.4738628, 0.0, 0.00015065043, -0.011307185, 0.0 
1.2207031e-2, 3.940894e+0, -0.011336179, -36744.85, 0.105277844, 0.0, 0.00014599288, -0.011335878, 0.0 
1.2207031e-2, 3.9644575e+0, -0.011310179, -36715.01, -1.2122551, 0.0, 0.00022286875, -0.011270153, 0.0 
1.2207031e-2, 3.988022e+0, -0.011256758, -36706.496, -1.3235776, 0.0, 0.0002104321, -0.011209032, 0.0 
1.2207031e-2, 4.0115863e+0, -0.011177717, -36676.957, -0.2582083, 0.0, 0.00016960196, -0.011175899, 0.0 
1.2207031e-2, 4.0351516e+0, -0.011113112, -36666.38, -1.2198681, 0.0, 0.00017827323, -0.011072528, 0.0 
1.2207031e-2, 4.058717e+0, -0.011101274, -36637.633, -1.0909748, 0.0, 0.0002147604, -0.011068787, 0.0 
1.2207031e-2, 4.082283e+0, -0.011137814, -36627.848, -0.47434035, 0.0, 0.00018312498, -0.011131672, 0.0 
1.2207031e-2, 4.1058493e+0, -0.011241745, -36598.324, -0.5978452, 0.0, 0.00019832417, -0.011231978, 0.0 
1.2207031e-2, 4.129416e+0, -0.011317659, -36587.89, -1.5272514, 0.0, 0.0002145121, -0.011253908, 0.0 
1.2207031e-2, 4.152983e+0, -0.011443477, -36560.848, -0.6427219, 0.0, 0.00020671263, -0.011432178, 0.0 
1.2207031e-2, 4.1765508e+0, -0.011524109, -36548.445, 0.08250495, 0.0, 0.00018598931, -0.011523923, 0.0 
1.2207031e-2, 4.2001185e+0, -0.011633351, -36520.313, -1.1462948, 0.0, 0.00022149296, -0.011597372, 0.0 
1.2207031e-2, 4.223687e+0, -0.011656714, -36510.17, -0.8997646, 0.0, 0.00021713204, -0.011634539, 0.0 
1.2207031e-2, 4.247256e+0, -0.011672961, -36481.77, -0.22035016, 0.0, 0.00021474433, -0.01167163, 0.0 
1.2207031e-2, 4.2708254e+0, -0.011607506, -36469.47, -1.4848682, 0.0, 0.00021796334, -0.0115470495, 0.0 
1.2207031e-2, 4.2943949e+0, -0.011566132, -36444.332, -0.98952, 0.0, 0.00022675075, -0.0115392655, 0.0 
1.2207031e-2, 4.3179655e+0, -0.011457034, -36429.85, -0.012795933, 0.0, 0.00022127622, -0.01145703, 0.0 
1.2207031e-2, 4.3415362e+0, -0.011414141, -36402.34, -3.27407, 0.0, 0.00023400493, -0.011119667, 0.0 
1.2207031e-2, 4.365107e+0, -0.011331399, -36391.2, -5.541718, 0.0, 0.00022912145, -0.010487496, 0.0 
1.2207031e-2, 4.3886787e+0, -0.011359877, -36367.73, -2.933231, 0.0, 0.00023207183, -0.011123298, 0.0 
1.2207031e-2, 4.4122505e+0, -0.01137163, -36352.22, -0.6098216, 0.0, 0.0002419044, -0.011361401, 0.0 
1.2207031e-2, 4.435823e+0, -0.0114791095, -36326.434, -0.70632637, 0.0, 0.00024629818, -0.011465376, 0.0 
1.2207031e-2, 4.4593954e+0, -0.011547713, -36312.633, -0.7410362, 0.0, 0.0002364375, -0.011532591, 0.0 
1.2207031e-2, 4.4829687e+0, -0.011657393, -36287.758, -0.5387877, 0.0, 0.00023409342, -0.0116493935, 0.0 
1.2207031e-2, 4.5065427e+0, -0.011687208, -36273.293, -0.57657653, 0.0, 0.00025711866, -0.011678043, 0.0 
1.2207031e-2, 4.5301166e+0, -0.011719812, -36248.754, -0.5765773, 0.0, 0.00026506558, -0.011710641, 0.0 
1.2207031e-2, 4.5536909e+0, -0.011654071, -36234.61, -0.503245, 0.0, 0.00023870361, -0.011647082, 0.0 
1.2207031e-2, 4.5772657e+0, -0.011588524, -36209.867, -0.4755564, 0.0, 0.0002230267, -0.011582279, 0.0 
1.2207031e-2, 4.600841e+0, -0.011482326, -36195.57, -0.50372773, 0.0, 0.00026806025, -0.011475316, 0.0 
1.2207031e-2, 4.6244168e+0, -0.011414052, -36171.094, -0.40679803, 0.0, 0.00029273747, -0.011409477, 0.0 
1.2207031e-2, 4.647993e+0, -0.011372376, -36156.344, -7.4188547, 0.0, 0.00023587239, -0.009850115, 0.0 
1.2207031e-2, 4.6715698e+0, -0.011309909, -36132.113, -0.13217779, 0.0, 0.0001988176, -0.011309425, 0.0 
1.2207031e-2, 4.695147e+0, -0.011288853, -36116.805, -0.44185063, 0.0, 0.00027194442, -0.011283448, 0.0 
1.2207031e-2, 4.7187242e+0, -0.011294087, -36093.13, -0.70009506, 0.0, 0.00032495108, -0.011280508, 0.0 
1.2207031e-2, 4.7423023e+0, -0.011333547, -36078.35, -0.3264155, 0.0, 0.00023390686, -0.011330593, 0.0 
1.2207031e-2, 4.7658807e+0, -0.011363397, -36053.984, 0.23374103, 0.0, 0.00017289605, -0.011361882, 0.0 
1.2207031e-2, 4.7894597e+0, -0.011392856, -36038.234, -0.3464372, 0.0, 0.00027003774, -0.011389526, 0.0 
1.2207031e-2, 4.8130387e+0, -0.011380666, -36015.008, -1.0765818, 0.0, 0.00034280325, -0.011348484, 0.0 
1.2207031e-2, 4.8366183e+0, -0.011364051, -36000.31, -0.16032843, 0.0, 0.00023369618, -0.011363337, 0.0 
1.2207031e-2, 4.8601985e+0, -0.011317769, -35975.9, 0.6326078, 0.0, 0.0001755498, -0.011306645, 0.0 
1.2207031e-2, 4.883779e+0, -0.011304448, -35959.664, -0.27065006, 0.0, 0.00026857006, -0.011302412, 0.0 
1.2207031e-2, 4.9073595e+0, -0.011262863, -35937.11, -0.97057164, 0.0, 0.00031887402, -0.011236651, 0.0 
1.2207031e-2, 4.9309412e+0, -0.011307035, -35921.785, -0.033080347, 0.0, 0.00023164574, -0.011307005, 0.0 
1.2207031e-2, 4.954523e+0, -0.011345313, -35897.805, 0.3661121, 0.0, 0.00022629839, -0.011341579, 0.0 
1.2207031e-2, 4.978105e+0, -0.01147285, -35881.543, -0.34851462, 0.0, 0.00027300054, -0.011469465, 0.0 
1.2207031e-2, 5.001688e+0, -0.0115657775, -35859.656, -0.06937096, 0.0, 0.00025971213, -0.011565643, 0.0 
1.2207031e-2, 5.025271e+0, -0.01170674, -35842.28, 0.30076718, 0.0, 0.00023502226, -0.011704216, 0.0 
1.2207031e-2, 5.0488544e+0, -0.0118017, -35819.816, -0.6126429, 0.0, 0.00028536646, -0.011791222, 0.0 
1.2207031e-2, 5.072438e+0, -0.011932197, -35803.906, -0.47420052, 0.0, 0.0002714656, -0.011925916, 0.0 
1.2207031e-2, 5.0960225e+0, -0.012008147, -35781.688, 0.87623775, 0.0, 0.00023152072, -0.01198669, 0.0 
1.2207031e-2, 5.1196074e+0, -0.012122279, -35763.195, 0.24287271, 0.0, 0.00026221664, -0.01212063, 0.0 
1.2207031e-2, 5.143193e+0, -0.0121808695, -35742.695, -0.5915944, 0.0, 0.00028744029, -0.012171078, 0.0 
1.2207031e-2, 5.1667786e+0, -0.012252381, -35725.016, 0.4152013, 0.0, 0.00025793034, -0.012247555, 0.0 
1.2207031e-2, 5.190364e+0, -0.012233239, -35703.02, 0.004950128, 0.0, 0.00026827847, -0.012233239, 0.0 
1.2207031e-2, 5.213951e+0, -0.012200673, -35685.586, -0.7002861, 0.0, 0.0002875292, -0.012186931, 0.0 
1.2207031e-2, 5.2375376e+0, -0.012118329, -35665.684, 0.9642603, 0.0, 0.0002633609, -0.01209226, 0.0 
1.2207031e-2, 5.2611256e+0, -0.012040676, -35645.215, 0.6564557, 0.0, 0.00027716864, -0.012028586, 0.0 
1.2207031e-2, 5.2847135e+0, -0.011975349, -35627.11, -0.56020933, 0.0, 0.00028986478, -0.0119665405, 0.0 
1.2207031e-2, 5.3083014e+0, -0.0119496295, -35607.543, 1.0508947, 0.0, 0.00028386145, -0.011918615, 0.0 
1.2207031e-2, 5.33189e+0, -0.011963316, -35587.355, 0.60068625, 0.0, 0.00028426363, -0.011953177, 0.0 
1.2207031e-2, 5.355479e+0, -0.012019164, -35569.0, -4.281406, 0.0, 0.00030309375, -0.011503816, 0.0 
1.2207031e-2, 5.379069e+0, -0.012072448, -35547.547, 1.8827611, 0.0, 0.00028665006, -0.011972727, 0.0 
1.2207031e-2, 5.402659e+0, -0.012112426, -35524.676, -3.1734047, 0.0, 0.0003016272, -0.011828946, 0.0 
1.2207031e-2, 5.4262495e+0, -0.012541355, -35510.61, -36.73488, 0.0, 0.00029905382, 0.025459975, 0.0 
1.2207031e-2, 5.44984e+0, -0.012128184, -35492.58, -3.0105462, 0.0, 0.00031133275, -0.011872824, 0.0 
1.2207031e-2, 5.4734313e+0, -0.0121169295, -35470.56, 0.74663806, 0.0, 0.00030405784, -0.0121012125, 0.0 
1.2207031e-2, 5.497023e+0, -0.01206036, -35450.586, 0.45992893, 0.0, 0.00031265593, -0.012054393, 0.0 
1.2207031e-2, 5.520615e+0, -0.012070857, -35431.57, 0.39307812, 0.0, 0.0003106336, -0.012066497, 0.0 
1.2207031e-2, 5.5442077e+0, -0.01205441, -35411.14, 0.5464816, 0.0, 0.00032371795, -0.012045977, 0.0 
1.2207031e-2, 5.5678004e+0, -0.012067898, -35392.652, 0.5329013, 0.0, 0.00031608896, -0.012059874, 0.0 
1.2207031e-2, 5.591394e+0, -0.012029631, -35371.914, 0.5836577, 0.0, 0.00032119395, -0.01202, 0.0 
1.2207031e-2, 5.6149876e+0, -0.011994482, -35353.61, 0.5777973, 0.0, 0.00032197463, -0.011985038, 0.0 
1.2207031e-2, 5.638582e+0, -0.0118995905, -35332.555, 0.57904553, 0.0, 0.00033049192, -0.011890101, 0.0 
1.2207031e-2, 5.6621766e+0, -0.011840786, -35314.777, 0.6413281, 0.0, 0.00032636282, -0.01182914, 0.0 
1.2207031e-2, 5.685772e+0, -0.011761173, -35293.29, 0.6724209, 0.0, 0.00032781812, -0.011748361, 0.0 
1.2207031e-2, 5.709368e+0, -0.0117433285, -35275.824, 0.64168465, 0.0, 0.00033070028, -0.011731655, 0.0 
1.2207031e-2, 5.7329637e+0, -0.011703531, -35254.08, 0.5140731, 0.0, 0.00033359358, -0.011696035, 0.0 
1.2207031e-2, 5.75656e+0, -0.011707019, -35236.68, 0.6983861, 0.0, 0.00033295588, -0.011693177, 0.0 
1.2207031e-2, 5.780157e+0, -0.011680548, -35214.84, 0.70000947, 0.0, 0.00033312483, -0.011666633, 0.0 
1.2207031e-2, 5.8037543e+0, -0.011689395, -35197.81, 0.66063255, 0.0, 0.00033740484, -0.011676995, 0.0 
1.2207031e-2, 5.827352e+0, -0.011708187, -35175.59, 0.6942252, 0.0, 0.00033334616, -0.011694485, 0.0 
1.2207031e-2, 5.85095e+0, -0.01178476, -35158.754, 0.72635645, 0.0, 0.0003385921, -0.011769754, 0.0 
1.2207031e-2, 5.874549e+0, -0.011911348, -35136.113, 0.67426705, 0.0, 0.00033649808, -0.011898409, 0.0 
1.2207031e-2, 5.898148e+0, -0.012061687, -35120.11, 0.6768465, 0.0, 0.00033981496, -0.012048643, 0.0 
1.2207031e-2, 5.921747e+0, -0.01219701, -35096.543, 0.5448667, 0.0, 0.00033764227, -0.012188552, 0.0 
1.2207031e-2, 5.945347e+0, -0.012237553, -35081.285, 0.68495244, 0.0, 0.0003422582, -0.012224179, 0.0 
1.2207031e-2, 5.9689474e+0, -0.01220232, -35058.22, 0.6922894, 0.0, 0.00033952578, -0.012188649, 0.0 
1.2207031e-2, 5.992548e+0, -0.012063756, -35043.203, 0.6940694, 0.0, 0.00034191296, -0.012050009, 0.0 
1.2207031e-2, 6.016149e+0, -0.011914819, -35018.902, 0.5853648, 0.0, 0.0003439797, -0.011905034, 0.0 
1.2207031e-2, 6.0397506e+0, -0.011755865, -35004.223, 0.5826174, 0.0, 0.00034259533, -0.011746168, 0.0 
1.2207031e-2, 6.063353e+0, -0.011692624, -34979.383, 0.64355445, 0.0, 0.00034537367, -0.011680784, 0.0 
1.2207031e-2, 6.086955e+0, -0.011689796, -34965.484, 0.46488562, 0.0, 0.00034754327, -0.011683615, 0.0 
1.2207031e-2, 6.110558e+0, -0.01179664, -34940.168, 0.55119646, 0.0, 0.00034814246, -0.0117879445, 0.0 
1.2207031e-2, 6.1341614e+0, -0.011883732, -34926.625, 0.6389956, 0.0, 0.00034388428, -0.011872041, 0.0 
1.2207031e-2, 6.1577654e+0, -0.012000018, -34900.742, 0.46128228, 0.0, 0.00035275705, -0.01199392, 0.0 
1.2207031e-2, 6.1813694e+0, -0.012007558, -34887.836, 0.3903611, 0.0, 0.00035125532, -0.01200319, 0.0 
1.2207031e-2, 6.204974e+0, -0.012040828, -34861.34, 0.52305216, 0.0, 0.000353902, -0.01203298, 0.0 
1.2207031e-2, 6.228579e+0, -0.011969183, -34849.113, 0.4788549, 0.0, 0.00034867064, -0.011962603, 0.0 
1.2207031e-2, 6.2521845e+0, -0.0119654015, -34822.027, 0.5288912, 0.0, 0.00035925792, -0.011957368, 0.0 
1.2207031e-2, 6.2757903e+0, -0.011925686, -34810.277, -0.16856301, 0.0, 0.0003535116, -0.011924869, 0.0 
1.2207031e-2, 6.299397e+0, -0.011996331, -34782.527, 0.5415029, 0.0, 0.0003614956, -0.0119879, 0.0 
1.2207031e-2, 6.323003e+0, -0.012058432, -34771.23, 0.3518716, 0.0, 0.0003545197, -0.012054871, 0.0 
1.2207031e-2, 6.346611e+0, -0.012223896, -34743.61, 0.40448004, 0.0, 0.00036446875, -0.012219187, 0.0 
1.2207031e-2, 6.3702184e+0, -0.012370327, -34731.996, 0.12666029, 0.0, 0.00035920012, -0.012369865, 0.0 
1.2207031e-2, 6.3938266e+0, -0.012582838, -34704.64, 0.35011607, 0.0, 0.00036633684, -0.012579305, 0.0 
1.2207031e-2, 6.417435e+0, -0.012731082, -34693.133, 0.30700636, 0.0, 0.00036226894, -0.012728365, 0.0 
1.2207031e-2, 6.4410436e+0, -0.012885358, -34665.03, 0.32974446, 0.0, 0.00036826113, -0.0128822215, 0.0 
1.2207031e-2, 6.464653e+0, -0.012961602, -34654.793, 0.19421837, 0.0, 0.00036654642, -0.012960514, 0.0 
1.2207031e-2, 6.488263e+0, -0.013022032, -34625.24, 0.29363734, 0.0, 0.00037083856, -0.013019541, 0.0 
1.2207031e-2, 6.511873e+0, -0.012998233, -34616.02, 0.25020236, 0.0, 0.00036938948, -0.012996424, 0.0 
1.2207031e-2, 6.5354836e+0, -0.0129570495, -34585.984, 0.2886744, 0.0, 0.00037110134, -0.01295464, 0.0 
1.2207031e-2, 6.559095e+0, -0.012865687, -34577.207, -0.36793166, 0.0, 0.00037413897, -0.012861772, 0.0 
1.2207031e-2, 6.5827066e+0, -0.012799968, -34546.535, 0.28769016, 0.0, 0.00037724857, -0.012797573, 0.0 
1.2207031e-2, 6.6063184e+0, -0.012738181, -34538.355, 0.23867103, 0.0, 0.00037327193, -0.012736532, 0.0 
1.2207031e-2, 6.629931e+0, -0.012697399, -34507.313, 0.2017545, 0.0, 0.00037301797, -0.012696219, 0.0 
1.2207031e-2, 6.653544e+0, -0.0127004115, -34499.207, 0.20095788, 0.0, 0.00038171027, -0.012699241, 0.0 
1.2207031e-2, 6.6771567e+0, -0.012702456, -34468.28, 0.21832201, 0.0, 0.00038168763, -0.012701073, 0.0 
1.2207031e-2, 6.70077e+0, -0.012734776, -34460.516, 0.19884379, 0.0, 0.00037748745, -0.012733629, 0.0 
1.2207031e-2, 6.724385e+0, -0.0127391135, -34429.23, 0.1312604, 0.0, 0.00037403384, -0.012738613, 0.0 
1.2207031e-2, 6.747999e+0, -0.012754626, -34421.5, 0.027693382, 0.0, 0.00038575317, -0.012754603, 0.0 
1.2207031e-2, 6.771614e+0, -0.012732567, -34389.97, 0.19877219, 0.0, 0.00038370138, -0.012731418, 0.0 
1.2207031e-2, 6.7952293e+0, -0.012734417, -34382.69, 0.12555276, 0.0, 0.00038073878, -0.012733958, 0.0 
1.2207031e-2, 6.818845e+0, -0.012692735, -34350.438, 0.033150967, 0.0, 0.00037488432, -0.012692703, 0.0 
1.2207031e-2, 6.842462e+0, -0.01271205, -34344.125, 0.117058985, 0.0, 0.00038350935, -0.012711652, 0.0 
1.2207031e-2, 6.8660784e+0, -0.012676614, -34310.918, 0.14764367, 0.0, 0.00038884493, -0.012675979, 0.0 
1.2207031e-2, 6.8896955e+0, -0.012674754, -34305.168, 0.039130054, 0.0, 0.00038006427, -0.012674709, 0.0 
1.2207031e-2, 6.9133127e+0, -0.012599779, -34271.793, 0.056930672, 0.0, 0.00037267516, -0.012599684, 0.0 
1.2207031e-2, 6.936931e+0, -0.012550559, -34265.832, -0.38150707, 0.0, 0.0003792236, -0.012546311, 0.0 
1.2207031e-2, 6.9605494e+0, -0.012438555, -34232.484, 0.05306139, 0.0, 0.00039630194, -0.012438472, 0.0 
1.2207031e-2, 6.984168e+0, -0.012374733, -34227.14, 0.015788715, 0.0, 0.00037648674, -0.012374725, 0.0 
1.2207031e-2, 7.007788e+0, -0.012253672, -34193.117, -0.022641772, 0.0, 0.00037084424, -0.012253657, 0.0 
1.2207031e-2, 7.0314074e+0, -0.012184976, -34188.258, -0.6609848, 0.0, 0.00037393655, -0.012172196, 0.0 
1.2207031e-2, 7.0550275e+0, -0.0120722735, -34153.895, -0.13750708, 0.0, 0.00040046498, -0.012071719, 0.0 
1.2207031e-2, 7.078648e+0, -0.012010672, -34149.316, -0.10678651, 0.0, 0.00037442433, -0.012010338, 0.0 
1.2207031e-2, 7.102269e+0, -0.01191358, -34114.49, -0.06766177, 0.0, 0.00037026842, -0.011913446, 0.0 
1.2207031e-2, 7.125891e+0, -0.011869404, -34110.47, -0.27570355, 0.0, 0.00036812064, -0.011867176, 0.0 
1.2207031e-2, 7.149512e+0, -0.011834745, -34074.832, -0.29994354, 0.0, 0.00040291174, -0.011832105, 0.0 
1.2207031e-2, 7.1731347e+0, -0.011869874, -34071.996, -0.2621248, 0.0, 0.0003715777, -0.011867858, 0.0 
1.2207031e-2, 7.196758e+0, -0.0119233485, -34035.44, -0.030981319, 0.0, 0.0003747591, -0.01192332, 0.0 
1.2207031e-2, 7.220381e+0, -0.012012632, -34033.004, -0.4512873, 0.0, 0.0003676685, -0.012006648, 0.0 
1.2207031e-2, 7.244004e+0, -0.012099313, -33995.72, -0.49312928, 0.0, 0.00040113277, -0.012092159, 0.0 
1.2207031e-2, 7.2676283e+0, -0.012198917, -33994.438, -0.47797054, 0.0, 0.00036346773, -0.012192196, 0.0 
1.2207031e-2, 7.291253e+0, -0.012307874, -33957.31, 0.014755465, 0.0, 0.00038776427, -0.012307867, 0.0 
1.2207031e-2, 7.314878e+0, -0.012443763, -33954.633, -0.6182409, 0.0, 0.0003885867, -0.012432506, 0.0 
1.2207031e-2, 7.3385036e+0, -0.012607547, -33917.508, -0.7633812, 0.0, 0.00038734882, -0.012590366, 0.0 
1.2207031e-2, 7.3621285e+0, -0.0128090475, -33916.31, -0.7821618, 0.0, 0.00033454192, -0.01279101, 0.0 
1.2207031e-2, 7.385755e+0, -0.01304293, -33878.94, 0.034438897, 0.0, 0.0004151377, -0.013042894, 0.0 
1.2207031e-2, 7.409382e+0, -0.013277439, -33877.605, -0.007980356, 0.0, 0.00044322832, -0.013277437, 0.0 
1.2207031e-2, 7.4330086e+0, -0.013520674, -33839.793, -0.7787209, 0.0, 0.00036212776, -0.013502754, 0.0 
1.2207031e-2, 7.4566364e+0, -0.013696059, -33840.11, -0.70204884, 0.0, 0.0002835793, -0.013681494, 0.0 
1.2207031e-2, 7.4802643e+0, -0.013825326, -33801.254, -0.1766029, 0.0, 0.00044577467, -0.013824403, 0.0 
1.2207031e-2, 7.503892e+0, -0.0138588995, -33800.17, -0.93843806, 0.0, 0.0005093762, -0.013832844, 0.0 
1.2207031e-2, 7.527522e+0, -0.013873599, -33762.273, -0.5685191, 0.0, 0.00034555627, -0.0138640255, 0.0 
1.2207031e-2, 7.551151e+0, -0.0138450535, -33761.297, -0.3449394, 0.0, 0.00024996584, -0.013841529, 0.0 
1.2207031e-2, 7.5747806e+0, -0.01384556, -33722.97, -0.4132558, 0.0, 0.00046214106, -0.013840496, 0.0 
1.2207031e-2, 7.598411e+0, -0.013801919, -33721.785, -1.1750351, 0.0, 0.00052570103, -0.013760975, 0.0 
1.2207031e-2, 7.6220405e+0, -0.0138055775, -33684.78, -0.3621179, 0.0, 0.0003487092, -0.013801685, 0.0 
1.2207031e-2, 7.645672e+0, -0.013742098, -33682.293, -0.10274763, 0.0, 0.00029438236, -0.013741784, 0.0 
1.2207031e-2, 7.6693034e+0, -0.013704293, -33645.273, -0.467625, 0.0, 0.00045711984, -0.013697794, 0.0 
1.2207031e-2, 7.692935e+0, -0.013615289, -33643.082, -1.269381, 0.0, 0.00045921787, -0.013567394, 0.0 
1.2207031e-2, 7.7165675e+0, -0.013557042, -33606.984, -0.27406588, 0.0, 0.0003664503, -0.013554807, 0.0 
1.2207031e-2, 7.7402e+0, -0.01346766, -33603.703, -0.24872658, 0.0, 0.00040489205, -0.013465819, 0.0 
1.2207031e-2, 7.763833e+0, -0.013418997, -33567.277, -0.5992844, 0.0, 0.00044761912, -0.013408297, 0.0 
1.2207031e-2, 7.7874666e+0, -0.013341728, -33565.33, -1.0255141, 0.0, 0.0003615117, -0.013310395, 0.0 
1.2207031e-2, 7.8111005e+0, -0.013278719, -33527.633, -0.29227814, 0.0, 0.000390261, -0.013276171, 0.0 
1.2207031e-2, 7.834735e+0, -0.013146428, -33526.027, -0.6279035, 0.0, 0.0004905175, -0.013134669, 0.0 
1.2207031e-2, 7.85837e+0, -0.012985264, -33489.21, -0.47850063, 0.0, 0.00043557846, -0.012978427, 0.0 
1.2207031e-2, 7.882005e+0, -0.012777337, -33486.73, -0.708794, 0.0, 0.0003316088, -0.012762334, 0.0 
1.2207031e-2, 7.905641e+0, -0.012588814, -33449.996, -0.17711446, 0.0, 0.0004228852, -0.012587877, 0.0 
1.2207031e-2, 7.929277e+0, -0.012398807, -33447.0, -0.6908378, 0.0, 0.00047756667, -0.012384538, 0.0 
1.2207031e-2, 7.9529136e+0, -0.012269623, -33411.855, -0.23372257, 0.0, 0.00041513343, -0.012267988, 0.0 
1.2207031e-2, 7.9765505e+0, -0.012185593, -33408.03, -0.46062773, 0.0, 0.00039275843, -0.012179242, 0.0 
1.2207031e-2, 8.000188e+0, -0.01214401, -33371.926, -0.40490836, 0.0, 0.00044920537, -0.012139097, 0.0 
1.2207031e-2, 8.023826e+0, -0.01210476, -33369.43, -0.022713928, 0.0, 0.00041230684, -0.012104744, 0.0 
1.2207031e-2, 8.0474645e+0, -0.012077104, -33332.805, 0.1956827, 0.0, 0.00043166013, -0.012075956, 0.0 
1.2207031e-2, 8.071103e+0, -0.0120737115, -33329.613, -1.3459232, 0.0, 0.00043658577, -0.0120193595, 0.0 
1.2207031e-2, 8.094742e+0, -0.012110767, -33294.555, -0.28422186, 0.0, 0.0004097877, -0.01210834, 0.0 
1.2207031e-2, 8.1183815e+0, -0.012207954, -33290.33, 0.18889348, 0.0, 0.00042590778, -0.012206882, 0.0 
1.2207031e-2, 8.142022e+0, -0.012336163, -33254.344, -1.3732013, 0.0, 0.0004986362, -0.012279458, 0.0 
1.2207031e-2, 8.165663e+0, -0.012468444, -33252.926, -1.4049464, 0.0, 0.0003863831, -0.0124090845, 0.0 
1.2207031e-2, 8.189303e+0, -0.012561292, -33215.938, 0.81775177, 0.0, 0.00038648193, -0.01254116, 0.0 
1.2207031e-2, 8.212945e+0, -0.0126635125, -33211.02, -1.1247194, 0.0, 0.000476519, -0.012625423, 0.0 
1.2207031e-2, 8.2365865e+0, -0.012745421, -33178.45, -1.2992483, 0.0, 0.00047133132, -0.012694543, 0.0 
1.2207031e-2, 8.260229e+0, -0.012877426, -33172.965, 0.29350412, 0.0, 0.0003839951, -0.01287483, 0.0 
1.2207031e-2, 8.2838714e+0, -0.013023764, -33138.434, 0.3860771, 0.0, 0.00046379244, -0.013019267, 0.0 
1.2207031e-2, 8.307514e+0, -0.013235791, -33132.563, -0.309777, 0.0, 0.0004468515, -0.013232895, 0.0 
1.2207031e-2, 8.3311576e+0, -0.013433462, -33100.28, -0.5318309, 0.0, 0.0003963272, -0.013424916, 0.0 
1.2207031e-2, 8.354802e+0, -0.01364078, -33094.645, -0.4227206, 0.0, 0.0004248924, -0.013635381, 0.0 
1.2207031e-2, 8.3784467e+0, -0.013765118, -33061.848, 1.8847562, 0.0, 0.00053020706, -0.013657673, 0.0 
1.2207031e-2, 8.402091e+0, -0.013882313, -33052.246, 0.09507186, 0.0, 0.0004504737, -0.01388204, 0.0 
1.2207031e-2, 8.4257364e+0, -0.013920843, -33023.49, -2.5552225, 0.0, 0.00030983542, -0.01372313, 0.0 
1.2207031e-2, 8.4493816e+0, -0.014008331, -33019.637, 3.8686433, 0.0, 0.00041211143, -0.013555073, 0.0 
1.2207031e-2, 8.473028e+0, -0.014429325, -32983.18, -19.230167, 0.0, 0.00065297243, -0.0032175686, 0.0 
1.2207031e-2, 8.4966743e+0, -0.014196641, -32971.363, 2.8809335, 0.0, 0.00047136968, -0.013944914, 0.0 
1.2207031e-2, 8.520322e+0, -0.014308563, -32945.426, -1.2374384, 0.0, 0.00019207266, -0.014262085, 0.0 
1.2207031e-2, 8.5439694e+0, -0.014473473, -32936.3, -1.5680354, 0.0, 0.00042308512, -0.014398822, 0.0 
1.2207031e-2, 8.5676175e+0, -0.014573452, -32906.574, 0.12978308, 0.0, 0.0007221734, -0.014572941, 0.0 
1.2207031e-2, 8.5912657e+0, -0.014673401, -32896.19, -0.3009839, 0.0, 0.0004720126, -0.014670647, 0.0 
1.2207031e-2, 8.614914e+0, -0.014663544, -32868.695, 0.22648385, 0.0, 0.0002028262, -0.014661984, 0.0 
1.2207031e-2, 8.638563e+0, -0.01461114, -32856.383, 0.12195165, 0.0, 0.0004604663, -0.014610687, 0.0 
1.2207031e-2, 8.6622125e+0, -0.014466949, -32829.125, -0.5822621, 0.0, 0.0006411804, -0.014456621, 0.0 
1.2207031e-2, 8.6858624e+0, -0.014323761, -32817.793, -0.17567247, 0.0, 0.0004318635, -0.014322821, 0.0 
1.2207031e-2, 8.709513e+0, -0.014145608, -32790.57, 0.5472226, 0.0, 0.0003670138, -0.014136476, 0.0 
1.2207031e-2, 8.733164e+0, -0.013996916, -32777.934, 0.011482427, 0.0, 0.0005502395, -0.013996912, 0.0 
1.2207031e-2, 8.756815e+0, -0.01385821, -32751.316, -0.29230377, 0.0, 0.0004483923, -0.013855602, 0.0 
1.2207031e-2, 8.780467e+0, -0.013799145, -32739.496, 0.14892077, 0.0, 0.00036522816, -0.013798468, 0.0 
1.2207031e-2, 8.804119e+0, -0.013775214, -32711.396, -0.09449321, 0.0, 0.0005730946, -0.013774941, 0.0 
1.2207031e-2, 8.827772e+0, -0.013788605, -32700.717, -0.53080153, 0.0, 0.0006036744, -0.013779989, 0.0 
1.2207031e-2, 8.851425e+0, -0.013789476, -32673.928, 0.69038284, 0.0, 0.0003293986, -0.013774889, 0.0 
1.2207031e-2, 8.875078e+0, -0.013767942, -32660.277, 0.36382717, 0.0, 0.0004059263, -0.013763889, 0.0 
1.2207031e-2, 8.898732e+0, -0.013711258, -32634.861, -0.5869025, 0.0, 0.0006198162, -0.013700703, 0.0 
1.2207031e-2, 8.9223874e+0, -0.013602958, -32622.38, -0.4533688, 0.0, 0.0004991297, -0.013596658, 0.0 
1.2207031e-2, 8.946041e+0, -0.013460223, -32597.047, 0.74838084, 0.0, 0.00041302806, -0.013443041, 0.0 
1.2207031e-2, 8.969697e+0, -0.01328541, -32581.9, -0.4940561, 0.0, 0.00057855906, -0.013277917, 0.0 
1.2207031e-2, 8.9933527e+0, -0.013119368, -32558.23, -0.10792304, 0.0, 0.00050516706, -0.01311901, 0.0 
1.2207031e-2, 9.0170085e+0, -0.012967212, -32543.543, 0.9772362, 0.0, 0.00036791564, -0.012937867, 0.0 
1.2207031e-2, 9.0406644e+0, -0.012857249, -32517.613, -0.04618646, 0.0, 0.0005638153, -0.012857184, 0.0 
1.2207031e-2, 9.064323e+0, -0.012780921, -32504.543, -1.0399493, 0.0, 0.0006234566, -0.012747648, 0.0 
1.2207031e-2, 9.087979e+0, -0.012785503, -32480.951, 0.86471224, 0.0, 0.000432279, -0.012762482, 0.0 
1.2207031e-2, 9.111637e+0, -0.012846293, -32463.848, 0.906217, 0.0, 0.0004693961, -0.012820995, 0.0 
1.2207031e-2, 9.135296e+0, -0.012942555, -32440.682, -0.59549254, 0.0, 0.00058058137, -0.012931624, 0.0 
1.2207031e-2, 9.1589546e+0, -0.013070837, -32426.59, 0.6218747, 0.0, 0.00047660002, -0.01305891, 0.0 
1.2207031e-2, 9.1826135e+0, -0.013220061, -32400.484, 0.55801183, 0.0, 0.00052267057, -0.01321045, 0.0 
1.2207031e-2, 9.206273e+0, -0.013374293, -32386.41, -1.4756777, 0.0, 0.0005607108, -0.0133070545, 0.0 
1.2207031e-2, 9.229933e+0, -0.013497845, -32364.973, 1.2180004, 0.0, 0.0004835829, -0.013452007, 0.0 
1.2207031e-2, 9.2535937e+0, -0.013614661, -32345.299, -2.2055943, 0.0, 0.00054974464, -0.013464264, 0.0 
1.2207031e-2, 9.2772543e+0, -0.013688094, -32324.273, -0.34464428, 0.0, 0.0005971944, -0.013684419, 0.0 
1.2207031e-2, 9.3009156e+0, -0.013764045, -32308.174, 1.3442839, 0.0, 0.0003998228, -0.013708112, 0.0 
1.2207031e-2, 9.3245775e+0, -0.013843463, -32284.182, 0.77856076, 0.0, 0.00050078356, -0.013824687, 0.0 
1.2207031e-2, 9.34824e+0, -0.013958131, -32267.357, -3.1690767, 0.0, 0.00068324566, -0.013646886, 0.0 
1.2207031e-2, 9.371902e+0, -0.014077495, -32248.752, 0.76769435, 0.0, 0.000550082, -0.0140592195, 0.0 
1.2207031e-2, 9.395565e+0, -0.014246025, -32226.951, 0.64222425, 0.0, 0.00039591952, -0.014233227, 0.0 
1.2207031e-2, 9.4192284e+0, -0.014384237, -32208.314, -1.1456684, 0.0, 0.00050910126, -0.014343485, 0.0 
1.2207031e-2, 9.442892e+0, -0.014549912, -32189.44, 1.4839511, 0.0, 0.000644112, -0.014481501, 0.0 
1.2207031e-2, 9.4665563e+0, -0.014641611, -32167.744, -0.5712775, 0.0, 0.0006163563, -0.014631465, 0.0 
1.2207031e-2, 9.490222e+0, -0.014752138, -32151.496, -0.36624944, 0.0, 0.00038755836, -0.014747966, 0.0 
1.2207031e-2, 9.5138866e+0, -0.014796316, -32128.672, 2.4509304, 0.0, 0.00042394348, -0.014609346, 0.0 
1.2207031e-2, 9.5375526e+0, -0.014876983, -32101.08, -8.721024, 0.0, 0.0007148702, -0.012507708, 0.0 
1.2207031e-2, 9.561218e+0, -0.014914543, -32094.855, -16.44518, 0.0, 0.0006460675, -0.0064881453, 0.0 
1.2207031e-2, 9.584886e+0, -0.014985003, -32077.246, -5.335983, 0.0, 0.00035164366, -0.014097372, 0.0 
1.2207031e-2, 9.608552e+0, -0.0149838785, -32052.4, 1.9743586, 0.0, 0.00042864733, -0.014862262, 0.0 
1.2207031e-2, 9.632219e+0, -0.015006335, -32028.861, -1.9932352, 0.0, 0.00068889285, -0.014882292, 0.0 
1.2207031e-2, 9.6558875e+0, -0.014969079, -32016.783, -2.250913, 0.0, 0.0006119231, -0.01481083, 0.0 
1.2207031e-2, 9.679556e+0, -0.014949045, -31992.387, 1.65928, 0.0, 0.00041082304, -0.014862987, 0.0 
1.2207031e-2, 9.7032243e+0, -0.014853948, -31976.08, 1.8132454, 0.0, 0.0004907469, -0.014751125, 0.0 
1.2207031e-2, 9.7268933e+0, -0.014785367, -31949.611, -1.8513944, 0.0, 0.0006218968, -0.014678083, 0.0 
1.2207031e-2, 9.750563e+0, -0.01466504, -31939.996, -2.3762336, 0.0, 0.00048138396, -0.014488256, 0.0 
1.2207031e-2, 9.774233e+0, -0.01458823, -31913.979, 1.2029102, 0.0, 0.0004954129, -0.01454289, 0.0 
1.2207031e-2, 9.7979033e+0, -0.014464055, -31898.648, 1.6909862, 0.0, 0.00065615, -0.0143744135, 0.0 
1.2207031e-2, 9.821574e+0, -0.014366852, -31871.598, -1.5411899, 0.0, 0.0005352852, -0.014292326, 0.0 
1.2207031e-2, 9.8452455e+0, -0.014226935, -31861.742, -1.8516912, 0.0, 0.00030944592, -0.0141193215, 0.0 
1.2207031e-2, 9.8689175e+0, -0.0141333705, -31834.664, 0.5997288, 0.0, 0.0005720297, -0.014122073, 0.0 
1.2207031e-2, 9.8925894e+0, -0.014010802, -31821.45, 0.48418856, 0.0, 0.00079664984, -0.014003435, 0.0 
1.2207031e-2, 9.9162614e+0, -0.013921389, -31793.4, -0.9857825, 0.0, 0.00047904524, -0.013890824, 0.0 
1.2207031e-2, 9.9399346e+0, -0.013835793, -31784.586, -0.20100102, 0.0, 0.00025456928, -0.013834522, 0.0 
1.2207031e-2, 9.963609e+0, -0.0138276415, -31753.764, 0.029964762, 0.0, 0.00061809807, -0.013827613, 0.0 
1.2207031e-2, 9.987283e+0, -0.013851653, -31744.738, -1.2175643, 0.0, 0.0007489615, -0.013804954, 0.0 
1.2207031e-2, 1.0010957e+1, -0.013987226, -31715.973, -0.38962, 0.0, 0.00044623573, -0.01398244, 0.0 
1.2207031e-2, 1.0034632e+1, -0.01412958, -31705.94, 0.91427547, 0.0, 0.00044027166, -0.014103216, 0.0 
1.2207031e-2, 1.0058307e+1, -0.014328714, -31675.352, -0.5583161, 0.0, 0.0006519389, -0.014318873, 0.0 
1.2207031e-2, 1.00819826e+1, -0.014471941, -31666.775, -1.4138057, 0.0, 0.00048121501, -0.014408819, 0.0 
1.2207031e-2, 1.0105658e+1, -0.014611867, -31637.94, 0.103282765, 0.0, 0.0004306638, -0.01461153, 0.0 
1.2207031e-2, 1.0129335e+1, -0.014693694, -31626.973, 0.10499502, 0.0, 0.00074574637, -0.014693346, 0.0 
1.2207031e-2, 1.0153012e+1, -0.014779563, -31598.207, -1.7683799, 0.0, 0.00064768636, -0.014680596, 0.0 
1.2207031e-2, 1.0176689e+1, -0.014807497, -31588.916, 0.41812932, 0.0, 0.00025701404, -0.014801963, 0.0 
1.2207031e-2, 1.0200367e+1, -0.014862141, -31558.438, 0.5928133, 0.0, 0.0004919229, -0.014851005, 0.0 
1.2207031e-2, 1.0224046e+1, -0.014862006, -31548.55, -1.6239715, 0.0, 0.00082321424, -0.014778411, 0.0 
1.2207031e-2, 1.0247724e+1, -0.014905164, -31521.252, -0.944482, 0.0, 0.0005223759, -0.014876864, 0.0 
1.2207031e-2, 1.0271403e+1, -0.014925109, -31510.791, 1.3945363, 0.0, 0.0003886129, -0.014863393, 0.0 
1.2207031e-2, 1.02950834e+1, -0.014987051, -31479.313, 0.101247616, 0.0, 0.0006579698, -0.014986725, 0.0 
1.2207031e-2, 1.0318763e+1, -0.015047927, -31472.676, -1.1491241, 0.0, 0.00054428115, -0.01500597, 0.0 
1.2207031e-2, 1.0342444e+1, -0.015140565, -31440.785, 0.21460782, 0.0, 0.0003830468, -0.015139101, 0.0 
1.2207031e-2, 1.0366124e+1, -0.015160082, -31433.217, -0.22764257, 0.0, 0.00069256435, -0.0151584335, 0.0 
1.2207031e-2, 1.0389805e+1, -0.015200371, -31401.152, -1.233929, 0.0, 0.00068500487, -0.015151883, 0.0 
1.2207031e-2, 1.04134865e+1, -0.015178486, -31396.498, 0.73496306, 0.0, 0.00034708306, -0.0151612805, 0.0 
1.2207031e-2, 1.0437169e+1, -0.015161, -31359.893, 0.6733831, 0.0, 0.00051311444, -0.0151465405, 0.0 
1.2207031e-2, 1.0460851e+1, -0.015102489, -31356.232, -1.2265481, 0.0, 0.000672672, -0.015054511, 0.0 
1.2207031e-2, 1.0484535e+1, -0.015072597, -31323.295, 0.11821419, 0.0, 0.00045511778, -0.015072151, 0.0 
1.2207031e-2, 1.05082184e+1, -0.015044442, -31316.232, 0.09342131, 0.0, 0.000527564, -0.015044164, 0.0 
1.2207031e-2, 1.0531902e+1, -0.015053161, -31283.082, -3.563897, 0.0, 0.00067098817, -0.014647148, 0.0 
1.2207031e-2, 1.0555587e+1, -0.015077096, -31280.797, 0.7263823, 0.0, 0.00043080497, -0.015060228, 0.0 
1.2207031e-2, 1.05792716e+1, -0.01512367, -31241.99, 1.8723091, 0.0, 0.0005226903, -0.015011464, 0.0 
1.2207031e-2, 1.0602957e+1, -0.015150255, -31239.152, -1.6816307, 0.0, 0.0006389184, -0.015059731, 0.0 
1.2207031e-2, 1.06266424e+1, -0.0151329795, -31205.73, -0.35127056, 0.0, 0.0003741696, -0.015129026, 0.0 
1.2207031e-2, 1.06503285e+1, -0.015100654, -31200.078, 0.8574626, 0.0, 0.00049077696, -0.015077089, 0.0 
1.2207031e-2, 1.0674015e+1, -0.015079241, -31163.703, -2.342523, 0.0, 0.00083949557, -0.014903157, 0.0 
1.2207031e-2, 1.06977016e+1, -0.015075598, -31165.623, 0.71711683, 0.0, 0.00044642176, -0.015059098, 0.0 
1.2207031e-2, 1.07213885e+1, -0.015104837, -31123.545, 0.088537574, 0.0, 0.00027074327, -0.015104584, 0.0 
1.2207031e-2, 1.0745077e+1, -0.0151622575, -31122.68, -1.3553493, 0.0, 0.0006262959, -0.015103234, 0.0 
1.2207031e-2, 1.0768765e+1, -0.015238822, -31086.908, -0.083931886, 0.0, 0.0007027207, -0.015238595, 0.0 
1.2207031e-2, 1.07924536e+1, -0.015330944, -31084.08, 1.0374681, 0.0, 0.00046103154, -0.015296317, 0.0 
1.2207031e-2, 1.0816143e+1, -0.015387388, -31045.508, -2.0751982, 0.0, 0.0004513588, -0.015248674, 0.0 
1.2207031e-2, 1.0839833e+1, -0.015399424, -31048.43, 1.0770267, 0.0, 0.00049039745, -0.015362063, 0.0 
1.2207031e-2, 1.08635224e+1, -0.015362136, -31004.363, 0.04119141, 0.0, 0.00069216825, -0.015362081, 0.0 
1.2207031e-2, 1.0887214e+1, -0.015322702, -31008.43, -2.2715187, 0.0, 0.00056061335, -0.015156303, 0.0 
1.2207031e-2, 1.0910904e+1, -0.015287035, -30969.959, 3.8695025, 0.0, 0.00036270017, -0.014803565, 0.0 
1.2207031e-2, 1.0934595e+1, -0.015259839, -30963.256, 0.04170255, 0.0, 0.0005221803, -0.015259783, 0.0 
1.2207031e-2, 1.0958287e+1, -0.015241238, -30932.871, -2.858445, 0.0, 0.00070969894, -0.014977095, 0.0 
1.2207031e-2, 1.0981979e+1, -0.015265904, -30926.217, 2.8381019, 0.0, 0.0005131246, -0.015005451, 0.0 
1.2207031e-2, 1.1005673e+1, -0.015331822, -30879.447, -10.660324, 0.0, 0.0004768597, -0.011651622, 0.0 
1.2207031e-2, 1.1029366e+1, -0.015416394, -30890.229, -23.815844, 0.0, 0.00053891697, 0.0029452166, 0.0 
1.2207031e-2, 1.10530585e+1, -0.015507725, -30861.252, -11.134206, 0.0, 0.0006228311, -0.011490695, 0.0 
1.2207031e-2, 1.1076753e+1, -0.01554714, -30850.777, 1.1346204, 0.0, 0.0005257545, -0.015505411, 0.0 
1.2207031e-2, 1.11004464e+1, -0.015599109, -30812.848, 0.22490446, 0.0, 0.00054573064, -0.015597467, 0.0 
1.2207031e-2, 1.11241415e+1, -0.015631935, -30809.748, 0.3548379, 0.0, 0.0006315902, -0.015627848, 0.0 
1.2207031e-2, 1.11478366e+1, -0.015640652, -30774.457, 0.017942924, 0.0, 0.00053956476, -0.015640642, 0.0 
1.2207031e-2, 1.11715324e+1, -0.015574712, -30770.352, 0.48521236, 0.0, 0.0004422726, -0.015567061, 0.0 
1.2207031e-2, 1.1195228e+1, -0.015502345, -30735.535, 0.47387788, 0.0, 0.00069141114, -0.015495039, 0.0 
1.2207031e-2, 1.12189256e+1, -0.015426622, -30730.97, -0.29943472, 0.0, 0.0007132813, -0.015423704, 0.0 
1.2207031e-2, 1.1242622e+1, -0.01540908, -30698.475, 0.8561883, 0.0, 0.00045268837, -0.015385201, 0.0 
1.2207031e-2, 1.126632e+1, -0.015411189, -30691.768, 1.3602259, 0.0, 0.00047385375, -0.015350905, 0.0 
1.2207031e-2, 1.1290018e+1, -0.0154698845, -30658.59, -0.3272131, 0.0, 0.0007325731, -0.015466392, 0.0 
1.2207031e-2, 1.13137156e+1, -0.015507474, -30653.396, -0.5218895, 0.0, 0.00063979684, -0.015498588, 0.0 
1.2207031e-2, 1.13374144e+1, -0.015576036, -30621.768, 1.1788894, 0.0, 0.0005081705, -0.0155306505, 0.0 
1.2207031e-2, 1.1361113e+1, -0.015616916, -30612.441, 1.1524904, 0.0, 0.0006581668, -0.015573527, 0.0 
1.2207031e-2, 1.13848135e+1, -0.015673185, -30581.508, -0.18402085, 0.0, 0.0006481683, -0.015672076, 0.0 
1.2207031e-2, 1.1408514e+1, -0.015672307, -30574.617, 0.33938432, 0.0, 0.0004772519, -0.01566854, 0.0 
1.2207031e-2, 1.1432214e+1, -0.015711082, -30542.502, 1.1356567, 0.0, 0.0006437286, -0.015668856, 0.0 
1.2207031e-2, 1.1455915e+1, -0.015712129, -30534.684, -2.5955915, 0.0, 0.0007778182, -0.01549149, 0.0 
1.2207031e-2, 1.1479616e+1, -0.015751442, -30504.512, 0.8099901, 0.0, 0.0005509189, -0.015729934, 0.0 
1.2207031e-2, 1.1503318e+1, -0.015770992, -30494.916, 1.3935579, 0.0, 0.0005215199, -0.01570731, 0.0 
1.2207031e-2, 1.15270205e+1, -0.0158507, -30464.709, -0.55349135, 0.0, 0.00071681995, -0.015840644, 0.0 
1.2207031e-2, 1.1550723e+1, -0.01590722, -30455.824, -0.42780825, 0.0, 0.00061854377, -0.015901212, 0.0 
1.2207031e-2, 1.15744255e+1, -0.016014373, -30427.896, 0.6437383, 0.0, 0.000562173, -0.016000755, 0.0 
1.2207031e-2, 1.15981296e+1, -0.016091434, -30414.64, 0.61532176, 0.0, 0.0007528725, -0.016078984, 0.0 
1.2207031e-2, 1.16218336e+1, -0.01617752, -30388.977, 0.113010146, 0.0, 0.0006733176, -0.0161771, 0.0 
1.2207031e-2, 1.1645538e+1, -0.016214073, -30375.967, 0.6490164, 0.0, 0.00045427517, -0.016200205, 0.0 
1.2207031e-2, 1.1669243e+1, -0.016235782, -30349.838, 0.57098687, 0.0, 0.00065724045, -0.01622504, 0.0 
1.2207031e-2, 1.1692949e+1, -0.016209016, -30335.96, -0.5490563, 0.0, 0.0007893139, -0.016199078, 0.0 
1.2207031e-2, 1.1716654e+1, -0.016148016, -30311.746, -0.018435137, 0.0, 0.00057992514, -0.016148005, 0.0 
1.2207031e-2, 1.17403604e+1, -0.016057273, -30297.227, 1.2985704, 0.0, 0.00059648865, -0.016001614, 0.0 
1.2207031e-2, 1.1764067e+1, -0.015994042, -30271.117, 0.13382772, 0.0, 0.00074875733, -0.01599345, 0.0 
1.2207031e-2, 1.17877744e+1, -0.015975518, -30259.092, -0.01848714, 0.0, 0.00055177923, -0.015975507, 0.0 
1.2207031e-2, 1.18114814e+1, -0.016009826, -30233.555, 0.32220638, 0.0, 0.00057958026, -0.016006391, 0.0 
1.2207031e-2, 1.1835189e+1, -0.016110877, -30216.926, -6.8770075, 0.0, 0.0008135031, -0.014545751, 0.0 
1.2207031e-2, 1.1858897e+1, -0.016118793, -30194.703, -9.020782, 0.0, 0.0006481914, -0.013423799, 0.0 
1.2207031e-2, 1.1882606e+1, -0.016060906, -30180.285, -4.1545043, 0.0, 0.00054079836, -0.015489013, 0.0 
1.2207031e-2, 1.1906315e+1, -0.015944475, -30153.838, -0.07111557, 0.0, 0.00079325755, -0.015944308, 0.0 
1.2207031e-2, 1.1930025e+1, -0.015850099, -30141.176, -0.6392783, 0.0, 0.0006133173, -0.015836539, 0.0 
1.2207031e-2, 1.1953735e+1, -0.0157402, -30116.238, 1.0086784, 0.0, 0.0004982831, -0.015706416, 0.0 
1.2207031e-2, 1.1977445e+1, -0.015685534, -30098.92, -0.6368555, 0.0, 0.00085175165, -0.01567206, 0.0 
1.2207031e-2, 1.2001157e+1, -0.015647542, -30079.088, -1.2650709, 0.0, 0.00079475716, -0.015594335, 0.0 
1.2207031e-2, 1.2024868e+1, -0.015667953, -30061.67, 1.6097106, 0.0, 0.00047190936, -0.015581758, 0.0 
1.2207031e-2, 1.20485805e+1, -0.0157072, -30037.768, 0.17306052, 0.0, 0.0006980804, -0.015706202, 0.0 
1.2207031e-2, 1.2072292e+1, -0.01578915, -30022.572, -0.68588424, 0.0, 0.0007694556, -0.015773479, 0.0 
1.2207031e-2, 1.2096004e+1, -0.015856218, -30001.494, 1.8218014, 0.0, 0.0006145171, -0.015745591, 0.0 
1.2207031e-2, 1.2119718e+1, -0.015952129, -29980.672, -1.2704767, 0.0, 0.00073467585, -0.015898291, 0.0 
1.2207031e-2, 1.21434316e+1, -0.016058316, -29963.469, -2.2451882, 0.0, 0.0006972058, -0.015890082, 0.0 
1.2207031e-2, 1.2167146e+1, -0.016208315, -29944.227, 1.6902307, 0.0, 0.00063856965, -0.016112909, 0.0 
1.2207031e-2, 1.219086e+1, -0.016331498, -29920.686, -0.76382995, 0.0, 0.00081724307, -0.016312, 0.0 
1.2207031e-2, 1.2214575e+1, -0.016440723, -29907.229, -0.4657296, 0.0, 0.0006800571, -0.01643347, 0.0 
1.2207031e-2, 1.223829e+1, -0.016492656, -29883.225, 2.604703, 0.0, 0.00057577144, -0.016265623, 0.0 
1.2207031e-2, 1.2262006e+1, -0.016508533, -29862.86, -2.1913946, 0.0, 0.00081492844, -0.016347725, 0.0 
1.2207031e-2, 1.2285722e+1, -0.01650152, -29847.994, -0.19321191, 0.0, 0.00071268, -0.016500268, 0.0 
1.2207031e-2, 1.2309439e+1, -0.016478086, -29822.781, 1.876944, 0.0, 0.00066450925, -0.016359957, 0.0 
1.2207031e-2, 1.23331554e+1, -0.016421191, -29806.793, -3.9541674, 0.0, 0.00078116433, -0.015896631, 0.0 
1.2207031e-2, 1.23568736e+1, -0.016387818, -29789.164, 1.4889144, 0.0, 0.00069890165, -0.016313398, 0.0 
1.2207031e-2, 1.2380591e+1, -0.016365632, -29763.635, 1.3823776, 0.0, 0.00067427754, -0.016301429, 0.0 
1.2207031e-2, 1.240431e+1, -0.016370604, -29749.922, -3.3902805, 0.0, 0.00075113546, -0.01598425, 0.0 
1.2207031e-2, 1.2428028e+1, -0.0163935, -29740.617, 13.215716, 0.0, 0.00070551457, -0.010520883, 0.0 
1.2207031e-2, 1.2451748e+1, -0.020617442, -29705.05, -69.65103, 0.0, 0.0007554878, 0.14269629, 0.0 
1.2207031e-2, 1.24754675e+1, -0.01641346, -29688.482, 16.968674, 0.0, 0.00065638486, -0.0067148837, 0.0 
1.2207031e-2, 1.2499187e+1, -0.021119308, -29663.777, -88.47875, 0.0, 0.0007415247, 0.24278592, 0.0 
1.2207031e-2, 1.2522908e+1, -0.016359309, -29647.842, 5.460293, 0.0, 0.00073164795, -0.015353677, 0.0 
1.2207031e-2, 1.254663e+1, -0.016407467, -29626.53, -0.77418965, 0.0, 0.0007006104, -0.016387235, 0.0 
1.2207031e-2, 1.2570351e+1, -0.016471546, -29614.191, -0.19404688, 0.0, 0.00071780116, -0.016470274, 0.0 
1.2207031e-2, 1.2594073e+1, -0.016515298, -29588.205, -0.116032206, 0.0, 0.0007455593, -0.016514841, 0.0 
1.2207031e-2, 1.2617795e+1, -0.016567796, -29574.623, -0.706159, 0.0, 0.0006612374, -0.016550936, 0.0 
1.2207031e-2, 1.2641518e+1, -0.016611004, -29549.16, -0.25001308, 0.0, 0.0007144562, -0.01660889, 0.0 
1.2207031e-2, 1.2665242e+1, -0.016659614, -29536.096, -0.2190886, 0.0, 0.0007294306, -0.016657988, 0.0 
1.2207031e-2, 1.2688965e+1, -0.016695369, -29509.406, -0.34793139, 0.0, 0.0007163544, -0.016691267, 0.0 
1.2207031e-2, 1.2712689e+1, -0.016764708, -29498.072, -0.53264844, 0.0, 0.00067584444, -0.016755091, 0.0 
1.2207031e-2, 1.2736413e+1, -0.016821573, -29469.205, -0.37793028, 0.0, 0.0007071843, -0.016816726, 0.0 
1.2207031e-2, 1.2760139e+1, -0.016873887, -29459.623, -0.5990484, 0.0, 0.0007058252, -0.016861705, 0.0 
1.2207031e-2, 1.2783864e+1, -0.016863568, -29429.463, -1.1078525, 0.0, 0.00071120047, -0.016821863, 0.0 
1.2207031e-2, 1.280759e+1, -0.016868128, -29421.387, -0.7459087, 0.0, 0.0006799177, -0.016849216, 0.0 
1.2207031e-2, 1.2831315e+1, -0.016859774, -29390.012, -0.27244028, 0.0, 0.0006840216, -0.016857248, 0.0 
1.2207031e-2, 1.2855043e+1, -0.016882965, -29383.363, -0.3958545, 0.0, 0.000703256, -0.016877633, 0.0 
1.2207031e-2, 1.287877e+1, -0.016845834, -29349.99, -1.1197723, 0.0, 0.00071328884, -0.016803112, 0.0 
1.2207031e-2, 1.2902497e+1, -0.01685246, -29344.26, -0.33281058, 0.0, 0.00067565934, -0.016848687, 0.0 
1.2207031e-2, 1.2926225e+1, -0.016817424, -29310.611, -0.7016085, 0.0, 0.00066853355, -0.01680063, 0.0 
1.2207031e-2, 1.2949954e+1, -0.016834637, -29306.89, 0.22858962, 0.0, 0.00070051075, -0.016832855, 0.0 
1.2207031e-2, 1.2973683e+1, -0.016822811, -29270.654, -3.303409, 0.0, 0.00072189537, -0.016449995, 0.0 
1.2207031e-2, 1.2997411e+1, -0.016861267, -29266.42, -0.08670477, 0.0, 0.0006692495, -0.01686101, 0.0 
1.2207031e-2, 1.3021141e+1, -0.016879201, -29232.26, -0.724745, 0.0, 0.00065343385, -0.016861232, 0.0 
1.2207031e-2, 1.3044873e+1, -0.016983194, -29227.17, -0.29324615, 0.0, 0.00071592716, -0.016980253, 0.0 
1.2207031e-2, 1.3068603e+1, -0.017051026, -29193.363, -0.21996987, 0.0, 0.00070708815, -0.017049368, 0.0 
1.2207031e-2, 1.3092333e+1, -0.01717313, -29188.268, -0.38306665, 0.0, 0.00067207456, -0.017168103, 0.0 
1.2207031e-2, 1.3116065e+1, -0.017222878, -29154.068, -0.60518765, 0.0, 0.0006904825, -0.017210314, 0.0 
1.2207031e-2, 1.3139798e+1, -0.01728883, -29150.055, -0.4453583, 0.0, 0.0007063465, -0.017282026, 0.0 
1.2207031e-2, 1.316353e+1, -0.017269047, -29114.24, 0.17078078, 0.0, 0.00067257386, -0.017268047, 0.0 
1.2207031e-2, 1.3187262e+1, -0.017266052, -29110.936, -0.38445717, 0.0, 0.00070353836, -0.017260974, 0.0 
1.2207031e-2, 1.3210995e+1, -0.017204715, -29074.621, -0.81059444, 0.0, 0.0007110096, -0.017182115, 0.0 
1.2207031e-2, 1.323473e+1, -0.017171605, -29073.43, -0.0010824946, 0.0, 0.0006920283, -0.017171605, 0.0 
1.2207031e-2, 1.3258463e+1, -0.017126432, -29034.113, -0.5193354, 0.0, 0.0007013985, -0.017117143, 0.0 
1.2207031e-2, 1.3282198e+1, -0.017128201, -29033.926, -1.1385815, 0.0, 0.000704777, -0.017083552, 0.0 
1.2207031e-2, 1.3305932e+1, -0.017108617, -28996.43, -0.48302096, 0.0, 0.0007064165, -0.017100573, 0.0 
1.2207031e-2, 1.3329668e+1, -0.017133135, -28994.11, -0.8063202, 0.0, 0.0007206006, -0.017110711, 0.0 
1.2207031e-2, 1.3353404e+1, -0.017118571, -28957.252, -0.92187065, 0.0, 0.0006930417, -0.017089223, 0.0 
1.2207031e-2, 1.337714e+1, -0.01711832, -28955.258, -0.22057146, 0.0, 0.00069930166, -0.01711664, 0.0 
1.2207031e-2, 1.3400878e+1, -0.017115796, -28918.092, -0.58501595, 0.0, 0.0007536738, -0.01710396, 0.0 
1.2207031e-2, 1.3424616e+1, -0.017134327, -28916.66, -0.3161469, 0.0, 0.0007004461, -0.017130872, 0.0 
1.2207031e-2, 1.3448353e+1, -0.017154703, -28878.975, 0.49676847, 0.0, 0.0007086535, -0.017146159, 0.0 
1.2207031e-2, 1.347209e+1, -0.017175023, -28876.762, -0.24818225, 0.0, 0.0007436384, -0.01717289, 0.0 
1.2207031e-2, 1.349583e+1, -0.017214859, -28840.098, -0.22830959, 0.0, 0.00070446584, -0.01721305, 0.0 
1.2207031e-2, 1.3519569e+1, -0.017290527, -28837.87, 0.5515424, 0.0, 0.00068123237, -0.017279979, 0.0 
1.2207031e-2, 1.3543308e+1, -0.017372508, -28800.818, -0.42394966, 0.0, 0.0007912882, -0.017366268, 0.0 
1.2207031e-2, 1.3567048e+1, -0.017460806, -28799.201, -0.43648505, 0.0, 0.0007168283, -0.01745419, 0.0 
1.2207031e-2, 1.3590787e+1, -0.017589219, -28762.707, 0.6640883, 0.0, 0.0006937289, -0.017573887, 0.0 
1.2207031e-2, 1.361453e+1, -0.017743606, -28758.08, -0.018210363, 0.0, 0.00074934715, -0.017743595, 0.0 
1.2207031e-2, 1.363827e+1, -0.01784715, -28723.646, -0.27728102, 0.0, 0.00073653023, -0.017844474, 0.0 
1.2207031e-2, 1.366201e+1, -0.01792079, -28719.781, -6.2228484, 0.0, 0.0006616212, -0.016572457, 0.0 
1.2207031e-2, 1.3685754e+1, -0.017925024, -28685.494, -0.5805611, 0.0, 0.00079054467, -0.017913274, 0.0 
1.2207031e-2, 1.3709496e+1, -0.01794287, -28682.004, 0.60809857, 0.0, 0.00075445155, -0.017929979, 0.0 
1.2207031e-2, 1.373324e+1, -0.018075466, -28645.41, -15.544879, 0.0, 0.0006965834, -0.009639791, 0.0 
1.2207031e-2, 1.3756983e+1, -0.017859774, -28640.46, 1.0370866, 0.0, 0.00068109436, -0.017822219, 0.0 
1.2207031e-2, 1.3780726e+1, -0.017804189, -28608.459, 0.6718049, 0.0, 0.0007804765, -0.017788412, 0.0 
1.2207031e-2, 1.380447e+1, -0.017808594, -28602.453, 1.103717, 0.0, 0.00074978446, -0.017766003, 0.0 
1.2207031e-2, 1.3828215e+1, -0.01781227, -28569.043, -0.5025996, 0.0, 0.00072016113, -0.017803429, 0.0 
1.2207031e-2, 1.385196e+1, -0.017871158, -28563.3, -0.5868712, 0.0, 0.0006727016, -0.017859101, 0.0 
1.2207031e-2, 1.3875705e+1, -0.0178967, -28531.29, 0.6841883, 0.0, 0.0007680238, -0.017880294, 0.0 
1.2207031e-2, 1.3899451e+1, -0.017929848, -28523.162, 1.123244, 0.0, 0.0007621262, -0.017885614, 0.0 
1.2207031e-2, 1.3923198e+1, -0.017926132, -28491.158, 0.055987913, 0.0, 0.0007203517, -0.017926022, 0.0 
1.2207031e-2, 1.3946944e+1, -0.0179187, -28484.42, -1.1452093, 0.0, 0.0006758681, -0.017872658, 0.0 
1.2207031e-2, 1.3970692e+1, -0.017874813, -28455.422, 1.4110991, 0.0, 0.0007694865, -0.017804837, 0.0 
1.2207031e-2, 1.399444e+1, -0.0178314, -28443.621, -5.269919, 0.0, 0.00074254605, -0.01685501, 0.0 
1.2207031e-2, 1.4018188e+1, -0.017717006, -28412.867, 0.74155015, 0.0, 0.0007030717, -0.017697651, 0.0 
1.2207031e-2, 1.4041936e+1, -0.017656261, -28405.393, -1.2437575, 0.0, 0.00076033454, -0.017601803, 0.0 
1.2207031e-2, 1.4065686e+1, -0.017616717, -28376.621, 0.06461819, 0.0, 0.0007842626, -0.01761657, 0.0 
1.2207031e-2, 1.4089435e+1, -0.017562712, -28365.037, 1.5611098, 0.0, 0.0006131752, -0.017476793, 0.0 
1.2207031e-2, 1.4113185e+1, -0.017545119, -28336.531, -0.09395976, 0.0, 0.0007013377, -0.017544808, 0.0 
1.2207031e-2, 1.4136936e+1, -0.017566916, -28325.326, -1.0608172, 0.0, 0.00093044114, -0.017527187, 0.0 
1.2207031e-2, 1.4160687e+1, -0.017676067, -28300.031, 0.31205493, 0.0, 0.0007674585, -0.017672626, 0.0 
1.2207031e-2, 1.4184438e+1, -0.017790701, -28285.809, 1.3512807, 0.0, 0.0004959684, -0.017726148, 0.0 
1.2207031e-2, 1.420819e+1, -0.017925112, -28259.69, 0.019129656, 0.0, 0.0007471966, -0.017925099, 0.0 
1.2207031e-2, 1.4231943e+1, -0.018026013, -28244.719, -1.0428547, 0.0, 0.00096866314, -0.017987508, 0.0 
1.2207031e-2, 1.4255695e+1, -0.018136628, -28224.613, 0.19030781, 0.0, 0.0007129918, -0.018135345, 0.0 
1.2207031e-2, 1.4279447e+1, -0.018218964, -28203.824, 0.77202946, 0.0, 0.0006025797, -0.01819783, 0.0 
1.2207031e-2, 1.4303201e+1, -0.018302029, -28184.744, -0.36604354, 0.0, 0.00079768803, -0.018297274, 0.0 
1.2207031e-2, 1.4326955e+1, -0.018361866, -28165.389, -0.48892817, 0.0, 0.0008096581, -0.018353378, 0.0 
1.2207031e-2, 1.435071e+1, -0.018419951, -28146.236, -0.006647855, 0.0, 0.00068618543, -0.01841995, 0.0 
1.2207031e-2, 1.4374465e+1, -0.01850585, -28125.164, -0.19493724, 0.0, 0.0007955529, -0.0185045, 0.0 
1.2207031e-2, 1.4398219e+1, -0.018640576, -28108.168, -0.57336, 0.0, 0.0008370819, -0.01862888, 0.0 
1.2207031e-2, 1.4421976e+1, -0.018766997, -28086.256, 0.35367456, 0.0, 0.0006650277, -0.018762544, 0.0 
1.2207031e-2, 1.4445731e+1, -0.01880897, -28068.172, 0.6951559, 0.0, 0.0006623027, -0.018791754, 0.0 
1.2207031e-2, 1.4469486e+1, -0.01886408, -28045.33, -0.70644873, 0.0, 0.0009288561, -0.018846285, 0.0 
1.2207031e-2, 1.4493245e+1, -0.018898819, -28031.54, -1.0876666, 0.0, 0.00083771284, -0.018856615, 0.0 
1.2207031e-2, 1.4517002e+1, -0.01895252, -28007.918, 1.3455727, 0.0, 0.00061748613, -0.018887876, 0.0 
1.2207031e-2, 1.4540759e+1, -0.018896352, -27989.861, 0.779064, 0.0, 0.0007724696, -0.018874668, 0.0 
1.2207031e-2, 1.4564519e+1, -0.018905561, -27966.777, -1.181559, 0.0, 0.00087421614, -0.018855643, 0.0 
1.2207031e-2, 1.4588277e+1, -0.018895544, -27953.955, 0.13426286, 0.0, 0.00069718313, -0.0188949, 0.0 
1.2207031e-2, 1.4612035e+1, -0.018959865, -27925.729, -0.9728995, 0.0, 0.00079371093, -0.01892597, 0.0 
1.2207031e-2, 1.4635795e+1, -0.018973276, -27915.598, -3.5265572, 0.0, 0.00089534244, -0.018527769, 0.0 
1.2207031e-2, 1.4659555e+1, -0.019030582, -27890.508, -1.032784, 0.0, 0.0007027406, -0.018992336, 0.0 
1.2207031e-2, 1.4683317e+1, -0.018967843, -27875.91, 1.0921266, 0.0, 0.0007218998, -0.018925056, 0.0 
1.2207031e-2, 1.4707077e+1, -0.01888608, -27848.678, -0.6605741, 0.0, 0.00088988285, -0.018870411, 0.0 
1.2207031e-2, 1.473084e+1, -0.018728565, -27838.764, -0.5981931, 0.0, 0.0007620833, -0.018715711, 0.0 
1.2207031e-2, 1.4754601e+1, -0.018625166, -27809.848, 0.55625635, 0.0, 0.00074658624, -0.01861404, 0.0 
1.2207031e-2, 1.4778362e+1, -0.01851814, -27798.148, -0.14100063, 0.0, 0.0009239257, -0.018517425, 0.0 
1.2207031e-2, 1.4802125e+1, -0.01848207, -27771.924, 0.18951094, 0.0, 0.0007748452, -0.018480778, 0.0 
1.2207031e-2, 1.4825888e+1, -0.018462656, -27759.6, 0.875709, 0.0, 0.0006526234, -0.018435031, 0.0 
1.2207031e-2, 1.4849652e+1, -0.018523501, -27730.879, -0.31610364, 0.0, 0.00088131824, -0.018519897, 0.0 
1.2207031e-2, 1.4873415e+1, -0.01857644, -27720.63, -0.6117289, 0.0, 0.00089359464, -0.01856294, 0.0 
1.2207031e-2, 1.4897181e+1, -0.01864797, -27693.828, 0.68902045, 0.0, 0.00072252634, -0.018630829, 0.0 
1.2207031e-2, 1.4920945e+1, -0.018682988, -27681.217, 0.97594714, 0.0, 0.00082683883, -0.01864858, 0.0 
1.2207031e-2, 1.4944711e+1, -0.01870289, -27653.793, -3.1272154, 0.0, 0.00083819934, -0.01834925, 0.0 
1.2207031e-2, 1.4968476e+1, -0.018684082, -27642.516, 1.3506314, 0.0, 0.0007523906, -0.018618088, 0.0 
1.2207031e-2, 1.4992243e+1, -0.01865506, -27613.703, -0.032637723, 0.0, 0.00085026125, -0.01865502, 0.0 
1.2207031e-2, 1.5016009e+1, -0.018654171, -27603.666, -2.4082646, 0.0, 0.00081947126, -0.018444065, 0.0 
1.2207031e-2, 1.5039776e+1, -0.018684652, -27576.1, -1.3279735, 0.0, 0.0007342649, -0.0186207, 0.0 
1.2207031e-2, 1.5063544e+1, -0.018754639, -27564.027, 1.7379041, 0.0, 0.00094478583, -0.018645063, 0.0 
1.2207031e-2, 1.5087312e+1, -0.018816594, -27535.045, -0.013244051, 0.0, 0.0008629021, -0.018816588, 0.0 
1.2207031e-2, 1.511108e+1, -0.01888888, -27527.611, -0.10498334, 0.0, 0.0006299914, -0.01888848, 0.0 
1.2207031e-2, 1.5134849e+1, -0.018884895, -27494.799, 0.29298806, 0.0, 0.00086529204, -0.018881772, 0.0 
1.2207031e-2, 1.5158617e+1, -0.018927295, -27488.38, 0.32119817, 0.0, 0.00093346526, -0.018923542, 0.0 
1.2207031e-2, 1.5182388e+1, -0.019025225, -27455.97, 1.0384085, 0.0, 0.000718775, -0.018985951, 0.0 
1.2207031e-2, 1.5206158e+1, -0.019134667, -27448.576, -0.50544095, 0.0, 0.0008819399, -0.019125361, 0.0 
1.2207031e-2, 1.5229928e+1, -0.019119076, -27418.14, -0.9607926, 0.0, 0.0009119539, -0.01908541, 0.0 
1.2207031e-2, 1.52537e+1, -0.019080117, -27411.045, 2.0238059, 0.0, 0.0006686532, -0.018930696, 0.0 
1.2207031e-2, 1.5277472e+1, -0.019029394, -27375.04, 0.6672747, 0.0, 0.00088483933, -0.01901313, 0.0 
1.2207031e-2, 1.5301244e+1, -0.018989652, -27372.168, -1.5832521, 0.0, 0.0008966119, -0.018898074, 0.0 
1.2207031e-2, 1.5325016e+1, -0.01888874, -27339.852, 0.8915747, 0.0, 0.00070888083, -0.018859664, 0.0 
1.2207031e-2, 1.5348788e+1, -0.018858153, -27330.477, 0.10483788, 0.0, 0.0009297516, -0.018857753, 0.0 
1.2207031e-2, 1.5372561e+1, -0.018874021, -27300.645, -0.6649533, 0.0, 0.0009950503, -0.018857826, 0.0 
1.2207031e-2, 1.5396336e+1, -0.018986207, -27293.146, 1.6187326, 0.0, 0.00064125494, -0.0188902, 0.0 
1.2207031e-2, 1.5420109e+1, -0.019128956, -27259.47, -0.4295847, 0.0, 0.00078792265, -0.019122185, 0.0 
1.2207031e-2, 1.5443884e+1, -0.019302608, -27255.494, 0.25179985, 0.0, 0.0009882626, -0.019300282, 0.0 
1.2207031e-2, 1.5467659e+1, -0.019433707, -27220.191, 1.5981178, 0.0, 0.0009406276, -0.01933988, 0.0 
1.2207031e-2, 1.5491435e+1, -0.01957389, -27214.748, -1.4720911, 0.0, 0.00074063556, -0.019494262, 0.0 
1.2207031e-2, 1.551521e+1, -0.019652188, -27183.518, 1.3754711, 0.0, 0.00080178166, -0.01958259, 0.0 
1.2207031e-2, 1.5538988e+1, -0.0198002, -27173.592, 0.2771557, 0.0, 0.00094625854, -0.019797372, 0.0 
1.2207031e-2, 1.5562764e+1, -0.019904602, -27144.678, -3.7910461, 0.0, 0.0009434852, -0.019375142, 0.0 
1.2207031e-2, 1.5586542e+1, -0.019999884, -27135.73, -1.0523058, 0.0, 0.000785612, -0.019959075, 0.0 
1.2207031e-2, 1.561032e+1, -0.020028122, -27096.273, -9.045807, 0.0, 0.0008828743, -0.017008273, 0.0 
1.2207031e-2, 1.5634097e+1, -0.020069137, -27101.027, -17.3853, 0.0, 0.00086119596, -0.008916471, 0.0 
1.2207031e-2, 1.5657875e+1, -0.020120122, -27070.633, -7.6553526, 0.0, 0.0009977537, -0.01795525, 0.0 
1.2207031e-2, 1.5681654e+1, -0.020150008, -27059.305, 0.5468618, 0.0, 0.0008789228, -0.020138955, 0.0 
1.2207031e-2, 1.5705433e+1, -0.020174686, -27025.975, -0.2976017, 0.0, 0.0007277074, -0.020171408, 0.0 
1.2207031e-2, 1.5729214e+1, -0.020184329, -27021.041, -0.19381933, 0.0, 0.0009125393, -0.02018294, 0.0 
1.2207031e-2, 1.5752994e+1, -0.020172017, -26984.898, -0.050288282, 0.0, 0.0011701065, -0.020171924, 0.0 
1.2207031e-2, 1.5776774e+1, -0.020156574, -26982.438, -0.0824021, 0.0, 0.00079356413, -0.020156322, 0.0 
1.2207031e-2, 1.5800555e+1, -0.020231744, -26946.906, 0.574234, 0.0, 0.0007236497, -0.020219507, 0.0 
1.2207031e-2, 1.5824337e+1, -0.02032712, -26941.371, -0.31191298, 0.0, 0.0009950587, -0.02032351, 0.0 
1.2207031e-2, 1.584812e+1, -0.02041377, -26908.18, -0.7290753, 0.0, 0.0010431652, -0.020394014, 0.0 
1.2207031e-2, 1.5871902e+1, -0.020336615, -26904.248, 0.89840806, 0.0, 0.0008129438, -0.020306615, 0.0 
1.2207031e-2, 1.5895686e+1, -0.020311903, -26868.793, -3.2956567, 0.0, 0.00093237497, -0.019907666, 0.0 
1.2207031e-2, 1.5919468e+1, -0.020222012, -26863.338, -0.05679099, 0.0, 0.0009298639, -0.02022189, 0.0 
1.2207031e-2, 1.5943253e+1, -0.020200724, -26830.363, 0.24968639, 0.0, 0.0009043754, -0.0201984, 0.0 
1.2207031e-2, 1.5967037e+1, -0.020086555, -26823.559, -1.5651679, 0.0, 0.0009390071, -0.019995226, 0.0 
1.2207031e-2, 1.599082e+1, -0.020054076, -26792.072, -1.4767498, 0.0, 0.0009179438, -0.019972678, 0.0 
1.2207031e-2, 1.6014606e+1, -0.019959088, -26785.367, 0.1761015, 0.0, 0.0008670569, -0.019957932, 0.0 
1.2207031e-2, 1.6038391e+1, -0.019977015, -26751.762, -0.45571268, 0.0, 0.0010189995, -0.019969251, 0.0 
1.2207031e-2, 1.6062178e+1, -0.019902185, -26746.451, -0.46550402, 0.0, 0.0009336669, -0.019894082, 0.0 
1.2207031e-2, 1.6085964e+1, -0.019930376, -26713.988, 0.74097675, 0.0, 0.00083239254, -0.019909821, 0.0 
1.2207031e-2, 1.6109751e+1, -0.019928202, -26705.838, 0.11648952, 0.0, 0.0009445859, -0.019927695, 0.0 
1.2207031e-2, 1.613354e+1, -0.019976592, -26674.672, -1.1222956, 0.0, 0.0009668371, -0.019929372, 0.0 
1.2207031e-2, 1.6157326e+1, -0.019948918, -26667.904, -0.29935718, 0.0, 0.00089521747, -0.019945558, 0.0 
1.2207031e-2, 1.6181114e+1, -0.019918451, -26637.445, 0.5921849, 0.0, 0.00093326723, -0.019905286, 0.0 
1.2207031e-2, 1.6204903e+1, -0.019849723, -26625.158, -0.14719626, 0.0, 0.0009024342, -0.01984891, 0.0 
1.2207031e-2, 1.6228694e+1, -0.01988131, -26598.34, -2.510624, 0.0, 0.00092763494, -0.019644331, 0.0 
1.2207031e-2, 1.6252482e+1, -0.019912444, -26587.895, -2.8369346, 0.0, 0.0009534265, -0.019609742, 0.0 
1.2207031e-2, 1.6276272e+1, -0.019953152, -26563.918, 2.5052798, 0.0, 0.00084657106, -0.019716876, 0.0 
1.2207031e-2, 1.6300063e+1, -0.020007284, -26543.297, 2.7619765, 0.0, 0.0009855428, -0.019719884, 0.0 
1.2207031e-2, 1.6323854e+1, -0.020120837, -26521.004, -3.9646144, 0.0, 0.00091798004, -0.01952817, 0.0 
1.2207031e-2, 1.6347645e+1, -0.020224294, -26510.234, -1.8179284, 0.0, 0.0007129605, -0.020099629, 0.0 
1.2207031e-2, 1.6371436e+1, -0.02034916, -26484.629, 2.7169907, 0.0, 0.0010381658, -0.020070432, 0.0 
1.2207031e-2, 1.6395229e+1, -0.020492533, -26465.844, 0.8001293, 0.0, 0.0011741368, -0.020468343, 0.0 
1.2207031e-2, 1.6419022e+1, -0.020673387, -26444.455, -0.91620326, 0.0, 0.0006303649, -0.020641644, 0.0 
1.2207031e-2, 1.6442814e+1, -0.020784013, -26428.188, -3.4944482, 0.0, 0.00072302634, -0.020321961, 0.0 
1.2207031e-2, 1.6466609e+1, -0.020886237, -26412.754, 1.6600229, 0.0, 0.0011102295, -0.020781904, 0.0 
1.2207031e-2, 1.6490403e+1, -0.02096006, -26384.426, 6.804884, 0.0, 0.0010441608, -0.019204993, 0.0 
1.2207031e-2, 1.6514197e+1, -0.021004457, -26366.463, -4.549204, 0.0, 0.0007497755, -0.020219548, 0.0 
1.2207031e-2, 1.6537991e+1, -0.021017993, -26356.797, -1.8456519, 0.0, 0.0007362494, -0.020888751, 0.0 
1.2207031e-2, 1.6561787e+1, -0.021880977, -26334.482, -25.894655, 0.0, 0.0009462819, 0.0035811944, 0.0 
1.2207031e-2, 1.6585582e+1, -0.021087805, -26301.197, 10.974136, 0.0, 0.001160388, -0.016508859, 0.0 
1.2207031e-2, 1.6609378e+1, -0.021181632, -26290.39, -2.509804, 0.0, 0.0008017163, -0.020942034, 0.0 
1.2207031e-2, 1.6633175e+1, -0.021466285, -26270.363, -21.478045, 0.0, 0.00050863205, -0.003906327, 0.0 
1.2207031e-2, 1.6656972e+1, -0.021402959, -26257.652, 5.206241, 0.0, 0.00096858025, -0.020370688, 0.0 
1.2207031e-2, 1.6680771e+1, -0.02148711, -26225.691, 4.399579, 0.0, 0.0013539868, -0.020749044, 0.0 
1.2207031e-2, 1.6704567e+1, -0.021572111, -26213.727, -2.362306, 0.0, 0.00069001375, -0.021359226, 0.0 
1.2207031e-2, 1.6728367e+1, -0.021567104, -26189.627, -3.523783, 0.0, 0.00047428018, -0.021092983, 0.0 
1.2207031e-2, 1.6752166e+1, -0.021539181, -26180.508, 1.182958, 0.0, 0.0010702342, -0.021485731, 0.0 
1.2207031e-2, 1.6775964e+1, -0.021481967, -26146.557, 2.5702004, 0.0, 0.001085328, -0.021229316, 0.0 
1.2207031e-2, 1.6799764e+1, -0.021460176, -26139.348, -0.5973747, 0.0, 0.00067132723, -0.021446522, 0.0 
1.2207031e-2, 1.6823564e+1, -0.021454433, -26109.594, -2.1158874, 0.0, 0.000904493, -0.021282963, 0.0 
1.2207031e-2, 1.6847365e+1, -0.021529095, -26102.064, 0.21771315, 0.0, 0.0009498876, -0.02152728, 0.0 
1.2207031e-2, 1.6871166e+1, -0.02163241, -26067.242, 0.82898176, 0.0, 0.00069836754, -0.021606047, 0.0 
1.2207031e-2, 1.6894968e+1, -0.021731136, -26063.182, -2.314015, 0.0, 0.00082526775, -0.021525687, 0.0 
1.2207031e-2, 1.691877e+1, -0.021751553, -26031.652, 1.3834226, 0.0, 0.0010769313, -0.021678032, 0.0 
1.2207031e-2, 1.6942571e+1, -0.021756126, -26020.705, 0.98251516, 0.0, 0.000861227, -0.021719027, 0.0 
1.2207031e-2, 1.6966376e+1, -0.021736952, -25989.781, -3.4146342, 0.0, 0.00065995904, -0.021288322, 0.0 
1.2207031e-2, 1.6990177e+1, -0.021707755, -25987.656, -0.8829928, 0.0, 0.0008409505, -0.021677753, 0.0 
1.2207031e-2, 1.701398e+1, -0.021672048, -25951.553, 3.8984694, 0.0, 0.0010633421, -0.021086415, 0.0 
1.2207031e-2, 1.7037787e+1, -0.021681003, -25942.762, 0.53697073, 0.0, 0.0008260934, -0.021669889, 0.0 
1.2207031e-2, 1.706159e+1, -0.02166833, -25912.016, -3.262676, 0.0, 0.0007354443, -0.021257514, 0.0 
1.2207031e-2, 1.7085396e+1, -0.021713126, -25908.662, -1.1226835, 0.0, 0.00095572683, -0.021664478, 0.0 
1.2207031e-2, 1.7109202e+1, -0.02176627, -25873.828, 3.4608438, 0.0, 0.0008400942, -0.021303352, 0.0 
1.2207031e-2, 1.7133006e+1, -0.02181138, -25865.049, 1.7341675, 0.0, 0.0007505127, -0.02169511, 0.0 
1.2207031e-2, 1.7156813e+1, -0.021829294, -25832.96, -3.7965522, 0.0, 0.0010156913, -0.021271331, 0.0 
1.2207031e-2, 1.718062e+1, -0.021839546, -25831.467, 0.5595357, 0.0, 0.00091297604, -0.021827426, 0.0 
1.2207031e-2, 1.7204428e+1, -0.02184491, -25792.031, 2.3193226, 0.0, 0.0007188179, -0.021636346, 0.0 
1.2207031e-2, 1.7228235e+1, -0.021865247, -25791.273, -3.265198, 0.0, 0.00089428306, -0.02145187, 0.0 
1.2207031e-2, 1.7252043e+1, -0.021877043, -25758.686, 3.2900572, 0.0, 0.00094813586, -0.021456815, 0.0 
1.2207031e-2, 1.7275852e+1, -0.022826465, -25740.127, -43.903057, 0.0, 0.0007739943, 0.052055623, 0.0 
1.2207031e-2, 1.7299661e+1, -0.021826502, -25708.64, -20.100067, 0.0, 0.0008937391, -0.006111444, 0.0 
1.2207031e-2, 1.7323472e+1, -0.0217158, -25721.57, -20.995716, 0.0, 0.0010920588, -0.004577647, 0.0 
1.2207031e-2, 1.734728e+1, -0.02167975, -25683.357, -1.246481, 0.0, 0.0007602339, -0.021619255, 0.0 
1.2207031e-2, 1.737109e+1, -0.02171746, -25669.742, 3.062377, 0.0, 0.0005525456, -0.021352122, 0.0 
1.2207031e-2, 1.7394902e+1, -0.021830952, -25639.316, -2.2426002, 0.0, 0.0011595458, -0.021634798, 0.0 
1.2207031e-2, 1.7418712e+1, -0.021855751, -25634.502, -0.86916465, 0.0, 0.001211442, -0.02182628, 0.0 
1.2207031e-2, 1.7442524e+1, -0.021973418, -25602.553, 1.9316158, 0.0, 0.0005668917, -0.021827687, 0.0 
1.2207031e-2, 1.7466335e+1, -0.02200116, -25591.299, 0.55185586, 0.0, 0.00074086693, -0.02198926, 0.0 
1.2207031e-2, 1.7490149e+1, -0.022058189, -25564.428, 0.021465579, 0.0, 0.0011929441, -0.022058172, 0.0 
1.2207031e-2, 1.7513962e+1, -0.022013433, -25553.438, 2.138912, 0.0, 0.00076497777, -0.021834398, 0.0 
1.2207031e-2, 1.7537776e+1, -0.022029072, -25522.152, 0.053168613, 0.0, 0.00079028285, -0.02202896, 0.0 
1.2207031e-2, 1.7561588e+1, -0.022010127, -25514.43, -2.711075, 0.0, 0.0013166956, -0.021722058, 0.0 
1.2207031e-2, 1.7585403e+1, -0.022101413, -25488.004, 1.8479947, 0.0, 0.00084433984, -0.021967426, 0.0 
1.2207031e-2, 1.7609219e+1, -0.022135561, -25475.373, 5.658316, 0.0, 0.00039732223, -0.020878796, 0.0 
1.2207031e-2, 1.7633034e+1, -0.022272324, -25442.45, -8.1826315, 0.0, 0.0011776452, -0.019640679, 0.0 
1.2207031e-2, 1.765685e+1, -0.022233102, -25437.703, -1.476935, 0.0, 0.0012728546, -0.02214735, 0.0 
1.2207031e-2, 1.7680664e+1, -0.02226825, -25407.703, 1.8186103, 0.0, 0.00063445035, -0.02213808, 0.0 
1.2207031e-2, 1.7704481e+1, -0.022251057, -25397.488, 3.361202, 0.0, 0.0009291271, -0.021806221, 0.0 
1.2207031e-2, 1.7728299e+1, -0.022406269, -25367.033, -13.174979, 0.0, 0.0011561724, -0.0155635215, 0.0 
1.2207031e-2, 1.7752115e+1, -0.022231651, -25359.549, 4.9481597, 0.0, 0.0005884349, -0.021266166, 0.0 
1.2207031e-2, 1.7775935e+1, -0.022131262, -25324.336, 0.54300624, 0.0, 0.0009419866, -0.022119619, 0.0 
1.2207031e-2, 1.7799751e+1, -0.022023609, -25319.02, -4.1548066, 0.0, 0.001341791, -0.021341812, 0.0 
1.2207031e-2, 1.7823571e+1, -0.021932213, -25293.523, 1.4350615, 0.0, 0.00078058365, -0.021850793, 0.0 
1.2207031e-2, 1.7847389e+1, -0.021943122, -25278.34, 4.132117, 0.0, 0.000783716, -0.021267666, 0.0 
1.2207031e-2, 1.787121e+1, -0.021981664, -25248.441, -1.0340406, 0.0, 0.001202817, -0.021939315, 0.0 
1.2207031e-2, 1.789503e+1, -0.022137955, -25242.71, -0.5881332, 0.0, 0.00074392976, -0.022124251, 0.0 
1.2207031e-2, 1.791885e+1, -0.02225177, -25211.006, 1.6745147, 0.0, 0.00081991474, -0.02214055, 0.0 
1.2207031e-2, 1.7942671e+1, -0.022443676, -25200.059, -1.23746, 0.0, 0.0013629344, -0.022382911, 0.0 
1.2207031e-2, 1.7966491e+1, -0.022494474, -25174.238, -0.79208237, 0.0, 0.0009580099, -0.022469552, 0.0 
1.2207031e-2, 1.7990315e+1, -0.022627568, -25164.201, 3.3154995, 0.0, 0.00063042465, -0.022190737, 0.0 
1.2207031e-2, 1.8014137e+1, -0.022610053, -25129.11, 0.8947107, 0.0, 0.0011477568, -0.022578198, 0.0 
1.2207031e-2, 1.803796e+1, -0.022693379, -25122.58, -4.1824245, 0.0, 0.0010077398, -0.021997085, 0.0 
1.2207031e-2, 1.8061782e+1, -0.022624824, -25095.855, -3.3144703, 0.0, 0.0008018371, -0.022187075, 0.0 
1.2207031e-2, 1.8085605e+1, -0.022721885, -25085.246, -2.0700998, 0.0, 0.0011956587, -0.022551054, 0.0 
1.2207031e-2, 1.810943e+1, -0.022606404, -25054.965, -1.0611299, 0.0, 0.0010069469, -0.022561464, 0.0 
1.2207031e-2, 1.8133254e+1, -0.0225933, -25046.725, 2.1536837, 0.0, 0.00077702623, -0.022408113, 0.0 
1.2207031e-2, 1.815708e+1, -0.022471739, -25013.854, 0.6774326, 0.0, 0.0012089262, -0.022453392, 0.0 
1.2207031e-2, 1.8180904e+1, -0.022661543, -25007.027, -1.4688065, 0.0, 0.0009086937, -0.02257527, 0.0 
1.2207031e-2, 1.8204731e+1, -0.022701656, -24977.758, 1.1178885, 0.0, 0.00070848526, -0.022651626, 0.0 
1.2207031e-2, 1.8228558e+1, -0.02291996, -24964.234, -0.72272223, 0.0, 0.0013480157, -0.022899037, 0.0 
1.2207031e-2, 1.8252385e+1, -0.022857696, -24939.85, -1.8606986, 0.0, 0.0011401832, -0.022718875, 0.0 
1.2207031e-2, 1.827621e+1, -0.023009699, -24928.615, 2.541988, 0.0, 0.0006678273, -0.022750491, 0.0 
1.2207031e-2, 1.8300039e+1, -0.022995487, -24897.637, 0.61774004, 0.0, 0.0010864593, -0.022980161, 0.0 
1.2207031e-2, 1.8323869e+1, -0.023175625, -24887.016, -1.9661409, 0.0, 0.0010880944, -0.023020294, 0.0 
1.2207031e-2, 1.8347694e+1, -0.023169007, -24862.037, 0.9862785, 0.0, 0.00094231917, -0.02312988, 0.0 
1.2207031e-2, 1.8371525e+1, -0.023293942, -24845.697, -0.2543311, 0.0, 0.0011331211, -0.023291338, 0.0 
1.2207031e-2, 1.8395354e+1, -0.023188574, -24826.447, -0.5854582, 0.0, 0.00081453234, -0.023174768, 0.0 
1.2207031e-2, 1.8419184e+1, -0.023346428, -24803.838, 0.31002223, 0.0, 0.0010159474, -0.023342552, 0.0 
1.2207031e-2, 1.8443014e+1, -0.02334888, -24787.31, -2.702258, 0.0, 0.0014654725, -0.023054285, 0.0 
1.2207031e-2, 1.8466845e+1, -0.02347941, -24767.121, 1.0091374, 0.0, 0.00079271273, -0.023438292, 0.0 
1.2207031e-2, 1.8490675e+1, -0.023412613, -24748.777, 2.64554, 0.0, 0.0006118994, -0.023129817, 0.0 
1.2207031e-2, 1.8514508e+1, -0.023489706, -24723.34, -3.004306, 0.0, 0.001357138, -0.023124631, 0.0 
1.2207031e-2, 1.853834e+1, -0.023363376, -24717.021, -0.18844992, 0.0, 0.0012377613, -0.02336194, 0.0 
1.2207031e-2, 1.8562172e+1, -0.023490567, -24680.887, -10.013066, 0.0, 0.00088432763, -0.01942825, 0.0 
1.2207031e-2, 1.8586004e+1, -0.023229437, -24675.594, 0.8404273, 0.0, 0.0008288343, -0.023200814, 0.0 
1.2207031e-2, 1.8609838e+1, -0.023199476, -24642.63, 0.56016374, 0.0, 0.0010573065, -0.023186741, 0.0 
1.2207031e-2, 1.8633673e+1, -0.023096599, -24636.482, -3.0513387, 0.0, 0.0013946183, -0.022718675, 0.0 
1.2207031e-2, 1.8657507e+1, -0.023246584, -24605.414, 0.37259275, 0.0, 0.0010306548, -0.023240943, 0.0 
1.2207031e-2, 1.8681341e+1, -0.023326632, -24598.447, 2.318665, 0.0, 0.00048734742, -0.023108073, 0.0 
1.2207031e-2, 1.8705176e+1, -0.023479741, -24563.523, -4.5387387, 0.0, 0.0011519494, -0.022641093, 0.0 
1.2207031e-2, 1.8729012e+1, -0.02348034, -24560.055, 0.07384308, 0.0, 0.0015710144, -0.02348012, 0.0 
1.2207031e-2, 1.8752848e+1, -0.023584075, -24509.303, -10.992886, 0.0, 0.00094887504, -0.018653555, 0.0 
1.2207031e-2, 1.8776684e+1, -0.023613056, -24521.984, -38.57566, 0.0, 0.0004966937, 0.037070423, 0.0 
1.2207031e-2, 1.8800522e+1, -0.023753108, -24503.285, -18.052896, 0.0, 0.0010695676, -0.010452556, 0.0 
1.2207031e-2, 1.8824358e+1, -0.023762122, -24479.691, 10.507495, 0.0, 0.0015952373, -0.019251954, 0.0 
1.2207031e-2, 1.8848196e+1, -0.023906618, -24445.78, -6.4076643, 0.0, 0.0010620506, -0.022227056, 0.0 
1.2207031e-2, 1.8872035e+1, -0.02415107, -24467.986, 10.736652, 0.0, 0.00037148813, -0.01943978, 0.0 
1.2207031e-2, 1.8895873e+1, -0.036248676, -24399.104, -111.78793, 0.0, 0.0011011985, 0.47591352, 0.0 
1.2207031e-2, 1.8919712e+1, -0.024465896, -24393.693, 21.785318, 0.0, 0.0015385239, -0.005010041, 0.0 
1.2207031e-2, 1.8943553e+1, -0.024511872, -24362.314, -4.3874702, 0.0, 0.0009414044, -0.023721721, 0.0 
1.2207031e-2, 1.8967392e+1, -0.024437584, -24369.092, -3.552193, 0.0, 0.0006803763, -0.023919793, 0.0 
1.2207031e-2, 1.8991232e+1, -0.024461074, -24326.256, -3.0075512, 0.0, 0.0011465419, -0.024089238, 0.0 
1.2207031e-2, 1.9015074e+1, -0.024402644, -24331.375, 2.6555426, 0.0, 0.0011265986, -0.024112817, 0.0 
1.2207031e-2, 1.9038916e+1, -0.02446021, -24283.334, -0.66037667, 0.0, 0.0008907895, -0.024442252, 0.0 
1.2207031e-2, 1.9062757e+1, -0.02445186, -24292.445, -2.9005992, 0.0, 0.0010792187, -0.024105519, 0.0 
1.2207031e-2, 1.90866e+1, -0.024537683, -24247.578, -0.36880368, 0.0, 0.0011592977, -0.024532072, 0.0 
1.2207031e-2, 1.9110441e+1, -0.024544513, -24251.055, -0.0669946, 0.0, 0.0007924637, -0.024544328, 0.0 
1.2207031e-2, 1.9134285e+1, -0.024727575, -24208.445, -2.8339365, 0.0, 0.0009070342, -0.024395823, 0.0 
1.2207031e-2, 1.915813e+1, -0.024793666, -24213.475, 0.30456963, 0.0, 0.0012481516, -0.024789834, 0.0 
1.2207031e-2, 1.9181973e+1, -0.024918688, -24169.09, 0.22239825, 0.0, 0.0010690247, -0.024916641, 0.0 
1.2207031e-2, 1.9205816e+1, -0.02493617, -24170.805, -2.2824244, 0.0, 0.00079138915, -0.024720643, 0.0 
1.2207031e-2, 1.9229662e+1, -0.025145495, -24133.332, -1.9965125, 0.0, 0.0010132707, -0.024980325, 0.0 
1.2207031e-2, 1.9253507e+1, -0.025254019, -24133.307, 0.5970971, 0.0, 0.001119741, -0.025239246, 0.0 
1.2207031e-2, 1.9277354e+1, -0.025496634, -24093.049, -10.225128, 0.0, 0.00089447066, -0.02115707, 0.0 
1.2207031e-2, 1.9301198e+1, -0.02529098, -24090.705, 0.29624313, 0.0, 0.0010038042, -0.025287338, 0.0 
1.2207031e-2, 1.9325046e+1, -0.0252406, -24056.008, -0.41552138, 0.0, 0.0011851557, -0.025233423, 0.0 
1.2207031e-2, 1.9348893e+1, -0.025091274, -24050.307, -0.3515971, 0.0, 0.0008460432, -0.025086133, 0.0 
1.2207031e-2, 1.937274e+1, -0.025110986, -24018.877, -4.394909, 0.0, 0.0008479558, -0.024306817, 0.0 
1.2207031e-2, 1.939659e+1, -0.025037043, -24011.473, 0.80331147, 0.0, 0.0012078895, -0.025010169, 0.0 
1.2207031e-2, 1.9420438e+1, -0.025203804, -23980.87, 1.2617527, 0.0, 0.0009630626, -0.025137415, 0.0 
1.2207031e-2, 1.9444287e+1, -0.025176542, -23967.275, -2.0175714, 0.0, 0.00088263367, -0.025006702, 0.0 
1.2207031e-2, 1.9468136e+1, -0.025235234, -23943.91, -3.9187288, 0.0, 0.0012061507, -0.024593884, 0.0 
1.2207031e-2, 1.9491985e+1, -0.025140675, -23933.686, 2.2820506, 0.0, 0.00093084056, -0.024923084, 0.0 
1.2207031e-2, 1.9515835e+1, -0.02531244, -23903.002, 3.5013165, 0.0, 0.00077215285, -0.024799567, 0.0 
1.2207031e-2, 1.9539686e+1, -0.025348384, -23887.592, -3.5090828, 0.0, 0.0011917787, -0.0248329, 0.0 
1.2207031e-2, 1.9563538e+1, -0.025499683, -23869.531, -2.4549737, 0.0, 0.0010342898, -0.02524719, 0.0 
1.2207031e-2, 1.9587389e+1, -0.02541334, -23849.32, 0.80498993, 0.0, 0.00083692314, -0.02538617, 0.0 
1.2207031e-2, 1.9611241e+1, -0.02550035, -23828.512, -1.4323921, 0.0, 0.0012217833, -0.025414245, 0.0 
1.2207031e-2, 1.9635093e+1, -0.025441555, -23810.758, -1.2727367, 0.0, 0.0010519542, -0.025373524, 0.0 
1.2207031e-2, 1.9658947e+1, -0.02556, -23791.766, -0.16905934, 0.0, 0.0006040831, -0.0255588, 0.0 
1.2207031e-2, 1.9682801e+1, -0.025524883, -23771.51, 1.9987211, 0.0, 0.0011074931, -0.02535683, 0.0 
1.2207031e-2, 1.9706653e+1, -0.025953695, -23752.754, -20.836437, 0.0, 0.001411763, -0.0076755104, 0.0 
1.2207031e-2, 1.9730508e+1, -0.025579693, -23728.35, 2.7473547, 0.0, 0.00081098167, -0.025261594, 0.0 
1.2207031e-2, 1.9754362e+1, -0.025636204, -23714.492, -0.39092794, 0.0, 0.0008331658, -0.025629759, 0.0 
1.2207031e-2, 1.9778217e+1, -0.025569936, -23689.611, -0.5072863, 0.0, 0.001219381, -0.025559073, 0.0 
1.2207031e-2, 1.9802073e+1, -0.02558795, -23678.89, 1.661247, 0.0, 0.0009335272, -0.0254714, 0.0 
1.2207031e-2, 1.982593e+1, -0.025546277, -23646.576, 0.9883477, 0.0, 0.00095386687, -0.025504967, 0.0 
1.2207031e-2, 1.9849786e+1, -0.025529262, -23638.443, -4.0010695, 0.0, 0.0012546168, -0.024852036, 0.0 
1.2207031e-2, 1.9873641e+1, -0.025405904, -23613.523, -0.8623469, 0.0, 0.0009102539, -0.025374413, 0.0 
1.2207031e-2, 1.98975e+1, -0.025378475, -23600.367, 5.5466475, 0.0, 0.0010164594, -0.024074879, 0.0 
1.2207031e-2, 1.9921358e+1, -0.025453182, -23563.76, -1.9305326, 0.0, 0.0012972226, -0.025295017, 0.0 
1.2207031e-2, 1.9945218e+1, -0.026214903, -23565.379, -45.012688, 0.0, 0.0007050228, 0.059764482, 0.0 
1.2207031e-2, 1.9969074e+1, -0.025542237, -23533.252, 0.115661554, 0.0, 0.000876291, -0.025541667, 0.0 
1.2207031e-2, 1.9992933e+1, -0.025586609, -23521.293, -0.023564816, 0.0, 0.0016468785, -0.025586585, 0.0 
1.2207031e-2, 2.0016794e+1, -0.025670312, -23493.734, -0.0056864587, 0.0, 0.0010271918, -0.02567031, 0.0 
1.2207031e-2, 2.0040654e+1, -0.025702078, -23483.465, -4.0612307, 0.0, 0.0006556002, -0.024999728, 0.0 
1.2207031e-2, 2.0064515e+1, -0.025734413, -23450.434, 0.75554144, 0.0, 0.0012758597, -0.025710072, 0.0 
1.2207031e-2, 2.0088375e+1, -0.025745701, -23447.793, 0.27025652, 0.0, 0.0011483637, -0.025742587, 0.0 
1.2207031e-2, 2.0112236e+1, -0.02588734, -23411.477, 2.2536738, 0.0, 0.0009471015, -0.025670394, 0.0 
1.2207031e-2, 2.0136099e+1, -0.02597566, -23404.879, -2.3217144, 0.0, 0.0012806844, -0.025745349, 0.0 
1.2207031e-2, 2.015996e+1, -0.02609853, -23376.281, -1.2509582, 0.0, 0.0010121764, -0.026031587, 0.0 
1.2207031e-2, 2.0183823e+1, -0.026078202, -23368.082, 3.6985643, 0.0, 0.0010684797, -0.025492813, 0.0 
1.2207031e-2, 2.0207687e+1, -0.026171476, -23331.781, 0.7017774, 0.0, 0.0013869244, -0.026150368, 0.0 
1.2207031e-2, 2.0231551e+1, -0.026186902, -23329.309, -1.1738753, 0.0, 0.00087085704, -0.026127836, 0.0 
1.2207031e-2, 2.0255415e+1, -0.026213055, -23296.18, 1.2211735, 0.0, 0.00090700417, -0.026149042, 0.0 
1.2207031e-2, 2.027928e+1, -0.02611807, -23289.295, 1.0245385, 0.0, 0.0015406252, -0.026072998, 0.0 
1.2207031e-2, 2.0303145e+1, -0.026134636, -23257.309, -8.940732, 0.0, 0.0010944441, -0.022697577, 0.0 
1.2207031e-2, 2.032701e+1, -0.026008297, -23248.809, 2.7289515, 0.0, 0.0009435033, -0.02568797, 0.0 
1.2207031e-2, 2.0350876e+1, -0.02606725, -23216.494, -0.37148753, 0.0, 0.0013865016, -0.026061306, 0.0 
1.2207031e-2, 2.037474e+1, -0.026146758, -23212.602, 1.0313458, 0.0, 0.0010291983, -0.026100935, 0.0 
1.2207031e-2, 2.0398608e+1, -0.026249073, -23178.043, 0.041988235, 0.0, 0.0010174346, -0.026248997, 0.0 
1.2207031e-2, 2.0422477e+1, -0.026303893, -23170.016, -1.3300623, 0.0, 0.0013978505, -0.026227541, 0.0 
1.2207031e-2, 2.0446342e+1, -0.026344052, -23142.271, 0.78120565, 0.0, 0.0010426993, -0.02631768, 0.0 
1.2207031e-2, 2.0470211e+1, -0.026393177, -23131.797, 3.5779738, 0.0, 0.0011598347, -0.025839742, 0.0 
1.2207031e-2, 2.049408e+1, -0.026622726, -23101.56, -18.548838, 0.0, 0.0013263761, -0.01172938, 0.0 
1.2207031e-2, 2.0517948e+1, -0.026467219, -23093.682, 5.6488466, 0.0, 0.0010021384, -0.025085477, 0.0 
1.2207031e-2, 2.0541817e+1, -0.026484186, -23058.717, 2.4842815, 0.0, 0.0012890093, -0.026216537, 0.0 
1.2207031e-2, 2.0565687e+1, -0.02658275, -23054.61, -2.2433236, 0.0, 0.0011941361, -0.026364464, 0.0 
1.2207031e-2, 2.0589557e+1, -0.026600767, -23024.75, 2.2075408, 0.0, 0.0010406404, -0.026389115, 0.0 
1.2207031e-2, 2.0613427e+1, -0.02661721, -23010.297, -1.1438545, 0.0, 0.0013979336, -0.026560348, 0.0 
1.2207031e-2, 2.06373e+1, -0.02648001, -22990.29, 1.0575349, 0.0, 0.0009802602, -0.026431363, 0.0 
1.2207031e-2, 2.0661171e+1, -0.026502663, -22968.07, 2.1019166, 0.0, 0.0010918259, -0.026310306, 0.0 
1.2207031e-2, 2.0685044e+1, -0.026602577, -22948.97, -6.6885056, 0.0, 0.0017169333, -0.024653202, 0.0 
1.2207031e-2, 2.0708916e+1, -0.026751162, -22936.938, 3.8214638, 0.0, 0.0009811132, -0.026114477, 0.0 
1.2207031e-2, 2.0732789e+1, -0.026763229, -22905.33, 3.0069447, 0.0, 0.00086390204, -0.026368486, 0.0 
1.2207031e-2, 2.0756662e+1, -0.026820576, -22896.1, -6.579412, 0.0, 0.0014483405, -0.024929916, 0.0 
1.2207031e-2, 2.0780537e+1, -0.026837958, -22869.686, 6.290709, 0.0, 0.0012678012, -0.025107585, 0.0 
1.2207031e-2, 2.0804411e+1, -0.026897578, -22832.969, -15.502406, 0.0, 0.0010819208, -0.016372237, 0.0 
1.2207031e-2, 2.0828286e+1, -0.026941268, -22841.316, -41.119495, 0.0, 0.0012938417, 0.0470829, 0.0 
1.2207031e-2, 2.0852162e+1, -0.026943404, -22826.764, -16.32864, 0.0, 0.0012626316, -0.015263051, 0.0 
1.2207031e-2, 2.0876035e+1, -0.026989762, -22792.697, 2.2773888, 0.0, 0.0010297246, -0.02676221, 0.0 
1.2207031e-2, 2.0899911e+1, -0.027089074, -22777.506, 0.95882386, 0.0, 0.0011444245, -0.027048713, 0.0 
1.2207031e-2, 2.0923787e+1, -0.027432248, -22757.846, -12.226903, 0.0, 0.0015220669, -0.020863205, 0.0 
1.2207031e-2, 2.0947666e+1, -0.02744217, -22731.451, 1.8330445, 0.0, 0.0011399725, -0.027294356, 0.0 
1.2207031e-2, 2.0971543e+1, -0.027632598, -22715.324, -1.3021985, 0.0, 0.0009960427, -0.027557947, 0.0 
1.2207031e-2, 2.099542e+1, -0.027711224, -22697.297, -1.3659862, 0.0, 0.0013235506, -0.027629014, 0.0 
1.2207031e-2, 2.1019298e+1, -0.027884131, -22677.973, -1.0104095, 0.0, 0.0012413193, -0.027839113, 0.0 
1.2207031e-2, 2.1043178e+1, -0.027846782, -22656.258, -1.0337701, 0.0, 0.0010750246, -0.027799612, 0.0 
1.2207031e-2, 2.1067056e+1, -0.027892232, -22637.21, -2.5512433, 0.0, 0.0013696089, -0.027604703, 0.0 
1.2207031e-2, 2.1090937e+1, -0.027732167, -22621.84, -0.4219389, 0.0, 0.0012162797, -0.027724298, 0.0 
1.2207031e-2, 2.1114817e+1, -0.027673619, -22596.76, 1.6026379, 0.0, 0.0010534918, -0.027559955, 0.0 
1.2207031e-2, 2.1138698e+1, -0.02752911, -22579.125, -1.1083744, 0.0, 0.0012367475, -0.027474701, 0.0 
1.2207031e-2, 2.1162578e+1, -0.027612504, -22559.742, 0.22048077, 0.0, 0.0012735392, -0.027610349, 0.0 
1.2207031e-2, 2.118646e+1, -0.027595691, -22541.773, 1.1924758, 0.0, 0.0011015336, -0.02753261, 0.0 
1.2207031e-2, 2.1210343e+1, -0.027715886, -22516.406, -3.1550624, 0.0, 0.0012825966, -0.027273789, 0.0 
1.2207031e-2, 2.1234225e+1, -0.027742013, -22506.477, -2.4913907, 0.0, 0.0011706488, -0.027466225, 0.0 
1.2207031e-2, 2.1258107e+1, -0.027914053, -22479.93, 3.591434, 0.0, 0.0011537295, -0.027340278, 0.0 
1.2207031e-2, 2.128199e+1, -0.028027808, -22460.908, 0.51319474, 0.0, 0.0012597451, -0.028016083, 0.0 
1.2207031e-2, 2.1305874e+1, -0.02821565, -22441.094, -2.5870044, 0.0, 0.0011410252, -0.02791742, 0.0 
1.2207031e-2, 2.1329758e+1, -0.028241219, -22426.842, 0.13169585, 0.0, 0.0011014693, -0.028240444, 0.0 
1.2207031e-2, 2.1353644e+1, -0.02823513, -22399.53, -0.36558157, 0.0, 0.001326671, -0.028229164, 0.0 
1.2207031e-2, 2.1377528e+1, -0.028209845, -22387.15, -0.6803624, 0.0, 0.0011100384, -0.028189167, 0.0 
1.2207031e-2, 2.1401413e+1, -0.028210869, -22362.45, 0.3277504, 0.0, 0.0011639271, -0.028206065, 0.0 
1.2207031e-2, 2.14253e+1, -0.028169878, -22346.43, -0.69466597, 0.0, 0.0012770821, -0.028148284, 0.0 
1.2207031e-2, 2.1449186e+1, -0.028203804, -22322.367, -0.30664608, 0.0, 0.0010884692, -0.02819959, 0.0 
1.2207031e-2, 2.1473072e+1, -0.02825102, -22306.652, -1.9332592, 0.0, 0.0011173652, -0.028083468, 0.0 
1.2207031e-2, 2.1496959e+1, -0.028314639, -22283.66, -4.787837, 0.0, 0.0012958283, -0.027285928, 0.0 
1.2207031e-2, 2.1520847e+1, -0.028372116, -22271.557, -2.625687, 0.0, 0.0010590071, -0.028062563, 0.0 
1.2207031e-2, 2.1544735e+1, -0.028502809, -22244.78, 0.016606871, 0.0, 0.0011715959, -0.028502798, 0.0 
1.2207031e-2, 2.1568625e+1, -0.028699294, -22231.092, -0.005601078, 0.0, 0.0013235551, -0.028699292, 0.0 
1.2207031e-2, 2.1592514e+1, -0.028889801, -22205.605, -0.45967844, 0.0, 0.0010656461, -0.028880285, 0.0 
1.2207031e-2, 2.1616402e+1, -0.029051809, -22191.1, -1.2860373, 0.0, 0.0010145963, -0.028977279, 0.0 
1.2207031e-2, 2.1640293e+1, -0.029064242, -22169.809, 0.3831116, 0.0, 0.0012713538, -0.02905762, 0.0 
1.2207031e-2, 2.1664183e+1, -0.029132618, -22150.664, 1.6887519, 0.0, 0.0012548544, -0.029003868, 0.0 
1.2207031e-2, 2.1688074e+1, -0.029178461, -22127.395, -1.6058692, 0.0, 0.0010919252, -0.029061917, 0.0 
1.2207031e-2, 2.1711965e+1, -0.029384144, -22113.21, -1.5946295, 0.0, 0.0010339267, -0.029269151, 0.0 
1.2207031e-2, 2.1735857e+1, -0.029450353, -22091.139, 1.1140068, 0.0, 0.0011782413, -0.029394176, 0.0 
1.2207031e-2, 2.1759748e+1, -0.029502602, -22071.848, 0.39602068, 0.0, 0.0013331228, -0.029495496, 0.0 
1.2207031e-2, 2.1783642e+1, -0.029395735, -22052.35, -0.43056682, 0.0, 0.0010950126, -0.029387329, 0.0 
1.2207031e-2, 2.1807535e+1, -0.029512145, -22032.445, -0.8685789, 0.0, 0.0009380622, -0.029477904, 0.0 
1.2207031e-2, 2.1831429e+1, -0.029425343, -22013.096, 0.4185389, 0.0, 0.0011995102, -0.029417386, 0.0 
1.2207031e-2, 2.1855322e+1, -0.029497424, -21992.072, 0.1889292, 0.0, 0.0013719659, -0.0294958, 0.0 
1.2207031e-2, 2.1879217e+1, -0.029513735, -21977.49, -1.4992938, 0.0, 0.0010452516, -0.029411454, 0.0 
1.2207031e-2, 2.1903111e+1, -0.029683618, -21957.396, 5.753913, 0.0, 0.0010015434, -0.028175808, 0.0 
1.2207031e-2, 2.1927005e+1, -0.03016528, -21932.781, -24.581789, 0.0, 0.0011791998, -0.002614537, 0.0 
1.2207031e-2, 2.1950904e+1, -0.029670972, -21912.732, 1.9321797, 0.0, 0.0012710841, -0.0295006, 0.0 
1.2207031e-2, 2.1974798e+1, -0.02957232, -21901.178, -0.04010635, 0.0, 0.0011906602, -0.029572247, 0.0 
1.2207031e-2, 2.1998696e+1, -0.029913582, -21873.146, -14.926675, 0.0, 0.00090422895, -0.01972731, 0.0 
1.2207031e-2, 2.2022593e+1, -0.029554453, -21855.664, 3.5438468, 0.0, 0.0009861662, -0.028979827, 0.0 
1.2207031e-2, 2.204649e+1, -0.02967842, -21833.863, -3.3960085, 0.0, 0.0016724737, -0.029150208, 0.0 
1.2207031e-2, 2.2070387e+1, -0.029650318, -21822.643, 0.57735324, 0.0, 0.0011393339, -0.029635044, 0.0 
1.2207031e-2, 2.2094285e+1, -0.0297484, -21794.139, 3.4313107, 0.0, 0.00062115584, -0.029208167, 0.0 
1.2207031e-2, 2.2118185e+1, -0.029663127, -21780.816, -1.9202576, 0.0, 0.0012549423, -0.029493831, 0.0 
1.2207031e-2, 2.2142084e+1, -0.029752513, -21757.73, 0.88188434, 0.0, 0.0014682065, -0.02971677, 0.0 
1.2207031e-2, 2.2165984e+1, -0.029726937, -21741.12, 2.1024425, 0.0, 0.0009940473, -0.029523624, 0.0 
1.2207031e-2, 2.2189884e+1, -0.02979024, -21715.898, -3.4205236, 0.0, 0.0011041687, -0.029251464, 0.0 
1.2207031e-2, 2.2213785e+1, -0.029737143, -21706.186, 0.97322214, 0.0, 0.0011405137, -0.029693507, 0.0 
1.2207031e-2, 2.2237687e+1, -0.029850535, -21668.691, -3.1266108, 0.0, 0.001205291, -0.029399391, 0.0 
1.2207031e-2, 2.2261587e+1, -0.029947335, -21667.145, -15.272576, 0.0, 0.0011692832, -0.019182105, 0.0 
1.2207031e-2, 2.228549e+1, -0.030112676, -21642.828, -16.600475, 0.0, 0.0010971565, -0.017379774, 0.0 
1.2207031e-2, 2.2309393e+1, -0.030026438, -21627.084, 3.8335912, 0.0, 0.0011162456, -0.029346898, 0.0 
1.2207031e-2, 2.2333296e+1, -0.029967505, -21596.42, -0.27288237, 0.0, 0.0012680757, -0.029964058, 0.0 
1.2207031e-2, 2.2357199e+1, -0.029896488, -21593.096, 0.7329265, 0.0, 0.0010715136, -0.02987161, 0.0 
1.2207031e-2, 2.2381102e+1, -0.030010099, -21555.33, -15.546609, 0.0, 0.0011966628, -0.01879722, 0.0 
1.2207031e-2, 2.2405006e+1, -0.029642671, -21549.531, 1.9821368, 0.0, 0.0012288018, -0.029460354, 0.0 
1.2207031e-2, 2.2428912e+1, -0.029442713, -21518.516, 1.2128094, 0.0, 0.0010827773, -0.029374357, 0.0 
1.2207031e-2, 2.2452816e+1, -0.029366292, -21510.008, 1.4141395, 0.0, 0.001108146, -0.029273322, 0.0 
1.2207031e-2, 2.2476722e+1, -0.029563023, -21477.535, -0.5539676, 0.0, 0.0012832116, -0.029548734, 0.0 
1.2207031e-2, 2.2500628e+1, -0.029858932, -21475.145, -0.30893806, 0.0, 0.001193878, -0.029854488, 0.0 
1.2207031e-2, 2.2524534e+1, -0.02992624, -21438.273, 0.76465833, 0.0, 0.0011476376, -0.029898968, 0.0 
1.2207031e-2, 2.2548442e+1, -0.029889308, -21434.7, 2.135249, 0.0, 0.0010490357, -0.029676601, 0.0 
1.2207031e-2, 2.2572349e+1, -0.029913327, -21396.305, -0.99215597, 0.0, 0.0013082863, -0.02986732, 0.0 
1.2207031e-2, 2.2596256e+1, -0.030072836, -21399.465, -1.4399151, 0.0, 0.0013115788, -0.029975949, 0.0 
1.2207031e-2, 2.2620165e+1, -0.030274406, -21362.225, -11.473741, 0.0, 0.0010374185, -0.024111804, 0.0 
1.2207031e-2, 2.2644073e+1, -0.030106964, -21354.066, 5.054889, 0.0, 0.0011555973, -0.02891038, 0.0 
1.2207031e-2, 2.2667982e+1, -0.030011935, -21318.809, -4.1218987, 0.0, 0.0013361389, -0.029214984, 0.0 
1.2207031e-2, 2.2691892e+1, -0.030067625, -21320.553, -0.7430238, 0.0, 0.0011104834, -0.03004173, 0.0 
1.2207031e-2, 2.2715802e+1, -0.030229507, -21277.715, -1.3840046, 0.0, 0.0012736957, -0.030139484, 0.0 
1.2207031e-2, 2.2739714e+1, -0.030503552, -21281.904, -7.962869, 0.0, 0.0011953432, -0.027524149, 0.0 
1.2207031e-2, 2.2763625e+1, -0.03049601, -21244.967, -5.752682, 0.0, 0.0011193639, -0.028938306, 0.0 
1.2207031e-2, 2.2787535e+1, -0.030540137, -21241.145, -2.18313, 0.0, 0.00150783, -0.030315757, 0.0 
1.2207031e-2, 2.2811447e+1, -0.030485725, -21206.652, 1.4444919, 0.0, 0.0012389664, -0.030387333, 0.0 
1.2207031e-2, 2.2835359e+1, -0.030503439, -21200.752, 4.955893, 0.0, 0.00070662424, -0.029344946, 0.0 
1.2207031e-2, 2.2859272e+1, -0.03038562, -21162.035, -1.8861109, 0.0, 0.001470613, -0.030217517, 0.0 
1.2207031e-2, 2.2883186e+1, -0.030294236, -21163.568, -4.7605977, 0.0, 0.0017382136, -0.029223371, 0.0 
1.2207031e-2, 2.2907099e+1, -0.030224163, -21133.137, 3.1599221, 0.0, 0.00092073175, -0.029751677, 0.0 
1.2207031e-2, 2.2931013e+1, -0.030415103, -21116.094, 2.4840283, 0.0, 0.0010488743, -0.03012289, 0.0 
1.2207031e-2, 2.2954927e+1, -0.030714298, -21089.91, -1.436939, 0.0, 0.0015193262, -0.030616393, 0.0 
1.2207031e-2, 2.2978844e+1, -0.030896463, -21080.92, 0.43716842, 0.0, 0.0011819226, -0.030887397, 0.0 
1.2207031e-2, 2.3002759e+1, -0.031017765, -21055.508, -0.35222343, 0.0, 0.0011571526, -0.031011872, 0.0 
1.2207031e-2, 2.3026675e+1, -0.031191066, -21037.48, 0.088543065, 0.0, 0.0015508885, -0.031190693, 0.0 
1.2207031e-2, 2.305059e+1, -0.03138619, -21012.168, -1.0762467, 0.0, 0.0013344584, -0.031331066, 0.0 
1.2207031e-2, 2.3074506e+1, -0.031322762, -20998.342, -7.1636295, 0.0, 0.0008403148, -0.02887887, 0.0 
1.2207031e-2, 2.3098426e+1, -0.03153765, -20983.787, -18.993895, 0.0, 0.0011508255, -0.014344932, 0.0 
1.2207031e-2, 2.3122343e+1, -0.031295683, -20956.482, 5.7898703, 0.0, 0.0020730488, -0.029696051, 0.0 
1.2207031e-2, 2.314626e+1, -0.031470247, -20939.088, -2.0316803, 0.0, 0.0013553146, -0.031273115, 0.0 
1.2207031e-2, 2.3170179e+1, -0.031541593, -20922.752, -2.211232, 0.0, 0.00028088817, -0.0313079, 0.0 
1.2207031e-2, 2.3194097e+1, -0.03240812, -20901.102, -22.752398, 0.0, 0.0013933677, -0.0076404386, 0.0 
1.2207031e-2, 2.3218018e+1, -0.031830523, -20874.777, 5.247457, 0.0, 0.002214859, -0.030511426, 0.0 
1.2207031e-2, 2.3241937e+1, -0.0320317, -20862.932, -0.0050311345, 0.0, 0.0010231365, -0.0320317, 0.0 
1.2207031e-2, 2.3265858e+1, -0.03202978, -20835.3, -2.5754185, 0.0, 0.0008382084, -0.031711437, 0.0 
1.2207031e-2, 2.3289777e+1, -0.032207437, -20829.574, -1.8345544, 0.0, 0.0013712634, -0.03204586, 0.0 
1.2207031e-2, 2.33137e+1, -0.03213841, -20798.246, 5.352111, 0.0, 0.0016024942, -0.030761126, 0.0 
1.2207031e-2, 2.3337622e+1, -0.03227389, -20782.584, -0.08657759, 0.0, 0.0014627038, -0.032273527, 0.0 
1.2207031e-2, 2.3361544e+1, -0.032263663, -20759.932, -4.029216, 0.0, 0.0008364844, -0.031481646, 0.0 
1.2207031e-2, 2.3385465e+1, -0.03238361, -20750.098, 1.5110772, 0.0, 0.0010451112, -0.03227357, 0.0 
1.2207031e-2, 2.3409389e+1, -0.032304823, -20717.11, -0.028295053, 0.0, 0.0020489134, -0.032304786, 0.0 
1.2207031e-2, 2.3433313e+1, -0.032283675, -20711.9, -0.35670564, 0.0, 0.001278128, -0.032277532, 0.0 
1.2207031e-2, 2.3457237e+1, -0.032169912, -20673.402, -1.8732681, 0.0, 0.0007961443, -0.03200017, 0.0 
1.2207031e-2, 2.348116e+1, -0.032271747, -20676.805, -4.851929, 0.0, 0.0014762986, -0.031133212, 0.0 
1.2207031e-2, 2.3505087e+1, -0.032349054, -20639.367, 6.348288, 0.0, 0.0014567352, -0.030396434, 0.0 
1.2207031e-2, 2.3529011e+1, -0.03252153, -20622.809, -4.486812, 0.0, 0.0011177086, -0.031545356, 0.0 
1.2207031e-2, 2.3552938e+1, -0.03294502, -20599.137, -49.658787, 0.0, 0.0014783546, 0.086767994, 0.0 
1.2207031e-2, 2.3576865e+1, -0.032582033, -20604.734, -8.305743, 0.0, 0.0012949766, -0.029233994, 0.0 
1.2207031e-2, 2.360079e+1, -0.032435995, -20557.727, 3.86688, 0.0, 0.0011927863, -0.03170864, 0.0 
1.2207031e-2, 2.3624718e+1, -0.032366794, -20559.809, 2.7633233, 0.0, 0.0015272975, -0.03199539, 0.0 
1.2207031e-2, 2.3648645e+1, -0.032918535, -20520.633, -25.975655, 0.0, 0.0012489333, -0.000037744278, 0.0 
1.2207031e-2, 2.3672573e+1, -0.032493874, -20514.922, 6.4526005, 0.0, 0.00085862126, -0.030464321, 0.0 
1.2207031e-2, 2.36965e+1, -0.032597475, -20475.416, -2.9748063, 0.0, 0.0017619645, -0.032165274, 0.0 
1.2207031e-2, 2.372043e+1, -0.032818187, -20483.398, -4.228622, 0.0, 0.001714634, -0.031945225, 0.0 
1.2207031e-2, 2.374436e+1, -0.033048116, -20441.148, 3.3741708, 0.0, 0.00076679554, -0.03249115, 0.0 
1.2207031e-2, 2.376829e+1, -0.033165403, -20438.188, 1.7490546, 0.0, 0.0010985971, -0.033015724, 0.0 
1.2207031e-2, 2.3792219e+1, -0.033261463, -20398.63, -5.23821, 0.0, 0.0017728364, -0.031916328, 0.0 
1.2207031e-2, 2.381615e+1, -0.03336737, -20406.963, -2.671961, 0.0, 0.0013108345, -0.033017516, 0.0 
1.2207031e-2, 2.3840082e+1, -0.033425547, -20359.424, 1.7196652, 0.0, 0.001151379, -0.033280294, 0.0 
1.2207031e-2, 2.3864013e+1, -0.0333656, -20365.254, 0.5243504, 0.0, 0.0013969167, -0.0333521, 0.0 
1.2207031e-2, 2.3887946e+1, -0.03328547, -20322.195, -0.8477507, 0.0, 0.0014011578, -0.033250105, 0.0 
1.2207031e-2, 2.3911877e+1, -0.033189867, -20326.795, -2.8333337, 0.0, 0.001076721, -0.03279493, 0.0 
1.2207031e-2, 2.393581e+1, -0.03331027, -20283.39, -0.15075703, 0.0, 0.0013280135, -0.03330915, 0.0 
1.2207031e-2, 2.3959744e+1, -0.03343234, -20286.61, 0.7334828, 0.0, 0.0018472918, -0.033405818, 0.0 
1.2207031e-2, 2.3983677e+1, -0.03359913, -20242.893, -0.95185095, 0.0, 0.0012431022, -0.033554375, 0.0 
1.2207031e-2, 2.4007612e+1, -0.033625625, -20248.158, -2.494276, 0.0, 0.0004074008, -0.033318367, 0.0 
1.2207031e-2, 2.4031548e+1, -0.033740908, -20207.664, 0.13287082, 0.0, 0.0016642433, -0.033740036, 0.0 
1.2207031e-2, 2.4055482e+1, -0.033808954, -20207.527, 2.9987357, 0.0, 0.0023894983, -0.03336395, 0.0 
1.2207031e-2, 2.4079418e+1, -0.03398311, -20166.04, -2.2142258, 0.0, 0.000793103, -0.03373999, 0.0 
1.2207031e-2, 2.4103354e+1, -0.03393862, -20167.97, -4.547568, 0.0, 0.0004474645, -0.03291321, 0.0 
1.2207031e-2, 2.4127291e+1, -0.033884328, -20131.998, 2.328248, 0.0, 0.001979457, -0.033615068, 0.0 
1.2207031e-2, 2.4151228e+1, -0.033717517, -20123.365, 0.37800702, 0.0, 0.0015963137, -0.033710416, 0.0 
1.2207031e-2, 2.4175166e+1, -0.03367609, -20095.793, -1.949013, 0.0, 0.0007996331, -0.033487063, 0.0 
1.2207031e-2, 2.4199103e+1, -0.03366468, -20082.885, 0.18557638, 0.0, 0.0017969494, -0.033662967, 0.0 
1.2207031e-2, 2.4223042e+1, -0.033868633, -20052.543, -7.566849, 0.0, 0.0014768378, -0.031013269, 0.0 
1.2207031e-2, 2.4246979e+1, -0.03402239, -20043.332, -11.238172, 0.0, 0.0005001221, -0.027721208, 0.0 
1.2207031e-2, 2.4270917e+1, -0.03416566, -20014.08, -13.860112, 0.0, 0.0015229482, -0.024567273, 0.0 
1.2207031e-2, 2.4294859e+1, -0.034190465, -20009.074, -17.497784, 0.0, 0.0020072802, -0.01888877, 0.0 
1.2207031e-2, 2.4318798e+1, -0.034273274, -19983.613, -9.096286, 0.0, 0.0010998156, -0.030132756, 0.0 
1.2207031e-2, 2.434274e+1, -0.03436148, -19963.836, -1.5378257, 0.0, 0.00087868044, -0.03424302, 0.0 
1.2207031e-2, 2.436668e+1, -0.034434605, -19945.217, 1.2031045, 0.0, 0.0014212045, -0.034362033, 0.0 
1.2207031e-2, 2.4390621e+1, -0.034365475, -19920.75, -1.7762558, 0.0, 0.0017142976, -0.03420709, 0.0 
1.2207031e-2, 2.4414565e+1, -0.034286343, -19906.668, -1.2162943, 0.0, 0.0011799396, -0.034212027, 0.0 
1.2207031e-2, 2.4438505e+1, -0.03418389, -19883.355, 3.1814003, 0.0, 0.0011502138, -0.033674855, 0.0 
1.2207031e-2, 2.4462448e+1, -0.03415918, -19864.451, -2.2579203, 0.0, 0.0014236539, -0.03390253, 0.0 
1.2207031e-2, 2.4486393e+1, -0.034197815, -19842.55, -0.3873546, 0.0, 0.0013463591, -0.034190252, 0.0 
1.2207031e-2, 2.4510336e+1, -0.034263615, -19829.4, 0.34299552, 0.0, 0.0013341366, -0.034257684, 0.0 
1.2207031e-2, 2.453428e+1, -0.034347326, -19805.9, -0.5824606, 0.0, 0.0012984368, -0.034330197, 0.0 
1.2207031e-2, 2.4558224e+1, -0.034339953, -19785.076, 4.4078903, 0.0, 0.0012295749, -0.033357922, 0.0 
1.2207031e-2, 2.458217e+1, -0.03433558, -19754.943, -11.583824, 0.0, 0.0015131218, -0.027543096, 0.0 
1.2207031e-2, 2.4606115e+1, -0.040939894, -19762.791, -132.45233, 0.0, 0.0012463283, 0.8467318, 0.0 
1.2207031e-2, 2.4630062e+1, -0.03577653, -19725.967, -43.292755, 0.0, 0.0012799166, 0.059238177, 0.0 
1.2207031e-2, 2.4654007e+1, -0.03440841, -19709.008, 8.139348, 0.0, 0.0014864075, -0.031047048, 0.0 
1.2207031e-2, 2.4677956e+1, -0.034285676, -19687.992, -0.855438, 0.0, 0.0011730302, -0.03424851, 0.0 
1.2207031e-2, 2.4701902e+1, -0.034401078, -19677.602, -3.601449, 0.0, 0.0011548662, -0.033741932, 0.0 
1.2207031e-2, 2.4725848e+1, -0.035375863, -19636.281, -30.912226, 0.0, 0.0016891677, 0.0132873785, 0.0 
1.2207031e-2, 2.4749798e+1, -0.034556873, -19639.482, 1.5192479, 0.0, 0.0012386804, -0.034439348, 0.0 
1.2207031e-2, 2.4773747e+1, -0.034578305, -19603.275, 3.4909644, 0.0, 0.00116132, -0.033956632, 0.0 
1.2207031e-2, 2.4797696e+1, -0.034460444, -19593.455, 3.0665345, 0.0, 0.0016684553, -0.033980504, 0.0 
1.2207031e-2, 2.4821645e+1, -0.034422364, -19563.068, -2.945003, 0.0, 0.0011173268, -0.033979025, 0.0 
1.2207031e-2, 2.4845594e+1, -0.034344945, -19564.908, 0.0540737, 0.0, 0.0009025526, -0.034344796, 0.0 
1.2207031e-2, 2.4869546e+1, -0.034288775, -19519.223, 0.8861146, 0.0, 0.0019756057, -0.034248546, 0.0 
1.2207031e-2, 2.4893497e+1, -0.034264598, -19523.986, -1.020667, 0.0, 0.0013502663, -0.03421124, 0.0 
1.2207031e-2, 2.4917448e+1, -0.03430909, -19482.537, 1.9550027, 0.0, 0.00086134946, -0.03411291, 0.0 
1.2207031e-2, 2.4941401e+1, -0.03442189, -19483.846, 0.39312163, 0.0, 0.0019267092, -0.03441396, 0.0 
1.2207031e-2, 2.4965353e+1, -0.03459504, -19442.947, 0.32674748, 0.0, 0.001208691, -0.034589548, 0.0 
1.2207031e-2, 2.4989305e+1, -0.036324102, -19449.518, -50.898666, 0.0, 0.00035702632, 0.09687515, 0.0 
1.2207031e-2, 2.501326e+1, -0.034975328, -19397.94, -14.393388, 0.0, 0.0022274086, -0.024295334, 0.0 
1.2207031e-2, 2.503721e+1, -0.034902487, -19409.68, -0.7445716, 0.0, 0.00207086, -0.034873925, 0.0 
1.2207031e-2, 2.5061166e+1, -0.03496442, -19361.775, 3.6680834, 0.0, 0.0003670679, -0.0342695, 0.0 
1.2207031e-2, 2.508512e+1, -0.035074834, -19370.768, -8.605334, 0.0, 0.0011652586, -0.031251963, 0.0 
1.2207031e-2, 2.5109076e+1, -0.035113294, -19325.78, -5.1016765, 0.0, 0.0019373156, -0.033766538, 0.0 
1.2207031e-2, 2.5133032e+1, -0.035173707, -19331.152, 5.189267, 0.0, 0.0011643776, -0.033780694, 0.0 
1.2207031e-2, 2.5156987e+1, -0.0353314, -19280.758, -1.808115, 0.0, 0.0013637218, -0.035161834, 0.0 
1.2207031e-2, 2.5180942e+1, -0.035545103, -19297.053, -3.0739343, 0.0, 0.0013766335, -0.03505544, 0.0 
1.2207031e-2, 2.52049e+1, -0.03576059, -19247.035, 4.2651997, 0.0, 0.0012773294, -0.03481541, 0.0 
1.2207031e-2, 2.5228858e+1, -0.03573572, -19250.273, -1.275041, 0.0, 0.001561614, -0.035651267, 0.0 
1.2207031e-2, 2.5252816e+1, -0.035665303, -19210.398, -0.3871663, 0.0, 0.0012531466, -0.0356575, 0.0 
1.2207031e-2, 2.5276774e+1, -0.03547344, -19212.432, 6.4869943, 0.0, 0.0013025934, -0.03328313, 0.0 
1.2207031e-2, 2.5300732e+1, -0.035418913, -19167.684, -2.3815093, 0.0, 0.0016127491, -0.03512302, 0.0 
1.2207031e-2, 2.532469e+1, -0.035429437, -19176.316, -3.0885584, 0.0, 0.0010025915, -0.03493199, 0.0 
1.2207031e-2, 2.534865e+1, -0.03569015, -19130.88, 3.695422, 0.0, 0.0014727684, -0.034976326, 0.0 
1.2207031e-2, 2.537261e+1, -0.03580848, -19130.018, -1.2432165, 0.0, 0.0017333799, -0.035727687, 0.0 
1.2207031e-2, 2.539657e+1, -0.036103614, -19098.082, 1.4078274, 0.0, 0.0010300737, -0.035999835, 0.0 
1.2207031e-2, 2.5420532e+1, -0.036224347, -19090.658, 3.0123088, 0.0, 0.0015425843, -0.035749037, 0.0 
1.2207031e-2, 2.5444493e+1, -0.03647407, -19055.08, -6.2726097, 0.0, 0.0015352401, -0.034409232, 0.0 
1.2207031e-2, 2.5468454e+1, -0.036481548, -19051.516, 0.8249199, 0.0, 0.00095273886, -0.03644583, 0.0 
1.2207031e-2, 2.5492418e+1, -0.036506012, -19018.596, 0.055965964, 0.0, 0.0016740332, -0.036505844, 0.0 
1.2207031e-2, 2.551638e+1, -0.036409486, -19014.898, -0.20813663, 0.0, 0.0014226836, -0.03640721, 0.0 
1.2207031e-2, 2.5540343e+1, -0.03643073, -18977.885, -2.6276557, 0.0, 0.0011939505, -0.03606691, 0.0 
1.2207031e-2, 2.5564307e+1, -0.036300417, -18966.953, -2.982703, 0.0, 0.0017415977, -0.035831362, 0.0 
1.2207031e-2, 2.558827e+1, -0.036482126, -18950.137, 2.6970162, 0.0, 0.0011004511, -0.036098283, 0.0 
1.2207031e-2, 2.5612235e+1, -0.036612164, -18925.078, 2.6827881, 0.0, 0.0015920495, -0.036231857, 0.0 
1.2207031e-2, 2.56362e+1, -0.03667865, -18907.191, -4.6145496, 0.0, 0.0018429803, -0.035552405, 0.0 
1.2207031e-2, 2.5660163e+1, -0.036461648, -18892.904, 7.851671, 0.0, 0.0005020737, -0.03319858, 0.0 
1.2207031e-2, 2.568413e+1, -0.03633948, -18859.28, -1.9577615, 0.0, 0.0013720588, -0.036136247, 0.0 
1.2207031e-2, 2.5708097e+1, -0.03620052, -18855.93, -3.5405416, 0.0, 0.0024468505, -0.035535716, 0.0 
1.2207031e-2, 2.5732064e+1, -0.036397107, -18824.217, 10.148891, 0.0, 0.0011455048, -0.030925425, 0.0 
1.2207031e-2, 2.575603e+1, -0.036596842, -18812.693, -6.3964343, 0.0, 0.00089339144, -0.03442201, 0.0 
1.2207031e-2, 2.5779998e+1, -0.036945064, -18819.729, 19.932974, 0.0, 0.0017006525, -0.01583298, 0.0 
1.2207031e-2, 2.5803965e+1, -0.05769281, -18761.424, -145.4452, 0.0, 0.0015727835, 1.0697856, 0.0 
1.2207031e-2, 2.5827935e+1, -0.036975022, -18730.12, 27.625654, 0.0, 0.0011284568, 0.0037709314, 0.0 
1.2207031e-2, 2.5851905e+1, -0.03672794, -18730.03, -8.033616, 0.0, 0.0017871402, -0.033282183, 0.0 
1.2207031e-2, 2.5875872e+1, -0.03665533, -18717.648, 1.575385, 0.0, 0.0015124524, -0.036522735, 0.0 
1.2207031e-2, 2.5899842e+1, -0.036540326, -18685.83, 5.9330134, 0.0, 0.0010623274, -0.034656506, 0.0 
1.2207031e-2, 2.5923812e+1, -0.036595855, -18677.004, -2.8549206, 0.0, 0.001616125, -0.036159456, 0.0 
1.2207031e-2, 2.5947785e+1, -0.036635123, -18648.092, 0.59309566, 0.0, 0.0015130258, -0.036616262, 0.0 
1.2207031e-2, 2.5971755e+1, -0.036781598, -18638.59, 4.6626854, 0.0, 0.0012543232, -0.035615165, 0.0 
1.2207031e-2, 2.5995728e+1, -0.036767226, -18606.785, -4.3915977, 0.0, 0.0016991645, -0.035730716, 0.0 
1.2207031e-2, 2.6019698e+1, -0.036818173, -18605.447, -2.5338776, 0.0, 0.0013110654, -0.036473084, 0.0 
1.2207031e-2, 2.604367e+1, -0.03682368, -18565.03, 5.4040136, 0.0, 0.0014314451, -0.035250645, 0.0 
1.2207031e-2, 2.6067647e+1, -0.037016712, -18561.771, -1.1488415, 0.0, 0.001660399, -0.036945608, 0.0 
1.2207031e-2, 2.609162e+1, -0.03703684, -18530.242, -0.68141824, 0.0, 0.0011938711, -0.037011784, 0.0 
1.2207031e-2, 2.6115593e+1, -0.037030436, -18522.336, 3.6766367, 0.0, 0.0013749084, -0.036300633, 0.0 
1.2207031e-2, 2.6139566e+1, -0.037040897, -18488.055, -2.3492088, 0.0, 0.001686412, -0.036742393, 0.0 
1.2207031e-2, 2.6163542e+1, -0.037268054, -18490.145, -1.6023731, 0.0, 0.0013234766, -0.03712919, 0.0 
1.2207031e-2, 2.6187518e+1, -0.037568796, -18441.982, 1.0023037, 0.0, 0.0015018899, -0.03751432, 0.0 
1.2207031e-2, 2.621149e+1, -0.037964553, -18450.627, -0.066577114, 0.0, 0.0012543866, -0.03796431, 0.0 
1.2207031e-2, 2.623547e+1, -0.038242936, -18409.227, 2.279522, 0.0, 0.0014702886, -0.037960675, 0.0 
1.2207031e-2, 2.6259446e+1, -0.038477562, -18412.842, 0.8343076, 0.0, 0.0018768464, -0.038439758, 0.0 
1.2207031e-2, 2.6283422e+1, -0.03881725, -18367.879, -18.678434, 0.0, 0.001015619, -0.019822987, 0.0 
1.2207031e-2, 2.63074e+1, -0.038967438, -18369.838, -15.274485, 0.0, 0.0010697362, -0.026266715, 0.0 
1.2207031e-2, 2.633138e+1, -0.03873364, -18324.854, 0.93684006, 0.0, 0.0019922128, -0.038685743, 0.0 
1.2207031e-2, 2.6355356e+1, -0.038877435, -18340.295, 5.01647, 0.0, 0.0012491844, -0.037505317, 0.0 
1.2207031e-2, 2.6379335e+1, -0.039289404, -18279.271, -23.574074, 0.0, 0.0012893773, -0.008886809, 0.0 
1.2207031e-2, 2.6403314e+1, -0.038967904, -18299.914, -2.0094674, 0.0, 0.0016192134, -0.038747247, 0.0 
1.2207031e-2, 2.6427296e+1, -0.03907295, -18250.14, 4.6688237, 0.0, 0.0012287197, -0.03787855, 0.0 
1.2207031e-2, 2.6451275e+1, -0.03924737, -18253.66, 1.1685634, 0.0, 0.0013885, -0.03917256, 0.0 
1.2207031e-2, 2.6475257e+1, -0.039312877, -18213.254, -2.305222, 0.0, 0.0014432346, -0.03902111, 0.0 
1.2207031e-2, 2.6499236e+1, -0.039451506, -18218.268, 3.2296937, 0.0, 0.0013879187, -0.03887895, 0.0 
1.2207031e-2, 2.6523218e+1, -0.039560266, -18165.865, -4.4880843, 0.0, 0.0015091139, -0.038451433, 0.0 
1.2207031e-2, 2.6547202e+1, -0.03963861, -18184.941, 3.4147139, 0.0, 0.0010094602, -0.038997404, 0.0 
1.2207031e-2, 2.6571184e+1, -0.03965136, -18128.045, 1.4506634, 0.0, 0.0015522415, -0.039535273, 0.0 
1.2207031e-2, 2.6595166e+1, -0.039612506, -18143.248, -9.871191, 0.0, 0.0016281814, -0.03424188, 0.0 
1.2207031e-2, 2.661915e+1, -0.039678056, -18091.969, 6.9219885, 0.0, 0.0010433425, -0.037029695, 0.0 
1.2207031e-2, 2.6643133e+1, -0.039853517, -18079.947, -14.674756, 0.0, 0.0015338154, -0.0279426, 0.0 
1.2207031e-2, 2.6667118e+1, -0.03991093, -18061.895, -45.508133, 0.0, 0.0014504713, 0.07474933, 0.0 
1.2207031e-2, 2.6691103e+1, -0.03979735, -18071.576, -17.546196, 0.0, 0.0009825827, -0.022761239, 0.0 
1.2207031e-2, 2.6715088e+1, -0.039587706, -18017.68, 3.4085205, 0.0, 0.0015243018, -0.038942896, 0.0 
1.2207031e-2, 2.6739073e+1, -0.039416883, -18025.232, 1.3548542, 0.0, 0.0015579996, -0.03931505, 0.0 
1.2207031e-2, 2.676306e+1, -0.039452728, -17978.307, -20.234045, 0.0, 0.0011943084, -0.016679896, 0.0 
1.2207031e-2, 2.6787046e+1, -0.038830537, -17975.27, 1.8868636, 0.0, 0.001282715, -0.038632475, 0.0 
1.2207031e-2, 2.6811033e+1, -0.038571678, -17944.387, -1.3682777, 0.0, 0.0013719221, -0.038467348, 0.0 
1.2207031e-2, 2.683502e+1, -0.038609803, -17936.193, 2.2818756, 0.0, 0.0014025909, -0.0383195, 0.0 
1.2207031e-2, 2.685901e+1, -0.038801298, -17903.105, -0.09564384, 0.0, 0.0013551527, -0.038800787, 0.0 
1.2207031e-2, 2.6882997e+1, -0.039030995, -17901.096, -2.4714224, 0.0, 0.0011958337, -0.038689792, 0.0 
1.2207031e-2, 2.6906985e+1, -0.03879538, -17863.85, -0.48719636, 0.0, 0.0013583746, -0.038782094, 0.0 
1.2207031e-2, 2.6930976e+1, -0.03844014, -17857.254, 1.2191008, 0.0, 0.0014565832, -0.038356915, 0.0 
1.2207031e-2, 2.6954967e+1, -0.03807188, -17829.607, 0.34108374, 0.0, 0.001167033, -0.038065355, 0.0 
1.2207031e-2, 2.6978958e+1, -0.038127873, -17818.36, -1.8204182, 0.0, 0.0014509753, -0.037941888, 0.0 
1.2207031e-2, 2.7002946e+1, -0.0382274, -17788.572, -0.86593056, 0.0, 0.0014987062, -0.038185246, 0.0 
1.2207031e-2, 2.7026936e+1, -0.03845083, -17776.752, 0.64891374, 0.0, 0.00091401965, -0.03842714, 0.0 
1.2207031e-2, 2.7050927e+1, -0.03843857, -17752.762, 0.47099802, 0.0, 0.0012402156, -0.038426075, 0.0 
1.2207031e-2, 2.707492e+1, -0.03850081, -17736.11, -1.9876667, 0.0, 0.0018785592, -0.038278054, 0.0 
1.2207031e-2, 2.7098912e+1, -0.038500447, -17716.734, -0.35331774, 0.0, 0.0011714167, -0.0384934, 0.0 
1.2207031e-2, 2.7122906e+1, -0.038489055, -17700.127, 4.0784283, 0.0, 0.0010310947, -0.03754931, 0.0 
1.2207031e-2, 2.71469e+1, -0.038730033, -17672.967, -24.15746, 0.0, 0.0015342095, -0.0057088067, 0.0 
1.2207031e-2, 2.7170894e+1, -0.03828885, -17653.666, 5.8652163, 0.0, 0.0012782147, -0.0363402, 0.0 
1.2207031e-2, 2.7194887e+1, -0.038547833, -17639.6, -0.0064378153, 0.0, 0.0011950295, -0.038547833, 0.0 
1.2207031e-2, 2.7218884e+1, -0.03900008, -17616.531, -2.5855124, 0.0, 0.0015709167, -0.038620614, 0.0 
1.2207031e-2, 2.7242878e+1, -0.03918647, -17598.566, 0.064405665, 0.0, 0.001217999, -0.039186236, 0.0 
1.2207031e-2, 2.7266875e+1, -0.039313227, -17576.672, 1.9921454, 0.0, 0.0012811656, -0.039087433, 0.0 
1.2207031e-2, 2.729087e+1, -0.039323505, -17560.916, 0.8187536, 0.0, 0.0015165601, -0.03928533, 0.0 
1.2207031e-2, 2.7314866e+1, -0.0393391, -17530.0, -5.1694784, 0.0, 0.0011340579, -0.03781465, 0.0 
1.2207031e-2, 2.7338862e+1, -0.03947925, -17527.262, -9.583949, 0.0, 0.0012006701, -0.03423871, 0.0 
1.2207031e-2, 2.7362862e+1, -0.039782643, -17497.545, -6.073874, 0.0, 0.0016880684, -0.037674233, 0.0 
1.2207031e-2, 2.738686e+1, -0.04015132, -17488.074, 1.0640181, 0.0, 0.0011934396, -0.040086582, 0.0 
1.2207031e-2, 2.7410856e+1, -0.040444914, -17451.592, 1.8836706, 0.0, 0.0012895069, -0.040241595, 0.0 
1.2207031e-2, 2.7434856e+1, -0.04064212, -17452.033, -1.2972419, 0.0, 0.001518068, -0.04054569, 0.0 
1.2207031e-2, 2.7458856e+1, -0.040627804, -17415.254, 1.4329449, 0.0, 0.0011755975, -0.0405099, 0.0 
1.2207031e-2, 2.7482855e+1, -0.04060934, -17406.688, 0.8896427, 0.0, 0.001283923, -0.040563874, 0.0 
1.2207031e-2, 2.7506855e+1, -0.040728208, -17374.414, -2.1962059, 0.0, 0.0015458979, -0.0404506, 0.0 
1.2207031e-2, 2.7530855e+1, -0.04120139, -17375.154, 1.2973763, 0.0, 0.0012868585, -0.041104514, 0.0 
1.2207031e-2, 2.7554858e+1, -0.041731283, -17332.959, -0.33996797, 0.0, 0.00139073, -0.041724615, 0.0 
1.2207031e-2, 2.7578858e+1, -0.04224007, -17337.127, 0.08074941, 0.0, 0.0011999044, -0.042239692, 0.0 
1.2207031e-2, 2.760286e+1, -0.042469572, -17295.62, -10.382644, 0.0, 0.0014575872, -0.036236808, 0.0 
1.2207031e-2, 2.7626863e+1, -0.04236902, -17291.17, 2.1095243, 0.0, 0.001632538, -0.042111658, 0.0 
1.2207031e-2, 2.7650866e+1, -0.042413816, -17255.47, 0.18125182, 0.0, 0.0010728814, -0.042411912, 0.0 
1.2207031e-2, 2.767487e+1, -0.042510238, -17256.18, 2.4597387, 0.0, 0.0012304726, -0.042159617, 0.0 
1.2207031e-2, 2.7698874e+1, -0.042178176, -17217.63, 0.021509727, 0.0, 0.00170034, -0.04217815, 0.0 
1.2207031e-2, 2.7722877e+1, -0.04175473, -17218.695, 1.1701251, 0.0, 0.0011918562, -0.041675214, 0.0 
1.2207031e-2, 2.774688e+1, -0.041297052, -17172.041, -0.7880918, 0.0, 0.0013889383, -0.041260883, 0.0 
1.2207031e-2, 2.777089e+1, -0.04131328, -17181.885, 0.039369397, 0.0, 0.0015530913, -0.04131319, 0.0 
1.2207031e-2, 2.7794895e+1, -0.0411739, -17138.787, 3.2930038, 0.0, 0.0012339919, -0.04054119, 0.0 
1.2207031e-2, 2.78189e+1, -0.04111664, -17139.023, -2.1196241, 0.0, 0.0013200209, -0.040854502, 0.0 
1.2207031e-2, 2.7842906e+1, -0.04108631, -17102.018, 1.9399492, 0.0, 0.0014751977, -0.040866252, 0.0 
1.2207031e-2, 2.7866912e+1, -0.041501205, -17098.025, 2.3675249, 0.0, 0.0014523645, -0.041173376, 0.0 
1.2207031e-2, 2.789092e+1, -0.041805442, -17060.316, -2.718524, 0.0, 0.0013537686, -0.04137225, 0.0 
1.2207031e-2, 2.791493e+1, -0.042118754, -17062.615, 4.2749724, 0.0, 0.0012960644, -0.041047674, 0.0 
1.2207031e-2, 2.7938935e+1, -0.042302564, -17009.748, -10.319682, 0.0, 0.0014968422, -0.036041677, 0.0 
1.2207031e-2, 2.7962947e+1, -0.042480044, -17026.365, -27.334053, 0.0, 0.0014100737, 0.0014019235, 0.0 
1.2207031e-2, 2.7986953e+1, -0.04267582, -16988.396, -9.598242, 0.0, 0.0013597411, -0.037252914, 0.0 
1.2207031e-2, 2.8010964e+1, -0.042945463, -16984.26, 3.8616097, 0.0, 0.001458591, -0.04206747, 0.0 
1.2207031e-2, 2.8034973e+1, -0.0430882, -16944.031, -1.8943791, 0.0, 0.0013969027, -0.042876404, 0.0 
1.2207031e-2, 2.8058985e+1, -0.043193202, -16946.38, -0.9062801, 0.0, 0.0013913917, -0.043144733, 0.0 
1.2207031e-2, 2.8082997e+1, -0.043183427, -16901.63, 0.45760065, 0.0, 0.0014135775, -0.043171037, 0.0 
1.2207031e-2, 2.8107008e+1, -0.043261483, -16906.021, 0.54289234, 0.0, 0.001493498, -0.04324405, 0.0 
1.2207031e-2, 2.813102e+1, -0.04334004, -16863.64, 0.9189088, 0.0, 0.0014349498, -0.043289967, 0.0 
1.2207031e-2, 2.8155032e+1, -0.04349102, -16869.03, 0.3418874, 0.0, 0.0013012799, -0.04348409, 0.0 
1.2207031e-2, 2.8179044e+1, -0.043686252, -16823.81, -0.41284063, 0.0, 0.0014546547, -0.043676123, 0.0 
1.2207031e-2, 2.8203058e+1, -0.043549083, -16827.75, -0.13786544, 0.0, 0.0015898242, -0.043547954, 0.0 
1.2207031e-2, 2.8227073e+1, -0.043812778, -16786.076, 0.8111706, 0.0, 0.0013533264, -0.04377358, 0.0 
1.2207031e-2, 2.8251085e+1, -0.043942768, -16789.498, 0.6698201, 0.0, 0.0013809926, -0.043916047, 0.0 
1.2207031e-2, 2.82751e+1, -0.044155374, -16747.068, -0.43556374, 0.0, 0.0015399765, -0.044144046, 0.0 
1.2207031e-2, 2.8299117e+1, -0.04401026, -16748.516, -0.33057564, 0.0, 0.0013593204, -0.044003736, 0.0 
1.2207031e-2, 2.8323132e+1, -0.04414122, -16709.646, -3.4384742, 0.0, 0.0013782853, -0.04343366, 0.0 
1.2207031e-2, 2.8347147e+1, -0.043885823, -16708.33, -0.44289032, 0.0, 0.0016708244, -0.04387408, 0.0 
1.2207031e-2, 2.8371164e+1, -0.043923497, -16670.84, 0.072802596, 0.0, 0.0013833372, -0.043923177, 0.0 
1.2207031e-2, 2.8395182e+1, -0.043840658, -16668.611, 0.711168, 0.0, 0.0013090015, -0.043810315, 0.0 
1.2207031e-2, 2.84192e+1, -0.04419344, -16634.55, -1.0369506, 0.0, 0.0015741059, -0.044128798, 0.0 
1.2207031e-2, 2.8443217e+1, -0.044480048, -16627.896, -0.020352906, 0.0, 0.0014031009, -0.044480022, 0.0 
1.2207031e-2, 2.8467235e+1, -0.04488232, -16593.908, 0.8396327, 0.0, 0.0013298579, -0.044839837, 0.0 
1.2207031e-2, 2.8491253e+1, -0.044873722, -16588.105, -1.4421712, 0.0, 0.0016844621, -0.04474834, 0.0 
1.2207031e-2, 2.8515273e+1, -0.044805, -16558.936, -0.5933905, 0.0, 0.0014526177, -0.044783738, 0.0 
1.2207031e-2, 2.8539294e+1, -0.04453827, -16544.281, 1.2603467, 0.0, 0.0012189971, -0.044442255, 0.0 
1.2207031e-2, 2.8563312e+1, -0.04453943, -16522.896, -0.28591216, 0.0, 0.0014380885, -0.044534482, 0.0 
1.2207031e-2, 2.8587332e+1, -0.044434957, -16507.29, -0.88103896, 0.0, 0.0016566864, -0.044387933, 0.0 
1.2207031e-2, 2.8611356e+1, -0.044318493, -16479.59, -0.4819584, 0.0, 0.0014038164, -0.044304397, 0.0 
1.2207031e-2, 2.8635377e+1, -0.044266153, -16462.172, -1.424049, 0.0, 0.0013011261, -0.044142965, 0.0 
1.2207031e-2, 2.8659397e+1, -0.044564676, -16448.234, -29.816954, 0.0, 0.0014230157, 0.009486729, 0.0 
1.2207031e-2, 2.868342e+1, -0.044254567, -16429.094, -1.91983, 0.0, 0.0015476322, -0.044030227, 0.0 
1.2207031e-2, 2.8707445e+1, -0.044000473, -16403.637, -0.024450578, 0.0, 0.0013954063, -0.044000436, 0.0 
1.2207031e-2, 2.8731465e+1, -0.043721292, -16383.185, -3.1465778, 0.0, 0.0013701668, -0.043116953, 0.0 
1.2207031e-2, 2.875549e+1, -0.04351206, -16369.122, -5.748598, 0.0, 0.001379331, -0.041493233, 0.0 
1.2207031e-2, 2.8779516e+1, -0.043646272, -16347.29, -1.6901324, 0.0, 0.0014880807, -0.04347153, 0.0 
1.2207031e-2, 2.880354e+1, -0.043546386, -16329.831, 0.070782006, 0.0, 0.0014146826, -0.04354608, 0.0 
1.2207031e-2, 2.8827563e+1, -0.043640677, -16307.085, -1.4600576, 0.0, 0.001334898, -0.043509953, 0.0 
1.2207031e-2, 2.885159e+1, -0.043595776, -16289.024, -0.65863335, 0.0, 0.001355359, -0.043569144, 0.0 
1.2207031e-2, 2.8875616e+1, -0.04385686, -16269.5, 0.98996264, 0.0, 0.001462957, -0.04379662, 0.0 
1.2207031e-2, 2.8899643e+1, -0.04403376, -16250.789, -0.27486095, 0.0, 0.0014226894, -0.04402911, 0.0 
1.2207031e-2, 2.892367e+1, -0.04461053, -16226.721, -2.5881076, 0.0, 0.0013090499, -0.044197734, 0.0 
1.2207031e-2, 2.8947696e+1, -0.04454962, -16213.457, 0.44288018, 0.0, 0.0012593346, -0.044537526, 0.0 
1.2207031e-2, 2.8971726e+1, -0.044738986, -16189.669, 1.962395, 0.0, 0.0015278962, -0.04450112, 0.0 
1.2207031e-2, 2.8995752e+1, -0.044841636, -16180.718, 1.2278277, 0.0, 0.0014209264, -0.044748466, 0.0 
1.2207031e-2, 2.9019782e+1, -0.047726218, -16158.692, -47.25749, 0.0, 0.0011973472, 0.09048161, 0.0 
1.2207031e-2, 2.9043812e+1, -0.050807472, -16125.541, -63.893047, 0.0, 0.001376141, 0.20234807, 0.0 
1.2207031e-2, 2.906784e+1, -0.04671323, -16102.028, 11.402224, 0.0, 0.0014247356, -0.038639028, 0.0 
1.2207031e-2, 2.909187e+1, -0.046785053, -16105.988, -0.5716362, 0.0, 0.0012499199, -0.046764765, 0.0 
1.2207031e-2, 2.9115903e+1, -0.050696936, -16080.903, -63.217808, 0.0, 0.0014010388, 0.19782406, 0.0 
1.2207031e-2, 2.9139933e+1, -0.051980983, -16046.257, -66.786064, 0.0, 0.0013875662, 0.22598512, 0.0 
1.2207031e-2, 2.9163966e+1, -0.046974484, -16022.36, 9.92759, 0.0, 0.0012324837, -0.04082325, 0.0 
1.2207031e-2, 2.9187995e+1, -0.046477236, -16018.84, -1.561432, 0.0, 0.0014111825, -0.046325035, 0.0 
1.2207031e-2, 2.9212028e+1, -0.046351846, -15994.578, 0.10558713, 0.0, 0.0013235976, -0.04635115, 0.0 
1.2207031e-2, 2.923606e+1, -0.04652512, -15976.248, -0.6951092, 0.0, 0.0012228934, -0.046494875, 0.0 
1.2207031e-2, 2.9260096e+1, -0.046627745, -15953.637, 0.22942784, 0.0, 0.0014289027, -0.046624444, 0.0 
1.2207031e-2, 2.928413e+1, -0.046690535, -15942.083, 0.92984074, 0.0, 0.0013542916, -0.046636302, 0.0 
1.2207031e-2, 2.9308164e+1, -0.046801083, -15913.039, -1.9270415, 0.0, 0.0012549863, -0.04656772, 0.0 
1.2207031e-2, 2.9332197e+1, -0.046822574, -15900.535, -2.5074904, 0.0, 0.001365816, -0.046427146, 0.0 
1.2207031e-2, 2.9356232e+1, -0.046540365, -15875.697, 3.0521932, 0.0, 0.0012925471, -0.045953564, 0.0 
1.2207031e-2, 2.9380268e+1, -0.046360392, -15864.101, 1.8294762, 0.0, 0.0013849727, -0.046149414, 0.0 
1.2207031e-2, 2.9404303e+1, -0.046319038, -15835.609, -16.991165, 0.0, 0.001315562, -0.028087962, 0.0 
1.2207031e-2, 2.9428342e+1, -0.046122372, -15823.135, -2.4578319, 0.0, 0.0012650887, -0.04574059, 0.0 
1.2207031e-2, 2.945238e+1, -0.04607377, -15796.72, 1.8901733, 0.0, 0.0013990395, -0.0458476, 0.0 
1.2207031e-2, 2.9476416e+1, -0.046210602, -15784.945, 0.09781668, 0.0, 0.0013247941, -0.04621, 0.0 
1.2207031e-2, 2.9500455e+1, -0.046466935, -15757.451, -7.609469, 0.0, 0.0012561585, -0.04279222, 0.0 
1.2207031e-2, 2.9524493e+1, -0.046422508, -15746.38, -2.7457569, 0.0, 0.0015204222, -0.04594372, 0.0 
1.2207031e-2, 2.9548532e+1, -0.046291355, -15717.6455, -0.13354614, 0.0, 0.001277585, -0.04629022, 0.0 
1.2207031e-2, 2.957257e+1, -0.04630802, -15704.71, 3.3196845, 0.0, 0.0012005885, -0.045606297, 0.0 
1.2207031e-2, 2.959661e+1, -0.04642381, -15682.871, -0.9931109, 0.0, 0.0014042323, -0.04636092, 0.0 
1.2207031e-2, 2.962065e+1, -0.046496477, -15667.097, -0.46580505, 0.0, 0.0015138565, -0.04648263, 0.0 
1.2207031e-2, 2.9644692e+1, -0.04672727, -15636.88, 0.520446, 0.0, 0.001283537, -0.046709947, 0.0 
1.2207031e-2, 2.966873e+1, -0.046962082, -15630.492, -0.2978696, 0.0, 0.0012210122, -0.046956405, 0.0 
1.2207031e-2, 2.9692775e+1, -0.046956845, -15600.989, 2.0819812, 0.0, 0.0013983207, -0.046679, 0.0 
1.2207031e-2, 2.9716817e+1, -0.046724133, -15591.761, -0.6596351, 0.0, 0.0015255435, -0.046696227, 0.0 
1.2207031e-2, 2.9740858e+1, -0.046452507, -15565.019, 4.07001, 0.0, 0.0012506793, -0.04538826, 0.0 
1.2207031e-2, 2.97649e+1, -0.051332373, -15547.713, -89.884995, 0.0, 0.001368311, 0.46829832, 0.0 
1.2207031e-2, 2.9788944e+1, -0.046154454, -15522.267, 6.4416833, 0.0, 0.0013947799, -0.043481175, 0.0 
1.2207031e-2, 2.981299e+1, -0.046151195, -15511.517, 0.2607918, 0.0, 0.0013695757, -0.04614681, 0.0 
1.2207031e-2, 2.9837033e+1, -0.0461161, -15482.773, 3.0038972, 0.0, 0.0013669877, -0.045533292, 0.0 
1.2207031e-2, 2.9861078e+1, -0.047043126, -15470.959, -43.22639, 0.0, 0.0014172618, 0.07373232, 0.0 
1.2207031e-2, 2.9885122e+1, -0.045922313, -15445.221, 4.4776487, 0.0, 0.0013312104, -0.044624213, 0.0 
1.2207031e-2, 2.990917e+1, -0.046297304, -15434.488, 2.4753447, 0.0, 0.0014604381, -0.04590031, 0.0 
1.2207031e-2, 2.9933214e+1, -0.0468664, -15403.303, -1.5687221, 0.0, 0.0013601773, -0.046706636, 0.0 
1.2207031e-2, 2.995726e+1, -0.047425862, -15393.793, -0.08853923, 0.0, 0.0013814524, -0.047425356, 0.0 
1.2207031e-2, 2.998131e+1, -0.04768181, -15365.655, 1.6607555, 0.0, 0.0014353067, -0.04750231, 0.0 
1.2207031e-2, 3.0005354e+1, -0.047942806, -15357.595, 0.7104952, 0.0, 0.0013573187, -0.047909934, 0.0 
1.2207031e-2, 3.00294e+1, -0.0480979, -15324.307, 0.89438754, 0.0, 0.0014001223, -0.0480457, 0.0 
1.2207031e-2, 3.0053452e+1, -0.04824241, -15317.784, -0.7914095, 0.0, 0.0014672071, -0.04820152, 0.0 
1.2207031e-2, 3.00775e+1, -0.048600405, -15287.553, 0.258821, 0.0, 0.0013343402, -0.04859602, 0.0 
1.2207031e-2, 3.010155e+1, -0.04928591, -15276.295, 1.7502031, 0.0, 0.0014989752, -0.04908539, 0.0 
1.2207031e-2, 3.01256e+1, -0.05002216, -15249.284, -2.8763995, 0.0, 0.0013490274, -0.049479596, 0.0 
1.2207031e-2, 3.0149648e+1, -0.05042635, -15241.494, -0.9577226, 0.0, 0.0014238518, -0.050366167, 0.0 
1.2207031e-2, 3.01737e+1, -0.050309718, -15203.9795, 0.58795136, 0.0, 0.001682583, -0.050286982, 0.0 
1.2207031e-2, 3.0197752e+1, -0.049902048, -15201.719, -0.06175974, 0.0, 0.001069553, -0.0499018, 0.0 
1.2207031e-2, 3.0221802e+1, -0.04957243, -15169.123, 1.645338, 0.0, 0.0011282968, -0.049393967, 0.0 
1.2207031e-2, 3.0245855e+1, -0.049378306, -15161.257, -2.089877, 0.0, 0.0021395967, -0.04909023, 0.0 
1.2207031e-2, 3.0269906e+1, -0.049375623, -15132.199, -1.1990296, 0.0, 0.0015410424, -0.049280617, 0.0 
1.2207031e-2, 3.029396e+1, -0.049730804, -15121.208, 2.5737088, 0.0, 0.00076471793, -0.049292743, 0.0 
1.2207031e-2, 3.0318013e+1, -0.049983423, -15088.427, -0.34837434, 0.0, 0.0014259567, -0.04997538, 0.0 
1.2207031e-2, 3.0342066e+1, -0.049731165, -15085.479, 0.26422295, 0.0, 0.0018979004, -0.04972654, 0.0 
1.2207031e-2, 3.0366123e+1, -0.049472887, -15049.746, 1.0839212, 0.0, 0.0015793066, -0.04939482, 0.0 
1.2207031e-2, 3.0390176e+1, -0.04951795, -15048.14, -0.545787, 0.0, 0.0009773269, -0.049498156, 0.0 
1.2207031e-2, 3.0414233e+1, -0.049733985, -15010.435, 1.0590855, 0.0, 0.0013026258, -0.04965926, 0.0 
1.2207031e-2, 3.043829e+1, -0.049603753, -15003.895, -2.4387357, 0.0, 0.0019311717, -0.04920736, 0.0 
1.2207031e-2, 3.0462343e+1, -0.049695082, -14970.505, -2.6999087, 0.0, 0.001424329, -0.049208157, 0.0 
1.2207031e-2, 3.0486402e+1, -0.050180387, -14965.333, -5.8872743, 0.0, 0.0011669021, -0.04786436, 0.0 
1.2207031e-2, 3.0510458e+1, -0.05061405, -14939.473, -9.663954, 0.0, 0.0015533721, -0.044362675, 0.0 
1.2207031e-2, 3.0534515e+1, -0.05061269, -14932.059, 5.260576, 0.0, 0.0014507774, -0.048759382, 0.0 
1.2207031e-2, 3.0558574e+1, -0.050701395, -14877.463, -18.49446, 0.0, 0.0014992576, -0.027710535, 0.0 
1.2207031e-2, 3.058263e+1, -0.05029954, -14888.838, -24.573305, 0.0, 0.0013707813, -0.0097424695, 0.0 
1.2207031e-2, 3.060669e+1, -0.049915627, -14865.886, -9.733476, 0.0, 0.0014543816, -0.04354259, 0.0 
1.2207031e-2, 3.063075e+1, -0.049697973, -14853.729, 1.3661631, 0.0, 0.0014848325, -0.049572323, 0.0 
1.2207031e-2, 3.065481e+1, -0.04982352, -14813.144, -1.3616381, 0.0, 0.0013701189, -0.049698357, 0.0 
1.2207031e-2, 3.0678868e+1, -0.05037793, -14809.186, -0.2996407, 0.0, 0.0014994117, -0.050371867, 0.0 
1.2207031e-2, 3.070293e+1, -0.050642822, -14778.08, -2.3218157, 0.0, 0.0014468775, -0.050278038, 0.0 
1.2207031e-2, 3.0726993e+1, -0.05040973, -14773.117, 1.6635071, 0.0, 0.0012719083, -0.05022241, 0.0 
1.2207031e-2, 3.0751052e+1, -0.049789004, -14735.034, 0.39826387, 0.0, 0.0018556104, -0.049778238, 0.0 
1.2207031e-2, 3.0775115e+1, -0.049352735, -14736.996, -2.0357342, 0.0, 0.0012494106, -0.04907152, 0.0 
1.2207031e-2, 3.0799177e+1, -0.049202107, -14695.907, 2.8549442, 0.0, 0.0007936925, -0.04864748, 0.0 
1.2207031e-2, 3.082324e+1, -0.04949498, -14689.891, -3.3102884, 0.0, 0.0019030522, -0.048749022, 0.0 
1.2207031e-2, 3.0847302e+1, -0.052441064, -14671.37, -69.4505, 0.0, 0.0021811828, 0.2763136, 0.0 
1.2207031e-2, 3.0871367e+1, -0.05351801, -14654.994, -57.803955, 0.0, 0.00070773595, 0.17447646, 0.0 
1.2207031e-2, 3.0895433e+1, -0.05007394, -14614.024, 12.291071, 0.0, 0.0008415237, -0.039736554, 0.0 
1.2207031e-2, 3.0919495e+1, -0.050046798, -14609.676, -8.387711, 0.0, 0.0020305857, -0.04523123, 0.0 
1.2207031e-2, 3.094356e+1, -0.051074274, -14584.1045, -55.212925, 0.0, 0.0019021227, 0.15795018, 0.0 
1.2207031e-2, 3.096763e+1, -0.05001024, -14575.575, -12.769174, 0.0, 0.00092418, -0.038823567, 0.0 
1.2207031e-2, 3.0991694e+1, -0.049927425, -14545.026, 2.9144483, 0.0, 0.001028178, -0.04934344, 0.0 
1.2207031e-2, 3.101576e+1, -0.050053902, -14534.617, -2.5653846, 0.0, 0.0016801644, -0.049601104, 0.0 
1.2207031e-2, 3.1039828e+1, -0.050404772, -14505.739, -3.2231827, 0.0, 0.0019478571, -0.049688578, 0.0 
1.2207031e-2, 3.1063896e+1, -0.05083473, -14495.503, 1.1999619, 0.0, 0.001065334, -0.050735395, 0.0 
1.2207031e-2, 3.1087962e+1, -0.050839454, -14466.275, 1.7359612, 0.0, 0.0008924696, -0.050631136, 0.0 
1.2207031e-2, 3.1112033e+1, -0.05090029, -14455.11, -2.7397537, 0.0, 0.0017430852, -0.05038101, 0.0 
1.2207031e-2, 3.11361e+1, -0.051196028, -14428.685, -0.38908675, 0.0, 0.0017969762, -0.051185533, 0.0 
1.2207031e-2, 3.116017e+1, -0.051057667, -14416.344, 1.2159135, 0.0, 0.0010552831, -0.05095511, 0.0 
1.2207031e-2, 3.118424e+1, -0.050634004, -14390.001, -2.9663136, 0.0, 0.0012416831, -0.050022535, 0.0 
1.2207031e-2, 3.1208313e+1, -0.05028733, -14381.013, 0.75543123, 0.0, 0.0015159973, -0.050247647, 0.0 
1.2207031e-2, 3.123238e+1, -0.0515157, -14349.505, -47.683144, 0.0, 0.0015219422, 0.10693333, 0.0 
1.2207031e-2, 3.1256452e+1, -0.050372645, -14337.118, -9.536228, 0.0, 0.0013083642, -0.044029675, 0.0 
1.2207031e-2, 3.1280524e+1, -0.050811287, -14310.975, 0.6316485, 0.0, 0.001264508, -0.05078341, 0.0 
1.2207031e-2, 3.1304595e+1, -0.050916255, -14297.016, -0.42272353, 0.0, 0.0014059484, -0.050903756, 0.0 
1.2207031e-2, 3.132867e+1, -0.050726537, -14272.285, -1.2676262, 0.0, 0.0015390249, -0.05061395, 0.0 
1.2207031e-2, 3.135274e+1, -0.05059025, -14266.8545, -11.701107, 0.0, 0.0013123199, -0.04099344, 0.0 
1.2207031e-2, 3.1376815e+1, -0.050715156, -14231.003, 5.721208, 0.0, 0.0012515195, -0.048415083, 0.0 
1.2207031e-2, 3.140089e+1, -0.05080525, -14213.981, -1.815703, 0.0, 0.0013403107, -0.050573308, 0.0 
1.2207031e-2, 3.1424963e+1, -0.050651126, -14196.597, -6.6869445, 0.0, 0.0016236645, -0.0475014, 0.0 
1.2207031e-2, 3.144904e+1, -0.050373986, -14185.397, 1.4462655, 0.0, 0.0014019157, -0.050226532, 0.0 
1.2207031e-2, 3.1473115e+1, -0.050581735, -14154.575, 5.4865255, 0.0, 0.00096244476, -0.048455067, 0.0 
1.2207031e-2, 3.149719e+1, -0.05061621, -14138.636, -3.3030686, 0.0, 0.001383036, -0.049844544, 0.0 
1.2207031e-2, 3.1521267e+1, -0.050530348, -14119.433, -3.1330748, 0.0, 0.0018571321, -0.049835123, 0.0 
1.2207031e-2, 3.1545344e+1, -0.0504355, -14101.967, 2.2082095, 0.0, 0.0012075229, -0.050089717, 0.0 
1.2207031e-2, 3.156942e+1, -0.050861914, -14076.169, -2.1532001, 0.0, 0.0010413462, -0.050532542, 0.0 
1.2207031e-2, 3.15935e+1, -0.050633635, -14066.223, -0.68059206, 0.0, 0.001602026, -0.050600704, 0.0 
1.2207031e-2, 3.1617576e+1, -0.050350297, -14040.052, 2.7165666, 0.0, 0.0013508582, -0.049824677, 0.0 
1.2207031e-2, 3.1641656e+1, -0.050295446, -14019.487, -1.4265865, 0.0, 0.0011293031, -0.05015028, 0.0 
1.2207031e-2, 3.1665733e+1, -0.050671402, -14001.53, -2.2611482, 0.0, 0.001758544, -0.050306242, 0.0 
1.2207031e-2, 3.168981e+1, -0.05111259, -13983.415, -4.980284, 0.0, 0.0014177455, -0.04933882, 0.0 
1.2207031e-2, 3.171389e+1, -0.05146746, -13963.153, -9.659435, 0.0, 0.00086859387, -0.04478523, 0.0 
1.2207031e-2, 3.173797e+1, -0.05176476, -13944.668, -6.836156, 0.0, 0.0016466356, -0.04841343, 0.0 
1.2207031e-2, 3.1762055e+1, -0.052311253, -13922.965, -0.94627047, 0.0, 0.0014288583, -0.05224694, 0.0 
1.2207031e-2, 3.1786135e+1, -0.0527121, -13908.836, -2.473951, 0.0, 0.0009786724, -0.052272063, 0.0 
1.2207031e-2, 3.1810218e+1, -0.052807644, -13881.938, -0.9344703, 0.0, 0.001899943, -0.05274474, 0.0 
1.2207031e-2, 3.1834298e+1, -0.053025138, -13868.677, -0.068630695, 0.0, 0.0016230309, -0.0530248, 0.0 
1.2207031e-2, 3.1858382e+1, -0.05310969, -13841.256, 0.04469391, 0.0, 0.00056066073, -0.053109545, 0.0 
1.2207031e-2, 3.1882465e+1, -0.053458676, -13830.224, -1.8115656, 0.0, 0.0012830273, -0.053221386, 0.0 
1.2207031e-2, 3.1906548e+1, -0.053692814, -13804.903, 3.49274, 0.0, 0.0021610209, -0.05280912, 0.0 
1.2207031e-2, 3.193063e+1, -0.054143194, -13790.152, 1.2385709, 0.0, 0.0014748253, -0.054031953, 0.0 
1.2207031e-2, 3.1954718e+1, -0.054538652, -13762.0625, -4.780022, 0.0, 0.0006326302, -0.052878384, 0.0 
1.2207031e-2, 3.19788e+1, -0.054693177, -13755.903, -0.75739765, 0.0, 0.0013366841, -0.054651476, 0.0 
1.2207031e-2, 3.2002887e+1, -0.05410217, -13723.591, 3.4477658, 0.0, 0.0020107932, -0.05323599, 0.0 
1.2207031e-2, 3.2026973e+1, -0.05397319, -13710.447, 3.1304812, 0.0, 0.001344878, -0.05325841, 0.0 
1.2207031e-2, 3.205106e+1, -0.054136336, -13677.037, -9.633207, 0.0, 0.0009688586, -0.047351312, 0.0 
1.2207031e-2, 3.2075146e+1, -0.055381514, -13681.008, -50.526676, 0.0, 0.0015642379, 0.13122174, 0.0 
1.2207031e-2, 3.2099232e+1, -0.055413354, -13649.723, -2.465265, 0.0, 0.0014861142, -0.054968104, 0.0 
1.2207031e-2, 3.212332e+1, -0.055912077, -13635.247, 4.062509, 0.0, 0.0011112052, -0.054701682, 0.0 
1.2207031e-2, 3.2147408e+1, -0.055736575, -13606.224, -6.8657584, 0.0, 0.001655208, -0.05227207, 0.0 
1.2207031e-2, 3.2171497e+1, -0.055439048, -13598.745, -11.858702, 0.0, 0.0016502765, -0.045097705, 0.0 
1.2207031e-2, 3.2195586e+1, -0.054769453, -13566.402, 8.083476, 0.0, 0.00090742833, -0.049952935, 0.0 
1.2207031e-2, 3.2219678e+1, -0.05467647, -13557.75, 1.4226016, 0.0, 0.0014140251, -0.054527193, 0.0 
1.2207031e-2, 3.2243767e+1, -0.054576572, -13524.388, -5.4252086, 0.0, 0.0017212859, -0.05240028, 0.0 
1.2207031e-2, 3.2267857e+1, -0.054807972, -13523.077, 0.22502415, 0.0, 0.0011487022, -0.05480423, 0.0 
1.2207031e-2, 3.2291946e+1, -0.054980744, -13485.438, 3.6017714, 0.0, 0.0015088703, -0.05401876, 0.0 
1.2207031e-2, 3.231604e+1, -0.055563897, -13481.744, -1.6482673, 0.0, 0.0016054993, -0.05536238, 0.0 
1.2207031e-2, 3.234013e+1, -0.055827487, -13448.514, 0.3015263, 0.0, 0.0011186325, -0.055820726, 0.0 
1.2207031e-2, 3.2364222e+1, -0.056101047, -13441.327, 3.9736402, 0.0, 0.0014451608, -0.05492632, 0.0 
1.2207031e-2, 3.2388318e+1, -0.055855457, -13407.106, -1.5933176, 0.0, 0.0015351565, -0.055666104, 0.0 
1.2207031e-2, 3.241241e+1, -0.055432733, -13410.191, -2.3018975, 0.0, 0.0013767501, -0.055037603, 0.0 
1.2207031e-2, 3.2436505e+1, -0.05574859, -13368.753, -39.40109, 0.0, 0.0015167908, 0.060375836, 0.0 
1.2207031e-2, 3.2460597e+1, -0.05528411, -13362.895, -24.389893, 0.0, 0.001131352, -0.010767754, 0.0 
1.2207031e-2, 3.2484692e+1, -0.054362264, -13324.521, 1.5758804, 0.0, 0.0015731218, -0.054175884, 0.0 
1.2207031e-2, 3.2508785e+1, -0.053677153, -13331.17, -3.6956701, 0.0, 0.0019303352, -0.052652635, 0.0 
1.2207031e-2, 3.2532883e+1, -0.05290135, -13293.587, 3.5986166, 0.0, 0.0009452886, -0.05192719, 0.0 
1.2207031e-2, 3.2556975e+1, -0.052740797, -13283.487, -11.7045765, 0.0, 0.0011484498, -0.042427424, 0.0 
1.2207031e-2, 3.2581073e+1, -0.052166525, -13247.428, 0.19935723, 0.0, 0.0019851725, -0.052163526, 0.0 
1.2207031e-2, 3.260517e+1, -0.05214403, -13253.024, 0.16219793, 0.0, 0.0012840928, -0.052142043, 0.0 
1.2207031e-2, 3.262927e+1, -0.05218178, -13209.169, 0.81644297, 0.0, 0.001350747, -0.052131318, 0.0 
1.2207031e-2, 3.2653368e+1, -0.051871758, -13211.659, -2.8388088, 0.0, 0.0017057033, -0.051261775, 0.0 
1.2207031e-2, 3.2677463e+1, -0.051330987, -13174.504, 1.3659142, 0.0, 0.0013198461, -0.05118937, 0.0 
1.2207031e-2, 3.2701564e+1, -0.05100971, -13166.925, 3.8784137, 0.0, 0.0012547463, -0.04986729, 0.0 
1.2207031e-2, 3.2725662e+1, -0.05106183, -13136.78, 0.08836295, 0.0, 0.001629658, -0.051061235, 0.0 
1.2207031e-2, 3.2749763e+1, -0.05139213, -13133.14, -3.9891808, 0.0, 0.0016444956, -0.050180417, 0.0 
1.2207031e-2, 3.277386e+1, -0.051890336, -13096.193, -0.34225562, 0.0, 0.0013896808, -0.05188139, 0.0 
1.2207031e-2, 3.2797962e+1, -0.05229402, -13083.435, 1.4364208, 0.0, 0.0011295683, -0.052136313, 0.0 
1.2207031e-2, 3.2822064e+1, -0.052511536, -13056.002, -23.190933, 0.0, 0.0016929347, -0.011318234, 0.0 
1.2207031e-2, 3.2846165e+1, -0.052590765, -13059.636, -13.636464, 0.0, 0.0017377512, -0.038351953, 0.0 
1.2207031e-2, 3.2870266e+1, -0.052883297, -13017.702, 7.0102153, 0.0, 0.0012940309, -0.049108185, 0.0 
1.2207031e-2, 3.289437e+1, -0.053138763, -13011.5205, -4.084572, 0.0, 0.0012272628, -0.05185653, 0.0 
1.2207031e-2, 3.291847e+1, -0.05398012, -12999.68, 3.0587242, 0.0, 0.0016586826, -0.053260423, 0.0 
1.2207031e-2, 3.2942578e+1, -0.0619775, -12964.987, -89.65229, 0.0, 0.0016444693, 0.5579373, 0.0 
1.2207031e-2, 3.296668e+1, -0.055335585, -12932.854, 14.213437, 0.0, 0.0012886538, -0.039714716, 0.0 
1.2207031e-2, 3.2990783e+1, -0.055490028, -12934.056, -0.08843918, 0.0, 0.001521606, -0.05548942, 0.0 
1.2207031e-2, 3.3014888e+1, -0.055289976, -12905.513, -0.5735946, 0.0, 0.0017146337, -0.05526448, 0.0 
1.2207031e-2, 3.3038995e+1, -0.05524414, -12885.199, -4.6430693, 0.0, 0.00094786775, -0.053571045, 0.0 
1.2207031e-2, 3.30631e+1, -0.05577121, -12871.514, 3.3519812, 0.0, 0.00160102, -0.054898288, 0.0 
1.2207031e-2, 3.3087203e+1, -0.056533534, -12850.458, 5.578491, 0.0, 0.002032236, -0.054111857, 0.0 
1.2207031e-2, 3.3111313e+1, -0.05747511, -12831.397, -4.514072, 0.0, 0.001034825, -0.055887055, 0.0 
1.2207031e-2, 3.3135417e+1, -0.058283504, -12805.786, -4.993852, 0.0, 0.0014833529, -0.056336053, 0.0 
1.2207031e-2, 3.3159527e+1, -0.058747243, -12794.983, 2.9439685, 0.0, 0.0019652734, -0.05806987, 0.0 
1.2207031e-2, 3.3183634e+1, -0.05945027, -12770.31, 4.2345223, 0.0, 0.00056705956, -0.058046132, 0.0 
1.2207031e-2, 3.320774e+1, -0.0600285, -12749.218, -2.6304812, 0.0, 0.0015382378, -0.059485763, 0.0 
1.2207031e-2, 3.3231848e+1, -0.06033818, -12729.598, -4.1333632, 0.0, 0.0025442902, -0.058996048, 0.0 
1.2207031e-2, 3.325596e+1, -0.06045555, -12723.547, 2.5870137, 0.0, 0.00089440466, -0.059929542, 0.0 
1.2207031e-2, 3.3280072e+1, -0.060633097, -12681.408, -0.49309692, 0.0, 0.0010810862, -0.060613923, 0.0 
1.2207031e-2, 3.330418e+1, -0.061273724, -12682.68, -34.90846, 0.0, 0.00209771, 0.034809854, 0.0 
1.2207031e-2, 3.332829e+1, -0.0608389, -12648.803, -2.0660017, 0.0, 0.0008638604, -0.060501445, 0.0 
1.2207031e-2, 3.3352402e+1, -0.060671993, -12637.436, 0.8934242, 0.0, 0.0013489926, -0.06060883, 0.0 
1.2207031e-2, 3.3376515e+1, -0.060301963, -12605.827, -6.216611, 0.0, 0.0022938398, -0.057236202, 0.0 
1.2207031e-2, 3.3400628e+1, -0.05993096, -12614.343, 1.7457031, 0.0, 0.001183105, -0.05968937, 0.0 
1.2207031e-2, 3.342474e+1, -0.059291888, -12558.675, -9.667564, 0.0, 0.00095382304, -0.051849846, 0.0 
1.2207031e-2, 3.344885e+1, -0.05911281, -12566.422, -1.4435573, 0.0, 0.0016227155, -0.058946982, 0.0 
1.2207031e-2, 3.3472964e+1, -0.058678064, -12526.354, 3.513239, 0.0, 0.0017029224, -0.05769271, 0.0 
1.2207031e-2, 3.3497077e+1, -0.05851243, -12528.2295, -1.4444575, 0.0, 0.001557985, -0.058345888, 0.0 
1.2207031e-2, 3.3521193e+1, -0.058048174, -12481.478, -4.126803, 0.0, 0.000893086, -0.056683708, 0.0 
1.2207031e-2, 3.3545306e+1, -0.05765838, -12495.741, 3.838382, 0.0, 0.0013957778, -0.05647932, 0.0 
1.2207031e-2, 3.3569422e+1, -0.057037722, -12443.703, -1.6927476, 0.0, 0.0020510107, -0.05680745, 0.0 
1.2207031e-2, 3.359354e+1, -0.056461595, -12454.212, -3.7073562, 0.0, 0.0010338733, -0.055357985, 0.0 
1.2207031e-2, 3.361765e+1, -0.055568248, -12399.597, 3.4417467, 0.0, 0.0013854866, -0.054612923, 0.0 
1.2207031e-2, 3.364177e+1, -0.054736238, -12417.556, 0.2296706, 0.0, 0.0018172001, -0.05473199, 0.0 
1.2207031e-2, 3.366589e+1, -0.053752176, -12367.319, -2.3240137, 0.0, 0.00076811516, -0.053315457, 0.0 
1.2207031e-2, 3.3690006e+1, -0.053184126, -12373.12, -0.41318026, 0.0, 0.00139497, -0.053170327, 0.0 
1.2207031e-2, 3.3714122e+1, -0.05312755, -12325.933, 0.41798812, 0.0, 0.0019579476, -0.053113375, 0.0 
1.2207031e-2, 3.3738244e+1, -0.05322147, -12338.764, -1.1991557, 0.0, 0.001043418, -0.05310493, 0.0 
1.2207031e-2, 3.376236e+1, -0.05335919, -12287.395, -0.42167276, 0.0, 0.0013904636, -0.05334472, 0.0 
1.2207031e-2, 3.378648e+1, -0.053303584, -12295.238, 2.942035, 0.0, 0.0016339446, -0.052599605, 0.0 
1.2207031e-2, 3.38106e+1, -0.053416625, -12244.614, -5.9936724, 0.0, 0.0009772853, -0.050482742, 0.0 
1.2207031e-2, 3.383472e+1, -0.053617205, -12263.325, -3.071617, 0.0, 0.0013651806, -0.052847847, 0.0 
1.2207031e-2, 3.3858842e+1, -0.054300323, -12207.891, 1.9420476, 0.0, 0.0017203537, -0.053991377, 0.0 
1.2207031e-2, 3.388296e+1, -0.054959293, -12222.918, -5.8913574, 0.0, 0.00095246034, -0.05211969, 0.0 
1.2207031e-2, 3.3907086e+1, -0.05576113, -12187.805, 6.101464, 0.0, 0.0015899453, -0.0527066, 0.0 
1.2207031e-2, 3.3931205e+1, -0.06897913, -12169.429, -118.9396, 0.0, 0.0018760565, 1.0933892, 0.0 
1.2207031e-2, 3.395533e+1, -0.056946617, -12118.7705, 21.27811, 0.0, 0.0004740644, -0.019586494, 0.0 
1.2207031e-2, 3.3979455e+1, -0.058197767, -12142.653, -5.65413, 0.0, 0.0012351585, -0.05556495, 0.0 
1.2207031e-2, 3.4003574e+1, -0.059207406, -12092.157, -1.4938518, 0.0, 0.0021637855, -0.059022855, 0.0 
1.2207031e-2, 3.40277e+1, -0.059887663, -12098.319, 3.4964018, 0.0, 0.0009319113, -0.0588772, 0.0 
1.2207031e-2, 3.4051824e+1, -0.05996091, -12058.978, -2.9421525, 0.0, 0.0013196548, -0.05924308, 0.0 
1.2207031e-2, 3.4075952e+1, -0.060303953, -12057.062, -1.36598, 0.0, 0.0017283984, -0.060149197, 0.0 
1.2207031e-2, 3.4100074e+1, -0.06102422, -12014.739, 2.0387921, 0.0, 0.0008919769, -0.060678255, 0.0 
1.2207031e-2, 3.41242e+1, -0.062018994, -12020.761, -1.2081492, 0.0, 0.001243648, -0.06189757, 0.0 
1.2207031e-2, 3.4148327e+1, -0.06219044, -11985.192, 2.226017, 0.0, 0.0017724611, -0.061776996, 0.0 
1.2207031e-2, 3.4172454e+1, -0.06193056, -11975.605, 0.27499065, 0.0, 0.0012357127, -0.061924245, 0.0 
1.2207031e-2, 3.419658e+1, -0.06179686, -11944.483, -3.8580086, 0.0, 0.0012112331, -0.060550734, 0.0 
1.2207031e-2, 3.4220707e+1, -0.061781738, -11934.473, 2.2836256, 0.0, 0.0016173945, -0.061344773, 0.0 
1.2207031e-2, 3.4244835e+1, -0.06209181, -11901.273, 0.35733145, 0.0, 0.0012085993, -0.06208108, 0.0 
1.2207031e-2, 3.4268966e+1, -0.062458355, -11903.209, -0.4257662, 0.0, 0.0010317304, -0.062443126, 0.0 
1.2207031e-2, 3.4293094e+1, -0.06285822, -11872.297, 0.73503846, 0.0, 0.0018635648, -0.06281271, 0.0 
1.2207031e-2, 3.4317222e+1, -0.062940486, -11850.091, -0.9378552, 0.0, 0.0013128422, -0.06286626, 0.0 
1.2207031e-2, 3.4341353e+1, -0.06367686, -11829.762, 3.3572648, 0.0, 0.0010411957, -0.06272407, 0.0 
1.2207031e-2, 3.436548e+1, -0.06413936, -11821.116, -2.2928202, 0.0, 0.0020154973, -0.06369464, 0.0 
1.2207031e-2, 3.4389615e+1, -0.06471785, -11816.225, 12.802984, 0.0, 0.0010033306, -0.050845645, 0.0 
1.2207031e-2, 3.4413746e+1, -0.07785859, -11776.892, -103.53732, 0.0, 0.0007685678, 0.8323323, 0.0 
1.2207031e-2, 3.4437877e+1, -0.07734368, -11745.7705, -106.488495, 0.0, 0.002247447, 0.88802016, 0.0 
1.2207031e-2, 3.446201e+1, -0.06262565, -11722.581, 9.879811, 0.0, 0.0014154543, -0.05429889, 0.0 
1.2207031e-2, 3.4486142e+1, -0.06210552, -11711.675, -2.8731737, 0.0, 0.00087245886, -0.061400656, 0.0 
1.2207031e-2, 3.4510276e+1, -0.06184197, -11692.599, 3.9030213, 0.0, 0.002008251, -0.060539123, 0.0 
1.2207031e-2, 3.453441e+1, -0.062077135, -11689.348, -0.4962933, 0.0, 0.0012097502, -0.062056065, 0.0 
1.2207031e-2, 3.4558544e+1, -0.0621965, -11642.976, 1.8227633, 0.0, 0.00078719057, -0.061911136, 0.0 
1.2207031e-2, 3.458268e+1, -0.061989203, -11643.397, 1.7885246, 0.0, 0.0019924745, -0.06171447, 0.0 
1.2207031e-2, 3.4606814e+1, -0.061685186, -11618.24, 0.6839231, 0.0, 0.0019150533, -0.061644923, 0.0 
1.2207031e-2, 3.4630948e+1, -0.061254468, -11598.481, -2.280866, 0.0, 0.0009860006, -0.06080593, 0.0 
1.2207031e-2, 3.4655085e+1, -0.060747344, -11574.301, -2.788526, 0.0, 0.000858335, -0.060075518, 0.0 
1.2207031e-2, 3.4679222e+1, -0.060320795, -11577.735, 5.113513, 0.0, 0.0017545169, -0.05806231, 0.0 
1.2207031e-2, 3.470336e+1, -0.05984054, -11521.832, 2.7979348, 0.0, 0.0025848097, -0.059161093, 0.0 
1.2207031e-2, 3.4727496e+1, -0.059910614, -11523.638, -2.4668665, 0.0, 0.0008208897, -0.059382528, 0.0 
1.2207031e-2, 3.4751633e+1, -0.060157366, -11501.77, 3.4343948, 0.0, 0.00009991463, -0.05913186, 0.0 
1.2207031e-2, 3.4775773e+1, -0.060588676, -11491.544, -2.23668, 0.0, 0.0025354084, -0.060153335, 0.0 
1.2207031e-2, 3.4799913e+1, -0.060483444, -11447.876, -15.9526415, 0.0, 0.0023996732, -0.038253326, 0.0 
1.2207031e-2, 3.482405e+1, -0.060314097, -11453.028, 2.603978, 0.0, 0.00038676785, -0.059722047, 0.0 
1.2207031e-2, 3.484819e+1, -0.05950331, -11412.98, 4.1140814, 0.0, 0.0014591279, -0.058020283, 0.0 
1.2207031e-2, 3.487233e+1, -0.05930465, -11412.98, -4.4548264, 0.0, 0.0018947023, -0.05756579, 0.0 
1.2207031e-2, 3.489647e+1, -0.059257466, -11375.627, 2.111903, 0.0, 0.0011623128, -0.058865387, 0.0 
1.2207031e-2, 3.4920612e+1, -0.059819624, -11371.727, -3.880428, 0.0, 0.0016477463, -0.05849548, 0.0 
1.2207031e-2, 3.4944752e+1, -0.06044667, -11332.5205, -3.2080781, 0.0, 0.0015193649, -0.059538502, 0.0 
1.2207031e-2, 3.4968895e+1, -0.061338592, -11333.781, 6.2441387, 0.0, 0.0012603734, -0.05789848, 0.0 
1.2207031e-2, 3.4993038e+1, -0.06249663, -11300.398, 0.087590046, 0.0, 0.0018979012, -0.06249595, 0.0 
1.2207031e-2, 3.501718e+1, -0.06280736, -11297.994, -6.4196525, 0.0, 0.0012391147, -0.05915962, 0.0 
1.2207031e-2, 3.5041323e+1, -0.06295079, -11253.603, 8.443024, 0.0, 0.0014198554, -0.056616373, 0.0 
1.2207031e-2, 3.506547e+1, -0.06326535, -11248.071, 1.4696091, 0.0, 0.0017776265, -0.063073345, 0.0 
1.2207031e-2, 3.5089612e+1, -0.064584024, -11227.132, -11.678737, 0.0, 0.001057301, -0.05243546, 0.0 
1.2207031e-2, 3.5113755e+1, -0.06586573, -11210.761, 5.103602, 0.0, 0.0016951442, -0.06354235, 0.0 
1.2207031e-2, 3.51379e+1, -0.06715891, -11174.77, 0.7927583, 0.0, 0.0016613499, -0.06710267, 0.0 
1.2207031e-2, 3.516205e+1, -0.06774096, -11177.662, -27.432732, 0.0, 0.00091224664, -0.0004142827, 0.0 
1.2207031e-2, 3.5186192e+1, -0.06801996, -11149.206, -23.120579, 0.0, 0.0023799615, -0.020073751, 0.0 
1.2207031e-2, 3.5210338e+1, -0.06735388, -11129.295, 7.5797844, 0.0, 0.0014322778, -0.06219152, 0.0 
1.2207031e-2, 3.5234487e+1, -0.0667319, -11111.292, 11.480054, 0.0, 0.00035220737, -0.054870788, 0.0 
1.2207031e-2, 3.5258633e+1, -0.06652763, -11092.078, -9.669973, 0.0, 0.002104152, -0.05809739, 0.0 
1.2207031e-2, 3.5282785e+1, -0.06667454, -11071.878, -0.38999704, 0.0, 0.0018413401, -0.06666081, 0.0 
1.2207031e-2, 3.530693e+1, -0.06747585, -11048.537, 5.154086, 0.0, 0.0010802579, -0.06507148, 0.0 
1.2207031e-2, 3.5331076e+1, -0.068040565, -11036.708, -9.761518, 0.0, 0.0015601687, -0.059406854, 0.0 
1.2207031e-2, 3.5355228e+1, -0.06837391, -11003.315, 1.1811655, 0.0, 0.0013232337, -0.06824712, 0.0 
1.2207031e-2, 3.537938e+1, -0.06856996, -10992.72, 6.0669336, 0.0, 0.001686414, -0.06522156, 0.0 
1.2207031e-2, 3.540353e+1, -0.068903305, -10982.316, 0.80573493, 0.0, 0.0015261758, -0.06884419, 0.0 
1.2207031e-2, 3.542768e+1, -0.069273904, -10954.274, -8.220855, 0.0, 0.0010189366, -0.06310437, 0.0 
1.2207031e-2, 3.5451832e+1, -0.0691956, -10926.309, -7.3512063, 0.0, 0.0015397482, -0.06424969, 0.0 
1.2207031e-2, 3.547598e+1, -0.06903826, -10920.141, 15.596875, 0.0, 0.0017665096, -0.046761665, 0.0 
1.2207031e-2, 3.5500133e+1, -0.06857742, -10865.423, -24.693579, 0.0, 0.00135492, -0.012456876, 0.0 
1.2207031e-2, 3.5524288e+1, -0.06817294, -10885.644, -65.37459, 0.0, 0.0011604922, 0.32442757, 0.0 
1.2207031e-2, 3.554844e+1, -0.07245039, -10868.338, -113.4841, 0.0, 0.0014784764, 1.1123971, 0.0 
1.2207031e-2, 3.5572594e+1, -0.066859566, -10848.493, 13.151641, 0.0, 0.0016456349, -0.05091574, 0.0 
1.2207031e-2, 3.559675e+1, -0.065348506, -10817.395, -8.170589, 0.0, 0.0013440954, -0.059177067, 0.0 
1.2207031e-2, 3.5620904e+1, -0.0675598, -10819.58, -41.64507, 0.0, 0.0012803634, 0.092732646, 0.0 
1.2207031e-2, 3.564506e+1, -0.08129867, -10756.956, -125.6317, 0.0, 0.0014608244, 1.385779, 0.0 
1.2207031e-2, 3.5669214e+1, -0.063877374, -10759.575, 17.063522, 0.0, 0.001466381, -0.03681638, 0.0 
1.2207031e-2, 3.5693368e+1, -0.0638533, -10722.056, -7.057611, 0.0, 0.0013231175, -0.05920772, 0.0 
1.2207031e-2, 3.5717526e+1, -0.063954435, -10732.057, 2.324486, 0.0, 0.0014219522, -0.06345096, 0.0 
1.2207031e-2, 3.574168e+1, -0.06415137, -10688.734, -1.0959632, 0.0, 0.0016649811, -0.06403899, 0.0 
1.2207031e-2, 3.576584e+1, -0.06433847, -10693.213, -3.5386403, 0.0, 0.0009621007, -0.06316744, 0.0 
1.2207031e-2, 3.5789996e+1, -0.06409224, -10643.669, 1.3482801, 0.0, 0.0010266796, -0.063921444, 0.0 
1.2207031e-2, 3.5814154e+1, -0.064189814, -10657.078, -0.7746189, 0.0, 0.0023238463, -0.06413351, 0.0 
1.2207031e-2, 3.5838315e+1, -0.06393626, -10610.065, -2.3329928, 0.0, 0.0015160425, -0.06342327, 0.0 
1.2207031e-2, 3.5862473e+1, -0.06394044, -10614.299, 0.15903191, 0.0, 0.0003204186, -0.06393806, 0.0 
1.2207031e-2, 3.588663e+1, -0.06462225, -10569.576, -1.8093709, 0.0, 0.0016294601, -0.06431251, 0.0 
1.2207031e-2, 3.5910788e+1, -0.06524497, -10582.166, -2.2735515, 0.0, 0.0019044367, -0.064756505, 0.0 
1.2207031e-2, 3.5934952e+1, -0.06578286, -10524.71, -19.406796, 0.0, 0.0010546854, -0.029998047, 0.0 
1.2207031e-2, 3.5959113e+1, -0.06553492, -10531.419, -1.6533428, 0.0, 0.001392505, -0.065275356, 0.0 
1.2207031e-2, 3.5983273e+1, -0.06541817, -10495.954, -1.6464702, 0.0, 0.001475934, -0.065159895, 0.0 
1.2207031e-2, 3.6007434e+1, -0.06621207, -10500.447, 2.4823573, 0.0, 0.0011783688, -0.06562523, 0.0 
1.2207031e-2, 3.6031598e+1, -0.066261105, -10448.827, -5.623892, 0.0, 0.0015094868, -0.06323413, 0.0 
1.2207031e-2, 3.605576e+1, -0.0669657, -10456.409, -1.9199756, 0.0, 0.0013227945, -0.06661316, 0.0 
1.2207031e-2, 3.6079922e+1, -0.0677198, -10414.035, 3.4843895, 0.0, 0.0011618173, -0.06655397, 0.0 
1.2207031e-2, 3.610409e+1, -0.068426244, -10416.208, -2.8526328, 0.0, 0.001612772, -0.067645, 0.0 
1.2207031e-2, 3.612825e+1, -0.06873176, -10382.319, -1.8937488, 0.0, 0.0017230794, -0.06838634, 0.0 
1.2207031e-2, 3.6152416e+1, -0.06931026, -10378.501, 2.066863, 0.0, 0.0008284232, -0.06889865, 0.0 
1.2207031e-2, 3.6176583e+1, -0.069859296, -10334.296, -0.49072713, 0.0, 0.00069314364, -0.069836, 0.0 
1.2207031e-2, 3.620075e+1, -0.070740476, -10333.803, -1.7458874, 0.0, 0.002495164, -0.07044551, 0.0 
1.2207031e-2, 3.622491e+1, -0.07149368, -10305.9375, -1.2672017, 0.0, 0.0020831483, -0.071337864, 0.0 
1.2207031e-2, 3.624908e+1, -0.07216303, -10294.925, 1.6100322, 0.0, -0.00026444762, -0.07191123, 0.0 
1.2207031e-2, 3.6273247e+1, -0.07288356, -10260.404, 0.027361287, 0.0, 0.0011931953, -0.07288349, 0.0 
1.2207031e-2, 3.6297414e+1, -0.07279611, -10264.336, 0.6883848, 0.0, 0.0027060045, -0.072749935, 0.0 
1.2207031e-2, 3.6321583e+1, -0.07338773, -10221.23, 3.0204437, 0.0, 0.0008382254, -0.07249516, 0.0 
1.2207031e-2, 3.634575e+1, -0.07333923, -10204.796, -7.563802, 0.0, 0.0010958657, -0.06773289, 0.0 
1.2207031e-2, 3.636992e+1, -0.07369778, -10197.082, -1.6223983, 0.0, 0.002274923, -0.07343965, 0.0 
1.2207031e-2, 3.639409e+1, -0.07409477, -10177.322, 7.49965, 0.0, 0.0006705583, -0.06856826, 0.0 
1.2207031e-2, 3.641826e+1, -0.07438393, -10156.492, 0.83261925, 0.0, 0.000303192, -0.074315675, 0.0 
1.2207031e-2, 3.644243e+1, -0.07739681, -10150.353, -41.56773, 0.0, 0.0028282192, 0.092829816, 0.0 
1.2207031e-2, 3.64666e+1, -0.09304341, -10103.634, -130.43216, 0.0, 0.0024903768, 1.5904965, 0.0 
1.2207031e-2, 3.6490768e+1, -0.07442611, -10075.017, 20.758587, 0.0, -0.0004534111, -0.031654935, 0.0 
1.2207031e-2, 3.651494e+1, -0.0738427, -10078.752, -7.240009, 0.0, 0.00058238243, -0.06864185, 0.0 
1.2207031e-2, 3.6539114e+1, -0.073871344, -10053.063, 3.8217754, 0.0, 0.003194284, -0.07241845, 0.0 
1.2207031e-2, 3.6563286e+1, -0.07344429, -10032.719, 4.351817, 0.0, 0.0016891053, -0.07155662, 0.0 
1.2207031e-2, 3.658746e+1, -0.07297383, -10008.521, -3.6181448, 0.0, 0.00024223338, -0.07166584, 0.0 
1.2207031e-2, 3.661163e+1, -0.0719365, -10005.453, -0.95054775, 0.0, 0.0014415206, -0.0718462, 0.0 
1.2207031e-2, 3.6635807e+1, -0.07143792, -9969.005, 3.9395576, 0.0, 0.0019662548, -0.06988107, 0.0 
1.2207031e-2, 3.665998e+1, -0.07093745, -9963.401, -1.0752053, 0.0, 0.0012160568, -0.07082141, 0.0 
1.2207031e-2, 3.6684155e+1, -0.07027762, -9934.247, 1.0429794, 0.0, 0.001393634, -0.070168115, 0.0 
1.2207031e-2, 3.6708328e+1, -0.06997131, -9923.315, -5.1715174, 0.0, 0.0015237345, -0.06727616, 0.0 
1.2207031e-2, 3.6732507e+1, -0.069793426, -9881.375, -2.3718452, 0.0, 0.0013747606, -0.0692241, 0.0 
1.2207031e-2, 3.6756682e+1, -0.07014995, -9892.825, -8.356108, 0.0, 0.0013343488, -0.0630918, 0.0 
1.2207031e-2, 3.6780858e+1, -0.07044836, -9858.567, 9.113416, 0.0, 0.0015098117, -0.062023718, 0.0 
1.2207031e-2, 3.6805034e+1, -0.070769295, -9840.087, 10.440738, 0.0, 0.0016372959, -0.059691172, 0.0 
1.2207031e-2, 3.6829212e+1, -0.07096823, -9804.732, -12.945021, 0.0, 0.0014050282, -0.053877052, 0.0 
1.2207031e-2, 3.685339e+1, -0.07125473, -9817.12, -22.065533, 0.0, 0.0008916351, -0.021658842, 0.0 
1.2207031e-2, 3.6877573e+1, -0.07109907, -9775.097, 15.381573, 0.0, 0.0018038278, -0.046895336, 0.0 
1.2207031e-2, 3.6901748e+1, -0.07155198, -9769.339, 11.660716, 0.0, 0.002149402, -0.057633623, 0.0 
1.2207031e-2, 3.6925927e+1, -0.071034856, -9728.478, -15.128494, 0.0, 0.00088417786, -0.047508825, 0.0 
1.2207031e-2, 3.6950108e+1, -0.07034331, -9734.954, -19.972223, 0.0, 0.00082370365, -0.02936819, 0.0 
1.2207031e-2, 3.697429e+1, -0.07026965, -9695.891, 13.834, 0.0, 0.0022248144, -0.050531335, 0.0 
1.2207031e-2, 3.6998472e+1, -0.070085846, -9690.146, 7.446735, 0.0, 0.0015971628, -0.0643631, 0.0 
1.2207031e-2, 3.702265e+1, -0.06955877, -9653.059, -8.948578, 0.0, 0.0009600922, -0.061263207, 0.0 
1.2207031e-2, 3.7046832e+1, -0.068615, -9654.987, -4.827776, 0.0, 0.0019435424, -0.06620095, 0.0 
1.2207031e-2, 3.7071013e+1, -0.06845848, -9614.92, 5.772347, 0.0, 0.0014893739, -0.06499302, 0.0 
1.2207031e-2, 3.7095195e+1, -0.06854558, -9617.016, 4.9448895, 0.0, 0.0007021607, -0.066002995, 0.0 
1.2207031e-2, 3.711938e+1, -0.06841788, -9572.523, -3.2514818, 0.0, 0.0021071406, -0.06731344, 0.0 
1.2207031e-2, 3.714356e+1, -0.06830756, -9579.08, -8.463886, 0.0, 0.001701911, -0.060828995, 0.0 
1.2207031e-2, 3.716775e+1, -0.069139436, -9542.304, 1.4136015, 0.0, 0.00090483093, -0.06893002, 0.0 
1.2207031e-2, 3.7191933e+1, -0.07041346, -9526.777, 11.670975, 0.0, 0.0021162797, -0.056115612, 0.0 
1.2207031e-2, 3.7216118e+1, -0.071716465, -9496.166, -0.9928481, 0.0, 0.0014728926, -0.071612656, 0.0 
1.2207031e-2, 3.7240303e+1, -0.07244964, -9505.307, -15.255771, 0.0, 0.000566963, -0.0479644, 0.0 
1.2207031e-2, 3.7264487e+1, -0.07249659, -9470.269, 1.0062969, 0.0, 0.0021020435, -0.07238966, 0.0 
1.2207031e-2, 3.7288675e+1, -0.072563305, -9446.191, 18.870901, 0.0, 0.0019738588, -0.034864284, 0.0 
1.2207031e-2, 3.7312862e+1, -0.07261292, -9411.81, -6.1439004, 0.0, 0.0009890938, -0.068602234, 0.0 
1.2207031e-2, 3.7337047e+1, -0.07383454, -9428.586, -20.013632, 0.0, 0.0014930129, -0.031352367, 0.0 
1.2207031e-2, 3.7361237e+1, -0.074919395, -9396.293, -1.9964243, 0.0, 0.001720537, -0.07449521, 0.0 
1.2207031e-2, 3.7385425e+1, -0.07642572, -9369.469, -10.87047, 0.0, 0.001280163, -0.0638137, 0.0 
1.2207031e-2, 3.7409616e+1, -0.0760597, -9342.023, -13.846145, 0.0, 0.001464346, -0.05553771, 0.0 
1.2207031e-2, 3.7433803e+1, -0.07622001, -9334.424, -29.755274, 0.0, 0.0019192906, 0.018630471, 0.0 
1.2207031e-2, 3.7457994e+1, -0.07506113, -9311.38, 10.858835, 0.0, 0.0016351197, -0.06239758, 0.0 
1.2207031e-2, 3.748218e+1, -0.07437502, -9294.02, 5.4251256, 0.0, 0.000500387, -0.07120822, 0.0 
1.2207031e-2, 3.7506375e+1, -0.07434858, -9268.337, -5.1223416, 0.0, 0.0014591005, -0.07151759, 0.0 
1.2207031e-2, 3.7530562e+1, -0.07528498, -9251.781, -7.691996, 0.0, 0.0032703432, -0.06888975, 0.0 
1.2207031e-2, 3.7554756e+1, -0.07652675, -9246.482, 2.8862584, 0.0, 0.0010613027, -0.075625814, 0.0 
1.2207031e-2, 3.7578946e+1, -0.07681834, -9212.164, 7.590812, 0.0, -0.0004608657, -0.07056347, 0.0 
1.2207031e-2, 3.7603137e+1, -0.07685026, -9182.038, -6.9720564, 0.0, 0.0023881332, -0.07155623, 0.0 
1.2207031e-2, 3.762733e+1, -0.07662236, -9179.082, -6.833881, 0.0, 0.002808403, -0.071534455, 0.0 
1.2207031e-2, 3.7651524e+1, -0.07683222, -9164.008, 5.3296328, 0.0, 0.00072125, -0.07373257, 0.0 
1.2207031e-2, 3.767572e+1, -0.077298604, -9129.452, -1.7370763, 0.0, 0.0007887455, -0.07696809, 0.0 
1.2207031e-2, 3.7699914e+1, -0.07718817, -9117.815, -2.1487918, 0.0, 0.0016887457, -0.07668176, 0.0 
1.2207031e-2, 3.772411e+1, -0.07734552, -9100.771, 4.292339, 0.0, 0.0022389428, -0.07532104, 0.0 
1.2207031e-2, 3.77483e+1, -0.076333486, -9077.68, -5.1569414, 0.0, 0.0015205772, -0.07340385, 0.0 
1.2207031e-2, 3.77725e+1, -0.07472391, -9055.534, -4.180725, 0.0, 0.00016407897, -0.07279375, 0.0 
1.2207031e-2, 3.7796697e+1, -0.07419758, -9035.652, 3.833034, 0.0, 0.0015888396, -0.07257155, 0.0 
1.2207031e-2, 3.7820894e+1, -0.07393195, -9019.018, -3.1871934, 0.0, 0.0028993238, -0.07280563, 0.0 
1.2207031e-2, 3.784509e+1, -0.07391772, -9005.069, -3.4133081, 0.0, 0.0011533146, -0.072623916, 0.0 
1.2207031e-2, 3.7869287e+1, -0.07403777, -8985.395, 10.805424, 0.0, 0.000009378751, -0.061043568, 0.0 
1.2207031e-2, 3.7893486e+1, -0.07564554, -8963.394, -23.859343, 0.0, 0.0015962981, -0.012135115, 0.0 
1.2207031e-2, 3.7917683e+1, -0.07886292, -8935.0205, -76.26357, 0.0, 0.0029141868, 0.5720321, 0.0 
1.2207031e-2, 3.7941882e+1, -0.07494706, -8922.015, 6.7947054, 0.0, 0.0013170802, -0.0697724, 0.0 
1.2207031e-2, 3.796608e+1, -0.07493961, -8899.313, 15.544177, 0.0, -0.00033682797, -0.047788892, 0.0 
1.2207031e-2, 3.799028e+1, -0.07511321, -8873.081, -1.89722, 0.0, 0.0016756468, -0.074707545, 0.0 
1.2207031e-2, 3.801448e+1, -0.07489182, -8862.521, -16.808693, 0.0, 0.002957563, -0.04301223, 0.0 
1.2207031e-2, 3.803868e+1, -0.0749429, -8853.975, 4.3242564, 0.0, 0.0008780965, -0.07283093, 0.0 
1.2207031e-2, 3.8062882e+1, -0.074899666, -8824.103, 10.818195, 0.0, 0.0004183205, -0.061636657, 0.0 
1.2207031e-2, 3.8087085e+1, -0.074705176, -8794.936, -4.7144337, 0.0, 0.001816734, -0.072178036, 0.0 
1.2207031e-2, 3.8111287e+1, -0.07414821, -8789.924, -3.2576284, 0.0, 0.0016827498, -0.07294089, 0.0 
1.2207031e-2, 3.813549e+1, -0.08130312, -8783.51, -107.865944, 0.0, 0.0014047838, 1.2431576, 0.0 
1.2207031e-2, 3.8159692e+1, -0.07829485, -8743.571, -67.8877, 0.0, 0.00093142793, 0.44877854, 0.0 
1.2207031e-2, 3.8183895e+1, -0.07306471, -8698.217, 10.052158, 0.0, 0.000970704, -0.061447773, 0.0 
1.2207031e-2, 3.82081e+1, -0.07502849, -8712.48, -8.302134, 0.0, 0.002395838, -0.06711731, 0.0 
1.2207031e-2, 3.8232303e+1, -0.07628717, -8693.99, 9.766023, 0.0, 0.001974645, -0.06531685, 0.0 
1.2207031e-2, 3.8256508e+1, -0.07582727, -8669.206, -6.612283, 0.0, -0.00064660946, -0.07078383, 0.0 
1.2207031e-2, 3.8280717e+1, -0.07496674, -8656.901, -33.32728, 0.0, 0.0010077269, 0.05333558, 0.0 
1.2207031e-2, 3.830492e+1, -0.09044239, -8624.6875, -137.47653, 0.0, 0.0038250263, 2.100384, 0.0 
1.2207031e-2, 3.8329127e+1, -0.072020255, -8599.653, 22.98713, 0.0, 0.0011229322, -0.010574898, 0.0 
1.2207031e-2, 3.8353333e+1, -0.07256183, -8620.038, 11.631289, 0.0, -0.00057918194, -0.056867264, 0.0 
1.2207031e-2, 3.837754e+1, -0.09011865, -8571.564, -115.327774, 0.0, 0.0019260182, 1.4613167, 0.0 
1.2207031e-2, 3.840175e+1, -0.09703097, -8538.341, -129.10626, 0.0, 0.0021854308, 1.8547308, 0.0 
1.2207031e-2, 3.8425958e+1, -0.07509504, -8505.751, 14.596891, 0.0, 0.0014338162, -0.050044876, 0.0 
1.2207031e-2, 3.8450164e+1, -0.07599393, -8517.236, -10.531551, 0.0, 0.000550308, -0.062971584, 0.0 
1.2207031e-2, 3.8474378e+1, -0.07692796, -8479.502, 14.080525, 0.0, 0.001070159, -0.05354658, 0.0 
1.2207031e-2, 3.8498583e+1, -0.07683284, -8477.512, -6.8591127, 0.0, 0.0025244125, -0.07128312, 0.0 
1.2207031e-2, 3.8522798e+1, -0.077372946, -8472.302, -4.6869416, 0.0, 0.0014938891, -0.07478007, 0.0 
1.2207031e-2, 3.8547003e+1, -0.0932333, -8431.682, -129.38945, 0.0, 0.0003540691, 1.8918837, 0.0 
1.2207031e-2, 3.8571218e+1, -0.07680231, -8389.3545, 21.12571, 0.0, 0.0011573043, -0.023604313, 0.0 
1.2207031e-2, 3.859543e+1, -0.077007346, -8406.283, -2.2917101, 0.0, 0.0023697203, -0.07638258, 0.0 
1.2207031e-2, 3.861964e+1, -0.07749248, -8365.367, 0.3101216, 0.0, 0.0025066237, -0.07748099, 0.0 
1.2207031e-2, 3.8643852e+1, -0.077597894, -8358.171, -1.0552138, 0.0, -0.00072557695, -0.07746467, 0.0 
1.2207031e-2, 3.8668063e+1, -0.07749438, -8330.877, 7.161696, 0.0, 0.00012187598, -0.07133772, 0.0 
1.2207031e-2, 3.869228e+1, -0.07641421, -8315.358, -20.602692, 0.0, 0.0047079273, -0.025367443, 0.0 
1.2207031e-2, 3.8716492e+1, -0.075689785, -8298.656, -1.8996571, 0.0, 0.0021946009, -0.07525493, 0.0 
1.2207031e-2, 3.8740706e+1, -0.07538433, -8280.379, 9.602246, 0.0, -0.0018804274, -0.064249106, 0.0 
1.2207031e-2, 3.8764924e+1, -0.074863605, -8248.602, -0.349452, 0.0, 0.0012034733, -0.0748488, 0.0 
1.2207031e-2, 3.8789135e+1, -0.07520832, -8243.946, -13.888429, 0.0, 0.0039405427, -0.051810585, 0.0 
1.2207031e-2, 3.881335e+1, -0.0747737, -8210.002, -0.4239698, 0.0, 0.0019613076, -0.0747518, 0.0 
1.2207031e-2, 3.8837567e+1, -0.0736058, -8206.566, 4.198089, 0.0, -0.0007635311, -0.071458235, 0.0 
1.2207031e-2, 3.8861787e+1, -0.07277132, -8169.874, 10.814355, 0.0, 0.00097178103, -0.058456395, 0.0 
1.2207031e-2, 3.8886002e+1, -0.072018094, -8166.6563, -12.65777, 0.0, 0.00353067, -0.05239927, 0.0 
1.2207031e-2, 3.8910222e+1, -0.07186182, -8158.1514, 7.176556, 0.0, 0.0017780202, -0.065548696, 0.0 
1.2207031e-2, 3.8934436e+1, -0.088755436, -8112.9204, -124.65508, 0.0, -0.00004096034, 1.8261398, 0.0 
1.2207031e-2, 3.8958657e+1, -0.07192635, -8086.5786, 19.435709, 0.0, 0.0010490783, -0.025213394, 0.0 
1.2207031e-2, 3.8982877e+1, -0.07177558, -8088.0303, -4.724964, 0.0, 0.0027680045, -0.06901527, 0.0 
1.2207031e-2, 3.9007095e+1, -0.07188519, -8048.962, 3.905569, 0.0, 0.002638305, -0.06999009, 0.0 
1.2207031e-2, 3.9031315e+1, -0.071875304, -8040.0176, -0.30914977, 0.0, -0.00032249853, -0.07186342, 0.0 
1.2207031e-2, 3.9055535e+1, -0.07161031, -8030.0415, 5.909126, 0.0, 0.00008759943, -0.06726188, 0.0 
1.2207031e-2, 3.9079753e+1, -0.07154365, -7992.9976, -5.3253584, 0.0, 0.0041389354, -0.067995586, 0.0 
1.2207031e-2, 3.9103976e+1, -0.072657295, -7991.0713, -10.84951, 0.0, 0.002581975, -0.057926767, 0.0 
1.2207031e-2, 3.9128196e+1, -0.072874136, -7968.312, 15.435169, 0.0, -0.0010043241, -0.042974994, 0.0 
1.2207031e-2, 3.915242e+1, -0.07348488, -7935.5684, 9.2219515, 0.0, 0.00087641226, -0.06276794, 0.0 
1.2207031e-2, 3.9176643e+1, -0.073664755, -7916.814, -15.84514, 0.0, 0.0034228347, -0.04195126, 0.0 
1.2207031e-2, 3.9200866e+1, -0.07390736, -7918.6606, -7.547273, 0.0, 0.0025368226, -0.066713996, 0.0 
1.2207031e-2, 3.922509e+1, -0.074200064, -7885.1113, 12.823955, 0.0, -0.00013140378, -0.05334368, 0.0 
1.2207031e-2, 3.9249313e+1, -0.07463626, -7857.6016, 7.534592, 0.0, -0.00023920591, -0.06741133, 0.0 
1.2207031e-2, 3.9273536e+1, -0.07416258, -7844.0024, -13.14358, 0.0, 0.003941924, -0.052138768, 0.0 
1.2207031e-2, 3.9297763e+1, -0.07483694, -7851.67, 3.0279908, 0.0, 0.0035500182, -0.07366919, 0.0 
1.2207031e-2, 3.9321986e+1, -0.08414593, -7793.1494, -102.0163, 0.0, -0.0014954876, 1.2510849, 0.0 
1.2207031e-2, 3.9346215e+1, -0.076888785, -7784.993, 8.925524, 0.0, -0.000059349637, -0.066655554, 0.0 
1.2207031e-2, 3.937044e+1, -0.0779933, -7778.737, 8.142564, 0.0, 0.004540139, -0.069469824, 0.0 
1.2207031e-2, 3.9394668e+1, -0.07817266, -7743.0386, 2.8078318, 0.0, 0.0022356415, -0.07715446, 0.0 
1.2207031e-2, 3.9418897e+1, -0.08033749, -7706.895, -48.081528, 0.0, -0.00052300707, 0.21962345, 0.0 
1.2207031e-2, 3.9443123e+1, -0.08034678, -7731.359, 4.33806, 0.0, 0.0012961017, -0.07791267, 0.0 
1.2207031e-2, 3.946735e+1, -0.08127682, -7687.0273, 4.9505534, 0.0, 0.002525293, -0.07808856, 0.0 
1.2207031e-2, 3.9491582e+1, -0.08286376, -7667.5493, -7.2212343, 0.0, 0.0018189637, -0.0760628, 0.0 
1.2207031e-2, 3.9515808e+1, -0.083000794, -7644.365, 2.3587368, 0.0, 0.0010700076, -0.08227298, 0.0 
1.2207031e-2, 3.954004e+1, -0.08322546, -7638.9023, 11.811578, 0.0, 0.00043067223, -0.06496177, 0.0 
1.2207031e-2, 3.956427e+1, -0.082965925, -7597.13, -10.911001, 0.0, 0.0023268892, -0.0672954, 0.0 
1.2207031e-2, 3.9588502e+1, -0.082746744, -7605.354, -16.663918, 0.0, 0.0029588032, -0.046234597, 0.0 
1.2207031e-2, 3.9612728e+1, -0.08307378, -7573.2134, 15.640902, 0.0, 0.000014754486, -0.050770525, 0.0 
1.2207031e-2, 3.9636964e+1, -0.08296194, -7553.028, 15.875484, 0.0, 0.00013853474, -0.049593516, 0.0 
1.2207031e-2, 3.9661193e+1, -0.081353776, -7528.32, -17.257833, 0.0, 0.0031558329, -0.041791897, 0.0 
1.2207031e-2, 3.9685425e+1, -0.08020519, -7546.333, -13.291834, 0.0, 0.0020465094, -0.05679326, 0.0 
1.2207031e-2, 3.970966e+1, -0.09878215, -7482.5527, -139.42274, 0.0, 0.0002488198, 2.4982212, 0.0 
1.2207031e-2, 3.973389e+1, -0.077630505, -7459.2847, 38.44598, 0.0, 0.0013908513, 0.12052113, 0.0 
1.2207031e-2, 3.9758125e+1, -0.07691026, -7460.0874, -11.611232, 0.0, 0.0019721633, -0.058837846, 0.0 
1.2207031e-2, 3.978236e+1, -0.07687808, -7464.0034, -16.815723, 0.0, 0.0011125086, -0.038993582, 0.0 
1.2207031e-2, 3.9806595e+1, -0.101734444, -7398.3545, -164.44168, 0.0, 0.0015148736, 3.551523, 0.0 
1.2207031e-2, 3.983083e+1, -0.07331956, -7387.0483, 33.86134, 0.0, 0.0014609304, 0.08189503, 0.0 
1.2207031e-2, 3.9855063e+1, -0.07235843, -7373.648, -13.044333, 0.0, 0.0012322416, -0.049282227, 0.0 
1.2207031e-2, 3.9879304e+1, -0.072659366, -7360.233, -8.169162, 0.0, 0.0016279647, -0.063592285, 0.0 
1.2207031e-2, 3.9903536e+1, -0.07179347, -7329.3657, 8.302261, 0.0, 0.0013374254, -0.06238909, 0.0 
1.2207031e-2, 3.9927778e+1, -0.06991674, -7327.8887, 3.66802, 0.0, 0.0010626214, -0.06808067, 0.0 
1.2207031e-2, 3.9952016e+1, -0.06710471, -7297.602, -8.722031, 0.0, 0.0016712461, -0.05668013, 0.0 
1.2207031e-2, 3.997625e+1, -0.0647862, -7276.725, -3.4158623, 0.0, 0.001445415, -0.063182704, 0.0 
1.2207031e-2, 4.000049e+1, -0.063701294, -7254.924, 6.5738015, 0.0, 0.0011267912, -0.057744622, 0.0 
1.2207031e-2, 4.002473e+1, -0.06325184, -7253.198, 1.640829, 0.0, 0.0016632065, -0.06288064, 0.0 
1.2207031e-2, 4.004897e+1, -0.0632214, -7226.2095, -4.151676, 0.0, 0.0013603953, -0.06083612, 0.0 
1.2207031e-2, 4.0073207e+1, -0.06340369, -7204.929, -22.689547, 0.0, 0.00088965864, 0.008049472, 0.0 
1.2207031e-2, 4.0097445e+1, -0.06699264, -7174.9185, -65.20684, 0.0, 0.0015746222, 0.52557445, 0.0 
1.2207031e-2, 4.012169e+1, -0.061274905, -7160.5874, 18.825966, 0.0, 0.0019354065, -0.011779309, 0.0 
1.2207031e-2, 4.014593e+1, -0.06171624, -7139.66, -11.259137, 0.0, 0.0011144277, -0.043960642, 0.0 
1.2207031e-2, 4.0170175e+1, -0.062404815, -7129.715, -8.348755, 0.0, 0.0006361479, -0.052628517, 0.0 
1.2207031e-2, 4.0194416e+1, -0.0648963, -7097.7656, -24.49246, 0.0, 0.0017114655, 0.019620286, 0.0 
1.2207031e-2, 4.0218657e+1, -0.06514737, -7084.579, 0.051176265, 0.0, 0.0022318335, -0.065147, 0.0 
1.2207031e-2, 4.02429e+1, -0.06632033, -7067.203, -4.1554627, 0.0, 0.0008667511, -0.06387693, 0.0 
1.2207031e-2, 4.0267143e+1, -0.06674005, -7043.3237, 9.321035, 0.0, 0.000655421, -0.05440463, 0.0 
1.2207031e-2, 4.029139e+1, -0.06710666, -7017.5273, -4.935588, 0.0, 0.0017835902, -0.06363531, 0.0 
1.2207031e-2, 4.031563e+1, -0.06813304, -7015.4424, -3.9969363, 0.0, 0.0021110442, -0.06585583, 0.0 
1.2207031e-2, 4.0339878e+1, -0.06934843, -6988.076, 2.5678415, 0.0, 0.0010942547, -0.068404846, 0.0 
1.2207031e-2, 4.0364125e+1, -0.07134366, -6959.534, -4.8820314, 0.0, 0.00045649678, -0.06791894, 0.0 
1.2207031e-2, 4.038837e+1, -0.07377018, -6943.9077, 6.979227, 0.0, 0.0018186193, -0.066755384, 0.0 
1.2207031e-2, 4.0412617e+1, -0.075692765, -6943.6, 8.302129, 0.0, 0.002305607, -0.065766215, 0.0 
1.2207031e-2, 4.0436864e+1, -0.0778375, -6936.1157, 4.975877, 0.0, 0.000562831, -0.074267834, 0.0 
1.2207031e-2, 4.0461108e+1, -0.097587846, -6893.1895, -124.60117, 0.0, 0.0014995048, 2.153997, 0.0 
1.2207031e-2, 4.0485355e+1, -0.11094027, -6838.9272, -141.2103, 0.0, 0.0018631982, 2.803578, 0.0 
1.2207031e-2, 4.0509605e+1, -0.08252031, -6849.8433, 31.252743, 0.0, 0.00056129415, 0.060070597, 0.0 
1.2207031e-2, 4.0533856e+1, -0.08363692, -6856.971, -1.5085899, 0.0, 0.001884202, -0.083305016, 0.0 
1.2207031e-2, 4.0558103e+1, -0.10255606, -6818.677, -119.55553, 0.0, 0.0017050012, 1.9930627, 0.0 
1.2207031e-2, 4.0582353e+1, -0.114574626, -6761.1, -146.11632, 0.0, 0.00054881215, 3.0417726, 0.0 
1.2207031e-2, 4.0606606e+1, -0.08477784, -6763.6606, 20.84965, 0.0, 0.0027845756, -0.020506555, 0.0 
1.2207031e-2, 4.0630856e+1, -0.08523556, -6751.599, -9.35936, 0.0, 0.0014656726, -0.072261065, 0.0 
1.2207031e-2, 4.0655106e+1, -0.08469893, -6725.1895, 5.350575, 0.0, -0.00048586825, -0.08044195, 0.0 
1.2207031e-2, 4.0679356e+1, -0.08422065, -6702.9175, -1.6489993, 0.0, 0.0023510642, -0.08381497, 0.0 
1.2207031e-2, 4.070361e+1, -0.083034836, -6711.4565, 12.983695, 0.0, 0.0026238074, -0.05791692, 0.0 
1.2207031e-2, 4.0727863e+1, -0.08138662, -6665.006, -2.0032203, 0.0, 0.0006623116, -0.08078453, 0.0 
1.2207031e-2, 4.0752113e+1, -0.078790285, -6655.63, -22.477705, 0.0, 0.0011313459, -0.0028774985, 0.0 
1.2207031e-2, 4.0776366e+1, -0.07629451, -6629.729, 17.323715, 0.0, 0.0017151373, -0.031026823, 0.0 
1.2207031e-2, 4.0800622e+1, -0.0748827, -6624.7314, 13.795187, 0.0, 0.0017884466, -0.04615572, 0.0 
1.2207031e-2, 4.0824875e+1, -0.0732625, -6627.1064, 6.820715, 0.0, 0.0012287396, -0.06624245, 0.0 
1.2207031e-2, 4.084913e+1, -0.10481896, -6589.3306, -173.1702, 0.0, 0.0015353624, 4.4430947, 0.0 
1.2207031e-2, 4.0873387e+1, -0.106423125, -6525.194, -159.60527, 0.0, 0.0018380284, 3.795229, 0.0 
1.2207031e-2, 4.089764e+1, -0.07189065, -6523.306, 24.553722, 0.0, 0.0008710656, 0.020529266, 0.0 
1.2207031e-2, 4.0921897e+1, -0.070218116, -6526.2983, -13.508079, 0.0, 0.0012249508, -0.042259026, 0.0 
1.2207031e-2, 4.0946156e+1, -0.06735862, -6519.598, 13.07894, 0.0, 0.002905171, -0.041120842, 0.0 
1.2207031e-2, 4.0970412e+1, -0.09072198, -6457.892, -165.30722, 0.0, 0.0015305468, 4.1380534, 0.0 
1.2207031e-2, 4.099467e+1, -0.061502412, -6447.4478, 21.54903, 0.0, -0.00033000566, 0.0105198715, 0.0 
1.2207031e-2, 4.1018927e+1, -0.060044304, -6439.086, -1.8363695, 0.0, 0.002206841, -0.059520584, 0.0 
1.2207031e-2, 4.1043186e+1, -0.057905663, -6423.1143, 1.3008286, 0.0, 0.002702675, -0.057642214, 0.0 
1.2207031e-2, 4.1067448e+1, -0.05635505, -6388.4473, -0.48024145, 0.0, 0.00047610828, -0.05631895, 0.0 
1.2207031e-2, 4.1091704e+1, -0.053781155, -6389.5503, 2.5556922, 0.0, 0.001909461, -0.05275892, 0.0 
1.2207031e-2, 4.1115966e+1, -0.052095853, -6359.9556, 0.79952335, 0.0, 0.00219879, -0.05199534, 0.0 
1.2207031e-2, 4.1140226e+1, -0.051001836, -6338.9854, -6.1135426, 0.0, 0.00003324948, -0.045105673, 0.0 
1.2207031e-2, 4.1164485e+1, -0.051593218, -6320.864, 0.5455146, 0.0, 0.0013650401, -0.051546138, 0.0 
1.2207031e-2, 4.1188747e+1, -0.05248144, -6314.638, 12.960691, 0.0, 0.0035669815, -0.025879722, 0.0 
1.2207031e-2, 4.121301e+1, -0.054177567, -6271.5415, -3.540879, 0.0, 0.0015100301, -0.05217839, 0.0 
1.2207031e-2, 4.1237274e+1, -0.05449215, -6264.0317, -15.866122, 0.0, -0.0008150459, -0.01430487, 0.0 
1.2207031e-2, 4.1261536e+1, -0.05401592, -6244.4824, 5.368726, 0.0, 0.0018848623, -0.04940009, 0.0 
1.2207031e-2, 4.1285798e+1, -0.05351725, -6228.331, 14.603749, 0.0, 0.0036670954, -0.019275308, 0.0 
1.2207031e-2, 4.1310063e+1, -0.053108152, -6208.739, 2.941897, 0.0, 0.0008711671, -0.05171418, 0.0 
1.2207031e-2, 4.1334328e+1, -0.055247787, -6193.793, -52.16425, 0.0, 0.00021725985, 0.38405332, 0.0 
1.2207031e-2, 4.135859e+1, -0.057766795, -6160.614, -42.540928, 0.0, 0.0021108214, 0.23598011, 0.0 
1.2207031e-2, 4.1382855e+1, -0.05634534, -6133.032, 23.510963, 0.0, 0.002040463, 0.033783387, 0.0 
1.2207031e-2, 4.1407123e+1, -0.059545305, -6151.2485, -7.2410574, 0.0, 0.00115382, -0.051021285, 0.0 
1.2207031e-2, 4.1431388e+1, -0.06693339, -6129.1465, -44.06438, 0.0, 0.001478799, 0.24984652, 0.0 
1.2207031e-2, 4.1455653e+1, -0.09712767, -6064.688, -161.78323, 0.0, 0.0018703478, 4.2156467, 0.0 
1.2207031e-2, 4.1479924e+1, -0.06476368, -6044.455, 20.05292, 0.0, 0.0009769363, 0.0017633156, 0.0 
1.2207031e-2, 4.150419e+1, -0.06522805, -6065.6323, -14.693366, 0.0, 0.0012963405, -0.02963472, 0.0 
1.2207031e-2, 4.1528457e+1, -0.06648553, -6009.897, 15.0867815, 0.0, 0.0023788416, -0.028612653, 0.0 
1.2207031e-2, 4.1552725e+1, -0.0677592, -6009.814, 1.8038744, 0.0, 0.0012254199, -0.06721775, 0.0 
1.2207031e-2, 4.1576996e+1, -0.070579626, -5994.642, -10.064337, 0.0, 0.0010098111, -0.05368257, 0.0 
1.2207031e-2, 4.1601264e+1, -0.07244718, -5976.043, -2.8368466, 0.0, 0.002122018, -0.0711005, 0.0 
1.2207031e-2, 4.1625535e+1, -0.07288622, -5941.2764, 3.4262383, 0.0, 0.00092273334, -0.07091034, 0.0 
1.2207031e-2, 4.1649804e+1, -0.07259015, -5932.0073, 7.541306, 0.0, 0.0010945946, -0.063002855, 0.0 
1.2207031e-2, 4.1674078e+1, -0.07152518, -5907.2046, -6.2591577, 0.0, 0.0025947117, -0.06489302, 0.0 
1.2207031e-2, 4.1698346e+1, -0.07049258, -5945.09, 13.755727, 0.0, 0.0012011199, -0.03866442, 0.0 
1.2207031e-2, 4.172262e+1, -0.099584445, -5873.3564, -156.38661, 0.0, 0.0008206417, 4.061558, 0.0 
1.2207031e-2, 4.174689e+1, -0.1006701, -5828.127, -149.62856, 0.0, 0.001865715, 3.7383597, 0.0 
1.2207031e-2, 4.1771165e+1, -0.06861653, -5805.885, 21.876738, 0.0, 0.001384562, 0.013815433, 0.0 
1.2207031e-2, 4.1795436e+1, -0.06825078, -5860.5396, -4.138096, 0.0, 0.001260126, -0.065328866, 0.0 
1.2207031e-2, 4.181971e+1, -0.079997785, -5784.605, -91.93414, 0.0, 0.0017636719, 1.3807535, 0.0 
1.2207031e-2, 4.1843984e+1, -0.08350032, -5760.787, -103.989006, 0.0, 0.0012923334, 1.79304, 0.0 
1.2207031e-2, 4.186826e+1, -0.06362895, -5732.84, 11.069469, 0.0, 0.0013479785, -0.042254884, 0.0 
1.2207031e-2, 4.1892532e+1, -0.061746925, -5757.8564, -14.941672, 0.0, 0.0016126098, -0.022973038, 0.0 
1.2207031e-2, 4.1916808e+1, -0.060245324, -5690.4937, 12.7815485, 0.0, 0.0011945755, -0.031536236, 0.0 
1.2207031e-2, 4.1941085e+1, -0.058879428, -5703.6514, 6.793082, 0.0, 0.0013288695, -0.050788753, 0.0 
1.2207031e-2, 4.1965362e+1, -0.058188822, -5669.7813, -12.906587, 0.0, 0.001706461, -0.028808355, 0.0 
1.2207031e-2, 4.198964e+1, -0.05558156, -5680.4136, -2.3521194, 0.0, 0.001373362, -0.054607596, 0.0 
1.2207031e-2, 4.2013916e+1, -0.052878104, -5611.859, 4.892497, 0.0, 0.0012681533, -0.048612718, 0.0 
1.2207031e-2, 4.2038193e+1, -0.049510386, -5636.616, -3.6037161, 0.0, 0.0010070915, -0.047206365, 0.0 
1.2207031e-2, 4.206247e+1, -0.048057195, -5591.168, 3.8513985, 0.0, 0.0019918785, -0.04540419, 0.0 
1.2207031e-2, 4.208675e+1, -0.048159745, -5585.5225, -1.249946, 0.0, 0.0019526703, -0.047880024, 0.0 
1.2207031e-2, 4.211103e+1, -0.0490856, -5544.7534, -7.567007, 0.0, 0.00004136797, -0.03875872, 0.0 
1.2207031e-2, 4.2135307e+1, -0.050596382, -5553.8394, 9.752012, 0.0, 0.0015248876, -0.033472676, 0.0 
1.2207031e-2, 4.2159587e+1, -0.050702486, -5515.3374, 2.5927541, 0.0, 0.0023328748, -0.049483623, 0.0 
1.2207031e-2, 4.2183867e+1, -0.050048146, -5543.86, 3.4725108, 0.0, 0.0002998542, -0.04787305, 0.0 
1.2207031e-2, 4.220815e+1, -0.06446825, -5473.358, -111.964935, 0.0, 0.0021400715, 2.2249951, 0.0 
1.2207031e-2, 4.2232433e+1, -0.06662388, -5450.4546, -101.353775, 0.0, 0.0020024278, 1.8174694, 0.0 
1.2207031e-2, 4.2256713e+1, -0.046873834, -5421.928, 21.773003, 0.0, -0.00014006472, 0.04056002, 0.0 
1.2207031e-2, 4.2281e+1, -0.047748744, -5464.5435, -5.2500634, 0.0, 0.0017158273, -0.042704705, 0.0 
1.2207031e-2, 4.230528e+1, -0.06778358, -5408.476, -104.48438, 0.0, 0.0019383805, 1.9499848, 0.0 
1.2207031e-2, 4.2329562e+1, -0.08257278, -5360.9614, -138.27657, 0.0, 0.0011517759, 3.481713, 0.0 
1.2207031e-2, 4.2353848e+1, -0.053627446, -5338.931, 4.720632, 0.0, 0.0014164281, -0.049453467, 0.0 
1.2207031e-2, 4.237813e+1, -0.054253735, -5365.2217, -14.129439, 0.0, 0.00061421865, -0.017043402, 0.0 
1.2207031e-2, 4.2402416e+1, -0.05446582, -5298.8555, 19.1523, 0.0, 0.0023136649, 0.014758478, 0.0 
1.2207031e-2, 4.24267e+1, -0.054408997, -5311.3857, -1.6750847, 0.0, 0.0019127791, -0.05388071, 0.0 
1.2207031e-2, 4.2450988e+1, -0.05321374, -5296.992, 2.0505085, 0.0, -0.00014760211, -0.052419968, 0.0 
1.2207031e-2, 4.2475274e+1, -0.052360073, -5262.1025, -2.4074907, 0.0, 0.002121878, -0.051258598, 0.0 
1.2207031e-2, 4.249956e+1, -0.052201655, -5245.136, -4.557616, 0.0, 0.0014417847, -0.048241403, 0.0 
1.2207031e-2, 4.2523846e+1, -0.051096056, -5228.5215, 14.162554, 0.0, 0.00074614084, -0.012733696, 0.0 
1.2207031e-2, 4.2548135e+1, -0.050622493, -5210.604, -8.43146, 0.0, 0.0023904452, -0.036979157, 0.0 
1.2207031e-2, 4.257242e+1, -0.050753042, -5215.0938, 14.963732, 0.0, 0.0005551433, -0.007817356, 0.0 
1.2207031e-2, 4.259671e+1, -0.07042352, -5153.8237, -134.86761, 0.0, 0.0016824788, 3.4564884, 0.0 
1.2207031e-2, 4.2621002e+1, -0.052854933, -5134.77, 29.881811, 0.0, 0.002543089, 0.12103826, 0.0 
1.2207031e-2, 4.264529e+1, -0.05368672, -5146.018, -1.07653, 0.0, -0.0003613128, -0.05346151, 0.0 
1.2207031e-2, 4.266958e+1, -0.05301144, -5127.8286, 10.90628, 0.0, 0.0017189996, -0.029814947, 0.0 
1.2207031e-2, 4.269387e+1, -0.08402208, -5113.293, -155.96126, 0.0, 0.0022685279, 4.6686344, 0.0 
1.2207031e-2, 4.2718163e+1, -0.089320116, -5038.7544, -156.12454, 0.0, 0.00039182283, 4.7436104, 0.0 
1.2207031e-2, 4.2742455e+1, -0.047515597, -5038.432, 4.3964763, 0.0, 0.002195636, -0.043679252, 0.0 
1.2207031e-2, 4.2766747e+1, -0.04479556, -5057.94, 7.747535, 0.0, 0.0018221277, -0.032928143, 0.0 
1.2207031e-2, 4.279104e+1, -0.0697259, -5000.7285, -150.02513, 0.0, 0.00039526867, 4.427145, 0.0 
1.2207031e-2, 4.281533e+1, -0.04100456, -4967.099, 21.512976, 0.0, 0.0019239159, 0.05216919, 0.0 
1.2207031e-2, 4.2839622e+1, -0.040541913, -4985.99, -22.113789, 0.0, 0.0014503143, 0.057535704, 0.0 
1.2207031e-2, 4.2863917e+1, -0.040722623, -4943.253, 4.6246433, 0.0, 0.0012524303, -0.036396023, 0.0 
1.2207031e-2, 4.288821e+1, -0.041066032, -4944.992, 6.472261, 0.0, 0.0018067688, -0.032594748, 0.0 
1.2207031e-2, 4.2912507e+1, -0.03977458, -4903.637, 3.9998388, 0.0, 0.001062313, -0.036511935, 0.0 
1.2207031e-2, 4.2936802e+1, -0.03790193, -4898.655, -4.291319, 0.0, 0.0016190514, -0.03414262, 0.0 
1.2207031e-2, 4.2961097e+1, -0.035571925, -4879.3916, -6.031829, 0.0, 0.0021617927, -0.028115427, 0.0 
1.2207031e-2, 4.2985395e+1, -0.033131577, -4860.086, 4.7017245, 0.0, 0.0006496774, -0.028583027, 0.0 
1.2207031e-2, 4.300969e+1, -0.031608906, -4823.0864, 0.23908222, 0.0, 0.0010420949, -0.03159705, 0.0 
1.2207031e-2, 4.303399e+1, -0.031278245, -4837.935, 3.7661037, 0.0, 0.0023117089, -0.028346496, 0.0 
1.2207031e-2, 4.3058285e+1, -0.031273514, -4781.3774, -3.9338846, 0.0, 0.0019714185, -0.028036889, 0.0 
1.2207031e-2, 4.3082583e+1, -0.03218585, -4787.719, -2.2001402, 0.0, 0.00047925534, -0.031174794, 0.0 
1.2207031e-2, 4.310688e+1, -0.034075454, -4748.0776, 13.226023, 0.0, 0.0014841895, 0.002766313, 0.0 
1.2207031e-2, 4.313118e+1, -0.03655199, -4749.609, -8.790803, 0.0, 0.002113117, -0.020281482, 0.0 
1.2207031e-2, 4.315548e+1, -0.03872857, -4741.391, 20.17471, 0.0, 0.0010228212, 0.04711435, 0.0 
1.2207031e-2, 4.317978e+1, -0.08384308, -4699.8687, -227.3427, 0.0, 0.0016535193, 10.887792, 0.0 
1.2207031e-2, 4.3204078e+1, -0.03921235, -4652.514, 34.36115, 0.0, 0.0018564907, 0.21455026, 0.0 
1.2207031e-2, 4.3228382e+1, -0.039097767, -4665.3135, -9.624924, 0.0, 0.0010262554, -0.019240681, 0.0 
1.2207031e-2, 4.3252683e+1, -0.037731145, -4637.4473, -8.771608, 0.0, 0.0013459338, -0.021139804, 0.0 
1.2207031e-2, 4.3276986e+1, -0.036324766, -4625.133, 10.295748, 0.0, 0.0016886193, -0.013405914, 0.0 
1.2207031e-2, 4.3301284e+1, -0.03613158, -4592.3076, 10.44635, 0.0, 0.00212704, -0.012368686, 0.0 
1.2207031e-2, 4.3325588e+1, -0.037278183, -4584.9976, -12.158808, 0.0, 0.00092004205, -0.005034596, 0.0 
1.2207031e-2, 4.3349892e+1, -0.03781187, -4567.201, -4.222191, 0.0, 0.00053475524, -0.0339086, 0.0 
1.2207031e-2, 4.3374196e+1, -0.03874916, -4539.6084, 9.314734, 0.0, 0.0026480434, -0.019636353, 0.0 
1.2207031e-2, 4.33985e+1, -0.040076625, -4528.593, -4.822305, 0.0, 0.002032907, -0.034941517, 0.0 
1.2207031e-2, 4.3422806e+1, -0.04177155, -4498.352, -3.2496946, 0.0, 0.0003144493, -0.03942389, 0.0 
1.2207031e-2, 4.344711e+1, -0.042805173, -4486.347, 6.703311, 0.0, 0.0015054629, -0.032789294, 0.0 
1.2207031e-2, 4.3471417e+1, -0.043250613, -4468.408, -2.0709288, 0.0, 0.0018823583, -0.04229081, 0.0 
1.2207031e-2, 4.349572e+1, -0.043045178, -4448.914, -5.705556, 0.0, 0.001498721, -0.035727967, 0.0 
1.2207031e-2, 4.3520027e+1, -0.043188285, -4413.342, -3.6394668, 0.0, 0.0014145488, -0.040186968, 0.0 
1.2207031e-2, 4.3544334e+1, -0.04312607, -4419.569, 8.378117, 0.0, 0.0007765324, -0.02724369, 0.0 
1.2207031e-2, 4.356864e+1, -0.04236119, -4375.2466, -8.780208, 0.0, 0.001961801, -0.02474104, 0.0 
1.2207031e-2, 4.3592948e+1, -0.041420113, -4375.061, -13.097455, 0.0, 0.0021076126, -0.0022107423, 0.0 
1.2207031e-2, 4.3617257e+1, -0.040686794, -4346.9316, 13.869579, 0.0, 0.00046658659, 0.0035662774, 0.0 
1.2207031e-2, 4.3641567e+1, -0.040260945, -4330.1006, 10.575164, 0.0, 0.0013993285, -0.014433724, 0.0 
1.2207031e-2, 4.3665877e+1, -0.040430736, -4293.0894, -15.630187, 0.0, 0.001794081, 0.016475093, 0.0 
1.2207031e-2, 4.3690187e+1, -0.039990935, -4311.661, -7.4597974, 0.0, 0.0013488325, -0.027084326, 0.0 
1.2207031e-2, 4.3714496e+1, -0.03926997, -4254.2075, 6.776861, 0.0, 0.0015637948, -0.0284745, 0.0 
1.2207031e-2, 4.3738806e+1, -0.03799828, -4261.0063, 5.0283556, 0.0, 0.00049224886, -0.03206434, 0.0 
1.2207031e-2, 4.376312e+1, -0.03658177, -4218.4854, -4.786391, 0.0, 0.0018897684, -0.03115098, 0.0 
1.2207031e-2, 4.378743e+1, -0.034714155, -4227.512, -7.924248, 0.0, 0.002457311, -0.019860499, 0.0 
1.2207031e-2, 4.381174e+1, -0.033199273, -4173.288, 4.868566, 0.0, 0.00012065626, -0.027519556, 0.0 
1.2207031e-2, 4.3836057e+1, -0.033466745, -4184.356, -1.4951519, 0.0, 0.0010702889, -0.032932494, 0.0 
1.2207031e-2, 4.3860367e+1, -0.03427501, -4151.718, -1.1228157, 0.0, 0.0021549906, -0.033971347, 0.0 
1.2207031e-2, 4.3884683e+1, -0.034985427, -4137.97, 6.17925, 0.0, 0.0011052702, -0.025757868, 0.0 
1.2207031e-2, 4.3908995e+1, -0.036448717, -4097.9497, -8.504178, 0.0, 0.0012960257, -0.018800532, 0.0 
1.2207031e-2, 4.393331e+1, -0.03694044, -4114.7837, 1.9372604, 0.0, 0.0013172099, -0.03602836, 0.0 
1.2207031e-2, 4.3957627e+1, -0.038316514, -4056.2493, -0.5815409, 0.0, 0.0013731379, -0.03823314, 0.0 
1.2207031e-2, 4.3981943e+1, -0.039095245, -4075.6243, -4.491981, 0.0, 0.0012596365, -0.03414433, 0.0 
1.2207031e-2, 4.4006255e+1, -0.040371995, -4032.9026, -5.1853933, 0.0, 0.0013375543, -0.033704706, 0.0 
1.2207031e-2, 4.403057e+1, -0.046378214, -4028.734, -85.807556, 0.0, 0.0014176529, 1.78042, 0.0 
1.2207031e-2, 4.405489e+1, -0.039989777, -4013.9683, 16.905231, 0.0, 0.0011588992, 0.031207755, 0.0 
1.2207031e-2, 4.4079205e+1, -0.07855711, -3969.9912, -202.688, 0.0, 0.0014768534, 10.243053, 0.0 
1.2207031e-2, 4.4103524e+1, -0.03945402, -3922.764, 34.840614, 0.0, 0.0010650837, 0.26996684, 0.0 
1.2207031e-2, 4.4127843e+1, -0.039519068, -3950.5273, -4.677112, 0.0, 0.0017311032, -0.03398169, 0.0 
1.2207031e-2, 4.415216e+1, -0.040982995, -3905.0344, -2.3977413, 0.0, 0.0014890364, -0.039510738, 0.0 
1.2207031e-2, 4.417648e+1, -0.04142008, -3905.0176, -1.7178409, 0.0, -0.00010467675, -0.040664382, 0.0 
1.2207031e-2, 4.4200802e+1, -0.041990533, -3880.1035, 2.640669, 0.0, 0.0022469824, -0.040193364, 0.0 
1.2207031e-2, 4.422512e+1, -0.042137634, -3860.8142, 3.3984337, 0.0, 0.0024079832, -0.039146174, 0.0 
1.2207031e-2, 4.424944e+1, -0.042766724, -3829.7627, -1.9199083, 0.0, -0.00014793403, -0.04180424, 0.0 
1.2207031e-2, 4.427376e+1, -0.043435097, -3832.5432, -8.3347025, 0.0, 0.0017845376, -0.025309347, 0.0 
1.2207031e-2, 4.4298086e+1, -0.0435613, -3802.8735, 1.4140455, 0.0, 0.0018845687, -0.0430355, 0.0 
1.2207031e-2, 4.4322407e+1, -0.044162016, -3776.4495, 12.4092245, 0.0, -0.0001994546, -0.003385889, 0.0 
1.2207031e-2, 4.434673e+1, -0.044694908, -3756.8174, -5.051328, 0.0, 0.0022386527, -0.037902944, 0.0 
1.2207031e-2, 4.437105e+1, -0.044978466, -3753.4321, -12.141086, 0.0, 0.0023590135, -0.0057060923, 0.0 
1.2207031e-2, 4.4395375e+1, -0.04449164, -3722.29, 5.4465356, 0.0, -0.00002161348, -0.036522076, 0.0 
1.2207031e-2, 4.4419697e+1, -0.04299743, -3696.113, 6.000386, 0.0, 0.0018330505, -0.03325613, 0.0 
1.2207031e-2, 4.4444025e+1, -0.042129282, -3688.5269, -2.6521835, 0.0, 0.0017842856, -0.040222246, 0.0 
1.2207031e-2, 4.4468346e+1, -0.042193662, -3666.6653, -1.6382529, 0.0, 0.00003329203, -0.041461688, 0.0 
1.2207031e-2, 4.449267e+1, -0.04253113, -3643.7107, -0.49204978, 0.0, 0.0020454268, -0.04246468, 0.0 
1.2207031e-2, 4.4517e+1, -0.043809652, -3624.3682, -1.690163, 0.0, 0.0024620031, -0.043021463, 0.0 
1.2207031e-2, 4.4541323e+1, -0.04544386, -3608.5208, 0.3624521, 0.0, 0.0003453134, -0.045407455, 0.0 
1.2207031e-2, 4.456565e+1, -0.045791578, -3583.0054, 5.3824463, 0.0, 0.0010243518, -0.0377059, 0.0 
1.2207031e-2, 4.4589978e+1, -0.045476273, -3564.3943, -1.141893, 0.0, 0.0021250143, -0.04511045, 0.0 
1.2207031e-2, 4.4614306e+1, -0.04478654, -3545.0457, -9.634631, 0.0, 0.0009802814, -0.018601654, 0.0 
1.2207031e-2, 4.4638634e+1, -0.043725092, -3542.7756, 8.698083, 0.0, 0.0012584404, -0.022369767, 0.0 
1.2207031e-2, 4.4662964e+1, -0.044115804, -3498.7026, 8.146365, 0.0, 0.002208054, -0.025147703, 0.0 
1.2207031e-2, 4.4687295e+1, -0.043828268, -3488.7678, -10.089313, 0.0, 0.0008188391, -0.014650444, 0.0 
1.2207031e-2, 4.471162e+1, -0.042338487, -3464.0728, -2.3914225, 0.0, 0.0011694578, -0.04068755, 0.0 
1.2207031e-2, 4.473595e+1, -0.04081046, -3456.4536, 4.0927, 0.0, 0.0018970312, -0.035964344, 0.0 
1.2207031e-2, 4.476028e+1, -0.038918514, -3428.4224, 10.076753, 0.0, 0.0010631394, -0.0093010375, 0.0 
1.2207031e-2, 4.4784614e+1, -0.03917259, -3404.163, -5.308546, 0.0, 0.0017981294, -0.03089422, 0.0 
1.2207031e-2, 4.4808945e+1, -0.04025028, -3386.6362, -18.465483, 0.0, 0.0009301384, 0.060430136, 0.0 
1.2207031e-2, 4.4833276e+1, -0.04251753, -3386.8557, 8.925509, 0.0, 0.0011403168, -0.018995665, 0.0 
1.2207031e-2, 4.485761e+1, -0.047239766, -3341.3035, -67.99222, 0.0, 0.0030143717, 1.3357817, 0.0 
1.2207031e-2, 4.4881943e+1, -0.047485422, -3361.1704, 2.2764466, 0.0, 0.00056031154, -0.045943614, 0.0 
1.2207031e-2, 4.4906276e+1, -0.07588066, -3302.1711, -185.14378, 0.0, 0.00039956075, 10.272437, 0.0 
1.2207031e-2, 4.493061e+1, -0.04803902, -3287.0027, 35.313274, 0.0, 0.0025186562, 0.33130407, 0.0 
1.2207031e-2, 4.4954944e+1, -0.046693396, -3265.74, 6.057562, 0.0, 0.0014095984, -0.035457212, 0.0 
1.2207031e-2, 4.4979277e+1, -0.046933115, -3252.2786, -6.8849354, 0.0, 0.0010759514, -0.032357853, 0.0 
1.2207031e-2, 4.5003614e+1, -0.045805965, -3226.3835, -8.843382, 0.0, 0.0017909935, -0.021566462, 0.0 
1.2207031e-2, 4.502795e+1, -0.044592805, -3236.837, 9.286715, 0.0, 0.0013088904, -0.017948417, 0.0 
1.2207031e-2, 4.5052284e+1, -0.044066697, -3178.6587, 6.1709685, 0.0, 0.0012334181, -0.032086413, 0.0 
1.2207031e-2, 4.507662e+1, -0.043957483, -3179.7988, -8.247044, 0.0, 0.0017087957, -0.022568014, 0.0 
1.2207031e-2, 4.510096e+1, -0.044694267, -3151.023, 0.24042913, 0.0, 0.001253783, -0.04467592, 0.0 
1.2207031e-2, 4.5125297e+1, -0.045859255, -3143.6086, 6.103724, 0.0, 0.0013886164, -0.034007955, 0.0 
1.2207031e-2, 4.5149636e+1, -0.046668522, -3108.209, -12.034789, 0.0, 0.0017701893, -0.00007057468, 0.0 
1.2207031e-2, 4.5173973e+1, -0.04851667, -3112.916, -6.411306, 0.0, 0.0013279787, -0.035311908, 0.0 
1.2207031e-2, 4.519831e+1, -0.049639713, -3062.5588, -30.383377, 0.0, 0.0010339264, 0.25176632, 0.0 
1.2207031e-2, 4.5222652e+1, -0.04844138, -3068.97, 5.3293695, 0.0, 0.0015962847, -0.039186634, 0.0 
1.2207031e-2, 4.5246994e+1, -0.046733085, -3044.2837, 6.2303805, 0.0, 0.0018247762, -0.033981953, 0.0 
1.2207031e-2, 4.527133e+1, -0.048218057, -3029.8174, -47.558846, 0.0, 0.0012104282, 0.69813806, 0.0 
1.2207031e-2, 4.5295674e+1, -0.04874224, -2980.7798, -62.9682, 0.0, 0.0010427585, 1.2808733, 0.0 
1.2207031e-2, 4.5320016e+1, -0.044768326, -2988.9355, 11.762491, 0.0, 0.0017920161, 0.0015211051, 0.0 
1.2207031e-2, 4.5344356e+1, -0.04518622, -2948.2087, 4.870411, 0.0, 0.0012923911, -0.03714025, 0.0 
1.2207031e-2, 4.5368698e+1, -0.046234004, -2944.9265, -4.675945, 0.0, 0.0012740829, -0.038809456, 0.0 
1.2207031e-2, 4.5393044e+1, -0.045977432, -2909.9197, -7.4821706, 0.0, 0.0017420587, -0.026738623, 0.0 
1.2207031e-2, 4.5417386e+1, -0.046756674, -2925.2927, 3.4652267, 0.0, 0.00096776005, -0.042651795, 0.0 
1.2207031e-2, 4.5441732e+1, -0.046850484, -2864.9478, 6.857208, 0.0, 0.0018024029, -0.030437691, 0.0 
1.2207031e-2, 4.546607e+1, -0.04678383, -2867.1187, -2.6496196, 0.0, 0.0017866346, -0.044335175, 0.0 
1.2207031e-2, 4.5490417e+1, -0.047971185, -2848.652, -4.767899, 0.0, -0.00012831984, -0.039990857, 0.0 
1.2207031e-2, 4.5514762e+1, -0.048207264, -2849.341, -25.048735, 0.0, 0.0018974525, 0.17198442, 0.0 
1.2207031e-2, 4.5539108e+1, -0.05377624, -2780.6152, -79.157715, 0.0, 0.0027415045, 2.197882, 0.0 
1.2207031e-2, 4.5563453e+1, -0.04303308, -2781.7136, 19.153236, 0.0, 0.00038288435, 0.088840574, 0.0 
1.2207031e-2, 4.5587802e+1, -0.041405883, -2777.0637, -17.764944, 0.0, 0.0010044016, 0.07223392, 0.0 
1.2207031e-2, 4.5612147e+1, -0.048303556, -2783.8792, -55.780346, 0.0, 0.0019453296, 1.0689335, 0.0 
1.2207031e-2, 4.5636493e+1, -0.08590606, -2694.1462, -190.71782, 0.0, 0.0011036758, 13.34839, 0.0 
1.2207031e-2, 4.566084e+1, -0.041513182, -2693.4438, 21.55212, 0.0, 0.0013114114, 0.13093197, 0.0 
1.2207031e-2, 4.5685193e+1, -0.042190947, -2676.6753, -14.29276, 0.0, 0.0017206903, 0.03412775, 0.0 
1.2207031e-2, 4.570954e+1, -0.043198265, -2679.9275, 8.255573, 0.0, 0.0011559997, -0.017766627, 0.0 
1.2207031e-2, 4.573389e+1, -0.044612724, -2633.0286, 0.9500879, 0.0, 0.0012435282, -0.044269893, 0.0 
1.2207031e-2, 4.5758238e+1, -0.04504341, -2636.437, -2.272719, 0.0, 0.0015595282, -0.0430842, 0.0 
1.2207031e-2, 4.5782593e+1, -0.044150252, -2596.7283, -2.6005452, 0.0, 0.0012070861, -0.04154584, 0.0 
1.2207031e-2, 4.580694e+1, -0.043792766, -2613.79, -2.228315, 0.0, 0.0011772399, -0.041893046, 0.0 
1.2207031e-2, 4.5831296e+1, -0.041351885, -2551.8809, 5.6698413, 0.0, 0.0019585663, -0.028754327, 0.0 
1.2207031e-2, 4.5855644e+1, -0.040128294, -2548.8794, -5.7070975, 0.0, 0.001426038, -0.027349615, 0.0 
1.2207031e-2, 4.5879996e+1, -0.03884318, -2525.746, -8.97104, 0.0, 0.00029853475, -0.006979416, 0.0 
1.2207031e-2, 4.590435e+1, -0.037856445, -2533.0425, 4.0513153, 0.0, 0.001526295, -0.03137674, 0.0 
1.2207031e-2, 4.5928705e+1, -0.037154093, -2487.345, 5.630792, 0.0, 0.0027408877, -0.024407119, 0.0 
1.2207031e-2, 4.5953056e+1, -0.039993774, -2482.091, -41.23577, 0.0, 0.00089921395, 0.64489126, 0.0 
1.2207031e-2, 4.597741e+1, -0.043761432, -2434.925, -51.44483, 0.0, 0.00008395453, 1.0426941, 0.0 
1.2207031e-2, 4.6001765e+1, -0.042621188, -2436.3801, 12.501575, 0.0, 0.0018592259, 0.021526435, 0.0 
1.2207031e-2, 4.6026123e+1, -0.04391041, -2410.2886, -10.374992, 0.0, 0.0025210273, 0.00074832473, 0.0 
1.2207031e-2, 4.6050477e+1, -0.043786414, -2398.6714, -0.5988533, 0.0, 0.0009080023, -0.0436369, 0.0 
1.2207031e-2, 4.607483e+1, -0.043409105, -2363.661, 7.7933927, 0.0, 0.00036091256, -0.017712766, 0.0 
1.2207031e-2, 4.609919e+1, -0.04265798, -2359.0388, -1.8212969, 0.0, 0.0016744408, -0.04125182, 0.0 
1.2207031e-2, 4.6123546e+1, -0.041801162, -2336.6846, -2.0637145, 0.0, 0.0024646958, -0.0399785, 0.0 
1.2207031e-2, 4.6147904e+1, -0.040697906, -2315.7876, 1.5119964, 0.0, 0.0010171748, -0.039710697, 0.0 
1.2207031e-2, 4.617226e+1, -0.039792884, -2295.859, -2.7541046, 0.0, 0.00030684748, -0.036489017, 0.0 
1.2207031e-2, 4.6196622e+1, -0.039191402, -2275.4744, 0.66489553, 0.0, 0.00198222, -0.038997117, 0.0 
1.2207031e-2, 4.622098e+1, -0.039026327, -2255.029, 2.039947, 0.0, 0.001863604, -0.037180915, 0.0 
1.2207031e-2, 4.624534e+1, -0.039742038, -2239.8235, -0.6503857, 0.0, 0.00058538816, -0.03955318, 0.0 
1.2207031e-2, 4.62697e+1, -0.04000302, -2223.4902, 3.3209956, 0.0, 0.0021298507, -0.035042718, 0.0 
1.2207031e-2, 4.629406e+1, -0.04089343, -2188.1284, -0.8376884, 0.0, 0.001607694, -0.040572733, 0.0 
1.2207031e-2, 4.631842e+1, -0.042375986, -2184.215, -5.457704, 0.0, -0.000036039906, -0.02873863, 0.0 
1.2207031e-2, 4.634278e+1, -0.042226065, -2157.9294, 3.188244, 0.0, 0.0020875295, -0.037515495, 0.0 
1.2207031e-2, 4.6367142e+1, -0.04180754, -2145.952, 6.0993805, 0.0, 0.001991013, -0.024471242, 0.0 
1.2207031e-2, 4.6391505e+1, -0.040066626, -2106.7766, -2.2541885, 0.0, 0.00039460757, -0.037654668, 0.0 
1.2207031e-2, 4.6415865e+1, -0.03878528, -2114.6519, -1.9436946, 0.0, 0.0023676227, -0.03699869, 0.0 
1.2207031e-2, 4.6440232e+1, -0.037117083, -2075.0376, -7.202322, 0.0, 0.0015576656, -0.01211814, 0.0 
1.2207031e-2, 4.6464595e+1, -0.036289092, -2067.7036, -12.480812, 0.0, -0.00016383974, 0.039044593, 0.0 
1.2207031e-2, 4.6488962e+1, -0.035727616, -2032.2388, 0.41088194, 0.0, 0.002206888, -0.035644542, 0.0 
1.2207031e-2, 4.6513325e+1, -0.037571203, -2038.6772, 3.3639028, 0.0, 0.001949738, -0.032020535, 0.0 
1.2207031e-2, 4.6537688e+1, -0.04061537, -1976.3419, 1.2214094, 0.0, 0.0005888463, -0.039860502, 0.0 
1.2207031e-2, 4.6562055e+1, -0.04360164, -1999.8867, -7.428551, 0.0, 0.0020542075, -0.01600817, 0.0 
1.2207031e-2, 4.6586418e+1, -0.045342527, -1959.7584, 3.4460912, 0.0, 0.0012828037, -0.039282706, 0.0 
1.2207031e-2, 4.6610788e+1, -0.046459943, -1962.728, 11.108056, 0.0, 0.0008728785, 0.01640555, 0.0 
1.2207031e-2, 4.6635154e+1, -0.046351176, -1892.4026, -4.851326, 0.0, 0.002218064, -0.03391419, 0.0 
1.2207031e-2, 4.665952e+1, -0.044445917, -1927.3555, -9.817077, 0.0, 0.0004949396, 0.0055576814, 0.0 
1.2207031e-2, 4.6683887e+1, -0.04253117, -1873.8573, 5.458039, 0.0, 0.0011867022, -0.026633156, 0.0 
1.2207031e-2, 4.6708256e+1, -0.041390587, -1883.7247, 9.130203, 0.0, 0.0029659013, 0.002862423, 0.0 
1.2207031e-2, 4.6732625e+1, -0.041245516, -1820.9708, -3.1226552, 0.0, 0.0005293255, -0.035890587, 0.0 
1.2207031e-2, 4.6756995e+1, -0.042304743, -1846.0862, -7.524259, 0.0, 0.0010086582, -0.01163725, 0.0 
1.2207031e-2, 4.6781364e+1, -0.044654414, -1799.4703, 3.6921966, 0.0, 0.0024202857, -0.037078522, 0.0 
1.2207031e-2, 4.6805736e+1, -0.04587155, -1812.0719, 10.032018, 0.0, 0.0000785061, 0.009667558, 0.0 
1.2207031e-2, 4.6830106e+1, -0.046545707, -1735.3987, -9.625932, 0.0, 0.0017154866, 0.0068473266, 0.0 
1.2207031e-2, 4.6854478e+1, -0.04677947, -1767.7, -40.05106, 0.0, 0.002426429, 0.86022246, 0.0 
1.2207031e-2, 4.687885e+1, -0.04539502, -1725.3738, 13.509337, 0.0, 0.00019294144, 0.060376726, 0.0 
1.2207031e-2, 4.690322e+1, -0.043808497, -1716.8008, -3.589504, 0.0, 0.0023902836, -0.036303367, 0.0 
1.2207031e-2, 4.6927592e+1, -0.04326265, -1671.5713, -6.3874307, 0.0, 0.0016056802, -0.018854637, 0.0 
1.2207031e-2, 4.6951964e+1, -0.04260147, -1695.8738, 13.106951, 0.0, -0.00013665397, 0.058695104, 0.0 
1.2207031e-2, 4.697634e+1, -0.042132806, -1624.3346, -3.2006595, 0.0, 0.0028387497, -0.03582595, 0.0 
1.2207031e-2, 4.7000712e+1, -0.04110718, -1650.2206, -13.742028, 0.0, 0.00059573434, 0.07332295, 0.0 
1.2207031e-2, 4.702509e+1, -0.0408126, -1607.6915, 7.9580045, 0.0, 0.0005707246, -0.0014207825, 0.0 
1.2207031e-2, 4.7049466e+1, -0.040094074, -1594.7856, -0.21443687, 0.0, 0.003912121, -0.04006524, 0.0 
1.2207031e-2, 4.707384e+1, -0.040259376, -1566.0109, -0.17081606, 0.0, 0.00022598187, -0.040240742, 0.0 
1.2207031e-2, 4.7098216e+1, -0.040390853, -1560.4845, 0.086263314, 0.0, 0.0005293604, -0.040386084, 0.0 
1.2207031e-2, 4.7122592e+1, -0.04082234, -1532.9084, -9.916826, 0.0, 0.0027286282, 0.023331488, 0.0 
1.2207031e-2, 4.714697e+1, -0.041115113, -1522.8756, 16.486853, 0.0, 0.00014424055, 0.13735762, 0.0 
1.2207031e-2, 4.7171345e+1, -0.04015346, -1476.5487, -0.2948021, 0.0, 0.0018266009, -0.0400946, 0.0 
1.2207031e-2, 4.7195724e+1, -0.03902014, -1488.1874, -22.11695, 0.0, 0.0019390357, 0.28961068, 0.0 
1.2207031e-2, 4.7220105e+1, -0.0381542, -1460.7821, 7.0042315, 0.0, 0.00070638966, -0.0045698523, 0.0 
1.2207031e-2, 4.724448e+1, -0.037785508, -1433.5377, -18.00943, 0.0, 0.0020304427, 0.18843591, 0.0 
1.2207031e-2, 4.726886e+1, -0.037072696, -1419.4581, -2.3395686, 0.0, 0.00063091656, -0.0332165, 0.0 
1.2207031e-2, 4.729324e+1, -0.038263604, -1380.2987, -7.4841604, 0.0, 0.002212425, 0.0023164246, 0.0 
1.2207031e-2, 4.7317618e+1, -0.039509952, -1395.5073, -2.987144, 0.0, 0.0018824856, -0.03311569, 0.0 
1.2207031e-2, 4.7342002e+1, -0.04027385, -1360.0261, 19.62778, 0.0, -0.0005514777, 0.24294202, 0.0 
1.2207031e-2, 4.7366384e+1, -0.04038699, -1317.6566, -10.923178, 0.0, 0.002405368, 0.05016109, 0.0 
1.2207031e-2, 4.7390765e+1, -0.040358614, -1335.5485, -7.958551, 0.0, 0.0018163117, 0.007066243, 0.0 
1.2207031e-2, 4.7415146e+1, -0.04007054, -1302.3958, 4.9933434, 0.0, 0.0007844093, -0.020925917, 0.0 
1.2207031e-2, 4.743953e+1, -0.04074042, -1274.8579, -9.794334, 0.0, 0.0018274763, 0.034504354, 0.0 
1.2207031e-2, 4.7463912e+1, -0.041794308, -1250.6663, 25.217255, 0.0, 0.0009998025, 0.46647307, 0.0 
1.2207031e-2, 4.7488296e+1, -0.04104374, -1203.8606, -53.975864, 0.0, 0.0017269085, 2.3742352, 0.0 
1.2207031e-2, 4.751268e+1, -0.041210502, -1290.169, -69.03429, 0.0, 0.0010899758, 3.642274, 0.0 
1.2207031e-2, 4.7537065e+1, -0.07403182, -1192.2825, -195.75418, 0.0, 0.0015586952, 31.245005, 0.0 
1.2207031e-2, 4.7561452e+1, -0.04024752, -1169.5964, 26.233635, 0.0, 0.0017461439, 0.54788816, 0.0 
1.2207031e-2, 4.7585833e+1, -0.039920703, -1208.8407, 15.433006, 0.0, 0.00045072005, 0.15708353, 0.0 
1.2207031e-2, 4.7610223e+1, -0.101774745, -1118.1394, -267.3425, 0.0, 0.0017124712, 60.535805, 0.0 
1.2207031e-2, 4.763461e+1, -0.039731834, -1091.3135, 20.031908, 0.0, 0.0017902171, 0.327859, 0.0 
1.2207031e-2, 4.7658998e+1, -0.04018998, -1125.668, -23.779385, 0.0, 0.0012805988, 0.4619361, 0.0 
1.2207031e-2, 4.768338e+1, -0.04080483, -1069.849, 2.4016914, 0.0, 0.0009486037, -0.035413124, 0.0 
1.2207031e-2, 4.7707772e+1, -0.04057844, -1068.9968, 5.281703, 0.0, 0.0012432908, -0.01448223, 0.0 
1.2207031e-2, 4.773216e+1, -0.039636973, -1040.7255, -7.9146733, 0.0, 0.0021818364, 0.020552596, 0.0 
1.2207031e-2, 4.7756547e+1, -0.039345812, -1040.0839, -3.3011968, 0.0, 0.0008523762, -0.028867614, 0.0 
1.2207031e-2, 4.7780937e+1, -0.039090082, -998.19824, 11.644379, 0.0, 0.0013121663, 0.096733056, 0.0 
1.2207031e-2, 4.7805324e+1, -0.038460523, -982.2682, -5.644411, 0.0, 0.0018979135, -0.006025824, 0.0 
1.2207031e-2, 4.7829714e+1, -0.037870396, -971.4512, -7.625884, 0.0, 0.00043492223, 0.02199138, 0.0 
1.2207031e-2, 4.7854108e+1, -0.03659606, -954.328, -0.34727973, 0.0, 0.0017964201, -0.03646968, 0.0 
1.2207031e-2, 4.7878498e+1, -0.03709769, -918.68384, 6.0610347, 0.0, 0.001603574, 0.0028899836, 0.0 
1.2207031e-2, 4.7902888e+1, -0.037702385, -912.6213, -2.82175, 0.0, 0.00048458093, -0.028977493, 0.0 
1.2207031e-2, 4.792728e+1, -0.037919153, -888.3949, -2.9070785, 0.0, 0.002633021, -0.028406069, 0.0 
1.2207031e-2, 4.7951674e+1, -0.03765825, -871.9407, 4.8143215, 0.0, 0.0014468861, -0.011076186, 0.0 
1.2207031e-2, 4.7976068e+1, -0.037522025, -847.78107, -5.564987, 0.0, -0.00030300385, -0.0009924105, 0.0 
1.2207031e-2, 4.800046e+1, -0.03787018, -832.2157, -11.593953, 0.0, 0.0022641046, 0.12362616, 0.0 
1.2207031e-2, 4.8024857e+1, -0.03737758, -808.24774, 20.434896, 0.0, 0.0016562052, 0.47897115, 0.0 
1.2207031e-2, 4.804925e+1, -0.037205946, -790.479, -4.435301, 0.0, 0.0005784718, -0.012319517, 0.0 
1.2207031e-2, 4.8073646e+1, -0.03744703, -799.90466, 4.463178, 0.0, 0.0022857445, -0.012543724, 0.0 
1.2207031e-2, 4.8098043e+1, -0.054610185, -745.40985, -123.89455, 0.0, 0.0013208336, 19.999825, 0.0 
1.2207031e-2, 4.8122436e+1, -0.03850342, -721.28204, 33.340115, 0.0, 0.00035453495, 1.4993933, 0.0 
1.2207031e-2, 4.8146832e+1, -0.039100386, -701.31305, -14.278014, 0.0, 0.0020931487, 0.25148118, 0.0 
1.2207031e-2, 4.817123e+1, -0.03975516, -702.63763, 3.5048947, 0.0, 0.0011404844, -0.022271505, 0.0 
1.2207031e-2, 4.8195624e+1, -0.0415548, -658.9947, 7.253283, 0.0, 0.0012437324, 0.03827446, 0.0 
1.2207031e-2, 4.8220024e+1, -0.041379508, -667.2578, -11.174221, 0.0, 0.001709767, 0.14570853, 0.0 
1.2207031e-2, 4.8244423e+1, -0.03999306, -634.59454, 1.8478229, 0.0, 0.00081758684, -0.034612246, 0.0 
1.2207031e-2, 4.8268822e+1, -0.03741949, -620.4714, 8.290227, 0.0, 0.0019482619, 0.07333458, 0.0 
1.2207031e-2, 4.829322e+1, -0.036521513, -582.04956, -3.2385721, 0.0, 0.001517587, -0.018501256, 0.0 
1.2207031e-2, 4.831762e+1, -0.035596076, -587.04596, -1.7430596, 0.0, 0.00036126282, -0.030420305, 0.0 
1.2207031e-2, 4.8342022e+1, -0.035863683, -549.50574, -0.66926974, 0.0, 0.0020405664, -0.035048492, 0.0 
1.2207031e-2, 4.836642e+1, -0.036741536, -550.2553, 6.516803, 0.0, 0.0012295628, 0.04043282, 0.0 
1.2207031e-2, 4.8390824e+1, -0.038275294, -498.0965, -0.9514062, 0.0, 0.0010433432, -0.036457893, 0.0 
1.2207031e-2, 4.8415226e+1, -0.039618276, -510.92557, -9.753272, 0.0, 0.0020078386, 0.14651266, 0.0 
1.2207031e-2, 4.8439628e+1, -0.04148308, -477.26617, 4.6715455, 0.0, 0.0010240233, 0.004242232, 0.0 
1.2207031e-2, 4.846403e+1, -0.042834263, -466.65668, -1.243443, 0.0, 0.0012621388, -0.039520733, 0.0 
1.2207031e-2, 4.8488435e+1, -0.043890886, -427.25296, -1.7936152, 0.0, 0.0016290366, -0.036360618, 0.0 
1.2207031e-2, 4.8512837e+1, -0.043269, -415.14188, -7.0125895, 0.0, 0.0010265002, 0.07516644, 0.0 
1.2207031e-2, 4.853724e+1, -0.040189415, -396.50034, -29.506205, 0.0, 0.0015020319, 2.1437538, 0.0 
1.2207031e-2, 4.8561645e+1, -0.03666185, -397.8963, -11.717441, 0.0, 0.0014585442, 0.30813193, 0.0 
1.2207031e-2, 4.8586047e+1, -0.033797804, -341.81003, -2.772223, 0.0, 0.0014185883, -0.011313167, 0.0 
1.2207031e-2, 4.8610455e+1, -0.03143822, -353.8986, -34.070503, 0.0, 0.0011901164, 3.2190292, 0.0 
1.2207031e-2, 4.863486e+1, -0.03128296, -326.72336, -14.597046, 0.0, 0.0009570183, 0.619636, 0.0 
1.2207031e-2, 4.8659268e+1, -0.034260385, -300.27466, 8.828912, 0.0, 0.0023781369, 0.22513972, 0.0 
1.2207031e-2, 4.8683673e+1, -0.038351092, -283.98932, -3.9900813, 0.0, 0.0013262122, 0.017706499, 0.0 
1.2207031e-2, 4.870808e+1, -0.041639894, -276.6819, 2.5166633, 0.0, 0.00029463143, -0.018747093, 0.0 
1.2207031e-2, 4.873249e+1, -0.04578597, -228.9587, -1.9208261, 0.0, 0.002200248, -0.029669303, 0.0 
1.2207031e-2, 4.8756897e+1, -0.04752943, -235.2618, -5.2977166, 0.0, 0.0011433609, 0.071730256, 0.0 
1.2207031e-2, 4.878131e+1, -0.04791488, -197.31361, 4.4686537, 0.0, 0.001124174, 0.053261485, 0.0 
1.2207031e-2, 4.8805717e+1, -0.04663374, -180.72227, -5.4088163, 0.0, 0.0020965019, 0.11514305, 0.0 
1.2207031e-2, 4.8830128e+1, -0.04485628, -181.68285, 7.9569488, 0.0, 0.00051597354, 0.30304453, 0.0 
1.2207031e-2, 4.885454e+1, -0.04253992, -135.1662, -7.8559437, 0.0, 0.0022746464, 0.41266266, 0.0 
1.2207031e-2, 4.8878947e+1, -0.040804114, -139.08125, -10.951162, 0.0, 0.0012191571, 0.8164505, 0.0 
1.2207031e-2, 4.8903358e+1, -0.04057836, -98.02668, 24.010313, 0.0, 0.00077516196, 5.5265594, 0.0 
1.2207031e-2, 4.892777e+1, -0.04342797, -84.95099, -17.499899, 0.0, 0.0020246655, 3.4219587, 0.0 
1.2207031e-2, 4.8952183e+1, -0.048528142, -129.11838, 27.892498, 0.0, 0.0009371225, 5.7212267, 0.0 
1.2207031e-2, 4.8976594e+1, -0.1195189, -14.946319, -238.61664, 0.0, 0.001558772, 231.19885, 0.0 
1.2207031e-2, 4.9001008e+1, -0.06575098, -41.51689, 29.86901, 0.0, 0.0014931017, 15.563969, 0.0 
1.2207031e-2, 4.9025422e+1, -0.077305436, -14.798961, -25.430096, 0.0, 0.0013281781, 19.035845, 0.0 
3.6621094e-2, 1.1746209e-2, -0.00009485203, -39992.16, -0.015452274, 0.0, 0.0000014188072, -0.000094846066, 0.0 
3.6621094e-2, 3.5238627e-2, -0.0008537487, -39992.61, -0.046356842, 0.0, 0.000004256421, -0.0008536949, 0.0 
3.6621094e-2, 5.873147e-2, -0.00207524, -39953.223, -0.07870555, 0.0, 0.000008055924, -0.0020750852, 0.0 
3.6621094e-2, 8.222475e-2, -0.0034408052, -39953.313, -0.11011843, 0.0, 0.00001017437, -0.0034405016, 0.0 
3.6621094e-2, 1.05718456e-1, -0.004881974, -39914.04, -0.14261773, 0.0, 0.000013836835, -0.0048814644, 0.0 
3.6621094e-2, 1.2921257e-1, -0.0060623903, -39914.26, -0.17346337, 0.0, 0.00001626489, -0.0060616364, 0.0 
3.6621094e-2, 1.5270713e-1, -0.0072801667, -39874.875, -0.20515202, 0.0, 0.000019605573, -0.007279111, 0.0 
3.6621094e-2, 1.762021e-1, -0.008189583, -39875.2, -0.23501685, 0.0, 0.000021741915, -0.008188198, 0.0 
3.6621094e-2, 1.9969751e-1, -0.009258926, -39835.715, -0.26537693, 0.0, 0.000025285644, -0.009257158, 0.0 
3.6621094e-2, 2.2319335e-1, -0.010116775, -39836.133, -0.29451814, 0.0, 0.00002737819, -0.010114597, 0.0 
3.6621094e-2, 2.466896e-1, -0.011197411, -39796.56, -0.32388398, 0.0, 0.00003045829, -0.011194776, 0.0 
3.6621094e-2, 2.7018628e-1, -0.012063898, -39797.066, -0.35186577, 0.0, 0.00003238387, -0.0120607875, 0.0 
3.6621094e-2, 2.9368338e-1, -0.013149616, -39757.41, -0.3800166, 0.0, 0.000035341687, -0.013145984, 0.0 
3.6621094e-2, 3.1718093e-1, -0.013979827, -39757.996, -0.4071912, 0.0, 0.000037053822, -0.013975657, 0.0 
3.6621094e-2, 3.406789e-1, -0.015021916, -39718.25, -0.43389463, 0.0, 0.0000396247, -0.015017176, 0.0 
3.6621094e-2, 3.6417726e-1, -0.015757315, -39718.94, -0.45902857, 0.0, 0.00004149515, -0.01575201, 0.0 
3.6621094e-2, 3.876761e-1, -0.016642176, -39679.08, -0.4841947, 0.0, 0.000043612356, -0.016636267, 0.0 
3.6621094e-2, 4.111753e-1, -0.01710775, -39679.887, -0.51177144, 0.0, 0.000045276774, -0.01710115, 0.0 
3.6621094e-2, 4.3467498e-1, -0.017617252, -39639.918, -0.53733414, 0.0, 0.000047290032, -0.017609969, 0.0 
3.6621094e-2, 4.5817506e-1, -0.017644322, -39640.84, -0.5547148, 0.0, 0.000048551898, -0.01763656, 0.0 
3.6621094e-2, 4.816756e-1, -0.0176813, -39600.734, -0.5734801, 0.0, 0.000050542603, -0.017672995, 0.0 
3.6621094e-2, 5.0517654e-1, -0.017370557, -39601.785, -0.61485034, 0.0, 0.000051474985, -0.017361011, 0.0 
3.6621094e-2, 5.286779e-1, -0.017120322, -39561.586, -0.6488656, 0.0, 0.000053194246, -0.017109679, 0.0 
3.6621094e-2, 5.521797e-1, -0.016701058, -39562.684, -0.6235105, 0.0, 0.000054300595, -0.01669123, 0.0 
3.6621094e-2, 5.756819e-1, -0.016350945, -39522.438, -0.4831715, 0.0, 0.00005669259, -0.016345039, 0.0 
3.6621094e-2, 5.991846e-1, -0.015887635, -39523.742, -0.7234611, 0.0, 0.00005646592, -0.015874391, 0.0 
3.6621094e-2, 6.2268764e-1, -0.015379679, -39483.258, -0.8497403, 0.0, 0.000058140828, -0.015361392, 0.0 
3.6621094e-2, 6.461911e-1, -0.014726418, -39484.34, -0.62918013, 0.0, 0.000059540776, -0.014716391, 0.0 
3.6621094e-2, 6.696951e-1, -0.013929394, -39444.113, -0.4534634, 0.0, 0.00006295977, -0.013924181, 0.0 
3.6621094e-2, 6.931994e-1, -0.013071377, -39445.793, -0.92077816, 0.0, 0.00006108937, -0.013049884, 0.0 
3.6621094e-2, 7.167042e-1, -0.012084082, -39405.25, -1.5864732, 0.0, 0.00006185519, -0.01202021, 0.0 
3.6621094e-2, 7.402094e-1, -0.011168849, -39406.277, 3.090459, 0.0, 0.00006630392, -0.010926478, 0.0 
3.6621094e-2, 7.63715e-1, -0.010144119, -39365.36, -1.3705913, 0.0, 0.00006636781, -0.010096399, 0.0 
3.6621094e-2, 7.872211e-1, -0.009294015, -39366.98, -0.8271552, 0.0, 0.00006657131, -0.009276636, 0.0 
3.6621094e-2, 8.107276e-1, -0.008416465, -39326.83, -0.7910411, 0.0, 0.00006995085, -0.008400553, 0.0 
3.6621094e-2, 8.342345e-1, -0.00772851, -39328.016, -0.868821, 0.0, 0.00006922141, -0.0077093164, 0.0 
3.6621094e-2, 8.5774183e-1, -0.0069924337, -39287.633, -0.8456693, 0.0, 0.000072713556, -0.0069742305, 0.0 
3.6621094e-2, 8.812496e-1, -0.0064708046, -39288.855, -0.84556365, 0.0, 0.00007216042, -0.0064526065, 0.0 
3.6621094e-2, 9.047578e-1, -0.0059275194, -39248.57, -0.8490627, 0.0, 0.00007535708, -0.005909152, 0.0 
3.6621094e-2, 9.282664e-1, -0.0056475312, -39249.71, -0.84528863, 0.0, 0.00007506329, -0.005629327, 0.0 
3.6621094e-2, 9.5177543e-1, -0.005352015, -39209.492, -0.8383503, 0.0, 0.000078015015, -0.00533409, 0.0 
3.6621094e-2, 9.7528493e-1, -0.00531546, -39210.54, -0.8318625, 0.0, 0.00007777417, -0.0052978117, 0.0 
3.6621094e-2, 9.987948e-1, -0.005260257, -39170.44, -0.82028705, 0.0, 0.00008023641, -0.0052430793, 0.0 
3.6621094e-2, 1.0223051e+0, -0.005435474, -39171.344, -0.8052547, 0.0, 0.00008019411, -0.0054189204, 0.0 
3.6621094e-2, 1.0458158e+0, -0.005604649, -39131.402, -0.7639544, 0.0, 0.000081982536, -0.0055897348, 0.0 
3.6621094e-2, 1.06932715e+0, -0.006016227, -39132.15, -0.75363696, 0.0, 0.00008187452, -0.006001713, 0.0 
3.6621094e-2, 1.09283864e+0, -0.006434732, -39092.34, -0.73912054, 0.0, 0.00008333073, -0.006420757, 0.0 
3.6621094e-2, 1.1163507e+0, -0.007059646, -39092.98, -0.70748687, 0.0, 0.00008347755, -0.007046842, 0.0 
3.6621094e-2, 1.1398631e+0, -0.0076651555, -39053.273, -0.6810501, 0.0, 0.00008344661, -0.0076532783, 0.0 
3.6621094e-2, 1.1633761e+0, -0.00841835, -39053.816, -0.65767264, 0.0, 0.0000832882, -0.008407274, 0.0 
3.6621094e-2, 1.18688926e+0, -0.009117007, -39014.17, -0.5953118, 0.0, 0.000084092004, -0.009107924, 0.0 
3.6621094e-2, 1.2104031e+0, -0.009877528, -39014.656, -0.5206029, 0.0, 0.00008408003, -0.009870581, 0.0 
3.6621094e-2, 1.23391725e+0, -0.01056647, -38975.46, -0.5636006, 0.0, 0.000082622624, -0.01055832, 0.0 
3.6621094e-2, 1.2574318e+0, -0.011255912, -38975.793, -0.61680424, 0.0, 0.00008102869, -0.01124615, 0.0 
3.6621094e-2, 1.2809469e+0, -0.011912997, -38937.3, -0.3372773, 0.0, 0.00008308063, -0.011910075, 0.0 
3.6621094e-2, 1.3044623e+0, -0.012525433, -38937.8, -0.06920283, 0.0, 0.000081496095, -0.01252531, 0.0 
3.6621094e-2, 1.3279781e+0, -0.013101992, -38898.45, -0.11100711, 0.0, 0.000079859004, -0.013101676, 0.0 
3.6621094e-2, 1.3514945e+0, -0.013564648, -38898.133, 0.3333449, 0.0, 0.00007738094, -0.013561792, 0.0 
3.6621094e-2, 1.375011e+0, -0.013988178, -38859.066, 1.2507255, 0.0, 0.00007984426, -0.013947922, 0.0 
3.6621094e-2, 1.3985282e+0, -0.014239599, -38859.516, 1.4741985, 0.0, 0.00007644587, -0.014183673, 0.0 
3.6621094e-2, 1.4220457e+0, -0.01446952, -38820.94, 0.6886523, 0.0, 0.00007696042, -0.014457304, 0.0 
3.6621094e-2, 1.4455637e+0, -0.014516835, -38820.453, -0.033063486, 0.0, 0.00007361257, -0.014516807, 0.0 
3.6621094e-2, 1.4690821e+0, -0.014603365, -38781.168, -0.06593294, 0.0, 0.000075836775, -0.014603253, 0.0 
3.6621094e-2, 1.4926009e+0, -0.014515353, -38781.06, 0.0041185804, 0.0, 0.000071711154, -0.014515353, 0.0 
3.6621094e-2, 1.5161201e+0, -0.014488038, -38742.203, -0.0098908795, 0.0, 0.000074476266, -0.014488036, 0.0 
3.6621094e-2, 1.53964e+0, -0.014266068, -38741.85, 0.04823515, 0.0, 0.00006922107, -0.014266008, 0.0 
3.6621094e-2, 1.56316e+0, -0.014086257, -38703.137, 0.092947274, 0.0, 0.0000727683, -0.014086033, 0.0 
3.6621094e-2, 1.5866806e+0, -0.013711556, -38702.668, 0.12582122, 0.0, 0.000069297035, -0.013711147, 0.0 
3.6621094e-2, 1.6102014e+0, -0.013402074, -38664.11, 0.16942717, 0.0, 0.00007294302, -0.013401331, 0.0 
3.6621094e-2, 1.633723e+0, -0.012927179, -38663.473, 0.1721544, 0.0, 0.00006590285, -0.012926413, 0.0 
3.6621094e-2, 1.6572447e+0, -0.012521668, -38625.07, 0.37524733, 0.0, 0.000070656344, -0.012518023, 0.0 
3.6621094e-2, 1.680767e+0, -0.011983921, -38624.184, 0.4632451, 0.0, 0.00007065596, -0.0119783655, 0.0 
3.6621094e-2, 1.7042896e+0, -0.011513992, -38586.137, 0.38273308, 0.0, 0.00007363041, -0.011510196, 0.0 
3.6621094e-2, 1.7278127e+0, -0.0109473355, -38585.25, 0.09572723, 0.0, 0.000065165645, -0.010947098, 0.0 
3.6621094e-2, 1.7513362e+0, -0.010456442, -38546.793, 0.055805907, 0.0, 0.000071043774, -0.010456362, 0.0 
3.6621094e-2, 1.7748603e+0, -0.00992019, -38545.586, 0.6885765, 0.0, 0.000074647876, -0.00990789, 0.0 
3.6621094e-2, 1.7983846e+0, -0.009488983, -38508.28, 0.7258481, 0.0, 0.000075853175, -0.009475301, 0.0 
3.6621094e-2, 1.8219094e+0, -0.009087282, -38506.98, 0.36937937, 0.0, 0.000069084024, -0.009083739, 0.0 
3.6621094e-2, 1.8454346e+0, -0.008789885, -38468.355, 0.3045574, 0.0, 0.000076513024, -0.008787474, 0.0 
3.6621094e-2, 1.8689604e+0, -0.008549497, -38467.496, 1.0787103, 0.0, 0.00007782293, -0.008519248, 0.0 
3.6621094e-2, 1.8924865e+0, -0.008384181, -38430.95, 2.0913382, 0.0, 0.00007797976, -0.0082703745, 0.0 
3.6621094e-2, 1.916013e+0, -0.008304279, -38428.76, 8.058471, 0.0, 0.000079626225, -0.006614426, 0.0 
3.6621094e-2, 1.9395399e+0, -0.008204363, -38389.965, -0.6994252, 0.0, 0.00008252252, -0.008191621, 0.0 
3.6621094e-2, 1.9630674e+0, -0.008200411, -38388.99, 0.37395465, 0.0, 0.00008269719, -0.008196768, 0.0 
3.6621094e-2, 1.9865951e+0, -0.008219974, -38351.906, 0.43465567, 0.0, 0.00008604167, -0.008215048, 0.0 
3.6621094e-2, 2.0101233e+0, -0.008327031, -38350.1, 0.38453454, 0.0, 0.00008662932, -0.008323175, 0.0 
3.6621094e-2, 2.033652e+0, -0.008449685, -38312.664, 0.45140317, 0.0, 0.00009060457, -0.008444367, 0.0 
3.6621094e-2, 2.0571811e+0, -0.00868398, -38311.04, 0.4354855, 0.0, 0.000090057416, -0.00867903, 0.0 
3.6621094e-2, 2.0807107e+0, -0.008905695, -38273.56, 0.4481462, 0.0, 0.000094905605, -0.008900448, 0.0 
3.6621094e-2, 2.1042407e+0, -0.009201459, -38271.887, 0.4735263, 0.0, 0.00009377257, -0.0091956, 0.0 
3.6621094e-2, 2.127771e+0, -0.00945977, -38234.51, 0.49090612, 0.0, 0.00009981299, -0.009453468, 0.0 
3.6621094e-2, 2.1513017e+0, -0.009807486, -38232.68, 0.49617538, 0.0, 0.00009768754, -0.009801047, 0.0 
3.6621094e-2, 2.1748328e+0, -0.010117433, -38195.504, 0.4952555, 0.0, 0.00010352748, -0.010111012, 0.0 
3.6621094e-2, 2.1983647e+0, -0.010548738, -38193.492, 0.52193654, 0.0, 0.000101357255, -0.010541605, 0.0 
3.6621094e-2, 2.2218966e+0, -0.010956596, -38156.426, 0.56834835, 0.0, 0.00010896561, -0.01094813, 0.0 
3.6621094e-2, 2.2454293e+0, -0.011467647, -38154.383, 0.5909549, 0.0, 0.000105092564, -0.011458494, 0.0 
3.6621094e-2, 2.2689621e+0, -0.011870178, -38117.4, 0.53274256, 0.0, 0.000111912246, -0.0118627325, 0.0 
3.6621094e-2, 2.2924955e+0, -0.01228262, -38115.133, 0.57273495, 0.0, 0.00010868492, -0.012274014, 0.0 
3.6621094e-2, 2.3160294e+0, -0.012516291, -38078.344, 0.66627663, 0.0, 0.00011689033, -0.012504633, 0.0 
3.6621094e-2, 2.3395637e+0, -0.012716434, -38076.035, 0.6482152, 0.0, 0.00011099052, -0.012705399, 0.0 
3.6621094e-2, 2.3630981e+0, -0.012749603, -38039.42, 0.5763199, 0.0, 0.00012074794, -0.012740871, 0.0 
3.6621094e-2, 2.3866332e+0, -0.012798015, -38036.633, 0.65629816, 0.0, 0.000117242744, -0.01278669, 0.0 
3.6621094e-2, 2.4101686e+0, -0.012766323, -38000.527, 0.71019447, 0.0, 0.00012206268, -0.01275305, 0.0 
3.6621094e-2, 2.4337046e+0, -0.012798703, -37997.43, 0.64691514, 0.0, 0.00011512439, -0.012787689, 0.0 
3.6621094e-2, 2.4572411e+0, -0.012785661, -37961.387, 0.6971934, 0.0, 0.00013130836, -0.012772856, 0.0 
3.6621094e-2, 2.4807778e+0, -0.012773261, -37958.28, 0.81869775, 0.0, 0.0001302959, -0.0127556035, 0.0 
3.6621094e-2, 2.5043148e+0, -0.012693002, -37922.64, 0.5829579, 0.0, 0.00012502536, -0.012684041, 0.0 
3.6621094e-2, 2.5278527e+0, -0.012532328, -37918.95, 0.4299688, 0.0, 0.00011898815, -0.012527453, 0.0 
3.6621094e-2, 2.5513905e+0, -0.012305681, -37884.03, 0.9273231, 0.0, 0.00014339518, -0.012282982, 0.0 
3.6621094e-2, 2.5749293e+0, -0.011982958, -37880.902, 1.0712726, 0.0, 0.00014669143, -0.011952662, 0.0 
3.6621094e-2, 2.598468e+0, -0.011668393, -37846.043, 0.38728467, 0.0, 0.00013150118, -0.011664431, 0.0 
3.6621094e-2, 2.6220074e+0, -0.011312649, -37841.473, 0.40700462, 0.0, 0.00012657318, -0.011308271, 0.0 
3.6621094e-2, 2.645547e+0, -0.011024556, -37806.426, 1.3523757, 0.0, 0.00015494417, -0.01097618, 0.0 
3.6621094e-2, 2.6690874e+0, -0.010733136, -37802.938, 1.3790597, 0.0, 0.00016033859, -0.010682828, 0.0 
3.6621094e-2, 2.692628e+0, -0.010551805, -37768.29, 0.30269647, 0.0, 0.00014374327, -0.010549379, 0.0 
3.6621094e-2, 2.716169e+0, -0.010391887, -37763.06, 0.097408295, 0.0, 0.00014457885, -0.010391636, 0.0 
3.6621094e-2, 2.7397105e+0, -0.010326289, -37728.49, 0.8805575, 0.0, 0.00016488145, -0.010305737, 0.0 
3.6621094e-2, 2.7632526e+0, -0.010213776, -37724.453, 0.7336068, 0.0, 0.00016595407, -0.01019951, 0.0 
3.6621094e-2, 2.7867946e+0, -0.010177004, -37689.72, 0.24716146, 0.0, 0.000160433, -0.010175384, 0.0 
3.6621094e-2, 2.8103375e+0, -0.010059323, -37684.645, 0.76714474, 0.0, 0.00016881917, -0.010043706, 0.0 
3.6621094e-2, 2.8338808e+0, -0.010018349, -37651.113, 0.5711522, 0.0, 0.00017272336, -0.010009684, 0.0 
3.6621094e-2, 2.8574243e+0, -0.009893739, -37645.793, -0.20452102, 0.0, 0.00017271598, -0.009892628, 0.0 
3.6621094e-2, 2.8809685e+0, -0.009856599, -37611.086, 0.54926026, 0.0, 0.00017915656, -0.009848578, 0.0 
3.6621094e-2, 2.904513e+0, -0.009775517, -37607.293, 0.62190837, 0.0, 0.00018119294, -0.009765232, 0.0 
3.6621094e-2, 2.9280576e+0, -0.009807266, -37572.07, -0.11379775, 0.0, 0.00018309138, -0.009806922, 0.0 
3.6621094e-2, 2.9516032e+0, -0.0098535875, -37565.926, 1.8213898, 0.0, 0.00018768114, -0.009765278, 0.0 
3.6621094e-2, 2.975149e+0, -0.010038231, -37533.883, 8.569466, 0.0, 0.00019277087, -0.008081711, 0.0 
3.6621094e-2, 2.998695e+0, -0.010232439, -37529.51, 4.0808134, 0.0, 0.00018699777, -0.009788707, 0.0 
3.6621094e-2, 3.0222416e+0, -0.010520923, -37494.477, 1.3969096, 0.0, 0.00019320346, -0.010468879, 0.0 
3.6621094e-2, 3.0457887e+0, -0.010750718, -37489.188, 0.4139576, 0.0, 0.00019920472, -0.0107461475, 0.0 
3.6621094e-2, 3.069336e+0, -0.011004208, -37455.24, 0.13057317, 0.0, 0.00020573645, -0.011003752, 0.0 
3.6621094e-2, 3.092884e+0, -0.011160249, -37450.004, -0.004705719, 0.0, 0.00019027598, -0.011160248, 0.0 
3.6621094e-2, 3.1164324e+0, -0.0113201635, -37416.227, -0.043746434, 0.0, 0.00019448392, -0.011320112, 0.0 
3.6621094e-2, 3.139981e+0, -0.011396801, -37410.637, 0.078787066, 0.0, 0.00020914541, -0.011396635, 0.0 
3.6621094e-2, 3.1635302e+0, -0.0114495065, -37377.33, 0.09888952, 0.0, 0.0002214396, -0.011449245, 0.0 
3.6621094e-2, 3.18708e+0, -0.01145131, -37371.87, -0.18882337, 0.0, 0.0001882908, -0.011450355, 0.0 
3.6621094e-2, 3.2106298e+0, -0.011452677, -37338.133, -0.32462555, 0.0, 0.00018539879, -0.011449854, 0.0 
3.6621094e-2, 3.2341805e+0, -0.011456725, -37332.305, 0.06960447, 0.0, 0.00021770819, -0.011456596, 0.0 
3.6621094e-2, 3.2577312e+0, -0.011490716, -37299.51, 0.27283618, 0.0, 0.00023995037, -0.01148872, 0.0 
3.6621094e-2, 3.2812828e+0, -0.011560778, -37293.637, -0.39198747, 0.0, 0.0001859238, -0.011556658, 0.0 
3.6621094e-2, 3.3048344e+0, -0.011637712, -37260.402, -0.7916139, 0.0, 0.00017115774, -0.011620894, 0.0 
3.6621094e-2, 3.3283865e+0, -0.011728365, -37253.363, 0.14334391, 0.0, 0.000223123, -0.011727813, 0.0 
3.6621094e-2, 3.3519393e+0, -0.011735521, -37221.703, 0.663703, 0.0, 0.0002509514, -0.011723686, 0.0 
3.6621094e-2, 3.3754924e+0, -0.011759844, -37215.64, -0.62356716, 0.0, 0.00018787182, -0.011749395, 0.0 
3.6621094e-2, 3.3990458e+0, -0.011687277, -37182.297, -0.841081, 0.0, 0.00017045408, -0.011668252, 0.0 
3.6621094e-2, 3.4225994e+0, -0.011644405, -37174.58, 0.20680462, 0.0, 0.00022429733, -0.011643255, 0.0 
3.6621094e-2, 3.446154e+0, -0.011507199, -37144.043, 0.5860232, 0.0, 0.00023970641, -0.011497954, 0.0 
3.6621094e-2, 3.4697086e+0, -0.011447313, -37136.824, -0.69372934, 0.0, 0.00019498006, -0.011434355, 0.0 
3.6621094e-2, 3.4932637e+0, -0.011362946, -37104.223, -0.69335407, 0.0, 0.00019498092, -0.011349989, 0.0 
3.6621094e-2, 3.5168195e+0, -0.011359571, -37096.883, 0.06820417, 0.0, 0.00022134966, -0.011359445, 0.0 
3.6621094e-2, 3.5403755e+0, -0.011303182, -37066.344, -0.6894402, 0.0, 0.00021435962, -0.011290358, 0.0 
3.6621094e-2, 3.563932e+0, -0.011299989, -37057.03, -0.71291333, 0.0, 0.00021016962, -0.0112862745, 0.0 
3.6621094e-2, 3.5874888e+0, -0.011224884, -37026.586, 0.5451526, 0.0, 0.00021611883, -0.011216857, 0.0 
3.6621094e-2, 3.6110464e+0, -0.011192972, -37019.363, -0.37204167, 0.0, 0.00021256029, -0.0111892335, 0.0 
3.6621094e-2, 3.634604e+0, -0.011109377, -36987.383, -1.2072227, 0.0, 0.000217407, -0.011069975, 0.0 
3.6621094e-2, 3.658162e+0, -0.011098648, -36978.97, 0.1041841, 0.0, 0.0002299858, -0.011098355, 0.0 
3.6621094e-2, 3.6817208e+0, -0.011057254, -36949.68, -0.67754287, 0.0, 0.00020460112, -0.01104483, 0.0 
3.6621094e-2, 3.7052798e+0, -0.011101529, -36939.176, -1.2129713, 0.0, 0.0002063669, -0.011061699, 0.0 
3.6621094e-2, 3.7288395e+0, -0.01108953, -36907.234, 2.8610141, 0.0, 0.00024536764, -0.010867747, 0.0 
3.6621094e-2, 3.752399e+0, -0.011138461, -36901.26, 12.347455, 0.0, 0.00024343406, -0.007006904, 0.0 
3.6621094e-2, 3.7759596e+0, -0.011083085, -36873.074, 4.140986, 0.0, 0.00019610535, -0.010618037, 0.0 
3.6621094e-2, 3.79952e+0, -0.011086804, -36862.133, -0.64621234, 0.0, 0.00019959846, -0.011075475, 0.0 
3.6621094e-2, 3.8230816e+0, -0.011072743, -36830.977, -0.17626724, 0.0, 0.0002628422, -0.011071899, 0.0 
3.6621094e-2, 3.8466433e+0, -0.01112256, -36823.074, -0.07336419, 0.0, 0.00026315928, -0.011122414, 0.0 
3.6621094e-2, 3.8702053e+0, -0.01117505, -36793.348, -1.1746367, 0.0, 0.00019721685, -0.01113755, 0.0 
3.6621094e-2, 3.8937676e+0, -0.011260233, -36783.426, -1.1771388, 0.0, 0.00019159712, -0.011222563, 0.0 
3.6621094e-2, 3.9173305e+0, -0.0113133015, -36754.074, 0.027748844, 0.0, 0.00027341847, -0.01131328, 0.0 
3.6621094e-2, 3.940894e+0, -0.011336186, -36745.742, 0.10814581, 0.0, 0.0002690973, -0.011335867, 0.0 
3.6621094e-2, 3.9644575e+0, -0.011310138, -36716.207, -1.2098156, 0.0, 0.00020778053, -0.0112702735, 0.0 
3.6621094e-2, 3.988022e+0, -0.01125676, -36705.59, -1.3209034, 0.0, 0.00020787246, -0.011209226, 0.0 
3.6621094e-2, 4.0115863e+0, -0.01117775, -36676.223, -0.2547691, 0.0, 0.00026750244, -0.011175981, 0.0 
3.6621094e-2, 4.0351516e+0, -0.011113657, -36667.27, 0.49258652, 0.0, 0.0002430964, -0.01110704, 0.0 
3.6621094e-2, 4.058717e+0, -0.011101272, -36637.6, -1.0882729, 0.0, 0.00022847463, -0.011068946, 0.0 
3.6621094e-2, 4.082283e+0, -0.01113786, -36627.09, -0.4710992, 0.0, 0.00024225062, -0.011131801, 0.0 
3.6621094e-2, 4.1058493e+0, -0.011241763, -36599.44, -0.59272826, 0.0, 0.00025013622, -0.011232164, 0.0 
3.6621094e-2, 4.129416e+0, -0.011317671, -36588.1, -1.5211763, 0.0, 0.0002159434, -0.011254427, 0.0 
3.6621094e-2, 4.152983e+0, -0.01144344, -36559.21, -0.6396222, 0.0, 0.00024629117, -0.011432249, 0.0 
3.6621094e-2, 4.1765508e+0, -0.011524139, -36549.035, 0.085822344, 0.0, 0.00025068314, -0.011523938, 0.0 
3.6621094e-2, 4.2001185e+0, -0.011633395, -36521.39, -1.1282713, 0.0, 0.00023523251, -0.01159854, 0.0 
3.6621094e-2, 4.223687e+0, -0.011656686, -36508.824, -0.89670545, 0.0, 0.0002264005, -0.011634662, 0.0 
3.6621094e-2, 4.247256e+0, -0.011672997, -36482.395, -0.2175958, 0.0, 0.0002458548, -0.011671699, 0.0 
3.6621094e-2, 4.2708254e+0, -0.011607574, -36470.47, -1.4820081, 0.0, 0.00023117324, -0.011547352, 0.0 
3.6621094e-2, 4.2943949e+0, -0.011566115, -36442.39, -0.922105, 0.0, 0.00023752319, -0.011542782, 0.0 
3.6621094e-2, 4.3179655e+0, -0.0114570875, -36431.05, -0.01002772, 0.0, 0.00023477968, -0.011457085, 0.0 
3.6621094e-2, 4.3415362e+0, -0.011414241, -36406.836, -3.2713082, 0.0, 0.00023196057, -0.011120301, 0.0 
3.6621094e-2, 4.365107e+0, -0.011507226, -36390.887, 13.829027, 0.0, 0.00023538292, -0.0062520085, 0.0 
3.6621094e-2, 4.3886787e+0, -0.011359806, -36363.703, -2.930126, 0.0, 0.00023835937, -0.011123701, 0.0 
3.6621094e-2, 4.4122505e+0, -0.011371652, -36351.332, -0.6065965, 0.0, 0.00022735793, -0.011361529, 0.0 
3.6621094e-2, 4.435823e+0, -0.011479095, -36326.984, -0.702908, 0.0, 0.00022745454, -0.011465494, 0.0 
3.6621094e-2, 4.4593954e+0, -0.011547695, -36312.33, -0.73772043, 0.0, 0.00024177805, -0.011532707, 0.0 
3.6621094e-2, 4.4829687e+0, -0.011657374, -36287.81, -0.5353816, 0.0, 0.00024484762, -0.0116494745, 0.0 
3.6621094e-2, 4.5065427e+0, -0.011687202, -36273.277, -0.57342595, 0.0, 0.0002266514, -0.011678138, 0.0 
3.6621094e-2, 4.5301166e+0, -0.011719858, -36248.67, -0.573411, 0.0, 0.00021688311, -0.011710788, 0.0 
3.6621094e-2, 4.5536909e+0, -0.01165405, -36234.566, -0.5004411, 0.0, 0.00025251126, -0.011647138, 0.0 
3.6621094e-2, 4.5772657e+0, -0.011588511, -36209.88, -0.47259402, 0.0, 0.00026808784, -0.011582343, 0.0 
3.6621094e-2, 4.600841e+0, -0.01148234, -36195.58, -0.5009619, 0.0, 0.00022548612, -0.0114754075, 0.0 
3.6621094e-2, 4.6244168e+0, -0.011414066, -36170.96, -0.385391, 0.0, 0.00020070322, -0.011409959, 0.0 
3.6621094e-2, 4.647993e+0, -0.01136695, -36156.047, 6.2254753, 0.0, 0.00026439162, -0.010295026, 0.0 
3.6621094e-2, 4.6715698e+0, -0.011309985, -36132.242, -0.12890936, 0.0, 0.00030568618, -0.011309525, 0.0 
3.6621094e-2, 4.695147e+0, -0.01128883, -36117.254, -0.4387632, 0.0, 0.00022965211, -0.0112835, 0.0 
3.6621094e-2, 4.7187242e+0, -0.011294049, -36093.08, -0.6788246, 0.0, 0.00018084218, -0.011281283, 0.0 
3.6621094e-2, 4.7423023e+0, -0.01133349, -36077.63, -0.2124788, 0.0, 0.00027415692, -0.011332238, 0.0 
3.6621094e-2, 4.7658807e+0, -0.011363392, -36053.98, 0.23724693, 0.0, 0.0003435743, -0.011361831, 0.0 
3.6621094e-2, 4.7894597e+0, -0.011392871, -36039.258, -0.3431658, 0.0, 0.00023963347, -0.011389604, 0.0 
3.6621094e-2, 4.8130384e+0, -0.011380608, -36014.945, -0.964411, 0.0, 0.00017719337, -0.011354783, 0.0 
3.6621094e-2, 4.8366183e+0, -0.011364078, -35998.938, -0.15717776, 0.0, 0.00028192298, -0.011363392, 0.0 
3.6621094e-2, 4.8601985e+0, -0.011317756, -35975.97, 0.6359928, 0.0, 0.0003519059, -0.011306513, 0.0 
3.6621094e-2, 4.883779e+0, -0.011304506, -35961.117, -0.26747093, 0.0, 0.00024950362, -0.011302517, 0.0 
3.6621094e-2, 4.9073595e+0, -0.01126292, -35936.805, -0.9665006, 0.0, 0.00021617171, -0.011236927, 0.0 
3.6621094e-2, 4.9309412e+0, -0.011307027, -35920.58, -0.029567365, 0.0, 0.00029206413, -0.011307003, 0.0 
3.6621094e-2, 4.954523e+0, -0.011345308, -35898.273, 0.36987406, 0.0, 0.00031144122, -0.011341497, 0.0 
3.6621094e-2, 4.978105e+0, -0.011472846, -35882.11, -0.34469584, 0.0, 0.00025413328, -0.011469535, 0.0 
3.6621094e-2, 5.001688e+0, -0.011565739, -35858.777, -0.06349732, 0.0, 0.00028693452, -0.011565627, 0.0 
3.6621094e-2, 5.025271e+0, -0.01170675, -35842.684, 0.34219486, 0.0, 0.0002999422, -0.011703483, 0.0 
3.6621094e-2, 5.0488544e+0, -0.011801746, -35820.78, -0.6087593, 0.0, 0.00025822726, -0.011791401, 0.0 
3.6621094e-2, 5.072438e+0, -0.011932134, -35802.543, -0.4703416, 0.0, 0.000269842, -0.011925954, 0.0 
3.6621094e-2, 5.0960225e+0, -0.012008191, -35781.04, 0.8800575, 0.0, 0.00031967755, -0.011986546, 0.0 
3.6621094e-2, 5.1196074e+0, -0.012122302, -35764.734, 0.24678026, 0.0, 0.00028386302, -0.0121206, 0.0 
3.6621094e-2, 5.143193e+0, -0.012180845, -35742.402, -0.58783317, 0.0, 0.00026485295, -0.012171177, 0.0 
3.6621094e-2, 5.1667786e+0, -0.012252391, -35724.117, 0.4189865, 0.0, 0.00029864328, -0.012247478, 0.0 
3.6621094e-2, 5.190364e+0, -0.012233207, -35704.34, 0.015060779, 0.0, 0.00028406316, -0.0122332005, 0.0 
3.6621094e-2, 5.213951e+0, -0.012200637, -35684.94, -0.69675, 0.0, 0.0002716781, -0.012187033, 0.0 
3.6621094e-2, 5.2375376e+0, -0.012118325, -35664.21, 0.967542, 0.0, 0.00029690823, -0.012092076, 0.0 
3.6621094e-2, 5.2611256e+0, -0.012040662, -35646.98, 0.6599803, 0.0, 0.00028875138, -0.012028443, 0.0 
3.6621094e-2, 5.2847135e+0, -0.01197534, -35626.68, -0.5567546, 0.0, 0.00026873793, -0.011966638, 0.0 
3.6621094e-2, 5.3083014e+0, -0.011949622, -35606.395, 1.0546753, 0.0, 0.00029378544, -0.011918382, 0.0 
3.6621094e-2, 5.33189e+0, -0.011963352, -35588.754, 0.6044597, 0.0, 0.00027499424, -0.011953085, 0.0 
3.6621094e-2, 5.355479e+0, -0.012008767, -35566.25, 0.33533558, 0.0, 0.00027702728, -0.012005605, 0.0 
3.6621094e-2, 5.379069e+0, -0.012072485, -35549.914, 1.8866102, 0.0, 0.0002826157, -0.011972363, 0.0 
3.6621094e-2, 5.402659e+0, -0.012112506, -35533.152, -3.1693287, 0.0, 0.00027735444, -0.011829822, 0.0 
3.6621094e-2, 5.426249e+0, -0.0137363225, -35508.03, 50.530827, 0.0, 0.0002769261, 0.058173053, 0.0 
3.6621094e-2, 5.44984e+0, -0.012128101, -35486.89, -3.0067744, 0.0, 0.0002761722, -0.011873339, 0.0 
3.6621094e-2, 5.4734313e+0, -0.012116926, -35470.207, 0.7502017, 0.0, 0.00027270682, -0.012101059, 0.0 
3.6621094e-2, 5.497023e+0, -0.012060339, -35450.48, 0.46373957, 0.0, 0.0002824113, -0.012054272, 0.0 
3.6621094e-2, 5.520615e+0, -0.012070843, -35431.46, 0.3968835, 0.0, 0.00027063105, -0.012066398, 0.0 
3.6621094e-2, 5.5442077e+0, -0.012054369, -35411.176, 0.5503759, 0.0, 0.00027549904, -0.012045815, 0.0 
3.6621094e-2, 5.5678004e+0, -0.012067926, -35392.65, 0.5367448, 0.0, 0.00027249724, -0.012059785, 0.0 
3.6621094e-2, 5.591394e+0, -0.012029607, -35371.83, 0.5874446, 0.0, 0.00028048732, -0.012019851, 0.0 
3.6621094e-2, 5.6149876e+0, -0.011994494, -35353.617, 0.58150023, 0.0, 0.00027355112, -0.011984929, 0.0 
3.6621094e-2, 5.638582e+0, -0.011899533, -35332.6, 0.58268, 0.0, 0.00027574543, -0.011889924, 0.0 
3.6621094e-2, 5.6621766e+0, -0.011840797, -35314.746, 0.64507604, 0.0, 0.00027571406, -0.011829014, 0.0 
3.6621094e-2, 5.685772e+0, -0.011761194, -35293.215, 0.6761914, 0.0, 0.00028134603, -0.0117482385, 0.0 
3.6621094e-2, 5.709368e+0, -0.011743368, -35275.793, 0.6460686, 0.0, 0.00027879933, -0.011731535, 0.0 
3.6621094e-2, 5.7329637e+0, -0.011703492, -35254.133, 0.74974585, 0.0, 0.00027861522, -0.011687547, 0.0 
3.6621094e-2, 5.75656e+0, -0.01170709, -35236.66, 0.7024404, 0.0, 0.0002826083, -0.011693087, 0.0 
3.6621094e-2, 5.780157e+0, -0.0116805015, -35214.83, 0.70391744, 0.0, 0.00028328993, -0.011666431, 0.0 
3.6621094e-2, 5.8037543e+0, -0.011689418, -35197.78, 0.6651253, 0.0, 0.00028578678, -0.011676849, 0.0 
3.6621094e-2, 5.827352e+0, -0.011708208, -35175.496, 0.70135576, 0.0, 0.00028486215, -0.011694225, 0.0 
3.6621094e-2, 5.85095e+0, -0.0117848, -35158.906, 0.7308695, 0.0, 0.00029022666, -0.011769607, 0.0 
3.6621094e-2, 5.874549e+0, -0.011911361, -35136.11, 0.678771, 0.0, 0.0002877232, -0.011898248, 0.0 
3.6621094e-2, 5.898148e+0, -0.012061673, -35119.96, 0.68731385, 0.0, 0.0002940483, -0.012048222, 0.0 
3.6621094e-2, 5.921747e+0, -0.012196955, -35096.613, 0.73292387, 0.0, 0.00029187815, -0.012181649, 0.0 
3.6621094e-2, 5.945347e+0, -0.012237557, -35081.402, 0.68926823, 0.0, 0.00029517803, -0.012224015, 0.0 
3.6621094e-2, 5.9689474e+0, -0.012202335, -35058.15, 0.696007, 0.0, 0.0002969675, -0.0121885175, 0.0 
3.6621094e-2, 5.992548e+0, -0.012063743, -35043.176, 0.6979148, 0.0, 0.0003005388, -0.012049844, 0.0 
3.6621094e-2, 6.016149e+0, -0.011914775, -35019.04, 0.58889085, 0.0, 0.00029869896, -0.011904871, 0.0 
3.6621094e-2, 6.0397506e+0, -0.011755857, -35004.11, 0.58655953, 0.0, 0.00030188987, -0.0117460275, 0.0 
3.6621094e-2, 6.063353e+0, -0.011692611, -34979.504, 0.647628, 0.0, 0.0003050365, -0.011680621, 0.0 
3.6621094e-2, 6.086955e+0, -0.011689812, -34965.51, 0.70997745, 0.0, 0.00030255175, -0.011675396, 0.0 
3.6621094e-2, 6.110558e+0, -0.011796713, -34940.125, 0.5558321, 0.0, 0.00030763456, -0.01178787, 0.0 
3.6621094e-2, 6.1341614e+0, -0.011883736, -34926.605, 0.64370656, 0.0, 0.0003090119, -0.011871872, 0.0 
3.6621094e-2, 6.1577654e+0, -0.012000073, -34900.95, 0.46579862, 0.0, 0.00031027902, -0.011993856, 0.0 
3.6621094e-2, 6.1813694e+0, -0.012007513, -34887.742, 0.6724618, 0.0, 0.00030626342, -0.011994551, 0.0 
3.6621094e-2, 6.204974e+0, -0.012040845, -34861.426, 0.5273446, 0.0, 0.000315569, -0.012032868, 0.0 
3.6621094e-2, 6.228579e+0, -0.011969149, -34849.07, 0.48304817, 0.0, 0.00031155857, -0.011962453, 0.0 
3.6621094e-2, 6.2521845e+0, -0.011965397, -34821.758, 0.5332342, 0.0, 0.000317779, -0.011957231, 0.0 
3.6621094e-2, 6.2757903e+0, -0.011925232, -34810.418, 0.6930441, 0.0, 0.00031054317, -0.011911434, 0.0 
3.6621094e-2, 6.299397e+0, -0.011996339, -34782.645, 0.5462405, 0.0, 0.0003213767, -0.011987761, 0.0 
3.6621094e-2, 6.323003e+0, -0.012058433, -34771.277, 0.35660285, 0.0, 0.00031534804, -0.012054776, 0.0 
3.6621094e-2, 6.346611e+0, -0.012223957, -34743.63, 0.40956235, 0.0, 0.00032360945, -0.012219129, 0.0 
3.6621094e-2, 6.3702184e+0, -0.012370342, -34732.055, 0.6674742, 0.0, 0.0003165707, -0.012357515, 0.0 
3.6621094e-2, 6.3938266e+0, -0.012582826, -34704.594, 0.35535514, 0.0, 0.00032497023, -0.012579188, 0.0 
3.6621094e-2, 6.417435e+0, -0.012731116, -34693.203, 0.31189635, 0.0, 0.00032260307, -0.012728312, 0.0 
3.6621094e-2, 6.4410436e+0, -0.012885334, -34665.1, 0.33481368, 0.0, 0.00032758023, -0.0128821, 0.0 
3.6621094e-2, 6.464653e+0, -0.012961617, -34654.727, 0.4980979, 0.0, 0.0003234803, -0.012954458, 0.0 
3.6621094e-2, 6.488263e+0, -0.013021999, -34625.27, 0.29846454, 0.0, 0.00032789807, -0.013019427, 0.0 
3.6621094e-2, 6.511873e+0, -0.012998188, -34616.016, 0.25453755, 0.0, 0.00033042656, -0.012996316, 0.0 
3.6621094e-2, 6.5354836e+0, -0.0129570365, -34585.98, 0.29324305, 0.0, 0.00033244185, -0.01295455, 0.0 
3.6621094e-2, 6.559095e+0, -0.012865552, -34577.164, 0.80255556, 0.0, 0.0003299898, -0.012846923, 0.0 
3.6621094e-2, 6.5827066e+0, -0.012799911, -34546.707, 0.29236257, 0.0, 0.00033163294, -0.012797437, 0.0 
3.6621094e-2, 6.6063184e+0, -0.012738207, -34538.285, 0.24298504, 0.0, 0.00033811378, -0.012736498, 0.0 
3.6621094e-2, 6.629931e+0, -0.0126973735, -34507.305, 0.20662783, 0.0, 0.00033939836, -0.012696137, 0.0 
3.6621094e-2, 6.653544e+0, -0.012700448, -34499.28, 0.20551507, 0.0, 0.0003367271, -0.012699224, 0.0 
3.6621094e-2, 6.6771567e+0, -0.012702446, -34468.28, 0.22332774, 0.0, 0.0003360726, -0.012700999, 0.0 
3.6621094e-2, 6.70077e+0, -0.012734808, -34460.527, 0.20352101, 0.0, 0.00034624428, -0.012733607, 0.0 
3.6621094e-2, 6.724385e+0, -0.012739126, -34429.22, 0.13623339, 0.0, 0.00034760727, -0.012738587, 0.0 
3.6621094e-2, 6.747999e+0, -0.012754611, -34421.617, 0.34383187, 0.0, 0.0003450203, -0.012751176, 0.0 
3.6621094e-2, 6.771614e+0, -0.012732531, -34389.883, 0.2037096, 0.0, 0.00034122675, -0.012731324, 0.0 
3.6621094e-2, 6.7952293e+0, -0.012734439, -34382.67, 0.13016382, 0.0, 0.00035468084, -0.012733947, 0.0 
3.6621094e-2, 6.818845e+0, -0.012692767, -34350.516, 0.03810978, 0.0, 0.00035790078, -0.012692724, 0.0 
3.6621094e-2, 6.842462e+0, -0.012712073, -34344.184, 0.24221921, 0.0, 0.00035359568, -0.012710365, 0.0 
3.6621094e-2, 6.8660784e+0, -0.012676627, -34310.832, 0.15260978, 0.0, 0.00035097028, -0.012675948, 0.0 
3.6621094e-2, 6.8896955e+0, -0.012674734, -34305.19, 0.043849975, 0.0, 0.00036074664, -0.012674678, 0.0 
3.6621094e-2, 6.9133127e+0, -0.0125997625, -34271.66, 0.06174224, 0.0, 0.00037349242, -0.012599651, 0.0 
3.6621094e-2, 6.936931e+0, -0.012550443, -34265.96, 0.3508534, 0.0, 0.00036340673, -0.012546851, 0.0 
3.6621094e-2, 6.9605494e+0, -0.012438571, -34232.66, 0.0577773, 0.0, 0.0003611937, -0.012438474, 0.0 
3.6621094e-2, 6.984168e+0, -0.012374703, -34227.23, 0.02052153, 0.0, 0.00036728027, -0.012374691, 0.0 
3.6621094e-2, 7.007788e+0, -0.012253715, -34193.137, -0.017933212, 0.0, 0.0003933897, -0.012253705, 0.0 
3.6621094e-2, 7.0314074e+0, -0.01218524, -34188.29, 0.71693224, 0.0, 0.00037399732, -0.012170206, 0.0 
3.6621094e-2, 7.0550275e+0, -0.01207229, -34153.902, -0.13273142, 0.0, 0.0003701955, -0.012071774, 0.0 
3.6621094e-2, 7.078648e+0, -0.012010689, -34149.12, -0.10193731, 0.0, 0.0003746613, -0.012010384, 0.0 
3.6621094e-2, 7.102269e+0, -0.011913538, -34114.42, -0.06283134, 0.0, 0.00041018808, -0.0119134225, 0.0 
3.6621094e-2, 7.125891e+0, -0.011869419, -34110.75, 0.14419752, 0.0, 0.0003827788, -0.011868809, 0.0 
3.6621094e-2, 7.149512e+0, -0.011834808, -34074.938, -0.29483044, 0.0, 0.00038263592, -0.011832257, 0.0 
3.6621094e-2, 7.1731347e+0, -0.011869857, -34071.773, -0.2567954, 0.0, 0.0003807918, -0.011867922, 0.0 
3.6621094e-2, 7.196758e+0, -0.01192329, -34035.23, -0.025584228, 0.0, 0.0004194389, -0.011923271, 0.0 
3.6621094e-2, 7.220381e+0, -0.012012657, -34033.355, 0.16319858, 0.0, 0.0003862148, -0.0120118745, 0.0 
3.6621094e-2, 7.244004e+0, -0.012099284, -33996.168, -0.4876579, 0.0, 0.0003985644, -0.012092289, 0.0 
3.6621094e-2, 7.2676283e+0, -0.012198904, -33994.094, -0.47240007, 0.0, 0.0003928515, -0.012192339, 0.0 
3.6621094e-2, 7.291253e+0, -0.0123077845, -33956.668, 0.0203221, 0.0, 0.00041693926, -0.012307772, 0.0 
3.6621094e-2, 7.314878e+0, -0.012443998, -33955.297, 0.6567414, 0.0, 0.0003737217, -0.012431296, 0.0 
3.6621094e-2, 7.3385036e+0, -0.0126075335, -33918.188, -0.75758827, 0.0, 0.0004187814, -0.012590612, 0.0 
3.6621094e-2, 7.3621285e+0, -0.012809043, -33915.566, -0.7761043, 0.0, 0.0004317728, -0.0127912825, 0.0 
3.6621094e-2, 7.385755e+0, -0.013042914, -33878.535, 0.040449712, 0.0, 0.0003955736, -0.013042865, 0.0 
3.6621094e-2, 7.409382e+0, -0.013277469, -33878.297, 0.13801582, 0.0, 0.00032932076, -0.013276907, 0.0 
3.6621094e-2, 7.4330086e+0, -0.013520685, -33840.133, -0.7726882, 0.0, 0.00044934527, -0.013503042, 0.0 
3.6621094e-2, 7.4566364e+0, -0.013696091, -33839.543, -0.6961485, 0.0, 0.00049611944, -0.01368177, 0.0 
3.6621094e-2, 7.4802643e+0, -0.013825269, -33800.984, -0.17097214, 0.0, 0.00036787058, -0.013824404, 0.0 
3.6621094e-2, 7.503892e+0, -0.013859109, -33800.684, 0.4483011, 0.0, 0.00027575347, -0.013853163, 0.0 
3.6621094e-2, 7.527522e+0, -0.01387357, -33762.207, -0.5631222, 0.0, 0.00047162952, -0.013864177, 0.0 
3.6621094e-2, 7.551151e+0, -0.013845087, -33760.89, -0.33949834, 0.0, 0.0005408223, -0.013841673, 0.0 
3.6621094e-2, 7.5747806e+0, -0.013845571, -33723.52, -0.40786687, 0.0, 0.00035689166, -0.013840639, 0.0 
3.6621094e-2, 7.59841e+0, -0.013801853, -33721.793, -0.06422857, 0.0, 0.0002742437, -0.013801731, 0.0 
3.6621094e-2, 7.6220405e+0, -0.013805593, -33684.12, -0.35667953, 0.0, 0.00047239644, -0.013801817, 0.0 
3.6621094e-2, 7.645672e+0, -0.013742123, -33682.465, -0.097373016, 0.0, 0.00051068154, -0.013741842, 0.0 
3.6621094e-2, 7.6693034e+0, -0.01370436, -33645.9, -0.46225733, 0.0, 0.0003673332, -0.01369801, 0.0 
3.6621094e-2, 7.692935e+0, -0.013615121, -33642.883, 0.052700575, 0.0, 0.00035616776, -0.013615038, 0.0 
3.6621094e-2, 7.7165675e+0, -0.013556999, -33606.465, -0.268691, 0.0, 0.00046060563, -0.013554851, 0.0 
3.6621094e-2, 7.7402e+0, -0.013467652, -33603.953, -0.24334477, 0.0, 0.00041675282, -0.01346589, 0.0 
3.6621094e-2, 7.763833e+0, -0.013418992, -33567.508, -0.5937682, 0.0, 0.00038583225, -0.013408489, 0.0 
3.6621094e-2, 7.7874666e+0, -0.013342994, -33564.945, 1.1274282, 0.0, 0.0004656299, -0.013305124, 0.0 
3.6621094e-2, 7.8111005e+0, -0.013278765, -33527.977, -0.28675726, 0.0, 0.00045121327, -0.0132763125, 0.0 
3.6621094e-2, 7.834735e+0, -0.013146421, -33526.348, -0.6227421, 0.0, 0.00034015963, -0.013134854, 0.0 
3.6621094e-2, 7.85837e+0, -0.012985224, -33488.453, -0.473316, 0.0, 0.00041140796, -0.012978534, 0.0 
3.6621094e-2, 7.882005e+0, -0.012778239, -33486.313, 1.3184806, 0.0, 0.0005068159, -0.012726326, 0.0 
3.6621094e-2, 7.905641e+0, -0.012588763, -33450.902, -0.17187329, 0.0, 0.00043316113, -0.01258788, 0.0 
3.6621094e-2, 7.929277e+0, -0.012398801, -33447.254, -0.68564224, 0.0, 0.00035977695, -0.012384745, 0.0 
3.6621094e-2, 7.9529136e+0, -0.012269566, -33410.906, -0.22817275, 0.0, 0.00044889463, -0.012268008, 0.0 
3.6621094e-2, 7.9765505e+0, -0.01218585, -33408.297, 0.5807957, 0.0, 0.00045109034, -0.012175754, 0.0 
3.6621094e-2, 8.000188e+0, -0.012144011, -33372.234, -0.39911094, 0.0, 0.00042120888, -0.012139238, 0.0 
3.6621094e-2, 8.023826e+0, -0.012104761, -33368.598, -0.016993152, 0.0, 0.00043492587, -0.012104752, 0.0 
3.6621094e-2, 8.0474645e+0, -0.01207714, -33333.36, 0.2015701, 0.0, 0.00044656385, -0.012075921, 0.0 
3.6621094e-2, 8.071103e+0, -0.012073636, -33330.168, 0.29212335, 0.0, 0.00041392155, -0.012071076, 0.0 
3.6621094e-2, 8.094742e+0, -0.012110718, -33293.445, -0.2779667, 0.0, 0.0004766216, -0.012108397, 0.0 
3.6621094e-2, 8.1183815e+0, -0.012207961, -33291.418, 0.19512412, 0.0, 0.00042789208, -0.012206817, 0.0 
3.6621094e-2, 8.142022e+0, -0.012336199, -33255.617, -1.3666412, 0.0, 0.0003945708, -0.012280038, 0.0 
3.6621094e-2, 8.165663e+0, -0.01247901, -33250.297, 4.2446117, 0.0, 0.0004716859, -0.011937158, 0.0 
3.6621094e-2, 8.189303e+0, -0.01256132, -33216.273, 0.82416517, 0.0, 0.000515202, -0.012540871, 0.0 
3.6621094e-2, 8.212945e+0, -0.01266356, -33213.39, -1.1185423, 0.0, 0.00038475526, -0.012625891, 0.0 
3.6621094e-2, 8.2365865e+0, -0.012745403, -33176.383, -1.2927521, 0.0, 0.0004366076, -0.012695029, 0.0 
3.6621094e-2, 8.260229e+0, -0.012877721, -33171.832, 1.6545341, 0.0, 0.00048450314, -0.012795197, 0.0 
3.6621094e-2, 8.2838714e+0, -0.013023835, -33139.81, 0.39287353, 0.0, 0.00044669217, -0.013019177, 0.0 
3.6621094e-2, 8.307514e+0, -0.013235815, -33132.742, -0.30307883, 0.0, 0.00043036474, -0.013233042, 0.0 
3.6621094e-2, 8.3311576e+0, -0.013433478, -33100.82, -0.5249255, 0.0, 0.0005179063, -0.013425154, 0.0 
3.6621094e-2, 8.354802e+0, -0.013640774, -33092.65, -0.4161055, 0.0, 0.0004599041, -0.013635542, 0.0 
3.6621094e-2, 8.3784467e+0, -0.013765121, -33060.8, 1.8913742, 0.0, 0.0003865804, -0.013656917, 0.0 
3.6621094e-2, 8.402091e+0, -0.013882374, -33057.133, 0.10143071, 0.0, 0.0004435928, -0.013882062, 0.0 
3.6621094e-2, 8.4257364e+0, -0.013920786, -33021.277, -2.548792, 0.0, 0.00060695864, -0.013724054, 0.0 
3.6621094e-2, 8.4493816e+0, -0.01400826, -33010.32, 3.8750575, 0.0, 0.0004909814, -0.01355337, 0.0 
3.6621094e-2, 8.473028e+0, -0.014066735, -32984.906, 8.457694, 0.0, 0.00026604993, -0.011898088, 0.0 
3.6621094e-2, 8.4966743e+0, -0.014196789, -32978.94, 2.8875158, 0.0, 0.00043916467, -0.013943968, 0.0 
3.6621094e-2, 8.520322e+0, -0.014308531, -32945.83, -1.2306304, 0.0, 0.00072885124, -0.014262563, 0.0 
3.6621094e-2, 8.5439694e+0, -0.014478088, -32934.848, 3.193974, 0.0, 0.00049645524, -0.014168341, 0.0 
3.6621094e-2, 8.5676163e+0, -0.01457348, -32907.48, 0.1364848, 0.0, 0.00019876187, -0.014572914, 0.0 
3.6621094e-2, 8.5912657e+0, -0.014673404, -32895.96, -0.29445183, 0.0, 0.00045694163, -0.014670769, 0.0 
3.6621094e-2, 8.614914e+0, -0.014663515, -32867.97, 0.23273873, 0.0, 0.00071945274, -0.014661867, 0.0 
3.6621094e-2, 8.638563e+0, -0.014611146, -32856.87, 0.1280446, 0.0, 0.0004760423, -0.014610647, 0.0 
3.6621094e-2, 8.6622125e+0, -0.01446697, -32829.855, -0.57637537, 0.0, 0.0002835294, -0.014456851, 0.0 
3.6621094e-2, 8.6858624e+0, -0.0143237, -32816.973, -0.16969234, 0.0, 0.00051346346, -0.014322823, 0.0 
3.6621094e-2, 8.709513e+0, -0.014145597, -32790.313, 0.55311704, 0.0, 0.00055775756, -0.014136266, 0.0 
3.6621094e-2, 8.733164e+0, -0.013996891, -32778.566, 0.017522708, 0.0, 0.0004022199, -0.013996881, 0.0 
3.6621094e-2, 8.756815e+0, -0.013858192, -32751.111, -0.28617468, 0.0, 0.00048128213, -0.013855691, 0.0 
3.6621094e-2, 8.780467e+0, -0.013799124, -32739.098, 0.3157445, 0.0, 0.00059043465, -0.01379608, 0.0 
3.6621094e-2, 8.804119e+0, -0.013775233, -32712.326, -0.08798426, 0.0, 0.0003634984, -0.013774997, 0.0 
3.6621094e-2, 8.827772e+0, -0.01378859, -32700.186, -0.5172551, 0.0, 0.00035647737, -0.013780409, 0.0 
3.6621094e-2, 8.851425e+0, -0.013789397, -32672.354, 0.7020466, 0.0, 0.00061239745, -0.013774312, 0.0 
3.6621094e-2, 8.875078e+0, -0.013767974, -32661.6, 0.98680925, 0.0, 0.0005567693, -0.01373816, 0.0 
3.6621094e-2, 8.898732e+0, -0.013711252, -32636.166, -0.58054304, 0.0, 0.00033034032, -0.013700925, 0.0 
3.6621094e-2, 8.9223874e+0, -0.0136029115, -32621.002, -0.4470805, 0.0, 0.00046493192, -0.013596784, 0.0 
3.6621094e-2, 8.946041e+0, -0.013460194, -32596.584, 0.75451434, 0.0, 0.0005461398, -0.01344273, 0.0 
3.6621094e-2, 8.969697e+0, -0.013285452, -32583.074, 0.8202714, 0.0, 0.00038452796, -0.013264801, 0.0 
3.6621094e-2, 8.9933527e+0, -0.013119387, -32557.13, -0.1017461, 0.0, 0.00046214001, -0.01311907, 0.0 
3.6621094e-2, 9.0170085e+0, -0.01296718, -32543.22, 0.98359, 0.0, 0.00060056394, -0.012937453, 0.0 
3.6621094e-2, 9.0406644e+0, -0.012857263, -32519.9, -0.03973012, 0.0, 0.0004084091, -0.012857215, 0.0 
3.6621094e-2, 9.064323e+0, -0.012780906, -32503.588, -1.0333041, 0.0, 0.00034556774, -0.012748056, 0.0 
3.6621094e-2, 9.087979e+0, -0.012785509, -32478.813, 0.87169015, 0.0, 0.0005498939, -0.012762114, 0.0 
3.6621094e-2, 9.111637e+0, -0.0128463125, -32465.688, 0.9133038, 0.0, 0.00050022866, -0.01282062, 0.0 
3.6621094e-2, 9.135296e+0, -0.012942493, -32440.973, -0.5882623, 0.0, 0.00040916522, -0.012931826, 0.0 
3.6621094e-2, 9.1589546e+0, -0.013071189, -32424.66, 1.3547637, 0.0, 0.00049675413, -0.013014584, 0.0 
3.6621094e-2, 9.1826135e+0, -0.013220125, -32403.0, 0.56548554, 0.0, 0.00047445088, -0.013210256, 0.0 
3.6621094e-2, 9.206273e+0, -0.013374228, -32386.203, -1.4683715, 0.0, 0.00041314977, -0.013307653, 0.0 
3.6621094e-2, 9.229933e+0, -0.013497829, -32361.219, 1.2253954, 0.0, 0.00052101014, -0.013451429, 0.0 
3.6621094e-2, 9.2535937e+0, -0.013606825, -32347.889, 2.0826209, 0.0, 0.00042851747, -0.0134727415, 0.0 
3.6621094e-2, 9.2772543e+0, -0.013688133, -32324.914, -0.33734, 0.0, 0.00041153192, -0.013684613, 0.0 
3.6621094e-2, 9.3009156e+0, -0.013764015, -32305.518, 1.3514186, 0.0, 0.0005844247, -0.013707482, 0.0 
3.6621094e-2, 9.3245775e+0, -0.013843474, -32287.932, 0.7859961, 0.0, 0.00051081734, -0.01382434, 0.0 
3.6621094e-2, 9.348239e+0, -0.0139576625, -32267.445, -0.7133626, 0.0, 0.00030792688, -0.0139418915, 0.0 
3.6621094e-2, 9.371902e+0, -0.014077442, -32245.414, 0.77533346, 0.0, 0.00046829603, -0.0140587995, 0.0 
3.6621094e-2, 9.395565e+0, -0.014246055, -32229.834, 0.64976406, 0.0, 0.0005976345, -0.014232955, 0.0 
3.6621094e-2, 9.4192284e+0, -0.014384232, -32207.24, -1.1379758, 0.0, 0.0005090445, -0.0143440245, 0.0 
3.6621094e-2, 9.442892e+0, -0.014549957, -32188.47, 1.4914484, 0.0, 0.00036541477, -0.014480851, 0.0 
3.6621094e-2, 9.4665563e+0, -0.014641614, -32170.633, -0.5637409, 0.0, 0.00040435392, -0.014631735, 0.0 
3.6621094e-2, 9.490222e+0, -0.0147520555, -32146.297, -0.3588974, 0.0, 0.0006245492, -0.014748048, 0.0 
3.6621094e-2, 9.5138866e+0, -0.014796452, -32133.457, 2.4583862, 0.0, 0.00060159253, -0.014608371, 0.0 
3.6621094e-2, 9.5375526e+0, -0.014877114, -32117.396, -8.713722, 0.0, 0.00030442025, -0.012513007, 0.0 
3.6621094e-2, 9.561218e+0, -0.016397348, -32089.967, 39.46075, 0.0, 0.00038621633, 0.03212715, 0.0 
3.6621094e-2, 9.5848846e+0, -0.014984646, -32062.611, -5.328881, 0.0, 0.0006727766, -0.014098973, 0.0 
3.6621094e-2, 9.608552e+0, -0.0149839185, -32054.26, 1.9816502, 0.0, 0.00059991144, -0.01486141, 0.0 
3.6621094e-2, 9.632219e+0, -0.015006413, -32032.467, -1.8323318, 0.0, 0.00035126033, -0.014901599, 0.0 
3.6621094e-2, 9.655887e+0, -0.014969044, -32013.012, -2.2436504, 0.0, 0.00041954016, -0.014811797, 0.0 
3.6621094e-2, 9.679556e+0, -0.014949031, -31989.793, 1.6662148, 0.0, 0.0006348932, -0.014862245, 0.0 
3.6621094e-2, 9.7032243e+0, -0.014853942, -31978.574, 1.8203261, 0.0, 0.0005395101, -0.014750323, 0.0 
3.6621094e-2, 9.7268933e+0, -0.01478539, -31953.22, -1.8445053, 0.0, 0.0004342459, -0.014678916, 0.0 
3.6621094e-2, 9.750563e+0, -0.014665023, -31937.58, -2.3691416, 0.0, 0.0005550085, -0.01448928, 0.0 
3.6621094e-2, 9.774233e+0, -0.014588192, -31910.451, 1.209871, 0.0, 0.0005649792, -0.01454232, 0.0 
3.6621094e-2, 9.7979033e+0, -0.014464141, -31900.904, 1.6980875, 0.0, 0.0003809827, -0.014373751, 0.0 
3.6621094e-2, 9.821574e+0, -0.014366902, -31874.621, -1.5342617, 0.0, 0.0005324555, -0.014293051, 0.0 
3.6621094e-2, 9.8452455e+0, -0.014226921, -31859.8, -1.8445839, 0.0, 0.0007359601, -0.014120125, 0.0 
3.6621094e-2, 9.8689175e+0, -0.014133343, -31832.77, 0.7009237, 0.0, 0.0004976179, -0.014117909, 0.0 
3.6621094e-2, 9.8925894e+0, -0.014010838, -31822.96, 0.4913324, 0.0, 0.00025404542, -0.014003253, 0.0 
3.6621094e-2, 9.9162614e+0, -0.013921363, -31794.086, -0.97516346, 0.0, 0.00059656455, -0.013891454, 0.0 
3.6621094e-2, 9.9399346e+0, -0.013835757, -31783.309, -0.17072235, 0.0, 0.00080068747, -0.01383484, 0.0 
3.6621094e-2, 9.963609e+0, -0.013827663, -31754.479, 0.058957223, 0.0, 0.0004584747, -0.013827554, 0.0 
3.6621094e-2, 9.9872816e+0, -0.01385163, -31745.47, -1.20966, 0.0, 0.00032012645, -0.013805536, 0.0 
3.6621094e-2, 1.0010957e+1, -0.013987167, -31714.441, -0.3816505, 0.0, 0.0006348376, -0.013982574, 0.0 
3.6621094e-2, 1.0034632e+1, -0.014129578, -31705.791, 0.9225374, 0.0, 0.00062605826, -0.014102736, 0.0 
3.6621094e-2, 1.0058307e+1, -0.014328939, -31677.035, -0.000019584872, 0.0, 0.00043320036, -0.014328939, 0.0 
3.6621094e-2, 1.00819826e+1, -0.014471956, -31666.496, -1.405638, 0.0, 0.00060017675, -0.014409561, 0.0 
3.6621094e-2, 1.0105658e+1, -0.014611841, -31636.547, 0.11120997, 0.0, 0.0006578341, -0.01461145, 0.0 
3.6621094e-2, 1.0129335e+1, -0.014693724, -31627.76, 0.11303294, 0.0, 0.00033416587, -0.014693321, 0.0 
3.6621094e-2, 1.0153012e+1, -0.014779175, -31598.357, 0.04720678, 0.0, 0.0004447672, -0.014779104, 0.0 
3.6621094e-2, 1.0176689e+1, -0.01480746, -31587.506, 0.42608276, 0.0, 0.00083619513, -0.014801713, 0.0 
3.6621094e-2, 1.0200367e+1, -0.0148621695, -31559.977, 0.6006174, 0.0, 0.00060083834, -0.014850739, 0.0 
3.6621094e-2, 1.0224045e+1, -0.014862053, -31549.99, -1.6160933, 0.0, 0.0002763677, -0.014779272, 0.0 
3.6621094e-2, 1.0247724e+1, -0.014905162, -31518.54, -0.93656605, 0.0, 0.00057684834, -0.014877332, 0.0 
3.6621094e-2, 1.0271403e+1, -0.014925108, -31510.432, 1.402553, 0.0, 0.0007152505, -0.014862679, 0.0 
3.6621094e-2, 1.02950834e+1, -0.014987042, -31481.357, 0.10928004, 0.0, 0.00044349302, -0.014986662, 0.0 
3.6621094e-2, 1.0318763e+1, -0.015047905, -31471.969, -1.1408398, 0.0, 0.0005682752, -0.01500655, 0.0 
3.6621094e-2, 1.0342444e+1, -0.015140677, -31440.111, 0.3361232, 0.0, 0.0007268622, -0.015137083, 0.0 
3.6621094e-2, 1.0366124e+1, -0.015160125, -31435.057, -0.21953739, 0.0, 0.00041837365, -0.015158592, 0.0 
3.6621094e-2, 1.0389805e+1, -0.015200423, -31399.955, -1.225924, 0.0, 0.00043280088, -0.01515256, 0.0 
3.6621094e-2, 1.0413487e+1, -0.015178484, -31394.43, 0.74294966, 0.0, 0.0007684607, -0.0151609015, 0.0 
3.6621094e-2, 1.0437169e+1, -0.015161172, -31362.395, 0.9297957, 0.0, 0.0006098944, -0.015133605, 0.0 
3.6621094e-2, 1.0460851e+1, -0.015102438, -31356.682, -1.2185873, 0.0, 0.00044500752, -0.015055081, 0.0 
3.6621094e-2, 1.0484535e+1, -0.015072576, -31321.207, 0.12614942, 0.0, 0.00068144535, -0.015072068, 0.0 
3.6621094e-2, 1.05082184e+1, -0.015044512, -31318.633, 0.10155562, 0.0, 0.0005884153, -0.015044183, 0.0 
3.6621094e-2, 1.0531902e+1, -0.015052598, -31282.953, -0.33295992, 0.0, 0.00047156023, -0.015049054, 0.0 
3.6621094e-2, 1.0555587e+1, -0.01507706, -31276.73, 0.7347587, 0.0, 0.00069079327, -0.015059799, 0.0 
3.6621094e-2, 1.05792716e+1, -0.0151237, -31244.873, 1.8806411, 0.0, 0.0006296137, -0.015010503, 0.0 
3.6621094e-2, 1.0602957e+1, -0.015150252, -31241.232, -1.6733267, 0.0, 0.00048268095, -0.015060626, 0.0 
3.6621094e-2, 1.06266424e+1, -0.015132924, -31201.88, -0.34321797, 0.0, 0.0007891718, -0.015129148, 0.0 
3.6621094e-2, 1.06503285e+1, -0.015100721, -31202.752, 0.8657172, 0.0, 0.0006340827, -0.0150767015, 0.0 
3.6621094e-2, 1.0674015e+1, -0.0150792785, -31164.998, -2.3343098, 0.0, 0.000328075, -0.014904435, 0.0 
3.6621094e-2, 1.06977016e+1, -0.015075518, -31159.729, 0.7255373, 0.0, 0.00068288745, -0.015058624, 0.0 
3.6621094e-2, 1.072139e+1, -0.015101045, -31125.988, 3.1880004, 0.0, 0.00090795447, -0.014774523, 0.0 
3.6621094e-2, 1.0745077e+1, -0.015162247, -31125.674, -1.3466343, 0.0, 0.00049976975, -0.015103986, 0.0 
3.6621094e-2, 1.0768765e+1, -0.015238766, -31083.049, -0.0753143, 0.0, 0.0004914136, -0.015238584, 0.0 
3.6621094e-2, 1.07924536e+1, -0.015331053, -31087.344, 1.0462974, 0.0, 0.00066904386, -0.015295838, 0.0 
3.6621094e-2, 1.0816143e+1, -0.015387357, -31045.598, -2.0531125, 0.0, 0.0007411991, -0.015251581, 0.0 
3.6621094e-2, 1.0839833e+1, -0.015399389, -31044.518, 1.0855297, 0.0, 0.000648457, -0.015361431, 0.0 
3.6621094e-2, 1.08635224e+1, -0.015362202, -31009.428, 0.049453154, 0.0, 0.0005096421, -0.015362123, 0.0 
3.6621094e-2, 1.0887214e+1, -0.015322595, -31005.035, -2.2630017, 0.0, 0.00057709333, -0.015157422, 0.0 
3.6621094e-2, 1.0910904e+1, -0.015287033, -30966.871, 3.8778682, 0.0, 0.0008521576, -0.014801422, 0.0 
3.6621094e-2, 1.0934595e+1, -0.0152599355, -30971.11, 0.05032241, 0.0, 0.0006218838, -0.015259854, 0.0 
3.6621094e-2, 1.0958287e+1, -0.015241164, -30926.484, -2.8499892, 0.0, 0.0005020605, -0.014978526, 0.0 
3.6621094e-2, 1.0981979e+1, -0.015265944, -30929.484, 2.847074, 0.0, 0.00064826757, -0.01500387, 0.0 
3.6621094e-2, 1.1005673e+1, -0.015332001, -30902.344, -10.651588, 0.0, 0.0007295578, -0.011660552, 0.0 
3.6621094e-2, 1.1029366e+1, -0.019048387, -30886.984, 63.544518, 0.0, 0.00063147675, 0.11168276, 0.0 
3.6621094e-2, 1.10530585e+1, -0.015507271, -30842.223, -11.125858, 0.0, 0.0005918202, -0.011493786, 0.0 
3.6621094e-2, 1.1076753e+1, -0.015547093, -30847.9, 1.1432854, 0.0, 0.0006491918, -0.015504721, 0.0 
3.6621094e-2, 1.11004464e+1, -0.015598582, -30813.8, 1.2670829, 0.0, 0.0006733761, -0.015546478, 0.0 
3.6621094e-2, 1.11241415e+1, -0.015631907, -30809.531, 0.36359155, 0.0, 0.00055074535, -0.015627615, 0.0 
3.6621094e-2, 1.11478366e+1, -0.01564064, -30775.24, 0.026060438, 0.0, 0.0006821414, -0.015640618, 0.0 
3.6621094e-2, 1.11715324e+1, -0.01557472, -30769.658, 0.4935913, 0.0, 0.00074650504, -0.015566802, 0.0 
3.6621094e-2, 1.1195228e+1, -0.015502335, -30736.238, 0.48191252, 0.0, 0.0005334449, -0.015494779, 0.0 
3.6621094e-2, 1.12189256e+1, -0.015426643, -30730.693, -0.29092565, 0.0, 0.00048366323, -0.015423889, 0.0 
3.6621094e-2, 1.1242622e+1, -0.015409089, -30696.934, 0.8645402, 0.0, 0.00077221304, -0.01538474, 0.0 
3.6621094e-2, 1.126632e+1, -0.01541119, -30692.875, 1.3690597, 0.0, 0.0007323273, -0.015350123, 0.0 
3.6621094e-2, 1.1290018e+1, -0.015469836, -30660.203, -0.3185831, 0.0, 0.00049142336, -0.015466526, 0.0 
3.6621094e-2, 1.13137156e+1, -0.015507443, -30652.197, -0.5130316, 0.0, 0.0005779879, -0.015498856, 0.0 
3.6621094e-2, 1.13374144e+1, -0.015576036, -30620.219, 1.2478604, 0.0, 0.00071629934, -0.015525182, 0.0 
3.6621094e-2, 1.1361113e+1, -0.015616895, -30613.637, 1.1614153, 0.0, 0.00056243886, -0.015572833, 0.0 
3.6621094e-2, 1.13848135e+1, -0.01567323, -30582.314, -0.17523079, 0.0, 0.00058233924, -0.015672226, 0.0 
3.6621094e-2, 1.1408514e+1, -0.015672201, -30573.322, 0.35391733, 0.0, 0.0007502716, -0.015668105, 0.0 
3.6621094e-2, 1.1432214e+1, -0.015711121, -30542.71, 1.1481403, 0.0, 0.0005891458, -0.01566796, 0.0 
3.6621094e-2, 1.1455915e+1, -0.015707547, -30535.17, 0.7254546, 0.0, 0.00045380567, -0.015690312, 0.0 
3.6621094e-2, 1.1479616e+1, -0.015751434, -30503.3, 0.81886816, 0.0, 0.0006866358, -0.015729452, 0.0 
3.6621094e-2, 1.1503318e+1, -0.015771022, -30495.576, 1.4025229, 0.0, 0.00071570795, -0.015706519, 0.0 
3.6621094e-2, 1.15270205e+1, -0.015850957, -30466.557, 1.0501722, 0.0, 0.00052628404, -0.015814759, 0.0 
3.6621094e-2, 1.1550723e+1, -0.015907178, -30454.635, -0.41870072, 0.0, 0.0006196251, -0.015901422, 0.0 
3.6621094e-2, 1.15744255e+1, -0.016014386, -30426.81, 0.65298647, 0.0, 0.0006888958, -0.016000371, 0.0 
3.6621094e-2, 1.15981296e+1, -0.01609137, -30415.822, 0.62447566, 0.0, 0.00048839976, -0.016078549, 0.0 
3.6621094e-2, 1.16218336e+1, -0.016177524, -30389.045, 0.12222587, 0.0, 0.000581416, -0.016177032, 0.0 
3.6621094e-2, 1.1645538e+1, -0.016214004, -30375.117, 0.6580084, 0.0, 0.0007942573, -0.016199749, 0.0 
3.6621094e-2, 1.1669243e+1, -0.016235778, -30350.525, 0.58008116, 0.0, 0.0006053403, -0.01622469, 0.0 
3.6621094e-2, 1.1692949e+1, -0.016208995, -30336.887, -0.5402257, 0.0, 0.00045567204, -0.016199375, 0.0 
3.6621094e-2, 1.1716654e+1, -0.016147928, -30310.027, -0.00958102, 0.0, 0.0006879105, -0.016147925, 0.0 
3.6621094e-2, 1.17403604e+1, -0.016057216, -30297.473, 1.3073096, 0.0, 0.00065875397, -0.016000807, 0.0 
3.6621094e-2, 1.1764067e+1, -0.015994094, -30272.664, 0.14286445, 0.0, 0.0005225328, -0.01599342, 0.0 
3.6621094e-2, 1.17877744e+1, -0.01597554, -30256.732, -0.009442614, 0.0, 0.000704513, -0.015975537, 0.0 
3.6621094e-2, 1.18114814e+1, -0.016008465, -30232.902, 2.0868409, 0.0, 0.00069834874, -0.015864419, 0.0 
3.6621094e-2, 1.1835189e+1, -0.016085707, -30220.191, 2.8591776, 0.0, 0.00044688644, -0.015815197, 0.0 
3.6621094e-2, 1.1858897e+1, -0.016131965, -30193.893, 8.807698, 0.0, 0.0006369639, -0.013562718, 0.0 
3.6621094e-2, 1.1882606e+1, -0.016081456, -30179.174, 8.580374, 0.0, 0.0007211607, -0.013641931, 0.0 
3.6621094e-2, 1.1906315e+1, -0.015944466, -30155.807, -0.06213641, 0.0, 0.0005003117, -0.015944337, 0.0 
3.6621094e-2, 1.1930025e+1, -0.015850056, -30139.74, -0.63036287, 0.0, 0.0006529953, -0.015836872, 0.0 
3.6621094e-2, 1.1953735e+1, -0.01574025, -30115.793, 1.017769, 0.0, 0.0007965976, -0.015705854, 0.0 
3.6621094e-2, 1.1977445e+1, -0.01568556, -30101.816, -0.62771493, 0.0, 0.00042555944, -0.01567247, 0.0 
3.6621094e-2, 1.2001157e+1, -0.015647452, -30076.736, -1.2556467, 0.0, 0.00050348777, -0.015595031, 0.0 
3.6621094e-2, 1.2024868e+1, -0.015667921, -30059.676, 1.6191537, 0.0, 0.0008100411, -0.015580705, 0.0 
3.6621094e-2, 1.20485805e+1, -0.01570722, -30041.348, 0.1827765, 0.0, 0.00060475967, -0.015706109, 0.0 
3.6621094e-2, 1.2072292e+1, -0.015789166, -30020.797, -0.67622733, 0.0, 0.0005195956, -0.015773933, 0.0 
3.6621094e-2, 1.2096004e+1, -0.015856205, -30000.768, 1.8315607, 0.0, 0.0006880339, -0.015744386, 0.0 
3.6621094e-2, 1.2119718e+1, -0.015952196, -29984.832, -1.2607279, 0.0, 0.00056651497, -0.015899187, 0.0 
3.6621094e-2, 1.21434316e+1, -0.016059289, -29960.225, -0.8432751, 0.0, 0.0006003321, -0.016035553, 0.0 
3.6621094e-2, 1.2167146e+1, -0.01620838, -29943.42, 1.7002177, 0.0, 0.00067240675, -0.016111841, 0.0 
3.6621094e-2, 1.219086e+1, -0.016331533, -29924.52, -0.7294461, 0.0, 0.0004881692, -0.016313752, 0.0 
3.6621094e-2, 1.2214575e+1, -0.016440595, -29902.041, -0.098727934, 0.0, 0.0006354053, -0.016440269, 0.0 
3.6621094e-2, 1.223829e+1, -0.016492683, -29884.207, 2.6145163, 0.0, 0.00072690594, -0.016263943, 0.0 
3.6621094e-2, 1.2262006e+1, -0.01650855, -29867.285, -2.1817977, 0.0, 0.0005149778, -0.01634917, 0.0 
3.6621094e-2, 1.2285722e+1, -0.016501423, -29842.496, -0.18343082, 0.0, 0.0005893252, -0.016500294, 0.0 
3.6621094e-2, 1.2309439e+1, -0.016478186, -29827.523, 1.8864622, 0.0, 0.0006712215, -0.016358877, 0.0 
3.6621094e-2, 1.23331554e+1, -0.016421163, -29807.05, -3.9444945, 0.0, 0.0005313757, -0.015899172, 0.0 
3.6621094e-2, 1.23568736e+1, -0.01638769, -29782.086, 1.4985993, 0.0, 0.00063739246, -0.016312283, 0.0 
3.6621094e-2, 1.2380591e+1, -0.016365813, -29772.865, 1.3922384, 0.0, 0.00064326177, -0.016300708, 0.0 
3.6621094e-2, 1.240431e+1, -0.01637038, -29742.574, -3.3803625, 0.0, 0.0006007841, -0.015986187, 0.0 
3.6621094e-2, 1.2428029e+1, -0.016393363, -29719.338, 13.225632, 0.0, 0.00059631467, -0.010507721, 0.0 
3.6621094e-2, 1.2451748e+1, -0.016414503, -29707.104, 24.321882, 0.0, 0.00061810703, 0.003498374, 0.0 
3.6621094e-2, 1.24754675e+1, -0.016418504, -29695.393, 20.411394, 0.0, 0.00064399774, -0.002388546, 0.0 
3.6621094e-2, 1.2499189e+1, -0.017555201, -29668.271, 62.533524, 0.0, 0.00063382945, 0.11424979, 0.0 
3.6621094e-2, 1.2522908e+1, -0.016359547, -29658.004, 5.4699383, 0.0, 0.000586534, -0.015350705, 0.0 
3.6621094e-2, 1.254663e+1, -0.016407546, -29627.977, -0.7644664, 0.0, 0.0006719402, -0.01638782, 0.0 
3.6621094e-2, 1.2570351e+1, -0.016471494, -29612.719, -0.18424195, 0.0, 0.00061108934, -0.016470348, 0.0 
3.6621094e-2, 1.2594073e+1, -0.016515294, -29589.313, -0.106410444, 0.0, 0.0006322294, -0.016514912, 0.0 
3.6621094e-2, 1.2617795e+1, -0.016567776, -29574.092, -0.6962842, 0.0, 0.00067162944, -0.016551383, 0.0 
3.6621094e-2, 1.2641518e+1, -0.016611045, -29549.523, -0.24032098, 0.0, 0.0006672027, -0.016609091, 0.0 
3.6621094e-2, 1.2665242e+1, -0.01665967, -29536.133, -0.20927094, 0.0, 0.00061042653, -0.016658187, 0.0 
3.6621094e-2, 1.2688965e+1, -0.016695363, -29509.191, -0.33814132, 0.0, 0.00066671846, -0.016691487, 0.0 
3.6621094e-2, 1.2712689e+1, -0.016764719, -29498.002, -0.5226307, 0.0, 0.0006779827, -0.01675546, 0.0 
3.6621094e-2, 1.2736413e+1, -0.01682157, -29469.453, -0.36804196, 0.0, 0.0006800795, -0.016816974, 0.0 
3.6621094e-2, 1.2760139e+1, -0.016873874, -29459.82, -0.51304036, 0.0, 0.0006563866, -0.016864939, 0.0 
3.6621094e-2, 1.2783864e+1, -0.016865907, -29429.715, 1.1169847, 0.0, 0.00067442196, -0.016823513, 0.0 
3.6621094e-2, 1.280759e+1, -0.016868142, -29421.248, -0.73611087, 0.0, 0.0006899625, -0.016849725, 0.0 
3.6621094e-2, 1.2831315e+1, -0.016859794, -29389.71, -0.25506487, 0.0, 0.0007070706, -0.016857581, 0.0 
3.6621094e-2, 1.2855043e+1, -0.016882941, -29382.816, -0.38570198, 0.0, 0.00067473913, -0.016877878, 0.0 
3.6621094e-2, 1.287877e+1, -0.016845271, -29349.908, -0.24086936, 0.0, 0.00068269164, -0.016843295, 0.0 
3.6621094e-2, 1.2902497e+1, -0.01685252, -29345.281, -0.32295236, 0.0, 0.00071474427, -0.016848965, 0.0 
3.6621094e-2, 1.2926225e+1, -0.016817484, -29310.25, -0.69165075, 0.0, 0.00073018594, -0.016801162, 0.0 
3.6621094e-2, 1.2949954e+1, -0.01683459, -29305.03, 0.23851053, 0.0, 0.0006922589, -0.01683265, 0.0 
3.6621094e-2, 1.2973683e+1, -0.016813997, -29271.547, 1.0567386, 0.0, 0.00067902484, -0.016775846, 0.0 
3.6621094e-2, 1.2997411e+1, -0.016861338, -29267.322, -0.076624125, 0.0, 0.0007321308, -0.016861137, 0.0 
3.6621094e-2, 1.3021141e+1, -0.016879164, -29231.875, -0.7144815, 0.0, 0.00075068924, -0.016861701, 0.0 
3.6621094e-2, 1.3044873e+1, -0.01698319, -29227.58, -0.28286254, 0.0, 0.0006992995, -0.016980454, 0.0 
3.6621094e-2, 1.3068603e+1, -0.017050963, -29193.377, -0.2095364, 0.0, 0.0006978396, -0.01704946, 0.0 
3.6621094e-2, 1.3092333e+1, -0.017173126, -29188.03, -0.37264144, 0.0, 0.0007485166, -0.01716837, 0.0 
3.6621094e-2, 1.3116065e+1, -0.017222831, -29154.275, -0.5948218, 0.0, 0.00071909156, -0.017210694, 0.0 
3.6621094e-2, 1.3139798e+1, -0.017288866, -29149.543, -0.4351095, 0.0, 0.0007173116, -0.01728237, 0.0 
3.6621094e-2, 1.316353e+1, -0.017269064, -29114.19, 0.18098721, 0.0, 0.00074378686, -0.017267939, 0.0 
3.6621094e-2, 1.3187262e+1, -0.017266044, -29112.123, -0.37432706, 0.0, 0.0007281397, -0.017261231, 0.0 
3.6621094e-2, 1.3210995e+1, -0.01720468, -29074.135, -0.80048335, 0.0, 0.00070905406, -0.01718264, 0.0 
3.6621094e-2, 1.323473e+1, -0.017171588, -29072.283, 0.009118885, 0.0, 0.0007421393, -0.017171584, 0.0 
3.6621094e-2, 1.3258463e+1, -0.017126422, -29035.725, -0.509056, 0.0, 0.0007305402, -0.017117497, 0.0 
3.6621094e-2, 1.3282198e+1, -0.017132042, -29034.021, 1.7546548, 0.0, 0.00073090015, -0.017026, 0.0 
3.6621094e-2, 1.3305932e+1, -0.017108558, -28995.389, -0.47256646, 0.0, 0.0007293002, -0.017100856, 0.0 
3.6621094e-2, 1.3329668e+1, -0.017133096, -28994.865, -0.6519142, 0.0, 0.0007179205, -0.01711844, 0.0 
3.6621094e-2, 1.3353404e+1, -0.017124144, -28957.133, 2.4933712, 0.0, 0.0007549009, -0.016909452, 0.0 
3.6621094e-2, 1.337714e+1, -0.017118344, -28954.96, -0.21016082, 0.0, 0.00073683035, -0.017116819, 0.0 
3.6621094e-2, 1.3400878e+1, -0.017115828, -28918.188, -0.5743914, 0.0, 0.0007047133, -0.017104419, 0.0 
3.6621094e-2, 1.3424616e+1, -0.017134344, -28915.701, -0.30564922, 0.0, 0.0007359988, -0.017131114, 0.0 
3.6621094e-2, 1.3448353e+1, -0.017154643, -28878.72, 0.5075302, 0.0, 0.00075818994, -0.017145723, 0.0 
3.6621094e-2, 1.347209e+1, -0.017175052, -28877.77, -0.2376481, 0.0, 0.000695267, -0.017173097, 0.0 
3.6621094e-2, 1.349583e+1, -0.017214855, -28839.545, -0.2173662, 0.0, 0.0007690378, -0.017213218, 0.0 
3.6621094e-2, 1.3519569e+1, -0.017290572, -28838.135, 0.562366, 0.0, 0.00076051935, -0.017279604, 0.0 
3.6621094e-2, 1.3543308e+1, -0.017372549, -28801.563, -0.41289914, 0.0, 0.00068989856, -0.01736663, 0.0 
3.6621094e-2, 1.3567048e+1, -0.017460763, -28797.61, -0.42565036, 0.0, 0.0007247867, -0.017454471, 0.0 
3.6621094e-2, 1.3590787e+1, -0.017589187, -28762.395, 0.6755959, 0.0, 0.00079881237, -0.017573318, 0.0 
3.6621094e-2, 1.361453e+1, -0.01774363, -28759.82, -0.00721219, 0.0, 0.0006934811, -0.017743628, 0.0 
3.6621094e-2, 1.363827e+1, -0.017847115, -28723.725, -0.26604345, 0.0, 0.0007642441, -0.01784465, 0.0 
3.6621094e-2, 1.366201e+1, -0.0179434, -28719.598, 8.717034, 0.0, 0.0007833554, -0.015297587, 0.0 
3.6621094e-2, 1.3685754e+1, -0.017924998, -28684.092, -0.5694728, 0.0, 0.00071842415, -0.017913692, 0.0 
3.6621094e-2, 1.3709496e+1, -0.017941648, -28678.824, 2.3373137, 0.0, 0.00069571467, -0.017751157, 0.0 
3.6621094e-2, 1.373324e+1, -0.01792439, -28647.084, 10.256085, 0.0, 0.0008185832, -0.014252556, 0.0 
3.6621094e-2, 1.3756983e+1, -0.01785985, -28642.906, 1.0476785, 0.0, 0.00076997967, -0.017821528, 0.0 
3.6621094e-2, 1.3780726e+1, -0.017804189, -28607.268, 0.68282676, 0.0, 0.00074288115, -0.01778789, 0.0 
3.6621094e-2, 1.380447e+1, -0.017808625, -28603.137, 1.1145731, 0.0, 0.0007095523, -0.017765194, 0.0 
3.6621094e-2, 1.3828215e+1, -0.01781225, -28569.818, -0.4913149, 0.0, 0.0008034128, -0.017803801, 0.0 
3.6621094e-2, 1.385196e+1, -0.017871106, -28562.654, -0.57576907, 0.0, 0.0007932741, -0.0178595, 0.0 
3.6621094e-2, 1.3875705e+1, -0.017896691, -28530.611, 0.69539523, 0.0, 0.00075898273, -0.017879741, 0.0 
3.6621094e-2, 1.3899451e+1, -0.017929927, -28523.326, 1.1343728, 0.0, 0.00071069656, -0.017884811, 0.0 
3.6621094e-2, 1.3923198e+1, -0.017926177, -28493.395, 0.067112915, 0.0, 0.00080822915, -0.017926019, 0.0 
3.6621094e-2, 1.3946944e+1, -0.017918734, -28483.04, -1.1341246, 0.0, 0.000804821, -0.017873576, 0.0 
3.6621094e-2, 1.3970692e+1, -0.017874796, -28451.428, 1.4220661, 0.0, 0.00076003314, -0.017803717, 0.0 
3.6621094e-2, 1.399444e+1, -0.017794784, -28445.195, 4.914272, 0.0, 0.0007468862, -0.01694578, 0.0 
3.6621094e-2, 1.4018188e+1, -0.017717004, -28415.979, 0.7524449, 0.0, 0.00082570023, -0.01769708, 0.0 
3.6621094e-2, 1.4041936e+1, -0.017656287, -28404.676, -1.0681374, 0.0, 0.00074114, -0.01761612, 0.0 
3.6621094e-2, 1.4065686e+1, -0.01761665, -28375.111, 0.75151974, 0.0, 0.0007448879, -0.017596746, 0.0 
3.6621094e-2, 1.4089435e+1, -0.017562693, -28365.566, 1.5724003, 0.0, 0.0008948217, -0.01747553, 0.0 
3.6621094e-2, 1.4113185e+1, -0.017545115, -28338.264, -0.08271256, 0.0, 0.0008326975, -0.017544873, 0.0 
3.6621094e-2, 1.4136936e+1, -0.017567001, -28325.79, -1.049137, 0.0, 0.00058315287, -0.017528143, 0.0 
3.6621094e-2, 1.4160687e+1, -0.017676057, -28297.656, 0.32376528, 0.0, 0.0007686661, -0.017672352, 0.0 
3.6621094e-2, 1.4184438e+1, -0.017790701, -28285.105, 1.3632728, 0.0, 0.0010283331, -0.017724995, 0.0 
3.6621094e-2, 1.420819e+1, -0.0179252, -28262.426, 0.030801477, 0.0, 0.00078576244, -0.017925166, 0.0 
3.6621094e-2, 1.4231943e+1, -0.018026067, -28244.807, -1.0308994, 0.0, 0.00056876877, -0.017988442, 0.0 
3.6621094e-2, 1.4255695e+1, -0.018136628, -28222.408, 0.20198984, 0.0, 0.0008198254, -0.018135183, 0.0 
3.6621094e-2, 1.4279447e+1, -0.01821902, -28204.953, 0.7840585, 0.0, 0.0009402129, -0.018197225, 0.0 
3.6621094e-2, 1.4303201e+1, -0.018302016, -28185.826, -0.35443354, 0.0, 0.00073738035, -0.018297559, 0.0 
3.6621094e-2, 1.4326955e+1, -0.01836382, -28164.121, 1.5391155, 0.0, 0.000741303, -0.01827971, 0.0 
3.6621094e-2, 1.435071e+1, -0.018419951, -28146.645, 0.0050497097, 0.0, 0.0008494787, -0.01841995, 0.0 
3.6621094e-2, 1.4374465e+1, -0.018505948, -28125.602, -0.16512522, 0.0, 0.0007636258, -0.018504977, 0.0 
3.6621094e-2, 1.4398219e+1, -0.01864039, -28107.027, -0.006588456, 0.0, 0.00070112926, -0.018640388, 0.0 
3.6621094e-2, 1.4421976e+1, -0.018767059, -28085.57, 0.36576486, 0.0, 0.00089977175, -0.018762296, 0.0 
3.6621094e-2, 1.4445731e+1, -0.018808933, -28069.598, 0.706886, 0.0, 0.0008805996, -0.01879113, 0.0 
3.6621094e-2, 1.4469486e+1, -0.018864091, -28047.436, -0.6943507, 0.0, 0.0006393517, -0.018846903, 0.0 
3.6621094e-2, 1.4493245e+1, -0.018898815, -28028.871, -1.0757244, 0.0, 0.0007147052, -0.01885753, 0.0 
3.6621094e-2, 1.4517002e+1, -0.01895256, -28005.633, 1.3575033, 0.0, 0.0009509117, -0.018886758, 0.0 
3.6621094e-2, 1.454076e+1, -0.018896408, -27993.313, 0.7907153, 0.0, 0.0007847018, -0.018874073, 0.0 
3.6621094e-2, 1.4564519e+1, -0.018905591, -27967.008, -1.1695135, 0.0, 0.00070126867, -0.018856686, 0.0 
3.6621094e-2, 1.4588277e+1, -0.018895572, -27952.527, 0.14624734, 0.0, 0.00086591754, -0.018894808, 0.0 
3.6621094e-2, 1.4612035e+1, -0.018959906, -27929.219, -0.9607352, 0.0, 0.0007832388, -0.018926859, 0.0 
3.6621094e-2, 1.4635795e+1, -0.019030474, -27915.215, 7.4780316, 0.0, 0.0006775089, -0.017027231, 0.0 
3.6621094e-2, 1.4659555e+1, -0.019030474, -27886.32, -1.0206003, 0.0, 0.00087456993, -0.018993123, 0.0 
3.6621094e-2, 1.4683317e+1, -0.018967876, -27877.508, 1.1038747, 0.0, 0.00085975265, -0.018924166, 0.0 
3.6621094e-2, 1.4707077e+1, -0.018886026, -27850.164, -0.34291744, 0.0, 0.0006918783, -0.018881803, 0.0 
3.6621094e-2, 1.473084e+1, -0.01872854, -27836.355, -0.58647704, 0.0, 0.00082125753, -0.018716183, 0.0 
3.6621094e-2, 1.4754601e+1, -0.01862517, -27810.346, 0.568049, 0.0, 0.00084320875, -0.018613568, 0.0 
3.6621094e-2, 1.4778362e+1, -0.018518131, -27799.219, -0.12894374, 0.0, 0.00066552026, -0.018517533, 0.0 
3.6621094e-2, 1.4802125e+1, -0.0184821, -27769.982, 0.20158355, 0.0, 0.00081705296, -0.018480636, 0.0 
3.6621094e-2, 1.4825888e+1, -0.018462691, -27759.621, 0.88816905, 0.0, 0.0009461371, -0.018434275, 0.0 
3.6621094e-2, 1.4849652e+1, -0.018523525, -27733.082, -0.30368114, 0.0, 0.0007131134, -0.0185202, 0.0 
3.6621094e-2, 1.4873415e+1, -0.018576425, -27720.285, -0.59909815, 0.0, 0.0007110821, -0.018563475, 0.0 
3.6621094e-2, 1.4897181e+1, -0.018647952, -27691.818, 0.70152, 0.0, 0.00087692234, -0.01863018, 0.0 
3.6621094e-2, 1.4920945e+1, -0.018683014, -27681.58, 0.9885072, 0.0, 0.0007838857, -0.018647715, 0.0 
3.6621094e-2, 1.4944711e+1, -0.018695785, -27653.781, 0.8173815, 0.0, 0.000764067, -0.018671624, 0.0 
3.6621094e-2, 1.4968476e+1, -0.01868414, -27642.008, 1.3633114, 0.0, 0.0008673351, -0.018616902, 0.0 
3.6621094e-2, 1.4992243e+1, -0.018655235, -27615.668, 0.78862154, 0.0, 0.0007548178, -0.018632714, 0.0 
3.6621094e-2, 1.5016009e+1, -0.01865389, -27603.13, 0.7579056, 0.0, 0.0008049142, -0.01863308, 0.0 
3.6621094e-2, 1.5039776e+1, -0.018682381, -27574.137, 1.0671886, 0.0, 0.00087892904, -0.018641077, 0.0 
3.6621094e-2, 1.5063544e+1, -0.018754678, -27566.049, 1.7509283, 0.0, 0.00067902973, -0.018643463, 0.0 
3.6621094e-2, 1.5087312e+1, -0.018816661, -27535.338, -0.00053483545, 0.0, 0.00075842283, -0.018816661, 0.0 
3.6621094e-2, 1.511108e+1, -0.018888861, -27525.969, -0.091894604, 0.0, 0.0009972702, -0.018888554, 0.0 
3.6621094e-2, 1.5134849e+1, -0.018884921, -27495.992, 0.30536115, 0.0, 0.0007626265, -0.01888153, 0.0 
3.6621094e-2, 1.5158617e+1, -0.018927265, -27488.215, 0.33440775, 0.0, 0.00069488597, -0.018923197, 0.0 
3.6621094e-2, 1.5182388e+1, -0.019025281, -27455.85, 1.0515214, 0.0, 0.00091957604, -0.018985009, 0.0 
3.6621094e-2, 1.5206158e+1, -0.019134691, -27450.39, -0.49227512, 0.0, 0.0007439939, -0.019125864, 0.0 
3.6621094e-2, 1.5229928e+1, -0.019118944, -27415.238, -0.94828373, 0.0, 0.0007377237, -0.019086143, 0.0 
3.6621094e-2, 1.52537e+1, -0.019080134, -27409.875, 2.036674, 0.0, 0.00095693243, -0.0189288, 0.0 
3.6621094e-2, 1.5277472e+1, -0.019030662, -27380.107, 2.1926646, 0.0, 0.0007763376, -0.018855067, 0.0 
3.6621094e-2, 1.5301242e+1, -0.01898961, -27370.467, -1.5705335, 0.0, 0.0007277706, -0.018899491, 0.0 
3.6621094e-2, 1.5325016e+1, -0.018888718, -27337.248, 0.9042809, 0.0, 0.0009642434, -0.018858805, 0.0 
3.6621094e-2, 1.5348788e+1, -0.018858224, -27333.68, 0.117864326, 0.0, 0.0006947377, -0.018857716, 0.0 
3.6621094e-2, 1.5372561e+1, -0.018873926, -27298.578, -0.6517404, 0.0, 0.0006882902, -0.018858368, 0.0 
3.6621094e-2, 1.5396336e+1, -0.018986212, -27292.648, 1.6322573, 0.0, 0.0009860231, -0.018888593, 0.0 
3.6621094e-2, 1.5420109e+1, -0.019129004, -27261.734, -0.41590485, 0.0, 0.0009037917, -0.019122658, 0.0 
3.6621094e-2, 1.5443884e+1, -0.019302549, -27252.33, 0.2653008, 0.0, 0.0006422729, -0.019299965, 0.0 
3.6621094e-2, 1.5467659e+1, -0.019433774, -27222.607, 1.6118596, 0.0, 0.0007622464, -0.019338336, 0.0 
3.6621094e-2, 1.5491435e+1, -0.019573793, -27215.188, -1.4588041, 0.0, 0.0008909156, -0.019495597, 0.0 
3.6621094e-2, 1.551521e+1, -0.019652167, -27181.0, 1.3891197, 0.0, 0.0009103724, -0.019581174, 0.0 
3.6621094e-2, 1.5538988e+1, -0.019800354, -27178.516, 0.29075855, 0.0, 0.0006893589, -0.019797243, 0.0 
3.6621094e-2, 1.5562764e+1, -0.019904453, -27141.842, -3.7773597, 0.0, 0.0007789103, -0.019378753, 0.0 
3.6621094e-2, 1.5586542e+1, -0.020061515, -27138.75, 10.453735, 0.0, 0.00085304, -0.016034776, 0.0 
3.6621094e-2, 1.5610318e+1, -0.020028256, -27111.486, -9.032318, 0.0, 0.0008476917, -0.017019097, 0.0 
3.6621094e-2, 1.5634096e+1, -0.02209518, -27095.959, 47.748066, 0.0, 0.00078233914, 0.062045503, 0.0 
3.6621094e-2, 1.5657875e+1, -0.020119801, -27058.158, -7.474077, 0.0, 0.00074243627, -0.018055292, 0.0 
3.6621094e-2, 1.5681654e+1, -0.02015005, -27059.7, 0.55994385, 0.0, 0.00076832424, -0.020138463, 0.0 
3.6621094e-2, 1.5705433e+1, -0.020174658, -27024.486, -0.2841743, 0.0, 0.001020519, -0.02017167, 0.0 
3.6621094e-2, 1.5729214e+1, -0.020184297, -27020.002, -0.18073255, 0.0, 0.0007403671, -0.020183086, 0.0 
3.6621094e-2, 1.5752994e+1, -0.020172026, -26987.113, -0.03704565, 0.0, 0.00058470335, -0.020171974, 0.0 
3.6621094e-2, 1.5776774e+1, -0.020156465, -26980.67, -0.06913373, 0.0, 0.00086621015, -0.020156289, 0.0 
3.6621094e-2, 1.5800557e+1, -0.020231787, -26946.707, 0.5879994, 0.0, 0.0010352379, -0.020218955, 0.0 
3.6621094e-2, 1.5824337e+1, -0.020327186, -26943.697, -0.2982046, 0.0, 0.00067442574, -0.020323886, 0.0 
3.6621094e-2, 1.584812e+1, -0.020413777, -26907.418, -0.71562624, 0.0, 0.00071567966, -0.020394744, 0.0 
3.6621094e-2, 1.5871902e+1, -0.02033663, -26902.023, 0.91139, 0.0, 0.00086844806, -0.020305753, 0.0 
3.6621094e-2, 1.5895686e+1, -0.020303013, -26869.496, 1.0852187, 0.0, 0.0008256863, -0.020259183, 0.0 
3.6621094e-2, 1.5919468e+1, -0.020221995, -26863.709, -0.0435676, 0.0, 0.00076272164, -0.020221926, 0.0 
3.6621094e-2, 1.5943253e+1, -0.0202007, -26830.668, 0.26307678, 0.0, 0.00085362425, -0.02019812, 0.0 
3.6621094e-2, 1.5967037e+1, -0.020086652, -26824.74, 1.934372, 0.0, 0.0007647108, -0.019947162, 0.0 
3.6621094e-2, 1.599082e+1, -0.02005317, -26791.152, 0.10267237, 0.0, 0.00083867623, -0.020052778, 0.0 
3.6621094e-2, 1.6014606e+1, -0.019959062, -26784.68, 0.1894842, 0.0, 0.00084850553, -0.019957721, 0.0 
3.6621094e-2, 1.6038391e+1, -0.019977031, -26753.129, -0.4419148, 0.0, 0.0007361643, -0.019969732, 0.0 
3.6621094e-2, 1.6062178e+1, -0.019902091, -26745.72, -0.45226464, 0.0, 0.000791814, -0.019894443, 0.0 
3.6621094e-2, 1.6085964e+1, -0.019930383, -26712.852, 0.75505674, 0.0, 0.00092376344, -0.019909041, 0.0 
3.6621094e-2, 1.6109751e+1, -0.01992823, -26707.734, 0.13020262, 0.0, 0.0007917504, -0.019927595, 0.0 
3.6621094e-2, 1.613354e+1, -0.019976584, -26675.547, -1.1082394, 0.0, 0.00078652805, -0.019930542, 0.0 
3.6621094e-2, 1.6157326e+1, -0.0199489, -26665.566, -0.28579786, 0.0, 0.0008533194, -0.019945838, 0.0 
3.6621094e-2, 1.6181114e+1, -0.019918483, -26637.219, 0.6059903, 0.0, 0.00081899797, -0.019904695, 0.0 
3.6621094e-2, 1.6204903e+1, -0.019849738, -26627.563, -0.133578, 0.0, 0.0008551105, -0.019849068, 0.0 
3.6621094e-2, 1.6228694e+1, -0.01989631, -26600.828, 3.1870067, 0.0, 0.0008259835, -0.019514479, 0.0 
3.6621094e-2, 1.6252482e+1, -0.019912299, -26584.29, -2.822948, 0.0, 0.0008168333, -0.019612534, 0.0 
3.6621094e-2, 1.6276272e+1, -0.019953044, -26558.793, 2.5194697, 0.0, 0.00090288813, -0.019714037, 0.0 
3.6621094e-2, 1.6300063e+1, -0.02000747, -26549.41, 2.7763588, 0.0, 0.00079445896, -0.019717138, 0.0 
3.6621094e-2, 1.6323853e+1, -0.020120807, -26524.523, -3.950055, 0.0, 0.00083354453, -0.019532561, 0.0 
3.6621094e-2, 1.6347645e+1, -0.020224176, -26503.521, -1.803444, 0.0, 0.0010773791, -0.02010146, 0.0 
3.6621094e-2, 1.6371436e+1, -0.020349137, -26483.88, 2.7315648, 0.0, 0.000711657, -0.020067403, 0.0 
3.6621094e-2, 1.6395229e+1, -0.020492584, -26468.637, 0.8151486, 0.0, 0.00062479154, -0.020467479, 0.0 
3.6621094e-2, 1.6419022e+1, -0.02067351, -26447.299, -0.90154403, 0.0, 0.0011209652, -0.020642778, 0.0 
3.6621094e-2, 1.6442814e+1, -0.020783965, -26427.125, -3.4796388, 0.0, 0.0010848418, -0.020325802, 0.0 
3.6621094e-2, 1.6466609e+1, -0.020886, -26403.521, 1.6746113, 0.0, 0.00064226944, -0.02077979, 0.0 
3.6621094e-2, 1.6490403e+1, -0.020960217, -26391.617, 6.8197393, 0.0, 0.00076926826, -0.019197958, 0.0 
3.6621094e-2, 1.6514197e+1, -0.021004628, -26373.78, -4.5348344, 0.0, 0.0010080249, -0.020224888, 0.0 
3.6621094e-2, 1.6537991e+1, -0.021017753, -26338.848, -1.8305922, 0.0, 0.0010809636, -0.020890525, 0.0 
3.6621094e-2, 1.6561787e+1, -0.021054158, -26329.035, 15.647094, 0.0, 0.00081792864, -0.0117552355, 0.0 
3.6621094e-2, 1.6585582e+1, -0.021088231, -26314.654, 10.98928, 0.0, 0.0006590244, -0.016498988, 0.0 
3.6621094e-2, 1.6609378e+1, -0.021181634, -26296.207, -2.1619782, 0.0, 0.000968564, -0.021003883, 0.0 
3.6621094e-2, 1.6633175e+1, -0.0212759, -26265.855, 2.3759508, 0.0, 0.0013164885, -0.021060977, 0.0 
3.6621094e-2, 1.6656972e+1, -0.021402944, -26252.402, 5.2212014, 0.0, 0.00080567953, -0.020364527, 0.0 
3.6621094e-2, 1.6680771e+1, -0.021487217, -26230.496, 4.4147687, 0.0, 0.000474509, -0.020744182, 0.0 
3.6621094e-2, 1.6704567e+1, -0.021572191, -26219.887, -2.347382, 0.0, 0.0010913813, -0.021362038, 0.0 
3.6621094e-2, 1.6728367e+1, -0.02156708, -26186.389, -3.50895, 0.0, 0.0013552397, -0.021096883, 0.0 
3.6621094e-2, 1.6752166e+1, -0.021539103, -26176.762, 1.1976464, 0.0, 0.0007161853, -0.021484308, 0.0 
3.6621094e-2, 1.6775964e+1, -0.02148206, -26149.328, 2.5851266, 0.0, 0.00075192784, -0.021226494, 0.0 
3.6621094e-2, 1.6799764e+1, -0.021460215, -26141.375, -0.5826065, 0.0, 0.0011194093, -0.02144723, 0.0 
3.6621094e-2, 1.6823564e+1, -0.021454347, -26106.723, -2.1006567, 0.0, 0.0009338093, -0.02128532, 0.0 
3.6621094e-2, 1.6847365e+1, -0.02152904, -26101.197, 0.23292048, 0.0, 0.00084889453, -0.021526963, 0.0 
3.6621094e-2, 1.6871166e+1, -0.02163254, -26070.488, 0.8446375, 0.0, 0.0011441028, -0.021605175, 0.0 
3.6621094e-2, 1.6894968e+1, -0.021729931, -26061.8, 0.17008819, 0.0, 0.0009807156, -0.021728821, 0.0 
3.6621094e-2, 1.691877e+1, -0.0217515, -26028.166, 1.3986079, 0.0, 0.0007679755, -0.021676347, 0.0 
3.6621094e-2, 1.6942571e+1, -0.021756228, -26025.68, 0.9976873, 0.0, 0.0009531942, -0.021717982, 0.0 
3.6621094e-2, 1.6966376e+1, -0.021737013, -25991.928, -3.3484354, 0.0, 0.0011876059, -0.021305647, 0.0 
3.6621094e-2, 1.6990177e+1, -0.021707637, -25980.799, -0.7670717, 0.0, 0.000982222, -0.02168499, 0.0 
3.6621094e-2, 1.701398e+1, -0.021672076, -25951.47, 3.913735, 0.0, 0.0007857304, -0.021081844, 0.0 
3.6621094e-2, 1.7037787e+1, -0.021681134, -25948.113, 0.5522692, 0.0, 0.0010062314, -0.021669379, 0.0 
3.6621094e-2, 1.706159e+1, -0.021668307, -25912.16, -3.2473612, 0.0, 0.0011152361, -0.021261342, 0.0 
3.6621094e-2, 1.7085396e+1, -0.021713037, -25904.635, -1.1070564, 0.0, 0.00088464184, -0.021665726, 0.0 
3.6621094e-2, 1.7109202e+1, -0.021766258, -25871.434, 3.4763782, 0.0, 0.0010131267, -0.021299133, 0.0 
3.6621094e-2, 1.7133006e+1, -0.021811519, -25870.764, 1.7497431, 0.0, 0.0010981855, -0.021693178, 0.0 
3.6621094e-2, 1.7156813e+1, -0.021829292, -25833.979, -3.7811556, 0.0, 0.000839137, -0.021275869, 0.0 
3.6621094e-2, 1.718062e+1, -0.021839453, -25826.049, 0.5751949, 0.0, 0.0009427075, -0.021826643, 0.0 
3.6621094e-2, 1.7204428e+1, -0.02184513, -25796.773, 2.3347058, 0.0, 0.0011412937, -0.02163383, 0.0 
3.6621094e-2, 1.7228235e+1, -0.021865075, -25788.063, -3.2493224, 0.0, 0.0009633737, -0.021455657, 0.0 
3.6621094e-2, 1.7252043e+1, -0.021876965, -25751.438, 3.3053591, 0.0, 0.0009215568, -0.0214527, 0.0 
3.6621094e-2, 1.7275852e+1, -0.022302657, -25761.65, 32.263374, 0.0, 0.00108409, 0.01810332, 0.0 
3.6621094e-2, 1.729966e+1, -0.023420222, -25723.043, 37.29043, 0.0, 0.0009837988, 0.030639265, 0.0 
3.6621094e-2, 1.7323469e+1, -0.022505138, -25702.129, 19.285616, 0.0, 0.0007688999, -0.008034154, 0.0 
3.6621094e-2, 1.734728e+1, -0.021679455, -25671.342, -1.2314217, 0.0, 0.0011218329, -0.021620385, 0.0 
3.6621094e-2, 1.737109e+1, -0.021717563, -25674.56, 3.0784783, 0.0, 0.0013135197, -0.021348441, 0.0 
3.6621094e-2, 1.7394902e+1, -0.021830972, -25641.023, -2.2274492, 0.0, 0.000726421, -0.021637471, 0.0 
3.6621094e-2, 1.7418712e+1, -0.021855665, -25630.543, -0.85326904, 0.0, 0.000656549, -0.021827258, 0.0 
3.6621094e-2, 1.7442524e+1, -0.021973435, -25601.969, 1.9470463, 0.0, 0.001324812, -0.02182536, 0.0 
3.6621094e-2, 1.7466335e+1, -0.022001218, -25593.602, 0.5677412, 0.0, 0.0011329332, -0.021988625, 0.0 
3.6621094e-2, 1.7490149e+1, -0.022058154, -25562.836, 0.0365918, 0.0, 0.000702803, -0.022058101, 0.0 
3.6621094e-2, 1.7513962e+1, -0.022013389, -25552.488, 2.154562, 0.0, 0.0011069451, -0.021831717, 0.0 
3.6621094e-2, 1.7537776e+1, -0.022029167, -25526.428, 0.06824368, 0.0, 0.0011144892, -0.022028985, 0.0 
3.6621094e-2, 1.7561588e+1, -0.022010107, -25513.984, -2.695063, 0.0, 0.00055971066, -0.021725425, 0.0 
3.6621094e-2, 1.7585403e+1, -0.022101248, -25481.299, 1.8633484, 0.0, 0.0010623293, -0.02196499, 0.0 
3.6621094e-2, 1.7609219e+1, -0.022135638, -25476.012, 5.746665, 0.0, 0.001485188, -0.02083935, 0.0 
3.6621094e-2, 1.7633034e+1, -0.022228958, -25447.918, 1.4521793, 0.0, 0.00073436525, -0.02214609, 0.0 
3.6621094e-2, 1.765685e+1, -0.022233158, -25436.33, -1.4608396, 0.0, 0.0006099592, -0.02214926, 0.0 
3.6621094e-2, 1.7680664e+1, -0.02226817, -25403.89, 1.835649, 0.0, 0.0012857261, -0.02213553, 0.0 
3.6621094e-2, 1.7704481e+1, -0.022251206, -25398.95, 3.4174542, 0.0, 0.00095785095, -0.021791384, 0.0 
3.6621094e-2, 1.7728299e+1, -0.022274077, -25366.064, 4.7760625, 0.0, 0.0007697509, -0.021374812, 0.0 
3.6621094e-2, 1.7752115e+1, -0.022231707, -25358.492, 4.9639773, 0.0, 0.0013027673, -0.021259999, 0.0 
3.6621094e-2, 1.7775935e+1, -0.022131458, -25331.63, 0.55825335, 0.0, 0.0009892666, -0.022119155, 0.0 
3.6621094e-2, 1.7799751e+1, -0.022023596, -25319.508, -4.1389947, 0.0, 0.00055647065, -0.02134699, 0.0 
3.6621094e-2, 1.7823571e+1, -0.021932054, -25285.785, 1.4506317, 0.0, 0.0011564888, -0.021848831, 0.0 
3.6621094e-2, 1.7847389e+1, -0.021943202, -25281.033, 4.1483817, 0.0, 0.0011179703, -0.02126249, 0.0 
3.6621094e-2, 1.787121e+1, -0.021981755, -25252.82, -1.0177621, 0.0, 0.0007448299, -0.021940736, 0.0 
3.6621094e-2, 1.789503e+1, -0.022137867, -25238.674, -0.57140994, 0.0, 0.0011582407, -0.02212493, 0.0 
3.6621094e-2, 1.791885e+1, -0.02225183, -25211.623, 1.6911284, 0.0, 0.0011327214, -0.022138394, 0.0 
3.6621094e-2, 1.7942671e+1, -0.02244374, -25203.527, -1.2206788, 0.0, 0.0005526968, -0.02238462, 0.0 
3.6621094e-2, 1.7966491e+1, -0.022494324, -25169.998, -0.77570236, 0.0, 0.0009941056, -0.022470418, 0.0 
3.6621094e-2, 1.7990315e+1, -0.022627497, -25161.643, 3.3323386, 0.0, 0.0012951577, -0.022186171, 0.0 
3.6621094e-2, 1.8014137e+1, -0.022610268, -25136.432, 0.91099775, 0.0, 0.00081240456, -0.02257725, 0.0 
3.6621094e-2, 1.803796e+1, -0.022693438, -25125.652, -4.1656117, 0.0, 0.00091914594, -0.022002816, 0.0 
3.6621094e-2, 1.8061782e+1, -0.022751704, -25091.018, 12.964841, 0.0, 0.0011609871, -0.016052606, 0.0 
3.6621094e-2, 1.8085605e+1, -0.022721842, -25084.703, -2.0253198, 0.0, 0.00074592413, -0.022558318, 0.0 
3.6621094e-2, 1.810943e+1, -0.022606373, -25054.15, -0.95200026, 0.0, 0.0009579205, -0.022570198, 0.0 
3.6621094e-2, 1.8133254e+1, -0.02259327, -25044.643, 2.3079631, 0.0, 0.0011690703, -0.022380581, 0.0 
3.6621094e-2, 1.815708e+1, -0.022471754, -25017.477, 0.6943901, 0.0, 0.00076378474, -0.022452481, 0.0 
3.6621094e-2, 1.8180904e+1, -0.022661503, -25005.494, -1.4509342, 0.0, 0.0010436439, -0.022577312, 0.0 
3.6621094e-2, 1.8204731e+1, -0.022701649, -24976.084, 1.1353533, 0.0, 0.0012606746, -0.022650039, 0.0 
3.6621094e-2, 1.8228558e+1, -0.022920089, -24969.064, -0.7049837, 0.0, 0.0006211021, -0.022900185, 0.0 
3.6621094e-2, 1.8252385e+1, -0.022857646, -24936.848, -1.8435029, 0.0, 0.00083553937, -0.022721361, 0.0 
3.6621094e-2, 1.827621e+1, -0.023009581, -24925.22, 2.559928, 0.0, 0.0013012417, -0.022746667, 0.0 
3.6621094e-2, 1.8300039e+1, -0.022995545, -24902.082, 0.63536894, 0.0, 0.00089380716, -0.022979332, 0.0 
3.6621094e-2, 1.8323869e+1, -0.02317553, -24886.578, -1.9481127, 0.0, 0.0008926456, -0.023023034, 0.0 
3.6621094e-2, 1.8347694e+1, -0.023169016, -24861.467, 1.0042423, 0.0, 0.0010372986, -0.023128452, 0.0 
3.6621094e-2, 1.8371525e+1, -0.023294006, -24847.225, -0.23656255, 0.0, 0.0008598497, -0.023291754, 0.0 
3.6621094e-2, 1.8395354e+1, -0.02318848, -24823.016, -0.5676482, 0.0, 0.0011637243, -0.023175498, 0.0 
3.6621094e-2, 1.8419184e+1, -0.02334659, -24806.496, 0.32854375, 0.0, 0.0009867519, -0.023342239, 0.0 
3.6621094e-2, 1.8443014e+1, -0.023348933, -24788.775, -2.6013713, 0.0, 0.00051987206, -0.02307594, 0.0 
3.6621094e-2, 1.8466845e+1, -0.023479229, -24761.02, 1.406901, 0.0, 0.0012168915, -0.02339929, 0.0 
3.6621094e-2, 1.8490675e+1, -0.023412842, -24753.395, 3.0400848, 0.0, 0.0013697583, -0.023039473, 0.0 
3.6621094e-2, 1.8514508e+1, -0.02348975, -24723.92, -2.8436222, 0.0, 0.0006664993, -0.02316269, 0.0 
3.6621094e-2, 1.853834e+1, -0.023361431, -24709.926, 1.609243, 0.0, 0.0007500482, -0.023256628, 0.0 
3.6621094e-2, 1.8562172e+1, -0.02339476, -24685.682, 4.442157, 0.0, 0.0011438516, -0.0225954, 0.0 
3.6621094e-2, 1.8586004e+1, -0.023229478, -24675.96, 0.85838383, 0.0, 0.0011640467, -0.023199618, 0.0 
3.6621094e-2, 1.8609838e+1, -0.02319954, -24643.184, 0.57830703, 0.0, 0.0009855088, -0.023185968, 0.0 
3.6621094e-2, 1.8633673e+1, -0.023096597, -24639.564, -3.032738, 0.0, 0.00058753433, -0.022723315, 0.0 
3.6621094e-2, 1.8657507e+1, -0.023246452, -24600.268, 0.39164025, 0.0, 0.0010291784, -0.023240216, 0.0 
3.6621094e-2, 1.8681341e+1, -0.02332668, -24601.201, 2.3377268, 0.0, 0.0015008633, -0.02310454, 0.0 
3.6621094e-2, 1.8705176e+1, -0.023479601, -24563.229, -4.519896, 0.0, 0.00090641656, -0.022647891, 0.0 
3.6621094e-2, 1.8729012e+1, -0.023480413, -24561.984, 0.09264709, 0.0, 0.00043486618, -0.023480065, 0.0 
3.6621094e-2, 1.8752848e+1, -0.023584316, -24539.299, -10.973751, 0.0, 0.00110016, -0.01867695, 0.0 
3.6621094e-2, 1.8776684e+1, -0.031112125, -24522.357, 86.199554, 0.0, 0.0015292375, 0.2718881, 0.0 
3.6621094e-2, 1.8800522e+1, -0.02375167, -24466.06, -18.034718, 0.0, 0.0009907541, -0.010457695, 0.0 
3.6621094e-2, 1.8824358e+1, -0.023762586, -24488.04, 10.52572, 0.0, 0.00040919732, -0.0192383, 0.0 
3.6621094e-2, 1.8848196e+1, -0.02390642, -24443.584, -6.389179, 0.0, 0.0010212301, -0.022236384, 0.0 
3.6621094e-2, 1.8872035e+1, -0.024150517, -24424.656, 10.756571, 0.0, 0.0016356715, -0.01941334, 0.0 
3.6621094e-2, 1.8895873e+1, -0.024390666, -24408.986, 50.771275, 0.0, 0.0009870778, 0.08121444, 0.0 
3.6621094e-2, 1.8919712e+1, -0.024467241, -24422.756, 21.803345, 0.0, 0.00047672365, -0.005002364, 0.0 
3.6621094e-2, 1.8943553e+1, -0.024511842, -24365.535, -4.3712726, 0.0, 0.0011409037, -0.023727618, 0.0 
3.6621094e-2, 1.8967392e+1, -0.024437811, -24370.934, -3.35329, 0.0, 0.001358099, -0.02397642, 0.0 
3.6621094e-2, 1.8991232e+1, -0.024455762, -24322.889, 0.32724118, 0.0, 0.0009331889, -0.024451358, 0.0 
3.6621094e-2, 1.9015074e+1, -0.024402652, -24330.48, 2.6728868, 0.0, 0.0009161752, -0.024109015, 0.0 
3.6621094e-2, 1.9038916e+1, -0.024460398, -24288.033, -0.643405, 0.0, 0.0011956792, -0.024443354, 0.0 
3.6621094e-2, 1.9062757e+1, -0.024451802, -24290.668, -2.883088, 0.0, 0.0009697304, -0.024109606, 0.0 
3.6621094e-2, 1.90866e+1, -0.024537703, -24246.23, -0.3518223, 0.0, 0.00092949386, -0.024532598, 0.0 
3.6621094e-2, 1.9110441e+1, -0.024544539, -24253.041, -0.04931865, 0.0, 0.0012664169, -0.024544438, 0.0 
3.6621094e-2, 1.9134285e+1, -0.024725769, -24208.027, -0.38824746, 0.0, 0.0011868676, -0.024719542, 0.0 
3.6621094e-2, 1.915813e+1, -0.024793595, -24211.275, 0.3221503, 0.0, 0.00081664213, -0.02478931, 0.0 
3.6621094e-2, 1.9181973e+1, -0.024918726, -24170.38, 0.23979403, 0.0, 0.0010228865, -0.024916347, 0.0 
3.6621094e-2, 1.9205816e+1, -0.024936259, -24173.623, -2.264799, 0.0, 0.0012899429, -0.024724072, 0.0 
3.6621094e-2, 1.9229662e+1, -0.025145406, -24130.162, -1.9784746, 0.0, 0.0010813285, -0.024983188, 0.0 
3.6621094e-2, 1.9253507e+1, -0.02525518, -24129.889, 5.2743354, 0.0, 0.0009663478, -0.02410231, 0.0 
3.6621094e-2, 1.9277354e+1, -0.025408955, -24095.217, 3.3008971, 0.0, 0.0012032888, -0.024956753, 0.0 
3.6621094e-2, 1.9301198e+1, -0.025291089, -24091.385, 0.31309134, 0.0, 0.0010922679, -0.025287021, 0.0 
3.6621094e-2, 1.9325046e+1, -0.025240613, -24056.742, -0.39836416, 0.0, 0.0009150989, -0.025234018, 0.0 
3.6621094e-2, 1.9348893e+1, -0.025091313, -24051.172, -0.22882004, 0.0, 0.0012567632, -0.025089135, 0.0 
3.6621094e-2, 1.937274e+1, -0.025102913, -24018.31, -0.12662637, 0.0, 0.0012600668, -0.025102245, 0.0 
3.6621094e-2, 1.939659e+1, -0.025037041, -24009.305, 0.82093394, 0.0, 0.0009015803, -0.02500897, 0.0 
3.6621094e-2, 1.9420438e+1, -0.025203804, -23981.094, 1.2797549, 0.0, 0.0011419465, -0.02513551, 0.0 
3.6621094e-2, 1.9444287e+1, -0.025176646, -23972.906, -2.000172, 0.0, 0.0012393072, -0.025009762, 0.0 
3.6621094e-2, 1.9468136e+1, -0.025235169, -23942.48, -3.9012756, 0.0, 0.0009075693, -0.02459948, 0.0 
3.6621094e-2, 1.9491985e+1, -0.025140535, -23926.232, 2.2995949, 0.0, 0.0011931431, -0.024919517, 0.0 
3.6621094e-2, 1.9515835e+1, -0.025312584, -23907.518, 3.5197704, 0.0, 0.0013435113, -0.024794387, 0.0 
3.6621094e-2, 1.9539686e+1, -0.025348442, -23892.076, -3.4912543, 0.0, 0.000941417, -0.024838278, 0.0 
3.6621094e-2, 1.9563538e+1, -0.025499566, -23865.057, -2.4369721, 0.0, 0.0010875105, -0.025250714, 0.0 
3.6621094e-2, 1.9587389e+1, -0.025413355, -23850.357, 0.82251126, 0.0, 0.0012971004, -0.025384989, 0.0 
3.6621094e-2, 1.9611241e+1, -0.025520474, -23829.846, 5.118782, 0.0, 0.00091116544, -0.02442093, 0.0 
3.6621094e-2, 1.9635093e+1, -0.025441479, -23809.15, -1.2551244, 0.0, 0.0010841539, -0.025375314, 0.0 
3.6621094e-2, 1.9658947e+1, -0.025560008, -23790.232, -0.15075429, 0.0, 0.0015316991, -0.025559053, 0.0 
3.6621094e-2, 1.9682801e+1, -0.025524812, -23768.375, 2.0166497, 0.0, 0.001032948, -0.025353707, 0.0 
3.6621094e-2, 1.9706653e+1, -0.02564702, -23753.2, 10.092992, 0.0, 0.0007349289, -0.021358393, 0.0 
3.6621094e-2, 1.9730508e+1, -0.025579851, -23731.139, 2.7652018, 0.0, 0.001329555, -0.025257643, 0.0 
3.6621094e-2, 1.9754362e+1, -0.025636103, -23716.033, -0.37272212, 0.0, 0.0013194471, -0.025630245, 0.0 
3.6621094e-2, 1.9778217e+1, -0.025569951, -23688.697, -0.48949805, 0.0, 0.0009280025, -0.025559837, 0.0 
3.6621094e-2, 1.9802073e+1, -0.025587866, -23676.664, 1.6795963, 0.0, 0.0012203099, -0.025468716, 0.0 
3.6621094e-2, 1.982593e+1, -0.025546383, -23650.809, 1.0063348, 0.0, 0.0011966742, -0.025503565, 0.0 
3.6621094e-2, 1.9849785e+1, -0.02552934, -23641.23, -3.9829102, 0.0, 0.00091155694, -0.024858328, 0.0 
3.6621094e-2, 1.9873641e+1, -0.02540561, -23604.416, -0.8445851, 0.0, 0.001242737, -0.025375389, 0.0 
3.6621094e-2, 1.9897501e+1, -0.02537853, -23601.908, 5.565147, 0.0, 0.0011508412, -0.02406631, 0.0 
3.6621094e-2, 1.9921358e+1, -0.025453417, -23575.902, -1.9116589, 0.0, 0.0008623693, -0.02529841, 0.0 
3.6621094e-2, 1.9945215e+1, -0.026810372, -23558.834, 45.419266, 0.0, 0.0014690685, 0.060753565, 0.0 
3.6621094e-2, 1.9969074e+1, -0.025542093, -23528.162, 0.13431437, 0.0, 0.0012851973, -0.025541326, 0.0 
3.6621094e-2, 1.9992933e+1, -0.025586667, -23524.871, -0.004554748, 0.0, 0.00053537276, -0.025586667, 0.0 
3.6621094e-2, 2.0016794e+1, -0.025670206, -23489.377, 0.01300959, 0.0, 0.0011390358, -0.0256702, 0.0 
3.6621094e-2, 2.0040654e+1, -0.025670262, -23484.879, 4.1053553, 0.0, 0.0015293588, -0.02495261, 0.0 
3.6621094e-2, 2.0064515e+1, -0.025734562, -23454.059, 0.7746167, 0.0, 0.0008938495, -0.02570898, 0.0 
3.6621094e-2, 2.0088375e+1, -0.02574558, -23443.121, 0.28907478, 0.0, 0.0010446281, -0.025742017, 0.0 
3.6621094e-2, 2.0112236e+1, -0.025887523, -23414.04, 2.273365, 0.0, 0.001225753, -0.025666792, 0.0 
3.6621094e-2, 2.0136099e+1, -0.025975734, -23408.686, -2.3024244, 0.0, 0.0009154557, -0.025749272, 0.0 
3.6621094e-2, 2.015996e+1, -0.026098384, -23370.34, -1.2315239, 0.0, 0.0011668786, -0.026033487, 0.0 
3.6621094e-2, 2.0183823e+1, -0.026078166, -23367.56, 3.7175727, 0.0, 0.0011305513, -0.025486732, 0.0 
3.6621094e-2, 2.0207687e+1, -0.02617161, -23336.596, 0.7215975, 0.0, 0.0007922138, -0.026149297, 0.0 
3.6621094e-2, 2.0231551e+1, -0.026186816, -23327.959, -1.1545608, 0.0, 0.0013375584, -0.026129674, 0.0 
3.6621094e-2, 2.0255415e+1, -0.026213037, -23294.271, 1.2404938, 0.0, 0.0012769977, -0.026146976, 0.0 
3.6621094e-2, 2.0279278e+1, -0.026118075, -23289.13, 1.1492738, 0.0, 0.0006668108, -0.026061362, 0.0 
3.6621094e-2, 2.0303145e+1, -0.026076721, -23255.678, 3.9082937, 0.0, 0.0010986169, -0.025419902, 0.0 
3.6621094e-2, 2.032701e+1, -0.026008436, -23250.965, 2.7483964, 0.0, 0.0012646357, -0.02568356, 0.0 
3.6621094e-2, 2.0350873e+1, -0.026067246, -23218.715, -0.35141918, 0.0, 0.000811806, -0.026061926, 0.0 
3.6621094e-2, 2.037474e+1, -0.026146732, -23208.633, 1.4460448, 0.0, 0.0011842374, -0.026056634, 0.0 
3.6621094e-2, 2.0398608e+1, -0.026245253, -23179.332, 3.0695043, 0.0, 0.0011829636, -0.025838776, 0.0 
3.6621094e-2, 2.0422477e+1, -0.026303902, -23172.852, -1.2102841, 0.0, 0.00081832544, -0.02624069, 0.0 
3.6621094e-2, 2.0446342e+1, -0.026343897, -23137.69, 0.80124193, 0.0, 0.0011706408, -0.02631615, 0.0 
3.6621094e-2, 2.0470211e+1, -0.026393332, -23132.828, 3.5980692, 0.0, 0.0010505981, -0.025833689, 0.0 
3.6621094e-2, 2.049408e+1, -0.02642384, -23100.438, 1.9975741, 0.0, 0.00089437206, -0.026251102, 0.0 
3.6621094e-2, 2.0517948e+1, -0.026467366, -23092.184, 5.6690135, 0.0, 0.0012119018, -0.02507565, 0.0 
3.6621094e-2, 2.0541817e+1, -0.026484359, -23065.863, 2.5044818, 0.0, 0.0009358788, -0.026212424, 0.0 
3.6621094e-2, 2.0565687e+1, -0.026582612, -23051.523, -2.2227633, 0.0, 0.0010199223, -0.026368279, 0.0 
3.6621094e-2, 2.0589557e+1, -0.026600823, -23023.518, 2.2277288, 0.0, 0.0011976396, -0.02638527, 0.0 
3.6621094e-2, 2.0613427e+1, -0.0266173, -23015.234, -1.123756, 0.0, 0.0008124813, -0.026562432, 0.0 
3.6621094e-2, 2.06373e+1, -0.026479809, -22982.64, 1.0772333, 0.0, 0.0012646522, -0.026429316, 0.0 
3.6621094e-2, 2.0661171e+1, -0.026502999, -22975.994, 2.1226773, 0.0, 0.001126672, -0.026306892, 0.0 
3.6621094e-2, 2.0685044e+1, -0.026602393, -22949.318, -6.667473, 0.0, 0.00052391447, -0.024665289, 0.0 
3.6621094e-2, 2.0708916e+1, -0.026750525, -22925.92, 4.6058083, 0.0, 0.0012429107, -0.02582522, 0.0 
3.6621094e-2, 2.0732789e+1, -0.026763605, -22917.615, 3.0273595, 0.0, 0.0013932557, -0.026363699, 0.0 
3.6621094e-2, 2.0756662e+1, -0.026819974, -22887.125, -6.5583525, 0.0, 0.0007658944, -0.024940662, 0.0 
3.6621094e-2, 2.0780537e+1, -0.026838394, -22876.184, 6.3111897, 0.0, 0.0010071517, -0.02509723, 0.0 
3.6621094e-2, 2.0804411e+1, -0.026898036, -22872.09, -15.481211, 0.0, 0.0011304141, -0.01641941, 0.0 
3.6621094e-2, 2.0828286e+1, -0.03666308, -22826.53, 100.87815, 0.0, 0.0009849967, 0.40914357, 0.0 
3.6621094e-2, 2.0852159e+1, -0.026942084, -22799.639, -16.308687, 0.0, 0.0009568243, -0.015276398, 0.0 
3.6621094e-2, 2.0876035e+1, -0.026989976, -22797.186, 2.2969508, 0.0, 0.0012510736, -0.026758544, 0.0 
3.6621094e-2, 2.0899911e+1, -0.02708904, -22771.035, 0.97946936, 0.0, 0.0010818224, -0.027046911, 0.0 
3.6621094e-2, 2.0923787e+1, -0.027307093, -22753.66, 3.8926797, 0.0, 0.0007619305, -0.026641136, 0.0 
3.6621094e-2, 2.0947666e+1, -0.027442418, -22738.95, 1.8536826, 0.0, 0.0010890061, -0.027291305, 0.0 
3.6621094e-2, 2.0971543e+1, -0.027632715, -22717.723, -1.2823008, 0.0, 0.0012978126, -0.027560337, 0.0 
3.6621094e-2, 2.099542e+1, -0.027711092, -22695.432, -1.3452985, 0.0, 0.0009068535, -0.027631348, 0.0 
3.6621094e-2, 2.1019298e+1, -0.027946545, -22676.025, 10.397254, 0.0, 0.0010585771, -0.023179263, 0.0 
3.6621094e-2, 2.1043178e+1, -0.027846834, -22659.352, -1.0134668, 0.0, 0.0011590589, -0.027801504, 0.0 
3.6621094e-2, 2.1067056e+1, -0.027892292, -22637.475, -2.5315175, 0.0, 0.0009369343, -0.027609196, 0.0 
3.6621094e-2, 2.1090937e+1, -0.027732043, -22616.662, -0.40202585, 0.0, 0.0010203272, -0.027724897, 0.0 
3.6621094e-2, 2.1114817e+1, -0.027673637, -22598.596, 1.622097, 0.0, 0.0012611242, -0.027557205, 0.0 
3.6621094e-2, 2.1138696e+1, -0.027529234, -22582.273, -1.0878761, 0.0, 0.0010021084, -0.027476827, 0.0 
3.6621094e-2, 2.1162578e+1, -0.027612388, -22556.174, 0.24088874, 0.0, 0.0010485271, -0.027609816, 0.0 
3.6621094e-2, 2.118646e+1, -0.02759535, -22542.705, 2.3219666, 0.0, 0.0011410653, -0.027356181, 0.0 
3.6621094e-2, 2.1210343e+1, -0.027715998, -22520.271, -3.1346507, 0.0, 0.001044988, -0.027279679, 0.0 
3.6621094e-2, 2.1234225e+1, -0.027741835, -22500.695, -2.4704099, 0.0, 0.0010778822, -0.027470602, 0.0 
3.6621094e-2, 2.1258108e+1, -0.027913917, -22478.225, 3.6763282, 0.0, 0.0011776527, -0.02731265, 0.0 
3.6621094e-2, 2.128199e+1, -0.02802787, -22468.242, 0.6735855, 0.0, 0.0009951397, -0.028007677, 0.0 
3.6621094e-2, 2.1305874e+1, -0.028215546, -22438.945, -2.566173, 0.0, 0.0011947377, -0.027922072, 0.0 
3.6621094e-2, 2.1329758e+1, -0.028241144, -22424.037, 0.15244286, 0.0, 0.001159833, -0.028240107, 0.0 
3.6621094e-2, 2.1353644e+1, -0.028235188, -22402.574, -0.3452188, 0.0, 0.0010124606, -0.028229868, 0.0 
3.6621094e-2, 2.1377528e+1, -0.028209738, -22385.344, -0.6592885, 0.0, 0.00116059, -0.02819032, 0.0 
3.6621094e-2, 2.1401413e+1, -0.02821082, -22361.574, 0.34845418, 0.0, 0.0011759368, -0.02820539, 0.0 
3.6621094e-2, 2.14253e+1, -0.028169861, -22347.854, -0.6737268, 0.0, 0.0010023011, -0.02814955, 0.0 
3.6621094e-2, 2.1449186e+1, -0.02820392, -22323.12, -0.28561148, 0.0, 0.0012544454, -0.028200265, 0.0 
3.6621094e-2, 2.1473072e+1, -0.02825102, -22309.863, -1.9118936, 0.0, 0.0011692247, -0.028087176, 0.0 
3.6621094e-2, 2.1496959e+1, -0.028445493, -22283.275, 11.694873, 0.0, 0.0010490854, -0.022307698, 0.0 
3.6621094e-2, 2.1520847e+1, -0.028371874, -22267.975, -2.6042879, 0.0, 0.0012395219, -0.028067296, 0.0 
3.6621094e-2, 2.1544735e+1, -0.02850282, -22244.633, 0.038446896, 0.0, 0.0011706819, -0.028502753, 0.0 
3.6621094e-2, 2.1568625e+1, -0.028699301, -22230.912, 0.016168846, 0.0, 0.0009873017, -0.02869929, 0.0 
3.6621094e-2, 2.1592514e+1, -0.028889831, -22206.73, -0.43768543, 0.0, 0.0012740582, -0.028881205, 0.0 
3.6621094e-2, 2.1616404e+1, -0.029051779, -22191.549, -1.2646153, 0.0, 0.0013113812, -0.028979713, 0.0 
3.6621094e-2, 2.1640293e+1, -0.029064119, -22165.635, 0.40452173, 0.0, 0.0010659683, -0.029056735, 0.0 
3.6621094e-2, 2.1664183e+1, -0.02913265, -22152.434, 1.7101945, 0.0, 0.0010792358, -0.029000621, 0.0 
3.6621094e-2, 2.1688074e+1, -0.029178536, -22131.23, -1.5840012, 0.0, 0.0012457334, -0.029065162, 0.0 
3.6621094e-2, 2.1711965e+1, -0.029384028, -22110.322, -1.5725516, 0.0, 0.0013167964, -0.029272184, 0.0 
3.6621094e-2, 2.1735857e+1, -0.029450372, -22090.33, 1.1357664, 0.0, 0.0011557934, -0.029391976, 0.0 
3.6621094e-2, 2.1759748e+1, -0.029502653, -22072.537, 0.41694534, 0.0, 0.0010249139, -0.029494775, 0.0 
3.6621094e-2, 2.1783642e+1, -0.0293958, -22051.572, -0.40886447, 0.0, 0.0012399482, -0.02938822, 0.0 
3.6621094e-2, 2.1807535e+1, -0.029512124, -22033.063, -0.8467422, 0.0, 0.0014357254, -0.029479584, 0.0 
3.6621094e-2, 2.1831429e+1, -0.029425332, -22013.51, 0.43989542, 0.0, 0.0011338885, -0.029416543, 0.0 
3.6621094e-2, 2.1855322e+1, -0.029497532, -21994.299, 0.21076027, 0.0, 0.001006929, -0.029495513, 0.0 
3.6621094e-2, 2.1879217e+1, -0.02951347, -21972.002, -1.4112751, 0.0, 0.0012899417, -0.029422823, 0.0 
3.6621094e-2, 2.1903111e+1, -0.029683486, -21949.705, 6.0601635, 0.0, 0.0013931132, -0.028010312, 0.0 
3.6621094e-2, 2.1927005e+1, -0.029598342, -21939.596, 11.453767, 0.0, 0.0011542101, -0.023618791, 0.0 
3.6621094e-2, 2.1950904e+1, -0.029671218, -21915.035, 2.1267788, 0.0, 0.0011307941, -0.02946482, 0.0 
3.6621094e-2, 2.1974798e+1, -0.029568205, -21894.145, 2.9909587, 0.0, 0.001144798, -0.02915961, 0.0 
3.6621094e-2, 2.1998696e+1, -0.029644692, -21875.398, 8.864227, 0.0, 0.0015099245, -0.026052775, 0.0 
3.6621094e-2, 2.2022593e+1, -0.029554812, -21862.373, 3.5655124, 0.0, 0.0013528006, -0.028973317, 0.0 
3.6621094e-2, 2.204649e+1, -0.02967837, -21835.797, -3.373711, 0.0, 0.00074522273, -0.02915712, 0.0 
3.6621094e-2, 2.2070387e+1, -0.029650152, -21817.709, 0.5991252, 0.0, 0.0012041403, -0.029633699, 0.0 
3.6621094e-2, 2.2094285e+1, -0.029748555, -21796.47, 3.4534788, 0.0, 0.0018100647, -0.029201379, 0.0 
3.6621094e-2, 2.2118185e+1, -0.029663123, -21782.598, -1.8984526, 0.0, 0.0010869141, -0.029497663, 0.0 
3.6621094e-2, 2.2142084e+1, -0.02975245, -21753.03, 0.90431637, 0.0, 0.0009780665, -0.029714856, 0.0 
3.6621094e-2, 2.2165985e+1, -0.02972708, -21746.037, 2.124427, 0.0, 0.0013510307, -0.02951954, 0.0 
3.6621094e-2, 2.2189884e+1, -0.029790089, -21714.857, -3.3980236, 0.0, 0.0013491879, -0.029258352, 0.0 
3.6621094e-2, 2.2213785e+1, -0.02973717, -21704.389, 0.9949989, 0.0, 0.0012123575, -0.029691556, 0.0 
3.6621094e-2, 2.2237687e+1, -0.029850714, -21682.563, -3.103529, 0.0, 0.0012543497, -0.02940649, 0.0 
3.6621094e-2, 2.2261587e+1, -0.031427015, -21666.375, 40.083607, 0.0, 0.0011914475, 0.042729013, 0.0 
3.6621094e-2, 2.228549e+1, -0.030074423, -21629.195, -3.8930125, 0.0, 0.0013689959, -0.029373724, 0.0 
3.6621094e-2, 2.2309393e+1, -0.030026648, -21629.14, 3.855293, 0.0, 0.0012489764, -0.029339459, 0.0 
3.6621094e-2, 2.2333296e+1, -0.029967407, -21596.764, -0.2503951, 0.0, 0.0012065568, -0.029964505, 0.0 
3.6621094e-2, 2.2357199e+1, -0.029902607, -21585.564, 5.29054, 0.0, 0.0013074421, -0.028605916, 0.0 
3.6621094e-2, 2.2381102e+1, -0.029793197, -21558.95, 5.724314, 0.0, 0.0012734733, -0.028273279, 0.0 
3.6621094e-2, 2.2405006e+1, -0.029642852, -21551.693, 2.004175, 0.0, 0.0011585519, -0.029456476, 0.0 
3.6621094e-2, 2.2428912e+1, -0.029442688, -21516.64, 1.234686, 0.0, 0.0013977536, -0.029371839, 0.0 
3.6621094e-2, 2.2452816e+1, -0.029366413, -21514.016, 1.4371395, 0.0, 0.0012874107, -0.02927041, 0.0 
3.6621094e-2, 2.2476722e+1, -0.029562958, -21477.732, -0.5300534, 0.0, 0.0012004562, -0.029549876, 0.0 
3.6621094e-2, 2.2500628e+1, -0.029858898, -21472.484, -0.28506655, 0.0, 0.0012078611, -0.029855115, 0.0 
3.6621094e-2, 2.2524534e+1, -0.02992618, -21437.17, 0.78736734, 0.0, 0.0013435133, -0.029897261, 0.0 
3.6621094e-2, 2.2548442e+1, -0.029889358, -21436.285, 2.157871, 0.0, 0.0013650607, -0.029672137, 0.0 
3.6621094e-2, 2.2572349e+1, -0.029913485, -21400.135, -0.9682941, 0.0, 0.0011822884, -0.029869672, 0.0 
3.6621094e-2, 2.2596256e+1, -0.030072754, -21394.072, -1.4162068, 0.0, 0.0011104572, -0.029979007, 0.0 
3.6621094e-2, 2.2620165e+1, -0.030111654, -21355.795, 12.810057, 0.0, 0.0014601806, -0.022427663, 0.0 
3.6621094e-2, 2.2644073e+1, -0.030107196, -21362.203, 5.07828, 0.0, 0.0012750389, -0.028899973, 0.0 
3.6621094e-2, 2.2667982e+1, -0.030011956, -21321.738, -4.0987673, 0.0, 0.0011654971, -0.029224033, 0.0 
3.6621094e-2, 2.2691892e+1, -0.030067677, -21319.38, -0.7191602, 0.0, 0.0013265143, -0.030043418, 0.0 
3.6621094e-2, 2.2715802e+1, -0.030229481, -21284.688, -1.3589691, 0.0, 0.0012303069, -0.030142713, 0.0 
3.6621094e-2, 2.2739714e+1, -0.031147173, -21279.836, 28.4972, 0.0, 0.0012609346, 0.0070152567, 0.0 
3.6621094e-2, 2.2763625e+1, -0.03049572, -21239.918, -5.7287803, 0.0, 0.0013832873, -0.028950565, 0.0 
3.6621094e-2, 2.2787535e+1, -0.030540185, -21241.621, -2.1593654, 0.0, 0.00094818097, -0.03032067, 0.0 
3.6621094e-2, 2.2811447e+1, -0.030485569, -21201.828, 1.4686048, 0.0, 0.0012715115, -0.03038384, 0.0 
3.6621094e-2, 2.2835359e+1, -0.030503526, -21201.795, 4.9797287, 0.0, 0.0017732078, -0.029333921, 0.0 
3.6621094e-2, 2.2859272e+1, -0.030385839, -21171.055, -1.8622572, 0.0, 0.0010334447, -0.03022203, 0.0 
3.6621094e-2, 2.2883184e+1, -0.030294033, -21157.705, -4.736981, 0.0, 0.0007450369, -0.029233472, 0.0 
3.6621094e-2, 2.2907099e+1, -0.030224042, -21125.193, 3.1845236, 0.0, 0.0015852852, -0.02974399, 0.0 
3.6621094e-2, 2.2931013e+1, -0.030415291, -21123.393, 2.509371, 0.0, 0.0014639862, -0.030117188, 0.0 
3.6621094e-2, 2.2954927e+1, -0.030714408, -21093.547, -1.4113069, 0.0, 0.0009811245, -0.03061998, 0.0 
3.6621094e-2, 2.2978844e+1, -0.03089642, -21077.002, 0.4617473, 0.0, 0.0013268902, -0.030886304, 0.0 
3.6621094e-2, 2.3002759e+1, -0.031017622, -21052.664, -0.32716975, 0.0, 0.0013502499, -0.031012537, 0.0 
3.6621094e-2, 2.3026675e+1, -0.031191135, -21039.348, 0.11412438, 0.0, 0.0009832286, -0.031190515, 0.0 
3.6621094e-2, 2.305059e+1, -0.031386413, -21020.281, -1.0513997, 0.0, 0.0011654246, -0.031333823, 0.0 
3.6621094e-2, 2.3074506e+1, -0.031558238, -20997.787, 14.926345, 0.0, 0.0017001746, -0.020947786, 0.0 
3.6621094e-2, 2.3098426e+1, -0.03144057, -20972.752, 10.038472, 0.0, 0.0013503532, -0.026635714, 0.0 
3.6621094e-2, 2.312234e+1, -0.0312959, -20959.0, 5.816395, 0.0, 0.00048644026, -0.029681772, 0.0 
3.6621094e-2, 2.314626e+1, -0.031470183, -20941.705, -1.9861904, 0.0, 0.0011408093, -0.031281807, 0.0 
3.6621094e-2, 2.3170179e+1, -0.031531055, -20912.236, 2.7148874, 0.0, 0.0022912053, -0.031178597, 0.0 
3.6621094e-2, 2.3194097e+1, -0.031826347, -20903.482, 12.740368, 0.0, 0.0011066069, -0.024061268, 0.0 
3.6621094e-2, 2.3218018e+1, -0.03183085, -20880.229, 5.2727, 0.0, 0.00036335972, -0.030499382, 0.0 
3.6621094e-2, 2.3241937e+1, -0.032031734, -20864.918, 0.019981058, 0.0, 0.0014775698, -0.032031715, 0.0 
3.6621094e-2, 2.3265858e+1, -0.032029998, -20839.975, -2.5501206, 0.0, 0.0017568344, -0.03171795, 0.0 
3.6621094e-2, 2.3289777e+1, -0.032207105, -20821.664, -1.8094673, 0.0, 0.0011324793, -0.032049857, 0.0 
3.6621094e-2, 2.33137e+1, -0.03213843, -20797.025, 5.3772125, 0.0, 0.0009958721, -0.030748112, 0.0 
3.6621094e-2, 2.3337622e+1, -0.032274146, -20792.357, -0.06124474, 0.0, 0.0010426879, -0.032273967, 0.0 
3.6621094e-2, 2.3361544e+1, -0.032263495, -20755.229, -4.003779, 0.0, 0.0017789152, -0.031491145, 0.0 
3.6621094e-2, 2.3385465e+1, -0.032383632, -20748.482, 1.5362953, 0.0, 0.0014660473, -0.032269876, 0.0 
3.6621094e-2, 2.3409389e+1, -0.032304794, -20718.04, -0.0030776928, 0.0, 0.00056582503, -0.032304794, 0.0 
3.6621094e-2, 2.3433313e+1, -0.032282494, -20710.242, 2.7282248, 0.0, 0.0012394289, -0.031923097, 0.0 
3.6621094e-2, 2.3457237e+1, -0.032170188, -20681.863, -1.8478239, 0.0, 0.0018310718, -0.032005094, 0.0 
3.6621094e-2, 2.348116e+1, -0.032271322, -20668.715, -4.8263817, 0.0, 0.001046925, -0.031144304, 0.0 
3.6621094e-2, 2.3505087e+1, -0.032349057, -20636.09, 6.374746, 0.0, 0.0011743611, -0.030379815, 0.0 
3.6621094e-2, 2.3529011e+1, -0.03252195, -20646.068, -4.461193, 0.0, 0.0014138662, -0.031557973, 0.0 
3.6621094e-2, 2.3552936e+1, -0.036268435, -20596.73, 65.63839, 0.0, 0.0011593428, 0.17290856, 0.0 
3.6621094e-2, 2.3576862e+1, -0.032581177, -20587.24, -8.280974, 0.0, 0.0012410851, -0.029250246, 0.0 
3.6621094e-2, 2.360079e+1, -0.032436058, -20558.354, 3.892479, 0.0, 0.0014495987, -0.031699065, 0.0 
3.6621094e-2, 2.3624718e+1, -0.032366786, -20555.605, 2.7885833, 0.0, 0.0010298622, -0.031988487, 0.0 
3.6621094e-2, 2.3648645e+1, -0.032395057, -20516.105, 7.0346193, 0.0, 0.0013846979, -0.029983003, 0.0 
3.6621094e-2, 2.3672573e+1, -0.032494336, -20523.31, 6.4781284, 0.0, 0.0016945836, -0.03044953, 0.0 
3.6621094e-2, 2.36965e+1, -0.03259761, -20482.137, -2.947915, 0.0, 0.0008923016, -0.032173324, 0.0 
3.6621094e-2, 2.372043e+1, -0.032818023, -20477.662, -4.201696, 0.0, 0.0008584608, -0.031955898, 0.0 
3.6621094e-2, 2.374436e+1, -0.033047926, -20436.652, 3.401285, 0.0, 0.0018749225, -0.03248185, 0.0 
3.6621094e-2, 2.376829e+1, -0.033183157, -20446.256, 7.781365, 0.0, 0.0014675793, -0.03022175, 0.0 
3.6621094e-2, 2.3792219e+1, -0.03326139, -20399.596, -5.211116, 0.0, 0.0008919338, -0.031930197, 0.0 
3.6621094e-2, 2.381615e+1, -0.033367094, -20400.646, -2.6449087, 0.0, 0.0012733677, -0.033024184, 0.0 
3.6621094e-2, 2.3840082e+1, -0.03342561, -20361.666, 1.7464498, 0.0, 0.0015008994, -0.033275817, 0.0 
3.6621094e-2, 2.3864013e+1, -0.03336572, -20366.545, 0.551101, 0.0, 0.001191035, -0.033350807, 0.0 
3.6621094e-2, 2.3887946e+1, -0.033285484, -20320.85, -0.82110745, 0.0, 0.0012662247, -0.033252306, 0.0 
3.6621094e-2, 2.3911877e+1, -0.033188608, -20326.68, -0.36699885, 0.0, 0.0015128766, -0.033181984, 0.0 
3.6621094e-2, 2.393581e+1, -0.03331019, -20282.012, -0.122849, 0.0, 0.0013409896, -0.033309445, 0.0 
3.6621094e-2, 2.3959744e+1, -0.03343237, -20288.059, 0.7617246, 0.0, 0.00075853476, -0.03340377, 0.0 
3.6621094e-2, 2.3983677e+1, -0.033599235, -20245.596, -0.9243383, 0.0, 0.0014258145, -0.03355703, 0.0 
3.6621094e-2, 2.4007612e+1, -0.033625662, -20246.893, -2.3003376, 0.0, 0.0021943916, -0.03336431, 0.0 
3.6621094e-2, 2.4031545e+1, -0.03374072, -20204.629, 0.16037768, 0.0, 0.0010090226, -0.033739448, 0.0 
3.6621094e-2, 2.4055481e+1, -0.033808988, -20207.1, 3.0274572, 0.0, 0.00023904993, -0.03335541, 0.0 
3.6621094e-2, 2.4079418e+1, -0.033983268, -20170.799, -2.1865647, 0.0, 0.001868315, -0.03374624, 0.0 
3.6621094e-2, 2.4103354e+1, -0.033938378, -20165.438, -4.519286, 0.0, 0.0021825144, -0.032925557, 0.0 
3.6621094e-2, 2.4127291e+1, -0.03388432, -20130.041, 2.3553588, 0.0, 0.00068518764, -0.033608727, 0.0 
3.6621094e-2, 2.4151228e+1, -0.033717718, -20128.297, 0.40619758, 0.0, 0.0010541313, -0.033709522, 0.0 
3.6621094e-2, 2.4175166e+1, -0.033675946, -20091.307, -1.9215095, 0.0, 0.0018576068, -0.033492174, 0.0 
3.6621094e-2, 2.4199103e+1, -0.033664845, -20087.27, 0.21456216, 0.0, 0.00085829827, -0.033662554, 0.0 
3.6621094e-2, 2.422304e+1, -0.033868447, -20059.26, -7.538139, 0.0, 0.0011856579, -0.031035658, 0.0 
3.6621094e-2, 2.4246979e+1, -0.0351318, -20045.672, 36.6237, 0.0, 0.0021620847, 0.031780068, 0.0 
3.6621094e-2, 2.4270917e+1, -0.0341652, -20022.176, -13.831748, 0.0, 0.0011322682, -0.024609922, 0.0 
3.6621094e-2, 2.4294859e+1, -0.036379848, -19999.031, 50.114826, 0.0, 0.0006785817, 0.08920046, 0.0 
3.6621094e-2, 2.4318798e+1, -0.03427255, -19976.934, -9.067935, 0.0, 0.0015486283, -0.030156424, 0.0 
3.6621094e-2, 2.434274e+1, -0.034361534, -19963.389, -1.5091174, 0.0, 0.0018094733, -0.034247454, 0.0 
3.6621094e-2, 2.436668e+1, -0.034434583, -19939.813, 1.2309704, 0.0, 0.0012300274, -0.03435859, 0.0 
3.6621094e-2, 2.4390621e+1, -0.034365516, -19925.373, -1.7481902, 0.0, 0.0009855925, -0.034212135, 0.0 
3.6621094e-2, 2.4414565e+1, -0.034286197, -19903.084, -1.1887757, 0.0, 0.0014635193, -0.034215193, 0.0 
3.6621094e-2, 2.4438505e+1, -0.03418395, -19881.678, 3.2093458, 0.0, 0.0015678346, -0.033665888, 0.0 
3.6621094e-2, 2.4462448e+1, -0.03415917, -19869.693, -2.2298193, 0.0, 0.0012180854, -0.033908933, 0.0 
3.6621094e-2, 2.4486393e+1, -0.034197856, -19841.998, -0.35903385, 0.0, 0.0013740343, -0.03419136, 0.0 
3.6621094e-2, 2.4510336e+1, -0.034263697, -19828.342, 0.3711363, 0.0, 0.0013112748, -0.03425675, 0.0 
3.6621094e-2, 2.453428e+1, -0.034346905, -19798.613, -0.5542187, 0.0, 0.0014301555, -0.03433139, 0.0 
3.6621094e-2, 2.4558224e+1, -0.03434048, -19796.154, 4.4357896, 0.0, 0.0014179972, -0.033346534, 0.0 
3.6621094e-2, 2.458217e+1, -0.03433566, -19769.857, -11.555823, 0.0, 0.001219319, -0.027581075, 0.0 
3.6621094e-2, 2.4606115e+1, -0.050617386, -19742.332, 168.86931, 0.0, 0.001408138, 1.3937322, 0.0 
3.6621094e-2, 2.4630062e+1, -0.03446413, -19717.908, 8.944098, 0.0, 0.0014546573, -0.030407054, 0.0 
3.6621094e-2, 2.4654007e+1, -0.034409333, -19719.346, 8.33847, 0.0, 0.0011629163, -0.030883346, 0.0 
3.6621094e-2, 2.4677956e+1, -0.034285143, -19676.832, -0.763654, 0.0, 0.001579543, -0.034255505, 0.0 
3.6621094e-2, 2.4701902e+1, -0.03429982, -19673.754, 11.4717865, 0.0, 0.0015007308, -0.0276106, 0.0 
3.6621094e-2, 2.4725848e+1, -0.034477558, -19648.445, 12.907553, 0.0, 0.0010537131, -0.025998255, 0.0 
3.6621094e-2, 2.4749798e+1, -0.034557022, -19635.736, 1.5473891, 0.0, 0.0014236128, -0.03443508, 0.0 
3.6621094e-2, 2.4773747e+1, -0.034578133, -19600.953, 3.518273, 0.0, 0.0015912359, -0.03394662, 0.0 
3.6621094e-2, 2.4797696e+1, -0.034460943, -19605.799, 3.0943685, 0.0, 0.000992767, -0.03397256, 0.0 
3.6621094e-2, 2.4821645e+1, -0.034422345, -19560.904, -2.9171576, 0.0, 0.0016396597, -0.033987302, 0.0 
3.6621094e-2, 2.4845596e+1, -0.03434465, -19558.045, 0.0819453, 0.0, 0.0017746127, -0.034344308, 0.0 
3.6621094e-2, 2.4869546e+1, -0.034288965, -19524.053, 0.9139608, 0.0, 0.000773348, -0.03424618, 0.0 
3.6621094e-2, 2.4893497e+1, -0.03426455, -19523.26, -0.9922919, 0.0, 0.0013221792, -0.034214117, 0.0 
3.6621094e-2, 2.4917448e+1, -0.034308895, -19479.758, 1.9836532, 0.0, 0.001907879, -0.0341069, 0.0 
3.6621094e-2, 2.4941401e+1, -0.03442201, -19487.848, 0.4219701, 0.0, 0.00074995705, -0.034412876, 0.0 
3.6621094e-2, 2.4965353e+1, -0.034594964, -19438.893, 0.3563351, 0.0, 0.0015533154, -0.034588434, 0.0 
3.6621094e-2, 2.4989305e+1, -0.035931267, -19446.113, 56.15961, 0.0, 0.0023331281, 0.12625444, 0.0 
3.6621094e-2, 2.501326e+1, -0.03484182, -19403.701, 6.577686, 0.0, 0.0005354419, -0.032612037, 0.0 
3.6621094e-2, 2.503721e+1, -0.03490248, -19409.537, -0.7157041, 0.0, 0.0006106367, -0.034876086, 0.0 
3.6621094e-2, 2.5061166e+1, -0.034964528, -19361.604, 3.6979582, 0.0, 0.0024108398, -0.03425824, 0.0 
3.6621094e-2, 2.508512e+1, -0.035108592, -19372.563, 10.807, 0.0, 0.00152366, -0.029079892, 0.0 
3.6621094e-2, 2.5109076e+1, -0.03510534, -19320.195, 0.310861, 0.0, 0.00083319907, -0.035100337, 0.0 
3.6621094e-2, 2.5133032e+1, -0.035174005, -19334.533, 5.218579, 0.0, 0.0015333823, -0.033765454, 0.0 
3.6621094e-2, 2.5156987e+1, -0.035331603, -19287.95, -1.7770039, 0.0, 0.0014107055, -0.035167888, 0.0 
3.6621094e-2, 2.5180942e+1, -0.035544742, -19289.396, -3.0436091, 0.0, 0.0013148354, -0.0350645, 0.0 
3.6621094e-2, 2.52049e+1, -0.035760563, -19245.11, 4.296477, 0.0, 0.0015024946, -0.03480137, 0.0 
3.6621094e-2, 2.5228858e+1, -0.03573587, -19256.166, -1.2459983, 0.0, 0.0011455624, -0.03565525, 0.0 
3.6621094e-2, 2.5252816e+1, -0.035665073, -19205.879, -0.3561345, 0.0, 0.0015158418, -0.035658468, 0.0 
3.6621094e-2, 2.5276774e+1, -0.03547367, -19213.389, 6.5157633, 0.0, 0.0014089957, -0.033264, 0.0 
3.6621094e-2, 2.5300732e+1, -0.03541908, -19172.479, -2.3498454, 0.0, 0.0011602017, -0.035131074, 0.0 
3.6621094e-2, 2.532469e+1, -0.035429183, -19169.076, -3.0581443, 0.0, 0.0017096834, -0.0349413, 0.0 
3.6621094e-2, 2.534865e+1, -0.03569035, -19133.314, 3.7276666, 0.0, 0.0012997199, -0.0349641, 0.0 
3.6621094e-2, 2.537261e+1, -0.035808515, -19134.703, -1.2124761, 0.0, 0.0009878391, -0.035731684, 0.0 
3.6621094e-2, 2.539657e+1, -0.03610347, -19090.598, 1.4402485, 0.0, 0.0017313135, -0.035994813, 0.0 
3.6621094e-2, 2.5420532e+1, -0.03622447, -19093.04, 3.0431592, 0.0, 0.0011975934, -0.035739433, 0.0 
3.6621094e-2, 2.5444493e+1, -0.036473397, -19058.014, -0.61204964, 0.0, 0.0012167593, -0.036453743, 0.0 
3.6621094e-2, 2.5468454e+1, -0.03650115, -19051.05, 7.363937, 0.0, 0.0017909898, -0.03365471, 0.0 
3.6621094e-2, 2.5492418e+1, -0.03650609, -19019.414, 0.14918591, 0.0, 0.0010769236, -0.03650492, 0.0 
3.6621094e-2, 2.551638e+1, -0.036408745, -19006.166, 0.5610957, 0.0, 0.0013306466, -0.03639218, 0.0 
3.6621094e-2, 2.5540343e+1, -0.03640575, -18985.037, 4.9064517, 0.0, 0.0015448084, -0.035137735, 0.0 
3.6621094e-2, 2.5564307e+1, -0.036300573, -18972.996, -2.9515836, 0.0, 0.001032206, -0.0358414, 0.0 
3.6621094e-2, 2.558827e+1, -0.03648171, -18936.787, 2.7294314, 0.0, 0.0016282158, -0.036088306, 0.0 
3.6621094e-2, 2.5612235e+1, -0.036612604, -18934.64, 2.714828, 0.0, 0.001186016, -0.036223356, 0.0 
3.6621094e-2, 2.56362e+1, -0.03667817, -18903.12, -4.583251, 0.0, 0.0008961398, -0.035566915, 0.0 
3.6621094e-2, 2.5660166e+1, -0.036461737, -18886.834, 7.8824086, 0.0, 0.0022632575, -0.033172015, 0.0 
3.6621094e-2, 2.568413e+1, -0.03633988, -18874.656, -1.9266733, 0.0, 0.0013653759, -0.03614321, 0.0 
3.6621094e-2, 2.5708097e+1, -0.036199875, -18843.592, -3.508522, 0.0, 0.00034519416, -0.035546616, 0.0 
3.6621094e-2, 2.5732064e+1, -0.03639794, -18833.541, 10.181175, 0.0, 0.0015707033, -0.030894117, 0.0 
3.6621094e-2, 2.575603e+1, -0.036596302, -18806.0, -6.36287, 0.0, 0.0019191062, -0.034443468, 0.0 
3.6621094e-2, 2.5779998e+1, -0.036944415, -18762.771, 19.965765, 0.0, 0.0010053975, -0.015698507, 0.0 
3.6621094e-2, 2.5803965e+1, -0.03696848, -18776.48, 61.196243, 0.0, 0.0012476222, 0.1624804, 0.0 
3.6621094e-2, 2.5827935e+1, -0.036978252, -18776.166, 27.65511, 0.0, 0.0015870143, 0.0037545, 0.0 
3.6621094e-2, 2.5851905e+1, -0.036727566, -18727.043, -8.003785, 0.0, 0.0010191229, -0.033306807, 0.0 
3.6621094e-2, 2.5875872e+1, -0.03665517, -18713.271, 1.6042562, 0.0, 0.0012107213, -0.03651764, 0.0 
3.6621094e-2, 2.5899842e+1, -0.03654062, -18690.13, 5.9640017, 0.0, 0.0017504196, -0.03463751, 0.0 
3.6621094e-2, 2.5923812e+1, -0.03659575, -18678.4, -2.8254464, 0.0, 0.0011068668, -0.03616835, 0.0 
3.6621094e-2, 2.5947785e+1, -0.036635023, -18646.889, 0.62505066, 0.0, 0.0013024006, -0.036614068, 0.0 
3.6621094e-2, 2.5971755e+1, -0.03678183, -18641.178, 4.6922174, 0.0, 0.0014703029, -0.035600737, 0.0 
3.6621094e-2, 2.5995728e+1, -0.036767203, -18607.752, -4.359978, 0.0, 0.001119718, -0.035745617, 0.0 
3.6621094e-2, 2.6019698e+1, -0.03681782, -18598.027, -2.5043051, 0.0, 0.0014194174, -0.036480606, 0.0 
3.6621094e-2, 2.604367e+1, -0.03682396, -18569.758, 5.436326, 0.0, 0.0013845147, -0.035232462, 0.0 
3.6621094e-2, 2.6067644e+1, -0.037016742, -18564.805, -1.1181827, 0.0, 0.0010747977, -0.036949392, 0.0 
3.6621094e-2, 2.609162e+1, -0.037036564, -18524.598, -0.64963114, 0.0, 0.0016251088, -0.037013784, 0.0 
3.6621094e-2, 2.6115593e+1, -0.037030697, -18527.809, 3.706802, 0.0, 0.0013552582, -0.036289085, 0.0 
3.6621094e-2, 2.6139566e+1, -0.037040725, -18486.035, -2.3165588, 0.0, 0.001141475, -0.03675043, 0.0 
3.6621094e-2, 2.6163542e+1, -0.037267756, -18484.387, -1.0559233, 0.0, 0.0014082222, -0.037207436, 0.0 
3.6621094e-2, 2.6187518e+1, -0.037569147, -18450.8, 1.0357652, 0.0, 0.0013237902, -0.037511002, 0.0 
3.6621094e-2, 2.621149e+1, -0.03796458, -18448.695, -0.03409642, 0.0, 0.0014815645, -0.037964515, 0.0 
3.6621094e-2, 2.623547e+1, -0.03824288, -18402.313, 2.3191843, 0.0, 0.0013552814, -0.0379506, 0.0 
3.6621094e-2, 2.6259446e+1, -0.03847741, -18411.125, 0.87267977, 0.0, 0.00085861934, -0.038436044, 0.0 
3.6621094e-2, 2.6283422e+1, -0.038431454, -18362.803, 11.071394, 0.0, 0.0018128242, -0.031756222, 0.0 
3.6621094e-2, 2.63074e+1, -0.03854812, -18378.385, 16.52685, 0.0, 0.0016613972, -0.023686253, 0.0 
3.6621094e-2, 2.633138e+1, -0.03873358, -18325.172, 0.96969324, 0.0, 0.00084181083, -0.038682267, 0.0 
3.6621094e-2, 2.6355356e+1, -0.03887733, -18332.012, 5.048217, 0.0, 0.0014874296, -0.037487164, 0.0 
3.6621094e-2, 2.6379335e+1, -0.03883473, -18292.83, 8.280285, 0.0, 0.0015418767, -0.03508663, 0.0 
3.6621094e-2, 2.6403314e+1, -0.038967825, -18296.861, -1.9767506, 0.0, 0.0011139172, -0.038754262, 0.0 
3.6621094e-2, 2.6427296e+1, -0.039072845, -18244.111, 4.701554, 0.0, 0.0016065213, -0.037861243, 0.0 
3.6621094e-2, 2.6451275e+1, -0.039247848, -18265.123, 1.2016433, 0.0, 0.0013471242, -0.039168794, 0.0 
3.6621094e-2, 2.6475257e+1, -0.039312422, -18203.572, -2.2730217, 0.0, 0.0013842615, -0.039028596, 0.0 
3.6621094e-2, 2.6499236e+1, -0.03945189, -18221.4, 3.2635329, 0.0, 0.0013604267, -0.038867377, 0.0 
3.6621094e-2, 2.6523218e+1, -0.039560333, -18174.617, -4.4557695, 0.0, 0.0013086562, -0.038467936, 0.0 
3.6621094e-2, 2.6547202e+1, -0.03963845, -18174.484, 3.4481263, 0.0, 0.0017485917, -0.038984258, 0.0 
3.6621094e-2, 2.6571184e+1, -0.03965184, -18136.688, 1.4826998, 0.0, 0.0012644363, -0.039530627, 0.0 
3.6621094e-2, 2.6595166e+1, -0.0396117, -18135.504, -9.837578, 0.0, 0.0011226245, -0.034275312, 0.0 
3.6621094e-2, 2.661915e+1, -0.039678585, -18096.275, 6.954352, 0.0, 0.0017787134, -0.03700604, 0.0 
3.6621094e-2, 2.6643133e+1, -0.039854154, -18119.049, -14.639787, 0.0, 0.0012210605, -0.028025517, 0.0 
3.6621094e-2, 2.6667118e+1, -0.050478023, -18049.451, 101.99356, 0.0, 0.0013628248, 0.5258488, 0.0 
3.6621094e-2, 2.6691103e+1, -0.039795298, -18047.246, -17.514048, 0.0, 0.0017899704, -0.022798676, 0.0 
3.6621094e-2, 2.6715088e+1, -0.03958795, -18017.688, 3.4387603, 0.0, 0.0012738763, -0.03893164, 0.0 
3.6621094e-2, 2.6739073e+1, -0.039416324, -18013.092, 1.7008301, 0.0, 0.0012290844, -0.03925573, 0.0 
3.6621094e-2, 2.676306e+1, -0.03912302, -17981.525, 8.372319, 0.0, 0.0015949913, -0.035224807, 0.0 
3.6621094e-2, 2.6787046e+1, -0.038830962, -17982.219, 1.9187276, 0.0, 0.001509839, -0.03862623, 0.0 
3.6621094e-2, 2.6811033e+1, -0.038571417, -17939.29, -1.3376333, 0.0, 0.0014175064, -0.03847168, 0.0 
3.6621094e-2, 2.683502e+1, -0.038610067, -17941.03, 2.31537, 0.0, 0.0013898739, -0.038311258, 0.0 
3.6621094e-2, 2.685901e+1, -0.03880135, -17904.143, -0.06300186, 0.0, 0.0014317201, -0.03880113, 0.0 
3.6621094e-2, 2.6882997e+1, -0.039030764, -17895.947, -2.4379826, 0.0, 0.0016085579, -0.038698636, 0.0 
3.6621094e-2, 2.6906985e+1, -0.03879547, -17867.24, -0.45721468, 0.0, 0.0014194864, -0.03878377, 0.0 
3.6621094e-2, 2.6930976e+1, -0.038440254, -17859.178, 1.2506386, 0.0, 0.0013564407, -0.038352672, 0.0 
3.6621094e-2, 2.6954967e+1, -0.038071766, -17825.92, 0.37248924, 0.0, 0.0016047847, -0.03806398, 0.0 
3.6621094e-2, 2.6978958e+1, -0.038127765, -17816.877, -1.787052, 0.0, 0.0013708556, -0.037948523, 0.0 
3.6621094e-2, 2.7002946e+1, -0.038227536, -17791.79, -0.83301514, 0.0, 0.0012701908, -0.038188536, 0.0 
3.6621094e-2, 2.7026936e+1, -0.03845036, -17777.355, 2.426134, 0.0, 0.0019093795, -0.038119256, 0.0 
3.6621094e-2, 2.7050927e+1, -0.038438525, -17751.834, 0.50336033, 0.0, 0.0015304729, -0.03842425, 0.0 
3.6621094e-2, 2.707492e+1, -0.03850086, -17737.598, -1.9544057, 0.0, 0.00094436225, -0.038285512, 0.0 
3.6621094e-2, 2.7098912e+1, -0.038500216, -17711.38, -0.3205586, 0.0, 0.0015998444, -0.038494416, 0.0 
3.6621094e-2, 2.7122906e+1, -0.03848895, -17693.668, 4.1484723, 0.0, 0.0017952494, -0.037516292, 0.0 
3.6621094e-2, 2.71469e+1, -0.038261227, -17678.527, 8.920214, 0.0, 0.0012301857, -0.03376027, 0.0 
3.6621094e-2, 2.7170894e+1, -0.038289417, -17659.717, 5.8989987, 0.0, 0.0015590414, -0.036318928, 0.0 
3.6621094e-2, 2.7194887e+1, -0.03854768, -17636.184, 0.028157571, 0.0, 0.001565999, -0.038547635, 0.0 
3.6621094e-2, 2.7218884e+1, -0.03900003, -17615.451, -2.55056, 0.0, 0.0012646507, -0.03863073, 0.0 
3.6621094e-2, 2.7242878e+1, -0.039186552, -17602.406, 0.0977187, 0.0, 0.0015409711, -0.03918601, 0.0 
3.6621094e-2, 2.7266875e+1, -0.039313022, -17573.543, 2.026376, 0.0, 0.0015608969, -0.039079364, 0.0 
3.6621094e-2, 2.729087e+1, -0.03932369, -17565.184, 0.8519104, 0.0, 0.0012423076, -0.039282374, 0.0 
3.6621094e-2, 2.7314866e+1, -0.0393391, -17538.676, -5.135764, 0.0, 0.0017078241, -0.037835214, 0.0 
3.6621094e-2, 2.7338862e+1, -0.040214103, -17523.678, 29.273878, 0.0, 0.0015515739, 0.00868885, 0.0 
3.6621094e-2, 2.7362862e+1, -0.03978189, -17489.762, -6.039118, 0.0, 0.0011674702, -0.03769661, 0.0 
3.6621094e-2, 2.738686e+1, -0.04015143, -17487.568, 1.0995953, 0.0, 0.0015556703, -0.040082287, 0.0 
3.6621094e-2, 2.7410856e+1, -0.040445168, -17455.01, 1.9178895, 0.0, 0.001564535, -0.04023444, 0.0 
3.6621094e-2, 2.7434856e+1, -0.040641844, -17447.56, -1.2619754, 0.0, 0.0012313168, -0.040550563, 0.0 
3.6621094e-2, 2.7458856e+1, -0.040627707, -17411.543, 1.4659647, 0.0, 0.0016805044, -0.04050428, 0.0 
3.6621094e-2, 2.7482855e+1, -0.040609706, -17416.012, 0.92521363, 0.0, 0.0014691621, -0.040560555, 0.0 
3.6621094e-2, 2.7506855e+1, -0.0407434, -17373.293, 3.836113, 0.0, 0.0013063225, -0.039896365, 0.0 
3.6621094e-2, 2.7530855e+1, -0.04120132, -17370.074, 1.383486, 0.0, 0.0014658596, -0.041091125, 0.0 
3.6621094e-2, 2.7554858e+1, -0.041731376, -17336.059, -0.2976875, 0.0, 0.0014647406, -0.041726265, 0.0 
3.6621094e-2, 2.757886e+1, -0.04223815, -17330.338, 1.8892207, 0.0, 0.0015565875, -0.0420322, 0.0 
3.6621094e-2, 2.760286e+1, -0.04230711, -17294.459, 8.157976, 0.0, 0.0013937945, -0.0384589, 0.0 
3.6621094e-2, 2.7626863e+1, -0.04236935, -17298.86, 2.1458392, 0.0, 0.00112392, -0.04210317, 0.0 
3.6621094e-2, 2.7650866e+1, -0.042413767, -17255.451, 0.21551143, 0.0, 0.0017803421, -0.042411074, 0.0 
3.6621094e-2, 2.767487e+1, -0.042510383, -17256.578, 2.495891, 0.0, 0.0015346269, -0.04214939, 0.0 
3.6621094e-2, 2.7698874e+1, -0.042177927, -17214.275, 0.053973697, 0.0, 0.0011438461, -0.042177755, 0.0 
3.6621094e-2, 2.7722877e+1, -0.041754644, -17216.629, 1.203953, 0.0, 0.0015781339, -0.04167045, 0.0 
3.6621094e-2, 2.774688e+1, -0.041297503, -17181.533, -0.75365365, 0.0, 0.0014534037, -0.041264445, 0.0 
3.6621094e-2, 2.777089e+1, -0.04131304, -17176.525, 0.07511226, 0.0, 0.0012244968, -0.041312713, 0.0 
3.6621094e-2, 2.7794895e+1, -0.041173916, -17137.043, 3.327871, 0.0, 0.0016012912, -0.04052767, 0.0 
3.6621094e-2, 2.78189e+1, -0.0411166, -17142.336, -2.0848575, 0.0, 0.001461907, -0.040863037, 0.0 
3.6621094e-2, 2.7842906e+1, -0.041086096, -17095.457, 1.976276, 0.0, 0.0013546511, -0.04085763, 0.0 
3.6621094e-2, 2.7866912e+1, -0.04150161, -17105.32, 2.4044528, 0.0, 0.0013419383, -0.041163623, 0.0 
3.6621094e-2, 2.789092e+1, -0.041805107, -17058.896, -2.6818109, 0.0, 0.0014627026, -0.0413835, 0.0 
3.6621094e-2, 2.791493e+1, -0.042119008, -17062.607, 4.31124, 0.0, 0.0015082739, -0.041029673, 0.0 
3.6621094e-2, 2.7938935e+1, -0.042302802, -17031.346, -10.283196, 0.0, 0.0013134717, -0.036093995, 0.0 
3.6621094e-2, 2.7962944e+1, -0.04652752, -17020.635, 63.849, 0.0, 0.0013976373, 0.1929846, 0.0 
3.6621094e-2, 2.7986953e+1, -0.042674474, -16974.168, -9.561127, 0.0, 0.0014495987, -0.037288915, 0.0 
3.6621094e-2, 2.8010964e+1, -0.04294528, -16984.95, 4.3339105, 0.0, 0.0013526636, -0.041839432, 0.0 
3.6621094e-2, 2.8034973e+1, -0.043085955, -16939.74, 0.014698301, 0.0, 0.0014110741, -0.043085944, 0.0 
3.6621094e-2, 2.8058985e+1, -0.043193053, -16945.273, -0.8707296, 0.0, 0.0014223576, -0.043148313, 0.0 
3.6621094e-2, 2.8082997e+1, -0.043183472, -16903.34, 0.49367076, 0.0, 0.0013907489, -0.043169055, 0.0 
3.6621094e-2, 2.8107008e+1, -0.04326154, -16907.959, 0.57869583, 0.0, 0.0013297491, -0.04324173, 0.0 
3.6621094e-2, 2.813102e+1, -0.04334008, -16863.03, 0.9553115, 0.0, 0.0013644524, -0.04328596, 0.0 
3.6621094e-2, 2.8155032e+1, -0.043490887, -16866.738, 0.37883565, 0.0, 0.0015209304, -0.043482378, 0.0 
3.6621094e-2, 2.8179044e+1, -0.043686267, -16825.031, -0.37628627, 0.0, 0.0013456667, -0.04367785, 0.0 
3.6621094e-2, 2.8203058e+1, -0.0435492, -16829.324, -0.10284797, 0.0, 0.0012345262, -0.043548573, 0.0 
3.6621094e-2, 2.8227073e+1, -0.043812748, -16785.324, 0.8493368, 0.0, 0.0014442878, -0.043769773, 0.0 
3.6621094e-2, 2.8251085e+1, -0.04394278, -16788.41, 0.7060479, 0.0, 0.0014469771, -0.043913085, 0.0 
3.6621094e-2, 2.82751e+1, -0.044155363, -16747.426, -0.39860862, 0.0, 0.0012541491, -0.044145875, 0.0 
3.6621094e-2, 2.8299117e+1, -0.044010248, -16749.559, -0.29514945, 0.0, 0.0014751252, -0.044005048, 0.0 
3.6621094e-2, 2.8323132e+1, -0.044144996, -16708.637, 4.8590446, 0.0, 0.0014116026, -0.042731933, 0.0 
3.6621094e-2, 2.8347147e+1, -0.043885827, -16709.254, -0.4074932, 0.0, 0.0011679992, -0.043875888, 0.0 
3.6621094e-2, 2.8371164e+1, -0.04392346, -16671.688, 0.11039913, 0.0, 0.0014072201, -0.04392273, 0.0 
3.6621094e-2, 2.8395182e+1, -0.043840736, -16668.121, 0.93190587, 0.0, 0.0015263923, -0.043788634, 0.0 
3.6621094e-2, 2.84192e+1, -0.044193152, -16632.396, -0.58831936, 0.0, 0.0012170391, -0.044172343, 0.0 
3.6621094e-2, 2.8443217e+1, -0.044480007, -16627.719, 0.0182362, 0.0, 0.00143799, -0.044479985, 0.0 
3.6621094e-2, 2.8467235e+1, -0.044882525, -16597.764, 0.8773887, 0.0, 0.0014549249, -0.044836145, 0.0 
3.6621094e-2, 2.8491253e+1, -0.044873625, -16586.143, -1.4050666, 0.0, 0.0011649684, -0.0447546, 0.0 
3.6621094e-2, 2.8515273e+1, -0.044804838, -16557.635, -0.55713785, 0.0, 0.0013283873, -0.04478609, 0.0 
3.6621094e-2, 2.8539294e+1, -0.044538464, -16548.488, 1.2975323, 0.0, 0.001631221, -0.044436727, 0.0 
3.6621094e-2, 2.8563312e+1, -0.04453925, -16518.56, -0.24838015, 0.0, 0.0013424875, -0.044535514, 0.0 
3.6621094e-2, 2.8587332e+1, -0.044434663, -16504.268, -0.8439311, 0.0, 0.0011962478, -0.04439151, 0.0 
3.6621094e-2, 2.8611356e+1, -0.0443188, -16486.32, -0.44462624, 0.0, 0.001375976, -0.044306807, 0.0 
3.6621094e-2, 2.8635377e+1, -0.044266526, -16468.723, -1.3865926, 0.0, 0.0015521867, -0.04414978, 0.0 
3.6621094e-2, 2.8659397e+1, -0.044923496, -16441.594, 35.548683, 0.0, 0.0013541114, 0.031936835, 0.0 
3.6621094e-2, 2.868342e+1, -0.044254012, -16421.668, -1.8822534, 0.0, 0.0013077043, -0.04403827, 0.0 
3.6621094e-2, 2.8707445e+1, -0.04400075, -16409.576, 0.012551386, 0.0, 0.0013785291, -0.04400074, 0.0 
3.6621094e-2, 2.8731465e+1, -0.043721434, -16388.262, -3.1096284, 0.0, 0.0014886176, -0.04313139, 0.0 
3.6621094e-2, 2.875549e+1, -0.04366384, -16366.705, 11.916245, 0.0, 0.0014035312, -0.03498786, 0.0 
3.6621094e-2, 2.8779516e+1, -0.043646146, -16345.578, -1.6516447, 0.0, 0.0013586804, -0.043479253, 0.0 
3.6621094e-2, 2.880354e+1, -0.04354632, -16327.931, 0.1091689, 0.0, 0.0013739975, -0.04354559, 0.0 
3.6621094e-2, 2.8827563e+1, -0.04364064, -16307.594, -1.4216516, 0.0, 0.0015079436, -0.043516703, 0.0 
3.6621094e-2, 2.885159e+1, -0.04359588, -16290.478, -0.6196787, 0.0, 0.0014353597, -0.04357231, 0.0 
3.6621094e-2, 2.8875616e+1, -0.043856747, -16266.67, 1.0291742, 0.0, 0.0013782118, -0.043791633, 0.0 
3.6621094e-2, 2.8899643e+1, -0.0440338, -16250.976, -0.23471929, 0.0, 0.001369841, -0.04403041, 0.0 
3.6621094e-2, 2.892367e+1, -0.044610657, -16230.251, -2.547603, 0.0, 0.0015360103, -0.044210766, 0.0 
3.6621094e-2, 2.8947696e+1, -0.04454961, -16211.216, 0.48071626, 0.0, 0.0015387111, -0.044535354, 0.0 
3.6621094e-2, 2.8971726e+1, -0.044739082, -16188.276, 2.0018127, 0.0, 0.0013053813, -0.04449154, 0.0 
3.6621094e-2, 2.8995752e+1, -0.044841245, -16166.42, 1.2681763, 0.0, 0.0013838309, -0.04474176, 0.0 
3.6621094e-2, 2.9019782e+1, -0.045746166, -16140.993, 41.98123, 0.0, 0.0016306384, 0.0634427, 0.0 
3.6621094e-2, 2.9043812e+1, -0.046186496, -16143.397, 42.970078, 0.0, 0.0014345128, 0.068189666, 0.0 
3.6621094e-2, 2.906784e+1, -0.046714954, -16119.37, 11.440765, 0.0, 0.0014043365, -0.038594823, 0.0 
3.6621094e-2, 2.909187e+1, -0.046784136, -16084.758, -0.5313405, 0.0, 0.001562336, -0.046766583, 0.0 
3.6621094e-2, 2.9115903e+1, -0.04773035, -16062.365, 60.751617, 0.0, 0.0014233468, 0.18204387, 0.0 
3.6621094e-2, 2.9139933e+1, -0.04725088, -16066.41, 41.932045, 0.0, 0.0014323764, 0.06218798, 0.0 
3.6621094e-2, 2.9163966e+1, -0.04697624, -16042.176, 9.962633, 0.0, 0.0015802706, -0.040789153, 0.0 
3.6621094e-2, 2.9187995e+1, -0.046477016, -16015.996, -1.5229443, 0.0, 0.0014167546, -0.0463322, 0.0 
3.6621094e-2, 2.9212028e+1, -0.04635169, -15991.272, 0.14343417, 0.0, 0.0014853587, -0.046350405, 0.0 
3.6621094e-2, 2.923606e+1, -0.046525277, -15980.876, -0.6543659, 0.0, 0.0016109836, -0.04649848, 0.0 
3.6621094e-2, 2.9260096e+1, -0.046627786, -15954.13, 0.26715988, 0.0, 0.0013769817, -0.046623312, 0.0 
3.6621094e-2, 2.928413e+1, -0.046690337, -15938.5205, 0.9699699, 0.0, 0.0014794403, -0.046631306, 0.0 
3.6621094e-2, 2.9308164e+1, -0.04680115, -15915.463, -1.8881186, 0.0, 0.0015503695, -0.046577152, 0.0 
3.6621094e-2, 2.9332197e+1, -0.04682263, -15902.875, -2.4683547, 0.0, 0.0014717825, -0.046439506, 0.0 
3.6621094e-2, 2.9356232e+1, -0.046540342, -15873.803, 3.0893614, 0.0, 0.0015060871, -0.045939088, 0.0 
3.6621094e-2, 2.9380268e+1, -0.046360318, -15861.871, 1.869165, 0.0, 0.001463256, -0.046140056, 0.0 
3.6621094e-2, 2.9404303e+1, -0.046326783, -15835.644, 10.652739, 0.0, 0.0014763707, -0.039160598, 0.0 
3.6621094e-2, 2.9428342e+1, -0.046119902, -15824.692, 0.22020869, 0.0, 0.0015895105, -0.04611684, 0.0 
3.6621094e-2, 2.945238e+1, -0.046073776, -15796.776, 1.928896, 0.0, 0.0013896135, -0.045838244, 0.0 
3.6621094e-2, 2.9476416e+1, -0.046210542, -15784.248, 0.138668, 0.0, 0.0015321095, -0.046209324, 0.0 
3.6621094e-2, 2.9500455e+1, -0.046473812, -15758.271, 8.728774, 0.0, 0.0015261248, -0.041638784, 0.0 
3.6621094e-2, 2.9524493e+1, -0.04642281, -15744.305, -1.9002423, 0.0, 0.0013431147, -0.04619346, 0.0 
3.6621094e-2, 2.9548532e+1, -0.04629141, -15719.695, -0.09405334, 0.0, 0.0015008862, -0.04629085, 0.0 
3.6621094e-2, 2.957257e+1, -0.04630834, -15707.991, 3.3601432, 0.0, 0.0016719728, -0.04558956, 0.0 
3.6621094e-2, 2.959661e+1, -0.046423398, -15675.983, -0.95301753, 0.0, 0.0013721482, -0.04636546, 0.0 
3.6621094e-2, 2.962065e+1, -0.046496443, -15667.735, -0.42573446, 0.0, 0.0013560929, -0.046484876, 0.0 
3.6621094e-2, 2.9644692e+1, -0.046727672, -15643.494, 0.5616578, 0.0, 0.0014926875, -0.046707507, 0.0 
3.6621094e-2, 2.966873e+1, -0.04696183, -15626.479, -0.25729445, 0.0, 0.0016474773, -0.046957593, 0.0 
3.6621094e-2, 2.9692775e+1, -0.04695689, -15600.954, 2.121796, 0.0, 0.0013764346, -0.046668313, 0.0 
3.6621094e-2, 2.9716817e+1, -0.046723794, -15587.149, -0.6205056, 0.0, 0.0013533249, -0.04669909, 0.0 
3.6621094e-2, 2.9740858e+1, -0.046452492, -15558.869, 4.1093206, 0.0, 0.0015205478, -0.04536716, 0.0 
3.6621094e-2, 2.97649e+1, -0.04779928, -15552.704, 71.44243, 0.0, 0.0015110681, 0.28037056, 0.0 
3.6621094e-2, 2.9788944e+1, -0.046154987, -15524.041, 6.482834, 0.0, 0.0013742127, -0.043447748, 0.0 
3.6621094e-2, 2.981299e+1, -0.046150956, -15510.277, 0.3008503, 0.0, 0.0015109883, -0.04614512, 0.0 
3.6621094e-2, 2.9837033e+1, -0.046116404, -15485.432, 3.0445776, 0.0, 0.0014077647, -0.045517813, 0.0 
3.6621094e-2, 2.9861078e+1, -0.046278168, -15472.974, 29.861572, 0.0, 0.0014505568, 0.0113521805, 0.0 
3.6621094e-2, 2.9885122e+1, -0.045922518, -15443.808, 4.5192986, 0.0, 0.001454091, -0.044600036, 0.0 
3.6621094e-2, 2.990917e+1, -0.0462971, -15432.377, 2.5175493, 0.0, 0.0014066311, -0.045886397, 0.0 
3.6621094e-2, 2.9933214e+1, -0.046866417, -15406.35, -1.5249319, 0.0, 0.0014249721, -0.04671548, 0.0 
3.6621094e-2, 2.995726e+1, -0.047425993, -15396.052, -0.047075666, 0.0, 0.0014835219, -0.047425848, 0.0 
3.6621094e-2, 2.998131e+1, -0.047681756, -15364.81, 1.7028159, 0.0, 0.0013553329, -0.04749304, 0.0 
3.6621094e-2, 3.0005354e+1, -0.04794263, -15355.032, 0.75233114, 0.0, 0.0014966775, -0.04790577, 0.0 
3.6621094e-2, 3.00294e+1, -0.04809815, -15327.104, 0.9361653, 0.0, 0.0013994309, -0.048040967, 0.0 
3.6621094e-2, 3.0053452e+1, -0.048242297, -15317.303, -0.74967, 0.0, 0.0013807028, -0.048205607, 0.0 
3.6621094e-2, 3.00775e+1, -0.048600204, -15285.307, 0.30170277, 0.0, 0.0014673899, -0.04859425, 0.0 
3.6621094e-2, 3.010155e+1, -0.0492862, -15280.806, 1.79434, 0.0, 0.0013498341, -0.0490755, 0.0 
3.6621094e-2, 3.01256e+1, -0.050029267, -15245.385, 3.665396, 0.0, 0.0014535903, -0.049148005, 0.0 
3.6621094e-2, 3.0149648e+1, -0.05042562, -15237.55, 0.9437776, 0.0, 0.0014222214, -0.050367165, 0.0 
3.6621094e-2, 3.01737e+1, -0.05031021, -15212.28, 0.62927914, 0.0, 0.0011241335, -0.050284177, 0.0 
3.6621094e-2, 3.0197752e+1, -0.049901906, -15199.506, -0.02197631, 0.0, 0.0017702068, -0.049901873, 0.0 
3.6621094e-2, 3.0221802e+1, -0.049572688, -15168.492, 3.2989314, 0.0, 0.0016871387, -0.048855215, 0.0 
3.6621094e-2, 3.0245855e+1, -0.049378313, -15162.539, -0.7265243, 0.0, 0.0006889925, -0.049343504, 0.0 
3.6621094e-2, 3.0269906e+1, -0.049375307, -15126.334, -1.1554971, 0.0, 0.0012805667, -0.049287036, 0.0 
3.6621094e-2, 3.029396e+1, -0.049731012, -15125.32, 2.6176312, 0.0, 0.002061208, -0.049278, 0.0 
3.6621094e-2, 3.0318013e+1, -0.049983464, -15091.065, -0.3059906, 0.0, 0.0014043403, -0.04997726, 0.0 
3.6621094e-2, 3.0342066e+1, -0.0497312, -15083.5625, 0.3053343, 0.0, 0.0009180283, -0.04972502, 0.0 
3.6621094e-2, 3.0366123e+1, -0.049473036, -15050.986, 1.1249284, 0.0, 0.0012588652, -0.049388956, 0.0 
3.6621094e-2, 3.0390176e+1, -0.04951761, -15043.399, -0.500909, 0.0, 0.0018357188, -0.04950093, 0.0 
3.6621094e-2, 3.0414233e+1, -0.049734183, -15011.42, 1.101403, 0.0, 0.0015481187, -0.04965337, 0.0 
3.6621094e-2, 3.043829e+1, -0.04960392, -15010.385, -2.396515, 0.0, 0.0008691452, -0.0492213, 0.0 
3.6621094e-2, 3.0462343e+1, -0.049694955, -14972.192, -2.6565382, 0.0, 0.0014335725, -0.0492236, 0.0 
3.6621094e-2, 3.0486402e+1, -0.050679266, -14971.443, 26.108442, 0.0, 0.00163308, -0.005149184, 0.0 
3.6621094e-2, 3.0510455e+1, -0.050612535, -14924.49, -9.621603, 0.0, 0.0013082605, -0.04440961, 0.0 
3.6621094e-2, 3.0534515e+1, -0.05061275, -14926.346, 5.304374, 0.0, 0.0013423959, -0.048727732, 0.0 
3.6621094e-2, 3.0558574e+1, -0.05058791, -14908.708, -3.0281322, 0.0, 0.001373253, -0.04997286, 0.0 
3.6621094e-2, 3.058263e+1, -0.053932305, -14891.152, 61.72462, 0.0, 0.0014099359, 0.20191608, 0.0 
3.6621094e-2, 3.060669e+1, -0.04991384, -14842.269, -9.692613, 0.0, 0.0014293583, -0.043584146, 0.0 
3.6621094e-2, 3.063075e+1, -0.049697753, -14848.118, 1.4097384, 0.0, 0.0012874606, -0.049563907, 0.0 
3.6621094e-2, 3.065481e+1, -0.04982354, -14816.772, -1.3183784, 0.0, 0.0015215052, -0.04970623, 0.0 
3.6621094e-2, 3.0678868e+1, -0.050378244, -14814.3, -0.25287294, 0.0, 0.0012696212, -0.050373927, 0.0 
3.6621094e-2, 3.070293e+1, -0.050642606, -14773.865, -2.2798524, 0.0, 0.0014439512, -0.050290782, 0.0 
3.6621094e-2, 3.0726993e+1, -0.050409727, -14771.25, 1.7061659, 0.0, 0.0014993605, -0.050212655, 0.0 
3.6621094e-2, 3.0751052e+1, -0.049789235, -14739.675, 0.43887985, 0.0, 0.0010420013, -0.049776167, 0.0 
3.6621094e-2, 3.0775115e+1, -0.04935217, -14727.523, -1.9925072, 0.0, 0.0015154908, -0.0490826, 0.0 
3.6621094e-2, 3.0799177e+1, -0.049202614, -14702.23, 2.8986015, 0.0, 0.0021018796, -0.048631143, 0.0 
3.6621094e-2, 3.082324e+1, -0.04949506, -14695.269, -3.2645442, 0.0, 0.00086645, -0.04876984, 0.0 
3.6621094e-2, 3.0847302e+1, -0.052545704, -14649.78, 82.63115, 0.0, 0.0007182036, 0.41351688, 0.0 
3.6621094e-2, 3.0871367e+1, -0.05005041, -14651.017, 26.543285, 0.0, 0.0020601128, -0.0019618701, 0.0 
3.6621094e-2, 3.0895433e+1, -0.050075572, -14630.177, 12.334235, 0.0, 0.0020511823, -0.039676946, 0.0 
3.6621094e-2, 3.0919495e+1, -0.050046712, -14617.347, -8.344698, 0.0, 0.0007416284, -0.045282904, 0.0 
3.6621094e-2, 3.094356e+1, -0.051949326, -14582.761, 63.807133, 0.0, 0.00099947, 0.22723559, 0.0 
3.6621094e-2, 3.096763e+1, -0.049850006, -14572.77, 7.8987765, 0.0, 0.0018423158, -0.04556867, 0.0 
3.6621094e-2, 3.0991694e+1, -0.0499275, -14544.161, 2.959195, 0.0, 0.0018647875, -0.049325414, 0.0 
3.6621094e-2, 3.101576e+1, -0.050053913, -14535.387, -2.5208428, 0.0, 0.0010969137, -0.049616728, 0.0 
3.6621094e-2, 3.1039828e+1, -0.05040469, -14505.498, -3.1762493, 0.0, 0.0009449108, -0.049709186, 0.0 
3.6621094e-2, 3.1063896e+1, -0.050834745, -14495.733, 1.2450655, 0.0, 0.001711461, -0.050727803, 0.0 
3.6621094e-2, 3.1087962e+1, -0.05083962, -14467.42, 1.7801143, 0.0, 0.0019928038, -0.05062059, 0.0 
3.6621094e-2, 3.1112033e+1, -0.05090038, -14457.259, -2.6945865, 0.0, 0.0010396647, -0.050398152, 0.0 
3.6621094e-2, 3.11361e+1, -0.05119591, -14427.493, -0.34201062, 0.0, 0.0010897461, -0.0511878, 0.0 
3.6621094e-2, 3.116017e+1, -0.05105776, -14417.438, 1.258643, 0.0, 0.0017259349, -0.05094788, 0.0 
3.6621094e-2, 3.118424e+1, -0.050633892, -14388.316, -2.9222677, 0.0, 0.0016443556, -0.050040375, 0.0 
3.6621094e-2, 3.1208313e+1, -0.050287038, -14374.575, 0.7993393, 0.0, 0.001268315, -0.050242588, 0.0 
3.6621094e-2, 3.123238e+1, -0.05106529, -14350.61, 49.03944, 0.0, 0.0013603977, 0.116512746, 0.0 
3.6621094e-2, 3.1256452e+1, -0.05030368, -14340.295, 3.090605, 0.0, 0.001479207, -0.049637593, 0.0 
3.6621094e-2, 3.1280524e+1, -0.0508114, -14310.943, 0.6793163, 0.0, 0.00161789, -0.050779153, 0.0 
3.6621094e-2, 3.1304595e+1, -0.05091639, -14302.243, -0.3780342, 0.0, 0.0013813322, -0.050906397, 0.0 
3.6621094e-2, 3.132867e+1, -0.050729796, -14271.443, 1.3622073, 0.0, 0.0013433502, -0.050599776, 0.0 
3.6621094e-2, 3.135274e+1, -0.050474852, -14254.194, 4.174145, 0.0, 0.0014799793, -0.049252506, 0.0 
3.6621094e-2, 3.1376815e+1, -0.050715253, -14234.756, 5.77076, 0.0, 0.0016188695, -0.04837578, 0.0 
3.6621094e-2, 3.140089e+1, -0.050805982, -14228.27, -1.7710756, 0.0, 0.0014607105, -0.050585523, 0.0 
3.6621094e-2, 3.1424963e+1, -0.050651025, -14192.012, -6.640843, 0.0, 0.0012441329, -0.047543574, 0.0 
3.6621094e-2, 3.144904e+1, -0.05037344, -14176.953, 1.4913069, 0.0, 0.0014078956, -0.050216563, 0.0 
3.6621094e-2, 3.1473115e+1, -0.05058193, -14157.602, 5.5360403, 0.0, 0.0018902433, -0.048417166, 0.0 
3.6621094e-2, 3.149719e+1, -0.050616425, -14143.968, -3.258336, 0.0, 0.0014361378, -0.0498658, 0.0 
3.6621094e-2, 3.1521264e+1, -0.05053005, -14115.971, -3.0863225, 0.0, 0.0009971047, -0.049855255, 0.0 
3.6621094e-2, 3.1545344e+1, -0.050435543, -14101.443, 2.2555554, 0.0, 0.0016199829, -0.050074764, 0.0 
3.6621094e-2, 3.156942e+1, -0.050862234, -14081.977, -2.1042528, 0.0, 0.0017939989, -0.050547797, 0.0 
3.6621094e-2, 3.15935e+1, -0.05063333, -14058.285, -0.63613796, 0.0, 0.0012328341, -0.050604545, 0.0 
3.6621094e-2, 3.1617576e+1, -0.050350305, -14040.523, 2.7638516, 0.0, 0.0014907981, -0.04980624, 0.0 
3.6621094e-2, 3.1641656e+1, -0.050295636, -14026.429, -1.3790171, 0.0, 0.0017073785, -0.050160054, 0.0 
3.6621094e-2, 3.1665733e+1, -0.05067153, -14000.953, -2.2120526, 0.0, 0.0010700558, -0.050322037, 0.0 
3.6621094e-2, 3.168981e+1, -0.0511122, -13984.601, -4.9287, 0.0, 0.001427487, -0.049375135, 0.0 
3.6621094e-2, 3.171389e+1, -0.05241149, -13960.698, 34.296432, 0.0, 0.0019597446, 0.03184237, 0.0 
3.6621094e-2, 3.173797e+1, -0.051764317, -13945.7, -6.7861176, 0.0, 0.0012054114, -0.04846211, 0.0 
3.6621094e-2, 3.1762055e+1, -0.05230965, -13922.127, 0.726377, 0.0, 0.0013905013, -0.052271754, 0.0 
3.6621094e-2, 3.1786135e+1, -0.052697252, -13903.859, 3.2927358, 0.0, 0.0018811112, -0.051917456, 0.0 
3.6621094e-2, 3.1810218e+1, -0.052807655, -13883.887, -0.8870013, 0.0, 0.0009189108, -0.052750986, 0.0 
3.6621094e-2, 3.1834298e+1, -0.053025015, -13867.283, -0.01831695, 0.0, 0.0012299777, -0.053024992, 0.0 
3.6621094e-2, 3.1858382e+1, -0.053109836, -13844.241, 0.092142805, 0.0, 0.002267789, -0.053109225, 0.0 
3.6621094e-2, 3.1882465e+1, -0.05345858, -13830.04, -1.760592, 0.0, 0.0015698473, -0.05323445, 0.0 
3.6621094e-2, 3.1906548e+1, -0.053692732, -13799.925, 3.5414376, 0.0, 0.00065862894, -0.0527839, 0.0 
3.6621094e-2, 3.193063e+1, -0.05414337, -13794.217, 1.2892325, 0.0, 0.0013788281, -0.054022875, 0.0 
3.6621094e-2, 3.1954718e+1, -0.054538663, -13762.981, -4.729744, 0.0, 0.0021974554, -0.05291325, 0.0 
3.6621094e-2, 3.19788e+1, -0.05469299, -13751.333, -0.7091806, 0.0, 0.0015145055, -0.05465642, 0.0 
3.6621094e-2, 3.2002887e+1, -0.054101937, -13722.235, 3.4948125, 0.0, 0.0008163181, -0.053211864, 0.0 
3.6621094e-2, 3.2026973e+1, -0.053973835, -13719.518, 3.1795886, 0.0, 0.0015072431, -0.05323694, 0.0 
3.6621094e-2, 3.205106e+1, -0.054136544, -13689.974, -9.582031, 0.0, 0.0018577239, -0.047429767, 0.0 
3.6621094e-2, 3.2075146e+1, -0.058505766, -13671.307, 68.49831, 0.0, 0.0012857688, 0.28468895, 0.0 
3.6621094e-2, 3.2099232e+1, -0.055412143, -13638.988, -2.4131074, 0.0, 0.0013463787, -0.0549852, 0.0 
3.6621094e-2, 3.212332e+1, -0.055912405, -13638.739, 4.1108484, 0.0, 0.0017463234, -0.05467335, 0.0 
3.6621094e-2, 3.2147408e+1, -0.055727806, -13604.43, -2.0731912, 0.0, 0.0011667834, -0.05541187, 0.0 
3.6621094e-2, 3.2171497e+1, -0.05534561, -13596.927, 3.4143193, 0.0, 0.0011973039, -0.054488238, 0.0 
3.6621094e-2, 3.2195586e+1, -0.054769665, -13565.229, 8.133644, 0.0, 0.0019304458, -0.049892753, 0.0 
3.6621094e-2, 3.2219678e+1, -0.0546765, -13560.875, 1.4703816, 0.0, 0.001430919, -0.054517068, 0.0 
3.6621094e-2, 3.2243767e+1, -0.054576647, -13527.502, -5.3740053, 0.0, 0.001115291, -0.052441735, 0.0 
3.6621094e-2, 3.2267857e+1, -0.054807797, -13519.022, 0.27405947, 0.0, 0.0016951144, -0.054802243, 0.0 
3.6621094e-2, 3.2291946e+1, -0.05498095, -13486.8125, 3.653356, 0.0, 0.0013365281, -0.05399131, 0.0 
3.6621094e-2, 3.231604e+1, -0.0555639, -13483.432, -1.5966225, 0.0, 0.0012242392, -0.05537484, 0.0 
3.6621094e-2, 3.234013e+1, -0.055827163, -13444.639, 0.35190323, 0.0, 0.0017330921, -0.055817954, 0.0 
3.6621094e-2, 3.2364222e+1, -0.05610152, -13446.426, 4.0244904, 0.0, 0.0013931197, -0.05489699, 0.0 
3.6621094e-2, 3.2388318e+1, -0.05585545, -13406.953, -1.5455413, 0.0, 0.0013106177, -0.05567728, 0.0 
3.6621094e-2, 3.241241e+1, -0.055432145, -13400.327, -2.2537007, 0.0, 0.0014463783, -0.05505311, 0.0 
3.6621094e-2, 3.2436505e+1, -0.055430204, -13366.639, 44.08323, 0.0, 0.0013559234, 0.08995549, 0.0 
3.6621094e-2, 3.2460597e+1, -0.05482349, -13369.812, 24.072546, 0.0, 0.0016944318, -0.011480476, 0.0 
3.6621094e-2, 3.2484692e+1, -0.054362893, -13331.993, 1.6229576, 0.0, 0.0012932506, -0.054165326, 0.0 
3.6621094e-2, 3.2508785e+1, -0.05367657, -13324.01, -3.6471045, 0.0, 0.0008755016, -0.052678265, 0.0 
3.6621094e-2, 3.2532883e+1, -0.05289976, -13283.957, 5.820561, 0.0, 0.0019390606, -0.050349385, 0.0 
3.6621094e-2, 3.255698e+1, -0.052534398, -13294.274, 10.1398735, 0.0, 0.0016468335, -0.04480044, 0.0 
3.6621094e-2, 3.2581073e+1, -0.052166883, -13251.809, 0.24805751, 0.0, 0.00090141053, -0.05216224, 0.0 
3.6621094e-2, 3.260517e+1, -0.052143786, -13246.631, 0.214571, 0.0, 0.0015250996, -0.05214031, 0.0 
3.6621094e-2, 3.262927e+1, -0.052182015, -13214.082, 0.86635244, 0.0, 0.0015414474, -0.052125216, 0.0 
3.6621094e-2, 3.2653368e+1, -0.05187151, -13209.278, -2.7896914, 0.0, 0.001089678, -0.051282346, 0.0 
3.6621094e-2, 3.2677463e+1, -0.05133093, -13172.434, 1.4142746, 0.0, 0.0015708705, -0.051179085, 0.0 
3.6621094e-2, 3.2701564e+1, -0.051010076, -13174.155, 3.929291, 0.0, 0.0015381604, -0.04983813, 0.0 
3.6621094e-2, 3.2725662e+1, -0.05106176, -13133.393, 0.14036165, 0.0, 0.0012592988, -0.05106026, 0.0 
3.6621094e-2, 3.2749763e+1, -0.051391833, -13128.252, -3.9357631, 0.0, 0.0011473622, -0.05021191, 0.0 
3.6621094e-2, 3.277386e+1, -0.05189011, -13097.4, -0.28979653, 0.0, 0.0015098325, -0.051883698, 0.0 
3.6621094e-2, 3.2797962e+1, -0.052294474, -13098.043, 1.4895256, 0.0, 0.0016646849, -0.05212508, 0.0 
3.6621094e-2, 3.2822064e+1, -0.053963244, -13061.373, 38.639717, 0.0, 0.0012046294, 0.06034487, 0.0 
3.6621094e-2, 3.2846165e+1, -0.0526117, -13041.534, -6.8976707, 0.0, 0.0010469205, -0.04896351, 0.0 
3.6621094e-2, 3.2870266e+1, -0.052884128, -13023.464, 7.0625706, 0.0, 0.0016037865, -0.04905411, 0.0 
3.6621094e-2, 3.289437e+1, -0.05313823, -13009.45, -4.0310516, 0.0, 0.0015647437, -0.05188918, 0.0 
3.6621094e-2, 3.291847e+1, -0.054182723, -12965.387, 25.966244, 0.0, 0.001236442, -0.0021791847, 0.0 
3.6621094e-2, 3.2942578e+1, -0.054868657, -12975.515, 36.89295, 0.0, 0.0011385744, 0.05002772, 0.0 
3.6621094e-2, 3.296668e+1, -0.055338416, -12956.515, 14.26608, 0.0, 0.0016125051, -0.03963036, 0.0 
3.6621094e-2, 3.2990783e+1, -0.05548953, -12925.531, -0.035942595, 0.0, 0.0012793036, -0.055489432, 0.0 
3.6621094e-2, 3.3014888e+1, -0.055290006, -12908.41, -0.52383584, 0.0, 0.001172804, -0.055268746, 0.0 
3.6621094e-2, 3.3038995e+1, -0.055244364, -12893.391, -4.5893373, 0.0, 0.001844785, -0.053610805, 0.0 
3.6621094e-2, 3.30631e+1, -0.055771302, -12866.902, 3.4062448, 0.0, 0.0012923451, -0.054869566, 0.0 
3.6621094e-2, 3.3087203e+1, -0.056533493, -12847.265, 5.6335864, 0.0, 0.0007611454, -0.054063126, 0.0 
3.6621094e-2, 3.3111313e+1, -0.057474647, -12831.067, -4.4584265, 0.0, 0.0018609744, -0.055925466, 0.0 
3.6621094e-2, 3.3135417e+1, -0.058283877, -12811.334, -4.9397087, 0.0, 0.0013097734, -0.056379247, 0.0 
3.6621094e-2, 3.3159527e+1, -0.058747258, -12791.638, 2.9972734, 0.0, 0.00093432516, -0.05804495, 0.0 
3.6621094e-2, 3.3183634e+1, -0.05944982, -12766.103, 4.2914042, 0.0, 0.0022184702, -0.058007233, 0.0 
3.6621094e-2, 3.320774e+1, -0.060029235, -12761.904, -2.5772142, 0.0, 0.00135784, -0.059508774, 0.0 
3.6621094e-2, 3.3231848e+1, -0.06033808, -12725.512, -4.0792484, 0.0, 0.0002584555, -0.059030443, 0.0 
3.6621094e-2, 3.325596e+1, -0.060454845, -12713.037, 2.6398015, 0.0, 0.0019948233, -0.0599067, 0.0 
3.6621094e-2, 3.3280072e+1, -0.060633525, -12691.399, -0.439831, 0.0, 0.0017216821, -0.06061828, 0.0 
3.6621094e-2, 3.330418e+1, -0.06150495, -12680.154, 33.602093, 0.0, 0.0007891069, 0.027539562, 0.0 
3.6621094e-2, 3.3328292e+1, -0.06081536, -12641.319, 5.3303695, 0.0, 0.00195051, -0.058567733, 0.0 
3.6621094e-2, 3.3352402e+1, -0.060672887, -12651.22, 0.9481711, 0.0, 0.0015265743, -0.060601827, 0.0 
3.6621094e-2, 3.3376515e+1, -0.060301784, -12602.18, -6.161209, 0.0, 0.0005295369, -0.057289552, 0.0 
3.6621094e-2, 3.3400628e+1, -0.059925284, -12599.505, 4.9588385, 0.0, 0.0016895764, -0.057973605, 0.0 
3.6621094e-2, 3.342474e+1, -0.0591875, -12567.899, 6.407102, 0.0, 0.001874602, -0.055921152, 0.0 
3.6621094e-2, 3.344885e+1, -0.059113353, -12571.946, -1.3892432, 0.0, 0.001243432, -0.058959838, 0.0 
3.6621094e-2, 3.3472964e+1, -0.05867771, -12519.43, 3.5647871, 0.0, 0.0011401722, -0.057662666, 0.0 
3.6621094e-2, 3.3497077e+1, -0.058512628, -12534.13, -1.3912848, 0.0, 0.0012961609, -0.058358196, 0.0 
3.6621094e-2, 3.3521193e+1, -0.05804837, -12483.998, -4.0745916, 0.0, 0.0019581856, -0.056718476, 0.0 
3.6621094e-2, 3.3545306e+1, -0.057658255, -12490.283, 3.889421, 0.0, 0.0014540353, -0.0564471, 0.0 
3.6621094e-2, 3.3569422e+1, -0.057037447, -12441.816, -1.6389619, 0.0, 0.0008017435, -0.056821544, 0.0 
3.6621094e-2, 3.359354e+1, -0.056461543, -12455.121, -3.6572058, 0.0, 0.0018071741, -0.055387672, 0.0 
3.6621094e-2, 3.361765e+1, -0.055568695, -12406.552, 3.4948235, 0.0, 0.0014828381, -0.054584228, 0.0 
3.6621094e-2, 3.364177e+1, -0.054736096, -12414.398, 0.2805279, 0.0, 0.0010198964, -0.054729756, 0.0 
3.6621094e-2, 3.366589e+1, -0.05375199, -12360.331, -2.2722263, 0.0, 0.0020945852, -0.05333428, 0.0 
3.6621094e-2, 3.3690006e+1, -0.053184167, -12380.532, -0.35968304, 0.0, 0.001443251, -0.053173717, 0.0 
3.6621094e-2, 3.3714122e+1, -0.053127594, -12324.276, 0.47339272, 0.0, 0.00090916734, -0.053109407, 0.0 
3.6621094e-2, 3.3738244e+1, -0.05322148, -12335.545, -1.1445318, 0.0, 0.0017941039, -0.053115286, 0.0 
3.6621094e-2, 3.376236e+1, -0.053358693, -12286.053, -0.3659734, 0.0, 0.0014733112, -0.053347792, 0.0 
3.6621094e-2, 3.378648e+1, -0.05330404, -12299.398, 2.9969876, 0.0, 0.0011968445, -0.052573763, 0.0 
3.6621094e-2, 3.38106e+1, -0.05341698, -12252.2, -5.5674014, 0.0, 0.0018973247, -0.050887138, 0.0 
3.6621094e-2, 3.383472e+1, -0.053608973, -12251.672, 1.3406386, 0.0, 0.001465677, -0.05346227, 0.0 
3.6621094e-2, 3.3858842e+1, -0.05425385, -12211.77, 12.399456, 0.0, 0.0011447881, -0.041663777, 0.0 
3.6621094e-2, 3.388296e+1, -0.054956943, -12213.195, -3.8619344, 0.0, 0.0018782152, -0.053735755, 0.0 
3.6621094e-2, 3.3907086e+1, -0.05573575, -12154.09, 13.736692, 0.0, 0.0012852605, -0.040210325, 0.0 
3.6621094e-2, 3.3931205e+1, -0.056419913, -12188.475, 65.40641, 0.0, 0.0009464643, 0.29455876, 0.0 
3.6621094e-2, 3.395533e+1, -0.056950334, -12145.206, 21.337849, 0.0, 0.0024064532, -0.01946192, 0.0 
3.6621094e-2, 3.3979455e+1, -0.05819688, -12136.391, -5.5934973, 0.0, 0.0015917831, -0.0556189, 0.0 
3.6621094e-2, 3.4003574e+1, -0.05920759, -12095.587, -1.4342484, 0.0, 0.00070630206, -0.05903752, 0.0 
3.6621094e-2, 3.40277e+1, -0.059888255, -12100.333, 3.5527668, 0.0, 0.0018971802, -0.058845125, 0.0 
3.6621094e-2, 3.4051824e+1, -0.059960265, -12053.41, -2.8844986, 0.0, 0.0015529582, -0.059269972, 0.0 
3.6621094e-2, 3.4075952e+1, -0.060303964, -12060.507, -1.3088223, 0.0, 0.0010972171, -0.060161926, 0.0 
3.6621094e-2, 3.4100074e+1, -0.061024994, -12022.29, 2.10048, 0.0, 0.0019833029, -0.060658004, 0.0 
3.6621094e-2, 3.41242e+1, -0.062018637, -12016.008, -1.1496743, 0.0, 0.0015746747, -0.061908636, 0.0 
3.6621094e-2, 3.4148327e+1, -0.06218991, -11976.551, 2.2823436, 0.0, 0.0011072712, -0.061754968, 0.0 
3.6621094e-2, 3.4172454e+1, -0.061930798, -11980.18, 0.3305359, 0.0, 0.0015925701, -0.061921675, 0.0 
3.6621094e-2, 3.419658e+1, -0.061796624, -11942.43, -3.7991374, 0.0, 0.0016548799, -0.060588032, 0.0 
3.6621094e-2, 3.4220707e+1, -0.061782125, -11939.844, 2.3398886, 0.0, 0.001207921, -0.061323564, 0.0 
3.6621094e-2, 3.4244835e+1, -0.06209229, -11911.265, 0.4177171, 0.0, 0.0016678097, -0.062077638, 0.0 
3.6621094e-2, 3.4268966e+1, -0.06245781, -11889.191, -0.3671732, 0.0, 0.0018037664, -0.06244647, 0.0 
3.6621094e-2, 3.4293094e+1, -0.06285779, -11866.424, 0.79286367, 0.0, 0.0009939539, -0.06280482, 0.0 
3.6621094e-2, 3.4317222e+1, -0.06294061, -11859.867, -0.8794885, 0.0, 0.0015346267, -0.06287539, 0.0 
3.6621094e-2, 3.4341353e+1, -0.063677974, -11835.76, 3.4167664, 0.0, 0.0018080141, -0.062691614, 0.0 
3.6621094e-2, 3.436548e+1, -0.06413844, -11805.803, -2.2261958, 0.0, 0.0008486665, -0.063718654, 0.0 
3.6621094e-2, 3.4389615e+1, -0.064716056, -11775.765, 12.91479, 0.0, 0.0018311287, -0.05055201, 0.0 
3.6621094e-2, 3.4413746e+1, -0.06459251, -11767.595, 84.016525, 0.0, 0.002095735, 0.53522897, 0.0 
3.6621094e-2, 3.4437877e+1, -0.06396829, -11771.272, 80.74331, 0.0, 0.0005953857, 0.48985556, 0.0 
3.6621094e-2, 3.446201e+1, -0.06262895, -11740.501, 10.623594, 0.0, 0.0014451391, -0.053015962, 0.0 
3.6621094e-2, 3.4486142e+1, -0.062107228, -11729.656, -0.23796946, 0.0, 0.0019710048, -0.0621024, 0.0 
3.6621094e-2, 3.4510276e+1, -0.061842546, -11690.145, 3.9567385, 0.0, 0.0008591601, -0.06050331, 0.0 
3.6621094e-2, 3.453441e+1, -0.062075824, -11675.998, -0.44043207, 0.0, 0.0016234219, -0.06205921, 0.0 
3.6621094e-2, 3.4558544e+1, -0.062197484, -11659.482, 1.8750058, 0.0, 0.0020944388, -0.06189596, 0.0 
3.6621094e-2, 3.458268e+1, -0.061989695, -11645.819, 1.8425053, 0.0, 0.0008338953, -0.061698187, 0.0 
3.6621094e-2, 3.4606814e+1, -0.061684076, -11604.134, 0.7362774, 0.0, 0.00096137536, -0.061637357, 0.0 
3.6621094e-2, 3.4630948e+1, -0.061255388, -11614.388, -2.2273977, 0.0, 0.0018454919, -0.060828216, 0.0 
3.6621094e-2, 3.4655085e+1, -0.060747303, -11568.206, -2.7370632, 0.0, 0.002031318, -0.060099706, 0.0 
3.6621094e-2, 3.4679222e+1, -0.060319398, -11558.171, 5.1687145, 0.0, 0.0010667469, -0.05800798, 0.0 
3.6621094e-2, 3.470336e+1, -0.059841387, -11541.234, 2.848286, 0.0, 0.00029735386, -0.059138447, 0.0 
3.6621094e-2, 3.4727496e+1, -0.05991156, -11534.72, -2.408152, 0.0, 0.0020098793, -0.0594088, 0.0 
3.6621094e-2, 3.4751633e+1, -0.06015656, -11482.436, 3.4869637, 0.0, 0.0027900052, -0.059097644, 0.0 
3.6621094e-2, 3.4775773e+1, -0.060588125, -11489.457, -2.1793694, 0.0, 0.00028422187, -0.06017473, 0.0 
3.6621094e-2, 3.4799913e+1, -0.0605603, -11457.287, 9.094534, 0.0, 0.0004989386, -0.053341232, 0.0 
3.6621094e-2, 3.482405e+1, -0.060306434, -11450.653, 6.6872787, 0.0, 0.0024287666, -0.05640099, 0.0 
3.6621094e-2, 3.484819e+1, -0.05950337, -11413.135, 4.1671586, 0.0, 0.0014406618, -0.05798185, 0.0 
3.6621094e-2, 3.487233e+1, -0.059304405, -11413.116, -4.3977814, 0.0, 0.00091616815, -0.057609815, 0.0 
3.6621094e-2, 3.489647e+1, -0.059255727, -11371.796, 3.9329276, 0.0, 0.001748655, -0.05789552, 0.0 
3.6621094e-2, 3.4920612e+1, -0.05980561, -11376.051, 2.0846608, 0.0, 0.0011529437, -0.059423596, 0.0 
3.6621094e-2, 3.4944752e+1, -0.060446724, -11337.091, -3.1499488, 0.0, 0.0013932454, -0.059571527, 0.0 
3.6621094e-2, 3.4968895e+1, -0.06133901, -11334.402, 6.3050814, 0.0, 0.0015414056, -0.05783161, 0.0 
3.6621094e-2, 3.4993038e+1, -0.06249632, -11292.653, 0.14919598, 0.0, 0.0010118874, -0.06249435, 0.0 
3.6621094e-2, 3.501718e+1, -0.06280618, -11289.939, -6.3629684, 0.0, 0.0015631869, -0.059220016, 0.0 
3.6621094e-2, 3.5041323e+1, -0.06295167, -11263.691, 8.500826, 0.0, 0.00149307, -0.056535974, 0.0 
3.6621094e-2, 3.506547e+1, -0.06326623, -11258.4375, 1.5320761, 0.0, 0.0010283728, -0.06305774, 0.0 
3.6621094e-2, 3.5089612e+1, -0.064582795, -11215.366, -11.616402, 0.0, 0.001842339, -0.05255096, 0.0 
3.6621094e-2, 3.5113755e+1, -0.065866314, -11214.313, 5.169191, 0.0, 0.001114364, -0.06348358, 0.0 
3.6621094e-2, 3.51379e+1, -0.067159444, -11192.831, 0.85218215, 0.0, 0.0012526681, -0.067094564, 0.0 
3.6621094e-2, 3.516205e+1, -0.071033105, -11166.507, 54.612038, 0.0, 0.0018940867, 0.19605334, 0.0 
3.6621094e-2, 3.5186192e+1, -0.06801779, -11143.039, -23.065329, 0.0, 0.0005148375, -0.020274047, 0.0 
3.6621094e-2, 3.5210338e+1, -0.06735482, -11133.92, 7.6385684, 0.0, 0.00138905, -0.062114254, 0.0 
3.6621094e-2, 3.5234487e+1, -0.06673215, -11105.899, 11.535681, 0.0, 0.0025395816, -0.054749995, 0.0 
3.6621094e-2, 3.5258633e+1, -0.066526674, -11089.51, -9.607325, 0.0, 0.00072067976, -0.058203384, 0.0 
3.6621094e-2, 3.5282785e+1, -0.06667469, -11070.771, -0.3309408, 0.0, 0.001039465, -0.06666479, 0.0 
3.6621094e-2, 3.530693e+1, -0.06747641, -11051.331, 5.2202053, 0.0, 0.0017582916, -0.06501058, 0.0 
3.6621094e-2, 3.5331076e+1, -0.0680395, -11031.373, -9.702834, 0.0, 0.0013052053, -0.059505157, 0.0 
3.6621094e-2, 3.5355228e+1, -0.06837497, -11015.101, 1.2435827, 0.0, 0.0015210534, -0.06823457, 0.0 
3.6621094e-2, 3.537938e+1, -0.068570666, -11000.288, 6.1280193, 0.0, 0.0011846612, -0.06515686, 0.0 
3.6621094e-2, 3.540353e+1, -0.06890168, -10955.477, 0.86844003, 0.0, 0.0013197645, -0.068832844, 0.0 
3.6621094e-2, 3.542768e+1, -0.06927428, -10962.904, -8.1568, 0.0, 0.0018426315, -0.06320528, 0.0 
3.6621094e-2, 3.5451832e+1, -0.0691951, -10931.342, -7.293587, 0.0, 0.0013010557, -0.064328656, 0.0 
3.6621094e-2, 3.547598e+1, -0.069039464, -10920.906, 15.659247, 0.0, 0.0011207236, -0.04658592, 0.0 
3.6621094e-2, 3.5500133e+1, -0.0685779, -10912.065, -24.635893, 0.0, 0.0014859247, -0.012958008, 0.0 
3.6621094e-2, 3.5524288e+1, -0.08747386, -10879.921, 132.84265, 0.0, 0.0016989358, 1.5342917, 0.0 
3.6621094e-2, 3.554844e+1, -0.07088755, -10827.652, 71.94371, 0.0, 0.001378037, 0.4071203, 0.0 
3.6621094e-2, 3.5572594e+1, -0.06686012, -10842.474, 13.265095, 0.0, 0.0012179347, -0.050631016, 0.0 
3.6621094e-2, 3.559675e+1, -0.06534694, -10796.561, -8.043444, 0.0, 0.0015245859, -0.059354536, 0.0 
3.6621094e-2, 3.5620904e+1, -0.06493079, -10797.181, 39.674435, 0.0, 0.0015552995, 0.08085255, 0.0 
3.6621094e-2, 3.564506e+1, -0.06452299, -10775.485, 88.32941, 0.0, 0.0014119237, 0.65949136, 0.0 
3.6621094e-2, 3.5669214e+1, -0.0638805, -10781.689, 17.116968, 0.0, 0.0013925905, -0.036705576, 0.0 
3.6621094e-2, 3.5693368e+1, -0.0638533, -10729.869, -6.997943, 0.0, 0.001543795, -0.059289265, 0.0 
3.6621094e-2, 3.5717526e+1, -0.06395497, -10733.212, 2.377847, 0.0, 0.0014231764, -0.06342818, 0.0 
3.6621094e-2, 3.574168e+1, -0.064151004, -10683.42, -1.0343791, 0.0, 0.0012099098, -0.06405085, 0.0 
3.6621094e-2, 3.576584e+1, -0.064338304, -10695.08, -3.4860253, 0.0, 0.0018848405, -0.06320204, 0.0 
3.6621094e-2, 3.5789996e+1, -0.06409278, -10649.536, 1.4057401, 0.0, 0.0018512374, -0.06390722, 0.0 
3.6621094e-2, 3.581415e+1, -0.06418968, -10653.721, -0.7174574, 0.0, 0.00051595765, -0.06414136, 0.0 
3.6621094e-2, 3.5838315e+1, -0.0639358, -10604.379, -2.2795787, 0.0, 0.0013752404, -0.06344577, 0.0 
3.6621094e-2, 3.5862473e+1, -0.06394087, -10618.699, 0.2183844, 0.0, 0.0025061548, -0.063936375, 0.0 
3.6621094e-2, 3.588663e+1, -0.06462211, -10566.477, -1.7505732, 0.0, 0.0012608657, -0.06433208, 0.0 
3.6621094e-2, 3.5910788e+1, -0.06521575, -10572.326, 5.405514, 0.0, 0.0009358177, -0.062451955, 0.0 
3.6621094e-2, 3.5934952e+1, -0.06534941, -10533.849, 12.1606, 0.0, 0.0018304621, -0.05131077, 0.0 
3.6621094e-2, 3.595911e+1, -0.06553618, -10543.381, -1.5953155, 0.0, 0.0014464932, -0.06529479, 0.0 
3.6621094e-2, 3.5983273e+1, -0.06541757, -10486.396, -1.589028, 0.0, 0.0014024747, -0.06517678, 0.0 
3.6621094e-2, 3.6007434e+1, -0.066219024, -10493.878, 8.000809, 0.0, 0.0016742783, -0.060118966, 0.0 
3.6621094e-2, 3.6031598e+1, -0.06625987, -10457.706, -3.768729, 0.0, 0.0013658415, -0.064901695, 0.0 
3.6621094e-2, 3.605576e+1, -0.066965856, -10457.464, -1.8582084, 0.0, 0.0015257932, -0.06663567, 0.0 
3.6621094e-2, 3.6079922e+1, -0.067720205, -10416.41, 3.5468607, 0.0, 0.0017129087, -0.066512465, 0.0 
3.6621094e-2, 3.610409e+1, -0.068426274, -10417.382, -2.7954957, 0.0, 0.0012417618, -0.067676105, 0.0 
3.6621094e-2, 3.612825e+1, -0.068730965, -10371.936, -1.830227, 0.0, 0.0011449138, -0.068408, 0.0 
3.6621094e-2, 3.6152416e+1, -0.06930981, -10374.965, 2.1239223, 0.0, 0.0020323528, -0.068875, 0.0 
3.6621094e-2, 3.6176583e+1, -0.06986004, -10343.583, -0.42427012, 0.0, 0.0021745584, -0.06984264, 0.0 
3.6621094e-2, 3.6200744e+1, -0.070741154, -10339.505, -1.6867048, 0.0, 0.00036468008, -0.070466, 0.0 
3.6621094e-2, 3.622491e+1, -0.07149256, -10295.716, -1.2028538, 0.0, 0.00077362265, -0.071352035, 0.0 
3.6621094e-2, 3.624908e+1, -0.07216328, -10297.739, 1.6718001, 0.0, 0.0031403864, -0.07189186, 0.0 
3.6621094e-2, 3.6273247e+1, -0.07288428, -10265.594, 0.090142764, 0.0, 0.0016579927, -0.07288349, 0.0 
3.6621094e-2, 3.6297414e+1, -0.072794706, -10246.804, 0.74878836, 0.0, 0.00016807418, -0.07273999, 0.0 
3.6621094e-2, 3.6321583e+1, -0.07338822, -10230.044, 3.0847418, 0.0, 0.0020084337, -0.07245805, 0.0 
3.6621094e-2, 3.634575e+1, -0.0733404, -10224.664, -7.5026126, 0.0, 0.0017844382, -0.06783512, 0.0 
3.6621094e-2, 3.636992e+1, -0.073699504, -10179.353, 1.2079693, 0.0, 0.0005735356, -0.073556155, 0.0 
3.6621094e-2, 3.639409e+1, -0.07409162, -10170.773, 12.284319, 0.0, 0.0022013956, -0.05925446, 0.0 
3.6621094e-2, 3.641826e+1, -0.0743815, -10144.74, 2.8630707, 0.0, 0.0025495165, -0.07357348, 0.0 
3.6621094e-2, 3.644243e+1, -0.07468019, -10116.662, 39.857357, 0.0, 0.000044608503, 0.08234748, 0.0 
3.6621094e-2, 3.64666e+1, -0.075255856, -10122.348, 86.23784, 0.0, 0.00035062333, 0.65940374, 0.0 
3.6621094e-2, 3.6490768e+1, -0.07443086, -10109.681, 20.818977, 0.0, 0.0033450099, -0.031557977, 0.0 
3.6621094e-2, 3.651494e+1, -0.073841736, -10072.929, -7.181269, 0.0, 0.00224113, -0.06872197, 0.0 
3.6621094e-2, 3.6539114e+1, -0.0738713, -10049.424, 3.8837054, 0.0, -0.0002898971, -0.07237039, 0.0 
3.6621094e-2, 3.6563286e+1, -0.073445305, -10044.835, 4.4105477, 0.0, 0.0011311272, -0.07150868, 0.0 
3.6621094e-2, 3.658746e+1, -0.07297405, -10011.862, -3.5581703, 0.0, 0.002663737, -0.071709484, 0.0 
3.6621094e-2, 3.661163e+1, -0.071935944, -9997.649, -0.8931208, 0.0, 0.0013688237, -0.071856156, 0.0 
3.6621094e-2, 3.6635807e+1, -0.071438, -9970.194, 4.0000863, 0.0, 0.00095091516, -0.06983314, 0.0 
3.6621094e-2, 3.665998e+1, -0.07093749, -9964.286, -1.0147607, 0.0, 0.0015978183, -0.070834145, 0.0 
3.6621094e-2, 3.6684155e+1, -0.07027704, -9924.481, 1.0992695, 0.0, 0.0015182138, -0.070155285, 0.0 
3.6621094e-2, 3.6708328e+1, -0.069897614, -9928.354, 12.678763, 0.0, 0.0012813803, -0.05370642, 0.0 
3.6621094e-2, 3.6732507e+1, -0.069794714, -9897.966, -2.3137414, 0.0, 0.0015528852, -0.069253854, 0.0 
3.6621094e-2, 3.675668e+1, -0.07014925, -9881.744, -8.291824, 0.0, 0.0014636263, -0.063191496, 0.0 
3.6621094e-2, 3.6780858e+1, -0.070447184, -9841.284, 9.174489, 0.0, 0.0014198618, -0.061894257, 0.0 
3.6621094e-2, 3.6805034e+1, -0.07077037, -9857.596, 10.502382, 0.0, 0.0011617118, -0.059580956, 0.0 
3.6621094e-2, 3.6829212e+1, -0.0710063, -9815.694, -2.592995, 0.0, 0.0015247802, -0.07032131, 0.0 
3.6621094e-2, 3.685339e+1, -0.07115825, -9803.559, -8.057569, 0.0, 0.0019061671, -0.06453568, 0.0 
3.6621094e-2, 3.6877573e+1, -0.071098916, -9766.94, 15.446251, 0.0, 0.0011255926, -0.04667082, 0.0 
3.6621094e-2, 3.6901748e+1, -0.07155254, -9774.178, 11.723136, 0.0, 0.0006655863, -0.05749174, 0.0 
3.6621094e-2, 3.6925927e+1, -0.07102346, -9736.13, -10.049923, 0.0, 0.002027965, -0.060649563, 0.0 
3.6621094e-2, 3.6950108e+1, -0.070238926, -9730.325, -4.2171955, 0.0, 0.0019971307, -0.06841115, 0.0 
3.6621094e-2, 3.697429e+1, -0.07026985, -9690.516, 13.899701, 0.0, 0.0006920721, -0.050332557, 0.0 
3.6621094e-2, 3.6998472e+1, -0.07008651, -9696.962, 7.506265, 0.0, 0.0012125788, -0.06427599, 0.0 
3.6621094e-2, 3.702265e+1, -0.06955838, -9654.817, -8.889144, 0.0, 0.00196296, -0.06137414, 0.0 
3.6621094e-2, 3.7046832e+1, -0.06861506, -9654.303, -4.767756, 0.0, 0.0008798636, -0.066260494, 0.0 
3.6621094e-2, 3.7071013e+1, -0.06845872, -9614.536, 5.8367295, 0.0, 0.001420926, -0.064915374, 0.0 
3.6621094e-2, 3.7095195e+1, -0.06854517, -9614.231, 5.0091853, 0.0, 0.0021170673, -0.06593528, 0.0 
3.6621094e-2, 3.711938e+1, -0.06841841, -9579.788, -3.1903086, 0.0, 0.00080401724, -0.06735595, 0.0 
3.6621094e-2, 3.714356e+1, -0.06830712, -9572.865, -8.397577, 0.0, 0.0011333956, -0.060940485, 0.0 
3.6621094e-2, 3.716775e+1, -0.06913846, -9533.351, 1.481351, 0.0, 0.0019937463, -0.068908274, 0.0 
3.6621094e-2, 3.7191933e+1, -0.07041498, -9545.343, 11.740966, 0.0, 0.0007128621, -0.055973273, 0.0 
3.6621094e-2, 3.7216118e+1, -0.071717456, -9503.33, -0.92360204, 0.0, 0.001431153, -0.07162769, 0.0 
3.6621094e-2, 3.7240303e+1, -0.07244809, -9486.613, -15.189247, 0.0, 0.0022675851, -0.04812809, 0.0 
3.6621094e-2, 3.7264487e+1, -0.07249487, -9452.531, 1.0731864, 0.0, 0.00080001354, -0.07237303, 0.0 
3.6621094e-2, 3.7288675e+1, -0.072565034, -9465.897, 18.935503, 0.0, 0.00085155864, -0.034686465, 0.0 
3.6621094e-2, 3.7312862e+1, -0.07261466, -9434.938, -6.074663, 0.0, 0.0019131388, -0.06870347, 0.0 
3.6621094e-2, 3.7337047e+1, -0.073832706, -9403.068, -19.285288, 0.0, 0.001353542, -0.034279265, 0.0 
3.6621094e-2, 3.7361237e+1, -0.07467185, -9374.696, 21.765865, 0.0, 0.0011659664, -0.024136445, 0.0 
3.6621094e-2, 3.7385425e+1, -0.07559929, -9381.34, 34.43114, 0.0, 0.0015629734, 0.05076827, 0.0 
3.6621094e-2, 3.7409616e+1, -0.07601183, -9353.908, -2.4658046, 0.0, 0.0014206396, -0.07536181, 0.0 
3.6621094e-2, 3.7433803e+1, -0.07590655, -9334.919, -1.4831816, 0.0, 0.0009429697, -0.0756709, 0.0 
3.6621094e-2, 3.7457994e+1, -0.0750618, -9309.736, 10.925727, 0.0, 0.0012304671, -0.06223949, 0.0 
3.6621094e-2, 3.748218e+1, -0.0743747, -9293.693, 5.4886208, 0.0, 0.002373103, -0.07113323, 0.0 
3.6621094e-2, 3.7506375e+1, -0.07434917, -9277.88, -5.0519524, 0.0, 0.0014118456, -0.071598284, 0.0 
3.6621094e-2, 3.7530562e+1, -0.07528557, -9254.845, -7.620148, 0.0, -0.0004212994, -0.06901133, 0.0 
3.6621094e-2, 3.7554756e+1, -0.07652483, -9222.965, 2.956454, 0.0, 0.0018131129, -0.07557712, 0.0 
3.6621094e-2, 3.757895e+1, -0.07681821, -9215.217, 7.6591706, 0.0, 0.0033412066, -0.070452295, 0.0 
3.6621094e-2, 3.7603137e+1, -0.07685261, -9209.249, -6.905206, 0.0, 0.00048188315, -0.07167496, 0.0 
3.6621094e-2, 3.762733e+1, -0.076621786, -9170.13, -6.7672186, 0.0, 0.000031730968, -0.07162779, 0.0 
3.6621094e-2, 3.7651527e+1, -0.076830804, -9149.0, 5.4003825, 0.0, 0.0021589454, -0.073643096, 0.0 
3.6621094e-2, 3.767572e+1, -0.07729947, -9141.557, -1.6709849, 0.0, 0.002095833, -0.076994024, 0.0 
3.6621094e-2, 3.7699914e+1, -0.07718839, -9117.333, -2.0822883, 0.0, 0.0011755257, -0.07671282, 0.0 
3.6621094e-2, 3.772411e+1, -0.077344716, -9091.729, 4.359303, 0.0, 0.00060994364, -0.0752545, 0.0 
3.6621094e-2, 3.77483e+1, -0.07633337, -9079.628, -5.098544, 0.0, 0.0013609285, -0.073470324, 0.0 
3.6621094e-2, 3.77725e+1, -0.07472433, -9058.699, -4.120253, 0.0, 0.0027044844, -0.07285026, 0.0 
3.6621094e-2, 3.7796697e+1, -0.07419803, -9043.083, 4.026744, 0.0, 0.0012929075, -0.072404966, 0.0 
3.6621094e-2, 3.7820894e+1, -0.073931694, -9017.416, -2.2082028, 0.0, -0.00006650679, -0.073390946, 0.0 
3.6621094e-2, 3.784509e+1, -0.0739173, -8995.194, -3.275425, 0.0, 0.0017389427, -0.0727246, 0.0 
3.6621094e-2, 3.7869287e+1, -0.07403724, -8973.195, 11.1813545, 0.0, 0.0028479486, -0.060104236, 0.0 
3.6621094e-2, 3.7893486e+1, -0.07462482, -8958.364, 26.020643, 0.0, 0.0012875381, 0.00095525023, 0.0 
3.6621094e-2, 3.7917683e+1, -0.07508062, -8945.806, 21.8036, 0.0, -0.00007524835, -0.021938602, 0.0 
3.6621094e-2, 3.7941882e+1, -0.07494793, -8921.046, 6.8539343, 0.0, 0.0015783103, -0.06968209, 0.0 
3.6621094e-2, 3.796608e+1, -0.07493988, -8903.58, 15.610726, 0.0, 0.0031827823, -0.04756931, 0.0 
3.6621094e-2, 3.799028e+1, -0.07511466, -8891.994, -1.8374761, 0.0, 0.0012079448, -0.074734956, 0.0 
3.6621094e-2, 3.801448e+1, -0.07489188, -8861.988, -16.742746, 0.0, -0.000096337695, -0.04326005, 0.0 
3.6621094e-2, 3.803868e+1, -0.074941345, -8833.131, 4.384396, 0.0, 0.002014089, -0.0727651, 0.0 
3.6621094e-2, 3.8062885e+1, -0.07489927, -8822.472, 10.884629, 0.0, 0.0024136186, -0.061470386, 0.0 
3.6621094e-2, 3.8087085e+1, -0.07470678, -8813.181, -4.655933, 0.0, 0.0010954876, -0.072247066, 0.0 
3.6621094e-2, 3.8111287e+1, -0.07414808, -8780.156, -3.1918802, 0.0, 0.0011463409, -0.07298771, 0.0 
3.6621094e-2, 3.813549e+1, -0.076660074, -8743.956, 113.9412, 0.0, 0.0015182067, 1.4078518, 0.0 
3.6621094e-2, 3.8159695e+1, -0.072308, -8750.35, 44.028275, 0.0, 0.0018823445, 0.14922096, 0.0 
3.6621094e-2, 3.8183895e+1, -0.07306985, -8749.408, 10.116495, 0.0, 0.0019458389, -0.061372582, 0.0 
3.6621094e-2, 3.82081e+1, -0.07502758, -8705.035, -8.226739, 0.0, 0.00044594938, -0.06725279, 0.0 
3.6621094e-2, 3.8232303e+1, -0.07628688, -8673.811, 9.831083, 0.0, 0.0009472859, -0.06514404, 0.0 
3.6621094e-2, 3.825651e+1, -0.07582618, -8671.727, -6.552542, 0.0, 0.0034517068, -0.0708749, 0.0 
3.6621094e-2, 3.8280717e+1, -0.07594917, -8631.322, 70.84493, 0.0, 0.0019313135, 0.5055041, 0.0 
3.6621094e-2, 3.830492e+1, -0.072819225, -8640.148, 61.935543, 0.0, -0.0010148037, 0.3711369, 0.0 
3.6621094e-2, 3.8329127e+1, -0.07202375, -8607.736, 23.054094, 0.0, 0.0018311181, -0.010277909, 0.0 
3.6621094e-2, 3.8353336e+1, -0.07255944, -8568.81, 11.700565, 0.0, 0.003358358, -0.05658241, 0.0 
3.6621094e-2, 3.8377544e+1, -0.073048, -8556.206, 77.0365, 0.0, 0.0010247126, 0.62050605, 0.0 
3.6621094e-2, 3.840175e+1, -0.07471758, -8573.349, 111.88595, 0.0, 0.0006268142, 1.3852072, 0.0 
3.6621094e-2, 3.8425958e+1, -0.07509979, -8542.8545, 14.655396, 0.0, 0.0015069516, -0.049958088, 0.0 
3.6621094e-2, 3.8450164e+1, -0.0759927, -8516.595, -10.466039, 0.0, 0.0022474213, -0.0631309, 0.0 
3.6621094e-2, 3.8474378e+1, -0.07693022, -8491.283, 14.142082, 0.0, 0.0018754911, -0.053376682, 0.0 
3.6621094e-2, 3.8498583e+1, -0.07683233, -8477.92, -6.7998757, 0.0, 0.00027808, -0.07137832, 0.0 
3.6621094e-2, 3.8522798e+1, -0.077747904, -8420.425, 40.57119, 0.0, 0.00144184, 0.11772898, 0.0 
3.6621094e-2, 3.8547003e+1, -0.07722019, -8445.29, 56.849766, 0.0, 0.0024547323, 0.30545214, 0.0 
3.6621094e-2, 3.8571218e+1, -0.076807566, -8425.575, 21.181833, 0.0, 0.0017948658, -0.023556437, 0.0 
3.6621094e-2, 3.859543e+1, -0.07700606, -8391.886, -2.2249305, 0.0, 0.00041233367, -0.076416165, 0.0 
3.6621094e-2, 3.861964e+1, -0.077492826, -8372.145, 0.36577135, 0.0, 0.0004254054, -0.077476844, 0.0 
3.6621094e-2, 3.8643852e+1, -0.07759791, -8361.093, -0.9893854, 0.0, 0.0035558795, -0.07748083, 0.0 
3.6621094e-2, 3.8668063e+1, -0.07749319, -8329.168, 9.844867, 0.0, 0.0028199537, -0.06585671, 0.0 
3.6621094e-2, 3.8692275e+1, -0.07619741, -8325.059, 1.081463, 0.0, -0.0019238573, -0.07605692, 0.0 
3.6621094e-2, 3.8716492e+1, -0.07568871, -8283.822, -1.8397509, 0.0, 0.000727646, -0.075280115, 0.0 
3.6621094e-2, 3.8740706e+1, -0.07538489, -8281.337, 9.6641655, 0.0, 0.004722888, -0.06410691, 0.0 
3.6621094e-2, 3.8764924e+1, -0.07486367, -8256.174, 1.6949055, 0.0, 0.0017324152, -0.07451572, 0.0 
3.6621094e-2, 3.8789135e+1, -0.075109884, -8239.389, 0.6554505, 0.0, -0.0011570568, -0.07505774, 0.0 
3.6621094e-2, 3.881335e+1, -0.07477442, -8216.681, -0.37026882, 0.0, 0.00097284804, -0.07475773, 0.0 
3.6621094e-2, 3.883757e+1, -0.07360482, -8198.573, 4.2579975, 0.0, 0.0035931575, -0.07139338, 0.0 
3.6621094e-2, 3.8861787e+1, -0.07277266, -8178.621, 10.870943, 0.0, 0.00194482, -0.058323007, 0.0 
3.6621094e-2, 3.8886002e+1, -0.07201695, -8159.335, -12.596844, 0.0, -0.0007046263, -0.0525691, 0.0 
3.6621094e-2, 3.8910222e+1, -0.071868576, -8113.486, 26.984556, 0.0, 0.0011363039, 0.01787887, 0.0 
3.6621094e-2, 3.8934436e+1, -0.07196768, -8132.598, 61.41967, 0.0, 0.002882918, 0.39186862, 0.0 
3.6621094e-2, 3.8958657e+1, -0.071930565, -8109.444, 19.495125, 0.0, 0.0018304142, -0.025064088, 0.0 
3.6621094e-2, 3.8982877e+1, -0.07177392, -8075.975, -4.6671476, 0.0, 0.000111553, -0.069076724, 0.0 
3.6621094e-2, 3.9007095e+1, -0.07188708, -8072.348, 3.9659894, 0.0, 0.00024608115, -0.069938555, 0.0 
3.6621094e-2, 3.9031315e+1, -0.07187553, -8042.375, -0.24986652, 0.0, 0.0031802328, -0.071867764, 0.0 
3.6621094e-2, 3.9055535e+1, -0.0716094, -8016.377, 5.9653378, 0.0, 0.0027830948, -0.06717029, 0.0 
3.6621094e-2, 3.9079753e+1, -0.0715448, -8008.8174, -5.262686, 0.0, -0.0012436571, -0.0680866, 0.0 
3.6621094e-2, 3.9103976e+1, -0.07265623, -7979.213, -10.786736, 0.0, 0.00027407805, -0.058074024, 0.0 
3.6621094e-2, 3.9128196e+1, -0.07287318, -7953.307, 15.495203, 0.0, 0.0039024097, -0.042684156, 0.0 
3.6621094e-2, 3.915242e+1, -0.07348659, -7958.4834, 9.284354, 0.0, 0.0019704162, -0.06265539, 0.0 
3.6621094e-2, 3.9176643e+1, -0.07366555, -7924.9053, -15.781348, 0.0, -0.0005118751, -0.042239025, 0.0 
3.6621094e-2, 3.9200866e+1, -0.07390567, -7898.819, -7.4879394, 0.0, 0.0002999823, -0.06680717, 0.0 
3.6621094e-2, 3.922509e+1, -0.07419923, -7877.3438, 12.892644, 0.0, 0.0030496507, -0.05309803, 0.0 
3.6621094e-2, 3.9249313e+1, -0.07463877, -7882.651, 7.591783, 0.0, 0.0030714246, -0.06732706, 0.0 
3.6621094e-2, 3.9273536e+1, -0.074161425, -7839.5396, -13.079401, 0.0, -0.0010210677, -0.052339748, 0.0 
3.6621094e-2, 3.9297763e+1, -0.0755049, -7811.0737, 43.584187, 0.0, -0.0007185333, 0.1676807, 0.0 
3.6621094e-2, 3.9321992e+1, -0.07564463, -7811.485, 31.583946, 0.0, 0.0044147074, 0.05205696, 0.0 
3.6621094e-2, 3.9346215e+1, -0.076891944, -7800.296, 9.017776, 0.0, 0.0028924556, -0.06646657, 0.0 
3.6621094e-2, 3.937044e+1, -0.07799022, -7746.561, 8.2105055, 0.0, -0.0016129902, -0.0692879, 0.0 
3.6621094e-2, 3.9394668e+1, -0.07807246, -7765.263, 20.572498, 0.0, 0.0005641379, -0.023569608, 0.0 
3.6621094e-2, 3.9418897e+1, -0.078969084, -7738.72, 4.666141, 0.0, 0.0034758586, -0.07615556, 0.0 
3.6621094e-2, 3.9443123e+1, -0.08034515, -7700.264, 4.404148, 0.0, 0.001539743, -0.07782618, 0.0 
3.6621094e-2, 3.946735e+1, -0.08127551, -7678.609, 5.0173373, 0.0, 0.000391333, -0.07799706, 0.0 
3.6621094e-2, 3.9491582e+1, -0.08286553, -7687.6523, -7.154451, 0.0, 0.0009604121, -0.07620723, 0.0 
3.6621094e-2, 3.9515808e+1, -0.083000734, -7641.6353, 2.420056, 0.0, 0.0019084319, -0.082234316, 0.0 
3.6621094e-2, 3.954004e+1, -0.08322534, -7639.5386, 11.876096, 0.0, 0.0023940832, -0.06476312, 0.0 
3.6621094e-2, 3.9564267e+1, -0.082967296, -7609.4595, -10.850701, 0.0, 0.00058538606, -0.067494616, 0.0 
3.6621094e-2, 3.9588496e+1, -0.08274583, -7596.0776, -16.602446, 0.0, -0.00015579969, -0.046458296, 0.0 
3.6621094e-2, 3.961273e+1, -0.08307212, -7555.1543, 15.709479, 0.0, 0.0029469999, -0.050407078, 0.0 
3.6621094e-2, 3.9636964e+1, -0.082963906, -7570.2114, 15.930264, 0.0, 0.0026651544, -0.049441062, 0.0 
3.6621094e-2, 3.9661193e+1, -0.08135326, -7522.398, -17.196154, 0.0, -0.00021865094, -0.042042743, 0.0 
3.6621094e-2, 3.9685425e+1, -0.07995285, -7498.2236, 22.518038, 0.0, 0.00077071827, -0.012328458, 0.0 
3.6621094e-2, 3.970966e+1, -0.078016445, -7491.359, 75.76898, 0.0, 0.0026842814, 0.6882546, 0.0 
3.6621094e-2, 3.9733896e+1, -0.07763805, -7505.8604, 38.516285, 0.0, 0.0014202084, 0.120004915, 0.0 
3.6621094e-2, 3.9758125e+1, -0.07690776, -7437.4287, -11.557915, 0.0, 0.000972106, -0.05894639, 0.0 
3.6621094e-2, 3.978236e+1, -0.07616114, -7422.188, 24.431513, 0.0, 0.0016949003, 0.0042596897, 0.0 
3.6621094e-2, 3.9806595e+1, -0.07508649, -7423.058, 96.50989, 0.0, 0.0014083773, 1.1794744, 0.0 
3.6621094e-2, 3.983083e+1, -0.073325045, -7418.54, 33.917973, 0.0, 0.0014028071, 0.081748076, 0.0 
3.6621094e-2, 3.9855063e+1, -0.07235747, -7371.7715, -12.982959, 0.0, 0.0016544288, -0.04949209, 0.0 
3.6621094e-2, 3.9879304e+1, -0.072659805, -7365.1196, -8.10766, 0.0, 0.0012016424, -0.06373466, 0.0 
3.6621094e-2, 3.9903536e+1, -0.07179436, -7339.211, 8.35891, 0.0, 0.0015836728, -0.062273998, 0.0 
3.6621094e-2, 3.9927778e+1, -0.06991632, -7317.998, 3.7186544, 0.0, 0.0017959544, -0.06802667, 0.0 
3.6621094e-2, 3.9952016e+1, -0.06710427, -7292.995, -8.669435, 0.0, 0.001213267, -0.056798533, 0.0 
3.6621094e-2, 3.997625e+1, -0.06478662, -7290.7646, -3.3633754, 0.0, 0.0014144474, -0.063235015, 0.0 
3.6621094e-2, 4.000049e+1, -0.063702, -7257.809, 6.6373377, 0.0, 0.0017634295, -0.057632048, 0.0 
3.6621094e-2, 4.002473e+1, -0.06325141, -7235.79, 1.6997967, 0.0, 0.0012065336, -0.0628521, 0.0 
3.6621094e-2, 4.004897e+1, -0.06321992, -7208.891, -4.0842457, 0.0, 0.0015125786, -0.060905945, 0.0 
3.6621094e-2, 4.0073207e+1, -0.0627222, -7205.3057, 14.7914295, 0.0, 0.002003042, -0.03235744, 0.0 
3.6621094e-2, 4.009745e+1, -0.061926723, -7182.927, 45.742947, 0.0, 0.0012918463, 0.22936825, 0.0 
3.6621094e-2, 4.012169e+1, -0.06127717, -7170.507, 18.893063, 0.0, 0.00093745714, -0.011497097, 0.0 
3.6621094e-2, 4.014593e+1, -0.061715826, -7140.739, -11.193084, 0.0, 0.0017574555, -0.044170596, 0.0 
3.6621094e-2, 4.0170175e+1, -0.062339686, -7122.5483, 4.0843325, 0.0, 0.0022715617, -0.05999756, 0.0 
3.6621094e-2, 4.0194416e+1, -0.06379087, -7104.6616, 25.83555, 0.0, 0.001140667, 0.030157704, 0.0 
3.6621094e-2, 4.0218657e+1, -0.065148406, -7089.2246, 0.12708901, 0.0, 0.00065296097, -0.065146126, 0.0 
3.6621094e-2, 4.02429e+1, -0.06631937, -7057.711, -4.0845833, 0.0, 0.0019967332, -0.06395543, 0.0 
3.6621094e-2, 4.0267143e+1, -0.066740684, -7051.55, 9.3905115, 0.0, 0.002267674, -0.05423529, 0.0 
3.6621094e-2, 4.029139e+1, -0.0671076, -7030.4136, -4.862048, 0.0, 0.0010383305, -0.063745104, 0.0 
3.6621094e-2, 4.031563e+1, -0.068132035, -7000.048, -3.9243405, 0.0, 0.00083272345, -0.06593197, 0.0 
3.6621094e-2, 4.0339878e+1, -0.06934788, -6982.8027, 2.643451, 0.0, 0.0017364632, -0.06834715, 0.0 
3.6621094e-2, 4.0364125e+1, -0.071344666, -6976.7705, -4.8037534, 0.0, 0.002451757, -0.06803708, 0.0 
3.6621094e-2, 4.038837e+1, -0.07377134, -6949.16, 7.056891, 0.0, 0.0010143813, -0.06660498, 0.0 
3.6621094e-2, 4.0412617e+1, -0.07569082, -6914.3257, 8.375513, 0.0, 0.00066383317, -0.06554524, 0.0 
3.6621094e-2, 4.0436864e+1, -0.077834696, -6878.2847, 5.0571713, 0.0, 0.0022400396, -0.07411643, 0.0 
3.6621094e-2, 4.0461108e+1, -0.07963906, -6887.4263, 66.81635, 0.0, 0.001424479, 0.56850684, 0.0 
3.6621094e-2, 4.0485358e+1, -0.08174654, -6895.833, 134.81357, 0.0, 0.0009802507, 2.5528839, 0.0 
3.6621094e-2, 4.0509605e+1, -0.08252334, -6853.826, 31.317453, 0.0, 0.0023645535, 0.060575448, 0.0 
3.6621094e-2, 4.0533856e+1, -0.08363335, -6797.986, -1.4410708, 0.0, 0.00093937916, -0.08332786, 0.0 
3.6621094e-2, 4.0558106e+1, -0.083726354, -6808.999, 77.341, 0.0, 0.001245528, 0.7946601, 0.0 
3.6621094e-2, 4.0582356e+1, -0.0851886, -6813.1416, 130.61401, 0.0, 0.0022830516, 2.4179106, 0.0 
3.6621094e-2, 4.0606606e+1, -0.08478221, -6787.7485, 20.90116, 0.0, 0.000113503695, -0.020422166, 0.0 
3.6621094e-2, 4.0630856e+1, -0.085233994, -6743.4404, -9.306631, 0.0, 0.0013803387, -0.07238977, 0.0 
3.6621094e-2, 4.0655106e+1, -0.084701315, -6749.1416, 5.4023905, 0.0, 0.0034370115, -0.080376886, 0.0 
3.6621094e-2, 4.0679356e+1, -0.084221445, -6713.2856, -1.6007152, 0.0, 0.00047795987, -0.08383977, 0.0 
3.6621094e-2, 4.070361e+1, -0.083033174, -6685.1245, 13.034484, 0.0, 0.00027158164, -0.057618655, 0.0 
3.6621094e-2, 4.0727863e+1, -0.08138685, -6673.2866, -1.9557966, 0.0, 0.0021974028, -0.08081365, 0.0 
3.6621094e-2, 4.0752113e+1, -0.07879022, -6662.412, -22.43621, 0.0, 0.0017894849, -0.0032344298, 0.0 
3.6621094e-2, 4.0776366e+1, -0.076295584, -6630.9854, 17.378597, 0.0, 0.0011109614, -0.030749252, 0.0 
3.6621094e-2, 4.0800622e+1, -0.07488213, -6614.349, 13.83523, 0.0, 0.0011531626, -0.045942783, 0.0 
3.6621094e-2, 4.0824875e+1, -0.07325909, -6556.5713, 6.8807425, 0.0, 0.0016099224, -0.06603808, 0.0 
3.6621094e-2, 4.084913e+1, -0.0733386, -6570.7017, 112.09095, 0.0, 0.0013579064, 1.8383092, 0.0 
3.6621094e-2, 4.0873387e+1, -0.07348014, -6581.073, 146.80795, 0.0, 0.0010158374, 3.1998613, 0.0 
3.6621094e-2, 4.0897644e+1, -0.07189537, -6557.707, 24.590366, 0.0, 0.002053312, 0.020314334, 0.0 
3.6621094e-2, 4.0921897e+1, -0.07021525, -6501.7773, -13.466768, 0.0, 0.0016374215, -0.0423221, 0.0 
3.6621094e-2, 4.0946156e+1, -0.06711923, -6483.9814, 51.23784, 0.0, -0.000049758662, 0.33775228, 0.0 
3.6621094e-2, 4.0970412e+1, -0.064461015, -6490.75, 81.00844, 0.0, 0.001355004, 0.9464253, 0.0 
3.6621094e-2, 4.099467e+1, -0.061506346, -6479.055, 21.58129, 0.0, 0.0032318225, 0.01037934, 0.0 
3.6621094e-2, 4.1018927e+1, -0.060043544, -6430.02, -1.7934687, 0.0, 0.0006594695, -0.0595433, 0.0 
3.6621094e-2, 4.1043186e+1, -0.057905763, -6426.548, 1.3369061, 0.0, 0.0001691673, -0.057627644, 0.0 
3.6621094e-2, 4.1067448e+1, -0.056355923, -6401.5977, -0.4355128, 0.0, 0.0024174543, -0.056326292, 0.0 
3.6621094e-2, 4.1091704e+1, -0.053781014, -6382.4546, 2.5889227, 0.0, 0.0009547725, -0.05273086, 0.0 
3.6621094e-2, 4.1115966e+1, -0.05209527, -6352.04, 0.8466912, 0.0, 0.0006845055, -0.051982414, 0.0 
3.6621094e-2, 4.1140226e+1, -0.05100246, -6354.365, -6.0667057, 0.0, 0.0028576553, -0.045210354, 0.0 
3.6621094e-2, 4.1164485e+1, -0.051593103, -6313.9404, 0.5949906, 0.0, 0.0015209632, -0.051537037, 0.0 
3.6621094e-2, 4.1188747e+1, -0.05248082, -6299.3877, 13.019394, 0.0, -0.00071075046, -0.0255726, 0.0 
3.6621094e-2, 4.121301e+1, -0.05417811, -6286.402, -3.4862356, 0.0, 0.0014066261, -0.05224474, 0.0 
3.6621094e-2, 4.1237274e+1, -0.054492284, -6270.0327, -15.821761, 0.0, 0.0036589452, -0.014567655, 0.0 
3.6621094e-2, 4.1261536e+1, -0.054015867, -6237.6216, 5.423453, 0.0, 0.0010034032, -0.049300276, 0.0 
3.6621094e-2, 4.1285798e+1, -0.053517234, -6224.766, 14.642896, 0.0, -0.00075954833, -0.019071754, 0.0 
3.6621094e-2, 4.1310063e+1, -0.053108186, -6198.412, 2.998021, 0.0, 0.0020045822, -0.0516581, 0.0 
3.6621094e-2, 4.1334328e+1, -0.053480722, -6177.5303, 8.11807, 0.0, 0.002644935, -0.04281246, 0.0 
3.6621094e-2, 4.1358593e+1, -0.054847777, -6172.2686, 34.795506, 0.0, 0.00078428525, 0.1413037, 0.0 
3.6621094e-2, 4.1382858e+1, -0.056348264, -6156.3022, 23.577475, 0.0, 0.0008412977, 0.033948507, 0.0 
3.6621094e-2, 4.1407123e+1, -0.059542898, -6106.891, -7.163712, 0.0, 0.0017298008, -0.051139407, 0.0 
3.6621094e-2, 4.1431388e+1, -0.06248213, -6078.965, 53.61265, 0.0, 0.0013982054, 0.41031587, 0.0 
3.6621094e-2, 4.1455653e+1, -0.06423375, -6118.061, 104.94657, 0.0, 0.0010302013, 1.7354639, 0.0 
3.6621094e-2, 4.1479924e+1, -0.064768784, -6082.4375, 20.091436, 0.0, 0.0018788469, 0.0015969957, 0.0 
3.6621094e-2, 4.150419e+1, -0.06522543, -6041.532, -14.640652, 0.0, 0.0015928779, -0.029746061, 0.0 
3.6621094e-2, 4.1528457e+1, -0.0664877, -6036.2764, 15.132391, 0.0, 0.0005182935, -0.028552007, 0.0 
3.6621094e-2, 4.1552725e+1, -0.06776017, -6021.8403, 1.8561891, 0.0, 0.0016596274, -0.067188, 0.0 
3.6621094e-2, 4.1576996e+1, -0.070577756, -5970.46, -10.004437, 0.0, 0.0018549727, -0.053813607, 0.0 
3.6621094e-2, 4.1601264e+1, -0.072447516, -5980.441, -2.792281, 0.0, 0.0007639924, -0.07114378, 0.0 
3.6621094e-2, 4.1625535e+1, -0.07288609, -5942.593, 3.4757113, 0.0, 0.0019759, -0.07085318, 0.0 
3.6621094e-2, 4.1649804e+1, -0.07259184, -5949.299, 7.585088, 0.0, 0.0017665882, -0.06292109, 0.0 
3.6621094e-2, 4.1674078e+1, -0.071524784, -5895.5483, -6.219898, 0.0, 0.00031099305, -0.06496262, 0.0 
3.6621094e-2, 4.1698346e+1, -0.070488565, -5860.834, 13.805819, 0.0, 0.0016706917, -0.03796728, 0.0 
3.6621094e-2, 4.172262e+1, -0.06987454, -5848.631, 103.81385, 0.0, 0.0020636308, 1.7722747, 0.0 
3.6621094e-2, 4.174689e+1, -0.06927655, -5902.1997, 133.01347, 0.0, 0.0009950877, 2.9268632, 0.0 
3.6621094e-2, 4.1771165e+1, -0.06862057, -5834.5674, 21.91353, 0.0, 0.0015381792, 0.0136823, 0.0 
3.6621094e-2, 4.1795436e+1, -0.068246305, -5795.0264, -4.0947223, 0.0, 0.0015850984, -0.06535298, 0.0 
3.6621094e-2, 4.181971e+1, -0.067140214, -5774.7646, 78.97428, 0.0, 0.0011501493, 1.0127037, 0.0 
3.6621094e-2, 4.1843984e+1, -0.06563273, -5819.384, 85.991844, 0.0, 0.0015597872, 1.2047882, 0.0 
3.6621094e-2, 4.186826e+1, -0.06363095, -5745.9917, 11.091641, 0.0, 0.0015661853, -0.042220306, 0.0 
3.6621094e-2, 4.1892532e+1, -0.06174569, -5745.865, -14.90496, 0.0, 0.0012264559, -0.023081588, 0.0 
3.6621094e-2, 4.1916808e+1, -0.060246386, -5709.222, 12.807537, 0.0, 0.0017400057, -0.03151499, 0.0 
3.6621094e-2, 4.1941085e+1, -0.058880724, -5722.369, 6.8337483, 0.0, 0.0015080139, -0.050719675, 0.0 
3.6621094e-2, 4.196536e+1, -0.058187775, -5651.4844, -12.879473, 0.0, 0.001215881, -0.0288359, 0.0 
3.6621094e-2, 4.198964e+1, -0.0555806, -5667.5776, -2.3211093, 0.0, 0.001467573, -0.05463, 0.0 
3.6621094e-2, 4.2013916e+1, -0.052879296, -5632.0947, 4.9134035, 0.0, 0.0016584211, -0.048592836, 0.0 
3.6621094e-2, 4.2038193e+1, -0.049509965, -5631.7114, -3.574318, 0.0, 0.0018450203, -0.04724141, 0.0 
3.6621094e-2, 4.206247e+1, -0.04805664, -5576.493, 3.886233, 0.0, 0.0009150193, -0.04534832, 0.0 
3.6621094e-2, 4.208675e+1, -0.048160553, -5602.5713, -1.2099255, 0.0, 0.0008975204, -0.047899254, 0.0 
3.6621094e-2, 4.211103e+1, -0.049085267, -5546.399, -7.5275245, 0.0, 0.0028823898, -0.038868904, 0.0 
3.6621094e-2, 4.2135307e+1, -0.050597046, -5554.704, 9.796232, 0.0, 0.0013219521, -0.033320382, 0.0 
3.6621094e-2, 4.2159587e+1, -0.050701737, -5498.899, 2.621557, 0.0, 0.00058189436, -0.049451917, 0.0 
3.6621094e-2, 4.2183867e+1, -0.050045963, -5485.3535, 3.5140314, 0.0, 0.0025471305, -0.04779478, 0.0 
3.6621094e-2, 4.2208153e+1, -0.048709475, -5464.084, 71.61042, 0.0, 0.0007826755, 0.88963956, 0.0 
3.6621094e-2, 4.2232433e+1, -0.047608256, -5499.2134, 94.393715, 0.0, 0.0008435148, 1.572192, 0.0 
3.6621094e-2, 4.2256713e+1, -0.04687627, -5438.8438, 21.873917, 0.0, 0.003055459, 0.041095477, 0.0 
3.6621094e-2, 4.2281e+1, -0.047746357, -5405.2075, -5.185395, 0.0, 0.0011548457, -0.042771798, 0.0 
3.6621094e-2, 4.230528e+1, -0.04921852, -5376.619, 90.401825, 0.0, 0.00094595266, 1.4703712, 0.0 
3.6621094e-2, 4.2329562e+1, -0.052135017, -5428.091, 130.39612, 0.0, 0.001721163, 3.078526, 0.0 
3.6621094e-2, 4.2353848e+1, -0.053629916, -5370.5156, 4.742376, 0.0, 0.0014849722, -0.049442176, 0.0 
3.6621094e-2, 4.237813e+1, -0.054251872, -5342.8525, -14.092242, 0.0, 0.0022650755, -0.017082227, 0.0 
3.6621094e-2, 4.2402416e+1, -0.054468434, -5335.879, 19.17621, 0.0, 0.0005672027, 0.014447312, 0.0 
3.6621094e-2, 4.24267e+1, -0.054409187, -5314.997, -1.6399101, 0.0, 0.0009665305, -0.053903196, 0.0 
3.6621094e-2, 4.2450988e+1, -0.05321194, -5263.3574, 2.0683908, 0.0, 0.003035947, -0.052399095, 0.0 
3.6621094e-2, 4.2475274e+1, -0.052360825, -5282.316, -2.3725224, 0.0, 0.0007845849, -0.05129521, 0.0 
3.6621094e-2, 4.249956e+1, -0.05220116, -5241.181, -4.528741, 0.0, 0.0014023638, -0.04828798, 0.0 
3.6621094e-2, 4.252385e+1, -0.051097296, -5233.553, 14.188849, 0.0, 0.0021715004, -0.012629368, 0.0 
3.6621094e-2, 4.2548135e+1, -0.050621673, -5201.894, -8.400189, 0.0, 0.00046775327, -0.037056673, 0.0 
3.6621094e-2, 4.257242e+1, -0.050751287, -5164.496, 14.99934, 0.0, 0.0023672385, -0.0071883723, 0.0 
3.6621094e-2, 4.2596713e+1, -0.05172481, -5184.2915, 60.03356, 0.0, 0.0011600954, 0.6433714, 0.0 
3.6621094e-2, 4.2621002e+1, -0.052857876, -5163.1567, 29.923506, 0.0, 0.0003836155, 0.12056223, 0.0 
3.6621094e-2, 4.264529e+1, -0.053685665, -5117.4146, -1.0568297, 0.0, 0.0031993813, -0.053467408, 0.0 
3.6621094e-2, 4.2669582e+1, -0.05301017, -5088.565, 10.940872, 0.0, 0.0012431949, -0.029486176, 0.0 
3.6621094e-2, 4.269387e+1, -0.052587923, -5074.545, 108.59794, 0.0, 0.0005270726, 2.2704258, 0.0 
3.6621094e-2, 4.2718163e+1, -0.051493563, -5097.4233, 168.13414, 0.0, 0.0025613182, 5.488302, 0.0 
3.6621094e-2, 4.2742455e+1, -0.047517315, -5072.5864, 4.4012427, 0.0, 0.00063775416, -0.04369853, 0.0 
3.6621094e-2, 4.2766747e+1, -0.044792786, -4998.6147, 7.760352, 0.0, 0.0011227095, -0.032744758, 0.0 
3.6621094e-2, 4.279104e+1, -0.04250756, -5034.445, 90.020805, 0.0, 0.0024185474, 1.566652, 0.0 
3.6621094e-2, 4.281533e+1, -0.041535832, -5008.955, 54.012707, 0.0, 0.0010506473, 0.5408327, 0.0 
3.6621094e-2, 4.2839622e+1, -0.040540844, -4973.3413, -22.10572, 0.0, 0.00133843, 0.057714466, 0.0 
3.6621094e-2, 4.2863917e+1, -0.04072326, -4952.3647, 4.6476455, 0.0, 0.0017101327, -0.036361553, 0.0 
3.6621094e-2, 4.288821e+1, -0.04106561, -4938.6113, 6.479367, 0.0, 0.0010075921, -0.032564744, 0.0 
3.6621094e-2, 4.2912507e+1, -0.039774906, -4911.384, 4.0122194, 0.0, 0.0019189563, -0.03649721, 0.0 
3.6621094e-2, 4.2936802e+1, -0.037902273, -4908.9453, -4.2856927, 0.0, 0.0011631555, -0.034160677, 0.0 
3.6621094e-2, 4.2961097e+1, -0.035576943, -4855.4067, -2.4568396, 0.0, 0.0008043223, -0.034333773, 0.0 
3.6621094e-2, 4.2985395e+1, -0.033132173, -4870.644, 4.7097116, 0.0, 0.002161746, -0.02857805, 0.0 
3.6621094e-2, 4.300969e+1, -0.03160901, -4832.4517, 0.25430626, 0.0, 0.0019485613, -0.03159563, 0.0 
3.6621094e-2, 4.303399e+1, -0.03127776, -4815.149, 3.7802212, 0.0, 0.00045585696, -0.028310012, 0.0 
3.6621094e-2, 4.3058285e+1, -0.031273898, -4795.611, -3.8811908, 0.0, 0.0010090685, -0.028132748, 0.0 
3.6621094e-2, 4.3082583e+1, -0.032185353, -4786.841, -2.1804705, 0.0, 0.0023292177, -0.03119211, 0.0 
3.6621094e-2, 4.310688e+1, -0.034076206, -4751.233, 13.252557, 0.0, 0.0014727635, 0.0028889657, 0.0 
3.6621094e-2, 4.313118e+1, -0.036551774, -4744.8203, -8.767075, 0.0, 0.0007067436, -0.02035265, 0.0 
3.6621094e-2, 4.315548e+1, -0.038726635, -4681.9346, 20.204353, 0.0, 0.0019198527, 0.04846204, 0.0 
3.6621094e-2, 4.317978e+1, -0.041719858, -4713.687, 133.4058, 0.0, 0.0011804553, 3.7309182, 0.0 
3.6621094e-2, 4.3204078e+1, -0.03921495, -4695.3726, 34.378674, 0.0, 0.0010801478, 0.21248814, 0.0 
3.6621094e-2, 4.3228382e+1, -0.0390976, -4666.3447, -9.61058, 0.0, 0.0018089792, -0.019304024, 0.0 
3.6621094e-2, 4.3252683e+1, -0.037730973, -4636.0806, -8.759662, 0.0, 0.0015930899, -0.021179916, 0.0 
3.6621094e-2, 4.3276986e+1, -0.036324836, -4623.972, 10.306758, 0.0, 0.0011507687, -0.013351178, 0.0 
3.6621094e-2, 4.3301284e+1, -0.036132276, -4607.4185, 10.469238, 0.0, 0.00077780284, -0.012343416, 0.0 
3.6621094e-2, 4.3325588e+1, -0.037277874, -4581.9155, -12.1378145, 0.0, 0.001954822, -0.005123917, 0.0 
3.6621094e-2, 4.3349892e+1, -0.037811466, -4558.2344, -4.2019396, 0.0, 0.0023835204, -0.033937942, 0.0 
3.6621094e-2, 4.3374196e+1, -0.038749736, -4544.902, 9.3366785, 0.0, 0.00020217497, -0.019569134, 0.0 
3.6621094e-2, 4.33985e+1, -0.04007605, -4522.8467, -4.7981677, 0.0, 0.0008681972, -0.034985766, 0.0 
3.6621094e-2, 4.3422806e+1, -0.041771863, -4504.3096, -3.2285357, 0.0, 0.0025671406, -0.039457735, 0.0 
3.6621094e-2, 4.344711e+1, -0.04280578, -4490.453, 6.7238646, 0.0, 0.0013826508, -0.0327376, 0.0 
3.6621094e-2, 4.3471417e+1, -0.04324968, -4452.4067, -2.0554898, 0.0, 0.0009974608, -0.04230074, 0.0 
3.6621094e-2, 4.349572e+1, -0.04304523, -4453.3247, -5.6890583, 0.0, 0.0014073448, -0.035777483, 0.0 
3.6621094e-2, 4.3520027e+1, -0.043151658, -4425.2646, 5.0806055, 0.0, 0.001456528, -0.037318613, 0.0 
3.6621094e-2, 4.3544334e+1, -0.043125708, -4408.5044, 9.075283, 0.0, 0.0020973992, -0.024443358, 0.0 
3.6621094e-2, 4.356864e+1, -0.04236145, -4381.8105, -8.768688, 0.0, 0.00094898226, -0.02481383, 0.0 
3.6621094e-2, 4.3592948e+1, -0.0414202, -4378.0894, -13.083007, 0.0, 0.0007639363, -0.0023243362, 0.0 
3.6621094e-2, 4.361726e+1, -0.040685948, -4328.289, 14.374989, 0.0, 0.002436144, 0.007055766, 0.0 
3.6621094e-2, 4.3641567e+1, -0.04026133, -4348.491, 11.652734, 0.0, 0.0014653241, -0.009035212, 0.0 
3.6621094e-2, 4.3665874e+1, -0.040430967, -4300.8677, -15.617287, 0.0, 0.0011214392, 0.016278224, 0.0 
3.6621094e-2, 4.3690187e+1, -0.039990205, -4291.774, -7.4440475, 0.0, 0.0015063616, -0.027078483, 0.0 
3.6621094e-2, 4.3714496e+1, -0.03927006, -4259.414, 6.7857304, 0.0, 0.0013578371, -0.028459545, 0.0 
3.6621094e-2, 4.3738806e+1, -0.037998598, -4266.3306, 5.0436807, 0.0, 0.0023682658, -0.032035884, 0.0 
3.6621094e-2, 4.376312e+1, -0.03658176, -4215.822, -4.779013, 0.0, 0.0010288305, -0.031164275, 0.0 
3.6621094e-2, 4.378743e+1, -0.03471361, -4222.7407, -7.9142733, 0.0, 0.0003927346, -0.019880585, 0.0 
3.6621094e-2, 4.381174e+1, -0.033199858, -4183.4375, 4.878293, 0.0, 0.0028056742, -0.027511258, 0.0 
3.6621094e-2, 4.3836057e+1, -0.033466842, -4187.0674, -1.4711154, 0.0, 0.0017929703, -0.032949965, 0.0 
3.6621094e-2, 4.3860367e+1, -0.03427404, -4127.653, -1.1130387, 0.0, 0.0007622135, -0.033973906, 0.0 
3.6621094e-2, 4.3884683e+1, -0.034986295, -4154.474, 6.2044225, 0.0, 0.0017496959, -0.025720356, 0.0 
3.6621094e-2, 4.3908995e+1, -0.036448605, -4105.484, -8.489698, 0.0, 0.0016326008, -0.01889274, 0.0 
3.6621094e-2, 4.393331e+1, -0.03694003, -4097.293, 1.9567926, 0.0, 0.0015330331, -0.036005493, 0.0 
3.6621094e-2, 4.3957627e+1, -0.038317144, -4071.2869, -0.56109846, 0.0, 0.001544357, -0.03823981, 0.0 
3.6621094e-2, 4.3981943e+1, -0.03909402, -4056.188, -4.4751935, 0.0, 0.0016168805, -0.034156494, 0.0 
3.6621094e-2, 4.4006255e+1, -0.0396227, -4019.2703, 33.536602, 0.0, 0.0015552895, 0.24018839, 0.0 
3.6621094e-2, 4.403057e+1, -0.039641436, -4022.5798, 32.717842, 0.0, 0.0014791716, 0.2264557, 0.0 
3.6621094e-2, 4.405489e+1, -0.03992735, -3962.6323, 62.76259, 0.0, 0.0017225387, 0.9539056, 0.0 
3.6621094e-2, 4.4079208e+1, -0.03963911, -4000.5576, 83.71909, 0.0, 0.0014107404, 1.7115892, 0.0 
3.6621094e-2, 4.4103524e+1, -0.039456986, -3976.9219, 34.845764, 0.0, 0.0018266415, 0.26584095, 0.0 
3.6621094e-2, 4.4127843e+1, -0.03951836, -3940.596, -4.656414, 0.0, 0.0011510018, -0.03401605, 0.0 
3.6621094e-2, 4.415216e+1, -0.040983807, -3918.0457, -2.38319, 0.0, 0.0014102956, -0.039534193, 0.0 
3.6621094e-2, 4.417648e+1, -0.04142003, -3906.3481, -1.7070454, 0.0, 0.002974405, -0.040674057, 0.0 
3.6621094e-2, 4.42008e+1, -0.041989792, -3865.5925, 2.6560922, 0.0, 0.0006612873, -0.040164743, 0.0 
3.6621094e-2, 4.422512e+1, -0.04213829, -3871.532, 3.4103165, 0.0, 0.00046086014, -0.03913421, 0.0 
3.6621094e-2, 4.424944e+1, -0.04276717, -3839.6714, -1.9034487, 0.0, 0.0030455103, -0.041823562, 0.0 
3.6621094e-2, 4.427376e+1, -0.04343437, -3819.634, -8.31844, 0.0, 0.0011043136, -0.025318263, 0.0 
3.6621094e-2, 4.4298086e+1, -0.043560877, -3791.3447, 1.423361, 0.0, 0.0010044314, -0.04302651, 0.0 
3.6621094e-2, 4.4322407e+1, -0.04416302, -3794.507, 12.429469, 0.0, 0.0030671682, -0.0034484179, 0.0 
3.6621094e-2, 4.434673e+1, -0.044695023, -3762.7805, -5.039623, 0.0, 0.0006509174, -0.037945215, 0.0 
3.6621094e-2, 4.437105e+1, -0.04497785, -3735.7646, -11.176586, 0.0, 0.00057055993, -0.011539859, 0.0 
3.6621094e-2, 4.4395375e+1, -0.044491723, -3722.4502, 5.4565015, 0.0, 0.002877593, -0.03649331, 0.0 
3.6621094e-2, 4.4419697e+1, -0.04299797, -3711.5693, 6.0073504, 0.0, 0.0010342486, -0.033274706, 0.0 
3.6621094e-2, 4.4444025e+1, -0.04212859, -3680.6287, -1.6631305, 0.0, 0.0011179036, -0.041377075, 0.0 
3.6621094e-2, 4.446835e+1, -0.04219185, -3660.2622, 0.34760493, 0.0, 0.0028883535, -0.042158835, 0.0 
3.6621094e-2, 4.449267e+1, -0.042531256, -3649.0657, -0.4802271, 0.0, 0.0008023637, -0.042468056, 0.0 
3.6621094e-2, 4.4517e+1, -0.043809712, -3622.5254, -1.6688025, 0.0, 0.00043785045, -0.04304093, 0.0 
3.6621094e-2, 4.4541323e+1, -0.04544381, -3608.5115, 0.378166, 0.0, 0.0025375849, -0.045404177, 0.0 
3.6621094e-2, 4.456565e+1, -0.045791633, -3583.3108, 5.3935003, 0.0, 0.0018774394, -0.0376734, 0.0 
3.6621094e-2, 4.4589978e+1, -0.045476835, -3576.3438, -1.127167, 0.0, 0.0007443381, -0.04512158, 0.0 
3.6621094e-2, 4.4614306e+1, -0.044786107, -3541.222, -9.627684, 0.0, 0.0019287834, -0.018610744, 0.0 
3.6621094e-2, 4.4638634e+1, -0.043724325, -3521.3193, 8.709436, 0.0, 0.0016132953, -0.02218275, 0.0 
3.6621094e-2, 4.4662964e+1, -0.04411641, -3507.8572, 8.164603, 0.0, 0.00068835553, -0.02511301, 0.0 
3.6621094e-2, 4.4687295e+1, -0.0438283, -3498.5398, -10.083988, 0.0, 0.002061479, -0.014762674, 0.0 
3.6621094e-2, 4.471162e+1, -0.042338777, -3462.9978, -2.3790324, 0.0, 0.0017300294, -0.040704396, 0.0 
3.6621094e-2, 4.473595e+1, -0.040810216, -3453.2976, 4.0968857, 0.0, 0.0009873098, -0.035949748, 0.0 
3.6621094e-2, 4.4760284e+1, -0.038918015, -3419.8245, 10.089161, 0.0, 0.0018162726, -0.009152905, 0.0 
3.6621094e-2, 4.4784614e+1, -0.039173692, -3428.4324, -5.2934, 0.0, 0.0010892646, -0.031000765, 0.0 
3.6621094e-2, 4.4808945e+1, -0.040249683, -3382.2766, -18.446198, 0.0, 0.0019915116, 0.060350057, 0.0 
3.6621094e-2, 4.483328e+1, -0.043904245, -3369.6091, 62.209446, 0.0, 0.0017274304, 1.1042253, 0.0 
3.6621094e-2, 4.485761e+1, -0.04509693, -3347.3652, -0.46229982, 0.0, -0.0001350777, -0.045033082, 0.0 
3.6621094e-2, 4.4881943e+1, -0.052018475, -3319.1582, 97.8465, 0.0, 0.0023332073, 2.8299716, 0.0 
3.6621094e-2, 4.4906276e+1, -0.04860899, -3306.2944, 49.542866, 0.0, 0.0025178068, 0.6936059, 0.0 
3.6621094e-2, 4.493061e+1, -0.048041366, -3317.0002, 35.311035, 0.0, 0.00035336765, 0.32782415, 0.0 
3.6621094e-2, 4.4954944e+1, -0.04669303, -3262.7334, 6.0741167, 0.0, 0.0014687466, -0.035384938, 0.0 
3.6621094e-2, 4.4979277e+1, -0.046933923, -3275.0952, -6.8726006, 0.0, 0.0018386642, -0.032512017, 0.0 
3.6621094e-2, 4.5003614e+1, -0.04580601, -3222.581, -8.841328, 0.0, 0.0010746424, -0.021549182, 0.0 
3.6621094e-2, 4.502795e+1, -0.044591907, -3212.4363, 9.301101, 0.0, 0.0016014663, -0.017661896, 0.0 
3.6621094e-2, 4.5052284e+1, -0.044067055, -3192.0356, 6.1810513, 0.0, 0.0016467262, -0.03209796, 0.0 
3.6621094e-2, 4.507662e+1, -0.043957904, -3191.4973, -8.234865, 0.0, 0.0012089383, -0.022709731, 0.0 
3.6621094e-2, 4.510096e+1, -0.044693917, -3141.4585, 0.2641561, 0.0, 0.0015825958, -0.044671703, 0.0 
3.6621094e-2, 4.5125297e+1, -0.04585963, -3148.7588, 6.113549, 0.0, 0.0015576131, -0.033989593, 0.0 
3.6621094e-2, 4.5149636e+1, -0.046668213, -3106.798, -12.012364, 0.0, 0.0010822557, -0.00022268073, 0.0 
3.6621094e-2, 4.5173973e+1, -0.04907852, -3100.9192, 27.767872, 0.0, 0.0016057065, 0.19955908, 0.0 
3.6621094e-2, 4.5198315e+1, -0.048590172, -3074.491, 15.6241665, 0.0, 0.0018053183, 0.030809032, 0.0 
3.6621094e-2, 4.5222652e+1, -0.048441518, -3067.1416, 5.387939, 0.0, 0.0013437495, -0.0389766, 0.0 
3.6621094e-2, 4.5246994e+1, -0.046731852, -3014.144, 6.2430263, 0.0, 0.0010310675, -0.03380088, 0.0 
3.6621094e-2, 4.527133e+1, -0.045571648, -3028.484, 30.727598, 0.0, 0.0017147393, 0.26616925, 0.0 
3.6621094e-2, 4.5295674e+1, -0.045055907, -2998.9897, 31.596104, 0.0, 0.0018095104, 0.28779548, 0.0 
3.6621094e-2, 4.5320016e+1, -0.044768687, -2992.1697, 11.774662, 0.0, 0.0011420795, 0.0015664486, 0.0 
3.6621094e-2, 4.5344356e+1, -0.045186337, -2952.314, 4.8908095, 0.0, 0.0015485884, -0.03708411, 0.0 
3.6621094e-2, 4.5368698e+1, -0.04623479, -2959.449, -4.6624994, 0.0, 0.0016436146, -0.038889103, 0.0 
3.6621094e-2, 4.5393044e+1, -0.045977395, -2911.0642, -7.4714847, 0.0, 0.0011496439, -0.026801039, 0.0 
3.6621094e-2, 4.5417386e+1, -0.046755493, -2901.9834, 3.4872828, 0.0, 0.0019306799, -0.042564802, 0.0 
3.6621094e-2, 4.5441732e+1, -0.0468511, -2876.8018, 6.861204, 0.0, 0.0010468496, -0.030486874, 0.0 
3.6621094e-2, 4.546607e+1, -0.046784595, -2882.9736, -2.631941, 0.0, 0.0011427706, -0.04438179, 0.0 
3.6621094e-2, 4.5490417e+1, -0.04796961, -2814.2312, -4.747955, 0.0, 0.0029910095, -0.03995911, 0.0 
3.6621094e-2, 4.5514762e+1, -0.047181964, -2822.1638, 25.494507, 0.0, 0.0010108271, 0.18311216, 0.0 
3.6621094e-2, 4.5539108e+1, -0.04502431, -2804.4739, 59.23876, 0.0, 0.00012650107, 1.2057353, 0.0 
3.6621094e-2, 4.5563453e+1, -0.0430353, -2811.4177, 19.154593, 0.0, 0.0025199442, 0.08746363, 0.0 
3.6621094e-2, 4.5587802e+1, -0.04140364, -2730.07, -17.752405, 0.0, 0.0018745473, 0.07402906, 0.0 
3.6621094e-2, 4.5612147e+1, -0.041334044, -2730.8513, 83.729706, 0.0, 0.000928236, 2.5235043, 0.0 
3.6621094e-2, 4.56365e+1, -0.04159945, -2734.974, 126.99665, 0.0, 0.00182627, 5.842832, 0.0 
3.6621094e-2, 4.566084e+1, -0.04151547, -2743.104, 21.55412, 0.0, 0.0015504552, 0.12783955, 0.0 
3.6621094e-2, 4.5685193e+1, -0.042190604, -2674.0166, -14.283098, 0.0, 0.0011582415, 0.03410073, 0.0 
3.6621094e-2, 4.570954e+1, -0.04319842, -2679.6218, 8.259303, 0.0, 0.0017211026, -0.017740896, 0.0 
3.6621094e-2, 4.573389e+1, -0.044612963, -2638.4993, 0.967117, 0.0, 0.0016932373, -0.044258468, 0.0 
3.6621094e-2, 4.5758238e+1, -0.045043796, -2645.2966, -2.2788026, 0.0, 0.001291414, -0.04308068, 0.0 
3.6621094e-2, 4.5782593e+1, -0.044150364, -2596.2688, -2.5886996, 0.0, 0.0016827742, -0.04156917, 0.0 
3.6621094e-2, 4.580694e+1, -0.04379154, -2590.1716, -2.2311113, 0.0, 0.0016968423, -0.04186968, 0.0 
3.6621094e-2, 4.5831296e+1, -0.04135232, -2562.8855, 5.670157, 0.0, 0.0009713946, -0.028807461, 0.0 
3.6621094e-2, 4.5855644e+1, -0.040133767, -2575.9526, -2.7262042, 0.0, 0.0014232387, -0.037248507, 0.0 
3.6621094e-2, 4.5879996e+1, -0.038893346, -2512.1438, 1.1364585, 0.0, 0.0026197257, -0.038379222, 0.0 
3.6621094e-2, 4.590435e+1, -0.03785572, -2511.3716, 4.055777, 0.0, 0.001331185, -0.031305697, 0.0 
3.6621094e-2, 4.5928705e+1, -0.037153583, -2474.9314, 5.6398067, 0.0, 0.00019242585, -0.024301618, 0.0 
3.6621094e-2, 4.5953056e+1, -0.03821473, -2480.8494, 19.495577, 0.0, 0.0019501047, 0.11498278, 0.0 
3.6621094e-2, 4.5977414e+1, -0.040202927, -2452.6294, 40.173203, 0.0, 0.0028440931, 0.6176542, 0.0 
3.6621094e-2, 4.6001765e+1, -0.042621918, -2444.6597, 12.519362, 0.0, 0.0009930234, 0.0214905, 0.0 
3.6621094e-2, 4.602612e+1, -0.04390981, -2403.01, -10.36545, 0.0, 0.0004174745, 0.0008018268, 0.0 
3.6621094e-2, 4.6050477e+1, -0.043786533, -2399.8713, -0.58913183, 0.0, 0.0019499309, -0.043641906, 0.0 
3.6621094e-2, 4.607483e+1, -0.043409664, -2375.8213, 7.8021073, 0.0, 0.002553293, -0.017787647, 0.0 
3.6621094e-2, 4.609919e+1, -0.04265772, -2357.0427, -1.8130285, 0.0, 0.0011927537, -0.041263122, 0.0 
3.6621094e-2, 4.6123546e+1, -0.041800953, -2328.8462, -2.0549076, 0.0, 0.00046686333, -0.039987728, 0.0 
3.6621094e-2, 4.6147904e+1, -0.040698025, -2318.2795, 1.5176526, 0.0, 0.0018380529, -0.039704483, 0.0 
3.6621094e-2, 4.617226e+1, -0.039792664, -2295.318, -2.7457275, 0.0, 0.0026188914, -0.03650809, 0.0 
3.6621094e-2, 4.6196622e+1, -0.03919147, -2276.8264, 0.6747513, 0.0, 0.0008886668, -0.0389915, 0.0 
3.6621094e-2, 4.622098e+1, -0.039026704, -2261.6487, 2.048818, 0.0, 0.001044459, -0.03717066, 0.0 
3.6621094e-2, 4.624534e+1, -0.039741606, -2230.497, -0.6307601, 0.0, 0.0022812572, -0.03956323, 0.0 
3.6621094e-2, 4.62697e+1, -0.04000285, -2218.8164, 3.3228981, 0.0, 0.0008096225, -0.0350264, 0.0 
3.6621094e-2, 4.629406e+1, -0.040893875, -2200.35, -0.8142292, 0.0, 0.001252818, -0.04059257, 0.0 
3.6621094e-2, 4.631842e+1, -0.04237595, -2183.491, -5.449642, 0.0, 0.002934933, -0.02877434, 0.0 
3.6621094e-2, 4.634278e+1, -0.04222579, -2149.1694, 3.1999795, 0.0, 0.0007935468, -0.037461136, 0.0 
3.6621094e-2, 4.6367142e+1, -0.04180755, -2147.571, 6.19532, 0.0, 0.0009257306, -0.023935072, 0.0 
3.6621094e-2, 4.6391505e+1, -0.04006693, -2116.4595, -2.1950831, 0.0, 0.002481085, -0.03779026, 0.0 
3.6621094e-2, 4.6415865e+1, -0.038785093, -2105.7375, -1.9319167, 0.0, 0.0005253908, -0.037012614, 0.0 
3.6621094e-2, 4.6440232e+1, -0.03697625, -2066.5376, 11.291702, 0.0, 0.0013314007, 0.024721643, 0.0 
3.6621094e-2, 4.6464595e+1, -0.03605233, -2078.8682, 11.5785, 0.0, 0.0030613947, 0.028434597, 0.0 
3.6621094e-2, 4.6488962e+1, -0.035727445, -2024.9806, 0.42441052, 0.0, 0.0007016268, -0.035638493, 0.0 
3.6621094e-2, 4.6513325e+1, -0.03757103, -2035.2091, 3.3832889, 0.0, 0.00089439284, -0.031946637, 0.0 
3.6621094e-2, 4.6537688e+1, -0.040616404, -1998.8579, 1.243677, 0.0, 0.0023193122, -0.03984258, 0.0 
3.6621094e-2, 4.6562055e+1, -0.043601714, -2000.0547, -7.40895, 0.0, 0.0008615359, -0.016155973, 0.0 
3.6621094e-2, 4.6586418e+1, -0.04534119, -1932.2941, 3.4598057, 0.0, 0.0016418573, -0.039146226, 0.0 
3.6621094e-2, 4.6610788e+1, -0.04645995, -1963.3457, 11.124664, 0.0, 0.001902574, 0.01657384, 0.0 
3.6621094e-2, 4.6635154e+1, -0.04635239, -1918.7009, -4.843881, 0.0, 0.0007187446, -0.034123488, 0.0 
3.6621094e-2, 4.665952e+1, -0.044445686, -1922.9086, -9.813094, 0.0, 0.0024516091, 0.0056328974, 0.0 
3.6621094e-2, 4.6683887e+1, -0.042530484, -1857.6318, 5.462314, 0.0, 0.0017139827, -0.026468474, 0.0 
3.6621094e-2, 4.6708256e+1, -0.041390877, -1889.212, 9.139899, 0.0, -0.00019393789, 0.0028273643, 0.0 
3.6621094e-2, 4.6732628e+1, -0.04124594, -1832.7819, -3.1114461, 0.0, 0.002422579, -0.03596365, 0.0 
3.6621094e-2, 4.6756995e+1, -0.04230485, -1847.9974, -7.5075727, 0.0, 0.0019161296, -0.011804803, 0.0 
3.6621094e-2, 4.6781364e+1, -0.044653434, -1777.2899, 3.7143006, 0.0, 0.00048126315, -0.036890876, 0.0 
3.6621094e-2, 4.6805736e+1, -0.045871004, -1802.7181, 10.037556, 0.0, 0.0027208363, 0.0100179175, 0.0 
3.6621094e-2, 4.6830106e+1, -0.04654046, -1764.1765, 7.2253942, 0.0, 0.0012418509, -0.016947718, 0.0 
3.6621094e-2, 4.6854478e+1, -0.04598224, -1767.3793, 0.4054685, 0.0, 0.00045238095, -0.045889217, 0.0 
3.6621094e-2, 4.687885e+1, -0.045393642, -1698.5851, 15.89698, 0.0, 0.002708814, 0.10337641, 0.0 
3.6621094e-2, 4.690322e+1, -0.04379454, -1737.7037, 2.32, 0.0, 0.00047768748, -0.040697046, 0.0 
3.6621094e-2, 4.6927592e+1, -0.043262824, -1676.3236, -6.372546, 0.0, 0.0013330017, -0.019037308, 0.0 
3.6621094e-2, 4.695197e+1, -0.04260086, -1677.3986, 13.110778, 0.0, 0.0029612368, 0.05987113, 0.0 
3.6621094e-2, 4.697634e+1, -0.042133704, -1650.192, -3.1900854, 0.0, 0.00006950005, -0.035966624, 0.0 
3.6621094e-2, 4.7000712e+1, -0.041106697, -1640.5479, -13.737958, 0.0, 0.0023417983, 0.07392986, 0.0 
3.6621094e-2, 4.702509e+1, -0.04081215, -1592.0585, 7.9705133, 0.0, 0.0023285984, -0.00090838707, 0.0 
3.6621094e-2, 4.7049466e+1, -0.04009455, -1613.2034, -0.20903829, 0.0, -0.0011038458, -0.040067464, 0.0 
3.6621094e-2, 4.707384e+1, -0.040259354, -1562.3353, -0.15739869, 0.0, 0.0027062101, -0.040243495, 0.0 
3.6621094e-2, 4.7098216e+1, -0.0403912, -1563.7205, 0.09475977, 0.0, 0.0023940247, -0.040385455, 0.0 
3.6621094e-2, 4.7122592e+1, -0.04082146, -1520.6732, -9.900343, 0.0, 0.00013718645, 0.023633728, 0.0 
3.6621094e-2, 4.714697e+1, -0.041115128, -1518.3523, 16.495981, 0.0, 0.0027487334, 0.13808744, 0.0 
3.6621094e-2, 4.7171345e+1, -0.04015466, -1506.0784, -0.28792506, 0.0, 0.0010839724, -0.040099613, 0.0 
3.6621094e-2, 4.7195724e+1, -0.039019033, -1469.3868, -22.107761, 0.0, 0.0009224054, 0.29353836, 0.0 
3.6621094e-2, 4.7220105e+1, -0.038103156, -1446.011, 19.236855, 0.0, 0.0021765942, 0.21777377, 0.0 
3.6621094e-2, 4.724448e+1, -0.037277997, -1441.4998, 14.970821, 0.0, 0.0009199089, 0.11819003, 0.0 
3.6621094e-2, 4.726886e+1, -0.03707275, -1416.9685, -1.6476955, 0.0, 0.002219697, -0.035156712, 0.0 
3.6621094e-2, 4.729324e+1, -0.038263913, -1411.4304, -5.502826, 0.0, 0.00068782084, -0.016809465, 0.0 
3.6621094e-2, 4.7317618e+1, -0.039508406, -1363.2173, -2.9709206, 0.0, 0.0010254028, -0.03303359, 0.0 
3.6621094e-2, 4.7342002e+1, -0.040273607, -1350.6686, 19.643404, 0.0, 0.0034160416, 0.24535766, 0.0 
3.6621094e-2, 4.7366384e+1, -0.04038905, -1369.7664, -10.909405, 0.0, 0.00042567434, 0.04649516, 0.0 
3.6621094e-2, 4.7390765e+1, -0.040356927, -1293.7096, -7.940655, 0.0, 0.0012283145, 0.008381676, 0.0 
3.6621094e-2, 4.7415146e+1, -0.040070776, -1304.038, 5.0009546, 0.0, 0.0021135202, -0.020891923, 0.0 
3.6621094e-2, 4.743953e+1, -0.040740047, -1275.3832, -9.761834, 0.0, 0.00087479386, 0.033975437, 0.0 
3.6621094e-2, 4.7463912e+1, -0.041796315, -1284.5029, 25.223356, 0.0, 0.0018485374, 0.45333156, 0.0 
3.6621094e-2, 4.7488296e+1, -0.041045383, -1265.231, -53.953583, 0.0, 0.0014995479, 2.2556171, 0.0 
3.6621094e-2, 4.751268e+1, -0.08236792, -1163.4088, 218.22897, 0.0, 0.0017336282, 39.507973, 0.0 
3.6621094e-2, 4.7537065e+1, -0.04024446, -1199.0347, 68.13098, 0.0, 0.0010481869, 3.8187714, 0.0 
3.6621094e-2, 4.7561452e+1, -0.040249757, -1210.1506, 26.24302, 0.0, 0.0012267707, 0.5286012, 0.0 
3.6621094e-2, 4.7585833e+1, -0.03991675, -1102.9235, 15.450585, 0.0, 0.0026703048, 0.17649211, 0.0 
3.6621094e-2, 4.7610223e+1, -0.041245993, -1180.2322, 139.05396, 0.0, 0.0010638849, 16.121206, 0.0 
3.6621094e-2, 4.763461e+1, -0.04319879, -1143.6973, 103.28313, 0.0, 0.0010157621, 9.209418, 0.0 
3.6621094e-2, 4.7658992e+1, -0.040188447, -1095.6953, -23.769188, 0.0, 0.0017234242, 0.47521883, 0.0 
3.6621094e-2, 4.768338e+1, -0.04080559, -1086.6816, 2.4123194, 0.0, 0.0018660722, -0.035450317, 0.0 
3.6621094e-2, 4.7707772e+1, -0.040578768, -1073.2688, 5.2829456, 0.0, 0.0015545359, -0.014574198, 0.0 
3.6621094e-2, 4.773216e+1, -0.039636824, -1038.8624, -7.9080124, 0.0, 0.000964533, 0.020559233, 0.0 
3.6621094e-2, 4.7756547e+1, -0.03934508, -1022.33856, -3.293462, 0.0, 0.0020797153, -0.028734896, 0.0 
3.6621094e-2, 4.7780937e+1, -0.03909032, -1003.83295, 11.647655, 0.0, 0.0012048496, 0.09604659, 0.0 
3.6621094e-2, 4.7805324e+1, -0.038435213, -1003.00867, 1.9235643, 0.0, 0.0010125792, -0.034746084, 0.0 
3.6621094e-2, 4.7829714e+1, -0.03786978, -953.41296, -7.626189, 0.0, 0.0028798997, 0.023129338, 0.0 
3.6621094e-2, 4.7854108e+1, -0.03659592, -948.67645, -0.34396487, 0.0, 0.0010608042, -0.036471203, 0.0 
3.6621094e-2, 4.7878498e+1, -0.037098043, -930.2721, 6.0725117, 0.0, 0.0008190142, 0.0025412128, 0.0 
3.6621094e-2, 4.7902888e+1, -0.03769214, -912.7618, 2.0605028, 0.0, 0.0025338032, -0.033040516, 0.0 
3.6621094e-2, 4.792728e+1, -0.03791904, -884.4772, -2.900319, 0.0, 0.00060341787, -0.028408203, 0.0 
3.6621094e-2, 4.7951674e+1, -0.037658066, -869.1795, 4.815784, 0.0, 0.0013836599, -0.01097535, 0.0 
3.6621094e-2, 4.7976068e+1, -0.037522208, -851.6327, -5.5595336, 0.0, 0.002849238, -0.0012290293, 0.0 
3.6621094e-2, 4.800046e+1, -0.037833385, -828.1595, -2.7760494, 0.0, 0.0008324702, -0.028527549, 0.0 
3.6621094e-2, 4.8024857e+1, -0.037377946, -817.08307, 20.432919, 0.0, 0.0012796564, 0.4732953, 0.0 
3.6621094e-2, 4.804925e+1, -0.03720578, -785.4187, -4.4275904, 0.0, 0.002267325, -0.01224602, 0.0 
3.6621094e-2, 4.8073646e+1, -0.037445378, -753.101, 4.465918, 0.0, 0.000584077, -0.010961923, 0.0 
3.6621094e-2, 4.8098043e+1, -0.03772312, -747.227, 61.99801, 0.0, 0.0017751105, 5.071622, 0.0 
3.6621094e-2, 4.8122436e+1, -0.038505137, -758.13495, 33.346077, 0.0, 0.0021773723, 1.4254478, 0.0 
3.6621094e-2, 4.8146832e+1, -0.039100558, -709.3249, -14.278341, 0.0, 0.00085369067, 0.24821451, 0.0 
3.6621094e-2, 4.817123e+1, -0.0397552, -702.12006, 3.5128694, 0.0, 0.0020401555, -0.022178942, 0.0 
3.6621094e-2, 4.819563e+1, -0.041553337, -670.44696, 9.493916, 0.0, 0.0016816689, 0.09286736, 0.0 
3.6621094e-2, 4.8220024e+1, -0.041379187, -661.1771, -11.1754, 0.0, 0.0007402096, 0.1474684, 0.0 
3.6621094e-2, 4.8244423e+1, -0.039992347, -616.5629, 1.84448, 0.0, 0.0023143338, -0.034474183, 0.0 
3.6621094e-2, 4.8268822e+1, -0.037419993, -630.8689, 8.2853775, 0.0, 0.0010215518, 0.07138188, 0.0 
3.6621094e-2, 4.829322e+1, -0.036521677, -588.48206, -3.2310228, 0.0, 0.0012717454, -0.018781388, 0.0 
3.6621094e-2, 4.8317623e+1, -0.035596166, -586.72504, -1.7429591, 0.0, 0.0025731574, -0.030418165, 0.0 
3.6621094e-2, 4.8342022e+1, -0.03586341, -544.93805, -0.65733236, 0.0, 0.0010470699, -0.035070453, 0.0 
3.6621094e-2, 4.836642e+1, -0.036741324, -544.465, 6.524969, 0.0, 0.0012530106, 0.041449152, 0.0 
3.6621094e-2, 4.8390824e+1, -0.0382761, -517.32904, -0.9360436, 0.0, 0.0019097405, -0.036582325, 0.0 
3.6621094e-2, 4.8415226e+1, -0.039669648, -505.92468, 0.40657118, 0.0, 0.0012264226, -0.039342895, 0.0 
3.6621094e-2, 4.8439628e+1, -0.041482344, -460.47858, 4.691728, 0.0, 0.001773052, 0.0063201217, 0.0 
3.6621094e-2, 4.846403e+1, -0.042834334, -469.83273, -1.2360665, 0.0, 0.0013742778, -0.039582137, 0.0 
3.6621094e-2, 4.8488435e+1, -0.04389136, -436.92865, -1.741655, 0.0, 0.0014308915, -0.036948305, 0.0 
3.6621094e-2, 4.8512837e+1, -0.04326324, -441.4251, -3.2438352, 0.0, 0.0018698839, -0.019424703, 0.0 
3.6621094e-2, 4.853724e+1, -0.044266444, -387.22565, 60.814983, 0.0, 0.0013405416, 9.283297, 0.0 
3.6621094e-2, 4.8561645e+1, -0.036661066, -380.9442, -11.716737, 0.0, 0.0014912052, 0.323406, 0.0 
3.6621094e-2, 4.8586047e+1, -0.03379862, -365.8922, -2.7728496, 0.0, 0.0014524603, -0.012784335, 0.0 
3.6621094e-2, 4.8610455e+1, -0.036273647, -343.2385, 64.59321, 0.0, 0.0016784102, 11.718074, 0.0 
3.6621094e-2, 4.863486e+1, -0.031282164, -308.2763, -14.58744, 0.0, 0.0019535495, 0.6575171, 0.0 
3.6621094e-2, 4.8659268e+1, -0.034260936, -316.5801, 8.855493, 0.0, 0.00051423506, 0.21328129, 0.0 
3.6621094e-2, 4.8683673e+1, -0.038350422, -270.23785, -3.9773042, 0.0, 0.0014820886, 0.020182338, 0.0 
3.6621094e-2, 4.8708084e+1, -0.04163937, -263.2182, 2.5348203, 0.0, 0.0027532824, -0.017227167, 0.0 
3.6621094e-2, 4.873249e+1, -0.045786895, -247.81604, -1.9024386, 0.0, 0.00066225126, -0.031180384, 0.0 
3.6621094e-2, 4.8756897e+1, -0.047528736, -222.51479, -5.295949, 0.0, 0.0016240332, 0.07847271, 0.0 
3.6621094e-2, 4.878131e+1, -0.04791545, -209.73322, 4.475946, 0.0, 0.0018926865, 0.04758467, 0.0 
3.6621094e-2, 4.8805717e+1, -0.04663436, -192.22829, -5.412638, 0.0, 0.0007375727, 0.10568742, 0.0 
3.6621094e-2, 4.8830128e+1, -0.04485487, -151.32784, 7.955147, 0.0, 0.0021167314, 0.37231258, 0.0 
3.6621094e-2, 4.885454e+1, -0.042540755, -154.76926, -7.8569684, 0.0, 0.0012138013, 0.35540983, 0.0 
3.6621094e-2, 4.8878947e+1, -0.04080351, -121.5806, -10.956686, 0.0, 0.0011244173, 0.93903106, 0.0 
3.6621094e-2, 4.8903358e+1, -0.040579006, -116.29697, 24.026228, 0.0, 0.0025003185, 4.729133, 0.0 
3.6621094e-2, 4.892777e+1, -0.043427743, -83.27244, -16.764908, 0.0, 0.0009914464, 3.2066317, 0.0 
3.6621094e-2, 4.8952183e+1, -0.048463177, -21.86262, 40.77648, 0.0, 0.0013348488, 31.25448, 0.0 
3.6621094e-2, 4.8976597e+1, -0.056948632, -59.697193, 137.28833, 0.0, 0.0017424817, 110.61252, 0.0 
3.6621094e-2, 4.9001008e+1, -0.06575139, -33.499466, 30.132198, 0.0, 0.001333278, 17.676102, 0.0 
3.6621094e-2, 4.9025422e+1, -0.07704896, 2.778312, 0.53173923, 0.0, 0.001568758, 2.8741202, 0.0 
