coord_x,coord_y,stress_xx,stress_yy,tau_xy,velocity_x,velocity_y,stress_1,damage
9.765625e-2, 9.39818e-2, -0.000025273413, -39859.074, -0.0062017874, 0.0, -0.0000034208913, -0.00002527245, 0.0 
9.765625e-2, 2.819454e-1, -0.00022753346, -39862.66, -0.018605435, 0.0, -0.000010262754, -0.00022752478, 0.0 
9.765625e-2, 4.6993652e-1, -0.0004207, -39547.715, -0.034406226, 0.0, 0.000022513555, -0.00042067008, 0.0 
9.765625e-2, 6.5795493e-1, -0.0004806277, -39548.137, -0.049523477, 0.0, -0.000004875045, -0.0004805657, 0.0 
9.765625e-2, 8.460008e-1, -0.0005492123, -39234.594, -0.060684424, 0.0, 0.000022624352, -0.00054911844, 0.0 
9.765625e-2, 1.0340737e+0, -0.00052512554, -39235.457, -0.08034255, 0.0, 0.0000073803612, -0.00052496104, 0.0 
9.765625e-2, 1.2221742e+0, -0.00056323386, -38921.746, -0.09720081, 0.0, 0.00004318329, -0.00056299113, 0.0 
9.765625e-2, 1.4103016e+0, -0.0005315629, -38922.44, -0.10575711, 0.0, 0.00002488642, -0.0005312755, 0.0 
9.765625e-2, 1.5984568e+0, -0.00058042625, -38609.07, -0.114567906, 0.0, 0.00007549437, -0.00058008626, 0.0 
9.765625e-2, 1.786639e+0, -0.0005411974, -38609.1, -0.1127891, 0.0, 0.000064925276, -0.0005408679, 0.0 
9.765625e-2, 1.9748487e+0, -0.00059205916, -38296.484, -0.1009624, 0.0, 0.00011345232, -0.000591793, 0.0 
9.765625e-2, 2.1630856e+0, -0.0005589345, -38295.457, -0.07917347, 0.0, 0.00010412184, -0.00055877084, 0.0 
9.765625e-2, 2.35135e+0, -0.00062110915, -37984.023, -0.06099458, 0.0, 0.00015327655, -0.0006210112, 0.0 
9.765625e-2, 2.5396422e+0, -0.0005878134, -37981.516, -0.042987086, 0.0, 0.00014093069, -0.0005877647, 0.0 
9.765625e-2, 2.727961e+0, -0.0006308054, -37671.76, -0.02318197, 0.0, 0.0001745018, -0.00063079107, 0.0 
9.765625e-2, 2.916308e+0, -0.00056830543, -37667.742, -0.009264241, 0.0, 0.00016503096, -0.00056830316, 0.0 
9.765625e-2, 3.1046817e+0, -0.0005928246, -37359.098, 0.00074402004, 0.0, 0.00018174833, -0.0005928246, 0.0 
9.765625e-2, 3.2930836e+0, -0.0005419862, -37354.086, 0.006289991, 0.0, 0.00016720718, -0.00054198515, 0.0 
9.765625e-2, 3.4815124e+0, -0.00056189654, -37046.9, 0.014427132, 0.0, 0.00018105567, -0.0005618909, 0.0 
9.765625e-2, 3.6699688e+0, -0.0005274752, -37040.688, 0.020466741, 0.0, 0.00017287373, -0.00052746385, 0.0 
9.765625e-2, 3.8584524e+0, -0.0005553389, -36734.367, 0.014870521, 0.0, 0.00019070909, -0.0005553329, 0.0 
9.765625e-2, 4.046964e+0, -0.00053429743, -36727.336, 0.026750194, 0.0, 0.00018209299, -0.000534278, 0.0 
9.765625e-2, 4.2355028e+0, -0.0005468638, -36422.047, 0.056769118, 0.0, 0.00021925035, -0.0005467754, 0.0 
9.765625e-2, 4.4240695e+0, -0.00053224416, -36414.305, 0.08995941, 0.0, 0.00021155969, -0.0005320219, 0.0 
9.765625e-2, 4.6126628e+0, -0.0005396155, -36109.375, 0.11222214, 0.0, 0.00026597138, -0.0005392668, 0.0 
9.765625e-2, 4.8012847e+0, -0.000513644, -36101.14, 0.14806116, 0.0, 0.000251999, -0.0005130368, 0.0 
9.765625e-2, 4.989933e+0, -0.0004893486, -35796.766, 0.19366293, 0.0, 0.000324627, -0.00048830087, 0.0 
9.765625e-2, 5.17861e+0, -0.00050983165, -35788.38, 0.2275521, 0.0, 0.00029636, -0.0005083848, 0.0 
9.765625e-2, 5.3673136e+0, -0.0005545338, -35484.383, 0.24708202, 0.0, 0.00038034556, -0.00055281335, 0.0 
9.765625e-2, 5.556046e+0, -0.0006068044, -35475.18, 0.25830075, 0.0, 0.0003329451, -0.00060492364, 0.0 
9.765625e-2, 5.744804e+0, -0.0006026594, -35171.44, 0.2411874, 0.0, 0.00042444875, -0.0006010055, 0.0 
9.765625e-2, 5.933592e+0, -0.00062838086, -35161.84, 0.21562105, 0.0, 0.00035102887, -0.0006270586, 0.0 
9.765625e-2, 6.1224043e+0, -0.00061803055, -34858.805, 0.17315722, 0.0, 0.00044932347, -0.0006171704, 0.0 
9.765625e-2, 6.3112485e+0, -0.0006374286, -34848.44, 0.12936255, 0.0, 0.00034686373, -0.0006369484, 0.0 
9.765625e-2, 6.5001166e+0, -0.0006317792, -34546.496, 0.07497136, 0.0, 0.00045313512, -0.0006316165, 0.0 
9.765625e-2, 6.6890156e+0, -0.0006698522, -34534.35, 0.028356772, 0.0, 0.00033282547, -0.0006698289, 0.0 
9.765625e-2, 6.8779385e+0, -0.00065596617, -34235.11, -0.03232578, 0.0, 0.00044185997, -0.00065593567, 0.0 
9.765625e-2, 7.0668924e+0, -0.00069532555, -34220.152, -0.07513804, 0.0, 0.00031863232, -0.0006951606, 0.0 
9.765625e-2, 7.2558707e+0, -0.00070164865, -33924.285, -0.109788194, 0.0, 0.00044475388, -0.00070129335, 0.0 
9.765625e-2, 7.444881e+0, -0.00073041214, -33905.234, -0.14402059, 0.0, 0.00032270624, -0.0007298004, 0.0 
9.765625e-2, 7.633914e+0, -0.0006887523, -33614.152, -0.1466341, 0.0, 0.0004423286, -0.00068811263, 0.0 
9.765625e-2, 7.8229797e+0, -0.00067615975, -33590.336, -0.15664557, 0.0, 0.00035678738, -0.00067542924, 0.0 
9.765625e-2, 8.0120677e+0, -0.00063281803, -33304.297, -0.21690184, 0.0, 0.00046180838, -0.00063140545, 0.0 
9.765625e-2, 8.20119e+0, -0.0006320184, -33274.88, -0.18689863, 0.0, 0.00039077998, -0.0006309686, 0.0 
9.765625e-2, 8.390333e+0, -0.0006099911, -32993.707, -0.15269051, 0.0, 0.0005003925, -0.00060928444, 0.0 
9.765625e-2, 8.5795105e+0, -0.0005900218, -32960.766, -0.17651704, 0.0, 0.00045148426, -0.00058907643, 0.0 
9.765625e-2, 8.768708e+0, -0.00052659947, -32683.053, -0.18911923, 0.0, 0.00049664424, -0.0005255051, 0.0 
9.765625e-2, 8.957942e+0, -0.00050729763, -32645.408, -0.16710566, 0.0, 0.00046552217, -0.0005064423, 0.0 
9.765625e-2, 9.1471946e+0, -0.0005108097, -32373.432, -0.30168632, 0.0, 0.00056143996, -0.0005079983, 0.0 
9.765625e-2, 9.336486e+0, -0.0005301759, -32329.371, -0.36746448, 0.0, 0.0005372128, -0.00052599923, 0.0 
9.765625e-2, 9.525793e+0, -0.0005412285, -32064.775, -0.0587808, 0.0, 0.00047892405, -0.00054112077, 0.0 
9.765625e-2, 9.715139e+0, -0.0005461993, -32012.773, 0.07992572, 0.0, 0.00046362646, -0.00054599973, 0.0 
9.765625e-2, 9.9045026e+0, -0.00054845825, -31755.814, -0.7851669, 0.0, 0.0005950069, -0.0005290449, 0.0 
9.765625e-2, 1.0093906e+1, -0.0005468452, -31696.445, -1.1638523, 0.0, 0.00061353354, -0.00050411, 0.0 
9.765625e-2, 1.02833234e+1, -0.0005622775, -31449.385, 0.78090745, 0.0, 0.00038527022, -0.0005428871, 0.0 
9.765625e-2, 1.0472781e+1, -0.0005786391, -31378.324, 1.5475383, 0.0, 0.00041170462, -0.0005023165, 0.0 
9.765625e-2, 1.0662256e+1, -0.00059996557, -31137.93, -2.1774142, 0.0, 0.0006363387, -0.0004477033, 0.0 
9.765625e-2, 1.0851771e+1, -0.00060721155, -31064.412, -3.2077882, 0.0, 0.00068538735, -0.0002759674, 0.0 
9.765625e-2, 1.1041298e+1, -0.00062278786, -30833.844, 2.90762, 0.0, 0.00033164627, -0.0003486004, 0.0 
9.765625e-2, 1.1230868e+1, -0.00061428716, -30746.5, 3.655488, 0.0, 0.0004488658, -0.00017968183, 0.0 
9.765625e-2, 1.1420454e+1, -0.0006157828, -30524.822, -3.8290334, 0.0, 0.0006734143, -0.00013546887, 0.0 
9.765625e-2, 1.1610079e+1, -0.0006099546, -30442.65, -1.9940579, 0.0, 0.0006619752, -0.0004793396, 0.0 
9.765625e-2, 1.1799718e+1, -0.0006288577, -30216.309, 2.143927, 0.0, 0.0004754884, -0.0004767404, 0.0 
9.765625e-2, 1.19894e+1, -0.00064036384, -30111.78, -9.771587, 0.0, 0.0005788871, 0.002530618, 0.0 
9.765625e-2, 1.2179096e+1, -0.00065909914, -29911.889, -17.330671, 0.0, 0.0006611639, 0.009382129, 0.0 
9.765625e-2, 1.23688325e+1, -0.000639751, -29810.516, -7.7997293, 0.0, 0.00067502644, 0.0014009979, 0.0 
9.765625e-2, 1.2558584e+1, -0.0006183933, -29600.451, -0.3700239, 0.0, 0.00064728304, -0.00061376777, 0.0 
9.765625e-2, 1.2748377e+1, -0.0005971968, -29488.016, -0.020312477, 0.0, 0.0005981287, -0.0005971828, 0.0 
9.765625e-2, 1.2938185e+1, -0.00063608226, -29289.229, -0.42640743, 0.0, 0.0006988775, -0.0006298744, 0.0 
9.765625e-2, 1.3128033e+1, -0.00067365007, -29171.822, -0.787933, 0.0, 0.0007491443, -0.0006523679, 0.0 
9.765625e-2, 1.3317898e+1, -0.0006930842, -28980.969, -0.2567192, 0.0, 0.00070913037, -0.00069081015, 0.0 
9.765625e-2, 1.3507803e+1, -0.0006413106, -28855.36, 0.5393593, 0.0, 0.0005738883, -0.00063122896, 0.0 
9.765625e-2, 1.3697724e+1, -0.00057808834, -28670.346, -0.4566767, 0.0, 0.0007636999, -0.0005708141, 0.0 
9.765625e-2, 1.3887686e+1, -0.00051740813, -28539.174, -1.3943002, 0.0, 0.0008073472, -0.00044928864, 0.0 
9.765625e-2, 1.4077662e+1, -0.00053175486, -28362.373, -0.099137254, 0.0, 0.0007962482, -0.00053140835, 0.0 
9.765625e-2, 1.4267679e+1, -0.0005529629, -28222.678, 0.1464019, 0.0, 0.0005841151, -0.0005522034, 0.0 
9.765625e-2, 1.4457712e+1, -0.0005792484, -28049.443, -2.7532892, 0.0, 0.00082864636, -0.0003089899, 0.0 
9.765625e-2, 1.4647788e+1, -0.0005833465, -27907.887, -13.079097, 0.0, 0.0009217105, 0.005546202, 0.0 
9.765625e-2, 1.4837876e+1, -0.000560013, -27743.234, -2.8657467, 0.0, 0.0009469449, -0.00026399476, 0.0 
9.765625e-2, 1.5028006e+1, -0.00056142674, -27594.469, 0.6456548, 0.0, 0.0005720688, -0.00054631976, 0.0 
9.765625e-2, 1.521815e+1, -0.0005839156, -27428.455, 0.45116982, 0.0, 0.000913598, -0.0005764944, 0.0 
9.765625e-2, 1.540834e+1, -0.0005779429, -27276.334, -2.4050918, 0.0, 0.0010670999, -0.0003658738, 0.0 
9.765625e-2, 1.559854e+1, -0.00058767386, -27122.883, -1.1438636, 0.0, 0.001057989, -0.00053943327, 0.0 
9.765625e-2, 1.5788783e+1, -0.000563216, -26959.824, 2.7526202, 0.0, 0.0005719142, -0.00028217118, 0.0 
9.765625e-2, 1.5979041e+1, -0.0005817299, -26811.389, 0.63537395, 0.0, 0.0010106355, -0.0005666729, 0.0 
9.765625e-2, 1.6169342e+1, -0.0005929579, -26640.316, -3.2266083, 0.0, 0.0010477476, -0.00020215922, 0.0 
9.765625e-2, 1.6359656e+1, -0.00062997686, -26508.092, 0.026569843, 0.0, 0.001006618, -0.0006299502, 0.0 
9.765625e-2, 1.6550012e+1, -0.0006399148, -26321.738, 0.51001936, 0.0, 0.00074415724, -0.0006300325, 0.0 
9.765625e-2, 1.6740385e+1, -0.0006547269, -26191.107, -8.204691, 0.0, 0.0010395435, 0.0019154946, 0.0 
9.765625e-2, 1.6930799e+1, -0.0010918279, -26009.93, -44.30106, 0.0, 0.0008989895, 0.074363135, 0.0 
9.765625e-2, 1.7121226e+1, -0.00062996027, -25890.057, -6.7359614, 0.0, 0.0009709867, 0.0011225726, 0.0 
9.765625e-2, 1.7311695e+1, -0.00061687763, -25695.371, -0.62918663, 0.0, 0.00090407964, -0.00060147117, 0.0 
9.765625e-2, 1.750218e+1, -0.0006207325, -25574.752, -0.0906233, 0.0, 0.0010030095, -0.00062041136, 0.0 
9.765625e-2, 1.7692707e+1, -0.0006050655, -25376.568, -0.6564124, 0.0, 0.00092155504, -0.00058808614, 0.0 
9.765625e-2, 1.7883247e+1, -0.0005969076, -25268.014, 0.015761662, 0.0, 0.0010265261, -0.00059689773, 0.0 
9.765625e-2, 1.807383e+1, -0.000591769, -25057.121, -0.09839711, 0.0, 0.0009885512, -0.00059138256, 0.0 
9.765625e-2, 1.826443e+1, -0.0005973865, -24961.047, 0.105643116, 0.0, 0.0010415893, -0.00059693935, 0.0 
9.765625e-2, 1.8455067e+1, -0.0006040504, -24746.219, 0.27780986, 0.0, 0.0010489413, -0.00060093164, 0.0 
9.765625e-2, 1.8645722e+1, -0.0006149603, -24657.947, 0.0822057, 0.0, 0.0010837495, -0.0006146863, 0.0 
9.765625e-2, 1.8836416e+1, -0.00060477725, -24430.512, -0.048720486, 0.0, 0.0010994908, -0.0006046801, 0.0 
9.765625e-2, 1.9027129e+1, -0.0005870441, -24347.406, 0.18520206, 0.0, 0.0010780364, -0.00058563537, 0.0 
9.765625e-2, 1.921788e+1, -0.00056822103, -24113.248, 0.37487584, 0.0, 0.0011552803, -0.00056239305, 0.0 
9.765625e-2, 1.9408649e+1, -0.00055074156, -24040.354, -0.29688033, 0.0, 0.0010678781, -0.0005470753, 0.0 
9.765625e-2, 1.9599459e+1, -0.0005221969, -23795.121, -0.055374995, 0.0, 0.0011841586, -0.000522068, 0.0 
9.765625e-2, 1.9790286e+1, -0.0005129744, -23732.916, 0.10465173, 0.0, 0.0010448169, -0.0005125129, 0.0 
9.765625e-2, 1.998115e+1, -0.0005599335, -23477.521, 0.1558202, 0.0, 0.0012204067, -0.0005588993, 0.0 
9.765625e-2, 2.0172033e+1, -0.0006358922, -23425.98, -0.5550709, 0.0, 0.0010161725, -0.00062274, 0.0 
9.765625e-2, 2.0362955e+1, -0.0007008455, -23159.17, 0.09742872, 0.0, 0.001249884, -0.0007004356, 0.0 
9.765625e-2, 2.0553896e+1, -0.000686169, -23120.166, 0.29358816, 0.0, 0.0010168115, -0.00068244094, 0.0 
9.765625e-2, 2.0744874e+1, -0.00067792815, -22839.434, -0.047045544, 0.0, 0.0013039369, -0.00067783124, 0.0 
9.765625e-2, 2.0935874e+1, -0.00066707964, -22814.906, -1.2119746, 0.0, 0.00095365464, -0.000602697, 0.0 
9.765625e-2, 2.1126908e+1, -0.0006583849, -22520.719, 0.12536378, 0.0, 0.0013384514, -0.000657687, 0.0 
9.765625e-2, 2.1317965e+1, -0.0006255066, -22507.209, 0.41615373, 0.0, 0.0010560745, -0.000617812, 0.0 
9.765625e-2, 2.1509054e+1, -0.00061184465, -22205.957, 0.013366807, 0.0, 0.0013983313, -0.0006118366, 0.0 
9.765625e-2, 2.1700169e+1, -0.0006030732, -22195.762, -0.92083806, 0.0, 0.0009169521, -0.0005648703, 0.0 
9.765625e-2, 2.1891315e+1, -0.00066218746, -21894.57, 0.22449295, 0.0, 0.001436831, -0.00065988564, 0.0 
9.765625e-2, 2.2082487e+1, -0.0007023021, -21879.9, -0.122028664, 0.0, 0.0011215659, -0.0007016215, 0.0 
9.765625e-2, 2.227369e+1, -0.00070275564, -21585.492, -0.11131236, 0.0, 0.0014788905, -0.00070218166, 0.0 
9.765625e-2, 2.246492e+1, -0.0006466997, -21564.156, -0.44030368, 0.0, 0.00088562217, -0.00063770945, 0.0 
9.765625e-2, 2.265618e+1, -0.000631688, -21274.627, 0.641205, 0.0, 0.0014897626, -0.00061236246, 0.0 
9.765625e-2, 2.2847469e+1, -0.0006534392, -21246.197, -1.1695013, 0.0, 0.0011354719, -0.00058906374, 0.0 
9.765625e-2, 2.3038784e+1, -0.0006612185, -20969.543, -0.25217363, 0.0, 0.0014154365, -0.0006581859, 0.0 
9.765625e-2, 2.3230131e+1, -0.0006580015, -20929.785, 1.3432746, 0.0, 0.0009717576, -0.00057179003, 0.0 
9.765625e-2, 2.3421505e+1, -0.00066198455, -20657.076, 0.97341466, 0.0, 0.0015780414, -0.0006161147, 0.0 
9.765625e-2, 2.361291e+1, -0.00066119456, -20610.658, -2.5766263, 0.0, 0.00091233436, -0.0003390795, 0.0 
9.765625e-2, 2.3804338e+1, -0.00066240574, -20353.807, -0.27655566, 0.0, 0.0012249318, -0.00065864803, 0.0 
9.765625e-2, 2.3995803e+1, -0.0006735132, -20295.674, 2.0172539, 0.0, 0.0014115715, -0.00047301172, 0.0 
9.765625e-2, 2.418729e+1, -0.00067367527, -20039.693, 0.99035555, 0.0, 0.001809283, -0.0006247322, 0.0 
9.765625e-2, 2.4378811e+1, -0.0007015514, -19976.953, -3.072246, 0.0, 0.00043969383, -0.00022907209, 0.0 
9.765625e-2, 2.4570352e+1, -0.00070443604, -19734.068, -1.5497222, 0.0, 0.0009945392, -0.00058273587, 0.0 
9.765625e-2, 2.4761936e+1, -0.0007335995, -19662.338, -2.7924986, 0.0, 0.0021310635, -0.00033700123, 0.0 
9.765625e-2, 2.4953535e+1, -0.00073293154, -19422.45, -1.5236024, 0.0, 0.0020940613, -0.0006134119, 0.0 
9.765625e-2, 2.5145173e+1, -0.0007527154, -19345.898, -0.64983344, 0.0, -0.00005183455, -0.00073088735, 0.0 
9.765625e-2, 2.533683e+1, -0.0007481022, -19114.72, 1.7630817, 0.0, 0.000993783, -0.00058548106, 0.0 
9.765625e-2, 2.552853e+1, -0.0007777457, -19022.826, -3.6095293, 0.0, 0.0025775507, -0.000092847404, 0.0 
9.765625e-2, 2.5720245e+1, -0.00077904324, -18811.762, -1.9537116, 0.0, 0.001818599, -0.00057613885, 0.0 
9.765625e-2, 2.5911996e+1, -0.00081136456, -18707.088, 3.1002007, 0.0, 0.00020305686, -0.00029758894, 0.0 
9.765625e-2, 2.610377e+1, -0.0008263309, -18497.64, -0.43683538, 0.0, 0.0015780646, -0.0008160147, 0.0 
9.765625e-2, 2.6295584e+1, -0.00087182206, -18393.527, -0.3251028, 0.0, 0.0018129209, -0.0008660759, 0.0 
9.765625e-2, 2.648741e+1, -0.00085906876, -18191.424, 5.8746104, 0.0, 0.0011743645, 0.0010380365, 0.0 
9.765625e-2, 2.6679286e+1, -0.0009129871, -18063.758, -5.086205, 0.0, 0.0013096497, 0.0005191336, 0.0 
9.765625e-2, 2.6871172e+1, -0.0009594414, -17894.244, -6.079009, 0.0, 0.0017693107, 0.0011057116, 0.0 
9.765625e-2, 2.70631e+1, -0.0010802813, -17772.176, 27.300667, 0.0, 0.0009866384, 0.040857445, 0.0 
9.765625e-2, 2.7255043e+1, -0.015093064, -17574.385, -125.49937, 0.0, 0.0013586405, 0.8810579, 0.0 
9.765625e-2, 2.744703e+1, -0.0011506125, -17418.049, 19.683535, 0.0, 0.0015376157, 0.02109304, 0.0 
9.765625e-2, 2.7639037e+1, -0.0010182189, -17266.64, 0.31696805, 0.0, 0.0014676271, -0.0010124003, 0.0 
9.765625e-2, 2.783108e+1, -0.0009822893, -17125.617, -0.3629676, 0.0, 0.0012585659, -0.0009745964, 0.0 
9.765625e-2, 2.8023145e+1, -0.00440434, -16961.361, -80.145515, 0.0, 0.0014775462, 0.37428945, 0.0 
9.765625e-2, 2.8215247e+1, -0.0009001638, -16803.328, 1.9990956, 0.0, 0.0013896335, -0.00066233095, 0.0 
9.765625e-2, 2.8407365e+1, -0.00083647255, -16654.79, 0.33046287, 0.0, 0.0014723906, -0.0008299155, 0.0 
9.765625e-2, 2.8599527e+1, -0.0008493806, -16483.203, -0.33254915, 0.0, 0.0014143485, -0.00084267143, 0.0 
9.765625e-2, 2.8791705e+1, -0.0008133668, -16351.228, -0.043515466, 0.0, 0.0013657919, -0.000813251, 0.0 
9.765625e-2, 2.8983924e+1, -0.0008574739, -16160.851, 0.5181188, 0.0, 0.0014645406, -0.0008408629, 0.0 
9.765625e-2, 2.917616e+1, -0.0008572388, -16049.172, 0.17976981, 0.0, 0.001418685, -0.00085522514, 0.0 
9.765625e-2, 2.9368436e+1, -0.0008788768, -15839.105, -0.30913234, 0.0, 0.0014286399, -0.00087284343, 0.0 
9.765625e-2, 2.9560733e+1, -0.0008077799, -15744.197, 0.10415833, 0.0, 0.0012498286, -0.00080709084, 0.0 
9.765625e-2, 2.9753068e+1, -0.0007855512, -15522.733, 0.31782645, 0.0, 0.0014993541, -0.00077904377, 0.0 
9.765625e-2, 2.994542e+1, -0.00073799, -15435.279, 0.13519458, 0.0, 0.0012935319, -0.0007368059, 0.0 
9.765625e-2, 3.0137813e+1, -0.00074587326, -15209.295, 0.14960365, 0.0, 0.001459079, -0.0007444017, 0.0 
9.765625e-2, 3.0330226e+1, -0.00073724036, -15123.952, 0.20432155, 0.0, 0.0012024373, -0.00073448004, 0.0 
9.765625e-2, 3.0522677e+1, -0.0007770911, -14894.686, 0.32438275, 0.0, 0.001553192, -0.0007700266, 0.0 
9.765625e-2, 3.071515e+1, -0.00077904674, -14812.551, -1.7447329, 0.0, 0.0012204518, -0.00057353906, 0.0 
9.765625e-2, 3.0907658e+1, -0.0008045783, -14580.548, 0.89399004, 0.0, 0.0015706328, -0.00074976427, 0.0 
9.765625e-2, 3.1100187e+1, -0.0007888255, -14501.16, 0.49889633, 0.0, 0.0012573613, -0.0007716615, 0.0 
9.765625e-2, 3.1292754e+1, -0.000774563, -14268.025, 0.8081244, 0.0, 0.0016356524, -0.00072879175, 0.0 
9.765625e-2, 3.1485343e+1, -0.00075761974, -14189.201, -3.1416938, 0.0, 0.0011991907, -0.00006200338, 0.0 
9.765625e-2, 3.1677964e+1, -0.00074982404, -13952.366, 1.1127594, 0.0, 0.00168013, -0.00066107686, 0.0 
9.765625e-2, 3.1870615e+1, -0.00074128626, -13877.814, 0.20700856, 0.0, 0.0012616925, -0.0007381984, 0.0 
9.765625e-2, 3.2063296e+1, -0.0007382268, -13639.165, 0.41861773, 0.0, 0.0016719728, -0.00072537846, 0.0 
9.765625e-2, 3.2256004e+1, -0.00072245375, -13562.751, 0.77774173, 0.0, 0.0011650096, -0.000677855, 0.0 
9.765625e-2, 3.2448745e+1, -0.0007326972, -13334.91, 0.27832025, 0.0, 0.001664263, -0.00072688825, 0.0 
9.765625e-2, 3.2641515e+1, -0.0007264657, -13241.445, -0.0066344934, 0.0, 0.0012346631, -0.0007264624, 0.0 
9.765625e-2, 3.283431e+1, -0.00072730676, -13029.534, 0.31362617, 0.0, 0.0016104348, -0.00071975763, 0.0 
9.765625e-2, 3.3027136e+1, -0.00093538815, -12919.651, -21.904152, 0.0, 0.001134314, 0.036201105, 0.0 
9.765625e-2, 3.321999e+1, -0.00062856014, -12726.289, 0.22772501, 0.0, 0.0016003436, -0.0006244852, 0.0 
9.765625e-2, 3.3412877e+1, -0.0005625037, -12599.641, 0.43810594, 0.0, 0.0012258783, -0.0005472702, 0.0 
9.765625e-2, 3.360579e+1, -0.0005314335, -12418.946, 0.10708738, 0.0, 0.0016172477, -0.0005305101, 0.0 
9.765625e-2, 3.3798736e+1, -0.00053127273, -12280.413, -0.31181616, 0.0, 0.0011282807, -0.00052335527, 0.0 
9.765625e-2, 3.3991706e+1, -0.00052504276, -12112.964, 0.25409645, 0.0, 0.0016154934, -0.0005197125, 0.0 
9.765625e-2, 3.4184715e+1, -0.0005303664, -11961.221, 0.021683859, 0.0, 0.0013445879, -0.0005303271, 0.0 
9.765625e-2, 3.4377742e+1, -0.000512424, -11804.867, -1.079301, 0.0, 0.0016806835, -0.00041374515, 0.0 
9.765625e-2, 3.4570807e+1, -0.0004957507, -11645.554, -0.5844214, 0.0, 0.0011348658, -0.000466422, 0.0 
9.765625e-2, 3.4763896e+1, -0.00050796155, -11494.806, -0.2837346, 0.0, 0.0017234713, -0.0005009579, 0.0 
9.765625e-2, 3.4957024e+1, -0.0005382219, -11326.288, -1.7516544, 0.0, 0.0013827643, -0.00026732177, 0.0 
9.765625e-2, 3.515017e+1, -0.0005097972, -11191.798, -0.8527601, 0.0, 0.0016216176, -0.00044482105, 0.0 
9.765625e-2, 3.5343352e+1, -0.00047884922, -11004.692, 2.028436, 0.0, 0.0013219476, -0.00010495845, 0.0 
9.765625e-2, 3.553656e+1, -0.00046985917, -10884.408, 0.1361222, 0.0, 0.0017496159, -0.0004681568, 0.0 
9.765625e-2, 3.5729805e+1, -0.00048641884, -10684.35, -2.4611163, 0.0, 0.0011648744, 0.0000804939, 0.0 
9.765625e-2, 3.592307e+1, -0.00056030904, -10582.407, -0.43678528, 0.0, 0.0015087074, -0.00054228085, 0.0 
9.765625e-2, 3.611637e+1, -0.00066402723, -10363.982, 2.0501914, 0.0, 0.0015623008, -0.00025846064, 0.0 
9.765625e-2, 3.63097e+1, -0.00070844876, -10273.609, -2.3656404, 0.0, 0.00165354, -0.00016372735, 0.0 
9.765625e-2, 3.650306e+1, -0.00064208964, -10040.714, -0.85111636, 0.0, 0.00094723055, -0.00056994346, 0.0 
9.765625e-2, 3.6696446e+1, -0.0006280005, -9974.485, 0.74693155, 0.0, 0.0015072178, -0.0005720671, 0.0 
9.765625e-2, 3.6889866e+1, -0.00063724583, -9715.003, -0.44185108, 0.0, 0.0016384042, -0.0006171498, 0.0 
9.765625e-2, 3.708331e+1, -0.0006543975, -9675.582, -1.0912647, 0.0, 0.0013928476, -0.00053131866, 0.0 
9.765625e-2, 3.7276787e+1, -0.00067522604, -9387.412, 0.7023987, 0.0, 0.0012589655, -0.0006226701, 0.0 
9.765625e-2, 3.7470296e+1, -0.0006985622, -9376.366, -0.09420449, 0.0, 0.0016484121, -0.00069761573, 0.0 
9.765625e-2, 3.766383e+1, -0.00068368495, -9063.195, -0.91634077, 0.0, 0.0013199197, -0.0005910377, 0.0 
9.765625e-2, 3.7857398e+1, -0.0006610385, -9075.075, 0.04936358, 0.0, 0.0012839909, -0.00066077, 0.0 
9.765625e-2, 3.805099e+1, -0.00066148303, -8742.515, -0.79156834, 0.0, 0.0018235662, -0.0005898125, 0.0 
9.765625e-2, 3.824462e+1, -0.0006585795, -8767.293, -0.20685747, 0.0, 0.0015842363, -0.00065369887, 0.0 
9.765625e-2, 3.843827e+1, -0.0006800407, -8425.577, -0.5061348, 0.0, 0.001145924, -0.0006496365, 0.0 
9.765625e-2, 3.863196e+1, -0.0006896517, -8452.813, -6.6746283, 0.0, 0.0013616079, 0.004580858, 0.0 
9.765625e-2, 3.8825673e+1, -0.0007171116, -8113.6553, -10.402677, 0.0, 0.0018760463, 0.012620345, 0.0 
9.765625e-2, 3.901942e+1, -0.0007021556, -8148.0713, -6.2715898, 0.0, 0.0014616231, 0.0041250996, 0.0 
9.765625e-2, 3.921319e+1, -0.0006978777, -7803.0537, -0.4690935, 0.0, 0.0012414195, -0.0006696774, 0.0 
9.765625e-2, 3.9406997e+1, -0.0006905368, -7828.23, 0.62413025, 0.0, 0.0013485932, -0.00064077607, 0.0 
9.765625e-2, 3.9600825e+1, -0.0006999469, -7491.251, -1.3401142, 0.0, 0.0017404122, -0.00046021305, 0.0 
9.765625e-2, 3.9794695e+1, -0.0006881087, -7515.781, -0.941779, 0.0, 0.0013395946, -0.00057009724, 0.0 
9.765625e-2, 3.9988583e+1, -0.0006945091, -7181.944, 1.1612649, 0.0, 0.0014171987, -0.00050674146, 0.0 
9.765625e-2, 4.0182513e+1, -0.0006529938, -7199.004, 0.44060403, 0.0, 0.0013630358, -0.0006260273, 0.0 
9.765625e-2, 4.0376458e+1, -0.0006180179, -6872.06, -2.1027462, 0.0, 0.0015977232, 0.000025390536, 0.0 
9.765625e-2, 4.057045e+1, -0.00057147024, -6882.973, -1.6393571, 0.0, 0.0013482294, -0.00018101519, 0.0 
9.765625e-2, 4.076445e+1, -0.00057246245, -6565.9546, 2.4844337, 0.0, 0.0015387622, 0.00036760047, 0.0 
9.765625e-2, 4.0958503e+1, -0.00060147897, -6564.5493, 1.6163948, 0.0, 0.0013710674, -0.00020347262, 0.0 
9.765625e-2, 4.115257e+1, -0.00065054116, -6245.345, -7.769501, 0.0, 0.0015978096, 0.009015068, 0.0 
9.765625e-2, 4.1346684e+1, -0.0006609431, -6258.0215, -13.607107, 0.0, 0.0012578276, 0.028925486, 0.0 
9.765625e-2, 4.1540802e+1, -0.0005839936, -5944.8584, -3.2807133, 0.0, 0.0017020777, 0.0012264914, 0.0 
9.765625e-2, 4.173498e+1, -0.0005848063, -5938.6934, -0.41249093, 0.0, 0.0012909479, -0.00055615546, 0.0 
9.765625e-2, 4.192916e+1, -0.00064514484, -5636.0674, -0.44319978, 0.0, 0.0015440445, -0.00061029324, 0.0 
9.765625e-2, 4.2123395e+1, -0.0006727709, -5617.3994, 0.09056261, 0.0, 0.0014292422, -0.0006713108, 0.0 
9.765625e-2, 4.2317635e+1, -0.0006694883, -5336.047, -0.15575005, 0.0, 0.0014981341, -0.0006649422, 0.0 
9.765625e-2, 4.2511928e+1, -0.0006963193, -5292.397, 0.6248704, 0.0, 0.0010717142, -0.0006225411, 0.0 
9.765625e-2, 4.270623e+1, -0.00070800167, -5036.7866, -0.60306245, 0.0, 0.0018275123, -0.000635796, 0.0 
9.765625e-2, 4.290058e+1, -0.0006748739, -4964.8423, -0.61660653, 0.0, 0.0014197236, -0.00059829466, 0.0 
9.765625e-2, 4.3094945e+1, -0.0006667392, -4740.932, 1.9603499, 0.0, 0.0012452287, 0.0001438549, 0.0 
9.765625e-2, 4.3289357e+1, -0.0006542146, -4635.7803, -0.640986, 0.0, 0.0014053454, -0.0005655859, 0.0 
9.765625e-2, 4.3483785e+1, -0.00063725136, -4445.365, 0.035360865, 0.0, 0.0016235668, -0.00063697004, 0.0 
9.765625e-2, 4.3678254e+1, -0.0006170385, -4307.451, 3.1164248, 0.0, 0.0012568802, 0.0016376821, 0.0 
9.765625e-2, 4.387274e+1, -0.0006543313, -4132.976, -10.58432, 0.0, 0.0016158621, 0.026451346, 0.0 
9.765625e-2, 4.406727e+1, -0.00064719474, -3987.9705, -26.32632, 0.0, 0.0015085577, 0.17313671, 0.0 
9.765625e-2, 4.426182e+1, -0.00056856475, -3848.3079, -7.967259, 0.0, 0.0014072723, 0.015926205, 0.0 
9.765625e-2, 4.4456404e+1, -0.0005664381, -3662.7002, 0.22560954, 0.0, 0.0014090486, -0.0005525413, 0.0 
9.765625e-2, 4.4651017e+1, -0.0005856768, -3535.2761, 0.09805345, 0.0, 0.0016114529, -0.00058295723, 0.0 
9.765625e-2, 4.4845662e+1, -0.000601459, -3342.9531, -3.4283185, 0.0, 0.00148841, 0.0029144015, 0.0 
9.765625e-2, 4.5040336e+1, -0.0005995042, -3227.9678, 0.72714835, 0.0, 0.0014606128, -0.00043570308, 0.0 
9.765625e-2, 4.5235038e+1, -0.0006080959, -3024.733, -0.040818326, 0.0, 0.0013394915, -0.0006075451, 0.0 
9.765625e-2, 4.5429778e+1, -0.00061790226, -2919.5662, -0.7178205, 0.0, 0.0016216341, -0.00044141494, 0.0 
9.765625e-2, 4.562454e+1, -0.0006129304, -2707.3645, -0.6429115, 0.0, 0.0014730198, -0.0004602597, 0.0 
9.765625e-2, 4.581934e+1, -0.0006042042, -2611.6775, 0.5959121, 0.0, 0.0014198654, -0.00046823366, 0.0 
9.765625e-2, 4.6014157e+1, -0.00059594406, -2390.5356, 0.1846425, 0.0, 0.0012603871, -0.0005816825, 0.0 
9.765625e-2, 4.6209022e+1, -0.0005854937, -2303.461, -1.0284731, 0.0, 0.0016405291, -0.00012629028, 0.0 
9.765625e-2, 4.6403897e+1, -0.0005642837, -2073.2686, -0.4697948, 0.0, 0.0015615991, -0.00045782997, 0.0 
9.765625e-2, 4.6598828e+1, -0.0005386652, -1991.5437, -0.37072152, 0.0, 0.0014223425, -0.00046965617, 0.0 
9.765625e-2, 4.679376e+1, -0.00053263776, -1759.5776, -4.0381804, 0.0, 0.0008731819, 0.008734823, 0.0 
9.765625e-2, 4.698875e+1, -0.0005499198, -1685.5635, -1.0571959, 0.0, 0.0018949459, 0.00011316, 0.0 
9.765625e-2, 4.7183743e+1, -0.0005602976, -1441.756, 0.13089415, 0.0, 0.002279523, -0.00054841395, 0.0 
9.765625e-2, 4.73788e+1, -0.0005770566, -1375.3766, -0.28821662, 0.0, 0.0008874854, -0.0005166594, 0.0 
9.765625e-2, 4.7573844e+1, -0.00058175565, -1126.0251, -0.53071266, 0.0, -0.00016589389, -0.00033162264, 0.0 
9.765625e-2, 4.776897e+1, -0.00057770486, -1058.0106, 0.67912096, 0.0, 0.003132945, -0.00014178737, 0.0 
9.765625e-2, 4.7964078e+1, -0.000543922, -817.18195, 0.18321975, 0.0, 0.003047571, -0.0005028425, 0.0 
9.765625e-2, 4.8159254e+1, -0.0005579823, -777.0461, -0.8195618, 0.0, -0.00070530176, 0.00030642113, 0.0 
9.765625e-2, 4.835442e+1, -0.000597331, -474.68915, 1.0415353, 0.0, 0.0005714578, 0.0016879367, 0.0 
9.765625e-2, 4.8549682e+1, -0.0007144233, -360.54413, 0.03220711, 0.0, 0.0041696317, -0.0007115463, 0.0 
9.765625e-2, 4.8744905e+1, -0.00088416017, -265.8671, -2.6953866, 0.0, -0.0004855276, 0.026439212, 0.0 
9.765625e-2, 4.8940185e+1, -0.0011763197, -81.70649, 1.6408937, 0.0, 0.002094709, 0.03176459, 0.0 
2.9296875e-1, 9.39818e-2, -0.000025273564, -39859.086, -0.0057405327, 0.0, -0.0000008450207, -0.00002527274, 0.0 
2.9296875e-1, 2.819454e-1, -0.00022751682, -39862.67, -0.017221654, 0.0, -0.0000025351417, -0.00022750937, 0.0 
2.9296875e-1, 4.6993655e-1, -0.0004206993, -39547.734, -0.034620337, 0.0, 0.00003727482, -0.00042066898, 0.0 
2.9296875e-1, 6.5795493e-1, -0.0004806162, -39548.152, -0.048977844, 0.0, 0.00002021738, -0.00048055555, 0.0 
2.9296875e-1, 8.4600085e-1, -0.00054921483, -39234.61, -0.061000794, 0.0, 0.000059929644, -0.00054912, 0.0 
2.9296875e-1, 1.0340737e+0, -0.0005251349, -39235.48, -0.080052376, 0.0, 0.000058210677, -0.0005249716, 0.0 
2.9296875e-1, 1.2221742e+0, -0.00056323595, -38921.758, -0.09741536, 0.0, 0.000107422085, -0.0005629921, 0.0 
2.9296875e-1, 1.4103018e+0, -0.0005315631, -38922.45, -0.10548862, 0.0, 0.00010129014, -0.00053127727, 0.0 
2.9296875e-1, 1.5984568e+0, -0.0005804166, -38609.074, -0.11467232, 0.0, 0.00015944372, -0.000580076, 0.0 
2.9296875e-1, 1.7866391e+0, -0.0005412049, -38609.098, -0.11260949, 0.0, 0.00014953251, -0.0005408764, 0.0 
2.9296875e-1, 1.9748488e+0, -0.0005920503, -38296.465, -0.10093476, 0.0, 0.00019971274, -0.0005917843, 0.0 
2.9296875e-1, 2.1630856e+0, -0.0005589351, -38295.438, -0.079010986, 0.0, 0.00018448666, -0.0005587721, 0.0 
2.9296875e-1, 2.3513503e+0, -0.0006211332, -37984.008, -0.060825486, 0.0, 0.00022400623, -0.0006210358, 0.0 
2.9296875e-1, 2.5396422e+0, -0.0005878247, -37981.492, -0.042890977, 0.0, 0.00020177144, -0.0005877762, 0.0 
2.9296875e-1, 2.7279612e+0, -0.00063079956, -37671.746, -0.023034535, 0.0, 0.00022771642, -0.0006307855, 0.0 
2.9296875e-1, 2.916308e+0, -0.00056829996, -37667.73, -0.009331817, 0.0, 0.00021309065, -0.00056829763, 0.0 
2.9296875e-1, 3.104682e+0, -0.0005928394, -37359.105, 0.0010294768, 0.0, 0.00022472753, -0.0005928393, 0.0 
2.9296875e-1, 3.2930836e+0, -0.00054198696, -37354.063, 0.0061800475, 0.0, 0.00020650991, -0.0005419859, 0.0 
2.9296875e-1, 3.4815124e+0, -0.00056188257, -37046.92, 0.0147728305, 0.0, 0.00021796134, -0.0005618767, 0.0 
2.9296875e-1, 3.669969e+0, -0.00052746566, -37040.656, 0.020381028, 0.0, 0.00020763361, -0.0005274544, 0.0 
2.9296875e-1, 3.8584524e+0, -0.00055532873, -36734.324, 0.015329196, 0.0, 0.0002200273, -0.00055532233, 0.0 
2.9296875e-1, 4.046964e+0, -0.00053429644, -36727.35, 0.026622837, 0.0, 0.00020180526, -0.0005342772, 0.0 
2.9296875e-1, 4.2355028e+0, -0.0005468622, -36422.008, 0.05721586, 0.0, 0.00023110183, -0.0005467723, 0.0 
2.9296875e-1, 4.4240695e+0, -0.00053224905, -36414.28, 0.08986427, 0.0, 0.00021332793, -0.0005320273, 0.0 
2.9296875e-1, 4.6126628e+0, -0.0005396161, -36109.305, 0.11285105, 0.0, 0.00025376995, -0.0005392634, 0.0 
2.9296875e-1, 4.8012847e+0, -0.0005136223, -36101.137, 0.14807095, 0.0, 0.0002235803, -0.00051301497, 0.0 
2.9296875e-1, 4.989933e+0, -0.0004893321, -35796.71, 0.19407573, 0.0, 0.00028051814, -0.00048827988, 0.0 
2.9296875e-1, 5.17861e+0, -0.0005098258, -35788.367, 0.22766449, 0.0, 0.00023739901, -0.00050837756, 0.0 
2.9296875e-1, 5.3673136e+0, -0.00055454386, -35484.39, 0.24778754, 0.0, 0.00030538038, -0.0005528136, 0.0 
2.9296875e-1, 5.556046e+0, -0.0006068035, -35475.156, 0.25831792, 0.0, 0.00024405318, -0.00060492253, 0.0 
2.9296875e-1, 5.744804e+0, -0.0006026614, -35171.484, 0.2460868, 0.0, 0.00032450436, -0.0006009396, 0.0 
2.9296875e-1, 5.933592e+0, -0.0006284026, -35161.855, 0.21572952, 0.0, 0.00024501779, -0.000627079, 0.0 
2.9296875e-1, 6.1224043e+0, -0.000618032, -34858.844, 0.1735614, 0.0, 0.00034123787, -0.00061716785, 0.0 
2.9296875e-1, 6.3112485e+0, -0.0006374094, -34848.504, 0.12947972, 0.0, 0.00023889462, -0.0006369283, 0.0 
2.9296875e-1, 6.500116e+0, -0.000631788, -34546.504, 0.075471215, 0.0, 0.0003528941, -0.00063162314, 0.0 
2.9296875e-1, 6.689015e+0, -0.0006698629, -34534.465, 0.028558346, 0.0, 0.00024101124, -0.00066983927, 0.0 
2.9296875e-1, 6.877938e+0, -0.00065596297, -34235.1, -0.015431489, 0.0, 0.00036067393, -0.00065595604, 0.0 
2.9296875e-1, 7.0668924e+0, -0.00069532485, -34220.22, -0.07476022, 0.0, 0.00024908947, -0.0006951615, 0.0 
2.9296875e-1, 7.25587e+0, -0.0007016491, -33924.418, -0.10936808, 0.0, 0.00038809946, -0.0007012965, 0.0 
2.9296875e-1, 7.444881e+0, -0.0007304016, -33905.1, -0.1437652, 0.0, 0.00027495794, -0.000729792, 0.0 
2.9296875e-1, 7.633914e+0, -0.00068875303, -33614.24, -0.14645372, 0.0, 0.00039481276, -0.00068811496, 0.0 
2.9296875e-1, 7.8229797e+0, -0.00067615305, -33590.49, -0.1563434, 0.0, 0.0003156928, -0.00067542534, 0.0 
2.9296875e-1, 8.0120677e+0, -0.0006328164, -33304.082, -0.15734176, 0.0, 0.0004354205, -0.00063207303, 0.0 
2.9296875e-1, 8.20119e+0, -0.0006320055, -33275.08, -0.18650457, 0.0, 0.0003619432, -0.00063096016, 0.0 
2.9296875e-1, 8.3903325e+0, -0.00060999877, -32993.684, -0.15243298, 0.0, 0.00044591262, -0.0006092945, 0.0 
2.9296875e-1, 8.5795105e+0, -0.00059003517, -32960.703, -0.17627789, 0.0, 0.00039622933, -0.0005890924, 0.0 
2.9296875e-1, 8.768708e+0, -0.0005265955, -32682.902, -0.18902059, 0.0, 0.00048647102, -0.0005255023, 0.0 
2.9296875e-1, 8.957942e+0, -0.00050729647, -32645.705, -0.1666233, 0.0, 0.00044779765, -0.000506446, 0.0 
2.9296875e-1, 9.1471946e+0, -0.0005107949, -32373.475, -0.23118347, 0.0, 0.00045095105, -0.000509144, 0.0 
2.9296875e-1, 9.3364847e+0, -0.0005301753, -32329.35, -0.36691144, 0.0, 0.00041718493, -0.0005260111, 0.0 
2.9296875e-1, 9.525793e+0, -0.00054123555, -32064.32, -0.058486428, 0.0, 0.0005175871, -0.00054112886, 0.0 
2.9296875e-1, 9.715139e+0, -0.0005462195, -32013.092, 0.080437176, 0.0, 0.00051467144, -0.0005460174, 0.0 
2.9296875e-1, 9.9045026e+0, -0.00054845173, -31756.818, -0.78487444, 0.0, 0.0003730249, -0.00052905345, 0.0 
2.9296875e-1, 1.0093904e+1, -0.0005468334, -31695.547, -1.1633301, 0.0, 0.0003769752, -0.0005041354, 0.0 
2.9296875e-1, 1.02833234e+1, -0.00056226144, -31447.264, 0.81697977, 0.0, 0.0005588078, -0.00054103683, 0.0 
2.9296875e-1, 1.0472781e+1, -0.0005786386, -31380.012, 1.5481548, 0.0, 0.00060505053, -0.00050225924, 0.0 
2.9296875e-1, 1.06622554e+1, -0.0005999566, -31141.969, -2.1770682, 0.0, 0.00030479053, -0.00044776243, 0.0 
2.9296875e-1, 1.0851769e+1, -0.0006072075, -31061.258, -3.2071714, 0.0, 0.0003869366, -0.00027605705, 0.0 
2.9296875e-1, 1.10412985e+1, -0.0006227789, -30827.725, 2.9079947, 0.0, 0.0006494888, -0.00034846627, 0.0 
2.9296875e-1, 1.12308696e+1, -0.00061426475, -30752.0, 3.6560454, 0.0, 0.00068831845, -0.00017960463, 0.0 
2.9296875e-1, 1.1420453e+1, -0.0006157865, -30530.041, -3.8286498, 0.0, 0.00039784246, -0.00013565092, 0.0 
2.9296875e-1, 1.1610078e+1, -0.0006099505, -30433.639, -1.9933988, 0.0, 0.00054918113, -0.0004793832, 0.0 
2.9296875e-1, 1.1799718e+1, -0.0006288625, -30222.146, 2.1444125, 0.0, 0.00071105344, -0.0004767056, 0.0 
2.9296875e-1, 1.1989398e+1, -0.0006403577, -30129.246, -9.770833, 0.0, 0.0006821966, 0.0025282966, 0.0 
2.9296875e-1, 1.2179093e+1, -0.0028507323, -29905.998, 50.46073, 0.0, 0.0006415105, 0.082292, 0.0 
2.9296875e-1, 1.2368831e+1, -0.00063975743, -29798.535, -7.7993445, 0.0, 0.0006530239, 0.0014016104, 0.0 
2.9296875e-1, 1.2558584e+1, -0.0006183699, -29598.744, -0.36993694, 0.0, 0.00072070217, -0.0006137463, 0.0 
2.9296875e-1, 1.2748377e+1, -0.000597203, -29487.861, -0.01981604, 0.0, 0.00075943774, -0.00059718965, 0.0 
2.9296875e-1, 1.2938185e+1, -0.0006360739, -29290.023, -0.4259898, 0.0, 0.00072586787, -0.00062987837, 0.0 
2.9296875e-1, 1.3128033e+1, -0.00067364844, -29172.016, -0.7873015, 0.0, 0.0006090094, -0.00065240054, 0.0 
2.9296875e-1, 1.3317898e+1, -0.0006931016, -28979.55, -0.2564862, 0.0, 0.00074921595, -0.0006908315, 0.0 
2.9296875e-1, 1.3507804e+1, -0.00064130535, -28855.242, 0.539589, 0.0, 0.00079494703, -0.00063121517, 0.0 
2.9296875e-1, 1.3697724e+1, -0.0005781175, -28672.553, -0.45664573, 0.0, 0.00074118853, -0.00057084486, 0.0 
2.9296875e-1, 1.3887686e+1, -0.000517419, -28538.82, -1.393869, 0.0, 0.0005521186, -0.00044934082, 0.0 
2.9296875e-1, 1.4077662e+1, -0.0005317482, -28360.215, -0.09869183, 0.0, 0.0007786757, -0.00053140474, 0.0 
2.9296875e-1, 1.4267679e+1, -0.00055298826, -28224.324, 0.14708681, 0.0, 0.00083202985, -0.0005522217, 0.0 
2.9296875e-1, 1.4457712e+1, -0.0005792353, -28053.424, -2.7223558, 0.0, 0.00082631427, -0.00031505292, 0.0 
2.9296875e-1, 1.4647785e+1, -0.0008854253, -27908.271, 21.565792, 0.0, 0.0005539119, 0.015779281, 0.0 
2.9296875e-1, 1.4837874e+1, -0.0005600167, -27738.77, -2.865364, 0.0, 0.0008320864, -0.00026402986, 0.0 
2.9296875e-1, 1.5028006e+1, -0.00056141935, -27592.234, 0.6462182, 0.0, 0.00096005836, -0.0005462847, 0.0 
2.9296875e-1, 1.5218152e+1, -0.00058391085, -27431.172, 0.47753152, 0.0, 0.0009922265, -0.0005755978, 0.0 
2.9296875e-1, 1.5408337e+1, -0.00057791336, -27278.266, -2.2560127, 0.0, 0.00052692596, -0.0003913328, 0.0 
2.9296875e-1, 1.559854e+1, -0.00058768183, -27118.674, -1.1435639, 0.0, 0.0009349447, -0.000539459, 0.0 
2.9296875e-1, 1.5788785e+1, -0.0005632177, -26957.654, 2.7531452, 0.0, 0.0010748282, -0.00028204307, 0.0 
2.9296875e-1, 1.5979041e+1, -0.00058173365, -26816.771, 0.6358567, 0.0, 0.0010320954, -0.00056665676, 0.0 
2.9296875e-1, 1.616934e+1, -0.000592961, -26640.445, -3.2259467, 0.0, 0.00062056445, -0.0002023244, 0.0 
2.9296875e-1, 1.6359656e+1, -0.0006299949, -26504.021, 0.027100883, 0.0, 0.0010378228, -0.0006299672, 0.0 
2.9296875e-1, 1.6550012e+1, -0.0006399288, -26326.723, 0.51063704, 0.0, 0.00096819486, -0.00063002435, 0.0 
2.9296875e-1, 1.6740383e+1, -0.000654717, -26200.941, -8.204255, 0.0, 0.00096699747, 0.0019142667, 0.0 
2.9296875e-1, 1.6930798e+1, -0.004195817, -26009.064, 73.686584, 0.0, 0.0008680028, 0.20456487, 0.0 
2.9296875e-1, 1.7121226e+1, -0.00062992814, -25880.188, -6.735678, 0.0, 0.0010307356, 0.0011231255, 0.0 
2.9296875e-1, 1.7311695e+1, -0.0006168662, -25692.35, -0.62867165, 0.0, 0.0009050221, -0.00060148316, 0.0 
2.9296875e-1, 1.750218e+1, -0.00062070595, -25576.441, -0.004860843, 0.0, 0.0010270103, -0.000620705, 0.0 
2.9296875e-1, 1.7692707e+1, -0.00060495303, -25375.582, -0.025897034, 0.0, 0.0009822028, -0.0006049266, 0.0 
2.9296875e-1, 1.7883247e+1, -0.00059689366, -25267.934, 0.01609482, 0.0, 0.001054039, -0.0005968834, 0.0 
2.9296875e-1, 1.807383e+1, -0.00059175235, -25057.41, -0.097901694, 0.0, 0.001023712, -0.0005913698, 0.0 
2.9296875e-1, 1.826443e+1, -0.0005973891, -24960.973, 0.106049694, 0.0, 0.0010897928, -0.00059693854, 0.0 
2.9296875e-1, 1.8455067e+1, -0.0006040627, -24746.18, 0.27833763, 0.0, 0.0010706056, -0.00060093205, 0.0 
2.9296875e-1, 1.8645722e+1, -0.0006149767, -24657.49, 0.08266703, 0.0, 0.0010989589, -0.00061469956, 0.0 
2.9296875e-1, 1.8836416e+1, -0.0006047857, -24430.885, -0.04829635, 0.0, 0.0011333363, -0.0006046902, 0.0 
2.9296875e-1, 1.902713e+1, -0.0005870459, -24347.723, 0.18555595, 0.0, 0.0011042408, -0.00058563176, 0.0 
2.9296875e-1, 1.921788e+1, -0.00056822924, -24113.139, 0.37538043, 0.0, 0.0011665265, -0.00056238554, 0.0 
2.9296875e-1, 1.9408649e+1, -0.0005506502, -24039.852, 0.15122186, 0.0, 0.001075927, -0.00054969895, 0.0 
2.9296875e-1, 1.9599459e+1, -0.0005221986, -23795.092, -0.055002462, 0.0, 0.0011993299, -0.0005220715, 0.0 
2.9296875e-1, 1.9790286e+1, -0.0005129761, -23733.387, 0.10912216, 0.0, 0.0010480448, -0.00051247433, 0.0 
2.9296875e-1, 1.998115e+1, -0.00055992085, -23477.588, 0.18442985, 0.0, 0.0012134466, -0.00055847206, 0.0 
2.9296875e-1, 2.0172033e+1, -0.0006357568, -23426.049, 0.0117261205, 0.0, 0.0010207598, -0.00063575094, 0.0 
2.9296875e-1, 2.0362955e+1, -0.0007008398, -23158.834, 0.0979587, 0.0, 0.0012486296, -0.0007004255, 0.0 
2.9296875e-1, 2.0553896e+1, -0.00068618596, -23120.143, 0.29401967, 0.0, 0.0009755614, -0.0006824469, 0.0 
2.9296875e-1, 2.0744874e+1, -0.0006779228, -22839.596, -0.046570126, 0.0, 0.0012837255, -0.0006778278, 0.0 
2.9296875e-1, 2.0935874e+1, -0.0006669831, -22814.766, 0.4285088, 0.0, 0.0010334577, -0.00065893476, 0.0 
2.9296875e-1, 2.1126908e+1, -0.00065837655, -22520.76, 0.12571271, 0.0, 0.0013630108, -0.0006576748, 0.0 
2.9296875e-1, 2.1317965e+1, -0.000625491, -22507.713, 0.41669235, 0.0, 0.00093638554, -0.00061777665, 0.0 
2.9296875e-1, 2.1509054e+1, -0.0006118461, -22205.502, 0.013744368, 0.0, 0.0014161197, -0.0006118376, 0.0 
2.9296875e-1, 2.1700169e+1, -0.0006032886, -22194.852, 1.127368, 0.0, 0.0011309945, -0.0005460249, 0.0 
2.9296875e-1, 2.1891315e+1, -0.00066219765, -21895.78, 0.22522733, 0.0, 0.0014757888, -0.0006598809, 0.0 
2.9296875e-1, 2.2082487e+1, -0.0007023042, -21879.965, -0.121259235, 0.0, 0.0009240594, -0.0007016322, 0.0 
2.9296875e-1, 2.227369e+1, -0.0007027656, -21584.422, -0.111017644, 0.0, 0.0015034067, -0.0007021946, 0.0 
2.9296875e-1, 2.2464922e+1, -0.0006477229, -21563.832, 2.8541877, 0.0, 0.0011782334, -0.00026994277, 0.0 
2.9296875e-1, 2.265618e+1, -0.0006316782, -21276.398, 0.64184153, 0.0, 0.001492181, -0.0006123159, 0.0 
2.9296875e-1, 2.2847469e+1, -0.00065342244, -21247.242, -1.1687307, 0.0, 0.0009190805, -0.000589135, 0.0 
2.9296875e-1, 2.3038784e+1, -0.00066121336, -20966.074, -0.25170386, 0.0, 0.0015406267, -0.00065819157, 0.0 
2.9296875e-1, 2.3230132e+1, -0.0006580925, -20928.057, 3.8097498, 0.0, 0.0010715367, 0.000035435485, 0.0 
2.9296875e-1, 2.3421505e+1, -0.0006619939, -20662.041, 0.9739989, 0.0, 0.0013434672, -0.00061608007, 0.0 
2.9296875e-1, 2.3612909e+1, -0.0006611781, -20612.434, -2.575958, 0.0, 0.0011541552, -0.00033925788, 0.0 
2.9296875e-1, 2.380434e+1, -0.00066240336, -20348.482, -0.27585506, 0.0, 0.0016835687, -0.0006586637, 0.0 
2.9296875e-1, 2.3995803e+1, -0.00067390053, -20293.688, 5.4089236, 0.0, 0.0007116769, 0.00076775224, 0.0 
2.9296875e-1, 2.4187288e+1, -0.00067368, -20044.557, 0.9912077, 0.0, 0.0011178234, -0.00062466454, 0.0 
2.9296875e-1, 2.4378811e+1, -0.0007015621, -19979.375, -3.071513, 0.0, 0.0017672298, -0.00022936559, 0.0 
2.9296875e-1, 2.4570355e+1, -0.00070443476, -19731.617, -1.5488082, 0.0, 0.0019765752, -0.000582863, 0.0 
2.9296875e-1, 2.4761933e+1, -0.0008383883, -19662.102, 15.329624, 0.0, 0.00015985343, 0.011113398, 0.0 
2.9296875e-1, 2.4953534e+1, -0.00073292706, -19423.191, -1.5226533, 0.0, 0.0009258527, -0.0006135608, 0.0 
2.9296875e-1, 2.5145173e+1, -0.00075271656, -19343.016, -0.6490194, 0.0, 0.0024312227, -0.0007309399, 0.0 
2.9296875e-1, 2.5336832e+1, -0.0007480863, -19115.959, 1.7640979, 0.0, 0.0020173462, -0.0005852882, 0.0 
2.9296875e-1, 2.5528526e+1, -0.00078459363, -19027.033, 2.0416355, 0.0, -0.00010021286, -0.0005655224, 0.0 
2.9296875e-1, 2.5720242e+1, -0.00077903277, -18806.162, -1.952493, 0.0, 0.0011925201, -0.0005763211, 0.0 
2.9296875e-1, 2.5912e+1, -0.00081137585, -18706.094, 3.101184, 0.0, 0.0022667022, -0.00029724708, 0.0 
2.9296875e-1, 2.610377e+1, -0.00082632946, -18504.127, -0.43540046, 0.0, 0.0013865778, -0.00081608456, 0.0 
2.9296875e-1, 2.629558e+1, -0.0008718245, -18385.215, -0.32416198, 0.0, 0.00068915053, -0.00086610904, 0.0 
2.9296875e-1, 2.6487413e+1, -0.000859082, -18193.023, 5.8759537, 0.0, 0.0017136555, 0.0010387242, 0.0 
2.9296875e-1, 2.6679283e+1, -0.00091300247, -18078.66, -5.0851684, 0.0, 0.0012039229, 0.0005173545, 0.0 
2.9296875e-1, 2.687117e+1, -0.0009594353, -17875.408, -6.0772777, 0.0, 0.0011284824, 0.0011067161, 0.0 
2.9296875e-1, 2.7063105e+1, -0.0010803124, -17734.568, 27.301598, 0.0, 0.0015067285, 0.040949214, 0.0 
2.9296875e-1, 2.725505e+1, -0.0011402501, -17579.89, 43.976032, 0.0, 0.0015176841, 0.10886495, 0.0 
2.9296875e-1, 2.7447036e+1, -0.0011506117, -17452.756, 19.682579, 0.0, 0.0010477307, 0.021046653, 0.0 
2.9296875e-1, 2.7639037e+1, -0.0010182085, -17272.11, 0.31680202, 0.0, 0.0014180805, -0.0010123977, 0.0 
2.9296875e-1, 2.7831084e+1, -0.0009766432, -17117.477, 3.4889507, 0.0, 0.0013957198, -0.00026551168, 0.0 
2.9296875e-1, 2.8023145e+1, -0.0030571679, -16964.91, 72.24919, 0.0, 0.0014421894, 0.304628, 0.0 
2.9296875e-1, 2.8215247e+1, -0.0009001613, -16805.842, 1.9985905, 0.0, 0.0013584589, -0.00066248415, 0.0 
2.9296875e-1, 2.8407365e+1, -0.00083646126, -16655.264, 0.33029923, 0.0, 0.001428818, -0.0008299109, 0.0 
2.9296875e-1, 2.8599527e+1, -0.0008493438, -16484.002, -0.33288246, 0.0, 0.0014395394, -0.00084262143, 0.0 
2.9296875e-1, 2.8791705e+1, -0.0008133427, -16351.102, -0.04366614, 0.0, 0.0014881989, -0.00081322604, 0.0 
2.9296875e-1, 2.8983924e+1, -0.0008574731, -16160.458, 0.5180112, 0.0, 0.0014548934, -0.0008408686, 0.0 
2.9296875e-1, 2.917616e+1, -0.00085721805, -16048.678, 0.17976066, 0.0, 0.0013468437, -0.00085520453, 0.0 
2.9296875e-1, 2.9368436e+1, -0.0008788845, -15839.399, -0.30943388, 0.0, 0.0015479063, -0.00087283953, 0.0 
2.9296875e-1, 2.9560733e+1, -0.00080776896, -15744.877, 0.10376643, 0.0, 0.001402402, -0.0008070851, 0.0 
2.9296875e-1, 2.9753068e+1, -0.00078554987, -15522.443, 0.43280768, 0.0, 0.0014891315, -0.000773482, 0.0 
2.9296875e-1, 2.994542e+1, -0.0007379863, -15435.278, 0.13486235, 0.0, 0.0012721588, -0.000736808, 0.0 
2.9296875e-1, 3.0137813e+1, -0.0007458794, -15209.2, 0.14957984, 0.0, 0.0015564474, -0.00074440835, 0.0 
2.9296875e-1, 3.0330226e+1, -0.0007372641, -15123.259, 0.20416325, 0.0, 0.0012728072, -0.00073450786, 0.0 
2.9296875e-1, 3.0522677e+1, -0.00077709695, -14894.469, 0.32649997, 0.0, 0.001533837, -0.00076993974, 0.0 
2.9296875e-1, 3.071515e+1, -0.0007758434, -14813.014, 0.8406168, 0.0, 0.0012312629, -0.00072813965, 0.0 
2.9296875e-1, 3.0907658e+1, -0.0008045719, -14580.796, 0.8940408, 0.0, 0.0015841693, -0.0007497526, 0.0 
2.9296875e-1, 3.1100187e+1, -0.00078881194, -14500.804, 0.49870098, 0.0, 0.0012104902, -0.00077166094, 0.0 
2.9296875e-1, 3.1292754e+1, -0.0007745664, -14267.267, 0.82804954, 0.0, 0.001614517, -0.0007265077, 0.0 
2.9296875e-1, 3.1485343e+1, -0.00074735546, -14189.072, 1.5419141, 0.0, 0.0012420827, -0.00057979696, 0.0 
2.9296875e-1, 3.1677964e+1, -0.0007498128, -13952.564, 1.1127962, 0.0, 0.0016568379, -0.000661061, 0.0 
2.9296875e-1, 3.1870615e+1, -0.000741289, -13878.153, 0.20678914, 0.0, 0.0011752079, -0.0007382078, 0.0 
2.9296875e-1, 3.2063296e+1, -0.00073821296, -13640.83, 0.41865537, 0.0, 0.0016851982, -0.00072536385, 0.0 
2.9296875e-1, 3.2256004e+1, -0.00072244793, -13562.263, 0.777514, 0.0, 0.0012621053, -0.0006778737, 0.0 
2.9296875e-1, 3.2448745e+1, -0.00073271396, -13333.044, 0.2783993, 0.0, 0.0016678591, -0.0007269009, 0.0 
2.9296875e-1, 3.2641515e+1, -0.00072646514, -13241.8125, -0.006801739, 0.0, 0.0011724429, -0.00072646164, 0.0 
2.9296875e-1, 3.283431e+1, -0.00072729937, -13031.274, 0.3136888, 0.0, 0.0016601675, -0.00071974826, 0.0 
2.9296875e-1, 3.3027136e+1, -0.00093853835, -12919.7295, 22.706598, 0.0, 0.0012556762, 0.038968492, 0.0 
2.9296875e-1, 3.321999e+1, -0.00062856456, -12725.485, 0.22755055, 0.0, 0.0016342954, -0.0006244956, 0.0 
2.9296875e-1, 3.3412877e+1, -0.0005624978, -12599.513, 0.4377151, 0.0, 0.0011318576, -0.0005472913, 0.0 
2.9296875e-1, 3.360579e+1, -0.0005314257, -12418.867, 0.1072586, 0.0, 0.0016014728, -0.0005304993, 0.0 
2.9296875e-1, 3.3798736e+1, -0.0005312713, -12280.341, -0.31202152, 0.0, 0.0012911055, -0.0005233434, 0.0 
2.9296875e-1, 3.399171e+1, -0.0005250366, -12113.599, 0.2542244, 0.0, 0.0016238133, -0.0005197013, 0.0 
2.9296875e-1, 3.4184715e+1, -0.00053036626, -11962.295, 0.02157621, 0.0, 0.0010752057, -0.0005303273, 0.0 
2.9296875e-1, 3.4377742e+1, -0.00051242457, -11804.496, -1.0793046, 0.0, 0.0016342402, -0.00041374197, 0.0 
2.9296875e-1, 3.4570807e+1, -0.000512185, -11644.578, 5.198117, 0.0, 0.0013302678, 0.0018082439, 0.0 
2.9296875e-1, 3.4763896e+1, -0.0005079764, -11496.001, -0.28341424, 0.0, 0.0016102452, -0.0005009893, 0.0 
2.9296875e-1, 3.4957018e+1, -0.00053824094, -11326.31, -1.7517221, 0.0, 0.0011773083, -0.00026732037, 0.0 
2.9296875e-1, 3.515017e+1, -0.0005098123, -11189.144, -0.8523717, 0.0, 0.0017083513, -0.00044487996, 0.0 
2.9296875e-1, 3.5343352e+1, -0.00047885015, -11005.692, 2.0788164, 0.0, 0.0012523675, -0.00008619171, 0.0 
2.9296875e-1, 3.553656e+1, -0.00046978952, -10887.0205, 0.68150556, 0.0, 0.0015442579, -0.00042712866, 0.0 
2.9296875e-1, 3.5729805e+1, -0.0004864036, -10684.065, -2.4609876, 0.0, 0.0014433502, 0.000080464815, 0.0 
2.9296875e-1, 3.592307e+1, -0.0005602966, -10578.785, -0.43638286, 0.0, 0.0017240662, -0.00054229546, 0.0 
2.9296875e-1, 3.611637e+1, -0.00066404283, -10363.163, 2.0721166, 0.0, 0.0010275687, -0.00024972265, 0.0 
2.9296875e-1, 3.63097e+1, -0.0007058078, -10277.208, -0.01075284, 0.0, 0.0014977398, -0.0007057965, 0.0 
2.9296875e-1, 3.650306e+1, -0.00064209214, -10040.901, -0.85136163, 0.0, 0.001692749, -0.00056990574, 0.0 
2.9296875e-1, 3.6696446e+1, -0.000627992, -9973.613, 0.74712086, 0.0, 0.0015739572, -0.0005720253, 0.0 
2.9296875e-1, 3.6889863e+1, -0.00063724467, -9715.503, -0.44174635, 0.0, 0.0010422996, -0.0006171593, 0.0 
2.9296875e-1, 3.708331e+1, -0.000654398, -9673.933, -1.0911428, 0.0, 0.0016281928, -0.00053132576, 0.0 
2.9296875e-1, 3.7276787e+1, -0.0006752209, -9387.952, 0.7025777, 0.0, 0.00155244, -0.00062264124, 0.0 
2.9296875e-1, 3.7470296e+1, -0.0006985611, -9378.167, -0.09395771, 0.0, 0.0013260639, -0.00069761975, 0.0 
2.9296875e-1, 3.766383e+1, -0.0006836926, -9061.978, -0.916515, 0.0, 0.0015989529, -0.00059099763, 0.0 
2.9296875e-1, 3.7857398e+1, -0.0006610565, -9074.646, 0.04969465, 0.0, 0.0016586345, -0.0006607843, 0.0 
2.9296875e-1, 3.805099e+1, -0.00066148717, -8743.204, -0.7916415, 0.0, 0.0011921377, -0.00058980903, 0.0 
2.9296875e-1, 3.8244617e+1, -0.00065856887, -8766.901, -0.20654498, 0.0, 0.001330761, -0.00065370277, 0.0 
2.9296875e-1, 3.843827e+1, -0.00068005046, -8428.288, -0.50606805, 0.0, 0.001898515, -0.0006496641, 0.0 
2.9296875e-1, 3.8631958e+1, -0.0006896403, -8460.229, -6.674365, 0.0, 0.0015088499, 0.004575835, 0.0 
2.9296875e-1, 3.8825667e+1, -0.0017633474, -8113.56, 35.623066, 0.0, 0.0011775274, 0.15463886, 0.0 
2.9296875e-1, 3.901942e+1, -0.000702133, -8139.106, -6.2715383, 0.0, 0.0013388434, 0.0041303597, 0.0 
2.9296875e-1, 3.921319e+1, -0.000697883, -7800.809, -0.46915615, 0.0, 0.0017967845, -0.00066966703, 0.0 
2.9296875e-1, 3.9406997e+1, -0.0006905421, -7830.937, 0.6243333, 0.0, 0.0013734486, -0.0006407662, 0.0 
2.9296875e-1, 3.9600825e+1, -0.00069995224, -7491.2227, -1.3401887, 0.0, 0.0012869874, -0.00046019084, 0.0 
2.9296875e-1, 3.9794695e+1, -0.0006881015, -7514.1064, -0.9416135, 0.0, 0.0013284532, -0.00057010533, 0.0 
2.9296875e-1, 3.9988583e+1, -0.0006945214, -7181.5796, 1.161294, 0.0, 0.0016148153, -0.0005067349, 0.0 
2.9296875e-1, 4.0182513e+1, -0.0006530034, -7199.2456, 0.44054267, 0.0, 0.0012980357, -0.00062604534, 0.0 
2.9296875e-1, 4.0376458e+1, -0.0006180066, -6873.907, -2.1026976, 0.0, 0.0014626593, 0.00002519921, 0.0 
2.9296875e-1, 4.057045e+1, -0.00057145336, -6882.581, -1.6394782, 0.0, 0.0013239741, -0.00018091836, 0.0 
2.9296875e-1, 4.0764454e+1, -0.0005724521, -6560.1313, 2.4847026, 0.0, 0.0015839795, 0.000368649, 0.0 
2.9296875e-1, 4.0958503e+1, -0.0006014974, -6571.188, 1.6166247, 0.0, 0.0012896274, -0.00020378003, 0.0 
2.9296875e-1, 4.1152564e+1, -0.0006505508, -6257.0127, -7.7690907, 0.0, 0.0016102851, 0.0089960145, 0.0 
2.9296875e-1, 4.134668e+1, -0.0014323136, -6251.4897, 29.407257, 0.0, 0.0013857739, 0.13689758, 0.0 
2.9296875e-1, 4.1540802e+1, -0.0005839929, -5937.078, -3.2809098, 0.0, 0.0015551712, 0.0012290819, 0.0 
2.9296875e-1, 4.173498e+1, -0.0005847835, -5939.3877, -0.38489506, 0.0, 0.0013323062, -0.0005598408, 0.0 
2.9296875e-1, 4.192916e+1, -0.0006449888, -5635.678, 0.57830226, 0.0, 0.0017189488, -0.0005856466, 0.0 
2.9296875e-1, 4.2123395e+1, -0.0006727643, -5618.1084, 0.48945466, 0.0, 0.0011831889, -0.0006301226, 0.0 
2.9296875e-1, 4.2317635e+1, -0.000669462, -5336.0283, -0.15552384, 0.0, 0.0017181211, -0.00066492916, 0.0 
2.9296875e-1, 4.2511928e+1, -0.00069631066, -5290.5947, 0.6251076, 0.0, 0.0015561929, -0.00062245136, 0.0 
2.9296875e-1, 4.270623e+1, -0.00070800935, -5039.58, -0.60286, 0.0, 0.001326471, -0.00063589215, 0.0 
2.9296875e-1, 4.290058e+1, -0.0006748888, -4963.5674, -0.6167434, 0.0, 0.0012134633, -0.00059825595, 0.0 
2.9296875e-1, 4.3094948e+1, -0.0006667155, -4738.8945, 1.9606572, 0.0, 0.0018714841, 0.00014448138, 0.0 
2.9296875e-1, 4.3289357e+1, -0.0006542106, -4639.615, -0.64099747, 0.0, 0.0013201028, -0.00056565204, 0.0 
2.9296875e-1, 4.3483785e+1, -0.00063724874, -4439.5425, 0.035469487, 0.0, 0.0014193067, -0.0006369654, 0.0 
2.9296875e-1, 4.3678254e+1, -0.0006170233, -4312.7173, 3.1165128, 0.0, 0.0015201828, 0.0016350718, 0.0 
2.9296875e-1, 4.3872738e+1, -0.0006543195, -4152.4956, -10.583804, 0.0, 0.0014583932, 0.026321316, 0.0 
2.9296875e-1, 4.4067264e+1, -0.0036800832, -3982.4844, 58.17826, 0.0, 0.0013602998, 0.8460385, 0.0 
2.9296875e-1, 4.426182e+1, -0.0005685896, -3833.4063, -7.9673185, 0.0, 0.0016323451, 0.015990546, 0.0 
2.9296875e-1, 4.4456404e+1, -0.00056620117, -3661.7952, 0.62339985, 0.0, 0.0014584771, -0.00046007088, 0.0 
2.9296875e-1, 4.4651017e+1, -0.00058559, -3535.9392, 0.33648068, 0.0, 0.001487501, -0.00055357045, 0.0 
2.9296875e-1, 4.4845662e+1, -0.00059092575, -3342.1094, 1.2592031, 0.0, 0.001445406, -0.00011649708, 0.0 
2.9296875e-1, 4.5040336e+1, -0.000599511, -3227.9392, 0.72720075, 0.0, 0.0015901653, -0.00043568487, 0.0 
2.9296875e-1, 4.5235038e+1, -0.0006081052, -3025.08, -0.04094604, 0.0, 0.0014452919, -0.00060755096, 0.0 
2.9296875e-1, 4.5429778e+1, -0.0006179024, -2921.105, -0.71780425, 0.0, 0.0015174308, -0.000441516, 0.0 
2.9296875e-1, 4.562454e+1, -0.0006129443, -2706.6387, -0.6431325, 0.0, 0.0015044087, -0.00046012763, 0.0 
2.9296875e-1, 4.581934e+1, -0.0006042005, -2609.958, 0.59592164, 0.0, 0.0015404802, -0.00046813602, 0.0 
2.9296875e-1, 4.6014157e+1, -0.00059596665, -2392.128, 0.18451738, 0.0, 0.0011301177, -0.0005817338, 0.0 
2.9296875e-1, 4.6209022e+1, -0.0005855105, -2304.4553, -1.0284675, 0.0, 0.0016899464, -0.00012651035, 0.0 
2.9296875e-1, 4.6403897e+1, -0.0005642782, -2071.9934, -0.4700154, 0.0, 0.001857476, -0.0004576589, 0.0 
2.9296875e-1, 4.6598828e+1, -0.0005386664, -1992.3937, -0.37070748, 0.0, 0.001187608, -0.00046969205, 0.0 
2.9296875e-1, 4.679376e+1, -0.000564032, -1760.7394, 6.8236613, 0.0, 0.00046705524, 0.025880354, 0.0 
2.9296875e-1, 4.6988755e+1, -0.00054992473, -1683.6222, -1.0568596, 0.0, 0.0022976538, 0.000113497415, 0.0 
2.9296875e-1, 4.7183743e+1, -0.0005602921, -1441.1125, 0.13061146, 0.0, 0.0026509892, -0.00054845447, 0.0 
2.9296875e-1, 4.7378796e+1, -0.0005770428, -1377.1956, -0.28803396, 0.0, 0.0003343851, -0.00051680184, 0.0 
2.9296875e-1, 4.7573844e+1, -0.00058176706, -1124.6659, -0.43626443, 0.0, -0.000430475, -0.0004125375, 0.0 
2.9296875e-1, 4.776897e+1, -0.00057770166, -1055.6326, 0.6790414, 0.0, 0.0036056603, -0.00014090458, 0.0 
2.9296875e-1, 4.7964078e+1, -0.0005439233, -820.132, 0.18303081, 0.0, 0.0030139477, -0.00050307583, 0.0 
2.9296875e-1, 4.8159254e+1, -0.0005579927, -778.8416, -0.8194093, 0.0, -0.0010015417, 0.00030409696, 0.0 
2.9296875e-1, 4.835442e+1, -0.0005973174, -471.5039, 1.041726, 0.0, 0.0007590997, 0.0017042309, 0.0 
2.9296875e-1, 4.8549682e+1, -0.00071443716, -360.86856, 0.032793164, 0.0, 0.004109727, -0.00071145716, 0.0 
2.9296875e-1, 4.8744905e+1, -0.0008841569, -265.6589, -2.6946063, 0.0, -0.00069332524, 0.026444798, 0.0 
2.9296875e-1, 4.8940185e+1, -0.0011763099, -82.7353, 1.6448464, 0.0, 0.0021961571, 0.03151215, 0.0 
