coord_x,coord_y,stress_xx,stress_yy,tau_xy,velocity_x,velocity_y,stress_1,eps,damage,lx,ly
9.83621e-3, 9.765625e-3, 543593.4, -0.00000000000000000000000000014834353, 0.000000000015852925, -0.0024182857, 0.0, 543593.4, 543593.4, 0.24300648, 0.019673016, 0.01953125 
9.83621e-3, 2.9296875e-2, 543593.4, -0.00000000000000000000000000014811604, 0.000000000015840764, -0.0024182857, 0.0, 543593.4, 543593.4, 0.24300648, 0.019673016, 0.01953125 
2.9508626e-2, 9.765625e-3, 543592.4, -0.0000000000000000000000000012902146, 0.00000000004675306, -0.0072548576, 0.0, 543592.4, 543592.4, 0.24300274, 0.019673014, 0.01953125 
2.9508626e-2, 2.9296875e-2, 543592.4, -0.0000000000000000000000000012911454, 0.00000000004676992, -0.0072548576, 0.0, 543592.4, 543592.4, 0.24300274, 0.019673014, 0.01953125 
4.9181032e-2, 9.765625e-3, 543515.4, -0.0000000000000000000000000016346446, 0.000000000052621688, -0.012094422, 0.0, 543515.4, 543515.4, 0.24299863, 0.019672994, 0.01953125 
4.9181032e-2, 2.9296875e-2, 543515.4, -0.000000000000000000000000001591882, 0.000000000051928833, -0.012094422, 0.0, 543515.4, 543515.4, 0.24299863, 0.019672994, 0.01953125 
6.885343e-2, 9.765625e-3, 543513.1, -0.00000000000000000000000000046451885, 0.000000000028051698, -0.016936818, 0.0, 543513.1, 543513.1, 0.2429941, 0.019672992, 0.01953125 
6.885343e-2, 2.9296875e-2, 543513.1, -0.00000000000000000000000000048038947, 0.000000000028526877, -0.016936818, 0.0, 543513.1, 543513.1, 0.2429941, 0.019672992, 0.01953125 
8.85258e-2, 9.765625e-3, 543376.9, -0.000000000000000000000000000915642, -0.000000000039379635, -0.021784727, 0.0, 543376.9, 543376.9, 0.24298914, 0.019672954, 0.01953125 
8.85258e-2, 2.9296875e-2, 543376.9, -0.0000000000000000000000000008892653, -0.000000000038808293, -0.021784727, 0.0, 543376.9, 543376.9, 0.24298914, 0.019672954, 0.01953125 
1.0819816e-1, 9.765625e-3, 543368.56, -0.000000000000000000000000012666383, -0.00000000014646646, -0.026637571, 0.0, 543368.56, 543368.56, 0.2429837, 0.019672953, 0.01953125 
1.0819816e-1, 2.9296875e-2, 543368.56, -0.000000000000000000000000012341029, -0.00000000014457313, -0.026637571, 0.0, 543368.56, 543368.56, 0.2429837, 0.019672953, 0.01953125 
1.2787049e-1, 9.765625e-3, 543168.2, -0.000000000000000000000000013460488, -0.00000000015096252, -0.03149908, 0.0, 543168.2, 543168.2, 0.24297772, 0.019672899, 0.01953125 
1.2787049e-1, 2.9296875e-2, 543168.2, -0.00000000000000000000000001356322, -0.0000000001515375, -0.03149908, 0.0, 543168.2, 543168.2, 0.24297772, 0.019672899, 0.01953125 
1.4754277e-1, 9.765625e-3, 543151.6, -0.0000000000000000000000000027518307, -0.00000000006825753, -0.036367953, 0.0, 543151.6, 543151.6, 0.24297121, 0.019672893, 0.01953125 
1.4754277e-1, 2.9296875e-2, 543151.6, -0.0000000000000000000000000028042973, -0.00000000006890516, -0.036367953, 0.0, 543151.6, 543151.6, 0.24297121, 0.019672893, 0.01953125 
1.6721503e-1, 9.765625e-3, 542888.8, -0.000000000000000000000000001761623, 0.00000000005460085, -0.04124863, 0.0, 542888.8, 542888.8, 0.24296409, 0.019672822, 0.01953125 
1.6721503e-1, 2.9296875e-2, 542888.8, -0.000000000000000000000000001761623, 0.00000000005460085, -0.04124863, 0.0, 542888.8, 542888.8, 0.24296409, 0.019672822, 0.01953125 
1.8688725e-1, 9.765625e-3, 542862.0, -0.00000000000000000000000003002243, 0.00000000022540532, -0.046138838, 0.0, 542862.0, 542862.0, 0.24295634, 0.019672813, 0.01953125 
1.8688725e-1, 2.9296875e-2, 542862.0, -0.00000000000000000000000003019211, 0.0000000002260414, -0.046138838, 0.0, 542862.0, 542862.0, 0.24295634, 0.019672813, 0.01953125 
2.065594e-1, 9.765625e-3, 542538.44, -0.000000000000000000000000026947405, 0.00000000021349124, -0.051044215, 0.0, 542538.44, 542538.44, 0.24294794, 0.019672727, 0.01953125 
2.065594e-1, 2.9296875e-2, 542538.44, -0.00000000000000000000000002751158, 0.00000000021571449, -0.051044215, 0.0, 542538.44, 542538.44, 0.24294794, 0.019672727, 0.01953125 
2.2623152e-1, 9.765625e-3, 542499.4, -0.0000000000000000000000000013399861, 0.000000000047606547, -0.055961236, 0.0, 542499.4, 542499.4, 0.24293885, 0.019672714, 0.01953125 
2.2623152e-1, 2.9296875e-2, 542499.4, -0.0000000000000000000000000013318037, 0.000000000047460976, -0.055961236, 0.0, 542499.4, 542499.4, 0.24293885, 0.019672714, 0.01953125 
2.4590357e-1, 9.765625e-3, 542116.5, -0.000000000000000000000000002975633, -0.000000000070919284, -0.060896944, 0.0, 542116.5, 542116.5, 0.24292906, 0.019672612, 0.01953125 
2.4590357e-1, 2.9296875e-2, 542116.5, -0.000000000000000000000000002975633, -0.000000000070919284, -0.060896944, 0.0, 542116.5, 542116.5, 0.24292906, 0.019672612, 0.01953125 
2.6557556e-1, 9.765625e-3, 542063.2, -0.000000000000000000000000011079637, -0.00000000013684479, -0.06584631, 0.0, 542063.2, 542063.2, 0.24291857, 0.019672595, 0.01953125 
2.6557556e-1, 2.9296875e-2, 542063.2, -0.000000000000000000000000011110348, -0.00000000013703431, -0.06584631, 0.0, 542063.2, 542063.2, 0.24291857, 0.019672595, 0.01953125 
2.8524747e-1, 9.765625e-3, 541622.4, -0.000000000000000000000000007003031, -0.00000000010875393, -0.07081806, 0.0, 541622.4, 541622.4, 0.24290735, 0.019672478, 0.01953125 
2.8524747e-1, 2.9296875e-2, 541622.4, -0.000000000000000000000000006757694, -0.00000000010683196, -0.07081806, 0.0, 541622.4, 541622.4, 0.24290735, 0.019672478, 0.01953125 
3.0491933e-1, 9.765625e-3, 541552.56, -0.00000000000000000000000000073928867, -0.000000000035334173, -0.07580542, 0.0, 541552.56, 541552.56, 0.24289536, 0.019672457, 0.01953125 
3.0491933e-1, 2.9296875e-2, 541552.56, -0.00000000000000000000000000052564093, -0.00000000002979425, -0.07580542, 0.0, 541552.56, 541552.56, 0.24289536, 0.019672457, 0.01953125 
3.245911e-1, 9.765625e-3, 541055.4, -0.000000000000000000000000002092578, 0.000000000059421565, -0.08081905, 0.0, 541055.4, 541055.4, 0.24288264, 0.019672323, 0.01953125 
3.245911e-1, 2.9296875e-2, 541055.4, -0.000000000000000000000000002092578, 0.000000000059421565, -0.08081905, 0.0, 541055.4, 541055.4, 0.24288264, 0.019672323, 0.01953125 
3.442628e-1, 9.765625e-3, 540966.75, -0.000000000000000000000000022221204, 0.00000000019362757, -0.08585018, 0.0, 540966.75, 540966.75, 0.24286914, 0.019672297, 0.01953125 
3.442628e-1, 2.9296875e-2, 540966.75, -0.000000000000000000000000022108214, 0.00000000019313467, -0.08585018, 0.0, 540966.75, 540966.75, 0.24286914, 0.019672297, 0.01953125 
3.639344e-1, 9.765625e-3, 540414.56, -0.0000000000000000000000000024672012, 0.00000000006448825, -0.09091166, 0.0, 540414.56, 540414.56, 0.24285486, 0.01967215, 0.01953125 
3.639344e-1, 2.9296875e-2, 540414.56, -0.0000000000000000000000000024672012, 0.00000000006448825, -0.09091166, 0.0, 540414.56, 540414.56, 0.24285486, 0.01967215, 0.01953125 
3.836059e-1, 9.765625e-3, 540304.6, -0.00000000000000000000000003183078, -0.00000000023161958, -0.09599247, 0.0, 540304.6, 540304.6, 0.24283983, 0.019672118, 0.01953125 
3.836059e-1, 2.9296875e-2, 540304.6, -0.000000000000000000000000034390095, -0.00000000024075114, -0.09599247, 0.0, 540304.6, 540304.6, 0.24283983, 0.019672118, 0.01953125 
4.032773e-1, 9.765625e-3, 539699.0, -0.00000000000000000000000005524387, -0.00000000030497802, -0.10110788, 0.0, 539699.0, 539699.0, 0.24282402, 0.019671956, 0.01953125 
4.032773e-1, 2.9296875e-2, 539699.0, -0.00000000000000000000000005524387, -0.00000000030497802, -0.10110788, 0.0, 539699.0, 539699.0, 0.24282402, 0.019671956, 0.01953125 
4.229486e-1, 9.765625e-3, 539565.1, -0.000000000000000000000000023567287, -0.00000000019918045, -0.106244415, 0.0, 539565.1, 539565.1, 0.24280746, 0.019671917, 0.01953125 
4.229486e-1, 2.9296875e-2, 539565.1, -0.000000000000000000000000024306031, -0.00000000020227814, -0.106244415, 0.0, 539565.1, 539565.1, 0.24280746, 0.019671917, 0.01953125 
4.4261977e-1, 9.765625e-3, 538907.4, -0.000000000000000000000000001241985, 0.000000000045698865, -0.11141996, 0.0, 538907.4, 538907.4, 0.24279015, 0.01967174, 0.01953125 
4.4261977e-1, 2.9296875e-2, 538907.4, -0.0000000000000000000000000011750889, 0.00000000004445111, -0.11141996, 0.0, 538907.4, 538907.4, 0.24279015, 0.01967174, 0.01953125 
4.6229088e-1, 9.765625e-3, 538746.94, -0.00000000000000000000000006608026, 0.0000000003333032, -0.116618365, 0.0, 538746.94, 538746.94, 0.24277209, 0.019671695, 0.01953125 
4.6229088e-1, 2.9296875e-2, 538746.94, -0.00000000000000000000000006608026, 0.0000000003333032, -0.116618365, 0.0, 538746.94, 538746.94, 0.24277209, 0.019671695, 0.01953125 
4.8196182e-1, 9.765625e-3, 538038.56, -0.000000000000000000000000031393382, 0.00000000022959308, -0.12186035, 0.0, 538038.56, 538038.56, 0.24275331, 0.019671505, 0.01953125 
4.8196182e-1, 2.9296875e-2, 538038.56, -0.000000000000000000000000031393382, 0.00000000022959308, -0.12186035, 0.0, 538038.56, 538038.56, 0.24275331, 0.019671505, 0.01953125 
5.0163263e-1, 9.765625e-3, 537848.7, -0.000000000000000000000000011810153, -0.00000000014080354, -0.12712684, 0.0, 537848.7, 537848.7, 0.24273382, 0.019671451, 0.01953125 
5.0163263e-1, 2.9296875e-2, 537848.7, -0.000000000000000000000000012291682, -0.00000000014364532, -0.12712684, 0.0, 537848.7, 537848.7, 0.24273382, 0.019671451, 0.01953125 
5.2130336e-1, 9.765625e-3, 537090.94, -0.000000000000000000000000042569156, -0.00000000026714722, -0.13244162, 0.0, 537090.94, 537090.94, 0.24271363, 0.019671248, 0.01953125 
5.2130336e-1, 2.9296875e-2, 537090.94, -0.000000000000000000000000042569156, -0.00000000026714722, -0.13244162, 0.0, 537090.94, 537090.94, 0.24271363, 0.019671248, 0.01953125 
5.409739e-1, 9.765625e-3, 536868.9, -0.000000000000000000000000019591455, -0.00000000018120536, -0.13778251, 0.0, 536868.9, 536868.9, 0.24269274, 0.019671185, 0.01953125 
5.409739e-1, 2.9296875e-2, 536868.9, -0.000000000000000000000000019591455, -0.00000000018120536, -0.13778251, 0.0, 536868.9, 536868.9, 0.24269274, 0.019671185, 0.01953125 
5.6064427e-1, 9.765625e-3, 536063.0, -0.000000000000000000000000031344402, 0.00000000022904277, -0.14317651, 0.0, 536063.0, 536063.0, 0.24267118, 0.019670969, 0.01953125 
5.6064427e-1, 2.9296875e-2, 536063.0, -0.000000000000000000000000031344402, 0.00000000022904277, -0.14317651, 0.0, 536063.0, 536063.0, 0.24267118, 0.019670969, 0.01953125 
5.803146e-1, 9.765625e-3, 535805.9, -0.00000000000000000000000034241624, 0.0000000007568947, -0.14859818, 0.0, 535805.9, 535805.9, 0.24264894, 0.019670898, 0.01953125 
5.803146e-1, 2.9296875e-2, 535805.9, -0.00000000000000000000000033305086, 0.00000000074647205, -0.14859818, 0.0, 535805.9, 535805.9, 0.24264894, 0.019670898, 0.01953125 
5.9998465e-1, 9.765625e-3, 534953.1, -0.000000000000000000000000022323728, 0.00000000019311784, -0.1540779, 0.0, 534953.1, 534953.1, 0.24262607, 0.019670669, 0.01953125 
5.9998465e-1, 2.9296875e-2, 534953.1, -0.000000000000000000000000022323728, 0.00000000019311784, -0.1540779, 0.0, 534953.1, 534953.1, 0.24262607, 0.019670669, 0.01953125 
6.1965466e-1, 9.765625e-3, 534657.9, -0.00000000000000000000000036625993, -0.00000000078206214, -0.15958682, 0.0, 534657.9, 534657.9, 0.24260254, 0.019670587, 0.01953125 
6.1965466e-1, 2.9296875e-2, 534657.9, -0.00000000000000000000000036105, -0.0000000007764799, -0.15958682, 0.0, 534657.9, 534657.9, 0.24260254, 0.019670587, 0.01953125 
6.3932437e-1, 9.765625e-3, 533759.44, -0.00000000000000000000000014566967, -0.0000000004928265, -0.16515893, 0.0, 533759.44, 533759.44, 0.2425784, 0.019670345, 0.01953125 
6.3932437e-1, 2.9296875e-2, 533759.44, -0.00000000000000000000000014490178, -0.0000000004915258, -0.16515893, 0.0, 533759.44, 533759.44, 0.2425784, 0.019670345, 0.01953125 
6.58994e-1, 9.765625e-3, 533422.94, -0.000000000000000000000000045926043, 0.00000000027665012, -0.17076175, 0.0, 533422.94, 533422.94, 0.24255362, 0.019670252, 0.01953125 
6.58994e-1, 2.9296875e-2, 533422.94, -0.000000000000000000000000045926043, 0.00000000027665012, -0.17076175, 0.0, 533422.94, 533422.94, 0.24255362, 0.019670252, 0.01953125 
6.7866343e-1, 9.765625e-3, 532480.0, -0.000000000000000000000000061601735, 0.00000000032014238, -0.1764331, 0.0, 532480.0, 532480.0, 0.24252824, 0.019669998, 0.01953125 
6.7866343e-1, 2.9296875e-2, 532480.0, -0.00000000000000000000000006192475, 0.00000000032098063, -0.1764331, 0.0, 532480.0, 532480.0, 0.24252824, 0.019669998, 0.01953125 
6.9833267e-1, 9.765625e-3, 532099.06, -0.0000000000000000000000000024322704, 0.000000000063595657, -0.18213671, 0.0, 532099.06, 532099.06, 0.24250227, 0.019669894, 0.01953125 
6.9833267e-1, 2.9296875e-2, 532099.06, -0.0000000000000000000000000027046285, 0.000000000067061814, -0.18213671, 0.0, 532099.06, 532099.06, 0.24250227, 0.019669894, 0.01953125 
7.180017e-1, 9.765625e-3, 531112.75, -0.00000000000000000000000000241425, -0.00000000006330538, -0.1879145, 0.0, 531112.75, 531112.75, 0.24247573, 0.01966963, 0.01953125 
7.180017e-1, 2.9296875e-2, 531112.75, -0.00000000000000000000000000241425, -0.00000000006330538, -0.1879145, 0.0, 531112.75, 531112.75, 0.24247573, 0.01966963, 0.01953125 
7.376706e-1, 9.765625e-3, 530683.9, -0.000000000000000000000000011137326, -0.000000000135924, -0.19372612, 0.0, 530683.9, 530683.9, 0.24244861, 0.019669512, 0.01953125 
7.376706e-1, 2.9296875e-2, 530683.9, -0.0000000000000000000000000114054365, -0.00000000013755032, -0.19372612, 0.0, 530683.9, 530683.9, 0.24244861, 0.019669512, 0.01953125 
7.573392e-1, 9.765625e-3, 529655.3, -0.0000000000000000000000000055262264, -0.00000000009566011, -0.19961789, 0.0, 529655.3, 529655.3, 0.24242097, 0.019669237, 0.01953125 
7.573392e-1, 2.9296875e-2, 529655.3, -0.0000000000000000000000000055262264, -0.00000000009566011, -0.19961789, 0.0, 529655.3, 529655.3, 0.24242097, 0.019669237, 0.01953125 
7.770077e-1, 9.765625e-3, 529174.94, -0.0000000000000000000000000002967682, 0.000000000022159552, -0.20554516, 0.0, 529174.94, 529174.94, 0.2423928, 0.019669104, 0.01953125 
7.770077e-1, 2.9296875e-2, 529174.94, -0.00000000000000000000000000028350011, 0.000000000021658527, -0.20554516, 0.0, 529174.94, 529174.94, 0.2423928, 0.019669104, 0.01953125 
7.9667586e-1, 9.765625e-3, 528105.0, -0.0000000000000000000000000028735961, 0.00000000006889045, -0.21155888, 0.0, 528105.0, 528105.0, 0.24236412, 0.019668818, 0.01953125 
7.9667586e-1, 2.9296875e-2, 528105.0, -0.0000000000000000000000000028735961, 0.00000000006889045, -0.21155888, 0.0, 528105.0, 528105.0, 0.24236412, 0.019668818, 0.01953125 
8.163439e-1, 9.765625e-3, 527569.5, -0.0000000000000000000000000055872984, 0.000000000096019775, -0.21760981, 0.0, 527569.5, 527569.5, 0.24233498, 0.01966867, 0.01953125 
8.163439e-1, 2.9296875e-2, 527569.5, -0.0000000000000000000000000059129847, 0.00000000009877866, -0.21760981, 0.0, 527569.5, 527569.5, 0.24233498, 0.01966867, 0.01953125 
8.360116e-1, 9.765625e-3, 526459.1, -0.0000000000000000000000000039946907, -0.000000000081110715, -0.22375381, 0.0, 526459.1, 526459.1, 0.2423054, 0.019668374, 0.01953125 
8.360116e-1, 2.9296875e-2, 526459.1, -0.0000000000000000000000000040361325, -0.00000000008153036, -0.22375381, 0.0, 526459.1, 526459.1, 0.2423054, 0.019668374, 0.01953125 
8.5567915e-1, 9.765625e-3, 525864.44, -0.000000000000000000000000045582666, -0.0000000002738583, -0.22993685, 0.0, 525864.44, 525864.44, 0.24227543, 0.019668212, 0.01953125 
8.5567915e-1, 2.9296875e-2, 525864.44, -0.000000000000000000000000046908048, -0.0000000002778112, -0.22993685, 0.0, 525864.44, 525864.44, 0.24227543, 0.019668212, 0.01953125 
8.753464e-1, 9.765625e-3, 524714.5, -0.000000000000000000000000003477532, 0.00000000007556514, -0.23621987, 0.0, 524714.5, 524714.5, 0.24224514, 0.019667903, 0.01953125 
8.753464e-1, 2.9296875e-2, 524714.5, -0.000000000000000000000000003716976, 0.00000000007812334, -0.23621987, 0.0, 524714.5, 524714.5, 0.24224514, 0.019667903, 0.01953125 
8.950135e-1, 9.765625e-3, 524056.5, -0.00000000000000000000000014475315, 0.0000000004872625, -0.24254382, 0.0, 524056.5, 524056.5, 0.24221455, 0.019667724, 0.01953125 
8.950135e-1, 2.9296875e-2, 524056.5, -0.00000000000000000000000015237684, 0.00000000049992915, -0.24254382, 0.0, 524056.5, 524056.5, 0.24221455, 0.019667724, 0.01953125 
9.146802e-1, 9.765625e-3, 522867.88, -0.000000000000000000000000030233905, 0.00000000022245329, -0.24897493, 0.0, 522867.88, 522867.88, 0.24218374, 0.019667407, 0.01953125 
9.146802e-1, 2.9296875e-2, 522867.88, -0.000000000000000000000000028451902, 0.00000000021579798, -0.24897493, 0.0, 522867.88, 522867.88, 0.24218374, 0.019667407, 0.01953125 
9.343468e-1, 9.765625e-3, 522142.2, -0.000000000000000000000000032230564, -0.00000000022954086, -0.25544894, 0.0, 522142.2, 522142.2, 0.24215284, 0.01966721, 0.01953125 
9.343468e-1, 2.9296875e-2, 522142.2, -0.00000000000000000000000003122864, -0.00000000022594492, -0.25544894, 0.0, 522142.2, 522142.2, 0.24215284, 0.01966721, 0.01953125 
9.5401293e-1, 9.765625e-3, 520915.66, -0.000000000000000000000000032059412, -0.00000000022868046, -0.26203758, 0.0, 520915.66, 520915.66, 0.2421219, 0.019666882, 0.01953125 
9.5401293e-1, 2.9296875e-2, 520915.66, -0.000000000000000000000000032059412, -0.00000000022868046, -0.26203758, 0.0, 520915.66, 520915.66, 0.2421219, 0.019666882, 0.01953125 
9.7367895e-1, 9.765625e-3, 520117.72, -0.0000000000000000000000000102154914, -0.00000000012899826, -0.26867115, 0.0, 520117.72, 520117.72, 0.24209109, 0.019666666, 0.01953125 
9.7367895e-1, 2.9296875e-2, 520117.72, -0.0000000000000000000000000099428144, -0.00000000012726496, -0.26867115, 0.0, 520117.72, 520117.72, 0.24209109, 0.019666666, 0.01953125 
9.9334455e-1, 9.765625e-3, 518854.06, -0.0000000000000000000000000020765694, -0.000000000058094453, -0.2754272, 0.0, 518854.06, 518854.06, 0.24206053, 0.019666329, 0.01953125 
9.9334455e-1, 2.9296875e-2, 518854.06, -0.0000000000000000000000000020765694, -0.000000000058094453, -0.2754272, 0.0, 518854.06, 518854.06, 0.24206053, 0.019666329, 0.01953125 
1.01301e+0, 9.765625e-3, 517979.06, -0.0000000000000000000000000005553451, -0.000000000030020042, -0.28223035, 0.0, 517979.06, 517979.06, 0.24203043, 0.019666092, 0.01953125 
1.01301e+0, 2.9296875e-2, 517979.06, -0.0000000000000000000000000005553451, -0.000000000030020042, -0.28223035, 0.0, 517979.06, 517979.06, 0.24203043, 0.019666092, 0.01953125 
1.03267506e+0, 9.765625e-3, 516679.03, -0.000000000000000000000000022398414, -0.00000000019042629, -0.2891642, 0.0, 516679.03, 516679.03, 0.24200098, 0.019665746, 0.01953125 
1.03267506e+0, 2.9296875e-2, 516679.03, -0.000000000000000000000000022398414, -0.00000000019042629, -0.2891642, 0.0, 516679.03, 516679.03, 0.24200098, 0.019665746, 0.01953125 
1.0523398e+0, 9.765625e-3, 515721.94, -0.000000000000000000000000048137614, -0.00000000027892724, -0.29614744, 0.0, 515721.94, 515721.94, 0.24197248, 0.019665489, 0.01953125 
1.0523398e+0, 2.9296875e-2, 515721.94, -0.000000000000000000000000046982488, -0.0000000002755603, -0.29614744, 0.0, 515721.94, 515721.94, 0.24197248, 0.019665489, 0.01953125 
1.0720042e+0, 9.765625e-3, 514386.16, -0.00000000000000000000000006100188, 0.00000000031360906, -0.30327016, 0.0, 514386.16, 514386.16, 0.24194524, 0.019665133, 0.01953125 
1.0720042e+0, 2.9296875e-2, 514386.16, -0.00000000000000000000000006100188, 0.00000000031360906, -0.30327016, 0.0, 514386.16, 514386.16, 0.24194524, 0.019665133, 0.01953125 
1.0916684e+0, 9.765625e-3, 513341.6, -0.00000000000000000000000039638047, 0.0000000007986587, -0.3104448, 0.0, 513341.6, 513341.6, 0.24191962, 0.019664854, 0.01953125 
1.0916684e+0, 2.9296875e-2, 513341.6, -0.00000000000000000000000040145334, 0.00000000080375306, -0.3104448, 0.0, 513341.6, 513341.6, 0.24191962, 0.019664854, 0.01953125 
1.111332e+0, 9.765625e-3, 511970.6, -0.0000000000000000000000000000048022465, -0.0000000000027763464, -0.31776828, 0.0, 511970.6, 511970.6, 0.24189611, 0.01966449, 0.01953125 
1.111332e+0, 2.9296875e-2, 511970.6, -0.0000000000000000000000000000048022465, -0.0000000000027763464, -0.31776828, 0.0, 511970.6, 511970.6, 0.24189611, 0.01966449, 0.01953125 
1.1309955e+0, 9.765625e-3, 510833.0, -0.0000000000000000000000003843046, -0.0000000007845671, -0.32514647, 0.0, 510833.0, 510833.0, 0.24187526, 0.019664187, 0.01953125 
1.1309955e+0, 2.9296875e-2, 510833.0, -0.00000000000000000000000038537906, -0.00000000078566303, -0.32514647, 0.0, 510833.0, 510833.0, 0.24187526, 0.019664187, 0.01953125 
1.1506585e+0, 9.765625e-3, 509427.0, -0.000000000000000000000000000044503306, 0.0000000000084315974, -0.33268347, 0.0, 509427.0, 509427.0, 0.24185771, 0.019663814, 0.01953125 
1.1506585e+0, 2.9296875e-2, 509427.0, -0.000000000000000000000000000044503306, 0.0000000000084315974, -0.33268347, 0.0, 509427.0, 509427.0, 0.24185771, 0.019663814, 0.01953125 
1.1703213e+0, 9.765625e-3, 508190.56, -0.0000000000000000000000004757445, 0.0000000008707391, -0.34027824, 0.0, 508190.56, 508190.56, 0.24184427, 0.019663487, 0.01953125 
1.1703213e+0, 2.9296875e-2, 508190.56, -0.00000000000000000000000047850005, 0.00000000087325713, -0.34027824, 0.0, 508190.56, 508190.56, 0.24184427, 0.019663487, 0.01953125 
1.1899836e+0, 9.765625e-3, 506749.56, -0.000000000000000000000000001984907, 0.000000000056164733, -0.34804255, 0.0, 506749.56, 506749.56, 0.24183586, 0.019663107, 0.01953125 
1.1899836e+0, 2.9296875e-2, 506749.56, -0.000000000000000000000000001984907, 0.000000000056164733, -0.34804255, 0.0, 506749.56, 506749.56, 0.24183586, 0.019663107, 0.01953125 
1.20964564e+0, 9.765625e-3, 505408.28, -0.0000000000000000000000004354826, -0.0000000008308169, -0.35586792, 0.0, 505408.28, 505408.28, 0.24183361, 0.019662755, 0.01953125 
1.20964564e+0, 2.9296875e-2, 505408.28, -0.0000000000000000000000004354826, -0.0000000008308169, -0.35586792, 0.0, 505408.28, 505408.28, 0.24183361, 0.019662755, 0.01953125 
1.22930706e+0, 9.765625e-3, 503931.78, -0.000000000000000000000000044434818, -0.00000000026499597, -0.36387423, 0.0, 503931.78, 503931.78, 0.24183886, 0.019662367, 0.01953125 
1.22930706e+0, 2.9296875e-2, 503931.78, -0.000000000000000000000000044434818, -0.00000000026499597, -0.36387423, 0.0, 503931.78, 503931.78, 0.24183886, 0.019662367, 0.01953125 
1.2489684e+0, 9.765625e-3, 502479.66, -0.00000000000000000000000008796506, 0.00000000037229583, -0.37194517, 0.0, 502479.66, 502479.66, 0.24185318, 0.019661989, 0.01953125 
1.2489684e+0, 2.9296875e-2, 502479.66, -0.000000000000000000000000097004666, 0.00000000039095735, -0.37194517, 0.0, 502479.66, 502479.66, 0.24185318, 0.019661989, 0.01953125 
1.2686291e+0, 9.765625e-3, 500966.72, -0.0000000000000000000000001507974, 0.00000000048668103, -0.3802091, 0.0, 500966.72, 500966.72, 0.24187844, 0.019661594, 0.01953125 
1.2686291e+0, 2.9296875e-2, 500966.72, -0.00000000000000000000000015437512, 0.0000000004924205, -0.3802091, 0.0, 500966.72, 500966.72, 0.24187844, 0.019661594, 0.01953125 
1.2882896e+0, 9.765625e-3, 499397.88, -0.00000000000000000000000012967848, 0.00000000045056134, -0.38854155, 0.0, 499397.88, 499397.88, 0.24191687, 0.01966119, 0.01953125 
1.2882896e+0, 2.9296875e-2, 499397.88, -0.00000000000000000000000013505145, 0.00000000045980064, -0.38854155, 0.0, 499397.88, 499397.88, 0.24191687, 0.01966119, 0.01953125 
1.3079493e+0, 9.765625e-3, 497846.7, -0.0000000000000000000000000009500786, 0.000000000038499853, -0.3970796, 0.0, 497846.7, 497846.7, 0.24197114, 0.019660791, 0.01953125 
1.3079493e+0, 2.9296875e-2, 497846.7, -0.0000000000000000000000000009500786, 0.000000000038499853, -0.3970796, 0.0, 497846.7, 497846.7, 0.24197114, 0.019660791, 0.01953125 
1.327609e+0, 9.765625e-3, 496155.88, -0.000000000000000000000000066949836, -0.00000000032257277, -0.40569034, 0.0, 496155.88, 496155.88, 0.24204437, 0.01966036, 0.01953125 
1.327609e+0, 2.9296875e-2, 496155.88, -0.000000000000000000000000066949836, -0.00000000032257277, -0.40569034, 0.0, 496155.88, 496155.88, 0.24204437, 0.01966036, 0.01953125 
1.347268e+0, 9.765625e-3, 494563.56, -0.000000000000000000000000022186081, -0.00000000018534496, -0.41452, 0.0, 494563.56, 494563.56, 0.24214032, 0.019659959, 0.01953125 
1.347268e+0, 2.9296875e-2, 494563.56, -0.000000000000000000000000022186081, -0.00000000018534496, -0.41452, 0.0, 494563.56, 494563.56, 0.24214032, 0.019659959, 0.01953125 
1.3669267e+0, 9.765625e-3, 492746.44, -0.000000000000000000000000004443986, -0.000000000082771526, -0.4234269, 0.0, 492746.44, 492746.44, 0.24226342, 0.0196595, 0.01953125 
1.3669267e+0, 2.9296875e-2, 492746.44, -0.0000000000000000000000000056588232, -0.00000000009340233, -0.4234269, 0.0, 492746.44, 492746.44, 0.24226342, 0.0196595, 0.01953125 
1.3865848e+0, 9.765625e-3, 491108.4, -0.00000000000000000000000001581657, -0.00000000015582707, -0.43256688, 0.0, 491108.4, 491108.4, 0.24241894, 0.019659098, 0.01953125 
1.3865848e+0, 2.9296875e-2, 491108.4, -0.00000000000000000000000001581657, -0.00000000015582707, -0.43256688, 0.0, 491108.4, 491108.4, 0.24241894, 0.019659098, 0.01953125 
1.4062425e+0, 9.765625e-3, 489162.25, -0.0000000000000000000000000351878, -0.00000000023184094, -0.44178915, 0.0, 489162.25, 489162.25, 0.2426132, 0.01965862, 0.01953125 
1.4062425e+0, 2.9296875e-2, 489162.25, -0.000000000000000000000000035773492, -0.00000000023376243, -0.44178915, 0.0, 489162.25, 489162.25, 0.2426132, 0.01965862, 0.01953125 
1.4258996e+0, 9.765625e-3, 487471.38, -0.000000000000000000000000004436673, 0.00000000008212699, -0.45125988, 0.0, 487471.38, 487471.38, 0.24285367, 0.019658215, 0.01953125 
1.4258996e+0, 2.9296875e-2, 487471.38, -0.000000000000000000000000004436673, 0.00000000008212699, -0.45125988, 0.0, 487471.38, 487471.38, 0.24285367, 0.019658215, 0.01953125 
1.4455566e+0, 9.765625e-3, 485396.13, -0.0000000000000000000000001712524, 0.000000000508744, -0.46081862, 0.0, 485396.13, 485396.13, 0.24314931, 0.01965772, 0.01953125 
1.4455566e+0, 2.9296875e-2, 485396.13, -0.00000000000000000000000017071311, 0.00000000050794235, -0.46081862, 0.0, 485396.13, 485396.13, 0.24314931, 0.01965772, 0.01953125 
1.4652127e+0, 9.765625e-3, 483641.34, -0.000000000000000000000000078642234, 0.00000000034379172, -0.4706429, 0.0, 483641.34, 483641.34, 0.24351071, 0.01965732, 0.01953125 
1.4652127e+0, 2.9296875e-2, 483641.34, -0.000000000000000000000000078642234, 0.00000000034379172, -0.4706429, 0.0, 483641.34, 483641.34, 0.24351071, 0.01965732, 0.01953125 
1.4848687e+0, 9.765625e-3, 481440.9, -0.000000000000000000000000006862528, -0.00000000010120465, -0.48056182, 0.0, 481440.9, 481440.9, 0.24395052, 0.019656813, 0.01953125 
1.4848687e+0, 2.9296875e-2, 481440.9, -0.0000000000000000000000000072609885, -0.000000000104101325, -0.48056182, 0.0, 481440.9, 481440.9, 0.24395052, 0.019656813, 0.01953125 
1.5045239e+0, 9.765625e-3, 479605.53, -0.00000000000000000000000012837781, -0.00000000043626056, -0.4907657, 0.0, 479605.53, 479605.53, 0.24448372, 0.01965642, 0.01953125 
1.5045239e+0, 2.9296875e-2, 479605.53, -0.00000000000000000000000012837781, -0.00000000043626056, -0.4907657, 0.0, 479605.53, 479605.53, 0.24448372, 0.01965642, 0.01953125 
1.5241788e+0, 9.765625e-3, 477289.7, -0.0000000000000000000000001632, -0.0000000004898381, -0.501072, 0.0, 477289.7, 477289.7, 0.245128, 0.019655917, 0.01953125 
1.5241788e+0, 2.9296875e-2, 477289.7, -0.00000000000000000000000017911814, -0.00000000051317117, -0.501072, 0.0, 477289.7, 477289.7, 0.245128, 0.019655917, 0.01953125 
1.5438332e+0, 9.765625e-3, 475348.88, -0.0000000000000000000000000034661266, -0.000000000071091785, -0.51168567, 0.0, 475348.88, 475348.88, 0.24590415, 0.019655533, 0.01953125 
1.5438332e+0, 2.9296875e-2, 475348.88, -0.0000000000000000000000000034661266, -0.000000000071091785, -0.51168567, 0.0, 475348.88, 475348.88, 0.24590415, 0.019655533, 0.01953125 
1.5634872e+0, 9.765625e-3, 472936.03, -0.000000000000000000000000043259286, 0.00000000024988545, -0.52241105, 0.0, 472936.03, 472936.03, 0.2468365, 0.01965505, 0.01953125 
1.5634872e+0, 2.9296875e-2, 472936.03, -0.000000000000000000000000043169424, 0.00000000024962576, -0.52241105, 0.0, 472936.03, 472936.03, 0.2468365, 0.01965505, 0.01953125 
1.5831406e+0, 9.765625e-3, 470853.56, -0.0000000000000000000000000058970473, 0.00000000009178199, -0.5334702, 0.0, 470853.56, 470853.56, 0.24795325, 0.019654686, 0.01953125 
1.5831406e+0, 2.9296875e-2, 470853.56, -0.0000000000000000000000000058970473, 0.00000000009178199, -0.5334702, 0.0, 470853.56, 470853.56, 0.24795325, 0.019654686, 0.01953125 
1.6027936e+0, 9.765625e-3, 468374.1, -0.0000000000000000000000000021025337, -0.00000000005446464, -0.5446524, 0.0, 468374.1, 468374.1, 0.24928689, 0.01965425, 0.01953125 
1.6027936e+0, 2.9296875e-2, 468374.1, -0.0000000000000000000000000021025337, -0.00000000005446464, -0.5446524, 0.0, 468374.1, 468374.1, 0.24928689, 0.01965425, 0.01953125 
1.6224463e+0, 9.765625e-3, 466098.9, -0.000000000000000000000000012805209, 0.00000000013351828, -0.5561998, 0.0, 466098.9, 466098.9, 0.25087446, 0.019653909, 0.01953125 
1.6224463e+0, 2.9296875e-2, 466098.9, -0.000000000000000000000000012805209, 0.00000000013351828, -0.5561998, 0.0, 466098.9, 466098.9, 0.25087446, 0.019653909, 0.01953125 
1.6420987e+0, 9.765625e-3, 463598.63, -0.00000000000000000000000008853145, 0.00000000034838352, -0.5678841, 0.0, 463598.63, 463598.63, 0.25275782, 0.019653555, 0.01953125 
1.6420987e+0, 2.9296875e-2, 463598.63, -0.000000000000000000000000088517127, 0.00000000034835534, -0.5678841, 0.0, 463598.63, 463598.63, 0.25275782, 0.019653555, 0.01953125 
1.6617504e+0, 9.765625e-3, 461060.56, -0.000000000000000000000000010427104, -0.00000000011853518, -0.5799718, 0.0, 461060.56, 461060.56, 0.25498357, 0.019653246, 0.01953125 
1.6617504e+0, 2.9296875e-2, 461060.56, -0.000000000000000000000000010427104, -0.00000000011853518, -0.5799718, 0.0, 461060.56, 461060.56, 0.25498357, 0.019653246, 0.01953125 
1.681402e+0, 9.765625e-3, 458605.06, -0.0000000000000000000000003556033, -0.00000000068565364, -0.5922138, 0.0, 458605.06, 458605.06, 0.25760323, 0.019653022, 0.01953125 
1.681402e+0, 2.9296875e-2, 458605.06, -0.0000000000000000000000003588891, -0.00000000068881406, -0.5922138, 0.0, 458605.06, 458605.06, 0.25760323, 0.019653022, 0.01953125 
1.7010532e+0, 9.765625e-3, 455711.44, -0.000000000000000000000000008626129, -0.000000000105604976, -0.6049062, 0.0, 455711.44, 455711.44, 0.2606727, 0.019652752, 0.01953125 
1.7010532e+0, 2.9296875e-2, 455711.44, -0.000000000000000000000000007374184, -0.00000000009764126, -0.6049062, 0.0, 455711.44, 455711.44, 0.2606727, 0.019652752, 0.01953125 
1.7207043e+0, 9.765625e-3, 453388.13, -0.0000000000000000000000003471111, 0.0000000006620438, -0.6177749, 0.0, 453388.13, 453388.13, 0.26425195, 0.01965272, 0.01953125 
1.7207043e+0, 2.9296875e-2, 453388.13, -0.0000000000000000000000003471111, 0.0000000006620438, -0.6177749, 0.0, 453388.13, 453388.13, 0.26425195, 0.01965272, 0.01953125 
1.7403552e+0, 9.765625e-3, 450019.5, -0.000000000000000000000000043368648, 0.00000000023067893, -0.631153, 0.0, 450019.5, 450019.5, 0.26840428, 0.0196525, 0.01953125 
1.7403552e+0, 2.9296875e-2, 450019.5, -0.000000000000000000000000043368648, 0.00000000023067893, -0.631153, 0.0, 450019.5, 450019.5, 0.26840428, 0.0196525, 0.01953125 
1.7600061e+0, 9.765625e-3, 447942.97, -0.000000000000000000000000053262483, -0.0000000002519764, -0.6447351, 0.0, 447942.97, 447942.97, 0.27319518, 0.019652737, 0.01953125 
1.7600061e+0, 2.9296875e-2, 447942.97, -0.000000000000000000000000053262483, -0.0000000002519764, -0.6447351, 0.0, 447942.97, 447942.97, 0.27319518, 0.019652737, 0.01953125 
1.7796569e+0, 9.765625e-3, 443955.2, -0.000000000000000000000000027260142, 0.00000000017701104, -0.65889907, 0.0, 443955.2, 443955.2, 0.2786914, 0.019652572, 0.01953125 
1.7796569e+0, 2.9296875e-2, 443955.2, -0.000000000000000000000000027260142, 0.00000000017701104, -0.65889907, 0.0, 443955.2, 443955.2, 0.2786914, 0.019652572, 0.01953125 
1.7993079e+0, 9.765625e-3, 442254.28, -0.00000000000000000000000020599574, 0.00000000047820087, -0.67330307, 0.0, 442254.28, 442254.28, 0.2849592, 0.019653171, 0.01953125 
1.7993079e+0, 2.9296875e-2, 442254.28, -0.0000000000000000000000002068463, 0.00000000047918713, -0.67330307, 0.0, 442254.28, 442254.28, 0.2849592, 0.019653171, 0.01953125 
1.8189588e+0, 9.765625e-3, 437467.16, -0.0000000000000000000000000729549, -0.00000000027818536, -0.68838227, 0.0, 437467.16, 437467.16, 0.29206288, 0.01965306, 0.01953125 
1.8189588e+0, 2.9296875e-2, 437467.16, -0.0000000000000000000000000729549, -0.00000000027818536, -0.68838227, 0.0, 437467.16, 437467.16, 0.29206288, 0.01965306, 0.01953125 
1.8386105e+0, 9.765625e-3, 436337.88, -0.0000000000000000000000006876009, -0.00000000083672597, -0.703747, 0.0, 436337.88, 436337.88, 0.30006278, 0.019654142, 0.01953125 
1.8386105e+0, 2.9296875e-2, 436337.88, -0.0000000000000000000000006985973, -0.0000000008433901, -0.703747, 0.0, 436337.88, 436337.88, 0.30006278, 0.019654142, 0.01953125 
1.8582627e+0, 9.765625e-3, 430582.7, -0.000000000000000000000000022855906, -0.00000000014837452, -0.7199007, 0.0, 430582.7, 430582.7, 0.30901384, 0.01965409, 0.01953125 
1.8582627e+0, 2.9296875e-2, 430582.7, -0.000000000000000000000000022855906, -0.00000000014837452, -0.7199007, 0.0, 430582.7, 430582.7, 0.30901384, 0.01965409, 0.01953125 
1.8779156e+0, 9.765625e-3, 430012.4, -0.00000000000000000000000030124732, 0.00000000052603066, -0.73639125, 0.0, 430012.4, 430012.4, 0.31896272, 0.019655734, 0.01953125 
1.8779156e+0, 2.9296875e-2, 430012.4, -0.00000000000000000000000028362947, 0.000000000510417, -0.73639125, 0.0, 430012.4, 430012.4, 0.31896272, 0.019655734, 0.01953125 
1.8975678e+0, 9.765625e-3, 422958.72, -0.00000000000000000000000008703999, 0.0000000002734914, -0.7537896, 0.0, 422958.72, 422958.72, 0.32994673, 0.019655695, 0.01953125 
1.8975678e+0, 2.9296875e-2, 422958.72, -0.00000000000000000000000008703999, 0.0000000002734914, -0.7537896, 0.0, 422958.72, 422958.72, 0.32994673, 0.019655695, 0.01953125 
1.917222e+0, 9.765625e-3, 424184.88, -0.00000000000000000000000000005864656, -0.000000000006920215, -0.77164876, 0.0, 424184.88, 424184.88, 0.3419924, 0.019658364, 0.01953125 
1.917222e+0, 2.9296875e-2, 424184.88, -0.0000000000000000000000000000059050186, -0.0000000000021958817, -0.77164876, 0.0, 424184.88, 424184.88, 0.3419924, 0.019658364, 0.01953125 
1.9368812e+0, 9.765625e-3, 416233.28, -0.00000000000000000000000000033929019, -0.000000000016019039, -0.79076487, 0.0, 416233.28, 416233.28, 0.3551162, 0.019658517, 0.01953125 
1.9368812e+0, 2.9296875e-2, 416233.28, -0.00000000000000000000000000023565106, -0.00000000001335013, -0.79076487, 0.0, 416233.28, 416233.28, 0.3551162, 0.019658517, 0.01953125 
1.9565399e+0, 9.765625e-3, 412725.47, -0.000000000000000000000000003911843, 0.000000000052525616, -0.81016713, 0.0, 412725.47, 412725.47, 0.36931625, 0.0196603, 0.01953125 
1.9565399e+0, 2.9296875e-2, 412725.47, -0.0000000000000000000000000010904572, 0.000000000027732228, -0.81016713, 0.0, 412725.47, 412725.47, 0.36931625, 0.0196603, 0.01953125 
1.9761892e+0, 9.765625e-3, 399658.25, -0.000000000000000000000000003148871, -0.00000000004489344, -0.83015144, 0.0, 399658.25, 399658.25, 0.38457403, 0.019659296, 0.01953125 
1.9761892e+0, 2.9296875e-2, 399658.25, -0.000000000000000000000000003148871, -0.00000000004489344, -0.83015144, 0.0, 399658.25, 399658.25, 0.38457403, 0.019659296, 0.01953125 
1.9958441e+0, 9.765625e-3, 439262.44, -0.000000000000000000000000016854682, -0.00000000010523677, -0.85151803, 0.0, 439262.44, 439262.44, 0.40087122, 0.019675989, 0.01953125 
1.9958441e+0, 2.9296875e-2, 439262.44, -0.00000000000000000000000001551738, -0.000000000100975596, -0.85151803, 0.0, 439262.44, 439262.44, 0.40087122, 0.019675989, 0.01953125 
2.0155255e+0, 9.765625e-3, 377644.94, -0.000000000000000000000000009471879, -0.000000000057698547, -0.87689674, 0.0, 377644.94, 377644.94, 0.51819044, 0.019686079, 0.01953125 
2.0155255e+0, 2.9296875e-2, 377644.94, -0.000000000000000000000000009471879, -0.000000000057698547, -0.87689674, 0.0, 377644.94, 377644.94, 0.51819044, 0.019686079, 0.01953125 
2.035222e+0, 9.765625e-3, 401941.66, -0.000000000000000000000000007410137, -0.00000000005075824, -0.9042958, 0.0, 401941.66, 401941.66, 0.5364767, 0.019702738, 0.01953125 
2.035222e+0, 2.9296875e-2, 401941.66, -0.000000000000000000000000006868132, -0.00000000004886667, -0.9042958, 0.0, 401941.66, 401941.66, 0.5364767, 0.019702738, 0.01953125 
2.054925e+0, 9.765625e-3, 388280.94, -0.000000000000000000000000008806703, -0.000000000052326893, -0.93660533, 0.0, 388280.94, 388280.94, 0.5556702, 0.019704057, 0.01953125 
2.054925e+0, 2.9296875e-2, 388280.94, -0.000000000000000000000000008806703, -0.000000000052326893, -0.93660533, 0.0, 388280.94, 388280.94, 0.5556702, 0.019704057, 0.01953125 
2.07463e+0, 9.765625e-3, 395694.72, -0.0000000000000000000000000176123, -0.000000000071728484, -0.96997964, 0.0, 395694.72, 395694.72, 0.57569766, 0.019715799, 0.01953125 
2.07463e+0, 2.9296875e-2, 395694.72, -0.0000000000000000000000000176123, -0.000000000071728484, -0.96997964, 0.0, 395694.72, 395694.72, 0.57569766, 0.019715799, 0.01953125 
2.0943391e+0, 9.765625e-3, 375628.47, -0.0000000000000000000000000035513963, -0.00000000003007067, -1.0053917, 0.0, 375628.47, 375628.47, 0.5964924, 0.019715417, 0.01953125 
2.0943391e+0, 2.9296875e-2, 375628.47, -0.0000000000000000000000000036007625, -0.00000000003027895, -1.0053917, 0.0, 375628.47, 375628.47, 0.5964924, 0.019715417, 0.01953125 
2.1140571e+0, 9.765625e-3, 386454.88, -0.00000000000000000000000000043314516, 0.000000000010184807, -1.0426884, 0.0, 386454.88, 386454.88, 0.61798877, 0.019731568, 0.01953125 
2.1140571e+0, 2.9296875e-2, 386454.88, -0.0000000000000000000000000004387511, 0.000000000010250503, -1.0426884, 0.0, 386454.88, 386454.88, 0.61798877, 0.019731568, 0.01953125 
2.1337828e+0, 9.765625e-3, 363994.88, -0.000000000000000000000000001809914, -0.000000000019274853, -1.0843877, 0.0, 363994.88, 363994.88, 0.64011604, 0.019731442, 0.01953125 
2.1337828e+0, 2.9296875e-2, 363994.88, -0.000000000000000000000000001809914, -0.000000000019274853, -1.0843877, 0.0, 363994.88, 363994.88, 0.64011604, 0.019731442, 0.01953125 
2.1535186e+0, 9.765625e-3, 376225.78, -0.0000000000000000000000000008652419, 0.000000000012893349, -1.1283872, 0.0, 376225.78, 376225.78, 0.6627988, 0.019752316, 0.01953125 
2.1535186e+0, 2.9296875e-2, 376225.78, -0.0000000000000000000000000008652419, 0.000000000012893349, -1.1283872, 0.0, 376225.78, 376225.78, 0.6627988, 0.019752316, 0.01953125 
2.1732628e+0, 9.765625e-3, 350818.97, -0.000000000000000000000000049882186, 0.000000000089716616, -1.1772236, 0.0, 350818.97, 350818.97, 0.6859617, 0.019752435, 0.01953125 
2.1732628e+0, 2.9296875e-2, 350818.97, -0.000000000000000000000000049882186, 0.000000000089716616, -1.1772236, 0.0, 350818.97, 350818.97, 0.6859617, 0.019752435, 0.01953125 
2.1930215e+0, 9.765625e-3, 364452.88, -0.000000000000000000000000000053745404, 0.000000000002840074, -1.2291714, 0.0, 364452.88, 364452.88, 0.7095265, 0.01977996, 0.01953125 
2.1930215e+0, 2.9296875e-2, 364452.88, -0.00000000000000000000000000009746032, 0.0000000000038244846, -1.2291714, 0.0, 364452.88, 364452.88, 0.7095265, 0.01977996, 0.01953125 
2.2127919e+0, 9.765625e-3, 336184.7, -0.00000000000000000000000012227322, -0.00000000012268744, -1.2873541, 0.0, 336184.7, 336184.7, 0.73340446, 0.01978093, 0.01953125 
2.2127919e+0, 2.9296875e-2, 336184.7, -0.00000000000000000000000016629428, -0.00000000014307809, -1.2873541, 0.0, 336184.7, 336184.7, 0.73340446, 0.01978093, 0.01953125 
2.2325823e+0, 9.765625e-3, 350826.25, -0.000000000000000000000000025190415, -0.00000000005343598, -1.3495612, 0.0, 350826.25, 350826.25, 0.7574978, 0.019818036, 0.01953125 
2.2325823e+0, 2.9296875e-2, 350826.25, -0.000000000000000000000000028773353, -0.000000000057109897, -1.3495612, 0.0, 350826.25, 350826.25, 0.7574978, 0.019818036, 0.01953125 
2.2523884e+0, 9.765625e-3, 319282.06, -0.0000000000000000000000001124325, 0.00000000010071436, -1.4192379, 0.0, 319282.06, 319282.06, 0.7816866, 0.019820606, 0.01953125 
2.2523884e+0, 2.9296875e-2, 319282.06, -0.00000000000000000000000011773042, 0.00000000010305992, -1.4192379, 0.0, 319282.06, 319282.06, 0.7816866, 0.019820606, 0.01953125 
2.2722235e+0, 9.765625e-3, 334667.28, -0.000000000000000000000000041480562, 0.000000000058266135, -1.4939688, 0.0, 334667.28, 334667.28, 0.8058355, 0.019872645, 0.01953125 
2.2722235e+0, 2.9296875e-2, 334667.28, -0.000000000000000000000000040343647, 0.000000000057462094, -1.4939688, 0.0, 334667.28, 334667.28, 0.8058355, 0.019872645, 0.01953125 
2.2920808e+0, 9.765625e-3, 299119.4, -0.000000000000000000000000021978805, -0.000000000037076155, -1.5772774, 0.0, 299119.4, 299119.4, 0.82977194, 0.019878104, 0.01953125 
2.2920808e+0, 2.9296875e-2, 299119.4, -0.000000000000000000000000019864901, -0.00000000003524811, -1.5772774, 0.0, 299119.4, 299119.4, 0.82977194, 0.019878104, 0.01953125 
2.3119822e+0, 9.765625e-3, 314672.2, -0.0000000000000000000000000009864887, -0.000000000007395696, -1.6661742, 0.0, 314672.2, 314672.2, 0.8533045, 0.019954925, 0.01953125 
2.3119822e+0, 2.9296875e-2, 314672.2, -0.0000000000000000000000000009864887, -0.000000000007395696, -1.6661742, 0.0, 314672.2, 314672.2, 0.8533045, 0.019954925, 0.01953125 
2.331918e+0, 9.765625e-3, 274053.5, -0.00000000000000000000000005665728, 0.000000000047601277, -1.7635119, 0.0, 274053.5, 274053.5, 0.87619203, 0.01996566, 0.01953125 
2.331918e+0, 2.9296875e-2, 274053.5, -0.00000000000000000000000005665728, 0.000000000047601277, -1.7635119, 0.0, 274053.5, 274053.5, 0.87619203, 0.01996566, 0.01953125 
2.3519239e+0, 9.765625e-3, 286993.13, -0.000000000000000000000000036636186, 0.000000000035272122, -1.8612288, 0.0, 286993.13, 286993.13, 0.89818, 0.020083655, 0.01953125 
2.3519239e+0, 2.9296875e-2, 286993.13, -0.000000000000000000000000035095944, 0.000000000034522715, -1.8612288, 0.0, 286993.13, 286993.13, 0.89818, 0.020083655, 0.01953125 
2.3719835e+0, 9.765625e-3, 240280.53, -0.0000000000000000000000000000009135808, 0.00000000000014324436, -1.9591138, 0.0, 240280.53, 240280.53, 0.9189588, 0.020104595, 0.01953125 
2.3719835e+0, 2.9296875e-2, 240280.53, -0.00000000000000000000000000016053863, -0.0000000000018988637, -1.9591138, 0.0, 240280.53, 240280.53, 0.9189588, 0.020104595, 0.01953125 
2.3921624e+0, 9.765625e-3, 244959.69, -0.000000000000000000000000015092015, -0.000000000016250506, -2.037562, 0.0, 244959.69, 244959.69, 0.938224, 0.02029117, 0.01953125 
2.3921624e+0, 2.9296875e-2, 244959.69, -0.000000000000000000000000015092015, -0.000000000016250506, -2.037562, 0.0, 244959.69, 244959.69, 0.938224, 0.02029117, 0.01953125 
2.4124274e+0, 9.765625e-3, 192409.5, -0.000000000000000000000000009690384, -0.000000000009875327, -2.094022, 0.0, 192409.5, 192409.5, 0.9556213, 0.020334443, 0.01953125 
2.4124274e+0, 2.9296875e-2, 192409.5, -0.0000000000000000000000000094929595, -0.0000000000097742136, -2.094022, 0.0, 192409.5, 192409.5, 0.9556213, 0.020334443, 0.01953125 
2.4329051e+0, 9.765625e-3, 176770.06, -0.0000000000000000000000000024838181, -0.0000000000039842517, -2.0459135, 0.0, 176770.06, 176770.06, 0.9708313, 0.020603243, 0.01953125 
2.4329051e+0, 2.9296875e-2, 176770.06, -0.0000000000000000000000000024838181, -0.0000000000039842517, -2.0459135, 0.0, 176770.06, 176770.06, 0.9708313, 0.020603243, 0.01953125 
2.4535224e+0, 9.765625e-3, 121622.8, -0.00000000000000000000000003837289, -0.000000000010380534, -1.9066602, 0.0, 121622.8, 121622.8, 0.98350394, 0.020677812, 0.01953125 
2.4535224e+0, 2.9296875e-2, 121622.8, -0.00000000000000000000000003591176, -0.000000000010042129, -1.9066602, 0.0, 121622.8, 121622.8, 0.98350394, 0.020677812, 0.01953125 
2.4744344e+0, 9.765625e-3, 85380.8, -0.000000000000000000000000009061742, -0.0000000000031919942, -1.5363084, 0.0, 85380.8, 85380.8, 0.99335486, 0.020957015, 0.01953125 
2.4744344e+0, 2.9296875e-2, 85380.8, -0.000000000000000000000000009061742, -0.0000000000031919942, -1.5363084, 0.0, 85380.8, 85380.8, 0.99335486, 0.020957015, 0.01953125 
2.495499e+0, 9.765625e-3, 44032.125, -0.0000000000000000000000000038891316, 0.0000000000010533345, -1.0234504, 0.0, 44032.125, 44032.125, 1.0, 0.02102285, 0.01953125 
2.495499e+0, 2.9296875e-2, 44032.125, -0.0000000000000000000000000050353866, 0.0000000000011985506, -1.0234504, 0.0, 44032.125, 44032.125, 1.0, 0.02102285, 0.01953125 
2.5167608e+0, 9.765625e-3, 22690.893, -0.0000000000000000000000000054127606, -0.00000000000061364173, -0.3292723, 0.0, 22690.893, 22690.893, 1.0, 0.021166628, 0.01953125 
2.5167608e+0, 2.9296875e-2, 22690.893, -0.00000000000000000000000000558534, -0.00000000000062334756, -0.3292723, 0.0, 22690.893, 22690.893, 1.0, 0.021166628, 0.01953125 
2.5380763e+0, 9.765625e-3, 21483.05, -0.00000000000000000000000005746641, -0.000000000001912531, 0.41757163, 0.0, 21483.05, 21483.05, 1.0, 0.021129046, 0.01953125 
2.5380763e+0, 2.9296875e-2, 21483.05, -0.000000000000000000000000056998997, -0.000000000001904737, 0.41757163, 0.0, 21483.05, 21483.05, 1.0, 0.021129046, 0.01953125 
2.5593048e+0, 9.765625e-3, 43370.434, -0.00000000000000000000000007019271, -0.0000000000043338323, 1.079642, 0.0, 43370.434, 43370.434, 1.0, 0.021079877, 0.01953125 
2.5593048e+0, 2.9296875e-2, 43370.434, -0.00000000000000000000000007019271, -0.0000000000043338323, 1.079642, 0.0, 43370.434, 43370.434, 1.0, 0.021079877, 0.01953125 
2.580453e+0, 9.765625e-3, 79533.68, -0.00000000000000000000000007369243, -0.000000000008615149, 1.6600983, 0.0, 79533.68, 79533.68, 0.9938565, 0.020906784, 0.01953125 
2.580453e+0, 2.9296875e-2, 79533.68, -0.00000000000000000000000007369243, -0.000000000008615149, 1.6600983, 0.0, 79533.68, 79533.68, 0.9938565, 0.020906784, 0.01953125 
2.6012975e+0, 9.765625e-3, 125919.516, -0.000000000000000000000000003870391, -0.0000000000033027084, 1.9756736, 0.0, 125919.516, 125919.516, 0.9841925, 0.020762455, 0.01953125 
2.6012975e+0, 2.9296875e-2, 125919.516, -0.0000000000000000000000000036139267, -0.0000000000031914092, 1.9756736, 0.0, 125919.516, 125919.516, 0.9841925, 0.020762455, 0.01953125 
2.6220167e+0, 9.765625e-3, 163616.6, -0.000000000000000000000000033740003, 0.000000000013954443, 2.1889281, 0.0, 163616.6, 163616.6, 0.9716655, 0.020542951, 0.01953125 
2.6220167e+0, 2.9296875e-2, 163616.6, -0.000000000000000000000000033740003, 0.000000000013954443, 2.1889281, 0.0, 163616.6, 163616.6, 0.9716655, 0.020542951, 0.01953125 
2.6424375e+0, 9.765625e-3, 206062.42, -0.00000000000000000000000004418782, 0.00000000002159904, 2.2031865, 0.0, 206062.42, 206062.42, 0.9566029, 0.020413613, 0.01953125 
2.6424375e+0, 2.9296875e-2, 206062.42, -0.00000000000000000000000004398945, 0.000000000021550504, 2.2031865, 0.0, 206062.42, 206062.42, 0.9566029, 0.020413613, 0.01953125 
2.6627678e+0, 9.765625e-3, 225662.25, -0.000000000000000000000000045817673, 0.000000000026943427, 2.1743996, 0.0, 225662.25, 225662.25, 0.93930185, 0.02023996, 0.01953125 
2.6627678e+0, 2.9296875e-2, 225662.25, -0.000000000000000000000000045817673, 0.000000000026943427, 2.1743996, 0.0, 225662.25, 225662.25, 0.93930185, 0.02023996, 0.01953125 
2.6829094e+0, 9.765625e-3, 257698.89, -0.000000000000000000000000085867374, 0.000000000045141002, 2.0815673, 0.0, 257698.89, 257698.89, 0.92013425, 0.020157067, 0.01953125 
2.6829094e+0, 2.9296875e-2, 257698.89, -0.000000000000000000000000084770555, 0.000000000044851775, 2.0815673, 0.0, 257698.89, 257698.89, 0.92013425, 0.020157067, 0.01953125 
2.702999e+0, 9.765625e-3, 265360.0, -0.00000000000000000000000005101729, 0.000000000039766846, 1.9841299, 0.0, 265360.0, 265360.0, 0.8994053, 0.020046497, 0.01953125 
2.702999e+0, 2.9296875e-2, 265360.0, -0.000000000000000000000000047361908, 0.00000000003831573, 1.9841299, 0.0, 265360.0, 265360.0, 0.8994053, 0.020046497, 0.01953125 
2.7229816e+0, 9.765625e-3, 290242.53, -0.000000000000000000000000000038122646, -0.0000000000012634836, 1.8823106, 0.0, 290242.53, 290242.53, 0.87746596, 0.019997023, 0.01953125 
2.7229816e+0, 2.9296875e-2, 290242.53, -0.00000000000000000000000000004978577, -0.0000000000014438785, 1.8823106, 0.0, 290242.53, 290242.53, 0.87746596, 0.019997023, 0.01953125 
2.7429336e+0, 9.765625e-3, 293730.97, -0.00000000000000000000000011394597, -0.00000000007640995, 1.7855036, 0.0, 293730.97, 293730.97, 0.854588, 0.019929351, 0.01953125 
2.7429336e+0, 2.9296875e-2, 293730.97, -0.00000000000000000000000011480426, -0.00000000007669718, 1.7855036, 0.0, 293730.97, 293730.97, 0.854588, 0.019929351, 0.01953125 
2.7628198e+0, 9.765625e-3, 313309.63, -0.0000000000000000000000000126889355, -0.000000000028702353, 1.6957326, 0.0, 313309.63, 313309.63, 0.83106285, 0.019897819, 0.01953125 
2.7628198e+0, 2.9296875e-2, 313309.63, -0.0000000000000000000000000126889355, -0.000000000028702353, 1.6957326, 0.0, 313309.63, 313309.63, 0.83106285, 0.019897819, 0.01953125 
2.7826875e+0, 9.765625e-3, 315945.0, -0.000000000000000000000000047843853, 0.00000000006055717, 1.6124806, 0.0, 315945.0, 315945.0, 0.80710447, 0.019855203, 0.01953125 
2.7826875e+0, 2.9296875e-2, 315945.0, -0.000000000000000000000000051034617, 0.000000000062543894, 1.6124806, 0.0, 315945.0, 315945.0, 0.80710447, 0.019855203, 0.01953125 
2.802512e+0, 9.765625e-3, 331039.28, -0.0000000000000000000000000049384992, 0.000000000021415274, 1.5370041, 0.0, 331039.28, 331039.28, 0.7829322, 0.019833248, 0.01953125 
2.802512e+0, 2.9296875e-2, 331039.28, -0.000000000000000000000000008866201, 0.000000000028694254, 1.5370041, 0.0, 331039.28, 331039.28, 0.7829322, 0.019833248, 0.01953125 
2.8223246e+0, 9.765625e-3, 334230.6, -0.0000000000000000000000000021272331, -0.000000000015107329, 1.4676673, 0.0, 334230.6, 334230.6, 0.75869966, 0.019805558, 0.01953125 
2.8223246e+0, 2.9296875e-2, 334230.6, -0.000000000000000000000000002379509, -0.00000000001597805, 1.4676673, 0.0, 334230.6, 334230.6, 0.75869966, 0.019805558, 0.01953125 
2.842107e+0, 9.765625e-3, 345558.8, -0.000000000000000000000000045274293, 0.000000000075465786, 1.4048444, 0.0, 345558.8, 345558.8, 0.73456264, 0.019789165, 0.01953125 
2.842107e+0, 2.9296875e-2, 345558.8, -0.000000000000000000000000045274077, 0.000000000075465606, 1.4048444, 0.0, 345558.8, 345558.8, 0.73456264, 0.019789165, 0.01953125 
2.8618816e+0, 9.765625e-3, 349651.44, -0.00000000000000000000000012940446, 0.00000000013613564, 1.3468736, 0.0, 349651.44, 349651.44, 0.7106275, 0.019770592, 0.01953125 
2.8618816e+0, 2.9296875e-2, 349651.44, -0.00000000000000000000000012940446, 0.00000000013613564, 1.3468736, 0.0, 349651.44, 349651.44, 0.7106275, 0.019770592, 0.01953125 
2.8816336e+0, 9.765625e-3, 357964.6, -0.00000000000000000000000011682019, -0.00000000013835165, 1.2935495, 0.0, 357964.6, 357964.6, 0.6870061, 0.019757783, 0.01953125 
2.8816336e+0, 2.9296875e-2, 357964.6, -0.00000000000000000000000011682019, -0.00000000013835165, 1.2935495, 0.0, 357964.6, 357964.6, 0.6870061, 0.019757783, 0.01953125 
2.9013807e+0, 9.765625e-3, 362866.94, -0.0000000000000000000000017428773, -0.0000000005670564, 1.2448475, 0.0, 362866.94, 362866.94, 0.66377836, 0.019744968, 0.01953125 
2.9013807e+0, 2.9296875e-2, 362866.94, -0.0000000000000000000000017504407, -0.0000000005682855, 1.2448475, 0.0, 362866.94, 362866.94, 0.66377836, 0.019744968, 0.01953125 
2.9211107e+0, 9.765625e-3, 368882.6, -0.000000000000000000000000072565114, -0.00000000012261825, 1.200189, 0.0, 368882.6, 368882.6, 0.6410334, 0.019734697, 0.01953125 
2.9211107e+0, 2.9296875e-2, 368882.6, -0.0000000000000000000000000722413, -0.00000000012234436, 1.200189, 0.0, 368882.6, 368882.6, 0.6410334, 0.019734697, 0.01953125 
2.940837e+0, 9.765625e-3, 374525.25, -0.000000000000000000000005099911, 0.0000000010859831, 1.1588821, 0.0, 374525.25, 374525.25, 0.61883914, 0.019725733, 0.01953125 
2.940837e+0, 2.9296875e-2, 374525.25, -0.0000000000000000000000050697183, 0.0000000010827637, 1.1588821, 0.0, 374525.25, 374525.25, 0.61883914, 0.019725733, 0.01953125 
2.9605523e+0, 9.765625e-3, 378917.28, -0.0000000000000000000000013204218, 0.00000000058141103, 1.1202936, 0.0, 378917.28, 378917.28, 0.59727484, 0.01971742, 0.01953125 
2.9605523e+0, 2.9296875e-2, 378917.28, -0.0000000000000000000000013003275, 0.0000000005769701, 1.1202936, 0.0, 378917.28, 378917.28, 0.59727484, 0.01971742, 0.01953125 
2.9802635e+0, 9.765625e-3, 384855.9, -0.0000000000000000000000030453328, -0.00000000092882063, 1.0851517, 0.0, 384855.9, 384855.9, 0.5764111, 0.019710982, 0.01953125 
2.9802635e+0, 2.9296875e-2, 384855.9, -0.0000000000000000000000030314893, -0.0000000009267071, 1.0851517, 0.0, 384855.9, 384855.9, 0.5764111, 0.019710982, 0.01953125 
2.9999593e+0, 9.765625e-3, 387661.38, -0.0000000000000000000000010620668, -0.0000000005734126, 1.052604, 0.0, 387661.38, 387661.38, 0.55632544, 0.019704038, 0.01953125 
2.9999593e+0, 2.9296875e-2, 387661.38, -0.0000000000000000000000010440396, -0.0000000005685253, 1.052604, 0.0, 387661.38, 387661.38, 0.55632544, 0.019704038, 0.01953125 
3.019658e+0, 9.765625e-3, 399134.25, -0.0000000000000000000000003250985, 0.0000000003346227, 1.0206077, 0.0, 399134.25, 399134.25, 0.53707165, 0.01970175, 0.01953125 
3.019658e+0, 2.9296875e-2, 399134.25, -0.0000000000000000000000003250985, 0.0000000003346227, 1.0206077, 0.0, 399134.25, 399134.25, 0.53707165, 0.01970175, 0.01953125 
3.039366e+0, 9.765625e-3, 391625.28, -0.000000000000000000000000010607934, -0.000000000062115084, 0.989059, 0.0, 391625.28, 391625.28, 0.5187132, 0.01969206, 0.01953125 
3.039366e+0, 2.9296875e-2, 391625.28, -0.0000000000000000000000000097314374, -0.00000000005949359, 0.989059, 0.0, 391625.28, 391625.28, 0.5187132, 0.01969206, 0.01953125 
3.05906e+0, 9.765625e-3, 431457.63, -0.00000000000000000000000012152825, -0.00000000027979105, 0.9643212, 0.0, 431457.63, 431457.63, 0.40133023, 0.0196735, 0.01953125 
3.05906e+0, 2.9296875e-2, 431457.63, -0.00000000000000000000000012152825, -0.00000000027979105, 0.9643212, 0.0, 431457.63, 431457.63, 0.40133023, 0.0196735, 0.01953125 
3.0786958e+0, 9.765625e-3, 370056.72, -0.0000000000000000000000005612344, 0.0000000005762116, 0.9441072, 0.0, 370056.72, 370056.72, 0.38498965, 0.019649806, 0.01953125 
3.0786958e+0, 2.9296875e-2, 370056.72, -0.00000000000000000000000052445697, 0.00000000055701227, 0.9441072, 0.0, 370056.72, 370056.72, 0.38498965, 0.019649806, 0.01953125 
3.098328e+0, 9.765625e-3, 402645.84, -0.0000000000000000000000009362656, 0.00000000080196483, 0.92437816, 0.0, 402645.84, 402645.84, 0.36969343, 0.019657195, 0.01953125 
3.098328e+0, 2.9296875e-2, 402645.84, -0.0000000000000000000000009177537, 0.000000000793997, 0.92437816, 0.0, 402645.84, 402645.84, 0.36969343, 0.019657195, 0.01953125 
3.1179947e+0, 9.765625e-3, 424155.22, -0.000000000000000000000000030064882, -0.00000000015210926, 0.9049258, 0.0, 424155.22, 424155.22, 0.3554483, 0.019661032, 0.01953125 
3.1179947e+0, 2.9296875e-2, 424155.22, -0.000000000000000000000000030755, -0.00000000015384514, 0.9049258, 0.0, 424155.22, 424155.22, 0.3554483, 0.019661032, 0.01953125 
3.1376624e+0, 9.765625e-3, 419030.53, -0.00000000000000000000000045954136, -0.00000000060844535, 0.88599586, 0.0, 419030.53, 419030.53, 0.3422829, 0.019656861, 0.01953125 
3.1376624e+0, 2.9296875e-2, 419030.53, -0.00000000000000000000000045954136, -0.00000000060844535, 0.88599586, 0.0, 419030.53, 419030.53, 0.3422829, 0.019656861, 0.01953125 
3.1573096e+0, 9.765625e-3, 414093.1, -0.00000000000000000000000004972224, -0.00000000020440936, 0.86742365, 0.0, 414093.1, 414093.1, 0.33020625, 0.019653112, 0.01953125 
3.1573096e+0, 2.9296875e-2, 414093.1, -0.00000000000000000000000004972224, -0.00000000020440936, 0.86742365, 0.0, 414093.1, 414093.1, 0.33020625, 0.019653112, 0.01953125 
3.1769565e+0, 9.765625e-3, 423384.34, -0.000000000000000000000000012831081, 0.00000000010766388, 0.85014844, 0.0, 423384.34, 423384.34, 0.3191969, 0.01965384, 0.01953125 
3.1769565e+0, 2.9296875e-2, 423384.34, -0.000000000000000000000000012831081, 0.00000000010766388, 0.85014844, 0.0, 423384.34, 423384.34, 0.3191969, 0.01965384, 0.01953125 
3.196609e+0, 9.765625e-3, 426044.6, -0.000000000000000000000000021611942, 0.00000000014344545, 0.8336236, 0.0, 426044.6, 426044.6, 0.3092259, 0.019652821, 0.01953125 
3.196609e+0, 2.9296875e-2, 426044.6, -0.000000000000000000000000022783161, 0.00000000014728105, 0.8336236, 0.0, 426044.6, 426044.6, 0.3092259, 0.019652821, 0.01953125 
3.216262e+0, 9.765625e-3, 430248.16, -0.000000000000000000000000020391076, 0.00000000014301395, 0.8176052, 0.0, 430248.16, 430248.16, 0.3002571, 0.019652445, 0.01953125 
3.216262e+0, 2.9296875e-2, 430248.16, -0.000000000000000000000000019004872, 0.0000000001380673, 0.8176052, 0.0, 430248.16, 430248.16, 0.3002571, 0.019652445, 0.01953125 
3.2359105e+0, 9.765625e-3, 430899.75, -0.0000000000000000000000000025918599, -0.000000000052015614, 0.8018862, 0.0, 430899.75, 430899.75, 0.29224443, 0.019651245, 0.01953125 
3.2359105e+0, 2.9296875e-2, 430899.75, -0.0000000000000000000000000025918599, -0.000000000052015614, 0.8018862, 0.0, 430899.75, 430899.75, 0.29224443, 0.019651245, 0.01953125 
3.2555595e+0, 9.765625e-3, 436025.44, -0.00000000000000000000000004833661, -0.0000000002299066, 0.78689, 0.0, 436025.44, 436025.44, 0.28513184, 0.019651467, 0.01953125 
3.2555595e+0, 2.9296875e-2, 436025.44, -0.000000000000000000000000047943277, -0.00000000022896927, 0.78689, 0.0, 436025.44, 436025.44, 0.28513184, 0.019651467, 0.01953125 
3.2752085e+0, 9.765625e-3, 437259.75, -0.0000000000000000000000000008358431, -0.000000000030747842, 0.7722886, 0.0, 437259.75, 437259.75, 0.27885842, 0.019650754, 0.01953125 
3.2752085e+0, 2.9296875e-2, 437259.75, -0.00000000000000000000000000063934817, -0.000000000026891867, 0.7722886, 0.0, 437259.75, 437259.75, 0.27885842, 0.019650754, 0.01953125 
3.2948583e+0, 9.765625e-3, 441659.63, -0.00000000000000000000000000848338, 0.00000000009981198, 0.75819063, 0.0, 441659.63, 441659.63, 0.2733594, 0.019651046, 0.01953125 
3.2948583e+0, 2.9296875e-2, 441659.63, -0.00000000000000000000000000848338, 0.00000000009981198, 0.75819063, 0.0, 441659.63, 441659.63, 0.2733594, 0.019651046, 0.01953125 
3.3145067e+0, 9.765625e-3, 442777.1, -0.0000000000000000000000000029242689, -0.000000000059390964, 0.74436283, 0.0, 442777.1, 442777.1, 0.26856822, 0.019650558, 0.01953125 
3.3145067e+0, 2.9296875e-2, 442777.1, -0.0000000000000000000000000031302929, -0.0000000000614475, 0.74436283, 0.0, 442777.1, 442777.1, 0.26856822, 0.019650558, 0.01953125 
3.334156e+0, 9.765625e-3, 446952.8, -0.000000000000000000000000017561752, -0.00000000014778939, 0.7310219, 0.0, 446952.8, 446952.8, 0.26441756, 0.019651009, 0.01953125 
3.334156e+0, 2.9296875e-2, 446952.8, -0.000000000000000000000000019207269, -0.00000000015455824, 0.7310219, 0.0, 446952.8, 446952.8, 0.26441756, 0.019651009, 0.01953125 
3.353805e+0, 9.765625e-3, 448100.5, -0.0000000000000000000000000000092373235, 0.0000000000034252959, 0.71793145, 0.0, 448100.5, 448100.5, 0.26084146, 0.019650733, 0.01953125 
3.353805e+0, 2.9296875e-2, 448100.5, -0.0000000000000000000000000000054193765, -0.0000000000026236125, 0.71793145, 0.0, 448100.5, 448100.5, 0.26084146, 0.019650733, 0.01953125 
3.3734545e+0, 9.765625e-3, 451982.06, -0.000000000000000000000000010024379, 0.00000000011423292, 0.70525604, 0.0, 451982.06, 451982.06, 0.2577763, 0.019651275, 0.01953125 
3.3734545e+0, 2.9296875e-2, 451982.06, -0.000000000000000000000000010024379, 0.00000000011423292, 0.70525604, 0.0, 451982.06, 451982.06, 0.2577763, 0.019651275, 0.01953125 
3.393104e+0, 9.765625e-3, 453091.25, -0.00000000000000000000000000016923378, 0.000000000014962875, 0.6927883, 0.0, 453091.25, 453091.25, 0.25516173, 0.019651147, 0.01953125 
3.393104e+0, 2.9296875e-2, 453091.25, -0.00000000000000000000000000014685289, 0.000000000013938396, 0.6927883, 0.0, 453091.25, 453091.25, 0.25516173, 0.019651147, 0.01953125 
3.412754e+0, 9.765625e-3, 456746.84, -0.0000000000000000000000000006255274, -0.000000000029052488, 0.68069893, 0.0, 456746.84, 456746.84, 0.25294152, 0.01965176, 0.01953125 
3.412754e+0, 2.9296875e-2, 456746.84, -0.0000000000000000000000000008284234, -0.000000000033433846, 0.68069893, 0.0, 456746.84, 456746.84, 0.25294152, 0.01965176, 0.01953125 
3.432404e+0, 9.765625e-3, 457812.56, -0.000000000000000000000000000049786306, -0.000000000008246771, 0.66879267, 0.0, 457812.56, 457812.56, 0.251064, 0.019651739, 0.01953125 
3.432404e+0, 2.9296875e-2, 457812.56, -0.00000000000000000000000000028010694, -0.000000000019560995, 0.66879267, 0.0, 457812.56, 457812.56, 0.251064, 0.019651739, 0.01953125 
3.452055e+0, 9.765625e-3, 461263.47, -0.0000000000000000000000000034684354, -0.00000000006938363, 0.6572275, 0.0, 461263.47, 461263.47, 0.24948233, 0.019652396, 0.01953125 
3.452055e+0, 2.9296875e-2, 461263.47, -0.0000000000000000000000000028133168, -0.00000000006248842, 0.6572275, 0.0, 461263.47, 461263.47, 0.24948233, 0.019652396, 0.01953125 
3.4717056e+0, 9.765625e-3, 462275.75, -0.000000000000000000000000000085265487, 0.000000000010929384, 0.6458227, 0.0, 462275.75, 462275.75, 0.24815454, 0.019652449, 0.01953125 
3.4717056e+0, 2.9296875e-2, 462275.75, -0.000000000000000000000000000009441617, 0.0000000000036369074, 0.6458227, 0.0, 462275.75, 462275.75, 0.24815454, 0.019652449, 0.01953125 
3.4913573e+0, 9.765625e-3, 465538.47, -0.000000000000000000000000014361425, 0.00000000014276787, 0.6347313, 0.0, 465538.47, 465538.47, 0.24704346, 0.01965313, 0.01953125 
3.4913573e+0, 2.9296875e-2, 465538.47, -0.000000000000000000000000014257146, 0.00000000014224862, 0.6347313, 0.0, 465538.47, 465538.47, 0.24704346, 0.01965313, 0.01953125 
3.511009e+0, 9.765625e-3, 466506.1, -0.000000000000000000000000009685864, 0.00000000011766182, 0.6237829, 0.0, 466506.1, 466506.1, 0.24611656, 0.019653235, 0.01953125 
3.511009e+0, 2.9296875e-2, 466506.1, -0.000000000000000000000000009629111, 0.00000000011731661, 0.6237829, 0.0, 466506.1, 466506.1, 0.24611656, 0.019653235, 0.01953125 
3.5306615e+0, 9.765625e-3, 469584.2, -0.0000000000000000000000000040871392, -0.00000000007684365, 0.6131238, 0.0, 469584.2, 469584.2, 0.24534558, 0.01965392, 0.01953125 
3.5306615e+0, 2.9296875e-2, 469584.2, -0.0000000000000000000000000044659623, -0.00000000008032593, 0.6131238, 0.0, 469584.2, 469584.2, 0.24534558, 0.01965392, 0.01953125 
3.550314e+0, 9.765625e-3, 470516.16, -0.0000000000000000000000000024472341, -0.00000000005962353, 0.60259306, 0.0, 470516.16, 470516.16, 0.24470618, 0.019654062, 0.01953125 
3.550314e+0, 2.9296875e-2, 470516.16, -0.0000000000000000000000000027025423, -0.000000000062656505, 0.60259306, 0.0, 470516.16, 470516.16, 0.24470618, 0.019654062, 0.01953125 
3.5699672e+0, 9.765625e-3, 473415.38, -0.0000000000000000000000000029247301, 0.00000000006547551, 0.59233034, 0.0, 473415.38, 473415.38, 0.24417756, 0.019654738, 0.01953125 
3.5699672e+0, 2.9296875e-2, 473415.38, -0.0000000000000000000000000029949911, 0.0000000000662573, 0.59233034, 0.0, 473415.38, 473415.38, 0.24417756, 0.019654738, 0.01953125 
3.5896206e+0, 9.765625e-3, 474316.97, -0.000000000000000000000000013696425, 0.00000000014199274, 0.5821832, 0.0, 474316.97, 474316.97, 0.24374206, 0.019654904, 0.01953125 
3.5896206e+0, 2.9296875e-2, 474316.97, -0.000000000000000000000000012715902, 0.00000000013681575, 0.5821832, 0.0, 474316.97, 474316.97, 0.24374206, 0.019654904, 0.01953125 
3.6092746e+0, 9.765625e-3, 477045.66, -0.0000000000000000000000000026047436, 0.00000000006216022, 0.5722841, 0.0, 477045.66, 477045.66, 0.24338469, 0.019655561, 0.01953125 
3.6092746e+0, 2.9296875e-2, 477045.66, -0.0000000000000000000000000022568644, 0.00000000005786058, 0.5722841, 0.0, 477045.66, 477045.66, 0.24338469, 0.019655561, 0.01953125 
3.628929e+0, 9.765625e-3, 477921.16, -0.000000000000000000000000006890122, -0.000000000101271366, 0.5624893, 0.0, 477921.16, 477921.16, 0.24309285, 0.019655744, 0.01953125 
3.628929e+0, 2.9296875e-2, 477921.16, -0.000000000000000000000000006890122, -0.000000000101271366, 0.5624893, 0.0, 477921.16, 477921.16, 0.24309285, 0.019655744, 0.01953125 
3.648584e+0, 9.765625e-3, 480487.28, -0.00000000000000000000000000041607945, 0.000000000024969202, 0.55292463, 0.0, 480487.28, 480487.28, 0.24285594, 0.019656379, 0.01953125 
3.648584e+0, 2.9296875e-2, 480487.28, -0.0000000000000000000000000003655642, 0.000000000023404445, 0.55292463, 0.0, 480487.28, 480487.28, 0.24285594, 0.019656379, 0.01953125 
3.668239e+0, 9.765625e-3, 481339.63, -0.000000000000000000000000010655812, 0.00000000012653799, 0.54345435, 0.0, 481339.63, 481339.63, 0.24266501, 0.01965657, 0.01953125 
3.668239e+0, 2.9296875e-2, 481339.63, -0.00000000000000000000000001131127, 0.00000000013037171, 0.54345435, 0.0, 481339.63, 481339.63, 0.24266501, 0.01965657, 0.01953125 
3.687895e+0, 9.765625e-3, 483750.13, -0.00000000000000000000000013049871, -0.00000000044411597, 0.53419954, 0.0, 483750.13, 483750.13, 0.24251261, 0.01965718, 0.01953125 
3.687895e+0, 2.9296875e-2, 483750.13, -0.00000000000000000000000012454162, -0.00000000043386095, 0.53419954, 0.0, 483750.13, 483750.13, 0.24251261, 0.01965718, 0.01953125 
3.707551e+0, 9.765625e-3, 484582.56, -0.000000000000000000000000057811585, -0.00000000029594904, 0.5250311, 0.0, 484582.56, 484582.56, 0.24239244, 0.019657377, 0.01953125 
3.707551e+0, 2.9296875e-2, 484582.56, -0.000000000000000000000000061007224, -0.0000000003040186, 0.5250311, 0.0, 484582.56, 484582.56, 0.24239244, 0.019657377, 0.01953125 
3.7272078e+0, 9.765625e-3, 486844.22, -0.0000000000000000000000006893819, 0.0000000010246171, 0.51606625, 0.0, 486844.22, 486844.22, 0.24229921, 0.019657956, 0.01953125 
3.7272078e+0, 2.9296875e-2, 486844.22, -0.0000000000000000000000006775927, 0.0000000010158183, 0.51606625, 0.0, 486844.22, 486844.22, 0.24229921, 0.019657956, 0.01953125 
3.7468645e+0, 9.765625e-3, 487654.1, -0.000000000000000000000000023455385, 0.00000000018919007, 0.5071812, 0.0, 487654.1, 487654.1, 0.2422285, 0.019658158, 0.01953125 
3.7468645e+0, 2.9296875e-2, 487654.1, -0.000000000000000000000000023137484, 0.00000000018790361, 0.5071812, 0.0, 487654.1, 487654.1, 0.2422285, 0.019658158, 0.01953125 
3.7665218e+0, 9.765625e-3, 489777.5, -0.0000000000000000000000013478202, -0.0000000014374699, 0.49849015, 0.0, 489777.5, 489777.5, 0.24217653, 0.019658705, 0.01953125 
3.7665218e+0, 2.9296875e-2, 489777.5, -0.000000000000000000000001358189, -0.0000000014429886, 0.49849015, 0.0, 489777.5, 489777.5, 0.24217653, 0.019658705, 0.01953125 
3.7861794e+0, 9.765625e-3, 490560.4, -0.0000000000000000000000000047483953, -0.000000000085397835, 0.48987353, 0.0, 490560.4, 490560.4, 0.24214016, 0.019658906, 0.01953125 
3.7861794e+0, 2.9296875e-2, 490560.4, -0.000000000000000000000000003528187, -0.0000000000736121, 0.48987353, 0.0, 490560.4, 490560.4, 0.24214016, 0.019658906, 0.01953125 
3.805838e+0, 9.765625e-3, 492553.84, -0.00000000000000000000000075505605, 0.000000001079126, 0.48144203, 0.0, 492553.84, 492553.84, 0.2421167, 0.019659426, 0.01953125 
3.805838e+0, 2.9296875e-2, 492553.84, -0.00000000000000000000000075752577, 0.0000000010808894, 0.48144203, 0.0, 492553.84, 492553.84, 0.2421167, 0.019659426, 0.01953125 
3.825496e+0, 9.765625e-3, 493311.5, -0.000000000000000000000000000008466041, -0.0000000000036163665, 0.4730801, 0.0, 493311.5, 493311.5, 0.2421039, 0.019659622, 0.01953125 
3.825496e+0, 2.9296875e-2, 493311.5, -0.000000000000000000000000000008466041, -0.0000000000036163665, 0.4730801, 0.0, 493311.5, 493311.5, 0.2421039, 0.019659622, 0.01953125 
3.8451552e+0, 9.765625e-3, 495178.38, -0.0000000000000000000000001272596, -0.00000000044422532, 0.46489385, 0.0, 495178.38, 495178.38, 0.24209984, 0.019660112, 0.01953125 
3.8451552e+0, 2.9296875e-2, 495178.38, -0.00000000000000000000000013122516, -0.00000000045109352, 0.46489385, 0.0, 495178.38, 495178.38, 0.24209984, 0.019660112, 0.01953125 
3.8648143e+0, 9.765625e-3, 495914.34, -0.000000000000000000000000011213343, 0.00000000013196089, 0.45677218, 0.0, 495914.34, 495914.34, 0.24210288, 0.019660305, 0.01953125 
3.8648143e+0, 2.9296875e-2, 495914.34, -0.000000000000000000000000007735235, 0.00000000010960098, 0.45677218, 0.0, 495914.34, 495914.34, 0.24210288, 0.019660305, 0.01953125 
3.884474e+0, 9.765625e-3, 497657.1, -0.000000000000000000000000050700488, 0.00000000028108385, 0.44881532, 0.0, 497657.1, 497657.1, 0.24211162, 0.019660765, 0.01953125 
3.884474e+0, 2.9296875e-2, 497657.1, -0.000000000000000000000000050700488, 0.00000000028108385, 0.44881532, 0.0, 497657.1, 497657.1, 0.24211162, 0.019660765, 0.01953125 
3.9041337e+0, 9.765625e-3, 498379.34, -0.0000000000000000000000000017419898, -0.00000000005213779, 0.44091773, 0.0, 498379.34, 498379.34, 0.24212487, 0.019660957, 0.01953125 
3.9041337e+0, 2.9296875e-2, 498379.34, -0.0000000000000000000000000019209183, -0.000000000054750017, 0.44091773, 0.0, 498379.34, 498379.34, 0.24212487, 0.019660957, 0.01953125 
3.923794e+0, 9.765625e-3, 499998.0, -0.00000000000000000000000006369873, -0.00000000031577682, 0.43317273, 0.0, 499998.0, 499998.0, 0.24214157, 0.019661386, 0.01953125 
3.923794e+0, 2.9296875e-2, 499998.0, -0.00000000000000000000000006643289, -0.0000000003224827, 0.43317273, 0.0, 499998.0, 499998.0, 0.24214157, 0.019661386, 0.01953125 
3.9434546e+0, 9.765625e-3, 500713.53, -0.000000000000000000000000020369425, -0.00000000017868688, 0.4254816, 0.0, 500713.53, 500713.53, 0.24216084, 0.019661577, 0.01953125 
3.9434546e+0, 2.9296875e-2, 500713.53, -0.000000000000000000000000019457658, -0.00000000017464195, 0.4254816, 0.0, 500713.53, 500713.53, 0.24216084, 0.019661577, 0.01953125 
3.9631155e+0, 9.765625e-3, 502211.56, -0.00000000000000000000000000028262095, 0.000000000021078026, 0.4179305, 0.0, 502211.56, 502211.56, 0.24218188, 0.019661974, 0.01953125 
3.9631155e+0, 2.9296875e-2, 502211.56, -0.00000000000000000000000000019234312, 0.00000000001738866, 0.4179305, 0.0, 502211.56, 502211.56, 0.24218188, 0.019661974, 0.01953125 
3.9827764e+0, 9.765625e-3, 502922.1, -0.000000000000000000000000016905026, 0.00000000016312376, 0.41042817, 0.0, 502922.1, 502922.1, 0.24220395, 0.019662164, 0.01953125 
3.9827764e+0, 2.9296875e-2, 502922.1, -0.000000000000000000000000014629612, 0.00000000015174896, 0.41042817, 0.0, 502922.1, 502922.1, 0.24220395, 0.019662164, 0.01953125 
4.0024382e+0, 9.765625e-3, 504304.8, -0.000000000000000000000000011895693, 0.00000000013701702, 0.40305454, 0.0, 504304.8, 504304.8, 0.24222639, 0.019662533, 0.01953125 
4.0024382e+0, 2.9296875e-2, 504304.8, -0.000000000000000000000000011895693, 0.00000000013701702, 0.40305454, 0.0, 504304.8, 504304.8, 0.24222639, 0.019662533, 0.01953125 
4.0220994e+0, 9.765625e-3, 505014.34, -0.000000000000000000000000001277044, 0.00000000004492233, 0.39572522, 0.0, 505014.34, 505014.34, 0.24224856, 0.019662723, 0.01953125 
4.0220994e+0, 2.9296875e-2, 505014.34, -0.000000000000000000000000001908556, 0.00000000005491763, 0.39572522, 0.0, 505014.34, 505014.34, 0.24224856, 0.019662723, 0.01953125 
4.0417618e+0, 9.765625e-3, 506284.5, -0.00000000000000000000000000008623035, 0.000000000011687195, 0.38851526, 0.0, 506284.5, 506284.5, 0.24226987, 0.01966306, 0.01953125 
4.0417618e+0, 2.9296875e-2, 506284.5, -0.00000000000000000000000000008623035, 0.000000000011687195, 0.38851526, 0.0, 506284.5, 506284.5, 0.24226987, 0.01966306, 0.01953125 
4.0614238e+0, 9.765625e-3, 506992.44, -0.00000000000000000000000000015374064, -0.000000000015615472, 0.38134614, 0.0, 506992.44, 506992.44, 0.24228969, 0.01966325, 0.01953125 
4.0614238e+0, 2.9296875e-2, 506992.44, -0.00000000000000000000000000015374064, -0.000000000015615472, 0.38134614, 0.0, 506992.44, 506992.44, 0.24228969, 0.01966325, 0.01953125 
4.0810865e+0, 9.765625e-3, 508159.1, -0.00000000000000000000000000027872402, 0.000000000021048772, 0.37428916, 0.0, 508159.1, 508159.1, 0.2423074, 0.01966356, 0.01953125 
4.0810865e+0, 2.9296875e-2, 508159.1, -0.00000000000000000000000000018888634, 0.000000000017327657, 0.37428916, 0.0, 508159.1, 508159.1, 0.2423074, 0.01966356, 0.01953125 
4.100749e+0, 9.765625e-3, 508854.5, -0.000000000000000000000000004315749, 0.000000000082879585, 0.36727038, 0.0, 508854.5, 508854.5, 0.2423223, 0.019663746, 0.01953125 
4.100749e+0, 2.9296875e-2, 508854.5, -0.0000000000000000000000000057990656, 0.000000000096072365, 0.36727038, 0.0, 508854.5, 508854.5, 0.2423223, 0.019663746, 0.01953125 
4.1204125e+0, 9.765625e-3, 509932.16, -0.0000000000000000000000000085871515, 0.0000000001170282, 0.36035836, 0.0, 509932.16, 509932.16, 0.24233367, 0.01966403, 0.01953125 
4.1204125e+0, 2.9296875e-2, 509932.16, -0.00000000000000000000000000889157, 0.00000000011908449, 0.36035836, 0.0, 509932.16, 509932.16, 0.24233367, 0.01966403, 0.01953125 
4.1400757e+0, 9.765625e-3, 510606.88, -0.0000000000000000000000000034062232, 0.00000000007375337, 0.35348246, 0.0, 510606.88, 510606.88, 0.24234068, 0.01966421, 0.01953125 
4.1400757e+0, 2.9296875e-2, 510606.88, -0.0000000000000000000000000042325226, 0.00000000008221384, 0.35348246, 0.0, 510606.88, 510606.88, 0.24234068, 0.01966421, 0.01953125 
4.159739e+0, 9.765625e-3, 511601.2, -0.000000000000000000000000000500199, -0.000000000028290302, 0.34670877, 0.0, 511601.2, 511601.2, 0.24234243, 0.01966447, 0.01953125 
4.159739e+0, 2.9296875e-2, 511601.2, -0.00000000000000000000000000048592994, -0.000000000027883869, 0.34670877, 0.0, 511601.2, 511601.2, 0.24234243, 0.01966447, 0.01953125 
4.179403e+0, 9.765625e-3, 512258.53, -0.0000000000000000000000000005027155, -0.000000000028379975, 0.33996946, 0.0, 512258.53, 512258.53, 0.24233788, 0.019664643, 0.01953125 
4.179403e+0, 2.9296875e-2, 512258.53, -0.0000000000000000000000000005027155, -0.000000000028379975, 0.33996946, 0.0, 512258.53, 512258.53, 0.24233788, 0.019664643, 0.01953125 
4.1990668e+0, 9.765625e-3, 513166.3, -0.000000000000000000000000000028426946, 0.0000000000067548415, 0.33332774, 0.0, 513166.3, 513166.3, 0.24232586, 0.01966488, 0.01953125 
4.1990668e+0, 2.9296875e-2, 513166.3, -0.0000000000000000000000000000010073578, 0.0000000000012715749, 0.33332774, 0.0, 513166.3, 513166.3, 0.24232586, 0.01966488, 0.01953125 
4.218731e+0, 9.765625e-3, 513810.6, -0.00000000000000000000000000000013718858, 0.00000000000046957685, 0.32671866, 0.0, 513810.6, 513810.6, 0.24230497, 0.019665046, 0.01953125 
4.218731e+0, 2.9296875e-2, 513810.6, -0.00000000000000000000000000000039418132, 0.00000000000079596816, 0.32671866, 0.0, 513810.6, 513810.6, 0.24230497, 0.019665046, 0.01953125 
4.238395e+0, 9.765625e-3, 514632.7, -0.0000000000000000000000000000005025184, -0.00000000000089951473, 0.32020214, 0.0, 514632.7, 514632.7, 0.24227363, 0.019665256, 0.01953125 
4.238395e+0, 2.9296875e-2, 514632.7, -0.0000000000000000000000000000005025184, -0.00000000000089951473, 0.32020214, 0.0, 514632.7, 514632.7, 0.24227363, 0.019665256, 0.01953125 
4.25806e+0, 9.765625e-3, 515262.22, -0.000000000000000000000000006469909, -0.0000000001021407, 0.31371635, 0.0, 515262.22, 515262.22, 0.24223003, 0.019665413, 0.01953125 
4.25806e+0, 2.9296875e-2, 515262.22, -0.000000000000000000000000006469909, -0.0000000001021407, 0.31371635, 0.0, 515262.22, 515262.22, 0.24223003, 0.019665413, 0.01953125 
4.2777246e+0, 9.765625e-3, 516005.56, -0.000000000000000000000000010763707, -0.0000000001318599, 0.30731747, 0.0, 516005.56, 516005.56, 0.24217202, 0.019665599, 0.01953125 
4.2777246e+0, 2.9296875e-2, 516005.56, -0.000000000000000000000000010763707, -0.0000000001318599, 0.30731747, 0.0, 516005.56, 516005.56, 0.24217202, 0.019665599, 0.01953125 
4.2973894e+0, 9.765625e-3, 516615.53, -0.0000000000000000000000000000106952314, 0.0000000000041597992, 0.30094728, 0.0, 516615.53, 516615.53, 0.24209715, 0.019665746, 0.01953125 
4.2973894e+0, 2.9296875e-2, 516615.53, -0.00000000000000000000000000022420713, 0.000000000019045921, 0.30094728, 0.0, 516615.53, 516615.53, 0.24209715, 0.019665746, 0.01953125 
4.3170542e+0, 9.765625e-3, 517287.7, -0.0000000000000000000000000015755041, 0.000000000050533768, 0.29465795, 0.0, 517287.7, 517287.7, 0.24200252, 0.019665904, 0.01953125 
4.3170542e+0, 2.9296875e-2, 517287.7, -0.0000000000000000000000000015755041, 0.000000000050533768, 0.29465795, 0.0, 517287.7, 517287.7, 0.24200252, 0.019665904, 0.01953125 
4.3367195e+0, 9.765625e-3, 517876.53, -0.00000000000000000000000000033559792, -0.000000000023343626, 0.28839526, 0.0, 517876.53, 517876.53, 0.24188475, 0.019666038, 0.01953125 
4.3367195e+0, 2.9296875e-2, 517876.53, -0.0000000000000000000000000004079591, -0.000000000025737537, 0.28839526, 0.0, 517876.53, 517876.53, 0.24188475, 0.019666038, 0.01953125 
4.3563852e+0, 9.765625e-3, 518477.22, -0.00000000000000000000000000001441875, -0.000000000004843352, 0.28220728, 0.0, 518477.22, 518477.22, 0.24173988, 0.01966617, 0.01953125 
4.3563852e+0, 2.9296875e-2, 518477.22, -0.00000000000000000000000000001441875, -0.000000000004843352, 0.28220728, 0.0, 518477.22, 518477.22, 0.24173988, 0.01966617, 0.01953125 
4.3760505e+0, 9.765625e-3, 519056.97, -0.0000000000000000000000000019334027, 0.00000000005614299, 0.27604398, 0.0, 519056.97, 519056.97, 0.2415633, 0.019666292, 0.01953125 
4.3760505e+0, 2.9296875e-2, 519056.97, -0.000000000000000000000000001467536, 0.000000000048913498, 0.27604398, 0.0, 519056.97, 519056.97, 0.2415633, 0.019666292, 0.01953125 
4.3957162e+0, 9.765625e-3, 519571.84, -0.000000000000000000000000009462455, 0.00000000012433839, 0.26994947, 0.0, 519571.84, 519571.84, 0.24134952, 0.019666389, 0.01953125 
4.3957162e+0, 2.9296875e-2, 519571.84, -0.000000000000000000000000009462455, 0.00000000012433839, 0.26994947, 0.0, 519571.84, 519571.84, 0.24134952, 0.019666389, 0.01953125 
4.4153818e+0, 9.765625e-3, 520163.75, -0.0000000000000000000000000018571232, 0.00000000005515392, 0.26387778, 0.0, 520163.75, 520163.75, 0.24109213, 0.019666497, 0.01953125 
4.4153818e+0, 2.9296875e-2, 520163.75, -0.00000000000000000000000000133596435, 0.00000000004677927, 0.26387778, 0.0, 520163.75, 520163.75, 0.24109213, 0.019666497, 0.01953125 
4.4350475e+0, 9.765625e-3, 520577.16, -0.0000000000000000000000000012018425, 0.000000000044424114, 0.25786945, 0.0, 520577.16, 520577.16, 0.24078357, 0.01966655, 0.01953125 
4.4350475e+0, 2.9296875e-2, 520577.16, -0.0000000000000000000000000012018425, 0.000000000044424114, 0.25786945, 0.0, 520577.16, 520577.16, 0.24078357, 0.01966655, 0.01953125 
4.4547135e+0, 9.765625e-3, 521187.78, -0.000000000000000000000000001804348, 0.000000000054518993, 0.25188237, 0.0, 521187.78, 521187.78, 0.24041498, 0.019666644, 0.01953125 
4.4547135e+0, 2.9296875e-2, 521187.78, -0.000000000000000000000000001804348, 0.000000000054518993, 0.25188237, 0.0, 521187.78, 521187.78, 0.24041498, 0.019666644, 0.01953125 
4.4743794e+0, 9.765625e-3, 521501.78, -0.00000000000000000000000002737038, -0.00000000021265775, 0.245954, 0.0, 521501.78, 521501.78, 0.23997596, 0.019666648, 0.01953125 
4.4743794e+0, 2.9296875e-2, 521501.78, -0.00000000000000000000000002754895, -0.00000000021335034, 0.245954, 0.0, 521501.78, 521501.78, 0.23997596, 0.019666648, 0.01953125 
4.4940454e+0, 9.765625e-3, 522133.13, -0.000000000000000000000000031061004, -0.00000000022700353, 0.24004564, 0.0, 522133.13, 522133.13, 0.23945446, 0.019666718, 0.01953125 
4.4940454e+0, 2.9296875e-2, 522133.13, -0.000000000000000000000000032946098, -0.0000000002337905, 0.24004564, 0.0, 522133.13, 522133.13, 0.23945446, 0.019666718, 0.01953125 
4.5137113e+0, 9.765625e-3, 522342.88, -0.00000000000000000000000038926013, 0.0000000008051361, 0.23419218, 0.0, 522342.88, 522342.88, 0.23883659, 0.019666662, 0.01953125 
4.5137113e+0, 2.9296875e-2, 522342.88, -0.00000000000000000000000039027525, 0.0000000008061853, 0.23419218, 0.0, 522342.88, 522342.88, 0.23883659, 0.019666662, 0.01953125 
4.5333773e+0, 9.765625e-3, 523012.38, -0.0000000000000000000000000004195402, 0.00000000002650252, 0.22835787, 0.0, 523012.38, 523012.38, 0.23810643, 0.019666707, 0.01953125 
4.5333773e+0, 2.9296875e-2, 523012.38, -0.00000000000000000000000000018882113, 0.000000000017779752, 0.22835787, 0.0, 523012.38, 523012.38, 0.23810643, 0.019666707, 0.01953125 
4.5530432e+0, 9.765625e-3, 523096.34, -0.0000000000000000000000013136072, -0.0000000014866163, 0.22257563, 0.0, 523096.34, 523096.34, 0.23724611, 0.019666573, 0.01953125 
4.5530432e+0, 2.9296875e-2, 523096.34, -0.0000000000000000000000013689006, -0.0000000015175816, 0.22257563, 0.0, 523096.34, 523096.34, 0.23724611, 0.019666573, 0.01953125 
4.5727092e+0, 9.765625e-3, 523827.34, -0.00000000000000000000000008381758, 0.00000000037683462, 0.21681204, 0.0, 523827.34, 523827.34, 0.2362358, 0.019666584, 0.01953125 
4.5727092e+0, 2.9296875e-2, 523827.34, -0.000000000000000000000000078604184, 0.00000000036492706, 0.21681204, 0.0, 523827.34, 523827.34, 0.2362358, 0.019666584, 0.01953125 
4.592375e+0, 9.765625e-3, 523763.03, -0.0000000000000000000000013049971, 0.0000000014917155, 0.21109882, 0.0, 523763.03, 523763.03, 0.23505382, 0.019666355, 0.01953125 
4.592375e+0, 2.9296875e-2, 523763.03, -0.0000000000000000000000013119821, 0.0000000014957023, 0.21109882, 0.0, 523763.03, 523763.03, 0.23505382, 0.019666355, 0.01953125 
4.6120405e+0, 9.765625e-3, 524581.25, -0.00000000000000000000000028087765, -0.0000000006952555, 0.20540419, 0.0, 524581.25, 524581.25, 0.2336771, 0.019666323, 0.01953125 
4.6120405e+0, 2.9296875e-2, 524581.25, -0.00000000000000000000000028087765, -0.0000000006952555, 0.20540419, 0.0, 524581.25, 524581.25, 0.2336771, 0.019666323, 0.01953125 
4.6317062e+0, 9.765625e-3, 524343.1, -0.00000000000000000000000058528297, -0.0000000010078807, 0.19975926, 0.0, 524343.1, 524343.1, 0.23208162, 0.019665977, 0.01953125 
4.6317062e+0, 2.9296875e-2, 524343.1, -0.00000000000000000000000058528297, -0.0000000010078807, 0.19975926, 0.0, 524343.1, 524343.1, 0.23208162, 0.019665977, 0.01953125 
4.6513715e+0, 9.765625e-3, 525275.9, -0.00000000000000000000000009311103, 0.00000000040444417, 0.19413328, 0.0, 525275.9, 525275.9, 0.23024301, 0.019665893, 0.01953125 
4.6513715e+0, 2.9296875e-2, 525275.9, -0.00000000000000000000000009311103, 0.00000000040444417, 0.19413328, 0.0, 525275.9, 525275.9, 0.23024301, 0.019665893, 0.01953125 
4.6710363e+0, 9.765625e-3, 524838.3, -0.00000000000000000000000016504151, 0.00000000054145355, 0.18855721, 0.0, 524838.3, 524838.3, 0.22813745, 0.01966541, 0.01953125 
4.6710363e+0, 2.9296875e-2, 524838.3, -0.00000000000000000000000016256593, 0.00000000053737736, 0.18855721, 0.0, 524838.3, 524838.3, 0.22813745, 0.01966541, 0.01953125 
4.690701e+0, 9.765625e-3, 525909.9, -0.0000000000000000000000000015833325, 0.000000000053451205, 0.1830009, 0.0, 525909.9, 525909.9, 0.22574237, 0.019665265, 0.01953125 
4.690701e+0, 2.9296875e-2, 525909.9, -0.0000000000000000000000000015833325, 0.000000000053451205, 0.1830009, 0.0, 525909.9, 525909.9, 0.22574237, 0.019665265, 0.01953125 
4.7103652e+0, 9.765625e-3, 525253.2, -0.00000000000000000000000002764011, 0.00000000022492826, 0.17749591, 0.0, 525253.2, 525253.2, 0.22303766, 0.019664627, 0.01953125 
4.7103652e+0, 2.9296875e-2, 525253.2, -0.00000000000000000000000002764011, 0.00000000022492826, 0.17749591, 0.0, 525253.2, 525253.2, 0.22303766, 0.019664627, 0.01953125 
4.730029e+0, 9.765625e-3, 526480.8, -0.00000000000000000000000064494507, 0.0000000010973834, 0.17201151, 0.0, 526480.8, 526480.8, 0.22000666, 0.019664416, 0.01953125 
4.730029e+0, 2.9296875e-2, 526480.8, -0.00000000000000000000000065443334, 0.0000000011054261, 0.17201151, 0.0, 526480.8, 526480.8, 0.22000666, 0.019664416, 0.01953125 
4.7496924e+0, 9.765625e-3, 525590.9, -0.0000000000000000000000000046043962, -0.00000000009356275, 0.16657914, 0.0, 525590.9, 525590.9, 0.21663699, 0.019663611, 0.01953125 
4.7496924e+0, 2.9296875e-2, 525590.9, -0.0000000000000000000000000030368587, -0.00000000007598518, 0.16657914, 0.0, 525590.9, 525590.9, 0.21663699, 0.019663611, 0.01953125 
4.7693557e+0, 9.765625e-3, 526986.75, -0.0000000000000000000000039972225, -0.0000000027909703, 0.16116947, 0.0, 526986.75, 526986.75, 0.21292129, 0.019663332, 0.01953125 
4.7693557e+0, 2.9296875e-2, 526986.75, -0.000000000000000000000004024792, -0.0000000028005787, 0.16116947, 0.0, 526986.75, 526986.75, 0.21292129, 0.019663332, 0.01953125 
4.7890177e+0, 9.765625e-3, 525865.06, -0.000000000000000000000001139429, -0.0000000015068097, 0.15581654, 0.0, 525865.06, 525865.06, 0.20885795, 0.019662365, 0.01953125 
4.7890177e+0, 2.9296875e-2, 525865.06, -0.000000000000000000000001139429, -0.0000000015068097, 0.15581654, 0.0, 525865.06, 525865.06, 0.20885795, 0.019662365, 0.01953125 
4.8086795e+0, 9.765625e-3, 527411.2, -0.0000000000000000000000017855798, 0.000000001914599, 0.15048438, 0.0, 527411.2, 527411.2, 0.2044513, 0.019662019, 0.01953125 
4.8086795e+0, 2.9296875e-2, 527411.2, -0.0000000000000000000000017855798, 0.000000001914599, 0.15048438, 0.0, 527411.2, 527411.2, 0.2044513, 0.019662019, 0.01953125 
4.82834e+0, 9.765625e-3, 526067.1, -0.0000000000000000000000009446026, 0.0000000014113699, 0.14520071, 0.0, 526067.1, 526067.1, 0.19971167, 0.019660901, 0.01953125 
4.82834e+0, 2.9296875e-2, 526067.1, -0.0000000000000000000000009640492, 0.000000001425824, 0.14520071, 0.0, 526067.1, 526067.1, 0.19971167, 0.019660901, 0.01953125 
4.848e+0, 9.765625e-3, 527783.0, -0.00000000000000000000000019920348, -0.00000000065964123, 0.13994946, 0.0, 527783.0, 527783.0, 0.19465491, 0.019660503, 0.01953125 
4.848e+0, 2.9296875e-2, 527783.0, -0.00000000000000000000000019089957, -0.0000000006457461, 0.13994946, 0.0, 527783.0, 527783.0, 0.19465491, 0.019660503, 0.01953125 
4.8676604e+0, 9.765625e-3, 526286.94, -0.00000000000000000000000013259448, -0.00000000054676164, 0.13477893, 0.0, 526286.94, 526286.94, 0.18930225, 0.019659273, 0.01953125 
4.8676604e+0, 2.9296875e-2, 526286.94, -0.00000000000000000000000013151237, -0.000000000544526, 0.13477893, 0.0, 526286.94, 526286.94, 0.18930225, 0.019659273, 0.01953125 
4.8873186e+0, 9.765625e-3, 527864.3, -0.000000000000000000000000019761359, 0.0000000002153477, 0.12960558, 0.0, 527864.3, 527864.3, 0.1836801, 0.019658765, 0.01953125 
4.8873186e+0, 2.9296875e-2, 527864.3, -0.000000000000000000000000019761359, 0.0000000002153477, 0.12960558, 0.0, 527864.3, 527864.3, 0.1836801, 0.019658765, 0.01953125 
4.906973e+0, 9.765625e-3, 526156.4, -0.000000000000000000000000007100869, 0.0000000001314556, 0.124412216, 0.0, 526156.4, 526156.4, 0.1778186, 0.019657433, 0.01953125 
4.906973e+0, 2.9296875e-2, 526156.4, -0.000000000000000000000000007100869, 0.0000000001314556, 0.124412216, 0.0, 526156.4, 526156.4, 0.1778186, 0.019657433, 0.01953125 
4.9266306e+0, 9.765625e-3, 529246.4, -0.0000000000000000000000000011430613, -0.000000000054021676, 0.11932915, 0.0, 529246.4, 529246.4, 0.17174855, 0.019657241, 0.01953125 
4.9266306e+0, 2.9296875e-2, 529246.4, -0.0000000000000000000000000004521728, -0.00000000003397704, 0.11932915, 0.0, 529246.4, 529246.4, 0.17174855, 0.019657241, 0.01953125 
4.9462953e+0, 9.765625e-3, 527949.4, -0.000000000000000000000000005672576, 0.00000000012290352, 0.114526995, 0.0, 527949.4, 527949.4, 0.1655032, 0.019655978, 0.01953125 
4.9462953e+0, 2.9296875e-2, 527949.4, -0.000000000000000000000000005672576, 0.00000000012290352, 0.114526995, 0.0, 527949.4, 527949.4, 0.1655032, 0.019655978, 0.01953125 
4.9659485e+0, 9.765625e-3, 519713.72, -0.00000000000000000000000000954501, 0.00000000016193367, 0.10953432, 0.0, 519713.72, 519713.72, 0.15912353, 0.019653058, 0.01953125 
4.9659485e+0, 2.9296875e-2, 519713.72, -0.00000000000000000000000000954501, 0.00000000016193367, 0.10953432, 0.0, 519713.72, 519713.72, 0.15912353, 0.019653058, 0.01953125 
4.9855757e+0, 9.765625e-3, 497467.78, -0.0000000000000000000000000014161857, 0.00000000006254517, 0.104050145, 0.0, 497467.78, 497467.78, 0.15264937, 0.019646896, 0.01953125 
4.9855757e+0, 2.9296875e-2, 497467.78, -0.0000000000000000000000000018713838, 0.00000000007189772, 0.104050145, 0.0, 497467.78, 497467.78, 0.15264937, 0.019646896, 0.01953125 
5.0052303e+0, 9.765625e-3, 675577.25, -0.000000000000000000000000000012598338, 0.0000000000070539815, 0.10015247, 0.0, 675577.25, 675577.25, 0.14610259, 0.019687578, 0.01953125 
5.0052303e+0, 2.9296875e-2, 675577.25, -0.000000000000000000000000000012598338, 0.0000000000070539815, 0.10015247, 0.0, 675577.25, 675577.25, 0.14610259, 0.019687578, 0.01953125 
5.0248945e+0, 9.765625e-3, 376633.4, -0.0000000000000000000000000000054758507, -0.000000000003566879, 0.1, 0.0, 376633.4, 376633.4, 0.13952798, 0.019617252, 0.01953125 
5.0248945e+0, 2.9296875e-2, 376633.4, -0.0000000000000000000000000000054758507, -0.000000000003566879, 0.1, 0.0, 376633.4, 376633.4, 0.13952798, 0.019617252, 0.01953125 
5.0444716e+0, 9.765625e-3, -0.0000021211351, 0.0, 0.0, 0.1, 0.0, 0.0, 0.0, 0.13298054, 0.01953125, 0.01953125 
5.0444716e+0, 2.9296875e-2, -0.0000021211654, 0.0, 0.0, 0.1, 0.0, 0.0, 0.0, 0.13298054, 0.01953125, 0.01953125 
