coord_x,coord_y,stress_xx,stress_yy,tau_xy,velocity_x,velocity_y,stress_1,eps,damage,lx,ly
2.4590181e-3, 2.4414063e-3, 540839.8, -0.000000000000000000000000007369405, -0.00000000011145635, -0.00058267504, 0.0, 540839.8, 540839.8, 0.24292825, 0.004918072, 0.0048828125 
2.4590181e-3, 7.324219e-3, 540839.8, -0.000000000000000000000000007369965, -0.000000000111460584, -0.00058267504, 0.0, 540839.8, 540839.8, 0.24292825, 0.004918072, 0.0048828125 
7.377054e-3, 2.4414063e-3, 540839.8, -0.00000000000000000000000006635305, -0.00000000033444136, -0.0017480251, 0.0, 540839.8, 540839.8, 0.24292746, 0.004918072, 0.0048828125 
7.377054e-3, 7.324219e-3, 540839.8, -0.000000000000000000000000066522064, -0.00000000033486702, -0.0017480251, 0.0, 540839.8, 540839.8, 0.24292746, 0.004918072, 0.0048828125 
1.229509e-2, 2.4414063e-3, 540833.94, -0.0000000000000000000000001102485, -0.00000000043109646, -0.0029134245, 0.0, 540833.94, 540833.94, 0.24292664, 0.0049180714, 0.0048828125 
1.229509e-2, 7.324219e-3, 540833.94, -0.00000000000000000000000010997655, -0.00000000043056445, -0.0029134245, 0.0, 540833.94, 540833.94, 0.24292664, 0.0049180714, 0.0048828125 
1.7213124e-2, 2.4414063e-3, 540834.2, -0.00000000000000000000000009750913, -0.00000000040542625, -0.0040788706, 0.0, 540834.2, 540834.2, 0.24292581, 0.0049180714, 0.0048828125 
1.7213124e-2, 7.324219e-3, 540834.2, -0.00000000000000000000000009784588, -0.00000000040612572, -0.0040788706, 0.0, 540834.2, 540834.2, 0.24292581, 0.0049180714, 0.0048828125 
2.213116e-2, 2.4414063e-3, 540826.56, -0.000000000000000000000000012038309, -0.00000000014245244, -0.0052444087, 0.0, 540826.56, 540826.56, 0.24292494, 0.004918071, 0.0048828125 
2.213116e-2, 7.324219e-3, 540826.56, -0.000000000000000000000000012070801, -0.00000000014264456, -0.0052444087, 0.0, 540826.56, 540826.56, 0.24292494, 0.004918071, 0.0048828125 
2.7049196e-2, 2.4414063e-3, 540826.5, -0.000000000000000000000000063411653, 0.0000000003269435, -0.006410029, 0.0, 540826.5, 540826.5, 0.24292406, 0.004918071, 0.0048828125 
2.7049196e-2, 7.324219e-3, 540826.5, -0.00000000000000000000000006325586, 0.00000000032654163, -0.006410029, 0.0, 540826.5, 540826.5, 0.24292406, 0.004918071, 0.0048828125 
3.196723e-2, 2.4414063e-3, 540815.5, -0.000000000000000000000000099175365, 0.00000000040887138, -0.0075757913, 0.0, 540815.5, 540815.5, 0.24292317, 0.00491807, 0.0048828125 
3.196723e-2, 7.324219e-3, 540815.5, -0.00000000000000000000000009883382, 0.00000000040816672, -0.0075757913, 0.0, 540815.5, 540815.5, 0.24292317, 0.00491807, 0.0048828125 
3.6885265e-2, 2.4414063e-3, 540814.94, -0.000000000000000000000000017509242, 0.00000000017179849, -0.008741675, 0.0, 540814.94, 540814.94, 0.24292225, 0.00491807, 0.0048828125 
3.6885265e-2, 7.324219e-3, 540814.94, -0.00000000000000000000000001736141, 0.00000000017107168, -0.008741675, 0.0, 540814.94, 540814.94, 0.24292225, 0.00491807, 0.0048828125 
4.1803297e-2, 2.4414063e-3, 540800.7, -0.00000000000000000000000000010700233, -0.000000000013430051, -0.00990775, 0.0, 540800.7, 540800.7, 0.24292131, 0.004918069, 0.0048828125 
4.1803297e-2, 7.324219e-3, 540800.7, -0.00000000000000000000000000008998963, -0.000000000012316216, -0.00990775, 0.0, 540800.7, 540800.7, 0.24292131, 0.004918069, 0.0048828125 
4.6721333e-2, 2.4414063e-3, 540799.5, -0.000000000000000000000000014881605, -0.00000000015838228, -0.0110739805, 0.0, 540799.5, 540799.5, 0.24292034, 0.004918069, 0.0048828125 
4.6721333e-2, 7.324219e-3, 540799.5, -0.000000000000000000000000014776825, -0.00000000015782373, -0.0110739805, 0.0, 540799.5, 540799.5, 0.24292034, 0.004918069, 0.0048828125 
5.1639366e-2, 2.4414063e-3, 540782.2, -0.000000000000000000000000013467477, -0.00000000015066731, -0.012240455, 0.0, 540782.2, 540782.2, 0.24291936, 0.0049180677, 0.0048828125 
5.1639366e-2, 7.324219e-3, 540782.2, -0.000000000000000000000000013495045, -0.00000000015082144, -0.012240455, 0.0, 540782.2, 540782.2, 0.24291936, 0.0049180677, 0.0048828125 
5.6557393e-2, 2.4414063e-3, 540780.2, -0.00000000000000000000000000025222645, -0.000000000020619192, -0.013407116, 0.0, 540780.2, 540780.2, 0.24291834, 0.0049180677, 0.0048828125 
5.6557393e-2, 7.324219e-3, 540780.2, -0.000000000000000000000000000283219, -0.0000000000218493, -0.013407116, 0.0, 540780.2, 540780.2, 0.24291834, 0.0049180677, 0.0048828125 
6.1475426e-2, 2.4414063e-3, 540759.94, -0.0000000000000000000000000046827742, -0.00000000008884255, -0.014574074, 0.0, 540759.94, 540759.94, 0.2429173, 0.0049180663, 0.0048828125 
6.1475426e-2, 7.324219e-3, 540759.94, -0.0000000000000000000000000045789643, -0.00000000008785228, -0.014574074, 0.0, 540759.94, 540759.94, 0.2429173, 0.0049180663, 0.0048828125 
6.639346e-2, 2.4414063e-3, 540757.1, -0.000000000000000000000000057022065, -0.00000000031002093, -0.015741251, 0.0, 540757.1, 540757.1, 0.24291623, 0.004918066, 0.0048828125 
6.639346e-2, 7.324219e-3, 540757.1, -0.00000000000000000000000005681123, -0.00000000030944725, -0.015741251, 0.0, 540757.1, 540757.1, 0.24291623, 0.004918066, 0.0048828125 
7.131148e-2, 2.4414063e-3, 540734.0, -0.0000000000000000000000000080300825, -0.00000000011633798, -0.01690878, 0.0, 540734.0, 540734.0, 0.24291514, 0.0049180645, 0.0048828125 
7.131148e-2, 7.324219e-3, 540734.0, -0.000000000000000000000000007963402, -0.00000000011585395, -0.01690878, 0.0, 540734.0, 540734.0, 0.24291514, 0.0049180645, 0.0048828125 
7.622951e-2, 2.4414063e-3, 540730.1, -0.00000000000000000000000008862865, 0.000000000386499, -0.018076554, 0.0, 540730.1, 540730.1, 0.24291402, 0.004918064, 0.0048828125 
7.622951e-2, 7.324219e-3, 540730.1, -0.0000000000000000000000000898905, 0.00000000038924067, -0.018076554, 0.0, 540730.1, 540730.1, 0.24291402, 0.004918064, 0.0048828125 
8.114754e-2, 2.4414063e-3, 540704.25, -0.00000000000000000000000011495021, 0.00000000044015652, -0.01924474, 0.0, 540704.25, 540704.25, 0.24291289, 0.004918062, 0.0048828125 
8.114754e-2, 7.324219e-3, 540704.25, -0.00000000000000000000000011479186, 0.00000000043985324, -0.01924474, 0.0, 540704.25, 540704.25, 0.24291289, 0.004918062, 0.0048828125 
8.6065567e-2, 2.4414063e-3, 540699.3, -0.00000000000000000000000002277779, 0.00000000019593294, -0.0204132, 0.0, 540699.3, 540699.3, 0.24291171, 0.004918062, 0.0048828125 
8.6065567e-2, 7.324219e-3, 540699.3, -0.000000000000000000000000022412939, 0.00000000019435739, -0.0204132, 0.0, 540699.3, 540699.3, 0.24291171, 0.004918062, 0.0048828125 
9.0983593e-2, 2.4414063e-3, 540670.8, -0.00000000000000000000000003796026, -0.00000000025293342, -0.02158213, 0.0, 540670.8, 540670.8, 0.24291052, 0.0049180603, 0.0048828125 
9.0983593e-2, 7.324219e-3, 540670.8, -0.000000000000000000000000038200183, -0.00000000025373148, -0.02158213, 0.0, 540670.8, 540670.8, 0.24291052, 0.0049180603, 0.0048828125 
9.5901614e-2, 2.4414063e-3, 540664.6, -0.00000000000000000000000041227666, -0.00000000083355634, -0.02275136, 0.0, 540664.6, 540664.6, 0.24290928, 0.00491806, 0.0048828125 
9.5901614e-2, 7.324219e-3, 540664.6, -0.00000000000000000000000041355266, -0.00000000083484525, -0.02275136, 0.0, 540664.6, 540664.6, 0.24290928, 0.00491806, 0.0048828125 
1.0081963e-1, 2.4414063e-3, 540633.6, -0.000000000000000000000000058586043, -0.00000000031421482, -0.023921123, 0.0, 540633.6, 540633.6, 0.24290803, 0.0049180575, 0.0048828125 
1.0081963e-1, 7.324219e-3, 540633.6, -0.000000000000000000000000057523355, -0.00000000031135203, -0.023921123, 0.0, 540633.6, 540633.6, 0.24290803, 0.0049180575, 0.0048828125 
1.0573766e-1, 2.4414063e-3, 540626.1, -0.0000000000000000000000004236582, 0.00000000084495955, -0.025091212, 0.0, 540626.1, 540626.1, 0.24290675, 0.004918057, 0.0048828125 
1.0573766e-1, 7.324219e-3, 540626.1, -0.0000000000000000000000004235679, 0.0000000008448695, -0.025091212, 0.0, 540626.1, 540626.1, 0.24290675, 0.004918057, 0.0048828125 
1.1065567e-1, 2.4414063e-3, 540592.7, -0.0000000000000000000000002947263, 0.0000000007047347, -0.0262619, 0.0, 540592.7, 540592.7, 0.24290542, 0.0049180547, 0.0048828125 
1.1065567e-1, 7.324219e-3, 540592.7, -0.00000000000000000000000029422416, 0.00000000070413414, -0.0262619, 0.0, 540592.7, 540592.7, 0.24290542, 0.0049180547, 0.0048828125 
1.155737e-1, 2.4414063e-3, 540583.75, -0.0000000000000000000000000057234536, -0.00000000009820719, -0.027432935, 0.0, 540583.75, 540583.75, 0.24290408, 0.004918054, 0.0048828125 
1.155737e-1, 7.324219e-3, 540583.75, -0.0000000000000000000000000056163942, -0.000000000097284354, -0.027432935, 0.0, 540583.75, 540583.75, 0.24290408, 0.004918054, 0.0048828125 
1.2049171e-1, 2.4414063e-3, 540548.0, -0.000000000000000000000000032907234, -0.00000000023547628, -0.028604636, 0.0, 540548.0, 540548.0, 0.2429027, 0.0049180514, 0.0048828125 
1.2049171e-1, 7.324219e-3, 540548.0, -0.000000000000000000000000033390655, -0.0000000002371996, -0.028604636, 0.0, 540548.0, 540548.0, 0.2429027, 0.0049180514, 0.0048828125 
1.2540972e-1, 2.4414063e-3, 540537.5, -0.0000000000000000000000000006122643, -0.00000000003211947, -0.02977671, 0.0, 540537.5, 540537.5, 0.2429013, 0.004918051, 0.0048828125 
1.2540972e-1, 7.324219e-3, 540537.5, -0.00000000000000000000000000059245173, -0.00000000003159551, -0.02977671, 0.0, 540537.5, 540537.5, 0.2429013, 0.004918051, 0.0048828125 
1.3032773e-1, 2.4414063e-3, 540499.5, -0.00000000000000000000000000010321713, -0.000000000013187462, -0.030949512, 0.0, 540499.5, 540499.5, 0.24289985, 0.004918048, 0.0048828125 
1.3032773e-1, 7.324219e-3, 540499.5, -0.00000000000000000000000000009132763, -0.000000000012404705, -0.030949512, 0.0, 540499.5, 540499.5, 0.24289985, 0.004918048, 0.0048828125 
1.3524576e-1, 2.4414063e-3, 540487.3, -0.00000000000000000000000000252492, -0.000000000065223785, -0.03212271, 0.0, 540487.3, 540487.3, 0.24289837, 0.004918047, 0.0048828125 
1.3524576e-1, 7.324219e-3, 540487.3, -0.0000000000000000000000000026702235, -0.00000000006707428, -0.03212271, 0.0, 540487.3, 540487.3, 0.24289837, 0.004918047, 0.0048828125 
1.4016376e-1, 2.4414063e-3, 540447.2, -0.000000000000000000000000003374888, -0.00000000007540455, -0.033296704, 0.0, 540447.2, 540447.2, 0.24289685, 0.004918045, 0.0048828125 
1.4016376e-1, 7.324219e-3, 540447.2, -0.0000000000000000000000000034380357, -0.00000000007610673, -0.033296704, 0.0, 540447.2, 540447.2, 0.24289685, 0.004918045, 0.0048828125 
1.4508177e-1, 2.4414063e-3, 540433.3, -0.000000000000000000000000007913093, -0.00000000011546151, -0.034471117, 0.0, 540433.3, 540433.3, 0.2428953, 0.0049180435, 0.0048828125 
1.4508177e-1, 7.324219e-3, 540433.3, -0.0000000000000000000000000083704675, -0.00000000011875145, -0.034471117, 0.0, 540433.3, 540433.3, 0.2428953, 0.0049180435, 0.0048828125 
1.4999977e-1, 2.4414063e-3, 540391.2, -0.00000000000000000000000002855241, -0.00000000021931605, -0.035646398, 0.0, 540391.2, 540391.2, 0.24289373, 0.0049180407, 0.0048828125 
1.4999977e-1, 7.324219e-3, 540391.2, -0.000000000000000000000000028585173, -0.00000000021944184, -0.035646398, 0.0, 540391.2, 540391.2, 0.24289373, 0.0049180407, 0.0048828125 
1.5491778e-1, 2.4414063e-3, 540375.3, -0.000000000000000000000000022955717, -0.00000000019664821, -0.03682211, 0.0, 540375.3, 540375.3, 0.24289212, 0.00491804, 0.0048828125 
1.5491778e-1, 7.324219e-3, 540375.3, -0.000000000000000000000000023738165, -0.00000000019997153, -0.03682211, 0.0, 540375.3, 540375.3, 0.24289212, 0.00491804, 0.0048828125 
1.5983579e-1, 2.4414063e-3, 540331.3, -0.000000000000000000000000020467528, 0.00000000018567846, -0.037998762, 0.0, 540331.3, 540331.3, 0.24289046, 0.0049180365, 0.0048828125 
1.5983579e-1, 7.324219e-3, 540331.3, -0.000000000000000000000000020266783, 0.00000000018476565, -0.037998762, 0.0, 540331.3, 540331.3, 0.24289046, 0.0049180365, 0.0048828125 
1.6475378e-1, 2.4414063e-3, 540313.5, -0.00000000000000000000000016456307, 0.00000000052648963, -0.039175868, 0.0, 540313.5, 540313.5, 0.24288876, 0.0049180356, 0.0048828125 
1.6475378e-1, 7.324219e-3, 540313.5, -0.0000000000000000000000001633732, 0.0000000005245828, -0.039175868, 0.0, 540313.5, 540313.5, 0.24288876, 0.0049180356, 0.0048828125 
1.6967177e-1, 2.4414063e-3, 540267.7, -0.000000000000000000000000005376448, 0.00000000009516012, -0.040353984, 0.0, 540267.7, 540267.7, 0.24288705, 0.0049180323, 0.0048828125 
1.6967177e-1, 7.324219e-3, 540267.7, -0.000000000000000000000000005376448, 0.00000000009516012, -0.040353984, 0.0, 540267.7, 540267.7, 0.24288705, 0.0049180323, 0.0048828125 
1.7458977e-1, 2.4414063e-3, 540247.7, -0.00000000000000000000000010301559, -0.00000000041653625, -0.041532572, 0.0, 540247.7, 540247.7, 0.24288528, 0.004918031, 0.0048828125 
1.7458977e-1, 7.324219e-3, 540247.7, -0.0000000000000000000000001029471, -0.00000000041639775, -0.041532572, 0.0, 540247.7, 540247.7, 0.24288528, 0.004918031, 0.0048828125 
1.7950776e-1, 2.4414063e-3, 540200.2, -0.00000000000000000000000006779747, -0.00000000033790226, -0.042712245, 0.0, 540200.2, 540200.2, 0.24288347, 0.0049180277, 0.0048828125 
1.7950776e-1, 7.324219e-3, 540200.2, -0.00000000000000000000000006779747, -0.00000000033790226, -0.042712245, 0.0, 540200.2, 540200.2, 0.24288347, 0.0049180277, 0.0048828125 
1.8442576e-1, 2.4414063e-3, 540177.94, -0.00000000000000000000000001346908, -0.00000000015060748, -0.04389241, 0.0, 540177.94, 540177.94, 0.24288163, 0.0049180263, 0.0048828125 
1.8442576e-1, 7.324219e-3, 540177.94, -0.00000000000000000000000001319208, -0.00000000014905076, -0.04389241, 0.0, 540177.94, 540177.94, 0.24288163, 0.0049180263, 0.0048828125 
1.8934374e-1, 2.4414063e-3, 540128.9, -0.000000000000000000000000000010144238, 0.0000000000041330416, -0.045073733, 0.0, 540128.9, 540128.9, 0.24287975, 0.004918023, 0.0048828125 
1.8934374e-1, 7.324219e-3, 540128.9, -0.00000000000000000000000000000051106343, 0.0000000000009276785, -0.045073733, 0.0, 540128.9, 540128.9, 0.24287975, 0.004918023, 0.0048828125 
1.9426173e-1, 2.4414063e-3, 540104.25, -0.000000000000000000000000006812877, 0.00000000010710696, -0.046255562, 0.0, 540104.25, 540104.25, 0.24287783, 0.004918021, 0.0048828125 
1.9426173e-1, 7.324219e-3, 540104.25, -0.000000000000000000000000006749841, 0.00000000010661032, -0.046255562, 0.0, 540104.25, 540104.25, 0.24287783, 0.004918021, 0.0048828125 
1.9917971e-1, 2.4414063e-3, 540053.75, -0.0000000000000000000000000003192273, 0.00000000002318379, -0.047438625, 0.0, 540053.75, 540053.75, 0.24287586, 0.004918018, 0.0048828125 
1.9917971e-1, 7.324219e-3, 540053.75, -0.00000000000000000000000000020133679, 0.00000000001841179, -0.047438625, 0.0, 540053.75, 540053.75, 0.24287586, 0.004918018, 0.0048828125 
2.0409769e-1, 2.4414063e-3, 540026.6, -0.00000000000000000000000000042908236, -0.000000000026877955, -0.048622217, 0.0, 540026.6, 540026.6, 0.24287386, 0.004918016, 0.0048828125 
2.0409769e-1, 7.324219e-3, 540026.6, -0.0000000000000000000000000004960739, -0.000000000028900082, -0.048622217, 0.0, 540026.6, 540026.6, 0.24287386, 0.004918016, 0.0048828125 
2.0901567e-1, 2.4414063e-3, 539974.7, -0.00000000000000000000000007810033, 0.00000000036260506, -0.04980711, 0.0, 539974.7, 539974.7, 0.2428718, 0.0049180123, 0.0048828125 
2.0901567e-1, 7.324219e-3, 539974.7, -0.00000000000000000000000007858175, 0.00000000036372091, -0.04980711, 0.0, 539974.7, 539974.7, 0.2428718, 0.0049180123, 0.0048828125 
2.1393365e-1, 2.4414063e-3, 539944.94, -0.00000000000000000000000032951317, 0.00000000074479084, -0.05099255, 0.0, 539944.94, 539944.94, 0.24286972, 0.0049180104, 0.0048828125 
2.1393365e-1, 7.324219e-3, 539944.94, -0.000000000000000000000000332186, 0.0000000007478054, -0.05099255, 0.0, 539944.94, 539944.94, 0.24286972, 0.0049180104, 0.0048828125 
2.1885161e-1, 2.4414063e-3, 539891.8, -0.000000000000000000000000038988504, 0.00000000025618124, -0.052179366, 0.0, 539891.8, 539891.8, 0.24286759, 0.0049180067, 0.0048828125 
2.1885161e-1, 7.324219e-3, 539891.8, -0.000000000000000000000000038988504, 0.00000000025618124, -0.052179366, 0.0, 539891.8, 539891.8, 0.24286759, 0.0049180067, 0.0048828125 
2.2376959e-1, 2.4414063e-3, 539859.3, -0.00000000000000000000000013599968, -0.000000000478451, -0.053366743, 0.0, 539859.3, 539859.3, 0.24286541, 0.0049180044, 0.0048828125 
2.2376959e-1, 7.324219e-3, 539859.3, -0.00000000000000000000000013380646, -0.00000000047457743, -0.053366743, 0.0, 539859.3, 539859.3, 0.24286541, 0.0049180044, 0.0048828125 
2.2868755e-1, 2.4414063e-3, 539805.06, -0.00000000000000000000000020144734, -0.0000000005822776, -0.05455557, 0.0, 539805.06, 539805.06, 0.2428632, 0.0049180007, 0.0048828125 
2.2868755e-1, 7.324219e-3, 539805.06, -0.00000000000000000000000019875921, -0.0000000005783796, -0.05455557, 0.0, 539805.06, 539805.06, 0.2428632, 0.0049180007, 0.0048828125 
2.336055e-1, 2.4414063e-3, 539769.6, -0.00000000000000000000000011794009, -0.0000000004455213, -0.055744972, 0.0, 539769.6, 539769.6, 0.24286093, 0.0049179983, 0.0048828125 
2.336055e-1, 7.324219e-3, 539769.6, -0.00000000000000000000000011459371, -0.0000000004391553, -0.055744972, 0.0, 539769.6, 539769.6, 0.24286093, 0.0049179983, 0.0048828125 
2.3852347e-1, 2.4414063e-3, 539714.4, -0.00000000000000000000000003661948, -0.00000000024824146, -0.056935895, 0.0, 539714.4, 539714.4, 0.24285862, 0.0049179946, 0.0048828125 
2.3852347e-1, 7.324219e-3, 539714.4, -0.00000000000000000000000003667703, -0.00000000024843647, -0.056935895, 0.0, 539714.4, 539714.4, 0.24285862, 0.0049179946, 0.0048828125 
2.4344143e-1, 2.4414063e-3, 539675.94, -0.000000000000000000000000009256722, -0.00000000012480562, -0.058127414, 0.0, 539675.94, 539675.94, 0.24285628, 0.004917992, 0.0048828125 
2.4344143e-1, 7.324219e-3, 539675.94, -0.000000000000000000000000010194076, -0.0000000001309723, -0.058127414, 0.0, 539675.94, 539675.94, 0.24285628, 0.004917992, 0.0048828125 
2.4835938e-1, 2.4414063e-3, 539619.75, -0.000000000000000000000000063180153, 0.00000000032604391, -0.059320528, 0.0, 539619.75, 539619.75, 0.24285388, 0.004917988, 0.0048828125 
2.4835938e-1, 7.324219e-3, 539619.75, -0.000000000000000000000000060705534, 0.00000000031959493, -0.059320528, 0.0, 539619.75, 539619.75, 0.24285388, 0.004917988, 0.0048828125 
2.5327733e-1, 2.4414063e-3, 539578.2, -0.0000000000000000000000005077059, 0.00000000092422564, -0.060514253, 0.0, 539578.2, 539578.2, 0.24285144, 0.0049179853, 0.0048828125 
2.5327733e-1, 7.324219e-3, 539578.2, -0.0000000000000000000000005039256, 0.00000000092077834, -0.060514253, 0.0, 539578.2, 539578.2, 0.24285144, 0.0049179853, 0.0048828125 
2.5819528e-1, 2.4414063e-3, 539521.25, -0.00000000000000000000000014110128, 0.0000000004872114, -0.061709654, 0.0, 539521.25, 539521.25, 0.24284895, 0.0049179816, 0.0048828125 
2.5819528e-1, 7.324219e-3, 539521.25, -0.00000000000000000000000014110128, 0.0000000004872114, -0.061709654, 0.0, 539521.25, 539521.25, 0.24284895, 0.0049179816, 0.0048828125 
2.6311323e-1, 2.4414063e-3, 539476.4, -0.00000000000000000000000003793323, -0.0000000002526078, -0.06290568, 0.0, 539476.4, 539476.4, 0.2428464, 0.0049179783, 0.0048828125 
2.6311323e-1, 7.324219e-3, 539476.4, -0.000000000000000000000000039490106, -0.0000000002577395, -0.06290568, 0.0, 539476.4, 539476.4, 0.2428464, 0.0049179783, 0.0048828125 
2.6803115e-1, 2.4414063e-3, 539418.75, -0.00000000000000000000000014201287, -0.000000000488743, -0.06410346, 0.0, 539418.75, 539418.75, 0.24284382, 0.0049179746, 0.0048828125 
2.6803115e-1, 7.324219e-3, 539418.75, -0.00000000000000000000000014201287, -0.000000000488743, -0.06410346, 0.0, 539418.75, 539418.75, 0.24284382, 0.0049179746, 0.0048828125 
2.729491e-1, 2.4414063e-3, 539370.44, -0.00000000000000000000000015616347, -0.00000000051249555, -0.06530189, 0.0, 539370.44, 539370.44, 0.24284118, 0.0049179713, 0.0048828125 
2.729491e-1, 7.324219e-3, 539370.44, -0.0000000000000000000000001566807, -0.00000000051334353, -0.06530189, 0.0, 539370.44, 539370.44, 0.24284118, 0.0049179713, 0.0048828125 
2.7786702e-1, 2.4414063e-3, 539312.3, -0.000000000000000000000000001934791, 0.000000000057042315, -0.066502154, 0.0, 539312.3, 539312.3, 0.24283852, 0.004917967, 0.0048828125 
2.7786702e-1, 7.324219e-3, 539312.3, -0.0000000000000000000000000018143117, 0.000000000055237762, -0.066502154, 0.0, 539312.3, 539312.3, 0.24283852, 0.004917967, 0.0048828125 
2.8278497e-1, 2.4414063e-3, 539260.5, -0.00000000000000000000000022410192, 0.00000000061388244, -0.06770309, 0.0, 539260.5, 539260.5, 0.24283579, 0.0049179634, 0.0048828125 
2.8278497e-1, 7.324219e-3, 539260.5, -0.00000000000000000000000022467086, 0.0000000006146612, -0.06770309, 0.0, 539260.5, 539260.5, 0.24283579, 0.0049179634, 0.0048828125 
2.877029e-1, 2.4414063e-3, 539201.94, -0.00000000000000000000000000748011, 0.00000000011214918, -0.06890594, 0.0, 539201.94, 539201.94, 0.24283302, 0.0049179597, 0.0048828125 
2.877029e-1, 7.324219e-3, 539201.94, -0.00000000000000000000000000748011, 0.00000000011214918, -0.06890594, 0.0, 539201.94, 539201.94, 0.24283302, 0.0049179597, 0.0048828125 
2.926208e-1, 2.4414063e-3, 539146.4, -0.000000000000000000000000092245376, -0.00000000039381784, -0.07010949, 0.0, 539146.4, 539146.4, 0.24283019, 0.004917956, 0.0048828125 
2.926208e-1, 7.324219e-3, 539146.4, -0.000000000000000000000000092462116, -0.00000000039428022, -0.07010949, 0.0, 539146.4, 539146.4, 0.24283019, 0.004917956, 0.0048828125 
2.9753873e-1, 2.4414063e-3, 539087.5, -0.000000000000000000000000022904672, 0.00000000019622973, -0.07131503, 0.0, 539087.5, 539087.5, 0.24282731, 0.0049179518, 0.0048828125 
2.9753873e-1, 7.324219e-3, 539087.5, -0.000000000000000000000000022904672, 0.00000000019622973, -0.07131503, 0.0, 539087.5, 539087.5, 0.24282731, 0.0049179518, 0.0048828125 
3.0245662e-1, 2.4414063e-3, 539028.1, -0.00000000000000000000000029787915, 0.0000000007076236, -0.07252127, 0.0, 539028.1, 539028.1, 0.2428244, 0.0049179476, 0.0048828125 
3.0245662e-1, 7.324219e-3, 539028.1, -0.00000000000000000000000030098404, 0.00000000071130196, -0.07252127, 0.0, 539028.1, 539028.1, 0.2428244, 0.0049179476, 0.0048828125 
3.0737454e-1, 2.4414063e-3, 538969.06, -0.000000000000000000000000000046939294, -0.000000000008882398, -0.07372959, 0.0, 538969.06, 538969.06, 0.24282143, 0.004917944, 0.0048828125 
3.0737454e-1, 7.324219e-3, 538969.06, -0.000000000000000000000000000046939294, -0.000000000008882398, -0.07372959, 0.0, 538969.06, 538969.06, 0.24282143, 0.004917944, 0.0048828125 
3.1229243e-1, 2.4414063e-3, 538905.75, -0.00000000000000000000000031912754, -0.00000000073235584, -0.07493864, 0.0, 538905.75, 538905.75, 0.24281842, 0.0049179397, 0.0048828125 
3.1229243e-1, 7.324219e-3, 538905.75, -0.00000000000000000000000032053568, -0.00000000073396983, -0.07493864, 0.0, 538905.75, 538905.75, 0.24281842, 0.0049179397, 0.0048828125 
3.1721035e-1, 2.4414063e-3, 538846.6, -0.000000000000000000000000010969093, -0.00000000013577041, -0.07614983, 0.0, 538846.6, 538846.6, 0.24281535, 0.0049179355, 0.0048828125 
3.1721035e-1, 7.324219e-3, 538846.6, -0.000000000000000000000000010969093, -0.00000000013577041, -0.07614983, 0.0, 538846.6, 538846.6, 0.24281535, 0.0049179355, 0.0048828125 
3.2212824e-1, 2.4414063e-3, 538779.2, -0.0000000000000000000000002200676, 0.00000000060809907, -0.07736176, 0.0, 538779.2, 538779.2, 0.24281223, 0.004917931, 0.0048828125 
3.2212824e-1, 7.324219e-3, 538779.2, -0.00000000000000000000000022057828, 0.00000000060880423, -0.07736176, 0.0, 538779.2, 538779.2, 0.24281223, 0.004917931, 0.0048828125 
3.2704613e-1, 2.4414063e-3, 538720.06, -0.000000000000000000000000026617603, 0.0000000002114758, -0.07857591, 0.0, 538720.06, 538720.06, 0.24280906, 0.0049179266, 0.0048828125 
3.2704613e-1, 7.324219e-3, 538720.06, -0.000000000000000000000000026617603, 0.0000000002114758, -0.07857591, 0.0, 538720.06, 538720.06, 0.24280906, 0.0049179266, 0.0048828125 
3.3196402e-1, 2.4414063e-3, 538648.44, -0.00000000000000000000000009468565, -0.0000000003988349, -0.07979083, 0.0, 538648.44, 538648.44, 0.24280585, 0.004917922, 0.0048828125 
3.3196402e-1, 7.324219e-3, 538648.44, -0.00000000000000000000000009535807, -0.00000000040024858, -0.07979083, 0.0, 538648.44, 538648.44, 0.24280585, 0.004917922, 0.0048828125 
3.368819e-1, 2.4414063e-3, 538589.5, -0.000000000000000000000000020836277, -0.00000000018708599, -0.08100803, 0.0, 538589.5, 538589.5, 0.24280259, 0.004917918, 0.0048828125 
3.368819e-1, 7.324219e-3, 538589.5, -0.000000000000000000000000020836277, -0.00000000018708599, -0.08100803, 0.0, 538589.5, 538589.5, 0.24280259, 0.004917918, 0.0048828125 
3.4179977e-1, 2.4414063e-3, 538513.5, -0.00000000000000000000000002964955, 0.00000000022315853, -0.08222603, 0.0, 538513.5, 538513.5, 0.24279927, 0.0049179127, 0.0048828125 
3.4179977e-1, 7.324219e-3, 538513.5, -0.00000000000000000000000003091265, 0.00000000022786234, -0.08222603, 0.0, 538513.5, 538513.5, 0.24279927, 0.0049179127, 0.0048828125 
3.4671766e-1, 2.4414063e-3, 538454.9, -0.00000000000000000000000016696825, 0.0000000005295436, -0.08344638, 0.0, 538454.9, 538454.9, 0.2427959, 0.0049179085, 0.0048828125 
3.4671766e-1, 7.324219e-3, 538454.9, -0.00000000000000000000000016696825, 0.0000000005295436, -0.08344638, 0.0, 538454.9, 538454.9, 0.2427959, 0.0049179085, 0.0048828125 
3.5163552e-1, 2.4414063e-3, 538374.3, -0.00000000000000000000000018012234, 0.00000000054997135, -0.084667556, 0.0, 538374.3, 538374.3, 0.24279249, 0.0049179033, 0.0048828125 
3.5163552e-1, 7.324219e-3, 538374.3, -0.00000000000000000000000017914896, 0.0000000005484833, -0.084667556, 0.0, 538374.3, 538374.3, 0.24279249, 0.0049179033, 0.0048828125 
3.5655338e-1, 2.4414063e-3, 538316.1, -0.00000000000000000000000034678989, -0.00000000076308004, -0.085891165, 0.0, 538316.1, 538316.1, 0.24278903, 0.004917899, 0.0048828125 
3.5655338e-1, 7.324219e-3, 538316.1, -0.00000000000000000000000034678989, -0.00000000076308004, -0.085891165, 0.0, 538316.1, 538316.1, 0.24278903, 0.004917899, 0.0048828125 
3.6147124e-1, 2.4414063e-3, 538230.94, -0.0000000000000000000000019902955, -0.0000000018279547, -0.08711562, 0.0, 538230.94, 538230.94, 0.24278551, 0.0049178936, 0.0048828125 
3.6147124e-1, 7.324219e-3, 538230.94, -0.0000000000000000000000019876003, -0.0000000018267167, -0.08711562, 0.0, 538230.94, 538230.94, 0.24278551, 0.0049178936, 0.0048828125 
3.663891e-1, 2.4414063e-3, 538173.25, -0.00000000000000000000000006921343, 0.00000000034086528, -0.0883426, 0.0, 538173.25, 538173.25, 0.24278195, 0.0049178894, 0.0048828125 
3.663891e-1, 7.324219e-3, 538173.25, -0.00000000000000000000000006921343, 0.00000000034086528, -0.0883426, 0.0, 538173.25, 538173.25, 0.24278195, 0.0049178894, 0.0048828125 
3.7130693e-1, 2.4414063e-3, 538083.25, -0.000000000000000000000003537254, 0.0000000024366247, -0.08957045, 0.0, 538083.25, 538083.25, 0.24277835, 0.0049178833, 0.0048828125 
3.7130693e-1, 7.324219e-3, 538083.25, -0.0000000000000000000000035238898, 0.0000000024320175, -0.08957045, 0.0, 538083.25, 538083.25, 0.24277835, 0.0049178833, 0.0048828125 
3.762248e-1, 2.4414063e-3, 538026.25, -0.000000000000000000000000022287225, 0.00000000019340372, -0.09080088, 0.0, 538026.25, 538026.25, 0.24277468, 0.0049178796, 0.0048828125 
3.762248e-1, 7.324219e-3, 538026.25, -0.000000000000000000000000022287225, 0.00000000019340372, -0.09080088, 0.0, 538026.25, 538026.25, 0.24277468, 0.0049178796, 0.0048828125 
3.8114262e-1, 2.4414063e-3, 537931.3, -0.000000000000000000000002959613, -0.0000000022285396, -0.09203223, 0.0, 537931.3, 537931.3, 0.24277097, 0.004917873, 0.0048828125 
3.8114262e-1, 7.324219e-3, 537931.3, -0.0000000000000000000000029520116, -0.0000000022256759, -0.09203223, 0.0, 537931.3, 537931.3, 0.24277097, 0.004917873, 0.0048828125 
3.8606045e-1, 2.4414063e-3, 537875.06, -0.00000000000000000000000017517119, -0.0000000005421456, -0.09326623, 0.0, 537875.06, 537875.06, 0.24276721, 0.0049178693, 0.0048828125 
3.8606045e-1, 7.324219e-3, 537875.06, -0.00000000000000000000000017517119, -0.0000000005421456, -0.09326623, 0.0, 537875.06, 537875.06, 0.24276721, 0.0049178693, 0.0048828125 
3.9097828e-1, 2.4414063e-3, 537775.06, -0.0000000000000000000000010343834, 0.0000000013173145, -0.09450116, 0.0, 537775.06, 537775.06, 0.2427634, 0.0049178624, 0.0048828125 
3.9097828e-1, 7.324219e-3, 537775.06, -0.0000000000000000000000010316064, 0.000000001315545, -0.09450116, 0.0, 537775.06, 537775.06, 0.2427634, 0.0049178624, 0.0048828125 
3.958961e-1, 2.4414063e-3, 537719.7, -0.0000000000000000000000000028357991, 0.000000000068971336, -0.095738806, 0.0, 537719.7, 537719.7, 0.24275954, 0.0049178586, 0.0048828125 
3.958961e-1, 7.324219e-3, 537719.7, -0.0000000000000000000000000028357991, 0.000000000068971336, -0.095738806, 0.0, 537719.7, 537719.7, 0.24275954, 0.0049178586, 0.0048828125 
4.008139e-1, 2.4414063e-3, 537614.5, -0.0000000000000000000000006460251, -0.0000000010409208, -0.09697743, 0.0, 537614.5, 537614.5, 0.24275564, 0.0049178516, 0.0048828125 
4.008139e-1, 7.324219e-3, 537614.5, -0.0000000000000000000000006448712, -0.0000000010399908, -0.09697743, 0.0, 537614.5, 537614.5, 0.24275564, 0.0049178516, 0.0048828125 
4.0573174e-1, 2.4414063e-3, 537560.2, -0.000000000000000000000000026703157, 0.00000000021162015, -0.09821881, 0.0, 537560.2, 537560.2, 0.24275169, 0.0049178475, 0.0048828125 
4.0573174e-1, 7.324219e-3, 537560.2, -0.000000000000000000000000026703157, 0.00000000021162015, -0.09821881, 0.0, 537560.2, 537560.2, 0.24275169, 0.0049178475, 0.0048828125 
4.1064954e-1, 2.4414063e-3, 537449.56, -0.0000000000000000000000006707718, 0.0000000010605304, -0.09946121, 0.0, 537449.56, 537449.56, 0.24274768, 0.00491784, 0.0048828125 
4.1064954e-1, 7.324219e-3, 537449.56, -0.0000000000000000000000006754362, 0.0000000010642115, -0.09946121, 0.0, 537449.56, 537449.56, 0.24274768, 0.00491784, 0.0048828125 
4.1556734e-1, 2.4414063e-3, 537396.44, -0.0000000000000000000000000004372971, -0.000000000027077424, -0.10070643, 0.0, 537396.44, 537396.44, 0.24274363, 0.0049178367, 0.0048828125 
4.1556734e-1, 7.324219e-3, 537396.44, -0.0000000000000000000000000004372971, -0.000000000027077424, -0.10070643, 0.0, 537396.44, 537396.44, 0.24274363, 0.0049178367, 0.0048828125 
4.2048514e-1, 2.4414063e-3, 537280.3, -0.00000000000000000000000027473025, -0.00000000067862554, -0.10195269, 0.0, 537280.3, 537280.3, 0.24273953, 0.004917829, 0.0048828125 
4.2048514e-1, 7.324219e-3, 537280.3, -0.00000000000000000000000027460216, -0.0000000006784673, -0.10195269, 0.0, 537280.3, 537280.3, 0.24273953, 0.004917829, 0.0048828125 
4.254029e-1, 2.4414063e-3, 537228.44, -0.00000000000000000000000013271429, -0.0000000004716499, -0.10320183, 0.0, 537228.44, 537228.44, 0.24273539, 0.004917825, 0.0048828125 
4.254029e-1, 7.324219e-3, 537228.44, -0.00000000000000000000000012973125, -0.00000000046631904, -0.10320183, 0.0, 537228.44, 537228.44, 0.24273539, 0.004917825, 0.0048828125 
4.303207e-1, 2.4414063e-3, 537106.7, -0.000000000000000000000000030071797, -0.00000000022448964, -0.104452066, 0.0, 537106.7, 537106.7, 0.24273118, 0.0049178167, 0.0048828125 
4.303207e-1, 7.324219e-3, 537106.7, -0.000000000000000000000000029793825, -0.00000000022344968, -0.104452066, 0.0, 537106.7, 537106.7, 0.24273118, 0.0049178167, 0.0048828125 
4.3523848e-1, 2.4414063e-3, 537056.25, -0.0000000000000000000000005751461, 0.000000000981726, -0.10570525, 0.0, 537056.25, 537056.25, 0.24272694, 0.0049178135, 0.0048828125 
4.3523848e-1, 7.324219e-3, 537056.25, -0.0000000000000000000000005751461, 0.000000000981726, -0.10570525, 0.0, 537056.25, 537056.25, 0.24272694, 0.0049178135, 0.0048828125 
4.4015625e-1, 2.4414063e-3, 536928.6, -0.000000000000000000000001449107, 0.0000000015581343, -0.106959574, 0.0, 536928.6, 536928.6, 0.24272265, 0.0049178046, 0.0048828125 
4.4015625e-1, 7.324219e-3, 536928.6, -0.0000000000000000000000014424379, 0.0000000015545447, -0.106959574, 0.0, 536928.6, 536928.6, 0.24272265, 0.0049178046, 0.0048828125 
4.45074e-1, 2.4414063e-3, 536879.75, -0.00000000000000000000000033201395, -0.00000000074579276, -0.10821692, 0.0, 536879.75, 536879.75, 0.24271831, 0.0049178014, 0.0048828125 
4.45074e-1, 7.324219e-3, 536879.75, -0.00000000000000000000000033201395, -0.00000000074579276, -0.10821692, 0.0, 536879.75, 536879.75, 0.24271831, 0.0049178014, 0.0048828125 
4.4999176e-1, 2.4414063e-3, 536746.1, -0.0000000000000000000000028236452, -0.000000002174684, -0.109475456, 0.0, 536746.1, 536746.1, 0.24271393, 0.0049177925, 0.0048828125 
4.4999176e-1, 7.324219e-3, 536746.1, -0.0000000000000000000000028259337, -0.000000002175565, -0.109475456, 0.0, 536746.1, 536746.1, 0.24271393, 0.0049177925, 0.0048828125 
4.549095e-1, 2.4414063e-3, 536698.9, -0.0000000000000000000000000043463632, -0.00000000008531791, -0.11073708, 0.0, 536698.9, 536698.9, 0.24270949, 0.004917789, 0.0048828125 
4.549095e-1, 7.324219e-3, 536698.9, -0.0000000000000000000000000043463632, -0.00000000008531791, -0.11073708, 0.0, 536698.9, 536698.9, 0.24270949, 0.004917789, 0.0048828125 
4.5982727e-1, 2.4414063e-3, 536559.2, -0.0000000000000000000000011546069, 0.0000000013904105, -0.11199994, 0.0, 536559.2, 536559.2, 0.24270502, 0.0049177795, 0.0048828125 
4.5982727e-1, 7.324219e-3, 536559.2, -0.0000000000000000000000011567025, 0.0000000013916717, -0.11199994, 0.0, 536559.2, 536559.2, 0.24270502, 0.0049177795, 0.0048828125 
4.64745e-1, 2.4414063e-3, 536513.75, -0.000000000000000000000000032815634, 0.00000000023439767, -0.11326593, 0.0, 536513.75, 536513.75, 0.24270049, 0.004917776, 0.0048828125 
4.64745e-1, 7.324219e-3, 536513.75, -0.000000000000000000000000032815634, 0.00000000023439767, -0.11326593, 0.0, 536513.75, 536513.75, 0.24270049, 0.004917776, 0.0048828125 
4.6966273e-1, 2.4414063e-3, 536367.7, -0.00000000000000000000000017146577, -0.00000000053573235, -0.1145332, 0.0, 536367.7, 536367.7, 0.24269593, 0.0049177664, 0.0048828125 
4.6966273e-1, 7.324219e-3, 536367.7, -0.00000000000000000000000017417217, -0.00000000053994376, -0.1145332, 0.0, 536367.7, 536367.7, 0.24269593, 0.0049177664, 0.0048828125 
4.7458047e-1, 2.4414063e-3, 536324.2, -0.000000000000000000000000035320135, 0.00000000024314098, -0.115803644, 0.0, 536324.2, 536324.2, 0.24269131, 0.0049177636, 0.0048828125 
4.7458047e-1, 7.324219e-3, 536324.2, -0.000000000000000000000000033277798, 0.00000000023600666, -0.115803644, 0.0, 536324.2, 536324.2, 0.24269131, 0.0049177636, 0.0048828125 
4.7949818e-1, 2.4414063e-3, 536171.75, -0.00000000000000000000000024573966, 0.00000000064125144, -0.11707542, 0.0, 536171.75, 536171.75, 0.24268664, 0.0049177534, 0.0048828125 
4.7949818e-1, 7.324219e-3, 536171.75, -0.00000000000000000000000024360584, 0.00000000063846134, -0.11707542, 0.0, 536171.75, 536171.75, 0.24268664, 0.0049177534, 0.0048828125 
4.844159e-1, 2.4414063e-3, 536130.25, -0.000000000000000000000000005291159, -0.00000000009409248, -0.1183504, 0.0, 536130.25, 536130.25, 0.24268194, 0.00491775, 0.0048828125 
4.844159e-1, 7.324219e-3, 536130.25, -0.000000000000000000000000005291159, -0.00000000009409248, -0.1183504, 0.0, 536130.25, 536130.25, 0.24268194, 0.00491775, 0.0048828125 
4.893336e-1, 2.4414063e-3, 535971.2, -0.00000000000000000000000015303608, -0.0000000005059616, -0.11962677, 0.0, 535971.2, 535971.2, 0.2426772, 0.0049177394, 0.0048828125 
4.893336e-1, 7.324219e-3, 535971.2, -0.00000000000000000000000015429462, -0.00000000050803783, -0.11962677, 0.0, 535971.2, 535971.2, 0.2426772, 0.0049177394, 0.0048828125 
4.9425128e-1, 2.4414063e-3, 535931.94, -0.0000000000000000000000000000051462293, -0.0000000000029339651, -0.12090638, 0.0, 535931.94, 535931.94, 0.2426724, 0.0049177366, 0.0048828125 
4.9425128e-1, 7.324219e-3, 535931.94, -0.0000000000000000000000000000051462293, -0.0000000000029339651, -0.12090638, 0.0, 535931.94, 535931.94, 0.2426724, 0.0049177366, 0.0048828125 
4.99169e-1, 2.4414063e-3, 535766.1, -0.000000000000000000000000018011842, 0.00000000017355133, -0.12218746, 0.0, 535766.1, 535766.1, 0.24266756, 0.0049177255, 0.0048828125 
4.99169e-1, 7.324219e-3, 535766.1, -0.000000000000000000000000018087678, 0.0000000001739163, -0.12218746, 0.0, 535766.1, 535766.1, 0.24266756, 0.0049177255, 0.0048828125 
5.040867e-1, 2.4414063e-3, 535729.2, -0.00000000000000000000000016147941, -0.0000000005196348, -0.12347184, 0.0, 535729.2, 535729.2, 0.24266267, 0.004917723, 0.0048828125 
5.040867e-1, 7.324219e-3, 535729.2, -0.00000000000000000000000016147941, -0.0000000005196348, -0.12347184, 0.0, 535729.2, 535729.2, 0.24266267, 0.004917723, 0.0048828125 
5.0900435e-1, 2.4414063e-3, 535556.4, -0.00000000000000000000000010723538, -0.0000000004233938, -0.12475775, 0.0, 535556.4, 535556.4, 0.24265774, 0.0049177115, 0.0048828125 
5.0900435e-1, 7.324219e-3, 535556.4, -0.000000000000000000000000105803, -0.00000000042055656, -0.12475775, 0.0, 535556.4, 535556.4, 0.24265774, 0.0049177115, 0.0048828125 
5.1392204e-1, 2.4414063e-3, 535521.94, -0.0000000000000000000000008850818, 0.0000000012163512, -0.12604703, 0.0, 535521.94, 535521.94, 0.24265277, 0.0049177087, 0.0048828125 
5.1392204e-1, 7.324219e-3, 535521.94, -0.0000000000000000000000008850818, 0.0000000012163512, -0.12604703, 0.0, 535521.94, 535521.94, 0.24265277, 0.0049177087, 0.0048828125 
5.1883966e-1, 2.4414063e-3, 535342.0, -0.000000000000000000000001754448, 0.0000000017122631, -0.12733792, 0.0, 535342.0, 535342.0, 0.24264775, 0.0049176966, 0.0048828125 
5.1883966e-1, 7.324219e-3, 535342.0, -0.000000000000000000000001781158, 0.0000000017252477, -0.12733792, 0.0, 535342.0, 535342.0, 0.24264775, 0.0049176966, 0.0048828125 
5.2375734e-1, 2.4414063e-3, 535310.1, -0.00000000000000000000000015208198, -0.0000000005041179, -0.1286322, 0.0, 535310.1, 535310.1, 0.2426427, 0.0049176943, 0.0048828125 
5.2375734e-1, 7.324219e-3, 535310.1, -0.00000000000000000000000015208198, -0.0000000005041179, -0.1286322, 0.0, 535310.1, 535310.1, 0.2426427, 0.0049176943, 0.0048828125 
5.2867496e-1, 2.4414063e-3, 535122.9, -0.0000000000000000000000031331814, -0.0000000022877895, -0.12992816, 0.0, 535122.9, 535122.9, 0.2426376, 0.0049176817, 0.0048828125 
5.2867496e-1, 7.324219e-3, 535122.9, -0.0000000000000000000000030795891, -0.0000000022681392, -0.12992816, 0.0, 535122.9, 535122.9, 0.2426376, 0.0049176817, 0.0048828125 
5.3359264e-1, 2.4414063e-3, 535093.75, -0.0000000000000000000000016134971, -0.0000000016417295, -0.13122754, 0.0, 535093.75, 535093.75, 0.24263245, 0.00491768, 0.0048828125 
5.3359264e-1, 7.324219e-3, 535093.75, -0.0000000000000000000000016165093, -0.0000000016432613, -0.13122754, 0.0, 535093.75, 535093.75, 0.24263245, 0.00491768, 0.0048828125 
5.3851026e-1, 2.4414063e-3, 534899.25, -0.0000000000000000000000000025585725, 0.00000000006536475, -0.13252862, 0.0, 534899.25, 534899.25, 0.24262726, 0.004917667, 0.0048828125 
5.3851026e-1, 7.324219e-3, 534899.25, -0.0000000000000000000000000024289125, 0.00000000006368698, -0.13252862, 0.0, 534899.25, 534899.25, 0.24262726, 0.004917667, 0.0048828125 
5.434279e-1, 2.4414063e-3, 534872.56, -0.0000000000000000000000022990578, 0.0000000019593633, -0.13383311, 0.0, 534872.56, 534872.56, 0.24262205, 0.0049176645, 0.0048828125 
5.434279e-1, 7.324219e-3, 534872.56, -0.0000000000000000000000022974546, 0.00000000195868, -0.13383311, 0.0, 534872.56, 534872.56, 0.24262205, 0.0049176645, 0.0048828125 
5.483455e-1, 2.4414063e-3, 534670.8, -0.0000000000000000000000023488276, 0.0000000019801127, -0.13513936, 0.0, 534670.8, 534670.8, 0.24261677, 0.004917651, 0.0048828125 
5.483455e-1, 7.324219e-3, 534670.8, -0.0000000000000000000000023619458, 0.0000000019856343, -0.13513936, 0.0, 534670.8, 534670.8, 0.24261677, 0.004917651, 0.0048828125 
5.532631e-1, 2.4414063e-3, 534646.9, -0.000000000000000000000000020449336, -0.00000000018475681, -0.136449, 0.0, 534646.9, 534646.9, 0.24261147, 0.004917649, 0.0048828125 
5.532631e-1, 7.324219e-3, 534646.9, -0.000000000000000000000000020487185, -0.0000000001849277, -0.136449, 0.0, 534646.9, 534646.9, 0.24261147, 0.004917649, 0.0048828125 
5.581807e-1, 2.4414063e-3, 534437.8, -0.00000000000000000000000070010257, -0.0000000010808441, -0.13776045, 0.0, 534437.8, 534437.8, 0.2426061, 0.004917635, 0.0048828125 
5.581807e-1, 7.324219e-3, 534437.8, -0.0000000000000000000000007044527, -0.0000000010841968, -0.13776045, 0.0, 534437.8, 534437.8, 0.2426061, 0.004917635, 0.0048828125 
5.630983e-1, 2.4414063e-3, 534416.4, -0.000000000000000000000000013814725, -0.00000000015182769, -0.1390753, 0.0, 534416.4, 534416.4, 0.24260071, 0.0049176337, 0.0048828125 
5.630983e-1, 7.324219e-3, 534416.4, -0.000000000000000000000000014146978, -0.00000000015364263, -0.1390753, 0.0, 534416.4, 534416.4, 0.24260071, 0.0049176337, 0.0048828125 
5.680159e-1, 2.4414063e-3, 534200.4, -0.000000000000000000000000009351344, 0.00000000012489225, -0.1403921, 0.0, 534200.4, 534200.4, 0.24259529, 0.0049176193, 0.0048828125 
5.680159e-1, 7.324219e-3, 534200.4, -0.000000000000000000000000008859735, 0.00000000012156508, -0.1403921, 0.0, 534200.4, 534200.4, 0.24259529, 0.0049176193, 0.0048828125 
5.7293344e-1, 2.4414063e-3, 534181.06, -0.00000000000000000000000006287932, -0.0000000003238553, -0.14171235, 0.0, 534181.06, 534181.06, 0.2425898, 0.0049176174, 0.0048828125 
5.7293344e-1, 7.324219e-3, 534181.06, -0.00000000000000000000000006266434, -0.0000000003233012, -0.14171235, 0.0, 534181.06, 534181.06, 0.2425898, 0.0049176174, 0.0048828125 
5.7785106e-1, 2.4414063e-3, 533957.56, -0.000000000000000000000000016405848, -0.00000000016539106, -0.14303468, 0.0, 533957.56, 533957.56, 0.24258429, 0.0049176025, 0.0048828125 
5.7785106e-1, 7.324219e-3, 533957.56, -0.000000000000000000000000017516256, -0.00000000017089656, -0.14303468, 0.0, 533957.56, 533957.56, 0.24258429, 0.0049176025, 0.0048828125 
5.827686e-1, 2.4414063e-3, 533941.5, -0.0000000000000000000000000023785268, 0.00000000006297479, -0.14436056, 0.0, 533941.5, 533941.5, 0.24257873, 0.004917601, 0.0048828125 
5.827686e-1, 7.324219e-3, 533941.5, -0.0000000000000000000000000023675185, 0.000000000062828895, -0.14436056, 0.0, 533941.5, 533941.5, 0.24257873, 0.004917601, 0.0048828125 
5.876861e-1, 2.4414063e-3, 533709.6, -0.000000000000000000000000079165224, -0.00000000036323877, -0.14568858, 0.0, 533709.6, 533709.6, 0.24257314, 0.0049175858, 0.0048828125 
5.876861e-1, 7.324219e-3, 533709.6, -0.000000000000000000000000084057006, -0.0000000003742932, -0.14568858, 0.0, 533709.6, 533709.6, 0.24257314, 0.0049175858, 0.0048828125 
5.926037e-1, 2.4414063e-3, 533697.2, -0.00000000000000000000000002939257, -0.00000000022133258, -0.14702013, 0.0, 533697.2, 533697.2, 0.2425675, 0.004917585, 0.0048828125 
5.926037e-1, 7.324219e-3, 533697.2, -0.000000000000000000000000033768467, -0.0000000002372369, -0.14702013, 0.0, 533697.2, 533697.2, 0.2425675, 0.004917585, 0.0048828125 
5.9752125e-1, 2.4414063e-3, 533457.5, -0.00000000000000000000000006366099, 0.00000000032566597, -0.1483539, 0.0, 533457.5, 533457.5, 0.24256183, 0.0049175685, 0.0048828125 
5.9752125e-1, 7.324219e-3, 533457.5, -0.000000000000000000000000063604536, 0.00000000032552155, -0.1483539, 0.0, 533457.5, 533457.5, 0.24256183, 0.0049175685, 0.0048828125 
6.0243875e-1, 2.4414063e-3, 533447.4, -0.000000000000000000000000040447305, 0.0000000002595871, -0.14969113, 0.0, 533447.4, 533447.4, 0.24255611, 0.0049175676, 0.0048828125 
6.0243875e-1, 7.324219e-3, 533447.4, -0.000000000000000000000000040229142, 0.00000000025888608, -0.14969113, 0.0, 533447.4, 533447.4, 0.24255611, 0.0049175676, 0.0048828125 
6.0735625e-1, 2.4414063e-3, 533201.06, -0.0000000000000000000000000075968715, -0.000000000112476604, -0.15103066, 0.0, 533201.06, 533201.06, 0.24255036, 0.0049175513, 0.0048828125 
6.0735625e-1, 7.324219e-3, 533201.06, -0.000000000000000000000000007949561, -0.00000000011505788, -0.15103066, 0.0, 533201.06, 533201.06, 0.24255036, 0.0049175513, 0.0048828125 
6.1227375e-1, 2.4414063e-3, 533192.0, -0.00000000000000000000000013052411, -0.00000000046622256, -0.15237361, 0.0, 533192.0, 533192.0, 0.24254456, 0.0049175504, 0.0048828125 
6.1227375e-1, 7.324219e-3, 533192.0, -0.0000000000000000000000001306703, -0.0000000004664836, -0.15237361, 0.0, 533192.0, 533192.0, 0.24254456, 0.0049175504, 0.0048828125 
6.1719126e-1, 2.4414063e-3, 532940.25, -0.00000000000000000000000009064989, -0.0000000003884507, -0.153719, 0.0, 532940.25, 532940.25, 0.24253874, 0.0049175336, 0.0048828125 
6.1719126e-1, 7.324219e-3, 532940.25, -0.0000000000000000000000000925428, -0.00000000039248543, -0.153719, 0.0, 532940.25, 532940.25, 0.24253874, 0.0049175336, 0.0048828125 
6.2210876e-1, 2.4414063e-3, 532931.3, -0.00000000000000000000000014080593, 0.00000000048413445, -0.15506786, 0.0, 532931.3, 532931.3, 0.24253286, 0.0049175327, 0.0048828125 
6.2210876e-1, 7.324219e-3, 532931.3, -0.00000000000000000000000013057522, 0.0000000004662146, -0.15506786, 0.0, 532931.3, 532931.3, 0.24253286, 0.0049175327, 0.0048828125 
6.2702626e-1, 2.4414063e-3, 532674.7, -0.0000000000000000000000004166617, 0.00000000083262547, -0.15641922, 0.0, 532674.7, 532674.7, 0.24252696, 0.0049175154, 0.0048828125 
6.2702626e-1, 7.324219e-3, 532674.7, -0.00000000000000000000000040995869, 0.0000000008259009, -0.15641922, 0.0, 532674.7, 532674.7, 0.24252696, 0.0049175154, 0.0048828125 
6.319437e-1, 2.4414063e-3, 532665.4, -0.00000000000000000000000007690119, 0.00000000035770714, -0.15777402, 0.0, 532665.4, 532665.4, 0.24252102, 0.0049175145, 0.0048828125 
6.319437e-1, 7.324219e-3, 532665.4, -0.0000000000000000000000000747662, 0.00000000035270675, -0.15777402, 0.0, 532665.4, 532665.4, 0.24252102, 0.0049175145, 0.0048828125 
6.368612e-1, 2.4414063e-3, 532404.25, -0.00000000000000000000000000036427058, 0.00000000002461352, -0.15913141, 0.0, 532404.25, 532404.25, 0.24251503, 0.0049174973, 0.0048828125 
6.368612e-1, 7.324219e-3, 532404.25, -0.00000000000000000000000000027007612, 0.000000000021193602, -0.15913141, 0.0, 532404.25, 532404.25, 0.24251503, 0.0049174973, 0.0048828125 
6.4177865e-1, 2.4414063e-3, 532394.3, -0.000000000000000000000000049980615, -0.00000000028831385, -0.16049218, 0.0, 532394.3, 532394.3, 0.24250901, 0.0049174963, 0.0048828125 
6.4177865e-1, 7.324219e-3, 532394.3, -0.00000000000000000000000004731942, -0.0000000002805333, -0.16049218, 0.0, 532394.3, 532394.3, 0.24250901, 0.0049174963, 0.0048828125 
6.466961e-1, 2.4414063e-3, 532128.9, -0.0000000000000000000000006568523, -0.0000000010449546, -0.16185556, 0.0, 532128.9, 532128.9, 0.24250294, 0.0049174787, 0.0048828125 
6.466961e-1, 7.324219e-3, 532128.9, -0.00000000000000000000000065978936, -0.0000000010472881, -0.16185556, 0.0, 532128.9, 532128.9, 0.24250294, 0.0049174787, 0.0048828125 
6.5161353e-1, 2.4414063e-3, 532118.06, -0.00000000000000000000000068034047, -0.0000000010634804, -0.16322215, 0.0, 532118.06, 532118.06, 0.24249685, 0.0049174773, 0.0048828125 
6.5161353e-1, 7.324219e-3, 532118.06, -0.00000000000000000000000069193815, -0.0000000010725066, -0.16322215, 0.0, 532118.06, 532118.06, 0.24249685, 0.0049174773, 0.0048828125 
6.56531e-1, 2.4414063e-3, 531848.9, -0.000000000000000000000000012679361, 0.00000000014514843, -0.16459252, 0.0, 531848.9, 531848.9, 0.24249072, 0.0049174596, 0.0048828125 
6.56531e-1, 7.324219e-3, 531848.9, -0.000000000000000000000000012198908, 0.00000000014237186, -0.16459252, 0.0, 531848.9, 531848.9, 0.24249072, 0.0049174596, 0.0048828125 
6.6144836e-1, 2.4414063e-3, 531836.44, -0.0000000000000000000000014660008, 0.0000000015607486, -0.16596736, 0.0, 531836.44, 531836.44, 0.24248455, 0.004917458, 0.0048828125 
6.6144836e-1, 7.324219e-3, 531836.44, -0.0000000000000000000000014692663, 0.0000000015624859, -0.16596736, 0.0, 531836.44, 531836.44, 0.24248455, 0.004917458, 0.0048828125 
6.6636574e-1, 2.4414063e-3, 531563.8, -0.0000000000000000000000028092242, 0.0000000021600064, -0.16734497, 0.0, 531563.8, 531563.8, 0.24247834, 0.00491744, 0.0048828125 
6.6636574e-1, 7.324219e-3, 531563.8, -0.0000000000000000000000028163847, 0.0000000021627575, -0.16734497, 0.0, 531563.8, 531563.8, 0.24247834, 0.00491744, 0.0048828125 
6.712832e-1, 2.4414063e-3, 531547.94, -0.0000000000000000000000002325954, 0.00000000062153166, -0.16872567, 0.0, 531547.94, 531547.94, 0.2424721, 0.0049174386, 0.0048828125 
6.712832e-1, 7.324219e-3, 531547.94, -0.00000000000000000000000023244127, 0.0000000006213257, -0.16872567, 0.0, 531547.94, 531547.94, 0.2424721, 0.0049174386, 0.0048828125 
6.7620057e-1, 2.4414063e-3, 531273.6, -0.0000000000000000000000022195108, -0.0000000019194935, -0.17010781, 0.0, 531273.6, 531273.6, 0.24246582, 0.0049174204, 0.0048828125 
6.7620057e-1, 7.324219e-3, 531273.6, -0.0000000000000000000000022236612, -0.0000000019212874, -0.17010781, 0.0, 531273.6, 531273.6, 0.24246582, 0.0049174204, 0.0048828125 
6.8111795e-1, 2.4414063e-3, 531253.7, -0.0000000000000000000000026972985, -0.0000000021160298, -0.17149149, 0.0, 531253.7, 531253.7, 0.2424595, 0.004917419, 0.0048828125 
6.8111795e-1, 7.324219e-3, 531253.7, -0.0000000000000000000000027364555, -0.0000000021313338, -0.17149149, 0.0, 531253.7, 531253.7, 0.2424595, 0.004917419, 0.0048828125 
6.860353e-1, 2.4414063e-3, 530985.06, -0.000000000000000000000000066701326, 0.00000000033267655, -0.17288125, 0.0, 530985.06, 530985.06, 0.24245316, 0.004917401, 0.0048828125 
6.860353e-1, 7.324219e-3, 530985.06, -0.00000000000000000000000007373928, 0.0000000003497876, -0.17288125, 0.0, 530985.06, 530985.06, 0.24245316, 0.004917401, 0.0048828125 
6.9095266e-1, 2.4414063e-3, 530960.56, -0.000000000000000000000001674284, 0.0000000016667367, -0.17427717, 0.0, 530960.56, 530960.56, 0.24244678, 0.004917399, 0.0048828125 
6.9095266e-1, 7.324219e-3, 530960.56, -0.0000000000000000000000016868757, 0.0000000016729925, -0.17427717, 0.0, 530960.56, 530960.56, 0.24244678, 0.004917399, 0.0048828125 
6.9587e-1, 2.4414063e-3, 530682.5, -0.000000000000000000000000010088279, -0.00000000012934653, -0.17567438, 0.0, 530682.5, 530682.5, 0.24244036, 0.0049173804, 0.0048828125 
6.9587e-1, 7.324219e-3, 530682.5, -0.000000000000000000000000010088279, -0.00000000012934653, -0.17567438, 0.0, 530682.5, 530682.5, 0.24244036, 0.0049173804, 0.0048828125 
7.0078737e-1, 2.4414063e-3, 530653.1, -0.0000000000000000000000009229144, -0.0000000012371506, -0.17707282, 0.0, 530653.1, 530653.1, 0.2424339, 0.004917378, 0.0048828125 
7.0078737e-1, 7.324219e-3, 530653.1, -0.0000000000000000000000009157961, -0.0000000012323703, -0.17707282, 0.0, 530653.1, 530653.1, 0.2424339, 0.004917378, 0.0048828125 
7.057047e-1, 2.4414063e-3, 530376.6, -0.000000000000000000000000017211247, 0.000000000168905, -0.17847468, 0.0, 530376.6, 530376.6, 0.24242741, 0.0049173594, 0.0048828125 
7.057047e-1, 7.324219e-3, 530376.6, -0.000000000000000000000000016448154, 0.00000000016511818, -0.17847468, 0.0, 530376.6, 530376.6, 0.24242741, 0.0049173594, 0.0048828125 
7.1062195e-1, 2.4414063e-3, 530342.75, -0.00000000000000000000000022441722, 0.0000000006098994, -0.17987962, 0.0, 530342.75, 530342.75, 0.24242088, 0.004917357, 0.0048828125 
7.1062195e-1, 7.324219e-3, 530342.75, -0.00000000000000000000000022166326, 0.00000000060614563, -0.17987962, 0.0, 530342.75, 530342.75, 0.24242088, 0.004917357, 0.0048828125 
7.155393e-1, 2.4414063e-3, 530066.56, -0.0000000000000000000000000000035179266, 0.0000000000024141715, -0.18128929, 0.0, 530066.56, 530066.56, 0.24241433, 0.0049173385, 0.0048828125 
7.155393e-1, 7.324219e-3, 530066.56, -0.000000000000000000000000000003921075, 0.0000000000025487505, -0.18128929, 0.0, 530066.56, 530066.56, 0.24241433, 0.0049173385, 0.0048828125 
7.204566e-1, 2.4414063e-3, 530027.06, -0.00000000000000000000000010756072, 0.00000000042212706, -0.182703, 0.0, 530027.06, 530027.06, 0.24240774, 0.0049173357, 0.0048828125 
7.204566e-1, 7.324219e-3, 530027.06, -0.00000000000000000000000010336973, 0.0000000004138215, -0.182703, 0.0, 530027.06, 530027.06, 0.24240774, 0.0049173357, 0.0048828125 
7.2537386e-1, 2.4414063e-3, 529751.5, -0.000000000000000000000000019480392, 0.00000000017960154, -0.1841204, 0.0, 529751.5, 529751.5, 0.24240111, 0.004917317, 0.0048828125 
7.2537386e-1, 7.324219e-3, 529751.5, -0.000000000000000000000000018469485, 0.00000000017487939, -0.1841204, 0.0, 529751.5, 529751.5, 0.24240111, 0.004917317, 0.0048828125 
7.302911e-1, 2.4414063e-3, 529705.0, -0.0000000000000000000000006820054, -0.000000001062659, -0.18554084, 0.0, 529705.0, 529705.0, 0.24239445, 0.004917314, 0.0048828125 
7.302911e-1, 7.324219e-3, 529705.0, -0.0000000000000000000000006691434, -0.0000000010525909, -0.18554084, 0.0, 529705.0, 529705.0, 0.24239445, 0.004917314, 0.0048828125 
7.352084e-1, 2.4414063e-3, 529430.7, -0.00000000000000000000000058249706, -0.0000000009818435, -0.18696523, 0.0, 529430.7, 529430.7, 0.24238776, 0.0049172956, 0.0048828125 
7.352084e-1, 7.324219e-3, 529430.7, -0.0000000000000000000000005747791, -0.0000000009753172, -0.18696523, 0.0, 529430.7, 529430.7, 0.24238776, 0.0049172956, 0.0048828125 
7.4012566e-1, 2.4414063e-3, 529377.4, -0.000000000000000000000000034222327, 0.0000000002379777, -0.18839268, 0.0, 529377.4, 529377.4, 0.24238104, 0.004917292, 0.0048828125 
7.4012566e-1, 7.324219e-3, 529377.4, -0.000000000000000000000000036349678, 0.00000000024526284, -0.18839268, 0.0, 529377.4, 529377.4, 0.24238104, 0.004917292, 0.0048828125 
7.4504286e-1, 2.4414063e-3, 529103.7, -0.0000000000000000000000003573522, 0.00000000076882123, -0.18982421, 0.0, 529103.7, 529103.7, 0.24237427, 0.0049172733, 0.0048828125 
7.4504286e-1, 7.324219e-3, 529103.7, -0.00000000000000000000000035842144, 0.00000000076997053, -0.18982421, 0.0, 529103.7, 529103.7, 0.24237427, 0.0049172733, 0.0048828125 
7.499601e-1, 2.4414063e-3, 529044.44, -0.00000000000000000000000015081748, 0.0000000004994438, -0.19125873, 0.0, 529044.44, 529044.44, 0.24236748, 0.004917269, 0.0048828125 
7.499601e-1, 7.324219e-3, 529044.44, -0.00000000000000000000000014882846, 0.00000000049613946, -0.19125873, 0.0, 529044.44, 529044.44, 0.24236748, 0.004917269, 0.0048828125 
7.548773e-1, 2.4414063e-3, 528770.8, -0.000000000000000000000000003665546, 0.00000000007784413, -0.19269753, 0.0, 528770.8, 528770.8, 0.24236067, 0.004917251, 0.0048828125 
7.548773e-1, 7.324219e-3, 528770.8, -0.000000000000000000000000001931191, 0.00000000005650269, -0.19269753, 0.0, 528770.8, 528770.8, 0.24236067, 0.004917251, 0.0048828125 
7.5979453e-1, 2.4414063e-3, 528705.7, -0.00000000000000000000000001594237, -0.0000000001623358, -0.19413932, 0.0, 528705.7, 528705.7, 0.24235381, 0.0049172463, 0.0048828125 
7.5979453e-1, 7.324219e-3, 528705.7, -0.000000000000000000000000015764656, -0.00000000016142847, -0.19413932, 0.0, 528705.7, 528705.7, 0.24235381, 0.0049172463, 0.0048828125 
7.6471174e-1, 2.4414063e-3, 528431.94, -0.0000000000000000000000001195922, -0.00000000044451348, -0.1955856, 0.0, 528431.94, 528431.94, 0.24234693, 0.004917228, 0.0048828125 
7.6471174e-1, 7.324219e-3, 528431.94, -0.00000000000000000000000011973984, -0.00000000044478776, -0.1955856, 0.0, 528431.94, 528431.94, 0.24234693, 0.004917228, 0.0048828125 
7.696289e-1, 2.4414063e-3, 528361.44, -0.00000000000000000000000062270437, -0.0000000010142701, -0.19703488, 0.0, 528361.44, 528361.44, 0.24234, 0.004917223, 0.0048828125 
7.696289e-1, 7.324219e-3, 528361.44, -0.0000000000000000000000006257486, -0.0000000010167464, -0.19703488, 0.0, 528361.44, 528361.44, 0.24234, 0.004917223, 0.0048828125 
7.745461e-1, 2.4414063e-3, 528087.2, -0.000000000000000000000000011153145, -0.00000000013570842, -0.19848879, 0.0, 528087.2, 528087.2, 0.24233305, 0.0049172044, 0.0048828125 
7.745461e-1, 7.324219e-3, 528087.2, -0.000000000000000000000000010567721, -0.00000000013209878, -0.19848879, 0.0, 528087.2, 528087.2, 0.24233305, 0.0049172044, 0.0048828125 
7.7946323e-1, 2.4414063e-3, 528011.4, -0.0000000000000000000000023728812, 0.0000000019793525, -0.19994569, 0.0, 528011.4, 528011.4, 0.24232608, 0.0049171993, 0.0048828125 
7.7946323e-1, 7.324219e-3, 528011.4, -0.0000000000000000000000023503468, 0.0000000019699316, -0.19994569, 0.0, 528011.4, 528011.4, 0.24232608, 0.0049171993, 0.0048828125 
7.843804e-1, 2.4414063e-3, 527737.44, -0.0000000000000000000000016735282, 0.0000000016618708, -0.20140728, 0.0, 527737.44, 527737.44, 0.24231908, 0.004917181, 0.0048828125 
7.843804e-1, 7.324219e-3, 527737.44, -0.000000000000000000000001676459, 0.0000000016633253, -0.20140728, 0.0, 527737.44, 527737.44, 0.24231908, 0.004917181, 0.0048828125 
7.892975e-1, 2.4414063e-3, 527654.2, -0.0000000000000000000000002452332, -0.0000000006361278, -0.20287178, 0.0, 527654.2, 527654.2, 0.24231204, 0.004917175, 0.0048828125 
7.892975e-1, 7.324219e-3, 527654.2, -0.00000000000000000000000024416547, -0.0000000006347415, -0.20287178, 0.0, 527654.2, 527654.2, 0.24231204, 0.004917175, 0.0048828125 
7.942146e-1, 2.4414063e-3, 527382.2, -0.0000000000000000000000009436973, -0.0000000012475774, -0.20434107, 0.0, 527382.2, 527382.2, 0.24230497, 0.004917157, 0.0048828125 
7.942146e-1, 7.324219e-3, 527382.2, -0.0000000000000000000000009389273, -0.0000000012444203, -0.20434107, 0.0, 527382.2, 527382.2, 0.24230497, 0.004917157, 0.0048828125 
7.9913175e-1, 2.4414063e-3, 527290.3, -0.000000000000000000000000073729023, -0.0000000003486911, -0.20581318, 0.0, 527290.3, 527290.3, 0.24229787, 0.0049171504, 0.0048828125 
7.9913175e-1, 7.324219e-3, 527290.3, -0.00000000000000000000000007090509, -0.00000000034194822, -0.20581318, 0.0, 527290.3, 527290.3, 0.24229787, 0.0049171504, 0.0048828125 
8.0404884e-1, 2.4414063e-3, 527020.75, -0.000000000000000000000000024897066, 0.00000000020257838, -0.2072902, 0.0, 527020.75, 527020.75, 0.24229075, 0.0049171327, 0.0048828125 
8.0404884e-1, 7.324219e-3, 527020.75, -0.000000000000000000000000024598552, 0.00000000020136026, -0.2072902, 0.0, 527020.75, 527020.75, 0.24229075, 0.0049171327, 0.0048828125 
8.089659e-1, 2.4414063e-3, 526920.4, -0.000000000000000000000000002916844, 0.00000000006933343, -0.20877004, 0.0, 526920.4, 526920.4, 0.24228361, 0.0049171257, 0.0048828125 
8.089659e-1, 7.324219e-3, 526920.4, -0.0000000000000000000000000012862019, 0.000000000046040564, -0.20877004, 0.0, 526920.4, 526920.4, 0.24228361, 0.0049171257, 0.0048828125 
8.1388295e-1, 2.4414063e-3, 526652.9, -0.000000000000000000000000018039338, 0.00000000017238305, -0.21025497, 0.0, 526652.9, 526652.9, 0.24227643, 0.0049171075, 0.0048828125 
8.1388295e-1, 7.324219e-3, 526652.9, -0.000000000000000000000000017868997, 0.00000000017156723, -0.21025497, 0.0, 526652.9, 526652.9, 0.24227643, 0.0049171075, 0.0048828125 
8.1880003e-1, 2.4414063e-3, 526544.56, -0.0000000000000000000000005625643, 0.0000000009625741, -0.2117427, 0.0, 526544.56, 526544.56, 0.24226923, 0.0049171, 0.0048828125 
8.1880003e-1, 7.324219e-3, 526544.56, -0.0000000000000000000000005714154, 0.0000000009701169, -0.2117427, 0.0, 526544.56, 526544.56, 0.24226923, 0.0049171, 0.0048828125 
8.2371706e-1, 2.4414063e-3, 526278.44, -0.000000000000000000000000092600906, 0.00000000039044012, -0.21323574, 0.0, 526278.44, 526278.44, 0.24226199, 0.0049170824, 0.0048828125 
8.2371706e-1, 7.324219e-3, 526278.44, -0.00000000000000000000000009317938, 0.00000000039165776, -0.21323574, 0.0, 526278.44, 526278.44, 0.24226199, 0.0049170824, 0.0048828125 
8.286341e-1, 2.4414063e-3, 526162.75, -0.0000000000000000000000021142445, -0.000000001865457, -0.21473156, 0.0, 526162.75, 526162.75, 0.24225473, 0.0049170745, 0.0048828125 
8.286341e-1, 7.324219e-3, 526162.75, -0.000000000000000000000002042997, -0.0000000018337558, -0.21473156, 0.0, 526162.75, 526162.75, 0.24225473, 0.0049170745, 0.0048828125 
8.335511e-1, 2.4414063e-3, 525897.56, -0.0000000000000000000000016188343, -0.0000000016319541, -0.21623282, 0.0, 525897.56, 525897.56, 0.24224746, 0.0049170568, 0.0048828125 
8.335511e-1, 7.324219e-3, 525897.56, -0.0000000000000000000000016203399, -0.0000000016327129, -0.21623282, 0.0, 525897.56, 525897.56, 0.24224746, 0.0049170568, 0.0048828125 
8.3846813e-1, 2.4414063e-3, 525774.8, -0.00000000000000000000000038692183, 0.00000000079776735, -0.21773684, 0.0, 525774.8, 525774.8, 0.24224016, 0.0049170484, 0.0048828125 
8.3846813e-1, 7.324219e-3, 525774.8, -0.00000000000000000000000038498138, 0.00000000079576445, -0.21773684, 0.0, 525774.8, 525774.8, 0.24224016, 0.0049170484, 0.0048828125 
8.433851e-1, 2.4414063e-3, 525509.94, -0.0000000000000000000000007282823, 0.0000000010942429, -0.21924643, 0.0, 525509.94, 525509.94, 0.24223283, 0.00491703, 0.0048828125 
8.433851e-1, 7.324219e-3, 525509.94, -0.0000000000000000000000007282823, 0.0000000010942429, -0.21924643, 0.0, 525509.94, 525509.94, 0.24223283, 0.00491703, 0.0048828125 
8.483021e-1, 2.4414063e-3, 525380.8, -0.0000000000000000000000000025550492, -0.000000000064806535, -0.22075877, 0.0, 525380.8, 525380.8, 0.24222548, 0.0049170214, 0.0048828125 
8.483021e-1, 7.324219e-3, 525380.8, -0.0000000000000000000000000018988905, -0.00000000005586877, -0.22075877, 0.0, 525380.8, 525380.8, 0.24222548, 0.0049170214, 0.0048828125 
8.532191e-1, 2.4414063e-3, 525116.0, -0.00000000000000000000000003538807, -0.00000000024112753, -0.22227676, 0.0, 525116.0, 525116.0, 0.2422181, 0.0049170037, 0.0048828125 
8.532191e-1, 7.324219e-3, 525116.0, -0.00000000000000000000000003568986, -0.00000000024215352, -0.22227676, 0.0, 525116.0, 525116.0, 0.2422181, 0.0049170037, 0.0048828125 
8.58136e-1, 2.4414063e-3, 524980.06, -0.00000000000000000000000000031730368, -0.000000000022830132, -0.22379746, 0.0, 524980.06, 524980.06, 0.24221072, 0.0049169944, 0.0048828125 
8.58136e-1, 7.324219e-3, 524980.06, -0.00000000000000000000000000041554404, -0.00000000002612639, -0.22379746, 0.0, 524980.06, 524980.06, 0.24221072, 0.0049169944, 0.0048828125 
8.6305296e-1, 2.4414063e-3, 524716.1, -0.000000000000000000000000017153378, -0.00000000016782059, -0.22532398, 0.0, 524716.1, 524716.1, 0.2422033, 0.0049169767, 0.0048828125 
8.6305296e-1, 7.324219e-3, 524716.1, -0.000000000000000000000000017626849, -0.00000000017012093, -0.22532398, 0.0, 524716.1, 524716.1, 0.2422033, 0.0049169767, 0.0048828125 
8.679699e-1, 2.4414063e-3, 524571.8, -0.00000000000000000000000004403798, -0.0000000002688643, -0.22685316, 0.0, 524571.8, 524571.8, 0.24219586, 0.004916967, 0.0048828125 
8.679699e-1, 7.324219e-3, 524571.8, -0.00000000000000000000000004240964, -0.00000000026384675, -0.22685316, 0.0, 524571.8, 524571.8, 0.24219586, 0.004916967, 0.0048828125 
8.728868e-1, 2.4414063e-3, 524310.56, -0.0000000000000000000000000044274036, -0.00000000008523042, -0.22838832, 0.0, 524310.56, 524310.56, 0.24218841, 0.0049169497, 0.0048828125 
8.728868e-1, 7.324219e-3, 524310.56, -0.0000000000000000000000000034776806, -0.000000000075537895, -0.22838832, 0.0, 524310.56, 524310.56, 0.24218841, 0.0049169497, 0.0048828125 
8.778037e-1, 2.4414063e-3, 524155.97, -0.0000000000000000000000000024568407, 0.00000000006348239, -0.22992614, 0.0, 524155.97, 524155.97, 0.24218093, 0.004916939, 0.0048828125 
8.778037e-1, 7.324219e-3, 524155.97, -0.0000000000000000000000000026096659, 0.00000000006542704, -0.22992614, 0.0, 524155.97, 524155.97, 0.24218093, 0.004916939, 0.0048828125 
8.827206e-1, 2.4414063e-3, 523898.56, -0.000000000000000000000000016756447, 0.00000000016575169, -0.23147008, 0.0, 523898.56, 523898.56, 0.24217343, 0.0049169217, 0.0048828125 
8.827206e-1, 7.324219e-3, 523898.56, -0.000000000000000000000000016756447, 0.00000000016575169, -0.23147008, 0.0, 523898.56, 523898.56, 0.24217343, 0.0049169217, 0.0048828125 
8.8763744e-1, 2.4414063e-3, 523733.22, -0.00000000000000000000000004939351, 0.00000000028453928, -0.23301667, 0.0, 523733.22, 523733.22, 0.24216594, 0.0049169105, 0.0048828125 
8.8763744e-1, 7.324219e-3, 523733.22, -0.000000000000000000000000044872584, 0.0000000002712051, -0.23301667, 0.0, 523733.22, 523733.22, 0.24216594, 0.0049169105, 0.0048828125 
8.925543e-1, 2.4414063e-3, 523479.78, -0.000000000000000000000000014479225, 0.00000000015402234, -0.23456953, 0.0, 523479.78, 523479.78, 0.24215841, 0.0049168933, 0.0048828125 
8.925543e-1, 7.324219e-3, 523479.78, -0.000000000000000000000000014479225, 0.00000000015402234, -0.23456953, 0.0, 523479.78, 523479.78, 0.24215841, 0.0049168933, 0.0048828125 
8.9747113e-1, 2.4414063e-3, 523303.7, -0.000000000000000000000000000018481675, 0.0000000000055019613, -0.23612504, 0.0, 523303.7, 523303.7, 0.24215087, 0.0049168817, 0.0048828125 
8.9747113e-1, 7.324219e-3, 523303.7, -0.000000000000000000000000000050259405, 0.0000000000090730964, -0.23612504, 0.0, 523303.7, 523303.7, 0.24215087, 0.0049168817, 0.0048828125 
9.02388e-1, 2.4414063e-3, 523053.88, -0.0000000000000000000000001097019, -0.00000000042379825, -0.23768693, 0.0, 523053.88, 523053.88, 0.24214332, 0.004916865, 0.0048828125 
9.02388e-1, 7.324219e-3, 523053.88, -0.00000000000000000000000011203607, -0.0000000004282832, -0.23768693, 0.0, 523053.88, 523053.88, 0.24214332, 0.004916865, 0.0048828125 
9.0730476e-1, 2.4414063e-3, 522867.38, -0.00000000000000000000000019099035, -0.0000000005590997, -0.23925145, 0.0, 522867.38, 522867.38, 0.24213576, 0.0049168523, 0.0048828125 
9.0730476e-1, 7.324219e-3, 522867.38, -0.00000000000000000000000018925531, -0.00000000055655436, -0.23925145, 0.0, 522867.38, 522867.38, 0.24213576, 0.0049168523, 0.0048828125 
9.1222155e-1, 2.4414063e-3, 522620.6, -0.00000000000000000000000009837726, 0.0000000004011782, -0.24082252, 0.0, 522620.6, 522620.6, 0.2421282, 0.0049168356, 0.0048828125 
9.1222155e-1, 7.324219e-3, 522620.6, -0.00000000000000000000000009968925, 0.00000000040384446, -0.24082252, 0.0, 522620.6, 522620.6, 0.2421282, 0.0049168356, 0.0048828125 
9.1713834e-1, 2.4414063e-3, 522424.53, -0.0000000000000000000000007145341, 0.000000001081008, -0.2423962, 0.0, 522424.53, 522424.53, 0.24212061, 0.0049168225, 0.0048828125 
9.1713834e-1, 7.324219e-3, 522424.53, -0.00000000000000000000000069773914, 0.0000000010682281, -0.2423962, 0.0, 522424.53, 522424.53, 0.24212061, 0.0049168225, 0.0048828125 
9.220551e-1, 2.4414063e-3, 522179.97, -0.00000000000000000000000026376765, 0.0000000006566523, -0.24397658, 0.0, 522179.97, 522179.97, 0.24211301, 0.004916806, 0.0048828125 
9.220551e-1, 7.324219e-3, 522179.97, -0.00000000000000000000000025805102, 0.0000000006494975, -0.24397658, 0.0, 522179.97, 522179.97, 0.24211301, 0.004916806, 0.0048828125 
9.2697185e-1, 2.4414063e-3, 521974.63, -0.0000000000000000000000000020469334, -0.000000000057836246, -0.24555956, 0.0, 521974.63, 521974.63, 0.24210542, 0.0049167923, 0.0048828125 
9.2697185e-1, 7.324219e-3, 521974.63, -0.0000000000000000000000000009516161, -0.000000000039434754, -0.24555956, 0.0, 521974.63, 521974.63, 0.24210542, 0.0049167923, 0.0048828125 
9.318886e-1, 2.4414063e-3, 521731.75, -0.000000000000000000000000893069, -0.0000000012078101, -0.24714936, 0.0, 521731.75, 521731.75, 0.24209781, 0.0049167755, 0.0048828125 
9.318886e-1, 7.324219e-3, 521731.75, -0.0000000000000000000000008708475, -0.000000001192689, -0.24714936, 0.0, 521731.75, 521731.75, 0.24209781, 0.0049167755, 0.0048828125 
9.368053e-1, 2.4414063e-3, 521518.1, -0.0000000000000000000000008054416, -0.0000000011468145, -0.24874179, 0.0, 521518.1, 521518.1, 0.24209021, 0.0049167615, 0.0048828125 
9.368053e-1, 7.324219e-3, 521518.1, -0.00000000000000000000000080526187, -0.0000000011466865, -0.24874179, 0.0, 521518.1, 521518.1, 0.24209021, 0.0049167615, 0.0048828125 
9.4172204e-1, 2.4414063e-3, 521276.13, -0.00000000000000000000000013129092, 0.00000000046291546, -0.2503412, 0.0, 521276.13, 521276.13, 0.2420826, 0.0049167452, 0.0048828125 
9.4172204e-1, 7.324219e-3, 521276.13, -0.00000000000000000000000012586818, 0.00000000045325468, -0.2503412, 0.0, 521276.13, 521276.13, 0.2420826, 0.0049167452, 0.0048828125 
9.466387e-1, 2.4414063e-3, 521054.16, -0.0000000000000000000000003389877, 0.00000000074369144, -0.25194323, 0.0, 521054.16, 521054.16, 0.242075, 0.0049167303, 0.0048828125 
9.466387e-1, 7.324219e-3, 521054.16, -0.00000000000000000000000034181592, 0.00000000074678735, -0.25194323, 0.0, 521054.16, 521054.16, 0.242075, 0.0049167303, 0.0048828125 
9.515554e-1, 2.4414063e-3, 520813.7, -0.000000000000000000000000079672135, 0.00000000036046474, -0.25355235, 0.0, 520813.7, 520813.7, 0.24206738, 0.004916714, 0.0048828125 
9.515554e-1, 7.324219e-3, 520813.7, -0.000000000000000000000000079672135, 0.00000000036046474, -0.25355235, 0.0, 520813.7, 520813.7, 0.24206738, 0.004916714, 0.0048828125 
9.5647204e-1, 2.4414063e-3, 520582.1, -0.00000000000000000000000038537852, 0.0000000007926212, -0.25516415, 0.0, 520582.1, 520582.1, 0.24205978, 0.004916698, 0.0048828125 
9.5647204e-1, 7.324219e-3, 520582.1, -0.00000000000000000000000038055015, 0.0000000007876402, -0.25516415, 0.0, 520582.1, 520582.1, 0.24205978, 0.004916698, 0.0048828125 
9.6138865e-1, 2.4414063e-3, 520344.3, -0.000000000000000000000000002796572, -0.00000000006750636, -0.2567832, 0.0, 520344.3, 520344.3, 0.24205218, 0.0049166824, 0.0048828125 
9.6138865e-1, 7.324219e-3, 520344.3, -0.000000000000000000000000002399703, -0.000000000062533166, -0.2567832, 0.0, 520344.3, 520344.3, 0.24205218, 0.0049166824, 0.0048828125 
9.663053e-1, 2.4414063e-3, 520102.13, -0.0000000000000000000000014408555, -0.0000000015319682, -0.25840485, 0.0, 520102.13, 520102.13, 0.24204458, 0.004916666, 0.0048828125 
9.663053e-1, 7.324219e-3, 520102.13, -0.0000000000000000000000014408544, -0.0000000015319676, -0.25840485, 0.0, 520102.13, 520102.13, 0.24204458, 0.004916666, 0.0048828125 
9.712219e-1, 2.4414063e-3, 519867.84, -0.00000000000000000000000038077742, -0.0000000007873833, -0.26003397, 0.0, 519867.84, 519867.84, 0.24203701, 0.0049166502, 0.0048828125 
9.712219e-1, 7.324219e-3, 519867.84, -0.00000000000000000000000038115839, -0.0000000007877771, -0.26003397, 0.0, 519867.84, 519867.84, 0.24203701, 0.0049166502, 0.0048828125 
9.761385e-1, 2.4414063e-3, 519614.22, -0.0000000000000000000000002811432, 0.0000000006764215, -0.2616657, 0.0, 519614.22, 519614.22, 0.24202944, 0.0049166335, 0.0048828125 
9.761385e-1, 7.324219e-3, 519614.22, -0.00000000000000000000000027712252, 0.0000000006715672, -0.2616657, 0.0, 519614.22, 519614.22, 0.24202944, 0.0049166335, 0.0048828125 
9.810551e-1, 2.4414063e-3, 519384.6, -0.00000000000000000000000022582102, 0.0000000006061061, -0.263305, 0.0, 519384.6, 519384.6, 0.24202187, 0.004916618, 0.0048828125 
9.810551e-1, 7.324219e-3, 519384.6, -0.00000000000000000000000023878265, 0.00000000062325806, -0.263305, 0.0, 519384.6, 519384.6, 0.24202187, 0.004916618, 0.0048828125 
9.859716e-1, 2.4414063e-3, 519117.4, -0.000000000000000000000000000016172545, 0.000000000005128057, -0.26494697, 0.0, 519117.4, 519117.4, 0.24201433, 0.0049166, 0.0048828125 
9.859716e-1, 7.324219e-3, 519117.4, -0.00000000000000000000000000006039023, 0.000000000009909392, -0.26494697, 0.0, 519117.4, 519117.4, 0.24201433, 0.0049166, 0.0048828125 
9.908882e-1, 2.4414063e-3, 518893.9, -0.00000000000000000000000000013461892, 0.000000000014792176, -0.26659665, 0.0, 518893.9, 518893.9, 0.24200682, 0.004916585, 0.0048828125 
9.908882e-1, 7.324219e-3, 518893.9, -0.00000000000000000000000000010959246, 0.00000000001334656, -0.26659665, 0.0, 518893.9, 518893.9, 0.24200682, 0.004916585, 0.0048828125 
9.9580467e-1, 2.4414063e-3, 518613.25, -0.000000000000000000000000015497248, 0.00000000015867102, -0.268249, 0.0, 518613.25, 518613.25, 0.24199931, 0.0049165664, 0.0048828125 
9.9580467e-1, 7.324219e-3, 518613.25, -0.000000000000000000000000018164171, 0.00000000017178219, -0.268249, 0.0, 518613.25, 518613.25, 0.24199931, 0.0049165664, 0.0048828125 
1.0007212e+0, 2.4414063e-3, 518395.3, -0.0000000000000000000000000005748482, -0.000000000030553747, -0.26990917, 0.0, 518395.3, 518395.3, 0.24199185, 0.0049165515, 0.0048828125 
1.0007212e+0, 7.324219e-3, 518395.3, -0.0000000000000000000000000005748482, -0.000000000030553747, -0.26990917, 0.0, 518395.3, 518395.3, 0.24199185, 0.0049165515, 0.0048828125 
1.00563765e+0, 2.4414063e-3, 518101.3, -0.000000000000000000000000020728322, -0.00000000018342373, -0.27157205, 0.0, 518101.3, 518101.3, 0.2419844, 0.004916532, 0.0048828125 
1.00563765e+0, 7.324219e-3, 518101.3, -0.000000000000000000000000022661082, -0.00000000019178463, -0.27157205, 0.0, 518101.3, 518101.3, 0.2419844, 0.004916532, 0.0048828125 
1.0105542e+0, 2.4414063e-3, 517889.06, -0.00000000000000000000000000063358194, -0.000000000032062297, -0.27324286, 0.0, 517889.06, 517889.06, 0.24197698, 0.0049165175, 0.0048828125 
1.0105542e+0, 7.324219e-3, 517889.06, -0.000000000000000000000000000598241, -0.000000000031155255, -0.27324286, 0.0, 517889.06, 517889.06, 0.24197698, 0.0049165175, 0.0048828125 
1.0154706e+0, 2.4414063e-3, 517580.9, -0.00000000000000000000000000026355631, -0.00000000002067328, -0.27491644, 0.0, 517580.9, 517580.9, 0.2419696, 0.004916497, 0.0048828125 
1.0154706e+0, 7.324219e-3, 517580.9, -0.00000000000000000000000000018135566, -0.000000000017148978, -0.27491644, 0.0, 517580.9, 517580.9, 0.2419696, 0.004916497, 0.0048828125 
1.02038704e+0, 2.4414063e-3, 517374.53, -0.000000000000000000000000027574923, -0.00000000021142282, -0.2765981, 0.0, 517374.53, 517374.53, 0.24196225, 0.004916483, 0.0048828125 
1.02038704e+0, 7.324219e-3, 517374.53, -0.000000000000000000000000024505483, -0.00000000019930875, -0.2765981, 0.0, 517374.53, 517374.53, 0.24196225, 0.004916483, 0.0048828125 
1.02530345e+0, 2.4414063e-3, 517053.7, -0.000000000000000000000000025084996, -0.00000000020159309, -0.27828252, 0.0, 517053.7, 517053.7, 0.24195495, 0.0049164617, 0.0048828125 
1.02530345e+0, 7.324219e-3, 517053.7, -0.00000000000000000000000002553958, -0.0000000002034115, -0.27828252, 0.0, 517053.7, 517053.7, 0.24195495, 0.0049164617, 0.0048828125 
1.03021994e+0, 2.4414063e-3, 516851.4, -0.0000000000000000000000000017790135, -0.000000000053676206, -0.27997515, 0.0, 516851.4, 516851.4, 0.2419477, 0.004916448, 0.0048828125 
1.03021994e+0, 7.324219e-3, 516851.4, -0.0000000000000000000000000016498941, -0.00000000005169163, -0.27997515, 0.0, 516851.4, 516851.4, 0.2419477, 0.004916448, 0.0048828125 
1.0351362e+0, 2.4414063e-3, 516518.47, -0.000000000000000000000000005311755, -0.00000000009272136, -0.2816706, 0.0, 516518.47, 516518.47, 0.24194048, 0.004916426, 0.0048828125 
1.0351362e+0, 7.324219e-3, 516518.47, -0.0000000000000000000000000034729324, -0.0000000000749737, -0.2816706, 0.0, 516518.47, 516518.47, 0.24194048, 0.004916426, 0.0048828125 
1.0400526e+0, 2.4414063e-3, 516319.9, -0.0000000000000000000000000011136294, 0.000000000042447882, -0.28337443, 0.0, 516319.9, 516319.9, 0.24193333, 0.0049164123, 0.0048828125 
1.0400526e+0, 7.324219e-3, 516319.9, -0.0000000000000000000000000011210468, 0.000000000042589016, -0.28337443, 0.0, 516319.9, 516319.9, 0.24193333, 0.0049164123, 0.0048828125 
1.04496896e+0, 2.4414063e-3, 515975.53, -0.000000000000000000000000049459533, 0.00000000028279662, -0.28508112, 0.0, 515975.53, 515975.53, 0.24192624, 0.0049163895, 0.0048828125 
1.04496896e+0, 7.324219e-3, 515975.53, -0.000000000000000000000000047333737, 0.00000000027665248, -0.28508112, 0.0, 515975.53, 515975.53, 0.24192624, 0.0049163895, 0.0048828125 
1.0498853e+0, 2.4414063e-3, 515779.84, -0.000000000000000000000000022055577, 0.00000000018881405, -0.2867963, 0.0, 515779.84, 515779.84, 0.24191919, 0.0049163764, 0.0048828125 
1.0498853e+0, 7.324219e-3, 515779.84, -0.000000000000000000000000020503191, 0.00000000018204797, -0.2867963, 0.0, 515779.84, 515779.84, 0.24191919, 0.0049163764, 0.0048828125 
1.0548016e+0, 2.4414063e-3, 515424.56, -0.000000000000000000000000000043516625, 0.0000000000083841935, -0.28851444, 0.0, 515424.56, 515424.56, 0.24191223, 0.0049163527, 0.0048828125 
1.0548016e+0, 7.324219e-3, 515424.56, -0.000000000000000000000000000045249534, 0.0000000000085495005, -0.28851444, 0.0, 515424.56, 515424.56, 0.24191223, 0.0049163527, 0.0048828125 
1.0597179e+0, 2.4414063e-3, 515231.75, -0.0000000000000000000000000030717398, -0.000000000070429204, -0.2902412, 0.0, 515231.75, 515231.75, 0.24190533, 0.0049163396, 0.0048828125 
1.0597179e+0, 7.324219e-3, 515231.75, -0.0000000000000000000000000026352773, -0.00000000006523396, -0.2902412, 0.0, 515231.75, 515231.75, 0.24190533, 0.0049163396, 0.0048828125 
1.0646342e+0, 2.4414063e-3, 514864.38, -0.0000000000000000000000000000016133588, 0.000000000001613538, -0.291971, 0.0, 514864.38, 514864.38, 0.2418985, 0.0049163154, 0.0048828125 
1.0646342e+0, 7.324219e-3, 514864.38, -0.000000000000000000000000000026721595, 0.0000000000065666656, -0.291971, 0.0, 514864.38, 514864.38, 0.2418985, 0.0049163154, 0.0048828125 
1.0695504e+0, 2.4414063e-3, 514675.84, -0.0000000000000000000000000124120985, 0.0000000001415027, -0.29370955, 0.0, 514675.84, 514675.84, 0.24189176, 0.0049163024, 0.0048828125 
1.0695504e+0, 7.324219e-3, 514675.84, -0.000000000000000000000000013594012, 0.00000000014808665, -0.29370955, 0.0, 514675.84, 514675.84, 0.24189176, 0.0049163024, 0.0048828125 
1.0744667e+0, 2.4414063e-3, 514295.3, -0.000000000000000000000000015493173, 0.00000000015803726, -0.29545116, 0.0, 514295.3, 514295.3, 0.24188511, 0.0049162772, 0.0048828125 
1.0744667e+0, 7.324219e-3, 514295.3, -0.000000000000000000000000016647683, 0.00000000016381974, -0.29545116, 0.0, 514295.3, 514295.3, 0.24188511, 0.0049162772, 0.0048828125 
1.0793829e+0, 2.4414063e-3, 514111.66, -0.00000000000000000000000002912276, 0.00000000021663855, -0.2972017, 0.0, 514111.66, 514111.66, 0.24187855, 0.0049162647, 0.0048828125 
1.0793829e+0, 7.324219e-3, 514111.66, -0.0000000000000000000000000288081, 0.00000000021546503, -0.2972017, 0.0, 514111.66, 514111.66, 0.24187855, 0.0049162647, 0.0048828125 
1.0842991e+0, 2.4414063e-3, 513717.66, -0.000000000000000000000000042434914, 0.00000000026141006, -0.29895532, 0.0, 513717.66, 513717.66, 0.2418721, 0.0049162386, 0.0048828125 
1.0842991e+0, 7.324219e-3, 513717.66, -0.000000000000000000000000040322363, 0.00000000025482005, -0.29895532, 0.0, 513717.66, 513717.66, 0.2418721, 0.0049162386, 0.0048828125 
1.0892153e+0, 2.4414063e-3, 513539.1, -0.00000000000000000000000003632301, -0.00000000024181515, -0.300718, 0.0, 513539.1, 513539.1, 0.24186575, 0.0049162265, 0.0048828125 
1.0892153e+0, 7.324219e-3, 513539.1, -0.00000000000000000000000003642435, -0.00000000024215224, -0.300718, 0.0, 513539.1, 513539.1, 0.24186575, 0.0049162265, 0.0048828125 
1.0941315e+0, 2.4414063e-3, 513130.94, -0.00000000000000000000000014008179, -0.0000000004746988, -0.3024839, 0.0, 513130.94, 513130.94, 0.24185951, 0.0049161995, 0.0048828125 
1.0941315e+0, 7.324219e-3, 513130.94, -0.0000000000000000000000001384503, -0.00000000047192633, -0.3024839, 0.0, 513130.94, 513130.94, 0.24185951, 0.0049161995, 0.0048828125 
1.0990475e+0, 2.4414063e-3, 512958.13, -0.00000000000000000000000002595546, 0.00000000020430344, -0.3042589, 0.0, 512958.13, 512958.13, 0.2418534, 0.004916188, 0.0048828125 
1.0990475e+0, 7.324219e-3, 512958.13, -0.000000000000000000000000026247532, 0.00000000020544971, -0.3042589, 0.0, 512958.13, 512958.13, 0.2418534, 0.004916188, 0.0048828125 
1.1039637e+0, 2.4414063e-3, 512535.5, -0.000000000000000000000000013586162, 0.0000000001477535, -0.30603728, 0.0, 512535.5, 512535.5, 0.24184741, 0.00491616, 0.0048828125 
1.1039637e+0, 7.324219e-3, 512535.5, -0.000000000000000000000000014953915, 0.00000000015501254, -0.30603728, 0.0, 512535.5, 512535.5, 0.24184741, 0.00491616, 0.0048828125 
1.1088798e+0, 2.4414063e-3, 512368.16, -0.0000000000000000000000013906969, -0.0000000014946572, -0.30782497, 0.0, 512368.16, 512368.16, 0.24184155, 0.0049161487, 0.0048828125 
1.1088798e+0, 7.324219e-3, 512368.16, -0.0000000000000000000000013797561, -0.0000000014887663, -0.30782497, 0.0, 512368.16, 512368.16, 0.24184155, 0.0049161487, 0.0048828125 
1.11379586e+0, 2.4414063e-3, 511931.75, -0.0000000000000000000000009448772, -0.0000000012315009, -0.30961606, 0.0, 511931.75, 511931.75, 0.24183585, 0.00491612, 0.0048828125 
1.11379586e+0, 7.324219e-3, 511931.75, -0.0000000000000000000000009313701, -0.0000000012226671, -0.30961606, 0.0, 511931.75, 511931.75, 0.24183585, 0.00491612, 0.0048828125 
1.118712e+0, 2.4414063e-3, 511769.22, -0.0000000000000000000000030498045, 0.0000000022121809, -0.31141666, 0.0, 511769.22, 511769.22, 0.24183029, 0.0049161087, 0.0048828125 
1.118712e+0, 7.324219e-3, 511769.22, -0.0000000000000000000000030225355, 0.0000000022022688, -0.31141666, 0.0, 511769.22, 511769.22, 0.24183029, 0.0049161087, 0.0048828125 
1.1236279e+0, 2.4414063e-3, 511318.5, -0.000000000000000000000006686177, 0.0000000032740743, -0.31322077, 0.0, 511318.5, 511318.5, 0.2418249, 0.004916079, 0.0048828125 
1.1236279e+0, 7.324219e-3, 511318.5, -0.0000000000000000000000066804354, 0.0000000032726684, -0.31322077, 0.0, 511318.5, 511318.5, 0.2418249, 0.004916079, 0.0048828125 
1.128544e+0, 2.4414063e-3, 511161.84, -0.00000000000000000000000035907854, -0.0000000007586369, -0.31503454, 0.0, 511161.84, 511161.84, 0.24181968, 0.004916068, 0.0048828125 
1.128544e+0, 7.324219e-3, 511161.84, -0.00000000000000000000000035836432, -0.00000000075788203, -0.31503454, 0.0, 511161.84, 511161.84, 0.24181968, 0.004916068, 0.0048828125 
1.13345996e+0, 2.4414063e-3, 510695.6, -0.000000000000000000000008179527, -0.0000000036191874, -0.31685194, 0.0, 510695.6, 510695.6, 0.24181464, 0.0049160374, 0.0048828125 
1.13345996e+0, 7.324219e-3, 510695.6, -0.00000000000000000000000819985, -0.0000000036236807, -0.31685194, 0.0, 510695.6, 510695.6, 0.24181464, 0.0049160374, 0.0048828125 
1.138376e+0, 2.4414063e-3, 510545.84, -0.0000000000000000000000006671951, -0.0000000010335117, -0.31867906, 0.0, 510545.84, 510545.84, 0.2418098, 0.004916027, 0.0048828125 
1.138376e+0, 7.324219e-3, 510545.84, -0.0000000000000000000000006396193, -0.0000000010119283, -0.31867906, 0.0, 510545.84, 510545.84, 0.2418098, 0.004916027, 0.0048828125 
1.143292e+0, 2.4414063e-3, 510063.06, -0.0000000000000000000000022472162, 0.0000000018958826, -0.3205099, 0.0, 510063.06, 510063.06, 0.24180515, 0.0049159955, 0.0048828125 
1.143292e+0, 7.324219e-3, 510063.06, -0.0000000000000000000000022383792, 0.000000001892151, -0.3205099, 0.0, 510063.06, 510063.06, 0.24180515, 0.0049159955, 0.0048828125 
1.1482078e+0, 2.4414063e-3, 509921.25, -0.0000000000000000000000016053239, 0.0000000016021942, -0.3223506, 0.0, 509921.25, 509921.25, 0.24180073, 0.0049159857, 0.0048828125 
1.1482078e+0, 7.324219e-3, 509921.25, -0.0000000000000000000000016272087, 0.0000000016130783, -0.3223506, 0.0, 509921.25, 509921.25, 0.24180073, 0.0049159857, 0.0048828125 
1.15312375e+0, 2.4414063e-3, 509420.38, -0.00000000000000000000000040302714, 0.0000000008024029, -0.3241951, 0.0, 509420.38, 509420.38, 0.24179651, 0.0049159527, 0.0048828125 
1.15312375e+0, 7.324219e-3, 509420.38, -0.0000000000000000000000004095784, 0.0000000008088982, -0.3241951, 0.0, 509420.38, 509420.38, 0.24179651, 0.0049159527, 0.0048828125 
1.1580397e+0, 2.4414063e-3, 509287.88, -0.00000000000000000000000032587987, -0.0000000007214434, -0.3260495, 0.0, 509287.88, 509287.88, 0.24179254, 0.004915944, 0.0048828125 
1.1580397e+0, 7.324219e-3, 509287.88, -0.00000000000000000000000032719142, -0.00000000072289374, -0.3260495, 0.0, 509287.88, 509287.88, 0.24179254, 0.004915944, 0.0048828125 
1.16295554e+0, 2.4414063e-3, 508768.75, -0.0000000000000000000000047507645, -0.0000000027532026, -0.32790783, 0.0, 508768.75, 508768.75, 0.24178882, 0.00491591, 0.0048828125 
1.16295554e+0, 7.324219e-3, 508768.75, -0.0000000000000000000000048129855, -0.0000000027711733, -0.32790783, 0.0, 508768.75, 508768.75, 0.24178882, 0.00491591, 0.0048828125 
1.16787136e+0, 2.4414063e-3, 508644.63, -0.00000000000000000000000076411463, -0.0000000011040449, -0.32977623, 0.0, 508644.63, 508644.63, 0.24178538, 0.0049159015, 0.0048828125 
1.16787136e+0, 7.324219e-3, 508644.63, -0.0000000000000000000000007638704, -0.0000000011038684, -0.32977623, 0.0, 508644.63, 508644.63, 0.24178538, 0.0049159015, 0.0048828125 
1.1727872e+0, 2.4414063e-3, 508108.63, -0.000000000000000000000002261314, 0.0000000018982904, -0.33164868, 0.0, 508108.63, 508108.63, 0.2417822, 0.004915866, 0.0048828125 
1.1727872e+0, 7.324219e-3, 508108.63, -0.000000000000000000000002269748, 0.0000000019018271, -0.33164868, 0.0, 508108.63, 508108.63, 0.2417822, 0.004915866, 0.0048828125 
1.177703e+0, 2.4414063e-3, 507991.25, -0.0000000000000000000000012705328, 0.0000000014227493, -0.33353135, 0.0, 507991.25, 507991.25, 0.24177931, 0.004915858, 0.0048828125 
1.177703e+0, 7.324219e-3, 507991.25, -0.0000000000000000000000012625101, 0.0000000014182502, -0.33353135, 0.0, 507991.25, 507991.25, 0.24177931, 0.004915858, 0.0048828125 
1.1826187e+0, 2.4414063e-3, 507439.44, -0.00000000000000000000000007552234, -0.00000000034668907, -0.33541825, 0.0, 507439.44, 507439.44, 0.24177673, 0.004915822, 0.0048828125 
1.1826187e+0, 7.324219e-3, 507439.44, -0.00000000000000000000000007437283, -0.00000000034404052, -0.33541825, 0.0, 507439.44, 507439.44, 0.24177673, 0.004915822, 0.0048828125 
1.18753456e+0, 2.4414063e-3, 507327.72, -0.00000000000000000000000015649381, -0.00000000049900606, -0.33731553, 0.0, 507327.72, 507327.72, 0.24177448, 0.0049158144, 0.0048828125 
1.18753456e+0, 7.324219e-3, 507327.72, -0.00000000000000000000000015409348, -0.00000000049516435, -0.33731553, 0.0, 507327.72, 507327.72, 0.24177448, 0.0049158144, 0.0048828125 
1.1924503e+0, 2.4414063e-3, 506761.53, -0.000000000000000000000000004570794, -0.00000000008523398, -0.33921722, 0.0, 506761.53, 506761.53, 0.24177258, 0.004915777, 0.0048828125 
1.1924503e+0, 7.324219e-3, 506761.53, -0.0000000000000000000000000036265053, -0.00000000007592086, -0.33921722, 0.0, 506761.53, 506761.53, 0.24177258, 0.004915777, 0.0048828125 
1.197366e+0, 2.4414063e-3, 506653.5, -0.000000000000000000000000000008052744, -0.0000000000035772097, -0.34112933, 0.0, 506653.5, 506653.5, 0.24177103, 0.00491577, 0.0048828125 
1.197366e+0, 7.324219e-3, 506653.5, -0.000000000000000000000000000042090666, -0.000000000008178343, -0.34112933, 0.0, 506653.5, 506653.5, 0.24177103, 0.00491577, 0.0048828125 
1.2022817e+0, 2.4414063e-3, 506075.06, -0.0000000000000000000000000041908417, -0.00000000008155984, -0.343046, 0.0, 506075.06, 506075.06, 0.24176985, 0.004915732, 0.0048828125 
1.2022817e+0, 7.324219e-3, 506075.06, -0.0000000000000000000000000038951344, -0.00000000007862976, -0.343046, 0.0, 506075.06, 506075.06, 0.24176985, 0.004915732, 0.0048828125 
1.2071973e+0, 2.4414063e-3, 505968.7, -0.0000000000000000000000000018681935, 0.000000000054449247, -0.34497312, 0.0, 505968.7, 505968.7, 0.24176906, 0.004915725, 0.0048828125 
1.2071973e+0, 7.324219e-3, 505968.7, -0.00000000000000000000000000098818175, 0.000000000039600382, -0.34497312, 0.0, 505968.7, 505968.7, 0.24176906, 0.004915725, 0.0048828125 
1.21211305e+0, 2.4414063e-3, 505378.44, -0.000000000000000000000000023260026, 0.00000000019201403, -0.34690493, 0.0, 505378.44, 505378.44, 0.2417687, 0.004915686, 0.0048828125 
1.21211305e+0, 7.324219e-3, 505378.44, -0.000000000000000000000000025091166, 0.00000000019942899, -0.34690493, 0.0, 505378.44, 505378.44, 0.2417687, 0.004915686, 0.0048828125 
1.21702865e+0, 2.4414063e-3, 505274.47, -0.0000000000000000000000000009490497, 0.000000000038781763, -0.34884718, 0.0, 505274.47, 505274.47, 0.24176876, 0.0049156793, 0.0048828125 
1.21702865e+0, 7.324219e-3, 505274.47, -0.0000000000000000000000000011267434, 0.000000000042256698, -0.34884718, 0.0, 505274.47, 505274.47, 0.24176876, 0.0049156793, 0.0048828125 
1.22194424e+0, 2.4414063e-3, 504671.16, -0.00000000000000000000000007942878, 0.0000000003545781, -0.35079432, 0.0, 504671.16, 504671.16, 0.2417693, 0.0049156398, 0.0048828125 
1.22194424e+0, 7.324219e-3, 504671.16, -0.00000000000000000000000008250272, 0.00000000036137415, -0.35079432, 0.0, 504671.16, 504671.16, 0.2417693, 0.0049156398, 0.0048828125 
1.22685984e+0, 2.4414063e-3, 504570.88, -0.000000000000000000000001167074, 0.0000000013590259, -0.3527519, 0.0, 504570.88, 504570.88, 0.2417703, 0.0049156332, 0.0048828125 
1.22685984e+0, 7.324219e-3, 504570.88, -0.0000000000000000000000011731368, 0.0000000013625514, -0.3527519, 0.0, 504570.88, 504570.88, 0.2417703, 0.0049156332, 0.0048828125 
1.2317753e+0, 2.4414063e-3, 503954.2, -0.00000000000000000000000024858003, 0.00000000062682204, -0.35471463, 0.0, 503954.2, 503954.2, 0.24177182, 0.0049155927, 0.0048828125 
1.2317753e+0, 7.324219e-3, 503954.2, -0.00000000000000000000000024267957, 0.000000000619338, -0.35471463, 0.0, 503954.2, 503954.2, 0.24177182, 0.0049155927, 0.0048828125 
1.2366909e+0, 2.4414063e-3, 503856.97, -0.0000000000000000000000027912597, -0.0000000021002302, -0.356688, 0.0, 503856.97, 503856.97, 0.24177386, 0.004915586, 0.0048828125 
1.2366909e+0, 7.324219e-3, 503856.97, -0.0000000000000000000000027761283, -0.0000000020945299, -0.356688, 0.0, 503856.97, 503856.97, 0.24177386, 0.004915586, 0.0048828125 
1.2416063e+0, 2.4414063e-3, 503227.6, -0.0000000000000000000000023347011, -0.0000000019195874, -0.35866675, 0.0, 503227.6, 503227.6, 0.24177645, 0.004915545, 0.0048828125 
1.2416063e+0, 7.324219e-3, 503227.6, -0.000000000000000000000002307356, -0.0000000019083126, -0.35866675, 0.0, 503227.6, 503227.6, 0.24177645, 0.004915545, 0.0048828125 
1.24652185e+0, 2.4414063e-3, 503132.5, -0.0000000000000000000000010809808, 0.0000000013060396, -0.36065635, 0.0, 503132.5, 503132.5, 0.24177963, 0.004915539, 0.0048828125 
1.24652185e+0, 7.324219e-3, 503132.5, -0.000000000000000000000001079555, 0.0000000013051781, -0.36065635, 0.0, 503132.5, 503132.5, 0.24177963, 0.004915539, 0.0048828125 
1.2514374e+0, 2.4414063e-3, 502490.94, -0.000000000000000000000002095351, 0.0000000018171642, -0.3626516, 0.0, 502490.94, 502490.94, 0.24178341, 0.004915497, 0.0048828125 
1.2514374e+0, 7.324219e-3, 502490.94, -0.0000000000000000000000021264235, 0.0000000018305881, -0.3626516, 0.0, 502490.94, 502490.94, 0.24178341, 0.004915497, 0.0048828125 
1.2563528e+0, 2.4414063e-3, 502397.47, -0.000000000000000000000000031475322, -0.00000000022269228, -0.3646578, 0.0, 502397.47, 502397.47, 0.24178784, 0.004915491, 0.0048828125 
1.2563528e+0, 7.324219e-3, 502397.47, -0.000000000000000000000000033441746, -0.00000000022954326, -0.3646578, 0.0, 502397.47, 502397.47, 0.24178784, 0.004915491, 0.0048828125 
1.2612681e+0, 2.4414063e-3, 501743.72, -0.0000000000000000000000008315239, -0.0000000011438488, -0.36666977, 0.0, 501743.72, 501743.72, 0.24179293, 0.0049154484, 0.0048828125 
1.2612681e+0, 7.324219e-3, 501743.72, -0.0000000000000000000000008618855, -0.0000000011645442, -0.36666977, 0.0, 501743.72, 501743.72, 0.24179293, 0.0049154484, 0.0048828125 
1.2661836e+0, 2.4414063e-3, 501651.97, -0.0000000000000000000000008314739, -0.0000000011436915, -0.36869267, 0.0, 501651.97, 501651.97, 0.24179873, 0.0049154423, 0.0048828125 
1.2661836e+0, 7.324219e-3, 501651.97, -0.0000000000000000000000008307773, -0.0000000011432124, -0.36869267, 0.0, 501651.97, 501651.97, 0.24179873, 0.0049154423, 0.0048828125 
1.2710989e+0, 2.4414063e-3, 500986.34, -0.00000000000000000000000059949795, -0.0000000009704705, -0.37072146, 0.0, 500986.34, 500986.34, 0.24180526, 0.004915399, 0.0048828125 
1.2710989e+0, 7.324219e-3, 500986.34, -0.0000000000000000000000005835673, -0.0000000009574894, -0.37072146, 0.0, 500986.34, 500986.34, 0.24180526, 0.004915399, 0.0048828125 
1.2760141e+0, 2.4414063e-3, 500895.5, -0.0000000000000000000000000015168096, 0.00000000004880968, -0.37276104, 0.0, 500895.5, 500895.5, 0.24181256, 0.0049153934, 0.0048828125 
1.2760141e+0, 7.324219e-3, 500895.5, -0.0000000000000000000000000013470244, 0.000000000045996856, -0.37276104, 0.0, 500895.5, 500895.5, 0.24181256, 0.0049153934, 0.0048828125 
1.2809296e+0, 2.4414063e-3, 500219.16, -0.0000000000000000000000024017123, 0.0000000019408761, -0.37480676, 0.0, 500219.16, 500219.16, 0.24182066, 0.004915349, 0.0048828125 
1.2809296e+0, 7.324219e-3, 500219.16, -0.0000000000000000000000024029186, 0.0000000019413637, -0.37480676, 0.0, 500219.16, 500219.16, 0.24182066, 0.004915349, 0.0048828125 
1.2858447e+0, 2.4414063e-3, 500127.88, -0.000000000000000000000006800801, 0.0000000032656309, -0.37686327, 0.0, 500127.88, 500127.88, 0.24182962, 0.0049153436, 0.0048828125 
1.2858447e+0, 7.324219e-3, 500127.88, -0.000000000000000000000006813011, 0.0000000032685612, -0.37686327, 0.0, 500127.88, 500127.88, 0.24182962, 0.0049153436, 0.0048828125 
1.29076e+0, 2.4414063e-3, 499442.2, -0.0000000000000000000000002133309, 0.00000000057796873, -0.3789263, 0.0, 499442.2, 499442.2, 0.24183945, 0.0049152994, 0.0048828125 
1.29076e+0, 7.324219e-3, 499442.2, -0.00000000000000000000000020985894, 0.0000000005732462, -0.3789263, 0.0, 499442.2, 499442.2, 0.24183945, 0.0049152994, 0.0048828125 
1.2956753e+0, 2.4414063e-3, 499349.1, -0.0000000000000000000000047064447, -0.00000000271438, -0.38100034, 0.0, 499349.1, 499349.1, 0.24185021, 0.0049152933, 0.0048828125 
1.2956753e+0, 7.324219e-3, 499349.1, -0.0000000000000000000000046802234, -0.000000002706808, -0.38100034, 0.0, 499349.1, 499349.1, 0.24185021, 0.0049152933, 0.0048828125 
1.3005905e+0, 2.4414063e-3, 498654.06, -0.0000000000000000000000010118678, -0.0000000012576785, -0.38308138, 0.0, 498654.06, 498654.06, 0.24186194, 0.004915248, 0.0048828125 
1.3005905e+0, 7.324219e-3, 498654.06, -0.0000000000000000000000010449894, -0.0000000012780966, -0.38308138, 0.0, 498654.06, 498654.06, 0.24186194, 0.004915248, 0.0048828125 
1.3055056e+0, 2.4414063e-3, 498559.72, -0.0000000000000000000000005639293, -0.00000000093878, -0.38517377, 0.0, 498559.72, 498559.72, 0.24187468, 0.0049152425, 0.0048828125 
1.3055056e+0, 7.324219e-3, 498559.72, -0.0000000000000000000000005687353, -0.0000000009427719, -0.38517377, 0.0, 498559.72, 498559.72, 0.24187468, 0.0049152425, 0.0048828125 
1.310421e+0, 2.4414063e-3, 497854.4, -0.0000000000000000000000045669698, -0.0000000026695728, -0.38727343, 0.0, 497854.4, 497854.4, 0.2418885, 0.004915197, 0.0048828125 
1.310421e+0, 7.324219e-3, 497854.4, -0.000000000000000000000004455, -0.0000000026366445, -0.38727343, 0.0, 497854.4, 497854.4, 0.2418885, 0.004915197, 0.0048828125 
1.315336e+0, 2.4414063e-3, 497759.34, -0.00000000000000000000000000037629402, 0.000000000024228815, -0.38938442, 0.0, 497759.34, 497759.34, 0.2419034, 0.0049151913, 0.0048828125 
1.315336e+0, 7.324219e-3, 497759.34, -0.0000000000000000000000000012326609, 0.000000000043852096, -0.38938442, 0.0, 497759.34, 497759.34, 0.2419034, 0.0049151913, 0.0048828125 
1.3202511e+0, 2.4414063e-3, 497043.94, -0.000000000000000000000004824151, 0.0000000027412432, -0.39150274, 0.0, 497043.94, 497043.94, 0.24191947, 0.004915145, 0.0048828125 
1.3202511e+0, 7.324219e-3, 497043.94, -0.0000000000000000000000048021048, 0.0000000027349725, -0.39150274, 0.0, 497043.94, 497043.94, 0.24191947, 0.004915145, 0.0048828125 
1.3251661e+0, 2.4414063e-3, 496947.13, -0.0000000000000000000000010747927, 0.0000000012937093, -0.39363194, 0.0, 496947.13, 496947.13, 0.24193676, 0.0049151396, 0.0048828125 
1.3251661e+0, 7.324219e-3, 496947.13, -0.0000000000000000000000010664051, 0.0000000012886513, -0.39363194, 0.0, 496947.13, 496947.13, 0.24193676, 0.0049151396, 0.0048828125 
1.3300812e+0, 2.4414063e-3, 496222.78, -0.00000000000000000000000027801477, -0.00000000065746025, -0.39576846, 0.0, 496222.78, 496222.78, 0.24195531, 0.0049150926, 0.0048828125 
1.3300812e+0, 7.324219e-3, 496222.78, -0.00000000000000000000000029240498, -0.0000000006742608, -0.39576846, 0.0, 496222.78, 496222.78, 0.24195531, 0.0049150926, 0.0048828125 
1.3349962e+0, 2.4414063e-3, 496123.38, -0.0000000000000000000000011251387, -0.0000000013224263, -0.3979155, 0.0, 496123.38, 496123.38, 0.2419752, 0.004915087, 0.0048828125 
1.3349962e+0, 7.324219e-3, 496123.38, -0.0000000000000000000000011343557, -0.0000000013278317, -0.3979155, 0.0, 496123.38, 496123.38, 0.2419752, 0.004915087, 0.0048828125 
1.3399112e+0, 2.4414063e-3, 495391.25, -0.00000000000000000000000035139595, -0.00000000073844963, -0.4000704, 0.0, 495391.25, 495391.25, 0.24199647, 0.00491504, 0.0048828125 
1.3399112e+0, 7.324219e-3, 495391.25, -0.0000000000000000000000003373319, -0.00000000072352113, -0.4000704, 0.0, 495391.25, 495391.25, 0.24199647, 0.00491504, 0.0048828125 
1.3448262e+0, 2.4414063e-3, 495288.1, -0.000000000000000000000000009871701, 0.00000000012375033, -0.40223595, 0.0, 495288.1, 495288.1, 0.2420192, 0.004915034, 0.0048828125 
1.3448262e+0, 7.324219e-3, 495288.1, -0.000000000000000000000000008134487, 0.000000000112335086, -0.40223595, 0.0, 495288.1, 495288.1, 0.2420192, 0.004915034, 0.0048828125 
1.349741e+0, 2.4414063e-3, 494549.2, -0.00000000000000000000000000009938378, -0.000000000012406667, -0.40441036, 0.0, 494549.2, 494549.2, 0.24204345, 0.0049149864, 0.0048828125 
1.349741e+0, 7.324219e-3, 494549.2, -0.00000000000000000000000000040188038, -0.000000000024948578, -0.40441036, 0.0, 494549.2, 494549.2, 0.24204345, 0.0049149864, 0.0048828125 
1.3546559e+0, 2.4414063e-3, 494440.9, -0.0000000000000000000000030082487, 0.0000000021581223, -0.40659636, 0.0, 494440.9, 494440.9, 0.24206929, 0.0049149804, 0.0048828125 
1.3546559e+0, 7.324219e-3, 494440.9, -0.0000000000000000000000029978442, 0.000000002154387, -0.40659636, 0.0, 494440.9, 494440.9, 0.24206929, 0.0049149804, 0.0048828125 
1.3595709e+0, 2.4414063e-3, 493696.0, -0.0000000000000000000000091260865, 0.0000000037557917, -0.40879175, 0.0, 493696.0, 493696.0, 0.24209678, 0.004914933, 0.0048828125 
1.3595709e+0, 7.324219e-3, 493696.0, -0.0000000000000000000000091633365, 0.0000000037634487, -0.40879175, 0.0, 493696.0, 493696.0, 0.24209678, 0.004914933, 0.0048828125 
1.3644858e+0, 2.4414063e-3, 493580.75, -0.00000000000000000000000011729779, -0.0000000004257148, -0.4109989, 0.0, 493580.75, 493580.75, 0.24212602, 0.0049149264, 0.0048828125 
1.3644858e+0, 7.324219e-3, 493580.75, -0.00000000000000000000000011154979, -0.00000000041515302, -0.4109989, 0.0, 493580.75, 493580.75, 0.24212602, 0.0049149264, 0.0048828125 
1.3694006e+0, 2.4414063e-3, 492831.16, -0.00000000000000000000000705474, -0.0000000032987357, -0.41321516, 0.0, 492831.16, 492831.16, 0.24215707, 0.0049148784, 0.0048828125 
1.3694006e+0, 7.324219e-3, 492831.16, -0.000000000000000000000007097508, -0.0000000033087195, -0.41321516, 0.0, 492831.16, 492831.16, 0.24215707, 0.0049148784, 0.0048828125 
1.3743153e+0, 2.4414063e-3, 492707.16, -0.0000000000000000000000010584123, -0.0000000012774408, -0.4154423, 0.0, 492707.16, 492707.16, 0.24219002, 0.004914872, 0.0048828125 
1.3743153e+0, 7.324219e-3, 492707.16, -0.0000000000000000000000010627146, -0.0000000012800344, -0.4154423, 0.0, 492707.16, 492707.16, 0.24219002, 0.004914872, 0.0048828125 
1.3792302e+0, 2.4414063e-3, 491956.3, -0.0000000000000000000000000972077, 0.00000000038680412, -0.4176783, 0.0, 491956.3, 491956.3, 0.24222496, 0.004914824, 0.0048828125 
1.3792302e+0, 7.324219e-3, 491956.3, -0.000000000000000000000000093197944, 0.0000000003787424, -0.4176783, 0.0, 491956.3, 491956.3, 0.24222496, 0.004914824, 0.0048828125 
1.3841449e+0, 2.4414063e-3, 491820.53, -0.0000000000000000000000006700316, 0.0000000010152772, -0.4199244, 0.0, 491820.53, 491820.53, 0.24226198, 0.0049148165, 0.0048828125 
1.3841449e+0, 7.324219e-3, 491820.53, -0.00000000000000000000000069787255, 0.0000000010361557, -0.4199244, 0.0, 491820.53, 491820.53, 0.24226198, 0.0049148165, 0.0048828125 
1.3890597e+0, 2.4414063e-3, 491071.0, -0.00000000000000000000000013020311, 0.00000000044716733, -0.42217752, 0.0, 491071.0, 491071.0, 0.24230115, 0.004914769, 0.0048828125 
1.3890597e+0, 7.324219e-3, 491071.0, -0.00000000000000000000000014164212, 0.00000000046639687, -0.42217752, 0.0, 491071.0, 491071.0, 0.24230115, 0.004914769, 0.0048828125 
1.3939744e+0, 2.4414063e-3, 490920.66, -0.00000000000000000000000004145674, -0.00000000025225594, -0.42443827, 0.0, 490920.66, 490920.66, 0.2423426, 0.004914761, 0.0048828125 
1.3939744e+0, 7.324219e-3, 490920.66, -0.00000000000000000000000003649036, -0.00000000023666438, -0.42443827, 0.0, 490920.66, 490920.66, 0.2423426, 0.004914761, 0.0048828125 
1.3988891e+0, 2.4414063e-3, 490182.03, -0.000000000000000000000000013547376, 0.00000000014407632, -0.42671698, 0.0, 490182.03, 490182.03, 0.24238642, 0.004914714, 0.0048828125 
1.3988891e+0, 7.324219e-3, 490182.03, -0.000000000000000000000000014612326, 0.00000000014963207, -0.42671698, 0.0, 490182.03, 490182.03, 0.24238642, 0.004914714, 0.0048828125 
1.4038037e+0, 2.4414063e-3, 490016.2, -0.00000000000000000000000059637273, -0.0000000009556428, -0.4290143, 0.0, 490016.2, 490016.2, 0.24243271, 0.004914705, 0.0048828125 
1.4038037e+0, 7.324219e-3, 490016.2, -0.0000000000000000000000005846032, -0.0000000009461659, -0.4290143, 0.0, 490016.2, 490016.2, 0.24243271, 0.004914705, 0.0048828125 
1.4087182e+0, 2.4414063e-3, 489270.78, -0.00000000000000000000000039641335, -0.00000000077843515, -0.43131658, 0.0, 489270.78, 489270.78, 0.2424816, 0.004914658, 0.0048828125 
1.4087182e+0, 7.324219e-3, 489270.78, -0.00000000000000000000000038597842, -0.0000000007681213, -0.43131658, 0.0, 489270.78, 489270.78, 0.2424816, 0.004914658, 0.0048828125 
1.413633e+0, 2.4414063e-3, 489090.22, -0.0000000000000000000000016844381, 0.0000000016041118, -0.43362382, 0.0, 489090.22, 489090.22, 0.2425332, 0.004914649, 0.0048828125 
1.413633e+0, 7.324219e-3, 489090.22, -0.00000000000000000000000164918, 0.0000000015872346, -0.43362382, 0.0, 489090.22, 489090.22, 0.2425332, 0.004914649, 0.0048828125 
1.4185473e+0, 2.4414063e-3, 488348.03, -0.00000000000000000000000005349555, 0.00000000028560893, -0.4359428, 0.0, 488348.03, 488348.03, 0.24258763, 0.0049146023, 0.0048828125 
1.4185473e+0, 7.324219e-3, 488348.03, -0.00000000000000000000000005727692, 0.00000000029553082, -0.4359428, 0.0, 488348.03, 488348.03, 0.24258763, 0.0049146023, 0.0048828125 
1.4234619e+0, 2.4414063e-3, 488153.66, -0.00000000000000000000000076435405, -0.0000000010792099, -0.43827274, 0.0, 488153.66, 488153.66, 0.24264501, 0.004914592, 0.0048828125 
1.4234619e+0, 7.324219e-3, 488153.66, -0.0000000000000000000000007646036, -0.000000001079386, -0.43827274, 0.0, 488153.66, 488153.66, 0.24264501, 0.004914592, 0.0048828125 
1.4283764e+0, 2.4414063e-3, 487412.44, -0.0000000000000000000000009484512, 0.0000000012010598, -0.4406147, 0.0, 487412.44, 487412.44, 0.24270548, 0.0049145455, 0.0048828125 
1.4283764e+0, 7.324219e-3, 487412.44, -0.000000000000000000000000887925, 0.0000000011621047, -0.4406147, 0.0, 487412.44, 487412.44, 0.24270548, 0.0049145455, 0.0048828125 
1.433291e+0, 2.4414063e-3, 487204.22, -0.00000000000000000000000048700387, 0.0000000008603106, -0.44296733, 0.0, 487204.22, 487204.22, 0.2427692, 0.0049145347, 0.0048828125 
1.433291e+0, 7.324219e-3, 487204.22, -0.00000000000000000000000049163705, 0.0000000008643932, -0.44296733, 0.0, 487204.22, 487204.22, 0.2427692, 0.0049145347, 0.0048828125 
1.4382054e+0, 2.4414063e-3, 486464.44, -0.000000000000000000000001833956, -0.0000000016679162, -0.44533262, 0.0, 486464.44, 486464.44, 0.24283628, 0.0049144886, 0.0048828125 
1.4382054e+0, 7.324219e-3, 486464.44, -0.0000000000000000000000018350455, -0.0000000016684116, -0.44533262, 0.0, 486464.44, 486464.44, 0.24283628, 0.0049144886, 0.0048828125 
1.4431198e+0, 2.4414063e-3, 486242.5, -0.000000000000000000000000424137, -0.000000000801771, -0.44770867, 0.0, 486242.5, 486242.5, 0.24290688, 0.0049144775, 0.0048828125 
1.4431198e+0, 7.324219e-3, 486242.5, -0.0000000000000000000000004225755, -0.0000000008002937, -0.44770867, 0.0, 486242.5, 486242.5, 0.24290688, 0.0049144775, 0.0048828125 
1.4480342e+0, 2.4414063e-3, 485503.75, -0.00000000000000000000000054135545, 0.0000000009049417, -0.45009738, 0.0, 485503.75, 485503.75, 0.2429812, 0.004914432, 0.0048828125 
1.4480342e+0, 7.324219e-3, 485503.75, -0.00000000000000000000000052831967, 0.00000000089397983, -0.45009738, 0.0, 485503.75, 485503.75, 0.2429812, 0.004914432, 0.0048828125 
1.4529485e+0, 2.4414063e-3, 485267.25, -0.00000000000000000000000005548181, 0.00000000028957198, -0.45249632, 0.0, 485267.25, 485267.25, 0.24305935, 0.0049144197, 0.0048828125 
1.4529485e+0, 7.324219e-3, 485267.25, -0.000000000000000000000000060976353, 0.00000000030357217, -0.45249632, 0.0, 485267.25, 485267.25, 0.24305935, 0.0049144197, 0.0048828125 
1.4578629e+0, 2.4414063e-3, 484530.03, -0.000000000000000000000000079625087, -0.00000000034656045, -0.45490837, 0.0, 484530.03, 484530.03, 0.24314153, 0.0049143746, 0.0048828125 
1.4578629e+0, 7.324219e-3, 484530.03, -0.000000000000000000000000079357084, -0.00000000034597672, -0.45490837, 0.0, 484530.03, 484530.03, 0.24314153, 0.0049143746, 0.0048828125 
1.4627771e+0, 2.4414063e-3, 484278.34, -0.0000000000000000000000000026295147, 0.000000000062947286, -0.45733052, 0.0, 484278.34, 484278.34, 0.24322793, 0.0049143615, 0.0048828125 
1.4627771e+0, 7.324219e-3, 484278.34, -0.0000000000000000000000000037806925, 0.00000000007547878, -0.45733052, 0.0, 484278.34, 484278.34, 0.24322793, 0.0049143615, 0.0048828125 
1.4676914e+0, 2.4414063e-3, 483543.0, -0.0000000000000000000000000921183, 0.00000000037219886, -0.45976645, 0.0, 483543.0, 483543.0, 0.24331874, 0.0049143173, 0.0048828125 
1.4676914e+0, 7.324219e-3, 483543.0, -0.00000000000000000000000009122143, 0.00000000037038253, -0.45976645, 0.0, 483543.0, 483543.0, 0.24331874, 0.0049143173, 0.0048828125 
1.4726056e+0, 2.4414063e-3, 483276.0, -0.0000000000000000000000000014070464, 0.00000000004597522, -0.46221253, 0.0, 483276.0, 483276.0, 0.24341413, 0.0049143033, 0.0048828125 
1.4726056e+0, 7.324219e-3, 483276.0, -0.0000000000000000000000000015056351, 0.000000000047558645, -0.46221253, 0.0, 483276.0, 483276.0, 0.24341413, 0.0049143033, 0.0048828125 
1.4775197e+0, 2.4414063e-3, 482541.94, -0.00000000000000000000000013531602, -0.00000000045039747, -0.46467283, 0.0, 482541.94, 482541.94, 0.24351433, 0.0049142595, 0.0048828125 
1.4775197e+0, 7.324219e-3, 482541.94, -0.0000000000000000000000001270176, -0.00000000043636839, -0.46467283, 0.0, 482541.94, 482541.94, 0.24351433, 0.0049142595, 0.0048828125 
1.482434e+0, 2.4414063e-3, 482260.63, -0.00000000000000000000000018924825, -0.0000000005323369, -0.4671432, 0.0, 482260.63, 482260.63, 0.24361955, 0.004914245, 0.0048828125 
1.482434e+0, 7.324219e-3, 482260.63, -0.00000000000000000000000017479301, -0.00000000051160254, -0.4671432, 0.0, 482260.63, 482260.63, 0.24361955, 0.004914245, 0.0048828125 
1.4873481e+0, 2.4414063e-3, 481526.6, -0.00000000000000000000000000068034785, 0.000000000031884176, -0.46962827, 0.0, 481526.6, 481526.6, 0.24373001, 0.004914202, 0.0048828125 
1.4873481e+0, 7.324219e-3, 481526.6, -0.0000000000000000000000000006899663, 0.000000000032108767, -0.46962827, 0.0, 481526.6, 481526.6, 0.24373001, 0.004914202, 0.0048828125 
1.4922622e+0, 2.4414063e-3, 481232.2, -0.00000000000000000000000015505411, 0.00000000048104076, -0.4721233, 0.0, 481232.2, 481232.2, 0.24384595, 0.004914187, 0.0048828125 
1.4922622e+0, 7.324219e-3, 481232.2, -0.00000000000000000000000014520786, 0.00000000046551674, -0.4721233, 0.0, 481232.2, 481232.2, 0.24384595, 0.004914187, 0.0048828125 
1.4971763e+0, 2.4414063e-3, 480497.72, -0.0000000000000000000000000073574715, 0.00000000010467177, -0.47463346, 0.0, 480497.72, 480497.72, 0.24396762, 0.004914144, 0.0048828125 
1.4971763e+0, 7.324219e-3, 480497.72, -0.0000000000000000000000000076694336, 0.00000000010686781, -0.47463346, 0.0, 480497.72, 480497.72, 0.24396762, 0.004914144, 0.0048828125 
1.5020904e+0, 2.4414063e-3, 480189.47, -0.00000000000000000000000008383579, -0.00000000035309403, -0.47715348, 0.0, 480189.47, 480189.47, 0.24409527, 0.0049141287, 0.0048828125 
1.5020904e+0, 7.324219e-3, 480189.47, -0.00000000000000000000000008073505, -0.00000000034650277, -0.47715348, 0.0, 480189.47, 480189.47, 0.24409527, 0.0049141287, 0.0048828125 
1.5070044e+0, 2.4414063e-3, 479454.53, -0.00000000000000000000000015108273, -0.00000000047347043, -0.4796891, 0.0, 479454.53, 479454.53, 0.24422917, 0.0049140863, 0.0048828125 
1.5070044e+0, 7.324219e-3, 479454.53, -0.00000000000000000000000015216548, -0.00000000047516396, -0.4796891, 0.0, 479454.53, 479454.53, 0.24422917, 0.0049140863, 0.0048828125 
1.5119185e+0, 2.4414063e-3, 479133.22, -0.00000000000000000000000048872877, -0.00000000085095897, -0.48223448, 0.0, 479133.22, 479133.22, 0.24436958, 0.004914071, 0.0048828125 
1.5119185e+0, 7.324219e-3, 479133.22, -0.00000000000000000000000048030763, -0.0000000008435958, -0.48223448, 0.0, 479133.22, 479133.22, 0.24436958, 0.004914071, 0.0048828125 
1.5168324e+0, 2.4414063e-3, 478396.1, -0.000000000000000000000000002047764, 0.000000000055018295, -0.4847959, 0.0, 478396.1, 478396.1, 0.2445168, 0.0049140286, 0.0048828125 
1.5168324e+0, 7.324219e-3, 478396.1, -0.0000000000000000000000000019100668, 0.000000000053136318, -0.4847959, 0.0, 478396.1, 478396.1, 0.2445168, 0.0049140286, 0.0048828125 
1.5217462e+0, 2.4414063e-3, 478064.1, -0.0000000000000000000000027911307, 0.0000000020296684, -0.48736697, 0.0, 478064.1, 478064.1, 0.24467115, 0.004914013, 0.0048828125 
1.5217462e+0, 7.324219e-3, 478064.1, -0.0000000000000000000000027407248, 0.0000000020112578, -0.48736697, 0.0, 478064.1, 478064.1, 0.24467115, 0.004914013, 0.0048828125 
1.5266602e+0, 2.4414063e-3, 477323.13, -0.0000000000000000000000015080782, 0.0000000014901158, -0.48995468, 0.0, 477323.13, 477323.13, 0.24483292, 0.004913971, 0.0048828125 
1.5266602e+0, 7.324219e-3, 477323.13, -0.0000000000000000000000015146704, 0.0000000014933692, -0.48995468, 0.0, 477323.13, 477323.13, 0.24483292, 0.004913971, 0.0048828125 
1.5315741e+0, 2.4414063e-3, 476980.75, -0.0000000000000000000000003334743, -0.00000000070013917, -0.492552, 0.0, 476980.75, 476980.75, 0.24500243, 0.0049139555, 0.0048828125 
1.5315741e+0, 7.324219e-3, 476980.75, -0.0000000000000000000000003220575, -0.00000000068804984, -0.492552, 0.0, 476980.75, 476980.75, 0.24500243, 0.0049139555, 0.0048828125 
1.536488e+0, 2.4414063e-3, 476235.97, -0.000000000000000000000001126542, -0.0000000012852247, -0.49516657, 0.0, 476235.97, 476235.97, 0.24518006, 0.0049139136, 0.0048828125 
1.536488e+0, 7.324219e-3, 476235.97, -0.000000000000000000000001126542, -0.0000000012852247, -0.49516657, 0.0, 476235.97, 476235.97, 0.24518006, 0.0049139136, 0.0048828125 
1.5414017e+0, 2.4414063e-3, 475882.5, -0.00000000000000000000000031278591, -0.00000000067662714, -0.49779084, 0.0, 475882.5, 475882.5, 0.24536611, 0.004913898, 0.0048828125 
1.5414017e+0, 7.324219e-3, 475882.5, -0.00000000000000000000000033693674, -0.00000000070226336, -0.49779084, 0.0, 475882.5, 475882.5, 0.24536611, 0.004913898, 0.0048828125 
1.5463156e+0, 2.4414063e-3, 475133.9, -0.00000000000000000000000074055215, 0.0000000010397604, -0.5004331, 0.0, 475133.9, 475133.9, 0.24556099, 0.0049138567, 0.0048828125 
1.5463156e+0, 7.324219e-3, 475133.9, -0.0000000000000000000000007405496, 0.0000000010397586, -0.5004331, 0.0, 475133.9, 475133.9, 0.24556099, 0.0049138567, 0.0048828125 
1.5512294e+0, 2.4414063e-3, 474769.7, -0.0000000000000000000000025346288, 0.0000000019217945, -0.5030851, 0.0, 474769.7, 474769.7, 0.24576506, 0.0049138414, 0.0048828125 
1.5512294e+0, 7.324219e-3, 474769.7, -0.0000000000000000000000025415588, 0.00000000192442, -0.5030851, 0.0, 474769.7, 474769.7, 0.24576506, 0.0049138414, 0.0048828125 
1.556143e+0, 2.4414063e-3, 474016.2, -0.00000000000000000000000057035876, -0.00000000091039254, -0.50575596, 0.0, 474016.2, 474016.2, 0.24597873, 0.0049138004, 0.0048828125 
1.556143e+0, 7.324219e-3, 474016.2, -0.000000000000000000000000579287, -0.00000000091749036, -0.50575596, 0.0, 474016.2, 474016.2, 0.24597873, 0.0049138004, 0.0048828125 
1.5610568e+0, 2.4414063e-3, 473642.22, -0.000000000000000000000005375412, -0.0000000027920763, -0.50843674, 0.0, 473642.22, 473642.22, 0.2462024, 0.004913785, 0.0048828125 
1.5610568e+0, 7.324219e-3, 473642.22, -0.0000000000000000000000053698736, -0.0000000027906377, -0.50843674, 0.0, 473642.22, 473642.22, 0.2462024, 0.004913785, 0.0048828125 
1.5659705e+0, 2.4414063e-3, 472882.22, -0.00000000000000000000000015708918, -0.0000000004766197, -0.51113725, 0.0, 472882.22, 472882.22, 0.24643649, 0.0049137445, 0.0048828125 
1.5659705e+0, 7.324219e-3, 472882.22, -0.00000000000000000000000015708918, -0.0000000004766197, -0.51113725, 0.0, 472882.22, 472882.22, 0.24643649, 0.0049137445, 0.0048828125 
1.5708841e+0, 2.4414063e-3, 472499.88, -0.00000000000000000000000065843833, 0.0000000009747525, -0.51384777, 0.0, 472499.88, 472499.88, 0.24668147, 0.0049137296, 0.0048828125 
1.5708841e+0, 7.324219e-3, 472499.88, -0.0000000000000000000000006555723, 0.0000000009726288, -0.51384777, 0.0, 472499.88, 472499.88, 0.24668147, 0.0049137296, 0.0048828125 
1.5757978e+0, 2.4414063e-3, 471731.53, -0.0000000000000000000000002909352, 0.000000000646967, -0.5165789, 0.0, 471731.53, 471731.53, 0.24693777, 0.004913689, 0.0048828125 
1.5757978e+0, 7.324219e-3, 471731.53, -0.0000000000000000000000002909352, 0.000000000646967, -0.5165789, 0.0, 471731.53, 471731.53, 0.24693777, 0.004913689, 0.0048828125 
1.5807113e+0, 2.4414063e-3, 471342.16, -0.0000000000000000000000001778469, 0.0000000005052599, -0.5193202, 0.0, 471342.16, 471342.16, 0.24720588, 0.0049136747, 0.0048828125 
1.5807113e+0, 7.324219e-3, 471342.16, -0.0000000000000000000000001774937, 0.00000000050475796, -0.5193202, 0.0, 471342.16, 471342.16, 0.24720588, 0.0049136747, 0.0048828125 
1.585625e+0, 2.4414063e-3, 470563.8, -0.00000000000000000000000016704285, -0.00000000048889953, -0.52208275, 0.0, 470563.8, 470563.8, 0.24748632, 0.0049136346, 0.0048828125 
1.585625e+0, 7.324219e-3, 470563.8, -0.0000000000000000000000001665114, -0.00000000048812115, -0.52208275, 0.0, 470563.8, 470563.8, 0.24748632, 0.0049136346, 0.0048828125 
1.5905385e+0, 2.4414063e-3, 470168.66, -0.00000000000000000000000019875296, 0.0000000005326455, -0.5248554, 0.0, 470168.66, 470168.66, 0.24777956, 0.0049136207, 0.0048828125 
1.5905385e+0, 7.324219e-3, 470168.66, -0.00000000000000000000000019412212, 0.0000000005264037, -0.5248554, 0.0, 470168.66, 470168.66, 0.24777956, 0.0049136207, 0.0048828125 
1.595452e+0, 2.4414063e-3, 469378.9, -0.0000000000000000000000037485672, 0.0000000023093618, -0.5276497, 0.0, 469378.9, 469378.9, 0.24808615, 0.004913581, 0.0048828125 
1.595452e+0, 7.324219e-3, 469378.9, -0.000000000000000000000003713699, 0.0000000022985962, -0.5276497, 0.0, 469378.9, 469378.9, 0.24808615, 0.004913581, 0.0048828125 
1.6003655e+0, 2.4414063e-3, 468978.94, -0.00000000000000000000000054391703, -0.0000000008785523, -0.530454, 0.0, 468978.94, 468978.94, 0.24840663, 0.004913568, 0.0048828125 
1.6003655e+0, 7.324219e-3, 468978.94, -0.0000000000000000000000005239535, -0.0000000008622787, -0.530454, 0.0, 468978.94, 468978.94, 0.24840663, 0.004913568, 0.0048828125 
1.605279e+0, 2.4414063e-3, 468176.34, -0.000000000000000000000007961625, -0.0000000033553729, -0.53328, 0.0, 468176.34, 468176.34, 0.24874157, 0.0049135284, 0.0048828125 
1.605279e+0, 7.324219e-3, 468176.34, -0.0000000000000000000000079237094, -0.0000000033473737, -0.53328, 0.0, 468176.34, 468176.34, 0.24874157, 0.0049135284, 0.0048828125 
1.6101924e+0, 2.4414063e-3, 467773.66, -0.0000000000000000000000014239637, -0.0000000014170854, -0.5361158, 0.0, 467773.66, 467773.66, 0.24909155, 0.0049135163, 0.0048828125 
1.6101924e+0, 7.324219e-3, 467773.66, -0.0000000000000000000000013175956, -0.0000000013631312, -0.5361158, 0.0, 467773.66, 467773.66, 0.24909155, 0.0049135163, 0.0048828125 
1.6151057e+0, 2.4414063e-3, 466956.56, -0.00000000000000000000000030987225, -0.00000000065983297, -0.53897333, 0.0, 466956.56, 466956.56, 0.24945717, 0.004913477, 0.0048828125 
1.6151057e+0, 7.324219e-3, 466956.56, -0.00000000000000000000000028485834, -0.0000000006326407, -0.53897333, 0.0, 466956.56, 466956.56, 0.24945717, 0.004913477, 0.0048828125 
1.6200192e+0, 2.4414063e-3, 466552.47, -0.0000000000000000000000004309674, 0.0000000007770235, -0.54184026, 0.0, 466552.47, 466552.47, 0.24983905, 0.0049134665, 0.0048828125 
1.6200192e+0, 7.324219e-3, 466552.47, -0.00000000000000000000000044557615, 0.0000000007900834, -0.54184026, 0.0, 466552.47, 466552.47, 0.24983905, 0.0049134665, 0.0048828125 
1.6249326e+0, 2.4414063e-3, 465720.28, -0.000000000000000000000008491529, 0.000000003442353, -0.5447288, 0.0, 465720.28, 465720.28, 0.25023785, 0.0049134274, 0.0048828125 
1.6249326e+0, 7.324219e-3, 465720.28, -0.0000000000000000000000086993624, 0.000000003484225, -0.5447288, 0.0, 465720.28, 465720.28, 0.25023785, 0.0049134274, 0.0048828125 
1.6298458e+0, 2.4414063e-3, 465315.28, -0.000000000000000000000002477034, 0.0000000018563417, -0.5476267, 0.0, 465315.28, 465315.28, 0.2506542, 0.0049134176, 0.0048828125 
1.6298458e+0, 7.324219e-3, 465315.28, -0.0000000000000000000000025333209, 0.0000000018773145, -0.5476267, 0.0, 465315.28, 465315.28, 0.2506542, 0.0049134176, 0.0048828125 
1.6347592e+0, 2.4414063e-3, 464468.53, -0.0000000000000000000000014447508, -0.000000001414786, -0.5505464, 0.0, 464468.53, 464468.53, 0.2510888, 0.0049133794, 0.0048828125 
1.6347592e+0, 7.324219e-3, 464468.53, -0.0000000000000000000000014481647, -0.0000000014164566, -0.5505464, 0.0, 464468.53, 464468.53, 0.2510888, 0.0049133794, 0.0048828125 
1.6396724e+0, 2.4414063e-3, 464061.3, -0.0000000000000000000000018610254, -0.000000001603085, -0.5534754, 0.0, 464061.3, 464061.3, 0.25154233, 0.004913371, 0.0048828125 
1.6396724e+0, 7.324219e-3, 464061.3, -0.0000000000000000000000018688152, -0.0000000016064367, -0.5534754, 0.0, 464061.3, 464061.3, 0.25154233, 0.004913371, 0.0048828125 
1.6445857e+0, 2.4414063e-3, 463202.38, -0.0000000000000000000000001155268, -0.00000000039854198, -0.55642724, 0.0, 463202.38, 463202.38, 0.2520155, 0.0049133333, 0.0048828125 
1.6445857e+0, 7.324219e-3, 463202.38, -0.00000000000000000000000011644145, -0.00000000040011652, -0.55642724, 0.0, 463202.38, 463202.38, 0.2520155, 0.0049133333, 0.0048828125 
1.649499e+0, 2.4414063e-3, 462789.47, -0.0000000000000000000000000021306835, 0.000000000054029416, -0.5593885, 0.0, 462789.47, 462789.47, 0.2525091, 0.0049133264, 0.0048828125 
1.649499e+0, 7.324219e-3, 462789.47, -0.0000000000000000000000000014509163, 0.00000000004458533, -0.5593885, 0.0, 462789.47, 462789.47, 0.2525091, 0.0049133264, 0.0048828125 
1.6544122e+0, 2.4414063e-3, 461921.16, -0.000000000000000000000000070971807, 0.00000000031111014, -0.56237435, 0.0, 461921.16, 461921.16, 0.2530238, 0.0049132896, 0.0048828125 
1.6544122e+0, 7.324219e-3, 461921.16, -0.00000000000000000000000007894379, 0.00000000032811812, -0.56237435, 0.0, 461921.16, 461921.16, 0.2530238, 0.0049132896, 0.0048828125 
1.6593254e+0, 2.4414063e-3, 461499.88, -0.00000000000000000000000022925146, 0.00000000055810134, -0.5653702, 0.0, 461499.88, 461499.88, 0.25356045, 0.004913284, 0.0048828125 
1.6593254e+0, 7.324219e-3, 461499.88, -0.00000000000000000000000022630085, 0.0000000005544981, -0.5653702, 0.0, 461499.88, 461499.88, 0.25356045, 0.004913284, 0.0048828125 
1.6642384e+0, 2.4414063e-3, 460623.3, -0.00000000000000000000000011760036, 0.00000000039875597, -0.5683929, 0.0, 460623.3, 460623.3, 0.2541198, 0.0049132486, 0.0048828125 
1.6642384e+0, 7.324219e-3, 460623.3, -0.00000000000000000000000011905351, 0.00000000040121204, -0.5683929, 0.0, 460623.3, 460623.3, 0.2541198, 0.0049132486, 0.0048828125 
1.6691516e+0, 2.4414063e-3, 460192.3, -0.0000000000000000000000000017180767, -0.00000000004810094, -0.5714262, 0.0, 460192.3, 460192.3, 0.25470272, 0.0049132435, 0.0048828125 
1.6691516e+0, 7.324219e-3, 460192.3, -0.00000000000000000000000000078568697, -0.00000000003252798, -0.5714262, 0.0, 460192.3, 460192.3, 0.25470272, 0.0049132435, 0.0048828125 
1.6740647e+0, 2.4414063e-3, 459306.97, -0.000000000000000000000000037574946, -0.00000000022437231, -0.5744888, 0.0, 459306.97, 459306.97, 0.25530997, 0.0049132095, 0.0048828125 
1.6740647e+0, 7.324219e-3, 459306.97, -0.000000000000000000000000038661016, -0.00000000022759185, -0.5744888, 0.0, 459306.97, 459306.97, 0.25530997, 0.0049132095, 0.0048828125 
1.6789779e+0, 2.4414063e-3, 458865.88, -0.00000000000000000000000004743615, -0.00000000025156163, -0.5775628, 0.0, 458865.88, 458865.88, 0.25594243, 0.004913206, 0.0048828125 
1.6789779e+0, 7.324219e-3, 458865.88, -0.000000000000000000000000041149216, -0.00000000023429902, -0.5775628, 0.0, 458865.88, 458865.88, 0.25594243, 0.004913206, 0.0048828125 
1.683891e+0, 2.4414063e-3, 457970.47, -0.00000000000000000000000014473111, -0.0000000004382241, -0.58066803, 0.0, 457970.47, 457970.47, 0.25660098, 0.0049131736, 0.0048828125 
1.683891e+0, 7.324219e-3, 457970.47, -0.00000000000000000000000013799968, -0.00000000042791187, -0.58066803, 0.0, 457970.47, 457970.47, 0.25660098, 0.0049131736, 0.0048828125 
1.688804e+0, 2.4414063e-3, 457519.44, -0.0000000000000000000000000012993073, 0.000000000041426442, -0.58378506, 0.0, 457519.44, 457519.44, 0.2572865, 0.0049131713, 0.0048828125 
1.688804e+0, 7.324219e-3, 457519.44, -0.0000000000000000000000000002206621, 0.000000000017072047, -0.58378506, 0.0, 457519.44, 457519.44, 0.2572865, 0.0049131713, 0.0048828125 
1.6937171e+0, 2.4414063e-3, 456612.44, -0.00000000000000000000000018627406, 0.0000000004946034, -0.58693445, 0.0, 456612.44, 456612.44, 0.25799984, 0.00491314, 0.0048828125 
1.6937171e+0, 7.324219e-3, 456612.44, -0.00000000000000000000000019224422, 0.00000000050246707, -0.58693445, 0.0, 456612.44, 456612.44, 0.25799984, 0.00491314, 0.0048828125 
1.6986302e+0, 2.4414063e-3, 456152.56, -0.00000000000000000000000005661165, -0.00000000027200323, -0.5900957, 0.0, 456152.56, 456152.56, 0.25874197, 0.00491314, 0.0048828125 
1.6986302e+0, 7.324219e-3, 456152.56, -0.00000000000000000000000005372005, -0.0000000002649655, -0.5900957, 0.0, 456152.56, 456152.56, 0.25874197, 0.00491314, 0.0048828125 
1.7035432e+0, 2.4414063e-3, 455233.6, -0.00000000000000000000000015874, 0.00000000045410203, -0.59328926, 0.0, 455233.6, 455233.6, 0.25951383, 0.0049131103, 0.0048828125 
1.7035432e+0, 7.324219e-3, 455233.6, -0.00000000000000000000000016902266, 0.0000000004685789, -0.59328926, 0.0, 455233.6, 455233.6, 0.25951383, 0.0049131103, 0.0048828125 
1.7084561e+0, 2.4414063e-3, 454763.13, -0.00000000000000000000000154094975, 0.0000000014111529, -0.5964945, 0.0, 454763.13, 454763.13, 0.26031634, 0.0049131117, 0.0048828125 
1.7084561e+0, 7.324219e-3, 454763.13, -0.0000000000000000000000015627538, 0.0000000014211016, -0.5964945, 0.0, 454763.13, 454763.13, 0.26031634, 0.0049131117, 0.0048828125 
1.7133692e+0, 2.4414063e-3, 453835.78, -0.00000000000000000000000040465902, -0.0000000007208444, -0.5997312, 0.0, 453835.78, 453835.78, 0.26115048, 0.0049130837, 0.0048828125 
1.7133692e+0, 7.324219e-3, 453835.78, -0.00000000000000000000000039211862, -0.000000000709587, -0.5997312, 0.0, 453835.78, 453835.78, 0.26115048, 0.0049130837, 0.0048828125 
1.7182823e+0, 2.4414063e-3, 453350.34, -0.0000000000000000000000033221997, -0.0000000020596957, -0.6029792, 0.0, 453350.34, 453350.34, 0.2620172, 0.004913087, 0.0048828125 
1.7182823e+0, 7.324219e-3, 453350.34, -0.000000000000000000000003483931, -0.000000002109235, -0.6029792, 0.0, 453350.34, 453350.34, 0.2620172, 0.004913087, 0.0048828125 
1.7231952e+0, 2.4414063e-3, 452419.5, -0.0000000000000000000000005257585, -0.0000000008166334, -0.6062578, 0.0, 452419.5, 452419.5, 0.26291752, 0.0049130614, 0.0048828125 
1.7231952e+0, 7.324219e-3, 452419.5, -0.00000000000000000000000054133795, -0.0000000008286445, -0.6062578, 0.0, 452419.5, 452419.5, 0.26291752, 0.0049130614, 0.0048828125 
1.7281082e+0, 2.4414063e-3, 451916.66, -0.00000000000000000000000023416086, 0.0000000005433796, -0.6095473, 0.0, 451916.66, 451916.66, 0.26385245, 0.004913066, 0.0048828125 
1.7281082e+0, 7.324219e-3, 451916.66, -0.0000000000000000000000002383032, 0.0000000005481648, -0.6095473, 0.0, 451916.66, 451916.66, 0.26385245, 0.004913066, 0.0048828125 
1.733021e+0, 2.4414063e-3, 450984.56, -0.0000000000000000000000015796732, 0.0000000014063642, -0.6128673, 0.0, 450984.56, 450984.56, 0.264823, 0.004913043, 0.0048828125 
1.733021e+0, 7.324219e-3, 450984.56, -0.0000000000000000000000014430028, 0.0000000013441502, -0.6128673, 0.0, 450984.56, 450984.56, 0.264823, 0.004913043, 0.0048828125 
1.737934e+0, 2.4414063e-3, 450464.0, -0.00000000000000000000000002915547, 0.00000000019045902, -0.61619806, 0.0, 450464.0, 450464.0, 0.26583013, 0.00491305, 0.0048828125 
1.737934e+0, 7.324219e-3, 450464.0, -0.00000000000000000000000002381061, 0.0000000001721182, -0.61619806, 0.0, 450464.0, 450464.0, 0.26583013, 0.00491305, 0.0048828125 
1.742847e+0, 2.4414063e-3, 449531.53, -0.00000000000000000000000064296557, -0.0000000008910959, -0.61956024, 0.0, 449531.53, 449531.53, 0.26687494, 0.00491303, 0.0048828125 
1.742847e+0, 7.324219e-3, 449531.53, -0.0000000000000000000000006311924, -0.0000000008828999, -0.61956024, 0.0, 449531.53, 449531.53, 0.26687494, 0.00491303, 0.0048828125 
1.7477599e+0, 2.4414063e-3, 448991.94, -0.00000000000000000000000010323772, 0.0000000003558673, -0.6229336, 0.0, 448991.94, 448991.94, 0.26795846, 0.0049130386, 0.0048828125 
1.7477599e+0, 7.324219e-3, 448991.94, -0.00000000000000000000000010529977, 0.00000000035940373, -0.6229336, 0.0, 448991.94, 448991.94, 0.26795846, 0.0049130386, 0.0048828125 
1.7526728e+0, 2.4414063e-3, 448060.94, -0.00000000000000000000000015279224, 0.000000000431248, -0.6263403, 0.0, 448060.94, 448060.94, 0.2690817, 0.0049130223, 0.0048828125 
1.7526728e+0, 7.324219e-3, 448060.94, -0.00000000000000000000000014648166, 0.00000000042224846, -0.6263403, 0.0, 448060.94, 448060.94, 0.2690817, 0.0049130223, 0.0048828125 
1.7575857e+0, 2.4414063e-3, 447499.06, -0.00000000000000000000000014289634, -0.00000000041555753, -0.629759, 0.0, 447499.06, 447499.06, 0.2702458, 0.0049130325, 0.0048828125 
1.7575857e+0, 7.324219e-3, 447499.06, -0.00000000000000000000000014852222, -0.0000000004236589, -0.629759, 0.0, 447499.06, 447499.06, 0.2702458, 0.0049130325, 0.0048828125 
1.7624986e+0, 2.4414063e-3, 446572.47, -0.0000000000000000000000009270868, 0.000000001054156, -0.6332137, 0.0, 446572.47, 446572.47, 0.27145168, 0.00491302, 0.0048828125 
1.7624986e+0, 7.324219e-3, 446572.47, -0.0000000000000000000000009284689, 0.0000000010549415, -0.6332137, 0.0, 446572.47, 446572.47, 0.27145168, 0.00491302, 0.0048828125 
1.7674115e+0, 2.4414063e-3, 445984.06, -0.0000000000000000000000018695788, 0.0000000014912868, -0.63668126, 0.0, 445984.06, 445984.06, 0.27270052, 0.004913032, 0.0048828125 
1.7674115e+0, 7.324219e-3, 445984.06, -0.0000000000000000000000018290186, 0.0000000014750215, -0.63668126, 0.0, 445984.06, 445984.06, 0.27270052, 0.004913032, 0.0048828125 
1.7723244e+0, 2.4414063e-3, 445064.88, -0.0000000000000000000000012775027, -0.0000000012274647, -0.6401877, 0.0, 445064.88, 445064.88, 0.2739933, 0.004913023, 0.0048828125 
1.7723244e+0, 7.324219e-3, 445064.88, -0.0000000000000000000000012687511, -0.000000001223253, -0.6401877, 0.0, 445064.88, 445064.88, 0.2739933, 0.004913023, 0.0048828125 
1.7772374e+0, 2.4414063e-3, 444445.56, -0.0000000000000000000000045948896, -0.0000000023184898, -0.6437079, 0.0, 444445.56, 444445.56, 0.27533114, 0.004913037, 0.0048828125 
1.7772374e+0, 7.324219e-3, 444445.56, -0.0000000000000000000000045039, -0.0000000022954192, -0.6437079, 0.0, 444445.56, 444445.56, 0.27533114, 0.004913037, 0.0048828125 
1.7821503e+0, 2.4414063e-3, 443536.25, -0.00000000000000000000000026392927, -0.00000000055317567, -0.64726937, 0.0, 443536.25, 443536.25, 0.27671504, 0.004913033, 0.0048828125 
1.7821503e+0, 7.324219e-3, 443536.25, -0.00000000000000000000000026517051, -0.00000000055447485, -0.64726937, 0.0, 443536.25, 443536.25, 0.27671504, 0.004913033, 0.0048828125 
1.7870632e+0, 2.4414063e-3, 442883.28, -0.0000000000000000000000008281762, 0.0000000009756874, -0.6508454, 0.0, 442883.28, 442883.28, 0.2781461, 0.0049130484, 0.0048828125 
1.7870632e+0, 7.324219e-3, 442883.28, -0.0000000000000000000000008043145, 0.0000000009615289, -0.6508454, 0.0, 442883.28, 442883.28, 0.2781461, 0.0049130484, 0.0048828125 
1.7919761e+0, 2.4414063e-3, 441984.84, -0.0000000000000000000000014242433, 0.0000000012735132, -0.6544647, 0.0, 441984.84, 441984.84, 0.27962533, 0.004913049, 0.0048828125 
1.7919761e+0, 7.324219e-3, 441984.84, -0.0000000000000000000000014048308, 0.0000000012648044, -0.6544647, 0.0, 441984.84, 441984.84, 0.27962533, 0.004913049, 0.0048828125 
1.796889e+0, 2.4414063e-3, 441296.56, -0.00000000000000000000000000053584046, -0.000000000024589287, -0.6580992, 0.0, 441296.56, 441296.56, 0.2811538, 0.004913066, 0.0048828125 
1.796889e+0, 7.324219e-3, 441296.56, -0.00000000000000000000000000034296895, -0.000000000019672321, -0.6580992, 0.0, 441296.56, 441296.56, 0.2811538, 0.004913066, 0.0048828125 
1.801802e+0, 2.4414063e-3, 440410.72, -0.00000000000000000000000058266346, -0.00000000080687745, -0.6617784, 0.0, 440410.72, 440410.72, 0.28273255, 0.004913072, 0.0048828125 
1.801802e+0, 7.324219e-3, 440410.72, -0.000000000000000000000000546146, -0.0000000007811835, -0.6617784, 0.0, 440410.72, 440410.72, 0.28273255, 0.004913072, 0.0048828125 
1.806715e+0, 2.4414063e-3, 439682.84, -0.000000000000000000000000013658385, 0.00000000012294109, -0.6654731, 0.0, 439682.84, 439682.84, 0.28436258, 0.0049130907, 0.0048828125 
1.806715e+0, 7.324219e-3, 439682.84, -0.000000000000000000000000018936073, 0.00000000014475791, -0.6654731, 0.0, 439682.84, 439682.84, 0.28436258, 0.0049130907, 0.0048828125 
1.811628e+0, 2.4414063e-3, 438814.56, -0.0000000000000000000000001313981, 0.00000000037937692, -0.6692138, 0.0, 438814.56, 438814.56, 0.2860449, 0.0049131024, 0.0048828125 
1.811628e+0, 7.324219e-3, 438814.56, -0.00000000000000000000000014694875, 0.00000000040119852, -0.6692138, 0.0, 438814.56, 438814.56, 0.2860449, 0.0049131024, 0.0048828125 
1.816541e+0, 2.4414063e-3, 438041.53, -0.000000000000000000000000000012803718, 0.000000000003725801, -0.6729704, 0.0, 438041.53, 438041.53, 0.28778052, 0.004913123, 0.0048828125 
1.816541e+0, 7.324219e-3, 438041.53, -0.00000000000000000000000000006187817, -0.000000000008190687, -0.6729704, 0.0, 438041.53, 438041.53, 0.28778052, 0.004913123, 0.0048828125 
1.8214539e+0, 2.4414063e-3, 437196.38, -0.0000000000000000000000000049104384, -0.00000000007257713, -0.67677385, 0.0, 437196.38, 437196.38, 0.28957042, 0.0049131406, 0.0048828125 
1.8214539e+0, 7.324219e-3, 437196.38, -0.0000000000000000000000000056458852, -0.000000000077822596, -0.67677385, 0.0, 437196.38, 437196.38, 0.28957042, 0.0049131406, 0.0048828125 
1.8263671e+0, 2.4414063e-3, 436372.72, -0.0000000000000000000000000053234745, -0.00000000007515953, -0.6805937, 0.0, 436372.72, 436372.72, 0.29141557, 0.0049131624, 0.0048828125 
1.8263671e+0, 7.324219e-3, 436372.72, -0.000000000000000000000000003124376, -0.00000000005757953, -0.6805937, 0.0, 436372.72, 436372.72, 0.29141557, 0.0049131624, 0.0048828125 
1.8312801e+0, 2.4414063e-3, 435556.28, -0.000000000000000000000000029554353, 0.00000000017611454, -0.6844615, 0.0, 435556.28, 435556.28, 0.29331687, 0.0049131876, 0.0048828125 
1.8312801e+0, 7.324219e-3, 435556.28, -0.000000000000000000000000028602503, 0.00000000017325529, -0.6844615, 0.0, 435556.28, 435556.28, 0.29331687, 0.0049131876, 0.0048828125 
1.8361932e+0, 2.4414063e-3, 434676.1, -0.000000000000000000000000000036494335, -0.0000000000061533352, -0.68834615, 0.0, 434676.1, 434676.1, 0.29527533, 0.0049132104, 0.0048828125 
1.8361932e+0, 7.324219e-3, 434676.1, -0.00000000000000000000000000007853402, -0.000000000009026653, -0.68834615, 0.0, 434676.1, 434676.1, 0.29527533, 0.0049132104, 0.0048828125 
1.8411063e+0, 2.4414063e-3, 433894.03, -0.00000000000000000000000016265471, -0.00000000040845136, -0.69228, 0.0, 433894.03, 433894.03, 0.29729176, 0.0049132435, 0.0048828125 
1.8411063e+0, 7.324219e-3, 433894.03, -0.00000000000000000000000017002005, -0.0000000004175967, -0.69228, 0.0, 433894.03, 433894.03, 0.29729176, 0.0049132435, 0.0048828125 
1.8460193e+0, 2.4414063e-3, 432952.66, -0.000000000000000000000000019154309, 0.00000000013932083, -0.69623154, 0.0, 432952.66, 432952.66, 0.2993671, 0.004913267, 0.0048828125 
1.8460193e+0, 7.324219e-3, 432952.66, -0.000000000000000000000000017459798, 0.00000000013301556, -0.69623154, 0.0, 432952.66, 432952.66, 0.2993671, 0.004913267, 0.0048828125 
1.8509325e+0, 2.4414063e-3, 432208.9, -0.00000000000000000000000016614023, 0.0000000004078884, -0.7002342, 0.0, 432208.9, 432208.9, 0.30150214, 0.004913308, 0.0048828125 
1.8509325e+0, 7.324219e-3, 432208.9, -0.00000000000000000000000017253543, 0.0000000004156646, -0.7002342, 0.0, 432208.9, 432208.9, 0.30150214, 0.004913308, 0.0048828125 
1.8558457e+0, 2.4414063e-3, 431202.0, -0.00000000000000000000000000041938165, 0.00000000002036307, -0.7042555, 0.0, 431202.0, 431202.0, 0.30369774, 0.0049133333, 0.0048828125 
1.8558457e+0, 7.324219e-3, 431202.0, -0.0000000000000000000000000011646056, 0.00000000003393345, -0.7042555, 0.0, 431202.0, 431202.0, 0.30369774, 0.0049133333, 0.0048828125 
1.860759e+0, 2.4414063e-3, 430500.97, -0.000000000000000000000000009657511, 0.00000000009711929, -0.70833045, 0.0, 430500.97, 430500.97, 0.30595466, 0.0049133836, 0.0048828125 
1.860759e+0, 7.324219e-3, 430500.97, -0.00000000000000000000000000781315, 0.000000000087354644, -0.70833045, 0.0, 430500.97, 430500.97, 0.30595466, 0.0049133836, 0.0048828125 
1.8656722e+0, 2.4414063e-3, 429422.16, -0.000000000000000000000000012708337, -0.00000000011066399, -0.7124253, 0.0, 429422.16, 429422.16, 0.3082737, 0.0049134092, 0.0048828125 
1.8656722e+0, 7.324219e-3, 429422.16, -0.000000000000000000000000017029347, -0.00000000012810349, -0.7124253, 0.0, 429422.16, 429422.16, 0.3082737, 0.0049134092, 0.0048828125 
1.8705855e+0, 2.4414063e-3, 428770.16, -0.000000000000000000000000058248275, -0.0000000002354256, -0.71657676, 0.0, 428770.16, 428770.16, 0.31065553, 0.004913469, 0.0048828125 
1.8705855e+0, 7.324219e-3, 428770.16, -0.00000000000000000000000006751365, -0.00000000025345911, -0.71657676, 0.0, 428770.16, 428770.16, 0.31065553, 0.004913469, 0.0048828125 
1.8754989e+0, 2.4414063e-3, 427611.9, -0.0000000000000000000000016829497, 0.0000000012565695, -0.7207494, 0.0, 427611.9, 427611.9, 0.31310084, 0.004913495, 0.0048828125 
1.8754989e+0, 7.324219e-3, 427611.9, -0.0000000000000000000000016563572, 0.0000000012466024, -0.7207494, 0.0, 427611.9, 427611.9, 0.31310084, 0.004913495, 0.0048828125 
1.8804123e+0, 2.4414063e-3, 427015.56, -0.00000000000000000000000028193016, 0.00000000051096466, -0.7249817, 0.0, 427015.56, 427015.56, 0.31561032, 0.0049135652, 0.0048828125 
1.8804123e+0, 7.324219e-3, 427015.56, -0.0000000000000000000000002784298, 0.00000000050778276, -0.7249817, 0.0, 427015.56, 427015.56, 0.31561032, 0.0049135652, 0.0048828125 
1.8853258e+0, 2.4414063e-3, 425769.9, -0.0000000000000000000000087397395, -0.0000000028239255, -0.7292366, 0.0, 425769.9, 425769.9, 0.31818452, 0.004913592, 0.0048828125 
1.8853258e+0, 7.324219e-3, 425769.9, -0.000000000000000000000008588484, -0.0000000027993825, -0.7292366, 0.0, 425769.9, 425769.9, 0.31818452, 0.004913592, 0.0048828125 
1.8902393e+0, 2.4414063e-3, 425236.13, -0.0000000000000000000000031097587, -0.0000000016732439, -0.7335539, 0.0, 425236.13, 425236.13, 0.32082403, 0.0049136733, 0.0048828125 
1.8902393e+0, 7.324219e-3, 425236.13, -0.0000000000000000000000030985299, -0.0000000016702203, -0.7335539, 0.0, 425236.13, 425236.13, 0.32082403, 0.0049136733, 0.0048828125 
1.8951528e+0, 2.4414063e-3, 423895.28, -0.000000000000000000000003972572, 0.000000001876534, -0.7378951, 0.0, 423895.28, 423895.28, 0.32352936, 0.0049136993, 0.0048828125 
1.8951528e+0, 7.324219e-3, 423895.28, -0.0000000000000000000000039534518, 0.0000000018720128, -0.7378951, 0.0, 423895.28, 423895.28, 0.32352936, 0.0049136993, 0.0048828125 
1.9000664e+0, 2.4414063e-3, 423430.78, -0.0000000000000000000000030164708, 0.00000000162401, -0.7423011, 0.0, 423430.78, 423430.78, 0.32630098, 0.004913793, 0.0048828125 
1.9000664e+0, 7.324219e-3, 423430.78, -0.0000000000000000000000031411623, 0.0000000016572359, -0.7423011, 0.0, 423430.78, 423430.78, 0.32630098, 0.004913793, 0.0048828125 
1.9049801e+0, 2.4414063e-3, 421987.6, -0.00000000000000000000000016091437, 0.0000000003720474, -0.74673235, 0.0, 421987.6, 421987.6, 0.32913935, 0.004913818, 0.0048828125 
1.9049801e+0, 7.324219e-3, 421987.6, -0.00000000000000000000000015395899, 0.00000000036391784, -0.74673235, 0.0, 421987.6, 421987.6, 0.32913935, 0.004913818, 0.0048828125 
1.9098938e+0, 2.4414063e-3, 421598.63, -0.00000000000000000000000025479608, -0.00000000046488616, -0.7512308, 0.0, 421598.63, 421598.63, 0.33204484, 0.0049139257, 0.0048828125 
1.9098938e+0, 7.324219e-3, 421598.63, -0.00000000000000000000000026720684, -0.0000000004760735, -0.7512308, 0.0, 421598.63, 421598.63, 0.33204484, 0.0049139257, 0.0048828125 
1.9148076e+0, 2.4414063e-3, 420046.3, -0.000000000000000000000004652693, -0.00000000196969, -0.75575584, 0.0, 420046.3, 420046.3, 0.3350178, 0.00491395, 0.0048828125 
1.9148076e+0, 7.324219e-3, 420046.3, -0.000000000000000000000004617538, -0.0000000019622346, -0.75575584, 0.0, 420046.3, 420046.3, 0.3350178, 0.00491395, 0.0048828125 
1.9197214e+0, 2.4414063e-3, 419739.1, -0.000000000000000000000000679406, -0.0000000007473, -0.7603505, 0.0, 419739.1, 419739.1, 0.33805847, 0.004914071, 0.0048828125 
1.9197214e+0, 7.324219e-3, 419739.1, -0.00000000000000000000000068210584, -0.00000000074878337, -0.7603505, 0.0, 419739.1, 419739.1, 0.33805847, 0.004914071, 0.0048828125 
1.9246355e+0, 2.4414063e-3, 418070.78, -0.000000000000000000000003283341, 0.0000000016282246, -0.76497346, 0.0, 418070.78, 418070.78, 0.34116715, 0.0049140938, 0.0048828125 
1.9246355e+0, 7.324219e-3, 418070.78, -0.000000000000000000000003284832, 0.0000000016285943, -0.76497346, 0.0, 418070.78, 418070.78, 0.34116715, 0.0049140938, 0.0048828125 
1.9295493e+0, 2.4414063e-3, 417852.16, -0.0000000000000000000000007192186, 0.00000000075650486, -0.76966876, 0.0, 417852.16, 417852.16, 0.344344, 0.00491423, 0.0048828125 
1.9295493e+0, 7.324219e-3, 417852.16, -0.0000000000000000000000006811234, 0.00000000073619716, -0.76966876, 0.0, 417852.16, 417852.16, 0.344344, 0.00491423, 0.0048828125 
1.9344635e+0, 2.4414063e-3, 416058.72, -0.0000000000000000000000006115858, -0.0000000006911343, -0.774394, 0.0, 416058.72, 416058.72, 0.34758914, 0.004914251, 0.0048828125 
1.9344635e+0, 7.324219e-3, 416058.72, -0.00000000000000000000000054410843, -0.00000000065189326, -0.774394, 0.0, 416058.72, 416058.72, 0.34758914, 0.004914251, 0.0048828125 
1.9393776e+0, 2.4414063e-3, 415938.3, -0.000000000000000000000000019531127, 0.00000000012259407, -0.77919424, 0.0, 415938.3, 415938.3, 0.35090265, 0.004914404, 0.0048828125 
1.9393776e+0, 7.324219e-3, 415938.3, -0.000000000000000000000000019216021, 0.00000000012160112, -0.77919424, 0.0, 415938.3, 415938.3, 0.35090265, 0.004914404, 0.0048828125 
1.9442919e+0, 2.4414063e-3, 414009.25, -0.00000000000000000000000054269193, 0.00000000063996586, -0.7840267, 0.0, 414009.25, 414009.25, 0.35428458, 0.004914422, 0.0048828125 
1.9442919e+0, 7.324219e-3, 414009.25, -0.00000000000000000000000055028654, 0.00000000064442823, -0.7840267, 0.0, 414009.25, 414009.25, 0.35428458, 0.004914422, 0.0048828125 
1.9492063e+0, 2.4414063e-3, 413995.94, -0.00000000000000000000000011469903, -0.00000000029200212, -0.788938, 0.0, 413995.94, 413995.94, 0.3577349, 0.0049145925, 0.0048828125 
1.9492063e+0, 7.324219e-3, 413995.94, -0.00000000000000000000000010780794, -0.00000000028309452, -0.788938, 0.0, 413995.94, 413995.94, 0.3577349, 0.0049145925, 0.0048828125 
1.9541207e+0, 2.4414063e-3, 411922.94, -0.0000000000000000000000015004719, -0.0000000010454726, -0.7938831, 0.0, 411922.94, 411922.94, 0.36125353, 0.0049146074, 0.0048828125 
1.9541207e+0, 7.324219e-3, 411922.94, -0.0000000000000000000000015406244, -0.0000000010593686, -0.7938831, 0.0, 411922.94, 411922.94, 0.36125353, 0.0049146074, 0.0048828125 
1.9590351e+0, 2.4414063e-3, 412026.28, -0.00000000000000000000000014418441, 0.0000000003216216, -0.79890865, 0.0, 412026.28, 412026.28, 0.36484033, 0.004914797, 0.0048828125 
1.9590351e+0, 7.324219e-3, 412026.28, -0.00000000000000000000000016058952, 0.00000000033942565, -0.79890865, 0.0, 412026.28, 412026.28, 0.36484033, 0.004914797, 0.0048828125 
1.96395e+0, 2.4414063e-3, 409792.44, -0.000000000000000000000007009046, 0.0000000022188016, -0.80397236, 0.0, 409792.44, 409792.44, 0.3684952, 0.0049148076, 0.0048828125 
1.96395e+0, 7.324219e-3, 409792.44, -0.0000000000000000000000065733614, 0.0000000021487345, -0.80397236, 0.0, 409792.44, 409792.44, 0.3684952, 0.0049148076, 0.0048828125 
1.9688645e+0, 2.4414063e-3, 410015.03, -0.000000000000000000000000850909, 0.00000000076715506, -0.8091255, 0.0, 410015.03, 410015.03, 0.37221777, 0.0049150167, 0.0048828125 
1.9688645e+0, 7.324219e-3, 410015.03, -0.0000000000000000000000008589118, 0.0000000007707542, -0.8091255, 0.0, 410015.03, 410015.03, 0.37221777, 0.0049150167, 0.0048828125 
1.9737795e+0, 2.4414063e-3, 407663.4, -0.0000000000000000000000037574257, -0.0000000015944986, -0.8143148, 0.0, 407663.4, 407663.4, 0.37600783, 0.0049150265, 0.0048828125 
1.9737795e+0, 7.324219e-3, 407663.4, -0.00000000000000000000000377497, -0.0000000015982168, -0.8143148, 0.0, 407663.4, 407663.4, 0.37600783, 0.0049150265, 0.0048828125 
1.9786945e+0, 2.4414063e-3, 408009.78, -0.00000000000000000000000062551596, -0.00000000064553696, -0.81958437, 0.0, 408009.78, 408009.78, 0.37986505, 0.004915257, 0.0048828125 
1.9786945e+0, 7.324219e-3, 408009.78, -0.00000000000000000000000064916813, -0.00000000065762834, -0.81958437, 0.0, 408009.78, 408009.78, 0.37986505, 0.004915257, 0.0048828125 
1.9836096e+0, 2.4414063e-3, 405280.9, -0.00000000000000000000000080300114, 0.0000000007229263, -0.8249017, 0.0, 405280.9, 405280.9, 0.38378912, 0.004915245, 0.0048828125 
1.9836096e+0, 7.324219e-3, 405280.9, -0.0000000000000000000000008332633, 0.00000000073642253, -0.8249017, 0.0, 405280.9, 405280.9, 0.38378912, 0.004915245, 0.0048828125 
1.9885246e+0, 2.4414063e-3, 405854.7, -0.0000000000000000000000000027801611, -0.000000000042210724, -0.8303259, 0.0, 405854.7, 405854.7, 0.38777938, 0.0049155047, 0.0048828125 
1.9885246e+0, 7.324219e-3, 405854.7, -0.000000000000000000000000001902824, -0.000000000034921035, -0.8303259, 0.0, 405854.7, 405854.7, 0.38777938, 0.0049155047, 0.0048828125 
1.9934398e+0, 2.4414063e-3, 403774.28, -0.0000000000000000000000004231342, -0.0000000005150028, -0.83579874, 0.0, 403774.28, 403774.28, 0.39183524, 0.0049155545, 0.0048828125 
1.9934398e+0, 7.324219e-3, 403774.28, -0.00000000000000000000000042399573, -0.00000000051552684, -0.83579874, 0.0, 403774.28, 403774.28, 0.39183524, 0.0049155545, 0.0048828125 
1.9983557e+0, 2.4414063e-3, 403826.97, -0.0000000000000000000000000002439177, 0.000000000012259516, -0.841375, 0.0, 403826.97, 403826.97, 0.39595678, 0.0049157846, 0.0048828125 
1.9983557e+0, 7.324219e-3, 403826.97, -0.0000000000000000000000000003919056, 0.000000000015539691, -0.841375, 0.0, 403826.97, 403826.97, 0.39595678, 0.0049157846, 0.0048828125 
2.0032723e+0, 2.4414063e-3, 399350.78, -0.00000000000000000000000006553414, -0.00000000019809429, -0.8469316, 0.0, 399350.78, 399350.78, 0.40014398, 0.004915645, 0.0048828125 
2.0032723e+0, 7.324219e-3, 399350.78, -0.00000000000000000000000006482858, -0.00000000019702504, -0.8469316, 0.0, 399350.78, 399350.78, 0.40014398, 0.004915645, 0.0048828125 
2.0081869e+0, 2.4414063e-3, 400711.63, -0.0000000000000000000000014328495, -0.00000000091968866, -0.8524301, 0.0, 400711.63, 400711.63, 0.40439382, 0.0049159955, 0.0048828125 
2.0081869e+0, 7.324219e-3, 400711.63, -0.0000000000000000000000014249451, -0.0000000009171484, -0.8524301, 0.0, 400711.63, 400711.63, 0.40439382, 0.0049159955, 0.0048828125 
2.0130995e+0, 2.4414063e-3, 406662.0, -0.0000000000000000000000000000124419114, -0.0000000000027058711, -0.8582815, 0.0, 406662.0, 406662.0, 0.40870434, 0.004916741, 0.0048828125 
2.0130995e+0, 7.324219e-3, 406662.0, -0.00000000000000000000000000039072708, 0.00000000001516353, -0.8582815, 0.0, 406662.0, 406662.0, 0.40870434, 0.004916741, 0.0048828125 
2.0180178e+0, 2.4414063e-3, 392307.8, -0.0000000000000000000000006680238, 0.00000000049876203, -0.86491245, 0.0, 392307.8, 392307.8, 0.513082, 0.0049226307, 0.0048828125 
2.0180178e+0, 7.324219e-3, 392307.8, -0.00000000000000000000000065476525, 0.0000000004937876, -0.86491245, 0.0, 392307.8, 392307.8, 0.513082, 0.0049226307, 0.0048828125 
2.0229459e+0, 2.4414063e-3, 402761.47, -0.000000000000000000000008701163, -0.0000000018077163, -0.8717654, 0.0, 402761.47, 402761.47, 0.51753145, 0.0049240864, 0.0048828125 
2.0229459e+0, 7.324219e-3, 402761.47, -0.000000000000000000000008705789, -0.0000000018081969, -0.8717654, 0.0, 402761.47, 402761.47, 0.51753145, 0.0049240864, 0.0048828125 
2.0278709e+0, 2.4414063e-3, 392902.88, -0.00000000000000000000000021084418, -0.00000000027543556, -0.8789881, 0.0, 392902.88, 392902.88, 0.52204126, 0.004923448, 0.0048828125 
2.0278709e+0, 7.324219e-3, 392902.88, -0.00000000000000000000000025676153, -0.00000000030395142, -0.8789881, 0.0, 392902.88, 392902.88, 0.52204126, 0.004923448, 0.0048828125 
2.0327918e+0, 2.4414063e-3, 389658.72, -0.00000000000000000000007071035, 0.0000000049774576, -0.88636714, 0.0, 389658.72, 389658.72, 0.526607, 0.0049235015, 0.0048828125 
2.0327918e+0, 7.324219e-3, 389658.72, -0.00000000000000000000007136337, 0.000000005000388, -0.88636714, 0.0, 389658.72, 389658.72, 0.526607, 0.0049235015, 0.0048828125 
2.0377152e+0, 2.4414063e-3, 398440.0, -0.000000000000000000000015180107, 0.0000000023105364, -0.89404243, 0.0, 398440.0, 398440.0, 0.5312339, 0.004924846, 0.0048828125 
2.0377152e+0, 7.324219e-3, 398440.0, -0.000000000000000000000014945347, 0.0000000022926008, -0.89404243, 0.0, 398440.0, 398440.0, 0.5312339, 0.004924846, 0.0048828125 
2.0426412e+0, 2.4414063e-3, 392938.4, -0.00000000000000000000004388566, -0.000000003864828, -0.90171087, 0.0, 392938.4, 392938.4, 0.53592145, 0.004924682, 0.0048828125 
2.0426412e+0, 7.324219e-3, 392938.4, -0.000000000000000000000043690853, -0.0000000038562407, -0.90171087, 0.0, 392938.4, 392938.4, 0.53592145, 0.004924682, 0.0048828125 
2.0475657e+0, 2.4414063e-3, 391572.7, -0.000000000000000000000016685817, -0.0000000023563753, -0.90934396, 0.0, 391572.7, 391572.7, 0.54066545, 0.0049249707, 0.0048828125 
2.0475657e+0, 7.324219e-3, 391572.7, -0.0000000000000000000000168319, -0.0000000023666678, -0.90934396, 0.0, 391572.7, 391572.7, 0.54066545, 0.0049249707, 0.0048828125 
2.0524898e+0, 2.4414063e-3, 387920.78, -0.000000000000000000000005840664, 0.0000000013742595, -0.91714, 0.0, 387920.78, 387920.78, 0.5454666, 0.004925019, 0.0048828125 
2.0524898e+0, 7.324219e-3, 387920.78, -0.0000000000000000000000057736994, 0.0000000013663587, -0.91714, 0.0, 387920.78, 387920.78, 0.5454666, 0.004925019, 0.0048828125 
2.057415e+0, 2.4414063e-3, 391269.7, -0.0000000000000000000000018848902, 0.0000000007764108, -0.9252203, 0.0, 391269.7, 391269.7, 0.55032474, 0.0049258536, 0.0048828125 
2.057415e+0, 7.324219e-3, 391269.7, -0.000000000000000000000002051056, 0.000000000809911, -0.9252203, 0.0, 391269.7, 391269.7, 0.55032474, 0.0049258536, 0.0048828125 
2.062341e+0, 2.4414063e-3, 386136.53, -0.0000000000000000000000009897649, -0.00000000055339433, -0.93337494, 0.0, 386136.53, 386136.53, 0.5552378, 0.0049257567, 0.0048828125 
2.062341e+0, 7.324219e-3, 386136.53, -0.0000000000000000000000009843257, -0.00000000055187166, -0.93337494, 0.0, 386136.53, 386136.53, 0.5552378, 0.0049257567, 0.0048828125 
2.0672667e+0, 2.4414063e-3, 388106.38, -0.0000000000000000000000000019194933, -0.0000000000241879, -0.9416394, 0.0, 388106.38, 388106.38, 0.5602045, 0.004926472, 0.0048828125 
2.0672667e+0, 7.324219e-3, 388106.38, -0.000000000000000000000000001317112, -0.00000000002003624, -0.9416394, 0.0, 388106.38, 388106.38, 0.5602045, 0.004926472, 0.0048828125 
2.0721927e+0, 2.4414063e-3, 383153.03, -0.0000000000000000000000006373839, 0.00000000043350065, -0.9500377, 0.0, 383153.03, 383153.03, 0.56522465, 0.0049264114, 0.0048828125 
2.0721927e+0, 7.324219e-3, 383153.03, -0.0000000000000000000000006123898, 0.0000000004249161, -0.9500377, 0.0, 383153.03, 383153.03, 0.56522465, 0.0049264114, 0.0048828125 
2.0771194e+0, 2.4414063e-3, 385902.78, -0.000000000000000000000000022595813, 0.00000000008107216, -0.958637, 0.0, 385902.78, 385902.78, 0.570297, 0.0049272534, 0.0048828125 
2.0771194e+0, 7.324219e-3, 385902.78, -0.000000000000000000000000022595813, 0.00000000008107216, -0.958637, 0.0, 385902.78, 385902.78, 0.570297, 0.0049272534, 0.0048828125 
2.0820463e+0, 2.4414063e-3, 380453.53, -0.00000000000000000000000021496208, -0.00000000024570168, -0.9673559, 0.0, 380453.53, 380453.53, 0.5754204, 0.004927153, 0.0048828125 
2.0820463e+0, 7.324219e-3, 380453.53, -0.00000000000000000000000020887395, -0.00000000024219732, -0.9673559, 0.0, 380453.53, 380453.53, 0.5754204, 0.004927153, 0.0048828125 
2.0869735e+0, 2.4414063e-3, 383297.7, -0.00000000000000000000000019937097, -0.00000000023500357, -0.97624147, 0.0, 383297.7, 383297.7, 0.58059347, 0.004928047, 0.0048828125 
2.0869735e+0, 7.324219e-3, 383297.7, -0.00000000000000000000000020504229, -0.0000000002383226, -0.97624147, 0.0, 383297.7, 383297.7, 0.58059347, 0.004928047, 0.0048828125 
2.0919013e+0, 2.4414063e-3, 377586.63, -0.00000000000000000000000015274714, -0.00000000020198071, -0.9852846, 0.0, 377586.63, 377586.63, 0.58581567, 0.0049279323, 0.0048828125 
2.0919013e+0, 7.324219e-3, 377586.63, -0.00000000000000000000000015274714, -0.00000000020198071, -0.9852846, 0.0, 377586.63, 377586.63, 0.58581567, 0.0049279323, 0.0048828125 
2.0968294e+0, 2.4414063e-3, 380734.0, -0.00000000000000000000000009884144, -0.00000000016138947, -0.99453604, 0.0, 380734.0, 380734.0, 0.59108555, 0.004928908, 0.0048828125 
2.0968294e+0, 7.324219e-3, 380734.0, -0.00000000000000000000000011844321, -0.00000000017666917, -0.99453604, 0.0, 380734.0, 380734.0, 0.59108555, 0.004928908, 0.0048828125 
2.101758e+0, 2.4414063e-3, 374684.3, -0.000000000000000000000000002021988, -0.00000000002264832, -1.0039341, 0.0, 374684.3, 374684.3, 0.5964021, 0.00492877, 0.0048828125 
2.101758e+0, 7.324219e-3, 374684.3, -0.0000000000000000000000000017335663, -0.000000000020970895, -1.0039341, 0.0, 374684.3, 374684.3, 0.5964021, 0.00492877, 0.0048828125 
2.1066868e+0, 2.4414063e-3, 378042.1, -0.000000000000000000000000022207488, -0.000000000074557555, -1.0135133, 0.0, 378042.1, 378042.1, 0.6017642, 0.0049298205, 0.0048828125 
2.1066868e+0, 7.324219e-3, 378042.1, -0.000000000000000000000000012140106, -0.000000000055125578, -1.0135133, 0.0, 378042.1, 378042.1, 0.6017642, 0.0049298205, 0.0048828125 
2.1116164e+0, 2.4414063e-3, 371723.44, -0.000000000000000000000000008788722, -0.000000000045987544, -1.0232313, 0.0, 371723.44, 371723.44, 0.60717076, 0.004929668, 0.0048828125 
2.1116164e+0, 7.324219e-3, 371723.44, -0.0000000000000000000000000073117106, -0.00000000004194564, -1.0232313, 0.0, 371723.44, 371723.44, 0.60717076, 0.004929668, 0.0048828125 
2.1165462e+0, 2.4414063e-3, 375248.5, -0.00000000000000000000000010001474, 0.00000000015409599, -1.0331098, 0.0, 375248.5, 375248.5, 0.6126206, 0.004930793, 0.0048828125 
2.1165462e+0, 7.324219e-3, 375248.5, -0.00000000000000000000000010638812, 0.00000000015893001, -1.0331098, 0.0, 375248.5, 375248.5, 0.6126206, 0.004930793, 0.0048828125 
2.1214767e+0, 2.4414063e-3, 368782.22, -0.000000000000000000000000021192674, 0.00000000006950978, -1.0433235, 0.0, 368782.22, 368782.22, 0.61811256, 0.004930641, 0.0048828125 
2.1214767e+0, 7.324219e-3, 368782.22, -0.000000000000000000000000019326138, 0.000000000066378215, -1.0433235, 0.0, 368782.22, 368782.22, 0.61811256, 0.004930641, 0.0048828125 
2.1264076e+0, 2.4414063e-3, 372418.94, -0.00000000000000000000000017944557, -0.00000000020088768, -1.0538992, 0.0, 372418.94, 372418.94, 0.62364554, 0.004931839, 0.0048828125 
2.1264076e+0, 7.324219e-3, 372418.94, -0.00000000000000000000000017811217, -0.00000000020013992, -1.0538992, 0.0, 372418.94, 372418.94, 0.62364554, 0.004931839, 0.0048828125 
2.131339e+0, 2.4414063e-3, 365764.13, -0.000000000000000000000000919619, -0.00000000044536083, -1.064553, 0.0, 365764.13, 365764.13, 0.62921834, 0.004931683, 0.0048828125 
2.131339e+0, 7.324219e-3, 365764.13, -0.0000000000000000000000008766978, -0.00000000043484352, -1.064553, 0.0, 365764.13, 365764.13, 0.62921834, 0.004931683, 0.0048828125 
2.136271e+0, 2.4414063e-3, 369445.94, -0.0000000000000000000000008171761, -0.0000000004168785, -1.0752847, 0.0, 369445.94, 369445.94, 0.6348298, 0.0049329516, 0.0048828125 
2.136271e+0, 7.324219e-3, 369445.94, -0.00000000000000000000000074263445, -0.0000000003974104, -1.0752847, 0.0, 369445.94, 369445.94, 0.6348298, 0.0049329516, 0.0048828125 
2.1412034e+0, 2.4414063e-3, 362653.38, -0.000000000000000000000051368685, 0.0000000032349745, -1.0862691, 0.0, 362653.38, 362653.38, 0.64047885, 0.0049327994, 0.0048828125 
2.1412034e+0, 7.324219e-3, 362653.38, -0.000000000000000000000051356208, 0.0000000032345815, -1.0862691, 0.0, 362653.38, 362653.38, 0.64047885, 0.0049327994, 0.0048828125 
2.1461365e+0, 2.4414063e-3, 366324.22, -0.00000000000000000000015033178, 0.000000005493674, -1.0974877, 0.0, 366324.22, 366324.22, 0.6461641, 0.004934136, 0.0048828125 
2.1461365e+0, 7.324219e-3, 366324.22, -0.00000000000000000000015107912, 0.0000000055073124, -1.0974877, 0.0, 366324.22, 366324.22, 0.6461641, 0.004934136, 0.0048828125 
2.1510701e+0, 2.4414063e-3, 359460.06, -0.00000000000000000000016691961, -0.000000005662918, -1.1089619, 0.0, 359460.06, 359460.06, 0.6518845, 0.004933998, 0.0048828125 
2.1510701e+0, 7.324219e-3, 359460.06, -0.00000000000000000000016723616, -0.000000005668285, -1.1089619, 0.0, 359460.06, 359460.06, 0.6518845, 0.004933998, 0.0048828125 
2.1560046e+0, 2.4414063e-3, 363087.9, -0.0000000000000000000008500914, -0.00000001268185, -1.1206558, 0.0, 363087.9, 363087.9, 0.6576387, 0.0049354043, 0.0048828125 
2.1560046e+0, 7.324219e-3, 363087.9, -0.0000000000000000000008500109, -0.000000012681249, -1.1206558, 0.0, 363087.9, 363087.9, 0.6576387, 0.0049354043, 0.0048828125 
2.1609394e+0, 2.4414063e-3, 356181.0, -0.00000000000000000000002825161, 0.0000000022605169, -1.1326354, 0.0, 356181.0, 356181.0, 0.6634256, 0.004935287, 0.0048828125 
2.1609394e+0, 7.324219e-3, 356181.0, -0.00000000000000000000002822852, 0.0000000022595927, -1.1326354, 0.0, 356181.0, 356181.0, 0.6634256, 0.004935287, 0.0048828125 
2.1658751e+0, 2.4414063e-3, 359739.9, -0.0000000000000000000006405324, 0.000000010676887, -1.1448429, 0.0, 359739.9, 359739.9, 0.66924393, 0.0049367654, 0.0048828125 
2.1658751e+0, 7.324219e-3, 359739.9, -0.00000000000000000000063860156, 0.0000000106607825, -1.1448429, 0.0, 359739.9, 359739.9, 0.66924393, 0.0049367654, 0.0048828125 
2.1708114e+0, 2.4414063e-3, 352808.47, -0.000000000000000000000011608033, 0.0000000014046815, -1.157363, 0.0, 352808.47, 352808.47, 0.6750923, 0.0049366746, 0.0048828125 
2.1708114e+0, 7.324219e-3, 352808.47, -0.000000000000000000000011311459, 0.0000000013866213, -1.157363, 0.0, 352808.47, 352808.47, 0.6750923, 0.0049366746, 0.0048828125 
2.1757486e+0, 2.4414063e-3, 356272.56, -0.00000000000000000000003896637, -0.000000002551716, -1.1701154, 0.0, 356272.56, 356272.56, 0.6809694, 0.004938229, 0.0048828125 
2.1757486e+0, 7.324219e-3, 356272.56, -0.000000000000000000000038868818, -0.0000000025485198, -1.1701154, 0.0, 356272.56, 356272.56, 0.6809694, 0.004938229, 0.0048828125 
2.1806863e+0, 2.4414063e-3, 349334.6, -0.000000000000000000000000079780856, -0.00000000011278441, -1.1832105, 0.0, 349334.6, 349334.6, 0.68687403, 0.0049381703, 0.0048828125 
2.1806863e+0, 7.324219e-3, 349334.6, -0.00000000000000000000000007548094, -0.00000000010970297, -1.1832105, 0.0, 349334.6, 349334.6, 0.68687403, 0.0049381703, 0.0048828125 
2.1856248e+0, 2.4414063e-3, 352678.97, -0.00000000000000000000000033488595, -0.00000000022898813, -1.1965429, 0.0, 352678.97, 352678.97, 0.69280475, 0.0049398043, 0.0048828125 
2.1856248e+0, 7.324219e-3, 352678.97, -0.00000000000000000000000034240567, -0.00000000023154478, -1.1965429, 0.0, 352678.97, 352678.97, 0.69280475, 0.0049398043, 0.0048828125 
2.1905641e+0, 2.4414063e-3, 345750.53, -0.0000000000000000000000050239123, -0.0000000008659315, -1.2102512, 0.0, 345750.53, 345750.53, 0.6987601, 0.0049397857, 0.0048828125 
2.1905641e+0, 7.324219e-3, 345750.53, -0.0000000000000000000000050227665, -0.00000000086583274, -1.2102512, 0.0, 345750.53, 345750.53, 0.6987601, 0.0049397857, 0.0048828125 
2.1955045e+0, 2.4414063e-3, 348952.6, -0.0000000000000000000000010064247, -0.00000000038385642, -1.2242026, 0.0, 348952.6, 348952.6, 0.7047388, 0.004941505, 0.0048828125 
2.1955045e+0, 7.324219e-3, 348952.6, -0.0000000000000000000000009915198, -0.00000000038100342, -1.2242026, 0.0, 348952.6, 348952.6, 0.7047388, 0.004941505, 0.0048828125 
2.2004454e+0, 2.4414063e-3, 342047.72, -0.000000000000000000000015223506, 0.0000000014568483, -1.2385654, 0.0, 342047.72, 342047.72, 0.71073914, 0.0049415333, 0.0048828125 
2.2004454e+0, 7.324219e-3, 342047.72, -0.000000000000000000000015123035, 0.000000001452033, -1.2385654, 0.0, 342047.72, 342047.72, 0.71073914, 0.0049415333, 0.0048828125 
2.2053874e+0, 2.4414063e-3, 345084.38, -0.000000000000000000000032614037, 0.000000002110565, -1.253177, 0.0, 345084.38, 345084.38, 0.71675974, 0.004943343, 0.0048828125 
2.2053874e+0, 7.324219e-3, 345084.38, -0.00000000000000000000003246904, 0.0000000021058681, -1.253177, 0.0, 345084.38, 345084.38, 0.71675974, 0.004943343, 0.0048828125 
2.2103302e+0, 2.4414063e-3, 338217.6, -0.0000000000000000000000087732716, -0.0000000010676557, -1.2682371, 0.0, 338217.6, 338217.6, 0.7227989, 0.0049434276, 0.0048828125 
2.2103302e+0, 7.324219e-3, 338217.6, -0.000000000000000000000008848129, -0.000000001072201, -1.2682371, 0.0, 338217.6, 338217.6, 0.7227989, 0.0049434276, 0.0048828125 
2.2152741e+0, 2.4414063e-3, 341062.1, -0.00000000000000000000009852685, -0.000000003538829, -1.2835512, 0.0, 341062.1, 341062.1, 0.72885513, 0.0049453336, 0.0048828125 
2.2152741e+0, 7.324219e-3, 341062.1, -0.000000000000000000000096378305, -0.000000003500031, -1.2835512, 0.0, 341062.1, 341062.1, 0.72885513, 0.0049453336, 0.0048828125 
2.220219e+0, 2.4414063e-3, 334249.06, -0.000000000000000000000009767044, -0.0000000010861421, -1.299353, 0.0, 334249.06, 334249.06, 0.7349264, 0.0049454854, 0.0048828125 
2.220219e+0, 7.324219e-3, 334249.06, -0.000000000000000000000009793588, -0.000000001087617, -1.299353, 0.0, 334249.06, 334249.06, 0.7349264, 0.0049454854, 0.0048828125 
2.2251649e+0, 2.4414063e-3, 336874.22, -0.000000000000000000000022964893, 0.0000000016459911, -1.3154144, 0.0, 336874.22, 336874.22, 0.7410113, 0.0049474947, 0.0048828125 
2.2251649e+0, 7.324219e-3, 336874.22, -0.000000000000000000000023199514, 0.000000001654378, -1.3154144, 0.0, 336874.22, 336874.22, 0.7410113, 0.0049474947, 0.0048828125 
2.2301118e+0, 2.4414063e-3, 330127.63, -0.000000000000000000000011625813, 0.0000000011410082, -1.3320056, 0.0, 330127.63, 330127.63, 0.74710757, 0.004947725, 0.0048828125 
2.2301118e+0, 7.324219e-3, 330127.63, -0.000000000000000000000011581425, 0.0000000011388278, -1.3320056, 0.0, 330127.63, 330127.63, 0.74710757, 0.004947725, 0.0048828125 
2.2350602e+0, 2.4414063e-3, 332510.75, -0.000000000000000000000000383753, -0.00000000020470013, -1.3488625, 0.0, 332510.75, 332510.75, 0.75321364, 0.0049498472, 0.0048828125 
2.2350602e+0, 7.324219e-3, 332510.75, -0.00000000000000000000000037539275, -0.0000000002024581, -1.3488625, 0.0, 332510.75, 332510.75, 0.75321364, 0.0049498472, 0.0048828125 
2.2400096e+0, 2.4414063e-3, 325838.06, -0.0000000000000000000000008677018, -0.0000000002997114, -1.3662939, 0.0, 325838.06, 325838.06, 0.7593271, 0.004950169, 0.0048828125 
2.2400096e+0, 7.324219e-3, 325838.06, -0.0000000000000000000000008720244, -0.000000000300457, -1.3662939, 0.0, 325838.06, 325838.06, 0.7593271, 0.004950169, 0.0048828125 
2.2449604e+0, 2.4414063e-3, 327959.03, -0.000000000000000000000000069145815, 0.00000000008346543, -1.3839978, 0.0, 327959.03, 327959.03, 0.7654462, 0.004952415, 0.0048828125 
2.2449604e+0, 7.324219e-3, 327959.03, -0.000000000000000000000000074867454, 0.000000000086850076, -1.3839978, 0.0, 327959.03, 327959.03, 0.7654462, 0.004952415, 0.0048828125 
2.2499123e+0, 2.4414063e-3, 321363.7, -0.00000000000000000000000014262191, 0.00000000011664518, -1.4023228, 0.0, 321363.7, 321363.7, 0.77156824, 0.0049528424, 0.0048828125 
2.2499123e+0, 7.324219e-3, 321363.7, -0.00000000000000000000000013908419, 0.00000000011518941, -1.4023228, 0.0, 321363.7, 321363.7, 0.77156824, 0.0049528424, 0.0048828125 
2.2548659e+0, 2.4414063e-3, 323204.16, -0.000000000000000000000000011186774, -0.000000000032194823, -1.4209273, 0.0, 323204.16, 323204.16, 0.7776915, 0.004955225, 0.0048828125 
2.2548659e+0, 7.324219e-3, 323204.16, -0.000000000000000000000000025584412, -0.000000000048687936, -1.4209273, 0.0, 323204.16, 323204.16, 0.7776915, 0.004955225, 0.0048828125 
2.2598204e+0, 2.4414063e-3, 316686.2, -0.000000000000000000000000053113616, -0.00000000006821599, -1.4401999, 0.0, 316686.2, 316686.2, 0.7838128, 0.004955774, 0.0048828125 
2.2598204e+0, 7.324219e-3, 316686.2, -0.000000000000000000000000049140183, -0.00000000006561477, -1.4401999, 0.0, 316686.2, 316686.2, 0.7838128, 0.004955774, 0.0048828125 
2.264777e+0, 2.4414063e-3, 318227.75, -0.000000000000000000000000016889638, -0.00000000003786763, -1.4597592, 0.0, 318227.75, 318227.75, 0.78993034, 0.0049583097, 0.0048828125 
2.264777e+0, 7.324219e-3, 318227.75, -0.000000000000000000000000012701788, -0.000000000032839034, -1.4597592, 0.0, 318227.75, 318227.75, 0.78993034, 0.0049583097, 0.0048828125 
2.2697346e+0, 2.4414063e-3, 311784.8, -0.0000000000000000000000000121013104, -0.000000000031145416, -1.4800327, 0.0, 311784.8, 311784.8, 0.7960408, 0.004958999, 0.0048828125 
2.2697346e+0, 7.324219e-3, 311784.8, -0.000000000000000000000000007287731, -0.000000000024169859, -1.4800327, 0.0, 311784.8, 311784.8, 0.7960408, 0.004958999, 0.0048828125 
2.2746947e+0, 2.4414063e-3, 313008.25, -0.000000000000000000000000051320625, 0.00000000006306225, -1.5006003, 0.0, 313008.25, 313008.25, 0.80214196, 0.0049617053, 0.0048828125 
2.2746947e+0, 7.324219e-3, 313008.25, -0.00000000000000000000000007685524, 0.00000000007717209, -1.5006003, 0.0, 313008.25, 313008.25, 0.80214196, 0.0049617053, 0.0048828125 
2.2796556e+0, 2.4414063e-3, 306635.3, -0.00000000000000000000000041313213, 0.00000000017370962, -1.5219264, 0.0, 306635.3, 306635.3, 0.8082302, 0.0049625565, 0.0048828125 
2.2796556e+0, 7.324219e-3, 306635.3, -0.00000000000000000000000042690603, 0.00000000017658162, -1.5219264, 0.0, 306635.3, 306635.3, 0.8082302, 0.0049625565, 0.0048828125 
2.2846194e+0, 2.4414063e-3, 307521.6, -0.0000000000000000000000000070272816, 0.000000000022245454, -1.5435543, 0.0, 307521.6, 307521.6, 0.81430334, 0.0049654557, 0.0048828125 
2.2846194e+0, 7.324219e-3, 307521.6, -0.000000000000000000000000010071423, 0.00000000002663134, -1.5435543, 0.0, 307521.6, 307521.6, 0.81430334, 0.0049654557, 0.0048828125 
2.2895841e+0, 2.4414063e-3, 301209.66, -0.000000000000000000000000305694, -0.00000000014231188, -1.5659804, 0.0, 301209.66, 301209.66, 0.8203573, 0.0049664928, 0.0048828125 
2.2895841e+0, 7.324219e-3, 301209.66, -0.00000000000000000000000031177782, -0.00000000014372104, -1.5659804, 0.0, 301209.66, 301209.66, 0.8203573, 0.0049664928, 0.0048828125 
2.2945519e+0, 2.4414063e-3, 301739.53, -0.00000000000000000000000006185685, -0.00000000006276665, -1.5887157, 0.0, 301739.53, 301739.53, 0.8263897, 0.0049696113, 0.0048828125 
2.2945519e+0, 7.324219e-3, 301739.53, -0.00000000000000000000000007084678, -0.00000000006717306, -1.5887157, 0.0, 301739.53, 301739.53, 0.8263897, 0.0049696113, 0.0048828125 
2.2995207e+0, 2.4414063e-3, 295475.8, -0.000000000000000000000000076942713, 0.00000000006782876, -1.6122813, 0.0, 295475.8, 295475.8, 0.8323961, 0.0049708635, 0.0048828125 
2.2995207e+0, 7.324219e-3, 295475.8, -0.00000000000000000000000006615591, 0.00000000006289476, -1.6122813, 0.0, 295475.8, 295475.8, 0.8323961, 0.0049708635, 0.0048828125 
2.3044929e+0, 2.4414063e-3, 295628.63, -0.000000000000000000000000083876197, 0.000000000069325864, -1.6361626, 0.0, 295628.63, 295628.63, 0.83837384, 0.004974231, 0.0048828125 
2.3044929e+0, 7.324219e-3, 295628.63, -0.000000000000000000000000067704314, 0.00000000006228509, -1.6361626, 0.0, 295628.63, 295628.63, 0.83837384, 0.004974231, 0.0048828125 
2.3094666e+0, 2.4414063e-3, 289396.9, -0.000000000000000000000000014131294, 0.00000000002753904, -1.660894, 0.0, 289396.9, 289396.9, 0.84431833, 0.0049757315, 0.0048828125 
2.3094666e+0, 7.324219e-3, 289396.9, -0.000000000000000000000000014495905, 0.000000000027892053, -1.660894, 0.0, 289396.9, 289396.9, 0.84431833, 0.0049757315, 0.0048828125 
2.3144436e+0, 2.4414063e-3, 289149.1, -0.000000000000000000000000030968383, 0.000000000039838334, -1.6859453, 0.0, 289149.1, 289149.1, 0.85022664, 0.004979385, 0.0048828125 
2.3144436e+0, 7.324219e-3, 289149.1, -0.000000000000000000000000030154982, 0.000000000039311665, -1.6859453, 0.0, 289149.1, 289149.1, 0.85022664, 0.004979385, 0.0048828125 
2.3194225e+0, 2.4414063e-3, 282929.6, -0.00000000000000000000000010273177, 0.000000000070128514, -1.7118468, 0.0, 282929.6, 282929.6, 0.85609365, 0.004981174, 0.0048828125 
2.3194225e+0, 7.324219e-3, 282929.6, -0.000000000000000000000000087807664, 0.000000000064834846, -1.7118468, 0.0, 282929.6, 282929.6, 0.85609365, 0.004981174, 0.0048828125 
2.3244052e+0, 2.4414063e-3, 282254.63, -0.0000000000000000000000000022932102, -0.00000000001021892, -1.7380676, 0.0, 282254.63, 282254.63, 0.8619164, 0.0049851555, 0.0048828125 
2.3244052e+0, 7.324219e-3, 282254.63, -0.000000000000000000000000000563983, -0.0000000000050677604, -1.7380676, 0.0, 282254.63, 282254.63, 0.8619164, 0.0049851555, 0.0048828125 
2.32939e+0, 2.4414063e-3, 276023.84, -0.000000000000000000000000039119246, -0.000000000040730194, -1.7651128, 0.0, 276023.84, 276023.84, 0.8676895, 0.0049872804, 0.0048828125 
2.32939e+0, 7.324219e-3, 276023.84, -0.000000000000000000000000039740144, -0.000000000041052155, -1.7651128, 0.0, 276023.84, 276023.84, 0.8676895, 0.0049872804, 0.0048828125 
2.334379e+0, 2.4414063e-3, 274889.66, -0.0000000000000000000000000013608056, -0.000000000007392983, -1.7924676, 0.0, 274889.66, 274889.66, 0.8734096, 0.0049916385, 0.0048828125 
2.334379e+0, 7.324219e-3, 274889.66, -0.0000000000000000000000000010014208, -0.000000000006342055, -1.7924676, 0.0, 274889.66, 274889.66, 0.8734096, 0.0049916385, 0.0048828125 
2.3393703e+0, 2.4414063e-3, 268621.16, -0.0000000000000000000000008778494, -0.00000000018088935, -1.8205807, 0.0, 268621.16, 268621.16, 0.879071, 0.004994157, 0.0048828125 
2.3393703e+0, 7.324219e-3, 268621.16, -0.000000000000000000000000842581, -0.00000000017721839, -1.8205807, 0.0, 268621.16, 268621.16, 0.879071, 0.004994157, 0.0048828125 
2.3443663e+0, 2.4414063e-3, 266986.7, -0.000000000000000000000005255782, -0.00000000042969764, -1.8489764, 0.0, 266986.7, 266986.7, 0.8846704, 0.004998948, 0.0048828125 
2.3443663e+0, 7.324219e-3, 266986.7, -0.0000000000000000000000052068314, -0.0000000004276919, -1.8489764, 0.0, 266986.7, 266986.7, 0.8846704, 0.004998948, 0.0048828125 
2.349365e+0, 2.4414063e-3, 260651.05, -0.000000000000000000000014015419, -0.00000000067462075, -1.8780065, 0.0, 260651.05, 260651.05, 0.89020145, 0.005001929, 0.0048828125 
2.349365e+0, 7.324219e-3, 260651.05, -0.000000000000000000000014168802, -0.0000000006783022, -1.8780065, 0.0, 260651.05, 260651.05, 0.89020145, 0.005001929, 0.0048828125 
2.3543692e+0, 2.4414063e-3, 258467.56, -0.000000000000000000000008704029, -0.0000000005147014, -1.9072671, 0.0, 258467.56, 258467.56, 0.8956609, 0.0050072167, 0.0048828125 
2.3543692e+0, 7.324219e-3, 258467.56, -0.000000000000000000000008655743, -0.0000000005132717, -1.9072671, 0.0, 258467.56, 258467.56, 0.8956609, 0.0050072167, 0.0048828125 
2.3593763e+0, 2.4414063e-3, 252035.66, -0.000000000000000000000034233114, 0.0000000009791089, -1.9369823, 0.0, 252035.66, 252035.66, 0.9010421, 0.005010748, 0.0048828125 
2.3593763e+0, 7.324219e-3, 252035.66, -0.000000000000000000000034193072, 0.0000000009785361, -1.9369823, 0.0, 252035.66, 252035.66, 0.9010421, 0.005010748, 0.0048828125 
2.3643896e+0, 2.4414063e-3, 249238.47, -0.00000000000000000000012779004, 0.0000000018256179, -1.966823, 0.0, 249238.47, 249238.47, 0.9063415, 0.0050166002, 0.0048828125 
2.3643896e+0, 7.324219e-3, 249238.47, -0.0000000000000000000001275578, 0.0000000018239582, -1.966823, 0.0, 249238.47, 249238.47, 0.9063415, 0.0050166002, 0.0048828125 
2.3694062e+0, 2.4414063e-3, 242681.77, -0.0000000000000000000000035028315, 0.00000000028915417, -1.9968327, 0.0, 242681.77, 242681.77, 0.9115524, 0.0050207903, 0.0048828125 
2.3694062e+0, 7.324219e-3, 242681.77, -0.00000000000000000000000365646, 0.00000000029542704, -1.9968327, 0.0, 242681.77, 242681.77, 0.9115524, 0.0050207903, 0.0048828125 
2.37443e+0, 2.4414063e-3, 239168.05, -0.000000000000000000000034509803, -0.0000000008725888, -2.0267382, 0.0, 239168.05, 239168.05, 0.9166711, 0.005027265, 0.0048828125 
2.37443e+0, 7.324219e-3, 239168.05, -0.000000000000000000000034351652, -0.00000000087058705, -2.0267382, 0.0, 239168.05, 239168.05, 0.9166711, 0.005027265, 0.0048828125 
2.3794575e+0, 2.4414063e-3, 232460.39, -0.0000000000000000000000054965875, -0.00000000033212746, -2.056333, 0.0, 232460.39, 232460.39, 0.9216905, 0.005032251, 0.0048828125 
2.3794575e+0, 7.324219e-3, 232460.39, -0.0000000000000000000000055464, -0.000000000333629, -2.056333, 0.0, 232460.39, 232460.39, 0.9216905, 0.005032251, 0.0048828125 
2.384493e+0, 2.4414063e-3, 228130.88, -0.00000000000000000000000005610006, 0.000000000032116403, -2.0855198, 0.0, 228130.88, 228130.88, 0.926607, 0.005039411, 0.0048828125 
2.384493e+0, 7.324219e-3, 228130.88, -0.00000000000000000000000006004282, 0.00000000003322583, -2.0855198, 0.0, 228130.88, 228130.88, 0.926607, 0.005039411, 0.0048828125 
2.389533e+0, 2.4414063e-3, 221267.45, -0.0000000000000000000000013756227, -0.00000000015113699, -2.1139488, 0.0, 221267.45, 221267.45, 0.9314134, 0.0050453823, 0.0048828125 
2.389533e+0, 7.324219e-3, 221267.45, -0.0000000000000000000000013801441, -0.00000000015138517, -2.1139488, 0.0, 221267.45, 221267.45, 0.9314134, 0.0050453823, 0.0048828125 
2.3945825e+0, 2.4414063e-3, 216066.77, -0.0000000000000000000000012236765, -0.00000000013573476, -2.1417377, 0.0, 216066.77, 216066.77, 0.93610585, 0.0050533274, 0.0048828125 
2.3945825e+0, 7.324219e-3, 216066.77, -0.0000000000000000000000012362982, -0.00000000013643299, -2.1417377, 0.0, 216066.77, 216066.77, 0.93610585, 0.0050533274, 0.0048828125 
2.3996368e+0, 2.4414063e-3, 209075.05, -0.000000000000000000000000065249446, 0.000000000029665787, -2.1685991, 0.0, 209075.05, 209075.05, 0.9406772, 0.005060558, 0.0048828125 
2.3996368e+0, 7.324219e-3, 209075.05, -0.000000000000000000000000077272506, 0.00000000003228345, -2.1685991, 0.0, 209075.05, 209075.05, 0.9406772, 0.005060558, 0.0048828125 
2.404702e+0, 2.4414063e-3, 202809.86, -0.00000000000000000000000029720135, 0.00000000005990066, -2.1933603, 0.0, 202809.86, 202809.86, 0.9451235, 0.0050692703, 0.0048828125 
2.404702e+0, 7.324219e-3, 202809.86, -0.00000000000000000000000030040575, 0.000000000060222716, -2.1933603, 0.0, 202809.86, 202809.86, 0.9451235, 0.0050692703, 0.0048828125 
2.4097729e+0, 2.4414063e-3, 195727.88, -0.000000000000000000000000016363266, 0.000000000013240625, -2.2157996, 0.0, 195727.88, 195727.88, 0.9494376, 0.005078132, 0.0048828125 
2.4097729e+0, 7.324219e-3, 195727.88, -0.000000000000000000000000019567877, 0.000000000014479226, -2.2157996, 0.0, 195727.88, 195727.88, 0.9494376, 0.005078132, 0.0048828125 
2.4148564e+0, 2.4414063e-3, 188047.61, -0.000000000000000000000000029905877, -0.000000000016792371, -2.2344887, 0.0, 188047.61, 188047.61, 0.95361555, 0.005087334, 0.0048828125 
2.4148564e+0, 7.324219e-3, 188047.61, -0.000000000000000000000000030439163, -0.000000000016941431, -2.2344887, 0.0, 188047.61, 188047.61, 0.95361555, 0.005087334, 0.0048828125 
2.4199462e+0, 2.4414063e-3, 180888.05, -0.000000000000000000000001453418, -0.00000000010966075, -2.2500236, 0.0, 180888.05, 180888.05, 0.95765036, 0.0050982675, 0.0048828125 
2.4199462e+0, 7.324219e-3, 180888.05, -0.000000000000000000000001432814, -0.00000000010888068, -2.2500236, 0.0, 180888.05, 180888.05, 0.95765036, 0.0050982675, 0.0048828125 
2.4250504e+0, 2.4414063e-3, 171732.66, -0.000000000000000000000034946204, -0.0000000004992687, -2.259785, 0.0, 171732.66, 171732.66, 0.961538, 0.0051077977, 0.0048828125 
2.4250504e+0, 7.324219e-3, 171732.66, -0.000000000000000000000035033133, -0.00000000049988924, -2.259785, 0.0, 171732.66, 171732.66, 0.961538, 0.0051077977, 0.0048828125 
2.4301621e+0, 2.4414063e-3, 164433.28, -0.000000000000000000000044361637, -0.0000000005232118, -2.2656968, 0.0, 164433.28, 164433.28, 0.96527183, 0.00512126, 0.0048828125 
2.4301621e+0, 7.324219e-3, 164433.28, -0.000000000000000000000044510763, -0.0000000005240905, -2.2656968, 0.0, 164433.28, 164433.28, 0.96527183, 0.00512126, 0.0048828125 
2.43529e+0, 2.4414063e-3, 153815.03, -0.00000000000000000000005303924, 0.00000000052449506, -2.2624958, 0.0, 153815.03, 153815.03, 0.96884763, 0.0051308367, 0.0048828125 
2.43529e+0, 7.324219e-3, 153815.03, -0.00000000000000000000005311918, 0.00000000052489013, -2.2624958, 0.0, 153815.03, 153815.03, 0.96884763, 0.0051308367, 0.0048828125 
2.4404266e+0, 2.4414063e-3, 146250.05, -0.0000000000000000000002311016, 0.0000000010088479, -2.2542658, 0.0, 146250.05, 146250.05, 0.9722591, 0.0051472294, 0.0048828125 
2.4404266e+0, 7.324219e-3, 146250.05, -0.00000000000000000000023053583, 0.0000000010076122, -2.2542658, 0.0, 146250.05, 146250.05, 0.9722591, 0.0051472294, 0.0048828125 
2.445581e+0, 2.4414063e-3, 134310.39, -0.000000000000000000000003477285, 0.00000000011168412, -2.2327878, 0.0, 134310.39, 134310.39, 0.9755022, 0.0051564337, 0.0048828125 
2.445581e+0, 7.324219e-3, 134310.39, -0.0000000000000000000000034801518, 0.00000000011173015, -2.2327878, 0.0, 134310.39, 134310.39, 0.9755022, 0.0051564337, 0.0048828125 
2.4507456e+0, 2.4414063e-3, 126337.08, -0.00000000000000000000007472595, -0.0000000004710746, -2.2048602, 0.0, 126337.08, 126337.08, 0.9785711, 0.005175997, 0.0048828125 
2.4507456e+0, 7.324219e-3, 126337.08, -0.00000000000000000000007438697, -0.0000000004700049, -2.2048602, 0.0, 126337.08, 126337.08, 0.9785711, 0.005175997, 0.0048828125 
2.455929e+0, 2.4414063e-3, 113413.06, -0.0000000000000000000000205949, -0.00000000021886803, -2.1591654, 0.0, 113413.06, 113413.06, 0.98146164, 0.005184308, 0.0048828125 
2.455929e+0, 7.324219e-3, 113413.06, -0.000000000000000000000020567828, -0.00000000021872414, -2.1591654, 0.0, 113413.06, 113413.06, 0.98146164, 0.005184308, 0.0048828125 
2.4611242e+0, 2.4414063e-3, 104940.45, -0.000000000000000000000009524222, 0.00000000013307476, -2.1051981, 0.0, 104940.45, 104940.45, 0.9841687, 0.0052069565, 0.0048828125 
2.4611242e+0, 7.324219e-3, 104940.45, -0.0000000000000000000000093722024, 0.00000000013200846, -2.1051981, 0.0, 104940.45, 104940.45, 0.9841687, 0.0052069565, 0.0048828125 
2.4663389e+0, 2.4414063e-3, 91612.13, -0.00000000000000000000006096159, 0.00000000029073188, -2.0294871, 0.0, 91612.13, 91612.13, 0.98668814, 0.005213911, 0.0048828125 
2.4663389e+0, 7.324219e-3, 91612.13, -0.00000000000000000000006098184, 0.00000000029078015, -2.0294871, 0.0, 91612.13, 91612.13, 0.98668814, 0.005213911, 0.0048828125 
2.4715666e+0, 2.4414063e-3, 82615.29, -0.00000000000000000000000020396435, -0.000000000014663383, -1.9430987, 0.0, 82615.29, 82615.29, 0.98901546, 0.0052386555, 0.0048828125 
2.4715666e+0, 7.324219e-3, 82615.29, -0.0000000000000000000000001846784, -0.0000000000139529195, -1.9430987, 0.0, 82615.29, 82615.29, 0.98901546, 0.0052386555, 0.0048828125 
2.4768129e+0, 2.4414063e-3, 69669.22, -0.00000000000000000000010048385, -0.00000000027234875, -1.8326946, 0.0, 69669.22, 69669.22, 0.9911468, 0.005243983, 0.0048828125 
2.4768129e+0, 7.324219e-3, 69669.22, -0.00000000000000000000010085822, -0.00000000027285563, -1.8326946, 0.0, 69669.22, 69669.22, 0.9911468, 0.005243983, 0.0048828125 
2.4820736e+0, 2.4414063e-3, 60475.758, -0.0000000000000000000000010948522, -0.000000000023919988, -1.7089765, 0.0, 60475.758, 60475.758, 0.9930785, 0.005269246, 0.0048828125 
2.4820736e+0, 7.324219e-3, 60475.758, -0.0000000000000000000000010315057, -0.000000000023217692, -1.7089765, 0.0, 60475.758, 60475.758, 0.9930785, 0.005269246, 0.0048828125 
2.4873495e+0, 2.4414063e-3, 48851.664, -0.000000000000000000000022285737, 0.00000000008667007, -1.5627984, 0.0, 48851.664, 48851.664, 0.99480677, 0.005273573, 0.0048828125 
2.4873495e+0, 7.324219e-3, 48851.664, -0.00000000000000000000002233365, 0.00000000008676318, -1.5627984, 0.0, 48851.664, 48851.664, 0.99480677, 0.005273573, 0.0048828125 
2.4926421e+0, 2.4414063e-3, 40152.387, -0.0000000000000000000000029753591, -0.000000000025330784, -1.3982594, 0.0, 40152.387, 40152.387, 0.99632883, 0.005297607, 0.0048828125 
2.4926421e+0, 7.324219e-3, 40152.387, -0.0000000000000000000000029984495, -0.000000000025428885, -1.3982594, 0.0, 40152.387, 40152.387, 0.99632883, 0.005297607, 0.0048828125 
2.4979475e+0, 2.4414063e-3, 30678.602, -0.0000000000000000000000011668984, -0.0000000000120501074, -1.2131101, 0.0, 30678.602, 30678.602, 0.99764156, 0.005302498, 0.0048828125 
2.4979475e+0, 7.324219e-3, 30678.602, -0.0000000000000000000000011790795, -0.0000000000121128385, -1.2131101, 0.0, 30678.602, 30678.602, 0.99764156, 0.005302498, 0.0048828125 
2.503268e+0, 2.4414063e-3, 23198.617, -0.0000000000000000000000030431353, 0.00000000001444588, -1.0080241, 0.0, 23198.617, 23198.617, 0.9987427, 0.005319958, 0.0048828125 
2.503268e+0, 7.324219e-3, 23198.617, -0.0000000000000000000000030595594, 0.00000000001448481, -1.0080241, 0.0, 23198.617, 23198.617, 0.9987427, 0.005319958, 0.0048828125 
2.5085974e+0, 2.4414063e-3, 16441.738, -0.00000000000000000000000053374427, -0.0000000000042635726, -0.7893891, 0.0, 16441.738, 16441.738, 0.9996298, 0.005325207, 0.0048828125 
2.5085974e+0, 7.324219e-3, 16441.738, -0.0000000000000000000000005406727, -0.0000000000042911555, -0.7893891, 0.0, 16441.738, 16441.738, 0.9996298, 0.005325207, 0.0048828125 
2.5139382e+0, 2.4414063e-3, 11364.898, -0.0000000000000000000000015665039, -0.000000000004997368, -0.5548965, 0.0, 11364.898, 11364.898, 1.0, 0.005335355, 0.0048828125 
2.5139382e+0, 7.324219e-3, 11364.898, -0.0000000000000000000000015736312, -0.0000000000050087235, -0.5548965, 0.0, 11364.898, 11364.898, 1.0, 0.005335355, 0.0048828125 
2.5192836e+0, 2.4414063e-3, 7756.138, -0.000000000000000000000000000058451083, -0.000000000000020759924, -0.31353217, 0.0, 7756.138, 7756.138, 1.0, 0.00533878, 0.0048828125 
2.5192836e+0, 7.324219e-3, 7756.138, -0.000000000000000000000000000058451083, -0.000000000000020759924, -0.31353217, 0.0, 7756.138, 7756.138, 1.0, 0.00533878, 0.0048828125 
2.524635e+0, 2.4414063e-3, 5880.0303, -0.000000000000000000000000047411705, -0.00000000000044654287, -0.06386466, 0.0, 5880.0303, 5880.0303, 1.0, 0.005342633, 0.0048828125 
2.524635e+0, 7.324219e-3, 5880.0303, -0.000000000000000000000000046278097, -0.0000000000004411722, -0.06386466, 0.0, 5880.0303, 5880.0303, 1.0, 0.005342633, 0.0048828125 
2.5299865e+0, 2.4414063e-3, 5718.3623, -0.0000000000000000000000000010035353, -0.000000000000063235726, 0.18705112, 0.0, 5718.3623, 5718.3623, 1.0, 0.0053416914, 0.0048828125 
2.5299865e+0, 7.324219e-3, 5718.3623, -0.0000000000000000000000000013991743, -0.00000000000007466759, 0.18705112, 0.0, 5718.3623, 5718.3623, 1.0, 0.0053416914, 0.0048828125 
2.5353375e+0, 2.4414063e-3, 7337.126, -0.0000000000000000000000007853006, 0.0000000000022712945, 0.43649974, 0.0, 7337.126, 7337.126, 1.0, 0.0053410563, 0.0048828125 
2.5353375e+0, 7.324219e-3, 7337.126, -0.00000000000000000000000079702463, 0.0000000000022881861, 0.43649974, 0.0, 7337.126, 7337.126, 1.0, 0.0053410563, 0.0048828125 
2.540685e+0, 2.4414063e-3, 10579.92, -0.0000000000000000000000008385561, 0.0000000000034100103, 0.6811921, 0.0, 10579.92, 10579.92, 1.0, 0.0053334087, 0.0048828125 
2.540685e+0, 7.324219e-3, 10579.92, -0.0000000000000000000000008350592, 0.000000000003402893, 0.6811921, 0.0, 10579.92, 10579.92, 1.0, 0.0053334087, 0.0048828125 
2.5460252e+0, 2.4414063e-3, 15585.217, -0.0000000000000000000000005509672, 0.0000000000040841766, 0.9162958, 0.0, 15585.217, 15585.217, 0.99975854, 0.005330603, 0.0048828125 
2.5460252e+0, 7.324219e-3, 15585.217, -0.0000000000000000000000005577284, 0.0000000000041091596, 0.9162958, 0.0, 15585.217, 15585.217, 0.99975854, 0.005330603, 0.0048828125 
2.5513574e+0, 2.4414063e-3, 21677.133, -0.00000000000000000000000064516994, 0.000000000006247192, 1.137235, 0.0, 21677.133, 21677.133, 0.9989076, 0.005314802, 0.0048828125 
2.5513574e+0, 7.324219e-3, 21677.133, -0.00000000000000000000000065163337, 0.000000000006278407, 1.137235, 0.0, 21677.133, 21677.133, 0.9989076, 0.005314802, 0.0048828125 
2.5566775e+0, 2.4414063e-3, 29696.48, -0.0000000000000000000000002437074, -0.0000000000052814016, 1.3421029, 0.0, 29696.48, 29696.48, 0.99784255, 0.0053113424, 0.0048828125 
2.5566775e+0, 7.324219e-3, 29696.48, -0.00000000000000000000000024878947, -0.0000000000053361846, 1.3421029, 0.0, 29696.48, 29696.48, 0.99784255, 0.0053113424, 0.0048828125 
2.5619856e+0, 2.4414063e-3, 37809.87, -0.000000000000000000000008863488, -0.00000000004147394, 1.5271904, 0.0, 37809.87, 37809.87, 0.9965653, 0.005290635, 0.0048828125 
2.5619856e+0, 7.324219e-3, 37809.87, -0.00000000000000000000000898524, -0.00000000004175782, 1.5271904, 0.0, 37809.87, 37809.87, 0.9965653, 0.005290635, 0.0048828125 
2.5672808e+0, 2.4414063e-3, 48216.887, -0.000000000000000000000053723334, -0.00000000013100306, 1.6985409, 0.0, 48216.887, 48216.887, 0.9950783, 0.00528576, 0.0048828125 
2.5672808e+0, 7.324219e-3, 48216.887, -0.00000000000000000000005368363, -0.00000000013095465, 1.6985409, 0.0, 48216.887, 48216.887, 0.9950783, 0.00528576, 0.0048828125 
2.5725594e+0, 2.4414063e-3, 57511.19, -0.000000000000000000000043202857, -0.00000000014387475, 1.8447663, 0.0, 57511.19, 57511.19, 0.99338436, 0.0052632177, 0.0048828125 
2.5725594e+0, 7.324219e-3, 57511.19, -0.0000000000000000000000431131, -0.00000000014372521, 1.8447663, 0.0, 57511.19, 57511.19, 0.99338436, 0.0052632177, 0.0048828125 
2.5778255e+0, 2.4414063e-3, 69375.305, -0.000000000000000000000040927442, 0.00000000017059171, 1.9784722, 0.0, 69375.305, 69375.305, 0.99148655, 0.005255722, 0.0048828125 
2.5778255e+0, 7.324219e-3, 69375.305, -0.000000000000000000000040453797, 0.00000000016960174, 1.9784722, 0.0, 69375.305, 69375.305, 0.99148655, 0.005255722, 0.0048828125 
2.5830716e+0, 2.4414063e-3, 79118.05, -0.00000000000000000000024533882, 0.00000000049018456, 2.0855742, 0.0, 79118.05, 79118.05, 0.98938835, 0.0052334312, 0.0048828125 
2.5830716e+0, 7.324219e-3, 79118.05, -0.00000000000000000000024578316, 0.00000000049062826, 2.0855742, 0.0, 79118.05, 79118.05, 0.98938835, 0.0052334312, 0.0048828125 
2.5883058e+0, 2.4414063e-3, 91446.95, -0.00000000000000000000007259987, 0.00000000031259575, 2.1815982, 0.0, 91446.95, 91446.95, 0.9870933, 0.0052234596, 0.0048828125 
2.5883058e+0, 7.324219e-3, 91446.95, -0.00000000000000000000007279109, 0.00000000031300715, 2.1815982, 0.0, 91446.95, 91446.95, 0.9870933, 0.0052234596, 0.0048828125 
2.5935188e+0, 2.4414063e-3, 101262.21, -0.000000000000000000000007748871, -0.00000000011639908, 2.2532804, 0.0, 101262.21, 101262.21, 0.9846057, 0.0052032885, 0.0048828125 
2.5935188e+0, 7.324219e-3, 101262.21, -0.000000000000000000000007926475, -0.00000000011772545, 2.2532804, 0.0, 101262.21, 101262.21, 0.9846057, 0.0052032885, 0.0048828125 
2.5987205e+0, 2.4414063e-3, 113175.13, -0.000000000000000000000022886289, -0.00000000022773533, 2.3152328, 0.0, 113175.13, 113175.13, 0.9819293, 0.0051914654, 0.0048828125 
2.5987205e+0, 7.324219e-3, 113175.13, -0.000000000000000000000023049482, -0.00000000022854584, 2.3152328, 0.0, 113175.13, 113175.13, 0.9819293, 0.0051914654, 0.0048828125 
2.603902e+0, 2.4414063e-3, 122886.375, -0.000000000000000000000008438734, -0.00000000015439043, 2.3573835, 0.0, 122886.375, 122886.375, 0.97906905, 0.005174136, 0.0048828125 
2.603902e+0, 7.324219e-3, 122886.375, -0.000000000000000000000008469872, -0.00000000015467501, 2.3573835, 0.0, 122886.375, 122886.375, 0.97906905, 0.005174136, 0.0048828125 
2.6090726e+0, 2.4414063e-3, 133744.08, -0.00000000000000000000000566753, -0.00000000014079982, 2.391054, 0.0, 133744.08, 133744.08, 0.9760289, 0.0051612915, 0.0048828125 
2.6090726e+0, 7.324219e-3, 133744.08, -0.0000000000000000000000056110453, -0.00000000014009642, 2.391054, 0.0, 133744.08, 133744.08, 0.9760289, 0.0051612915, 0.0048828125 
2.6142246e+0, 2.4414063e-3, 143310.44, -0.0000000000000000000000033842768, 0.00000000011966557, 2.4102583, 0.0, 143310.44, 143310.44, 0.9728144, 0.005146894, 0.0048828125 
2.6142246e+0, 7.324219e-3, 143310.44, -0.0000000000000000000000033640228, 0.00000000011930695, 2.4102583, 0.0, 143310.44, 143310.44, 0.9728144, 0.005146894, 0.0048828125 
2.619367e+0, 2.4414063e-3, 152733.53, -0.00000000000000000000000043182887, 0.000000000046723462, 2.4220774, 0.0, 152733.53, 152733.53, 0.9694296, 0.005133773, 0.0048828125 
2.619367e+0, 7.324219e-3, 152733.53, -0.0000000000000000000000004544943, 0.00000000004793397, 2.4220774, 0.0, 152733.53, 152733.53, 0.9694296, 0.005133773, 0.0048828125 
2.6244923e+0, 2.4414063e-3, 162169.47, -0.000000000000000000000040677606, -0.00000000049320353, 2.4241052, 0.0, 162169.47, 162169.47, 0.9658806, 0.0051220497, 0.0048828125 
2.6244923e+0, 7.324219e-3, 162169.47, -0.000000000000000000000040177528, -0.0000000004901625, 2.4241052, 0.0, 162169.47, 162169.47, 0.9658806, 0.0051220497, 0.0048828125 
2.629609e+0, 2.4414063e-3, 169970.23, -0.00000000000000000000000008210423, -0.000000000023876139, 2.419175, 0.0, 169970.23, 169970.23, 0.9621715, 0.005109167, 0.0048828125 
2.629609e+0, 7.324219e-3, 169970.23, -0.00000000000000000000000008276164, -0.000000000023971537, 2.419175, 0.0, 169970.23, 169970.23, 0.9621715, 0.005109167, 0.0048828125 
2.634711e+0, 2.4414063e-3, 179213.45, -0.000000000000000000000043811845, 0.00000000059456123, 2.407479, 0.0, 179213.45, 179213.45, 0.95830864, 0.0050996137, 0.0048828125 
2.634711e+0, 7.324219e-3, 179213.45, -0.0000000000000000000000439566, 0.0000000005955426, 2.407479, 0.0, 179213.45, 179213.45, 0.95830864, 0.0050996137, 0.0048828125 
2.639805e+0, 2.4414063e-3, 185682.97, -0.00000000000000000000000057124307, -0.0000000000723817, 2.3918087, 0.0, 185682.97, 185682.97, 0.95429635, 0.0050877, 0.0048828125 
2.639805e+0, 7.324219e-3, 185682.97, -0.0000000000000000000000006242026, -0.000000000075662566, 2.3918087, 0.0, 185682.97, 185682.97, 0.95429635, 0.0050877, 0.0048828125 
2.6448864e+0, 2.4414063e-3, 194596.58, -0.000000000000000000000015013776, -0.00000000039704562, 2.3732743, 0.0, 194596.58, 194596.58, 0.9501412, 0.0050797616, 0.0048828125 
2.6448864e+0, 7.324219e-3, 194596.58, -0.00000000000000000000001510493, -0.0000000003982491, 2.3732743, 0.0, 194596.58, 194596.58, 0.9501412, 0.0050797616, 0.0048828125 
2.6499608e+0, 2.4414063e-3, 200085.78, -0.00000000000000000000000035194517, 0.00000000006430279, 2.3512537, 0.0, 200085.78, 200085.78, 0.94584745, 0.0050691566, 0.0048828125 
2.6499608e+0, 7.324219e-3, 200085.78, -0.00000000000000000000000031448475, 0.0000000000607844, 2.3512537, 0.0, 200085.78, 200085.78, 0.94584745, 0.0050691566, 0.0048828125 
2.6550245e+0, 2.4414063e-3, 208544.63, -0.00000000000000000000000018467706, 0.00000000004951886, 2.3272886, 0.0, 208544.63, 208544.63, 0.94142175, 0.005062408, 0.0048828125 
2.6550245e+0, 7.324219e-3, 208544.63, -0.00000000000000000000000018684061, 0.000000000049808085, 2.3272886, 0.0, 208544.63, 208544.63, 0.94142175, 0.005062408, 0.0048828125 
2.660082e+0, 2.4414063e-3, 213175.36, -0.00000000000000000000000024872545, -0.00000000006040351, 2.3007917, 0.0, 213175.36, 213175.36, 0.9368686, 0.00505302, 0.0048828125 
2.660082e+0, 7.324219e-3, 213175.36, -0.00000000000000000000000025090897, -0.00000000006066807, 2.3007917, 0.0, 213175.36, 213175.36, 0.9368686, 0.00505302, 0.0048828125 
2.66513e+0, 2.4414063e-3, 221120.33, -0.00000000000000000000000034279842, 0.000000000074967685, 2.2731748, 0.0, 221120.33, 221120.33, 0.93219465, 0.005047199, 0.0048828125 
2.66513e+0, 7.324219e-3, 221120.33, -0.0000000000000000000000003515147, 0.000000000075914795, 2.2731748, 0.0, 221120.33, 221120.33, 0.93219465, 0.005047199, 0.0048828125 
2.6701725e+0, 2.4414063e-3, 225026.39, -0.000000000000000000000000070414704, 0.00000000003552915, 2.2441366, 0.0, 225026.39, 225026.39, 0.9274042, 0.0050389236, 0.0048828125 
2.6701725e+0, 7.324219e-3, 225026.39, -0.00000000000000000000000006985069, 0.00000000003538657, 2.2441366, 0.0, 225026.39, 225026.39, 0.9274042, 0.0050389236, 0.0048828125 
2.675207e+0, 2.4414063e-3, 232463.4, -0.0000000000000000000000026633875, -0.00000000022990883, 2.214601, 0.0, 232463.4, 232463.4, 0.922504, 0.0050338693, 0.0048828125 
2.675207e+0, 7.324219e-3, 232463.4, -0.000000000000000000000002634189, -0.00000000022864513, 2.214601, 0.0, 232463.4, 232463.4, 0.922504, 0.0050338693, 0.0048828125 
2.6802367e+0, 2.4414063e-3, 235806.52, -0.000000000000000000000032975487, -0.0000000008424221, 2.1844592, 0.0, 235806.52, 235806.52, 0.9174984, 0.005026614, 0.0048828125 
2.6802367e+0, 7.324219e-3, 235806.52, -0.000000000000000000000032590198, -0.00000000083748614, 2.1844592, 0.0, 235806.52, 235806.52, 0.9174984, 0.005026614, 0.0048828125 
2.685259e+0, 2.4414063e-3, 242767.84, -0.0000000000000000000000008670685, -0.00000000014314488, 2.1541758, 0.0, 242767.84, 242767.84, 0.9123938, 0.005022206, 0.0048828125 
2.685259e+0, 7.324219e-3, 242767.84, -0.0000000000000000000000008667845, -0.00000000014312145, 2.1541758, 0.0, 242767.84, 242767.84, 0.9123938, 0.005022206, 0.0048828125 
2.6902777e+0, 2.4414063e-3, 245661.13, -0.00000000000000000000014767737, 0.0000000019387085, 2.1238222, 0.0, 245661.13, 245661.13, 0.9071947, 0.005015847, 0.0048828125 
2.6902777e+0, 7.324219e-3, 245661.13, -0.00000000000000000000014836012, 0.000000001943185, 2.1238222, 0.0, 245661.13, 245661.13, 0.9071947, 0.005015847, 0.0048828125 
2.6952899e+0, 2.4414063e-3, 252190.05, -0.000000000000000000000020056587, 0.0000000007460643, 2.093529, 0.0, 252190.05, 252190.05, 0.9019072, 0.00501199, 0.0048828125 
2.6952899e+0, 7.324219e-3, 252190.05, -0.000000000000000000000019549641, 0.0000000007365753, 2.093529, 0.0, 252190.05, 252190.05, 0.9019072, 0.00501199, 0.0048828125 
2.700298e+0, 2.4414063e-3, 254702.97, -0.00000000000000000000011706258, -0.0000000018650794, 2.0635488, 0.0, 254702.97, 254702.97, 0.8965357, 0.0050063995, 0.0048828125 
2.700298e+0, 7.324219e-3, 254702.97, -0.00000000000000000000011661419, -0.0000000018615042, 2.0635488, 0.0, 254702.97, 254702.97, 0.8965357, 0.0050063995, 0.0048828125 
2.7053013e+0, 2.4414063e-3, 260853.66, -0.000000000000000000000012549726, -0.0000000006357515, 2.0337553, 0.0, 260853.66, 260853.66, 0.89108616, 0.0050030197, 0.0048828125 
2.7053013e+0, 7.324219e-3, 260853.66, -0.0000000000000000000000124615245, -0.00000000063351346, 2.0337553, 0.0, 260853.66, 260853.66, 0.89108616, 0.0050030197, 0.0048828125 
2.7103013e+0, 2.4414063e-3, 263035.97, -0.000000000000000000000021212908, 0.000000000853133, 2.0045295, 0.0, 263035.97, 263035.97, 0.8855628, 0.004998083, 0.0048828125 
2.7103013e+0, 7.324219e-3, 263035.97, -0.000000000000000000000021286956, 0.0000000008546207, 2.0045295, 0.0, 263035.97, 263035.97, 0.8855628, 0.004998083, 0.0048828125 
2.7152961e+0, 2.4414063e-3, 268864.03, -0.0000000000000000000000009579261, 0.00000000018824954, 1.9755678, 0.0, 268864.03, 268864.03, 0.87997127, 0.004995119, 0.0048828125 
2.7152961e+0, 7.324219e-3, 268864.03, -0.0000000000000000000000008391721, 0.00000000017619493, 1.9755678, 0.0, 268864.03, 268864.03, 0.87997127, 0.004995119, 0.0048828125 
2.7202886e+0, 2.4414063e-3, 270750.72, -0.000000000000000000000011975614, 0.0000000006854932, 1.9473225, 0.0, 270750.72, 270750.72, 0.87431574, 0.0049907374, 0.0048828125 
2.7202886e+0, 7.324219e-3, 270750.72, -0.000000000000000000000011999646, 0.00000000068618067, 1.9473225, 0.0, 270750.72, 270750.72, 0.87431574, 0.0049907374, 0.0048828125 
2.7252766e+0, 2.4414063e-3, 276308.13, -0.0000000000000000000000021245176, 0.00000000029912692, 1.9193891, 0.0, 276308.13, 276308.13, 0.8686015, 0.004988136, 0.0048828125 
2.7252766e+0, 7.324219e-3, 276308.13, -0.0000000000000000000000021861073, 0.00000000030343178, 1.9193891, 0.0, 276308.13, 276308.13, 0.8686015, 0.004988136, 0.0048828125 
2.730262e+0, 2.4414063e-3, 277923.38, -0.00000000000000000000009452369, -0.0000000020508257, 1.8922513, 0.0, 277923.38, 277923.38, 0.86283255, 0.004984225, 0.0048828125 
2.730262e+0, 7.324219e-3, 277923.38, -0.000000000000000000000094107963, -0.000000002046311, 1.8922513, 0.0, 277923.38, 277923.38, 0.86283255, 0.004984225, 0.0048828125 
2.735244e+0, 2.4414063e-3, 283256.97, -0.000000000000000000000000013737349, 0.00000000002556389, 1.8654561, 0.0, 283256.97, 283256.97, 0.8570139, 0.0049819406, 0.0048828125 
2.735244e+0, 7.324219e-3, 283256.97, -0.000000000000000000000000013080428, 0.00000000002494517, 1.8654561, 0.0, 283256.97, 283256.97, 0.8570139, 0.0049819406, 0.0048828125 
2.7402234e+0, 2.4414063e-3, 284619.66, -0.00000000000000000000010558053, 0.0000000022995115, 1.8394866, 0.0, 284619.66, 284619.66, 0.8511492, 0.004978431, 0.0048828125 
2.7402234e+0, 7.324219e-3, 284619.66, -0.000000000000000000000105469744, 0.0000000022983047, 1.8394866, 0.0, 284619.66, 284619.66, 0.8511492, 0.004978431, 0.0048828125 
2.7451998e+0, 2.4414063e-3, 289770.94, -0.000000000000000000000003372763, -0.00000000042423456, 1.8138794, 0.0, 289770.94, 289770.94, 0.8452433, 0.0049764244, 0.0048828125 
2.7451998e+0, 7.324219e-3, 289770.94, -0.0000000000000000000000032123728, -0.00000000041402454, 1.8138794, 0.0, 289770.94, 289770.94, 0.8452433, 0.0049764244, 0.0048828125 
2.750174e+0, 2.4414063e-3, 290895.22, -0.00000000000000000000001384824, -0.00000000088061713, 1.7890939, 0.0, 290895.22, 290895.22, 0.8392996, 0.0049732565, 0.0048828125 
2.750174e+0, 7.324219e-3, 290895.22, -0.000000000000000000000013935674, -0.00000000088339275, 1.7890939, 0.0, 290895.22, 290895.22, 0.8392996, 0.0049732565, 0.0048828125 
2.7551454e+0, 2.4414063e-3, 295900.56, -0.0000000000000000000000023571302, 0.0000000003744498, 1.7646832, 0.0, 295900.56, 295900.56, 0.83332264, 0.004971495, 0.0048828125 
2.7551454e+0, 7.324219e-3, 295900.56, -0.000000000000000000000002380319, 0.00000000037628717, 1.7646832, 0.0, 295900.56, 295900.56, 0.83332264, 0.004971495, 0.0048828125 
2.7601147e+0, 2.4414063e-3, 296797.88, -0.0000000000000000000000011674763, -0.00000000026957125, 1.7410684, 0.0, 296797.88, 296797.88, 0.82731557, 0.00496862, 0.0048828125 
2.7601147e+0, 7.324219e-3, 296797.88, -0.0000000000000000000000012155267, -0.00000000027506278, 1.7410684, 0.0, 296797.88, 296797.88, 0.82731557, 0.00496862, 0.0048828125 
2.7650815e+0, 2.4414063e-3, 301687.75, -0.000000000000000000000000026020987, 0.00000000004142304, 1.7178361, 0.0, 301687.75, 301687.75, 0.8212825, 0.004967073, 0.0048828125 
2.7650815e+0, 7.324219e-3, 301687.75, -0.000000000000000000000000026197994, 0.000000000041563687, 1.7178361, 0.0, 301687.75, 301687.75, 0.8212825, 0.004967073, 0.0048828125 
2.7700466e+0, 2.4414063e-3, 302368.75, -0.0000000000000000000000023994001, 0.00000000040635423, 1.6953597, 0.0, 302368.75, 302368.75, 0.8152265, 0.004964451, 0.0048828125 
2.7700466e+0, 7.324219e-3, 302368.75, -0.0000000000000000000000024602586, 0.00000000041147535, 1.6953597, 0.0, 302368.75, 302368.75, 0.8152265, 0.004964451, 0.0048828125 
2.7750093e+0, 2.4414063e-3, 307168.38, -0.0000000000000000000000016289855, -0.0000000003442114, 1.6732703, 0.0, 307168.38, 307168.38, 0.80915135, 0.0049630925, 0.0048828125 
2.7750093e+0, 7.324219e-3, 307168.38, -0.0000000000000000000000017044791, -0.00000000035209713, 1.6732703, 0.0, 307168.38, 307168.38, 0.80915135, 0.0049630925, 0.0048828125 
2.7799708e+0, 2.4414063e-3, 307643.06, -0.00000000000000000000000017589254, -0.000000000115408405, 1.6518892, 0.0, 307643.06, 307643.06, 0.8030598, 0.0049606897, 0.0048828125 
2.7799708e+0, 7.324219e-3, 307643.06, -0.00000000000000000000000017548779, -0.000000000115275546, 1.6518892, 0.0, 307643.06, 307643.06, 0.8030598, 0.0049606897, 0.0048828125 
2.78493e+0, 2.4414063e-3, 312373.47, -0.00000000000000000000000013481768, 0.000000000103761895, 1.6308969, 0.0, 312373.47, 312373.47, 0.79695535, 0.004959497, 0.0048828125 
2.78493e+0, 7.324219e-3, 312373.47, -0.00000000000000000000000013692452, 0.000000000104569506, 1.6308969, 0.0, 312373.47, 312373.47, 0.79695535, 0.004959497, 0.0048828125 
2.7898878e+0, 2.4414063e-3, 312650.9, -0.0000000000000000000000101541466, -0.00000000091780267, 1.610561, 0.0, 312650.9, 312650.9, 0.79084057, 0.0049572852, 0.0048828125 
2.7898878e+0, 7.324219e-3, 312650.9, -0.000000000000000000000010131606, -0.0000000009167834, 1.610561, 0.0, 312650.9, 312650.9, 0.79084057, 0.0049572852, 0.0048828125 
2.794844e+0, 2.4414063e-3, 317329.47, -0.00000000000000000000002352073, -0.0000000014331386, 1.5906142, 0.0, 317329.47, 317329.47, 0.7847187, 0.00495624, 0.0048828125 
2.794844e+0, 7.324219e-3, 317329.47, -0.000000000000000000000023594858, -0.0000000014353951, 1.5906142, 0.0, 317329.47, 317329.47, 0.7847187, 0.00495624, 0.0048828125 
2.7997985e+0, 2.4414063e-3, 317418.34, -0.00000000000000000000002987202, 0.0000000016444175, 1.5712711, 0.0, 317418.34, 317418.34, 0.778592, 0.004954195, 0.0048828125 
2.7997985e+0, 7.324219e-3, 317418.34, -0.000000000000000000000030078102, 0.00000000165008, 1.5712711, 0.0, 317418.34, 317418.34, 0.778592, 0.004954195, 0.0048828125 
2.8047514e+0, 2.4414063e-3, 322058.84, -0.0000000000000000000002704057, 0.0000000050716285, 1.5523158, 0.0, 322058.84, 322058.84, 0.77246344, 0.0049532787, 0.0048828125 
2.8047514e+0, 7.324219e-3, 322058.84, -0.00000000000000000000027277288, 0.000000005093779, 1.5523158, 0.0, 322058.84, 322058.84, 0.77246344, 0.0049532787, 0.0048828125 
2.8097034e+0, 2.4414063e-3, 321968.78, -0.0000000000000000000000020632698, -0.00000000045063306, 1.5339124, 0.0, 321968.78, 321968.78, 0.7663351, 0.0049513816, 0.0048828125 
2.8097034e+0, 7.324219e-3, 321968.78, -0.0000000000000000000000020555086, -0.0000000004497847, 1.5339124, 0.0, 321968.78, 321968.78, 0.7663351, 0.0049513816, 0.0048828125 
2.8146535e+0, 2.4414063e-3, 326581.78, -0.0000000000000000000005772495, -0.000000007720498, 1.5158957, 0.0, 326581.78, 326581.78, 0.7602098, 0.0049505797, 0.0048828125 
2.8146535e+0, 7.324219e-3, 326581.78, -0.00000000000000000000057266874, -0.0000000076898035, 1.5158957, 0.0, 326581.78, 326581.78, 0.7602098, 0.0049505797, 0.0048828125 
2.8196028e+0, 2.4414063e-3, 326322.28, -0.0000000000000000000000065480744, -0.00000000083569107, 1.4983819, 0.0, 326322.28, 326322.28, 0.75408936, 0.004948813, 0.0048828125 
2.8196028e+0, 7.324219e-3, 326322.28, -0.0000000000000000000000064667137, -0.00000000083048307, 1.4983819, 0.0, 326322.28, 326322.28, 0.75408936, 0.004948813, 0.0048828125 
2.8245506e+0, 2.4414063e-3, 330918.44, -0.0000000000000000000003720434, 0.0000000064475407, 1.4812413, 0.0, 330918.44, 330918.44, 0.7479763, 0.0049481126, 0.0048828125 
2.8245506e+0, 7.324219e-3, 330918.44, -0.00000000000000000000037516124, 0.0000000064745005, 1.4812413, 0.0, 330918.44, 330918.44, 0.7479763, 0.0049481126, 0.0048828125 
2.8294975e+0, 2.4414063e-3, 330495.78, -0.000000000000000000000000037032795, 0.00000000006532243, 1.4645436, 0.0, 330495.78, 330495.78, 0.7418724, 0.0049464614, 0.0048828125 
2.8294975e+0, 7.324219e-3, 330495.78, -0.00000000000000000000000003991797, 0.0000000000678193, 1.4645436, 0.0, 330495.78, 330495.78, 0.7418724, 0.0049464614, 0.0048828125 
2.834443e+0, 2.4414063e-3, 335080.34, -0.000000000000000000000035948445, -0.0000000020817672, 1.4482768, 0.0, 335080.34, 335080.34, 0.7357799, 0.004945851, 0.0048828125 
2.834443e+0, 7.324219e-3, 335080.34, -0.000000000000000000000036831468, -0.0000000021071798, 1.4482768, 0.0, 335080.34, 335080.34, 0.7357799, 0.004945851, 0.0048828125 
2.8393877e+0, 2.4414063e-3, 334503.7, -0.000000000000000000000029726005, 0.0000000019208986, 1.4324757, 0.0, 334503.7, 334503.7, 0.7297004, 0.0049443035, 0.0048828125 
2.8393877e+0, 7.324219e-3, 334503.7, -0.00000000000000000000002986883, 0.0000000019255078, 1.4324757, 0.0, 334503.7, 334503.7, 0.7297004, 0.0049443035, 0.0048828125 
2.844331e+0, 2.4414063e-3, 339053.25, -0.0000000000000000000000052296477, -0.00000000082359597, 1.4168322, 0.0, 339053.25, 339053.25, 0.723636, 0.0049437676, 0.0048828125 
2.844331e+0, 7.324219e-3, 339053.25, -0.0000000000000000000000052631585, -0.00000000082623053, 1.4168322, 0.0, 339053.25, 339053.25, 0.723636, 0.0049437676, 0.0048828125 
2.8492737e+0, 2.4414063e-3, 338338.25, -0.000000000000000000000030881677, -0.000000002029423, 1.4013427, 0.0, 338338.25, 338338.25, 0.7175882, 0.0049423147, 0.0048828125 
2.8492737e+0, 7.324219e-3, 338338.25, -0.000000000000000000000030932022, -0.0000000020310766, 1.4013427, 0.0, 338338.25, 338338.25, 0.7175882, 0.0049423147, 0.0048828125 
2.8542152e+0, 2.4414063e-3, 342822.9, -0.00000000000000000000004467718, 0.0000000024935864, 1.3863858, 0.0, 342822.9, 342822.9, 0.7115589, 0.0049418393, 0.0048828125 
2.8542152e+0, 7.324219e-3, 342822.9, -0.00000000000000000000004400677, 0.0000000024748068, 1.3863858, 0.0, 342822.9, 342822.9, 0.7115589, 0.0049418393, 0.0048828125 
2.8591558e+0, 2.4414063e-3, 341993.75, -0.000000000000000000000046600245, 0.0000000025807796, 1.3719058, 0.0, 341993.75, 341993.75, 0.7055495, 0.0049404744, 0.0048828125 
2.8591558e+0, 7.324219e-3, 341993.75, -0.000000000000000000000047392356, 0.0000000026026212, 1.3719058, 0.0, 341993.75, 341993.75, 0.7055495, 0.0049404744, 0.0048828125 
2.8640956e+0, 2.4414063e-3, 346509.13, -0.00000000000000000000012283442, -0.0000000042782897, 1.3577845, 0.0, 346509.13, 346509.13, 0.69956183, 0.004940068, 0.0048828125 
2.8640956e+0, 7.324219e-3, 346509.13, -0.00000000000000000000012390638, -0.000000004296917, 1.3577845, 0.0, 346509.13, 346509.13, 0.69956183, 0.004940068, 0.0048828125 
2.8690344e+0, 2.4414063e-3, 345584.4, -0.00000000000000000000019874074, -0.0000000055117, 1.3439583, 0.0, 345584.4, 345584.4, 0.69359714, 0.004938785, 0.0048828125 
2.8690344e+0, 7.324219e-3, 345584.4, -0.0000000000000000000001970217, -0.000000005487811, 1.3439583, 0.0, 345584.4, 345584.4, 0.69359714, 0.004938785, 0.0048828125 
2.8739727e+0, 2.4414063e-3, 350075.28, -0.00000000000000000000011269003, 0.0000000042355572, 1.330448, 0.0, 350075.28, 350075.28, 0.68765706, 0.0049384315, 0.0048828125 
2.8739727e+0, 7.324219e-3, 350075.28, -0.0000000000000000000001121725, 0.00000000422582, 1.330448, 0.0, 350075.28, 350075.28, 0.68765706, 0.0049384315, 0.0048828125 
2.87891e+0, 2.4414063e-3, 349070.4, -0.0000000000000000000001557098, 0.000000005040066, 1.3171781, 0.0, 349070.4, 349070.4, 0.6817429, 0.004937224, 0.0048828125 
2.87891e+0, 7.324219e-3, 349070.4, -0.00000000000000000000015486671, 0.0000000050264033, 1.3171781, 0.0, 349070.4, 349070.4, 0.6817429, 0.004937224, 0.0048828125 
2.8838468e+0, 2.4414063e-3, 353501.75, -0.00000000000000000000007572034, -0.0000000035848706, 1.3042507, 0.0, 353501.75, 353501.75, 0.67585623, 0.0049369116, 0.0048828125 
2.8838468e+0, 7.324219e-3, 353501.75, -0.00000000000000000000007541781, -0.000000003577702, 1.3042507, 0.0, 353501.75, 353501.75, 0.67585623, 0.0049369116, 0.0048828125 
2.8887826e+0, 2.4414063e-3, 352434.53, -0.00000000000000000000002325224, -0.0000000020100654, 1.2915647, 0.0, 352434.53, 352434.53, 0.66999817, 0.0049357745, 0.0048828125 
2.8887826e+0, 7.324219e-3, 352434.53, -0.000000000000000000000023343131, -0.0000000020139903, 1.2915647, 0.0, 352434.53, 352434.53, 0.66999817, 0.0049357745, 0.0048828125 
2.893718e+0, 2.4414063e-3, 356813.78, -0.000000000000000000000039150356, 0.0000000026589735, 1.2792056, 0.0, 356813.78, 356813.78, 0.66417027, 0.0049355, 0.0048828125 
2.893718e+0, 7.324219e-3, 356813.78, -0.000000000000000000000038596544, 0.0000000026401, 1.2792056, 0.0, 356813.78, 356813.78, 0.66417027, 0.0049355, 0.0048828125 
2.8986526e+0, 2.4414063e-3, 355699.2, -0.0000000000000000000000002449364, 0.00000000021271691, 1.2670615, 0.0, 355699.2, 355699.2, 0.65837353, 0.0049344297, 0.0048828125 
2.8986526e+0, 7.324219e-3, 355699.2, -0.00000000000000000000000021106467, 0.00000000019746181, 1.2670615, 0.0, 355699.2, 355699.2, 0.65837353, 0.0049344297, 0.0048828125 
2.9035863e+0, 2.4414063e-3, 360018.8, -0.000000000000000000000026985578, -0.0000000022750692, 1.2552257, 0.0, 360018.8, 360018.8, 0.6526096, 0.0049341875, 0.0048828125 
2.9035863e+0, 7.324219e-3, 360018.8, -0.000000000000000000000026924078, -0.0000000022724755, 1.2552257, 0.0, 360018.8, 360018.8, 0.6526096, 0.0049341875, 0.0048828125 
2.9085198e+0, 2.4414063e-3, 358869.47, -0.00000000000000000000000007112406, -0.0000000001180866, 1.24358, 0.0, 358869.47, 358869.47, 0.6468794, 0.004933179, 0.0048828125 
2.9085198e+0, 7.324219e-3, 358869.47, -0.000000000000000000000000067976514, -0.000000000115444106, 1.24358, 0.0, 358869.47, 358869.47, 0.6468794, 0.004933179, 0.0048828125 
2.9134524e+0, 2.4414063e-3, 363120.22, -0.00000000000000000000005350605, 0.0000000032986474, 1.2322338, 0.0, 363120.22, 363120.22, 0.6411843, 0.0049329647, 0.0048828125 
2.9134524e+0, 7.324219e-3, 363120.22, -0.000000000000000000000052564, 0.0000000032694798, 1.2322338, 0.0, 363120.22, 363120.22, 0.6411843, 0.0049329647, 0.0048828125 
2.9183847e+0, 2.4414063e-3, 361948.4, -0.00000000000000000000000075218203, 0.00000000039528303, 1.2210612, 0.0, 361948.4, 361948.4, 0.63552547, 0.0049320143, 0.0048828125 
2.9183847e+0, 7.324219e-3, 361948.4, -0.00000000000000000000000078715435, 0.00000000040436784, 1.2210612, 0.0, 361948.4, 361948.4, 0.63552547, 0.0049320143, 0.0048828125 
2.923316e+0, 2.4414063e-3, 366125.13, -0.000000000000000000000021952891, -0.0000000021738447, 1.210176, 0.0, 366125.13, 366125.13, 0.62990427, 0.0049318247, 0.0048828125 
2.923316e+0, 7.324219e-3, 366125.13, -0.000000000000000000000021953089, -0.0000000021738542, 1.210176, 0.0, 366125.13, 366125.13, 0.62990427, 0.0049318247, 0.0048828125 
2.9282472e+0, 2.4414063e-3, 364942.78, -0.0000000000000000000000037794768, 0.0000000009113233, 1.1994482, 0.0, 364942.78, 364942.78, 0.62432164, 0.0049309283, 0.0048828125 
2.9282472e+0, 7.324219e-3, 364942.78, -0.0000000000000000000000038124594, 0.0000000009152911, 1.1994482, 0.0, 364942.78, 364942.78, 0.62432164, 0.0049309283, 0.0048828125 
2.9331776e+0, 2.4414063e-3, 369039.25, -0.0000000000000000000000018691051, -0.000000000652089, 1.1889946, 0.0, 369039.25, 369039.25, 0.618779, 0.00493076, 0.0048828125 
2.9331776e+0, 7.324219e-3, 369039.25, -0.0000000000000000000000017902437, -0.0000000006381843, 1.1889946, 0.0, 369039.25, 369039.25, 0.618779, 0.00493076, 0.0048828125 
2.9381078e+0, 2.4414063e-3, 367856.9, -0.0000000000000000000000132149734, -0.0000000017513391, 1.1786835, 0.0, 367856.9, 367856.9, 0.6132774, 0.004929915, 0.0048828125 
2.9381078e+0, 7.324219e-3, 367856.9, -0.000000000000000000000013506512, -0.000000001770552, 1.1786835, 0.0, 367856.9, 367856.9, 0.6132774, 0.004929915, 0.0048828125 
2.9430372e+0, 2.4414063e-3, 371868.06, -0.000000000000000000000011165717, 0.0000000016372489, 1.1686349, 0.0, 371868.06, 371868.06, 0.60781795, 0.0049297647, 0.0048828125 
2.9430372e+0, 7.324219e-3, 371868.06, -0.000000000000000000000011199606, 0.0000000016397316, 1.1686349, 0.0, 371868.06, 371868.06, 0.60781795, 0.0049297647, 0.0048828125 
2.9479662e+0, 2.4414063e-3, 370694.0, -0.0000000000000000000000009850022, 0.0000000004910426, 1.1587161, 0.0, 370694.0, 370694.0, 0.6024019, 0.004928969, 0.0048828125 
2.9479662e+0, 7.324219e-3, 370694.0, -0.000000000000000000000000914141, 0.0000000004730501, 1.1587161, 0.0, 370694.0, 370694.0, 0.6024019, 0.004928969, 0.0048828125 
2.9528946e+0, 2.4414063e-3, 374616.53, -0.000000000000000000000006651782, -0.0000000012972046, 1.1490476, 0.0, 374616.53, 374616.53, 0.5970304, 0.0049288343, 0.0048828125 
2.9528946e+0, 7.324219e-3, 374616.53, -0.0000000000000000000000068057886, -0.0000000013121356, 1.1490476, 0.0, 374616.53, 374616.53, 0.5970304, 0.0049288343, 0.0048828125 
2.957823e+0, 2.4414063e-3, 373458.53, -0.00000000000000000000000018723055, 0.00000000021970864, 1.1394974, 0.0, 373458.53, 373458.53, 0.5917045, 0.004928084, 0.0048828125 
2.957823e+0, 7.324219e-3, 373458.53, -0.00000000000000000000000021019145, 0.00000000023279105, 1.1394974, 0.0, 373458.53, 373458.53, 0.5917045, 0.004928084, 0.0048828125 
2.9627508e+0, 2.4414063e-3, 377287.22, -0.00000000000000000000000004075302, 0.00000000010415596, 1.1301863, 0.0, 377287.22, 377287.22, 0.5864254, 0.0049279635, 0.0048828125 
2.9627508e+0, 7.324219e-3, 377287.22, -0.0000000000000000000000000341421, 0.00000000009533434, 1.1301863, 0.0, 377287.22, 377287.22, 0.5864254, 0.0049279635, 0.0048828125 
2.967678e+0, 2.4414063e-3, 376155.88, -0.00000000000000000000000030710138, -0.00000000028857813, 1.1209834, 0.0, 376155.88, 376155.88, 0.58119416, 0.004927257, 0.0048828125 
2.967678e+0, 7.324219e-3, 376155.88, -0.00000000000000000000000028518993, -0.00000000027809272, 1.1209834, 0.0, 376155.88, 376155.88, 0.58119416, 0.004927257, 0.0048828125 
2.972605e+0, 2.4414063e-3, 379883.97, -0.0000000000000000000000019434707, 0.0000000007373334, 1.112008, 0.0, 379883.97, 379883.97, 0.57601196, 0.004927148, 0.0048828125 
2.972605e+0, 7.324219e-3, 379883.97, -0.0000000000000000000000019687608, 0.00000000074211526, 1.112008, 0.0, 379883.97, 379883.97, 0.57601196, 0.004927148, 0.0048828125 
2.9775316e+0, 2.4414063e-3, 378790.4, -0.00000000000000000000000029322586, 0.00000000028900268, 1.1031318, 0.0, 378790.4, 378790.4, 0.5708798, 0.004926483, 0.0048828125 
2.9775316e+0, 7.324219e-3, 378790.4, -0.00000000000000000000000028372186, 0.00000000028428054, 1.1031318, 0.0, 378790.4, 378790.4, 0.5708798, 0.004926483, 0.0048828125 
2.9824576e+0, 2.4414063e-3, 382409.25, -0.0000000000000000000000022490988, -0.00000000081257423, 1.0944753, 0.0, 382409.25, 382409.25, 0.5657989, 0.004926384, 0.0048828125 
2.9824576e+0, 7.324219e-3, 382409.25, -0.0000000000000000000000021204928, -0.0000000007890003, 1.0944753, 0.0, 382409.25, 382409.25, 0.5657989, 0.004926384, 0.0048828125 
2.9873833e+0, 2.4414063e-3, 381361.5, -0.0000000000000000000000003944986, -0.0000000003433373, 1.0859104, 0.0, 381361.5, 381361.5, 0.5607701, 0.0049257595, 0.0048828125 
2.9873833e+0, 7.324219e-3, 381361.5, -0.0000000000000000000000004089668, -0.00000000034957656, 1.0859104, 0.0, 381361.5, 381361.5, 0.5607701, 0.0049257595, 0.0048828125 
2.9923087e+0, 2.4414063e-3, 384872.4, -0.00000000000000000000000072138643, 0.0000000004711399, 1.0775466, 0.0, 384872.4, 384872.4, 0.55579466, 0.0049256687, 0.0048828125 
2.9923087e+0, 7.324219e-3, 384872.4, -0.0000000000000000000000006857543, 0.0000000004593568, 1.0775466, 0.0, 384872.4, 384872.4, 0.55579466, 0.0049256687, 0.0048828125 
2.997234e+0, 2.4414063e-3, 383882.34, -0.00000000000000000000000020903976, 0.00000000025582406, 1.0692662, 0.0, 383882.34, 383882.34, 0.55087346, 0.004925083, 0.0048828125 
2.997234e+0, 7.324219e-3, 383882.34, -0.00000000000000000000000017546367, 0.00000000023438, 1.0692662, 0.0, 383882.34, 383882.34, 0.55087346, 0.004925083, 0.0048828125 
3.0021587e+0, 2.4414063e-3, 387266.28, -0.00000000000000000000000033535128, -0.00000000032865935, 1.061206, 0.0, 387266.28, 387266.28, 0.54600763, 0.0049249977, 0.0048828125 
3.0021587e+0, 7.324219e-3, 387266.28, -0.0000000000000000000000003497663, -0.0000000003356487, 1.061206, 0.0, 387266.28, 387266.28, 0.54600763, 0.0049249977, 0.0048828125 
3.007083e+0, 2.4414063e-3, 386311.0, -0.00000000000000000000000021289354, -0.0000000002640872, 1.0532248, 0.0, 386311.0, 386311.0, 0.54119825, 0.004924446, 0.0048828125 
3.007083e+0, 7.324219e-3, 386311.0, -0.00000000000000000000000018886151, -0.00000000024873553, 1.0532248, 0.0, 386311.0, 386311.0, 0.54119825, 0.004924446, 0.0048828125 
3.0120072e+0, 2.4414063e-3, 389693.88, -0.00000000000000000000000016088206, 0.00000000023278944, 1.045359, 0.0, 389693.88, 389693.88, 0.5364459, 0.0049243793, 0.0048828125 
3.0120072e+0, 7.324219e-3, 389693.88, -0.00000000000000000000000018065164, 0.000000000246678, 1.045359, 0.0, 389693.88, 389693.88, 0.5364459, 0.0049243793, 0.0048828125 
3.0169314e+0, 2.4414063e-3, 388703.72, -0.00000000000000000000000018779249, 0.0000000002535655, 1.0375639, 0.0, 388703.72, 388703.72, 0.53175133, 0.0049238517, 0.0048828125 
3.0169314e+0, 7.324219e-3, 388703.72, -0.00000000000000000000000017445117, 0.0000000002443926, 1.0375639, 0.0, 388703.72, 388703.72, 0.53175133, 0.0049238517, 0.0048828125 
3.021855e+0, 2.4414063e-3, 392807.13, -0.00000000000000000000000041558164, 0.0000000003827337, 1.030182, 0.0, 392807.13, 392807.13, 0.52711666, 0.004923879, 0.0048828125 
3.021855e+0, 7.324219e-3, 392807.13, -0.0000000000000000000000004331046, 0.0000000003907194, 1.030182, 0.0, 392807.13, 392807.13, 0.52711666, 0.004923879, 0.0048828125 
3.026777e+0, 2.4414063e-3, 389368.16, -0.00000000000000000000000030682018, 0.00000000033043127, 1.0228648, 0.0, 389368.16, 389368.16, 0.522543, 0.0049231206, 0.0048828125 
3.026777e+0, 7.324219e-3, 389368.16, -0.00000000000000000000000030281782, 0.00000000032826902, 1.0228648, 0.0, 389368.16, 389368.16, 0.522543, 0.0049231206, 0.0048828125 
3.0317003e+0, 2.4414063e-3, 398771.06, -0.000000000000000000000008832691, -0.0000000018104784, 1.0150054, 0.0, 398771.06, 398771.06, 0.5180279, 0.0049237153, 0.0048828125 
3.0317003e+0, 7.324219e-3, 398771.06, -0.000000000000000000000008935329, -0.0000000018209672, 1.0150054, 0.0, 398771.06, 398771.06, 0.5180279, 0.0049237153, 0.0048828125 
3.036628e+0, 2.4414063e-3, 387714.13, -0.00000000000000000000000064926467, -0.0000000004883423, 1.0071634, 0.0, 387714.13, 387714.13, 0.5135714, 0.0049221986, 0.0048828125 
3.036628e+0, 7.324219e-3, 387714.13, -0.00000000000000000000000058010647, -0.0000000004616016, 1.0071634, 0.0, 387714.13, 387714.13, 0.5135714, 0.0049221986, 0.0048828125 
3.0415484e+0, 2.4414063e-3, 410612.84, -0.00000000000000000000004406661, 0.0000000051119406, 1.0008955, 0.0, 410612.84, 410612.84, 0.40918413, 0.0049171024, 0.0048828125 
3.0415484e+0, 7.324219e-3, 410612.84, -0.000000000000000000000043647005, 0.0000000050875446, 1.0008955, 0.0, 410612.84, 410612.84, 0.40918413, 0.0049171024, 0.0048828125 
3.046458e+0, 2.4414063e-3, 374215.16, -0.0000000000000000000000035099723, 0.0000000013896594, 0.9950756, 0.0, 374215.16, 374215.16, 0.4048684, 0.004913805, 0.0048828125 
3.046458e+0, 7.324219e-3, 374215.16, -0.0000000000000000000000035293854, 0.0000000013934971, 0.9950756, 0.0, 374215.16, 374215.16, 0.4048684, 0.004913805, 0.0048828125 
3.0513716e+0, 2.4414063e-3, 407669.53, -0.000000000000000000000033694976, -0.000000004533905, 0.9896834, 0.0, 407669.53, 407669.53, 0.400613, 0.0049163625, 0.0048828125 
3.0513716e+0, 7.324219e-3, 407669.53, -0.000000000000000000000033311103, -0.000000004508004, 0.9896834, 0.0, 407669.53, 407669.53, 0.400613, 0.0049163625, 0.0048828125 
3.0562896e+0, 2.4414063e-3, 396715.5, -0.00000000000000000000001527209, -0.000000003037547, 0.9843699, 0.0, 396715.5, 396715.5, 0.39641824, 0.004915223, 0.0048828125 
3.0562896e+0, 7.324219e-3, 396715.5, -0.000000000000000000000014766285, -0.0000000029868223, 0.9843699, 0.0, 396715.5, 396715.5, 0.39641824, 0.004915223, 0.0048828125 
3.0612043e+0, 2.4414063e-3, 396574.16, -0.00000000000000000000000028662835, -0.00000000041966908, 0.9789068, 0.0, 396574.16, 396574.16, 0.39229086, 0.004914989, 0.0048828125 
3.0612043e+0, 7.324219e-3, 396574.16, -0.00000000000000000000000030290158, -0.0000000004314179, 0.9789068, 0.0, 396574.16, 396574.16, 0.39229086, 0.004914989, 0.0048828125 
3.0661193e+0, 2.4414063e-3, 407488.94, -0.00000000000000000000000001823053, -0.00000000010820511, 0.97339946, 0.0, 407488.94, 407488.94, 0.3882292, 0.004915662, 0.0048828125 
3.0661193e+0, 7.324219e-3, 407488.94, -0.000000000000000000000000016864148, -0.00000000010407115, 0.97339946, 0.0, 407488.94, 407488.94, 0.3882292, 0.004915662, 0.0048828125 
3.0710346e+0, 2.4414063e-3, 399989.47, -0.0000000000000000000000001267982, 0.00000000028512182, 0.9678169, 0.0, 399989.47, 399989.47, 0.3842328, 0.0049148407, 0.0048828125 
3.0710346e+0, 7.324219e-3, 399989.47, -0.00000000000000000000000014345277, 0.00000000030326927, 0.9678169, 0.0, 399989.47, 399989.47, 0.3842328, 0.0049148407, 0.0048828125 
3.0759487e+0, 2.4414063e-3, 400843.75, -0.000000000000000000000019536571, 0.0000000035725114, 0.96225756, 0.0, 400843.75, 400843.75, 0.3803032, 0.0049147042, 0.0048828125 
3.0759487e+0, 7.324219e-3, 400843.75, -0.000000000000000000000019300082, 0.0000000035508232, 0.96225756, 0.0, 400843.75, 400843.75, 0.3803032, 0.0049147042, 0.0048828125 
3.0808634e+0, 2.4414063e-3, 406314.88, -0.000000000000000000000007843841, 0.0000000022978552, 0.95697945, 0.0, 406314.88, 406314.88, 0.37644035, 0.0049149417, 0.0048828125 
3.0808634e+0, 7.324219e-3, 406314.88, -0.000000000000000000000007827745, 0.0000000022954965, 0.95697945, 0.0, 406314.88, 406314.88, 0.37644035, 0.0049149417, 0.0048828125 
3.085778e+0, 2.4414063e-3, 402053.63, -0.0000000000000000000000059260284, -0.0000000020029398, 0.95177317, 0.0, 402053.63, 402053.63, 0.37264478, 0.004914407, 0.0048828125 
3.085778e+0, 7.324219e-3, 402053.63, -0.000000000000000000000006054084, -0.000000002024465, 0.95177317, 0.0, 402053.63, 402053.63, 0.37264478, 0.004914407, 0.0048828125 
3.0906922e+0, 2.4414063e-3, 406830.38, -0.00000000000000000000000008199077, -0.00000000023889205, 0.94666713, 0.0, 406830.38, 406830.38, 0.3689171, 0.0049145957, 0.0048828125 
3.0906922e+0, 7.324219e-3, 406830.38, -0.00000000000000000000000007818062, -0.00000000023327532, 0.94666713, 0.0, 406830.38, 406830.38, 0.3689171, 0.0049145957, 0.0048828125 
3.095607e+0, 2.4414063e-3, 407745.3, -0.00000000000000000000000020491312, 0.00000000038107598, 0.9415876, 0.0, 407745.3, 407745.3, 0.36525714, 0.0049144826, 0.0048828125 
3.095607e+0, 7.324219e-3, 407745.3, -0.0000000000000000000000001673975, 0.00000000034443018, 0.9415876, 0.0, 407745.3, 407745.3, 0.36525714, 0.0049144826, 0.0048828125 
3.100521e+0, 2.4414063e-3, 407532.1, -0.000000000000000000000003525576, -0.0000000015925695, 0.9365587, 0.0, 407532.1, 407532.1, 0.36166528, 0.004914286, 0.0048828125 
3.100521e+0, 7.324219e-3, 407532.1, -0.0000000000000000000000035921874, -0.000000001607544, 0.9365587, 0.0, 407532.1, 407532.1, 0.36166528, 0.004914286, 0.0048828125 
3.105435e+0, 2.4414063e-3, 409051.38, -0.000000000000000000000000002526663, 0.000000000043041275, 0.93154365, 0.0, 409051.38, 409051.38, 0.358142, 0.0049142293, 0.0048828125 
3.105435e+0, 7.324219e-3, 409051.38, -0.0000000000000000000000000009566685, 0.000000000026484526, 0.93154365, 0.0, 409051.38, 409051.38, 0.358142, 0.0049142293, 0.0048828125 
3.1103492e+0, 2.4414063e-3, 411052.1, -0.0000000000000000000000014578064, 0.0000000010442168, 0.9265557, 0.0, 411052.1, 411052.1, 0.35468704, 0.004914214, 0.0048828125 
3.1103492e+0, 7.324219e-3, 411052.1, -0.00000000000000000000000146476, 0.0000000010467042, 0.9265557, 0.0, 411052.1, 411052.1, 0.35468704, 0.004914214, 0.0048828125 
3.115263e+0, 2.4414063e-3, 408695.4, -0.00000000000000000000000000003790239, 0.000000000005348654, 0.92161334, 0.0, 408695.4, 408695.4, 0.35130048, 0.0049138675, 0.0048828125 
3.115263e+0, 7.324219e-3, 408695.4, -0.00000000000000000000000000015937613, 0.000000000010967884, 0.92161334, 0.0, 408695.4, 408695.4, 0.35130048, 0.0049138675, 0.0048828125 
3.1201765e+0, 2.4414063e-3, 412365.75, -0.0000000000000000000000023810001, -0.0000000013564377, 0.9169131, 0.0, 412365.75, 412365.75, 0.34798265, 0.0049139885, 0.0048828125 
3.1201765e+0, 7.324219e-3, 412365.75, -0.0000000000000000000000023515015, -0.000000001348009, 0.9169131, 0.0, 412365.75, 412365.75, 0.34798265, 0.0049139885, 0.0048828125 
3.1250906e+0, 2.4414063e-3, 414186.03, -0.00000000000000000000000041407723, -0.000000000570996, 0.91223073, 0.0, 414186.03, 414186.03, 0.3447334, 0.0049139704, 0.0048828125 
3.1250906e+0, 7.324219e-3, 414186.03, -0.00000000000000000000000038411528, -0.0000000005499499, 0.91223073, 0.0, 414186.03, 414186.03, 0.3447334, 0.0049139704, 0.0048828125 
3.1300047e+0, 2.4414063e-3, 414043.03, -0.000000000000000000000011862651, 0.0000000030773157, 0.9074229, 0.0, 414043.03, 414043.03, 0.34155244, 0.004913808, 0.0048828125 
3.1300047e+0, 7.324219e-3, 414043.03, -0.000000000000000000000012205524, 0.0000000031214717, 0.9074229, 0.0, 414043.03, 414043.03, 0.34155244, 0.004913808, 0.0048828125 
3.134918e+0, 2.4414063e-3, 412996.13, -0.00000000000000000000000010745023, 0.00000000029454147, 0.9026418, 0.0, 412996.13, 412996.13, 0.3384398, 0.004913582, 0.0048828125 
3.134918e+0, 7.324219e-3, 412996.13, -0.000000000000000000000000091669945, 0.00000000027205474, 0.9026418, 0.0, 412996.13, 412996.13, 0.3384398, 0.004913582, 0.0048828125 
3.1398314e+0, 2.4414063e-3, 416461.2, -0.000000000000000000000023185144, -0.0000000043744204, 0.89811015, 0.0, 416461.2, 416461.2, 0.33539537, 0.004913699, 0.0048828125 
3.1398314e+0, 7.324219e-3, 416461.2, -0.000000000000000000000023151562, -0.000000004371251, 0.89811015, 0.0, 416461.2, 416461.2, 0.33539537, 0.004913699, 0.0048828125 
3.144745e+0, 2.4414063e-3, 417087.56, -0.000000000000000000000000464832, 0.0000000006240156, 0.893603, 0.0, 417087.56, 417087.56, 0.33241877, 0.0049136067, 0.0048828125 
3.144745e+0, 7.324219e-3, 417087.56, -0.00000000000000000000000053553435, 0.0000000006697938, 0.893603, 0.0, 417087.56, 417087.56, 0.33241877, 0.0049136067, 0.0048828125 
3.1496584e+0, 2.4414063e-3, 417763.13, -0.000000000000000000000039550116, 0.000000005798624, 0.88903, 0.0, 417763.13, 417763.13, 0.32950976, 0.004913522, 0.0048828125 
3.1496584e+0, 7.324219e-3, 417763.13, -0.000000000000000000000039790485, 0.000000005816218, 0.88903, 0.0, 417763.13, 417763.13, 0.32950976, 0.004913522, 0.0048828125 
3.1545717e+0, 2.4414063e-3, 417653.56, -0.0000000000000000000000010684165, 0.0000000009590982, 0.8844776, 0.0, 417653.56, 417653.56, 0.326668, 0.004913383, 0.0048828125 
3.1545717e+0, 7.324219e-3, 417653.56, -0.0000000000000000000000011603708, 0.0000000009995194, 0.8844776, 0.0, 417653.56, 417653.56, 0.326668, 0.004913383, 0.0048828125 
3.159485e+0, 2.4414063e-3, 419948.13, -0.00000000000000000000004835046, -0.000000006510701, 0.880072, 0.0, 419948.13, 419948.13, 0.3238931, 0.0049134255, 0.0048828125 
3.159485e+0, 7.324219e-3, 419948.13, -0.00000000000000000000004697663, -0.000000006417537, 0.880072, 0.0, 419948.13, 419948.13, 0.3238931, 0.0049134255, 0.0048828125 
3.164398e+0, 2.4414063e-3, 420190.8, -0.000000000000000000000015351386, -0.000000003692477, 0.8756883, 0.0, 420190.8, 420190.8, 0.32118464, 0.00491332, 0.0048828125 
3.164398e+0, 7.324219e-3, 420190.8, -0.000000000000000000000015701028, -0.00000000373429, 0.8756883, 0.0, 420190.8, 420190.8, 0.32118464, 0.00491332, 0.0048828125 
3.1693113e+0, 2.4414063e-3, 421491.44, -0.000000000000000000000027849333, 0.0000000050114064, 0.8713152, 0.0, 421491.44, 421491.44, 0.31854212, 0.0049132956, 0.0048828125 
3.1693113e+0, 7.324219e-3, 421491.44, -0.000000000000000000000028072508, 0.000000005031446, 0.8713152, 0.0, 421491.44, 421491.44, 0.31854212, 0.0049132956, 0.0048828125 
3.1742245e+0, 2.4414063e-3, 421654.7, -0.0000000000000000000000053399304, 0.0000000022079396, 0.8669617, 0.0, 421654.7, 421654.7, 0.31596506, 0.0049131913, 0.0048828125 
3.1742245e+0, 7.324219e-3, 421654.7, -0.0000000000000000000000052183034, 0.0000000021826498, 0.8669617, 0.0, 421654.7, 421654.7, 0.31596506, 0.0049131913, 0.0048828125 
3.1791374e+0, 2.4414063e-3, 423358.88, -0.000000000000000000000025356052, -0.000000004849144, 0.86269075, 0.0, 423358.88, 423358.88, 0.31345284, 0.004913203, 0.0048828125 
3.1791374e+0, 7.324219e-3, 423358.88, -0.00000000000000000000002536618, -0.0000000048501128, 0.86269075, 0.0, 423358.88, 423358.88, 0.31345284, 0.004913203, 0.0048828125 
3.1840506e+0, 2.4414063e-3, 423586.2, -0.000000000000000000000006634342, 0.000000002495254, 0.8584394, 0.0, 423586.2, 423586.2, 0.31100488, 0.0049131103, 0.0048828125 
3.1840506e+0, 7.324219e-3, 423586.2, -0.0000000000000000000000064086366, 0.0000000024524414, 0.8584394, 0.0, 423586.2, 423586.2, 0.31100488, 0.0049131103, 0.0048828125 
3.1889635e+0, 2.4414063e-3, 425011.66, -0.000000000000000000000032362375, 0.000000005551195, 0.85422957, 0.0, 425011.66, 425011.66, 0.3086205, 0.0049131075, 0.0048828125 
3.1889635e+0, 7.324219e-3, 425011.66, -0.000000000000000000000032271037, 0.000000005543356, 0.85422957, 0.0, 425011.66, 425011.66, 0.3086205, 0.0049131075, 0.0048828125 
3.1938764e+0, 2.4414063e-3, 425263.16, -0.000000000000000000000074595564, -0.000000008476534, 0.85003877, 0.0, 425263.16, 425263.16, 0.3062991, 0.004913023, 0.0048828125 
3.1938764e+0, 7.324219e-3, 425263.16, -0.00000000000000000000007428786, -0.000000008459033, 0.85003877, 0.0, 425263.16, 425263.16, 0.3062991, 0.004913023, 0.0048828125 
3.1987894e+0, 2.4414063e-3, 426725.72, -0.000000000000000000000014003332, -0.000000003698591, 0.8459064, 0.0, 426725.72, 426725.72, 0.30403987, 0.004913029, 0.0048828125 
3.1987894e+0, 7.324219e-3, 426725.72, -0.000000000000000000000014246755, -0.0000000037305994, 0.8459064, 0.0, 426725.72, 426725.72, 0.30403987, 0.004913029, 0.0048828125 
3.2037023e+0, 2.4414063e-3, 427004.6, -0.00000000000000000000009439357, 0.000000009655913, 0.8417925, 0.0, 427004.6, 427004.6, 0.30184206, 0.0049129524, 0.0048828125 
3.2037023e+0, 7.324219e-3, 427004.6, -0.00000000000000000000009540325, 0.000000009707418, 0.8417925, 0.0, 427004.6, 427004.6, 0.30184206, 0.0049129524, 0.0048828125 
3.2086152e+0, 2.4414063e-3, 428373.16, -0.000000000000000000000008785351, -0.0000000029655338, 0.8377267, 0.0, 428373.16, 428373.16, 0.29970494, 0.004912957, 0.0048828125 
3.2086152e+0, 7.324219e-3, 428373.16, -0.000000000000000000000008829059, -0.0000000029729017, 0.8377267, 0.0, 428373.16, 428373.16, 0.29970494, 0.004912957, 0.0048828125 
3.2135278e+0, 2.4414063e-3, 428678.44, -0.0000000000000000000000113070944, -0.000000003382258, 0.8336792, 0.0, 428678.44, 428678.44, 0.29762763, 0.0049128886, 0.0048828125 
3.2135278e+0, 7.324219e-3, 428678.44, -0.000000000000000000000011219002, -0.0000000033690568, 0.8336792, 0.0, 428678.44, 428678.44, 0.29762763, 0.0049128886, 0.0048828125 
3.2184404e+0, 2.4414063e-3, 430011.47, -0.00000000000000000000014748246, 0.000000012293512, 0.82968193, 0.0, 430011.47, 430011.47, 0.2956093, 0.0049128956, 0.0048828125 
3.2184404e+0, 7.324219e-3, 430011.47, -0.00000000000000000000014783097, 0.000000012308028, 0.82968193, 0.0, 430011.47, 430011.47, 0.2956093, 0.0049128956, 0.0048828125 
3.2233533e+0, 2.4414063e-3, 430342.03, -0.000000000000000000000003871684, -0.0000000020020294, 0.82570255, 0.0, 430342.03, 430342.03, 0.2936491, 0.0049128346, 0.0048828125 
3.2233533e+0, 7.324219e-3, 430342.03, -0.000000000000000000000004019967, -0.0000000020400075, 0.82570255, 0.0, 430342.03, 430342.03, 0.2936491, 0.0049128346, 0.0048828125 
3.228266e+0, 2.4414063e-3, 431616.06, -0.00000000000000000000023640185, -0.000000015739237, 0.8217702, 0.0, 431616.06, 431616.06, 0.29174608, 0.004912843, 0.0048828125 
3.228266e+0, 7.324219e-3, 431616.06, -0.0000000000000000000002363648, -0.000000015738003, 0.8217702, 0.0, 431616.06, 431616.06, 0.29174608, 0.004912843, 0.0048828125 
3.2331786e+0, 2.4414063e-3, 431975.34, -0.000000000000000000000012830592, 0.0000000036847358, 0.8178554, 0.0, 431975.34, 431975.34, 0.28989938, 0.0049127894, 0.0048828125 
3.2331786e+0, 7.324219e-3, 431975.34, -0.000000000000000000000012797091, 0.0000000036799221, 0.8178554, 0.0, 431975.34, 431975.34, 0.28989938, 0.0049127894, 0.0048828125 
3.2380915e+0, 2.4414063e-3, 433198.34, -0.00000000000000000000015164158, 0.000000012740866, 0.8139867, 0.0, 433198.34, 433198.34, 0.28810796, 0.0049127988, 0.0048828125 
3.2380915e+0, 7.324219e-3, 433198.34, -0.0000000000000000000001517654, 0.000000012746066, 0.8139867, 0.0, 433198.34, 433198.34, 0.28810796, 0.0049127988, 0.0048828125 
3.243004e+0, 2.4414063e-3, 433586.3, -0.000000000000000000000013167166, -0.0000000037720067, 0.81013525, 0.0, 433586.3, 433586.3, 0.28637093, 0.004912752, 0.0048828125 
3.243004e+0, 7.324219e-3, 433586.3, -0.000000000000000000000013482755, -0.0000000038169428, 0.81013525, 0.0, 433586.3, 433586.3, 0.28637093, 0.004912752, 0.0048828125 
3.2479167e+0, 2.4414063e-3, 434755.75, -0.00000000000000000000005974992, -0.0000000080792635, 0.8063278, 0.0, 434755.75, 434755.75, 0.2846873, 0.004912762, 0.0048828125 
3.2479167e+0, 7.324219e-3, 434755.75, -0.000000000000000000000059963375, -0.000000008093682, 0.8063278, 0.0, 434755.75, 434755.75, 0.2846873, 0.004912762, 0.0048828125 
3.2528293e+0, 2.4414063e-3, 435173.28, -0.000000000000000000000005141808, 0.0000000023807387, 0.8025373, 0.0, 435173.28, 435173.28, 0.28305605, 0.0049127224, 0.0048828125 
3.2528293e+0, 7.324219e-3, 435173.28, -0.0000000000000000000000050012365, 0.0000000023479698, 0.8025373, 0.0, 435173.28, 435173.28, 0.28305605, 0.0049127224, 0.0048828125 
3.257742e+0, 2.4414063e-3, 436290.47, -0.000000000000000000000014184759, 0.000000003974795, 0.7987892, 0.0, 436290.47, 436290.47, 0.28147617, 0.004912733, 0.0048828125 
3.257742e+0, 7.324219e-3, 436290.47, -0.000000000000000000000014153288, 0.0000000039703836, 0.7987892, 0.0, 436290.47, 436290.47, 0.28147617, 0.004912733, 0.0048828125 
3.2626545e+0, 2.4414063e-3, 436737.34, -0.00000000000000000000000067185794, -0.0000000008687795, 0.7950576, 0.0, 436737.34, 436737.34, 0.27994663, 0.0049127, 0.0048828125 
3.2626545e+0, 7.324219e-3, 436737.34, -0.0000000000000000000000006962041, -0.00000000088438046, 0.7950576, 0.0, 436737.34, 436737.34, 0.27994663, 0.0049127, 0.0048828125 
3.2675672e+0, 2.4414063e-3, 437803.16, -0.0000000000000000000000019099541, -0.0000000014720026, 0.7913665, 0.0, 437803.16, 437803.16, 0.2784664, 0.0049127117, 0.0048828125 
3.2675672e+0, 7.324219e-3, 437803.16, -0.0000000000000000000000019030739, -0.000000001469349, 0.7913665, 0.0, 437803.16, 437803.16, 0.2784664, 0.0049127117, 0.0048828125 
3.2724798e+0, 2.4414063e-3, 438278.3, -0.00000000000000000000000029686266, 0.00000000058272054, 0.78769153, 0.0, 438278.3, 438278.3, 0.27703443, 0.0049126847, 0.0048828125 
3.2724798e+0, 7.324219e-3, 438278.3, -0.0000000000000000000000003017429, 0.0000000005874908, 0.78769153, 0.0, 438278.3, 438278.3, 0.27703443, 0.0049126847, 0.0048828125 
3.277392e+0, 2.4414063e-3, 439294.9, -0.00000000000000000000000040322098, 0.00000000068227696, 0.7840553, 0.0, 439294.9, 439294.9, 0.2756497, 0.004912697, 0.0048828125 
3.277392e+0, 7.324219e-3, 439294.9, -0.00000000000000000000000037726265, 0.00000000065995, 0.7840553, 0.0, 439294.9, 439294.9, 0.2756497, 0.004912697, 0.0048828125 
3.2823047e+0, 2.4414063e-3, 439796.13, -0.000000000000000000000000009514618, -0.00000000010521805, 0.7804348, 0.0, 439796.13, 439796.13, 0.2743111, 0.0049126754, 0.0048828125 
3.2823047e+0, 7.324219e-3, 439796.13, -0.000000000000000000000000010142154, -0.00000000010863248, 0.7804348, 0.0, 439796.13, 439796.13, 0.2743111, 0.0049126754, 0.0048828125 
3.2872173e+0, 2.4414063e-3, 440766.4, -0.000000000000000000000000009689181, -0.00000000010664232, 0.77685124, 0.0, 440766.4, 440766.4, 0.27301762, 0.0049126884, 0.0048828125 
3.2872173e+0, 7.324219e-3, 440766.4, -0.0000000000000000000000000103262825, -0.00000000011009258, 0.77685124, 0.0, 440766.4, 440766.4, 0.27301762, 0.0049126884, 0.0048828125 
3.29213e+0, 2.4414063e-3, 441291.88, -0.000000000000000000000000008921769, -0.00000000010271623, 0.7732831, 0.0, 441291.88, 441291.88, 0.27176815, 0.0049126726, 0.0048828125 
3.29213e+0, 7.324219e-3, 441291.88, -0.000000000000000000000000008098831, -0.000000000097864404, 0.7732831, 0.0, 441291.88, 441291.88, 0.27176815, 0.0049126726, 0.0048828125 
3.2970425e+0, 2.4414063e-3, 442217.5, -0.000000000000000000000000020159234, -0.00000000015503547, 0.7697503, 0.0, 442217.5, 442217.5, 0.2705617, 0.0049126856, 0.0048828125 
3.2970425e+0, 7.324219e-3, 442217.5, -0.00000000000000000000000001574461, -0.00000000013701244, 0.7697503, 0.0, 442217.5, 442217.5, 0.2705617, 0.0049126856, 0.0048828125 
3.301955e+0, 2.4414063e-3, 442766.1, -0.000000000000000000000000064906736, -0.00000000027918437, 0.7662325, 0.0, 442766.1, 442766.1, 0.26939714, 0.004912675, 0.0048828125 
3.301955e+0, 7.324219e-3, 442766.1, -0.00000000000000000000000006417579, -0.0000000002776079, 0.7662325, 0.0, 442766.1, 442766.1, 0.26939714, 0.004912675, 0.0048828125 
3.3068675e+0, 2.4414063e-3, 443648.8, -0.00000000000000000000000000002146046, -0.0000000000050961184, 0.7627485, 0.0, 443648.8, 443648.8, 0.26827344, 0.004912689, 0.0048828125 
3.3068675e+0, 7.324219e-3, 443648.8, -0.000000000000000000000000000462825, -0.000000000023666192, 0.7627485, 0.0, 443648.8, 443648.8, 0.26827344, 0.004912689, 0.0048828125 
3.31178e+0, 2.4414063e-3, 444217.7, -0.00000000000000000000000008908492, 0.00000000032945857, 0.7592792, 0.0, 444217.7, 444217.7, 0.26718953, 0.004912683, 0.0048828125 
3.31178e+0, 7.324219e-3, 444217.7, -0.00000000000000000000000010390332, 0.0000000003558061, 0.7592792, 0.0, 444217.7, 444217.7, 0.26718953, 0.004912683, 0.0048828125 
3.3166927e+0, 2.4414063e-3, 445061.53, -0.000000000000000000000001634847, -0.0000000014164778, 0.7558422, 0.0, 445061.53, 445061.53, 0.2661444, 0.004912697, 0.0048828125 
3.3166927e+0, 7.324219e-3, 445061.53, -0.0000000000000000000000015740963, -0.0000000013899106, 0.7558422, 0.0, 445061.53, 445061.53, 0.2661444, 0.004912697, 0.0048828125 
3.3216053e+0, 2.4414063e-3, 445647.78, -0.00000000000000000000000069734333, 0.00000000092811486, 0.7524197, 0.0, 445647.78, 445647.78, 0.26513696, 0.0049126954, 0.0048828125 
3.3216053e+0, 7.324219e-3, 445647.78, -0.0000000000000000000000006961278, 0.0000000009273056, 0.7524197, 0.0, 445647.78, 445647.78, 0.26513696, 0.0049126954, 0.0048828125 
3.326518e+0, 2.4414063e-3, 446455.34, -0.000000000000000000000014517243, 0.0000000042490975, 0.74902815, 0.0, 446455.34, 446455.34, 0.26416624, 0.0049127103, 0.0048828125 
3.326518e+0, 7.324219e-3, 446455.34, -0.000000000000000000000014810938, 0.0000000042918638, 0.74902815, 0.0, 446455.34, 446455.34, 0.26416624, 0.0049127103, 0.0048828125 
3.3314306e+0, 2.4414063e-3, 447057.22, -0.000000000000000000000009259875, -0.0000000034040464, 0.74565095, 0.0, 447057.22, 447057.22, 0.26323113, 0.0049127126, 0.0048828125 
3.3314306e+0, 7.324219e-3, 447057.22, -0.0000000000000000000000092243336, -0.0000000033975074, 0.74565095, 0.0, 447057.22, 447057.22, 0.26323113, 0.0049127126, 0.0048828125 
3.3363432e+0, 2.4414063e-3, 447830.2, -0.000000000000000000000033247663, -0.0000000064707977, 0.7423033, 0.0, 447830.2, 447830.2, 0.2623307, 0.0049127275, 0.0048828125 
3.3363432e+0, 7.324219e-3, 447830.2, -0.000000000000000000000033366128, -0.000000006482315, 0.7423033, 0.0, 447830.2, 447830.2, 0.2623307, 0.0049127275, 0.0048828125 
3.3412558e+0, 2.4414063e-3, 448446.8, -0.0000000000000000000000005739764, 0.00000000085270085, 0.73896986, 0.0, 448446.8, 448446.8, 0.26146388, 0.0049127336, 0.0048828125 
3.3412558e+0, 7.324219e-3, 448446.8, -0.0000000000000000000000005483985, 0.00000000083348506, 0.73896986, 0.0, 448446.8, 448446.8, 0.26146388, 0.0049127336, 0.0048828125 
3.3461684e+0, 2.4414063e-3, 449186.03, -0.0000000000000000000000080967666, 0.0000000032121965, 0.7356648, 0.0, 449186.03, 449186.03, 0.26062974, 0.0049127494, 0.0048828125 
3.3461684e+0, 7.324219e-3, 449186.03, -0.000000000000000000000008114791, 0.0000000032157699, 0.7356648, 0.0, 449186.03, 449186.03, 0.26062974, 0.0049127494, 0.0048828125 
3.351081e+0, 2.4414063e-3, 449817.22, -0.000000000000000000000014463383, 0.0000000043051798, 0.73237365, 0.0, 449817.22, 449817.22, 0.25982726, 0.004912759, 0.0048828125 
3.351081e+0, 7.324219e-3, 449817.22, -0.000000000000000000000014989017, 0.000000004382712, 0.73237365, 0.0, 449817.22, 449817.22, 0.25982726, 0.004912759, 0.0048828125 
3.3559936e+0, 2.4414063e-3, 450523.22, -0.0000000000000000000000013612965, 0.0000000013244803, 0.7291098, 0.0, 450523.22, 450523.22, 0.25905547, 0.004912775, 0.0048828125 
3.3559936e+0, 7.324219e-3, 450523.22, -0.0000000000000000000000013590585, 0.0000000013233911, 0.7291098, 0.0, 450523.22, 450523.22, 0.25905547, 0.004912775, 0.0048828125 
3.3609062e+0, 2.4414063e-3, 451168.1, -0.00000000000000000000001114915, -0.0000000038005004, 0.7258598, 0.0, 451168.1, 451168.1, 0.25831345, 0.004912788, 0.0048828125 
3.3609062e+0, 7.324219e-3, 451168.1, -0.000000000000000000000011155915, -0.000000003801653, 0.7258598, 0.0, 451168.1, 451168.1, 0.25831345, 0.004912788, 0.0048828125 
3.3658192e+0, 2.4414063e-3, 451842.47, -0.00000000000000000000000000000075620374, 0.000000000000992368, 0.7226359, 0.0, 451842.47, 451842.47, 0.25760025, 0.004912804, 0.0048828125 
3.3658192e+0, 7.324219e-3, 451842.47, -0.000000000000000000000000000018847978, -0.0000000000049543386, 0.7226359, 0.0, 451842.47, 451842.47, 0.25760025, 0.004912804, 0.0048828125 
3.3707318e+0, 2.4414063e-3, 452500.7, -0.000000000000000000000000021456651, 0.00000000016758268, 0.7194258, 0.0, 452500.7, 452500.7, 0.2569149, 0.00491282, 0.0048828125 
3.3707318e+0, 7.324219e-3, 452500.7, -0.000000000000000000000000023867452, 0.00000000017674666, 0.7194258, 0.0, 452500.7, 452500.7, 0.2569149, 0.00491282, 0.0048828125 
3.3756447e+0, 2.4414063e-3, 453143.47, -0.0000000000000000000000029524561, -0.0000000019705957, 0.7162407, 0.0, 453143.47, 453143.47, 0.2562566, 0.0049128365, 0.0048828125 
3.3756447e+0, 7.324219e-3, 453143.47, -0.0000000000000000000000029528651, -0.0000000019707322, 0.7162407, 0.0, 453143.47, 453143.47, 0.2562566, 0.0049128365, 0.0048828125 
3.3805573e+0, 2.4414063e-3, 453815.5, -0.0000000000000000000000012141968, 0.0000000012667561, 0.7130692, 0.0, 453815.5, 453815.5, 0.2556244, 0.0049128556, 0.0048828125 
3.3805573e+0, 7.324219e-3, 453815.5, -0.0000000000000000000000011889542, 0.0000000012535193, 0.7130692, 0.0, 453815.5, 453815.5, 0.2556244, 0.0049128556, 0.0048828125 
3.3854702e+0, 2.4414063e-3, 454426.53, -0.00000000000000000000000036653857, 0.0000000006975794, 0.7099218, 0.0, 454426.53, 454426.53, 0.2550175, 0.004912872, 0.0048828125 
3.3854702e+0, 7.324219e-3, 454426.53, -0.00000000000000000000000035796462, 0.00000000068937234, 0.7099218, 0.0, 454426.53, 454426.53, 0.2550175, 0.004912872, 0.0048828125 
3.390383e+0, 2.4414063e-3, 455112.0, -0.00000000000000000000000042326593, -0.0000000007513358, 0.7067878, 0.0, 455112.0, 455112.0, 0.2544349, 0.0049128938, 0.0048828125 
3.390383e+0, 7.324219e-3, 455112.0, -0.00000000000000000000000039965333, -0.00000000073007783, 0.7067878, 0.0, 455112.0, 455112.0, 0.2544349, 0.0049128938, 0.0048828125 
3.3952957e+0, 2.4414063e-3, 455692.66, -0.0000000000000000000000017281538, 0.0000000015213736, 0.70367694, 0.0, 455692.66, 455692.66, 0.2538759, 0.0049129096, 0.0048828125 
3.3952957e+0, 7.324219e-3, 455692.66, -0.0000000000000000000000017020272, 0.0000000015098295, 0.70367694, 0.0, 455692.66, 455692.66, 0.2538759, 0.0049129096, 0.0048828125 
3.4002084e+0, 2.4414063e-3, 456390.75, -0.00000000000000000000000006640819, -0.00000000029888425, 0.7005795, 0.0, 456390.75, 456390.75, 0.25333968, 0.0049129343, 0.0048828125 
3.4002084e+0, 7.324219e-3, 456390.75, -0.00000000000000000000000004839471, -0.0000000002551474, 0.7005795, 0.0, 456390.75, 456390.75, 0.25333968, 0.0049129343, 0.0048828125 
3.4051213e+0, 2.4414063e-3, 456942.03, -0.0000000000000000000000047042888, -0.0000000025205313, 0.6975042, 0.0, 456942.03, 456942.03, 0.25282538, 0.00491295, 0.0048828125 
3.4051213e+0, 7.324219e-3, 456942.03, -0.0000000000000000000000048140564, -0.0000000025497682, 0.6975042, 0.0, 456942.03, 456942.03, 0.25282538, 0.00491295, 0.0048828125 
3.4100342e+0, 2.4414063e-3, 457651.5, -0.0000000000000000000000021747674, 0.0000000017173374, 0.6944423, 0.0, 457651.5, 457651.5, 0.25233227, 0.004912977, 0.0048828125 
3.4100342e+0, 7.324219e-3, 457651.5, -0.0000000000000000000000021938324, 0.0000000017248484, 0.6944423, 0.0, 457651.5, 457651.5, 0.25233227, 0.004912977, 0.0048828125 
3.414947e+0, 2.4414063e-3, 458175.38, -0.000000000000000000000005580887, 0.0000000027560916, 0.69140154, 0.0, 458175.38, 458175.38, 0.25185958, 0.004912993, 0.0048828125 
3.414947e+0, 7.324219e-3, 458175.38, -0.0000000000000000000000055050536, 0.0000000027373026, 0.69140154, 0.0, 458175.38, 458175.38, 0.25185958, 0.004912993, 0.0048828125 
3.41986e+0, 2.4414063e-3, 458894.0, -0.0000000000000000000000027372004, -0.000000001934007, 0.68837416, 0.0, 458894.0, 458894.0, 0.25140658, 0.0049130223, 0.0048828125 
3.41986e+0, 7.324219e-3, 458894.0, -0.0000000000000000000000027140722, -0.0000000019258188, 0.68837416, 0.0, 458894.0, 458894.0, 0.25140658, 0.0049130223, 0.0048828125 
3.424773e+0, 2.4414063e-3, 459393.44, -0.0000000000000000000000030179018, -0.0000000020342044, 0.6853671, 0.0, 459393.44, 459393.44, 0.25097254, 0.0049130376, 0.0048828125 
3.424773e+0, 7.324219e-3, 459393.44, -0.0000000000000000000000029908168, -0.0000000020250555, 0.6853671, 0.0, 459393.44, 459393.44, 0.25097254, 0.0049130376, 0.0048828125 
3.429686e+0, 2.4414063e-3, 460118.47, -0.0000000000000000000000009185868, 0.0000000011244111, 0.6823734, 0.0, 460118.47, 460118.47, 0.25055677, 0.004913069, 0.0048828125 
3.429686e+0, 7.324219e-3, 460118.47, -0.0000000000000000000000009177821, 0.0000000011239184, 0.6823734, 0.0, 460118.47, 460118.47, 0.25055677, 0.004913069, 0.0048828125 
3.434599e+0, 2.4414063e-3, 460596.5, -0.00000000000000000000000058972677, 0.00000000090235336, 0.6793992, 0.0, 460596.5, 460596.5, 0.25015858, 0.004913084, 0.0048828125 
3.434599e+0, 7.324219e-3, 460596.5, -0.0000000000000000000000005771087, 0.0000000008926475, 0.6793992, 0.0, 460596.5, 460596.5, 0.25015858, 0.004913084, 0.0048828125 
3.439512e+0, 2.4414063e-3, 461325.72, -0.00000000000000000000000011195381, -0.00000000039387257, 0.6764383, 0.0, 461325.72, 461325.72, 0.24977732, 0.0049131173, 0.0048828125 
3.439512e+0, 7.324219e-3, 461325.72, -0.00000000000000000000000010171293, -0.00000000037542602, 0.6764383, 0.0, 461325.72, 461325.72, 0.24977732, 0.0049131173, 0.0048828125 
3.444425e+0, 2.4414063e-3, 461784.3, -0.00000000000000000000000006003799, -0.00000000028886057, 0.67349595, 0.0, 461784.3, 461784.3, 0.24941234, 0.0049131326, 0.0048828125 
3.444425e+0, 7.324219e-3, 461784.3, -0.0000000000000000000000000621743, -0.0000000002939549, 0.67349595, 0.0, 461784.3, 461784.3, 0.24941234, 0.0049131326, 0.0048828125 
3.449338e+0, 2.4414063e-3, 462516.7, -0.000000000000000000000000009945818, 0.00000000011777279, 0.67056686, 0.0, 462516.7, 462516.7, 0.24906304, 0.004913167, 0.0048828125 
3.449338e+0, 7.324219e-3, 462516.7, -0.000000000000000000000000010254538, 0.00000000011958667, 0.67056686, 0.0, 462516.7, 462516.7, 0.24906304, 0.004913167, 0.0048828125 
3.454251e+0, 2.4414063e-3, 462956.38, -0.000000000000000000000000052470646, 0.00000000027088037, 0.6676555, 0.0, 462956.38, 462956.38, 0.2487288, 0.0049131825, 0.0048828125 
3.454251e+0, 7.324219e-3, 462956.38, -0.00000000000000000000000005369187, 0.0000000002740145, 0.6676555, 0.0, 462956.38, 462956.38, 0.2487288, 0.0049131825, 0.0048828125 
3.4591642e+0, 2.4414063e-3, 463691.75, -0.000000000000000000000000021964696, 0.00000000017554898, 0.6647573, 0.0, 463691.75, 463691.75, 0.24840903, 0.0049132183, 0.0048828125 
3.4591642e+0, 7.324219e-3, 463691.75, -0.00000000000000000000000001855436, 0.00000000016134619, 0.6647573, 0.0, 463691.75, 463691.75, 0.24840903, 0.0049132183, 0.0048828125 
3.4640774e+0, 2.4414063e-3, 464112.8, -0.000000000000000000000000001666138, -0.000000000048411018, 0.6618761, 0.0, 464112.8, 464112.8, 0.24810319, 0.0049132337, 0.0048828125 
3.4640774e+0, 7.324219e-3, 464112.8, -0.0000000000000000000000000014506383, -0.00000000004517189, 0.6618761, 0.0, 464112.8, 464112.8, 0.24810319, 0.0049132337, 0.0048828125 
3.4689906e+0, 2.4414063e-3, 464850.56, -0.000000000000000000000000000074989796, 0.000000000010286683, 0.6590081, 0.0, 464850.56, 464850.56, 0.24781069, 0.0049132705, 0.0048828125 
3.4689906e+0, 7.324219e-3, 464850.56, -0.0000000000000000000000000001391495, -0.000000000014012482, 0.6590081, 0.0, 464850.56, 464850.56, 0.24781069, 0.0049132705, 0.0048828125 
3.4739035e+0, 2.4414063e-3, 465254.3, -0.0000000000000000000000000009499717, -0.00000000003665591, 0.65615654, 0.0, 465254.3, 465254.3, 0.24753104, 0.0049132854, 0.0048828125 
3.4739035e+0, 7.324219e-3, 465254.3, -0.000000000000000000000000000030186406, 0.0000000000065342298, 0.65615654, 0.0, 465254.3, 465254.3, 0.24753104, 0.0049132854, 0.0048828125 
3.478817e+0, 2.4414063e-3, 465993.9, -0.00000000000000000000000004267089, -0.00000000024604313, 0.65331805, 0.0, 465993.9, 465993.9, 0.24726371, 0.0049133236, 0.0048828125 
3.478817e+0, 7.324219e-3, 465993.9, -0.00000000000000000000000004465451, -0.00000000025169702, 0.65331805, 0.0, 465993.9, 465993.9, 0.24726371, 0.0049133236, 0.0048828125 
3.48373e+0, 2.4414063e-3, 466381.06, -0.0000000000000000000000000034235496, 0.00000000006976897, 0.65049493, 0.0, 466381.06, 466381.06, 0.2470082, 0.0049133385, 0.0048828125 
3.48373e+0, 7.324219e-3, 466381.06, -0.0000000000000000000000000032200258, 0.000000000067663375, 0.65049493, 0.0, 466381.06, 466381.06, 0.2470082, 0.0049133385, 0.0048828125 
3.4886435e+0, 2.4414063e-3, 467121.88, -0.000000000000000000000000025679529, 0.0000000001913583, 0.647686, 0.0, 467121.88, 467121.88, 0.24676406, 0.0049133776, 0.0048828125 
3.4886435e+0, 7.324219e-3, 467121.88, -0.000000000000000000000000024449197, 0.00000000018671796, 0.647686, 0.0, 467121.88, 467121.88, 0.24676406, 0.0049133776, 0.0048828125 
3.4935567e+0, 2.4414063e-3, 467492.44, -0.00000000000000000000000000015509022, 0.000000000014886438, 0.64489317, 0.0, 467492.44, 467492.44, 0.2465308, 0.0049133925, 0.0048828125 
3.4935567e+0, 7.324219e-3, 467492.44, -0.00000000000000000000000000046016196, 0.00000000002564212, 0.64489317, 0.0, 467492.44, 467492.44, 0.2465308, 0.0049133925, 0.0048828125 
3.4984702e+0, 2.4414063e-3, 468235.38, -0.00000000000000000000000011212756, -0.00000000040082995, 0.6421123, 0.0, 468235.38, 468235.38, 0.246308, 0.0049134325, 0.0048828125 
3.4984702e+0, 7.324219e-3, 468235.38, -0.00000000000000000000000010447963, -0.00000000038691877, 0.6421123, 0.0, 468235.38, 468235.38, 0.246308, 0.0049134325, 0.0048828125 
3.5033834e+0, 2.4414063e-3, 468591.34, -0.00000000000000000000000022235573, -0.0000000005649919, 0.63934433, 0.0, 468591.34, 468591.34, 0.2460952, 0.0049134474, 0.0048828125 
3.5033834e+0, 7.324219e-3, 468591.34, -0.00000000000000000000000021826216, -0.00000000055976696, 0.63934433, 0.0, 468591.34, 468591.34, 0.2460952, 0.0049134474, 0.0048828125 
3.5082966e+0, 2.4414063e-3, 469336.34, -0.00000000000000000000000016652975, -0.0000000004896061, 0.6365914, 0.0, 469336.34, 469336.34, 0.24589202, 0.004913488, 0.0048828125 
3.5082966e+0, 7.324219e-3, 469336.34, -0.0000000000000000000000001703189, -0.0000000004951449, 0.6365914, 0.0, 469336.34, 469336.34, 0.24589202, 0.004913488, 0.0048828125 
3.5132104e+0, 2.4414063e-3, 469677.66, -0.00000000000000000000000042216946, -0.00000000078024215, 0.6338539, 0.0, 469677.66, 469677.66, 0.24569803, 0.0049135024, 0.0048828125 
3.5132104e+0, 7.324219e-3, 469677.66, -0.0000000000000000000000004267013, -0.0000000007844188, 0.6338539, 0.0, 469677.66, 469677.66, 0.24569803, 0.0049135024, 0.0048828125 
3.5181236e+0, 2.4414063e-3, 470412.4, -0.00000000000000000000000073591956, 0.0000000010314725, 0.6311243, 0.0, 470412.4, 470412.4, 0.24551289, 0.0049135434, 0.0048828125 
3.5181236e+0, 7.324219e-3, 470412.4, -0.0000000000000000000000007433621, 0.0000000010366752, 0.6311243, 0.0, 470412.4, 470412.4, 0.24551289, 0.0049135434, 0.0048828125 
3.523037e+0, 2.4414063e-3, 470734.97, -0.000000000000000000000007294407, 0.0000000032500762, 0.62840253, 0.0, 470734.97, 470734.97, 0.2453362, 0.0049135573, 0.0048828125 
3.523037e+0, 7.324219e-3, 470734.97, -0.000000000000000000000007238891, 0.0000000032376848, 0.62840253, 0.0, 470734.97, 470734.97, 0.2453362, 0.0049135573, 0.0048828125 
3.5279506e+0, 2.4414063e-3, 471485.1, -0.000000000000000000000004489293, -0.0000000025528841, 0.6256989, 0.0, 471485.1, 471485.1, 0.24516761, 0.0049136, 0.0048828125 
3.5279506e+0, 7.324219e-3, 471485.1, -0.0000000000000000000000045338286, -0.0000000025655156, 0.6256989, 0.0, 471485.1, 471485.1, 0.24516761, 0.0049136, 0.0048828125 
3.5328642e+0, 2.4414063e-3, 471788.34, -0.000000000000000000000012289674, -0.0000000042270822, 0.6230123, 0.0, 471788.34, 471788.34, 0.24500678, 0.004913613, 0.0048828125 
3.5328642e+0, 7.324219e-3, 471788.34, -0.0000000000000000000000123933724, -0.0000000042448787, 0.6230123, 0.0, 471788.34, 471788.34, 0.24500678, 0.004913613, 0.0048828125 
3.5377777e+0, 2.4414063e-3, 472539.53, -0.000000000000000000000033545988, 0.0000000069922415, 0.6203387, 0.0, 472539.53, 472539.53, 0.2448534, 0.0049136565, 0.0048828125 
3.5377777e+0, 7.324219e-3, 472539.53, -0.000000000000000000000033714334, 0.0000000070097643, 0.6203387, 0.0, 472539.53, 472539.53, 0.2448534, 0.0049136565, 0.0048828125 
3.5426912e+0, 2.4414063e-3, 472829.88, -0.000000000000000000000025802657, 0.0000000061366814, 0.6176766, 0.0, 472829.88, 472829.88, 0.24470714, 0.0049136695, 0.0048828125 
3.5426912e+0, 7.324219e-3, 472829.88, -0.000000000000000000000025655006, 0.000000006119098, 0.6176766, 0.0, 472829.88, 472829.88, 0.24470714, 0.0049136695, 0.0048828125 
3.5476047e+0, 2.4414063e-3, 473576.9, -0.000000000000000000000048062256, -0.000000008385136, 0.61502904, 0.0, 473576.9, 473576.9, 0.2445677, 0.004913713, 0.0048828125 
3.5476047e+0, 7.324219e-3, 473576.9, -0.000000000000000000000047924922, -0.000000008373148, 0.61502904, 0.0, 473576.9, 473576.9, 0.2445677, 0.004913713, 0.0048828125 
3.5525185e+0, 2.4414063e-3, 473858.97, -0.000000000000000000000025600671, -0.000000006123776, 0.6123938, 0.0, 473858.97, 473858.97, 0.24443479, 0.0049137264, 0.0048828125 
3.5525185e+0, 7.324219e-3, 473858.97, -0.00000000000000000000002550299, -0.000000006112082, 0.6123938, 0.0, 473858.97, 473858.97, 0.24443479, 0.0049137264, 0.0048828125 
3.5574323e+0, 2.4414063e-3, 474605.53, -0.000000000000000000000017143855, 0.0000000050169375, 0.6097699, 0.0, 474605.53, 474605.53, 0.24430814, 0.00491377, 0.0048828125 
3.5574323e+0, 7.324219e-3, 474605.53, -0.00000000000000000000001771486, 0.000000005099802, 0.6097699, 0.0, 474605.53, 474605.53, 0.24430814, 0.00491377, 0.0048828125 
3.562346e+0, 2.4414063e-3, 474873.6, -0.000000000000000000000011870263, 0.000000004177142, 0.6071552, 0.0, 474873.6, 474873.6, 0.24418747, 0.0049137827, 0.0048828125 
3.562346e+0, 7.324219e-3, 474873.6, -0.000000000000000000000011711523, 0.000000004149118, 0.6071552, 0.0, 474873.6, 474873.6, 0.24418747, 0.0049137827, 0.0048828125 
3.5672596e+0, 2.4414063e-3, 475620.5, -0.0000000000000000000000041495235, -0.0000000024724343, 0.60455513, 0.0, 475620.5, 475620.5, 0.24407254, 0.004913827, 0.0048828125 
3.5672596e+0, 7.324219e-3, 475620.5, -0.0000000000000000000000041375806, -0.0000000024688738, 0.60455513, 0.0, 475620.5, 475620.5, 0.24407254, 0.004913827, 0.0048828125 
3.5721734e+0, 2.4414063e-3, 475873.63, -0.000000000000000000000008326358, -0.0000000035042704, 0.60196644, 0.0, 475873.63, 475873.63, 0.2439631, 0.004913839, 0.0048828125 
3.5721734e+0, 7.324219e-3, 475873.63, -0.0000000000000000000000083135605, -0.0000000035015764, 0.60196644, 0.0, 475873.63, 475873.63, 0.2439631, 0.004913839, 0.0048828125 
3.5770872e+0, 2.4414063e-3, 476621.8, -0.00000000000000000000001156828, 0.0000000041349315, 0.5993914, 0.0, 476621.8, 476621.8, 0.2438589, 0.004913884, 0.0048828125 
3.5770872e+0, 7.324219e-3, 476621.8, -0.000000000000000000000011720316, 0.0000000041620147, 0.5993914, 0.0, 476621.8, 476621.8, 0.2438589, 0.004913884, 0.0048828125 
3.582001e+0, 2.4414063e-3, 476860.97, -0.000000000000000000000023293638, 0.000000005870544, 0.59682655, 0.0, 476860.97, 476860.97, 0.24375974, 0.004913896, 0.0048828125 
3.582001e+0, 7.324219e-3, 476860.97, -0.000000000000000000000023315401, 0.0000000058732863, 0.59682655, 0.0, 476860.97, 476860.97, 0.24375974, 0.004913896, 0.0048828125 
3.5869148e+0, 2.4414063e-3, 477611.06, -0.00000000000000000000002770287, -0.000000006408769, 0.5942746, 0.0, 477611.06, 477611.06, 0.24366538, 0.0049139415, 0.0048828125 
3.5869148e+0, 7.324219e-3, 477611.06, -0.000000000000000000000027499366, -0.000000006385186, 0.5942746, 0.0, 477611.06, 477611.06, 0.24366538, 0.0049139415, 0.0048828125 
3.5918286e+0, 2.4414063e-3, 477835.47, -0.000000000000000000000051692357, -0.00000000875857, 0.59173167, 0.0, 477835.47, 477835.47, 0.24357562, 0.004913952, 0.0048828125 
3.5918286e+0, 7.324219e-3, 477835.47, -0.000000000000000000000053070756, -0.0000000088745775, 0.59173167, 0.0, 477835.47, 477835.47, 0.24357562, 0.004913952, 0.0048828125 
3.5967427e+0, 2.4414063e-3, 478587.03, -0.000000000000000000000029991447, 0.0000000066782193, 0.58920217, 0.0, 478587.03, 478587.03, 0.24349028, 0.0049139983, 0.0048828125 
3.5967427e+0, 7.324219e-3, 478587.03, -0.0000000000000000000000298634, 0.0000000066639476, 0.58920217, 0.0, 478587.03, 478587.03, 0.24349028, 0.0049139983, 0.0048828125 
3.6016566e+0, 2.4414063e-3, 478798.06, -0.000000000000000000000029159164, 0.000000006587808, 0.58668184, 0.0, 478798.06, 478798.06, 0.24340914, 0.0049140085, 0.0048828125 
3.6016566e+0, 7.324219e-3, 478798.06, -0.000000000000000000000029155946, 0.0000000065874444, 0.58668184, 0.0, 478798.06, 478798.06, 0.24340914, 0.0049140085, 0.0048828125 
3.6065704e+0, 2.4414063e-3, 479549.5, -0.00000000000000000000002990041, -0.0000000066776473, 0.5841753, 0.0, 479549.5, 479549.5, 0.24333204, 0.004914055, 0.0048828125 
3.6065704e+0, 7.324219e-3, 479549.5, -0.00000000000000000000002987471, -0.000000006674777, 0.5841753, 0.0, 479549.5, 479549.5, 0.24333204, 0.004914055, 0.0048828125 
3.6114845e+0, 2.4414063e-3, 479748.66, -0.000000000000000000000003970683, -0.000000002434412, 0.58167773, 0.0, 479748.66, 479748.66, 0.2432588, 0.004914065, 0.0048828125 
3.6114845e+0, 7.324219e-3, 479748.66, -0.0000000000000000000000039662116, -0.000000002433041, 0.58167773, 0.0, 479748.66, 479748.66, 0.2432588, 0.004914065, 0.0048828125 
3.6163983e+0, 2.4414063e-3, 480498.6, -0.0000000000000000000000026590921, 0.0000000019941115, 0.5791937, 0.0, 480498.6, 480498.6, 0.24318926, 0.0049141115, 0.0048828125 
3.6163983e+0, 7.324219e-3, 480498.6, -0.0000000000000000000000026293957, 0.0000000019829454, 0.5791937, 0.0, 480498.6, 480498.6, 0.24318926, 0.0049141115, 0.0048828125 
3.6213124e+0, 2.4414063e-3, 480687.75, -0.0000000000000000000000011787338, -0.0000000013281711, 0.57671815, 0.0, 480687.75, 480687.75, 0.24312325, 0.0049141212, 0.0048828125 
3.6213124e+0, 7.324219e-3, 480687.75, -0.0000000000000000000000011853976, -0.0000000013319202, 0.57671815, 0.0, 480687.75, 480687.75, 0.24312325, 0.0049141212, 0.0048828125 
3.6262265e+0, 2.4414063e-3, 481436.1, -0.000000000000000000000016040387, 0.000000004904168, 0.5742559, 0.0, 481436.1, 481436.1, 0.24306062, 0.004914168, 0.0048828125 
3.6262265e+0, 7.324219e-3, 481436.1, -0.000000000000000000000015882929, 0.000000004880038, 0.5742559, 0.0, 481436.1, 481436.1, 0.24306062, 0.004914168, 0.0048828125 
3.6311406e+0, 2.4414063e-3, 481613.88, -0.0000000000000000000000062485104, 0.000000003061939, 0.5718016, 0.0, 481613.88, 481613.88, 0.24300122, 0.0049141767, 0.0048828125 
3.6311406e+0, 7.324219e-3, 481613.88, -0.0000000000000000000000062378655, 0.0000000030593297, 0.5718016, 0.0, 481613.88, 481613.88, 0.24300122, 0.0049141767, 0.0048828125 
3.6360547e+0, 2.4414063e-3, 482360.03, -0.00000000000000000000002342664, -0.0000000059342518, 0.5693606, 0.0, 482360.03, 482360.03, 0.24294493, 0.0049142237, 0.0048828125 
3.6360547e+0, 7.324219e-3, 482360.03, -0.000000000000000000000023443539, -0.000000005936392, 0.5693606, 0.0, 482360.03, 482360.03, 0.24294493, 0.0049142237, 0.0048828125 
3.6409688e+0, 2.4414063e-3, 482529.84, -0.0000000000000000000000011765992, -0.0000000013303463, 0.56692743, 0.0, 482529.84, 482529.84, 0.24289158, 0.0049142325, 0.0048828125 
3.6409688e+0, 7.324219e-3, 482529.84, -0.0000000000000000000000011894239, -0.0000000013375768, 0.56692743, 0.0, 482529.84, 482529.84, 0.24289158, 0.0049142325, 0.0048828125 
3.6458832e+0, 2.4414063e-3, 483270.6, -0.0000000000000000000000042294856, 0.0000000025245674, 0.5645074, 0.0, 483270.6, 483270.6, 0.24284108, 0.004914279, 0.0048828125 
3.6458832e+0, 7.324219e-3, 483270.6, -0.0000000000000000000000043179887, 0.0000000025508444, 0.5645074, 0.0, 483270.6, 483270.6, 0.24284108, 0.004914279, 0.0048828125 
3.6507973e+0, 2.4414063e-3, 483435.28, -0.00000000000000000000000022856838, -0.00000000058705907, 0.5620949, 0.0, 483435.28, 483435.28, 0.24279328, 0.004914288, 0.0048828125 
3.6507973e+0, 7.324219e-3, 483435.28, -0.00000000000000000000000020384564, -0.0000000005544015, 0.5620949, 0.0, 483435.28, 483435.28, 0.24279328, 0.004914288, 0.0048828125 
3.6557114e+0, 2.4414063e-3, 484169.0, -0.00000000000000000000000012479298, 0.00000000043416173, 0.5596956, 0.0, 484169.0, 484169.0, 0.24274807, 0.004914334, 0.0048828125 
3.6557114e+0, 7.324219e-3, 484169.0, -0.00000000000000000000000011712266, 0.0000000004206074, 0.5596956, 0.0, 484169.0, 484169.0, 0.24274807, 0.004914334, 0.0048828125 
3.6606258e+0, 2.4414063e-3, 484329.16, -0.00000000000000000000000028852102, 0.00000000066033995, 0.55730337, 0.0, 484329.16, 484329.16, 0.24270535, 0.004914343, 0.0048828125 
3.6606258e+0, 7.324219e-3, 484329.16, -0.00000000000000000000000029859122, 0.000000000671765, 0.55730337, 0.0, 484329.16, 484329.16, 0.24270535, 0.004914343, 0.0048828125 
3.66554e+0, 2.4414063e-3, 485054.63, -0.0000000000000000000000010642935, -0.0000000012693525, 0.55492437, 0.0, 485054.63, 485054.63, 0.242665, 0.004914389, 0.0048828125 
3.66554e+0, 7.324219e-3, 485054.63, -0.0000000000000000000000010642935, -0.0000000012693525, 0.55492437, 0.0, 485054.63, 485054.63, 0.242665, 0.004914389, 0.0048828125 
3.6704546e+0, 2.4414063e-3, 485212.66, -0.00000000000000000000000013904287, -0.00000000045892504, 0.5525523, 0.0, 485212.66, 485212.66, 0.2426269, 0.004914398, 0.0048828125 
3.6704546e+0, 7.324219e-3, 485212.66, -0.00000000000000000000000014141155, -0.00000000046281753, 0.5525523, 0.0, 485212.66, 485212.66, 0.2426269, 0.004914398, 0.0048828125 
3.6753687e+0, 2.4414063e-3, 485927.47, -0.00000000000000000000000044885796, 0.00000000082524704, 0.5501934, 0.0, 485927.47, 485927.47, 0.242591, 0.004914443, 0.0048828125 
3.6753687e+0, 7.324219e-3, 485927.47, -0.00000000000000000000000045867834, 0.00000000083422586, 0.5501934, 0.0, 485927.47, 485927.47, 0.242591, 0.004914443, 0.0048828125 
3.680283e+0, 2.4414063e-3, 486085.66, -0.000000000000000000000000052234037, 0.00000000028158986, 0.5478413, 0.0, 486085.66, 486085.66, 0.24255715, 0.0049144523, 0.0048828125 
3.680283e+0, 7.324219e-3, 486085.66, -0.00000000000000000000000006515844, 0.00000000031450356, 0.5478413, 0.0, 486085.66, 486085.66, 0.24255715, 0.0049144523, 0.0048828125 
3.6851975e+0, 2.4414063e-3, 486787.84, -0.0000000000000000000000000001957275, -0.000000000017251122, 0.5455024, 0.0, 486787.84, 486787.84, 0.24252531, 0.004914497, 0.0048828125 
3.6851975e+0, 7.324219e-3, 486787.84, -0.0000000000000000000000000018356129, -0.000000000052830164, 0.5455024, 0.0, 486787.84, 486787.84, 0.24252531, 0.004914497, 0.0048828125 
3.690112e+0, 2.4414063e-3, 486948.03, -0.000000000000000000000000019892776, 0.00000000017395865, 0.5431701, 0.0, 486948.03, 486948.03, 0.24249536, 0.0049145063, 0.0048828125 
3.690112e+0, 7.324219e-3, 486948.03, -0.00000000000000000000000002153352, 0.00000000018099053, 0.5431701, 0.0, 486948.03, 486948.03, 0.24249536, 0.0049145063, 0.0048828125 
3.6950263e+0, 2.4414063e-3, 487637.06, -0.000000000000000000000000014632675, 0.000000000149314, 0.5408509, 0.0, 487637.06, 487637.06, 0.24246722, 0.00491455, 0.0048828125 
3.6950263e+0, 7.324219e-3, 487637.06, -0.0000000000000000000000000097790395, 0.00000000012206378, 0.5408509, 0.0, 487637.06, 487637.06, 0.24246722, 0.00491455, 0.0048828125 
3.699941e+0, 2.4414063e-3, 487798.56, -0.000000000000000000000000001616048, -0.000000000049632822, 0.5385379, 0.0, 487798.56, 487798.56, 0.24244082, 0.00491456, 0.0048828125 
3.699941e+0, 7.324219e-3, 487798.56, -0.000000000000000000000000001635278, -0.00000000004992725, 0.5385379, 0.0, 487798.56, 487798.56, 0.24244082, 0.00491456, 0.0048828125 
3.7048554e+0, 2.4414063e-3, 488475.44, -0.0000000000000000000000000047920646, -0.00000000008553298, 0.536238, 0.0, 488475.44, 488475.44, 0.24241608, 0.004914603, 0.0048828125 
3.7048554e+0, 7.324219e-3, 488475.44, -0.0000000000000000000000000060976568, -0.000000000096483654, 0.536238, 0.0, 488475.44, 488475.44, 0.24241608, 0.004914603, 0.0048828125 
3.7097698e+0, 2.4414063e-3, 488637.63, -0.0000000000000000000000000000016177977, 0.0000000000015719325, 0.5339441, 0.0, 488637.63, 488637.63, 0.24239294, 0.004914613, 0.0048828125 
3.7097698e+0, 7.324219e-3, 488637.63, -0.000000000000000000000000000035758287, 0.000000000007390266, 0.5339441, 0.0, 488637.63, 488637.63, 0.24239294, 0.004914613, 0.0048828125 
3.7146845e+0, 2.4414063e-3, 489303.28, -0.000000000000000000000000052462966, 0.0000000002832823, 0.531663, 0.0, 489303.28, 489303.28, 0.2423713, 0.004914656, 0.0048828125 
3.7146845e+0, 7.324219e-3, 489303.28, -0.000000000000000000000000048126398, 0.0000000002713218, 0.531663, 0.0, 489303.28, 489303.28, 0.2423713, 0.004914656, 0.0048828125 
3.719599e+0, 2.4414063e-3, 489465.22, -0.00000000000000000000000000034521863, -0.000000000022984545, 0.5293878, 0.0, 489465.22, 489465.22, 0.24235113, 0.0049146656, 0.0048828125 
3.719599e+0, 7.324219e-3, 489465.22, -0.00000000000000000000000000000045208196, -0.00000000000083175876, 0.5293878, 0.0, 489465.22, 489465.22, 0.24235113, 0.0049146656, 0.0048828125 
3.7245136e+0, 2.4414063e-3, 490120.84, -0.000000000000000000000000041956242, -0.00000000025357125, 0.5271251, 0.0, 490120.84, 490120.84, 0.24233234, 0.004914708, 0.0048828125 
3.7245136e+0, 7.324219e-3, 490120.84, -0.00000000000000000000000004113804, -0.00000000025108657, 0.5271251, 0.0, 490120.84, 490120.84, 0.24233234, 0.004914708, 0.0048828125 
3.7294284e+0, 2.4414063e-3, 490281.63, -0.000000000000000000000000005299768, 0.000000000090140936, 0.52486795, 0.0, 490281.63, 490281.63, 0.24231488, 0.0049147177, 0.0048828125 
3.7294284e+0, 7.324219e-3, 490281.63, -0.0000000000000000000000000073966896, 0.000000000106490865, 0.52486795, 0.0, 490281.63, 490281.63, 0.24231488, 0.0049147177, 0.0048828125 
3.734343e+0, 2.4414063e-3, 490927.56, -0.00000000000000000000000033186035, 0.00000000071379985, 0.5226232, 0.0, 490927.56, 490927.56, 0.24229869, 0.004914759, 0.0048828125 
3.734343e+0, 7.324219e-3, 490927.56, -0.00000000000000000000000032987535, 0.0000000007116619, 0.5226232, 0.0, 490927.56, 490927.56, 0.24229869, 0.004914759, 0.0048828125 
3.7392578e+0, 2.4414063e-3, 491088.28, -0.0000000000000000000000019671385, 0.0000000017382213, 0.52038366, 0.0, 491088.28, 491088.28, 0.24228372, 0.0049147694, 0.0048828125 
3.7392578e+0, 7.324219e-3, 491088.28, -0.000000000000000000000002032599, 0.000000001766906, 0.52038366, 0.0, 491088.28, 491088.28, 0.24228372, 0.0049147694, 0.0048828125 
3.7441725e+0, 2.4414063e-3, 491723.4, -0.00000000000000000000000027706984, -0.0000000006527987, 0.5181561, 0.0, 491723.4, 491723.4, 0.24226989, 0.0049148104, 0.0048828125 
3.7441725e+0, 7.324219e-3, 491723.4, -0.0000000000000000000000002731604, -0.00000000064817685, 0.5181561, 0.0, 491723.4, 491723.4, 0.24226989, 0.0049148104, 0.0048828125 
3.7490872e+0, 2.4414063e-3, 491885.53, -0.000000000000000000000014838532, -0.000000004778227, 0.5159336, 0.0, 491885.53, 491885.53, 0.24225718, 0.0049148207, 0.0048828125 
3.7490872e+0, 7.324219e-3, 491885.53, -0.000000000000000000000015044743, -0.000000004811314, 0.5159336, 0.0, 491885.53, 491885.53, 0.24225718, 0.0049148207, 0.0048828125 
3.754002e+0, 2.4414063e-3, 492508.56, -0.000000000000000000000000005525954, -0.00000000009227067, 0.51372284, 0.0, 492508.56, 492508.56, 0.24224553, 0.004914861, 0.0048828125 
3.754002e+0, 7.324219e-3, 492508.56, -0.0000000000000000000000000046346117, -0.000000000084501954, 0.51372284, 0.0, 492508.56, 492508.56, 0.24224553, 0.004914861, 0.0048828125 
3.758917e+0, 2.4414063e-3, 492673.56, -0.000000000000000000000009154504, 0.000000003756322, 0.51151687, 0.0, 492673.56, 492673.56, 0.24223489, 0.0049148714, 0.0048828125 
3.758917e+0, 7.324219e-3, 492673.56, -0.000000000000000000000009244346, 0.0000000037747094, 0.51151687, 0.0, 492673.56, 492673.56, 0.24223489, 0.0049148714, 0.0048828125 
3.7638316e+0, 2.4414063e-3, 493283.4, -0.0000000000000000000000029525518, -0.0000000021346385, 0.50932246, 0.0, 493283.4, 493283.4, 0.2422252, 0.004914911, 0.0048828125 
3.7638316e+0, 7.324219e-3, 493283.4, -0.0000000000000000000000028139647, -0.0000000020839384, 0.50932246, 0.0, 493283.4, 493283.4, 0.2422252, 0.004914911, 0.0048828125 
3.7687463e+0, 2.4414063e-3, 493452.25, -0.0000000000000000000000011507445, -0.0000000013329067, 0.5071326, 0.0, 493452.25, 493452.25, 0.24221645, 0.0049149217, 0.0048828125 
3.7687463e+0, 7.324219e-3, 493452.25, -0.0000000000000000000000010872569, -0.0000000012956162, 0.5071326, 0.0, 493452.25, 493452.25, 0.24221645, 0.0049149217, 0.0048828125 
3.7736613e+0, 2.4414063e-3, 494048.03, -0.000000000000000000000010921154, 0.000000004108809, 0.50495416, 0.0, 494048.03, 494048.03, 0.24220857, 0.004914961, 0.0048828125 
3.7736613e+0, 7.324219e-3, 494048.03, -0.000000000000000000000010862572, 0.000000004097774, 0.50495416, 0.0, 494048.03, 494048.03, 0.24220857, 0.004914961, 0.0048828125 
3.7785763e+0, 2.4414063e-3, 494221.97, -0.00000000000000000000000024443013, 0.00000000061481414, 0.50278014, 0.0, 494221.97, 494221.97, 0.24220154, 0.0049149715, 0.0048828125 
3.7785763e+0, 7.324219e-3, 494221.97, -0.0000000000000000000000002298854, 0.0000000005962415, 0.50278014, 0.0, 494221.97, 494221.97, 0.24220154, 0.0049149715, 0.0048828125 
3.7834913e+0, 2.4414063e-3, 494802.66, -0.000000000000000000000006806427, -0.0000000032462988, 0.5006174, 0.0, 494802.66, 494802.66, 0.24219531, 0.0049150097, 0.0048828125 
3.7834913e+0, 7.324219e-3, 494802.66, -0.0000000000000000000000069339824, -0.0000000032765761, 0.5006174, 0.0, 494802.66, 494802.66, 0.24219531, 0.0049150097, 0.0048828125 
3.7884063e+0, 2.4414063e-3, 494982.5, -0.000000000000000000000000102811835, -0.00000000039905787, 0.49845892, 0.0, 494982.5, 494982.5, 0.24218984, 0.0049150214, 0.0048828125 
3.7884063e+0, 7.324219e-3, 494982.5, -0.00000000000000000000000010840894, -0.00000000040977632, 0.49845892, 0.0, 494982.5, 494982.5, 0.24218984, 0.0049150214, 0.0048828125 
3.7933213e+0, 2.4414063e-3, 495547.75, -0.0000000000000000000000020948487, 0.0000000018023708, 0.49631172, 0.0, 495547.75, 495547.75, 0.2421851, 0.004915058, 0.0048828125 
3.7933213e+0, 7.324219e-3, 495547.75, -0.0000000000000000000000021153725, 0.0000000018111784, 0.49631172, 0.0, 495547.75, 495547.75, 0.2421851, 0.004915058, 0.0048828125 
3.7982363e+0, 2.4414063e-3, 495733.3, -0.000000000000000000000000019957357, 0.00000000017595655, 0.49416873, 0.0, 495733.3, 495733.3, 0.24218108, 0.0049150703, 0.0048828125 
3.7982363e+0, 7.324219e-3, 495733.3, -0.000000000000000000000000024545324, 0.00000000019513642, 0.49416873, 0.0, 495733.3, 495733.3, 0.24218108, 0.0049150703, 0.0048828125 
3.8031512e+0, 2.4414063e-3, 496283.4, -0.00000000000000000000000010717372, -0.00000000040798384, 0.49203694, 0.0, 496283.4, 496283.4, 0.2421777, 0.004915106, 0.0048828125 
3.8031512e+0, 7.324219e-3, 496283.4, -0.0000000000000000000000001381209, -0.0000000004631573, 0.49203694, 0.0, 496283.4, 496283.4, 0.2421777, 0.004915106, 0.0048828125 
3.8080662e+0, 2.4414063e-3, 496474.72, -0.00000000000000000000000015498854, 0.0000000004907221, 0.48990926, 0.0, 496474.72, 496474.72, 0.24217497, 0.0049151187, 0.0048828125 
3.8080662e+0, 7.324219e-3, 496474.72, -0.0000000000000000000000001503553, 0.0000000004833316, 0.48990926, 0.0, 496474.72, 496474.72, 0.24217497, 0.0049151187, 0.0048828125 
3.8129812e+0, 2.4414063e-3, 497009.84, -0.0000000000000000000000004030287, 0.000000000791754, 0.4877928, 0.0, 497009.84, 497009.84, 0.24217284, 0.0049151536, 0.0048828125 
3.8129812e+0, 7.324219e-3, 497009.84, -0.00000000000000000000000040016515, 0.00000000078893625, 0.4877928, 0.0, 497009.84, 497009.84, 0.24217284, 0.0049151536, 0.0048828125 
3.8178962e+0, 2.4414063e-3, 497206.3, -0.0000000000000000000000015149824, 0.0000000015353727, 0.48568037, 0.0, 497206.3, 497206.3, 0.24217127, 0.0049151666, 0.0048828125 
3.8178962e+0, 7.324219e-3, 497206.3, -0.0000000000000000000000015381238, 0.0000000015470546, 0.48568037, 0.0, 497206.3, 497206.3, 0.24217127, 0.0049151666, 0.0048828125 
3.8228112e+0, 2.4414063e-3, 497727.97, -0.000000000000000000000000033964807, 0.0000000002300136, 0.48357913, 0.0, 497727.97, 497727.97, 0.24217027, 0.0049152006, 0.0048828125 
3.8228112e+0, 7.324219e-3, 497727.97, -0.000000000000000000000000032385085, 0.0000000002246009, 0.48357913, 0.0, 497727.97, 497727.97, 0.24217027, 0.0049152006, 0.0048828125 
3.8277265e+0, 2.4414063e-3, 497926.75, -0.000000000000000000000010579319, -0.000000004060272, 0.48148188, 0.0, 497926.75, 497926.75, 0.24216978, 0.0049152137, 0.0048828125 
3.8277265e+0, 7.324219e-3, 497926.75, -0.000000000000000000000010500891, -0.000000004045194, 0.48148188, 0.0, 497926.75, 497926.75, 0.24216978, 0.0049152137, 0.0048828125 
3.8326415e+0, 2.4414063e-3, 498437.56, -0.000000000000000000000008122698, -0.000000003559583, 0.4793958, 0.0, 498437.56, 498437.56, 0.2421698, 0.004915247, 0.0048828125 
3.8326415e+0, 7.324219e-3, 498437.56, -0.000000000000000000000008129889, -0.0000000035611585, 0.4793958, 0.0, 498437.56, 498437.56, 0.2421698, 0.004915247, 0.0048828125 
3.8375568e+0, 2.4414063e-3, 498637.38, -0.0000000000000000000000016799807, 0.000000001619152, 0.47731367, 0.0, 498637.38, 498637.38, 0.24217029, 0.0049152607, 0.0048828125 
3.8375568e+0, 7.324219e-3, 498637.38, -0.000000000000000000000001703167, 0.0000000016302871, 0.47731367, 0.0, 498637.38, 498637.38, 0.24217029, 0.0049152607, 0.0048828125 
3.842472e+0, 2.4414063e-3, 499136.53, -0.000000000000000000000002663132, 0.0000000020396143, 0.47524267, 0.0, 499136.53, 499136.53, 0.24217124, 0.0049152933, 0.0048828125 
3.842472e+0, 7.324219e-3, 499136.53, -0.0000000000000000000000026245757, 0.0000000020247959, 0.47524267, 0.0, 499136.53, 499136.53, 0.24217124, 0.0049152933, 0.0048828125 
3.8473874e+0, 2.4414063e-3, 499341.44, -0.0000000000000000000000000059206484, -0.00000000009618866, 0.47317556, 0.0, 499341.44, 499341.44, 0.24217261, 0.004915307, 0.0048828125 
3.8473874e+0, 7.324219e-3, 499341.44, -0.000000000000000000000000007147714, -0.0000000001056873, 0.47317556, 0.0, 499341.44, 499341.44, 0.24217261, 0.004915307, 0.0048828125 
3.8523024e+0, 2.4414063e-3, 499825.97, -0.0000000000000000000000005784234, 0.0000000009511975, 0.4711195, 0.0, 499825.97, 499825.97, 0.24217439, 0.004915339, 0.0048828125 
3.8523024e+0, 7.324219e-3, 499825.97, -0.00000000000000000000000057316227, 0.0000000009468618, 0.4711195, 0.0, 499825.97, 499825.97, 0.24217439, 0.004915339, 0.0048828125 
3.8572177e+0, 2.4414063e-3, 500034.44, -0.0000000000000000000000041247292, -0.000000002540584, 0.46906725, 0.0, 500034.44, 500034.44, 0.24217656, 0.0049153524, 0.0048828125 
3.8572177e+0, 7.324219e-3, 500034.44, -0.000000000000000000000004085881, -0.0000000025285916, 0.46906725, 0.0, 500034.44, 500034.44, 0.24217656, 0.0049153524, 0.0048828125 
3.8621333e+0, 2.4414063e-3, 500507.63, -0.000000000000000000000008007657, -0.0000000035415306, 0.4670259, 0.0, 500507.63, 500507.63, 0.2421791, 0.0049153836, 0.0048828125 
3.8621333e+0, 7.324219e-3, 500507.63, -0.000000000000000000000007784005, -0.0000000034917234, 0.4670259, 0.0, 500507.63, 500507.63, 0.2421791, 0.0049153836, 0.0048828125 
3.8670486e+0, 2.4414063e-3, 500717.1, -0.0000000000000000000000319892, 0.000000007079905, 0.46498835, 0.0, 500717.1, 500717.1, 0.24218199, 0.0049153976, 0.0048828125 
3.8670486e+0, 7.324219e-3, 500717.1, -0.000000000000000000000031427303, 0.0000000070174497, 0.46498835, 0.0, 500717.1, 500717.1, 0.24218199, 0.0049153976, 0.0048828125 
3.8719636e+0, 2.4414063e-3, 501179.9, -0.000000000000000000000010250301, 0.0000000040095065, 0.4629616, 0.0, 501179.9, 501179.9, 0.2421852, 0.0049154283, 0.0048828125 
3.8719636e+0, 7.324219e-3, 501179.9, -0.00000000000000000000001020241, 0.000000004000129, 0.4629616, 0.0, 501179.9, 501179.9, 0.2421852, 0.0049154283, 0.0048828125 
3.8768792e+0, 2.4414063e-3, 501392.1, -0.000000000000000000000019427664, -0.0000000055210374, 0.46093854, 0.0, 501392.1, 501392.1, 0.24218874, 0.0049154423, 0.0048828125 
3.8768792e+0, 7.324219e-3, 501392.1, -0.000000000000000000000019397223, -0.00000000551671, 0.46093854, 0.0, 501392.1, 501392.1, 0.24218874, 0.0049154423, 0.0048828125 
3.8817948e+0, 2.4414063e-3, 501842.63, -0.0000000000000000000000030238618, 0.0000000021791238, 0.45892614, 0.0, 501842.63, 501842.63, 0.24219257, 0.004915472, 0.0048828125 
3.8817948e+0, 7.324219e-3, 501842.63, -0.0000000000000000000000029235335, 0.0000000021426685, 0.45892614, 0.0, 501842.63, 501842.63, 0.24219257, 0.004915472, 0.0048828125 
3.8867098e+0, 2.4414063e-3, 502057.97, -0.0000000000000000000000013335674, 0.0000000014474273, 0.45691735, 0.0, 502057.97, 502057.97, 0.2421967, 0.0049154866, 0.0048828125 
3.8867098e+0, 7.324219e-3, 502057.97, -0.0000000000000000000000012584556, 0.0000000014060741, 0.45691735, 0.0, 502057.97, 502057.97, 0.2421967, 0.0049154866, 0.0048828125 
3.8916254e+0, 2.4414063e-3, 502496.06, -0.000000000000000000000024868917, -0.0000000062531953, 0.4549191, 0.0, 502496.06, 502496.06, 0.24220107, 0.0049155154, 0.0048828125 
3.8916254e+0, 7.324219e-3, 502496.06, -0.00000000000000000000002481539, -0.000000006246462, 0.4549191, 0.0, 502496.06, 502496.06, 0.24220107, 0.0049155154, 0.0048828125 
3.896541e+0, 2.4414063e-3, 502715.7, -0.00000000000000000000000016686684, 0.0000000005123279, 0.4529244, 0.0, 502715.7, 502715.7, 0.24220571, 0.0049155303, 0.0048828125 
3.896541e+0, 7.324219e-3, 502715.7, -0.00000000000000000000000015912516, 0.0000000005003022, 0.4529244, 0.0, 502715.7, 502715.7, 0.24220571, 0.0049155303, 0.0048828125 
3.9014563e+0, 2.4414063e-3, 503140.2, -0.000000000000000000000010229621, 0.000000004013011, 0.45094, 0.0, 503140.2, 503140.2, 0.24221058, 0.0049155583, 0.0048828125 
3.9014563e+0, 7.324219e-3, 503140.2, -0.000000000000000000000010396193, 0.0000000040455514, 0.45094, 0.0, 503140.2, 503140.2, 0.24221058, 0.0049155583, 0.0048828125 
3.906372e+0, 2.4414063e-3, 503364.94, -0.0000000000000000000000005975916, -0.0000000009701386, 0.44895917, 0.0, 503364.94, 503364.94, 0.2422157, 0.004915573, 0.0048828125 
3.906372e+0, 7.324219e-3, 503364.94, -0.00000000000000000000000059746254, -0.0000000009700338, 0.44895917, 0.0, 503364.94, 503364.94, 0.2422157, 0.004915573, 0.0048828125 
3.9112875e+0, 2.4414063e-3, 503775.78, -0.00000000000000000000000035378624, -0.00000000074674605, 0.44698846, 0.0, 503775.78, 503775.78, 0.24222101, 0.0049156006, 0.0048828125 
3.9112875e+0, 7.324219e-3, 503775.78, -0.00000000000000000000000034228187, -0.0000000007345044, 0.44698846, 0.0, 503775.78, 503775.78, 0.24222101, 0.0049156006, 0.0048828125 
3.916203e+0, 2.4414063e-3, 504004.75, -0.000000000000000000000000467815, 0.0000000008588784, 0.4450212, 0.0, 504004.75, 504004.75, 0.24222654, 0.004915616, 0.0048828125 
3.916203e+0, 7.324219e-3, 504004.75, -0.00000000000000000000000046976524, 0.00000000086066687, 0.4450212, 0.0, 504004.75, 504004.75, 0.24222654, 0.004915616, 0.0048828125 
3.9211184e+0, 2.4414063e-3, 504403.6, -0.00000000000000000000000013794811, -0.00000000046657084, 0.4430639, 0.0, 504403.6, 504403.6, 0.24223225, 0.004915642, 0.0048828125 
3.9211184e+0, 7.324219e-3, 504403.6, -0.00000000000000000000000013956136, -0.0000000004692911, 0.4430639, 0.0, 504403.6, 504403.6, 0.24223225, 0.004915642, 0.0048828125 
3.9260343e+0, 2.4414063e-3, 504635.0, -0.000000000000000000000000016501702, -0.00000000016140492, 0.44111004, 0.0, 504635.0, 504635.0, 0.24223813, 0.004915658, 0.0048828125 
3.9260343e+0, 7.324219e-3, 504635.0, -0.000000000000000000000000009919882, -0.00000000012514274, 0.44111004, 0.0, 504635.0, 504635.0, 0.24223813, 0.004915658, 0.0048828125 
3.9309496e+0, 2.4414063e-3, 505022.9, -0.00000000000000000000000062131025, 0.0000000009907553, 0.43916598, 0.0, 505022.9, 505022.9, 0.2422442, 0.0049156835, 0.0048828125 
3.9309496e+0, 7.324219e-3, 505022.9, -0.00000000000000000000000062349885, 0.0000000009924987, 0.43916598, 0.0, 505022.9, 505022.9, 0.2422442, 0.0049156835, 0.0048828125 
3.9358655e+0, 2.4414063e-3, 505257.94, -0.00000000000000000000000007265504, -0.00000000033887437, 0.43722528, 0.0, 505257.94, 505257.94, 0.24225041, 0.0049156994, 0.0048828125 
3.9358655e+0, 7.324219e-3, 505257.94, -0.000000000000000000000000072087866, -0.0000000003375491, 0.43722528, 0.0, 505257.94, 505257.94, 0.24225041, 0.0049156994, 0.0048828125 
3.940781e+0, 2.4414063e-3, 505633.03, -0.0000000000000000000000006079904, -0.0000000009806361, 0.4352942, 0.0, 505633.03, 505633.03, 0.24225678, 0.004915724, 0.0048828125 
3.940781e+0, 7.324219e-3, 505633.03, -0.00000000000000000000000063099623, -0.0000000009990171, 0.4352942, 0.0, 505633.03, 505633.03, 0.24225678, 0.004915724, 0.0048828125 
3.945697e+0, 2.4414063e-3, 505872.78, -0.00000000000000000000000011381442, 0.0000000004243786, 0.43336648, 0.0, 505872.78, 505872.78, 0.24226327, 0.0049157403, 0.0048828125 
3.945697e+0, 7.324219e-3, 505872.78, -0.0000000000000000000000001109878, 0.00000000041907566, 0.43336648, 0.0, 505872.78, 505872.78, 0.24226327, 0.0049157403, 0.0048828125 
3.9506122e+0, 2.4414063e-3, 506235.25, -0.00000000000000000000000017100605, -0.0000000005203653, 0.43144822, 0.0, 506235.25, 506235.25, 0.2422699, 0.004915764, 0.0048828125 
3.9506122e+0, 7.324219e-3, 506235.25, -0.00000000000000000000000016763239, -0.00000000051520677, 0.43144822, 0.0, 506235.25, 506235.25, 0.2422699, 0.004915764, 0.0048828125 
3.955528e+0, 2.4414063e-3, 506477.9, -0.0000000000000000000000000011435883, -0.00000000004256313, 0.42953324, 0.0, 506477.9, 506477.9, 0.24227665, 0.0049157804, 0.0048828125 
3.955528e+0, 7.324219e-3, 506477.9, -0.0000000000000000000000000008140256, -0.00000000003591019, 0.42953324, 0.0, 506477.9, 506477.9, 0.24227665, 0.0049157804, 0.0048828125 
3.960444e+0, 2.4414063e-3, 506830.2, -0.000000000000000000000010203188, 0.000000004021699, 0.4276276, 0.0, 506830.2, 506830.2, 0.24228352, 0.004915804, 0.0048828125 
3.960444e+0, 7.324219e-3, 506830.2, -0.000000000000000000000010298962, 0.00000000404053, 0.4276276, 0.0, 506830.2, 506830.2, 0.24228352, 0.004915804, 0.0048828125 
3.9653596e+0, 2.4414063e-3, 507074.44, -0.0000000000000000000000012904676, 0.0000000014305782, 0.42572525, 0.0, 507074.44, 507074.44, 0.24229048, 0.0049158204, 0.0048828125 
3.9653596e+0, 7.324219e-3, 507074.44, -0.0000000000000000000000012952123, 0.0000000014332057, 0.42572525, 0.0, 507074.44, 507074.44, 0.24229048, 0.0049158204, 0.0048828125 
3.9702755e+0, 2.4414063e-3, 507417.03, -0.000000000000000000000016369476, -0.000000005096755, 0.42383206, 0.0, 507417.03, 507417.03, 0.24229755, 0.0049158433, 0.0048828125 
3.9702755e+0, 7.324219e-3, 507417.03, -0.000000000000000000000016326096, -0.0000000050899973, 0.42383206, 0.0, 507417.03, 507417.03, 0.24229755, 0.0049158433, 0.0048828125 
3.975191e+0, 2.4414063e-3, 507663.3, -0.000000000000000000000007901251, -0.0000000035417775, 0.42194217, 0.0, 507663.3, 507663.3, 0.2423047, 0.0049158596, 0.0048828125 
3.975191e+0, 7.324219e-3, 507663.3, -0.000000000000000000000007827996, -0.0000000035253207, 0.42194217, 0.0, 507663.3, 507663.3, 0.2423047, 0.0049158596, 0.0048828125 
3.980107e+0, 2.4414063e-3, 507995.7, -0.0000000000000000000000010519198, 0.0000000012927016, 0.42006132, 0.0, 507995.7, 507995.7, 0.24231192, 0.004915882, 0.0048828125 
3.980107e+0, 7.324219e-3, 507995.7, -0.000000000000000000000001064184, 0.0000000013002155, 0.42006132, 0.0, 507995.7, 507995.7, 0.24231192, 0.004915882, 0.0048828125 
3.985023e+0, 2.4414063e-3, 508243.6, -0.0000000000000000000000020613665, 0.000000001810014, 0.41818374, 0.0, 508243.6, 508243.6, 0.24231923, 0.0049158987, 0.0048828125 
3.985023e+0, 7.324219e-3, 508243.6, -0.0000000000000000000000020864332, 0.0000000018209858, 0.41818374, 0.0, 508243.6, 508243.6, 0.24231923, 0.0049158987, 0.0048828125 
3.9899388e+0, 2.4414063e-3, 508567.0, -0.00000000000000000000000060272607, 0.000000000979025, 0.41631502, 0.0, 508567.0, 508567.0, 0.24232659, 0.00491592, 0.0048828125 
3.9899388e+0, 7.324219e-3, 508567.0, -0.0000000000000000000000006418004, 0.0000000010102614, 0.41631502, 0.0, 508567.0, 508567.0, 0.24232659, 0.00491592, 0.0048828125 
3.9948544e+0, 2.4414063e-3, 508815.0, -0.000000000000000000000000099364106, 0.00000000039759934, 0.4144496, 0.0, 508815.0, 508815.0, 0.24233402, 0.004915937, 0.0048828125 
3.9948544e+0, 7.324219e-3, 508815.0, -0.00000000000000000000000009390194, 0.00000000038651662, 0.4144496, 0.0, 508815.0, 508815.0, 0.24233402, 0.004915937, 0.0048828125 
3.9997703e+0, 2.4414063e-3, 509130.9, -0.0000000000000000000000038033915, -0.000000002460608, 0.41259292, 0.0, 509130.9, 509130.9, 0.2423415, 0.004915958, 0.0048828125 
3.9997703e+0, 7.324219e-3, 509130.9, -0.000000000000000000000003691932, -0.0000000024242852, 0.41259292, 0.0, 509130.9, 509130.9, 0.2423415, 0.004915958, 0.0048828125 
4.0046865e+0, 2.4414063e-3, 509378.6, -0.000000000000000000000000014657228, -0.00000000015278459, 0.41073954, 0.0, 509378.6, 509378.6, 0.24234904, 0.0049159746, 0.0048828125 
4.0046865e+0, 7.324219e-3, 509378.6, -0.000000000000000000000000013865163, -0.00000000014859908, 0.41073954, 0.0, 509378.6, 509378.6, 0.24234904, 0.0049159746, 0.0048828125 
4.009602e+0, 2.4414063e-3, 509686.75, -0.000000000000000000000024783578, 0.0000000062843166, 0.40889472, 0.0, 509686.75, 509686.75, 0.24235661, 0.004915995, 0.0048828125 
4.009602e+0, 7.324219e-3, 509686.75, -0.000000000000000000000024711934, 0.0000000062752266, 0.40889472, 0.0, 509686.75, 509686.75, 0.24235661, 0.004915995, 0.0048828125 
4.0145183e+0, 2.4414063e-3, 509934.8, -0.0000000000000000000000009774292, -0.0000000012482898, 0.4070532, 0.0, 509934.8, 509934.8, 0.24236421, 0.004916012, 0.0048828125 
4.0145183e+0, 7.324219e-3, 509934.8, -0.0000000000000000000000009507873, -0.0000000012311598, 0.4070532, 0.0, 509934.8, 509934.8, 0.24236421, 0.004916012, 0.0048828125 
4.019434e+0, 2.4414063e-3, 510234.94, -0.00000000000000000000004909084, -0.00000000884895, 0.40522012, 0.0, 510234.94, 510234.94, 0.24237186, 0.004916032, 0.0048828125 
4.019434e+0, 7.324219e-3, 510234.94, -0.00000000000000000000004897966, -0.000000008838924, 0.40522012, 0.0, 510234.94, 510234.94, 0.24237186, 0.004916032, 0.0048828125 
4.02435e+0, 2.4414063e-3, 510481.53, -0.000000000000000000000003617988, 0.0000000024028186, 0.40339035, 0.0, 510481.53, 510481.53, 0.24237952, 0.0049160486, 0.0048828125 
4.02435e+0, 7.324219e-3, 510481.53, -0.000000000000000000000003563518, 0.0000000023846622, 0.40339035, 0.0, 510481.53, 510481.53, 0.24237952, 0.0049160486, 0.0048828125 
4.0292662e+0, 2.4414063e-3, 510777.1, -0.000000000000000000000034028645, 0.000000007371, 0.4015689, 0.0, 510777.1, 510777.1, 0.2423872, 0.004916068, 0.0048828125 
4.0292662e+0, 7.324219e-3, 510777.1, -0.000000000000000000000033884936, 0.000000007355419, 0.4015689, 0.0, 510777.1, 510777.1, 0.2423872, 0.004916068, 0.0048828125 
4.034182e+0, 2.4414063e-3, 511018.8, -0.000000000000000000000003866325, -0.0000000024851177, 0.39975077, 0.0, 511018.8, 511018.8, 0.24239491, 0.0049160845, 0.0048828125 
4.034182e+0, 7.324219e-3, 511018.8, -0.000000000000000000000003843897, -0.0000000024778992, 0.39975077, 0.0, 511018.8, 511018.8, 0.24239491, 0.0049160845, 0.0048828125 
4.0390983e+0, 2.4414063e-3, 511312.16, -0.000000000000000000000009398561, -0.000000003875645, 0.3979408, 0.0, 511312.16, 511312.16, 0.24240261, 0.004916104, 0.0048828125 
4.0390983e+0, 7.324219e-3, 511312.16, -0.0000000000000000000000094388675, -0.0000000038839465, 0.3979408, 0.0, 511312.16, 511312.16, 0.24240261, 0.004916104, 0.0048828125 
4.0440145e+0, 2.4414063e-3, 511550.16, -0.000000000000000000000001734038, 0.000000001665078, 0.3961343, 0.0, 511550.16, 511550.16, 0.24241032, 0.00491612, 0.0048828125 
4.0440145e+0, 7.324219e-3, 511550.16, -0.0000000000000000000000017157506, 0.0000000016562747, 0.3961343, 0.0, 511550.16, 511550.16, 0.24241032, 0.00491612, 0.0048828125 
4.04893e+0, 2.4414063e-3, 511837.75, -0.000000000000000000000001417611, 0.0000000015059023, 0.39433575, 0.0, 511837.75, 511837.75, 0.24241804, 0.0049161394, 0.0048828125 
4.04893e+0, 7.324219e-3, 511837.75, -0.0000000000000000000000014353508, 0.0000000015152953, 0.39433575, 0.0, 511837.75, 511837.75, 0.24241804, 0.0049161394, 0.0048828125 
4.0538463e+0, 2.4414063e-3, 512076.1, -0.00000000000000000000000028125228, -0.0000000006709008, 0.39254063, 0.0, 512076.1, 512076.1, 0.24242574, 0.0049161552, 0.0048828125 
4.0538463e+0, 7.324219e-3, 512076.1, -0.00000000000000000000000030515782, -0.0000000006988316, 0.39254063, 0.0, 512076.1, 512076.1, 0.24242574, 0.0049161552, 0.0048828125 
4.0587625e+0, 2.4414063e-3, 512354.34, -0.00000000000000000000000016545857, -0.00000000051471144, 0.3907534, 0.0, 512354.34, 512354.34, 0.24243343, 0.004916174, 0.0048828125 
4.0587625e+0, 7.324219e-3, 512354.34, -0.00000000000000000000000015582118, -0.00000000049949644, 0.3907534, 0.0, 512354.34, 512354.34, 0.24243343, 0.004916174, 0.0048828125 
4.0636787e+0, 2.4414063e-3, 512594.03, -0.000000000000000000000000061956846, 0.00000000031503322, 0.3889696, 0.0, 512594.03, 512594.03, 0.2424411, 0.00491619, 0.0048828125 
4.0636787e+0, 7.324219e-3, 512594.03, -0.00000000000000000000000004983775, 0.00000000028254715, 0.3889696, 0.0, 512594.03, 512594.03, 0.2424411, 0.00491619, 0.0048828125 
4.068595e+0, 2.4414063e-3, 512863.28, -0.000000000000000000000000061267764, 0.00000000031335218, 0.3871935, 0.0, 512863.28, 512863.28, 0.24244878, 0.0049162083, 0.0048828125 
4.068595e+0, 7.324219e-3, 512863.28, -0.00000000000000000000000006027937, 0.00000000031081435, 0.3871935, 0.0, 512863.28, 512863.28, 0.24244878, 0.0049162083, 0.0048828125 
4.073511e+0, 2.4414063e-3, 513105.97, -0.000000000000000000000000016750207, -0.00000000016387797, 0.38542092, 0.0, 513105.97, 513105.97, 0.2424564, 0.0049162246, 0.0048828125 
4.073511e+0, 7.324219e-3, 513105.97, -0.000000000000000000000000021611683, -0.00000000018614645, 0.38542092, 0.0, 513105.97, 513105.97, 0.2424564, 0.0049162246, 0.0048828125 
4.0784273e+0, 2.4414063e-3, 513363.44, -0.0000000000000000000000000020752407, 0.000000000057695862, 0.38365594, 0.0, 513363.44, 513363.44, 0.24246402, 0.004916242, 0.0048828125 
4.0784273e+0, 7.324219e-3, 513363.44, -0.0000000000000000000000000009079536, 0.00000000003816298, 0.38365594, 0.0, 513363.44, 513363.44, 0.24246402, 0.004916242, 0.0048828125 
4.0833434e+0, 2.4414063e-3, 513611.0, -0.00000000000000000000000044397314, 0.00000000084408186, 0.3818945, 0.0, 513611.0, 513611.0, 0.24247159, 0.004916258, 0.0048828125 
4.0833434e+0, 7.324219e-3, 513611.0, -0.00000000000000000000000044423045, 0.0000000008443264, 0.3818945, 0.0, 513611.0, 513611.0, 0.24247159, 0.004916258, 0.0048828125 
4.0882596e+0, 2.4414063e-3, 513855.63, -0.0000000000000000000000022072628, 0.0000000018824686, 0.3801405, 0.0, 513855.63, 513855.63, 0.24247913, 0.004916275, 0.0048828125 
4.0882596e+0, 7.324219e-3, 513855.63, -0.0000000000000000000000022141458, 0.0000000018854016, 0.3801405, 0.0, 513855.63, 513855.63, 0.24247913, 0.004916275, 0.0048828125 
4.0931758e+0, 2.4414063e-3, 514108.84, -0.000000000000000000000009234138, 0.000000003851209, 0.37839016, 0.0, 514108.84, 514108.84, 0.24248664, 0.0049162917, 0.0048828125 
4.0931758e+0, 7.324219e-3, 514108.84, -0.000000000000000000000009342447, 0.000000003873729, 0.37839016, 0.0, 514108.84, 514108.84, 0.24248664, 0.0049162917, 0.0048828125 
4.098092e+0, 2.4414063e-3, 514339.72, -0.00000000000000000000000029218395, -0.0000000006851975, 0.37664714, 0.0, 514339.72, 514339.72, 0.24249409, 0.004916307, 0.0048828125 
4.098092e+0, 7.324219e-3, 514339.72, -0.00000000000000000000000027174362, -0.0000000006607958, 0.37664714, 0.0, 514339.72, 514339.72, 0.24249409, 0.004916307, 0.0048828125 
4.1030082e+0, 2.4414063e-3, 514601.88, -0.00000000000000000000008405822, -0.0000000116246435, 0.3749078, 0.0, 514601.88, 514601.88, 0.2425015, 0.0049163247, 0.0048828125 
4.1030082e+0, 7.324219e-3, 514601.88, -0.00000000000000000000008457972, -0.000000011660648, 0.3749078, 0.0, 514601.88, 514601.88, 0.2425015, 0.0049163247, 0.0048828125 
4.1079244e+0, 2.4414063e-3, 514814.53, -0.000000000000000000000028433712, -0.0000000067621904, 0.37317562, 0.0, 514814.53, 514814.53, 0.24250884, 0.004916339, 0.0048828125 
4.1079244e+0, 7.324219e-3, 514814.53, -0.000000000000000000000028498572, -0.0000000067698984, 0.37317562, 0.0, 514814.53, 514814.53, 0.24250884, 0.004916339, 0.0048828125 
4.1128406e+0, 2.4414063e-3, 515087.66, -0.000000000000000000000047830284, 0.0000000087726075, 0.37144712, 0.0, 515087.66, 515087.66, 0.24251615, 0.0049163573, 0.0048828125 
4.1128406e+0, 7.324219e-3, 515087.66, -0.000000000000000000000048108086, 0.000000008798047, 0.37144712, 0.0, 515087.66, 515087.66, 0.24251615, 0.0049163573, 0.0048828125 
4.1177574e+0, 2.4414063e-3, 515282.1, -0.000000000000000000000027173655, 0.0000000066133983, 0.36972556, 0.0, 515282.1, 515282.1, 0.24252337, 0.0049163704, 0.0048828125 
4.1177574e+0, 7.324219e-3, 515282.1, -0.00000000000000000000002723051, 0.000000006620313, 0.36972556, 0.0, 515282.1, 515282.1, 0.24252337, 0.0049163704, 0.0048828125 
4.1226736e+0, 2.4414063e-3, 515565.63, -0.000000000000000000000006758972, -0.0000000032991494, 0.36800772, 0.0, 515565.63, 515565.63, 0.24253054, 0.0049163895, 0.0048828125 
4.1226736e+0, 7.324219e-3, 515565.63, -0.000000000000000000000006908015, -0.000000003335326, 0.36800772, 0.0, 515565.63, 515565.63, 0.24253054, 0.0049163895, 0.0048828125 
4.1275898e+0, 2.4414063e-3, 515743.2, -0.0000000000000000000000029904944, -0.0000000021948234, 0.36629662, 0.0, 515743.2, 515743.2, 0.24253763, 0.0049164016, 0.0048828125 
4.1275898e+0, 7.324219e-3, 515743.2, -0.0000000000000000000000029536461, -0.0000000021812596, 0.36629662, 0.0, 515743.2, 515743.2, 0.24253763, 0.0049164016, 0.0048828125 
4.1325063e+0, 2.4414063e-3, 516034.72, -0.0000000000000000000000015448359, 0.0000000015779155, 0.36458927, 0.0, 516034.72, 516034.72, 0.24254465, 0.004916421, 0.0048828125 
4.1325063e+0, 7.324219e-3, 516034.72, -0.0000000000000000000000015881398, 0.0000000015998782, 0.36458927, 0.0, 516034.72, 516034.72, 0.24254465, 0.004916421, 0.0048828125 
4.1374224e+0, 2.4414063e-3, 516198.72, -0.0000000000000000000000004888861, 0.0000000008877839, 0.36288854, 0.0, 516198.72, 516198.72, 0.24255158, 0.0049164323, 0.0048828125 
4.1374224e+0, 7.324219e-3, 516198.72, -0.0000000000000000000000004888861, 0.0000000008877839, 0.36288854, 0.0, 516198.72, 516198.72, 0.24255158, 0.0049164323, 0.0048828125 
4.1423386e+0, 2.4414063e-3, 516494.5, -0.000000000000000000000000021476761, -0.00000000018612474, 0.36119172, 0.0, 516494.5, 516494.5, 0.24255843, 0.004916452, 0.0048828125 
4.1423386e+0, 7.324219e-3, 516494.5, -0.00000000000000000000000002898514, -0.00000000021622577, 0.36119172, 0.0, 516494.5, 516494.5, 0.24255843, 0.004916452, 0.0048828125 
4.1472554e+0, 2.4414063e-3, 516649.03, -0.00000000000000000000000006454224, -0.00000000032269984, 0.3595014, 0.0, 516649.03, 516649.03, 0.2425652, 0.0049164626, 0.0048828125 
4.1472554e+0, 7.324219e-3, 516649.03, -0.0000000000000000000000000537713, -0.00000000029454522, 0.3595014, 0.0, 516649.03, 516649.03, 0.2425652, 0.0049164626, 0.0048828125 
4.1521716e+0, 2.4414063e-3, 516946.28, -0.000000000000000000000000001969223, -0.000000000056382097, 0.35781506, 0.0, 516946.28, 516946.28, 0.24257188, 0.004916482, 0.0048828125 
4.1521716e+0, 7.324219e-3, 516946.28, -0.000000000000000000000000002028905, -0.000000000057230116, 0.35781506, 0.0, 516946.28, 516946.28, 0.24257188, 0.004916482, 0.0048828125 
4.1570884e+0, 2.4414063e-3, 517093.22, -0.00000000000000000000000013170406, 0.00000000046115545, 0.35613513, 0.0, 517093.22, 517093.22, 0.24257845, 0.0049164924, 0.0048828125 
4.1570884e+0, 7.324219e-3, 517093.22, -0.0000000000000000000000001162578, 0.0000000004332702, 0.35613513, 0.0, 517093.22, 517093.22, 0.24257845, 0.0049164924, 0.0048828125 
4.1620046e+0, 2.4414063e-3, 517391.6, -0.00000000000000000000000005524343, 0.0000000002987485, 0.35445917, 0.0, 517391.6, 517391.6, 0.24258491, 0.004916512, 0.0048828125 
4.1620046e+0, 7.324219e-3, 517391.6, -0.000000000000000000000000047487636, 0.00000000027698466, 0.35445917, 0.0, 517391.6, 517391.6, 0.24258491, 0.004916512, 0.0048828125 
4.166921e+0, 2.4414063e-3, 517530.16, -0.0000000000000000000000000005199125, -0.000000000028985528, 0.35278937, 0.0, 517530.16, 517530.16, 0.24259128, 0.0049165217, 0.0048828125 
4.166921e+0, 7.324219e-3, 517530.16, -0.0000000000000000000000000030689264, -0.000000000070422154, 0.35278937, 0.0, 517530.16, 517530.16, 0.24259128, 0.0049165217, 0.0048828125 
4.171838e+0, 2.4414063e-3, 517829.5, -0.000000000000000000000000047962743, -0.00000000027847505, 0.3511235, 0.0, 517829.5, 517829.5, 0.24259752, 0.0049165417, 0.0048828125 
4.171838e+0, 7.324219e-3, 517829.5, -0.00000000000000000000000003875522, -0.0000000002503222, 0.3511235, 0.0, 517829.5, 517829.5, 0.24259752, 0.0049165417, 0.0048828125 
4.176754e+0, 2.4414063e-3, 517960.66, -0.00000000000000000000000000056464953, 0.000000000030218408, 0.3494635, 0.0, 517960.66, 517960.66, 0.24260364, 0.0049165506, 0.0048828125 
4.176754e+0, 7.324219e-3, 517960.66, -0.000000000000000000000000000527733, 0.000000000029213878, 0.3494635, 0.0, 517960.66, 517960.66, 0.24260364, 0.0049165506, 0.0048828125 
4.1816705e+0, 2.4414063e-3, 518260.5, -0.00000000000000000000000003147551, 0.00000000022567688, 0.3478074, 0.0, 518260.5, 518260.5, 0.24260965, 0.0049165706, 0.0048828125 
4.1816705e+0, 7.324219e-3, 518260.5, -0.00000000000000000000000003582997, 0.00000000024078195, 0.3478074, 0.0, 518260.5, 518260.5, 0.24260965, 0.0049165706, 0.0048828125 
4.1865873e+0, 2.4414063e-3, 518383.97, -0.000000000000000000000000000035794922, 0.0000000000076112545, 0.34615698, 0.0, 518383.97, 518383.97, 0.24261554, 0.004916579, 0.0048828125 
4.1865873e+0, 7.324219e-3, 518383.97, -0.00000000000000000000000000001399323, 0.0000000000047588773, 0.34615698, 0.0, 518383.97, 518383.97, 0.24261554, 0.004916579, 0.0048828125 
4.1915035e+0, 2.4414063e-3, 518685.44, -0.00000000000000000000000002083091, -0.00000000018366193, 0.34451073, 0.0, 518685.44, 518685.44, 0.24262127, 0.004916599, 0.0048828125 
4.1915035e+0, 7.324219e-3, 518685.44, -0.000000000000000000000000023680772, -0.00000000019582266, 0.34451073, 0.0, 518685.44, 518685.44, 0.24262127, 0.004916599, 0.0048828125 
4.1964203e+0, 2.4414063e-3, 518799.53, -0.000000000000000000000000003100739, -0.00000000007086614, 0.34287018, 0.0, 518799.53, 518799.53, 0.24262688, 0.0049166065, 0.0048828125 
4.1964203e+0, 7.324219e-3, 518799.53, -0.0000000000000000000000000031261972, -0.00000000007115646, 0.34287018, 0.0, 518799.53, 518799.53, 0.24262688, 0.0049166065, 0.0048828125 
4.2013368e+0, 2.4414063e-3, 519103.13, -0.0000000000000000000000000013608661, -0.000000000046960692, 0.3412341, 0.0, 519103.13, 519103.13, 0.24263233, 0.004916627, 0.0048828125 
4.2013368e+0, 7.324219e-3, 519103.13, -0.0000000000000000000000000017109295, -0.000000000052655394, 0.3412341, 0.0, 519103.13, 519103.13, 0.24263233, 0.004916627, 0.0048828125 
4.2062536e+0, 2.4414063e-3, 519208.78, -0.0000000000000000000000000120979654, 0.00000000014002995, 0.3396039, 0.0, 519208.78, 519208.78, 0.24263763, 0.004916634, 0.0048828125 
4.2062536e+0, 7.324219e-3, 519208.78, -0.000000000000000000000000010146886, 0.00000000012824225, 0.3396039, 0.0, 519208.78, 519208.78, 0.24263763, 0.004916634, 0.0048828125 
4.21117e+0, 2.4414063e-3, 519513.7, -0.0000000000000000000000000007183624, 0.000000000034131704, 0.33797818, 0.0, 519513.7, 519513.7, 0.24264278, 0.0049166544, 0.0048828125 
4.21117e+0, 7.324219e-3, 519513.7, -0.00000000000000000000000000040431303, 0.000000000025606196, 0.33797818, 0.0, 519513.7, 519513.7, 0.24264278, 0.0049166544, 0.0048828125 
4.2160863e+0, 2.4414063e-3, 519612.16, -0.0000000000000000000000000013795838, -0.000000000047303744, 0.3363581, 0.0, 519612.16, 519612.16, 0.24264777, 0.004916661, 0.0048828125 
4.2160863e+0, 7.324219e-3, 519612.16, -0.000000000000000000000000002280142, -0.00000000006081384, 0.3363581, 0.0, 519612.16, 519612.16, 0.24264777, 0.004916661, 0.0048828125 
4.221003e+0, 2.4414063e-3, 519917.72, -0.000000000000000000000000071103485, 0.00000000033969483, 0.3347422, 0.0, 519917.72, 519917.72, 0.24265257, 0.0049166814, 0.0048828125 
4.221003e+0, 7.324219e-3, 519917.72, -0.00000000000000000000000006750929, 0.00000000033099792, 0.3347422, 0.0, 519917.72, 519917.72, 0.24265257, 0.0049166814, 0.0048828125 
4.2259198e+0, 2.4414063e-3, 520008.97, -0.0000000000000000000000000095552765, 0.00000000012453683, 0.33313122, 0.0, 520008.97, 520008.97, 0.2426572, 0.0049166875, 0.0048828125 
4.2259198e+0, 7.324219e-3, 520008.97, -0.000000000000000000000000009557987, 0.00000000012455449, 0.33313122, 0.0, 520008.97, 520008.97, 0.2426572, 0.0049166875, 0.0048828125 
4.2308363e+0, 2.4414063e-3, 520315.78, -0.000000000000000000000000092024464, -0.00000000038659007, 0.331524, 0.0, 520315.78, 520315.78, 0.24266165, 0.004916708, 0.0048828125 
4.2308363e+0, 7.324219e-3, 520315.78, -0.00000000000000000000000010890868, -0.00000000042056225, 0.331524, 0.0, 520315.78, 520315.78, 0.24266165, 0.004916708, 0.0048828125 
4.235753e+0, 2.4414063e-3, 520398.1, -0.000000000000000000000000025843051, -0.00000000020488033, 0.329921, 0.0, 520398.1, 520398.1, 0.2426659, 0.0049167136, 0.0048828125 
4.235753e+0, 7.324219e-3, 520398.1, -0.0000000000000000000000000308202, -0.00000000022374128, 0.329921, 0.0, 520398.1, 520398.1, 0.2426659, 0.0049167136, 0.0048828125 
4.2406696e+0, 2.4414063e-3, 520706.66, -0.0000000000000000000000000034499333, 0.000000000074878596, 0.32832327, 0.0, 520706.66, 520706.66, 0.24266997, 0.004916734, 0.0048828125 
4.2406696e+0, 7.324219e-3, 520706.66, -0.0000000000000000000000000063013928, 0.00000000010119769, 0.32832327, 0.0, 520706.66, 520706.66, 0.24266997, 0.004916734, 0.0048828125 
4.2455864e+0, 2.4414063e-3, 520780.1, -0.000000000000000000000000013032856, -0.00000000014554533, 0.32673118, 0.0, 520780.1, 520780.1, 0.24267381, 0.004916739, 0.0048828125 
4.2455864e+0, 7.324219e-3, 520780.1, -0.000000000000000000000000013120097, -0.00000000014603165, 0.32673118, 0.0, 520780.1, 520780.1, 0.24267381, 0.004916739, 0.0048828125 
4.2505032e+0, 2.4414063e-3, 521091.66, -0.0000000000000000000000000020201399, 0.000000000057318494, 0.32514334, 0.0, 521091.66, 521091.66, 0.24267745, 0.0049167597, 0.0048828125 
4.2505032e+0, 7.324219e-3, 521091.66, -0.0000000000000000000000000050975468, 0.000000000091050986, 0.32514334, 0.0, 521091.66, 521091.66, 0.24267745, 0.0049167597, 0.0048828125 
4.2554197e+0, 2.4414063e-3, 521157.7, -0.000000000000000000000000086863705, 0.00000000037587786, 0.32355976, 0.0, 521157.7, 521157.7, 0.24268086, 0.0049167643, 0.0048828125 
4.2554197e+0, 7.324219e-3, 521157.7, -0.00000000000000000000000008700512, 0.0000000003761837, 0.32355976, 0.0, 521157.7, 521157.7, 0.24268086, 0.0049167643, 0.0048828125 
4.2603368e+0, 2.4414063e-3, 521466.44, -0.000000000000000000000000043069802, -0.00000000026475178, 0.32198074, 0.0, 521466.44, 521466.44, 0.24268404, 0.004916785, 0.0048828125 
4.2603368e+0, 7.324219e-3, 521466.44, -0.000000000000000000000000042907528, -0.00000000026425256, 0.32198074, 0.0, 521466.44, 521466.44, 0.24268404, 0.004916785, 0.0048828125 
4.2652535e+0, 2.4414063e-3, 521525.03, -0.00000000000000000000000012172862, -0.00000000044511247, 0.32040608, 0.0, 521525.03, 521525.03, 0.24268697, 0.0049167885, 0.0048828125 
4.2652535e+0, 7.324219e-3, 521525.03, -0.00000000000000000000000011700546, -0.0000000004363917, 0.32040608, 0.0, 521525.03, 521525.03, 0.24268697, 0.0049167885, 0.0048828125 
4.2701703e+0, 2.4414063e-3, 521837.1, -0.000000000000000000000000084248034, 0.00000000037040773, 0.31883645, 0.0, 521837.1, 521837.1, 0.24268967, 0.0049168095, 0.0048828125 
4.2701703e+0, 7.324219e-3, 521837.1, -0.000000000000000000000000080909346, 0.00000000036299405, 0.31883645, 0.0, 521837.1, 521837.1, 0.24268967, 0.0049168095, 0.0048828125 
4.2750868e+0, 2.4414063e-3, 521889.13, -0.000000000000000000000000073805185, 0.00000000034670683, 0.31727144, 0.0, 521889.13, 521889.13, 0.2426921, 0.0049168128, 0.0048828125 
4.2750868e+0, 7.324219e-3, 521889.13, -0.000000000000000000000000086933464, 0.00000000037628115, 0.31727144, 0.0, 521889.13, 521889.13, 0.2426921, 0.0049168128, 0.0048828125 
4.2800036e+0, 2.4414063e-3, 522199.7, -0.000000000000000000000000021579111, 0.0000000001875264, 0.31571168, 0.0, 522199.7, 522199.7, 0.24269426, 0.0049168337, 0.0048828125 
4.2800036e+0, 7.324219e-3, 522199.7, -0.000000000000000000000000020009492, 0.00000000018057751, 0.31571168, 0.0, 522199.7, 522199.7, 0.24269426, 0.0049168337, 0.0048828125 
4.2849207e+0, 2.4414063e-3, 522248.22, -0.000000000000000000000000019932873, -0.00000000018023891, 0.31415647, 0.0, 522248.22, 522248.22, 0.24269614, 0.004916837, 0.0048828125 
4.2849207e+0, 7.324219e-3, 522248.22, -0.000000000000000000000000020464955, -0.00000000018262869, 0.31415647, 0.0, 522248.22, 522248.22, 0.24269614, 0.004916837, 0.0048828125 
4.2898375e+0, 2.4414063e-3, 522555.28, -0.0000000000000000000000011570033, -0.0000000013735887, 0.3126054, 0.0, 522555.28, 522555.28, 0.24269773, 0.004916857, 0.0048828125 
4.2898375e+0, 7.324219e-3, 522555.28, -0.0000000000000000000000011396711, -0.0000000013632615, 0.3126054, 0.0, 522555.28, 522555.28, 0.24269773, 0.004916857, 0.0048828125 
4.294754e+0, 2.4414063e-3, 522602.9, -0.0000000000000000000000005900104, -0.0000000009809289, 0.31105772, 0.0, 522602.9, 522602.9, 0.24269901, 0.0049168603, 0.0048828125 
4.294754e+0, 7.324219e-3, 522602.9, -0.00000000000000000000000058632994, -0.0000000009778646, 0.31105772, 0.0, 522602.9, 522602.9, 0.24269901, 0.0049168603, 0.0048828125 
4.2996708e+0, 2.4414063e-3, 522905.44, -0.000000000000000000000017328747, 0.000000005317602, 0.30951467, 0.0, 522905.44, 522905.44, 0.2427, 0.0049168803, 0.0048828125 
4.2996708e+0, 7.324219e-3, 522905.44, -0.000000000000000000000017338448, 0.00000000531909, 0.30951467, 0.0, 522905.44, 522905.44, 0.2427, 0.0049168803, 0.0048828125 
4.3045878e+0, 2.4414063e-3, 522950.78, -0.000000000000000000000038298547, 0.0000000079057205, 0.30797526, 0.0, 522950.78, 522950.78, 0.24270065, 0.004916883, 0.0048828125 
4.3045878e+0, 7.324219e-3, 522950.78, -0.00000000000000000000003833586, 0.000000007909571, 0.30797526, 0.0, 522950.78, 522950.78, 0.24270065, 0.004916883, 0.0048828125 
4.3095046e+0, 2.4414063e-3, 523249.6, -0.0000000000000000000000238908, -0.000000006245818, 0.30644083, 0.0, 523249.6, 523249.6, 0.24270096, 0.004916903, 0.0048828125 
4.3095046e+0, 7.324219e-3, 523249.6, -0.000000000000000000000023566685, -0.0000000062033068, 0.30644083, 0.0, 523249.6, 523249.6, 0.24270096, 0.004916903, 0.0048828125 
4.3144217e+0, 2.4414063e-3, 523292.44, -0.00000000000000000000009451701, -0.000000012423582, 0.30491006, 0.0, 523292.44, 523292.44, 0.24270093, 0.004916906, 0.0048828125 
4.3144217e+0, 7.324219e-3, 523292.44, -0.000000000000000000000094562776, -0.0000000124265895, 0.30491006, 0.0, 523292.44, 523292.44, 0.24270093, 0.004916906, 0.0048828125 
4.3193382e+0, 2.4414063e-3, 523586.6, -0.0000000000000000000000022401315, 0.0000000019131592, 0.30338436, 0.0, 523586.6, 523586.6, 0.24270055, 0.004916925, 0.0048828125 
4.3193382e+0, 7.324219e-3, 523586.6, -0.0000000000000000000000022807986, 0.0000000019304467, 0.30338436, 0.0, 523586.6, 523586.6, 0.24270055, 0.004916925, 0.0048828125 
4.324255e+0, 2.4414063e-3, 523628.9, -0.000000000000000000000020511751, 0.000000005789409, 0.30186224, 0.0, 523628.9, 523628.9, 0.24269979, 0.004916928, 0.0048828125 
4.324255e+0, 7.324219e-3, 523628.9, -0.000000000000000000000020468353, 0.000000005783281, 0.30186224, 0.0, 523628.9, 523628.9, 0.24269979, 0.004916928, 0.0048828125 
4.329172e+0, 2.4414063e-3, 523918.34, -0.0000000000000000000000025213172, -0.0000000020303363, 0.30034515, 0.0, 523918.34, 523918.34, 0.24269862, 0.004916947, 0.0048828125 
4.329172e+0, 7.324219e-3, 523918.34, -0.0000000000000000000000025072469, -0.000000002024663, 0.30034515, 0.0, 523918.34, 523918.34, 0.24269862, 0.004916947, 0.0048828125 
4.334089e+0, 2.4414063e-3, 523958.3, -0.00000000000000000000000038343805, -0.0000000007918087, 0.2988315, 0.0, 523958.3, 523958.3, 0.24269708, 0.004916949, 0.0048828125 
4.334089e+0, 7.324219e-3, 523958.3, -0.00000000000000000000000037395599, -0.00000000078195705, 0.2988315, 0.0, 523958.3, 523958.3, 0.24269708, 0.004916949, 0.0048828125 
4.339006e+0, 2.4414063e-3, 524243.75, -0.000000000000000000000004884154, 0.0000000028267535, 0.2973228, 0.0, 524243.75, 524243.75, 0.2426951, 0.0049169683, 0.0048828125 
4.339006e+0, 7.324219e-3, 524243.75, -0.0000000000000000000000048590365, 0.0000000028194758, 0.2973228, 0.0, 524243.75, 524243.75, 0.2426951, 0.0049169683, 0.0048828125 
4.3439227e+0, 2.4414063e-3, 524282.3, -0.00000000000000000000000019388858, 0.0000000005632332, 0.29581735, 0.0, 524282.3, 524282.3, 0.24269268, 0.0049169706, 0.0048828125 
4.3439227e+0, 7.324219e-3, 524282.3, -0.00000000000000000000000019653481, 0.00000000056706373, 0.29581735, 0.0, 524282.3, 524282.3, 0.24269268, 0.0049169706, 0.0048828125 
4.3488398e+0, 2.4414063e-3, 524562.25, -0.00000000000000000000000050301144, -0.0000000009074452, 0.2943167, 0.0, 524562.25, 524562.25, 0.24268982, 0.004916989, 0.0048828125 
4.3488398e+0, 7.324219e-3, 524562.25, -0.00000000000000000000000047416067, -0.0000000008810372, 0.2943167, 0.0, 524562.25, 524562.25, 0.24268982, 0.004916989, 0.0048828125 
4.353757e+0, 2.4414063e-3, 524601.75, -0.000000000000000000000000002143645, -0.0000000000592418, 0.29281908, 0.0, 524601.75, 524601.75, 0.24268648, 0.004916991, 0.0048828125 
4.353757e+0, 7.324219e-3, 524601.75, -0.000000000000000000000000005277023, -0.00000000009294933, 0.29281908, 0.0, 524601.75, 524601.75, 0.24268648, 0.004916991, 0.0048828125 
4.3586737e+0, 2.4414063e-3, 524874.7, -0.000000000000000000000000030625254, 0.00000000022397993, 0.2913262, 0.0, 524874.7, 524874.7, 0.24268267, 0.0049170093, 0.0048828125 
4.3586737e+0, 7.324219e-3, 524874.7, -0.000000000000000000000000027425785, 0.00000000021195751, 0.2913262, 0.0, 524874.7, 524874.7, 0.24268267, 0.0049170093, 0.0048828125 
4.3635908e+0, 2.4414063e-3, 524915.9, -0.000000000000000000000000023572369, 0.0000000001965138, 0.28983617, 0.0, 524915.9, 524915.9, 0.24267833, 0.0049170116, 0.0048828125 
4.3635908e+0, 7.324219e-3, 524915.9, -0.000000000000000000000000028007613, 0.00000000021420495, 0.28983617, 0.0, 524915.9, 524915.9, 0.24267833, 0.0049170116, 0.0048828125 
4.3685073e+0, 2.4414063e-3, 525181.1, -0.000000000000000000000000015920105, 0.00000000016153992, 0.2883509, 0.0, 525181.1, 525181.1, 0.24267349, 0.004917029, 0.0048828125 
4.3685073e+0, 7.324219e-3, 525181.1, -0.000000000000000000000000017261719, 0.00000000016820889, 0.2883509, 0.0, 525181.1, 525181.1, 0.24267349, 0.004917029, 0.0048828125 
4.3734246e+0, 2.4414063e-3, 525224.7, -0.0000000000000000000000000003759107, 0.000000000024824108, 0.28686836, 0.0, 525224.7, 525224.7, 0.24266809, 0.0049170316, 0.0048828125 
4.3734246e+0, 7.324219e-3, 525224.7, -0.00000000000000000000000000046709545, 0.00000000002767159, 0.28686836, 0.0, 525224.7, 525224.7, 0.24266809, 0.0049170316, 0.0048828125 
4.3783417e+0, 2.4414063e-3, 525482.3, -0.0000000000000000000000000018796134, 0.000000000055523794, 0.28539065, 0.0, 525482.3, 525482.3, 0.24266213, 0.004917048, 0.0048828125 
4.3783417e+0, 7.324219e-3, 525482.3, -0.0000000000000000000000000019568423, 0.000000000056652984, 0.28539065, 0.0, 525482.3, 525482.3, 0.24266213, 0.004917048, 0.0048828125 
4.3832582e+0, 2.4414063e-3, 525527.5, -0.000000000000000000000000015353218, -0.00000000015869783, 0.28391558, 0.0, 525527.5, 525527.5, 0.24265558, 0.0049170507, 0.0048828125 
4.3832582e+0, 7.324219e-3, 525527.5, -0.000000000000000000000000020524253, -0.00000000018348686, 0.28391558, 0.0, 525527.5, 525527.5, 0.24265558, 0.0049170507, 0.0048828125 
4.3881756e+0, 2.4414063e-3, 525778.44, -0.0000000000000000000000000934452, -0.00000000039161738, 0.28244534, 0.0, 525778.44, 525778.44, 0.24264842, 0.004917067, 0.0048828125 
4.3881756e+0, 7.324219e-3, 525778.44, -0.00000000000000000000000009679786, -0.00000000039858075, 0.28244534, 0.0, 525778.44, 525778.44, 0.24264842, 0.004917067, 0.0048828125 
4.3930927e+0, 2.4414063e-3, 525824.1, -0.000000000000000000000000048896397, -0.00000000028330222, 0.28097767, 0.0, 525824.1, 525824.1, 0.24264063, 0.00491707, 0.0048828125 
4.3930927e+0, 7.324219e-3, 525824.1, -0.000000000000000000000000043789068, -0.0000000002680985, 0.28097767, 0.0, 525824.1, 525824.1, 0.24264063, 0.00491707, 0.0048828125 
4.3980098e+0, 2.4414063e-3, 526069.6, -0.000000000000000000000000021831827, 0.00000000018935115, 0.2795148, 0.0, 526069.6, 526069.6, 0.2426322, 0.0049170856, 0.0048828125 
4.3980098e+0, 7.324219e-3, 526069.6, -0.000000000000000000000000018708248, 0.00000000017528287, 0.2795148, 0.0, 526069.6, 526069.6, 0.2426322, 0.0049170856, 0.0048828125 
4.402927e+0, 2.4414063e-3, 526114.6, -0.000000000000000000000000038154247, 0.00000000025033622, 0.2780544, 0.0, 526114.6, 526114.6, 0.24262306, 0.004917088, 0.0048828125 
4.402927e+0, 7.324219e-3, 526114.6, -0.000000000000000000000000042422114, 0.00000000026396627, 0.2780544, 0.0, 526114.6, 526114.6, 0.24262306, 0.004917088, 0.0048828125 
4.4078436e+0, 2.4414063e-3, 526355.1, -0.0000000000000000000000000018359992, 0.00000000005492871, 0.2765987, 0.0, 526355.1, 526355.1, 0.24261323, 0.0049171033, 0.0048828125 
4.4078436e+0, 7.324219e-3, 526355.1, -0.0000000000000000000000000013023762, 0.000000000046262744, 0.2765987, 0.0, 526355.1, 526355.1, 0.24261323, 0.0049171033, 0.0048828125 
4.4127607e+0, 2.4414063e-3, 526400.25, -0.000000000000000000000000029807307, 0.00000000022133784, 0.27514532, 0.0, 526400.25, 526400.25, 0.24260265, 0.0049171057, 0.0048828125 
4.4127607e+0, 7.324219e-3, 526400.25, -0.000000000000000000000000023866389, 0.00000000019805584, 0.27514532, 0.0, 526400.25, 526400.25, 0.24260265, 0.0049171057, 0.0048828125 
4.4176778e+0, 2.4414063e-3, 526634.75, -0.00000000000000000000000012381401, 0.00000000045122103, 0.27369657, 0.0, 526634.75, 526634.75, 0.24259132, 0.0049171206, 0.0048828125 
4.4176778e+0, 7.324219e-3, 526634.75, -0.00000000000000000000000011814708, 0.00000000044077397, 0.27369657, 0.0, 526634.75, 526634.75, 0.24259132, 0.0049171206, 0.0048828125 
4.422595e+0, 2.4414063e-3, 526681.2, -0.000000000000000000000000082799894, 0.00000000036902248, 0.27225, 0.0, 526681.2, 526681.2, 0.24257918, 0.0049171234, 0.0048828125 
4.422595e+0, 7.324219e-3, 526681.2, -0.000000000000000000000000079514357, 0.0000000003616269, 0.27225, 0.0, 526681.2, 526681.2, 0.24257918, 0.0049171234, 0.0048828125 
4.4275123e+0, 2.4414063e-3, 526909.7, -0.0000000000000000000000015827907, 0.0000000016138352, 0.2708079, 0.0, 526909.7, 526909.7, 0.24256623, 0.004917138, 0.0048828125 
4.4275123e+0, 7.324219e-3, 526909.7, -0.0000000000000000000000016042829, 0.0000000016247551, 0.2708079, 0.0, 526909.7, 526909.7, 0.24256623, 0.004917138, 0.0048828125 
4.4324294e+0, 2.4414063e-3, 526956.25, -0.000000000000000000000013861555, 0.000000004776271, 0.2693678, 0.0, 526956.25, 526956.25, 0.24255241, 0.00491714, 0.0048828125 
4.4324294e+0, 7.324219e-3, 526956.25, -0.000000000000000000000013957433, 0.000000004792761, 0.2693678, 0.0, 526956.25, 526956.25, 0.24255241, 0.00491714, 0.0048828125 
4.4373465e+0, 2.4414063e-3, 527180.25, -0.0000000000000000000000013941469, -0.0000000015151197, 0.26793206, 0.0, 527180.25, 527180.25, 0.2425377, 0.004917154, 0.0048828125 
4.4373465e+0, 7.324219e-3, 527180.25, -0.0000000000000000000000013685994, -0.0000000015011733, 0.26793206, 0.0, 527180.25, 527180.25, 0.2425377, 0.004917154, 0.0048828125 
4.4422632e+0, 2.4414063e-3, 527225.44, -0.00000000000000000000007596252, -0.000000011184832, 0.26649824, 0.0, 527225.44, 527225.44, 0.24252208, 0.0049171564, 0.0048828125 
4.4422632e+0, 7.324219e-3, 527225.44, -0.00000000000000000000007486034, -0.000000011103392, 0.26649824, 0.0, 527225.44, 527225.44, 0.24252208, 0.0049171564, 0.0048828125 
4.4471803e+0, 2.4414063e-3, 527446.44, -0.000000000000000000000002641554, -0.0000000020862683, 0.26506865, 0.0, 527446.44, 527446.44, 0.24250549, 0.0049171704, 0.0048828125 
4.4471803e+0, 7.324219e-3, 527446.44, -0.0000000000000000000000026063562, -0.0000000020723223, 0.26506865, 0.0, 527446.44, 527446.44, 0.24250549, 0.0049171704, 0.0048828125 
4.4520974e+0, 2.4414063e-3, 527489.0, -0.0000000000000000000000020356861, 0.0000000018316147, 0.2636409, 0.0, 527489.0, 527489.0, 0.2424879, 0.0049171722, 0.0048828125 
4.4520974e+0, 7.324219e-3, 527489.0, -0.000000000000000000000002106116, 0.0000000018630302, 0.2636409, 0.0, 527489.0, 527489.0, 0.2424879, 0.0049171722, 0.0048828125 
4.4570145e+0, 2.4414063e-3, 527707.44, -0.00000000000000000000000705304, -0.000000003410192, 0.26221734, 0.0, 527707.44, 527707.44, 0.24246928, 0.0049171858, 0.0048828125 
4.4570145e+0, 7.324219e-3, 527707.44, -0.000000000000000000000007089002, -0.000000003418875, 0.26221734, 0.0, 527707.44, 527707.44, 0.24246928, 0.0049171858, 0.0048828125 
4.4619316e+0, 2.4414063e-3, 527748.4, -0.000000000000000000000052881925, 0.000000009338658, 0.26079556, 0.0, 527748.4, 527748.4, 0.24244958, 0.0049171876, 0.0048828125 
4.4619316e+0, 7.324219e-3, 527748.4, -0.000000000000000000000052449588, 0.000000009300405, 0.26079556, 0.0, 527748.4, 527748.4, 0.24244958, 0.0049171876, 0.0048828125 
4.466849e+0, 2.4414063e-3, 527963.3, -0.00000000000000000000006212172, 0.000000010124314, 0.25937787, 0.0, 527963.3, 527963.3, 0.24242876, 0.0049172007, 0.0048828125 
4.466849e+0, 7.324219e-3, 527963.3, -0.000000000000000000000062169024, 0.0000000101281685, 0.25937787, 0.0, 527963.3, 527963.3, 0.24242876, 0.0049172007, 0.0048828125 
4.471766e+0, 2.4414063e-3, 528002.7, -0.0000000000000000000000013768783, -0.0000000015074186, 0.25796184, 0.0, 528002.7, 528002.7, 0.24240679, 0.0049172025, 0.0048828125 
4.471766e+0, 7.324219e-3, 528002.7, -0.0000000000000000000000013727071, -0.0000000015051335, 0.25796184, 0.0, 528002.7, 528002.7, 0.24240679, 0.0049172025, 0.0048828125 
4.476683e+0, 2.4414063e-3, 528214.6, -0.000000000000000000000000034535505, -0.00000000023879956, 0.25654984, 0.0, 528214.6, 528214.6, 0.24238361, 0.004917215, 0.0048828125 
4.476683e+0, 7.324219e-3, 528214.6, -0.000000000000000000000000039315472, -0.00000000025479, 0.25654984, 0.0, 528214.6, 528214.6, 0.24238361, 0.004917215, 0.0048828125 
4.4816002e+0, 2.4414063e-3, 528252.06, -0.000000000000000000000036609416, -0.000000007775733, 0.2551394, 0.0, 528252.06, 528252.06, 0.24235918, 0.0049172165, 0.0048828125 
4.4816002e+0, 7.324219e-3, 528252.06, -0.000000000000000000000036897416, -0.000000007806259, 0.2551394, 0.0, 528252.06, 528252.06, 0.24235918, 0.0049172165, 0.0048828125 
4.486518e+0, 2.4414063e-3, 528460.7, -0.00000000000000000000008079664, -0.000000011554676, 0.25373286, 0.0, 528460.7, 528460.7, 0.24233343, 0.004917229, 0.0048828125 
4.486518e+0, 7.324219e-3, 528460.7, -0.00000000000000000000008036484, -0.00000001152376, 0.25373286, 0.0, 528460.7, 528460.7, 0.24233343, 0.004917229, 0.0048828125 
4.491435e+0, 2.4414063e-3, 528497.44, -0.000000000000000000000007456527, 0.0000000035105618, 0.25232783, 0.0, 528497.44, 528497.44, 0.24230634, 0.0049172305, 0.0048828125 
4.491435e+0, 7.324219e-3, 528497.44, -0.000000000000000000000007389652, 0.0000000034947838, 0.25232783, 0.0, 528497.44, 528497.44, 0.24230634, 0.0049172305, 0.0048828125 
4.496352e+0, 2.4414063e-3, 528701.7, -0.00000000000000000000008333492, 0.000000011739226, 0.25092646, 0.0, 528701.7, 528701.7, 0.24227785, 0.0049172426, 0.0048828125 
4.496352e+0, 7.324219e-3, 528701.7, -0.000000000000000000000083246156, 0.000000011732972, 0.25092646, 0.0, 528701.7, 528701.7, 0.24227785, 0.0049172426, 0.0048828125 
4.5012695e+0, 2.4414063e-3, 528738.56, -0.00000000000000000000000027901157, 0.00000000067934064, 0.24952652, 0.0, 528738.56, 528738.56, 0.2422479, 0.0049172435, 0.0048828125 
4.5012695e+0, 7.324219e-3, 528738.56, -0.00000000000000000000000027830167, 0.0000000006784759, 0.24952652, 0.0, 528738.56, 528738.56, 0.2422479, 0.0049172435, 0.0048828125 
4.5061865e+0, 2.4414063e-3, 528938.2, -0.00000000000000000000006924967, -0.000000010705441, 0.24813011, 0.0, 528938.2, 528938.2, 0.24221644, 0.004917255, 0.0048828125 
4.5061865e+0, 7.324219e-3, 528938.2, -0.00000000000000000000006864411, -0.000000010658531, 0.24813011, 0.0, 528938.2, 528938.2, 0.24221644, 0.004917255, 0.0048828125 
4.5111036e+0, 2.4414063e-3, 528974.9, -0.00000000000000000000000014457618, 0.0000000004892133, 0.24673502, 0.0, 528974.9, 528974.9, 0.24218342, 0.004917256, 0.0048828125 
4.5111036e+0, 7.324219e-3, 528974.9, -0.00000000000000000000000014157922, 0.0000000004841162, 0.24673502, 0.0, 528974.9, 528974.9, 0.24218342, 0.004917256, 0.0048828125 
4.5160207e+0, 2.4414063e-3, 529171.1, -0.000000000000000000000048181728, 0.0000000089333145, 0.24534331, 0.0, 529171.1, 529171.1, 0.24214876, 0.0049172672, 0.0048828125 
4.5160207e+0, 7.324219e-3, 529171.1, -0.00000000000000000000004769794, 0.000000008888352, 0.24534331, 0.0, 529171.1, 529171.1, 0.24214876, 0.0049172672, 0.0048828125 
4.5209378e+0, 2.4414063e-3, 529205.5, -0.000000000000000000000004172084, -0.0000000026290878, 0.24395284, 0.0, 529205.5, 529205.5, 0.24211241, 0.004917268, 0.0048828125 
4.5209378e+0, 7.324219e-3, 529205.5, -0.000000000000000000000004094412, -0.0000000026045, 0.24395284, 0.0, 529205.5, 529205.5, 0.24211241, 0.004917268, 0.0048828125 
4.5258555e+0, 2.4414063e-3, 529400.1, -0.0000000000000000000000016143212, -0.0000000016358689, 0.24256563, 0.0, 529400.1, 529400.1, 0.24207431, 0.004917279, 0.0048828125 
4.5258555e+0, 7.324219e-3, 529400.1, -0.0000000000000000000000016351938, -0.0000000016464105, 0.24256563, 0.0, 529400.1, 529400.1, 0.24207431, 0.004917279, 0.0048828125 
4.5307726e+0, 2.4414063e-3, 529431.75, -0.0000000000000000000000055454997, 0.000000003032383, 0.24117959, 0.0, 529431.75, 529431.75, 0.2420344, 0.0049172794, 0.0048828125 
4.5307726e+0, 7.324219e-3, 529431.75, -0.0000000000000000000000054692153, 0.000000003011454, 0.24117959, 0.0, 529431.75, 529431.75, 0.2420344, 0.0049172794, 0.0048828125 
4.53569e+0, 2.4414063e-3, 529624.44, -0.000000000000000000000013609704, -0.000000004751892, 0.2397967, 0.0, 529624.44, 529624.44, 0.24199261, 0.00491729, 0.0048828125 
4.53569e+0, 7.324219e-3, 529624.44, -0.000000000000000000000013519067, -0.0000000047360427, 0.2397967, 0.0, 529624.44, 529624.44, 0.24199261, 0.00491729, 0.0048828125 
4.540607e+0, 2.4414063e-3, 529654.3, -0.0000000000000000000000019181019, -0.0000000017841941, 0.23841491, 0.0, 529654.3, 529654.3, 0.24194886, 0.00491729, 0.0048828125 
4.540607e+0, 7.324219e-3, 529654.3, -0.0000000000000000000000017774758, -0.000000001717545, 0.23841491, 0.0, 529654.3, 529654.3, 0.24194886, 0.00491729, 0.0048828125 
4.545524e+0, 2.4414063e-3, 529843.7, -0.00000000000000000000002203684, 0.0000000060494063, 0.23703615, 0.0, 529843.7, 529843.7, 0.2419031, 0.0049173003, 0.0048828125 
4.545524e+0, 7.324219e-3, 529843.7, -0.000000000000000000000022026361, 0.000000006047968, 0.23703615, 0.0, 529843.7, 529843.7, 0.2419031, 0.0049173003, 0.0048828125 
4.5504418e+0, 2.4414063e-3, 529873.44, -0.00000000000000000000000004246196, 0.0000000002655871, 0.23565844, 0.0, 529873.44, 529873.44, 0.24185523, 0.0049173, 0.0048828125 
4.5504418e+0, 7.324219e-3, 529873.44, -0.00000000000000000000000004508057, 0.00000000027365393, 0.23565844, 0.0, 529873.44, 529873.44, 0.24185523, 0.0049173, 0.0048828125 
4.555359e+0, 2.4414063e-3, 530057.9, -0.000000000000000000000011860885, -0.000000004440178, 0.2342836, 0.0, 530057.9, 530057.9, 0.2418052, 0.00491731, 0.0048828125 
4.555359e+0, 7.324219e-3, 530057.9, -0.000000000000000000000011836067, -0.00000000443553, 0.2342836, 0.0, 530057.9, 530057.9, 0.2418052, 0.00491731, 0.0048828125 
4.560276e+0, 2.4414063e-3, 530089.1, -0.000000000000000000000000010253961, 0.0000000001305757, 0.23290975, 0.0, 530089.1, 530089.1, 0.24175292, 0.0049173096, 0.0048828125 
4.560276e+0, 7.324219e-3, 530089.1, -0.000000000000000000000000008085923, 0.00000000011595284, 0.23290975, 0.0, 530089.1, 530089.1, 0.24175292, 0.0049173096, 0.0048828125 
4.565193e+0, 2.4414063e-3, 530267.4, -0.000000000000000000000003417124, 0.0000000023844304, 0.23153862, 0.0, 530267.4, 530267.4, 0.24169832, 0.004917319, 0.0048828125 
4.565193e+0, 7.324219e-3, 530267.4, -0.0000000000000000000000034048286, 0.0000000023801365, 0.23153862, 0.0, 530267.4, 530267.4, 0.24169832, 0.004917319, 0.0048828125 
4.5701107e+0, 2.4414063e-3, 530301.2, -0.00000000000000000000000003248234, -0.00000000023251946, 0.23016843, 0.0, 530301.2, 530301.2, 0.24164131, 0.0049173185, 0.0048828125 
4.5701107e+0, 7.324219e-3, 530301.2, -0.000000000000000000000000031049374, -0.00000000022733278, 0.23016843, 0.0, 530301.2, 530301.2, 0.24164131, 0.0049173185, 0.0048828125 
4.5750278e+0, 2.4414063e-3, 530472.3, -0.0000000000000000000000008558676, -0.0000000011939318, 0.22880079, 0.0, 530472.3, 530472.3, 0.24158183, 0.004917327, 0.0048828125 
4.5750278e+0, 7.324219e-3, 530472.3, -0.0000000000000000000000008793364, -0.0000000012101906, 0.22880079, 0.0, 530472.3, 530472.3, 0.24158183, 0.004917327, 0.0048828125 
4.5799452e+0, 2.4414063e-3, 530509.56, -0.000000000000000000000000014029187, 0.00000000015289078, 0.22743401, 0.0, 530509.56, 530509.56, 0.24151978, 0.0049173264, 0.0048828125 
4.5799452e+0, 7.324219e-3, 530509.56, -0.000000000000000000000000014819034, 0.00000000015713575, 0.22743401, 0.0, 530509.56, 530509.56, 0.24151978, 0.0049173264, 0.0048828125 
4.5848626e+0, 2.4414063e-3, 530673.1, -0.00000000000000000000000041429116, 0.0000000008311158, 0.22606961, 0.0, 530673.1, 530673.1, 0.24145506, 0.0049173343, 0.0048828125 
4.5848626e+0, 7.324219e-3, 530673.1, -0.00000000000000000000000041296802, 0.0000000008297875, 0.22606961, 0.0, 530673.1, 530673.1, 0.24145506, 0.0049173343, 0.0048828125 
4.58978e+0, 2.4414063e-3, 530713.8, -0.00000000000000000000000000017812006, -0.000000000017237003, 0.22470602, 0.0, 530713.8, 530713.8, 0.2413876, 0.004917334, 0.0048828125 
4.58978e+0, 7.324219e-3, 530713.8, -0.00000000000000000000000000038497219, -0.000000000025340782, 0.22470602, 0.0, 530713.8, 530713.8, 0.2413876, 0.004917334, 0.0048828125 
4.594697e+0, 2.4414063e-3, 530870.25, -0.00000000000000000000000005292405, -0.0000000002972208, 0.22334468, 0.0, 530870.25, 530870.25, 0.24131733, 0.004917341, 0.0048828125 
4.594697e+0, 7.324219e-3, 530870.25, -0.00000000000000000000000005585787, -0.00000000030534786, 0.22334468, 0.0, 530870.25, 530870.25, 0.24131733, 0.004917341, 0.0048828125 
4.5996147e+0, 2.4414063e-3, 530913.75, -0.000000000000000000000000024131455, 0.000000000200747, 0.22198409, 0.0, 530913.75, 530913.75, 0.24124414, 0.0049173404, 0.0048828125 
4.5996147e+0, 7.324219e-3, 530913.75, -0.000000000000000000000000024875206, 0.00000000020381712, 0.22198409, 0.0, 530913.75, 530913.75, 0.24124414, 0.0049173404, 0.0048828125 
4.6045318e+0, 2.4414063e-3, 531063.94, -0.00000000000000000000000000050595586, 0.000000000029078063, 0.22062558, 0.0, 531063.94, 531063.94, 0.24116792, 0.004917347, 0.0048828125 
4.6045318e+0, 7.324219e-3, 531063.94, -0.0000000000000000000000000011128465, 0.000000000043124768, 0.22062558, 0.0, 531063.94, 531063.94, 0.24116792, 0.004917347, 0.0048828125 
4.609449e+0, 2.4414063e-3, 531109.06, -0.00000000000000000000000010860474, -0.00000000042613393, 0.21926779, 0.0, 531109.06, 531109.06, 0.24108861, 0.004917346, 0.0048828125 
4.609449e+0, 7.324219e-3, 531109.06, -0.00000000000000000000000011014562, -0.00000000042914625, 0.21926779, 0.0, 531109.06, 531109.06, 0.24108861, 0.004917346, 0.0048828125 
4.6143666e+0, 2.4414063e-3, 531254.6, -0.000000000000000000000000011557696, -0.00000000013906402, 0.21791194, 0.0, 531254.6, 531254.6, 0.2410061, 0.004917352, 0.0048828125 
4.6143666e+0, 7.324219e-3, 531254.6, -0.00000000000000000000000000694335, -0.000000000107786335, 0.21791194, 0.0, 531254.6, 531254.6, 0.2410061, 0.004917352, 0.0048828125 
4.6192837e+0, 2.4414063e-3, 531299.3, -0.000000000000000000000000056411166, 0.00000000030731365, 0.21655677, 0.0, 531299.3, 531299.3, 0.2409203, 0.0049173506, 0.0048828125 
4.6192837e+0, 7.324219e-3, 531299.3, -0.000000000000000000000000052347435, 0.0000000002960377, 0.21655677, 0.0, 531299.3, 531299.3, 0.2409203, 0.0049173506, 0.0048828125 
4.6242008e+0, 2.4414063e-3, 531441.8, -0.000000000000000000000000021187174, 0.00000000018840828, 0.21520343, 0.0, 531441.8, 531441.8, 0.24083112, 0.004917356, 0.0048828125 
4.6242008e+0, 7.324219e-3, 531441.8, -0.000000000000000000000000018724746, 0.00000000017712155, 0.21520343, 0.0, 531441.8, 531441.8, 0.24083112, 0.004917356, 0.0048828125 
4.6291184e+0, 2.4414063e-3, 531486.1, -0.000000000000000000000000011855924, 0.0000000001409806, 0.21385069, 0.0, 531486.1, 531486.1, 0.24073845, 0.004917355, 0.0048828125 
4.6291184e+0, 7.324219e-3, 531486.1, -0.0000000000000000000000000128425246, 0.00000000014672931, 0.21385069, 0.0, 531486.1, 531486.1, 0.24073845, 0.004917355, 0.0048828125 
4.6340355e+0, 2.4414063e-3, 531623.9, -0.000000000000000000000000037781633, 0.00000000025176924, 0.21249968, 0.0, 531623.9, 531623.9, 0.24064219, 0.0049173594, 0.0048828125 
4.6340355e+0, 7.324219e-3, 531623.9, -0.00000000000000000000000003659682, 0.0000000002477901, 0.21249968, 0.0, 531623.9, 531623.9, 0.24064219, 0.0049173594, 0.0048828125 
4.6389526e+0, 2.4414063e-3, 531671.5, -0.000000000000000000000000026231576, -0.0000000002098518, 0.21114922, 0.0, 531671.5, 531671.5, 0.24054226, 0.004917358, 0.0048828125 
4.6389526e+0, 7.324219e-3, 531671.5, -0.0000000000000000000000000261356, -0.00000000020946754, 0.21114922, 0.0, 531671.5, 531671.5, 0.24054226, 0.004917358, 0.0048828125 
4.6438703e+0, 2.4414063e-3, 531799.75, -0.000000000000000000000000043405515, -0.00000000027005276, 0.20980033, 0.0, 531799.75, 531799.75, 0.24043855, 0.0049173613, 0.0048828125 
4.6438703e+0, 7.324219e-3, 531799.75, -0.000000000000000000000000039095648, -0.00000000025629515, 0.20980033, 0.0, 531799.75, 531799.75, 0.24043855, 0.0049173613, 0.0048828125 
4.6487874e+0, 2.4414063e-3, 531855.8, -0.00000000000000000000000001927199, 0.00000000018000738, 0.20845197, 0.0, 531855.8, 531855.8, 0.24033096, 0.0049173604, 0.0048828125 
4.6487874e+0, 7.324219e-3, 531855.8, -0.00000000000000000000000002075226, 0.00000000018679262, 0.20845197, 0.0, 531855.8, 531855.8, 0.24033096, 0.0049173604, 0.0048828125 
4.6537048e+0, 2.4414063e-3, 531969.75, -0.00000000000000000000000002579955, -0.00000000020835902, 0.20710507, 0.0, 531969.75, 531969.75, 0.24021941, 0.0049173627, 0.0048828125 
4.6537048e+0, 7.324219e-3, 531969.75, -0.000000000000000000000000021367053, -0.00000000018961756, 0.20710507, 0.0, 531969.75, 531969.75, 0.24021941, 0.0049173627, 0.0048828125 
4.658622e+0, 2.4414063e-3, 532037.5, -0.000000000000000000000000008436145, -0.000000000119191, 0.20575863, 0.0, 532037.5, 532037.5, 0.24010378, 0.004917362, 0.0048828125 
4.658622e+0, 7.324219e-3, 532037.5, -0.000000000000000000000000012148629, -0.00000000014303263, 0.20575863, 0.0, 532037.5, 532037.5, 0.24010378, 0.004917362, 0.0048828125 
4.6635395e+0, 2.4414063e-3, 532136.8, -0.000000000000000000000000084069295, 0.00000000037642056, 0.2044135, 0.0, 532136.8, 532136.8, 0.23998398, 0.0049173627, 0.0048828125 
4.6635395e+0, 7.324219e-3, 532136.8, -0.0000000000000000000000000976656, 0.0000000004057191, 0.2044135, 0.0, 532136.8, 532136.8, 0.23998398, 0.0049173627, 0.0048828125 
4.668457e+0, 2.4414063e-3, 532211.9, -0.000000000000000000000000067706785, 0.0000000003379474, 0.20306882, 0.0, 532211.9, 532211.9, 0.23985991, 0.004917362, 0.0048828125 
4.668457e+0, 7.324219e-3, 532211.9, -0.000000000000000000000000049468897, 0.0000000002888678, 0.20306882, 0.0, 532211.9, 532211.9, 0.23985991, 0.004917362, 0.0048828125 
4.6733743e+0, 2.4414063e-3, 532302.75, -0.0000000000000000000000016882872, 0.0000000016882867, 0.20172535, 0.0, 532302.75, 532302.75, 0.23973148, 0.004917362, 0.0048828125 
4.6733743e+0, 7.324219e-3, 532302.75, -0.0000000000000000000000017482718, 0.0000000017180172, 0.20172535, 0.0, 532302.75, 532302.75, 0.23973148, 0.004917362, 0.0048828125 
4.6782914e+0, 2.4414063e-3, 532381.1, -0.000000000000000000000010752024, 0.0000000042624424, 0.20038229, 0.0, 532381.1, 532381.1, 0.23959857, 0.004917361, 0.0048828125 
4.6782914e+0, 7.324219e-3, 532381.1, -0.000000000000000000000010677664, 0.0000000042476773, 0.20038229, 0.0, 532381.1, 532381.1, 0.23959857, 0.004917361, 0.0048828125 
4.683209e+0, 2.4414063e-3, 532465.6, -0.00000000000000000000000005216944, -0.00000000029704333, 0.19904034, 0.0, 532465.6, 532465.6, 0.23946112, 0.0049173604, 0.0048828125 
4.683209e+0, 7.324219e-3, 532465.6, -0.000000000000000000000000050724092, -0.00000000029289965, 0.19904034, 0.0, 532465.6, 532465.6, 0.23946112, 0.0049173604, 0.0048828125 
4.688126e+0, 2.4414063e-3, 532546.75, -0.00000000000000000000005589233, -0.000000009727256, 0.19769876, 0.0, 532546.75, 532546.75, 0.23931901, 0.004917359, 0.0048828125 
4.688126e+0, 7.324219e-3, 532546.75, -0.000000000000000000000055541544, -0.000000009696684, 0.19769876, 0.0, 532546.75, 532546.75, 0.23931901, 0.004917359, 0.0048828125 
4.6930432e+0, 2.4414063e-3, 532625.4, -0.000000000000000000000006466444, -0.0000000033102003, 0.19635819, 0.0, 532625.4, 532625.4, 0.23917216, 0.0049173576, 0.0048828125 
4.6930432e+0, 7.324219e-3, 532625.4, -0.000000000000000000000006498208, -0.0000000033183205, 0.19635819, 0.0, 532625.4, 532625.4, 0.23917216, 0.0049173576, 0.0048828125 
4.697961e+0, 2.4414063e-3, 532707.06, -0.000000000000000000000015251231, 0.00000000508614, 0.19501796, 0.0, 532707.06, 532707.06, 0.23902048, 0.0049173557, 0.0048828125 
4.697961e+0, 7.324219e-3, 532707.06, -0.00000000000000000000001519624, 0.000000005076962, 0.19501796, 0.0, 532707.06, 532707.06, 0.23902048, 0.0049173557, 0.0048828125 
4.702878e+0, 2.4414063e-3, 532782.56, -0.000000000000000000000003276348, -0.0000000023585693, 0.19367865, 0.0, 532782.56, 532782.56, 0.23886387, 0.004917354, 0.0048828125 
4.702878e+0, 7.324219e-3, 532782.56, -0.0000000000000000000000032000569, -0.0000000023309477, 0.19367865, 0.0, 532782.56, 532782.56, 0.23886387, 0.004917354, 0.0048828125 
4.707795e+0, 2.4414063e-3, 532862.75, -0.0000000000000000000000051269017, 0.0000000029519358, 0.19233964, 0.0, 532862.75, 532862.75, 0.23870225, 0.0049173515, 0.0048828125 
4.707795e+0, 7.324219e-3, 532862.75, -0.000000000000000000000004873073, 0.0000000028779341, 0.19233964, 0.0, 532862.75, 532862.75, 0.23870225, 0.0049173515, 0.0048828125 
4.7127128e+0, 2.4414063e-3, 532936.3, -0.000000000000000000000038390834, 0.000000008082067, 0.19100147, 0.0, 532936.3, 532936.3, 0.23853552, 0.0049173487, 0.0048828125 
4.7127128e+0, 7.324219e-3, 532936.3, -0.0000000000000000000000382274, 0.000000008064845, 0.19100147, 0.0, 532936.3, 532936.3, 0.23853552, 0.0049173487, 0.0048828125 
4.7176298e+0, 2.4414063e-3, 533015.5, -0.000000000000000000000015646908, -0.0000000051625078, 0.1896636, 0.0, 533015.5, 533015.5, 0.23836362, 0.004917346, 0.0048828125 
4.7176298e+0, 7.324219e-3, 533015.5, -0.000000000000000000000015542333, -0.0000000051452274, 0.1896636, 0.0, 533015.5, 533015.5, 0.23836362, 0.004917346, 0.0048828125 
4.722547e+0, 2.4414063e-3, 533085.25, -0.000000000000000000000010195437, -0.0000000041695554, 0.18832648, 0.0, 533085.25, 533085.25, 0.23818646, 0.004917342, 0.0048828125 
4.722547e+0, 7.324219e-3, 533085.25, -0.000000000000000000000009959601, -0.0000000041210493, 0.18832648, 0.0, 533085.25, 533085.25, 0.23818646, 0.004917342, 0.0048828125 
4.7274646e+0, 2.4414063e-3, 533165.75, -0.0000000000000000000000049442054, 0.000000002905269, 0.18698962, 0.0, 533165.75, 533165.75, 0.23800397, 0.0049173394, 0.0048828125 
4.7274646e+0, 7.324219e-3, 533165.75, -0.000000000000000000000004891834, 0.0000000028898408, 0.18698962, 0.0, 533165.75, 533165.75, 0.23800397, 0.0049173394, 0.0048828125 
4.7323817e+0, 2.4414063e-3, 533229.56, -0.000000000000000000000003394352, -0.0000000024086158, 0.18565345, 0.0, 533229.56, 533229.56, 0.23781607, 0.0049173348, 0.0048828125 
4.7323817e+0, 7.324219e-3, 533229.56, -0.0000000000000000000000033722995, -0.000000002400779, 0.18565345, 0.0, 533229.56, 533229.56, 0.23781607, 0.0049173348, 0.0048828125 
4.737299e+0, 2.4414063e-3, 533312.5, -0.0000000000000000000000011637412, 0.0000000014111813, 0.18431751, 0.0, 533312.5, 533312.5, 0.23762266, 0.0049173315, 0.0048828125 
4.737299e+0, 7.324219e-3, 533312.5, -0.0000000000000000000000011323595, 0.0000000013920243, 0.18431751, 0.0, 533312.5, 533312.5, 0.23762266, 0.0049173315, 0.0048828125 
4.7422165e+0, 2.4414063e-3, 533369.6, -0.000000000000000000000046169618, 0.000000008893948, 0.18298219, 0.0, 533369.6, 533369.6, 0.23742372, 0.004917326, 0.0048828125 
4.7422165e+0, 7.324219e-3, 533369.6, -0.000000000000000000000046152544, 0.000000008892303, 0.18298219, 0.0, 533369.6, 533369.6, 0.23742372, 0.004917326, 0.0048828125 
4.747134e+0, 2.4414063e-3, 533456.06, -0.000000000000000000000017685408, -0.000000005508135, 0.1816471, 0.0, 533456.06, 533456.06, 0.23721915, 0.004917322, 0.0048828125 
4.747134e+0, 7.324219e-3, 533456.06, -0.000000000000000000000017650775, -0.0000000055027387, 0.1816471, 0.0, 533456.06, 533456.06, 0.23721915, 0.004917322, 0.0048828125 
4.752051e+0, 2.4414063e-3, 533505.44, -0.00000000000000000000012427498, -0.000000014610374, 0.18031256, 0.0, 533505.44, 533505.44, 0.23700891, 0.004917316, 0.0048828125 
4.752051e+0, 7.324219e-3, 533505.44, -0.00000000000000000000012406076, -0.000000014597776, 0.18031256, 0.0, 533505.44, 533505.44, 0.23700891, 0.004917316, 0.0048828125 
4.7569686e+0, 2.4414063e-3, 533596.0, -0.000000000000000000000051401372, 0.0000000094027115, 0.17897823, 0.0, 533596.0, 533596.0, 0.23679294, 0.004917312, 0.0048828125 
4.7569686e+0, 7.324219e-3, 533596.0, -0.00000000000000000000005159994, 0.000000009420856, 0.17897823, 0.0, 533596.0, 533596.0, 0.23679294, 0.004917312, 0.0048828125 
4.7618857e+0, 2.4414063e-3, 533637.4, -0.0000000000000000000001097817, 0.000000013750361, 0.1776444, 0.0, 533637.4, 533637.4, 0.23657116, 0.0049173045, 0.0048828125 
4.7618857e+0, 7.324219e-3, 533637.4, -0.00000000000000000000010996206, 0.000000013761652, 0.1776444, 0.0, 533637.4, 533637.4, 0.23657116, 0.0049173045, 0.0048828125 
4.7668028e+0, 2.4414063e-3, 533731.6, -0.00000000000000000000005193158, -0.00000000946405, 0.17631076, 0.0, 533731.6, 533731.6, 0.23634355, 0.0049173003, 0.0048828125 
4.7668028e+0, 7.324219e-3, 533731.6, -0.000000000000000000000052281088, -0.000000009495844, 0.17631076, 0.0, 533731.6, 533731.6, 0.23634355, 0.0049173003, 0.0048828125 
4.77172e+0, 2.4414063e-3, 533765.9, -0.000000000000000000000017837384, -0.000000005550368, 0.17497756, 0.0, 533765.9, 533765.9, 0.23611005, 0.004917292, 0.0048828125 
4.77172e+0, 7.324219e-3, 533765.9, -0.00000000000000000000001786003, -0.0000000055538902, 0.17497756, 0.0, 533765.9, 533765.9, 0.23611005, 0.004917292, 0.0048828125 
4.776637e+0, 2.4414063e-3, 533862.6, -0.0000000000000000000000115190645, 0.0000000044636748, 0.17364453, 0.0, 533862.6, 533862.6, 0.23587061, 0.0049172873, 0.0048828125 
4.776637e+0, 7.324219e-3, 533862.6, -0.0000000000000000000000112529115, 0.0000000044118056, 0.17364453, 0.0, 533862.6, 533862.6, 0.23587061, 0.0049172873, 0.0048828125 
4.7815546e+0, 2.4414063e-3, 533891.2, -0.0000000000000000000000026823734, -0.0000000021555144, 0.17231187, 0.0, 533891.2, 533891.2, 0.2356252, 0.004917278, 0.0048828125 
4.7815546e+0, 7.324219e-3, 533891.2, -0.0000000000000000000000027691244, -0.000000002190093, 0.17231187, 0.0, 533891.2, 533891.2, 0.2356252, 0.004917278, 0.0048828125 
4.7864717e+0, 2.4414063e-3, 533988.94, -0.00000000000000000000000003236832, 0.00000000023697053, 0.1709794, 0.0, 533988.94, 533988.94, 0.2353738, 0.004917273, 0.0048828125 
4.7864717e+0, 7.324219e-3, 533988.94, -0.000000000000000000000000039622237, 0.00000000026218253, 0.1709794, 0.0, 533988.94, 533988.94, 0.2353738, 0.004917273, 0.0048828125 
4.791389e+0, 2.4414063e-3, 534013.25, -0.0000000000000000000000011786068, 0.0000000014309991, 0.16964728, 0.0, 534013.25, 534013.25, 0.23511636, 0.0049172626, 0.0048828125 
4.791389e+0, 7.324219e-3, 534013.25, -0.0000000000000000000000011934486, 0.0000000014399809, 0.16964728, 0.0, 534013.25, 534013.25, 0.23511636, 0.0049172626, 0.0048828125 
4.7963062e+0, 2.4414063e-3, 534110.56, -0.00000000000000000000003121332, -0.000000007370258, 0.1683153, 0.0, 534110.56, 534110.56, 0.23485287, 0.004917257, 0.0048828125 
4.7963062e+0, 7.324219e-3, 534110.56, -0.00000000000000000000003117505, -0.0000000073657387, 0.1683153, 0.0, 534110.56, 534110.56, 0.23485287, 0.004917257, 0.0048828125 
4.8012233e+0, 2.4414063e-3, 534131.9, -0.0000000000000000000000010352907, -0.0000000013433167, 0.16698366, 0.0, 534131.9, 534131.9, 0.2345833, 0.0049172463, 0.0048828125 
4.8012233e+0, 7.324219e-3, 534131.9, -0.0000000000000000000000010281834, -0.0000000013386978, 0.16698366, 0.0, 534131.9, 534131.9, 0.2345833, 0.0049172463, 0.0048828125 
4.8061404e+0, 2.4414063e-3, 534227.3, -0.00000000000000000000009612849, 0.000000012955245, 0.1656522, 0.0, 534227.3, 534227.3, 0.23430763, 0.00491724, 0.0048828125 
4.8061404e+0, 7.324219e-3, 534227.3, -0.000000000000000000000095601933, 0.000000012919714, 0.1656522, 0.0, 534227.3, 534227.3, 0.23430763, 0.00491724, 0.0048828125 
4.811058e+0, 2.4414063e-3, 534247.25, -0.000000000000000000000007971419, 0.000000003733676, 0.16432106, 0.0, 534247.25, 534247.25, 0.23402587, 0.0049172286, 0.0048828125 
4.811058e+0, 7.324219e-3, 534247.25, -0.0000000000000000000000078483125, 0.0000000037047334, 0.16432106, 0.0, 534247.25, 534247.25, 0.23402587, 0.0049172286, 0.0048828125 
4.815975e+0, 2.4414063e-3, 534339.3, -0.000000000000000000000103873354, -0.000000013489853, 0.16299011, 0.0, 534339.3, 534339.3, 0.23373798, 0.004917221, 0.0048828125 
4.815975e+0, 7.324219e-3, 534339.3, -0.000000000000000000000103596754, -0.00000001347188, 0.16299011, 0.0, 534339.3, 534339.3, 0.23373798, 0.004917221, 0.0048828125 
4.8208922e+0, 2.4414063e-3, 534358.75, -0.0000000000000000000000039091237, -0.0000000026191436, 0.16165951, 0.0, 534358.75, 534358.75, 0.23344398, 0.004917209, 0.0048828125 
4.8208922e+0, 7.324219e-3, 534358.75, -0.0000000000000000000000038494326, -0.00000000259907, 0.16165951, 0.0, 534358.75, 534358.75, 0.23344398, 0.004917209, 0.0048828125 
4.8258096e+0, 2.4414063e-3, 534448.4, -0.00000000000000000000011258272, 0.000000014068773, 0.16032907, 0.0, 534448.4, 534448.4, 0.23314387, 0.0049172016, 0.0048828125 
4.8258096e+0, 7.324219e-3, 534448.4, -0.00000000000000000000011244738, 0.000000014060314, 0.16032907, 0.0, 534448.4, 534448.4, 0.23314387, 0.0049172016, 0.0048828125 
4.8307267e+0, 2.4414063e-3, 534465.0, -0.000000000000000000000011080142, 0.000000004417452, 0.15899897, 0.0, 534465.0, 534465.0, 0.23283765, 0.0049171885, 0.0048828125 
4.8307267e+0, 7.324219e-3, 534465.0, -0.000000000000000000000011054708, 0.0000000044123794, 0.15899897, 0.0, 534465.0, 534465.0, 0.23283765, 0.0049171885, 0.0048828125 
4.8356438e+0, 2.4414063e-3, 534554.94, -0.00000000000000000000004172044, -0.000000008580054, 0.15766902, 0.0, 534554.94, 534554.94, 0.23252532, 0.00491718, 0.0048828125 
4.8356438e+0, 7.324219e-3, 534554.94, -0.00000000000000000000004164503, -0.000000008572297, 0.15766902, 0.0, 534554.94, 534554.94, 0.23252532, 0.00491718, 0.0048828125 
4.840561e+0, 2.4414063e-3, 534565.56, -0.0000000000000000000000093362445, -0.0000000040625023, 0.15633936, 0.0, 534565.56, 534565.56, 0.23220691, 0.0049171667, 0.0048828125 
4.840561e+0, 7.324219e-3, 534565.56, -0.000000000000000000000009398024, -0.0000000040759214, 0.15633936, 0.0, 534565.56, 534565.56, 0.23220691, 0.0049171667, 0.0048828125 
4.845478e+0, 2.4414063e-3, 534657.25, -0.0000000000000000000000020993218, 0.0000000019283224, 0.15500988, 0.0, 534657.25, 534657.25, 0.23188244, 0.004917158, 0.0048828125 
4.845478e+0, 7.324219e-3, 534657.25, -0.0000000000000000000000020901341, 0.000000001924098, 0.15500988, 0.0, 534657.25, 534657.25, 0.23188244, 0.004917158, 0.0048828125 
4.8503953e+0, 2.4414063e-3, 534662.0, -0.00000000000000000000000038318467, 0.00000000082461127, 0.15368067, 0.0, 534662.0, 534662.0, 0.23155193, 0.0049171434, 0.0048828125 
4.8503953e+0, 7.324219e-3, 534662.0, -0.00000000000000000000000035763672, 0.0000000007966476, 0.15368067, 0.0, 534662.0, 534662.0, 0.23155193, 0.0049171434, 0.0048828125 
4.8553124e+0, 2.4414063e-3, 534755.2, -0.00000000000000000000000006098329, -0.00000000032930578, 0.15235163, 0.0, 534755.2, 534755.2, 0.23121539, 0.004917134, 0.0048828125 
4.8553124e+0, 7.324219e-3, 534755.2, -0.000000000000000000000000056252827, -0.0000000003162759, 0.15235163, 0.0, 534755.2, 534755.2, 0.23121539, 0.004917134, 0.0048828125 
4.860229e+0, 2.4414063e-3, 534754.06, -0.0000000000000000000000000007674013, 0.00000000003697629, 0.15102288, 0.0, 534754.06, 534754.06, 0.23087287, 0.0049171187, 0.0048828125 
4.860229e+0, 7.324219e-3, 534754.06, -0.00000000000000000000000000137847, 0.000000000049557657, 0.15102288, 0.0, 534754.06, 534754.06, 0.23087287, 0.0049171187, 0.0048828125 
4.8651463e+0, 2.4414063e-3, 534849.2, -0.0000000000000000000000000000830234, 0.000000000012175233, 0.14969434, 0.0, 534849.2, 534849.2, 0.2305244, 0.004917109, 0.0048828125 
4.8651463e+0, 7.324219e-3, 534849.2, -0.00000000000000000000000000124894785, 0.000000000047222525, 0.14969434, 0.0, 534849.2, 534849.2, 0.2305244, 0.004917109, 0.0048828125 
4.8700634e+0, 2.4414063e-3, 534841.44, -0.00000000000000000000000000782218, -0.0000000001182965, 0.14836608, 0.0, 534841.44, 534841.44, 0.23017004, 0.0049170926, 0.0048828125 
4.8700634e+0, 7.324219e-3, 534841.44, -0.000000000000000000000000009279794, -0.00000000012884784, 0.14836608, 0.0, 534841.44, 534841.44, 0.23017004, 0.0049170926, 0.0048828125 
4.8749804e+0, 2.4414063e-3, 534938.75, -0.000000000000000000000000007801879, 0.00000000011827386, 0.14703803, 0.0, 534938.75, 534938.75, 0.22980979, 0.004917083, 0.0048828125 
4.8749804e+0, 7.324219e-3, 534938.75, -0.0000000000000000000000000075760044, 0.00000000011654919, 0.14703803, 0.0, 534938.75, 534938.75, 0.22980979, 0.004917083, 0.0048828125 
4.8798975e+0, 2.4414063e-3, 534924.6, -0.00000000000000000000000006311355, -0.0000000003367395, 0.14571024, 0.0, 534924.6, 534924.6, 0.22944373, 0.004917065, 0.0048828125 
4.8798975e+0, 7.324219e-3, 534924.6, -0.00000000000000000000000005287067, -0.00000000030820535, 0.14571024, 0.0, 534924.6, 534924.6, 0.22944373, 0.004917065, 0.0048828125 
4.8848143e+0, 2.4414063e-3, 535022.25, -0.0000000000000000000000006952001, -0.0000000011188819, 0.14438267, 0.0, 535022.25, 535022.25, 0.22907189, 0.004917055, 0.0048828125 
4.8848143e+0, 7.324219e-3, 535022.25, -0.00000000000000000000000070666535, -0.0000000011280705, 0.14438267, 0.0, 535022.25, 535022.25, 0.22907189, 0.004917055, 0.0048828125 
4.8897314e+0, 2.4414063e-3, 535004.75, -0.0000000000000000000000024708682, -0.0000000021115993, 0.14305536, 0.0, 535004.75, 535004.75, 0.22869432, 0.0049170367, 0.0048828125 
4.8897314e+0, 7.324219e-3, 535004.75, -0.0000000000000000000000025315045, -0.0000000021373523, 0.14305536, 0.0, 535004.75, 535004.75, 0.22869432, 0.0049170367, 0.0048828125 
4.8946485e+0, 2.4414063e-3, 535099.7, -0.000000000000000000000010943926, -0.00000000444922, 0.14172834, 0.0, 535099.7, 535099.7, 0.22831109, 0.0049170256, 0.0048828125 
4.8946485e+0, 7.324219e-3, 535099.7, -0.000000000000000000000011031367, -0.000000004466959, 0.14172834, 0.0, 535099.7, 535099.7, 0.22831109, 0.0049170256, 0.0048828125 
4.8995653e+0, 2.4414063e-3, 535081.75, -0.0000000000000000000000009524075, 0.0000000013139564, 0.14040166, 0.0, 535081.75, 535081.75, 0.22792225, 0.004917007, 0.0048828125 
4.8995653e+0, 7.324219e-3, 535081.75, -0.0000000000000000000000009460395, 0.0000000013095562, 0.14040166, 0.0, 535081.75, 535081.75, 0.22792225, 0.004917007, 0.0048828125 
4.9044824e+0, 2.4414063e-3, 535173.0, -0.000000000000000000000096307793, 0.000000013228915, 0.13907547, 0.0, 535173.0, 535173.0, 0.22752787, 0.0049169953, 0.0048828125 
4.9044824e+0, 7.324219e-3, 535173.0, -0.00000000000000000000009605585, 0.0000000132116, 0.13907547, 0.0, 535173.0, 535173.0, 0.22752787, 0.0049169953, 0.0048828125 
4.9093994e+0, 2.4414063e-3, 535153.75, -0.0000000000000000000000030767508, 0.000000002367152, 0.13774987, 0.0, 535153.75, 535153.75, 0.22712801, 0.004916976, 0.0048828125 
4.9093994e+0, 7.324219e-3, 535153.75, -0.0000000000000000000000031520454, 0.0000000023959417, 0.13774987, 0.0, 535153.75, 535153.75, 0.22712801, 0.004916976, 0.0048828125 
4.9143162e+0, 2.4414063e-3, 535241.8, -0.00000000000000000000013929852, -0.000000015947426, 0.13642475, 0.0, 535241.8, 535241.8, 0.22672273, 0.0049169636, 0.0048828125 
4.9143162e+0, 7.324219e-3, 535241.8, -0.00000000000000000000014014337, -0.000000015995715, 0.13642475, 0.0, 535241.8, 535241.8, 0.22672273, 0.0049169636, 0.0048828125 
4.9192333e+0, 2.4414063e-3, 535221.5, -0.00000000000000000000000007034843, 0.00000000035879405, 0.13510019, 0.0, 535221.5, 535221.5, 0.22631212, 0.004916944, 0.0048828125 
4.9192333e+0, 7.324219e-3, 535221.5, -0.00000000000000000000000006242349, 0.0000000003379808, 0.13510019, 0.0, 535221.5, 535221.5, 0.22631212, 0.004916944, 0.0048828125 
4.92415e+0, 2.4414063e-3, 535305.94, -0.00000000000000000000012481852, 0.000000015132402, 0.13377549, 0.0, 535305.94, 535305.94, 0.22589622, 0.004916931, 0.0048828125 
4.92415e+0, 7.324219e-3, 535305.94, -0.00000000000000000000012470962, 0.0000000151258, 0.13377549, 0.0, 535305.94, 535305.94, 0.22589622, 0.004916931, 0.0048828125 
4.9290672e+0, 2.4414063e-3, 535285.0, -0.0000000000000000000000050157685, -0.0000000030370493, 0.13245061, 0.0, 535285.0, 535285.0, 0.22547513, 0.004916911, 0.0048828125 
4.9290672e+0, 7.324219e-3, 535285.0, -0.0000000000000000000000049786586, -0.0000000030257934, 0.13245061, 0.0, 535285.0, 535285.0, 0.22547513, 0.004916911, 0.0048828125 
4.9339837e+0, 2.4414063e-3, 535364.8, -0.000000000000000000000011952856, -0.000000004694417, 0.13112605, 0.0, 535364.8, 535364.8, 0.22504893, 0.004916897, 0.0048828125 
4.9339837e+0, 7.324219e-3, 535364.8, -0.000000000000000000000011942125, -0.000000004692309, 0.13112605, 0.0, 535364.8, 535364.8, 0.22504893, 0.004916897, 0.0048828125 
4.9389005e+0, 2.4414063e-3, 535343.2, -0.000000000000000000000018284294, 0.0000000058131753, 0.12980182, 0.0, 535343.2, 535343.2, 0.22461767, 0.0049168766, 0.0048828125 
4.9389005e+0, 7.324219e-3, 535343.2, -0.00000000000000000000001822081, 0.0000000058030745, 0.12980182, 0.0, 535343.2, 535343.2, 0.22461767, 0.0049168766, 0.0048828125 
4.9438176e+0, 2.4414063e-3, 535420.6, -0.000000000000000000000028606984, -0.0000000072809154, 0.12847811, 0.0, 535420.6, 535420.6, 0.22418146, 0.004916862, 0.0048828125 
4.9438176e+0, 7.324219e-3, 535420.6, -0.00000000000000000000002861691, -0.000000007282179, 0.12847811, 0.0, 535420.6, 535420.6, 0.22418146, 0.004916862, 0.0048828125 
4.9487343e+0, 2.4414063e-3, 535398.94, -0.000000000000000000000040519187, -0.000000008676061, 0.12715493, 0.0, 535398.94, 535398.94, 0.22374035, 0.004916841, 0.0048828125 
4.9487343e+0, 7.324219e-3, 535398.94, -0.000000000000000000000040643897, -0.000000008689402, 0.12715493, 0.0, 535398.94, 535398.94, 0.22374035, 0.004916841, 0.0048828125 
4.9536508e+0, 2.4414063e-3, 535467.1, -0.000000000000000000000038525663, 0.000000008471354, 0.12583242, 0.0, 535467.1, 535467.1, 0.22329447, 0.004916826, 0.0048828125 
4.9536508e+0, 7.324219e-3, 535467.1, -0.000000000000000000000038535956, 0.000000008472486, 0.12583242, 0.0, 535467.1, 535467.1, 0.22329447, 0.004916826, 0.0048828125 
4.9585682e+0, 2.4414063e-3, 535446.2, -0.000000000000000000000017853293, 0.000000005774216, 0.1245106, 0.0, 535446.2, 535446.2, 0.22284386, 0.0049168044, 0.0048828125 
4.9585682e+0, 7.324219e-3, 535446.2, -0.000000000000000000000017977285, 0.000000005794232, 0.1245106, 0.0, 535446.2, 535446.2, 0.22284386, 0.0049168044, 0.0048828125 
4.9634847e+0, 2.4414063e-3, 535510.44, -0.000000000000000000000013848057, -0.000000005092436, 0.12318944, 0.0, 535510.44, 535510.44, 0.22238861, 0.004916788, 0.0048828125 
4.9634847e+0, 7.324219e-3, 535510.44, -0.000000000000000000000013676855, -0.0000000050608593, 0.12318944, 0.0, 535510.44, 535510.44, 0.22238861, 0.004916788, 0.0048828125 
4.9684015e+0, 2.4414063e-3, 535492.1, -0.0000000000000000000000024456497, -0.0000000021428836, 0.121868916, 0.0, 535492.1, 535492.1, 0.22192882, 0.0049167667, 0.0048828125 
4.9684015e+0, 7.324219e-3, 535492.1, -0.0000000000000000000000024818384, -0.0000000021586797, 0.121868916, 0.0, 535492.1, 535492.1, 0.22192882, 0.0049167667, 0.0048828125 
4.973318e+0, 2.4414063e-3, 535547.1, -0.000000000000000000000002798191, 0.0000000022953381, 0.12054893, 0.0, 535547.1, 535547.1, 0.22146457, 0.00491675, 0.0048828125 
4.973318e+0, 7.324219e-3, 535547.1, -0.0000000000000000000000028720655, 0.00000000232544, 0.12054893, 0.0, 535547.1, 535547.1, 0.22146457, 0.00491675, 0.0048828125 
4.9782348e+0, 2.4414063e-3, 535532.2, -0.00000000000000000000000026305242, 0.0000000007047153, 0.11922942, 0.0, 535532.2, 535532.2, 0.22099596, 0.004916728, 0.0048828125 
4.9782348e+0, 7.324219e-3, 535532.2, -0.00000000000000000000000027358305, 0.0000000007186826, 0.11922942, 0.0, 535532.2, 535532.2, 0.22099596, 0.004916728, 0.0048828125 
4.9831516e+0, 2.4414063e-3, 535582.1, -0.000000000000000000000000019040215, -0.0000000001898653, 0.11790979, 0.0, 535582.1, 535582.1, 0.22052307, 0.0049167103, 0.0048828125 
4.9831516e+0, 7.324219e-3, 535582.1, -0.000000000000000000000000020223307, -0.0000000001956752, 0.11790979, 0.0, 535582.1, 535582.1, 0.22052307, 0.0049167103, 0.0048828125 
4.988068e+0, 2.4414063e-3, 535574.6, -0.000000000000000000000000036428675, -0.0000000002629853, 0.11659005, 0.0, 535574.6, 535574.6, 0.22004598, 0.004916689, 0.0048828125 
4.988068e+0, 7.324219e-3, 535574.6, -0.000000000000000000000000036839678, -0.0000000002644647, 0.11659005, 0.0, 535574.6, 535574.6, 0.22004598, 0.004916689, 0.0048828125 
4.9929848e+0, 2.4414063e-3, 535602.75, -0.0000000000000000000000004310652, -0.00000000090594526, 0.11527171, 0.0, 535602.75, 535602.75, 0.21956481, 0.0049166693, 0.0048828125 
4.9929848e+0, 7.324219e-3, 535602.75, -0.0000000000000000000000004112971, -0.0000000008849287, 0.11527171, 0.0, 535602.75, 535602.75, 0.21956481, 0.0049166693, 0.0048828125 
4.9979013e+0, 2.4414063e-3, 535594.1, -0.0000000000000000000000001896185, -0.00000000060170363, 0.11395449, 0.0, 535594.1, 535594.1, 0.21907963, 0.0049166474, 0.0048828125 
4.9979013e+0, 7.324219e-3, 535594.1, -0.00000000000000000000000019811313, -0.0000000006150337, 0.11395449, 0.0, 535594.1, 535594.1, 0.21907963, 0.0049166474, 0.0048828125 
5.002818e+0, 2.4414063e-3, 535690.3, -0.00000000000000000000000015676808, 0.0000000005479379, 0.112636454, 0.0, 535690.3, 535690.3, 0.21859051, 0.0049166316, 0.0048828125 
5.002818e+0, 7.324219e-3, 535690.3, -0.00000000000000000000000014655256, 0.0000000005297845, 0.112636454, 0.0, 535690.3, 535690.3, 0.21859051, 0.0049166316, 0.0048828125 
5.007735e+0, 2.4414063e-3, 535610.25, -0.000000000000000000000000382661, 0.0000000008572439, 0.11131778, 0.0, 535610.25, 535610.25, 0.21809755, 0.004916605, 0.0048828125 
5.007735e+0, 7.324219e-3, 535610.25, -0.0000000000000000000000003769328, 0.0000000008508035, 0.11131778, 0.0, 535610.25, 535610.25, 0.21809755, 0.004916605, 0.0048828125 
5.0126517e+0, 2.4414063e-3, 536121.44, -0.000000000000000000000000012122648, 0.00000000015287488, 0.1100054, 0.0, 536121.44, 536121.44, 0.21760088, 0.0049166153, 0.0048828125 
5.0126517e+0, 7.324219e-3, 536121.44, -0.000000000000000000000000015796105, 0.0000000001745068, 0.1100054, 0.0, 536121.44, 536121.44, 0.21760088, 0.0049166153, 0.0048828125 
5.017567e+0, 2.4414063e-3, 535005.5, -0.00000000000000000000000006040407, -0.00000000034139452, 0.10869751, 0.0, 535005.5, 535005.5, 0.21710064, 0.004916522, 0.0048828125 
5.017567e+0, 7.324219e-3, 535005.5, -0.000000000000000000000000066951204, -0.00000000035942033, 0.10869751, 0.0, 535005.5, 535005.5, 0.21710064, 0.004916522, 0.0048828125 
5.022484e+0, 2.4414063e-3, 540173.1, -0.000000000000000000000000008867178, -0.00000000013162788, 0.1073725, 0.0, 540173.1, 540173.1, 0.21659672, 0.0049168286, 0.0048828125 
5.022484e+0, 7.324219e-3, 540173.1, -0.0000000000000000000000000096139126, -0.00000000013705827, 0.1073725, 0.0, 540173.1, 540173.1, 0.21659672, 0.0049168286, 0.0048828125 
5.0274026e+0, 2.4414063e-3, 531002.6, -0.0000000000000000000000000049681636, 0.00000000009783293, 0.1060359, 0.0, 531002.6, 531002.6, 0.21608911, 0.004916223, 0.0048828125 
5.0274026e+0, 7.324219e-3, 531002.6, -0.0000000000000000000000000058194022, 0.00000000010588302, 0.1060359, 0.0, 531002.6, 531002.6, 0.21608911, 0.004916223, 0.0048828125 
5.032319e+0, 2.4414063e-3, 561906.6, -0.0000000000000000000000000021849044, -0.00000000006684089, 0.10474835, 0.0, 561906.6, 561906.6, 0.21557845, 0.004918162, 0.0048828125 
5.032319e+0, 7.324219e-3, 561906.6, -0.0000000000000000000000000045091486, -0.000000000096022565, 0.10474835, 0.0, 561906.6, 561906.6, 0.21557845, 0.004918162, 0.0048828125 
5.0372285e+0, 2.4414063e-3, 505251.2, -0.00000000000000000000000002864791, -0.00000000022985489, 0.1034917, 0.0, 505251.2, 505251.2, 0.21506518, 0.004914541, 0.0048828125 
5.0372285e+0, 7.324219e-3, 505251.2, -0.000000000000000000000000026921136, -0.00000000022281989, 0.1034917, 0.0, 505251.2, 505251.2, 0.21506518, 0.004914541, 0.0048828125 
5.0421435e+0, 2.4414063e-3, 652607.0, -0.0000000000000000000000000030907742, -0.000000000085936695, 0.10207122, 0.0, 652607.0, 652607.0, 0.21454822, 0.0049238824, 0.0048828125 
5.0421435e+0, 7.324219e-3, 652607.0, -0.0000000000000000000000000030520189, -0.00000000008539621, 0.10207122, 0.0, 652607.0, 652607.0, 0.21454822, 0.0049238824, 0.0048828125 
5.0470626e+0, 2.4414063e-3, 403721.06, -0.000000000000000000000000002446331, 0.000000000060226615, 0.100562595, 0.0, 403721.06, 403721.06, 0.21402793, 0.0049080756, 0.0048828125 
5.0470626e+0, 7.324219e-3, 403721.06, -0.000000000000000000000000004117127, 0.00000000007813183, 0.100562595, 0.0, 403721.06, 403721.06, 0.21402793, 0.0049080756, 0.0048828125 
5.051962e+0, 2.4414063e-3, -0.000031855197, 0.0, 0.0, 0.1, 0.0, 0.0, 0.0, 0.21350689, 0.0048828125, 0.0048828125 
5.051962e+0, 7.324219e-3, -0.00003185463, 0.0, 0.0, 0.1, 0.0, 0.0, 0.0, 0.21350689, 0.0048828125, 0.0048828125 
