coord_x,coord_y,stress_xx,stress_yy,tau_xy,velocity_x,velocity_y,stress_1,eps,damage
5.0018513e+0, 1.2403984e+2, -1682617.9, -1733661.1, 45.13502, -0.00047935467, -0.038920395, -1682617.9, 41788.605 
5.001859e+0, 1.340369e+2, -1584939.3, -1636260.6, -121.54431, 0.00040553536, -0.017473195, -1584938.9, 41496.35 
5.0018525e+0, 1.440329e+2, -1496947.8, -1558313.8, -148.14838, 0.00054839463, -0.039121866, -1496947.4, 31527.098 
5.001825e+0, 1.540284e+2, -1399910.4, -1461492.5, 145.79124, -0.00039689845, -0.037030917, -1399910.1, 30608.504 
5.0018126e+0, 1.6402325e+2, -1311117.6, -1381826.6, 273.73358, -0.0005534902, -0.033845197, -1311116.5, 21452.428 
5.001821e+0, 1.7401752e+2, -1213100.1, -1283743.9, 15.259761, 0.00044223113, -0.030640468, -1213100.1, 21525.004 
5.0018144e+0, 1.8401104e+2, -1125345.9, -1206331.9, -119.65064, 0.0005983748, -0.029667059, -1125345.6, 11342.916 
5.0017864e+0, 1.9400382e+2, -1027868.3, -1108684.1, 66.47158, -0.00047541872, -0.034630187, -1027868.25, 10891.097 
5.0017715e+0, 2.0399597e+2, -939476.9, -1029818.25, 153.35255, -0.0006436773, -0.035463363, -939476.6, 1359.6498 
5.001776e+0, 2.1398753e+2, -841581.3, -931775.0, -2.4337728, 0.0005224423, -0.032293014, -841581.3, 1337.6172 
5.001769e+0, 2.2397839e+2, -753714.06, -854220.0, -50.003277, 0.0006810212, -0.030563258, -753714.06, -8705.397 
5.001744e+0, 2.339685e+2, -656017.4, -756385.5, 109.810844, -0.0006534975, -0.03343214, -656017.25, -8911.669 
5.00173e+0, 2.4395795e+2, -567685.56, -677758.6, 165.41933, -0.0008123808, -0.033847395, -567685.4, -18476.469 
5.0017333e+0, 2.5394678e+2, -469911.9, -579758.6, 67.15073, 0.0007841197, -0.032876976, -469911.84, -18593.54 
5.001725e+0, 2.6393494e+2, -381767.16, -501633.34, 20.121061, 0.00097079825, -0.0319708, -381767.16, -28332.658 
5.001699e+0, 2.7392238e+2, -283790.88, -403500.38, 0.44005847, -0.00096547743, -0.033876427, -283790.88, -28233.457 
5.0016874e+0, 2.8390902e+2, -197702.75, -329773.66, 15.199136, -0.0012437475, -0.033307765, -197702.75, -40014.53 
5.001699e+0, 2.9389486e+2, -100001.73, -231898.45, 121.19097, 0.0009988563, -0.031620998, -100001.61, -40174.45 
5.001693e+0, 3.0388403e+2, -3041.1147, -83430.586, 105.68309, 0.0013761134, -0.031463966, -3040.9758, -3040.9758 
5.00166e+0, 3.1387675e+2, -2528.6274, -81928.51, -128.80927, -0.0011121957, -0.03661037, -2528.4185, -2528.4185 
1.5005556e+1, 1.2403989e+2, -1682906.1, -1734236.8, 54.13345, -0.0014521474, -0.03492778, -1682906.1, 41499.82 
1.5005578e+1, 1.3403682e+2, -1585241.1, -1636872.5, -131.66248, 0.0012139248, -0.022921328, -1585240.8, 41195.32 
1.5005559e+1, 1.4403282e+2, -1496461.6, -1557307.6, -271.43588, 0.0016453542, -0.04500108, -1496460.5, 32014.754 
1.5005475e+1, 1.5402852e+2, -1399338.0, -1460312.9, 9.615714, -0.0011905032, -0.030678153, -1399338.0, 31179.377 
1.5005437e+1, 1.6402341e+2, -1311514.4, -1382650.0, 250.72528, -0.0016600457, -0.025355918, -1311513.5, 21053.879 
1.5005463e+1, 1.7401749e+2, -1213605.4, -1284783.9, 5.2198415, 0.0013267417, -0.03470331, -1213605.4, 21020.123 
1.5005444e+1, 1.8401095e+2, -1125067.6, -1205753.0, -239.95895, 0.0017951427, -0.03706668, -1125066.9, 11622.519 
1.5005359e+1, 1.9400388e+2, -1027501.8, -1107928.5, -65.4606, -0.001425953, -0.03183653, -1027501.75, 11257.006 
1.5005314e+1, 2.0399608e+2, -939719.56, -1030299.4, 93.18445, -0.0019310476, -0.029548354, -939719.5, 1115.751 
1.5005328e+1, 2.1398753e+2, -841892.44, -932395.94, -53.771946, 0.0015669488, -0.03370033, -841892.44, 1026.5931 
1.5005307e+1, 2.2397833e+2, -753471.3, -853713.2, -135.57942, 0.002043758, -0.034576304, -753471.1, -8462.094 
1.5005231e+1, 2.3396854e+2, -655715.75, -755746.75, 20.177465, -0.0019609362, -0.03301368, -655715.75, -8610.598 
1.5005189e+1, 2.4395803e+2, -567824.3, -678032.3, 70.21358, -0.0024374828, -0.0317339, -567824.3, -18616.18 
1.50052e+1, 2.539468e+2, -470098.38, -580142.2, -28.462214, 0.0023530675, -0.03317422, -470098.34, -18780.314 
1.5005174e+1, 2.6393494e+2, -381826.03, -501743.7, -33.464993, 0.0029118927, -0.03300475, -381826.0, -28391.553 
1.5005097e+1, 2.7392238e+2, -283835.3, -403577.56, -49.20896, -0.0028965175, -0.033093125, -283835.28, -28278.016 
1.5005063e+1, 2.8390905e+2, -197527.5, -329404.03, -66.57121, -0.0037310629, -0.03270407, -197527.47, -39839.45 
1.5005097e+1, 2.9389486e+2, -99801.81, -231474.84, 34.942986, 0.0029969076, -0.03422263, -99801.805, -39974.84 
1.5005077e+1, 3.0388406e+2, -3412.5928, -84197.32, 44.363743, 0.0041256575, -0.033116933, -3412.5684, -3412.5684 
1.500498e+1, 3.1387678e+2, -2974.2107, -82842.22, -186.53625, -0.0033397786, -0.030948905, -2973.7751, -2973.7751 
2.5009292e+1, 1.2403992e+2, -1682422.9, -1734058.3, 86.27425, -0.00052312796, -0.03467506, -1682422.8, 41982.89 
2.500927e+1, 1.3403684e+2, -1585602.0, -1637104.3, 169.91597, 0.00045232542, -0.02329132, -1585601.5, 40834.38 
2.5009227e+1, 1.4403284e+2, -1496907.6, -1557503.0, 56.577793, 0.0006720231, -0.045431886, -1496907.6, 31567.414 
2.5009152e+1, 1.5402855e+2, -1398928.8, -1460062.6, -217.2784, -0.00043913332, -0.030314147, -1398927.9, 31589.186 
2.5009102e+1, 1.6402346e+2, -1310997.5, -1382454.8, -198.80707, -0.0006106014, -0.024835577, -1310996.9, 21570.182 
2.5009078e+1, 1.740175e+2, -1213922.3, -1285014.3, 32.510075, 0.00059722614, -0.034957115, -1213922.3, 20703.078 
2.500903e+1, 1.8401097e+2, -1125535.9, -1205945.9, 5.964743, 0.00072448474, -0.037504096, -1125535.9, 11153.378 
2.5008953e+1, 1.9400392e+2, -1027326.8, -1107778.9, -148.76291, -0.0007326031, -0.031599674, -1027326.56, 11431.884 
2.5008893e+1, 2.039961e+2, -939371.9, -1030194.0, -125.62505, -0.0008790895, -0.029134598, -939371.7, 1463.1674 
2.5008863e+1, 2.1398754e+2, -841919.6, -932486.75, 2.4216108, 0.00090677914, -0.033846103, -841919.6, 999.1763 
2.5008813e+1, 2.2397837e+2, -753631.9, -853769.0, -10.115152, 0.0010505646, -0.03486246, -753631.9, -8623.022 
2.5008735e+1, 2.3396857e+2, -655789.8, -755751.5, -144.35497, -0.0012451881, -0.032824382, -655789.56, -8684.732 
2.5008675e+1, 2.4395807e+2, -567821.8, -678078.06, -195.94339, -0.0014603, -0.031467807, -567821.44, -18613.656 
2.5008646e+1, 2.5394684e+2, -469955.16, -580105.7, -120.657684, 0.0014282467, -0.033431467, -469955.03, -18637.227 
2.5008598e+1, 2.6393497e+2, -381675.6, -501701.97, -13.550576, 0.0017377157, -0.033269905, -381675.6, -28241.37 
2.500852e+1, 2.739224e+2, -283955.97, -403645.28, 2.6202927, -0.0018301081, -0.03259637, -283955.97, -28399.002 
2.500847e+1, 2.8390908e+2, -197705.13, -329435.94, -51.419796, -0.002337364, -0.032271393, -197705.11, -40017.387 
2.5008458e+1, 2.938949e+2, -99832.9, -231459.58, -122.118675, 0.001805622, -0.035106238, -99832.79, -40006.063 
2.5008422e+1, 3.0388406e+2, -3399.6218, -84321.85, -29.414896, 0.002470151, -0.0338847, -3399.6113, -3399.6113 
2.5008342e+1, 3.138768e+2, -2804.3162, -82914.05, 139.06786, -0.0021940211, -0.029403443, -2804.0747, -2804.0747 
3.5013065e+1, 1.2403993e+2, -1682176.4, -1733541.1, -114.46876, 0.0022979563, -0.03815983, -1682176.1, 42229.42 
3.501293e+1, 1.3403696e+2, -1585344.8, -1636585.5, -53.88183, -0.0018735325, -0.018594602, -1585344.6, 41089.96 
3.5012856e+1, 1.4403296e+2, -1497339.8, -1558381.0, 113.90894, -0.0023696334, -0.040431853, -1497339.5, 31134.299 
3.501286e+1, 1.5402849e+2, -1399430.5, -1461098.4, -129.19792, 0.0018487506, -0.03591951, -1399430.1, 31087.404 
3.5012805e+1, 1.6402335e+2, -1310672.8, -1381761.0, -394.4024, 0.0025831494, -0.032261275, -1310670.5, 21897.387 
3.5012668e+1, 1.7401758e+2, -1213500.4, -1284137.3, -194.06804, -0.0017467041, -0.03140902, -1213499.9, 21124.68 
3.5012582e+1, 1.840111e+2, -1125743.1, -1206366.8, 15.465419, -0.0026137482, -0.03100388, -1125743.1, 10944.915 
3.5012567e+1, 1.9400392e+2, -1027602.9, -1108349.1, -112.19023, 0.0015926295, -0.033909414, -1027602.75, 11155.662 
3.5012507e+1, 2.0399608e+2, -939199.1, -1029823.2, -254.95428, 0.002499506, -0.03420668, -939198.44, 1636.7803 
3.5012382e+1, 2.139876e+2, -841694.94, -932010.7, -145.3308, -0.001458034, -0.03273248, -841694.7, 1223.5121 
3.501229e+1, 2.2397846e+2, -753830.56, -854178.2, -87.23447, -0.0022989938, -0.031434588, -753830.44, -8822.455 
3.5012254e+1, 2.3396859e+2, -656041.56, -756257.44, -212.69656, 0.0014843973, -0.032859817, -656041.06, -8936.405 
3.501219e+1, 2.4395806e+2, -567727.0, -677852.56, -250.66762, 0.0021075127, -0.033046752, -567726.44, -18518.557 
3.5012072e+1, 2.5394684e+2, -469813.38, -579802.8, -174.71785, -0.0019905712, -0.03364669, -469813.1, -18495.543 
3.5011998e+1, 2.63935e+2, -381651.66, -501620.97, -124.29882, -0.0025493326, -0.032767624, -381651.53, -28217.725 
3.501197e+1, 2.7392247e+2, -283944.8, -403590.78, -114.70913, 0.002221989, -0.032385375, -283944.72, -28388.168 
3.5011908e+1, 2.839091e+2, -197819.14, -329645.94, -111.99166, 0.0029189312, -0.032008614, -197819.05, -40131.723 
3.5011786e+1, 2.9389492e+2, -99960.66, -231705.22, -176.43617, -0.0025704391, -0.034270693, -99960.414, -40133.96 
3.5011718e+1, 3.038841e+2, -3158.7004, -83779.22, -49.25906, -0.0035814545, -0.033770528, -3158.6702, -3158.6702 
3.5011742e+1, 3.1387684e+2, -2517.0732, -82277.6, 123.51734, 0.002302529, -0.031963434, -2516.8818, -2516.8818 
4.5016783e+1, 1.24039985e+2, -1682816.8, -1733806.1, -37.4091, 0.0017529833, -0.038599413, -1682816.6, 41588.324 
4.5016643e+1, 1.3403703e+2, -1584709.1, -1636224.3, -230.67311, -0.0014012625, -0.017842373, -1584708.1, 41725.83 
4.501655e+1, 1.4403303e+2, -1496551.1, -1558098.6, -36.87069, -0.0016694481, -0.039680425, -1496551.1, 31922.06 
4.5016524e+1, 1.5402853e+2, -1399935.8, -1461460.1, 167.50626, 0.0014445266, -0.036683716, -1399935.3, 30581.838 
4.501645e+1, 1.6402338e+2, -1311373.5, -1382021.5, 16.018768, 0.0019175456, -0.033255395, -1311373.5, 21194.008 
4.5016298e+1, 1.7401764e+2, -1213060.9, -1283816.3, -164.44127, -0.0014438818, -0.030764876, -1213060.5, 21563.408 
4.5016193e+1, 1.8401118e+2, -1125067.9, -1206113.8, -87.89086, -0.0020113357, -0.030036826, -1125067.8, 11619.526 
4.5016152e+1, 1.9400397e+2, -1027787.94, -1108530.4, 9.741701, 0.0015100519, -0.03454454, -1027787.94, 10970.032 
4.5016068e+1, 2.0399612e+2, -939617.8, -1029976.56, -90.151436, 0.0020921782, -0.03520577, -939617.75, 1217.0791 
4.501592e+1, 2.1398768e+2, -841664.06, -931926.56, -177.18448, -0.0016546325, -0.032268222, -841663.7, 1253.933 
4.5015812e+1, 2.2397852e+2, -753633.25, -854112.06, -135.1005, -0.0022466467, -0.030601302, -753633.06, -8625.702 
4.5015755e+1, 2.3396863e+2, -655944.25, -756246.94, -30.405264, 0.0018334187, -0.033281717, -655944.25, -8840.042 
4.5015666e+1, 2.439581e+2, -567719.2, -677842.8, 14.844315, 0.0023513576, -0.033755597, -567719.2, -18511.734 
4.5015526e+1, 2.539469e+2, -469984.16, -579872.56, -52.935127, -0.0024486026, -0.03319005, -469984.16, -18667.137 
4.5015427e+1, 2.6393506e+2, -381832.34, -501671.56, -98.65083, -0.003052487, -0.032130904, -381832.25, -28399.053 
4.5015386e+1, 2.739225e+2, -283924.63, -403536.25, -88.612366, 0.0026618056, -0.033053868, -283924.56, -28368.533 
4.5015305e+1, 2.8390917e+2, -197708.6, -329716.53, -20.97006, 0.0034737275, -0.032709584, -197708.6, -40021.754 
4.5015156e+1, 2.9389498e+2, -99805.48, -231763.52, -22.635807, -0.0031628702, -0.033072643, -99805.47, -39979.582 
4.5015073e+1, 3.0388415e+2, -3059.682, -83585.016, 16.406507, -0.0043251505, -0.032652322, -3059.6785, -3059.6785 
4.501508e+1, 3.138769e+2, -3089.9602, -82379.05, 4.4975004, 0.0029427197, -0.03395183, -3089.96, -3089.96 
5.5020446e+1, 1.2404008e+2, -1683010.1, -1734197.5, 77.69529, -0.0021453765, -0.03599238, -1683010.0, 41394.03 
5.5020404e+1, 1.3403705e+2, -1584906.6, -1636633.0, -124.931, 0.0018468882, -0.02100548, -1584906.3, 41527.45 
5.5020314e+1, 1.4403304e+2, -1496255.8, -1557465.6, -247.63544, 0.0027383305, -0.04315194, -1496254.8, 32218.264 
5.502015e+1, 1.5402868e+2, -1399573.4, -1460728.0, -78.24627, -0.0016475692, -0.032630127, -1399573.3, 30942.473 
5.502002e+1, 1.6402356e+2, -1311620.6, -1382502.9, 52.165295, -0.0025966635, -0.02785329, -1311620.6, 20945.283 
5.501997e+1, 1.740177e+2, -1213368.1, -1284441.8, -96.46045, 0.0014834313, -0.033006407, -1213368.0, 21255.361 
5.501987e+1, 1.8401119e+2, -1124961.4, -1205889.0, -247.28714, 0.0025004845, -0.034569126, -1124960.6, 11726.6 
5.501971e+1, 1.9400406e+2, -1027632.44, -1108213.4, -174.46826, -0.0009770909, -0.0335141, -1027632.06, 11125.047 
5.5019575e+1, 2.0399623e+2, -939736.56, -1030201.56, -138.11806, -0.0020903451, -0.032155838, -939736.4, 1097.3513 
5.501948e+1, 2.1398774e+2, -841811.4, -932217.44, -208.94582, 0.00029384304, -0.032449163, -841810.9, 1106.1312 
5.501937e+1, 2.2397856e+2, -753474.44, -853797.94, -220.97893, 0.0011745036, -0.032347765, -753473.94, -8467.034 
5.5019236e+1, 2.339687e+2, -655747.0, -755868.6, -122.7718, -0.00019348733, -0.034089435, -655746.9, -8643.452 
5.501911e+1, 2.4395819e+2, -567806.75, -678046.44, -85.68407, -0.0007195657, -0.033599056, -567806.7, -18600.184 
5.5019003e+1, 2.5394702e+2, -470114.2, -580132.9, -154.08017, 0.00002589174, -0.03206522, -470113.97, -18797.836 
5.5018884e+1, 2.6393515e+2, -381817.1, -501649.53, -165.95074, 0.00019747402, -0.0313586, -381816.84, -28384.395 
5.5018765e+1, 2.7392256e+2, -283895.75, -403479.5, -152.62384, -0.00050075736, -0.034596466, -283895.56, -28340.113 
5.501866e+1, 2.8390923e+2, -197721.34, -329727.56, -62.875916, -0.0006628423, -0.034369897, -197721.31, -40035.063 
5.5018574e+1, 2.9389507e+2, -99826.41, -231780.8, -61.316467, -0.0000014687467, -0.031512022, -99826.38, -40001.355 
5.501847e+1, 3.0388424e+2, -3087.2715, -83650.16, -162.0199, 0.00020606464, -0.030538637, -3086.9458, -3086.9458 
5.5018353e+1, 3.1387696e+2, -3123.1804, -82448.016, -192.21184, -0.0002732724, -0.03539241, -3122.7146, -3122.7146 
6.502418e+1, 1.2404019e+2, -1682215.6, -1733870.6, 144.07314, -0.002139427, -0.035449844, -1682215.1, 42187.89 
6.5024114e+1, 1.3403712e+2, -1585414.9, -1636946.6, 67.318, 0.001933994, -0.021926709, -1585414.8, 41018.23 
6.502401e+1, 1.4403313e+2, -1496917.4, -1557674.0, -112.24926, 0.0028295305, -0.044153225, -1496917.3, 31555.016 
6.502382e+1, 1.5402877e+2, -1399041.8, -1460326.6, -235.49728, -0.0018288182, -0.031472813, -1399040.9, 31473.848 
6.502367e+1, 1.6402368e+2, -1310893.9, -1382278.6, -154.61613, -0.002749603, -0.026401274, -1310893.5, 21671.297 
6.5023607e+1, 1.7401777e+2, -1213631.1, -1284712.0, -70.23026, 0.0018067864, -0.033973016, -1213631.1, 20991.55 
6.502348e+1, 1.8401125e+2, -1125443.0, -1206053.9, -168.06534, 0.002790384, -0.035985958, -1125442.8, 11243.816 
6.502329e+1, 1.9400415e+2, -1027488.75, -1108057.6, -205.10985, -0.0014740251, -0.032495983, -1027488.2, 11267.939 
6.502313e+1, 2.0399633e+2, -939411.0, -1030106.7, -157.76482, -0.0025614486, -0.030605473, -939410.7, 1421.9846 
6.5023035e+1, 2.1398781e+2, -841804.6, -932278.6, -113.75823, 0.0010445555, -0.033174243, -841804.44, 1111.8058 
6.50229e+1, 2.2397862e+2, -753597.8, -853825.0, -145.26517, 0.0019525929, -0.033668265, -753597.56, -8591.342 
6.502272e+1, 2.3396881e+2, -655846.94, -755883.2, -220.91368, -0.001157605, -0.033506747, -655846.44, -8743.962 
6.5022576e+1, 2.439583e+2, -567879.2, -678051.8, -224.58124, -0.0018433266, -0.032498386, -567878.7, -18673.188 
6.502246e+1, 2.539471e+2, -470042.78, -580078.25, -157.19177, 0.0010978545, -0.03252623, -470042.56, -18727.256 
6.502233e+1, 2.639352e+2, -381718.9, -501624.34, -103.0019, 0.0015492412, -0.032208692, -381718.8, -28287.15 
6.5022165e+1, 2.7392268e+2, -283874.88, -403517.97, -145.71513, -0.0017518946, -0.034066316, -283874.7, -28320.111 
6.5022033e+1, 2.8390932e+2, -197807.47, -329644.84, -57.78776, -0.0022874975, -0.03364837, -197807.45, -40122.113 
6.5021956e+1, 2.9389518e+2, -100257.14, -231841.23, 42.5672, 0.0013814253, -0.032408856, -100257.13, -40432.992 
6.502184e+1, 3.0388433e+2, -3479.6147, -83938.586, -1.3172987, 0.0020503965, -0.031529777, -3479.6147, -3479.6147 
6.502167e+1, 3.1387705e+2, -2461.3835, -82263.77, -102.856094, -0.0018741268, -0.0341464, -2461.251, -2461.251 
7.5027966e+1, 1.24040276e+2, -1682129.4, -1733692.6, -52.005737, 0.0016887691, -0.036976114, -1682129.4, 42272.81 
7.502779e+1, 1.3403724e+2, -1585327.5, -1636771.4, -160.38072, -0.0011238472, -0.020630743, -1585327.0, 41104.72 
7.502763e+1, 1.4403325e+2, -1497084.1, -1558018.6, -78.00286, -0.0013666427, -0.04270463, -1497084.0, 31386.984 
7.5027525e+1, 1.5402885e+2, -1399237.6, -1460730.4, -172.14528, 0.00085732527, -0.033183016, -1399237.1, 31276.959 
7.502739e+1, 1.6402373e+2, -1310793.9, -1382066.0, -313.22604, 0.0014080369, -0.028862124, -1310792.5, 21771.736 
7.5027204e+1, 1.7401786e+2, -1213494.0, -1284436.5, -252.67174, -0.0004621212, -0.033675037, -1213493.1, 21128.629 
7.5027037e+1, 1.8401137e+2, -1125473.4, -1206113.5, -209.23611, -0.0011227023, -0.034311403, -1125472.9, 11212.523 
7.5026894e+1, 1.9400425e+2, -1027541.6, -1108152.5, -229.83478, -0.000009659409, -0.03148845, -1027540.94, 11214.164 
7.502673e+1, 2.0399645e+2, -939355.7, -1029985.25, -259.86237, 0.00063957996, -0.030542081, -939354.94, 1476.8243 
7.502657e+1, 2.139879e+2, -841738.6, -932133.5, -224.27884, 0.000599408, -0.03443916, -841738.06, 1177.2936 
7.50264e+1, 2.2397873e+2, -753717.44, -854063.25, -236.45938, 0.000098549936, -0.03456594, -753716.9, -8711.603 
7.5026214e+1, 2.339689e+2, -655987.44, -756164.3, -309.3786, -0.0010747475, -0.03154413, -655986.5, -8885.004 
7.5026053e+1, 2.4395838e+2, -567772.1, -677844.0, -290.53348, -0.0010458629, -0.030460611, -567771.4, -18566.836 
7.5025916e+1, 2.5394717e+2, -469911.3, -579812.9, -221.20357, 0.0007665463, -0.034559812, -469910.84, -18596.346 
7.5025755e+1, 2.639353e+2, -381778.63, -501740.03, -187.54698, 0.0010067833, -0.034670033, -381778.34, -28347.488 
7.502558e+1, 2.739228e+2, -283959.13, -403676.3, -232.56259, -0.0011164144, -0.031482164, -283958.7, -28405.258 
7.502542e+1, 2.8390944e+2, -197659.44, -329332.88, -182.91797, -0.0014350883, -0.030567162, -197659.19, -39975.094 
7.5025296e+1, 2.9389527e+2, -100080.98, -231473.64, -88.309525, 0.0009913377, -0.03574809, -100080.914, -40257.695 
7.502517e+1, 3.0388442e+2, -3604.2197, -84224.1, 58.447, 0.0012239811, -0.03559727, -3604.1772, -3604.1772 
7.5025034e+1, 3.1387717e+2, -2628.1094, -82629.85, -18.330626, -0.0018953104, -0.030215437, -2628.1052, -2628.1052 
8.5031724e+1, 1.2404039e+2, -1682515.0, -1733824.6, 2.741694, 0.0024552129, -0.037681222, -1682515.0, 41886.023 
8.503149e+1, 1.340374e+2, -1584782.8, -1636470.8, -175.56123, -0.0018728839, -0.019410841, -1584782.1, 41648.24 
8.503132e+1, 1.4403339e+2, -1496494.6, -1557871.9, -33.712517, -0.0022473312, -0.041540638, -1496494.5, 31975.11 
8.503121e+1, 1.5402895e+2, -1399580.6, -1461054.9, -18.7567, 0.0016716898, -0.034529228, -1399580.6, 30932.52 
8.5031056e+1, 1.6402382e+2, -1311242.9, -1382170.5, -149.11627, 0.0024744095, -0.030566351, -1311242.5, 21320.83 
8.503083e+1, 1.7401801e+2, -1213219.4, -1284167.0, -142.94003, -0.0012419488, -0.032603405, -1213219.0, 21401.352 
8.503064e+1, 1.8401152e+2, -1125088.5, -1206014.1, -130.84198, -0.0022538512, -0.032654967, -1125088.3, 11595.67 
8.5030484e+1, 1.9400436e+2, -1027611.7, -1108293.8, -171.19048, 0.0006928616, -0.03245618, -1027611.3, 11142.732 
8.503031e+1, 2.0399654e+2, -939519.2, -1030011.25, -229.9166, 0.0017212399, -0.032144442, -939518.6, 1312.1847 
8.50301e+1, 2.1398802e+2, -841695.75, -932058.56, -225.19438, -0.000086244385, -0.033739995, -841695.25, 1218.8937 
8.5029906e+1, 2.2397885e+2, -753643.9, -854079.7, -216.7148, -0.00096474634, -0.033183638, -753643.4, -8639.391 
8.502972e+1, 2.3396902e+2, -655914.25, -756194.06, -192.56992, -0.00045058387, -0.031885862, -655913.9, -8813.441 
8.502954e+1, 2.439585e+2, -567722.0, -677758.8, -160.44775, -0.000051816187, -0.03137137, -567721.8, -18518.256 
8.502936e+1, 2.539473e+2, -470073.2, -579819.0, -192.34386, 0.00015449998, -0.034301855, -470072.88, -18759.51 
8.502917e+1, 2.6393542e+2, -382022.06, -501843.6, -158.95644, 0.00005051179, -0.03401103, -382021.88, -28592.238 
8.5028994e+1, 2.7392292e+2, -284049.38, -403716.53, -112.0429, -0.0005109724, -0.03157993, -284049.25, -28497.012 
8.502882e+1, 2.839096e+2, -197622.02, -329318.1, -123.59277, -0.00052262266, -0.030866368, -197621.9, -39938.953 
8.5028654e+1, 2.938954e+2, -99809.445, -231367.11, -249.2345, 0.00029620706, -0.035393465, -99808.98, -39986.914 
8.5028505e+1, 3.0388457e+2, -3451.169, -84045.85, -69.2162, 0.00021620929, -0.03507101, -3451.1096, -3451.1096 
8.5028374e+1, 3.138773e+2, -3329.2659, -82825.26, 108.92286, -0.0012206, -0.03026493, -3329.1165, -3329.1165 
9.503542e+1, 1.2404053e+2, -1682514.4, -1733802.3, 29.132637, 0.00016900741, -0.03755614, -1682514.4, 41885.348 
9.5035243e+1, 1.3403755e+2, -1584802.9, -1636467.8, -162.46124, -0.0003534691, -0.01826112, -1584802.4, 41626.586 
9.503506e+1, 1.4403354e+2, -1496494.1, -1557866.3, -190.96848, 0.00013391636, -0.04065852, -1496493.5, 31974.697 
9.503487e+1, 1.5402909e+2, -1399580.9, -1461041.4, -193.74034, 0.00061630114, -0.035518963, -1399580.4, 30931.492 
9.5034677e+1, 1.6402395e+2, -1311204.4, -1382103.4, -166.32652, 0.00047282403, -0.031522773, -1311204.0, 21358.094 
9.503448e+1, 1.7401817e+2, -1213185.6, -1284089.6, -142.59203, -0.00055541523, -0.030765845, -1213185.4, 21433.404 
9.503428e+1, 1.8401167e+2, -1125169.0, -1206163.9, -256.59186, -0.0006440778, -0.031013252, -1125168.3, 11514.155 
9.5034075e+1, 1.9400448e+2, -1027709.0, -1108464.3, -309.46753, 0.000633375, -0.03537638, -1027707.8, 11045.173 
9.503386e+1, 2.0399663e+2, -939518.25, -1030006.75, -299.4415, 0.0006978732, -0.03539055, -939517.3, 1312.5343 
9.503364e+1, 2.1398818e+2, -841688.6, -932030.7, -286.77823, -0.0010203572, -0.03109767, -841687.7, 1224.895 
9.5033425e+1, 2.2397904e+2, -753598.5, -853991.94, -300.75885, -0.0012562287, -0.029547554, -753597.6, -8595.237 
9.5033234e+1, 2.3396914e+2, -655870.44, -756096.5, -278.8169, 0.00070116296, -0.034507424, -655869.7, -8770.398 
9.503302e+1, 2.439586e+2, -567772.2, -677861.7, -277.9597, 0.0011241245, -0.035196092, -567771.5, -18568.975 
9.5032793e+1, 2.5394744e+2, -470129.44, -579946.9, -313.59232, -0.0007447955, -0.03177848, -470128.53, -18816.707 
9.503258e+1, 2.639356e+2, -381947.16, -501682.72, -213.3626, -0.0013219811, -0.030263612, -381946.78, -28518.791 
9.503241e+1, 2.7392304e+2, -283966.7, -403520.0, -158.5684, 0.00005359192, -0.034331802, -283966.47, -28415.404 
9.503222e+1, 2.8390968e+2, -197811.2, -329729.2, -191.41225, 0.00043338456, -0.034506243, -197810.92, -40129.008 
9.503202e+1, 2.9389554e+2, -100026.695, -231856.77, -319.172, -0.0007094154, -0.031385735, -100025.92, -40205.26 
9.503184e+1, 3.038847e+2, -3210.9382, -83553.375, -198.91197, -0.0009798934, -0.03000315, -3210.4458, -3210.4458 
9.503169e+1, 3.138774e+2, -3020.5867, -82225.77, -29.424013, 0.00011789489, -0.034247525, -3020.5757, -3020.5757 
1.05039164e+2, 1.240407e+2, -1682070.5, -1733683.1, 175.24498, -0.0009237733, -0.03668534, -1682069.9, 42328.11 
1.0503897e+2, 1.3403769e+2, -1585027.3, -1636696.9, -96.08987, 0.000638526, -0.019260135, -1585027.1, 41400.348 
1.0503877e+2, 1.4403367e+2, -1496716.1, -1557916.1, -151.13048, 0.0015004872, -0.041860126, -1496715.8, 31751.0 
1.05038546e+2, 1.5402927e+2, -1399061.8, -1460720.9, -109.53053, -0.00030338453, -0.034186915, -1399061.6, 31448.523 
1.0503832e+2, 1.6402414e+2, -1310692.9, -1381946.8, -121.09339, -0.00092609, -0.029716847, -1310692.6, 21867.668 
1.0503812e+2, 1.7401831e+2, -1213417.6, -1284328.9, -225.64395, 0.00020656227, -0.031487253, -1213416.9, 21200.465 
1.05037905e+2, 1.8401182e+2, -1125490.8, -1206244.3, -328.9003, 0.00066863536, -0.032437462, -1125489.4, 11191.716 
1.0503767e+2, 1.9400463e+2, -1027483.75, -1108264.3, -226.51738, 0.00013258557, -0.03482537, -1027483.1, 11268.3125 
1.0503742e+2, 2.0399679e+2, -939244.75, -1029932.7, -191.71225, -0.000364949, -0.0342021, -939244.3, 1583.8339 
1.0503718e+2, 2.1398833e+2, -841783.4, -932172.4, -256.95453, -0.00079653034, -0.0312455, -841782.6, 1128.5577 
1.0503695e+2, 2.2397918e+2, -753764.2, -853956.75, -270.99832, -0.0005521579, -0.030248774, -753763.44, -8762.478 
1.0503673e+2, 2.3396929e+2, -655942.0, -755995.94, -211.41313, 0.00068346335, -0.03459269, -655941.56, -8843.805 
1.0503649e+2, 2.4395877e+2, -567839.6, -677977.56, -208.08278, 0.00073940266, -0.03492332, -567839.25, -18638.352 
1.0503624e+2, 2.5394762e+2, -469981.78, -579995.75, -257.89844, -0.00096085045, -0.03154013, -469981.2, -18670.863 
1.05036005e+2, 2.6393574e+2, -381694.5, -501511.97, -183.07317, -0.0013034856, -0.030192295, -381694.22, -28267.674 
1.0503581e+2, 2.739232e+2, -284031.56, -403473.4, -178.96011, 0.00039507466, -0.03462526, -284031.3, -28481.707 
1.050356e+2, 2.8390983e+2, -198116.6, -329911.7, -136.81645, 0.00063224003, -0.034780234, -198116.44, -40436.047 
1.0503537e+2, 2.938957e+2, -100343.555, -232030.84, -48.24453, -0.0013608767, -0.031070527, -100343.54, -40524.406 
1.0503517e+2, 3.0388486e+2, -3355.9048, -83594.86, 56.56592, -0.0015921808, -0.029668558, -3355.865, -3355.865 
1.05035014e+2, 3.1387755e+2, -2880.996, -82124.08, -69.991005, 0.0009060462, -0.0347626, -2880.934, -2880.934 
1.15042925e+2, 1.2404092e+2, -1682187.0, -1733918.3, 36.23775, -0.0008636255, -0.035081018, -1682187.0, 42208.902 
1.150427e+2, 1.3403784e+2, -1585157.9, -1636953.3, -251.56924, 0.0011036575, -0.022378212, -1585156.8, 41269.313 
1.1504247e+2, 1.4403382e+2, -1496647.6, -1557769.4, -154.09685, 0.0018535752, -0.045113966, -1496647.3, 31818.135 
1.1504224e+2, 1.5402947e+2, -1398980.9, -1460527.6, -96.241394, -0.001103386, -0.0305688, -1398980.8, 31527.17 
1.15042e+2, 1.6402437e+2, -1310866.0, -1382315.1, -293.76367, -0.0017422196, -0.025188277, -1310864.8, 21693.371 
1.1504176e+2, 1.7401843e+2, -1213623.0, -1284750.5, -416.0028, 0.0010317236, -0.03473155, -1213620.6, 20995.602 
1.1504151e+2, 1.8401192e+2, -1125322.0, -1205908.8, -347.25223, 0.0016774428, -0.036881223, -1125320.5, 11359.599 
1.1504125e+2, 1.9400483e+2, -1027282.75, -1107843.5, -226.7822, -0.0008131434, -0.030854857, -1027282.06, 11467.284 
1.15040995e+2, 2.0399705e+2, -939343.25, -1030132.06, -334.94446, -0.0014774429, -0.028641764, -939342.06, 1483.8315 
1.1504074e+2, 2.1398847e+2, -841918.44, -932435.44, -414.40103, 0.0005599604, -0.034145515, -841916.56, 993.27185 
1.1504047e+2, 2.2397928e+2, -753676.44, -853774.2, -345.299, 0.0011255916, -0.03522475, -753675.25, -8675.383 
1.15040205e+2, 2.339695e+2, -655826.56, -755766.75, -277.1426, -0.0004977674, -0.032174435, -655825.8, -8730.034 
1.15039945e+2, 2.4395898e+2, -567903.6, -678106.44, -272.36557, -0.0011978174, -0.030605912, -567902.94, -18704.227 
1.150397e+2, 2.5394776e+2, -470060.3, -580175.7, -320.9363, -0.0005101096, -0.033552505, -470059.38, -18750.549 
1.1503945e+2, 2.639359e+2, -381703.7, -501541.8, -306.28107, 0.000079874204, -0.033747237, -381702.9, -28277.652 
1.1503921e+2, 2.7392337e+2, -284026.66, -403490.72, -309.5432, 0.0005078605, -0.032491814, -284025.84, -28478.063 
1.1503897e+2, 2.8391004e+2, -197957.97, -329587.7, -209.92174, 0.000069529975, -0.03173637, -197957.63, -40279.21 
1.1503872e+2, 2.9389584e+2, -100155.914, -231680.25, -114.98482, -0.0016710184, -0.034398496, -100155.81, -40338.348 
1.1503851e+2, 3.0388504e+2, -3566.7393, -84017.62, -8.558864, -0.0016389505, -0.034000456, -3566.7383, -3566.7383 
1.1503833e+2, 3.1387776e+2, -3130.9836, -82657.91, -134.33156, 0.0011262911, -0.031845465, -3130.7566, -3130.7566 
1.2504669e+2, 1.2404111e+2, -1682318.1, -1733942.6, 17.646912, 0.00011288862, -0.035969753, -1682318.1, 42075.906 
1.2504643e+2, 1.3403806e+2, -1584669.0, -1636695.1, -158.4103, 0.00037222425, -0.021499984, -1584668.5, 41755.51 
1.2504618e+2, 1.4403403e+2, -1496176.3, -1557598.9, -63.69969, 0.0008230575, -0.044214737, -1496176.1, 32287.256 
1.2504593e+2, 1.5402967e+2, -1399349.6, -1460789.4, -154.79395, -0.0005967865, -0.031526003, -1399349.3, 31156.975 
1.2504567e+2, 1.6402453e+2, -1311289.8, -1382472.4, -316.74286, -0.00082646235, -0.026545573, -1311288.4, 21268.041 
1.250454e+2, 1.7401864e+2, -1213141.0, -1284457.3, -184.72324, 0.00070940674, -0.034363896, -1213140.5, 21473.805 
1.2504512e+2, 1.8401212e+2, -1124736.8, -1205696.6, -109.88399, 0.0009633898, -0.035844535, -1124736.6, 11941.488 
1.2504485e+2, 1.9400504e+2, -1027543.8, -1108067.0, -264.60968, -0.00067463185, -0.030699281, -1027543.0, 11204.581 
1.2504457e+2, 2.0399722e+2, -939756.3, -1030254.56, -425.38858, -0.0010074433, -0.029014962, -939754.3, 1069.817 
1.2504429e+2, 2.1398866e+2, -841699.06, -932242.6, -306.71277, 0.0005852932, -0.034514636, -841698.0, 1209.945 
1.25044e+2, 2.2397947e+2, -753371.75, -853730.3, -235.83734, 0.000906079, -0.035294194, -753371.2, -8373.197 
1.250437e+2, 2.3396967e+2, -655890.7, -755927.1, -378.82605, -0.00065896515, -0.03151871, -655889.25, -8795.278 
1.250434e+2, 2.4395917e+2, -568029.06, -678042.5, -383.5704, -0.0012065162, -0.030013701, -568027.7, -18830.781 
1.2504315e+2, 2.5394794e+2, -470222.44, -580084.3, -238.55426, -0.00023317114, -0.034195732, -470221.9, -18914.906 
1.2504287e+2, 2.6393607e+2, -381983.3, -501699.06, -169.38098, 0.00024138016, -0.0344945, -381983.1, -28559.697 
1.2504259e+2, 2.7392355e+2, -284241.66, -403633.03, -216.10205, -0.000046725498, -0.031637233, -284241.28, -28695.432 
1.2504233e+2, 2.8391024e+2, -197945.06, -329434.4, -109.96759, -0.00038199264, -0.030681595, -197944.97, -40268.55 
1.2504208e+2, 2.9389605e+2, -99957.85, -231423.75, -101.27436, -0.000781879, -0.03526392, -99957.77, -40142.25 
1.2504184e+2, 3.0388522e+2, -3527.5989, -84079.5, -34.677937, -0.0007495926, -0.03526374, -3527.584, -3527.584 
1.2504162e+2, 3.1387797e+2, -3557.9753, -82937.125, 41.718056, -0.00003600348, -0.031177023, -3557.9534, -3557.9534 
1.3505046e+2, 1.2404128e+2, -1682193.5, -1733684.9, 40.474083, 0.0019749764, -0.03930385, -1682193.5, 42198.805 
1.3505016e+2, 1.3403831e+2, -1584552.5, -1636443.9, -154.47438, -0.0015441874, -0.016695583, -1584552.1, 41869.27 
1.3504988e+2, 1.440343e+2, -1496340.6, -1557926.3, -250.65485, -0.0015789318, -0.03923349, -1496339.6, 32121.148 
1.3504963e+2, 1.540298e+2, -1399544.4, -1461176.9, -359.49652, 0.0011822808, -0.036980025, -1399542.3, 30962.459 
1.3504934e+2, 1.6402465e+2, -1311062.4, -1381991.1, -298.2708, 0.0017800265, -0.033683706, -1311061.1, 21493.977 
1.3504905e+2, 1.740189e+2, -1212874.3, -1283883.9, -143.03404, -0.000749766, -0.03044659, -1212874.0, 21737.615 
1.3504875e+2, 1.8401243e+2, -1124995.6, -1206226.1, -305.5314, -0.0014522098, -0.02942031, -1124994.5, 11680.639 
1.3504845e+2, 1.9400519e+2, -1027856.4, -1108719.0, -483.46973, 0.00052086666, -0.03429661, -1027853.5, 10892.502 
1.3504814e+2, 2.0399734e+2, -939570.9, -1029865.2, -443.01627, 0.0010063233, -0.035221133, -939568.75, 1254.1687 
1.3504782e+2, 2.1398889e+2, -841461.94, -931738.56, -303.4375, -0.00070547225, -0.032394435, -841460.9, 1444.7463 
1.3504751e+2, 2.2397974e+2, -753603.5, -854201.56, -378.842, -0.0011851625, -0.030538699, -753602.06, -8606.687 
1.350472e+2, 2.3396985e+2, -656172.5, -756510.1, -536.0668, 0.00017278259, -0.032595873, -656169.6, -9077.349 
1.3504688e+2, 2.4395932e+2, -567806.7, -677593.06, -464.98672, 0.0006703159, -0.03308356, -567804.75, -18609.205 
1.3504659e+2, 2.5394815e+2, -469942.16, -579518.4, -312.83698, -0.00013179443, -0.033493094, -469941.25, -18636.38 
1.3504627e+2, 2.639363e+2, -382021.06, -501780.7, -275.3043, -0.0008051012, -0.03247842, -382020.44, -28599.502 
1.3504598e+2, 2.7392378e+2, -284312.8, -403795.72, -325.09772, -0.0012663365, -0.03204146, -284311.94, -28768.21 
1.350457e+2, 2.8391045e+2, -197957.75, -329448.53, -141.89377, -0.0007339528, -0.031579535, -197957.61, -40283.188 
1.3504547e+2, 2.9389626e+2, -99959.25, -231430.6, -124.12339, 0.001279103, -0.03370354, -99959.13, -40145.836 
1.3504522e+2, 3.0388546e+2, -3410.178, -83801.016, -194.57625, 0.0010499675, -0.0335083, -3409.707, -3409.707 
1.3504489e+2, 3.138782e+2, -3418.481, -82628.984, -135.9616, -0.0025783388, -0.032718144, -3418.2478, -3418.2478 
1.4505424e+2, 1.2404152e+2, -1681626.3, -1733410.1, 194.90974, 0.0015912119, -0.038609814, -1681625.5, 42764.426 
1.4505391e+2, 1.3403854e+2, -1584853.9, -1636612.5, -170.20787, -0.0013432476, -0.016878475, -1584853.4, 41565.773 
1.4505361e+2, 1.4403452e+2, -1496730.4, -1558099.0, -247.52013, -0.001153491, -0.039704207, -1496729.4, 31729.145 
1.4505331e+2, 1.5403004e+2, -1398987.1, -1460892.3, -146.70807, 0.0012059775, -0.036416538, -1398986.8, 31515.629 
1.4505303e+2, 1.640249e+2, -1310373.4, -1381702.8, -93.06985, 0.0015954274, -0.03283622, -1310373.3, 22179.469 
1.450527e+2, 1.7401913e+2, -1213156.1, -1284075.1, -254.19629, -0.0008527398, -0.030410405, -1213155.3, 21454.13 
1.4505237e+2, 1.8401265e+2, -1125481.9, -1206431.9, -489.62762, -0.0014750542, -0.029883929, -1125479.0, 11193.988 
1.4505205e+2, 1.9400541e+2, -1027528.56, -1108521.5, -322.83432, 0.0005678452, -0.03479858, -1027527.3, 11216.442 
1.4505172e+2, 2.0399757e+2, -939086.7, -1029702.44, -171.19846, 0.001081665, -0.035368137, -939086.4, 1734.2631 
1.4505136e+2, 2.1398912e+2, -841654.94, -931905.7, -333.54984, -0.0006655073, -0.031618297, -841653.7, 1249.6842 
1.4505103e+2, 2.2397996e+2, -753911.3, -854256.94, -461.19977, -0.0012276496, -0.029827794, -753909.2, -8916.03 
1.4505069e+2, 2.3397008e+2, -656047.06, -756338.06, -255.30617, -0.000022006634, -0.033401817, -656046.44, -8956.327 
1.4505035e+2, 2.4395955e+2, -567658.94, -677589.2, -113.41785, 0.0005230691, -0.03401262, -567658.8, -18465.541 
1.4505003e+2, 2.539484e+2, -470104.56, -579677.06, -310.35776, 0.00006420257, -0.03246856, -470103.7, -18801.135 
1.4504969e+2, 2.6393655e+2, -382116.5, -501744.44, -383.98096, -0.0005631745, -0.031236012, -382115.28, -28696.66 
1.4504936e+2, 2.7392402e+2, -284075.44, -403585.84, -284.58353, -0.0014236774, -0.033195194, -284074.78, -28533.254 
1.4504905e+2, 2.8391066e+2, -197934.13, -329539.0, -89.27851, -0.0010159233, -0.033031225, -197934.06, -40261.832 
1.450488e+2, 2.9389653e+2, -100743.81, -231901.8, -142.05353, 0.0012923313, -0.03227009, -100743.66, -40932.715 
1.4504853e+2, 3.038857e+2, -4051.024, -83893.47, -169.27246, 0.0011830849, -0.031436652, -4050.665, -4050.665 
1.4504819e+2, 3.1387845e+2, -2962.6248, -82173.69, -92.94096, -0.002597164, -0.03347129, -2962.5156, -2962.5156 
1.55058e+2, 1.2404184e+2, -1681761.3, -1733677.4, 9.700514, -0.001036606, -0.0339673, -1681761.3, 42625.676 
1.5505767e+2, 1.3403875e+2, -1585006.9, -1636931.0, -383.8214, 0.0009200327, -0.02194689, -1585004.0, 41413.145 
1.5505734e+2, 1.4403471e+2, -1496556.3, -1557744.4, -232.6878, 0.0020330905, -0.045516673, -1496555.4, 31901.305 
1.5505703e+2, 1.5403038e+2, -1398778.9, -1460471.1, -108.214294, -0.0005014169, -0.029955175, -1398778.6, 31720.52 
1.5505669e+2, 1.6402525e+2, -1310646.1, -1382277.8, -280.1689, -0.0013348534, -0.024164448, -1310645.0, 21904.36 
1.5505636e+2, 1.7401932e+2, -1213475.4, -1284766.0, -462.31107, 0.0003639384, -0.03417912, -1213472.4, 21135.19 
1.55056e+2, 1.8401279e+2, -1125198.8, -1205849.0, -515.90155, 0.0008324424, -0.03709712, -1125195.5, 11476.033 
1.5505563e+2, 1.9400571e+2, -1027177.9, -1107802.5, -331.27734, -0.00051991513, -0.032265116, -1027176.56, 11564.356 
1.5505527e+2, 2.0399791e+2, -939354.0, -1030261.9, -326.44482, -0.0007506747, -0.029572958, -939352.8, 1464.5662 
1.5505491e+2, 2.1398935e+2, -841990.4, -932611.1, -502.28357, 0.0006726896, -0.032160543, -841987.6, 913.60284 
1.5505457e+2, 2.2398016e+2, -753582.56, -853555.1, -520.4033, 0.0007298554, -0.033081204, -753579.9, -8588.617 
1.5505417e+2, 2.3397036e+2, -655643.56, -755477.3, -304.63525, -0.0012309287, -0.03394195, -655642.6, -8555.277 
1.5505381e+2, 2.4395986e+2, -567966.3, -678211.9, -255.62746, -0.0016179453, -0.03284022, -567965.7, -18775.44 
1.5505347e+2, 2.5394866e+2, -470492.47, -580472.5, -460.38232, 0.0003451982, -0.031124368, -470490.53, -19190.477 
1.5505311e+2, 2.6393676e+2, -381988.97, -501445.1, -421.53833, 0.0009353199, -0.030748682, -381987.47, -28571.066 
1.5505277e+2, 2.7392423e+2, -283891.0, -403158.88, -310.24323, -0.00054776034, -0.03508148, -283890.2, -28350.953 
1.5505242e+2, 2.8391093e+2, -198026.16, -329717.03, -293.3006, -0.0012393718, -0.035029314, -198025.5, -40355.633 
1.550521e+2, 2.9389676e+2, -100866.3, -232152.92, -367.12848, -0.0007128222, -0.030956704, -100865.27, -41056.816 
1.5505178e+2, 3.03886e+2, -3917.9478, -83616.586, -103.52335, -0.00032505317, -0.02904751, -3917.8132, -3917.8132 
1.5505153e+2, 3.138787e+2, -2801.3652, -81838.96, 6.7813554, -0.0001553827, -0.0334517, -2801.3645, -2801.3645 
1.6506179e+2, 1.2404213e+2, -1681942.5, -1733839.3, 111.942566, -0.0009954564, -0.034251086, -1681942.3, 42441.75 
1.6506141e+2, 1.3403903e+2, -1584454.4, -1636755.5, -195.7623, 0.0009968268, -0.021863924, -1584453.6, 41960.76 
1.6506109e+2, 1.4403498e+2, -1495876.5, -1557513.5, -44.6357, 0.0021074526, -0.045503996, -1495876.5, 32577.504 
1.6506073e+2, 1.5403065e+2, -1398872.3, -1460607.3, -187.47952, -0.0006694144, -0.030001206, -1398871.6, 31624.9 
1.6506039e+2, 1.6402553e+2, -1310946.9, -1382421.0, -460.2857, -0.001491056, -0.02427366, -1310944.0, 21602.78 
1.6506e+2, 1.7401959e+2, -1213334.5, -1284667.1, -301.27325, 0.0005942856, -0.03435835, -1213333.3, 21271.68 
1.6505963e+2, 1.8401307e+2, -1124911.4, -1205746.8, -204.79463, 0.0011399077, -0.037039462, -1124910.8, 11758.066 
1.6505925e+2, 1.9400598e+2, -1027144.4, -1107827.6, -397.74554, -0.000595171, -0.031520374, -1027142.44, 11595.826 
1.6505885e+2, 2.0399816e+2, -939376.2, -1030236.3, -575.7257, -0.0010139105, -0.028975958, -939372.56, 1442.2117 
1.6505846e+2, 2.1398962e+2, -841958.44, -932532.75, -372.8772, 0.00051214447, -0.032936428, -841956.9, 941.7531 
1.6505808e+2, 2.2398043e+2, -753621.06, -853633.8, -256.77438, 0.0007528152, -0.033971153, -753620.44, -8631.761 
1.6505767e+2, 2.3397063e+2, -655791.0, -755626.06, -502.796, -0.0009133881, -0.03307915, -655788.5, -8703.791 
1.6505729e+2, 2.4396013e+2, -568022.1, -678197.06, -615.98584, -0.0013971826, -0.031782914, -568018.7, -18831.117 
1.6505688e+2, 2.5394893e+2, -470385.34, -580352.3, -377.15692, -0.000111827765, -0.03219833, -470384.03, -19086.535 
1.6505651e+2, 2.6393706e+2, -382009.6, -501526.8, -119.14374, 0.00048559412, -0.032043315, -382009.5, -28595.635 
1.6505617e+2, 2.7392453e+2, -284302.38, -403417.1, -257.2975, 0.00003669235, -0.033723507, -284301.8, -28765.287 
1.650558e+2, 2.839112e+2, -198248.89, -329683.8, -356.86627, -0.0006589863, -0.033346828, -198247.92, -40580.836 
1.6505541e+2, 2.9389703e+2, -100364.48, -231770.03, -209.87994, -0.0017139683, -0.032474533, -100364.14, -40558.316 
1.6505508e+2, 3.0388623e+2, -3616.9993, -83640.91, 154.87389, -0.0014228276, -0.031128079, -3616.6995, -3616.6995 
1.6505483e+2, 3.1387898e+2, -3590.5059, -82411.39, -31.275719, 0.0009252832, -0.03204181, -3590.4937, -3590.4937 
1.7506558e+2, 1.240424e+2, -1681883.0, -1733706.0, 106.10232, 0.0016346914, -0.039335877, -1681882.8, 42498.63 
1.7506517e+2, 1.3403942e+2, -1584405.1, -1636654.0, -214.95412, -0.0010674972, -0.016748475, -1584404.1, 42006.48 
1.750648e+2, 1.4403535e+2, -1496161.0, -1558088.4, -192.9115, -0.0008685846, -0.039801765, -1496160.4, 32289.92 
1.7506446e+2, 1.5403086e+2, -1399186.4, -1461265.9, -345.69037, 0.0006557925, -0.03640314, -1399184.4, 31310.066 
1.7506407e+2, 1.640257e+2, -1310675.3, -1381848.6, -557.42584, 0.001052498, -0.032958493, -1310670.9, 21874.082 
1.7506364e+2, 1.7401993e+2, -1212986.0, -1283969.8, -393.5877, -0.00014478427, -0.031028168, -1212983.8, 21617.752 
1.7506325e+2, 1.8401344e+2, -1125233.6, -1206398.1, -280.91388, -0.00051599817, -0.029872987, -1125232.8, 11432.419 
1.7506287e+2, 1.9400622e+2, -1027541.4, -1108639.9, -468.85422, 0.0003124171, -0.032521512, -1027538.7, 11197.107 
1.7506245e+2, 2.0399839e+2, -939063.0, -1029552.56, -719.27826, 0.0002460981, -0.03345819, -939057.25, 1755.4679 
1.7506199e+2, 2.1398991e+2, -841554.7, -931686.3, -527.43396, -0.001125877, -0.033939756, -841551.56, 1344.1241 
1.7506155e+2, 2.2398075e+2, -754014.9, -854444.0, -341.22037, -0.0011278039, -0.032546718, -754013.75, -9028.287 
1.7506117e+2, 2.339709e+2, -656275.9, -756632.6, -575.5452, 0.00089118636, -0.030842787, -656272.56, -9190.474 
1.7506078e+2, 2.4396037e+2, -567657.5, -677420.44, -717.4574, 0.001122928, -0.030838557, -567652.8, -18467.568 
1.7506032e+2, 2.5394917e+2, -469919.22, -579371.9, -485.20728, -0.0013011431, -0.03563694, -469917.06, -18622.176 
1.750599e+2, 2.6393732e+2, -382221.03, -501949.47, -240.09947, -0.0018780195, -0.03507775, -382220.56, -28809.61 
1.7505954e+2, 2.7392483e+2, -284593.28, -404009.6, -376.75604, 0.00032681494, -0.029193483, -284592.1, -29058.742 
1.7505915e+2, 2.8391153e+2, -198000.5, -329179.25, -406.61008, 0.00069312105, -0.028059023, -197999.25, -40335.336 
1.7505875e+2, 2.938973e+2, -100049.555, -231136.92, -253.68114, -0.0017394584, -0.036761798, -100049.07, -40246.008 
1.7505838e+2, 3.038865e+2, -3947.2266, -84347.02, -5.8454227, -0.0021259259, -0.037589267, -3947.2263, -3947.2263 
1.750581e+2, 3.1387928e+2, -4008.8137, -83278.16, -204.06137, 0.00064453244, -0.029288424, -4008.2886, -4008.2886 
1.8506938e+2, 1.2404272e+2, -1681605.3, -1733584.9, 101.43122, 0.001695285, -0.039484147, -1681605.1, 42773.152 
1.8506895e+2, 1.3403973e+2, -1584246.3, -1636614.9, -312.48807, -0.0011427104, -0.016391298, -1584244.4, 42163.125 
1.8506856e+2, 1.4403568e+2, -1496072.0, -1558024.3, -328.24722, -0.0008911236, -0.03963315, -1496070.3, 32377.016 
1.8506816e+2, 1.5403117e+2, -1399250.4, -1461259.1, -144.65718, 0.00077354495, -0.03674776, -1399250.1, 31241.275 
1.8506774e+2, 1.6402602e+2, -1310647.1, -1381882.1, -158.4466, 0.0011288506, -0.03326837, -1310646.8, 21895.068 
1.8506733e+2, 1.7402025e+2, -1212408.9, -1283728.3, -363.7589, -0.0003721319, -0.03050806, -1212407.0, 22191.42 
1.850669e+2, 1.8401377e+2, -1124680.0, -1206151.9, -487.10562, -0.0007544469, -0.029354244, -1124677.1, 11984.907 
1.8506646e+2, 1.9400653e+2, -1027977.7, -1108859.3, -295.04773, 0.00048620804, -0.03322028, -1027976.6, 10756.184 
1.8506601e+2, 2.0399868e+2, -939679.06, -1029888.25, -321.68362, 0.00052452344, -0.034248963, -939677.94, 1131.8248 
1.8506554e+2, 2.1399024e+2, -841185.0, -931544.56, -548.6738, -0.0012012494, -0.033162747, -841181.6, 1710.9495 
1.8506509e+2, 2.2398108e+2, -753346.2, -854126.56, -557.3191, -0.0013170177, -0.031502903, -753343.06, -8360.742 
1.8506467e+2, 2.3397121e+2, -656426.2, -756678.75, -292.0458, 0.0009438513, -0.03146671, -656425.3, -9346.227 
1.8506423e+2, 2.4396068e+2, -568114.9, -677631.8, -199.96808, 0.0012557517, -0.031724893, -568114.56, -18932.26 
1.8506375e+2, 2.539495e+2, -469924.7, -579377.9, -438.88983, -0.00133861, -0.03467737, -469922.9, -18631.172 
1.850633e+2, 2.6393765e+2, -382072.38, -501801.9, -454.40756, -0.002062052, -0.033864535, -382070.66, -28662.896 
1.850629e+2, 2.739252e+2, -284805.5, -404041.03, -254.98163, 0.00004359116, -0.030122407, -284804.94, -29274.684 
1.850625e+2, 2.8391182e+2, -198446.1, -329426.3, -77.84696, 0.0006675648, -0.029308276, -198446.05, -40785.207 
1.8506208e+2, 2.9389766e+2, -100264.22, -231295.83, -276.29312, -0.0009778285, -0.03556826, -100263.63, -40463.805 
1.8506171e+2, 3.0388683e+2, -3962.4011, -84252.086, -210.80978, -0.0015381009, -0.036132973, -3961.8477, -3961.8477 
1.8506134e+2, 3.1387958e+2, -4157.1377, -83239.375, 82.02422, -0.00040181782, -0.030906206, -4157.0527, -4157.0527 
1.9507316e+2, 1.24043085e+2, -1681682.9, -1733764.8, 72.35649, -0.0007691584, -0.034829, -1681682.8, 42691.863 
1.9507277e+2, 1.3404e+2, -1584341.0, -1636833.5, -355.32706, 0.0007160788, -0.02066674, -1584338.6, 42066.246 
1.9507234e+2, 1.4403595e+2, -1495766.9, -1557387.4, -511.45792, 0.0019512406, -0.044853427, -1495762.6, 32682.002 
1.9507188e+2, 1.540316e+2, -1398885.1, -1460532.9, -344.9608, -0.00029660112, -0.031189624, -1398883.3, 31603.992 
1.9507141e+2, 1.6402647e+2, -1310968.1, -1382544.6, -130.46292, -0.0012086738, -0.025419137, -1310967.9, 21569.549 
1.9507101e+2, 1.7402056e+2, -1212806.9, -1284564.0, -307.2133, -0.00011291734, -0.03272363, -1212805.6, 21789.898 
1.9507056e+2, 1.84014e+2, -1124402.1, -1205543.4, -777.4766, 0.00036927674, -0.035309963, -1124394.8, 12264.825 
1.9507004e+2, 1.9400689e+2, -1027597.94, -1108096.9, -625.71295, -0.00006593802, -0.033622336, -1027593.1, 11136.193 
1.9506955e+2, 2.0399909e+2, -940017.4, -1030595.7, -261.71286, -0.00016331216, -0.03143987, -940016.6, 789.27344 
1.9506912e+2, 2.1399055e+2, -841613.4, -932431.5, -442.45285, 0.00023771096, -0.030647554, -841611.2, 1278.1565 
1.9506864e+2, 2.2398138e+2, -752954.9, -853291.9, -801.14307, 0.00013156787, -0.030829024, -752948.5, -7969.1636 
1.9506812e+2, 2.3397154e+2, -655924.25, -755653.06, -578.57434, -0.0007194072, -0.034881055, -655920.94, -8845.158 
1.9506763e+2, 2.4396104e+2, -568461.44, -678362.4, -223.4244, -0.00095100637, -0.034393083, -568460.94, -19282.264 
1.950672e+2, 2.5394988e+2, -470378.97, -580313.0, -428.43042, -0.0002612988, -0.029426219, -470377.28, -19089.184 
1.9506674e+2, 2.63938e+2, -381777.9, -501206.47, -647.2273, -0.00012414242, -0.028506646, -381774.4, -28370.137 
1.9506626e+2, 2.7392545e+2, -284416.63, -403266.4, -474.07162, -0.0008081364, -0.036380865, -284414.72, -28887.44 
1.950658e+2, 2.8391215e+2, -198751.69, -330059.3, -84.49698, -0.0007168442, -0.03693838, -198751.63, -41093.746 
1.9506542e+2, 2.9389805e+2, -100657.85, -232104.56, -254.26068, 0.0005446153, -0.029023096, -100657.36, -40861.203 
1.9506504e+2, 3.0388725e+2, -3524.8042, -83315.07, -397.0813, 0.00030354186, -0.026941335, -3522.8281, -3522.8281 
1.9506457e+2, 3.138799e+2, -3609.831, -82090.305, -134.04083, -0.0022085425, -0.036775365, -3609.6023, -3609.6023 
2.0507698e+2, 1.24043465e+2, -1680862.6, -1733363.6, 279.88406, -0.0006479176, -0.034310315, -1680861.1, 43509.77 
2.0507655e+2, 1.3404037e+2, -1584703.4, -1637027.3, -88.19334, 0.0007348418, -0.020906802, -1584703.3, 41698.07 
2.050761e+2, 1.4403632e+2, -1496243.9, -1557670.5, -195.50938, 0.0019283025, -0.045292288, -1496243.3, 32197.785 
2.0507559e+2, 1.5403196e+2, -1397970.6, -1460132.4, -412.63144, -0.0004858051, -0.030347662, -1397967.9, 32515.717 
2.0507511e+2, 1.6402684e+2, -1309988.0, -1382119.3, -449.68143, -0.0013028502, -0.024484614, -1309985.1, 22548.664 
2.0507468e+2, 1.740209e+2, -1213761.3, -1285072.4, -262.311, 0.00027628965, -0.03343037, -1213760.3, 20831.8 
2.050742e+2, 1.8401437e+2, -1125532.4, -1206073.3, -495.55405, 0.0007162602, -0.03626933, -1125529.4, 11126.798 
2.0507365e+2, 1.9400726e+2, -1026478.94, -1107507.5, -682.7543, -0.00053326105, -0.032800645, -1026473.2, 12252.536 
2.0507313e+2, 2.0399944e+2, -938515.3, -1029932.0, -518.66986, -0.0007023071, -0.030250479, -938512.4, 2289.9224 
2.0507266e+2, 2.1399091e+2, -842371.2, -932856.25, -323.88025, 0.0007149025, -0.031171383, -842370.0, 515.96423 
2.0507216e+2, 2.2398172e+2, -754266.6, -853834.1, -510.79205, 0.00073105335, -0.031802867, -754264.0, -9288.014 
2.0507161e+2, 2.3397191e+2, -655561.7, -755358.44, -719.30853, -0.0013221911, -0.0344279, -655556.5, -8484.292 
2.0507108e+2, 2.4396141e+2, -567687.8, -678046.5, -544.2744, -0.0017304549, -0.033552513, -567685.1, -18510.082 
2.0507061e+2, 2.5395024e+2, -470824.7, -580610.6, -348.15533, 0.0003126549, -0.029752716, -470823.6, -19538.943 
2.0507014e+2, 2.6393837e+2, -382449.16, -501440.72, -390.7351, 0.0007727431, -0.029178001, -382447.88, -29047.03 
2.0506962e+2, 2.739258e+2, -284060.0, -402973.88, -543.02765, -0.0011415334, -0.03615513, -284057.53, -28533.809 
2.0506914e+2, 2.839125e+2, -198247.39, -329800.16, -235.5378, -0.0015010339, -0.036452197, -198246.97, -40592.754 
2.0506872e+2, 2.938984e+2, -101363.25, -232417.45, 13.362452, 0.0004981692, -0.029242149, -101363.24, -41570.703 
2.050683e+2, 3.0388764e+2, -4456.4453, -83527.37, 9.793706, 0.0006400586, -0.027146943, -4456.444, -4456.444 
2.0506783e+2, 3.1388035e+2, -3586.9968, -81808.945, -130.65256, -0.0020458396, -0.035871707, -3586.7788, -3586.7788 
2.1508086e+2, 1.2404385e+2, -1680788.5, -1733210.1, -37.976482, 0.0019628867, -0.037807137, -1680788.5, 43578.625 
2.1508029e+2, 1.3404083e+2, -1584630.0, -1636918.4, -434.0513, -0.001039039, -0.017225653, -1584626.4, 41770.273 
2.1507978e+2, 1.4403677e+2, -1496601.8, -1558428.5, -80.63404, -0.00088869367, -0.04109009, -1496601.6, 31834.94 
2.1507938e+2, 1.5403229e+2, -1398392.3, -1460996.5, -244.55536, 0.00016682195, -0.034084484, -1398391.3, 32089.215 
2.150789e+2, 1.6402712e+2, -1309743.4, -1381578.6, -835.7245, 0.00077097194, -0.030264275, -1309733.8, 22797.322 
2.1507832e+2, 1.7402129e+2, -1213417.8, -1284375.6, -709.66907, 0.0007799313, -0.03266911, -1213410.6, 21177.568 
2.1507777e+2, 1.840148e+2, -1125766.8, -1206578.4, -304.61932, 0.00029528188, -0.032373745, -1125765.6, 10886.284 
2.150773e+2, 1.9400764e+2, -1026798.0, -1108161.6, -420.0374, -0.0009258204, -0.030789156, -1026795.8, 11926.237 
2.1507679e+2, 2.0399979e+2, -938279.25, -1029394.7, -924.19495, -0.0011056468, -0.030634513, -938269.9, 2529.04 
2.150762e+2, 2.1399125e+2, -842048.3, -932181.1, -805.1376, 0.00024723227, -0.034650512, -842041.1, 841.29987 
2.1507563e+2, 2.239821e+2, -754533.1, -854412.3, -421.8499, 0.00049662543, -0.034376215, -754531.4, -9559.07 
2.150751e+2, 2.339723e+2, -655910.4, -756085.56, -564.18744, -0.0009005877, -0.030212702, -655907.2, -8838.832 
2.1507458e+2, 2.439618e+2, -567435.56, -677508.1, -802.8527, -0.0011321497, -0.029299363, -567429.7, -18258.32 
2.1507403e+2, 2.5395057e+2, -470493.56, -579928.25, -655.47797, 0.00038862886, -0.035507094, -470489.63, -19208.256 
2.150735e+2, 2.639387e+2, -382624.56, -501855.66, -377.02997, 0.00064968725, -0.035715118, -382623.38, -29225.854 
2.1507299e+2, 2.7392626e+2, -284296.88, -403526.84, -489.77713, -0.0009817012, -0.02961669, -284294.88, -28775.305 
2.1507248e+2, 2.8391296e+2, -197916.77, -329078.6, -490.4713, -0.0017186641, -0.028064799, -197914.94, -40265.047 
2.1507199e+2, 2.9389873e+2, -100955.984, -231547.02, -281.22336, -0.0010843163, -0.036046915, -100955.375, -41166.39 
2.1507151e+2, 3.0388796e+2, -4610.6343, -83830.9, 6.828726, -0.0004950362, -0.036505602, -4610.634, -4610.634 
2.1507108e+2, 3.1388083e+2, -3805.1096, -82262.38, -97.57651, 0.000020408901, -0.028380817, -3804.988, -3804.988 
2.2508469e+2, 1.2404429e+2, -1681586.9, -1733660.8, 9.069523, 0.0020262531, -0.0384859, -1681586.9, 42775.977 
2.250841e+2, 1.3404128e+2, -1583391.5, -1636411.0, -534.3937, -0.0013015947, -0.016342694, -1583386.1, 43006.313 
2.2508357e+2, 1.440372e+2, -1495114.8, -1557784.3, -183.4169, -0.0010064082, -0.04034383, -1495114.3, 33318.164 
2.2508313e+2, 1.5403268e+2, -1399329.9, -1461529.9, 16.467916, 0.00067499286, -0.035115704, -1399329.9, 31146.615 
2.250826e+2, 1.6402753e+2, -1310914.8, -1382097.5, -413.6559, 0.001210373, -0.031463355, -1310912.4, 21614.709 
2.25082e+2, 1.740217e+2, -1211866.5, -1283557.1, -576.93256, 0.00014790404, -0.031694144, -1211861.9, 22722.133 
2.2508141e+2, 1.8401523e+2, -1123984.4, -1205832.4, -311.0503, -0.00041439725, -0.030925823, -1123983.1, 12664.502 
2.2508092e+2, 1.9400802e+2, -1028106.06, -1108938.8, -206.6578, -0.00026606495, -0.031351652, -1028105.56, 10612.622 
2.2508037e+2, 2.0400019e+2, -940108.0, -1030147.1, -632.824, -0.00024319862, -0.03180884, -940103.56, 691.5687 
2.2507973e+2, 2.1399169e+2, -841065.7, -931551.5, -734.21533, -0.00040123245, -0.03437568, -841059.75, 1818.6146 
2.2507913e+2, 2.2398251e+2, -752952.44, -853824.25, -406.4349, -0.00041932944, -0.033525255, -752950.8, -7982.696 
2.250786e+2, 2.3397268e+2, -656389.6, -756545.75, -341.22784, -0.0002472532, -0.030079067, -656388.44, -9323.949 
2.2507803e+2, 2.4396217e+2, -568366.75, -677761.8, -549.49506, -0.00016571891, -0.029596824, -568363.94, -19196.424 
2.2507744e+2, 2.5395098e+2, -470190.22, -579521.44, -579.6195, -0.00020869632, -0.035812266, -470187.16, -18909.836 
2.2507687e+2, 2.639391e+2, -382245.03, -501784.0, -289.58313, -0.0003596036, -0.035704352, -382244.34, -28850.965 
2.2507635e+2, 2.7392668e+2, -284931.88, -404001.88, -251.46338, -0.0006673881, -0.028801175, -284931.34, -29415.846 
2.2507583e+2, 2.8391337e+2, -198622.64, -329188.53, -375.03067, -0.00095897156, -0.027325409, -198621.56, -40975.72 
2.2507526e+2, 2.9389918e+2, -100920.68, -231238.9, -446.04935, -0.0012197044, -0.036718477, -100919.16, -41134.324 
2.2507475e+2, 3.038884e+2, -4476.1294, -84023.63, -115.67104, -0.0010132922, -0.037373427, -4475.961, -4475.961 
2.2507432e+2, 3.1388125e+2, -3711.889, -82537.445, -204.45831, -0.00008983236, -0.027578954, -3711.3586, -3711.3586 
2.3508847e+2, 1.2404476e+2, -1681741.5, -1734001.4, 204.91643, -0.00040264116, -0.036449835, -1681740.6, 42617.586 
2.3508796e+2, 1.3404168e+2, -1583592.3, -1636820.4, -341.056, -0.000110484034, -0.018170418, -1583590.0, 42798.37 
2.3508744e+2, 1.440376e+2, -1494876.5, -1557277.8, -586.48895, 0.0014785216, -0.042938422, -1494871.0, 33557.414 
2.3508684e+2, 1.5403317e+2, -1399025.3, -1460912.8, -451.49503, 0.0010287493, -0.033526815, -1399022.0, 31449.813 
2.3508626e+2, 1.6402803e+2, -1311087.1, -1382469.0, -225.58507, 0.000056637473, -0.028226264, -1311086.5, 21435.656 
2.3508571e+2, 1.7402217e+2, -1212117.0, -1284043.1, -315.92444, -0.0015924467, -0.030514669, -1212115.6, 22463.906 
2.3508513e+2, 1.8401566e+2, -1123913.0, -1205659.9, -775.796, -0.00141482, -0.03184989, -1123905.6, 12737.931 
2.350845e+2, 1.9400845e+2, -1027975.8, -1108684.3, -750.40625, 0.0014027872, -0.034409724, -1027968.9, 10745.181 
2.350839e+2, 2.040006e+2, -940175.2, -1030310.0, -462.98682, 0.0018360382, -0.03374647, -940172.8, 618.0105 
2.350833e+2, 2.1399216e+2, -841180.3, -931767.06, -485.68198, -0.0012334845, -0.030461278, -841177.7, 1695.9662 
2.3508269e+2, 2.23983e+2, -752930.9, -853757.44, -725.7857, -0.0020066807, -0.029356146, -752925.6, -7962.1377 
2.3508207e+2, 2.339731e+2, -656345.94, -756439.3, -723.03784, 0.0006223057, -0.033904113, -656340.7, -9280.197 
2.3508146e+2, 2.4396257e+2, -568365.2, -677750.44, -577.1588, 0.0011479935, -0.03430684, -568362.1, -19198.557 
2.3508084e+2, 2.5395146e+2, -470194.44, -579527.9, -567.7985, -0.0014668781, -0.030829586, -470191.5, -18918.98 
2.3508024e+2, 2.6393965e+2, -382216.22, -501760.4, -476.6754, -0.0022350433, -0.029339252, -382214.3, -28825.893 
2.3507969e+2, 2.7392706e+2, -284896.9, -403981.16, -460.0265, -0.00021207072, -0.033541083, -284895.13, -29383.602 
2.3507914e+2, 2.8391376e+2, -198705.6, -329346.28, -487.41208, 0.00073891657, -0.03400893, -198703.78, -41061.703 
2.3507854e+2, 2.9389966e+2, -101012.0, -231414.31, -548.5561, 0.000043949876, -0.03143237, -101009.69, -41229.594 
2.3507802e+2, 3.038889e+2, -4696.653, -84465.43, -93.30776, -0.0009414648, -0.029993342, -4696.544, -4696.544 
2.3507757e+2, 3.1388158e+2, -3969.208, -83024.03, -162.64395, -0.002334718, -0.033260606, -3968.8733, -3968.8733 
2.4509233e+2, 1.2404525e+2, -1680312.1, -1733305.9, 325.18137, -0.0008428537, -0.035693023, -1680310.1, 44043.33 
2.450918e+2, 1.3404216e+2, -1584328.4, -1637211.1, -59.43852, 0.0004044932, -0.01906758, -1584328.4, 42055.48 
2.4509123e+2, 1.4403805e+2, -1495928.1, -1557769.3, -388.11346, 0.002104774, -0.044108424, -1495925.8, 32498.168 
2.4509059e+2, 1.5403366e+2, -1397824.1, -1460306.4, -548.411, 0.000382273, -0.032278813, -1397819.3, 32647.688 
2.4508996e+2, 1.6402854e+2, -1309696.9, -1381909.1, -351.9479, -0.0007693919, -0.026548322, -1309695.1, 22822.234 
2.4508941e+2, 1.7402263e+2, -1213277.5, -1284743.3, -287.25836, -0.0010084199, -0.031295978, -1213276.4, 21298.773 
2.450888e+2, 1.840161e+2, -1125311.3, -1206229.1, -769.55615, -0.0005354522, -0.03333768, -1125303.9, 11335.269 
2.4508812e+2, 1.9400893e+2, -1026664.6, -1107901.9, -786.75854, 0.00094825675, -0.03403489, -1026657.0, 12052.361 
2.4508746e+2, 2.040011e+2, -938452.06, -1029644.8, -433.73672, 0.00104178, -0.0326016, -938450.0, 2336.0964 
2.4508685e+2, 2.1399261e+2, -841875.7, -932332.06, -485.12973, -0.0009064409, -0.030153267, -841873.06, 996.1515 
2.4508622e+2, 2.2398344e+2, -754196.75, -854130.8, -799.947, -0.001378372, -0.02963926, -754190.4, -9231.22 
2.4508555e+2, 2.3397358e+2, -656166.7, -756058.9, -668.2529, 0.0003337896, -0.03440649, -656162.25, -9106.329 
2.450849e+2, 2.4396306e+2, -567930.9, -677759.2, -405.12244, 0.00058452704, -0.03445094, -567929.44, -18770.521 
2.4508426e+2, 2.5395194e+2, -470447.13, -579931.0, -567.1919, -0.0013503248, -0.029754959, -470444.2, -19176.238 
2.4508363e+2, 2.639401e+2, -382452.38, -501573.16, -606.722, -0.0018164502, -0.028439412, -382449.28, -29065.383 
2.4508302e+2, 2.7392754e+2, -284936.66, -403645.47, -396.0058, -0.00006256676, -0.034901496, -284935.34, -29428.447 
2.4508242e+2, 2.839142e+2, -198802.36, -329684.97, -204.44626, 0.0005794308, -0.035511892, -198802.03, -41164.645 
2.4508183e+2, 2.9390013e+2, -100522.26, -231580.0, -393.8981, -0.00048048332, -0.029864024, -100521.07, -40745.605 
2.4508128e+2, 3.0388936e+2, -4280.62, -83964.93, -36.55619, -0.0012882032, -0.028063297, -4280.603, -4280.603 
2.4508078e+2, 3.1388205e+2, -5726.2046, -83483.445, 384.55664, -0.0016768888, -0.035115134, -5724.3027, -5724.3027 
2.5509623e+2, 1.24045745e+2, -1680157.4, -1732975.6, -6.7125683, 0.00061635394, -0.036159348, -1680157.4, 44191.176 
2.550956e+2, 1.3404268e+2, -1584176.6, -1636899.8, -423.03345, 0.00025702224, -0.019066965, -1584173.1, 42205.49 
2.5509498e+2, 1.4403859e+2, -1496142.3, -1558216.8, -316.6118, 0.0009279383, -0.043900803, -1496140.6, 32278.127 
2.5509435e+2, 1.5403417e+2, -1398088.4, -1460835.6, -426.97748, -0.0012411079, -0.03136138, -1398085.5, 32376.645 
2.5509372e+2, 1.6402899e+2, -1309694.8, -1381866.5, -702.4309, -0.0012891459, -0.026373422, -1309688.0, 22824.783 
2.550931e+2, 1.7402309e+2, -1213233.4, -1284636.0, -687.7061, 0.0018148161, -0.03396968, -1213226.8, 21344.004 
2.5509244e+2, 1.8401656e+2, -1125250.8, -1206100.6, -659.9201, 0.0021521468, -0.035366807, -1125245.3, 11389.314 
2.5509176e+2, 1.9400945e+2, -1026614.3, -1107781.8, -622.9202, -0.0015659826, -0.030345159, -1026609.56, 12094.714 
2.5509107e+2, 2.0400164e+2, -938627.6, -1029961.94, -762.0356, -0.0025388333, -0.028476473, -938621.25, 2159.7222 
2.5509042e+2, 2.1399304e+2, -842063.75, -932696.1, -864.5001, 0.00053433515, -0.033332422, -842055.56, 809.495 
2.5508973e+2, 2.2398385e+2, -753932.2, -853563.25, -843.8208, 0.001381144, -0.03422492, -753925.06, -8970.055 
2.55089e+2, 2.339741e+2, -655851.3, -755395.75, -678.6914, -0.0010827704, -0.031693667, -655846.7, -8796.016 
2.5508833e+2, 2.4396363e+2, -568217.5, -678343.8, -551.2178, -0.0018046915, -0.030175962, -568214.75, -19061.32 
2.550877e+2, 2.5395238e+2, -470806.94, -580659.94, -723.3005, 0.000085657, -0.032466564, -470802.2, -19538.56 
2.5508705e+2, 2.639405e+2, -382127.03, -500885.13, -771.0839, 0.0008109065, -0.032831553, -382122.03, -28742.232 
2.5508636e+2, 2.7392808e+2, -284528.2, -402787.3, -566.92, -0.00022036379, -0.032990165, -284525.47, -29023.848 
2.550857e+2, 2.839148e+2, -199093.75, -330260.94, -172.67854, -0.0013885214, -0.03199524, -199093.52, -41461.676 
2.5508514e+2, 2.939006e+2, -100914.336, -232337.13, -331.8574, -0.0027413298, -0.031896703, -100913.5, -41142.555 
2.5508454e+2, 3.0388984e+2, -3675.666, -82669.95, -515.6165, -0.0020444815, -0.031416714, -3672.3005, -3672.3005 
2.5508392e+2, 3.1388265e+2, -4967.6274, -81925.52, -170.93385, 0.0017678924, -0.03327689, -4967.248, -4967.248 
2.6510012e+2, 1.24046296e+2, -1680455.8, -1733200.1, 168.38416, 0.0014376045, -0.036905322, -1680455.3, 43887.973 
2.6509944e+2, 1.3404325e+2, -1583448.1, -1636666.1, -497.24133, -0.00041114507, -0.017727423, -1583443.4, 42929.766 
2.6509875e+2, 1.4403914e+2, -1495223.3, -1557828.5, -256.85715, 0.000020951142, -0.042624723, -1495222.3, 33191.17 
2.6509815e+2, 1.5403469e+2, -1398304.0, -1460985.6, -118.70547, -0.00078765384, -0.032385353, -1398303.8, 32153.236 
2.650975e+2, 1.6402951e+2, -1310026.8, -1382026.0, -458.83813, -0.00044475798, -0.027871732, -1310023.9, 22483.771 
2.650968e+2, 1.7402361e+2, -1212327.9, -1284178.5, -498.0261, 0.0016413078, -0.033289112, -1212324.4, 22240.996 
2.650961e+2, 1.840171e+2, -1124317.6, -1205761.9, -371.39044, 0.0015832757, -0.033917993, -1124315.9, 12313.387 
2.650954e+2, 1.9400997e+2, -1027203.44, -1108198.9, -463.30365, -0.0016268229, -0.030191416, -1027200.75, 11498.395 
2.6509467e+2, 2.0400214e+2, -939489.5, -1030245.44, -747.9193, -0.0023324653, -0.02907335, -939483.4, 1292.6172 
2.6509395e+2, 2.1399358e+2, -841826.4, -932398.3, -573.1864, 0.00065100717, -0.03386413, -841822.75, 1037.0876 
2.6509324e+2, 2.2398439e+2, -753412.4, -853489.25, -408.59442, 0.001403668, -0.03430347, -753410.7, -8460.915 
2.650925e+2, 2.3397462e+2, -655761.7, -755577.1, -690.98303, -0.0011646026, -0.030754246, -655756.9, -8711.38 
2.6509178e+2, 2.4396414e+2, -568190.56, -678108.75, -733.13446, -0.001864793, -0.029435318, -568185.6, -19037.316 
2.650911e+2, 2.539529e+2, -470954.56, -580463.0, -376.68686, 0.00023511516, -0.033726037, -470953.28, -19694.809 
2.650904e+2, 2.6394105e+2, -382530.03, -501317.56, -274.59894, 0.0008700605, -0.034078248, -382529.4, -29154.816 
2.6508966e+2, 2.739286e+2, -284564.38, -403063.53, -671.1388, -0.0007071631, -0.031207575, -284560.6, -29064.188 
2.6508898e+2, 2.8391534e+2, -199003.42, -329848.94, -394.48166, -0.0017384288, -0.029908655, -199002.23, -41375.68 
2.6508838e+2, 2.9390115e+2, -102260.95, -232517.25, 131.11487, -0.0019261157, -0.033639897, -102260.82, -42495.24 
2.6508778e+2, 3.0389038e+2, -5086.841, -83458.49, 3.4930453, -0.0012271948, -0.033757288, -5086.841, -5086.841 
2.650871e+2, 3.1388324e+2, -3419.3704, -81349.86, -548.513, 0.00080660084, -0.031241287, -3415.51, -3415.51 
2.7510405e+2, 1.2404689e+2, -1680704.8, -1733715.3, 90.109505, 0.0016085056, -0.03791515, -1680704.5, 43632.84 
2.7510327e+2, 1.3404383e+2, -1583728.8, -1637262.9, -585.44745, -0.0015907015, -0.015099328, -1583722.4, 42645.04 
2.751026e+2, 1.4403972e+2, -1495082.0, -1557539.6, -423.47888, -0.0006368625, -0.040321086, -1495079.1, 33328.6 
2.7510196e+2, 1.5403523e+2, -1398116.8, -1460611.3, -294.81992, 0.0016531097, -0.03527702, -1398115.4, 32336.275 
2.7510124e+2, 1.6403008e+2, -1310040.1, -1382023.6, -548.6455, 0.0016993851, -0.030976402, -1310036.0, 22466.193 
2.751005e+2, 1.7402424e+2, -1212352.8, -1284220.9, -577.3944, -0.0014278302, -0.029380256, -1212348.1, 22211.139 
2.7509972e+2, 1.8401773e+2, -1124525.4, -1206177.8, -589.6048, -0.0021374354, -0.029118013, -1124521.1, 12102.117 
2.7509904e+2, 1.9401048e+2, -1027428.0, -1108663.1, -693.2324, 0.0006657909, -0.033442426, -1027422.06, 11272.075 
2.750983e+2, 2.0400263e+2, -939161.75, -1029569.3, -854.53015, 0.0015122109, -0.034215078, -939153.7, 1617.3885 
2.750975e+2, 2.139942e+2, -841425.6, -931607.06, -670.90155, -0.00051556976, -0.03184262, -841420.7, 1433.1029 
2.750967e+2, 2.2398505e+2, -753894.7, -854450.5, -527.0458, -0.0012222141, -0.030032948, -753891.94, -8948.465 
2.7509597e+2, 2.3397514e+2, -656346.5, -756743.5, -804.94934, 0.00003206573, -0.031527374, -656340.06, -9299.563 
2.7509525e+2, 2.4396463e+2, -567653.44, -676963.25, -931.29395, 0.00031036857, -0.032106068, -567645.5, -18501.941 
2.7509445e+2, 2.5395352e+2, -470282.28, -579051.8, -592.2738, -0.00086446205, -0.033581737, -470279.03, -19026.574 
2.7509373e+2, 2.6394168e+2, -383132.5, -502540.16, -351.7863, -0.0015582952, -0.03228705, -383131.47, -29763.184 
2.75093e+2, 2.7392918e+2, -285313.4, -404608.8, -722.93604, -0.0015198499, -0.029549615, -285309.03, -29817.844 
2.750923e+2, 2.8391588e+2, -198268.19, -328256.1, -687.9684, -0.0005370057, -0.029199954, -198264.55, -40643.027 
2.7509165e+2, 2.9390177e+2, -101335.1, -230549.33, -202.03096, 0.0018503394, -0.03510193, -101334.78, -41575.383 
2.7509096e+2, 3.0389106e+2, -5837.555, -84980.69, 179.36603, 0.0011016405, -0.0351193, -5837.149, -5837.149 
2.750903e+2, 3.1388378e+2, -4387.078, -83321.15, -299.45148, -0.004422737, -0.029028123, -4385.942, -4385.942 
2.851079e+2, 1.24047525e+2, -1680406.8, -1733575.6, 138.27013, 0.0009520474, -0.036952022, -1680406.4, 43924.88 
2.8510714e+2, 1.3404444e+2, -1583274.6, -1637072.4, -279.20438, -0.0011386183, -0.015763301, -1583273.3, 43088.26 
2.8510645e+2, 1.4404032e+2, -1494700.1, -1557435.5, -208.14925, 0.00016542441, -0.04140441, -1494699.5, 33702.41 
2.8510574e+2, 1.5403584e+2, -1398151.6, -1460699.1, -335.44376, 0.0015316557, -0.034393463, -1398149.8, 32295.826 
2.85105e+2, 1.6403069e+2, -1310185.0, -1382139.5, -568.29297, 0.0011600895, -0.029557584, -1310180.5, 22315.578 
2.8510422e+2, 1.7402484e+2, -1212288.4, -1284215.6, -578.16864, -0.0016490762, -0.029505378, -1212283.8, 22269.725 
2.851034e+2, 1.8401831e+2, -1124324.6, -1206037.9, -660.8315, -0.0020446135, -0.029955516, -1124319.3, 12298.227 
2.8510267e+2, 1.9401108e+2, -1027330.7, -1108556.0, -522.69946, 0.0010586665, -0.033766128, -1027327.4, 11360.929 
2.8510186e+2, 2.0400323e+2, -939089.9, -1029615.25, -546.5822, 0.0018324074, -0.033978097, -939086.56, 1678.6211 
2.8510106e+2, 2.139948e+2, -841114.5, -931536.4, -801.468, -0.00082029845, -0.030980999, -841107.4, 1740.5061 
2.8510025e+2, 2.2398564e+2, -753591.06, -854238.6, -805.54614, -0.0016796212, -0.029395547, -753584.6, -8646.996 
2.8509945e+2, 2.3397574e+2, -656737.1, -756837.75, -455.54773, 0.00012747322, -0.032352556, -656735.06, -9700.341 
2.8509867e+2, 2.4396522e+2, -568319.5, -677370.5, -430.49597, 0.0005924206, -0.032870453, -568317.8, -19180.055 
2.8509787e+2, 2.539541e+2, -470322.84, -579169.25, -854.75366, -0.0009548962, -0.03202118, -470316.13, -19069.586 
2.8509706e+2, 2.639423e+2, -382795.3, -502177.9, -712.10266, -0.0017307048, -0.030651968, -382791.06, -29428.734 
2.8509632e+2, 2.7392974e+2, -285462.75, -404452.94, -170.6027, -0.001335695, -0.031211292, -285462.5, -29977.195 
2.8509557e+2, 2.8391644e+2, -198631.16, -328561.25, -103.90223, -0.0003323194, -0.031268135, -198631.08, -41015.438 
2.8509486e+2, 2.939024e+2, -100987.75, -230534.67, -705.511, 0.0015636296, -0.03319328, -100983.91, -41230.6 
2.8509414e+2, 3.0389166e+2, -5526.8438, -84691.57, -323.39185, 0.00075373834, -0.03246261, -5525.5225, -5525.5225 
2.850935e+2, 3.138844e+2, -5726.7065, -83789.625, 309.1739, -0.004172452, -0.030568419, -5725.482, -5725.482 
2.951118e+2, 1.2404819e+2, -1680163.9, -1733081.0, 107.25439, -0.0005170864, -0.034097984, -1680163.6, 44161.133 
2.951111e+2, 1.3404508e+2, -1583046.4, -1636613.8, -319.53616, 0.0008702877, -0.019583058, -1583044.5, 43310.816 
2.9511032e+2, 1.4404094e+2, -1494945.9, -1557911.5, -468.64548, 0.002351384, -0.045733083, -1494942.4, 33453.285 
2.951095e+2, 1.5403654e+2, -1398419.0, -1461274.8, -615.25397, -0.0010648395, -0.029885197, -1398413.0, 32025.994 
2.951087e+2, 1.6403136e+2, -1310224.3, -1382210.6, -611.7765, -0.001968549, -0.023794295, -1310219.0, 22270.645 
2.9510796e+2, 1.740254e+2, -1212309.3, -1284256.1, -595.293, 0.0008574411, -0.033505462, -1212304.4, 22243.582 
2.9510716e+2, 1.8401888e+2, -1124093.5, -1205528.4, -894.425, 0.0016963643, -0.036202736, -1124083.8, 12528.243 
2.9510626e+2, 1.9401176e+2, -1027043.5, -1107992.8, -782.91736, -0.00038223653, -0.031275738, -1027035.94, 11645.688 
2.9510543e+2, 2.0400393e+2, -939499.25, -1030449.4, -598.0708, -0.0012454633, -0.02857004, -939495.3, 1262.9491 
2.9510462e+2, 2.1399538e+2, -841605.06, -932549.4, -824.39825, -0.00030796538, -0.031236555, -841597.6, 1244.609 
2.951038e+2, 2.239862e+2, -753064.9, -853109.9, -1073.7827, -0.00006383079, -0.032248702, -753053.3, -8121.1064 
2.951029e+2, 2.339764e+2, -656077.9, -755466.4, -758.19635, -0.0008450476, -0.033228166, -656072.06, -9043.921 
2.9510206e+2, 2.4396591e+2, -568961.94, -678691.2, -502.50803, -0.0009583984, -0.031799626, -568959.6, -19828.672 
2.9510126e+2, 2.539547e+2, -471123.0, -580806.9, -891.4312, -0.000081717866, -0.029098582, -471115.78, -19875.08 
2.9510045e+2, 2.6394287e+2, -382002.75, -500505.9, -881.53723, 0.0002603298, -0.029165493, -381996.2, -28639.477 
2.9509965e+2, 2.7393043e+2, -284476.63, -402401.47, -365.72656, -0.00020160865, -0.03606983, -284475.5, -28996.648 
2.9509884e+2, 2.8391716e+2, -199528.48, -330373.28, -246.14499, -0.0011001845, -0.036007546, -199528.02, -41919.08 
2.9509804e+2, 2.9390302e+2, -102101.15, -232814.39, -830.6132, -0.0026465072, -0.028037192, -102095.87, -42348.582 
2.950973e+2, 3.0389228e+2, -4659.098, -82884.91, -504.2944, -0.0021801018, -0.025926631, -4655.847, -4655.847 
2.9509667e+2, 3.1388503e+2, -4617.63, -81488.04, 110.3805, 0.0013344365, -0.035720047, -4617.471, -4617.471 
3.0511576e+2, 1.24048874e+2, -1679368.1, -1732737.4, 367.3682, -0.00025003531, -0.0349355, -1679365.6, 44952.41 
3.0511495e+2, 1.3404576e+2, -1583363.3, -1636839.9, -359.38126, 0.0007091133, -0.018998321, -1583360.8, 42987.69 
3.0511418e+2, 1.4404163e+2, -1495308.5, -1558127.6, -493.35098, 0.002119051, -0.045058224, -1495304.6, 33084.363 
3.0511332e+2, 1.540372e+2, -1397427.5, -1460809.4, -370.52213, -0.0010709529, -0.030179454, -1397425.4, 33007.086 
3.0511245e+2, 1.6403203e+2, -1309023.5, -1381662.5, -324.4592, -0.001796231, -0.02445662, -1309022.0, 23461.123 
3.0511168e+2, 1.7402607e+2, -1212623.6, -1284429.1, -321.54544, 0.0011395174, -0.033659223, -1212622.3, 21919.15 
3.0511084e+2, 1.8401955e+2, -1124764.3, -1205909.6, -623.12933, 0.0018428535, -0.03590461, -1124759.4, 11845.984 
3.0510992e+2, 1.9401243e+2, -1026412.44, -1107720.9, -811.2945, -0.00073881214, -0.030609205, -1026404.3, 12270.712 
3.0510905e+2, 2.0400462e+2, -938655.0, -1030063.1, -746.7163, -0.0016558734, -0.028154442, -938648.9, 2102.9023 
3.051082e+2, 2.1399604e+2, -842281.4, -932871.6, -498.08035, -0.0001110759, -0.03197662, -842278.7, 557.14343 
3.051073e+2, 2.2398685e+2, -754004.5, -853514.75, -603.8788, 0.0003190855, -0.03300784, -754000.8, -9075.013 
3.0510637e+2, 2.3397708e+2, -655600.7, -755174.7, -909.6545, -0.0009083919, -0.032324124, -655592.4, -8570.871 
3.051055e+2, 2.439666e+2, -568082.0, -678273.8, -767.3151, -0.0012120915, -0.030831752, -568076.7, -18952.414 
3.0510464e+2, 2.539554e+2, -471235.6, -580877.2, -359.85315, -0.00014265983, -0.03044299, -471234.4, -20000.156 
3.0510378e+2, 2.6394355e+2, -382641.3, -500733.84, -263.94257, 0.0003431886, -0.030637227, -382640.72, -29290.463 
3.0510294e+2, 2.739311e+2, -285084.78, -402580.3, -717.79895, -0.000053414606, -0.034396812, -285080.4, -29608.35 
3.051021e+2, 2.8391784e+2, -199962.75, -330621.6, -634.19354, -0.0011147882, -0.03388739, -199959.67, -42357.617 
3.0510125e+2, 2.9390368e+2, -102082.266, -232851.28, -96.40533, -0.0031654914, -0.02954377, -102082.19, -42341.426 
3.051005e+2, 3.0389294e+2, -4528.6787, -82706.59, 285.20892, -0.0026016962, -0.028108831, -4527.638, -4527.638 
3.050998e+2, 3.1388578e+2, -5180.8135, -81617.87, -181.20197, 0.0019256778, -0.034062456, -5180.384, -5180.384 
3.151197e+2, 1.24049574e+2, -1679663.3, -1733324.8, 66.603775, 0.0016462787, -0.03929077, -1679663.1, 44647.98 
3.1511882e+2, 1.3404651e+2, -1583670.9, -1637503.6, -677.55475, -0.0015396825, -0.014200337, -1583662.4, 42678.76 
3.1511796e+2, 1.4404237e+2, -1495131.0, -1557762.3, -453.45688, -0.0004419469, -0.039595526, -1495127.8, 33253.965 
3.1511718e+2, 1.5403788e+2, -1397212.3, -1460359.4, -294.19385, 0.0013852179, -0.035068657, -1397210.9, 33214.945 
3.1511635e+2, 1.640327e+2, -1309042.4, -1381667.8, -693.06494, 0.001518249, -0.031263255, -1309035.8, 23440.744 
3.1511536e+2, 1.7402686e+2, -1212624.3, -1284484.4, -737.4671, -0.00071822136, -0.030127222, -1212616.6, 21917.125 
3.1511444e+2, 1.8402033e+2, -1125048.5, -1206503.5, -584.573, -0.0014686676, -0.029338295, -1125044.3, 11553.525 
3.1511357e+2, 1.9401309e+2, -1026738.6, -1108407.5, -719.4443, -0.00006855542, -0.031690355, -1026732.3, 11936.287 
3.151127e+2, 2.0400523e+2, -938297.75, -1029297.44, -1113.8253, 0.00047633873, -0.032519136, -938284.1, 2461.485 
3.151117e+2, 2.1399675e+2, -841814.4, -931942.1, -920.4625, -0.00022841436, -0.03317953, -841805.0, 1023.74945 
3.1511074e+2, 2.239876e+2, -754445.4, -854426.1, -582.3204, -0.00049452775, -0.031757236, -754442.0, -9523.554 
3.1510985e+2, 2.3397776e+2, -656162.25, -756312.7, -832.8249, -0.000108646724, -0.029714728, -656155.3, -9140.531 
3.1510898e+2, 2.4396726e+2, -567494.2, -677019.6, -1026.0613, -0.00023382656, -0.029964125, -567484.56, -18366.844 
3.1510803e+2, 2.5395608e+2, -470506.22, -579343.06, -663.8117, -0.0011114074, -0.035887424, -470502.2, -19274.943 
3.1510708e+2, 2.6394427e+2, -383330.13, -502143.75, -459.1073, -0.0014146145, -0.034949735, -383328.34, -29985.336 
3.151062e+2, 2.7393186e+2, -285939.5, -404330.94, -892.20215, -0.00086315273, -0.026447898, -285932.78, -30467.865 
3.1510535e+2, 2.839186e+2, -199155.88, -328933.72, -654.4023, -0.00041714503, -0.025174461, -199152.56, -41557.563 
3.151045e+2, 2.939044e+2, -101091.45, -230765.3, -106.2931, -0.00014719, -0.037453923, -101091.37, -41357.6 
3.151037e+2, 3.0389366e+2, -5237.54, -84123.8, -59.275417, -0.00062104355, -0.038667478, -5237.4956, -5237.4956 
3.1510285e+2, 3.1388652e+2, -6069.7896, -83464.08, -559.00946, -0.0022286403, -0.02586098, -6065.7524, -6065.7524 
3.251237e+2, 1.24050364e+2, -1679718.6, -1733453.1, 138.40273, 0.0018698141, -0.038727418, -1679718.3, 44585.13 
3.251227e+2, 1.3404728e+2, -1582586.9, -1637103.4, -394.18903, -0.0016998479, -0.014121986, -1582584.0, 43749.668 
3.2512182e+2, 1.4404312e+2, -1494036.0, -1557233.8, -145.82028, -0.00065536326, -0.039912853, -1494035.6, 34338.703 
3.2512102e+2, 1.5403864e+2, -1398057.9, -1460751.3, -208.11096, 0.0014494164, -0.03500222, -1398057.1, 32361.168 
3.251201e+2, 1.6403346e+2, -1310178.4, -1382287.8, -685.64307, 0.0016284086, -0.030877959, -1310171.9, 22297.137 
3.251191e+2, 1.740276e+2, -1211561.4, -1284025.5, -748.8727, -0.00090250483, -0.029519241, -1211553.8, 22972.684 
3.2511815e+2, 1.8402107e+2, -1123567.8, -1205813.6, -577.72015, -0.0016589994, -0.028968241, -1123563.8, 13026.74 
3.2511726e+2, 1.9401383e+2, -1027598.9, -1108827.4, -402.7937, 0.0001537491, -0.03222235, -1027596.9, 11064.484 
3.251163e+2, 2.0400599e+2, -939556.75, -1029826.7, -672.55383, 0.00075965637, -0.033022035, -939551.75, 1186.6157 
3.2511526e+2, 2.1399751e+2, -840806.06, -931348.8, -871.44104, -0.00040412653, -0.032290068, -840797.6, 2023.5807 
3.2511428e+2, 2.2398837e+2, -753050.44, -853897.25, -672.2273, -0.0007787316, -0.030705387, -753045.94, -8135.0215 
3.2511336e+2, 2.339785e+2, -656878.56, -756826.25, -475.63776, 0.000015410536, -0.030311093, -656876.3, -9868.681 
3.251124e+2, 2.43968e+2, -568782.5, -677444.9, -585.7054, 0.00001631047, -0.030780008, -568779.4, -19668.781 
3.251114e+2, 2.5395685e+2, -470666.75, -579176.94, -816.5612, -0.0011608222, -0.034797512, -470660.63, -19440.945 
3.251104e+2, 2.6394504e+2, -383017.25, -502222.16, -688.4894, -0.0016627527, -0.03361691, -383013.28, -29677.904 
3.251095e+2, 2.7393258e+2, -285457.22, -404371.9, -421.15912, -0.001155812, -0.027356166, -285455.72, -29998.02 
3.251086e+2, 2.839193e+2, -198732.05, -328376.72, -106.67072, -0.000445591, -0.026485343, -198731.95, -41144.12 
3.2510772e+2, 2.9390517e+2, -102034.96, -230789.36, -328.08365, 0.0005438589, -0.03640213, -102034.125, -42308.12 
3.2510686e+2, 3.0389446e+2, -6605.071, -85014.17, -369.21762, -0.00011212724, -0.037199892, -6603.332, -6603.332 
3.2510597e+2, 3.138873e+2, -5401.7637, -83454.09, -140.40439, -0.0032681853, -0.026938785, -5401.511, -5401.511 
3.3512762e+2, 1.2405122e+2, -1679581.3, -1733174.3, 135.65341, 0.00047113022, -0.033486087, -1679581.0, 44714.05 
3.351267e+2, 1.3404806e+2, -1582477.5, -1636880.1, -407.97714, 0.00012106655, -0.018546095, -1582474.5, 43851.508 
3.3512577e+2, 1.440439e+2, -1494221.0, -1557586.8, -539.1813, 0.0013544768, -0.045736544, -1494216.4, 34150.414 
3.351248e+2, 1.5403947e+2, -1398236.9, -1461158.4, -640.2064, -0.00078511285, -0.030204894, -1398230.4, 32179.762 
3.351238e+2, 1.640343e+2, -1310247.0, -1382441.1, -574.5445, -0.0013338596, -0.023629729, -1310242.5, 22218.342 
3.3512288e+2, 1.7402835e+2, -1211642.3, -1284183.8, -578.36426, 0.0005024246, -0.031702083, -1211637.6, 22881.508 
3.3512193e+2, 1.8402179e+2, -1123338.0, -1205298.8, -1031.5963, 0.0011171306, -0.03451, -1123325.0, 13258.365 
3.3512086e+2, 1.9401465e+2, -1027290.6, -1108233.3, -927.6881, -0.00006390299, -0.03222789, -1027279.94, 11373.357 
3.351198e+2, 2.0400684e+2, -939804.1, -1030351.0, -568.594, -0.0007342156, -0.029832918, -939800.5, 929.4531 
3.3511886e+2, 2.1399832e+2, -841141.7, -932021.8, -694.957, -0.0006438426, -0.029400317, -841136.4, 1677.0023 
3.3511785e+2, 2.2398914e+2, -752818.75, -853365.9, -1082.2361, -0.0005682802, -0.029842312, -752807.1, -7903.7583 
3.351168e+2, 2.3397928e+2, -656554.6, -756151.0, -953.2777, -0.00051470695, -0.033975873, -656545.5, -9545.543 
3.3511576e+2, 2.439688e+2, -569102.1, -678111.5, -642.7492, -0.0004407423, -0.03320604, -569098.3, -19995.549 
3.3511478e+2, 2.539577e+2, -471067.72, -580012.1, -822.97253, -0.0003423837, -0.027451329, -471061.5, -19849.969 
3.3511376e+2, 2.6394588e+2, -382643.63, -501402.22, -798.058, -0.00047837436, -0.026879154, -382638.25, -29310.887 
3.3511278e+2, 2.7393332e+2, -284990.1, -403373.75, -545.102, -0.0009625813, -0.036753878, -284987.56, -29537.125 
3.3511186e+2, 2.8392005e+2, -199092.0, -329099.8, -458.01636, -0.0011846159, -0.037402052, -199090.39, -41509.836 
3.3511087e+2, 2.9390606e+2, -102464.58, -231718.13, -704.6914, -0.0010071895, -0.026754472, -102460.734, -42743.234 
3.3510995e+2, 3.0389535e+2, -6219.4995, -84227.266, -256.64246, -0.001022359, -0.0241958, -6218.6553, -6218.6553 
3.3510914e+2, 3.1388804e+2, -4945.993, -82483.375, 32.059895, -0.0013597844, -0.036913343, -4945.98, -4945.98 
3.4513164e+2, 1.24052085e+2, -1678848.9, -1732796.1, 336.56894, 0.00014864306, -0.033387363, -1678846.8, 45439.76 
3.4513065e+2, 1.3404894e+2, -1582983.0, -1637131.3, -333.9366, 0.0004576561, -0.018318221, -1582980.9, 43336.582 
3.4512967e+2, 1.4404476e+2, -1494687.3, -1557971.5, -474.48975, 0.0018555303, -0.04564008, -1494683.6, 33674.707 
3.4512863e+2, 1.5404032e+2, -1396668.9, -1460542.8, -478.32944, -0.0010131826, -0.029932559, -1396665.3, 33736.605 
3.451276e+2, 1.6403514e+2, -1308469.9, -1381590.4, -366.35147, -0.0017171892, -0.023481645, -1308468.0, 23984.611 
3.4512666e+2, 1.7402919e+2, -1212621.9, -1284643.8, -296.01855, 0.00079925987, -0.03211501, -1212620.6, 21890.309 
3.4512565e+2, 1.8402264e+2, -1124826.4, -1206013.4, -773.237, 0.0015182489, -0.03486896, -1124819.0, 11756.221 
3.451245e+2, 1.940155e+2, -1026035.56, -1107603.6, -949.85443, -0.0004065906, -0.031636532, -1026024.5, 12620.577 
3.4512344e+2, 2.0400767e+2, -938123.44, -1029666.06, -707.99036, -0.0012013658, -0.02916961, -938118.0, 2603.8003 
3.451224e+2, 2.1399915e+2, -842267.44, -932718.06, -602.8187, -0.0003235979, -0.029941576, -842263.4, 541.9932 
3.4512135e+2, 2.2398996e+2, -754444.94, -853948.4, -881.0692, -0.00008759949, -0.030616723, -754437.1, -9541.748 
3.4512025e+2, 2.3398013e+2, -655857.7, -755551.9, -908.603, -0.00080319884, -0.033564363, -655849.44, -8857.784 
3.4511918e+2, 2.4396965e+2, -567847.6, -677758.25, -619.9539, -0.00094812445, -0.03243819, -567844.1, -18749.777 
3.4511814e+2, 2.5395852e+2, -471134.25, -580336.0, -587.9129, -0.0002505806, -0.027549358, -471131.06, -19927.56 
3.451171e+2, 2.6394668e+2, -383205.3, -501288.38, -514.6487, -0.000101889535, -0.027314203, -383203.06, -29883.713 
3.4511608e+2, 2.739342e+2, -285949.66, -403367.28, -455.35458, -0.0007811045, -0.03673315, -285947.88, -30505.904 
3.4511507e+2, 2.8392088e+2, -200173.67, -329934.7, -388.6075, -0.001356868, -0.03712322, -200172.52, -42600.566 
3.4511405e+2, 2.9390693e+2, -102016.93, -231917.5, -438.9006, -0.0017649035, -0.026500989, -102015.445, -42306.18 
3.4511307e+2, 3.0389622e+2, -5290.807, -83269.05, 70.40156, -0.001506931, -0.024032384, -5290.7437, -5290.7437 
3.451122e+2, 3.1388894e+2, -6655.1353, -82675.234, 284.6391, -0.00026464518, -0.036953624, -6654.0693, -6654.0693 
3.5513565e+2, 1.2405295e+2, -1678929.5, -1732956.6, 25.446236, 0.0008207432, -0.038159944, -1678929.4, 45348.664 
3.5513455e+2, 1.3404986e+2, -1583069.9, -1637344.3, -660.4833, -0.00063159986, -0.013659248, -1583061.8, 43246.508 
3.5513353e+2, 1.440457e+2, -1494698.9, -1558013.0, -407.85748, 0.000909144, -0.03991399, -1494696.3, 33652.996 
3.5513255e+2, 1.5404117e+2, -1396693.6, -1460590.0, -370.0767, 0.0006534453, -0.033964187, -1396691.5, 33702.082 
3.551315e+2, 1.6403596e+2, -1308423.5, -1381452.8, -857.6168, 0.00033776904, -0.030082537, -1308413.4, 24031.105 
3.5513037e+2, 1.740301e+2, -1212524.1, -1284475.5, -852.63586, 0.000030837004, -0.030839631, -1212514.0, 21988.016 
3.5512927e+2, 1.8402356e+2, -1125034.8, -1206465.8, -647.11383, -0.00035386757, -0.030291976, -1125029.6, 11536.434 
3.551282e+2, 1.9401635e+2, -1026307.75, -1108148.0, -746.77686, -0.00088101224, -0.030478848, -1026300.94, 12335.697 
3.551271e+2, 2.040085e+2, -938049.94, -1029480.0, -1189.5642, -0.0007022605, -0.03091184, -938034.5, 2679.2258 
3.5512593e+2, 2.1399996e+2, -842120.06, -932442.5, -1160.1132, 0.00052196643, -0.033751953, -842105.2, 692.15686 
3.5512483e+2, 2.2399081e+2, -754404.9, -853876.4, -816.1769, 0.00063989736, -0.032950483, -754398.2, -9511.132 
3.5512373e+2, 2.3398104e+2, -655857.8, -755516.8, -775.9702, -0.0008706869, -0.029260758, -655851.75, -8869.073 
3.5512263e+2, 2.4397057e+2, -567861.2, -677744.94, -915.85126, -0.0015129279, -0.028622348, -567853.5, -18768.078 
3.551215e+2, 2.5395933e+2, -471131.34, -580329.6, -929.80865, -0.00085938966, -0.03476008, -471123.44, -19927.86 
3.551204e+2, 2.6394752e+2, -383105.53, -501062.8, -762.4341, -0.00050516846, -0.034595843, -383100.63, -29789.244 
3.551193e+2, 2.7393514e+2, -285825.38, -403121.78, -696.1712, -0.00061995856, -0.027709661, -285821.25, -30388.898 
3.5511824e+2, 2.8392193e+2, -200233.48, -330028.25, -381.18158, -0.0010034622, -0.026142348, -200232.36, -42670.285 
3.5511723e+2, 2.939077e+2, -102116.44, -232071.16, -395.87964, -0.0017776832, -0.03523975, -102115.234, -42413.945 
3.5511622e+2, 3.03897e+2, -5020.887, -82658.71, -407.621, -0.0015945521, -0.036154248, -5018.747, -5018.747 
3.551152e+2, 3.1388998e+2, -6298.5864, -81957.43, -265.51773, 0.000032255706, -0.027491294, -6297.655, -6297.655 
3.6513966e+2, 1.240539e+2, -1678854.9, -1733038.4, 194.01967, 0.0011311083, -0.03848217, -1678854.3, 45414.54 
3.6513853e+2, 1.3405082e+2, -1581896.5, -1636926.5, -510.30292, -0.0010242286, -0.013416044, -1581891.8, 44407.34 
3.6513746e+2, 1.4404663e+2, -1493600.8, -1557454.6, -246.77824, 0.0005391695, -0.03974518, -1493599.9, 34740.203 
3.651364e+2, 1.540421e+2, -1397712.3, -1461037.1, -169.23366, 0.0011645467, -0.034131646, -1397711.9, 32672.54 
3.651353e+2, 1.640369e+2, -1309694.4, -1382143.8, -708.95856, 0.00090611127, -0.030208824, -1309687.5, 22747.904 
3.6513412e+2, 1.7403103e+2, -1211215.0, -1283907.1, -837.1669, -0.00053765526, -0.030371927, -1211205.4, 23287.512 
3.6513296e+2, 1.8402448e+2, -1123265.8, -1205674.6, -580.1462, -0.0010641844, -0.029783119, -1123261.6, 13295.3545 
3.6513186e+2, 1.9401728e+2, -1027229.94, -1108661.4, -454.5844, -0.00028669814, -0.030733157, -1027227.4, 11400.279 
3.6513072e+2, 2.0400941e+2, -939451.06, -1030049.8, -842.61395, 0.00012841885, -0.031299733, -939443.25, 1261.5045 
3.651295e+2, 2.140009e+2, -841036.75, -931776.1, -870.00995, 0.000020282163, -0.033354577, -841028.44, 1759.749 
3.651283e+2, 2.2399175e+2, -752918.25, -853358.25, -568.65045, -0.00020802766, -0.032259516, -752915.0, -8037.147 
3.6512718e+2, 2.3398197e+2, -656590.94, -756104.4, -688.2734, -0.0006113158, -0.028990187, -656586.2, -9612.419 
3.6512604e+2, 2.4397147e+2, -569168.56, -678060.2, -873.17505, -0.0008783921, -0.028748652, -569161.56, -20085.006 
3.6512485e+2, 2.5396025e+2, -471376.16, -580086.6, -663.4324, -0.0009440437, -0.035256114, -471372.13, -20185.719 
3.651237e+2, 2.6394847e+2, -382964.6, -501260.94, -472.5532, -0.0009564033, -0.034770124, -382962.7, -29660.623 
3.6512256e+2, 2.739361e+2, -285335.6, -403205.9, -741.0781, -0.00089816016, -0.026522394, -285330.94, -29907.697 
3.6512145e+2, 2.8392285e+2, -199680.84, -329316.75, -466.96487, -0.0008805634, -0.025076348, -199679.16, -42126.2 
3.6512038e+2, 2.9390866e+2, -103261.12, -232037.56, -55.98785, -0.000920011, -0.03654297, -103261.09, -43569.203 
3.6511934e+2, 3.0389795e+2, -6668.34, -83777.81, -45.04395, -0.001043335, -0.037654582, -6668.314, -6668.314 
3.6511827e+2, 3.1389093e+2, -5190.2314, -81836.75, -572.81934, -0.0012925672, -0.025871037, -5185.9507, -5185.9507 
3.7514368e+2, 1.2405494e+2, -1678948.1, -1733231.4, 166.57234, 0.0010855059, -0.0345992, -1678947.6, 45311.01 
3.7514254e+2, 1.3405176e+2, -1582022.9, -1637174.1, -542.1483, -0.0007673228, -0.017359927, -1582017.5, 44272.29 
3.751414e+2, 1.4404756e+2, -1493564.8, -1557362.0, -654.2204, 0.0007016489, -0.04483754, -1493558.1, 34772.85 
3.7514025e+2, 1.5404312e+2, -1397630.5, -1460901.6, -618.9091, 0.00056634523, -0.030631375, -1397624.5, 32749.941 
3.751391e+2, 1.6403793e+2, -1309831.6, -1382436.3, -637.28723, 0.000053132037, -0.024192104, -1309826.0, 22599.258 
3.7513793e+2, 1.7403199e+2, -1211397.8, -1284266.4, -707.61993, -0.00092386414, -0.030671164, -1211390.9, 23092.652 
3.7513676e+2, 1.840254e+2, -1123157.9, -1205402.0, -1022.50653, -0.00068093295, -0.0331322, -1123145.1, 13402.818 
3.7513554e+2, 1.9401823e+2, -1027060.94, -1108315.0, -960.3459, 0.0013142616, -0.03232556, -1027049.6, 11568.636 
3.7513432e+2, 2.0401041e+2, -939404.9, -1029933.8, -808.8928, 0.0012624922, -0.03039745, -939397.6, 1297.3331 
3.751331e+2, 2.1400194e+2, -841023.3, -931703.25, -777.9336, -0.0017711495, -0.0289574, -841016.6, 1761.379 
3.7513185e+2, 2.2399276e+2, -753210.1, -853906.0, -960.91003, -0.0025639478, -0.0286927, -753201.0, -8333.031 
3.7513062e+2, 2.3398286e+2, -656886.8, -756725.94, -1129.2429, -0.00004715567, -0.032559387, -656874.06, -9909.159 
3.751294e+2, 2.4397236e+2, -568792.06, -677292.25, -980.34686, 0.00088683574, -0.032622427, -568783.2, -19715.498 
3.7512818e+2, 2.5396132e+2, -470934.4, -579166.6, -740.4297, -0.00054247666, -0.029351952, -470929.34, -19753.34 
3.75127e+2, 2.639495e+2, -383394.78, -502136.28, -602.99774, -0.0014621711, -0.028175382, -383391.72, -30100.166 
3.7512583e+2, 2.73937e+2, -285869.0, -404303.44, -867.715, -0.0016070739, -0.03280712, -285862.66, -30448.031 
3.7512466e+2, 2.8392372e+2, -199089.0, -328066.13, -844.867, -0.0009929974, -0.033462137, -199083.47, -41538.9 
3.751235e+2, 2.939098e+2, -102508.17, -230502.17, -476.48392, 0.0007584292, -0.030746866, -102506.4, -42825.258 
3.751224e+2, 3.038991e+2, -7410.5947, -85328.18, 87.43207, 0.00010455936, -0.029016444, -7410.4966, -7410.4966 
3.7512133e+2, 3.1389183e+2, -6144.7065, -83798.38, -355.9274, -0.004204616, -0.03172972, -6143.075, -6143.075 
3.8514775e+2, 1.2405599e+2, -1678195.1, -1732871.9, 331.15988, 0.00092850294, -0.03404249, -1678193.1, 46055.25 
3.8514656e+2, 1.340528e+2, -1582332.5, -1637358.4, -284.8826, -0.00044520214, -0.01755925, -1582331.0, 43948.547 
3.8514537e+2, 1.4404859e+2, -1493891.5, -1557624.0, -447.31195, 0.0010252118, -0.045311928, -1493888.4, 34432.414 
3.8514414e+2, 1.5404417e+2, -1396414.9, -1460407.4, -547.5577, 0.00003596028, -0.030136196, -1396410.3, 33954.063 
3.8514292e+2, 1.6403897e+2, -1308419.8, -1381770.3, -474.48615, -0.00049033883, -0.023507083, -1308416.8, 23998.422 
3.8514173e+2, 1.74033e+2, -1211910.0, -1284524.0, -362.78506, -0.00026699586, -0.03092732, -1211908.3, 22565.295 
3.851405e+2, 1.8402644e+2, -1124120.0, -1205874.0, -772.57996, 0.000110546454, -0.03364025, -1124112.6, 12425.299 
3.851392e+2, 1.9401927e+2, -1026342.94, -1107956.4, -889.25006, 0.0006889431, -0.032077543, -1026333.25, 12274.95 
3.8513792e+2, 2.0401144e+2, -938388.56, -1029541.44, -740.6277, 0.00033534705, -0.029818326, -938382.56, 2302.3582 
3.8513666e+2, 2.1400297e+2, -841668.6, -932114.6, -789.55035, -0.0013695066, -0.028674973, -841661.7, 1106.3414 
3.8513538e+2, 2.2399378e+2, -754135.3, -854207.8, -976.6063, -0.0017599942, -0.028794935, -754125.8, -9267.781 
3.8513407e+2, 2.3398389e+2, -656421.1, -756327.75, -743.48956, -0.00021688652, -0.033160448, -656415.56, -9460.721 
3.851328e+2, 2.439734e+2, -568021.25, -677095.94, -512.3872, 0.00033686747, -0.032922022, -568018.8, -18961.209 
3.8513154e+2, 2.5396234e+2, -470969.38, -579390.44, -853.0798, -0.0005895941, -0.028168285, -470962.7, -19796.697 
3.851303e+2, 2.6395056e+2, -383767.5, -502035.88, -781.0693, -0.0011836267, -0.027171286, -383762.34, -30480.83 
3.8512906e+2, 2.7393803e+2, -286687.8, -404362.38, -291.13547, -0.0012750262, -0.03446728, -286687.1, -31282.57 
3.8512784e+2, 2.8392476e+2, -199982.19, -328778.63, -214.39638, -0.0010090969, -0.03515503, -199981.83, -42447.426 
3.8512662e+2, 2.9391083e+2, -101948.5, -230580.64, -830.8848, -0.00020402628, -0.028491985, -101943.13, -42272.2 
3.8512546e+2, 3.0390015e+2, -6534.0376, -84556.734, -309.5806, -0.000663657, -0.026278675, -6532.809, -6532.809 
3.8512436e+2, 3.1389284e+2, -7866.8516, -84175.516, 506.85605, -0.0030448264, -0.033808313, -7863.485, -7863.485 
3.951518e+2, 1.2405706e+2, -1678096.9, -1732675.6, 43.192608, 0.0006383849, -0.03660866, -1678096.9, 46141.08 
3.9515054e+2, 1.3405395e+2, -1582237.8, -1637192.8, -589.7072, -0.00006917795, -0.014214639, -1582231.5, 44037.063 
3.951493e+2, 1.4404973e+2, -1494047.3, -1557944.9, -512.90204, 0.0014899514, -0.041419186, -1494043.1, 34266.605 
3.9514804e+2, 1.5404521e+2, -1396602.6, -1460788.9, -586.5434, -0.0004423082, -0.032481644, -1396597.3, 33756.7 
3.951468e+2, 1.6404e+2, -1308304.4, -1381504.3, -818.4122, -0.0007530344, -0.027857725, -1308295.3, 24109.797 
3.951455e+2, 1.7403409e+2, -1211746.3, -1284191.4, -742.13226, 0.0013687107, -0.03113927, -1211738.6, 22724.26 
3.9514422e+2, 1.8402754e+2, -1124247.4, -1206110.9, -866.0757, 0.0012739, -0.03145627, -1124238.3, 12288.841 
3.9514285e+2, 1.9402036e+2, -1026502.6, -1108269.3, -949.55115, -0.002057111, -0.030086298, -1026491.6, 12105.871 
3.951415e+2, 2.040125e+2, -938549.75, -1029836.9, -1050.6652, -0.002555564, -0.029542012, -938537.6, 2136.9277 
3.9514023e+2, 2.1400395e+2, -841809.4, -932421.94, -1124.3309, 0.0011040072, -0.032293063, -841795.44, 962.8681 
3.951389e+2, 2.2399478e+2, -753717.25, -853305.0, -1080.4268, 0.0020267984, -0.032370385, -753705.56, -8857.485 
3.9513752e+2, 2.3398504e+2, -655939.06, -755310.8, -828.74963, -0.0010922205, -0.030941155, -655932.1, -8988.462 
3.9513618e+2, 2.4397455e+2, -568595.5, -678257.94, -775.71124, -0.0024208578, -0.029828094, -568590.0, -19543.64 
3.9513487e+2, 2.5396332e+2, -471652.34, -580806.3, -1125.6857, -0.0010723091, -0.031469468, -471640.72, -20484.457 
3.9513358e+2, 2.6395154e+2, -383022.97, -500460.53, -1033.6764, -0.00016883404, -0.031474, -383013.88, -29741.914 
3.9513227e+2, 2.739392e+2, -285760.16, -402452.97, -556.13477, 0.000036172678, -0.031727776, -285757.53, -30364.523 
3.95131e+2, 2.8392595e+2, -200903.34, -330656.34, -265.40103, -0.0009518315, -0.03048466, -200902.8, -43380.246 
3.9512974e+2, 2.939118e+2, -103092.15, -232932.83, -837.4344, -0.0036937501, -0.029610509, -103086.75, -43425.516 
3.9512852e+2, 3.0390114e+2, -5393.057, -82125.53, -736.55786, -0.0032690682, -0.029155938, -5385.9873, -5385.9873 
3.951274e+2, 3.1389403e+2, -6417.3394, -81158.3, 8.360409, 0.0019648168, -0.032296125, -6417.3384, -6417.3384 
4.051559e+2, 1.2405821e+2, -1677677.4, -1732593.1, 322.80673, 0.0009528068, -0.03717531, -1677675.5, 46551.098 
4.0515453e+2, 1.340551e+2, -1581577.8, -1637015.5, -511.47958, -0.00035971057, -0.013243566, -1581573.1, 44684.086 
4.0515324e+2, 1.4405087e+2, -1493426.6, -1557670.4, -354.92517, 0.0011949632, -0.040448375, -1493424.8, 34873.758 
4.0515196e+2, 1.5404634e+2, -1396695.5, -1460840.4, -243.20198, -0.000078111516, -0.033158332, -1396694.6, 33648.316 
4.0515065e+2, 1.6404112e+2, -1308578.8, -1381726.3, -594.79565, -0.00033846925, -0.028863288, -1308573.9, 23820.135 
4.0514928e+2, 1.7403524e+2, -1211356.6, -1284080.5, -753.51807, 0.0009531085, -0.030556932, -1211348.9, 23102.953 
4.0514794e+2, 1.8402869e+2, -1123627.6, -1205853.1, -817.94293, 0.00073091354, -0.030353094, -1123619.5, 12896.458 
4.0514654e+2, 1.9402148e+2, -1026453.4, -1108272.0, -748.1178, -0.0017167967, -0.030022077, -1026446.5, 12140.013 
4.0514517e+2, 2.0401362e+2, -938647.94, -1029882.8, -833.9132, -0.0019829508, -0.030099204, -938640.3, 2023.3647 
4.0514377e+2, 2.1400507e+2, -841494.7, -932251.8, -768.52795, 0.00095895247, -0.032838188, -841488.2, 1259.175 
4.051424e+2, 2.2399591e+2, -753411.0, -853178.9, -739.63995, 0.0016261183, -0.03243178, -753405.56, -8568.438 
4.05141e+2, 2.3398615e+2, -656309.2, -755497.75, -984.4859, -0.0010688027, -0.029846746, -656299.44, -9366.793 
4.051396e+2, 2.439757e+2, -569130.2, -678404.4, -975.0701, -0.0022094536, -0.028963247, -569121.5, -20086.215 
4.0513822e+2, 2.5396445e+2, -471862.34, -580762.2, -548.9435, -0.0010315079, -0.032869354, -471859.56, -20714.309 
4.0513685e+2, 2.6395267e+2, -383082.84, -500611.06, -390.64252, -0.0002954105, -0.03282301, -383081.53, -29820.617 
4.0513545e+2, 2.7394032e+2, -285559.28, -402488.38, -954.4647, -0.00024742546, -0.029575054, -285551.5, -30169.703 
4.0513414e+2, 2.839271e+2, -200634.75, -330233.8, -685.3316, -0.0010989788, -0.028076654, -200631.13, -43119.84 
4.0513283e+2, 2.9391298e+2, -103849.09, -232932.53, 132.87584, -0.0032721579, -0.03184395, -103848.95, -44198.902 
4.0513158e+2, 3.0390224e+2, -6516.577, -82790.31, 305.77856, -0.0028817505, -0.032109406, -6515.351, -6515.351 
4.0513033e+2, 3.1389523e+2, -6206.799, -81215.055, -566.4707, 0.0014222801, -0.029972713, -6202.521, -6202.521 
4.1516e+2, 1.2405946e+2, -1677945.9, -1733116.8, 95.88304, 0.0018095663, -0.035856914, -1677945.8, 46268.58 
4.1515857e+2, 1.3405627e+2, -1581852.0, -1637597.6, -743.4443, -0.0012864828, -0.014505688, -1581842.1, 44403.438 
4.1515723e+2, 1.4405204e+2, -1493312.8, -1557425.0, -580.36774, 0.00017260593, -0.042222172, -1493307.5, 34979.574 
4.1515592e+2, 1.5404755e+2, -1396537.0, -1460521.9, -472.94357, 0.0010679608, -0.03225778, -1396533.5, 33797.49 
4.1515455e+2, 1.6404234e+2, -1308813.9, -1382178.5, -797.55585, 0.0006994264, -0.02671054, -1308805.3, 23576.895 
4.151531e+2, 1.7403641e+2, -1211617.8, -1284628.5, -949.2345, -0.0014065943, -0.029225612, -1211605.4, 22834.936 
4.151517e+2, 1.8402983e+2, -1123561.6, -1205674.1, -1022.25336, -0.0014362821, -0.030265374, -1123548.9, 12955.86 
4.1515025e+2, 1.9402263e+2, -1026345.1, -1108035.3, -954.74316, 0.0015294161, -0.031777374, -1026333.94, 12241.339 
4.1514882e+2, 2.0401476e+2, -938527.44, -1029575.3, -1058.8079, 0.0018481285, -0.03143839, -938515.1, 2137.0713 
4.1514733e+2, 2.1400629e+2, -841357.94, -931949.0, -996.9794, -0.0016734533, -0.030476486, -841347.0, 1388.396 
4.1514584e+2, 2.2399713e+2, -753833.8, -854033.4, -992.12933, -0.0027450726, -0.02916859, -753824.0, -8998.823 
4.151444e+2, 2.3398727e+2, -656786.3, -756491.9, -1233.2164, -0.00020275847, -0.02981612, -656771.06, -9849.353 
4.1514298e+2, 2.439768e+2, -568451.4, -676978.0, -1166.7897, 0.0007991396, -0.03020457, -568438.8, -19414.445 
4.1514155e+2, 2.539657e+2, -471045.1, -579076.94, -745.7873, -0.0005088755, -0.032461908, -471039.94, -19906.908 
4.151401e+2, 2.6395392e+2, -383962.53, -502414.56, -578.30145, -0.0015150082, -0.03136881, -383959.72, -30711.201 
4.1513866e+2, 2.7394143e+2, -286621.28, -404718.53, -1124.7771, -0.002054261, -0.02797894, -286610.56, -31239.678 
4.151373e+2, 2.8392822e+2, -199418.36, -327666.47, -955.2585, -0.0014550424, -0.027810482, -199411.23, -41910.695 
4.1513598e+2, 2.9391423e+2, -102349.74, -229806.75, -169.85515, 0.00085052755, -0.035134036, -102349.516, -42712.043 
4.1513464e+2, 3.0390355e+2, -7794.958, -85386.555, 150.50636, 0.00033107723, -0.035126783, -7794.666, -7794.666 
4.1513327e+2, 3.138964e+2, -7811.3374, -84529.87, -678.9092, -0.0044392855, -0.026872074, -7805.33, -7805.33 
4.251641e+2, 1.24060735e+2, -1677996.0, -1733139.3, 169.255, 0.0013075954, -0.03492798, -1677995.4, 46206.43 
4.2516267e+2, 1.3405754e+2, -1581280.1, -1637321.8, -396.2873, -0.0009776963, -0.015372348, -1581277.4, 44955.926 
4.251612e+2, 1.4405328e+2, -1492590.6, -1557225.4, -292.72717, 0.0007490195, -0.043343604, -1492589.4, 35685.465 
4.251598e+2, 1.5404882e+2, -1396230.3, -1460516.5, -447.27292, 0.0009529299, -0.031142127, -1396227.3, 34091.54 
4.2515838e+2, 1.6404359e+2, -1308574.8, -1382095.0, -712.54846, 0.00036495013, -0.025110958, -1308567.9, 23801.938 
4.251569e+2, 1.7403765e+2, -1211205.5, -1284431.0, -590.534, -0.0012825595, -0.029679181, -1211200.8, 23227.438 
4.2515543e+2, 1.8403105e+2, -1123215.4, -1205548.5, -644.28864, -0.0011552417, -0.031449918, -1123210.3, 13282.433 
4.2515397e+2, 1.9402386e+2, -1026442.9, -1108101.5, -717.90814, 0.0015278131, -0.031760845, -1026436.56, 12126.645 
4.2515248e+2, 2.0401601e+2, -938721.9, -1029651.8, -885.293, 0.0017027467, -0.03065049, -938713.25, 1926.7931 
4.251509e+2, 2.1400754e+2, -841346.5, -931886.5, -932.5589, -0.0017665667, -0.029556246, -841336.9, 1386.26 
4.2514935e+2, 2.2399837e+2, -753765.06, -854059.4, -873.9133, -0.0027659826, -0.028724795, -753757.5, -8944.472 
4.2514786e+2, 2.3398851e+2, -656713.06, -756536.4, -691.8508, -0.00012535932, -0.030725671, -656708.3, -9798.583 
4.2514637e+2, 2.4397802e+2, -568320.7, -676845.6, -642.15546, 0.00087904104, -0.030896854, -568316.9, -19304.508 
4.2514485e+2, 2.5396696e+2, -471039.72, -578975.06, -994.7898, -0.00057244935, -0.030621363, -471030.56, -19909.797 
4.2514333e+2, 2.639552e+2, -384134.47, -502418.75, -846.38245, -0.0016385682, -0.029560026, -384128.4, -30892.268 
4.2514187e+2, 2.7394268e+2, -287128.78, -404862.72, -250.02176, -0.0021113404, -0.030019378, -287128.25, -31769.46 
4.2514044e+2, 2.8392944e+2, -200051.97, -327965.9, -37.650852, -0.0013925734, -0.030300494, -200051.95, -42563.535 
4.2513904e+2, 2.9391554e+2, -102792.73, -229997.67, -784.9237, 0.0011099179, -0.032956082, -102787.88, -43162.98 
4.2513764e+2, 3.039049e+2, -8010.174, -85378.94, -569.90765, 0.00048027627, -0.03216962, -8005.976, -8005.976 
4.2513627e+2, 3.1389764e+2, -7947.9146, -84456.195, 330.61176, -0.004857544, -0.029050555, -7946.486, -7946.486 
4.3516818e+2, 1.2406203e+2, -1677720.9, -1732591.9, 109.04439, -0.00049499265, -0.034344118, -1677720.6, 46468.46 
4.3516675e+2, 1.3405885e+2, -1581025.0, -1636795.4, -462.24374, 0.00047991282, -0.015858756, -1581021.1, 45199.1 
4.351653e+2, 1.440546e+2, -1492884.4, -1557781.4, -602.04663, 0.0028113786, -0.04384388, -1492878.8, 35383.07 
4.3516377e+2, 1.5405011e+2, -1396549.8, -1461189.4, -776.25446, -0.00036242694, -0.029821573, -1396540.4, 33765.64 
4.3516228e+2, 1.6404487e+2, -1308386.9, -1381682.6, -875.979, -0.0012743385, -0.024026394, -1308376.5, 23980.807 
4.3516076e+2, 1.7403893e+2, -1210963.3, -1283931.3, -741.1595, 0.0011709721, -0.03181085, -1210955.8, 23459.826 
4.351592e+2, 1.8403235e+2, -1123340.3, -1205754.0, -949.81256, 0.0014137432, -0.033826374, -1123329.3, 13150.718 
4.3515763e+2, 1.9402517e+2, -1026581.2, -1108392.1, -1037.4038, -0.0015460184, -0.030070463, -1026568.0, 11982.258 
4.3515605e+2, 2.0401734e+2, -938804.3, -1029808.44, -1066.0479, -0.0022005038, -0.027854512, -938791.9, 1835.345 
4.3515447e+2, 2.1400881e+2, -841423.75, -932051.5, -1097.3965, 0.0005243542, -0.02999591, -841410.5, 1300.2175 
4.3515292e+2, 2.2399963e+2, -753481.6, -853432.75, -1116.4845, 0.0012987226, -0.030934935, -753469.1, -8668.579 
4.351513e+2, 2.3398982e+2, -656378.56, -755828.5, -946.5763, -0.0008030059, -0.032522477, -656369.56, -9472.788 
4.3514973e+2, 2.4397935e+2, -568891.3, -678021.25, -870.0402, -0.0018145425, -0.03107111, -568884.4, -19885.025 
4.3514815e+2, 2.5396824e+2, -471714.25, -580370.1, -1211.0911, -0.001199535, -0.027424963, -471700.75, -20592.34 
4.351466e+2, 2.6395646e+2, -383224.38, -500461.5, -1099.4908, -0.0007359318, -0.027413331, -383214.06, -29990.236 
4.3514508e+2, 2.7394402e+2, -286024.28, -402531.44, -522.4411, -0.0005250707, -0.03549947, -286021.94, -30676.418 
4.3514356e+2, 2.839308e+2, -201208.81, -330305.34, -286.71265, -0.00094945927, -0.035391655, -201208.17, -43733.188 
4.3514207e+2, 2.9391682e+2, -104196.72, -232907.67, -1010.99304, -0.002302044, -0.025596239, -104188.77, -44576.41 
4.3514064e+2, 3.0390617e+2, -6683.3833, -82598.35, -673.7282, -0.002277762, -0.023554344, -6677.405, -6677.405 
4.3513924e+2, 3.13899e+2, -6295.321, -81011.53, 221.84772, -0.00014102379, -0.03625278, -6294.6616, -6294.6616 
4.4517234e+2, 1.2406342e+2, -1676288.8, -1732045.5, 503.5932, 0.00022530218, -0.035131525, -1676284.3, 47891.426 
4.4517085e+2, 1.3406025e+2, -1581124.0, -1637002.1, -449.60995, 0.000101797516, -0.014850892, -1581120.4, 45086.414 
4.451693e+2, 1.4405598e+2, -1493323.4, -1557951.0, -597.03595, 0.002158001, -0.042697974, -1493317.9, 34930.516 
4.4516772e+2, 1.5405147e+2, -1396025.9, -1460857.8, -398.17422, -0.00030128498, -0.030544937, -1396023.5, 34269.2 
4.4516614e+2, 1.6404623e+2, -1307700.1, -1381400.0, -451.2175, -0.00091105123, -0.025177332, -1307697.4, 24646.615 
4.451646e+2, 1.740403e+2, -1211111.8, -1284052.4, -608.8083, 0.0012414382, -0.03130323, -1211106.8, 23295.443 
4.4516298e+2, 1.8403372e+2, -1123610.4, -1205915.4, -891.8895, 0.0012890253, -0.03267347, -1123600.6, 12865.863 
4.451613e+2, 1.9402654e+2, -1026094.94, -1108166.9, -840.45087, -0.0017299589, -0.029745195, -1026086.3, 12450.614 
4.4515967e+2, 2.040187e+2, -938190.3, -1029592.2, -821.7291, -0.0022887422, -0.028136024, -938182.94, 2430.981 
4.4515806e+2, 2.1401015e+2, -841477.8, -932182.4, -843.3229, 0.0007575852, -0.030555192, -841470.0, 1227.5925 
4.4515643e+2, 2.2400099e+2, -753673.1, -853381.7, -911.99335, 0.0015367564, -0.031202607, -753664.75, -8877.383 
4.4515476e+2, 2.3399119e+2, -656343.2, -755611.6, -965.84406, -0.0010272581, -0.031668283, -656333.75, -9450.475 
4.4515312e+2, 2.4398074e+2, -569015.25, -678193.0, -824.88605, -0.0021559799, -0.030374419, -569009.06, -20023.145 
4.4515145e+2, 2.5396958e+2, -472113.22, -580713.3, -593.7424, -0.0011504757, -0.02876764, -472109.97, -21014.719 
4.4514987e+2, 2.639578e+2, -383461.66, -500400.22, -519.8038, -0.00044394817, -0.028706534, -383459.34, -30248.697 
4.4514826e+2, 2.739454e+2, -286045.63, -402321.84, -938.46313, -0.0002125836, -0.033642717, -286038.06, -30706.168 
4.4514668e+2, 2.839322e+2, -201268.72, -330418.3, -744.162, -0.0009224801, -0.033105034, -201264.44, -43803.2 
4.451451e+2, 2.9391816e+2, -104133.18, -232982.16, -127.744576, -0.0030208156, -0.026955945, -104133.055, -44533.984 
4.4514358e+2, 3.039075e+2, -6788.266, -82336.48, 358.53964, -0.0028598183, -0.025520122, -6786.5645, -6786.5645 
4.4514218e+2, 3.1390044e+2, -7766.812, -81331.984, -237.08752, 0.00075797574, -0.034221675, -7766.0483, -7766.0483 
4.5517656e+2, 1.2406486e+2, -1676744.5, -1732938.8, 63.793037, 0.0032730831, -0.03719682, -1676744.5, 47416.93 
4.551749e+2, 1.3406168e+2, -1581572.1, -1637945.9, -899.73016, -0.002006019, -0.012446163, -1581557.8, 44634.965 
4.5517328e+2, 1.4405741e+2, -1493004.0, -1557296.5, -704.4544, -0.0010500881, -0.040009387, -1492996.3, 35238.23 
4.5517173e+2, 1.5405288e+2, -1395639.6, -1460061.8, -479.00986, 0.0010340404, -0.033179916, -1395636.1, 34642.62 
4.551701e+2, 1.6404767e+2, -1307959.9, -1381899.8, -793.5473, 0.0013130788, -0.028413434, -1307951.4, 24378.502 
4.551684e+2, 1.7404175e+2, -1211410.5, -1284692.5, -972.51117, -0.0009340579, -0.028314676, -1211397.6, 22990.393 
4.5516673e+2, 1.8403517e+2, -1123536.3, -1205732.4, -1030.0669, -0.0013768099, -0.028206082, -1123523.4, 12929.106 
4.5516506e+2, 1.9402796e+2, -1025990.9, -1107921.8, -956.85, 0.0007919788, -0.030708287, -1025979.7, 12543.477 
4.5516336e+2, 2.0402008e+2, -938248.8, -1029662.56, -1143.0468, 0.0011934433, -0.03130908, -938234.56, 2365.7444 
4.5516163e+2, 2.1401156e+2, -841534.25, -932284.06, -1184.2783, -0.0009567966, -0.031223001, -841518.8, 1164.9513 
4.5515987e+2, 2.240024e+2, -753750.9, -853565.9, -1114.8486, -0.0018327542, -0.0296415, -753738.44, -8964.952 
4.5515817e+2, 2.3399264e+2, -656433.94, -755818.5, -1153.3444, -0.0008328594, -0.0283172, -656420.56, -9551.17 
4.551565e+2, 2.4398215e+2, -568651.1, -677405.4, -1103.3518, -0.00029954474, -0.028853279, -568639.94, -19667.959 
4.5515478e+2, 2.5397098e+2, -471685.22, -579820.9, -886.593, -0.00047829724, -0.034386564, -471677.97, -20596.625 
4.5515308e+2, 2.6395923e+2, -384127.03, -501754.9, -741.21716, -0.00073755975, -0.033236854, -384122.34, -30925.627 
4.5515144e+2, 2.7394688e+2, -286831.63, -403947.88, -1142.1934, -0.0011138543, -0.024860833, -286820.47, -31502.588 
4.5514977e+2, 2.8393367e+2, -200332.06, -328452.66, -930.9246, -0.001302668, -0.023858054, -200325.31, -42878.11 
4.551482e+2, 2.939196e+2, -102993.984, -230611.2, -324.91016, -0.0012055534, -0.03655835, -102993.16, -43408.074 
4.5514658e+2, 3.0390894e+2, -7706.5713, -84221.81, -86.15283, -0.0014006459, -0.0374727, -7706.474, -7706.474 
4.5514503e+2, 3.1390196e+2, -8901.959, -83733.46, -696.2961, -0.0019894133, -0.023441648, -8895.48, -8895.48 
4.6518075e+2, 1.240664e+2, -1677164.6, -1733163.6, 160.25087, 0.0027267095, -0.03642011, -1677164.1, 46982.285 
4.6517903e+2, 1.3406318e+2, -1580582.0, -1637486.5, -362.55365, -0.001746422, -0.012744486, -1580579.6, 45598.273 
4.6517733e+2, 1.4405891e+2, -1491775.5, -1556886.8, -95.76072, -0.0004804875, -0.04052749, -1491775.4, 36444.32 
4.651757e+2, 1.540544e+2, -1395667.0, -1460252.5, -373.92444, 0.001062828, -0.032634966, -1395664.9, 34599.164 
4.6517402e+2, 1.6404916e+2, -1308183.1, -1382036.8, -843.7351, 0.0010636726, -0.02759103, -1308173.5, 24141.797 
4.6517223e+2, 1.7404322e+2, -1210662.1, -1284313.3, -706.87854, -0.0010810781, -0.02833934, -1210655.4, 23718.076 
4.651705e+2, 1.8403666e+2, -1122721.3, -1205407.3, -684.9598, -0.0013466394, -0.028622942, -1122715.5, 13722.3955 
4.6516877e+2, 1.9402944e+2, -1026362.56, -1108174.5, -778.2295, 0.0010982178, -0.030848902, -1026355.2, 12153.524 
4.6516702e+2, 2.0402156e+2, -938829.75, -1029872.6, -957.32245, 0.0014232908, -0.031126276, -938819.7, 1766.1012 
4.651652e+2, 2.1401305e+2, -841181.0, -932008.44, -874.6056, -0.0013201258, -0.030656427, -841172.56, 1496.56 
4.6516338e+2, 2.2400391e+2, -753293.06, -853481.56, -807.44977, -0.0022559129, -0.029115966, -753286.56, -8527.705 
4.6516162e+2, 2.339941e+2, -656710.9, -756121.25, -871.8402, -0.0005296618, -0.028440703, -656703.25, -9848.273 
4.6515986e+2, 2.4398363e+2, -568931.8, -677278.94, -887.9369, 0.00020999032, -0.028987806, -568924.5, -19966.98 
4.6515808e+2, 2.539725e+2, -471556.25, -579448.6, -913.7205, -0.0005382737, -0.033602677, -471548.5, -20481.957 
4.6515632e+2, 2.6396072e+2, -384186.38, -501985.47, -671.31976, -0.0011620872, -0.032476664, -384182.56, -31000.676 
4.6515456e+2, 2.7394834e+2, -287206.4, -404380.34, -445.77963, -0.0015917479, -0.02551092, -287204.7, -31901.29 
4.6515286e+2, 2.8393516e+2, -200630.13, -328187.03, -208.81116, -0.0014541378, -0.024698082, -200629.78, -43197.094 
4.6515122e+2, 2.939211e+2, -103740.27, -230471.95, -459.62958, -0.0004735246, -0.03577055, -103738.6, -44168.625 
4.6514952e+2, 3.039105e+2, -8568.241, -85010.74, -357.36975, -0.00081181544, -0.0363716, -8566.57, -8566.57 
4.6514788e+2, 3.1390345e+2, -8076.6504, -83802.43, -86.34777, -0.003088295, -0.024008388, -8076.5522, -8076.5522 
4.7518492e+2, 1.24068e+2, -1676762.9, -1732350.9, 74.97566, -0.0012062149, -0.0329872, -1676762.8, 47368.05 
4.751832e+2, 1.340648e+2, -1580173.0, -1636652.0, -453.38852, 0.00070904184, -0.015551323, -1580169.4, 45992.883 
4.7518146e+2, 1.440605e+2, -1492288.3, -1557912.0, -475.8532, 0.00359653, -0.044025265, -1492284.8, 35919.367 
4.751797e+2, 1.5405597e+2, -1396245.5, -1461470.8, -772.7877, -0.00014763365, -0.029115573, -1396236.4, 34012.234 
4.7517788e+2, 1.6405071e+2, -1307956.6, -1381575.5, -971.0179, -0.0015102824, -0.02297502, -1307943.9, 24356.23 
4.7517616e+2, 1.7404476e+2, -1210362.1, -1283706.1, -811.72766, 0.0006566018, -0.0311818, -1210353.1, 24005.385 
4.7517434e+2, 1.8403816e+2, -1122889.9, -1205711.5, -1082.1924, 0.0011847779, -0.033597887, -1122875.8, 13547.241 
4.7517246e+2, 1.9403097e+2, -1026548.44, -1108575.3, -1201.6998, -0.00068264484, -0.030210825, -1026530.9, 11962.702 
4.7517058e+2, 2.0402314e+2, -938677.3, -1029575.75, -1081.0725, -0.0014042477, -0.027795808, -938664.5, 1905.9717 
4.751688e+2, 2.1401463e+2, -841019.44, -931652.9, -968.91876, -0.00042514305, -0.028935919, -841009.06, 1644.6155 
4.7516692e+2, 2.2400546e+2, -753416.2, -853693.7, -1158.6425, 0.00007268031, -0.02956199, -753402.8, -8659.261 
4.7516507e+2, 2.339956e+2, -656849.6, -756385.56, -1247.1079, -0.00013655148, -0.031824406, -656834.0, -9993.9 
4.7516322e+2, 2.4398513e+2, -568977.25, -677372.44, -1089.7904, -0.0005557268, -0.030672673, -568966.3, -20023.64 
4.7516134e+2, 2.5397408e+2, -471603.97, -579532.06, -1097.6296, -0.0012942887, -0.02679656, -471592.8, -20541.84 
4.7515956e+2, 2.6396233e+2, -383837.56, -501206.66, -943.20764, -0.0017190147, -0.026743276, -383830.0, -30663.807 
4.7515774e+2, 2.7394986e+2, -286799.56, -403517.4, -730.64325, -0.0016827182, -0.03504128, -286795.0, -31506.506 
4.7515595e+2, 2.8393668e+2, -201029.66, -328977.44, -528.81946, -0.0014055759, -0.035024956, -201027.47, -43609.71 
4.751542e+2, 2.9392278e+2, -104214.914, -231470.08, -779.16754, -0.00077416503, -0.025184173, -104210.15, -44656.313 
4.751525e+2, 3.0391216e+2, -8164.5933, -84143.85, -390.09708, -0.001053178, -0.022967508, -8162.5903, -8162.5903 
4.7515082e+2, 3.1390494e+2, -7586.128, -82743.21, -84.785034, -0.0026583227, -0.03528845, -7586.032, -7586.032 
4.851891e+2, 1.2406965e+2, -1675773.8, -1731976.5, 485.97144, -0.0009959065, -0.033196665, -1675769.5, 48345.055 
4.8518735e+2, 1.3406643e+2, -1580156.1, -1636744.6, -525.4441, 0.0006878265, -0.015269129, -1580151.3, 45994.875 
4.8518553e+2, 1.4406215e+2, -1492395.5, -1557974.1, -649.03595, 0.0035024378, -0.043659437, -1492389.1, 35798.914 
4.851837e+2, 1.5405762e+2, -1395463.6, -1461089.9, -363.72647, -0.00027054767, -0.029164724, -1395461.5, 34771.004 
4.8518184e+2, 1.6405235e+2, -1307190.0, -1381297.5, -347.95642, -0.0015353841, -0.023112705, -1307188.4, 25095.658 
4.8518002e+2, 1.7404638e+2, -1210772.4, -1284004.0, -553.4108, 0.00091831706, -0.030943241, -1210768.3, 23574.33 
4.8517814e+2, 1.840398e+2, -1123352.3, -1205938.5, -937.1076, 0.0013758064, -0.033156693, -1123341.6, 13065.485 
4.8517618e+2, 1.9403261e+2, -1025682.56, -1108129.0, -843.62463, -0.0010825451, -0.029822055, -1025673.94, 12803.672 
4.8517427e+2, 2.0402475e+2, -937692.75, -1029137.7, -735.83673, -0.0018122838, -0.027597288, -937686.8, 2867.6802 
4.8517236e+2, 2.1401624e+2, -841554.7, -931976.9, -841.36395, -0.00000007420229, -0.029110571, -841546.8, 1091.0145 
4.8517045e+2, 2.2400708e+2, -754271.8, -853949.56, -986.43616, 0.0006402842, -0.029826226, -754262.06, -9534.382 
4.851685e+2, 2.3399726e+2, -656541.6, -756061.7, -825.94226, -0.0004412716, -0.03177883, -656534.75, -9710.715 
4.8516658e+2, 2.4398679e+2, -568505.3, -677313.6, -625.37213, -0.0011465533, -0.030418511, -568501.75, -19575.17 
4.8516464e+2, 2.5397572e+2, -471945.3, -579902.75, -730.8012, -0.0013010077, -0.02647155, -471940.38, -20905.305 
4.8516276e+2, 2.6396397e+2, -384254.47, -501113.06, -675.5891, -0.0013746425, -0.026509838, -384250.56, -31100.316 
4.851609e+2, 2.739515e+2, -286991.63, -403234.9, -660.5938, -0.0013424357, -0.03515442, -286987.88, -31715.625 
4.8515904e+2, 2.8393832e+2, -201311.03, -329429.16, -488.82266, -0.0013680424, -0.03511518, -201309.17, -43907.703 
4.851572e+2, 2.9392442e+2, -104138.37, -231813.58, -496.66364, -0.0014800046, -0.024679262, -104136.44, -44598.59 
4.851554e+2, 3.0391383e+2, -8001.506, -83524.57, 1.1295943, -0.0016213299, -0.022474213, -8001.506, -8001.506 
4.8515368e+2, 3.139066e+2, -9254.673, -82881.984, 199.91966, -0.001759535, -0.0357469, -9254.13, -9254.13 
4.9519342e+2, 1.2407136e+2, -1676283.3, -1732999.8, 153.16454, 0.003029705, -0.03677209, -1676282.9, 47815.02 
4.9519145e+2, 1.3406813e+2, -1580675.3, -1637812.9, -854.25104, -0.0016522828, -0.012115161, -1580662.5, 45466.977 
4.951896e+2, 1.4406385e+2, -1491941.9, -1557030.9, -827.17474, -0.0004870392, -0.03970105, -1491931.4, 36240.09 
4.9518773e+2, 1.540593e+2, -1394916.1, -1459955.4, -536.55774, 0.00060102914, -0.032532156, -1394911.8, 35304.184 
4.9518582e+2, 1.6405407e+2, -1307521.8, -1381952.0, -743.9665, 0.0007967288, -0.027666617, -1307514.3, 24752.98 
4.9518383e+2, 1.7404811e+2, -1211169.9, -1284847.9, -964.53326, -0.00020939387, -0.027826497, -1211157.3, 23168.402 
4.951819e+2, 1.8404151e+2, -1123193.0, -1205606.5, -1039.8976, -0.0006294663, -0.027664136, -1123179.9, 13210.357 
4.9517992e+2, 1.9403432e+2, -1025485.6, -1107697.4, -917.00543, -0.00020279807, -0.029670836, -1025475.4, 12985.478 
4.9517795e+2, 2.0402645e+2, -937904.94, -1029536.0, -1192.1503, 0.000023745673, -0.03032296, -937889.44, 2648.5803 
4.951759e+2, 2.1401791e+2, -841783.3, -932451.5, -1334.3644, -0.00002670706, -0.03105545, -841763.7, 857.9117 
4.951739e+2, 2.2400875e+2, -753971.0, -853375.9, -1099.5747, -0.0004498211, -0.029918553, -753958.9, -9247.574 
4.9517193e+2, 2.3399901e+2, -656221.5, -755382.56, -903.0802, -0.0014131266, -0.02852207, -656213.3, -9406.44 
4.9516994e+2, 2.4398856e+2, -568686.1, -677647.2, -993.39404, -0.0015904864, -0.028350541, -568677.06, -19767.758 
4.9516794e+2, 2.5397736e+2, -472162.38, -580344.06, -1125.0381, -0.00061644916, -0.032223817, -472150.66, -21131.838 
4.9516594e+2, 2.639656e+2, -384247.16, -501080.8, -916.14655, -0.00019490405, -0.03142652, -384239.97, -31105.867 
4.95164e+2, 2.7395332e+2, -286967.0, -403158.16, -886.372, -0.00061041303, -0.02641928, -286960.25, -31705.422 
4.9516207e+2, 2.8394014e+2, -201336.34, -329439.2, -700.02386, -0.0013546644, -0.025593959, -201332.52, -43948.582 
4.951602e+2, 2.9392603e+2, -104166.586, -231855.02, -699.74243, -0.0025793382, -0.033660326, -104162.75, -44640.75 
4.9515828e+2, 3.039154e+2, -7740.5645, -82943.29, -462.1694, -0.002510277, -0.034115754, -7737.724, -7737.724 
4.951565e+2, 3.139085e+2, -8924.64, -82229.98, -302.37875, -0.00044606772, -0.026011175, -8923.393, -8923.393 
5.051977e+2, 1.24073155e+2, -1675865.6, -1732922.8, 262.87537, 0.0033426192, -0.03653845, -1675864.4, 48215.863 
5.051957e+2, 1.3406992e+2, -1580066.8, -1637633.1, -298.11792, -0.0018998068, -0.012102766, -1580065.3, 46046.746 
5.051937e+2, 1.4406563e+2, -1491414.8, -1556827.8, -184.9204, -0.00077320024, -0.039659534, -1491414.3, 36739.76 
5.0519174e+2, 1.540611e+2, -1394976.5, -1460009.9, -459.38406, 0.000846354, -0.03227386, -1394973.3, 35225.227 
5.051898e+2, 1.6405585e+2, -1307571.4, -1382004.6, -888.77734, 0.0010967461, -0.027402194, -1307560.9, 24689.035 
5.0518775e+2, 1.7404988e+2, -1210372.1, -1284479.9, -731.1311, -0.0005390736, -0.027840814, -1210364.9, 23943.35 
5.051857e+2, 1.8404329e+2, -1122416.0, -1205221.0, -635.0377, -0.0010052216, -0.027807731, -1122411.1, 13961.692 
5.051837e+2, 1.9403608e+2, -1026108.7, -1107979.9, -712.3117, 0.00021471268, -0.029736573, -1026102.5, 12341.0205 
5.051816e+2, 2.0402822e+2, -938718.9, -1029975.56, -1034.831, 0.0005501369, -0.030217767, -938707.2, 1813.4867 
5.051795e+2, 2.1401969e+2, -840981.4, -932118.44, -974.10266, -0.00039193445, -0.030639216, -840970.94, 1633.3074 
5.051774e+2, 2.2401053e+2, -752893.1, -852889.06, -791.11914, -0.0010305318, -0.029392356, -752886.9, -8192.918 
5.0517535e+2, 2.3400076e+2, -656832.0, -755719.06, -956.8364, -0.0012202157, -0.028172651, -656822.75, -10033.165 
5.0517327e+2, 2.4399032e+2, -569696.25, -677927.1, -1055.489, -0.0011590697, -0.028320156, -569685.94, -20793.91 
5.051712e+2, 2.5397915e+2, -472011.72, -580036.75, -822.7278, -0.00073788216, -0.03272354, -472005.44, -21004.086 
5.0516915e+2, 2.639674e+2, -383893.1, -501076.5, -530.5209, -0.0005472841, -0.031703588, -383890.72, -30774.117 
5.051671e+2, 2.7395508e+2, -287234.78, -403508.3, -681.04346, -0.0007088054, -0.025352784, -287230.78, -31993.41 
5.0516516e+2, 2.8394192e+2, -201704.34, -329155.94, -414.81335, -0.0012130731, -0.024556953, -201702.98, -44336.582 
5.0516313e+2, 2.9392785e+2, -104841.46, -231628.56, -66.37366, -0.002230412, -0.0347237, -104841.43, -45337.23 
5.0516117e+2, 3.0391723e+2, -8575.856, -83641.86, 94.655174, -0.0023144376, -0.035438303, -8575.737, -8575.737 
5.0515926e+2, 3.139103e+2, -8487.966, -82398.65, -333.40128, -0.0009325242, -0.024793372, -8486.462, -8486.462 
5.15202e+2, 1.2407504e+2, -1675535.9, -1732242.6, -14.071839, 0.00017557197, -0.032762192, -1675535.9, 48525.89 
5.151999e+2, 1.340718e+2, -1579708.1, -1636900.0, -586.8284, -0.00021986323, -0.014993862, -1579702.1, 46391.45 
5.151979e+2, 1.440675e+2, -1491887.3, -1557788.1, -506.11942, 0.0023556235, -0.043239873, -1491883.3, 36252.42 
5.151958e+2, 1.5406294e+2, -1395524.6, -1461150.3, -774.29193, 0.00048833044, -0.028648, -1395515.5, 34664.78 
5.151937e+2, 1.6405769e+2, -1307309.4, -1381483.1, -1079.7235, -0.00050505163, -0.02266287, -1307293.6, 24938.217 
5.151917e+2, 1.740517e+2, -1210036.6, -1283802.3, -913.92145, -0.00013773622, -0.030765176, -1210025.4, 24265.145 
5.151895e+2, 1.840451e+2, -1122562.1, -1205492.4, -1051.9838, 0.00011776254, -0.033181142, -1122548.8, 13806.313 
5.151874e+2, 1.9403791e+2, -1026279.9, -1108353.1, -1151.4578, 0.00018984292, -0.029998569, -1026263.75, 12161.853 
5.1518524e+2, 2.0403007e+2, -938578.94, -1029709.5, -1136.3308, -0.00015416204, -0.027473098, -938564.75, 1937.7261 
5.151831e+2, 2.1402156e+2, -840842.75, -931795.2, -1039.797, -0.0010821555, -0.028022788, -840830.9, 1755.0558 
5.1518095e+2, 2.2401239e+2, -753227.8, -853525.44, -1264.6808, -0.0011487476, -0.028290981, -753211.9, -8536.058 
5.151788e+2, 2.3400253e+2, -657195.3, -756440.56, -1468.4863, 0.000049333335, -0.030537698, -657173.6, -10401.33 
5.151766e+2, 2.4399209e+2, -569289.75, -677104.06, -1179.9128, 0.00007907378, -0.030188592, -569276.9, -20402.2 
5.151745e+2, 2.5398105e+2, -471557.2, -579053.1, -913.8325, -0.0016234451, -0.028308965, -471549.4, -20566.67 
5.1517236e+2, 2.6396933e+2, -384144.97, -501524.84, -889.19745, -0.0023435596, -0.027644029, -384138.22, -31040.459 
5.151702e+2, 2.7395684e+2, -287552.0, -404118.38, -1059.9988, -0.0015964316, -0.03147425, -287542.38, -32322.475 
5.1516813e+2, 2.8394368e+2, -201175.69, -328013.6, -717.6957, -0.00096580427, -0.031462744, -201171.63, -43822.74 
5.1516616e+2, 2.9392985e+2, -104202.85, -230300.33, -373.93103, -0.0005350299, -0.02835151, -104201.75, -44717.195 
5.151641e+2, 3.039193e+2, -9219.272, -84956.85, -74.63254, -0.0011156732, -0.027077517, -9219.199, -9219.199 
5.151621e+2, 3.139121e+2, -9292.92, -84063.195, -464.80414, -0.0031453355, -0.031568356, -9290.03, -9290.03 
5.252062e+2, 1.2407701e+2, -1675113.5, -1732037.6, 432.37012, -0.0002694206, -0.032654867, -1675110.1, 48932.45 
5.252041e+2, 1.3407375e+2, -1579276.1, -1636668.1, -502.8948, 0.00010722153, -0.014814168, -1579271.8, 46802.742 
5.2520204e+2, 1.4406945e+2, -1491472.1, -1557731.9, -460.22592, 0.0028731294, -0.04294935, -1491468.9, 36647.75 
5.2519983e+2, 1.5406488e+2, -1394950.0, -1461031.9, -289.84183, 0.00023500934, -0.028499315, -1394948.8, 35212.582 
5.251977e+2, 1.6405961e+2, -1306764.1, -1381169.8, -436.20584, -0.0009083114, -0.022567349, -1306761.5, 25451.463 
5.2519554e+2, 1.7405364e+2, -1210129.3, -1283773.6, -564.78485, 0.00020676373, -0.030597176, -1210124.9, 24146.678 
5.2519333e+2, 1.8404703e+2, -1122784.3, -1205724.3, -886.24347, 0.0005815928, -0.03298613, -1122774.8, 13561.444 
5.251911e+2, 1.9403982e+2, -1025642.3, -1108181.1, -904.62775, -0.00014631436, -0.029829659, -1025632.44, 12774.387 
5.251889e+2, 2.0403199e+2, -937820.0, -1029202.25, -808.63446, -0.0006842924, -0.027349638, -937812.8, 2670.906 
5.251867e+2, 2.1402349e+2, -841479.1, -931937.9, -766.5581, -0.0009254142, -0.027983446, -841472.6, 1094.3788 
5.2518445e+2, 2.2401431e+2, -754137.75, -853979.6, -921.8659, -0.00079450884, -0.0283454, -754129.25, -9472.398 
5.251822e+2, 2.3400447e+2, -656483.5, -756147.9, -789.12396, -0.00011708785, -0.030685544, -656477.25, -9723.905 
5.251799e+2, 2.4399401e+2, -568332.94, -676730.75, -532.43304, -0.00018802294, -0.030048879, -568330.3, -19474.557 
5.251777e+2, 2.53983e+2, -472233.13, -579487.25, -813.7352, -0.001377275, -0.027329821, -472226.97, -21263.084 
5.251755e+2, 2.6397124e+2, -385186.22, -501705.22, -859.37085, -0.0020424875, -0.026918286, -385179.88, -32101.057 
5.2517337e+2, 2.739588e+2, -287739.16, -403826.44, -489.05646, -0.0019118077, -0.03262387, -287737.1, -32536.314 
5.2517116e+2, 2.8394565e+2, -201273.95, -328299.34, -201.69344, -0.0014068944, -0.032575328, -201273.64, -43943.95 
5.251691e+2, 2.939318e+2, -104493.914, -230734.05, -702.124, -0.00036759884, -0.026546374, -104490.01, -45024.664 
5.251669e+2, 3.0392122e+2, -9401.796, -84600.98, -383.80878, -0.00079329475, -0.02483394, -9399.837, -9399.837 
5.2516484e+2, 3.1391406e+2, -10180.59, -83946.13, 385.3635, -0.0033545068, -0.0326729, -10178.576, -10178.576 
5.3521055e+2, 1.2407902e+2, -1675446.4, -1732712.4, 152.26552, 0.0017578058, -0.035927538, -1675445.9, 48576.91 
5.352083e+2, 1.3407578e+2, -1579604.9, -1637349.6, -783.8561, -0.00083268085, -0.011808453, -1579594.3, 46460.324 
5.3520614e+2, 1.4407147e+2, -1491229.6, -1557224.5, -731.8791, 0.00096155016, -0.039092187, -1491221.5, 36875.24 
5.3520393e+2, 1.5406688e+2, -1394653.6, -1460417.4, -564.6404, 0.00006327874, -0.031570114, -1394648.8, 35492.902 
5.352017e+2, 1.6406162e+2, -1306960.4, -1381564.9, -786.33386, -0.000216472, -0.026762724, -1306952.1, 25241.162 
5.3519946e+2, 1.7405568e+2, -1210363.1, -1284275.9, -919.3925, 0.0004871531, -0.027561283, -1210351.6, 23899.912 
5.351972e+2, 1.8404907e+2, -1122817.3, -1205786.3, -1106.4573, 0.00041801945, -0.027629567, -1122802.5, 13513.691 
5.351949e+2, 1.9404182e+2, -1025662.3, -1108215.3, -1108.4008, -0.00078348775, -0.02926302, -1025647.44, 12739.854 
5.3519255e+2, 2.0403396e+2, -937788.7, -1029129.8, -1222.5142, -0.0010646222, -0.029656952, -937772.4, 2692.0898 
5.351902e+2, 2.1402547e+2, -841431.4, -931845.4, -1205.9734, 0.00000851596, -0.030339995, -841415.25, 1132.37 
5.351879e+2, 2.2401632e+2, -753856.2, -853417.1, -1049.5718, -0.0000117774125, -0.02947278, -753845.1, -9207.965 
5.3518564e+2, 2.3400654e+2, -656211.94, -755541.1, -885.7499, -0.0016328748, -0.02876926, -656204.06, -9471.112 
5.351833e+2, 2.439961e+2, -568842.1, -677743.2, -1015.87506, -0.0018734699, -0.028043764, -568832.6, -19997.164 
5.35181e+2, 2.5398493e+2, -472807.06, -580664.4, -1328.0596, -0.00008742395, -0.02955636, -472790.72, -21845.943 
5.351787e+2, 2.639732e+2, -384572.84, -500450.0, -1049.7103, 0.00020567869, -0.029297467, -384563.3, -31503.533 
5.3517646e+2, 2.7396092e+2, -287007.8, -402310.8, -657.473, -0.0017066504, -0.029121524, -287004.06, -31823.89 
5.351742e+2, 2.839478e+2, -202077.84, -329914.9, -527.6614, -0.0025092028, -0.02827132, -202075.66, -44766.754 
5.351719e+2, 2.9393375e+2, -105461.33, -232734.23, -1023.92737, -0.0016435108, -0.029023997, -105453.09, -46006.52 
5.351698e+2, 3.0392316e+2, -8261.353, -82192.22, -710.06665, -0.0013081257, -0.02831186, -8254.533, -8254.533 
5.3516763e+2, 3.1391627e+2, -8765.646, -81027.78, 30.851957, -0.0017200377, -0.028463636, -8765.634, -8765.634 
5.452149e+2, 1.2408114e+2, -1675002.9, -1732705.6, 355.32874, 0.0021971231, -0.03577123, -1675000.6, 49001.418 
5.4521257e+2, 1.3407788e+2, -1579114.3, -1637295.6, -364.48035, -0.001183978, -0.011755703, -1579112.0, 46921.945 
5.452103e+2, 1.4407358e+2, -1490728.1, -1556929.8, -329.96606, 0.0005240573, -0.03902193, -1490726.5, 37349.67 
5.4520804e+2, 1.5406899e+2, -1394519.5, -1460275.0, -415.48718, 0.00036236568, -0.031799816, -1394516.9, 35604.234 
5.452057e+2, 1.6406372e+2, -1307010.4, -1381743.9, -699.54706, 0.0002003064, -0.026942829, -1307003.9, 25168.855 
5.452034e+2, 1.7405777e+2, -1209949.8, -1284252.4, -710.2685, 0.0001385819, -0.027175762, -1209942.9, 24288.207 
5.45201e+2, 1.8405116e+2, -1122191.9, -1205376.9, -795.7132, -0.00007954783, -0.027040115, -1122184.4, 14111.487 
5.451986e+2, 1.9404393e+2, -1025682.06, -1108090.0, -701.18774, -0.0005443108, -0.028994415, -1025676.1, 12690.643 
5.4519624e+2, 2.0403604e+2, -938089.7, -1029449.9, -863.8025, -0.00059660187, -0.029659586, -938081.5, 2362.426 
5.4519385e+2, 2.1402752e+2, -841000.25, -931845.9, -1029.2399, -0.000039277988, -0.03052881, -840988.56, 1538.7866 
5.451914e+2, 2.240184e+2, -753280.75, -852973.1, -990.54346, -0.00025636863, -0.029510716, -753270.94, -8654.016 
5.45189e+2, 2.3400864e+2, -656922.06, -755681.9, -995.70734, -0.0016145895, -0.028173704, -656912.0, -10199.53 
5.4518664e+2, 2.439982e+2, -569828.2, -678117.6, -1030.3256, -0.001831996, -0.027620805, -569818.44, -21003.566 
5.451842e+2, 2.5398704e+2, -472429.28, -580393.6, -718.50134, -0.00036877845, -0.030483887, -472424.5, -21500.3 
5.451818e+2, 2.6397532e+2, -383896.28, -500264.28, -365.39368, -0.000013047494, -0.030072544, -383895.13, -30855.906 
5.451795e+2, 2.73963e+2, -287256.34, -402602.13, -821.9467, -0.0012966204, -0.02751892, -287250.5, -32090.947 
5.4517716e+2, 2.8394988e+2, -202505.16, -329813.16, -749.00977, -0.002109462, -0.026604045, -202500.75, -45212.504 
5.4517484e+2, 2.9393587e+2, -105730.0, -232479.53, -49.682304, -0.0022053162, -0.030752184, -105729.98, -46304.098 
5.4517263e+2, 3.0392528e+2, -8721.636, -82671.484, 337.8657, -0.0019798968, -0.030463038, -8720.092, -8720.092 
5.451704e+2, 3.1391835e+2, -9003.799, -81469.23, -572.6313, -0.0012073724, -0.026539251, -8999.273, -8999.273 
5.5521923e+2, 1.24083355e+2, -1674912.0, -1732550.9, 87.69374, 0.001134784, -0.032417607, -1674911.9, 49068.457 
5.5521685e+2, 1.3408007e+2, -1579014.1, -1637102.6, -634.6297, -0.000999686, -0.0144193685, -1579007.1, 47005.52 
5.552145e+2, 1.4407574e+2, -1490891.6, -1557254.4, -692.1111, 0.0014318111, -0.04244002, -1490884.4, 37170.582 
5.552121e+2, 1.5407118e+2, -1394689.0, -1460646.3, -785.70807, 0.0010767982, -0.0294106, -1394679.6, 35420.02 
5.552097e+2, 1.640659e+2, -1307021.4, -1381786.8, -935.8694, 0.0003468284, -0.02342111, -1307009.8, 25141.635 
5.5520725e+2, 1.740599e+2, -1209963.0, -1284280.6, -930.7273, -0.0008049783, -0.029241776, -1209951.4, 24258.87 
5.552048e+2, 1.8405329e+2, -1122047.6, -1205058.1, -1159.5314, -0.00090075505, -0.030851927, -1122031.4, 14243.581 
5.5520236e+2, 1.9404611e+2, -1025506.3, -1107735.3, -1084.7633, 0.00049724523, -0.028998364, -1025492.0, 12853.36 
5.5519986e+2, 2.0403823e+2, -938336.0, -1029977.5, -1118.3077, 0.00064577867, -0.027525514, -938322.3, 2100.0542 
5.5519736e+2, 2.140297e+2, -841309.8, -932469.06, -1261.5371, -0.0010085736, -0.028708942, -841292.4, 1213.867 
5.55195e+2, 2.2402053e+2, -753359.75, -853102.4, -1396.6534, -0.0014660839, -0.028539315, -753340.2, -8744.046 
5.551925e+2, 2.3401074e+2, -656969.25, -755751.8, -1422.3241, -0.00018015268, -0.028804949, -656948.8, -10256.895 
5.5518997e+2, 2.4400032e+2, -569252.94, -676933.4, -1212.0078, -0.00019808755, -0.0286657, -569239.25, -20445.305 
5.551875e+2, 2.5398928e+2, -471803.63, -579077.94, -882.75806, -0.0021217423, -0.0302002, -471796.34, -20894.07 
5.55185e+2, 2.6397753e+2, -384660.16, -501810.97, -749.8117, -0.0025355038, -0.029354146, -384655.34, -31638.113 
5.5518264e+2, 2.7396512e+2, -288176.1, -404473.16, -1212.3501, -0.00070850604, -0.027689703, -288163.44, -33024.504 
5.551802e+2, 2.83952e+2, -201417.66, -327522.34, -1043.8967, -0.00032737406, -0.027392196, -201409.02, -44141.324 
5.5517775e+2, 2.9393813e+2, -104395.87, -229722.72, -357.5037, -0.0021175342, -0.03177266, -104394.84, -44991.43 
5.551754e+2, 3.0392757e+2, -10146.034, -85599.97, 54.3877, -0.0028128675, -0.031362895, -10145.995, -10145.995 
5.551731e+2, 3.1392044e+2, -10759.9795, -85104.94, -817.4378, -0.0017725478, -0.026749754, -10750.993, -10750.993 
5.6522363e+2, 1.24085635e+2, -1674144.6, -1732152.6, 401.16064, 0.0008716917, -0.032169946, -1674141.9, 49816.15 
5.6522113e+2, 1.3408233e+2, -1578796.1, -1636932.0, -398.90128, -0.00063484936, -0.014656318, -1578793.4, 47196.92 
5.652187e+2, 1.44078e+2, -1490849.0, -1557405.6, -403.1055, 0.0018910388, -0.042359076, -1490846.6, 37186.117 
5.6521624e+2, 1.5407345e+2, -1393927.9, -1460470.3, -439.90057, 0.0007185201, -0.028595356, -1393925.0, 36152.523 
5.6521374e+2, 1.6406816e+2, -1306045.4, -1381251.1, -613.13, -0.00015276372, -0.022668477, -1306040.4, 26088.883 
5.6521124e+2, 1.7406215e+2, -1209950.1, -1284177.5, -550.27264, -0.0004800868, -0.029694349, -1209946.1, 24242.068 
5.6520873e+2, 1.8405554e+2, -1122464.0, -1205355.3, -783.6838, -0.00039572315, -0.03168797, -1122456.6, 13796.341 
5.6520617e+2, 1.9404836e+2, -1025307.6, -1107747.1, -951.27814, 0.00025126932, -0.029023817, -1025296.7, 13026.655 
5.652036e+2, 2.040405e+2, -937817.75, -1029559.4, -981.9852, 0.00016509593, -0.026993206, -937807.2, 2593.1138 
5.65201e+2, 2.1403196e+2, -841318.25, -932288.6, -718.3675, -0.0009816015, -0.027987558, -841312.56, 1171.4695 
5.651984e+2, 2.2402278e+2, -753685.4, -853405.9, -686.92566, -0.0012117507, -0.028076103, -753680.6, -9106.745 
5.6519586e+2, 2.3401299e+2, -656798.6, -755865.4, -796.3414, -0.000108317014, -0.029244397, -656792.25, -10122.3125 
5.651933e+2, 2.4400257e+2, -568873.75, -676616.25, -752.42834, -0.00021653251, -0.029058965, -568868.5, -20096.48 
5.6519073e+2, 2.5399154e+2, -472092.16, -579054.06, -954.18823, -0.0021020314, -0.029154358, -472083.66, -21203.605 
5.6518817e+2, 2.6397982e+2, -385326.38, -502048.5, -870.1329, -0.002590537, -0.028336968, -385319.88, -32324.977 
5.6518567e+2, 2.7396742e+2, -288668.97, -404636.25, -390.4024, -0.0009944141, -0.028871145, -288667.66, -33550.918 
5.6518316e+2, 2.8395426e+2, -201770.53, -327659.13, -90.99709, -0.00053083093, -0.028673422, -201770.45, -44525.023 
5.6518066e+2, 2.9394042e+2, -104542.125, -229778.17, -738.9208, -0.0017810172, -0.030020945, -104537.766, -45156.88 
5.651782e+2, 3.0392987e+2, -10242.604, -85429.28, -438.70563, -0.0024565207, -0.029406982, -10240.044, -10240.044 
5.6517583e+2, 3.1392273e+2, -11483.751, -85172.91, 609.4282, -0.0021667401, -0.028841877, -11478.711, -11478.711 
5.7522804e+2, 1.24087974e+2, -1674225.1, -1732304.5, -11.912734, 0.0013220446, -0.034783922, -1674225.1, 49709.953 
5.752255e+2, 1.3408472e+2, -1578819.9, -1637007.5, -822.64984, -0.00012001288, -0.012676304, -1578808.3, 47158.79 
5.752229e+2, 1.440804e+2, -1490914.6, -1557566.5, -602.8948, 0.0019191934, -0.039073028, -1490909.1, 37100.254 
5.752204e+2, 1.5407577e+2, -1394026.1, -1460660.0, -612.96295, -0.00063844485, -0.029232481, -1394020.5, 36034.184 
5.752178e+2, 1.6407049e+2, -1305971.4, -1381052.8, -1061.8654, -0.0012583729, -0.024459679, -1305956.4, 26150.133 
5.752152e+2, 1.7406452e+2, -1209824.5, -1283935.6, -1031.4808, 0.001001698, -0.02866018, -1209810.1, 24354.822 
5.752126e+2, 1.840579e+2, -1122713.4, -1205896.5, -1021.3075, 0.0013146754, -0.029782297, -1122700.8, 13528.987 
5.752099e+2, 1.9405065e+2, -1025617.4, -1108388.3, -1156.6444, -0.0011970139, -0.02907428, -1025601.2, 12699.569 
5.752073e+2, 2.040428e+2, -937414.94, -1028713.1, -1343.0876, -0.0019205494, -0.027938077, -937395.2, 2982.6177 
5.752046e+2, 2.1403433e+2, -840833.4, -931283.8, -1106.3439, -0.000044953737, -0.028281284, -840819.8, 1640.927 
5.75202e+2, 2.2402519e+2, -753808.44, -853670.56, -1002.746, 0.0003836084, -0.02808145, -753798.4, -9248.06 
5.7519925e+2, 2.3401536e+2, -656992.44, -756264.25, -1098.2582, -0.0013115766, -0.029506106, -656980.25, -10333.637 
5.751966e+2, 2.4400492e+2, -569253.0, -677405.06, -1085.5667, -0.0017818387, -0.02884922, -569242.06, -20493.008 
5.7519394e+2, 2.5399384e+2, -472505.28, -579886.75, -1284.1323, -0.00044843394, -0.02740337, -472489.9, -21632.371 
5.751913e+2, 2.6398215e+2, -384540.88, -500403.34, -1215.0696, -0.00036659098, -0.027043972, -384528.13, -31555.895 
5.7518864e+2, 2.7396983e+2, -287740.63, -402710.0, -751.14844, -0.002109332, -0.030993717, -287735.72, -32642.697 
5.751861e+2, 2.839567e+2, -202788.2, -329757.8, -352.44955, -0.0025971544, -0.03040665, -202787.23, -45565.605 
5.751835e+2, 2.9394275e+2, -105793.664, -232367.39, -963.7312, -0.0012241281, -0.025687201, -105786.33, -46428.016 
5.75181e+2, 3.0393222e+2, -8675.118, -82088.086, -832.5382, -0.0010065649, -0.024795445, -8665.678, -8665.678 
5.751785e+2, 3.1392524e+2, -9550.127, -81141.87, 163.1715, -0.0024370232, -0.032687802, -9549.755, -9549.755 
5.8523244e+2, 1.2409044e+2, -1674254.4, -1732537.1, 379.17053, 0.0016734507, -0.03488522, -1674251.9, 49659.063 
5.852298e+2, 1.3408716e+2, -1577866.6, -1636717.0, -514.0394, -0.0005531943, -0.012225352, -1577862.1, 48080.95 
5.852272e+2, 1.4408284e+2, -1489800.8, -1556967.0, -349.68546, 0.0014325485, -0.038401224, -1489798.9, 38186.55 
5.8522457e+2, 1.5407822e+2, -1394251.3, -1460684.6, -231.51999, -0.0003008518, -0.02971665, -1394250.4, 35780.31 
5.852219e+2, 1.6407292e+2, -1306586.9, -1381482.0, -630.9674, -0.0007425433, -0.025057448, -1306581.6, 25501.006 
5.852192e+2, 1.7406696e+2, -1209174.9, -1283764.1, -803.1252, 0.0007746712, -0.027870169, -1209166.3, 24974.83 
5.852164e+2, 1.8406034e+2, -1121641.6, -1205356.0, -834.86475, 0.0008969294, -0.028587515, -1121633.4, 14572.586 
5.8521366e+2, 1.9405308e+2, -1025618.2, -1108349.9, -654.17786, -0.0010187364, -0.028885385, -1025613.0, 12663.956 
5.852109e+2, 2.0404522e+2, -937923.8, -1028982.06, -828.9765, -0.0015676599, -0.028375192, -937916.25, 2437.7964 
5.852082e+2, 2.1403676e+2, -840945.56, -931375.7, -1100.1862, -0.00012756484, -0.028778583, -840932.2, 1504.8279 
5.8520544e+2, 2.2402762e+2, -753570.4, -853413.94, -1153.8959, 0.00010562449, -0.028277328, -753557.06, -9030.545 
5.8520263e+2, 2.3401782e+2, -656709.6, -755981.2, -961.3618, -0.0014419428, -0.028884921, -656700.3, -10077.675 
5.851999e+2, 2.4400736e+2, -569291.7, -677536.8, -740.8629, -0.0017729211, -0.028155915, -569286.6, -20561.545 
5.851972e+2, 2.5399628e+2, -472985.7, -580259.06, -636.8109, -0.0003103729, -0.027725138, -472981.9, -22148.154 
5.8519447e+2, 2.6398456e+2, -384808.03, -500328.38, -584.59064, -0.00021494023, -0.027441714, -384805.06, -31856.646 
5.851917e+2, 2.7397227e+2, -287358.4, -402286.94, -896.13947, -0.0021153574, -0.030083716, -287351.4, -32282.527 
5.8518904e+2, 2.8395918e+2, -202579.92, -329634.4, -576.4334, -0.0026639076, -0.02947989, -202577.3, -45379.953 
5.851864e+2, 2.9394522e+2, -106726.805, -232777.9, 54.459904, -0.001203513, -0.026657537, -106726.78, -47392.57 
5.851838e+2, 3.0393466e+2, -9761.817, -82389.54, 290.6496, -0.0009327448, -0.025816847, -9760.654, -9760.654 
5.851812e+2, 3.1392777e+2, -9670.599, -80954.22, -534.1484, -0.0023582457, -0.030974768, -9666.596, -9666.596 
5.952369e+2, 1.2409301e+2, -1674437.1, -1732963.5, 206.20206, 0.0019006903, -0.032668334, -1674436.4, 49449.45 
5.9523416e+2, 1.3408968e+2, -1578057.3, -1637116.4, -678.2194, -0.0018558508, -0.013175497, -1578049.5, 47868.95 
5.952314e+2, 1.4408535e+2, -1489675.5, -1556684.4, -844.7813, 0.0004661658, -0.04012352, -1489664.8, 38296.11 
5.952286e+2, 1.5408076e+2, -1394055.6, -1460322.9, -766.5823, 0.001573837, -0.030060405, -1394046.8, 35959.03 
5.952259e+2, 1.6407546e+2, -1306819.1, -1381969.4, -809.0499, 0.0012401706, -0.024559628, -1306810.4, 25247.229 
5.952231e+2, 1.7406946e+2, -1209476.8, -1284367.3, -936.16486, -0.0010380105, -0.027308539, -1209465.1, 24651.455 
5.952203e+2, 1.8406284e+2, -1121402.4, -1204826.0, -1290.7456, -0.001491537, -0.02804472, -1121382.4, 14799.014 
5.9521747e+2, 1.9405563e+2, -1025297.0, -1107697.9, -1151.5271, 0.00064630155, -0.028477173, -1025280.94, 12971.099 
5.9521466e+2, 2.0404775e+2, -938324.75, -1029843.75, -1127.2871, 0.0010174506, -0.028341938, -938310.9, 2018.3197 
5.952118e+2, 2.1403922e+2, -841439.8, -932399.5, -1367.8458, -0.0011630659, -0.029465413, -841419.25, 993.6953 
5.9520894e+2, 2.2403008e+2, -753301.94, -852839.1, -1433.3086, -0.0019111228, -0.028647572, -753281.3, -8778.715 
5.9520614e+2, 2.3402032e+2, -656383.3, -755230.25, -1249.3102, -0.0005906044, -0.027448406, -656367.56, -9769.526 
5.952032e+2, 2.4400991e+2, -569096.9, -677100.44, -1176.8844, -0.00032239174, -0.027018866, -569084.06, -20384.045 
5.9520036e+2, 2.5399882e+2, -472792.9, -579844.56, -1089.1346, -0.0015871783, -0.029965365, -472781.8, -21973.07 
5.951975e+2, 2.6398712e+2, -385304.94, -501368.75, -797.40344, -0.001991746, -0.029398927, -385299.47, -32375.889 
5.9519476e+2, 2.739748e+2, -287965.5, -403505.63, -1070.6853, -0.0011045259, -0.026356313, -287955.56, -32911.223 
5.95192e+2, 2.839617e+2, -201636.13, -327594.2, -1064.1964, -0.0008946544, -0.02608677, -201627.13, -44454.473 
5.951892e+2, 2.9394782e+2, -105563.53, -230366.73, -487.22272, -0.0016988921, -0.032557297, -105561.625, -46252.938 
5.951865e+2, 3.039373e+2, -11027.975, -84986.6, 67.27143, -0.0021535584, -0.03205355, -11027.913, -11027.913 
5.9518385e+2, 3.1393027e+2, -11242.799, -84177.45, -693.0661, -0.001982325, -0.02407365, -11236.214, -11236.214 
6.0524136e+2, 1.2409565e+2, -1673184.3, -1732336.4, 413.58188, 0.0014506378, -0.031972177, -1673181.4, 50678.582 
6.0523844e+2, 1.3409232e+2, -1578151.4, -1637078.0, -240.67232, -0.0014870865, -0.013690163, -1578150.4, 47742.188 
6.0523564e+2, 1.4408799e+2, -1490166.0, -1557113.3, -376.0569, 0.0010577777, -0.040454686, -1490163.9, 37771.227 
6.0523283e+2, 1.5408339e+2, -1393172.4, -1460098.4, -598.05347, 0.001417383, -0.029502407, -1393167.0, 36813.03 
6.0523e+2, 1.640781e+2, -1305511.5, -1381244.1, -669.9051, 0.0008377122, -0.023920942, -1305505.6, 26526.357 
6.052271e+2, 1.7407209e+2, -1209610.3, -1284313.8, -433.74994, -0.00097618223, -0.027730435, -1209607.8, 24483.092 
6.052242e+2, 1.8406546e+2, -1122066.5, -1205210.0, -725.54663, -0.0012540158, -0.028727384, -1122060.1, 14095.58 
6.052213e+2, 1.9405825e+2, -1024879.94, -1107574.9, -949.6848, 0.0006423018, -0.028266894, -1024869.06, 13357.289 
6.0521835e+2, 2.0405039e+2, -937450.0, -1029466.8, -952.1207, 0.0009141812, -0.027626146, -937440.1, 2863.3608 
6.052154e+2, 2.1404184e+2, -841048.94, -932262.56, -737.79407, -0.0011705068, -0.028806856, -841043.0, 1344.3069 
6.052124e+2, 2.2403269e+2, -753414.5, -852876.8, -703.267, -0.0018570538, -0.028300904, -753409.56, -8932.52 
6.0520947e+2, 2.3402293e+2, -657070.4, -755561.94, -879.98035, -0.0005151466, -0.02776132, -657062.5, -10490.018 
6.0520655e+2, 2.4401253e+2, -569615.25, -677152.56, -993.2975, -0.00031102757, -0.02742941, -569606.1, -20931.66 
6.0520357e+2, 2.5400147e+2, -472258.9, -579390.9, -974.0646, -0.0017726207, -0.029670011, -472250.06, -21467.135 
6.052007e+2, 2.6398975e+2, -384954.44, -501261.56, -594.8904, -0.0021623392, -0.028971698, -384951.4, -32053.746 
6.051978e+2, 2.7397743e+2, -289143.25, -404185.94, -362.5193, -0.00094436907, -0.02662985, -289142.1, -34123.492 
6.051949e+2, 2.8396434e+2, -202839.75, -327923.3, -367.05768, -0.0007059884, -0.026376547, -202838.67, -45691.805 
6.05192e+2, 2.9395047e+2, -105111.16, -229867.95, -769.1359, -0.0019424817, -0.031848058, -105106.42, -45823.87 
6.051892e+2, 3.0393997e+2, -10419.385, -84936.61, -292.12, -0.0024669599, -0.03128687, -10418.24, -10418.24 
6.0518646e+2, 3.1393293e+2, -11996.316, -84826.66, 334.40985, -0.0018223119, -0.0246422, -11994.781, -11994.781 
6.1524576e+2, 1.2409836e+2, -1672985.9, -1731903.3, -104.4346, 0.00035608525, -0.032648366, -1672985.8, 50847.73 
6.1524284e+2, 1.3409506e+2, -1577859.6, -1636516.9, -777.49304, 0.0003904536, -0.013803742, -1577849.4, 48016.32 
6.152399e+2, 1.4409073e+2, -1490499.6, -1557832.3, -576.17126, 0.0030487804, -0.039513644, -1490494.8, 37413.363 
6.15237e+2, 1.5408608e+2, -1393595.3, -1460964.3, -751.5567, -0.00061164075, -0.028121063, -1393586.9, 36366.76 
6.152341e+2, 1.6408078e+2, -1305194.3, -1380538.4, -1151.7352, -0.0017564114, -0.02315057, -1305176.8, 26828.996 
6.152311e+2, 1.740748e+2, -1209191.3, -1283446.3, -961.1859, 0.00078977103, -0.029052839, -1209178.8, 24885.377 
6.152281e+2, 1.8406819e+2, -1122367.6, -1205849.1, -966.1745, 0.0013675789, -0.030528633, -1122356.4, 13772.534 
6.15225e+2, 1.9406095e+2, -1025276.6, -1108383.8, -1150.2845, -0.0009098493, -0.028241117, -1025260.7, 12939.251 
6.1522204e+2, 2.0405309e+2, -937154.8, -1028832.5, -1332.1936, -0.0016692964, -0.026285037, -937135.44, 3141.6384 
6.15219e+2, 2.1404459e+2, -840680.06, -931475.8, -1143.9584, -0.00024361999, -0.026914695, -840665.7, 1694.6362 
6.1521596e+2, 2.2403544e+2, -753672.0, -853427.3, -1148.05, 0.00008951716, -0.027297374, -753658.75, -9208.814 
6.1521286e+2, 2.3402561e+2, -657387.94, -756241.75, -1321.8276, -0.0011676507, -0.02968848, -657370.3, -10824.12 
6.152098e+2, 2.440152e+2, -569581.94, -677114.44, -1188.6228, -0.001642374, -0.029264603, -569568.75, -20920.424 
6.152068e+2, 2.5400418e+2, -472228.6, -579283.1, -1143.6282, -0.0009637466, -0.027032709, -472216.38, -21460.041 
6.152038e+2, 2.639925e+2, -384596.2, -500518.0, -1140.3661, -0.0008622134, -0.026345735, -384584.97, -31714.178 
6.1520076e+2, 2.7398017e+2, -288721.06, -403350.63, -954.03485, -0.0015870465, -0.030611182, -288713.13, -33721.34 
6.151978e+2, 2.8396705e+2, -203438.53, -329171.47, -517.8572, -0.0019978646, -0.030068045, -203436.4, -46316.316 
6.1519486e+2, 2.939532e+2, -105859.7, -231387.38, -856.10596, -0.0019632825, -0.025003852, -105853.87, -46598.027 
6.1519194e+2, 3.0394268e+2, -9545.472, -83033.43, -759.1601, -0.0019513234, -0.024035072, -9537.63, -9537.63 
6.151891e+2, 3.1393567e+2, -10899.615, -82517.54, -191.71202, -0.0019009484, -0.032179937, -10899.103, -10899.103 
6.252503e+2, 1.2410121e+2, -1673250.6, -1732294.8, 493.63113, 0.00081257656, -0.0330923, -1673246.5, 50559.008 
6.2524724e+2, 1.340979e+2, -1576851.9, -1636223.8, -581.62396, 0.00012227142, -0.013527377, -1576846.3, 48991.7 
6.2524426e+2, 1.4409357e+2, -1489129.4, -1557089.0, -404.5766, 0.002621421, -0.03860713, -1489126.9, 38753.445 
6.252412e+2, 1.5408891e+2, -1393527.0, -1460821.1, -107.06423, -0.0005455673, -0.02821085, -1393526.9, 36399.086 
6.252382e+2, 1.640836e+2, -1305665.6, -1380995.8, -497.67215, -0.0014928587, -0.02346484, -1305662.4, 26315.697 
6.252351e+2, 1.7407762e+2, -1208679.1, -1283447.9, -872.163, 0.0008323772, -0.028474307, -1208669.0, 25367.658 
6.25232e+2, 1.84071e+2, -1121465.3, -1205359.4, -986.66064, 0.0012471509, -0.029752433, -1121453.6, 14647.828 
6.252289e+2, 1.9406375e+2, -1025300.75, -1108319.6, -736.7133, -0.0011180647, -0.028259572, -1025294.2, 12878.279 
6.252257e+2, 2.0405589e+2, -937660.44, -1028989.94, -837.4171, -0.0018003013, -0.02665287, -937652.75, 2596.8538 
6.252226e+2, 2.140474e+2, -841010.0, -931551.75, -980.1437, -0.000057566693, -0.026977217, -840999.4, 1333.3323 
6.252194e+2, 2.2403827e+2, -753651.6, -853410.0, -1011.5836, 0.00032019115, -0.027054004, -753641.4, -9219.086 
6.2521625e+2, 2.3402844e+2, -656605.4, -755869.75, -866.5275, -0.0012934414, -0.029146826, -656597.8, -10079.3545 
6.2521315e+2, 2.4401802e+2, -568992.2, -676856.1, -623.2747, -0.0018132394, -0.028774498, -568988.56, -20367.877 
6.2521005e+2, 2.5400698e+2, -473160.78, -579786.4, -671.4261, -0.00072443765, -0.02708888, -473156.56, -22427.768 
6.252069e+2, 2.639953e+2, -385565.1, -500786.44, -788.48236, -0.0006029852, -0.026480855, -385559.7, -32716.504 
6.252037e+2, 2.73983e+2, -287835.13, -402704.38, -878.19434, -0.001887704, -0.030146563, -287828.4, -32864.457 
6.252007e+2, 2.839699e+2, -202491.58, -328831.38, -404.27148, -0.0023648967, -0.029518075, -202490.28, -45398.082 
6.251977e+2, 2.93956e+2, -107033.266, -232088.56, -127.049194, -0.0016633548, -0.02511759, -107033.13, -47804.97 
6.251947e+2, 3.039455e+2, -11071.709, -83295.75, 56.5415, -0.001572863, -0.024241088, -11071.664, -11071.664 
6.251917e+2, 3.1393856e+2, -11083.688, -82046.99, -181.43239, -0.0023348378, -0.03161818, -11083.225, -11083.225 
6.352548e+2, 1.2410417e+2, -1673764.6, -1733384.0, 269.22635, 0.0026293376, -0.033336833, -1673763.5, 50012.984 
6.3525164e+2, 1.3410081e+2, -1577363.6, -1637273.9, -780.9096, -0.002104087, -0.012898807, -1577353.5, 48455.96 
6.3524854e+2, 1.4409646e+2, -1488740.1, -1556250.6, -880.4515, -0.000014393735, -0.03772903, -1488728.8, 39123.293 
6.3524544e+2, 1.5409188e+2, -1393019.6, -1459785.4, -623.59595, 0.0014086711, -0.0296362, -1393013.8, 36883.227 
6.352422e+2, 1.6408655e+2, -1306233.4, -1382151.3, -783.66864, 0.0013514692, -0.024759043, -1306225.3, 25723.799 
6.3523906e+2, 1.740805e+2, -1209366.4, -1284840.3, -1116.1227, -0.00071347115, -0.026163664, -1209349.9, 24658.5 
6.352359e+2, 1.8407387e+2, -1121131.3, -1204648.6, -1405.956, -0.0013905965, -0.026624361, -1121107.6, 14965.81 
6.352327e+2, 1.9406664e+2, -1024854.8, -1107396.3, -1185.5852, -0.00010539687, -0.028320678, -1024837.8, 13306.271 
6.352294e+2, 2.040588e+2, -937838.94, -1029365.0, -1202.9697, 0.0002989401, -0.02858044, -937823.1, 2397.998 
6.3522613e+2, 2.1405028e+2, -841256.4, -932058.56, -1332.3237, -0.00056585215, -0.028832138, -841236.8, 1067.7316 
6.352229e+2, 2.2404115e+2, -753418.25, -852939.7, -1259.801, -0.001036365, -0.02750667, -753402.3, -9008.225 
6.352197e+2, 2.3403141e+2, -656355.75, -755302.94, -1107.9084, -0.0009450363, -0.026335424, -656343.3, -9853.77 
6.352164e+2, 2.4402098e+2, -569090.5, -677033.44, -1173.2504, -0.0009302352, -0.026147002, -569077.75, -20486.082 
6.352132e+2, 2.540099e+2, -473265.38, -580027.2, -1250.0233, -0.001020374, -0.029628757, -473250.72, -22550.373 
6.3521e+2, 2.639982e+2, -385678.7, -501055.97, -929.5879, -0.0013111176, -0.029156687, -385671.2, -32856.242 
6.3520676e+2, 2.7398592e+2, -288000.6, -402994.5, -967.98303, -0.0018858077, -0.025572976, -287992.44, -33057.227 
6.352036e+2, 2.8397283e+2, -202131.38, -328005.6, -992.75525, -0.0018954935, -0.02505359, -202123.55, -45060.223 
6.3520044e+2, 2.9395896e+2, -106571.74, -231121.88, -776.22595, -0.0010830242, -0.03167436, -106566.91, -47367.277 
6.3519734e+2, 3.0394846e+2, -11405.992, -83982.58, -164.87231, -0.0013360884, -0.031335074, -11405.617, -11405.617 
6.351943e+2, 3.1394157e+2, -11543.988, -82951.87, -347.68378, -0.003124709, -0.023513058, -11542.295, -11542.295 
6.452593e+2, 1.2410721e+2, -1672628.5, -1732816.1, 257.24808, 0.0024256005, -0.03232051, -1672627.4, 51119.344 
6.452561e+2, 1.3410383e+2, -1577272.6, -1637118.0, -224.7718, -0.001918247, -0.013231978, -1577271.9, 48507.89 
6.452529e+2, 1.440995e+2, -1489080.1, -1556574.8, -267.5454, 0.00027935926, -0.037863012, -1489079.0, 38743.203 
6.452496e+2, 1.5409489e+2, -1392484.0, -1459703.9, -609.1723, 0.0013116138, -0.029312154, -1392478.5, 37388.895 
6.452464e+2, 1.6408958e+2, -1305320.3, -1381644.8, -794.92303, 0.001121032, -0.024366697, -1305311.9, 26607.611 
6.452431e+2, 1.7408353e+2, -1209126.3, -1284645.4, -413.2687, -0.0007239343, -0.026249316, -1209124.0, 24854.752 
6.4523983e+2, 1.8407689e+2, -1121230.6, -1204720.4, -526.9124, -0.0012161396, -0.026771052, -1121227.4, 14816.472 
6.4523643e+2, 1.9406968e+2, -1024633.9, -1107327.0, -776.8365, 0.00020130069, -0.027932182, -1024626.56, 13487.885 
6.4523315e+2, 2.040618e+2, -937429.44, -1029232.8, -934.4917, 0.00047370183, -0.028109154, -937419.9, 2771.6194 
6.4522976e+2, 2.1405329e+2, -840758.06, -931892.06, -874.61615, -0.0009067972, -0.028913109, -840749.6, 1525.4392 
6.452264e+2, 2.2404414e+2, -753203.5, -852720.56, -823.2594, -0.0014069983, -0.027823947, -753196.7, -8832.044 
6.452231e+2, 2.3403442e+2, -657220.75, -755617.9, -884.32184, -0.0006367424, -0.026436104, -657212.8, -10752.76 
6.4521974e+2, 2.4402402e+2, -569975.6, -677368.06, -970.7908, -0.00054255436, -0.025989233, -569966.9, -21404.86 
6.4521635e+2, 2.540129e+2, -472544.03, -579582.56, -877.58856, -0.001435629, -0.02915823, -472536.8, -21866.227 
6.45213e+2, 2.6400125e+2, -384916.8, -500723.88, -443.88986, -0.0018231216, -0.02873279, -384915.13, -32129.93 
6.452098e+2, 2.7398896e+2, -289306.25, -403686.97, -394.64508, -0.0014576897, -0.025701547, -289304.88, -34399.324 
6.452065e+2, 2.839759e+2, -203582.86, -328406.56, -447.22244, -0.0013395054, -0.025295768, -203581.27, -46547.69 
6.452032e+2, 2.93962e+2, -105945.53, -230476.44, -471.18573, -0.0016111161, -0.03140129, -105943.75, -46774.242 
6.452e+2, 3.0395153e+2, -10610.15, -83928.25, 41.6162, -0.0020035598, -0.031018982, -10610.127, -10610.127 
6.4519686e+2, 3.139446e+2, -12472.563, -83806.45, 50.8202, -0.0025309986, -0.023790956, -12472.527, -12472.527 
6.552639e+2, 1.24110304e+2, -1672115.3, -1731760.0, -218.63766, 0.00037103295, -0.030129936, -1672114.5, 51601.92 
6.5526056e+2, 1.3410698e+2, -1576657.1, -1635889.9, -720.5103, 0.00043639398, -0.014429522, -1576648.4, 49100.56 
6.552573e+2, 1.4410266e+2, -1489620.3, -1557704.8, -566.99194, 0.0032017883, -0.038906943, -1489615.6, 38175.715 
6.552539e+2, 1.5409797e+2, -1393151.9, -1461080.8, -869.38116, -0.00066996383, -0.027397657, -1393140.8, 36696.332 
6.552505e+2, 1.6409265e+2, -1304752.1, -1380439.8, -1203.0295, -0.0019165978, -0.022441586, -1304733.0, 27156.383 
6.5524715e+2, 1.7408668e+2, -1208425.9, -1283188.6, -852.9849, 0.0006513614, -0.028517053, -1208416.1, 25531.871 
6.552437e+2, 1.8408005e+2, -1121581.0, -1205446.0, -908.4227, 0.0014961553, -0.029894555, -1121571.1, 14441.631 
6.552403e+2, 1.9407281e+2, -1025087.25, -1108275.4, -1141.8612, -0.00015500898, -0.027136104, -1025071.56, 13012.17 
6.5523684e+2, 2.0406494e+2, -937367.0, -1029120.94, -1263.1128, -0.0011241962, -0.025451487, -937349.56, 2811.3672 
6.552334e+2, 2.1405642e+2, -840657.56, -931680.8, -1201.3135, -0.0011068886, -0.027377667, -840641.7, 1602.78 
6.552299e+2, 2.2404727e+2, -753306.7, -852944.7, -1334.3041, -0.000889083, -0.028019063, -753288.8, -8954.672 
6.5522647e+2, 2.3403749e+2, -657325.8, -755870.1, -1412.7335, -0.00037775846, -0.029208586, -657305.56, -10875.615 
6.55223e+2, 2.440271e+2, -569784.3, -677004.06, -1153.6404, -0.00062704197, -0.028098343, -569771.9, -21240.082 
6.5521955e+2, 2.540161e+2, -472362.38, -579173.56, -1026.6461, -0.0019790812, -0.025917415, -472352.5, -21712.867 
6.552161e+2, 2.6400444e+2, -384884.9, -500626.6, -1041.9421, -0.0021704596, -0.025458962, -384875.5, -32121.49 
6.552127e+2, 2.7399206e+2, -289256.1, -403609.72, -1038.8367, -0.00065357436, -0.0301673, -289246.66, -34371.594 
6.5520936e+2, 2.83979e+2, -203571.66, -328380.3, -602.62256, -0.0007246432, -0.029869402, -203568.75, -46565.71 
6.5520597e+2, 2.9396525e+2, -105974.98, -230483.58, -572.3142, -0.003174908, -0.024812864, -105972.35, -46834.4 
6.552027e+2, 3.0395478e+2, -10697.047, -84029.25, -521.2216, -0.0035177818, -0.023867175, -10693.342, -10693.342 
6.551994e+2, 3.139477e+2, -12528.812, -83912.164, -558.81976, -0.0007009244, -0.031878095, -12524.4375, -12524.4375 
6.652685e+2, 1.2411357e+2, -1672054.5, -1731925.8, 642.5839, 0.00059096824, -0.030352017, -1672047.6, 51636.906 
6.65265e+2, 1.3411023e+2, -1575855.6, -1635610.8, -527.81665, 0.00025910683, -0.014454637, -1575851.0, 49866.156 
6.652616e+2, 1.441059e+2, -1488634.3, -1557229.9, -475.7315, 0.002999609, -0.03810552, -1488630.9, 39128.625 
6.652581e+2, 1.5410122e+2, -1392895.8, -1460944.9, -130.36656, -0.00047282228, -0.027107319, -1392895.5, 36909.95 
6.6525465e+2, 1.640959e+2, -1304827.9, -1380492.5, -405.46127, -0.0016165271, -0.02243705, -1304825.8, 27031.951 
6.6525114e+2, 1.7408991e+2, -1208306.4, -1283140.6, -755.8459, 0.0006386615, -0.028467707, -1208298.8, 25617.598 
6.652477e+2, 1.8408328e+2, -1121360.1, -1205396.5, -1009.2453, 0.001273498, -0.029845662, -1121348.0, 14633.128 
6.652441e+2, 1.9407605e+2, -1024796.75, -1108199.1, -840.6857, -0.00045352522, -0.027135221, -1024788.3, 13263.83 
6.652405e+2, 2.0406815e+2, -937164.0, -1028921.1, -794.22235, -0.0012479484, -0.0252579, -937157.1, 2972.2476 
6.65237e+2, 2.1405967e+2, -841036.56, -931754.9, -777.3859, -0.0007024329, -0.026649911, -841029.9, 1182.8057 
6.652334e+2, 2.240505e+2, -753683.7, -853182.44, -870.4252, -0.0005064839, -0.027216172, -753676.1, -9373.755 
6.6522986e+2, 2.3404072e+2, -656561.0, -755572.25, -881.17554, -0.00080319954, -0.028986618, -656553.1, -10154.854 
6.652263e+2, 2.4403033e+2, -568937.5, -676558.44, -667.4657, -0.001124515, -0.028175062, -568933.4, -20433.146 
6.6522276e+2, 2.5401932e+2, -473199.16, -579538.1, -719.07654, -0.0014844298, -0.025875654, -473194.3, -22586.313 
6.6521925e+2, 2.6400766e+2, -385968.56, -500944.22, -829.5939, -0.0015471668, -0.025338683, -385962.56, -33240.305 
6.652157e+2, 2.7399534e+2, -288652.1, -403099.22, -743.78485, -0.0011676764, -0.030035848, -288647.25, -33804.152 
6.6521215e+2, 2.8398228e+2, -202908.45, -328130.1, -244.06035, -0.0013699539, -0.029689005, -202907.98, -45936.953 
6.6520876e+2, 2.939685e+2, -107242.95, -231187.95, -288.1556, -0.0024707858, -0.024503686, -107242.29, -48136.246 
6.652053e+2, 3.0395803e+2, -12138.588, -84261.29, -170.90439, -0.0026823264, -0.023548394, -12138.184, -12138.184 
6.652019e+2, 3.13951e+2, -12381.802, -83306.45, 146.10255, -0.0015698167, -0.031746212, -12381.5, -12381.5 
6.7527306e+2, 1.2411696e+2, -1672779.4, -1733444.8, 315.73868, 0.0028005396, -0.032782342, -1672777.8, 50873.484 
6.752695e+2, 1.3411357e+2, -1576559.3, -1637070.0, -828.7761, -0.0022208134, -0.0134274615, -1576547.9, 49136.594 
6.752659e+2, 1.4410922e+2, -1488164.6, -1556243.8, -913.9052, -0.000036861853, -0.03563924, -1488152.4, 39574.617 
6.7526245e+2, 1.541046e+2, -1392304.5, -1459719.4, -596.8257, 0.0016742117, -0.02828651, -1392299.3, 37473.14 
6.752589e+2, 1.6409926e+2, -1305364.0, -1381604.6, -800.51373, 0.0016784273, -0.024163064, -1305355.6, 26469.01 
6.752552e+2, 1.7409323e+2, -1208953.4, -1284479.8, -1127.2549, -0.0006510015, -0.026318084, -1208936.5, 24947.21 
6.752516e+2, 1.8408658e+2, -1121124.8, -1204917.5, -1342.0684, -0.0016288238, -0.02691824, -1121103.3, 14845.562 
6.752479e+2, 1.9407934e+2, -1024489.25, -1107546.3, -1177.0486, -0.00071095553, -0.02786044, -1024472.56, 13547.206 
6.752443e+2, 2.0407149e+2, -937113.25, -1028806.6, -1266.2976, -0.000044887067, -0.027301136, -937095.75, 3001.0637 
6.752406e+2, 2.14063e+2, -840994.6, -931687.4, -1264.6542, 0.00023955264, -0.026657067, -840977.0, 1202.9562 
6.7523694e+2, 2.2405387e+2, -753668.9, -853172.25, -1120.6115, -0.00026342063, -0.025502864, -753656.25, -9386.852 
6.752333e+2, 2.340441e+2, -656583.7, -755581.94, -1104.9458, -0.0018681777, -0.026024222, -656571.4, -10206.157 
6.7522955e+2, 2.4403368e+2, -569090.7, -676823.8, -1227.5052, -0.0020135702, -0.02639082, -569076.7, -20609.395 
6.752259e+2, 2.5402263e+2, -473341.1, -579817.8, -1311.0789, -0.00005022759, -0.028770108, -473324.97, -22749.25 
6.752223e+2, 2.6401097e+2, -385788.16, -500585.56, -1058.7546, -0.000045175697, -0.028106254, -385778.4, -33088.426 
6.7521864e+2, 2.739987e+2, -288468.53, -402681.7, -937.63654, -0.0029096894, -0.02567385, -288460.8, -33650.95 
6.75215e+2, 2.8398567e+2, -203050.83, -328364.13, -808.0789, -0.0031907156, -0.025138684, -203045.63, -46107.938 
6.752115e+2, 2.939718e+2, -107397.305, -231490.33, -886.49347, 0.0003079019, -0.029985294, -107390.97, -48317.145 
6.75208e+2, 3.0396134e+2, -11588.289, -83095.77, -405.90833, 0.00030078457, -0.029511038, -11585.985, -11585.985 
6.752044e+2, 3.1395453e+2, -11775.741, -81983.44, -62.1136, -0.0049649538, -0.023987543, -11775.686, -11775.686 
6.852777e+2, 1.2412044e+2, -1671967.0, -1733148.6, 313.57007, 0.0024998921, -0.032500125, -1671965.4, 51651.72 
6.85274e+2, 1.3411704e+2, -1576208.5, -1636898.0, -141.68457, -0.002074185, -0.013693725, -1576208.1, 49442.266 
6.852703e+2, 1.441127e+2, -1488054.0, -1556250.3, -125.21151, 0.00022906825, -0.035314657, -1488053.8, 39639.16 
6.8526673e+2, 1.5410806e+2, -1391944.8, -1459609.9, -428.4182, 0.0015630536, -0.028351286, -1391942.0, 37796.305 
6.85263e+2, 1.6410272e+2, -1304864.3, -1381471.8, -708.9778, 0.0014387562, -0.02423007, -1304857.8, 26932.947 
6.852593e+2, 1.7409667e+2, -1208359.9, -1284311.4, -475.9197, -0.000679816, -0.025812581, -1208356.9, 25493.049 
6.8525547e+2, 1.8409005e+2, -1120615.1, -1204610.3, -531.31, -0.001479139, -0.026229247, -1120611.8, 15303.25 
6.852518e+2, 1.9408281e+2, -1024585.6, -1107516.9, -643.2132, -0.00042825926, -0.027535893, -1024580.6, 13405.27 
6.8524796e+2, 2.0407493e+2, -937331.25, -1028939.7, -876.7139, 0.00009754683, -0.027356202, -937322.9, 2740.083 
6.852442e+2, 2.1406645e+2, -840434.75, -931458.8, -945.4384, -0.00014680314, -0.02710849, -840424.94, 1721.2438 
6.852404e+2, 2.2405733e+2, -753060.1, -852771.4, -838.4546, -0.00065232394, -0.025883649, -753053.06, -8817.429 
6.8523663e+2, 2.3404756e+2, -657226.1, -755788.3, -758.5313, -0.0015154714, -0.02565575, -657220.25, -10888.989 
6.852329e+2, 2.4403715e+2, -570024.7, -677216.2, -798.08215, -0.0015492815, -0.02580039, -570018.75, -21585.436 
6.8522906e+2, 2.540261e+2, -473048.38, -579629.3, -720.3954, -0.00038981083, -0.028732283, -473043.5, -22501.791 
6.852253e+2, 2.6401442e+2, -385283.6, -500363.06, -400.12814, -0.0005098279, -0.028121939, -385282.2, -32626.215 
6.8522155e+2, 2.740022e+2, -289126.38, -403042.7, -501.8871, -0.0025089004, -0.024994034, -289124.2, -34348.34 
6.8521786e+2, 2.8398916e+2, -203818.14, -328467.38, -472.29605, -0.0027370404, -0.024433227, -203816.36, -46912.793 
6.8521416e+2, 2.939753e+2, -107109.15, -231082.19, -238.22888, -0.00037502477, -0.030240435, -107108.69, -48069.16 
6.852105e+2, 3.0396485e+2, -11398.2705, -83197.64, 225.83215, -0.00044755376, -0.02983612, -11397.561, -11397.561 
6.852069e+2, 3.1395805e+2, -12667.308, -82655.1, -212.14476, -0.004200015, -0.023046553, -12666.665, -12666.665 
6.9528234e+2, 1.24124e+2, -1671417.8, -1732026.4, -121.31571, -0.00007466515, -0.029763889, -1671417.5, 52164.8 
6.952786e+2, 1.3412066e+2, -1575567.5, -1635588.6, -592.7308, 0.0004181064, -0.015116544, -1575561.6, 50053.43 
6.952748e+2, 1.4411633e+2, -1488562.1, -1557288.0, -534.86145, 0.0034387098, -0.03690817, -1488558.0, 39099.36 
6.9527096e+2, 1.5411164e+2, -1392555.3, -1460868.4, -817.9717, -0.00060990796, -0.02741114, -1392545.4, 37158.047 
6.9526714e+2, 1.6410628e+2, -1304523.5, -1380774.3, -1056.705, -0.0020072705, -0.022799531, -1304508.9, 27247.168 
6.952634e+2, 1.7410026e+2, -1207949.4, -1283427.9, -829.1987, 0.00042069916, -0.026793987, -1207940.3, 25874.594 
6.952595e+2, 1.8409364e+2, -1120783.6, -1204935.4, -1027.0903, 0.0014113142, -0.027557775, -1120771.1, 15108.697 
6.9525564e+2, 1.940864e+2, -1024789.1, -1107951.8, -1149.0392, 0.00032467302, -0.026258806, -1024773.25, 13177.419 
6.952517e+2, 2.0407853e+2, -937437.75, -1029185.6, -1171.5546, -0.00074106565, -0.025608419, -937422.75, 2605.1882 
6.952478e+2, 2.1406998e+2, -840559.8, -931698.4, -1216.365, -0.0017554649, -0.02796854, -840543.6, 1567.9755 
6.9524395e+2, 2.2406083e+2, -752966.2, -852565.44, -1367.396, -0.0016303201, -0.02816956, -752947.4, -8746.236 
6.952401e+2, 2.3405111e+2, -657090.6, -755524.25, -1315.9298, 0.00011936174, -0.027653687, -657073.06, -10776.45 
6.9523615e+2, 2.4404073e+2, -569839.1, -676857.1, -1095.4392, 0.00012999497, -0.026300106, -569827.94, -21429.635 
6.952322e+2, 2.5402972e+2, -472883.97, -579264.1, -993.20245, -0.0023746567, -0.026011277, -472874.7, -22368.555 
6.9522834e+2, 2.6401806e+2, -385488.75, -500777.47, -885.16626, -0.0027871828, -0.02562051, -385481.97, -32861.547 
6.952245e+2, 2.7400574e+2, -289377.78, -403528.84, -1001.98346, -0.00015799765, -0.027694868, -289369.0, -34627.91 
6.952207e+2, 2.839927e+2, -203418.36, -327627.72, -818.88947, -0.00022023029, -0.027243571, -203412.95, -46544.21 
6.9521683e+2, 2.9397896e+2, -106647.0, -230094.0, -579.6799, -0.004258112, -0.025683027, -106644.27, -47640.934 
6.952131e+2, 3.0396855e+2, -12142.051, -84720.68, -244.29153, -0.004635122, -0.02498938, -12141.229, -12141.229 
6.952094e+2, 3.1396148e+2, -13551.019, -84471.46, -676.5318, 0.00035683083, -0.028429037, -13544.565, -13544.565 
7.05287e+2, 1.2412771e+2, -1671032.3, -1731951.8, 610.2613, 0.000074333824, -0.029204275, -1671026.1, 52519.746 
7.052831e+2, 1.3412434e+2, -1575122.9, -1635374.6, -490.70343, 0.00038056925, -0.015430922, -1575118.9, 50459.97 
7.052792e+2, 1.4412002e+2, -1488096.4, -1557160.8, -508.08786, 0.0033344345, -0.03649881, -1488092.6, 39528.504 
7.052753e+2, 1.5411532e+2, -1391907.6, -1460664.4, -260.8375, -0.0006799306, -0.02703766, -1391906.6, 37760.617 
7.0527136e+2, 1.6410996e+2, -1303954.9, -1380426.4, -421.3298, -0.002017474, -0.022575054, -1303952.6, 27767.268 
7.052674e+2, 1.7410396e+2, -1208097.3, -1283417.1, -569.0675, 0.00050936633, -0.026866116, -1208092.9, 25685.748 
7.052635e+2, 1.8409732e+2, -1121110.1, -1205155.9, -856.886, 0.0014516643, -0.02772679, -1121101.5, 14742.169 
7.0525944e+2, 1.9409008e+2, -1024270.8, -1107783.9, -823.13226, 0.00009297489, -0.026230374, -1024262.7, 13651.87 
7.0525545e+2, 2.040822e+2, -936778.1, -1028848.06, -735.5171, -0.0009287536, -0.02531343, -936772.25, 3219.6125 
7.0525146e+2, 2.1407367e+2, -840923.5, -931855.6, -659.67334, -0.0014510306, -0.027314989, -840918.7, 1156.7213 
7.0524746e+2, 2.2406453e+2, -753553.06, -852796.7, -787.3607, -0.001261972, -0.027609868, -753546.8, -9381.804 
7.052434e+2, 2.3405479e+2, -656736.1, -755295.4, -841.4258, -0.00006324159, -0.02782848, -656728.94, -10468.488 
7.0523936e+2, 2.4404442e+2, -569240.5, -676510.06, -700.8621, -0.00021240012, -0.026612958, -569235.94, -20873.797 
7.052354e+2, 2.5403342e+2, -473068.94, -579304.4, -746.90216, -0.002315219, -0.02558601, -473063.7, -22593.814 
7.0523137e+2, 2.6402175e+2, -385987.4, -500873.53, -678.6144, -0.0026344673, -0.02513443, -385983.38, -33399.316 
7.0522743e+2, 2.7400947e+2, -289565.44, -403479.38, -496.59857, -0.0003594545, -0.0281404, -289563.28, -34858.543 
7.052235e+2, 2.8399643e+2, -203576.17, -327748.47, -241.12967, -0.0004178419, -0.027707467, -203575.7, -46743.36 
7.0521957e+2, 2.9398268e+2, -106969.695, -230290.08, -513.2986, -0.003938988, -0.024814563, -106967.56, -48000.67 
7.0521563e+2, 3.0397227e+2, -12465.249, -84619.02, -215.08015, -0.0043162494, -0.024024531, -12464.608, -12464.608 
7.052119e+2, 3.1396523e+2, -14110.0625, -84467.31, 371.3029, -0.00007996466, -0.02919799, -14108.104, -14108.104 
7.152917e+2, 1.2413156e+2, -1671679.8, -1733266.9, 154.70032, 0.0026015192, -0.030606862, -1671679.4, 51828.863 
7.152876e+2, 1.3412812e+2, -1575705.4, -1636584.0, -930.27795, -0.0019466577, -0.014752188, -1575691.1, 49850.664 
7.1528363e+2, 1.4412381e+2, -1487769.1, -1556483.9, -848.74475, 0.00024061179, -0.034289483, -1487758.6, 39825.504 
7.1527964e+2, 1.5411912e+2, -1391516.5, -1459823.3, -601.929, 0.0011182484, -0.027171908, -1391511.3, 38118.754 
7.152756e+2, 1.6411377e+2, -1304198.6, -1380903.5, -949.5837, 0.0010314286, -0.023426168, -1304186.9, 27495.531 
7.152715e+2, 1.7410775e+2, -1208372.0, -1284004.6, -1110.3578, -0.00032975324, -0.02611782, -1208355.8, 25385.787 
7.152674e+2, 1.841011e+2, -1121042.9, -1205038.3, -1152.1888, -0.0010957773, -0.026849106, -1121027.1, 14779.503 
7.152633e+2, 1.9409385e+2, -1024204.94, -1107613.4, -1094.8395, -0.0010450967, -0.027331501, -1024190.56, 13687.078 
7.152592e+2, 2.0408598e+2, -936675.56, -1028601.4, -1257.5065, -0.0005439622, -0.026323212, -936658.4, 3296.3994 
7.152551e+2, 2.140775e+2, -840798.1, -931586.06, -1209.4811, 0.0005742385, -0.025287366, -840782.0, 1255.8723 
7.152509e+2, 2.2406839e+2, -753601.75, -852906.3, -1118.1809, 0.0003063134, -0.024466837, -753589.2, -9461.863 
7.1524674e+2, 2.340586e+2, -656825.75, -755448.4, -1147.7688, -0.0019158176, -0.026345337, -656812.4, -10589.371 
7.152427e+2, 2.4404822e+2, -569366.2, -676747.75, -1160.5701, -0.0024053836, -0.026753562, -569353.6, -21028.707 
7.152386e+2, 2.5403717e+2, -473205.0, -579543.44, -1218.2869, -0.0004011828, -0.027253758, -473191.03, -22758.033 
7.1523446e+2, 2.6402554e+2, -385690.03, -500226.44, -1101.6952, -0.00027863652, -0.026480524, -385679.44, -33132.383 
7.1523035e+2, 2.740133e+2, -289227.03, -402724.63, -922.2793, -0.0029165533, -0.026520843, -289219.53, -34552.617 
7.1522623e+2, 2.840003e+2, -204016.02, -328653.22, -617.2703, -0.0031176403, -0.026027149, -204012.97, -47218.445 
7.152223e+2, 2.9398644e+2, -107519.2, -231386.14, -867.5474, 0.00022171448, -0.027328528, -107513.125, -48582.92 
7.1521825e+2, 3.0397603e+2, -11549.487, -82654.98, -730.6791, 0.0001147747, -0.026600238, -11541.9795, -11541.9795 
7.1521425e+2, 3.139692e+2, -13002.142, -82141.51, -188.96843, -0.00515076, -0.025707804, -13001.625, -13001.625 
7.252964e+2, 1.2413551e+2, -1671306.0, -1733300.6, 323.12738, 0.0028918842, -0.030257694, -1671304.3, 52165.273 
7.2529215e+2, 1.3413206e+2, -1574915.0, -1636301.9, -262.7826, -0.0021088189, -0.014859244, -1574913.9, 50589.363 
7.252881e+2, 1.4412774e+2, -1487022.6, -1556043.6, -97.18541, -0.0000042402153, -0.03345653, -1487022.4, 40523.13 
7.25284e+2, 1.5412308e+2, -1391677.4, -1459799.1, -199.74638, 0.0012732222, -0.026962467, -1391676.8, 37914.63 
7.252798e+2, 1.6411772e+2, -1304584.9, -1381253.4, -603.55676, 0.0012899162, -0.02348455, -1304580.1, 27063.684 
7.252756e+2, 1.7411166e+2, -1207644.9, -1283833.3, -599.09094, -0.00040397316, -0.025919305, -1207640.3, 26062.88 
7.2527134e+2, 1.8410502e+2, -1119966.3, -1204430.9, -606.9566, -0.0012483113, -0.026539879, -1119961.9, 15806.37 
7.252672e+2, 1.9409777e+2, -1024306.75, -1107554.0, -571.8097, -0.000914871, -0.027130505, -1024302.8, 13536.399 
7.2526294e+2, 2.0408992e+2, -937185.56, -1028797.8, -777.52893, -0.00037793463, -0.026268447, -937178.94, 2737.3438 
7.2525865e+2, 2.1408144e+2, -840467.7, -931385.25, -839.33307, 0.00041821165, -0.025400568, -840459.94, 1539.4302 
7.252545e+2, 2.240723e+2, -753074.0, -852658.25, -759.9388, 0.000080359896, -0.024428705, -753068.2, -8979.422 
7.252502e+2, 2.3406255e+2, -656940.2, -755542.56, -733.3178, -0.0018632195, -0.025709681, -656934.75, -10750.269 
7.252459e+2, 2.4405216e+2, -569764.3, -676857.8, -702.5289, -0.0022463629, -0.026098574, -569759.75, -21473.36 
7.252417e+2, 2.5404114e+2, -473468.7, -579595.94, -601.52765, -0.00038033215, -0.027402798, -473465.28, -23070.863 
7.252375e+2, 2.6402947e+2, -385824.22, -500270.72, -461.20483, -0.00032585804, -0.026725443, -385822.38, -33313.93 
7.252332e+2, 2.7401727e+2, -289069.78, -402653.8, -630.8871, -0.002931888, -0.025833778, -289066.28, -34438.063 
7.252291e+2, 2.8400424e+2, -203923.75, -328293.78, -349.65588, -0.0031265449, -0.025320126, -203922.77, -47167.055 
7.252249e+2, 2.939904e+2, -108303.52, -231468.2, 97.18769, 0.00018896896, -0.027935747, -108303.445, -49412.207 
7.252208e+2, 3.0398002e+2, -12576.592, -83226.92, 300.49716, 0.000087745626, -0.027310705, -12575.313, -12575.313 
7.252166e+2, 3.1397322e+2, -12710.492, -82108.125, -340.8701, -0.005128398, -0.024717784, -12708.817, -12708.817 
7.353011e+2, 1.2413954e+2, -1671008.3, -1732686.9, -25.783047, 0.0011478844, -0.02835199, -1671008.3, 52421.7 
7.352968e+2, 1.3413614e+2, -1574540.0, -1635515.8, -614.8989, -0.0003535574, -0.015653005, -1574533.8, 50929.61 
7.352926e+2, 1.4413184e+2, -1487242.9, -1556462.3, -663.55255, 0.0022689607, -0.033835668, -1487236.5, 40268.984 
7.3528826e+2, 1.5412714e+2, -1391911.4, -1460322.6, -785.7909, -0.00006701671, -0.026439799, -1391902.4, 37649.203 
7.35284e+2, 1.6412175e+2, -1304563.8, -1381242.0, -874.2636, -0.00097374356, -0.02282304, -1304553.8, 27050.465 
7.3527974e+2, 1.741157e+2, -1207643.1, -1283797.6, -836.3288, 0.00019578845, -0.026208369, -1207633.9, 26029.658 
7.352754e+2, 1.8410908e+2, -1119953.5, -1204349.0, -1165.296, 0.00072935486, -0.026727121, -1119937.5, 15791.206 
7.3527104e+2, 1.9410186e+2, -1024258.1, -1107449.4, -1165.7297, 0.00033746703, -0.025755428, -1024241.8, 13557.599 
7.352667e+2, 2.0409398e+2, -937245.8, -1028940.4, -1127.3904, -0.0004311307, -0.025254283, -937231.94, 2644.5618 
7.352623e+2, 2.1408544e+2, -840562.25, -931563.56, -1161.3973, -0.0017261647, -0.027454838, -840547.44, 1412.5615 
7.352579e+2, 2.2407633e+2, -753060.25, -852635.56, -1223.2988, -0.0017835805, -0.027196996, -753045.2, -8995.705 
7.352536e+2, 2.3406659e+2, -656919.56, -755490.5, -1210.44, -0.000091348724, -0.025842112, -656904.7, -10759.751 
7.352492e+2, 2.4405621e+2, -569577.8, -676481.75, -1149.3085, 0.00002762189, -0.024724679, -569565.44, -21318.904 
7.352448e+2, 2.5404522e+2, -473269.0, -579173.8, -1049.2325, -0.0021106768, -0.026174068, -473258.63, -22904.281 
7.3524046e+2, 2.6403356e+2, -386093.1, -500856.56, -818.8852, -0.0025774622, -0.025969474, -386087.25, -33618.85 
7.352362e+2, 2.740213e+2, -289423.72, -403348.9, -967.9165, -0.0006399434, -0.026001275, -289415.5, -34826.746 
7.352319e+2, 2.840083e+2, -203224.53, -326804.3, -931.56934, -0.00070724054, -0.025494998, -203217.5, -46501.484 
7.352275e+2, 2.939946e+2, -107456.6, -229716.42, -531.48645, -0.0037033733, -0.026799241, -107454.29, -48604.08 
7.352233e+2, 3.039842e+2, -13519.501, -85224.13, 56.019672, -0.004031391, -0.026324593, -13519.458, -13519.458 
7.352191e+2, 3.139772e+2, -13915.748, -84555.78, -512.25116, -0.00047690497, -0.02601659, -13912.034, -13912.034 
7.453058e+2, 1.2414372e+2, -1670362.5, -1732289.4, 561.5316, 0.00067189196, -0.028141787, -1670357.4, 53031.65 
7.4530137e+2, 1.3414031e+2, -1574515.6, -1635292.8, -267.95456, -0.00004474704, -0.016363673, -1574514.5, 50907.92 
7.452971e+2, 1.4413603e+2, -1487386.4, -1556766.8, -386.70734, 0.0028067657, -0.03353263, -1487384.3, 40080.13 
7.4529266e+2, 1.5413131e+2, -1390844.8, -1460076.4, -426.45212, -0.0001010614, -0.026374018, -1390842.1, 38668.645 
7.452882e+2, 1.6412592e+2, -1303174.5, -1380407.1, -478.08118, -0.0012303721, -0.022827012, -1303171.6, 28391.924 
7.4528384e+2, 1.7411989e+2, -1207855.4, -1283700.3, -345.66644, 0.00019852036, -0.026034588, -1207853.9, 25768.746 
7.4527943e+2, 1.8411325e+2, -1120821.9, -1204897.5, -632.646, 0.0008487592, -0.026434254, -1120817.1, 14870.447 
7.452749e+2, 1.9410601e+2, -1023934.25, -1107453.1, -775.05023, 0.00035203097, -0.025416026, -1023927.06, 13831.467 
7.452704e+2, 2.0409815e+2, -936407.94, -1028524.06, -783.1978, -0.00048422298, -0.024927968, -936401.3, 3434.3918 
7.452659e+2, 2.1408963e+2, -840455.9, -931496.8, -718.1555, -0.0017824583, -0.027219398, -840450.25, 1468.9218 
7.4526143e+2, 2.2408049e+2, -753341.2, -852695.94, -747.26514, -0.0018196397, -0.027173603, -753335.56, -9326.933 
7.4525696e+2, 2.3407075e+2, -657091.25, -755490.1, -725.48145, -0.00009169083, -0.026192557, -657085.9, -10981.849 
7.4525243e+2, 2.440604e+2, -569580.0, -676404.94, -672.5227, 0.00003738433, -0.024933122, -569575.8, -21370.207 
7.452479e+2, 2.5404942e+2, -472968.34, -578971.06, -738.0087, -0.0021382032, -0.025511151, -472963.2, -22649.943 
7.452435e+2, 2.640378e+2, -386018.66, -500659.63, -523.41626, -0.00258974, -0.025210995, -386016.28, -33589.035 
7.452391e+2, 2.740255e+2, -290424.3, -403675.78, -269.67462, -0.0005459412, -0.026256233, -290423.7, -35876.14 
7.452346e+2, 2.8401253e+2, -204260.48, -327304.7, -225.3308, -0.00066958455, -0.025849734, -204260.08, -47585.32 
7.4523014e+2, 2.9399884e+2, -106817.48, -229407.53, -662.2873, -0.0039614793, -0.025919184, -106813.9, -48005.055 
7.452258e+2, 3.0398843e+2, -12710.096, -84629.836, -181.0164, -0.0042617335, -0.025363944, -12709.641, -12709.641 
7.452215e+2, 3.1398144e+2, -15419.569, -85085.52, 520.0579, -0.00016861867, -0.026678625, -15415.6875, -15415.6875 
7.5531054e+2, 1.2414802e+2, -1670519.0, -1732596.5, 26.639305, 0.0012742133, -0.029411156, -1670519.0, 52827.957 
7.55306e+2, 1.341446e+2, -1574581.6, -1635457.3, -801.5533, -0.0010517588, -0.016986238, -1574571.1, 50809.242 
7.5530154e+2, 1.4414033e+2, -1487476.0, -1556949.6, -661.64484, 0.0017728362, -0.03260819, -1487469.8, 39952.535 
7.5529706e+2, 1.5413557e+2, -1390975.9, -1460291.8, -671.6458, 0.0010079517, -0.026709048, -1390969.4, 38499.492 
7.5529253e+2, 1.6413018e+2, -1303022.4, -1380028.0, -1106.5592, 0.00027314943, -0.023413433, -1303006.5, 28515.207 
7.5528795e+2, 1.7412421e+2, -1207617.5, -1283244.9, -1021.4607, -0.00034875417, -0.02544432, -1207603.8, 25976.607 
7.552833e+2, 1.8411757e+2, -1120988.9, -1205279.5, -943.4824, -0.0007173519, -0.025708003, -1120978.3, 14666.984 
7.552788e+2, 1.9411029e+2, -1024179.9, -1107937.0, -1040.8746, -0.00076776766, -0.026007392, -1024166.94, 13549.697 
7.552742e+2, 2.041024e+2, -936353.3, -1028371.8, -1274.6461, -0.00055757666, -0.025208991, -936335.6, 3458.2817 
7.552696e+2, 2.1409394e+2, -840360.56, -931274.6, -1235.701, 0.000032676504, -0.024918074, -840343.8, 1533.2147 
7.5526494e+2, 2.2408481e+2, -753284.44, -852579.44, -1201.159, -0.00023041095, -0.024632178, -753269.94, -9303.613 
7.552603e+2, 2.3407505e+2, -657045.7, -755375.1, -1172.5531, -0.0017167191, -0.026744032, -657031.75, -10969.805 
7.552557e+2, 2.4406469e+2, -569696.1, -676636.3, -1044.2971, -0.0020149027, -0.026570532, -569685.94, -21522.354 
7.552511e+2, 2.5405368e+2, -473131.75, -579240.4, -1097.0662, -0.00062869344, -0.025359547, -473120.4, -22849.115 
7.552465e+2, 2.6404208e+2, -385627.84, -499821.78, -1128.6124, -0.000581469, -0.024447571, -385616.7, -33231.645 
7.552419e+2, 2.7402988e+2, -289948.78, -402685.84, -911.1979, -0.002474307, -0.026589567, -289941.4, -35436.625 
7.552373e+2, 2.8401688e+2, -204901.39, -328678.06, -439.01898, -0.002823227, -0.026365474, -204899.84, -48267.76 
7.552329e+2, 2.9400307e+2, -107652.47, -231054.63, -808.34467, -0.00091689976, -0.025268251, -107647.17, -48879.973 
7.5522834e+2, 3.0399272e+2, -11683.66, -82388.26, -913.14514, -0.0009642492, -0.024413487, -11671.869, -11671.869 
7.552238e+2, 3.1398588e+2, -14121.65, -82380.8, -307.10938, -0.0038777776, -0.026767928, -14120.269, -14120.269 
7.653153e+2, 1.24152474e+2, -1670162.4, -1732784.5, 542.1428, 0.0018065033, -0.029116265, -1670157.8, 53145.574 
7.6531065e+2, 1.3414903e+2, -1573526.4, -1635199.3, -372.26773, -0.0012769744, -0.01742742, -1573524.1, 51812.824 
7.6530606e+2, 1.4414476e+2, -1486417.1, -1556282.6, -224.53535, 0.0013072024, -0.031799536, -1486416.4, 40962.49 
7.6530147e+2, 1.5414001e+2, -1391476.9, -1460334.1, -27.777159, 0.0009545303, -0.026377087, -1391476.8, 37948.582 
7.652968e+2, 1.6413462e+2, -1303939.6, -1380664.3, -437.23508, 0.00041588765, -0.02334713, -1303937.1, 27540.97 
7.6529205e+2, 1.7412864e+2, -1206818.9, -1283071.0, -693.9917, -0.0003318142, -0.02531678, -1206812.6, 26724.383 
7.6528734e+2, 1.84122e+2, -1119531.4, -1204481.0, -722.3171, -0.0007824935, -0.025646323, -1119525.3, 16076.794 
7.6528263e+2, 1.9411471e+2, -1024051.06, -1107753.4, -524.7688, -0.0008474624, -0.026173059, -1024047.75, 13625.542 
7.65278e+2, 2.0410684e+2, -936899.9, -1028638.3, -626.9986, -0.00055451354, -0.025330765, -936895.56, 2854.933 
7.652732e+2, 2.1409836e+2, -840430.94, -931324.1, -708.6334, 0.00024351636, -0.024616664, -840425.44, 1408.1569 
7.6526845e+2, 2.2408925e+2, -753003.5, -852381.06, -741.4393, -0.00005114761, -0.024098855, -752998.0, -9075.076 
7.652637e+2, 2.340795e+2, -656687.25, -755156.94, -734.14886, -0.0019187932, -0.026233388, -656681.75, -10663.315 
7.652589e+2, 2.4406913e+2, -569682.6, -676551.75, -595.78625, -0.002296149, -0.026338894, -569679.25, -21559.18 
7.652542e+2, 2.5405812e+2, -473973.13, -579588.8, -498.2785, -0.00054933527, -0.02577736, -473970.78, -23742.965 
7.652495e+2, 2.6404655e+2, -386287.6, -500070.7, -531.7965, -0.00045147896, -0.02487996, -386285.13, -33943.598 
7.652447e+2, 2.7403432e+2, -288855.75, -402116.94, -746.8038, -0.002747225, -0.026118377, -288850.8, -34389.67 
7.652401e+2, 2.8402132e+2, -203845.53, -328049.84, -316.2739, -0.0030266044, -0.025738396, -203844.73, -47256.36 
7.652355e+2, 2.9400757e+2, -109214.71, -231717.95, 140.23143, -0.00036735376, -0.025557509, -109214.555, -50491.06 
7.6523083e+2, 3.0399716e+2, -13636.538, -83270.45, 143.24706, -0.00047096657, -0.024682287, -13636.243, -13636.243 
7.652261e+2, 3.1399035e+2, -13130.118, -81843.35, -488.83615, -0.0046102903, -0.025668718, -13126.641, -13126.641 
7.753201e+2, 1.2415707e+2, -1670481.1, -1733448.0, 168.09862, 0.0022048436, -0.027471585, -1670480.8, 52777.55 
7.7531534e+2, 1.3415357e+2, -1573806.9, -1635753.4, -726.3614, -0.00083028496, -0.017697567, -1573798.4, 51494.168 
7.7531064e+2, 1.441493e+2, -1486178.0, -1555733.8, -860.8702, 0.0013166266, -0.03107488, -1486167.4, 41166.98 
7.753058e+2, 1.5414461e+2, -1391127.6, -1459661.3, -704.78406, -0.00016043143, -0.025442827, -1391120.4, 38260.05 
7.7530104e+2, 1.6413923e+2, -1304294.1, -1381439.5, -690.42505, -0.00068034197, -0.022689508, -1304288.0, 27145.213 
7.752963e+2, 1.7413315e+2, -1207295.4, -1284020.0, -891.9418, 0.00017310285, -0.025598845, -1207285.0, 26207.781 
7.7529144e+2, 1.8412648e+2, -1119299.4, -1203917.5, -1301.7465, 0.00046825907, -0.026164403, -1119279.4, 16278.574 
7.7528656e+2, 1.9411927e+2, -1023711.5, -1107034.1, -1151.2341, -0.000015863801, -0.025955575, -1023695.56, 13933.068 
7.7528167e+2, 2.0411143e+2, -936985.0, -1028802.1, -1041.9808, -0.000505814, -0.025306981, -936973.2, 2732.5144 
7.752768e+2, 2.1410291e+2, -840574.6, -931581.25, -1096.9664, -0.0010050486, -0.026119642, -840561.4, 1227.6655 
7.7527195e+2, 2.2409378e+2, -753016.2, -852395.0, -1165.4812, -0.0011579883, -0.025369117, -753002.5, -9124.039 
7.7526706e+2, 2.3408405e+2, -656697.5, -755145.0, -1162.3376, -0.0008459845, -0.024765635, -656683.75, -10710.017 
7.7526224e+2, 2.440737e+2, -569527.94, -676242.6, -1174.2405, -0.0009957751, -0.024424408, -569515.06, -21439.8 
7.7525735e+2, 2.540627e+2, -473782.28, -579225.9, -1095.8787, -0.0017926015, -0.026713585, -473770.88, -23587.932 
7.7525246e+2, 2.6405108e+2, -386581.84, -500762.66, -744.33417, -0.0020426551, -0.02639185, -386577.0, -34280.2 
7.752477e+2, 2.7403885e+2, -289269.97, -402940.72, -907.2765, -0.0015296333, -0.02492025, -289262.72, -34846.008 
7.7524287e+2, 2.840259e+2, -203187.6, -326602.7, -1106.4176, -0.0014882862, -0.024075598, -203177.67, -46633.938 
7.75238e+2, 2.9401222e+2, -108371.234, -229985.56, -734.3327, -0.0021155262, -0.026704688, -108366.8, -49688.867 
7.752332e+2, 3.0400184e+2, -14508.521, -85145.45, 26.885515, -0.0025500979, -0.026063351, -14508.512, -14508.512 
7.7522856e+2, 3.139949e+2, -14277.424, -84152.53, -492.9608, -0.002669472, -0.023486597, -14273.946, -14273.946 
7.8532493e+2, 1.2416177e+2, -1669645.5, -1733036.1, 447.65054, 0.0017626665, -0.026951721, -1669642.4, 53569.863 
7.8532e+2, 1.3415828e+2, -1573947.1, -1635709.3, -121.069214, -0.00066599314, -0.018007623, -1573946.9, 51299.55 
7.853151e+2, 1.4415403e+2, -1486412.0, -1556024.0, -180.97441, 0.0016856425, -0.030108579, -1486411.5, 40876.66 
7.8531027e+2, 1.5414931e+2, -1389761.0, -1459173.8, -442.72934, -0.00015501742, -0.025382051, -1389758.1, 39576.31 
7.853053e+2, 1.641439e+2, -1302639.9, -1380610.8, -512.9342, -0.00078503566, -0.022945104, -1302636.5, 28750.848 
7.8530043e+2, 1.7413783e+2, -1207554.4, -1284102.0, -254.87508, 0.00029299036, -0.0253431, -1207553.5, 25893.277 
7.852955e+2, 1.8413118e+2, -1120235.9, -1204413.4, -530.0552, 0.00064745056, -0.02565111, -1120232.5, 15279.483 
7.852905e+2, 1.9412397e+2, -1023497.8, -1106963.8, -740.02106, -0.000013639138, -0.025535371, -1023491.25, 14091.486 
7.852855e+2, 2.041161e+2, -936236.06, -1028384.8, -775.6968, -0.0006620939, -0.025063982, -936229.56, 3430.1973 
7.8528047e+2, 2.1410759e+2, -840345.1, -931414.4, -665.7191, -0.0012928171, -0.026158417, -840340.25, 1402.8516 
7.8527546e+2, 2.2409847e+2, -753240.2, -852460.0, -631.77014, -0.0012936783, -0.025522662, -753236.2, -9403.723 
7.8527045e+2, 2.3408876e+2, -657151.0, -755336.6, -626.94293, -0.0004428182, -0.024787098, -657146.94, -11219.245 
7.8526545e+2, 2.440784e+2, -569689.2, -676279.2, -685.8959, -0.00059354433, -0.024194032, -569684.75, -21655.572 
7.8526044e+2, 2.5406742e+2, -472835.13, -578748.44, -773.88696, -0.0021660384, -0.026066383, -472829.47, -22692.611 
7.8525543e+2, 2.640558e+2, -385927.84, -500325.0, -400.56723, -0.002523625, -0.025777308, -385926.44, -33675.773 
7.8525054e+2, 2.740436e+2, -290997.6, -403663.78, -135.01222, -0.0011543279, -0.024974689, -290997.44, -36626.883 
7.852456e+2, 2.8403062e+2, -205029.67, -327298.6, -299.19415, -0.0011090089, -0.024266122, -205028.94, -48531.473 
7.852406e+2, 2.9401693e+2, -107121.16, -229168.45, -631.00696, -0.0029686545, -0.026275564, -107117.9, -48486.46 
7.8523564e+2, 3.040066e+2, -12953.647, -84404.93, 72.068474, -0.0033871464, -0.025707508, -12953.575, -12953.575 
7.852309e+2, 3.1399962e+2, -16141.431, -85084.52, 590.90515, -0.0016381701, -0.024178693, -16136.367, -16136.367 
7.9532975e+2, 1.2416657e+2, -1669375.6, -1732425.3, -183.19688, 0.0005337626, -0.027408203, -1669375.1, 53790.08 
7.953247e+2, 1.3416313e+2, -1573550.0, -1634925.8, -762.8295, -0.0007821261, -0.018332073, -1573540.5, 51658.37 
7.953197e+2, 1.4415888e+2, -1486823.4, -1556895.1, -457.3217, 0.002338626, -0.028917536, -1486820.4, 40420.06 
7.9531467e+2, 1.5415408e+2, -1390300.5, -1460237.3, -670.348, 0.0008169684, -0.026090153, -1390294.1, 38993.5 
7.953096e+2, 1.6414867e+2, -1302326.9, -1379850.3, -1177.0435, -0.000042866926, -0.023993583, -1302309.0, 29031.678 
7.9530454e+2, 1.7414267e+2, -1207099.3, -1283154.6, -972.70703, 0.0000527566, -0.024602981, -1207086.9, 26312.549 
7.952994e+2, 1.8413605e+2, -1120506.0, -1204987.9, -883.68097, -0.00015134423, -0.024212306, -1120496.8, 14967.556 
7.9529434e+2, 1.9412877e+2, -1023865.75, -1107705.0, -1047.8993, -0.0007758749, -0.024937768, -1023852.6, 13683.034 
7.952892e+2, 2.0412087e+2, -936115.06, -1028087.6, -1278.1815, -0.0010262928, -0.024617052, -936097.3, 3515.5994 
7.952841e+2, 2.1411242e+2, -840165.2, -931010.8, -1192.3922, -0.0007319822, -0.024887582, -840149.56, 1546.3113 
7.952789e+2, 2.2410332e+2, -753206.2, -852399.4, -1126.6683, -0.0005815552, -0.024675211, -753193.4, -9408.311 
7.952738e+2, 2.3409356e+2, -657136.6, -755304.8, -1118.0562, -0.00066407234, -0.026149517, -657123.9, -11243.358 
7.9526865e+2, 2.4408321e+2, -569818.75, -676580.0, -1002.95026, -0.001016298, -0.025473278, -569809.3, -21827.25 
7.952635e+2, 2.5407225e+2, -473025.88, -579084.75, -1066.765, -0.0017632369, -0.023988191, -473015.16, -22925.502 
7.9525846e+2, 2.6406065e+2, -385561.63, -499506.44, -1154.8857, -0.0020132686, -0.023243384, -385549.9, -33346.637 
7.952533e+2, 2.7404842e+2, -290518.8, -402691.72, -947.71075, -0.0015614268, -0.026164971, -290510.8, -36187.96 
7.952482e+2, 2.840355e+2, -205436.3, -328207.47, -416.34167, -0.0018046292, -0.026129985, -205434.89, -48985.152 
7.952432e+2, 2.940218e+2, -107704.195, -230307.81, -658.0825, -0.0030267674, -0.024412682, -107700.664, -49116.547 
7.952382e+2, 3.040114e+2, -12260.308, -82844.57, -763.3208, -0.0031190338, -0.023769975, -12252.055, -12252.055 
7.9523313e+2, 3.1400454e+2, -15241.1045, -83192.94, -348.77002, -0.0014844358, -0.02747064, -15239.314, -15239.314 
8.0533457e+2, 1.2417155e+2, -1669572.4, -1732650.3, 494.62494, 0.0011005208, -0.026596198, -1669568.5, 53547.957 
8.053294e+2, 1.3416809e+2, -1572279.4, -1634338.8, -468.51016, -0.0009572918, -0.019439897, -1572275.9, 52874.547 
8.0532426e+2, 1.4416385e+2, -1485506.1, -1556288.3, -264.23254, 0.0019791606, -0.028651806, -1485505.1, 41686.688 
8.0531913e+2, 1.5415904e+2, -1390908.8, -1460567.9, -20.3827, 0.0009946936, -0.025618965, -1390908.8, 38330.32 
8.0531394e+2, 1.6415362e+2, -1303296.0, -1380285.9, -397.9894, 0.00023737874, -0.023592833, -1303293.9, 27998.186 
8.053087e+2, 1.7414764e+2, -1206378.9, -1282757.6, -599.92255, -0.00018264174, -0.024645315, -1206374.1, 26976.645 
8.0530345e+2, 1.8414101e+2, -1119285.1, -1204432.6, -600.585, -0.00048121187, -0.024383642, -1119280.9, 16134.894 
8.0529827e+2, 1.9413373e+2, -1023712.9, -1107671.6, -438.87805, -0.0006257997, -0.024802933, -1023710.6, 13776.45 
8.05293e+2, 2.0412585e+2, -936440.06, -1028255.2, -575.7179, -0.0006568728, -0.024327395, -936436.44, 3127.8438 
8.052877e+2, 2.1411738e+2, -840143.6, -931008.25, -693.45856, -0.0005074017, -0.024629476, -840138.4, 1508.9458 
8.052825e+2, 2.2410828e+2, -752885.25, -852200.44, -733.46497, -0.00064754, -0.024404252, -752879.8, -9143.312 
8.0527717e+2, 2.3409854e+2, -656628.5, -755036.1, -724.3209, -0.0012261642, -0.02582618, -656623.2, -10791.265 
8.052719e+2, 2.4408819e+2, -569707.8, -676359.94, -524.2643, -0.0014646129, -0.025292045, -569705.25, -21771.824 
8.052667e+2, 2.540772e+2, -474209.1, -579499.06, -352.01807, -0.0012510339, -0.024194654, -474207.9, -24167.014 
8.0526143e+2, 2.6406565e+2, -386612.94, -499926.53, -469.3292, -0.0013827401, -0.023415577, -386610.97, -34456.555 
8.052562e+2, 2.7405342e+2, -289248.38, -401996.7, -683.3298, -0.0020131548, -0.02571587, -289244.25, -34970.36 
8.0525094e+2, 2.840405e+2, -204019.2, -327487.4, -154.90195, -0.0023648476, -0.025640806, -204019.02, -47618.293 
8.052458e+2, 2.9402676e+2, -109315.46, -231066.27, 163.7339, -0.0022931546, -0.024721613, -109315.24, -50780.098 
8.052406e+2, 3.040164e+2, -14361.909, -83671.97, 30.663504, -0.0023342574, -0.024082258, -14361.8955, -14361.8955 
8.052354e+2, 3.1400958e+2, -14319.102, -82556.57, -329.1958, -0.0024489707, -0.026599161, -14317.514, -14317.514 
8.153395e+2, 1.2417668e+2, -1669974.1, -1733518.5, 213.8505, 0.0031573155, -0.02470821, -1669973.4, 53092.76 
8.1533414e+2, 1.3417313e+2, -1572707.1, -1635177.5, -714.6102, -0.001215205, -0.02123875, -1572699.0, 52401.992 
8.153289e+2, 1.441689e+2, -1485216.5, -1555597.1, -959.97894, 0.0006957099, -0.029185513, -1485203.5, 41938.965 
8.1532353e+2, 1.5416417e+2, -1390483.3, -1459716.6, -768.3571, 0.00043733843, -0.024097845, -1390474.8, 38714.098 
8.153182e+2, 1.6415876e+2, -1303541.4, -1380844.6, -707.99475, 0.00007397469, -0.021907533, -1303534.9, 27706.846 
8.153129e+2, 1.7415272e+2, -1206732.9, -1283472.9, -859.2863, -0.00043409455, -0.025385197, -1206723.3, 26577.824 
8.1530756e+2, 1.8414606e+2, -1119097.4, -1203978.3, -1162.2435, -0.00042391173, -0.02597543, -1119081.5, 16284.779 
8.153022e+2, 1.9413882e+2, -1023450.06, -1107097.1, -1034.46, 0.0003164124, -0.02507802, -1023437.3, 13999.782 
8.1529677e+2, 2.0413096e+2, -936604.56, -1028570.2, -1026.5356, 0.00034135353, -0.024173697, -936593.06, 2921.0835 
8.152914e+2, 2.1412244e+2, -840359.7, -931411.56, -1123.3428, -0.0006009497, -0.02528303, -840345.9, 1251.7025 
8.152859e+2, 2.2411335e+2, -752905.25, -852212.25, -1168.6569, -0.0014304253, -0.024643078, -752891.5, -9204.648 
8.1528056e+2, 2.3410362e+2, -656642.7, -755012.6, -1160.7896, -0.0021055043, -0.023988433, -656629.0, -10846.933 
8.1527513e+2, 2.440933e+2, -569433.1, -675791.3, -1151.5182, -0.0019518436, -0.023798663, -569420.7, -21537.28 
8.1526977e+2, 2.5408232e+2, -473883.1, -578858.9, -1005.7971, -0.0006662366, -0.026457401, -473873.47, -23882.701 
8.1526434e+2, 2.6407075e+2, -386871.1, -500535.75, -704.0714, -0.00066833757, -0.026019506, -386866.75, -34762.473 
8.1525904e+2, 2.7405855e+2, -289621.94, -402754.6, -864.82605, -0.0025231475, -0.023781413, -289615.3, -35391.51 
8.152537e+2, 2.8404564e+2, -203611.72, -326570.8, -935.70526, -0.002827516, -0.023022408, -203604.61, -47254.027 
8.152483e+2, 2.9403192e+2, -108767.266, -229947.56, -689.3075, -0.00085953705, -0.026997901, -108763.34, -50278.656 
8.15243e+2, 3.0402157e+2, -14795.394, -84620.83, -174.56715, -0.0011012667, -0.026429933, -14794.957, -14794.957 
8.1523776e+2, 3.1401473e+2, -14918.339, -83760.984, -449.63922, -0.004498216, -0.021981077, -14915.402, -14915.402 
8.253444e+2, 1.2418192e+2, -1668494.4, -1732845.8, 481.44717, 0.0027522317, -0.024672903, -1668490.9, 54524.035 
8.253389e+2, 1.3417836e+2, -1573125.8, -1635365.9, -47.01316, -0.000860483, -0.021446448, -1573125.8, 51924.01 
8.253335e+2, 1.4417414e+2, -1485959.4, -1555937.0, -178.0716, 0.0011908542, -0.027570711, -1485958.9, 41132.035 
8.25328e+2, 1.5416941e+2, -1389384.8, -1459132.6, -351.24582, 0.00024248136, -0.02404655, -1389383.0, 39754.434 
8.2532257e+2, 1.64164e+2, -1302059.9, -1380221.6, -385.72208, -0.00025819754, -0.02242373, -1302058.0, 29132.5 
8.253171e+2, 1.7415795e+2, -1206754.3, -1283581.5, -274.6371, -0.00015212418, -0.025055846, -1206753.3, 26496.543 
8.2531166e+2, 1.8415129e+2, -1119599.1, -1204170.3, -542.7251, -0.000033425556, -0.02535252, -1119595.6, 15719.322 
8.253061e+2, 1.9414406e+2, -1023258.44, -1106939.0, -649.7272, 0.000110065914, -0.024920123, -1023253.4, 14132.425 
8.253005e+2, 2.041362e+2, -936123.75, -1028315.44, -662.9393, -0.00009506729, -0.024177078, -936119.0, 3343.8586 
8.2529503e+2, 2.141277e+2, -840109.8, -931277.6, -552.02954, -0.0007668773, -0.025024718, -840106.5, 1439.7025 
8.252895e+2, 2.2411859e+2, -752984.25, -852179.94, -504.58234, -0.0012868047, -0.024320165, -752981.7, -9346.194 
8.2528394e+2, 2.3410887e+2, -657153.6, -755198.6, -487.7704, -0.0016093332, -0.023863137, -657151.25, -11420.574 
8.252784e+2, 2.4409854e+2, -569744.44, -675901.44, -578.27094, -0.0016034008, -0.023672247, -569741.25, -21909.326 
8.252728e+2, 2.540876e+2, -473047.9, -578430.7, -730.0679, -0.0011646859, -0.026053468, -473042.84, -23103.555 
8.252673e+2, 2.64076e+2, -386161.3, -500126.47, -426.16794, -0.0012723226, -0.025664538, -386159.72, -34106.93 
8.2526183e+2, 2.7406383e+2, -290862.78, -403309.9, -216.30501, -0.0021906772, -0.023930896, -290862.38, -36690.06 
8.2525635e+2, 2.8405088e+2, -205036.94, -327057.13, -306.01828, -0.0023349838, -0.023078822, -205036.17, -48737.184 
8.2525086e+2, 2.9403722e+2, -108005.71, -229345.97, -476.21017, -0.0013238996, -0.026103431, -108003.836, -49571.004 
8.252454e+2, 3.0402687e+2, -13817.55, -84190.74, 86.61834, -0.0016867835, -0.02548253, -13817.443, -13817.443 
8.2524e+2, 3.1402e+2, -16227.0, -84445.59, 329.81772, -0.004007564, -0.022309931, -16225.405, -16225.405 
8.3534926e+2, 1.24187246e+2, -1668215.6, -1732193.3, -270.82248, 0.0001428296, -0.026249142, -1668214.5, 54748.22 
8.353436e+2, 1.3418378e+2, -1572724.0, -1634574.9, -815.6341, 0.0000017637739, -0.020232942, -1572713.3, 52283.48 
8.3533806e+2, 1.441796e+2, -1486188.6, -1556439.3, -475.8241, 0.003206177, -0.024063637, -1486185.4, 40852.28 
8.353325e+2, 1.5417476e+2, -1389721.0, -1459784.3, -596.1762, 0.00033153946, -0.025289053, -1389715.9, 39369.125 
8.353269e+2, 1.6416933e+2, -1301966.6, -1379954.8, -1004.3923, -0.0007724578, -0.02486075, -1301953.8, 29184.541 
8.353213e+2, 1.7416333e+2, -1206587.1, -1283217.0, -930.60834, 0.00058380916, -0.02377177, -1206575.9, 26621.244 
8.3531564e+2, 1.8415669e+2, -1119739.3, -1204465.0, -973.2589, 0.0006209613, -0.022760462, -1119728.1, 15534.015 
8.3531e+2, 1.9414942e+2, -1023447.56, -1107300.6, -1053.2142, -0.0011418937, -0.024381332, -1023434.4, 13898.971 
8.353043e+2, 2.0414156e+2, -935972.75, -1027972.3, -1144.2607, -0.001833948, -0.024311246, -935958.5, 3451.9517 
8.3529866e+2, 2.1413308e+2, -839929.7, -930871.1, -1044.6582, -0.001011469, -0.023953905, -839917.7, 1575.7374 
8.35293e+2, 2.24124e+2, -752935.8, -852086.1, -1060.307, -0.00033957566, -0.023493458, -752924.44, -9341.946 
8.352873e+2, 2.3411426e+2, -657104.44, -755124.3, -1049.0055, 0.000094832256, -0.02527094, -657093.25, -11415.39 
8.352816e+2, 2.4410391e+2, -569969.9, -676403.56, -939.0603, -0.00053149334, -0.024762442, -569961.6, -22182.367 
8.3527595e+2, 2.5409296e+2, -473335.06, -579004.7, -1064.9438, -0.0026529238, -0.023249703, -473324.3, -23437.71 
8.352703e+2, 2.640814e+2, -385886.03, -499499.88, -1094.008, -0.003074855, -0.022646803, -385875.5, -33875.41 
8.352646e+2, 2.740692e+2, -290492.16, -402552.1, -925.0669, -0.0011135364, -0.025962181, -290484.5, -36364.95 
8.3525896e+2, 2.8405628e+2, -205216.66, -327452.3, -609.5611, -0.001006321, -0.025542134, -205213.63, -48967.516 
8.3525336e+2, 2.9404265e+2, -108284.516, -229879.05, -729.72125, -0.0035332325, -0.022333669, -108280.14, -49900.402 
8.352478e+2, 3.0403233e+2, -13525.466, -83499.66, -590.5853, -0.003944161, -0.021552388, -13520.481, -13520.481 
8.352423e+2, 3.1402543e+2, -15838.962, -83605.4, -393.84454, -0.0012391476, -0.027116453, -15836.673, -15836.673 
8.453542e+2, 1.24192804e+2, -1668768.1, -1732584.3, 630.32086, 0.00049649394, -0.02554492, -1668761.9, 54146.367 
8.453484e+2, 1.3418931e+2, -1571504.8, -1634064.1, -336.09195, -0.0002924491, -0.02131748, -1571502.9, 53439.637 
8.453427e+2, 1.4418514e+2, -1484626.3, -1555752.3, -112.5567, 0.002796601, -0.023411503, -1484626.1, 42357.25 
8.4533703e+2, 1.5418029e+2, -1389836.3, -1459914.5, 16.441578, 0.0005648205, -0.024999723, -1389836.3, 39194.652 
8.453313e+2, 1.6417485e+2, -1302570.6, -1380224.9, -335.16428, -0.00041317983, -0.024740558, -1302569.1, 28514.988 
8.453255e+2, 1.7416885e+2, -1206169.1, -1282988.4, -420.68903, 0.00035583653, -0.023535313, -1206166.9, 26976.06 
8.453197e+2, 1.8416221e+2, -1118986.8, -1204132.3, -466.40775, 0.00028034495, -0.022452153, -1118984.3, 16223.69 
8.453139e+2, 1.9415495e+2, -1023220.3, -1107228.9, -402.5442, -0.0009608788, -0.024065081, -1023218.4, 14060.798 
8.453081e+2, 2.0414709e+2, -936044.3, -1027957.1, -503.13, -0.0014624633, -0.02407187, -936041.56, 3314.7861 
8.453023e+2, 2.1413861e+2, -840082.44, -930898.7, -575.18, -0.000917402, -0.023918927, -840078.8, 1360.4669 
8.452965e+2, 2.2412951e+2, -752890.56, -852003.7, -664.0057, -0.00048470282, -0.02349946, -752886.1, -9357.768 
8.4529066e+2, 2.341198e+2, -656509.75, -754762.2, -654.02673, -0.0002293392, -0.025051242, -656505.4, -10881.789 
8.452849e+2, 2.4410945e+2, -569550.0, -676176.44, -455.71677, -0.00071853027, -0.024471441, -569548.06, -21823.102 
8.4527904e+2, 2.540985e+2, -474040.47, -579326.7, -327.9133, -0.0022775938, -0.023110243, -474039.44, -24207.072 
8.4527326e+2, 2.640869e+2, -386593.5, -499694.97, -339.12497, -0.0026728301, -0.022441717, -386592.47, -34646.695 
8.452675e+2, 2.7407473e+2, -289925.06, -402097.53, -428.56857, -0.0014385383, -0.025400221, -289923.44, -35858.363 
8.4526163e+2, 2.8406185e+2, -204606.78, -327164.16, -112.95123, -0.0014617565, -0.025129316, -204606.67, -48415.137 
8.452559e+2, 2.9404822e+2, -109190.89, -230345.88, 8.015198, -0.0032857186, -0.02276905, -109190.89, -50865.64 
8.452502e+2, 3.0403787e+2, -14666.601, -83863.375, 105.98931, -0.0035614693, -0.022048263, -14666.438, -14666.438 
8.452445e+2, 3.1403103e+2, -15654.468, -83297.24, 21.41671, -0.0015160976, -0.026564494, -15654.461, -15654.461 
8.5535914e+2, 1.2419857e+2, -1669188.1, -1733490.8, 296.16953, 0.0033430222, -0.0229069, -1669186.8, 53664.918 
8.5535324e+2, 1.3419494e+2, -1571991.4, -1635034.1, -634.4664, -0.0016376863, -0.024421595, -1571985.0, 52902.258 
8.5534734e+2, 1.4419076e+2, -1484540.8, -1555503.9, -772.8742, 0.00023168017, -0.025247583, -1484532.3, 42395.89 
8.553415e+2, 1.5418598e+2, -1389655.1, -1459545.1, -680.59827, 0.00089291856, -0.023357203, -1389648.5, 39326.566 
8.5533565e+2, 1.6418056e+2, -1302661.5, -1380429.5, -748.1424, 0.00067253417, -0.02237085, -1302654.4, 28373.918 
8.553297e+2, 1.7417452e+2, -1206309.3, -1283260.5, -803.5253, -0.00074911123, -0.024228932, -1206300.9, 26786.676 
8.553238e+2, 1.8416786e+2, -1118922.9, -1203973.9, -998.0135, -0.00097512547, -0.024153586, -1118911.3, 16241.457 
8.553179e+2, 1.9416061e+2, -1023126.6, -1107029.6, -948.8828, 0.00046762265, -0.023944756, -1023115.9, 14107.711 
8.5531193e+2, 2.0415276e+2, -936161.56, -1028190.3, -1022.20593, 0.0007478699, -0.023492834, -936150.2, 3150.5269 
8.5530597e+2, 2.1414426e+2, -840215.25, -931167.1, -1085.5029, -0.00054523395, -0.024802996, -840202.3, 1181.6716 
8.553e+2, 2.2413516e+2, -752873.6, -851964.6, -1074.2053, -0.0016283797, -0.024237458, -752862.0, -9388.874 
8.5529405e+2, 2.3412548e+2, -656503.44, -754711.0, -1057.0342, -0.0023809688, -0.023373535, -656492.06, -10923.931 
8.552881e+2, 2.4411514e+2, -569357.44, -675757.5, -1071.926, -0.002048387, -0.02293673, -569346.6, -21677.334 
8.552821e+2, 2.5410417e+2, -473803.53, -578862.1, -968.0024, -0.000252103, -0.025355108, -473794.63, -24017.889 
8.5527617e+2, 2.6409262e+2, -386684.34, -499885.63, -732.41705, -0.0003195055, -0.024748674, -386679.63, -34789.594 
8.552702e+2, 2.740805e+2, -290066.1, -402375.56, -795.3605, -0.0030516319, -0.022494819, -290060.44, -36051.43 
8.552643e+2, 2.8406757e+2, -204451.77, -326813.06, -748.22876, -0.003544844, -0.022124471, -204447.19, -48311.73 
8.552584e+2, 2.9405388e+2, -108986.414, -229920.81, -653.7966, -0.0008284234, -0.027010204, -108982.875, -50713.336 
8.5525256e+2, 3.040436e+2, -14746.074, -84052.03, -299.836, -0.00081352313, -0.026536332, -14744.776, -14744.776 
8.552467e+2, 3.1403682e+2, -15788.864, -83558.84, -355.64334, -0.0046342257, -0.021147534, -15786.998, -15786.998 
8.653641e+2, 1.24204405e+2, -1667762.6, -1732865.9, 383.75812, 0.0031659435, -0.022146985, -1667760.4, 55034.188 
8.6535805e+2, 1.3420077e+2, -1572091.5, -1635164.5, -137.24687, -0.0013624285, -0.025413798, -1572091.3, 52739.066 
8.6535203e+2, 1.441966e+2, -1485010.6, -1555741.0, -140.51108, 0.00052745955, -0.024253476, -1485010.4, 41860.66 
8.65346e+2, 1.541918e+2, -1389030.5, -1459236.3, -223.77295, 0.00068114174, -0.02280397, -1389029.8, 39888.242 
8.6534005e+2, 1.6418637e+2, -1301725.3, -1379981.9, -297.04977, 0.00038631188, -0.02217846, -1301724.1, 29247.078 
8.65334e+2, 1.7418033e+2, -1206098.0, -1283173.4, -242.4459, -0.0005366801, -0.024281824, -1206097.3, 26933.283 
8.653279e+2, 1.8417367e+2, -1119009.9, -1203973.8, -431.489, -0.0006549646, -0.024223046, -1119007.6, 16088.012 
8.653218e+2, 1.9416644e+2, -1022975.44, -1106913.0, -467.59177, 0.00034385463, -0.02371553, -1022972.8, 14193.722 
8.6531574e+2, 2.0415859e+2, -935812.06, -1028000.2, -518.0871, 0.0004951422, -0.023144746, -935809.1, 3434.4912 
8.6530966e+2, 2.1415009e+2, -839783.7, -930923.5, -436.6844, -0.00050220016, -0.024559023, -839781.56, 1545.2738 
8.653035e+2, 2.2414099e+2, -752745.9, -851909.06, -371.32007, -0.001451189, -0.02400794, -752744.5, -9328.493 
8.6529744e+2, 2.3413129e+2, -657083.2, -755030.1, -416.4232, -0.0022965195, -0.023034412, -657081.4, -11570.353 
8.652913e+2, 2.4412097e+2, -569815.0, -675780.0, -506.32, -0.002099323, -0.022593187, -569812.56, -22200.354 
8.652852e+2, 2.5411004e+2, -473349.7, -578413.3, -492.24112, -0.0005112487, -0.025156965, -473347.38, -23627.963 
8.6527914e+2, 2.6409847e+2, -386298.84, -499759.22, -275.83807, -0.00049713696, -0.024694407, -386298.2, -34465.516 
8.65273e+2, 2.740863e+2, -290656.6, -402751.38, -287.99304, -0.0027478733, -0.022563584, -290655.88, -36704.09 
8.65267e+2, 2.840734e+2, -205013.5, -326813.63, -257.88486, -0.0032175968, -0.022031628, -205012.95, -48934.81 
8.652609e+2, 2.9405975e+2, -108669.02, -229463.02, -192.22246, -0.0011211075, -0.02637938, -108668.72, -50456.8 
8.652549e+2, 3.0404946e+2, -14536.581, -84055.7, 190.21178, -0.0012024454, -0.025891788, -14536.061, -14536.061 
8.652489e+2, 3.1404266e+2, -16499.38, -84058.695, 160.34337, -0.0043862187, -0.02121195, -16499.0, -16499.0 
8.753691e+2, 1.2421032e+2, -1667466.3, -1732206.5, -302.9494, 0.00029882262, -0.023005024, -1667464.9, 55271.855 
8.753629e+2, 1.3420673e+2, -1571761.0, -1634491.4, -831.8896, 0.0002963905, -0.024552578, -1571750.0, 53021.88 
8.7535673e+2, 1.442026e+2, -1485120.6, -1555973.8, -565.78357, 0.0032741658, -0.020797119, -1485116.1, 41696.016 
8.753506e+2, 1.5419775e+2, -1389201.9, -1459565.6, -620.49414, -0.000044229364, -0.023210369, -1389196.4, 39663.316 
8.7534434e+2, 1.641923e+2, -1301682.5, -1379854.8, -856.1574, -0.0011399051, -0.02388148, -1301673.1, 29239.998 
8.753382e+2, 1.7418629e+2, -1206032.9, -1283001.4, -816.4912, 0.0008114214, -0.02376564, -1206024.3, 26947.795 
8.7533206e+2, 1.8417966e+2, -1119062.5, -1204079.8, -920.8136, 0.0010103337, -0.022844784, -1119052.5, 15984.594 
8.7532574e+2, 1.9417241e+2, -1023039.7, -1107049.1, -945.4536, -0.0011750932, -0.023380922, -1023029.06, 14079.148 
8.7531954e+2, 2.0416453e+2, -935697.3, -1027731.3, -1005.10046, -0.0019626503, -0.022985652, -935686.4, 3498.8928 
8.753133e+2, 2.1415608e+2, -839656.2, -930626.6, -928.7211, -0.00076764455, -0.023312515, -839646.7, 1621.4783 
8.753071e+2, 2.2414699e+2, -752822.94, -852057.06, -961.6918, -0.00012622011, -0.022905795, -752813.6, -9456.357 
8.7530077e+2, 2.3413725e+2, -657168.06, -755209.94, -1010.5634, -0.00024332182, -0.023887353, -657157.6, -11705.016 
8.7529457e+2, 2.4412693e+2, -569755.5, -675690.5, -917.12537, -0.0010411594, -0.023308251, -569747.56, -22193.791 
8.7528825e+2, 2.5411603e+2, -473301.13, -578312.9, -889.6002, -0.0028369036, -0.022768779, -473293.6, -23632.953 
8.7528205e+2, 2.6410446e+2, -386342.94, -499808.3, -877.43146, -0.0029547936, -0.022522345, -386336.16, -34562.305 
8.752758e+2, 2.7409226e+2, -290685.94, -402815.53, -903.9839, -0.0007376095, -0.025308305, -290678.66, -36785.188 
8.752696e+2, 2.8407937e+2, -204869.13, -326524.0, -700.72504, -0.000751058, -0.024545962, -204865.1, -48845.344 
8.752634e+2, 2.9406583e+2, -108524.625, -229145.44, -621.7409, -0.003924945, -0.021336906, -108521.414, -50368.813 
8.752572e+2, 3.0405554e+2, -14611.619, -84169.57, -407.85016, -0.0044481023, -0.020615755, -14609.228, -14609.228 
8.752511e+2, 3.1404862e+2, -16588.799, -84221.93, -445.62827, -0.0011173025, -0.026286963, -16585.863, -16585.863 
8.8537407e+2, 1.2421645e+2, -1667776.8, -1732235.6, 576.43176, 0.00040997297, -0.02243243, -1667771.6, 54905.004 
8.853677e+2, 1.3421287e+2, -1571112.0, -1634109.0, -235.68379, 0.0001804052, -0.02515502, -1571111.1, 53600.668 
8.853614e+2, 1.4420876e+2, -1484216.5, -1555579.3, -29.445396, 0.0031451385, -0.01930573, -1484216.5, 42535.527 
8.853551e+2, 1.5420389e+2, -1388930.8, -1459494.0, 20.685463, 0.00015160738, -0.02323921, -1388930.8, 39868.99 
8.8534874e+2, 1.6419843e+2, -1301649.4, -1379820.5, -244.23894, -0.00089786696, -0.024404736, -1301648.6, 29204.559 
8.853425e+2, 1.7419241e+2, -1205819.4, -1282885.6, -290.12033, 0.0007295725, -0.023359142, -1205818.3, 27093.797 
8.853361e+2, 1.8418579e+2, -1118780.3, -1203911.9, -359.6337, 0.0008504856, -0.022153325, -1118778.8, 16198.313 
8.853297e+2, 1.9417852e+2, -1022854.7, -1106926.8, -313.24335, -0.0011056546, -0.023297671, -1022853.56, 14194.671 
8.853233e+2, 2.0417066e+2, -935666.9, -1027704.44, -416.32443, -0.0018524554, -0.023062382, -935665.0, 3460.293 
8.8531697e+2, 2.141622e+2, -839820.5, -930718.7, -492.41742, -0.00088983914, -0.022890052, -839817.8, 1390.3168 
8.8531053e+2, 2.2415312e+2, -752764.5, -851911.3, -537.5676, -0.0002765623, -0.022398578, -752761.56, -9464.356 
8.8530415e+2, 2.341434e+2, -656533.06, -754762.2, -410.70935, -0.00016109788, -0.023912987, -656531.4, -11138.89 
8.852977e+2, 2.4413307e+2, -569330.2, -675560.4, -274.76343, -0.0008434175, -0.02347746, -569329.5, -21835.86 
8.852914e+2, 2.5412217e+2, -473794.1, -578655.94, -384.10065, -0.0026876472, -0.022483492, -473792.7, -24192.148 
8.8528496e+2, 2.6411062e+2, -386837.53, -499815.25, -373.37946, -0.002960425, -0.022031633, -386836.3, -35122.6 
8.8527864e+2, 2.7409843e+2, -290521.03, -402451.1, -202.62534, -0.0010302875, -0.024984967, -290520.66, -36687.6 
8.852722e+2, 2.8408557e+2, -204776.25, -326520.72, 47.212906, -0.0010112773, -0.024370562, -204776.23, -48816.984 
8.852659e+2, 2.94072e+2, -109002.46, -229454.84, -92.86032, -0.003723991, -0.02125662, -109002.39, -50910.18 
8.8525957e+2, 3.040617e+2, -15100.335, -84179.766, 19.645826, -0.0042080786, -0.020435594, -15100.33, -15100.33 
8.852533e+2, 3.1405482e+2, -16767.986, -84036.43, 192.99652, -0.0014052637, -0.025816465, -16767.432, -16767.432 
8.9537907e+2, 1.24222785e+2, -1667933.4, -1732590.5, 125.05362, 0.003010793, -0.020717656, -1667933.3, 54681.31 
8.9537257e+2, 1.3421911e+2, -1571357.0, -1634611.4, -668.12006, -0.0015193572, -0.027045399, -1571350.0, 53300.426 
8.953661e+2, 1.4421503e+2, -1484216.3, -1555537.3, -583.8033, 0.00047628858, -0.019521704, -1484211.5, 42479.04 
8.953597e+2, 1.5421017e+2, -1388908.9, -1459414.6, -545.53577, 0.0011148026, -0.022939753, -1388904.8, 39833.523 
8.953532e+2, 1.642047e+2, -1301725.6, -1379956.6, -774.7532, 0.0008404933, -0.023894405, -1301717.9, 29073.799 
8.953467e+2, 1.7419869e+2, -1205896.4, -1283038.1, -814.4158, -0.0006337921, -0.023047538, -1205887.9, 26962.832 
8.953402e+2, 1.8419205e+2, -1118724.3, -1203789.6, -863.6726, -0.0009498878, -0.022057379, -1118715.5, 16200.225 
8.953337e+2, 1.941848e+2, -1022790.2, -1106793.4, -818.48193, 0.00033997654, -0.023437897, -1022782.25, 14204.525 
8.9532715e+2, 2.0417693e+2, -935799.5, -1027970.75, -956.01526, 0.00048422455, -0.023333149, -935789.6, 3274.2703 
8.953206e+2, 2.1416846e+2, -839966.25, -931022.7, -1027.9406, -0.0009114779, -0.02318941, -839954.6, 1192.3306 
8.953141e+2, 2.2415936e+2, -752550.7, -851468.25, -982.952, -0.0017620882, -0.022410072, -752540.94, -9304.974 
8.953075e+2, 2.341497e+2, -656307.7, -754251.1, -854.1525, -0.0018486168, -0.023201989, -656300.25, -10969.459 
8.95301e+2, 2.4413937e+2, -569506.5, -675913.56, -897.22797, -0.001431609, -0.023150004, -569498.94, -22067.074 
8.952944e+2, 2.5412843e+2, -473986.8, -579086.44, -1014.7427, -0.00034432596, -0.02406758, -473977.03, -24437.748 
8.9528793e+2, 2.6411688e+2, -386527.8, -499164.28, -828.85645, -0.00079727045, -0.02302897, -386521.72, -34869.37 
8.952814e+2, 2.741048e+2, -290177.0, -401711.4, -652.72046, -0.0034176598, -0.021903327, -290173.16, -36402.355 
8.952748e+2, 2.8409192e+2, -204999.1, -326961.25, -524.8424, -0.0037397526, -0.021780439, -204996.83, -49099.95 
8.952684e+2, 2.9407826e+2, -109268.44, -230021.45, -663.8173, -0.00082453014, -0.025648706, -109264.79, -51233.918 
8.952619e+2, 3.0406797e+2, -14813.374, -83583.98, -510.64383, -0.00085579866, -0.02482258, -14809.582, -14809.582 
8.9525545e+2, 3.1406122e+2, -16422.543, -83332.48, -341.0794, -0.005003404, -0.020258578, -16420.805, -16420.805 
9.053841e+2, 1.24229245e+2, -1666961.5, -1732185.1, 514.1716, 0.0030794013, -0.02003778, -1666957.4, 55593.75 
9.0537745e+2, 1.3422555e+2, -1571025.3, -1634654.6, -160.59435, -0.0014509491, -0.028497063, -1571024.9, 53562.56 
9.0537083e+2, 1.4422147e+2, -1484095.9, -1555477.1, -79.71409, 0.0005082158, -0.018677518, -1484095.8, 42531.746 
9.053643e+2, 1.542166e+2, -1388814.6, -1459345.8, -80.5715, 0.0011150328, -0.022371158, -1388814.5, 39860.645 
9.053576e+2, 1.6421114e+2, -1301532.6, -1379824.5, -215.44234, 0.0008331382, -0.023567209, -1301532.0, 29196.613 
9.053509e+2, 1.7420512e+2, -1205427.6, -1282782.6, -169.17915, -0.000645395, -0.022899121, -1205427.3, 27360.385 
9.053443e+2, 1.8419848e+2, -1118272.4, -1203595.9, -264.90912, -0.0009405651, -0.021907808, -1118271.6, 16581.072 
9.0533763e+2, 1.9419123e+2, -1022658.44, -1106759.5, -322.07407, 0.0003884865, -0.023012893, -1022657.2, 14266.523 
9.05331e+2, 2.0418337e+2, -935655.2, -1027833.6, -399.52872, 0.00056756503, -0.0229218, -935653.44, 3347.3945 
9.053243e+2, 2.1417488e+2, -839588.25, -930752.44, -278.41904, -0.0008393307, -0.02323291, -839587.4, 1496.5168 
9.0531754e+2, 2.241658e+2, -752372.44, -851384.56, -255.11942, -0.0017397888, -0.022528322, -752371.8, -9198.934 
9.053109e+2, 2.3415613e+2, -656812.44, -754502.94, -385.95963, -0.0019182613, -0.022793079, -656810.9, -11543.239 
9.053042e+2, 2.4414583e+2, -569940.1, -675944.2, -435.2588, -0.001566309, -0.022551635, -569938.4, -22569.68 
9.0529746e+2, 2.541349e+2, -473609.38, -578702.3, -239.6973, -0.000512429, -0.023787973, -473608.8, -24132.873 
9.0529084e+2, 2.6412335e+2, -386102.44, -498997.94, -47.567696, -0.000858588, -0.022889307, -386102.4, -34513.457 
9.052841e+2, 2.7411127e+2, -290368.25, -401869.66, -283.24625, -0.0031838554, -0.02163246, -290367.53, -36660.027 
9.052775e+2, 2.840984e+2, -205267.98, -326848.34, -245.58617, -0.0034887644, -0.021468075, -205267.48, -49433.977 
9.052708e+2, 2.9408476e+2, -109380.6, -229791.77, 35.419754, -0.0009442188, -0.025424227, -109380.59, -51413.33 
9.052642e+2, 3.0407447e+2, -15013.8955, -83774.414, 287.90247, -0.0010936422, -0.024693288, -15012.689, -15012.689 
9.052576e+2, 3.1406772e+2, -16604.121, -83559.57, 43.1761, -0.0049730763, -0.020259995, -16604.092, -16604.092 
9.153891e+2, 1.24235824e+2, -1666885.5, -1732022.8, -62.43915, 0.0008945099, -0.020259473, -1666885.4, 55601.34 
9.153823e+2, 1.3423212e+2, -1571060.5, -1634707.4, -730.9655, 0.000113798735, -0.029568527, -1571052.1, 53471.082 
9.1537553e+2, 1.4422806e+2, -1484133.8, -1555522.3, -645.8221, 0.0028294092, -0.016928688, -1484127.9, 42435.01 
9.153688e+2, 1.5422317e+2, -1388830.3, -1459384.5, -646.84106, 0.00023699053, -0.02157538, -1388824.4, 39786.41 
9.15362e+2, 1.6421771e+2, -1301449.8, -1379653.9, -674.3226, -0.00073586905, -0.023393014, -1301443.9, 29220.342 
9.153552e+2, 1.742117e+2, -1205363.3, -1282613.3, -623.15735, 0.00049499323, -0.022890434, -1205358.1, 27364.914 
9.153485e+2, 1.8420509e+2, -1118398.9, -1203818.6, -843.2, 0.00060216285, -0.021695083, -1118390.6, 16397.54 
9.153416e+2, 1.9419782e+2, -1022781.1, -1107017.8, -904.9405, -0.00081263983, -0.022078952, -1022771.4, 14087.895 
9.1533476e+2, 2.0418994e+2, -935465.1, -1027434.3, -883.3662, -0.0013577082, -0.021895438, -935456.6, 3479.7139 
9.1532797e+2, 2.1418148e+2, -839383.56, -930302.9, -759.766, -0.000700828, -0.023047006, -839377.2, 1641.9673 
9.153211e+2, 2.2417241e+2, -752600.56, -851822.0, -868.57465, -0.00041024655, -0.022724362, -752593.0, -9484.837 
9.1531426e+2, 2.341627e+2, -657056.94, -755021.0, -1001.21643, -0.0005716608, -0.022647396, -657046.7, -11843.448 
9.1530746e+2, 2.4415241e+2, -569587.56, -675218.4, -866.4096, -0.0013269942, -0.021703891, -569580.44, -22276.236 
9.1530055e+2, 2.5414154e+2, -473219.88, -577879.1, -667.20636, -0.0029407688, -0.021848744, -473215.63, -23804.848 
9.1529375e+2, 2.6413e+2, -386481.9, -499762.44, -646.46466, -0.0029174788, -0.021737559, -386478.22, -34954.457 
9.152869e+2, 2.741178e+2, -290806.78, -402787.28, -881.13855, -0.0006252543, -0.02387168, -290799.88, -37156.617 
9.152801e+2, 2.8410494e+2, -204814.42, -325889.2, -778.0531, -0.00060755026, -0.023172237, -204809.42, -49040.176 
9.1527325e+2, 2.9409143e+2, -108836.52, -228656.17, -503.7051, -0.0038100213, -0.02103362, -108834.41, -50932.76 
9.1526645e+2, 3.0408117e+2, -15377.903, -84524.36, -244.46266, -0.004585236, -0.020507323, -15377.039, -15377.039 
9.152598e+2, 3.1407428e+2, -17060.645, -84516.34, -472.4843, -0.0017156976, -0.025336355, -17057.336, -17057.336 
9.253942e+2, 1.2424258e+2, -1666557.5, -1731719.8, 540.85596, 0.0006864943, -0.01987882, -1666553.1, 55867.418 
9.253872e+2, 1.3423885e+2, -1570972.6, -1634725.0, -157.03383, 0.00021970097, -0.030284764, -1570972.3, 53484.82 
9.253803e+2, 1.4423482e+2, -1483840.9, -1555371.3, 2.9378343, 0.003008178, -0.015217017, -1483840.9, 42655.742 
9.253734e+2, 1.5422992e+2, -1388061.5, -1458999.4, 26.54847, 0.00019021958, -0.0216231, -1388061.5, 40483.12 
9.2536646e+2, 1.6422446e+2, -1300754.0, -1379354.0, -83.690765, -0.00082780403, -0.024076458, -1300753.9, 29844.305 
9.2535955e+2, 1.7421845e+2, -1205388.5, -1282673.5, -157.20906, 0.0006002387, -0.022684818, -1205388.1, 27268.887 
9.253526e+2, 1.8421182e+2, -1118556.9, -1203820.9, -345.61288, 0.00074076734, -0.021189827, -1118555.5, 16166.569 
9.253456e+2, 1.9420455e+2, -1022489.06, -1106788.5, -245.64656, -0.0009038335, -0.022067133, -1022488.4, 14304.824 
9.253386e+2, 2.041967e+2, -935157.8, -1027279.0, -244.24124, -0.0014943535, -0.021981627, -935157.1, 3713.0774 
9.253316e+2, 2.1418825e+2, -839548.3, -930387.06, -346.18646, -0.0006364816, -0.022674985, -839547.0, 1406.0402 
9.253246e+2, 2.2417916e+2, -752701.0, -851756.7, -444.30295, -0.00029371685, -0.022231378, -752699.06, -9657.1 
9.2531765e+2, 2.3416948e+2, -656562.75, -754666.2, -261.8431, -0.00063751143, -0.022471929, -656562.06, -11425.066 
9.253106e+2, 2.4415918e+2, -569172.8, -675035.06, -107.87132, -0.0013850321, -0.021680364, -569172.7, -21934.838 
9.2530364e+2, 2.541483e+2, -473557.2, -578060.9, -328.87128, -0.0027385778, -0.021762583, -473556.16, -24211.68 
9.252966e+2, 2.641368e+2, -386947.0, -499826.56, -357.84875, -0.002771738, -0.021623543, -386945.88, -35488.44 
9.252897e+2, 2.741246e+2, -290925.78, -402650.0, -57.27884, -0.0009495834, -0.023780635, -290925.75, -37349.008 
9.252827e+2, 2.8411177e+2, -204830.64, -325823.3, 162.95634, -0.0010028435, -0.023014035, -204830.42, -49127.777 
9.252757e+2, 2.9409823e+2, -108892.13, -228609.61, -82.6895, -0.0037335553, -0.02065081, -108892.07, -51057.086 
9.252687e+2, 3.04088e+2, -15521.603, -84465.516, 58.272686, -0.0043488736, -0.020077327, -15521.554, -15521.554 
9.252619e+2, 3.1408107e+2, -17493.459, -84574.445, 337.60364, -0.0017079848, -0.025161987, -17491.76, -17491.76 
9.3539923e+2, 1.2424951e+2, -1666513.4, -1731597.5, -68.618095, 0.0020925594, -0.019089956, -1666513.4, 55839.29 
9.353921e+2, 1.3424575e+2, -1571059.6, -1634906.4, -759.6588, -0.00097618747, -0.03071219, -1571050.6, 53338.816 
9.35385e+2, 1.4424174e+2, -1483835.4, -1555342.5, -452.35184, 0.0012852709, -0.0135431485, -1483832.6, 42596.3 
9.35378e+2, 1.5423682e+2, -1388075.8, -1458972.3, -419.6686, 0.0008190785, -0.022403479, -1388073.3, 40403.746 
9.353709e+2, 1.6423135e+2, -1300923.3, -1379650.4, -711.2295, 0.00030845864, -0.025496077, -1300916.8, 29613.982 
9.353638e+2, 1.7422533e+2, -1205544.9, -1282988.5, -794.05725, -0.00022695573, -0.022301378, -1205536.8, 27052.883 
9.353567e+2, 1.842187e+2, -1118388.9, -1203472.9, -818.29663, -0.00038889196, -0.020419158, -1118381.0, 16273.61 
9.353496e+2, 1.9421145e+2, -1022307.3, -1106407.1, -709.8943, -0.00004894445, -0.022860888, -1022301.4, 14424.265 
9.353425e+2, 2.0420359e+2, -935353.56, -1027668.5, -835.30237, -0.000104082545, -0.023027506, -935346.0, 3456.6301 
9.3533534e+2, 2.1419513e+2, -839759.3, -930843.06, -939.9676, -0.00066090294, -0.022134969, -839749.6, 1136.0175 
9.353281e+2, 2.2418606e+2, -752381.94, -851099.44, -912.0642, -0.0012716292, -0.021123264, -752373.56, -9399.105 
9.35321e+2, 2.3417641e+2, -656204.0, -753928.25, -729.88684, -0.0019710923, -0.022276273, -656198.5, -11129.484 
9.353138e+2, 2.441661e+2, -569535.56, -675769.94, -718.82385, -0.0017324896, -0.022388844, -569530.7, -22360.754 
9.353067e+2, 2.5415516e+2, -473970.53, -578925.06, -936.092, -0.00021604357, -0.023312857, -473962.2, -24684.941 
9.352996e+2, 2.6414365e+2, -386431.44, -498740.34, -868.4934, -0.00068543816, -0.022408288, -386424.72, -35034.625 
9.352924e+2, 2.741316e+2, -290325.5, -401393.75, -576.0269, -0.0038792985, -0.021603093, -290322.5, -36814.258 
9.352853e+2, 2.8411877e+2, -205199.89, -326573.25, -387.9462, -0.004352977, -0.021191584, -205198.66, -49564.715 
9.352782e+2, 2.9410514e+2, -109349.805, -229576.05, -618.96063, -0.0010343593, -0.023844564, -109346.625, -51579.215 
9.3527114e+2, 3.0409488e+2, -15094.547, -83560.67, -525.4523, -0.00080790004, -0.02296518, -15090.515, -15090.515 
9.35264e+2, 3.1408814e+2, -16967.025, -83491.664, -259.86407, -0.004718229, -0.020174816, -16966.01, -16966.01 
9.454043e+2, 1.242566e+2, -1666163.6, -1731279.9, 462.94873, 0.0023213287, -0.017836412, -1666160.4, 56122.793 
9.45397e+2, 1.3425282e+2, -1570437.3, -1634764.9, -230.5171, -0.0009945869, -0.032283574, -1570436.4, 53883.92 
9.4538975e+2, 1.4424881e+2, -1483218.0, -1555100.6, 38.452076, 0.0011898847, -0.012839045, -1483218.0, 43141.63 
9.453826e+2, 1.5424389e+2, -1388232.5, -1459093.9, 22.358034, 0.0008831114, -0.02187053, -1388232.5, 40175.38 
9.453754e+2, 1.6423841e+2, -1301181.9, -1379737.0, -208.63817, 0.00040347126, -0.025178934, -1301181.3, 29280.316 
9.453681e+2, 1.742324e+2, -1205115.5, -1282740.4, -126.48493, -0.00030782408, -0.022247128, -1205115.4, 27405.127 
9.4536084e+2, 1.8422577e+2, -1117773.3, -1203129.6, -113.14172, -0.00047285832, -0.020380316, -1117773.1, 16812.225 
9.4535357e+2, 1.9421852e+2, -1022201.5, -1106307.3, -164.29729, 0.00008570359, -0.022516413, -1022201.2, 14455.156 
9.453463e+2, 2.0421067e+2, -935382.75, -1027631.56, -296.71436, 0.00004790276, -0.022646237, -935381.8, 3351.5215 
9.4533896e+2, 2.1420221e+2, -839478.8, -930648.0, -166.36299, -0.00080371957, -0.022024507, -839478.5, 1337.7874 
9.453317e+2, 2.2419314e+2, -752114.5, -850992.0, -120.445114, -0.001455723, -0.021072013, -752114.4, -9209.255 
9.453244e+2, 2.3418349e+2, -656321.75, -753977.5, -305.7299, -0.0018717863, -0.022054523, -656320.8, -11321.084 
9.453171e+2, 2.4417318e+2, -569652.3, -675686.94, -371.5566, -0.0016262492, -0.022144008, -569651.0, -22550.426 
9.4530976e+2, 2.5416225e+2, -473878.06, -578727.94, -107.6683, -0.00046756514, -0.023167752, -473877.97, -24670.219 
9.453025e+2, 2.6415077e+2, -386321.63, -498633.1, 63.337925, -0.0009131456, -0.022174997, -386321.6, -35001.094 
9.4529516e+2, 2.741387e+2, -290268.84, -401319.5, -220.15341, -0.0035621596, -0.021050213, -290268.4, -36829.76 
9.452878e+2, 2.841259e+2, -205172.58, -326448.22, -206.55841, -0.0039511304, -0.020737227, -205172.22, -49607.95 
9.452806e+2, 2.9411227e+2, -109570.195, -229558.45, 86.75974, -0.0011801737, -0.024082365, -109570.13, -51872.453 
9.452734e+2, 3.0410203e+2, -15425.528, -83753.5, 284.26733, -0.001137818, -0.023224322, -15424.346, -15424.346 
9.452661e+2, 3.140953e+2, -17018.342, -83568.484, 10.394131, -0.0047112107, -0.019447187, -17018.34, -17018.34 
9.5540935e+2, 1.2426385e+2, -1666036.4, -1731024.5, -20.467623, 0.001468705, -0.01624308, -1666036.4, 56175.805 
9.5540196e+2, 1.3426001e+2, -1570568.8, -1634992.8, -704.26904, -0.000043040473, -0.034822453, -1570561.1, 53688.816 
9.5539457e+2, 1.44256e+2, -1483325.1, -1555264.5, -594.8007, 0.0024330507, -0.0129590165, -1483320.3, 42968.805 
9.5538723e+2, 1.5425108e+2, -1388306.3, -1459238.3, -620.54846, 0.0004157175, -0.020198725, -1388300.8, 40036.457 
9.5537984e+2, 1.642456e+2, -1301022.6, -1379401.8, -673.24316, -0.00045058044, -0.023352101, -1301016.9, 29374.057 
9.5537245e+2, 1.742396e+2, -1204961.0, -1282387.1, -582.89874, 0.0002240558, -0.022474917, -1204956.6, 27493.08 
9.55365e+2, 1.8423298e+2, -1117899.8, -1203344.5, -701.3583, 0.0003012131, -0.020957792, -1117894.0, 16620.627 
9.5535755e+2, 1.9422574e+2, -1022337.7, -1106574.1, -759.5286, -0.00042985717, -0.021170601, -1022330.8, 14254.782 
9.553501e+2, 2.042179e+2, -935173.2, -1027175.6, -817.5985, -0.00091249484, -0.021005327, -935165.94, 3496.5806 
9.5534265e+2, 2.1420945e+2, -839234.9, -930144.0, -687.8531, -0.001066332, -0.022288378, -839229.7, 1515.5844 
9.553352e+2, 2.2420038e+2, -752445.3, -851640.25, -680.34875, -0.0009649046, -0.021938339, -752440.7, -9606.54 
9.5532775e+2, 2.3419069e+2, -656699.3, -754735.94, -853.47675, -0.0005234348, -0.021802243, -656691.94, -11762.742 
9.553203e+2, 2.4418041e+2, -569215.25, -674729.75, -923.17706, -0.0011463484, -0.02103807, -569207.2, -22177.246 
9.553128e+2, 2.5416955e+2, -473352.22, -577624.75, -675.7181, -0.003200707, -0.021521678, -473347.84, -24211.555 
9.5530534e+2, 2.6415804e+2, -386761.22, -499519.97, -472.96167, -0.0032076375, -0.021043228, -386759.25, -35510.28 
9.552979e+2, 2.741459e+2, -290802.7, -402407.06, -735.2259, -0.00037621305, -0.021932935, -290797.84, -37429.813 
9.5529056e+2, 2.8413308e+2, -204730.4, -325463.38, -796.75433, -0.00025348985, -0.02146865, -204725.16, -49231.426 
9.5528305e+2, 2.9411957e+2, -109008.9, -228390.7, -524.9359, -0.0039066877, -0.021662867, -109006.586, -51380.55 
9.552756e+2, 3.0410933e+2, -15833.729, -84609.484, -254.30872, -0.0049507134, -0.021136751, -15832.788, -15832.788 
9.5526826e+2, 3.1410247e+2, -17539.465, -84654.055, -501.4694, -0.0020570375, -0.022569051, -17535.717, -17535.717 
9.6541446e+2, 1.2427126e+2, -1665203.0, -1730468.1, 559.4587, 0.0016381331, -0.01627656, -1665198.1, 56941.418 
9.654069e+2, 1.3426737e+2, -1570758.9, -1635344.3, -185.5913, -0.00009654275, -0.035697773, -1570758.4, 53419.33 
9.653993e+2, 1.442634e+2, -1483397.5, -1555220.4, -23.252548, 0.0023213786, -0.01110605, -1483397.5, 42819.23 
9.653919e+2, 1.5425847e+2, -1387623.3, -1458808.0, 79.52307, 0.00044439762, -0.020087745, -1387623.3, 40641.74 
9.653843e+2, 1.64253e+2, -1300234.8, -1379000.6, 34.927208, -0.00033849225, -0.023872351, -1300234.8, 30083.895 
9.6537673e+2, 1.74247e+2, -1204802.9, -1282294.9, -31.794603, 0.00032598115, -0.022153858, -1204802.9, 27574.494 
9.6536916e+2, 1.8424039e+2, -1118025.9, -1203426.1, -212.5277, 0.00033758808, -0.020374939, -1118025.4, 16416.854 
9.653616e+2, 1.9423313e+2, -1022267.56, -1106557.6, -169.32277, -0.0005702768, -0.021080976, -1022267.2, 14246.0205 
9.6535397e+2, 2.0422529e+2, -934942.6, -1027012.9, -206.88127, -0.0010396657, -0.021055575, -934942.2, 3647.964 
9.653464e+2, 2.1421684e+2, -838997.56, -929971.5, -287.93475, -0.00094576157, -0.022003274, -838996.7, 1676.1555 
9.6533877e+2, 2.2420777e+2, -752278.94, -851454.2, -307.80002, -0.0008102043, -0.021579206, -752278.0, -9516.359 
9.6533114e+2, 2.341981e+2, -656846.4, -754691.94, -73.72394, -0.0006195092, -0.021692399, -656846.3, -11989.723 
9.653235e+2, 2.4418782e+2, -569405.2, -674766.7, -16.368675, -0.0012687594, -0.02090123, -569405.2, -22447.879 
9.653159e+2, 2.5417697e+2, -473126.0, -577457.94, -251.84373, -0.0030698813, -0.020989798, -473125.38, -24061.809 
9.6530825e+2, 2.6416546e+2, -386484.94, -499373.47, -201.7144, -0.0030927043, -0.020625971, -386484.6, -35308.367 
9.653007e+2, 2.7415332e+2, -291049.84, -402501.56, 50.845768, -0.0006204282, -0.02232412, -291049.84, -37754.508 
9.652931e+2, 2.841405e+2, -205048.08, -325523.34, 135.98227, -0.00055802986, -0.021802342, -205047.92, -49626.95 
9.652855e+2, 2.9412702e+2, -108923.19, -228211.63, -75.490616, -0.0038748258, -0.02073852, -108923.14, -51370.05 
9.6527785e+2, 3.041168e+2, -15737.463, -84470.1, 84.28791, -0.0047759586, -0.020200044, -15737.359, -15737.359 
9.6527034e+2, 3.1410992e+2, -18021.877, -84798.23, 380.8272, -0.0019854929, -0.023342779, -18019.705, -18019.705 
9.7541964e+2, 1.242788e+2, -1665199.0, -1730375.5, -123.06172, 0.0025996347, -0.017752465, -1665198.8, 56866.88 
9.7541183e+2, 1.3427491e+2, -1571007.6, -1635848.3, -853.5501, -0.0010567254, -0.035149924, -1570996.4, 53107.453 
9.7540414e+2, 1.4427096e+2, -1483246.8, -1554907.3, -487.236, 0.0009903758, -0.007565349, -1483243.4, 42899.25 
9.753965e+2, 1.54266e+2, -1387472.0, -1458448.4, -375.65164, 0.0008481433, -0.02131374, -1387470.0, 40721.13 
9.7538877e+2, 1.642605e+2, -1300383.1, -1379244.8, -579.2601, 0.0005444918, -0.026393741, -1300378.9, 29865.938 
9.75381e+2, 1.7425455e+2, -1204954.6, -1282583.4, -652.65875, 0.0000215291, -0.021346483, -1204949.1, 27354.309 
9.7537327e+2, 1.8424793e+2, -1117969.3, -1203292.4, -756.6987, -0.0003137454, -0.018779382, -1117962.5, 16405.748 
9.753655e+2, 1.9424066e+2, -1022187.0, -1106401.3, -707.6688, -0.0004112676, -0.022085117, -1022181.06, 14258.41 
9.753578e+2, 2.042328e+2, -935103.0, -1027328.75, -716.4368, -0.00048074202, -0.022564135, -935097.44, 3419.0151 
9.7535e+2, 2.1422437e+2, -839192.25, -930349.3, -788.2153, -0.0005141051, -0.021233642, -839185.44, 1413.7402 
9.753423e+2, 2.2421531e+2, -751908.9, -850641.6, -929.003, -0.0009782147, -0.020137157, -751900.1, -9212.368 
9.7533447e+2, 2.342057e+2, -656384.9, -753772.5, -719.84827, -0.0020088234, -0.021716764, -656379.56, -11597.305 
9.753267e+2, 2.4419542e+2, -569745.8, -675486.75, -486.90848, -0.0019507996, -0.021622915, -569743.56, -22860.688 
9.7531897e+2, 2.541845e+2, -473564.97, -578350.94, -691.1707, -0.00042460643, -0.021434885, -473560.4, -24570.678 
9.753112e+2, 2.64173e+2, -386104.25, -498515.56, -836.0835, -0.0008727572, -0.020821758, -386098.03, -34995.61 
9.753034e+2, 2.7416092e+2, -290556.84, -401486.56, -612.75366, -0.0039510136, -0.022269215, -290553.44, -37332.66 
9.752956e+2, 2.8414813e+2, -205357.06, -326142.4, -377.92337, -0.0044500073, -0.021774836, -205355.88, -50009.613 
9.752879e+2, 2.941346e+2, -109315.03, -229017.83, -557.8367, -0.0014035697, -0.021127814, -109312.44, -51833.473 
9.7528017e+2, 3.0412436e+2, -15310.999, -83517.52, -560.2219, -0.0010902793, -0.020245466, -15306.397, -15306.397 
9.752724e+2, 3.1411758e+2, -17482.582, -83681.12, -290.03806, -0.004296546, -0.021990348, -17481.313, -17481.313 
9.8542476e+2, 1.24286555e+2, -1665053.8, -1729957.4, 455.45523, 0.0024021093, -0.016442243, -1665050.6, 56939.1 
9.854168e+2, 1.3428262e+2, -1570403.3, -1635746.3, -146.85234, -0.0008830925, -0.036575746, -1570402.9, 53625.438 
9.8540896e+2, 1.4427868e+2, -1482460.9, -1554604.8, 188.96727, 0.0012473984, -0.006781278, -1482460.4, 43606.72 
9.854011e+2, 1.5427372e+2, -1387505.3, -1458513.4, 100.011894, 0.0008069402, -0.020945244, -1387505.1, 40610.523 
9.853932e+2, 1.6426823e+2, -1300642.4, -1379377.3, -145.87894, 0.00039130426, -0.026322225, -1300642.1, 29527.26 
9.8538536e+2, 1.7426224e+2, -1204775.9, -1282499.9, -86.90192, -0.000021179772, -0.021374933, -1204775.8, 27452.23 
9.8537743e+2, 1.8425563e+2, -1117488.0, -1202990.8, -103.79081, -0.00027096612, -0.01870232, -1117487.9, 16804.857 
9.8536956e+2, 1.9424838e+2, -1021678.4, -1106069.6, -87.97257, -0.00033106407, -0.021608472, -1021678.3, 14685.556 
9.8536164e+2, 2.0424053e+2, -934826.25, -1027144.0, -90.15727, -0.00043569662, -0.022062602, -934826.1, 3614.6394 
9.8535377e+2, 2.1423209e+2, -839535.25, -930449.75, 26.542767, -0.00062538317, -0.021225428, -839535.25, 988.2312 
9.8534584e+2, 2.2422305e+2, -752221.8, -850724.0, -89.9822, -0.0010993842, -0.02022802, -752221.75, -9609.658 
9.8533785e+2, 2.3421343e+2, -655801.8, -753409.94, -277.35208, -0.001967111, -0.0213191, -655801.0, -11094.567 
9.8532987e+2, 2.4420315e+2, -569094.06, -675151.06, -183.14023, -0.0018644477, -0.021225762, -569093.75, -22286.713 
9.85322e+2, 2.5419223e+2, -473995.0, -578531.06, 22.027287, -0.00045018364, -0.02174087, -473995.0, -25081.033 
9.853141e+2, 2.6418075e+2, -386681.47, -498664.53, 17.079672, -0.0009291416, -0.021079222, -386681.47, -35654.91 
9.853061e+2, 2.741687e+2, -290226.0, -401175.38, -145.90807, -0.003938602, -0.021412851, -290225.8, -37081.07 
9.8529816e+2, 2.841559e+2, -204811.4, -325737.72, -16.32119, -0.0044010757, -0.020886894, -204811.4, -49541.336 
9.852903e+2, 2.9414237e+2, -109601.58, -229009.7, 262.1708, -0.0013542068, -0.021683177, -109601.0, -52198.227 
9.852824e+2, 3.0413213e+2, -15889.814, -83921.05, 323.78342, -0.0010668802, -0.020870175, -15888.273, -15888.273 
9.852745e+2, 3.1412536e+2, -17237.104, -83699.78, -24.038595, -0.004352305, -0.020766363, -17237.096, -17237.096 
9.954299e+2, 1.2429448e+2, -1664695.3, -1729218.8, -19.148706, 0.0011365975, -0.012851218, -1664695.1, 57216.918 
9.954218e+2, 1.3429049e+2, -1570447.3, -1635787.9, -613.1045, 0.00020952427, -0.039652735, -1570441.5, 53509.805 
9.954138e+2, 1.4428653e+2, -1482709.3, -1555041.5, -475.17627, 0.0027893651, -0.008313165, -1482706.1, 43283.88 
9.9540573e+2, 1.5428157e+2, -1387728.3, -1458959.9, -566.20197, 0.00033755344, -0.019190043, -1387723.8, 40314.785 
9.953977e+2, 1.6427608e+2, -1300540.3, -1379153.3, -653.5321, -0.0007020141, -0.024011603, -1300534.9, 29557.521 
9.953897e+2, 1.742701e+2, -1204663.6, -1282239.9, -584.7982, 0.00012381833, -0.022122053, -1204659.3, 27491.895 
9.9538165e+2, 1.8426348e+2, -1117491.5, -1202957.3, -629.0309, 0.000313577, -0.019916007, -1117486.9, 16728.941 
9.953736e+2, 1.9425628e+2, -1021700.4, -1106071.6, -614.2464, -0.00034551456, -0.019836819, -1021695.9, 14590.727 
9.953655e+2, 2.0424843e+2, -934670.75, -1026752.5, -750.7556, -0.0008740035, -0.0198037, -934664.6, 3698.7402 
9.953574e+2, 2.1423998e+2, -839321.3, -930018.8, -651.1932, -0.0012324223, -0.021883367, -839316.6, 1129.4108 
9.953493e+2, 2.2423095e+2, -752508.6, -851322.4, -512.6933, -0.0012017736, -0.02164224, -752506.0, -9971.25 
9.9534124e+2, 2.3422128e+2, -656168.06, -754131.0, -667.383, -0.00068342744, -0.020538865, -656163.56, -11534.181 
9.953332e+2, 2.4421103e+2, -568817.1, -674484.44, -881.119, -0.0011329479, -0.01983055, -568809.8, -22079.83 
9.95325e+2, 2.5420016e+2, -473611.84, -577729.7, -710.5604, -0.0028563056, -0.021923874, -473606.97, -24770.514 
9.95317e+2, 2.6418868e+2, -386890.34, -499096.6, -425.9491, -0.003009183, -0.021383645, -386888.72, -35939.777 
9.953089e+2, 2.741766e+2, -290519.88, -401757.7, -552.43054, -0.0009845197, -0.019832812, -290517.13, -37449.805 
9.953008e+2, 2.8416383e+2, -204415.48, -324793.66, -698.6931, -0.0009038736, -0.01921759, -204411.42, -49218.863 
9.9529266e+2, 2.9415032e+2, -109083.82, -227939.98, -460.4375, -0.0034993545, -0.022381214, -109082.04, -51757.305 
9.952846e+2, 3.0414012e+2, -16432.943, -85070.086, -152.19856, -0.0043220683, -0.021997264, -16432.605, -16432.605 
9.9527663e+2, 3.1413323e+2, -17922.703, -85100.055, -453.41394, -0.0024689601, -0.019629138, -17919.643, -17919.643 
1.0054351e+3, 1.2430256e+2, -1663558.6, -1728384.0, 607.9245, 0.0012999305, -0.012483865, -1663552.9, 58279.99 
1.0054268e+3, 1.342985e+2, -1570746.0, -1636311.9, -202.86678, 0.00019016628, -0.04055072, -1570745.4, 53127.242 
1.0054186e+3, 1.4429457e+2, -1482966.4, -1555132.4, -55.258568, 0.0027269754, -0.0067735426, -1482966.4, 42944.91 
1.0054104e+3, 1.5428962e+2, -1387216.0, -1458647.0, 95.234116, 0.0003966497, -0.01890682, -1387215.9, 40744.027 
1.0054022e+3, 1.6428412e+2, -1299780.4, -1378746.0, 109.28138, -0.0006147003, -0.024189593, -1299780.3, 30233.46 
1.005394e+3, 1.7427814e+2, -1204310.3, -1282017.3, 84.16224, 0.000099355035, -0.02172989, -1204310.1, 27762.104 
1.0053858e+3, 1.8427153e+2, -1117507.3, -1202930.6, -26.96071, 0.00025279785, -0.019468147, -1117507.3, 16629.762 
1.00537755e+3, 1.9426431e+2, -1022064.44, -1106213.6, -6.6111736, -0.00037706507, -0.019991744, -1022064.44, 14143.336 
1.00536935e+3, 2.0425649e+2, -934822.4, -1026755.8, -168.6969, -0.0008567176, -0.019994017, -934822.06, 3462.4312 
1.0053611e+3, 2.1424805e+2, -838553.75, -929576.6, -227.52335, -0.0011593679, -0.021342909, -838553.2, 1813.8723 
1.0053528e+3, 2.24239e+2, -751800.0, -851014.0, -83.751366, -0.0011430222, -0.020998325, -751799.9, -9344.195 
1.0053446e+3, 2.3422934e+2, -656734.1, -754435.56, 57.855614, -0.0007330727, -0.020628167, -656734.1, -12183.6455 
1.00533634e+3, 2.4421908e+2, -569430.3, -674633.3, -70.81834, -0.0012513682, -0.019970201, -569430.25, -22779.242 
1.0053281e+3, 2.5420824e+2, -472960.63, -577238.6, -162.85611, -0.0030021605, -0.021174125, -472960.38, -24203.088 
1.0053198e+3, 2.6419678e+2, -386131.06, -498680.66, 45.50851, -0.0030601844, -0.02059973, -386131.03, -35261.4 
1.0053116e+3, 2.741847e+2, -291122.94, -402000.8, 209.53555, -0.00077671534, -0.020164203, -291122.56, -38134.473 
1.0053034e+3, 2.841719e+2, -205258.94, -325190.38, 97.8136, -0.00071152597, -0.019706441, -205258.86, -50145.56 
1.0052951e+3, 2.9415843e+2, -108687.12, -227710.64, -143.84749, -0.0037070196, -0.02172402, -108686.945, -51441.594 
1.0052869e+3, 3.0414823e+2, -15769.417, -84612.914, 94.8697, -0.004582958, -0.021220867, -15769.286, -15769.286 
1.0052787e+3, 3.1414136e+2, -18695.645, -85308.76, 547.86005, -0.0023901127, -0.020116257, -18691.14, -18691.14 
1.0154402e+3, 1.24310784e+2, -1663605.3, -1728386.4, -132.80412, 0.002574986, -0.014857876, -1663605.0, 58147.348 
1.0154317e+3, 1.343067e+2, -1571222.3, -1637278.9, -921.7358, -0.00082403043, -0.039577164, -1571209.4, 52582.95 
1.0154234e+3, 1.4430277e+2, -1482765.3, -1554701.8, -537.10724, 0.0012431341, -0.002617688, -1482761.3, 43069.68 
1.0154151e+3, 1.5429778e+2, -1386984.1, -1458126.4, -374.4528, 0.00085424946, -0.01986995, -1386982.1, 40897.55 
1.0154068e+3, 1.642923e+2, -1299856.9, -1378831.8, -492.53293, 0.00041527292, -0.026465405, -1299853.8, 30079.67 
1.01539835e+3, 1.7428635e+2, -1204394.5, -1282155.6, -521.2636, -0.000105757754, -0.020342888, -1204391.0, 27600.727 
1.0153899e+3, 1.8427975e+2, -1117502.8, -1202891.8, -642.5155, -0.0004163845, -0.017583631, -1117497.9, 16558.502 
1.0153816e+3, 1.9427249e+2, -1022030.5, -1106163.6, -623.0308, -0.00045448478, -0.021819185, -1022025.9, 14101.68 
1.01537324e+3, 2.0426467e+2, -934921.9, -1026953.75, -604.52374, -0.0004882827, -0.02228727, -934917.94, 3286.4224 
1.0153648e+3, 2.1425626e+2, -838687.6, -929819.0, -645.7216, -0.0005235632, -0.019747518, -838683.06, 1603.6805 
1.0153564e+3, 2.2424722e+2, -751616.2, -850569.8, -785.8704, -0.0009773992, -0.018553445, -751609.94, -9234.721 
1.015348e+3, 2.3423757e+2, -656476.4, -753935.1, -672.1561, -0.0019813853, -0.021482758, -656471.75, -12001.847 
1.0153396e+3, 2.442273e+2, -569527.94, -674838.3, -488.24936, -0.0021506941, -0.021441765, -569525.6, -22955.23 
1.01533115e+3, 2.5421646e+2, -473119.75, -577536.2, -550.48334, -0.0011827524, -0.019595489, -473116.84, -24440.266 
1.0153227e+3, 2.64205e+2, -385903.9, -498132.44, -695.54126, -0.0013559879, -0.018852979, -385899.6, -35110.74 
1.0153143e+3, 2.7419293e+2, -290799.2, -401379.97, -568.95593, -0.003037531, -0.022186324, -290796.28, -37889.066 
1.0153059e+3, 2.8418013e+2, -205609.58, -325923.44, -309.68277, -0.0034735359, -0.022093706, -205608.78, -50576.32 
1.01529755e+3, 2.9416665e+2, -109137.21, -228623.95, -499.77316, -0.0022165535, -0.019850427, -109135.125, -51970.367 
1.0152891e+3, 3.0415645e+2, -15125.215, -83145.984, -679.72266, -0.0022288342, -0.018757135, -15118.424, -15118.424 
1.0152807e+3, 3.1414968e+2, -17868.87, -83604.45, -285.03418, -0.0039766906, -0.022112373, -17867.633, -17867.633 
1.02544546e+3, 1.24319196e+2, -1663450.3, -1727831.4, 344.3924, 0.0026173205, -0.014218862, -1663448.5, 58221.453 
1.02543674e+3, 1.3431507e+2, -1570857.1, -1637424.8, -189.73125, -0.00084190007, -0.04041826, -1570856.6, 52853.72 
1.02542825e+3, 1.4431116e+2, -1482043.6, -1554345.1, 287.05423, 0.0012272262, -0.0013431376, -1482042.5, 43706.3 
1.0254198e+3, 1.5430617e+2, -1386894.5, -1458034.4, 236.80605, 0.0009110512, -0.01957754, -1386893.8, 40903.9 
1.0254113e+3, 1.6430068e+2, -1300021.6, -1378874.3, 17.50552, 0.0005055553, -0.026628029, -1300021.6, 29829.697 
1.0254027e+3, 1.7429474e+2, -1204369.6, -1282098.3, 71.83211, -0.00004921762, -0.020259291, -1204369.5, 27540.1 
1.0253942e+3, 1.8428814e+2, -1117217.8, -1202733.0, 10.229479, -0.0003889879, -0.017243948, -1117217.8, 16756.521 
1.0253856e+3, 1.9428088e+2, -1021373.2, -1105810.5, 15.44492, -0.00047691315, -0.021220617, -1021373.2, 14672.152 
1.0253771e+3, 2.0427306e+2, -934427.8, -1026728.56, 78.35165, -0.00053573406, -0.02181725, -934427.75, 3694.4119 
1.0253685e+3, 2.1426465e+2, -839120.06, -930015.44, 131.21423, -0.00057741604, -0.019850686, -839119.9, 1084.7031 
1.02536e+3, 2.2425562e+2, -751987.3, -850548.0, -27.866838, -0.0010272047, -0.018636763, -751987.3, -9694.3125 
1.0253513e+3, 2.3424597e+2, -655790.4, -753379.6, -32.70599, -0.0020193998, -0.02080928, -655790.4, -11402.912 
1.0253428e+3, 2.4423574e+2, -568900.2, -674587.9, 134.59935, -0.0020922506, -0.020767227, -568900.0, -22412.133 
1.0253342e+3, 2.542249e+2, -473767.28, -577919.3, 161.48051, -0.0009271192, -0.019874625, -473767.03, -25172.854 
1.02532566e+3, 2.642134e+2, -386534.75, -498401.56, -25.02801, -0.0012149716, -0.01923593, -386534.75, -35828.277 
1.025317e+3, 2.7420136e+2, -289928.1, -400883.53, -145.87909, -0.0034481357, -0.021539986, -289927.9, -37103.234 
1.02530845e+3, 2.841886e+2, -204558.73, -325280.66, 115.65338, -0.0038719072, -0.021186274, -204558.63, -49608.805 
1.02529995e+3, 2.9417512e+2, -109984.76, -228837.4, 437.22272, -0.001827895, -0.019752651, -109983.15, -52901.12 
1.0252914e+3, 3.0416492e+2, -16334.248, -83784.516, 291.1905, -0.0017409831, -0.018866684, -16332.991, -16332.991 
1.02528274e+3, 3.1415814e+2, -17033.336, -83250.28, -177.00748, -0.0043679154, -0.021520415, -17032.863, -17032.863 
1.03545055e+3, 1.24327786e+2, -1662913.5, -1726707.8, -195.41997, 0.0015262946, -0.011108235, -1662913.0, 58672.848 
1.03544176e+3, 1.3432361e+2, -1570869.1, -1637420.3, -719.7237, -0.00006713978, -0.042766888, -1570861.4, 52765.293 
1.0354331e+3, 1.4431968e+2, -1482236.9, -1554685.8, -355.25034, 0.0023876498, -0.0024675587, -1482235.1, 43429.99 
1.0354245e+3, 1.5431471e+2, -1387075.1, -1458404.0, -401.00516, 0.0005816127, -0.018193718, -1387072.9, 40641.055 
1.03541575e+3, 1.6430922e+2, -1299944.8, -1378686.0, -538.2618, -0.00025897392, -0.024977617, -1299941.0, 29826.713 
1.0354071e+3, 1.7430326e+2, -1204270.3, -1281873.8, -479.03082, 0.00018974797, -0.021291072, -1204267.3, 27558.838 
1.0353983e+3, 1.8429668e+2, -1117232.9, -1202722.3, -507.50406, 0.0001692994, -0.018205369, -1117229.9, 16660.773 
1.0353897e+3, 1.9428946e+2, -1021397.8, -1105836.4, -497.92636, -0.0004824973, -0.018507995, -1021394.9, 14566.4795 
1.03538096e+3, 2.0428163e+2, -934394.0, -1026573.44, -575.0838, -0.0009839181, -0.018944856, -934390.44, 3647.686 
1.0353722e+3, 2.142732e+2, -839050.6, -929852.56, -534.8968, -0.0012601238, -0.02143235, -839047.5, 1073.3356 
1.0353635e+3, 2.2426416e+2, -751971.9, -850499.25, -493.22656, -0.0012932768, -0.020892799, -751969.44, -9760.195 
1.0353547e+3, 2.3425458e+2, -655796.9, -753359.4, -484.58194, -0.0010205777, -0.018786378, -655794.5, -11491.204 
1.0353461e+3, 2.4424434e+2, -568897.94, -674504.2, -576.46765, -0.0012267126, -0.018210227, -568894.8, -22491.201 
1.0353373e+3, 2.5423345e+2, -473718.47, -577835.8, -567.6012, -0.0020738924, -0.021781532, -473715.38, -25205.094 
1.0353285e+3, 2.64222e+2, -386697.53, -498730.28, -415.95074, -0.002469562, -0.021470472, -386695.97, -36073.316 
1.0353198e+3, 2.7420992e+2, -290152.28, -401288.78, -500.39404, -0.002251646, -0.018519359, -290150.03, -37409.37 
1.035311e+3, 2.841972e+2, -204112.97, -324204.53, -706.0905, -0.0022259264, -0.017362654, -204108.81, -49243.277 
1.0353023e+3, 2.9418376e+2, -109380.39, -227635.34, -440.50897, -0.0024592332, -0.021223374, -109378.75, -52381.344 
1.0352936e+3, 3.0417353e+2, -17042.195, -85286.89, -30.044497, -0.002938064, -0.021210643, -17042.182, -17042.182 
1.0352849e+3, 3.141667e+2, -17934.887, -85063.05, -428.42728, -0.0037762022, -0.018552937, -17932.152, -17932.152 
1.0454558e+3, 1.2433657e+2, -1662067.8, -1725771.9, 657.24176, 0.001607174, -0.010325305, -1662061.0, 59438.7 
1.0454468e+3, 1.3433236e+2, -1571039.3, -1637905.5, -117.63718, 0.000042679345, -0.043710962, -1571039.0, 52502.066 
1.045438e+3, 1.4432842e+2, -1482248.3, -1554727.5, 147.81578, 0.0024443616, -0.0017695893, -1482248.0, 43331.613 
1.0454291e+3, 1.5432343e+2, -1386784.3, -1458259.5, 249.37392, 0.0004868784, -0.0180018, -1386783.4, 40845.133 
1.0454203e+3, 1.6431794e+2, -1299498.9, -1378437.3, 187.7769, -0.00039336213, -0.024939427, -1299498.4, 30183.92 
1.0454114e+3, 1.7431198e+2, -1203910.8, -1281659.3, 156.00578, 0.00015091874, -0.020941088, -1203910.5, 27830.137 
1.0454026e+3, 1.843054e+2, -1117041.4, -1202598.9, 85.970314, 0.00022790048, -0.017809412, -1117041.3, 16763.873 
1.04539365e+3, 1.942982e+2, -1021551.94, -1105865.8, 113.33814, -0.00034552978, -0.018378755, -1021551.8, 14324.076 
1.0453848e+3, 2.0429036e+2, -934448.0, -1026482.44, 25.485544, -0.00089004636, -0.018813012, -934448.0, 3504.5261 
1.04537584e+3, 2.1428193e+2, -838559.4, -929496.0, 57.90452, -0.0013967712, -0.020950256, -838559.3, 1475.8033 
1.04536705e+3, 2.2427292e+2, -751593.56, -850391.75, 102.79768, -0.0014297387, -0.020473627, -751593.5, -9469.951 
1.0453582e+3, 2.342633e+2, -656188.8, -753617.3, 50.636982, -0.0008555204, -0.018937541, -656188.8, -11971.107 
1.04534924e+3, 2.4425307e+2, -569108.06, -674480.1, -70.2764, -0.0010750738, -0.018370314, -569108.0, -22790.01 
1.0453403e+3, 2.542422e+2, -472870.53, -577262.6, -6.962878, -0.00236403, -0.02122844, -472870.53, -24446.068 
1.0453314e+3, 2.6423076e+2, -385999.38, -498341.28, 242.279, -0.0027430414, -0.020792194, -385998.84, -35462.094 
1.0453225e+3, 2.742187e+2, -291116.0, -401717.78, 358.0302, -0.001894774, -0.018482836, -291114.84, -38460.07 
1.0453136e+3, 2.8420597e+2, -205022.28, -324549.94, 108.23376, -0.0018713338, -0.01752252, -205022.17, -50242.58 
1.0453047e+3, 2.9419252e+2, -108126.44, -226913.22, -99.87422, -0.002989946, -0.020946259, -108126.35, -51215.05 
1.04529575e+3, 3.0418232e+2, -15756.304, -84846.516, 286.33084, -0.0034993922, -0.020785503, -15755.117, -15755.117 
1.04528695e+3, 3.1417546e+2, -19289.158, -85896.1, 630.7445, -0.0032230974, -0.018351635, -19283.188, -19283.188 
1.05546094e+3, 1.24345526e+2, -1661979.6, -1725535.1, -4.9676466, 0.002560807, -0.011496999, -1661979.6, 59432.32 
1.0554518e+3, 1.3434125e+2, -1571570.9, -1638987.8, -759.6276, -0.00046110232, -0.04344415, -1571562.4, 51891.527 
1.0554428e+3, 1.4433731e+2, -1482192.6, -1554568.0, -421.34128, 0.0015100605, 0.00047711865, -1482190.1, 43302.363 
1.0554338e+3, 1.5433231e+2, -1386680.9, -1458021.1, -312.2772, 0.00053992134, -0.018810125, -1386679.5, 40861.977 
1.0554248e+3, 1.6432682e+2, -1299586.5, -1378563.8, -388.31348, -0.000059269376, -0.026237587, -1299584.6, 30010.713 
1.0554158e+3, 1.7432088e+2, -1204000.4, -1281825.5, -415.2195, -0.00016143454, -0.019388692, -1203998.1, 27655.373 
1.0554067e+3, 1.843143e+2, -1117037.8, -1202542.6, -510.49792, -0.00019728208, -0.016240401, -1117034.8, 16683.256 
1.0553977e+3, 1.9430706e+2, -1021521.0, -1105801.0, -485.32355, -0.0001267288, -0.020479904, -1021518.25, 14270.806 
1.0553887e+3, 2.0429923e+2, -934392.44, -1026343.7, -496.44073, -0.00038353814, -0.021016788, -934389.75, 3475.9072 
1.05537966e+3, 2.1429084e+2, -838501.8, -929375.06, -462.10034, -0.0010928395, -0.018661119, -838499.5, 1448.2526 
1.0553706e+3, 2.2428185e+2, -751702.9, -850591.56, -536.40063, -0.0014898002, -0.01773018, -751699.94, -9663.851 
1.0553615e+3, 2.3427217e+2, -656281.56, -753841.44, -591.40106, -0.0014540493, -0.020982513, -656277.94, -12147.105 
1.0553524e+3, 2.4426194e+2, -568992.56, -674201.06, -518.202, -0.0015859639, -0.020875257, -568990.0, -22758.842 
1.0553434e+3, 2.5425112e+2, -472755.5, -576987.56, -444.27863, -0.0019340658, -0.018511996, -472753.6, -24416.61 
1.05533436e+3, 2.6423973e+2, -385833.66, -497924.63, -538.7523, -0.0021899808, -0.017561141, -385831.06, -35382.09 
1.0553252e+3, 2.7422762e+2, -290878.44, -401283.38, -454.40448, -0.002316442, -0.021079043, -290876.6, -38309.348 
1.0553162e+3, 2.8421488e+2, -205309.88, -325130.66, -219.58443, -0.0026933393, -0.021183537, -205309.47, -50617.297 
1.0553072e+3, 2.9420143e+2, -108507.734, -227651.2, -376.4316, -0.003464112, -0.019121591, -108506.55, -51682.67 
1.0552981e+3, 3.0419126e+2, -15291.869, -83758.25, -613.2762, -0.0035328204, -0.017942365, -15286.376, -15286.376 
1.0552889e+3, 3.1418446e+2, -18647.258, -84629.63, -340.219, -0.00277199, -0.020718914, -18645.504, -18645.504 
1.0654662e+3, 1.2435466e+2, -1661464.9, -1724820.6, 417.7979, 0.002595441, -0.011306989, -1661462.1, 59860.37 
1.06545694e+3, 1.3435033e+2, -1571620.0, -1639610.4, -202.66188, -0.0005734413, -0.04351566, -1571619.4, 51745.59 
1.0654476e+3, 1.4434637e+2, -1481786.1, -1554279.9, 223.849, 0.0014265771, 0.0019110803, -1481785.4, 43618.25 
1.0654385e+3, 1.5434138e+2, -1386386.6, -1457725.8, 298.79074, 0.00070179865, -0.018401539, -1386385.4, 41067.297 
1.0654293e+3, 1.6433589e+2, -1299450.1, -1378512.5, 230.18777, 0.00016259152, -0.026276328, -1299449.4, 30057.045 
1.0654201e+3, 1.7432995e+2, -1203897.1, -1281783.4, 255.98172, -0.00012592957, -0.019108236, -1203896.3, 27668.383 
1.06541105e+3, 1.8432339e+2, -1116806.6, -1202355.1, 195.61499, -0.0003247606, -0.01586169, -1116806.1, 16822.975 
1.0654017e+3, 1.9431613e+2, -1021159.56, -1105526.9, 235.7011, -0.0004232693, -0.020261798, -1021158.9, 14541.17 
1.0653926e+3, 2.0430832e+2, -934128.94, -1026257.4, 216.85196, -0.0005172099, -0.020863423, -934128.44, 3648.2405 
1.0653833e+3, 2.1429995e+2, -838565.4, -929428.1, 169.74127, -0.0006578455, -0.018478638, -838565.06, 1293.6876 
1.0653742e+3, 2.2429092e+2, -751620.0, -850455.25, 115.03387, -0.0010518782, -0.017456321, -751619.9, -9672.79 
1.06536485e+3, 2.3428127e+2, -655697.94, -753440.6, 225.52957, -0.0017664518, -0.020459905, -655697.44, -11655.672 
1.0653557e+3, 2.4427103e+2, -568616.25, -674014.44, 322.43082, -0.0020283174, -0.020334153, -568615.3, -22473.28 
1.06534645e+3, 2.5426024e+2, -473479.5, -577320.4, 268.95715, -0.0016827665, -0.018273901, -473478.8, -25230.994 
1.0653371e+3, 2.6424882e+2, -386398.2, -498109.5, 69.7238, -0.0018153272, -0.017447032, -386398.16, -36038.387 
1.065328e+3, 2.7423677e+2, -289812.97, -400620.4, 25.6186, -0.0025822185, -0.020859731, -289812.97, -37335.08 
1.0653187e+3, 2.84224e+2, -204319.52, -324673.88, 283.61597, -0.003034932, -0.020944193, -204318.84, -49716.047 
1.0653094e+3, 2.9421058e+2, -109849.86, -228277.13, 433.5948, -0.003115184, -0.018938664, -109848.27, -53113.74 
1.06530026e+3, 3.0420038e+2, -16678.684, -84209.66, 203.46585, -0.0031215663, -0.017802542, -16678.07, -16678.07 
1.065291e+3, 3.1419358e+2, -17327.373, -83730.54, -5.253712, -0.0031820282, -0.020663181, -17327.371, -17327.371 
1.0754714e+3, 1.24363944e+2, -1661070.5, -1723945.4, -202.36417, 0.0017676519, -0.009997297, -1661069.9, 60161.664 
1.0754619e+3, 1.3435955e+2, -1571925.6, -1640198.0, -802.65295, -0.00040231433, -0.04385313, -1571916.3, 51358.3 
1.0754525e+3, 1.4435561e+2, -1481790.1, -1554223.0, -372.39468, 0.0019931921, 0.0026918354, -1481788.1, 43525.17 
1.07544325e+3, 1.5435062e+2, -1386352.1, -1457632.1, -297.76352, 0.0009007482, -0.016941091, -1386350.9, 41011.313 
1.0754339e+3, 1.6434513e+2, -1299435.6, -1378446.9, -351.30798, 0.00022781057, -0.025228417, -1299434.1, 29981.854 
1.07542455e+3, 1.7433919e+2, -1203875.1, -1281733.3, -320.9491, 0.00016573444, -0.01990413, -1203873.8, 27600.455 
1.0754152e+3, 1.8433261e+2, -1116768.9, -1202217.3, -370.4583, -0.00026399503, -0.016468981, -1116767.3, 16771.303 
1.0754058e+3, 1.943254e+2, -1021105.6, -1105397.6, -333.06366, -0.0011914133, -0.01803427, -1021104.3, 14504.933 
1.0753965e+3, 2.0431758e+2, -934240.56, -1026428.4, -385.18463, -0.0012365482, -0.018670445, -934238.94, 3446.8652 
1.0753871e+3, 2.1430916e+2, -838670.94, -929620.2, -428.56665, -0.00013862671, -0.020120578, -838668.94, 1099.5088 
1.0753777e+3, 2.2430016e+2, -751433.56, -850032.6, -400.4682, -0.0002206325, -0.01929594, -751431.94, -9575.196 
1.0753683e+3, 2.3429057e+2, -655501.6, -753005.2, -291.29218, -0.0018584708, -0.01768676, -655500.75, -11550.165 
1.0753589e+3, 2.4428035e+2, -568728.6, -674174.06, -398.35156, -0.0024414316, -0.01713427, -568727.1, -22676.37 
1.07534945e+3, 2.5426948e+2, -473553.9, -577525.25, -463.11075, -0.0016220685, -0.02020164, -473551.84, -25394.693 
1.07534006e+3, 2.6425806e+2, -386438.88, -498185.4, -317.24106, -0.0016284491, -0.02004019, -386437.97, -36168.71 
1.0753307e+3, 2.7424604e+2, -289890.9, -400733.38, -330.82257, -0.0027427848, -0.018148188, -289889.9, -37502.93 
1.0753213e+3, 2.842333e+2, -204136.1, -324166.13, -568.53723, -0.0029889252, -0.017265882, -204133.39, -49621.73 
1.0753119e+3, 2.9421985e+2, -109547.31, -227722.17, -463.74808, -0.002079985, -0.020194953, -109545.49, -52902.008 
1.0753025e+3, 3.0420968e+2, -16917.43, -84741.6, -81.18051, -0.0023694395, -0.01999724, -16917.334, -16917.334 
1.0752931e+3, 3.1420285e+2, -17693.93, -84419.36, -232.99469, -0.004460094, -0.018356195, -17693.117, -17693.117 
1.08547665e+3, 1.2437341e+2, -1660483.4, -1722854.1, 434.44443, 0.0017329562, -0.009145687, -1660480.3, 60658.484 
1.0854669e+3, 1.3436899e+2, -1572118.9, -1640630.6, -107.75515, -0.00024858408, -0.04423743, -1572118.6, 51063.48 
1.0854574e+3, 1.4436503e+2, -1481724.5, -1554256.4, 342.34573, 0.0021362256, 0.0028896485, -1481723.0, 43498.156 
1.0854479e+3, 1.5436003e+2, -1386124.4, -1457555.8, 338.65576, 0.00073901453, -0.016591271, -1386122.8, 41147.176 
1.08543836e+3, 1.6435453e+2, -1299096.9, -1378162.4, 233.13084, 0.0000058967594, -0.024885405, -1299096.1, 30227.584 
1.085429e+3, 1.7434861e+2, -1203684.3, -1281510.1, 294.2615, 0.00016786337, -0.019778823, -1203683.3, 27698.725 
1.0854194e+3, 1.8434203e+2, -1116717.0, -1202213.1, 264.95187, -0.000032020394, -0.016365558, -1116716.3, 16730.037 
1.0854098e+3, 1.9433482e+2, -1021047.7, -1105380.1, 221.44884, -0.00075086753, -0.017677872, -1021047.06, 14469.804 
1.0854003e+3, 2.0432702e+2, -934023.44, -1026240.5, 172.72943, -0.0010173323, -0.01825169, -934023.1, 3570.3677 
1.08539075e+3, 2.1431859e+2, -838330.5, -929341.94, 273.1917, -0.00069004693, -0.019848956, -838329.6, 1346.3619 
1.0853812e+3, 2.2430958e+2, -751252.25, -849869.9, 305.30914, -0.00077273074, -0.019106755, -751251.3, -9487.095 
1.0853717e+3, 2.3430002e+2, -655834.06, -753096.4, 241.57066, -0.0014404465, -0.017527593, -655833.5, -11975.393 
1.0853622e+3, 2.442898e+2, -568865.6, -674233.6, 102.59993, -0.0018460482, -0.017014498, -568865.5, -22907.352 
1.0853525e+3, 2.5427896e+2, -472597.9, -577007.7, 150.68034, -0.0019018737, -0.020089697, -472597.7, -24533.117 
1.085343e+3, 2.6426747e+2, -385556.16, -497761.75, 350.99777, -0.002075098, -0.019883057, -385555.03, -35378.38 
1.0853335e+3, 2.7425548e+2, -290723.97, -401125.63, 381.33212, -0.0024072302, -0.017843204, -290722.66, -38428.28 
1.08532384e+3, 2.8424278e+2, -204864.06, -324357.97, 133.7902, -0.0025099, -0.016842099, -204863.9, -50444.957 
1.0853142e+3, 2.9422933e+2, -108084.086, -226819.89, 107.60174, -0.0023216656, -0.01971664, -108083.984, -51533.41 
1.0853047e+3, 3.042192e+2, -15604.51, -84331.68, 447.02557, -0.0027588366, -0.019602781, -15601.603, -15601.603 
1.08529516e+3, 3.1421235e+2, -19227.645, -85386.49, 462.66183, -0.0041433196, -0.018186126, -19224.41, -19224.41 
1.0954818e+3, 1.2438304e+2, -1659943.9, -1721687.8, -183.76508, 0.002235311, -0.008631581, -1659943.4, 61101.08 
1.09547205e+3, 1.3437858e+2, -1572328.6, -1641039.5, -722.20013, -0.0001689841, -0.04464184, -1572321.0, 50767.07 
1.0954623e+3, 1.443746e+2, -1481864.3, -1554488.4, -221.77809, 0.0018637731, 0.0026173464, -1481863.6, 43263.61 
1.0954526e+3, 1.5436958e+2, -1386258.0, -1457794.0, -213.0961, 0.00022713344, -0.017166922, -1386257.4, 40918.92 
1.095443e+3, 1.643641e+2, -1299056.6, -1377989.1, -377.54105, -0.00052267284, -0.025111036, -1299054.9, 30175.172 
1.0954332e+3, 1.7435819e+2, -1203600.1, -1281311.9, -323.44757, -0.00011088514, -0.018854141, -1203598.8, 27689.213 
1.09542355e+3, 1.8435162e+2, -1116808.8, -1202375.6, -296.75415, 0.0002932476, -0.015640244, -1116807.8, 16544.541 
1.09541394e+3, 1.9434439e+2, -1021141.8, -1105588.0, -330.1305, 0.000677092, -0.018913716, -1021140.5, 14282.751 
1.0954042e+3, 2.0433658e+2, -933871.4, -1025893.0, -383.72864, -0.000053978434, -0.01932523, -933869.75, 3630.031 
1.0953946e+3, 2.1432821e+2, -838149.44, -928970.44, -293.26962, -0.0021909028, -0.017921776, -838148.5, 1433.2772 
1.0953847e+3, 2.2431922e+2, -751367.25, -850073.75, -341.44992, -0.0025478876, -0.017163634, -751366.06, -9696.182 
1.0953751e+3, 2.3430958e+2, -655938.25, -753344.25, -403.66025, -0.0006115577, -0.019637926, -655936.56, -12172.274 
1.09536536e+3, 2.4429937e+2, -568767.6, -674009.0, -337.6219, -0.00041311525, -0.019560808, -568766.5, -22902.076 
1.0953556e+3, 2.5428855e+2, -472502.72, -576793.6, -275.88132, -0.0025171258, -0.018185986, -472502.0, -24531.717 
1.0953459e+3, 2.6427713e+2, -385562.5, -497640.13, -437.62192, -0.0031091543, -0.01731185, -385560.8, -35478.613 
1.09533615e+3, 2.742651e+2, -290659.66, -401015.1, -433.459, -0.0016716329, -0.019654866, -290657.94, -38457.727 
1.0953264e+3, 2.8425238e+2, -204845.78, -324288.78, -207.47589, -0.0016984125, -0.01926803, -204845.42, -50520.598 
1.0953166e+3, 2.9423898e+2, -108105.96, -226812.45, -197.04749, -0.0037341372, -0.01769634, -108105.63, -51649.62 
1.0953069e+3, 3.042288e+2, -15613.232, -84249.195, -490.8503, -0.0041893367, -0.016938064, -15609.723, -15609.723 
1.0952971e+3, 3.1422195e+2, -19128.92, -85287.44, -532.67993, -0.0025015231, -0.020023968, -19124.63, -19124.63 
1.10548705e+3, 1.24392875e+2, -1659284.3, -1720794.3, 560.0061, 0.0023010138, -0.008594208, -1659279.1, 61668.91 
1.1054771e+3, 1.3438837e+2, -1572455.9, -1641774.0, -197.63759, -0.00023143306, -0.044505175, -1572455.3, 50537.016 
1.10546716e+3, 1.4438434e+2, -1481603.5, -1554257.1, 264.90402, 0.0018308341, 0.0028402505, -1481602.5, 43429.188 
1.1054574e+3, 1.5437935e+2, -1386292.4, -1457633.3, 452.00092, 0.00034525708, -0.017108265, -1386289.5, 40791.152 
1.1054475e+3, 1.6437387e+2, -1299158.4, -1378063.9, 381.64304, -0.00033565887, -0.025016572, -1299156.5, 29977.832 
1.10543765e+3, 1.7436795e+2, -1203309.4, -1281185.4, 330.2125, 0.000024705421, -0.018487195, -1203308.0, 27884.309 
1.1054279e+3, 1.8436138e+2, -1116280.8, -1202008.9, 340.65536, 0.00025034774, -0.015213942, -1116279.4, 16977.227 
1.105418e+3, 1.9435418e+2, -1020828.2, -1105305.6, 466.00223, 0.00026601317, -0.018680066, -1020825.6, 14501.793 
1.1054081e+3, 2.0434636e+2, -933810.0, -1025893.6, 430.85913, -0.00031436008, -0.019197894, -933808.0, 3595.942 
1.1053982e+3, 2.14338e+2, -838213.06, -929037.7, 321.39493, -0.0016809817, -0.017709738, -838211.94, 1273.9686 
1.1053883e+3, 2.24329e+2, -751195.0, -849973.1, 231.12204, -0.0019958995, -0.016889714, -751194.5, -9620.423 
1.1053784e+3, 2.3431936e+2, -655281.6, -752947.2, 317.29224, -0.00093388907, -0.019415721, -655280.6, -11612.217 
1.1053685e+3, 2.4430916e+2, -568302.94, -673726.1, 419.91977, -0.00088276016, -0.019337479, -568301.25, -22532.785 
1.1053587e+3, 2.5429836e+2, -473202.4, -577056.1, 404.26624, -0.0021874576, -0.017829997, -473200.84, -25326.576 
1.1053488e+3, 2.6428697e+2, -386173.25, -497835.56, 212.08534, -0.0026983505, -0.016910374, -386172.84, -36186.75 
1.10533886e+3, 2.7427492e+2, -289718.94, -400391.38, 246.65636, -0.002121041, -0.019328028, -289718.38, -37614.36 
1.10532895e+3, 2.842622e+2, -203919.39, -323836.2, 479.6678, -0.00225009, -0.019113163, -203917.47, -49688.895 
1.1053191e+3, 2.9424882e+2, -109288.06, -227310.5, 476.59515, -0.0034001744, -0.017807215, -109286.13, -52926.35 
1.1053092e+3, 3.0423865e+2, -16782.883, -84782.0, 163.63606, -0.0037283914, -0.016886137, -16782.488, -16782.488 
1.1052992e+3, 3.1423178e+2, -17532.975, -84470.98, 77.66213, -0.0028703487, -0.019232782, -17532.885, -17532.885 
1.1154923e+3, 1.2440289e+2, -1659171.6, -1720464.9, -64.74023, 0.0019078316, -0.00887752, -1659171.6, 61678.406 
1.11548215e+3, 1.3439828e+2, -1573139.0, -1643131.3, -793.7536, -0.00046103168, -0.0439007, -1573130.0, 49765.016 
1.115472e+3, 1.4439425e+2, -1481431.8, -1553832.6, -358.1094, 0.0019300403, 0.003500279, -1481429.9, 43504.83 
1.115462e+3, 1.5438928e+2, -1386037.9, -1457107.3, -185.95439, 0.0009361601, -0.016494527, -1386037.4, 40945.99 
1.11545205e+3, 1.6438381e+2, -1299258.1, -1378250.3, -139.31119, 0.0003947191, -0.024624204, -1299257.9, 29779.063 
1.115442e+3, 1.7437789e+2, -1203441.6, -1281440.6, -174.19489, 0.00047753446, -0.018577615, -1203441.3, 27653.846 
1.115432e+3, 1.8437132e+2, -1116123.6, -1201594.1, -266.69318, -0.00016390493, -0.015016093, -1116122.8, 17036.537 
1.115422e+3, 1.9436413e+2, -1020625.1, -1104849.4, -159.29492, -0.00173992, -0.017197497, -1020624.8, 14604.894 
1.115412e+3, 2.0435634e+2, -934003.2, -1026234.4, -175.60794, -0.0016448778, -0.01803717, -934002.9, 3303.2732 
1.115402e+3, 2.1434791e+2, -838418.7, -929450.3, -270.70096, 0.0005330895, -0.018966926, -838417.9, 970.80237 
1.115392e+3, 2.2433892e+2, -751065.3, -849687.2, -278.12955, 0.0005154453, -0.018042028, -751064.56, -9587.704 
1.1153819e+3, 2.3432934e+2, -655127.5, -752620.6, -194.54156, -0.0022825752, -0.017157234, -655127.1, -11556.506 
1.1153718e+3, 2.4431916e+2, -568356.4, -673748.5, -304.4095, -0.003023836, -0.016688762, -568355.5, -22684.908 
1.1153618e+3, 2.543083e+2, -473216.0, -577121.94, -329.5849, -0.0010653662, -0.01882356, -473214.97, -25438.232 
1.1153517e+3, 2.6429692e+2, -386080.16, -497608.34, -202.52736, -0.0010643539, -0.018393062, -386079.78, -36191.223 
1.1153417e+3, 2.742849e+2, -289628.88, -400191.38, -146.35738, -0.0036512115, -0.01711045, -289628.7, -37622.68 
1.1153316e+3, 2.8427222e+2, -203968.9, -323801.9, -350.3581, -0.0040383283, -0.016681425, -203967.88, -49837.43 
1.11532144e+3, 2.942588e+2, -109250.695, -227312.52, -382.865, -0.0015614019, -0.01979604, -109249.45, -52987.383 
1.1153114e+3, 3.0424863e+2, -16792.434, -84820.414, -124.22411, -0.0016592781, -0.019100204, -16792.207, -16792.207 
1.11530125e+3, 3.142418e+2, -17616.916, -84579.89, -159.80336, -0.0051399157, -0.01601313, -17616.535, -17616.535 
1.1254976e+3, 1.2441306e+2, -1658701.8, -1719461.0, 432.4583, 0.0019998248, -0.009184603, -1658698.6, 62051.656 
1.1254872e+3, 1.3440843e+2, -1573463.1, -1643785.3, 5.6962442, -0.00054839853, -0.043046296, -1573463.1, 49332.56 
1.12547696e+3, 1.4440435e+2, -1481246.3, -1553805.3, 505.28345, 0.0018578032, 0.003810069, -1481242.8, 43592.984 
1.1254668e+3, 1.5439938e+2, -1385452.4, -1456846.5, 414.17368, 0.0010298702, -0.016136868, -1385450.0, 41434.293 
1.1254567e+3, 1.6439392e+2, -1298630.1, -1377864.8, 374.9511, 0.00044458054, -0.024325306, -1298628.4, 30309.523 
1.1254464e+3, 1.74388e+2, -1203415.8, -1281321.1, 497.06754, 0.00017485544, -0.018469691, -1203412.6, 27583.334 
1.1254363e+3, 1.8438144e+2, -1116386.3, -1201786.6, 405.013, -0.0003787425, -0.014962016, -1116384.3, 16675.861 
1.12542614e+3, 1.9437425e+2, -1020643.7, -1104906.6, 266.59027, -0.0013312111, -0.01697688, -1020642.8, 14487.776 
1.12541586e+3, 2.0436646e+2, -933655.0, -1025918.4, 242.16417, -0.0012036685, -0.017687544, -933654.4, 3552.6516 
1.1254057e+3, 2.1435805e+2, -837923.0, -929021.2, 435.11646, 0.0002532873, -0.01861486, -837920.94, 1368.4261 
1.1253955e+3, 2.2434907e+2, -750831.9, -849571.3, 505.7585, 0.00011137455, -0.01774882, -750829.25, -9451.776 
1.12538524e+3, 2.3433949e+2, -655452.8, -752787.06, 415.5708, -0.0021101213, -0.016839793, -655451.0, -11979.731 
1.125375e+3, 2.443293e+2, -568459.8, -673700.75, 250.1629, -0.0027427014, -0.016331397, -568459.25, -22888.059 
1.1253649e+3, 2.5431848e+2, -472339.06, -576534.06, 329.01282, -0.0012416632, -0.01854256, -472338.03, -24660.797 
1.1253546e+3, 2.6430708e+2, -385258.78, -497282.8, 469.929, -0.0012363032, -0.01821369, -385256.8, -35467.746 
1.1253443e+3, 2.7429506e+2, -290157.8, -400483.47, 388.99277, -0.0032141544, -0.016980886, -290156.44, -38249.883 
1.1253341e+3, 2.842824e+2, -204372.39, -323877.56, 110.16591, -0.003587283, -0.016439606, -204372.28, -50341.34 
1.12532385e+3, 2.9426897e+2, -107988.73, -226532.73, 173.64874, -0.0018527706, -0.019246409, -107988.48, -51826.08 
1.1253136e+3, 3.042588e+2, -15696.81, -84401.766, 515.46783, -0.002091676, -0.018685175, -15692.942, -15692.942 
1.12530336e+3, 3.1425196e+2, -18861.86, -85270.31, 443.6019, -0.004888846, -0.016264165, -18858.896, -18858.896 
1.1355028e+3, 1.2442338e+2, -1658001.8, -1717939.3, -171.51938, 0.0023494503, -0.0093289325, -1658001.3, 62647.984 
1.1354923e+3, 1.3441876e+2, -1573555.5, -1643944.6, -599.37616, -0.00057257846, -0.041969564, -1573550.5, 49143.996 
1.135482e+3, 1.4441465e+2, -1481529.4, -1554317.4, -42.812054, 0.0015914342, 0.0038431217, -1481529.4, 43205.457 
1.13547154e+3, 1.5440965e+2, -1385752.6, -1457409.0, -115.89481, 0.0006542144, -0.015987342, -1385752.5, 41031.254 
1.1354612e+3, 1.6440417e+2, -1298509.4, -1377517.0, -278.86115, -0.00014775606, -0.024084484, -1298508.4, 30329.002 
1.1354508e+3, 1.7439829e+2, -1203219.3, -1280914.1, -174.7473, -0.00079562276, -0.018183544, -1203218.9, 27676.338 
1.13544054e+3, 1.8439172e+2, -1116627.3, -1202253.0, -148.57399, -0.00046668324, -0.015013691, -1116627.0, 16332.365 
1.1354302e+3, 1.9438449e+2, -1020913.8, -1105450.5, -263.16, 0.0010900572, -0.01781403, -1020913.0, 14117.294 
1.1354198e+3, 2.0437671e+2, -933357.75, -1025256.94, -294.8771, 0.00068965205, -0.018003473, -933356.8, 3749.8137 
1.1354094e+3, 2.1436837e+2, -837578.2, -928293.44, -119.48075, -0.0021852544, -0.016890075, -837578.06, 1610.225 
1.13539904e+3, 2.243594e+2, -751000.44, -849830.44, -154.77953, -0.0028155267, -0.016211715, -751000.2, -9723.973 
1.1353887e+3, 2.3434977e+2, -655619.5, -753134.0, -239.35487, -0.00064524234, -0.018200804, -655618.9, -12248.374 
1.1353783e+3, 2.4433957e+2, -568331.06, -673392.9, -220.41591, -0.0004028045, -0.017961208, -568330.6, -22860.123 
1.1353679e+3, 2.5432882e+2, -472178.3, -576207.0, -136.84605, -0.0025943823, -0.017143115, -472178.13, -24602.127 
1.13535754e+3, 2.6431742e+2, -385438.03, -497547.16, -257.48743, -0.0030132737, -0.016565552, -385437.44, -35749.668 
1.1353472e+3, 2.7430537e+2, -290294.72, -400819.94, -345.55447, -0.0010823745, -0.018679485, -290293.63, -38487.832 
1.1353367e+3, 2.8429267e+2, -204215.25, -323504.28, -313.3429, -0.0012273656, -0.018102499, -204214.44, -50284.21 
1.1353263e+3, 2.9427934e+2, -107812.83, -226153.56, -230.83916, -0.0040742033, -0.016437067, -107812.375, -51751.395 
1.1353158e+3, 3.0426916e+2, -15792.376, -84533.22, -323.79117, -0.0047735395, -0.015946792, -15790.851, -15790.851 
1.1353054e+3, 3.1426224e+2, -18917.348, -85464.38, -424.48083, -0.0025079527, -0.019643044, -18914.64, -18914.64 
1.1455081e+3, 1.244339e+2, -1657432.3, -1717003.1, 511.90167, 0.0020901747, -0.008904145, -1657427.9, 63118.285 
1.1454973e+3, 1.3442923e+2, -1573650.6, -1644599.9, -207.98093, -0.00043096257, -0.04112909, -1573650.0, 48941.867 
1.1454868e+3, 1.4442508e+2, -1481277.3, -1554104.1, 287.88202, 0.0018057477, 0.0028315415, -1481276.1, 43356.457 
1.1454763e+3, 1.5442011e+2, -1385975.3, -1457364.0, 526.51575, 0.0003734613, -0.015825717, -1385971.4, 40709.926 
1.1454658e+3, 1.6441464e+2, -1298795.3, -1377690.8, 483.56876, -0.0003774243, -0.02340698, -1298792.4, 29942.535 
1.1454553e+3, 1.7440873e+2, -1202873.5, -1280760.9, 381.08792, -0.0003377931, -0.01782359, -1202871.6, 27921.074 
1.1454447e+3, 1.844022e+2, -1115896.6, -1201740.9, 434.6127, 0.00003064707, -0.014847669, -1115894.4, 16962.477 
1.1454342e+3, 1.9439498e+2, -1020456.7, -1105050.1, 664.58716, 0.0007927378, -0.017666258, -1020451.5, 14476.15 
1.1454237e+3, 2.0438719e+2, -933299.6, -1025341.5, 654.60376, 0.00021002171, -0.017843677, -933294.94, 3708.9858 
1.1454132e+3, 2.1437885e+2, -837765.44, -928486.0, 426.46124, -0.0020882231, -0.016656842, -837763.44, 1322.2628 
1.1454026e+3, 2.2436987e+2, -750910.7, -849616.44, 282.59122, -0.0025302886, -0.015988473, -750909.9, -9736.3 
1.14539206e+3, 2.3436026e+2, -655065.06, -752628.2, 472.98184, -0.0006306606, -0.018138826, -655062.75, -11795.045 
1.14538155e+3, 2.4435006e+2, -567962.8, -673294.25, 576.58997, -0.0004754997, -0.017928677, -567959.7, -22592.059 
1.145371e+3, 2.543393e+2, -472552.16, -576441.56, 446.3782, -0.0025690342, -0.01690062, -472550.22, -25077.008 
1.1453605e+3, 2.643279e+2, -385626.8, -497493.97, 272.46988, -0.0030400997, -0.01618688, -385626.16, -36041.227 
1.1453499e+3, 2.7431586e+2, -289611.13, -400274.94, 444.60623, -0.0013215576, -0.018282805, -289609.34, -37906.527 
1.1453392e+3, 2.843032e+2, -203579.8, -323203.0, 589.3423, -0.0014137486, -0.017751992, -203576.89, -49749.754 
1.1453287e+3, 2.9428983e+2, -108382.26, -226358.47, 495.34152, -0.0038656765, -0.016176693, -108380.18, -52422.29 
1.14531815e+3, 3.0427969e+2, -16397.906, -84836.23, 242.40271, -0.004501215, -0.015693754, -16397.047, -16397.047 
1.1453075e+3, 3.1427276e+2, -18080.898, -85046.93, 211.71393, -0.002560624, -0.019326571, -18080.23, -18080.23 
1.1555133e+3, 1.2444459e+2, -1657355.6, -1716736.8, -59.82017, 0.0012409596, -0.0077800644, -1657355.6, 63085.8 
1.1555024e+3, 1.3443984e+2, -1574376.6, -1646007.6, -746.66455, -0.00021300136, -0.040473606, -1574368.9, 48119.21 
1.1554917e+3, 1.4443563e+2, -1481016.1, -1553459.0, -356.90387, 0.0023360152, 0.0009849024, -1481014.4, 43514.938 
1.155481e+3, 1.5443073e+2, -1385608.0, -1456591.3, -141.11296, 0.0001220974, -0.015631285, -1385607.8, 40969.543 
1.1554703e+3, 1.6442528e+2, -1298979.0, -1378033.9, -24.126139, -0.00034521904, -0.022348711, -1298979.0, 29651.533 
1.1554597e+3, 1.7441934e+2, -1203111.8, -1281202.3, -102.023, 0.0012952138, -0.017402034, -1203111.6, 27577.117 
1.155449e+3, 1.844128e+2, -1115572.5, -1200947.1, -171.693, 0.0009594859, -0.014485025, -1115572.1, 17180.715 
1.15543835e+3, 1.9440566e+2, -1020064.9, -1104189.9, 31.939047, -0.001838897, -0.016688872, -1020064.9, 14758.058 
1.1554276e+3, 2.0439787e+2, -933709.6, -1026118.7, 29.056658, -0.0023038904, -0.017274685, -933709.6, 3189.5942 
1.155417e+3, 2.1438944e+2, -838198.0, -929375.4, -177.03969, 0.00015644358, -0.017690534, -838197.6, 784.07434 
1.1554062e+3, 2.2438048e+2, -750603.56, -848945.9, -236.71527, 0.00045848454, -0.016875992, -750602.94, -9533.263 
1.1553955e+3, 2.3437095e+2, -654703.4, -751881.44, -57.121292, -0.0019068625, -0.016834235, -654703.4, -11540.249 
1.1553848e+3, 2.4436076e+2, -568207.75, -673722.6, -79.49523, -0.002657088, -0.01643187, -568207.7, -22944.809 
1.1553741e+3, 2.5434992e+2, -472796.4, -576972.9, -200.64113, -0.0013725014, -0.017649546, -472796.0, -25426.992 
1.1553634e+3, 2.6433852e+2, -385338.22, -496821.53, -231.16652, -0.001582163, -0.016895803, -385337.75, -35857.016 
1.1553527e+3, 2.743266e+2, -289259.47, -399565.53, -61.16668, -0.003686925, -0.016039763, -289259.4, -37661.61 
1.1553418e+3, 2.8431392e+2, -203737.92, -323421.97, -123.62527, -0.0038810219, -0.015627729, -203737.8, -50015.83 
1.15533106e+3, 2.943005e+2, -108506.35, -226683.17, -221.4342, -0.0015558642, -0.018148383, -108505.94, -52652.62 
1.1553203e+3, 3.0429035e+2, -16364.425, -84744.375, -247.7071, -0.0016913766, -0.017590633, -16363.527, -16363.527 
1.1553096e+3, 3.1428352e+2, -18039.81, -84957.6, -255.36415, -0.0048780506, -0.015709274, -18038.836, -18038.836 
1.1655185e+3, 1.2445542e+2, -1656722.0, -1715677.8, 401.19077, 0.0016605635, -0.008203585, -1656719.3, 63615.938 
1.1655074e+3, 1.3445066e+2, -1574873.1, -1646704.0, 59.506508, -0.00035774044, -0.038773917, -1574873.1, 47508.914 
1.16549656e+3, 1.4444639e+2, -1481084.9, -1553491.8, 518.24585, 0.0021912945, 0.00016381883, -1481081.3, 43342.6 
1.16548575e+3, 1.5444149e+2, -1385027.8, -1456256.4, 404.0008, 0.00046128797, -0.015589985, -1385025.5, 41446.215 
1.16547495e+3, 1.6443609e+2, -1298277.1, -1377545.9, 436.1645, -0.000033835826, -0.021952685, -1298274.8, 30250.088 
1.16546415e+3, 1.7443015e+2, -1203152.4, -1281043.5, 635.55994, 0.0009152968, -0.017310428, -1203147.3, 27435.668 
1.1654533e+3, 1.8442361e+2, -1115976.8, -1201207.9, 559.6794, 0.00049090636, -0.014412901, -1115973.1, 16673.87 
1.1654424e+3, 1.9441646e+2, -1020174.44, -1104280.0, 339.21182, -0.0016678233, -0.016303757, -1020173.06, 14543.977 
1.1654315e+3, 2.0440869e+2, -933414.25, -1025795.3, 316.35324, -0.0019251251, -0.016888453, -933413.1, 3380.0962 
1.1654206e+3, 2.1440028e+2, -837711.5, -928932.7, 615.4224, 0.00019087462, -0.017600296, -837707.4, 1168.2472 
1.16540976e+3, 2.2439131e+2, -750256.75, -848870.7, 678.6787, 0.00032413844, -0.016754512, -750252.06, -9288.531 
1.16539896e+3, 2.3438178e+2, -654677.94, -751948.6, 460.2556, -0.0020033724, -0.016327083, -654675.75, -11618.782 
1.1653881e+3, 2.443716e+2, -568040.5, -673492.7, 333.03937, -0.0027013381, -0.015880385, -568039.44, -22882.752 
1.1653772e+3, 2.5436077e+2, -472332.16, -576540.8, 560.4577, -0.0013091712, -0.01745508, -472329.13, -25066.418 
1.1653663e+3, 2.643494e+2, -385010.03, -496708.97, 605.7644, -0.0014445931, -0.016884185, -385006.75, -35632.395 
1.1653554e+3, 2.7433744e+2, -289461.16, -399665.34, 416.6808, -0.003558771, -0.015980309, -289459.6, -37968.117 
1.1653445e+3, 2.8432477e+2, -203792.73, -323322.16, 210.7047, -0.0038494503, -0.015510133, -203792.36, -50176.79 
1.1653335e+3, 2.943114e+2, -107942.5, -226213.13, 358.94794, -0.0017141182, -0.017981935, -107941.414, -52194.64 
1.1653225e+3, 3.043012e+2, -15849.226, -84662.05, 464.51526, -0.0018079834, -0.01733485, -15846.09, -15846.09 
1.1653116e+3, 3.1429437e+2, -18118.129, -85111.95, 297.3115, -0.004683917, -0.015209476, -18116.809, -18116.809 
1.1755238e+3, 1.2446639e+2, -1656060.4, -1714200.9, -246.79198, 0.0029221512, -0.009514916, -1656059.3, 64168.465 
1.1755126e+3, 1.3446166e+2, -1574892.0, -1646727.1, -587.94507, -0.00085165724, -0.03619581, -1574887.1, 47386.996 
1.1755015e+3, 1.4445736e+2, -1481365.8, -1554022.9, 12.939608, 0.0014609596, 0.0001900821, -1481365.8, 42950.516 
1.1754905e+3, 1.5445244e+2, -1385350.5, -1456857.1, -77.1071, 0.0012373093, -0.0156742, -1385350.5, 41014.125 
1.1754795e+3, 1.6444701e+2, -1298028.8, -1376905.1, -232.44267, 0.0004270427, -0.022081925, -1298028.0, 30389.709 
1.1754685e+3, 1.7444113e+2, -1202813.3, -1280320.0, -59.4055, -0.001185442, -0.017479252, -1202813.1, 27662.16 
1.1754575e+3, 1.8443461e+2, -1116361.0, -1201974.4, 14.120021, -0.0011854589, -0.014571708, -1116361.0, 16178.308 
1.1754465e+3, 1.9442739e+2, -1020600.4, -1105157.5, -173.84413, 0.00084346026, -0.0164189, -1020600.0, 14010.016 
1.17543556e+3, 2.0441961e+2, -932937.1, -1024726.3, -223.96042, 0.00084731117, -0.016641302, -932936.6, 3749.553 
1.17542446e+3, 2.144113e+2, -837168.94, -927774.4, 50.642075, -0.0016913423, -0.016551897, -837168.9, 1598.7441 
1.1754134e+3, 2.2440234e+2, -750661.25, -849597.06, 66.34903, -0.0024988318, -0.015760897, -750661.2, -9805.823 
1.1754023e+3, 2.3439275e+2, -655103.3, -752806.44, -137.56343, -0.0011019813, -0.016494203, -655103.06, -12153.574 
1.1753914e+3, 2.4438258e+2, -567694.4, -672688.06, -226.63861, -0.00093940756, -0.016131524, -567693.9, -22644.596 
1.1753803e+3, 2.5437182e+2, -471902.75, -575663.2, -11.993339, -0.0022779938, -0.016438305, -471902.75, -24748.18 
1.17536925e+3, 2.6436046e+2, -385332.9, -497293.22, -31.80823, -0.0024882986, -0.016232226, -385332.9, -36066.81 
1.17535815e+3, 2.743484e+2, -289785.06, -400382.53, -207.77115, -0.0012809748, -0.017809385, -289784.66, -38400.72 
1.17534705e+3, 2.8433576e+2, -203522.77, -322685.78, -330.43704, -0.0016862488, -0.017118715, -203521.84, -50013.758 
1.17533594e+3, 2.9432246e+2, -107595.12, -225539.3, -181.55003, -0.004091374, -0.015932988, -107594.836, -51956.367 
1.17532484e+3, 3.043123e+2, -16082.487, -85082.97, -162.54909, -0.004553924, -0.015191576, -16082.1045, -16082.1045 
1.17531374e+3, 3.1430537e+2, -18366.143, -85643.06, -320.77887, -0.0024175462, -0.017426478, -18364.613, -18364.613 
1.1855289e+3, 1.24477565e+2, -1655836.3, -1713448.9, 545.04785, 0.0026451978, -0.010638107, -1655831.0, 64287.266 
1.1855177e+3, 1.3447282e+2, -1574746.6, -1647080.8, -47.290882, -0.0006703041, -0.03395505, -1574746.5, 47418.203 
1.1855064e+3, 1.4446847e+2, -1480912.8, -1553752.4, 474.0595, 0.0017247013, -0.0007839541, -1480909.8, 43297.707 
1.18549526e+3, 1.5446356e+2, -1385724.3, -1456951.6, 667.3382, 0.0010190008, -0.015497887, -1385718.0, 40537.5 
1.18548416e+3, 1.6445816e+2, -1298511.8, -1377142.8, 575.0551, 0.00016048593, -0.021393532, -1298507.5, 29800.996 
1.1854729e+3, 1.7445228e+2, -1202461.9, -1280137.3, 417.43982, -0.0010140674, -0.017104235, -1202459.6, 27906.541 
1.1854618e+3, 1.8444574e+2, -1115611.3, -1201495.3, 497.7851, -0.000913378, -0.014429962, -1115608.4, 16821.74 
1.18545055e+3, 1.9443853e+2, -1020218.6, -1104816.6, 770.6699, 0.0008082049, -0.016389152, -1020211.6, 14289.087 
1.18543945e+3, 2.0443079e+2, -932814.3, -1024655.9, 761.2241, 0.0006777208, -0.01650439, -932808.0, 3768.77 
1.1854282e+3, 2.1442246e+2, -837177.75, -927721.06, 522.7057, -0.0017893707, -0.01607996, -837174.75, 1483.4314 
1.185417e+3, 2.2441353e+2, -750633.5, -849469.3, 440.67368, -0.002518954, -0.01530924, -750631.5, -9885.653 
1.1854058e+3, 2.3440394e+2, -654984.0, -752594.7, 686.994, -0.0010438809, -0.016444568, -654979.2, -12139.222 
1.1853947e+3, 2.4439375e+2, -567520.56, -672589.3, 697.54083, -0.0008658507, -0.016168363, -567515.94, -22576.29 
1.1853834e+3, 2.54383e+2, -471772.97, -575541.6, 515.7399, -0.0022905427, -0.01615809, -471770.38, -24725.508 
1.1853722e+3, 2.6437163e+2, -385050.66, -497107.9, 406.26883, -0.0025530942, -0.015764026, -385049.2, -35892.82 
1.185361e+3, 2.743596e+2, -289321.66, -400055.47, 599.623, -0.0013396805, -0.017339053, -289318.4, -38044.27 
1.1853496e+3, 2.8434697e+2, -203040.61, -322473.03, 563.9764, -0.0016811583, -0.016737342, -203037.95, -49639.7 
1.18533835e+3, 2.9433364e+2, -107453.086, -225386.8, 402.49933, -0.0039365697, -0.015792627, -107451.71, -51923.086 
1.185327e+3, 3.043235e+2, -16078.239, -85085.805, 308.02563, -0.0044403267, -0.015174171, -16076.864, -16076.864 
1.1853158e+3, 3.1431657e+2, -18365.025, -85617.17, 385.93896, -0.0026346692, -0.017227622, -18362.81, -18362.81 
1.1955342e+3, 1.2448892e+2, -1655762.6, -1713207.8, 47.20552, 0.0010475807, -0.011127463, -1655762.5, 64244.496 
1.1955227e+3, 1.3448413e+2, -1575340.1, -1648186.9, -515.11365, -0.0000056324993, -0.031990826, -1575336.4, 46717.496 
1.1955114e+3, 1.4447972e+2, -1480716.4, -1553214.8, -226.17383, 0.0027106814, -0.0025536516, -1480715.6, 43381.53 
1.1955e+3, 1.5447488e+2, -1385416.3, -1456317.4, -53.288445, -0.0000712679, -0.0151001, -1385416.3, 40728.37 
1.19548865e+3, 1.6446948e+2, -1298778.6, -1377668.0, 98.49664, -0.00074145437, -0.020029718, -1298778.5, 29419.045 
1.1954774e+3, 1.7446356e+2, -1202788.6, -1280766.5, -30.480047, 0.0010365532, -0.016285982, -1202788.5, 27467.04 
1.1954661e+3, 1.8445703e+2, -1115229.5, -1200562.4, -110.86551, 0.0009276739, -0.014032709, -1115229.4, 17090.145 
1.19545475e+3, 1.944499e+2, -1019749.1, -1103804.1, 133.01451, -0.0014166317, -0.016225249, -1019748.94, 14640.48 
1.19544335e+3, 2.0444216e+2, -933235.1, -1025458.4, 161.97554, -0.0020069666, -0.016436955, -933234.9, 3230.478 
1.195432e+3, 2.1443377e+2, -837629.8, -928655.94, -53.80595, -0.00039329453, -0.01608449, -837629.8, 917.6063 
1.1954206e+3, 2.2442484e+2, -750236.0, -848588.7, -128.53224, -0.00020058945, -0.015297178, -750235.8, -9600.697 
1.1954093e+3, 2.344153e+2, -654511.6, -751628.3, 102.18374, -0.0017635307, -0.016194144, -654511.5, -11783.034 
1.1953978e+3, 2.4440514e+2, -567839.44, -673183.0, 115.07067, -0.0022841508, -0.015994938, -567839.3, -23011.293 
1.1953865e+3, 2.5439435e+2, -472113.9, -576273.56, -50.922844, -0.0015066627, -0.016477203, -472113.88, -25180.053 
1.1953751e+3, 2.6438296e+2, -384762.13, -496383.16, -162.9733, -0.0018081302, -0.015416025, -384761.88, -35716.582 
1.1953636e+3, 2.7437103e+2, -288949.28, -399269.3, 19.567976, -0.0034886075, -0.014856001, -288949.28, -37786.973 
1.1953523e+3, 2.8435838e+2, -203304.06, -322917.03, -60.978024, -0.0036110075, -0.014615237, -203304.03, -50017.703 
1.1953408e+3, 2.94345e+2, -107692.45, -225959.19, -207.96089, -0.0016087311, -0.01729302, -107692.086, -52274.67 
1.19532935e+3, 3.0433485e+2, -15901.577, -84668.7, -308.0109, -0.0019016817, -0.016957238, -15900.197, -15900.197 
1.1953179e+3, 3.1432799e+2, -18142.693, -85184.125, -233.36638, -0.0051797386, -0.014932498, -18141.88, -18141.88 
1.2055394e+3, 1.2450042e+2, -1655171.6, -1712496.3, 518.6218, 0.0013826115, -0.011464089, -1655167.0, 64727.277 
1.20552786e+3, 1.3449563e+2, -1575954.4, -1648915.1, 184.58575, -0.0002581858, -0.029497143, -1575954.0, 45987.3 
1.2055162e+3, 1.4449117e+2, -1480867.9, -1553177.0, 493.8172, 0.0024245805, -0.004584976, -1480864.5, 43120.53 
1.20550476e+3, 1.5448636e+2, -1384584.0, -1455751.4, 456.47964, 0.000048389524, -0.015104207, -1384581.1, 41451.113 
1.2054933e+3, 1.6448097e+2, -1297869.5, -1377173.9, 596.5159, -0.0005051772, -0.019151168, -1297865.0, 30219.898 
1.2054818e+3, 1.7447506e+2, -1202848.3, -1280713.9, 759.00476, 0.0010460456, -0.015946917, -1202840.9, 27302.143 
1.20547034e+3, 1.8446852e+2, -1115595.8, -1200675.3, 685.44586, 0.0008210548, -0.013902956, -1115590.3, 16616.691 
1.2054587e+3, 1.944614e+2, -1019724.44, -1103692.3, 507.1573, -0.0015573015, -0.015836122, -1019721.4, 14555.341 
1.20544724e+3, 2.0445366e+2, -933000.3, -1025273.7, 477.65283, -0.0021042654, -0.016045153, -932997.9, 3354.7412 
1.2054358e+3, 2.144453e+2, -837449.8, -928481.94, 707.3231, -0.000317153, -0.016053634, -837444.3, 990.2877 
1.2054242e+3, 2.2443634e+2, -749974.56, -848431.1, 733.1913, -0.000060376435, -0.015345844, -749969.06, -9446.774 
1.20541275e+3, 2.3442683e+2, -654160.75, -751385.94, 554.7518, -0.0016851388, -0.01593172, -654157.6, -11542.002 
1.2054011e+3, 2.4441667e+2, -567489.9, -672943.6, 464.88782, -0.0022869522, -0.015628451, -567487.8, -22772.73 
1.20538965e+3, 2.544059e+2, -472016.13, -576110.2, 670.4607, -0.0016472402, -0.016279576, -472011.78, -25190.994 
1.205378e+3, 2.6439452e+2, -384736.13, -496364.63, 653.9476, -0.001924741, -0.015319218, -384732.3, -35800.094 
1.2053665e+3, 2.7438256e+2, -288926.22, -399178.2, 500.9988, -0.0033989097, -0.014755418, -288923.97, -37874.785 
1.20535485e+3, 2.8436995e+2, -203145.78, -322750.53, 355.24374, -0.003534732, -0.014397817, -203144.73, -49971.64 
1.2053432e+3, 2.9435655e+2, -107439.18, -225673.11, 536.3997, -0.0018235722, -0.01678543, -107436.74, -52132.715 
1.2053317e+3, 3.043464e+2, -15646.784, -84702.836, 469.42825, -0.002057843, -0.016451104, -15643.594, -15643.594 
1.2053199e+3, 3.1433955e+2, -17793.895, -85126.234, 229.87936, -0.004865409, -0.014915298, -17793.11, -17793.11 
1.21554464e+3, 1.2451209e+2, -1654858.0, -1711738.5, -143.55107, 0.0030509597, -0.010991197, -1654857.6, 64922.363 
1.2155329e+3, 1.3450731e+2, -1576047.0, -1649116.0, -461.03818, -0.0013084835, -0.026582226, -1576044.1, 45782.734 
1.2155211e+3, 1.4450277e+2, -1480991.6, -1553378.6, 32.765274, 0.0010702008, -0.006840667, -1480991.6, 42879.754 
1.21550955e+3, 1.5449797e+2, -1384763.8, -1456004.8, 14.891351, 0.0011119536, -0.015426421, -1384763.8, 41154.62 
1.2154979e+3, 1.6449262e+2, -1297685.8, -1376638.0, -103.00815, 0.0005939522, -0.018650582, -1297685.6, 30285.334 
1.2154862e+3, 1.7448673e+2, -1202566.4, -1280121.0, 38.780544, -0.0006846778, -0.015997257, -1202566.4, 27462.314 
1.21547446e+3, 1.8448019e+2, -1115917.0, -1201289.1, 155.0185, -0.0009541139, -0.013978738, -1115916.6, 16175.917 
1.2154629e+3, 1.9447304e+2, -1020088.44, -1104408.0, 5.6651893, 0.000028076993, -0.015261714, -1020088.44, 14074.307 
1.2154511e+3, 2.0446528e+2, -932655.56, -1024459.56, -100.442505, -0.000072023264, -0.015376298, -932655.5, 3583.1606 
1.21543944e+3, 2.1445699e+2, -837021.8, -927581.5, 106.51252, -0.0014035217, -0.015984401, -837021.7, 1298.4272 
1.2154279e+3, 2.2444804e+2, -750284.5, -849010.25, 179.34943, -0.0018044168, -0.015421317, -750284.2, -9876.54 
1.2154161e+3, 2.3443848e+2, -654513.5, -752096.25, 19.375372, -0.0009527115, -0.015630865, -654513.5, -12012.121 
1.2154044e+3, 2.4442834e+2, -567182.56, -672207.06, -151.99274, -0.0011202998, -0.015067722, -567182.3, -22581.477 
1.2153927e+3, 2.544176e+2, -471611.63, -575311.4, 33.58642, -0.0026383686, -0.015627047, -471611.6, -24905.607 
1.21538095e+3, 2.6440626e+2, -384974.4, -496793.28, 73.83734, -0.0028226946, -0.015421545, -384974.34, -36157.027 
1.21536925e+3, 2.7439424e+2, -289169.28, -399728.38, -60.636105, -0.0014039922, -0.016687784, -289169.25, -38234.42 
1.21535756e+3, 2.8438163e+2, -202838.08, -322007.22, -221.2202, -0.00178026, -0.01578955, -202837.67, -49779.008 
1.2153457e+3, 2.9436836e+2, -107041.055, -224909.73, -46.258255, -0.00431044, -0.014519888, -107041.03, -51852.31 
1.2153339e+3, 3.0435818e+2, -15985.24, -85378.24, -122.12922, -0.0046298523, -0.013953847, -15985.025, -15985.025 
1.2153222e+3, 3.1435123e+2, -18132.506, -85912.086, -346.49142, -0.002207987, -0.016858822, -18130.734, -18130.734 
1.22554995e+3, 1.245239e+2, -1654813.9, -1711268.9, 448.2067, 0.0030117363, -0.011775042, -1654810.3, 64854.06 
1.22553796e+3, 1.3451914e+2, -1575550.5, -1649001.0, 133.87457, -0.0011261551, -0.023451066, -1575550.3, 46160.617 
1.2255261e+3, 1.4451456e+2, -1480454.6, -1553086.4, 567.22815, 0.0012744935, -0.008656028, -1480450.1, 43305.73 
1.2255143e+3, 1.5450978e+2, -1385409.5, -1456251.5, 652.51324, 0.0010656561, -0.015137527, -1385403.5, 40399.168 
1.2255024e+3, 1.6450442e+2, -1298379.9, -1376841.5, 581.8559, 0.00042102975, -0.01757537, -1298375.6, 29479.512 
1.2254906e+3, 1.7449854e+2, -1202158.9, -1279762.5, 532.4192, -0.00086437975, -0.015744798, -1202155.3, 27757.563 
1.2254787e+3, 1.8449204e+2, -1115206.8, -1200885.9, 648.3355, -0.0010082272, -0.014115029, -1115201.9, 16774.762 
1.22546695e+3, 1.9448487e+2, -1019993.5, -1104280.0, 842.14856, 0.00027403748, -0.015269009, -1019985.1, 14061.639 
1.2254552e+3, 2.0447715e+2, -932660.75, -1024408.75, 836.0716, 0.0002112786, -0.015179483, -932653.1, 3469.3916 
1.22544326e+3, 2.1446884e+2, -836635.6, -927297.3, 688.9171, -0.0014383334, -0.015434524, -836630.4, 1573.5087 
1.2254314e+3, 2.2445992e+2, -749884.7, -848711.2, 651.22504, -0.0020243658, -0.014837594, -749880.4, -9589.008 
1.2254196e+3, 2.3445036e+2, -654621.25, -752027.2, 852.403, -0.0011838456, -0.015432282, -654613.8, -12228.749 
1.2254077e+3, 2.444402e+2, -567314.6, -672276.25, 786.43744, -0.0012124679, -0.014932914, -567308.75, -22824.246 
1.2253959e+3, 2.544295e+2, -471232.16, -575066.3, 609.30676, -0.002417998, -0.015167758, -471228.6, -24639.004 
1.2253839e+3, 2.6441813e+2, -384309.72, -496402.78, 532.6234, -0.0025900672, -0.014930954, -384307.2, -35606.324 
1.2253721e+3, 2.7440616e+2, -288792.7, -399429.75, 694.2062, -0.0015243064, -0.016505316, -288788.34, -37970.04 
1.2253601e+3, 2.8439352e+2, -202599.55, -321827.6, 577.7006, -0.0018900948, -0.015781013, -202596.75, -49654.676 
1.2253481e+3, 2.9438025e+2, -106887.984, -224658.9, 429.8131, -0.0039832145, -0.014511385, -106886.414, -51814.363 
1.2253362e+3, 3.0437008e+2, -15864.253, -85406.52, 322.0143, -0.0043508536, -0.013772081, -15862.763, -15862.763 
1.2253242e+3, 3.1436312e+2, -17901.805, -85824.41, 396.00012, -0.0025653502, -0.016373841, -17899.496, -17899.496 
1.2355552e+3, 1.2453586e+2, -1654665.9, -1710894.3, 16.15083, 0.0014960635, -0.012829681, -1654665.9, 64881.332 
1.2355431e+3, 1.3453114e+2, -1575740.3, -1649238.6, -278.96442, -0.00001396284, -0.02014324, -1575739.1, 45854.273 
1.235531e+3, 1.4452651e+2, -1480438.4, -1552903.6, -178.48009, 0.0026681554, -0.010107544, -1480438.0, 43200.934 
1.23551905e+3, 1.5452176e+2, -1385277.4, -1456013.9, -107.74293, 0.00005070798, -0.014354971, -1385277.3, 40408.117 
1.235507e+3, 1.6451642e+2, -1298452.6, -1376958.3, 157.58192, -0.0008478245, -0.016020993, -1298452.4, 29285.258 
1.2354951e+3, 1.7451051e+2, -1202294.6, -1279954.1, 128.77945, 0.00022436284, -0.015243559, -1202294.4, 27501.115 
1.2354831e+3, 1.8450402e+2, -1114951.5, -1200239.6, -10.893901, 0.00031908462, -0.0142936045, -1114951.5, 16907.793 
1.2354711e+3, 1.944969e+2, -1019643.4, -1103583.6, 157.976, -0.0006554203, -0.015737316, -1019643.06, 14285.814 
1.2354591e+3, 2.0448919e+2, -932902.94, -1024887.0, 330.16382, -0.0010271224, -0.015338323, -932901.75, 3102.7798 
1.23544715e+3, 2.1448085e+2, -836937.0, -927879.7, 208.77634, -0.00062219467, -0.014461971, -836936.5, 1149.6975 
1.2354351e+3, 2.2447194e+2, -749581.75, -848000.94, -11.620655, -0.0010040534, -0.013680701, -749581.75, -9408.119 
1.23542294e+3, 2.3446241e+2, -654222.25, -751240.25, 162.74385, -0.0022912328, -0.015308305, -654222.0, -11955.128 
1.235411e+3, 2.4445227e+2, -567590.4, -672834.4, 280.41306, -0.002426986, -0.015136132, -567589.6, -23223.424 
1.23539895e+3, 2.544415e+2, -471547.25, -575754.9, 129.49432, -0.0012000574, -0.014836245, -471547.1, -25075.357 
1.23538695e+3, 2.6443017e+2, -384070.75, -495760.53, -93.419716, -0.0014331219, -0.0138840275, -384070.7, -35487.7 
1.2353749e+3, 2.7441823e+2, -288459.6, -398745.3, 49.334145, -0.003536755, -0.014484594, -288459.56, -37759.72 
1.2353627e+3, 2.8440562e+2, -202822.67, -322220.1, -23.682156, -0.0036710578, -0.014550915, -202822.67, -49999.1 
1.2353506e+3, 2.943923e+2, -107081.26, -225174.47, -152.28868, -0.0012475216, -0.016420487, -107081.06, -52126.895 
1.2353385e+3, 3.0438212e+2, -15679.847, -84998.945, -226.59068, -0.0016792923, -0.015520138, -15679.105, -15679.105 
1.2353263e+3, 3.1437522e+2, -17670.59, -85394.16, -152.14749, -0.005755672, -0.013677737, -17670.248, -17670.248 
1.2455604e+3, 1.2454799e+2, -1654186.6, -1710429.6, 644.5123, 0.0014723788, -0.0139593985, -1654179.3, 65249.1 
1.2455481e+3, 1.345433e+2, -1576431.3, -1649571.0, 422.73914, 0.00006156156, -0.017006721, -1576428.8, 45045.355 
1.245536e+3, 1.4453863e+2, -1480902.1, -1553006.4, 556.58, 0.002783363, -0.012395142, -1480897.9, 42622.3 
1.24552384e+3, 1.5453392e+2, -1384338.5, -1455421.0, 579.29254, 0.00007816076, -0.01409733, -1384333.8, 41232.465 
1.2455116e+3, 1.645286e+2, -1297428.3, -1376408.8, 798.70734, -0.00080270594, -0.014810201, -1297420.3, 30198.068 
1.2454995e+3, 1.7452268e+2, -1202640.4, -1280060.1, 850.71185, 0.00044478054, -0.01507894, -1202631.0, 27045.227 
1.2454873e+3, 1.8451619e+2, -1115504.0, -1200407.1, 727.37006, 0.00046207785, -0.014381078, -1115497.8, 16242.213 
1.2454752e+3, 1.9450909e+2, -1019201.75, -1103236.1, 640.2846, -0.00089989736, -0.015126245, -1019196.9, 14612.634 
1.24546304e+3, 2.0450139e+2, -932301.6, -1024475.3, 727.1352, -0.0013821279, -0.014670094, -932295.9, 3589.1807 
1.2454508e+3, 2.1449305e+2, -837225.56, -927894.0, 913.2534, -0.0007336567, -0.014491961, -837216.4, 750.31116 
1.24543875e+3, 2.2448413e+2, -749923.06, -848159.06, 791.53705, -0.00088921096, -0.013848551, -749916.7, -9862.625 
1.2454265e+3, 2.3447463e+2, -653590.8, -750891.8, 628.593, -0.0020235924, -0.014930409, -653586.75, -11439.502 
1.2454143e+3, 2.4446449e+2, -566723.56, -672301.3, 653.4914, -0.0022523168, -0.01469614, -566719.56, -22473.023 
1.2454021e+3, 2.5445375e+2, -471582.25, -575609.25, 864.75146, -0.0014080764, -0.014891935, -471575.06, -25223.1 
1.2453899e+3, 2.6444238e+2, -384381.06, -495942.2, 746.74896, -0.0017052918, -0.013930186, -384376.06, -35912.89 
1.24537766e+3, 2.7443048e+2, -288325.72, -398603.4, 567.3158, -0.0034818382, -0.0139432615, -288322.8, -37742.844 
1.2453654e+3, 2.8441784e+2, -202293.23, -321924.63, 417.76147, -0.0035860646, -0.013863193, -202291.77, -49588.145 
1.24535315e+3, 2.9440454e+2, -106567.53, -224801.34, 555.83844, -0.001524735, -0.016144741, -106564.92, -51730.74 
1.24534085e+3, 3.0439436e+2, -15350.987, -84957.586, 497.39642, -0.0019200124, -0.015386183, -15347.434, -15347.434 
1.2453285e+3, 3.1438744e+2, -17663.232, -85463.03, 288.38223, -0.005392106, -0.013293035, -17662.006, -17662.006 
1.2555657e+3, 1.245603e+2, -1654175.1, -1710279.6, -55.730858, 0.0024642772, -0.01412101, -1654175.1, 65132.64 
1.2555532e+3, 1.3455565e+2, -1576385.3, -1649507.9, -260.34372, -0.0007562052, -0.014068868, -1576384.4, 44968.89 
1.2555408e+3, 1.445509e+2, -1480879.5, -1552918.6, 165.34236, 0.0018111881, -0.015386248, -1480879.1, 42520.605 
1.2555286e+3, 1.5454623e+2, -1384401.6, -1455405.5, 199.72983, 0.000909144, -0.014267316, -1384401.0, 41044.42 
1.2555163e+3, 1.6454095e+2, -1297446.8, -1376271.8, 35.712723, 0.00025905904, -0.013882754, -1297446.8, 30050.59 
1.2555039e+3, 1.7453504e+2, -1202540.1, -1279877.8, 70.52048, -0.0001070037, -0.015183447, -1202540.1, 27015.25 
1.2554915e+3, 1.8452851e+2, -1115652.5, -1200699.5, 311.7693, -0.00043762036, -0.01436603, -1115651.4, 15967.765 
1.2554793e+3, 1.9452143e+2, -1019415.5, -1103603.8, 249.33032, -0.0005993493, -0.013617193, -1019414.75, 14273.908 
1.255467e+3, 2.0451371e+2, -932047.6, -1023837.94, 27.073175, -0.0010365747, -0.013315101, -932047.56, 3716.5706 
1.2554546e+3, 2.1450542e+2, -836866.25, -927191.25, 184.1637, -0.0016683652, -0.0153565155, -836865.9, 979.6464 
1.2554422e+3, 2.244965e+2, -750165.9, -848662.3, 356.0298, -0.0015793149, -0.015104493, -750164.56, -10231.727 
1.25543e+3, 2.3448697e+2, -653905.7, -751512.94, 228.08293, -0.00063032913, -0.014318531, -653905.1, -11878.9 
1.2554176e+3, 2.4447685e+2, -566402.6, -671534.75, -40.15699, -0.00095129036, -0.013694014, -566402.6, -22277.164 
1.2554052e+3, 2.5446615e+2, -471146.44, -574778.94, 135.3599, -0.0028945159, -0.015262494, -471146.28, -24915.814 
1.2553929e+3, 2.644548e+2, -384636.97, -496412.8, 218.72813, -0.0032344663, -0.014883976, -384636.56, -36294.984 
1.2553805e+3, 2.7444285e+2, -288595.22, -399207.16, 68.32924, -0.0016838036, -0.014624404, -288595.16, -38136.41 
1.255368e+3, 2.8443024e+2, -202072.3, -321349.56, -158.18907, -0.0019657386, -0.01356538, -202072.1, -49489.715 
1.2553556e+3, 2.9441696e+2, -106246.33, -224229.17, -27.30917, -0.004486067, -0.013921936, -106246.32, -51533.99 
1.2553431e+3, 3.044068e+2, -15620.824, -85493.805, -139.63316, -0.0047624833, -0.013573277, -15620.545, -15620.545 
1.2553307e+3, 3.143998e+2, -17900.766, -86098.78, -342.4303, -0.0020749823, -0.014950636, -17899.047, -17899.047 
1.2655708e+3, 1.2457275e+2, -1654756.9, -1710565.1, 497.035, 0.002893658, -0.015447269, -1654752.5, 64433.277 
1.2655582e+3, 1.3456815e+2, -1575518.8, -1648927.6, 368.6083, -0.0009615431, -0.0104083745, -1575516.9, 45713.676 
1.2655458e+3, 1.4456339e+2, -1480104.4, -1552482.1, 702.5463, 0.0014453012, -0.01739817, -1480097.6, 43179.938 
1.2655333e+3, 1.5455873e+2, -1385229.5, -1455727.0, 725.34155, 0.0010184556, -0.014492049, -1385222.0, 40101.047 
1.2655209e+3, 1.6455345e+2, -1298257.4, -1376524.9, 653.934, 0.00044759817, -0.013124658, -1298251.9, 29122.89 
1.2655082e+3, 1.7454757e+2, -1201651.0, -1279277.6, 689.1761, -0.00031414698, -0.01433932, -1201644.9, 27787.748 
1.2654959e+3, 1.8454106e+2, -1114557.6, -1200111.6, 924.60004, -0.00068590866, -0.01377959, -1114547.6, 16948.732 
1.2654833e+3, 1.9453394e+2, -1019821.75, -1103728.3, 1040.9722, -0.0004889325, -0.013702769, -1019808.9, 13757.07 
1.265471e+3, 2.0452625e+2, -932616.3, -1024105.9, 883.29297, -0.0007508731, -0.013438994, -932607.8, 3033.5676 
1.2654583e+3, 2.1451797e+2, -836096.6, -926783.56, 757.89984, -0.0014329765, -0.014773352, -836090.3, 1632.3322 
1.265446e+3, 2.2450905e+2, -749178.44, -848048.0, 856.05994, -0.0015291466, -0.014408101, -749171.06, -9361.152 
1.2654334e+3, 2.3449953e+2, -654248.4, -751515.5, 1077.7743, -0.00091600366, -0.014208305, -654236.44, -12333.225 
1.2654209e+3, 2.4448942e+2, -566996.7, -671820.6, 883.887, -0.0012190173, -0.013653673, -566989.25, -22986.857 
1.2654084e+3, 2.544787e+2, -470617.88, -574457.44, 680.69714, -0.0027601267, -0.014671404, -470613.4, -24506.098 
1.2653959e+3, 2.644674e+2, -383657.53, -495818.3, 670.77716, -0.0030112397, -0.0143063795, -383653.53, -35435.14 
1.2653834e+3, 2.7445543e+2, -288225.66, -398846.8, 847.1514, -0.0017109556, -0.014729617, -288219.16, -37883.645 
1.2653707e+3, 2.844428e+2, -201985.28, -321308.8, 693.2234, -0.0020335107, -0.013735017, -201981.25, -49522.168 
1.265358e+3, 2.9442957e+2, -106163.73, -224065.44, 544.70166, -0.0043752897, -0.013419378, -106161.21, -51572.246 
1.2653455e+3, 3.044194e+2, -15423.725, -85460.805, 370.59708, -0.00467754, -0.01300662, -15421.764, -15421.764 
1.2653327e+3, 3.1441242e+2, -17535.27, -85947.75, 424.64, -0.0021348645, -0.015138638, -17532.635, -17532.635 
1.275576e+3, 1.24585345e+2, -1654809.0, -1710656.0, 158.53212, 0.0027481485, -0.016446665, -1654808.6, 64253.78 
1.2755634e+3, 1.3458084e+2, -1575445.8, -1648606.9, 46.773846, -0.0007377627, -0.006145583, -1575445.8, 45660.77 
1.2755507e+3, 1.44576e+2, -1480172.4, -1552456.3, -81.262825, 0.0014930217, -0.018622605, -1480172.4, 42981.484 
1.275538e+3, 1.5457138e+2, -1385188.5, -1455685.6, -71.85264, 0.00047075716, -0.0147637995, -1385188.4, 40010.76 
1.2755254e+3, 1.6456611e+2, -1298150.8, -1376320.8, 324.62643, -0.00013922226, -0.012477322, -1298149.4, 29101.438 
1.2755129e+3, 1.7456025e+2, -1201647.6, -1279140.0, 375.549, -0.0002657481, -0.01270663, -1201645.8, 27662.611 
1.2755e+3, 1.8455376e+2, -1114468.8, -1199757.8, 139.18964, -0.0004422052, -0.012715453, -1114468.5, 16903.412 
1.2754874e+3, 1.9454664e+2, -1019601.3, -1103327.8, 229.32764, -0.0005904954, -0.015093066, -1019600.7, 13840.778 
1.2754749e+3, 2.0453896e+2, -932799.0, -1024522.56, 499.2326, -0.00057487836, -0.014752542, -932796.3, 2720.6157 
1.2754622e+3, 2.1453066e+2, -836364.44, -927291.06, 409.74713, -0.00025717056, -0.012964398, -836362.6, 1235.5867 
1.2754495e+3, 2.2452177e+2, -748858.0, -847304.3, 118.430115, -0.00090097723, -0.012075288, -748857.8, -9172.488 
1.2754369e+3, 2.3451227e+2, -653812.56, -750693.7, 302.9434, -0.002667325, -0.014519632, -653811.6, -12033.251 
1.2754242e+3, 2.4450217e+2, -567268.1, -672401.75, 444.41776, -0.002857427, -0.014406019, -567266.25, -23388.746 
1.2754115e+3, 2.5449142e+2, -470950.8, -575168.0, 275.65894, -0.001289607, -0.0132415015, -470950.1, -24967.404 
1.2753987e+3, 2.644801e+2, -383377.47, -495126.88, 20.898924, -0.001345741, -0.012384311, -383377.44, -35283.742 
1.275386e+3, 2.7446818e+2, -287839.2, -398113.34, 171.9866, -0.0033838975, -0.014317206, -287838.9, -37628.465 
1.2753733e+3, 2.8445557e+2, -202211.55, -321708.4, 104.667274, -0.003622583, -0.014282187, -202211.45, -49877.49 
1.2753606e+3, 2.944423e+2, -106362.4, -224592.17, -22.559473, -0.0016403965, -0.014332266, -106362.39, -51898.176 
1.2753478e+3, 3.0443212e+2, -15230.609, -85054.57, -211.98604, -0.0021484406, -0.013389799, -15229.966, -15229.966 
1.275335e+3, 3.1442517e+2, -17285.254, -85554.14, -152.48697, -0.0053545455, -0.013883379, -17284.914, -17284.914 
1.2855813e+3, 1.245981e+2, -1654323.1, -1710600.4, 717.9092, 0.0022103377, -0.017092483, -1654314.0, 64623.344 
1.2855685e+3, 1.3459367e+2, -1576058.8, -1648495.5, 644.249, -0.00029083053, -0.0031572923, -1576053.1, 44927.73 
1.2855557e+3, 1.4458881e+2, -1480814.4, -1552606.4, 579.6876, 0.0020083387, -0.02109854, -1480809.6, 42218.78 
1.2855428e+3, 1.5458421e+2, -1384004.3, -1454970.9, 638.9149, 0.00022645046, -0.013902783, -1383998.5, 41074.88 
1.28553e+3, 1.6457896e+2, -1297002.1, -1375699.0, 945.5451, -0.00051022816, -0.010736886, -1296990.8, 30134.027 
1.2855172e+3, 1.7457308e+2, -1202638.1, -1279547.9, 935.83466, -0.000037190788, -0.01301022, -1202626.8, 26555.844 
1.2855044e+3, 1.845666e+2, -1115580.1, -1200177.5, 756.2734, -0.00005502529, -0.013473714, -1115573.4, 15672.642 
1.2854916e+3, 1.9455953e+2, -1018663.2, -1102731.3, 750.8775, -0.0005686561, -0.014419683, -1018656.5, 14658.888 
1.2854788e+3, 2.0455183e+2, -931531.94, -1023783.44, 994.7631, -0.0007544428, -0.013751682, -931521.25, 3869.4167 
1.2854661e+3, 2.1454355e+2, -836789.7, -927364.44, 1186.771, -0.00047910964, -0.012938649, -836774.1, 697.8038 
1.2854533e+3, 2.2453465e+2, -749561.25, -847623.3, 944.5482, -0.0010139267, -0.012255267, -749552.1, -9993.074 
1.2854403e+3, 2.3452517e+2, -653046.44, -750274.94, 775.2968, -0.0025265373, -0.013971044, -653040.25, -11388.257 
1.2854275e+3, 2.4451506e+2, -566172.4, -671775.7, 858.4008, -0.0026661314, -0.013749116, -566165.44, -22414.4 
1.2854147e+3, 2.5450432e+2, -471039.53, -575078.6, 1049.4701, -0.0012512293, -0.013231137, -471028.97, -25172.746 
1.2854019e+3, 2.6449302e+2, -383779.28, -495380.34, 854.9459, -0.001407949, -0.012419003, -383772.72, -35805.504 
1.2853889e+3, 2.7448112e+2, -287508.9, -397922.8, 628.12384, -0.0034519387, -0.013700958, -287505.3, -37421.37 
1.285376e+3, 2.844685e+2, -201377.17, -321114.88, 466.01862, -0.0036511922, -0.013722006, -201375.36, -49167.96 
1.2853631e+3, 2.9445523e+2, -105824.23, -224055.88, 688.71967, -0.0015761547, -0.014569641, -105820.21, -51482.68 
1.28535e+3, 3.0444506e+2, -15033.865, -85212.27, 556.50684, -0.0021008612, -0.013566929, -15029.452, -15029.452 
1.2853372e+3, 3.1443807e+2, -17059.408, -85646.5, 251.79955, -0.0053294776, -0.013182168, -17058.482, -17058.482 
1.2955865e+3, 1.2461102e+2, -1654664.1, -1711123.9, -9.206199, 0.0012240476, -0.016099265, -1654664.1, 64146.55 
1.2955734e+3, 1.3460663e+2, -1575792.5, -1647964.6, -71.43952, 0.00028037498, -0.0012986263, -1575792.5, 45061.29 
1.2955606e+3, 1.4460175e+2, -1480686.9, -1552325.5, 268.31848, 0.0028380626, -0.024616566, -1480685.9, 42215.72 
1.2955476e+3, 1.5459722e+2, -1383999.0, -1454770.4, 333.43704, 0.0001796686, -0.012115338, -1383997.4, 40948.45 
1.2955347e+3, 1.6459201e+2, -1297144.6, -1375774.5, 81.61294, -0.00076310075, -0.00811514, -1297144.5, 29852.557 
1.2955216e+3, 1.7458606e+2, -1202628.9, -1279580.4, 50.72942, 0.00027831044, -0.014905414, -1202628.8, 26426.48 
1.2955086e+3, 1.8457958e+2, -1115541.3, -1200147.5, 491.58853, 0.00038350016, -0.015702402, -1115538.4, 15580.463 
1.2954958e+3, 1.9457255e+2, -1018737.4, -1102774.6, 514.4227, -0.00047884297, -0.012029422, -1018734.25, 14453.528 
1.2954828e+3, 2.045649e+2, -931320.8, -1023182.06, 209.23094, -0.0012675708, -0.010844463, -931320.4, 3942.4536 
1.2954699e+3, 2.1455659e+2, -836453.0, -926700.2, 367.76276, -0.0019033006, -0.014407532, -836451.5, 892.5465 
1.2954567e+3, 2.2454771e+2, -749813.56, -848156.7, 551.13934, -0.0017750965, -0.014518953, -749810.5, -10379.332 
1.2954438e+3, 2.3453823e+2, -653361.94, -750910.8, 419.35413, -0.0008249162, -0.01269869, -653360.1, -11835.972 
1.295431e+3, 2.4452811e+2, -565868.8, -671059.4, 160.47694, -0.0009860457, -0.011909354, -565868.56, -22245.375 
1.2954178e+3, 2.545174e+2, -470625.66, -574301.7, 318.14532, -0.002487804, -0.014423325, -470624.66, -24896.584 
1.2954047e+3, 2.6450607e+2, -384102.13, -496028.1, 378.20572, -0.0029729968, -0.014096687, -384100.84, -36261.777 
1.2953919e+3, 2.7449414e+2, -287865.9, -398715.88, 183.11902, -0.002187491, -0.012856051, -287865.63, -37909.508 
1.2953788e+3, 2.8448156e+2, -201018.2, -320238.0, -164.85643, -0.0024212727, -0.012104548, -201017.97, -48938.496 
1.2953655e+3, 2.944683e+2, -105341.81, -223158.45, 36.096264, -0.0039108973, -0.014144917, -105341.8, -51132.723 
1.2953526e+3, 3.0445817e+2, -15463.812, -86112.695, -32.1486, -0.004284282, -0.013502401, -15463.797, -15463.797 
1.2953393e+3, 3.1445113e+2, -17494.434, -86691.195, -304.27713, -0.002602097, -0.012858601, -17493.096, -17493.096 
1.3055916e+3, 1.2462408e+2, -1655664.0, -1712060.5, 529.0685, 0.0018575451, -0.017469589, -1655659.0, 63023.785 
1.3055786e+3, 1.3461979e+2, -1574546.1, -1646804.8, 570.8824, -0.00012421206, 0.0019321977, -1574541.6, 46183.242 
1.3055654e+3, 1.4461489e+2, -1479832.4, -1551763.1, 814.3925, 0.0022256025, -0.026336055, -1479823.1, 42949.715 
1.3055524e+3, 1.546104e+2, -1385226.1, -1455208.6, 833.09216, 0.00050128513, -0.012345284, -1385216.3, 39600.68 
1.3055392e+3, 1.646052e+2, -1298281.4, -1376224.6, 713.1062, -0.00026255692, -0.007452583, -1298274.9, 28593.06 
1.305526e+3, 1.7459926e+2, -1201206.8, -1278776.1, 769.3486, 0.00009291924, -0.014052884, -1201199.1, 27726.93 
1.305513e+3, 1.8459277e+2, -1113869.3, -1199257.8, 1184.6633, 0.000021316864, -0.015084024, -1113852.9, 17136.66 
1.3054998e+3, 1.9458576e+2, -1019544.94, -1103065.9, 1255.1321, -0.00044961117, -0.012130514, -1019526.1, 13532.313 
1.3054867e+3, 2.045781e+2, -932551.56, -1023707.25, 945.1537, -0.0010859062, -0.011003816, -932541.75, 2591.6338 
1.3054736e+3, 2.1456982e+2, -835786.2, -926281.8, 864.57153, -0.0018583351, -0.013842782, -835777.94, 1436.5575 
1.3054605e+3, 2.2456095e+2, -748695.6, -847535.44, 1043.1353, -0.0017511237, -0.013883775, -748684.6, -9383.094 
1.3054474e+3, 2.3455146e+2, -653544.1, -750893.7, 1232.9507, -0.0006964924, -0.012722257, -653528.56, -12133.995 
1.3054343e+3, 2.4454135e+2, -566215.06, -671188.4, 1001.657, -0.00091062643, -0.011991111, -566205.5, -22712.03 
1.305421e+3, 2.5453067e+2, -469858.1, -573828.56, 835.0529, -0.0026508318, -0.0138882315, -469851.38, -24253.092 
1.3054079e+3, 2.6451933e+2, -383093.28, -495402.84, 880.2377, -0.0031280692, -0.013529113, -383086.38, -35377.188 
1.3053946e+3, 2.745074e+2, -287838.88, -398522.1, 1111.2406, -0.0020123941, -0.012920107, -287827.72, -38001.55 
1.3053815e+3, 2.8449482e+2, -201267.9, -320452.94, 830.7363, -0.002194397, -0.012141325, -201262.11, -49312.598 
1.3053681e+3, 2.944816e+2, -104990.12, -222963.95, 556.928, -0.0039816885, -0.013427078, -104987.49, -50908.367 
1.3053548e+3, 3.0447143e+2, -14812.549, -85769.02, 380.24026, -0.0044391556, -0.01280918, -14810.511, -14810.511 
1.3053416e+3, 3.144644e+2, -17324.99, -86546.17, 636.5002, -0.002476217, -0.013053315, -17319.139, -17319.139 
1.315597e+3, 1.24637276e+2, -1655935.4, -1712624.1, 231.2264, 0.0036483873, -0.018813169, -1655934.4, 62619.105 
1.3155836e+3, 1.3463311e+2, -1574198.5, -1645909.3, 296.27188, -0.0013636462, 0.0063456083, -1574197.3, 46397.14 
1.3155705e+3, 1.4462818e+2, -1479886.6, -1551680.4, -18.761173, 0.0003854012, -0.026586415, -1479886.6, 42755.9 
1.315557e+3, 1.5462369e+2, -1385145.6, -1455097.9, -25.986008, 0.0010507617, -0.0142276585, -1385145.6, 39541.01 
1.3155437e+3, 1.646185e+2, -1298112.4, -1375910.4, 497.7451, 0.00077567005, -0.008357708, -1298109.3, 28628.184 
1.3155305e+3, 1.7461264e+2, -1201171.6, -1278534.0, 575.23096, -0.0005554352, -0.010931475, -1201167.3, 27627.635 
1.3155173e+3, 1.8460616e+2, -1113898.1, -1199106.0, 297.7413, -0.0010477288, -0.012137798, -1113897.0, 16961.256 
1.3155039e+3, 1.945991e+2, -1019421.9, -1102862.0, 336.97055, -0.0005043634, -0.014288557, -1019420.56, 13506.947 
1.3154908e+3, 2.0459145e+2, -932660.1, -1023984.1, 620.301, -0.00037264274, -0.013669173, -932655.94, 2346.625 
1.3154775e+3, 2.145832e+2, -835978.44, -926638.7, 577.0422, -0.00062547874, -0.011578495, -835974.75, 1108.6637 
1.3154641e+3, 2.2457434e+2, -748439.75, -846905.6, 357.23624, -0.0011081916, -0.010839538, -748438.5, -9268.201 
1.3154508e+3, 2.3456486e+2, -653196.56, -750216.4, 516.6421, -0.0019289205, -0.013841307, -653193.8, -11930.573 
1.3154376e+3, 2.4455476e+2, -566455.75, -671638.6, 564.03204, -0.002227161, -0.013680813, -566452.75, -23090.611 
1.3154243e+3, 2.5454408e+2, -470127.84, -574382.0, 422.22452, -0.0019494042, -0.011863823, -470126.13, -24659.188 
1.3154109e+3, 2.6453277e+2, -382711.5, -494500.4, 174.444, -0.0021426615, -0.011004202, -382711.25, -35133.53 
1.3153976e+3, 2.7452087e+2, -287344.44, -397576.22, 375.91345, -0.0028523712, -0.013751126, -287343.16, -37648.84 
1.3153842e+3, 2.8450826e+2, -201697.45, -321304.78, 328.9072, -0.0029057635, -0.013589616, -201696.55, -49878.88 
1.3153708e+3, 2.94495e+2, -105438.59, -223997.42, 91.96913, -0.0021609003, -0.012349519, -105438.52, -51490.785 
1.3153572e+3, 3.0448484e+2, -14346.805, -84775.44, -313.99875, -0.002942634, -0.01139346, -14345.404, -14345.404 
1.3153437e+3, 3.1447783e+2, -16745.447, -85490.766, -69.98866, -0.0047841202, -0.013667842, -16745.375, -16745.375 
1.3256021e+3, 1.24650635e+2, -1655646.8, -1712927.1, 764.49426, 0.0029892344, -0.019600745, -1655636.5, 62786.06 
1.3255887e+3, 1.3464658e+2, -1574762.3, -1645237.4, 916.0488, -0.00077609654, 0.008602693, -1574750.4, 45712.094 
1.3255753e+3, 1.4464167e+2, -1480851.8, -1552106.9, 662.4454, 0.0010295268, -0.028324284, -1480845.6, 41664.91 
1.3255617e+3, 1.5463719e+2, -1383885.0, -1454481.0, 614.45374, 0.00079246284, -0.013837439, -1383879.6, 40674.758 
1.3255483e+3, 1.6463202e+2, -1296720.5, -1375046.3, 1060.2947, 0.00037726643, -0.007338414, -1296706.1, 29898.922 
1.3255349e+3, 1.7462616e+2, -1202394.9, -1278913.9, 1114.9554, -0.00027384606, -0.011027116, -1202378.6, 26283.86 
1.3255215e+3, 1.8461971e+2, -1115389.9, -1199765.9, 864.01373, -0.00065585395, -0.012403665, -1115381.0, 15344.78 
1.325508e+3, 1.9461265e+2, -1018314.06, -1102263.3, 850.14636, -0.0006593672, -0.013606215, -1018305.44, 14489.378 
1.3254946e+3, 2.04605e+2, -930951.0, -1023095.06, 1160.031, -0.0005826743, -0.012905136, -930936.4, 3933.435 
1.3254812e+3, 2.1459673e+2, -836066.4, -926603.2, 1302.0906, -0.00033089114, -0.011729105, -836047.6, 903.0866 
1.3254678e+3, 2.2458789e+2, -748970.44, -847071.1, 1072.5377, -0.0008056253, -0.011062716, -748958.75, -9921.196 
1.3254544e+3, 2.3457842e+2, -652681.75, -749841.75, 979.9305, -0.0022319641, -0.013234122, -652671.9, -11541.562 
1.3254409e+3, 2.4456833e+2, -565810.3, -671270.44, 1026.331, -0.0025826609, -0.012994886, -565800.3, -22571.229 
1.3254274e+3, 2.5455764e+2, -470419.0, -574435.2, 1158.2347, -0.0016895208, -0.01188167, -470406.1, -25072.143 
1.3254139e+3, 2.6454633e+2, -382935.22, -494627.94, 873.85254, -0.0017780476, -0.011091734, -382928.4, -35483.695 
1.3254003e+3, 2.7453446e+2, -286454.44, -397076.9, 646.6439, -0.0029606088, -0.013227997, -286450.66, -36889.402 
1.3253869e+3, 2.8452185e+2, -200459.6, -320564.5, 578.8713, -0.003124124, -0.013056283, -200456.81, -48772.285 
1.3253734e+3, 2.945086e+2, -105223.37, -223678.19, 915.8774, -0.0020286883, -0.012467446, -105216.29, -51401.78 
1.3253598e+3, 3.0449843e+2, -14500.475, -85077.1, 560.107, -0.0027480575, -0.011559743, -14496.03, -14496.03 
1.3253461e+3, 3.1449142e+2, -16121.126, -85362.07, 154.61581, -0.0048801135, -0.013110155, -16120.781, -16120.781 
1.3356073e+3, 1.2466417e+2, -1656146.6, -1713712.3, -0.055203695, 0.00025683522, -0.01801847, -1656146.6, 62143.375 
1.3355938e+3, 1.3466018e+2, -1574113.0, -1643909.1, 150.19832, 0.0011960329, 0.009036265, -1574112.8, 46216.39 
1.3355802e+3, 1.4465529e+2, -1480845.8, -1552102.5, 385.6193, 0.0035651776, -0.031267248, -1480843.6, 41533.367 
1.3355665e+3, 1.5465087e+2, -1384033.6, -1454612.8, 366.15524, -0.00016902239, -0.011576603, -1384031.8, 40388.695 
1.335553e+3, 1.6464569e+2, -1296738.9, -1374877.3, 193.92923, -0.0012250304, -0.0047539417, -1296738.4, 29732.678 
1.3355394e+3, 1.746398e+2, -1202265.3, -1278684.9, 214.86156, 0.00071590167, -0.013764334, -1202264.6, 26264.17 
1.3355258e+3, 1.8463334e+2, -1115362.8, -1199751.3, 630.65015, 0.00086172164, -0.015277301, -1115358.1, 15233.973 
1.3355123e+3, 1.9462636e+2, -1018406.2, -1102329.8, 648.9342, -0.0009497698, -0.010575687, -1018401.2, 14259.423 
1.3354987e+3, 2.046187e+2, -930870.94, -1022728.0, 410.7665, -0.0015962718, -0.009333194, -930869.1, 3866.2861 
1.3354851e+3, 2.1461044e+2, -835873.8, -926192.8, 525.0446, -0.000842875, -0.01389582, -835870.75, 945.75543 
1.3354714e+3, 2.2460158e+2, -749122.56, -847353.06, 633.68896, -0.0008096574, -0.013987634, -749118.44, -10215.097 
1.3354579e+3, 2.3459214e+2, -652859.2, -750181.7, 563.02527, -0.001783265, -0.011174419, -652855.9, -11860.011 
1.3354443e+3, 2.4458206e+2, -565588.25, -670720.75, 377.1227, -0.0021783498, -0.010311067, -565586.9, -22492.297 
1.3354306e+3, 2.5457138e+2, -470109.97, -573866.94, 490.55054, -0.001855309, -0.013647162, -470107.66, -24908.207 
1.335417e+3, 2.6456004e+2, -383282.22, -495303.03, 455.12085, -0.0019824104, -0.013398721, -383280.34, -35970.094 
1.3354033e+3, 2.7454814e+2, -286829.7, -397889.8, 254.3656, -0.0025135027, -0.011487291, -286829.13, -37402.13 
1.3353896e+3, 2.845356e+2, -199939.75, -319324.72, -137.66095, -0.0030294464, -0.010707961, -199939.6, -48389.504 
1.3353759e+3, 2.9452237e+2, -104562.2, -222398.58, 166.31274, -0.0034549923, -0.01361522, -104561.97, -50882.484 
1.335362e+3, 3.045122e+2, -15151.629, -86437.04, 49.13711, -0.0037491843, -0.013106939, -15151.595, -15151.595 
1.3353483e+3, 3.1450513e+2, -16851.037, -86944.555, -296.15002, -0.0031225523, -0.011342778, -16849.787, -16849.787 
1.3456126e+3, 1.2467783e+2, -1657566.9, -1715240.6, 598.7868, 0.00075913244, -0.01940307, -1657560.8, 60595.504 
1.3455987e+3, 1.3467395e+2, -1572668.5, -1642341.5, 667.1208, 0.0008392107, 0.01071654, -1572662.1, 47532.047 
1.3455851e+3, 1.4466909e+2, -1479797.4, -1551355.9, 842.8227, 0.0029813335, -0.032001395, -1479787.5, 42454.395 
1.3455713e+3, 1.5466467e+2, -1385084.9, -1454897.8, 970.9872, 0.00010418326, -0.011326477, -1385071.4, 39213.62 
1.3455574e+3, 1.6465953e+2, -1297904.6, -1375430.8, 871.96765, -0.0008071098, -0.004063438, -1297894.8, 28440.717 
1.3455439e+3, 1.7465362e+2, -1201052.5, -1278089.9, 803.8399, 0.0004624619, -0.013265597, -1201044.1, 27349.117 
1.34553e+3, 1.8464719e+2, -1113807.9, -1198856.8, 1227.3317, 0.00058675325, -0.015066103, -1113790.3, 16666.219 
1.3455163e+3, 1.946402e+2, -1019090.9, -1102486.4, 1340.1619, -0.00054207357, -0.010745257, -1019069.3, 13455.556 
1.3455027e+3, 2.0463258e+2, -931985.2, -1023141.8, 1107.327, -0.0012199244, -0.009361602, -931971.75, 2627.8118 
1.3454889e+3, 2.1462433e+2, -835365.44, -925783.1, 1110.4581, -0.0013796873, -0.013233708, -835351.8, 1328.669 
1.3454752e+3, 2.2461547e+2, -748191.7, -846894.56, 1216.0438, -0.0013594246, -0.013318577, -748176.7, -9409.441 
1.3454615e+3, 2.3460601e+2, -652795.1, -750110.56, 1286.0139, -0.0012496642, -0.011233316, -652778.1, -11918.295 
1.3454476e+3, 2.4459594e+2, -565454.94, -670581.9, 1105.7089, -0.0014844171, -0.010444269, -565443.25, -22484.768 
1.3454339e+3, 2.5458527e+2, -469154.7, -573265.0, 1026.0125, -0.0020743425, -0.013169037, -469144.56, -24081.355 
1.34542e+3, 2.6457396e+2, -382407.22, -494887.97, 1028.8276, -0.0024492876, -0.012865616, -382397.8, -35223.824 
1.3454063e+3, 2.7456203e+2, -287127.66, -398020.3, 1194.5948, -0.0024466005, -0.0114574125, -287114.8, -37824.043 
1.3453923e+3, 2.845495e+2, -200237.06, -319469.56, 761.52435, -0.002836656, -0.010686415, -200232.19, -48818.355 
1.3453785e+3, 2.945363e+2, -103776.89, -221897.73, 517.0906, -0.0035702386, -0.013076066, -103774.625, -50231.492 
1.3453645e+3, 3.0452612e+2, -14167.955, -86135.97, 353.66974, -0.0038501164, -0.012531397, -14166.217, -14166.217 
1.3453506e+3, 3.1451905e+2, -16665.918, -87010.45, 623.1724, -0.002919195, -0.011246473, -16660.398, -16660.398 
1.3556176e+3, 1.24691635e+2, -1658197.4, -1716563.8, 311.46332, 0.0035884948, -0.020434793, -1658195.8, 59825.15 
1.3556038e+3, 1.3468787e+2, -1572279.4, -1641396.0, 408.5201, -0.0013954286, 0.013526395, -1572276.9, 47780.996 
1.35559e+3, 1.4468303e+2, -1479642.5, -1550832.3, 51.524277, -0.000116792056, -0.030917456, -1479642.5, 42462.742 
1.355576e+3, 1.5467864e+2, -1384810.6, -1454332.4, 146.05864, 0.0012943938, -0.012719517, -1384810.4, 39337.82 
1.355562e+3, 1.6467352e+2, -1297942.0, -1375536.1, 594.09546, 0.0011467246, -0.0048864237, -1297937.5, 28260.99 
1.3555482e+3, 1.7466764e+2, -1201199.8, -1278275.3, 551.6717, -0.00086453906, -0.010117387, -1201195.9, 27060.146 
1.3555343e+3, 1.8466121e+2, -1113745.1, -1198546.1, 441.85287, -0.0011958398, -0.0123549765, -1113742.8, 16576.281 
1.3555205e+3, 1.946542e+2, -1018917.8, -1102126.1, 528.28217, 0.00041242922, -0.01354576, -1018914.44, 13473.341 
1.3555066e+3, 2.0464657e+2, -932002.1, -1023148.2, 750.26843, 0.00025526097, -0.012323426, -931995.94, 2466.4043 
1.3554926e+3, 2.1463838e+2, -835439.56, -925845.0, 775.22253, -0.0019796558, -0.010221011, -835432.94, 1109.8369 
1.3554789e+3, 2.2462954e+2, -748151.44, -846673.56, 574.91455, -0.0023916047, -0.00966835, -748148.06, -9518.656 
1.3554649e+3, 2.3462005e+2, -652674.94, -749875.3, 629.898, -0.00068110955, -0.013063427, -652670.9, -11948.542 
1.355451e+3, 2.4460998e+2, -565584.1, -670743.06, 663.9443, -0.0006077138, -0.012917594, -565579.94, -22758.896 
1.3554372e+3, 2.5459933e+2, -469290.1, -573508.9, 597.4543, -0.0023980548, -0.01075005, -469286.66, -24361.232 
1.355423e+3, 2.6458806e+2, -382144.75, -494212.53, 324.7507, -0.0031975661, -0.009869637, -382143.8, -35107.83 
1.3554092e+3, 2.7457613e+2, -286760.28, -397334.66, 467.55475, -0.0027689654, -0.012927835, -286758.28, -37605.586 
1.3553952e+3, 2.8456357e+2, -200637.64, -320268.72, 307.4257, -0.0026291353, -0.012705552, -200636.84, -49360.99 
1.3553812e+3, 2.9455036e+2, -104200.4, -222859.08, 101.00794, -0.0026751, -0.011005183, -104200.31, -50794.88 
1.355367e+3, 3.045402e+2, -13791.777, -85296.586, -316.85962, -0.0033102168, -0.009982099, -13790.373, -13790.373 
1.3553528e+3, 3.145331e+2, -16223.5625, -86141.24, -64.72672, -0.0042010006, -0.012703556, -16223.503, -16223.503 
1.3656227e+3, 1.24705605e+2, -1657871.8, -1717195.9, 797.43134, 0.0031701887, -0.02072546, -1657861.0, 60022.98 
1.3656089e+3, 1.3470194e+2, -1572646.8, -1640505.1, 1044.0278, -0.001020491, 0.014375137, -1572630.6, 47289.39 
1.3655949e+3, 1.4469714e+2, -1480704.3, -1551181.1, 699.0372, 0.00019873168, -0.03111474, -1480697.3, 41269.668 
1.3655807e+3, 1.5469277e+2, -1384027.5, -1453803.8, 632.18774, 0.0010343323, -0.012859235, -1384021.8, 39987.992 
1.3655667e+3, 1.6468765e+2, -1296947.3, -1374908.9, 1094.5203, 0.00088779617, -0.0048706806, -1296931.9, 29127.941 
1.3655525e+3, 1.7468181e+2, -1201917.1, -1278451.9, 1198.6268, -0.0005243753, -0.009823695, -1201898.4, 26218.85 
1.3655385e+3, 1.8467537e+2, -1114629.5, -1198892.6, 1071.4713, -0.00088244013, -0.011891983, -1114615.9, 15564.353 
1.3655245e+3, 1.9466837e+2, -1018098.44, -1101648.6, 1034.7815, -0.000019840281, -0.0130879795, -1018085.6, 14163.265 
1.3655105e+3, 2.0466077e+2, -930855.8, -1022535.25, 1250.7196, -0.000109567445, -0.012049347, -930838.75, 3484.6423 
1.3654965e+3, 2.1465255e+2, -835583.2, -925831.4, 1323.2374, -0.0013358631, -0.010294177, -835563.75, 840.03357 
1.3654825e+3, 2.2464372e+2, -748468.75, -846717.4, 1148.367, -0.0017317883, -0.009712198, -748455.3, -9964.961 
1.3654685e+3, 2.3463427e+2, -652080.9, -749437.06, 1158.4031, -0.001127472, -0.012663208, -652067.1, -11483.978 
1.3654545e+3, 2.446242e+2, -564931.4, -670434.44, 1185.1368, -0.0012665006, -0.012446501, -564918.06, -22236.32 
1.3654403e+3, 2.5461355e+2, -469523.53, -573594.0, 1224.0803, -0.0022443654, -0.01065534, -469509.13, -24722.955 
1.3654263e+3, 2.6460227e+2, -382202.06, -494201.97, 913.4552, -0.002756348, -0.00980625, -382194.63, -35297.92 
1.3654122e+3, 2.7459037e+2, -285736.2, -396721.7, 802.5906, -0.00265328, -0.012498236, -285730.4, -36717.098 
1.365398e+3, 2.845778e+2, -199419.64, -319669.66, 711.19604, -0.002665577, -0.01232312, -199415.44, -48279.047 
1.3653837e+3, 2.9456457e+2, -103997.195, -222722.4, 969.4285, -0.0026609555, -0.011078831, -103989.27, -50723.297 
1.3653696e+3, 3.045544e+2, -13879.51, -85461.1, 563.51465, -0.0032577666, -0.010041049, -13875.074, -13875.074 
1.3653553e+3, 3.1454733e+2, -15640.961, -85925.79, 340.55548, -0.004304961, -0.012276341, -15639.311, -15639.311 
1.3756281e+3, 1.2471974e+2, -1658469.0, -1718163.0, -13.72389, 0.00015157022, -0.018301107, -1658468.9, 59276.56 
1.375614e+3, 1.3471614e+2, -1571883.8, -1638911.6, 248.97878, 0.0013147314, 0.013623007, -1571882.8, 47898.008 
1.3755998e+3, 1.447114e+2, -1480729.4, -1551255.0, 354.2506, 0.0030973863, -0.032308627, -1480727.5, 41099.64 
1.3755855e+3, 1.5470704e+2, -1384141.3, -1453941.1, 317.3044, -0.00043511917, -0.011943425, -1384139.9, 39730.086 
1.3755713e+3, 1.6470194e+2, -1296827.1, -1374484.8, 393.27313, -0.0011682628, -0.0041631656, -1296825.1, 29094.742 
1.3755572e+3, 1.7469609e+2, -1201708.8, -1277974.9, 476.77042, 0.0011219381, -0.01185426, -1201705.8, 26271.42 
1.3755429e+3, 1.8468969e+2, -1114696.1, -1199007.0, 705.9451, 0.0010552703, -0.0132429125, -1114690.3, 15349.828 
1.3755287e+3, 1.946827e+2, -1018226.1, -1101813.6, 690.653, -0.0016554173, -0.0099595, -1018220.4, 13887.9375 
1.3755146e+3, 2.0467511e+2, -930862.06, -1022413.94, 590.4629, -0.0020275505, -0.009138886, -930858.25, 3324.6233 
1.3755004e+3, 2.1466686e+2, -835513.6, -925689.75, 647.2923, 0.0002968903, -0.012918135, -835509.0, 754.68494 
1.3754863e+3, 2.2465804e+2, -748453.7, -846604.75, 742.90027, 0.0002703982, -0.012784532, -748448.06, -10097.871 
1.3754721e+3, 2.3464862e+2, -652083.3, -749372.3, 759.90515, -0.0024690137, -0.01037657, -652077.4, -11634.995 
1.3754578e+3, 2.4463858e+2, -564904.75, -670229.8, 533.6652, -0.0032522772, -0.009494816, -564902.06, -22361.242 
1.3754436e+3, 2.5462788e+2, -469406.53, -573394.3, 562.41833, -0.0017356345, -0.012543821, -469403.5, -24757.912 
1.3754293e+3, 2.646166e+2, -382337.94, -494463.0, 499.26385, -0.0013640174, -0.012226536, -382335.72, -35579.543 
1.375415e+3, 2.7460474e+2, -285880.66, -397084.8, 407.4188, -0.002267009, -0.0104068145, -285879.2, -37006.594 
1.3754007e+3, 2.8459218e+2, -199042.48, -318748.25, 38.459698, -0.0030387067, -0.009819044, -199042.48, -48047.016 
1.3753864e+3, 2.9457897e+2, -103524.6, -221800.16, 274.57056, -0.0034765976, -0.013098731, -103523.96, -50399.14 
1.375372e+3, 3.0456883e+2, -14331.166, -86372.61, 57.79368, -0.0036673187, -0.012479528, -14331.119, -14331.119 
1.3753575e+3, 3.145617e+2, -16157.077, -86974.36, -115.8242, -0.0034854545, -0.010193331, -16156.888, -16156.888 
1.3856332e+3, 1.24734014e+2, -1659907.3, -1719524.5, 590.8862, 0.00044611547, -0.018499838, -1659901.4, 57704.242 
1.3856189e+3, 1.3473052e+2, -1570660.0, -1637185.8, 798.68823, 0.001116918, 0.013120367, -1570650.4, 48989.633 
1.3856046e+3, 1.4472583e+2, -1479958.0, -1550804.4, 924.47205, 0.0028202117, -0.031969983, -1479946.0, 41739.78 
1.3855901e+3, 1.5472148e+2, -1384732.5, -1454158.9, 960.0043, -0.00002071911, -0.011207963, -1384719.3, 39009.152 
1.3855758e+3, 1.647164e+2, -1297501.9, -1374641.1, 1002.4722, -0.0007607582, -0.003548008, -1297488.9, 28289.418 
1.3855615e+3, 1.7471056e+2, -1201197.3, -1277553.4, 969.82025, 0.0007940229, -0.011930825, -1201185.0, 26650.537 
1.385547e+3, 1.8470417e+2, -1114003.4, -1198543.3, 1253.2113, 0.00072255736, -0.013480373, -1113984.9, 15913.357 
1.3855328e+3, 1.946972e+2, -1018487.0, -1101783.5, 1369.7067, -0.0012124608, -0.009771093, -1018464.5, 13501.8955 
1.3855186e+3, 2.046896e+2, -931177.25, -1022515.44, 1287.2574, -0.0015560942, -0.008700538, -931159.06, 2881.726 
1.3855043e+3, 2.1468137e+2, -834850.9, -925287.6, 1302.148, -0.00005413033, -0.012461122, -834832.1, 1289.4457 
1.3854899e+3, 2.2467254e+2, -747662.25, -846128.6, 1391.2184, -0.00020394371, -0.012455866, -747642.56, -9434.568 
1.3854755e+3, 2.3466314e+2, -652197.0, -749292.9, 1419.1859, -0.002276923, -0.010308842, -652176.25, -11876.105 
1.3854612e+3, 2.446531e+2, -564977.5, -670226.0, 1198.0636, -0.0028791889, -0.009398169, -564963.8, -22565.295 
1.3854468e+3, 2.5464243e+2, -468571.13, -572892.8, 1182.4899, -0.0017180418, -0.012075038, -468557.72, -24054.523 
1.3854325e+3, 2.6463112e+2, -381414.97, -494024.97, 1159.8136, -0.0015073707, -0.011782363, -381403.0, -34789.29 
1.385418e+3, 2.7461925e+2, -285918.84, -397090.88, 1228.6245, -0.0023926883, -0.010436679, -285905.25, -37175.094 
1.3854036e+3, 2.8460672e+2, -199100.98, -318784.2, 760.70306, -0.003085344, -0.009805908, -199096.14, -48243.156 
1.385389e+3, 2.9459354e+2, -102839.336, -221368.02, 626.0685, -0.0033568158, -0.012456595, -102836.03, -49853.805 
1.3853744e+3, 3.0458337e+2, -13505.553, -86133.91, 380.0371, -0.0034918583, -0.011909426, -13503.564, -13503.564 
1.3853599e+3, 3.1457624e+2, -15775.867, -86886.54, 541.62317, -0.0034733834, -0.010414457, -15771.742, -15771.742 
1.3956383e+3, 1.24748446e+2, -1660358.8, -1720416.9, 211.1135, 0.003004905, -0.018308964, -1660358.0, 57106.227 
1.3956238e+3, 1.3474503e+2, -1570076.5, -1635868.4, 428.82413, -0.00107756, 0.012941807, -1570073.8, 49424.004 
1.3956094e+3, 1.4474043e+2, -1479952.1, -1550607.6, 237.9177, 0.00004143977, -0.030364491, -1479951.4, 41591.45 
1.3955948e+3, 1.5473609e+2, -1384668.4, -1453961.0, 271.30765, 0.001819909, -0.010633783, -1384667.3, 38918.156 
1.3955805e+3, 1.64731e+2, -1297489.1, -1374612.5, 592.4864, 0.0015257342, -0.0029921515, -1297484.6, 28150.637 
1.3955659e+3, 1.7472517e+2, -1201237.1, -1277568.1, 572.2706, -0.0011831936, -0.010413928, -1201232.9, 26459.451 
1.3955514e+3, 1.8471879e+2, -1113882.1, -1198162.8, 656.4732, -0.0014860847, -0.012817789, -1113877.0, 15878.001 
1.395537e+3, 1.9471182e+2, -1018318.8, -1101383.8, 760.75726, 0.00088513765, -0.01197562, -1018311.9, 13511.242 
1.3955227e+3, 2.0470425e+2, -931215.2, -1022502.25, 865.37683, 0.00079773675, -0.010256846, -931207.0, 2690.348 
1.395508e+3, 2.1469606e+2, -834914.8, -925314.4, 885.27747, -0.0020979585, -0.009452137, -834906.1, 1071.5203 
1.3954936e+3, 2.2468723e+2, -747671.4, -846009.6, 751.08795, -0.0027566997, -0.009300841, -747665.7, -9601.605 
1.3954791e+3, 2.3467779e+2, -652134.2, -749178.4, 774.37885, -0.00086200994, -0.012074087, -652128.0, -11971.447 
1.3954645e+3, 2.4466775e+2, -564979.25, -670159.94, 780.8863, -0.00062587997, -0.011642794, -564973.44, -22718.51 
1.3954501e+3, 2.5465715e+2, -468580.13, -572887.3, 773.6996, -0.0022003269, -0.009583559, -468574.38, -24215.27 
1.3954355e+3, 2.6464587e+2, -381311.94, -493675.22, 510.25296, -0.0030131228, -0.008893582, -381309.63, -34840.13 
1.395421e+3, 2.7463397e+2, -285728.78, -396758.2, 568.43524, -0.0029891129, -0.012354913, -285725.88, -37139.73 
1.3954064e+3, 2.8462142e+2, -199341.02, -319247.75, 287.92194, -0.0028966018, -0.012006769, -199340.33, -48631.273 
1.3953917e+3, 2.9460824e+2, -103079.17, -221954.9, 185.35971, -0.0025764129, -0.0095499065, -103078.88, -50240.67 
1.3953769e+3, 3.0459806e+2, -13344.911, -85751.875, -195.06598, -0.0029885562, -0.008723575, -13344.386, -13344.386 
1.3953623e+3, 3.145909e+2, -15601.089, -86504.57, -55.982414, -0.004381542, -0.012703397, -15601.045, -15601.045 
1.4056434e+3, 1.2476304e+2, -1660407.3, -1721133.1, 801.772, 0.002822636, -0.018549226, -1660396.6, 56924.62 
1.4056289e+3, 1.347597e+2, -1570293.5, -1635044.5, 939.08594, -0.0006833332, 0.012027071, -1570279.9, 49074.234 
1.4056143e+3, 1.4475515e+2, -1480684.6, -1550706.9, 742.3323, 0.00023883765, -0.029173682, -1480676.8, 40721.746 
1.4055996e+3, 1.5475082e+2, -1384321.9, -1453547.8, 825.3345, 0.0014439331, -0.010595139, -1384312.0, 39128.934 
1.405585e+3, 1.6474576e+2, -1297012.9, -1374313.5, 1176.7792, 0.0011950355, -0.0032659709, -1296995.0, 28495.664 
1.4055704e+3, 1.7473993e+2, -1201480.0, -1277605.8, 1182.7632, -0.00081222184, -0.010106099, -1201461.6, 26086.074 
1.4055556e+3, 1.8473355e+2, -1114133.6, -1198132.8, 1235.5887, -0.0010784413, -0.012244895, -1114115.4, 15494.761 
1.4055412e+3, 1.947266e+2, -1017917.1, -1101033.0, 1242.9828, 0.0005782415, -0.011543815, -1017898.56, 13779.615 
1.4055265e+3, 2.0471905e+2, -930797.75, -1022180.06, 1338.7654, 0.0003775497, -0.0100591, -930778.1, 2974.1804 
1.405512e+3, 2.1471086e+2, -835135.8, -925279.75, 1424.4823, -0.0019875308, -0.009508776, -835113.3, 719.23444 
1.4054973e+3, 2.2470206e+2, -747766.0, -845989.4, 1327.8033, -0.0024848683, -0.009202314, -747748.06, -9829.213 
1.4054827e+3, 2.3469263e+2, -651369.0, -748709.25, 1339.2318, -0.0007434164, -0.011410571, -651350.56, -11339.305 
1.405468e+3, 2.4468258e+2, -564139.8, -669733.7, 1333.953, -0.00059811573, -0.011061888, -564122.94, -22013.36 
1.4054534e+3, 2.5467196e+2, -468617.3, -572866.94, 1328.8624, -0.002251238, -0.009757964, -468600.38, -24386.559 
1.4054388e+3, 2.6466072e+2, -381353.1, -493646.22, 1026.1611, -0.0030355167, -0.00907387, -381343.72, -35019.598 
1.4054239e+3, 2.7464882e+2, -285018.66, -396287.9, 989.1106, -0.002871988, -0.011716852, -285009.84, -36569.258 
1.4054091e+3, 2.846363e+2, -198402.03, -318798.88, 790.2657, -0.0027817423, -0.011261295, -198396.84, -47833.42 
1.4053944e+3, 2.946231e+2, -102648.195, -221716.94, 949.89233, -0.0026522859, -0.00954584, -102640.62, -49947.99 
1.4053795e+3, 3.046129e+2, -13117.053, -85822.164, 565.0534, -0.003030876, -0.008761998, -13112.661, -13112.661 
1.4053646e+3, 3.1460574e+2, -15033.925, -86390.14, 408.98517, -0.004317921, -0.011731834, -15031.581, -15031.581 
1.4156486e+3, 1.24777794e+2, -1660946.1, -1722099.4, 83.89308, 0.00039448676, -0.01673363, -1660946.0, 56230.62 
1.4156339e+3, 1.3477448e+2, -1569821.5, -1634036.3, 241.19472, 0.0016350655, 0.010539523, -1569820.6, 49388.582 
1.4156191e+3, 1.4477004e+2, -1480512.4, -1550317.0, 333.59943, 0.0026608636, -0.028269375, -1480510.8, 40742.01 
1.4156042e+3, 1.547657e+2, -1384193.6, -1453185.5, 428.75165, -0.00076764217, -0.010958019, -1384191.0, 39104.14 
1.4155895e+3, 1.6476065e+2, -1297027.8, -1374220.5, 574.72363, -0.0012498257, -0.0041954876, -1297023.5, 28321.186 
1.4155747e+3, 1.7475484e+2, -1201440.6, -1277491.3, 592.1665, 0.0014082576, -0.010770407, -1201436.0, 25965.541 
1.41556e+3, 1.8474847e+2, -1114144.8, -1198109.0, 806.1795, 0.001347054, -0.011738741, -1114137.0, 15326.928 
1.4155453e+3, 1.9474156e+2, -1017956.3, -1101035.8, 817.439, -0.0017750135, -0.0089685265, -1017948.25, 13583.503 
1.4155304e+3, 2.04734e+2, -930716.3, -1021935.1, 762.00696, -0.002364173, -0.008431537, -930709.94, 2895.9626 
1.4155157e+3, 2.1472578e+2, -835003.5, -925029.6, 842.4026, -0.00017468761, -0.012079796, -834995.6, 690.7392 
1.415501e+3, 2.2471699e+2, -747745.9, -845878.25, 921.1178, 0.000013650897, -0.011588851, -747737.25, -9964.736 
1.4154862e+3, 2.3470761e+2, -651363.06, -748645.5, 933.1711, -0.0017809141, -0.008706935, -651354.1, -11489.745 
1.4154714e+3, 2.446976e+2, -564163.6, -669666.94, 702.4025, -0.00247604, -0.008113554, -564158.94, -22196.33 
1.4154567e+3, 2.546869e+2, -468571.8, -572822.8, 695.48883, -0.0019922103, -0.0121981995, -468567.16, -24499.871 
1.415442e+3, 2.6467565e+2, -381352.13, -493620.38, 586.8974, -0.0018679792, -0.011840958, -381349.06, -35171.445 
1.415427e+3, 2.746638e+2, -285009.63, -396313.4, 566.59033, -0.00226526, -0.008885523, -285006.72, -36713.133 
1.4154121e+3, 2.846513e+2, -198177.63, -318236.75, 217.95287, -0.0028577673, -0.007988072, -198177.23, -47761.016 
1.4153971e+3, 2.946381e+2, -102349.734, -221170.3, 372.19168, -0.0035205705, -0.012166477, -102348.57, -49802.977 
1.415382e+3, 3.046279e+2, -13416.559, -86422.016, 72.25782, -0.0035957375, -0.011725417, -13416.487, -13416.487 
1.4153671e+3, 3.1462076e+2, -15395.78, -87116.51, -61.94953, -0.0035766028, -0.008158277, -15395.727, -15395.727 
1.4256538e+3, 1.24792695e+2, -1661674.0, -1722858.1, 641.6667, 0.0008116717, -0.016699303, -1661667.3, 55363.42 
1.4256388e+3, 1.3478944e+2, -1569098.0, -1632803.9, 848.4124, 0.0013931013, 0.009379974, -1569086.8, 49975.81 
1.4256239e+3, 1.4478506e+2, -1480288.5, -1550104.9, 977.7099, 0.0022995647, -0.026221402, -1480274.8, 40830.656 
1.425609e+3, 1.5478073e+2, -1384719.1, -1453342.8, 937.4645, -0.00044243882, -0.01089336, -1384706.4, 38441.543 
1.425594e+3, 1.6477568e+2, -1297438.9, -1374119.0, 1085.5596, -0.00092568283, -0.004703808, -1297423.5, 27773.816 
1.425579e+3, 1.7476991e+2, -1201073.0, -1277003.9, 1205.2933, 0.0010589726, -0.01030353, -1201053.9, 26199.992 
1.4255641e+3, 1.8476357e+2, -1113769.0, -1197905.8, 1448.785, 0.00096231344, -0.0111000985, -1113744.0, 15572.027 
1.4255494e+3, 1.9475664e+2, -1018134.4, -1101093.3, 1451.3192, -0.0015261555, -0.0089421235, -1018109.0, 13274.962 
1.4255345e+3, 2.0474908e+2, -930737.44, -1021763.6, 1414.8573, -0.0019648438, -0.00842328, -930715.5, 2742.5298 
1.4255196e+3, 2.147409e+2, -834449.25, -924552.6, 1483.1875, -0.000098907425, -0.011482023, -834424.9, 1113.3842 
1.4255048e+3, 2.2473212e+2, -747281.44, -845611.1, 1552.5757, -0.00009379255, -0.01106243, -747256.94, -9632.617 
1.42549e+3, 2.3472273e+2, -651567.1, -748687.75, 1551.1565, -0.0019583227, -0.008949844, -651542.4, -11826.162 
1.425475e+3, 2.4471273e+2, -564205.7, -669577.2, 1331.581, -0.0025920724, -0.0082639, -564188.9, -22374.516 
1.42546e+3, 2.5470206e+2, -467803.22, -572281.4, 1385.943, -0.0019300769, -0.011325087, -467784.8, -23866.008 
1.425445e+3, 2.6469082e+2, -380470.63, -493256.2, 1298.3175, -0.0017785104, -0.010907516, -380455.7, -34426.6 
1.42543e+3, 2.7467895e+2, -284698.22, -396185.34, 1239.2078, -0.0022759638, -0.008934271, -284684.47, -36539.27 
1.425415e+3, 2.8466645e+2, -197798.7, -317940.25, 800.4585, -0.0028301326, -0.008246206, -197793.38, -47525.598 
1.4253998e+3, 2.946533e+2, -101598.0, -220592.13, 797.26434, -0.003420857, -0.011660116, -101592.66, -49195.73 
1.4253846e+3, 3.046431e+2, -12729.2295, -86313.24, 462.13123, -0.0035589158, -0.011057415, -12726.327, -12726.327 
1.4253695e+3, 3.146359e+2, -14893.757, -87074.91, 447.40936, -0.0035873551, -0.008278845, -14890.983, -14890.983 
1.435659e+3, 1.2480775e+2, -1661895.4, -1723201.8, 103.06004, 0.003087644, -0.015786165, -1661895.3, 54987.85 
1.4356437e+3, 1.3480456e+2, -1568574.5, -1631646.4, 313.80298, -0.00088707946, 0.0085210875, -1568572.9, 50341.438 
1.4356287e+3, 1.4480026e+2, -1480403.1, -1550246.1, 371.47858, -0.00023325025, -0.023263691, -1480401.1, 40555.375 
1.4356136e+3, 1.547959e+2, -1384798.8, -1453481.8, 345.56366, 0.0018464793, -0.010492512, -1384797.0, 38202.26 
1.4355986e+3, 1.6479087e+2, -1297175.8, -1373562.9, 701.2272, 0.0015263809, -0.004854311, -1297169.3, 27879.38 
1.4355835e+3, 1.7478514e+2, -1200855.0, -1276458.5, 811.06396, -0.0014073517, -0.008914404, -1200846.4, 26258.307 
1.4355685e+3, 1.8477881e+2, -1113825.0, -1197913.4, 871.1752, -0.0017146319, -0.010341028, -1113816.0, 15350.757 
1.4355534e+3, 1.9477187e+2, -1018141.44, -1101103.9, 876.2238, 0.0007792963, -0.010975378, -1018132.2, 13102.644 
1.4355384e+3, 2.047643e+2, -930643.44, -1021523.56, 992.4035, 0.0008955693, -0.009710333, -930632.56, 2676.1528 
1.4355235e+3, 2.1475619e+2, -834363.4, -924345.5, 1050.658, -0.0015176934, -0.008268869, -834351.1, 1037.2712 
1.4355084e+3, 2.2474742e+2, -747300.06, -845583.44, 961.82104, -0.00238842, -0.008119366, -747290.6, -9816.237 
1.4354934e+3, 2.3473798e+2, -651547.1, -748678.7, 966.7681, -0.0014957848, -0.011640709, -651537.5, -11970.687 
1.4354783e+3, 2.4472798e+2, -564074.6, -669244.06, 912.32623, -0.0013449761, -0.010958062, -564066.7, -22401.824 
1.4354633e+3, 2.547174e+2, -467659.72, -571979.44, 967.15, -0.00214043, -0.00765584, -467650.75, -23882.22 
1.4354482e+3, 2.6470616e+2, -380543.06, -493353.03, 714.1467, -0.0026644394, -0.00686925, -380538.53, -34659.86 
1.435433e+3, 2.7469423e+2, -284711.78, -396324.2, 663.09283, -0.0028548199, -0.011527739, -284707.84, -36712.367 
1.4354178e+3, 2.8468174e+2, -197831.02, -317942.4, 344.55954, -0.0027801876, -0.011587343, -197830.03, -47711.84 
1.4354026e+3, 2.946686e+2, -101597.95, -220655.38, 358.37128, -0.0025860446, -0.008541123, -101596.875, -49350.094 
1.4353873e+3, 3.046584e+2, -12753.666, -86376.58, -53.837967, -0.0031559533, -0.0073113716, -12753.627, -12753.627 
1.435372e+3, 3.1465116e+2, -14917.736, -87171.336, -78.129776, -0.0046491185, -0.01153321, -14917.651, -14917.651 
1.4456639e+3, 1.2482299e+2, -1662462.3, -1723891.3, 803.25195, 0.0027278177, -0.014963775, -1662451.8, 54282.055 
1.4456487e+3, 1.3481982e+2, -1568739.4, -1631152.1, 805.7444, -0.0006383083, 0.006164233, -1568729.0, 50035.926 
1.4456335e+3, 1.448156e+2, -1480556.6, -1550073.6, 892.7375, 0.000009696406, -0.021871276, -1480545.1, 40261.137 
1.4456183e+3, 1.5481123e+2, -1384298.5, -1452978.4, 1053.6016, 0.0017441026, -0.009528347, -1384282.4, 38566.57 
1.4456032e+3, 1.6480622e+2, -1296872.5, -1373392.1, 1360.9849, 0.0013988754, -0.0044912114, -1296848.3, 28050.018 
1.4455879e+3, 1.7480049e+2, -1201358.0, -1276686.3, 1208.9908, -0.0011688449, -0.009244442, -1201338.6, 25615.71 
1.4455728e+3, 1.8479417e+2, -1114187.9, -1197756.8, 1271.3534, -0.0014629312, -0.010636381, -1114168.5, 14847.742 
1.4455576e+3, 1.9478726e+2, -1017759.94, -1100571.6, 1465.0142, 0.0006682066, -0.01039665, -1017734.06, 13349.953 
1.4455424e+3, 2.0477973e+2, -930307.75, -1021399.3, 1607.4272, 0.00068227306, -0.0089889495, -930279.4, 2878.3801 
1.4455274e+3, 2.147716e+2, -834426.06, -924423.44, 1537.6104, -0.0015810169, -0.008274039, -834399.8, 837.7553 
1.4455122e+3, 2.2476281e+2, -747102.7, -845283.25, 1426.4999, -0.002337438, -0.008185161, -747081.94, -9758.4795 
1.445497e+3, 2.3475341e+2, -650857.0, -748093.44, 1570.3828, -0.0013830924, -0.011007579, -650831.6, -11416.008 
1.4454818e+3, 2.4474342e+2, -563517.1, -669026.3, 1536.8326, -0.0012604232, -0.010339628, -563494.75, -21981.162 
1.4454666e+3, 2.5473285e+2, -467650.13, -571987.1, 1414.8636, -0.002150887, -0.007799166, -467630.94, -24013.607 
1.4454514e+3, 2.647216e+2, -380407.4, -493128.3, 1121.1967, -0.0027017011, -0.00706801, -380396.25, -34668.813 
1.445436e+3, 2.7470973e+2, -284114.53, -395807.44, 1217.1244, -0.0028727534, -0.010942802, -284101.25, -36257.273 
1.4454208e+3, 2.846972e+2, -197197.06, -317709.06, 965.5272, -0.0028248369, -0.010853695, -197189.33, -47222.707 
1.4454053e+3, 2.9468405e+2, -101241.19, -220540.14, 910.72955, -0.0026879956, -0.008305929, -101234.234, -49138.906 
1.4453898e+3, 3.0467385e+2, -12368.378, -86300.625, 458.1126, -0.0032228255, -0.007133222, -12365.539, -12365.539 
1.4453743e+3, 3.146666e+2, -14158.065, -86852.04, 402.42798, -0.0045528114, -0.011002206, -14155.837, -14155.837 
1.4556691e+3, 1.2483842e+2, -1662859.9, -1724628.5, 199.65921, 0.00010739836, -0.011738431, -1662859.3, 53723.414 
1.4556538e+3, 1.348352e+2, -1568600.1, -1630811.6, 225.4407, 0.001521445, 0.0026570323, -1568599.3, 50014.906 
1.4556383e+3, 1.4483105e+2, -1480298.3, -1549462.6, 463.338, 0.0023500773, -0.021672083, -1480295.1, 40359.73 
1.4556229e+3, 1.5482675e+2, -1384073.1, -1452374.8, 620.341, -0.00032856548, -0.008125125, -1384067.5, 38629.54 
1.4556077e+3, 1.6482171e+2, -1297179.1, -1373906.4, 741.2546, -0.0008053697, -0.0037295427, -1297171.9, 27574.45 
1.4555922e+3, 1.7481594e+2, -1201590.4, -1277164.5, 617.82916, 0.0012032604, -0.010957947, -1201585.4, 25217.604 
1.455577e+3, 1.8480963e+2, -1113818.6, -1196983.6, 906.0654, 0.001044456, -0.011769473, -1113808.8, 15055.988 
1.4555618e+3, 1.948028e+2, -1017416.94, -1099810.9, 1080.0468, -0.0015056353, -0.0077006924, -1017402.8, 13528.79 
1.4555465e+3, 2.047953e+2, -930472.0, -1021700.6, 1071.5203, -0.0020907812, -0.0066360696, -930459.4, 2545.798 
1.4555313e+3, 2.147871e+2, -834565.4, -924748.3, 1015.2666, -0.0006110628, -0.010931457, -834554.0, 531.6978 
1.4555159e+3, 2.2477834e+2, -746842.1, -844717.0, 983.22577, -0.00047002692, -0.010704702, -746832.25, -9660.758 
1.4555006e+3, 2.3476903e+2, -650577.3, -747524.6, 1119.3665, -0.00165653, -0.0076132566, -650564.44, -11301.706 
1.4554852e+3, 2.4475904e+2, -563691.5, -669377.4, 982.26495, -0.002198543, -0.006989718, -563682.4, -22321.814 
1.45547e+3, 2.5474834e+2, -467804.13, -572380.75, 875.3906, -0.0020444957, -0.0111927, -467796.78, -24331.568 
1.4554545e+3, 2.6473713e+2, -380168.84, -492576.1, 681.4703, -0.0020888569, -0.01081783, -380164.72, -34589.387 
1.455439e+3, 2.7472535e+2, -283838.94, -395268.94, 783.0588, -0.0025084487, -0.0076786187, -283833.44, -36142.566 
1.4554237e+3, 2.8471282e+2, -197276.58, -317876.63, 444.77167, -0.0030328033, -0.0066759796, -197274.94, -47461.65 
1.455408e+3, 2.946996e+2, -101290.555, -220764.3, 402.64233, -0.003684445, -0.01060344, -101289.2, -49346.44 
1.4553925e+3, 3.0468944e+2, -12388.402, -86389.8, 35.291832, -0.003816326, -0.010074847, -12388.385, -12388.385 
1.4553769e+3, 3.1468222e+2, -14169.321, -86930.97, -15.3989525, -0.0036820546, -0.007370969, -14169.317, -14169.317 
1.465674e+3, 1.2485392e+2, -1663315.0, -1724811.4, 517.7049, 0.00062295736, -0.01189544, -1663310.6, 53120.168 
1.4656585e+3, 1.3485076e+2, -1568311.9, -1629971.9, 782.1421, 0.0015083659, 0.0012636769, -1568302.0, 50159.87 
1.4656432e+3, 1.4484666e+2, -1480465.1, -1549416.8, 1039.7233, 0.0020618464, -0.019281771, -1480449.5, 40052.305 
1.4656277e+3, 1.5484235e+2, -1384812.3, -1452628.3, 962.9218, -0.00026236515, -0.008520802, -1384798.6, 37745.543 
1.4656122e+3, 1.6483733e+2, -1297615.9, -1373837.8, 1194.0897, -0.0006877644, -0.0046355007, -1297597.3, 26996.117 
1.4655967e+3, 1.7483158e+2, -1200979.3, -1276576.9, 1434.3865, 0.0010899346, -0.010002597, -1200952.0, 25697.56 
1.4655814e+3, 1.848253e+2, -1113210.5, -1196706.9, 1689.2716, 0.00089955784, -0.010521718, -1113176.4, 15534.82 
1.4655659e+3, 1.9481847e+2, -1017577.56, -1099915.4, 1496.4264, -0.0014954385, -0.007836396, -1017550.4, 13227.808 
1.4655504e+3, 2.0481096e+2, -930613.3, -1021465.25, 1482.7919, -0.002028705, -0.007029416, -930589.1, 2262.6147 
1.465535e+3, 2.148028e+2, -834324.06, -924284.4, 1743.6173, -0.0006243909, -0.01039601, -834290.25, 641.5477 
1.4655197e+3, 2.2479405e+2, -746647.3, -844639.06, 1760.1293, -0.00049042486, -0.00997865, -746615.75, -9598.222 
1.4655043e+3, 2.3478472e+2, -650547.9, -747517.44, 1621.5913, -0.0016032831, -0.0074006584, -650520.75, -11411.969 
1.4654888e+3, 2.4477474e+2, -563406.3, -669074.1, 1439.6151, -0.002153235, -0.006881296, -563386.7, -22180.1 
1.4654733e+3, 2.5476408e+2, -467141.34, -571850.06, 1599.9194, -0.0020875577, -0.010728883, -467116.9, -23805.832 
1.4654578e+3, 2.6475286e+2, -379515.34, -492254.16, 1437.4164, -0.0021507244, -0.010351258, -379497.03, -34075.918 
1.4654423e+3, 2.7474105e+2, -283395.3, -394987.0, 1262.3453, -0.00245616, -0.007619686, -283381.03, -35844.344 
1.4654267e+3, 2.847286e+2, -196609.53, -317369.84, 853.3784, -0.0028552418, -0.006655477, -196603.5, -46944.457 
1.465411e+3, 2.947154e+2, -100384.09, -220050.81, 1023.8171, -0.003521381, -0.0102031175, -100375.33, -48587.05 
1.4653952e+3, 3.0470517e+2, -11745.288, -86371.75, 707.3954, -0.0037627022, -0.009714385, -11738.583, -11738.583 
1.4653794e+3, 3.1469795e+2, -13662.406, -87008.34, 454.56522, -0.0035803884, -0.007254693, -13659.59, -13659.59 
1.4756791e+3, 1.2486953e+2, -1663035.6, -1724199.3, 27.761011, 0.003277477, -0.012414344, -1663035.6, 53242.164 
1.4756636e+3, 1.3486646e+2, -1567737.8, -1628696.4, 285.68375, -0.00026734642, 0.0014761477, -1567736.4, 50571.504 
1.475648e+3, 1.4486246e+2, -1480663.5, -1549740.0, 447.57788, -0.0002796594, -0.015223786, -1480660.5, 39686.61 
1.4756323e+3, 1.5485805e+2, -1384955.3, -1452931.0, 390.4795, 0.0014434368, -0.010363175, -1384953.0, 37437.26 
1.4756167e+3, 1.6485305e+2, -1297144.6, -1372847.4, 869.0476, 0.0011846946, -0.006849565, -1297134.6, 27304.672 
1.475601e+3, 1.7484744e+2, -1200563.0, -1275599.0, 1098.289, -0.001061434, -0.006913007, -1200546.9, 25947.365 
1.4755856e+3, 1.8484117e+2, -1113615.0, -1197428.8, 1092.8055, -0.0013945891, -0.007367145, -1113600.8, 14955.019 
1.47557e+3, 1.9483423e+2, -1017933.1, -1100651.0, 920.71124, 0.00023331813, -0.010255568, -1017922.9, 12700.931 
1.4755544e+3, 2.0482673e+2, -930142.25, -1020471.25, 1070.713, 0.00024869485, -0.009622719, -930129.56, 2567.6963 
1.4755389e+3, 2.1481869e+2, -833835.44, -923280.06, 1307.6282, -0.0015044679, -0.007236092, -833816.3, 959.8447 
1.4755234e+3, 2.2480994e+2, -746907.44, -845144.4, 1259.9572, -0.0020990022, -0.0065906015, -746891.3, -10029.651 
1.4755078e+3, 2.3480053e+2, -650809.3, -748088.0, 1141.0479, -0.0013382306, -0.009867403, -650795.94, -11842.058 
1.4754923e+3, 2.4479055e+2, -563089.0, -668371.25, 998.98, -0.0013789478, -0.009444246, -563079.56, -22027.88 
1.4754766e+3, 2.5478002e+2, -466790.25, -571137.5, 1149.7931, -0.00238016, -0.0070308535, -466777.56, -23622.525 
1.4754611e+3, 2.647688e+2, -379765.97, -492772.8, 932.2753, -0.0028470834, -0.0063815424, -379758.28, -34493.305 
1.4754453e+3, 2.747569e+2, -283628.66, -395559.56, 783.5263, -0.002724976, -0.010309678, -283623.2, -36241.625 
1.4754295e+3, 2.847444e+2, -196306.44, -316702.06, 411.36823, -0.0024501926, -0.010132762, -196305.05, -46801.082 
1.4754139e+3, 2.9473132e+2, -100015.53, -219364.4, 579.61816, -0.0024413383, -0.0075242366, -100012.72, -48380.57 
1.475398e+3, 3.047211e+2, -12025.918, -87053.9, 217.60109, -0.0032750294, -0.0065157767, -12025.287, -12025.287 
1.4753821e+3, 3.1471378e+2, -13971.246, -87793.19, -20.632248, -0.0046349126, -0.010194904, -13971.241, -13971.241 
1.4856842e+3, 1.2488535e+2, -1663281.9, -1724407.5, 861.155, 0.0029032174, -0.011770119, -1663269.8, 52852.97 
1.4856684e+3, 1.3488227e+2, -1568305.3, -1628700.9, 690.90656, 0.000018523628, -0.0003326217, -1568297.4, 49855.566 
1.4856526e+3, 1.4487833e+2, -1481052.4, -1549673.4, 897.59216, 0.00000961429, -0.013325773, -1481040.8, 39150.87 
1.4856368e+3, 1.5487395e+2, -1384371.6, -1452386.4, 1099.28, 0.001316656, -0.009498116, -1384353.9, 37880.664 
1.4856212e+3, 1.6486895e+2, -1296637.8, -1372453.3, 1466.8424, 0.00097562914, -0.006762354, -1296609.4, 27674.105 
1.4856055e+3, 1.7486334e+2, -1201161.1, -1275747.4, 1338.8718, -0.0010070154, -0.007219171, -1201137.1, 25201.328 
1.4855899e+3, 1.848571e+2, -1114290.8, -1197522.9, 1400.9697, -0.0012784083, -0.007420853, -1114267.1, 14132.572 
1.4855741e+3, 1.9485019e+2, -1017716.7, -1100298.4, 1671.9353, 0.00020078245, -0.009463308, -1017682.9, 12784.579 
1.4855585e+3, 2.048427e+2, -929691.56, -1020228.8, 1840.0222, 0.00018818927, -0.00884768, -929654.1, 2886.6584 
1.4855428e+3, 2.1483465e+2, -833634.4, -923176.5, 1636.1017, -0.0013907908, -0.007158589, -833604.5, 1015.2293 
1.4855272e+3, 2.2482593e+2, -746630.75, -844828.3, 1531.6677, -0.0019803725, -0.0066749468, -746606.9, -9901.7 
1.4855115e+3, 2.3481652e+2, -650367.56, -747664.56, 1783.0922, -0.0014868916, -0.009718457, -650334.94, -11537.75 
1.4854957e+3, 2.4480656e+2, -562708.06, -668148.2, 1696.6234, -0.0015359476, -0.009191574, -562680.75, -21785.916 
1.4854799e+3, 2.5479603e+2, -466533.53, -570921.6, 1544.2318, -0.0022484849, -0.0067310855, -466510.7, -23512.51 
1.4854643e+3, 2.647848e+2, -379414.2, -492540.66, 1295.5223, -0.002699931, -0.0060237055, -379399.38, -34291.313 
1.4854485e+3, 2.747729e+2, -283085.6, -395197.88, 1423.3707, -0.0028209772, -0.009798602, -283067.53, -35842.97 
1.4854327e+3, 2.8476045e+2, -195696.94, -316415.25, 1047.2446, -0.0026699721, -0.0097622825, -195687.86, -46340.92 
1.4854166e+3, 2.9474735e+2, -99460.586, -219065.9, 854.23724, -0.0025478858, -0.0075267414, -99454.484, -47979.31 
1.4854008e+3, 3.0473712e+2, -11477.514, -86889.26, 416.94833, -0.0032264143, -0.006517151, -11475.208, -11475.208 
1.4853847e+3, 3.1472978e+2, -13362.549, -87592.35, 470.63965, -0.004294369, -0.009828352, -13359.564, -13359.564 
1.4956892e+3, 1.249014e+2, -1663770.0, -1725293.4, 184.23286, -0.000038624843, -0.008137291, -1663769.5, 52196.156 
1.4956734e+3, 1.3489822e+2, -1568525.9, -1629163.8, 55.651344, 0.0018715573, -0.0037096182, -1568525.8, 49470.957 
1.4956574e+3, 1.4489432e+2, -1480685.9, -1548908.6, 588.33594, 0.0022892498, -0.013095858, -1480680.8, 39354.203 
1.4956415e+3, 1.5489002e+2, -1384094.0, -1451661.3, 778.307, -0.00031731225, -0.0065340754, -1384085.0, 37992.164 
1.4956257e+3, 1.6488501e+2, -1296956.1, -1372972.3, 834.90265, -0.0008985013, -0.0048748367, -1296946.9, 27179.168 
1.4956099e+3, 1.7487933e+2, -1201405.9, -1276241.9, 726.087, 0.00077319716, -0.010228534, -1201398.9, 24782.95 
1.495594e+3, 1.848731e+2, -1113762.1, -1196421.9, 1066.0231, 0.0006778193, -0.010010219, -1113748.5, 14494.401 
1.4955783e+3, 1.9486631e+2, -1017198.6, -1099186.5, 1323.4722, -0.0013461495, -0.0060893423, -1017177.3, 13131.984 
1.4955625e+3, 2.0485885e+2, -930108.25, -1021022.9, 1334.8003, -0.0018121825, -0.0053629354, -930088.7, 2293.833 
1.4955467e+3, 2.1485068e+2, -834031.1, -924003.75, 1155.5991, -0.000514588, -0.009641039, -834016.3, 446.24353 
1.4955309e+3, 2.2484197e+2, -746217.0, -843913.2, 1106.7479, -0.0005300601, -0.0095967995, -746204.44, -9656.504 
1.4955151e+3, 2.3483269e+2, -649919.1, -746717.9, 1343.0054, -0.0020742838, -0.0074092294, -649900.5, -11261.696 
1.4954993e+3, 2.4482276e+2, -562944.56, -668617.06, 1214.453, -0.0025229768, -0.0066607622, -562930.6, -22194.332 
1.4954834e+3, 2.5481212e+2, -466747.44, -571432.75, 1084.2241, -0.001797692, -0.009349435, -466736.2, -23895.72 
1.4954676e+3, 2.648009e+2, -379133.56, -491938.9, 865.7696, -0.0018986332, -0.008651981, -379126.9, -34176.58 
1.4954515e+3, 2.7478912e+2, -282765.88, -394594.8, 992.65375, -0.00287424, -0.0066116187, -282757.06, -35691.195 
1.4954355e+3, 2.8477663e+2, -195997.34, -317035.38, 584.4636, -0.003491226, -0.0061791036, -195994.53, -46806.305 
1.4954196e+3, 2.9476342e+2, -99737.26, -219744.5, 410.31512, -0.0037524304, -0.009822737, -99735.85, -48418.37 
1.4954035e+3, 3.047532e+2, -11205.654, -86443.85, -28.746925, -0.0036905538, -0.00921118, -11205.643, -11205.643 
1.4953873e+3, 3.1474593e+2, -13060.044, -87110.57, 37.24789, -0.0030820959, -0.0065690773, -13060.024, -13060.024 
1.5056942e+3, 1.2491748e+2, -1664783.3, -1725610.1, 410.04276, 0.0005284956, -0.00801941, -1664780.5, 51027.42 
1.5056783e+3, 1.3491432e+2, -1568076.4, -1628584.0, 702.7438, 0.0015973755, -0.0048809918, -1568068.3, 49770.645 
1.505662e+3, 1.4491047e+2, -1480285.4, -1548543.3, 1242.9933, 0.0017725035, -0.011277498, -1480262.8, 39613.813 
1.5056461e+3, 1.5490617e+2, -1384878.3, -1451890.3, 1175.8292, -0.00016909605, -0.00642966, -1384857.6, 37061.176 
1.5056302e+3, 1.6490118e+2, -1297780.4, -1373231.6, 1297.5698, -0.0006033922, -0.0051655006, -1297758.0, 26209.635 
1.5056142e+3, 1.7489552e+2, -1200993.4, -1275907.6, 1460.015, 0.0006916822, -0.009489733, -1200965.0, 25058.248 
1.5055983e+3, 1.848893e+2, -1112995.1, -1195863.3, 1746.543, 0.0005501242, -0.00926993, -1112958.4, 15125.7705 
1.5055823e+3, 1.9488254e+2, -1017134.1, -1098953.9, 1625.337, -0.0011705732, -0.0063101626, -1017101.8, 13048.641 
1.5055665e+3, 2.0487508e+2, -930278.25, -1020952.9, 1653.1292, -0.0016319882, -0.005634029, -930248.06, 1975.4377 
1.5055506e+3, 2.1486692e+2, -833931.75, -923781.3, 1914.8109, -0.000708957, -0.009117937, -833890.94, 412.4139 
1.5055346e+3, 2.2485822e+2, -746001.1, -843749.5, 1919.5696, -0.0007348834, -0.008889641, -745963.44, -9574.751 
1.5055187e+3, 2.3484895e+2, -649758.0, -746520.25, 1769.959, -0.0019360795, -0.0070661725, -649725.7, -11246.168 
1.5055028e+3, 2.4483901e+2, -562613.56, -668337.56, 1594.3027, -0.0023626047, -0.006481825, -562589.56, -22012.646 
1.5054868e+3, 2.548284e+2, -466124.56, -571007.6, 1748.2487, -0.0018645324, -0.009105256, -466095.44, -23414.441 
1.5054709e+3, 2.648172e+2, -378435.1, -491547.0, 1529.7484, -0.001978878, -0.008460236, -378414.4, -33623.625 
1.5054548e+3, 2.748054e+2, -282162.56, -394196.2, 1393.4412, -0.0027043028, -0.0065383003, -282145.25, -35238.934 
1.5054385e+3, 2.8479293e+2, -195332.92, -316600.75, 1015.80475, -0.0032500683, -0.006010695, -195324.4, -46295.813 
1.5054224e+3, 2.9477975e+2, -98975.15, -219242.88, 1195.4762, -0.0036202604, -0.009250826, -98963.266, -47805.53 
1.5054062e+3, 3.047695e+2, -10599.866, -86359.98, 734.9156, -0.0036487742, -0.008652825, -10592.738, -10592.738 
1.50539e+3, 3.147622e+2, -12319.776, -86949.13, 384.96133, -0.00308212, -0.0064224554, -12317.791, -12317.791 
1.5156992e+3, 1.2493365e+2, -1664228.0, -1724511.1, 133.43295, 0.0035339042, -0.008830729, -1664227.8, 51421.754 
1.515683e+3, 1.3493058e+2, -1567578.3, -1627412.5, 410.82712, -0.00040176272, -0.0044096764, -1567575.5, 50104.027 
1.5156668e+3, 1.449268e+2, -1480513.0, -1548863.3, 579.7165, -0.0009188938, -0.008285198, -1480508.1, 39208.51 
1.5156507e+3, 1.5492243e+2, -1385009.6, -1452154.1, 533.5916, 0.0013285067, -0.008596439, -1385005.4, 36754.164 
1.5156347e+3, 1.6491745e+2, -1297467.8, -1372601.0, 1001.4747, 0.0013148126, -0.0071616466, -1297454.5, 26353.813 
1.5156186e+3, 1.749119e+2, -1200749.9, -1275305.8, 1159.7706, -0.0009137692, -0.005797174, -1200731.9, 25130.95 
1.5156025e+3, 1.8490566e+2, -1113298.8, -1196350.5, 1204.7249, -0.0012612982, -0.0059143174, -1113281.3, 14642.426 
1.5155865e+3, 1.948988e+2, -1017394.25, -1099435.6, 1100.065, 0.00034690075, -0.009433093, -1017379.5, 12611.47 
1.5155704e+3, 2.0489137e+2, -929832.2, -1019933.4, 1243.4663, 0.00023801519, -0.008882223, -929815.06, 2248.788 
1.5155545e+3, 2.1488336e+2, -833479.7, -922780.75, 1484.7021, -0.0018277417, -0.006127614, -833455.0, 687.3805 
1.5155384e+3, 2.2487468e+2, -746327.1, -844335.7, 1458.15, -0.002320699, -0.0052440804, -746305.44, -10077.954 
1.5155223e+3, 2.3486531e+2, -650068.25, -747145.1, 1329.835, -0.0012316282, -0.008382648, -650050.0, -11730.812 
1.5155064e+3, 2.4485537e+2, -562335.4, -667699.2, 1206.249, -0.0013149639, -0.008171832, -562321.56, -21904.94 
1.5154903e+3, 2.5484484e+2, -465846.5, -570378.75, 1354.5374, -0.002491514, -0.0064496966, -465828.97, -23309.1 
1.5154742e+3, 2.6483366e+2, -378671.7, -491979.97, 1062.921, -0.0028686076, -0.0059584905, -378661.72, -34032.145 
1.515458e+3, 2.748218e+2, -282357.8, -394658.53, 949.3655, -0.0024061408, -0.009114544, -282349.78, -35603.9 
1.5154417e+3, 2.848093e+2, -194947.86, -315842.63, 584.39703, -0.0022172648, -0.008616747, -194945.03, -46076.95 
1.5154254e+3, 2.9479623e+2, -98552.94, -218454.81, 757.7029, -0.0024681343, -0.0061662775, -98548.15, -47551.996 
1.515409e+3, 3.0478597e+2, -11046.906, -87397.96, 277.09772, -0.0033024799, -0.005270829, -11045.9, -11045.9 
1.5153925e+3, 3.1477857e+2, -12781.784, -88045.125, -46.604706, -0.0045373114, -0.008975042, -12781.755, -12781.755 
1.5257043e+3, 1.2495001e+2, -1663901.6, -1724181.0, 791.6527, 0.00292833, -0.008058775, -1663891.3, 51598.094 
1.5256879e+3, 1.3494694e+2, -1568614.3, -1627724.5, 646.4344, 0.000044202177, -0.0053947126, -1568607.3, 48912.08 
1.5256716e+3, 1.449432e+2, -1481466.0, -1549032.5, 812.11975, -0.0004391029, -0.007379324, -1481456.3, 38099.754 
1.5256554e+3, 1.5493883e+2, -1384466.1, -1451607.6, 1029.7589, 0.0011293741, -0.008368458, -1384450.4, 37148.445 
1.5256391e+3, 1.6493389e+2, -1296740.9, -1372076.3, 1496.7987, 0.0010449148, -0.007230873, -1296711.1, 26936.236 
1.5256229e+3, 1.7492832e+2, -1201089.5, -1275298.8, 1481.1138, -0.0006822366, -0.0057463036, -1201060.0, 24641.773 
1.5256068e+3, 1.8492213e+2, -1113910.9, -1196524.4, 1583.4595, -0.0010380751, -0.005655737, -1113880.5, 13881.9 
1.5255906e+3, 1.9491528e+2, -1017364.3, -1099299.6, 1738.743, 0.000067893925, -0.008860484, -1017327.44, 12502.165 
1.5255745e+3, 2.0490785e+2, -929447.56, -1019610.6, 1848.3468, -0.00002271564, -0.008339243, -929409.7, 2492.6853 
1.5255584e+3, 2.1489984e+2, -833130.6, -922453.6, 1709.7401, -0.0015662136, -0.0060237735, -833097.9, 882.9404 
1.5255421e+3, 2.2489117e+2, -745895.0, -843953.6, 1671.1187, -0.0019837127, -0.0053459555, -745866.5, -9800.676 
1.525526e+3, 2.3488183e+2, -649534.6, -746743.44, 1897.9575, -0.001272139, -0.008210232, -649497.6, -11340.229 
1.52551e+3, 2.448719e+2, -561948.5, -667470.2, 1829.3966, -0.0014582172, -0.007808085, -561916.8, -21662.076 
1.5254937e+3, 2.5486138e+2, -465701.1, -570221.0, 1707.145, -0.00244496, -0.0061428654, -465673.22, -23315.309 
1.5254775e+3, 2.648502e+2, -378368.84, -491716.9, 1442.2362, -0.0028109287, -0.0057689436, -378350.5, -33882.938 
1.5254611e+3, 2.7483833e+2, -281718.8, -394221.06, 1606.5217, -0.0024817346, -0.008965015, -281695.88, -35112.133 
1.5254448e+3, 2.8482586e+2, -194135.4, -315379.25, 1209.5258, -0.0023284173, -0.008575938, -194123.34, -45417.49 
1.5254283e+3, 2.948128e+2, -97686.44, -217911.97, 1048.2937, -0.0024256068, -0.006267678, -97677.3, -46843.434 
1.5254119e+3, 3.0480254e+2, -10281.292, -87345.54, 545.6366, -0.0031638627, -0.0052409344, -10277.429, -10277.429 
1.5253954e+3, 3.147951e+2, -11970.025, -87993.56, 569.2189, -0.0043658507, -0.008419255, -11965.764, -11965.764 
1.535709e+3, 1.24966525e+2, -1664285.8, -1724821.8, 99.88308, -0.00062054244, -0.0055831964, -1664285.5, 51041.906 
1.5356928e+3, 1.3496338e+2, -1568866.1, -1628250.0, -0.5526156, 0.0023367847, -0.0075302767, -1568866.1, 48492.12 
1.5356763e+3, 1.4495966e+2, -1481058.1, -1548204.6, 587.5693, 0.0024297766, -0.008085563, -1481053.0, 38341.773 
1.5356599e+3, 1.5495539e+2, -1384167.6, -1450831.4, 787.669, -0.0004614468, -0.006316205, -1384158.3, 37278.402 
1.5356435e+3, 1.6495045e+2, -1296899.1, -1372229.0, 900.3455, -0.0009613285, -0.005819963, -1296888.4, 26596.666 
1.5356272e+3, 1.7494483e+2, -1201173.6, -1275413.9, 900.31976, 0.00096073636, -0.008577255, -1201162.8, 24377.152 
1.535611e+3, 1.8493867e+2, -1113632.4, -1195914.8, 1223.9967, 0.000715474, -0.0078084883, -1113614.1, 13986.211 
1.5355948e+3, 1.9493191e+2, -1017127.44, -1098731.3, 1367.5996, -0.0017203407, -0.0053367205, -1017104.56, 12562.038 
1.5355785e+3, 2.049245e+2, -929771.75, -1020141.56, 1417.7971, -0.0020331354, -0.004788211, -929749.5, 1989.8173 
1.5355623e+3, 2.149164e+2, -833441.1, -922979.6, 1303.1914, -0.00022238094, -0.008303144, -833422.1, 396.5287 
1.535546e+3, 2.2490773e+2, -745559.2, -843121.5, 1262.2958, -0.00015206948, -0.008445016, -745542.8, -9639.237 
1.5355296e+3, 2.3489848e+2, -649179.06, -745916.2, 1469.6122, -0.0020088837, -0.0068230066, -649156.75, -11162.642 
1.5355134e+3, 2.4488857e+2, -562211.75, -667924.1, 1359.4172, -0.0026391747, -0.005842538, -562194.3, -22103.012 
1.535497e+3, 2.5487798e+2, -465914.34, -570671.56, 1261.7783, -0.0019073205, -0.007832635, -465899.16, -23704.05 
1.5354808e+3, 2.648668e+2, -378035.44, -491026.06, 1080.8477, -0.0020311126, -0.007387237, -378025.1, -33720.44 
1.5354644e+3, 2.7485505e+2, -281387.72, -393537.34, 1240.7673, -0.0029723828, -0.0064977417, -281373.97, -34953.996 
1.5354478e+3, 2.8484258e+2, -194391.78, -315866.2, 773.8784, -0.0034724749, -0.00636448, -194386.86, -45844.8 
1.5354314e+3, 2.9482943e+2, -97899.23, -218424.7, 631.62524, -0.0034154614, -0.009124918, -97895.92, -47225.027 
1.5354148e+3, 3.048192e+2, -10076.121, -87046.94, 122.099266, -0.0033325106, -0.008003731, -10075.928, -10075.928 
1.535398e+3, 3.148118e+2, -11731.04, -87647.9, 168.05684, -0.0031864336, -0.005238169, -11730.668, -11730.668 
1.5457141e+3, 1.2498311e+2, -1665310.4, -1725010.3, 387.75516, 0.00008370613, -0.0055588596, -1665307.9, 49857.05 
1.5456975e+3, 1.3498e+2, -1568357.1, -1627703.1, 670.03516, 0.0019873744, -0.0075496365, -1568349.6, 48845.848 
1.545681e+3, 1.4497629e+2, -1480628.5, -1547912.5, 1264.7236, 0.0018779701, -0.0071876957, -1480604.8, 38626.93 
1.5456645e+3, 1.5497202e+2, -1385135.0, -1451231.8, 1150.7267, -0.00021795147, -0.005828231, -1385115.0, 36158.66 
1.5456481e+3, 1.649671e+2, -1297832.5, -1372390.8, 1260.5626, -0.0006486333, -0.0055619534, -1297811.1, 25510.666 
1.5456316e+3, 1.7496152e+2, -1200839.5, -1274978.8, 1454.6395, 0.00056533713, -0.008385133, -1200811.0, 24565.473 
1.5456152e+3, 1.8495537e+2, -1112972.8, -1195510.4, 1744.3584, 0.00037747095, -0.0076472047, -1112935.9, 14500.878 
1.5455988e+3, 1.9494863e+2, -1016883.44, -1098510.6, 1671.7844, -0.0012573783, -0.0051592593, -1016849.25, 12653.695 
1.5455826e+3, 2.0494121e+2, -929679.5, -1019894.75, 1771.9227, -0.0015961046, -0.004648226, -929644.75, 1930.8226 
1.5455662e+3, 2.1493313e+2, -833451.25, -922793.7, 1993.2131, -0.0005485954, -0.008081491, -833406.8, 247.89949 
1.5455496e+3, 2.2492447e+2, -745612.1, -843148.6, 1977.1385, -0.00059413887, -0.0081041185, -745572.06, -9832.543 
1.5455334e+3, 2.3491524e+2, -649048.75, -745801.56, 1800.6421, -0.0019514462, -0.00656985, -649015.25, -11185.217 
1.545517e+3, 2.4490534e+2, -561682.7, -667434.25, 1649.5267, -0.0023769382, -0.00574277, -561656.94, -21729.82 
1.5455005e+3, 2.5489476e+2, -465105.0, -570060.44, 1890.6694, -0.0017390997, -0.0077042948, -465070.97, -23040.229 
1.545484e+3, 2.6488358e+2, -377372.44, -490702.88, 1726.4215, -0.0019285989, -0.0071454905, -377346.16, -33205.965 
1.5454675e+3, 2.7487183e+2, -281031.88, -393325.6, 1556.4957, -0.0028737145, -0.006066994, -281010.3, -34754.816 
1.545451e+3, 2.848594e+2, -193983.72, -315603.88, 1089.54, -0.0034800228, -0.005875385, -193973.95, -45596.41 
1.5454343e+3, 2.9484624e+2, -97185.83, -218020.11, 1213.4579, -0.0035289812, -0.008759714, -97173.64, -46667.313 
1.5454178e+3, 3.0483598e+2, -9290.872, -86775.43, 674.3445, -0.0033771712, -0.008069017, -9285.004, -9285.004 
1.5454009e+3, 3.1482857e+2, -10738.871, -87232.305, 410.23532, -0.0031130395, -0.005766657, -10736.671, -10736.671 
1.555719e+3, 1.2499977e+2, -1664795.3, -1723943.3, 139.95718, 0.003804103, -0.0072445404, -1664794.9, 50206.75 
1.5557022e+3, 1.3499677e+2, -1567929.1, -1626664.1, 398.80106, -0.0004939364, -0.0059638014, -1567926.4, 49104.727 
1.5556857e+3, 1.4499308e+2, -1480945.9, -1548418.0, 618.68976, -0.0013455279, -0.0050765467, -1480940.3, 38126.914 
1.555669e+3, 1.5498875e+2, -1385372.6, -1451692.8, 537.5996, 0.0013907194, -0.0065936674, -1385368.3, 35741.31 
1.5556525e+3, 1.6498384e+2, -1297476.5, -1371674.0, 1018.94684, 0.0013859489, -0.0061950935, -1297462.5, 25695.213 
1.555636e+3, 1.7497835e+2, -1200574.5, -1274307.6, 1192.0905, -0.0014827731, -0.0058404566, -1200555.1, 24656.395 
1.5556195e+3, 1.849722e+2, -1113218.9, -1195830.8, 1255.8763, -0.001636419, -0.005707043, -1113199.9, 14071.994 
1.555603e+3, 1.9496539e+2, -1017098.2, -1098817.6, 1210.6365, 0.0009419555, -0.0076692044, -1017080.25, 12258.318 
1.5555866e+3, 2.04958e+2, -929341.1, -1019055.4, 1319.9119, 0.00071120675, -0.007164788, -929321.7, 2089.2786 
1.5555699e+3, 2.1495003e+2, -833096.7, -921967.75, 1519.5405, -0.0022767368, -0.0058341967, -833070.7, 418.38983 
1.5555535e+3, 2.2494139e+2, -745998.94, -843822.7, 1590.7474, -0.0029122813, -0.005016683, -745973.06, -10399.28 
1.555537e+3, 2.3493207e+2, -649445.3, -746503.3, 1439.6044, -0.0013126967, -0.0071979417, -649424.0, -11758.846 
1.5555204e+3, 2.4492216e+2, -561318.5, -666540.06, 1263.4623, -0.0010197235, -0.0069771726, -561303.3, -21541.182 
1.555504e+3, 2.549117e+2, -464729.25, -569168.1, 1490.13, -0.0019836933, -0.0060377987, -464707.97, -22843.127 
1.5554874e+3, 2.649005e+2, -377712.7, -491318.28, 1263.4297, -0.0024381825, -0.0054300055, -377698.66, -33724.457 
1.5554708e+3, 2.748887e+2, -281319.78, -393942.88, 1114.2872, -0.002382555, -0.007372694, -281308.75, -35218.527 
1.5554541e+3, 2.8487626e+2, -193699.58, -315040.13, 748.63947, -0.0026696636, -0.006676606, -193694.95, -45482.703 
1.5554374e+3, 2.9486316e+2, -96895.64, -217443.72, 880.35425, -0.003032959, -0.0055362876, -96889.21, -46548.95 
1.5554206e+3, 3.0485287e+2, -9631.666, -87529.59, 308.4535, -0.0034267032, -0.0057847905, -9630.445, -9630.445 
1.5554038e+3, 3.1484538e+2, -11077.334, -88013.47, 58.63997, -0.004312935, -0.009382155, -11077.289, -11077.289 
1.5657239e+3, 1.250166e+2, -1664666.5, -1723717.3, 724.85614, 0.0029108156, -0.00700694, -1664657.6, 50179.23 
1.565707e+3, 1.350136e+2, -1568896.1, -1627005.3, 594.9055, -0.000051074938, -0.005783363, -1568890.0, 47976.16 
1.5656903e+3, 1.4500995e+2, -1481652.5, -1548434.4, 813.512, -0.0007571324, -0.004951938, -1481642.6, 37259.34 
1.5656736e+3, 1.5500563e+2, -1384634.1, -1451047.8, 1087.0264, 0.0010707215, -0.0065462124, -1384616.4, 36327.863 
1.565657e+3, 1.6500074e+2, -1296776.1, -1371375.8, 1574.6838, 0.0010334061, -0.0060670758, -1296742.9, 26249.336 
1.5656403e+3, 1.7499524e+2, -1200990.8, -1274534.4, 1416.6829, -0.001013772, -0.0054644244, -1200963.5, 24082.582 
1.5656237e+3, 1.8498911e+2, -1113729.1, -1195744.0, 1487.6418, -0.0011913225, -0.005355314, -1113702.1, 13404.062 
1.565607e+3, 1.9498232e+2, -1017127.0, -1098496.9, 1746.1593, 0.0005702971, -0.0075055263, -1017089.56, 12083.105 
1.5655905e+3, 2.0497495e+2, -929163.4, -1018973.0, 1833.4551, 0.000339705, -0.0070444657, -929126.0, 2118.98 
1.5655738e+3, 2.1496698e+2, -832539.4, -921674.4, 1649.5912, -0.0019005535, -0.005608634, -832508.9, 814.2263 
1.5655573e+3, 2.2495835e+2, -745221.3, -843145.0, 1718.2467, -0.002405089, -0.0047447644, -745191.1, -9783.488 
1.5655406e+3, 2.3494905e+2, -649057.06, -746058.0, 2024.8384, -0.0012480986, -0.006946326, -649014.8, -11516.07 
1.565524e+3, 2.4493915e+2, -561260.06, -666576.25, 1920.1558, -0.0012236952, -0.0067710737, -561225.06, -21629.389 
1.5655075e+3, 2.5492868e+2, -464615.06, -569148.4, 1694.3757, -0.0022381363, -0.005859045, -464587.63, -22889.166 
1.5654907e+3, 2.6491752e+2, -377207.1, -490868.06, 1438.2478, -0.0025527463, -0.005292245, -377188.9, -33381.168 
1.565474e+3, 2.749057e+2, -280387.25, -393314.94, 1681.5255, -0.002215589, -0.0072963648, -280362.22, -34438.645 
1.5654573e+3, 2.8489324e+2, -192709.02, -314484.9, 1418.7535, -0.0024410312, -0.006626946, -192692.48, -44647.023 
1.5654404e+3, 2.948802e+2, -96092.18, -216931.38, 1319.5071, -0.002881233, -0.005427392, -96077.77, -45904.4 
1.5654236e+3, 3.0486992e+2, -8995.261, -87485.98, 772.2998, -0.0033104804, -0.0048229126, -8987.662, -8987.662 
1.5654066e+3, 3.1486243e+2, -10099.089, -87814.56, 715.40186, -0.0043033184, -0.006800771, -10092.504, -10092.504 
1.5757288e+3, 1.2503356e+2, -1665027.3, -1724281.6, 142.33755, -0.0016633933, -0.004946465, -1665026.9, 49643.625 
1.5757118e+3, 1.3503051e+2, -1569177.8, -1627523.0, 47.163555, 0.002575811, -0.006728733, -1569177.8, 47522.766 
1.575695e+3, 1.4502686e+2, -1481150.3, -1547399.3, 583.93256, 0.0026878943, -0.0063653574, -1481145.1, 37591.094 
1.5756781e+3, 1.5502265e+2, -1384221.3, -1450045.4, 832.0433, -0.00082782074, -0.005889156, -1384210.8, 36566.8 
1.5756615e+3, 1.6501775e+2, -1297182.5, -1372058.9, 1002.7782, -0.0012118671, -0.005363994, -1297169.0, 25656.354 
1.5756446e+3, 1.750122e+2, -1201339.9, -1275185.9, 881.30536, 0.0013570337, -0.0068020886, -1201329.4, 23550.465 
1.5756279e+3, 1.8500607e+2, -1113291.4, -1194792.0, 1153.7545, 0.001067551, -0.006213631, -1113275.0, 13664.844 
1.5756112e+3, 1.949994e+2, -1016712.56, -1097544.1, 1379.0778, -0.0019209787, -0.0052646566, -1016689.0, 12316.339 
1.5755945e+3, 2.0499204e+2, -929600.9, -1019717.44, 1470.9468, -0.002207528, -0.0048733405, -929576.9, 1500.6787 
1.5755777e+3, 2.1498398e+2, -833004.6, -922466.6, 1322.7108, 0.00009255922, -0.0069725, -832985.06, 171.43987 
1.5755612e+3, 2.2497536e+2, -744753.75, -841997.25, 1245.0538, 0.00028040985, -0.006617365, -744737.8, -9496.845 
1.5755443e+3, 2.3496616e+2, -648540.06, -744895.2, 1517.8131, -0.0017395297, -0.006024541, -648516.1, -11185.152 
1.5755276e+3, 2.4495628e+2, -561730.25, -667478.2, 1525.7284, -0.002764701, -0.0054914993, -561708.2, -22280.422 
1.5755108e+3, 2.5494573e+2, -465086.3, -570056.1, 1329.27, -0.0026294133, -0.0068808063, -465069.47, -23538.076 
1.5754941e+3, 2.6493457e+2, -376778.06, -489889.84, 1101.5997, -0.002469638, -0.006270935, -376767.34, -33126.7 
1.5754773e+3, 2.7492285e+2, -279955.34, -392334.5, 1337.9536, -0.0024187376, -0.006019462, -279939.4, -34183.875 
1.5754604e+3, 2.8491044e+2, -192889.77, -314789.06, 1004.6902, -0.0027381652, -0.0059400094, -192881.48, -45004.227 
1.5754436e+3, 2.9489732e+2, -96216.96, -217228.28, 928.74084, -0.0031234631, -0.008040872, -96209.836, -46204.156 
1.5754266e+3, 3.0488706e+2, -8875.033, -87373.68, 482.08078, -0.0031989047, -0.004998231, -8872.072, -8872.072 
1.5754095e+3, 3.1487963e+2, -9945.318, -87688.555, 444.42267, -0.003699538, 0.0008186373, -9942.777, -9942.777 
1.5857336e+3, 1.2505059e+2, -1665812.8, -1724275.6, 357.64468, -0.000741876, -0.004558963, -1665810.6, 48693.145 
1.5857166e+3, 1.3504754e+2, -1568834.3, -1627023.3, 641.2857, 0.002092999, -0.006604178, -1568827.3, 47706.207 
1.5856996e+3, 1.4504392e+2, -1480956.9, -1547270.1, 1141.2379, 0.0020017384, -0.006335465, -1480937.3, 37631.723 
1.5856828e+3, 1.5503971e+2, -1385037.6, -1450414.1, 947.68256, -0.0005061083, -0.005723719, -1385023.9, 35586.43 
1.5856658e+3, 1.6503485e+2, -1297755.5, -1371891.9, 1134.2771, -0.0007548278, -0.0051372163, -1297738.1, 24919.836 
1.585649e+3, 1.7502932e+2, -1200906.0, -1274569.6, 1507.135, 0.0011254179, -0.006531486, -1200875.1, 23836.945 
1.5856321e+3, 1.850232e+2, -1112833.8, -1194689.6, 1808.621, 0.0007655149, -0.0059786476, -1112793.9, 13978.1045 
1.5856153e+3, 1.9501652e+2, -1016522.06, -1097551.6, 1548.53, -0.001690431, -0.0051399507, -1016492.5, 12345.083 
1.5855984e+3, 2.0500916e+2, -929388.4, -1019277.7, 1652.5471, -0.0019675496, -0.004659559, -929358.0, 1551.6606 
1.5855816e+3, 2.1500115e+2, -833089.56, -922191.7, 2016.712, -0.0001445919, -0.0065606404, -833043.94, -55.645992 
1.5855649e+3, 2.2499253e+2, -744939.06, -842185.8, 1945.7878, -0.00004000834, -0.006375124, -744900.1, -9827.438 
1.585548e+3, 2.3498333e+2, -648072.6, -744716.5, 1649.157, -0.0017032437, -0.0060651726, -648044.5, -10881.659 
1.5855312e+3, 2.4497347e+2, -560872.94, -666792.94, 1622.0227, -0.0024535214, -0.00536209, -560848.1, -21588.592 
1.5855144e+3, 2.5496292e+2, -464536.75, -569556.4, 1976.7639, -0.0021922952, -0.0062851417, -464499.53, -23136.719 
1.5854976e+3, 2.649518e+2, -376574.8, -489820.53, 1849.0802, -0.0022637348, -0.0058993404, -376544.63, -33072.656 
1.5854806e+3, 2.7494007e+2, -279906.5, -392255.78, 1618.3954, -0.0027356965, -0.0064687463, -279883.2, -34296.24 
1.5854636e+3, 2.8492764e+2, -192599.45, -314418.06, 1224.741, -0.0031151634, -0.0057571814, -192587.14, -44878.668 
1.5854466e+3, 2.9491457e+2, -95457.11, -216621.27, 1401.2455, -0.0031431029, -0.0058018034, -95440.91, -45604.42 
1.5854298e+3, 3.0490425e+2, -7963.068, -87275.695, 1030.9587, -0.0030773177, -0.008146369, -7949.6694, -7949.6694 
1.5854126e+3, 3.148967e+2, -8369.367, -87211.94, 643.74164, -0.003416501, -0.013088017, -8364.112, -8364.112 
1.5957384e+3, 1.2506767e+2, -1665237.4, -1723110.9, 116.505516, 0.0041073947, -0.0054831966, -1665237.1, 49099.19 
1.5957212e+3, 1.3506474e+2, -1568376.9, -1625898.3, 363.88297, -0.00089006405, -0.005655313, -1568374.5, 47990.5 
1.5957043e+3, 1.4506112e+2, -1481439.5, -1548079.8, 601.6225, -0.0018949228, -0.005171242, -1481434.0, 36966.418 
1.5956873e+3, 1.5505685e+2, -1385475.8, -1451195.0, 462.77847, 0.0014531435, -0.005968413, -1385472.5, 34969.887 
1.5956701e+3, 1.65052e+2, -1297096.5, -1370461.3, 863.18286, 0.0016892356, -0.0052633244, -1297086.3, 25403.584 
1.5956531e+3, 1.750466e+2, -1200292.4, -1273143.6, 1191.0599, -0.001201143, -0.0050740098, -1200272.9, 24269.955 
1.5956363e+3, 1.850405e+2, -1113423.0, -1195747.4, 1360.5042, -0.0015827029, -0.004944053, -1113400.5, 13202.125 
1.5956193e+3, 1.950337e+2, -1017100.2, -1098620.0, 1142.6125, 0.00060085463, -0.0066691795, -1017084.2, 11585.005 
1.5956025e+3, 2.0502637e+2, -928778.44, -1017936.25, 1234.2875, 0.00034598593, -0.005914787, -928761.4, 1979.8119 
1.5955856e+3, 2.1501847e+2, -832450.06, -920814.94, 1552.626, -0.0022684413, -0.0047949934, -832422.75, 395.79785 
1.5955687e+3, 2.2500986e+2, -745534.0, -843337.2, 1610.3951, -0.0028380936, -0.0045082686, -745507.5, -10604.661 
1.5955518e+3, 2.3500057e+2, -648685.3, -745872.0, 1348.5126, -0.0013756165, -0.00676364, -648666.6, -11672.607 
1.5955348e+3, 2.4499069e+2, -560307.25, -665487.1, 1158.9961, -0.00079378666, -0.0059237564, -560294.5, -21203.852 
1.595518e+3, 2.5498027e+2, -463947.38, -568236.3, 1484.9083, -0.0011852755, -0.0043540285, -463926.22, -22733.48 
1.595501e+3, 2.6496914e+2, -377019.9, -490647.38, 1431.3947, -0.001999894, -0.0044918917, -377001.88, -33700.094 
1.5954839e+3, 2.7495733e+2, -280325.25, -393070.0, 1222.1245, -0.0032882676, -0.008362693, -280312.0, -34894.34 
1.5954669e+3, 2.8494495e+2, -192271.88, -313670.22, 944.42474, -0.003715264, -0.005817904, -192264.53, -44725.508 
1.5954499e+3, 2.94932e+2, -95150.98, -215883.84, 1136.118, -0.003116228, 0.00064954406, -95140.29, -45474.434 
1.5954328e+3, 3.0492154e+2, -8536.65, -88474.914, 936.3317, -0.003044592, -0.013670606, -8525.685, -8525.685 
1.5954156e+3, 3.1491405e+2, -8613.078, -87873.85, 556.59186, -0.0038217832, -0.0030292643, -8609.169, -8609.169 
1.6057432e+3, 1.250849e+2, -1664819.0, -1722875.1, 715.2873, 0.003449541, -0.005563312, -1664810.1, 49357.33 
1.6057259e+3, 1.3508198e+2, -1569091.4, -1626238.3, 457.60892, -0.0003196883, -0.005301319, -1569087.6, 47108.492 
1.6057089e+3, 1.4507839e+2, -1482017.0, -1547908.0, 754.9687, -0.0011990917, -0.00467324, -1482008.4, 36223.055 
1.6056916e+3, 1.5507415e+2, -1385233.5, -1450676.1, 1156.1033, 0.0011657182, -0.005518459, -1385213.1, 35059.82 
1.6056746e+3, 1.6506931e+2, -1297033.0, -1370499.8, 1536.1552, 0.0011887162, -0.0050336453, -1297000.9, 25319.373 
1.6056576e+3, 1.750639e+2, -1200691.5, -1273411.1, 1192.0186, -0.0011845035, -0.0051776567, -1200671.9, 23701.434 
1.6056405e+3, 1.850578e+2, -1113592.4, -1195428.8, 1354.0459, -0.0014064293, -0.004914603, -1113569.9, 12863.048 
1.6056235e+3, 1.9505106e+2, -1016928.6, -1098166.6, 1794.8574, 0.0005818676, -0.0061210017, -1016889.0, 11610.196 
1.6056064e+3, 2.0504372e+2, -928642.75, -1017992.3, 1880.4418, 0.000335317, -0.0054106717, -928603.2, 1967.874 
1.6055895e+3, 2.150358e+2, -832062.75, -920705.25, 1539.731, -0.0020335906, -0.0047385236, -832036.0, 612.6071 
1.6055726e+3, 2.250272e+2, -744994.75, -842836.2, 1629.4314, -0.0026412064, -0.0046031238, -744967.56, -10234.725 
1.6055554e+3, 2.3501793e+2, -648587.0, -745603.3, 2014.1666, -0.0014270535, -0.0067249513, -648545.2, -11721.379 
1.6055384e+3, 2.4500808e+2, -560362.0, -665531.3, 1825.8607, -0.0009633682, -0.0053395056, -560330.3, -21409.986 
1.6055213e+3, 2.5499767e+2, -463464.72, -567983.9, 1523.5712, -0.0013838642, -0.002771697, -463442.5, -22420.143 
1.6055043e+3, 2.6498654e+2, -376227.63, -490074.16, 1387.8167, -0.0019743345, -0.0046182564, -376210.72, -33079.207 
1.6054872e+3, 2.7497467e+2, -279578.06, -392563.34, 1620.6439, -0.0028200445, -0.012778531, -279554.84, -34307.156 
1.60547e+3, 2.8496236e+2, -191703.7, -313242.7, 1461.1565, -0.0032893724, -0.005338592, -191686.14, -44317.688 
1.605453e+3, 2.9494956e+2, -94907.625, -215602.53, 1343.4397, -0.0031913065, 0.015045674, -94892.67, -45398.875 
1.6054358e+3, 3.049388e+2, -8420.962, -89289.01, 1434.0614, -0.0032270246, -0.028398741, -8395.539, -8395.539 
1.6054188e+3, 3.1493145e+2, -6236.0405, -86435.07, 1043.2656, -0.0038520421, 0.0046796687, -6222.471, -6222.471 
1.6157481e+3, 1.2510227e+2, -1665410.4, -1723850.1, 136.52448, -0.0016014166, -0.0049343775, -1665410.0, 48587.18 
1.6157307e+3, 1.3509928e+2, -1569561.4, -1627132.9, -67.96633, 0.0028568518, -0.005464738, -1569561.4, 46465.285 
1.6157134e+3, 1.450957e+2, -1481267.9, -1546387.1, 481.74835, 0.0028790976, -0.004730921, -1481264.4, 36797.297 
1.6156961e+3, 1.5509158e+2, -1384552.0, -1449174.9, 833.6673, -0.0009798135, -0.004604819, -1384541.3, 35560.813 
1.615679e+3, 1.6508675e+2, -1297716.5, -1371830.9, 1103.8523, -0.0016502985, -0.0045494116, -1297700.0, 24449.334 
1.6156618e+3, 1.7508122e+2, -1201362.8, -1274724.0, 813.7837, 0.0005433305, -0.0064864755, -1201353.8, 22849.709 
1.6156448e+3, 1.8507516e+2, -1112803.5, -1193746.5, 1055.0155, 0.0005586391, -0.0056206016, -1112789.8, 13473.132 
1.6156276e+3, 1.9506855e+2, -1016149.44, -1096487.6, 1437.8573, -0.0013682907, -0.0040532895, -1016123.7, 12203.987 
1.6156104e+3, 2.0506123e+2, -929346.94, -1019364.7, 1487.5028, -0.0015828331, -0.003606656, -929322.4, 1077.1439 
1.6155934e+3, 2.1505319e+2, -832736.8, -922039.6, 1191.1321, -0.000035672812, -0.0059288815, -832720.94, -242.65286 
1.6155763e+3, 2.2504461e+2, -744297.5, -841341.3, 1218.9398, -0.00017731263, -0.006103534, -744282.2, -9719.707 
1.6155592e+3, 2.3503545e+2, -647888.0, -744147.94, 1556.2362, -0.0019044386, -0.00620217, -647862.8, -11210.627 
1.615542e+3, 2.450256e+2, -560949.8, -666727.2, 1470.5685, -0.0027076395, -0.0039385604, -560929.4, -22180.863 
1.6155249e+3, 2.550151e+2, -464065.56, -569175.6, 1196.5427, -0.0027297067, -0.0014202304, -464051.94, -23200.545 
1.6155078e+3, 2.6500395e+2, -375802.66, -489082.25, 976.8496, -0.0023009987, -0.0058182394, -375794.25, -32833.367 
1.6154906e+3, 2.749921e+2, -279186.1, -391628.56, 1203.2854, -0.0016076572, -0.01921131, -279173.22, -34096.363 
1.6154733e+3, 2.8497985e+2, -191956.28, -313683.94, 1069.7407, -0.0020562739, -0.0044178576, -191946.88, -44750.137 
1.615456e+3, 2.9496726e+2, -95147.06, -216036.66, 970.51276, -0.003471364, 0.035890628, -95139.27, -45818.84 
1.6154389e+3, 3.04956e+2, -8900.576, -90358.65, 1687.402, -0.0037521159, -0.050865725, -8865.637, -8865.637 
1.6154219e+3, 3.149489e+2, -5254.045, -84669.69, 1272.6576, -0.0041457894, 0.013017768, -5233.656, -5233.656 
1.6257527e+3, 1.251197e+2, -1666598.0, -1723899.1, 286.48328, -0.001064036, -0.0047228085, -1666596.6, 47229.945 
1.6257353e+3, 1.3511674e+2, -1569348.5, -1626543.1, 716.5315, 0.0022576342, -0.005079785, -1569339.5, 46516.016 
1.625718e+3, 1.4511319e+2, -1480990.0, -1546282.9, 1204.592, 0.0023256624, -0.004490659, -1480967.8, 36922.52 
1.6257007e+3, 1.5510905e+2, -1384751.0, -1449319.9, 862.5049, -0.00054430263, -0.004717175, -1384739.5, 35191.32 
1.6256833e+3, 1.6510426e+2, -1297737.1, -1371455.3, 1169.2765, -0.0010599633, -0.0044509363, -1297718.6, 24259.383 
1.6256662e+3, 1.7509876e+2, -1201115.4, -1274260.9, 1614.2577, 0.0006277758, -0.005662346, -1201079.9, 22951.91 
1.6256489e+3, 1.850927e+2, -1112757.0, -1193803.4, 1869.2505, 0.00042066158, -0.004961253, -1112714.0, 13377.119 
1.6256317e+3, 1.9508608e+2, -1016203.75, -1096595.9, 1475.3431, -0.0014561331, -0.004356323, -1016176.7, 11979.351 
1.6256145e+3, 2.0507875e+2, -929190.8, -1019064.7, 1538.2484, -0.0016473121, -0.003816863, -929164.5, 1063.2471 
1.6255973e+3, 2.1507075e+2, -832404.7, -921669.75, 1972.1467, -0.00006709465, -0.0049130977, -832361.1, -54.907715 
1.62558e+3, 2.2506216e+2, -744004.1, -841247.3, 1971.4636, -0.00008498237, -0.00529842, -743964.2, -9573.801 
1.6255629e+3, 2.3505297e+2, -647339.9, -743926.4, 1628.616, -0.0016047979, -0.0071013356, -647312.44, -10832.126 
1.6255456e+3, 2.4504316e+2, -560306.25, -666346.3, 1539.1683, -0.002427681, -0.0040143128, -560283.94, -21707.36 
1.6255285e+3, 2.550327e+2, -463694.2, -568931.9, 1825.3114, -0.0027151688, 0.0019308334, -463662.53, -22983.441 
1.6255112e+3, 2.650215e+2, -375492.0, -488940.88, 1615.2803, -0.0024840396, -0.005170007, -375469.03, -32680.205 
1.6254939e+3, 2.7500957e+2, -278697.47, -391332.72, 1363.6704, -0.0018189794, -0.027150903, -278680.94, -33775.33 
1.6254766e+3, 2.8499743e+2, -191471.61, -313268.56, 1140.1925, -0.0021425658, -0.0041135205, -191460.94, -44436.316 
1.6254592e+3, 2.949851e+2, -94911.22, -215728.86, 1314.1138, -0.0034228368, 0.060570773, -94896.93, -45751.133 
1.6254422e+3, 3.0497319e+2, -9878.158, -93637.13, 2442.607, -0.0034347, -0.07808701, -9806.986, -9806.986 
1.6254252e+3, 3.1496608e+2, -1804.8673, -81391.31, 783.6339, -0.0039734505, 0.015080783, -1797.1521, -1797.1521 
1.6357575e+3, 1.2513718e+2, -1665621.4, -1722022.4, 133.3911, 0.003410332, -0.00491833, -1665621.0, 48034.258 
1.63574e+3, 1.3513435e+2, -1568566.3, -1624750.0, 503.81305, -0.0013160642, -0.0043300614, -1568561.8, 47121.098 
1.6357225e+3, 1.4513081e+2, -1481762.3, -1547668.4, 741.47876, -0.0017748035, -0.0040140003, -1481753.9, 35963.695 
1.6357052e+3, 1.5512659e+2, -1385477.8, -1450652.8, 471.2802, 0.001785963, -0.0056178584, -1385474.4, 34284.77 
1.6356878e+3, 1.651218e+2, -1296916.0, -1369668.1, 856.0214, 0.0020379014, -0.004599421, -1296905.9, 24900.164 
1.6356704e+3, 1.7511645e+2, -1200312.9, -1272488.6, 1244.1904, -0.0006471965, -0.0032772962, -1200291.5, 23566.863 
1.6356531e+3, 1.8511039e+2, -1113515.0, -1195317.6, 1482.0681, -0.0014217923, -0.0032787786, -1113488.3, 12429.446 
1.6356358e+3, 1.9510363e+2, -1016923.1, -1098052.5, 1135.6396, -0.00018715885, -0.006442616, -1016907.25, 11076.751 
1.6356185e+3, 2.0509633e+2, -928391.06, -1017429.75, 1242.0477, -0.0004089367, -0.0055075665, -928373.75, 1681.8478 
1.6356012e+3, 2.1508847e+2, -831630.1, -920073.6, 1617.1309, -0.0018763472, -0.0022826311, -831600.56, 531.9599 
1.635584e+3, 2.250799e+2, -744640.0, -842571.5, 1579.9547, -0.0019832985, -0.0027814992, -744614.56, -10397.905 
1.6355667e+3, 2.3507057e+2, -647963.2, -745209.6, 1276.3167, -0.0008325044, -0.009046228, -647946.44, -11638.533 
1.6355494e+3, 2.4506076e+2, -559775.25, -665237.75, 1146.0656, -0.00070400257, -0.005104513, -559762.75, -21358.637 
1.635532e+3, 2.5505042e+2, -463195.53, -567877.44, 1404.8507, -0.0017447134, 0.0068432475, -463176.7, -22671.38 
1.6355146e+3, 2.650392e+2, -375955.53, -489829.7, 1211.7507, -0.0026221015, -0.0031372102, -375942.66, -33327.355 
1.6354974e+3, 2.7502713e+2, -279143.72, -392162.6, 977.24634, -0.0033897595, -0.036306694, -279135.25, -34401.477 
1.63548e+3, 2.8501508e+2, -191194.31, -312609.63, 677.38196, -0.003509499, -0.0040833876, -191190.53, -44338.625 
1.6354623e+3, 2.9500303e+2, -94673.16, -215147.1, 879.51105, -0.0032506757, 0.08867397, -94666.734, -45696.9 
1.6354454e+3, 3.0499032e+2, -12812.433, -99760.32, 3136.1694, -0.0025148722, -0.10918652, -12699.459, -12699.459 
1.6354285e+3, 3.1498334e+2, 328.1084, -77082.805, 1480.3779, -0.004154544, 0.032457795, 356.40826, 356.40826 
1.6457623e+3, 1.2515482e+2, -1664912.1, -1721722.5, 828.24994, 0.0031962749, -0.0041066427, -1664900.0, 48582.355 
1.6457447e+3, 1.35152e+2, -1569385.6, -1625217.4, 367.39233, -0.00066757743, -0.004462555, -1569383.3, 46126.855 
1.6457272e+3, 1.4514847e+2, -1482565.8, -1547582.0, 691.1627, -0.001222581, -0.0041539175, -1482558.4, 34986.3 
1.6457096e+3, 1.5514427e+2, -1385611.4, -1450291.4, 1209.1665, 0.0012093453, -0.0050017717, -1385588.8, 33996.953 
1.6456921e+3, 1.651395e+2, -1297047.8, -1369689.9, 1590.846, 0.0013319062, -0.0040356824, -1297012.9, 24619.604 
1.6456747e+3, 1.7513415e+2, -1200459.1, -1272550.0, 1208.9928, -0.0005612488, -0.0033455745, -1200438.8, 23246.025 
1.6456573e+3, 1.8512811e+2, -1113425.8, -1195057.6, 1477.4911, -0.0010423417, -0.0033050117, -1113399.1, 12345.009 
1.6456398e+3, 1.9512136e+2, -1016625.4, -1097697.3, 1884.7734, 0.000026099344, -0.0058206385, -1016581.6, 11228.558 
1.6456226e+3, 2.0511408e+2, -928209.3, -1017340.3, 2010.8177, -0.00033902322, -0.0047754454, -928163.94, 1717.7524 
1.6456051e+3, 2.1510622e+2, -831526.5, -920050.56, 1672.7484, -0.001959259, -0.0019705524, -831494.9, 463.83182 
1.6455878e+3, 2.2509763e+2, -744460.0, -842490.0, 1605.8159, -0.002170711, -0.0029389586, -744433.75, -10390.862 
1.6455704e+3, 2.350883e+2, -647619.6, -745052.25, 1889.1038, -0.0010029221, -0.009590929, -647583.0, -11448.824 
1.645553e+3, 2.450785e+2, -559282.25, -664988.06, 1768.1516, -0.0007457034, -0.0044205016, -559252.7, -21022.35 
1.6455355e+3, 2.550682e+2, -462474.78, -567547.0, 1528.5653, -0.0015655267, 0.010254292, -462452.56, -22121.305 
1.6455182e+3, 2.6505694e+2, -375234.22, -489552.06, 1272.6208, -0.0023345533, -0.0032159314, -375220.06, -32778.434 
1.6455007e+3, 2.7504474e+2, -278492.7, -391915.8, 1370.1963, -0.0031522678, -0.04557231, -278476.13, -33915.01 
1.6454832e+3, 2.8503278e+2, -190465.36, -312150.4, 990.1316, -0.0034705545, -0.003253101, -190457.3, -43778.996 
1.6454656e+3, 2.9502103e+2, -93978.3, -214770.89, 877.2444, -0.003599911, 0.11795922, -93971.93, -45178.53 
1.6454487e+3, 3.0500746e+2, -16039.611, -107761.836, 3698.9438, -0.0022471624, -0.14244905, -15890.683, -15890.683 
1.6454321e+3, 3.1500027e+2, 5327.056, -68868.22, 959.5153, -0.004060644, 0.04125689, 5339.463, 5339.463 
1.6557671e+3, 1.2517262e+2, -1665842.0, -1723424.4, 219.48732, -0.0008166738, -0.0026236342, -1665841.1, 47466.797 
1.6557494e+3, 1.3516964e+2, -1570160.6, -1626788.8, -147.04688, 0.0029887625, -0.005365981, -1570160.3, 45176.844 
1.6557316e+3, 1.4516616e+2, -1481575.6, -1545576.1, 503.05774, 0.0026432087, -0.0048172423, -1481571.6, 35799.77 
1.655714e+3, 1.5516211e+2, -1384722.0, -1448343.0, 951.3908, -0.0017238251, -0.003360829, -1384707.8, 34703.184 
1.6556965e+3, 1.6515735e+2, -1297766.9, -1371095.3, 1229.9308, -0.0023541884, -0.0029605692, -1297746.3, 23711.248 
1.6556789e+3, 1.7515188e+2, -1201154.4, -1273912.3, 901.46014, 0.00042664775, -0.005276232, -1201143.3, 22367.893 
1.6556615e+3, 1.8514585e+2, -1112654.1, -1193420.9, 1203.9877, 0.0008382976, -0.0045804176, -1112636.1, 12933.988 
1.655644e+3, 1.9513927e+2, -1015859.94, -1096080.4, 1552.3798, -0.0007324527, -0.00321179, -1015829.94, 11804.845 
1.6556266e+3, 2.05132e+2, -928822.9, -1018656.8, 1642.4838, -0.0012860451, -0.0022222237, -928792.8, 913.3795 
1.6556092e+3, 2.15124e+2, -832112.56, -921318.4, 1341.5043, -0.0007761, -0.003408389, -832092.4, -307.8912 
1.6555917e+3, 2.2511539e+2, -743903.7, -841395.44, 1314.9902, -0.0011010274, -0.0051245345, -743885.94, -10017.15 
1.6555741e+3, 2.3510617e+2, -647084.0, -743979.8, 1564.3953, -0.0020735404, -0.009183799, -647058.75, -11099.6 
1.6555567e+3, 2.4509639e+2, -559718.56, -665907.4, 1411.3107, -0.0023251188, -0.0024532042, -559699.8, -21644.775 
1.6555391e+3, 2.5508603e+2, -462909.3, -568439.6, 1181.4185, -0.0021801032, 0.012504074, -462896.1, -22739.48 
1.6555215e+3, 2.650747e+2, -375020.72, -489058.66, 869.5106, -0.0018497307, -0.004846663, -375014.1, -32746.611 
1.655504e+3, 2.7506247e+2, -278318.88, -391510.22, 951.2688, -0.0015510314, -0.05496983, -278310.9, -33923.48 
1.6554865e+3, 2.8505063e+2, -190773.89, -312745.44, 502.3967, -0.0023809536, -0.0017954801, -190771.81, -44268.19 
1.6554688e+3, 2.9503912e+2, -94294.0, -215395.2, 392.762, -0.004561914, 0.14827323, -94292.73, -45676.453 
1.6554518e+3, 3.0502447e+2, -21008.38, -118140.16, 4469.4204, -0.0026543871, -0.17750987, -20803.158, -20803.158 
1.6554356e+3, 3.1501713e+2, 10740.027, -57654.72, 1703.5935, -0.004561196, 0.05622769, 10782.435, 10782.435 
1.6657718e+3, 1.2519042e+2, -1667062.4, -1723558.3, 137.11671, -0.00033449935, -0.0032960684, -1667062.0, 46071.49 
1.665754e+3, 1.3518752e+2, -1569841.5, -1626203.3, 712.0579, 0.0022950447, -0.004470053, -1569832.5, 45329.59 
1.6657361e+3, 1.4518404e+2, -1481181.3, -1545332.6, 1386.0392, 0.002155063, -0.0037422953, -1481151.3, 36044.887 
1.6657186e+3, 1.5517999e+2, -1384979.1, -1448437.1, 1005.2904, -0.0010093467, -0.0033566789, -1384963.1, 34272.58 
1.6657008e+3, 1.6517524e+2, -1298067.4, -1370985.5, 1313.5446, -0.0016689608, -0.0030984555, -1298043.8, 23238.516 
1.6656832e+3, 1.7516981e+2, -1201181.5, -1273674.1, 1690.1262, 0.00006797532, -0.004732845, -1201142.1, 22193.44 
1.6656657e+3, 1.8516378e+2, -1112678.8, -1193380.3, 2014.4534, 0.0002976968, -0.0041631763, -1112628.5, 12765.997 
1.665648e+3, 1.951572e+2, -1015846.44, -1096080.9, 1682.1776, -0.00076733186, -0.0034327435, -1015811.2, 11647.97 
1.6656306e+3, 2.0514992e+2, -928658.2, -1018544.06, 1752.9543, -0.00109853, -0.0021874108, -928624.0, 906.5395 
1.665613e+3, 2.1514194e+2, -831695.56, -921067.1, 2041.3937, -0.0006132318, -0.0024331491, -831649.0, -40.268787 
1.6655955e+3, 2.2513333e+2, -743406.06, -841181.1, 2061.3677, -0.0009952474, -0.004495833, -743362.6, -9669.623 
1.665578e+3, 2.351241e+2, -646552.25, -743765.44, 1829.3533, -0.0019786907, -0.009888116, -646517.8, -10734.281 
1.6655605e+3, 2.451143e+2, -559161.5, -665856.7, 1594.1312, -0.002350624, -0.0021627694, -559137.7, -21258.209 
1.6655429e+3, 2.5510395e+2, -462194.75, -568279.1, 1668.3881, -0.0024283552, 0.015766978, -462168.53, -22187.598 
1.6655251e+3, 2.6509258e+2, -374139.0, -488755.28, 1297.0397, -0.0019856014, -0.004526105, -374124.34, -32032.063 
1.6655076e+3, 2.7508026e+2, -277295.03, -391164.75, 1074.4261, -0.0011632896, -0.062988214, -277284.9, -33071.73 
1.6654897e+3, 2.8506845e+2, -189657.88, -312543.9, 514.8126, -0.0021192606, -0.0012036434, -189655.72, -43326.965 
1.665472e+3, 2.9505718e+2, -92896.33, -215150.95, 510.1507, -0.005044251, 0.1734075, -92894.195, -44454.88 
1.6654551e+3, 3.0504152e+2, -26201.553, -130452.35, 5012.576, -0.0020317028, -0.20472814, -25961.094, -25961.094 
1.665439e+3, 3.1503367e+2, 16027.944, -45402.254, 1093.6415, -0.0046760095, 0.06332617, 16047.408, 16047.408 
1.6757765e+3, 1.2520826e+2, -1665870.5, -1721200.3, 22.380924, 0.003228371, -0.0055009173, -1665870.5, 47088.336 
1.6757585e+3, 1.3520555e+2, -1568845.3, -1623980.4, 539.95276, -0.0017086521, -0.0023186614, -1568840.0, 46145.406 
1.6757408e+3, 1.4520209e+2, -1481993.3, -1546834.8, 942.30524, -0.0016302062, -0.0013981232, -1481979.6, 35039.64 
1.675723e+3, 1.551979e+2, -1385707.9, -1449840.1, 623.82263, 0.0023013272, -0.0045866636, -1385701.8, 33358.355 
1.6757052e+3, 1.6519317e+2, -1297295.9, -1369378.4, 1079.921, 0.0021576607, -0.0040789056, -1297279.8, 23826.82 
1.6756874e+3, 1.7518789e+2, -1200451.3, -1272103.1, 1401.1522, -0.0014253118, -0.0023492493, -1200423.8, 22734.602 
1.6756698e+3, 1.8518187e+2, -1113260.3, -1194559.4, 1694.2694, -0.0021802566, -0.00242331, -1113225.0, 11992.357 
1.6756523e+3, 1.9517516e+2, -1016418.25, -1097229.1, 1399.0966, -0.00030237265, -0.0057802037, -1016394.06, 10889.11 
1.6756347e+3, 2.0516787e+2, -928099.44, -1017399.5, 1501.9747, -0.00013588318, -0.0040336153, -928074.2, 1280.299 
1.675617e+3, 2.1516003e+2, -831142.6, -919923.25, 1755.3647, -0.0014146378, 0.000342578, -831107.94, 323.47852 
1.6755994e+3, 2.2515143e+2, -743828.9, -842104.7, 1738.756, -0.0017503548, -0.0017352179, -743798.06, -10282.395 
1.6755818e+3, 2.351421e+2, -646974.25, -744694.2, 1537.3729, -0.0010592425, -0.011449896, -646950.06, -11342.822 
1.675564e+3, 2.4513228e+2, -559018.1, -665533.7, 1314.7347, -0.0012963768, -0.0031355538, -559001.9, -21298.51 
1.6755465e+3, 2.55122e+2, -462070.0, -568001.3, 1365.5735, -0.0025710366, 0.019684942, -462052.38, -22248.262 
1.6755287e+3, 2.6511058e+2, -374514.78, -489521.78, 913.4712, -0.0027430598, -0.0027968793, -374507.53, -32591.658 
1.675511e+3, 2.7509812e+2, -277656.66, -391890.16, 687.45746, -0.0019791569, -0.06981302, -277652.53, -33614.383 
1.6754931e+3, 2.8508636e+2, -189806.06, -312809.34, 113.399536, -0.0027346064, -0.0011278951, -189805.97, -43652.617 
1.6754752e+3, 2.9507527e+2, -93190.8, -215718.22, 132.49487, -0.0052870912, 0.19436476, -93190.65, -44928.59 
1.6754584e+3, 3.050587e+2, -33430.35, -145424.94, 5352.699, -0.0006630913, -0.2252548, -33175.1, -33175.1 
1.6754425e+3, 3.1505007e+2, 22951.57, -30900.59, 1390.0698, -0.0049043996, 0.07208365, 22987.428, 22987.428 
1.6857812e+3, 1.2522629e+2, -1665773.6, -1720979.0, 819.8046, 0.0026373083, -0.0042036506, -1665761.5, 47020.586 
1.6857632e+3, 1.3522357e+2, -1569777.9, -1624284.9, 446.61246, -0.00097568595, -0.0025913334, -1569774.3, 45034.43 
1.6857453e+3, 1.4522015e+2, -1482822.5, -1546944.9, 855.13416, -0.0009910903, -0.0018491668, -1482811.1, 34031.215 
1.6857274e+3, 1.5521601e+2, -1385702.6, -1449587.5, 1301.9421, 0.0016747956, -0.0040205684, -1385676.1, 33206.832 
1.6857097e+3, 1.6521128e+2, -1297173.3, -1369184.4, 1799.0187, 0.0016066509, -0.0034189168, -1297128.4, 23800.86 
1.6856918e+3, 1.7520599e+2, -1200550.5, -1272076.4, 1488.8235, -0.0008139673, -0.0022929162, -1200519.5, 22461.547 
1.685674e+3, 1.8519998e+2, -1113315.3, -1194411.3, 1837.3774, -0.001517199, -0.002352681, -1113273.6, 11766.167 
1.6856563e+3, 1.9519328e+2, -1016301.7, -1096969.6, 2130.213, -0.00054023875, -0.005229703, -1016245.5, 10860.004 
1.6856387e+3, 2.0518601e+2, -927947.5, -1017378.3, 2283.9792, -0.00060518546, -0.003585913, -927889.2, 1287.6313 
1.685621e+3, 2.1517815e+2, -830767.25, -919829.6, 1994.939, -0.001526279, 0.00039099302, -830722.6, 531.2785 
1.6856033e+3, 2.2516954e+2, -743265.0, -841887.7, 1876.873, -0.0016214972, -0.0017668277, -743229.3, -9891.119 
1.6855855e+3, 2.351602e+2, -646226.5, -744419.7, 2043.8726, -0.0009030342, -0.0113729425, -646183.94, -10754.147 
1.685568e+3, 2.4515037e+2, -558233.56, -665371.44, 1864.5416, -0.0012289052, -0.0026951586, -558201.1, -20675.078 
1.6855502e+3, 2.5514007e+2, -461240.25, -567836.44, 1660.6681, -0.002533043, 0.020794732, -461214.38, -21587.44 
1.6855323e+3, 2.6512864e+2, -373529.34, -489498.25, 1178.6854, -0.0027153136, -0.0028629745, -373517.38, -31778.3 
1.6855146e+3, 2.751161e+2, -276265.38, -391607.47, 1093.8348, -0.0019060014, -0.072645165, -276255.03, -32393.035 
1.6854966e+3, 2.8510433e+2, -188268.97, -312425.13, 453.69797, -0.0029090538, -0.000104149694, -188267.31, -42290.12 
1.6854787e+3, 2.950933e+2, -91973.14, -215741.9, 367.65024, -0.0059475815, 0.20481831, -91972.05, -43886.703 
1.6854618e+3, 3.0507588e+2, -40359.145, -160952.63, 5885.088, 0.0002672053, -0.23822647, -40072.63, -40072.63 
1.6854459e+3, 3.150664e+2, 30043.758, -15272.582, 1370.9089, -0.0048305513, 0.07470616, 30085.193, 30085.193 
1.6957858e+3, 1.252445e+2, -1666566.0, -1722498.4, 366.89542, -0.0012608473, -0.0005873167, -1666563.6, 46040.117 
1.6957676e+3, 1.3524163e+2, -1570470.1, -1625662.8, 92.4338, 0.002974768, -0.00477351, -1570470.0, 44161.77 
1.6957498e+3, 1.452382e+2, -1481993.6, -1545216.5, 731.15796, 0.0026395468, -0.0043932144, -1481985.3, 34680.137 
1.6957319e+3, 1.5523422e+2, -1384970.0, -1447945.6, 1119.507, -0.0020110523, -0.002256517, -1384950.1, 33754.23 
1.6957138e+3, 1.6522953e+2, -1297732.9, -1370247.0, 1460.3118, -0.0022974452, -0.0015497522, -1297703.5, 23046.908 
1.6956961e+3, 1.7522413e+2, -1201055.3, -1273048.4, 1188.2192, 0.001259497, -0.003988091, -1201035.6, 21767.646 
1.6956782e+3, 1.8521814e+2, -1112693.5, -1193101.5, 1618.3795, 0.0013488433, -0.0034955305, -1112660.9, 12201.064 
1.6956604e+3, 1.9521157e+2, -1015713.3, -1095703.3, 1860.4636, -0.0014702869, -0.002471099, -1015670.06, 11256.245 
1.6956428e+3, 2.052043e+2, -928503.3, -1018489.75, 2037.2614, -0.002266227, -0.0013307409, -928457.2, 540.4366 
1.695625e+3, 2.1519633e+2, -831322.25, -920927.6, 1787.2566, -0.001148398, -0.0017289326, -831286.6, -210.7886 
1.6956072e+3, 2.251877e+2, -743016.9, -841309.56, 1653.9454, -0.00084649853, -0.003985762, -742989.0, -9828.681 
1.6955894e+3, 2.3517843e+2, -645980.4, -743864.44, 1807.2931, -0.0014619983, -0.010124541, -645947.0, -10695.801 
1.6955717e+3, 2.451686e+2, -558599.4, -666124.56, 1580.427, -0.0020386565, -0.0012789677, -558576.2, -21228.664 
1.6955538e+3, 2.5515822e+2, -461561.5, -568559.06, 1382.3013, -0.0024816745, 0.019687522, -461543.66, -22094.484 
1.6955361e+3, 2.6514676e+2, -373629.94, -489702.2, 936.4792, -0.002190265, -0.0042449106, -373622.4, -32060.758 
1.6955182e+3, 2.751342e+2, -276382.47, -391863.3, 829.7336, -0.0013065056, -0.072316825, -276376.5, -32691.957 
1.6955002e+3, 2.8512242e+2, -188625.13, -313188.25, 5.285532, -0.0029391504, 0.0015631117, -188625.13, -42825.156 
1.695482e+3, 2.9511133e+2, -92475.07, -216794.77, -78.96204, -0.0072041294, 0.20664456, -92475.016, -44566.418 
1.6954651e+3, 3.0509323e+2, -48438.816, -177710.5, 5846.8257, 0.00068777887, -0.24459277, -48174.906, -48174.906 
1.6954492e+3, 3.150827e+2, 37925.95, 1402.9429, 1256.8074, -0.004881325, 0.07929191, 37969.15, 37969.15 
1.7057905e+3, 1.2526271e+2, -1667071.0, -1722475.5, 251.03413, -0.00025431588, -0.0010118514, -1667069.9, 45355.35 
1.7057723e+3, 1.3525987e+2, -1570443.0, -1625413.4, 760.154, 0.0022690247, -0.004160992, -1570432.5, 44020.54 
1.7057541e+3, 1.4525647e+2, -1482150.0, -1545110.1, 1506.2971, 0.0018782851, -0.0037645146, -1482114.0, 34372.39 
1.705736e+3, 1.5525249e+2, -1385741.8, -1448159.5, 1279.9794, -0.0014051028, -0.0024809665, -1385715.5, 32809.87 
1.7057182e+3, 1.6524781e+2, -1298426.8, -1370325.5, 1726.7401, -0.0016996416, -0.0017127527, -1298385.4, 22185.86 
1.7057003e+3, 1.7524245e+2, -1201081.0, -1272777.1, 2042.3473, 0.0006556946, -0.003301852, -1201022.9, 21600.969 
1.7056824e+3, 1.8523647e+2, -1112593.1, -1193152.4, 2448.332, 0.0007677333, -0.002872034, -1112518.8, 12163.616 
1.7056645e+3, 1.9522989e+2, -1015455.44, -1095725.0, 2061.13, -0.0010184525, -0.0025616987, -1015402.5, 11344.389 
1.7056467e+3, 2.052226e+2, -928060.3, -1018125.94, 2239.5603, -0.0016636018, -0.0014839723, -928004.6, 813.6022 
1.705629e+3, 2.1521464e+2, -830961.44, -920591.25, 2528.9814, -0.0012752339, -0.0013225615, -830890.1, 6.1374283 
1.7056112e+3, 2.25206e+2, -742745.44, -841456.44, 2456.896, -0.0012688718, -0.003426963, -742684.3, -9703.475 
1.7055933e+3, 2.3519671e+2, -645445.1, -743853.0, 2191.3313, -0.0016471202, -0.009849953, -645396.3, -10324.336 
1.7055756e+3, 2.4518687e+2, -557676.3, -665869.0, 1891.4519, -0.0021024891, -0.0012907059, -557643.25, -20474.771 
1.7055576e+3, 2.5517645e+2, -460272.16, -568120.0, 1942.891, -0.0025537082, 0.01964857, -460237.2, -20966.852 
1.7055398e+3, 2.6516497e+2, -372383.4, -489518.28, 1510.779, -0.0020682665, -0.0036663795, -372363.94, -30980.895 
1.7055218e+3, 2.7515242e+2, -275328.56, -391824.1, 1256.978, -0.0008825116, -0.07056059, -275315.0, -31808.78 
1.7055036e+3, 2.8514057e+2, -187199.11, -312992.94, 427.21274, -0.0028386475, 0.0016230079, -187197.67, -41575.445 
1.7054854e+3, 2.951294e+2, -90373.24, -216517.1, 505.33398, -0.0077621895, 0.20187153, -90371.22, -42639.477 
1.7054686e+3, 3.0511078e+2, -54996.03, -193660.61, 6343.368, 0.0015129718, -0.23852535, -54706.453, -54706.453 
1.7054525e+3, 3.1509906e+2, 44366.22, 17338.846, 1559.5065, -0.005256254, 0.078538954, 44455.906, 44455.906 
1.7157951e+3, 1.2528092e+2, -1666303.5, -1720761.5, -3.4046755, 0.0040152743, -0.004117105, -1666303.5, 45943.34 
1.7157768e+3, 1.3527825e+2, -1569692.1, -1623748.5, 498.20853, -0.0018520544, -0.0014828531, -1569687.5, 44585.313 
1.7157586e+3, 1.4527489e+2, -1482593.3, -1545968.9, 1152.897, -0.0021842595, -0.0007644671, -1482572.3, 33733.7 
1.7157404e+3, 1.5527081e+2, -1386125.5, -1448902.5, 969.64844, 0.0021300293, -0.004074107, -1386110.5, 32235.326 
1.7157225e+3, 1.6526616e+2, -1297698.4, -1368878.4, 1610.8005, 0.0020528121, -0.0032614367, -1297661.9, 22729.55 
1.7157045e+3, 1.7526093e+2, -1200438.0, -1271417.9, 1865.9269, -0.0020779925, -0.0008586385, -1200389.0, 22053.64 
1.7156865e+3, 1.8525495e+2, -1113263.9, -1194475.3, 2208.0464, -0.00250874, -0.00083519163, -1113203.9, 11297.378 
1.7156687e+3, 1.9524823e+2, -1016118.06, -1096979.0, 1862.8711, 0.0004530934, -0.0048978403, -1016075.2, 10491.98 
1.7156509e+3, 2.0524095e+2, -927571.1, -1016974.06, 2032.3177, 0.00061893923, -0.003516707, -927524.94, 1113.4984 
1.715633e+3, 2.1523312e+2, -830506.3, -919520.0, 2286.8535, -0.0018582891, 0.0010808132, -830447.56, 267.64594 
1.7156151e+3, 2.2522448e+2, -743360.94, -842643.4, 2259.515, -0.0026536437, -0.0006445019, -743309.56, -10509.74 
1.7155974e+3, 2.3521507e+2, -646014.25, -744981.56, 2033.9685, -0.0016361924, -0.010330866, -645972.44, -11080.351 
1.7155793e+3, 2.452052e+2, -557625.8, -665643.06, 1741.0691, -0.0017238343, -0.002359333, -557597.75, -20608.838 
1.7155614e+3, 2.5519484e+2, -460219.13, -567923.7, 1773.5558, -0.0029018363, 0.020332873, -460189.9, -21099.525 
1.7155434e+3, 2.6518333e+2, -372785.94, -490346.5, 1209.5254, -0.0024172012, -0.0016688087, -372773.5, -31570.305 
1.7155255e+3, 2.751707e+2, -275689.3, -392650.9, 946.4479, -0.0007352258, -0.067619696, -275681.66, -32354.803 
1.7155074e+3, 2.8515878e+2, -187299.67, -313233.94, 224.65576, -0.0027456363, 0.00034712497, -187299.27, -41855.64 
1.7154892e+3, 2.9514748e+2, -90723.305, -217231.0, 308.69098, -0.007983552, 0.19135042, -90722.555, -43168.313 
1.715472e+3, 3.0512854e+2, -63132.03, -210432.63, 5534.6304, 0.002473217, -0.22234488, -62924.367, -62924.367 
1.7154558e+3, 3.1511548e+2, 51868.215, 33327.96, 600.35626, -0.005895149, 0.0718042, 51887.637, 51887.637 
1.7257997e+3, 1.2529933e+2, -1667295.1, -1720890.3, 729.0643, 0.0030670408, -0.0035601966, -1667285.3, 44781.156 
1.7257813e+3, 1.352967e+2, -1570490.6, -1623803.5, 674.57556, -0.00096140424, -0.0012125607, -1570482.1, 43610.023 
1.7257631e+3, 1.4529335e+2, -1483099.6, -1545904.9, 1328.5546, -0.001229369, -0.00041182124, -1483071.6, 33053.39 
1.7257449e+3, 1.552893e+2, -1386114.5, -1448619.1, 1685.1467, 0.0018020961, -0.0032905973, -1386069.1, 32095.484 
1.7257269e+3, 1.6528465e+2, -1297792.8, -1368953.6, 2354.5037, 0.0016822577, -0.0028115339, -1297714.9, 22495.232 
1.7257087e+3, 1.7527942e+2, -1200715.8, -1271617.6, 1984.9434, -0.0015892347, -0.0012935534, -1200660.3, 21601.297 
1.7256908e+3, 1.8527345e+2, -1113382.6, -1194288.5, 2426.5657, -0.0021211316, -0.0010907499, -1113309.9, 11010.159 
1.7256728e+3, 1.9526677e+2, -1016028.06, -1096651.4, 2765.4446, -0.000090536, -0.0041208984, -1015933.3, 10452.194 
1.7256549e+3, 2.0525949e+2, -927415.3, -1017121.25, 2956.5618, 0.00010793029, -0.0028145965, -927318.0, 1138.8578 
1.725637e+3, 2.1525162e+2, -829847.9, -919457.1, 2560.419, -0.001473203, 0.00082061, -829774.75, 759.2036 
1.7256191e+3, 2.2524299e+2, -742283.56, -842127.4, 2477.9565, -0.0021108615, -0.0007835286, -742222.06, -9603.422 
1.7256013e+3, 2.3523356e+2, -644906.0, -744462.2, 2744.089, -0.0016414829, -0.009120024, -644830.4, -10119.593 
1.7255832e+3, 2.4522366e+2, -556793.4, -665671.06, 2497.5447, -0.0019685416, -0.0019438374, -556736.1, -19928.25 
1.7255653e+3, 2.5521323e+2, -459539.38, -568041.06, 2202.4797, -0.0030264915, 0.017642768, -459494.66, -20584.623 
1.7255473e+3, 2.6520172e+2, -371768.13, -490250.9, 1596.7389, -0.0024387215, -0.0018846751, -371746.63, -30723.682 
1.7255293e+3, 2.7518916e+2, -273928.06, -392172.7, 1537.4185, -0.00051753456, -0.059854563, -273908.1, -30761.932 
1.7255111e+3, 2.851771e+2, -185357.11, -312603.06, 832.17993, -0.0027095987, 0.00087768055, -185351.67, -40087.71 
1.7254928e+3, 2.951656e+2, -89437.78, -217311.42, 806.8839, -0.008439724, 0.1701057, -89432.69, -42055.676 
1.7254756e+3, 3.0514655e+2, -69466.48, -224910.33, 5647.597, 0.003187766, -0.19871232, -69261.555, -69261.555 
1.7254591e+3, 3.1513217e+2, 58816.85, 48331.18, 1281.1075, -0.0060087875, 0.06456195, 58971.105, 58971.105 
1.7358041e+3, 1.253179e+2, -1667672.0, -1721549.9, 481.27435, -0.0018719949, -0.00047222266, -1667667.8, 44216.742 
1.7357858e+3, 1.3531516e+2, -1570844.9, -1624362.6, 482.90973, 0.003171964, -0.0026851497, -1570840.5, 43070.62 
1.7357674e+3, 1.4531186e+2, -1482485.6, -1544568.0, 1147.3608, 0.0030598508, -0.0018717167, -1482464.4, 33479.266 
1.7357491e+3, 1.5530795e+2, -1385491.3, -1447321.6, 1469.2513, -0.0014351382, -0.0008337932, -1385456.4, 32525.537 
1.735731e+3, 1.653033e+2, -1298356.6, -1370093.6, 2128.5315, -0.0018248108, -0.00084630074, -1298293.5, 21734.064 
1.735713e+3, 1.7529793e+2, -1201276.4, -1272650.5, 1802.6644, 0.001191643, -0.003889261, -1201230.9, 20849.18 
1.735695e+3, 1.8529199e+2, -1112669.6, -1192735.8, 2301.6814, 0.0008928743, -0.0030735405, -1112603.5, 11534.866 
1.735677e+3, 1.9528545e+2, -1015383.75, -1095185.0, 2585.388, -0.0022572146, -0.0009272303, -1015300.06, 10902.205 
1.735659e+3, 2.0527819e+2, -928261.94, -1018709.9, 2825.5657, -0.0025765288, 0.00010318647, -928173.75, 99.87646 
1.735641e+3, 2.1527016e+2, -830699.44, -921009.7, 2476.3423, -0.00043803971, -0.0016465659, -830631.56, -279.21063 
1.7356232e+3, 2.252615e+2, -742003.4, -841313.8, 2327.9329, -0.00018172116, -0.0032463106, -741948.9, -9511.634 
1.7356052e+3, 2.352522e+2, -644617.44, -743676.25, 2574.9248, -0.0016962042, -0.006519897, -644550.56, -10022.292 
1.7355871e+3, 2.4524228e+2, -557405.9, -666834.5, 2276.5684, -0.002735869, -0.00035491152, -557358.56, -20733.031 
1.7355692e+3, 2.552317e+2, -460090.22, -569174.1, 2006.5735, -0.0031130877, 0.012282969, -460053.3, -21324.172 
1.7355512e+3, 2.652202e+2, -371777.4, -490295.97, 1528.002, -0.0022875227, -0.003822059, -371757.72, -30915.613 
1.735533e+3, 2.7520773e+2, -273924.13, -392188.78, 1470.6406, -0.0005610971, -0.048462186, -273905.84, -30941.783 
1.7355148e+3, 2.851956e+2, -185649.02, -313214.8, 527.50476, -0.0031059093, 0.0025332822, -185646.83, -40563.82 
1.7354965e+3, 2.951837e+2, -89955.2, -218414.94, 497.09702, -0.00926019, 0.14015248, -89953.28, -42753.684 
1.7354791e+3, 3.0516472e+2, -75974.99, -238328.3, 4550.2383, 0.0036013713, -0.16863865, -75847.56, -75847.56 
1.7354622e+3, 3.1514907e+2, 64839.113, 61407.848, 40.398838, -0.005756709, 0.05436473, 64839.59, 64839.59 
1.7458086e+3, 1.253365e+2, -1667859.4, -1721288.9, 630.3105, -0.0009864167, -0.00066899287, -1667851.9, 43850.31 
1.7457901e+3, 1.3533382e+2, -1571690.9, -1624460.8, 1070.5393, 0.0025739986, -0.002732999, -1571669.1, 42059.297 
1.7457719e+3, 1.4533052e+2, -1483584.8, -1544989.8, 1864.0176, 0.0022136227, -0.0019024306, -1483528.1, 32232.645 
1.7457536e+3, 1.5532662e+2, -1386188.0, -1447544.5, 1686.4917, -0.00119156, -0.0010647528, -1386141.6, 31657.373 
1.7457353e+3, 1.6532199e+2, -1298702.8, -1370000.3, 2438.372, -0.0013714217, -0.00077588955, -1298619.4, 21224.998 
1.7457172e+3, 1.7531665e+2, -1201444.5, -1272465.9, 2746.405, 0.001057977, -0.0030309972, -1201338.4, 20558.207 
1.745699e+3, 1.8531072e+2, -1112781.4, -1192811.1, 3289.4766, 0.00081593584, -0.0024106163, -1112646.4, 11308.397 
1.745681e+3, 1.9530419e+2, -1015025.44, -1095064.9, 2863.2944, -0.0017723104, -0.0011539998, -1014923.2, 11095.731 
1.7456631e+3, 2.0529689e+2, -927694.56, -1018473.75, 3111.3535, -0.0022530323, -0.00023016578, -927588.06, 502.28436 
1.7456451e+3, 2.1528886e+2, -830158.9, -920750.5, 3390.9707, -0.00093831343, -0.0015232296, -830032.1, 136.89107 
1.7456272e+3, 2.252802e+2, -741514.94, -841302.1, 3272.7568, -0.00065368926, -0.0026381996, -741407.75, -9153.741 
1.7456092e+3, 2.3527089e+2, -643907.75, -743577.4, 2995.3376, -0.0014263146, -0.0051568225, -643817.8, -9472.6045 
1.7455912e+3, 2.4526091e+2, -556316.5, -666522.56, 2613.5686, -0.0022996755, -0.00043164712, -556254.56, -19811.707 
1.7455731e+3, 2.5525028e+2, -458510.88, -568636.6, 2714.391, -0.0029119877, 0.008811491, -458444.03, -19897.0 
1.7455551e+3, 2.6523876e+2, -370246.7, -489986.72, 2288.875, -0.0022579813, -0.003161418, -370202.94, -29543.094 
1.7455369e+3, 2.752264e+2, -273023.2, -392180.9, 2009.876, -0.00074240955, -0.03697164, -272989.3, -30208.215 
1.7455187e+3, 2.8521413e+2, -184520.75, -313162.22, 1001.8879, -0.0033071854, 0.0017678584, -184512.95, -39611.383 
1.7455003e+3, 2.9520184e+2, -87937.06, -218233.0, 1053.6158, -0.009140956, 0.10605302, -87928.55, -40906.773 
1.7454827e+3, 3.0518323e+2, -79143.99, -247746.73, 4462.537, 0.004098812, -0.12824647, -79025.96, -79025.96 
1.7454654e+3, 3.1516635e+2, 69464.36, 71906.3, 896.19183, -0.006032716, 0.040837336, 72199.9, 72199.9 
1.7558132e+3, 1.2535514e+2, -1667506.0, -1720182.1, 183.14896, 0.0036353215, -0.0027703207, -1667505.4, 44014.168 
1.7557946e+3, 1.3535258e+2, -1571109.1, -1623280.6, 647.2919, -0.0014843212, -0.0015325764, -1571101.1, 42443.48 
1.7557761e+3, 1.453493e+2, -1483862.6, -1545645.5, 1729.2805, -0.0025026056, -0.0006654126, -1483814.3, 31762.484 
1.7557578e+3, 1.5534532e+2, -1386518.1, -1448113.1, 1605.632, 0.0013082352, -0.0031004006, -1386476.3, 31139.549 
1.7557395e+3, 1.6534072e+2, -1297976.1, -1368482.1, 2293.0886, 0.001815922, -0.0019660443, -1297901.6, 21759.123 
1.7557213e+3, 1.7533556e+2, -1200730.8, -1271010.0, 2558.145, -0.001327722, 0.0003641248, -1200637.8, 21073.725 
1.7557032e+3, 1.853296e+2, -1113474.0, -1194167.4, 3227.949, -0.0016802218, 0.0003074399, -1113345.0, 10424.673 
1.7556854e+3, 1.9532292e+2, -1015756.9, -1096379.1, 2832.758, 0.00058175944, -0.0041468153, -1015657.44, 10177.791 
1.7556672e+3, 2.0531563e+2, -927306.25, -1017459.8, 3015.4836, 0.00019427652, -0.0031407936, -927205.5, 701.2438 
1.7556491e+3, 2.1530773e+2, -829785.5, -919753.1, 3259.0654, -0.002628964, 0.00075363234, -829667.6, 316.57465 
1.7556313e+3, 2.2529906e+2, -742277.6, -842719.8, 3147.0674, -0.0029216025, 0.00053972134, -742179.1, -10109.956 
1.7556132e+3, 2.3528963e+2, -644682.2, -745001.8, 2899.2244, -0.0010944455, -0.0048349937, -644598.44, -10436.915 
1.7555952e+3, 2.452796e+2, -556272.4, -666232.44, 2543.0962, -0.0011318112, -0.0018223018, -556213.56, -19953.871 
1.7555772e+3, 2.55269e+2, -458405.25, -568305.2, 2662.6953, -0.0026466823, 0.0068618758, -458340.78, -19977.084 
1.7555591e+3, 2.652575e+2, -370704.78, -490839.88, 2042.2516, -0.0025244202, -0.00046207453, -370670.1, -30193.877 
1.755541e+3, 2.752452e+2, -273424.97, -393096.06, 1770.478, -0.0010829471, -0.025296297, -273398.78, -30801.639 
1.7555226e+3, 2.852327e+2, -184581.06, -313420.97, 1038.3911, -0.0033340736, -0.0010849083, -184572.69, -39853.176 
1.7555042e+3, 2.9522002e+2, -88236.81, -218876.88, 1104.3772, -0.008643284, 0.067695566, -88227.48, -41384.063 
1.7554863e+3, 3.0520198e+2, -83080.54, -255800.84, 2782.4585, 0.004236733, -0.08001687, -83035.73, -83035.73 
1.7554687e+3, 3.1518397e+2, 72560.5, 78756.21, -952.51385, -0.006641291, 0.025322169, 78899.34, 78899.34 
1.7658176e+3, 1.2537391e+2, -1669272.4, -1720608.9, 751.37634, 0.0032919056, -0.0017276623, -1669261.4, 42074.12 
1.7657988e+3, 1.3537139e+2, -1571677.1, -1623151.5, 887.9012, -0.0009129984, -0.0014936164, -1571661.8, 41698.617 
1.7657804e+3, 1.4536813e+2, -1484350.9, -1545481.6, 2045.8933, -0.0017541418, -0.00074752676, -1484282.5, 31109.715 
1.765762e+3, 1.553642e+2, -1387622.8, -1448258.5, 2403.6973, 0.0014336875, -0.0024934325, -1387527.6, 29903.227 
1.7657438e+3, 1.6535963e+2, -1299029.9, -1368821.0, 3221.6448, 0.0016738714, -0.0015057288, -1298881.5, 20593.967 
1.7657256e+3, 1.7535447e+2, -1200787.8, -1270877.0, 2907.0188, -0.0013933101, -0.00009470803, -1200667.4, 20858.84 
1.7657074e+3, 1.8534853e+2, -1113309.1, -1194232.0, 3564.7039, -0.0017302311, 0.00014513919, -1113152.4, 10431.961 
1.7656894e+3, 1.9534184e+2, -1015702.2, -1096487.4, 3670.1113, 0.0003703245, -0.0030097347, -1015535.8, 10114.07 
1.7656714e+3, 2.0533453e+2, -927013.3, -1017266.0, 3892.442, 0.00015813703, -0.0024579593, -926845.75, 875.7318 
1.7656533e+3, 2.153266e+2, -829014.7, -919365.06, 3682.9548, -0.0021095427, -0.00015437034, -828864.8, 934.24457 
1.7656353e+3, 2.2531793e+2, -741379.6, -842614.5, 3548.2368, -0.0025104317, 0.00024221366, -741255.44, -9371.285 
1.7656173e+3, 2.353085e+2, -643500.0, -744759.56, 3693.624, -0.0013187766, -0.0028522406, -643365.44, -9388.8125 
1.7655993e+3, 2.4529843e+2, -555068.1, -665913.1, 3357.7253, -0.0015005457, -0.0015800557, -554966.5, -18891.29 
1.7655812e+3, 2.5528774e+2, -457736.7, -568232.0, 3206.2603, -0.0028414247, 0.002021852, -457643.72, -19463.84 
1.765563e+3, 2.652763e+2, -369988.56, -490962.3, 2504.4558, -0.002477255, -0.000021148497, -369936.75, -29644.586 
1.7655449e+3, 2.7526405e+2, -271611.38, -392726.16, 2339.02, -0.0006572667, -0.010346768, -271566.22, -29154.146 
1.7655265e+3, 2.852514e+2, -182230.77, -312492.66, 1689.8296, -0.0029450406, -0.0017168403, -182208.84, -37672.62 
1.765508e+3, 2.9523832e+2, -86545.98, -218544.95, 1636.7993, -0.008522698, 0.024430411, -86525.69, -39861.21 
1.76549e+3, 3.0522102e+2, -83602.29, -259034.03, 2406.2393, 0.003952483, -0.030254686, -83569.29, -83569.29 
1.7654718e+3, 3.1520206e+2, 75200.42, 82766.336, 240.74188, -0.006415598, 0.008027308, 82773.984, 82773.984 
1.7758219e+3, 1.2539281e+2, -1669329.3, -1720650.4, 637.91815, -0.0010500128, 0.0016551529, -1669321.3, 41829.156 
1.7758033e+3, 1.3539022e+2, -1571825.5, -1623161.0, 787.65234, 0.0025749123, -0.0021373373, -1571813.4, 41362.29 
1.7757846e+3, 1.4538704e+2, -1483790.1, -1544179.0, 1734.4028, 0.0027087622, -0.0015307657, -1483740.4, 31466.674 
1.7757662e+3, 1.5538323e+2, -1386908.9, -1446907.6, 2100.4968, -0.00022809031, 0.00012022485, -1386835.4, 30408.965 
1.775748e+3, 1.6537867e+2, -1299329.6, -1369530.1, 3285.552, -0.0010375031, 0.00031675037, -1299176.3, 20112.662 
1.7757298e+3, 1.753734e+2, -1201182.6, -1271557.0, 3000.0366, 0.00010980306, -0.0034181203, -1201054.9, 20285.658 
1.7757115e+3, 1.8536748e+2, -1113035.1, -1193535.1, 3507.4885, -0.00013721321, -0.0021727877, -1112882.6, 10515.983 
1.7756934e+3, 1.953609e+2, -1015432.9, -1095807.5, 3599.3638, -0.0018426883, 0.001275459, -1015272.06, 10191.013 
1.7756754e+3, 2.0535359e+2, -927508.2, -1018138.7, 3905.9985, -0.0017814283, 0.0010248196, -927340.1, 194.61438 
1.7756575e+3, 2.1534555e+2, -829545.6, -920235.06, 3691.8242, -0.00017165631, -0.0038122372, -829395.56, 217.98724 
1.7756394e+3, 2.2533685e+2, -741416.06, -842444.44, 3504.1406, -0.00037452052, -0.0028943943, -741294.7, -9595.913 
1.7756215e+3, 2.353275e+2, -643477.06, -744530.5, 3647.3496, -0.0020931074, 0.0007040259, -643345.56, -9555.127 
1.7756034e+3, 2.453174e+2, -555509.44, -666723.7, 3138.537, -0.0031291267, 0.0001886056, -555420.94, -19531.602 
1.7755853e+3, 2.5530657e+2, -458171.16, -569126.0, 3002.5046, -0.003563146, -0.0051520234, -458089.97, -20094.547 
1.7755671e+3, 2.6529515e+2, -370126.1, -491346.97, 2571.0198, -0.0022244882, -0.00150966, -370071.56, -29963.975 
1.7755489e+3, 2.7528304e+2, -271758.63, -393051.84, 2467.053, 0.000046257082, 0.0067795254, -271708.47, -29482.506 
1.7755306e+3, 2.852702e+2, -182429.86, -312846.03, 1630.6506, -0.0026449477, -0.0009801851, -182409.48, -38057.594 
1.7755121e+3, 2.952566e+2, -86856.86, -219298.86, 1547.5465, -0.008727511, -0.022488879, -86838.78, -40353.707 
1.7754936e+3, 3.0524024e+2, -83792.28, -259475.19, 673.25775, 0.0032556911, 0.020924894, -83789.7, -83789.7 
1.775475e+3, 3.1522062e+2, 74528.49, 81771.65, -1544.6719, -0.006050676, -0.0060576033, 82087.305, 82087.305 
1.7858262e+3, 1.2541175e+2, -1669929.0, -1720465.8, 1168.0917, -0.0006102255, 0.0003972688, -1669902.0, 41062.766 
1.7858075e+3, 1.3540924e+2, -1573851.3, -1623682.4, 1504.0692, 0.002509395, -0.001304445, -1573805.9, 39183.54 
1.7857888e+3, 1.4540608e+2, -1485695.1, -1544756.3, 2644.0784, 0.0023888478, -0.00042439802, -1485577.0, 29443.354 
1.7857704e+3, 1.5540229e+2, -1387189.0, -1446689.3, 2597.0498, -0.00037558802, -0.0002420621, -1387075.9, 29981.639 
1.785752e+3, 1.6539775e+2, -1299417.8, -1369511.5, 3739.377, -0.00091766234, -0.000150819, -1299218.8, 19883.115 
1.7857338e+3, 1.7539251e+2, -1201983.8, -1271898.8, 3746.0723, 0.000464116, -0.0026296237, -1201783.6, 19369.877 
1.7857157e+3, 1.853866e+2, -1113566.8, -1193582.5, 4408.6, 0.00015119377, -0.0014372631, -1113324.5, 9886.828 
1.7856976e+3, 1.9538002e+2, -1014964.8, -1095382.8, 4283.1846, -0.0017574693, 0.0009486893, -1014737.3, 10538.34 
1.7856796e+3, 2.0537269e+2, -926902.06, -1018276.1, 4563.9316, -0.0018129149, 0.0006392241, -926674.7, 672.8101 
1.7856616e+3, 2.1536462e+2, -828795.2, -920287.3, 4497.0986, -0.0003284969, -0.0034298305, -828574.7, 851.97516 
1.7856435e+3, 2.2535591e+2, -740473.75, -842084.06, 4263.7847, -0.00046732224, -0.0019390219, -740295.1, -8783.102 
1.7856257e+3, 2.3534654e+2, -642670.9, -744231.4, 4247.6406, -0.0019623737, 0.0021888386, -642493.56, -8889.797 
1.7856075e+3, 2.4533641e+2, -554556.94, -666735.0, 3654.7847, -0.0027755876, -0.00028869658, -554438.0, -18734.875 
1.7855893e+3, 2.553255e+2, -456194.97, -568661.0, 3582.8662, -0.0030336543, -0.009701209, -456080.94, -18270.926 
1.7855711e+3, 2.6531407e+2, -368099.22, -490576.22, 3141.275, -0.00215023, -0.00058769225, -368018.72, -28096.762 
1.785553e+3, 2.753021e+2, -271051.78, -392899.94, 2994.3213, -0.0007126258, 0.0213045, -270978.25, -28939.117 
1.7855346e+3, 2.8528908e+2, -181981.17, -312956.0, 2188.5015, -0.0029240677, -0.0022429493, -181944.61, -37777.805 
1.7855163e+3, 2.9527506e+2, -85290.12, -218888.56, 1941.7853, -0.007815709, -0.0649547, -85261.91, -38957.582 
1.7854974e+3, 3.0525976e+2, -79497.3, -254074.55, 106.34733, 0.0027446507, 0.07291238, -79497.234, -79497.234 
1.7854781e+3, 3.1523973e+2, 74290.87, 78384.72, -331.0085, -0.005865211, -0.027537132, 78411.31, 78411.31 
1.7958304e+3, 1.2543078e+2, -1669777.3, -1719658.3, 593.59784, 0.002718228, -0.0036775677, -1669770.3, 41008.105 
1.7958115e+3, 1.3542838e+2, -1573298.8, -1622660.3, 954.6427, -0.00035182765, 0.0010319448, -1573280.4, 39521.387 
1.795793e+3, 1.4542526e+2, -1485662.0, -1544913.3, 2713.8518, -0.0016792004, 0.0024664295, -1485538.0, 29294.39 
1.7957745e+3, 1.554214e+2, -1387342.9, -1446897.4, 2732.999, 0.0003302673, -0.0026282708, -1387217.8, 29652.451 
1.7957562e+3, 1.654169e+2, -1299203.0, -1368961.5, 3620.5457, 0.0011065316, -0.0021700442, -1299015.6, 19898.82 
1.795738e+3, 1.7541173e+2, -1201665.6, -1271293.5, 3647.4573, -0.00010384869, 0.0011501006, -1201475.0, 19489.943 
1.7957199e+3, 1.8540584e+2, -1113601.3, -1193673.1, 4606.3643, -0.00063652, 0.0015833708, -1113337.1, 9685.682 
1.7957018e+3, 1.953992e+2, -1015057.5, -1095457.6, 4468.124, -0.00022018685, -0.003023877, -1014809.94, 10277.86 
1.7956838e+3, 2.0539185e+2, -927095.4, -1018586.8, 4605.96, -0.0007642727, -0.0027264124, -926864.06, 295.56335 
1.7956658e+3, 2.1538383e+2, -828968.8, -920580.1, 4537.392, -0.0021909487, 0.0002897828, -828744.6, 493.73422 
1.7956479e+3, 2.253751e+2, -740727.3, -842569.56, 4204.9805, -0.0022633073, 0.0024112836, -740554.0, -9230.04 
1.7956297e+3, 2.3536566e+2, -642992.0, -744797.2, 4163.7944, -0.0014251159, 0.0017655208, -642822.0, -9405.615 
1.7956117e+3, 2.4535547e+2, -554889.7, -667343.44, 3700.5876, -0.0011700686, -0.0027914592, -554768.0, -19251.697 
1.7955935e+3, 2.5534454e+2, -456482.47, -569133.3, 3675.097, -0.0017436513, -0.0120696165, -456362.72, -18739.096 
1.7955755e+3, 2.6533312e+2, -368286.1, -490896.84, 2864.2976, -0.002456597, 0.002396598, -368219.2, -28484.0 
1.7955571e+3, 2.7532125e+2, -271205.72, -393367.56, 2739.285, -0.0026720285, 0.033924613, -271144.3, -29292.697 
1.7955387e+3, 2.85308e+2, -182212.72, -313586.06, 2475.8518, -0.003625337, -0.005230653, -182166.08, -38184.758 
1.7955203e+3, 2.9529357e+2, -85526.4, -219295.73, 2240.6611, -0.0063642263, -0.104809925, -85488.875, -39365.965 
1.7955014e+3, 3.0527946e+2, -75730.27, -246161.22, -1767.2227, 0.0018200321, 0.12465381, -75711.945, -75711.945 
1.7954814e+3, 3.1525928e+2, 70020.67, 69347.09, -2108.2373, -0.006202093, -0.04238583, 71818.85, 71818.85 
1.8058346e+3, 1.254499e+2, -1672719.1, -1720426.4, 1117.7828, 0.0031658628, -0.0020915435, -1672693.0, 37898.063 
1.8058157e+3, 1.3544755e+2, -1574426.0, -1622562.3, 1358.3536, -0.00039330358, 0.00005200419, -1574387.6, 38226.46 
1.805797e+3, 1.4544445e+2, -1486586.4, -1544947.5, 3228.414, -0.001505108, 0.0012941472, -1486408.4, 28235.988 
1.8057786e+3, 1.5544066e+2, -1389266.1, -1447430.1, 3450.7634, 0.0005369451, -0.001795801, -1389062.1, 27619.5 
1.8057603e+3, 1.654362e+2, -1300839.1, -1369416.9, 4594.0435, 0.0010568502, -0.001136071, -1300532.8, 18192.66 
1.8057421e+3, 1.7543104e+2, -1201644.5, -1270947.4, 4501.8247, -0.00024940103, 0.00093938917, -1201353.4, 19422.451 
1.805724e+3, 1.8542515e+2, -1113229.8, -1193702.9, 5350.9043, -0.00058784406, 0.0013487922, -1112875.5, 9958.014 
1.805706e+3, 1.9541849e+2, -1014918.06, -1095612.4, 5108.6245, -0.000008469579, -0.0021118745, -1014595.94, 10302.762 
1.805688e+3, 2.0541115e+2, -926774.6, -1018473.1, 5231.8696, -0.00055500446, -0.0020057224, -926477.06, 493.63974 
1.8056701e+3, 2.1540311e+2, -828258.94, -920308.6, 5249.681, -0.0020116875, -0.00029650805, -827960.5, 1089.1122 
1.805652e+3, 2.2539435e+2, -739769.7, -842653.6, 4883.071, -0.002093603, 0.0022249024, -739538.44, -8403.031 
1.805634e+3, 2.3538487e+2, -641295.06, -744517.3, 4778.6084, -0.0013086909, 0.0035716398, -641074.3, -7846.146 
1.805616e+3, 2.4537463e+2, -553260.1, -666722.7, 4256.331, -0.0012071478, -0.0023727054, -553100.7, -17772.08 
1.8055978e+3, 2.553636e+2, -455955.75, -569039.3, 4285.0435, -0.001837481, -0.015869914, -455793.6, -18357.086 
1.8055797e+3, 2.6535222e+2, -367714.38, -490914.72, 3344.5286, -0.002424578, 0.0030316312, -367623.63, -28075.686 
1.8055613e+3, 2.7534047e+2, -269142.47, -392619.3, 3052.5583, -0.0025647064, 0.046107683, -269067.06, -27403.502 
1.805543e+3, 2.8532705e+2, -179981.38, -312730.56, 2849.8826, -0.0033532504, -0.0064972327, -179920.22, -36125.473 
1.8055245e+3, 2.9531226e+2, -84800.23, -219021.47, 2586.6157, -0.005417446, -0.14037497, -84750.4, -38810.563 
1.8055053e+3, 3.052993e+2, -68918.6, -233778.3, -2223.9583, 0.0009967537, 0.16664883, -68888.6, -68888.6 
1.805485e+3, 3.1527936e+2, 67796.91, 58528.77, -960.133, -0.0056990003, -0.06030235, 67895.33, 67895.33 
1.8158387e+3, 1.2546913e+2, -1672262.6, -1719686.0, 1079.7268, 0.0005056358, 0.0036584514, -1672238.1, 38164.402 
1.8158197e+3, 1.3546675e+2, -1574204.9, -1621923.8, 1337.2355, 0.0013443358, -0.0033784704, -1574167.4, 38258.53 
1.8158011e+3, 1.454637e+2, -1486321.0, -1544200.6, 2996.8071, 0.0017521848, -0.0027213544, -1486166.3, 28289.479 
1.8157826e+3, 1.5546003e+2, -1388808.8, -1446524.4, 3270.4014, 0.00020232637, 0.0015298729, -1388624.0, 27867.746 
1.8157643e+3, 1.654556e+2, -1300644.9, -1369108.0, 4906.78, -0.0007452672, 0.0023236633, -1300295.0, 18240.113 
1.8157463e+3, 1.7545041e+2, -1201567.3, -1270710.5, 4842.0713, -0.0002560764, -0.002263772, -1201229.8, 19356.139 
1.8157281e+3, 1.8544452e+2, -1113541.1, -1194245.8, 5476.073, -0.00023846483, -0.0012497483, -1113171.3, 9472.513 
1.8157102e+3, 1.954379e+2, -1015145.7, -1096104.5, 5253.385, -0.0009769469, 0.002443317, -1014806.2, 9902.394 
1.8156922e+3, 2.0543052e+2, -926719.7, -1018393.9, 5418.7344, -0.0010313838, 0.0017551349, -926400.5, 380.32416 
1.8156743e+3, 2.154224e+2, -828230.94, -920237.06, 5393.775, -0.00059158704, -0.004604499, -827915.8, 944.578 
1.8156564e+3, 2.2541364e+2, -740147.06, -843467.9, 4989.519, -0.00087764126, -0.0017461831, -739906.7, -8960.304 
1.8156382e+3, 2.354042e+2, -641623.6, -745232.5, 4902.17, -0.0018794982, 0.007431206, -641392.25, -8353.277 
1.8156202e+3, 2.453939e+2, -553366.0, -666988.6, 4029.3418, -0.0027401259, 0.0006710871, -553223.25, -18083.504 
1.815602e+3, 2.553828e+2, -456142.47, -569484.5, 4054.2124, -0.0031798643, -0.020857219, -455997.63, -18749.021 
1.8155839e+3, 2.653714e+2, -368102.6, -491765.38, 3466.3674, -0.0021946377, 0.0015695735, -368005.5, -28645.303 
1.8155655e+3, 2.753597e+2, -269553.72, -393328.53, 3247.6177, -0.0010727862, 0.057495173, -269468.56, -27993.443 
1.815547e+3, 2.8534615e+2, -180127.0, -312908.13, 2702.1777, -0.0025263259, -0.006517414, -180072.03, -36464.438 
1.8155287e+3, 2.9533103e+2, -84706.24, -219113.98, 2428.6052, -0.0048849867, -0.17158115, -84662.375, -38906.504 
1.8155092e+3, 3.0531925e+2, -61528.17, -218848.36, -3319.6543, -0.0000009475012, 0.20085731, -61458.152, -61458.152 
1.8154885e+3, 3.1529987e+2, 59556.383, 41197.195, -1966.8129, -0.0055754604, -0.06510617, 59764.723, 59764.723 
1.8258426e+3, 1.2548837e+2, -1674224.5, -1720051.5, 1688.3945, 0.0003742467, 0.002758928, -1674162.5, 36051.62 
1.8258236e+3, 1.3548605e+2, -1577316.9, -1622799.4, 1861.8165, 0.0015879452, -0.0018910675, -1577240.8, 34995.992 
1.825805e+3, 1.4548308e+2, -1489046.0, -1544794.5, 3863.7852, 0.002151241, -0.0011813942, -1488779.5, 25486.398 
1.8257865e+3, 1.5547945e+2, -1389610.8, -1446183.5, 4089.5881, 0.00038419734, 0.0012616552, -1389316.6, 26984.816 
1.8257684e+3, 1.6547506e+2, -1301087.4, -1369229.1, 5668.949, -0.0006480452, 0.0016910335, -1300619.0, 17725.592 
1.8257502e+3, 1.7546988e+2, -1202495.3, -1271085.9, 5435.5356, -0.00027459883, -0.0017122726, -1202067.1, 18327.996 
1.8257323e+3, 1.85464e+2, -1114195.4, -1194454.6, 6196.317, -0.00029124098, -0.00055297796, -1113719.9, 8733.013 
1.8257144e+3, 1.9545738e+2, -1014823.44, -1095880.4, 6232.325, -0.000956604, 0.0025617203, -1014347.06, 10170.606 
1.8256964e+3, 2.0545e+2, -925935.8, -1018533.6, 6351.47, -0.0008896371, 0.0017084631, -925502.2, 1087.9069 
1.8256786e+3, 2.1544184e+2, -826840.1, -920048.8, 6052.7046, -0.0002818331, -0.0045055416, -826448.7, 2221.3945 
1.8256606e+3, 2.25433e+2, -738627.9, -843043.06, 5503.3096, -0.0007513199, -0.0013227814, -738338.6, -7582.155 
1.8256427e+3, 2.3542355e+2, -640578.3, -745080.8, 5577.5815, -0.0021455465, 0.008478167, -640281.5, -7432.2217 
1.8256247e+3, 2.4541321e+2, -552151.75, -666981.5, 4516.1587, -0.0027561374, 0.0008095916, -551974.44, -17023.828 
1.8256064e+3, 2.5540203e+2, -453652.03, -568794.06, 4316.9126, -0.0027195846, -0.022684634, -453490.44, -16430.283 
1.8255882e+3, 2.6539063e+2, -365858.97, -490880.47, 3665.7485, -0.002126416, 0.0022129035, -365751.56, -26579.773 
1.8255699e+3, 2.7537894e+2, -269185.16, -393351.13, 3575.0454, -0.0015420915, 0.06403765, -269082.3, -27795.992 
1.8255514e+3, 2.853653e+2, -180004.58, -312985.94, 2995.755, -0.0023459003, -0.007194704, -179937.13, -36517.375 
1.8255329e+3, 2.9535002e+2, -82964.84, -217954.48, 2418.7488, -0.0039362647, -0.18979825, -82921.52, -37351.57 
1.8255132e+3, 3.0533928e+2, -50468.01, -200071.61, -3954.3608, -0.0013061103, 0.22431917, -50363.563, -50363.563 
1.8254924e+3, 3.1532067e+2, 54189.453, 24351.662, -1389.3866, -0.0045265444, -0.07915356, 54254.01, 54254.01 
1.8358465e+3, 1.2550767e+2, -1674070.6, -1719484.0, 1290.5931, 0.0016211767, -0.002677127, -1674033.9, 35991.008 
1.8358275e+3, 1.355055e+2, -1576793.1, -1621919.9, 1502.1843, 0.00017918879, 0.0035911065, -1576743.1, 35303.07 
1.8358089e+3, 1.455026e+2, -1488452.9, -1543862.5, 4165.4507, -0.00010263953, 0.004804127, -1488141.5, 25933.229 
1.8357904e+3, 1.5549894e+2, -1389270.1, -1445445.1, 4437.7373, 0.0008211373, -0.0016731669, -1388921.8, 27188.764 
1.8357724e+3, 1.6549455e+2, -1301315.9, -1369531.6, 5828.51, 0.0007250929, -0.0018513591, -1300821.5, 17332.023 
1.8357542e+3, 1.7548943e+2, -1202582.8, -1271237.3, 5656.893, -0.00041597456, 0.0015890852, -1202119.8, 18083.979 
1.8357363e+3, 1.8548356e+2, -1113844.4, -1193816.3, 6623.397, -0.0007223517, 0.0025749463, -1113299.6, 8961.62 
1.8357186e+3, 1.9547693e+2, -1014505.06, -1095311.8, 6632.752, -0.00044588654, -0.0007972655, -1013964.25, 10361.913 
1.8357009e+3, 2.0546952e+2, -926414.5, -1019626.06, 6653.8403, -0.00073037064, -0.0012092792, -925941.94, 456.83408 
1.835683e+3, 2.1546134e+2, -827249.1, -921026.75, 6373.217, -0.0011813602, -0.0007594422, -826818.0, 1660.9183 
1.8356651e+3, 2.254525e+2, -738609.4, -843163.56, 5538.078, -0.0016336055, 0.0026725042, -738316.8, -7751.2354 
1.8356471e+3, 2.3544297e+2, -640662.1, -745328.2, 5565.3003, -0.0022645649, 0.0068993256, -640367.0, -7708.0293 
1.835629e+3, 2.4543256e+2, -552701.56, -668153.56, 4618.209, -0.00173276, -0.001741789, -552517.1, -17756.184 
1.8356109e+3, 2.5542134e+2, -454204.6, -569832.94, 4436.7886, -0.0011995777, -0.022010015, -454034.6, -17163.637 
1.8355925e+3, 2.6540992e+2, -365905.03, -491039.25, 3289.7517, -0.0024155409, 0.004688954, -365818.6, -26835.83 
1.835574e+3, 2.7539822e+2, -269249.88, -393741.72, 3251.4194, -0.0036915878, 0.0670482, -269165.0, -28067.693 
1.8355557e+3, 2.8538454e+2, -180412.47, -313838.94, 3232.372, -0.0029282677, -0.008256608, -180334.2, -37102.563 
1.8355373e+3, 2.953691e+2, -83142.336, -217994.3, 2629.0967, -0.0028152457, -0.19825272, -83091.09, -37707.918 
1.8355173e+3, 3.0535924e+2, -41103.273, -180760.05, -4963.3555, -0.0030740532, 0.23836671, -40927.1, -40927.1 
1.8354961e+3, 3.153418e+2, 44711.66, 3709.484, -1896.105, -0.0039006101, -0.07807336, 44799.156, 44799.156 
1.84585e+3, 1.2552701e+2, -1678610.5, -1720416.9, 1629.8267, 0.0025933662, -0.0012685698, -1678547.0, 31288.383 
1.8458311e+3, 1.3552493e+2, -1579491.5, -1621990.5, 2208.2498, -0.00007902584, 0.0027366262, -1579377.1, 32478.719 
1.8458125e+3, 1.4552209e+2, -1490650.0, -1544621.6, 5008.5166, -0.00038985268, 0.003908231, -1490189.3, 23694.396 
1.8457943e+3, 1.5551847e+2, -1391625.6, -1446258.9, 4957.964, 0.0008651301, -0.00055639714, -1391179.4, 24739.643 
1.8457763e+3, 1.6551413e+2, -1303056.0, -1369758.4, 6570.2773, 0.00082978845, -0.00076865015, -1302414.9, 15546.641 
1.8457583e+3, 1.7550905e+2, -1202929.9, -1270826.5, 6764.687, -0.000058049525, 0.0011914676, -1202262.5, 17748.916 
1.8457405e+3, 1.8550318e+2, -1113599.8, -1193951.1, 7671.0957, -0.00031549705, 0.0020911146, -1112874.0, 9194.836 
1.8457228e+3, 1.9549654e+2, -1013720.75, -1095196.6, 7241.987, -0.00036957004, -0.00022138817, -1013082.06, 11051.88 
1.845705e+3, 2.0548911e+2, -925442.56, -1019235.56, 7148.253, -0.0008890019, -0.0005902759, -924900.9, 1305.819 
1.8456873e+3, 2.1548092e+2, -826461.0, -920752.8, 7282.724, -0.0014469322, -0.0003844259, -825901.8, 2385.2036 
1.8456696e+3, 2.2547205e+2, -737594.06, -843391.1, 6339.38, -0.0015910947, 0.0029868195, -737215.56, -6841.4844 
1.8456516e+3, 2.3546243e+2, -638233.9, -744794.5, 6014.218, -0.0016839653, 0.0069718743, -637895.5, -5427.286 
1.8456335e+3, 2.4545199e+2, -550059.44, -667269.06, 4875.386, -0.0013287722, -0.0016359388, -549857.0, -15286.343 
1.8456154e+3, 2.554407e+2, -452822.84, -569603.06, 4901.7397, -0.001178107, -0.021427458, -452617.47, -15936.394 
1.845597e+3, 2.6542926e+2, -364462.5, -490768.9, 3482.1094, -0.0024124964, 0.005072517, -364366.56, -25573.2 
1.8455786e+3, 2.754175e+2, -266534.22, -392724.94, 3084.1218, -0.0039107506, 0.06643729, -266458.88, -25550.418 
1.84556e+3, 2.854038e+2, -178706.19, -313183.28, 2972.8035, -0.0030459703, -0.008255044, -178640.5, -35597.473 
1.8455414e+3, 2.9538834e+2, -84167.01, -218176.0, 2505.6357, -0.001827808, -0.1949976, -84120.17, -38925.723 
1.8455215e+3, 3.0537915e+2, -31321.975, -161136.45, -5086.816, -0.0042109136, 0.23576263, -31122.951, -31122.951 
1.8455002e+3, 3.15363e+2, 40837.832, -14417.849, -1654.1849, -0.0035077191, -0.08187835, 40887.31, 40887.31 
1.8558536e+3, 1.2554644e+2, -1677129.9, -1717896.9, 1808.0089, 0.0016988529, 0.0050119003, -1677049.9, 32595.084 
1.8558347e+3, 1.355444e+2, -1578381.3, -1619816.9, 2405.4775, 0.00055219856, -0.0032190615, -1578242.1, 33422.742 
1.8558161e+3, 1.4554162e+2, -1490889.9, -1544964.3, 5198.0693, 0.001070483, -0.0022113968, -1490394.8, 23297.41 
1.8557979e+3, 1.555381e+2, -1391736.4, -1446351.4, 5233.43, 0.00023896362, 0.0035418074, -1391239.5, 24487.367 
1.85578e+3, 1.6553381e+2, -1302376.1, -1368391.3, 7147.0786, -0.00040185486, 0.0038405114, -1301611.3, 16157.626 
1.8557623e+3, 1.7552875e+2, -1202349.4, -1269635.6, 7353.5337, 0.00053210964, -0.0020430023, -1201555.0, 18263.365 
1.8557446e+3, 1.8552287e+2, -1114218.1, -1195147.6, 8191.326, 0.00033684715, -0.0010305762, -1113397.4, 8478.487 
1.855727e+3, 1.9551621e+2, -1014217.4, -1096223.3, 7815.7163, -0.00095424784, 0.003234905, -1013479.1, 10462.1045 
1.8557094e+3, 2.0550877e+2, -925107.3, -1018636.1, 7467.001, -0.0013712823, 0.002571389, -924514.94, 1499.1698 
1.8556918e+3, 2.1550056e+2, -826140.75, -920270.44, 7550.358, -0.0012170149, -0.0029694268, -825538.94, 2555.6128 
1.8556741e+3, 2.2549164e+2, -738243.0, -844929.5, 6689.738, -0.0011043224, 0.00025652934, -737825.1, -7643.047 
1.855656e+3, 2.3548196e+2, -638874.75, -746202.0, 6378.929, -0.0012430564, 0.008592043, -638496.94, -6220.0625 
1.8556382e+3, 2.4547146e+2, -550113.94, -667514.44, 4671.435, -0.0018574051, 0.00081154605, -549928.4, -15548.621 
1.8556198e+3, 2.5546017e+2, -452950.47, -570025.7, 4682.7446, -0.002393648, -0.020878488, -452763.47, -16273.006 
1.8556015e+3, 2.654486e+2, -365171.6, -492163.8, 3446.444, -0.002302883, 0.0037002861, -365078.13, -26474.516 
1.855583e+3, 2.7543676e+2, -267284.34, -393914.5, 3051.5376, -0.0027370371, 0.06260695, -267210.84, -26490.918 
1.8555644e+3, 2.8542304e+2, -178805.7, -313389.44, 2320.5757, -0.0026166737, -0.0071573346, -178765.7, -35911.363 
1.8555458e+3, 2.954077e+2, -83743.08, -217752.94, 1922.4752, -0.0012018146, -0.18091105, -83715.5, -38710.98 
1.8555258e+3, 3.053989e+2, -21773.313, -141878.9, -4529.1177, -0.005626407, 0.21996202, -21602.764, -21602.764 
1.8555045e+3, 3.1538424e+2, 30761.182, -36036.38, -691.30005, -0.0039588287, -0.070339285, 30768.336, 30768.336 
1.865857e+3, 1.2556581e+2, -1681687.5, -1719511.6, 2295.6125, 0.0014762987, 0.0040243575, -1681548.8, 27906.508 
1.8658382e+3, 1.3556387e+2, -1582630.1, -1621162.3, 2170.4763, 0.0010526589, -0.0019977638, -1582508.3, 28966.084 
1.8658197e+3, 1.4556116e+2, -1494236.1, -1545308.6, 5394.725, 0.0018158178, -0.0012760782, -1493672.5, 19828.238 
1.8658017e+3, 1.5555772e+2, -1393662.4, -1446081.1, 6156.258, 0.0005085711, 0.0025977008, -1392949.1, 22585.326 
1.8657838e+3, 1.655535e+2, -1303842.8, -1369034.0, 8167.985, -0.00040319873, 0.003149392, -1302835.0, 14740.952 
1.8657662e+3, 1.7554845e+2, -1203245.8, -1269970.6, 7773.9146, 0.00024024352, -0.0006456605, -1202352.0, 17273.314 
1.8657488e+3, 1.855426e+2, -1114541.6, -1194936.9, 8702.456, 0.000113441245, 0.00014575175, -1113610.5, 8072.144 
1.8657313e+3, 1.9553596e+2, -1014206.8, -1095874.4, 9026.205, -0.00079958496, 0.0028097532, -1013221.06, 10526.635 
1.8657139e+3, 2.055285e+2, -924488.5, -1019046.3, 8604.148, -0.0010358507, 0.0021438084, -923711.94, 2108.821 
1.8656963e+3, 2.1552025e+2, -823660.56, -919795.75, 8109.8696, -0.0008465261, -0.0021603652, -822981.2, 4920.4644 
1.8656787e+3, 2.2551127e+2, -735236.25, -843824.5, 6980.9053, -0.001027698, 0.00078168063, -734789.25, -4799.578 
1.8656608e+3, 2.3550156e+2, -636887.9, -745648.94, 7151.4663, -0.0015939543, 0.007816301, -636419.6, -4334.7217 
1.8656428e+3, 2.4549101e+2, -548198.9, -667616.6, 5167.9507, -0.0020683382, 0.0012325407, -547975.6, -13787.336 
1.8656246e+3, 2.5547963e+2, -449418.63, -569235.9, 4683.334, -0.0022435081, -0.017245853, -449235.84, -12936.233 
1.8656062e+3, 2.6546803e+2, -362021.53, -490956.28, 3124.4243, -0.0023191553, 0.0039723483, -361945.88, -23532.207 
1.8655877e+3, 2.75456e+2, -266352.78, -393860.44, 3076.7917, -0.0026657232, 0.05415165, -266278.56, -25747.406 
1.8655689e+3, 2.8544235e+2, -178060.2, -313430.88, 2161.0337, -0.0020514473, -0.0062993793, -178025.72, -35360.61 
1.86555e+3, 2.9542723e+2, -81426.05, -216317.97, 1418.71, -0.0004930471, -0.15505312, -81411.13, -36597.918 
1.86553e+3, 3.054185e+2, -11473.197, -123957.06, -4775.8145, -0.006474082, 0.19028509, -11270.791, -11270.791 
1.8655089e+3, 3.1540528e+2, 23856.36, -53420.96, -1230.9574, -0.0026741605, -0.06565722, 23875.96, 23875.96 
1.8758601e+3, 1.2558517e+2, -1681826.4, -1719938.1, 2525.5994, 0.0013476323, -0.0024139662, -1681659.8, 27605.732 
1.8758415e+3, 1.355833e+2, -1582546.6, -1621175.0, 2489.3184, 0.0005041873, 0.0045878715, -1582386.9, 28896.994 
1.8758231e+3, 1.4558072e+2, -1492676.8, -1542349.4, 6085.019, 0.0010685113, 0.004973788, -1491942.3, 21366.916 
1.8758051e+3, 1.5557738e+2, -1392351.1, -1443473.9, 6813.848, 0.0013450261, -0.0021541286, -1391458.5, 23883.31 
1.8757875e+3, 1.6557318e+2, -1304413.3, -1370118.8, 8827.406, 0.00049439736, -0.0013402995, -1303247.9, 14135.007 
1.8757701e+3, 1.7556816e+2, -1203752.1, -1270842.0, 8534.962, -0.00086331397, 0.0042484505, -1202683.4, 16748.846 
1.8757528e+3, 1.8556236e+2, -1113747.3, -1193240.1, 9381.499, -0.0008904622, 0.004710711, -1112655.1, 8833.962 
1.8757355e+3, 1.9555576e+2, -1013404.44, -1094300.5, 9662.316, -0.00011546632, -0.00052067044, -1012266.4, 11287.36 
1.8757182e+3, 2.055483e+2, -925347.0, -1020873.06, 9336.856, -0.00034763812, -0.00087626127, -924442.94, 1183.9637 
1.875701e+3, 2.1553996e+2, -824505.8, -921510.7, 8898.884, -0.0009585641, 0.001405032, -823696.2, 4012.2957 
1.8756834e+3, 2.2553095e+2, -735003.25, -843386.8, 7121.402, -0.001548755, 0.0037842896, -734537.4, -4740.398 
1.8756656e+3, 2.355212e+2, -636666.56, -745357.0, 7238.418, -0.0022379006, 0.004791177, -636186.6, -4294.197 
1.8756476e+3, 2.455106e+2, -549239.5, -669772.3, 5358.037, -0.0019758702, -0.00027065698, -549001.8, -15005.46 
1.8756294e+3, 2.5549915e+2, -450548.03, -571286.06, 4856.7627, -0.0015012694, -0.011410285, -450352.97, -14244.502 
1.875611e+3, 2.6548743e+2, -362033.03, -490990.22, 2482.789, -0.0025612228, 0.0055831396, -361985.25, -23761.74 
1.8755922e+3, 2.7547532e+2, -266314.34, -394064.8, 2483.3142, -0.0038859812, 0.04246158, -266266.1, -25923.83 
1.8755734e+3, 2.854617e+2, -178710.69, -314681.22, 1835.6908, -0.0023333235, -0.0052571334, -178685.9, -36210.39 
1.8755545e+3, 2.9544684e+2, -81818.67, -216767.94, 1081.6042, 0.00029449543, -0.1199486, -81810.01, -37188.86 
1.8755344e+3, 3.0543786e+2, -4152.072, -109077.49, -4465.2935, -0.0064225905, 0.14940518, -3962.386, -3962.386 
1.8755135e+3, 3.154262e+2, 17019.93, -68500.81, 42.15265, -0.0022250633, -0.048083797, 17019.951, 17019.951 
1.8858631e+3, 1.2560444e+2, -1687877.9, -1721082.3, 1962.267, 0.0018436239, -0.0011400211, -1687762.3, 21314.426 
1.8858445e+3, 1.3560273e+2, -1587269.5, -1621736.9, 3090.439, 0.00035673732, 0.0043049552, -1586994.5, 24098.97 
1.8858263e+3, 1.4560023e+2, -1496683.3, -1543874.0, 6851.84, 0.00061895896, 0.004826194, -1495708.6, 17409.324 
1.8858086e+3, 1.5559694e+2, -1395334.4, -1444423.1, 6595.1626, 0.0012488832, -0.0006964392, -1394463.8, 20686.45 
1.8857913e+3, 1.6559282e+2, -1306395.5, -1369943.1, 8846.495, 0.000688662, -0.0004977143, -1305186.9, 12003.597 
1.885774e+3, 1.7558789e+2, -1204902.9, -1270263.9, 9598.645, -0.00062205025, 0.0032753202, -1203522.4, 15716.486 
1.885757e+3, 1.8558212e+2, -1114284.9, -1193588.3, 10476.815, -0.0007090883, 0.0038938643, -1112924.1, 8371.308 
1.8857399e+3, 1.9557554e+2, -1012448.94, -1093898.1, 10019.047, -0.00013281513, 0.0003994999, -1011234.6, 12125.384 
1.8857227e+3, 2.0556808e+2, -923660.9, -1019670.9, 9723.012, -0.0004904694, 0.0002256916, -922686.1, 2746.9043 
1.8857057e+3, 2.1555977e+2, -823256.56, -920534.6, 10260.532, -0.0012229226, 0.0015052728, -822186.06, 5328.298 
1.8856883e+3, 2.2555071e+2, -733406.4, -843617.1, 8350.475, -0.0016298776, 0.0032471078, -732777.3, -3174.0576 
1.8856706e+3, 2.3554088e+2, -632447.94, -744263.1, 7731.1196, -0.0019717985, 0.00396288, -631915.94, -216.30482 
1.8856525e+3, 2.4553022e+2, -544565.8, -668042.0, 5384.0615, -0.0017875822, 0.0007003926, -544331.5, -10527.443 
1.8856344e+3, 2.5551876e+2, -447636.03, -570434.4, 5478.6074, -0.0013731834, -0.006919837, -447392.06, -11475.744 
1.8856159e+3, 2.655069e+2, -359273.75, -490667.53, 2677.8088, -0.0024003517, 0.0046200366, -359219.2, -21186.525 
1.885597e+3, 2.7549455e+2, -262359.7, -393051.25, 2005.7813, -0.004174121, 0.028656652, -262328.9, -22175.297 
1.8855779e+3, 2.8548104e+2, -176134.8, -313786.0, 864.00775, -0.0031182696, -0.0029933534, -176129.38, -33843.477 
1.8855588e+3, 2.9546654e+2, -82882.37, -217311.44, 586.11523, -0.00014111045, -0.07685527, -82879.81, -38451.93 
1.8855388e+3, 3.05457e+2, 50.088882, -99076.99, -4239.134, -0.005795622, 0.097961925, 231.04356, 231.04356 
1.8855181e+3, 3.1544667e+2, 14414.824, -78106.82, -583.61633, -0.0015809545, -0.032337938, 14418.505, 14418.505 
1.8958658e+3, 1.2562363e+2, -1685345.1, -1716410.8, 2606.713, 0.001340817, 0.0054851803, -1685127.9, 23760.797 
1.8958475e+3, 1.356221e+2, -1585085.1, -1617597.6, 3740.7605, 0.00090410915, -0.0016336628, -1584660.4, 26243.313 
1.8958294e+3, 1.4561969e+2, -1497266.0, -1545055.6, 7719.184, 0.00085870887, -0.00040583542, -1496050.0, 16877.115 
1.895812e+3, 1.5561643e+2, -1395833.6, -1445284.0, 7557.6865, -0.00005725593, 0.0050824257, -1394704.4, 20254.82 
1.8957949e+3, 1.656124e+2, -1304831.0, -1366688.4, 9820.888, -0.00023489585, 0.0042861467, -1303309.3, 13689.46 
1.8957779e+3, 1.7560759e+2, -1203452.1, -1267276.3, 10525.294, 0.0004683098, -0.0021444848, -1201761.3, 17284.559 
1.895761e+3, 1.8560189e+2, -1115068.3, -1195093.4, 11420.992, 0.00011691624, -0.0008884527, -1113470.3, 7631.53 
1.8957442e+3, 1.9559528e+2, -1013177.44, -1095220.1, 11081.16, -0.0010377973, 0.0046234424, -1011707.1, 11459.494 
1.8957274e+3, 2.0558786e+2, -922681.75, -1017472.9, 10401.369, -0.0014348229, 0.0045417044, -921553.9, 3685.3726 
1.8957104e+3, 2.1557964e+2, -822260.06, -918503.0, 10875.235, -0.0012991288, -0.001155843, -821046.5, 6273.178 
1.8956931e+3, 2.2557054e+2, -734639.7, -846152.7, 9128.338, -0.0013776447, -0.00006208657, -733897.4, -4488.561 
1.8956757e+3, 2.3556058e+2, -633773.0, -746704.0, 8558.527, -0.0017672486, 0.004751485, -633128.06, -1621.48 
1.8956578e+3, 2.4554989e+2, -544465.0, -667781.2, 5181.6816, -0.001948379, 0.0035401834, -544247.6, -10636.2 
1.8956394e+3, 2.5553846e+2, -447398.72, -570280.44, 5215.1313, -0.0017395411, -0.00327782, -447177.78, -11454.457 
1.8956208e+3, 2.655264e+2, -360524.56, -493189.4, 2350.5435, -0.0023244168, 0.001808616, -360482.9, -22641.758 
1.8956017e+3, 2.755138e+2, -263741.3, -395561.63, 1632.7975, -0.0036888148, 0.013052042, -263721.1, -23755.912 
1.8955827e+3, 2.855004e+2, -176015.28, -313605.28, -583.1136, -0.0036673902, 0.0006380041, -176012.81, -33916.51 
1.8955632e+3, 2.9548642e+2, -82505.17, -216818.28, -719.70917, -0.0021017978, -0.026394488, -82501.32, -38267.816 
1.895543e+3, 3.0547598e+2, 3269.2852, -92722.02, -3035.4614, -0.0058911494, 0.0381991, 3365.1775, 3365.1775 
1.8955228e+3, 3.154669e+2, 11416.33, -84833.23, 1995.1335, -0.001743319, -0.008147868, 11457.669, 11457.669 
1.9058684e+3, 1.2564264e+2, -1692490.0, -1718877.0, 2603.7354, 0.0015654005, 0.0049391645, -1692235.5, 16466.885 
1.90585e+3, 1.3564122e+2, -1590472.1, -1619167.5, 2355.185, 0.0015656204, -0.0006990844, -1590280.1, 20436.158 
1.9058324e+3, 1.4563894e+2, -1501362.0, -1545362.8, 6663.4824, 0.0012988454, 0.0001853122, -1500375.0, 12363.491 
1.9058152e+3, 1.5563582e+2, -1399294.6, -1445369.6, 7904.5107, -0.0002857857, 0.0045401677, -1397976.3, 16792.885 
1.9057982e+3, 1.6563189e+2, -1307903.5, -1367649.4, 10294.691, -0.00039351554, 0.0041849725, -1306179.4, 10628.347 
1.9057816e+3, 1.7562714e+2, -1205340.4, -1267660.4, 10016.684, 0.0007494765, -0.0007062144, -1203769.9, 15084.317 
1.9057651e+3, 1.856215e+2, -1115923.9, -1194040.6, 11246.862, 0.00047346714, -0.000008289428, -1114336.9, 6572.5225 
1.9057485e+3, 1.9561502e+2, -1013771.25, -1094048.6, 12339.974, -0.0010756083, 0.003745054, -1011917.2, 11055.923 
1.905732e+3, 2.0560767e+2, -922570.75, -1017492.0, 11772.728, -0.0015220711, 0.0041481876, -921132.4, 3912.676 
1.905715e+3, 2.1559949e+2, -819643.56, -917213.8, 11331.518, -0.0011338394, 0.0006562746, -818344.8, 8780.452 
1.9056982e+3, 2.2559041e+2, -731062.6, -843924.5, 9508.255, -0.0012843678, 0.0011589213, -730267.25, -1052.9818 
1.9056807e+3, 2.3558044e+2, -630882.75, -744865.6, 10229.352, -0.0017625494, 0.0029900442, -629972.0, 1339.9304 
1.905663e+3, 2.4556972e+2, -541251.2, -667457.5, 6578.696, -0.0020115264, 0.0035660195, -540909.2, -7492.07 
1.9056448e+3, 2.5555822e+2, -440941.84, -568359.5, 5725.326, -0.0020927237, 0.0027569276, -440685.13, -5155.449 
1.905626e+3, 2.6554602e+2, -353992.44, -491095.13, 1919.2869, -0.0022554304, 0.00177947, -353965.56, -16316.453 
1.905607e+3, 2.7553314e+2, -260225.58, -394925.7, 1832.4095, -0.002005155, -0.0026434136, -260200.66, -20425.06 
1.9055875e+3, 2.8551984e+2, -173780.16, -313404.75, -1052.2037, -0.0024162757, 0.0034252822, -173772.23, -31866.445 
1.9055675e+3, 2.9550624e+2, -80651.43, -216612.83, -1745.5164, -0.0032999401, 0.022660693, -80629.02, -36589.793 
1.9055475e+3, 3.0549476e+2, 3871.5984, -91169.34, -3337.4063, -0.004514433, -0.021460008, 3988.6487, 3988.6487 
1.9055274e+3, 3.1548658e+2, 7051.2085, -87455.305, 1704.0011, -0.0014776442, 0.011816531, 7081.9224, 7081.9224 
1.9158705e+3, 1.2566149e+2, -1692975.6, -1719994.8, 3669.8518, 0.0015927403, -0.000973256, -1692486.0, 16031.592 
1.9158526e+3, 1.3566011e+2, -1590784.1, -1619897.5, 3556.858, 0.0011074475, 0.0051979357, -1590355.9, 20175.377 
1.9158351e+3, 1.4565797e+2, -1498957.5, -1540584.3, 7829.0596, 0.00079542876, 0.0051528793, -1497533.8, 15018.45 
1.9158182e+3, 1.5565507e+2, -1397080.3, -1440994.9, 8958.286, 0.0003752491, -0.0009343684, -1395323.1, 19257.408 
1.9158015e+3, 1.6565125e+2, -1308502.0, -1368764.0, 11481.02, 0.0001570953, 0.00026159323, -1306388.8, 10229.202 
1.9157852e+3, 1.7564653e+2, -1205861.8, -1268438.4, 11305.598, 0.00017092354, 0.005865068, -1203881.8, 14782.474 
1.915769e+3, 1.8564104e+2, -1113886.3, -1189621.4, 12387.317, 0.00010322675, 0.0055207275, -1111911.8, 8806.448 
1.9157527e+3, 1.9563475e+2, -1011829.8, -1089954.3, 13359.233, -0.00050817383, -0.0007062492, -1009608.5, 13171.137 
1.9157365e+3, 2.0562749e+2, -923415.4, -1019090.75, 12993.244, -0.00087452575, 0.00031403056, -921682.25, 3168.5732 
1.91572e+3, 2.156193e+2, -820546.1, -918672.4, 12696.993, -0.0010812415, 0.005855671, -818929.9, 8001.4155 
1.9157033e+3, 2.2561027e+2, -729920.1, -841156.6, 10134.506, -0.0015261073, 0.005918925, -729004.3, 15.329299 
1.915686e+3, 2.3560041e+2, -629589.9, -742247.8, 10775.0625, -0.0016628198, -0.00053307257, -628568.56, 2547.5972 
1.9156684e+3, 2.4558967e+2, -542877.2, -670730.6, 7132.926, -0.0022929625, 0.0016571007, -542480.5, -9259.05 
1.9156504e+3, 2.5557804e+2, -442735.5, -571573.75, 6319.1475, -0.003062384, 0.010354826, -442426.3, -7090.9307 
1.9156316e+3, 2.655657e+2, -354155.34, -491382.66, 839.8149, -0.0020828329, 0.0038724702, -354150.2, -16693.78 
1.915612e+3, 2.755526e+2, -260153.52, -395179.16, 704.86694, 0.000014999246, -0.01777384, -260149.84, -20565.174 
1.9155923e+3, 2.8553942e+2, -174884.56, -315684.13, -2576.5017, -0.0012285743, 0.0060624955, -174837.44, -33123.438 
1.915572e+3, 2.955261e+2, -81940.2, -219106.56, -3154.9404, -0.0039720535, 0.07077412, -81867.67, -38023.08 
1.9155519e+3, 3.055134e+2, 3135.9155, -93079.55, -3202.0872, -0.0014105539, -0.08004787, 3242.3643, 3242.3643 
1.9155319e+3, 3.1550586e+2, 10012.735, -81656.91, 3874.5237, -0.003016609, 0.029296769, 10176.205, 10176.205 
1.9258723e+3, 1.2567998e+2, -1700168.0, -1721459.8, 1614.5912, 0.0016781824, 0.000016306265, -1700046.3, 8290.286 
1.9258547e+3, 1.3567877e+2, -1596686.4, -1620757.3, 3054.774, 0.0008479993, 0.0045988616, -1596304.8, 14043.618 
1.9258377e+3, 1.4567676e+2, -1504160.9, -1542221.8, 7230.77, 0.00035062194, 0.0046280995, -1502833.4, 9534.594 
1.925821e+3, 1.5567397e+2, -1400997.1, -1441901.6, 6956.1655, 0.0011130887, -0.000075920674, -1399846.6, 14548.848 
1.9258046e+3, 1.6567029e+2, -1311233.9, -1367961.1, 9808.533, 0.000912176, 0.0007839862, -1309585.9, 6845.6445 
1.9257887e+3, 1.7566574e+2, -1208697.8, -1267699.4, 11323.015, -0.00025664928, 0.0050118454, -1206599.4, 11876.603 
1.9257727e+3, 1.856604e+2, -1116551.4, -1189847.1, 12640.793, -0.00071198057, 0.00484976, -1114432.5, 6095.916 
1.9257568e+3, 1.9565421e+2, -1012887.25, -1089274.3, 12478.282, -0.0009870018, -0.00011272042, -1010900.56, 11688.344 
1.9257408e+3, 2.0564711e+2, -923289.5, -1016683.94, 12601.483, -0.0009754099, 0.0005893529, -921619.1, 3039.404 
1.9257249e+3, 2.1563911e+2, -820569.25, -916458.94, 14252.421, -0.0010310971, 0.0050401217, -818495.75, 8241.322 
1.9257084e+3, 2.2563021e+2, -728893.94, -840111.7, 12094.437, -0.0014155882, 0.0044889296, -727593.94, 1230.3843 
1.9256915e+3, 2.3562041e+2, -624707.4, -739244.6, 11956.575, -0.0013072375, -0.0022285779, -623472.56, 7447.7197 
1.9256741e+3, 2.4560973e+2, -536648.94, -667416.8, 8155.257, -0.002194626, 0.002020064, -536142.3, -3117.4116 
1.9256562e+3, 2.555982e+2, -437319.3, -568653.44, 9039.202, -0.0032425683, 0.014699427, -436700.1, -1562.0172 
1.9256373e+3, 2.6558572e+2, -348804.3, -490492.2, 2892.2383, -0.002402145, 0.002784312, -348745.3, -11484.971 
1.9256176e+3, 2.7557233e+2, -251790.2, -392843.0, 1835.5972, -0.0009738962, -0.031800747, -251766.33, -12374.91 
1.9255973e+3, 2.8555918e+2, -167913.0, -313262.94, -3165.79, -0.0033301394, 0.0070344443, -167844.08, -26323.672 
1.9255765e+3, 2.9554614e+2, -81599.84, -220301.23, -3007.109, -0.006736299, 0.10922222, -81534.68, -37886.504 
1.9255562e+3, 3.055321e+2, -5612.9697, -106310.13, -2893.7742, 0.0018040226, -0.125767, -5529.879, -5529.879 
1.9255361e+3, 3.1552446e+2, 10596.484, -72070.69, 2167.0186, -0.004127008, 0.04924319, 10653.251, 10653.251 
1.935874e+3, 1.2569806e+2, -1697166.5, -1715655.5, 3031.6504, 0.0014335351, 0.0062862276, -1696682.0, 11477.262 
1.9358566e+3, 1.3569713e+2, -1593973.3, -1615533.8, 4414.741, 0.0013289083, -0.0010086829, -1593104.4, 17064.086 
1.93584e+3, 1.4569525e+2, -1504722.0, -1543361.4, 8622.898, 0.00025313438, -0.00032631774, -1502885.0, 9301.833 
1.9358237e+3, 1.5569247e+2, -1401478.1, -1442678.1, 8491.748, 0.0012802386, 0.0050981063, -1399796.5, 14417.637 
1.9358078e+3, 1.6568896e+2, -1308399.3, -1362080.8, 11097.781, 0.0010425659, 0.004582438, -1306195.4, 10053.031 
1.935792e+3, 1.7568474e+2, -1206001.5, -1262222.5, 12429.644, -0.00090410747, -0.0014333688, -1203376.1, 14913.729 
1.9357763e+3, 1.8567955e+2, -1116866.1, -1190338.5, 14064.517, -0.0019162095, -0.0007422519, -1114265.9, 6074.833 
1.935761e+3, 1.9567345e+2, -1013188.9, -1089390.0, 14048.326, -0.002388684, 0.0038283889, -1010681.44, 11719.134 
1.9357453e+3, 2.0566659e+2, -920526.75, -1010394.0, 13890.274, -0.0020643764, 0.0039732642, -918428.8, 6039.0986 
1.9357297e+3, 2.1565892e+2, -817787.6, -910488.06, 15430.652, -0.0011962168, -0.00008009326, -815286.56, 11256.239 
1.9357134e+3, 2.2565019e+2, -729299.7, -840625.1, 13637.176, -0.0011633493, -0.0015689817, -727653.5, 974.86633 
1.9356972e+3, 2.356404e+2, -625331.44, -739659.56, 13641.48, -0.0011358913, -0.0029789486, -623726.25, 6997.965 
1.9356799e+3, 2.4562989e+2, -535304.2, -664015.9, 8588.65, -0.0018000695, 0.003750535, -534733.6, -1906.2396 
1.935662e+3, 2.556186e+2, -435665.47, -565338.75, 9412.169, -0.0031357224, 0.016711771, -434985.88, -47.87755 
1.9356433e+3, 2.6560605e+2, -350539.88, -494163.0, 2604.4548, -0.0043045892, -0.0005492485, -350492.66, -13431.675 
1.9356234e+3, 2.7559233e+2, -253495.06, -396533.47, 1547.912, -0.0045811697, -0.045216598, -253478.31, -14282.679 
1.9356027e+3, 2.8557917e+2, -167520.95, -313125.2, -6282.048, -0.0074609118, 0.0067742015, -167250.42, -25925.797 
1.935581e+3, 2.955664e+2, -81629.89, -221122.36, -6069.149, -0.011830854, 0.13985386, -81366.32, -37916.938 
1.9355603e+3, 3.0555096e+2, -15255.524, -126374.05, -3232.9307, 0.004071895, -0.16144826, -15161.544, -15161.544 
1.9355401e+3, 3.155425e+2, 18912.346, -53884.77, 4428.063, -0.0058985213, 0.06129054, 19180.705, 19180.705 
1.9458754e+3, 1.2571576e+2, -1703755.9, -1717649.4, 1901.5579, 0.0016365558, 0.0059855743, -1703500.3, 4485.6714 
1.9458584e+3, 1.3571495e+2, -1599346.0, -1616890.9, 1420.3071, 0.0018728381, 0.00087594095, -1599231.8, 10761.9795 
1.9458422e+3, 1.4571323e+2, -1509141.8, -1543428.0, 5446.9756, 0.000466511, 0.0012871495, -1508297.1, 3713.5166 
1.9458261e+3, 1.5571062e+2, -1406508.4, -1443077.5, 6885.086, 0.00056436955, 0.0051051495, -1405255.0, 8781.2 
1.9458106e+3, 1.6570729e+2, -1313360.8, -1363038.5, 9496.822, 0.0006674333, 0.0048075276, -1311607.1, 4461.854 
1.9457951e+3, 1.757032e+2, -1209736.9, -1262467.6, 9382.988, -0.00014515744, 0.0006520175, -1208117.1, 9991.778 
1.9457799e+3, 1.8569824e+2, -1119433.9, -1188254.9, 11501.563, -0.00034117035, 0.0012790497, -1117562.6, 2594.8289 
1.9457649e+3, 1.9569243e+2, -1016303.8, -1087591.3, 13451.697, -0.00019115808, 0.0047246916, -1013849.94, 8364.612 
1.9457497e+3, 2.0568582e+2, -923244.25, -1008912.56, 13697.378, -0.00085369707, 0.0056236056, -921107.5, 3171.7263 
1.9457343e+3, 2.1567844e+2, -818637.3, -907866.75, 14152.5625, -0.0016585507, 0.0034098476, -816446.4, 9905.233 
1.9457185e+3, 2.2567001e+2, -729135.3, -836346.75, 13183.949, -0.0019986394, 0.001502126, -727537.8, 896.3535 
1.9457026e+3, 2.3566058e+2, -626240.9, -735927.6, 15740.686, -0.0016888053, -0.0011997526, -624026.7, 6499.8896 
1.9456856e+3, 2.4565038e+2, -534468.44, -660701.7, 11884.895, -0.001975497, 0.005420367, -533359.25, -732.53595 
1.9456682e+3, 2.5563934e+2, -429018.6, -559284.6, 12969.937, -0.0032134, 0.01927861, -427739.78, 6994.9985 
1.9456494e+3, 2.6562688e+2, -341556.5, -489475.4, 6026.1973, -0.0020651722, -0.00029067424, -341311.4, -4454.7476 
1.9456297e+3, 2.7561316e+2, -243291.39, -391194.13, 6926.176, 0.002238737, -0.04942884, -242967.75, -3976.261 
1.9456086e+3, 2.856e+2, -158933.86, -310807.53, -3362.2944, -0.0033696478, 0.012114071, -158859.47, -17739.137 
1.9455858e+3, 2.955873e+2, -74227.85, -220309.02, -4041.8765, -0.016831651, 0.16570039, -74116.1, -30871.348 
1.9455646e+3, 3.055703e+2, -26697.836, -149157.88, -2173.946, 0.013942739, -0.19811988, -26659.256, -26659.256 
1.9455436e+3, 3.1556085e+2, 12392.001, -35352.355, 5317.8706, -0.0063237506, 0.07142082, 12977.1455, 12977.1455 
1.9558765e+3, 1.2573303e+2, -1704548.6, -1719370.6, 3553.5369, 0.000579076, 0.0008048289, -1703740.8, 4075.8206 
1.9558601e+3, 1.3573223e+2, -1599977.3, -1618236.4, 3265.1633, 0.001262424, 0.008367827, -1599410.9, 10413.552 
1.9558442e+3, 1.4573067e+2, -1506334.5, -1537811.1, 6740.021, 0.00020800381, 0.007987422, -1504952.0, 6887.8823 
1.9558285e+3, 1.5572833e+2, -1403776.1, -1437828.4, 8057.6807, -0.00060338725, 0.0015687114, -1401965.8, 11896.872 
1.9558132e+3, 1.6572516e+2, -1313472.6, -1363357.0, 10959.253, -0.00004095711, 0.0025177465, -1311171.1, 4722.591 
1.9557983e+3, 1.7572115e+2, -1209843.0, -1262398.5, 11001.656, 0.0014571674, 0.0086098695, -1207632.9, 10300.103 
1.9557834e+3, 1.857165e+2, -1115896.0, -1180523.1, 12904.571, 0.002576173, 0.008977665, -1113414.5, 6564.237 
1.9557686e+3, 1.9571112e+2, -1012935.9, -1080358.1, 14671.449, 0.0039629512, 0.003738549, -1009881.6, 12149.672 
1.9557537e+3, 2.0570484e+2, -922602.06, -1007277.7, 15332.873, 0.0021660093, 0.0060371356, -919911.1, 4181.824 
1.955739e+3, 2.1569766e+2, -818066.5, -905888.7, 15934.863, -0.002131763, 0.013500856, -815264.6, 10898.705 
1.9557235e+3, 2.2568968e+2, -724788.6, -826589.8, 14491.471, -0.0036764173, 0.01247378, -722765.94, 5475.57 
1.9557078e+3, 2.3568088e+2, -621653.0, -726260.9, 16963.533, -0.003096934, 0.004192083, -618970.9, 11356.754 
1.9556914e+3, 2.4567112e+2, -532554.06, -656404.0, 13706.224, -0.003335099, 0.00876286, -531055.3, 1367.9589 
1.9556743e+3, 2.556604e+2, -427569.3, -555271.3, 14912.003, -0.0033387549, 0.023010872, -425851.13, 8677.324 
1.955656e+3, 2.6564825e+2, -339997.3, -485339.25, 6111.909, 0.004377714, 0.0037119621, -339740.75, -3093.3342 
1.9556364e+3, 2.756348e+2, -241261.0, -386944.47, 6905.76, 0.016967881, -0.04524296, -240934.38, -2155.1338 
1.9556147e+3, 2.856217e+2, -160687.72, -314840.72, -6490.35, 0.0059085074, 0.022911439, -160414.94, -19507.426 
1.955591e+3, 2.9560885e+2, -76211.67, -225675.77, -6773.051, -0.022274038, 0.18881662, -75905.375, -32871.77 
1.9555688e+3, 3.0559018e+2, -37910.848, -173308.53, -7165.88, 0.02950807, -0.23381262, -37532.652, -37532.652 
1.9555461e+3, 3.1557962e+2, 29741.998, 1734.8021, -596.6805, -0.013519676, 0.08132988, 29754.705, 29754.705 
1.9658773e+3, 1.2574965e+2, -1708925.8, -1719957.3, 51.845234, 0.0014473506, -0.00006567808, -1708925.5, -1271.6992 
1.9658615e+3, 1.3574898e+2, -1604545.4, -1618976.8, 1154.6307, 0.0020337773, 0.005498632, -1604453.6, 5206.8457 
1.9658458e+3, 1.4574751e+2, -1511006.5, -1539038.6, 4113.6157, 0.0007443273, 0.0051634302, -1510415.4, 1259.4373 
1.9658306e+3, 1.557453e+2, -1407162.3, -1438388.8, 3699.664, 0.0003267004, 0.00054585945, -1406729.9, 6966.4624 
1.9658157e+3, 1.6574228e+2, -1316315.9, -1362624.0, 6334.3145, -0.00006324139, 0.0013125883, -1315465.1, 260.923 
1.965801e+3, 1.7573845e+2, -1214229.9, -1262394.3, 7542.469, -0.00035444193, 0.0054553133, -1213076.4, 4687.1504 
1.9657865e+3, 1.8573399e+2, -1120482.9, -1180319.4, 9187.065, -0.0011629984, 0.0049975, -1119104.0, 703.2703 
1.965772e+3, 1.9572885e+2, -1017178.06, -1079874.8, 9257.664, -0.0013788178, -0.0001710475, -1015839.7, 6017.9697 
1.9657576e+3, 2.0572291e+2, -925891.4, -1003447.6, 10542.963, -0.0014803483, 0.00047077786, -924483.75, -567.9459 
1.965743e+3, 2.1571621e+2, -823025.0, -902955.2, 13438.412, -0.0020430356, 0.0056140115, -820826.1, 5155.363 
1.9657281e+3, 2.2570877e+2, -729424.0, -822284.9, 12887.175, -0.0016255553, 0.003383445, -727668.7, 385.7867 
1.9657128e+3, 2.3570056e+2, -625545.4, -721487.9, 15137.862, -0.00030899292, -0.0055269194, -623213.56, 6921.231 
1.9656968e+3, 2.4569154e+2, -535808.2, -649227.7, 13653.469, -0.0024538212, 0.0033888682, -534187.7, -1964.551 
1.9656801e+3, 2.556817e+2, -432983.1, -548986.5, 18445.459, -0.006008827, 0.025805183, -430120.72, 4198.973 
1.9656622e+3, 2.656703e+2, -341376.84, -477498.78, 13308.44, -0.0018645031, 0.00040544185, -340087.9, -3656.3745 
1.965643e+3, 2.7565745e+2, -231974.19, -373861.28, 17391.486, 0.006735971, -0.065629594, -229873.56, 8683.941 
1.9656211e+3, 2.8564492e+2, -147057.75, -305582.22, 3149.2778, -0.006355914, 0.012557579, -146995.2, -6315.325 
1.9655965e+3, 2.9563263e+2, -61571.996, -217133.67, 6157.889, -0.03393632, 0.20915556, -61328.62, -18528.078 
1.965573e+3, 3.0561262e+2, -51537.69, -202256.11, 496.04623, 0.032565616, -0.2464121, -51536.06, -51536.06 
1.965548e+3, 3.1560037e+2, 23111.316, 24391.846, 4464.301, -0.016424825, 0.0906407, 28261.56, 28261.56 
1.9758782e+3, 1.257656e+2, -1706646.9, -1715316.0, 1813.1771, 0.0037778823, 0.002047496, -1706283.0, 1214.5303 
1.9758627e+3, 1.3576512e+2, -1602387.8, -1614711.4, 2667.9778, 0.0042811674, -0.005155287, -1601835.0, 7667.207 
1.9758475e+3, 1.4576374e+2, -1511748.6, -1540654.3, 5679.004, 0.0017342425, -0.004811141, -1510672.9, 842.8029 
1.9758326e+3, 1.5576153e+2, -1407836.5, -1439671.4, 5478.2275, 0.0021126384, 0.00053402653, -1406920.1, 6617.426 
1.975818e+3, 1.6575862e+2, -1313996.4, -1357780.6, 7591.523, -0.00028026718, 0.00036893185, -1312717.5, 2848.511 
1.9758035e+3, 1.7575502e+2, -1211980.0, -1257886.6, 8768.153, -0.0050638802, -0.0059813582, -1210362.3, 7238.8296 
1.9757894e+3, 1.857507e+2, -1120344.6, -1179920.5, 10871.738, -0.009646949, -0.008419348, -1118422.8, 1220.8284 
1.9757752e+3, 1.9574563e+2, -1017193.25, -1079060.8, 11103.108, -0.0136199, -0.0077138487, -1015260.94, 6432.1655 
1.975761e+3, 2.0574012e+2, -921006.9, -992345.6, 12118.519, -0.010712797, -0.010235699, -919004.5, 4742.6875 
1.975747e+3, 2.157341e+2, -818118.6, -892200.3, 14719.604, -0.0025274071, -0.016055739, -815301.1, 10505.084 
1.9757326e+3, 2.2572726e+2, -725325.06, -813765.3, 14303.31, 0.002421075, -0.021988058, -723069.3, 4803.7905 
1.9757177e+3, 2.3571967e+2, -621283.75, -712728.94, 16592.531, 0.005102411, -0.029315054, -618366.2, 11581.449 
1.9757019e+3, 2.4571168e+2, -526866.75, -630801.25, 14749.592, -0.0004811327, -0.011395503, -524814.1, 7211.754 
1.9756855e+3, 2.5570324e+2, -423743.7, -530308.3, 19512.506, -0.012711804, 0.026014281, -420283.22, 13825.3545 
1.975668e+3, 2.6569295e+2, -332452.8, -459475.66, 15931.02, -0.02062588, -0.010738529, -330485.25, 5723.9434 
1.9756496e+3, 2.7568102e+2, -223490.48, -356682.9, 20148.805, -0.024356611, -0.10797533, -220509.19, 17817.05 
1.9756277e+3, 2.8566962e+2, -141604.56, -294644.34, 264.05872, -0.036239825, -0.016050598, -141604.11, -1166.0342 
1.9756027e+3, 2.9565844e+2, -56844.816, -209181.11, 2684.2808, -0.051754095, 0.2247734, -56797.535, -14250.02 
1.9755772e+3, 3.0563733e+2, -67593.02, -234737.45, -11063.549, 0.02390427, -0.24202712, -66863.89, -66863.89 
1.975549e+3, 3.1562304e+2, 35436.355, 55626.586, -6743.824, -0.009245767, 0.0925034, 57671.918, 57671.918 
1.9858788e+3, 1.2578136e+2, -1709381.0, -1716531.8, 925.1136, -0.0012696502, 0.013225615, -1709263.3, -1920.1166 
1.9858637e+3, 1.357809e+2, -1604642.8, -1615529.3, -1.9197953, -0.0014488065, 0.007127559, -1604642.8, 4704.7397 
1.9858488e+3, 1.4577956e+2, -1512726.9, -1540355.1, 2420.5486, -0.0036060088, 0.007942343, -1512516.4, -1155.7904 
1.9858345e+3, 1.5577744e+2, -1408710.1, -1439294.6, 3040.3826, 0.000065404354, 0.013493266, -1408410.9, 4970.7827 
1.9858204e+3, 1.6577464e+2, -1313860.4, -1356369.0, 4501.2964, 0.0033837114, 0.015428402, -1313388.9, 2020.0176 
1.9858062e+3, 1.757712e+2, -1210216.6, -1255620.0, 4216.3677, 0.005671409, 0.012579062, -1209828.4, 7614.155 
1.9857924e+3, 1.857671e+2, -1119678.0, -1176780.0, 5658.6553, 0.010042662, 0.01388904, -1119122.6, 360.13376 
1.9857785e+3, 1.9576235e+2, -1021584.9, -1078480.6, 6999.613, 0.016067276, 0.019031717, -1020736.44, 793.1027 
1.9857647e+3, 2.0575716e+2, -927886.9, -992531.7, 7461.4683, 0.010669731, 0.025142372, -927036.8, -3456.5798 
1.9857506e+3, 2.1575153e+2, -825989.44, -892765.7, 7292.6963, -0.002667003, 0.030528618, -825202.3, 433.13928 
1.9857365e+3, 2.2574525e+2, -730262.56, -808943.3, 6321.168, -0.008016928, 0.032082677, -729758.0, -2060.8813 
1.9857219e+3, 2.3573832e+2, -624766.2, -707110.0, 8809.551, -0.007128453, 0.029543215, -623834.25, 5930.618 
1.9857067e+3, 2.4573107e+2, -528246.8, -617968.7, 6230.32, -0.0030438735, 0.028355587, -527816.25, 4019.665 
1.9856907e+3, 2.5572348e+2, -429069.72, -519247.44, 11069.595, 0.002796592, 0.028717602, -427730.75, 6179.6396 
1.9856739e+3, 2.6571512e+2, -334937.16, -436070.1, 12440.341, 0.020373385, 0.011099604, -333429.34, 2562.9246 
1.9856563e+3, 2.75706e+2, -230777.4, -335636.06, 23997.135, 0.048129093, -0.022485597, -225546.55, 12534.943 
1.9856349e+3, 2.8569672e+2, -137689.27, -267481.66, 12851.611, 0.034560237, 0.058513615, -136428.97, 3743.4387 
1.9856098e+3, 2.956871e+2, -26422.664, -168984.39, 25944.02, -0.011892675, 0.22859399, -21848.049, 20418.633 
1.9855815e+3, 3.056652e+2, -79004.05, -263568.06, -504.03412, 0.051169913, -0.32617044, -79002.67, -79002.67 
1.9855481e+3, 3.1565e+2, 22426.293, 94914.414, 1525.7526, -0.025112055, 0.11488141, 94946.516, 94946.516 
1.9958794e+3, 1.2579648e+2, -1710030.5, -1719140.0, -123.50153, 0.0028260406, 0.00032344664, -1710028.9, -2833.9028 
1.9958648e+3, 1.3579594e+2, -1606178.5, -1618531.8, -1442.0319, 0.0057379543, 0.005760793, -1606012.4, 3188.0452 
1.9958505e+3, 1.4579457e+2, -1513364.0, -1538832.6, 267.54303, -0.0003756791, 0.0050612795, -1513361.3, -2147.525 
1.9958365e+3, 1.5579247e+2, -1412104.8, -1439394.4, 728.27136, -0.0014183923, -0.0005645505, -1412085.4, 1148.7378 
1.9958225e+3, 1.6578972e+2, -1321149.1, -1360582.1, 2076.7026, -0.0011601886, -0.00037417907, -1321040.0, -5778.798 
1.9958088e+3, 1.7578629e+2, -1219722.0, -1260724.5, 1680.3462, -0.0015836778, 0.0038369703, -1219653.3, -2358.3574 
1.995795e+3, 1.8578233e+2, -1122689.9, -1174162.5, 1296.808, -0.0043171425, 0.0031494445, -1122657.3, -3323.517 
1.9957812e+3, 1.9577783e+2, -1016982.6, -1072667.9, 1849.9907, -0.005111647, -0.0020495106, -1016921.25, 4456.492 
1.9957675e+3, 2.0577268e+2, -921953.5, -990337.75, 2675.5789, -0.003394138, -0.0031396078, -921849.0, 1579.0627 
1.995754e+3, 2.1576695e+2, -818463.5, -889413.06, 2185.252, -0.0033363365, -0.0014350048, -818396.25, 7088.033 
1.9957401e+3, 2.2576097e+2, -723848.75, -797938.44, 3693.6829, -0.0012343532, -0.0054644463, -723665.06, 3877.8188 
1.9957262e+3, 2.357547e+2, -630486.56, -702074.8, 9569.628, 0.0018472072, -0.014743435, -629229.44, 374.85336 
1.9957112e+3, 2.4574856e+2, -535638.9, -607846.3, 7536.2373, -0.0036053427, -0.0018814484, -534860.75, -3196.2358 
1.9956951e+3, 2.557424e+2, -437482.0, -509765.0, 13253.566, -0.011474043, 0.019112587, -435128.5, -1403.5427 
1.9956784e+3, 2.6573607e+2, -336033.4, -402734.7, 7687.6055, -0.006466779, -0.0053415853, -335158.84, 627.7892 
1.9956611e+3, 2.757299e+2, -239829.84, -304902.6, 5087.7505, 0.012623287, -0.055186134, -239434.45, -1586.9208 
1.9956401e+3, 2.857247e+2, -126913.47, -209721.22, 43641.69, -0.050752576, 0.036423076, -108160.234, 31738.068 
