coord_x,coord_y,stress_xx,stress_yy,tau_xy,velocity_x,velocity_y,stress_1,eps,damage
5.0001836e+0, 1.2350283e+2, -1714514.1, -1722313.8, -739.2865, -0.00006534436, -0.062461507, -1714444.8, 15221.921 
5.000346e+0, 1.3350002e+2, -1629421.4, -1658197.5, -438.88342, 0.000028600196, -0.04054781, -1629414.6, 2279.4653 
5.000509e+0, 1.4349625e+2, -1530132.4, -1564812.0, -392.63257, 0.0002860278, -0.07458735, -1530127.9, 3603.2195 
5.000669e+0, 1.534929e+2, -1426530.0, -1462816.0, -876.6518, -0.000032682852, -0.058798358, -1426508.9, 9254.942 
5.000833e+0, 1.6348855e+2, -1336899.6, -1389556.4, -1022.6721, -0.00017101824, -0.051613055, -1336879.8, 926.6955 
5.001008e+0, 1.734831e+2, -1234015.4, -1289518.3, -634.57477, 0.000033378077, -0.059802525, -1234008.1, 5851.776 
5.00117e+0, 1.834769e+2, -1142625.0, -1212450.3, -542.3089, 0.00011361374, -0.062467787, -1142620.8, -699.9852 
5.0013113e+0, 1.9346999e+2, -1040274.4, -1112141.1, -715.209, -0.000033150936, -0.058796868, -1040267.25, 3721.2236 
5.001464e+0, 2.034622e+2, -949812.4, -1036686.7, -735.72046, -0.00010143336, -0.05595343, -949806.1, -3741.4272 
5.001637e+0, 2.1345355e+2, -846710.7, -936185.6, -750.77563, -0.000027812493, -0.056901347, -846704.4, 1445.0618 
5.001801e+0, 2.2344406e+2, -755960.5, -860610.9, -804.2405, 0.000036221154, -0.05738721, -755954.3, -5711.756 
5.001949e+0, 2.334337e+2, -653586.7, -760472.25, -685.1948, 0.000082154496, -0.059781443, -653582.25, -1238.2098 
5.002102e+0, 2.4342252e+2, -562767.7, -684370.1, -571.39124, 0.000077334575, -0.06002202, -562765.0, -8311.445 
5.002264e+0, 2.5341055e+2, -459870.0, -583836.06, -630.8579, -0.00001993082, -0.058919866, -459866.78, -3295.9458 
5.0024265e+0, 2.6339772e+2, -368748.97, -507571.9, -722.41, -0.000090831556, -0.058184627, -368745.22, -10048.877 
5.0025904e+0, 2.733841e+2, -265779.38, -406939.94, -866.76605, -0.0001105224, -0.06124475, -265774.06, -4944.006 
5.002755e+0, 2.833694e+2, -178509.25, -338811.8, -894.0586, -0.00005638191, -0.06090982, -178504.27, -15530.161 
5.0029194e+0, 2.933536e+2, -75978.484, -238997.36, -716.6909, 0.00012952252, -0.057232648, -75975.336, -10846.102 
5.003088e+0, 3.0334118e+2, 28284.553, -83580.91, -567.3927, 0.00012583399, -0.05569798, 28287.43, 28287.43 
5.003262e+0, 3.1333262e+2, 34939.188, -77893.695, -624.2632, -0.00022575402, -0.06169231, 34942.645, 34942.645 
1.5000552e+1, 1.2350242e+2, -1713875.9, -1720996.5, 552.91626, -0.00020527805, -0.06698603, -1713833.3, 15837.425 
1.5001038e+1, 1.3349977e+2, -1628769.5, -1656851.5, 768.44183, 0.000084460204, -0.03780435, -1628748.5, 2948.0833 
1.500153e+1, 1.4349604e+2, -1530830.3, -1566247.0, 823.6911, 0.0008581438, -0.06983279, -1530811.1, 2922.1643 
1.5002006e+1, 1.534925e+2, -1427467.3, -1464748.1, 344.77884, -0.0000978341, -0.061458055, -1427464.1, 8303.873 
1.5002498e+1, 1.6348806e+2, -1336419.4, -1388556.3, 260.31183, -0.0005134509, -0.056255348, -1336418.1, 1393.1316 
1.5003023e+1, 1.734828e+2, -1233282.9, -1287996.9, 665.7427, 0.00009915467, -0.05667239, -1233274.8, 6588.1855 
1.500351e+1, 1.8347666e+2, -1142776.3, -1212751.6, 558.9776, 0.00034119588, -0.056581832, -1142771.8, -848.73816 
1.5003935e+1, 1.9346963e+2, -1040588.3, -1112770.1, 355.11856, -0.00009953934, -0.05919157, -1040586.56, 3405.2334 
1.5004392e+1, 2.034618e+2, -949914.1, -1036884.06, 526.4992, -0.0003046916, -0.06017785, -949910.94, -3842.3057 
1.5004912e+1, 2.1345316e+2, -846773.06, -936307.5, 548.3862, -0.00008301669, -0.06034878, -846769.7, 1383.7166 
1.5005404e+1, 2.2344366e+2, -755762.7, -860174.5, 331.64682, 0.00010776864, -0.059149392, -755761.7, -5515.4 
1.5005848e+1, 2.3343338e+2, -653340.4, -759934.8, 420.04672, 0.00024582812, -0.058383767, -653338.75, -991.5997 
1.5006307e+1, 2.4342223e+2, -562839.44, -684511.0, 635.2294, 0.00023168903, -0.05767649, -562836.1, -8379.724 
1.5006791e+1, 2.5341022e+2, -460000.66, -584108.5, 592.2846, -0.00005964382, -0.059607025, -459997.84, -3423.6858 
1.500728e+1, 2.6339737e+2, -369005.28, -508074.4, 509.9984, -0.00027296116, -0.059018347, -369003.4, -10303.5 
1.500777e+1, 2.7338377e+2, -266057.72, -407485.78, 362.85498, -0.0003315409, -0.056874275, -266056.78, -5223.2397 
1.5008265e+1, 2.8336903e+2, -178261.7, -338299.53, 336.8753, -0.00016942582, -0.05630389, -178260.98, -15283.3545 
1.5008758e+1, 2.9335317e+2, -75630.195, -238287.4, 506.50412, 0.00038846539, -0.06158827, -75628.62, -10495.529 
1.5009265e+1, 3.033408e+2, 28233.092, -83667.766, 752.8915, 0.00037570344, -0.061977457, 28238.158, 28238.158 
1.5009786e+1, 3.1333232e+2, 34809.887, -78140.83, 707.0069, -0.00067895814, -0.05661068, 34814.313, 34814.313 
2.5000915e+1, 1.23501725e+2, -1713996.9, -1720867.5, -558.9991, 0.000034538236, -0.06726406, -1713951.6, 15725.797 
2.5001723e+1, 1.3349909e+2, -1628753.0, -1656749.8, -1044.4674, -0.00031509573, -0.03802703, -1628714.1, 2989.0994 
2.5002548e+1, 1.4349535e+2, -1530740.4, -1566445.8, -1070.3611, 0.0007606956, -0.06940488, -1530708.3, 3031.6636 
2.5003368e+1, 1.5349178e+2, -1426984.0, -1464811.6, -767.54785, 0.000008820761, -0.061437614, -1426968.4, 8806.501 
2.5004187e+1, 1.6348734e+2, -1335820.4, -1388134.4, -695.4288, -0.00037217455, -0.056426074, -1335811.1, 2007.199 
2.5005013e+1, 1.7348209e+2, -1233855.3, -1288070.4, -924.7836, 0.000015832165, -0.056638967, -1233839.5, 6030.3296 
2.5005814e+1, 1.8347597e+2, -1143738.1, -1213286.8, -1237.2096, 0.00020580948, -0.056405947, -1143716.1, -1786.2782 
2.5006583e+1, 1.9346893e+2, -1040006.4, -1112601.5, -1176.5165, 0.000010261696, -0.058994412, -1039987.3, 4011.3767 
2.500736e+1, 2.034611e+2, -948790.94, -1036389.7, -976.30054, -0.00011693421, -0.060136378, -948780.06, -2704.4216 
2.5008175e+1, 2.1345243e+2, -847103.94, -936504.0, -936.56036, -0.00011466248, -0.06078325, -847094.1, 1066.3033 
2.5008973e+1, 2.2344294e+2, -756637.7, -860549.94, -1100.6713, -0.000038570553, -0.059634477, -756626.06, -6372.722 
2.5009742e+1, 2.3343268e+2, -653300.1, -759848.56, -1201.8824, 0.00017284676, -0.058153022, -653286.56, -932.4906 
2.5010526e+1, 2.4342152e+2, -562397.6, -684342.25, -1121.6681, 0.00021163755, -0.05716278, -562387.3, -7924.05 
2.5011325e+1, 2.534095e+2, -459862.0, -584110.6, -1079.855, -0.00006940202, -0.05961592, -459852.63, -3271.5122 
2.501213e+1, 2.6339668e+2, -369104.56, -508173.0, -983.84863, -0.00026070047, -0.05923335, -369097.6, -10390.67 
2.501294e+1, 2.7338302e+2, -266407.25, -407675.13, -858.07025, -0.0002718658, -0.056706022, -266402.03, -5561.5005 
2.5013763e+1, 2.8336835e+2, -178562.17, -338385.16, -742.3116, -0.00014466462, -0.056023672, -178558.72, -15574.126 
2.5014594e+1, 2.9335248e+2, -75499.26, -238169.75, -867.50934, 0.00022045383, -0.06171092, -75494.63, -10354.62 
2.501544e+1, 3.0334008e+2, 28395.656, -83656.99, -783.3201, 0.00018154205, -0.06218015, 28401.13, 28401.13 
2.5016305e+1, 3.133316e+2, 34482.91, -78404.93, -747.3488, -0.00057317014, -0.05629378, 34487.855, 34487.855 
3.5001275e+1, 1.2350075e+2, -1714398.0, -1721690.5, 772.38574, 0.0006329717, -0.06327651, -1714317.1, 15369.914 
3.5002404e+1, 1.3349797e+2, -1629285.9, -1657843.5, 212.70851, -0.0011715372, -0.041206505, -1629284.3, 2429.9348 
3.500357e+1, 1.434942e+2, -1530350.4, -1565632.1, 247.96507, -0.000014446085, -0.073308565, -1530348.6, 3402.565 
3.5004756e+1, 1.5349077e+2, -1426430.4, -1463664.9, 564.69226, 0.0002803348, -0.05873879, -1426421.8, 9363.008 
3.5005897e+1, 1.6348639e+2, -1336134.0, -1388763.8, 332.31274, 0.00024744897, -0.052133843, -1336132.0, 1695.8046 
3.5006976e+1, 1.7348099e+2, -1234327.0, -1289018.6, 55.1762, -0.00022448075, -0.05969304, -1234326.9, 5553.6226 
3.5008088e+1, 1.8347481e+2, -1143669.9, -1213140.8, 165.91025, -0.00030143015, -0.061935432, -1143669.5, -1728.3572 
3.500925e+1, 1.9346787e+2, -1039849.1, -1112254.1, 306.72537, 0.0002882533, -0.058203645, -1039847.8, 4161.3604 
3.5010377e+1, 2.0346007e+2, -948759.56, -1036299.8, 20.997898, 0.00045279865, -0.055840682, -948759.56, -2673.917 
3.501143e+1, 2.1345139e+2, -847090.25, -936470.5, -25.027021, -0.00012957874, -0.0582092, -847090.25, 1080.3708 
3.5012507e+1, 2.234419e+2, -756758.56, -860779.4, 176.34836, -0.00040971383, -0.05884488, -756758.3, -6494.569 
3.5013634e+1, 2.3343158e+2, -653453.5, -760124.44, 141.98055, -0.0001420278, -0.059082583, -653453.3, -1088.5077 
3.501476e+1, 2.4342042e+2, -562383.56, -684290.5, 54.985783, 0.000008776124, -0.05847848, -562383.5, -7909.4087 
3.5015866e+1, 2.534084e+2, -459814.56, -584002.3, 62.990993, -0.000057628335, -0.058944598, -459814.53, -3222.846 
3.5016984e+1, 2.633956e+2, -368901.7, -507702.97, 181.6508, -0.00006084615, -0.058832124, -368901.44, -10184.059 
3.5018104e+1, 2.7338195e+2, -266167.88, -407149.3, 306.15323, 0.00006092786, -0.060719732, -266167.2, -5316.1772 
3.501925e+1, 2.8336728e+2, -178726.66, -338696.0, 564.83496, 0.000007257748, -0.060053546, -178724.66, -15729.678 
3.502043e+1, 2.9335144e+2, -75743.65, -238642.66, 460.99542, -0.00037659268, -0.05761627, -75742.34, -10592.357 
3.5021618e+1, 3.033391e+2, 28400.432, -83628.875, 445.24777, -0.00045681326, -0.05634078, 28402.201, 28402.201 
3.5022816e+1, 3.133305e+2, 34526.973, -78279.0, 452.87933, 0.0000730312, -0.060714748, 34528.79, 34528.79 
4.5001647e+1, 1.2349938e+2, -1713908.8, -1721631.4, -598.1884, 0.0007263988, -0.062533244, -1713862.8, 15837.742 
4.500311e+1, 1.3349655e+2, -1628950.0, -1658074.0, -939.6142, -0.0013760016, -0.042059205, -1628919.8, 2808.426 
4.500461e+1, 1.4349279e+2, -1529981.0, -1565215.3, -886.76605, 0.00018468051, -0.07338372, -1529958.8, 3806.3198 
4.500611e+1, 1.5348938e+2, -1426978.5, -1463583.6, -920.51935, 0.0002783339, -0.058411624, -1426955.3, 8843.061 
4.5007575e+1, 1.63485e+2, -1336988.0, -1389450.1, -1271.3464, 0.00015833502, -0.05176344, -1336957.3, 884.0551 
4.5008987e+1, 1.7347959e+2, -1233296.3, -1288895.5, -1307.3899, -0.00015926901, -0.05988263, -1233265.5, 6628.942 
4.5010418e+1, 1.8347338e+2, -1141990.1, -1212296.0, -1145.3002, -0.00021738939, -0.062399093, -1141971.5, -16.293152 
4.5011893e+1, 1.9346644e+2, -1040525.75, -1112488.8, -1118.4104, 0.00013540368, -0.058433387, -1040508.4, 3514.8213 
4.501333e+1, 2.0345865e+2, -950327.4, -1037014.0, -1473.151, 0.00027432627, -0.055683877, -950302.3, -4202.7935 
4.5014694e+1, 2.1344998e+2, -846733.56, -936254.6, -1510.7023, 0.000045890465, -0.05740986, -846708.06, 1476.3533 
4.5016086e+1, 2.234405e+2, -755644.94, -860328.8, -1264.911, -0.0001438865, -0.05804908, -755629.7, -5352.143 
4.501753e+1, 2.3343015e+2, -653531.44, -760287.7, -1232.5278, -0.0002683868, -0.059442565, -653517.25, -1138.421 
4.5018962e+1, 2.4341898e+2, -563062.44, -684575.94, -1290.9622, -0.00027509764, -0.05924577, -563048.75, -8560.524 
4.5020387e+1, 2.53407e+2, -460325.25, -584155.06, -1284.7731, -0.000071246046, -0.058746815, -460311.94, -3706.2957 
4.502182e+1, 2.633942e+2, -369108.44, -507676.78, -1174.4069, 0.00010095037, -0.058315724, -369098.5, -10367.292 
4.5023268e+1, 2.7338055e+2, -265886.28, -406926.2, -1223.4536, 0.00021504429, -0.06109051, -265875.66, -5010.849 
4.5024747e+1, 2.8336588e+2, -178562.23, -338727.13, -1014.0934, 0.000042251555, -0.06066565, -178555.81, -15547.047 
4.502625e+1, 2.9335004e+2, -76277.836, -239070.39, -984.9103, -0.0006594464, -0.057250995, -76271.875, -11108.049 
4.5027775e+1, 3.0333766e+2, 27812.955, -83716.67, -832.67914, -0.0007526438, -0.055747703, 27819.172, 27819.172 
4.5029318e+1, 3.133291e+2, 34494.89, -78010.7, -716.1379, 0.00033787734, -0.061318014, 34499.45, 34499.45 
5.500204e+1, 1.2349762e+2, -1713738.6, -1721276.1, 732.22723, 0.00028034145, -0.064978614, -1713668.1, 16049.532 
5.500384e+1, 1.3349484e+2, -1628922.1, -1658006.6, 312.18207, -0.00094072975, -0.040587857, -1628918.8, 2826.1182 
5.5005664e+1, 1.4349109e+2, -1530071.5, -1565391.8, 212.64854, 0.0013387584, -0.06963437, -1530070.3, 3711.4556 
5.500744e+1, 1.5348761e+2, -1427092.0, -1463811.0, 154.7801, -0.000014406606, -0.0604446, -1427091.4, 8724.266 
5.500922e+1, 1.6348322e+2, -1337026.3, -1389497.8, 151.45905, -0.0006521761, -0.05530492, -1337025.9, 832.9771 
5.5011046e+1, 1.7347784e+2, -1233321.5, -1288918.1, 184.07776, 0.00019919338, -0.05721995, -1233320.9, 6590.599 
5.5012816e+1, 1.8347165e+2, -1142029.6, -1212370.3, -200.89621, 0.0004398736, -0.05781422, -1142029.0, -56.891396 
5.5014503e+1, 1.9346467e+2, -1040571.44, -1112575.5, -268.69098, -0.00045725456, -0.05967387, -1040570.44, 3470.1658 
5.5016214e+1, 2.0345683e+2, -950308.06, -1036968.5, -140.91318, -0.00066161656, -0.059645776, -950307.8, -4190.569 
5.501797e+1, 2.1344821e+2, -846709.2, -936186.3, -88.46227, 0.00039287875, -0.058378622, -846709.1, 1492.7231 
5.501971e+1, 2.2343874e+2, -755659.4, -860342.1, -176.94003, 0.0007366406, -0.05724658, -755659.06, -5364.361 
5.5021423e+1, 2.3342839e+2, -653561.56, -760311.44, -205.91849, -0.0002147879, -0.0592348, -653561.2, -1165.0828 
5.5023146e+1, 2.4341722e+2, -563016.8, -684478.7, -127.13084, -0.0006506224, -0.05946845, -563016.7, -8511.125 
5.5024886e+1, 2.5340524e+2, -460270.44, -584037.6, -98.36339, -0.000120962955, -0.05902097, -460270.38, -3647.4731 
5.502665e+1, 2.6339242e+2, -369189.7, -507794.8, 95.268684, 0.00021733055, -0.057683714, -369189.63, -10441.252 
5.502844e+1, 2.7337882e+2, -266005.03, -407084.47, 57.872185, 0.00017795774, -0.05785155, -266005.0, -5123.135 
5.5030245e+1, 2.8336412e+2, -178554.34, -338699.6, 160.62708, -0.00005979928, -0.057889443, -178554.19, -15528.26 
5.5032057e+1, 2.9334822e+2, -76266.695, -238993.53, 162.46544, -0.0006405501, -0.06057807, -76266.54, -11085.044 
5.503391e+1, 3.0333588e+2, 28019.594, -83243.4, 481.83157, -0.000713639, -0.060354654, 28021.68, 28021.68 
5.503581e+1, 3.1332743e+2, 34735.24, -77455.17, 621.3262, 0.00019665387, -0.058147565, 34738.68, 34738.68 
6.5002435e+1, 1.2349554e+2, -1713307.4, -1720768.6, -564.0689, 0.00031550202, -0.065290146, -1713264.9, 16473.143 
6.500456e+1, 1.3349277e+2, -1629159.4, -1658080.4, -1065.2314, -0.0011448354, -0.040796887, -1629120.3, 2645.0063 
6.500671e+1, 1.4348902e+2, -1530361.5, -1565872.0, -1165.7762, 0.0015885611, -0.06806419, -1530323.3, 3478.6445 
6.500882e+1, 1.5348549e+2, -1426017.0, -1463704.8, -1367.2579, 0.000022981498, -0.060876593, -1425967.4, 9869.036 
6.5010923e+1, 1.6348106e+2, -1335534.8, -1388667.1, -1476.7098, -0.00074050244, -0.056472663, -1335493.8, 2386.0745 
6.501307e+1, 1.7347573e+2, -1234032.4, -1289068.8, -1303.9124, 0.00019714778, -0.05679401, -1234001.5, 5930.65 
6.501515e+1, 1.8346956e+2, -1143572.4, -1213181.5, -1654.3022, 0.0005104687, -0.05669399, -1143533.0, -1540.3722 
6.501715e+1, 1.9346254e+2, -1039935.94, -1112391.4, -1756.0739, -0.00036365198, -0.059493423, -1039893.44, 4167.9526 
6.501917e+1, 2.0345472e+2, -948831.6, -1036342.8, -1633.9441, -0.00062369386, -0.06017359, -948801.1, -2662.978 
6.502124e+1, 2.1344607e+2, -846943.3, -936379.5, -1658.352, 0.00023699048, -0.059153743, -846912.56, 1310.2474 
6.5023303e+1, 2.2343658e+2, -756646.0, -860759.7, -1831.2544, 0.0005640738, -0.057792433, -756613.8, -6298.0615 
6.5025306e+1, 2.3342626e+2, -653743.06, -760335.75, -1802.0813, -0.00008372675, -0.058718283, -653712.6, -1295.6698 
6.5027344e+1, 2.434151e+2, -562760.2, -684306.94, -1657.0094, -0.00038852866, -0.058639508, -562737.6, -8211.295 
6.5029395e+1, 2.534031e+2, -460094.2, -583926.9, -1672.0313, -0.000064544, -0.059245553, -460071.63, -3427.8655 
6.503147e+1, 2.633903e+2, -369310.97, -507970.2, -1470.0728, 0.000053979584, -0.058185674, -369295.38, -10526.094 
6.5033585e+1, 2.7337667e+2, -266664.94, -407551.34, -1494.4033, -0.00021141215, -0.05718583, -266649.1, -5746.315 
6.503572e+1, 2.83362e+2, -179171.08, -338742.25, -1316.7466, -0.00030181636, -0.056952864, -179160.2, -16113.422 
6.5037864e+1, 2.9334614e+2, -76391.3, -238734.2, -1135.7928, -0.000069519105, -0.06105694, -76383.35, -11181.164 
6.504005e+1, 3.0333376e+2, 27870.99, -83433.16, -727.2806, -0.000116685005, -0.06117084, 27875.742, 27875.742 
6.504229e+1, 3.1332532e+2, 34396.324, -77839.34, -974.888, -0.0006484733, -0.057235178, 34404.79, 34404.79 
7.5002855e+1, 1.2349314e+2, -1713100.0, -1720346.3, 630.4335, 0.0007905698, -0.06339525, -1713045.5, 16716.03 
7.500526e+1, 1.3349032e+2, -1629134.5, -1658030.8, 55.260876, -0.0019923833, -0.042684313, -1629134.4, 2654.6277 
7.5007737e+1, 1.4348659e+2, -1530708.0, -1566578.1, 224.13809, 0.0009188309, -0.068662874, -1530706.5, 3119.2512 
7.5010246e+1, 1.5348302e+2, -1426435.0, -1464550.0, 74.88374, 0.00036691787, -0.05971341, -1426434.9, 9425.85 
7.501269e+1, 1.6347858e+2, -1335367.6, -1388327.3, -501.28186, -0.00011880596, -0.055268526, -1335363.0, 2541.4014 
7.501506e+1, 1.7347324e+2, -1233762.9, -1288522.9, -406.1692, -0.00017784534, -0.058592267, -1233759.9, 6196.704 
7.5017434e+1, 1.8346708e+2, -1143615.5, -1213271.6, -309.91373, -0.00003272407, -0.059019312, -1143614.1, -1597.2288 
7.501982e+1, 1.9346008e+2, -1040040.94, -1112603.0, -326.51883, 0.0003971377, -0.05790416, -1040039.5, 4045.9375 
7.502218e+1, 2.0345226e+2, -948958.25, -1036607.4, -595.8212, 0.00037224963, -0.057291, -948954.2, -2791.934 
7.50245e+1, 2.1344356e+2, -847074.44, -936661.25, -690.1956, -0.00043592582, -0.059738092, -847069.1, 1178.2837 
7.5026834e+1, 2.2343405e+2, -756561.25, -860604.6, -638.79663, -0.00067299703, -0.059675433, -756557.3, -6216.8037 
7.502919e+1, 2.3342377e+2, -653621.0, -760107.75, -568.0685, 0.00011941026, -0.05789792, -653618.0, -1176.6533 
7.503155e+1, 2.4341263e+2, -562771.06, -684332.8, -482.0232, 0.00048925594, -0.056770723, -562769.2, -8218.681 
7.5033903e+1, 2.5340062e+2, -460130.06, -584008.1, -511.07318, 0.00007460477, -0.059419643, -460127.97, -3459.7988 
7.5036293e+1, 2.633878e+2, -369380.8, -508084.53, -322.0642, -0.00040111382, -0.05980712, -369380.06, -10586.171 
7.50387e+1, 2.7337414e+2, -266747.1, -407677.9, -352.29196, -0.00095724757, -0.05906376, -266746.22, -5818.692 
7.504116e+1, 2.833595e+2, -178861.5, -338103.25, -66.314064, -0.00070316624, -0.057835028, -178861.47, -15790.174 
7.504366e+1, 2.9334372e+2, -76023.945, -237935.7, 126.1422, 0.0010347537, -0.058732923, -76023.85, -10797.968 
7.504619e+1, 3.0333135e+2, 27513.629, -84156.13, 568.50946, 0.0010242428, -0.05824526, 27516.523, 27516.523 
7.504875e+1, 3.133228e+2, 33883.387, -78874.21, 323.4831, -0.0022223205, -0.058552258, 33884.316, 33884.316 
8.500326e+1, 1.2349039e+2, -1713015.0, -1720401.5, -576.50287, 0.0007992963, -0.06232813, -1712970.3, 16818.188 
8.5006005e+1, 1.3348752e+2, -1628176.4, -1657984.3, -1519.6775, -0.0022275487, -0.04471919, -1628099.1, 3717.4812 
8.500882e+1, 1.4348376e+2, -1529440.1, -1565954.4, -1420.9155, 0.001178024, -0.06879359, -1529385.0, 4468.4355 
8.501165e+1, 1.5348023e+2, -1426925.3, -1464711.9, -1097.9031, 0.0004934406, -0.058840893, -1426893.4, 8994.743 
8.50144e+1, 1.6347577e+2, -1336452.8, -1389010.0, -1553.5182, -0.0001567812, -0.054330934, -1336406.9, 1524.9283 
8.501709e+1, 1.7347041e+2, -1232886.3, -1288300.9, -1866.6245, -0.00038263155, -0.05919884, -1232823.4, 7160.92 
8.501977e+1, 1.8346423e+2, -1142012.1, -1212527.8, -1986.8906, -0.00021584552, -0.06015859, -1141956.3, 88.66036 
8.5022473e+1, 1.9345725e+2, -1040318.2, -1112735.8, -1897.0057, 0.00055057934, -0.057760224, -1040268.56, 3844.7021 
8.5025156e+1, 2.0344941e+2, -950024.06, -1037124.56, -2090.691, 0.0006333747, -0.056396257, -949973.94, -3783.9226 
8.502777e+1, 2.1344072e+2, -846921.1, -936597.0, -2052.2358, -0.0004790142, -0.059088588, -846874.2, 1400.9879 
8.50304e+1, 2.2343121e+2, -755910.44, -860292.75, -1962.5687, -0.0008535166, -0.059423055, -755873.5, -5505.196 
8.503306e+1, 2.3342092e+2, -653805.56, -760195.2, -2020.895, 0.000109428416, -0.05828393, -653767.2, -1297.9812 
8.503573e+1, 2.4340978e+2, -563399.0, -684653.2, -1946.7039, 0.0005241661, -0.057271235, -563367.75, -8789.356 
8.5038406e+1, 2.533978e+2, -460479.66, -584195.1, -1948.9708, -0.00009085003, -0.059087217, -460448.94, -3752.926 
8.5041106e+1, 2.6338494e+2, -369460.97, -507959.7, -1740.7512, -0.00051785976, -0.059314366, -369439.1, -10617.421 
8.5043824e+1, 2.7337134e+2, -267001.28, -407587.44, -1584.1211, -0.00056054804, -0.059660185, -266983.44, -6028.2007 
8.5046595e+1, 2.8335667e+2, -179418.05, -338442.13, -1207.1421, -0.0003594449, -0.058617067, -179408.89, -16309.935 
8.504942e+1, 2.933409e+2, -76572.86, -238352.98, -1491.9667, 0.0002582014, -0.058, -76559.1, -11305.568 
8.5052294e+1, 3.0332854e+2, 27115.32, -84108.68, -1125.176, 0.00015021003, -0.05715727, 27126.701, 27126.701 
8.505521e+1, 3.1332e+2, 33190.51, -78897.52, -662.18195, -0.0012553008, -0.059313443, 33194.426, 33194.426 
9.5003676e+1, 1.234873e+2, -1713347.4, -1721077.1, 867.2831, 0.00030652247, -0.062017817, -1713251.3, 16567.467 
9.50068e+1, 1.3348433e+2, -1628740.4, -1659135.1, -120.49652, -0.001859999, -0.046897076, -1628739.9, 3108.034 
9.500996e+1, 1.4348057e+2, -1529088.6, -1565226.5, -389.5234, 0.0023464647, -0.06845021, -1529084.4, 4800.2593 
9.501303e+1, 1.5347712e+2, -1426412.1, -1463659.6, -129.55293, 0.00038341508, -0.058255162, -1426411.8, 9506.9795 
9.501608e+1, 1.6347267e+2, -1336813.1, -1389755.3, -207.82828, -0.00086461776, -0.053659417, -1336812.3, 1149.8127 
9.501915e+1, 1.7346723e+2, -1233409.1, -1289380.9, -445.8237, -0.0004295629, -0.058621574, -1233405.6, 6609.74 
9.5022166e+1, 1.8346101e+2, -1142012.1, -1212514.6, -984.77875, -0.000057996956, -0.060121015, -1141998.4, 77.94595 
9.5025116e+1, 1.9345404e+2, -1040219.1, -1112535.8, -968.02924, 0.00009421666, -0.059047237, -1040206.2, 3938.552 
9.502808e+1, 2.0344622e+2, -949902.4, -1036859.1, -857.4622, 0.00015743138, -0.0574714, -949893.94, -3672.581 
9.503105e+1, 2.1343757e+2, -846799.06, -936333.9, -762.1307, 0.0000812398, -0.057220604, -846792.56, 1513.5276 
9.5034003e+1, 2.2342809e+2, -755994.0, -860485.4, -907.49927, -0.00000848231, -0.05705902, -755986.1, -5586.9795 
9.5036924e+1, 2.3341772e+2, -653924.5, -760480.9, -1009.45703, -0.00011508928, -0.05985937, -653914.94, -1414.4321 
9.5039886e+1, 2.4340655e+2, -563421.4, -684693.0, -743.9156, -0.00028427146, -0.060110908, -563416.8, -8806.849 
9.504289e+1, 2.533946e+2, -460485.7, -584203.9, -712.5193, -0.0005710122, -0.058258373, -460481.6, -3754.3135 
9.5045924e+1, 2.633818e+2, -369203.0, -507391.25, -624.23236, -0.0003129077, -0.05673714, -369200.16, -10347.563 
9.504894e+1, 2.7336818e+2, -266682.0, -406927.28, -497.16632, 0.00094776973, -0.058994513, -266680.25, -5694.382 
9.5052016e+1, 2.833535e+2, -179836.94, -339308.22, 37.49474, 0.0006932239, -0.059296217, -179836.94, -16707.244 
9.505515e+1, 2.9333767e+2, -77142.734, -239532.31, -220.11298, -0.0023741778, -0.058824103, -77142.44, -11857.352 
9.505836e+1, 3.0332533e+2, 27752.479, -82803.15, 98.654785, -0.0027088672, -0.05787235, 27752.566, 27752.566 
9.5061654e+1, 3.1331688e+2, 34058.61, -77096.97, 539.38196, 0.0021639685, -0.059539225, 34061.227, 34061.227 
1.0500414e+2, 1.2348386e+2, -1712104.1, -1720385.6, -530.08356, 0.00059525494, -0.061989248, -1712070.3, 17782.256 
1.0500758e+2, 1.3348085e+2, -1628984.9, -1659470.1, -1129.3142, -0.0021121723, -0.047783818, -1628943.1, 2938.8425 
1.0501107e+2, 1.4347711e+2, -1529531.9, -1565587.8, -1389.7146, 0.0023807327, -0.066339575, -1529478.4, 4440.252 
1.0501446e+2, 1.534736e+2, -1425269.5, -1463239.9, -1753.3773, 0.00017083506, -0.05860357, -1425188.8, 10764.25 
1.05017826e+2, 1.6346917e+2, -1335265.6, -1389096.1, -2060.5679, -0.0010472495, -0.05495537, -1335186.8, 2809.7922 
1.0502121e+2, 1.7346373e+2, -1233683.6, -1289603.3, -1812.8871, -0.000053753036, -0.05803832, -1233625.0, 6424.8267 
1.0502454e+2, 1.8345751e+2, -1142959.4, -1213092.0, -2153.1497, 0.00039295005, -0.058814865, -1142893.4, -782.5925 
1.0502778e+2, 1.934505e+2, -1039725.9, -1112422.1, -2318.5007, -0.00025997637, -0.059141338, -1039652.06, 4527.378 
1.05031036e+2, 2.0344268e+2, -948895.44, -1036377.1, -2389.9082, -0.00043951988, -0.058288563, -948830.2, -2574.0566 
1.0503431e+2, 2.1343404e+2, -847207.0, -936522.7, -2421.814, 0.00026801278, -0.057495005, -847141.4, 1199.421 
1.0503757e+2, 2.2342454e+2, -756963.25, -860964.44, -2550.697, 0.00048217832, -0.05689293, -756900.7, -6466.889 
1.05040796e+2, 2.3341419e+2, -653750.8, -760408.0, -2535.6868, -0.00021417516, -0.059466675, -653690.56, -1155.3422 
1.0504406e+2, 2.4340302e+2, -562846.1, -684320.06, -2258.2856, -0.00060131605, -0.059710942, -562804.2, -8159.503 
1.0504736e+2, 2.5339106e+2, -461169.28, -584415.5, -2177.31, -0.00041315428, -0.058249287, -461130.8, -4368.8896 
1.0505069e+2, 2.6337826e+2, -370398.97, -507950.0, -2029.569, -0.000077538956, -0.056764394, -370369.03, -11481.82 
1.05054036e+2, 2.733647e+2, -266882.28, -407023.34, -2219.2537, 0.0005175526, -0.058392465, -266847.13, -5826.7095 
1.0505743e+2, 2.8335002e+2, -179636.92, -339153.38, -1743.976, 0.00022169673, -0.058697365, -179617.86, -16453.623 
1.0506088e+2, 2.9333413e+2, -77845.31, -239791.33, -1395.0452, -0.0017233553, -0.0594139, -77833.3, -12513.604 
1.0506441e+2, 3.033218e+2, 26689.305, -83085.46, -825.5456, -0.0019371812, -0.05869335, 26695.514, 26695.514 
1.0506803e+2, 3.1331342e+2, 33337.875, -77187.86, -1108.5687, 0.0011505097, -0.05879367, 33348.992, 33348.992 
1.1500465e+2, 1.2348005e+2, -1711671.3, -1719492.3, 588.5081, 0.0016343421, -0.062158003, -1711627.1, 18262.748 
1.1500836e+2, 1.3347709e+2, -1628702.5, -1658889.8, -64.88185, -0.0029869229, -0.047379456, -1628702.4, 3216.4912 
1.1501216e+2, 1.4347339e+2, -1530063.8, -1566682.0, -57.763794, 0.0012688988, -0.062463444, -1530063.6, 3891.5774 
1.15015924e+2, 1.5346973e+2, -1425954.3, -1464649.8, -369.32645, -0.00016347734, -0.05987367, -1425950.8, 10040.282 
1.1501962e+2, 1.6346522e+2, -1335017.5, -1388591.4, -1057.0596, -0.00072236545, -0.058203153, -1334996.8, 3038.5454 
1.1502326e+2, 1.7345989e+2, -1233269.6, -1288760.0, -873.31616, 0.00073042704, -0.05745003, -1233255.9, 6831.6113 
1.1502688e+2, 1.8345371e+2, -1143103.4, -1213391.4, -902.7408, 0.001117238, -0.056251336, -1143091.8, -943.6351 
1.1503047e+2, 1.9344664e+2, -1039976.75, -1112946.6, -1007.4731, -0.00052540057, -0.05805507, -1039962.8, 4254.3584 
1.1503403e+2, 2.0343879e+2, -949034.1, -1036634.1, -1417.0446, -0.0011669785, -0.058844395, -949011.2, -2716.888 
1.1503755e+2, 2.134301e+2, -847320.5, -936740.1, -1509.8325, 0.000071743416, -0.05988118, -847295.0, 1084.3046 
1.150411e+2, 2.234206e+2, -756903.94, -860872.9, -1295.5461, 0.0006050662, -0.058897093, -756887.8, -6415.4375 
1.15044676e+2, 2.3341031e+2, -653672.3, -760270.25, -1216.9631, -0.00019900275, -0.057139743, -653658.4, -1085.0952 
1.1504826e+2, 2.4339917e+2, -562733.25, -684079.56, -1291.7646, -0.00044898244, -0.056119606, -562719.5, -8037.0264 
1.1505181e+2, 2.5338718e+2, -461040.38, -584170.25, -1280.634, 0.0003547967, -0.059040684, -461027.06, -4227.113 
1.1505542e+2, 2.6337436e+2, -370646.0, -508469.44, -743.39514, 0.00017849989, -0.059345786, -370642.0, -11716.557 
1.1505911e+2, 2.7336076e+2, -267208.13, -407712.2, -860.287, -0.0018200745, -0.057852037, -267202.84, -6144.0107 
1.1506283e+2, 2.833461e+2, -179177.78, -338171.84, -654.09564, -0.0017661608, -0.05684607, -179175.1, -15972.579 
1.15066625e+2, 2.9333028e+2, -77222.13, -238499.11, -368.2793, 0.0021187465, -0.059766926, -77221.29, -11864.004 
1.1507046e+2, 3.03318e+2, 26343.828, -83788.08, 427.12622, 0.0023751496, -0.059615903, 26345.484, 26345.484 
1.1507433e+2, 3.1330955e+2, 32794.1, -78312.11, 183.71227, -0.0042007165, -0.057100125, 32794.406, 32794.406 
1.2500516e+2, 1.2347594e+2, -1711411.1, -1719398.5, -537.1381, 0.0017049053, -0.060906433, -1711375.1, 18555.059 
1.2500918e+2, 1.3347292e+2, -1627593.6, -1658630.4, -1719.5723, -0.0034158316, -0.04960219, -1627498.6, 4461.0947 
1.250133e+2, 1.4346923e+2, -1528762.8, -1566273.1, -1817.2721, 0.0013645656, -0.061444297, -1528674.9, 5321.107 
1.2501739e+2, 1.5346552e+2, -1426004.8, -1464900.9, -1570.3032, 0.00022944622, -0.05934943, -1425941.5, 10090.678 
1.2502141e+2, 1.63461e+2, -1335429.9, -1388893.6, -2161.2488, -0.0004181599, -0.0581773, -1335342.6, 2733.8533 
1.2502533e+2, 1.7345566e+2, -1232450.3, -1288447.5, -2470.0818, 0.00030449702, -0.05782017, -1232341.5, 7787.429 
1.2502925e+2, 1.8344948e+2, -1141945.5, -1212852.0, -2712.874, 0.00053552666, -0.05664022, -1141841.9, 347.61993 
1.2503314e+2, 1.9344243e+2, -1040239.0, -1113082.5, -2567.899, -0.00024189103, -0.057794847, -1040148.56, 4109.977 
1.25037e+2, 2.0343456e+2, -949788.4, -1037110.1, -2834.333, -0.00057445804, -0.058310833, -949696.5, -3360.7625 
1.2504081e+2, 2.1342586e+2, -846745.2, -936595.2, -2904.5564, -0.000045162014, -0.05975801, -846651.4, 1769.5033 
1.2504466e+2, 2.2341636e+2, -755983.7, -860401.44, -2698.3193, 0.0001691081, -0.05898848, -755914.0, -5399.989 
1.2504853e+2, 2.3340607e+2, -654512.75, -760628.75, -2668.759, -0.00022926265, -0.057075392, -654445.6, -1830.7406 
1.250524e+2, 2.4339493e+2, -564154.94, -684733.2, -2783.6147, -0.00029048757, -0.055995815, -564090.7, -9366.647 
1.2505625e+2, 2.5338292e+2, -460838.06, -584052.25, -2880.6746, 0.00028331933, -0.059031755, -460770.75, -3929.249 
1.2506017e+2, 2.6337013e+2, -369993.47, -508100.94, -2278.7, 0.000076245226, -0.059493173, -369955.88, -10988.883 
1.2506415e+2, 2.7335653e+2, -268318.13, -408182.53, -2038.4952, -0.0015726051, -0.05823108, -268288.4, -7188.03 
1.250682e+2, 2.8334188e+2, -180884.63, -338701.5, -1697.8727, -0.0015378473, -0.057021003, -180866.36, -17622.436 
1.250723e+2, 2.933261e+2, -77826.4, -238444.84, -1839.9045, 0.0016249594, -0.058932617, -77805.33, -12407.021 
1.2507646e+2, 3.0331385e+2, 26087.81, -83971.445, -1109.8602, 0.0018078828, -0.05863625, 26099.0, 26099.0 
1.2508066e+2, 3.1330535e+2, 32080.9, -78816.76, -893.4956, -0.003598847, -0.0575991, 32088.1, 32088.1 
1.3500568e+2, 1.2347152e+2, -1711901.6, -1720397.5, 808.5958, 0.0007781602, -0.058136, -1711825.3, 18148.172 
1.3501005e+2, 1.3346834e+2, -1628243.9, -1659960.8, -394.85352, -0.00341309, -0.05443802, -1628239.0, 3765.6252 
1.350145e+2, 1.4346462e+2, -1528527.8, -1565785.0, -746.5551, 0.0026487708, -0.06326344, -1528512.8, 5528.17 
1.3501887e+2, 1.5346104e+2, -1425612.9, -1464096.4, -543.1977, 0.0013286652, -0.057045992, -1425605.3, 10470.923 
1.3502318e+2, 1.6345653e+2, -1335807.6, -1389677.5, -940.2346, -0.00014703503, -0.054898508, -1335791.3, 2329.0532 
1.3502744e+2, 1.7345107e+2, -1232976.8, -1289534.8, -1207.1626, -0.0013276371, -0.059132025, -1232951.0, 7222.853 
1.3503164e+2, 1.8344483e+2, -1141835.9, -1212622.3, -1727.9407, -0.0013548847, -0.059948094, -1141793.8, 441.32254 
1.3503583e+2, 1.9343783e+2, -1040011.8, -1112623.0, -1631.8693, 0.0005686415, -0.05835438, -1039975.2, 4328.3438 
1.3503999e+2, 2.0343001e+2, -949805.25, -1037139.7, -1620.9304, 0.0013103938, -0.056702018, -949775.2, -3394.8867 
1.3504411e+2, 2.1342131e+2, -846813.8, -936733.75, -1638.1863, -0.00009285158, -0.05716747, -846784.0, 1681.5054 
1.3504824e+2, 2.2341178e+2, -756011.06, -860447.75, -1783.8927, -0.00083327584, -0.05719453, -755980.6, -5421.8633 
1.3505235e+2, 2.3340146e+2, -654529.7, -760669.9, -1820.8512, -0.00031326697, -0.059225846, -654498.5, -1838.4817 
1.3505651e+2, 2.433903e+2, -564228.44, -684889.5, -1528.2299, -0.00013478665, -0.059273727, -564209.06, -9439.785 
1.350607e+2, 2.5337833e+2, -460935.25, -584245.1, -1549.8805, -0.00062164234, -0.05824483, -460915.78, -4029.2576 
1.3506493e+2, 2.6336557e+2, -369718.5, -507495.2, -1314.1469, -0.0003902116, -0.057259854, -369705.97, -10694.174 
1.3506919e+2, 2.7335197e+2, -267970.06, -407432.47, -1150.617, 0.0011838631, -0.059502512, -267960.56, -6815.579 
1.3507351e+2, 2.8333735e+2, -180990.97, -338927.1, -446.66718, 0.0008401586, -0.05917074, -180989.72, -17701.342 
1.350779e+2, 2.9332158e+2, -78039.41, -238875.9, -523.0683, -0.0030885576, -0.05694713, -78037.7, -12595.044 
1.350824e+2, 3.0330932e+2, 26318.838, -83448.945, 94.99139, -0.0035151332, -0.055800773, 26318.92, 26318.92 
1.3508704e+2, 3.1330085e+2, 32401.625, -78124.93, 281.42245, 0.0027388379, -0.060219448, 32402.342, 32402.342 
1.4500622e+2, 1.2346673e+2, -1710756.9, -1720087.8, -593.0324, 0.00047719188, -0.057526812, -1710719.3, 19301.129 
1.4501096e+2, 1.3346349e+2, -1627722.4, -1660075.4, -1391.2246, -0.003348069, -0.057010297, -1627662.6, 4389.5444 
1.4501575e+2, 1.434598e+2, -1527990.4, -1565623.0, -1765.8503, 0.0033368894, -0.061643373, -1527907.6, 6180.692 
1.4502038e+2, 1.534562e+2, -1424553.3, -1463635.9, -2023.6581, 0.0010125296, -0.05663948, -1424448.8, 11675.02 
1.4502499e+2, 1.6345166e+2, -1334848.4, -1389394.8, -2531.1016, -0.00081841066, -0.055178728, -1334731.1, 3436.9475 
1.4502954e+2, 1.7344618e+2, -1232981.5, -1289757.4, -2391.3135, -0.0011297432, -0.05897998, -1232881.0, 7340.7905 
1.4503406e+2, 1.8343993e+2, -1142102.0, -1212856.6, -2842.5986, -0.0008085302, -0.059654098, -1141987.9, 295.15457 
1.4503852e+2, 1.9343293e+2, -1039498.6, -1112473.4, -3048.392, 0.00048871594, -0.058477376, -1039371.5, 4980.204 
1.4504294e+2, 2.0342508e+2, -949165.1, -1036837.4, -3146.806, 0.000891495, -0.05691183, -949052.3, -2623.7832 
1.4504738e+2, 2.134164e+2, -847381.9, -936995.8, -3084.7195, -0.00030210143, -0.056852248, -847275.8, 1237.8805 
1.4505179e+2, 2.2340688e+2, -756932.0, -860870.06, -3259.0374, -0.0008247087, -0.056754697, -756829.94, -6223.0166 
1.4505619e+2, 2.3339655e+2, -654303.5, -760539.3, -3279.0046, -0.00009673964, -0.059401926, -654202.44, -1494.2128 
1.4506063e+2, 2.4338539e+2, -563752.4, -684675.3, -2815.4922, 0.0000783465, -0.059661843, -563686.9, -8869.36 
1.4506511e+2, 2.533734e+2, -461840.13, -584712.1, -2741.6797, -0.0007991674, -0.05809449, -461778.97, -4844.244 
1.4506964e+2, 2.6336065e+2, -371006.78, -507955.47, -2632.0728, -0.00072508486, -0.056697745, -370956.22, -11896.338 
1.4507419e+2, 2.7334708e+2, -268202.1, -407353.97, -2721.3965, 0.0011318484, -0.05878256, -268148.9, -6956.007 
1.4507881e+2, 2.8333247e+2, -181086.5, -339065.0, -1996.2621, 0.0009590982, -0.058761843, -181061.28, -17725.063 
1.4508352e+2, 2.933167e+2, -79127.4, -239577.72, -1951.355, -0.003023315, -0.057709135, -79103.67, -13612.906 
1.4508833e+2, 3.033044e+2, 24988.148, -83606.695, -1248.8065, -0.0035297435, -0.056727495, 25002.508, 25002.508 
1.4509329e+2, 3.13296e+2, 31136.979, -78111.45, -1034.2657, 0.0025819729, -0.059396382, 31146.77, 31146.77 
1.5500684e+2, 1.2346155e+2, -1710595.8, -1719751.5, 603.2095, 0.00077302684, -0.058985405, -1710556.1, 19514.963 
1.5501189e+2, 1.3345835e+2, -1627551.1, -1659723.8, -207.15677, -0.0032314463, -0.057334386, -1627549.8, 4552.756 
1.5501699e+2, 1.4345472e+2, -1528350.6, -1566357.9, -606.0961, 0.003423603, -0.056597453, -1528341.0, 5797.249 
1.5502192e+2, 1.5345098e+2, -1425016.9, -1464584.5, -865.1998, -0.00071880687, -0.05810799, -1424997.9, 11176.934 
1.5502681e+2, 1.634464e+2, -1334712.5, -1389111.3, -1500.3479, -0.0024375736, -0.058986336, -1334671.1, 3548.592 
1.5503168e+2, 1.73441e+2, -1232739.3, -1289260.5, -1378.7866, 0.0008640394, -0.057389084, -1232705.6, 7566.9795 
1.5503648e+2, 1.8343477e+2, -1142344.0, -1213358.4, -1726.9078, 0.002135377, -0.05580121, -1142302.0, 31.594252 
1.550412e+2, 1.9342768e+2, -1039840.4, -1113173.5, -1909.996, -0.00047293314, -0.058162373, -1039790.6, 4612.3716 
1.5504591e+2, 2.034198e+2, -949156.4, -1036817.8, -2170.6228, -0.0018038149, -0.0589085, -949102.6, -2622.285 
1.5505064e+2, 2.1341112e+2, -847312.4, -936855.0, -2137.7803, -0.000682345, -0.05877123, -847261.4, 1303.9954 
1.5505533e+2, 2.2340162e+2, -756885.56, -860760.44, -2138.759, 0.00016166434, -0.05764722, -756841.56, -6183.149 
1.5506002e+2, 2.3339131e+2, -654264.94, -760453.56, -2127.528, 0.00040914988, -0.057650737, -654222.3, -1462.8872 
1.5506475e+2, 2.4338017e+2, -563701.6, -684567.2, -1821.2048, 0.00033838997, -0.057225235, -563674.2, -8805.606 
1.5506952e+2, 2.533682e+2, -461794.03, -584617.44, -1779.6089, -0.00028144356, -0.058561344, -461768.25, -4782.226 
1.5507431e+2, 2.633554e+2, -371078.44, -508068.53, -1497.1891, -0.0009416388, -0.057767063, -371062.06, -11950.845 
1.5507914e+2, 2.7334186e+2, -268298.0, -407526.56, -1556.6982, -0.0016525429, -0.056135774, -268280.6, -7036.595 
1.5508407e+2, 2.8332725e+2, -181113.69, -339100.78, -913.2944, -0.0011344271, -0.05586862, -181108.4, -17721.035 
1.5508914e+2, 2.933114e+2, -79149.72, -239604.25, -889.56366, 0.0016501413, -0.06112738, -79144.79, -13602.272 
1.5509425e+2, 3.0329913e+2, 25313.54, -82919.03, -81.34674, 0.0015941071, -0.061298616, 25313.6, 25313.6 
1.5509942e+2, 3.1329086e+2, 31528.531, -77286.86, 142.03577, -0.0038433026, -0.055262093, 31528.717, 31528.717 
1.6500749e+2, 1.234561e+2, -1709481.4, -1719358.1, -562.5294, 0.0014428442, -0.05796961, -1709449.5, 20675.148 
1.6501284e+2, 1.3345285e+2, -1626532.8, -1659261.3, -1588.3054, -0.0039312164, -0.059535947, -1626455.8, 5700.609 
1.6501825e+2, 1.4344925e+2, -1527709.5, -1566401.9, -2078.672, 0.0028647056, -0.05411596, -1527598.1, 6593.6885 
1.650235e+2, 1.5344545e+2, -1424630.0, -1464819.4, -2144.6372, -0.0005503711, -0.057966325, -1424515.9, 11713.083 
1.6502869e+2, 1.6344082e+2, -1334148.8, -1388874.5, -2818.7778, -0.0019866966, -0.060078345, -1334004.0, 4270.23 
1.6503383e+2, 1.7343545e+2, -1231966.1, -1288864.5, -2938.8975, 0.00081040023, -0.05755819, -1231814.8, 8512.262 
1.6503891e+2, 1.8342921e+2, -1141775.6, -1213274.3, -3339.7097, 0.0018134873, -0.055371717, -1141620.0, 768.0016 
1.6504392e+2, 1.9342212e+2, -1039776.7, -1113385.1, -3326.707, -0.0006194043, -0.05776733, -1039626.7, 4830.9834 
1.650489e+2, 2.034142e+2, -949183.06, -1036841.7, -3572.059, -0.001757036, -0.058720063, -949037.75, -2502.6418 
1.6505387e+2, 2.1340553e+2, -847166.2, -936754.25, -3604.3066, -0.00042839115, -0.05909439, -847021.44, 1598.7578 
1.6505887e+2, 2.2339603e+2, -756837.0, -860823.25, -3568.4368, 0.0003495801, -0.05803938, -756714.7, -6001.499 
1.6506384e+2, 2.3338573e+2, -654622.1, -760745.7, -3653.0188, 0.00003735235, -0.057298657, -654496.56, -1682.267 
1.6506885e+2, 2.4337459e+2, -564207.1, -684681.06, -3528.757, -0.00015727822, -0.056563973, -564103.9, -9180.425 
1.6507389e+2, 2.533626e+2, -462413.6, -584745.0, -3454.1685, -0.000092400565, -0.058405932, -462316.16, -5275.401 
1.6507897e+2, 2.6334986e+2, -371854.03, -508400.06, -2910.7488, -0.00054720795, -0.05805847, -371792.0, -12626.131 
1.6508411e+2, 2.733363e+2, -269120.72, -407910.34, -2836.4836, -0.0019643079, -0.056738555, -269062.75, -7764.101 
1.6508934e+2, 2.8332168e+2, -181930.25, -339271.8, -2175.8389, -0.0016129211, -0.05622098, -181900.17, -18458.236 
1.6509467e+2, 2.9330587e+2, -80170.25, -239853.23, -2019.4246, 0.002030862, -0.060185604, -80144.72, -14547.96 
1.651001e+2, 3.0329365e+2, 24134.738, -83296.78, -1067.3832, 0.002130457, -0.06013179, 24145.342, 24145.342 
1.6510558e+2, 3.1328538e+2, 30457.977, -77630.59, -1147.2692, -0.004498512, -0.055932254, 30470.152, 30470.152 
1.750082e+2, 1.23450354e+2, -1709841.0, -1720092.0, 574.18097, 0.0024703424, -0.05439339, -1709809.0, 20371.96 
1.7501381e+2, 1.33447e+2, -1626751.1, -1659713.6, -445.22754, -0.005447258, -0.0636015, -1626745.1, 5468.705 
1.7501953e+2, 1.434434e+2, -1527805.1, -1566600.3, -971.5415, 0.001651585, -0.054188464, -1527780.9, 6468.1895 
1.750251e+2, 1.5343963e+2, -1424709.5, -1464986.6, -1040.8738, 0.0014832565, -0.056236435, -1424682.6, 11603.535 
1.7503059e+2, 1.6343498e+2, -1334330.9, -1389249.8, -1758.3934, 0.00050518994, -0.05848096, -1334274.6, 4056.964 
1.7503598e+2, 1.7342953e+2, -1232175.5, -1289293.4, -1881.3401, -0.0012628846, -0.05945715, -1232113.6, 8271.266 
1.7504132e+2, 1.8342328e+2, -1141784.8, -1213288.6, -2322.4253, -0.0017384997, -0.05832228, -1141709.4, 736.8123 
1.7504665e+2, 1.9341621e+2, -1039756.1, -1113335.0, -2313.1736, 0.000019321615, -0.057298455, -1039683.44, 4832.0693 
1.7505193e+2, 2.0340833e+2, -949203.2, -1036874.44, -2580.1838, 0.00097306457, -0.05638952, -949127.3, -2534.5178 
1.7505714e+2, 2.1339963e+2, -847201.56, -936817.56, -2616.6624, 0.0004384292, -0.057854842, -847125.2, 1552.7864 
1.7506239e+2, 2.233901e+2, -756994.56, -861131.4, -2528.6484, -0.00025545034, -0.05793869, -756933.2, -6161.94 
1.7506765e+2, 2.3337977e+2, -654818.56, -761112.94, -2601.398, -0.001196858, -0.058308523, -654754.94, -1882.2423 
1.7507292e+2, 2.4336863e+2, -564107.7, -684443.0, -2576.0103, -0.0013982805, -0.057634544, -564052.56, -9070.637 
1.7507821e+2, 2.533567e+2, -462257.2, -584400.75, -2524.667, -0.00023332087, -0.05765258, -462205.03, -5106.2114 
1.7508359e+2, 2.6334393e+2, -371744.4, -508133.4, -1787.2305, 0.0004289343, -0.05759126, -371721.0, -12497.234 
1.7508905e+2, 2.7333036e+2, -269040.1, -407684.38, -1678.4899, 0.00010514429, -0.06048257, -269019.78, -7663.006 
1.7509457e+2, 2.8331578e+2, -181684.78, -338732.13, -1145.1586, -0.0005406423, -0.0597192, -181676.42, -18176.639 
1.7510013e+2, 2.9330012e+2, -79888.56, -239259.67, -1022.7995, -0.0017265575, -0.05505519, -79882.0, -14228.579 
1.7510585e+2, 3.0328786e+2, 23991.645, -83559.53, 112.29722, -0.0017673532, -0.053437524, 23991.762, 23991.762 
1.7511174e+2, 3.1327945e+2, 30206.697, -78103.6, 66.494, 0.00034863866, -0.061199285, 30206.738, 30206.738 
1.8500891e+2, 1.2344427e+2, -1709201.6, -1720452.6, -604.3544, 0.0020462605, -0.052976858, -1709169.3, 21071.313 
1.8501486e+2, 1.3344084e+2, -1625361.1, -1659324.0, -1573.3145, -0.005468242, -0.06694213, -1625288.4, 6985.755 
1.850209e+2, 1.4343727e+2, -1526150.0, -1565867.1, -2211.27, 0.0023845825, -0.05262529, -1526027.3, 8281.865 
1.8502674e+2, 1.5343347e+2, -1423587.8, -1464485.3, -2255.32, 0.0015451525, -0.055653702, -1423463.8, 12882.67 
1.850325e+2, 1.6342881e+2, -1333813.1, -1389348.5, -2958.4546, 0.00017164029, -0.05854936, -1333656.0, 4736.087 
1.8503816e+2, 1.7342332e+2, -1231836.6, -1289543.3, -3137.811, -0.0014157993, -0.059396084, -1231666.5, 8779.2295 
1.850438e+2, 1.8341705e+2, -1141327.6, -1213025.1, -3657.05, -0.001755666, -0.058266085, -1141141.6, 1365.6785 
1.8504938e+2, 1.9341e+2, -1039519.94, -1113105.8, -3608.6245, 0.000011676208, -0.057521477, -1039343.44, 5233.0664 
1.8505491e+2, 2.034021e+2, -949269.06, -1037088.0, -3866.2458, 0.0009349709, -0.056581564, -949099.2, -2445.4211 
1.8506041e+2, 2.1339339e+2, -847155.44, -937040.3, -4026.6824, 0.00031289007, -0.0574382, -846975.44, 1763.7256 
1.8506593e+2, 2.2338386e+2, -756867.44, -860946.94, -3964.0728, -0.00038304625, -0.05736196, -756716.7, -5884.2275 
1.8507144e+2, 2.3337354e+2, -655394.06, -761208.1, -3744.1792, -0.0011764357, -0.058404773, -655261.7, -2327.9314 
1.8507698e+2, 2.4336238e+2, -565031.6, -684911.3, -3525.3828, -0.0013422876, -0.058034346, -564928.06, -9885.088 
1.8508255e+2, 2.5335044e+2, -462432.16, -584562.94, -3683.428, -0.0003632356, -0.057652425, -462321.16, -5161.253 
1.850882e+2, 2.633377e+2, -371735.28, -507987.03, -3142.1123, 0.00032745494, -0.057260025, -371662.88, -12378.056 
1.8509392e+2, 2.7332416e+2, -270378.03, -408167.88, -3045.607, 0.00044247383, -0.059967626, -270310.75, -8893.078 
1.8509972e+2, 2.8330958e+2, -183563.6, -339397.1, -2420.2385, -0.00032651544, -0.059345055, -183526.02, -19965.518 
1.8510558e+2, 2.9329392e+2, -80871.04, -239479.75, -2405.447, -0.0027012387, -0.05543133, -80834.57, -15120.616 
1.8511158e+2, 3.0328172e+2, 23264.838, -83716.27, -1260.0817, -0.0027328434, -0.053943325, 23279.678, 23279.678 
1.851178e+2, 3.1327334e+2, 28454.273, -78777.016, -958.2188, 0.0016638585, -0.06061811, 28462.836, 28462.836 
1.9500965e+2, 1.23437844e+2, -1709711.3, -1721496.6, 627.0117, 0.00015116726, -0.053640787, -1709678.0, 20625.508 
1.9501598e+2, 1.3343437e+2, -1625513.5, -1659635.4, -298.2507, -0.0040121246, -0.06956787, -1625511.0, 6826.6104 
1.9502233e+2, 1.4343084e+2, -1526154.6, -1565876.4, -1205.4492, 0.0050427336, -0.049437806, -1526118.1, 8253.938 
1.950284e+2, 1.5342702e+2, -1423570.6, -1464454.9, -1298.0854, -0.00035184337, -0.056200847, -1423529.5, 12880.183 
1.950344e+2, 1.6342233e+2, -1334081.3, -1389903.0, -1951.266, -0.0029703246, -0.060267698, -1334013.1, 4442.455 
1.9504039e+2, 1.7341684e+2, -1232165.9, -1290223.1, -2113.9072, 0.00030370825, -0.057410493, -1232089.0, 8420.346 
1.9504629e+2, 1.8341056e+2, -1141276.0, -1212923.1, -2703.5154, 0.0016895828, -0.055247758, -1141174.1, 1396.9615 
1.9505209e+2, 1.9340345e+2, -1039400.9, -1112877.1, -2667.7456, -0.00063490187, -0.058415387, -1039304.1, 5336.3213 
1.950579e+2, 2.0339556e+2, -949481.25, -1037532.7, -2853.5579, -0.0018242813, -0.059245102, -949388.9, -2670.9502 
1.9506368e+2, 2.1338682e+2, -847438.2, -937633.56, -2996.9995, -0.0007989139, -0.05783057, -847338.75, 1464.7565 
1.9506946e+2, 2.233773e+2, -756577.25, -860333.9, -3080.8179, -0.000062958454, -0.05632197, -756485.9, -5589.099 
1.9507523e+2, 2.3336703e+2, -654998.9, -760375.5, -2893.744, 0.000054536853, -0.057616297, -654919.44, -1921.9287 
1.9508103e+2, 2.433559e+2, -565187.7, -685225.4, -2438.9348, -0.000040673454, -0.057781123, -565138.2, -10031.649 
1.9508688e+2, 2.533439e+2, -462714.66, -585121.94, -2548.7498, -0.0004979809, -0.058379225, -462661.63, -5437.685 
1.9509278e+2, 2.6333117e+2, -371697.75, -507870.75, -2290.5833, -0.0008270802, -0.057064775, -371659.22, -12310.288 
1.9509874e+2, 2.7331766e+2, -270274.84, -407924.03, -2254.9675, -0.0008980474, -0.055355273, -270237.9, -8756.688 
1.951048e+2, 2.833031e+2, -183509.78, -339254.94, -1249.6884, -0.00096120615, -0.05523586, -183499.75, -19875.8 
1.95111e+2, 2.9328737e+2, -80854.6, -239394.08, -1164.3314, -0.0010202058, -0.061076146, -80846.05, -15067.832 
1.9511734e+2, 3.0327517e+2, 23620.979, -82877.85, -264.8346, -0.0008888133, -0.06136032, 23621.637, 23621.637 
1.9512376e+2, 3.13267e+2, 28892.824, -77793.18, -24.60887, -0.00041278373, -0.054480657, 28892.83, 28892.83 
2.050105e+2, 1.2343111e+2, -1707836.6, -1721213.4, -710.63763, 0.0004601681, -0.05292009, -1707799.0, 22570.494 
2.050171e+2, 1.3342759e+2, -1624283.5, -1658887.4, -1352.1104, -0.0042710193, -0.07224698, -1624230.8, 8173.1455 
2.0502375e+2, 1.4342414e+2, -1525809.6, -1566042.0, -2302.766, 0.005029075, -0.04678792, -1525678.3, 8759.581 
2.0503008e+2, 1.5342022e+2, -1422853.5, -1464547.0, -2714.17, -0.0005341179, -0.056024395, -1422677.6, 13798.517 
2.0503637e+2, 1.634155e+2, -1332965.4, -1389413.1, -3486.0269, -0.0031827183, -0.061346557, -1332751.0, 5771.422 
2.0504263e+2, 1.7341003e+2, -1231420.4, -1289851.1, -3306.4702, 0.00033688312, -0.057340752, -1231233.9, 9342.185 
2.050488e+2, 1.8340373e+2, -1140966.9, -1213058.1, -3809.1814, 0.0018752054, -0.054558754, -1140766.3, 1871.5634 
2.0505485e+2, 1.9339663e+2, -1039069.1, -1113063.4, -4118.9023, -0.00047359953, -0.058114562, -1038840.56, 5866.9844 
2.050609e+2, 2.0338869e+2, -949062.25, -1037254.25, -4406.4585, -0.0018180801, -0.059272137, -948842.6, -2057.4243 
2.0506693e+2, 2.1337998e+2, -847621.75, -937580.4, -4175.798, -0.0011899208, -0.058056362, -847428.4, 1442.3252 
2.0507297e+2, 2.2337045e+2, -757166.4, -860711.9, -4215.949, -0.0004872123, -0.05652609, -756995.0, -6031.1343 
2.0507897e+2, 2.3336017e+2, -655155.56, -760611.5, -4546.294, 0.00027165853, -0.05738883, -654959.94, -1895.1492 
2.0508505e+2, 2.4334905e+2, -565228.6, -685081.06, -4228.1963, 0.0003836044, -0.05739732, -565079.7, -9905.904 
2.0509118e+2, 2.533371e+2, -463877.6, -585458.3, -3916.975, -0.0006942375, -0.058363993, -463751.53, -6460.518 
2.0509733e+2, 2.6332435e+2, -373266.28, -508531.63, -3426.5027, -0.0013823652, -0.057180353, -373179.56, -13763.658 
2.0510355e+2, 2.7331084e+2, -270658.47, -408051.2, -3471.311, -0.0012990725, -0.05514528, -270570.8, -9022.734 
2.0510988e+2, 2.832963e+2, -183705.33, -339298.72, -2482.8518, -0.00092980615, -0.054962877, -183665.72, -19974.965 
2.0511636e+2, 2.9328054e+2, -82790.04, -240294.78, -2421.0276, -0.000071986586, -0.06122916, -82752.83, -16907.797 
2.0512298e+2, 3.0326837e+2, 21286.574, -83515.09, -1467.5219, -0.00012655607, -0.061610907, 21307.121, 21307.121 
2.0512967e+2, 3.1326026e+2, 27932.463, -77687.05, -1327.7129, -0.0019238157, -0.054225516, 27949.15, 27949.15 
2.1501143e+2, 1.2342407e+2, -1708148.3, -1721853.1, 226.77458, 0.002948569, -0.050765887, -1708144.5, 22294.148 
2.1501826e+2, 1.3342054e+2, -1623948.6, -1658208.5, -371.59506, -0.006230621, -0.07497923, -1623944.6, 8528.351 
2.1502517e+2, 1.4341713e+2, -1526233.4, -1566915.3, -1246.7175, 0.0023481357, -0.044669062, -1526195.1, 8311.356 
2.1503185e+2, 1.5341313e+2, -1423428.4, -1465727.5, -1638.9739, 0.0009512236, -0.05513323, -1423364.9, 13180.757 
2.150384e+2, 1.6340837e+2, -1332762.8, -1388999.6, -2549.0588, -0.00051187974, -0.061790366, -1332647.4, 5944.975 
2.1504487e+2, 1.7340292e+2, -1231079.8, -1289153.5, -2393.1995, -0.0012905212, -0.059151415, -1230981.3, 9664.474 
2.1505128e+2, 1.8339664e+2, -1141375.1, -1213901.8, -2859.9182, -0.0011607552, -0.05616087, -1141262.5, 1444.8809 
2.1505763e+2, 1.9338946e+2, -1039629.0, -1114217.9, -3156.0142, 0.00046016727, -0.05665076, -1039495.7, 5281.939 
2.1506394e+2, 2.0338151e+2, -948775.25, -1036663.7, -3530.191, 0.00088186277, -0.056719393, -948633.7, -1778.1761 
2.1507019e+2, 2.1337283e+2, -847179.7, -936672.1, -3319.3928, -0.0008907738, -0.058114927, -847056.75, 1883.8593 
2.1507646e+2, 2.2336332e+2, -757579.7, -861573.94, -3261.1462, -0.001652524, -0.05793792, -757477.5, -6443.6885 
2.1508275e+2, 2.3335294e+2, -655745.8, -761838.3, -3567.2034, -0.00050007337, -0.05770654, -655626.0, -2490.6072 
2.1508907e+2, 2.4334182e+2, -564884.25, -684347.56, -3367.8787, -0.00005512339, -0.05689066, -564789.4, -9544.769 
2.150954e+2, 2.5332993e+2, -463352.84, -584357.9, -3087.746, -0.00096611737, -0.057635114, -463274.1, -5913.0137 
2.1510182e+2, 2.6331723e+2, -373217.38, -508391.06, -2361.4895, -0.0013732009, -0.057589162, -373176.13, -13690.569 
2.1510834e+2, 2.733037e+2, -270731.78, -408122.8, -2359.471, -0.00080892234, -0.059157357, -270691.25, -9073.122 
2.1511495e+2, 2.8328916e+2, -183743.92, -339310.16, -1643.592, -0.0002780646, -0.05838098, -183726.56, -19965.766 
2.1512164e+2, 2.9327348e+2, -82812.586, -240302.53, -1642.1566, 0.00016769493, -0.05615231, -82795.47, -16881.148 
2.1512851e+2, 3.0326134e+2, 21485.92, -83063.33, -251.9288, -0.00040237993, -0.055013005, 21486.525, 21486.525 
2.1513556e+2, 3.1325313e+2, 28129.996, -77178.19, -30.234514, -0.0029278342, -0.059544187, 28130.006, 28130.006 
2.2501238e+2, 1.2341673e+2, -1707866.8, -1722733.4, -717.7765, 0.003122272, -0.04949033, -1707832.1, 22678.223 
2.2501951e+2, 1.334132e+2, -1621750.1, -1656950.5, -1480.7448, -0.006647225, -0.077914886, -1621687.9, 10857.237 
2.2502671e+2, 1.4340982e+2, -1523942.0, -1566023.9, -2536.3472, 0.0022585653, -0.042769726, -1523789.8, 10788.461 
2.2503363e+2, 1.5340577e+2, -1422303.3, -1465492.9, -2572.8562, 0.0012212177, -0.05450122, -1422150.6, 14467.186 
2.2504045e+2, 1.63401e+2, -1332304.6, -1389085.1, -3421.2493, -0.00017426394, -0.062084023, -1332099.3, 6565.603 
2.2504717e+2, 1.7339551e+2, -1230445.8, -1289168.8, -3815.6138, -0.0013789121, -0.059570197, -1230198.9, 10519.54 
2.2505382e+2, 1.8338919e+2, -1140640.0, -1213578.3, -4494.1675, -0.0015196449, -0.05654122, -1140364.1, 2416.076 
2.250604e+2, 1.9338204e+2, -1039469.94, -1114134.9, -4224.353, 0.00010551491, -0.056721356, -1039231.7, 5618.8247 
2.2506696e+2, 2.0337409e+2, -949012.06, -1036887.4, -4406.2813, 0.000736826, -0.056533597, -948791.7, -1863.3057 
2.2507346e+2, 2.1336539e+2, -847205.7, -936833.9, -4737.5483, -0.0004516956, -0.057764463, -846955.94, 2057.621 
2.2507997e+2, 2.2335586e+2, -757496.0, -861502.2, -4796.551, -0.001144737, -0.05765623, -757275.3, -6168.412 
2.2508648e+2, 2.3334551e+2, -656132.56, -761972.0, -4464.113, -0.0008915144, -0.057930518, -655944.56, -2736.1152 
2.2509305e+2, 2.4333437e+2, -565562.9, -684676.2, -4081.949, -0.00076707033, -0.057215877, -565423.2, -10105.524 
2.2509962e+2, 2.5332248e+2, -463876.0, -584625.0, -4362.409, -0.0009030359, -0.057291064, -463718.6, -6284.507 
2.251063e+2, 2.6330978e+2, -373829.13, -508478.13, -3838.0046, -0.0009069248, -0.057164036, -373719.8, -14161.335 
2.2511306e+2, 2.7329627e+2, -272372.53, -408669.7, -3630.47, -0.0006696382, -0.059771534, -272275.9, -10584.977 
2.2511993e+2, 2.8328174e+2, -185646.1, -339986.75, -2742.7104, -0.00051217084, -0.05909391, -185597.38, -21764.006 
2.2512689e+2, 2.9326612e+2, -83469.516, -240371.53, -2600.204, -0.0005008466, -0.055178817, -83426.44, -17439.89 
2.2513402e+2, 3.03254e+2, 20892.184, -83038.78, -1116.9791, -0.0008933367, -0.05366443, 20904.188, 20904.188 
2.2514135e+2, 3.132458e+2, 25167.885, -78297.59, -977.1579, -0.002080751, -0.060330655, 25177.111, 25177.111 
2.3501334e+2, 1.2340914e+2, -1708861.1, -1724775.0, 462.86176, 0.0009653296, -0.04906327, -1708847.6, 21737.266 
2.3502085e+2, 1.3340552e+2, -1621845.3, -1657147.8, -200.7758, -0.0055484404, -0.08105165, -1621844.1, 10776.174 
2.3502836e+2, 1.434022e+2, -1523806.3, -1565742.3, -1678.3553, 0.004725837, -0.041086987, -1523739.1, 10913.618 
2.3503546e+2, 1.5339817e+2, -1422127.8, -1465136.0, -1793.0156, 0.00028340908, -0.054125674, -1422053.1, 14639.181 
2.3504248e+2, 1.6339336e+2, -1332890.9, -1390293.0, -2490.5225, -0.0021523011, -0.06223008, -1332783.0, 5956.5874 
2.3504949e+2, 1.7338778e+2, -1231187.3, -1290695.8, -2847.565, 0.000024780631, -0.05862519, -1231051.3, 9742.894 
2.350564e+2, 1.8338144e+2, -1140282.3, -1212850.4, -3665.3708, 0.00073281804, -0.055717535, -1140097.6, 2758.7153 
2.3506317e+2, 1.933743e+2, -1038909.4, -1112990.5, -3423.8904, -0.0015106729, -0.058285136, -1038751.5, 6174.557 
2.3506995e+2, 2.033664e+2, -949422.25, -1037760.7, -3509.6729, -0.0021939806, -0.058658212, -949283.06, -2279.3147 
2.3507673e+2, 2.1335764e+2, -847816.3, -938122.7, -3816.0842, 0.00010405904, -0.057020653, -847655.4, 1434.1885 
2.3508349e+2, 2.233481e+2, -757062.06, -860586.56, -3934.3054, 0.0009677241, -0.05572873, -756912.75, -5729.7715 
2.3509023e+2, 2.3333782e+2, -655497.56, -760647.44, -3619.9087, -0.00091884035, -0.058060188, -655373.1, -2089.2498 
2.35097e+2, 2.433267e+2, -565901.0, -685377.94, -3212.7222, -0.0017535223, -0.05834387, -565814.7, -10421.892 
2.3510383e+2, 2.5331473e+2, -464421.34, -585749.2, -3483.5947, -0.0005337897, -0.057317715, -464321.4, -6811.517 
2.3511074e+2, 2.6330203e+2, -373650.28, -508063.72, -2989.5085, -0.000011101464, -0.05594365, -373583.8, -13949.324 
2.3511773e+2, 2.7328858e+2, -272053.63, -407961.4, -2795.4736, -0.00087357644, -0.057141535, -271996.16, -10229.808 
2.3512484e+2, 2.8327408e+2, -185379.02, -339381.34, -1670.6898, -0.0016102727, -0.057216972, -185360.89, -21452.512 
2.351321e+2, 2.9325846e+2, -83242.516, -239820.63, -1486.204, -0.0020446342, -0.05809838, -83228.414, -17166.807 
2.3513949e+2, 3.0324638e+2, 20982.24, -82776.625, -377.66132, -0.001598479, -0.057311617, 20983.613, 20983.613 
2.3514703e+2, 3.1323826e+2, 25258.064, -78099.85, -322.3565, 0.00048803483, -0.056845423, 25259.068, 25259.068 
2.4501441e+2, 1.2340123e+2, -1706486.8, -1724948.1, -788.02936, 0.0008559671, -0.04816052, -1706453.1, 24209.164 
2.4502222e+2, 1.3339761e+2, -1620282.1, -1656070.9, -1069.8195, -0.0053587616, -0.08342073, -1620250.3, 12447.628 
2.4503e+2, 1.4339434e+2, -1523459.6, -1565807.3, -2614.5288, 0.005240417, -0.03946037, -1523298.8, 11431.124 
2.4503732e+2, 1.5339026e+2, -1420955.4, -1464913.6, -3151.7507, 0.000001391377, -0.054046452, -1420730.5, 16039.286 
2.450446e+2, 1.633854e+2, -1331378.8, -1389768.1, -3949.1575, -0.0027166044, -0.06287042, -1331112.9, 7704.572 
2.4505183e+2, 1.7337982e+2, -1230638.9, -1290629.8, -3686.8262, 0.00015617625, -0.058335673, -1230413.1, 10458.996 
2.4505897e+2, 1.8337347e+2, -1140162.3, -1212977.6, -4304.4224, 0.0011878684, -0.054964844, -1139908.6, 3025.7722 
2.4506597e+2, 1.9336633e+2, -1038214.2, -1112853.5, -4747.59, -0.0014466987, -0.05795655, -1037913.44, 7090.937 
2.4507298e+2, 2.0335838e+2, -948617.1, -1037451.3, -5164.845, -0.002392536, -0.058722623, -948317.8, -1235.5762 
2.4507996e+2, 2.1334961e+2, -847963.5, -938271.1, -4919.1865, -0.00010849139, -0.057401773, -847696.4, 1471.81 
2.4508695e+2, 2.233401e+2, -757723.56, -860801.44, -4814.0815, 0.00078152004, -0.05602417, -757499.2, -6237.6123 
2.4509393e+2, 2.333298e+2, -656113.5, -760818.75, -5070.9414, -0.0010055555, -0.057520434, -655868.5, -2506.1797 
2.4510093e+2, 2.4331869e+2, -566562.06, -685595.5, -4843.278, -0.0017364579, -0.057617996, -566365.3, -10894.178 
2.4510802e+2, 2.5330675e+2, -465261.06, -586085.4, -4534.996, -0.00041839865, -0.057640664, -465091.1, -7502.825 
2.4511516e+2, 2.6329404e+2, -374527.16, -508364.4, -3745.434, 0.00006526841, -0.05651624, -374422.4, -14709.587 
2.4512237e+2, 2.7328062e+2, -272817.72, -408197.03, -3821.7244, -0.0010856735, -0.056417715, -272709.94, -10865.466 
2.4512972e+2, 2.8326616e+2, -186515.69, -339666.66, -2872.759, -0.0018834593, -0.056281585, -186461.83, -22475.5 
2.4513723e+2, 2.932505e+2, -85947.38, -240845.2, -2799.8096, -0.0019497185, -0.05904551, -85896.79, -19757.305 
2.4514487e+2, 3.0323842e+2, 18181.781, -83726.734, -1616.5765, -0.0014386735, -0.05862171, 18207.42, 18207.42 
2.4515268e+2, 3.1323037e+2, 24995.17, -77811.95, -1405.8032, 0.00010393501, -0.055553008, 25014.39, 25014.39 
2.5501564e+2, 1.23393044e+2, -1707208.6, -1726430.5, -70.441025, 0.0027590974, -0.04679721, -1707208.4, 23534.16 
2.5502363e+2, 1.3338944e+2, -1619790.9, -1655073.5, -270.4429, -0.0060723564, -0.08502728, -1619788.8, 12989.027 
2.5503165e+2, 1.4338621e+2, -1523882.8, -1566685.8, -1631.3378, 0.0038074802, -0.037888635, -1523820.6, 10988.804 
2.5503927e+2, 1.5338205e+2, -1421562.6, -1466172.4, -2128.6228, 0.00034247394, -0.054258104, -1421461.4, 15389.042 
2.5504676e+2, 1.6337715e+2, -1331072.0, -1389140.5, -3193.0784, -0.0019005017, -0.0639947, -1330896.9, 8001.4683 
2.5505418e+2, 1.7337164e+2, -1230159.3, -1289658.1, -2980.6501, -0.00096371176, -0.058686804, -1230010.3, 10942.098 
2.5506154e+2, 1.833653e+2, -1140734.5, -1214176.6, -3392.9683, -0.00013806696, -0.05428342, -1140578.1, 2436.453 
2.5506884e+2, 1.9335806e+2, -1039008.3, -1114499.0, -3788.1157, 0.00023542644, -0.055787843, -1038818.7, 6266.733 
2.5507608e+2, 2.0335007e+2, -948332.1, -1036875.7, -4447.721, 0.000059708014, -0.05678021, -948109.3, -945.4917 
2.5508323e+2, 2.1334134e+2, -847469.4, -937275.6, -4253.0635, -0.0010709226, -0.058866005, -847268.44, 1980.9104 
2.550904e+2, 2.2333182e+2, -758033.06, -861465.1, -3989.2395, -0.0016450923, -0.058471866, -757879.44, -6536.7803 
2.550976e+2, 2.333215e+2, -656601.56, -761833.25, -4210.0444, -0.0011619308, -0.056344707, -656433.4, -2989.6902 
2.5510487e+2, 2.4331039e+2, -566151.1, -684740.5, -4003.141, -0.0007641932, -0.055105638, -566016.1, -10463.583 
2.5511214e+2, 2.532985e+2, -464683.6, -584873.56, -3706.2168, -0.00055775046, -0.05824321, -464569.4, -6900.274 
2.5511953e+2, 2.6328582e+2, -374596.6, -508469.75, -2886.5361, -0.0006537361, -0.05880386, -374534.38, -14741.0 
2.5512698e+2, 2.7327237e+2, -273037.1, -408595.47, -2955.823, -0.0013192334, -0.057514008, -272972.7, -11047.502 
2.5513455e+2, 2.832579e+2, -186521.78, -339624.5, -2139.8037, -0.0013946701, -0.05624646, -186491.89, -22424.807 
2.5514227e+2, 2.9324228e+2, -85904.586, -240721.95, -2100.5315, -0.00031236876, -0.058130756, -85876.09, -19656.016 
2.5515014e+2, 3.0323026e+2, 18479.041, -83049.69, -381.52667, -0.0004638473, -0.057712954, 18480.475, 18480.475 
2.5515828e+2, 3.1322223e+2, 25282.686, -77075.875, -63.184494, -0.0030856873, -0.05631524, 25282.725, 25282.725 
2.6501688e+2, 1.23384595e+2, -1706936.0, -1727802.8, -1013.5724, 0.0032074696, -0.046229426, -1706886.9, 23938.473 
2.650251e+2, 1.3338101e+2, -1616867.3, -1653096.9, -1251.2244, -0.0064363186, -0.086307086, -1616824.1, 16036.283 
2.6503336e+2, 1.4337784e+2, -1521213.3, -1565688.6, -2733.8665, 0.0034079838, -0.036388807, -1521045.8, 13845.829 
2.6504123e+2, 1.5337361e+2, -1420617.4, -1466189.6, -2942.9365, 0.00073068804, -0.053928517, -1420428.1, 16504.924 
2.6504898e+2, 1.6336867e+2, -1330704.5, -1389190.9, -4003.344, -0.0013402523, -0.06434552, -1330431.8, 8549.73 
2.6505658e+2, 1.7336315e+2, -1228877.4, -1289232.6, -4390.7227, -0.001359801, -0.058734167, -1228559.6, 12475.921 
2.6506415e+2, 1.8335678e+2, -1139419.8, -1213712.9, -5033.866, -0.0008212052, -0.05423569, -1139080.1, 4017.7065 
2.650717e+2, 1.9334954e+2, -1039318.0, -1114834.4, -4755.493, 0.0005161929, -0.056045484, -1039019.7, 6149.277 
2.6507914e+2, 2.0334154e+2, -949179.0, -1037283.5, -5059.9224, 0.0006619686, -0.056980837, -948889.4, -1641.9568 
2.6508647e+2, 2.133328e+2, -847172.44, -937095.7, -5318.4824, -0.0013678089, -0.058335114, -846859.0, 2473.891 
2.6509386e+2, 2.2332329e+2, -757428.8, -861336.4, -5321.113, -0.0022024484, -0.057870112, -757157.06, -5730.8335 
2.6510128e+2, 2.3331295e+2, -657014.06, -762243.25, -5202.619, -0.0007606237, -0.0569212, -656757.44, -3229.8992 
2.6510876e+2, 2.4330184e+2, -567011.3, -684959.6, -4830.695, -0.00013880587, -0.0560425, -566813.8, -11177.31 
2.6511624e+2, 2.5328997e+2, -465619.47, -585057.4, -4953.131, -0.0011271627, -0.057957985, -465414.4, -7661.6504 
2.6512384e+2, 2.6327732e+2, -375793.38, -508833.06, -4330.014, -0.0016127407, -0.05801292, -375652.6, -15775.864 
2.6513153e+2, 2.7326387e+2, -274750.03, -409252.5, -4100.652, -0.0010962649, -0.057629038, -274625.13, -12616.694 
2.651393e+2, 2.832494e+2, -188187.8, -340285.8, -3008.9614, -0.00069874804, -0.056641396, -188128.3, -23978.074 
2.6514724e+2, 2.932338e+2, -86357.445, -240829.72, -2942.8486, -0.0005643305, -0.05755512, -86301.41, -19998.393 
2.651554e+2, 3.032218e+2, 17853.973, -82828.914, -1226.8011, -0.0010776899, -0.05704877, 17868.92, 17868.92 
2.6516375e+2, 3.1321383e+2, 21054.371, -78501.38, -912.52435, -0.0028671615, -0.057302326, 21062.734, 21062.734 
2.7501816e+2, 1.2337591e+2, -1708135.1, -1730274.0, -4.0179644, 0.0021792583, -0.04648893, -1708135.1, 22775.344 
2.750267e+2, 1.3337234e+2, -1616643.6, -1652641.1, -102.87203, -0.0064659044, -0.087263115, -1616643.4, 16302.226 
2.750352e+2, 1.433692e+2, -1521176.8, -1565610.0, -2049.2585, 0.0040168236, -0.03496211, -1521082.4, 13893.896 
2.7504325e+2, 1.5336496e+2, -1420617.5, -1466196.5, -2345.4075, 0.0011536392, -0.053069, -1420497.1, 16520.623 
2.7505118e+2, 1.6335998e+2, -1331278.8, -1390387.5, -3117.065, -0.0010427182, -0.063936695, -1331114.9, 7951.707 
2.7505904e+2, 1.7335437e+2, -1229583.3, -1290683.3, -3439.773, -0.0010623842, -0.058483195, -1229390.1, 11731.515 
2.7506682e+2, 1.8334796e+2, -1139075.5, -1213005.6, -4433.2866, -0.0008902541, -0.05480164, -1138810.6, 4373.812 
2.7507448e+2, 1.9334076e+2, -1038766.25, -1113719.8, -4225.533, -0.00056850153, -0.058654223, -1038528.8, 6726.1504 
2.750821e+2, 2.0333278e+2, -949432.0, -1037819.7, -4165.075, -0.0005423185, -0.059266612, -949236.2, -1903.095 
2.7508974e+2, 2.1332406e+2, -847607.4, -937993.2, -4347.5728, -0.0010397341, -0.05588594, -847398.75, 2019.9463 
2.7509737e+2, 2.2331451e+2, -757334.06, -861116.06, -4660.2886, -0.0009699234, -0.05431875, -757125.2, -5612.987 
2.7510497e+2, 2.3330414e+2, -656812.7, -761818.56, -4605.3403, 0.00017428158, -0.05917073, -656611.1, -2997.2952 
2.751126e+2, 2.4329302e+2, -567182.56, -685305.1, -4058.6042, 0.00014266583, -0.06029098, -567043.25, -11320.427 
2.751203e+2, 2.5328118e+2, -465885.84, -585581.75, -4144.5425, -0.0021191929, -0.056837033, -465742.5, -7903.537 
2.7512813e+2, 2.6326853e+2, -375505.22, -508208.8, -3580.4722, -0.0028095148, -0.054284755, -375408.7, -15445.92 
2.7513602e+2, 2.7325514e+2, -274355.38, -408417.63, -3370.1777, -0.00045159188, -0.0568076, -274270.7, -12176.551 
2.7514404e+2, 2.832407e+2, -188070.33, -339979.84, -2031.798, 0.0001789443, -0.0574465, -188043.16, -23807.518 
2.7515224e+2, 2.9322514e+2, -86324.52, -240682.23, -1916.6617, -0.0026044839, -0.05730314, -86300.734, -19912.53 
2.7516055e+2, 3.0321315e+2, 18136.172, -82150.77, -740.6804, -0.00320554, -0.05661812, 18141.643, 18141.643 
2.751691e+2, 3.132052e+2, 21437.275, -77712.2, -552.6674, 0.00050429866, -0.058496106, 21440.355, 21440.355 
2.8501952e+2, 1.23366974e+2, -1705856.1, -1730875.6, -1037.8451, 0.0018869839, -0.04618699, -1705813.3, 25184.877 
2.8502834e+2, 1.3336344e+2, -1614651.9, -1651034.4, -825.7496, -0.0060626944, -0.087857276, -1614633.1, 18399.723 
2.850371e+2, 1.4336032e+2, -1520506.8, -1565510.8, -2891.0618, 0.004472353, -0.03485446, -1520321.8, 14741.527 
2.8504533e+2, 1.5335605e+2, -1418974.6, -1465809.0, -3475.0845, 0.0007409058, -0.05277149, -1418718.3, 18386.88 
2.8505343e+2, 1.6335104e+2, -1329449.4, -1389840.0, -4258.9644, -0.0016267791, -0.06366478, -1329150.5, 10003.741 
2.8506154e+2, 1.7334539e+2, -1229376.9, -1290929.9, -4089.223, -0.0004950936, -0.058662, -1229106.4, 12103.311 
2.8506953e+2, 1.8333896e+2, -1139266.5, -1213187.8, -4971.3193, -0.000035860758, -0.05504258, -1138933.8, 4338.925 
2.8507736e+2, 1.9333176e+2, -1037481.94, -1113147.6, -5349.127, -0.0010728223, -0.058211002, -1037105.7, 8237.513 
2.8508517e+2, 2.0332378e+2, -947994.06, -1037317.2, -5612.956, -0.0014835459, -0.058700334, -947642.75, -221.32521 
2.85093e+2, 2.13315e+2, -848269.44, -938552.2, -5529.1875, -0.0006539202, -0.0562751, -847932.06, 1575.2528 
2.8510082e+2, 2.2330546e+2, -758735.94, -861591.94, -5633.815, -0.00016408906, -0.054893583, -758428.3, -6827.3896 
2.8510863e+2, 2.3329511e+2, -657169.94, -761711.5, -5605.981, -0.0003596637, -0.058441352, -656870.2, -3168.0159 
2.8511646e+2, 2.4328403e+2, -567303.25, -685381.9, -5042.7764, -0.0008084665, -0.059074655, -567088.3, -11277.283 
2.8512436e+2, 2.5327215e+2, -466793.1, -586128.56, -4946.1377, -0.001693551, -0.05673575, -466588.44, -8661.11 
2.8513235e+2, 2.6325953e+2, -376710.53, -508595.4, -4309.502, -0.0019442086, -0.0548273, -376569.84, -16518.723 
2.8514045e+2, 2.732461e+2, -275433.6, -408696.03, -4363.1226, -0.0010000884, -0.057021357, -275290.9, -13108.6045 
2.8514868e+2, 2.832317e+2, -189553.77, -340326.4, -3109.386, -0.0008144443, -0.057408758, -189489.67, -25166.172 
2.8515708e+2, 2.932162e+2, -89518.14, -241819.45, -2834.593, -0.0021039422, -0.057219528, -89465.4, -22989.676 
2.8516564e+2, 3.0320427e+2, 14890.647, -83343.195, -1588.3086, -0.0022820244, -0.056403548, 14916.321, 14916.321 
2.8517437e+2, 3.1319636e+2, 21380.201, -77387.5, -1579.1713, -0.00032729952, -0.057955746, 21405.443, 21405.443 
2.9502106e+2, 1.23357795e+2, -1706848.3, -1732923.6, -468.81403, 0.002298589, -0.045416176, -1706839.9, 24248.133 
2.9503003e+2, 1.333543e+2, -1614062.1, -1649835.8, -138.6858, -0.0052395226, -0.08808962, -1614061.6, 19060.648 
2.95039e+2, 1.4335123e+2, -1520829.6, -1566184.6, -2039.2476, 0.0047617517, -0.036050357, -1520738.1, 14414.387 
2.9504743e+2, 1.533469e+2, -1419487.6, -1466865.0, -2585.8816, -0.00050622644, -0.053032637, -1419347.0, 17847.986 
2.9505578e+2, 1.6334185e+2, -1329318.0, -1389567.3, -3681.119, -0.003088385, -0.06352865, -1329093.9, 10150.453 
2.9506403e+2, 1.7333621e+2, -1229123.5, -1290412.1, -3570.0642, 0.00032177474, -0.05926099, -1228916.3, 12383.333 
2.950722e+2, 1.8332979e+2, -1139712.5, -1214119.1, -4121.563, 0.0017033668, -0.05497283, -1139484.9, 3877.625 
2.9508027e+2, 1.9332254e+2, -1038089.7, -1114394.4, -4427.889, -0.0010214827, -0.054813705, -1037833.56, 7599.98 
2.950883e+2, 2.0331451e+2, -948005.9, -1037327.56, -5105.8213, -0.0021800953, -0.055362467, -947715.0, -202.70772 
2.9509625e+2, 2.133057e+2, -848158.75, -938333.44, -5104.729, -0.00022437426, -0.059384104, -847870.7, 1727.9614 
2.951042e+2, 2.2329614e+2, -758598.56, -861299.2, -4837.661, 0.00021911807, -0.059445605, -758371.2, -6678.977 
2.9511222e+2, 2.3328592e+2, -657051.44, -761433.2, -4736.7637, -0.0023046322, -0.054876987, -656836.94, -3044.4185 
2.9512027e+2, 2.4327485e+2, -567197.44, -685121.4, -4394.8433, -0.0029535855, -0.052624233, -567033.9, -11132.959 
2.9512838e+2, 2.5326294e+2, -466698.4, -585899.7, -4344.4014, 0.0000661956, -0.057588637, -466540.28, -8522.575 
2.9513657e+2, 2.6325026e+2, -376802.9, -508729.66, -3573.159, 0.00087625615, -0.05943112, -376706.22, -16564.43 
2.951448e+2, 2.732369e+2, -275578.56, -408930.25, -3599.274, -0.0026810458, -0.058224894, -275481.5, -13208.708 
2.9515323e+2, 2.8322253e+2, -189269.13, -339683.16, -2498.8242, -0.0035984041, -0.056576338, -189227.63, -24813.918 
2.9516187e+2, 2.9320702e+2, -89151.96, -241008.45, -2266.8184, 0.00076312985, -0.057291333, -89118.125, -22552.645 
2.9517066e+2, 3.0319512e+2, 14952.674, -83114.09, -475.52924, 0.0015040735, -0.056397974, 14954.9795, 14954.9795 
2.9517964e+2, 3.1318724e+2, 21322.465, -77342.72, -347.12387, -0.005096313, -0.055802852, 21323.688, 21323.688 
3.0502266e+2, 1.2334843e+2, -1705756.9, -1734260.3, -1196.1282, 0.0028395124, -0.04545966, -1705706.8, 25473.135 
3.0503184e+2, 1.33345e+2, -1610934.0, -1647747.1, -972.68805, -0.005310638, -0.08678317, -1610908.3, 22305.379 
3.05041e+2, 1.4334188e+2, -1518424.6, -1565346.6, -2994.1277, 0.0042049177, -0.036555424, -1518234.4, 17009.602 
3.0504963e+2, 1.5333752e+2, -1418511.8, -1466911.5, -3363.2874, -0.0000906466, -0.053383198, -1418279.1, 19007.668 
3.0505818e+2, 1.6333245e+2, -1328647.3, -1389433.1, -4516.9395, -0.0024153497, -0.06354252, -1328313.4, 11023.084 
3.050666e+2, 1.7332682e+2, -1227474.4, -1289750.0, -4755.0474, -0.000116546486, -0.05873949, -1227113.4, 14278.346 
3.0507493e+2, 1.8332036e+2, -1138214.9, -1213696.1, -5387.243, 0.00091677654, -0.054341, -1137832.4, 5622.566 
3.050832e+2, 1.9331308e+2, -1038519.1, -1114960.9, -5313.5146, -0.00069120026, -0.054847535, -1038151.56, 7374.7656 
3.0509138e+2, 2.0330502e+2, -948923.1, -1037710.1, -5791.716, -0.0014457498, -0.055614658, -948546.94, -941.6838 
3.0509952e+2, 2.1329622e+2, -847634.44, -937938.3, -5817.0566, -0.00047929285, -0.058980126, -847261.25, 2430.1743 
3.0510765e+2, 2.2328669e+2, -757806.06, -861052.3, -5614.6885, -0.00044727512, -0.058873784, -757501.6, -5716.661 
3.0511582e+2, 2.3327643e+2, -657783.2, -762006.0, -5774.3687, -0.0022406604, -0.055107985, -657464.25, -3578.7227 
3.0512404e+2, 2.4326536e+2, -568590.8, -685585.6, -5614.073, -0.0025651916, -0.053240277, -568322.06, -12328.077 
3.0513233e+2, 2.5325346e+2, -467858.0, -586164.9, -5509.603, -0.000053225624, -0.057723843, -467601.97, -9491.485 
3.0514067e+2, 2.632408e+2, -377963.9, -509097.47, -4544.9297, 0.00060371973, -0.0592049, -377806.56, -17572.271 
3.0514917e+2, 2.7322748e+2, -277051.9, -409485.25, -4343.7603, -0.0023841274, -0.05792424, -276909.6, -14544.44 
3.0515778e+2, 2.832131e+2, -190795.61, -340275.75, -3281.198, -0.0033017355, -0.056340974, -190723.63, -26217.691 
3.0516654e+2, 2.9319763e+2, -90260.04, -241424.2, -3385.4292, -0.00008347896, -0.05736201, -90184.26, -23526.645 
3.0517554e+2, 3.0318576e+2, 13542.121, -83174.42, -1472.371, 0.0004918916, -0.05652684, 13564.531, 13564.531 
3.0518475e+2, 3.1317794e+2, 17258.77, -78563.1, -892.24786, -0.004317664, -0.05550206, 17267.076, 17267.076 
3.1502432e+2, 1.2333887e+2, -1707150.5, -1737137.6, -519.73773, 0.0034818412, -0.046440918, -1707141.4, 24132.133 
3.150337e+2, 1.3333547e+2, -1610791.0, -1647473.8, -160.1093, -0.006269689, -0.08395732, -1610790.3, 22516.764 
3.1504306e+2, 1.4333235e+2, -1518520.9, -1565561.3, -2407.0828, 0.0027925016, -0.03638395, -1518398.1, 16939.396 
3.1505188e+2, 1.5332794e+2, -1418657.4, -1467237.9, -2817.7744, 0.0019324417, -0.053819675, -1418494.5, 18886.049 
3.150606e+2, 1.6332285e+2, -1329005.1, -1390179.1, -3783.4644, 0.00033760155, -0.06370618, -1328772.0, 10658.63 
3.1506917e+2, 1.7331716e+2, -1227888.3, -1290607.3, -3979.174, -0.0017809805, -0.0571315, -1227636.8, 13849.523 
3.1507766e+2, 1.8331069e+2, -1138163.6, -1213600.3, -4909.6987, -0.002347271, -0.05315239, -1137845.5, 5704.2896 
3.150861e+2, 1.9330338e+2, -1038375.0, -1114695.9, -4893.8, -0.000109356144, -0.05819123, -1038062.44, 7558.98 
3.1509444e+2, 2.0329534e+2, -948833.1, -1037542.3, -5057.831, 0.00066196924, -0.059343535, -948545.7, -845.4908 
3.1510276e+2, 2.1328662e+2, -847577.56, -937818.8, -5021.058, -0.0014015608, -0.055218212, -847299.06, 2486.6038 
3.1511107e+2, 2.2327708e+2, -758113.9, -861667.25, -5090.258, -0.0021419239, -0.0533689, -757864.3, -5985.1953 
3.1511945e+2, 2.3326668e+2, -658176.3, -762796.06, -5299.177, -0.00027367513, -0.058940463, -657908.6, -3927.5642 
3.1512782e+2, 2.4325556e+2, -568466.2, -685291.0, -4975.4497, 0.00023106673, -0.060599603, -568254.7, -12164.673 
3.1513622e+2, 2.5324377e+2, -467631.9, -585671.44, -4843.6655, -0.0019575958, -0.0571984, -467433.47, -9227.958 
3.1514478e+2, 2.632312e+2, -377688.75, -508475.13, -3863.6575, -0.0026151852, -0.054401502, -377574.72, -17246.137 
3.1515348e+2, 2.7321786e+2, -276793.8, -408877.9, -3661.686, -0.0002482454, -0.05619665, -276692.38, -14233.065 
3.1516227e+2, 2.8320348e+2, -190980.75, -340528.3, -2589.4546, -0.00011759374, -0.056667436, -190935.92, -26335.836 
3.1517118e+2, 2.9318798e+2, -90540.914, -241886.28, -2690.6248, -0.0044022286, -0.057434846, -90493.1, -23741.068 
3.151803e+2, 3.0317613e+2, 14149.464, -81791.05, -922.30865, -0.0050326083, -0.056778435, 14158.33, 14158.33 
3.1518975e+2, 3.1316847e+2, 18056.668, -76804.29, -391.97314, 0.0015543088, -0.05692159, 18058.287, 18058.287 
3.250261e+2, 1.2332909e+2, -1705131.6, -1737899.9, -1526.8771, 0.003253351, -0.04727125, -1705060.6, 26308.727 
3.2503566e+2, 1.3332574e+2, -1608216.9, -1645683.3, -821.0068, -0.00571618, -0.08129171, -1608198.9, 25203.338 
3.250452e+2, 1.4332262e+2, -1516942.6, -1565058.0, -3072.477, 0.0028985825, -0.03786525, -1516747.3, 18685.666 
3.2505417e+2, 1.533182e+2, -1416934.6, -1466829.4, -3618.6687, 0.0017381549, -0.053540185, -1416673.5, 20802.69 
3.2506305e+2, 1.6331305e+2, -1327505.0, -1389876.6, -4585.9893, 0.00009480666, -0.062572405, -1327169.6, 12356.94 
3.250718e+2, 1.7330733e+2, -1227554.3, -1290882.3, -4634.975, -0.0015807688, -0.05712144, -1227216.8, 14365.885 
3.2508048e+2, 1.8330081e+2, -1138008.5, -1213554.0, -5581.8413, -0.0019889465, -0.053737342, -1137598.4, 6048.113 
3.25089e+2, 1.9329351e+2, -1037291.56, -1114121.6, -5683.47, -0.00017066381, -0.058283564, -1036873.4, 8844.662 
3.2509753e+2, 2.0328546e+2, -947821.9, -1037304.44, -5958.5566, 0.00038022036, -0.059108645, -947426.8, 370.04837 
3.2510602e+2, 2.1327671e+2, -847995.6, -938361.7, -6190.6343, -0.0014931037, -0.055031642, -847573.5, 2309.0771 
3.251145e+2, 2.2326717e+2, -759034.6, -861981.75, -6338.688, -0.0020433965, -0.05328474, -758645.8, -6669.601 
3.2512298e+2, 2.3325677e+2, -658670.2, -762826.56, -6053.674, -0.000018845278, -0.059011, -658319.5, -4241.537 
3.2513154e+2, 2.4324566e+2, -568892.9, -685504.2, -5393.347, 0.000379341, -0.060622685, -568643.94, -12457.098 
3.2514012e+2, 2.5323388e+2, -468303.63, -586066.2, -5522.884, -0.0024109744, -0.056829922, -468045.16, -9742.799 
3.251488e+2, 2.6322135e+2, -378641.6, -508636.66, -4844.688, -0.0032587284, -0.05384831, -378461.28, -18035.95 
3.2515764e+2, 2.7320805e+2, -278855.63, -409500.7, -4734.945, -0.00028665728, -0.055841453, -278684.25, -16128.495 
3.251666e+2, 2.831937e+2, -193681.67, -341476.47, -3376.7866, 0.0001883028, -0.056448814, -193604.56, -28908.354 
3.2517573e+2, 2.9317823e+2, -92862.57, -242655.56, -3015.3213, -0.0042747287, -0.057219416, -92801.9, -25954.057 
3.2518506e+2, 3.0316642e+2, 12225.771, -82348.8, -1337.653, -0.005107747, -0.056737203, 12244.6875, 12244.6875 
3.2519466e+2, 3.1315872e+2, 16375.195, -77260.3, -1483.3785, 0.0012133279, -0.057394493, 16398.69, 16398.69 
3.3502796e+2, 1.233191e+2, -1705967.6, -1739635.1, -1066.2192, 0.0021184436, -0.048089303, -1705933.9, 25533.426 
3.350377e+2, 1.3331586e+2, -1607666.6, -1644581.1, -241.06062, -0.0036845414, -0.07877291, -1607665.0, 25834.133 
3.350474e+2, 1.433127e+2, -1517163.9, -1565536.8, -2464.9868, 0.004488898, -0.040974792, -1517038.5, 18491.56 
3.350565e+2, 1.5330826e+2, -1417313.1, -1467640.3, -3002.888, -0.0006334668, -0.052562922, -1417134.6, 20438.945 
3.350655e+2, 1.633031e+2, -1327673.9, -1390247.0, -4093.7502, -0.0030930268, -0.06016471, -1327407.3, 12216.972 
3.3507445e+2, 1.732973e+2, -1227687.0, -1291192.4, -4163.127, 0.00040522154, -0.058655113, -1227415.3, 14265.613 
3.350833e+2, 1.8329076e+2, -1138080.1, -1213724.6, -4956.414, 0.0018663913, -0.056050714, -1137756.8, 5988.2207 
3.3509198e+2, 1.9328351e+2, -1037366.06, -1114288.3, -5026.3647, -0.00085238356, -0.055250578, -1037039.0, 8777.13 
3.3510065e+2, 2.0327546e+2, -948220.4, -1038135.4, -5491.238, -0.0022180872, -0.05504136, -947886.25, 8.904055 
3.351093e+2, 2.1326655e+2, -848472.44, -939359.1, -5754.1484, -0.00081205653, -0.05825289, -848109.56, 1872.6149 
3.351179e+2, 2.2325698e+2, -758607.1, -861099.56, -5778.9917, -0.00024024503, -0.058400415, -758282.3, -6206.203 
3.3512652e+2, 2.3324674e+2, -658065.6, -761575.06, -5477.781, -0.0013917328, -0.055523094, -657776.56, -3600.2527 
3.3513522e+2, 2.4323572e+2, -569046.7, -685796.06, -4795.8066, -0.0020084765, -0.05366339, -568850.0, -12565.582 
3.3514398e+2, 2.5322384e+2, -468647.88, -586724.2, -4913.3784, -0.0015175086, -0.056586437, -468443.78, -10042.814 
3.3515286e+2, 2.6321125e+2, -378586.56, -508447.16, -4413.9336, -0.0014747148, -0.057306573, -378436.7, -17912.254 
3.3516178e+2, 2.7319798e+2, -278703.66, -409138.97, -4349.094, -0.0023697496, -0.056783963, -278558.78, -15904.424 
3.3517087e+2, 2.831837e+2, -193167.3, -340350.56, -2648.0212, -0.0022387796, -0.055716578, -193119.66, -28325.457 
3.3518025e+2, 2.931683e+2, -92316.98, -241413.19, -2221.4863, -0.000026231786, -0.056735218, -92283.88, -25338.871 
3.351898e+2, 3.0315652e+2, 11957.056, -82769.89, -726.3509, -0.00010131776, -0.056419842, 11962.625, 11962.625 
3.3519945e+2, 3.131488e+2, 15932.406, -78080.35, -904.847, -0.004893561, -0.056992467, 15941.114, 15941.114 
3.4502998e+2, 1.2330901e+2, -1703789.4, -1740094.1, -1437.5729, 0.0021796294, -0.04903285, -1703732.5, 27833.738 
3.4503984e+2, 1.3330582e+2, -1604956.5, -1642985.4, -863.2241, -0.0030864214, -0.0746421, -1604936.9, 28660.652 
3.4504965e+2, 1.4330257e+2, -1515416.6, -1565126.1, -3266.4958, 0.004203842, -0.0438639, -1515202.9, 20426.31 
3.4505892e+2, 1.5329812e+2, -1415962.4, -1467569.8, -3779.0325, -0.00067657424, -0.053163707, -1415687.1, 21985.826 
3.450681e+2, 1.6329294e+2, -1326229.1, -1389739.0, -4923.0225, -0.0029515238, -0.0592757, -1325849.9, 13873.942 
3.450772e+2, 1.7328712e+2, -1226159.6, -1290581.3, -4936.379, 0.00057207694, -0.058185745, -1225783.5, 15997.087 
3.4508616e+2, 1.8328057e+2, -1137030.5, -1213633.3, -5718.3936, 0.0019662136, -0.055753686, -1136606.0, 7238.9355 
3.4509498e+2, 1.9327328e+2, -1037279.1, -1114742.0, -6015.635, -0.0009708671, -0.05457739, -1036814.75, 9101.765 
3.451038e+2, 2.0326518e+2, -948324.44, -1038124.9, -6508.517, -0.002351749, -0.054422185, -947855.2, 140.58856 
3.4511256e+2, 2.132563e+2, -848382.25, -939143.44, -6197.313, -0.0005898133, -0.058513995, -847961.06, 2121.6855 
3.451213e+2, 2.2324672e+2, -758688.6, -861226.1, -6008.584, -0.000018696997, -0.058812503, -758337.75, -6161.15 
3.4513006e+2, 2.3323649e+2, -658535.56, -761956.9, -6404.282, -0.0018575969, -0.05468607, -658140.5, -3863.6814 
3.4513888e+2, 2.4322549e+2, -569861.7, -685938.94, -6089.2607, -0.0025956447, -0.052414153, -569543.1, -13158.215 
3.451478e+2, 2.5321358e+2, -470514.72, -587303.2, -5723.8647, -0.001132291, -0.05655463, -470234.84, -11733.588 
3.451568e+2, 2.6320103e+2, -380781.78, -509378.97, -4822.7466, -0.00082302326, -0.057994425, -380601.16, -19976.566 
3.4516582e+2, 2.731878e+2, -279486.84, -409445.53, -4861.8516, -0.0028516613, -0.057172406, -279305.22, -16550.791 
3.4517512e+2, 2.8317353e+2, -193540.06, -340221.13, -3443.4985, -0.0030453044, -0.055816248, -193459.27, -28565.186 
3.4518462e+2, 2.9315814e+2, -94749.05, -242262.42, -3437.7268, 0.0004644158, -0.056602933, -94668.98, -27624.395 
3.4519434e+2, 3.0314642e+2, 8561.2295, -83787.63, -1788.9243, 0.00065595034, -0.05603416, 8595.871, 8595.871 
3.4520417e+2, 3.1313875e+2, 13341.537, -78649.04, -1146.1205, -0.005943161, -0.056319732, 13355.814, 13355.814 
3.550321e+2, 1.23298794e+2, -1704876.6, -1742344.6, -1110.5221, 0.003400215, -0.050237875, -1704843.8, 26822.533 
3.5504204e+2, 1.3329566e+2, -1605125.3, -1643356.0, -442.45163, -0.0038997796, -0.068916395, -1605120.1, 28577.145 
3.5505196e+2, 1.432923e+2, -1515729.6, -1565797.5, -2746.4644, 0.0020546627, -0.04652915, -1515579.4, 20150.596 
3.5506144e+2, 1.532878e+2, -1416313.0, -1468314.0, -3233.8354, 0.001526942, -0.055300236, -1416112.8, 21661.498 
3.5507077e+2, 1.6328259e+2, -1326284.3, -1389869.1, -4428.821, 0.0004328193, -0.059871946, -1325977.3, 13847.926 
3.5507992e+2, 1.7327681e+2, -1226163.3, -1290608.1, -4451.5835, -0.0010212526, -0.055781808, -1225857.3, 16024.609 
3.5508898e+2, 1.8327023e+2, -1137463.8, -1214538.4, -5290.198, -0.0015896839, -0.05291899, -1137102.4, 6843.9736 
3.5509798e+2, 1.932628e+2, -1037814.75, -1115862.8, -5589.9165, -0.0005680102, -0.05615953, -1037416.4, 8602.677 
3.5510692e+2, 2.0325468e+2, -947865.56, -1037168.5, -6038.6772, -0.0001244462, -0.057124827, -947459.06, 639.5372 
3.5511577e+2, 2.1324596e+2, -847719.5, -937781.75, -5728.1, -0.0008121348, -0.055959813, -847356.7, 2827.5354 
3.5512465e+2, 2.2323643e+2, -759208.2, -862289.5, -5530.23, -0.0013273419, -0.05471967, -758912.4, -6634.7046 
3.5513356e+2, 2.3322603e+2, -659327.56, -763573.7, -5910.9937, -0.001477298, -0.05634718, -658993.5, -4614.0127 
3.551425e+2, 2.4321494e+2, -569456.4, -685071.4, -5728.8765, -0.0014869068, -0.056580216, -569173.2, -12685.031 
3.5515153e+2, 2.5320318e+2, -469848.22, -585918.25, -5404.804, -0.0012299912, -0.056736525, -469597.1, -10993.852 
3.5516065e+2, 2.631907e+2, -380734.66, -509226.97, -4134.928, -0.0012494905, -0.056067802, -380601.72, -19875.945 
3.5516992e+2, 2.731774e+2, -279625.84, -409615.13, -4089.8665, -0.0018526888, -0.057032254, -279497.3, -16641.44 
3.5517934e+2, 2.8316316e+2, -193750.02, -340535.75, -3102.7498, -0.0023456437, -0.056688614, -193684.47, -28688.715 
3.551889e+2, 2.9314777e+2, -94957.766, -242621.75, -3192.2297, -0.0025354342, -0.056794975, -94888.78, -27742.36 
3.551987e+2, 3.0313608e+2, 9439.087, -81860.125, -1086.6608, -0.0025530763, -0.055583168, 9452.019, 9452.019 
3.552088e+2, 3.1312856e+2, 14424.86, -76256.016, -361.02054, -0.0023715964, -0.055400405, 14426.298, 14426.298 
3.6503428e+2, 1.2328844e+2, -1702622.6, -1742505.1, -1874.2286, 0.003566328, -0.05191277, -1702534.8, 29233.107 
3.650444e+2, 1.3328533e+2, -1602324.5, -1642251.5, -1092.6438, -0.0033359558, -0.06337844, -1602294.6, 31503.842 
3.650544e+2, 1.4328186e+2, -1513298.0, -1564941.8, -3313.8215, 0.0014043435, -0.04952853, -1513086.3, 22746.055 
3.65064e+2, 1.5327735e+2, -1414639.8, -1467855.4, -3656.236, 0.0017425783, -0.055444434, -1414389.8, 23486.766 
3.650734e+2, 1.6327213e+2, -1325262.8, -1389863.8, -4863.7544, 0.000978212, -0.058343053, -1324898.6, 15029.103 
3.6508274e+2, 1.7326629e+2, -1225334.9, -1290747.9, -5223.241, -0.0012143092, -0.05532743, -1224920.5, 17064.438 
3.6509192e+2, 1.8325968e+2, -1136507.9, -1214127.1, -6169.1665, -0.0020434447, -0.053277146, -1136020.6, 8029.095 
3.65101e+2, 1.9325224e+2, -1037123.4, -1115483.3, -5911.4585, -0.00036186606, -0.05669991, -1036679.94, 9442.571 
3.6511007e+2, 2.0324412e+2, -947636.25, -1037308.2, -6226.08, 0.0002894498, -0.057339523, -947206.0, 996.04926 
3.6511904e+2, 2.1323538e+2, -847734.56, -938121.25, -6780.587, -0.0010798541, -0.05491816, -847228.7, 3059.1528 
3.6512804e+2, 2.2322583e+2, -759346.6, -862268.06, -6928.1763, -0.0017944257, -0.053497344, -758882.4, -6500.906 
3.6513704e+2, 2.3321544e+2, -660206.56, -763831.94, -6455.1196, -0.0011920674, -0.057016745, -659806.0, -5322.726 
3.6514613e+2, 2.4320434e+2, -570629.1, -685607.44, -5869.7813, -0.00095984706, -0.0579567, -570330.25, -13738.305 
3.6515525e+2, 2.531926e+2, -470161.1, -586087.8, -6220.0225, -0.0014934265, -0.056458533, -469828.3, -11121.414 
3.6516446e+2, 2.631801e+2, -381018.22, -509045.16, -5307.683, -0.0017676858, -0.05483439, -380798.53, -19969.283 
3.6517388e+2, 2.7316687e+2, -282143.44, -410469.0, -4981.3022, -0.0015422407, -0.056300398, -281950.38, -18991.293 
3.6518344e+2, 2.831526e+2, -197338.11, -341944.97, -3689.6086, -0.0019407986, -0.0563657, -197244.03, -32145.313 
3.651931e+2, 2.9313728e+2, -97096.73, -243348.13, -3450.961, -0.0035256618, -0.056636922, -97015.34, -29766.186 
3.6520302e+2, 3.0312565e+2, 7995.2354, -81909.75, -1273.3971, -0.0037476995, -0.055513564, 8013.2676, 8013.2676 
3.652133e+2, 3.131182e+2, 11383.731, -77005.01, -1269.4928, -0.0013568632, -0.055275068, 11401.961, 11401.961 
3.7503657e+2, 1.2327793e+2, -1703130.9, -1743578.0, -1539.8508, 0.0026442085, -0.054150745, -1703072.4, 28798.563 
3.7504682e+2, 1.3327487e+2, -1602469.1, -1642576.1, -695.82526, -0.0014326861, -0.05801635, -1602457.0, 31443.947 
3.7505692e+2, 1.432713e+2, -1513389.0, -1565152.3, -2958.674, 0.002214697, -0.052857656, -1513220.4, 22715.484 
3.7506658e+2, 1.5326683e+2, -1414719.1, -1468046.8, -3308.306, 0.0000143808575, -0.053652085, -1414514.6, 23465.105 
3.7507614e+2, 1.6326158e+2, -1325812.1, -1391027.8, -4439.295, -0.0012562451, -0.054737203, -1325511.3, 14519.849 
3.7508556e+2, 1.732556e+2, -1226003.5, -1292148.0, -4772.5776, -0.000076840035, -0.056742795, -1225660.9, 16428.838 
3.7509492e+2, 1.8324892e+2, -1136146.9, -1213375.6, -5807.4893, 0.00048246438, -0.056719348, -1135712.6, 8442.487 
3.7510407e+2, 1.9324161e+2, -1036545.5, -1114308.5, -5575.767, -0.00034599006, -0.056252398, -1036147.75, 10078.975 
3.751132e+2, 2.0323353e+2, -948390.5, -1038861.5, -5823.576, -0.0010496174, -0.055157416, -948017.2, 288.9385 
3.751223e+2, 2.1322459e+2, -848793.6, -940294.3, -6347.9517, -0.0014110338, -0.055307034, -848355.3, 2038.2534 
3.751314e+2, 2.2321498e+2, -758781.94, -861066.9, -6606.5327, -0.0014764569, -0.05500755, -758357.0, -5869.198 
3.751405e+2, 2.3320472e+2, -659290.6, -761933.06, -6172.3037, -0.0010022058, -0.056756858, -658920.8, -4332.607 
3.751497e+2, 2.4319372e+2, -571017.0, -686389.7, -5363.4673, -0.0009992245, -0.056689385, -570768.25, -14071.998 
3.7515894e+2, 2.5318187e+2, -470867.2, -587502.06, -5652.6055, -0.0019297476, -0.05573954, -470593.88, -11781.69 
3.7516826e+2, 2.6316935e+2, -380769.47, -508468.38, -5057.856, -0.0023828156, -0.054249868, -380569.47, -19634.51 
3.7517777e+2, 2.731562e+2, -281675.06, -409467.6, -4811.1504, -0.0018845313, -0.055016153, -281494.2, -18430.133 
3.751874e+2, 2.83142e+2, -196876.9, -340943.2, -3130.4697, -0.0018358259, -0.054924812, -196808.92, -31605.979 
3.7519723e+2, 2.931267e+2, -96673.77, -242394.98, -2812.0405, -0.0026696099, -0.05614524, -96619.53, -29266.754 
3.752073e+2, 3.0311507e+2, 7808.172, -82186.12, -869.21594, -0.0030809257, -0.05578778, 7816.567, 7816.567 
3.7521768e+2, 3.131076e+2, 11050.068, -77595.79, -912.7693, -0.0027130751, -0.0558688, 11059.466, 11059.466 
3.8503897e+2, 1.23267345e+2, -1699857.6, -1742477.5, -1839.8384, 0.0022023832, -0.055850595, -1699778.4, 32196.318 
3.850493e+2, 1.3326432e+2, -1600453.3, -1642096.0, -1109.2556, -0.00038991397, -0.052219648, -1600423.8, 33580.695 
3.850595e+2, 1.432606e+2, -1512061.9, -1565111.4, -3430.4766, 0.001989941, -0.056607973, -1511841.0, 24199.744 
3.8506928e+2, 1.532561e+2, -1412799.4, -1467751.4, -4064.9807, -0.00023332868, -0.05407074, -1412500.4, 25584.467 
3.8507894e+2, 1.6325083e+2, -1323590.6, -1390205.1, -5324.4106, -0.0013373503, -0.053182423, -1323167.8, 16968.771 
3.8508847e+2, 1.7324483e+2, -1224821.0, -1291759.0, -5112.86, 0.00030474798, -0.056363303, -1224432.6, 17762.69 
3.8509786e+2, 1.8323813e+2, -1135730.8, -1213574.4, -6011.602, 0.0009267169, -0.056808103, -1135269.3, 8991.8125 
3.8510716e+2, 1.932308e+2, -1035919.9, -1114471.5, -6633.9395, -0.00060515053, -0.05533927, -1035363.56, 10969.3955 
3.8511637e+2, 2.0322266e+2, -947644.9, -1038547.2, -7170.745, -0.0015236114, -0.054127064, -947082.7, 1329.8153 
3.8512558e+2, 2.1321371e+2, -848990.7, -940359.2, -6641.6777, -0.001143229, -0.055895474, -848510.44, 1989.6876 
3.8513476e+2, 2.232041e+2, -759529.9, -861457.56, -6459.7544, -0.0009597435, -0.05601677, -759122.1, -6527.7256 
3.8514397e+2, 2.3319386e+2, -659598.44, -762156.8, -6974.1465, -0.0012272681, -0.05580709, -659126.4, -4431.708 
3.851532e+2, 2.4318287e+2, -571388.9, -686418.44, -6550.412, -0.0015450333, -0.05491868, -571017.06, -14214.48 
3.8516256e+2, 2.5317103e+2, -472750.34, -588218.44, -6069.719, -0.0019447725, -0.055458013, -472432.16, -13513.626 
3.8517204e+2, 2.631585e+2, -383237.6, -509377.3, -5077.102, -0.0021779062, -0.054806557, -383033.56, -21992.406 
3.8518158e+2, 2.7314535e+2, -283026.28, -409840.94, -5152.696, -0.0021071846, -0.055025592, -282817.25, -19647.287 
3.8519132e+2, 2.831312e+2, -197851.78, -341067.38, -3669.7336, -0.0021387213, -0.054540776, -197757.8, -32449.246 
3.852013e+2, 2.9311597e+2, -99001.7, -243154.42, -3593.0952, -0.002343612, -0.055735048, -98912.2, -31454.129 
3.852115e+2, 3.031044e+2, 4736.342, -83195.72, -1688.1731, -0.002683366, -0.055472743, 4768.74, 4768.74 
3.8522193e+2, 3.1309694e+2, 8208.593, -78487.11, -1193.5874, -0.0033655565, -0.055868026, 8225.022, 8225.022 
3.9504153e+2, 1.232567e+2, -1699955.8, -1742711.6, -1762.3566, 0.0022005076, -0.05706762, -1699883.3, 32195.797 
3.9505187e+2, 1.3325368e+2, -1600912.6, -1643083.6, -1040.7476, -0.00019358163, -0.04599068, -1600887.0, 33221.715 
3.9506215e+2, 1.4324978e+2, -1512704.8, -1566475.8, -2996.2668, 0.0007311629, -0.060760505, -1512538.4, 23608.412 
3.9507207e+2, 1.5324521e+2, -1413495.8, -1469214.4, -3545.5447, 0.00093656784, -0.05663186, -1413271.0, 24920.66 
3.9508185e+2, 1.6323991e+2, -1323348.9, -1389721.3, -5097.7617, 0.0006618736, -0.05362254, -1322959.6, 17283.938 
3.950914e+2, 1.7323397e+2, -1224379.8, -1290885.4, -4950.9307, -0.000048479757, -0.05426185, -1224013.3, 18288.39 
3.9510086e+2, 1.8322729e+2, -1136559.4, -1215301.3, -5648.299, -0.00065606984, -0.053660274, -1136156.4, 8211.012 
3.9511025e+2, 1.9321977e+2, -1037039.2, -1116802.0, -6213.0713, -0.0011441222, -0.053967737, -1036558.1, 9882.83 
3.9511958e+2, 2.0321158e+2, -946989.56, -1037171.06, -6949.88, -0.0011849096, -0.054192353, -946457.1, 2064.1128 
3.9512882e+2, 2.1320277e+2, -847951.06, -938212.25, -6477.7134, -0.00032062046, -0.056677796, -847488.5, 3118.9382 
3.9513808e+2, 2.2319321e+2, -760114.6, -862682.56, -6101.124, -0.00027036338, -0.05654733, -759753.0, -7051.817 
3.9514738e+2, 2.3318286e+2, -660568.8, -764155.7, -6556.8096, -0.0018509347, -0.05420523, -660155.44, -5352.881 
3.951567e+2, 2.431718e+2, -570884.2, -685330.3, -6335.0503, -0.0025837077, -0.052670404, -570534.56, -13623.64 
3.9516613e+2, 2.5316006e+2, -471921.78, -586475.44, -5913.205, -0.0015790329, -0.055583525, -471617.34, -12591.459 
3.9517567e+2, 2.6314762e+2, -383204.25, -509271.03, -4670.1377, -0.0012145528, -0.056425046, -383031.47, -21883.568 
3.9518532e+2, 2.7313447e+2, -283205.03, -410143.97, -4685.911, -0.0022263818, -0.056237116, -283032.28, -19755.45 
3.9519516e+2, 2.831203e+2, -197949.14, -341155.63, -3349.3418, -0.0028366537, -0.055134896, -197870.84, -32455.328 
3.9520523e+2, 2.9310507e+2, -99093.08, -243220.44, -3305.8093, -0.0025174806, -0.055400297, -99017.3, -31452.314 
3.952155e+2, 3.0309352e+2, 5324.582, -81812.91, -1284.8578, -0.0025446936, -0.054609846, 5343.5234, 5343.5234 
3.9522606e+2, 3.130862e+2, 8932.898, -76811.39, -774.63617, -0.003400157, -0.055323273, 8939.896, 8939.896 
4.050442e+2, 1.2324599e+2, -1697233.0, -1741591.9, -1928.7224, 0.0022024554, -0.058330934, -1697149.3, 35034.734 
4.050546e+2, 1.3324293e+2, -1598162.3, -1643108.6, -1615.9777, 0.000835054, -0.0403718, -1598104.3, 36109.758 
4.0506488e+2, 1.4323886e+2, -1509535.5, -1565489.0, -3592.3606, 0.000112195776, -0.06425017, -1509305.8, 26948.143 
4.0507492e+2, 1.5323427e+2, -1411984.9, -1468868.1, -3657.6626, 0.000997443, -0.05713327, -1411750.6, 26548.273 
4.0508476e+2, 1.6322896e+2, -1322763.3, -1389902.0, -5154.0723, 0.0010189421, -0.052168243, -1322369.9, 17980.98 
4.050944e+2, 1.7322297e+2, -1222935.1, -1290685.5, -5752.7925, -0.00021555492, -0.05338039, -1222450.1, 19959.459 
4.0510392e+2, 1.8321623e+2, -1134806.6, -1214665.0, -6667.7227, -0.0009542526, -0.053417884, -1134253.8, 10221.923 
4.0511337e+2, 1.932087e+2, -1036725.25, -1116802.8, -6220.4004, -0.00080222567, -0.054359384, -1036244.94, 10304.519 
4.051228e+2, 2.032005e+2, -947412.1, -1037517.3, -6624.946, -0.00067468995, -0.054500476, -946927.6, 1702.1909 
4.0513209e+2, 2.131917e+2, -847749.94, -938273.3, -7275.81, -0.00058920385, -0.055528928, -847168.9, 3547.1775 
4.051414e+2, 2.2318213e+2, -759806.2, -862567.8, -7355.3354, -0.0008145629, -0.05497814, -759282.44, -6472.6045 
4.051508e+2, 2.3317175e+2, -661421.7, -764588.7, -6893.003, -0.0016479443, -0.054290846, -660963.2, -6051.75 
4.051602e+2, 2.4316071e+2, -572233.44, -685796.06, -6313.1055, -0.0020655484, -0.053556096, -571883.56, -14863.741 
4.0516964e+2, 2.5314897e+2, -472849.13, -586703.25, -6606.3306, -0.0016545849, -0.055485185, -472467.06, -13332.576 
4.0517926e+2, 2.6313657e+2, -384196.84, -509514.0, -5680.4316, -0.0016147415, -0.055710014, -383939.88, -22683.63 
4.05189e+2, 2.731234e+2, -285288.97, -410926.7, -5433.458, -0.0023663666, -0.055725433, -285054.4, -21669.39 
4.0519893e+2, 2.831093e+2, -200638.92, -342118.4, -3862.3928, -0.0027838966, -0.054914705, -200533.56, -35010.08 
4.0520906e+2, 2.930941e+2, -101722.04, -244131.69, -3588.1018, -0.0024529, -0.055598, -101631.695, -33959.01 
4.0521947e+2, 3.030826e+2, 2817.51, -82251.74, -1465.8776, -0.0025914114, -0.05477726, 2842.762, 2842.762 
4.0523008e+2, 3.1307533e+2, 5901.357, -77419.07, -1248.6997, -0.0037815536, -0.054555904, 5920.067, 5920.067 
4.1504693e+2, 1.2323525e+2, -1697368.9, -1741909.3, -1614.4088, 0.0021663462, -0.059623808, -1697310.5, 34978.93 
4.1505742e+2, 1.3323209e+2, -1599411.8, -1645709.9, -1348.1814, 0.0026690403, -0.03535001, -1599372.5, 34947.91 
4.1506776e+2, 1.4322782e+2, -1509576.9, -1565596.6, -3503.3342, 0.000107838474, -0.06709499, -1509358.6, 27003.512 
4.1507778e+2, 1.5322329e+2, -1411761.0, -1468450.5, -3606.1304, -0.000030331534, -0.055635825, -1411532.5, 26873.934 
4.1508767e+2, 1.6321798e+2, -1323548.6, -1391559.8, -4815.4453, -0.0002324548, -0.048870374, -1323209.4, 17249.22 
4.1509745e+2, 1.7321181e+2, -1223964.8, -1292830.6, -5339.4614, -0.00022042138, -0.053662974, -1223553.3, 18965.71 
4.1510704e+2, 1.83205e+2, -1134260.9, -1213542.0, -6567.537, -0.000038589864, -0.05596469, -1133720.5, 10865.328 
4.1511655e+2, 1.931976e+2, -1035830.06, -1115001.1, -6197.8467, 0.00037136994, -0.056439187, -1035347.8, 11310.557 
4.1512594e+2, 2.0318942e+2, -948198.0, -1039157.06, -6348.083, -0.0000109330595, -0.05504104, -947757.1, 981.21436 
4.1513535e+2, 2.131805e+2, -848925.56, -940716.1, -6927.77, -0.0019010741, -0.05255115, -848405.6, 2420.2732 
4.1514474e+2, 2.2317086e+2, -759323.6, -861546.4, -7196.8716, -0.0025454238, -0.051410142, -758819.44, -5899.15 
4.151542e+2, 2.3316056e+2, -660578.25, -762834.94, -6789.164, -0.00067868724, -0.055953965, -660129.44, -5108.2856 
4.1516364e+2, 2.4314953e+2, -572530.6, -686383.94, -6074.87, -0.000093244824, -0.05738957, -572207.44, -15078.24 
4.1517314e+2, 2.531378e+2, -473420.94, -587854.75, -6329.141, -0.002150845, -0.055188112, -473071.94, -13827.694 
4.151828e+2, 2.6312536e+2, -384016.38, -509104.2, -5471.3574, -0.0033002093, -0.05281714, -383777.5, -22411.379 
4.1519263e+2, 2.7311227e+2, -284960.66, -410188.66, -5244.5654, -0.002539172, -0.053611055, -284741.38, -21246.92 
4.1520262e+2, 2.8309816e+2, -200260.3, -341238.53, -3573.823, -0.0020527309, -0.053935945, -200169.77, -34537.305 
4.1521284e+2, 2.93083e+2, -101365.805, -243259.14, -3284.0986, -0.0021769002, -0.056278337, -101289.836, -33508.65 
4.1522327e+2, 3.0307156e+2, 3015.0244, -81686.35, -1190.6482, -0.0028139495, -0.055888068, 3031.758, 3031.758 
4.1523397e+2, 3.130644e+2, 6059.341, -76951.125, -979.67883, -0.004501688, -0.05359264, 6070.901, 6070.901 
4.250498e+2, 1.232244e+2, -1692985.6, -1739221.5, -2053.3792, 0.0017975738, -0.061194845, -1692894.6, 39501.133 
4.2506033e+2, 1.3322118e+2, -1598124.6, -1646694.1, -1625.1003, 0.0037363374, -0.030891238, -1598070.4, 36356.992 
4.2507067e+2, 1.4321673e+2, -1508400.4, -1565658.8, -3644.313, -0.00045731472, -0.069012105, -1508169.4, 28301.332 
4.2508078e+2, 1.532122e+2, -1409265.4, -1467671.0, -4196.0083, -0.0000617417, -0.05526129, -1408965.4, 29549.783 
4.2509073e+2, 1.6320685e+2, -1320846.1, -1390691.3, -5519.495, 0.00008647062, -0.047385436, -1320412.6, 20154.963 
4.2510054e+2, 1.7320064e+2, -1223060.8, -1292855.4, -5301.5527, -0.000004079186, -0.053726286, -1222660.4, 19968.143 
4.251102e+2, 1.8319377e+2, -1134132.5, -1213755.4, -6392.2046, 0.00001465005, -0.056570284, -1133622.5, 11073.213 
4.2511973e+2, 1.9318636e+2, -1034798.8, -1114751.8, -7057.982, 0.00016006414, -0.055529352, -1034180.56, 12587.867 
4.2512918e+2, 2.0317818e+2, -946973.44, -1038824.25, -7562.909, -0.00022459612, -0.053650375, -946354.9, 2493.6667 
4.2513862e+2, 2.131692e+2, -849003.9, -941021.7, -7144.6567, -0.0016068687, -0.05279807, -848452.44, 2484.0508 
4.2514807e+2, 2.2315957e+2, -760035.5, -861835.4, -7044.3335, -0.0021154068, -0.052337974, -759550.3, -6519.2744 
4.251575e+2, 2.3314928e+2, -661252.3, -763042.56, -7409.615, -0.00087452325, -0.05555778, -660715.8, -5584.0547 
4.2516702e+2, 2.4313827e+2, -573400.5, -686777.06, -6959.694, -0.0005428079, -0.056230165, -572974.9, -15735.315 
4.251766e+2, 2.5312653e+2, -474785.88, -588523.0, -6673.2847, -0.002079622, -0.054499064, -474395.7, -15040.967 
4.251863e+2, 2.631141e+2, -385536.22, -509501.6, -5534.626, -0.0029535717, -0.052569393, -385289.63, -23813.098 
4.2519617e+2, 2.7310103e+2, -286640.25, -410599.66, -5435.118, -0.0024565374, -0.053663906, -286402.4, -22797.877 
4.252062e+2, 2.8308702e+2, -202371.72, -341851.56, -3896.4534, -0.0022247524, -0.053866632, -202262.95, -36520.793 
4.2521647e+2, 2.9307187e+2, -104360.53, -244342.39, -3819.9192, -0.0025580206, -0.055245932, -104256.37, -36365.887 
4.2522696e+2, 3.0306044e+2, -228.28229, -82662.85, -1681.3243, -0.0031308283, -0.05469893, -194.00447, -194.00447 
4.2523777e+2, 3.130533e+2, 3409.682, -77591.26, -1302.1221, -0.0042053536, -0.053939145, 3430.6086, 3430.6086 
4.350528e+2, 1.23213485e+2, -1692117.3, -1737474.8, -2080.3794, 0.0010671979, -0.06294662, -1692022.0, 40480.723 
4.3506333e+2, 1.3321023e+2, -1598894.8, -1648327.9, -1807.0343, 0.004047308, -0.026989678, -1598828.8, 35705.938 
4.3507364e+2, 1.4320563e+2, -1509117.6, -1567180.8, -3372.3945, -0.0015883241, -0.070021465, -1508922.4, 27657.238 
4.350839e+2, 1.5320098e+2, -1409989.8, -1469188.8, -3816.6611, 0.0008461933, -0.0559668, -1409744.6, 28880.494 
4.350939e+2, 1.631956e+2, -1320603.5, -1390216.5, -5506.0493, 0.0019074304, -0.047654778, -1320170.6, 20507.344 
4.3510365e+2, 1.7318943e+2, -1222608.4, -1291973.8, -5369.625, 0.00041970937, -0.053585753, -1222195.1, 20543.178 
4.3511334e+2, 1.8318257e+2, -1134968.1, -1215511.5, -6185.403, -0.00077450386, -0.055318885, -1134495.9, 10309.65 
4.3512294e+2, 1.9317502e+2, -1035939.0, -1117134.6, -6776.936, -0.0013814556, -0.051768854, -1035377.25, 11502.311 
4.3513244e+2, 2.0316677e+2, -946541.7, -1037912.75, -7501.6787, -0.0012902274, -0.050406724, -945929.9, 3030.5645 
4.3514192e+2, 2.1315783e+2, -848229.3, -939412.9, -7140.9263, 0.00018514847, -0.056081895, -847673.44, 3374.4536 
4.3515137e+2, 2.2314823e+2, -760419.44, -862619.6, -6952.5522, 0.0003425423, -0.05751851, -759948.6, -6806.469 
4.3516082e+2, 2.3313792e+2, -661913.56, -764395.56, -7288.0225, -0.0021620025, -0.0532448, -661397.9, -6154.781 
4.3517035e+2, 2.4312693e+2, -573131.94, -686167.9, -6803.0264, -0.0032779244, -0.05038434, -572723.94, -15372.958 
4.3517998e+2, 2.5311518e+2, -474328.4, -587515.9, -6515.4233, -0.0014993356, -0.053429846, -473954.6, -14488.718 
4.3518975e+2, 2.6310277e+2, -385375.44, -509086.88, -5393.3877, -0.0007247168, -0.05477659, -385140.75, -23553.344 
4.3519965e+2, 2.7308977e+2, -286567.88, -410355.97, -5299.848, -0.0021425139, -0.055723082, -286341.38, -22626.158 
4.352097e+2, 2.8307572e+2, -202376.34, -341746.4, -3809.5615, -0.0032507607, -0.054639366, -202272.3, -36419.703 
4.3521997e+2, 2.9306063e+2, -104385.56, -244299.05, -3743.0159, -0.003555102, -0.05264466, -104285.5, -36284.938 
4.3523052e+2, 3.0304927e+2, 139.44833, -81773.7, -1306.868, -0.0035449092, -0.05139728, 160.29321, 160.29321 
4.3524146e+2, 3.1304213e+2, 3799.365, -76568.766, -860.5488, -0.0030095633, -0.055471074, 3808.5784, 3808.5784 
4.4505593e+2, 1.2320261e+2, -1688852.8, -1735015.5, -1726.031, 0.0007785173, -0.06294761, -1688788.4, 43821.086 
4.4506642e+2, 1.331992e+2, -1596542.4, -1649196.3, -2129.3481, 0.0050253593, -0.02463123, -1596456.4, 38186.313 
4.4507676e+2, 1.4319444e+2, -1505955.0, -1566499.6, -3733.7493, -0.0022941823, -0.07112351, -1505725.6, 30963.691 
4.4508705e+2, 1.5318976e+2, -1408258.9, -1468965.6, -3793.2764, 0.00087885855, -0.056438617, -1408022.8, 30712.482 
4.4509712e+2, 1.6318433e+2, -1319559.8, -1390052.0, -5577.5054, 0.0023349605, -0.047365993, -1319121.1, 21667.295 
4.4510686e+2, 1.7317815e+2, -1220895.3, -1291445.9, -6093.206, 0.0004841336, -0.052478045, -1220372.9, 22476.121 
4.4511658e+2, 1.8317124e+2, -1133303.1, -1215142.9, -6994.0176, -0.00088412105, -0.054093704, -1132709.6, 12206.867 
4.4512615e+2, 1.9316365e+2, -1035589.7, -1117441.6, -6731.8022, -0.0012858987, -0.05180151, -1035039.75, 11951.392 
4.451357e+2, 2.0315537e+2, -946719.25, -1037986.4, -7204.3994, -0.0011107627, -0.050899047, -946154.0, 2918.263 
4.451452e+2, 2.1314645e+2, -848315.0, -939351.1, -7566.0483, 0.00019258741, -0.055378877, -847690.5, 3469.043 
4.4515467e+2, 2.2313684e+2, -760664.06, -862884.06, -7623.8784, 0.0002592704, -0.056224655, -760098.6, -6844.858 
4.451641e+2, 2.331265e+2, -662335.56, -764816.06, -7448.51, -0.0021540704, -0.05267026, -661797.0, -6442.069 
4.4517368e+2, 2.431155e+2, -573630.4, -686162.7, -6774.7886, -0.003214884, -0.05033153, -573224.0, -15761.057 
4.4518334e+2, 2.531038e+2, -475672.63, -587835.9, -6781.0894, -0.0014906543, -0.053393755, -475264.13, -15686.641 
4.451931e+2, 2.6309144e+2, -387510.2, -509886.13, -5808.2275, -0.0007947428, -0.054546934, -387235.16, -25536.39 
4.45203e+2, 2.730784e+2, -289042.78, -411359.44, -5739.2256, -0.0023140914, -0.054923944, -288774.06, -24947.7 
4.452131e+2, 2.8306442e+2, -204706.03, -342512.1, -4151.857, -0.0033935527, -0.053824384, -204581.06, -38617.56 
4.4522342e+2, 2.9304934e+2, -106107.96, -244731.61, -3876.168, -0.0034255148, -0.05295945, -105999.664, -37888.42 
4.45234e+2, 3.0303803e+2, -1815.6582, -82039.84, -1393.273, -0.0034013377, -0.051950153, -1791.4681, -1791.4681 
4.4524497e+2, 3.13031e+2, -630.75543, -77989.63, -1050.1699, -0.0033985714, -0.054332126, -616.5017, -616.5017 
4.5505914e+2, 1.23191774e+2, -1688565.1, -1734474.5, -1468.6791, 0.0008799007, -0.06106429, -1688518.3, 44197.414 
4.550697e+2, 1.3318814e+2, -1598285.1, -1652831.4, -2072.7146, 0.0066421684, -0.023781762, -1598206.5, 36544.58 
4.5507997e+2, 1.431832e+2, -1506286.9, -1567231.6, -3761.2793, -0.0025999842, -0.07231654, -1506055.6, 30743.982 
4.5509028e+2, 1.531785e+2, -1408289.3, -1469074.0, -3835.1616, 0.000050435945, -0.056683768, -1408048.3, 30797.346 
4.5510033e+2, 1.6317303e+2, -1320191.4, -1391398.8, -5493.193, 0.0014015441, -0.046537258, -1319770.1, 21128.996 
4.5511013e+2, 1.7316677e+2, -1221676.6, -1293099.8, -5971.0107, 0.00018837709, -0.05044072, -1221180.9, 21779.76 
4.5511985e+2, 1.831598e+2, -1133020.1, -1214579.1, -7019.6733, -0.00036951702, -0.052882254, -1132420.4, 12608.403 
4.5512944e+2, 1.9315222e+2, -1035083.56, -1116418.1, -6793.278, 0.0003496282, -0.055431824, -1034520.06, 12583.017 
4.55139e+2, 2.0314395e+2, -947112.06, -1038807.06, -7202.3394, 0.0002448453, -0.054947443, -946549.8, 2634.2676 
4.5514843e+2, 2.1313503e+2, -848927.4, -940616.9, -7541.8906, -0.0014905533, -0.05093693, -848311.1, 2960.2927 
4.5515794e+2, 2.2312541e+2, -760501.3, -862534.7, -7544.936, -0.00224272, -0.04881956, -759946.44, -6580.638 
4.5516744e+2, 2.3311505e+2, -662028.2, -764144.25, -7358.5024, -0.00095135596, -0.053698346, -661500.7, -6033.4165 
4.55177e+2, 2.4310404e+2, -573642.56, -686127.44, -6824.91, -0.000545841, -0.05569492, -573229.94, -15654.646 
4.551866e+2, 2.5309235e+2, -475766.75, -587972.25, -6863.7773, -0.0020228936, -0.054331373, -475348.44, -15658.858 
4.5519638e+2, 2.6308003e+2, -387470.34, -509772.34, -5771.487, -0.0030141247, -0.052057315, -387198.6, -25388.031 
4.552063e+2, 2.7306703e+2, -288999.53, -411227.22, -5671.982, -0.0029497175, -0.051486313, -288736.88, -24798.908 
4.5521644e+2, 2.8305304e+2, -204404.69, -341775.47, -3936.972, -0.002744608, -0.05153449, -204291.95, -38217.02 
4.552268e+2, 2.9303798e+2, -105799.016, -243909.05, -3633.3706, -0.0022745354, -0.05592905, -105703.49, -37480.95 
4.5523742e+2, 3.030267e+2, -1563.9618, -81299.984, -1537.8021, -0.0027518424, -0.05602577, -1534.3146, -1534.3146 
4.552483e+2, 3.130198e+2, -341.08667, -77279.516, -1287.1069, -0.005249677, -0.050791472, -319.5606, -319.5606 
4.6506247e+2, 1.23180844e+2, -1684471.0, -1731647.0, -1767.8076, 0.00029618404, -0.060564622, -1684404.9, 48417.87 
4.6507305e+2, 1.3317703e+2, -1596539.4, -1654240.1, -2288.637, 0.007971777, -0.024440687, -1596448.8, 38411.33 
4.6508333e+2, 1.4317195e+2, -1503855.4, -1566691.3, -3869.135, -0.0026489426, -0.07156182, -1503618.0, 33291.77 
4.6509358e+2, 1.5316723e+2, -1405887.3, -1468201.8, -4088.7131, -0.00025007207, -0.055582073, -1405620.1, 33335.88 
4.6510363e+2, 1.6316172e+2, -1318340.0, -1391109.1, -5630.7056, 0.0011094352, -0.04561325, -1317906.9, 23103.012 
4.6511346e+2, 1.7315538e+2, -1220463.4, -1293211.0, -5729.865, 0.0003615961, -0.050644554, -1220014.9, 23057.266 
4.651232e+2, 1.831484e+2, -1131922.0, -1214198.3, -6829.632, 0.000052440206, -0.05343047, -1131358.9, 13781.797 
4.6513274e+2, 1.931408e+2, -1034164.8, -1116023.8, -7153.1006, 0.00056314404, -0.05474139, -1033544.44, 13670.56 
4.6514228e+2, 2.0313253e+2, -946622.0, -1038936.4, -7748.5493, 0.00023138849, -0.053697623, -945976.1, 3319.997 
4.6515173e+2, 2.1312356e+2, -848737.8, -940984.1, -7757.7515, -0.0017442394, -0.050566986, -848089.94, 3293.99 
4.651612e+2, 2.2311392e+2, -760457.44, -862374.56, -7642.1753, -0.002483022, -0.048962336, -759887.56, -6409.037 
4.651707e+2, 2.3310357e+2, -662986.4, -764369.0, -7636.481, -0.0006936794, -0.05351016, -662414.4, -6834.6646 
4.6518028e+2, 2.4309258e+2, -575353.2, -686944.25, -7186.8477, -0.00012327127, -0.055235248, -574892.2, -17204.578 
4.6518984e+2, 2.530809e+2, -477121.97, -588695.56, -7213.063, -0.0021169507, -0.05379701, -476657.6, -16855.635 
4.6519962e+2, 2.630686e+2, -388422.3, -509878.75, -6034.4116, -0.003338489, -0.051582344, -388123.25, -26200.404 
4.6520954e+2, 2.730556e+2, -290357.34, -411458.5, -5751.5044, -0.0029066952, -0.051314894, -290084.8, -26034.889 
4.6521968e+2, 2.8304166e+2, -206721.06, -342473.03, -3970.5442, -0.0025530115, -0.051375918, -206605.03, -40418.535 
4.6523005e+2, 2.9302666e+2, -110032.16, -245555.84, -3858.9395, -0.002411325, -0.055161357, -109922.37, -41588.65 
4.6524066e+2, 3.030154e+2, -5977.7153, -82663.02, -1717.6846, -0.0030061859, -0.055175032, -5939.2603, -5939.2603 
4.6525154e+2, 3.1300858e+2, -2168.9907, -77311.4, -1286.0209, -0.0051755724, -0.051027913, -2146.9875, -2146.9875 
4.7506592e+2, 1.2316984e+2, -1683651.3, -1730025.6, -1530.1769, -0.0009867983, -0.061241884, -1683600.9, 49329.816 
4.750765e+2, 1.3316588e+2, -1597633.8, -1656544.0, -2331.384, 0.009007984, -0.026581671, -1597541.6, 37427.84 
4.7508675e+2, 1.4316072e+2, -1504287.4, -1567634.8, -3963.9998, -0.002470201, -0.06892128, -1504040.3, 32979.582 
4.7509697e+2, 1.5315595e+2, -1406175.6, -1468858.3, -4190.877, -0.000063622785, -0.053177644, -1405896.6, 33169.96 
4.75107e+2, 1.631504e+2, -1318440.3, -1391369.6, -5680.449, 0.0014152899, -0.044589475, -1318000.5, 23120.459 
4.7511685e+2, 1.7314401e+2, -1220543.3, -1293424.1, -5762.8506, 0.0009727504, -0.05298446, -1220090.4, 23093.303 
4.7512656e+2, 1.8313698e+2, -1132356.0, -1215112.1, -6936.7524, 0.00037027596, -0.05566956, -1131778.6, 13473.936 
4.7513607e+2, 1.9312939e+2, -1034687.2, -1117126.3, -7270.7056, -0.0005803053, -0.049967486, -1034050.8, 13276.09 
4.7514558e+2, 2.0312108e+2, -946686.75, -1039078.0, -7798.8364, -0.0010968181, -0.04741155, -946033.06, 3375.2747 
4.7515503e+2, 2.1311203e+2, -848728.3, -940952.06, -7789.4814, -0.0006763354, -0.05400095, -848075.0, 3422.0364 
4.751645e+2, 2.2310235e+2, -760460.8, -862364.1, -7804.2144, -0.00061375316, -0.05620238, -759866.6, -6274.6797 
4.7517392e+2, 2.3309208e+2, -662998.5, -764388.25, -7829.944, -0.0013167193, -0.05221367, -662397.4, -6704.991 
4.7518343e+2, 2.4308112e+2, -575382.75, -686982.94, -7193.1084, -0.0018113371, -0.049345143, -574921.0, -17121.123 
4.7519305e+2, 2.530694e+2, -477195.34, -588788.5, -7170.583, -0.0018277951, -0.05188489, -476736.47, -16821.836 
4.7520283e+2, 2.6305705e+2, -388118.75, -509174.28, -6064.369, -0.0019208599, -0.052963596, -387815.7, -25780.066 
4.752127e+2, 2.7304417e+2, -289995.78, -410599.3, -5805.918, -0.0022464006, -0.054149695, -289716.94, -25554.705 
4.752228e+2, 2.8303027e+2, -206646.3, -342204.25, -4192.2056, -0.0027999966, -0.05318666, -206516.77, -40218.51 
4.752331e+2, 2.9301533e+2, -110007.95, -245452.17, -4119.2534, -0.0037337109, -0.050997607, -109882.79, -41437.934 
4.7524372e+2, 3.0300415e+2, -5469.713, -81515.14, -1390.9612, -0.004095062, -0.0498248, -5444.279, -5444.279 
4.7525474e+2, 3.129973e+2, -1662.3175, -76003.02, -820.5947, -0.0033892028, -0.054669693, -1653.2606, -1653.2606 
4.850695e+2, 1.2315887e+2, -1679149.6, -1727027.9, -1113.508, -0.0008976214, -0.05992995, -1679123.8, 53914.344 
4.8508006e+2, 1.3315473e+2, -1595842.8, -1657519.1, -2331.4763, 0.009344504, -0.029136544, -1595754.8, 39323.863 
4.850903e+2, 1.4314952e+2, -1502414.9, -1567563.5, -3935.938, -0.0035946567, -0.06561881, -1502177.9, 34951.86 
4.851005e+2, 1.5314466e+2, -1403809.4, -1468336.9, -4224.1045, 0.0002819832, -0.05283507, -1403534.0, 35643.387 
4.8511052e+2, 1.6313906e+2, -1315998.9, -1390515.9, -5908.092, 0.0024345957, -0.045743704, -1315533.4, 25699.008 
4.851203e+2, 1.7313264e+2, -1219127.8, -1293027.9, -6106.8955, 0.0009686429, -0.05228309, -1218626.5, 24668.57 
4.8512995e+2, 1.8312559e+2, -1131718.3, -1215262.9, -7228.0894, -0.00023304553, -0.05407417, -1131097.5, 14266.725 
4.8513946e+2, 1.9311793e+2, -1034036.06, -1117321.8, -7343.9688, -0.00087170006, -0.049577657, -1033393.44, 14045.742 
4.8514894e+2, 2.031096e+2, -945970.7, -1038764.94, -7773.0186, -0.0010229336, -0.047678217, -945324.06, 4196.871 
4.8515832e+2, 2.1310055e+2, -848844.0, -940959.6, -7756.7397, -0.00019087242, -0.05368874, -848195.4, 3414.165 
4.8516774e+2, 2.2309087e+2, -761201.94, -862884.7, -7801.2856, -0.0000898722, -0.05553874, -760606.9, -6902.4624 
4.8517713e+2, 2.330806e+2, -663464.6, -764839.06, -7968.938, -0.0015085803, -0.051748425, -662842.0, -7036.9053 
4.851866e+2, 2.4306962e+2, -575666.25, -686865.25, -7328.482, -0.0023391296, -0.048955634, -575185.4, -17272.713 
4.851962e+2, 2.5305796e+2, -478533.6, -589091.0, -7055.8823, -0.0019059463, -0.05126074, -478085.1, -18058.057 
4.8520592e+2, 2.630456e+2, -390464.38, -510013.5, -5886.1753, -0.0017033942, -0.05231347, -390175.25, -28027.512 
4.8521578e+2, 2.7303272e+2, -292994.8, -411793.78, -5907.4355, -0.0020774384, -0.053923547, -292701.78, -28427.64 
4.8522583e+2, 2.8301886e+2, -209481.03, -343180.5, -4352.557, -0.002734059, -0.05313288, -209339.48, -42929.566 
4.852361e+2, 2.9300398e+2, -111333.13, -245691.73, -4096.4717, -0.003875044, -0.05057913, -111208.35, -42652.22 
4.852467e+2, 3.0299282e+2, -6873.1997, -81461.43, -1366.2021, -0.0042825188, -0.049205095, -6848.184, -6848.184 
4.852577e+2, 3.1298608e+2, -7114.664, -77832.59, -998.1827, -0.0033017795, -0.054208416, -7100.5776, -7100.5776 
4.9507323e+2, 1.2314797e+2, -1678889.4, -1726551.6, -1057.8732, 0.0004979027, -0.056521185, -1678866.0, 54279.047 
4.9508372e+2, 1.3314362e+2, -1597043.3, -1660066.3, -2642.4524, 0.008996144, -0.032104906, -1596932.6, 38255.1 
4.9509388e+2, 1.4313832e+2, -1502983.9, -1568817.8, -3995.9063, -0.005996215, -0.061673544, -1502742.3, 34497.258 
4.9510413e+2, 1.5313335e+2, -1404263.5, -1469326.4, -4220.184, 0.0007548139, -0.05446427, -1403990.9, 35297.42 
4.9511415e+2, 1.6312766e+2, -1316282.5, -1391153.9, -6158.8857, 0.004120233, -0.04899336, -1315779.3, 25564.734 
4.9512377e+2, 1.7312127e+2, -1219376.4, -1293610.9, -6411.0293, 0.00037086263, -0.04869614, -1218826.9, 24579.725 
4.9513337e+2, 1.8311422e+2, -1131840.4, -1215554.1, -7363.4834, -0.0017375618, -0.04881303, -1131197.6, 14278.179 
4.9514288e+2, 1.9310646e+2, -1034151.9, -1117600.8, -7436.2524, -0.00037627292, -0.053308934, -1033494.4, 14057.378 
4.951523e+2, 2.0309807e+2, -945945.3, -1038718.56, -8008.276, 0.00036286988, -0.05414146, -945259.1, 4374.764 
4.9516162e+2, 2.1308914e+2, -848794.25, -940866.06, -8027.0127, -0.00026001222, -0.049889825, -848099.7, 3621.8145 
4.9517095e+2, 2.2307949e+2, -761407.25, -863311.1, -7935.5933, -0.00084881135, -0.047454502, -760792.94, -6976.9023 
4.9518034e+2, 2.3306909e+2, -663772.25, -765434.44, -8061.051, -0.0013123435, -0.052027125, -663137.06, -7219.1606 
4.9518976e+2, 2.4305807e+2, -575384.4, -686211.94, -7548.0093, -0.0018012591, -0.053678133, -574872.6, -16846.783 
4.951993e+2, 2.5304648e+2, -478120.78, -588172.4, -7314.9844, -0.0023367435, -0.05184525, -477636.7, -17497.428 
4.9520892e+2, 2.6303425e+2, -390481.03, -509986.06, -6112.911, -0.0026088841, -0.049795475, -390169.16, -27909.887 
4.9521872e+2, 2.7302134e+2, -293134.13, -412023.1, -6120.5137, -0.0023714744, -0.050889906, -292819.88, -28434.092 
4.9522877e+2, 2.8300747e+2, -209225.97, -342546.72, -4265.451, -0.0024051438, -0.051360093, -209089.64, -42568.074 
4.9523908e+2, 2.929926e+2, -111058.65, -244912.94, -3939.6108, -0.002956996, -0.05355835, -110942.8, -42275.16 
4.952496e+2, 3.029815e+2, -6677.8623, -80809.63, -1841.9105, -0.003655883, -0.052900746, -6632.1255, -6632.1255 
4.9526042e+2, 3.1297484e+2, -6859.7324, -77209.74, -1633.7366, -0.004766616, -0.05006975, -6821.813, -6821.813 
5.0507706e+2, 1.2313705e+2, -1675899.8, -1725046.6, -897.8799, -0.000267048, -0.05378248, -1675883.4, 57368.74 
5.050875e+2, 1.3313247e+2, -1594028.9, -1660200.3, -2679.9385, 0.009950841, -0.037593484, -1593920.5, 41376.375 
5.0509757e+2, 1.4312717e+2, -1499300.4, -1567751.3, -3899.4238, -0.005574795, -0.05806159, -1499079.0, 38269.926 
5.0510776e+2, 1.5312211e+2, -1402196.9, -1468871.0, -4004.7124, 0.0004930835, -0.053072415, -1401957.1, 37441.23 
5.051177e+2, 1.6311637e+2, -1315208.8, -1391176.9, -5885.075, 0.0035731215, -0.04919763, -1314755.5, 26699.15 
5.051274e+2, 1.7310993e+2, -1217773.6, -1293399.1, -6215.666, 0.0003688498, -0.04867829, -1217266.3, 26251.506 
5.0513685e+2, 1.8310283e+2, -1129974.1, -1214847.8, -7232.1743, -0.001337013, -0.048610855, -1129362.3, 16225.032 
5.051463e+2, 1.9309506e+2, -1033345.9, -1117339.3, -7267.0415, 0.00006731835, -0.05306425, -1032721.75, 14941.659 
5.051557e+2, 2.0308667e+2, -945931.6, -1039015.6, -7908.5796, 0.0006255282, -0.05380076, -945264.44, 4481.238 
5.051649e+2, 2.130777e+2, -848681.06, -941177.06, -8206.368, -0.00059869344, -0.04937802, -847958.6, 3874.9893 
5.051742e+2, 2.2306804e+2, -761243.44, -863119.9, -8179.759, -0.0014104861, -0.046833746, -760590.8, -6662.5205 
5.051835e+2, 2.3305766e+2, -664651.75, -765669.0, -7911.6143, -0.00132978, -0.051370732, -664035.9, -8005.905 
5.051929e+2, 2.4304664e+2, -577045.4, -686925.75, -7255.6865, -0.0014437041, -0.05318131, -576568.4, -18430.549 
5.052023e+2, 2.5303507e+2, -479719.22, -588910.5, -7437.107, -0.001997902, -0.051939383, -479215.0, -18963.783 
5.052119e+2, 2.6302287e+2, -391852.16, -510383.88, -6406.3657, -0.002505942, -0.049939737, -391506.9, -29135.818 
5.052216e+2, 2.7301e+2, -294479.2, -412364.44, -6134.0537, -0.002931013, -0.049935985, -294160.88, -29663.654 
5.052316e+2, 2.8299615e+2, -211232.17, -342982.16, -4092.3857, -0.0030324575, -0.050021414, -211105.17, -44472.563 
5.052419e+2, 2.929813e+2, -115562.96, -246523.44, -3814.0771, -0.002401596, -0.053364314, -115451.98, -46673.7 
5.0525236e+2, 3.029703e+2, -11703.333, -82564.35, -1666.7683, -0.0028274362, -0.053166613, -11664.15, -11664.15 
5.052631e+2, 3.1296372e+2, -8392.707, -77282.55, -1355.9824, -0.0056479997, -0.04931282, -8366.027, -8366.027 
5.15081e+2, 1.2312611e+2, -1676034.0, -1725394.3, -543.2388, -0.0031601426, -0.051593814, -1676028.0, 57331.188 
5.150915e+2, 1.3312134e+2, -1594808.3, -1661853.4, -2708.3208, 0.012137082, -0.045528747, -1594699.0, 40707.0 
5.151015e+2, 1.4311606e+2, -1499602.6, -1568426.8, -4279.248, -0.0024493495, -0.05478268, -1499337.5, 38120.316 
5.1511157e+2, 1.5311098e+2, -1402391.0, -1469339.1, -4461.8564, -0.00048231095, -0.04879586, -1402094.9, 37412.715 
5.151214e+2, 1.6310516e+2, -1315554.4, -1391968.1, -6099.03, 0.0008695106, -0.046480753, -1315070.6, 26493.838 
5.15131e+2, 1.7309862e+2, -1218186.1, -1294307.9, -6363.716, 0.00091386796, -0.052034337, -1217657.9, 25970.848 
5.151404e+2, 1.8309146e+2, -1130069.6, -1215076.3, -7573.1177, 0.00085299666, -0.05322175, -1129400.3, 16298.615 
5.151498e+2, 1.9308378e+2, -1033371.75, -1117444.0, -7653.69, 0.00045625193, -0.049095586, -1032680.7, 15093.495 
5.151591e+2, 2.0307536e+2, -946313.8, -1039826.06, -8165.737, -0.00018291637, -0.047033448, -945606.1, 4250.327 
5.151682e+2, 2.1306624e+2, -849180.7, -942206.3, -8420.257, -0.0012082129, -0.051914923, -848424.6, 3521.2603 
5.151774e+2, 2.2305652e+2, -760938.1, -862462.25, -8525.935, -0.0018094569, -0.053197745, -760227.06, -6185.8926 
5.1518667e+2, 2.330463e+2, -664159.0, -764638.7, -8300.257, -0.0015521294, -0.049872387, -663477.94, -7336.5186 
5.151959e+2, 2.4303536e+2, -577241.8, -687296.94, -7516.281, -0.0012680142, -0.047838923, -576730.9, -18482.264 
5.152053e+2, 2.5302368e+2, -480117.5, -589678.06, -7656.0044, -0.00096553925, -0.051563807, -479585.1, -19222.137 
5.152148e+2, 2.6301143e+2, -391603.66, -509767.22, -6603.1733, -0.001487393, -0.05252991, -391235.78, -28752.559 
5.152245e+2, 2.7299863e+2, -294098.53, -411455.22, -6331.1436, -0.0037429638, -0.050894763, -293757.97, -29149.375 
5.152343e+2, 2.8298488e+2, -210967.97, -342277.22, -4545.4063, -0.0045585316, -0.049091734, -210810.81, -44067.61 
5.152444e+2, 2.929701e+2, -115320.24, -245895.94, -4336.4805, -0.0021919648, -0.050299957, -115176.39, -46288.145 
5.1525486e+2, 3.029591e+2, -11302.803, -81585.98, -1513.2139, -0.0018258336, -0.050315544, -11270.238, -11270.238 
5.152657e+2, 3.1295258e+2, -8067.7134, -76303.87, -1029.7687, -0.0060331197, -0.05159621, -8052.1763, -8052.1763 
5.250851e+2, 1.231152e+2, -1671941.1, -1724061.9, -188.41837, -0.0031638152, -0.049351927, -1671940.5, 61525.785 
5.250955e+2, 1.3311026e+2, -1592202.9, -1661439.6, -2551.931, 0.012283093, -0.051694985, -1592108.9, 43405.72 
5.2510554e+2, 1.4310502e+2, -1497599.8, -1568045.1, -4135.6826, -0.0027297265, -0.049802423, -1497357.8, 40208.22 
5.2511543e+2, 1.5309985e+2, -1399888.4, -1468681.1, -4474.4204, -0.0005188245, -0.047626797, -1399598.6, 40018.07 
5.251252e+2, 1.6309398e+2, -1313016.0, -1391166.3, -6079.0625, 0.0010578262, -0.04771528, -1312545.9, 29128.275 
5.251347e+2, 1.730874e+2, -1216724.3, -1294032.4, -6175.3936, 0.001250932, -0.05202654, -1216234.1, 27504.55 
5.251441e+2, 1.830802e+2, -1129328.1, -1215191.9, -7438.839, 0.0010925999, -0.052335173, -1128688.5, 17120.648 
5.251533e+2, 1.9307247e+2, -1032590.6, -1117568.4, -7805.5166, 0.000102444144, -0.048300978, -1031879.56, 16005.366 
5.251624e+2, 2.0306404e+2, -945476.8, -1039402.25, -8322.463, -0.00070395396, -0.04645126, -944745.06, 5222.447 
5.251716e+2, 2.1305491e+2, -849336.2, -942158.06, -8016.0894, -0.0010168939, -0.05167684, -848649.0, 3407.8909 
5.2518064e+2, 2.230452e+2, -761822.8, -862980.9, -7910.6494, -0.0012585107, -0.053156663, -761207.94, -7055.8286 
5.2518976e+2, 2.3303495e+2, -664741.94, -765078.44, -8276.089, -0.001425723, -0.049776312, -664063.9, -7811.3877 
5.2519894e+2, 2.4302402e+2, -577682.1, -687366.56, -7780.284, -0.0014974122, -0.047527373, -577133.0, -18773.313 
5.252082e+2, 2.530124e+2, -481520.56, -590161.9, -7464.5737, -0.0013694725, -0.05067578, -481010.1, -20536.293 
5.2521765e+2, 2.6300013e+2, -393754.88, -510366.8, -6083.3394, -0.0017334324, -0.05160532, -393438.38, -30844.572 
5.2522725e+2, 2.7298737e+2, -296927.94, -412334.78, -5948.5386, -0.0031501013, -0.05109785, -296622.13, -31903.299 
5.25237e+2, 2.8297368e+2, -213999.89, -343457.5, -4380.4844, -0.0038894545, -0.049664546, -213851.84, -46998.734 
5.2524704e+2, 2.929589e+2, -117263.89, -246632.84, -4372.9346, -0.0030936452, -0.049586162, -117116.24, -48118.414 
5.2525735e+2, 3.02948e+2, -13164.817, -81587.016, -1485.8303, -0.0030417205, -0.049063664, -13132.567, -13132.567 
5.2526814e+2, 3.1294152e+2, -13306.395, -77775.64, -847.4006, -0.004808429, -0.05148202, -13295.258, -13295.258 
5.350894e+2, 1.231043e+2, -1672570.3, -1725437.0, -129.22897, -0.00037611809, -0.047054697, -1672569.9, 61003.2 
5.350997e+2, 1.3309924e+2, -1592448.3, -1662021.1, -2932.857, 0.010463909, -0.056172285, -1592324.9, 43297.74 
5.351095e+2, 1.4309408e+2, -1497989.4, -1568924.3, -4470.8584, -0.006306862, -0.04318456, -1497708.6, 39964.73 
5.351194e+2, 1.5308875e+2, -1400329.8, -1469653.9, -4791.81, 0.00030665347, -0.049417917, -1400000.0, 39725.402 
5.351291e+2, 1.630828e+2, -1313170.6, -1391560.6, -6493.366, 0.0039855465, -0.05272973, -1312636.4, 29147.418 
5.351384e+2, 1.7307626e+2, -1216832.0, -1294321.5, -6607.4937, 0.0013877633, -0.048850786, -1216272.6, 27575.107 
5.351477e+2, 1.8306908e+2, -1129792.3, -1216181.6, -7811.4063, -0.00053833856, -0.046233177, -1129091.6, 16826.656 
5.351568e+2, 1.9306117e+2, -1033160.5, -1118777.5, -8151.319, -0.00096924644, -0.0504657, -1032391.4, 15604.326 
5.351659e+2, 2.0305268e+2, -945083.2, -1038591.56, -8782.614, -0.00097050687, -0.05168868, -944265.44, 5813.3516 
5.3517485e+2, 2.1304373e+2, -848719.1, -940896.6, -8516.291, -0.00009321011, -0.048874803, -847938.94, 4227.68 
5.3518385e+2, 2.2303407e+2, -762225.2, -863829.06, -8245.297, 0.00015655677, -0.04713292, -761560.4, -7299.148 
5.3519285e+2, 2.3302367e+2, -665435.75, -766494.3, -8552.588, -0.0009839392, -0.050955515, -664717.06, -8353.836 
5.352019e+2, 2.4301267e+2, -577383.0, -686698.8, -8213.57, -0.0021153977, -0.051875647, -576769.3, -18298.262 
5.352111e+2, 2.5300115e+2, -480990.13, -589007.7, -7945.807, -0.0031137855, -0.049337115, -480408.75, -19824.857 
5.352203e+2, 2.6298898e+2, -393540.78, -509857.16, -6484.8774, -0.00316469, -0.04745358, -393180.34, -30477.354 
5.3522986e+2, 2.7297622e+2, -296827.7, -412036.03, -6329.7363, -0.0012913378, -0.050607037, -296480.97, -31652.828 
5.352396e+2, 2.8296253e+2, -214062.66, -343454.75, -4617.727, -0.0012327417, -0.05160735, -213898.06, -46935.598 
5.352495e+2, 2.9294774e+2, -117406.87, -246754.47, -4565.312, -0.0050054863, -0.05100825, -117245.93, -48138.742 
5.3525966e+2, 3.0293688e+2, -12672.739, -80364.695, -1996.3776, -0.006280456, -0.049271893, -12613.912, -12613.912 
5.3527033e+2, 3.1293055e+2, -12661.625, -76242.375, -1454.1376, -0.0021850236, -0.049225647, -12628.386, -12628.386 
5.450938e+2, 1.2309347e+2, -1669384.0, -1725430.1, 412.0893, 0.00014616718, -0.044224724, -1669381.0, 64298.223 
5.4510397e+2, 1.330883e+2, -1588808.1, -1660421.3, -2703.9382, 0.00993672, -0.0617256, -1588706.3, 47023.605 
5.451137e+2, 1.430832e+2, -1495086.0, -1568102.6, -4082.3748, -0.0068488363, -0.038647387, -1494858.5, 42921.367 
5.4512346e+2, 1.5307778e+2, -1398036.1, -1469246.9, -4367.281, 0.0007246226, -0.04875255, -1397769.3, 42063.73 
5.4513305e+2, 1.6307175e+2, -1311224.0, -1391122.5, -6186.863, 0.0046902136, -0.054261126, -1310747.8, 31144.324 
5.451423e+2, 1.730652e+2, -1215225.8, -1294032.3, -6487.012, 0.0010041912, -0.048468538, -1214695.4, 29260.908 
5.4515135e+2, 1.8305798e+2, -1128430.5, -1215648.9, -7619.474, -0.0013168275, -0.044936594, -1127769.8, 18257.191 
5.451604e+2, 1.9305006e+2, -1032514.94, -1118520.3, -7418.4346, -0.0006920724, -0.050468057, -1031879.75, 16224.858 
5.451693e+2, 2.0304157e+2, -945026.7, -1038903.25, -7979.0176, -0.00022656441, -0.052260596, -944353.4, 5834.5015 
5.451782e+2, 2.1303257e+2, -848481.6, -941207.1, -8582.695, -0.00017181391, -0.04843961, -847693.94, 4582.0205 
5.45187e+2, 2.2302291e+2, -761912.5, -863564.3, -8671.269, -0.00035292198, -0.04615892, -761178.1, -6807.3604 
5.4519594e+2, 2.3301251e+2, -666436.0, -766755.94, -8200.428, -0.0010523984, -0.0504519, -665770.1, -9297.535 
5.452048e+2, 2.4300152e+2, -579217.6, -687332.25, -7422.125, -0.0018924214, -0.051691297, -578710.5, -20130.26 
5.452139e+2, 2.5299004e+2, -482526.44, -589522.25, -7563.9053, -0.0029742192, -0.049126733, -481994.34, -21301.498 
5.45223e+2, 2.629779e+2, -395023.25, -510333.1, -6435.547, -0.0031950353, -0.04707715, -394665.2, -31853.46 
5.452324e+2, 2.7296516e+2, -298937.88, -412845.6, -6325.929, -0.0016535693, -0.04976709, -298587.66, -33651.027 
5.4524195e+2, 2.8295147e+2, -216629.22, -344080.28, -4370.7935, -0.001546512, -0.050669733, -216479.5, -49408.89 
5.452518e+2, 2.9293677e+2, -120758.914, -247681.97, -3845.044, -0.004459481, -0.050772168, -120642.53, -51427.75 
5.452619e+2, 3.0292597e+2, -16461.781, -81547.24, -1270.6249, -0.005623046, -0.049387902, -16436.986, -16436.986 
5.4527235e+2, 3.1291968e+2, -16042.257, -77260.914, -1160.5431, -0.0030572505, -0.048910163, -16020.264, -16020.264 
5.550982e+2, 1.2308272e+2, -1670644.1, -1728099.0, 367.43665, -0.0015390567, -0.040950645, -1670641.8, 63142.85 
5.551083e+2, 1.3307746e+2, -1588697.5, -1660275.5, -3191.7927, 0.010621562, -0.0683062, -1588555.5, 47280.74 
5.5511796e+2, 1.4307241e+2, -1495367.8, -1568756.1, -4546.7266, -0.0045068287, -0.036115676, -1495087.1, 42798.363 
5.551276e+2, 1.5306693e+2, -1398429.3, -1470115.1, -4819.5967, 0.00074254995, -0.04576508, -1398106.8, 41832.465 
5.5513704e+2, 1.6306084e+2, -1311637.8, -1392042.3, -6696.56, 0.0032598658, -0.052473143, -1311083.9, 30915.176 
5.5514616e+2, 1.7305419e+2, -1215666.6, -1295000.6, -6998.8667, 0.000113576316, -0.050711233, -1215053.9, 29010.299 
5.5515516e+2, 1.8304694e+2, -1128108.3, -1215021.1, -8159.8037, -0.0013123482, -0.048184175, -1127348.9, 18786.428 
5.55164e+2, 1.9303912e+2, -1032021.94, -1117547.6, -7973.446, 0.0008373755, -0.048460525, -1031284.94, 16926.771 
5.551728e+2, 2.0303065e+2, -945795.8, -1040501.1, -8437.893, 0.0014507595, -0.04844846, -945049.94, 5244.9683 
5.551815e+2, 2.1302146e+2, -849590.8, -943486.4, -8993.718, -0.0011956479, -0.05018956, -848737.1, 3647.8828 
5.551902e+2, 2.2301169e+2, -761427.25, -862520.1, -9254.566, -0.002677058, -0.04988853, -760587.0, -6106.3936 
5.551989e+2, 2.3300149e+2, -665565.0, -764927.0, -8844.3, -0.0016075517, -0.048415124, -664783.94, -8203.22 
5.552077e+2, 2.4299058e+2, -579248.94, -687382.06, -7873.211, -0.00090800156, -0.04731599, -578678.7, -19991.328 
5.552166e+2, 2.52979e+2, -482827.34, -590094.0, -7955.3096, -0.0011184827, -0.049939357, -482240.53, -21439.705 
5.552257e+2, 2.6296687e+2, -395042.0, -510252.22, -6939.396, -0.0019499374, -0.050166894, -394625.53, -31705.398 
5.5523485e+2, 2.7295417e+2, -298896.63, -412642.9, -6855.7686, -0.0040470674, -0.04862663, -298484.9, -33440.418 
5.5524427e+2, 2.8294057e+2, -216000.69, -342639.34, -4803.7817, -0.004598338, -0.047116503, -215818.72, -48640.97 
5.5525404e+2, 2.9292592e+2, -120025.734, -245976.73, -4269.0405, -0.0017183485, -0.049036924, -119881.2, -50560.297 
5.55264e+2, 3.029152e+2, -16384.176, -81176.04, -1747.6611, -0.0014458123, -0.049424898, -16337.068, -16337.068 
5.5527425e+2, 3.1290892e+2, -16138.352, -77279.18, -1639.2253, -0.007081431, -0.05034778, -16094.434, -16094.434 
5.6510293e+2, 1.2307204e+2, -1667778.4, -1729018.3, 946.994, -0.0023204496, -0.03926027, -1667763.8, 66125.4 
5.651129e+2, 1.3306673e+2, -1584475.5, -1657831.1, -2896.4932, 0.010893092, -0.07270889, -1584361.3, 51580.043 
5.651224e+2, 1.4306177e+2, -1492210.0, -1567729.1, -4174.1885, -0.0028522355, -0.033231433, -1491980.0, 46009.914 
5.651319e+2, 1.5305622e+2, -1396207.3, -1469782.1, -4492.5703, 0.00031133476, -0.044394113, -1395934.0, 44110.39 
5.6514114e+2, 1.6305006e+2, -1309863.8, -1391576.5, -6327.668, 0.0018871697, -0.052447207, -1309376.6, 32728.203 
5.651501e+2, 1.7304336e+2, -1214211.0, -1294635.0, -6384.3867, 0.0003226091, -0.051181886, -1213707.4, 30463.037 
5.6515896e+2, 1.8303607e+2, -1126975.4, -1214908.8, -7638.74, -0.00034181424, -0.04856334, -1126316.8, 19924.986 
5.6516767e+2, 1.9302823e+2, -1031046.4, -1117564.1, -8225.487, 0.00072593475, -0.04760504, -1030271.3, 18047.244 
5.6517625e+2, 2.0301972e+2, -944935.6, -1040082.3, -8865.288, 0.00080567517, -0.047168475, -944116.6, 6285.277 
5.6518483e+2, 2.1301053e+2, -849767.6, -943476.6, -8288.365, -0.0011449421, -0.050198145, -849040.2, 3451.8494 
5.6519336e+2, 2.2300078e+2, -762345.5, -862981.75, -8086.338, -0.0022837834, -0.050470147, -761699.94, -7112.2666 
5.652019e+2, 2.3299056e+2, -666268.2, -765338.9, -8587.707, -0.0016873816, -0.047995165, -665529.3, -8841.615 
5.652106e+2, 2.4297969e+2, -579941.4, -687549.9, -8081.84, -0.0012350186, -0.046430115, -579337.8, -20543.492 
5.652193e+2, 2.5296813e+2, -484519.66, -590704.8, -7794.707, -0.0011843224, -0.049790442, -483950.53, -23042.871 
5.652282e+2, 2.6295596e+2, -397278.9, -510847.47, -6465.66, -0.001840645, -0.05042659, -396912.0, -33885.305 
5.6523716e+2, 2.7294332e+2, -301178.5, -413202.88, -6176.4985, -0.003964389, -0.048546974, -300838.97, -35688.41 
5.6524646e+2, 2.8292978e+2, -218653.61, -343459.3, -4181.2676, -0.0046073077, -0.046776537, -218513.69, -51230.332 
5.6525606e+2, 2.9291523e+2, -123681.11, -247325.94, -4234.4067, -0.0019871627, -0.048616022, -123536.266, -54110.133 
5.6526595e+2, 3.0290455e+2, -20182.47, -82077.34, -1795.1865, -0.0016816207, -0.048917785, -20130.447, -20130.447 
5.652761e+2, 3.1289834e+2, -19163.793, -77712.13, -1083.156, -0.006598211, -0.04974696, -19143.762, -19143.762 
5.7510775e+2, 1.2306145e+2, -1669380.5, -1732408.4, 786.72473, -0.002250629, -0.039274774, -1669370.6, 64622.387 
5.751176e+2, 1.3305613e+2, -1584008.4, -1656964.4, -3468.685, 0.010757253, -0.07502598, -1583843.8, 52201.383 
5.7512695e+2, 1.4305125e+2, -1492490.5, -1568378.9, -4818.0674, -0.0018785499, -0.030009607, -1492185.9, 45907.254 
5.7513624e+2, 1.530456e+2, -1396679.3, -1470818.8, -5144.71, -0.0005683415, -0.044555202, -1396324.0, 43824.57 
5.7514524e+2, 1.6303936e+2, -1309889.8, -1391729.4, -6944.3022, 0.0005447757, -0.054097656, -1309304.8, 32904.91 
5.751541e+2, 1.730327e+2, -1214155.3, -1294606.1, -6988.2227, 0.0015476029, -0.049991377, -1213552.8, 30722.074 
5.7516277e+2, 1.8302538e+2, -1127768.5, -1216597.8, -8221.879, 0.0015108676, -0.046234947, -1127013.9, 19332.734 
5.7517135e+2, 1.9301736e+2, -1032073.06, -1119728.1, -8783.383, -0.00092952925, -0.047818486, -1031201.56, 17223.469 
5.7517976e+2, 2.030088e+2, -944205.9, -1038579.1, -9530.53, -0.0020289302, -0.048262257, -943253.0, 7255.9507 
5.7518816e+2, 2.1299979e+2, -848622.94, -941103.1, -8998.747, -0.000120681085, -0.048604302, -847755.44, 4841.824 
5.751965e+2, 2.2299011e+2, -762834.25, -863991.9, -8695.5205, 0.0006101438, -0.048125036, -762092.25, -7400.1323 
5.752049e+2, 2.3297974e+2, -667201.6, -767233.06, -9147.193, -0.0013328142, -0.0490545, -666372.06, -9578.321 
5.752133e+2, 2.429688e+2, -579766.0, -687130.9, -8704.925, -0.002787637, -0.04876514, -579064.8, -20163.703 
5.752219e+2, 2.529573e+2, -484091.63, -589743.75, -8441.559, -0.0030298906, -0.048774254, -483421.4, -22407.9 
5.7523066e+2, 2.6294526e+2, -396811.56, -509792.63, -7032.4766, -0.0027931326, -0.048091147, -396375.5, -33243.813 
5.752395e+2, 2.7293268e+2, -300737.66, -412172.0, -6726.4917, -0.0016478294, -0.04942751, -300333.1, -35077.965 
5.752486e+2, 2.8291914e+2, -218851.66, -343718.0, -4832.5605, -0.0018631262, -0.049358945, -218664.9, -51277.215 
5.7525796e+2, 2.9290456e+2, -124053.71, -247958.25, -4898.497, -0.0049695373, -0.049390946, -123860.35, -54329.652 
5.752676e+2, 3.0289388e+2, -19402.563, -80291.21, -2138.1155, -0.005922944, -0.047921993, -19327.576, -19327.576 
5.7527775e+2, 3.1288788e+2, -18164.012, -75361.76, -1362.8541, -0.00214572, -0.047322128, -18131.557, -18131.557 
5.8511275e+2, 1.23051e+2, -1666208.5, -1733568.6, 1598.8687, -0.0007613764, -0.03865432, -1666170.5, 67924.85 
5.8512235e+2, 1.3304572e+2, -1579738.3, -1654133.5, -2994.9497, 0.009141561, -0.07592295, -1579617.9, 56529.39 
5.851316e+2, 1.4304088e+2, -1489779.3, -1567496.1, -4269.555, -0.002815862, -0.028594797, -1489545.5, 48649.26 
5.851407e+2, 1.5303513e+2, -1394368.6, -1470449.1, -4550.596, -0.00015035347, -0.044658102, -1394097.4, 46153.563 
5.851495e+2, 1.6302884e+2, -1307682.6, -1391187.6, -6410.407, 0.0015740574, -0.054789193, -1307193.4, 35119.215 
5.851582e+2, 1.7302215e+2, -1212220.1, -1294187.8, -6785.5786, 0.0016203189, -0.049175315, -1211662.3, 32715.988 
5.851667e+2, 1.830148e+2, -1126182.0, -1216074.8, -8019.4375, 0.0010482444, -0.04493985, -1125472.3, 20978.004 
5.8517504e+2, 1.9300675e+2, -1031466.7, -1119638.5, -7696.9736, -0.0009759337, -0.048270877, -1030799.9, 17729.193 
5.8518326e+2, 2.0299819e+2, -944226.94, -1038730.9, -8226.332, -0.0018617546, -0.049351133, -943516.25, 7096.936 
5.851915e+2, 2.1298917e+2, -848670.2, -941279.6, -8902.905, -0.00024269536, -0.04790987, -847822.06, 4879.3667 
5.8519965e+2, 2.2297949e+2, -762953.7, -863991.0, -9095.098, 0.0003842118, -0.046683874, -762141.5, -7345.248 
5.852078e+2, 2.3296912e+2, -667852.75, -767477.75, -8624.335, -0.0012416294, -0.04915995, -667111.7, -10213.755 
5.852161e+2, 2.4295816e+2, -580875.2, -687438.94, -7711.127, -0.0025358158, -0.04953196, -580320.06, -21314.836 
5.852245e+2, 2.5294673e+2, -485739.13, -590293.56, -7776.5464, -0.0029887822, -0.048215367, -485163.9, -24046.588 
5.85233e+2, 2.6293468e+2, -398910.28, -510392.9, -6603.4688, -0.0029253773, -0.046862323, -398520.5, -35285.32 
5.852417e+2, 2.7292216e+2, -303435.78, -413051.94, -6546.3726, -0.0018587892, -0.049023196, -303046.22, -37687.918 
5.852506e+2, 2.8290865e+2, -221774.39, -344574.88, -4631.4634, -0.002016625, -0.04948366, -221599.97, -54109.477 
5.852598e+2, 2.928941e+2, -126562.14, -248611.56, -4112.828, -0.004775798, -0.049331896, -126423.7, -56790.68 
5.852693e+2, 3.028835e+2, -22182.049, -80840.664, -1149.2375, -0.005704286, -0.04771814, -22159.541, -22159.541 
5.852792e+2, 3.128776e+2, -23238.436, -76980.055, -1027.9141, -0.0026468502, -0.047073793, -23218.781, -23218.781 
5.95118e+2, 1.2304072e+2, -1667938.6, -1737228.4, 1119.4641, 0.0020807479, -0.037620563, -1667920.5, 66275.72 
5.9512734e+2, 1.3303547e+2, -1579140.4, -1652992.5, -3842.39, 0.006106261, -0.07544773, -1578941.0, 57306.707 
5.951363e+2, 1.4303066e+2, -1489963.0, -1567965.0, -5005.4487, -0.0056037074, -0.028897645, -1489643.1, 48651.816 
5.951452e+2, 1.5302485e+2, -1394754.0, -1471332.4, -5249.563, 0.0014637428, -0.044714127, -1394395.8, 45955.87 
5.951539e+2, 1.630185e+2, -1308221.5, -1392399.5, -7091.356, 0.0048233736, -0.05457765, -1307628.3, 34785.793 
5.9516233e+2, 1.7301172e+2, -1212834.9, -1295525.0, -7447.9097, 0.0006085714, -0.048708625, -1212169.4, 32311.074 
5.951707e+2, 1.8300433e+2, -1125692.8, -1215108.9, -8814.637, -0.001612196, -0.0446165, -1124832.1, 21720.664 
5.951788e+2, 1.9299638e+2, -1030716.3, -1118144.0, -8534.5205, 0.00045350989, -0.04894866, -1029891.0, 18739.703 
5.951868e+2, 2.029878e+2, -945041.4, -1040443.75, -8966.809, 0.0010872515, -0.050430816, -944205.9, 6508.8135 
5.9519476e+2, 2.1297863e+2, -849901.56, -943843.44, -9593.791, -0.0014323748, -0.04805046, -848931.8, 3872.7712 
5.9520274e+2, 2.229689e+2, -762457.9, -862962.7, -9782.933, -0.0027550096, -0.04608726, -761514.44, -6614.3354 
5.9521073e+2, 2.3295864e+2, -666959.9, -765587.8, -9326.63, -0.0014110901, -0.048394844, -666085.6, -9085.119 
5.952189e+2, 2.4294779e+2, -580840.0, -687308.3, -8494.418, -0.00064369093, -0.048856843, -580166.5, -21059.5 
5.95227e+2, 2.5293633e+2, -485937.53, -590651.3, -8569.464, -0.0012330035, -0.048072677, -485240.88, -24021.514 
5.952353e+2, 2.6292428e+2, -398960.6, -510416.63, -7316.819, -0.002315585, -0.046648074, -398482.3, -35144.973 
5.9524375e+2, 2.7291176e+2, -303478.97, -413037.88, -7236.9053, -0.0043729558, -0.04745964, -303003.0, -37542.68 
5.952525e+2, 2.8289828e+2, -221145.88, -343136.38, -5205.4126, -0.004831645, -0.047377042, -220924.16, -53332.113 
5.952615e+2, 2.9288384e+2, -125822.53, -246857.4, -4668.9956, -0.0017463792, -0.04851444, -125642.695, -55909.234 
5.952708e+2, 3.0287334e+2, -22216.727, -80666.71, -1984.8, -0.0014680123, -0.048224963, -22149.406, -22149.406 
5.9528047e+2, 3.1286737e+2, -23449.023, -77249.87, -1923.3695, -0.0075971396, -0.0487718, -23380.35, -23380.35 
6.051233e+2, 1.2303064e+2, -1664651.9, -1738355.5, 2011.9193, 0.002059011, -0.037589476, -1664597.0, 69697.99 
6.051324e+2, 1.3302544e+2, -1574858.9, -1650236.3, -3384.7832, 0.0053076795, -0.07368344, -1574707.3, 61638.883 
6.051411e+2, 1.4302061e+2, -1487169.9, -1567058.3, -4403.4746, -0.004205932, -0.030442262, -1486927.9, 51465.5 
6.051499e+2, 1.5301476e+2, -1392110.4, -1470809.4, -4634.441, 0.001603299, -0.04438455, -1391838.4, 48612.176 
6.051584e+2, 1.6300836e+2, -1305741.6, -1391668.6, -6507.9575, 0.0041456264, -0.053384386, -1305251.5, 37261.97 
6.0516655e+2, 1.7300153e+2, -1211468.6, -1295305.9, -6530.724, 0.00025769207, -0.049056567, -1210963.0, 33617.46 
6.051746e+2, 1.8299411e+2, -1124923.4, -1214992.5, -7920.7485, -0.0016445429, -0.04547079, -1124232.1, 22420.936 
6.051825e+2, 1.9298615e+2, -1029779.1, -1117924.0, -8492.531, 0.0006111604, -0.04802498, -1028968.4, 19762.672 
6.051904e+2, 2.0297757e+2, -944162.9, -1040221.56, -9167.139, 0.0013228485, -0.048874944, -943295.9, 7519.275 
6.0519814e+2, 2.1296835e+2, -849660.44, -943955.9, -8734.044, -0.0013449827, -0.0483749, -848858.25, 4047.164 
6.052059e+2, 2.2295861e+2, -762757.7, -863014.0, -8485.807, -0.0028265258, -0.047166117, -762044.5, -7043.433 
6.0521364e+2, 2.3294838e+2, -668196.25, -766035.0, -8839.041, -0.0016556673, -0.04772068, -667404.1, -10302.948 
6.052215e+2, 2.4293755e+2, -582592.06, -687849.2, -8417.051, -0.0009338577, -0.0474192, -581923.25, -22715.8 
6.0522944e+2, 2.5292608e+2, -487529.9, -591094.3, -8160.605, -0.0013128408, -0.048097312, -486890.8, -25571.21 
6.052375e+2, 2.6291406e+2, -400560.5, -510866.28, -6630.336, -0.0022507806, -0.047400575, -400163.38, -36725.992 
6.052457e+2, 2.7290156e+2, -305524.4, -413739.06, -6408.211, -0.004320489, -0.04723093, -305146.25, -39586.203 
6.052543e+2, 2.8288814e+2, -223803.02, -343839.72, -4450.5195, -0.0048277387, -0.046510242, -223638.23, -55946.88 
6.0526305e+2, 2.9287377e+2, -130088.664, -248279.23, -4395.4473, -0.0018935407, -0.047863495, -129925.43, -60093.215 
6.052722e+2, 3.0286333e+2, -26833.621, -82035.96, -1712.4567, -0.0016126003, -0.04783695, -26780.549, -26780.549 
6.052816e+2, 3.1285745e+2, -26037.854, -77616.12, -1001.65686, -0.0073727514, -0.04865789, -26018.408, -26018.408 
6.1512876e+2, 1.2302076e+2, -1666292.4, -1741842.8, 1166.0293, -0.00072765065, -0.038703177, -1666274.4, 68117.54 
6.1513764e+2, 1.330156e+2, -1574469.8, -1649550.6, -4524.9673, 0.0066044014, -0.07068025, -1574198.1, 62244.33 
6.151461e+2, 1.4301074e+2, -1487445.6, -1567748.6, -5177.3296, 0.0011377045, -0.033168066, -1487113.3, 51376.957 
6.151546e+2, 1.5300485e+2, -1392591.4, -1471874.8, -5306.8184, 0.00034954437, -0.04369843, -1392237.8, 48310.016 
6.151629e+2, 1.6299841e+2, -1305736.0, -1391744.3, -7422.865, -0.0002511552, -0.05126315, -1305100.1, 37510.85 
6.151709e+2, 1.7299154e+2, -1211360.3, -1295173.5, -7500.754, 0.0004928815, -0.050158676, -1210694.3, 33983.883 
6.151787e+2, 1.8298408e+2, -1125626.6, -1216507.8, -8739.077, 0.00075342116, -0.047425717, -1124793.9, 21957.346 
6.1518633e+2, 1.9297604e+2, -1030719.8, -1119899.3, -9254.238, -0.0004186601, -0.045622293, -1029769.6, 19060.496 
6.1519396e+2, 2.0296742e+2, -943637.44, -1039157.1, -9999.747, -0.0009854628, -0.04487136, -942601.8, 8312.833 
6.152015e+2, 2.1295828e+2, -848794.56, -942171.9, -9597.004, -0.00010529028, -0.04886307, -847818.44, 5185.681 
6.15209e+2, 2.2294857e+2, -763117.06, -863741.6, -9430.579, -0.000086396605, -0.049791537, -762240.8, -7141.442 
6.152165e+2, 2.3293829e+2, -668878.8, -767443.6, -9786.88, -0.001971282, -0.047138184, -667916.44, -10716.301 
6.1522406e+2, 2.4292742e+2, -582330.2, -687287.94, -9185.708, -0.003246414, -0.04528371, -581532.3, -22225.67 
6.1523175e+2, 2.52916e+2, -487065.44, -590086.44, -8892.416, -0.0030892296, -0.048272245, -486303.53, -24885.162 
6.152396e+2, 2.6290405e+2, -400275.3, -510162.28, -7428.2207, -0.0027052083, -0.049028143, -399775.47, -36239.83 
6.1524767e+2, 2.7289158e+2, -305318.6, -413169.66, -7219.075, -0.001962268, -0.048215833, -304837.53, -39179.727 
6.152559e+2, 2.8287822e+2, -223859.22, -343795.72, -5394.127, -0.0022857315, -0.04676887, -223617.11, -55828.355 
6.152644e+2, 2.9286388e+2, -130203.21, -248402.28, -5370.453, -0.004899912, -0.0473648, -129959.7, -60030.094 
6.152733e+2, 3.0285347e+2, -26023.006, -80204.45, -2177.9543, -0.005722515, -0.046646886, -25935.6, -25935.6 
6.1528265e+2, 3.1284773e+2, -25110.303, -75351.734, -1346.3699, -0.0025903492, -0.04692963, -25074.248, -25074.248 
6.2513447e+2, 1.2301113e+2, -1663452.5, -1742715.1, 2181.282, -0.00031301295, -0.04071185, -1663392.5, 71093.805 
6.25143e+2, 1.3300605e+2, -1569817.6, -1646970.0, -3830.676, 0.0054886118, -0.06552146, -1569627.9, 66908.13 
6.251512e+2, 1.430011e+2, -1483663.3, -1566469.9, -4376.4883, 0.0022624999, -0.035748344, -1483432.6, 55151.94 
6.251595e+2, 1.5299517e+2, -1390318.5, -1471588.1, -4455.2256, 0.00025441204, -0.044568315, -1390075.0, 50567.734 
6.251675e+2, 1.6298868e+2, -1304083.5, -1391377.1, -6729.3823, -0.0009363412, -0.05070579, -1303567.8, 39138.56 
6.2517524e+2, 1.729818e+2, -1209415.9, -1294603.8, -7120.4873, 0.00071810983, -0.04934399, -1208824.9, 35949.016 
6.251828e+2, 1.829743e+2, -1123797.0, -1216025.5, -8336.292, 0.0013642652, -0.04681446, -1123049.5, 23797.77 
6.251902e+2, 1.9296621e+2, -1029804.6, -1119910.9, -8188.765, -0.00061545393, -0.046104744, -1029066.5, 19860.172 
6.251976e+2, 2.0295756e+2, -943286.94, -1038967.9, -8782.288, -0.0015977104, -0.045618694, -942487.5, 8523.911 
6.2520486e+2, 2.1294844e+2, -849101.25, -942222.94, -9174.487, -0.0002631124, -0.048063222, -848205.94, 4894.7114 
6.25212e+2, 2.2293873e+2, -763871.6, -864070.94, -9321.194, 0.000094879535, -0.048418973, -763011.9, -7816.096 
6.252193e+2, 2.3292844e+2, -669387.9, -767704.94, -9042.125, -0.0017365881, -0.047368526, -668563.2, -11266.494 
6.252266e+2, 2.4291757e+2, -582898.75, -687419.5, -8111.058, -0.0031031014, -0.046244804, -582273.0, -22869.803 
6.2523407e+2, 2.529062e+2, -488752.1, -590752.2, -8212.33, -0.003349269, -0.047957566, -488095.13, -26580.418 
6.252417e+2, 2.6289424e+2, -402705.06, -510732.34, -7015.9893, -0.0030489296, -0.048038315, -402251.3, -38619.71 
6.2524945e+2, 2.7288184e+2, -308462.75, -413988.66, -6702.5605, -0.0016933545, -0.047971502, -308038.72, -42285.484 
6.252575e+2, 2.8286853e+2, -227256.25, -344948.63, -4618.5063, -0.0019209257, -0.047060665, -227075.3, -59191.605 
6.252657e+2, 2.928542e+2, -132349.6, -249046.78, -4318.8438, -0.0056010373, -0.047624636, -132189.97, -62165.758 
6.2527436e+2, 3.0284387e+2, -28155.56, -80417.23, -1206.6552, -0.006614176, -0.046673138, -28127.715, -28127.715 
6.252835e+2, 3.1283823e+2, -30970.469, -77274.37, -973.5938, -0.001727491, -0.046309773, -30950.008, -30950.008 
6.351403e+2, 1.2300173e+2, -1664574.4, -1745157.8, 1273.2849, 0.0031159187, -0.043734137, -1664554.3, 70024.13 
6.351485e+2, 1.3299677e+2, -1569673.0, -1646772.3, -4907.691, 0.002091363, -0.05831882, -1569361.9, 67265.27 
6.3515645e+2, 1.4299169e+2, -1483987.6, -1567243.8, -5424.4893, -0.00062425906, -0.038187988, -1483635.8, 55041.027 
6.3516444e+2, 1.529857e+2, -1390777.5, -1472621.4, -5482.747, 0.0012100202, -0.04689568, -1390411.9, 50323.758 
6.351722e+2, 1.6297914e+2, -1304533.4, -1392407.4, -7644.634, 0.0018369844, -0.051619582, -1303873.3, 38926.492 
6.351797e+2, 1.7297222e+2, -1209899.1, -1295671.0, -7995.7974, 0.0009293204, -0.04675041, -1209160.1, 35707.58 
6.35187e+2, 1.829647e+2, -1123582.8, -1215629.1, -9314.783, 0.00028478107, -0.043800026, -1122649.6, 24291.844 
6.3519406e+2, 1.9295657e+2, -1029447.44, -1119187.8, -9193.886, -0.000056006833, -0.049248688, -1028515.2, 20505.682 
6.3520116e+2, 2.0294791e+2, -943734.6, -1039905.5, -9820.681, -0.0006526799, -0.05076839, -942742.0, 8363.747 
6.3520813e+2, 2.1293879e+2, -849773.4, -943620.06, -10206.625, -0.0017201278, -0.046094157, -848676.1, 4519.1494 
6.352151e+2, 2.2292906e+2, -763524.44, -863348.56, -10214.787, -0.002106341, -0.043360233, -762489.9, -7199.3506 
6.352221e+2, 2.329188e+2, -668830.56, -766486.44, -9906.308, -0.001014778, -0.048332796, -667835.75, -10444.58 
6.352292e+2, 2.4290794e+2, -583036.44, -687630.94, -9113.221, -0.00072728674, -0.05004229, -582248.4, -22750.852 
6.352363e+2, 2.5289658e+2, -489099.44, -591376.2, -9235.67, -0.002235532, -0.047204994, -488272.13, -26663.18 
6.3524365e+2, 2.6288468e+2, -402379.53, -509959.13, -8012.7134, -0.0032997308, -0.044664226, -401786.0, -38060.336 
6.3525116e+2, 2.7287233e+2, -307986.1, -412887.0, -7701.0967, -0.0033280898, -0.046610247, -307423.75, -41577.03 
6.352589e+2, 2.8285906e+2, -226847.53, -343957.1, -5319.957, -0.003556732, -0.047378156, -226606.36, -58629.793 
6.3526696e+2, 2.928448e+2, -132042.06, -248162.81, -4939.172, -0.0042513916, -0.048564747, -131832.34, -61715.87 
6.352753e+2, 3.028345e+2, -28206.234, -80237.74, -2408.7744, -0.0046155388, -0.047785833, -28094.96, -28094.96 
6.3528407e+2, 3.1282887e+2, -31060.688, -77289.2, -2324.8315, -0.0043882253, -0.04667555, -30944.066, -30944.066 
6.451463e+2, 1.2299268e+2, -1660403.6, -1744603.8, 2443.1848, 0.0044272826, -0.04553969, -1660332.8, 74334.45 
6.451541e+2, 1.3298775e+2, -1566003.4, -1645305.0, -4094.472, 0.00027944756, -0.051766295, -1565792.6, 70922.97 
6.451618e+2, 1.4298254e+2, -1481267.4, -1566520.5, -4612.357, -0.00045741824, -0.0424773, -1481018.6, 57747.957 
6.451695e+2, 1.5297651e+2, -1387956.4, -1471956.4, -4566.371, 0.0017855486, -0.047176063, -1387708.9, 53116.72 
6.45177e+2, 1.6296995e+2, -1301806.9, -1391665.1, -6642.139, 0.0023714174, -0.049500216, -1301318.5, 41571.52 
6.451842e+2, 1.7296293e+2, -1208016.4, -1295351.0, -6849.7803, 0.00060485693, -0.046530377, -1207482.4, 37476.36 
6.4519125e+2, 1.8295535e+2, -1122244.0, -1215160.3, -8290.634, -0.00036793965, -0.044535704, -1121510.0, 25522.865 
6.4519805e+2, 1.9294725e+2, -1028745.44, -1118955.8, -8599.944, 0.00009804429, -0.048659645, -1027932.94, 21179.432 
6.4520484e+2, 2.0293859e+2, -943538.4, -1040070.7, -9309.13, -0.00010289257, -0.049682725, -942648.8, 8548.491 
6.4521146e+2, 2.129294e+2, -849474.56, -943807.8, -9233.878, -0.0017293422, -0.046441082, -848579.25, 4708.036 
6.4521813e+2, 2.2291966e+2, -763251.3, -863132.94, -9107.76, -0.002474394, -0.044270456, -762427.56, -7044.895 
6.4522487e+2, 2.3290943e+2, -669797.9, -766791.9, -9275.888, -0.0012682282, -0.047787953, -668918.75, -11435.711 
6.452316e+2, 2.428986e+2, -584863.9, -688193.7, -8668.688, -0.0008027965, -0.048762165, -584141.7, -24552.611 
6.452385e+2, 2.5288725e+2, -491049.22, -592007.75, -8334.696, -0.0020343065, -0.04689514, -490365.78, -28665.434 
6.452455e+2, 2.6287538e+2, -404386.66, -510607.38, -6860.7705, -0.0031780468, -0.044930436, -403945.34, -40128.555 
6.452527e+2, 2.7286303e+2, -310008.88, -413567.72, -6888.19, -0.0040623904, -0.046451733, -309552.72, -43615.164 
6.452602e+2, 2.8284985e+2, -229344.23, -344430.94, -4708.965, -0.004339669, -0.046871223, -229151.88, -61084.957 
6.45268e+2, 2.9283562e+2, -136825.38, -249656.44, -4302.3037, -0.003289779, -0.04794567, -136661.56, -66455.46 
6.452761e+2, 3.0282545e+2, -33637.766, -81877.69, -1581.3953, -0.0033216288, -0.04737025, -33585.98, -33585.98 
6.4528453e+2, 3.128199e+2, -33671.75, -77554.48, -946.7813, -0.0060140565, -0.047131002, -33651.332, -33651.332 
6.5515244e+2, 1.2298393e+2, -1661018.9, -1746012.1, 1130.0354, 0.0036827603, -0.046237428, -1661003.9, 73749.09 
6.551599e+2, 1.32979e+2, -1566395.3, -1646243.6, -5472.7876, -0.00006399544, -0.045814812, -1566021.9, 70779.44 
6.551672e+2, 1.429736e+2, -1481583.5, -1567308.5, -5673.881, 0.002553135, -0.048515234, -1481209.6, 57644.45 
6.551747e+2, 1.529676e+2, -1388276.0, -1472724.0, -5539.175, 0.0019928615, -0.045554407, -1387914.1, 52998.74 
6.551819e+2, 1.6296102e+2, -1302000.9, -1392176.6, -7724.7183, 0.00079262274, -0.04454214, -1301344.0, 41633.535 
6.551888e+2, 1.729539e+2, -1208217.3, -1295844.9, -7951.195, -0.00024589774, -0.048501853, -1207501.6, 37545.49 
6.551955e+2, 1.8294628e+2, -1122613.9, -1215974.5, -9454.382, -0.0006605159, -0.04875846, -1121666.0, 25455.975 
6.55202e+2, 1.9293818e+2, -1029164.6, -1119887.0, -9771.312, -0.00013660819, -0.04463767, -1028124.1, 21077.174 
6.552084e+2, 2.0292951e+2, -943410.25, -1039855.1, -10333.814, 0.000057748686, -0.042828307, -942315.44, 8970.871 
6.5521485e+2, 2.1292026e+2, -849262.06, -943353.94, -10219.57, -0.0004258204, -0.048896186, -848164.9, 5211.9683 
6.5522116e+2, 2.229105e+2, -763478.8, -863575.7, -10270.93, -0.0011718363, -0.05066537, -762435.75, -6963.252 
6.5522754e+2, 2.3290028e+2, -670158.7, -767502.6, -10473.219, -0.0024164547, -0.045882612, -669044.6, -11472.006 
6.55234e+2, 2.4288951e+2, -584435.6, -687271.8, -9744.984, -0.003141342, -0.042839035, -583520.3, -23842.012 
6.552406e+2, 2.528782e+2, -490459.13, -590701.4, -9386.302, -0.0026855778, -0.046973385, -489587.8, -27798.59 
6.5524733e+2, 2.6286632e+2, -404409.75, -510552.63, -7870.5737, -0.0027310546, -0.048502356, -403829.3, -39923.914 
6.552542e+2, 2.72854e+2, -310245.25, -413900.8, -7873.9653, -0.003995095, -0.04738846, -309650.53, -43624.453 
6.552614e+2, 2.8284085e+2, -229045.19, -343649.63, -5886.8315, -0.0043729185, -0.04561961, -228743.6, -60588.426 
6.5526885e+2, 2.928267e+2, -136394.61, -248608.06, -5541.5386, -0.002686243, -0.04592712, -136121.61, -65828.03 
6.5527666e+2, 3.0281663e+2, -32741.344, -79836.04, -2304.8096, -0.0026768616, -0.04558123, -32628.816, -32628.816 
6.552848e+2, 3.128112e+2, -32734.746, -75310.0, -1542.4716, -0.0067634233, -0.047658283, -32678.938, -32678.938 
6.651588e+2, 1.2297554e+2, -1656913.4, -1744629.8, 2370.164, 0.003848724, -0.048354894, -1656849.4, 77985.79 
6.6516584e+2, 1.3297062e+2, -1562804.8, -1645622.9, -4439.8315, -0.0011138024, -0.039053667, -1562567.4, 74316.24 
6.651729e+2, 1.4296502e+2, -1478055.6, -1566401.8, -4571.0225, 0.0040826686, -0.05282336, -1477819.8, 61118.516 
6.6517997e+2, 1.5295899e+2, -1385210.6, -1471986.9, -4471.2124, 0.0019219304, -0.046263486, -1384980.9, 56016.66 
6.651869e+2, 1.6295235e+2, -1299414.9, -1391361.5, -6906.7026, -0.00011679029, -0.04286865, -1298898.9, 44163.51 
6.6519344e+2, 1.729452e+2, -1206657.6, -1295476.9, -7189.7573, -0.00013079133, -0.04792119, -1206079.4, 39053.105 
6.651998e+2, 1.8293752e+2, -1121685.5, -1215995.1, -8570.21, -0.000054265074, -0.04896792, -1120913.0, 26294.77 
6.65206e+2, 1.9292939e+2, -1027881.25, -1119782.3, -8741.665, -0.0003065567, -0.044775747, -1027057.1, 22230.418 
6.6521215e+2, 2.0292069e+2, -942016.3, -1039214.75, -9354.518, -0.00046776654, -0.04269042, -941124.2, 10248.611 
6.652182e+2, 2.1291146e+2, -849323.3, -943331.5, -9439.619, -0.00034142073, -0.048074525, -848384.8, 5078.3506 
6.6522425e+2, 2.2290169e+2, -764596.2, -864114.75, -9509.681, -0.00082032837, -0.04969926, -763695.6, -8136.8193 
6.652302e+2, 2.3289147e+2, -671143.25, -768038.6, -9425.008, -0.002609629, -0.045981422, -670235.0, -12575.971 
6.652364e+2, 2.4288069e+2, -585300.9, -687419.6, -8615.169, -0.0036071027, -0.043448277, -584579.1, -24814.453 
6.652426e+2, 2.5286943e+2, -491998.63, -591119.2, -8677.813, -0.00280375, -0.04678016, -491244.63, -29369.377 
6.6524905e+2, 2.6285762e+2, -406617.94, -511137.53, -7299.2964, -0.0025628172, -0.047851086, -406110.66, -42119.613 
6.652556e+2, 2.728453e+2, -313281.56, -414879.25, -6885.0527, -0.003723184, -0.04713912, -312817.13, -46705.78 
6.6526246e+2, 2.8283218e+2, -232497.83, -344768.78, -4723.6914, -0.0042834044, -0.04569173, -232299.44, -64059.445 
6.652696e+2, 2.9281813e+2, -139438.44, -249555.9, -4606.6523, -0.0033852695, -0.04606857, -139246.06, -68868.125 
6.652771e+2, 3.0280808e+2, -35855.496, -80374.98, -1442.7656, -0.0034699803, -0.04543498, -35808.79, -35808.79 
6.6528505e+2, 3.1280276e+2, -37928.254, -76768.13, -1096.7013, -0.0061125834, -0.04644313, -37897.313, -37897.313 
6.7516536e+2, 1.2296749e+2, -1656967.0, -1744869.4, 891.72986, 0.0048250463, -0.05180059, -1656958.0, 77956.18 
6.751719e+2, 1.3296254e+2, -1563682.4, -1647571.8, -5851.4014, -0.002834701, -0.03154168, -1563276.1, 73686.516 
6.751786e+2, 1.4295672e+2, -1478620.4, -1567705.9, -5736.7427, 0.0041981367, -0.055510238, -1478252.5, 60767.094 
6.7518544e+2, 1.5295061e+2, -1385738.3, -1473167.6, -5562.8887, 0.0015660988, -0.04913543, -1385385.8, 55693.785 
6.7519194e+2, 1.6294393e+2, -1299688.6, -1391992.1, -8221.381, -0.00043058934, -0.044257984, -1298962.0, 44182.92 
6.751982e+2, 1.7293678e+2, -1206863.5, -1295994.1, -8555.721, 0.00086297264, -0.0449892, -1206049.6, 39165.402 
6.7520416e+2, 1.8292908e+2, -1121834.3, -1216393.6, -9691.482, 0.0013597695, -0.04544925, -1120851.1, 26439.418 
6.7521006e+2, 1.9292083e+2, -1028081.5, -1120219.6, -9790.369, -0.00042734967, -0.048730083, -1027052.7, 22318.627 
6.752159e+2, 2.0291208e+2, -942159.25, -1039495.3, -10670.372, -0.0016459792, -0.048745126, -941003.25, 10453.795 
6.7522156e+2, 2.1290293e+2, -849456.25, -943598.5, -10821.612, -0.0013941476, -0.044273343, -848228.3, 5318.405 
6.752272e+2, 2.2289322e+2, -764409.7, -863748.75, -10703.696, -0.0013685195, -0.041980803, -763269.5, -7627.4854 
6.752329e+2, 2.3288293e+2, -670922.4, -767562.8, -10566.82, -0.0019419959, -0.047886655, -669780.5, -12037.718 
6.752387e+2, 2.4287212e+2, -585421.56, -687621.1, -9829.803, -0.002377237, -0.05001629, -584484.75, -24636.059 
6.7524457e+2, 2.5286087e+2, -492240.9, -591553.0, -9903.691, -0.0024447965, -0.046354163, -491262.9, -29304.063 
6.7525065e+2, 2.6284912e+2, -406163.53, -510079.22, -8498.8, -0.0026601935, -0.04336428, -405473.06, -41398.91 
6.752569e+2, 2.7283692e+2, -312669.63, -413469.13, -8087.4185, -0.0032826613, -0.045810714, -312024.88, -45831.105 
6.752634e+2, 2.8282383e+2, -232336.08, -344269.56, -5860.743, -0.0041060145, -0.046952784, -232030.06, -63708.17 
6.752702e+2, 2.9280978e+2, -139445.08, -249361.97, -5719.8413, -0.005267263, -0.04814843, -139148.23, -68688.516 
6.7527735e+2, 3.0279973e+2, -35783.89, -79981.96, -2577.0884, -0.005571774, -0.04676411, -35634.137, -35634.137 
6.75285e+2, 3.1279454e+2, -37871.824, -76371.25, -2237.1252, -0.004259947, -0.04367809, -37742.266, -37742.266 
6.8517196e+2, 1.2295982e+2, -1652602.3, -1742595.6, 2051.5503, 0.0053762067, -0.053920798, -1652555.5, 82433.81 
6.8517816e+2, 1.329548e+2, -1560171.6, -1647682.6, -4726.5337, -0.00414586, -0.025568949, -1559917.0, 77121.375 
6.8518454e+2, 1.4294879e+2, -1474703.5, -1566664.4, -4676.15, 0.005017735, -0.0580309, -1474466.4, 64631.05 
6.85191e+2, 1.5294263e+2, -1383244.4, -1472607.1, -4336.845, 0.0018198865, -0.049820546, -1383034.5, 58123.32 
6.851971e+2, 1.6293591e+2, -1297974.3, -1391790.9, -6882.399, -0.00058388367, -0.04353407, -1297472.1, 45751.54 
6.85203e+2, 1.7292869e+2, -1204283.8, -1295400.5, -7347.8413, 0.0008233431, -0.044416532, -1203695.0, 41599.223 
6.852087e+2, 1.8292095e+2, -1119035.3, -1215276.1, -8649.128, 0.0014251035, -0.045028698, -1118264.3, 29106.076 
6.8521416e+2, 1.9291268e+2, -1027324.5, -1120027.0, -8673.627, -0.00031958567, -0.04835189, -1026519.94, 22931.23 
6.852196e+2, 2.0290393e+2, -942738.0, -1040019.1, -9474.707, -0.0016246957, -0.04850032, -941823.8, 9713.226 
6.852249e+2, 2.1289474e+2, -849548.56, -943942.4, -9672.947, -0.001755239, -0.044360097, -848567.5, 5059.464 
6.852302e+2, 2.2288503e+2, -764134.9, -863484.06, -9602.533, -0.0017656882, -0.042101137, -763215.25, -7492.8696 
6.8523556e+2, 2.3287475e+2, -671465.1, -767628.3, -9572.363, -0.0016356359, -0.047383018, -670521.5, -12698.608 
6.85241e+2, 2.4286397e+2, -586768.94, -688099.5, -8866.775, -0.0018408463, -0.0492305, -585998.94, -26070.365 
6.8524647e+2, 2.5285274e+2, -494192.03, -592354.5, -8686.33, -0.0027719468, -0.046074178, -493429.28, -31390.617 
6.852522e+2, 2.6284102e+2, -408424.78, -510700.94, -7168.4927, -0.0034031612, -0.043341413, -407924.78, -43771.047 
6.8525803e+2, 2.7282885e+2, -315287.16, -414204.9, -7115.5586, -0.0033854966, -0.04543171, -314777.94, -48505.074 
6.852642e+2, 2.828158e+2, -235339.92, -345085.72, -5034.6187, -0.0038504095, -0.04628782, -235109.44, -66708.98 
6.852706e+2, 2.9280183e+2, -143074.75, -250493.48, -4647.1104, -0.0053504016, -0.04740389, -142874.1, -72336.37 
6.8527746e+2, 3.0279186e+2, -39901.637, -81184.4, -1267.2407, -0.0059218383, -0.04620755, -39862.773, -39862.773 
6.8528473e+2, 3.1278667e+2, -42501.758, -77802.02, -688.90564, -0.0046810033, -0.04388441, -42488.32, -42488.32 
6.9517875e+2, 1.2295252e+2, -1652220.6, -1741964.8, 567.19977, 0.0054741325, -0.054736387, -1652217.0, 82843.87 
6.9518465e+2, 1.329474e+2, -1561446.6, -1650435.9, -6007.898, -0.005089762, -0.021037241, -1561042.9, 76068.27 
6.9519055e+2, 1.4294116e+2, -1475097.8, -1567602.1, -6138.651, 0.0064606313, -0.06040175, -1474692.3, 64479.934 
6.9519657e+2, 1.52935e+2, -1383411.4, -1473099.3, -5842.937, 0.0026148113, -0.04848209, -1383032.4, 58200.176 
6.952024e+2, 1.6292825e+2, -1298362.9, -1392734.1, -8084.2495, -0.00061270746, -0.04084537, -1297675.3, 45623.426 
6.952079e+2, 1.7292091e+2, -1204807.6, -1296530.0, -8456.1, -0.0001945583, -0.046015665, -1204034.6, 41335.957 
6.952132e+2, 1.829131e+2, -1119132.6, -1215499.8, -10155.024, 0.00020661327, -0.04747505, -1118074.3, 29372.951 
6.952183e+2, 1.929049e+2, -1027300.5, -1120034.9, -10281.739, -0.000020194011, -0.044010986, -1026174.2, 23353.236 
6.9522333e+2, 2.0289616e+2, -942857.9, -1040346.9, -10786.611, -0.000525741, -0.042460985, -941678.7, 9934.544 
6.952283e+2, 2.1288686e+2, -849770.5, -944417.5, -10895.446, -0.0015016603, -0.047982525, -848532.44, 5171.9126 
6.952332e+2, 2.2287706e+2, -764152.44, -863529.5, -10942.192, -0.0020460356, -0.049393788, -762961.9, -7161.599 
6.952382e+2, 2.328669e+2, -671466.94, -767598.06, -10939.154, -0.0016673361, -0.044707943, -670237.8, -12337.93 
6.9524324e+2, 2.4285619e+2, -586526.6, -687509.44, -10236.756, -0.0019586547, -0.04174976, -585499.3, -25494.375 
6.952483e+2, 2.5284493e+2, -493902.97, -591669.2, -10057.707, -0.0037403698, -0.045907944, -492879.0, -30763.754 
6.952536e+2, 2.6283318e+2, -408412.0, -510570.1, -8478.437, -0.0047445977, -0.047359817, -407713.13, -43482.81 
6.9525915e+2, 2.7282107e+2, -315395.5, -414287.66, -8402.71, -0.003993568, -0.04591954, -314686.63, -48337.45 
6.952649e+2, 2.828081e+2, -234956.81, -344094.25, -6301.456, -0.0035532177, -0.04388766, -234594.19, -66117.95 
6.95271e+2, 2.927942e+2, -142589.02, -249245.66, -5916.8706, -0.0038359603, -0.04412227, -142261.77, -71649.22 
6.952774e+2, 3.0278432e+2, -39327.383, -79742.484, -2542.888, -0.00471152, -0.043950394, -39168.01, -39168.01 
6.952843e+2, 3.1277922e+2, -41954.32, -76368.125, -1971.9873, -0.0071688397, -0.046738517, -41841.688, -41841.688 
7.051857e+2, 1.22945644e+2, -1647023.1, -1738638.6, 1817.2986, 0.0059416513, -0.054647602, -1646987.1, 88141.27 
7.0519114e+2, 1.3294037e+2, -1558880.6, -1651290.3, -4504.605, -0.006123515, -0.018477876, -1558661.6, 78518.35 
7.051968e+2, 1.4293395e+2, -1472086.6, -1567107.6, -4723.4326, 0.0072814226, -0.062816575, -1471852.4, 67390.5 
7.052024e+2, 1.5292776e+2, -1379507.9, -1471917.4, -4634.5854, 0.0029647546, -0.04799969, -1379276.1, 62027.637 
7.0520777e+2, 1.6292094e+2, -1294633.4, -1391416.3, -7000.25, -0.00070059765, -0.038782217, -1294129.6, 49240.64 
7.052129e+2, 1.7291357e+2, -1203557.3, -1296419.9, -7158.9136, -0.00050646224, -0.045652337, -1203008.5, 42434.137 
7.052178e+2, 1.829057e+2, -1119189.4, -1215939.1, -8756.7295, -0.00012969405, -0.048051782, -1118403.3, 29116.525 
7.052225e+2, 1.9289747e+2, -1026120.44, -1119900.8, -9134.223, 0.000021730455, -0.043697227, -1025239.0, 24361.293 
7.0522714e+2, 2.028887e+2, -941000.25, -1039547.8, -9763.11, -0.00025172252, -0.041602883, -940042.4, 11643.979 
7.052316e+2, 2.1287939e+2, -849210.06, -944202.3, -9688.351, -0.0013477644, -0.047434658, -848232.0, 5545.546 
7.052362e+2, 2.228696e+2, -764759.75, -863835.7, -9668.837, -0.0020834305, -0.04905771, -763825.0, -7951.473 
7.052407e+2, 2.3285943e+2, -672863.2, -768308.06, -9732.161, -0.0020428284, -0.04431389, -671880.94, -13907.798 
7.052454e+2, 2.4284872e+2, -588186.06, -687952.44, -9018.516, -0.002405448, -0.04133152, -587377.4, -27299.326 
7.052501e+2, 2.528375e+2, -495514.34, -592020.1, -8899.545, -0.0036817698, -0.045548085, -494700.5, -32512.543 
7.05255e+2, 2.6282582e+2, -410320.28, -511070.5, -7348.9106, -0.004469653, -0.04702042, -409787.06, -45484.4 
7.052601e+2, 2.728137e+2, -318272.3, -415287.75, -7054.7637, -0.0041776397, -0.045530822, -317762.0, -51340.82 
7.0526546e+2, 2.8280082e+2, -238425.55, -345124.53, -4759.1743, -0.0040401327, -0.043559935, -238213.69, -69665.9 
7.052712e+2, 2.9278696e+2, -146318.0, -250359.97, -4562.421, -0.00423692, -0.044071466, -146118.31, -75434.766 
7.052772e+2, 3.0277717e+2, -43239.973, -80517.24, -1420.1492, -0.00487554, -0.04395537, -43185.945, -43185.945 
7.052837e+2, 3.1277215e+2, -46694.63, -77456.164, -893.9743, -0.0067555285, -0.04630762, -46668.67, -46668.67 
7.151928e+2, 1.2293915e+2, -1646257.3, -1737209.1, 61.702656, 0.006697172, -0.05361551, -1646257.3, 88934.914 
7.151978e+2, 1.3293372e+2, -1560130.5, -1654032.9, -5976.695, -0.007255292, -0.017759264, -1559751.6, 77493.555 
7.1520305e+2, 1.4292711e+2, -1472765.4, -1568675.9, -6064.06, 0.0074993246, -0.065270126, -1472383.5, 66926.484 
7.152083e+2, 1.5292083e+2, -1380099.3, -1473226.8, -5927.781, 0.0028802806, -0.048307784, -1379723.5, 61648.02 
7.152133e+2, 1.62914e+2, -1294787.1, -1391787.4, -8677.04, -0.0008704577, -0.03730301, -1294017.0, 49421.563 
7.152179e+2, 1.7290659e+2, -1203586.3, -1296571.6, -8932.619, -0.00018819964, -0.04349276, -1202735.9, 42775.11 
7.152224e+2, 1.8289869e+2, -1119518.3, -1216757.4, -10124.262, 0.0003198561, -0.046901602, -1118475.4, 29113.137 
7.152267e+2, 1.9289035e+2, -1026608.7, -1120960.8, -10377.241, -0.00018236047, -0.04706448, -1025480.8, 24189.371 
7.1523094e+2, 2.0288153e+2, -940979.6, -1039509.56, -11268.836, -0.0007555049, -0.045499686, -939707.25, 12049.434 
7.1523505e+2, 2.1287231e+2, -849080.3, -943903.3, -11263.126, -0.0013041933, -0.043104425, -847760.8, 6086.139 
7.152391e+2, 2.2286257e+2, -764781.2, -863864.1, -11233.648, -0.0019209236, -0.041761197, -763523.56, -7581.017 
7.152432e+2, 2.3285231e+2, -672953.06, -768467.0, -11284.784, -0.0027393806, -0.04597673, -671637.94, -13594.87 
7.1524745e+2, 2.4284156e+2, -588050.9, -687633.5, -10413.1875, -0.0031694327, -0.047333274, -586973.6, -26825.293 
7.1525174e+2, 2.5283042e+2, -495380.03, -591631.5, -10252.165, -0.002707706, -0.04502554, -494300.13, -32042.736 
7.152563e+2, 2.628188e+2, -409990.6, -510236.97, -8848.442, -0.0027436242, -0.04273633, -409215.56, -44844.21 
7.152609e+2, 2.7280676e+2, -317903.97, -414377.06, -8595.614, -0.0039940146, -0.044342138, -317144.1, -50654.62 
7.1526587e+2, 2.8279385e+2, -238236.52, -344564.44, -6138.7393, -0.0052592857, -0.045085914, -237883.28, -69267.5 
7.152712e+2, 2.9278004e+2, -146245.72, -249964.52, -5894.3223, -0.006371833, -0.046918046, -145911.81, -75160.484 
7.1527684e+2, 3.027703e+2, -42777.18, -79273.73, -2882.1736, -0.0062915687, -0.0459872, -42550.973, -42550.973 
7.152829e+2, 3.1276545e+2, -46126.184, -76012.28, -2403.041, -0.0038037293, -0.042942476, -45934.2, -45934.2 
7.2520006e+2, 1.229331e+2, -1641261.0, -1734084.9, 1517.2137, 0.0071686865, -0.05362278, -1641236.3, 94015.22 
7.252047e+2, 1.3292749e+2, -1556676.1, -1654828.6, -4433.932, -0.008006168, -0.017032357, -1556476.3, 80830.05 
7.2520953e+2, 1.4292072e+2, -1468628.0, -1567601.0, -4745.436, 0.0080074, -0.06401105, -1468401.0, 70971.67 
7.2521436e+2, 1.5291438e+2, -1377732.4, -1472642.0, -4377.7783, 0.002789214, -0.048412587, -1377530.9, 63904.03 
7.252189e+2, 1.6290747e+2, -1293395.9, -1391716.8, -7046.848, -0.0012102368, -0.037951063, -1292893.4, 50609.105 
7.2522306e+2, 1.7290004e+2, -1200858.9, -1295898.3, -7605.692, 0.000098052944, -0.04275703, -1200254.1, 45321.234 
7.252271e+2, 1.8289208e+2, -1116300.0, -1215517.9, -8898.593, 0.0008186615, -0.045569114, -1115508.3, 32144.906 
7.2523093e+2, 1.9288372e+2, -1025483.0, -1120700.3, -8829.452, -0.00042960193, -0.046947587, -1024671.2, 25064.059 
7.2523475e+2, 2.0287487e+2, -941351.0, -1039856.3, -9618.488, -0.0013570855, -0.04593604, -940420.56, 11401.381 
7.252384e+2, 2.1286565e+2, -849628.5, -944359.56, -9878.678, -0.0013523225, -0.042548377, -848609.3, 5303.012 
7.252421e+2, 2.228559e+2, -765189.7, -863945.8, -9934.725, -0.001668366, -0.04075485, -764200.2, -8192.285 
7.252457e+2, 2.3284565e+2, -673154.0, -768416.25, -9822.361, -0.0028252886, -0.04577404, -672151.75, -14043.416 
7.252495e+2, 2.428349e+2, -588619.5, -687755.1, -8915.985, -0.0034106236, -0.04749747, -587824.0, -27610.428 
7.252534e+2, 2.528238e+2, -497485.7, -592539.1, -8903.624, -0.0026776637, -0.044548556, -496658.88, -34336.434 
7.2525746e+2, 2.628122e+2, -412797.13, -510998.34, -7563.126, -0.0026316578, -0.041936807, -412218.06, -47781.973 
7.252616e+2, 2.728002e+2, -320459.06, -414916.13, -7340.2036, -0.0042371894, -0.043981995, -319892.06, -53338.418 
7.2526616e+2, 2.8278738e+2, -241089.16, -345276.7, -4886.2188, -0.0055361874, -0.04493727, -240860.5, -72181.13 
7.2527105e+2, 2.927736e+2, -150523.45, -251410.53, -4510.3027, -0.005951088, -0.04640893, -150322.2, -79507.875 
7.2527623e+2, 3.0276394e+2, -47611.28, -80639.16, -1333.4924, -0.0058565387, -0.045362014, -47557.53, -47557.53 
7.252819e+2, 3.127592e+2, -50297.395, -77002.63, -926.5629, -0.00489381, -0.04279511, -50265.285, -50265.285 
7.352075e+2, 1.2292746e+2, -1640951.9, -1733631.6, -191.67215, 0.0073112044, -0.05452561, -1640951.5, 94355.17 
7.3521173e+2, 1.3292165e+2, -1558384.6, -1658499.0, -5754.958, -0.008420059, -0.01631048, -1558054.9, 79308.766 
7.352162e+2, 1.4291473e+2, -1468979.6, -1568471.8, -6467.074, 0.008752315, -0.059327684, -1468561.1, 70870.33 
7.352205e+2, 1.5290833e+2, -1377735.8, -1472802.6, -6203.512, 0.002665425, -0.04832282, -1377332.6, 64161.484 
7.3522455e+2, 1.6290137e+2, -1293856.6, -1392823.3, -8534.485, -0.0017308862, -0.040550962, -1293126.1, 50436.25 
7.3522836e+2, 1.7289385e+2, -1201509.0, -1297323.0, -8984.572, 0.00033118142, -0.0433345, -1200673.9, 44962.168 
7.3523194e+2, 1.8288587e+2, -1116302.4, -1215574.3, -10622.631, 0.0013232008, -0.04408193, -1115178.4, 32535.826 
7.352353e+2, 1.9287752e+2, -1025325.25, -1120428.4, -10645.252, -0.0007327414, -0.043663323, -1024148.25, 25647.766 
7.352386e+2, 2.0286867e+2, -941546.6, -1040341.44, -11276.992, -0.0020689124, -0.043213196, -940275.75, 11607.036 
7.3524183e+2, 2.1285935e+2, -849964.9, -945095.06, -11478.783, -0.0015023777, -0.04542266, -848599.44, 5374.7056 
7.35245e+2, 2.2284955e+2, -765045.75, -863678.9, -11452.945, -0.0013582332, -0.045481887, -763733.4, -7663.279 
7.352482e+2, 2.328394e+2, -672942.25, -767934.3, -11320.116, -0.0023696343, -0.043898884, -671611.9, -13442.281 
7.3525155e+2, 2.4282873e+2, -588658.8, -687747.56, -10620.374, -0.0032003296, -0.042371478, -587533.3, -27259.03 
7.3525494e+2, 2.5281754e+2, -497602.56, -592700.7, -10653.944, -0.0035207293, -0.044101648, -496423.63, -34039.92 
7.3525846e+2, 2.6280594e+2, -412536.28, -510369.34, -9083.137, -0.0039959247, -0.044284057, -411700.13, -47202.65 
7.3526233e+2, 2.72794e+2, -320156.3, -414132.13, -8801.701, -0.0048813513, -0.04437633, -319339.03, -52724.734 
7.3526645e+2, 2.8278127e+2, -240702.48, -344274.78, -6537.919, -0.004992071, -0.043281976, -240291.4, -71552.2 
7.3527074e+2, 2.927676e+2, -150129.9, -250388.56, -6216.823, -0.003254637, -0.042886116, -149745.88, -78872.59 
7.352755e+2, 3.0275804e+2, -47166.94, -79504.516, -2739.0547, -0.0037705284, -0.042342924, -46936.58, -46936.58 
7.352807e+2, 3.127533e+2, -49924.03, -75914.0, -2249.742, -0.009632375, -0.0455306, -49730.727, -49730.727 
7.452152e+2, 1.2292229e+2, -1635571.1, -1730460.3, 1039.9677, 0.0071685812, -0.05288174, -1635559.8, 99797.67 
7.4521893e+2, 1.3291626e+2, -1555485.8, -1659256.6, -3761.8726, -0.0087771565, -0.018849567, -1555349.5, 82066.914 
7.45223e+2, 1.4290924e+2, -1465681.3, -1567839.6, -4586.5015, 0.009504772, -0.057038583, -1465475.8, 74009.414 
7.452268e+2, 1.5290277e+2, -1373835.6, -1471594.0, -4719.6826, 0.0029310987, -0.04690023, -1373608.3, 67940.39 
7.452303e+2, 1.6289574e+2, -1290219.3, -1391619.4, -7117.297, -0.0018710954, -0.040041666, -1289722.1, 53895.38 
7.4523365e+2, 1.7288817e+2, -1199853.6, -1297100.5, -7238.7173, 0.00004206732, -0.043412894, -1199317.8, 46373.953 
7.452368e+2, 1.8288015e+2, -1115790.5, -1215732.4, -8854.165, 0.0010586749, -0.044160854, -1115012.1, 32758.2 
7.452397e+2, 1.9287178e+2, -1024401.9, -1120384.1, -9261.048, -0.0006175586, -0.042518906, -1023516.5, 26335.836 
7.452425e+2, 2.028629e+2, -940296.1, -1039851.6, -10007.591, -0.0018093593, -0.041690663, -939300.06, 12639.216 
7.4524516e+2, 2.1285357e+2, -849162.6, -944793.4, -9914.163, -0.0016499188, -0.045410212, -848145.6, 5885.234 
7.452479e+2, 2.2284375e+2, -765001.7, -863626.5, -9791.919, -0.0016638077, -0.046102647, -764038.94, -7912.0254 
7.4525064e+2, 2.3283362e+2, -674376.94, -768623.2, -9910.538, -0.002262074, -0.043132737, -673346.06, -15119.757 
7.452535e+2, 2.4282295e+2, -590739.3, -688364.56, -9272.355, -0.0029774448, -0.04090484, -589866.44, -29535.639 
7.452564e+2, 2.5281182e+2, -499203.34, -592999.7, -8978.937, -0.0038941584, -0.043570448, -498351.53, -35911.637 
7.452595e+2, 2.6280028e+2, -414248.22, -510789.34, -7215.63, -0.004581937, -0.044297405, -413711.9, -49158.566 
7.452628e+2, 2.7278835e+2, -323220.88, -415269.7, -7120.324, -0.0047754953, -0.043952435, -322673.34, -56003.516 
7.4526644e+2, 2.8277567e+2, -244373.39, -345320.72, -5007.933, -0.0046092183, -0.042568486, -244125.56, -75331.3 
7.452703e+2, 2.9276204e+2, -153447.45, -251197.97, -4733.0713, -0.0036089374, -0.042286422, -153218.81, -82291.16 
7.452746e+2, 3.0275255e+2, -50743.06, -80265.63, -1231.3756, -0.004395161, -0.041711282, -50691.79, -50691.79 
7.452794e+2, 3.127479e+2, -55364.047, -77568.48, -730.61163, -0.009317889, -0.044475306, -55340.035, -55340.035 
7.552229e+2, 1.2291755e+2, -1635010.6, -1729463.4, -880.3568, 0.006700784, -0.04884272, -1635002.5, 100401.45 
7.552263e+2, 1.329113e+2, -1556397.8, -1661290.5, -5269.5625, -0.00909986, -0.02438583, -1556133.8, 81331.33 
7.5522983e+2, 1.4290422e+2, -1466369.0, -1569426.1, -6253.994, 0.010240025, -0.056946088, -1465990.9, 73543.6 
7.552332e+2, 1.5289766e+2, -1374517.0, -1473108.8, -6413.372, 0.003530044, -0.0442658, -1374101.6, 67497.23 
7.5523627e+2, 1.6289057e+2, -1290371.1, -1391983.3, -8980.731, -0.0016902665, -0.036693644, -1289583.5, 54084.78 
7.5523907e+2, 1.7288294e+2, -1199880.5, -1297203.3, -9142.057, -0.00073779793, -0.043038506, -1199029.1, 46713.734 
7.552417e+2, 1.8287487e+2, -1116197.4, -1216677.3, -10592.299, 0.00006989456, -0.045670047, -1115092.9, 32729.129 
7.552441e+2, 1.9286644e+2, -1024964.0, -1121603.9, -10933.19, -0.0001363585, -0.04332825, -1023742.56, 26162.227 
7.552464e+2, 2.0285752e+2, -940218.3, -1039720.75, -11711.233, -0.00069093355, -0.04127221, -938858.5, 13133.601 
7.552486e+2, 2.1284822e+2, -848959.6, -944350.6, -11629.211, -0.0018143307, -0.04279408, -847562.4, 6520.8335 
7.552509e+2, 2.2283845e+2, -765136.94, -863884.25, -11642.269, -0.0025553752, -0.043001987, -763782.94, -7603.862 
7.552531e+2, 2.3282823e+2, -674626.25, -769109.2, -11782.995, -0.0024819057, -0.04336737, -673178.94, -14899.864 
7.5525534e+2, 2.4281757e+2, -590324.8, -687484.4, -10935.833, -0.002758348, -0.042757407, -589109.2, -28725.496 
7.552578e+2, 2.5280654e+2, -498668.1, -591805.1, -10594.199, -0.0038563125, -0.042972665, -497478.22, -34986.504 
7.552604e+2, 2.6279503e+2, -414172.78, -510466.97, -8996.926, -0.0044812057, -0.042204417, -413339.38, -48734.984 
7.5526327e+2, 2.7278313e+2, -323295.9, -415244.75, -8938.523, -0.004011194, -0.0427899, -322435.03, -55714.094 
7.5526637e+2, 2.8277048e+2, -244098.78, -344568.63, -6653.604, -0.0043970626, -0.04269524, -243660.06, -74814.82 
7.552697e+2, 2.927569e+2, -153136.81, -250297.3, -6333.1265, -0.0067201303, -0.044311024, -152725.73, -81747.555 
7.552736e+2, 3.0274746e+2, -50325.82, -79123.945, -3000.2603, -0.007475947, -0.043224923, -50016.566, -50016.566 
7.552778e+2, 3.1274298e+2, -54938.86, -76404.46, -2548.6226, -0.0045254393, -0.04002998, -54640.41, -54640.41 
7.652309e+2, 1.2291329e+2, -1630279.4, -1727062.1, 733.969, 0.0071128597, -0.046576515, -1630273.9, 105171.81 
7.652338e+2, 1.3290684e+2, -1552492.3, -1661069.6, -3345.1104, -0.009449684, -0.02882734, -1552389.3, 85119.44 
7.652369e+2, 1.4289972e+2, -1462239.9, -1568368.9, -4664.606, 0.010020448, -0.053541463, -1462035.3, 77543.414 
7.652398e+2, 1.5289307e+2, -1371690.8, -1472548.1, -4693.2007, 0.0035339894, -0.043412395, -1371472.9, 70171.05 
7.6524234e+2, 1.6288589e+2, -1288314.8, -1391553.1, -7186.6084, -0.0015535903, -0.037387416, -1287816.9, 55897.31 
7.6524454e+2, 1.7287824e+2, -1197621.5, -1296656.3, -7601.042, -0.0006882271, -0.04237994, -1197041.5, 48747.62 
7.652466e+2, 1.8287013e+2, -1113924.9, -1215863.3, -9054.747, 0.00006486376, -0.04443851, -1113126.9, 34741.68 
7.6524854e+2, 1.9286165e+2, -1023500.1, -1121172.1, -8980.314, -0.00012369276, -0.043419767, -1022681.3, 27270.328 
7.652504e+2, 2.0285273e+2, -939627.06, -1039657.9, -9642.477, -0.000680848, -0.04180954, -938706.06, 13333.149 
7.6525205e+2, 2.1284342e+2, -849382.7, -944819.9, -9932.325, -0.0018744799, -0.041716933, -848359.94, 5770.42 
7.652537e+2, 2.2283363e+2, -765929.0, -864124.0, -10080.307, -0.0026943826, -0.041208524, -764904.9, -8678.608 
7.6525545e+2, 2.3282343e+2, -675073.5, -769133.75, -9888.858, -0.00270806, -0.042977296, -674045.1, -15718.881 
7.6525724e+2, 2.4281277e+2, -590952.1, -687558.0, -8917.183, -0.0029034368, -0.043160908, -590135.94, -29705.283 
7.6525915e+2, 2.5280178e+2, -500606.34, -592547.25, -9027.91, -0.0035769723, -0.042671263, -499728.25, -37189.77 
7.6526123e+2, 2.6279032e+2, -416828.75, -511223.13, -7689.4844, -0.004114881, -0.04142288, -416206.47, -51555.637 
7.6526356e+2, 2.7277848e+2, -326014.63, -415972.56, -7329.1553, -0.0043237368, -0.04213409, -325421.44, -58654.574 
7.652661e+2, 2.8276584e+2, -247165.13, -345355.66, -4775.175, -0.005002225, -0.04215396, -246933.44, -78042.83 
7.65269e+2, 2.9275236e+2, -157304.98, -251633.4, -4488.998, -0.006728932, -0.043817326, -157091.84, -86068.89 
7.6527226e+2, 3.02743e+2, -54967.395, -80393.586, -1204.1891, -0.0072457995, -0.042829394, -54910.492, -54910.492 
7.652761e+2, 3.127386e+2, -59254.28, -77468.13, -736.42896, -0.0048824917, -0.039822493, -59224.555, -59224.555 
7.75239e+2, 1.22909494e+2, -1630477.1, -1727705.5, -1120.6195, 0.00825624, -0.045952644, -1630464.3, 105018.73 
7.752415e+2, 1.3290286e+2, -1553535.4, -1663393.6, -4753.6978, -0.009839179, -0.032286122, -1553330.1, 84217.8 
7.752442e+2, 1.4289571e+2, -1462628.0, -1569287.1, -6597.247, 0.00889981, -0.047115207, -1462221.5, 77396.59 
7.752464e+2, 1.5288892e+2, -1371914.3, -1473128.6, -6753.5996, 0.002967262, -0.044176478, -1371465.6, 70218.82 
7.752484e+2, 1.6288167e+2, -1288737.1, -1392559.8, -9074.068, -0.0014809947, -0.041762885, -1287950.0, 55805.598 
7.7525014e+2, 1.7287399e+2, -1198141.9, -1297827.3, -9425.913, 0.00009265482, -0.041483354, -1197258.5, 48572.375 
7.752517e+2, 1.8286586e+2, -1113816.5, -1215725.8, -10935.245, 0.0009121503, -0.040729307, -1112656.4, 35254.133 
7.7525306e+2, 1.9285737e+2, -1023268.3, -1120726.9, -10874.66, -0.00055456726, -0.0428666, -1022069.6, 27923.934 
7.752543e+2, 2.0284842e+2, -939934.2, -1040333.56, -11611.942, -0.0016979586, -0.04321943, -938608.7, 13472.602 
7.752555e+2, 2.1283907e+2, -849869.7, -945842.7, -11899.405, -0.0018588719, -0.042040315, -848416.3, 5756.725 
7.7525663e+2, 2.2282927e+2, -765653.94, -863589.7, -11897.199, -0.002177133, -0.04060598, -764229.4, -7960.2593 
7.752578e+2, 2.3281913e+2, -674650.56, -768225.56, -11673.941, -0.0029514371, -0.04203203, -673216.1, -14847.697 
7.75259e+2, 2.428085e+2, -591127.6, -687851.0, -10841.69, -0.003402945, -0.042264238, -589927.3, -29454.74 
7.7526045e+2, 2.5279745e+2, -500974.84, -593232.7, -10974.864, -0.0031062788, -0.04264067, -499687.25, -37106.363 
7.7526194e+2, 2.6278597e+2, -416416.06, -510271.88, -9531.049, -0.0035310856, -0.04182691, -415457.97, -50764.668 
7.752637e+2, 2.7277422e+2, -325422.72, -414617.84, -9152.155, -0.0056204693, -0.041943002, -324493.3, -57684.98 
7.7526575e+2, 2.8276172e+2, -246810.4, -344455.7, -6656.096, -0.006375672, -0.04101889, -246358.78, -77427.6 
7.7526814e+2, 2.9274827e+2, -157071.11, -250916.75, -6382.5835, -0.0039727464, -0.04106968, -156639.02, -85576.18 
7.752709e+2, 3.02739e+2, -54498.676, -79167.2, -2967.1912, -0.004049475, -0.040716954, -54146.797, -54146.797 
7.7527404e+2, 3.1273463e+2, -58774.04, -76162.17, -2462.4514, -0.009893682, -0.04341775, -58432.043, -58432.043 
7.852473e+2, 1.2290624e+2, -1624646.4, -1725638.5, 440.3657, 0.007967941, -0.043348126, -1624644.4, 110870.51 
7.852494e+2, 1.328994e+2, -1549907.3, -1663034.4, -2607.9814, -0.009591589, -0.03736138, -1549847.1, 87734.65 
7.852515e+2, 1.4289224e+2, -1459686.3, -1568507.1, -4611.229, 0.00915644, -0.042802043, -1459491.3, 80160.82 
7.852532e+2, 1.5288539e+2, -1368678.1, -1472036.4, -4859.801, 0.0028053015, -0.042795748, -1368450.1, 73269.055 
7.8525466e+2, 1.6287807e+2, -1285680.6, -1391672.8, -7101.7134, -0.0017972352, -0.042407796, -1285206.9, 58583.992 
7.8525585e+2, 1.7287034e+2, -1195947.4, -1297428.3, -7301.301, 0.00019625647, -0.04131583, -1195424.8, 50441.867 
7.8525686e+2, 1.8286216e+2, -1112242.0, -1215358.5, -8903.411, 0.0011645894, -0.03988012, -1111478.9, 36467.824 
7.8525764e+2, 1.9285366e+2, -1022433.3, -1120690.0, -9278.618, -0.00079291465, -0.04180868, -1021564.75, 28465.354 
7.852583e+2, 2.0284468e+2, -939431.44, -1040114.2, -10153.391, -0.0021419767, -0.042305354, -938417.75, 13700.344 
7.852589e+2, 2.1283531e+2, -849350.6, -945578.7, -9963.818, -0.0018426876, -0.042021405, -848329.75, 5880.1133 
7.8525954e+2, 2.2282551e+2, -765518.5, -863507.56, -9744.389, -0.0018933036, -0.04092508, -764558.9, -8252.954 
7.8526014e+2, 2.3281538e+2, -675672.7, -768765.6, -9971.753, -0.0028867433, -0.041396506, -674616.56, -16211.3125 
7.852608e+2, 2.4280477e+2, -592812.1, -688341.4, -9338.76, -0.003551884, -0.04109025, -591907.75, -31398.557 
7.852616e+2, 2.5279376e+2, -502865.88, -593776.1, -8973.431, -0.0034275313, -0.041957516, -501988.6, -39371.34 
7.8526264e+2, 2.627823e+2, -418531.63, -510776.66, -7200.382, -0.0038443045, -0.04147219, -417972.97, -53243.688 
7.852638e+2, 2.7277064e+2, -328072.88, -415371.5, -7138.595, -0.005539823, -0.04146332, -327493.0, -60649.14 
7.852653e+2, 2.8275815e+2, -249936.83, -345296.25, -4946.576, -0.0061424766, -0.040443197, -249680.92, -80714.766 
7.852671e+2, 2.927448e+2, -160854.03, -252083.19, -4671.038, -0.0041670953, -0.040496595, -160615.5, -89518.27 
7.8526926e+2, 3.0273557e+2, -58795.57, -80190.58, -1128.899, -0.0043971995, -0.040187217, -58736.168, -58736.168 
7.852719e+2, 3.127313e+2, -63861.93, -77513.92, -599.2874, -0.009709827, -0.043001715, -63835.67, -63835.67 
7.9525584e+2, 1.2290347e+2, -1625219.3, -1726975.6, -1810.5302, 0.0063155545, -0.03898469, -1625187.1, 110354.92 
7.952574e+2, 1.3289644e+2, -1550487.9, -1664427.4, -4474.095, -0.0087834755, -0.0439085, -1550312.5, 87298.48 
7.9525906e+2, 1.4288928e+2, -1459955.8, -1569268.6, -6575.66, 0.010638996, -0.04041144, -1459561.6, 80119.46 
7.9526013e+2, 1.528824e+2, -1368919.1, -1472689.3, -6846.0835, 0.0029832586, -0.039482743, -1368469.4, 73279.125 
7.9526097e+2, 1.6287501e+2, -1285911.8, -1392253.0, -9143.013, -0.0024942798, -0.03967503, -1285131.4, 58689.434 
7.952616e+2, 1.7286722e+2, -1196201.5, -1298041.5, -9342.776, -0.0003232921, -0.041810844, -1195351.4, 50545.87 
7.9526204e+2, 1.8285897e+2, -1112734.0, -1216461.1, -10981.409, 0.00085653074, -0.04162336, -1111584.3, 36393.83 
7.952622e+2, 1.9285041e+2, -1023026.3, -1121968.8, -11346.385, -0.000873672, -0.040305037, -1021741.8, 28320.164 
7.9526234e+2, 2.0284142e+2, -939156.0, -1039592.2, -12129.668, -0.002092079, -0.039296046, -937711.9, 14438.345 
7.9526234e+2, 2.1283208e+2, -848887.75, -944618.4, -11924.357, -0.0018442142, -0.04169825, -847424.8, 6816.813 
7.952624e+2, 2.228223e+2, -765772.2, -864007.25, -11807.789, -0.0018480512, -0.042083304, -764372.8, -8035.286 
7.952624e+2, 2.3281212e+2, -676166.8, -769717.7, -12040.737, -0.0025566379, -0.041044522, -674641.94, -16204.609 
7.952625e+2, 2.428015e+2, -592360.8, -687357.25, -11344.312, -0.0033975837, -0.039669793, -591024.9, -30483.564 
7.9526275e+2, 2.5279057e+2, -502194.16, -592303.8, -10974.32, -0.0044767517, -0.040689442, -500876.88, -38228.5 
7.952632e+2, 2.627792e+2, -418420.38, -510417.84, -9174.47, -0.0049874065, -0.04043694, -417514.38, -52754.684 
7.9526377e+2, 2.727675e+2, -328179.7, -415399.53, -9095.512, -0.0042381375, -0.040732052, -327241.28, -60367.03 
7.952647e+2, 2.8275508e+2, -249695.45, -344575.63, -6976.5244, -0.0044911434, -0.040373538, -249185.22, -80188.81 
7.9526585e+2, 2.9274172e+2, -160531.1, -251187.56, -6722.292, -0.0070368075, -0.041882392, -160035.33, -88908.37 
7.9526746e+2, 3.0273262e+2, -58280.938, -78894.97, -3087.175, -0.0079549095, -0.041087445, -57828.527, -57828.527 
7.9526967e+2, 3.127285e+2, -63378.87, -76182.22, -2532.452, -0.004899171, -0.039014526, -62896.16, -62896.16 
8.052646e+2, 1.229013e+2, -1621259.5, -1726236.4, 140.0659, 0.0062890225, -0.036473595, -1621259.4, 114304.016 
8.0526555e+2, 1.3289411e+2, -1545740.0, -1662791.3, -1943.8824, -0.008557784, -0.04873372, -1545707.8, 91925.875 
8.052667e+2, 1.42887e+2, -1455405.8, -1567936.8, -4266.189, 0.010361639, -0.03609766, -1455244.3, 84459.33 
8.0526716e+2, 1.5287998e+2, -1365682.1, -1472085.3, -4893.1445, 0.0031528804, -0.03806412, -1365457.6, 76314.55 
8.052674e+2, 1.6287252e+2, -1283381.5, -1391512.9, -7343.6055, -0.0021748466, -0.04023081, -1282885.1, 60960.21 
8.0526745e+2, 1.728647e+2, -1194071.0, -1297409.1, -7492.142, -0.0005867986, -0.04150756, -1193530.6, 52391.367 
8.052673e+2, 1.8285643e+2, -1110998.1, -1215923.8, -9012.931, 0.00040880448, -0.040797636, -1110229.6, 37773.414 
8.0526686e+2, 1.9284782e+2, -1021688.5, -1121664.9, -9002.37, -0.0006163621, -0.03986158, -1020884.3, 29203.014 
8.052664e+2, 2.0283881e+2, -938277.75, -1039370.8, -9663.48, -0.0015184624, -0.038967825, -937362.3, 14813.498 
8.052658e+2, 2.1282946e+2, -848876.44, -944822.1, -10022.717, -0.0018925406, -0.040876232, -847840.6, 6426.7456 
8.0526525e+2, 2.2281967e+2, -766233.5, -864067.94, -10186.333, -0.0022520954, -0.04108058, -765184.2, -8820.8955 
8.0526465e+2, 2.3280951e+2, -676976.56, -769897.4, -9873.736, -0.0026443822, -0.04057936, -675939.0, -17476.059 
8.052642e+2, 2.4279892e+2, -593525.7, -687593.2, -8878.207, -0.0033023756, -0.03949731, -592695.1, -32128.389 
8.052638e+2, 2.5278804e+2, -503814.9, -592793.4, -9004.272, -0.0045742746, -0.04021033, -502912.84, -40239.387 
8.0526364e+2, 2.627767e+2, -420612.16, -510975.84, -7531.254, -0.0051333117, -0.039803177, -419988.78, -55204.38 
8.052637e+2, 2.7276504e+2, -331546.22, -416530.88, -7188.4873, -0.004086208, -0.04033461, -330942.47, -64043.918 
8.05264e+2, 2.8275266e+2, -253565.48, -345654.34, -4723.7134, -0.004275873, -0.040129393, -253323.81, -84303.68 
8.0526453e+2, 2.9273942e+2, -163866.39, -251967.33, -4373.172, -0.0073452923, -0.04156027, -163649.86, -92499.9 
8.0526555e+2, 3.0273035e+2, -61753.246, -79673.125, -924.6718, -0.008371117, -0.040688485, -61705.66, -61705.66 
8.052671e+2, 3.127263e+2, -68732.46, -77880.51, -565.87585, -0.004438012, -0.0385785, -68697.59, -68697.59 
8.1527346e+2, 1.2289966e+2, -1621967.5, -1727937.0, -1976.5758, 0.0076728277, -0.035689324, -1621930.6, 113648.82 
8.1527394e+2, 1.3289241e+2, -1545849.0, -1663200.9, -3684.21, -0.008872685, -0.052015893, -1545733.4, 91917.11 
8.152745e+2, 1.4288531e+2, -1456068.1, -1569418.1, -6470.3013, 0.008468958, -0.030053556, -1455700.0, 84020.1 
8.1527436e+2, 1.528781e+2, -1366498.5, -1473894.1, -7197.6123, 0.0032888697, -0.038361, -1366018.3, 75772.29 
8.15274e+2, 1.6287053e+2, -1283634.0, -1392185.8, -9517.411, -0.000961448, -0.04375844, -1282805.9, 61059.063 
8.152734e+2, 1.7286271e+2, -1194220.9, -1297834.5, -9625.604, -0.0006408465, -0.0405024, -1193334.3, 52607.36 
8.1527257e+2, 1.8285446e+2, -1110864.4, -1215746.4, -11184.558, -0.00020853373, -0.0376664, -1109685.0, 38337.492 
8.1527156e+2, 1.9284584e+2, -1021514.06, -1121365.9, -11180.189, -0.000075353244, -0.040373005, -1020277.56, 29829.367 
8.152704e+2, 2.0283678e+2, -938725.6, -1040377.4, -11855.96, -0.00049227505, -0.04105864, -937361.2, 14834.506 
8.152693e+2, 2.1282738e+2, -849546.1, -946240.4, -12194.156, -0.0020033692, -0.039610635, -848032.0, 6255.889 
8.1526804e+2, 2.2281757e+2, -765834.4, -863240.56, -12343.486, -0.0030932704, -0.038130984, -764294.56, -7910.52 
8.1526685e+2, 2.3280746e+2, -676318.6, -768499.94, -12042.033, -0.0031217677, -0.0400151, -674771.5, -16288.529 
8.152658e+2, 2.4279693e+2, -593610.8, -687727.1, -11013.02, -0.0032836956, -0.04045757, -592339.3, -31753.008 
8.1526476e+2, 2.5278598e+2, -504172.66, -593417.7, -11111.591, -0.0038402101, -0.040449895, -502809.97, -40116.617 
8.15264e+2, 2.6277468e+2, -420261.34, -510133.97, -9754.835, -0.004402196, -0.039535318, -419214.72, -54410.453 
8.152634e+2, 2.7276313e+2, -331016.84, -415316.0, -9451.839, -0.0049882256, -0.04024712, -329970.1, -63052.477 
8.1526303e+2, 2.827508e+2, -253039.67, -344424.38, -6708.108, -0.005392844, -0.03974118, -252549.88, -83511.58 
8.1526315e+2, 2.9273763e+2, -163445.5, -250820.02, -6278.6636, -0.0053724623, -0.039720587, -162996.63, -91829.47 
8.152635e+2, 3.0272868e+2, -61466.004, -78760.38, -3248.5388, -0.005974388, -0.03913416, -60875.938, -60875.938 
8.152643e+2, 3.1272465e+2, -68452.53, -77053.93, -3003.4211, -0.007946177, -0.041345306, -67507.6, -67507.6 
8.252826e+2, 1.2289865e+2, -1616746.4, -1727161.0, -93.6632, 0.0074765882, -0.033689752, -1616746.3, 118843.14 
8.2528245e+2, 1.3289128e+2, -1541439.5, -1661481.9, -1569.0848, -0.008488952, -0.056082197, -1541419.0, 96242.6 
8.252824e+2, 1.4288421e+2, -1452889.9, -1568471.5, -4539.8906, 0.008056484, -0.026578387, -1452711.8, 87019.086 
8.252817e+2, 1.5287694e+2, -1363276.8, -1473019.8, -4915.512, 0.0031317791, -0.03747994, -1363057.0, 78745.195 
8.2528067e+2, 1.6286927e+2, -1280568.9, -1391284.5, -6994.3115, -0.0008527373, -0.04449961, -1280128.8, 63748.477 
8.252794e+2, 1.728614e+2, -1192115.9, -1297415.0, -7266.9277, -0.00033663903, -0.040082972, -1191616.8, 54337.652 
8.252779e+2, 1.8285312e+2, -1109334.0, -1215308.1, -9008.858, 0.000069635644, -0.03657329, -1108573.6, 39462.05 
8.252763e+2, 1.9284447e+2, -1020242.0, -1121028.6, -9311.493, -0.0003149202, -0.039873827, -1019388.94, 30731.46 
8.252746e+2, 2.0283538e+2, -937756.9, -1039948.25, -10089.171, -0.00094573497, -0.040941037, -936770.3, 15439.016 
8.252727e+2, 2.1282598e+2, -849383.44, -946184.7, -9829.794, -0.0019881523, -0.039285272, -848395.3, 5906.233 
8.252709e+2, 2.2281618e+2, -766283.75, -863391.1, -9676.877, -0.002842032, -0.037620172, -765328.9, -8931.183 
8.2526904e+2, 2.3280607e+2, -677121.5, -768838.5, -9981.837, -0.0032011305, -0.039434876, -676047.7, -17551.158 
8.252673e+2, 2.4279554e+2, -594768.2, -687991.56, -9294.986, -0.003455595, -0.039904546, -593850.44, -33250.703 
8.252657e+2, 2.5278464e+2, -506294.78, -594132.94, -8950.472, -0.0035446265, -0.040111378, -505392.03, -42685.47 
8.252643e+2, 2.6277336e+2, -422784.5, -510740.72, -7281.4805, -0.0040268945, -0.039280895, -422185.78, -57368.72 
8.25263e+2, 2.7276188e+2, -333096.78, -415674.9, -7161.515, -0.0054618944, -0.039785653, -332480.3, -65550.5 
8.25262e+2, 2.827496e+2, -255512.0, -344905.66, -4652.566, -0.0060438863, -0.0391246, -255270.5, -86220.625 
8.252615e+2, 2.9273653e+2, -168398.75, -252534.38, -4404.4243, -0.004615768, -0.039099477, -168168.81, -96990.68 
8.2526124e+2, 3.0272764e+2, -67205.016, -80372.07, -1276.1788, -0.004847428, -0.03863511, -67082.47, -67082.47 
8.2526135e+2, 3.1272373e+2, -71807.91, -77432.305, -692.00104, -0.008970263, -0.041215677, -71724.016, -71724.016 
8.3529186e+2, 1.22898206e+2, -1618036.9, -1730014.8, -2549.2563, 0.0058219093, -0.030681048, -1617978.9, 117614.875 
8.352912e+2, 1.3289069e+2, -1541681.5, -1662163.5, -3721.369, -0.007496162, -0.060863398, -1541566.8, 96100.68 
8.3529055e+2, 1.4288366e+2, -1452879.0, -1568626.3, -6774.97, 0.008943227, -0.02541719, -1452483.8, 87252.7 
8.352891e+2, 1.5287638e+2, -1363250.3, -1473088.3, -7176.0176, 0.002686366, -0.0355502, -1362783.4, 79024.35 
8.352874e+2, 1.6286868e+2, -1280947.6, -1392153.5, -9366.564, -0.0017620396, -0.042742617, -1280164.3, 63718.94 
8.3528554e+2, 1.7286071e+2, -1192615.9, -1298539.1, -9650.121, 0.0002753022, -0.040192723, -1191743.9, 54217.336 
8.3528346e+2, 1.8285236e+2, -1109736.3, -1216281.8, -11274.94, 0.001129237, -0.037310395, -1108556.1, 39487.066 
8.3528113e+2, 1.9284365e+2, -1020691.56, -1122021.5, -11530.939, -0.0012703124, -0.03847176, -1019395.94, 30732.535 
8.3527875e+2, 2.0283456e+2, -937394.2, -1039217.5, -12437.527, -0.0027519127, -0.038842678, -935897.0, 16320.549 
8.352762e+2, 2.128252e+2, -848811.75, -945028.5, -12223.088, -0.0018816721, -0.039803825, -847283.25, 7025.9526 
8.352737e+2, 2.2281541e+2, -766577.1, -864013.2, -11965.995, -0.0016387659, -0.03930018, -765129.1, -8724.0205 
8.3527124e+2, 2.3280527e+2, -677715.2, -770028.1, -12219.74, -0.0029345215, -0.03883902, -676125.0, -17620.443 
8.352688e+2, 2.4279472e+2, -594406.2, -687180.0, -11621.612, -0.0038156377, -0.03799007, -592972.56, -32364.639 
8.3526653e+2, 2.527839e+2, -505699.75, -592810.7, -11313.282, -0.003661184, -0.03925565, -504254.44, -41540.5 
8.352644e+2, 2.627727e+2, -422518.97, -510067.3, -9471.477, -0.003994072, -0.03904305, -421506.0, -56682.25 
8.3526254e+2, 2.7276123e+2, -332993.4, -415262.06, -9298.471, -0.00556973, -0.038999457, -331955.53, -65019.41 
8.352609e+2, 2.8274903e+2, -255343.4, -344349.0, -7121.532, -0.0063077924, -0.038313594, -254777.2, -85721.35 
8.3525956e+2, 2.9273596e+2, -168209.67, -251969.27, -6963.334, -0.004981485, -0.039590124, -167634.72, -96450.914 
8.352587e+2, 3.0272713e+2, -66401.09, -78527.95, -3225.5664, -0.0048899446, -0.03910209, -65596.52, -65596.52 
8.352583e+2, 3.127234e+2, -70963.43, -75317.33, -2479.3079, -0.007811172, -0.03850915, -69840.98, -69840.98 
8.453014e+2, 1.2289847e+2, -1613780.5, -1729924.4, -199.83597, 0.005726663, -0.028657336, -1613780.1, 121811.18 
8.4530014e+2, 1.3289087e+2, -1536571.0, -1659822.4, -877.4376, -0.006903535, -0.063720554, -1536564.8, 101100.945 
8.4529877e+2, 1.4288385e+2, -1448679.6, -1567219.5, -4080.8252, 0.008578589, -0.023082474, -1448539.3, 91195.234 
8.452967e+2, 1.528765e+2, -1360252.3, -1472447.0, -4984.6606, 0.0025677553, -0.034352995, -1360031.3, 81775.42 
8.452943e+2, 1.6286872e+2, -1278470.8, -1391457.4, -7398.291, -0.0017163572, -0.042458907, -1277988.4, 65894.336 
8.4529173e+2, 1.7286071e+2, -1189987.6, -1297745.0, -7442.6646, 0.0001986951, -0.039950304, -1189476.0, 56485.227 
8.4528893e+2, 1.8285231e+2, -1107422.6, -1215531.3, -8891.968, 0.0010449162, -0.036973584, -1106696.1, 41347.43 
8.4528595e+2, 1.9284359e+2, -1019804.3, -1121988.8, -8954.338, -0.0011190113, -0.037799973, -1019025.6, 31103.566 
8.452829e+2, 2.0283447e+2, -937224.75, -1039209.6, -9842.805, -0.002513626, -0.03804667, -936283.5, 15934.978 
8.4527975e+2, 2.128251e+2, -848413.6, -944870.06, -10178.972, -0.0018918025, -0.039357502, -847351.2, 6959.0757 
8.4527653e+2, 2.2281532e+2, -766263.1, -863749.3, -10186.419, -0.0017451664, -0.039085288, -765210.1, -8803.994 
8.452734e+2, 2.3280518e+2, -678532.9, -770330.7, -9860.816, -0.0028048921, -0.03855846, -677485.56, -18980.121 
8.452703e+2, 2.4279466e+2, -595919.56, -687552.94, -8935.573, -0.0036558732, -0.037603993, -595056.3, -34447.74 
8.452673e+2, 2.5278386e+2, -507350.5, -593219.5, -9007.348, -0.003976063, -0.038696107, -506415.8, -43701.547 
8.4526455e+2, 2.627727e+2, -424637.94, -510595.4, -7400.3516, -0.004394927, -0.03839467, -424005.47, -59181.805 
8.45262e+2, 2.727613e+2, -336612.88, -416534.94, -7156.599, -0.0051494488, -0.038476136, -335977.1, -69041.484 
8.4525967e+2, 2.8274912e+2, -259349.31, -345460.6, -4845.698, -0.0057022595, -0.037960093, -259077.48, -90022.71 
8.4525764e+2, 2.9273614e+2, -170699.48, -252304.77, -4440.2856, -0.0057141217, -0.03947861, -170458.6, -99276.61 
8.4525603e+2, 3.0272743e+2, -69007.89, -79016.66, -687.8534, -0.005910703, -0.038896162, -68960.836, -68960.836 
8.45255e+2, 3.1272376e+2, -77257.76, -77665.24, -560.3992, -0.0066335904, -0.037472546, -76865.21, -76865.21 
8.553111e+2, 1.2289936e+2, -1614798.9, -1732256.3, -2687.6277, 0.0069715073, -0.027557716, -1614737.4, 120845.21 
8.553091e+2, 1.3289174e+2, -1536349.6, -1659523.1, -3120.0168, -0.006684668, -0.06487275, -1536270.6, 101386.58 
8.553071e+2, 1.4288473e+2, -1449312.8, -1568668.4, -6567.84, 0.0070702466, -0.019712146, -1448952.4, 90773.48 
8.5530436e+2, 1.5287721e+2, -1361135.0, -1474405.1, -7514.4478, 0.0027117433, -0.033818066, -1360638.6, 81160.99 
8.553013e+2, 1.6286933e+2, -1278619.6, -1391929.5, -9768.506, -0.00084579206, -0.043492105, -1277783.6, 66093.12 
8.5529804e+2, 1.7286134e+2, -1190015.5, -1297887.8, -9770.234, -0.00051077176, -0.039402004, -1189137.8, 56817.504 
8.552946e+2, 1.8285292e+2, -1107438.0, -1215641.0, -11443.832, -0.0001001643, -0.035684235, -1106240.9, 41796.715 
8.552909e+2, 1.9284417e+2, -1019825.4, -1122128.5, -11558.711, -0.0000056666327, -0.037781034, -1018535.6, 31587.785 
8.5528713e+2, 2.0283502e+2, -937597.44, -1040100.0, -12224.922, -0.0004689869, -0.038414136, -936159.56, 16053.49 
8.552832e+2, 2.128256e+2, -848963.0, -946049.7, -12483.337, -0.0020270778, -0.03804829, -847383.56, 6921.896 
8.552794e+2, 2.228158e+2, -765886.44, -862946.4, -12669.844, -0.0030602363, -0.037169788, -764259.8, -7858.253 
8.5527545e+2, 2.3280573e+2, -677915.25, -769029.06, -12403.742, -0.002813357, -0.03856124, -676256.9, -17756.678 
8.552717e+2, 2.4279526e+2, -595879.1, -687424.8, -11364.446, -0.0030543052, -0.038597565, -594489.44, -33886.6 
8.5526794e+2, 2.5278446e+2, -507522.97, -593497.56, -11394.864, -0.004499263, -0.03840482, -506038.34, -43329.83 
8.552645e+2, 2.627733e+2, -424399.38, -510015.22, -9894.175, -0.00521364, -0.037376575, -423270.8, -58453.027 
8.552612e+2, 2.7276194e+2, -336285.63, -415767.97, -9683.309, -0.0042726584, -0.03820403, -335122.9, -68193.625 
8.552582e+2, 2.8274986e+2, -258711.75, -343983.47, -7073.0493, -0.004351194, -0.038034644, -258129.05, -89081.32 
8.5525554e+2, 2.92737e+2, -170065.63, -250705.05, -6589.37, -0.0068040113, -0.038845226, -169530.73, -98356.99 
8.552533e+2, 3.0272833e+2, -69092.11, -78901.125, -3322.7603, -0.00783815, -0.038107056, -68072.516, -68072.516 
8.552515e+2, 3.1272465e+2, -77536.04, -78020.73, -3318.5847, -0.0055172555, -0.037984002, -74450.96, -74450.96 
8.6532104e+2, 1.2290099e+2, -1609802.5, -1731981.5, -304.58203, 0.006661235, -0.026827702, -1609801.8, 125764.766 
8.653184e+2, 1.3289332e+2, -1531519.3, -1657378.0, -783.2068, -0.006090855, -0.06609915, -1531514.4, 106127.42 
8.653157e+2, 1.4288633e+2, -1445730.8, -1567577.9, -4355.0723, 0.006759958, -0.017603058, -1445575.3, 94135.18 
8.653122e+2, 1.528787e+2, -1357592.9, -1473518.4, -4920.1367, 0.0026284815, -0.03345662, -1357384.4, 84400.695 
8.653084e+2, 1.6287076e+2, -1275318.9, -1390886.6, -6991.819, -0.0007410451, -0.044100083, -1274897.4, 68965.54 
8.6530447e+2, 1.7286272e+2, -1188115.0, -1297524.6, -7264.84, -0.00041477656, -0.039008122, -1187634.8, 58307.055 
8.6530024e+2, 1.8285426e+2, -1106165.8, -1215241.6, -9148.0625, -0.00002772691, -0.03477011, -1105403.9, 42620.664 
8.652958e+2, 1.928455e+2, -1018002.9, -1121440.6, -9326.422, 0.00001948884, -0.037507292, -1017168.7, 32941.887 
8.652913e+2, 2.0283632e+2, -935921.5, -1039458.25, -9946.517, -0.00046251927, -0.03845106, -934974.6, 17225.762 
8.6528677e+2, 2.1282688e+2, -849028.56, -946290.06, -9818.417, -0.0019974152, -0.03761174, -848047.3, 6245.666 
8.652821e+2, 2.2281706e+2, -766871.5, -863242.7, -9854.795, -0.0030629723, -0.036451202, -765874.06, -9485.025 
8.652775e+2, 2.3280703e+2, -678797.56, -769206.94, -10048.135, -0.0029725078, -0.03802629, -677694.3, -19206.77 
8.65273e+2, 2.4279657e+2, -596889.1, -687609.5, -9251.558, -0.003188884, -0.038238868, -595955.25, -35365.348 
8.652686e+2, 2.527858e+2, -509374.1, -594128.06, -9014.335, -0.0042240648, -0.038185928, -508425.97, -45730.582 
8.652644e+2, 2.6277468e+2, -426640.0, -510537.13, -7328.16, -0.004854055, -0.037263226, -426004.72, -61200.434 
8.6526036e+2, 2.7276337e+2, -338423.1, -416206.2, -7137.3125, -0.0045831893, -0.03812766, -337773.6, -70858.34 
8.652567e+2, 2.8275135e+2, -261412.77, -344565.72, -4614.6963, -0.004809004, -0.03780116, -261157.45, -92124.36 
8.6525327e+2, 2.9273856e+2, -175051.77, -252415.2, -4483.8936, -0.006191953, -0.03799765, -174792.75, -103634.33 
8.652503e+2, 3.0273e+2, -74769.42, -80480.11, -1200.3464, -0.006984067, -0.037173778, -74527.375, -74527.375 
8.652478e+2, 3.1272638e+2, -80981.87, -78442.99, -341.5494, -0.006378626, -0.03830797, -78397.85, -78397.85 
8.7533116e+2, 1.22903295e+2, -1611308.4, -1735235.6, -3097.1528, 0.0049453243, -0.026467802, -1611231.0, 124313.02 
8.753278e+2, 1.3289554e+2, -1531794.9, -1658121.3, -3375.7852, -0.0051800353, -0.067399934, -1531704.8, 105915.35 
8.753244e+2, 1.4288852e+2, -1445799.9, -1567903.9, -6865.809, 0.0074782567, -0.016610466, -1445415.0, 94274.01 
8.7532014e+2, 1.5288088e+2, -1357673.1, -1473800.0, -7415.903, 0.002316806, -0.03325618, -1357201.5, 84562.4 
8.7531567e+2, 1.6287288e+2, -1275748.6, -1391896.9, -9663.18, -0.0013410317, -0.04433624, -1274950.3, 68892.0 
8.753109e+2, 1.7286475e+2, -1188667.3, -1298785.4, -9962.781, 0.0003830294, -0.038753875, -1187773.1, 58148.664 
8.7530595e+2, 1.8285625e+2, -1106345.6, -1215748.5, -11640.138, 0.0011018324, -0.034192324, -1105120.9, 42884.305 
8.753008e+2, 1.9284743e+2, -1018170.94, -1121819.0, -11756.36, -0.00094204565, -0.037007995, -1016854.2, 33237.375 
8.752956e+2, 2.0283826e+2, -935759.75, -1039142.5, -12645.536, -0.0022920286, -0.03819612, -934235.5, 17945.957 
8.752902e+2, 2.1282884e+2, -848787.0, -945825.06, -12587.621, -0.0018418431, -0.03796039, -847180.75, 7093.006 
8.7528485e+2, 2.2281905e+2, -767002.9, -863566.44, -12422.065, -0.0019255508, -0.036804654, -765430.44, -9060.745 
8.7527955e+2, 2.3280898e+2, -679103.5, -769817.1, -12545.432, -0.0032805968, -0.03700354, -677400.44, -18931.996 
8.752743e+2, 2.4279852e+2, -596621.7, -687001.1, -11826.419, -0.003998955, -0.036663726, -595099.8, -34528.91 
8.752692e+2, 2.527878e+2, -508987.9, -593243.6, -11615.898, -0.003246629, -0.03803893, -507415.84, -44739.96 
8.752642e+2, 2.6277673e+2, -426312.7, -509731.78, -9846.378, -0.0034565083, -0.037969887, -425166.22, -60381.97 
8.7525946e+2, 2.7276546e+2, -338161.75, -415491.03, -9630.951, -0.0059916624, -0.038235787, -336980.3, -70085.68 
8.75255e+2, 2.827535e+2, -261318.7, -344209.22, -7311.5093, -0.006936564, -0.03729549, -260678.72, -91666.73 
8.7525094e+2, 2.9274073e+2, -175035.19, -252207.38, -7229.226, -0.004063773, -0.036964484, -174363.83, -103226.7 
8.752472e+2, 3.0273223e+2, -73606.48, -77886.15, -3477.0405, -0.0036405227, -0.03612102, -71663.586, -71663.586 
8.752439e+2, 3.1272885e+2, -79590.195, -75243.016, -2510.3765, -0.009102567, -0.03849349, -74095.99, -74095.99 
8.853415e+2, 1.2290637e+2, -1607280.8, -1735117.8, -716.1061, 0.00470441, -0.025748044, -1607276.8, 128237.1 
8.853375e+2, 1.3289857e+2, -1526629.6, -1655668.8, -498.5703, -0.0047616693, -0.06817241, -1526627.8, 110962.61 
8.8533324e+2, 1.4289154e+2, -1441424.6, -1566455.1, -3946.4277, 0.0069853407, -0.015929881, -1441300.3, 98359.14 
8.8532823e+2, 1.5288381e+2, -1354516.0, -1473172.5, -4914.681, 0.0023946106, -0.03251779, -1354312.8, 87422.305 
8.85323e+2, 1.6287574e+2, -1273068.6, -1391101.3, -7394.914, -0.00095056003, -0.043692604, -1272607.1, 71206.836 
8.853175e+2, 1.7286758e+2, -1185893.4, -1297899.6, -7407.327, 0.00040624427, -0.038523212, -1185405.6, 60488.516 
8.8531184e+2, 1.8285903e+2, -1103990.3, -1214958.0, -8887.207, 0.0008938864, -0.034135018, -1103283.0, 44694.797 
8.853059e+2, 1.9285019e+2, -1017469.2, -1121883.1, -9070.254, -0.0010516058, -0.036544263, -1016687.1, 33377.37 
8.8529986e+2, 2.02841e+2, -935802.06, -1039158.94, -10088.121, -0.0022835035, -0.037584487, -934826.6, 17327.994 
8.852938e+2, 2.1283157e+2, -848259.7, -945507.94, -10228.466, -0.0016906451, -0.037831582, -847195.5, 7051.414 
8.8528764e+2, 2.2282179e+2, -766435.75, -863231.5, -10105.84, -0.0016747469, -0.036935344, -765391.9, -9049.047 
8.8528156e+2, 2.3281172e+2, -679692.44, -770109.5, -9964.39, -0.00308137, -0.03682536, -678607.4, -20165.78 
8.852755e+2, 2.4280128e+2, -597981.9, -687308.94, -9132.266, -0.003939882, -0.03624059, -597057.8, -36513.98 
8.8526964e+2, 2.527906e+2, -510910.47, -593763.44, -9113.351, -0.0035265763, -0.03759652, -509919.9, -47271.418 
8.852639e+2, 2.6277956e+2, -428757.38, -510304.44, -7423.46, -0.0037658673, -0.037533995, -428087.1, -63330.668 
8.8525844e+2, 2.7276838e+2, -341438.53, -416459.0, -7190.8345, -0.005614693, -0.03782638, -340755.5, -73889.234 
8.8525325e+2, 2.8275648e+2, -264892.2, -345126.88, -4796.204, -0.0064051733, -0.037069727, -264606.5, -95623.47 
8.852483e+2, 2.9274377e+2, -177995.81, -252842.0, -4375.1494, -0.004649496, -0.037263297, -177740.94, -106633.445 
8.8524383e+2, 3.0273536e+2, -76883.22, -78587.2, -586.61285, -0.004472622, -0.03646012, -76700.8, -76700.8 
8.8523984e+2, 3.1273204e+2, -85497.81, -77244.28, -630.9405, -0.008059512, -0.037814595, -77196.33, -77196.33 
8.9535207e+2, 1.2291014e+2, -1608004.8, -1736814.4, -3466.375, 0.0057119834, -0.024736641, -1607911.5, 127565.45 
8.9534724e+2, 1.3290234e+2, -1526288.6, -1655121.9, -3094.5806, -0.0047971546, -0.06848017, -1526214.3, 111339.15 
8.9534223e+2, 1.4289531e+2, -1442034.0, -1567862.9, -6697.725, 0.005396234, -0.015524084, -1441678.5, 97943.97 
8.953365e+2, 1.5288745e+2, -1355405.0, -1475148.5, -7681.6865, 0.0027890964, -0.031303383, -1354914.3, 86785.25 
8.953304e+2, 1.628793e+2, -1273176.4, -1391464.1, -10073.465, 0.00028446244, -0.042268343, -1272324.6, 71454.68 
8.9532423e+2, 1.7287111e+2, -1185853.3, -1297910.5, -10067.229, -0.00027516196, -0.038317837, -1184956.0, 60903.53 
8.953177e+2, 1.8286255e+2, -1104174.5, -1215445.9, -11724.261, -0.0005299106, -0.034540974, -1102952.6, 44990.875 
8.9531106e+2, 1.9285367e+2, -1017741.44, -1122554.4, -11940.236, -0.00042951884, -0.03611241, -1016398.4, 33632.105 
8.953042e+2, 2.0284444e+2, -935909.3, -1039494.4, -12747.264, -0.0006678796, -0.036656898, -934363.7, 17757.219 
8.952973e+2, 2.1283498e+2, -848393.9, -945831.56, -12823.214, -0.001566601, -0.037282728, -846734.5, 7478.9644 
8.9529043e+2, 2.228252e+2, -766255.5, -862875.56, -12865.826, -0.0022473538, -0.036869425, -764571.6, -8262.137 
8.952835e+2, 2.3281516e+2, -679459.75, -769629.06, -12766.756, -0.0024399958, -0.037406623, -677687.0, -19279.057 
8.952767e+2, 2.4280475e+2, -597876.94, -687056.06, -11890.471, -0.003127738, -0.036860317, -596318.8, -35808.9 
8.9527e+2, 2.527941e+2, -510869.1, -593639.9, -11856.322, -0.0049725585, -0.036890052, -509204.25, -46589.902 
8.952635e+2, 2.627831e+2, -428447.22, -509602.28, -10135.704, -0.00564131, -0.036064066, -427200.5, -62478.555 
8.9525723e+2, 2.7277195e+2, -341109.84, -415673.63, -9897.625, -0.0036449532, -0.036953457, -339818.38, -72987.09 
8.952513e+2, 2.827601e+2, -264227.5, -343594.94, -7404.825, -0.0035102468, -0.037103277, -263542.56, -94595.21 
8.952456e+2, 2.927475e+2, -177278.9, -251159.05, -6961.1494, -0.0077192606, -0.038786035, -176628.73, -105557.984 
8.952403e+2, 3.0273917e+2, -77124.29, -78896.414, -3388.9902, -0.009113465, -0.038075406, -74507.445, -74507.445 
8.952356e+2, 3.1273583e+2, -86064.86, -78210.98, -3476.817, -0.0036882253, -0.03636403, -76893.0, -76893.0 
9.053628e+2, 1.2291478e+2, -1602924.6, -1736150.5, -445.44705, 0.005434036, -0.024049971, -1602923.1, 132508.31 
9.053572e+2, 1.3290694e+2, -1521348.9, -1653150.0, -431.53925, -0.0042020115, -0.068242356, -1521347.5, 116160.98 
9.053514e+2, 1.4289984e+2, -1438083.3, -1566568.8, -4321.0283, 0.005247683, -0.015052669, -1437938.1, 101639.93 
9.0534484e+2, 1.5289192e+2, -1351924.1, -1474199.0, -4879.253, 0.0026442944, -0.031164894, -1351729.6, 89925.93 
9.05338e+2, 1.6288371e+2, -1270163.8, -1390546.8, -7037.7383, 0.00021762711, -0.04222885, -1269753.8, 73982.375 
9.05331e+2, 1.7287548e+2, -1183763.0, -1297458.0, -7351.9976, -0.00020518692, -0.037952013, -1183289.5, 62527.234 
9.053237e+2, 1.8286687e+2, -1102479.1, -1214902.9, -9247.952, -0.00033487834, -0.034055248, -1101723.5, 46177.605 
9.053162e+2, 1.9285797e+2, -1015836.94, -1121894.3, -9336.616, -0.00014446337, -0.035965607, -1015021.25, 34967.137 
9.053086e+2, 2.028487e+2, -934264.9, -1038871.44, -10021.997, -0.00044243527, -0.03662348, -933313.4, 18765.682 
9.053009e+2, 2.1283925e+2, -848207.8, -945967.1, -10085.141, -0.0017361012, -0.036818348, -847178.25, 6993.489 
9.0529317e+2, 2.2282945e+2, -766943.56, -862987.56, -10183.713, -0.0025810057, -0.036198147, -765875.6, -9607.835 
9.052855e+2, 2.3281942e+2, -680490.9, -769823.4, -10167.8545, -0.0024136396, -0.037090663, -679348.2, -20982.191 
9.0527785e+2, 2.4280906e+2, -599173.6, -687330.6, -9261.725, -0.002858223, -0.036813308, -598211.06, -37743.34 
9.0527034e+2, 2.527984e+2, -512416.28, -594061.94, -9108.956, -0.0047734026, -0.036852244, -511412.38, -48840.473 
9.0526307e+2, 2.6278746e+2, -430330.28, -509983.28, -7401.0513, -0.0055626845, -0.035995193, -429648.44, -64969.285 
9.05256e+2, 2.7277637e+2, -344002.7, -416535.22, -7262.818, -0.003751498, -0.03680164, -343282.6, -76494.57 
9.052492e+2, 2.8276458e+2, -267785.25, -344395.22, -4748.96, -0.0036165754, -0.03685122, -267492.0, -98588.55 
9.0524274e+2, 2.927521e+2, -181322.8, -252151.08, -4521.44, -0.0074661206, -0.038395304, -181035.33, -110009.31 
9.052367e+2, 3.027438e+2, -81556.69, -80021.484, -1024.2437, -0.008804285, -0.037790116, -79509.13, -79509.13 
9.052311e+2, 3.1274056e+2, -90733.52, -79492.08, -194.77214, -0.003914129, -0.036754068, -79488.71, -79488.71 
9.1537374e+2, 1.2292022e+2, -1604302.5, -1739154.3, -3431.93, 0.0040072133, -0.023625951, -1604215.3, 131163.03 
9.153673e+2, 1.3291225e+2, -1522029.3, -1654676.9, -3277.0688, -0.0030706546, -0.06752595, -1521948.3, 115508.17 
9.153607e+2, 1.4290509e+2, -1438186.5, -1566909.0, -7176.0474, 0.0063235, -0.0145118395, -1437787.6, 101739.02 
9.153534e+2, 1.5289713e+2, -1351909.1, -1474269.6, -7742.334, 0.001993708, -0.03196739, -1351421.1, 90183.375 
9.153457e+2, 1.628889e+2, -1270606.3, -1391605.1, -9940.542, -0.0010193964, -0.043401506, -1269795.0, 73890.28 
9.153378e+2, 1.7288059e+2, -1184376.9, -1298844.4, -10242.128, 0.0005134856, -0.03744058, -1183467.6, 62299.184 
9.1532975e+2, 1.8287192e+2, -1102570.1, -1215200.1, -12062.847, 0.0012608015, -0.032785017, -1101292.6, 46559.086 
9.153214e+2, 1.9286297e+2, -1015857.5, -1121972.6, -12127.83, -0.0001781537, -0.036077023, -1014489.06, 35450.156 
9.15313e+2, 2.0285371e+2, -934346.94, -1039064.9, -12967.051, -0.0014703195, -0.037385307, -932765.1, 19264.844 
9.153044e+2, 2.1284425e+2, -848336.94, -946248.75, -13059.507, -0.0021831503, -0.036435027, -846625.0, 7497.7964 
9.152959e+2, 2.2283445e+2, -766853.8, -862839.0, -13082.554, -0.0027288075, -0.034995228, -765102.6, -8883.782 
9.152874e+2, 2.3282444e+2, -680384.75, -769617.44, -13044.256, -0.0029553904, -0.03597647, -678517.0, -20200.084 
9.152789e+2, 2.428141e+2, -598906.8, -686778.4, -12076.026, -0.0030967551, -0.036173288, -597277.44, -36859.027 
9.152706e+2, 2.5280347e+2, -512177.4, -593490.75, -11903.298, -0.0031109715, -0.03741963, -510470.75, -47948.445 
9.152625e+2, 2.6279256e+2, -430120.75, -509427.22, -10335.288, -0.0037468025, -0.03718699, -428795.97, -64166.777 
9.152546e+2, 2.727815e+2, -343817.03, -416029.66, -10232.611, -0.005762337, -0.03730574, -342395.06, -75657.41 
9.1524696e+2, 2.8276977e+2, -267478.0, -343685.53, -7513.064, -0.0064729694, -0.036335845, -266744.38, -97891.78 
9.1523975e+2, 2.9275733e+2, -181084.42, -251469.83, -7221.6875, -0.004219773, -0.03624828, -180351.11, -109376.586 
9.152329e+2, 3.027492e+2, -80421.07, -77425.805, -3883.286, -0.0040364815, -0.035763606, -74761.37, -74761.37 
9.1522646e+2, 3.127461e+2, -89339.055, -76397.04, -3118.7878, -0.008414887, -0.038834088, -75684.68, -75684.68 
9.253849e+2, 1.22926496e+2, -1599164.1, -1738168.1, -838.25024, 0.004232063, -0.02356012, -1599159.1, 136157.72 
9.253776e+2, 1.3291848e+2, -1517284.0, -1653004.9, -240.97598, -0.002810244, -0.067375295, -1517283.5, 120112.016 
9.253702e+2, 1.4291124e+2, -1434266.5, -1565704.1, -3995.0657, 0.00577501, -0.014231041, -1434145.1, 105321.22 
9.25362e+2, 1.5290323e+2, -1348385.0, -1473311.1, -4942.5063, 0.0019652324, -0.03167095, -1348189.8, 93355.16 
9.253535e+2, 1.6289493e+2, -1267350.9, -1390586.0, -7387.693, -0.0006941358, -0.043100286, -1266909.5, 76716.734 
9.2534477e+2, 1.7288655e+2, -1181602.6, -1298081.9, -7419.281, 0.0007215884, -0.037247032, -1181132.0, 64576.35 
9.253359e+2, 1.8287785e+2, -1100368.3, -1214465.5, -9097.643, 0.0012928089, -0.03264632, -1099647.4, 48146.227 
9.253267e+2, 1.9286889e+2, -1014835.25, -1121817.6, -9320.038, -0.00043074667, -0.035855852, -1014029.4, 35852.06 
9.2531747e+2, 2.0285961e+2, -934006.3, -1038927.06, -10261.146, -0.0017323421, -0.037131876, -933012.2, 18960.148 
9.2530805e+2, 2.1285012e+2, -848086.8, -946127.44, -10240.488, -0.0018640623, -0.03625349, -847028.6, 7036.537 
9.2529863e+2, 2.2284035e+2, -766758.1, -862701.1, -10161.578, -0.002199545, -0.03486067, -765693.7, -9532.535 
9.252893e+2, 2.3283033e+2, -680692.7, -769723.44, -10198.156, -0.0030941868, -0.03582785, -679539.44, -21280.223 
9.2528e+2, 2.4282e+2, -599763.6, -686814.94, -9358.957, -0.0035086595, -0.036008276, -598768.8, -38408.21 
9.252708e+2, 2.528094e+2, -514461.28, -594182.5, -9264.458, -0.0028841943, -0.037233472, -513398.8, -50934.69 
9.2526186e+2, 2.6279855e+2, -433042.1, -510207.53, -7601.357, -0.0032737735, -0.036933146, -432300.44, -67729.85 
9.2525303e+2, 2.7278754e+2, -346015.78, -416455.0, -7348.799, -0.005970785, -0.036879797, -345257.28, -78578.79 
9.252446e+2, 2.8277588e+2, -269790.44, -344001.88, -4638.4497, -0.006870531, -0.03592034, -269501.66, -100708.86 
9.252365e+2, 2.927635e+2, -185681.52, -252915.36, -4291.5435, -0.0036605191, -0.036269955, -185408.69, -114494.58 
9.252289e+2, 3.0275545e+2, -85975.586, -78942.086, -878.195, -0.003238486, -0.03582418, -78834.09, -78834.09 
9.2522156e+2, 3.127525e+2, -93495.14, -77185.63, -809.883, -0.009034099, -0.03798302, -77145.516, -77145.516 
9.353963e+2, 1.2293353e+2, -1599629.0, -1739295.0, -4018.5964, 0.0058140308, -0.023800092, -1599513.5, 135734.38 
9.3538815e+2, 1.3292548e+2, -1517295.0, -1653203.4, -3338.823, -0.003331563, -0.067689665, -1517213.0, 120113.9 
9.353798e+2, 1.4291821e+2, -1434853.1, -1567095.6, -6983.6484, 0.0037832826, -0.014152573, -1434485.4, 104912.8 
9.353708e+2, 1.529101e+2, -1349166.1, -1475069.1, -7876.0225, 0.0024534143, -0.030409547, -1348675.3, 92802.39 
9.3536144e+2, 1.629017e+2, -1267511.5, -1391054.1, -10381.033, 0.00096248987, -0.04151132, -1266645.3, 76914.62 
9.3535185e+2, 1.728933e+2, -1181654.1, -1298272.5, -10424.062, 0.00045479083, -0.03733186, -1180729.6, 64912.563 
9.35342e+2, 1.8288457e+2, -1100610.9, -1215043.8, -12186.105, -0.00008322078, -0.033494085, -1099327.6, 48400.277 
9.3533206e+2, 1.9287556e+2, -1015154.8, -1122553.5, -12416.009, -0.0008935493, -0.03533656, -1013738.1, 36077.926 
9.3532187e+2, 2.0286626e+2, -933917.06, -1038846.9, -13272.194, -0.0013410079, -0.0359855, -932264.3, 19642.871 
9.353117e+2, 2.128568e+2, -847950.0, -945895.94, -13225.529, -0.000892796, -0.03626288, -846195.56, 7804.39 
9.3530136e+2, 2.22847e+2, -766738.2, -862717.25, -13145.353, -0.001104217, -0.035679497, -764970.4, -8874.439 
9.352911e+2, 2.3283698e+2, -680769.94, -769874.2, -13171.252, -0.0028861475, -0.03654199, -678863.75, -20669.654 
9.352809e+2, 2.4282664e+2, -599639.75, -686528.1, -12486.11, -0.0041016517, -0.036271024, -597881.06, -37585.7 
9.352709e+2, 2.528161e+2, -514291.7, -593829.6, -12432.371, -0.00398213, -0.03637282, -512393.7, -49995.14 
9.352611e+2, 2.6280528e+2, -432592.97, -509262.06, -10450.105, -0.0040406883, -0.035371188, -431194.13, -66689.59 
9.3525153e+2, 2.7279437e+2, -345590.22, -415442.72, -10111.343, -0.0045707105, -0.035608076, -344156.03, -77544.3 
9.352422e+2, 2.8278276e+2, -269324.94, -342881.2, -7844.331, -0.005087193, -0.035591085, -268497.7, -99772.336 
9.352332e+2, 2.9277045e+2, -185190.03, -251796.47, -7621.355, -0.0055778157, -0.03826165, -184329.1, -113482.99 
9.3522453e+2, 3.0276242e+2, -85838.89, -78571.28, -3580.2827, -0.006078151, -0.037768807, -77103.82, -77103.82 
9.3521655e+2, 3.1275952e+2, -93592.24, -77161.73, -3323.6233, -0.006190468, -0.034432773, -76514.88, -76514.88 
9.454079e+2, 1.2294154e+2, -1594503.8, -1737849.8, -797.983, 0.005384195, -0.023670394, -1594499.3, 140670.16 
9.453988e+2, 1.3293341e+2, -1512285.9, -1651538.0, -396.2511, -0.0028375953, -0.067514345, -1512284.8, 124964.44 
9.453896e+2, 1.4292607e+2, -1430356.6, -1565764.0, -4181.504, 0.0042126756, -0.013789193, -1430227.6, 109093.44 
9.4537973e+2, 1.5291786e+2, -1345558.0, -1474246.5, -4817.577, 0.002439655, -0.03028378, -1345377.9, 96023.664 
9.453695e+2, 1.629094e+2, -1264498.3, -1390051.3, -7267.214, 0.00068165164, -0.041496992, -1264079.0, 79405.43 
9.4535905e+2, 1.7290097e+2, -1179464.0, -1297606.4, -7473.0547, 0.0002441477, -0.0372549, -1178993.1, 66573.984 
9.453483e+2, 1.828922e+2, -1098976.4, -1214567.4, -9293.552, -0.00012170502, -0.03328309, -1098234.0, 49419.074 
9.453374e+2, 1.9288316e+2, -1013572.2, -1122130.0, -9395.545, -0.00055570435, -0.034806333, -1012765.0, 36976.48 
9.453263e+2, 2.0287384e+2, -932442.25, -1038232.0, -10223.745, -0.00090739253, -0.03538125, -931463.25, 20369.588 
9.4531524e+2, 2.1286437e+2, -847236.25, -945661.56, -10350.847, -0.0010103261, -0.03616239, -846159.5, 7766.312 
9.453041e+2, 2.2285457e+2, -766832.44, -862596.6, -10384.518, -0.0014124464, -0.03581823, -765719.25, -9697.512 
9.4529295e+2, 2.3284456e+2, -682063.2, -770333.1, -10289.659, -0.0025680228, -0.036266036, -680879.56, -22759.82 
9.452819e+2, 2.4283426e+2, -601426.2, -686996.06, -9440.329, -0.0035805113, -0.035712253, -600397.06, -40176.285 
9.4527096e+2, 2.5282377e+2, -515415.03, -593972.25, -9323.784, -0.0042560217, -0.035877123, -514323.6, -51999.91 
9.452602e+2, 2.62813e+2, -433924.3, -509323.3, -7403.2056, -0.0045605544, -0.035054095, -433204.28, -68775.02 
9.4524974e+2, 2.7280208e+2, -349454.63, -416739.6, -7254.859, -0.0040466017, -0.035713177, -348681.28, -82145.25 
9.4523954e+2, 2.8279057e+2, -274117.56, -344237.94, -5025.9272, -0.004298544, -0.035763346, -273759.16, -105110.12 
9.452296e+2, 2.927783e+2, -187927.92, -252116.7, -4743.754, -0.006398897, -0.03766762, -187579.23, -116810.38 
9.452202e+2, 3.0277038e+2, -88415.45, -79074.64, -607.7392, -0.007279925, -0.036984384, -79035.266, -79035.266 
9.452113e+2, 3.1276754e+2, -99944.55, -79634.586, -66.4102, -0.004796968, -0.034782965, -79634.375, -79634.375 
9.554196e+2, 1.22950405e+2, -1595243.0, -1739533.4, -4041.3699, 0.0031841157, -0.023242675, -1595130.0, 139952.63 
9.554097e+2, 1.3294216e+2, -1513068.9, -1653289.1, -3550.6455, -0.0014886276, -0.06691207, -1512979.0, 124184.51 
9.553996e+2, 1.4293471e+2, -1430725.8, -1566673.3, -7341.9185, 0.0066887382, -0.013174651, -1430330.4, 108906.04 
9.553888e+2, 1.5292643e+2, -1345866.4, -1474976.6, -7964.6055, 0.001957513, -0.03112842, -1345376.9, 95940.586 
9.553777e+2, 1.6291793e+2, -1264809.4, -1390806.1, -10479.898, -0.0013060768, -0.042830233, -1263943.6, 79457.27 
9.5536625e+2, 1.7290944e+2, -1179795.0, -1298419.1, -10690.664, 0.000069014655, -0.03702347, -1178839.3, 66644.77 
9.553547e+2, 1.8290065e+2, -1099054.6, -1214861.0, -12412.469, 0.0009810877, -0.03214305, -1097739.1, 49831.117 
9.553428e+2, 1.9289158e+2, -1013641.4, -1122358.1, -12481.787, 0.00046272864, -0.03427352, -1012226.75, 37432.258 
9.553309e+2, 2.0288225e+2, -932605.4, -1038611.1, -13389.318, -0.0004687863, -0.035254646, -930940.4, 20810.213 
9.5531887e+2, 2.1287273e+2, -847470.0, -946145.56, -13526.816, -0.0021116373, -0.035965852, -845649.3, 8194.513 
9.553068e+2, 2.2286293e+2, -766679.2, -862310.6, -13643.199, -0.0029858402, -0.0353554, -764770.9, -8830.958 
9.552947e+2, 2.3285297e+2, -681829.2, -769892.9, -13569.821, -0.0021647797, -0.03511438, -679785.6, -21748.086 
9.5528275e+2, 2.4284269e+2, -601119.8, -686399.5, -12483.309, -0.002090507, -0.03442642, -599330.06, -39191.844 
9.5527095e+2, 2.528322e+2, -515177.06, -593429.94, -12301.72, -0.003811581, -0.035709325, -513288.72, -51047.957 
9.552593e+2, 2.6282147e+2, -433772.94, -508900.13, -10747.485, -0.004880976, -0.035853423, -432265.7, -67919.61 
9.552479e+2, 2.728106e+2, -349322.8, -416399.97, -10696.647, -0.004340124, -0.03705833, -347658.34, -81205.7 
9.5523673e+2, 2.8279912e+2, -273564.84, -343048.0, -7929.5737, -0.004448642, -0.03637002, -272671.4, -104106.29 
9.55226e+2, 2.9278702e+2, -187373.34, -250800.2, -7499.814, -0.0062498944, -0.034691222, -186498.6, -115814.93 
9.552157e+2, 3.0277917e+2, -87890.53, -77751.98, -3967.9844, -0.007025135, -0.033692878, -76383.67, -76383.67 
9.552058e+2, 3.1277636e+2, -99412.29, -78358.516, -3593.7893, -0.004804246, -0.038715333, -77761.98, -77761.98 
9.6543163e+2, 1.2296024e+2, -1589586.3, -1737656.6, -936.6151, 0.0036306628, -0.022453787, -1589580.4, 145405.88 
9.654208e+2, 1.3295187e+2, -1508423.1, -1652352.9, -340.15787, -0.0017135263, -0.06699517, -1508422.4, 128645.96 
9.654098e+2, 1.4294434e+2, -1426482.8, -1565306.0, -4145.604, 0.00630112, -0.013216278, -1426359.1, 112783.055 
9.65398e+2, 1.5293601e+2, -1342361.3, -1473864.6, -4779.5513, 0.002157807, -0.0306773, -1342187.8, 99035.945 
9.65386e+2, 1.6292745e+2, -1261881.9, -1389956.3, -7286.1, -0.00080789963, -0.04207075, -1261468.8, 81838.96 
9.6537364e+2, 1.729189e+2, -1176973.9, -1297658.6, -7485.652, 0.00019981315, -0.03645382, -1176511.4, 68879.984 
9.653611e+2, 1.8291007e+2, -1096422.9, -1213873.4, -9254.052, 0.0008465898, -0.03188124, -1095698.3, 51779.766 
9.6534836e+2, 1.9290097e+2, -1012101.4, -1121877.3, -9390.132, 0.00027668514, -0.034515757, -1011303.94, 38263.07 
9.653355e+2, 2.0289162e+2, -931992.2, -1038431.56, -10335.372, -0.00059107994, -0.035568986, -930997.9, 20660.908 
9.653225e+2, 2.128821e+2, -847602.44, -946346.4, -10355.04, -0.0019563877, -0.035431545, -846528.2, 7223.907 
9.653095e+2, 2.2287229e+2, -767022.56, -862294.9, -10375.605, -0.002752925, -0.034410696, -765905.7, -10057.512 
9.652965e+2, 2.3286234e+2, -681848.8, -769699.56, -10390.595, -0.002274816, -0.034740187, -680636.56, -22690.875 
9.6528363e+2, 2.4285208e+2, -601480.2, -686219.44, -9427.128, -0.0022493505, -0.03444611, -600444.06, -40397.9 
9.652709e+2, 2.5284165e+2, -517584.72, -594260.4, -9346.031, -0.0033959418, -0.035688553, -516461.97, -54313.492 
9.652583e+2, 2.6283094e+2, -437007.2, -509854.44, -7780.7197, -0.00435743, -0.035681903, -436185.4, -71932.016 
9.652459e+2, 2.7282012e+2, -351229.78, -416688.7, -7524.795, -0.0047564902, -0.036503267, -350375.94, -84016.53 
9.6523386e+2, 2.8280872e+2, -275412.38, -343143.72, -4633.699, -0.0050465455, -0.035788868, -275096.84, -106625.61 
9.6522224e+2, 2.9279667e+2, -192377.4, -252434.05, -4392.5103, -0.0053263805, -0.034884803, -192057.84, -121468.625 
9.65211e+2, 3.027889e+2, -94130.03, -79425.09, -966.05994, -0.0058133462, -0.034062434, -79361.9, -79361.9 
9.652001e+2, 3.1278622e+2, -103524.984, -78903.51, -378.4657, -0.0061794566, -0.037851, -78897.69, -78897.69 
9.7544384e+2, 1.2297094e+2, -1589825.3, -1738364.8, -4324.6143, 0.0062058656, -0.021373723, -1589699.4, 145182.02 
9.75432e+2, 1.3296244e+2, -1509178.5, -1654033.1, -3667.4165, -0.0033036233, -0.06763004, -1509085.8, 127879.07 
9.7542006e+2, 1.429548e+2, -1426881.6, -1566255.1, -7504.383, 0.0034483643, -0.013782156, -1426478.8, 112560.766 
9.7540736e+2, 1.5294644e+2, -1342676.5, -1474637.6, -8129.0313, 0.0029200418, -0.029102879, -1342177.6, 98943.84 
9.753944e+2, 1.6293783e+2, -1262159.4, -1390706.9, -10540.799, 0.0017906917, -0.03951253, -1261300.8, 81905.05 
9.753811e+2, 1.7292923e+2, -1177316.8, -1298486.6, -10701.907, 0.00056243077, -0.03559004, -1176378.9, 68911.414 
9.753676e+2, 1.8292032e+2, -1096627.1, -1214376.6, -12600.7, -0.00040232824, -0.032366876, -1095293.9, 52083.688 
9.7535396e+2, 1.929112e+2, -1012299.5, -1122363.4, -12762.71, -0.0009792431, -0.035420455, -1010839.0, 38627.902 
9.7534007e+2, 2.0290181e+2, -931959.44, -1038440.75, -13699.777, -0.0012278791, -0.036257163, -930225.06, 21333.736 
9.753262e+2, 2.1289231e+2, -847541.0, -946288.9, -13712.863, -0.0007202324, -0.034601405, -845672.1, 7979.855 
9.753122e+2, 2.2288252e+2, -766932.5, -862194.6, -13597.364, -0.0009629235, -0.033042863, -765029.7, -9281.748 
9.752983e+2, 2.3287256e+2, -681836.9, -769668.56, -13572.86, -0.0028589973, -0.035059135, -679787.25, -21941.654 
9.752844e+2, 2.428623e+2, -601392.44, -686010.75, -12874.632, -0.003903258, -0.03562805, -599476.94, -39530.9 
9.752707e+2, 2.5285187e+2, -517488.47, -594057.06, -12860.104, -0.003031516, -0.03579158, -515386.28, -53338.156 
9.7525716e+2, 2.6284122e+2, -436507.72, -508811.88, -10938.769, -0.0031021994, -0.034621496, -434889.03, -70736.516 
9.752439e+2, 2.7283052e+2, -350710.16, -415522.03, -10592.402, -0.005312862, -0.034217745, -349022.9, -82765.31 
9.752309e+2, 2.8281915e+2, -275128.03, -342413.25, -8126.994, -0.0060954364, -0.034128234, -274160.34, -105791.555 
9.7521824e+2, 2.9280713e+2, -192167.39, -251889.52, -7998.0806, -0.0037199121, -0.03796817, -191114.83, -120628.03 
9.75206e+2, 3.0279943e+2, -93245.61, -77488.48, -4053.8545, -0.003755585, -0.037744336, -76506.71, -76506.71 
9.751943e+2, 3.12797e+2, -102544.445, -76674.25, -3331.5203, -0.008903223, -0.032522004, -76252.11, -76252.11 
9.854563e+2, 1.2298268e+2, -1583496.6, -1735518.3, -863.7434, 0.006535599, -0.021593893, -1583491.8, 151274.64 
9.854435e+2, 1.3297406e+2, -1504923.6, -1653410.1, -268.27, -0.0033987046, -0.06697223, -1504923.1, 131927.69 
9.854305e+2, 1.4296633e+2, -1423097.9, -1565233.3, -4066.8506, 0.0037147189, -0.012946234, -1422981.6, 115945.09 
9.854169e+2, 1.529579e+2, -1338706.0, -1473427.3, -4731.3594, 0.0026706262, -0.0288036, -1338540.0, 102469.29 
9.854029e+2, 1.6294922e+2, -1258417.9, -1389414.5, -7260.841, 0.001383666, -0.039537072, -1258016.6, 85077.695 
9.853887e+2, 1.7294055e+2, -1174872.4, -1297849.8, -7410.461, 0.0007327223, -0.035607185, -1174427.5, 70751.766 
9.853743e+2, 1.8293162e+2, -1095042.4, -1213919.4, -9305.564, 0.00004198991, -0.032160293, -1094318.4, 52948.48 
9.8535955e+2, 1.9292247e+2, -1011069.06, -1122067.0, -9451.164, -0.00093652704, -0.034517176, -1010270.06, 39086.414 
9.853447e+2, 2.0291308e+2, -930800.6, -1037870.4, -10354.899, -0.0014029673, -0.035171628, -929808.4, 21640.186 
9.853298e+2, 2.1290354e+2, -846508.56, -945762.2, -10382.893, -0.0007068186, -0.03442679, -845434.06, 8107.763 
9.8531497e+2, 2.2289377e+2, -766493.0, -861894.3, -10313.1, -0.00078841957, -0.033333734, -765390.8, -9753.079 
9.853e+2, 2.3288381e+2, -682996.4, -770202.06, -10319.494, -0.0026511059, -0.034833737, -681791.8, -24056.465 
9.8528516e+2, 2.4287356e+2, -603223.6, -686499.25, -9602.818, -0.00377104, -0.03507677, -602130.6, -42294.98 
9.8527044e+2, 2.528632e+2, -518690.47, -594202.56, -9445.708, -0.0031771332, -0.035326973, -517526.84, -55589.477 
9.8525596e+2, 2.6285258e+2, -437852.44, -508865.1, -7446.2266, -0.0032442498, -0.03422892, -437080.06, -73038.69 
9.852417e+2, 2.728419e+2, -354195.38, -416635.1, -7328.0244, -0.0048582484, -0.03385544, -353346.88, -87200.9 
9.852277e+2, 2.8283063e+2, -279528.47, -343566.0, -4992.7896, -0.0055787535, -0.03372711, -279141.53, -110885.02 
9.852141e+2, 2.9281867e+2, -195470.9, -252471.5, -4560.675, -0.004330511, -0.037416276, -195108.31, -124734.664 
9.852009e+2, 3.0281106e+2, -96641.48, -78265.5, -476.67023, -0.0046266327, -0.03719935, -78253.14, -78253.14 
9.8518825e+2, 3.128087e+2, -108501.586, -78794.484, -373.86508, -0.008146027, -0.032214586, -78789.78, -78789.78 
9.954689e+2, 1.22995354e+2, -1583534.8, -1735694.0, -4543.5493, 0.0049111727, -0.022873707, -1583399.1, 151243.03 
9.954551e+2, 1.3298663e+2, -1505891.6, -1655552.0, -3939.7668, -0.0022506842, -0.06522782, -1505788.0, 130939.77 
9.954411e+2, 1.4297877e+2, -1423601.0, -1566501.6, -7451.5127, 0.006569342, -0.01094784, -1423213.5, 115591.3 
9.9542654e+2, 1.5297022e+2, -1339192.4, -1474540.4, -8024.1357, 0.0015249237, -0.029588392, -1338718.3, 102170.195 
9.954116e+2, 1.6296147e+2, -1258731.6, -1390157.8, -10763.829, -0.0016090495, -0.041743953, -1257855.9, 85118.34 
9.953964e+2, 1.7295277e+2, -1175160.6, -1298543.9, -10956.537, 0.000725296, -0.036361378, -1174195.3, 70864.32 
9.9538094e+2, 1.829438e+2, -1095177.8, -1214312.9, -12771.151, 0.0019138489, -0.03133986, -1093824.1, 53323.336 
9.9536526e+2, 1.9293465e+2, -1011216.1, -1122453.1, -12890.277, 0.00021140417, -0.032037817, -1009741.94, 39495.254 
9.953494e+2, 2.0292524e+2, -930791.8, -1037916.4, -13749.7, -0.0012083016, -0.032535158, -929055.1, 22274.309 
9.953335e+2, 2.1291567e+2, -846520.1, -945798.75, -13765.981, -0.0017941525, -0.034827862, -844646.7, 8776.315 
9.9531764e+2, 2.2290589e+2, -766481.0, -861889.25, -13870.899, -0.0020652758, -0.03507349, -764505.3, -8986.255 
9.953017e+2, 2.3289594e+2, -683006.7, -770239.9, -13912.924, -0.0017488666, -0.034113046, -680841.44, -23225.01 
9.9528587e+2, 2.4288574e+2, -602871.9, -685795.44, -12987.099, -0.002076842, -0.032973684, -600885.5, -41169.055 
9.9527013e+2, 2.5287542e+2, -518317.9, -593390.2, -12779.294, -0.0038142048, -0.034347653, -516202.16, -54384.457 
9.952547e+2, 2.6286483e+2, -437695.75, -508465.5, -11018.979, -0.004668292, -0.034433976, -436019.75, -72098.445 
9.952394e+2, 2.7285415e+2, -354126.25, -416416.1, -10961.889, -0.0035019908, -0.03523446, -352253.44, -86227.58 
9.952244e+2, 2.8284296e+2, -278781.6, -341959.3, -8360.584, -0.0036790527, -0.03444367, -277693.9, -109558.11 
9.9520975e+2, 2.9283118e+2, -194612.05, -250575.6, -7864.9146, -0.0070167533, -0.03350383, -193527.75, -123276.52 
9.951956e+2, 3.0282366e+2, -96626.71, -78073.164, -4031.5427, -0.008215839, -0.03277075, -77235.01, -77235.01 
9.951819e+2, 3.128212e+2, -108765.625, -79156.99, -3986.1162, -0.0042081303, -0.036577243, -78629.75, -78629.75 
1.0054818e+3, 1.2300912e+2, -1578312.1, -1733110.1, -905.66644, 0.004901171, -0.0226369, -1578306.9, 156200.38 
1.00546695e+3, 1.3300025e+2, -1501232.6, -1655149.3, -409.79416, -0.0027863036, -0.06385388, -1501231.6, 135362.55 
1.0054519e+3, 1.4299224e+2, -1418448.6, -1564900.4, -3960.8872, 0.0071858224, -0.011506581, -1418341.5, 120331.164 
1.00543626e+3, 1.5298364e+2, -1335485.6, -1473497.8, -4474.66, 0.00190755, -0.029532876, -1335340.8, 105416.33 
1.0054203e+3, 1.6297483e+2, -1255970.5, -1389280.6, -7197.54, -0.0015383216, -0.041123237, -1255583.0, 87260.27 
1.00540414e+3, 1.729661e+2, -1172399.3, -1297668.0, -7371.4316, 0.00041466867, -0.03555159, -1171967.0, 72962.04 
1.0053876e+3, 1.829571e+2, -1092524.3, -1213310.8, -9184.363, 0.0015591613, -0.030608056, -1091829.9, 55187.434 
1.005371e+3, 1.929479e+2, -1009316.9, -1121829.6, -9317.383, 0.00045229588, -0.03187996, -1008550.5, 40556.902 
1.00535415e+3, 2.0293847e+2, -929664.94, -1037526.4, -10211.473, -0.0006858076, -0.032564614, -928706.75, 22493.18 
1.00533724e+3, 2.1292889e+2, -846490.4, -945959.6, -10328.994, -0.0017206861, -0.034216437, -845429.1, 7864.429 
1.0053203e+3, 2.2291909e+2, -766913.06, -861850.2, -10488.348, -0.0022739822, -0.03418752, -765768.2, -10378.548 
1.00530334e+3, 2.3290916e+2, -683361.3, -770112.06, -10364.833, -0.0017995194, -0.033735164, -682140.1, -24653.303 
1.0052865e+3, 2.42899e+2, -603541.8, -685734.44, -9323.175, -0.0019549958, -0.032776475, -602497.56, -42911.023 
1.0052698e+3, 2.528887e+2, -520325.06, -594019.94, -9294.787, -0.0035886315, -0.033605326, -519170.84, -57483.344 
1.0052533e+3, 2.6287818e+2, -440409.6, -509202.03, -7661.3022, -0.0044842632, -0.033543773, -439566.7, -75775.984 
1.005237e+3, 2.7286753e+2, -356638.8, -417059.78, -7397.0156, -0.0036536176, -0.035074573, -355746.4, -89851.56 
1.005221e+3, 2.8285637e+2, -281398.72, -342294.2, -4655.5884, -0.0038651177, -0.034498617, -281044.84, -113040.68 
1.0052053e+3, 2.9284468e+2, -198701.6, -251582.19, -4480.192, -0.006612583, -0.032582156, -198324.7, -128206.055 
1.0051901e+3, 3.0283728e+2, -101701.53, -79440.95, -748.2866, -0.0077130273, -0.0315564, -79415.83, -79415.83 
1.0051755e+3, 3.128349e+2, -113904.67, -80590.57, 24.738794, -0.004748138, -0.036705814, -80590.555, -80590.555 
1.01549484e+3, 1.2302388e+2, -1578112.5, -1732945.5, -4386.1255, 0.006073634, -0.021060646, -1577988.3, 156374.47 
1.0154789e+3, 1.3301484e+2, -1502463.6, -1657839.8, -3890.9214, -0.004744982, -0.06278881, -1502366.3, 134085.03 
1.0154629e+3, 1.4300665e+2, -1418977.4, -1566126.5, -7631.105, 0.0059186756, -0.014189019, -1418582.8, 119948.945 
1.01544626e+3, 1.5299802e+2, -1335867.0, -1474409.6, -8178.339, 0.003557894, -0.028754925, -1335385.9, 105230.44 
1.0154293e+3, 1.6298918e+2, -1256184.8, -1389890.5, -10763.699, 0.0010821221, -0.03810735, -1255323.8, 87379.125 
1.015412e+3, 1.7298038e+2, -1172649.5, -1298278.9, -10896.879, -0.00019699024, -0.033407316, -1171711.4, 73077.766 
1.0153945e+3, 1.8297131e+2, -1092703.9, -1213738.8, -12799.368, -0.00074652274, -0.029941527, -1091365.1, 55512.81 
1.01537675e+3, 1.9296207e+2, -1009493.75, -1122277.9, -12950.284, -0.0001042696, -0.033718087, -1008025.8, 40942.69 
1.0153589e+3, 2.029526e+2, -929814.56, -1037916.8, -13864.941, 0.00009284487, -0.034883257, -928064.56, 22996.775 
1.0153409e+3, 2.1294303e+2, -846687.56, -946409.5, -13978.715, -0.00065974257, -0.03269298, -844765.1, 8389.848 
1.015323e+3, 2.2293326e+2, -766643.2, -861335.9, -14065.285, -0.0015862418, -0.030977758, -764598.1, -9347.211 
1.015305e+3, 2.3292334e+2, -683019.06, -769416.5, -13930.826, -0.0027187802, -0.03366756, -680828.4, -23480.385 
1.0152871e+3, 2.4291319e+2, -603425.94, -685498.8, -12984.828, -0.0032615084, -0.034269452, -601420.6, -41973.152 
1.0152694e+3, 2.5290293e+2, -520320.6, -593986.8, -12973.593, -0.002608803, -0.033054456, -518102.53, -56554.37 
1.0152518e+3, 2.6289243e+2, -439942.63, -508212.7, -11248.297, -0.0028811304, -0.031643987, -438137.1, -74486.12 
1.01523444e+3, 2.7288187e+2, -356105.63, -415894.78, -10966.016, -0.0052187624, -0.033507597, -354157.78, -88403.46 
1.0152174e+3, 2.828708e+2, -281083.06, -341561.0, -8325.33, -0.005996954, -0.03395209, -279957.94, -112094.9 
1.0152008e+3, 2.9285914e+2, -198500.45, -251049.72, -8174.0156, -0.0033799834, -0.034412798, -197258.36, -127281.0 
1.0151845e+3, 3.028518e+2, -100631.875, -77088.79, -4377.1807, -0.0034798267, -0.033272795, -76301.31, -76301.31 
1.0151687e+3, 3.1284964e+2, -112645.734, -77814.42, -3607.226, -0.009556927, -0.032860186, -77444.77, -77444.77 
1.02550805e+3, 1.2303973e+2, -1571336.4, -1729429.4, -637.65906, 0.0067519746, -0.021681014, -1571333.9, 162873.64 
1.02549106e+3, 1.3303056e+2, -1498417.6, -1657901.4, -212.84291, -0.005487278, -0.05924261, -1498417.4, 137879.92 
1.02547415e+3, 1.4302218e+2, -1415056.8, -1564981.4, -3980.1487, 0.0063081775, -0.015525056, -1414951.1, 123428.305 
1.0254563e+3, 1.530135e+2, -1331805.3, -1472965.8, -4459.15, 0.0034362923, -0.028345903, -1331664.6, 108799.95 
1.0254384e+3, 1.6300464e+2, -1252509.6, -1388597.0, -7023.883, 0.0007883752, -0.036661055, -1252148.0, 90403.49 
1.0254199e+3, 1.7299578e+2, -1170255.0, -1297671.5, -7233.345, 0.000049361675, -0.03290136, -1169845.8, 74792.63 
1.02540135e+3, 1.8298666e+2, -1091038.8, -1213207.5, -9136.991, -0.00033526702, -0.029964179, -1090359.3, 56368.387 
1.0253826e+3, 1.9297738e+2, -1007936.75, -1121783.4, -9255.28, -0.00031728446, -0.03323957, -1007189.25, 41629.184 
1.0253638e+3, 2.029679e+2, -928384.94, -1037213.9, -10195.949, -0.0003766171, -0.034103055, -927437.94, 23473.43 
1.0253447e+3, 2.1295835e+2, -846027.8, -946080.44, -10140.614, -0.00060560834, -0.03206475, -845010.44, 7994.672 
1.02532566e+3, 2.2294857e+2, -766670.7, -861239.0, -10089.446, -0.001225825, -0.030415572, -765606.2, -10505.224 
1.02530666e+3, 2.3293866e+2, -683695.8, -769671.7, -10223.728, -0.0026036708, -0.03295863, -682496.8, -25298.803 
1.0252877e+3, 2.4292853e+2, -604497.2, -685597.25, -9496.374, -0.0033032747, -0.03360877, -603400.06, -44102.785 
1.0252688e+3, 2.5291827e+2, -521954.47, -594335.7, -9278.41, -0.0025683253, -0.03289614, -520784.03, -59386.332 
1.02525026e+3, 2.6290783e+2, -442084.6, -508550.63, -7356.3647, -0.002777782, -0.03151522, -441280.16, -77780.125 
1.0252318e+3, 2.7289736e+2, -359006.1, -416598.4, -7208.689, -0.0051517803, -0.032354634, -358117.53, -92514.81 
1.02521375e+3, 2.8288633e+2, -284586.97, -342367.28, -4684.3994, -0.0059914873, -0.032611676, -284209.66, -116498.94 
1.02519594e+3, 2.9287472e+2, -202648.97, -252192.28, -4324.222, -0.0034358955, -0.034716643, -202274.38, -132449.92 
1.0251787e+3, 3.028675e+2, -105209.2, -78197.15, -497.40857, -0.003515644, -0.03397929, -78187.99, -78187.99 
1.02516174e+3, 3.1286544e+2, -117670.76, -79136.33, -404.15363, -0.009531472, -0.0311812, -79132.086, -79132.086 
1.0355216e+3, 1.2305654e+2, -1571220.6, -1729294.1, -4375.729, 0.006906036, -0.023871973, -1571099.6, 162943.19 
1.0355035e+3, 1.3304728e+2, -1499699.1, -1660670.1, -4027.168, -0.0052427007, -0.053666215, -1499598.5, 136535.0 
1.03548534e+3, 1.430387e+2, -1415448.5, -1565966.3, -7688.4736, 0.008019538, -0.015774207, -1415056.9, 123160.79 
1.0354666e+3, 1.5302998e+2, -1332055.0, -1473575.8, -8140.6353, 0.0017878823, -0.028255034, -1331588.3, 108714.78 
1.0354474e+3, 1.6302107e+2, -1252845.9, -1389406.5, -10844.76, -0.0019745072, -0.03652571, -1251990.0, 90400.43 
1.035428e+3, 1.7301214e+2, -1170633.5, -1298585.1, -11078.488, 0.0010193659, -0.03377468, -1169681.4, 74796.71 
1.03540845e+3, 1.8300298e+2, -1091165.9, -1213612.9, -12816.178, 0.0023531055, -0.030555556, -1089838.9, 56728.965 
1.03538856e+3, 1.929937e+2, -1008097.0, -1122151.1, -12886.46, -0.00026790804, -0.03075025, -1006659.2, 41999.45 
1.0353685e+3, 2.0298423e+2, -928267.06, -1036951.7, -14002.749, -0.0019638066, -0.030635271, -926491.94, 24259.621 
1.0353484e+3, 2.1297465e+2, -845836.44, -945719.75, -13999.344, -0.001451294, -0.032229576, -843911.44, 8933.869 
1.03532836e+3, 2.2296485e+2, -766763.25, -861501.2, -13844.112, -0.001178509, -0.032162473, -764781.6, -9840.349 
1.03530824e+3, 2.3295495e+2, -683940.6, -770178.06, -13938.428, -0.0015874775, -0.031653203, -681743.75, -24705.346 
1.0352882e+3, 2.4294482e+2, -604142.94, -684850.25, -13292.078, -0.0022619893, -0.03101261, -602010.1, -42872.598 
1.0352683e+3, 2.5293463e+2, -521477.4, -593320.7, -13101.369, -0.0034142556, -0.033096522, -519162.78, -57925.27 
1.03524856e+3, 2.6292422e+2, -441745.56, -507837.66, -11131.643, -0.0040534968, -0.032985084, -439921.06, -76581.73 
1.0352291e+3, 2.729138e+2, -358773.06, -416056.2, -10970.935, -0.0036141153, -0.03156707, -356743.78, -91302.35 
1.03521e+3, 2.8290287e+2, -283954.3, -340984.0, -8521.634, -0.0040865843, -0.030528167, -282708.2, -115159.48 
1.03519104e+3, 2.9289135e+2, -201945.77, -250661.0, -8188.576, -0.006580885, -0.033609346, -200606.17, -130944.67 
1.03517264e+3, 3.0288422e+2, -105054.93, -77775.73, -4253.574, -0.0075209877, -0.033758223, -77127.86, -77127.86 
1.0351547e+3, 3.1288218e+2, -117742.984, -79112.14, -4134.296, -0.005012308, -0.031536568, -78674.64, -78674.64 
1.0455353e+3, 1.2307452e+2, -1565712.5, -1726560.1, -474.78104, 0.007800669, -0.02550371, -1565711.0, 168155.63 
1.0455161e+3, 1.330652e+2, -1495171.5, -1660155.3, -53.612278, -0.0064831683, -0.047402956, -1495171.4, 140786.5 
1.0454968e+3, 1.4305641e+2, -1410709.1, -1564482.8, -3645.972, 0.008195017, -0.018558372, -1410622.8, 127421.46 
1.04547694e+3, 1.5304764e+2, -1328355.0, -1472475.6, -4257.5146, 0.0020593298, -0.028720059, -1328229.4, 111900.69 
1.0454567e+3, 1.6303869e+2, -1249781.4, -1388423.5, -7017.011, -0.0017834895, -0.035289712, -1249427.3, 92790.71 
1.0454363e+3, 1.7302969e+2, -1167388.3, -1297546.4, -7171.6035, 0.0008257348, -0.03288966, -1166994.3, 77311.805 
1.04541555e+3, 1.8302049e+2, -1088138.5, -1212329.4, -8919.814, 0.0020687454, -0.029939929, -1087501.1, 58895.02 
1.04539454e+3, 1.930112e+2, -1006924.8, -1121747.6, -8957.481, -0.000056695146, -0.030015824, -1006230.25, 42256.93 
1.0453734e+3, 2.0300171e+2, -928140.5, -1036917.5, -9999.57, -0.0015617645, -0.029892555, -927228.94, 23351.328 
1.04535215e+3, 2.1299213e+2, -845233.94, -945467.2, -10171.528, -0.0015376302, -0.03181038, -844212.2, 8461.954 
1.0453309e+3, 2.2298233e+2, -766082.2, -860985.1, -10163.956, -0.0014531651, -0.031872544, -765005.9, -10235.785 
1.0453098e+3, 2.3297244e+2, -684600.8, -770325.25, -9967.639, -0.0014313669, -0.030986218, -683457.06, -26590.094 
1.0452887e+3, 2.4296236e+2, -605603.75, -685125.8, -9095.674, -0.0019406589, -0.030066174, -604576.6, -45610.71 
1.0452676e+3, 2.529522e+2, -522989.88, -593620.2, -9110.613, -0.0035408365, -0.032123905, -521833.63, -60768.1 
1.0452468e+3, 2.6294184e+2, -443558.03, -508096.75, -7346.5386, -0.0043275156, -0.032243982, -442732.3, -79565.38 
1.0452262e+3, 2.7293146e+2, -361778.97, -416910.8, -7131.873, -0.0033283306, -0.031583685, -360871.34, -95602.73 
1.045206e+3, 2.829206e+2, -287495.6, -341678.53, -4582.668, -0.003560475, -0.030541673, -287110.72, -119735.5 
1.0451859e+3, 2.9290918e+2, -205365.38, -251241.86, -4340.5044, -0.0066106725, -0.03195998, -204958.33, -135471.38 
1.0451664e+3, 3.029021e+2, -108988.1, -78743.83, -438.0831, -0.007819668, -0.03179415, -78737.484, -78737.484 
1.0451473e+3, 3.1290013e+2, -123364.266, -80996.37, 90.68588, -0.004830878, -0.032276303, -80996.17, -80996.17 
1.05554916e+3, 1.23093516e+2, -1565703.0, -1726707.6, -4099.2026, 0.009116076, -0.026245037, -1565598.6, 168081.94 
1.0555288e+3, 1.3308416e+2, -1495976.0, -1661973.4, -3834.8628, -0.008958999, -0.040612802, -1495887.5, 139884.78 
1.05550855e+3, 1.4307514e+2, -1411256.1, -1565778.6, -7587.68, 0.007091349, -0.023436463, -1410884.4, 126976.25 
1.05548754e+3, 1.5306634e+2, -1328896.8, -1473714.8, -8229.734, 0.003908048, -0.029635245, -1328430.6, 111516.48 
1.05546616e+3, 1.6305733e+2, -1250050.9, -1389120.8, -10825.612, 0.0008308402, -0.033129726, -1249213.1, 92822.08 
1.05544455e+3, 1.7304827e+2, -1167686.6, -1298192.4, -10930.609, -0.00039943296, -0.030524654, -1166777.4, 77346.44 
1.0554226e+3, 1.8303905e+2, -1088227.8, -1212525.0, -12974.187, -0.00078106107, -0.028297275, -1086887.9, 59326.445 
1.0554005e+3, 1.9302973e+2, -1006935.1, -1121891.6, -13089.944, 0.00028989965, -0.030785533, -1005463.44, 42842.26 
1.0553783e+3, 2.0302022e+2, -928234.75, -1037258.5, -13783.546, 0.00052481034, -0.031477854, -926519.2, 23879.781 
1.055356e+3, 2.1301062e+2, -845458.8, -945958.25, -13861.057, -0.0010033951, -0.030856457, -843582.1, 8910.828 
1.0553338e+3, 2.2300084e+2, -765799.0, -860387.1, -14159.944, -0.0020625403, -0.029784495, -763724.7, -9135.889 
1.05531126e+3, 2.3299098e+2, -684195.75, -769505.44, -14042.738, -0.0020638967, -0.030899111, -681943.6, -25258.266 
1.05528906e+3, 2.4298093e+2, -605431.56, -684819.75, -12973.703, -0.0022931935, -0.030580323, -603365.2, -44581.227 
1.05526686e+3, 2.5297078e+2, -522953.44, -593535.56, -12937.27, -0.0030447817, -0.030066643, -520656.84, -59773.574 
1.055245e+3, 2.629605e+2, -443193.25, -507326.34, -11369.01, -0.0037305038, -0.02948917, -441237.5, -78253.16 
1.0552233e+3, 2.7295014e+2, -361353.56, -416031.63, -11209.091, -0.0042334488, -0.03234441, -359144.9, -94059.19 
1.0552018e+3, 2.829393e+2, -286958.97, -340529.47, -8453.603, -0.004350752, -0.032470398, -285656.63, -118464.88 
1.05518065e+3, 2.92928e+2, -204873.75, -250129.75, -8161.6587, -0.0037636266, -0.029795354, -203446.84, -134144.5 
1.05516e+3, 3.029211e+2, -108199.38, -76973.2, -4527.8647, -0.0047187028, -0.028206294, -76329.91, -76329.91 
1.05513975e+3, 3.1291917e+2, -122526.27, -79123.61, -4088.2585, -0.0088591, -0.033372622, -78741.875, -78741.875 
1.06556326e+3, 1.2311367e+2, -1560279.1, -1724909.9, -26.251799, 0.008708823, -0.028432783, -1560279.1, 173204.02 
1.0655417e+3, 1.3310432e+2, -1490983.1, -1660565.6, 122.5685, -0.00969905, -0.03302172, -1490983.1, 144591.67 
1.0655204e+3, 1.4309509e+2, -1406503.0, -1564198.0, -3681.3127, 0.008695569, -0.027937084, -1406417.1, 131248.1 
1.06549814e+3, 1.5308625e+2, -1324700.6, -1472403.3, -4260.0645, 0.0037824034, -0.029781288, -1324577.9, 115174.05 
1.0654757e+3, 1.630772e+2, -1246554.9, -1387748.5, -6720.6387, -0.0001381816, -0.030546864, -1246235.8, 95604.67 
1.06545284e+3, 1.7306814e+2, -1165781.4, -1297608.1, -6752.696, -0.00033639872, -0.029449875, -1165436.4, 78493.15 
1.0654299e+3, 1.8305886e+2, -1087048.4, -1212223.9, -8770.6455, -0.0002262849, -0.028216766, -1086436.9, 59583.48 
1.06540665e+3, 1.930495e+2, -1004714.0, -1121123.9, -9017.711, 0.00017527008, -0.030475086, -1004019.56, 44092.426 
1.0653833e+3, 2.0303996e+2, -925800.06, -1036130.1, -9796.662, 0.00013919479, -0.03096817, -924936.94, 25268.535 
1.06535986e+3, 2.1303037e+2, -845238.7, -945913.2, -9716.755, -0.00085767626, -0.030170597, -844309.44, 7990.117 
1.0653363e+3, 2.2302058e+2, -766687.9, -860476.3, -9920.726, -0.001741351, -0.029011128, -765650.0, -11254.619 
1.06531285e+3, 2.3301075e+2, -684507.3, -769284.56, -9964.53, -0.0023188975, -0.030296307, -683351.9, -26860.209 
1.06528945e+3, 2.4300073e+2, -605863.9, -684656.56, -9017.09, -0.0026682687, -0.030108416, -604845.1, -46255.21 
1.0652661e+3, 2.529906e+2, -524959.7, -594202.9, -8878.999, -0.0026069568, -0.02954221, -523839.25, -63150.246 
1.065243e+3, 2.6298034e+2, -445907.53, -507933.72, -7196.574, -0.0030414865, -0.028766425, -445083.5, -82293.82 
1.0652201e+3, 2.7297005e+2, -363645.25, -416392.16, -7026.3154, -0.004509059, -0.03118549, -362725.34, -97834.914 
1.0651975e+3, 2.829593e+2, -289423.0, -340728.3, -4318.5747, -0.00497383, -0.031364754, -289062.03, -122066.28 
1.0651753e+3, 2.929481e+2, -209269.16, -251260.4, -4013.1167, -0.0033735083, -0.029764954, -208889.06, -139783.44 
1.0651535e+3, 3.0294126e+2, -113582.76, -78466.62, -409.97348, -0.003987621, -0.028328668, -78461.83, -78461.83 
1.0651321e+3, 3.1293947e+2, -127028.81, -80231.125, -258.02042, -0.009246083, -0.031634737, -80229.7, -80229.7 
1.0755774e+3, 1.23134844e+2, -1561168.8, -1726935.6, -3627.9517, 0.0067762104, -0.03133542, -1561089.4, 172186.39 
1.0755549e+3, 1.3312551e+2, -1491487.3, -1661678.9, -3722.5708, -0.009026472, -0.024818277, -1491405.9, 143961.23 
1.0755324e+3, 1.4311609e+2, -1406905.3, -1565040.3, -7732.2686, 0.012458501, -0.032137115, -1406528.1, 130931.38 
1.07550904e+3, 1.5310724e+2, -1325110.0, -1473227.8, -8354.569, 0.001968448, -0.02930151, -1324640.3, 114905.984 
1.0754852e+3, 1.6309819e+2, -1246716.8, -1388162.5, -10893.177, -0.0040982924, -0.027617358, -1245882.8, 95752.15 
1.0754614e+3, 1.7308906e+2, -1165897.3, -1297966.0, -10942.755, 0.0008139556, -0.029464481, -1164996.8, 78727.77 
1.0754373e+3, 1.8307973e+2, -1087269.5, -1212815.0, -12658.164, 0.0031539004, -0.029449094, -1086006.0, 59809.85 
1.07541285e+3, 1.9307034e+2, -1005066.56, -1121882.8, -12821.223, -0.0003808101, -0.02923416, -1003675.9, 44231.867 
1.07538834e+3, 2.0306079e+2, -925773.0, -1036060.0, -13986.612, -0.00240657, -0.028659115, -924026.9, 25974.557 
1.0753637e+3, 2.130512e+2, -845107.6, -945696.06, -14001.947, -0.0010583412, -0.029733926, -843194.94, 8900.586 
1.075339e+3, 2.2304142e+2, -766543.7, -860261.44, -13893.776, -0.00063361035, -0.02937816, -764527.25, -10336.01 
1.07531436e+3, 2.3303162e+2, -684443.6, -769168.3, -13866.978, -0.0022662785, -0.029217303, -682231.75, -25944.406 
1.0752898e+3, 2.430216e+2, -605614.9, -684127.25, -13188.7295, -0.0031061864, -0.028751701, -603458.6, -45073.24 
1.07526526e+3, 2.530115e+2, -524679.0, -593632.3, -13112.816, -0.0022571918, -0.030417753, -522269.53, -61785.207 
1.075241e+3, 2.630013e+2, -445461.56, -507031.13, -11201.16, -0.0023074986, -0.029879887, -443487.1, -80902.57 
1.0752169e+3, 2.7299112e+2, -363232.97, -415497.1, -10980.311, -0.004240823, -0.028246181, -361019.8, -96335.5 
1.0751932e+3, 2.8298044e+2, -288854.0, -339480.28, -8582.607, -0.00550247, -0.027472131, -287438.56, -120649.76 
1.0751697e+3, 2.9296926e+2, -208681.73, -249988.75, -8357.547, -0.005317557, -0.031739052, -207054.84, -138156.5 
1.0751467e+3, 3.0296245e+2, -113153.73, -77515.555, -4411.7764, -0.0054868707, -0.031888597, -76977.52, -76977.52 
1.07512414e+3, 3.129608e+2, -126728.64, -79481.19, -4179.661, -0.0062223724, -0.027183766, -79114.29, -79114.29 
1.0855919e+3, 1.2315721e+2, -1555418.8, -1726208.8, 413.84604, 0.007813378, -0.03312595, -1555417.8, 177638.88 
1.0855682e+3, 1.3314797e+2, -1486020.3, -1658973.6, 339.88663, -0.010901865, -0.017647056, -1486019.6, 149127.61 
1.0855447e+3, 1.431384e+2, -1403111.1, -1563644.4, -3443.6248, 0.01228484, -0.036055315, -1403037.4, 134203.56 
1.08552e+3, 1.5312953e+2, -1321991.6, -1472382.4, -4108.592, 0.002282586, -0.029365817, -1321879.5, 117448.42 
1.0854951e+3, 1.6312043e+2, -1243728.8, -1387132.8, -6650.9224, -0.0036702736, -0.02539967, -1243420.9, 97995.96 
1.08546995e+3, 1.7311123e+2, -1162458.3, -1296726.9, -6792.975, 0.0006386075, -0.02894265, -1162115.4, 81391.68 
1.0854446e+3, 1.8310188e+2, -1084067.4, -1211477.8, -8523.986, 0.0027418567, -0.029785767, -1083499.6, 62099.207 
1.08541906e+3, 1.9309248e+2, -1003978.25, -1121590.1, -8509.3, -0.00029795963, -0.0284859, -1003365.75, 44325.16 
1.0853933e+3, 2.0308292e+2, -925677.9, -1035918.8, -9609.0625, -0.0021492057, -0.027292527, -924846.56, 24938.059 
1.0853674e+3, 2.1307331e+2, -844255.0, -945175.0, -9686.042, -0.0012656616, -0.028805947, -843333.75, 8544.988 
1.0853416e+3, 2.2306354e+2, -765729.1, -859789.75, -9613.145, -0.00093605893, -0.02878558, -764756.7, -10782.238 
1.0853158e+3, 2.3305374e+2, -685332.44, -769594.9, -9654.47, -0.0019878973, -0.028687429, -684240.4, -28169.79 
1.08529e+3, 2.4304375e+2, -607153.9, -684246.2, -9003.711, -0.0026689856, -0.028231272, -606116.3, -47947.83 
1.0852643e+3, 2.530337e+2, -525809.94, -593459.94, -8789.468, -0.002543481, -0.0298007, -524686.56, -64419.79 
1.0852389e+3, 2.6302353e+2, -446968.75, -507163.47, -6833.3325, -0.0028265181, -0.029190222, -446202.78, -83836.31 
1.08521365e+3, 2.7301338e+2, -366515.84, -416572.28, -6762.702, -0.0039318996, -0.027494851, -365618.28, -101152.445 
1.0851887e+3, 2.830028e+2, -292722.03, -340270.47, -4471.419, -0.0048622815, -0.026658565, -292305.2, -125735.45 
1.08516395e+3, 2.9299173e+2, -211738.25, -250302.52, -4187.842, -0.0054698153, -0.030885061, -211288.72, -142610.4 
1.0851397e+3, 3.02985e+2, -116552.695, -78259.76, -178.38928, -0.005974713, -0.03106601, -78258.93, -78258.93 
1.0851161e+3, 3.1298342e+2, -132450.13, -81488.32, 100.9101, -0.005848174, -0.026461514, -81488.125, -81488.125 
1.0956068e+3, 1.2318063e+2, -1556969.5, -1729565.1, -3403.919, 0.0109596, -0.033949357, -1556902.4, 175924.83 
1.0955818e+3, 1.3317148e+2, -1485552.9, -1658123.4, -3936.7012, -0.014867825, -0.011337945, -1485463.1, 149453.67 
1.0955569e+3, 1.4316183e+2, -1403373.5, -1564248.4, -7694.806, 0.008914567, -0.039726686, -1403006.3, 134004.98 
1.0955311e+3, 1.5315293e+2, -1322421.9, -1473343.8, -8344.131, 0.004339188, -0.02987271, -1321962.0, 117136.58 
1.095505e+3, 1.6314381e+2, -1244064.1, -1387945.8, -10729.844, 0.000319216, -0.023782326, -1243268.4, 97919.6 
1.0954786e+3, 1.7313454e+2, -1162862.8, -1297565.0, -10825.215, -0.0007089376, -0.02798245, -1161998.4, 81280.49 
1.09545216e+3, 1.8312514e+2, -1084123.9, -1211615.6, -12826.097, -0.0008919383, -0.029367082, -1082846.3, 62524.703 
1.0954253e+3, 1.9311574e+2, -1003939.8, -1121619.1, -12875.223, 0.0003321126, -0.028164353, -1002547.56, 44915.535 
1.0953983e+3, 2.0310616e+2, -925592.6, -1035877.8, -13726.54, 0.0004671122, -0.02672684, -923909.8, 25646.98 
1.0953713e+3, 2.1309657e+2, -844239.5, -945213.0, -13747.375, -0.0015313053, -0.027444027, -842401.25, 9249.616 
1.0953443e+3, 2.230868e+2, -765763.56, -859898.2, -13905.706, -0.002518533, -0.027354809, -763752.4, -10005.736 
1.09531716e+3, 2.3307696e+2, -685395.3, -769776.56, -13991.328, -0.0015317634, -0.028658144, -683135.9, -27292.846 
1.09529026e+3, 2.43067e+2, -606661.25, -683284.7, -13156.717, -0.0014994037, -0.02844292, -604465.1, -46524.395 
1.0952633e+3, 2.5305706e+2, -525252.3, -592316.9, -12912.256, -0.0034418793, -0.027815763, -522852.2, -62814.098 
1.0952367e+3, 2.6304698e+2, -446720.0, -506651.78, -11194.106, -0.0045101205, -0.026861826, -444697.44, -82560.336 
1.09521024e+3, 2.730368e+2, -366368.84, -416281.78, -11175.566, -0.0036132697, -0.0287662, -363980.88, -99744.27 
1.0951841e+3, 2.8302625e+2, -292058.8, -338877.4, -8648.731, -0.0031951957, -0.028660033, -290512.25, -124172.18 
1.0951581e+3, 2.9301533e+2, -211014.1, -248733.38, -8314.836, -0.0039801016, -0.027359158, -209262.52, -140815.45 
1.0951327e+3, 3.0300874e+2, -116023.93, -77068.445, -4620.524, -0.0055604866, -0.02615189, -76527.91, -76527.91 
1.09510764e+3, 3.1300715e+2, -132016.78, -80486.32, -4425.1, -0.008096952, -0.029325917, -80109.086, -80109.086 
1.1056217e+3, 1.2320536e+2, -1552232.5, -1730343.6, 1223.5677, 0.010308578, -0.03425857, -1552224.1, 180360.83 
1.10559545e+3, 1.3319628e+2, -1479461.8, -1654292.4, 128.02744, -0.015692376, -0.008045341, -1479461.8, 155212.13 
1.1055693e+3, 1.4318663e+2, -1398933.6, -1562425.5, -3421.079, 0.0105825355, -0.04076353, -1398862.1, 137906.33 
1.1055423e+3, 1.5317766e+2, -1318412.4, -1472032.5, -3998.134, 0.0041658906, -0.029987969, -1318308.4, 120547.83 
1.105515e+3, 1.6316849e+2, -1240598.3, -1386698.5, -6336.868, -0.00074242253, -0.023105297, -1240324.0, 100622.16 
1.1054874e+3, 1.7315918e+2, -1160838.8, -1297075.3, -6370.0693, -0.0008105305, -0.027035192, -1160541.6, 82495.875 
1.1054596e+3, 1.8314974e+2, -1082684.8, -1210974.0, -8367.482, -0.00055460626, -0.028440928, -1082141.3, 62988.664 
1.1054316e+3, 1.9314031e+2, -1002034.4, -1120716.0, -8446.878, 0.00008480609, -0.027742293, -1001436.2, 45785.984 
1.10540345e+3, 2.0313075e+2, -923840.06, -1035085.8, -9303.214, 0.000065904576, -0.02657462, -923067.4, 26248.559 
1.1053752e+3, 2.1312115e+2, -843806.0, -945143.9, -9406.462, -0.0012867125, -0.027154444, -842940.25, 8469.931 
1.1053469e+3, 2.2311138e+2, -765881.44, -859566.06, -9588.962, -0.0020514927, -0.02687541, -764910.06, -11404.145 
1.1053186e+3, 2.3310156e+2, -685517.56, -769383.6, -9359.477, -0.0016507475, -0.027835684, -684485.75, -28883.795 
1.1052904e+3, 2.4309163e+2, -607311.0, -683256.7, -8395.08, -0.0018622382, -0.027432285, -606394.06, -48694.758 
1.10526234e+3, 2.530817e+2, -527264.25, -593039.4, -8548.973, -0.0033802607, -0.026957465, -526171.3, -66374.76 
1.1052344e+3, 2.6307166e+2, -449186.97, -507034.34, -7034.071, -0.004261811, -0.02627462, -448343.94, -86448.74 
1.1052067e+3, 2.7306154e+2, -368476.3, -416418.38, -6661.203, -0.0036742412, -0.028666604, -367568.0, -103573.945 
1.1051792e+3, 2.8305107e+2, -294445.1, -339067.47, -3944.768, -0.0033279287, -0.028545236, -294099.06, -128002.31 
1.1051521e+3, 2.9304025e+2, -215149.84, -249804.1, -3820.701, -0.0037518374, -0.026126666, -214733.6, -146530.7 
1.1051255e+3, 3.0303374e+2, -121073.32, -78427.17, -308.57126, -0.005229874, -0.024694277, -78424.94, -78424.94 
1.1050991e+3, 3.1303224e+2, -136469.5, -81591.625, -19.965765, -0.008106839, -0.02960295, -81591.62, -81591.62 
1.115637e+3, 1.2323122e+2, -1554384.5, -1735044.6, -2658.5027, 0.0065427306, -0.034741558, -1554345.4, 177986.14 
1.1156094e+3, 1.3322218e+2, -1478896.9, -1653147.4, -4440.7246, -0.013993524, -0.007137319, -1478783.8, 155636.16 
1.1155821e+3, 1.4321257e+2, -1399223.8, -1562943.1, -7746.2407, 0.016211653, -0.039693892, -1398858.0, 137656.14 
1.1155537e+3, 1.5320353e+2, -1318876.9, -1472915.8, -8258.722, 0.0020995175, -0.029812086, -1318435.3, 120167.375 
1.115525e+3, 1.6319431e+2, -1240858.4, -1387293.6, -10726.125, -0.0059427144, -0.023188438, -1240076.9, 100616.16 
1.1154963e+3, 1.7318496e+2, -1161078.4, -1297640.8, -10777.576, 0.00013762598, -0.026088841, -1160233.0, 82551.66 
1.11546725e+3, 1.831755e+2, -1082709.1, -1211121.8, -12617.216, 0.0030344613, -0.027097123, -1081481.3, 63396.23 
1.115438e+3, 1.9316608e+2, -1002076.3, -1120851.1, -12668.632, -0.00096635276, -0.02725174, -1000740.1, 46229.746 
1.11540854e+3, 2.0315649e+2, -923969.0, -1035414.06, -13672.256, -0.0029325278, -0.026781524, -922316.1, 26747.674 
1.1153792e+3, 2.1314684e+2, -843988.3, -945569.3, -13795.587, -0.0006032464, -0.027797995, -842148.06, 9010.332 
1.1153496e+3, 2.2313708e+2, -765408.8, -858635.94, -13926.389, 0.00015348695, -0.027211394, -763372.94, -10118.899 
1.11531995e+3, 2.3312739e+2, -684937.1, -768223.6, -13704.909, -0.002317548, -0.026294703, -682739.94, -27390.793 
1.1152905e+3, 2.431175e+2, -607367.2, -683413.3, -12847.196, -0.00361814, -0.025331879, -605255.44, -47809.43 
1.1152611e+3, 2.5310752e+2, -527508.75, -593576.0, -13011.557, -0.0024744454, -0.02714167, -525038.56, -65494.746 
1.115232e+3, 2.6309744e+2, -448494.63, -505621.06, -11369.461, -0.0023103799, -0.027266068, -446315.0, -84672.65 
1.115203e+3, 2.730875e+2, -367620.88, -414628.75, -10979.927, -0.004139611, -0.027281776, -365182.7, -101442.89 
1.1151743e+3, 2.8307715e+2, -293990.53, -338089.2, -8488.857, -0.0051826094, -0.026479399, -292412.9, -126571.5 
1.1151459e+3, 2.9306632e+2, -214830.81, -249097.72, -8412.043, -0.0047372435, -0.027074745, -212877.17, -144929.81 
1.1151179e+3, 3.0305988e+2, -120409.78, -77008.82, -4711.572, -0.004996532, -0.026471585, -76503.23, -76503.23 
1.1150905e+3, 3.130585e+2, -135790.38, -80096.69, -4379.049, -0.006039208, -0.027355824, -79754.48, -79754.48 
1.1256525e+3, 1.2325852e+2, -1548239.4, -1735028.6, 2422.821, 0.00692001, -0.032585774, -1548207.9, 183855.97 
1.1256235e+3, 1.3324946e+2, -1473059.1, -1649572.4, -308.92813, -0.0151613755, -0.010505529, -1473058.6, 161093.98 
1.12559475e+3, 1.4323993e+2, -1395983.4, -1561748.1, -3116.9434, 0.016163059, -0.037123982, -1395924.8, 140321.38 
1.1255652e+3, 1.5323082e+2, -1315888.3, -1472183.5, -3547.3167, 0.002170878, -0.02871753, -1315807.8, 122527.67 
1.1255353e+3, 1.6322152e+2, -1237657.5, -1386017.1, -6138.1265, -0.005902263, -0.023126582, -1237404.0, 103022.43 
1.1255053e+3, 1.7321214e+2, -1157855.1, -1296331.3, -6137.194, -0.00011298135, -0.02587035, -1157583.6, 84934.73 
1.12547494e+3, 1.8320265e+2, -1079937.8, -1210101.5, -7972.4453, 0.0027847923, -0.02671681, -1079451.4, 65160.055 
1.1254445e+3, 1.9319318e+2, -1000495.44, -1120505.0, -8221.019, -0.0007359174, -0.026753841, -999934.9, 46769.367 
1.12541385e+3, 2.0318358e+2, -923005.3, -1034778.0, -9314.832, -0.002628941, -0.02622931, -922234.4, 26564.037 
1.1253829e+3, 2.1317394e+2, -843520.75, -945103.94, -9152.982, -0.0009769965, -0.027281927, -842702.6, 8190.254 
1.12535216e+3, 2.231642e+2, -765453.8, -858421.9, -9176.238, -0.0004742835, -0.026741697, -764556.75, -11568.402 
1.1253214e+3, 2.3315449e+2, -685543.25, -768349.56, -9390.916, -0.0024098712, -0.025866251, -684491.6, -29408.268 
1.1252906e+3, 2.4314463e+2, -608221.7, -683261.56, -8725.027, -0.0033474446, -0.024952574, -607220.56, -50040.58 
1.12526e+3, 2.531347e+2, -528733.8, -593575.06, -8320.667, -0.0022139202, -0.026884584, -527683.06, -68405.76 
1.1252295e+3, 2.631247e+2, -450320.84, -505817.38, -6391.7324, -0.0021338393, -0.026865471, -449594.2, -88218.83 
1.1251992e+3, 2.731148e+2, -370662.53, -415452.84, -6465.5347, -0.00421056, -0.026105667, -369747.88, -106275.67 
1.1251693e+3, 2.831045e+2, -297471.1, -338650.28, -4240.6865, -0.0054137222, -0.025247285, -297038.9, -131465.78 
1.1251397e+3, 2.9309377e+2, -218006.47, -249472.34, -3839.0073, -0.0049484777, -0.027312193, -217544.86, -149866.58 
1.1251104e+3, 3.0308744e+2, -124023.42, -77913.164, -13.660552, -0.004978228, -0.027064372, -77913.16, -77913.16 
1.12508155e+3, 3.1308612e+2, -140801.95, -81812.48, -22.021961, -0.005301934, -0.025812361, -81812.47, -81812.47 
1.1356682e+3, 1.23287074e+2, -1549980.4, -1738578.1, -1897.4094, 0.010314588, -0.029794112, -1549961.3, 181822.89 
1.1356377e+3, 1.3327794e+2, -1472772.4, -1649012.4, -5615.7734, -0.018643111, -0.017177692, -1472593.6, 161280.06 
1.1356075e+3, 1.432685e+2, -1396315.1, -1562531.4, -7574.8325, 0.011605221, -0.033319585, -1395970.6, 139995.53 
1.1355768e+3, 1.5325929e+2, -1316404.1, -1473276.4, -7807.1504, 0.003968482, -0.026896434, -1316016.5, 122039.93 
1.1355457e+3, 1.6324994e+2, -1237797.9, -1386398.0, -10515.422, -0.0016824509, -0.022974122, -1237057.4, 103090.72 
1.1355144e+3, 1.7324053e+2, -1157974.6, -1296623.0, -10544.517, -0.0014286806, -0.026270285, -1157177.3, 85063.03 
1.1354828e+3, 1.83231e+2, -1080310.4, -1210923.3, -12484.324, -0.0006822092, -0.027125183, -1079127.8, 65205.805 
1.1354509e+3, 1.9322146e+2, -1000949.3, -1121502.8, -12734.908, 0.0005809461, -0.02623377, -999618.75, 46808.33 
1.1354191e+3, 2.0321184e+2, -922697.94, -1034250.9, -13824.873, 0.00042515394, -0.025019519, -921010.1, 27511.313 
1.1353868e+3, 2.1320225e+2, -843078.1, -944308.75, -13680.702, -0.002327812, -0.025761921, -841261.9, 9353.514 
1.1353547e+3, 2.2319254e+2, -765581.0, -858775.0, -13659.538, -0.0036062978, -0.025567366, -763620.2, -10909.565 
1.13532275e+3, 2.3318277e+2, -685862.8, -769047.0, -13851.923, -0.0020020087, -0.026431592, -683616.8, -28810.545 
1.13529064e+3, 2.4317293e+2, -607514.4, -681823.7, -13257.08, -0.0013215531, -0.026090363, -605220.1, -48317.285 
1.1352587e+3, 2.5316313e+2, -527823.7, -591717.56, -12884.986, -0.0025847668, -0.026204543, -525323.1, -66324.36 
1.1352269e+3, 2.6315323e+2, -450162.2, -505542.75, -11019.843, -0.0035955522, -0.025184173, -448049.97, -86954.07 
1.1351954e+3, 2.7314332e+2, -370726.94, -415621.53, -11099.794, -0.0039313314, -0.025138106, -368132.56, -104939.6 
1.1351642e+3, 2.8313306e+2, -296632.03, -336912.56, -8772.074, -0.004185054, -0.02478996, -294804.63, -129511.12 
1.1351332e+3, 2.9312247e+2, -217012.81, -247376.33, -8352.561, -0.004480948, -0.026864689, -214866.81, -147469.6 
1.1351025e+3, 3.031162e+2, -123772.45, -77340.94, -4690.0537, -0.0052167503, -0.026540417, -76871.93, -76871.93 
1.1350725e+3, 3.1311494e+2, -140782.9, -81691.42, -4727.8784, -0.0059207426, -0.024992123, -81315.54, -81315.54 
1.1456842e+3, 1.23317115e+2, -1545500.1, -1737538.0, 3503.8052, 0.009502297, -0.026606113, -1545436.3, 186053.56 
1.1456522e+3, 1.3330784e+2, -1467491.0, -1646684.6, -1589.18, -0.01826614, -0.024248097, -1467476.9, 166103.78 
1.1456206e+3, 1.4329849e+2, -1391388.0, -1560643.0, -3050.4446, 0.011576214, -0.027551569, -1391333.0, 144339.25 
1.1455885e+3, 1.5328917e+2, -1312319.9, -1471913.8, -3059.4895, 0.0036628293, -0.025927642, -1312261.3, 125502.44 
1.1455561e+3, 1.6327973e+2, -1234440.3, -1385187.9, -5901.1943, -0.0019708523, -0.024717966, -1234209.6, 105646.6 
1.1455236e+3, 1.7327029e+2, -1155469.6, -1295880.0, -6142.0825, -0.0014301452, -0.026136661, -1155201.5, 86747.26 
1.1454906e+3, 1.8326074e+2, -1078206.5, -1209928.9, -8112.201, -0.00066350505, -0.025977964, -1077708.8, 66333.5 
1.14545755e+3, 1.932512e+2, -999235.6, -1120656.5, -7956.973, 0.00023472394, -0.025888234, -998716.4, 47419.477 
1.1454243e+3, 2.0324154e+2, -921335.94, -1033524.1, -8887.36, 0.00004539395, -0.025016217, -920636.25, 27594.084 
1.1453909e+3, 2.1323197e+2, -842117.44, -943827.56, -9118.366, -0.0022250274, -0.025076382, -841306.44, 9017.792 
1.1453574e+3, 2.2322226e+2, -765123.3, -858277.75, -9248.744, -0.0032804855, -0.024636956, -764213.94, -11794.549 
1.14532396e+3, 2.3321252e+2, -686606.5, -769138.1, -9001.757, -0.0018905561, -0.026237573, -685636.06, -31121.082 
1.14529066e+3, 2.4320269e+2, -608900.6, -681879.6, -8222.048, -0.0014555531, -0.026162447, -607985.75, -51374.508 
1.14525735e+3, 2.5319296e+2, -529405.0, -591857.25, -8342.007, -0.0030846724, -0.02547672, -528309.94, -69603.26 
1.14522435e+3, 2.6318312e+2, -451968.13, -505703.2, -6735.3716, -0.00406459, -0.024248697, -451136.75, -90333.52 
1.1451914e+3, 2.731732e+2, -372947.7, -416030.03, -6379.244, -0.003573133, -0.025207927, -372022.94, -109123.09 
1.1451588e+3, 2.83163e+2, -299196.94, -337050.9, -3827.993, -0.0034305968, -0.025115939, -298813.72, -133813.95 
1.14512645e+3, 2.9315257e+2, -220673.11, -248001.39, -3726.9626, -0.004241767, -0.025941951, -220173.95, -153071.53 
1.1450946e+3, 3.031464e+2, -128342.68, -78556.516, -204.01994, -0.0053242994, -0.025314335, -78555.68, -78555.68 
1.1450633e+3, 3.1314516e+2, -145515.6, -83094.086, 185.22096, -0.0060238084, -0.02526152, -83093.54, -83093.54 
1.15570016e+3, 1.2334844e+2, -1545728.1, -1737977.0, -621.2147, 0.0056382515, -0.024332186, -1545726.1, 185456.75 
1.15566686e+3, 1.3333897e+2, -1468179.4, -1648006.8, -6821.2524, -0.014885274, -0.03156775, -1467921.0, 165354.52 
1.1556338e+3, 1.433297e+2, -1391814.9, -1561528.9, -7643.4746, 0.0150037175, -0.020283088, -1391471.4, 143895.06 
1.1556005e+3, 1.5332025e+2, -1312691.5, -1472728.6, -7516.971, 0.0016014932, -0.025669908, -1312339.1, 125119.91 
1.1555668e+3, 1.6331072e+2, -1234866.6, -1386186.9, -10483.283, -0.005888006, -0.0279532, -1234143.8, 105408.766 
1.1555328e+3, 1.7330123e+2, -1155981.4, -1296959.1, -10734.359, -0.00034542376, -0.025533676, -1155168.8, 86476.664 
1.1554986e+3, 1.8329167e+2, -1077969.3, -1209491.9, -12708.17, 0.002154471, -0.023544123, -1076752.6, 66986.45 
1.1554641e+3, 1.9328216e+2, -998873.4, -1119965.8, -12577.106, -0.0015752998, -0.025703408, -997580.9, 48251.605 
1.15542956e+3, 2.0327252e+2, -921538.94, -1033999.06, -13511.974, -0.003256005, -0.026023045, -919938.25, 27988.63 
1.1553948e+3, 2.132629e+2, -842484.56, -944631.9, -13729.877, -0.0008621495, -0.025088372, -840671.3, 9349.942 
1.1553601e+3, 2.2325318e+2, -764692.6, -857431.3, -13990.897, -0.0000074254044, -0.023886012, -762627.9, -10511.435 
1.1553253e+3, 2.332435e+2, -686015.75, -767996.56, -13786.708, -0.0020892997, -0.025351375, -683759.3, -29548.066 
1.1552905e+3, 2.4323373e+2, -608807.4, -681782.44, -12864.647, -0.0035369848, -0.025270768, -606605.9, -50298.848 
1.15525596e+3, 2.5322396e+2, -529492.5, -592084.4, -12948.145, -0.0037225094, -0.024713747, -526919.7, -68517.08 
1.1552215e+3, 2.6321414e+2, -451286.13, -504318.28, -11437.641, -0.003674271, -0.024003224, -448924.47, -88425.54 
1.1551874e+3, 2.732044e+2, -372134.13, -414363.97, -11112.589, -0.0031953154, -0.026237547, -369388.4, -106793.84 
1.15515344e+3, 2.8319427e+2, -298714.25, -336051.47, -8628.0, -0.0031775772, -0.026165262, -296816.9, -132123.38 
1.15511976e+3, 2.931839e+2, -220311.0, -247235.02, -8538.556, -0.0042496836, -0.024578214, -217831.48, -151036.0 
1.1550865e+3, 3.0317783e+2, -127498.93, -76793.82, -4957.44, -0.005341155, -0.023432804, -76313.68, -76313.68 
1.1550537e+3, 3.131767e+2, -144631.72, -81194.25, -4552.3687, -0.005758227, -0.02659517, -80869.234, -80869.234 
1.1657166e+3, 1.2338134e+2, -1539664.0, -1734252.1, 5202.0063, 0.0050787632, -0.021541454, -1539525.0, 191335.44 
1.1656816e+3, 1.3337164e+2, -1464427.0, -1648145.0, -2489.1367, -0.013172896, -0.037116952, -1464393.3, 168562.2 
1.1656472e+3, 1.433623e+2, -1387683.8, -1560189.3, -2937.918, 0.01299578, -0.016699133, -1387633.8, 147413.13 
1.1656126e+3, 1.5335278e+2, -1308450.8, -1471178.3, -2658.6846, 0.0011825117, -0.024478216, -1308407.4, 128732.97 
1.16557755e+3, 1.6334319e+2, -1230895.4, -1384517.6, -5778.0117, -0.0053886124, -0.028362801, -1230678.4, 108555.99 
1.1655422e+3, 1.7333366e+2, -1153074.9, -1295854.8, -5831.936, -0.0003484322, -0.025540346, -1152837.0, 88490.555 
1.1655066e+3, 1.8332408e+2, -1075840.3, -1208552.8, -7709.5522, 0.0018869528, -0.023199422, -1075393.9, 68027.6 
1.16547085e+3, 1.9331452e+2, -997306.7, -1119318.3, -7979.625, -0.0017309801, -0.025251525, -996787.0, 48728.082 
1.1654348e+3, 2.0330489e+2, -920443.94, -1033339.4, -9082.978, -0.0033623937, -0.025708312, -919717.9, 27891.754 
1.1653988e+3, 2.1329525e+2, -842203.25, -944385.6, -8921.769, -0.0009863654, -0.025334654, -841430.1, 8273.938 
1.1653627e+3, 2.2328557e+2, -764675.5, -856977.94, -9039.055, -0.00013192192, -0.024157148, -763798.6, -11999.56 
1.1653265e+3, 2.3327592e+2, -685906.1, -767488.7, -9103.945, -0.0022317667, -0.024593757, -684902.56, -31009.084 
1.16529055e+3, 2.432662e+2, -609096.4, -681471.0, -8267.522, -0.0036007515, -0.024274766, -608164.0, -52175.098 
1.1652545e+3, 2.5325644e+2, -531164.6, -592508.2, -8037.176, -0.003476323, -0.02500292, -530129.06, -72044.734 
1.1652187e+3, 2.632467e+2, -453727.72, -504631.4, -6386.589, -0.0033876065, -0.024688525, -452938.7, -92758.46 
1.16518326e+3, 2.73237e+2, -375038.56, -414855.56, -6317.5806, -0.0034601297, -0.02557673, -374060.22, -111785.23 
1.1651478e+3, 2.83227e+2, -301841.56, -336445.78, -3926.397, -0.0036377448, -0.025015175, -301401.63, -137028.56 
1.1651128e+3, 2.9321668e+2, -223533.48, -247692.31, -3557.228, -0.004215319, -0.024619866, -223020.6, -156546.34 
1.1650783e+3, 3.032107e+2, -131204.47, -77610.53, 5.728695, -0.0049669184, -0.0238607, -77610.53, -77610.53 
1.1650441e+3, 3.1320962e+2, -149424.88, -82616.82, -31.93503, -0.005490493, -0.025816763, -82616.805, -82616.805 
1.17573306e+3, 1.234156e+2, -1539162.4, -1732871.9, 696.25085, 0.007339762, -0.018231519, -1539159.9, 191364.89 
1.1756966e+3, 1.334056e+2, -1466256.1, -1651943.3, -7887.2803, -0.012830305, -0.041314125, -1465921.8, 166701.0 
1.17566064e+3, 1.4339614e+2, -1388116.8, -1561357.8, -7511.585, 0.0067535774, -0.01596256, -1387791.6, 146923.83 
1.1756247e+3, 1.5338655e+2, -1308837.5, -1471962.0, -7090.1445, 0.0020595205, -0.022529915, -1308529.9, 128279.47 
1.1755884e+3, 1.6337693e+2, -1231012.6, -1384694.9, -10588.159, -0.0014461145, -0.02653081, -1230286.5, 108617.2 
1.17555164e+3, 1.7336738e+2, -1153080.5, -1295922.9, -10724.442, -0.0013085278, -0.026061468, -1152279.9, 88717.39 
1.17551476e+3, 1.8335776e+2, -1076176.1, -1209380.8, -12483.105, -0.0009382422, -0.02454699, -1075016.4, 68075.16 
1.1754775e+3, 1.9334815e+2, -997779.44, -1120374.6, -12715.734, -0.0005010615, -0.02453734, -996474.44, 48711.156 
1.1754402e+3, 2.033385e+2, -920140.1, -1032815.75, -13875.374, -0.0008360859, -0.024252372, -918456.6, 28823.695 
1.1754027e+3, 2.133289e+2, -841779.8, -943614.06, -13741.006, -0.0024552927, -0.025776448, -839958.25, 9416.146 
1.1753652e+3, 2.2331923e+2, -764537.94, -856773.5, -13803.242, -0.0032324307, -0.02528776, -762516.56, -11047.423 
1.17532775e+3, 2.3330961e+2, -685876.6, -767480.06, -13857.695, -0.0023208985, -0.023922203, -683587.56, -30024.195 
1.1752904e+3, 2.4329992e+2, -608623.56, -680536.44, -13189.126, -0.0019023906, -0.023172641, -606280.94, -50622.484 
1.175253e+3, 2.5329024e+2, -530623.6, -591449.0, -13002.396, -0.0024713522, -0.02625357, -527960.75, -70207.32 
1.17521584e+3, 2.6328048e+2, -453319.25, -503877.78, -11264.071, -0.0032308681, -0.026201395, -450923.25, -91074.516 
1.1751788e+3, 2.732709e+2, -374713.44, -414246.06, -11176.803, -0.004351887, -0.023319026, -371772.3, -109829.52 
1.1751422e+3, 2.83261e+2, -300993.13, -334709.06, -8763.161, -0.0048165037, -0.021819418, -298851.5, -134811.47 
1.1751059e+3, 2.9325074e+2, -222625.5, -245797.78, -8389.372, -0.004193388, -0.026045833, -219907.1, -153766.72 
1.1750698e+3, 3.0324483e+2, -130942.25, -77059.71, -4980.06, -0.0042736693, -0.02651854, -76603.3, -76603.3 
1.1750342e+3, 3.1324387e+2, -149356.27, -82430.234, -5043.787, -0.0052888417, -0.023009215, -82052.26, -82052.26 
1.1857496e+3, 1.2345123e+2, -1535097.5, -1729316.0, 5576.8457, 0.0054619564, -0.019760516, -1534937.5, 195238.05 
1.1857119e+3, 1.3344109e+2, -1461552.9, -1651775.4, -3250.7144, -0.00913809, -0.03910658, -1461497.3, 170777.6 
1.1856743e+3, 1.4343145e+2, -1381601.8, -1558950.1, -2647.413, 0.00435394, -0.016213762, -1381562.3, 152807.08 
1.1856371e+3, 1.5342182e+2, -1305107.1, -1470746.9, -2297.788, 0.0015310155, -0.022892617, -1305075.3, 131388.58 
1.18559934e+3, 1.6341212e+2, -1228707.5, -1383740.5, -5766.153, -0.0008489413, -0.026730383, -1228493.3, 110065.484 
1.1855613e+3, 1.7340256e+2, -1150071.6, -1294622.4, -5999.078, -0.0014539472, -0.025844155, -1149823.1, 90829.34 
1.185523e+3, 1.8339293e+2, -1073037.1, -1207925.9, -7815.1953, -0.0014490164, -0.024190811, -1072585.9, 70161.07 
1.1854844e+3, 1.933833e+2, -995786.0, -1119528.0, -7715.5005, -0.0005133979, -0.024387954, -995306.8, 49534.492 
1.1854457e+3, 2.0337363e+2, -918849.5, -1031950.94, -8698.745, -0.00058567, -0.0240525, -918184.4, 28751.658 
1.18540674e+3, 2.1336405e+2, -841020.44, -942991.75, -8802.426, -0.0024974647, -0.025188675, -840266.1, 8763.865 
1.1853679e+3, 2.2335438e+2, -764425.7, -856401.75, -8981.321, -0.003497974, -0.024790732, -763556.9, -12432.286 
1.18532896e+3, 2.333448e+2, -686815.06, -767654.6, -8909.018, -0.0026138485, -0.02425754, -685844.9, -32626.125 
1.18529014e+3, 2.4333511e+2, -609913.06, -680451.2, -8222.929, -0.0020799583, -0.02360788, -608967.2, -53653.625 
1.1852515e+3, 2.533255e+2, -531789.44, -591283.4, -8118.4883, -0.002379737, -0.025489813, -530701.5, -73293.63 
1.1852129e+3, 2.6331583e+2, -454712.63, -503878.75, -6407.4136, -0.0030423626, -0.025032444, -453891.3, -94388.76 
1.1851744e+3, 2.7330628e+2, -376884.75, -414695.97, -6278.137, -0.004374405, -0.023218878, -375869.6, -114273.336 
1.1851364e+3, 2.832964e+2, -303644.2, -334737.84, -3907.1443, -0.004937918, -0.022174988, -303160.75, -139467.89 
1.1850985e+3, 2.932863e+2, -226468.69, -246312.72, -3651.1826, -0.0041715186, -0.025696147, -225818.2, -160026.19 
1.1850612e+3, 3.0328047e+2, -135697.84, -78645.266, -183.9584, -0.004160906, -0.02581701, -78644.67, -78644.67 
1.18502416e+3, 3.1327954e+2, -153325.69, -83831.48, -60.175613, -0.0052318936, -0.022639785, -83831.42, -83831.42 
1.19576626e+3, 1.2348808e+2, -1534264.9, -1727438.5, 1349.7034, 0.0011643724, -0.022931749, -1534255.5, 195558.88 
1.1957273e+3, 1.3347791e+2, -1462811.3, -1654180.0, -7782.341, -0.0029285853, -0.03210522, -1462495.3, 169418.83 
1.1956883e+3, 1.4346807e+2, -1382237.5, -1560218.3, -7749.5337, 0.004813003, -0.017275399, -1381900.8, 152109.88 
1.1956495e+3, 1.5345833e+2, -1305567.1, -1471803.5, -7519.943, -0.00017262822, -0.025056735, -1305227.6, 130878.29 
1.1956105e+3, 1.6344859e+2, -1228882.6, -1384302.5, -10499.033, -0.0029141698, -0.028483145, -1228176.6, 110024.73 
1.1955709e+3, 1.7343901e+2, -1150363.4, -1295200.4, -10648.731, -0.0009385635, -0.024988983, -1149584.6, 90710.63 
1.1955313e+3, 1.8342936e+2, -1072949.0, -1207688.5, -12782.347, -0.00013453343, -0.022431385, -1071747.1, 70642.62 
1.1954912e+3, 1.9341975e+2, -995598.5, -1119164.0, -12754.346, -0.0016152415, -0.024710478, -994295.75, 50188.33 
1.195451e+3, 2.0341007e+2, -918856.9, -1032063.3, -13662.827, -0.0022632529, -0.024876103, -917231.25, 29347.555 
1.1954108e+3, 2.134005e+2, -841110.25, -943264.1, -13752.582, -0.0013151806, -0.02367157, -839291.2, 9381.532 
1.1953705e+3, 2.2339085e+2, -764176.9, -855957.75, -13981.859, -0.0013646304, -0.022853358, -762094.2, -11326.922 
1.1953302e+3, 2.3338126e+2, -686530.75, -767156.5, -13923.397, -0.0031319528, -0.02548199, -684194.0, -31332.604 
1.19528994e+3, 2.433716e+2, -609502.44, -679689.56, -13163.185, -0.0039518834, -0.02536646, -607115.0, -52159.133 
1.1952498e+3, 2.533621e+2, -531405.94, -590542.44, -13050.795, -0.0031472752, -0.022847634, -528653.8, -71604.56 
1.19520985e+3, 2.6335248e+2, -454286.8, -503054.5, -11436.766, -0.0028674891, -0.021423463, -451737.94, -92594.58 
1.1951699e+3, 2.7334294e+2, -376487.88, -413925.44, -11327.748, -0.0036334302, -0.025187079, -373327.2, -112090.13 
1.1951305e+3, 2.833331e+2, -302948.7, -333346.53, -9050.098, -0.0041326946, -0.025862694, -300458.28, -137125.17 
1.19509116e+3, 2.9332316e+2, -225756.44, -244871.83, -8813.549, -0.004191284, -0.023600556, -222313.05, -156882.23 
1.19505234e+3, 3.0331746e+2, -135180.88, -77601.97, -5025.4375, -0.00465794, -0.02188906, -77166.65, -77166.65 
1.19501404e+3, 3.133165e+2, -152911.13, -82937.94, -4838.3564, -0.005544369, -0.024711385, -82604.97, -82604.97 
1.2057831e+3, 1.2352636e+2, -1529194.3, -1725024.3, 5856.802, -0.0005357533, -0.025504699, -1529019.3, 200420.05 
1.20574296e+3, 1.3351619e+2, -1458806.3, -1653093.6, -2820.66, 0.0010333293, -0.025489207, -1458765.3, 172773.67 
1.2057025e+3, 1.4350617e+2, -1377913.5, -1558555.6, -2874.7583, 0.0015435374, -0.022176882, -1377867.8, 155769.53 
1.2056623e+3, 1.5349641e+2, -1300355.4, -1469730.1, -2583.371, -0.0006684585, -0.02533416, -1300316.0, 135416.73 
1.2056217e+3, 1.6348666e+2, -1223967.6, -1382183.9, -5413.0454, -0.0019024324, -0.026279988, -1223782.8, 114045.63 
1.2055807e+3, 1.7347702e+2, -1148008.8, -1294389.1, -5551.746, -0.00090327597, -0.024541195, -1147798.5, 92124.24 
1.20553955e+3, 1.8346734e+2, -1071833.8, -1207007.5, -7641.186, -0.0006384043, -0.022906566, -1071403.3, 70614.42 
1.20549805e+3, 1.9345774e+2, -994069.0, -1118268.3, -7719.0283, -0.0019262892, -0.024594659, -993591.1, 50520.758 
1.20545655e+3, 2.0344807e+2, -917342.7, -1031173.4, -8712.923, -0.0024438126, -0.02453324, -916679.6, 29526.91 
1.2054148e+3, 2.1343848e+2, -840380.2, -942829.6, -8684.922, -0.0014523539, -0.023648405, -839649.2, 8651.366 
1.205373e+3, 2.2342885e+2, -763822.7, -855360.94, -8823.06, -0.0013830685, -0.022797646, -762980.0, -12585.075 
1.2053313e+3, 2.3341928e+2, -686539.6, -766728.0, -8755.229, -0.0029521878, -0.024879722, -685594.8, -33106.082 
1.20528966e+3, 2.4340966e+2, -610067.44, -679449.0, -8023.284, -0.0038282329, -0.024677, -609151.75, -54568.875 
1.205248e+3, 2.5340018e+2, -533055.25, -590865.44, -7999.014, -0.0035030951, -0.022791246, -531968.9, -75292.89 
1.20520666e+3, 2.6339063e+2, -456532.28, -503251.88, -6394.913, -0.0033344598, -0.021645635, -455672.78, -96903.14 
1.2051654e+3, 2.7338114e+2, -379119.0, -414289.75, -6134.8916, -0.003580183, -0.025147758, -378079.6, -117217.0 
1.2051244e+3, 2.833714e+2, -305719.94, -333678.9, -3820.6006, -0.0038253802, -0.025613684, -305207.25, -142249.38 
1.20508365e+3, 2.933615e+2, -228380.03, -245181.45, -3731.5715, -0.0041599604, -0.023095848, -227588.53, -162533.73 
1.2050434e+3, 3.033559e+2, -138563.48, -78098.336, 16.972752, -0.004727028, -0.02145112, -78098.33, -78098.33 
1.2050036e+3, 3.1335503e+2, -159060.61, -84790.98, 415.10452, -0.005421181, -0.025097497, -84788.66, -84788.66 
1.21580005e+3, 1.2356588e+2, -1530142.0, -1726914.1, 823.71344, 0.0001375067, -0.02601708, -1530138.6, 198913.4 
1.21575855e+3, 1.3355574e+2, -1459066.1, -1653601.9, -7395.566, 0.0032045739, -0.019273018, -1458785.4, 172366.0 
1.2157167e+3, 1.4354555e+2, -1378117.6, -1558998.8, -7738.0854, -0.004576254, -0.029923737, -1377787.3, 155464.13 
1.215675e+3, 1.5353586e+2, -1300704.3, -1470252.4, -7534.376, -0.00023953909, -0.024073184, -1300370.0, 134976.19 
1.2156331e+3, 1.635261e+2, -1224299.1, -1382771.8, -10692.15, 0.0014525615, -0.02097067, -1223581.0, 113860.81 
1.2155906e+3, 1.7351638e+2, -1148242.3, -1294964.3, -10889.944, -0.0013099072, -0.024448402, -1147438.4, 92098.766 
1.21554784e+3, 1.8350665e+2, -1071800.4, -1207144.6, -12598.224, -0.0026440073, -0.025166856, -1070637.6, 70994.836 
1.215505e+3, 1.9349706e+2, -994111.06, -1118418.4, -12620.055, -0.0015891145, -0.02406537, -992842.8, 50883.758 
1.215462e+3, 2.034874e+2, -917210.8, -1030954.44, -13818.817, -0.001420861, -0.023189146, -915556.0, 30265.096 
1.2154188e+3, 2.134778e+2, -840225.25, -942598.56, -13829.212, -0.0027700958, -0.024915785, -838390.0, 9525.224 
1.2153756e+3, 2.2346818e+2, -763527.4, -854860.8, -13930.392, -0.0032860253, -0.024332408, -761449.94, -11440.485 
1.2153324e+3, 2.3345868e+2, -686259.4, -766252.5, -13865.207, -0.002162497, -0.022615816, -683924.3, -31821.686 
1.2152893e+3, 2.434491e+2, -609808.9, -679007.0, -13217.56, -0.001976284, -0.021822965, -607370.1, -53173.797 
1.21524625e+3, 2.534396e+2, -532831.56, -590492.56, -13207.003, -0.0035424111, -0.025130175, -529950.5, -73660.75 
1.2152034e+3, 2.634301e+2, -455856.4, -501961.25, -11553.797, -0.0044289436, -0.025342043, -453123.1, -94740.12 
1.21516064e+3, 2.7342075e+2, -378407.3, -412897.88, -11290.9375, -0.0041928105, -0.023164151, -375039.88, -114565.336 
1.2151183e+3, 2.8341112e+2, -305200.06, -332659.75, -8948.392, -0.0040493906, -0.021652073, -302541.4, -139972.61 
1.2150761e+3, 2.9340124e+2, -227951.86, -244319.23, -8847.607, -0.004156664, -0.024175037, -224083.45, -159417.83 
1.2150343e+3, 3.033957e+2, -137735.06, -76422.7, -5429.1846, -0.004452594, -0.024407314, -75945.664, -75945.664 
1.2149931e+3, 3.13395e+2, -158202.44, -83020.15, -5098.1235, -0.0049446602, -0.023832068, -82676.02, -82676.02 
1.22581735e+3, 1.2360692e+2, -1525101.3, -1726686.5, 5148.813, -0.0007303015, -0.026599338, -1524969.9, 203680.08 
1.2257744e+3, 1.3359685e+2, -1452518.4, -1649738.3, -1822.6172, 0.006449106, -0.015158039, -1452501.5, 178247.03 
1.2257312e+3, 1.4358659e+2, -1373096.4, -1556786.9, -2462.451, -0.007222891, -0.03262148, -1373063.4, 159785.69 
1.225688e+3, 1.535769e+2, -1297930.6, -1469390.9, -2486.2515, -0.0010485945, -0.024283364, -1297894.5, 137049.69 
1.2256445e+3, 1.6356711e+2, -1222194.9, -1381869.8, -5520.489, 0.0018813467, -0.019746494, -1222004.3, 115035.86 
1.2256006e+3, 1.7355734e+2, -1144765.8, -1293412.0, -5585.7017, -0.0010494863, -0.024110124, -1144556.1, 94579.6 
1.2255564e+3, 1.8354757e+2, -1068115.0, -1205466.6, -7288.627, -0.0026032317, -0.02532576, -1067729.3, 73502.08 
1.2255121e+3, 1.9353795e+2, -992333.25, -1117741.6, -7401.6875, -0.0017079086, -0.023841446, -991897.9, 51427.84 
1.22546755e+3, 2.035283e+2, -916363.06, -1030202.8, -8581.256, -0.0016103137, -0.022789259, -915719.9, 29700.482 
1.225423e+3, 2.1351872e+2, -839469.8, -941858.3, -8517.506, -0.002935284, -0.024744168, -838766.1, 8748.17 
1.2253783e+3, 2.2350912e+2, -763129.75, -854339.3, -8659.127, -0.0034469087, -0.024293428, -762314.94, -12706.649 
1.2253336e+3, 2.3349963e+2, -686722.6, -766183.0, -8688.083, -0.0023814375, -0.022506643, -685783.75, -34082.438 
1.22528896e+3, 2.434901e+2, -610593.06, -678693.0, -8030.589, -0.0020956027, -0.021691173, -609658.94, -55864.145 
1.2252444e+3, 2.534806e+2, -533825.94, -590266.25, -7794.572, -0.0033391833, -0.025087217, -532769.25, -76881.625 
1.2251999e+3, 2.6347116e+2, -457292.25, -501916.88, -6107.6357, -0.0041690543, -0.025251346, -456471.4, -98491.05 
1.22515574e+3, 2.7346188e+2, -380709.9, -413319.6, -6134.929, -0.0042576357, -0.022700425, -379593.94, -119522.555 
1.2251119e+3, 2.8345233e+2, -308105.6, -332727.63, -3851.555, -0.0042603468, -0.021141544, -307517.2, -145352.28 
1.2250683e+3, 2.9344258e+2, -232102.95, -244919.84, -3335.2795, -0.004240309, -0.02438243, -231286.97, -167026.31 
1.22502506e+3, 3.034371e+2, -142576.86, -77947.08, 132.326, -0.0044325884, -0.024750235, -77946.81, -77946.81 
1.22498214e+3, 3.1343645e+2, -161675.5, -84065.93, -91.82532, -0.00475749, -0.023149455, -84065.82, -84065.82 
1.2358347e+3, 1.2364924e+2, -1526981.0, -1730600.5, -466.6569, -0.002716856, -0.02859011, -1526979.9, 201255.25 
1.23579055e+3, 1.3363929e+2, -1451896.0, -1648214.4, -6391.4126, 0.010470164, -0.012510281, -1451688.1, 178644.39 
1.23574585e+3, 1.4362907e+2, -1373538.9, -1557490.8, -7833.896, -0.0073141316, -0.031457037, -1373205.9, 159226.9 
1.2357011e+3, 1.5361927e+2, -1298413.0, -1470402.4, -7997.3916, -0.0028782734, -0.025640415, -1298041.9, 136486.94 
1.235656e+3, 1.6360943e+2, -1222196.4, -1382058.8, -10519.033, 0.000010294673, -0.0216585, -1221507.1, 115118.016 
1.2356107e+3, 1.7359969e+2, -1144862.8, -1293570.4, -10521.658, -0.0002569691, -0.023510158, -1144122.0, 94598.79 
1.2355651e+3, 1.8358992e+2, -1068357.1, -1205950.4, -12628.423, -0.0009639164, -0.023767564, -1067207.8, 73608.76 
1.2355192e+3, 1.9358024e+2, -992559.6, -1118293.3, -12799.55, -0.0022508856, -0.0238852, -991269.9, 51641.484 
1.23547316e+3, 2.0357057e+2, -916105.4, -1029805.7, -13750.619, -0.0028311142, -0.023158506, -914466.06, 30540.03 
1.235427e+3, 2.1356103e+2, -839212.44, -941397.56, -13665.828, -0.0021342821, -0.02330662, -837416.4, 9683.1875 
1.23538084e+3, 2.2355147e+2, -763016.0, -854171.9, -13950.96, -0.0021666938, -0.022889588, -760928.7, -11735.321 
1.2353346e+3, 2.3354195e+2, -686639.06, -766122.25, -13997.355, -0.0035323491, -0.024321595, -684246.06, -32959.406 
1.2352886e+3, 2.4353243e+2, -609983.5, -677548.1, -13290.864, -0.003983413, -0.023936063, -607463.06, -54083.215 
1.2352424e+3, 2.5352308e+2, -533169.9, -589006.0, -13062.723, -0.0029474376, -0.022808813, -530265.0, -74793.51 
1.2351967e+3, 2.635137e+2, -457038.0, -501487.9, -11470.402, -0.002730857, -0.021684732, -454252.6, -96689.13 
1.23515084e+3, 2.735044e+2, -380561.88, -413102.38, -11510.7, -0.0038767827, -0.023712004, -376901.8, -117247.03 
1.2351055e+3, 2.834949e+2, -306993.3, -330513.1, -9301.58, -0.0045359787, -0.023881525, -303759.4, -142011.64 
1.2350603e+3, 2.934853e+2, -230852.83, -242403.19, -8800.526, -0.0044404967, -0.023685211, -226101.75, -162260.25 
1.2350155e+3, 3.0347997e+2, -142464.14, -77787.92, -5056.069, -0.004712147, -0.022509037, -77395.05, -77395.05 
1.2349713e+3, 3.134793e+2, -161839.9, -84438.36, -5228.4595, -0.0051365294, -0.023024976, -84086.77, -84086.77 
1.2458524e+3, 1.23693354e+2, -1520755.0, -1729809.4, 4414.538, -0.0037062129, -0.025870537, -1520661.9, 207141.05 
1.24580674e+3, 1.3368338e+2, -1446695.0, -1645142.1, -627.62085, 0.011799072, -0.015312134, -1446693.0, 183207.66 
1.2457605e+3, 1.4367321e+2, -1370087.6, -1556042.1, -2492.3318, -0.0077666123, -0.028022971, -1370054.3, 161945.95 
1.24571435e+3, 1.5366334e+2, -1293714.5, -1468547.4, -2583.227, -0.002518047, -0.025259506, -1293676.3, 140420.8 
1.2456677e+3, 1.6365345e+2, -1217402.5, -1379988.3, -5067.622, 0.00051192957, -0.022706563, -1217244.6, 118949.33 
1.24562085e+3, 1.7364366e+2, -1142379.8, -1292705.1, -5240.831, -0.00071749295, -0.023131618, -1142197.4, 96092.555 
1.24557376e+3, 1.8363388e+2, -1066844.3, -1205070.6, -7344.465, -0.0017290332, -0.022787217, -1066455.1, 73930.64 
1.2455262e+3, 1.936242e+2, -990443.06, -1117119.5, -7238.713, -0.0022690357, -0.023709081, -990030.75, 52449.945 
1.2454788e+3, 2.0361452e+2, -914135.3, -1028786.8, -8112.7275, -0.0025139558, -0.023237856, -913564.1, 31011.385 
1.24543115e+3, 2.1360497e+2, -838550.3, -941109.06, -8287.847, -0.0021297443, -0.022742251, -837884.9, 8784.207 
1.2453834e+3, 2.2359541e+2, -762926.25, -853564.4, -8614.506, -0.002287843, -0.022185324, -762114.75, -13351.998 
1.2453357e+3, 2.3358592e+2, -686776.6, -765595.94, -8374.538, -0.0035598327, -0.024296453, -685896.6, -35040.867 
1.2452881e+3, 2.4357647e+2, -610601.0, -677245.4, -7609.039, -0.004039276, -0.024067242, -609743.25, -56794.754 
1.2452405e+3, 2.5356713e+2, -534636.7, -589172.44, -7694.4224, -0.0032234918, -0.022142347, -533571.9, -78532.1 
1.2451931e+3, 2.635578e+2, -458997.38, -501583.28, -6208.1353, -0.0029780194, -0.020820752, -458110.8, -100979.555 
1.2451459e+3, 2.7354854e+2, -382950.84, -413406.22, -5884.1304, -0.0037002359, -0.023798583, -381853.53, -122631.51 
1.24509886e+3, 2.8353912e+2, -309406.03, -330483.28, -3629.1306, -0.0042385613, -0.02426125, -308798.66, -147484.39 
1.2450522e+3, 2.9352966e+2, -233160.53, -242322.97, -3661.0898, -0.0045472765, -0.023032062, -231877.36, -168470.34 
1.24500595e+3, 3.035244e+2, -145902.81, -78619.95, -92.94891, -0.005072194, -0.021396361, -78619.83, -78619.83 
1.24496005e+3, 3.1352377e+2, -167931.56, -86693.09, 306.17786, -0.005267874, -0.022783333, -86691.94, -86691.94 
1.2558703e+3, 1.2373894e+2, -1522260.8, -1732616.8, -2170.4944, -0.0045518195, -0.023686498, -1522238.3, 205117.89 
1.2558232e+3, 1.3372885e+2, -1446849.4, -1645394.9, -5903.882, 0.011114444, -0.021923942, -1446673.9, 182781.14 
1.2557754e+3, 1.437188e+2, -1370271.6, -1556481.6, -7594.736, -0.008511871, -0.022838006, -1369962.4, 161591.28 
1.2557277e+3, 1.5370883e+2, -1294052.6, -1469102.1, -7689.1216, -0.0005248591, -0.023528738, -1293715.6, 139935.67 
1.2556796e+3, 1.6369888e+2, -1217846.0, -1380847.3, -10558.879, 0.0027764174, -0.023041753, -1217164.9, 118583.86 
1.2556311e+3, 1.7368904e+2, -1142798.6, -1293611.6, -10778.433, -0.0022218397, -0.022912955, -1142032.3, 95812.95 
1.2555824e+3, 1.8367924e+2, -1066577.8, -1204622.5, -12578.558, -0.004433235, -0.022261595, -1065441.0, 74500.29 
1.2555334e+3, 1.9366959e+2, -990159.6, -1116553.5, -12454.2705, -0.0018541222, -0.023339672, -988944.1, 53091.73 
1.2554845e+3, 2.036599e+2, -914321.8, -1029239.06, -13563.428, -0.00096938934, -0.02305638, -912742.7, 31387.934 
1.2554352e+3, 2.1365032e+2, -838810.1, -941756.1, -13760.217, -0.0028622877, -0.022942927, -837002.6, 9222.079 
1.255386e+3, 2.2364077e+2, -762365.75, -852571.4, -13981.208, -0.0036477079, -0.022080466, -760248.44, -11930.101 
1.2553369e+3, 2.3363136e+2, -686138.8, -764411.5, -13741.638, -0.0026133386, -0.022635875, -683796.44, -33386.02 
1.2552875e+3, 2.4362196e+2, -610445.8, -677048.4, -13072.112, -0.0025248225, -0.022345304, -607972.0, -55469.39 
1.2552384e+3, 2.536126e+2, -534585.8, -589208.44, -13171.2705, -0.004179326, -0.022984685, -531575.6, -76981.484 
1.2551896e+3, 2.636033e+2, -458205.97, -500085.3, -11690.195, -0.0048217415, -0.02242111, -455163.75, -98478.43 
1.2551408e+3, 2.7359417e+2, -382074.22, -411716.5, -11378.286, -0.0037358224, -0.022965832, -378210.3, -119435.53 
1.2550923e+3, 2.8358486e+2, -309048.66, -329837.8, -9087.024, -0.00346744, -0.02234989, -305636.66, -144770.58 
1.2550439e+3, 2.935754e+2, -232940.66, -241936.9, -9107.207, -0.004656237, -0.022391722, -227281.3, -164322.6 
1.2549962e+3, 3.035702e+2, -145014.69, -76877.01, -5864.82, -0.0055906274, -0.021368377, -76375.89, -76375.89 
1.2549487e+3, 3.1356972e+2, -166970.67, -84784.336, -5518.93, -0.0052606706, -0.022435227, -84415.39, -84415.39 
1.2658885e+3, 1.2378638e+2, -1516471.3, -1729703.9, 3128.4565, -0.0028767616, -0.020057071, -1516425.4, 210465.95 
1.2658398e+3, 1.3377611e+2, -1441197.9, -1643603.1, 292.28867, 0.010190211, -0.027900154, -1441197.4, 187794.56 
1.2657905e+3, 1.4376605e+2, -1364916.9, -1554450.1, -1914.9586, -0.008322102, -0.019132089, -1364897.6, 166192.92 
1.2657411e+3, 1.5375601e+2, -1290643.8, -1468057.5, -2216.0251, -0.0008196539, -0.021942832, -1290616.1, 142572.89 
1.2656915e+3, 1.6374598e+2, -1215171.4, -1379576.9, -5109.679, 0.0024034514, -0.022914914, -1215012.8, 120274.336 
1.2656415e+3, 1.7373613e+2, -1139621.1, -1292106.8, -5046.2954, -0.0020685776, -0.02292833, -1139454.4, 97929.38 
1.2655912e+3, 1.8372633e+2, -1063600.1, -1203234.9, -6740.308, -0.004143819, -0.02215547, -1063275.5, 76204.35 
1.2655407e+3, 1.9371665e+2, -988536.06, -1115901.6, -6974.7876, -0.001978829, -0.022741405, -988155.2, 53419.54 
1.26549e+3, 2.0370696e+2, -913258.25, -1028396.94, -8183.0874, -0.0012386979, -0.022355562, -912679.6, 30989.945 
1.2654394e+3, 2.1369737e+2, -837721.7, -940889.8, -7937.3, -0.0029284898, -0.02279213, -837114.6, 8648.933 
1.2653886e+3, 2.2368786e+2, -761559.06, -851756.75, -8008.0044, -0.0036513784, -0.021991277, -760853.6, -12996.615 
1.2653378e+3, 2.3367846e+2, -686295.0, -764117.44, -8138.097, -0.002745962, -0.021703593, -685453.1, -35504.297 
1.2652871e+3, 2.436691e+2, -611195.0, -676797.06, -7591.2114, -0.002581193, -0.02128745, -610328.06, -58287.305 
1.2652363e+3, 2.5365978e+2, -535720.44, -589143.5, -7351.1626, -0.0038945354, -0.023144295, -534727.4, -80595.34 
1.2651859e+3, 2.636505e+2, -459606.7, -499861.06, -5802.4023, -0.0045916033, -0.022854954, -458787.0, -102564.305 
1.2651356e+3, 2.7364147e+2, -384065.84, -411787.97, -5802.0454, -0.004130799, -0.021936785, -382900.5, -124589.16 
1.2650855e+3, 2.8363222e+2, -311692.7, -329943.78, -3549.7156, -0.0039980174, -0.020952187, -311026.6, -150624.72 
1.2650357e+3, 2.9362285e+2, -236790.14, -242633.36, -3070.1948, -0.0046038204, -0.022524297, -235473.61, -172979.84 
1.2649862e+3, 3.0361778e+2, -149502.47, -78091.375, 202.05795, -0.0054159597, -0.021947613, -78090.805, -78090.805 
1.264937e+3, 3.1361735e+2, -170724.89, -85738.14, 51.850006, -0.0055349143, -0.021638993, -85738.11, -85738.11 
1.2759069e+3, 1.23835385e+2, -1515982.1, -1728474.1, -3209.1787, -0.0008744537, -0.017113367, -1515933.8, 210477.36 
1.2758565e+3, 1.3382488e+2, -1442476.0, -1645989.0, -4869.92, 0.009072115, -0.033261824, -1442359.6, 186154.4 
1.2758057e+3, 1.4381479e+2, -1365663.1, -1555916.6, -7495.722, -0.0074949134, -0.016419895, -1365368.3, 165244.77 
1.2757547e+3, 1.5380463e+2, -1291288.4, -1469353.3, -7824.248, -0.0029047783, -0.020417644, -1290945.3, 141767.23 
1.2757036e+3, 1.6379458e+2, -1215056.5, -1379414.0, -10489.168, 0.0000016598931, -0.022414362, -1214389.8, 120421.39 
1.275652e+3, 1.7378472e+2, -1139483.8, -1291800.6, -10432.229, -0.00060990104, -0.02311092, -1138772.6, 98135.03 
1.2756e+3, 1.8377489e+2, -1063966.6, -1204061.1, -12283.523, -0.0015411056, -0.02233835, -1062897.8, 76106.19 
1.275548e+3, 1.9376515e+2, -988990.6, -1116926.5, -12518.148, -0.0026137568, -0.021940652, -987777.25, 53322.145 
1.2754959e+3, 2.0375547e+2, -912768.6, -1027482.4, -13627.484, -0.0030354124, -0.021231988, -911172.0, 32022.336 
1.2754434e+3, 2.1374594e+2, -837140.5, -939751.1, -13390.504, -0.002447533, -0.022361718, -835421.9, 9865.764 
1.2753913e+3, 2.2373645e+2, -761561.9, -851888.3, -13595.105, -0.0025564618, -0.021916801, -759560.06, -12179.323 
1.2753387e+3, 2.3372705e+2, -686399.75, -764493.1, -13744.23, -0.0038824338, -0.021420108, -684051.44, -34578.61 
1.2752865e+3, 2.4371769e+2, -610578.0, -675694.8, -13153.966, -0.004054515, -0.020820227, -608021.2, -56456.65 
1.2752342e+3, 2.5370845e+2, -535035.1, -587877.6, -12920.482, -0.002512469, -0.022652479, -532045.1, -78390.12 
1.275182e+3, 2.636993e+2, -459256.47, -499268.34, -11443.019, -0.0025341942, -0.022168735, -456215.06, -100470.03 
1.2751302e+3, 2.7369025e+2, -383809.2, -411381.9, -11452.494, -0.0049504293, -0.020713937, -379672.84, -121839.45 
1.2750785e+3, 2.836811e+2, -310609.28, -327822.38, -9309.17, -0.005842695, -0.020038873, -306537.75, -146614.6 
1.2750271e+3, 2.9367185e+2, -235618.05, -240308.42, -8846.973, -0.0044328356, -0.02337567, -228810.7, -166797.03 
1.2749761e+3, 3.0366683e+2, -149254.98, -77690.336, -5464.579, -0.0046217935, -0.023032315, -77275.48, -77275.48 
1.2749255e+3, 3.1366643e+2, -170675.45, -85741.12, -5580.815, -0.0063250526, -0.020321975, -85375.984, -85375.984 
1.2859254e+3, 1.23886146e+2, -1509192.6, -1724339.8, 2181.2344, 0.0009329663, -0.01861269, -1509170.6, 216743.16 
1.2858735e+3, 1.3387546e+2, -1438578.3, -1646429.3, 1006.87054, 0.0060922853, -0.031234847, -1438573.4, 189445.0 
1.2858212e+3, 1.4386521e+2, -1361128.0, -1553982.5, -1956.1887, -0.0053521395, -0.014942505, -1361108.1, 169010.67 
1.2857686e+3, 1.5385503e+2, -1286666.1, -1467188.0, -1920.877, -0.0026834002, -0.02049882, -1286645.8, 145573.03 
1.2857157e+3, 1.6384493e+2, -1211058.9, -1377779.8, -4406.757, -0.0007152783, -0.022820253, -1210942.5, 123375.21 
1.2856625e+3, 1.7383504e+2, -1136543.1, -1290797.8, -4763.6343, -0.0005680287, -0.022058956, -1136396.1, 100018.45 
1.2856092e+3, 1.8382518e+2, -1061507.8, -1202785.8, -6750.486, -0.0011905085, -0.020744601, -1061186.0, 77325.266 
1.2855554e+3, 1.9381541e+2, -986915.56, -1115822.3, -6555.0737, -0.0027615675, -0.021267394, -986583.06, 54023.77 
1.2855016e+3, 2.0380574e+2, -911151.06, -1026429.7, -7509.791, -0.0034301756, -0.020920713, -910663.9, 32037.865 
1.2854478e+3, 2.1379621e+2, -836441.5, -939184.25, -7677.9043, -0.002577629, -0.02146419, -835870.94, 8924.002 
1.2853938e+3, 2.2378674e+2, -761417.9, -851417.56, -8003.369, -0.0024275633, -0.020975875, -760711.75, -13823.834 
1.2853397e+3, 2.3377736e+2, -686356.0, -764114.06, -7816.268, -0.0036774285, -0.021339715, -685578.1, -36598.203 
1.285286e+3, 2.4376802e+2, -610718.25, -675014.25, -7141.5435, -0.0040057776, -0.020778112, -609934.56, -58863.168 
1.285232e+3, 2.5375885e+2, -536145.3, -587666.0, -7110.056, -0.0028599333, -0.021261534, -535182.1, -82020.89 
1.2851784e+3, 2.6374972e+2, -461072.97, -499310.5, -5654.6777, -0.002858747, -0.020657305, -460254.25, -105003.61 
1.2851247e+3, 2.7374074e+2, -386108.44, -411701.75, -5405.0903, -0.0046565044, -0.021085756, -385013.75, -127675.086 
1.2850715e+3, 2.8373167e+2, -312981.13, -327568.4, -3297.9119, -0.005356562, -0.02083587, -312270.16, -152842.48 
1.2850185e+3, 2.9372257e+2, -238393.94, -240226.3, -3135.0757, -0.0043769507, -0.022265224, -236043.9, -174527.02 
1.2849659e+3, 3.0371764e+2, -153095.92, -78769.36, 236.06783, -0.0048830095, -0.02159377, -78768.61, -78768.61 
1.2849136e+3, 3.1371725e+2, -175610.2, -87527.18, 476.76794, -0.006612847, -0.021016825, -87524.6, -87524.6 
1.2959442e+3, 1.2393844e+2, -1509306.9, -1724310.9, -3905.5623, 0.0002800367, -0.019661766, -1509235.9, 216165.39 
1.2958907e+3, 1.3392758e+2, -1440563.5, -1650399.9, -4403.7534, 0.0018020441, -0.023999244, -1440471.1, 187036.67 
1.2958367e+3, 1.4391711e+2, -1361142.8, -1554018.3, -7506.7725, -0.0022784858, -0.014410294, -1360851.0, 168759.34 
1.2957825e+3, 1.5390694e+2, -1286524.4, -1466783.1, -7552.7153, -0.00078275223, -0.021747705, -1286208.5, 145501.6 
1.2957281e+3, 1.6389681e+2, -1211698.0, -1379098.9, -10072.657, -0.00021568582, -0.023815868, -1211094.1, 122715.12 
1.2956733e+3, 1.7388685e+2, -1137288.8, -1292325.4, -10394.199, -0.0016821278, -0.019990543, -1136595.0, 99311.9 
1.2956181e+3, 1.8387696e+2, -1061240.6, -1202261.6, -12355.703, -0.0026328012, -0.017763497, -1060166.3, 77837.51 
1.2955628e+3, 1.9386724e+2, -986517.75, -1115072.3, -12190.292, -0.0025134976, -0.020726731, -985372.0, 54727.156 
1.2955074e+3, 2.0385756e+2, -911284.3, -1026832.9, -13190.019, -0.0027286666, -0.021250507, -909797.75, 32396.229 
1.295452e+3, 2.1384801e+2, -836655.5, -939795.2, -13358.828, -0.003285751, -0.020161657, -834953.4, 9334.13 
1.2953964e+3, 2.2383854e+2, -760938.7, -850599.56, -13606.919, -0.003157129, -0.019311903, -758919.2, -12538.755 
1.2953408e+3, 2.338292e+2, -685842.4, -763170.3, -13425.022, -0.002312164, -0.021467641, -683577.94, -35105.95 
1.2952852e+3, 2.438199e+2, -610393.1, -674467.06, -12930.111, -0.0026728662, -0.021105096, -607882.25, -57319.277 
1.2952298e+3, 2.538108e+2, -535851.9, -587237.2, -12933.587, -0.0048785624, -0.01903306, -532780.1, -80127.836 
1.2951745e+3, 2.6380172e+2, -460351.22, -497991.13, -11423.509, -0.005429188, -0.018402984, -457155.56, -102414.33 
1.2951192e+3, 2.7379277e+2, -385374.7, -410333.3, -11178.516, -0.003318063, -0.022996044, -381100.13, -124271.41 
1.2950644e+3, 2.837838e+2, -312314.44, -326338.0, -9187.956, -0.0027243113, -0.023190394, -307768.38, -148851.48 
1.2950097e+3, 2.937748e+2, -237786.58, -239093.3, -9037.449, -0.004569482, -0.019120043, -229378.9, -168374.02 
1.2949555e+3, 3.0376998e+2, -152378.2, -77401.28, -5683.429, -0.006281739, -0.017648492, -76972.91, -76972.91 
1.2949015e+3, 3.137696e+2, -174924.2, -86210.445, -5423.204, -0.006486119, -0.023806805, -85880.15, -85880.15 
1.305963e+3, 1.2399234e+2, -1503610.5, -1721925.6, 1280.2437, 0.0024903547, -0.021257913, -1503603.0, 221270.17 
1.3059078e+3, 1.3398148e+2, -1434949.4, -1648489.5, 1798.0957, -0.002268602, -0.018195065, -1434934.3, 192045.39 
1.3058524e+3, 1.4397083e+2, -1355975.8, -1552101.9, -1271.2977, 0.0011119135, -0.018524991, -1355967.5, 173116.52 
1.3057967e+3, 1.5396062e+2, -1282618.5, -1465539.9, -1957.0071, -0.00018150827, -0.020926831, -1282597.6, 148586.4 
1.3057403e+3, 1.6395047e+2, -1208405.8, -1377488.8, -4520.6226, -0.0012259677, -0.02091967, -1208285.0, 124998.445 
1.305684e+3, 1.7394048e+2, -1134468.8, -1290924.9, -4285.1147, -0.0023931465, -0.019353803, -1134351.5, 101029.99 
1.3056272e+3, 1.8393056e+2, -1058853.6, -1201073.5, -6041.462, -0.0029062426, -0.018010326, -1058597.4, 78881.266 
1.3055703e+3, 1.939208e+2, -984595.6, -1114147.6, -6264.7305, -0.0021883165, -0.019854221, -984293.4, 55280.746 
1.3055132e+3, 2.0391113e+2, -909633.8, -1025839.0, -7384.3457, -0.0022276852, -0.020051934, -909166.44, 32502.553 
1.3054562e+3, 2.1390158e+2, -835349.56, -938995.75, -7239.0654, -0.0032943166, -0.019715697, -834846.44, 8916.189 
1.305399e+3, 2.2389211e+2, -760090.56, -849636.7, -7392.3013, -0.0034707785, -0.018917285, -759484.44, -13629.028 
1.3053417e+3, 2.3388281e+2, -686305.7, -762851.6, -7378.671, -0.0024982702, -0.020130582, -685600.9, -37654.3 
1.3052845e+3, 2.4387357e+2, -611472.1, -674293.75, -6888.9233, -0.0026574978, -0.01977196, -610725.56, -60688.363 
1.3052274e+3, 2.5386447e+2, -536740.7, -586998.2, -6720.1753, -0.0046662646, -0.019060021, -535857.6, -83731.35 
1.3051704e+3, 2.6385543e+2, -461358.63, -497625.25, -5267.7773, -0.0052303826, -0.018554773, -460608.97, -106394.31 
1.3051136e+3, 2.738466e+2, -387357.53, -410473.84, -5223.652, -0.0033646869, -0.021471597, -386231.94, -129930.484 
1.3050571e+3, 2.8383768e+2, -314739.84, -326289.84, -3293.3843, -0.0027982744, -0.021348242, -313866.78, -155477.89 
1.3050008e+3, 2.9382876e+2, -240464.4, -239165.22, -2959.9204, -0.0044724103, -0.018989278, -236784.45, -176308.34 
1.3049448e+3, 3.0382404e+2, -155968.88, -78249.45, 260.589, -0.0062007587, -0.017891167, -78248.58, -78248.58 
1.3048893e+3, 3.1382373e+2, -179930.2, -87847.02, 278.64758, -0.0065826, -0.02232344, -87846.18, -87846.18 
1.3159822e+3, 1.240477e+2, -1503979.0, -1723073.4, -3813.0137, 0.0035414048, -0.020161614, -1503912.8, 220418.02 
1.3159254e+3, 1.340369e+2, -1434808.6, -1647952.5, -3641.0952, -0.006155959, -0.01355611, -1434746.4, 191690.08 
1.3158683e+3, 1.440261e+2, -1357141.6, -1554113.9, -7203.928, 0.0046795676, -0.025781918, -1356878.5, 171663.8 
1.3158108e+3, 1.5401584e+2, -1283803.1, -1467765.8, -7875.4087, -0.0006232521, -0.018448818, -1283466.6, 147176.31 
1.3157529e+3, 1.6400567e+2, -1208148.8, -1377000.8, -10245.025, -0.0034012941, -0.015149378, -1207529.4, 125213.31 
1.3156949e+3, 1.7399564e+2, -1134068.3, -1290156.9, -10040.998, -0.0028061287, -0.019871825, -1133425.0, 101415.84 
1.3156365e+3, 1.8398573e+2, -1059164.8, -1201808.5, -11796.629, -0.0023245146, -0.020712784, -1058195.8, 78742.32 
1.3155779e+3, 1.9397596e+2, -984993.8, -1115097.3, -12004.241, -0.0018569406, -0.018635416, -983895.5, 55138.35 
1.3155192e+3, 2.0396626e+2, -909325.7, -1025343.75, -13122.999, -0.001930669, -0.017595394, -907859.8, 33269.03 
1.3154605e+3, 2.1395673e+2, -835009.75, -938387.5, -12995.095, -0.0027481804, -0.020028863, -833401.25, 9821.086 
1.3154015e+3, 2.2394729e+2, -759879.9, -849335.3, -13313.705, -0.0035009242, -0.019577868, -757940.44, -12625.548 
1.3153426e+3, 2.3393802e+2, -686093.44, -762621.8, -13337.53, -0.0041172537, -0.017451819, -683835.56, -36429.938 
1.3152838e+3, 2.4392882e+2, -610882.06, -673284.8, -12656.214, -0.0038433012, -0.016984794, -608412.94, -58917.074 
1.315225e+3, 2.5391975e+2, -536174.25, -585993.0, -12478.822, -0.0024402589, -0.021194382, -533223.3, -81638.59 
1.3151665e+3, 2.6391077e+2, -460974.47, -496979.38, -11264.109, -0.0025658454, -0.02084284, -457740.9, -104068.32 
1.315108e+3, 2.73902e+2, -387017.7, -409930.75, -11255.105, -0.004852037, -0.016574197, -382414.03, -126655.625 
1.3150497e+3, 2.838932e+2, -313841.94, -324595.94, -9276.237, -0.005570372, -0.015509438, -308496.94, -150651.88 
1.3149917e+3, 2.938843e+2, -239538.97, -237395.2, -8936.148, -0.0041268626, -0.02193003, -229466.88, -169534.94 
1.314934e+3, 3.0387965e+2, -155623.27, -77649.664, -5998.761, -0.004708068, -0.022191232, -77190.86, -77190.86 
1.3148768e+3, 3.1387946e+2, -179738.52, -87496.58, -5996.792, -0.0071224836, -0.016240386, -87108.35, -87108.35 
1.3260016e+3, 1.24104835e+2, -1496449.5, -1721803.5, 2578.2163, 0.0058000735, -0.018599166, -1496420.1, 227350.86 
1.325943e+3, 1.3409404e+2, -1429447.6, -1645022.4, 1578.1938, -0.009439505, -0.0109105315, -1429436.1, 196440.56 
1.3258845e+3, 1.440832e+2, -1354169.3, -1552663.6, -1568.1808, 0.0069394005, -0.026013337, -1354156.9, 173825.94 
1.325825e+3, 1.5407293e+2, -1280194.9, -1466130.0, -1496.4077, -0.0007636011, -0.017662967, -1280182.9, 149900.81 
1.3257656e+3, 1.6406271e+2, -1204409.6, -1375352.0, -3661.245, -0.0043876315, -0.013756523, -1204331.3, 127852.445 
1.3257056e+3, 1.7405266e+2, -1130906.3, -1288891.0, -4020.747, -0.002340653, -0.01874713, -1130804.0, 103478.29 
1.3256457e+3, 1.8404269e+2, -1056414.9, -1200466.6, -5944.4897, -0.001481362, -0.019957205, -1056170.0, 80209.875 
1.3255855e+3, 1.940329e+2, -982826.06, -1114045.9, -5836.6206, -0.002196025, -0.018156698, -982566.94, 55908.906 
1.3255252e+3, 2.0402321e+2, -907640.8, -1024097.94, -6868.519, -0.002641374, -0.016927315, -907237.1, 33333.777 
1.3254647e+3, 2.1401368e+2, -834415.75, -937685.0, -6844.1074, -0.0026905532, -0.018653827, -833964.1, 8699.95 
1.3254042e+3, 2.2400427e+2, -759729.1, -848784.75, -7120.0728, -0.0031322353, -0.018243294, -759163.44, -14407.019 
1.3253435e+3, 2.3399502e+2, -685553.06, -761913.0, -7035.0186, -0.0041063237, -0.01704471, -684910.3, -38063.25 
1.325283e+3, 2.4398585e+2, -610487.4, -672357.1, -6371.5015, -0.0039722035, -0.016725745, -609838.06, -60901.1 
1.3252227e+3, 2.5397682e+2, -537287.56, -585819.7, -6289.9546, -0.0023164256, -0.020156818, -536485.6, -85460.336 
1.3251624e+3, 2.6396793e+2, -462836.06, -497004.66, -5055.893, -0.0023746798, -0.019581668, -462103.66, -108991.01 
1.3251022e+3, 2.7395922e+2, -388818.4, -409957.84, -4812.333, -0.004999127, -0.01572554, -387774.44, -132576.48 
1.3250422e+3, 2.8395045e+2, -315761.7, -324171.25, -2789.8809, -0.0058100508, -0.014709931, -314920.34, -157636.5 
1.3249825e+3, 2.9394168e+2, -242674.34, -237562.52, -2511.937, -0.003988865, -0.020779163, -236534.78, -177165.13 
1.3249232e+3, 3.039371e+2, -159671.83, -79025.13, 341.40793, -0.004477073, -0.020926123, -79023.69, -79023.69 
1.3248642e+3, 3.1393695e+2, -183111.95, -88712.06, 365.08054, -0.0073909606, -0.014944931, -88710.65, -88710.65 
1.3360214e+3, 1.24163456e+2, -1498897.4, -1726739.1, -2663.2942, 0.0070340033, -0.021630518, -1498866.3, 224330.23 
1.3359608e+3, 1.3415268e+2, -1429681.0, -1645294.3, -4901.3984, -0.012347906, -0.00951296, -1429569.6, 195732.53 
1.3359006e+3, 1.441419e+2, -1353853.6, -1551936.6, -7324.0527, 0.00819158, -0.021322668, -1353583.3, 173824.55 
1.3358395e+3, 1.5413162e+2, -1279837.9, -1465321.0, -7242.0723, -0.00070826756, -0.018207647, -1279555.5, 149953.03 
1.3357784e+3, 1.6412139e+2, -1205066.5, -1376719.0, -9573.021, -0.004509059, -0.015518868, -1204534.3, 127074.46 
1.3357168e+3, 1.7411125e+2, -1131668.1, -1290496.3, -9920.534, -0.0012297884, -0.01625373, -1131050.9, 102657.15 
1.3356552e+3, 1.8410124e+2, -1056281.9, -1200301.1, -11803.23, -0.0004794207, -0.016517092, -1055321.0, 80485.14 
1.3355932e+3, 1.9409142e+2, -982654.8, -1113755.8, -11709.47, -0.0031095769, -0.01831966, -981617.2, 56285.09 
1.3355312e+3, 2.0408176e+2, -907506.1, -1023882.94, -12886.168, -0.0042111855, -0.017654637, -906096.3, 33900.824 
1.3354689e+3, 2.1407229e+2, -834247.4, -937513.9, -12892.187, -0.0030766525, -0.01577569, -832662.2, 9427.792 
1.3354068e+3, 2.2406287e+2, -759331.25, -848162.56, -12961.902, -0.0024564955, -0.015212917, -757478.56, -13296.479 
1.3353445e+3, 2.3405364e+2, -685199.4, -761327.25, -12873.665, -0.0026922112, -0.018683184, -683081.3, -36808.516 
1.3352823e+3, 2.440445e+2, -610117.94, -671738.1, -12486.906, -0.0032297566, -0.01864339, -607683.75, -59321.426 
1.33522e+3, 2.5403556e+2, -536914.7, -585241.8, -12450.485, -0.0042244974, -0.0161053, -533895.6, -83445.875 
1.3351582e+3, 2.6402673e+2, -462069.13, -495625.47, -11070.332, -0.004540565, -0.015073969, -458746.06, -106209.61 
1.3350964e+3, 2.7401805e+2, -388055.63, -408564.3, -10822.042, -0.0038779865, -0.018884594, -383401.3, -128779.74 
1.3350347e+3, 2.8400937e+2, -314931.88, -322638.66, -9066.91, -0.0036943296, -0.018707491, -308933.5, -152226.94 
1.3349733e+3, 2.940008e+2, -241887.17, -236088.5, -8817.094, -0.004212866, -0.015392613, -229706.28, -170915.69 
1.3349122e+3, 3.0399626e+2, -159322.14, -78443.44, -5773.91, -0.0056195864, -0.0141428085, -78033.32, -78033.32 
1.3348514e+3, 3.1399608e+2, -182859.9, -88305.12, -5706.9204, -0.00746967, -0.018846199, -87961.92, -87961.92 
1.3460413e+3, 1.2422409e+2, -1493451.4, -1725224.6, 4549.9063, 0.005966901, -0.016213533, -1493362.0, 229240.34 
1.3459788e+3, 1.342132e+2, -1424107.9, -1642429.4, 973.38916, -0.012401585, -0.01304932, -1424103.6, 200605.52 
1.3459167e+3, 1.4420249e+2, -1349181.8, -1549740.3, -826.1203, 0.008601692, -0.016881451, -1349178.4, 177635.78 
1.3458541e+3, 1.5419212e+2, -1275721.8, -1463525.4, -1246.1708, -0.00042720904, -0.017201195, -1275713.5, 153202.16 
1.345791e+3, 1.6418184e+2, -1201384.6, -1375095.8, -3851.4592, -0.0045033204, -0.016092893, -1201299.3, 129717.15 
1.345728e+3, 1.7417167e+2, -1128376.5, -1289118.5, -3784.8403, -0.001569734, -0.015612013, -1128287.4, 104828.586 
1.3456646e+3, 1.8416165e+2, -1053356.8, -1198505.0, -5516.2617, -0.0008304199, -0.015130878, -1053147.5, 82066.75 
1.345601e+3, 1.9415185e+2, -981071.44, -1112623.4, -5455.951, -0.0031314278, -0.016913205, -980845.56, 56464.703 
1.3455372e+3, 2.0414218e+2, -906578.3, -1023190.6, -6534.702, -0.0040906505, -0.016514147, -906213.25, 33191.848 
1.3454732e+3, 2.141327e+2, -832892.9, -936656.25, -6563.5156, -0.0030186684, -0.015268401, -832479.4, 9018.656 
1.3454093e+3, 2.2412333e+2, -758073.25, -846865.2, -6687.8516, -0.0024097422, -0.014834029, -757572.3, -13982.398 
1.3453454e+3, 2.3411411e+2, -685572.06, -760833.8, -6541.9766, -0.002561522, -0.017794764, -685007.6, -39327.426 
1.3452815e+3, 2.4410501e+2, -611301.25, -671600.6, -6097.2275, -0.003174528, -0.0174657, -610690.9, -62921.598 
1.3452177e+3, 2.5409612e+2, -537874.5, -585034.3, -5972.9404, -0.0045235013, -0.0148131875, -537129.8, -87273.42 
1.3451539e+3, 2.6408735e+2, -462975.9, -494956.28, -4540.6245, -0.004827515, -0.014023138, -462343.72, -110401.23 
1.3450903e+3, 2.7407873e+2, -389915.88, -408375.75, -4328.423, -0.003580719, -0.01870666, -388951.38, -134924.5 
1.345027e+3, 2.8407013e+2, -317109.47, -322445.22, -2676.9575, -0.0032733208, -0.018638222, -315997.97, -159886.95 
1.3449638e+3, 2.940617e+2, -243739.66, -235775.27, -2439.437, -0.004396087, -0.0141227925, -235087.48, -176893.42 
1.344901e+3, 3.040572e+2, -162139.4, -78997.766, 551.3809, -0.005819102, -0.012763913, -78994.11, -78994.11 
1.3448384e+3, 3.1405705e+2, -187943.72, -90033.78, 799.3447, -0.007001486, -0.019247118, -90027.26, -90027.26 
1.3560614e+3, 1.2428634e+2, -1493843.8, -1725682.1, -733.2728, 0.005867133, -0.014006874, -1493841.4, 228151.0 
1.355997e+3, 1.3427536e+2, -1424260.4, -1642519.6, -5750.603, -0.010563487, -0.019793008, -1424109.0, 199991.0 
1.3559331e+3, 1.4426471e+2, -1349880.5, -1551164.9, -6732.51, 0.008390735, -0.012537284, -1349655.5, 176548.83 
1.3558687e+3, 1.5425423e+2, -1276544.5, -1465140.9, -7077.1274, -0.000041291463, -0.015075913, -1276279.3, 152027.88 
1.3558042e+3, 1.6424386e+2, -1201376.1, -1375072.5, -9782.233, -0.004471788, -0.01583035, -1200827.0, 129581.69 
1.3557392e+3, 1.742337e+2, -1128360.0, -1289017.1, -9742.065, -0.0030804372, -0.016402047, -1127771.5, 104736.82 
1.3556741e+3, 1.842237e+2, -1053284.5, -1198302.4, -11709.507, -0.0022797778, -0.015245843, -1052345.1, 82261.164 
1.3556087e+3, 1.9421393e+2, -980897.3, -1112426.1, -11701.15, -0.0024532808, -0.014137227, -979864.44, 56837.535 
1.3555433e+3, 2.0420426e+2, -906452.06, -1023170.1, -12466.731, -0.0026422392, -0.013838428, -905135.4, 33661.41 
1.3554776e+3, 2.1419473e+2, -832861.8, -936712.5, -12474.027, -0.0026450248, -0.01677982, -831384.5, 9505.637 
1.355412e+3, 2.2418536e+2, -757648.94, -846103.94, -12916.981, -0.002961693, -0.01660995, -755801.25, -12819.381 
1.3553461e+3, 2.3417625e+2, -685098.75, -760049.44, -12822.926, -0.0036334526, -0.014550428, -682965.7, -37894.418 
1.3552806e+3, 2.4416722e+2, -610756.8, -670688.75, -12192.117, -0.0037948762, -0.013537653, -608371.44, -61211.723 
1.355215e+3, 2.5415835e+2, -537367.44, -584178.44, -12064.364, -0.0033829291, -0.016135912, -534441.06, -85194.34 
1.3551496e+3, 2.6414964e+2, -462295.4, -493745.56, -10778.213, -0.0034411957, -0.016102197, -458956.16, -107623.91 
1.3550842e+3, 2.7414113e+2, -389246.03, -407192.16, -10597.033, -0.004187423, -0.015217436, -384333.4, -130918.016 
1.3550192e+3, 2.8413263e+2, -316323.44, -321017.66, -8895.552, -0.0046220534, -0.014727657, -309470.56, -153971.92 
1.3549542e+3, 2.941242e+2, -242977.31, -234396.77, -8652.958, -0.004616657, -0.017174968, -229028.88, -171447.44 
1.3548897e+3, 3.0411983e+2, -161495.88, -77839.05, -6086.2964, -0.0051453887, -0.016818274, -77398.57, -77398.57 
1.3548255e+3, 3.141198e+2, -187390.58, -88948.86, -5865.4126, -0.0061609065, -0.015812488, -88600.61, -88600.61 
1.3660815e+3, 1.2435056e+2, -1488772.0, -1721919.5, 6275.01, 0.0019421729, -0.013109225, -1488603.3, 232759.94 
1.3660155e+3, 1.3433947e+2, -1419409.0, -1640983.8, -36.037487, -0.0070678014, -0.021486178, -1419409.0, 204062.89 
1.3659497e+3, 1.4432879e+2, -1344643.0, -1549046.3, -665.90027, 0.005540745, -0.009051453, -1344640.9, 180935.7 
1.3658836e+3, 1.543182e+2, -1272237.4, -1463545.5, -714.6563, -0.00055501173, -0.014012384, -1272234.8, 155445.58 
1.3658172e+3, 1.643078e+2, -1197643.5, -1372821.4, -3408.5046, -0.003891086, -0.015642732, -1197577.1, 132205.08 
1.3657506e+3, 1.7429766e+2, -1126027.6, -1287474.8, -3344.4978, -0.0031002834, -0.015027338, -1125958.3, 105923.28 
1.3656837e+3, 1.8428765e+2, -1051573.0, -1197408.6, -5230.8237, -0.0024456452, -0.013663816, -1051385.6, 82593.98 
1.3656166e+3, 1.9427787e+2, -978241.44, -1111150.1, -5413.1226, -0.0021670696, -0.0135216545, -978021.3, 58054.324 
1.3655493e+3, 2.0426817e+2, -903701.4, -1021257.8, -6265.4067, -0.00227028, -0.013525371, -903368.4, 34802.11 
1.3654819e+3, 2.1425869e+2, -832174.4, -935797.56, -6010.92, -0.0027446882, -0.015927825, -831826.9, 8436.641 
1.3654146e+3, 2.2424936e+2, -757946.5, -845697.3, -6322.217, -0.003321709, -0.015419687, -757493.3, -15138.394 
1.365347e+3, 2.3424026e+2, -685053.6, -759504.56, -6340.584, -0.0038712742, -0.013311904, -684517.44, -40073.42 
1.3652797e+3, 2.4423128e+2, -610571.44, -669572.5, -5683.747, -0.003742469, -0.01255796, -610028.9, -63496.813 
1.3652124e+3, 2.5422245e+2, -538162.56, -583547.0, -5394.592, -0.0028003424, -0.01585869, -537530.1, -88911.7 
1.3651451e+3, 2.642138e+2, -463846.0, -493587.34, -4087.721, -0.0028595927, -0.015789649, -463294.4, -112591.1 
1.3650781e+3, 2.742054e+2, -391093.7, -407236.6, -4012.2847, -0.0044130883, -0.013749707, -390151.44, -137365.66 
1.3650112e+3, 2.8419697e+2, -318282.1, -320423.38, -2272.283, -0.0050420226, -0.013138966, -316840.88, -161972.67 
1.3649446e+3, 2.9418862e+2, -245880.83, -234244.14, -1770.891, -0.0043938137, -0.017069735, -233980.61, -177030.64 
1.3648781e+3, 3.0418432e+2, -165099.55, -79065.88, 597.42303, -0.0046717646, -0.016897703, -79061.734, -79061.734 
1.3648121e+3, 3.1418434e+2, -189838.44, -89743.74, 380.89087, -0.0061255274, -0.013996791, -89742.29, -89742.29 
1.376102e+3, 1.2441649e+2, -1488569.6, -1720873.0, 238.57198, 0.004872327, -0.009654646, -1488569.4, 232147.72 
1.376034e+3, 1.3440523e+2, -1420695.6, -1643374.0, -6416.772, -0.0026991297, -0.019858385, -1420510.9, 202316.63 
1.3759664e+3, 1.4439446e+2, -1344900.1, -1549664.3, -6711.5054, 0.00078400894, -0.006322992, -1344680.5, 180252.61 
1.3758986e+3, 1.5438381e+2, -1272561.8, -1464121.4, -6740.808, -0.0017082577, -0.013722087, -1272324.8, 154712.58 
1.3758305e+3, 1.643734e+2, -1197555.3, -1372539.0, -9686.227, -0.0029208662, -0.015410655, -1197020.8, 132118.67 
1.375762e+3, 1.7436332e+2, -1125825.1, -1287152.6, -9695.246, -0.0020120225, -0.011963488, -1125244.6, 105993.69 
1.3756934e+3, 1.843533e+2, -1051737.6, -1197972.1, -11203.339, -0.001660859, -0.010785373, -1050884.4, 82452.055 
1.3756245e+3, 1.9434342e+2, -978562.06, -1111880.9, -11351.072, -0.002239743, -0.014650404, -977602.5, 57830.813 
1.3755554e+3, 2.0433372e+2, -903266.2, -1020345.1, -12662.34, -0.0028171095, -0.015021913, -901912.4, 35615.76 
1.3754863e+3, 2.1432434e+2, -831603.3, -934779.0, -12483.391, -0.0032814401, -0.012968895, -830114.4, 9505.737 
1.3754171e+3, 2.2431506e+2, -757662.8, -845329.2, -12505.056, -0.0035565745, -0.011697886, -755913.94, -14202.888 
1.375348e+3, 2.3430593e+2, -684837.3, -759244.25, -12513.503, -0.0033881515, -0.013882909, -682789.2, -38988.777 
1.3752788e+3, 2.44297e+2, -609796.0, -668159.8, -12013.952, -0.003117806, -0.014128692, -607419.75, -61531.7 
1.3752095e+3, 2.5428832e+2, -537368.4, -582112.06, -11762.98, -0.0028114237, -0.013992604, -534464.44, -86491.266 
1.3751407e+3, 2.6427972e+2, -463340.3, -492751.97, -10423.031, -0.003110402, -0.013254142, -460021.13, -109963.92 
1.3750719e+3, 2.7427134e+2, -390642.75, -406510.13, -10348.992, -0.004332523, -0.014325197, -385536.3, -133396.77 
1.3750033e+3, 2.8426304e+2, -317090.66, -318173.6, -8728.429, -0.004640713, -0.013765951, -308886.9, -154665.86 
1.3749348e+3, 2.9425487e+2, -244657.38, -231913.27, -8236.973, -0.0038027586, -0.013726635, -227871.36, -171570.42 
1.3748667e+3, 3.0425066e+2, -165136.45, -79360.625, -5768.048, -0.0044834074, -0.0130164465, -78974.484, -78974.484 
1.3747989e+3, 3.1425056e+2, -190012.61, -90312.52, -5967.7397, -0.0071334355, -0.014078084, -89956.58, -89956.58 
1.3861223e+3, 1.2448423e+2, -1484457.6, -1717871.5, 6167.688, -0.0010670196, -0.014736037, -1484294.8, 235758.56 
1.3860528e+3, 1.3447294e+2, -1415996.6, -1642172.1, -27.771536, 0.0006477214, -0.016551744, -1415996.6, 206167.44 
1.3859832e+3, 1.4446203e+2, -1339030.9, -1546571.1, -343.5706, -0.0024548385, -0.0081713125, -1339030.3, 185240.61 
1.3859136e+3, 1.5445141e+2, -1268386.1, -1461880.9, -190.41556, -0.0017672689, -0.012474463, -1268385.9, 157989.06 
1.3858438e+3, 1.6444099e+2, -1194308.5, -1371157.5, -3052.3699, -0.0016535206, -0.013390898, -1194255.8, 134221.31 
1.3857736e+3, 1.7443083e+2, -1121971.0, -1285555.1, -3428.047, -0.0016961133, -0.011861595, -1121899.1, 108677.55 
1.385703e+3, 1.844208e+2, -1048096.0, -1195718.1, -4968.6753, -0.0018772667, -0.011135369, -1047928.94, 84746.05 
1.3856325e+3, 1.9441094e+2, -977287.8, -1110795.5, -4667.5327, -0.0025483216, -0.013816402, -977124.9, 57646.797 
1.3855617e+3, 2.0440127e+2, -902925.0, -1019773.6, -5843.173, -0.003038537, -0.013728882, -902633.5, 34232.773 
1.3854906e+3, 2.1439189e+2, -830358.56, -933808.7, -5986.99, -0.0032080484, -0.011965884, -830013.25, 8944.989 
1.3854197e+3, 2.2438262e+2, -756259.1, -843896.56, -6086.5967, -0.0032204373, -0.0110744685, -755838.4, -14789.477 
1.3853487e+3, 2.3437355e+2, -684768.5, -758474.5, -5849.526, -0.0028299692, -0.013863899, -684307.1, -41169.2 
1.3852777e+3, 2.4436465e+2, -610616.8, -667798.0, -5364.417, -0.002814594, -0.014033465, -610117.94, -64892.832 
1.3852069e+3, 2.5435603e+2, -538591.44, -581991.94, -5435.591, -0.0033903671, -0.012862717, -537921.0, -90611.266 
1.3851361e+3, 2.643475e+2, -464626.7, -491955.78, -4065.886, -0.0037064352, -0.011989373, -464034.63, -114641.56 
1.3850656e+3, 2.743392e+2, -392653.28, -406056.84, -3513.871, -0.0038298934, -0.014178721, -391787.94, -140313.47 
1.3849951e+3, 2.84331e+2, -319265.44, -317810.6, -1714.3325, -0.0038829807, -0.013672209, -316675.75, -163120.8 
1.384925e+3, 2.9432297e+2, -246343.36, -231348.31, -1586.1667, -0.0038850426, -0.01215929, -231182.38, -175548.66 
1.3848549e+3, 3.0431882e+2, -167508.03, -79893.81, 798.4502, -0.004712695, -0.011235626, -79886.54, -79886.54 
1.3847855e+3, 3.1431872e+2, -193648.81, -91547.58, 1125.6643, -0.0067044455, -0.013864858, -91535.17, -91535.17 
1.396143e+3, 1.2455373e+2, -1484734.8, -1718278.8, -310.17352, 0.00052626047, -0.00587863, -1484734.4, 234637.9 
1.3960718e+3, 1.345423e+2, -1416833.5, -1643642.4, -5753.959, 0.0032377297, -0.012421986, -1416687.6, 204796.78 
1.3960004e+3, 1.4453128e+2, -1339003.6, -1546339.1, -6729.328, -0.004621777, -0.013012761, -1338785.4, 184806.97 
1.395929e+3, 1.5452074e+2, -1268256.5, -1461576.8, -6709.2725, -0.0011214345, -0.010498184, -1268024.0, 157671.64 
1.3958572e+3, 1.645103e+2, -1194860.1, -1372365.9, -9198.1455, -0.00025737248, -0.010173193, -1194384.8, 133413.19 
1.3957852e+3, 1.745e+2, -1122663.1, -1286916.1, -9534.263, -0.0020399038, -0.0140290195, -1122111.5, 107787.4 
1.395713e+3, 1.8448995e+2, -1047630.4, -1194684.8, -11465.868, -0.00294376, -0.013830765, -1046741.75, 85255.664 
1.3956404e+3, 1.9448021e+2, -976671.4, -1109650.0, -11253.657, -0.0030659758, -0.011304972, -975725.7, 58367.13 
1.3955678e+3, 2.0447057e+2, -902924.9, -1020012.7, -12070.936, -0.00300647, -0.010188481, -901693.4, 34493.676 
1.3954951e+3, 2.1446113e+2, -830450.6, -934208.0, -12196.346, -0.0026674727, -0.01262897, -829036.25, 9243.47 
1.3954224e+3, 2.2445188e+2, -755632.9, -842783.56, -12588.286, -0.0024679592, -0.012992215, -753851.06, -13480.71 
1.3953495e+3, 2.344429e+2, -684081.5, -757299.2, -12395.114, -0.0022939832, -0.013201536, -682040.0, -39581.668 
1.3952768e+3, 2.4443407e+2, -610388.06, -667570.9, -11825.698, -0.0029140867, -0.012406294, -608038.94, -63493.95 
1.3952039e+3, 2.544254e+2, -538430.6, -581889.6, -11898.223, -0.0045856484, -0.012428516, -535386.4, -88756.62 
1.3951315e+3, 2.64417e+2, -463325.3, -489502.5, -10582.201, -0.004663799, -0.011871232, -459582.56, -110870.24 
1.3950591e+3, 2.7440885e+2, -391314.5, -403510.53, -10055.587, -0.0029610773, -0.013324617, -385652.38, -134860.4 
1.394987e+3, 2.8440076e+2, -318665.5, -316797.22, -8064.266, -0.0029029741, -0.01295561, -309613.2, -156741.92 
1.394915e+3, 2.9439276e+2, -245805.31, -230489.7, -7925.2075, -0.0047980873, -0.0125180995, -227127.03, -172177.42 
1.3948432e+3, 3.043887e+2, -166628.36, -78321.9, -5856.99, -0.005493048, -0.011649604, -77935.12, -77935.12 
1.3947718e+3, 3.1438872e+2, -192795.8, -89971.95, -5547.0093, -0.005010315, -0.013343309, -89673.58, -89673.58 
1.4061637e+3, 1.2462502e+2, -1479584.5, -1716796.6, 5008.766, -0.000967143, -0.014109959, -1479478.9, 239194.89 
1.4060909e+3, 1.3461371e+2, -1411530.3, -1640646.1, 1524.5106, 0.0042962832, -0.008026526, -1411520.0, 209264.52 
1.4060175e+3, 1.446026e+2, -1334668.3, -1544765.4, 102.19252, -0.0052199466, -0.014081857, -1334668.3, 188225.23 
1.4059444e+3, 1.5459199e+2, -1263767.4, -1460010.5, -461.41208, -0.0012003451, -0.010753314, -1263766.3, 161231.13 
1.4058708e+3, 1.645815e+2, -1190509.4, -1369959.9, -2880.517, -0.000078220415, -0.009659174, -1190463.1, 136636.89 
1.4057969e+3, 1.7457122e+2, -1120074.5, -1285408.9, -2651.3706, -0.0020922665, -0.012951713, -1120032.0, 109169.07 
1.4057228e+3, 1.8456116e+2, -1045769.8, -1193597.5, -4516.1333, -0.003016789, -0.0127291735, -1045631.94, 85667.66 
1.4056484e+3, 1.945514e+2, -974232.4, -1108326.6, -4817.4585, -0.0028486347, -0.010644756, -974059.5, 59335.72 
1.405574e+3, 2.0454177e+2, -900530.3, -1018348.1, -5646.9727, -0.0026767894, -0.009868331, -900260.25, 35229.22 
1.4054996e+3, 2.1453233e+2, -829474.7, -933238.4, -5405.096, -0.0024558476, -0.0127647305, -829193.9, 8388.089 
1.4054249e+3, 2.245231e+2, -755344.1, -842145.5, -5819.643, -0.0024582203, -0.012973056, -754955.7, -15283.318 
1.4053503e+3, 2.3451415e+2, -683745.44, -756663.06, -5970.4883, -0.002577239, -0.012073045, -683259.8, -41499.676 
1.4052756e+3, 2.4450536e+2, -610121.5, -666513.94, -5435.48, -0.003070843, -0.0111627355, -609602.4, -65755.98 
1.4052011e+3, 2.5449675e+2, -539067.1, -581281.1, -5066.4395, -0.0041107344, -0.012434897, -538467.56, -92536.88 
1.4051268e+3, 2.6448837e+2, -464849.13, -489245.5, -3868.9155, -0.0041786786, -0.012084401, -464250.28, -116237.586 
1.4050525e+3, 2.744803e+2, -393715.22, -403721.47, -4104.692, -0.003207501, -0.012386547, -392246.9, -142155.25 
1.4049785e+3, 2.8447235e+2, -321079.75, -315787.06, -1880.7255, -0.0032702466, -0.011929035, -315186.8, -163017.03 
1.4049047e+3, 2.944645e+2, -248997.22, -229848.28, -831.2006, -0.0046028513, -0.012709918, -229812.27, -175565.7 
1.4048313e+3, 3.0446056e+2, -170160.45, -79672.35, 1486.1344, -0.0050298194, -0.012262871, -79647.95, -79647.95 
1.4047581e+3, 3.1446058e+2, -193661.05, -90144.16, 999.86096, -0.0046014856, -0.013485375, -90134.5, -90134.5 
1.4161846e+3, 1.2469806e+2, -1480216.5, -1717875.0, -2086.54, -0.0021879554, -0.01532004, -1480198.1, 237759.84 
1.41611e+3, 1.3468689e+2, -1411085.5, -1639494.0, -4473.0444, 0.004309479, -0.003516294, -1410998.0, 209069.58 
1.416035e+3, 1.4467572e+2, -1335724.0, -1546843.6, -6321.049, -0.0048451107, -0.01269455, -1335534.9, 186642.06 
1.4159599e+3, 1.5466493e+2, -1264915.3, -1462193.4, -6847.764, -0.0018413559, -0.012608743, -1264677.8, 159604.9 
1.4158845e+3, 1.6465442e+2, -1190115.8, -1369021.8, -9397.107, -0.00078335084, -0.010936644, -1189623.5, 136762.23 
1.4158086e+3, 1.7464423e+2, -1119569.6, -1284387.9, -9263.333, -0.0019326144, -0.00939905, -1119050.6, 109434.95 
1.4157328e+3, 1.8463416e+2, -1046135.0, -1194514.0, -10921.88, -0.0023544903, -0.008812532, -1045335.4, 85248.67 
1.4156567e+3, 1.946243e+2, -974647.44, -1109377.5, -11207.497, -0.0020872816, -0.011486295, -973721.5, 58959.367 
1.4155804e+3, 2.0461465e+2, -899978.4, -1017361.44, -12182.114, -0.002170351, -0.012044091, -898727.44, 36047.85 
1.4155039e+3, 2.146053e+2, -828886.2, -932208.9, -11992.404, -0.0025781225, -0.012370531, -827512.5, 9354.417 
1.4154275e+3, 2.2459611e+2, -755330.94, -842311.25, -12329.734, -0.0031348825, -0.011270022, -753616.94, -14659.967 
1.4153509e+3, 2.3458713e+2, -683771.94, -756942.3, -12472.351, -0.0035979445, -0.01053954, -681704.4, -40659.34 
1.4152746e+3, 2.4457838e+2, -609154.7, -664783.8, -12108.908, -0.0032486897, -0.010256086, -606633.2, -63502.31 
1.4151983e+3, 2.5456986e+2, -538054.44, -579474.6, -11776.415, -0.0021051005, -0.012839156, -534940.3, -89726.18 
1.415122e+3, 2.6456156e+2, -464840.06, -489522.56, -10639.511, -0.0024510694, -0.012567015, -460886.97, -113591.336 
1.4150457e+3, 2.7455348e+2, -393799.6, -404171.7, -10876.955, -0.004684464, -0.011367093, -386935.6, -137560.75 
1.41497e+3, 2.8454563e+2, -318919.0, -311560.88, -8426.275, -0.0050341035, -0.010602986, -306045.5, -154593.7 
1.4148945e+3, 2.9453805e+2, -246766.83, -225466.16, -7382.7783, -0.0032551712, -0.012746408, -223157.52, -169631.75 
1.4148192e+3, 3.045342e+2, -170594.1, -80884.13, -4503.6333, -0.003354695, -0.013133297, -80658.6, -80658.6 
1.4147444e+3, 3.1453413e+2, -194207.2, -91651.5, -4977.8564, -0.0058927634, -0.014475457, -91410.45, -91410.45 
1.4262056e+3, 1.2477316e+2, -1475020.1, -1717179.5, 4138.0815, -0.00053446525, -0.013352287, -1474949.5, 242272.45 
1.4261293e+3, 1.3476193e+2, -1405224.6, -1636522.3, 2095.74, 0.0028084568, -0.0046899775, -1405205.6, 214126.4 
1.4260525e+3, 1.4475076e+2, -1330783.3, -1544358.0, -170.69856, -0.0043347594, -0.013530854, -1330783.1, 190658.48 
1.4259756e+3, 1.5473996e+2, -1261089.9, -1460346.5, -0.6377728, -0.0015231953, -0.01166532, -1261089.9, 162457.6 
1.4258982e+3, 1.6472942e+2, -1186906.5, -1367638.4, -2388.841, -0.0006529683, -0.009627198, -1186875.0, 138775.83 
1.4258206e+3, 1.7471915e+2, -1116265.4, -1282996.0, -2868.3882, -0.001961568, -0.009182564, -1116216.0, 111535.15 
1.4257428e+3, 1.8470909e+2, -1042861.2, -1192680.0, -4522.1563, -0.0023411273, -0.009108911, -1042724.8, 87125.14 
1.4256647e+3, 1.946992e+2, -972153.9, -1107946.3, -4340.0, -0.0018457839, -0.011756502, -972015.3, 59931.523 
1.4255866e+3, 2.0468956e+2, -898121.94, -1016153.4, -5358.673, -0.0018942622, -0.011963704, -897879.1, 36162.137 
1.4255084e+3, 2.1468021e+2, -827716.4, -931380.6, -5575.574, -0.002472466, -0.011434832, -827417.4, 8715.511 
1.42543e+3, 2.2467104e+2, -754492.6, -841110.1, -5788.8047, -0.003146816, -0.01035582, -754107.44, -15884.74 
1.4253518e+3, 2.346621e+2, -683567.9, -756071.44, -5421.136, -0.0036728797, -0.010769754, -683164.8, -42854.32 
1.4252734e+3, 2.4465334e+2, -609313.3, -664272.5, -5118.756, -0.0032161835, -0.010616167, -608840.6, -66444.58 
1.4251952e+3, 2.5464487e+2, -538041.3, -578904.0, -5396.0635, -0.0018034456, -0.012159072, -537340.75, -92861.81 
1.4251171e+3, 2.646366e+2, -465078.34, -489012.72, -4540.74, -0.0021322202, -0.011750974, -464245.84, -117685.69 
1.425039e+3, 2.7462855e+2, -394913.94, -404114.25, -4257.0835, -0.0045912564, -0.011412143, -393246.38, -144607.19 
1.4249612e+3, 2.8462076e+2, -321480.44, -311126.03, -2188.7644, -0.0050122924, -0.010696639, -310682.38, -159966.95 
1.4248838e+3, 2.9461333e+2, -252756.97, -226695.8, -2419.9612, -0.003131719, -0.011982204, -226473.0, -173684.9 
1.424807e+3, 3.0460957e+2, -175609.13, -82776.766, 2141.919, -0.0032455092, -0.012877553, -82727.375, -82727.375 
1.4247307e+3, 3.1460947e+2, -192378.77, -90319.6, 2687.3872, -0.0057911244, -0.015973568, -90248.89, -90248.89 
1.4362271e+3, 1.2485004e+2, -1476614.8, -1720457.6, -2562.565, -0.0018913846, -0.009194386, -1476587.9, 239880.7 
1.4361489e+3, 1.3483866e+2, -1405973.8, -1637733.1, -3966.7864, 0.00040105687, -0.009501153, -1405905.9, 212674.44 
1.4360704e+3, 1.4482749e+2, -1330560.8, -1543593.3, -6818.7686, -0.0037746201, -0.01567874, -1330342.8, 190346.9 
1.4359914e+3, 1.5481679e+2, -1260691.1, -1459479.8, -6754.41, -0.00064110424, -0.008720121, -1260461.9, 162332.56 
1.4359121e+3, 1.6480623e+2, -1187607.3, -1369200.5, -8967.057, -0.000023790217, -0.006561403, -1187165.5, 137732.48 
1.4358327e+3, 1.747958e+2, -1117004.1, -1284646.0, -9409.419, -0.0022092017, -0.01146751, -1116477.6, 110522.375 
1.435753e+3, 1.847857e+2, -1042437.3, -1191894.1, -11065.118, -0.0029129505, -0.012460549, -1041622.56, 87476.66 
1.435673e+3, 1.947759e+2, -971736.8, -1107168.5, -10939.728, -0.0020449148, -0.011498345, -970858.9, 60336.38 
1.435593e+3, 2.0476626e+2, -898348.8, -1016774.4, -12099.244, -0.0018204483, -0.01007719, -897125.3, 36164.188 
1.4355128e+3, 2.1475686e+2, -827921.4, -932069.4, -12315.679, -0.0022503047, -0.010062022, -826484.8, 8896.842 
1.4354326e+3, 2.2474772e+2, -753567.6, -839492.44, -12434.6455, -0.002665854, -0.010114423, -751804.3, -14332.992 
1.4353526e+3, 2.3473884e+2, -682637.4, -754428.1, -12102.529, -0.0029877922, -0.012556365, -680652.06, -41093.832 
1.4352724e+3, 2.4473014e+2, -609475.75, -664874.4, -11770.64, -0.0031493942, -0.012036458, -607078.56, -65435.105 
1.4351922e+3, 2.5472167e+2, -538246.25, -579598.5, -12040.616, -0.0032353234, -0.01040377, -534995.9, -91269.2 
1.4351122e+3, 2.647134e+2, -464213.47, -487550.38, -11512.905, -0.0031577281, -0.009711749, -459489.88, -113682.22 
1.4350322e+3, 2.747054e+2, -394009.75, -402587.1, -11251.65, -0.0029424038, -0.012530484, -386257.16, -138371.17 
1.4349525e+3, 2.8469765e+2, -321549.53, -311548.97, -9636.704, -0.0033479407, -0.012151304, -305692.5, -155730.67 
1.4348729e+3, 2.9469022e+2, -252918.23, -227291.42, -9882.722, -0.0044561117, -0.010451721, -223923.0, -171888.25 
1.4347944e+3, 3.046865e+2, -174231.94, -80330.76, -2070.5657, -0.0048859953, -0.011343032, -80285.12, -80285.12 
1.434717e+3, 3.1468683e+2, -190350.2, -86608.875, -1470.0012, -0.0034742136, 0.011620712, -86588.055, -86588.055 
1.4462486e+3, 1.2492893e+2, -1469783.6, -1717604.9, 3840.2156, -0.00036472708, -0.008344064, -1469724.1, 245971.33 
1.4461686e+3, 1.3491751e+2, -1401064.0, -1635196.1, 3086.0435, 0.00011641621, -0.009274402, -1401023.3, 216784.19 
1.4460881e+3, 1.4490634e+2, -1326772.3, -1541994.5, 61.61812, -0.0025339106, -0.013139213, -1326772.3, 193144.72 
1.4460072e+3, 1.5489557e+2, -1256245.9, -1457560.6, -448.9217, -0.0010770338, -0.009089915, -1256244.9, 165777.6 
1.4459261e+3, 1.6488495e+2, -1183058.8, -1366975.5, -2720.7266, -0.00067592185, -0.007885393, -1183018.5, 141108.0 
1.4458448e+3, 1.7487451e+2, -1113263.1, -1282832.0, -2613.9067, -0.0016222164, -0.011798871, -1113222.8, 113005.95 
1.4457631e+3, 1.8486439e+2, -1039605.7, -1190433.0, -4231.936, -0.0021390002, -0.0121810315, -1039487.06, 88841.06 
1.4456813e+3, 1.9485456e+2, -970114.5, -1106312.6, -4514.4434, -0.002105448, -0.0108736195, -969965.0, 60459.324 
1.4455993e+3, 2.0484494e+2, -896978.75, -1015569.56, -5543.541, -0.002169223, -0.0094520245, -896720.2, 35798.402 
1.4455174e+3, 2.1483554e+2, -826368.6, -930774.7, -5251.6753, -0.0023895311, -0.009924946, -826105.1, 8505.495 
1.4454353e+3, 2.248264e+2, -752364.44, -838427.2, -5430.588, -0.0024679457, -0.010718832, -752023.1, -15322.938 
1.4453533e+3, 2.3481753e+2, -682368.25, -753830.7, -5678.254, -0.0023887441, -0.014058305, -681919.9, -43132.85 
1.4452712e+3, 2.448089e+2, -609677.44, -663931.5, -5144.9697, -0.0027779539, -0.0115338275, -609193.9, -68322.18 
1.4451893e+3, 2.5480053e+2, -539166.6, -579033.06, -4547.341, -0.0036903336, -0.005134606, -538654.5, -95700.71 
1.4451073e+3, 2.6479223e+2, -464721.0, -487093.78, -3694.0464, -0.0036809437, -0.009902876, -464126.84, -119091.93 
1.4450255e+3, 2.7478412e+2, -392452.94, -401142.38, -3866.4888, -0.002685262, -0.027742697, -390981.6, -143867.2 
1.4449437e+3, 2.8477654e+2, -321382.8, -311257.97, -3594.1733, -0.0027723038, -0.0121162925, -310111.84, -160923.19 
1.4448619e+3, 2.9476953e+2, -257177.69, -229250.3, -3507.1555, -0.004143338, 0.033223376, -228816.61, -177559.19 
1.444782e+3, 3.0476448e+2, -183599.13, -94011.414, 5168.988, -0.005410449, -0.057341658, -93714.16, -93714.16 
1.4447035e+3, 3.1476435e+2, -187073.13, -83277.35, -1661.201, -0.004205672, 0.0023042115, -83250.77, -83250.77 
1.4562704e+3, 1.2500954e+2, -1470143.8, -1717833.8, -3046.857, -0.0022510758, -0.012884024, -1470106.3, 244799.34 
1.4561884e+3, 1.3499822e+2, -1401012.8, -1634877.8, -3707.8018, 0.0011292287, -0.0056738546, -1400954.0, 216062.63 
1.456106e+3, 1.4498702e+2, -1327542.0, -1543671.1, -6470.592, -0.00096524897, -0.0076008183, -1327348.4, 191777.97 
1.4560233e+3, 1.5497604e+2, -1257090.0, -1459247.8, -6938.3726, -0.0024635787, -0.011794047, -1256852.1, 164381.69 
1.4559403e+3, 1.6496538e+2, -1182840.0, -1366376.0, -9420.318, -0.0022108257, -0.012113497, -1182357.8, 140980.6 
1.4558569e+3, 1.7495503e+2, -1112982.9, -1282215.9, -9379.746, -0.00043437147, -0.010624378, -1112464.6, 112975.11 
1.4557734e+3, 1.849449e+2, -1040009.0, -1191385.0, -11130.797, -0.0004230163, -0.009233284, -1039194.94, 88344.11 
1.4556897e+3, 1.9493498e+2, -970440.06, -1107233.6, -11402.328, -0.0021265137, -0.009981948, -969496.2, 60140.008 
1.4556058e+3, 2.0492537e+2, -896203.75, -1014219.3, -12191.301, -0.0029004987, -0.009796262, -894957.56, 36772.887 
1.4555219e+3, 2.1491605e+2, -825621.4, -929446.3, -11950.908, -0.0028423879, -0.010819755, -824263.5, 9558.114 
1.455438e+3, 2.2490692e+2, -752614.5, -839153.7, -12348.909, -0.0025450254, -0.011997241, -750886.8, -14975.711 
1.455354e+3, 2.34898e+2, -682601.2, -754580.75, -12587.947, -0.0019186105, -0.015212565, -680463.25, -42464.707 
1.45527e+3, 2.4488945e+2, -608236.5, -661259.44, -11962.856, -0.0021409602, -0.009241154, -605662.44, -65580.15 
1.455186e+3, 2.5488132e+2, -537735.44, -576367.7, -11408.488, -0.003248385, 0.0032081343, -534618.0, -92455.95 
1.4551023e+3, 2.6487303e+2, -464649.66, -487261.94, -10160.194, -0.0038331815, -0.012409137, -460755.2, -116511.805 
1.4550187e+3, 2.748646e+2, -392388.4, -401348.2, -10353.68, -0.0039195027, -0.056321763, -385586.97, -139261.25 
1.4549349e+3, 2.8485733e+2, -320983.5, -310735.72, -12180.121, -0.0033195831, -0.009790099, -302645.63, -154248.69 
1.4548509e+3, 2.9485118e+2, -256937.83, -229022.28, -11997.814, -0.0021160454, 0.119221136, -224574.44, -174117.31 
1.4547692e+3, 3.0484337e+2, -196565.13, -121371.61, 2412.4883, -0.004844908, -0.15548089, -121294.28, -121294.28 
1.4546901e+3, 3.1484205e+2, -177523.03, -64183.41, -4081.0127, -0.0026732497, -0.026088765, -64036.656, -64036.656 
1.4662923e+3, 1.2509228e+2, -1464939.8, -1715646.1, 3832.3035, -0.0015584546, -0.012049255, -1464881.1, 249213.48 
1.4662085e+3, 1.3508087e+2, -1394995.3, -1632237.3, 2881.661, 0.00053597573, -0.0070641157, -1394960.3, 221246.23 
1.4661242e+3, 1.4506963e+2, -1321865.8, -1540995.1, 32.074852, -0.0011285676, -0.008557111, -1321865.8, 196450.95 
1.4660394e+3, 1.5505862e+2, -1252905.5, -1457333.4, 12.23111, -0.0017269542, -0.011983325, -1252905.5, 167519.0 
1.4659546e+3, 1.6504793e+2, -1179570.0, -1364879.3, -2487.086, -0.0016062015, -0.011724294, -1179536.6, 142992.7 
1.4658692e+3, 1.7503755e+2, -1110118.8, -1280896.5, -2841.5977, -0.0008654132, -0.009756301, -1110071.5, 114559.59 
1.4657839e+3, 1.8502739e+2, -1037033.4, -1189648.8, -4580.3623, -0.0008941237, -0.008854406, -1036896.0, 89834.56 
1.4656982e+3, 1.9501746e+2, -967266.8, -1105388.1, -4398.28, -0.0017734235, -0.010999714, -967126.9, 61700.965 
1.4656124e+3, 2.0500782e+2, -893752.0, -1012865.44, -5245.7515, -0.0022346477, -0.010568634, -893521.44, 37400.773 
1.4655265e+3, 2.1499851e+2, -824676.9, -928835.44, -5618.758, -0.0022812511, -0.009818819, -824374.6, 8638.773 
1.4654405e+3, 2.249894e+2, -752118.4, -838243.0, -5992.961, -0.0024557142, -0.011522166, -751703.4, -16600.494 
1.4653546e+3, 2.3498046e+2, -682175.5, -753720.1, -5608.004, -0.0026558733, -0.017242713, -681738.6, -44548.293 
1.4652687e+3, 2.4497199e+2, -608135.9, -660296.5, -5087.291, -0.0025454003, -0.009527338, -607644.4, -68370.88 
1.465183e+3, 2.5496393e+2, -538589.3, -575868.0, -5360.3613, -0.0022576065, 0.008376417, -537833.8, -96481.63 
1.4650972e+3, 2.649557e+2, -466327.44, -486038.25, -3619.8784, -0.003156304, -0.012437512, -465683.7, -122250.65 
1.4650118e+3, 2.749473e+2, -396259.1, -401252.8, -2545.6436, -0.0051442045, -0.07092294, -395190.22, -149674.83 
1.464926e+3, 2.849403e+2, -320126.28, -308922.56, -3623.38, -0.003797969, -0.008874422, -307852.88, -160268.95 
1.46484e+3, 2.9493466e+2, -244231.98, -222141.05, -2802.9424, 0.0006608068, 0.16244362, -221790.95, -172151.88 
1.4647566e+3, 3.0492452e+2, -213780.06, -159419.77, 8741.283, -0.007031198, -0.20659147, -158048.72, -158048.72 
1.4646755e+3, 3.1492227e+2, -181009.06, -22336.26, -2919.8604, -0.0038354893, 0.089262985, -22282.547, -22282.547 
1.4763145e+3, 1.2517689e+2, -1465756.4, -1717352.4, -2783.216, 0.0002811443, -0.00730201, -1465725.5, 247540.03 
1.4762287e+3, 1.3516529e+2, -1395821.4, -1633734.0, -3628.1736, -0.0011256693, -0.011728282, -1395766.1, 219613.16 
1.4761424e+3, 1.4515398e+2, -1321901.8, -1540906.0, -6861.2227, -0.002417171, -0.013513764, -1321687.0, 195802.86 
1.4760558e+3, 1.5514305e+2, -1252841.9, -1457187.0, -6912.983, 0.00035212937, -0.010307038, -1252608.3, 166988.81 
1.4759688e+3, 1.6513234e+2, -1180070.1, -1366072.1, -9330.865, 0.0003077053, -0.008145073, -1179603.3, 142098.83 
1.4758818e+3, 1.7512186e+2, -1110581.6, -1282029.1, -9661.331, -0.0026009253, -0.009109333, -1110039.0, 113765.95 
1.4757942e+3, 1.8511166e+2, -1036561.75, -1188815.9, -11367.911, -0.0030448756, -0.010306854, -1035717.7, 90187.06 
1.4757067e+3, 1.9510178e+2, -966764.06, -1104541.9, -11247.856, -0.001132669, -0.013491158, -965851.9, 62149.68 
1.475619e+3, 2.0509215e+2, -894243.4, -1014132.94, -12319.153, -0.0005279446, -0.011619399, -892990.6, 37105.293 
1.475531e+3, 2.1508278e+2, -825098.94, -930055.1, -12676.193, -0.0010312179, -0.0071762484, -823589.7, 8598.068 
1.4754431e+3, 2.2507365e+2, -751106.44, -836525.0, -12872.045, -0.0023538342, -0.009584008, -749208.9, -14931.717 
1.4753552e+3, 2.3506479e+2, -681182.2, -752011.8, -12548.098, -0.004505077, -0.020146692, -679024.9, -42660.93 
1.4752674e+3, 2.4505633e+2, -608294.6, -660954.3, -12184.3955, -0.0039408915, -0.012124941, -605612.06, -67165.25 
1.4751796e+3, 2.550483e+2, -538715.1, -576477.5, -12457.455, -0.0008623341, 0.010744305, -534975.8, -94450.19 
1.4750922e+3, 2.650402e+2, -463836.4, -481231.94, -10644.018, -0.0017835371, -0.0098091215, -458788.4, -116183.31 
1.4750047e+3, 2.7503207e+2, -393816.34, -396521.5, -9608.821, -0.0063966434, -0.071851835, -385465.38, -140780.8 
1.4749172e+3, 2.8502533e+2, -318643.2, -306306.3, -9024.128, -0.004275337, -0.01024028, -301543.88, -154793.1 
1.4748298e+3, 2.9501984e+2, -243491.69, -221174.83, -8169.847, 0.0041038366, 0.16094656, -218503.69, -169699.33 
1.4747441e+3, 3.0500796e+2, -238263.42, -210433.67, -2614.6714, -0.01244307, -0.20280774, -210190.14, -210190.14 
1.4746599e+3, 3.150026e+2, -151918.53, 38460.785, -13033.997, -0.003135676, 0.11924336, 39348.992, 39348.992 
1.4863369e+3, 1.2526351e+2, -1459027.0, -1714406.8, 4017.74, -0.00040544328, -0.008275874, -1458963.8, 253452.77 
1.486249e+3, 1.3525186e+2, -1390523.0, -1631490.8, 3473.6755, -0.00046738447, -0.011989183, -1390472.9, 224057.88 
1.4861609e+3, 1.4524053e+2, -1317255.0, -1538748.3, 118.149734, -0.0014054287, -0.012775252, -1317254.9, 199387.02 
1.4860722e+3, 1.5522954e+2, -1248227.0, -1455044.4, -164.73972, 0.00009536447, -0.0097974455, -1248226.9, 170522.6 
1.4859834e+3, 1.652188e+2, -1175734.3, -1363857.0, -2514.4565, -0.00006487587, -0.00833952, -1175700.6, 145154.2 
1.4858942e+3, 1.7520827e+2, -1107017.5, -1280141.9, -2455.86, -0.002094813, -0.010322095, -1106982.8, 115975.32 
1.4858048e+3, 1.8519804e+2, -1033830.44, -1187550.1, -4168.0117, -0.002459577, -0.011085509, -1033717.5, 91340.6 
1.4857152e+3, 1.9518813e+2, -964777.6, -1103622.6, -4561.7246, -0.0010667201, -0.012468586, -964627.9, 62527.242 
1.4856255e+3, 2.051785e+2, -892232.75, -1012795.4, -5608.894, -0.00078630284, -0.0111144, -891972.4, 37277.332 
1.4855357e+3, 2.151691e+2, -822865.06, -928595.56, -5329.367, -0.0014419894, -0.00920481, -822597.1, 8744.67 
1.4854458e+3, 2.2515999e+2, -749417.3, -835472.9, -5583.2505, -0.0022875078, -0.010136736, -749056.56, -15625.491 
1.485356e+3, 2.3515117e+2, -680602.25, -751481.3, -6016.638, -0.0035364176, -0.015745888, -680095.2, -44577.64 
1.4852662e+3, 2.4514267e+2, -608220.25, -660574.0, -5793.036, -0.003402433, -0.011779617, -607586.9, -69986.086 
1.4851765e+3, 2.551345e+2, -538662.9, -576095.56, -5662.9946, -0.0018292061, -0.0007899336, -537824.9, -98144.055 
1.485087e+3, 2.6512653e+2, -464693.44, -480897.06, -4886.362, -0.0024267437, -0.010315916, -463333.97, -121574.94 
1.4849974e+3, 2.7511877e+2, -396891.7, -397232.28, -5859.8477, -0.005118315, -0.041096393, -391199.66, -147364.61 
1.4849083e+3, 2.8511178e+2, -319200.3, -304906.2, -3787.4717, -0.0038611111, -0.010127361, -303964.66, -158061.25 
1.4848197e+3, 2.9510558e+2, -239373.61, -218878.78, -3425.512, 0.0012201113, 0.07552572, -218321.4, -170357.2 
1.4847313e+3, 3.050948e+2, -249136.9, -228710.72, 2727.6587, -0.010496489, -0.111969836, -228352.73, -228352.73 
1.4846437e+3, 3.150853e+2, -153082.05, 66009.43, 10954.995, -0.0032911766, -0.09541604, 66555.84, 66555.84 
1.4963594e+3, 1.2535195e+2, -1459401.8, -1715028.9, -2918.1992, -0.0027317, -0.012338841, -1459368.5, 252181.44 
1.4962697e+3, 1.3534032e+2, -1390844.4, -1631964.1, -3426.3657, 0.0016259673, -0.009306411, -1390795.6, 222868.27 
1.4961794e+3, 1.4532895e+2, -1317740.8, -1539763.6, -6758.2666, 0.0009212529, -0.00837393, -1317535.3, 198240.14 
1.4960888e+3, 1.5531786e+2, -1248681.9, -1455952.3, -7027.429, -0.0018134924, -0.010074283, -1248444.0, 169440.13 
1.4959979e+3, 1.6530706e+2, -1175536.6, -1363467.1, -9506.741, -0.0019421058, -0.011009537, -1175056.9, 144932.94 
1.4959069e+3, 1.7529656e+2, -1106742.8, -1279736.3, -9500.653, 0.000037071226, -0.012837702, -1106222.6, 115870.14 
1.4958154e+3, 1.8528633e+2, -1034354.7, -1188864.3, -11180.148, 0.000013176634, -0.011271215, -1033549.94, 90643.05 
1.4957239e+3, 1.9527636e+2, -965273.0, -1104892.3, -11547.098, -0.0015754165, -0.008631356, -964324.44, 61966.2 
1.4956322e+3, 2.052667e+2, -891492.5, -1011482.2, -12551.171, -0.0026374036, -0.009423839, -890193.7, 38191.758 
1.4955404e+3, 2.1525729e+2, -822126.2, -927333.9, -12354.152, -0.0031923049, -0.015108692, -820695.0, 9782.386 
1.4954485e+3, 2.2524822e+2, -749955.94, -836880.3, -12785.231, -0.0022051118, -0.012516529, -748114.44, -15547.989 
1.4953567e+3, 2.3523942e+2, -681073.94, -752822.0, -13215.316, -0.00013609642, -0.0048031844, -678717.25, -44064.547 
1.4952649e+3, 2.4523081e+2, -607581.06, -659684.94, -12870.263, -0.0012621125, -0.0090837665, -604575.4, -67838.36 
1.4951733e+3, 2.5522244e+2, -538066.7, -575285.9, -12789.663, -0.00506809, -0.025320936, -534095.44, -95276.37 
1.4950815e+3, 2.6521456e+2, -466025.2, -484070.97, -12506.143, -0.0049326485, -0.012963367, -459626.78, -118730.75 
1.4949901e+3, 2.7520725e+2, -398217.0, -400346.53, -13367.727, -0.0013313078, 0.020980211, -385871.72, -142903.66 
1.4948994e+3, 2.8519955e+2, -318379.2, -303720.4, -7809.445, -0.0027927742, -0.010433261, -300339.66, -155296.42 
1.4948094e+3, 2.951917e+2, -239075.6, -218668.27, -7983.8545, -0.0085144, -0.097384624, -215915.97, -168795.77 
1.4947185e+3, 3.0518523e+2, -239865.34, -209465.78, -12686.958, 0.00020249213, 0.079877235, -204866.77, -204866.77 
1.4946267e+3, 3.15177e+2, -165904.97, 39648.023, -4262.7266, 0.0034637807, 0.08965914, 39736.387, 39736.387 
1.5063822e+3, 1.2544262e+2, -1452841.9, -1712130.8, 4284.176, -0.0010356124, -0.0120897535, -1452771.1, 257890.22 
1.5062904e+3, 1.3543092e+2, -1385040.0, -1629370.0, 3720.8057, 0.0008719859, -0.009407143, -1384983.4, 227792.7 
1.5061982e+3, 1.454195e+2, -1312647.5, -1537357.9, 475.46384, 0.000088595916, -0.008582733, -1312646.5, 202241.53 
1.5061057e+3, 1.5540834e+2, -1244461.3, -1453975.5, 372.27515, -0.0014292022, -0.010894946, -1244460.6, 172536.66 
1.5060127e+3, 1.6539751e+2, -1171817.3, -1361686.9, -2181.449, -0.0012848336, -0.011568919, -1171792.1, 147311.25 
1.5059195e+3, 1.7538697e+2, -1103035.1, -1277990.9, -2536.5251, 0.0003069931, -0.012441414, -1102998.3, 118208.37 
1.5058261e+3, 1.853767e+2, -1030780.75, -1186810.3, -4129.9443, 0.000094904135, -0.010883799, -1030671.5, 92635.65 
1.5057325e+3, 1.9536673e+2, -962463.9, -1103196.9, -3914.335, -0.0016239687, -0.00903853, -962355.06, 63049.934 
1.505639e+3, 2.0535704e+2, -889580.3, -1010505.44, -4918.914, -0.0025570567, -0.009901421, -889380.56, 38119.46 
1.5055451e+3, 2.1534763e+2, -820988.9, -926710.9, -5381.0234, -0.0027646287, -0.0149672935, -820715.7, 8876.486 
1.5054514e+3, 2.2533852e+2, -748859.25, -836206.2, -5790.3555, -0.0019482032, -0.011867664, -748477.06, -16795.576 
1.5053575e+3, 2.353297e+2, -679486.25, -751937.94, -5638.8945, -0.00037951284, -0.003701715, -679050.0, -45282.098 
1.5052637e+3, 2.4532105e+2, -606019.0, -658936.8, -5261.1406, -0.0016659258, -0.01023925, -605501.0, -69648.266 
1.5051699e+3, 2.5531256e+2, -536926.25, -574782.8, -5718.2954, -0.0054730694, -0.030827964, -536081.4, -98145.72 
1.5050764e+3, 2.6530468e+2, -464346.56, -484969.1, -5476.8784, -0.0044013406, -0.010926558, -462982.28, -122969.33 
1.5049829e+3, 2.7529734e+2, -393124.34, -399564.38, -5896.1914, 0.0009975039, 0.039826084, -389626.2, -147541.06 
1.5048903e+3, 2.852893e+2, -322678.9, -306446.53, -443.64297, -0.0035332665, -0.01527733, -306434.44, -162270.47 
1.5047985e+3, 2.9528078e+2, -264619.7, -231244.17, -2031.891, -0.016452072, -0.1570332, -231120.94, -184873.7 
1.5047054e+3, 3.052768e+2, -232866.69, -180369.34, -5332.1143, 0.009803168, 0.15871526, -179833.23, -179833.23 
1.5046108e+3, 3.152678e+2, -155909.73, -2425.2295, 8208.255, -0.021462971, -0.12986411, -1987.5056, -1987.5056 
1.5164053e+3, 1.2553522e+2, -1453552.5, -1713452.4, -2890.7327, 0.0025800427, -0.009214403, -1453520.4, 256233.45 
1.5163115e+3, 1.3552341e+2, -1385575.1, -1630488.8, -3391.5103, -0.001744674, -0.011258116, -1385528.3, 226341.47 
1.516217e+3, 1.4551191e+2, -1312776.0, -1537681.9, -6608.277, -0.0026902321, -0.011597727, -1312582.0, 201400.28 
1.5161224e+3, 1.5550077e+2, -1244577.3, -1454306.0, -6754.102, 0.0003927041, -0.012024455, -1244360.0, 171731.52 
1.5160276e+3, 1.6548988e+2, -1172340.5, -1362945.3, -9170.546, 0.0008919284, -0.010619768, -1171900.4, 146297.75 
1.5159324e+3, 1.7547928e+2, -1103532.0, -1279146.5, -9512.672, -0.00091153063, -0.009851612, -1103018.3, 117283.9 
1.5158369e+3, 1.85469e+2, -1030237.5, -1185847.8, -11275.004, -0.0016373439, -0.010048342, -1029424.8, 92977.98 
1.5157413e+3, 1.9545902e+2, -961880.94, -1102301.8, -11135.813, -0.0013397011, -0.01270887, -961003.3, 63497.1 
1.5156457e+3, 2.0544933e+2, -890119.06, -1011970.2, -12115.845, -0.0010215077, -0.011851406, -888926.0, 37669.49 
1.5155499e+3, 2.1543989e+2, -821454.1, -928081.9, -12560.257, -0.0007134799, -0.009696281, -819994.56, 8693.604 
1.515454e+3, 2.2543073e+2, -748233.5, -835309.75, -12808.44, -0.0017422803, -0.008859438, -746388.56, -15610.721 
1.5153581e+3, 2.3542187e+2, -678911.0, -751143.94, -12726.937, -0.0038887227, -0.011358159, -676734.2, -43869.48 
1.5152624e+3, 2.4541321e+2, -606487.44, -660281.9, -12449.292, -0.00430451, -0.014249016, -603746.06, -68796.61 
1.5151668e+3, 2.554048e+2, -537419.5, -576186.94, -12903.053, -0.003248424, -0.018101618, -533517.6, -96485.805 
1.5150712e+3, 2.653967e+2, -465038.0, -486827.72, -12212.075, -0.0011455994, -0.0055406094, -459567.28, -120456.23 
1.514976e+3, 2.7538893e+2, -393819.56, -401447.28, -12719.869, 0.0016931784, 0.014384116, -384354.1, -143166.61 
1.5148811e+3, 2.853809e+2, -324249.16, -309938.56, -10129.682, -0.0061078295, -0.021465458, -304691.9, -161425.61 
1.5147865e+3, 2.9537284e+2, -265500.47, -232708.66, -11701.422, -0.022242507, -0.092491105, -228961.34, -183616.25 
1.514692e+3, 3.0536923e+2, -209804.34, -133141.16, -7726.4478, 0.017535286, 0.0956053, -132370.2, -132370.2 
1.5145966e+3, 3.1536397e+2, -178351.11, -52169.703, 2416.921, -0.004949998, -0.12186116, -52123.426, -52123.426 
1.5264283e+3, 1.2562998e+2, -1447655.5, -1710659.9, 4166.8643, 0.0014775494, -0.008968071, -1447589.5, 261235.72 
1.5263325e+3, 1.356181e+2, -1379799.4, -1627779.0, 3914.9084, -0.0005777979, -0.011585571, -1379737.6, 231203.98 
1.5262362e+3, 1.4560656e+2, -1307519.5, -1535254.9, 708.7452, -0.0010867829, -0.011752943, -1307517.3, 205537.33 
1.5261395e+3, 1.5559536e+2, -1239889.3, -1452185.4, 444.80295, 0.000700338, -0.011737347, -1239888.4, 175276.06 
1.5260425e+3, 1.6558446e+2, -1168245.6, -1360651.4, -1718.3755, 0.0005593677, -0.010374542, -1168230.3, 149041.08 
1.5259454e+3, 1.7557383e+2, -1100570.3, -1277389.3, -1582.1307, -0.001387447, -0.009911538, -1100556.0, 118819.44 
1.5258478e+3, 1.8556352e+2, -1027880.25, -1184690.5, -3357.2793, -0.0018430199, -0.010001133, -1027808.4, 93668.04 
1.5257503e+3, 1.9555353e+2, -959425.6, -1101045.5, -3763.0261, -0.00088549714, -0.012400273, -959325.7, 64248.7 
1.5256524e+3, 2.0554379e+2, -887542.3, -1010531.4, -4635.341, -0.0005948608, -0.011635329, -887367.9, 38301.94 
1.5255547e+3, 2.1553431e+2, -818964.4, -926664.9, -4487.463, -0.0008128765, -0.009522115, -818777.75, 8984.959 
1.5254568e+3, 2.2552513e+2, -746301.56, -834168.6, -4653.6016, -0.0019070762, -0.009410291, -746055.75, -16203.11 
1.525359e+3, 2.3551622e+2, -678070.4, -750505.5, -4981.1514, -0.003898141, -0.013541199, -677729.44, -45789.543 
1.5252613e+3, 2.4550758e+2, -606497.8, -660217.8, -4598.606, -0.004136191, -0.013118717, -606107.0, -72082.44 
1.5251635e+3, 2.5549924e+2, -537934.3, -576363.8, -4479.771, -0.002722098, -0.008890386, -537419.0, -101312.54 
1.5250662e+3, 2.6549107e+2, -465685.16, -486135.34, -2308.1072, -0.0015219187, -0.0070167147, -465427.9, -127241.26 
1.5249689e+3, 2.75483e+2, -395475.7, -401265.97, -1464.175, -0.00076941267, -0.014503155, -395126.5, -154861.14 
1.5248717e+3, 2.8547534e+2, -326078.44, -309875.2, 489.67722, -0.0057914252, -0.017502572, -309860.4, -167519.86 
1.5247747e+3, 2.954682e+2, -265970.72, -231398.73, 1385.0804, -0.014955058, -0.002642097, -231343.33, -186932.67 
1.5246783e+3, 3.054629e+2, -208963.77, -127998.91, 819.1381, 0.008945157, -0.011297316, -127990.625, -127990.625 
1.5245822e+3, 3.1546134e+2, -192398.66, -72866.484, -11213.08, -0.006522419, 0.10842075, -71823.7, -71823.7 
1.5364517e+3, 1.2572663e+2, -1447676.0, -1710939.9, -2863.157, -0.0023661114, -0.010100026, -1447644.9, 260233.28 
1.5363538e+3, 1.3571475e+2, -1379968.3, -1627986.8, -3158.0532, 0.0029266165, -0.010966646, -1379928.0, 230066.44 
1.5362555e+3, 1.4570318e+2, -1308040.1, -1536271.9, -6464.3237, 0.0030506172, -0.010072512, -1307857.3, 204250.61 
1.5361567e+3, 1.5569189e+2, -1240301.0, -1453020.9, -6733.84, -0.00013180012, -0.010425575, -1240088.0, 174130.31 
1.5360576e+3, 1.6568097e+2, -1167837.3, -1359967.9, -8940.908, -0.0014233652, -0.01053097, -1167422.1, 148903.36 
1.5359582e+3, 1.7567039e+2, -1100153.8, -1276758.0, -8880.714, -0.0013346424, -0.011812644, -1099708.4, 118720.97 
1.5358588e+3, 1.8566005e+2, -1028426.1, -1186076.4, -10485.176, -0.0010257357, -0.010350027, -1027731.8, 92798.625 
1.5357591e+3, 1.9565e+2, -959884.8, -1102264.8, -10876.188, -0.00039741542, -0.008909162, -959058.75, 63570.305 
1.5356594e+3, 2.0564023e+2, -887005.2, -1009663.9, -11784.589, -0.0011036356, -0.0097501995, -885883.2, 38841.53 
1.5355596e+3, 2.1563075e+2, -818436.9, -925899.94, -11709.929, -0.0026741251, -0.013488664, -817175.6, 9641.977 
1.5354598e+3, 2.2562157e+2, -746544.25, -835016.8, -11985.523, -0.0023077985, -0.0125735765, -744949.3, -16041.633 
1.5353599e+3, 2.3561265e+2, -678255.7, -751267.06, -12335.55, -0.0008410053, -0.010638588, -676227.9, -45232.773 
1.5352601e+3, 2.4560402e+2, -605960.75, -659489.5, -11912.194, -0.0015835181, -0.0074941646, -603429.56, -70350.04 
1.5351602e+3, 2.555957e+2, -537299.5, -575443.6, -11792.003, -0.0038820123, -0.0033733435, -533948.5, -98787.54 
1.5350609e+3, 2.6558757e+2, -463727.94, -482452.34, -9306.191, -0.005411647, -0.014859468, -459889.53, -122648.625 
1.5349616e+3, 2.7557954e+2, -393445.44, -397446.47, -8647.351, -0.0064041708, -0.045664985, -386570.22, -147250.56 
1.5348624e+3, 2.8557262e+2, -323321.03, -304507.6, -8878.542, -0.0022467861, -0.0028155237, -300979.28, -159592.0 
1.534763e+3, 2.9556683e+2, -264030.8, -227995.22, -7477.2813, 0.0063740313, 0.11116302, -226505.3, -183061.23 
1.5346645e+3, 3.0555746e+2, -228178.81, -168610.02, -2962.6228, -0.019597922, -0.16498245, -168463.03, -168463.03 
1.5345676e+3, 3.1555316e+2, -158059.16, -1920.1743, -13165.564, -0.01797122, -0.059936967, -817.8425, -817.8425 
1.5464753e+3, 1.2582566e+2, -1440881.3, -1707884.8, 4929.72, -0.00026867294, -0.009677476, -1440790.3, 266117.47 
1.5463753e+3, 1.3581368e+2, -1374854.8, -1625803.6, 4429.985, 0.00281246, -0.010548984, -1374776.6, 234248.27 
1.5462747e+3, 1.4580208e+2, -1303543.6, -1533771.9, 1346.7777, 0.0023399028, -0.009692718, -1303535.8, 207602.84 
1.546174e+3, 1.5579079e+2, -1236151.6, -1450726.1, 1380.1675, -0.0003842644, -0.010076121, -1236142.8, 177106.61 
1.5460728e+3, 1.6577983e+2, -1164132.8, -1358041.1, -877.5631, -0.0011388268, -0.010238388, -1164128.8, 151227.92 
1.5459715e+3, 1.757692e+2, -1096704.0, -1274953.0, -1194.5482, -0.0004276602, -0.0115700215, -1096696.0, 120764.945 
1.5458699e+3, 1.8575883e+2, -1025313.1, -1184288.8, -2503.0122, -0.00041280154, -0.010400439, -1025273.75, 94288.625 
1.5457682e+3, 1.9574875e+2, -957351.44, -1100743.5, -2345.7605, -0.00075946056, -0.009295906, -957313.1, 64348.15 
1.5456665e+3, 2.0573896e+2, -885016.7, -1008489.56, -3213.1528, -0.0015046202, -0.009669022, -884933.1, 38823.96 
1.5455644e+3, 2.1572948e+2, -816929.56, -924917.3, -3531.7874, -0.0024376079, -0.012524298, -816814.2, 9035.984 
1.5454625e+3, 2.2572026e+2, -745344.7, -834279.56, -3855.8396, -0.00214927, -0.011685035, -745177.8, -17237.379 
1.5453605e+3, 2.357113e+2, -677070.94, -750523.44, -3865.5103, -0.0011512841, -0.01030715, -676868.06, -46839.895 
1.5452588e+3, 2.4570267e+2, -604738.4, -658538.0, -3402.3884, -0.001521031, -0.007862809, -604524.06, -72411.2 
1.5451571e+3, 2.5569433e+2, -536261.94, -574484.3, -3593.3442, -0.0030327071, -0.004617655, -535927.06, -101732.6 
1.5450555e+3, 2.6568624e+2, -465813.0, -481875.53, -2231.2017, -0.005790498, -0.014090478, -465508.84, -129235.13 
1.5449542e+3, 2.7567837e+2, -402021.78, -399877.34, -2576.9666, -0.0093096495, -0.04079987, -398158.44, -159807.42 
1.5448529e+3, 2.856716e+2, -322740.16, -301359.9, -2778.3591, -0.0016512547, -0.0023051049, -301004.75, -160587.36 
1.5447515e+3, 2.9566592e+2, -245160.23, -217635.16, -2425.2927, 0.014804965, 0.10238396, -217423.1, -174950.2 
1.5446508e+3, 3.056557e+2, -240669.23, -195896.83, 3220.7217, -0.030819679, -0.1615285, -195666.33, -195666.33 
1.544552e+3, 3.1565097e+2, -171121.16, 39854.29, 3233.9954, 0.017798955, 0.07392484, 39903.848, 39903.848 
1.5564992e+3, 1.2592672e+2, -1441719.6, -1709498.9, -2622.5325, 0.004902835, -0.008336933, -1441694.0, 264223.4 
1.5563968e+3, 1.3591464e+2, -1375461.5, -1627131.5, -3046.1848, 0.00037456804, -0.010127287, -1375424.6, 232610.97 
1.5562943e+3, 1.45903e+2, -1303300.3, -1533445.1, -5841.41, -0.0012954678, -0.009974051, -1303152.1, 206997.67 
1.5561913e+3, 1.558917e+2, -1236059.8, -1450491.4, -5898.3945, -0.00028956312, -0.0103534395, -1235897.6, 176362.7 
1.5560882e+3, 1.6588072e+2, -1164645.4, -1359153.6, -8167.1836, 0.0005354204, -0.009598927, -1164303.0, 150064.9 
1.5559846e+3, 1.7587003e+2, -1097018.0, -1275839.3, -8480.623, 0.0009494211, -0.009720957, -1096616.6, 119856.14 
1.555881e+3, 1.8585967e+2, -1024770.94, -1183477.0, -9734.648, -0.00006891885, -0.010186425, -1024176.06, 94398.336 
1.5557772e+3, 1.9584958e+2, -956854.2, -1100064.3, -9650.889, -0.0018646283, -0.012522801, -956206.75, 64466.34 
1.5556733e+3, 2.0583981e+2, -885299.44, -1009410.8, -10522.208, -0.0018344104, -0.010727609, -884413.7, 38355.215 
1.5555695e+3, 2.158303e+2, -817155.06, -925742.94, -10851.365, -0.0005613506, -0.00744218, -816081.3, 8780.852 
1.5554655e+3, 2.2582106e+2, -745009.06, -833928.0, -11190.698, -0.0017036399, -0.0075053996, -743622.3, -16669.658 
1.5553614e+3, 2.3581207e+2, -676711.5, -750187.3, -11235.721, -0.004491812, -0.01225181, -675031.8, -45991.016 
1.5552576e+3, 2.4580337e+2, -604768.7, -659019.44, -10805.132, -0.0036722475, -0.013501277, -602695.8, -71569.85 
1.5551539e+3, 2.5579497e+2, -536288.06, -574929.7, -11109.838, -0.00037011778, -0.012059621, -533321.6, -100113.37 
1.55505e+3, 2.6578704e+2, -465828.56, -482253.63, -10960.518, -0.0028744072, -0.004112725, -460345.16, -125059.06 
1.5549463e+3, 2.7577946e+2, -401995.7, -400141.1, -10998.25, -0.009492398, 0.0008142201, -390031.1, -152670.56 
1.5548432e+3, 2.857721e+2, -321805.25, -300055.13, -7134.3647, -0.00461188, -0.020118393, -297923.8, -158491.34 
1.5547408e+3, 2.9576522e+2, -244640.67, -217809.11, -7635.41, 0.008640868, -0.041822907, -215788.48, -174288.7 
1.5546374e+3, 3.0575797e+2, -246846.38, -208805.73, -12336.491, -0.019864019, 0.039229166, -205155.34, -205155.34 
1.554534e+3, 3.1575045e+2, -170586.66, 43328.75, -6397.5566, -0.0049818223, 0.078434, 43519.91, 43519.91 
1.5665232e+3, 1.260301e+2, -1436187.4, -1706692.8, 5100.5977, 0.0049953903, -0.008520933, -1436091.3, 268812.9 
1.5664187e+3, 1.3601802e+2, -1369662.1, -1624291.1, 5034.062, 0.0005825109, -0.008986654, -1369562.6, 237460.03 
1.5663138e+3, 1.4600632e+2, -1298339.1, -1530882.8, 2310.9053, -0.000995702, -0.008861186, -1298316.1, 210821.03 
1.5662088e+3, 1.55995e+2, -1232539.8, -1448701.1, 2031.9229, 0.00045882488, -0.009894854, -1232520.6, 178727.55 
1.5661035e+3, 1.6598397e+2, -1161560.4, -1357397.6, 169.86221, 0.0010364349, -0.009271644, -1161560.3, 151795.88 
1.5659979e+3, 1.7597325e+2, -1093694.0, -1273959.0, 208.50438, 0.00063689554, -0.009220737, -1093693.8, 121767.46 
1.5658922e+3, 1.8596286e+2, -1021700.1, -1181680.3, -1078.3905, -0.00034983674, -0.009291629, -1021692.9, 95870.16 
1.5657865e+3, 1.9595277e+2, -954347.3, -1098496.8, -1336.5092, -0.0015458801, -0.011066529, -954334.94, 65326.96 
1.5656804e+3, 2.0594296e+2, -883258.5, -1008139.4, -2068.6658, -0.0015934575, -0.010036307, -883224.2, 38533.76 
1.5655744e+3, 2.1593343e+2, -815486.94, -924623.2, -1994.9968, -0.00086638756, -0.0082732625, -815450.5, 8401.08 
1.5654683e+3, 2.2592418e+2, -743510.3, -833017.1, -2209.807, -0.0019028344, -0.007118494, -743455.75, -17513.557 
1.5653624e+3, 2.3591517e+2, -675197.56, -749240.75, -2489.9292, -0.004085627, -0.008921165, -675113.94, -47083.61 
1.5652564e+3, 2.4590643e+2, -603908.9, -658418.3, -2162.3547, -0.0039160755, -0.013000282, -603823.2, -73707.15 
1.5651506e+3, 2.5589794e+2, -536495.2, -574915.94, -2344.7324, -0.0020283128, -0.018105758, -536352.6, -104153.34 
1.5650447e+3, 2.6588997e+2, -463519.6, -482345.84, -2824.778, -0.0022837839, -0.0018268264, -463104.88, -128827.59 
1.5649389e+3, 2.7588242e+2, -393293.3, -397236.88, -3549.5007, -0.0043572336, 0.021646826, -391204.72, -154853.34 
1.5648337e+3, 2.8587458e+2, -322847.25, -303374.06, -551.17584, -0.006338755, -0.02599747, -303358.47, -164930.34 
1.5647292e+3, 2.9586685e+2, -264357.6, -229031.72, -3987.7708, -0.007754746, -0.105780564, -228587.16, -188083.3 
1.5646237e+3, 3.0586165e+2, -243038.28, -193653.39, -4068.5305, -0.0007259455, 0.12969895, -193320.45, -193320.45 
1.5645172e+3, 3.1585178e+2, -152310.84, 31194.451, 16583.104, -0.019656962, -0.1713548, 32681.0, 32681.0 
1.5765472e+3, 1.2613554e+2, -1436156.6, -1706671.5, -2238.4038, 0.0022517242, -0.00909448, -1436138.1, 267732.88 
1.5764406e+3, 1.3612346e+2, -1369891.8, -1624323.9, -2389.8154, 0.002349908, -0.0075282617, -1369869.3, 236119.98 
1.5763338e+3, 1.4611174e+2, -1298886.0, -1531810.0, -5286.854, 0.0015535936, -0.0069722515, -1298766.1, 209338.02 
1.5762265e+3, 1.5610035e+2, -1232753.5, -1449350.3, -5546.6133, 0.0014725884, -0.008848359, -1232611.6, 177604.17 
1.5761189e+3, 1.6608931e+2, -1161190.4, -1356980.0, -6966.922, 0.0006957305, -0.009002786, -1160942.8, 151381.14 
1.5760112e+3, 1.760786e+2, -1093499.4, -1273703.6, -7025.807, -0.0009027544, -0.009567554, -1093225.9, 121203.016 
1.5759034e+3, 1.860682e+2, -1022032.0, -1182477.5, -8434.714, -0.0010904274, -0.0077695996, -1021589.8, 94940.92 
1.5757956e+3, 1.960581e+2, -954527.7, -1099132.4, -8713.983, -0.00017032762, -0.0060562002, -954004.44, 64625.42 
1.5756875e+3, 2.0604827e+2, -882829.56, -1007560.0, -9419.716, -0.0010124459, -0.008106165, -882122.2, 38604.08 
1.5755795e+3, 2.1603866e+2, -815033.56, -924102.56, -9369.985, -0.00303155, -0.013812497, -814234.44, 8585.763 
1.5754713e+3, 2.2602944e+2, -743603.8, -833645.25, -9558.124, -0.002583813, -0.009461475, -742600.4, -17689.68 
1.5753633e+3, 2.3602049e+2, -675290.7, -749811.06, -9866.871, -0.0004124889, -0.00083910546, -674006.4, -47007.96 
1.5752552e+3, 2.460117e+2, -603691.3, -658337.94, -9825.724, -0.0026392725, -0.0070972336, -601978.3, -72893.74 
1.5751472e+3, 2.5600308e+2, -536418.9, -575156.25, -9983.074, -0.007834767, -0.022834653, -533997.5, -102828.69 
1.5750395e+3, 2.65995e+2, -464967.03, -485802.8, -9870.968, -0.0037502393, -0.007409749, -461033.34, -127785.03 
1.5749317e+3, 2.759872e+2, -395025.34, -401297.84, -10794.685, 0.006196354, 0.020673621, -386920.53, -151596.05 
1.5748242e+3, 2.85979e+2, -327381.84, -313063.53, -10114.099, -0.0071571334, -0.016521132, -307831.22, -170426.16 
1.5747169e+3, 2.959708e+2, -266701.9, -233335.39, -13307.309, -0.03539924, -0.0781238, -228678.19, -189192.88 
1.57461e+3, 3.0596656e+2, -218237.06, -142819.9, -9010.067, 0.028255995, 0.07467964, -141758.4, -141758.4 
1.574502e+3, 3.1596163e+2, -191837.75, -53879.313, 4067.7148, -0.0012182682, -0.029050726, -53759.48, -53759.48 
1.5865715e+3, 1.2624344e+2, -1430427.0, -1703616.3, 5754.085, 0.0015434013, -0.0074971747, -1430305.9, 272507.63 
1.5864627e+3, 1.3623132e+2, -1366310.6, -1622371.6, 5565.57, 0.0034488419, -0.007858135, -1366189.8, 238742.47 
1.5863535e+3, 1.462196e+2, -1295526.3, -1529889.6, 3185.562, 0.0025945308, -0.0073246565, -1295483.0, 211564.33 
1.5862441e+3, 1.5620817e+2, -1228195.4, -1446828.4, 3185.1929, 0.0014336061, -0.008030959, -1228149.0, 181010.16 
1.5861346e+3, 1.6619712e+2, -1157124.0, -1354552.8, 1835.407, 0.0005198339, -0.007817091, -1157106.9, 154160.47 
1.5860246e+3, 1.761864e+2, -1091168.9, -1272108.8, 1709.8959, -0.00067827076, -0.008484594, -1091152.8, 122219.734 
1.5859148e+3, 1.86176e+2, -1020335.56, -1181293.8, 673.46094, -0.00087228575, -0.007228994, -1020332.75, 95141.805 
1.5858048e+3, 1.9616584e+2, -952593.6, -1097806.1, 719.5618, -0.00011315563, -0.006254129, -952590.06, 64983.9 
1.5856947e+3, 2.0615599e+2, -880678.56, -1006245.56, 89.289055, -0.00096312, -0.007514982, -880678.5, 38992.008 
1.5855844e+3, 2.161464e+2, -812571.5, -922622.25, -163.47006, -0.0029297424, -0.011595702, -812571.3, 9193.291 
1.5854743e+3, 2.2613712e+2, -741643.8, -832417.94, -349.5407, -0.002528653, -0.008693858, -741642.5, -17787.033 
1.5853642e+3, 2.361281e+2, -674256.2, -749026.06, -391.15875, -0.0004478865, -0.003198429, -674254.2, -48310.438 
1.5852542e+3, 2.4611932e+2, -602756.1, -657761.4, -363.02432, -0.002599677, -0.0059577455, -602753.75, -74723.88 
1.5851441e+3, 2.5611076e+2, -534841.8, -574308.06, -624.2605, -0.007789922, -0.014357729, -534831.94, -104718.195 
1.5850341e+3, 2.6610252e+2, -464020.66, -485239.34, 728.91943, -0.0042116507, -0.008838092, -463995.66, -131800.97 
1.5849245e+3, 2.760945e+2, -395683.7, -401562.22, 1229.6516, 0.005302445, -0.0011217293, -395436.84, -161163.5 
1.5848146e+3, 2.8608653e+2, -328677.78, -313314.5, 3627.0928, -0.007021733, -0.008241529, -312501.22, -176149.86 
1.5847048e+3, 2.9607892e+2, -267491.3, -232548.42, 5806.992, -0.033947345, -0.008123871, -231608.66, -193182.72 
1.584596e+3, 3.0607337e+2, -214034.5, -133914.77, 2445.6792, 0.027805949, -0.0149689615, -133840.17, -133840.17 
1.5844862e+3, 3.1607065e+2, -201947.31, -79197.79, -10097.652, -0.028309943, 0.054594018, -78372.68, -78372.68 
1.5965961e+3, 1.2635347e+2, -1430912.3, -1704223.6, -2171.0688, 0.0018665554, -0.004901298, -1430895.0, 270840.34 
1.596485e+3, 1.3634129e+2, -1366373.4, -1622732.4, -2327.4412, 0.004068704, -0.008953163, -1366352.3, 237502.47 
1.5963735e+3, 1.4632954e+2, -1295318.9, -1529616.5, -4004.56, 0.0026811722, -0.008592622, -1295250.4, 210719.45 
1.596262e+3, 1.5631816e+2, -1228255.6, -1446676.3, -4106.671, 0.0006664729, -0.0073030125, -1228178.4, 179902.97 
1.5961501e+3, 1.6630712e+2, -1157353.5, -1354819.0, -5790.311, 0.00042009554, -0.0060711685, -1157183.9, 153005.6 
1.5960382e+3, 1.7629638e+2, -1091062.3, -1272142.9, -5903.924, 0.00067691173, -0.0063907807, -1090870.0, 121424.79 
1.5959261e+3, 1.8628596e+2, -1019898.7, -1180783.5, -6592.6, -0.000119904595, -0.0073846914, -1019629.0, 94767.89 
1.5958141e+3, 1.962758e+2, -952211.7, -1097435.0, -6598.212, -0.0011822161, -0.0102035375, -951912.5, 64583.875 
1.5957019e+3, 2.0626597e+2, -880878.4, -1007000.75, -7194.9146, -0.0013409138, -0.0076085473, -880469.25, 38123.58 
1.5955897e+3, 2.162564e+2, -812736.44, -923248.0, -7491.863, -0.0010142354, -0.0031472368, -812230.9, 8455.845 
1.5954775e+3, 2.2624706e+2, -741346.94, -832131.1, -7911.479, -0.0020098106, -0.005780064, -740662.6, -17884.4 
1.5953653e+3, 2.3623791e+2, -673922.44, -748770.4, -7972.5654, -0.0038301582, -0.014721751, -673082.7, -48214.973 
1.595253e+3, 2.4622919e+2, -602871.25, -658463.9, -7853.561, -0.0035781518, -0.008415267, -601783.1, -74829.875 
1.5951408e+3, 2.562208e+2, -534767.3, -574590.94, -8115.34, -0.0023403917, 0.0068597314, -533177.06, -104141.58 
1.595029e+3, 2.6621243e+2, -462507.97, -482522.25, -6737.723, -0.004269597, -0.006932862, -460451.13, -129333.72 
1.594917e+3, 2.7620417e+2, -393837.06, -398025.53, -6494.7993, -0.0077180173, -0.044453952, -389107.22, -155908.55 
1.5948051e+3, 2.8619722e+2, -323536.1, -302908.13, -5756.352, -0.0050166883, -0.0000074634295, -301410.5, -166143.73 
1.594693e+3, 2.9619133e+2, -264979.88, -227721.23, -2737.6003, 0.00026374424, 0.10826634, -227521.17, -190197.03 
1.5945816e+3, 3.061819e+2, -233492.39, -175023.08, -2416.553, -0.011287352, -0.14605106, -174923.38, -174923.38 
1.5944709e+3, 3.161772e+2, -157992.52, 11049.191, -18755.191, -0.022966633, -0.04418433, 13105.078, 13105.078 
1.6066206e+3, 1.2646602e+2, -1426850.6, -1702177.3, 6372.206, 0.004821671, -0.0049849516, -1426703.3, 273929.16 
1.6065072e+3, 1.3645379e+2, -1361187.8, -1620089.5, 6154.1753, 0.0029118087, -0.00732293, -1361041.5, 241710.61 
1.6063936e+3, 1.4644203e+2, -1291026.6, -1526897.5, 4630.2695, 0.0009421785, -0.0069020167, -1290935.8, 213931.72 
1.6062798e+3, 1.5643065e+2, -1226580.1, -1445237.3, 4612.3447, 0.000713427, -0.0063129417, -1226482.9, 180496.06 
1.6061659e+3, 1.6641961e+2, -1155903.3, -1353596.8, 3389.3064, 0.0010542758, -0.005431169, -1155845.3, 153241.94 
1.6060518e+3, 1.7640887e+2, -1088170.4, -1270182.5, 3421.3782, 0.0010652593, -0.005997135, -1088106.1, 123086.35 
1.6059376e+3, 1.8639843e+2, -1016828.7, -1178918.4, 2813.2551, -0.000007953015, -0.0065221232, -1016779.9, 96514.766 
1.6058233e+3, 1.9638827e+2, -949498.2, -1095700.0, 2636.9915, -0.0013822828, -0.008419166, -949450.7, 65943.62 
1.605709e+3, 2.0637842e+2, -878961.94, -1005650.2, 2227.863, -0.0014509219, -0.006334632, -878922.8, 38568.074 
1.6055949e+3, 2.1636882e+2, -811782.8, -922334.75, 2338.1433, -0.0007774307, -0.003037255, -811733.4, 7851.6167 
1.6054806e+3, 2.2635947e+2, -740268.9, -831393.8, 2015.0819, -0.0020887326, -0.004910148, -740224.4, -18547.648 
1.6053662e+3, 2.363503e+2, -671767.06, -747540.0, 1719.7418, -0.0045699324, -0.012378256, -671728.0, -47961.613 
1.605252e+3, 2.4634153e+2, -600796.4, -657340.56, 1795.3528, -0.003597743, -0.0077960067, -600739.44, -74886.96 
1.6051377e+3, 2.5633308e+2, -533367.0, -573614.06, 1693.4243, -0.00071391737, 0.004797075, -533295.9, -105360.45 
1.6050236e+3, 2.6632476e+2, -463756.56, -481892.72, 2288.0913, -0.0048554363, -0.004413451, -463472.34, -133455.64 
1.6049094e+3, 2.763166e+2, -399412.84, -399204.63, 1810.4412, -0.012934185, -0.034714643, -397495.28, -165398.67 
1.6047955e+3, 2.863097e+2, -320585.1, -298389.34, 483.32385, -0.0034307416, -0.0028561861, -298378.84, -164214.52 
1.6046815e+3, 2.963039e+2, -249169.53, -219093.0, -35.994053, 0.015369603, 0.084896825, -219092.95, -182871.55 
1.6045673e+3, 3.062943e+2, -243868.75, -193136.31, 5328.51, -0.032588422, -0.11911707, -192582.69, -192582.69 
1.604455e+3, 3.162894e+2, -167706.1, 46717.19, 1201.0237, 0.014624928, 0.059516817, 46723.918, 46723.918 
1.6166455e+3, 1.2658073e+2, -1427329.5, -1702966.5, -1255.0437, 0.008807722, -0.0059135114, -1427323.9, 272184.53 
1.6165297e+3, 1.365685e+2, -1361879.0, -1620776.5, -1501.6842, 0.0005574717, -0.004221136, -1361870.3, 239757.97 
1.6164137e+3, 1.4655674e+2, -1291164.6, -1526728.4, -3265.1794, -0.001865527, -0.0036600044, -1291119.4, 212624.19 
1.6162977e+3, 1.5654536e+2, -1226274.3, -1444861.9, -3248.8457, 0.0011997122, -0.005014063, -1226226.0, 179629.1 
1.6161816e+3, 1.6653432e+2, -1155550.1, -1353187.6, -3777.2651, 0.00203424, -0.005281064, -1155478.0, 152485.14 
1.6160655e+3, 1.765236e+2, -1087946.8, -1269896.4, -3835.6072, 0.0007114273, -0.006645951, -1087866.0, 122202.39 
1.6159491e+3, 1.8651317e+2, -1017008.4, -1179375.0, -4531.539, -0.00037088688, -0.004777275, -1016882.0, 95288.42 
1.6158327e+3, 1.9650301e+2, -949527.2, -1095933.0, -4752.772, -0.00094911177, -0.0024578527, -949373.06, 64896.945 
1.6157164e+3, 2.0649314e+2, -878480.5, -1004953.56, -5261.8325, -0.0014218176, -0.004343972, -878261.94, 38104.863 
1.6156e+3, 2.1648349e+2, -811249.4, -921732.75, -5165.886, -0.0020253337, -0.00965193, -811008.4, 7452.973 
1.6154836e+3, 2.2647417e+2, -740390.7, -832165.7, -5260.9106, -0.0026852281, -0.0051445547, -740090.06, -19537.45 
1.6153674e+3, 2.364651e+2, -671874.9, -748153.9, -5608.8525, -0.00307702, 0.0021766624, -671464.7, -48823.094 
1.6152509e+3, 2.4645618e+2, -600624.3, -657359.1, -5893.103, -0.0029563536, -0.0053385175, -600018.7, -75289.586 
1.6151345e+3, 2.564474e+2, -533169.7, -573622.4, -6137.4907, -0.002789405, -0.019755512, -532259.0, -105444.31 
1.6150181e+3, 2.6643938e+2, -463826.72, -482407.75, -6424.389, -0.0056765433, 0.00053764536, -461821.84, -132928.52 
1.6149017e+3, 2.764318e+2, -399735.66, -400154.0, -6494.1704, -0.009970911, 0.030749394, -393447.28, -162479.47 
1.6147858e+3, 2.8642386e+2, -322219.4, -302374.88, -5265.612, -0.0031994085, -0.022246702, -301064.25, -168018.58 
1.6146702e+3, 2.9641613e+2, -249733.78, -221452.95, -7116.8247, 0.008118389, -0.097135976, -219763.0, -184641.63 
1.6145533e+3, 3.06411e+2, -238686.69, -182398.4, -9180.999, -0.029249787, 0.11425648, -180938.78, -180938.78 
1.614437e+3, 3.1640437e+2, -183040.08, 16989.21, -3040.8447, -0.0031253945, 0.058055717, 17035.426, 17035.426 
1.62667e+3, 1.2669794e+2, -1422914.4, -1699503.6, 6716.6895, 0.0056533925, -0.0049785995, -1422751.4, 275608.38 
1.6265522e+3, 1.3668577e+2, -1360106.0, -1618772.6, 7163.645, 0.002211499, -0.0030696343, -1359907.8, 240571.36 
1.626434e+3, 1.46674e+2, -1289623.1, -1525526.1, 6059.03, 0.00012652652, -0.0026465545, -1289467.6, 213126.64 
1.6263157e+3, 1.5666261e+2, -1222915.9, -1442663.5, 5978.2036, 0.0014304455, -0.0044926773, -1222753.4, 181952.6 
1.6261974e+3, 1.6665158e+2, -1152314.1, -1351000.6, 5649.9556, 0.001706959, -0.004664685, -1152153.5, 154660.5 
1.626079e+3, 1.7664085e+2, -1086087.8, -1268279.3, 5580.4375, 0.00038310143, -0.005477779, -1085917.0, 123002.17 
1.6259608e+3, 1.8663044e+2, -1015744.25, -1178106.9, 5234.37, -0.0005104348, -0.0036605902, -1015575.7, 95445.47 
1.6258422e+3, 1.966203e+2, -948475.4, -1094702.5, 5354.9263, -0.00068692985, -0.0017542446, -948279.56, 64841.18 
1.6257237e+3, 2.066104e+2, -876835.94, -1003864.94, 4931.92, -0.0012492965, -0.0037578682, -876644.75, 38572.96 
1.6256052e+3, 2.166007e+2, -808058.06, -919905.6, 4634.298, -0.002273662, -0.009111395, -807866.4, 9446.22 
1.6254868e+3, 2.2659136e+2, -737720.3, -830638.5, 4495.664, -0.0027433776, -0.0041596, -737503.3, -18099.19 
1.6253684e+3, 2.3658228e+2, -670792.5, -747341.4, 4452.7705, -0.0025333753, 0.004289393, -670534.3, -49040.992 
1.6252498e+3, 2.465733e+2, -599874.2, -656689.4, 4195.827, -0.0031168624, -0.00431993, -599566.0, -75984.77 
1.6251315e+3, 2.5656453e+2, -532011.7, -572894.56, 3875.8064, -0.0044109947, -0.02170164, -531647.5, -105980.07 
1.6250128e+3, 2.6655644e+2, -459548.94, -481189.44, 2970.9731, -0.0052798963, 0.0015322901, -459148.47, -131401.78 
1.6248943e+3, 2.7654877e+2, -390446.13, -396854.06, 2489.7478, -0.0055335644, 0.03933597, -389592.47, -159770.73 
1.6247761e+3, 2.8654045e+2, -323095.72, -306341.34, 3487.1033, -0.004661628, -0.024461048, -305644.56, -173741.19 
1.6246583e+3, 2.9653212e+2, -264948.38, -229990.77, 929.64294, -0.0047261855, -0.122776255, -229966.06, -195981.27 
1.6245393e+3, 3.0652833e+2, -227029.44, -163340.58, -1196.5826, -0.014216049, 0.1609327, -163318.1, -163318.1 
1.62442e+3, 3.165201e+2, -166679.36, -5610.2666, 11373.227, -0.010771104, -0.14109422, -4811.1577, -4811.1577 
1.636695e+3, 1.2681732e+2, -1422468.3, -1697705.9, -1458.2737, -0.001120411, -0.0033108785, -1422460.5, 274729.53 
1.6365746e+3, 1.3680528e+2, -1359294.1, -1617138.5, -1090.6868, 0.006184423, -0.0026604459, -1359289.5, 240018.47 
1.6364542e+3, 1.4679354e+2, -1289693.9, -1525735.4, -1350.0103, 0.004728453, -0.0024126815, -1289686.1, 211736.77 
1.6363338e+3, 1.5678214e+2, -1223052.0, -1442856.9, -1467.5297, 0.00135176, -0.0043684966, -1223042.1, 180492.66 
1.6362132e+3, 1.6677111e+2, -1152320.6, -1350858.0, -1878.9744, 0.000509708, -0.0037369858, -1152302.9, 153339.92 
1.6360927e+3, 1.767604e+2, -1085885.9, -1267949.5, -1966.9531, -0.000014349192, -0.0030657658, -1085864.6, 121883.055 
1.6359721e+3, 1.8675002e+2, -1015211.75, -1177231.4, -2131.8518, -0.0005997073, -0.003070441, -1015183.7, 94665.75 
1.6358517e+3, 1.9673988e+2, -947939.44, -1094049.8, -2039.642, -0.00068678457, -0.004854619, -947911.0, 64037.863 
1.635731e+3, 2.0672998e+2, -877116.75, -1004829.5, -2146.9233, -0.001065149, -0.0038566005, -877080.7, 36965.105 
1.6356106e+3, 2.167203e+2, -808310.75, -920671.75, -2567.8157, -0.0017795125, -0.0028327655, -808252.1, 7888.704 
1.63549e+3, 2.2671089e+2, -737456.9, -830412.5, -3151.2285, -0.0024090756, -0.0026756357, -737350.1, -19117.117 
1.6353695e+3, 2.367017e+2, -670430.56, -747095.75, -3217.4814, -0.0029214125, -0.00459098, -670295.75, -49972.633 
1.635249e+3, 2.466928e+2, -599794.75, -657031.7, -3355.4944, -0.0040881014, -0.0037098401, -599598.7, -77188.51 
1.6351283e+3, 2.5668415e+2, -532181.6, -573693.2, -3644.6526, -0.0058567445, -0.0017666119, -531864.06, -107369.1 
1.6350079e+3, 2.6667568e+2, -460519.97, -483677.94, -4319.3843, -0.003896384, -0.003327726, -459740.56, -133162.64 
1.6348872e+3, 2.7666736e+2, -391689.84, -400011.78, -5241.8945, 0.00021306096, -0.012417856, -389158.2, -160498.73 
1.6347666e+3, 2.8665942e+2, -325982.0, -312556.13, -6605.978, -0.0081973765, -0.0022432925, -309850.84, -179113.61 
1.6346459e+3, 2.9665205e+2, -265998.2, -231569.83, -8309.338, -0.023848455, 0.03180794, -229669.28, -196859.63 
1.6345257e+3, 3.0664554e+2, -215104.72, -139694.97, -5558.224, 0.015029063, -0.0432026, -139287.48, -139287.48 
1.6344048e+3, 3.1664136e+2, -190195.11, -58211.734, 1117.5233, -0.009217919, -0.056934565, -58202.273, -58202.273 
1.6467197e+3, 1.2693943e+2, -1421439.8, -1697008.8, 7886.592, 0.00175992, -0.0013267314, -1421214.3, 274779.22 
1.6465971e+3, 1.369273e+2, -1356525.3, -1615367.8, 7428.766, 0.004897212, -0.0034537064, -1356312.3, 241799.88 
1.6464743e+3, 1.469156e+2, -1286796.4, -1523083.0, 7575.52, 0.0033525208, -0.0027905237, -1286553.8, 213673.1 
1.6463517e+3, 1.5690427e+2, -1221609.3, -1440966.5, 7914.549, 0.0016525271, -0.0026381167, -1221324.1, 181013.92 
1.646229e+3, 1.6689327e+2, -1151447.1, -1349592.0, 7935.285, 0.0010114282, -0.0020416246, -1151129.9, 153315.83 
1.6461064e+3, 1.7688257e+2, -1084801.6, -1266530.4, 7979.883, -0.000008338022, -0.0024653513, -1084451.9, 122098.61 
1.6459838e+3, 1.868722e+2, -1013555.7, -1175857.9, 8003.8086, -0.0006218298, -0.0026974294, -1013161.94, 95490.4 
1.6458611e+3, 1.9686203e+2, -945303.75, -1092136.6, 7793.8525, -0.0005285289, -0.0043642265, -944891.25, 65860.56 
1.6457385e+3, 2.0685214e+2, -875151.56, -1003359.56, 7958.0396, -0.0009811568, -0.002688704, -874659.5, 38189.21 
1.645616e+3, 2.1684246e+2, -807853.7, -919856.56, 8056.1616, -0.0017796308, -0.00054718513, -807277.2, 7666.5483 
1.6454934e+3, 2.26833e+2, -736263.9, -829513.9, 7626.1772, -0.0024710204, -0.0017707653, -735644.3, -18608.041 
1.6453706e+3, 2.3682375e+2, -667020.25, -745200.1, 7336.516, -0.003088616, -0.00640663, -666337.7, -47210.73 
1.645248e+3, 2.4681482e+2, -596362.25, -655683.1, 6828.0967, -0.004118525, -0.0029772383, -595586.44, -74371.94 
1.6451253e+3, 2.5680616e+2, -529389.8, -572506.06, 6370.3794, -0.0056471657, 0.0044607837, -528468.3, -105168.75 
1.6450027e+3, 2.6679754e+2, -459873.4, -483450.22, 6418.934, -0.004030813, -0.0034761638, -458239.1, -132855.28 
1.64488e+3, 2.7678904e+2, -393641.78, -400701.4, 6425.1714, -0.00033448264, -0.025701374, -389840.66, -162373.39 
1.6447571e+3, 2.8678134e+2, -322605.97, -308843.38, 7213.6733, -0.008707919, 0.0053353286, -305755.25, -176212.75 
1.6446339e+3, 2.9677445e+2, -256168.11, -226129.44, 9978.258, -0.024513561, 0.078752175, -223116.97, -191506.75 
1.6445118e+3, 3.0676642e+2, -217070.1, -146059.45, 4970.0703, 0.02026642, -0.11405847, -145713.28, -145713.28 
1.6443889e+3, 3.1676424e+2, -200221.88, -57978.73, -5217.848, -0.026534231, 0.11511175, -57787.582, -57787.582 
1.6567446e+3, 1.2706384e+2, -1422402.1, -1698902.0, -14.029442, 0.0089698685, 0.0013231143, -1422402.1, 272372.1 
1.6566196e+3, 1.3705154e+2, -1357419.1, -1616696.8, -382.6055, 0.0003705221, -0.005062019, -1357418.6, 239476.06 
1.6564946e+3, 1.4703989e+2, -1286305.9, -1521593.9, -125.22499, -0.0013664596, -0.0036207568, -1286305.8, 212703.13 
1.6563697e+3, 1.5702869e+2, -1221025.4, -1439536.1, 145.45528, 0.0021675525, 0.00020008037, -1221025.3, 180093.4 
1.6562448e+3, 1.6701776e+2, -1151191.5, -1349085.1, 457.94894, 0.0024591398, 0.00023807187, -1151190.4, 152035.42 
1.65612e+3, 1.7700706e+2, -1084436.1, -1266132.5, 518.3423, 0.0001609646, -0.0029632684, -1084434.6, 120895.96 
1.6559954e+3, 1.8699667e+2, -1013657.1, -1176284.5, 909.0559, -0.00065519294, -0.0022307218, -1013652.06, 93780.4 
1.6558707e+3, 1.9698651e+2, -945280.5, -1092264.9, 614.05, -0.00031618358, -0.0012185834, -945277.94, 64254.117 
1.655746e+3, 2.0697664e+2, -874534.1, -1002354.56, 488.6693, -0.0010382718, -0.00074354885, -874532.25, 37096.473 
1.6556212e+3, 2.1696699e+2, -807207.1, -919027.1, 608.33716, -0.002319911, -0.0015804422, -807203.8, 6519.6084 
1.6554965e+3, 2.2695754e+2, -736326.0, -830103.75, 551.44904, -0.0029783424, -0.0010372492, -736322.75, -20506.852 
1.655372e+3, 2.3694827e+2, -667203.0, -745934.8, 119.98692, -0.0031961186, -0.0019490434, -667202.8, -49296.055 
1.6552472e+3, 2.4693923e+2, -596857.7, -657094.1, -920.3503, -0.0033483184, -0.002611823, -596843.6, -76848.09 
1.6551223e+3, 2.5693035e+2, -529531.44, -573281.8, -1417.7437, -0.0038878582, -0.0026292163, -529485.56, -107403.234 
1.6549976e+3, 2.6692194e+2, -458974.84, -482021.22, -1645.6632, -0.005890032, 0.0024335706, -458857.94, -134692.92 
1.6548727e+3, 2.7691373e+2, -391904.4, -397432.3, -1586.5695, -0.0077220323, 0.002104795, -391481.44, -165236.1 
1.6547477e+3, 2.8690618e+2, -317002.1, -297676.97, -648.73755, -0.0054012523, -0.007417164, -297655.22, -169335.97 
1.6546226e+3, 2.968993e+2, -255416.95, -225466.47, 2198.7437, -0.0042225705, -0.00020104398, -225305.9, -194919.17 
1.6544977e+3, 3.0689135e+2, -238626.27, -191204.22, -3990.4338, -0.0067391247, -0.0019590515, -190870.78, -190870.78 
1.6543725e+3, 3.168849e+2, -150797.6, 45602.598, -17432.492, -0.021199316, 0.016201442, 47137.902, 47137.902 
1.6667695e+3, 1.2719063e+2, -1419901.5, -1695908.9, 7788.584, 0.006589279, -0.0013940904, -1419681.9, 273849.75 
1.6666421e+3, 1.3717851e+2, -1356901.8, -1614759.5, 8687.932, 0.0015836112, -0.0014760586, -1356609.4, 239041.14 
1.6665147e+3, 1.4716691e+2, -1286530.6, -1520608.1, 9651.157, -0.0003834844, -0.00082047156, -1286133.4, 211630.95 
1.6663878e+3, 1.5715571e+2, -1220811.6, -1438290.0, 9606.668, 0.0014277486, -0.0006840745, -1220388.1, 179485.92 
1.6662608e+3, 1.671448e+2, -1150307.0, -1347626.3, 10236.543, 0.0018992077, -0.00036226952, -1149777.4, 152203.52 
1.6661339e+3, 1.7713416e+2, -1082605.4, -1264147.0, 10319.504, 0.0005887528, -0.0016386044, -1082020.8, 122064.586 
1.6660069e+3, 1.8712379e+2, -1012168.9, -1174631.3, 11165.684, -0.0003418024, -0.0006543784, -1011405.06, 94781.76 
1.6658801e+3, 1.9711365e+2, -944751.4, -1091021.0, 11289.286, -0.000614267, 0.00002129936, -943885.2, 64401.055 
1.6657534e+3, 2.0710376e+2, -873298.0, -1001217.44, 11182.857, -0.0013645864, -0.0006117762, -872327.75, 38055.344 
1.6656268e+3, 2.1709406e+2, -804170.25, -917000.06, 10905.175, -0.0023912017, -0.002869173, -803125.94, 9352.175 
1.6655e+3, 2.2708462e+2, -733817.3, -828775.06, 10847.374, -0.0029986496, -0.00016904295, -732593.94, -18023.277 
1.6653733e+3, 2.3707533e+2, -666077.8, -745165.9, 10590.328, -0.0031643806, 0.0025289075, -664684.25, -48022.563 
1.6652465e+3, 2.470662e+2, -594891.4, -656013.0, 9872.735, -0.0031884694, -0.0024884557, -593336.2, -74584.945 
1.6651195e+3, 2.5705722e+2, -525638.3, -571325.56, 9790.058, -0.003478588, -0.009866468, -523628.8, -102789.484 
1.6649926e+3, 2.670488e+2, -454731.2, -480313.72, 8490.753, -0.006587937, 0.006699297, -452169.63, -129247.99 
1.6648655e+3, 2.7704072e+2, -387776.78, -395741.4, 7316.621, -0.010123169, 0.025084103, -383428.94, -158427.94 
1.6647382e+3, 2.8703272e+2, -314106.22, -297023.75, 3329.134, -0.003766361, -0.019749276, -296397.88, -169318.52 
1.6646111e+3, 2.9702517e+2, -254016.77, -225637.28, 183.1908, 0.0035928425, -0.06675943, -225636.1, -196483.05 
1.6644837e+3, 3.0701882e+2, -237188.81, -190785.63, 7675.6904, -0.01896252, 0.098409094, -189548.94, -189548.94 
1.6643566e+3, 3.1701043e+2, -137660.34, 66395.21, 9276.109, -0.0020654807, -0.0815387, 66816.02, 66816.02 
1.6767943e+3, 1.2731957e+2, -1418845.4, -1692679.4, -408.2543, -0.000590818, -0.0067672925, -1418844.8, 273423.34 
1.6766645e+3, 1.3730782e+2, -1355683.5, -1611907.4, 381.88382, 0.0059895795, 0.005229342, -1355683.0, 238700.5 
1.676535e+3, 1.4729626e+2, -1286615.9, -1520676.8, 1988.2676, 0.0035782806, 0.0041690604, -1286599.0, 209897.56 
1.6764057e+3, 1.5728499e+2, -1220719.8, -1438166.0, 2007.0172, -0.0002886939, -0.0038098602, -1220701.3, 177905.92 
1.6762765e+3, 1.672741e+2, -1150065.1, -1347059.1, 3089.6113, 0.000055392695, -0.002577101, -1150016.6, 150697.03 
1.6761474e+3, 1.7726354e+2, -1082269.3, -1263395.5, 3085.2334, 0.0011079032, 0.0009788353, -1082216.8, 120600.48 
1.6760185e+3, 1.8725325e+2, -1011580.75, -1173453.5, 3811.5972, 0.00007184481, 0.0016024665, -1011491.06, 93427.05 
1.6758896e+3, 1.9724317e+2, -944140.2, -1090162.9, 3942.5664, -0.001435843, -0.00018231697, -944033.8, 62983.195 
1.6757609e+3, 2.0723325e+2, -873515.2, -1001975.6, 4169.937, -0.0019693908, -0.0016248411, -873380.0, 35734.082 
1.6756321e+3, 2.172235e+2, -804303.94, -917594.2, 3807.0452, -0.0021383755, -0.004055095, -804176.2, 7033.565 
1.6755034e+3, 2.2721405e+2, -733731.25, -828934.3, 3386.8887, -0.0026664792, 0.0010187753, -733610.9, -20308.535 
1.6753747e+3, 2.3720478e+2, -665800.8, -745094.6, 3183.1802, -0.0031362497, 0.0069459826, -665673.25, -50279.94 
1.6752458e+3, 2.471956e+2, -594410.6, -655478.06, 2640.7754, -0.0037254835, -0.002569029, -594296.6, -76813.5 
1.6751169e+3, 2.5718656e+2, -525575.6, -571603.2, 2375.357, -0.0046168948, -0.01717986, -525453.4, -105881.67 
1.6749877e+3, 2.671781e+2, -456163.66, -483713.5, 369.41595, -0.006141479, 0.009184873, -456158.72, -134504.13 
1.6748583e+3, 2.7716988e+2, -390371.6, -401595.53, -851.735, -0.007277684, 0.042602967, -390307.3, -166572.23 
1.674729e+3, 2.8716078e+2, -321423.0, -312572.16, -5289.5024, -0.004585566, -0.030822419, -310100.97, -184276.8 
1.6745995e+3, 2.9715192e+2, -254582.28, -227088.67, -8689.626, -0.0035264972, -0.117681526, -224572.5, -196661.27 
1.67447e+3, 3.07149e+2, -211604.97, -138265.56, -616.3088, -0.010830433, 0.17807274, -138260.39, -138260.39 
1.6743405e+3, 3.1714252e+2, -199199.38, -62294.73, 4159.183, -0.008102288, -0.03685908, -62168.49, -62168.49 
1.6868189e+3, 1.2745135e+2, -1421190.4, -1692287.1, 8920.489, 0.0010675561, -0.00185873, -1420897.1, 270079.75 
1.6866869e+3, 1.3743956e+2, -1356067.9, -1610545.0, 8911.972, 0.004659223, 0.002294162, -1355756.1, 237336.25 
1.686555e+3, 1.474281e+2, -1286325.1, -1518945.4, 11014.81, 0.0026793648, 0.0020931538, -1285804.8, 209399.9 
1.6864234e+3, 1.5741691e+2, -1220112.0, -1436266.1, 11556.264, 0.00035620996, -0.001954481, -1219496.0, 177818.2 
1.6862923e+3, 1.6740613e+2, -1149914.0, -1345547.3, 13301.414, 0.0006756373, -0.0008831201, -1149013.8, 150406.25 
1.6861612e+3, 1.773956e+2, -1082779.5, -1262236.6, 13526.887, 0.0011020104, 0.0011162922, -1081765.6, 119757.49 
1.68603e+3, 1.8738534e+2, -1011580.75, -1172698.5, 14343.346, -0.0001912066, 0.001281638, -1010313.8, 93310.03 
1.6858992e+3, 1.9737522e+2, -942655.56, -1088480.8, 14144.296, -0.0017152095, -0.00065077853, -941296.3, 64426.42 
1.6857684e+3, 2.0736533e+2, -871822.0, -1000488.7, 14758.379, -0.001890914, -0.0010508255, -870150.9, 37668.754 
1.6856375e+3, 2.173556e+2, -802993.2, -916236.75, 14848.969, -0.001529619, -0.0017627652, -801078.5, 8836.699 
1.6855069e+3, 2.2734612e+2, -731559.0, -827611.4, 14537.302, -0.0025549552, 0.0019962818, -729407.0, -17398.848 
1.685376e+3, 2.3733675e+2, -661849.75, -742840.6, 14301.925, -0.003901247, 0.005487249, -659398.44, -45298.7 
1.6852452e+3, 2.4732757e+2, -591119.1, -653768.8, 13377.687, -0.0040765065, -0.0029489165, -588382.1, -72192.25 
1.6851142e+3, 2.5731847e+2, -523903.38, -570810.8, 12837.737, -0.004133628, -0.015101844, -520619.78, -102341.03 
1.6849831e+3, 2.6730993e+2, -452215.13, -482623.3, 11370.1045, -0.0058385767, 0.010466958, -448433.84, -128071.1 
1.6848516e+3, 2.7730155e+2, -382248.25, -398687.6, 10888.224, -0.0071597346, 0.04153291, -376825.47, -154380.56 
1.6847199e+3, 2.8729224e+2, -316352.0, -311821.47, 10289.678, -0.0049791797, -0.03224716, -303550.66, -179014.69 
1.6845879e+3, 2.9728314e+2, -254192.53, -227817.8, 13089.293, -0.0052103717, -0.11656946, -222424.63, -195799.42 
1.6844563e+3, 3.072803e+2, -203077.94, -131705.1, 5005.456, -0.008246835, 0.18850315, -131355.77, -131355.77 
1.6843247e+3, 3.1727347e+2, -198750.72, -86625.44, -6153.1724, -0.015818857, -0.06250568, -86288.77, -86288.77 
1.6968435e+3, 1.2758546e+2, -1421196.8, -1692518.6, 1196.94, 0.0065471423, 0.00799559, -1421191.5, 268471.22 
1.6967091e+3, 1.3757347e+2, -1356332.1, -1610439.6, 1205.9329, -0.000104792976, -0.0061362027, -1356326.4, 235453.6 
1.6965751e+3, 1.4756213e+2, -1285753.9, -1517115.4, 3583.7078, -0.0009013251, -0.0037253245, -1285698.4, 208192.78 
1.6964415e+3, 1.575512e+2, -1219353.1, -1434321.3, 4032.462, 0.0024045918, 0.0029485316, -1219277.5, 176720.81 
1.696308e+3, 1.675405e+2, -1149305.5, -1344193.9, 5944.1216, 0.0026639728, 0.0031022327, -1149124.4, 148978.81 
1.6961747e+3, 1.7753002e+2, -1082121.4, -1261179.1, 6168.885, 0.00058918796, -0.00032982827, -1081909.1, 118296.78 
1.6960417e+3, 1.8751974e+2, -1011700.56, -1173037.4, 7376.9897, -0.0009391005, -0.0005210169, -1011363.94, 90942.56 
1.6959088e+3, 1.9750965e+2, -942485.06, -1088413.5, 7163.953, -0.0016530699, -0.00095798465, -942134.25, 62271.375 
1.6957758e+3, 2.0749982e+2, -871215.7, -999465.94, 7634.4014, -0.0013966155, 0.0010331195, -870762.8, 35739.043 
1.695643e+3, 2.1749015e+2, -802384.6, -915428.9, 7712.2783, -0.0008530541, 0.003023752, -801860.9, 6735.7007 
1.6955104e+3, 2.2748062e+2, -731599.4, -828022.4, 7486.641, -0.0027911274, 0.002582819, -731021.5, -20331.535 
1.6953775e+3, 2.3747118e+2, -661933.75, -743315.6, 7128.402, -0.0054519568, -0.0007813331, -661314.06, -48531.504 
1.6952446e+3, 2.4746197e+2, -591499.94, -654934.06, 5671.786, -0.0042327913, -0.002948475, -590996.8, -76124.01 
1.6951115e+3, 2.574529e+2, -524049.94, -571625.2, 5368.246, -0.0021740533, -0.0040190048, -523451.75, -106490.24 
1.6949785e+3, 2.6744422e+2, -451923.25, -482566.7, 4456.4053, -0.0058714887, 0.009833936, -451288.3, -132241.4 
1.6948453e+3, 2.7743563e+2, -380618.63, -395894.34, 3319.3325, -0.010300456, 0.02088494, -379928.53, -158797.69 
1.694711e+3, 2.8742722e+2, -310674.13, -300436.03, 616.45605, -0.004910939, -0.02134449, -300399.03, -177185.58 
1.6945764e+3, 2.9741922e+2, -256754.8, -233281.89, 4833.6484, -0.0005737764, -0.056752916, -232325.48, -207033.77 
1.694443e+3, 3.074123e+2, -231105.28, -190875.7, -1098.7266, -0.013608821, 0.1067362, -190845.72, -190845.72 
1.6943099e+3, 3.1740344e+2, -134842.89, 43543.746, -14269.377, -0.014975564, -0.090360194, 44677.96, 44677.96 
1.7068681e+3, 1.2772198e+2, -1421561.8, -1690629.9, 9249.267, 0.0048110057, 0.0041875774, -1421244.1, 267080.6 
1.7067312e+3, 1.3771018e+2, -1358789.9, -1609628.9, 10240.769, 0.0013311572, -0.002505168, -1358372.5, 232067.73 
1.706595e+3, 1.4769894e+2, -1288387.0, -1516526.0, 13607.353, 0.00020540837, -0.00096751144, -1287578.4, 204972.17 
1.7064591e+3, 1.5768807e+2, -1221058.0, -1433382.8, 13910.023, 0.0020816, 0.0024223018, -1220150.5, 174506.55 
1.7063235e+3, 1.6767743e+2, -1150314.6, -1343458.5, 15942.334, 0.0019014002, 0.0023787608, -1149007.6, 147753.66 
1.7061882e+3, 1.7766699e+2, -1081906.5, -1259510.1, 16026.916, -0.00014667206, -0.00044092292, -1080471.9, 118391.734 
1.7060532e+3, 1.876568e+2, -1011012.56, -1171339.5, 17935.896, -0.0009910215, 0.00032507745, -1009030.56, 91932.945 
1.7059182e+3, 1.9764674e+2, -941867.1, -1086810.8, 18309.816, -0.00088878523, 0.0012303232, -939589.94, 63472.04 
1.7057835e+3, 2.0763691e+2, -870214.06, -998698.9, 18755.479, -0.0012173626, 0.001547384, -867532.2, 37626.223 
1.7056488e+3, 2.1762718e+2, -800109.9, -913721.7, 18344.365, -0.0017323415, 0.0008401111, -797221.4, 10032.408 
1.7055139e+3, 2.2761767e+2, -729246.1, -826375.3, 18111.713, -0.0031844461, 0.0027882196, -725978.75, -16631.68 
1.7053792e+3, 2.3760822e+2, -660179.25, -742045.3, 18018.291, -0.004741796, 0.0032691164, -656389.0, -44949.543 
1.7052443e+3, 2.475989e+2, -588285.9, -653734.4, 16582.76, -0.0041900803, -0.0032893706, -584324.06, -70793.31 
1.7051092e+3, 2.5758973e+2, -517820.03, -568595.56, 16360.958, -0.003287697, -0.010224933, -513004.84, -97383.875 
1.704974e+3, 2.6758108e+2, -448364.88, -480201.03, 15342.99, -0.0054314844, 0.014526034, -442174.28, -124468.72 
1.7048386e+3, 2.7757263e+2, -381568.22, -395418.13, 14227.107, -0.0077901236, 0.038491677, -372670.25, -152881.92 
1.7047024e+3, 2.8756392e+2, -300662.63, -294328.25, 7508.0044, -0.0065581435, -0.03419094, -289346.75, -167473.3 
1.7045657e+3, 2.9755563e+2, -235263.47, -227212.4, 6602.7935, -0.007555875, -0.10240185, -223504.78, -199549.98 
1.7044298e+3, 3.0754852e+2, -238159.11, -214096.84, 10607.906, -0.0053041377, 0.17091395, -210088.16, -210088.16 
1.7042942e+3, 3.1753835e+2, -131766.89, 90521.74, 6231.367, -0.008581138, -0.043715652, 90696.29, 90696.29 
1.7168923e+3, 1.2786062e+2, -1420826.6, -1687780.9, 925.95184, -0.00048723188, -0.0057217935, -1420823.5, 266142.5 
1.7167532e+3, 1.3784926e+2, -1357360.5, -1606638.5, 2041.0857, 0.0061793025, 0.007560315, -1357343.9, 231733.61 
1.7166148e+3, 1.4783812e+2, -1287797.6, -1515266.3, 6360.4316, 0.003681933, 0.006161787, -1287619.9, 203566.67 
1.7164767e+3, 1.5782723e+2, -1220694.5, -1432322.6, 6594.14, 0.00002466966, -0.00132544, -1220489.1, 172804.22 
1.716339e+3, 1.6781664e+2, -1150270.8, -1343060.1, 8958.761, -0.00063699106, -0.0009718813, -1149855.4, 145541.72 
1.7162016e+3, 1.7780627e+2, -1081384.6, -1258511.8, 9041.491, -0.0010757057, 0.00048476408, -1080924.4, 116574.336 
1.7160645e+3, 1.8779622e+2, -1010008.4, -1169297.6, 10971.953, -0.0006893006, 0.003100535, -1009256.2, 90341.086 
1.7159277e+3, 1.977863e+2, -941033.75, -1085482.4, 11277.873, 0.00020588926, 0.0050102603, -940158.56, 61535.824 
1.715791e+3, 2.077764e+2, -870714.4, -999853.7, 11880.714, -0.0013680448, 0.00080778165, -869630.44, 34161.01 
1.7156543e+3, 2.1776652e+2, -800289.5, -914341.0, 11462.789, -0.0038198712, -0.0062433635, -799148.9, 6739.343 
1.7155176e+3, 2.2775708e+2, -728884.5, -825955.3, 10888.909, -0.0036325236, 0.0036477647, -727678.0, -19697.268 
1.7153807e+3, 2.3774779e+2, -659839.25, -741881.0, 10877.428, -0.0022795463, 0.016196424, -658421.56, -48349.645 
1.7152439e+3, 2.4773829e+2, -588558.75, -654788.1, 9626.361, -0.004240033, -0.00476124, -587187.94, -75022.89 
1.715107e+3, 2.577288e+2, -517844.8, -569051.44, 9104.636, -0.0075357715, -0.032993086, -516274.16, -102016.15 
1.7149696e+3, 2.677205e+2, -447954.56, -479740.44, 6984.801, -0.0043784394, 0.02620426, -446487.4, -130148.125 
1.7148322e+3, 2.7771252e+2, -382564.5, -397785.53, 6690.106, 0.00089321, 0.09668848, -380042.03, -161624.42 
1.714694e+3, 2.8770226e+2, -305373.4, -304947.56, 1948.4885, -0.010616306, -0.07801646, -303200.38, -182682.56 
1.7145556e+3, 2.9769203e+2, -236554.44, -231682.66, -1442.1029, -0.028809246, -0.27116606, -231287.78, -208669.67 
1.714417e+3, 3.076897e+2, -231095.3, -199614.27, -3519.7593, 0.021489136, 0.43416622, -199225.53, -199225.53 
1.7142773e+3, 3.1767693e+2, -165995.53, 22640.895, -7241.6367, -0.015193669, -0.07282254, 22918.488, 22918.488 
1.7269164e+3, 1.2800202e+2, -1426849.8, -1688367.6, 9852.226, 0.00063940935, -0.0020744184, -1426479.1, 259101.25 
1.7267749e+3, 1.3799073e+2, -1359472.5, -1605286.4, 10534.078, 0.0046641272, 0.004438126, -1359022.0, 228669.11 
1.7266342e+3, 1.4797972e+2, -1289775.6, -1514265.3, 15266.778, 0.0026342315, 0.0039987145, -1288742.1, 201056.8 
1.7264941e+3, 1.5796897e+2, -1223243.4, -1431365.0, 15922.729, 0.00055256096, -0.0003593335, -1222032.1, 169872.16 
1.7263544e+3, 1.6795851e+2, -1152355.3, -1342074.0, 19392.936, 0.00014233812, 0.00019711338, -1150393.3, 143613.58 
1.726215e+3, 1.7794824e+2, -1082786.4, -1257298.1, 20008.537, -0.00065094227, 0.0013077278, -1080521.8, 115585.58 
1.7260759e+3, 1.879382e+2, -1010805.1, -1169162.1, 21840.27, -0.0008964065, 0.002804486, -1007848.1, 90357.59 
1.7259371e+3, 1.9792826e+2, -940323.6, -1084005.1, 21403.07, -0.00046270588, 0.003191915, -937203.2, 63099.938 
1.7257984e+3, 2.0791842e+2, -869268.1, -997951.3, 22559.752, -0.0017251723, 0.0007533307, -865427.7, 36971.926 
1.7256598e+3, 2.179086e+2, -798832.6, -912641.7, 22989.086, -0.003578525, -0.0035625433, -794364.3, 10131.483 
1.7255212e+3, 2.2789909e+2, -726283.1, -824948.9, 22299.67, -0.0032756443, 0.0037337104, -721477.2, -14888.154 
1.7253825e+3, 2.3788968e+2, -654743.2, -739405.75, 21757.777, -0.0020417843, 0.012614509, -649478.9, -40797.45 
1.7252438e+3, 2.4788015e+2, -583650.56, -652464.7, 20339.498, -0.0046571596, -0.0033915173, -578088.4, -67313.586 
1.7251047e+3, 2.5787064e+2, -514148.75, -567295.56, 19743.488, -0.008673092, -0.025096038, -507617.0, -94749.195 
1.7249653e+3, 2.6786214e+2, -444054.8, -478253.5, 16197.099, -0.004055642, 0.022732416, -437601.38, -122650.36 
1.7248257e+3, 2.7785394e+2, -377425.75, -395717.4, 16216.384, 0.003536951, 0.079014674, -367953.94, -150922.19 
1.724686e+3, 2.8784385e+2, -298693.97, -302546.94, 16932.502, -0.011885296, -0.06725367, -283578.72, -164448.28 
1.724546e+3, 2.9783377e+2, -227729.31, -227177.38, 15288.085, -0.035770852, -0.22558525, -212162.77, -190933.9 
1.7244044e+3, 3.0783078e+2, -218167.94, -187993.95, 4195.105, 0.031630736, 0.3885669, -187421.56, -187421.56 
1.7242604e+3, 3.178174e+2, -165011.36, 6208.995, 1461.0942, -0.025641061, -0.19997828, 6221.4624, 6221.4624 
1.7369401e+3, 1.281457e+2, -1425996.0, -1686754.6, 2761.3508, 0.0046309223, 0.0074813757, -1425966.8, 258205.66 
1.7367965e+3, 1.381343e+2, -1359412.4, -1603855.4, 3208.3538, -0.0007234672, -0.005608679, -1359370.3, 226913.66 
1.7366537e+3, 1.4812347e+2, -1289242.1, -1512261.8, 7936.75, -0.0010920921, -0.0026610366, -1288960.1, 199429.97 
1.7365113e+3, 1.5811299e+2, -1221936.4, -1428650.1, 8670.652, 0.002653249, 0.0033274035, -1221573.4, 168919.64 
1.7363696e+3, 1.6810273e+2, -1150988.3, -1339243.3, 12640.065, 0.0028318244, 0.0039334935, -1150143.4, 142450.11 
1.7362283e+3, 1.7809261e+2, -1081799.5, -1255506.4, 13135.928, 0.00046122138, 0.0020664474, -1080811.8, 113880.78 
1.7360874e+3, 1.8808253e+2, -1011485.5, -1170391.8, 15220.614, -0.0014959193, 0.00048796763, -1010040.75, 86750.56 
1.7359465e+3, 1.980725e+2, -940264.94, -1084078.9, 14821.476, -0.002445677, -0.0021545924, -938753.3, 60136.43 
1.735806e+3, 2.080628e+2, -868066.94, -995645.7, 15738.672, -0.0022554398, 0.0019805762, -866154.0, 34830.65 
1.7356655e+3, 2.1805322e+2, -797956.2, -911418.7, 16170.252, -0.0018442892, 0.0064561274, -795696.7, 7381.9966 
1.735525e+3, 2.2804353e+2, -727096.2, -826997.9, 15647.33, -0.0025811142, 0.0024157066, -724702.75, -19529.094 
1.7353845e+3, 2.380338e+2, -655273.5, -740800.56, 15023.988, -0.003723351, -0.004883988, -652711.06, -45442.14 
1.7352438e+3, 2.4802445e+2, -583733.56, -652978.2, 13037.369, -0.0052049183, 0.0022535804, -581360.25, -71999.6 
1.7351028e+3, 2.5801522e+2, -514493.2, -568439.4, 12255.607, -0.00701309, 0.012217139, -511839.47, -100388.29 
1.7349611e+3, 2.6800594e+2, -445347.13, -481342.06, 8108.9263, -0.004916643, 0.00075925293, -443604.7, -130062.87 
1.7348194e+3, 2.779968e+2, -377049.84, -395363.2, 9220.167, -0.0008149591, -0.01948072, -373212.03, -157580.27 
1.7346781e+3, 2.8798887e+2, -294295.9, -294147.34, 12067.72, -0.009800256, 0.014255964, -282153.7, -164444.33 
1.7345369e+3, 2.9798144e+2, -225498.38, -223132.61, 7837.7676, -0.025801433, 0.07030033, -216388.97, -196606.97 
1.7343919e+3, 3.079706e+2, -220075.3, -192487.55, -9661.972, 0.018193053, -0.08490535, -189440.27, -189440.27 
1.7342445e+3, 3.179637e+2, -140505.81, 55614.24, -9597.791, -0.015695723, -0.05325748, 56082.82, 56082.82 
1.7469636e+3, 1.2829173e+2, -1429799.4, -1685548.0, 10588.781, 0.0037087593, 0.004030754, -1429361.6, 253379.44 
1.7468177e+3, 1.3828063e+2, -1366617.6, -1604249.1, 11981.193, 0.00055300305, -0.002645406, -1366015.1, 218834.9 
1.7466727e+3, 1.4826998e+2, -1295193.6, -1512461.1, 18072.42, -0.0008922152, -0.0006518485, -1293700.6, 193253.72 
1.7465284e+3, 1.5825963e+2, -1224917.6, -1427631.1, 18925.443, 0.0016922615, 0.002969991, -1223165.9, 165890.02 
1.7463847e+3, 1.6824947e+2, -1153445.9, -1339118.9, 22849.584, 0.0023219339, 0.0033296978, -1150675.3, 140480.19 
1.7462415e+3, 1.782394e+2, -1083312.8, -1254341.0, 22834.998, 0.0006868175, 0.001541671, -1080316.4, 112937.61 
1.7460985e+3, 1.8822943e+2, -1012247.06, -1168982.1, 25984.736, -0.0012756924, 0.00077613274, -1008051.44, 87300.26 
1.745956e+3, 1.9821948e+2, -940717.5, -1082753.1, 26690.422, -0.002480261, -0.0007597349, -935867.6, 61581.61 
1.7458135e+3, 2.0820978e+2, -867072.0, -995303.0, 27261.07, -0.0023124912, 0.0024454356, -861517.1, 38027.28 
1.7456713e+3, 2.182001e+2, -794111.9, -909174.2, 26447.521, -0.0019357203, 0.0056498856, -788324.0, 13315.255 
1.7455289e+3, 2.2819038e+2, -723319.75, -824866.56, 26083.873, -0.0030762956, 0.0019522969, -717011.56, -13277.103 
1.7453864e+3, 2.3818062e+2, -652558.4, -739274.25, 26229.395, -0.0045081433, -0.0048496197, -645241.94, -39411.746 
1.745244e+3, 2.481712e+2, -579973.7, -651603.44, 24009.047, -0.004719145, 0.0036024663, -572670.8, -64748.277 
1.7451009e+3, 2.5816187e+2, -508273.2, -565959.94, 22889.17, -0.0050715012, 0.015917152, -500294.63, -90280.68 
1.7449576e+3, 2.681524e+2, -434661.9, -477515.6, 18609.113, -0.0063911974, -0.0035386328, -427709.03, -115602.09 
1.7448136e+3, 2.7814287e+2, -362807.25, -390762.16, 19766.432, -0.006489523, -0.035655838, -352575.6, -138375.58 
1.7446706e+3, 2.8813493e+2, -296127.88, -299757.44, 16267.667, -0.005922309, 0.033190094, -281574.1, -165295.84 
1.7445272e+3, 2.9812765e+2, -237833.2, -223242.94, 5024.2705, -0.010872672, 0.1346148, -221680.19, -203330.67 
1.7443796e+3, 3.0811667e+2, -190455.98, -149190.05, 2183.0806, -0.0025188148, -0.21764213, -149074.88, -149074.88 
1.74423e+3, 3.1811494e+2, -112070.984, 32501.904, 14161.762, -0.008076415, 0.17404835, 33876.07, 33876.07 
1.756987e+3, 1.2843987e+2, -1428672.1, -1681604.5, 2410.487, 0.0003832384, -0.0042981054, -1428649.1, 252640.2 
1.7568386e+3, 1.3842924e+2, -1364504.9, -1599979.9, 4114.887, 0.0054931846, 0.0068229665, -1364433.0, 218960.58 
1.7566915e+3, 1.4841881e+2, -1293834.4, -1509600.5, 11541.484, 0.0012812391, 0.0054623256, -1293218.9, 192277.13 
1.7565453e+3, 1.5840854e+2, -1224184.8, -1425579.0, 12155.803, -0.0014494888, 0.00042525152, -1223453.8, 164142.67 
1.7563997e+3, 1.6839844e+2, -1153761.4, -1339217.6, 16315.219, -0.00023516716, 0.0003728213, -1152337.1, 137358.44 
1.7562546e+3, 1.7838842e+2, -1082623.5, -1252991.1, 16366.767, 0.0002751273, 0.00033045365, -1081065.4, 110728.36 
1.7561097e+3, 1.8837868e+2, -1010501.6, -1165344.5, 19506.793, -0.0006383269, 0.0030998355, -1008082.06, 85807.1 
1.7559654e+3, 1.9836898e+2, -939542.4, -1080982.6, 20215.828, -0.0013306029, 0.0051745046, -936709.7, 59274.43 
1.7558211e+3, 2.0835912e+2, -868437.8, -998229.56, 21121.219, -0.0021522471, 0.0019301494, -865087.2, 32993.64 
1.755677e+3, 2.1834917e+2, -794750.0, -910640.44, 20200.787, -0.0033043805, -0.0031781404, -791329.8, 8848.582 
1.7555328e+3, 2.2833957e+2, -722740.9, -823894.0, 19182.932, -0.004363972, 0.0033850286, -719225.2, -16952.643 
1.7553885e+3, 2.3832998e+2, -652237.06, -739076.25, 19417.246, -0.004915257, 0.010161014, -648093.1, -43726.65 
1.7552441e+3, 2.4832028e+2, -580705.06, -653583.44, 17288.686, -0.0036085194, -0.00052936724, -576811.7, -70350.14 
1.7550993e+3, 2.583106e+2, -508889.8, -567692.8, 16314.365, -0.0029879871, -0.012564301, -504666.8, -96110.11 
1.7549542e+3, 2.683014e+2, -435323.38, -479389.16, 11943.04, -0.008536786, 0.013614274, -432294.66, -121648.13 
1.7548083e+3, 2.7829224e+2, -366870.13, -399792.5, 12029.498, -0.0132816415, 0.03572625, -362943.1, -150206.6 
1.7546628e+3, 2.882816e+2, -308067.56, -324322.84, 5490.395, 0.00027067628, -0.029786598, -306386.88, -191546.02 
1.7545168e+3, 2.982716e+2, -232606.88, -210892.67, -3599.4219, 0.008897226, -0.07299687, -210311.58, -193372.98 
1.7543675e+3, 3.0827054e+2, -146329.77, -59277.902, 186.7609, -0.033754066, 0.12815084, -59277.504, -59277.504 
1.7542176e+3, 3.182665e+2, -207988.19, -173757.25, 13226.715, -0.006664737, 0.010887953, -169242.06, -169242.06 
1.7670096e+3, 1.2859072e+2, -1438483.1, -1683358.5, 11113.834, 0.00080376933, -0.00038138634, -1437979.8, 241831.47 
1.7668593e+3, 1.3858022e+2, -1370281.0, -1599728.6, 12446.265, 0.0047530467, 0.004866335, -1369607.8, 212306.28 
1.7667101e+3, 1.4856997e+2, -1299599.8, -1509727.4, 20605.723, 0.0011870963, 0.0037348412, -1297598.3, 186416.23 
1.7665619e+3, 1.5855992e+2, -1229934.3, -1425443.8, 21415.24, -0.00049733784, 0.00015353324, -1227616.0, 158497.05 
1.7664143e+3, 1.6855e+2, -1158331.9, -1338986.0, 26902.326, -0.00007885573, 0.00072056043, -1154410.9, 133799.39 
1.7662673e+3, 1.7854013e+2, -1085710.9, -1252208.3, 27844.34, -0.00065675395, 0.0011881843, -1081177.8, 109129.2 
1.7661208e+3, 1.8853043e+2, -1011719.4, -1165481.5, 30651.146, -0.0009029508, 0.003372388, -1005834.56, 86567.445 
1.7659746e+3, 1.9852072e+2, -937720.7, -1078915.6, 30017.672, -0.0005520327, 0.0045965607, -931604.0, 62893.176 
1.7658287e+3, 2.0851088e+2, -866653.5, -996462.9, 31808.139, -0.0017751156, 0.0013505004, -859278.3, 37315.266 
1.7656828e+3, 2.1850094e+2, -793938.0, -909473.7, 32245.479, -0.0035249926, -0.0033642198, -785547.75, 13143.223 
1.7655368e+3, 2.2849129e+2, -719561.4, -822702.7, 30882.463, -0.0047221915, 0.004300965, -711021.6, -10236.023 
1.765391e+3, 2.3848161e+2, -645187.2, -735861.3, 30193.193, -0.005317017, 0.012239806, -636053.4, -33172.934 
1.7652446e+3, 2.4847175e+2, -574056.25, -651092.6, 27610.104, -0.0035927466, -0.0027392677, -565182.75, -60205.72 
1.765098e+3, 2.5846186e+2, -503370.06, -565633.25, 27086.158, -0.0025020002, -0.019697385, -493236.22, -86162.17 
1.7649509e+3, 2.684527e+2, -428125.8, -476647.8, 23088.656, -0.009115502, 0.020879606, -418895.28, -109731.53 
1.7648034e+3, 2.7844355e+2, -357619.06, -396531.7, 22485.707, -0.014831719, 0.05940912, -347340.63, -136086.98 
1.7646553e+3, 2.8843215e+2, -301144.06, -323215.4, 21431.596, 0.0019059168, -0.056097433, -288073.75, -174708.38 
1.7645065e+3, 2.984214e+2, -224914.66, -204691.3, 23363.28, 0.013430543, -0.1507087, -189345.39, -173874.78 
1.7643562e+3, 3.0842325e+2, -124379.5, -38188.047, 2525.7764, -0.040950198, 0.28012472, -38114.094, -38114.094 
1.7642061e+3, 3.1841603e+2, -211494.28, -217894.75, -4866.194, 0.0035741285, -0.17156352, -208870.31, -208870.31 
1.777032e+3, 1.2874374e+2, -1437916.1, -1681331.0, 3993.9966, 0.0026989032, 0.008159969, -1437850.6, 240460.92 
1.7768796e+3, 1.3873327e+2, -1369691.5, -1597279.5, 5277.8213, 0.00058744143, -0.0025734461, -1369569.1, 210845.13 
1.7767283e+3, 1.4872324e+2, -1298642.1, -1507078.4, 14049.811, -0.0003238955, -0.0012108583, -1297699.4, 184813.0 
1.7765781e+3, 1.5871346e+2, -1228173.5, -1421724.0, 14913.692, 0.0026759936, 0.0013368701, -1227031.1, 157577.2 
1.7764287e+3, 1.6870384e+2, -1156327.6, -1334778.8, 20802.79, 0.0014794894, 0.0029885669, -1153934.6, 132767.9 
1.77628e+3, 1.7869425e+2, -1084424.0, -1249969.5, 21705.506, -0.002064481, 0.0034299868, -1081625.4, 107171.22 
1.7761317e+3, 1.8868446e+2, -1012939.3, -1167782.5, 25008.984, -0.0018106338, 0.0022055688, -1009000.25, 81892.25 
1.775984e+3, 1.9867457e+2, -937784.3, -1079091.1, 24284.305, -0.00010651051, -0.0003722287, -933727.44, 59262.004 
1.7758363e+3, 2.0866494e+2, -865163.1, -993481.56, 25468.188, -0.0012816653, 0.0013258602, -860293.1, 34790.8 
1.7756887e+3, 2.1865523e+2, -793035.6, -908228.3, 26062.463, -0.0034000445, 0.0030039956, -787413.4, 9765.603 
1.7755412e+3, 2.286454e+2, -720729.44, -825476.25, 24992.969, -0.004738616, 0.004088618, -715071.6, -15796.357 
1.7753935e+3, 2.3863545e+2, -646009.0, -737913.75, 24024.86, -0.0056101894, 0.0031867283, -640107.56, -38734.797 
1.7752452e+3, 2.4862556e+2, -574669.8, -652747.9, 20541.979, -0.0043977136, -0.0020670872, -569595.1, -66125.41 
1.7750968e+3, 2.5861567e+2, -503934.1, -567240.4, 20530.61, -0.0037446, -0.0063580554, -497858.9, -92292.17 
1.774948e+3, 2.6860622e+2, -428649.56, -478294.03, 17139.465, -0.008197022, 0.015955575, -423307.2, -115647.79 
1.7747988e+3, 2.7859676e+2, -354668.2, -390743.7, 14859.264, -0.011567067, 0.032200303, -349335.9, -139584.11 
1.774648e+3, 2.885869e+2, -291692.22, -303547.25, 10477.398, -0.0028988025, -0.034280375, -285581.8, -173733.31 
1.7744963e+3, 2.9857764e+2, -232570.63, -220740.02, 17228.297, 0.0003679591, -0.07599206, -208439.8, -194500.31 
1.774346e+3, 3.085732e+2, -164199.69, -122901.24, 2181.9622, -0.01416059, 0.15523617, -122786.28, -122786.28 
1.7741953e+3, 3.185656e+2, -115588.07, -21698.143, -12428.691, -0.0044286046, -0.072570235, -20080.754, -20080.754 
1.7870538e+3, 1.2889892e+2, -1448516.9, -1681640.5, 11483.58, 0.0016537238, 0.0044233887, -1447952.6, 228838.17 
1.7868991e+3, 1.3888885e+2, -1379782.4, -1597697.1, 13868.703, 0.0019157993, -0.0013888838, -1378903.3, 199986.2 
1.7867461e+3, 1.4887913e+2, -1307536.5, -1507950.4, 24023.586, -0.00023580999, 0.00064011227, -1304697.0, 176287.8 
1.7865941e+3, 1.5886956e+2, -1234867.8, -1421739.1, 25214.393, 0.0019901684, 0.002777021, -1231525.4, 151553.13 
1.786443e+3, 1.688601e+2, -1161452.0, -1335385.0, 31104.77, 0.0017205548, 0.0031719836, -1156056.8, 129114.57 
1.7862925e+3, 1.7885059e+2, -1086923.1, -1248729.9, 31263.125, -0.0011511537, 0.002361484, -1081092.8, 106171.8 
1.7861426e+3, 1.8884094e+2, -1014787.06, -1166844.3, 36009.41, -0.0019101956, 0.0015706497, -1006690.56, 82668.46 
1.7859933e+3, 1.9883114e+2, -939554.6, -1078322.9, 36682.887, -0.0010812853, -0.00028045644, -930454.44, 61000.5 
1.7858438e+3, 2.088215e+2, -864025.94, -993070.9, 37164.844, -0.0016298012, 0.002200167, -854087.9, 39461.68 
1.7856947e+3, 2.1881174e+2, -787399.5, -905276.6, 36293.863, -0.0030711438, 0.004661531, -777121.06, 18524.22 
1.7855453e+3, 2.2880182e+2, -715393.8, -823271.5, 35363.813, -0.004413416, 0.0036298062, -704834.56, -7092.131 
1.7853962e+3, 2.3879173e+2, -641536.5, -736162.4, 34988.363, -0.0052880836, 0.00029929593, -630004.75, -30163.492 
1.7852463e+3, 2.4878174e+2, -567566.44, -650326.25, 31074.314, -0.004241799, -0.0015803209, -557197.8, -55258.64 
1.785096e+3, 2.5877172e+2, -493333.78, -562887.56, 30909.572, -0.003920348, -0.0015662204, -481582.88, -77545.51 
1.7849454e+3, 2.6876205e+2, -423101.78, -476553.22, 27036.598, -0.009010661, 0.013683982, -411811.16, -105679.0 
1.7847942e+3, 2.7875242e+2, -353447.8, -389356.6, 23695.234, -0.012309099, 0.020803636, -341673.03, -133446.28 
1.7846413e+3, 2.887429e+2, -270688.66, -289741.1, 11626.501, -0.0020820247, -0.026791494, -265184.1, -154864.31 
1.7844875e+3, 2.9873395e+2, -200003.52, -213884.11, 13601.491, 0.0012128082, -0.045533117, -191673.97, -179266.5 
1.7843354e+3, 3.0872646e+2, -180410.73, -162386.28, 17799.15, -0.013914658, 0.10221803, -151447.81, -151447.81 
1.7841835e+3, 3.1871894e+2, -105073.46, 57150.91, 8910.312, -0.01303686, 0.0040637907, 57638.848, 57638.848 
1.7970751e+3, 1.2905607e+2, -1445416.3, -1674518.4, 4798.303, -0.00034319778, -0.0029549145, -1445315.8, 229935.06 
1.7969185e+3, 1.390466e+2, -1377260.5, -1591554.9, 6907.93, 0.005812893, 0.004150724, -1377038.0, 200305.55 
1.7967634e+3, 1.490372e+2, -1305867.9, -1503997.3, 17951.074, 0.00028236088, 0.005613957, -1304254.6, 175181.03 
1.7966096e+3, 1.5902789e+2, -1233455.1, -1418684.5, 19172.8, -0.0010235932, 0.004530438, -1231491.4, 150035.6 
1.7964569e+3, 1.6901848e+2, -1161501.9, -1335175.5, 25767.496, 0.0012330048, 0.0022640184, -1157759.4, 125859.74 
1.7963049e+3, 1.79009e+2, -1085828.1, -1246497.6, 25889.34, 0.0010322977, -0.0007035145, -1081759.5, 103952.625 
1.7961533e+3, 1.8899967e+2, -1012601.0, -1162290.3, 30391.992, -0.0016791256, 0.0015552234, -1006665.7, 81137.84 
1.7960024e+3, 1.989902e+2, -938306.06, -1076432.4, 31169.404, -0.0032807935, 0.0033547697, -931598.2, 58298.246 
1.7958516e+3, 2.089804e+2, -865622.6, -996548.6, 32012.56, -0.0027388611, 0.003460537, -858214.44, 33778.03 
1.795701e+3, 2.1897036e+2, -788101.94, -907037.6, 30953.889, -0.0023770335, 0.0024416542, -780528.25, 13562.527 
1.79555e+3, 2.2896042e+2, -715272.6, -823402.94, 29266.367, -0.0035442559, 0.0032926346, -707859.7, -11671.546 
1.7953989e+3, 2.3895033e+2, -641697.7, -736942.6, 29026.307, -0.00489202, 0.0027727364, -633549.0, -35262.074 
1.7952475e+3, 2.4894018e+2, -568570.25, -652826.5, 25057.865, -0.0036855624, -0.0017436194, -561681.25, -61294.85 
1.7950955e+3, 2.5892997e+2, -494154.28, -565016.56, 24390.064, -0.003439317, -0.0050037857, -486570.97, -84084.36 
1.7949429e+3, 2.6892015e+2, -424177.03, -478994.7, 19050.014, -0.011729943, 0.014955885, -418207.03, -113624.516 
1.7947897e+3, 2.7891034e+2, -356721.97, -396283.63, 16982.598, -0.017023968, 0.026405524, -350431.94, -143752.95 
1.7946354e+3, 2.8889984e+2, -276873.44, -303801.44, 6519.305, 0.0057276534, -0.037563123, -275378.16, -166596.47 
1.7944802e+3, 2.9888994e+2, -200399.47, -217250.19, 5445.098, 0.017244665, -0.0670377, -198793.1, -187914.3 
1.7943247e+3, 3.088837e+2, -174600.7, -149345.1, 5484.4897, -0.052185874, 0.15262128, -148205.5, -148205.5 
1.7941701e+3, 3.1887478e+2, -147023.44, -24199.832, 3781.4255, 0.0028204697, -0.054212846, -24083.523, -24083.523 
1.8070959e+3, 1.292158e+2, -1458513.9, -1677338.4, 13058.113, 0.0025303324, 0.0003652341, -1457737.4, 215948.08 
1.8069372e+3, 1.3920657e+2, -1391019.5, -1594036.3, 14659.07, 0.003959626, 0.004412727, -1389966.5, 185809.33 
1.8067802e+3, 1.4919747e+2, -1317210.1, -1505487.0, 27189.215, -0.00083412824, 0.004341099, -1313362.4, 164502.6 
1.8066248e+3, 1.5918845e+2, -1241288.1, -1418490.4, 28602.494, -0.00030634855, 0.0026260559, -1236785.8, 143167.7 
1.8064705e+3, 1.691793e+2, -1168091.1, -1335510.3, 36563.49, 0.0016184662, 0.002190052, -1160454.3, 121588.836 
1.806317e+3, 1.7917003e+2, -1091034.8, -1246405.6, 37558.8, 0.0007912086, 0.0011286512, -1082431.8, 101702.15 
1.806164e+3, 1.8916076e+2, -1014888.8, -1162603.5, 41431.215, -0.0016839013, 0.003140139, -1004061.7, 82163.055 
1.8060115e+3, 1.991513e+2, -936449.4, -1074179.5, 40807.48, -0.0030145508, 0.0044476013, -925266.6, 63050.8 
1.8058592e+3, 2.0914152e+2, -863393.9, -994756.44, 42715.035, -0.0024253507, 0.0025423921, -850725.9, 39687.42 
1.8057072e+3, 2.1913147e+2, -785928.4, -905508.1, 43013.613, -0.0018663518, -0.00047666297, -772063.6, 20448.232 
1.8055546e+3, 2.2912148e+2, -710257.1, -821850.44, 40753.207, -0.0033977604, 0.003957788, -696959.0, -2349.1426 
1.805402e+3, 2.3911127e+2, -632652.75, -733331.75, 39813.74, -0.0051152064, 0.007229278, -618811.3, -22101.5 
1.8052489e+3, 2.4910088e+2, -559589.7, -650095.1, 35260.484, -0.0041372906, -0.0028610209, -547474.2, -48662.566 
1.8050954e+3, 2.590904e+2, -485422.16, -562401.25, 34186.285, -0.0038688853, -0.011444519, -472432.13, -71517.67 
1.8049408e+3, 2.6908043e+2, -411078.53, -475043.72, 27400.729, -0.01078881, 0.01927021, -400945.97, -97934.17 
1.8047857e+3, 2.790704e+2, -339088.7, -390661.03, 25712.572, -0.014984268, 0.039612792, -328459.72, -123349.43 
1.8046297e+3, 2.890592e+2, -266273.6, -302837.28, 19225.287, 0.0044455333, -0.05464561, -258025.5, -150805.63 
1.804473e+3, 2.990486e+2, -197451.78, -219783.17, 19742.342, 0.0126234675, -0.104829535, -185936.36, -176612.78 
1.804315e+3, 3.0904308e+2, -157761.17, -144056.86, 9036.856, -0.054272924, 0.22326787, -139568.08, -139568.08 
1.804158e+3, 3.190325e+2, -125898.64, -32991.92, 10858.69, 0.019360146, -0.09736112, -31739.668, -31739.668 
1.817116e+3, 1.2937763e+2, -1458842.8, -1675647.0, 5432.926, 0.0060709035, 0.007364384, -1458706.8, 213392.77 
1.816955e+3, 1.3936852e+2, -1388982.1, -1590000.3, 7909.7964, -0.0007747024, 0.0024730738, -1388671.4, 185517.5 
1.8167967e+3, 1.4935975e+2, -1315083.3, -1500847.9, 22205.824, -0.0025214143, 0.0008034592, -1312465.8, 163809.13 
1.8166398e+3, 1.5935105e+2, -1239161.4, -1413453.3, 23334.23, 0.0019511037, -0.0009287658, -1236091.5, 142268.6 
1.8164837e+3, 1.693423e+2, -1165964.3, -1330829.6, 31467.395, 0.002036456, 0.0028516098, -1160162.4, 120283.414 
1.8163289e+3, 1.7933336e+2, -1089650.1, -1244027.3, 32605.91, -0.0010443707, 0.0061550857, -1083045.9, 99487.52 
1.8161744e+3, 1.8932402e+2, -1015962.94, -1164776.9, 37018.445, -0.001935038, 0.0055968566, -1007263.0, 77361.92 
1.8160208e+3, 1.9931442e+2, -936135.7, -1073774.3, 36314.98, -0.0012267373, 0.0034560564, -927141.9, 59577.156 
1.8158671e+3, 2.0930478e+2, -861810.56, -991830.2, 37657.68, -0.0011227095, 0.00011256168, -851691.3, 37122.125 
1.8157133e+3, 2.1929488e+2, -785233.75, -904651.6, 38049.684, -0.00200742, -0.003528454, -774140.6, 16769.764 
1.8155596e+3, 2.292848e+2, -711584.4, -825060.2, 35731.38, -0.0043175137, 0.0055973525, -701270.6, -8261.387 
1.8154055e+3, 2.3927441e+2, -633658.94, -735989.94, 34527.914, -0.00604477, 0.013035351, -623098.56, -27987.547 
1.8152507e+3, 2.4926373e+2, -560915.0, -653329.2, 29077.664, -0.0052776015, -0.005082427, -552527.1, -55311.55 
1.8150954e+3, 2.5925294e+2, -487087.16, -566247.44, 28132.959, -0.004951322, -0.020738704, -478107.53, -78786.06 
1.8149394e+3, 2.6924282e+2, -413459.1, -480445.53, 21005.217, -0.006104991, 0.027019778, -407417.34, -105996.88 
1.8147826e+3, 2.7923256e+2, -339668.38, -392363.44, 19213.943, -0.0065931994, 0.06081816, -333406.6, -129885.71 
1.8146245e+3, 2.8922105e+2, -264722.8, -299880.03, 11913.808, -0.008558421, -0.07988653, -261065.94, -155432.06 
1.8144655e+3, 2.9921013e+2, -202481.27, -230061.7, 12698.435, -0.01641207, -0.1617387, -197525.28, -189784.69 
1.8143062e+3, 3.0920458e+2, -170414.3, -171684.31, 1318.3209, -0.0052508647, 0.32355377, -169586.02, -169586.02 
1.8141468e+3, 3.1919232e+2, -94654.46, 28720.162, 4671.499, -0.00038824455, -0.101312354, 28896.793, 28896.793 
1.8271351e+3, 1.2954132e+2, -1478641.4, -1678835.0, 12378.756, 0.0038442034, 0.0058498955, -1477878.9, 192616.66 
1.8269725e+3, 1.3953272e+2, -1401548.5, -1590278.9, 16236.919, 0.0014971078, 0.002636909, -1400161.9, 172417.92 
1.8268123e+3, 1.4952432e+2, -1327559.8, -1502971.4, 31631.135, -0.0011460388, 0.0027079927, -1322030.3, 152631.86 
1.8266541e+3, 1.5951593e+2, -1250991.1, -1415184.9, 32884.977, 0.0017311361, 0.0019375249, -1244649.9, 132094.45 
1.8264967e+3, 1.6950741e+2, -1174484.5, -1332032.6, 41314.605, 0.0015687253, 0.0038279013, -1164307.8, 114520.01 
1.8263404e+3, 1.7949867e+2, -1093860.1, -1242775.9, 41995.89, -0.0014325009, 0.0053883614, -1082833.3, 98080.16 
1.8261848e+3, 1.8948953e+2, -1018864.8, -1163809.8, 48071.625, -0.0015438199, 0.0046186154, -1004370.94, 78632.04 
1.8260297e+3, 1.9948006e+2, -937885.06, -1072755.6, 48855.25, -0.00011637071, 0.002478313, -922047.56, 63048.21 
1.8258747e+3, 2.0947045e+2, -860032.44, -990998.0, 49322.97, -0.0012539121, 0.0016147813, -843535.06, 43654.945 
1.8257199e+3, 2.1946052e+2, -778683.2, -901253.5, 48387.008, -0.0032255575, 0.0004699362, -761883.94, 27403.395 
1.8255647e+3, 2.2945029e+2, -704628.8, -822467.44, 46138.86, -0.0038936725, 0.0053150007, -688713.1, 2674.4063 
1.8254092e+3, 2.3943973e+2, -626164.7, -733020.5, 45578.86, -0.0040701805, 0.008468719, -609364.56, -15873.544 
1.825253e+3, 2.4942893e+2, -550671.7, -649899.75, 39876.336, -0.005973843, -0.0037828535, -536633.0, -41036.26 
1.825096e+3, 2.5941795e+2, -473745.7, -561986.0, 39189.19, -0.007961241, -0.01378293, -458854.16, -61149.855 
1.8249384e+3, 2.694074e+2, -400334.16, -478035.84, 31349.11, -0.0028726119, 0.02271059, -389263.5, -89455.46 
1.82478e+3, 2.7939662e+2, -325768.44, -387810.53, 29032.443, 0.0021930027, 0.04649396, -314302.0, -112388.68 
1.8246198e+3, 2.893852e+2, -249961.22, -293298.78, 18962.545, -0.018406544, -0.066335015, -242835.66, -138810.58 
1.8244587e+3, 2.9937434e+2, -190133.27, -229096.94, 18393.553, -0.04103153, -0.12530641, -182822.11, -176690.56 
1.824298e+3, 3.09367e+2, -162088.98, -177796.63, 12361.739, 0.035756312, 0.26785928, -155297.16, -155297.16 
1.8241358e+3, 3.1935474e+2, -74211.64, 57639.754, 14973.467, -0.019653918, -0.116441675, 59318.805, 59318.805 
1.8371534e+3, 1.2970674e+2, -1473732.8, -1668315.6, 7593.8574, -0.00011912495, 0.0023730688, -1473436.9, 195437.63 
1.8369895e+3, 1.3969886e+2, -1398986.9, -1582764.1, 10509.415, 0.0065340092, 0.003904662, -1398387.8, 172563.67 
1.8368277e+3, 1.4969088e+2, -1326195.9, -1498977.4, 26412.576, 0.001006677, 0.0071761473, -1322248.5, 150781.28 
1.8366677e+3, 1.5968281e+2, -1248857.5, -1411064.5, 28200.018, 0.00030844755, 0.008376295, -1244094.6, 131014.25 
1.8365093e+3, 1.6967446e+2, -1173525.1, -1329866.5, 37601.68, 0.0007622328, 0.004903888, -1164951.6, 112239.17 
1.8363518e+3, 1.7966583e+2, -1091978.5, -1238722.8, 38115.367, -0.0012188082, 0.000982837, -1082669.0, 96606.266 
1.836195e+3, 1.8965708e+2, -1016223.0, -1158388.0, 43921.617, -0.000816943, 0.0017465478, -1003748.1, 77612.87 
1.8360387e+3, 1.9964795e+2, -936564.5, -1070661.3, 44849.97, 0.00044681306, 0.0021250197, -922946.9, 60503.563 
1.8358825e+3, 2.0963827e+2, -861384.7, -994170.94, 45494.395, -0.0026431438, 0.0062973863, -847293.1, 38252.195 
1.8357265e+3, 2.1962817e+2, -779032.75, -902541.94, 44325.082, -0.0055819154, 0.009127858, -764771.94, 22872.355 
1.83557e+3, 2.2961782e+2, -704533.2, -822940.1, 41259.027, -0.0021522408, 0.0028007722, -691574.6, -1828.8152 
1.8354133e+3, 2.396071e+2, -626246.25, -733725.75, 40805.832, 0.00048568143, -0.004545665, -612509.5, -20658.799 
1.8352556e+3, 2.4959637e+2, -551554.6, -652219.1, 34656.254, -0.0067909323, 0.0017492779, -540777.2, -46821.41 
1.8350972e+3, 2.5958535e+2, -475287.9, -565635.0, 33780.85, -0.013762045, 0.008681615, -464054.03, -67990.38 
1.834938e+3, 2.6957402e+2, -403272.7, -484482.44, 24824.678, -0.0011615135, 0.0043902644, -396285.34, -98110.24 
1.8347777e+3, 2.7956247e+2, -328446.38, -393844.2, 22421.896, 0.011296909, -0.0049746055, -321497.34, -121209.42 
1.8346156e+3, 2.8955176e+2, -252874.92, -299914.38, 11557.977, -0.025109615, -0.0020780284, -250188.45, -147795.67 
1.8344525e+3, 2.995413e+2, -191281.61, -231699.58, 10957.877, -0.061023682, 0.020309828, -188501.94, -184006.56 
1.8342902e+3, 3.0952987e+2, -160120.06, -173936.11, 4814.754, 0.0641159, -0.010783995, -158607.72, -158607.72 
1.834125e+3, 3.1952104e+2, -94616.0, 16309.442, 2399.4631, -0.01930467, -0.013435812, 16361.321, 16361.321 
1.8471709e+3, 1.2987417e+2, -1494117.0, -1672493.8, 14041.601, 0.0015043179, 0.0041383184, -1493018.4, 174215.19 
1.8470052e+3, 1.3986678e+2, -1421385.4, -1587281.5, 16689.057, 0.0062273103, 0.0052372003, -1419723.1, 149582.8 
1.8468422e+3, 1.4985928e+2, -1342987.4, -1501643.0, 34851.605, 0.0003277301, 0.0065409085, -1335669.1, 135710.38 
1.8466811e+3, 1.5985164e+2, -1259220.0, -1410945.5, 37266.973, 0.00003854587, 0.0066328803, -1250560.8, 122893.82 
1.8465213e+3, 1.6984363e+2, -1182849.5, -1330563.8, 47686.215, 0.0014296577, 0.004875363, -1168792.8, 106740.266 
1.8463628e+3, 1.7983529e+2, -1100013.5, -1239129.4, 48913.676, -0.000059013535, 0.0024291957, -1084537.0, 93077.625 
1.8462048e+3, 1.8982671e+2, -1020326.3, -1158405.4, 54128.66, -0.00094887597, 0.0035750296, -1001636.9, 78061.85 
1.8460476e+3, 1.998177e+2, -935851.6, -1067968.5, 54036.234, -0.0005661498, 0.0043006474, -916565.8, 65221.063 
1.8458904e+3, 2.0980814e+2, -859598.3, -991720.56, 56044.348, -0.0022779554, 0.0064750738, -839027.8, 44852.934 
1.8457334e+3, 2.1979807e+2, -775993.0, -899975.7, 56587.293, -0.0041773394, 0.0074868724, -754049.56, 31929.697 
1.8455759e+3, 2.2978768e+2, -697651.4, -820004.0, 53100.418, -0.0019684269, 0.0025098678, -677820.3, 10260.92 
1.8454178e+3, 2.3977686e+2, -614634.8, -728647.25, 52263.62, -0.00001672998, -0.0031629705, -594302.9, -4115.802 
1.8452586e+3, 2.4976596e+2, -539600.3, -648585.2, 45043.164, -0.006073528, 0.0055125304, -523394.0, -31100.121 
1.8450987e+3, 2.597547e+2, -462560.63, -561029.9, 43808.8, -0.012020171, 0.013462281, -445891.84, -51487.723 
1.844938e+3, 2.6974294e+2, -389185.66, -479935.44, 35198.758, -0.0023125925, -0.0060308906, -377133.8, -80614.42 
1.844776e+3, 2.7973104e+2, -312461.56, -388425.0, 34276.53, 0.007529996, -0.02522574, -299281.84, -100645.914 
1.8446122e+3, 2.8972057e+2, -234434.11, -294562.38, 23310.79, -0.022414843, 0.03494857, -226455.56, -125716.86 
1.844447e+3, 2.9970998e+2, -172908.69, -227799.56, 21820.979, -0.05284054, 0.09217499, -165291.22, -162448.92 
1.8442823e+3, 3.096957e+2, -149135.8, -173579.38, 8646.886, 0.055330124, -0.17492616, -146386.25, -146386.25 
1.8441148e+3, 3.196892e+2, -81075.88, 22188.959, 6146.2227, -0.02535617, 0.0961194, 22553.488, 22553.488 
1.8571876e+3, 1.300433e+2, -1492748.8, -1667447.6, 7869.2446, 0.0037554235, 0.007193969, -1492395.0, 173181.11 
1.8570201e+3, 1.4003633e+2, -1417672.3, -1579574.5, 11764.107, 0.0034932483, 0.0068916213, -1416822.0, 150822.52 
1.8568559e+3, 1.5002936e+2, -1339744.3, -1494103.5, 31828.46, -0.0014446446, 0.003940563, -1333438.9, 136274.03 
1.8566938e+3, 1.6002218e+2, -1256662.0, -1404260.4, 33613.754, -0.000111064146, 0.00070719287, -1249367.4, 122415.734 
1.8565331e+3, 1.7001466e+2, -1180537.3, -1325187.4, 43953.406, 0.0025806539, 0.0045060194, -1168228.9, 105627.99 
1.8563734e+3, 1.8000673e+2, -1098221.5, -1235901.4, 45607.113, 0.0016043066, 0.0077174217, -1084484.5, 91450.19 
1.8562146e+3, 1.8999818e+2, -1020372.2, -1158621.4, 51383.484, -0.0018787824, 0.008398679, -1003366.2, 74652.12 
1.8560565e+3, 1.9998921e+2, -934390.4, -1065203.1, 51131.85, -0.003165502, 0.0074316477, -916775.94, 63330.426 
1.8558984e+3, 2.0997988e+2, -857102.44, -986946.4, 52557.266, -0.0006178543, 0.0030850468, -838495.2, 43702.52 
1.8557402e+3, 2.1997005e+2, -774648.25, -897716.5, 53203.2, 0.00030576502, -0.0011970892, -754837.25, 29456.67 
1.8555816e+3, 2.2995971e+2, -698253.0, -821782.8, 49469.21, -0.0034028026, 0.005094958, -680884.44, 5510.8765 
1.8554226e+3, 2.3994887e+2, -615366.2, -730840.06, 48256.07, -0.0059584123, 0.010407863, -597855.5, -9353.943 
1.8552622e+3, 2.499376e+2, -541462.2, -653035.8, 39853.37, -0.0037331614, 0.006702221, -528689.1, -38077.16 
1.855101e+3, 2.5992593e+2, -463244.8, -562973.25, 38677.86, -0.0026051006, 0.0015422343, -450002.66, -57276.543 
1.8549384e+3, 2.6991424e+2, -389418.84, -480808.2, 29116.986, -0.0074060955, -0.0065171653, -380930.47, -86089.59 
1.8547748e+3, 2.799024e+2, -313130.56, -390002.97, 28503.693, -0.010298725, -0.012536634, -303714.88, -106757.96 
1.8546095e+3, 2.8989154e+2, -236063.03, -298461.84, 16790.602, -0.0065936833, 0.035510432, -231831.84, -132768.97 
1.8544428e+3, 2.998804e+2, -179021.34, -241453.33, 13791.066, -0.012836425, 0.07878406, -176110.63, -174938.3 
1.8542744e+3, 3.0986488e+2, -159915.73, -196126.55, -1972.8741, -0.00906429, -0.16470425, -159808.56, -159808.56 
1.8541053e+3, 3.1985795e+2, -53403.316, 78904.83, 2281.4697, -0.011141494, 0.074634075, 78944.16, 78944.16 
1.8672028e+3, 1.3021393e+2, -1519780.5, -1672984.0, 12878.492, 0.0025658607, 0.0051055416, -1518705.5, 145198.63 
1.8670341e+3, 1.4020762e+2, -1437294.0, -1581940.9, 18223.215, 0.0037182157, 0.0064133736, -1435033.5, 130932.586 
1.8668687e+3, 1.5020114e+2, -1358482.8, -1498018.1, 39250.313, -0.00085978187, 0.005849048, -1348199.6, 119829.81 
1.8667059e+3, 1.6019441e+2, -1273765.1, -1407074.5, 40810.383, 0.00046255774, 0.0039762626, -1262263.9, 107831.46 
1.8665442e+3, 1.7018726e+2, -1192309.8, -1326173.3, 51738.805, 0.0022161817, 0.0060281195, -1174643.9, 97521.48 
1.8663837e+3, 1.8017972e+2, -1104579.8, -1234317.8, 53606.484, 0.0008204271, 0.008045783, -1085296.3, 88943.26 
1.8662241e+3, 1.9017151e+2, -1025396.9, -1157220.8, 61124.14, -0.0015960301, 0.008113395, -1001416.94, 74902.96 
1.8660651e+3, 2.001628e+2, -937949.25, -1063446.9, 62452.83, -0.0023087736, 0.006641638, -912166.9, 66238.375 
1.8659063e+3, 2.1015367e+2, -856445.6, -984176.6, 63281.29, -0.00043805141, 0.0041204393, -830403.8, 50090.79 
1.8657473e+3, 2.2014402e+2, -769309.44, -892804.0, 63274.68, 0.0006888095, 0.001588693, -742646.25, 39942.938 
1.8655877e+3, 2.3013373e+2, -691881.44, -817757.5, 60053.73, -0.003272449, 0.0065027624, -667827.25, 16862.73 
1.8654275e+3, 2.401229e+2, -607085.4, -726017.25, 60060.45, -0.0064449813, 0.010818969, -582032.4, 4763.848 
1.8652661e+3, 2.5011152e+2, -528323.5, -647545.06, 52190.89, -0.002688102, 0.00577748, -508704.63, -19797.04 
1.8651037e+3, 2.600997e+2, -445075.25, -555151.75, 51377.76, -0.000020312487, -0.000178518, -424821.53, -33798.098 
1.8649396e+3, 2.7008784e+2, -375262.38, -476474.7, 38986.79, -0.009329054, 0.0002086, -361986.2, -68846.4 
1.8647741e+3, 2.8007576e+2, -300475.5, -384983.06, 38418.805, -0.015020622, -0.0011681542, -285620.72, -90362.74 
1.8646076e+3, 2.9006445e+2, -213740.52, -289185.38, 27230.568, 0.0017926864, 0.016363297, -204938.9, -107570.39 
1.8644394e+3, 3.0005276e+2, -151625.42, -234495.56, 22132.307, 0.0029762676, 0.043163758, -146084.92, -146084.92 
1.8642676e+3, 3.1003737e+2, -146640.28, -200367.08, 6267.302, -0.040409308, -0.09439645, -145918.88, -145918.88 
1.8640961e+3, 3.2002902e+2, -39415.105, 101744.46, 13695.38, 0.0077435407, 0.038904946, 103060.914, 103060.914 
1.8772171e+3, 1.3038586e+2, -1515253.5, -1661713.9, 9235.766, 0.000033472435, 0.00242213, -1514673.5, 147545.78 
1.8770474e+3, 1.4038031e+2, -1433637.6, -1573041.1, 14355.435, 0.0048388033, 0.0047670687, -1432174.8, 132098.86 
1.876881e+3, 1.5037438e+2, -1356252.8, -1492524.8, 36195.188, 0.00045705296, 0.009612623, -1347235.6, 119096.19 
1.8767172e+3, 1.603681e+2, -1270852.3, -1400870.4, 38300.438, 0.0013596573, 0.011974172, -1260408.8, 107984.664 
1.8765548e+3, 1.7036134e+2, -1189833.5, -1320555.1, 49879.49, 0.00090433704, 0.008515365, -1172975.0, 97484.59 
1.8763937e+3, 1.8035415e+2, -1101545.0, -1227473.1, 51403.12, -0.0018506073, 0.005200418, -1083227.1, 89303.08 
1.8762332e+3, 1.9034645e+2, -1021841.7, -1149544.3, 58502.285, -0.0005206496, 0.0047139185, -999093.3, 75512.1 
1.8760736e+3, 2.0033823e+2, -935609.8, -1058912.1, 60115.03, 0.0011504792, 0.0040938216, -911152.44, 65533.58 
1.8759139e+3, 2.1032931e+2, -855720.56, -983022.8, 61070.227, -0.0015264751, 0.009219506, -831161.5, 47611.926 
1.8757544e+3, 2.2031982e+2, -767704.56, -890077.9, 60777.984, -0.0034494777, 0.012582346, -742648.7, 38217.81 
1.8755938e+3, 2.3030964e+2, -690226.8, -814967.25, 56777.344, -0.002117761, 0.0061404267, -668254.2, 14712.132 
1.8754329e+3, 2.4029885e+2, -605472.06, -723403.9, 57113.7, -0.0013203262, 0.000018438403, -582346.9, 2724.9202 
1.8752706e+3, 2.5028765e+2, -527813.75, -646981.3, 48587.297, -0.002990594, 0.0037468586, -510514.84, -23333.357 
1.875107e+3, 2.602759e+2, -446199.66, -557806.6, 46417.47, -0.005486571, 0.0085557345, -429417.97, -40121.32 
1.8749411e+3, 2.7026367e+2, -378871.0, -484078.13, 31596.645, -0.0076073287, 0.01425153, -370111.03, -78694.63 
1.874774e+3, 2.8025112e+2, -301796.56, -388102.06, 33767.93, -0.0065045925, 0.008843941, -290154.84, -96615.57 
1.8746066e+3, 2.9023919e+2, -213927.5, -290629.84, 23584.117, -0.0018396095, -0.026161985, -207256.2, -111600.26 
1.8744367e+3, 3.0022714e+2, -152311.72, -236935.34, 13292.146, -0.009417674, -0.019108374, -150272.98, -150272.98 
1.8742616e+3, 3.1021369e+2, -148663.1, -204527.14, -7768.6997, -0.02009938, 0.058844965, -147602.86, -147602.86 
1.8740864e+3, 3.2020226e+2, -61285.25, 57819.008, 5110.276, -0.006690976, -0.02134524, 58037.867, 58037.867 
1.8872301e+3, 1.30559e+2, -1546445.8, -1669675.1, 12991.823, 0.005518174, 0.0070194206, -1545091.0, 115431.77 
1.8870595e+3, 1.4055406e+2, -1458682.6, -1577434.3, 17761.883, -0.0004675827, 0.0068210396, -1456082.9, 106488.15 
1.8868922e+3, 1.5054873e+2, -1375999.9, -1495468.1, 41011.3, -0.0017172864, 0.009155756, -1363276.5, 101346.84 
1.8867278e+3, 1.60543e+2, -1286010.5, -1401923.4, 44074.63, 0.0030941425, 0.010527636, -1271155.4, 95524.086 
1.8865646e+3, 1.7053674e+2, -1203505.8, -1321561.3, 56441.82, 0.0018993017, 0.008758419, -1180863.8, 87877.01 
1.886403e+3, 1.8053003e+2, -1113718.9, -1227702.0, 58465.555, -0.002044275, 0.006553313, -1089063.3, 81743.336 
1.886242e+3, 1.9052279e+2, -1029570.56, -1147613.3, 65470.527, -0.0007695865, 0.006377754, -1000444.8, 72432.46 
1.8860818e+3, 2.0051505e+2, -939204.2, -1055287.8, 67237.766, 0.0016314744, 0.0062870006, -908421.6, 66531.71 
1.8859217e+3, 2.1050651e+2, -857376.25, -979133.56, 69941.65, -0.0012442779, 0.009868179, -825529.3, 51507.707 
1.8857613e+3, 2.2049735e+2, -766941.8, -885169.7, 71502.266, -0.0041492158, 0.012272425, -733281.7, 45844.977 
1.8856002e+3, 2.304875e+2, -684804.8, -808291.6, 68060.38, -0.001967309, 0.0066759377, -654654.5, 26568.756 
1.8854384e+3, 2.4047703e+2, -595464.5, -715118.1, 69246.484, 0.0005876993, 0.0010862607, -563780.0, 19545.854 
1.8852754e+3, 2.5046596e+2, -516961.56, -640290.94, 60582.992, -0.002612287, 0.0064049223, -492180.7, -6746.5146 
1.8851107e+3, 2.604543e+2, -432421.0, -549987.0, 58411.355, -0.0068238727, 0.011965514, -408334.66, -20785.922 
1.8849435e+3, 2.7044186e+2, -357398.84, -475228.34, 44104.113, -0.0062547233, 0.011655405, -342719.28, -53049.05 
1.8847747e+3, 2.8042904e+2, -275593.75, -378038.5, 48681.695, -0.0025676577, 0.004137901, -256150.44, -64354.547 
1.8846059e+3, 2.904168e+2, -205376.4, -291615.72, 34816.887, -0.0033199438, -0.015285268, -193074.77, -99159.05 
1.8844342e+3, 3.0040455e+2, -147872.38, -228410.2, 21582.967, -0.016738193, -0.0025527389, -142453.11, -142453.11 
1.8842569e+3, 3.1039184e+2, -108693.76, -170581.3, 8328.203, -0.009343293, 0.044926286, -107592.625, -107592.625 
1.8840785e+3, 3.2038033e+2, -33210.785, 32293.744, 25216.414, -0.012872499, -0.039408542, 40876.434, 40876.434 
1.8972419e+3, 1.3073304e+2, -1543356.8, -1661626.1, 10775.881, 0.012789841, 0.013238847, -1542383.0, 116434.12 
1.8970703e+3, 1.4072873e+2, -1454989.0, -1567843.4, 15910.543, -0.008660541, 0.0104994625, -1452788.8, 108070.71 
1.8969028e+3, 1.5072402e+2, -1372345.8, -1486287.9, 39431.78, -0.005425776, 0.0068711163, -1360030.6, 102874.71 
1.8967377e+3, 1.607189e+2, -1282472.9, -1393496.8, 42228.793, 0.0049057296, 0.0042434335, -1268236.4, 96719.19 
1.896574e+3, 1.7071328e+2, -1200085.5, -1313640.6, 54475.984, 0.0039579957, 0.0077712163, -1178178.0, 88832.68 
1.896412e+3, 1.8070716e+2, -1110546.4, -1220829.1, 56900.34, -0.00083298126, 0.010483633, -1086452.5, 82618.34 
1.8962505e+3, 1.907004e+2, -1026501.9, -1141079.1, 64179.023, -0.0021648658, 0.011410937, -997761.8, 73375.266 
1.8960899e+3, 2.0069312e+2, -935318.0, -1047262.44, 65825.39, -0.0009664828, 0.011044551, -904884.94, 68323.5 
1.8959291e+3, 2.1068512e+2, -852813.1, -969704.8, 68192.07, -0.00030327326, 0.0068744966, -821447.6, 53838.984 
1.8957685e+3, 2.2067654e+2, -763096.56, -877364.5, 69835.89, -0.0012477096, 0.0037541494, -730001.1, 47369.57 
1.8956067e+3, 2.3066725e+2, -681503.9, -801755.44, 66195.945, -0.0023620995, 0.008912462, -652203.6, 27258.213 
1.8954444e+3, 2.4065727e+2, -592933.6, -710324.5, 67062.55, -0.002534766, 0.013114264, -562508.1, 19051.484 
1.8952803e+3, 2.5064635e+2, -515726.88, -638323.5, 57498.64, -0.0024481441, 0.013261452, -492980.1, -9313.67 
1.895115e+3, 2.6063478e+2, -430186.16, -546015.7, 55168.18, -0.0036072799, 0.009732174, -408115.63, -22335.475 
1.8949465e+3, 2.7062237e+2, -356298.16, -473329.25, 39129.023, -0.005786658, -0.008547837, -344420.88, -56519.527 
1.8947765e+3, 2.8060952e+2, -278813.34, -384837.56, 42528.43, -0.0040583974, -0.014884525, -263862.6, -73835.12 
1.8946055e+3, 2.9059735e+2, -213022.72, -306954.44, 25966.01, -0.0010769027, 0.062200047, -206322.7, -114175.875 
1.8944316e+3, 3.00585e+2, -138917.1, -208544.88, 15247.8545, -0.020440971, 0.10575263, -135724.36, -135724.36 
1.8942527e+3, 3.1057146e+2, -85854.83, -125138.73, 4283.206, -0.018364616, -0.20805743, -85393.25, -85393.25 
1.8940727e+3, 3.2056504e+2, -63647.61, -36764.03, 6801.3296, -0.0051093274, 0.117854975, -35141.297, -35141.297 
1.9072522e+3, 1.3090757e+2, -1573647.0, -1667123.3, 11460.151, 0.0040992065, 0.010502587, -1572262.5, 84844.29 
1.9070803e+3, 1.4090408e+2, -1482125.0, -1572866.6, 18112.965, 0.0005406532, 0.011476041, -1478643.0, 80497.914 
1.9069122e+3, 1.5090002e+2, -1395357.9, -1491471.6, 41701.664, -0.0026467217, 0.00916584, -1379787.0, 81393.836 
1.9067468e+3, 1.6089545e+2, -1301138.3, -1396006.4, 43997.293, 0.0014749469, 0.006615611, -1283874.9, 79350.664 
1.9065827e+3, 1.708904e+2, -1214930.8, -1313580.0, 56495.883, 0.0026697638, 0.008701915, -1189257.4, 76017.55 
1.90642e+3, 1.808849e+2, -1122588.9, -1219435.0, 59772.555, 0.00016818932, 0.01060228, -1094086.3, 73242.6 
1.9062583e+3, 1.908788e+2, -1036142.3, -1138248.6, 68481.62, -0.0018352282, 0.011531458, -1001777.94, 67610.83 
1.9060972e+3, 2.0087217e+2, -943204.94, -1043581.7, 71198.7, -0.0016579521, 0.011454478, -906283.44, 65170.332 
1.9059362e+3, 2.1086487e+2, -857975.2, -963633.4, 74082.86, -0.00030483268, 0.007946752, -819814.25, 53710.92 
1.905775e+3, 2.2085702e+2, -766351.25, -870583.75, 76657.53, 0.000028043478, 0.005073114, -725771.9, 49830.15 
1.905613e+3, 2.3084845e+2, -681763.94, -793167.0, 74850.484, -0.002723201, 0.009760237, -644163.5, 33522.676 
1.9054502e+3, 2.408392e+2, -590327.56, -700749.94, 77828.516, -0.004650818, 0.014332308, -550115.75, 29661.137 
1.9052857e+3, 2.5082895e+2, -508534.22, -626826.5, 71148.07, -0.0013261623, 0.014579857, -475158.4, 6718.888 
1.9051196e+3, 2.6081795e+2, -418335.97, -533627.8, 72362.516, 0.00040279175, 0.010503627, -383464.94, 520.1752 
1.9049501e+3, 2.708059e+2, -336733.38, -460183.44, 56574.67, -0.007851642, -0.00835409, -314728.66, -28625.611 
1.9047791e+3, 2.8079316e+2, -252106.63, -373421.16, 59567.55, -0.009348312, -0.013416152, -227748.63, -39520.754 
1.904606e+3, 2.9078022e+2, -191011.94, -309555.88, 40113.29, 0.0070226444, 0.075525075, -178714.06, -88359.05 
1.9044302e+3, 3.0076692e+2, -106813.25, -190715.86, 26572.898, -0.003135221, 0.11726022, -99105.414, -99105.414 
1.9042496e+3, 3.1075367e+2, -54362.7, -93175.81, 1128.3854, -0.028996743, -0.27828094, -54329.92, -54329.92 
1.9040684e+3, 3.2074854e+2, -39078.145, -66524.39, 7938.6606, -0.019047529, 0.16732404, -36947.36, -36947.36 
1.917261e+3, 1.3108246e+2, -1569384.8, -1654370.0, 9864.516, -0.01051577, 0.0052108057, -1568254.8, 87138.195 
1.9170891e+3, 1.4107992e+2, -1477275.8, -1562357.3, 17184.621, 0.017338796, 0.010813988, -1473936.0, 83481.91 
1.9169208e+3, 1.5107647e+2, -1392483.1, -1484317.5, 40990.008, 0.0024025866, 0.01306633, -1376848.9, 82602.74 
1.916755e+3, 1.6107246e+2, -1297976.4, -1387891.1, 43259.867, -0.00508112, 0.013300179, -1280543.3, 80947.75 
1.9165906e+3, 1.7106804e+2, -1210556.1, -1303602.4, 55419.44, -0.00047280654, 0.01072262, -1184721.0, 78813.195 
1.9164278e+3, 1.8106322e+2, -1117689.0, -1208861.5, 58853.16, 0.00060099096, 0.008539963, -1088832.0, 76749.484 
1.9162658e+3, 1.910579e+2, -1030645.25, -1126175.4, 67400.66, -0.0006022856, 0.008685948, -995800.7, 71832.89 
1.9161044e+3, 2.010521e+2, -938256.2, -1032752.94, 70046.555, -0.00056206976, 0.009237541, -901012.4, 68678.09 
1.9159429e+3, 2.1104565e+2, -852162.6, -951448.0, 72831.664, -0.00090040127, 0.01263366, -813664.25, 58089.344 
1.9157813e+3, 2.2103871e+2, -760204.0, -857942.1, 75556.56, -0.0018272754, 0.014010923, -719089.9, 54731.902 
1.9156191e+3, 2.3103099e+2, -674448.4, -778082.5, 73719.625, -0.0038820114, 0.009142154, -636156.7, 39740.684 
1.9154558e+3, 2.410227e+2, -582891.4, -685415.56, 76551.14, -0.004571249, 0.0058424193, -542023.75, 35954.746 
1.915291e+3, 2.5101364e+2, -500057.3, -609374.25, 69335.36, 0.0013427292, 0.01100328, -466426.84, 13640.634 
1.9151242e+3, 2.610038e+2, -412731.84, -522303.25, 70875.375, 0.0031471853, 0.015682045, -377936.34, 4227.6836 
1.9149545e+3, 2.7099243e+2, -333756.66, -454629.06, 54678.07, -0.013650589, 0.014137761, -312693.0, -28417.607 
1.9147825e+3, 2.8098e+2, -251876.95, -372710.2, 54843.535, -0.01986998, 0.008244365, -230697.11, -44299.953 
1.9146079e+3, 2.9096532e+2, -201372.66, -330354.38, 31731.246, 0.020181444, 0.006357267, -193989.03, -105448.08 
1.9144301e+3, 3.009501e+2, -118266.6, -215425.58, 19465.367, 0.036296014, 0.014672037, -114511.9, -114511.9 
1.9142471e+3, 3.1093857e+2, -60278.676, -107082.86, -7974.691, -0.039821606, -0.07705298, -58957.223, -58957.223 
1.9140662e+3, 3.2092813e+2, -49888.906, -94781.86, 41092.348, -0.043616764, -0.043767463, -25512.041, -25512.041 
1.9272687e+3, 1.312573e+2, -1604345.8, -1664027.4, 9195.08, -0.005183973, 0.009048631, -1602961.1, 50718.324 
1.9270968e+3, 1.4125542e+2, -1499833.0, -1565343.8, 15037.849, 0.011497092, 0.010587945, -1496546.0, 59151.957 
1.9269283e+3, 1.5125267e+2, -1412993.1, -1486791.1, 38185.17, 0.0001950841, 0.011256122, -1396791.8, 60933.016 
1.9267623e+3, 1.6124934e+2, -1318156.0, -1390313.6, 41527.586, -0.0032612223, 0.011344683, -1299223.8, 60533.723 
1.926598e+3, 1.7124566e+2, -1226883.6, -1303495.9, 53978.797, 0.0004370973, 0.011029188, -1199000.1, 62793.48 
1.9264346e+3, 1.8124157e+2, -1131403.0, -1207496.4, 57509.43, 0.00028141434, 0.010335896, -1100494.1, 63339.484 
1.9262725e+3, 1.9123703e+2, -1043222.56, -1122822.4, 65933.234, -0.00047728815, 0.009473689, -1006008.0, 59870.074 
1.9261108e+3, 2.0123209e+2, -950241.4, -1028621.3, 69147.45, 0.00038358534, 0.009227305, -909950.4, 57976.19 
1.9259492e+3, 2.1122664e+2, -860652.44, -943716.2, 73242.414, -0.0006921903, 0.012708078, -817986.06, 51993.93 
1.9257872e+3, 2.2122075e+2, -767079.94, -849420.56, 77246.375, -0.002663052, 0.014963737, -720717.44, 51320.316 
1.9256245e+3, 2.3121424e+2, -680642.75, -766393.9, 76685.43, -0.0034736109, 0.011239269, -635660.7, 38441.008 
1.925461e+3, 2.4120726e+2, -590131.5, -673344.7, 81441.56, -0.0025212471, 0.007432985, -540284.06, 35885.9 
1.9252956e+3, 2.5119975e+2, -504779.38, -591541.1, 77196.945, 0.0011518142, 0.008993023, -459609.3, 18634.416 
1.9251284e+3, 2.611916e+2, -417826.3, -505296.3, 83819.984, 0.0007363603, 0.013735518, -367017.44, 13305.832 
1.9249581e+3, 2.7118224e+2, -337287.75, -431790.9, 77107.67, -0.013397021, 0.024819972, -294105.34, -11690.193 
1.9247852e+3, 2.81172e+2, -259478.44, -346848.34, 87993.82, -0.016460119, 0.020168366, -204922.42, -20406.781 
1.9246083e+3, 2.9115972e+2, -215193.67, -301556.97, 90058.54, 0.018724225, -0.024624964, -158499.42, -71863.43 
1.9244286e+3, 3.011469e+2, -141778.39, -224614.48, 113222.06, 0.017133987, 0.009407777, -62636.535, -62636.535 
1.924247e+3, 3.1113088e+2, -56442.707, -235971.4, 55502.418, -0.08091683, 0.18049687, -40669.59, -40669.59 
1.9240654e+3, 3.211112e+2, 13074.003, 29051.512, 11042.17, 0.00021392756, -0.0049908506, 34691.76, 34691.76 
1.9372751e+3, 1.3143197e+2, -1600950.1, -1655902.4, 11514.318, 0.007222657, 0.01582703, -1598635.1, 53332.773 
1.9371034e+3, 1.4143063e+2, -1497110.1, -1555887.3, 16350.961, -0.0051064407, 0.010641725, -1492867.8, 61113.074 
1.9369349e+3, 1.5142864e+2, -1408838.4, -1476063.3, 37209.695, -0.005092226, 0.006983767, -1392307.4, 63693.004 
1.9367689e+3, 1.6142604e+2, -1313465.4, -1380018.0, 41045.86, 0.0029750394, 0.0051686433, -1293901.6, 64124.176 
1.9366044e+3, 1.7142317e+2, -1221936.0, -1292202.3, 53415.793, 0.0032768326, 0.010088101, -1193134.9, 66919.195 
1.936441e+3, 1.8141991e+2, -1126928.4, -1196979.4, 56673.195, -0.000770142, 0.013711529, -1095330.9, 66755.164 
1.9362785e+3, 1.9141617e+2, -1037411.7, -1110174.3, 64691.176, -0.001294058, 0.012270321, -999573.4, 64549.293 
1.9361165e+3, 2.0141213e+2, -943345.6, -1014154.3, 68324.305, 0.00027635015, 0.010250099, -901797.5, 64364.813 
1.9359545e+3, 2.114078e+2, -852154.56, -925468.5, 72310.484, -0.00032530286, 0.008886837, -807740.3, 60464.46 
1.9357926e+3, 2.2140314e+2, -758920.1, -831701.56, 75971.055, -0.001878281, 0.009260648, -711073.75, 59176.676 
1.9356294e+3, 2.313981e+2, -670028.8, -744007.8, 74882.75, -0.0013069606, 0.015438144, -623497.94, 48801.883 
1.9354655e+3, 2.4139278e+2, -578495.06, -649089.6, 79784.8, -0.0008982652, 0.018065222, -526548.4, 47803.67 
1.9352995e+3, 2.5138715e+2, -488472.78, -557797.3, 75279.23, -0.0029110643, 0.008251161, -440259.03, 36147.91 
1.9351318e+3, 2.6138136e+2, -399572.9, -467776.2, 82401.06, -0.0057440144, 0.004741798, -344495.75, 33968.066 
1.9349611e+3, 2.7137536e+2, -309520.47, -374957.2, 73694.414, -0.00582718, 0.023276113, -261607.81, 18914.87 
1.934787e+3, 2.8136933e+2, -223239.14, -272526.4, 79412.07, -0.00021907475, 0.023194838, -164734.8, 17847.064 
1.934607e+3, 2.913639e+2, -161737.75, -190651.05, 81575.24, -0.001625794, -0.008917508, -93348.06, -8712.848 
1.9472802e+3, 1.3160568e+2, -1623983.5, -1658632.6, 6530.8228, 0.007269996, 0.008495125, -1622793.5, 27471.9 
1.9471088e+3, 1.4160518e+2, -1523724.3, -1561794.3, 12300.056, -0.0066037104, 0.007784522, -1520096.0, 32174.324 
1.9469407e+3, 1.5160385e+2, -1429768.0, -1480065.8, 30943.645, -0.0043219053, 0.011733461, -1415042.4, 39240.98 
1.9467747e+3, 1.6160192e+2, -1329697.1, -1381072.8, 33798.414, 0.005387222, 0.013967471, -1312932.6, 43369.734 
1.9466099e+3, 1.7159969e+2, -1237899.1, -1291484.8, 45515.66, 0.0033220851, 0.011481157, -1211875.9, 46448.25 
1.9464464e+3, 1.8159719e+2, -1143310.3, -1196197.5, 49102.18, -0.0025786646, 0.009989217, -1113984.0, 46364.703 
1.9462839e+3, 1.9159439e+2, -1049704.6, -1105702.6, 57515.965, -0.0028511332, 0.012437542, -1013734.6, 48641.516 
1.9461218e+3, 2.0159134e+2, -953590.25, -1008687.06, 61226.45, -0.0010492736, 0.013508121, -914000.06, 50405.98 
1.9459595e+3, 2.1158807e+2, -863044.9, -917664.25, 64475.082, -0.0012116578, 0.010153904, -820334.2, 46103.844 
1.945797e+3, 2.2158465e+2, -771021.94, -823181.6, 68010.48, -0.0018585662, 0.008129115, -724262.3, 44209.32 
1.9456336e+3, 2.3158112e+2, -678718.9, -729891.94, 67185.74, -0.002108742, 0.013090625, -632412.5, 38093.77 
1.9454691e+3, 2.4157748e+2, -587274.0, -635071.75, 72356.73, -0.002523802, 0.016304, -534971.5, 37570.54 
1.9453026e+3, 2.515738e+2, -498214.28, -539027.0, 66201.68, -0.0028395818, 0.009332816, -449345.22, 25232.732 
1.9451343e+3, 2.6157025e+2, -414027.44, -447171.97, 72223.23, -0.0039903023, 0.005997352, -356499.53, 20113.18 
1.9449626e+3, 2.7156729e+2, -325573.56, -344329.25, 60614.016, -0.004566143, 0.019196853, -273616.25, 5025.4556 
1.9447874e+3, 2.8156483e+2, -233759.0, -237715.11, 59569.18, 0.0024357368, 0.018529894, -176135.03, 4531.14 
1.9446051e+3, 2.9156393e+2, -149897.4, -130134.08, 39188.88, -0.0073871887, 0.0012641755, -99600.2, -16925.516 
1.9572844e+3, 1.3177861e+2, -1620255.3, -1647427.3, 6778.414, 0.0015748432, -0.0038449375, -1618658.1, 29912.578 
1.9571134e+3, 1.4177895e+2, -1519679.0, -1553397.0, 13851.735, -0.0009756146, 0.0034319514, -1514718.4, 35849.117 
1.9569457e+3, 1.5177825e+2, -1426687.8, -1472953.9, 31382.707, -0.000841514, 0.020242993, -1410833.5, 41740.965 
1.9567798e+3, 1.6177692e+2, -1326257.6, -1372528.4, 33597.03, 0.0053185537, 0.029463938, -1308600.8, 45986.7 
1.956615e+3, 1.717753e+2, -1232857.0, -1280126.5, 44348.465, 0.0016125398, 0.014129472, -1206238.5, 50364.773 
1.9564512e+3, 1.8177351e+2, -1137608.3, -1183844.3, 48502.563, -0.004850728, 0.0031926117, -1106996.0, 51624.65 
1.9562885e+3, 1.9177175e+2, -1042840.6, -1090677.6, 56809.84, -0.004704808, 0.011725259, -1005119.44, 55518.574 
1.9561262e+3, 2.0176977e+2, -947429.0, -995014.7, 59897.75, -0.0028193728, 0.018563319, -906771.56, 55885.8 
1.9559637e+3, 2.1176757e+2, -855265.5, -901073.3, 62526.89, -0.0027181257, 0.01588172, -811579.6, 53099.465 
1.955801e+3, 2.2176532e+2, -761602.1, -803380.7, 66560.76, -0.0037185492, 0.011376359, -712729.7, 53971.316 
1.955637e+3, 2.317633e+2, -666651.94, -704323.56, 65275.742, -0.005833864, 0.0062566167, -617548.75, 51171.977 
1.9554722e+3, 2.4176136e+2, -575984.9, -611141.6, 69905.08, -0.005791038, 0.004626164, -521481.9, 49258.04 
1.9553049e+3, 2.5175965e+2, -484230.3, -510065.34, 62415.69, 0.0016026376, 0.012692423, -433409.44, 39347.332 
1.9551356e+3, 2.617583e+2, -396518.66, -411130.94, 67778.95, 0.0025049162, 0.017232172, -335653.22, 39116.695 
1.9549626e+3, 2.7175802e+2, -304089.5, -300157.7, 56538.695, -0.012063035, 0.011587738, -245550.72, 31221.84 
1.9547863e+3, 2.8175834e+2, -218601.3, -206633.11, 56992.617, -0.008461465, 0.008274464, -155311.3, 23458.303 
1.9546026e+3, 2.9175976e+2, -131202.56, -93622.37, 26906.596, 0.0051208436, 0.014773765, -79594.29, 1161.2579 
1.9672877e+3, 1.319507e+2, -1640339.8, -1653334.3, 576.6516, 0.004879137, 0.023318268, -1640314.1, 6570.269 
1.9671173e+3, 1.419513e+2, -1532644.0, -1555112.8, 5614.4067, -0.0029575645, 0.015878813, -1531319.3, 17559.291 
1.9669499e+3, 1.5195085e+2, -1440795.5, -1474751.4, 20606.078, -0.005252091, 0.008524155, -1431074.0, 19808.861 
1.966784e+3, 1.6194992e+2, -1341919.1, -1374863.6, 22187.244, 0.0019988585, 0.005278782, -1330757.9, 22134.113 
1.9666192e+3, 1.719491e+2, -1246154.1, -1280028.9, 31448.139, 0.0016163479, 0.010630274, -1227372.4, 27527.719 
1.9664553e+3, 1.8194811e+2, -1149688.0, -1183163.3, 34698.62, -0.0026138173, 0.013375076, -1127901.1, 29008.682 
1.9662926e+3, 1.91947e+2, -1054495.3, -1087467.9, 41453.723, 0.000019820152, 0.011300431, -1026369.8, 32550.822 
1.9661303e+3, 2.0194583e+2, -959099.3, -991010.0, 43295.453, 0.003641285, 0.010626444, -928912.8, 32019.197 
1.9659674e+3, 2.1194474e+2, -862693.06, -892134.1, 45553.027, 0.0004993995, 0.0127968835, -829541.1, 33401.445 
1.9658042e+3, 2.2194377e+2, -767900.5, -793671.44, 49139.008, -0.003548068, 0.013993902, -729985.6, 34966.605 
1.9656399e+3, 2.3194318e+2, -674494.6, -692150.1, 45658.29, -0.0051519484, 0.012324972, -636818.5, 30139.566 
1.9654745e+3, 2.4194276e+2, -584988.5, -598200.25, 49011.22, -0.0040610023, 0.010798378, -542140.0, 26822.016 
1.9653067e+3, 2.519428e+2, -486044.6, -491055.3, 40267.246, 0.0020247197, 0.014710841, -448204.84, 22756.842 
1.9651365e+3, 2.6194334e+2, -392257.38, -389001.2, 42291.785, 0.001476354, 0.016486768, -348306.2, 24650.367 
1.9649625e+3, 2.7194494e+2, -297462.84, -277228.13, 24063.865, -0.012705152, 0.007758873, -261241.27, 13699.438 
1.9647855e+3, 2.8194714e+2, -210423.3, -186707.83, 19849.191, -0.0063490565, 0.006623709, -175444.22, 1474.9578 
1.9646019e+3, 2.9194987e+2, -70644.37, -55173.176, -13392.088, 0.007168146, 0.01806311, -47443.086, 31449.545 
1.9772902e+3, 1.3212177e+2, -1641378.8, -1652123.8, 4548.51, 0.0108884685, 0.06450874, -1639711.9, 5496.0864 
1.9771206e+3, 1.4212237e+2, -1531068.3, -1550409.4, 8760.592, -0.008719217, 0.035921935, -1527690.1, 19511.85 
1.9769534e+3, 1.5212196e+2, -1438705.3, -1468603.1, 21065.07, -0.013993101, -0.010961919, -1427823.9, 21382.057 
1.9767877e+3, 1.6212128e+2, -1340086.9, -1369185.5, 22747.736, -0.002670334, -0.035729166, -1327633.5, 23579.076 
1.976623e+3, 1.7212126e+2, -1243222.6, -1272779.3, 31534.873, 0.0025793682, 0.0038946515, -1223175.0, 30037.848 
1.976459e+3, 1.8212101e+2, -1146586.9, -1176256.3, 34892.99, 0.0013982262, 0.029579794, -1123506.0, 31709.453 
1.9762962e+3, 1.9212027e+2, -1049152.1, -1077015.4, 41389.098, 0.0077825557, 0.007464524, -1019412.8, 37809.594 
1.9761337e+3, 2.0211972e+2, -952081.6, -977787.4, 43360.86, 0.013595993, -0.008756626, -919708.8, 39519.008 
1.9759706e+3, 2.121198e+2, -853330.06, -873821.4, 45141.254, 0.0056253644, 0.00029586322, -817286.3, 43940.723 
1.975807e+3, 2.221201e+2, -759751.7, -777455.44, 47885.1, -0.00190459, 0.012361103, -719907.2, 43316.918 
1.9756421e+3, 2.3212084e+2, -665595.1, -673738.9, 43467.855, -0.0011625271, 0.025644839, -626008.8, 39208.21 
1.9754761e+3, 2.4212185e+2, -574052.2, -575368.56, 47725.063, -0.0005560155, 0.02984844, -526980.75, 40226.273 
1.9753079e+3, 2.521234e+2, -473949.06, -466313.06, 38846.137, -0.0021504706, 0.014106497, -431097.75, 38094.25 
1.9751371e+3, 2.6212537e+2, -382902.84, -370015.25, 38983.79, -0.0048338543, 0.0037620428, -336946.28, 34226.258 
1.9749622e+3, 2.7212808e+2, -291867.34, -265634.56, 20282.7, -0.0051938677, 0.00779799, -254596.7, 18549.34 
1.9747846e+3, 2.8213122e+2, -202823.83, -170927.63, 19512.371, 0.0054055527, 0.01223161, -161675.05, 13440.013 
1.9746028e+3, 2.9213405e+2, -75643.65, -64453.48, 1609.2118, -0.007036045, 0.0057592806, -64226.664, 12860.765 
1.9872917e+3, 1.3229074e+2, -1652128.5, -1653146.4, 6194.8145, -0.027827868, -0.07221043, -1646421.8, -2869.9429 
1.9871241e+3, 1.4229259e+2, -1539853.8, -1551861.0, 8039.679, 0.029340912, -0.01131635, -1535823.4, 9710.352 
1.9869569e+3, 1.5229344e+2, -1449011.4, -1471047.4, 16515.479, 0.012532823, 0.04395609, -1440176.0, 7349.323 
1.9867909e+3, 1.6229348e+2, -1350774.3, -1372132.1, 17340.45, 0.0041630827, 0.067362845, -1341088.3, 8436.737 
1.9866261e+3, 1.7229287e+2, -1251895.6, -1274035.6, 24304.58, 0.0035879037, 0.022738969, -1236258.8, 15272.177 
1.9864622e+3, 1.8229246e+2, -1151986.3, -1174106.9, 26939.588, -0.0036061986, -0.0032307724, -1133924.9, 19610.117 
1.9862992e+3, 1.922928e+2, -1048019.2, -1068708.6, 33045.28, -0.017401485, 0.017308017, -1023737.25, 31794.414 
1.9861366e+3, 2.0229325e+2, -948346.44, -968955.0, 33954.363, -0.021226576, 0.030141171, -923167.25, 34360.06 
1.9859736e+3, 2.12294e+2, -848369.44, -861052.3, 33411.85, -0.00839415, 0.022872254, -820702.56, 38817.516 
1.9858097e+3, 2.2229509e+2, -756429.6, -764111.6, 33782.688, -0.00067635253, 0.011480297, -726270.3, 35238.934 
1.985644e+3, 2.3229675e+2, -664830.4, -658528.5, 29251.447, -0.004865915, -0.0069461325, -632258.75, 31234.16 
1.9854774e+3, 2.422991e+2, -574798.0, -560497.1, 36212.938, -0.0073594023, -0.011758443, -530735.44, 34734.68 
1.9853088e+3, 2.523024e+2, -469224.53, -448460.8, 26642.85, -0.00451156, 0.008380171, -430248.53, 37188.895 
1.9851379e+3, 2.62306e+2, -373057.94, -352708.3, 23819.379, -0.0032044507, 0.019756578, -336981.6, 32420.82 
1.9849624e+3, 2.7230945e+2, -274143.72, -251456.27, 5093.586, -0.00020762213, 0.017516168, -250365.17, 21003.193 
1.9847843e+3, 2.8231308e+2, -174332.95, -152429.3, 3695.951, 0.009499817, 0.012495894, -151822.47, 21510.404 
1.9846042e+3, 2.9231587e+2, -73068.74, -69817.93, -6611.8003, -0.0103941, 0.006673888, -64634.676, 10670.833 
1.9972935e+3, 1.3246141e+2, -1640866.5, -1642473.6, -5388.7476, 0.0034960455, 0.042566057, -1636221.8, 5657.377 
1.9971262e+3, 1.4246288e+2, -1546388.8, -1553875.0, -6362.0044, -0.0020540752, 0.025851699, -1542750.4, 1114.412 
1.9969596e+3, 1.5246269e+2, -1443827.1, -1469163.9, -4021.532, -0.0062390044, -0.029606186, -1443204.1, 2662.4805 
1.9967937e+3, 1.6246285e+2, -1339509.8, -1367179.1, -5973.5693, -0.0037542945, 0.0010178771, -1338275.1, 9590.136 
1.996629e+3, 1.7246306e+2, -1249747.8, -1272956.9, -1081.5586, -0.003928815, 0.028022265, -1249697.5, 165.67291 
1.9964652e+3, 1.8246277e+2, -1156705.8, -1174971.0, -1891.4557, 0.0013167697, -0.0016741508, -1156511.9, -4645.9424 
1.9963028e+3, 1.9246341e+2, -1057701.8, -1068211.3, -5712.4536, 0.013973262, 0.0030350252, -1055194.8, -1334.9652 
1.99614e+3, 2.0246457e+2, -964004.56, -971015.2, -7232.36, 0.0020719792, 0.02150237, -959472.8, -3624.5361 
1.9959764e+3, 2.1246587e+2, -865227.94, -860062.0, 3561.5024, -0.0019501188, -0.011043736, -858245.4, -409.83975 
1.9958122e+3, 2.2246829e+2, -768069.4, -758921.8, 8046.1924, 0.0040557645, 0.010113229, -754240.25, 5571.5264 
1.9956453e+3, 2.3247181e+2, -658021.3, -639402.75, -1481.638, -0.014208037, 0.043607194, -639285.56, 22491.809 
1.9954781e+3, 2.4247526e+2, -565804.25, -542915.1, 3277.9092, -0.003619887, 0.0014497401, -542454.94, 21288.705 
1.9953099e+3, 2.5247976e+2, -468683.0, -434916.44, -9357.001, 0.019405473, 0.0080495225, -432496.9, 33202.62 
1.9951385e+3, 2.6248455e+2, -370710.25, -339186.47, -2751.9795, -0.012105916, 0.009815854, -338948.03, 28704.44 
1.9949628e+3, 2.7248883e+2, -264387.4, -242984.64, -1317.246, -0.0129206255, 0.009328201, -242903.88, 26706.525 
1.994785e+3, 2.8249267e+2, -172011.9, -153154.58, 3270.326, 0.0056430516, 0.0067418884, -152603.53, 18969.275 
1.9946058e+3, 2.9249522e+2, -76197.47, -76152.39, -1295.8269, -0.0014344718, 0.014141219, -74878.91, -1330.82 
