coord_x,coord_y,stress_xx,stress_yy,tau_xy,velocity_x,velocity_y,stress_1,eps,damage,lx,ly
6.1035156e-3, 5.8730507e-3, 0.0000000033680025, -40001.633, -0.0019325736, 0.0, 0.00000015219794, 0.0000000034633558, 0.0000000034633558, 0.0, 0.012207031, 0.011746096 
6.1035156e-3, 1.7619151e-2, -0.000000002455607, -40001.86, -0.0057977233, 0.0, 0.0000004565938, -0.0000000016152626, -0.0000000016152626, 0.0, 0.012207031, 0.011746094 
6.1035156e-3, 2.936536e-2, -0.000000022718556, -39982.164, -0.00946183, 0.0, 0.0000010215903, -0.00000002048182, -0.00000002048182, 0.0, 0.012207031, 0.011746308 
6.1035156e-3, 4.1111675e-2, -0.000000027779505, -39982.21, -0.012935322, 0.0, 0.000001205093, -0.00000002359593, -0.00000002359593, 0.0, 0.012207031, 0.011746308 
6.1035156e-3, 5.2858096e-2, -0.000000034195523, -39962.574, -0.016123872, 0.0, 0.0000019046305, -0.000000027692295, -0.000000027692295, 0.0, 0.012207031, 0.011746521 
6.1035156e-3, 6.460463e-2, 0.00000002638085, -39962.688, -0.018884411, 0.0, 0.000002331365, 0.000000035310222, 0.000000035310222, 0.0, 0.012207031, 0.01174652 
6.1035156e-3, 7.635126e-2, -0.0000000017008484, -39942.99, -0.021331592, 0.0, 0.000003035789, 0.0000000096915755, 0.0000000096915755, 0.0, 0.012207031, 0.011746734 
6.1035156e-3, 8.8097996e-2, -0.0000000036188108, -39943.16, -0.023157217, 0.0, 0.0000035453797, 0.000000009807991, 0.000000009807991, 0.0, 0.012207031, 0.0117467325 
6.1035156e-3, 9.984485e-2, 0.000000009097448, -39923.406, -0.024671085, 0.0, 0.0000044926082, 0.000000024338078, 0.000000024338078, 0.0, 0.012207031, 0.011746948 
6.1035156e-3, 1.115918e-1, -0.000000048393083, -39923.63, -0.025435198, 0.0, 0.000005135087, -0.00000003218156, -0.00000003218156, 0.0, 0.012207031, 0.011746945 
6.1035156e-3, 1.2333886e-1, -0.000000058418603, -39903.824, -0.025913537, 0.0, 0.000006047314, -0.000000041589374, -0.000000041589374, 0.0, 0.012207031, 0.011747161 
6.1035156e-3, 1.3508603e-1, -0.000000002190782, -39904.098, -0.025567042, 0.0, 0.0000067540923, 0.000000014195393, 0.000000014195393, 0.0, 0.012207031, 0.011747158 
6.1035156e-3, 1.468333e-1, -0.00000008031353, -39884.242, -0.02498427, 0.0, 0.000007746436, -0.000000064661435, -0.000000064661435, 0.0, 0.012207031, 0.011747374 
6.1035156e-3, 1.5858068e-1, -0.00000003080495, -39884.566, -0.023646288, 0.0, 0.000008436537, -0.000000016785634, -0.000000016785634, 0.0, 0.012207031, 0.0117473705 
6.1035156e-3, 1.7032817e-1, -0.00000000069693684, -39864.656, -0.022083458, 0.0, 0.0000093802555, 0.000000011539669, 0.000000011539669, 0.0, 0.012207031, 0.0117475875 
6.1035156e-3, 1.8207575e-1, 0.0000000014656489, -39865.047, -0.019805921, 0.0, 0.00001017421, 0.000000011299562, 0.000000011299562, 0.0, 0.012207031, 0.011747583 
6.1035156e-3, 1.9382346e-1, -0.00000000806036, -39845.063, -0.017400548, 0.0, 0.000010979496, -0.0000000004656613, -0.0000000004656613, 0.0, 0.012207031, 0.011747801 
6.1035156e-3, 2.0557126e-1, -0.000000020257975, -39845.52, -0.014792418, 0.0, 0.000011757263, -0.000000014762918, -0.000000014762918, 0.0, 0.012207031, 0.011747795 
6.1035156e-3, 2.1731918e-1, 0.000000017414926, -39825.477, -0.011941522, 0.0, 0.000012592451, 0.000000020991138, 0.000000020991138, 0.0, 0.012207031, 0.011748014 
6.1035156e-3, 2.2906719e-1, -0.000000002416668, -39826.0, -0.008147579, 0.0, 0.000013199761, -0.0000000007566996, -0.0000000007566996, 0.0, 0.012207031, 0.011748008 
6.1035156e-3, 2.4081533e-1, -0.000000015352121, -39805.88, -0.0045871343, 0.0, 0.000014077491, -0.000000014828402, -0.000000014828402, 0.0, 0.012207031, 0.011748227 
6.1035156e-3, 2.5256354e-1, 0.000000041241755, -39806.46, -0.0033810048, 0.0, 0.000014609148, 0.00000004152389, 0.00000004152389, 0.0, 0.012207031, 0.011748221 
6.1035156e-3, 2.6431188e-1, -0.000000032931883, -39786.305, -0.0014850695, 0.0, 0.000015322668, -0.000000032880052, -0.000000032880052, 0.0, 0.012207031, 0.011748441 
6.1035156e-3, 2.7606034e-1, 0.000000023154623, -39786.94, 0.0065251626, 0.0, 0.000015848604, 0.000000024214387, 0.000000024214387, 0.0, 0.012207031, 0.011748433 
6.1035156e-3, 2.878089e-1, 0.00000003908111, -39766.71, 0.012526563, 0.0, 0.000016702275, 0.000000043030013, 0.000000043030013, 0.0, 0.012207031, 0.011748654 
6.1035156e-3, 2.9955754e-1, 0.000000010960002, -39767.39, 0.0021289818, 0.0, 0.000016739408, 0.0000000110740075, 0.0000000110740075, 0.0, 0.012207031, 0.011748646 
6.1035156e-3, 3.113063e-1, 0.000000014071592, -39747.152, -0.00022952518, 0.0, 0.00001735352, 0.000000014071702, 0.000000014071702, 0.0, 0.012207031, 0.011748867 
6.1035156e-3, 3.2305518e-1, -0.000000013008332, -39747.88, 0.03123384, 0.0, 0.000017873686, 0.000000011532393, 0.000000011532393, 0.0, 0.012207031, 0.011748859 
6.1035156e-3, 3.3480415e-1, -0.000000017462494, -39727.586, 0.08255937, 0.0, 0.000018334405, 0.00000015410478, 0.00000015410478, 0.0, 0.012207031, 0.011749079 
6.1035156e-3, 3.4655324e-1, -0.0000005374561, -39728.33, -0.7588983, 0.0, 0.000018076063, 0.000013959172, 0.000013959172, 0.0, 0.012207031, 0.011749072 
6.1035156e-3, 3.583024e-1, -0.0000011945498, -39707.9, -1.0916177, 0.0, 0.000019252517, 0.000028815324, 0.000028815324, 0.0, 0.012207031, 0.011749295 
6.1035156e-3, 3.700517e-1, -0.00000009348294, -39708.684, -0.3271194, 0.0, 0.000018506065, 0.0000026013295, 0.0000026013295, 0.0, 0.012207031, 0.011749285 
6.1035156e-3, 3.8180113e-1, 0.000000063306345, -39688.375, 0.033773046, 0.0, 0.000019638437, 0.00000009204814, 0.00000009204814, 0.0, 0.012207031, 0.011749507 
6.1035156e-3, 3.9355063e-1, 0.000000020904123, -39689.152, 0.014788099, 0.0, 0.000019200654, 0.000000026411726, 0.000000026411726, 0.0, 0.012207031, 0.011749499 
6.1035156e-3, 4.0530026e-1, -0.000000013172945, -39668.848, 0.008611191, 0.0, 0.000020009658, -0.000000011292286, -0.000000011292286, 0.0, 0.012207031, 0.011749719 
6.1035156e-3, 4.1704997e-1, -0.000000014328779, -39669.586, 0.0048904964, 0.0, 0.00001983017, -0.000000013722456, -0.000000013722456, 0.0, 0.012207031, 0.011749712 
6.1035156e-3, 4.287998e-1, 0.000000050095544, -39649.297, -0.0034980327, 0.0, 0.000020664269, 0.000000050407834, 0.000000050407834, 0.0, 0.012207031, 0.011749933 
6.1035156e-3, 4.4054973e-1, 0.000000053103065, -39650.03, -0.002705875, 0.0, 0.000020548207, 0.000000053289114, 0.000000053289114, 0.0, 0.012207031, 0.011749925 
6.1035156e-3, 4.5229977e-1, -0.00000000197259, -39629.746, 0.00068450934, 0.0, 0.000021469768, -0.0000000019645086, -0.0000000019645086, 0.0, 0.012207031, 0.011750146 
6.1035156e-3, 4.6404994e-1, 0.000000009907005, -39630.445, -0.010923697, 0.0, 0.000021544023, 0.000000012922101, 0.000000012922101, 0.0, 0.012207031, 0.011750138 
6.1035156e-3, 4.758002e-1, -0.00000006377399, -39610.184, -0.110318884, 0.0, 0.00002255174, 0.00000024347537, 0.00000024347537, 0.0, 0.012207031, 0.011750359 
6.1035156e-3, 4.8755056e-1, 0.000000007995635, -39610.887, -0.1062644, 0.0, 0.000022818649, 0.0000002930683, 0.0000002930683, 0.0, 0.012207031, 0.011750351 
6.1035156e-3, 4.9930102e-1, -0.000000013561474, -39590.68, -0.036675934, 0.0, 0.000023928094, 0.000000020409061, 0.000000020409061, 0.0, 0.012207031, 0.011750571 
6.1035156e-3, 5.110516e-1, -0.0000000071584774, -39591.324, -0.025199533, 0.0, 0.000024444587, 0.000000008876668, 0.000000008876668, 0.0, 0.012207031, 0.011750564 
6.1035156e-3, 5.228023e-1, 0.000000023686088, -39571.145, -0.012571402, 0.0, 0.000025612584, 0.000000027677743, 0.000000027677743, 0.0, 0.012207031, 0.011750784 
6.1035156e-3, 5.3455305e-1, 0.000000007397635, -39571.703, -0.01553197, 0.0, 0.000026402087, 0.000000013496901, 0.000000013496901, 0.0, 0.012207031, 0.011750778 
6.1035156e-3, 5.46304e-1, 0.000000020272683, -39551.582, -0.03779902, 0.0, 0.00002768262, 0.00000005638867, 0.00000005638867, 0.0, 0.012207031, 0.011750997 
6.1035156e-3, 5.58055e-1, -0.000000041193037, -39552.18, -0.03539694, 0.0, 0.000028745313, -0.0000000095242285, -0.0000000095242285, 0.0, 0.012207031, 0.0117509905 
6.1035156e-3, 5.6980604e-1, -0.0000000010031368, -39532.063, -0.008186035, 0.0, 0.000029991717, 0.000000000691216, 0.000000000691216, 0.0, 0.012207031, 0.01175121 
6.1035156e-3, 5.815573e-1, -0.000000005153982, -39532.547, -0.024316365, 0.0, 0.00003126645, 0.000000009807991, 0.000000009807991, 0.0, 0.012207031, 0.011751205 
6.1035156e-3, 5.933086e-1, -0.00000038572847, -39512.457, -0.6126321, 0.0, 0.000032647138, 0.000009112999, 0.000009112999, 0.0, 0.012207031, 0.011751424 
6.1035156e-3, 6.0506004e-1, -0.000000060875664, -39513.023, -0.23963617, 0.0, 0.000033849876, 0.0000013924582, 0.0000013924582, 0.0, 0.012207031, 0.011751418 
6.1035156e-3, 6.168116e-1, -0.0000000029687999, -39493.27, -0.07064427, 0.0, 0.000035360426, 0.00000012339297, 0.00000012339297, 0.0, 0.012207031, 0.011751633 
6.1035156e-3, 6.285632e-1, -0.000000026355778, -39493.78, -0.030892584, 0.0, 0.000036428057, -0.0000000021827873, -0.0000000021827873, 0.0, 0.012207031, 0.011751628 
6.1035156e-3, 6.4031494e-1, -0.0000000018840813, -39474.176, -0.0032620328, 0.0, 0.000037913247, -0.0000000016152626, -0.0000000016152626, 0.0, 0.012207031, 0.011751841 
6.1035156e-3, 6.5206677e-1, -0.000000004609072, -39474.605, -0.0014576798, 0.0, 0.000038914884, -0.0000000045474735, -0.0000000045474735, 0.0, 0.012207031, 0.011751836 
6.1035156e-3, 6.638187e-1, 0.000000003950203, -39454.617, -0.02324403, 0.0, 0.000040266357, 0.000000017644197, 0.000000017644197, 0.0, 0.012207031, 0.011752054 
6.1035156e-3, 6.755708e-1, 0.000000005048467, -39455.04, -0.08267452, 0.0, 0.0000405475, 0.00000017828279, 0.00000017828279, 0.0, 0.012207031, 0.011752049 
6.1035156e-3, 6.87323e-1, 0.0000000016469994, -39435.11, -0.00946935, 0.0, 0.000042158066, 0.000000003914465, 0.000000003914465, 0.0, 0.012207031, 0.011752266 
6.1035156e-3, 6.990752e-1, -0.000000008584569, -39435.44, -0.012424053, 0.0, 0.000042652566, -0.000000004671165, -0.000000004671165, 0.0, 0.012207031, 0.011752263 
6.1035156e-3, 7.108276e-1, 0.0000000056417875, -39415.59, -0.00058599724, 0.0, 0.000043466003, 0.000000005646143, 0.000000005646143, 0.0, 0.012207031, 0.01175248 
6.1035156e-3, 7.225801e-1, -0.00000005045688, -39415.895, -0.07193787, 0.0, 0.00004257249, 0.00000008083589, 0.00000008083589, 0.0, 0.012207031, 0.011752476 
6.1035156e-3, 7.343327e-1, -0.000000019537472, -39395.926, 0.0049658325, 0.0, 0.00004428354, -0.000000018910214, -0.000000018910214, 0.0, 0.012207031, 0.011752694 
6.1035156e-3, 7.460854e-1, 0.000000047216854, -39396.297, -0.06053151, 0.0, 0.00004418715, 0.00000014022226, 0.00000014022226, 0.0, 0.012207031, 0.01175269 
6.1035156e-3, 7.578382e-1, -0.000000009511284, -39376.637, 0.024985109, 0.0, 0.000044416443, 0.000000006344635, 0.000000006344635, 0.0, 0.012207031, 0.011752904 
6.1035156e-3, 7.695911e-1, 0.000000023737964, -39376.75, 0.14890428, 0.0, 0.000042486216, 0.0000005868278, 0.0000005868278, 0.0, 0.012207031, 0.0117529025 
6.1035156e-3, 7.813441e-1, 0.000000016289478, -39356.71, 0.030407019, 0.0, 0.00004429129, 0.000000039784936, 0.000000039784936, 0.0, 0.012207031, 0.011753121 
6.1035156e-3, 7.9309726e-1, -0.0000000025126425, -39357.18, -0.12231825, 0.0, 0.000043444397, 0.00000037763675, 0.00000037763675, 0.0, 0.012207031, 0.011753117 
6.1035156e-3, 8.0485046e-1, -0.0000000053805134, -39337.535, 0.032694757, 0.0, 0.00004349477, 0.000000021798769, 0.000000021798769, 0.0, 0.012207031, 0.011753331 
6.1035156e-3, 8.1660384e-1, 0.00000001541105, -39337.36, 0.028442468, 0.0, 0.00004165127, 0.00000003597961, 0.00000003597961, 0.0, 0.012207031, 0.011753333 
6.1035156e-3, 8.283573e-1, -0.0000016850173, -39317.54, -1.2847677, 0.0, 0.00004303457, 0.000040296967, 0.000040296967, 0.0, 0.012207031, 0.011753549 
6.1035156e-3, 8.4011084e-1, -0.0000008736687, -39317.965, -0.9284366, 0.0, 0.000041634124, 0.000021050007, 0.000021050007, 0.0, 0.012207031, 0.011753544 
6.1035156e-3, 8.5186446e-1, -0.000000098497374, -39298.64, -0.24791817, 0.0, 0.000042097796, 0.0000014655161, 0.0000014655161, 0.0, 0.012207031, 0.011753755 
6.1035156e-3, 8.6361825e-1, 0.0000000036921173, -39298.543, -0.040611435, 0.0, 0.00004115138, 0.000000045656634, 0.000000045656634, 0.0, 0.012207031, 0.011753756 
6.1035156e-3, 8.753721e-1, -0.000000027139796, -39278.74, -0.007019819, 0.0, 0.000041958738, -0.000000025880581, -0.000000025880581, 0.0, 0.012207031, 0.011753972 
6.1035156e-3, 8.871261e-1, -0.000000018736577, -39278.855, 0.000044454788, 0.0, 0.000041013656, -0.00000001873559, -0.00000001873559, 0.0, 0.012207031, 0.011753971 
6.1035156e-3, 8.988802e-1, 0.000000034476376, -39259.207, 0.009270077, 0.0, 0.00004183408, 0.00000003666355, 0.00000003666355, 0.0, 0.012207031, 0.011754185 
6.1035156e-3, 9.1063434e-1, -0.0000000070020176, -39259.25, -0.004865081, 0.0, 0.00004177326, -0.0000000064028427, -0.0000000064028427, 0.0, 0.012207031, 0.011754184 
6.1035156e-3, 9.223887e-1, -0.00000000789692, -39239.676, -0.010526449, 0.0, 0.000043086548, -0.0000000050713425, -0.0000000050713425, 0.0, 0.012207031, 0.011754397 
6.1035156e-3, 9.3414307e-1, -0.000000021369985, -39239.723, -0.0012519888, 0.0, 0.000042643216, -0.000000021333108, -0.000000021333108, 0.0, 0.012207031, 0.011754397 
6.1035156e-3, 9.458976e-1, 0.00000005282736, -39220.125, 0.0019122227, 0.0, 0.00004374107, 0.00000005291804, 0.00000005291804, 0.0, 0.012207031, 0.011754611 
6.1035156e-3, 9.576522e-1, -0.00000006510621, -39220.117, -0.025042841, 0.0, 0.00004510376, -0.000000049112714, -0.000000049112714, 0.0, 0.012207031, 0.011754611 
6.1035156e-3, 9.694069e-1, 0.000000015027132, -39200.55, -0.04313387, 0.0, 0.000047247908, 0.000000062485924, 0.000000062485924, 0.0, 0.012207031, 0.011754825 
6.1035156e-3, 9.811618e-1, 0.000000026662633, -39200.676, -0.0018298934, 0.0, 0.000047145386, 0.00000002674642, 0.00000002674642, 0.0, 0.012207031, 0.011754823 
6.1035156e-3, 9.929167e-1, -0.000000049783885, -39180.953, 0.026910124, 0.0, 0.000048627844, -0.000000031293894, -0.000000031293894, 0.0, 0.012207031, 0.011755038 
6.1035156e-3, 1.0046717e+0, -0.00000003488218, -39180.93, -0.04405, 0.0, 0.00005107167, 0.000000014646503, 0.000000014646503, 0.0, 0.012207031, 0.011755038 
6.1035156e-3, 1.0164269e+0, -0.0000000112435, -39161.465, -0.09138053, 0.0, 0.00005419541, 0.00000020198786, 0.00000020198786, 0.0, 0.012207031, 0.01175525 
6.1035156e-3, 1.0281821e+0, -0.000000010027991, -39161.61, 0.007199767, 0.0, 0.000053798998, -0.000000008702045, -0.000000008702045, 0.0, 0.012207031, 0.011755249 
6.1035156e-3, 1.0399375e+0, 0.000000006859348, -39141.836, 0.06099675, 0.0, 0.000056212943, 0.00000010191434, 0.00000010191434, 0.0, 0.012207031, 0.011755465 
6.1035156e-3, 1.05169296e+0, -0.00000001860494, -39141.785, -0.05024163, 0.0, 0.000058361562, 0.00000004588219, 0.00000004588219, 0.0, 0.012207031, 0.0117554655 
6.1035156e-3, 1.0634486e+0, 0.000000021976446, -39122.426, -0.068467565, 0.0, 0.00006136462, 0.00000014180114, 0.00000014180114, 0.0, 0.012207031, 0.011755677 
6.1035156e-3, 1.07520424e+0, 0.00000004098003, -39122.355, 0.024632743, 0.0, 0.000061164355, 0.00000005648326, 0.00000005648326, 0.0, 0.012207031, 0.011755678 
6.1035156e-3, 1.08696006e+0, -0.00000004635281, -39102.715, -0.03084667, 0.0, 0.00006432425, -0.000000022024324, -0.000000022024324, 0.0, 0.012207031, 0.011755892 
6.1035156e-3, 1.0987159e+0, 0.0000000015645802, -39102.855, -0.05097524, 0.0, 0.00006483682, 0.00000006801565, 0.00000006801565, 0.0, 0.012207031, 0.01175589 
6.1035156e-3, 1.1104719e+0, -0.000000013090878, -39083.207, 0.02443847, 0.0, 0.000067222725, 0.0000000021900632, 0.0000000021900632, 0.0, 0.012207031, 0.011756104 
6.1035156e-3, 1.12222806e+0, -0.0000000015057232, -39082.844, -0.15984668, 0.0, 0.00006693499, 0.0000006522605, 0.0000006522605, 0.0, 0.012207031, 0.011756108 
6.1035156e-3, 1.1339843e+0, -0.000003961607, -39063.76, -1.9246396, 0.0, 0.000070231385, 0.00009086381, 0.00009086381, 0.0, 0.012207031, 0.011756317 
6.1035156e-3, 1.1457406e+0, -0.00000019455521, -39063.805, -0.46915585, 0.0, 0.00006905645, 0.0000054400007, 0.0000054400007, 0.0, 0.012207031, 0.011756316 
6.1035156e-3, 1.157497e+0, -0.00000007269257, -39044.32, -0.19961113, 0.0, 0.00007083394, 0.0000009478099, 0.0000009478099, 0.0, 0.012207031, 0.011756529 
6.1035156e-3, 1.1692536e+0, 0.000000048781327, -39044.0, -0.019882666, 0.0, 0.00006955934, 0.000000058906153, 0.000000058906153, 0.0, 0.012207031, 0.011756533 
6.1035156e-3, 1.1810102e+0, -0.000000018885933, -39024.71, -0.013470213, 0.0, 0.000072505485, -0.000000014239049, -0.000000014239049, 0.0, 0.012207031, 0.011756743 
6.1035156e-3, 1.192767e+0, -0.000000008000781, -39024.39, -0.00790936, 0.0, 0.000070620306, -0.0000000064028427, -0.0000000064028427, 0.0, 0.012207031, 0.011756746 
6.1035156e-3, 1.2045238e+0, -0.000000016549043, -39005.223, 0.02857194, 0.0, 0.00007069887, 0.0000000043874024, 0.0000000043874024, 0.0, 0.012207031, 0.011756956 
6.1035156e-3, 1.2162808e+0, -0.000000018486041, -39004.766, 0.03046092, 0.0, 0.0000687535, 0.000000005296897, 0.000000005296897, 0.0, 0.012207031, 0.01175696 
6.1035156e-3, 1.22803785e+0, 0.000000005234418, -38985.613, -0.02801049, 0.0, 0.00007135452, 0.000000025356712, 0.000000025356712, 0.0, 0.012207031, 0.01175717 
6.1035156e-3, 1.2397951e+0, -0.000000044145843, -38985.26, -0.036439348, 0.0, 0.000069175236, -0.000000010084477, -0.000000010084477, 0.0, 0.012207031, 0.011757174 
6.1035156e-3, 1.2515524e+0, -0.000000017327679, -38966.473, 0.042877994, 0.0, 0.00006765061, 0.000000029853254, 0.000000029853254, 0.0, 0.012207031, 0.0117573785 
6.1035156e-3, 1.2633097e+0, -0.0000000090461665, -38965.832, 0.047222316, 0.0, 0.00006595023, 0.00000004818139, 0.00000004818139, 0.0, 0.012207031, 0.011757386 
6.1035156e-3, 1.2750672e+0, 0.0000000029733283, -38947.234, -0.049563758, 0.0, 0.00006778861, 0.00000006605114, 0.00000006605114, 0.0, 0.012207031, 0.011757588 
6.1035156e-3, 1.2868248e+0, 0.000000039468556, -38946.81, -0.047876462, 0.0, 0.000065601125, 0.000000098320015, 0.000000098320015, 0.0, 0.012207031, 0.011757593 
6.1035156e-3, 1.2985826e+0, -0.0000000058067364, -38927.824, 0.025097251, 0.0, 0.00006450005, 0.000000010375516, 0.000000010375516, 0.0, 0.012207031, 0.0117578 
6.1035156e-3, 1.3103403e+0, 0.000000023291767, -38927.063, -0.010575643, 0.0, 0.000063869375, 0.000000026164344, 0.000000026164344, 0.0, 0.012207031, 0.011757809 
6.1035156e-3, 1.3220982e+0, 0.000000023989033, -38908.32, -0.02941042, 0.0, 0.000064281994, 0.000000046216883, 0.000000046216883, 0.0, 0.012207031, 0.011758014 
6.1035156e-3, 1.3338563e+0, 0.000000007993656, -38907.543, 0.026924336, 0.0, 0.00006300639, 0.000000026630005, 0.000000026630005, 0.0, 0.012207031, 0.011758022 
6.1035156e-3, 1.3456145e+0, 0.000000016569581, -38888.633, -0.037709054, 0.0, 0.000063443986, 0.00000005313632, 0.00000005313632, 0.0, 0.012207031, 0.011758228 
6.1035156e-3, 1.3573727e+0, 0.0000000015044455, -38888.043, -0.072600745, 0.0, 0.00006395138, 0.00000013704994, 0.00000013704994, 0.0, 0.012207031, 0.011758234 
6.1035156e-3, 1.3691309e+0, -0.00000003211565, -38869.113, -0.011906051, 0.0, 0.000063893305, -0.000000028470822, -0.000000028470822, 0.0, 0.012207031, 0.011758441 
6.1035156e-3, 1.3808894e+0, -0.000000056996658, -38868.14, -0.16645037, 0.0, 0.000063951666, 0.00000065581116, 0.00000065581116, 0.0, 0.012207031, 0.011758452 
6.1035156e-3, 1.3926479e+0, -0.00000014178393, -38849.637, -0.3274347, 0.0, 0.00006521266, 0.0000026179187, 0.0000026179187, 0.0, 0.012207031, 0.011758653 
6.1035156e-3, 1.4044067e+0, 0.0000000277719, -38849.04, -0.20160139, 0.0, 0.00006696869, 0.0000010739532, 0.0000010739532, 0.0, 0.012207031, 0.01175866 
6.1035156e-3, 1.4161655e+0, -0.000000015682907, -38830.145, -0.049435306, 0.0, 0.00006793718, 0.000000047257345, 0.000000047257345, 0.0, 0.012207031, 0.011758867 
6.1035156e-3, 1.4279243e+0, -0.00000000638919, -38829.3, -0.013535034, 0.0, 0.00006727622, -0.0000000016734703, -0.0000000016734703, 0.0, 0.012207031, 0.011758876 
6.1035156e-3, 1.4396833e+0, -0.000000029805918, -38810.484, -0.017261865, 0.0, 0.00007003484, -0.000000022118911, -0.000000022118911, 0.0, 0.012207031, 0.011759081 
6.1035156e-3, 1.4514424e+0, 0.000000025102, -38809.688, -0.035401847, 0.0, 0.00007345853, 0.000000057392754, 0.000000057392754, 0.0, 0.012207031, 0.01175909 
6.1035156e-3, 1.4632015e+0, 0.00000004647134, -38791.016, -0.024363812, 0.0, 0.000075232136, 0.00000006177288, 0.00000006177288, 0.0, 0.012207031, 0.011759294 
6.1035156e-3, 1.4749609e+0, -0.000000032480052, -38790.184, 0.030149119, 0.0, 0.0000725255, -0.000000009044015, -0.000000009044015, 0.0, 0.012207031, 0.011759303 
6.1035156e-3, 1.4867203e+0, 0.000000008538972, -38771.344, 0.027390879, 0.0, 0.00007663972, 0.000000027896021, 0.000000027896021, 0.0, 0.012207031, 0.011759508 
6.1035156e-3, 1.4984798e+0, -0.0000000023227666, -38770.496, -0.057430122, 0.0, 0.000082052546, 0.000000082749466, 0.000000082749466, 0.0, 0.012207031, 0.011759518 
6.1035156e-3, 1.5102395e+0, 0.000000035991533, -38751.984, -0.047240198, 0.0, 0.000084141444, 0.00000009357609, 0.00000009357609, 0.0, 0.012207031, 0.01175972 
6.1035156e-3, 1.5219991e+0, -0.000000045556995, -38751.1, 0.094963, 0.0, 0.00007860925, 0.00000018715946, 0.00000018715946, 0.0, 0.012207031, 0.01175973 
6.1035156e-3, 1.533759e+0, -0.000000028223639, -38732.184, 0.09369908, 0.0, 0.00008349551, 0.00000019845174, 0.00000019845174, 0.0, 0.012207031, 0.011759937 
6.1035156e-3, 1.545519e+0, 0.000000034727677, -38731.242, -0.09024618, 0.0, 0.00008939315, 0.0000002450106, 0.0000002450106, 0.0, 0.012207031, 0.011759947 
6.1035156e-3, 1.557279e+0, -0.000000019350201, -38713.0, -0.08422064, 0.0, 0.000090914466, 0.0000001638764, 0.0000001638764, 0.0, 0.012207031, 0.011760146 
6.1035156e-3, 1.5690392e+0, -0.000000059360886, -38711.918, 0.13069963, 0.0, 0.000084760286, 0.00000038191502, 0.00000038191502, 0.0, 0.012207031, 0.0117601575 
6.1035156e-3, 1.5807995e+0, -0.000000012076812, -38693.21, 0.106040634, 0.0, 0.00008970194, 0.00000027853093, 0.00000027853093, 0.0, 0.012207031, 0.011760362 
6.1035156e-3, 1.5925598e+0, -0.000000045758114, -38692.145, -0.058330227, 0.0, 0.00009241461, 0.000000042178726, 0.000000042178726, 0.0, 0.012207031, 0.011760374 
6.1035156e-3, 1.6043203e+0, 0.000000007190784, -38673.973, 0.010887955, 0.0, 0.0000925708, 0.000000010251824, 0.000000010251824, 0.0, 0.012207031, 0.011760572 
6.1035156e-3, 1.6160809e+0, 0.00000003594717, -38672.59, 0.054236095, 0.0, 0.0000900166, 0.00000011200609, 0.00000011200609, 0.0, 0.012207031, 0.011760588 
6.1035156e-3, 1.6278416e+0, 0.000000012741628, -38654.246, -0.055093564, 0.0, 0.00009339529, 0.00000009126961, 0.00000009126961, 0.0, 0.012207031, 0.011760788 
6.1035156e-3, 1.6396025e+0, -0.000000010065397, -38653.258, 0.059855834, 0.0, 0.00009170833, 0.000000082625775, 0.000000082625775, 0.0, 0.012207031, 0.011760798 
6.1035156e-3, 1.6513632e+0, -0.000000041340368, -38634.656, 0.134058, 0.0, 0.000091995025, 0.0000004238318, 0.0000004238318, 0.0, 0.012207031, 0.011761001 
6.1035156e-3, 1.6631243e+0, -0.000000026869852, -38633.355, -0.06166567, 0.0, 0.000091976704, 0.00000007155904, 0.00000007155904, 0.0, 0.012207031, 0.011761016 
6.1035156e-3, 1.6748855e+0, -0.000000013181023, -38615.438, -0.014211361, 0.0, 0.00009232605, -0.000000007959898, -0.000000007959898, 0.0, 0.012207031, 0.011761212 
6.1035156e-3, 1.6866466e+0, 0.000000018794012, -38613.613, 0.020111185, 0.0, 0.000090821326, 0.000000029263902, 0.000000029263902, 0.0, 0.012207031, 0.011761231 
6.1035156e-3, 1.698408e+0, -0.0000001862959, -38595.176, -0.45658395, 0.0, 0.000091555594, 0.0000052151227, 0.0000052151227, 0.0, 0.012207031, 0.011761433 
6.1035156e-3, 1.7101695e+0, -0.000001981143, -38594.32, -1.404367, 0.0, 0.000090597314, 0.00004912085, 0.00004912085, 0.0, 0.012207031, 0.011761443 
6.1035156e-3, 1.721931e+0, -0.00000014131406, -38576.8, -0.37905127, 0.0, 0.0000902203, 0.0000035832054, 0.0000035832054, 0.0, 0.012207031, 0.011761634 
6.1035156e-3, 1.7336926e+0, 0.000000025880283, -38574.84, -0.039351806, 0.0, 0.00009014058, 0.00000006602204, 0.00000006602204, 0.0, 0.012207031, 0.011761655 
6.1035156e-3, 1.7454544e+0, -0.000000008875155, -38556.664, -0.01646553, 0.0, 0.000089873, -0.0000000018480932, -0.0000000018480932, 0.0, 0.012207031, 0.0117618535 
6.1035156e-3, 1.7572162e+0, 0.00000003280037, -38555.13, -0.020900946, 0.0, 0.0000898511, 0.000000044128683, 0.000000044128683, 0.0, 0.012207031, 0.01176187 
6.1035156e-3, 1.7689782e+0, 0.0000000079863245, -38537.145, -0.012588308, 0.0, 0.00008930114, 0.0000000121071935, 0.0000000121071935, 0.0, 0.012207031, 0.011762067 
6.1035156e-3, 1.7807403e+0, 0.000000046980077, -38535.566, -0.020240348, 0.0, 0.00008969565, 0.000000057611032, 0.000000057611032, 0.0, 0.012207031, 0.011762084 
6.1035156e-3, 1.7925026e+0, -0.0000000032836478, -38517.594, -0.018545633, 0.0, 0.00009023122, 0.000000005646143, 0.000000005646143, 0.0, 0.012207031, 0.011762281 
6.1035156e-3, 1.8042648e+0, 0.000000003935498, -38516.01, -0.021570278, 0.0, 0.00009083254, 0.000000016021659, 0.000000016021659, 0.0, 0.012207031, 0.011762298 
6.1035156e-3, 1.8160272e+0, 0.000000007816721, -38498.066, -0.021077592, 0.0, 0.00009056128, 0.000000019354047, 0.000000019354047, 0.0, 0.012207031, 0.011762494 
6.1035156e-3, 1.8277898e+0, 0.0000000032413978, -38496.42, -0.019401725, 0.0, 0.00009095468, 0.000000013023964, 0.000000013023964, 0.0, 0.012207031, 0.011762512 
6.1035156e-3, 1.8395522e+0, 0.000000027170676, -38478.523, -0.02210089, 0.0, 0.00009403177, 0.000000039857696, 0.000000039857696, 0.0, 0.012207031, 0.0117627075 
6.1035156e-3, 1.851315e+0, -0.000000020797561, -38476.86, -0.021932587, 0.0, 0.00009481313, -0.000000008294592, -0.000000008294592, 0.0, 0.012207031, 0.011762726 
6.1035156e-3, 1.8630779e+0, -0.000000010625526, -38459.004, -0.012669269, 0.0, 0.00009436092, -0.0000000064464984, -0.0000000064464984, 0.0, 0.012207031, 0.011762921 
6.1035156e-3, 1.8748409e+0, 0.000000016587046, -38457.266, -0.005582054, 0.0, 0.00009384821, 0.000000017396815, 0.000000017396815, 0.0, 0.012207031, 0.01176294 
6.1035156e-3, 1.8866038e+0, 0.0000000036477226, -38439.457, -0.018386982, 0.0, 0.00010039348, 0.0000000124418875, 0.0000000124418875, 0.0, 0.012207031, 0.011763135 
6.1035156e-3, 1.8983671e+0, 0.000000029632405, -38437.75, -0.022547524, 0.0, 0.000101975565, 0.000000042862666, 0.000000042862666, 0.0, 0.012207031, 0.011763154 
6.1035156e-3, 1.9101302e+0, -0.0000000064452155, -38420.605, 0.013213363, 0.0, 0.000099661425, -0.000000001899025, -0.000000001899025, 0.0, 0.012207031, 0.011763341 
6.1035156e-3, 1.9218937e+0, -0.00000004500528, -38418.758, 0.035525788, 0.0, 0.000096569755, -0.000000012150849, -0.000000012150849, 0.0, 0.012207031, 0.011763361 
6.1035156e-3, 1.9336571e+0, 0.00000000955005, -38400.973, -0.02029553, 0.0, 0.00010746227, 0.000000020278094, 0.000000020278094, 0.0, 0.012207031, 0.011763556 
6.1035156e-3, 1.9454208e+0, 0.000000007924103, -38399.2, -0.046235282, 0.0, 0.000110379086, 0.00000006359187, 0.00000006359187, 0.0, 0.012207031, 0.011763575 
6.1035156e-3, 1.9571844e+0, -0.000000015073136, -38381.652, 0.047200184, 0.0, 0.00010515943, 0.000000042971806, 0.000000042971806, 0.0, 0.012207031, 0.011763766 
6.1035156e-3, 1.9689481e+0, -0.00000006969838, -38379.54, 0.11008807, 0.0, 0.00009852166, 0.00000024608016, 0.00000024608016, 0.0, 0.012207031, 0.01176379 
6.1035156e-3, 1.9807121e+0, -0.000000016138515, -38361.84, -0.015025802, 0.0, 0.0001129515, -0.000000010251824, -0.000000010251824, 0.0, 0.012207031, 0.011763983 
6.1035156e-3, 1.992476e+0, -0.000000026604935, -38359.973, -0.101558544, 0.0, 0.000116695686, 0.00000024226756, 0.00000024226756, 0.0, 0.012207031, 0.011764004 
6.1035156e-3, 2.00424e+0, -0.000000016891255, -38342.78, 0.06520774, 0.0, 0.00010945643, 0.000000093998096, 0.000000093998096, 0.0, 0.012207031, 0.011764192 
6.1035156e-3, 2.0160043e+0, -0.000000043201464, -38340.246, 0.18172722, 0.0, 0.00010201428, 0.0000008181596, 0.0000008181596, 0.0, 0.012207031, 0.011764219 
6.1035156e-3, 2.0277686e+0, -0.000000036201186, -38322.797, -0.004067795, 0.0, 0.00011577987, -0.000000035768608, -0.000000035768608, 0.0, 0.012207031, 0.01176441 
6.1035156e-3, 2.0395331e+0, 0.000000032638734, -38320.723, -0.11345172, 0.0, 0.000117271484, 0.00000036852725, 0.00000036852725, 0.0, 0.012207031, 0.011764433 
6.1035156e-3, 2.0512977e+0, -0.00000005445766, -38303.766, 0.023224019, 0.0, 0.0001115615, -0.000000040381565, -0.000000040381565, 0.0, 0.012207031, 0.011764619 
6.1035156e-3, 2.0630622e+0, 0.0000000042991743, -38300.918, 0.112503566, 0.0, 0.00010887674, 0.00000033475953, 0.00000033475953, 0.0, 0.012207031, 0.011764649 
6.1035156e-3, 2.074827e+0, -0.000000028051792, -38283.984, -0.01860813, 0.0, 0.00011641959, -0.000000019004801, -0.000000019004801, 0.0, 0.012207031, 0.011764835 
6.1035156e-3, 2.086592e+0, -0.000000016369071, -38281.57, 0.046346843, 0.0, 0.000112498936, 0.00000003974128, 0.00000003974128, 0.0, 0.012207031, 0.011764861 
6.1035156e-3, 2.0983568e+0, -0.000000003280374, -38264.4, 0.08272244, 0.0, 0.00011290739, 0.00000017554703, 0.00000017554703, 0.0, 0.012207031, 0.011765049 
6.1035156e-3, 2.110122e+0, -0.0000000020034128, -38261.7, -0.09685469, 0.0, 0.00011493244, 0.00000024317706, 0.00000024317706, 0.0, 0.012207031, 0.011765079 
6.1035156e-3, 2.1218869e+0, 0.000000011675234, -38245.258, -0.030607328, 0.0, 0.00011491102, 0.00000003617606, 0.00000003617606, 0.0, 0.012207031, 0.011765258 
6.1035156e-3, 2.1336524e+0, 0.00000003929771, -38242.14, 0.13664815, 0.0, 0.00011140461, 0.0000005275797, 0.0000005275797, 0.0, 0.012207031, 0.011765292 
6.1035156e-3, 2.1454176e+0, -0.000000011101549, -38225.4, -0.019045135, 0.0, 0.00011519072, -0.0000000016079866, -0.0000000016079866, 0.0, 0.012207031, 0.011765475 
6.1035156e-3, 2.1571831e+0, -0.00000000901058, -38222.7, -0.0138748465, 0.0, 0.00011508331, -0.000000003972673, -0.000000003972673, 0.0, 0.012207031, 0.011765505 
6.1035156e-3, 2.168949e+0, -0.000000018181646, -38205.973, 0.103939146, 0.0, 0.000114634066, 0.00000026458292, 0.00000026458292, 0.0, 0.012207031, 0.011765688 
6.1035156e-3, 2.1807146e+0, -0.000000025334785, -38202.758, -0.11810658, 0.0, 0.00011572253, 0.0000003397945, 0.0000003397945, 0.0, 0.012207031, 0.011765723 
6.1035156e-3, 2.1924803e+0, -0.000000058916854, -38186.746, -0.1122479, 0.0, 0.00011638934, 0.00000027102942, 0.00000027102942, 0.0, 0.012207031, 0.011765898 
6.1035156e-3, 2.2042462e+0, 0.000000034961595, -38183.17, -0.0025451956, 0.0, 0.00011624467, 0.000000035128323, 0.000000035128323, 0.0, 0.012207031, 0.011765937 
6.1035156e-3, 2.2160122e+0, -0.0000002893324, -38166.254, -0.5128911, 0.0, 0.00011839792, 0.00000660307, 0.00000660307, 0.0, 0.012207031, 0.011766123 
6.1035156e-3, 2.2277784e+0, -0.0000007563673, -38164.01, -0.88613373, 0.0, 0.0001178426, 0.000019818857, 0.000019818857, 0.0, 0.012207031, 0.011766147 
6.1035156e-3, 2.2395447e+0, -0.00000024637924, -38148.12, -0.49810416, 0.0, 0.000119219534, 0.000006257418, 0.000006257418, 0.0, 0.012207031, 0.01176632 
6.1035156e-3, 2.2513111e+0, -0.000000057554047, -38144.594, -0.10500629, 0.0, 0.000120119905, 0.0000002315137, 0.0000002315137, 0.0, 0.012207031, 0.011766359 
6.1035156e-3, 2.2630775e+0, -0.0000000039439265, -38127.93, -0.05635716, 0.0, 0.0001222098, 0.00000007935887, 0.00000007935887, 0.0, 0.012207031, 0.011766542 
6.1035156e-3, 2.2748442e+0, 0.000000017860833, -38124.85, -0.033326387, 0.0, 0.00012128929, 0.00000004699541, 0.00000004699541, 0.0, 0.012207031, 0.011766575 
6.1035156e-3, 2.2866109e+0, -0.000000052893313, -38108.4, -0.020922858, 0.0, 0.00012347955, -0.000000041407475, -0.000000041407475, 0.0, 0.012207031, 0.011766755 
6.1035156e-3, 2.2983775e+0, -0.000000053576844, -38105.26, -0.033069257, 0.0, 0.00012345292, -0.000000024876499, -0.000000024876499, 0.0, 0.012207031, 0.0117667895 
6.1035156e-3, 2.3101445e+0, -0.00000002635071, -38088.88, -0.029232102, 0.0, 0.0001269945, -0.000000003914465, -0.000000003914465, 0.0, 0.012207031, 0.011766968 
6.1035156e-3, 2.3219113e+0, 0.000000009156125, -38085.67, -0.02661624, 0.0, 0.00012514298, 0.000000027757778, 0.000000027757778, 0.0, 0.012207031, 0.011767004 
6.1035156e-3, 2.3336785e+0, -0.000000009475489, -38069.344, -0.022772105, 0.0, 0.00012696174, 0.000000004147296, 0.000000004147296, 0.0, 0.012207031, 0.0117671825 
6.1035156e-3, 2.3454456e+0, 0.000000018287501, -38066.113, -0.021579264, 0.0, 0.00012655601, 0.000000030515366, 0.000000030515366, 0.0, 0.012207031, 0.011767218 
6.1035156e-3, 2.357213e+0, 0.000000007503747, -38049.797, -0.02301246, 0.0, 0.00013196593, 0.00000002142042, 0.00000002142042, 0.0, 0.012207031, 0.011767397 
6.1035156e-3, 2.3689803e+0, 0.000000019299607, -38046.547, -0.018772487, 0.0, 0.00012845203, 0.00000002856541, 0.00000002856541, 0.0, 0.012207031, 0.011767432 
6.1035156e-3, 2.3807481e+0, 0.000000056562705, -38030.293, -0.0072097746, 0.0, 0.00012843715, 0.0000000579239, 0.0000000579239, 0.0, 0.012207031, 0.01176761 
6.1035156e-3, 2.3925157e+0, -0.00000002326302, -38026.895, -0.0073966845, 0.0, 0.00012807982, -0.000000021820597, -0.000000021820597, 0.0, 0.012207031, 0.011767647 
6.1035156e-3, 2.4042833e+0, 0.000000016128084, -38010.84, -0.02475224, 0.0, 0.00013603536, 0.00000003225432, 0.00000003225432, 0.0, 0.012207031, 0.011767822 
6.1035156e-3, 2.4160512e+0, 0.0000000075958715, -38007.26, -0.012733655, 0.0, 0.0001308821, 0.000000011859811, 0.000000011859811, 0.0, 0.012207031, 0.011767861 
6.1035156e-3, 2.4278192e+0, 0.000000010243983, -37991.418, 0.020285102, 0.0, 0.00012700155, 0.00000002107845, 0.00000002107845, 0.0, 0.012207031, 0.011768035 
6.1035156e-3, 2.4395874e+0, -0.000000007776169, -37987.566, 0.008629677, 0.0, 0.00012808069, -0.00000000581349, -0.00000000581349, 0.0, 0.012207031, 0.0117680775 
6.1035156e-3, 2.4513555e+0, -0.000000010033378, -37971.813, -0.033596903, 0.0, 0.00013781025, 0.000000019696017, 0.000000019696017, 0.0, 0.012207031, 0.01176825 
6.1035156e-3, 2.4631238e+0, 0.000000011182543, -37968.152, -0.016845144, 0.0, 0.00013228403, 0.000000018662831, 0.000000018662831, 0.0, 0.012207031, 0.01176829 
6.1035156e-3, 2.4748921e+0, 0.0000000052737636, -37952.39, 0.056376513, 0.0, 0.00012530264, 0.00000008902134, 0.00000008902134, 0.0, 0.012207031, 0.011768462 
6.1035156e-3, 2.4866605e+0, 0.000000039691628, -37948.367, 0.046713356, 0.0, 0.00012756464, 0.00000009719224, 0.00000009719224, 0.0, 0.012207031, 0.011768506 
6.1035156e-3, 2.4984291e+0, 0.00000001746202, -37932.855, -0.04134706, 0.0, 0.0001367221, 0.000000062536856, 0.000000062536856, 0.0, 0.012207031, 0.011768676 
6.1035156e-3, 2.5101978e+0, -0.000051883668, -37928.902, -7.4594607, 0.0, 0.00013361884, 0.0014151651, 0.0014151651, 0.0, 0.012207031, 0.011768719 
6.1035156e-3, 2.5219667e+0, 0.00000000802759, -37913.375, 0.074822396, 0.0, 0.00012502013, 0.00000015568367, 0.00000015568367, 0.0, 0.012207031, 0.01176889 
6.1035156e-3, 2.5337356e+0, -0.000000006390611, -37909.152, 0.048529696, 0.0, 0.00012818162, 0.000000055733835, 0.000000055733835, 0.0, 0.012207031, 0.011768935 
6.1035156e-3, 2.5455046e+0, -0.000000111589486, -37894.008, -0.28361824, 0.0, 0.00013512064, 0.0000020111547, 0.0000020111547, 0.0, 0.012207031, 0.011769101 
6.1035156e-3, 2.5572738e+0, 0.000000005467253, -37889.86, 0.0044417777, 0.0, 0.00013351443, 0.000000005980837, 0.000000005980837, 0.0, 0.012207031, 0.011769147 
6.1035156e-3, 2.569043e+0, 0.000000007155249, -37874.863, 0.030109115, 0.0, 0.00012875251, 0.000000031090167, 0.000000031090167, 0.0, 0.012207031, 0.011769311 
6.1035156e-3, 2.5808126e+0, -0.000000009051541, -37870.563, -0.008380632, 0.0, 0.00013066051, -0.000000007195922, -0.000000007195922, 0.0, 0.012207031, 0.011769358 
6.1035156e-3, 2.5925818e+0, 0.0000000033449181, -37855.39, 0.026976753, 0.0, 0.00013395771, 0.00000002257002, 0.00000002257002, 0.0, 0.012207031, 0.011769524 
6.1035156e-3, 2.6043513e+0, 0.000000029057508, -37850.992, 0.057843, 0.0, 0.00013768933, 0.00000011744851, 0.00000011744851, 0.0, 0.012207031, 0.011769572 
6.1035156e-3, 2.6161212e+0, 0.0000000008272102, -37835.71, -0.01887978, 0.0, 0.00013396026, 0.000000010251824, 0.000000010251824, 0.0, 0.012207031, 0.01176974 
6.1035156e-3, 2.6278907e+0, 0.00000003193436, -37831.5, -0.018034656, 0.0, 0.00013151504, 0.000000040527084, 0.000000040527084, 0.0, 0.012207031, 0.011769786 
6.1035156e-3, 2.6396605e+0, 0.0000000037104837, -37816.324, 0.03527565, 0.0, 0.00013767132, 0.00000003661262, 0.00000003661262, 0.0, 0.012207031, 0.011769952 
6.1035156e-3, 2.6514307e+0, -0.00000003060385, -37811.71, -0.0334365, 0.0, 0.00014703201, -0.000000001033186, -0.000000001033186, 0.0, 0.012207031, 0.011770003 
6.1035156e-3, 2.6632005e+0, -0.0000000042418034, -37796.89, -0.008560724, 0.0, 0.0001396122, -0.0000000022992026, -0.0000000022992026, 0.0, 0.012207031, 0.011770165 
6.1035156e-3, 2.674971e+0, -0.000000019966146, -37792.285, 0.103071675, 0.0, 0.00013273802, 0.0000002611414, 0.0000002611414, 0.0, 0.012207031, 0.011770215 
6.1035156e-3, 2.686741e+0, 0.0000000029694769, -37776.94, -0.022385843, 0.0, 0.00014481175, 0.000000016232661, 0.000000016232661, 0.0, 0.012207031, 0.011770383 
6.1035156e-3, 2.6985115e+0, -0.000000053769025, -37772.797, -0.112885036, 0.0, 0.00015501061, 0.00000028358772, 0.00000028358772, 0.0, 0.012207031, 0.011770428 
6.1035156e-3, 2.7102822e+0, -0.0000000350197, -37757.75, 0.027790662, 0.0, 0.0001462664, -0.000000014566467, -0.000000014566467, 0.0, 0.012207031, 0.011770593 
6.1035156e-3, 2.722053e+0, -0.0000000070228903, -37753.066, 0.03049918, 0.0, 0.000139268, 0.000000017615093, 0.000000017615093, 0.0, 0.012207031, 0.011770644 
6.1035156e-3, 2.7338237e+0, 0.000000011580688, -37738.066, -0.043396056, 0.0, 0.00015112617, 0.00000006148912, 0.00000006148912, 0.0, 0.012207031, 0.011770809 
6.1035156e-3, 2.7455944e+0, -0.000000030351966, -37733.414, -0.08220923, 0.0, 0.00015824313, 0.00000014874968, 0.00000014874968, 0.0, 0.012207031, 0.011770859 
6.1035156e-3, 2.757365e+0, -0.00000009781797, -37718.363, -0.2717776, 0.0, 0.00015294718, 0.0000018604624, 0.0000018604624, 0.0, 0.012207031, 0.011771024 
6.1035156e-3, 2.7691364e+0, -0.00000007814774, -37713.95, -0.38170135, 0.0, 0.00014783553, 0.0000037850332, 0.0000037850332, 0.0, 0.012207031, 0.011771073 
6.1035156e-3, 2.7809078e+0, -0.00000007296496, -37699.305, -0.24935867, 0.0, 0.00015718519, 0.0000015763944, 0.0000015763944, 0.0, 0.012207031, 0.011771234 
6.1035156e-3, 2.7926788e+0, -0.000000015986082, -37694.44, -0.08573819, 0.0, 0.00015750452, 0.00000017902494, 0.00000017902494, 0.0, 0.012207031, 0.011771287 
6.1035156e-3, 2.80445e+0, -0.000000028372732, -37679.574, -0.015716508, 0.0, 0.00015618514, -0.000000021820597, -0.000000021820597, 0.0, 0.012207031, 0.01177145 
6.1035156e-3, 2.8162217e+0, -0.000000005262003, -37674.652, -0.0489184, 0.0, 0.00015665786, 0.000000058258593, 0.000000058258593, 0.0, 0.012207031, 0.011771503 
6.1035156e-3, 2.827993e+0, -0.00000001557111, -37660.13, -0.066183016, 0.0, 0.00016061394, 0.00000010073563, 0.00000010073563, 0.0, 0.012207031, 0.011771662 
6.1035156e-3, 2.839765e+0, -0.000000013676354, -37655.145, 0.034072325, 0.0, 0.00015547452, 0.000000017156708, 0.000000017156708, 0.0, 0.012207031, 0.011771717 
6.1035156e-3, 2.851537e+0, -0.000000001748163, -37640.492, 0.017563391, 0.0, 0.00015834029, 0.0000000064464984, 0.0000000064464984, 0.0, 0.012207031, 0.011771877 
6.1035156e-3, 2.8633088e+0, -0.000000013012498, -37635.4, -0.07388814, 0.0, 0.0001594333, 0.00000013205135, 0.00000013205135, 0.0, 0.012207031, 0.011771933 
6.1035156e-3, 2.8750807e+0, -0.0000000058213585, -37621.184, -0.014277518, 0.0, 0.00015888452, -0.00000000040745363, -0.00000000040745363, 0.0, 0.012207031, 0.011772089 
6.1035156e-3, 2.8868526e+0, 0.000000007588874, -37615.9, -0.022323858, 0.0, 0.0001569012, 0.000000020838343, 0.000000020838343, 0.0, 0.012207031, 0.011772147 
6.1035156e-3, 2.8986248e+0, -0.00000006771164, -37601.87, -0.10248139, 0.0, 0.00015792385, 0.0000002115994, 0.0000002115994, 0.0, 0.012207031, 0.011772301 
6.1035156e-3, 2.9103974e+0, 0.0000000050724633, -37596.52, 0.026718548, 0.0, 0.00015648412, 0.000000024054316, 0.000000024054316, 0.0, 0.012207031, 0.01177236 
6.1035156e-3, 2.9221696e+0, 0.0000000013033294, -37582.227, 0.0622505, 0.0, 0.00015963338, 0.00000010440999, 0.00000010440999, 0.0, 0.012207031, 0.011772516 
6.1035156e-3, 2.9339424e+0, 0.000000024229802, -37576.668, -0.07206412, 0.0, 0.00015691337, 0.00000016243575, 0.00000016243575, 0.0, 0.012207031, 0.011772577 
6.1035156e-3, 2.945715e+0, -0.000000031561168, -37562.996, 0.012154404, 0.0, 0.00015105269, -0.000000027634087, -0.000000027634087, 0.0, 0.012207031, 0.011772727 
6.1035156e-3, 2.9574877e+0, -0.000000025109715, -37556.984, 0.024125427, 0.0, 0.00015689859, -0.00000000961154, -0.00000000961154, 0.0, 0.012207031, 0.011772793 
6.1035156e-3, 2.9692608e+0, -0.0000000769291, -37543.36, -0.11096893, 0.0, 0.00016388673, 0.0000002510642, 0.0000002510642, 0.0, 0.012207031, 0.011772942 
6.1035156e-3, 2.9810336e+0, -0.000000018161769, -37537.707, 0.061762407, 0.0, 0.0001544753, 0.00000008346251, 0.00000008346251, 0.0, 0.012207031, 0.011773003 
6.1035156e-3, 2.9928067e+0, -0.000000032204397, -37523.723, 0.10238355, 0.0, 0.00014781757, 0.00000024714245, 0.00000024714245, 0.0, 0.012207031, 0.011773157 
6.1035156e-3, 3.00458e+0, -0.000000036103916, -37517.918, -0.08607851, 0.0, 0.00015905466, 0.00000016139529, 0.00000016139529, 0.0, 0.012207031, 0.01177322 
6.1035156e-3, 3.0163532e+0, -0.00000002001676, -37504.168, -0.06071562, 0.0, 0.00016412807, 0.00000007828203, 0.00000007828203, 0.0, 0.012207031, 0.011773371 
6.1035156e-3, 3.0281267e+0, -0.00000005568502, -37497.996, -0.25846538, 0.0, 0.00015543468, 0.0000017258571, 0.0000017258571, 0.0, 0.012207031, 0.011773439 
6.1035156e-3, 3.0399e+0, -0.0000029846262, -37484.855, -1.6567041, 0.0, 0.00015334676, 0.0000702361, 0.0000702361, 0.0, 0.012207031, 0.011773583 
6.1035156e-3, 3.0516738e+0, -0.0000006732769, -37479.17, -0.8081912, 0.0, 0.00016154758, 0.000016754355, 0.000016754355, 0.0, 0.012207031, 0.011773645 
6.1035156e-3, 3.0634475e+0, -0.0000000005227589, -37465.316, -0.044662386, 0.0, 0.00016136488, 0.00000005272159, 0.00000005272159, 0.0, 0.012207031, 0.011773797 
6.1035156e-3, 3.0752212e+0, -0.00000003119423, -37459.25, 0.035422433, 0.0, 0.00015742023, 0.0000000023064786, 0.0000000023064786, 0.0, 0.012207031, 0.011773864 
6.1035156e-3, 3.0869955e+0, 0.00000003651891, -37445.73, -0.020207128, 0.0, 0.00016557389, 0.00000004742469, 0.00000004742469, 0.0, 0.012207031, 0.011774012 
6.1035156e-3, 3.0987695e+0, -0.000000002899375, -37439.586, -0.029076995, 0.0, 0.00016457905, 0.000000019688741, 0.000000019688741, 0.0, 0.012207031, 0.011774079 
6.1035156e-3, 3.1105435e+0, -0.0000000063087877, -37426.414, 0.11832107, 0.0, 0.00015998956, 0.000000367756, 0.000000367756, 0.0, 0.012207031, 0.011774223 
6.1035156e-3, 3.1223178e+0, -0.000000020853175, -37419.746, 0.05986861, 0.0, 0.00016349011, 0.00000007492781, 0.00000007492781, 0.0, 0.012207031, 0.011774297 
6.1035156e-3, 3.134092e+0, -0.00000003009819, -37406.78, -0.08833919, 0.0, 0.00017242577, 0.00000017851562, 0.00000017851562, 0.0, 0.012207031, 0.011774438 
6.1035156e-3, 3.1458667e+0, -0.000000007508637, -37400.49, 0.035407845, 0.0, 0.00016660817, 0.000000026011548, 0.000000026011548, 0.0, 0.012207031, 0.011774507 
6.1035156e-3, 3.1576413e+0, 0.00000002224276, -37387.07, 0.017448738, 0.0, 0.00016831444, 0.000000030391675, 0.000000030391675, 0.0, 0.012207031, 0.0117746545 
6.1035156e-3, 3.169416e+0, -0.000000057947148, -37380.867, -0.09998315, 0.0, 0.00016764, 0.00000020947482, 0.00000020947482, 0.0, 0.012207031, 0.0117747225 
6.1035156e-3, 3.1811908e+0, -0.00000006389377, -37367.977, 0.11563822, 0.0, 0.00017370764, 0.00000029396324, 0.00000029396324, 0.0, 0.012207031, 0.011774864 
6.1035156e-3, 3.1929654e+0, 0.000000019574276, -37360.9, 0.10477532, 0.0, 0.00017560182, 0.0000003134046, 0.0000003134046, 0.0, 0.012207031, 0.011774941 
6.1035156e-3, 3.2047406e+0, -0.000000017007972, -37348.49, -0.12728135, 0.0, 0.00017285797, 0.0000004167523, 0.0000004167523, 0.0, 0.012207031, 0.011775077 
6.1035156e-3, 3.2165158e+0, 0.000000014731885, -37341.668, 0.00008260639, 0.0, 0.00016199266, 0.000000014733814, 0.000000014733814, 0.0, 0.012207031, 0.011775153 
6.1035156e-3, 3.228291e+0, -0.0000000127074165, -37329.176, -0.006187118, 0.0, 0.00018206061, -0.000000011670636, -0.000000011670636, 0.0, 0.012207031, 0.01177529 
6.1035156e-3, 3.2400662e+0, 0.0000000072793442, -37322.4, -0.108858936, 0.0, 0.00018753854, 0.00000032479147, 0.00000032479147, 0.0, 0.012207031, 0.011775363 
6.1035156e-3, 3.2518417e+0, -0.0000000727369, -37310.48, 0.29864427, 0.0, 0.00016989576, 0.000002317698, 0.000002317698, 0.0, 0.012207031, 0.011775495 
6.1035156e-3, 3.2636172e+0, -0.0000032511302, -37302.297, -1.738115, 0.0, 0.00015885483, 0.00007773701, 0.00007773701, 0.0, 0.012207031, 0.011775584 
6.1035156e-3, 3.275393e+0, -0.000000045663608, -37290.11, 0.1554523, 0.0, 0.0001853324, 0.00000060237653, 0.00000060237653, 0.0, 0.012207031, 0.011775718 
6.1035156e-3, 3.2871687e+0, -0.0000000039258814, -37282.656, -0.06293548, 0.0, 0.00019366518, 0.00000010230724, 0.00000010230724, 0.0, 0.012207031, 0.011775799 
6.1035156e-3, 3.2989445e+0, -0.00000011037223, -37270.547, -0.38809848, 0.0, 0.00017112134, 0.0000039309016, 0.0000039309016, 0.0, 0.012207031, 0.011775932 
6.1035156e-3, 3.3107206e+0, -0.00000038981833, -37263.27, -0.6300369, 0.0, 0.00015914199, 0.0000102626655, 0.0000102626655, 0.0, 0.012207031, 0.011776012 
6.1035156e-3, 3.3224967e+0, -0.00000016079665, -37251.848, -0.4457002, 0.0, 0.0001846404, 0.0000051717943, 0.0000051717943, 0.0, 0.012207031, 0.011776137 
6.1035156e-3, 3.3342728e+0, -0.000000042750028, -37243.824, -0.17194086, 0.0, 0.0001918267, 0.0000007510316, 0.0000007510316, 0.0, 0.012207031, 0.011776226 
6.1035156e-3, 3.3460492e+0, -0.000000009045872, -37232.047, -0.02347412, 0.0, 0.00017274897, 0.0000000057552825, 0.0000000057552825, 0.0, 0.012207031, 0.011776354 
6.1035156e-3, 3.3578256e+0, 0.00000002027818, -37223.918, -0.04599246, 0.0, 0.0001687482, 0.00000007710332, 0.00000007710332, 0.0, 0.012207031, 0.011776444 
6.1035156e-3, 3.369602e+0, -0.000000011477731, -37212.57, -0.092123106, 0.0, 0.00017974917, 0.0000002165907, 0.0000002165907, 0.0, 0.012207031, 0.011776568 
6.1035156e-3, 3.3813787e+0, -0.000000041118074, -37204.613, 0.13752323, 0.0, 0.00018702143, 0.00000046722562, 0.00000046722562, 0.0, 0.012207031, 0.011776655 
6.1035156e-3, 3.3931553e+0, 0.000000020628706, -37192.56, 0.044068597, 0.0, 0.00018331155, 0.00000007284689, 0.00000007284689, 0.0, 0.012207031, 0.011776787 
6.1035156e-3, 3.4049323e+0, -0.000000078344755, -37184.78, -0.27201027, 0.0, 0.00016703423, 0.0000019114377, 0.0000019114377, 0.0, 0.012207031, 0.011776873 
6.1035156e-3, 3.4167093e+0, 0.000000020609153, -37173.855, -0.004582465, 0.0, 0.00016715546, 0.000000021173037, 0.000000021173037, 0.0, 0.012207031, 0.011776993 
6.1035156e-3, 3.4284863e+0, -0.00000003548234, -37165.023, 0.14537199, 0.0, 0.00020715804, 0.0000005331458, 0.0000005331458, 0.0, 0.012207031, 0.01177709 
6.1035156e-3, 3.4402633e+0, -0.000000059792924, -37153.785, -0.15536228, 0.0, 0.00019839237, 0.00000058986916, 0.00000058986916, 0.0, 0.012207031, 0.011777213 
6.1035156e-3, 3.4520406e+0, -0.00000007440433, -37146.24, 0.14431928, 0.0, 0.00014433246, 0.0000004862959, 0.0000004862959, 0.0, 0.012207031, 0.011777296 
6.1035156e-3, 3.463818e+0, -0.0000000666054, -37133.77, 0.25363377, 0.0, 0.00016226099, 0.0000016657796, 0.0000016657796, 0.0, 0.012207031, 0.011777433 
6.1035156e-3, 3.4755954e+0, -0.00000017155378, -37125.883, -0.37741834, 0.0, 0.0002291384, 0.000003665249, 0.000003665249, 0.0, 0.012207031, 0.011777519 
6.1035156e-3, 3.487373e+0, 0.0000000011986007, -37115.38, -0.12654634, 0.0, 0.0002034296, 0.00000043266482, 0.00000043266482, 0.0, 0.012207031, 0.011777634 
6.1035156e-3, 3.499151e+0, -0.0000000652566, -37106.324, 0.24934489, 0.0, 0.0001450524, 0.0000016102786, 0.0000016102786, 0.0, 0.012207031, 0.011777733 
6.1035156e-3, 3.5109288e+0, -0.00000010216247, -37094.832, -0.2760343, 0.0, 0.00016693777, 0.000001951892, 0.000001951892, 0.0, 0.012207031, 0.011777859 
6.1035156e-3, 3.5227066e+0, -0.00000007012796, -37087.29, -0.22573474, 0.0, 0.00022176259, 0.0000013038225, 0.0000013038225, 0.0, 0.012207031, 0.011777942 
6.1035156e-3, 3.5344845e+0, 0.0000000028936895, -37075.586, -0.06964164, 0.0, 0.00021217362, 0.00000013371027, 0.00000013371027, 0.0, 0.012207031, 0.011778071 
6.1035156e-3, 3.5462624e+0, 0.000000010096055, -37068.367, 0.0563802, 0.0, 0.00016105168, 0.000000095853466, 0.000000095853466, 0.0, 0.012207031, 0.01177815 
6.1035156e-3, 3.558041e+0, -0.00000089712375, -37057.207, 0.9609606, 0.0, 0.00016874906, 0.00002402233, 0.00002402233, 0.0, 0.012207031, 0.011778273 
6.1035156e-3, 3.5698193e+0, -0.00014893667, -37047.52, -12.597735, 0.0, 0.0002181489, 0.00413483, 0.00413483, 0.0, 0.012207031, 0.011778379 
6.1035156e-3, 3.5815975e+0, -0.00000015431927, -37036.54, 0.390095, 0.0, 0.00020501405, 0.0000039544393, 0.0000039544393, 0.0, 0.012207031, 0.011778499 
6.1035156e-3, 3.5933763e+0, -0.00000003781285, -37028.086, 0.24249907, 0.0, 0.0001757454, 0.0000015503247, 0.0000015503247, 0.0, 0.012207031, 0.011778592 
6.1035156e-3, 3.6051548e+0, -0.00000049174236, -37016.055, -0.73117423, 0.0, 0.00019436826, 0.000013951059, 0.000013951059, 0.0, 0.012207031, 0.011778723 
6.1035156e-3, 3.6169335e+0, -0.0000021181754, -37009.074, -1.4294857, 0.0, 0.00020086636, 0.000053096104, 0.000053096104, 0.0, 0.012207031, 0.011778801 
6.1035156e-3, 3.6287123e+0, -0.0000004091897, -36999.145, -0.6158103, 0.0, 0.00019009077, 0.000009840296, 0.000009840296, 0.0, 0.012207031, 0.01177891 
6.1035156e-3, 3.6404914e+0, 0.00000002180414, -36989.12, -0.05945115, 0.0, 0.00019448291, 0.000000117361196, 0.000000117361196, 0.0, 0.012207031, 0.01177902 
6.1035156e-3, 3.6522704e+0, -0.00000006009678, -36978.617, -0.19069706, 0.0, 0.00020402552, 0.000000923319, 0.000000923319, 0.0, 0.012207031, 0.011779135 
6.1035156e-3, 3.6640495e+0, 0.000000009347956, -36969.895, 0.07403898, 0.0, 0.00019155715, 0.00000015762635, 0.00000015762635, 0.0, 0.012207031, 0.01177923 
6.1035156e-3, 3.675829e+0, -0.000000025985669, -36958.945, 0.16674782, 0.0, 0.0001944131, 0.000000726337, 0.000000726337, 0.0, 0.012207031, 0.01177935 
6.1035156e-3, 3.6876085e+0, -0.0000000018724058, -36949.7, -0.07494619, 0.0, 0.00020042743, 0.00000015014666, 0.00000015014666, 0.0, 0.012207031, 0.011779452 
6.1035156e-3, 3.699388e+0, -0.000000040019394, -36940.016, 0.028923485, 0.0, 0.00019364785, -0.00000001736771, -0.00000001736771, 0.0, 0.012207031, 0.011779558 
6.1035156e-3, 3.7111676e+0, -0.000000010372122, -36929.914, 0.07751414, 0.0, 0.00019532928, 0.00000015232217, 0.00000015232217, 0.0, 0.012207031, 0.01177967 
6.1035156e-3, 3.7229472e+0, -0.00000007135766, -36920.11, -0.20624433, 0.0, 0.00020405847, 0.000001080778, 0.000001080778, 0.0, 0.012207031, 0.011779777 
6.1035156e-3, 3.7347272e+0, 0.00000006099952, -36911.02, -0.05559314, 0.0, 0.00019486753, 0.00000014473335, 0.00000014473335, 0.0, 0.012207031, 0.011779876 
6.1035156e-3, 3.746507e+0, -0.00000007020903, -36900.73, 0.2534419, 0.0, 0.00019598904, 0.0000016704871, 0.0000016704871, 0.0, 0.012207031, 0.011779989 
6.1035156e-3, 3.758287e+0, -0.000000036686952, -36890.633, -0.059168644, 0.0, 0.00020820317, 0.000000058214937, 0.000000058214937, 0.0, 0.012207031, 0.011780101 
6.1035156e-3, 3.770067e+0, 0.00000004083923, -36881.438, -0.12754534, 0.0, 0.00018949909, 0.00000048192305, 0.00000048192305, 0.0, 0.012207031, 0.011780201 
6.1035156e-3, 3.7818474e+0, -0.000000015770558, -36871.445, 0.10747496, 0.0, 0.00018980865, 0.00000029749935, 0.00000029749935, 0.0, 0.012207031, 0.011780311 
6.1035156e-3, 3.793628e+0, -0.000000009288214, -36861.46, -0.15261964, 0.0, 0.00021860165, 0.00000062261097, 0.00000062261097, 0.0, 0.012207031, 0.01178042 
6.1035156e-3, 3.8054085e+0, -0.000000018288187, -36852.14, -0.14314173, 0.0, 0.00021374166, 0.00000053770054, 0.00000053770054, 0.0, 0.012207031, 0.011780523 
6.1035156e-3, 3.817189e+0, -0.00000003026997, -36842.223, 0.16949368, 0.0, 0.00017896519, 0.0000007494964, 0.0000007494964, 0.0, 0.012207031, 0.011780632 
6.1035156e-3, 3.8289696e+0, -0.00000033395568, -36831.945, -0.566244, 0.0, 0.000193311, 0.000008371317, 0.000008371317, 0.0, 0.012207031, 0.011780744 
6.1035156e-3, 3.8407505e+0, -0.000000012269364, -36823.27, 0.067313924, 0.0, 0.00022236512, 0.00000011078373, 0.00000011078373, 0.0, 0.012207031, 0.01178084 
6.1035156e-3, 3.8525313e+0, -0.000000052018017, -36812.156, 0.24922337, 0.0, 0.0002264175, 0.0000016352569, 0.0000016352569, 0.0, 0.012207031, 0.011780962 
6.1035156e-3, 3.8643125e+0, -0.000000104555376, -36802.953, -0.32197788, 0.0, 0.00018538134, 0.0000027123315, 0.0000027123315, 0.0, 0.012207031, 0.011781063 
6.1035156e-3, 3.8760933e+0, 0.000000014987046, -36793.5, -0.08903028, 0.0, 0.00017871628, 0.00000023041503, 0.00000023041503, 0.0, 0.012207031, 0.011781167 
6.1035156e-3, 3.8878745e+0, 0.000000010601072, -36783.523, 0.185405, 0.0, 0.00023144054, 0.00000094512507, 0.00000094512507, 0.0, 0.012207031, 0.011781276 
6.1035156e-3, 3.899656e+0, 0.00000000374633, -36774.242, -0.055472836, 0.0, 0.0002534095, 0.00000008742063, 0.00000008742063, 0.0, 0.012207031, 0.011781379 
6.1035156e-3, 3.9114374e+0, -0.0000013123898, -36766.242, 1.1312876, 0.0, 0.00018200425, 0.00003349704, 0.00003349704, 0.0, 0.012207031, 0.011781466 
6.1035156e-3, 3.9232188e+0, -0.00004095535, -36753.863, -6.896695, 0.0, 0.00016769914, 0.0012531781, 0.0012531781, 0.0, 0.012207031, 0.011781602 
6.1035156e-3, 3.9350006e+0, -0.00000086713015, -36743.305, 0.9313672, 0.0, 0.00023978355, 0.000022741115, 0.000022741115, 0.0, 0.012207031, 0.011781718 
6.1035156e-3, 3.9467826e+0, 0.0000000051180113, -36734.418, -0.065473884, 0.0, 0.0002642876, 0.00000012181408, 0.00000012181408, 0.0, 0.012207031, 0.011781815 
6.1035156e-3, 3.9585644e+0, -0.000000053573967, -36725.758, 0.17806748, 0.0, 0.00019161165, 0.0000008098068, 0.0000008098068, 0.0, 0.012207031, 0.01178191 
6.1035156e-3, 3.9703462e+0, -0.000000051955972, -36714.75, 0.22655535, 0.0, 0.00017003562, 0.0000013460449, 0.0000013460449, 0.0, 0.012207031, 0.0117820315 
6.1035156e-3, 3.9821285e+0, -0.00000005372052, -36705.61, -0.06895078, 0.0, 0.00023743353, 0.0000000758082, 0.0000000758082, 0.0, 0.012207031, 0.011782132 
6.1035156e-3, 3.9939106e+0, -0.000000067355096, -36695.484, -0.1654282, 0.0, 0.00025724713, 0.00000067841756, 0.00000067841756, 0.0, 0.012207031, 0.011782243 
6.1035156e-3, 4.005693e+0, -0.000000038106243, -36686.76, 0.053971518, 0.0, 0.00020188006, 0.000000041298335, 0.000000041298335, 0.0, 0.012207031, 0.011782339 
6.1035156e-3, 4.0174752e+0, -0.000000075562696, -36675.707, 0.22765937, 0.0, 0.00019149632, 0.0000013375975, 0.0000013375975, 0.0, 0.012207031, 0.011782461 
6.1035156e-3, 4.029258e+0, -0.000000018530189, -36666.55, 0.002598803, 0.0, 0.00023352464, -0.000000018349965, -0.000000018349965, 0.0, 0.012207031, 0.011782561 
6.1035156e-3, 4.0410405e+0, 0.00000000059569943, -36656.418, -0.074540354, 0.0, 0.00022859473, 0.00000015217665, 0.00000015217665, 0.0, 0.012207031, 0.011782672 
6.1035156e-3, 4.0528232e+0, 0.000000008881936, -36647.707, 0.2544334, 0.0, 0.00020913057, 0.0000017753409, 0.0000017753409, 0.0, 0.012207031, 0.011782768 
6.1035156e-3, 4.064606e+0, -0.0000029306907, -36636.277, -1.6337261, 0.0, 0.00022244014, 0.000069922266, 0.000069922266, 0.0, 0.012207031, 0.011782894 
6.1035156e-3, 4.0763888e+0, 0.0000000065549273, -36627.94, 0.12675925, 0.0, 0.00022733073, 0.0000004452304, 0.0000004452304, 0.0, 0.012207031, 0.011782985 
6.1035156e-3, 4.088172e+0, -0.000000011114513, -36616.914, 0.23456852, 0.0, 0.00020275399, 0.0000014915349, 0.0000014915349, 0.0, 0.012207031, 0.011783106 
6.1035156e-3, 4.099955e+0, 0.00000006627184, -36608.207, 0.1218419, 0.0, 0.00021691716, 0.00000047178764, 0.00000047178764, 0.0, 0.012207031, 0.011783202 
6.1035156e-3, 4.1117388e+0, -0.000000048170534, -36597.01, -0.16921683, 0.0, 0.00023142638, 0.000000734246, 0.000000734246, 0.0, 0.012207031, 0.011783325 
6.1035156e-3, 4.1235217e+0, 0.000000028966786, -36589.473, 0.02152954, 0.0, 0.00021550147, 0.00000004163303, 0.00000004163303, 0.0, 0.012207031, 0.011783408 
6.1035156e-3, 4.1353053e+0, -0.00000009539778, -36577.375, 0.16353858, 0.0, 0.00020903077, 0.0000006357877, 0.0000006357877, 0.0, 0.012207031, 0.01178354 
6.1035156e-3, 4.147089e+0, 0.000000032773013, -36569.445, -0.06443153, 0.0, 0.00022405283, 0.0000001462904, 0.0000001462904, 0.0, 0.012207031, 0.011783628 
6.1035156e-3, 4.1588727e+0, 0.000000010332951, -36558.105, 0.09799933, 0.0, 0.0002135656, 0.00000027303759, 0.00000027303759, 0.0, 0.012207031, 0.011783753 
6.1035156e-3, 4.1706562e+0, -0.000000038340954, -36549.953, 0.22215241, 0.0, 0.00021208833, 0.0000013119061, 0.0000013119061, 0.0, 0.012207031, 0.011783842 
6.1035156e-3, 4.1824403e+0, -0.000000058966542, -36537.633, -0.19813947, 0.0, 0.00022480848, 0.00000101552, 0.00000101552, 0.0, 0.012207031, 0.011783977 
6.1035156e-3, 4.1942245e+0, -0.00000014282587, -36531.285, -0.3530401, 0.0, 0.00021339822, 0.000003268964, 0.000003268964, 0.0, 0.012207031, 0.011784047 
6.1035156e-3, 4.2060083e+0, -0.0000001048612, -36518.52, 0.3024987, 0.0, 0.00021288169, 0.0000024008696, 0.0000024008696, 0.0, 0.012207031, 0.0117841875 
6.1035156e-3, 4.2177925e+0, 0.000000003376895, -36510.965, 0.11377102, 0.0, 0.00023385197, 0.0000003578898, 0.0000003578898, 0.0, 0.012207031, 0.01178427 
6.1035156e-3, 4.2295772e+0, -0.000000060347524, -36499.28, -0.24486099, 0.0, 0.00021460463, 0.0000015823462, 0.0000015823462, 0.0, 0.012207031, 0.011784399 
6.1035156e-3, 4.2413616e+0, 0.000000015710349, -36492.418, 0.07969519, 0.0, 0.00019384031, 0.0000001897497, 0.0000001897497, 0.0, 0.012207031, 0.011784474 
6.1035156e-3, 4.253146e+0, -0.00000006657801, -36479.258, -0.06972748, 0.0, 0.00023665192, 0.00000006670598, 0.00000006670598, 0.0, 0.012207031, 0.011784619 
6.1035156e-3, 4.2649308e+0, -0.00000005360961, -36473.055, -0.15192999, 0.0, 0.00024987687, 0.0000005792608, 0.0000005792608, 0.0, 0.012207031, 0.011784687 
6.1035156e-3, 4.2767152e+0, 0.000000010518963, -36459.883, 0.09709693, 0.0, 0.00021005438, 0.0000002691013, 0.0000002691013, 0.0, 0.012207031, 0.011784832 
6.1035156e-3, 4.2885002e+0, -0.00000001439339, -36453.125, -0.14960667, 0.0, 0.00019704584, 0.00000059961167, 0.00000059961167, 0.0, 0.012207031, 0.011784906 
6.1035156e-3, 4.3002853e+0, -0.00000003132617, -36440.75, -0.054369844, 0.0, 0.00023991101, 0.000000049796654, 0.000000049796654, 0.0, 0.012207031, 0.0117850425 
6.1035156e-3, 4.3120703e+0, -0.000000086595676, -36433.777, 0.30183196, 0.0, 0.00026222834, 0.0000024139008, 0.0000024139008, 0.0, 0.012207031, 0.011785119 
6.1035156e-3, 4.3238553e+0, -0.00000003789344, -36420.137, -0.22151875, 0.0, 0.00022977144, 0.0000013094541, 0.0000013094541, 0.0, 0.012207031, 0.011785269 
6.1035156e-3, 4.335641e+0, -0.00000005965483, -36414.914, -0.21810398, 0.0, 0.00018568427, 0.0000012466553, 0.0000012466553, 0.0, 0.012207031, 0.011785326 
6.1035156e-3, 4.3474263e+0, -0.000000036149544, -36400.95, 0.17418583, 0.0, 0.00023886154, 0.0000007973649, 0.0000007973649, 0.0, 0.012207031, 0.011785479 
6.1035156e-3, 4.359212e+0, -0.00000003113649, -36394.64, -0.3161986, 0.0, 0.00029590807, 0.0000027160204, 0.0000027160204, 0.0, 0.012207031, 0.011785549 
6.1035156e-3, 4.3709975e+0, -0.00000001473861, -36381.99, -0.039775923, 0.0, 0.00023641, 0.000000028747309, 0.000000028747309, 0.0, 0.012207031, 0.011785688 
6.1035156e-3, 4.382783e+0, -0.00000009616249, -36375.09, 0.3421782, 0.0, 0.00017762007, 0.0000031226882, 0.0000031226882, 0.0, 0.012207031, 0.011785763 
6.1035156e-3, 4.3945688e+0, -0.00000013587886, -36362.14, -0.06779301, 0.0, 0.00024581124, -0.000000009480573, -0.000000009480573, 0.0, 0.012207031, 0.011785906 
6.1035156e-3, 4.406355e+0, -0.0000011437892, -36357.965, 1.0663565, 0.0, 0.00030105517, 0.000030131785, 0.000030131785, 0.0, 0.012207031, 0.011785952 
6.1035156e-3, 4.418141e+0, -0.00006322806, -36342.313, -8.0968895, 0.0, 0.00024579707, 0.0017407193, 0.0017407193, 0.0, 0.012207031, 0.011786124 
6.1035156e-3, 4.4299275e+0, -0.0000021899389, -36334.52, 1.463248, 0.0, 0.00019255264, 0.000056737343, 0.000056737343, 0.0, 0.012207031, 0.011786209 
6.1035156e-3, 4.4417134e+0, 0.000000007936307, -36322.074, 0.09214513, 0.0, 0.00024665488, 0.00000024170004, 0.00000024170004, 0.0, 0.012207031, 0.011786346 
6.1035156e-3, 4.4535e+0, 0.00000001729054, -36316.742, -0.19050153, 0.0, 0.0002881595, 0.000001016575, 0.000001016575, 0.0, 0.012207031, 0.011786405 
6.1035156e-3, 4.465286e+0, -0.000000012291089, -36303.445, -0.014718139, 0.0, 0.00024373269, -0.000000006322807, -0.000000006322807, 0.0, 0.012207031, 0.011786551 
6.1035156e-3, 4.4770727e+0, -0.000000063538046, -36297.285, 0.15009026, 0.0, 0.00022359547, 0.0000005570837, 0.0000005570837, 0.0, 0.012207031, 0.011786619 
6.1035156e-3, 4.4888598e+0, 0.000000035689705, -36283.4, 0.024814999, 0.0, 0.00025540023, 0.000000052656105, 0.000000052656105, 0.0, 0.012207031, 0.011786772 
6.1035156e-3, 4.5006466e+0, -0.00000003273665, -36277.89, -0.03674636, 0.0, 0.00025554028, 0.000000004489266, 0.000000004489266, 0.0, 0.012207031, 0.0117868325 
6.1035156e-3, 4.5124334e+0, 0.000000013969094, -36263.992, 0.1027189, 0.0, 0.0002354543, 0.00000030492083, 0.00000030492083, 0.0, 0.012207031, 0.011786985 
6.1035156e-3, 4.5242205e+0, 0.000000032182204, -36258.16, -0.04119664, 0.0, 0.00025428802, 0.000000078987796, 0.000000078987796, 0.0, 0.012207031, 0.0117870495 
6.1035156e-3, 4.5360073e+0, 0.000000014260423, -36244.45, -0.10741991, 0.0, 0.0002568435, 0.00000033262768, 0.00000033262768, 0.0, 0.012207031, 0.0117872 
6.1035156e-3, 4.5477948e+0, -0.00000008265181, -36239.383, 0.25977433, 0.0, 0.00023292936, 0.0000017794882, 0.0000017794882, 0.0, 0.012207031, 0.011787256 
6.1035156e-3, 4.5595822e+0, -0.00000070306464, -36224.2, -0.80210376, 0.0, 0.00024118854, 0.000017057733, 0.000017057733, 0.0, 0.012207031, 0.011787423 
6.1035156e-3, 4.5713696e+0, -0.0000000035952832, -36219.4, -0.061635673, 0.0, 0.0002558531, 0.00000010129588, 0.00000010129588, 0.0, 0.012207031, 0.011787476 
6.1035156e-3, 4.583157e+0, -0.000000016331805, -36205.355, -0.00045497104, 0.0, 0.0002369908, -0.000000016327249, -0.000000016327249, 0.0, 0.012207031, 0.01178763 
6.1035156e-3, 4.594945e+0, -0.00000008965779, -36200.063, 0.13569048, 0.0, 0.00023913156, 0.0000004189642, 0.0000004189642, 0.0, 0.012207031, 0.011787688 
6.1035156e-3, 4.6067324e+0, 0.00000004508875, -36185.38, -0.08191298, 0.0, 0.00026049893, 0.00000023051689, 0.00000023051689, 0.0, 0.012207031, 0.0117878495 
6.1035156e-3, 4.61852e+0, 0.000000012225661, -36181.207, 0.10133614, 0.0, 0.000235393, 0.00000029604416, 0.00000029604416, 0.0, 0.012207031, 0.011787896 
6.1035156e-3, 4.6303087e+0, -0.00000015222211, -36165.66, 0.3762557, 0.0, 0.00022487513, 0.000003762223, 0.000003762223, 0.0, 0.012207031, 0.0117880665 
6.1035156e-3, 4.6420965e+0, 0.00000001509438, -36160.703, -0.13648333, 0.0, 0.00025287873, 0.0000005302354, 0.0000005302354, 0.0, 0.012207031, 0.011788121 
6.1035156e-3, 4.6538848e+0, -0.00000007944246, -36146.395, -0.33231822, 0.0, 0.00025221563, 0.0000029757866, 0.0000029757866, 0.0, 0.012207031, 0.011788279 
6.1035156e-3, 4.6656728e+0, -0.000000069848106, -36142.277, 0.2271394, 0.0, 0.0002285599, 0.0000013576282, 0.0000013576282, 0.0, 0.012207031, 0.0117883235 
6.1035156e-3, 4.6774617e+0, -0.000000058917635, -36126.152, 0.28476167, 0.0, 0.00025277073, 0.0000021856977, 0.0000021856977, 0.0, 0.012207031, 0.011788501 
6.1035156e-3, 4.68925e+0, -0.00000011643471, -36122.242, -0.18272161, 0.0, 0.0002485655, 0.0000008078423, 0.0000008078423, 0.0, 0.012207031, 0.011788544 
6.1035156e-3, 4.701039e+0, 0.000000082433026, -36106.957, -0.013960674, 0.0, 0.00022701871, 0.000000087842636, 0.000000087842636, 0.0, 0.012207031, 0.011788713 
6.1035156e-3, 4.7128272e+0, 0.000000022006054, -36102.83, 0.029773224, 0.0, 0.0002431187, 0.000000046551577, 0.000000046551577, 0.0, 0.012207031, 0.0117887575 
6.1035156e-3, 4.724616e+0, 0.000000027371456, -36087.285, 0.013184942, 0.0, 0.00027228548, 0.000000032188836, 0.000000032188836, 0.0, 0.012207031, 0.011788929 
6.1035156e-3, 4.7364053e+0, -0.000000029832048, -36083.27, 0.117255755, 0.0, 0.0002441545, 0.0000003512032, 0.0000003512032, 0.0, 0.012207031, 0.011788973 
6.1035156e-3, 4.7481942e+0, -0.00000010825437, -36067.133, -0.26443976, 0.0, 0.00023379993, 0.0000018305873, 0.0000018305873, 0.0, 0.012207031, 0.011789151 
6.1035156e-3, 4.7599834e+0, -0.00000007417217, -36064.598, -0.2112222, 0.0, 0.00024328931, 0.0000011629018, 0.0000011629018, 0.0, 0.012207031, 0.0117891785 
6.1035156e-3, 4.771773e+0, -0.00000024929616, -36048.23, 0.5160274, 0.0, 0.0002786303, 0.000007137598, 0.000007137598, 0.0, 0.012207031, 0.011789358 
6.1035156e-3, 4.783562e+0, -0.000000025491055, -36043.418, 0.06348589, 0.0, 0.00027179718, 0.00000008633651, 0.00000008633651, 0.0, 0.012207031, 0.011789411 
6.1035156e-3, 4.7953516e+0, -0.00000024558693, -36028.348, -0.52208, 0.0, 0.00021983066, 0.0000073197807, 0.0000073197807, 0.0, 0.012207031, 0.011789577 
6.1035156e-3, 4.8071414e+0, 0.00000002728557, -36025.605, 0.05571752, 0.0, 0.00022459748, 0.00000011346128, 0.00000011346128, 0.0, 0.012207031, 0.011789608 
6.1035156e-3, 4.8189312e+0, 0.0000000120746835, -36008.21, 0.066952005, 0.0, 0.00032310653, 0.00000013656972, 0.00000013656972, 0.0, 0.012207031, 0.011789799 
6.1035156e-3, 4.830721e+0, -0.000000025194746, -36005.684, -0.12041291, 0.0, 0.0002983215, 0.0000003774985, 0.0000003774985, 0.0, 0.012207031, 0.011789827 
6.1035156e-3, 4.8425108e+0, -0.000000008533306, -35989.086, 0.04438634, 0.0, 0.0001930413, 0.000000046209607, 0.000000046209607, 0.0, 0.012207031, 0.011790009 
6.1035156e-3, 4.8543006e+0, -0.00000010765159, -35985.656, -0.27613482, 0.0, 0.000217413, 0.0000020112566, 0.0000020112566, 0.0, 0.012207031, 0.011790047 
6.1035156e-3, 4.8660907e+0, -0.000000017094008, -35970.316, 0.12888749, 0.0, 0.00034143182, 0.00000044473563, 0.00000044473563, 0.0, 0.012207031, 0.011790216 
6.1035156e-3, 4.877881e+0, -0.00000011760468, -35965.555, 0.3739979, 0.0, 0.00032456577, 0.0000037715217, 0.0000037715217, 0.0, 0.012207031, 0.011790268 
6.1035156e-3, 4.8896712e+0, -0.00000004145631, -35950.547, -0.06756358, 0.0, 0.00019642718, 0.00000008551433, 0.00000008551433, 0.0, 0.012207031, 0.011790434 
6.1035156e-3, 4.9014616e+0, -0.00000178179, -35948.992, 1.2849524, 0.0, 0.00019697989, 0.00004414725, 0.00004414725, 0.0, 0.012207031, 0.011790451 
6.1035156e-3, 4.9132523e+0, -0.00023915546, -35930.387, -15.911465, 0.0, 0.00034615007, 0.0068071, 0.0068071, 0.0, 0.012207031, 0.011790656 
6.1035156e-3, 4.925043e+0, -0.0000015561934, -35926.113, 1.2042905, 0.0, 0.0003374739, 0.000038813203, 0.000038813203, 0.0, 0.012207031, 0.011790702 
6.1035156e-3, 4.936834e+0, -0.00000006087589, -35911.395, 0.33198795, 0.0, 0.00020656375, 0.0000030082301, 0.0000030082301, 0.0, 0.012207031, 0.011790864 
6.1035156e-3, 4.9486247e+0, -0.00000007520153, -35908.03, 0.32984304, 0.0, 0.00021442892, 0.0000029546572, 0.0000029546572, 0.0, 0.012207031, 0.011790901 
6.1035156e-3, 4.960416e+0, -0.00000002946791, -35891.01, -0.17115808, 0.0, 0.00032283677, 0.0000007867566, 0.0000007867566, 0.0, 0.012207031, 0.011791089 
6.1035156e-3, 4.972207e+0, -0.00000008648655, -35889.46, -0.2539556, 0.0, 0.00030567675, 0.0000017105122, 0.0000017105122, 0.0, 0.012207031, 0.011791105 
6.1035156e-3, 4.9839982e+0, 0.000000015249563, -35872.152, 0.1688063, 0.0, 0.00023609673, 0.00000080961763, 0.00000080961763, 0.0, 0.012207031, 0.011791296 
6.1035156e-3, 4.9957895e+0, -0.00000001978994, -35869.285, 0.10476326, 0.0, 0.00026214632, 0.00000028619252, 0.00000028619252, 0.0, 0.012207031, 0.011791328 
6.1035156e-3, 5.0075805e+0, -0.000000019497637, -35852.41, -0.078819476, 0.0, 0.0002941005, 0.00000015377736, 0.00000015377736, 0.0, 0.012207031, 0.011791513 
6.1035156e-3, 5.0193727e+0, -0.000000014705595, -35850.26, 0.14523171, 0.0, 0.00024872413, 0.0000005736438, 0.0000005736438, 0.0, 0.012207031, 0.0117915375 
6.1035156e-3, 5.031164e+0, -0.000000005334667, -35832.383, 0.063347764, 0.0, 0.00026254432, 0.00000010665826, 0.00000010665826, 0.0, 0.012207031, 0.011791734 
6.1035156e-3, 5.042956e+0, -0.0000001469725, -35830.363, -0.34490225, 0.0, 0.00030722917, 0.0000031730451, 0.0000031730451, 0.0, 0.012207031, 0.011791756 
6.1035156e-3, 5.0547475e+0, 0.000000051819686, -35813.902, -0.055343326, 0.0, 0.00027000424, 0.00000013734098, 0.00000013734098, 0.0, 0.012207031, 0.011791938 
6.1035156e-3, 5.0665396e+0, -0.00000027587987, -35811.14, 0.5297083, 0.0, 0.00022517123, 0.0000075594144, 0.0000075594144, 0.0, 0.012207031, 0.011791968 
6.1035156e-3, 5.078331e+0, -0.00000001465055, -35792.477, 0.0091775935, 0.0, 0.00028229167, -0.000000012303644, -0.000000012303644, 0.0, 0.012207031, 0.011792174 
6.1035156e-3, 5.0901234e+0, -0.00000023682789, -35791.918, -0.44360825, 0.0, 0.00029559934, 0.0000052612886, 0.0000052612886, 0.0, 0.012207031, 0.01179218 
6.1035156e-3, 5.101916e+0, -0.000000037109608, -35774.402, 0.10638758, 0.0, 0.00025749218, 0.00000027927308, 0.00000027927308, 0.0, 0.012207031, 0.011792373 
6.1035156e-3, 5.1137084e+0, -0.00000006633145, -35771.91, 0.23645703, 0.0, 0.00026312884, 0.0000014966718, 0.0000014966718, 0.0, 0.012207031, 0.0117924 
6.1035156e-3, 5.125501e+0, 0.000000030534853, -35753.984, -0.10517915, 0.0, 0.00028830598, 0.00000033995457, 0.00000033995457, 0.0, 0.012207031, 0.011792597 
6.1035156e-3, 5.137294e+0, -0.0000000021983657, -35753.277, 0.12300214, 0.0, 0.00025321727, 0.00000042097236, 0.00000042097236, 0.0, 0.012207031, 0.011792605 
6.1035156e-3, 5.149087e+0, -0.000000050556917, -35733.996, 0.1787548, 0.0, 0.0002707264, 0.0000008436473, 0.0000008436473, 0.0, 0.012207031, 0.011792817 
6.1035156e-3, 5.160879e+0, -0.000000061018184, -35733.26, -0.28069878, 0.0, 0.0002893302, 0.0000021439846, 0.0000021439846, 0.0, 0.012207031, 0.011792826 
6.1035156e-3, 5.172672e+0, -0.000000017709135, -35715.19, -0.04471292, 0.0, 0.00026931995, 0.000000038271537, 0.000000038271537, 0.0, 0.012207031, 0.011793025 
6.1035156e-3, 5.184465e+0, -0.00000005615512, -35713.695, 0.21588404, 0.0, 0.0002667147, 0.0000012488235, 0.0000012488235, 0.0, 0.012207031, 0.011793041 
6.1035156e-3, 5.196258e+0, -0.00000006591301, -35695.07, -0.17206518, 0.0, 0.00029948333, 0.00000076351716, 0.00000076351716, 0.0, 0.012207031, 0.0117932465 
6.1035156e-3, 5.208052e+0, -0.0000000682881, -35694.977, 0.15094166, 0.0, 0.00025864216, 0.0000005699985, 0.0000005699985, 0.0, 0.012207031, 0.011793247 
6.1035156e-3, 5.2198446e+0, -0.00000018281575, -35675.227, 0.43955815, 0.0, 0.00026421683, 0.000005233029, 0.000005233029, 0.0, 0.012207031, 0.011793464 
6.1035156e-3, 5.2316386e+0, -0.0000002561139, -35674.07, -0.4839456, 0.0, 0.0003045048, 0.0000063089756, 0.0000063089756, 0.0, 0.012207031, 0.011793477 
6.1035156e-3, 5.243432e+0, -0.00000018710327, -35656.92, -0.46711347, 0.0, 0.0002820985, 0.000005932183, 0.000005932183, 0.0, 0.012207031, 0.0117936665 
6.1035156e-3, 5.255226e+0, -0.00000013966405, -35655.992, 0.43116906, 0.0, 0.00026248294, 0.0000050742383, 0.0000050742383, 0.0, 0.012207031, 0.011793677 
6.1035156e-3, 5.267019e+0, -0.0000000329641, -35635.47, 0.18062022, 0.0, 0.0003110384, 0.00000088251545, 0.00000088251545, 0.0, 0.012207031, 0.011793903 
6.1035156e-3, 5.278813e+0, -0.000000078993885, -35636.27, -0.22899437, 0.0, 0.00027874755, 0.0000013925019, 0.0000013925019, 0.0, 0.012207031, 0.011793894 
6.1035156e-3, 5.290607e+0, 0.0000000300451, -35616.824, 0.20253213, 0.0, 0.00025059452, 0.0000011817247, 0.0000011817247, 0.0, 0.012207031, 0.011794108 
6.1035156e-3, 5.302402e+0, -0.00000015847617, -35615.99, -0.32338664, 0.0, 0.00030729457, 0.0000027778078, 0.0000027778078, 0.0, 0.012207031, 0.011794117 
6.1035156e-3, 5.314196e+0, -0.0000000005418359, -35597.656, -0.107300475, 0.0, 0.00031775676, 0.00000032289245, 0.00000032289245, 0.0, 0.012207031, 0.011794319 
6.1035156e-3, 5.3259903e+0, -0.000000037500858, -35596.51, 0.16623923, 0.0, 0.00026871264, 0.00000073885167, 0.00000073885167, 0.0, 0.012207031, 0.0117943315 
6.1035156e-3, 5.337784e+0, -0.0000001279659, -35577.37, -0.41869953, 0.0, 0.00026922513, 0.0000047995854, 0.0000047995854, 0.0, 0.012207031, 0.011794543 
6.1035156e-3, 5.349579e+0, -0.000000019994324, -35578.344, 0.051904824, 0.0, 0.0002939491, 0.00000005572656, 0.00000005572656, 0.0, 0.012207031, 0.011794532 
6.1035156e-3, 5.361374e+0, -0.00000031419992, -35557.598, 0.5942206, 0.0, 0.00032193752, 0.000009616117, 0.000009616117, 0.0, 0.012207031, 0.011794761 
6.1035156e-3, 5.3731686e+0, -0.00000015891099, -35557.13, -0.41396514, 0.0, 0.0002964784, 0.000004660571, 0.000004660571, 0.0, 0.012207031, 0.0117947655 
6.1035156e-3, 5.384964e+0, -0.00000003676425, -35539.434, -0.038445912, 0.0, 0.0002348181, 0.00000000482396, 0.00000000482396, 0.0, 0.012207031, 0.011794961 
6.1035156e-3, 5.3967583e+0, 0.000000013714284, -35537.574, 0.19304605, 0.0, 0.0002919543, 0.0000010623698, 0.0000010623698, 0.0, 0.012207031, 0.011794982 
6.1035156e-3, 5.4085535e+0, -0.0000003968794, -35518.633, -0.61605996, 0.0, 0.00035870832, 0.000010288488, 0.000010288488, 0.0, 0.012207031, 0.01179519 
6.1035156e-3, 5.4203486e+0, -0.00000005853376, -35519.938, 0.23696193, 0.0, 0.0002841829, 0.0000015222977, 0.0000015222977, 0.0, 0.012207031, 0.011795175 
6.1035156e-3, 5.432144e+0, -0.00000005398429, -35498.023, 0.16405511, 0.0, 0.00023218204, 0.0000007041963, 0.0000007041963, 0.0, 0.012207031, 0.011795417 
6.1035156e-3, 5.443939e+0, -0.00000040640992, -35500.105, -0.6329302, 0.0, 0.00029681413, 0.0000108780805, 0.0000108780805, 0.0, 0.012207031, 0.011795394 
6.1035156e-3, 5.455735e+0, -0.000000038911555, -35478.44, -0.121217325, 0.0, 0.00034071153, 0.00000037524296, 0.00000037524296, 0.0, 0.012207031, 0.011795633 
6.1035156e-3, 5.4675305e+0, -0.0000058866494, -35476.25, -2.2232533, 0.0, 0.0002903086, 0.00013344194, 0.00013344194, 0.0, 0.012207031, 0.011795657 
6.1035156e-3, 5.479326e+0, -0.000014504515, -35460.734, -4.480545, 0.0, 0.00025312594, 0.00055162265, 0.00055162265, 0.0, 0.012207031, 0.011795828 
6.1035156e-3, 5.491122e+0, -0.0000075992666, -35463.14, -2.4834735, 0.0, 0.00029641317, 0.00016631768, 0.00016631768, 0.0, 0.012207031, 0.011795801 
6.1035156e-3, 5.502918e+0, -0.00000013419083, -35440.89, -0.42343646, 0.0, 0.00031805903, 0.0000049248993, 0.0000049248993, 0.0, 0.012207031, 0.011796047 
6.1035156e-3, 5.514714e+0, -0.000093166775, -35440.934, -9.833466, 0.0, 0.00027905457, 0.0026352329, 0.0026352329, 0.0, 0.012207031, 0.011796046 
6.1035156e-3, 5.5265105e+0, -0.000000048886676, -35421.2, -0.231194, 0.0, 0.00029269353, 0.0000014601173, 0.0000014601173, 0.0, 0.012207031, 0.011796264 
6.1035156e-3, 5.538306e+0, 0.000000017062911, -35421.04, -0.116418526, 0.0, 0.0003077162, 0.00000039969746, 0.00000039969746, 0.0, 0.012207031, 0.011796266 
6.1035156e-3, 5.5501026e+0, -0.000000042843705, -35401.92, 0.13999818, 0.0, 0.0002840724, 0.0000005107868, 0.0000005107868, 0.0, 0.012207031, 0.011796476 
6.1035156e-3, 5.561899e+0, -0.000000038755296, -35401.125, 0.2060332, 0.0, 0.0002767871, 0.0000011603552, 0.0000011603552, 0.0, 0.012207031, 0.011796485 
6.1035156e-3, 5.573696e+0, -0.00000013139595, -35381.74, -0.28430158, 0.0, 0.00032077194, 0.0000021530432, 0.0000021530432, 0.0, 0.012207031, 0.011796699 
6.1035156e-3, 5.585493e+0, -0.00000009001456, -35382.195, -0.25377467, 0.0, 0.0003053997, 0.00000173015, 0.00000173015, 0.0, 0.012207031, 0.011796693 
6.1035156e-3, 5.59729e+0, -0.000000038239843, -35363.08, 0.2835955, 0.0, 0.00028193646, 0.0000022360618, 0.0000022360618, 0.0, 0.012207031, 0.011796905 
6.1035156e-3, 5.609087e+0, -0.00000006497091, -35361.887, 0.13501997, 0.0, 0.00029471607, 0.00000045056368, 0.00000045056368, 0.0, 0.012207031, 0.011796918 
6.1035156e-3, 5.620884e+0, -0.000000070664164, -35343.82, -0.27894804, 0.0, 0.0003164258, 0.000002130917, 0.000002130917, 0.0, 0.012207031, 0.011797117 
6.1035156e-3, 5.6326807e+0, -0.000000049858908, -35343.32, -0.056743324, 0.0, 0.0002867725, 0.000000041240128, 0.000000041240128, 0.0, 0.012207031, 0.011797122 
6.1035156e-3, 5.6444776e+0, -0.000000029022432, -35324.42, 0.05696424, 0.0, 0.00030595326, 0.00000006283517, 0.00000006283517, 0.0, 0.012207031, 0.01179733 
6.1035156e-3, 5.656275e+0, -0.000000056002495, -35323.176, -0.18084306, 0.0, 0.0003172187, 0.0000008698553, 0.0000008698553, 0.0, 0.012207031, 0.011797344 
6.1035156e-3, 5.6680727e+0, -0.000000055633937, -35305.72, 0.09312599, 0.0, 0.0002988689, 0.00000019000436, 0.00000019000436, 0.0, 0.012207031, 0.011797537 
6.1035156e-3, 5.67987e+0, -0.00000009397754, -35303.195, 0.28220156, 0.0, 0.0002903572, 0.000002161847, 0.000002161847, 0.0, 0.012207031, 0.011797564 
6.1035156e-3, 5.691668e+0, -0.000000006962496, -35285.41, -0.13679478, 0.0, 0.00032178205, 0.00000052335963, 0.00000052335963, 0.0, 0.012207031, 0.011797761 
6.1035156e-3, 5.7034653e+0, -0.000000043508614, -35284.11, -0.15661748, 0.0, 0.00030186624, 0.0000006516784, 0.0000006516784, 0.0, 0.012207031, 0.011797775 
6.1035156e-3, 5.7152635e+0, -0.000000030873185, -35266.313, 0.15570766, 0.0, 0.00030218787, 0.00000065660424, 0.00000065660424, 0.0, 0.012207031, 0.011797971 
6.1035156e-3, 5.727061e+0, 0.0000000058175904, -35263.883, -0.06802549, 0.0, 0.00032263013, 0.00000013704266, 0.00000013704266, 0.0, 0.012207031, 0.011797998 
6.1035156e-3, 5.73886e+0, -0.000000027859782, -35247.246, -0.057215583, 0.0, 0.00030994654, 0.00000006501796, 0.00000006501796, 0.0, 0.012207031, 0.011798182 
6.1035156e-3, 5.7506573e+0, -0.000000041894875, -35244.41, 0.3032567, 0.0, 0.00028996854, 0.0000025674453, 0.0000025674453, 0.0, 0.012207031, 0.011798212 
6.1035156e-3, 5.762456e+0, -0.0000000015381179, -35227.094, -0.026488014, 0.0, 0.00032113458, 0.000000018379069, 0.000000018379069, 0.0, 0.012207031, 0.011798404 
6.1035156e-3, 5.774254e+0, -0.000000090914654, -35224.832, -0.24611627, 0.0, 0.00031277747, 0.0000016287013, 0.0000016287013, 0.0, 0.012207031, 0.011798428 
6.1035156e-3, 5.786053e+0, 0.000000039805478, -35208.4, 0.13346402, 0.0, 0.00029982487, 0.0000005457332, 0.0000005457332, 0.0, 0.012207031, 0.01179861 
6.1035156e-3, 5.7978517e+0, -0.000000012891319, -35204.445, -0.034434754, 0.0, 0.0003230163, 0.000000020787411, 0.000000020787411, 0.0, 0.012207031, 0.011798654 
6.1035156e-3, 5.8096504e+0, -0.0000000102293765, -35189.17, -0.13241675, 0.0, 0.0003151768, 0.0000004880567, 0.0000004880567, 0.0, 0.012207031, 0.011798822 
6.1035156e-3, 5.821449e+0, -0.000000048286648, -35185.297, 0.13625017, 0.0, 0.00029175828, 0.00000047932554, 0.00000047932554, 0.0, 0.012207031, 0.011798864 
6.1035156e-3, 5.833248e+0, 0.000000013374581, -35168.813, 0.05196792, 0.0, 0.00031772928, 0.00000009016367, 0.00000009016367, 0.0, 0.012207031, 0.011799047 
6.1035156e-3, 5.845047e+0, -0.000000046317428, -35165.91, -0.23003122, 0.0, 0.00031593107, 0.0000014583857, 0.0000014583857, 0.0, 0.012207031, 0.011799078 
6.1035156e-3, 5.8568466e+0, -0.000000057443984, -35149.797, 0.16937943, 0.0, 0.00029828155, 0.0000007587587, 0.0000007587587, 0.0, 0.012207031, 0.011799256 
6.1035156e-3, 5.868646e+0, -0.0000001697031, -35145.86, -0.40981138, 0.0, 0.00032170716, 0.0000046088244, 0.0000046088244, 0.0, 0.012207031, 0.0117993 
6.1035156e-3, 5.880445e+0, -0.000000007263485, -35130.254, -0.21284135, 0.0, 0.00031548511, 0.0000012822638, 0.0000012822638, 0.0, 0.012207031, 0.011799471 
6.1035156e-3, 5.8922446e+0, -0.0000000646445, -35126.91, 0.30021894, 0.0, 0.00029557355, 0.0000025012268, 0.0000025012268, 0.0, 0.012207031, 0.011799509 
6.1035156e-3, 5.904044e+0, 0.000000019849265, -35109.895, -0.0687522, 0.0, 0.00031832297, 0.00000015448313, 0.00000015448313, 0.0, 0.012207031, 0.011799696 
6.1035156e-3, 5.915844e+0, -0.0000000013031256, -35107.375, -0.17216974, 0.0, 0.00031108555, 0.0000008430361, 0.0000008430361, 0.0, 0.012207031, 0.011799724 
6.1035156e-3, 5.927644e+0, -0.00000004219092, -35090.94, 0.24083473, 0.0, 0.00030461652, 0.0000016106933, 0.0000016106933, 0.0, 0.012207031, 0.011799905 
6.1035156e-3, 5.939444e+0, -0.00000014880429, -35086.47, -0.33078486, 0.0, 0.0003185825, 0.000002969733, 0.000002969733, 0.0, 0.012207031, 0.011799955 
6.1035156e-3, 5.9512436e+0, -0.00000004474465, -35072.64, -0.11815169, 0.0, 0.00031261847, 0.00000035327685, 0.00000035327685, 0.0, 0.012207031, 0.011800108 
6.1035156e-3, 5.9630436e+0, 0.00000004824901, -35066.94, 0.024895977, 0.0, 0.00030667253, 0.000000065920176, 0.000000065920176, 0.0, 0.012207031, 0.01180017 
6.1035156e-3, 5.974844e+0, -0.00000019548554, -35052.83, -0.43288353, 0.0, 0.0003223425, 0.0000051503957, 0.0000051503957, 0.0, 0.012207031, 0.011800326 
6.1035156e-3, 5.986644e+0, -0.00000010140699, -35048.44, 0.2220749, 0.0, 0.00030766687, 0.0000013057142, 0.0000013057142, 0.0, 0.012207031, 0.011800375 
6.1035156e-3, 5.998445e+0, -0.000000019338861, -35032.277, 0.0863295, 0.0, 0.00031703635, 0.00000019340223, 0.00000019340223, 0.0, 0.012207031, 0.011800553 
6.1035156e-3, 6.010245e+0, -0.0000003208499, -35028.875, -0.5626362, 0.0, 0.00031657444, 0.000008716255, 0.000008716255, 0.0, 0.012207031, 0.01180059 
6.1035156e-3, 6.022046e+0, -0.000000021511141, -35012.75, -0.12992874, 0.0, 0.00031877696, 0.00000046064815, 0.00000046064815, 0.0, 0.012207031, 0.011800768 
6.1035156e-3, 6.033847e+0, -0.0000032016096, -35006.035, -1.6939689, 0.0, 0.00031711932, 0.00007877085, 0.00007877085, 0.0, 0.012207031, 0.011800842 
6.1035156e-3, 6.045648e+0, -0.000015978116, -34994.58, -3.3811622, 0.0, 0.00032266637, 0.00031070845, 0.00031070845, 0.0, 0.012207031, 0.011800969 
6.1035156e-3, 6.057449e+0, -0.0000035736193, -34991.695, -1.7716031, 0.0, 0.00031750844, 0.000086121305, 0.000086121305, 0.0, 0.012207031, 0.011801001 
6.1035156e-3, 6.06925e+0, -0.000000017246558, -34974.613, -0.13415901, 0.0, 0.00032867724, 0.0000004973772, 0.0000004973772, 0.0, 0.012207031, 0.011801189 
6.1035156e-3, 6.081051e+0, -0.000000085107004, -34969.625, -0.12652183, 0.0, 0.0003186, 0.00000037265272, 0.00000037265272, 0.0, 0.012207031, 0.011801244 
6.1035156e-3, 6.0928524e+0, -0.0000000007704237, -34955.41, -0.09522055, 0.0, 0.00032997286, 0.00000025860936, 0.00000025860936, 0.0, 0.012207031, 0.011801401 
6.1035156e-3, 6.104654e+0, -0.000000017096532, -34949.52, -0.07670282, 0.0, 0.00032358768, 0.00000015123805, 0.00000015123805, 0.0, 0.012207031, 0.011801466 
6.1035156e-3, 6.116456e+0, -0.000000018334667, -34935.992, 0.002156619, 0.0, 0.0003296325, -0.000000018204446, -0.000000018204446, 0.0, 0.012207031, 0.011801615 
6.1035156e-3, 6.1282575e+0, -0.000000042132456, -34929.883, 0.028245378, 0.0, 0.00032614183, -0.00000001929584, -0.00000001929584, 0.0, 0.012207031, 0.011801682 
6.1035156e-3, 6.140059e+0, 0.000000022396678, -34916.527, -0.008947155, 0.0, 0.00033380644, 0.000000024687324, 0.000000024687324, 0.0, 0.012207031, 0.0118018305 
6.1035156e-3, 6.151861e+0, -0.000000069837704, -34910.223, -0.29946432, 0.0, 0.00032812465, 0.0000024990077, 0.0000024990077, 0.0, 0.012207031, 0.011801899 
6.1035156e-3, 6.1636627e+0, -0.000000009712961, -34897.098, 0.012434553, 0.0, 0.0003334978, -0.0000000052823452, -0.0000000052823452, 0.0, 0.012207031, 0.011802045 
6.1035156e-3, 6.175465e+0, -0.000000023396797, -34890.67, 0.043011833, 0.0, 0.000330972, 0.0000000296277, 0.0000000296277, 0.0, 0.012207031, 0.0118021155 
6.1035156e-3, 6.187267e+0, -0.000000012178444, -34877.617, -0.0051242695, 0.0, 0.0003350399, -0.0000000114232535, -0.0000000114232535, 0.0, 0.012207031, 0.01180226 
6.1035156e-3, 6.1990696e+0, 0.000000017163847, -34871.05, -0.019660003, 0.0, 0.00033294474, 0.000000028245267, 0.000000028245267, 0.0, 0.012207031, 0.0118023325 
6.1035156e-3, 6.210872e+0, 0.0000000028261533, -34858.12, 0.029430123, 0.0, 0.0003350832, 0.000000027670467, 0.000000027670467, 0.0, 0.012207031, 0.011802475 
6.1035156e-3, 6.222674e+0, -0.000000012181056, -34851.336, 0.03163537, 0.0, 0.0003344065, 0.000000016530976, 0.000000016530976, 0.0, 0.012207031, 0.0118025495 
6.1035156e-3, 6.234477e+0, -0.0000000048412097, -34838.832, 0.04441667, 0.0, 0.00033562715, 0.000000051790266, 0.000000051790266, 0.0, 0.012207031, 0.011802687 
6.1035156e-3, 6.2462795e+0, 0.000000036266453, -34831.54, -0.034474574, 0.0, 0.0003362585, 0.00000007038034, 0.00000007038034, 0.0, 0.012207031, 0.011802768 
6.1035156e-3, 6.2580824e+0, -0.000000021330727, -34819.43, 0.009850451, 0.0, 0.0003348587, -0.000000018546416, -0.000000018546416, 0.0, 0.012207031, 0.0118029015 
6.1035156e-3, 6.2698853e+0, -0.0000000055192486, -34811.906, 0.004924737, 0.0, 0.0003361975, -0.000000004831236, -0.000000004831236, 0.0, 0.012207031, 0.011802985 
6.1035156e-3, 6.281689e+0, 0.00000000057555966, -34800.125, 0.022347825, 0.0, 0.000335489, 0.000000014922989, 0.000000014922989, 0.0, 0.012207031, 0.011803115 
6.1035156e-3, 6.293492e+0, -0.00000002661149, -34792.08, -0.018455978, 0.0, 0.00033963777, -0.000000016814738, -0.000000016814738, 0.0, 0.012207031, 0.011803204 
6.1035156e-3, 6.305295e+0, -0.000000019785151, -34780.72, -0.0054049357, 0.0, 0.00033323097, -0.000000018939318, -0.000000018939318, 0.0, 0.012207031, 0.011803329 
6.1035156e-3, 6.317098e+0, -0.0000000134362494, -34772.598, 0.003749624, 0.0, 0.00033720038, -0.000000013038516, -0.000000013038516, 0.0, 0.012207031, 0.011803419 
6.1035156e-3, 6.3289016e+0, 0.00000003288916, -34761.234, -0.013920585, 0.0, 0.0003361686, 0.000000038460712, 0.000000038460712, 0.0, 0.012207031, 0.011803544 
6.1035156e-3, 6.340705e+0, -0.000000019759819, -34753.598, -0.10943151, 0.0, 0.00034094104, 0.0000003248133, 0.0000003248133, 0.0, 0.012207031, 0.011803629 
6.1035156e-3, 6.352509e+0, 0.0000000019232886, -34741.668, -0.018548207, 0.0, 0.0003341964, 0.000000011823431, 0.000000011823431, 0.0, 0.012207031, 0.01180376 
6.1035156e-3, 6.3643134e+0, 0.0000000037808485, -34734.008, -0.038103797, 0.0, 0.000337735, 0.000000045583874, 0.000000045583874, 0.0, 0.012207031, 0.011803845 
6.1035156e-3, 6.376117e+0, -0.0000000049499014, -34722.28, -0.019266572, 0.0, 0.00033703377, 0.0000000057407306, 0.0000000057407306, 0.0, 0.012207031, 0.011803974 
6.1035156e-3, 6.387921e+0, -0.00000003758855, -34714.27, -0.20217364, 0.0, 0.00034280852, 0.0000011398588, 0.0000011398588, 0.0, 0.012207031, 0.011804063 
6.1035156e-3, 6.399725e+0, -0.000000017866498, -34703.008, -0.031788077, 0.0, 0.00033657905, 0.0000000112486305, 0.0000000112486305, 0.0, 0.012207031, 0.011804188 
6.1035156e-3, 6.411529e+0, -0.00000003610518, -34694.473, -0.05308559, 0.0, 0.00033805723, 0.000000045118213, 0.000000045118213, 0.0, 0.012207031, 0.011804282 
6.1035156e-3, 6.423334e+0, -0.000000037906066, -34683.434, -0.068581134, 0.0, 0.00033988725, 0.00000009770156, 0.00000009770156, 0.0, 0.012207031, 0.011804404 
6.1035156e-3, 6.435138e+0, -0.000000036717367, -34675.004, -0.17009698, 0.0, 0.00034479823, 0.00000079768506, 0.00000079768506, 0.0, 0.012207031, 0.011804497 
6.1035156e-3, 6.4469427e+0, -0.000000050708156, -34663.633, -0.038226258, 0.0, 0.00034049718, -0.000000008556526, -0.000000008556526, 0.0, 0.012207031, 0.011804623 
6.1035156e-3, 6.4587474e+0, 0.000000010403428, -34655.73, -0.03614599, 0.0, 0.00034030076, 0.000000048101356, 0.000000048101356, 0.0, 0.012207031, 0.01180471 
6.1035156e-3, 6.470552e+0, -0.000000024325294, -34644.03, -0.08191, 0.0, 0.0003439416, 0.00000016933336, 0.00000016933336, 0.0, 0.012207031, 0.011804839 
6.1035156e-3, 6.482357e+0, -0.00000006078832, -34636.027, -0.16900924, 0.0, 0.00034743192, 0.0000007639028, 0.0000007639028, 0.0, 0.012207031, 0.011804927 
6.1035156e-3, 6.494162e+0, -0.000000025894188, -34624.707, -0.018441176, 0.0, 0.00034491334, -0.00000001607259, -0.00000001607259, 0.0, 0.012207031, 0.011805052 
6.1035156e-3, 6.5059674e+0, 0.000000009033521, -34616.63, -0.016233543, 0.0, 0.00034540292, 0.000000016647391, 0.000000016647391, 0.0, 0.012207031, 0.011805141 
6.1035156e-3, 6.517772e+0, -0.00000003528672, -34604.844, -0.060598858, 0.0, 0.00035056233, 0.00000007083145, 0.00000007083145, 0.0, 0.012207031, 0.011805272 
6.1035156e-3, 6.529578e+0, -0.00000005448939, -34597.137, -0.2246852, 0.0, 0.00034670316, 0.0000014046891, 0.0000014046891, 0.0, 0.012207031, 0.0118053565 
6.1035156e-3, 6.5413827e+0, -0.00000002043692, -34585.285, 0.025828537, 0.0, 0.00034987731, -0.0000000011496013, -0.0000000011496013, 0.0, 0.012207031, 0.011805488 
6.1035156e-3, 6.5531886e+0, -0.000000013274181, -34577.34, -0.014993044, 0.0, 0.0003529046, -0.0000000067739165, -0.0000000067739165, 0.0, 0.012207031, 0.011805575 
6.1035156e-3, 6.5649945e+0, -0.000000007555526, -34566.207, 0.009822963, 0.0, 0.0003555511, -0.0000000047584763, -0.0000000047584763, 0.0, 0.012207031, 0.011805698 
6.1035156e-3, 6.5768e+0, -0.0000001261632, -34557.34, -0.15474199, 0.0, 0.00034809773, 0.0000005667389, 0.0000005667389, 0.0, 0.012207031, 0.011805797 
6.1035156e-3, 6.5886056e+0, 0.0000000074018778, -34546.89, 0.039904214, 0.0, 0.00035199584, 0.00000005349284, 0.00000005349284, 0.0, 0.012207031, 0.0118059125 
6.1035156e-3, 6.600412e+0, -0.00000000658831, -34537.605, 0.040435247, 0.0, 0.00035921438, 0.00000004075264, 0.00000004075264, 0.0, 0.012207031, 0.011806015 
6.1035156e-3, 6.612218e+0, -0.000000017655614, -34527.535, 0.04952404, 0.0, 0.00036165316, 0.000000053376425, 0.000000053376425, 0.0, 0.012207031, 0.011806126 
6.1035156e-3, 6.624024e+0, 0.000000038543064, -34518.07, -0.079877086, 0.0, 0.00034946928, 0.00000022338645, 0.00000022338645, 0.0, 0.012207031, 0.01180623 
6.1035156e-3, 6.6358304e+0, 0.000000023436726, -34507.883, 0.023450557, 0.0, 0.00034986704, 0.000000039370207, 0.000000039370207, 0.0, 0.012207031, 0.011806343 
6.1035156e-3, 6.647637e+0, 0.000000014692245, -34498.492, 0.08805574, 0.0, 0.00036568832, 0.0000002394445, 0.0000002394445, 0.0, 0.012207031, 0.011806447 
6.1035156e-3, 6.6594434e+0, -0.00000001794938, -34488.383, 0.055475175, 0.0, 0.00036989807, 0.00000007128256, 0.00000007128256, 0.0, 0.012207031, 0.011806559 
6.1035156e-3, 6.67125e+0, 0.00000003532098, -34478.883, -0.07990603, 0.0, 0.00035027918, 0.00000022050517, 0.00000022050517, 0.0, 0.012207031, 0.011806663 
6.1035156e-3, 6.6830564e+0, -0.000000033545863, -34469.375, 0.07569769, 0.0, 0.0003430543, 0.00000013269164, 0.00000013269164, 0.0, 0.012207031, 0.011806768 
6.1035156e-3, 6.6948634e+0, -0.000000014352824, -34459.24, 0.07132188, 0.0, 0.00037123464, 0.00000013326644, 0.00000013326644, 0.0, 0.012207031, 0.011806881 
6.1035156e-3, 6.7066705e+0, -0.0000000023819733, -34450.1, 0.0057122856, 0.0, 0.00038107912, -0.0000000014333636, -0.0000000014333636, 0.0, 0.012207031, 0.011806982 
6.1035156e-3, 6.718477e+0, -0.000000005238087, -34439.496, 0.04678198, 0.0, 0.00035112686, 0.000000058309524, 0.000000058309524, 0.0, 0.012207031, 0.011807099 
6.1035156e-3, 6.7302847e+0, 0.0000000021112685, -34430.793, 0.1022136, 0.0, 0.00033497481, 0.00000030555384, 0.00000030555384, 0.0, 0.012207031, 0.011807195 
6.1035156e-3, 6.742092e+0, -0.00000002694899, -34419.5, 0.018676026, 0.0, 0.00037444296, -0.000000016814738, -0.000000016814738, 0.0, 0.012207031, 0.01180732 
6.1035156e-3, 6.753899e+0, -0.000000057814535, -34411.797, 0.048628505, 0.0, 0.00039004104, 0.0000000109066605, 0.0000000109066605, 0.0, 0.012207031, 0.011807405 
6.1035156e-3, 6.7657065e+0, -0.000000105389766, -34399.645, -0.29545677, 0.0, 0.00035702772, 0.0000024322726, 0.0000024322726, 0.0, 0.012207031, 0.0118075395 
6.1035156e-3, 6.777514e+0, -0.000000085256985, -34392.26, 0.10894608, 0.0, 0.0003270225, 0.00000025985355, 0.00000025985355, 0.0, 0.012207031, 0.0118076205 
6.1035156e-3, 6.789322e+0, -0.000000016489535, -34380.23, 0.011000508, 0.0, 0.00037263674, -0.0000000129657565, -0.0000000129657565, 0.0, 0.012207031, 0.011807754 
6.1035156e-3, 6.8011296e+0, -0.000000011466371, -34372.55, -0.03596691, 0.0, 0.0004026859, 0.000000026164344, 0.000000026164344, 0.0, 0.012207031, 0.011807838 
6.1035156e-3, 6.812938e+0, -0.000000010524279, -34360.965, -0.023303162, 0.0, 0.0003639356, 0.0000000052823452, 0.0000000052823452, 0.0, 0.012207031, 0.011807967 
6.1035156e-3, 6.8247455e+0, -0.000000041089127, -34353.008, 0.04093536, 0.0, 0.00031975718, 0.000000007690687, 0.000000007690687, 0.0, 0.012207031, 0.0118080545 
6.1035156e-3, 6.836554e+0, -0.000000016631265, -34341.105, -0.011896327, 0.0, 0.00036926713, -0.000000012514647, -0.000000012514647, 0.0, 0.012207031, 0.011808187 
6.1035156e-3, 6.848362e+0, -0.000000006685862, -34333.64, -0.07765308, 0.0, 0.00041427766, 0.00000016894774, 0.00000016894774, 0.0, 0.012207031, 0.011808269 
6.1035156e-3, 6.8601704e+0, -0.000000026167084, -34321.516, -0.15589789, 0.0, 0.00037255112, 0.00000068196823, 0.00000068196823, 0.0, 0.012207031, 0.011808403 
6.1035156e-3, 6.8719786e+0, -0.000000018179772, -34314.438, 0.057117905, 0.0, 0.0003168314, 0.000000076885044, 0.000000076885044, 0.0, 0.012207031, 0.011808481 
6.1035156e-3, 6.883787e+0, 0.000000035188247, -34301.387, 0.0050181933, 0.0, 0.00036322788, 0.000000035921403, 0.000000035921403, 0.0, 0.012207031, 0.011808625 
6.1035156e-3, 6.895596e+0, -0.000000053340937, -34294.848, -0.14166301, 0.0, 0.0004222482, 0.0000005318361, 0.0000005318361, 0.0, 0.012207031, 0.011808698 
6.1035156e-3, 6.9074047e+0, -0.000000030961267, -34282.336, -0.07057006, 0.0, 0.00038219822, 0.000000114305294, 0.000000114305294, 0.0, 0.012207031, 0.011808836 
6.1035156e-3, 6.9192135e+0, 0.000000016364108, -34275.37, 0.119205125, 0.0, 0.00031984606, 0.00000043094042, 0.00000043094042, 0.0, 0.012207031, 0.011808913 
6.1035156e-3, 6.9310224e+0, 0.000000040161392, -34262.43, -0.030010868, 0.0, 0.0003561883, 0.00000006645132, 0.00000006645132, 0.0, 0.012207031, 0.011809057 
6.1035156e-3, 6.942832e+0, -0.000000028932117, -34255.754, -0.12706786, 0.0, 0.0004242531, 0.0000004424146, 0.0000004424146, 0.0, 0.012207031, 0.01180913 
6.1035156e-3, 6.954641e+0, -0.00000016850173, -34243.14, -0.34409612, 0.0, 0.00039484093, 0.000003289184, 0.000003289184, 0.0, 0.012207031, 0.01180927 
6.1035156e-3, 6.96645e+0, 0.000000014879794, -34236.52, 0.16797508, 0.0, 0.000325772, 0.0000008390125, 0.0000008390125, 0.0, 0.012207031, 0.011809343 
6.1035156e-3, 6.9782597e+0, -0.000000055679955, -34222.996, 0.10973696, 0.0, 0.0003488159, 0.00000029618968, 0.00000029618968, 0.0, 0.012207031, 0.0118094925 
6.1035156e-3, 6.990069e+0, -0.00000003757807, -34216.73, -0.17721005, 0.0, 0.0004244276, 0.0000008801944, 0.0000008801944, 0.0, 0.012207031, 0.011809561 
6.1035156e-3, 7.0018786e+0, -0.00000006848505, -34203.99, -0.16794458, 0.0, 0.00040130055, 0.00000075613207, 0.00000075613207, 0.0, 0.012207031, 0.011809703 
6.1035156e-3, 7.0136887e+0, -0.00000002189249, -34197.746, 0.12870166, 0.0, 0.00033762757, 0.00000046246714, 0.00000046246714, 0.0, 0.012207031, 0.011809772 
6.1035156e-3, 7.025498e+0, 0.0000000042946993, -34183.61, 0.11719989, 0.0, 0.0003513476, 0.00000040611485, 0.00000040611485, 0.0, 0.012207031, 0.011809928 
6.1035156e-3, 7.037309e+0, -0.000000022526772, -34178.49, -0.08475046, 0.0, 0.00041289537, 0.00000018762512, 0.00000018762512, 0.0, 0.012207031, 0.011809984 
6.1035156e-3, 7.049118e+0, -0.000000038153853, -34164.223, -0.19217859, 0.0, 0.00039830717, 0.0000010428776, 0.0000010428776, 0.0, 0.012207031, 0.011810143 
6.1035156e-3, 7.060929e+0, 0.0000000025211164, -34159.438, 0.045452174, 0.0, 0.0003557143, 0.000000062987965, 0.000000062987965, 0.0, 0.012207031, 0.011810196 
6.1035156e-3, 7.072739e+0, -0.0000000030840017, -34144.105, 0.026621118, 0.0, 0.00036503628, 0.000000017673301, 0.000000017673301, 0.0, 0.012207031, 0.011810365 
6.1035156e-3, 7.0845497e+0, 0.000000027687987, -34140.12, 0.013814254, 0.0, 0.00039809014, 0.000000033272954, 0.000000033272954, 0.0, 0.012207031, 0.011810409 
6.1035156e-3, 7.09636e+0, -0.000000010319988, -34124.57, 0.072001494, 0.0, 0.00038418517, 0.00000014160469, 0.00000014160469, 0.0, 0.012207031, 0.011810581 
6.1035156e-3, 7.1081704e+0, -0.000000011441546, -34119.984, 0.011054091, 0.0, 0.00037037043, -0.00000000786531, -0.00000000786531, 0.0, 0.012207031, 0.0118106315 
6.1035156e-3, 7.119981e+0, -0.000000072034446, -34105.176, -0.19129533, 0.0, 0.00039111706, 0.0000010009389, 0.0000010009389, 0.0, 0.012207031, 0.011810795 
6.1035156e-3, 7.1317923e+0, -0.00000001878464, -34101.344, 0.18371849, 0.0, 0.00038710982, 0.0000009709838, 0.0000009709838, 0.0, 0.012207031, 0.011810838 
6.1035156e-3, 7.143603e+0, -0.00000012813008, -34085.38, -0.34823388, 0.0, 0.00036209702, 0.00000342961, 0.00000342961, 0.0, 0.012207031, 0.011811014 
6.1035156e-3, 7.155414e+0, -0.0000000064334724, -34080.81, 0.011457307, 0.0, 0.00037916965, -0.000000002575689, -0.000000002575689, 0.0, 0.012207031, 0.0118110655 
6.1035156e-3, 7.1672255e+0, -0.000000087288306, -34065.797, -0.3589931, 0.0, 0.00041938722, 0.000003695859, 0.000003695859, 0.0, 0.012207031, 0.011811231 
6.1035156e-3, 7.179037e+0, -0.000000020766926, -34062.375, 0.10848103, 0.0, 0.00038231234, 0.000000324726, 0.000000324726, 0.0, 0.012207031, 0.0118112685 
6.1035156e-3, 7.190848e+0, -0.0000001133924, -34046.22, 0.34713164, 0.0, 0.00034541957, 0.000003425921, 0.000003425921, 0.0, 0.012207031, 0.011811447 
6.1035156e-3, 7.202659e+0, -0.000000017463101, -34041.72, -0.10162728, 0.0, 0.00038513492, 0.00000028593058, 0.00000028593058, 0.0, 0.012207031, 0.011811498 
6.1035156e-3, 7.214471e+0, -0.00000009449426, -34026.77, -0.27779892, 0.0, 0.00043018605, 0.000002173496, 0.000002173496, 0.0, 0.012207031, 0.011811662 
6.1035156e-3, 7.2262824e+0, -0.000000048702496, -34023.242, 0.09915391, 0.0, 0.0003783098, 0.0000002402594, 0.0000002402594, 0.0, 0.012207031, 0.011811702 
6.1035156e-3, 7.238094e+0, 0.000000007591513, -34006.547, 0.1194822, 0.0, 0.00035783026, 0.00000042739703, 0.00000042739703, 0.0, 0.012207031, 0.011811887 
6.1035156e-3, 7.249906e+0, 0.00000002779306, -34003.652, -0.09264049, 0.0, 0.00039037786, 0.00000028018258, 0.00000028018258, 0.0, 0.012207031, 0.011811919 
6.1035156e-3, 7.2617185e+0, -0.000000029247257, -33987.504, 0.118547775, 0.0, 0.0004121536, 0.00000038424332, 0.00000038424332, 0.0, 0.012207031, 0.011812097 
6.1035156e-3, 7.2735304e+0, -0.000000016511517, -33983.63, 0.11949085, 0.0, 0.00037577443, 0.00000040363375, 0.00000040363375, 0.0, 0.012207031, 0.01181214 
6.1035156e-3, 7.285343e+0, -0.00000018330509, -33967.453, -0.38787198, 0.0, 0.00038920614, 0.000004245783, 0.000004245783, 0.0, 0.012207031, 0.011812319 
6.1035156e-3, 7.2971547e+0, -0.000000046429218, -33964.82, -0.16451819, 0.0, 0.00039919946, 0.0000007504641, 0.0000007504641, 0.0, 0.012207031, 0.011812349 
6.1035156e-3, 7.308968e+0, -0.000000111960176, -33948.37, 0.35962966, 0.0, 0.00038361078, 0.0000036977508, 0.0000036977508, 0.0, 0.012207031, 0.01181253 
6.1035156e-3, 7.3207796e+0, -0.00000003262007, -33944.33, 0.14311539, 0.0, 0.000373777, 0.0000005707843, 0.0000005707843, 0.0, 0.012207031, 0.011812575 
6.1035156e-3, 7.3325926e+0, -0.0000006776292, -33927.84, -0.82556725, 0.0, 0.00041585, 0.000019410923, 0.000019410923, 0.0, 0.012207031, 0.011812758 
6.1035156e-3, 7.3444057e+0, -0.000000047002246, -33926.465, -0.19158086, 0.0, 0.00040071685, 0.0000010348449, 0.0000010348449, 0.0, 0.012207031, 0.011812773 
6.1035156e-3, 7.356218e+0, -0.000000059887284, -33908.188, 0.22324121, 0.0, 0.0003736065, 0.0000014098623, 0.0000014098623, 0.0, 0.012207031, 0.011812976 
6.1035156e-3, 7.368032e+0, -0.000000004433971, -33906.3, 0.032386895, 0.0, 0.00038628682, 0.000000026506314, 0.000000026506314, 0.0, 0.012207031, 0.011812996 
6.1035156e-3, 7.379844e+0, -0.00000007780018, -33888.98, -0.26294217, 0.0, 0.00041231158, 0.0000019623476, 0.0000019623476, 0.0, 0.012207031, 0.011813188 
6.1035156e-3, 7.391658e+0, 0.00000002887382, -33886.887, 0.12282186, 0.0, 0.0003887188, 0.00000047403591, 0.00000047403591, 0.0, 0.012207031, 0.011813211 
6.1035156e-3, 7.403471e+0, -0.000000047614673, -33869.207, -0.13960655, 0.0, 0.00039246664, 0.00000052783435, 0.00000052783435, 0.0, 0.012207031, 0.011813407 
6.1035156e-3, 7.415284e+0, -0.00000007036679, -33868.22, -0.24906233, 0.0, 0.0004024087, 0.0000017612037, 0.0000017612037, 0.0, 0.012207031, 0.011813418 
6.1035156e-3, 7.4270976e+0, 0.000000033654953, -33850.402, 0.057338748, 0.0, 0.00039484596, 0.00000013078534, 0.00000013078534, 0.0, 0.012207031, 0.0118136145 
6.1035156e-3, 7.438911e+0, -0.00000002407298, -33848.28, 0.21454391, 0.0, 0.00038926135, 0.0000013357858, 0.0000013357858, 0.0, 0.012207031, 0.011813639 
6.1035156e-3, 7.450725e+0, -0.00000006146536, -33830.066, -0.19795108, 0.0, 0.0004078547, 0.0000010968142, 0.0000010968142, 0.0, 0.012207031, 0.01181384 
6.1035156e-3, 7.462539e+0, -0.000000034742335, -33829.395, -0.13642515, 0.0, 0.00039396688, 0.00000051542156, 0.00000051542156, 0.0, 0.012207031, 0.011813847 
6.1035156e-3, 7.474353e+0, -0.00000007005769, -33810.633, -0.26502144, 0.0, 0.000395559, 0.000002007284, 0.000002007284, 0.0, 0.012207031, 0.011814055 
6.1035156e-3, 7.486167e+0, -0.00000008706078, -33809.65, -0.22457844, 0.0, 0.0004141939, 0.0000014046818, 0.0000014046818, 0.0, 0.012207031, 0.011814066 
6.1035156e-3, 7.497981e+0, -0.00000006830043, -33791.453, 0.04491377, 0.0, 0.00040032485, -0.000000008600182, -0.000000008600182, 0.0, 0.012207031, 0.011814267 
6.1035156e-3, 7.5097954e+0, -0.000000112943056, -33790.37, 0.2669281, 0.0, 0.0003836194, 0.000001995657, 0.000001995657, 0.0, 0.012207031, 0.0118142795 
6.1035156e-3, 7.5216097e+0, -0.000000028140228, -33770.473, -0.3563072, 0.0, 0.00041447938, 0.0000037311984, 0.0000037311984, 0.0, 0.012207031, 0.0118145 
6.1035156e-3, 7.5334245e+0, -0.00000012569214, -33771.563, -0.22372007, 0.0, 0.00040839758, 0.0000013563404, 0.0000013563404, 0.0, 0.012207031, 0.011814488 
6.1035156e-3, 7.545239e+0, -0.000000055108135, -33751.56, 0.16709207, 0.0, 0.00039601713, 0.0000007721028, 0.0000007721028, 0.0, 0.012207031, 0.011814709 
6.1035156e-3, 7.5570536e+0, -0.000000011703502, -33751.42, -0.021556865, 0.0, 0.00041462164, 0.000000002059096, 0.000000002059096, 0.0, 0.012207031, 0.011814711 
6.1035156e-3, 7.5688684e+0, -0.00000002162979, -33732.176, -0.13469046, 0.0, 0.00041483383, 0.00000051618554, 0.00000051618554, 0.0, 0.012207031, 0.011814924 
6.1035156e-3, 7.580684e+0, -0.000000046837727, -33732.17, 0.30421612, 0.0, 0.0003862686, 0.000002696761, 0.000002696761, 0.0, 0.012207031, 0.011814924 
6.1035156e-3, 7.5924987e+0, 0.000000039576232, -33711.977, 0.06957931, 0.0, 0.00042114593, 0.00000018317951, 0.00000018317951, 0.0, 0.012207031, 0.0118151475 
6.1035156e-3, 7.604314e+0, -0.00000011212838, -33712.3, -0.34214425, 0.0, 0.00041392416, 0.00000336027, 0.00000336027, 0.0, 0.012207031, 0.011815144 
6.1035156e-3, 7.616129e+0, -0.00000006944706, -33693.695, -0.14668626, 0.0, 0.00040009833, 0.00000056914723, 0.00000056914723, 0.0, 0.012207031, 0.01181535 
6.1035156e-3, 7.6279444e+0, -0.000000005024918, -33691.96, 0.035863005, 0.0, 0.00042531447, 0.000000033141987, 0.000000033141987, 0.0, 0.012207031, 0.011815369 
6.1035156e-3, 7.63976e+0, -0.0000001408021, -33674.11, -0.24063253, 0.0, 0.00042871173, 0.0000015787373, 0.0000015787373, 0.0, 0.012207031, 0.011815567 
6.1035156e-3, 7.651576e+0, -0.00000012545, -33673.383, 0.4033425, 0.0, 0.00038282856, 0.00000470582, 0.00000470582, 0.0, 0.012207031, 0.011815575 
6.1035156e-3, 7.663391e+0, -0.00000006162213, -33653.453, -0.13898346, 0.0, 0.00042998022, 0.0000005123584, 0.0000005123584, 0.0, 0.012207031, 0.011815796 
6.1035156e-3, 7.675207e+0, -0.00000009239655, -33653.508, -0.3085848, 0.0, 0.00042293998, 0.000002737157, 0.000002737157, 0.0, 0.012207031, 0.011815795 
6.1035156e-3, 7.6870227e+0, -0.000000055755784, -33634.96, 0.15254754, 0.0, 0.00040193804, 0.00000063610787, 0.00000063610787, 0.0, 0.012207031, 0.011816001 
6.1035156e-3, 7.698839e+0, -0.00000006059425, -33633.32, -0.042639207, 0.0, 0.0004312453, -0.00000000653381, -0.00000000653381, 0.0, 0.012207031, 0.011816019 
6.1035156e-3, 7.710655e+0, -0.00000030477298, -33615.414, -0.53939986, 0.0, 0.00043735382, 0.000008350544, 0.000008350544, 0.0, 0.012207031, 0.011816217 
6.1035156e-3, 7.7224714e+0, -0.00000015411887, -33614.797, 0.40022525, 0.0, 0.0003884101, 0.000004611051, 0.000004611051, 0.0, 0.012207031, 0.011816224 
6.1035156e-3, 7.734288e+0, -0.000000065440425, -33594.71, 0.13184579, 0.0, 0.0004377425, 0.00000045200431, 0.00000045200431, 0.0, 0.012207031, 0.011816447 
6.1035156e-3, 7.746104e+0, -0.000000019393505, -33595.063, -0.15570481, 0.0, 0.00042079587, 0.00000070226815, 0.00000070226815, 0.0, 0.012207031, 0.011816443 
6.1035156e-3, 7.7579206e+0, -0.00000014252481, -33576.113, 0.28207272, 0.0, 0.00040869074, 0.0000022271706, 0.0000022271706, 0.0, 0.012207031, 0.0118166525 
6.1035156e-3, 7.769737e+0, -0.00000013105098, -33574.156, -0.28962126, 0.0, 0.0004332816, 0.0000023673128, 0.0000023673128, 0.0, 0.012207031, 0.011816674 
6.1035156e-3, 7.781554e+0, 0.0000000010743878, -33557.41, -0.22542393, 0.0, 0.00042792942, 0.0000015153782, 0.0000015153782, 0.0, 0.012207031, 0.011816859 
6.1035156e-3, 7.7933705e+0, -0.000000014935994, -33554.543, 0.10300797, 0.0, 0.00040404202, 0.00000030128285, 0.00000030128285, 0.0, 0.012207031, 0.011816892 
6.1035156e-3, 7.805188e+0, -0.0000015939986, -33537.402, -1.201001, 0.0, 0.0004457468, 0.0000414148, 0.0000414148, 0.0, 0.012207031, 0.011817081 
6.1035156e-3, 7.817005e+0, -0.0000000824301, -33536.594, -0.18951142, 0.0, 0.00041069963, 0.0000009884752, 0.0000009884752, 0.0, 0.012207031, 0.01181709 
6.1035156e-3, 7.828822e+0, -0.00000027720532, -33517.56, 0.46788004, 0.0, 0.00041096023, 0.0000062540494, 0.0000062540494, 0.0, 0.012207031, 0.011817302 
6.1035156e-3, 7.8406394e+0, -0.00000013913228, -33515.855, -0.2851571, 0.0, 0.00043319137, 0.0000022870227, 0.0000022870227, 0.0, 0.012207031, 0.01181732 
6.1035156e-3, 7.852457e+0, -0.00000008376343, -33499.086, -0.28905955, 0.0, 0.00042109992, 0.0000024104957, 0.0000024104957, 0.0, 0.012207031, 0.011817506 
6.1035156e-3, 7.8642744e+0, -0.000000011766128, -33495.387, 0.17583248, 0.0, 0.0004167501, 0.00000091126276, 0.00000091126276, 0.0, 0.012207031, 0.011817547 
6.1035156e-3, 7.876092e+0, -0.00000011708277, -33479.6, -0.3235933, 0.0, 0.00042701376, 0.000003010573, 0.000003010573, 0.0, 0.012207031, 0.011817722 
6.1035156e-3, 7.88791e+0, -0.00000014412034, -33476.57, 0.40330228, 0.0, 0.00041227398, 0.0000047145804, 0.0000047145804, 0.0, 0.012207031, 0.011817755 
6.1035156e-3, 7.899728e+0, -0.00000008112353, -33459.344, -0.23093, 0.0, 0.00043100855, 0.000001512708, 0.000001512708, 0.0, 0.012207031, 0.011817946 
6.1035156e-3, 7.9115456e+0, -0.000000054143637, -33457.51, -0.14522919, 0.0, 0.00041942674, 0.00000057625584, 0.00000057625584, 0.0, 0.012207031, 0.011817967 
6.1035156e-3, 7.9233634e+0, -0.0000005926363, -33439.695, 0.77005464, 0.0, 0.0004115706, 0.000017140308, 0.000017140308, 0.0, 0.012207031, 0.011818164 
6.1035156e-3, 7.935182e+0, -0.000000023773149, -33438.098, -0.07361632, 0.0, 0.0004253629, 0.0000001383014, 0.0000001383014, 0.0, 0.012207031, 0.011818182 
6.1035156e-3, 7.947e+0, -0.000004441755, -33424.87, 1.9345223, 0.0, 0.00042237903, 0.000107522064, 0.000107522064, 0.0, 0.012207031, 0.011818328 
6.1035156e-3, 7.9588187e+0, -0.00018786543, -33416.594, -14.073721, 0.0, 0.00042355785, 0.005739417, 0.005739417, 0.0, 0.012207031, 0.01181842 
6.1035156e-3, 7.970637e+0, -0.000007809542, -33398.33, 2.4604068, 0.0, 0.0004153077, 0.00017344509, 0.00017344509, 0.0, 0.012207031, 0.011818622 
6.1035156e-3, 7.9824555e+0, -0.000000096059445, -33397.86, 0.040754825, 0.0, 0.00042335465, -0.000000046326022, -0.000000046326022, 0.0, 0.012207031, 0.011818628 
6.1035156e-3, 7.994274e+0, -0.000002356262, -33381.61, -1.4705031, 0.0, 0.00042697648, 0.0000624213, 0.0000624213, 0.0, 0.012207031, 0.011818808 
6.1035156e-3, 8.006093e+0, 0.000000005823995, -33377.797, 0.1595518, 0.0, 0.0004186985, 0.00000076850847, 0.00000076850847, 0.0, 0.012207031, 0.01181885 
6.1035156e-3, 8.017912e+0, -0.000000015282632, -33362.754, -0.16259162, 0.0, 0.00042698934, 0.0000007771014, 0.0000007771014, 0.0, 0.012207031, 0.011819017 
6.1035156e-3, 8.029731e+0, -0.000000021244528, -33358.78, -0.09517865, 0.0, 0.0004324746, 0.00000025031477, 0.00000025031477, 0.0, 0.012207031, 0.011819061 
6.1035156e-3, 8.0415505e+0, 0.0000000025799136, -33343.18, 0.09220142, 0.0, 0.00041620567, 0.0000002575398, 0.0000002575398, 0.0, 0.012207031, 0.011819234 
6.1035156e-3, 8.0533695e+0, -0.000000004148557, -33338.78, 0.024590375, 0.0, 0.00042410905, 0.0000000139916665, 0.0000000139916665, 0.0, 0.012207031, 0.011819283 
6.1035156e-3, 8.065189e+0, -0.0000000034027068, -33323.938, -0.13576217, 0.0, 0.00043863073, 0.0000005496913, 0.0000005496913, 0.0, 0.012207031, 0.011819447 
6.1035156e-3, 8.077008e+0, -0.0000000417827, -33319.055, 0.0030264647, 0.0, 0.00043386605, -0.000000041516614, -0.000000041516614, 0.0, 0.012207031, 0.011819501 
6.1035156e-3, 8.0888283e+0, -0.00000000424881, -33304.676, 0.028657312, 0.0, 0.0004240227, 0.000000020409061, 0.000000020409061, 0.0, 0.012207031, 0.011819661 
6.1035156e-3, 8.100648e+0, -0.0000000011506733, -33299.258, -0.07717756, 0.0, 0.00042850926, 0.00000017772254, 0.00000017772254, 0.0, 0.012207031, 0.011819721 
6.1035156e-3, 8.1124675e+0, -0.000000021389624, -33284.984, -0.023242516, 0.0, 0.0004424903, -0.000000005158654, -0.000000005158654, 0.0, 0.012207031, 0.0118198795 
6.1035156e-3, 8.124288e+0, -0.000000037495788, -33279.836, 0.00895639, 0.0, 0.00043861324, -0.000000035084668, -0.000000035084668, 0.0, 0.012207031, 0.011819936 
6.1035156e-3, 8.1361073e+0, 0.000000014053656, -33265.465, -0.041951604, 0.0, 0.00043311203, 0.00000006696064, 0.00000006696064, 0.0, 0.012207031, 0.011820096 
6.1035156e-3, 8.1479275e+0, 0.000000006411996, -33260.773, -0.047477372, 0.0, 0.00043502424, 0.00000007417839, 0.00000007417839, 0.0, 0.012207031, 0.011820148 
6.1035156e-3, 8.1597483e+0, -0.000000004173611, -33246.16, -0.005659102, 0.0, 0.0004453087, -0.0000000032086973, -0.0000000032086973, 0.0, 0.012207031, 0.01182031 
6.1035156e-3, 8.171568e+0, 0.00000003647361, -33241.402, 0.044726502, 0.0, 0.0004401677, 0.000000096646545, 0.000000096646545, 0.0, 0.012207031, 0.011820362 
6.1035156e-3, 8.183389e+0, 0.000000036802902, -33226.414, 0.0001339141, 0.0, 0.00044271158, 0.000000036801794, 0.000000036801794, 0.0, 0.012207031, 0.011820529 
6.1035156e-3, 8.1952095e+0, 0.000000028558716, -33222.33, 0.060372807, 0.0, 0.00043949988, 0.0000001382723, 0.0000001382723, 0.0, 0.012207031, 0.011820574 
6.1035156e-3, 8.20703e+0, -0.00000035921218, -33206.76, -0.62468797, 0.0, 0.00044739764, 0.000011392454, 0.000011392454, 0.0, 0.012207031, 0.011820747 
6.1035156e-3, 8.218851e+0, -0.000000030987046, -33202.258, 0.08134481, 0.0, 0.00044126276, 0.00000016830745, 0.00000016830745, 0.0, 0.012207031, 0.011820797 
6.1035156e-3, 8.230672e+0, -0.000000040953253, -33187.637, 0.03528448, 0.0, 0.00044811933, -0.000000003441528, -0.000000003441528, 0.0, 0.012207031, 0.011820959 
6.1035156e-3, 8.2424927e+0, -0.000000060512185, -33182.434, 0.09600558, 0.0, 0.00044001476, 0.00000021725282, 0.00000021725282, 0.0, 0.012207031, 0.011821017 
6.1035156e-3, 8.2543135e+0, -0.00000003031727, -33168.563, -0.07250479, 0.0, 0.0004487041, 0.00000012817327, 0.00000012817327, 0.0, 0.012207031, 0.01182117 
6.1035156e-3, 8.2661355e+0, -0.000000022474923, -33162.4, -0.09170604, 0.0, 0.0004432142, 0.0000002311208, 0.0000002311208, 0.0, 0.012207031, 0.011821238 
6.1035156e-3, 8.277956e+0, 0.000000037828272, -33149.645, 0.0434183, 0.0, 0.00044595316, 0.00000009468931, 0.00000009468931, 0.0, 0.012207031, 0.01182138 
6.1035156e-3, 8.2897776e+0, -0.000000023812557, -33142.293, 0.06257978, 0.0, 0.0004439106, 0.00000009434734, 0.00000009434734, 0.0, 0.012207031, 0.011821462 
6.1035156e-3, 8.3015996e+0, -0.000000056943456, -33129.95, 0.020551678, 0.0, 0.00044891337, -0.000000044194167, -0.000000044194167, 0.0, 0.012207031, 0.011821599 
6.1035156e-3, 8.313421e+0, 0.0000000035085088, -33122.965, 0.09046878, 0.0, 0.00043731742, 0.00000025059853, 0.00000025059853, 0.0, 0.012207031, 0.011821676 
6.1035156e-3, 8.325242e+0, -0.000000018900218, -33110.38, 0.030299636, 0.0, 0.0004448242, 0.000000008825737, 0.000000008825737, 0.0, 0.012207031, 0.011821816 
6.1035156e-3, 8.337065e+0, 0.0000000035191132, -33103.375, -0.029499006, 0.0, 0.00044901643, 0.0000000298096, 0.0000000298096, 0.0, 0.012207031, 0.011821893 
6.1035156e-3, 8.3488864e+0, 0.000000111393675, -33090.832, -0.078906335, 0.0, 0.00044349817, 0.00000029955117, 0.00000029955117, 0.0, 0.012207031, 0.011822033 
6.1035156e-3, 8.3607084e+0, -0.000000008595657, -33083.563, 0.022709552, 0.0, 0.00043848064, 0.0000000069994712, 0.0000000069994712, 0.0, 0.012207031, 0.011822113 
6.1035156e-3, 8.372531e+0, 0.0000000012655784, -33071.645, -0.0047534783, 0.0, 0.00044554743, 0.0000000019499566, 0.0000000019499566, 0.0, 0.012207031, 0.011822245 
6.1035156e-3, 8.384353e+0, 0.000000010141576, -33063.563, 0.010757411, 0.0, 0.00044484387, 0.0000000136424205, 0.0000000136424205, 0.0, 0.012207031, 0.0118223345 
6.1035156e-3, 8.3961755e+0, -0.0000007622601, -33052.438, -0.85075337, 0.0, 0.0004386645, 0.000021135711, 0.000021135711, 0.0, 0.012207031, 0.011822458 
6.1035156e-3, 8.407998e+0, 0.00000003554365, -33043.863, -0.12019504, 0.0, 0.0004484694, 0.00000047274807, 0.00000047274807, 0.0, 0.012207031, 0.011822553 
6.1035156e-3, 8.4198207e+0, 0.00000003104475, -33033.164, -0.03348914, 0.0, 0.00044738254, 0.000000065003405, 0.000000065003405, 0.0, 0.012207031, 0.011822673 
6.1035156e-3, 8.431643e+0, -0.000000017790285, -33024.07, 0.0529703, 0.0, 0.00043902008, 0.00000006717892, 0.00000006717892, 0.0, 0.012207031, 0.011822773 
6.1035156e-3, 8.4434664e+0, -0.0000002108921, -33013.586, -0.39746684, 0.0, 0.00043786768, 0.000004574409, 0.000004574409, 0.0, 0.012207031, 0.01182289 
6.1035156e-3, 8.455289e+0, 0.00000007258424, -33004.453, 0.002600548, 0.0, 0.00045657335, 0.000000072795956, 0.000000072795956, 0.0, 0.012207031, 0.011822991 
6.1035156e-3, 8.4671116e+0, -0.000000011319414, -32994.246, 0.073483445, 0.0, 0.00044956442, 0.00000015233672, 0.00000015233672, 0.0, 0.012207031, 0.011823104 
6.1035156e-3, 8.4789354e+0, -0.000000022698154, -32984.41, -0.15633206, 0.0, 0.00044235165, 0.00000071824616, 0.00000071824616, 0.0, 0.012207031, 0.011823213 
6.1035156e-3, 8.490759e+0, -0.000000032225035, -32975.086, -0.18293908, 0.0, 0.0004382922, 0.0000009826836, 0.0000009826836, 0.0, 0.012207031, 0.011823317 
6.1035156e-3, 8.502582e+0, -0.000000013059876, -32965.58, 0.093406014, 0.0, 0.0004615661, 0.00000025160261, 0.00000025160261, 0.0, 0.012207031, 0.011823422 
6.1035156e-3, 8.5144055e+0, -0.00000007371789, -32955.02, 0.090163685, 0.0, 0.00045525294, 0.00000017296406, 0.00000017296406, 0.0, 0.012207031, 0.01182354 
6.1035156e-3, 8.5262287e+0, -0.0000000049177293, -32946.137, -0.16884133, 0.0, 0.00044648602, 0.00000086036016, 0.00000086036016, 0.0, 0.012207031, 0.011823638 
6.1035156e-3, 8.5380524e+0, -0.000000108671266, -32935.754, -0.26249593, 0.0, 0.0004490262, 0.0000019834042, 0.0000019834042, 0.0, 0.012207031, 0.011823753 
6.1035156e-3, 8.549876e+0, 0.000000022367008, -32927.117, 0.047739256, 0.0, 0.00046402743, 0.00000009158248, 0.00000009158248, 0.0, 0.012207031, 0.011823849 
6.1035156e-3, 8.5617e+0, 0.000000004079019, -32915.813, 0.15199435, 0.0, 0.000452851, 0.0000007059425, 0.0000007059425, 0.0, 0.012207031, 0.011823975 
6.1035156e-3, 8.5735244e+0, -0.00000001273938, -32906.555, -0.21499433, 0.0, 0.00045615237, 0.0000013919198, 0.0000013919198, 0.0, 0.012207031, 0.011824077 
6.1035156e-3, 8.585348e+0, -0.00000010050463, -32896.996, -0.28104964, 0.0, 0.00047154812, 0.0000023005923, 0.0000023005923, 0.0, 0.012207031, 0.011824183 
6.1035156e-3, 8.5971725e+0, -0.000000001833623, -32887.543, 0.08234812, 0.0, 0.0004646246, 0.00000020435982, 0.00000020435982, 0.0, 0.012207031, 0.011824288 
6.1035156e-3, 8.6089975e+0, -0.00000006277293, -32877.387, 0.17503819, 0.0, 0.00044077908, 0.0000008691277, 0.0000008691277, 0.0, 0.012207031, 0.011824401 
6.1035156e-3, 8.620822e+0, -0.000000074141745, -32867.22, -0.14914395, 0.0, 0.00046610026, 0.0000006026312, 0.0000006026312, 0.0, 0.012207031, 0.011824514 
6.1035156e-3, 8.632647e+0, -0.00000037087395, -32857.953, -0.6344969, 0.0, 0.0005000339, 0.00001188145, 0.00001188145, 0.0, 0.012207031, 0.011824617 
6.1035156e-3, 8.644471e+0, -0.00000002862548, -32848.55, 0.033312507, 0.0, 0.00045876252, 0.000000005158654, 0.000000005158654, 0.0, 0.012207031, 0.0118247215 
6.1035156e-3, 8.6562955e+0, -0.000000032088632, -32838.242, 0.31616095, 0.0, 0.00044093028, 0.0000030118536, 0.0000030118536, 0.0, 0.012207031, 0.011824835 
6.1035156e-3, 8.6681205e+0, -0.00000004021566, -32827.945, -0.13144019, 0.0, 0.00047921645, 0.0000004860558, 0.0000004860558, 0.0, 0.012207031, 0.01182495 
6.1035156e-3, 8.679946e+0, -0.0000002778196, -32819.555, -0.4846494, 0.0, 0.0004904024, 0.000006879047, 0.000006879047, 0.0, 0.012207031, 0.011825043 
6.1035156e-3, 8.6917704e+0, -0.00000004450535, -32808.44, 0.11308984, 0.0, 0.0004645568, 0.00000034530967, 0.00000034530967, 0.0, 0.012207031, 0.011825167 
6.1035156e-3, 8.703596e+0, 0.000000026493474, -32799.66, -0.1727172, 0.0, 0.00046378013, 0.00000093598646, 0.00000093598646, 0.0, 0.012207031, 0.0118252635 
6.1035156e-3, 8.715421e+0, -0.0000000184159, -32789.05, 0.08127146, 0.0, 0.0004635675, 0.00000018302671, 0.00000018302671, 0.0, 0.012207031, 0.011825382 
6.1035156e-3, 8.7272465e+0, -0.00000007650948, -32780.332, -0.23716795, 0.0, 0.000496682, 0.0000016394188, 0.0000016394188, 0.0, 0.012207031, 0.011825479 
6.1035156e-3, 8.739072e+0, -0.0000000601712, -32769.11, -0.27525678, 0.0, 0.00047686137, 0.0000022519525, 0.0000022519525, 0.0, 0.012207031, 0.011825603 
6.1035156e-3, 8.7508976e+0, -0.00000008740992, -32761.59, 0.21924546, 0.0, 0.00045028812, 0.0000013798126, 0.0000013798126, 0.0, 0.012207031, 0.011825686 
6.1035156e-3, 8.762724e+0, -0.000000030402518, -32747.902, -0.018254437, 0.0, 0.00047076764, -0.0000000202308, -0.0000000202308, 0.0, 0.012207031, 0.011825838 
6.1035156e-3, 8.7745494e+0, -0.0000014353002, -32742.668, -1.1734192, 0.0, 0.0004957124, 0.000040617255, 0.000040617255, 0.0, 0.012207031, 0.011825897 
6.1035156e-3, 8.786375e+0, -0.00000006063688, -32729.617, -0.24275294, 0.0, 0.00047230677, 0.0000017398379, 0.0000017398379, 0.0, 0.012207031, 0.011826041 
6.1035156e-3, 8.7982017e+0, 0.0000000010143586, -32722.611, 0.087509796, 0.0, 0.00046657992, 0.00000023504253, 0.00000023504253, 0.0, 0.012207031, 0.011826119 
6.1035156e-3, 8.810028e+0, -0.000000044251962, -32709.697, -0.10410227, 0.0, 0.0004568858, 0.00000028706563, 0.00000028706563, 0.0, 0.012207031, 0.011826263 
6.1035156e-3, 8.8218534e+0, -0.00000011211903, -32703.152, -0.25330082, 0.0, 0.00049395615, 0.000001849814, 0.000001849814, 0.0, 0.012207031, 0.011826335 
6.1035156e-3, 8.83368e+0, -0.000000046835126, -32689.973, -0.20400502, 0.0, 0.0004981054, 0.000001226279, 0.000001226279, 0.0, 0.012207031, 0.011826482 
6.1035156e-3, 8.845507e+0, -0.00000008705602, -32684.438, 0.23919503, 0.0, 0.0004406289, 0.0000016634476, 0.0000016634476, 0.0, 0.012207031, 0.011826543 
6.1035156e-3, 8.857333e+0, -0.00000011012445, -32669.738, 0.28545028, 0.0, 0.0004594497, 0.0000023839857, 0.0000023839857, 0.0, 0.012207031, 0.011826706 
6.1035156e-3, 8.8691604e+0, -0.000000109589664, -32664.56, -0.31823662, 0.0, 0.00050570426, 0.0000029908515, 0.0000029908515, 0.0, 0.012207031, 0.011826764 
6.1035156e-3, 8.880987e+0, -0.00000006501911, -32650.91, 0.2449871, 0.0, 0.00047356676, 0.0000017731727, 0.0000017731727, 0.0, 0.012207031, 0.011826916 
6.1035156e-3, 8.892814e+0, -0.000000016246652, -32644.445, -0.01574606, 0.0, 0.0004603628, -0.000000008651114, -0.000000008651114, 0.0, 0.012207031, 0.011826987 
6.1035156e-3, 8.904641e+0, -0.000000019795664, -32632.287, 0.035538148, 0.0, 0.00048746698, 0.000000018906576, 0.000000018906576, 0.0, 0.012207031, 0.011827122 
6.1035156e-3, 8.9164686e+0, -0.0000017708802, -32627.318, 1.2910966, 0.0, 0.00047780812, 0.000049319133, 0.000049319133, 0.0, 0.012207031, 0.011827177 
6.1035156e-3, 8.9282954e+0, -0.00006376171, -32610.955, -8.226024, 0.0, 0.00045478836, 0.0020112302, 0.0020112302, 0.0, 0.012207031, 0.01182736 
6.1035156e-3, 8.940123e+0, -0.0000018832333, -32604.432, 1.2866185, 0.0, 0.0004777972, 0.000048888607, 0.000048888607, 0.0, 0.012207031, 0.011827432 
6.1035156e-3, 8.95195e+0, -0.0000020468053, -32588.191, -1.355176, 0.0, 0.00052375224, 0.000054308017, 0.000054308017, 0.0, 0.012207031, 0.011827612 
6.1035156e-3, 8.9637786e+0, -0.000012482563, -32589.537, -4.1419096, 0.0, 0.00045937588, 0.00051392603, 0.00051392603, 0.0, 0.012207031, 0.011827597 
6.1035156e-3, 8.975606e+0, -0.000037656213, -32573.178, -6.4369245, 0.0, 0.00044072449, 0.0012343718, 0.0012343718, 0.0, 0.012207031, 0.011827779 
6.1035156e-3, 8.9874333e+0, -0.0000006613792, -32567.82, 0.7850533, 0.0, 0.00049745105, 0.000018262472, 0.000018262472, 0.0, 0.012207031, 0.011827839 
6.1035156e-3, 8.999262e+0, -0.000000026358412, -32552.102, -0.019981347, 0.0, 0.00052297546, -0.00000001409353, -0.00000001409353, 0.0, 0.012207031, 0.011828014 
6.1035156e-3, 9.011089e+0, -0.000000104408144, -32548.262, -0.2293058, 0.0, 0.0004624197, 0.0000015110782, 0.0000015110782, 0.0, 0.012207031, 0.011828056 
6.1035156e-3, 9.022918e+0, -0.000000038745366, -32531.967, -0.18971753, 0.0, 0.00046489036, 0.0000010676376, 0.0000010676376, 0.0, 0.012207031, 0.011828237 
6.1035156e-3, 9.034746e+0, 0.0000000007443058, -32529.568, -0.009158361, 0.0, 0.0004904975, 0.0000000033251126, 0.0000000033251126, 0.0, 0.012207031, 0.011828263 
6.1035156e-3, 9.046575e+0, -0.000000043616673, -32512.512, 0.21447748, 0.0, 0.0005105846, 0.0000013712415, 0.0000013712415, 0.0, 0.012207031, 0.011828453 
6.1035156e-3, 9.058403e+0, -0.00000005174869, -32509.092, -0.12710875, 0.0, 0.00048389763, 0.00000044523767, 0.00000044523767, 0.0, 0.012207031, 0.011828491 
6.1035156e-3, 9.0702313e+0, -0.000000027068738, -32493.242, -0.20212792, 0.0, 0.00047117393, 0.0000012302917, 0.0000012302917, 0.0, 0.012207031, 0.0118286675 
6.1035156e-3, 9.08206e+0, -0.000000041859103, -32490.38, 0.011711849, 0.0, 0.00048081434, -0.00000003763853, -0.00000003763853, 0.0, 0.012207031, 0.011828699 
6.1035156e-3, 9.093889e+0, -0.00000002732821, -32472.547, -0.1810494, 0.0, 0.0005275043, 0.0000009821051, 0.0000009821051, 0.0, 0.012207031, 0.0118288975 
6.1035156e-3, 9.1057175e+0, -0.000000078023064, -32471.64, -0.18174897, 0.0, 0.00048419906, 0.00000093925337, 0.00000093925337, 0.0, 0.012207031, 0.011828908 
6.1035156e-3, 9.117547e+0, -0.00000008204551, -32452.963, 0.2759616, 0.0, 0.00047140018, 0.00000226458, 0.00000226458, 0.0, 0.012207031, 0.0118291145 
6.1035156e-3, 9.1293764e+0, -0.00000000708234, -32451.496, 0.004846335, 0.0, 0.0005108777, -0.000000006359187, -0.000000006359187, 0.0, 0.012207031, 0.011829131 
6.1035156e-3, 9.141205e+0, -0.00000006870905, -32433.898, -0.21847868, 0.0, 0.000493597, 0.0000014029865, 0.0000014029865, 0.0, 0.012207031, 0.011829327 
6.1035156e-3, 9.153034e+0, -0.00000000168472, -32431.973, 0.1299193, 0.0, 0.00045589506, 0.0000005187576, 0.0000005187576, 0.0, 0.012207031, 0.011829348 
6.1035156e-3, 9.164864e+0, -0.00000003136471, -32413.566, -0.0830588, 0.0, 0.00054201134, 0.0000001814733, 0.0000001814733, 0.0, 0.012207031, 0.011829553 
6.1035156e-3, 9.176694e+0, -0.00000034157205, -32413.19, -0.59855527, 0.0, 0.0005299135, 0.000010711592, 0.000010711592, 0.0, 0.012207031, 0.011829557 
6.1035156e-3, 9.188523e+0, -0.00000006792122, -32394.656, 0.29557663, 0.0, 0.00043224837, 0.0000026289927, 0.0000026289927, 0.0, 0.012207031, 0.011829763 
6.1035156e-3, 9.2003524e+0, -0.000000022622787, -32392.39, -0.059108045, 0.0, 0.00045678212, 0.000000085234205, 0.000000085234205, 0.0, 0.012207031, 0.011829788 
6.1035156e-3, 9.212183e+0, -0.000000062360975, -32375.39, -0.0048522055, 0.0, 0.00056685874, -0.00000006163464, -0.00000006163464, 0.0, 0.012207031, 0.011829977 
6.1035156e-3, 9.224013e+0, 0.00000003268235, -32373.244, 0.09735699, 0.0, 0.0005340498, 0.00000032546814, 0.00000032546814, 0.0, 0.012207031, 0.011830001 
6.1035156e-3, 9.235843e+0, -0.00000016081754, -32354.863, -0.35567802, 0.0, 0.00043416335, 0.000003749159, 0.000003749159, 0.0, 0.012207031, 0.011830205 
6.1035156e-3, 9.247673e+0, -0.00000016718022, -32354.531, -0.37742925, 0.0, 0.00044455193, 0.000004235688, 0.000004235688, 0.0, 0.012207031, 0.011830209 
6.1035156e-3, 9.2595035e+0, -0.00000025496675, -32336.363, 0.49172416, 0.0, 0.0005609336, 0.0000072224575, 0.0000072224575, 0.0, 0.012207031, 0.011830411 
6.1035156e-3, 9.271334e+0, -0.00000014263236, -32333.773, 0.3662542, 0.0, 0.00053989445, 0.0000040060368, 0.0000040060368, 0.0, 0.012207031, 0.01183044 
6.1035156e-3, 9.283165e+0, -0.000000064469326, -32316.209, -0.22464287, 0.0, 0.0004398043, 0.000001497112, 0.000001497112, 0.0, 0.012207031, 0.011830635 
6.1035156e-3, 9.294995e+0, -0.000000109822196, -32315.979, -0.30427074, 0.0, 0.00046707984, 0.000002755034, 0.000002755034, 0.0, 0.012207031, 0.011830637 
6.1035156e-3, 9.3068254e+0, -0.000000030095197, -32297.879, 0.26277065, 0.0, 0.00054194825, 0.0000021077685, 0.0000021077685, 0.0, 0.012207031, 0.011830838 
6.1035156e-3, 9.318657e+0, -0.00000025755148, -32295.182, 0.4684086, 0.0, 0.00049098773, 0.00000653624, 0.00000653624, 0.0, 0.012207031, 0.011830869 
6.1035156e-3, 9.3304884e+0, -0.00000003169537, -32277.775, -0.30418265, 0.0, 0.00048018832, 0.000002834895, 0.000002834895, 0.0, 0.012207031, 0.011831062 
6.1035156e-3, 9.342319e+0, -0.00000014216795, -32275.883, -0.3218865, 0.0, 0.0005199332, 0.0000030679985, 0.0000030679985, 0.0, 0.012207031, 0.011831083 
6.1035156e-3, 9.3541497e+0, -0.000000047045592, -32258.486, -0.107865445, 0.0, 0.0005003698, 0.0000003136338, 0.0000003136338, 0.0, 0.012207031, 0.011831277 
6.1035156e-3, 9.365981e+0, -0.000003228345, -32255.84, -1.6123137, 0.0, 0.00045781248, 0.00007736344, 0.00007736344, 0.0, 0.012207031, 0.011831306 
6.1035156e-3, 9.377812e+0, -0.0000005291594, -32239.781, -0.7138727, 0.0, 0.00051639765, 0.000015277841, 0.000015277841, 0.0, 0.012207031, 0.011831485 
6.1035156e-3, 9.389645e+0, -0.000000025113975, -32236.742, -0.1469781, 0.0, 0.0005238342, 0.00000064501, 0.00000064501, 0.0, 0.012207031, 0.011831518 
6.1035156e-3, 9.401476e+0, 0.000000020652164, -32219.23, -0.16773622, 0.0, 0.0004888087, 0.0000008939023, 0.0000008939023, 0.0, 0.012207031, 0.011831714 
6.1035156e-3, 9.4133073e+0, -0.00000008914177, -32217.324, -0.3092907, 0.0, 0.00048227733, 0.0000028800896, 0.0000028800896, 0.0, 0.012207031, 0.011831734 
6.1035156e-3, 9.4251394e+0, -0.0000000012471998, -32199.928, -0.019289939, 0.0, 0.0005139042, 0.000000010310032, 0.000000010310032, 0.0, 0.012207031, 0.011831928 
6.1035156e-3, 9.4369715e+0, -0.000000047789456, -32198.203, 0.31517962, 0.0, 0.0005039704, 0.0000030374213, 0.0000030374213, 0.0, 0.012207031, 0.011831948 
6.1035156e-3, 9.4488037e+0, -0.0000000711308, -32179.22, 0.029211544, 0.0, 0.00052163965, -0.000000044612534, -0.000000044612534, 0.0, 0.012207031, 0.011832158 
6.1035156e-3, 9.460635e+0, -0.00000028812417, -32178.697, -0.575537, 0.0, 0.0004746656, 0.00001000573, 0.00001000573, 0.0, 0.012207031, 0.011832165 
6.1035156e-3, 9.4724673e+0, -0.0000000515212, -32160.99, 0.019271202, 0.0, 0.000480078, -0.00000003997411, -0.00000003997411, 0.0, 0.012207031, 0.011832361 
6.1035156e-3, 9.4843006e+0, -0.000000038214004, -32158.246, 0.26982084, 0.0, 0.00057307095, 0.0000022256936, 0.0000022256936, 0.0, 0.012207031, 0.011832392 
6.1035156e-3, 9.496133e+0, -0.000000080064495, -32141.572, -0.17165582, 0.0, 0.00055397785, 0.0000008366842, 0.0000008366842, 0.0, 0.012207031, 0.011832577 
6.1035156e-3, 9.507965e+0, -0.0000010781828, -32141.264, 0.99180853, 0.0, 0.0003907976, 0.00002952684, 0.00002952684, 0.0, 0.012207031, 0.011832581 
6.1035156e-3, 9.519798e+0, -0.000036329428, -32120.547, -6.320383, 0.0, 0.00048262012, 0.0012073369, 0.0012073369, 0.0, 0.012207031, 0.011832811 
6.1035156e-3, 9.53163e+0, -0.0000004873154, -32118.66, 0.6050672, 0.0, 0.00063476234, 0.000010911241, 0.000010911241, 0.0, 0.012207031, 0.011832832 
6.1035156e-3, 9.5434636e+0, -0.00000011248005, -32101.785, 0.33624604, 0.0, 0.00055050314, 0.0000034094846, 0.0000034094846, 0.0, 0.012207031, 0.01183302 
6.1035156e-3, 9.555297e+0, -0.00000025081195, -32099.049, -0.5140145, 0.0, 0.00038341054, 0.000007980299, 0.000007980299, 0.0, 0.012207031, 0.01183305 
6.1035156e-3, 9.56713e+0, -0.0000014272251, -32083.668, -1.178692, 0.0, 0.00050323765, 0.00004187564, 0.00004187564, 0.0, 0.012207031, 0.011833222 
6.1035156e-3, 9.5789635e+0, -0.0000006357815, -32080.98, 0.7887818, 0.0, 0.00061330287, 0.000018758165, 0.000018758165, 0.0, 0.012207031, 0.011833251 
6.1035156e-3, 9.590796e+0, -0.0000003389341, -32061.912, 0.56678295, 0.0, 0.00049683877, 0.000009680523, 0.000009680523, 0.0, 0.012207031, 0.011833463 
6.1035156e-3, 9.6026295e+0, -0.0000008621472, -32059.463, -0.8951195, 0.0, 0.0004718863, 0.000024130128, 0.000024130128, 0.0, 0.012207031, 0.011833491 
6.1035156e-3, 9.614464e+0, -0.0000014007683, -32045.04, -1.1578077, 0.0, 0.00058471423, 0.00004043156, 0.00004043156, 0.0, 0.012207031, 0.011833651 
6.1035156e-3, 9.626297e+0, -0.0000016874578, -32043.162, 1.2873373, 0.0, 0.0004829173, 0.000050031445, 0.000050031445, 0.0, 0.012207031, 0.0118336715 
6.1035156e-3, 9.638131e+0, -0.0000016136665, -32021.537, 1.2695105, 0.0, 0.00045907794, 0.000048716738, 0.000048716738, 0.0, 0.012207031, 0.011833913 
6.1035156e-3, 9.649965e+0, -0.0000019438535, -32021.047, -1.3596629, 0.0, 0.00059043325, 0.000055789526, 0.000055789526, 0.0, 0.012207031, 0.011833918 
6.1035156e-3, 9.6617997e+0, -0.00000006367564, -32006.25, -0.28127193, 0.0, 0.00053789705, 0.0000024081528, 0.0000024081528, 0.0, 0.012207031, 0.011834082 
6.1035156e-3, 9.6736336e+0, -0.000020292098, -31999.361, -3.6818273, 0.0, 0.00045826178, 0.00040333674, 0.00040333674, 0.0, 0.012207031, 0.0118341595 
6.1035156e-3, 9.6854675e+0, -0.0000056958315, -31985.36, -2.030803, 0.0, 0.0005739888, 0.00012324318, 0.00012324318, 0.0, 0.012207031, 0.011834315 
6.1035156e-3, 9.697302e+0, -0.0000015049498, -31984.186, -1.1172746, 0.0, 0.00053897797, 0.000037523794, 0.000037523794, 0.0, 0.012207031, 0.011834328 
6.1035156e-3, 9.709136e+0, -0.0000003866406, -31965.787, -0.46172306, 0.0, 0.00039636993, 0.0000062826184, 0.0000062826184, 0.0, 0.012207031, 0.011834533 
6.1035156e-3, 9.720971e+0, -0.00000008321976, -31961.463, -0.24600576, 0.0, 0.00055011414, 0.0000018102728, 0.0000018102728, 0.0, 0.012207031, 0.011834581 
6.1035156e-3, 9.7328055e+0, -0.00000007808311, -31948.1, -0.27758214, 0.0, 0.0006907835, 0.0000023337016, 0.0000023337016, 0.0, 0.012207031, 0.011834729 
6.1035156e-3, 9.7446406e+0, -0.000000056316132, -31941.826, 0.2632276, 0.0, 0.00046506073, 0.000002112898, 0.000002112898, 0.0, 0.012207031, 0.011834799 
6.1035156e-3, 9.7564757e+0, -0.00000013418747, -31927.225, -0.46594825, 0.0, 0.00033498276, 0.000006665894, 0.000006665894, 0.0, 0.012207031, 0.011834962 
6.1035156e-3, 9.7683096e+0, 0.000000020964897, -31923.707, 0.11090983, 0.0, 0.00058452843, 0.00000040628947, 0.00000040628947, 0.0, 0.012207031, 0.011835001 
6.1035156e-3, 9.7801447e+0, -0.000001315737, -31908.285, 1.1261859, 0.0, 0.000703851, 0.00003843239, 0.00003843239, 0.0, 0.012207031, 0.011835173 
6.1035156e-3, 9.791981e+0, -0.00000017542561, -31901.287, -0.30817348, 0.0, 0.0004737453, 0.0000028015966, 0.0000028015966, 0.0, 0.012207031, 0.011835251 
6.1035156e-3, 9.803816e+0, -0.0000010302657, -31889.291, -1.0159085, 0.0, 0.00035018238, 0.00003133389, 0.00003133389, 0.0, 0.012207031, 0.011835384 
6.1035156e-3, 9.815651e+0, -0.0000002507787, -31884.885, 0.4339785, 0.0, 0.0005783437, 0.000005656013, 0.000005656013, 0.0, 0.012207031, 0.011835434 
6.1035156e-3, 9.827487e+0, -0.00000030021874, -31868.453, 0.5702277, 0.0, 0.00064950663, 0.000009902968, 0.000009902968, 0.0, 0.012207031, 0.011835616 
6.1035156e-3, 9.839322e+0, -0.0000001338282, -31863.428, -0.2971613, 0.0, 0.00046416014, 0.0000026375237, 0.0000026375237, 0.0, 0.012207031, 0.011835672 
6.1035156e-3, 9.851158e+0, -0.00000018182236, -31849.77, -0.34592327, 0.0, 0.0004824265, 0.0000035752819, 0.0000035752819, 0.0, 0.012207031, 0.011835824 
6.1035156e-3, 9.862994e+0, -0.0000000065689343, -31844.6, -0.17324622, 0.0, 0.0005784766, 0.0000009359501, 0.0000009359501, 0.0, 0.012207031, 0.0118358815 
6.1035156e-3, 9.87483e+0, -0.0000003075006, -31831.031, 0.59431976, 0.0, 0.00049122697, 0.000010789092, 0.000010789092, 0.0, 0.012207031, 0.011836032 
6.1035156e-3, 9.8866665e+0, -0.00000012738923, -31823.03, 0.23932193, 0.0, 0.00052931433, 0.0000016724116, 0.0000016724116, 0.0, 0.012207031, 0.011836122 
6.1035156e-3, 9.898502e+0, -0.000000746846, -31811.045, -0.8741231, 0.0, 0.0005658414, 0.000023272838, 0.000023272838, 0.0, 0.012207031, 0.011836255 
6.1035156e-3, 9.9103385e+0, 0.000000008449848, -31806.006, 0.010312461, 0.0, 0.00047281326, 0.000000011794327, 0.000000011794327, 0.0, 0.012207031, 0.011836312 
6.1035156e-3, 9.922174e+0, -0.00000012749693, -31790.512, 0.32384017, 0.0, 0.0005781147, 0.0000031713607, 0.0000031713607, 0.0, 0.012207031, 0.011836484 
6.1035156e-3, 9.9340117e+0, -0.00000021585156, -31785.438, -0.4547401, 0.0, 0.0005937517, 0.0000062899126, 0.0000062899126, 0.0, 0.012207031, 0.01183654 
6.1035156e-3, 9.9458474e+0, -0.00000018897258, -31772.813, 0.45473215, 0.0, 0.000421461, 0.000006319151, 0.000006319151, 0.0, 0.012207031, 0.011836681 
6.1035156e-3, 9.957684e+0, -0.00000008300305, -31764.473, 0.07309162, 0.0, 0.0005380801, 0.000000085183274, 0.000000085183274, 0.0, 0.012207031, 0.011836774 
6.1035156e-3, 9.969522e+0, -0.00000022582262, -31753.512, -0.42143428, 0.0, 0.00061519933, 0.000005367474, 0.000005367474, 0.0, 0.012207031, 0.011836896 
6.1035156e-3, 9.9813586e+0, -0.00000021544032, -31745.97, 0.39110276, 0.0, 0.00046872164, 0.000004602851, 0.000004602851, 0.0, 0.012207031, 0.01183698 
6.1035156e-3, 9.9931955e+0, -0.00000092019434, -31730.635, -0.9696575, 0.0, 0.00056948734, 0.000028711598, 0.000028711598, 0.0, 0.012207031, 0.011837151 
6.1035156e-3, 1.0005032e+1, -0.0000024278668, -31728.563, -1.5006597, 0.0, 0.00057888613, 0.00006854854, 0.00006854854, 0.0, 0.012207031, 0.011837173 
6.1035156e-3, 1.001687e+1, -0.000002780732, -31715.377, 1.583021, 0.0, 0.0004682565, 0.00007623316, 0.00007623316, 0.0, 0.012207031, 0.01183732 
6.1035156e-3, 1.0028707e+1, -0.0000001180784, -31703.652, 0.056206174, 0.0, 0.00058571546, -0.00000001843, -0.00000001843, 0.0, 0.012207031, 0.011837451 
6.1035156e-3, 1.0040545e+1, -0.0000014361673, -31696.17, -1.1453521, 0.0, 0.0005616145, 0.00003995153, 0.00003995153, 0.0, 0.012207031, 0.011837535 
6.1035156e-3, 1.0052382e+1, -0.000000896431, -31686.793, 0.88287574, 0.0, 0.0004327055, 0.000023702763, 0.000023702763, 0.0, 0.012207031, 0.011837639 
6.1035156e-3, 1.00642204e+1, -0.00000033297886, -31674.512, -0.53153366, 0.0, 0.0006049823, 0.000008586747, 0.000008586747, 0.0, 0.012207031, 0.011837776 
6.1035156e-3, 1.0076059e+1, -0.0000015285389, -31668.705, -1.242975, 0.0, 0.0006491, 0.000047257377, 0.000047257377, 0.0, 0.012207031, 0.01183784 
6.1035156e-3, 1.00878954e+1, -0.00000063069535, -31655.895, 0.74470717, 0.0, 0.0004802417, 0.000016888596, 0.000016888596, 0.0, 0.012207031, 0.011837983 
6.1035156e-3, 1.0099734e+1, -0.00000053002105, -31646.87, -0.688701, 0.0, 0.0004241996, 0.0000144575315, 0.0000144575315, 0.0, 0.012207031, 0.011838083 
6.1035156e-3, 1.01115726e+1, -0.00000039988763, -31638.068, 0.5010127, 0.0, 0.0005933766, 0.0000075340286, 0.0000075340286, 0.0, 0.012207031, 0.011838182 
6.1035156e-3, 1.012341e+1, -0.00000015155932, -31626.592, 0.277135, 0.0, 0.0007129552, 0.0000022768982, 0.0000022768982, 0.0, 0.012207031, 0.0118383095 
6.1035156e-3, 1.0135248e+1, -0.00000034906387, -31617.754, -0.5111341, 0.0, 0.0004929799, 0.000007913957, 0.000007913957, 0.0, 0.012207031, 0.011838408 
6.1035156e-3, 1.0147087e+1, -0.00000069328354, -31607.744, 0.7291592, 0.0, 0.0003504401, 0.000016127695, 0.000016127695, 0.0, 0.012207031, 0.011838519 
6.1035156e-3, 1.0158926e+1, -0.0000000880092, -31599.418, -0.08428436, 0.0, 0.0006088224, 0.00000013680256, 0.00000013680256, 0.0, 0.012207031, 0.011838612 
6.1035156e-3, 1.0170764e+1, -0.000011675517, -31593.496, 2.8886213, 0.0, 0.0007436551, 0.0002524337, 0.0002524337, 0.0, 0.012207031, 0.011838678 
6.1035156e-3, 1.0182603e+1, -0.00030810607, -31576.322, -18.006458, 0.0, 0.0004996629, 0.009960108, 0.009960108, 0.0, 0.012207031, 0.011838869 
6.1035156e-3, 1.0194442e+1, -0.000008453758, -31566.19, 2.477805, 0.0, 0.00035291558, 0.00018604286, 0.00018604286, 0.0, 0.012207031, 0.011838982 
6.1035156e-3, 1.0206281e+1, -0.0000000642439, -31557.143, 0.04683509, 0.0, 0.00060839823, 0.0000000052677933, 0.0000000052677933, 0.0, 0.012207031, 0.011839083 
6.1035156e-3, 1.021812e+1, -0.000009899363, -31543.748, -2.6586034, 0.0, 0.000693196, 0.00021417587, 0.00021417587, 0.0, 0.012207031, 0.011839232 
6.1035156e-3, 1.0229959e+1, -0.000022406304, -31541.756, -5.3263235, 0.0, 0.00046716412, 0.00087702746, 0.00087702746, 0.0, 0.012207031, 0.011839255 
6.1035156e-3, 1.0241798e+1, -0.000014536054, -31532.063, -3.1321857, 0.0, 0.0005208879, 0.0002965945, 0.0002965945, 0.0, 0.012207031, 0.011839363 
6.1035156e-3, 1.0253638e+1, -0.000000037620673, -31521.584, -0.176224, 0.0, 0.00061052013, 0.0000009475734, 0.0000009475734, 0.0, 0.012207031, 0.011839479 
6.1035156e-3, 1.02654785e+1, -0.00000054923754, -31510.076, 0.70176244, 0.0, 0.0004941626, 0.00001507975, 0.00001507975, 0.0, 0.012207031, 0.011839608 
6.1035156e-3, 1.0277317e+1, -0.000000064596314, -31500.143, -0.04420028, 0.0, 0.0005112081, -0.000000002575689, -0.000000002575689, 0.0, 0.012207031, 0.011839719 
6.1035156e-3, 1.0289157e+1, -0.0000005921992, -31489.322, -0.74036735, 0.0, 0.0006469588, 0.000016815095, 0.000016815095, 0.0, 0.012207031, 0.011839839 
6.1035156e-3, 1.0300997e+1, -0.000000043113047, -31482.992, 0.12729709, 0.0, 0.0005952451, 0.00000047159483, 0.00000047159483, 0.0, 0.012207031, 0.0118399095 
6.1035156e-3, 1.0312837e+1, -0.00000017609341, -31469.895, 0.34372732, 0.0, 0.0004343263, 0.0000035782432, 0.0000035782432, 0.0, 0.012207031, 0.011840055 
6.1035156e-3, 1.0324678e+1, 0.000000028214675, -31461.66, -0.030921249, 0.0, 0.00046735027, 0.0000000586042, 0.0000000586042, 0.0, 0.012207031, 0.011840147 
6.1035156e-3, 1.03365175e+1, -0.000000073899535, -31450.4, -0.19408125, 0.0, 0.0007228968, 0.0000011237789, 0.0000011237789, 0.0, 0.012207031, 0.011840273 
6.1035156e-3, 1.0348358e+1, -0.00000013195908, -31442.943, -0.31519717, 0.0, 0.0006588565, 0.0000030277079, 0.0000030277079, 0.0, 0.012207031, 0.011840356 
6.1035156e-3, 1.0360198e+1, -0.00000013881586, -31431.236, 0.23518565, 0.0, 0.00034237333, 0.0000016209742, 0.0000016209742, 0.0, 0.012207031, 0.011840486 
6.1035156e-3, 1.0372039e+1, -0.000000014248526, -31422.645, 0.22421235, 0.0, 0.00046163856, 0.0000015855876, 0.0000015855876, 0.0, 0.012207031, 0.011840582 
6.1035156e-3, 1.03838794e+1, -0.00000019354691, -31410.537, -0.407196, 0.0, 0.0007665075, 0.000005085207, 0.000005085207, 0.0, 0.012207031, 0.011840717 
6.1035156e-3, 1.03957206e+1, -0.00000028716067, -31404.787, -0.5653564, 0.0, 0.00059426605, 0.000009890518, 0.000009890518, 0.0, 0.012207031, 0.011840781 
6.1035156e-3, 1.0407561e+1, -0.000000014552808, -31390.613, 0.16037907, 0.0, 0.00041117863, 0.00000080484824, 0.00000080484824, 0.0, 0.012207031, 0.011840939 
6.1035156e-3, 1.0419402e+1, 0.000000028817379, -31385.094, -0.07755036, 0.0, 0.0005751876, 0.00000022043969, 0.00000022043969, 0.0, 0.012207031, 0.011841 
6.1035156e-3, 1.0431243e+1, 0.000000023273063, -31371.45, 0.019660903, 0.0, 0.0006132196, 0.000000035593985, 0.000000035593985, 0.0, 0.012207031, 0.011841153 
6.1035156e-3, 1.0443085e+1, -0.00000017853455, -31365.76, -0.36434844, 0.0, 0.0005079739, 0.0000040537816, 0.0000040537816, 0.0, 0.012207031, 0.011841216 
6.1035156e-3, 1.0454926e+1, -0.0000001025384, -31350.541, 0.19934332, 0.0, 0.0005646267, 0.00000116499, 0.00000116499, 0.0, 0.012207031, 0.011841386 
6.1035156e-3, 1.0466767e+1, -0.00000004250041, -31349.133, 0.24851578, 0.0, 0.00062433665, 0.0000019275758, 0.0000019275758, 0.0, 0.012207031, 0.011841401 
6.1035156e-3, 1.0478608e+1, -0.0000040334603, -31334.344, 1.8127085, 0.0, 0.0005329178, 0.000100832694, 0.000100832694, 0.0, 0.012207031, 0.011841566 
6.1035156e-3, 1.049045e+1, -0.0002108066, -31327.443, -14.891434, 0.0, 0.00047350943, 0.0068678036, 0.0068678036, 0.0, 0.012207031, 0.011841643 
6.1035156e-3, 1.05022915e+1, -0.000013091964, -31308.467, 2.8953006, 0.0, 0.00059545034, 0.0002546556, 0.0002546556, 0.0, 0.012207031, 0.011841855 
6.1035156e-3, 1.05141334e+1, -0.00000071549164, -31308.07, -0.8332403, 0.0, 0.00067245116, 0.00002146056, 0.00002146056, 0.0, 0.012207031, 0.011841859 
6.1035156e-3, 1.05259754e+1, -0.00000055054727, -31294.299, 0.71369773, 0.0, 0.0005071797, 0.00001572604, 0.00001572604, 0.0, 0.012207031, 0.011842012 
6.1035156e-3, 1.0537818e+1, -0.0000020253863, -31287.098, -1.2677323, 0.0, 0.00047145938, 0.00004934228, 0.00004934228, 0.0, 0.012207031, 0.0118420925 
6.1035156e-3, 1.054966e+1, -0.0000008326685, -31272.969, -0.8677738, 0.0, 0.00060503493, 0.000023246637, 0.000023246637, 0.0, 0.012207031, 0.01184225 
6.1035156e-3, 1.0561503e+1, -0.00000025097222, -31267.645, -0.50498056, 0.0, 0.0006413366, 0.000007904593, 0.000007904593, 0.0, 0.012207031, 0.0118423095 
6.1035156e-3, 1.0573344e+1, -0.000009333227, -31248.133, -2.5733752, 0.0, 0.0005447466, 0.00020259176, 0.00020259176, 0.0, 0.012207031, 0.011842527 
6.1035156e-3, 1.0585187e+1, -0.00003559837, -31251.77, -6.333779, 0.0, 0.00048347955, 0.001248065, 0.001248065, 0.0, 0.012207031, 0.011842486 
6.1035156e-3, 1.0597029e+1, -0.0000142359295, -31236.758, -3.8377485, 0.0, 0.00058861077, 0.00045726987, 0.00045726987, 0.0, 0.012207031, 0.011842654 
6.1035156e-3, 1.0608873e+1, -0.00000012306633, -31231.244, -0.30667907, 0.0, 0.00063512026, 0.000002888406, 0.000002888406, 0.0, 0.012207031, 0.011842716 
6.1035156e-3, 1.06207155e+1, -0.000000008452698, -31214.074, 0.040397055, 0.0, 0.0005255432, 0.00000004383037, 0.00000004383037, 0.0, 0.012207031, 0.011842907 
6.1035156e-3, 1.0632558e+1, -0.0000001420639, -31211.566, -0.31937832, 0.0, 0.0005573714, 0.0000031260352, 0.0000031260352, 0.0, 0.012207031, 0.011842935 
6.1035156e-3, 1.06444016e+1, -0.00000018692965, -31193.676, -0.34673128, 0.0, 0.000626579, 0.0000036671408, 0.0000036671408, 0.0, 0.012207031, 0.011843135 
6.1035156e-3, 1.0656244e+1, -0.00000039522175, -31193.18, 0.6441425, 0.0, 0.0004985161, 0.000012906385, 0.000012906385, 0.0, 0.012207031, 0.01184314 
6.1035156e-3, 1.0668088e+1, -0.00000012961392, -31172.473, 0.32725784, 0.0, 0.0005144224, 0.000003306035, 0.000003306035, 0.0, 0.012207031, 0.011843371 
6.1035156e-3, 1.06799304e+1, -0.0000013118337, -31172.227, -1.0978231, 0.0, 0.00071159797, 0.000037351292, 0.000037351292, 0.0, 0.012207031, 0.011843374 
6.1035156e-3, 1.0691775e+1, -0.00000007817538, -31156.35, -0.17520578, 0.0, 0.0006105805, 0.0000009070827, 0.0000009070827, 0.0, 0.012207031, 0.011843551 
6.1035156e-3, 1.0703618e+1, -0.00000043699424, -31152.912, 0.6597305, 0.0, 0.0004086683, 0.000013534231, 0.000013534231, 0.0, 0.012207031, 0.011843589 
6.1035156e-3, 1.07154615e+1, -0.00000004868492, -31133.727, -0.07015365, 0.0, 0.0006003067, 0.00000010939402, 0.00000010939402, 0.0, 0.012207031, 0.011843803 
6.1035156e-3, 1.0727306e+1, -0.0000001644964, -31134.695, -0.27371725, 0.0, 0.0006675728, 0.0000022418608, 0.0000022418608, 0.0, 0.012207031, 0.011843792 
6.1035156e-3, 1.0739149e+1, -0.00000064215874, -31115.314, 0.78083986, 0.0, 0.0005121482, 0.000018953044, 0.000018953044, 0.0, 0.012207031, 0.011844008 
6.1035156e-3, 1.0750994e+1, -0.000012063455, -31112.95, -3.9572713, 0.0, 0.0005838852, 0.0004912638, 0.0004912638, 0.0, 0.012207031, 0.011844035 
6.1035156e-3, 1.07628375e+1, -0.00000016999064, -31096.795, -0.36142373, 0.0, 0.0006729826, 0.0000040306695, 0.0000040306695, 0.0, 0.012207031, 0.011844215 
6.1035156e-3, 1.0774682e+1, -0.0000008724076, -31095.438, 0.9162453, 0.0, 0.0004806824, 0.00002612529, 0.00002612529, 0.0, 0.012207031, 0.01184423 
6.1035156e-3, 1.0786526e+1, -0.00000004926082, -31074.275, 0.1595716, 0.0, 0.0005201848, 0.0000007701674, 0.0000007701674, 0.0, 0.012207031, 0.011844466 
6.1035156e-3, 1.079837e+1, -0.00000020133889, -31076.314, -0.48147473, 0.0, 0.00068299053, 0.000007258295, 0.000007258295, 0.0, 0.012207031, 0.011844444 
6.1035156e-3, 1.0810215e+1, -0.0000002416578, -31056.195, 0.49935338, 0.0, 0.0006429092, 0.000007787461, 0.000007787461, 0.0, 0.012207031, 0.011844669 
6.1035156e-3, 1.082206e+1, -0.00000038278637, -31054.459, -0.604277, 0.0, 0.0004915079, 0.0000113756105, 0.0000113756105, 0.0, 0.012207031, 0.011844687 
6.1035156e-3, 1.0833904e+1, -0.0000009951713, -31037.453, -0.973168, 0.0, 0.00055132154, 0.000029518153, 0.000029518153, 0.0, 0.012207031, 0.011844877 
6.1035156e-3, 1.084575e+1, -0.0007966531, -31037.049, -28.940802, 0.0, 0.000643911, 0.02618946, 0.02618946, 0.0, 0.012207031, 0.011844882 
6.1035156e-3, 1.0857595e+1, -0.00000009865597, -31016.484, -0.11776847, 0.0, 0.0006192109, 0.00000034850746, 0.00000034850746, 0.0, 0.012207031, 0.011845111 
6.1035156e-3, 1.08694404e+1, -0.000000190797, -31016.936, -0.45544356, 0.0, 0.0005255357, 0.000006496801, 0.000006496801, 0.0, 0.012207031, 0.011845106 
6.1035156e-3, 1.08812846e+1, -0.00000013097517, -30997.932, 0.3194212, 0.0, 0.00063432875, 0.0000031605305, 0.0000031605305, 0.0, 0.012207031, 0.011845319 
6.1035156e-3, 1.089313e+1, -0.00000009926704, -30996.48, -0.16991103, 0.0, 0.00059951365, 0.00000083211853, 0.00000083211853, 0.0, 0.012207031, 0.011845334 
6.1035156e-3, 1.0904976e+1, -0.00000029287708, -30979.102, -0.50082785, 0.0, 0.0005140679, 0.000007803828, 0.000007803828, 0.0, 0.012207031, 0.011845528 
6.1035156e-3, 1.0916822e+1, -0.000000019413054, -30976.701, 0.1948494, 0.0, 0.00062988367, 0.0000012062264, 0.0000012062264, 0.0, 0.012207031, 0.011845555 
6.1035156e-3, 1.0928667e+1, -0.00000011753368, -30959.121, -0.3094546, 0.0, 0.0006459398, 0.000002975652, 0.000002975652, 0.0, 0.012207031, 0.011845752 
6.1035156e-3, 1.0940513e+1, -0.0000008434075, -30958.143, -0.8841241, 0.0, 0.0005092233, 0.000024406021, 0.000024406021, 0.0, 0.012207031, 0.011845762 
6.1035156e-3, 1.0952358e+1, -0.00000032965974, -30938.857, -0.52358365, 0.0, 0.00066902634, 0.0000085310385, 0.0000085310385, 0.0, 0.012207031, 0.011845977 
6.1035156e-3, 1.0964205e+1, -0.00000007322415, -30938.797, -0.24501337, 0.0, 0.00061293313, 0.0000018671053, 0.0000018671053, 0.0, 0.012207031, 0.011845978 
6.1035156e-3, 1.097605e+1, -0.00000079043326, -30920.23, 0.8192127, 0.0, 0.00046696427, 0.000020914107, 0.000020914107, 0.0, 0.012207031, 0.011846186 
6.1035156e-3, 1.0987897e+1, -0.00000007532851, -30916.6, -0.24848141, 0.0, 0.0006485607, 0.000001921755, 0.000001921755, 0.0, 0.012207031, 0.011846226 
6.1035156e-3, 1.0999744e+1, -0.0000001962028, -30902.568, -0.36667693, 0.0, 0.00065627217, 0.00000415463, 0.00000415463, 0.0, 0.012207031, 0.011846382 
6.1035156e-3, 1.1011589e+1, -0.0000003283637, -30897.51, 0.5518697, 0.0, 0.00050812284, 0.000009528747, 0.000009528747, 0.0, 0.012207031, 0.011846439 
6.1035156e-3, 1.1023436e+1, -0.0000009236148, -30880.871, -0.93524337, 0.0, 0.0006676238, 0.000027400725, 0.000027400725, 0.0, 0.012207031, 0.011846624 
6.1035156e-3, 1.1035283e+1, -0.000000033712915, -30880.531, -0.028916681, 0.0, 0.00061895634, -0.0000000066320354, -0.0000000066320354, 0.0, 0.012207031, 0.011846628 
6.1035156e-3, 1.1047129e+1, -0.0000014700327, -30862.129, 1.1976235, 0.0, 0.0004905743, 0.00004500447, 0.00004500447, 0.0, 0.012207031, 0.011846834 
6.1035156e-3, 1.10589765e+1, -0.000000886147, -30857.307, -0.8919907, 0.0, 0.00062419404, 0.000024898589, 0.000024898589, 0.0, 0.012207031, 0.011846888 
6.1035156e-3, 1.1070824e+1, -0.0000000610574, -30845.174, -0.26624796, 0.0, 0.00064924936, 0.0000022371314, 0.0000022371314, 0.0, 0.012207031, 0.011847023 
6.1035156e-3, 1.108267e+1, -0.0000007526509, -30837.648, 0.851322, 0.0, 0.0005689843, 0.000022749438, 0.000022749438, 0.0, 0.012207031, 0.011847107 
6.1035156e-3, 1.1094518e+1, -0.000000037555036, -30826.47, 0.13288172, 0.0, 0.00059594936, 0.0000005352522, 0.0000005352522, 0.0, 0.012207031, 0.011847232 
6.1035156e-3, 1.1106365e+1, -0.0003026953, -30819.725, -17.836885, 0.0, 0.00059108326, 0.010020381, 0.010020381, 0.0, 0.012207031, 0.011847307 
6.1035156e-3, 1.11182116e+1, -0.0000074529507, -30801.697, 2.3749006, 0.0, 0.0006040731, 0.00017565882, 0.00017565882, 0.0, 0.012207031, 0.011847508 
6.1035156e-3, 1.11300595e+1, -0.00000043397353, -30799.295, -0.62685597, 0.0, 0.0006301836, 0.000012324384, 0.000012324384, 0.0, 0.012207031, 0.011847535 
6.1035156e-3, 1.11419074e+1, -0.00000022503333, -30785.219, 0.43095854, 0.0, 0.0005623245, 0.0000058078986, 0.0000058078986, 0.0, 0.012207031, 0.011847693 
6.1035156e-3, 1.1153755e+1, -0.00000008016027, -30779.08, 0.011607693, 0.0, 0.0005690436, -0.00000007578274, -0.00000007578274, 0.0, 0.012207031, 0.011847761 
6.1035156e-3, 1.11656025e+1, 0.0000000064688495, -30765.834, -0.057773724, 0.0, 0.0006537236, 0.00000011496013, 0.00000011496013, 0.0, 0.012207031, 0.011847909 
6.1035156e-3, 1.1177451e+1, -0.00000017467227, -30760.344, 0.33860457, 0.0, 0.00063686824, 0.0000035526245, 0.0000035526245, 0.0, 0.012207031, 0.01184797 
6.1035156e-3, 1.1189298e+1, -0.00000094630315, -30746.512, -0.8830507, 0.0, 0.00054250186, 0.000024415225, 0.000024415225, 0.0, 0.012207031, 0.011848125 
6.1035156e-3, 1.1201147e+1, -0.00000020306622, -30738.412, -0.41688532, 0.0, 0.00058466545, 0.000005450882, 0.000005450882, 0.0, 0.012207031, 0.011848215 
6.1035156e-3, 1.1212996e+1, -0.000014651885, -30721.154, -3.052936, 0.0, 0.00064608245, 0.00028873576, 0.00028873576, 0.0, 0.012207031, 0.011848408 
6.1035156e-3, 1.1224844e+1, -0.000052401807, -30722.72, -7.365268, 0.0, 0.0006289512, 0.0017133002, 0.0017133002, 0.0, 0.012207031, 0.01184839 
6.1035156e-3, 1.1236692e+1, -0.000023893492, -30711.047, -5.272441, 0.0, 0.00059849507, 0.0008812737, 0.0008812737, 0.0, 0.012207031, 0.0118485205 
6.1035156e-3, 1.1248541e+1, -0.00000018579361, -30703.166, -0.43719643, 0.0, 0.00052371837, 0.000006039645, 0.000006039645, 0.0, 0.012207031, 0.011848609 
6.1035156e-3, 1.12603895e+1, -0.000000493352, -30689.053, 0.6879943, 0.0, 0.0006415806, 0.000014930258, 0.000014930258, 0.0, 0.012207031, 0.011848766 
6.1035156e-3, 1.1272239e+1, -0.00000060134545, -30681.557, -0.71311927, 0.0, 0.0007514809, 0.0000159734, 0.0000159734, 0.0, 0.012207031, 0.01184885 
6.1035156e-3, 1.1284087e+1, -0.00000003997263, -30669.182, -0.14231133, 0.0, 0.0005265433, 0.0000006203809, 0.0000006203809, 0.0, 0.012207031, 0.011848988 
6.1035156e-3, 1.1295936e+1, -0.00000075154566, -30662.494, 0.8269367, 0.0, 0.0004900586, 0.00002155011, 0.00002155011, 0.0, 0.012207031, 0.011849063 
6.1035156e-3, 1.1307785e+1, -0.00000022254846, -30648.049, -0.40923285, 0.0, 0.000710738, 0.0000052417963, 0.0000052417963, 0.0, 0.012207031, 0.011849225 
6.1035156e-3, 1.1319634e+1, -0.0000009544273, -30644.36, -0.9539842, 0.0, 0.0006764981, 0.000028743892, 0.000028743892, 0.0, 0.012207031, 0.011849266 
6.1035156e-3, 1.1331484e+1, -0.0000001819665, -30628.865, 0.40353677, 0.0, 0.0005810678, 0.000005134647, 0.000005134647, 0.0, 0.012207031, 0.011849439 
6.1035156e-3, 1.1343333e+1, -0.00000020719966, -30623.271, -0.3780286, 0.0, 0.00054321054, 0.000004459369, 0.000004459369, 0.0, 0.012207031, 0.011849501 
6.1035156e-3, 1.13551825e+1, -0.00000013464319, -30610.803, 0.32199758, 0.0, 0.0006118469, 0.0000032524767, 0.0000032524767, 0.0, 0.012207031, 0.011849641 
6.1035156e-3, 1.1367033e+1, -0.00000009323794, -30603.066, 0.08914018, 0.0, 0.00075538, 0.00000016640843, 0.00000016640843, 0.0, 0.012207031, 0.011849727 
6.1035156e-3, 1.1378882e+1, -0.000000106582384, -30591.379, -0.3269058, 0.0, 0.00060715235, 0.0000033868018, 0.0000033868018, 0.0, 0.012207031, 0.011849857 
6.1035156e-3, 1.1390733e+1, -0.0000010301151, -30584.418, -0.92998075, 0.0, 0.0004513356, 0.000027247821, 0.000027247821, 0.0, 0.012207031, 0.011849935 
6.1035156e-3, 1.14025824e+1, -0.00000004932603, -30569.553, -0.07093639, 0.0, 0.0006956004, 0.00000011528027, 0.00000011528027, 0.0, 0.012207031, 0.011850101 
6.1035156e-3, 1.14144325e+1, -0.00000017131669, -30565.63, -0.39563283, 0.0, 0.00069244514, 0.000004949641, 0.000004949641, 0.0, 0.012207031, 0.011850145 
6.1035156e-3, 1.1426283e+1, -0.00000069583746, -30551.748, 0.75708884, 0.0, 0.00055846677, 0.000018065235, 0.000018065235, 0.0, 0.012207031, 0.0118503 
6.1035156e-3, 1.14381336e+1, -0.0000011584256, -30543.236, -1.0485617, 0.0, 0.00064013, 0.000034839122, 0.000034839122, 0.0, 0.012207031, 0.011850395 
6.1035156e-3, 1.1449984e+1, -0.00000071165493, -30535.074, -0.8227047, 0.0, 0.00062088965, 0.00002145443, 0.00002145443, 0.0, 0.012207031, 0.0118504865 
6.1035156e-3, 1.1461834e+1, -0.0000026228504, -30523.693, 1.5644839, 0.0, 0.0006051379, 0.00007756436, 0.00007756436, 0.0, 0.012207031, 0.011850613 
6.1035156e-3, 1.14736855e+1, -0.00000036605874, -30512.516, -0.5271891, 0.0, 0.0006657556, 0.000008742609, 0.000008742609, 0.0, 0.012207031, 0.011850739 
6.1035156e-3, 1.1485536e+1, -0.0000005457049, -30505.86, -0.70083857, 0.0, 0.00056907395, 0.000015555292, 0.000015555292, 0.0, 0.012207031, 0.0118508125 
6.1035156e-3, 1.1497387e+1, -0.000000102188054, -30493.076, 0.3156135, 0.0, 0.0005968982, 0.0000031645177, 0.0000031645177, 0.0, 0.012207031, 0.011850956 
6.1035156e-3, 1.15092374e+1, -0.00000017347806, -30486.475, -0.25317296, 0.0, 0.000687354, 0.00000192898, 0.00000192898, 0.0, 0.012207031, 0.0118510295 
6.1035156e-3, 1.1521088e+1, -0.00000086318556, -30473.443, 0.9086292, 0.0, 0.0006556492, 0.000026229485, 0.000026229485, 0.0, 0.012207031, 0.011851175 
6.1035156e-3, 1.153294e+1, -0.0000010694664, -30465.113, -0.99684316, 0.0, 0.00054867717, 0.00003154805, 0.00003154805, 0.0, 0.012207031, 0.011851268 
6.1035156e-3, 1.1544791e+1, -0.000000035187995, -30456.469, 0.23691386, 0.0, 0.0005342211, 0.0000018077117, 0.0000018077117, 0.0, 0.012207031, 0.011851365 
6.1035156e-3, 1.15566425e+1, -0.00000045516666, -30444.361, 0.6460543, 0.0, 0.00075476343, 0.000013254637, 0.000013254637, 0.0, 0.012207031, 0.0118515 
6.1035156e-3, 1.1568494e+1, -0.00000784917, -30436.484, -2.3911424, 0.0, 0.0007130145, 0.00018000307, 0.00018000307, 0.0, 0.012207031, 0.011851588 
6.1035156e-3, 1.1580346e+1, -0.00000010057297, -30424.793, 0.31046766, 0.0, 0.00045213077, 0.0000030675765, 0.0000030675765, 0.0, 0.012207031, 0.011851719 
6.1035156e-3, 1.15921974e+1, -0.000014795646, -30406.605, -3.2864137, 0.0, 0.0005631617, 0.00034040725, 0.00034040725, 0.0, 0.012207031, 0.011851922 
6.1035156e-3, 1.160405e+1, -0.0001241902, -30408.408, -11.448881, 0.0, 0.0007633023, 0.0041863564, 0.0041863564, 0.0, 0.012207031, 0.011851902 
6.1035156e-3, 1.1615902e+1, -0.000044157357, -30404.123, -6.7184477, 0.0, 0.0006487539, 0.0014404287, 0.0014404287, 0.0, 0.012207031, 0.01185195 
6.1035156e-3, 1.1627753e+1, -0.00000010166932, -30386.238, 0.21852882, 0.0, 0.00053856586, 0.0000014699217, 0.0000014699217, 0.0, 0.012207031, 0.01185215 
6.1035156e-3, 1.16396055e+1, -0.00000009332554, -30379.068, -0.22724633, 0.0, 0.0006159174, 0.0000016065569, 0.0000016065569, 0.0, 0.012207031, 0.01185223 
6.1035156e-3, 1.1651458e+1, -0.0000009302477, -30366.912, -0.9416969, 0.0, 0.0006693973, 0.00002827236, 0.00002827236, 0.0, 0.012207031, 0.011852366 
6.1035156e-3, 1.166331e+1, -0.00000007332325, -30359.05, -0.2757933, 0.0, 0.00058601575, 0.0000024320907, 0.0000024320907, 0.0, 0.012207031, 0.011852453 
6.1035156e-3, 1.1675163e+1, -0.0000001979512, -30347.877, 0.4673241, 0.0, 0.00063298893, 0.0000069983325, 0.0000069983325, 0.0, 0.012207031, 0.011852578 
6.1035156e-3, 1.1687016e+1, -0.00000014424975, -30339.09, 0.36614022, 0.0, 0.00066027464, 0.0000042744286, 0.0000042744286, 0.0, 0.012207031, 0.011852677 
6.1035156e-3, 1.1698869e+1, -0.00000014438831, -30326.729, -0.39211097, 0.0, 0.00061038503, 0.000004925434, 0.000004925434, 0.0, 0.012207031, 0.011852815 
6.1035156e-3, 1.1710721e+1, 0.00000003806783, -30320.91, -0.10747957, 0.0, 0.00058951246, 0.00000041905514, 0.00000041905514, 0.0, 0.012207031, 0.01185288 
6.1035156e-3, 1.17225744e+1, -0.000000046402153, -30307.4, 0.17812248, 0.0, 0.00064582715, 0.0000010004551, 0.0000010004551, 0.0, 0.012207031, 0.011853031 
6.1035156e-3, 1.17344275e+1, -0.00000006637451, -30300.65, -0.24604955, 0.0, 0.00066042965, 0.000001931614, 0.000001931614, 0.0, 0.012207031, 0.011853106 
6.1035156e-3, 1.1746281e+1, 0.00000003020444, -30288.15, 0.1213718, 0.0, 0.00062528456, 0.00000051657116, 0.00000051657116, 0.0, 0.012207031, 0.011853246 
6.1035156e-3, 1.1758134e+1, -0.00000050216033, -30282.434, 0.6872733, 0.0, 0.00057540677, 0.000015095815, 0.000015095815, 0.0, 0.012207031, 0.01185331 
6.1035156e-3, 1.1769987e+1, -0.0000007946959, -30266.285, -0.83638513, 0.0, 0.0006567349, 0.00002231816, 0.00002231816, 0.0, 0.012207031, 0.011853491 
6.1035156e-3, 1.178184e+1, -0.000003192753, -30263.234, -1.6781989, 0.0, 0.0006651795, 0.00008986906, 0.00008986906, 0.0, 0.012207031, 0.0118535245 
6.1035156e-3, 1.1793695e+1, -0.00000038190518, -30248.617, 0.5736063, 0.0, 0.00059694285, 0.000010495427, 0.000010495427, 0.0, 0.012207031, 0.011853688 
6.1035156e-3, 1.1805548e+1, -0.00000012653577, -30243.02, 0.42751688, 0.0, 0.0006504865, 0.000005916867, 0.000005916867, 0.0, 0.012207031, 0.011853751 
6.1035156e-3, 1.1817402e+1, -0.00000007321471, -30227.678, -0.24648793, 0.0, 0.000680279, 0.0000019367399, 0.0000019367399, 0.0, 0.012207031, 0.011853922 
6.1035156e-3, 1.1829256e+1, -0.00000044645392, -30225.066, -0.5946618, 0.0, 0.00054310873, 0.000011253196, 0.000011253196, 0.0, 0.012207031, 0.011853952 
6.1035156e-3, 1.184111e+1, -0.00000010431782, -30207.3, 0.27857155, 0.0, 0.00062150595, 0.0000024646688, 0.0000024646688, 0.0, 0.012207031, 0.01185415 
6.1035156e-3, 1.1852965e+1, -0.00000035819457, -30204.936, -0.60793644, 0.0, 0.00075762236, 0.000011877775, 0.000011877775, 0.0, 0.012207031, 0.011854176 
6.1035156e-3, 1.1864819e+1, -0.000000060762616, -30189.09, 0.16194211, 0.0, 0.0006225644, 0.0000008079369, 0.0000008079369, 0.0, 0.012207031, 0.011854354 
6.1035156e-3, 1.18766725e+1, -0.00000010362655, -30184.822, 0.34662744, 0.0, 0.00055025314, 0.0000038768703, 0.0000038768703, 0.0, 0.012207031, 0.011854402 
6.1035156e-3, 1.1888527e+1, -0.0000001359122, -30169.326, -0.31318858, 0.0, 0.00068225147, 0.0000031153068, 0.0000031153068, 0.0, 0.012207031, 0.011854575 
6.1035156e-3, 1.1900382e+1, -0.00000013262685, -30166.375, 0.31473413, 0.0, 0.000660356, 0.000003151079, 0.000003151079, 0.0, 0.012207031, 0.011854609 
6.1035156e-3, 1.1912236e+1, -0.00000003960516, -30148.615, 0.20564063, 0.0, 0.00060996163, 0.0000013630488, 0.0000013630488, 0.0, 0.012207031, 0.011854807 
6.1035156e-3, 1.1924091e+1, -0.0000007043764, -30145.691, -0.82224363, 0.0, 0.00067122903, 0.000021722863, 0.000021722863, 0.0, 0.012207031, 0.0118548395 
6.1035156e-3, 1.1935946e+1, -0.0009109089, -30130.893, -30.924747, 0.0, 0.00066372973, 0.030828575, 0.030828575, 0.0, 0.012207031, 0.011855005 
6.1035156e-3, 1.1947802e+1, -0.0000001171406, -30126.482, -0.23191403, 0.0, 0.00060588086, 0.000001668137, 0.000001668137, 0.0, 0.012207031, 0.011855055 
6.1035156e-3, 1.1959657e+1, -0.00000011508408, -30110.59, -0.29754746, 0.0, 0.0006231662, 0.0000028252252, 0.0000028252252, 0.0, 0.012207031, 0.0118552325 
6.1035156e-3, 1.1971512e+1, -0.000000012133817, -30107.031, 0.031979423, 0.0, 0.00068909, 0.000000021835149, 0.000000021835149, 0.0, 0.012207031, 0.011855272 
6.1035156e-3, 1.1983367e+1, -0.0009814429, -30090.42, -32.098907, 0.0, 0.00068295776, 0.033259973, 0.033259973, 0.0, 0.012207031, 0.011855458 
6.1035156e-3, 1.19952224e+1, -0.00000022018217, -30088.89, -0.418248, 0.0, 0.0005895621, 0.000005593636, 0.000005593636, 0.0, 0.012207031, 0.011855475 
6.1035156e-3, 1.20070785e+1, -0.00000030544984, -30070.904, 0.53617185, 0.0, 0.0006215583, 0.0000092546325, 0.0000092546325, 0.0, 0.012207031, 0.011855676 
6.1035156e-3, 1.2018934e+1, -0.00000034569663, -30067.258, -0.5521571, 0.0, 0.0007117065, 0.000009794152, 0.000009794152, 0.0, 0.012207031, 0.011855717 
6.1035156e-3, 1.2030789e+1, -0.00000051599477, -30052.6, -0.6959604, 0.0, 0.0006326834, 0.000015601108, 0.000015601108, 0.0, 0.012207031, 0.011855881 
6.1035156e-3, 1.2042645e+1, -0.00000067994245, -30049.441, 0.8050073, 0.0, 0.0006272359, 0.000020885738, 0.000020885738, 0.0, 0.012207031, 0.011855916 
6.1035156e-3, 1.20545015e+1, -0.00000009196035, -30030.898, 0.182839, 0.0, 0.00069628865, 0.0000010212316, 0.0000010212316, 0.0, 0.012207031, 0.011856124 
6.1035156e-3, 1.20663576e+1, -0.000000111647324, -30029.822, -0.3212503, 0.0, 0.0006229528, 0.0000033249962, 0.0000033249962, 0.0, 0.012207031, 0.011856136 
6.1035156e-3, 1.2078214e+1, -0.000000055563238, -30012.264, 0.18818682, 0.0, 0.0006266058, 0.0000011244301, 0.0000011244301, 0.0, 0.012207031, 0.011856332 
6.1035156e-3, 1.20900705e+1, -0.00000003201875, -30009.563, -0.12995237, 0.0, 0.00067997945, 0.0000005307229, 0.0000005307229, 0.0, 0.012207031, 0.011856362 
6.1035156e-3, 1.2101927e+1, -0.00000013636759, -29993.697, 0.27069432, 0.0, 0.00066039676, 0.0000023066605, 0.0000023066605, 0.0, 0.012207031, 0.01185654 
6.1035156e-3, 1.2113783e+1, -0.000001075675, -29989.516, -0.9972834, 0.0, 0.00065195037, 0.00003208839, 0.00003208839, 0.0, 0.012207031, 0.011856587 
6.1035156e-3, 1.21256396e+1, -0.00000012402171, -29973.914, -0.21036828, 0.0, 0.0006210938, 0.0000013524259, 0.0000013524259, 0.0, 0.012207031, 0.011856762 
6.1035156e-3, 1.2137497e+1, -0.00000012164207, -29970.604, 0.28573635, 0.0, 0.0006558875, 0.0000026025373, 0.0000026025373, 0.0, 0.012207031, 0.011856798 
6.1035156e-3, 1.2149354e+1, -0.000000063616625, -29953.219, -0.27370575, 0.0, 0.0007115236, 0.0000024374422, 0.0000024374422, 0.0, 0.012207031, 0.011856993 
6.1035156e-3, 1.2161211e+1, -0.00000001808896, -29952.65, -0.15309712, 0.0, 0.00060252164, 0.0000007644376, 0.0000007644376, 0.0, 0.012207031, 0.011856999 
6.1035156e-3, 1.2173068e+1, -0.00000017012778, -29932.475, 0.38689327, 0.0, 0.0006696005, 0.0000048306756, 0.0000048306756, 0.0, 0.012207031, 0.011857225 
6.1035156e-3, 1.21849254e+1, -0.00000030938043, -29933.342, -0.51619565, 0.0, 0.00069702213, 0.000008592335, 0.000008592335, 0.0, 0.012207031, 0.011857215 
6.1035156e-3, 1.2196782e+1, -0.0000008698974, -29914.375, 0.89637107, 0.0, 0.0005634121, 0.000025989462, 0.000025989462, 0.0, 0.012207031, 0.011857428 
6.1035156e-3, 1.220864e+1, -0.000000010450772, -29911.12, -0.15297876, 0.0, 0.00066681695, 0.00000077195, 0.00000077195, 0.0, 0.012207031, 0.011857464 
6.1035156e-3, 1.22204974e+1, -0.0000011079655, -29895.44, -1.0447627, 0.0, 0.0007481874, 0.0000354036, 0.0000354036, 0.0, 0.012207031, 0.01185764 
6.1035156e-3, 1.2232355e+1, -0.000001635977, -29893.645, 1.1886616, 0.0, 0.0005993526, 0.0000456288, 0.0000456288, 0.0, 0.012207031, 0.01185766 
6.1035156e-3, 1.2244213e+1, -0.00000020230655, -29873.924, -0.36774325, 0.0, 0.00065225945, 0.0000043245527, 0.0000043245527, 0.0, 0.012207031, 0.01185788 
6.1035156e-3, 1.2256071e+1, -0.0000012935595, -29878.357, 1.0026898, 0.0, 0.0006745691, 0.000032355776, 0.000032355776, 0.0, 0.012207031, 0.011857831 
6.1035156e-3, 1.2267929e+1, -0.0011795236, -29853.777, -35.182785, 0.0, 0.0006420601, 0.04028346, 0.04028346, 0.0, 0.012207031, 0.011858106 
6.1035156e-3, 1.2279787e+1, -0.0000013912369, -29851.568, 1.0737872, 0.0, 0.00065255613, 0.000037233836, 0.000037233836, 0.0, 0.012207031, 0.011858131 
6.1035156e-3, 1.2291645e+1, -0.00000009325564, -29836.742, -0.27652898, 0.0, 0.0006819785, 0.0000024696346, 0.0000024696346, 0.0, 0.012207031, 0.011858297 
6.1035156e-3, 1.2303503e+1, -0.000036460122, -29830.0, -6.23025, 0.0, 0.00063561625, 0.0012647808, 0.0012647808, 0.0, 0.012207031, 0.011858372 
6.1035156e-3, 1.2315362e+1, -0.00000947234, -29816.16, -3.9216385, 0.0, 0.00067320524, 0.0005063301, 0.0005063301, 0.0, 0.012207031, 0.011858527 
6.1035156e-3, 1.232722e+1, -0.000012113138, -29818.754, -2.783176, 0.0, 0.0006730286, 0.00024765855, 0.00024765855, 0.0, 0.012207031, 0.011858498 
6.1035156e-3, 1.2339079e+1, -0.000000992695, -29797.373, 0.9764967, 0.0, 0.0006327717, 0.00003100831, 0.00003100831, 0.0, 0.012207031, 0.011858737 
6.1035156e-3, 1.2350938e+1, 0.0000000025031128, -29794.088, 0.16269727, 0.0, 0.0006522048, 0.0000008909483, 0.0000008909483, 0.0, 0.012207031, 0.011858774 
6.1035156e-3, 1.2362797e+1, -0.0000008406922, -29777.889, -0.9101187, 0.0, 0.0006935988, 0.000026975787, 0.000026975787, 0.0, 0.012207031, 0.011858956 
6.1035156e-3, 1.2374656e+1, -0.00000007499758, -29776.104, 0.12630665, 0.0, 0.00064607523, 0.00000046078276, 0.00000046078276, 0.0, 0.012207031, 0.0118589755 
6.1035156e-3, 1.2386515e+1, -0.00000010667202, -29757.535, 0.28664383, 0.0, 0.0006646683, 0.0000026544658, 0.0000026544658, 0.0, 0.012207031, 0.011859183 
6.1035156e-3, 1.2398373e+1, 0.000000023319005, -29756.566, -0.004496658, 0.0, 0.00066100265, 0.000000023996108, 0.000000023996108, 0.0, 0.012207031, 0.011859194 
6.1035156e-3, 1.2410233e+1, -0.00000009705306, -29737.826, -0.12372176, 0.0, 0.00066439586, 0.00000041767998, 0.00000041767998, 0.0, 0.012207031, 0.011859404 
6.1035156e-3, 1.2422092e+1, -0.00000014937267, -29736.814, -0.33636397, 0.0, 0.00066790456, 0.0000036553647, 0.0000036553647, 0.0, 0.012207031, 0.011859415 
6.1035156e-3, 1.2433952e+1, -0.00000040721298, -29720.1, 0.5877196, 0.0, 0.00066349097, 0.000011215037, 0.000011215037, 0.0, 0.012207031, 0.011859602 
6.1035156e-3, 1.2445811e+1, -0.00000018404435, -29715.975, -0.27824208, 0.0, 0.0006626293, 0.0000024212422, 0.0000024212422, 0.0, 0.012207031, 0.011859649 
6.1035156e-3, 1.2457671e+1, -0.00000024606175, -29699.338, -0.4672347, 0.0, 0.00067269494, 0.000007104547, 0.000007104547, 0.0, 0.012207031, 0.011859835 
6.1035156e-3, 1.2469531e+1, -0.00000009171397, -29697.635, -0.2698748, 0.0, 0.0006695704, 0.0000023607536, 0.0000023607536, 0.0, 0.012207031, 0.011859855 
6.1035156e-3, 1.2481391e+1, -0.00000006699053, -29681.863, 0.26915705, 0.0, 0.0006743211, 0.0000023737412, 0.0000023737412, 0.0, 0.012207031, 0.011860031 
6.1035156e-3, 1.24932505e+1, -0.000000020493406, -29676.47, -0.0891626, 0.0, 0.0006503718, 0.00000024739347, 0.00000024739347, 0.0, 0.012207031, 0.011860091 
6.1035156e-3, 1.2505111e+1, -0.0000000040439563, -29662.732, -0.010558456, 0.0, 0.000679906, -0.00000000028740033, -0.00000000028740033, 0.0, 0.012207031, 0.011860245 
6.1035156e-3, 1.2516971e+1, -0.0000000023941666, -29656.885, -0.12536837, 0.0, 0.0006997084, 0.00000052757605, 0.00000052757605, 0.0, 0.012207031, 0.011860311 
6.1035156e-3, 1.2528832e+1, -0.000000043384997, -29642.86, 0.117119655, 0.0, 0.00066045613, 0.00000041935346, 0.00000041935346, 0.0, 0.012207031, 0.0118604675 
6.1035156e-3, 1.2540692e+1, -0.00000009856214, -29636.924, -0.31611758, 0.0, 0.0006493448, 0.0000032732532, 0.0000032732532, 0.0, 0.012207031, 0.011860535 
6.1035156e-3, 1.2552553e+1, -0.00000009719338, -29625.246, 0.052672945, 0.0, 0.0006785386, -0.0000000035397534, -0.0000000035397534, 0.0, 0.012207031, 0.011860665 
6.1035156e-3, 1.2564415e+1, -0.00000037210177, -29616.574, 0.63688254, 0.0, 0.00072729966, 0.000013323584, 0.000013323584, 0.0, 0.012207031, 0.011860762 
6.1035156e-3, 1.2576275e+1, -0.00000035841876, -29603.37, -0.5859069, 0.0, 0.0006739227, 0.000011237797, 0.000011237797, 0.0, 0.012207031, 0.01186091 
6.1035156e-3, 1.2588136e+1, -0.000000036857838, -29598.28, -0.19006447, 0.0, 0.0006057586, 0.0000011836382, 0.0000011836382, 0.0, 0.012207031, 0.011860967 
6.1035156e-3, 1.2599997e+1, -0.0012484185, -29584.662, -36.18707, 0.0, 0.00071807957, 0.04301445, 0.04301445, 0.0, 0.012207031, 0.011861119 
6.1035156e-3, 1.2611859e+1, -0.00000174804, -29579.002, -1.1764394, 0.0, 0.0007173914, 0.00004504223, 0.00004504223, 0.0, 0.012207031, 0.011861183 
6.1035156e-3, 1.262372e+1, -0.000000024507559, -29564.521, 0.156186, 0.0, 0.00064281106, 0.0000008006027, 0.0000008006027, 0.0, 0.012207031, 0.011861346 
6.1035156e-3, 1.2635581e+1, -0.000009727601, -29552.531, -2.633159, 0.0, 0.0007032192, 0.00022488939, 0.00022488939, 0.0, 0.012207031, 0.01186148 
6.1035156e-3, 1.2647443e+1, -0.00002653169, -29549.904, -5.605648, 0.0, 0.00068489875, 0.0010368656, 0.0010368656, 0.0, 0.012207031, 0.011861509 
6.1035156e-3, 1.2659304e+1, -0.000008428739, -29540.502, -2.361152, 0.0, 0.00066605734, 0.00018029651, 0.00018029651, 0.0, 0.012207031, 0.011861615 
6.1035156e-3, 1.2671165e+1, -0.000000019321819, -29527.361, -0.1399557, 0.0, 0.0007000854, 0.0000006440496, 0.0000006440496, 0.0, 0.012207031, 0.011861762 
6.1035156e-3, 1.2683028e+1, -0.0000000007922604, -29518.836, 0.018632168, 0.0, 0.00067720923, 0.000000010968506, 0.000000010968506, 0.0, 0.012207031, 0.011861857 
6.1035156e-3, 1.269489e+1, -0.000000045656847, -29508.328, 0.22298703, 0.0, 0.0007076585, 0.0000016394006, 0.0000016394006, 0.0, 0.012207031, 0.011861975 
6.1035156e-3, 1.270675e+1, -0.00000044652447, -29497.182, -0.6298056, 0.0, 0.000666075, 0.000013000696, 0.000013000696, 0.0, 0.012207031, 0.0118621 
6.1035156e-3, 1.2718613e+1, -0.000000051569984, -29490.613, -0.0011294651, 0.0, 0.0006417337, -0.000000051524694, -0.000000051524694, 0.0, 0.012207031, 0.011862174 
6.1035156e-3, 1.2730475e+1, -0.00000036779008, -29477.693, 0.55592155, 0.0, 0.00076723815, 0.000010116368, 0.000010116368, 0.0, 0.012207031, 0.011862318 
6.1035156e-3, 1.2742338e+1, -0.000000026610024, -29469.492, -0.15836401, 0.0, 0.0007224143, 0.000000824406, 0.000000824406, 0.0, 0.012207031, 0.01186241 
6.1035156e-3, 1.27542e+1, -0.000000021991342, -29458.928, -0.03395112, 0.0, 0.000577379, 0.000000017138518, 0.000000017138518, 0.0, 0.012207031, 0.0118625285 
6.1035156e-3, 1.2766063e+1, -0.000000049495213, -29449.79, -0.13375305, 0.0, 0.0006903261, 0.00000055797864, 0.00000055797864, 0.0, 0.012207031, 0.011862631 
6.1035156e-3, 1.2777926e+1, -0.000000012616101, -29440.152, 0.08018017, 0.0, 0.0007523066, 0.00000020575317, 0.00000020575317, 0.0, 0.012207031, 0.011862739 
6.1035156e-3, 1.2789789e+1, -0.0000003215899, -29429.604, 0.5228851, 0.0, 0.0006900499, 0.000008968676, 0.000008968676, 0.0, 0.012207031, 0.011862857 
6.1035156e-3, 1.2801652e+1, -0.0000004815961, -29419.469, -0.6685437, 0.0, 0.0006475264, 0.000014710749, 0.000014710749, 0.0, 0.012207031, 0.011862971 
6.1035156e-3, 1.2813514e+1, 0.000000020568262, -29411.992, 0.043991573, 0.0, 0.0006761305, 0.00000008636562, 0.00000008636562, 0.0, 0.012207031, 0.011863055 
6.1035156e-3, 1.2825377e+1, -0.000000027384571, -29398.893, -0.017693255, 0.0, 0.0007235102, -0.000000016734703, -0.000000016734703, 0.0, 0.012207031, 0.011863202 
6.1035156e-3, 1.2837242e+1, -0.00000020158981, -29392.055, -0.44131288, 0.0, 0.000681012, 0.000006424587, 0.000006424587, 0.0, 0.012207031, 0.011863278 
6.1035156e-3, 1.2849104e+1, -0.00000042738793, -29381.191, 0.64017725, 0.0, 0.00066086097, 0.000013521225, 0.000013521225, 0.0, 0.012207031, 0.0118634 
6.1035156e-3, 1.2860967e+1, -0.00000007318606, -29370.855, -0.24005221, 0.0, 0.0007436026, 0.0000018887949, 0.0000018887949, 0.0, 0.012207031, 0.011863516 
6.1035156e-3, 1.2872832e+1, -0.000000023663619, -29361.646, -0.004352008, 0.0, 0.0006580155, -0.00000002302113, -0.00000002302113, 0.0, 0.012207031, 0.011863619 
6.1035156e-3, 1.2884694e+1, -0.00000023853616, -29351.818, 0.4689998, 0.0, 0.00064152275, 0.0000072554067, 0.0000072554067, 0.0, 0.012207031, 0.011863729 
6.1035156e-3, 1.2896559e+1, -0.000001164789, -29342.912, -0.9333374, 0.0, 0.0007325495, 0.000028522747, 0.000028522747, 0.0, 0.012207031, 0.011863829 
6.1035156e-3, 1.2908423e+1, -0.00000008422108, -29330.95, -0.005265949, 0.0, 0.00072094443, -0.00000008327697, -0.00000008327697, 0.0, 0.012207031, 0.011863963 
6.1035156e-3, 1.2920286e+1, -0.000007934324, -29317.486, -2.3951855, 0.0, 0.000659466, 0.000187748, 0.000187748, 0.0, 0.012207031, 0.011864114 
6.1035156e-3, 1.2932152e+1, -0.000038243586, -29315.467, -6.295515, 0.0, 0.00066622783, 0.0013137221, 0.0013137221, 0.0, 0.012207031, 0.011864137 
6.1035156e-3, 1.2944014e+1, -0.000016528009, -29306.295, -3.2564352, 0.0, 0.00071301917, 0.00034531814, 0.00034531814, 0.0, 0.012207031, 0.011864239 
6.1035156e-3, 1.2955879e+1, -0.000000038087883, -29293.38, -0.09610834, 0.0, 0.0007121472, 0.00000027722854, 0.00000027722854, 0.0, 0.012207031, 0.011864385 
6.1035156e-3, 1.2967744e+1, -0.000015912743, -29284.756, -4.293427, 0.0, 0.0006734966, 0.0006135449, 0.0006135449, 0.0, 0.012207031, 0.011864481 
6.1035156e-3, 1.2979609e+1, -0.0000001222496, -29274.197, 0.22333446, 0.0, 0.00069070613, 0.0000015815822, 0.0000015815822, 0.0, 0.012207031, 0.0118646 
6.1035156e-3, 1.2991473e+1, -0.00000006962324, -29262.594, -0.24662203, 0.0, 0.0007129048, 0.000002008881, 0.000002008881, 0.0, 0.012207031, 0.011864729 
6.1035156e-3, 1.3003337e+1, -0.00000032260095, -29255.99, -0.544412, 0.0, 0.0006739522, 0.0000098081255, 0.0000098081255, 0.0, 0.012207031, 0.011864804 
6.1035156e-3, 1.3015203e+1, -0.0000001005464, -29243.518, 0.2547339, 0.0, 0.00068609876, 0.0000021183878, 0.0000021183878, 0.0, 0.012207031, 0.011864943 
6.1035156e-3, 1.3027067e+1, -0.00000003936048, -29235.506, -0.18062142, 0.0, 0.0007488381, 0.000001076547, 0.000001076547, 0.0, 0.012207031, 0.011865033 
6.1035156e-3, 1.3038933e+1, -0.000000087810804, -29224.223, -0.2067188, 0.0, 0.00070510636, 0.0000013744248, 0.0000013744248, 0.0, 0.012207031, 0.0118651595 
6.1035156e-3, 1.3050798e+1, -0.00000040207232, -29217.41, 0.6155234, 0.0, 0.0006259249, 0.000012565164, 0.000012565164, 0.0, 0.012207031, 0.011865236 
6.1035156e-3, 1.3062663e+1, -0.000000054739026, -29201.758, -0.10326695, 0.0, 0.0007270896, 0.00000031044692, 0.00000031044692, 0.0, 0.012207031, 0.011865412 
6.1035156e-3, 1.3074529e+1, -0.00000060274994, -29199.209, -0.77114224, 0.0, 0.0007506449, 0.000019762883, 0.000019762883, 0.0, 0.012207031, 0.01186544 
6.1035156e-3, 1.3086395e+1, -0.000000045702155, -29183.135, -0.0019452905, 0.0, 0.000676879, -0.0000000455766, -0.0000000455766, 0.0, 0.012207031, 0.0118656205 
6.1035156e-3, 1.309826e+1, -0.000008753314, -29179.79, -2.4348202, 0.0, 0.00069373887, 0.00019441298, 0.00019441298, 0.0, 0.012207031, 0.011865658 
6.1035156e-3, 1.3110125e+1, -0.0000037045675, -29162.64, -1.6883377, 0.0, 0.00075117213, 0.0000940398, 0.0000940398, 0.0, 0.012207031, 0.011865851 
6.1035156e-3, 1.3121991e+1, -0.000000094225335, -29160.697, 0.22611398, 0.0, 0.000651076, 0.000001659082, 0.000001659082, 0.0, 0.012207031, 0.011865872 
6.1035156e-3, 1.3133858e+1, -0.00000009654988, -29143.063, -0.12488074, 0.0, 0.00068021595, 0.00000043858017, 0.00000043858017, 0.0, 0.012207031, 0.01186607 
6.1035156e-3, 1.3145724e+1, -0.000000088510355, -29140.992, -0.18938982, 0.0, 0.00078868895, 0.0000011423472, 0.0000011423472, 0.0, 0.012207031, 0.011866094 
6.1035156e-3, 1.315759e+1, -0.0000015499328, -29123.525, -1.1337206, 0.0, 0.0007515911, 0.00004258355, 0.00004258355, 0.0, 0.012207031, 0.011866289 
6.1035156e-3, 1.3169456e+1, -0.000000093088026, -29121.271, 0.2891788, 0.0, 0.00058777246, 0.0000027785027, 0.0000027785027, 0.0, 0.012207031, 0.011866314 
6.1035156e-3, 1.3181323e+1, -0.00000008351346, -29104.088, -0.10829406, 0.0, 0.00069917046, 0.00000031944, 0.00000031944, 0.0, 0.012207031, 0.011866507 
6.1035156e-3, 1.3193189e+1, -0.000000039190418, -29102.324, 0.02608059, 0.0, 0.00080890197, -0.000000015817932, -0.000000015817932, 0.0, 0.012207031, 0.011866527 
6.1035156e-3, 1.3205056e+1, -0.000000029686088, -29083.852, 0.037079707, 0.0, 0.0007066941, 0.00000001758599, 0.00000001758599, 0.0, 0.012207031, 0.011866734 
6.1035156e-3, 1.3216923e+1, -0.00000003948985, -29082.809, -0.057162467, 0.0, 0.00064287067, 0.00000007286144, 0.00000007286144, 0.0, 0.012207031, 0.011866746 
6.1035156e-3, 1.3228789e+1, -0.000000026073524, -29064.357, -0.07860132, 0.0, 0.0007649223, 0.00000018649735, 0.00000018649735, 0.0, 0.012207031, 0.011866953 
6.1035156e-3, 1.3240656e+1, -0.000000078046185, -29064.3, 0.22330067, 0.0, 0.00069001387, 0.0000016375707, 0.0000016375707, 0.0, 0.012207031, 0.011866953 
6.1035156e-3, 1.3252524e+1, -0.00000006360356, -29043.828, 0.19267082, 0.0, 0.0006853078, 0.0000012145356, 0.0000012145356, 0.0, 0.012207031, 0.011867183 
6.1035156e-3, 1.326439e+1, -0.00000011077429, -29043.943, -0.36956102, 0.0, 0.0007614265, 0.0000045915986, 0.0000045915986, 0.0, 0.012207031, 0.011867182 
6.1035156e-3, 1.3276258e+1, -0.00000013209045, -29025.404, -0.27067852, 0.0, 0.000689245, 0.0000023921384, 0.0000023921384, 0.0, 0.012207031, 0.01186739 
6.1035156e-3, 1.3288125e+1, -0.00000006124059, -29024.783, -0.23030722, 0.0, 0.0006813674, 0.0000017662096, 0.0000017662096, 0.0, 0.012207031, 0.0118673965 
6.1035156e-3, 1.3299993e+1, -0.00000013389413, -29004.9, -0.284192, 0.0, 0.00082760165, 0.000002650635, 0.000002650635, 0.0, 0.012207031, 0.01186762 
6.1035156e-3, 1.331186e+1, -0.00000021314, -29006.316, 0.4073395, 0.0, 0.00065508764, 0.0000055071832, 0.0000055071832, 0.0, 0.012207031, 0.011867604 
6.1035156e-3, 1.3323727e+1, -0.00000003370307, -28984.895, -0.020913146, 0.0, 0.00058006874, -0.000000018615538, -0.000000018615538, 0.0, 0.012207031, 0.0118678445 
6.1035156e-3, 1.3335596e+1, -0.0000005455129, -28984.941, -0.66711724, 0.0, 0.0008183849, 0.000014808855, 0.000014808855, 0.0, 0.012207031, 0.011867844 
6.1035156e-3, 1.3347463e+1, -0.0000000671341, -28967.225, 0.12793353, 0.0, 0.00083368976, 0.0000004978792, 0.0000004978792, 0.0, 0.012207031, 0.011868043 
6.1035156e-3, 1.3359332e+1, 0.00000000862634, -28964.754, 0.09254639, 0.0, 0.00060253905, 0.0000003043242, 0.0000003043242, 0.0, 0.012207031, 0.011868071 
6.1035156e-3, 1.33712e+1, -0.00000009751093, -28948.063, -0.29755244, 0.0, 0.00066038995, 0.00000296098, 0.00000296098, 0.0, 0.012207031, 0.011868258 
6.1035156e-3, 1.3383068e+1, -0.00000006333727, -28945.912, 0.09592194, 0.0, 0.00078736985, 0.0000002545312, 0.0000002545312, 0.0, 0.012207031, 0.011868282 
6.1035156e-3, 1.3394937e+1, -0.000000020022343, -28927.977, 0.104301386, 0.0, 0.00073125085, 0.0000003560417, 0.0000003560417, 0.0, 0.012207031, 0.011868483 
6.1035156e-3, 1.3406806e+1, -0.0000000341763, -28925.047, 0.06631111, 0.0, 0.000691213, 0.00000011784505, 0.00000011784505, 0.0, 0.012207031, 0.011868516 
6.1035156e-3, 1.3418673e+1, -0.00000008596712, -28909.844, -0.07166664, 0.0, 0.00072903006, 0.000000091695256, 0.000000091695256, 0.0, 0.012207031, 0.011868686 
6.1035156e-3, 1.3430542e+1, -0.00000012214616, -28907.568, 0.33200637, 0.0, 0.00071097864, 0.0000036909805, 0.0000036909805, 0.0, 0.012207031, 0.0118687125 
6.1035156e-3, 1.3442412e+1, -0.000011691815, -28888.256, -4.059433, 0.0, 0.0007420496, 0.00055874744, 0.00055874744, 0.0, 0.012207031, 0.0118689295 
6.1035156e-3, 1.345428e+1, -0.0000012243206, -28886.998, 0.99748194, 0.0, 0.00073657837, 0.000033219203, 0.000033219203, 0.0, 0.012207031, 0.011868943 
6.1035156e-3, 1.346615e+1, -0.00000064803976, -28871.271, 0.71920526, 0.0, 0.00067581056, 0.000017267907, 0.000017267907, 0.0, 0.012207031, 0.0118691195 
6.1035156e-3, 1.3478018e+1, -0.000025860316, -28867.625, -5.545489, 0.0, 0.00073016726, 0.0010394315, 0.0010394315, 0.0, 0.012207031, 0.01186916 
6.1035156e-3, 1.3489887e+1, -0.00001255523, -28848.863, -2.8116305, 0.0, 0.00078304316, 0.00026146823, 0.00026146823, 0.0, 0.012207031, 0.011869371 
6.1035156e-3, 1.3501757e+1, -0.0000008751487, -28846.262, 0.8242225, 0.0, 0.0007101859, 0.00002267531, 0.00002267531, 0.0, 0.012207031, 0.011869401 
6.1035156e-3, 1.3513626e+1, -0.0000005638132, -28830.553, -0.69081867, 0.0, 0.00070153875, 0.000015989124, 0.000015989124, 0.0, 0.012207031, 0.011869577 
6.1035156e-3, 1.3525496e+1, -0.00000011831211, -28828.809, -0.12279913, 0.0, 0.0007496252, 0.00000040476516, 0.00000040476516, 0.0, 0.012207031, 0.011869596 
6.1035156e-3, 1.3537365e+1, -0.0000005652929, -28811.383, 0.7553776, 0.0, 0.0007398743, 0.000019239214, 0.000019239214, 0.0, 0.012207031, 0.011869792 
6.1035156e-3, 1.3549235e+1, -0.00000005972185, -28806.95, -0.20014435, 0.0, 0.00071489316, 0.0000013308381, 0.0000013308381, 0.0, 0.012207031, 0.011869842 
6.1035156e-3, 1.3561106e+1, -0.00000013276555, -28793.17, -0.43212253, 0.0, 0.0007580339, 0.0000063524494, 0.0000063524494, 0.0, 0.012207031, 0.011869997 
6.1035156e-3, 1.3572975e+1, -0.00000031017217, -28787.764, 0.5383864, 0.0, 0.000751803, 0.000009758685, 0.000009758685, 0.0, 0.012207031, 0.011870057 
6.1035156e-3, 1.3584846e+1, 0.00000006262495, -28774.096, -0.071162626, 0.0, 0.00069982273, 0.00000023861867, 0.00000023861867, 0.0, 0.012207031, 0.011870211 
6.1035156e-3, 1.3596717e+1, -0.0000001278725, -28769.186, 0.25541374, 0.0, 0.00072505214, 0.000002139699, 0.000002139699, 0.0, 0.012207031, 0.011870266 
6.1035156e-3, 1.3608587e+1, -0.00002862835, -28754.61, -5.778153, 0.0, 0.0007860648, 0.0011324742, 0.0011324742, 0.0, 0.012207031, 0.01187043 
6.1035156e-3, 1.3620457e+1, -0.000002482184, -28746.014, 1.4265277, 0.0, 0.0007319177, 0.000068309586, 0.000068309586, 0.0, 0.012207031, 0.011870526 
6.1035156e-3, 1.3632327e+1, -0.00000017972577, -28736.04, -0.3674819, 0.0, 0.0007161438, 0.0000045196975, 0.0000045196975, 0.0, 0.012207031, 0.0118706385 
6.1035156e-3, 1.3644199e+1, -0.00000069604357, -28729.234, 0.7539241, 0.0, 0.0007541113, 0.000019088733, 0.000019088733, 0.0, 0.012207031, 0.011870715 
6.1035156e-3, 1.365607e+1, -0.000042916825, -28715.256, -6.5056667, 0.0, 0.00074129406, 0.001430993, 0.001430993, 0.0, 0.012207031, 0.011870871 
6.1035156e-3, 1.366794e+1, -0.0000016565531, -28707.617, 1.1873214, 0.0, 0.00072057155, 0.000047449998, 0.000047449998, 0.0, 0.012207031, 0.011870957 
6.1035156e-3, 1.367981e+1, -0.000000029558528, -28695.738, -0.06711368, 0.0, 0.00076702796, 0.00000012740566, 0.00000012740566, 0.0, 0.012207031, 0.011871091 
6.1035156e-3, 1.3691682e+1, -0.000000046987683, -28689.479, -0.110716045, 0.0, 0.0007293899, 0.00000038027792, 0.00000038027792, 0.0, 0.012207031, 0.011871161 
6.1035156e-3, 1.3703553e+1, 0.0000000066778574, -28675.973, 0.17830484, 0.0, 0.00073606044, 0.0000011153643, 0.0000011153643, 0.0, 0.012207031, 0.011871313 
6.1035156e-3, 1.3715425e+1, -0.000000062194104, -28669.662, 0.11168075, 0.0, 0.00075458875, 0.00000037284917, 0.00000037284917, 0.0, 0.012207031, 0.0118713835 
6.1035156e-3, 1.3727295e+1, -0.000000040428986, -28657.344, 0.1620221, 0.0, 0.00072228466, 0.00000087560693, 0.00000087560693, 0.0, 0.012207031, 0.011871522 
6.1035156e-3, 1.3739167e+1, -0.000000051342923, -28650.049, 0.22750269, 0.0, 0.0007500155, 0.0000017551974, 0.0000017551974, 0.0, 0.012207031, 0.011871604 
6.1035156e-3, 1.3751039e+1, -0.00000006503732, -28637.373, -0.15824343, 0.0, 0.00075538544, 0.0000008093775, 0.0000008093775, 0.0, 0.012207031, 0.011871746 
6.1035156e-3, 1.376291e+1, -0.0000001310528, -28631.94, 0.33450755, 0.0, 0.00068295805, 0.0000037770042, 0.0000037770042, 0.0, 0.012207031, 0.011871807 
6.1035156e-3, 1.3774782e+1, -0.0000062828644, -28617.918, -2.0823183, 0.0, 0.00077200675, 0.00014523233, 0.00014523233, 0.0, 0.012207031, 0.011871965 
6.1035156e-3, 1.3786656e+1, -0.000000017761558, -28611.063, 0.15245809, 0.0, 0.00077865255, 0.0000007946328, 0.0000007946328, 0.0, 0.012207031, 0.011872042 
6.1035156e-3, 1.3798527e+1, -0.00000017521255, -28598.648, 0.3049741, 0.0, 0.0007021361, 0.0000030770134, 0.0000030770134, 0.0, 0.012207031, 0.011872182 
6.1035156e-3, 1.3810399e+1, -0.000000043995247, -28591.787, -0.036732685, 0.0, 0.0007263148, 0.0000000031977834, 0.0000000031977834, 0.0, 0.012207031, 0.011872258 
6.1035156e-3, 1.3822271e+1, -0.0000013216554, -28579.393, -1.0532835, 0.0, 0.00075906474, 0.00003749673, 0.00003749673, 0.0, 0.012207031, 0.011872398 
6.1035156e-3, 1.3834144e+1, -0.00000018929104, -28571.818, 0.38489532, 0.0, 0.0007438273, 0.0000049956907, 0.0000049956907, 0.0, 0.012207031, 0.0118724825 
6.1035156e-3, 1.3846017e+1, -0.00000016165558, -28559.576, -0.33015245, 0.0, 0.0007353039, 0.00000365495, 0.00000365495, 0.0, 0.012207031, 0.01187262 
6.1035156e-3, 1.3857889e+1, -0.000000380761, -28553.51, 0.56134605, 0.0, 0.00074243813, 0.000010654989, 0.000010654989, 0.0, 0.012207031, 0.011872688 
6.1035156e-3, 1.3869762e+1, -0.000000052867705, -28538.334, -0.21058439, 0.0, 0.0007616554, 0.0000015010373, 0.0000015010373, 0.0, 0.012207031, 0.011872859 
6.1035156e-3, 1.3881634e+1, -0.0000005117137, -28534.402, -0.6471743, 0.0, 0.0007082026, 0.000014166519, 0.000014166519, 0.0, 0.012207031, 0.011872903 
6.1035156e-3, 1.3893507e+1, -0.00000048648474, -28520.172, 0.6466362, 0.0, 0.0007509422, 0.0000141746605, 0.0000141746605, 0.0, 0.012207031, 0.011873063 
6.1035156e-3, 1.390538e+1, -0.00000043767255, -28513.148, -0.62320226, 0.0, 0.00078433607, 0.0000131834495, 0.0000131834495, 0.0, 0.012207031, 0.011873142 
6.1035156e-3, 1.3917254e+1, -0.000000116792094, -28502.03, 0.13191907, 0.0, 0.00070627365, 0.00000049378286, 0.00000049378286, 0.0, 0.012207031, 0.011873267 
6.1035156e-3, 1.3929127e+1, -0.000000074749444, -28492.602, 0.23616037, 0.0, 0.0007820477, 0.0000018826613, 0.0000018826613, 0.0, 0.012207031, 0.011873373 
6.1035156e-3, 1.3941e+1, -0.000003451698, -28482.598, -1.620962, 0.0, 0.0007640737, 0.000088798246, 0.000088798246, 0.0, 0.012207031, 0.0118734855 
6.1035156e-3, 1.3952874e+1, -0.0000000010854962, -28472.79, 0.10484642, 0.0, 0.00070296647, 0.00000038499638, 0.00000038499638, 0.0, 0.012207031, 0.011873595 
6.1035156e-3, 1.3964748e+1, -0.000010667845, -28456.432, -2.6532326, 0.0, 0.0007690657, 0.00023671536, 0.00023671536, 0.0, 0.012207031, 0.011873779 
6.1035156e-3, 1.3976622e+1, -0.00004836012, -28456.547, -7.019764, 0.0, 0.0007807926, 0.0016833006, 0.0016833006, 0.0, 0.012207031, 0.011873778 
6.1035156e-3, 1.3988496e+1, -0.000013371306, -28446.87, -4.088099, 0.0, 0.0007699948, 0.0005741293, 0.0005741293, 0.0, 0.012207031, 0.011873887 
6.1035156e-3, 1.400037e+1, -0.00000003974673, -28434.51, -0.093647465, 0.0, 0.0007279625, 0.00000026867565, 0.00000026867565, 0.0, 0.012207031, 0.011874026 
6.1035156e-3, 1.4012244e+1, -0.00000023371068, -28424.826, 0.4529527, 0.0, 0.00072086294, 0.000006984137, 0.000006984137, 0.0, 0.012207031, 0.011874135 
6.1035156e-3, 1.4024119e+1, -0.000001613252, -28413.254, -1.2363888, 0.0, 0.0008523701, 0.0000521876, 0.0000521876, 0.0, 0.012207031, 0.011874264 
6.1035156e-3, 1.4035992e+1, -0.00000037349346, -28406.84, -0.5344941, 0.0, 0.00076651695, 0.000009683379, 0.000009683379, 0.0, 0.012207031, 0.011874337 
6.1035156e-3, 1.4047867e+1, -0.0000014165273, -28393.36, 1.1409171, 0.0, 0.00070339546, 0.000044428412, 0.000044428412, 0.0, 0.012207031, 0.011874489 
6.1035156e-3, 1.405974e+1, -0.0000001586041, -28385.604, -0.3568707, 0.0, 0.00077654334, 0.0000043280597, 0.0000043280597, 0.0, 0.012207031, 0.011874575 
6.1035156e-3, 1.4071617e+1, -0.000000287058, -28373.174, -0.50725615, 0.0, 0.00080259476, 0.000008781677, 0.000008781677, 0.0, 0.012207031, 0.011874715 
6.1035156e-3, 1.408349e+1, -0.00000083966955, -28366.307, -0.8694228, 0.0, 0.00075658294, 0.000025808, 0.000025808, 0.0, 0.012207031, 0.011874792 
6.1035156e-3, 1.4095366e+1, -0.000004377345, -28355.69, -1.6202418, 0.0, 0.0007701902, 0.00008820313, 0.00008820313, 0.0, 0.012207031, 0.011874911 
6.1035156e-3, 1.410724e+1, -0.000018912693, -28348.438, -4.8397517, 0.0, 0.00077183865, 0.0008073478, 0.0008073478, 0.0, 0.012207031, 0.011874993 
6.1035156e-3, 1.4119115e+1, -0.00000060407604, -28332.373, 0.5820867, 0.0, 0.0007754985, 0.000011354856, 0.000011354856, 0.0, 0.012207031, 0.011875174 
6.1035156e-3, 1.4130992e+1, -0.000000039545984, -28331.635, 0.13693728, 0.0, 0.0007650677, 0.0000006223272, 0.0000006223272, 0.0, 0.012207031, 0.011875182 
6.1035156e-3, 1.4142866e+1, -0.00009698965, -28313.719, -10.041439, 0.0, 0.00078461115, 0.0034641987, 0.0034641987, 0.0, 0.012207031, 0.011875384 
6.1035156e-3, 1.4154741e+1, -0.00000038884107, -28308.33, 0.6032332, 0.0, 0.0007561646, 0.000012465691, 0.000012465691, 0.0, 0.012207031, 0.011875444 
6.1035156e-3, 1.4166617e+1, -0.00000016307233, -28292.217, -0.39891592, 0.0, 0.00078037597, 0.000005461581, 0.000005461581, 0.0, 0.012207031, 0.011875626 
6.1035156e-3, 1.4178492e+1, -0.00000026164423, -28291.848, -0.44860435, 0.0, 0.0007832858, 0.0000068515656, 0.0000068515656, 0.0, 0.012207031, 0.011875629 
6.1035156e-3, 1.4190368e+1, -0.0000006036555, -28274.46, 0.7686355, 0.0, 0.00076581334, 0.00002029154, 0.00002029154, 0.0, 0.012207031, 0.011875825 
6.1035156e-3, 1.4202245e+1, -0.000000253286, -28271.793, 0.4415088, 0.0, 0.000744962, 0.0000066415705, 0.0000066415705, 0.0, 0.012207031, 0.011875855 
6.1035156e-3, 1.421412e+1, -0.0000002010874, -28253.271, -0.38827267, 0.0, 0.00078735384, 0.000005134778, 0.000005134778, 0.0, 0.012207031, 0.011876063 
6.1035156e-3, 1.4225996e+1, -0.00000012129128, -28253.635, -0.26261854, 0.0, 0.00078870606, 0.0000023197608, 0.0000023197608, 0.0, 0.012207031, 0.011876059 
6.1035156e-3, 1.4237872e+1, -0.00000011065429, -28234.96, 0.35612342, 0.0, 0.0007458537, 0.0000043810796, 0.0000043810796, 0.0, 0.012207031, 0.011876269 
6.1035156e-3, 1.424975e+1, -0.0000001293617, -28233.072, 0.26764777, 0.0, 0.0007706202, 0.0000024079236, 0.0000024079236, 0.0, 0.012207031, 0.011876291 
6.1035156e-3, 1.4261626e+1, -0.00000012544946, -28214.293, -0.26243982, 0.0, 0.00079268817, 0.0000023156754, 0.0000023156754, 0.0, 0.012207031, 0.011876501 
6.1035156e-3, 1.4273502e+1, 0.000000008649278, -28214.537, 0.0008098439, 0.0, 0.00071510475, 0.0000000086729415, 0.0000000086729415, 0.0, 0.012207031, 0.011876498 
6.1035156e-3, 1.4285378e+1, -0.00000007621332, -28195.5, -0.02949508, 0.0, 0.0007772188, -0.000000045354682, -0.000000045354682, 0.0, 0.012207031, 0.011876713 
6.1035156e-3, 1.4297256e+1, -0.00000026539036, -28193.963, -0.40578225, 0.0, 0.000821798, 0.0000055748387, 0.0000055748387, 0.0, 0.012207031, 0.01187673 
6.1035156e-3, 1.4309132e+1, -0.000000089795144, -28176.63, 0.22034568, 0.0, 0.0007216012, 0.0000016333397, 0.0000016333397, 0.0, 0.012207031, 0.011876925 
6.1035156e-3, 1.4321008e+1, 0.00000003161772, -28174.152, -0.005353133, 0.0, 0.00077003625, 0.000000032636308, 0.000000032636308, 0.0, 0.012207031, 0.011876953 
6.1035156e-3, 1.4332886e+1, -0.00000012751062, -28156.855, -0.32598618, 0.0, 0.0008065519, 0.0000036465972, 0.0000036465972, 0.0, 0.012207031, 0.0118771475 
6.1035156e-3, 1.4344762e+1, -0.000000018122718, -28154.535, 0.050372433, 0.0, 0.00069545396, 0.00000007199924, 0.00000007199924, 0.0, 0.012207031, 0.011877174 
6.1035156e-3, 1.4356641e+1, -0.00000003288964, -28137.598, -0.11064731, 0.0, 0.0007565096, 0.00000040221494, 0.00000040221494, 0.0, 0.012207031, 0.0118773645 
6.1035156e-3, 1.4368518e+1, -0.000000103990374, -28135.557, 0.23721829, 0.0, 0.00086566847, 0.00000189606, 0.00000189606, 0.0, 0.012207031, 0.011877387 
6.1035156e-3, 1.4380395e+1, -0.00000006242085, -28116.805, 0.14946139, 0.0, 0.00075671414, 0.00000073207775, 0.00000073207775, 0.0, 0.012207031, 0.011877598 
6.1035156e-3, 1.4392273e+1, -0.00000061389824, -28115.334, -0.78235185, 0.0, 0.0006865786, 0.00002115623, 0.00002115623, 0.0, 0.012207031, 0.011877615 
6.1035156e-3, 1.4404151e+1, -0.00000007465522, -28099.672, 0.19368295, 0.0, 0.0007697518, 0.000001260345, 0.000001260345, 0.0, 0.012207031, 0.011877791 
6.1035156e-3, 1.4416029e+1, -0.00000029686655, -28096.137, 0.5494406, 0.0, 0.0008545645, 0.0000104478495, 0.0000104478495, 0.0, 0.012207031, 0.01187783 
6.1035156e-3, 1.4427906e+1, -0.00000014197464, -28078.697, 0.21269841, 0.0, 0.0007877191, 0.0000014692305, 0.0000014692305, 0.0, 0.012207031, 0.011878027 
6.1035156e-3, 1.4439784e+1, -0.00001872806, -28076.59, -4.659621, 0.0, 0.0006852361, 0.0007545875, 0.0007545875, 0.0, 0.012207031, 0.011878051 
6.1035156e-3, 1.4451662e+1, -0.0000009292082, -28058.787, 0.8483392, 0.0, 0.0007484642, 0.000024719775, 0.000024719775, 0.0, 0.012207031, 0.011878251 
6.1035156e-3, 1.4463541e+1, 0.0000000070335053, -28057.533, -0.029689584, 0.0, 0.00088765763, 0.000000038449798, 0.000000038449798, 0.0, 0.012207031, 0.011878265 
6.1035156e-3, 1.4475419e+1, -0.001535419, -28039.23, -40.083492, 0.0, 0.00080410566, 0.055765834, 0.055765834, 0.0, 0.012207031, 0.011878471 
6.1035156e-3, 1.4487298e+1, -0.0000011011447, -28036.768, 0.96547896, 0.0, 0.00067507155, 0.000032146254, 0.000032146254, 0.0, 0.012207031, 0.011878499 
6.1035156e-3, 1.4499176e+1, -0.00000029675726, -28020.197, -0.48423463, 0.0, 0.0007741286, 0.000008071605, 0.000008071605, 0.0, 0.012207031, 0.011878685 
6.1035156e-3, 1.4511055e+1, -0.00000009966432, -28017.365, -0.23224969, 0.0, 0.0008601681, 0.0000018255669, 0.0000018255669, 0.0, 0.012207031, 0.011878717 
6.1035156e-3, 1.4522934e+1, -0.000000079063106, -28000.504, 0.31437203, 0.0, 0.00081506465, 0.0000034505065, 0.0000034505065, 0.0, 0.012207031, 0.011878907 
6.1035156e-3, 1.4534813e+1, -0.00000004248202, -27997.73, -0.1166146, 0.0, 0.00072322885, 0.0000004432368, 0.0000004432368, 0.0, 0.012207031, 0.0118789375 
6.1035156e-3, 1.4546692e+1, -0.0000000062833103, -27982.309, 0.012769176, 0.0, 0.0007461553, -0.00000000045838533, -0.00000000045838533, 0.0, 0.012207031, 0.011879112 
6.1035156e-3, 1.4558572e+1, -0.00000007813761, -27976.947, -0.28483647, 0.0, 0.00086667837, 0.0000028218165, 0.0000028218165, 0.0, 0.012207031, 0.011879171 
6.1035156e-3, 1.457045e+1, -0.0000002050936, -27963.06, -0.37729385, 0.0, 0.0008324259, 0.0000048855763, 0.0000048855763, 0.0, 0.012207031, 0.011879328 
6.1035156e-3, 1.458233e+1, -0.00000012965154, -27957.955, 0.42422068, 0.0, 0.00071658293, 0.0000063072694, 0.0000063072694, 0.0, 0.012207031, 0.011879385 
6.1035156e-3, 1.4594209e+1, -0.0000000894077, -27942.605, -0.20831269, 0.0, 0.0007928056, 0.0000014635698, 0.0000014635698, 0.0, 0.012207031, 0.011879558 
6.1035156e-3, 1.4606088e+1, -0.00000006730539, -27939.1, -0.26768437, 0.0, 0.0008252643, 0.0000024973742, 0.0000024973742, 0.0, 0.012207031, 0.011879598 
6.1035156e-3, 1.4617969e+1, -0.00000033331565, -27923.385, 0.49904534, 0.0, 0.0008076011, 0.000008585597, 0.000008585597, 0.0, 0.012207031, 0.011879775 
6.1035156e-3, 1.4629848e+1, -0.00000026968104, -27918.51, -0.4856226, 0.0, 0.0007855963, 0.00000817738, 0.00000817738, 0.0, 0.012207031, 0.01187983 
6.1035156e-3, 1.4641729e+1, -0.00000011253689, -27904.633, -0.36814174, 0.0, 0.00077124336, 0.000004744299, 0.000004744299, 0.0, 0.012207031, 0.011879985 
6.1035156e-3, 1.4653608e+1, -0.000000325602, -27900.45, 0.51734424, 0.0, 0.0008081902, 0.000009267256, 0.000009267256, 0.0, 0.012207031, 0.011880033 
6.1035156e-3, 1.4665489e+1, -0.000000008407928, -27883.65, -0.03178954, 0.0, 0.0008440913, 0.000000027837814, 0.000000027837814, 0.0, 0.012207031, 0.011880222 
6.1035156e-3, 1.4677368e+1, -0.00000007440711, -27880.03, -0.13101782, 0.0, 0.00075185485, 0.00000054129123, 0.00000054129123, 0.0, 0.012207031, 0.011880263 
6.1035156e-3, 1.4689249e+1, -0.000000054530055, -27864.777, 0.19334184, 0.0, 0.00080510206, 0.0000012869896, 0.0000012869896, 0.0, 0.012207031, 0.011880434 
6.1035156e-3, 1.470113e+1, 0.000000018212749, -27860.049, 0.08345245, 0.0, 0.00081711815, 0.00000026818816, 0.00000026818816, 0.0, 0.012207031, 0.011880487 
6.1035156e-3, 1.471301e+1, -0.000000013004676, -27845.85, 0.09748805, 0.0, 0.0007605054, 0.00000032829848, 0.00000032829848, 0.0, 0.012207031, 0.011880647 
6.1035156e-3, 1.4724891e+1, 0.000000004926355, -27840.799, 0.05612352, 0.0, 0.0007947286, 0.000000118063326, 0.000000118063326, 0.0, 0.012207031, 0.011880704 
6.1035156e-3, 1.4736772e+1, -0.00000004934524, -27826.145, 0.14193277, 0.0, 0.0008528386, 0.00000067461224, 0.00000067461224, 0.0, 0.012207031, 0.011880869 
6.1035156e-3, 1.4748652e+1, -0.000000038218044, -27821.361, 0.14352629, 0.0, 0.0007583033, 0.0000007022136, 0.0000007022136, 0.0, 0.012207031, 0.011880923 
6.1035156e-3, 1.4760533e+1, -0.0000003957746, -27807.361, 0.5256542, 0.0, 0.00078436715, 0.000009540887, 0.000009540887, 0.0, 0.012207031, 0.01188108 
6.1035156e-3, 1.4772414e+1, -0.00002127252, -27802.053, -4.825482, 0.0, 0.0007973582, 0.0008162654, 0.0008162654, 0.0, 0.012207031, 0.01188114 
6.1035156e-3, 1.4784294e+1, -0.0000075620783, -27787.43, 2.3073332, 0.0, 0.0008108816, 0.00018402767, 0.00018402767, 0.0, 0.012207031, 0.011881305 
6.1035156e-3, 1.4796177e+1, -0.00010913329, -27781.027, -10.714253, 0.0, 0.00078652625, 0.004023011, 0.004023011, 0.0, 0.012207031, 0.011881377 
6.1035156e-3, 1.4808057e+1, -0.0000013913127, -27767.176, 1.0846533, 0.0, 0.0007805217, 0.000040977873, 0.000040977873, 0.0, 0.012207031, 0.011881533 
6.1035156e-3, 1.481994e+1, -0.00000005808313, -27761.578, 0.0904431, 0.0, 0.00081440946, 0.00000023656685, 0.00000023656685, 0.0, 0.012207031, 0.011881596 
6.1035156e-3, 1.4831822e+1, -0.00000012219404, -27747.791, -0.28691182, 0.0, 0.0007729806, 0.0000028444701, 0.0000028444701, 0.0, 0.012207031, 0.011881751 
6.1035156e-3, 1.4843704e+1, -0.00000017447634, -27743.477, 0.41547182, 0.0, 0.0007579652, 0.0000060474085, 0.0000060474085, 0.0, 0.012207031, 0.011881799 
6.1035156e-3, 1.4855585e+1, -0.000000018670415, -27727.256, -0.12582041, 0.0, 0.00087092817, 0.0000005522779, 0.0000005522779, 0.0, 0.012207031, 0.011881983 
6.1035156e-3, 1.4867467e+1, -0.00000012231395, -27725.182, 0.35501432, 0.0, 0.0007857747, 0.0000044235603, 0.0000044235603, 0.0, 0.012207031, 0.011882006 
6.1035156e-3, 1.487935e+1, -0.00000016316542, -27707.15, -0.39404568, 0.0, 0.00074069604, 0.000005440874, 0.000005440874, 0.0, 0.012207031, 0.011882209 
6.1035156e-3, 1.4891231e+1, -0.0000006945115, -27705.295, -0.7691741, 0.0, 0.00080423936, 0.000020659849, 0.000020659849, 0.0, 0.012207031, 0.01188223 
6.1035156e-3, 1.4903113e+1, -0.000004905171, -27688.055, 1.8246664, 0.0, 0.0008294221, 0.0001153419, 0.0001153419, 0.0, 0.012207031, 0.011882424 
6.1035156e-3, 1.4914995e+1, -0.000000024333453, -27686.373, -0.1077014, 0.0, 0.0007832715, 0.00000039462975, 0.00000039462975, 0.0, 0.012207031, 0.011882443 
6.1035156e-3, 1.4926879e+1, -0.000012351482, -27677.795, 2.7713103, 0.0, 0.00079047814, 0.0002651331, 0.0002651331, 0.0, 0.012207031, 0.01188254 
6.1035156e-3, 1.4938761e+1, -0.0006770821, -27661.076, -26.608803, 0.0, 0.0008162683, 0.024919454, 0.024919454, 0.0, 0.012207031, 0.011882728 
6.1035156e-3, 1.4950645e+1, -0.000016733995, -27646.215, 4.6458087, 0.0, 0.00078488886, 0.000763971, 0.000763971, 0.0, 0.012207031, 0.011882896 
6.1035156e-3, 1.4962527e+1, -0.0000016880763, -27644.254, -1.2056215, 0.0, 0.0007959499, 0.0000508915, 0.0000508915, 0.0, 0.012207031, 0.011882917 
6.1035156e-3, 1.497441e+1, -0.00000017471804, -27631.955, 0.32923946, 0.0, 0.00082117977, 0.0000037482241, 0.0000037482241, 0.0, 0.012207031, 0.011883056 
6.1035156e-3, 1.4986293e+1, -0.000000060637575, -27622.418, 0.15583503, 0.0, 0.0008054053, 0.00000081852704, 0.00000081852704, 0.0, 0.012207031, 0.011883164 
6.1035156e-3, 1.4998177e+1, -0.00000003049783, -27615.158, -0.064803556, 0.0, 0.00080183585, 0.00000012157761, 0.00000012157761, 0.0, 0.012207031, 0.011883245 
6.1035156e-3, 1.5010059e+1, -0.0000000530061, -27603.006, 0.06626296, 0.0, 0.00079955603, 0.00000010606527, 0.00000010606527, 0.0, 0.012207031, 0.011883382 
6.1035156e-3, 1.5021943e+1, -0.00000007012788, -27595.035, -0.3140028, 0.0, 0.0008225925, 0.000003502897, 0.000003502897, 0.0, 0.012207031, 0.011883472 
6.1035156e-3, 1.5033826e+1, -0.00000032601127, -27583.107, -0.5483193, 0.0, 0.00081538095, 0.00001057392, 0.00001057392, 0.0, 0.012207031, 0.011883606 
6.1035156e-3, 1.504571e+1, -0.00000019233745, -27576.674, 0.43517455, 0.0, 0.00079194095, 0.000006674949, 0.000006674949, 0.0, 0.012207031, 0.011883679 
6.1035156e-3, 1.5057594e+1, -0.000000088899846, -27562.105, 0.27289957, 0.0, 0.0008558381, 0.0000026131493, 0.0000026131493, 0.0, 0.012207031, 0.011883843 
6.1035156e-3, 1.5069479e+1, -0.00000012236963, -27558.016, -0.2569004, 0.0, 0.00080375397, 0.0000022724998, 0.0000022724998, 0.0, 0.012207031, 0.011883889 
6.1035156e-3, 1.5081362e+1, -0.0000000597887, -27543.025, 0.25983948, 0.0, 0.0007670005, 0.0000023915236, 0.0000023915236, 0.0, 0.012207031, 0.011884058 
6.1035156e-3, 1.5093246e+1, -0.0000001028824, -27537.08, -0.25984025, 0.0, 0.0008555119, 0.0000023489738, 0.0000023489738, 0.0, 0.012207031, 0.011884125 
6.1035156e-3, 1.510513e+1, -0.0000004916953, -27523.768, -0.67027533, 0.0, 0.00086144556, 0.000015831254, 0.000015831254, 0.0, 0.012207031, 0.011884275 
6.1035156e-3, 1.5117015e+1, -0.00000008160421, -27519.33, -0.1494333, 0.0, 0.00077356823, 0.00000072983676, 0.00000072983676, 0.0, 0.012207031, 0.011884325 
6.1035156e-3, 1.5128899e+1, -0.000000097474135, -27503.113, 0.22392596, 0.0, 0.00082386046, 0.0000017257007, 0.0000017257007, 0.0, 0.012207031, 0.011884508 
6.1035156e-3, 1.5140784e+1, -0.000000058884314, -27499.477, -0.09183461, 0.0, 0.00084156333, 0.0000002477973, 0.0000002477973, 0.0, 0.012207031, 0.011884549 
6.1035156e-3, 1.5152667e+1, -0.000000040731486, -27484.25, -0.17941009, 0.0, 0.0008026554, 0.000001130411, 0.000001130411, 0.0, 0.012207031, 0.01188472 
6.1035156e-3, 1.5164553e+1, -0.00000006984183, -27480.854, -0.12012128, 0.0, 0.0008164451, 0.0000004552203, 0.0000004552203, 0.0, 0.012207031, 0.011884758 
6.1035156e-3, 1.5176438e+1, -0.0000046769933, -27463.037, -1.7921851, 0.0, 0.00086786767, 0.00011227757, 0.00011227757, 0.0, 0.012207031, 0.011884959 
6.1035156e-3, 1.5188323e+1, -0.00000004632469, -27461.246, 0.23050988, 0.0, 0.0008147926, 0.000001888573, 0.000001888573, 0.0, 0.012207031, 0.011884979 
6.1035156e-3, 1.5200208e+1, -0.00000002482417, -27443.361, 0.061881885, 0.0, 0.00077741046, 0.00000011471275, 0.00000011471275, 0.0, 0.012207031, 0.011885181 
6.1035156e-3, 1.5212093e+1, -0.00000019720723, -27441.035, 0.35278863, 0.0, 0.00083695236, 0.0000043383297, 0.0000043383297, 0.0, 0.012207031, 0.011885207 
6.1035156e-3, 1.5223978e+1, -0.00000007190964, -27424.855, -0.07094793, 0.0, 0.0008720095, 0.00000011163138, 0.00000011163138, 0.0, 0.012207031, 0.01188539 
6.1035156e-3, 1.5235864e+1, -0.000000083809034, -27422.738, -0.10243989, 0.0, 0.0007899997, 0.0000002988636, 0.0000002988636, 0.0, 0.012207031, 0.011885413 
6.1035156e-3, 1.5247749e+1, -0.0000000058222676, -27403.865, -0.010688513, 0.0, 0.000825807, -0.0000000016516424, -0.0000000016516424, 0.0, 0.012207031, 0.011885626 
6.1035156e-3, 1.5259635e+1, 0.000000022584372, -27402.729, 0.017670633, 0.0, 0.00085793313, 0.000000033978722, 0.000000033978722, 0.0, 0.012207031, 0.011885639 
6.1035156e-3, 1.527152e+1, -0.00000021997388, -27385.62, 0.42824018, 0.0, 0.0007708063, 0.000006476592, 0.000006476592, 0.0, 0.012207031, 0.011885832 
6.1035156e-3, 1.5283406e+1, 0.000000022881505, -27381.98, 0.011358692, 0.0, 0.00081370544, 0.000000027597707, 0.000000027597707, 0.0, 0.012207031, 0.011885873 
6.1035156e-3, 1.5295292e+1, -0.00000011943031, -27365.924, -0.34871864, 0.0, 0.00089923845, 0.0000043242253, 0.0000043242253, 0.0, 0.012207031, 0.011886054 
6.1035156e-3, 1.5307179e+1, -0.00000009253589, -27363.97, 0.22771436, 0.0, 0.00078035775, 0.000001802433, 0.000001802433, 0.0, 0.012207031, 0.011886076 
6.1035156e-3, 1.5319066e+1, -0.0000000060477223, -27345.826, -0.048067775, 0.0, 0.00081717107, 0.00000007844574, 0.00000007844574, 0.0, 0.012207031, 0.01188628 
6.1035156e-3, 1.5330951e+1, -0.00000008758561, -27343.604, -0.23145483, 0.0, 0.0008978157, 0.0000018716055, 0.0000018716055, 0.0, 0.012207031, 0.011886305 
6.1035156e-3, 1.5342838e+1, -0.0000029547837, -27327.63, -1.4196897, 0.0, 0.0007313299, 0.000070799084, 0.000070799084, 0.0, 0.012207031, 0.011886486 
6.1035156e-3, 1.5354724e+1, -0.000000027884827, -27322.918, -0.0004667847, 0.0, 0.00076822884, -0.000000027874194, -0.000000027874194, 0.0, 0.012207031, 0.011886539 
6.1035156e-3, 1.5366611e+1, -0.00000018813432, -27307.305, -0.4168753, 0.0, 0.0009774289, 0.000006175913, 0.000006175913, 0.0, 0.012207031, 0.011886715 
6.1035156e-3, 1.5378498e+1, -0.0000004285701, -27305.482, -0.5884886, 0.0, 0.00081829994, 0.000012254557, 0.000012254557, 0.0, 0.012207031, 0.011886735 
6.1035156e-3, 1.5390384e+1, -0.0000000838185, -27287.238, -0.06672691, 0.0, 0.00072193553, 0.000000079351594, 0.000000079351594, 0.0, 0.012207031, 0.011886941 
6.1035156e-3, 1.5402271e+1, -0.00000016690986, -27284.713, -0.40985954, 0.0, 0.0008862823, 0.0000059898302, 0.0000059898302, 0.0, 0.012207031, 0.011886969 
6.1035156e-3, 1.5414158e+1, -0.00000043073945, -27268.908, 0.61009544, 0.0, 0.00082838896, 0.000013219105, 0.000013219105, 0.0, 0.012207031, 0.011887148 
6.1035156e-3, 1.5426046e+1, -0.000000061297925, -27264.6, 0.19920883, 0.0, 0.00076314283, 0.0000013942226, 0.0000013942226, 0.0, 0.012207031, 0.011887196 
6.1035156e-3, 1.5437932e+1, -0.00000064636583, -27248.967, -0.740137, 0.0, 0.0009074998, 0.000019457246, 0.000019457246, 0.0, 0.012207031, 0.0118873725 
6.1035156e-3, 1.544982e+1, -0.00000003363981, -27245.75, 0.13284062, 0.0, 0.000830937, 0.00000061404353, 0.00000061404353, 0.0, 0.012207031, 0.011887409 
6.1035156e-3, 1.5461709e+1, -0.000000086904066, -27229.91, 0.2338931, 0.0, 0.00077095197, 0.000001922137, 0.000001922137, 0.0, 0.012207031, 0.011887588 
6.1035156e-3, 1.5473595e+1, -0.00000025932692, -27225.72, -0.44860685, 0.0, 0.00089402153, 0.000007132512, 0.000007132512, 0.0, 0.012207031, 0.011887635 
6.1035156e-3, 1.5485483e+1, -0.00000005833327, -27211.402, 0.18544541, 0.0, 0.0008182625, 0.0000012054734, 0.0000012054734, 0.0, 0.012207031, 0.011887796 
6.1035156e-3, 1.549737e+1, -0.0000028922534, -27205.451, -1.4624978, 0.0, 0.00073467084, 0.00007572801, 0.00007572801, 0.0, 0.012207031, 0.011887863 
6.1035156e-3, 1.550926e+1, -0.000011526983, -27192.092, -2.655669, 0.0, 0.00092383893, 0.00024783437, 0.00024783437, 0.0, 0.012207031, 0.011888014 
6.1035156e-3, 1.5521146e+1, -0.0000004152605, -27185.242, 0.6224103, 0.0, 0.00088254665, 0.000013834917, 0.000013834917, 0.0, 0.012207031, 0.011888091 
6.1035156e-3, 1.5533036e+1, -0.000000043688352, -27171.92, -0.11362856, 0.0, 0.0007608613, 0.00000043148975, 0.00000043148975, 0.0, 0.012207031, 0.011888241 
6.1035156e-3, 1.5544923e+1, -0.0000052052137, -27166.629, -1.9751716, 0.0, 0.00082949194, 0.00013840123, 0.00013840123, 0.0, 0.012207031, 0.011888301 
6.1035156e-3, 1.5556811e+1, -0.00000063547355, -27153.857, 0.76049936, 0.0, 0.00087214063, 0.000020663865, 0.000020663865, 0.0, 0.012207031, 0.011888445 
6.1035156e-3, 1.55687e+1, -0.0000005378242, -27146.031, 0.6754022, 0.0, 0.00082301203, 0.000016266407, 0.000016266407, 0.0, 0.012207031, 0.011888534 
6.1035156e-3, 1.5580589e+1, -0.0000006181175, -27132.87, -0.7291796, 0.0, 0.0008541733, 0.00001897815, 0.00001897815, 0.0, 0.012207031, 0.011888682 
6.1035156e-3, 1.5592478e+1, -0.000000115910574, -27127.969, -0.18399018, 0.0, 0.0008145118, 0.000001131968, 0.000001131968, 0.0, 0.012207031, 0.011888737 
6.1035156e-3, 1.5604366e+1, -0.0000001663437, -27113.438, 0.31697255, 0.0, 0.00085186, 0.0000035392586, 0.0000035392586, 0.0, 0.012207031, 0.011888901 
6.1035156e-3, 1.5616255e+1, -0.000000052763344, -27108.363, -0.1006281, 0.0, 0.0008572574, 0.00000032077514, 0.00000032077514, 0.0, 0.012207031, 0.0118889585 
6.1035156e-3, 1.5628144e+1, -0.00000008586673, -27094.268, 0.044676907, 0.0, 0.00082860014, -0.000000012198143, -0.000000012198143, 0.0, 0.012207031, 0.011889118 
6.1035156e-3, 1.5640034e+1, -0.00000029881147, -27087.629, -0.47320843, 0.0, 0.0008421709, 0.000007967923, 0.000007967923, 0.0, 0.012207031, 0.011889192 
6.1035156e-3, 1.5651922e+1, -0.000000074384964, -27075.95, 0.033382166, 0.0, 0.0008646105, -0.00000003322566, -0.00000003322566, 0.0, 0.012207031, 0.0118893245 
6.1035156e-3, 1.5663812e+1, -0.0000018322539, -27068.834, 1.2584014, 0.0, 0.00080718787, 0.000056669498, 0.000056669498, 0.0, 0.012207031, 0.011889405 
6.1035156e-3, 1.5675701e+1, -0.000017667959, -27054.219, -4.1513433, 0.0, 0.00085011334, 0.0006193362, 0.0006193362, 0.0, 0.012207031, 0.011889569 
6.1035156e-3, 1.5687591e+1, -0.00000014495606, -27050.834, 0.23966041, 0.0, 0.0008778092, 0.0000019783474, 0.0000019783474, 0.0, 0.012207031, 0.011889608 
6.1035156e-3, 1.569948e+1, -0.0000136811705, -27034.166, -2.863294, 0.0, 0.0008793765, 0.00028958145, 0.00028958145, 0.0, 0.012207031, 0.011889796 
6.1035156e-3, 1.571137e+1, -0.00000012289443, -27029.61, -0.25127953, 0.0, 0.00074643194, 0.0000022131135, 0.0000022131135, 0.0, 0.012207031, 0.011889847 
6.1035156e-3, 1.5723261e+1, -0.000000057249505, -27016.41, 0.015721606, 0.0, 0.0008244715, -0.000000048101356, -0.000000048101356, 0.0, 0.012207031, 0.011889996 
6.1035156e-3, 1.5735151e+1, -0.00000020747171, -27010.418, 0.38819697, 0.0, 0.0009925405, 0.0000053717413, 0.0000053717413, 0.0, 0.012207031, 0.011890063 
6.1035156e-3, 1.574704e+1, -0.00000022964443, -26995.605, -0.41793856, 0.0, 0.00085091416, 0.0000062407707, 0.0000062407707, 0.0, 0.012207031, 0.011890231 
6.1035156e-3, 1.5758932e+1, -0.00000018245107, -26991.537, 0.35102108, 0.0, 0.00069683907, 0.000004382524, 0.000004382524, 0.0, 0.012207031, 0.011890276 
6.1035156e-3, 1.5770821e+1, -0.000000036809645, -26975.916, 0.13964023, 0.0, 0.00089294236, 0.0000006860355, 0.0000006860355, 0.0, 0.012207031, 0.011890453 
6.1035156e-3, 1.5782712e+1, -0.00000017358653, -26972.873, -0.3442283, 0.0, 0.0009169979, 0.0000042194624, 0.0000042194624, 0.0, 0.012207031, 0.011890487 
6.1035156e-3, 1.5794602e+1, -0.000000054650283, -26955.473, 0.2184001, 0.0, 0.0008404141, 0.000001714885, 0.000001714885, 0.0, 0.012207031, 0.011890683 
6.1035156e-3, 1.5806493e+1, -0.000000043682164, -26953.484, -0.018979529, 0.0, 0.0008093061, -0.000000030315277, -0.000000030315277, 0.0, 0.012207031, 0.011890706 
6.1035156e-3, 1.5818384e+1, -0.000000015219742, -26936.365, 0.06531416, 0.0, 0.0008518741, 0.00000014315083, 0.00000014315083, 0.0, 0.012207031, 0.011890899 
6.1035156e-3, 1.5830274e+1, -0.000000039556586, -26933.66, -0.10467123, 0.0, 0.0008884378, 0.00000036722486, 0.00000036722486, 0.0, 0.012207031, 0.01189093 
6.1035156e-3, 1.5842167e+1, -0.000002308967, -26916.715, -1.3009427, 0.0, 0.00084196834, 0.000060568385, 0.000060568385, 0.0, 0.012207031, 0.011891121 
6.1035156e-3, 1.5854058e+1, -0.00000020348726, -26914.352, 0.36690223, 0.0, 0.0008388671, 0.000004798203, 0.000004798203, 0.0, 0.012207031, 0.011891148 
6.1035156e-3, 1.5865949e+1, -0.0000007434561, -26896.594, -0.76381475, 0.0, 0.00089706026, 0.000020947507, 0.000020947507, 0.0, 0.012207031, 0.011891348 
6.1035156e-3, 1.587784e+1, -0.00000082127895, -26896.398, 0.84962815, 0.0, 0.00081583275, 0.000026017555, 0.000026017555, 0.0, 0.012207031, 0.01189135 
6.1035156e-3, 1.5889731e+1, -0.0000020060854, -26875.861, -1.1118596, 0.0, 0.00084317976, 0.000043991757, 0.000043991757, 0.0, 0.012207031, 0.011891582 
6.1035156e-3, 1.5901622e+1, -0.0000006497957, -26874.674, -0.7873184, 0.0, 0.0008921769, 0.000022415425, 0.000022415425, 0.0, 0.012207031, 0.011891596 
6.1035156e-3, 1.5913515e+1, -0.00000017336461, -26858.79, 0.2155177, 0.0, 0.00087483996, 0.0000015559708, 0.0000015559708, 0.0, 0.012207031, 0.011891775 
6.1035156e-3, 1.5925406e+1, -0.000000055129796, -26854.299, -0.02822164, 0.0, 0.0008377992, -0.00000002546949, -0.00000002546949, 0.0, 0.012207031, 0.011891826 
6.1035156e-3, 1.5937299e+1, -0.0000005478214, -26840.053, 0.65986234, 0.0, 0.0008204168, 0.000015674887, 0.000015674887, 0.0, 0.012207031, 0.011891986 
6.1035156e-3, 1.594919e+1, -0.00000009741858, -26831.451, -0.124336734, 0.0, 0.00091148936, 0.000000478758, 0.000000478758, 0.0, 0.012207031, 0.011892083 
6.1035156e-3, 1.5961082e+1, -0.000010108631, -26823.402, -2.613727, 0.0, 0.0008766148, 0.0002445783, 0.0002445783, 0.0, 0.012207031, 0.011892174 
6.1035156e-3, 1.5972975e+1, -0.00000038992277, -26812.79, 0.56254876, 0.0, 0.0008321985, 0.0000114127, 0.0000114127, 0.0, 0.012207031, 0.0118922945 
6.1035156e-3, 1.5984868e+1, -0.000007832791, -26794.578, -2.2584763, 0.0, 0.0008642134, 0.00018253093, 0.00018253093, 0.0, 0.012207031, 0.0118925 
6.1035156e-3, 1.599676e+1, -0.000081636106, -26796.266, -9.2777, 0.0, 0.0008549163, 0.0031305915, 0.0031305915, 0.0, 0.012207031, 0.011892481 
6.1035156e-3, 1.6008651e+1, -0.000030450346, -26787.625, -5.7839584, 0.0, 0.00092748733, 0.0012184163, 0.0012184163, 0.0, 0.012207031, 0.011892579 
6.1035156e-3, 1.6020544e+1, -0.00000015840845, -26773.66, -0.23965141, 0.0, 0.00086016435, 0.0000019867148, 0.0000019867148, 0.0, 0.012207031, 0.011892736 
6.1035156e-3, 1.6032438e+1, -0.00000008036754, -26765.809, -0.13216944, 0.0, 0.0007562224, 0.0000005722868, 0.0000005722868, 0.0, 0.012207031, 0.011892824 
6.1035156e-3, 1.604433e+1, -0.00000038971902, -26754.297, -0.46042672, 0.0, 0.00094424497, 0.0000075339703, 0.0000075339703, 0.0, 0.012207031, 0.011892955 
6.1035156e-3, 1.6056223e+1, -0.0000047801436, -26745.693, -1.7227217, 0.0, 0.00092270627, 0.000106182386, 0.000106182386, 0.0, 0.012207031, 0.011893052 
6.1035156e-3, 1.6068117e+1, -0.0000000039686343, -26732.027, -0.18981437, 0.0, 0.00083125115, 0.0000013438366, 0.0000013438366, 0.0, 0.012207031, 0.011893206 
6.1035156e-3, 1.608001e+1, -0.0000019525955, -26727.182, -1.3104768, 0.0, 0.0008254468, 0.0000623022, 0.0000623022, 0.0, 0.012207031, 0.011893261 
6.1035156e-3, 1.6091904e+1, -0.00000068718043, -26715.14, 0.7448894, 0.0, 0.0008911277, 0.00002008232, 0.00002008232, 0.0, 0.012207031, 0.011893397 
6.1035156e-3, 1.6103797e+1, -0.000000063918485, -26705.44, 0.23694772, 0.0, 0.00091919565, 0.0000020384323, 0.0000020384323, 0.0, 0.012207031, 0.011893506 
6.1035156e-3, 1.6115691e+1, -0.000000064350985, -26694.236, -0.19676022, 0.0, 0.00085514627, 0.0000013859462, 0.0000013859462, 0.0, 0.012207031, 0.011893633 
6.1035156e-3, 1.6127585e+1, -0.0000006852106, -26688.531, 0.6658304, 0.0, 0.000827455, 0.000015926049, 0.000015926049, 0.0, 0.012207031, 0.011893697 
6.1035156e-3, 1.6139477e+1, -0.0000048051834, -26674.021, -1.7596855, 0.0, 0.0009106089, 0.00011128129, 0.00011128129, 0.0, 0.012207031, 0.011893861 
6.1035156e-3, 1.6151372e+1, -0.000000089993065, -26667.139, -0.13636532, 0.0, 0.0008635255, 0.0000006073242, 0.0000006073242, 0.0, 0.012207031, 0.011893939 
6.1035156e-3, 1.6163266e+1, -0.0000056917397, -26646.934, -1.9924368, 0.0, 0.00086972525, 0.00014328616, 0.00014328616, 0.0, 0.012207031, 0.011894167 
6.1035156e-3, 1.617516e+1, -0.00010473293, -26653.57, -10.473533, 0.0, 0.0008824559, 0.004010846, 0.004010846, 0.0, 0.012207031, 0.011894092 
6.1035156e-3, 1.6187054e+1, -0.000020069918, -26637.705, -4.705667, 0.0, 0.0008854908, 0.00081120664, 0.00081120664, 0.0, 0.012207031, 0.011894272 
6.1035156e-3, 1.6198948e+1, -0.0000015304552, -26631.713, 1.128881, 0.0, 0.00084246974, 0.000046321227, 0.000046321227, 0.0, 0.012207031, 0.01189434 
6.1035156e-3, 1.6210842e+1, -0.00000027283096, -26613.24, -0.47806698, 0.0, 0.000889521, 0.000008314924, 0.000008314924, 0.0, 0.012207031, 0.011894548 
6.1035156e-3, 1.6222736e+1, -0.0000011925686, -26613.105, -1.0078933, 0.0, 0.00087943126, 0.000036978436, 0.000036978436, 0.0, 0.012207031, 0.011894549 
6.1035156e-3, 1.6234632e+1, -0.00000009384597, -26593.559, -0.03591328, 0.0, 0.00086459384, -0.000000045343768, -0.000000045343768, 0.0, 0.012207031, 0.01189477 
6.1035156e-3, 1.6246527e+1, -0.00000028636768, -26593.684, 0.52816784, 0.0, 0.00088362047, 0.000010203392, 0.000010203392, 0.0, 0.012207031, 0.011894769 
6.1035156e-3, 1.6258422e+1, -0.00000020237808, -26572.734, 0.3226175, 0.0, 0.0008850731, 0.0000037144964, 0.0000037144964, 0.0, 0.012207031, 0.011895006 
6.1035156e-3, 1.6270317e+1, -0.0000007411307, -26573.76, -0.78660864, 0.0, 0.00085078774, 0.000022543238, 0.000022543238, 0.0, 0.012207031, 0.011894994 
6.1035156e-3, 1.6282211e+1, -0.00000012549388, -26554.979, -0.28455642, 0.0, 0.00089763204, 0.0000029237417, 0.0000029237417, 0.0, 0.012207031, 0.011895206 
6.1035156e-3, 1.6294107e+1, -0.000000674818, -26553.654, 0.775721, 0.0, 0.0008703189, 0.000021986587, 0.000021986587, 0.0, 0.012207031, 0.011895221 
6.1035156e-3, 1.6306001e+1, -0.00000013143675, -26534.594, -0.19100189, 0.0, 0.0008419913, 0.0000012434393, 0.0000012434393, 0.0, 0.012207031, 0.011895437 
6.1035156e-3, 1.6317898e+1, -0.00000015694577, -26534.736, -0.2886708, 0.0, 0.0009125408, 0.0000029834955, 0.0000029834955, 0.0, 0.012207031, 0.011895435 
6.1035156e-3, 1.6329794e+1, -0.0000003943194, -26515.084, 0.5374375, 0.0, 0.0009529218, 0.000010499065, 0.000010499065, 0.0, 0.012207031, 0.011895657 
6.1035156e-3, 1.6341688e+1, -0.000000032813443, -26515.45, 0.13179536, 0.0, 0.0007824422, 0.0000006222763, 0.0000006222763, 0.0, 0.012207031, 0.011895653 
6.1035156e-3, 1.6353585e+1, -0.000037943228, -26496.69, -6.1234922, 0.0, 0.0008023463, 0.0013772206, 0.0013772206, 0.0, 0.012207031, 0.011895865 
6.1035156e-3, 1.636548e+1, -0.000006513948, -26494.654, -2.0069706, 0.0, 0.0010063255, 0.00014551412, 0.00014551412, 0.0, 0.012207031, 0.011895888 
6.1035156e-3, 1.6377376e+1, -0.0000015310933, -26475.465, 1.1345636, 0.0, 0.0009571425, 0.000047088804, 0.000047088804, 0.0, 0.012207031, 0.011896105 
6.1035156e-3, 1.6389273e+1, -0.00000050624067, -26474.287, -0.72003883, 0.0, 0.00075353845, 0.000019077135, 0.000019077135, 0.0, 0.012207031, 0.011896118 
6.1035156e-3, 1.6401169e+1, -0.0000009644281, -26458.768, -0.94632, 0.0, 0.00083227846, 0.0000328815, 0.0000328815, 0.0, 0.012207031, 0.011896294 
6.1035156e-3, 1.6413064e+1, -0.0000021835383, -26455.754, -1.1564049, 0.0, 0.0009859869, 0.000048363967, 0.000048363967, 0.0, 0.012207031, 0.011896327 
6.1035156e-3, 1.6424961e+1, -0.00000038257338, -26437.059, 0.53489816, 0.0, 0.0009231163, 0.000010439966, 0.000010439966, 0.0, 0.012207031, 0.011896539 
6.1035156e-3, 1.6436857e+1, -0.00000067200517, -26434.928, -0.7579053, 0.0, 0.00081843726, 0.0000210576, 0.0000210576, 0.0, 0.012207031, 0.011896563 
6.1035156e-3, 1.6448756e+1, -0.00000009631203, -26419.277, 0.10160901, 0.0, 0.00087820424, 0.00000029447983, 0.00000029447983, 0.0, 0.012207031, 0.01189674 
6.1035156e-3, 1.6460651e+1, -0.00000006900469, -26415.64, 0.06320957, 0.0, 0.0009334145, 0.000000082247425, 0.000000082247425, 0.0, 0.012207031, 0.011896781 
6.1035156e-3, 1.6472548e+1, -0.0000000707403, -26399.338, -0.20800486, 0.0, 0.0008695448, 0.0000015681653, 0.0000015681653, 0.0, 0.012207031, 0.011896965 
6.1035156e-3, 1.6484445e+1, -0.00000008269708, -26396.508, 0.207559, 0.0, 0.0008718508, 0.0000015493642, 0.0000015493642, 0.0, 0.012207031, 0.011896997 
6.1035156e-3, 1.6496342e+1, -0.000000054505122, -26380.164, -0.011881459, 0.0, 0.00097030954, -0.00000004915273, -0.00000004915273, 0.0, 0.012207031, 0.011897182 
6.1035156e-3, 1.650824e+1, -0.00000016179413, -26375.135, -0.2959975, 0.0, 0.0008871689, 0.0000031600648, 0.0000031600648, 0.0, 0.012207031, 0.011897239 
6.1035156e-3, 1.6520138e+1, -0.00000008590458, -26361.396, -0.24233153, 0.0, 0.0007711205, 0.000002141769, 0.000002141769, 0.0, 0.012207031, 0.011897394 
6.1035156e-3, 1.6532034e+1, -0.00000012364379, -26356.049, -0.26479393, 0.0, 0.0009370167, 0.0000025366862, 0.0000025366862, 0.0, 0.012207031, 0.011897455 
6.1035156e-3, 1.6543932e+1, -0.00000031316696, -26342.783, -0.39259988, 0.0, 0.0010434415, 0.0000055379496, 0.0000055379496, 0.0, 0.012207031, 0.011897605 
6.1035156e-3, 1.655583e+1, -0.00000014676797, -26335.213, -0.23300655, 0.0, 0.0008323501, 0.0000019148101, 0.0000019148101, 0.0, 0.012207031, 0.01189769 
6.1035156e-3, 1.6567728e+1, -0.00000007394656, -26323.457, 0.10162271, 0.0, 0.0007832198, 0.00000031837408, 0.00000031837408, 0.0, 0.012207031, 0.011897823 
6.1035156e-3, 1.6579627e+1, -0.00000026604351, -26315.064, -0.43857273, 0.0, 0.00096901745, 0.000007043309, 0.000007043309, 0.0, 0.012207031, 0.011897918 
6.1035156e-3, 1.6591524e+1, -0.0000010085591, -26304.71, -0.94786215, 0.0, 0.00095681194, 0.00003314664, 0.00003314664, 0.0, 0.012207031, 0.011898035 
6.1035156e-3, 1.6603422e+1, -0.00000008574084, -26296.91, 0.09422007, 0.0, 0.0008384226, 0.00000025184272, 0.00000025184272, 0.0, 0.012207031, 0.011898123 
6.1035156e-3, 1.661532e+1, -0.000001262491, -26285.387, 1.031459, 0.0, 0.0009256357, 0.00003921276, 0.00003921276, 0.0, 0.012207031, 0.011898253 
6.1035156e-3, 1.6627218e+1, -0.00000013260156, -26274.66, -0.18567964, 0.0, 0.0009431504, 0.0000011795746, 0.0000011795746, 0.0, 0.012207031, 0.011898375 
6.1035156e-3, 1.6639116e+1, -0.0000014360462, -26265.135, -1.1425679, 0.0, 0.0008082412, 0.00004826716, 0.00004826716, 0.0, 0.012207031, 0.011898482 
6.1035156e-3, 1.6651015e+1, -0.00000018819196, -26259.35, 0.30826846, 0.0, 0.0008721961, 0.0000034306868, 0.0000034306868, 0.0, 0.012207031, 0.011898548 
6.1035156e-3, 1.6662914e+1, -0.0000010401969, -26245.125, 0.95324206, 0.0, 0.0010450085, 0.00003358225, 0.00003358225, 0.0, 0.012207031, 0.0118987085 
6.1035156e-3, 1.6674812e+1, -0.00000020255142, -26235.799, -0.27336276, 0.0, 0.0009155592, 0.0000026457383, 0.0000026457383, 0.0, 0.012207031, 0.011898814 
6.1035156e-3, 1.668671e+1, -0.00000021449459, -26226.031, -0.37491754, 0.0, 0.00073567627, 0.000005145186, 0.000005145186, 0.0, 0.012207031, 0.011898925 
6.1035156e-3, 1.6698611e+1, -0.000021269529, -26219.645, -4.988314, 0.0, 0.0008865606, 0.00092776236, 0.00092776236, 0.0, 0.012207031, 0.011898997 
6.1035156e-3, 1.6710508e+1, -0.00000027876376, -26204.729, -0.35444134, 0.0, 0.0010663302, 0.000004515361, 0.000004515361, 0.0, 0.012207031, 0.011899166 
6.1035156e-3, 1.6722408e+1, -0.00000013763278, -26200.152, 0.08720449, 0.0, 0.00091510004, 0.00000015261685, 0.00000015261685, 0.0, 0.012207031, 0.011899217 
6.1035156e-3, 1.6734308e+1, -0.00000009140127, -26184.826, 0.07400663, 0.0, 0.0007470278, 0.00000011776501, 0.00000011776501, 0.0, 0.012207031, 0.011899391 
6.1035156e-3, 1.6746207e+1, -0.000047006964, -26180.717, -7.087608, 0.0, 0.0008574354, 0.0018717402, 0.0018717402, 0.0, 0.012207031, 0.011899437 
6.1035156e-3, 1.6758107e+1, -0.00000019760787, -26165.17, -0.26670572, 0.0, 0.0010663487, 0.0000025209629, 0.0000025209629, 0.0, 0.012207031, 0.011899613 
6.1035156e-3, 1.6770007e+1, -0.000000014603235, -26162.168, 0.1193699, 0.0, 0.0009301372, 0.00000053004624, 0.00000053004624, 0.0, 0.012207031, 0.011899647 
6.1035156e-3, 1.6781907e+1, -0.000000130557, -26144.861, -0.06748194, 0.0, 0.0007509512, 0.000000043619366, 0.000000043619366, 0.0, 0.012207031, 0.011899843 
6.1035156e-3, 1.6793805e+1, -0.000000108748075, -26142.512, -0.22706352, 0.0, 0.00087693654, 0.0000018634382, 0.0000018634382, 0.0, 0.012207031, 0.011899869 
6.1035156e-3, 1.6805705e+1, -0.00000029561124, -26127.344, 0.40164092, 0.0, 0.0010102186, 0.000005878588, 0.000005878588, 0.0, 0.012207031, 0.011900041 
6.1035156e-3, 1.6817605e+1, -0.00000035920223, -26120.95, 0.51164424, 0.0, 0.0009364434, 0.000009662632, 0.000009662632, 0.0, 0.012207031, 0.011900113 
6.1035156e-3, 1.6829506e+1, -0.0000008225904, -26105.36, -0.85504633, 0.0, 0.00082671916, 0.000027183316, 0.000027183316, 0.0, 0.012207031, 0.01190029 
6.1035156e-3, 1.6841406e+1, -0.00000021862613, -26104.5, -0.2497285, 0.0, 0.00079436996, 0.0000021704036, 0.0000021704036, 0.0, 0.012207031, 0.011900299 
6.1035156e-3, 1.6853306e+1, -0.0000007309254, -26087.025, 0.7465779, 0.0, 0.0010269317, 0.000020635194, 0.000020635194, 0.0, 0.012207031, 0.011900497 
6.1035156e-3, 1.6865207e+1, -0.0000006549694, -26082.816, -0.6460702, 0.0, 0.0010406184, 0.00001534816, 0.00001534816, 0.0, 0.012207031, 0.011900545 
6.1035156e-3, 1.6877107e+1, -0.00000012452062, -26068.547, 0.06862678, 0.0, 0.00072947587, 0.000000056144927, 0.000000056144927, 0.0, 0.012207031, 0.011900706 
6.1035156e-3, 1.6889009e+1, -0.0000007153644, -26062.633, 0.7251703, 0.0, 0.0008151565, 0.000019461873, 0.000019461873, 0.0, 0.012207031, 0.011900773 
6.1035156e-3, 1.6900909e+1, -0.0000005741425, -26046.963, -0.67392576, 0.0, 0.0010643096, 0.000016862665, 0.000016862665, 0.0, 0.012207031, 0.01190095 
6.1035156e-3, 1.6912812e+1, -0.00000048968974, -26045.547, -0.52167046, 0.0, 0.0009324707, 0.000009958931, 0.000009958931, 0.0, 0.012207031, 0.011900966 
6.1035156e-3, 1.692471e+1, -0.00000039693163, -26030.457, 0.42778775, 0.0, 0.0008547452, 0.000006633385, 0.000006633385, 0.0, 0.012207031, 0.011901137 
6.1035156e-3, 1.6936614e+1, -0.0000005411585, -26023.938, 0.61463505, 0.0, 0.0008600397, 0.000013975332, 0.000013975332, 0.0, 0.012207031, 0.011901211 
6.1035156e-3, 1.6948515e+1, -0.00000046818187, -26007.576, -0.5518458, 0.0, 0.0009267164, 0.000011241245, 0.000011241245, 0.0, 0.012207031, 0.011901396 
6.1035156e-3, 1.6960415e+1, -0.0000035955973, -26005.646, -1.687355, 0.0, 0.0010576105, 0.000105887055, 0.000105887055, 0.0, 0.012207031, 0.011901418 
6.1035156e-3, 1.6972317e+1, -0.0000018513178, -25994.678, 1.1887861, 0.0, 0.00087053387, 0.000052514137, 0.000052514137, 0.0, 0.012207031, 0.011901542 
6.1035156e-3, 1.6984218e+1, -0.0000030052695, -25981.71, 1.5771018, 0.0, 0.0007259562, 0.00009272553, 0.00009272553, 0.0, 0.012207031, 0.011901689 
6.1035156e-3, 1.699612e+1, -0.0000025502145, -25970.844, -1.3888798, 0.0, 0.0010077229, 0.00007172488, 0.00007172488, 0.0, 0.012207031, 0.011901812 
6.1035156e-3, 1.7008023e+1, -0.000000551036, -25965.582, -0.45931256, 0.0, 0.0011217361, 0.0000075738753, 0.0000075738753, 0.0, 0.012207031, 0.011901871 
6.1035156e-3, 1.7019925e+1, -0.00000025410705, -25953.596, -0.036572676, 0.0, 0.0008301485, -0.00000020256994, -0.00000020256994, 0.0, 0.012207031, 0.011902007 
6.1035156e-3, 1.7031826e+1, -0.00000044924036, -25941.818, -0.32529303, 0.0, 0.00075041834, 0.000003629717, 0.000003629717, 0.0, 0.012207031, 0.01190214 
6.1035156e-3, 1.7043728e+1, -0.0000012276845, -25933.33, -0.92449105, 0.0, 0.0010288132, 0.000031729272, 0.000031729272, 0.0, 0.012207031, 0.011902236 
6.1035156e-3, 1.7055632e+1, -0.00004056279, -25922.398, -6.3951693, 0.0, 0.0010260487, 0.0015371534, 0.0015371534, 0.0, 0.012207031, 0.01190236 
6.1035156e-3, 1.7067534e+1, -0.0000073857655, -25919.057, -3.4772894, 0.0, 0.000809107, 0.00045912588, 0.00045912588, 0.0, 0.012207031, 0.0119023975 
6.1035156e-3, 1.7079435e+1, -0.0000005813795, -25903.004, 0.5972633, 0.0, 0.0009965609, 0.000013190129, 0.000013190129, 0.0, 0.012207031, 0.01190258 
6.1035156e-3, 1.7091337e+1, -0.0000002672629, -25897.258, -0.22694872, 0.0, 0.0010058387, 0.0000017215862, 0.0000017215862, 0.0, 0.012207031, 0.011902644 
6.1035156e-3, 1.7103241e+1, -0.0000013956023, -25881.875, -1.0642185, 0.0, 0.00072665623, 0.000042363255, 0.000042363255, 0.0, 0.012207031, 0.011902818 
6.1035156e-3, 1.7115143e+1, -0.00000031640195, -25880.232, 0.28561077, 0.0, 0.0009458621, 0.0000028355607, 0.0000028355607, 0.0, 0.012207031, 0.011902837 
6.1035156e-3, 1.7127046e+1, -0.0000010666429, -25862.307, 0.89362115, 0.0, 0.0011360354, 0.000029810675, 0.000029810675, 0.0, 0.012207031, 0.01190304 
6.1035156e-3, 1.713895e+1, -0.00000025513623, -25857.648, -0.06935537, 0.0, 0.00081532815, -0.00000006911068, -0.00000006911068, 0.0, 0.012207031, 0.011903093 
6.1035156e-3, 1.7150852e+1, -0.000001163202, -25842.018, -0.9772464, 0.0, 0.0009017368, 0.00003579252, 0.00003579252, 0.0, 0.012207031, 0.01190327 
6.1035156e-3, 1.7162757e+1, -0.0000004719317, -25842.178, 0.4827238, 0.0, 0.001039296, 0.0000085451975, 0.0000085451975, 0.0, 0.012207031, 0.011903268 
6.1035156e-3, 1.717466e+1, -0.00000023756736, -25819.9, 0.22208273, 0.0, 0.00080299017, 0.0000016726153, 0.0000016726153, 0.0, 0.012207031, 0.011903521 
6.1035156e-3, 1.7186564e+1, -0.00000091346897, -25822.629, -0.75816846, 0.0, 0.0008524733, 0.00002134683, 0.00002134683, 0.0, 0.012207031, 0.01190349 
6.1035156e-3, 1.7198467e+1, -0.0000030967901, -25802.588, 1.5698504, 0.0, 0.0011390437, 0.00009241418, 0.00009241418, 0.0, 0.012207031, 0.011903716 
6.1035156e-3, 1.721037e+1, -0.00000071908687, -25801.46, 0.6751304, 0.0, 0.0009936772, 0.000016946622, 0.000016946622, 0.0, 0.012207031, 0.011903729 
6.1035156e-3, 1.7222275e+1, -0.00000032519358, -25783.746, -0.21647117, 0.0, 0.0006997974, 0.0000014922189, 0.0000014922189, 0.0, 0.012207031, 0.0119039295 
6.1035156e-3, 1.7234178e+1, -0.0001399354, -25785.338, -12.069732, 0.0, 0.0007845497, 0.005509725, 0.005509725, 0.0, 0.012207031, 0.011903912 
6.1035156e-3, 1.7246082e+1, -0.000008624758, -25756.926, 3.3224974, 0.0, 0.0012512519, 0.00041995855, 0.00041995855, 0.0, 0.012207031, 0.011904233 
6.1035156e-3, 1.7257985e+1, -0.000004693256, -25765.2, -1.7088271, 0.0, 0.0011050013, 0.0001086414, 0.0001086414, 0.0, 0.012207031, 0.01190414 
6.1035156e-3, 1.726989e+1, -0.0000032017124, -25743.648, 1.5753968, 0.0, 0.00051107793, 0.00009320557, 0.00009320557, 0.0, 0.012207031, 0.011904384 
6.1035156e-3, 1.7281796e+1, -0.0000021293747, -25741.855, -1.0709276, 0.0, 0.0008030896, 0.00004242398, 0.00004242398, 0.0, 0.012207031, 0.0119044045 
6.1035156e-3, 1.7293699e+1, -0.0000025085376, -25720.879, -1.4313277, 0.0, 0.001319831, 0.00007714267, 0.00007714267, 0.0, 0.012207031, 0.011904642 
6.1035156e-3, 1.7305605e+1, -0.000001058678, -25728.555, -0.869558, 0.0, 0.00092469086, 0.000028330112, 0.000028330112, 0.0, 0.012207031, 0.011904554 
6.1035156e-3, 1.7317508e+1, -0.0000013691903, -25700.742, 1.0115628, 0.0, 0.0007098597, 0.0000384452, 0.0000384452, 0.0, 0.012207031, 0.01190487 
6.1035156e-3, 1.7329414e+1, -0.00000070368725, -25706.02, 0.68290323, 0.0, 0.0009842895, 0.000017438244, 0.000017438244, 0.0, 0.012207031, 0.01190481 
6.1035156e-3, 1.7341319e+1, -0.0000003693367, -25682.94, -0.4588048, 0.0, 0.0009792213, 0.000007826839, 0.000007826839, 0.0, 0.012207031, 0.011905071 
6.1035156e-3, 1.7353223e+1, -0.00000083938266, -25686.783, -0.77214193, 0.0, 0.0008709185, 0.000022371121, 0.000022371121, 0.0, 0.012207031, 0.011905028 
6.1035156e-3, 1.736513e+1, -0.0000014670186, -25663.385, 1.03629, 0.0, 0.0009827003, 0.00004037848, 0.00004037848, 0.0, 0.012207031, 0.011905293 
6.1035156e-3, 1.7377035e+1, -0.0000008391148, -25667.916, 0.68991965, 0.0, 0.00088830624, 0.000017705013, 0.000017705013, 0.0, 0.012207031, 0.011905242 
6.1035156e-3, 1.7388938e+1, -0.0000009728653, -25648.191, 0.73587245, 0.0, 0.0008920131, 0.000020140054, 0.000020140054, 0.0, 0.012207031, 0.011905465 
6.1035156e-3, 1.7400844e+1, -0.0006350769, -25645.006, -25.730778, 0.0, 0.0011092437, 0.025181737, 0.025181737, 0.0, 0.012207031, 0.011905502 
6.1035156e-3, 1.741275e+1, -0.000009211216, -25625.521, 2.3613222, 0.0, 0.0008738904, 0.00020837822, 0.00020837822, 0.0, 0.012207031, 0.011905722 
6.1035156e-3, 1.7424656e+1, -0.0000003169654, -25625.33, 0.275756, 0.0, 0.00067346514, 0.000002650464, 0.000002650464, 0.0, 0.012207031, 0.011905724 
6.1035156e-3, 1.7436561e+1, -0.00000067523234, -25607.682, -0.66623574, 0.0, 0.0010955103, 0.000016658243, 0.000016658243, 0.0, 0.012207031, 0.011905924 
6.1035156e-3, 1.7448469e+1, -0.00000040221698, -25606.457, -0.44974744, 0.0, 0.001180469, 0.0000074970703, 0.0000074970703, 0.0, 0.012207031, 0.011905937 
6.1035156e-3, 1.7460375e+1, -0.000007324043, -25588.338, -2.2128026, 0.0, 0.0007518505, 0.00018403248, 0.00018403248, 0.0, 0.012207031, 0.011906143 
6.1035156e-3, 1.747228e+1, -0.0000003938104, -25585.623, 0.393242, 0.0, 0.00080244674, 0.0000056501813, 0.0000056501813, 0.0, 0.012207031, 0.011906174 
6.1035156e-3, 1.7484187e+1, -0.000000107889456, -25570.807, 0.061057832, 0.0, 0.0010815854, 0.0000000379041, 0.0000000379041, 0.0, 0.012207031, 0.011906342 
6.1035156e-3, 1.7496094e+1, -0.00000025630771, -25565.44, -0.14096698, 0.0, 0.0009815999, 0.0000005209804, 0.0000005209804, 0.0, 0.012207031, 0.011906402 
6.1035156e-3, 1.7508e+1, -0.00000014427462, -25549.854, -0.1304058, 0.0, 0.0009551154, 0.0000005213151, 0.0000005213151, 0.0, 0.012207031, 0.011906579 
6.1035156e-3, 1.7519908e+1, -0.00000018051206, -25545.707, -0.10283481, 0.0, 0.0008234316, 0.0000002334491, 0.0000002334491, 0.0, 0.012207031, 0.011906627 
6.1035156e-3, 1.7531812e+1, -0.0000002384428, -25532.928, 0.19120604, 0.0, 0.00082777144, 0.0000011934244, 0.0000011934244, 0.0, 0.012207031, 0.011906771 
6.1035156e-3, 1.754372e+1, -0.00000017735607, -25524.682, -0.00664528, 0.0, 0.0013937468, -0.00000017562343, -0.00000017562343, 0.0, 0.012207031, 0.011906864 
6.1035156e-3, 1.7555626e+1, -0.00000035346258, -25513.734, -0.30071265, 0.0, 0.0010101725, 0.0000031908312, 0.0000031908312, 0.0, 0.012207031, 0.011906989 
6.1035156e-3, 1.7567533e+1, -0.0000016770116, -25504.537, -1.1155101, 0.0, 0.0002637998, 0.00004711285, 0.00004711285, 0.0, 0.012207031, 0.011907092 
6.1035156e-3, 1.7579441e+1, -0.00000022972395, -25494.094, -0.19191681, 0.0, 0.0011061718, 0.0000012150049, 0.0000012150049, 0.0, 0.012207031, 0.0119072115 
6.1035156e-3, 1.7591348e+1, -0.0000004141444, -25486.055, 0.40179965, 0.0, 0.0015333698, 0.0000059204176, 0.0000059204176, 0.0, 0.012207031, 0.011907302 
6.1035156e-3, 1.7603256e+1, -0.0000007402787, -25474.143, 0.54975396, 0.0, 0.0007435907, 0.000011123888, 0.000011123888, 0.0, 0.012207031, 0.011907437 
6.1035156e-3, 1.7615163e+1, -0.000003377217, -25463.041, -1.6436746, 0.0, 0.000667471, 0.000102724254, 0.000102724254, 0.0, 0.012207031, 0.011907563 
6.1035156e-3, 1.7627071e+1, -0.000014790987, -25461.107, -3.9157429, 0.0, 0.0009905028, 0.0005874233, 0.0005874233, 0.0, 0.012207031, 0.011907585 
6.1035156e-3, 1.7638978e+1, -0.000012548973, -25442.158, 2.7820692, 0.0, 0.0012088765, 0.00029166695, 0.00029166695, 0.0, 0.012207031, 0.0119078 
6.1035156e-3, 1.7650886e+1, -0.0000046101136, -25435.719, -1.67529, 0.0, 0.0011216378, 0.00010573064, 0.00010573064, 0.0, 0.012207031, 0.011907873 
6.1035156e-3, 1.7662793e+1, -0.00000068692333, -25426.326, 0.5574217, 0.0, 0.00047211035, 0.000011533437, 0.000011533437, 0.0, 0.012207031, 0.011907979 
6.1035156e-3, 1.7674702e+1, -0.0000014522017, -25415.848, 1.008958, 0.0, 0.0008516892, 0.000038601396, 0.000038601396, 0.0, 0.012207031, 0.011908098 
6.1035156e-3, 1.7686611e+1, -0.000004116695, -25405.682, -1.6630462, 0.0, 0.0015246534, 0.00010474569, 0.00010474569, 0.0, 0.012207031, 0.011908214 
6.1035156e-3, 1.7698519e+1, -0.0000023671382, -25399.643, 1.270998, 0.0, 0.0009363897, 0.0000612336, 0.0000612336, 0.0, 0.012207031, 0.011908282 
6.1035156e-3, 1.7710426e+1, -0.0000006588238, -25382.6, -0.6181338, 0.0, 0.0005571285, 0.00001439438, 0.00001439438, 0.0, 0.012207031, 0.011908475 
6.1035156e-3, 1.7722335e+1, -0.0000006442718, -25382.658, -0.6518776, 0.0, 0.001002162, 0.000016097256, 0.000016097256, 0.0, 0.012207031, 0.011908474 
6.1035156e-3, 1.7734243e+1, -0.0000015793736, -25363.738, 1.0805975, 0.0, 0.0011687279, 0.000044458437, 0.000044458437, 0.0, 0.012207031, 0.011908689 
6.1035156e-3, 1.7746153e+1, -0.0000021627113, -25358.857, -1.1888001, 0.0, 0.000980405, 0.000053567146, 0.000053567146, 0.0, 0.012207031, 0.011908744 
6.1035156e-3, 1.7758062e+1, -0.000012888239, -25347.752, 2.8135977, 0.0, 0.00079925964, 0.0002994208, 0.0002994208, 0.0, 0.012207031, 0.01190887 
6.1035156e-3, 1.776997e+1, -0.0000012812292, -25342.672, 0.91086274, 0.0, 0.00093179184, 0.000031456868, 0.000031456868, 0.0, 0.012207031, 0.011908928 
6.1035156e-3, 1.7781879e+1, -0.000010647838, -25336.842, 3.117176, 0.0, 0.0010972051, 0.00037285642, 0.00037285642, 0.0, 0.012207031, 0.011908994 
6.1035156e-3, 1.779379e+1, -0.0022684974, -25317.813, -48.617325, 0.0, 0.00088854466, 0.09109012, 0.09109012, 0.0, 0.012207031, 0.011909209 
6.1035156e-3, 1.7805699e+1, -0.000103258644, -25298.268, 10.381461, 0.0, 0.0008991924, 0.0041569034, 0.0041569034, 0.0, 0.012207031, 0.011909431 
6.1035156e-3, 1.7817608e+1, -0.000013698611, -25299.746, -3.782225, 0.0, 0.001201954, 0.0005517309, 0.0005517309, 0.0, 0.012207031, 0.011909414 
6.1035156e-3, 1.7829518e+1, -0.000004425978, -25292.117, 1.8401773, 0.0, 0.00076947035, 0.00012945972, 0.00012945972, 0.0, 0.012207031, 0.011909501 
6.1035156e-3, 1.7841427e+1, -0.0000014970925, -25274.684, 0.9650993, 0.0, 0.00074894045, 0.00003535467, 0.00003535467, 0.0, 0.012207031, 0.011909698 
6.1035156e-3, 1.7853336e+1, -0.000009234471, -25266.367, -2.4567552, 0.0, 0.0012262423, 0.00022964616, 0.00022964616, 0.0, 0.012207031, 0.011909793 
6.1035156e-3, 1.7865247e+1, -0.0000028954341, -25265.398, -1.4622004, 0.0, 0.0010586508, 0.00008172741, 0.00008172741, 0.0, 0.012207031, 0.011909803 
6.1035156e-3, 1.7877156e+1, -0.0000039348906, -25248.615, 1.5830872, 0.0, 0.0008143122, 0.000095324605, 0.000095324605, 0.0, 0.012207031, 0.011909994 
6.1035156e-3, 1.7889066e+1, -0.0000009725258, -25240.906, -0.6982891, 0.0, 0.0008105127, 0.000018345625, 0.000018345625, 0.0, 0.012207031, 0.011910082 
6.1035156e-3, 1.7900977e+1, -0.0000005092893, -25230.615, 0.43412137, 0.0, 0.001052234, 0.0000069602647, 0.0000069602647, 0.0, 0.012207031, 0.011910198 
6.1035156e-3, 1.7912886e+1, -0.00000025840052, -25220.756, -0.020636236, 0.0, 0.0012293349, -0.00000024151814, -0.00000024151814, 0.0, 0.012207031, 0.01191031 
6.1035156e-3, 1.7924798e+1, -0.00000027531078, -25212.133, -0.12826265, 0.0, 0.00073956134, 0.00000037720383, 0.00000037720383, 0.0, 0.012207031, 0.011910408 
6.1035156e-3, 1.7936707e+1, -0.0000017346599, -25202.209, 1.0889136, 0.0, 0.00086117524, 0.000045314096, 0.000045314096, 0.0, 0.012207031, 0.0119105205 
6.1035156e-3, 1.7948619e+1, -0.000002517591, -25189.525, -1.3206946, 0.0, 0.0011618017, 0.00006672683, 0.00006672683, 0.0, 0.012207031, 0.011910664 
6.1035156e-3, 1.7960528e+1, -0.0000007063018, -25185.26, 0.6180709, 0.0, 0.0008377717, 0.0000144617625, 0.0000144617625, 0.0, 0.012207031, 0.011910712 
6.1035156e-3, 1.797244e+1, -0.00000023994141, -25168.44, -0.21460824, 0.0, 0.001010311, 0.0000015899932, 0.0000015899932, 0.0, 0.012207031, 0.011910903 
6.1035156e-3, 1.798435e+1, -0.000009180962, -25165.287, -2.4138482, 0.0, 0.0010185179, 0.00022235475, 0.00022235475, 0.0, 0.012207031, 0.01191094 
6.1035156e-3, 1.7996262e+1, -0.0000027989622, -25153.203, 1.3627379, 0.0, 0.0008456742, 0.00007103078, 0.00007103078, 0.0, 0.012207031, 0.0119110765 
6.1035156e-3, 1.8008173e+1, -0.0000004554865, -25141.492, 0.07091958, 0.0, 0.00115041, -0.0000002554334, -0.0000002554334, 0.0, 0.012207031, 0.011911209 
6.1035156e-3, 1.8020085e+1, -0.00000026356247, -25134.78, -0.085871145, 0.0, 0.00091723003, 0.0000000298096, 0.0000000298096, 0.0, 0.012207031, 0.011911285 
6.1035156e-3, 1.8031994e+1, -0.0000006912617, -25121.16, -0.41179723, 0.0, 0.00085860427, 0.0000060590974, 0.0000060590974, 0.0, 0.012207031, 0.01191144 
6.1035156e-3, 1.8043907e+1, -0.0000034387604, -25116.674, -1.4990563, 0.0, 0.0010763756, 0.000086030486, 0.000086030486, 0.0, 0.012207031, 0.011911491 
6.1035156e-3, 1.8055819e+1, -0.00001569129, -25105.83, 3.8376758, 0.0, 0.00093785045, 0.00057093555, 0.00057093555, 0.0, 0.012207031, 0.011911614 
6.1035156e-3, 1.806773e+1, -0.000002165709, -25086.26, -1.0718266, 0.0, 0.0010737174, 0.00004362877, 0.00004362877, 0.0, 0.012207031, 0.0119118355 
6.1035156e-3, 1.8079641e+1, -0.000011881297, -25088.861, -2.77066, 0.0, 0.00082814187, 0.00029409336, 0.00029409336, 0.0, 0.012207031, 0.011911807 
6.1035156e-3, 1.8091553e+1, -0.00000968129, -25076.771, 2.5997744, 0.0, 0.000862545, 0.0002598441, 0.0002598441, 0.0, 0.012207031, 0.011911944 
6.1035156e-3, 1.8103465e+1, -0.000010906267, -25063.443, -2.9390116, 0.0, 0.0013405174, 0.0003337307, 0.0003337307, 0.0, 0.012207031, 0.011912094 
6.1035156e-3, 1.8115377e+1, -0.0000009961402, -25051.281, 0.7487942, 0.0, 0.00096696045, 0.000021385655, 0.000021385655, 0.0, 0.012207031, 0.011912232 
6.1035156e-3, 1.812729e+1, -0.000027590255, -25031.182, -5.459575, 0.0, 0.0006378135, 0.0011632029, 0.0011632029, 0.0, 0.012207031, 0.01191246 
6.1035156e-3, 1.8139201e+1, -0.00033413304, -25043.463, -18.654964, 0.0, 0.0010630413, 0.01356201, 0.01356201, 0.0, 0.012207031, 0.011912322 
6.1035156e-3, 1.8151115e+1, -0.000033078984, -25033.709, -5.713875, 0.0, 0.0011820024, 0.0012710971, 0.0012710971, 0.0, 0.012207031, 0.011912432 
6.1035156e-3, 1.8163027e+1, -0.0000026450887, -25017.564, 1.3094198, 0.0, 0.0008629931, 0.00006588996, 0.00006588996, 0.0, 0.012207031, 0.011912615 
6.1035156e-3, 1.817494e+1, -0.000008826717, -25020.998, 3.3840802, 0.0, 0.0009504489, 0.00044886878, 0.00044886878, 0.0, 0.012207031, 0.011912576 
6.1035156e-3, 1.8186854e+1, -0.0017064657, -24990.393, -42.156395, 0.0, 0.0011840934, 0.06940713, 0.06940713, 0.0, 0.012207031, 0.011912923 
6.1035156e-3, 1.8198764e+1, -0.00006591739, -24979.023, 8.260094, 0.0, 0.00073423603, 0.0026655404, 0.0026655404, 0.0, 0.012207031, 0.011913053 
6.1035156e-3, 1.8210678e+1, -0.000010505162, -24977.686, -2.4844735, 0.0, 0.00083833875, 0.00023661977, 0.00023661977, 0.0, 0.012207031, 0.011913068 
6.1035156e-3, 1.8222591e+1, -0.00000019282366, -24968.158, 0.09584271, 0.0, 0.0013255748, 0.00000017507773, 0.00000017507773, 0.0, 0.012207031, 0.011913176 
6.1035156e-3, 1.8234505e+1, -0.000002493063, -24951.81, 1.3390893, 0.0, 0.0010740078, 0.00006937186, 0.00006937186, 0.0, 0.012207031, 0.011913361 
6.1035156e-3, 1.8246418e+1, -0.00000017357843, -24950.87, -0.09116111, 0.0, 0.0006405999, 0.00000015948899, 0.00000015948899, 0.0, 0.012207031, 0.011913372 
6.1035156e-3, 1.8258332e+1, -0.00000019793546, -24937.158, -0.031666096, 0.0, 0.0009927758, -0.00000015772457, -0.00000015772457, 0.0, 0.012207031, 0.011913528 
6.1035156e-3, 1.8270245e+1, -0.0000003269438, -24929.908, -0.35371387, 0.0, 0.0011899802, 0.000004691665, 0.000004691665, 0.0, 0.012207031, 0.01191361 
6.1035156e-3, 1.828216e+1, -0.00000022421743, -24915.953, -0.263059, 0.0, 0.00087711855, 0.0000025531226, 0.0000025531226, 0.0, 0.012207031, 0.011913769 
6.1035156e-3, 1.8294074e+1, -0.00000030618418, -24910.7, 0.3587402, 0.0, 0.0009643205, 0.0000048600523, 0.0000048600523, 0.0, 0.012207031, 0.011913829 
6.1035156e-3, 1.8305987e+1, -0.0000002831193, -24896.057, 0.31083158, 0.0, 0.0011295502, 0.0000035976664, 0.0000035976664, 0.0, 0.012207031, 0.011913994 
6.1035156e-3, 1.8317902e+1, -0.00000018643446, -24892.818, -0.23842128, 0.0, 0.00082679704, 0.000002097142, 0.000002097142, 0.0, 0.012207031, 0.011914031 
6.1035156e-3, 1.8329816e+1, -0.0000003478348, -24875.496, -0.26881617, 0.0, 0.0009850913, 0.000002557117, 0.000002557117, 0.0, 0.012207031, 0.011914228 
6.1035156e-3, 1.8341728e+1, -0.00000042387043, -24873.875, 0.47545183, 0.0, 0.0010782563, 0.000008664156, 0.000008664156, 0.0, 0.012207031, 0.011914246 
6.1035156e-3, 1.8353644e+1, -0.0000003057951, -24855.986, 0.31250593, 0.0, 0.0009062463, 0.0000036232377, 0.0000036232377, 0.0, 0.012207031, 0.011914449 
6.1035156e-3, 1.8365559e+1, -0.0000015138904, -24854.168, -1.0009886, 0.0, 0.0010221777, 0.0000388004, 0.0000388004, 0.0, 0.012207031, 0.01191447 
6.1035156e-3, 1.8377472e+1, -0.00000035904662, -24835.654, 0.4292421, 0.0, 0.0010343802, 0.000007059676, 0.000007059676, 0.0, 0.012207031, 0.01191468 
6.1035156e-3, 1.8389387e+1, -0.00000066754643, -24834.178, 0.49908042, 0.0, 0.0009163915, 0.000009362233, 0.000009362233, 0.0, 0.012207031, 0.011914697 
6.1035156e-3, 1.8401302e+1, -0.0000025792253, -24816.531, -1.4000989, 0.0, 0.0010495541, 0.00007641155, 0.00007641155, 0.0, 0.012207031, 0.011914897 
6.1035156e-3, 1.8413217e+1, -0.0000028622705, -24819.03, 1.45092, 0.0, 0.00095736946, 0.00008195848, 0.00008195848, 0.0, 0.012207031, 0.011914869 
6.1035156e-3, 1.8425132e+1, -0.00001143283, -24793.736, -2.903018, 0.0, 0.0010101434, 0.00032847212, 0.00032847212, 0.0, 0.012207031, 0.011915156 
6.1035156e-3, 1.8437047e+1, -0.0000005271234, -24796.254, -0.501118, 0.0, 0.0010490061, 0.000009600179, 0.000009600179, 0.0, 0.012207031, 0.011915128 
6.1035156e-3, 1.8448964e+1, -0.0000010529869, -24777.346, 0.8296318, 0.0, 0.00085776177, 0.000026725975, 0.000026725975, 0.0, 0.012207031, 0.011915342 
6.1035156e-3, 1.8460879e+1, -0.00000026579733, -24773.596, -0.08717306, 0.0, 0.0010148544, 0.00000004094545, 0.00000004094545, 0.0, 0.012207031, 0.011915385 
6.1035156e-3, 1.8472794e+1, -0.0000025638362, -24759.191, -1.3981068, 0.0, 0.0011991818, 0.000076384735, 0.000076384735, 0.0, 0.012207031, 0.011915549 
6.1035156e-3, 1.8484709e+1, -0.00000091248785, -24758.094, 0.79726374, 0.0, 0.0009114657, 0.000024761113, 0.000024761113, 0.0, 0.012207031, 0.011915561 
6.1035156e-3, 1.8496624e+1, -0.00000027508813, -24735.525, 0.09375845, 0.0, 0.0008474115, 0.00000008029383, 0.00000008029383, 0.0, 0.012207031, 0.011915817 
6.1035156e-3, 1.8508542e+1, -0.00000021507329, -24738.232, 0.10948064, 0.0, 0.0010681514, 0.00000026943962, 0.00000026943962, 0.0, 0.012207031, 0.011915786 
6.1035156e-3, 1.8520457e+1, -0.0000011178539, -24719.43, 0.91343325, 0.0, 0.0011356749, 0.000032635366, 0.000032635366, 0.0, 0.012207031, 0.011916 
6.1035156e-3, 1.8532372e+1, -0.0000004893004, -24716.156, -0.47944644, 0.0, 0.0009757141, 0.00000881105, 0.00000881105, 0.0, 0.012207031, 0.011916037 
6.1035156e-3, 1.8544288e+1, -0.0000017901426, -24699.076, -1.1736451, 0.0, 0.0008568393, 0.000053978863, 0.000053978863, 0.0, 0.012207031, 0.011916231 
6.1035156e-3, 1.8556204e+1, -0.0000005876301, -24699.246, -0.3931818, 0.0, 0.0009965275, 0.0000056713397, 0.0000056713397, 0.0, 0.012207031, 0.0119162295 
6.1035156e-3, 1.8568121e+1, -0.000001060342, -24678.02, 0.9060537, 0.0, 0.0012194777, 0.000032205426, 0.000032205426, 0.0, 0.012207031, 0.011916471 
6.1035156e-3, 1.8580037e+1, -0.0000103779985, -24671.043, -2.6267726, 0.0, 0.0009913619, 0.0002692995, 0.0002692995, 0.0, 0.012207031, 0.01191655 
6.1035156e-3, 1.8591954e+1, -0.000048481543, -24665.06, -7.1043754, 0.0, 0.0007801027, 0.0019978199, 0.0019978199, 0.0, 0.012207031, 0.011916618 
6.1035156e-3, 1.860387e+1, -0.000015760146, -24659.816, -3.8467464, 0.0, 0.0010614075, 0.0005843034, 0.0005843034, 0.0, 0.012207031, 0.0119166775 
6.1035156e-3, 1.8615788e+1, -0.00000033122936, -24642.78, 0.23636752, 0.0, 0.0011528407, 0.0000019359468, 0.0000019359468, 0.0, 0.012207031, 0.01191687 
6.1035156e-3, 1.8627705e+1, -0.00000031137705, -24637.867, -0.25892472, 0.0, 0.0009926468, 0.0000024097171, 0.0000024097171, 0.0, 0.012207031, 0.011916926 
6.1035156e-3, 1.8639621e+1, -0.00000031343544, -24625.512, -0.112049, 0.0, 0.0008933258, 0.00000019640356, 0.00000019640356, 0.0, 0.012207031, 0.011917067 
6.1035156e-3, 1.8651539e+1, -0.0000008234345, -24614.215, 0.670553, 0.0, 0.0009284758, 0.000017444116, 0.000017444116, 0.0, 0.012207031, 0.011917195 
6.1035156e-3, 1.8663456e+1, -0.0000014705843, -24604.898, -1.0706675, 0.0, 0.0012099502, 0.00004511887, 0.00004511887, 0.0, 0.012207031, 0.011917301 
6.1035156e-3, 1.8675373e+1, -0.000000797213, -24598.426, -0.6315169, 0.0, 0.0011433727, 0.00001541576, 0.00001541576, 0.0, 0.012207031, 0.011917374 
6.1035156e-3, 1.868729e+1, -0.0000035450146, -24585.604, 1.6326052, 0.0, 0.00067301455, 0.00010486801, 0.00010486801, 0.0, 0.012207031, 0.01191752 
6.1035156e-3, 1.8699208e+1, -0.00000017967147, -24574.975, 0.015679477, 0.0, 0.0008369376, -0.00000016966806, -0.00000016966806, 0.0, 0.012207031, 0.011917641 
6.1035156e-3, 1.8711126e+1, -0.00000057056275, -24569.695, -0.43999115, 0.0, 0.001435485, 0.0000073087467, 0.0000073087467, 0.0, 0.012207031, 0.011917701 
6.1035156e-3, 1.8723044e+1, -0.00000061081056, -24555.152, 0.57828563, 0.0, 0.0012662638, 0.000013008095, 0.000013008095, 0.0, 0.012207031, 0.011917866 
6.1035156e-3, 1.873496e+1, -0.0000015659305, -24547.129, -1.0769523, 0.0, 0.00044186978, 0.000045683028, 0.000045683028, 0.0, 0.012207031, 0.011917957 
6.1035156e-3, 1.874688e+1, -0.00000024304808, -24537.326, -0.119773254, 0.0, 0.00070258824, 0.0000003415953, 0.0000003415953, 0.0, 0.012207031, 0.011918069 
6.1035156e-3, 1.8758796e+1, -0.0000012592253, -24529.193, 0.90575796, 0.0, 0.0016834259, 0.000032186534, 0.000032186534, 0.0, 0.012207031, 0.011918161 
6.1035156e-3, 1.8770716e+1, -0.0000039220185, -24515.285, -1.571078, 0.0, 0.0012492753, 0.00009676152, 0.00009676152, 0.0, 0.012207031, 0.011918319 
6.1035156e-3, 1.8782635e+1, -0.00000066184083, -24512.764, 0.6219821, 0.0, 0.0003804154, 0.000015120215, 0.000015120215, 0.0, 0.012207031, 0.011918348 
6.1035156e-3, 1.8794551e+1, -0.00000038043166, -24494.242, 0.25541064, 0.0, 0.00089983206, 0.0000022828317, 0.0000022828317, 0.0, 0.012207031, 0.011918559 
6.1035156e-3, 1.8806471e+1, -0.0000015687366, -24491.545, -1.0714579, 0.0, 0.0014089339, 0.000045305478, 0.000045305478, 0.0, 0.012207031, 0.0119185895 
6.1035156e-3, 1.881839e+1, -0.00000042191022, -24475.814, -0.29932314, 0.0, 0.0011603703, 0.000003238616, 0.000003238616, 0.0, 0.012207031, 0.011918768 
6.1035156e-3, 1.8830308e+1, -0.00000052403783, -24474.072, 0.46544078, 0.0, 0.00075668993, 0.000008327581, 0.000008327581, 0.0, 0.012207031, 0.011918788 
6.1035156e-3, 1.8842228e+1, -0.00000040518023, -24454.43, 0.42073673, 0.0, 0.00076775474, 0.000006833565, 0.000006833565, 0.0, 0.012207031, 0.011919011 
6.1035156e-3, 1.8854147e+1, -0.00000080972956, -24452.764, -0.70497847, 0.0, 0.0013001115, 0.000019514951, 0.000019514951, 0.0, 0.012207031, 0.01191903 
6.1035156e-3, 1.8866067e+1, -0.00000031354188, -24436.527, -0.2995463, 0.0, 0.001273955, 0.0000033583383, 0.0000033583383, 0.0, 0.012207031, 0.011919214 
6.1035156e-3, 1.8877985e+1, -0.0000009463191, -24434.805, 0.7245918, 0.0, 0.0007276607, 0.000020540789, 0.000020540789, 0.0, 0.012207031, 0.011919234 
6.1035156e-3, 1.8889904e+1, -0.0000018917216, -24415.074, -1.1046929, 0.0, 0.00086742593, 0.0000480916, 0.0000480916, 0.0, 0.012207031, 0.011919458 
6.1035156e-3, 1.8901823e+1, -0.0000011180973, -24417.7, 0.8558609, 0.0, 0.0012077653, 0.000028880546, 0.000028880546, 0.0, 0.012207031, 0.011919429 
6.1035156e-3, 1.8913744e+1, -0.00000055297556, -24393.947, 0.43860614, 0.0, 0.0011800504, 0.0000073332158, 0.0000073332158, 0.0, 0.012207031, 0.011919699 
6.1035156e-3, 1.8925662e+1, -0.0002881126, -24397.59, -17.312729, 0.0, 0.0008804891, 0.011997136, 0.011997136, 0.0, 0.012207031, 0.011919657 
6.1035156e-3, 1.8937582e+1, -0.000023421526, -24375.354, 5.104488, 0.0, 0.0009398559, 0.0010455187, 0.0010455187, 0.0, 0.012207031, 0.01191991 
6.1035156e-3, 1.8949503e+1, -0.0000025019904, -24376.074, -1.3582271, 0.0, 0.0011860714, 0.000073177995, 0.000073177995, 0.0, 0.012207031, 0.011919902 
6.1035156e-3, 1.8961422e+1, -0.0000030191213, -24367.137, 1.3336438, 0.0, 0.00093890727, 0.000069972855, 0.000069972855, 0.0, 0.012207031, 0.011920003 
6.1035156e-3, 1.8973343e+1, -0.0021572837, -24353.543, -47.374805, 0.0, 0.00094213453, 0.0900003, 0.0900003, 0.0, 0.012207031, 0.011920158 
6.1035156e-3, 1.8985264e+1, -0.00005300349, -24330.178, 7.3566275, 0.0, 0.0013502209, 0.0021713928, 0.0021713928, 0.0, 0.012207031, 0.011920423 
6.1035156e-3, 1.8997183e+1, -0.000011693997, -24337.656, -2.714547, 0.0, 0.0010124363, 0.00029107818, 0.00029107818, 0.0, 0.012207031, 0.0119203385 
6.1035156e-3, 1.9009104e+1, -0.0000010990424, -24317.1, 0.85069865, 0.0, 0.0006070991, 0.000028661427, 0.000028661427, 0.0, 0.012207031, 0.011920572 
6.1035156e-3, 1.9021025e+1, -0.0000018982157, -24314.477, 1.0208559, 0.0, 0.0011939147, 0.000040962943, 0.000040962943, 0.0, 0.012207031, 0.011920602 
6.1035156e-3, 1.9032946e+1, -0.0000032391013, -24301.398, -1.5167857, 0.0, 0.001384029, 0.00009143196, 0.00009143196, 0.0, 0.012207031, 0.011920751 
6.1035156e-3, 1.9044867e+1, -0.0000004536051, -24296.494, 0.39024606, 0.0, 0.00080512394, 0.0000058144615, 0.0000058144615, 0.0, 0.012207031, 0.011920806 
6.1035156e-3, 1.9056788e+1, -0.0000005137676, -24279.566, 0.5195355, 0.0, 0.0009839942, 0.000010603282, 0.000010603282, 0.0, 0.012207031, 0.011920999 
6.1035156e-3, 1.9068709e+1, -0.0000003982706, -24277.508, -0.37442318, 0.0, 0.0011755765, 0.0000053763215, 0.0000053763215, 0.0, 0.012207031, 0.011921022 
6.1035156e-3, 1.908063e+1, -0.00000055778344, -24261.389, 0.48920542, 0.0, 0.0009030045, 0.000009306528, 0.000009306528, 0.0, 0.012207031, 0.011921206 
6.1035156e-3, 1.9092551e+1, -0.0000013471789, -24255.297, -0.93110436, 0.0, 0.0010485075, 0.00003439575, 0.00003439575, 0.0, 0.012207031, 0.011921275 
6.1035156e-3, 1.9104472e+1, -0.0000011805896, -24244.01, -0.8499492, 0.0, 0.0011567126, 0.000028617022, 0.000028617022, 0.0, 0.012207031, 0.011921403 
6.1035156e-3, 1.9116393e+1, -0.0000005931534, -24235.078, 0.59332263, 0.0, 0.0009785858, 0.000013932557, 0.000013932557, 0.0, 0.012207031, 0.0119215045 
6.1035156e-3, 1.9128315e+1, -0.00000039816788, -24223.395, -0.48680115, 0.0, 0.0010173001, 0.000009384745, 0.000009384745, 0.0, 0.012207031, 0.011921638 
6.1035156e-3, 1.9140236e+1, -0.00000014698327, -24218.06, 0.1235772, 0.0, 0.0010361779, 0.0000004835929, 0.0000004835929, 0.0, 0.012207031, 0.011921698 
6.1035156e-3, 1.9152158e+1, -0.00000019380575, -24203.447, 0.11794363, 0.0, 0.0010570786, 0.00000038093276, 0.00000038093276, 0.0, 0.012207031, 0.011921865 
6.1035156e-3, 1.916408e+1, -0.00000066336366, -24196.318, -0.5563255, 0.0, 0.001068915, 0.000012127759, 0.000012127759, 0.0, 0.012207031, 0.011921946 
6.1035156e-3, 1.9176002e+1, -0.00000081395035, -24184.64, 0.6651467, 0.0, 0.0009692498, 0.000017479484, 0.000017479484, 0.0, 0.012207031, 0.011922078 
6.1035156e-3, 1.9187923e+1, -0.00000038762985, -24176.885, 0.32699904, 0.0, 0.000994023, 0.0000040351224, 0.0000040351224, 0.0, 0.012207031, 0.011922167 
6.1035156e-3, 1.9199847e+1, -0.0000002871687, -24168.902, 0.31376788, 0.0, 0.0011401293, 0.0000037862592, 0.0000037862592, 0.0, 0.012207031, 0.011922258 
6.1035156e-3, 1.9211769e+1, -0.000008018533, -24155.13, -3.3163626, 0.0, 0.0010422128, 0.00044729924, 0.00044729924, 0.0, 0.012207031, 0.011922414 
6.1035156e-3, 1.9223692e+1, -0.00000035787346, -24143.857, -0.18714435, 0.0, 0.00093597185, 0.0000010927251, 0.0000010927251, 0.0, 0.012207031, 0.011922543 
6.1035156e-3, 1.9235612e+1, -0.0000005827265, -24139.53, -0.5980862, 0.0, 0.0010764925, 0.000014235582, 0.000014235582, 0.0, 0.012207031, 0.011922591 
6.1035156e-3, 1.9247536e+1, -0.0000014758932, -24127.313, 1.0932398, 0.0, 0.0010658466, 0.000048060214, 0.000048060214, 0.0, 0.012207031, 0.011922731 
6.1035156e-3, 1.9259459e+1, -0.00000028970413, -24114.762, 0.056307703, 0.0, 0.00090107106, -0.00000015822661, -0.00000015822661, 0.0, 0.012207031, 0.011922874 
6.1035156e-3, 1.9271381e+1, -0.000012228128, -24107.172, -2.8455, 0.0, 0.0011527739, 0.00032364164, 0.00032364164, 0.0, 0.012207031, 0.01192296 
6.1035156e-3, 1.9283307e+1, -0.000004721527, -24100.875, -1.7972329, 0.0, 0.001163885, 0.0001293004, 0.0001293004, 0.0, 0.012207031, 0.011923032 
6.1035156e-3, 1.9295229e+1, -0.0000018792168, -24087.658, 1.1661043, 0.0, 0.0008345062, 0.000054572898, 0.000054572898, 0.0, 0.012207031, 0.011923182 
6.1035156e-3, 1.9307151e+1, -0.00000037066934, -24077.55, -0.3017349, 0.0, 0.0009559463, 0.0000034106088, 0.0000034106088, 0.0, 0.012207031, 0.011923297 
6.1035156e-3, 1.9319075e+1, -0.00000018757626, -24069.77, -0.027616952, 0.0, 0.001213562, -0.00000015588739, -0.00000015588739, 0.0, 0.012207031, 0.011923386 
6.1035156e-3, 1.9330998e+1, -0.000000552134, -24058.486, 0.5542045, 0.0, 0.001084952, 0.000012214368, 0.000012214368, 0.0, 0.012207031, 0.011923514 
6.1035156e-3, 1.9342922e+1, -0.0000044342123, -24048.0, -1.6911999, 0.0, 0.00092356966, 0.00011450112, 0.00011450112, 0.0, 0.012207031, 0.0119236335 
6.1035156e-3, 1.9354846e+1, -0.00000038691852, -24038.656, 0.19006144, 0.0, 0.0010156038, 0.0000011158008, 0.0000011158008, 0.0, 0.012207031, 0.01192374 
6.1035156e-3, 1.936677e+1, -0.000011148979, -24022.2, -2.5740495, 0.0, 0.00113986, 0.00026466802, 0.00026466802, 0.0, 0.012207031, 0.011923927 
6.1035156e-3, 1.9378692e+1, -0.0000691663, -24024.69, -8.48792, 0.0, 0.0009813879, 0.0029296142, 0.0029296142, 0.0, 0.012207031, 0.011923899 
6.1035156e-3, 1.9390617e+1, -0.000021113925, -24010.125, -4.9497175, 0.0, 0.001062785, 0.0009992765, 0.0009992765, 0.0, 0.012207031, 0.011924064 
6.1035156e-3, 1.9402543e+1, -0.00000043964573, -24003.088, -0.07887964, 0.0, 0.001102082, -0.0000001804292, -0.0000001804292, 0.0, 0.012207031, 0.011924144 
6.1035156e-3, 1.9414465e+1, -0.0000012877213, -23993.12, 0.9794468, 0.0, 0.0009823155, 0.000038695245, 0.000038695245, 0.0, 0.012207031, 0.0119242575 
6.1035156e-3, 1.9426389e+1, -0.0000005673161, -23981.135, 0.41275263, 0.0, 0.0011099884, 0.0000065367967, 0.0000065367967, 0.0, 0.012207031, 0.011924394 
6.1035156e-3, 1.9438314e+1, -0.0000020718887, -23966.283, -1.2657053, 0.0, 0.0011036034, 0.00006477242, 0.00006477242, 0.0, 0.012207031, 0.011924563 
6.1035156e-3, 1.945024e+1, -0.0000006760066, -23965.768, -0.48297867, 0.0, 0.00086983456, 0.000009057396, 0.000009057396, 0.0, 0.012207031, 0.0119245695 
6.1035156e-3, 1.9462164e+1, -0.00000051662926, -23950.904, 0.545544, 0.0, 0.0011169744, 0.000011909553, 0.000011909553, 0.0, 0.012207031, 0.011924738 
6.1035156e-3, 1.9474089e+1, -0.0000008869842, -23942.61, -0.5734148, 0.0, 0.0012843087, 0.000012846045, 0.000012846045, 0.0, 0.012207031, 0.011924833 
6.1035156e-3, 1.9486013e+1, -0.0000010162919, -23930.018, -0.80890155, 0.0, 0.00093592465, 0.000026326845, 0.000026326845, 0.0, 0.012207031, 0.0119249765 
6.1035156e-3, 1.9497938e+1, -0.00000028166667, -23924.535, 0.23228502, 0.0, 0.0009288332, 0.0000019736035, 0.0000019736035, 0.0, 0.012207031, 0.011925039 
6.1035156e-3, 1.9509862e+1, -0.00000021526606, -23910.676, -0.10160571, 0.0, 0.001225109, 0.00000021649612, 0.00000021649612, 0.0, 0.012207031, 0.011925196 
6.1035156e-3, 1.9521789e+1, -0.00000026308348, -23904.707, -0.1995172, 0.0, 0.0010054833, 0.0000014021571, 0.0000014021571, 0.0, 0.012207031, 0.011925264 
6.1035156e-3, 1.9533715e+1, -0.00000020113944, -23891.428, 0.0142612, 0.0, 0.0009848222, -0.00000019262734, -0.00000019262734, 0.0, 0.012207031, 0.011925415 
6.1035156e-3, 1.9545639e+1, -0.00000023910093, -23885.184, 0.19041018, 0.0, 0.0012905555, 0.000001278826, 0.000001278826, 0.0, 0.012207031, 0.011925487 
6.1035156e-3, 1.9557565e+1, -0.0000010130976, -23870.803, -0.7826738, 0.0, 0.0010571749, 0.00002464914, 0.00002464914, 0.0, 0.012207031, 0.01192565 
6.1035156e-3, 1.9569491e+1, -0.00000042191627, -23864.688, -0.35600507, 0.0, 0.0008170321, 0.0000048888433, 0.0000048888433, 0.0, 0.012207031, 0.01192572 
6.1035156e-3, 1.9581418e+1, -0.0000002742338, -23854.742, -0.021822896, 0.0, 0.0011358497, -0.00000025426925, -0.00000025426925, 0.0, 0.012207031, 0.011925833 
6.1035156e-3, 1.9593342e+1, -0.0000013447711, -23845.543, 1.0349313, 0.0, 0.0012686704, 0.00004357275, 0.00004357275, 0.0, 0.012207031, 0.011925938 
6.1035156e-3, 1.9605269e+1, -0.0000005064241, -23830.49, -0.4519847, 0.0, 0.0010029357, 0.000008066214, 0.000008066214, 0.0, 0.012207031, 0.011926109 
6.1035156e-3, 1.9617195e+1, -0.00000023800375, -23828.504, -0.24529281, 0.0, 0.00094484043, 0.000002287059, 0.000002287059, 0.0, 0.012207031, 0.011926131 
6.1035156e-3, 1.9629122e+1, -0.00000065860473, -23812.598, 0.63675314, 0.0, 0.0011399154, 0.000016368285, 0.000016368285, 0.0, 0.012207031, 0.011926313 
6.1035156e-3, 1.9641046e+1, -0.0000020453438, -23805.227, -1.1837924, 0.0, 0.0010888476, 0.000056822584, 0.000056822584, 0.0, 0.012207031, 0.011926397 
6.1035156e-3, 1.9652973e+1, -0.0000009710074, -23795.988, 0.7303233, 0.0, 0.0009997312, 0.000021443364, 0.000021443364, 0.0, 0.012207031, 0.011926502 
6.1035156e-3, 1.96649e+1, -0.00000090947924, -23786.223, 0.8452029, 0.0, 0.0011425572, 0.000029123366, 0.000029123366, 0.0, 0.012207031, 0.011926613 
6.1035156e-3, 1.9676827e+1, -0.000010065538, -23774.291, -2.333837, 0.0, 0.0010827627, 0.00021903888, 0.00021903888, 0.0, 0.012207031, 0.011926749 
6.1035156e-3, 1.9688754e+1, -0.00000074180025, -23762.52, -0.6455831, 0.0, 0.0009842027, 0.00001679748, 0.00001679748, 0.0, 0.012207031, 0.011926883 
6.1035156e-3, 1.9700679e+1, -0.0000069700027, -23747.047, -3.0052123, 0.0, 0.000998568, 0.0003733426, 0.0003733426, 0.0, 0.012207031, 0.01192706 
6.1035156e-3, 1.9712609e+1, -0.00020685185, -23749.871, -14.662229, 0.0, 0.0012041446, 0.008845024, 0.008845024, 0.0, 0.012207031, 0.011927027 
6.1035156e-3, 1.9724534e+1, -0.00016915647, -23745.162, -13.257464, 0.0, 0.0011406804, 0.007232785, 0.007232785, 0.0, 0.012207031, 0.011927081 
6.1035156e-3, 1.9736461e+1, -0.000008156968, -23722.168, 3.2622328, 0.0, 0.0008524819, 0.00044045981, 0.00044045981, 0.0, 0.012207031, 0.011927343 
6.1035156e-3, 1.974839e+1, -0.000012600536, -23705.547, -3.7844057, 0.0, 0.001022977, 0.0005915504, 0.0005915504, 0.0, 0.012207031, 0.011927532 
6.1035156e-3, 1.9760317e+1, -0.00042260846, -23713.316, -20.957186, 0.0, 0.0012404583, 0.01809877, 0.01809877, 0.0, 0.012207031, 0.011927444 
6.1035156e-3, 1.9772245e+1, -0.000098476856, -23707.377, -10.114158, 0.0, 0.0010776891, 0.004216474, 0.004216474, 0.0, 0.012207031, 0.011927512 
6.1035156e-3, 1.9784172e+1, -0.000011322729, -23685.422, 2.6790793, 0.0, 0.0009534236, 0.00029171034, 0.00029171034, 0.0, 0.012207031, 0.011927761 
6.1035156e-3, 1.97961e+1, -0.00000073397, -23682.139, -0.53115356, 0.0, 0.00096826046, 0.000011178978, 0.000011178978, 0.0, 0.012207031, 0.011927798 
6.1035156e-3, 1.9808027e+1, -0.0000042118054, -23665.123, -1.7180642, 0.0, 0.001217016, 0.00012051792, 0.00012051792, 0.0, 0.012207031, 0.011927992 
6.1035156e-3, 1.9819956e+1, -0.00000033632293, -23661.578, -0.0043660854, 0.0, 0.0011436922, -0.00000033551987, -0.00000033551987, 0.0, 0.012207031, 0.011928033 
6.1035156e-3, 1.9831884e+1, -0.0000009233133, -23648.35, 0.74295264, 0.0, 0.0009113876, 0.000022417793, 0.000022417793, 0.0, 0.012207031, 0.011928184 
6.1035156e-3, 1.9843812e+1, -0.0000007153911, -23639.367, 0.56722313, 0.0, 0.0010168267, 0.000012895041, 0.000012895041, 0.0, 0.012207031, 0.011928286 
6.1035156e-3, 1.9855742e+1, -0.0000015651224, -23623.154, -1.0643941, 0.0, 0.0012062534, 0.000046393532, 0.000046393532, 0.0, 0.012207031, 0.011928471 
6.1035156e-3, 1.9867668e+1, -0.000000980915, -23625.453, -0.67904603, 0.0, 0.0010174937, 0.000018536317, 0.000018536317, 0.0, 0.012207031, 0.011928445 
6.1035156e-3, 1.9879597e+1, -0.000001216928, -23607.5, 0.84207, 0.0, 0.0010369298, 0.000028819366, 0.000028819366, 0.0, 0.012207031, 0.011928649 
6.1035156e-3, 1.9891527e+1, -0.0000010682554, -23601.967, 0.69794536, 0.0, 0.0011886419, 0.00001957103, 0.00001957103, 0.0, 0.012207031, 0.011928712 
6.1035156e-3, 1.9903456e+1, -0.0000016543969, -23582.346, -1.0447278, 0.0, 0.0010550803, 0.000044628374, 0.000044628374, 0.0, 0.012207031, 0.011928936 
6.1035156e-3, 1.9915384e+1, -0.0000038843336, -23588.154, -1.6798869, 0.0, 0.00086866133, 0.000115752846, 0.000115752846, 0.0, 0.012207031, 0.011928869 
6.1035156e-3, 1.9927312e+1, -0.0000033146184, -23568.592, 1.4634869, 0.0, 0.0011969102, 0.0000875603, 0.0000875603, 0.0, 0.012207031, 0.011929092 
6.1035156e-3, 1.9939241e+1, -0.0000016859768, -23563.541, 1.0736227, 0.0, 0.0013348403, 0.000047231366, 0.000047231366, 0.0, 0.012207031, 0.01192915 
6.1035156e-3, 1.9951172e+1, -0.0000021714493, -23545.023, -1.1998711, 0.0, 0.00091692194, 0.00005897483, 0.00005897483, 0.0, 0.012207031, 0.011929361 
6.1035156e-3, 1.99631e+1, -0.00000041956721, -23549.293, 0.029966308, 0.0, 0.0008666141, -0.00000038143844, -0.00000038143844, 0.0, 0.012207031, 0.011929313 
6.1035156e-3, 1.997503e+1, -0.00000029277192, -23524.22, -0.14050522, 0.0, 0.0012769288, 0.00000054643533, 0.00000054643533, 0.0, 0.012207031, 0.011929598 
6.1035156e-3, 1.9986959e+1, -0.00000090103197, -23530.621, 0.6621839, 0.0, 0.0012118228, 0.000017733728, 0.000017733728, 0.0, 0.012207031, 0.011929525 
6.1035156e-3, 1.999889e+1, -0.000033758548, -23505.041, -5.813549, 0.0, 0.0010377474, 0.0014041181, 0.0014041181, 0.0, 0.012207031, 0.011929817 
6.1035156e-3, 2.0010819e+1, -0.0000005960033, -23507.693, 0.40530002, 0.0, 0.00092331157, 0.0000063918415, 0.0000063918415, 0.0, 0.012207031, 0.011929787 
6.1035156e-3, 2.0022748e+1, -0.00000046054464, -23486.23, 0.2783428, 0.0, 0.0011300206, 0.0000028381837, 0.0000028381837, 0.0, 0.012207031, 0.011930031 
6.1035156e-3, 2.003468e+1, -0.0000022967297, -23491.164, 1.2586676, 0.0, 0.0013565538, 0.000065143264, 0.000065143264, 0.0, 0.012207031, 0.011929975 
6.1035156e-3, 2.004661e+1, -0.0000006603081, -23464.102, -0.4399153, 0.0, 0.0010210025, 0.000007587416, 0.000007587416, 0.0, 0.012207031, 0.011930283 
6.1035156e-3, 2.0058541e+1, -0.000009764492, -23469.732, -2.5105693, 0.0, 0.00086081156, 0.0002587924, 0.0002587924, 0.0, 0.012207031, 0.011930219 
6.1035156e-3, 2.007047e+1, -0.00000080612836, -23449.756, 0.39980653, 0.0, 0.0012080536, 0.0000060103703, 0.0000060103703, 0.0, 0.012207031, 0.011930447 
6.1035156e-3, 2.0082399e+1, -0.000016776628, -23451.688, 4.155833, 0.0, 0.001256192, 0.00071967125, 0.00071967125, 0.0, 0.012207031, 0.011930425 
6.1035156e-3, 2.0094332e+1, -0.0000031046404, -23420.99, -1.4434291, 0.0, 0.0010726368, 0.00008585349, 0.00008585349, 0.0, 0.012207031, 0.011930775 
6.1035156e-3, 2.0106262e+1, -0.000010933094, -23435.826, -2.564773, 0.0, 0.00093448313, 0.0002697509, 0.0002697509, 0.0, 0.012207031, 0.011930605 
6.1035156e-3, 2.0118193e+1, -0.0000051516345, -23407.771, 1.86923, 0.0, 0.0011400839, 0.00014411591, 0.00014411591, 0.0, 0.012207031, 0.011930926 
6.1035156e-3, 2.0130123e+1, -0.000002732306, -23410.63, -1.2454569, 0.0, 0.0012404625, 0.000063526604, 0.000063526604, 0.0, 0.012207031, 0.011930893 
6.1035156e-3, 2.0142053e+1, -0.00000035591245, -23386.41, -0.05354602, 0.0, 0.0010444729, -0.00000023331086, -0.00000023331086, 0.0, 0.012207031, 0.011931169 
6.1035156e-3, 2.0153986e+1, -0.000001767323, -23386.922, -1.0369204, 0.0, 0.0010404073, 0.00004420726, 0.00004420726, 0.0, 0.012207031, 0.011931163 
6.1035156e-3, 2.0165916e+1, -0.00007966392, -23371.164, -9.065048, 0.0, 0.0011159354, 0.003436425, 0.003436425, 0.0, 0.012207031, 0.011931343 
6.1035156e-3, 2.0177849e+1, -0.000032015476, -23375.107, -5.6422224, 0.0, 0.001126974, 0.0013298893, 0.0013298893, 0.0, 0.012207031, 0.011931297 
6.1035156e-3, 2.018978e+1, -0.0000016325146, -23351.283, 1.0477797, 0.0, 0.001138723, 0.000045381705, 0.000045381705, 0.0, 0.012207031, 0.011931569 
6.1035156e-3, 2.0201711e+1, -0.000002047485, -23353.582, 1.2772901, 0.0, 0.0010072199, 0.00006781203, 0.00006781203, 0.0, 0.012207031, 0.011931543 
6.1035156e-3, 2.0213643e+1, -0.000015014511, -23330.848, -4.0617537, 0.0, 0.0010324888, 0.00069211115, 0.00069211115, 0.0, 0.012207031, 0.011931802 
6.1035156e-3, 2.0225574e+1, -0.00000040769157, -23328.416, -0.10534693, 0.0, 0.001243197, 0.00000006803748, 0.00000006803748, 0.0, 0.012207031, 0.01193183 
6.1035156e-3, 2.0237507e+1, -0.0000003148662, -23315.45, -0.1974319, 0.0, 0.0011609566, 0.0000013569588, 0.0000013569588, 0.0, 0.012207031, 0.011931978 
6.1035156e-3, 2.024944e+1, -0.0000014690398, -23309.418, 1.0544347, 0.0, 0.0008899034, 0.000046229812, 0.000046229812, 0.0, 0.012207031, 0.011932047 
6.1035156e-3, 2.026137e+1, -0.00000023591899, -23294.016, 0.14094107, 0.0, 0.0010273594, 0.0000006168484, 0.0000006168484, 0.0, 0.012207031, 0.011932222 
6.1035156e-3, 2.0273302e+1, -0.0000006160161, -23288.113, -0.61933327, 0.0, 0.0013085151, 0.000015854777, 0.000015854777, 0.0, 0.012207031, 0.01193229 
6.1035156e-3, 2.0285234e+1, -0.00000031390078, -23278.18, -0.093756355, 0.0, 0.0011050677, 0.00000006371556, 0.00000006371556, 0.0, 0.012207031, 0.011932403 
6.1035156e-3, 2.0297167e+1, -0.00000058299247, -23268.893, 0.50130486, 0.0, 0.000920998, 0.000010217114, 0.000010217114, 0.0, 0.012207031, 0.011932509 
6.1035156e-3, 2.0309101e+1, -0.0000003062045, -23256.592, 0.095170364, 0.0, 0.0011308917, 0.00000008325151, 0.00000008325151, 0.0, 0.012207031, 0.01193265 
6.1035156e-3, 2.0321034e+1, -0.0000005068106, -23245.74, -0.5338351, 0.0, 0.0011530677, 0.000011752636, 0.000011752636, 0.0, 0.012207031, 0.011932773 
6.1035156e-3, 2.0332965e+1, -0.0000006490297, -23241.014, -0.61972845, 0.0, 0.0010067453, 0.000015876209, 0.000015876209, 0.0, 0.012207031, 0.011932827 
6.1035156e-3, 2.0344898e+1, -0.00000851089, -23227.355, -2.8633814, 0.0, 0.0011699192, 0.00034447602, 0.00034447602, 0.0, 0.012207031, 0.011932983 
6.1035156e-3, 2.0356832e+1, -0.0000007938401, -23220.535, -0.51643324, 0.0, 0.0010547595, 0.000010691827, 0.000010691827, 0.0, 0.012207031, 0.01193306 
6.1035156e-3, 2.0368765e+1, -0.00000041567162, -23205.146, -0.080714725, 0.0, 0.0010522004, -0.00000013492172, -0.00000013492172, 0.0, 0.012207031, 0.011933236 
6.1035156e-3, 2.0380697e+1, -0.0000010162457, -23203.81, -0.8452948, 0.0, 0.001264744, 0.000029777115, 0.000029777115, 0.0, 0.012207031, 0.011933251 
6.1035156e-3, 2.0392631e+1, -0.0000006188535, -23187.033, 0.53758186, 0.0, 0.000978303, 0.000011844761, 0.000011844761, 0.0, 0.012207031, 0.011933442 
6.1035156e-3, 2.0404565e+1, -0.00000083474265, -23182.777, 0.714182, 0.0, 0.00095082645, 0.000021166761, 0.000021166761, 0.0, 0.012207031, 0.011933492 
6.1035156e-3, 2.0416498e+1, -0.0000024510907, -23163.926, -1.332968, 0.0, 0.0013383196, 0.00007425455, 0.00007425455, 0.0, 0.012207031, 0.011933706 
6.1035156e-3, 2.0428433e+1, -0.00000038778722, -23166.848, -0.008683351, 0.0, 0.0010051726, -0.00000038453072, -0.00000038453072, 0.0, 0.012207031, 0.011933673 
6.1035156e-3, 2.0440367e+1, -0.0000003023496, -23144.389, 0.16796936, 0.0, 0.0010129042, 0.00000091668335, 0.00000091668335, 0.0, 0.012207031, 0.011933929 
6.1035156e-3, 2.04523e+1, -0.0000007669323, -23148.246, 0.61539435, 0.0, 0.0014227962, 0.000015593276, 0.000015593276, 0.0, 0.012207031, 0.0119338855 
6.1035156e-3, 2.0464234e+1, -0.0000005836048, -23122.63, 0.005530177, 0.0, 0.0010172954, -0.000000582284, -0.000000582284, 0.0, 0.012207031, 0.011934177 
6.1035156e-3, 2.0476168e+1, -0.000010529498, -23129.295, -3.3742847, 0.0, 0.0006719286, 0.00048173784, 0.00048173784, 0.0, 0.012207031, 0.011934102 
6.1035156e-3, 2.0488101e+1, -0.000002750136, -23104.842, 1.3728201, 0.0, 0.0013715159, 0.0000788187, 0.0000788187, 0.0, 0.012207031, 0.01193438 
6.1035156e-3, 2.0500036e+1, -0.0000010403352, -23103.2, -0.5104559, 0.0, 0.001524294, 0.000010237982, 0.000010237982, 0.0, 0.012207031, 0.011934399 
6.1035156e-3, 2.051197e+1, -0.00018570593, -23083.963, -13.885799, 0.0, 0.0008524315, 0.008167078, 0.008167078, 0.0, 0.012207031, 0.011934618 
6.1035156e-3, 2.0523907e+1, -0.000021680886, -23096.512, -5.010556, 0.0, 0.00080768456, 0.0010653088, 0.0010653088, 0.0, 0.012207031, 0.011934475 
6.1035156e-3, 2.0535842e+1, -0.000008765244, -23063.738, 2.2731557, 0.0, 0.0013248333, 0.00021527635, 0.00021527635, 0.0, 0.012207031, 0.011934849 
6.1035156e-3, 2.0547776e+1, -0.000008893694, -23073.926, -2.269625, 0.0, 0.0013752026, 0.00021435387, 0.00021435387, 0.0, 0.012207031, 0.011934733 
6.1035156e-3, 2.055971e+1, -0.000006709401, -23045.707, -1.9940279, 0.0, 0.0010102884, 0.00016582369, 0.00016582369, 0.0, 0.012207031, 0.011935055 
6.1035156e-3, 2.0571646e+1, -0.000008263835, -23051.676, 2.2421718, 0.0, 0.0008822297, 0.00020982594, 0.00020982594, 0.0, 0.012207031, 0.011934987 
6.1035156e-3, 2.058358e+1, -0.0000007429539, -23021.746, -0.60862756, 0.0, 0.001274321, 0.000015347374, 0.000015347374, 0.0, 0.012207031, 0.011935328 
6.1035156e-3, 2.0595516e+1, -0.0000013777122, -23035.658, -0.93617165, 0.0, 0.0012425341, 0.000036668403, 0.000036668403, 0.0, 0.012207031, 0.01193517 
6.1035156e-3, 2.060745e+1, -0.000001424229, -23004.977, 0.90638506, 0.0, 0.0010055826, 0.000034286913, 0.000034286913, 0.0, 0.012207031, 0.01193552 
6.1035156e-3, 2.0619386e+1, -0.00000093509874, -23012.818, -0.66848177, 0.0, 0.0011736135, 0.000018483119, 0.000018483119, 0.0, 0.012207031, 0.011935431 
6.1035156e-3, 2.0631322e+1, -0.00000029295236, -22986.953, -0.11451246, 0.0, 0.0011938006, 0.00000027750502, 0.00000027750502, 0.0, 0.012207031, 0.011935726 
6.1035156e-3, 2.0643257e+1, -0.0000023088216, -22992.943, 1.2727593, 0.0, 0.0009736276, 0.00006814394, 0.00006814394, 0.0, 0.012207031, 0.011935657 
6.1035156e-3, 2.0655194e+1, -0.00000041142812, -22966.316, -0.35221657, 0.0, 0.0011397182, 0.0000049902483, 0.0000049902483, 0.0, 0.012207031, 0.011935961 
6.1035156e-3, 2.066713e+1, -0.00000023338154, -22974.387, 0.04643069, 0.0, 0.0012694637, -0.00000013954559, -0.00000013954559, 0.0, 0.012207031, 0.011935869 
6.1035156e-3, 2.0679066e+1, -0.00000023740981, -22948.338, 0.0056951204, 0.0, 0.0010951245, -0.00000023599569, -0.00000023599569, 0.0, 0.012207031, 0.011936166 
6.1035156e-3, 2.0691001e+1, -0.00008837097, -22953.643, -9.600397, 0.0, 0.0010170189, 0.003927009, 0.003927009, 0.0, 0.012207031, 0.011936106 
6.1035156e-3, 2.0702939e+1, -0.00008021482, -22929.938, -9.153816, 0.0, 0.001155636, 0.0035740621, 0.0035740621, 0.0, 0.012207031, 0.011936377 
6.1035156e-3, 2.0714875e+1, -0.000008452988, -22929.771, 2.1971884, 0.0, 0.0011763794, 0.00020208713, 0.00020208713, 0.0, 0.012207031, 0.011936379 
6.1035156e-3, 2.072681e+1, -0.0000011227602, -22912.65, -0.81690556, 0.0, 0.0010928079, 0.000028002403, 0.000028002403, 0.0, 0.012207031, 0.011936574 
6.1035156e-3, 2.0738746e+1, -0.0000014545186, -22913.363, 1.0113813, 0.0, 0.0011076939, 0.00004318721, 0.00004318721, 0.0, 0.012207031, 0.011936566 
6.1035156e-3, 2.0750685e+1, -0.00005160051, -22890.744, -7.362339, 0.0, 0.0011347656, 0.0023163448, 0.0023163448, 0.0, 0.012207031, 0.011936824 
6.1035156e-3, 2.0762621e+1, -0.000000632637, -22889.984, 0.57747847, 0.0, 0.0010994469, 0.000013936238, 0.000013936238, 0.0, 0.012207031, 0.011936832 
6.1035156e-3, 2.0774557e+1, -0.00000075510104, -22873.111, 0.67389494, 0.0, 0.0011275081, 0.000019099403, 0.000019099403, 0.0, 0.012207031, 0.011937025 
6.1035156e-3, 2.0786496e+1, -0.00000025223477, -22870.023, -0.004882971, 0.0, 0.0011089133, -0.00000025119516, -0.00000025119516, 0.0, 0.012207031, 0.01193706 
6.1035156e-3, 2.0798431e+1, -0.0000008109002, -22856.428, -0.66083235, 0.0, 0.0011107709, 0.000018295294, 0.000018295294, 0.0, 0.012207031, 0.011937216 
6.1035156e-3, 2.081037e+1, -0.000000644067, -22850.777, 0.52631146, 0.0, 0.0011258565, 0.000011478223, 0.000011478223, 0.0, 0.012207031, 0.01193728 
6.1035156e-3, 2.0822306e+1, -0.0000017915762, -22834.299, 1.0702922, 0.0, 0.0011020666, 0.000048375296, 0.000048375296, 0.0, 0.012207031, 0.011937468 
6.1035156e-3, 2.0834243e+1, -0.0000019007487, -22828.186, -1.1976702, 0.0, 0.0011496468, 0.000060934464, 0.000060934464, 0.0, 0.012207031, 0.011937538 
6.1035156e-3, 2.0846182e+1, -0.0000023723392, -22820.373, -1.2710041, 0.0, 0.001008455, 0.00006841753, 0.00006841753, 0.0, 0.012207031, 0.011937628 
6.1035156e-3, 2.085812e+1, -0.00000454189, -22810.543, 1.7381544, 0.0, 0.0011586023, 0.00012790479, 0.00012790479, 0.0, 0.012207031, 0.011937739 
6.1035156e-3, 2.0870058e+1, -0.0000009763866, -22794.893, -0.4399641, 0.0, 0.0014006381, 0.0000075153584, 0.0000075153584, 0.0, 0.012207031, 0.011937918 
6.1035156e-3, 2.0881994e+1, -0.0000073871956, -22790.691, -2.0629723, 0.0, 0.00082742446, 0.00017934933, 0.00017934933, 0.0, 0.012207031, 0.011937967 
6.1035156e-3, 2.0893933e+1, -0.00000039572666, -22779.555, 0.056635562, 0.0, 0.0008441676, -0.0000002549168, -0.0000002549168, 0.0, 0.012207031, 0.011938093 
6.1035156e-3, 2.0905872e+1, -0.00000040907764, -22768.617, -0.30730683, 0.0, 0.0015498775, 0.0000037386271, 0.0000037386271, 0.0, 0.012207031, 0.011938218 
6.1035156e-3, 2.091781e+1, -0.00000034815127, -22762.234, -0.23221783, 0.0, 0.0012129509, 0.0000020209118, 0.0000020209118, 0.0, 0.012207031, 0.011938292 
6.1035156e-3, 2.0929748e+1, -0.000007910641, -22746.637, -2.1652794, 0.0, 0.00084007793, 0.0001982049, 0.0001982049, 0.0, 0.012207031, 0.0119384695 
6.1035156e-3, 2.0941687e+1, -0.0000017810785, -22743.39, -1.0945288, 0.0, 0.0011555467, 0.000050893268, 0.000050893268, 0.0, 0.012207031, 0.011938507 
6.1035156e-3, 2.0953625e+1, -0.0000026828952, -22728.262, 1.3016306, 0.0, 0.0012121347, 0.000071860515, 0.000071860515, 0.0, 0.012207031, 0.011938679 
6.1035156e-3, 2.0965564e+1, -0.00000050980213, -22723.596, -0.44187868, 0.0, 0.001136249, 0.000008082887, 0.000008082887, 0.0, 0.012207031, 0.011938733 
6.1035156e-3, 2.0977503e+1, -0.00000034412577, -22708.16, -0.030716794, 0.0, 0.0011351092, -0.00000030257797, -0.00000030257797, 0.0, 0.012207031, 0.011938909 
6.1035156e-3, 2.098944e+1, -0.000001150375, -22704.48, -0.88238823, 0.0, 0.0010615536, 0.00003314281, 0.00003314281, 0.0, 0.012207031, 0.011938951 
6.1035156e-3, 2.100138e+1, -0.0000007885801, -22689.973, -0.42042196, 0.0, 0.0011781182, 0.0000070014066, 0.0000070014066, 0.0, 0.012207031, 0.011939117 
6.1035156e-3, 2.101332e+1, -0.00001515339, -22684.799, 3.9559283, 0.0, 0.0012410872, 0.00067470805, 0.00067470805, 0.0, 0.012207031, 0.011939176 
6.1035156e-3, 2.1025258e+1, -0.00000042527256, -22670.543, -0.13123377, 0.0, 0.001042529, 0.000000334403, 0.000000334403, 0.0, 0.012207031, 0.011939338 
6.1035156e-3, 2.1037199e+1, -0.000008197901, -22680.191, 2.720522, 0.0, 0.0011703084, 0.00031813263, 0.00031813263, 0.0, 0.012207031, 0.0119392285 
6.1035156e-3, 2.1049137e+1, -0.0025777018, -22644.063, -51.715385, 0.0, 0.0012261072, 0.11553129, 0.11553129, 0.0, 0.012207031, 0.011939641 
6.1035156e-3, 2.1061078e+1, -0.00020300978, -22638.6, 14.512605, 0.0, 0.0009871969, 0.009100375, 0.009100375, 0.0, 0.012207031, 0.0119397035 
6.1035156e-3, 2.1073017e+1, -0.000009268234, -22630.938, -3.299757, 0.0, 0.0012009011, 0.0004718606, 0.0004718606, 0.0, 0.012207031, 0.011939791 
6.1035156e-3, 2.1084957e+1, -0.000014728709, -22637.154, 4.020114, 0.0, 0.0013150414, 0.00069919997, 0.00069919997, 0.0, 0.012207031, 0.01193972 
6.1035156e-3, 2.1096897e+1, -0.001227603, -22599.648, -35.686832, 0.0, 0.0011455826, 0.05512491, 0.05512491, 0.0, 0.012207031, 0.011940149 
6.1035156e-3, 2.1108837e+1, -0.00003065643, -22607.014, 5.49859, 0.0, 0.000897337, 0.0013067378, 0.0013067378, 0.0, 0.012207031, 0.011940065 
6.1035156e-3, 2.1120778e+1, -0.0000006144146, -22588.238, -0.45351192, 0.0, 0.001153201, 0.000008490904, 0.000008490904, 0.0, 0.012207031, 0.011940279 
6.1035156e-3, 2.1132717e+1, -0.0000010975837, -22588.117, 0.8287348, 0.0, 0.0015810112, 0.000029307841, 0.000029307841, 0.0, 0.012207031, 0.011940281 
6.1035156e-3, 2.1144657e+1, -0.00000024031675, -22569.299, -0.14216912, 0.0, 0.001028909, 0.00000065524, 0.00000065524, 0.0, 0.012207031, 0.011940495 
6.1035156e-3, 2.1156599e+1, -0.0000008501549, -22571.213, 0.66936564, 0.0, 0.0008124856, 0.000019000367, 0.000019000367, 0.0, 0.012207031, 0.011940474 
6.1035156e-3, 2.1168539e+1, -0.00000027338385, -22546.863, -0.09975624, 0.0, 0.0014081, 0.0000001679764, 0.0000001679764, 0.0, 0.012207031, 0.011940752 
6.1035156e-3, 2.1180479e+1, -0.00000042412435, -22553.887, 0.41051373, 0.0, 0.0011625761, 0.0000070478272, 0.0000070478272, 0.0, 0.012207031, 0.011940672 
6.1035156e-3, 2.1192421e+1, -0.000000654044, -22529.596, 0.5558549, 0.0, 0.0010084243, 0.000013060126, 0.000013060126, 0.0, 0.012207031, 0.01194095 
6.1035156e-3, 2.1204361e+1, -0.0000065103754, -22529.934, -1.919205, 0.0, 0.0013796535, 0.00015697646, 0.00015697646, 0.0, 0.012207031, 0.011940946 
6.1035156e-3, 2.1216303e+1, -0.0000014730963, -22513.738, 0.9541078, 0.0, 0.0011231196, 0.00003896096, 0.00003896096, 0.0, 0.012207031, 0.01194113 
6.1035156e-3, 2.1228243e+1, -0.0000006142278, -22508.24, 0.55834746, 0.0, 0.000989144, 0.000013236338, 0.000013236338, 0.0, 0.012207031, 0.011941194 
6.1035156e-3, 2.1240185e+1, -0.000002961853, -22493.48, -1.21399, 0.0, 0.0012033847, 0.000062558094, 0.000062558094, 0.0, 0.012207031, 0.011941362 
6.1035156e-3, 2.1252127e+1, -0.000010910352, -22492.057, 2.5030742, 0.0, 0.0012277893, 0.00026764933, 0.00026764933, 0.0, 0.012207031, 0.011941378 
6.1035156e-3, 2.1264069e+1, -0.00000028974267, -22471.314, -0.19253103, 0.0, 0.0011881138, 0.0000013598365, 0.0000013598365, 0.0, 0.012207031, 0.0119416155 
6.1035156e-3, 2.1276009e+1, -0.0000031325792, -22473.074, -1.4302673, 0.0, 0.0010161431, 0.000087894776, 0.000087894776, 0.0, 0.012207031, 0.011941595 
6.1035156e-3, 2.1287951e+1, -0.000017703298, -22452.865, -4.561909, 0.0, 0.001122483, 0.0009091724, 0.0009091724, 0.0, 0.012207031, 0.011941826 
6.1035156e-3, 2.1299893e+1, -0.000006025363, -22449.69, 1.9287333, 0.0, 0.001297816, 0.00015967902, 0.00015967902, 0.0, 0.012207031, 0.011941862 
6.1035156e-3, 2.1311834e+1, -0.0000003735019, -22437.078, -0.31087807, 0.0, 0.0011461435, 0.0000039338884, 0.0000039338884, 0.0, 0.012207031, 0.011942007 
6.1035156e-3, 2.1323776e+1, -0.00000023359956, -22429.875, 0.096684985, 0.0, 0.0010449447, 0.0000001831686, 0.0000001831686, 0.0, 0.012207031, 0.01194209 
6.1035156e-3, 2.133572e+1, -0.00003761934, -22417.047, -6.330644, 0.0, 0.0010995772, 0.0017501742, 0.0017501742, 0.0, 0.012207031, 0.011942236 
6.1035156e-3, 2.1347661e+1, -0.000008855222, -22408.719, 2.2165434, 0.0, 0.001289709, 0.00021039267, 0.00021039267, 0.0, 0.012207031, 0.011942331 
6.1035156e-3, 2.1359605e+1, -0.0000016545703, -22396.37, -0.9808979, 0.0, 0.0011336148, 0.000041306, 0.000041306, 0.0, 0.012207031, 0.011942472 
6.1035156e-3, 2.1371546e+1, -0.0000010931988, -22390.674, 0.76784635, 0.0, 0.0010337391, 0.00002523866, 0.00002523866, 0.0, 0.012207031, 0.0119425375 
6.1035156e-3, 2.138349e+1, -0.0000003637907, -22377.496, -0.17467904, 0.0, 0.0013327199, 0.0000009997566, 0.0000009997566, 0.0, 0.012207031, 0.011942688 
6.1035156e-3, 2.1395431e+1, -0.0000005702397, -22370.686, -0.5012188, 0.0, 0.0010028984, 0.000010659649, 0.000010659649, 0.0, 0.012207031, 0.011942766 
6.1035156e-3, 2.1407375e+1, -0.0000024870071, -22358.309, 1.2529043, 0.0, 0.0010479701, 0.00006772265, 0.00006772265, 0.0, 0.012207031, 0.011942907 
6.1035156e-3, 2.1419317e+1, -0.000005122384, -22350.822, -1.7408175, 0.0, 0.0014023565, 0.00013046304, 0.00013046304, 0.0, 0.012207031, 0.011942993 
6.1035156e-3, 2.1431261e+1, -0.00000471016, -22339.4, 1.6600155, 0.0, 0.000986952, 0.0001186437, 0.0001186437, 0.0, 0.012207031, 0.011943123 
6.1035156e-3, 2.1443203e+1, -0.00002312356, -22317.525, -5.026643, 0.0, 0.0011612645, 0.001109042, 0.001109042, 0.0, 0.012207031, 0.011943374 
6.1035156e-3, 2.1455146e+1, -0.000154969, -22329.127, -12.675055, 0.0, 0.0014066993, 0.0070399814, 0.0070399814, 0.0, 0.012207031, 0.011943241 
6.1035156e-3, 2.1467091e+1, -0.0000025851, -22313.352, -1.3227003, 0.0, 0.0009502359, 0.00007582248, 0.00007582248, 0.0, 0.012207031, 0.011943421 
6.1035156e-3, 2.1479034e+1, -0.00000062596297, -22303.729, 0.2246524, 0.0, 0.0009379231, 0.0000016368285, 0.0000016368285, 0.0, 0.012207031, 0.011943531 
6.1035156e-3, 2.1490978e+1, -0.000014863822, -22303.434, 3.9076104, 0.0, 0.0013946684, 0.00066975807, 0.00066975807, 0.0, 0.012207031, 0.011943535 
6.1035156e-3, 2.1502922e+1, -0.0032649143, -22277.184, -58.185215, 0.0, 0.0014568536, 0.14870656, 0.14870656, 0.0, 0.012207031, 0.011943835 
6.1035156e-3, 2.1514866e+1, -0.000022583808, -22260.262, 4.8878593, 0.0, 0.00088920497, 0.0010506816, 0.0010506816, 0.0, 0.012207031, 0.011944029 
6.1035156e-3, 2.1526809e+1, -0.000006904809, -22267.852, -3.0038848, 0.0, 0.0009079899, 0.0003983127, 0.0003983127, 0.0, 0.012207031, 0.011943942 
6.1035156e-3, 2.1538754e+1, -0.0000042186957, -22248.768, 1.5575804, 0.0, 0.0014357851, 0.0001048236, 0.0001048236, 0.0, 0.012207031, 0.01194416 
6.1035156e-3, 2.1550697e+1, -0.0000027451565, -22243.762, 1.3687327, 0.0, 0.0014081831, 0.00008147753, 0.00008147753, 0.0, 0.012207031, 0.011944218 
6.1035156e-3, 2.1562642e+1, -0.0000008145604, -22231.67, -0.63548666, 0.0, 0.0010208308, 0.000017350667, 0.000017350667, 0.0, 0.012207031, 0.011944355 
6.1035156e-3, 2.1574587e+1, -0.0000011064578, -22224.521, -0.83863044, 0.0, 0.0008589067, 0.000030538813, 0.000030538813, 0.0, 0.012207031, 0.011944437 
6.1035156e-3, 2.1586531e+1, -0.000000637311, -22213.082, 0.5520887, 0.0, 0.0012864424, 0.00001308442, 0.00001308442, 0.0, 0.012207031, 0.011944569 
6.1035156e-3, 2.1598475e+1, -0.00000086403736, -22204.592, 0.6604823, 0.0, 0.001724212, 0.000018782204, 0.000018782204, 0.0, 0.012207031, 0.011944666 
6.1035156e-3, 2.1610421e+1, -0.0000011200838, -22190.57, -0.79116553, 0.0, 0.0009842034, 0.000027087524, 0.000027087524, 0.0, 0.012207031, 0.011944826 
6.1035156e-3, 2.1622364e+1, -0.00000079487035, -22185.76, -0.635335, 0.0, 0.0005634231, 0.00001739926, 0.00001739926, 0.0, 0.012207031, 0.011944881 
6.1035156e-3, 2.163431e+1, -0.000007647762, -22175.121, -2.205816, 0.0, 0.0014862878, 0.00021177041, 0.00021177041, 0.0, 0.012207031, 0.011945003 
6.1035156e-3, 2.1646255e+1, -0.0000008366737, -22165.09, 0.61133826, 0.0, 0.0017238104, 0.00001602473, 0.00001602473, 0.0, 0.012207031, 0.011945117 
6.1035156e-3, 2.16582e+1, -0.00000078357067, -22151.467, 0.3196996, 0.0, 0.0009607612, 0.000003830475, 0.000003830475, 0.0, 0.012207031, 0.011945273 
6.1035156e-3, 2.1670145e+1, -0.000006413654, -22147.135, -1.9951767, 0.0, 0.00070990983, 0.00017332652, 0.00017332652, 0.0, 0.012207031, 0.011945323 
6.1035156e-3, 2.1682091e+1, -0.0000005464847, -22137.51, 0.32255116, 0.0, 0.0012216903, 0.000004153193, 0.000004153193, 0.0, 0.012207031, 0.011945433 
6.1035156e-3, 2.1694036e+1, -0.0000043550854, -22123.125, 1.7257874, 0.0, 0.0019140816, 0.00013027065, 0.00013027065, 0.0, 0.012207031, 0.011945598 
6.1035156e-3, 2.1705982e+1, -0.00000064706535, -22115.223, -0.43504882, 0.0, 0.0011287058, 0.0000079111815, 0.0000079111815, 0.0, 0.012207031, 0.011945688 
6.1035156e-3, 2.1717928e+1, -0.00000065554735, -22108.883, 0.41156256, 0.0, 0.00029728192, 0.0000070057977, 0.0000070057977, 0.0, 0.012207031, 0.011945761 
6.1035156e-3, 2.1729873e+1, -0.0000011951877, -22095.076, 0.80928296, 0.0, 0.0014578152, 0.000028446659, 0.000028446659, 0.0, 0.012207031, 0.011945918 
6.1035156e-3, 2.174182e+1, -0.000073370284, -22087.658, -8.688342, 0.0, 0.0018252456, 0.0033442518, 0.0033442518, 0.0, 0.012207031, 0.011946003 
6.1035156e-3, 2.1753766e+1, -0.000010640881, -22073.826, 2.5385106, 0.0, 0.0008688486, 0.0002812902, 0.0002812902, 0.0, 0.012207031, 0.011946161 
6.1035156e-3, 2.176571e+1, -0.0000018483396, -22066.787, -1.0764512, 0.0, 0.0009765706, 0.000050662577, 0.000050662577, 0.0, 0.012207031, 0.011946242 
6.1035156e-3, 2.1777658e+1, -0.0000011006426, -22058.588, 0.7512871, 0.0, 0.0012518613, 0.000024487228, 0.000024487228, 0.0, 0.012207031, 0.011946336 
6.1035156e-3, 2.1789604e+1, -0.0000010818441, -22046.107, 0.7737884, 0.0, 0.0013233003, 0.000026077072, 0.000026077072, 0.0, 0.012207031, 0.011946479 
6.1035156e-3, 2.1801552e+1, -0.000040468694, -22038.832, -6.5029693, 0.0, 0.0012534651, 0.0018783538, 0.0018783538, 0.0, 0.012207031, 0.011946562 
6.1035156e-3, 2.1813497e+1, -0.000020083013, -22029.049, 4.7437286, 0.0, 0.00091566116, 0.00100143, 0.00100143, 0.0, 0.012207031, 0.011946674 
6.1035156e-3, 2.1825445e+1, -0.00000087959194, -22014.406, 0.38094124, 0.0, 0.0011739822, 0.000005712285, 0.000005712285, 0.0, 0.012207031, 0.011946842 
6.1035156e-3, 2.1837391e+1, -0.000029212277, -22012.656, -5.3984165, 0.0, 0.0014325868, 0.0012947033, 0.0012947033, 0.0, 0.012207031, 0.011946862 
6.1035156e-3, 2.1849339e+1, -0.00009511929, -21997.666, -9.928798, 0.0, 0.0010900382, 0.004386311, 0.004386311, 0.0, 0.012207031, 0.011947033 
6.1035156e-3, 2.1861285e+1, -0.000005842585, -21987.541, 2.8979998, 0.0, 0.0010853207, 0.00037611928, 0.00037611928, 0.0, 0.012207031, 0.011947149 
6.1035156e-3, 2.1873231e+1, -0.000008100369, -21976.03, 2.9941683, 0.0, 0.0013065687, 0.0003998461, 0.0003998461, 0.0, 0.012207031, 0.011947281 
6.1035156e-3, 2.1885179e+1, -0.0000027290787, -21971.469, -1.3683553, 0.0, 0.0010788755, 0.000082490355, 0.000082490355, 0.0, 0.012207031, 0.011947333 
6.1035156e-3, 2.1897127e+1, -0.00000792066, -21971.959, 3.0236125, 0.0, 0.0011025061, 0.0004081657, 0.0004081657, 0.0, 0.012207031, 0.011947327 
6.1035156e-3, 2.1909074e+1, -0.005241724, -21943.656, -73.70515, 0.0, 0.001379442, 0.24231906, 0.24231906, 0.0, 0.012207031, 0.011947651 
6.1035156e-3, 2.1921022e+1, -0.00006762456, -21931.768, 8.369474, 0.0, 0.0010433693, 0.0031262857, 0.0031262857, 0.0, 0.012207031, 0.011947787 
6.1035156e-3, 2.193297e+1, -0.0000063127336, -21930.834, -2.7873409, 0.0, 0.0011777111, 0.00034794965, 0.00034794965, 0.0, 0.012207031, 0.011947799 
6.1035156e-3, 2.1944918e+1, -0.0000026834796, -21920.424, 1.1626892, 0.0, 0.001457936, 0.000058987138, 0.000058987138, 0.0, 0.012207031, 0.011947918 
6.1035156e-3, 2.1956865e+1, -0.00000059235646, -21905.318, 0.13129918, 0.0, 0.0008982777, 0.00000019464278, 0.00000019464278, 0.0, 0.012207031, 0.01194809 
6.1035156e-3, 2.1968815e+1, -0.0000058772307, -21904.95, -1.9861091, 0.0, 0.00092677685, 0.00017420213, 0.00017420213, 0.0, 0.012207031, 0.011948095 
6.1035156e-3, 2.1980762e+1, -0.000009771895, -21891.441, 2.5519614, 0.0, 0.0016111635, 0.0002877191, 0.0002877191, 0.0, 0.012207031, 0.011948249 
6.1035156e-3, 2.199271e+1, -0.0000020952743, -21879.99, 1.0722988, 0.0, 0.0013454191, 0.000050456147, 0.000050456147, 0.0, 0.012207031, 0.011948381 
6.1035156e-3, 2.200466e+1, -0.0000072765497, -21866.37, -3.00922, 0.0, 0.00082505005, 0.00040684815, 0.00040684815, 0.0, 0.012207031, 0.011948536 
6.1035156e-3, 2.2016607e+1, -0.000002579848, -21865.354, -1.2785859, 0.0, 0.0011284248, 0.00007218601, 0.00007218601, 0.0, 0.012207031, 0.011948548 
6.1035156e-3, 2.2028556e+1, -0.0000006948954, -21852.021, 0.14925942, 0.0, 0.0014065797, 0.00000032461685, 0.00000032461685, 0.0, 0.012207031, 0.011948701 
6.1035156e-3, 2.2040504e+1, -0.0000021710425, -21842.709, -1.2297697, 0.0, 0.0012652563, 0.000067066416, 0.000067066416, 0.0, 0.012207031, 0.011948807 
6.1035156e-3, 2.2052453e+1, -0.0000012959554, -21829.846, -0.84984183, 0.0, 0.00105297, 0.000031788615, 0.000031788615, 0.0, 0.012207031, 0.011948954 
6.1035156e-3, 2.2064404e+1, -0.00000079385785, -21825.127, 0.3710258, 0.0, 0.0011778233, 0.000005513557, 0.000005513557, 0.0, 0.012207031, 0.011949008 
6.1035156e-3, 2.207635e+1, -0.0000006807103, -21812.588, -0.16986191, 0.0, 0.0013300859, 0.0000006420596, 0.0000006420596, 0.0, 0.012207031, 0.011949152 
6.1035156e-3, 2.2088301e+1, -0.00000087904976, -21804.74, 0.50953984, 0.0, 0.0010660753, 0.000011028034, 0.000011028034, 0.0, 0.012207031, 0.011949242 
6.1035156e-3, 2.210025e+1, -0.0000009297712, -21788.75, -0.5339227, 0.0, 0.001213351, 0.000012153741, 0.000012153741, 0.0, 0.012207031, 0.011949426 
6.1035156e-3, 2.21122e+1, -0.0000064714427, -21786.813, -2.0073736, 0.0, 0.0014506729, 0.0001784821, 0.0001784821, 0.0, 0.012207031, 0.011949447 
6.1035156e-3, 2.2124149e+1, -0.000008528962, -21777.424, 2.349147, 0.0, 0.0010468662, 0.00024487526, 0.00024487526, 0.0, 0.012207031, 0.011949555 
6.1035156e-3, 2.2136098e+1, -0.0000025024108, -21762.65, 1.2864968, 0.0, 0.0010692326, 0.00007354871, 0.00007354871, 0.0, 0.012207031, 0.0119497245 
6.1035156e-3, 2.2148049e+1, -0.000069233545, -21757.361, -8.495002, 0.0, 0.0013294765, 0.0032475765, 0.0032475765, 0.0, 0.012207031, 0.011949785 
6.1035156e-3, 2.2159998e+1, -0.000009188381, -21742.594, -2.2981417, 0.0, 0.001338746, 0.00023371985, 0.00023371985, 0.0, 0.012207031, 0.011949954 
6.1035156e-3, 2.2171949e+1, -0.0000016560551, -21734.523, 0.84698033, 0.0, 0.0011827133, 0.00003135022, 0.00003135022, 0.0, 0.012207031, 0.011950047 
6.1035156e-3, 2.21839e+1, -0.000006995406, -21735.846, 2.0718563, 0.0, 0.0009885451, 0.00019049348, 0.00019049348, 0.0, 0.012207031, 0.011950031 
6.1035156e-3, 2.2195849e+1, -0.0010119857, -21716.893, -32.378456, 0.0, 0.0013176965, 0.047262054, 0.047262054, 0.0, 0.012207031, 0.011950248 
6.1035156e-3, 2.22078e+1, -0.00009624748, -21694.154, -9.990407, 0.0, 0.0014120273, 0.004504449, 0.004504449, 0.0, 0.012207031, 0.011950509 
6.1035156e-3, 2.2219749e+1, -0.00000651218, -21698.473, 1.9877362, 0.0, 0.0010399271, 0.00017557878, 0.00017557878, 0.0, 0.012207031, 0.011950459 
6.1035156e-3, 2.2231701e+1, -0.0000024034327, -21680.621, 1.3035551, 0.0, 0.0012394022, 0.000075973294, 0.000075973294, 0.0, 0.012207031, 0.011950664 
6.1035156e-3, 2.224365e+1, -0.00000047063946, -21675.613, -0.029084587, 0.0, 0.001252564, -0.0000004316098, -0.0000004316098, 0.0, 0.012207031, 0.011950721 
6.1035156e-3, 2.2255602e+1, -0.0000014055249, -21664.035, -0.9645192, 0.0, 0.001152857, 0.00004153649, 0.00004153649, 0.0, 0.012207031, 0.011950854 
6.1035156e-3, 2.2267553e+1, -0.0000008588014, -21661.307, 0.6280774, 0.0, 0.001306419, 0.000017352526, 0.000017352526, 0.0, 0.012207031, 0.011950885 
6.1035156e-3, 2.2279502e+1, -0.000003555823, -21644.305, 1.6077116, 0.0, 0.0011080754, 0.00011586296, 0.00011586296, 0.0, 0.012207031, 0.01195108 
6.1035156e-3, 2.2291455e+1, -0.0000008037533, -21638.11, -0.5378126, 0.0, 0.0011181426, 0.000012563512, 0.000012563512, 0.0, 0.012207031, 0.011951151 
6.1035156e-3, 2.2303405e+1, -0.000004452917, -21624.05, -1.6610484, 0.0, 0.0014982929, 0.00012314029, 0.00012314029, 0.0, 0.012207031, 0.011951312 
6.1035156e-3, 2.2315358e+1, -0.0000017510001, -21622.777, 0.99220467, 0.0, 0.0012161382, 0.00004377831, 0.00004377831, 0.0, 0.012207031, 0.011951326 
6.1035156e-3, 2.2327308e+1, -0.00000044783354, -21601.441, -0.01636329, 0.0, 0.00088370027, -0.0000004354406, -0.0000004354406, 0.0, 0.012207031, 0.011951571 
6.1035156e-3, 2.233926e+1, -0.0000036096685, -21602.78, -1.4001276, 0.0, 0.0011815056, 0.000087135944, 0.000087135944, 0.0, 0.012207031, 0.0119515555 
6.1035156e-3, 2.2351211e+1, -0.0000009802019, -21586.627, -0.63820857, 0.0, 0.0016027738, 0.00001788843, 0.00001788843, 0.0, 0.012207031, 0.011951741 
6.1035156e-3, 2.2363164e+1, -0.0000013246124, -21578.326, -0.8206664, 0.0, 0.0011512156, 0.000029886953, 0.000029886953, 0.0, 0.012207031, 0.011951836 
6.1035156e-3, 2.2375116e+1, -0.0000012604546, -21563.09, -0.859151, 0.0, 0.00088086515, 0.000032971213, 0.000032971213, 0.0, 0.012207031, 0.011952011 
6.1035156e-3, 2.2387068e+1, -0.00004199166, -21562.145, -6.5325217, 0.0, 0.0014131985, 0.0019371174, 0.0019371174, 0.0, 0.012207031, 0.011952021 
6.1035156e-3, 2.2399019e+1, -0.0000051214665, -21549.883, -2.6612122, 0.0, 0.0012007661, 0.00032351378, 0.00032351378, 0.0, 0.012207031, 0.011952162 
6.1035156e-3, 2.2410972e+1, -0.0000070617434, -21542.855, 2.0569022, 0.0, 0.0009569467, 0.00018933036, 0.00018933036, 0.0, 0.012207031, 0.011952243 
6.1035156e-3, 2.2422925e+1, -0.0000032658643, -21527.018, -1.4600039, 0.0, 0.0015563677, 0.00009575441, 0.00009575441, 0.0, 0.012207031, 0.0119524235 
6.1035156e-3, 2.2434877e+1, -0.000035738758, -21527.61, -6.1132593, 0.0, 0.0013032032, 0.0017002616, 0.0017002616, 0.0, 0.012207031, 0.011952417 
6.1035156e-3, 2.2446829e+1, -0.000028758546, -21502.229, -5.3333416, 0.0, 0.0008212206, 0.0012941058, 0.0012941058, 0.0, 0.012207031, 0.0119527085 
6.1035156e-3, 2.2458783e+1, -0.0000007262502, -21502.777, 0.4748544, 0.0, 0.0011059096, 0.000009760151, 0.000009760151, 0.0, 0.012207031, 0.011952702 
6.1035156e-3, 2.2470735e+1, -0.000008818391, -21484.873, 2.472688, 0.0, 0.0015974845, 0.00027576258, 0.00027576258, 0.0, 0.012207031, 0.011952907 
6.1035156e-3, 2.2482687e+1, -0.000006113668, -21492.053, -1.9455837, 0.0, 0.0012779104, 0.00017001171, 0.00017001171, 0.0, 0.012207031, 0.011952825 
6.1035156e-3, 2.2494641e+1, -0.000044152985, -21481.963, 6.728992, 0.0, 0.0008387176, 0.0020636306, 0.0020636306, 0.0, 0.012207031, 0.01195294 
6.1035156e-3, 2.2506593e+1, -0.0028250834, -21453.873, -54.08903, 0.0, 0.0013036829, 0.13354214, 0.13354214, 0.0, 0.012207031, 0.011953263 
6.1035156e-3, 2.2518547e+1, -0.000108883774, -21439.947, 10.617067, 0.0, 0.001335807, 0.0051486893, 0.0051486893, 0.0, 0.012207031, 0.011953422 
6.1035156e-3, 2.25305e+1, -0.000007699129, -21447.041, -2.1859689, 0.0, 0.0010877174, 0.00021510365, 0.00021510365, 0.0, 0.012207031, 0.011953341 
6.1035156e-3, 2.2542454e+1, -0.0000016420779, -21421.854, -1.0538371, 0.0, 0.001319334, 0.00005020089, 0.00005020089, 0.0, 0.012207031, 0.01195363 
6.1035156e-3, 2.2554407e+1, -0.0000006222842, -21427.55, -0.45524135, 0.0, 0.0011518879, 0.000009049596, 0.000009049596, 0.0, 0.012207031, 0.011953564 
6.1035156e-3, 2.256636e+1, -0.000016964425, -21411.195, -4.421833, 0.0, 0.0011862514, 0.000896231, 0.000896231, 0.0, 0.012207031, 0.011953752 
6.1035156e-3, 2.2578315e+1, -0.0000010484569, -21402.063, 0.75126684, 0.0, 0.00142983, 0.00002532292, 0.00002532292, 0.0, 0.012207031, 0.011953857 
6.1035156e-3, 2.2590269e+1, -0.0000005130378, -21392.496, -0.38687173, 0.0, 0.0010561057, 0.0000064833293, 0.0000064833293, 0.0, 0.012207031, 0.011953966 
6.1035156e-3, 2.2602223e+1, -0.0000024913527, -21385.979, -1.3085587, 0.0, 0.0010375733, 0.00007757633, 0.00007757633, 0.0, 0.012207031, 0.011954041 
6.1035156e-3, 2.2614178e+1, -0.0000005441274, -21371.05, -0.25730905, 0.0, 0.0014800997, 0.0000025538902, 0.0000025538902, 0.0, 0.012207031, 0.011954212 
6.1035156e-3, 2.2626132e+1, -0.000004412992, -21364.598, 1.606665, 0.0, 0.0012851182, 0.00011641177, 0.00011641177, 0.0, 0.012207031, 0.011954286 
6.1035156e-3, 2.2638087e+1, -0.0000010865415, -21351.834, -0.8553567, 0.0, 0.0010691698, 0.000033179138, 0.000033179138, 0.0, 0.012207031, 0.011954432 
6.1035156e-3, 2.2650039e+1, -0.0000028273641, -21346.129, -1.3964632, 0.0, 0.0012606807, 0.00008852921, 0.00008852921, 0.0, 0.012207031, 0.011954498 
6.1035156e-3, 2.2661994e+1, -0.0000033965725, -21336.05, 1.4585341, 0.0, 0.0012662582, 0.000096308926, 0.000096308926, 0.0, 0.012207031, 0.011954613 
6.1035156e-3, 2.267395e+1, -0.00000043824542, -21323.18, 0.17522582, 0.0, 0.0012205722, 0.0000010016956, 0.0000010016956, 0.0, 0.012207031, 0.011954761 
6.1035156e-3, 2.2685903e+1, -0.0000024177502, -21313.861, -1.2316006, 0.0, 0.00126884, 0.00006874908, 0.00006874908, 0.0, 0.012207031, 0.011954868 
6.1035156e-3, 2.2697859e+1, -0.0000009903711, -21305.236, 0.64120406, 0.0, 0.0011647302, 0.000018307357, 0.000018307357, 0.0, 0.012207031, 0.011954967 
6.1035156e-3, 2.2709814e+1, -0.0000009677532, -21296.498, 0.7411717, 0.0, 0.0011959141, 0.000024826888, 0.000024826888, 0.0, 0.012207031, 0.011955067 
6.1035156e-3, 2.2721769e+1, -0.00000045700227, -21286.44, -0.24192385, 0.0, 0.0014884738, 0.0000022925014, 0.0000022925014, 0.0, 0.012207031, 0.011955182 
6.1035156e-3, 2.2733724e+1, -0.000001234062, -21278.605, 0.7698319, 0.0, 0.0012088072, 0.000026617443, 0.000026617443, 0.0, 0.012207031, 0.011955272 
6.1035156e-3, 2.274568e+1, -0.00012309499, -21263.703, -11.289443, 0.0, 0.00082833006, 0.005870756, 0.005870756, 0.0, 0.012207031, 0.011955443 
6.1035156e-3, 2.2757635e+1, -0.000010216668, -21256.293, 2.5042257, 0.0, 0.0014370094, 0.00028480872, 0.00028480872, 0.0, 0.012207031, 0.0119555285 
6.1035156e-3, 2.276959e+1, -0.0000013557715, -21243.44, -0.87392783, 0.0, 0.0015697678, 0.000034596495, 0.000034596495, 0.0, 0.012207031, 0.011955676 
6.1035156e-3, 2.2781548e+1, -0.0000011097337, -21240.414, 0.81002605, 0.0, 0.0009464531, 0.000029781484, 0.000029781484, 0.0, 0.012207031, 0.01195571 
6.1035156e-3, 2.2793503e+1, -0.0000008707962, -21223.764, 0.6362964, 0.0, 0.0012424941, 0.000018205603, 0.000018205603, 0.0, 0.012207031, 0.011955901 
6.1035156e-3, 2.2805458e+1, -0.0000017167995, -21220.254, -0.9655967, 0.0, 0.001329819, 0.000042221272, 0.000042221272, 0.0, 0.012207031, 0.011955941 
6.1035156e-3, 2.2817415e+1, -0.00000069321624, -21202.186, 0.34989086, 0.0, 0.0011389985, 0.0000050808885, 0.0000050808885, 0.0, 0.012207031, 0.011956149 
6.1035156e-3, 2.282937e+1, -0.0000010078593, -21204.227, -0.36216682, 0.0, 0.0013179905, 0.000005177928, 0.000005177928, 0.0, 0.012207031, 0.0119561255 
6.1035156e-3, 2.2841328e+1, -0.0000062316717, -21184.92, 1.9951237, 0.0, 0.0011818784, 0.0001816623, 0.0001816623, 0.0, 0.012207031, 0.011956347 
6.1035156e-3, 2.2853284e+1, -0.0000009674823, -21175.94, -0.42271382, 0.0, 0.0012690304, 0.000007470724, 0.000007470724, 0.0, 0.012207031, 0.01195645 
6.1035156e-3, 2.286524e+1, -0.000008625225, -21167.344, -2.1973727, 0.0, 0.001233824, 0.00021948306, 0.00021948306, 0.0, 0.012207031, 0.011956548 
6.1035156e-3, 2.2877195e+1, -0.000014515961, -21163.926, 3.8977392, 0.0, 0.0010825036, 0.0007033267, 0.0007033267, 0.0, 0.012207031, 0.011956587 
6.1035156e-3, 2.2889152e+1, -0.0000041860826, -21143.084, -1.5821363, 0.0, 0.0015187376, 0.00011420513, 0.00011420513, 0.0, 0.012207031, 0.011956827 
6.1035156e-3, 2.290111e+1, -0.0000075794264, -21156.877, 2.3400614, 0.0, 0.0011848038, 0.00025124365, 0.00025124365, 0.0, 0.012207031, 0.011956668 
6.1035156e-3, 2.2913067e+1, -0.0027417352, -21118.42, -53.26987, 0.0, 0.0010027265, 0.13162729, 0.13162729, 0.0, 0.012207031, 0.01195711 
6.1035156e-3, 2.2925024e+1, -0.000020549647, -21115.773, 4.7433295, 0.0, 0.001432917, 0.0010449655, 0.0010449655, 0.0, 0.012207031, 0.011957141 
6.1035156e-3, 2.2936982e+1, -0.000009108248, -21107.574, -2.2296925, 0.0, 0.001148201, 0.00022642466, 0.00022642466, 0.0, 0.012207031, 0.011957235 
6.1035156e-3, 2.2948939e+1, -0.0000029859348, -21105.01, 1.2942951, 0.0, 0.0010384319, 0.00007638857, 0.00007638857, 0.0, 0.012207031, 0.011957264 
6.1035156e-3, 2.2960895e+1, -0.0000003761962, -21084.852, 0.10255603, 0.0, 0.0015950362, 0.00000012263263, 0.00000012263263, 0.0, 0.012207031, 0.0119574955 
6.1035156e-3, 2.2972852e+1, -0.000070779366, -21086.275, -8.573083, 0.0, 0.0013158955, 0.003414793, 0.003414793, 0.0, 0.012207031, 0.011957479 
6.1035156e-3, 2.298481e+1, -0.000008292912, -21061.072, 2.1032069, 0.0, 0.000815776, 0.00020173812, 0.00020173812, 0.0, 0.012207031, 0.011957768 
6.1035156e-3, 2.2996768e+1, -0.000003902022, -21069.086, -1.4682107, 0.0, 0.0010953465, 0.00009841104, 0.00009841104, 0.0, 0.012207031, 0.011957676 
6.1035156e-3, 2.3008727e+1, -0.0000024697601, -21043.652, 1.2176552, 0.0, 0.0017467875, 0.000067987785, 0.000067987785, 0.0, 0.012207031, 0.011957968 
6.1035156e-3, 2.3020685e+1, -0.00000044905428, -21045.822, -0.36884177, 0.0, 0.0013923204, 0.0000060151397, 0.0000060151397, 0.0, 0.012207031, 0.0119579425 
6.1035156e-3, 2.3032643e+1, -0.0000004139634, -21027.703, 0.28479645, 0.0, 0.00062637177, 0.000003443285, 0.000003443285, 0.0, 0.012207031, 0.011958151 
6.1035156e-3, 2.30446e+1, -0.0000024573617, -21025.785, 1.1925308, 0.0, 0.0012223688, 0.00006518005, 0.00006518005, 0.0, 0.012207031, 0.011958173 
6.1035156e-3, 2.305656e+1, -0.0000083887735, -21006.13, -2.0933216, 0.0, 0.0017034757, 0.00020021677, 0.00020021677, 0.0, 0.012207031, 0.011958399 
6.1035156e-3, 2.3068517e+1, -0.0000009945375, -21009.234, 0.66138554, 0.0, 0.0010891933, 0.000019826344, 0.000019826344, 0.0, 0.012207031, 0.011958363 
6.1035156e-3, 2.3080474e+1, -0.00000037287504, -20983.973, 0.05324656, 0.0, 0.0011587474, -0.00000023776374, -0.00000023776374, 0.0, 0.012207031, 0.011958653 
6.1035156e-3, 2.3092434e+1, -0.0000022811369, -20990.344, -1.1586007, 0.0, 0.001207049, 0.00006166996, 0.00006166996, 0.0, 0.012207031, 0.0119585795 
6.1035156e-3, 2.3104393e+1, -0.0000060785374, -20968.068, 1.7670054, 0.0, 0.001291718, 0.00014282922, 0.00014282922, 0.0, 0.012207031, 0.011958836 
6.1035156e-3, 2.3116352e+1, -0.000004058571, -20966.395, -1.4912097, 0.0, 0.0014529101, 0.00010200194, 0.00010200194, 0.0, 0.012207031, 0.011958854 
6.1035156e-3, 2.3128311e+1, -0.0000005119527, -20952.389, 0.4567657, 0.0, 0.0009970671, 0.000009445619, 0.000009445619, 0.0, 0.012207031, 0.011959015 
6.1035156e-3, 2.314027e+1, -0.00000073780916, -20942.809, 0.5790624, 0.0, 0.0011378962, 0.000015273094, 0.000015273094, 0.0, 0.012207031, 0.011959125 
6.1035156e-3, 2.3152229e+1, -0.000015272482, -20931.656, -4.234033, 0.0, 0.0014855855, 0.00084118306, 0.00084118306, 0.0, 0.012207031, 0.011959254 
6.1035156e-3, 2.3164189e+1, -0.0000047736694, -20928.29, 1.5982034, 0.0, 0.0013350007, 0.00011727426, 0.00011727426, 0.0, 0.012207031, 0.011959292 
6.1035156e-3, 2.3176147e+1, -0.0000010879563, -20910.139, -0.8309975, 0.0, 0.0011644886, 0.000031937027, 0.000031937027, 0.0, 0.012207031, 0.011959501 
6.1035156e-3, 2.3188107e+1, -0.0000003911859, -20912.334, -0.37291968, 0.0, 0.0009324915, 0.000006258917, 0.000006258917, 0.0, 0.012207031, 0.011959475 
6.1035156e-3, 2.3200068e+1, -0.00006292617, -20891.52, -8.04693, 0.0, 0.0015388539, 0.003036565, 0.003036565, 0.0, 0.012207031, 0.011959715 
6.1035156e-3, 2.3212026e+1, -0.000000523822, -20884.486, 0.46134007, 0.0, 0.0016154688, 0.000009667219, 0.000009667219, 0.0, 0.012207031, 0.011959795 
6.1035156e-3, 2.3223986e+1, -0.0000016686482, -20874.375, 0.96455455, 0.0, 0.00083730096, 0.00004290109, 0.00004290109, 0.0, 0.012207031, 0.011959911 
6.1035156e-3, 2.3235947e+1, -0.000000516449, -20864.95, -0.4300941, 0.0, 0.0011669989, 0.000008349183, 0.000008349183, 0.0, 0.012207031, 0.011960019 
6.1035156e-3, 2.3247905e+1, -0.0000022394975, -20860.146, 1.2171139, 0.0, 0.001503665, 0.00006877468, 0.00006877468, 0.0, 0.012207031, 0.011960074 
6.1035156e-3, 2.3259866e+1, -0.0007087008, -20843.121, -27.077173, 0.0, 0.0012786707, 0.034467034, 0.034467034, 0.0, 0.012207031, 0.01196027 
6.1035156e-3, 2.3271827e+1, -0.0000036754682, -20836.408, -1.3889756, 0.0, 0.0012167498, 0.000088915025, 0.000088915025, 0.0, 0.012207031, 0.011960347 
6.1035156e-3, 2.3283787e+1, -0.000017263883, -20826.95, 4.4627247, 0.0, 0.0012012547, 0.0009389928, 0.0009389928, 0.0, 0.012207031, 0.011960456 
6.1035156e-3, 2.3295748e+1, -0.0000008407205, -20819.908, 0.6060516, 0.0, 0.0013167022, 0.000016800983, 0.000016800983, 0.0, 0.012207031, 0.011960536 
6.1035156e-3, 2.330771e+1, -0.000019660727, -20824.068, 4.6160674, 0.0, 0.001347369, 0.001003582, 0.001003582, 0.0, 0.012207031, 0.011960489 
6.1035156e-3, 2.3319669e+1, -0.0031569814, -20795.428, -57.147514, 0.0, 0.0012562659, 0.15388784, 0.15388784, 0.0, 0.012207031, 0.0119608175 
6.1035156e-3, 2.333163e+1, -0.00006263192, -20774.201, -8.072492, 0.0, 0.0011337916, 0.0030741969, 0.0030741969, 0.0, 0.012207031, 0.0119610615 
6.1035156e-3, 2.3343591e+1, -0.0000015922557, -20778.203, 0.9879016, 0.0, 0.0013215436, 0.000045377623, 0.000045377623, 0.0, 0.012207031, 0.011961016 
6.1035156e-3, 2.3355553e+1, -0.00000077256215, -20756.334, 0.6122471, 0.0, 0.0014333775, 0.00001728682, 0.00001728682, 0.0, 0.012207031, 0.011961267 
6.1035156e-3, 2.3367514e+1, -0.000031135638, -20759.455, -5.741136, 0.0, 0.0011864918, 0.0015566056, 0.0015566056, 0.0, 0.012207031, 0.011961231 
6.1035156e-3, 2.3379475e+1, -0.0000411515, -20750.832, -6.4801273, 0.0, 0.0011691275, 0.0019824803, 0.0019824803, 0.0, 0.012207031, 0.01196133 
6.1035156e-3, 2.3391436e+1, -0.000005999649, -20742.254, 1.8661838, 0.0, 0.0013195493, 0.00016190117, 0.00016190117, 0.0, 0.012207031, 0.011961428 
6.1035156e-3, 2.3403399e+1, -0.000000553362, -20725.451, -0.12620577, 0.0, 0.0013700102, 0.00000021515734, 0.00000021515734, 0.0, 0.012207031, 0.011961621 
6.1035156e-3, 2.341536e+1, -0.0000011776826, -20723.914, -0.7075745, 0.0, 0.0012054554, 0.000022980963, 0.000022980963, 0.0, 0.012207031, 0.011961639 
6.1035156e-3, 2.3427321e+1, -0.0000054133643, -20704.754, 1.7583433, 0.0, 0.0012431041, 0.00014391329, 0.00014391329, 0.0, 0.012207031, 0.01196186 
6.1035156e-3, 2.3439284e+1, -0.0000019104057, -20706.809, -0.96840143, 0.0, 0.0013676084, 0.000043379107, 0.000043379107, 0.0, 0.012207031, 0.011961835 
6.1035156e-3, 2.3451245e+1, -0.000084176245, -20685.033, -9.328825, 0.0, 0.0011324796, 0.0041230666, 0.0041230666, 0.0, 0.012207031, 0.011962086 
6.1035156e-3, 2.3463207e+1, -0.000008896672, -20681.305, 2.5330882, 0.0, 0.0012331777, 0.00030136114, 0.00030136114, 0.0, 0.012207031, 0.011962129 
6.1035156e-3, 2.347517e+1, -0.000007476238, -20665.135, -2.4819252, 0.0, 0.0014945208, 0.00029060806, 0.00029060806, 0.0, 0.012207031, 0.011962315 
6.1035156e-3, 2.3487131e+1, -0.00000048908095, -20666.074, 0.47004738, 0.0, 0.0011731012, 0.0000102020895, 0.0000102020895, 0.0, 0.012207031, 0.011962304 
6.1035156e-3, 2.3499094e+1, -0.00000059957137, -20640.371, 0.560335, 0.0, 0.0011847802, 0.000014612138, 0.000014612138, 0.0, 0.012207031, 0.011962599 
6.1035156e-3, 2.3511057e+1, -0.000028268327, -20648.885, -5.3439326, 0.0, 0.0013400087, 0.0013547417, 0.0013547417, 0.0, 0.012207031, 0.011962501 
6.1035156e-3, 2.3523019e+1, -0.000005518422, -20627.17, -2.533344, 0.0, 0.0012373632, 0.00030561647, 0.00030561647, 0.0, 0.012207031, 0.011962751 
6.1035156e-3, 2.3534983e+1, -0.0000023113653, -20627.082, 1.137283, 0.0, 0.0013014303, 0.00006039321, 0.00006039321, 0.0, 0.012207031, 0.011962752 
6.1035156e-3, 2.3546946e+1, -0.0000003325468, -20606.168, 0.029604347, 0.0, 0.0012549555, -0.00000029001603, -0.00000029001603, 0.0, 0.012207031, 0.011962992 
6.1035156e-3, 2.3558909e+1, -0.0000037374593, -20611.986, -1.4323288, 0.0, 0.0011057829, 0.0000957952, 0.0000957952, 0.0, 0.012207031, 0.011962925 
6.1035156e-3, 2.3570871e+1, -0.00009302562, -20582.713, -9.812001, 0.0, 0.0015164958, 0.0045844596, 0.0045844596, 0.0, 0.012207031, 0.011963261 
6.1035156e-3, 2.3582834e+1, -0.0000056420927, -20588.23, 1.7101837, 0.0, 0.0014338067, 0.00013641617, 0.00013641617, 0.0, 0.012207031, 0.011963198 
6.1035156e-3, 2.3594797e+1, -0.00000041856683, -20565.043, -0.21739732, 0.0, 0.00084416184, 0.0000018795836, 0.0000018795836, 0.0, 0.012207031, 0.011963465 
6.1035156e-3, 2.360676e+1, -0.00000034582547, -20569.377, 0.19956596, 0.0, 0.001151642, 0.0000015903825, 0.0000015903825, 0.0, 0.012207031, 0.011963415 
6.1035156e-3, 2.3618725e+1, -0.00000029537583, -20545.4, 0.01196128, 0.0, 0.0017764465, -0.00000028841168, -0.00000028841168, 0.0, 0.012207031, 0.011963691 
6.1035156e-3, 2.3630688e+1, -0.00000034107276, -20550.686, -0.16711888, 0.0, 0.0012496379, 0.0000010179465, 0.0000010179465, 0.0, 0.012207031, 0.01196363 
6.1035156e-3, 2.3642653e+1, -0.00000026776885, -20525.854, -0.010207646, 0.0, 0.00094296894, -0.0000002626948, -0.0000002626948, 0.0, 0.012207031, 0.011963915 
6.1035156e-3, 2.3654616e+1, -0.0000006261185, -20530.053, -0.47458634, 0.0, 0.0013651587, 0.000010344738, 0.000010344738, 0.0, 0.012207031, 0.011963867 
6.1035156e-3, 2.366658e+1, -0.00000059640615, -20507.578, 0.4596107, 0.0, 0.0013988648, 0.000009704272, 0.000009704272, 0.0, 0.012207031, 0.011964126 
6.1035156e-3, 2.3678543e+1, -0.0000016874742, -20508.318, -0.9754493, 0.0, 0.0011707239, 0.000044708402, 0.000044708402, 0.0, 0.012207031, 0.011964117 
6.1035156e-3, 2.3690508e+1, -0.0001380869, -20490.678, -11.944982, 0.0, 0.001336127, 0.0068252035, 0.0068252035, 0.0, 0.012207031, 0.011964319 
6.1035156e-3, 2.3702472e+1, -0.0000044975804, -20489.848, -1.5829567, 0.0, 0.0013537116, 0.00011779477, 0.00011779477, 0.0, 0.012207031, 0.0119643295 
6.1035156e-3, 2.3714438e+1, -0.0000007705158, -20468.85, 0.3537414, 0.0, 0.001203875, 0.0000053428193, 0.0000053428193, 0.0, 0.012207031, 0.011964571 
6.1035156e-3, 2.3726402e+1, -0.0000013644005, -20471.219, -0.9157252, 0.0, 0.0011668269, 0.000039598108, 0.000039598108, 0.0, 0.012207031, 0.011964544 
6.1035156e-3, 2.3738365e+1, -0.0000010443529, -20453.145, 0.7817671, 0.0, 0.0014378212, 0.000028836614, 0.000028836614, 0.0, 0.012207031, 0.011964751 
6.1035156e-3, 2.375033e+1, -0.0000006703534, -20447.68, 0.56550574, 0.0, 0.0014329479, 0.000014969402, 0.000014969402, 0.0, 0.012207031, 0.011964814 
6.1035156e-3, 2.3762295e+1, -0.0000023940381, -20432.3, -1.2744288, 0.0, 0.0010952844, 0.00007709621, 0.00007709621, 0.0, 0.012207031, 0.011964991 
6.1035156e-3, 2.3774262e+1, -0.00000078624686, -20429.225, -0.6093071, 0.0, 0.0011852116, 0.000017386501, 0.000017386501, 0.0, 0.012207031, 0.011965026 
6.1035156e-3, 2.3786226e+1, -0.0000015333659, -20416.342, 0.9941621, 0.0, 0.0015033719, 0.00004687679, 0.00004687679, 0.0, 0.012207031, 0.011965174 
6.1035156e-3, 2.3798192e+1, -0.000002352457, -20406.688, 1.2415189, 0.0, 0.0012998799, 0.00007318009, 0.00007318009, 0.0, 0.012207031, 0.011965285 
6.1035156e-3, 2.3810156e+1, -0.0000049709793, -20392.453, -1.7073398, 0.0, 0.0012013699, 0.00013797451, 0.00013797451, 0.0, 0.012207031, 0.011965449 
6.1035156e-3, 2.3822123e+1, -0.00000074324925, -20391.242, -0.56228286, 0.0, 0.0013620757, 0.000014761543, 0.000014761543, 0.0, 0.012207031, 0.011965463 
6.1035156e-3, 2.3834087e+1, -0.0000075805215, -20376.924, 1.971822, 0.0, 0.0013399441, 0.00018322757, 0.00018322757, 0.0, 0.012207031, 0.011965628 
6.1035156e-3, 2.3846054e+1, -0.0000012904967, -20369.846, -0.7180153, 0.0, 0.0011297954, 0.000024018776, 0.000024018776, 0.0, 0.012207031, 0.011965709 
6.1035156e-3, 2.3858018e+1, -0.000005822454, -20362.33, 2.5996172, 0.0, 0.0013601707, 0.00032606538, 0.00032606538, 0.0, 0.012207031, 0.011965795 
6.1035156e-3, 2.3869985e+1, -0.00043065634, -20346.059, -21.102365, 0.0, 0.0015795516, 0.021456107, 0.021456107, 0.0, 0.012207031, 0.011965983 
6.1035156e-3, 2.3881951e+1, -0.00001410954, -20334.523, 4.1330867, 0.0, 0.0011296816, 0.0008259596, 0.0008259596, 0.0, 0.012207031, 0.011966115 
6.1035156e-3, 2.3893917e+1, -0.0000002975699, -20329.895, -0.11328168, 0.0, 0.0010869588, 0.00000033365723, 0.00000033365723, 0.0, 0.012207031, 0.011966168 
6.1035156e-3, 2.3905884e+1, -0.0000014226935, -20320.822, 0.92791665, 0.0, 0.0015286024, 0.000040949082, 0.000040949082, 0.0, 0.012207031, 0.011966272 
6.1035156e-3, 2.3917851e+1, -0.00010547621, -20307.17, -10.443652, 0.0, 0.0013478163, 0.005265525, 0.005265525, 0.0, 0.012207031, 0.01196643 
6.1035156e-3, 2.3929815e+1, -0.000009488978, -20298.455, 2.322539, 0.0, 0.00119699, 0.00025625475, 0.00025625475, 0.0, 0.012207031, 0.01196653 
6.1035156e-3, 2.3941782e+1, -0.0000013767434, -20287.69, -0.8973401, 0.0, 0.001379384, 0.0000383133, 0.0000383133, 0.0, 0.012207031, 0.011966654 
6.1035156e-3, 2.3953749e+1, -0.0000006076073, -20282.164, 0.5435835, 0.0, 0.0013003692, 0.000013961006, 0.000013961006, 0.0, 0.012207031, 0.011966717 
6.1035156e-3, 2.3965715e+1, -0.0000012645556, -20267.393, 0.91048574, 0.0, 0.0012563551, 0.000039637805, 0.000039637805, 0.0, 0.012207031, 0.011966887 
6.1035156e-3, 2.3977682e+1, -0.00000049552943, -20262.68, -0.46138668, 0.0, 0.0013561416, 0.000010010368, 0.000010010368, 0.0, 0.012207031, 0.011966942 
6.1035156e-3, 2.398965e+1, -0.00000036182, -20247.916, -0.21668962, 0.0, 0.0013021928, 0.0000019571562, 0.0000019571562, 0.0, 0.012207031, 0.011967111 
6.1035156e-3, 2.4001618e+1, -0.00000033453108, -20243.855, -0.1492543, 0.0, 0.0012803709, 0.00000076589276, 0.00000076589276, 0.0, 0.012207031, 0.011967158 
6.1035156e-3, 2.4013585e+1, -0.0000006090966, -20226.547, 0.5283516, 0.0, 0.0013660166, 0.000013192344, 0.000013192344, 0.0, 0.012207031, 0.011967357 
6.1035156e-3, 2.4025553e+1, -0.0000003455924, -20225.709, 0.14698765, 0.0, 0.0013256957, 0.000000722619, 0.000000722619, 0.0, 0.012207031, 0.011967367 
6.1035156e-3, 2.4037519e+1, -0.0000004266201, -20207.238, -0.252078, 0.0, 0.0012042719, 0.000002717963, 0.000002717963, 0.0, 0.012207031, 0.011967579 
6.1035156e-3, 2.4049486e+1, -0.0000004401068, -20205.44, -0.33773416, 0.0, 0.001322094, 0.000005205122, 0.000005205122, 0.0, 0.012207031, 0.0119676 
6.1035156e-3, 2.4061455e+1, -0.00000067279393, -20187.07, -0.57210386, 0.0, 0.0014219945, 0.000015540696, 0.000015540696, 0.0, 0.012207031, 0.011967812 
6.1035156e-3, 2.4073423e+1, -0.00000031664, -20188.371, 0.18250957, 0.0, 0.0012521849, 0.0000013333083, 0.0000013333083, 0.0, 0.012207031, 0.011967796 
6.1035156e-3, 2.408539e+1, -0.000025636487, -20164.508, -4.9837155, 0.0, 0.0012768841, 0.0012061029, 0.0012061029, 0.0, 0.012207031, 0.011968071 
6.1035156e-3, 2.4097359e+1, -0.00000034313874, -20169.371, 0.20785034, 0.0, 0.0013217846, 0.0000017988095, 0.0000017988095, 0.0, 0.012207031, 0.011968015 
6.1035156e-3, 2.4109328e+1, -0.0000008644974, -20146.572, 0.64536315, 0.0, 0.0013384676, 0.000019808675, 0.000019808675, 0.0, 0.012207031, 0.011968277 
6.1035156e-3, 2.4121293e+1, -0.0000025640056, -20148.99, -1.1516122, 0.0, 0.0012756775, 0.000063256186, 0.000063256186, 0.0, 0.012207031, 0.011968249 
6.1035156e-3, 2.4133262e+1, -0.0000020372272, -20128.004, 1.0955487, 0.0, 0.0013293892, 0.00005759248, 0.00005759248, 0.0, 0.012207031, 0.011968491 
6.1035156e-3, 2.414523e+1, -0.00000057444305, -20127.357, -0.46978098, 0.0, 0.0013928836, 0.000010390442, 0.000010390442, 0.0, 0.012207031, 0.011968498 
6.1035156e-3, 2.41572e+1, -0.0000012931357, -20108.36, -0.7585546, 0.0, 0.0011636245, 0.000027322087, 0.000027322087, 0.0, 0.012207031, 0.011968717 
6.1035156e-3, 2.4169168e+1, -0.000016822867, -20109.844, 4.3972073, 0.0, 0.0012850068, 0.0009446679, 0.0009446679, 0.0, 0.012207031, 0.0119687 
6.1035156e-3, 2.4181136e+1, -0.00000059698914, -20093.783, 0.33194318, 0.0, 0.0014931632, 0.000004886613, 0.000004886613, 0.0, 0.012207031, 0.011968885 
6.1035156e-3, 2.4193108e+1, -0.0000328, -20108.998, 5.846347, 0.0, 0.0012195759, 0.001666925, 0.001666925, 0.0, 0.012207031, 0.0119687095 
6.1035156e-3, 2.4205077e+1, -0.004806865, -20065.188, -70.475716, 0.0, 0.0013106384, 0.24272466, 0.24272466, 0.0, 0.012207031, 0.011969214 
6.1035156e-3, 2.4217045e+1, -0.000019261237, -20057.791, -4.5379634, 0.0, 0.0013407817, 0.0010074277, 0.0010074277, 0.0, 0.012207031, 0.011969299 
6.1035156e-3, 2.4229014e+1, -0.0000018791151, -20049.375, 0.9964612, 0.0, 0.0013008708, 0.00004764537, 0.00004764537, 0.0, 0.012207031, 0.011969396 
6.1035156e-3, 2.4240984e+1, -0.00001620252, -20062.63, 4.2387695, 0.0, 0.0012450353, 0.0008793512, 0.0008793512, 0.0, 0.012207031, 0.011969243 
6.1035156e-3, 2.4252953e+1, -0.0025205181, -20024.94, -51.03164, 0.0, 0.0014230403, 0.1275279, 0.1275279, 0.0, 0.012207031, 0.011969677 
6.1035156e-3, 2.4264923e+1, -0.000050750416, -20022.287, -7.2220125, 0.0, 0.0013549996, 0.0025542197, 0.0025542197, 0.0, 0.012207031, 0.011969708 
6.1035156e-3, 2.4276891e+1, -0.0000028639047, -20009.242, 1.3084557, 0.0, 0.0012142622, 0.000082699364, 0.000082699364, 0.0, 0.012207031, 0.011969858 
6.1035156e-3, 2.4288863e+1, -0.0000002968304, -20007.617, -0.0022162565, 0.0, 0.0013043497, -0.00000029658622, -0.00000029658622, 0.0, 0.012207031, 0.0119698765 
6.1035156e-3, 2.4300833e+1, -0.0000005716057, -19989.342, 0.1905395, 0.0, 0.0014241574, 0.0000012446253, 0.0000012446253, 0.0, 0.012207031, 0.011970087 
6.1035156e-3, 2.4312803e+1, -0.0000005214093, -19990.877, 0.277159, 0.0, 0.0012767441, 0.0000033211982, 0.0000033211982, 0.0, 0.012207031, 0.011970069 
6.1035156e-3, 2.4324772e+1, -0.000002670434, -19974.563, 1.2454466, 0.0, 0.0013070775, 0.00007498519, 0.00007498519, 0.0, 0.012207031, 0.011970257 
6.1035156e-3, 2.4336742e+1, -0.0000007488043, -19970.53, -0.5390436, 0.0, 0.0014328546, 0.000013801036, 0.000013801036, 0.0, 0.012207031, 0.011970303 
6.1035156e-3, 2.4348713e+1, -0.0000012833547, -19953.684, -0.83701295, 0.0, 0.00125634, 0.00003382749, 0.00003382749, 0.0, 0.012207031, 0.011970498 
6.1035156e-3, 2.4360684e+1, -0.0000007622443, -19950.898, 0.54310334, 0.0, 0.0011822394, 0.000014022116, 0.000014022116, 0.0, 0.012207031, 0.011970529 
6.1035156e-3, 2.4372654e+1, -0.0000003529921, -19933.652, -0.14977343, 0.0, 0.0015314368, 0.00000077234654, 0.00000077234654, 0.0, 0.012207031, 0.011970728 
6.1035156e-3, 2.4384624e+1, -0.00000078061436, -19932.188, -0.60527384, 0.0, 0.0013575474, 0.000017599526, 0.000017599526, 0.0, 0.012207031, 0.0119707445 
6.1035156e-3, 2.4396597e+1, -0.0000016282436, -19917.44, 0.96619105, 0.0, 0.001211599, 0.00004524149, 0.00004524149, 0.0, 0.012207031, 0.011970915 
6.1035156e-3, 2.4408567e+1, -0.000100262274, -19911.12, -10.176804, 0.0, 0.0013944535, 0.0051012184, 0.0051012184, 0.0, 0.012207031, 0.011970988 
6.1035156e-3, 2.4420539e+1, -0.000008649721, -19895.068, 2.069301, 0.0, 0.0013474253, 0.00020657983, 0.00020657983, 0.0, 0.012207031, 0.011971172 
6.1035156e-3, 2.4432509e+1, -0.00000052410303, -19891.285, 0.36136898, 0.0, 0.0012785312, 0.000006040962, 0.000006040962, 0.0, 0.012207031, 0.011971216 
6.1035156e-3, 2.444448e+1, -0.00000034731002, -19879.98, -0.076154344, 0.0, 0.0013897624, -0.000000055584678, -0.000000055584678, 0.0, 0.012207031, 0.011971346 
6.1035156e-3, 2.4456452e+1, -0.00008546712, -19869.86, -9.395619, 0.0, 0.0013522042, 0.0043573244, 0.0043573244, 0.0, 0.012207031, 0.0119714625 
6.1035156e-3, 2.4468423e+1, -0.000009066846, -19857.693, 2.1304016, 0.0, 0.0013269493, 0.00021948996, 0.00021948996, 0.0, 0.012207031, 0.011971603 
6.1035156e-3, 2.4480395e+1, -0.00000036364278, -19851.01, -0.24870789, 0.0, 0.0013175835, 0.0000027523492, 0.0000027523492, 0.0, 0.012207031, 0.0119716795 
6.1035156e-3, 2.4492367e+1, -0.00000033453486, -19839.02, -0.11053405, 0.0, 0.00136704, 0.00000028131035, 0.00000028131035, 0.0, 0.012207031, 0.011971817 
6.1035156e-3, 2.450434e+1, -0.0000003700234, -19831.482, 0.20740674, 0.0, 0.0013652958, 0.0000017991333, 0.0000017991333, 0.0, 0.012207031, 0.011971905 
6.1035156e-3, 2.451631e+1, -0.0000006542173, -19821.344, 0.4965179, 0.0, 0.0013426418, 0.000011783388, 0.000011783388, 0.0, 0.012207031, 0.011972021 
6.1035156e-3, 2.4528283e+1, -0.0000016524281, -19811.045, -0.9579159, 0.0, 0.001293535, 0.000044665314, 0.000044665314, 0.0, 0.012207031, 0.01197214 
6.1035156e-3, 2.4540254e+1, -0.0000005241027, -19801.658, -0.32454184, 0.0, 0.0013452894, 0.00000479502, 0.00000479502, 0.0, 0.012207031, 0.011972249 
6.1035156e-3, 2.4552228e+1, -0.0000026524474, -19789.584, 1.2324743, 0.0, 0.0014603593, 0.000074104755, 0.000074104755, 0.0, 0.012207031, 0.011972387 
6.1035156e-3, 2.4564199e+1, -0.00000040754395, -19783.26, -0.26841596, 0.0, 0.0013188067, 0.0000032342796, 0.0000032342796, 0.0, 0.012207031, 0.01197246 
6.1035156e-3, 2.4576172e+1, -0.0000005674203, -19771.75, 0.43044105, 0.0, 0.0012079182, 0.000008803498, 0.000008803498, 0.0, 0.012207031, 0.011972592 
6.1035156e-3, 2.4588144e+1, -0.0000003462136, -19763.488, 0.08328474, 0.0, 0.0014639884, 0.0000000047548383, 0.0000000047548383, 0.0, 0.012207031, 0.011972688 
6.1035156e-3, 2.4600118e+1, -0.000006464525, -19750.584, -1.806452, 0.0, 0.0013486408, 0.00015875939, 0.00015875939, 0.0, 0.012207031, 0.011972836 
6.1035156e-3, 2.4612091e+1, -0.0000008843886, -19743.89, 0.6628498, 0.0, 0.0012682197, 0.00002136907, 0.00002136907, 0.0, 0.012207031, 0.0119729135 
6.1035156e-3, 2.4624063e+1, -0.0000029914352, -19729.514, 1.3004252, 0.0, 0.0014898761, 0.00008272307, 0.00008272307, 0.0, 0.012207031, 0.011973079 
6.1035156e-3, 2.4636036e+1, -0.00000031476637, -19728.416, -0.09390469, 0.0, 0.0013139615, 0.00000013220779, 0.00000013220779, 0.0, 0.012207031, 0.011973091 
6.1035156e-3, 2.464801e+1, -0.0000006435159, -19709.947, -0.415101, 0.0, 0.0012444574, 0.000008098712, 0.000008098712, 0.0, 0.012207031, 0.011973305 
6.1035156e-3, 2.4659982e+1, -0.0000006967825, -19706.783, -0.4745108, 0.0, 0.0014104934, 0.000010728752, 0.000010728752, 0.0, 0.012207031, 0.011973341 
6.1035156e-3, 2.4671957e+1, -0.0000005810395, -19689.258, 0.2771962, 0.0, 0.0013825628, 0.000003321482, 0.000003321482, 0.0, 0.012207031, 0.011973543 
6.1035156e-3, 2.468393e+1, -0.00000058455106, -19689.156, 0.40928635, 0.0, 0.0013673884, 0.000007923449, 0.000007923449, 0.0, 0.012207031, 0.011973544 
6.1035156e-3, 2.4695903e+1, -0.00000917812, -19674.86, 2.1989453, 0.0, 0.0012707536, 0.0002365853, 0.0002365853, 0.0, 0.012207031, 0.011973709 
6.1035156e-3, 2.4707878e+1, -0.00015579685, -19669.479, -12.684877, 0.0, 0.0013368882, 0.008024698, 0.008024698, 0.0, 0.012207031, 0.011973771 
6.1035156e-3, 2.471985e+1, -0.000165942, -19646.385, -13.089009, 0.0, 0.0014752246, 0.008554343, 0.008554343, 0.0, 0.012207031, 0.011974037 
6.1035156e-3, 2.4731825e+1, -0.000004388256, -19649.451, 2.520368, 0.0, 0.001280534, 0.0003188908, 0.0003188908, 0.0, 0.012207031, 0.011974001 
6.1035156e-3, 2.47438e+1, -0.0000008374656, -19627.096, -0.59232175, 0.0, 0.0013404883, 0.00001703808, 0.00001703808, 0.0, 0.012207031, 0.011974259 
6.1035156e-3, 2.4755773e+1, -0.00000048091766, -19631.006, 0.33191675, 0.0, 0.0014257001, 0.0000051310562, 0.0000051310562, 0.0, 0.012207031, 0.011974215 
6.1035156e-3, 2.4767748e+1, -0.0000019370789, -19609.41, 1.0851637, 0.0, 0.0012573686, 0.00005811471, 0.00005811471, 0.0, 0.012207031, 0.011974463 
6.1035156e-3, 2.4779722e+1, -0.0000004517727, -19612.043, -0.26433775, 0.0, 0.0012968829, 0.0000031110649, 0.0000031110649, 0.0, 0.012207031, 0.0119744325 
6.1035156e-3, 2.4791697e+1, -0.0000004550596, -19589.98, 0.11816514, 0.0, 0.0015295298, 0.00000025769987, 0.00000025769987, 0.0, 0.012207031, 0.011974687 
6.1035156e-3, 2.4803673e+1, -0.0000005784129, -19594.21, -0.48768666, 0.0, 0.0013190128, 0.0000115597795, 0.0000115597795, 0.0, 0.012207031, 0.011974638 
6.1035156e-3, 2.4815647e+1, -0.000009265526, -19573.201, 2.2964308, 0.0, 0.001252011, 0.00026016383, 0.00026016383, 0.0, 0.012207031, 0.0119748805 
6.1035156e-3, 2.4827622e+1, -0.003173919, -19571.406, -57.24482, 0.0, 0.0014213913, 0.16426127, 0.16426127, 0.0, 0.012207031, 0.011974901 
6.1035156e-3, 2.4839596e+1, -0.000008011353, -19547.498, 2.3345716, 0.0, 0.0013468955, 0.0002708082, 0.0002708082, 0.0, 0.012207031, 0.011975177 
6.1035156e-3, 2.4851573e+1, -0.0000030865913, -19552.814, -1.2985691, 0.0, 0.0012927916, 0.00008315581, 0.00008315581, 0.0, 0.012207031, 0.011975115 
6.1035156e-3, 2.4863547e+1, -0.0000015425421, -19532.537, 0.9572482, 0.0, 0.0014468161, 0.00004537016, 0.00004537016, 0.0, 0.012207031, 0.011975349 
6.1035156e-3, 2.4875523e+1, -0.0000007264232, -19532.695, 0.5138328, 0.0, 0.0013618866, 0.00001279061, 0.00001279061, 0.0, 0.012207031, 0.011975347 
6.1035156e-3, 2.4887496e+1, -0.000004733448, -19511.912, -1.6344033, 0.0, 0.0012951982, 0.00013217135, 0.00013217135, 0.0, 0.012207031, 0.011975586 
6.1035156e-3, 2.4899474e+1, -0.0000003805267, -19514.16, 0.05647992, 0.0, 0.0013330949, -0.00000021705637, -0.00000021705637, 0.0, 0.012207031, 0.011975561 
6.1035156e-3, 2.491145e+1, -0.00000094490326, -19492.041, 0.6777721, 0.0, 0.0014467331, 0.000022622407, 0.000022622407, 0.0, 0.012207031, 0.0119758155 
6.1035156e-3, 2.4923426e+1, -0.0000007169139, -19493.744, -0.49162024, 0.0, 0.0012859356, 0.000011681444, 0.000011681444, 0.0, 0.012207031, 0.011975796 
6.1035156e-3, 2.49354e+1, -0.0000008753453, -19475.188, 0.66296124, 0.0, 0.0013800692, 0.00002169274, 0.00002169274, 0.0, 0.012207031, 0.01197601 
6.1035156e-3, 2.4947377e+1, -0.00000045310452, -19473.068, 0.28522256, 0.0, 0.0014488222, 0.000003724559, 0.000003724559, 0.0, 0.012207031, 0.011976034 
6.1035156e-3, 2.4959353e+1, -0.00000093342555, -19455.383, -0.7036542, 0.0, 0.0012502016, 0.000024516052, 0.000024516052, 0.0, 0.012207031, 0.011976238 
6.1035156e-3, 2.4971329e+1, -0.00000045705596, -19454.06, -0.37986946, 0.0, 0.0013237355, 0.0000069604575, 0.0000069604575, 0.0, 0.012207031, 0.011976254 
6.1035156e-3, 2.4983305e+1, -0.0000005804012, -19434.707, -0.4472402, 0.0, 0.0014804411, 0.000009711694, 0.000009711694, 0.0, 0.012207031, 0.011976477 
6.1035156e-3, 2.4995281e+1, -0.0000011918601, -19432.725, 0.75509435, 0.0, 0.0012927097, 0.000028148723, 0.000028148723, 0.0, 0.012207031, 0.0119765 
6.1035156e-3, 2.500726e+1, -0.0000005459937, -19418.633, 0.5305437, 0.0, 0.00138548, 0.000013949186, 0.000013949186, 0.0, 0.012207031, 0.011976662 
6.1035156e-3, 2.5019234e+1, -0.00000066030185, -19413.893, -0.40839392, 0.0, 0.0013827858, 0.000007930743, 0.000007930743, 0.0, 0.012207031, 0.011976717 
6.1035156e-3, 2.5031212e+1, -0.00000083123456, -19396.725, -0.63067394, 0.0, 0.0013434109, 0.000019674782, 0.000019674782, 0.0, 0.012207031, 0.011976915 
6.1035156e-3, 2.504319e+1, -0.00000071789594, -19393.941, -0.6117332, 0.0, 0.001345256, 0.000018577692, 0.000018577692, 0.0, 0.012207031, 0.011976947 
6.1035156e-3, 2.5055167e+1, -0.000000875428, -19380.133, 0.67977804, 0.0, 0.0013589992, 0.000022968485, 0.000022968485, 0.0, 0.012207031, 0.011977106 
6.1035156e-3, 2.5067142e+1, -0.00000042575437, -19371.396, 0.24789524, 0.0, 0.0014814169, 0.0000027465576, 0.0000027465576, 0.0, 0.012207031, 0.011977207 
6.1035156e-3, 2.507912e+1, -0.0000003767857, -19360.525, 0.05923, 0.0, 0.001321844, -0.00000019558138, -0.00000019558138, 0.0, 0.012207031, 0.011977333 
6.1035156e-3, 2.50911e+1, -0.0000013445156, -19355.025, 0.7680358, 0.0, 0.0011954618, 0.000029132272, 0.000029132272, 0.0, 0.012207031, 0.011977396 
6.1035156e-3, 2.5103074e+1, -0.0000028612785, -19341.326, -1.20133, 0.0, 0.0015383218, 0.00007175583, 0.00007175583, 0.0, 0.012207031, 0.011977554 
6.1035156e-3, 2.5115052e+1, -0.00000039779638, -19333.74, -0.090436295, 0.0, 0.0014018648, 0.000000025233021, 0.000000025233021, 0.0, 0.012207031, 0.011977641 
6.1035156e-3, 2.5127032e+1, -0.00000064267914, -19318.793, 0.34388256, 0.0, 0.0012597716, 0.000005478574, 0.000005478574, 0.0, 0.012207031, 0.011977814 
6.1035156e-3, 2.513901e+1, -0.0000006643427, -19315.813, -0.4698026, 0.0, 0.0014724778, 0.00001076228, 0.00001076228, 0.0, 0.012207031, 0.011977848 
6.1035156e-3, 2.5150985e+1, -0.0000016784126, -19303.615, 0.98104054, 0.0, 0.0013614816, 0.000048179627, 0.000048179627, 0.0, 0.012207031, 0.011977989 
6.1035156e-3, 2.5162965e+1, -0.0000027167703, -19293.162, -1.1469288, 0.0, 0.0012641394, 0.000065465196, 0.000065465196, 0.0, 0.012207031, 0.011978109 
6.1035156e-3, 2.5174943e+1, -0.0000014438164, -19282.434, 0.84843403, 0.0, 0.0014933429, 0.00003588759, 0.00003588759, 0.0, 0.012207031, 0.011978233 
6.1035156e-3, 2.518692e+1, -0.000070411246, -19269.535, -8.531679, 0.0, 0.0013225527, 0.0037070303, 0.0037070303, 0.0, 0.012207031, 0.011978382 
6.1035156e-3, 2.51989e+1, -0.00012832285, -19264.586, -11.510789, 0.0, 0.0013168043, 0.0067494893, 0.0067494893, 0.0, 0.012207031, 0.011978439 
6.1035156e-3, 2.5210878e+1, -0.000028935541, -19257.12, -5.5290203, 0.0, 0.0015616659, 0.0015585327, 0.0015585327, 0.0, 0.012207031, 0.011978525 
6.1035156e-3, 2.5222856e+1, -0.000004168762, -19244.836, 2.6619308, 0.0, 0.001272674, 0.00036402745, 0.00036402745, 0.0, 0.012207031, 0.011978667 
6.1035156e-3, 2.5234833e+1, -0.0000012031509, -19235.842, -0.8072733, 0.0, 0.0013196327, 0.0000326758, 0.0000326758, 0.0, 0.012207031, 0.011978771 
6.1035156e-3, 2.5246814e+1, -0.0000037375987, -19228.027, -1.3254057, 0.0, 0.0015487148, 0.000087623834, 0.000087623834, 0.0, 0.012207031, 0.011978861 
6.1035156e-3, 2.525879e+1, -0.000008263863, -19212.268, 2.0458608, 0.0, 0.0011468387, 0.00020959415, 0.00020959415, 0.0, 0.012207031, 0.011979043 
6.1035156e-3, 2.5270772e+1, -0.0000005664797, -19207.63, -0.40099007, 0.0, 0.0013653946, 0.000007804829, 0.000007804829, 0.0, 0.012207031, 0.011979097 
6.1035156e-3, 2.5282753e+1, -0.000004463363, -19193.717, -1.5441955, 0.0, 0.0017019765, 0.00011977206, 0.00011977206, 0.0, 0.012207031, 0.011979257 
6.1035156e-3, 2.529473e+1, -0.0000013368291, -19187.268, 0.7945498, 0.0, 0.0012387724, 0.000031565687, 0.000031565687, 0.0, 0.012207031, 0.011979331 
6.1035156e-3, 2.530671e+1, -0.0000007501087, -19173.178, 0.57256585, 0.0, 0.0012273152, 0.000016348342, 0.000016348342, 0.0, 0.012207031, 0.011979493 
6.1035156e-3, 2.5318688e+1, -0.000000674731, -19170.986, -0.38532335, 0.0, 0.0015062508, 0.0000070699934, 0.0000070699934, 0.0, 0.012207031, 0.011979519 
6.1035156e-3, 2.533067e+1, -0.000000366366, -19152.113, 0.10022807, 0.0, 0.0013593424, 0.00000015815021, 0.00000015815021, 0.0, 0.012207031, 0.011979736 
6.1035156e-3, 2.534265e+1, -0.0000014359368, -19150.492, 0.81745976, 0.0, 0.0014227822, 0.00003345823, 0.00003345823, 0.0, 0.012207031, 0.011979755 
6.1035156e-3, 2.535463e+1, -0.0000017875409, -19135.941, 1.0524642, 0.0, 0.0013187536, 0.0000560973, 0.0000560973, 0.0, 0.012207031, 0.011979924 
6.1035156e-3, 2.536661e+1, -0.000006054978, -19136.25, 2.7818122, 0.0, 0.0012508386, 0.0003983335, 0.0003983335, 0.0, 0.012207031, 0.01197992 
6.1035156e-3, 2.537859e+1, -0.0010634301, -19113.17, -33.12292, 0.0, 0.0016764583, 0.05633808, 0.05633808, 0.0, 0.012207031, 0.011980186 
6.1035156e-3, 2.5390568e+1, -0.00011954812, -19111.512, -11.104864, 0.0, 0.0013392485, 0.006333001, 0.006333001, 0.0, 0.012207031, 0.011980205 
6.1035156e-3, 2.540255e+1, -0.000014998171, -19090.246, 4.159167, 0.0, 0.0011501596, 0.00089115405, 0.00089115405, 0.0, 0.012207031, 0.011980451 
6.1035156e-3, 2.541453e+1, -0.0000008536256, -19095.021, -0.38694698, 0.0, 0.0015639955, 0.0000069875787, 0.0000069875787, 0.0, 0.012207031, 0.011980396 
6.1035156e-3, 2.542651e+1, -0.00012289583, -19073.367, -11.2615185, 0.0, 0.0013167296, 0.0065262574, 0.0065262574, 0.0, 0.012207031, 0.011980645 
6.1035156e-3, 2.543849e+1, -0.00010479564, -19071.166, -10.399332, 0.0, 0.0012276466, 0.005565863, 0.005565863, 0.0, 0.012207031, 0.0119806705 
6.1035156e-3, 2.545047e+1, -0.0000044803373, -19050.955, 1.5873169, 0.0, 0.0016656154, 0.00012777417, 0.00012777417, 0.0, 0.012207031, 0.011980904 
6.1035156e-3, 2.5462452e+1, -0.00000031827457, -19054.398, 0.15096495, 0.0, 0.0013413302, 0.00000087779335, 0.00000087779335, 0.0, 0.012207031, 0.011980864 
6.1035156e-3, 2.5474435e+1, -0.00000057789293, -19030.86, 0.029025903, 0.0, 0.0012092593, -0.000000533626, -0.000000533626, 0.0, 0.012207031, 0.011981136 
6.1035156e-3, 2.5486413e+1, -0.0000009638378, -19037.977, -0.64183843, 0.0, 0.0014447798, 0.000020674834, 0.000020674834, 0.0, 0.012207031, 0.011981054 
6.1035156e-3, 2.5498396e+1, -0.0000014350309, -19013.549, 0.9619799, 0.0, 0.0014126061, 0.00004723581, 0.00004723581, 0.0, 0.012207031, 0.011981336 
6.1035156e-3, 2.5510377e+1, -0.0000004571665, -19013.375, 0.23878866, 0.0, 0.001359477, 0.0000025417758, 0.0000025417758, 0.0, 0.012207031, 0.011981338 
6.1035156e-3, 2.5522357e+1, -0.00000051082253, -18996.008, 0.20887548, 0.0, 0.0013858513, 0.0000017859202, 0.0000017859202, 0.0, 0.012207031, 0.0119815385 
6.1035156e-3, 2.553434e+1, -0.00000041419645, -18997.139, 0.02469605, 0.0, 0.0013418747, -0.00000038209328, -0.00000038209328, 0.0, 0.012207031, 0.011981525 
6.1035156e-3, 2.554632e+1, -0.0000030246526, -18974.695, -1.224232, 0.0, 0.0014327171, 0.0000759618, 0.0000759618, 0.0, 0.012207031, 0.011981784 
6.1035156e-3, 2.5558305e+1, -0.0000022759543, -18975.709, 1.0967431, 0.0, 0.0013347233, 0.00006111274, 0.00006111274, 0.0, 0.012207031, 0.011981773 
6.1035156e-3, 2.5570285e+1, -0.000026102172, -18954.879, -5.178263, 0.0, 0.0014028247, 0.001388542, 0.001388542, 0.0, 0.012207031, 0.0119820135 
6.1035156e-3, 2.558227e+1, -0.0000015490762, -18957.514, -0.903416, 0.0, 0.0013788894, 0.000041503004, 0.000041503004, 0.0, 0.012207031, 0.011981983 
6.1035156e-3, 2.559425e+1, -0.000001505372, -18938.607, 0.97487086, 0.0, 0.0013502755, 0.00004867642, 0.00004867642, 0.0, 0.012207031, 0.011982202 
6.1035156e-3, 2.5606233e+1, -0.000002424885, -18933.547, 1.1890178, 0.0, 0.0014331201, 0.000072244875, 0.000072244875, 0.0, 0.012207031, 0.011982259 
6.1035156e-3, 2.5618213e+1, -0.000042897642, -18918.945, -6.6360626, 0.0, 0.0013449703, 0.0022847864, 0.0022847864, 0.0, 0.012207031, 0.011982428 
6.1035156e-3, 2.5630197e+1, -0.000001007481, -18916.076, 0.5508963, 0.0, 0.0013195256, 0.00001503637, 0.00001503637, 0.0, 0.012207031, 0.011982461 
6.1035156e-3, 2.564218e+1, -0.00000037300413, -18898.387, 0.107841015, 0.0, 0.0014667816, 0.00000024237306, 0.00000024237306, 0.0, 0.012207031, 0.011982665 
6.1035156e-3, 2.565416e+1, -0.0000006756556, -18897.584, 0.47723615, 0.0, 0.0013740378, 0.000011376378, 0.000011376378, 0.0, 0.012207031, 0.011982675 
6.1035156e-3, 2.5666144e+1, -0.0000014762938, -18877.26, -0.95176435, 0.0, 0.0013805458, 0.000046510297, 0.000046510297, 0.0, 0.012207031, 0.011982909 
6.1035156e-3, 2.5678128e+1, -0.0000030935012, -18877.305, -1.2962191, 0.0, 0.001292222, 0.000085912005, 0.000085912005, 0.0, 0.012207031, 0.011982909 
6.1035156e-3, 2.5690112e+1, -0.000007046898, -18861.121, 1.8889209, 0.0, 0.0014405488, 0.0001821265, 0.0001821265, 0.0, 0.012207031, 0.011983096 
6.1035156e-3, 2.5702092e+1, -0.0000006491816, -18855.377, 0.42803994, 0.0, 0.0014998409, 0.00000906784, 0.00000906784, 0.0, 0.012207031, 0.011983163 
6.1035156e-3, 2.5714076e+1, -0.000003739242, -18840.572, -1.4301022, 0.0, 0.0012606084, 0.00010481332, 0.00010481332, 0.0, 0.012207031, 0.011983333 
6.1035156e-3, 2.5726062e+1, -0.0000022009413, -18835.21, -1.1113484, 0.0, 0.0013478212, 0.0000633728, 0.0000633728, 0.0, 0.012207031, 0.011983396 
6.1035156e-3, 2.5738043e+1, -0.000008949556, -18825.234, -3.0109055, 0.0, 0.001468443, 0.00047261428, 0.00047261428, 0.0, 0.012207031, 0.011983511 
6.1035156e-3, 2.5750026e+1, -0.0000046307105, -18817.334, -2.6101942, 0.0, 0.0013715364, 0.0003574351, 0.0003574351, 0.0, 0.012207031, 0.011983602 
6.1035156e-3, 2.576201e+1, -0.0000011191498, -18798.766, -0.7574315, 0.0, 0.0014252047, 0.00002939894, 0.00002939894, 0.0, 0.012207031, 0.0119838165 
6.1035156e-3, 2.5773993e+1, -0.0000038850203, -18796.303, -1.4872894, 0.0, 0.0012663795, 0.00011379928, 0.00011379928, 0.0, 0.012207031, 0.011983844 
6.1035156e-3, 2.578598e+1, -0.000031506264, -18785.887, -5.7566724, 0.0, 0.0014322762, 0.0017325453, 0.0017325453, 0.0, 0.012207031, 0.0119839655 
6.1035156e-3, 2.5797963e+1, -0.000017390175, -18779.318, -4.362286, 0.0, 0.0015349166, 0.000995934, 0.000995934, 0.0, 0.012207031, 0.011984041 
6.1035156e-3, 2.5809947e+1, -0.000004737449, -18764.033, 1.550096, 0.0, 0.001296333, 0.00012331593, 0.00012331593, 0.0, 0.012207031, 0.011984218 
6.1035156e-3, 2.5821933e+1, -0.0000011181936, -18759.3, -0.7506949, 0.0, 0.0013059898, 0.00002892252, 0.00002892252, 0.0, 0.012207031, 0.011984272 
6.1035156e-3, 2.5833917e+1, -0.0000023604289, -18747.436, -1.1054372, 0.0, 0.0014299, 0.000062821346, 0.000062821346, 0.0, 0.012207031, 0.01198441 
6.1035156e-3, 2.58459e+1, -0.0000004482702, -18732.725, -0.020145312, 0.0, 0.0015254983, -0.00000042660758, -0.00000042660758, 0.0, 0.012207031, 0.011984579 
6.1035156e-3, 2.5857887e+1, -0.0000004806685, -18727.217, 0.005464928, 0.0, 0.0013787834, -0.0000004790745, -0.0000004790745, 0.0, 0.012207031, 0.011984643 
6.1035156e-3, 2.586987e+1, -0.000025369738, -18720.05, 5.0563626, 0.0, 0.0011856596, 0.0013403744, 0.0013403744, 0.0, 0.012207031, 0.0119847255 
6.1035156e-3, 2.5881854e+1, -0.000003999824, -18709.893, -1.4395547, 0.0, 0.0014923675, 0.00010676071, 0.00010676071, 0.0, 0.012207031, 0.011984843 
6.1035156e-3, 2.589384e+1, -0.000010849855, -18711.992, 3.3844013, 0.0, 0.0015404996, 0.00060128013, 0.00060128013, 0.0, 0.012207031, 0.011984819 
6.1035156e-3, 2.5905824e+1, -0.002546252, -18685.65, -51.236298, 0.0, 0.0013501821, 0.13794331, 0.13794331, 0.0, 0.012207031, 0.011985123 
6.1035156e-3, 2.5917807e+1, -0.0000044318035, -18668.018, -2.2840438, 0.0, 0.0012497774, 0.0002750224, 0.0002750224, 0.0, 0.012207031, 0.011985327 
6.1035156e-3, 2.5929794e+1, -0.0000046539108, -18664.816, -1.5533719, 0.0, 0.0014551184, 0.00012462484, 0.00012462484, 0.0, 0.012207031, 0.011985364 
6.1035156e-3, 2.594178e+1, -0.0000006617345, -18650.852, -0.04640773, 0.0, 0.0015150184, -0.0000005462607, -0.0000005462607, 0.0, 0.012207031, 0.0119855255 
6.1035156e-3, 2.5953767e+1, -0.00000046132644, -18652.102, 0.005962029, 0.0, 0.0013015355, -0.00000045941852, -0.00000045941852, 0.0, 0.012207031, 0.011985511 
6.1035156e-3, 2.596575e+1, -0.00018569626, -18639.57, -13.8329935, 0.0, 0.0014229245, 0.010080184, 0.010080184, 0.0, 0.012207031, 0.011985656 
6.1035156e-3, 2.5977737e+1, -0.000002912294, -18628.31, -1.1823792, 0.0, 0.0014381463, 0.00007213588, 0.00007213588, 0.0, 0.012207031, 0.011985786 
6.1035156e-3, 2.5989723e+1, -0.0000006034276, -18618.188, 0.23941383, 0.0, 0.0013151999, 0.0000024752262, 0.0000024752262, 0.0, 0.012207031, 0.011985903 
6.1035156e-3, 2.600171e+1, -0.0000012533363, -18614.252, -0.65189457, 0.0, 0.001422619, 0.000021576838, 0.000021576838, 0.0, 0.012207031, 0.011985948 
6.1035156e-3, 2.6013696e+1, -0.0000011016525, -18595.72, 0.7490858, 0.0, 0.001440589, 0.00002907354, 0.00002907354, 0.0, 0.012207031, 0.0119861625 
6.1035156e-3, 2.602568e+1, -0.0000007021593, -18591.83, 0.44847324, 0.0, 0.0013969943, 0.0000101159385, 0.0000101159385, 0.0, 0.012207031, 0.011986207 
6.1035156e-3, 2.6037666e+1, -0.0000014538789, -18576.918, -0.91497886, 0.0, 0.0013539714, 0.000043612068, 0.000043612068, 0.0, 0.012207031, 0.0119863795 
6.1035156e-3, 2.6049653e+1, -0.0000013588424, -18575.92, 0.7602947, 0.0, 0.0013543128, 0.000029759296, 0.000029759296, 0.0, 0.012207031, 0.011986392 
6.1035156e-3, 2.606164e+1, -0.00000070791816, -18556.096, -0.26985708, 0.0, 0.0015125425, 0.0000032165517, 0.0000032165517, 0.0, 0.012207031, 0.011986621 
6.1035156e-3, 2.607363e+1, -0.0000007887852, -18555.057, -0.47139692, 0.0, 0.0013671336, 0.000011187196, 0.000011187196, 0.0, 0.012207031, 0.011986633 
6.1035156e-3, 2.6085612e+1, -0.00000065276623, -18534.076, 0.33899212, 0.0, 0.0013362527, 0.0000055474666, 0.0000055474666, 0.0, 0.012207031, 0.011986875 
6.1035156e-3, 2.6097602e+1, -0.00000040149354, -18537.729, -0.19292861, 0.0, 0.0014025525, 0.0000016063823, 0.0000016063823, 0.0, 0.012207031, 0.011986833 
6.1035156e-3, 2.6109588e+1, -0.000004233411, -18516.373, 1.4909434, 0.0, 0.0014269461, 0.00011581777, 0.00011581777, 0.0, 0.012207031, 0.01198708 
6.1035156e-3, 2.6121575e+1, -0.00000046033966, -18517.959, -0.2291134, 0.0, 0.0014061744, 0.0000023743669, 0.0000023743669, 0.0, 0.012207031, 0.011987061 
6.1035156e-3, 2.613356e+1, -0.000004326277, -18502.172, 1.5178865, 0.0, 0.0013450331, 0.00012019853, 0.00012019853, 0.0, 0.012207031, 0.011987244 
6.1035156e-3, 2.6145548e+1, -0.00041521393, -18494.994, -20.687878, 0.0, 0.0013764395, 0.022725519, 0.022725519, 0.0, 0.012207031, 0.011987327 
6.1035156e-3, 2.6157534e+1, -0.0000135885175, -18474.236, 4.0199723, 0.0, 0.0014542032, 0.0008611528, 0.0008611528, 0.0, 0.012207031, 0.011987567 
6.1035156e-3, 2.6169524e+1, -0.000008110383, -18478.967, -2.1345916, 0.0, 0.0013390942, 0.00023846624, 0.00023846624, 0.0, 0.012207031, 0.011987512 
6.1035156e-3, 2.618151e+1, -0.0000004895902, -18453.021, 0.09877363, 0.0, 0.0014027907, 0.00000003911191, 0.00000003911191, 0.0, 0.012207031, 0.011987812 
6.1035156e-3, 2.61935e+1, -0.000002904367, -18459.371, 1.2497145, 0.0, 0.0014430151, 0.00008170234, 0.00008170234, 0.0, 0.012207031, 0.011987739 
6.1035156e-3, 2.6205486e+1, -0.000000723294, -18440.531, 0.494162, 0.0, 0.0013219728, 0.00001251906, 0.00001251906, 0.0, 0.012207031, 0.011987956 
6.1035156e-3, 2.6217476e+1, -0.00000050388064, -18437.783, -0.06613899, 0.0, 0.0013089253, -0.00000026663474, -0.00000026663474, 0.0, 0.012207031, 0.011987989 
6.1035156e-3, 2.6229465e+1, -0.0000022873282, -18415.709, -1.1509829, 0.0, 0.001527513, 0.00006964916, 0.00006964916, 0.0, 0.012207031, 0.011988244 
6.1035156e-3, 2.6241452e+1, -0.00000073201295, -18422.031, -0.26047087, 0.0, 0.0013859257, 0.0000029508083, 0.0000029508083, 0.0, 0.012207031, 0.01198817 
6.1035156e-3, 2.6253438e+1, -0.0000010163478, -18400.354, 0.603481, 0.0, 0.0013129616, 0.000018776169, 0.000018776169, 0.0, 0.012207031, 0.011988421 
6.1035156e-3, 2.6265427e+1, -0.0000014457845, -18395.893, 0.8310026, 0.0, 0.0013860562, 0.000036093315, 0.000036093315, 0.0, 0.012207031, 0.011988473 
6.1035156e-3, 2.6277417e+1, -0.0000008380284, -18379.242, 0.3659324, 0.0, 0.0014284895, 0.000006447721, 0.000006447721, 0.0, 0.012207031, 0.011988665 
6.1035156e-3, 2.6289406e+1, -0.0000019426518, -18383.848, -1.0075389, 0.0, 0.0013689803, 0.000053276188, 0.000053276188, 0.0, 0.012207031, 0.011988612 
6.1035156e-3, 2.6301393e+1, -0.000003799791, -18364.613, 1.4205348, 0.0, 0.0013799894, 0.00010608105, 0.00010608105, 0.0, 0.012207031, 0.0119888345 
6.1035156e-3, 2.6313382e+1, -0.0006628499, -18355.834, -26.13521, 0.0, 0.0014178001, 0.036548637, 0.036548637, 0.0, 0.012207031, 0.011988936 
6.1035156e-3, 2.6325372e+1, -0.0000033407885, -18337.77, 1.3325303, 0.0, 0.0013772143, 0.0000934887, 0.0000934887, 0.0, 0.012207031, 0.011989145 
6.1035156e-3, 2.633736e+1, -0.0000006645384, -18341.133, 0.22406293, 0.0, 0.0013303343, 0.0000020727093, 0.0000020727093, 0.0, 0.012207031, 0.011989106 
6.1035156e-3, 2.634935e+1, -0.00000079327395, -18322.182, 0.56463563, 0.0, 0.0014468371, 0.000016607133, 0.000016607133, 0.0, 0.012207031, 0.011989325 
6.1035156e-3, 2.636134e+1, -0.0000015250903, -18321.553, -0.8447949, 0.0, 0.0014196472, 0.000037427853, 0.000037427853, 0.0, 0.012207031, 0.011989333 
6.1035156e-3, 2.637333e+1, -0.0000061571627, -18302.172, -1.7216021, 0.0, 0.0013994285, 0.00015578613, 0.00015578613, 0.0, 0.012207031, 0.011989557 
6.1035156e-3, 2.638532e+1, -0.00000061671614, -18300.443, 0.37822533, 0.0, 0.0012257319, 0.000007200273, 0.000007200273, 0.0, 0.012207031, 0.011989577 
6.1035156e-3, 2.639731e+1, -0.0000003801313, -18283.652, -0.109247476, 0.0, 0.0014370364, 0.0000002726374, 0.0000002726374, 0.0, 0.012207031, 0.011989771 
6.1035156e-3, 2.6409298e+1, -0.00000065163005, -18279.795, -0.48100108, 0.0, 0.0017132232, 0.000012005079, 0.000012005079, 0.0, 0.012207031, 0.011989816 
6.1035156e-3, 2.6421288e+1, -0.00000088494824, -18263.996, 0.6319652, 0.0, 0.001207939, 0.000020982116, 0.000020982116, 0.0, 0.012207031, 0.011989999 
6.1035156e-3, 2.6433277e+1, -0.0000034647423, -18262.85, 1.3377912, 0.0, 0.0010675135, 0.00009453122, 0.00009453122, 0.0, 0.012207031, 0.011990012 
6.1035156e-3, 2.644527e+1, -0.0000028992222, -18244.254, -1.2468562, 0.0, 0.001690396, 0.000082313934, 0.000082313934, 0.0, 0.012207031, 0.011990227 
6.1035156e-3, 2.645726e+1, -0.0000019344084, -18242.525, -1.0899864, 0.0, 0.0015298387, 0.00006319202, 0.00006319202, 0.0, 0.012207031, 0.011990247 
6.1035156e-3, 2.646925e+1, -0.0000015582327, -18224.867, 0.88297284, 0.0, 0.0012406824, 0.000041220737, 0.000041220737, 0.0, 0.012207031, 0.011990451 
6.1035156e-3, 2.6481238e+1, -0.0000035427931, -18222.639, -2.4926772, 0.0, 0.001335229, 0.00033743083, 0.00033743083, 0.0, 0.012207031, 0.011990477 
6.1035156e-3, 2.6493227e+1, -0.000003239339, -18205.777, -1.3280646, 0.0, 0.0014833771, 0.00009363955, 0.00009363955, 0.0, 0.012207031, 0.011990672 
6.1035156e-3, 2.650522e+1, -0.0000050372605, -18201.607, -1.6324084, 0.0, 0.0014198263, 0.00014136505, 0.00014136505, 0.0, 0.012207031, 0.01199072 
6.1035156e-3, 2.6517212e+1, -0.00000635762, -18192.635, 2.0897598, 0.0, 0.0013112023, 0.00023368986, 0.00023368986, 0.0, 0.012207031, 0.011990824 
6.1035156e-3, 2.6529202e+1, -0.00059095694, -18177.676, -24.673662, 0.0, 0.0015420907, 0.032900043, 0.032900043, 0.0, 0.012207031, 0.011990997 
6.1035156e-3, 2.6541194e+1, -0.0000015186336, -18167.059, 0.8443045, 0.0, 0.0014425524, 0.000037719972, 0.000037719972, 0.0, 0.012207031, 0.01199112 
6.1035156e-3, 2.6553184e+1, -0.00000064704017, -18162.95, -0.4687568, 0.0, 0.0011213574, 0.000011450826, 0.000011450826, 0.0, 0.012207031, 0.011991167 
6.1035156e-3, 2.6565176e+1, -0.0000003241243, -18147.096, -0.12826774, 0.0, 0.0014949515, 0.00000058250225, 0.00000058250225, 0.0, 0.012207031, 0.011991351 
6.1035156e-3, 2.657717e+1, -0.00000033561113, -18141.893, -0.086870216, 0.0, 0.0016485128, 0.000000080359314, 0.000000080359314, 0.0, 0.012207031, 0.011991411 
6.1035156e-3, 2.6589158e+1, -0.0000005119065, -18130.629, 0.35943446, 0.0, 0.0013075114, 0.0000066137763, 0.0000066137763, 0.0, 0.012207031, 0.011991542 
6.1035156e-3, 2.660115e+1, -0.00000027254484, -18120.742, -0.041167695, 0.0, 0.0012293528, -0.0000001790213, -0.0000001790213, 0.0, 0.012207031, 0.011991656 
6.1035156e-3, 2.6613143e+1, -0.0000011273102, -18111.975, 0.71976215, 0.0, 0.0014852873, 0.000027475726, 0.000027475726, 0.0, 0.012207031, 0.011991758 
6.1035156e-3, 2.6625133e+1, -0.0000015263521, -18101.033, -0.8004159, 0.0, 0.0015187672, 0.00003386752, 0.00003386752, 0.0, 0.012207031, 0.011991885 
6.1035156e-3, 2.6637125e+1, -0.000004656501, -18094.406, 1.5245082, 0.0, 0.0013553881, 0.0001237879, 0.0001237879, 0.0, 0.012207031, 0.011991961 
6.1035156e-3, 2.6649117e+1, -0.00019985413, -18074.746, -14.3485565, 0.0, 0.0013507828, 0.011190676, 0.011190676, 0.0, 0.012207031, 0.011992188 
6.1035156e-3, 2.666111e+1, -0.00003559127, -18073.193, -6.0657682, 0.0, 0.0013716653, 0.0020002162, 0.0020002162, 0.0, 0.012207031, 0.011992207 
6.1035156e-3, 2.6673102e+1, -0.000021548294, -18065.242, -4.5650735, 0.0, 0.0015391198, 0.0011320424, 0.0011320424, 0.0, 0.012207031, 0.011992299 
6.1035156e-3, 2.6685095e+1, -0.000003955216, -18052.947, 1.4338895, 0.0, 0.0014593928, 0.00010993417, 0.00010993417, 0.0, 0.012207031, 0.011992441 
6.1035156e-3, 2.6697087e+1, -0.000003866717, -18043.172, -2.4510531, 0.0, 0.0011712728, 0.00032909366, 0.00032909366, 0.0, 0.012207031, 0.011992554 
6.1035156e-3, 2.670908e+1, -0.0000023980226, -18033.955, -2.2337215, 0.0, 0.0013952458, 0.00027427517, 0.00027427517, 0.0, 0.012207031, 0.01199266 
6.1035156e-3, 2.6721072e+1, -0.0000007842159, -18019.666, 0.5472295, 0.0, 0.0016593041, 0.0000158343, 0.0000158343, 0.0, 0.012207031, 0.011992826 
6.1035156e-3, 2.6733065e+1, -0.00000066062665, -18017.213, 0.4400931, 0.0, 0.0013381909, 0.000010089199, 0.000010089199, 0.0, 0.012207031, 0.011992855 
6.1035156e-3, 2.6745057e+1, -0.00000045861205, -18001.514, 0.3299804, 0.0, 0.0012587083, 0.000005590162, 0.000005590162, 0.0, 0.012207031, 0.011993037 
6.1035156e-3, 2.6757053e+1, -0.0000025180368, -17996.932, -1.0242113, 0.0, 0.0014781109, 0.00005577016, 0.00005577016, 0.0, 0.012207031, 0.01199309 
6.1035156e-3, 2.6769045e+1, -0.00000035862658, -17980.357, 0.05440254, 0.0, 0.001431036, -0.00000019402432, -0.00000019402432, 0.0, 0.012207031, 0.011993282 
6.1035156e-3, 2.6781037e+1, -0.0000024275494, -17975.617, 1.0983824, 0.0, 0.0012839771, 0.00006468802, 0.00006468802, 0.0, 0.012207031, 0.0119933365 
6.1035156e-3, 2.6793033e+1, -0.0000004909838, -17963.127, -0.32177794, 0.0, 0.0015277517, 0.000005273101, 0.000005273101, 0.0, 0.012207031, 0.011993481 
6.1035156e-3, 2.6805025e+1, -0.00000056741976, -17957.555, -0.37978, 0.0, 0.0015312977, 0.000007464456, 0.000007464456, 0.0, 0.012207031, 0.011993545 
6.1035156e-3, 2.6817018e+1, -0.0000011647684, -17942.232, 0.8168356, 0.0, 0.0011281214, 0.000036022375, 0.000036022375, 0.0, 0.012207031, 0.011993723 
6.1035156e-3, 2.6829013e+1, -0.0000010821782, -17938.902, 0.6801541, 0.0, 0.0012963956, 0.000024705885, 0.000024705885, 0.0, 0.012207031, 0.011993761 
6.1035156e-3, 2.6841006e+1, -0.0000036298009, -17920.746, -1.3658334, 0.0, 0.0017415246, 0.00010046747, 0.00010046747, 0.0, 0.012207031, 0.011993972 
6.1035156e-3, 2.6853e+1, -0.0000010076731, -17921.207, -0.63157904, 0.0, 0.0013516974, 0.000021250431, 0.000021250431, 0.0, 0.012207031, 0.011993966 
6.1035156e-3, 2.6864994e+1, -0.0000016633453, -17899.37, -0.78596604, 0.0, 0.0012090678, 0.000032848628, 0.000032848628, 0.0, 0.012207031, 0.011994219 
6.1035156e-3, 2.6876986e+1, -0.0000004250635, -17901.44, 0.15379041, 0.0, 0.0015051469, 0.0000008961433, 0.0000008961433, 0.0, 0.012207031, 0.011994195 
6.1035156e-3, 2.688898e+1, -0.00000036299008, -17881.906, -0.0061268313, 0.0, 0.0014015795, -0.00000036089114, -0.00000036089114, 0.0, 0.012207031, 0.0119944215 
6.1035156e-3, 2.6900977e+1, -0.00000044478136, -17882.56, 0.14416783, 0.0, 0.0012431174, 0.0000007174858, 0.0000007174858, 0.0, 0.012207031, 0.011994414 
6.1035156e-3, 2.6912972e+1, -0.00000544391, -17862.725, -1.5766249, 0.0, 0.0015466678, 0.00013371438, 0.00013371438, 0.0, 0.012207031, 0.011994643 
6.1035156e-3, 2.6924968e+1, -0.000024275365, -17861.34, -5.023049, 0.0, 0.0015489303, 0.0013883295, 0.0013883295, 0.0, 0.012207031, 0.01199466 
6.1035156e-3, 2.693696e+1, -0.0000012154095, -17840.951, 0.7755274, 0.0, 0.0011698547, 0.00003249596, 0.00003249596, 0.0, 0.012207031, 0.0119948955 
6.1035156e-3, 2.6948956e+1, -0.0000011274931, -17843.057, -0.6864984, 0.0, 0.001214606, 0.000025285026, 0.000025285026, 0.0, 0.012207031, 0.011994871 
6.1035156e-3, 2.696095e+1, -0.0000008318611, -17819.592, 0.4322539, 0.0, 0.0016913676, 0.00000965342, 0.00000965342, 0.0, 0.012207031, 0.011995143 
6.1035156e-3, 2.6972947e+1, -0.00000046175523, -17825.066, 0.13989767, 0.0, 0.0014972755, 0.0000006362134, 0.0000006362134, 0.0, 0.012207031, 0.01199508 
6.1035156e-3, 2.6984942e+1, -0.00000051536523, -17803.752, 0.2371974, 0.0, 0.0011563937, 0.0000026447888, 0.0000026447888, 0.0, 0.012207031, 0.011995327 
6.1035156e-3, 2.6996937e+1, -0.0000004899129, -17803.076, 0.21135771, 0.0, 0.0013446601, 0.000002019322, 0.000002019322, 0.0, 0.012207031, 0.011995334 
6.1035156e-3, 2.7008933e+1, -0.0000005255574, -17782.154, -0.3813269, 0.0, 0.0015453623, 0.000007651757, 0.000007651757, 0.0, 0.012207031, 0.011995577 
6.1035156e-3, 2.7020928e+1, -0.0000012562551, -17785.008, -0.7892156, 0.0, 0.0014230565, 0.000033765446, 0.000033765446, 0.0, 0.012207031, 0.011995544 
6.1035156e-3, 2.7032924e+1, -0.0000012183289, -17763.328, 0.80892783, 0.0, 0.0013135477, 0.000035619603, 0.000035619603, 0.0, 0.012207031, 0.011995795 
6.1035156e-3, 2.704492e+1, -0.0000025378577, -17765.166, 1.1753865, 0.0, 0.0013865589, 0.00007522857, 0.00007522857, 0.0, 0.012207031, 0.011995774 
6.1035156e-3, 2.7056915e+1, -0.0000051227853, -17742.564, -1.5842943, 0.0, 0.0014780052, 0.00013634429, 0.00013634429, 0.0, 0.012207031, 0.011996035 
6.1035156e-3, 2.706891e+1, -0.0000005377299, -17746.955, -0.16332652, 0.0, 0.0012880715, 0.000000965374, 0.000000965374, 0.0, 0.012207031, 0.011995985 
6.1035156e-3, 2.7080908e+1, -0.00000044118525, -17724.152, -0.22354224, 0.0, 0.0014276294, 0.000002378194, 0.000002378194, 0.0, 0.012207031, 0.011996249 
6.1035156e-3, 2.7092904e+1, -0.0000066925004, -17725.592, -3.0065284, 0.0, 0.0015479892, 0.0005032601, 0.0005032601, 0.0, 0.012207031, 0.011996232 
6.1035156e-3, 2.71049e+1, -0.0000009647199, -17708.225, -0.59307563, 0.0, 0.0013373389, 0.000018898292, 0.000018898292, 0.0, 0.012207031, 0.011996433 
6.1035156e-3, 2.7116895e+1, -0.00000058649096, -17706.045, 0.23917101, 0.0, 0.0011863086, 0.000002644203, 0.000002644203, 0.0, 0.012207031, 0.011996459 
6.1035156e-3, 2.7128893e+1, -0.0000022015076, -17692.572, -1.0525385, 0.0, 0.0014888204, 0.000060414444, 0.000060414444, 0.0, 0.012207031, 0.011996615 
6.1035156e-3, 2.7140892e+1, -0.00037658447, -17682.508, -19.68821, 0.0, 0.0017234066, 0.021544805, 0.021544805, 0.0, 0.012207031, 0.011996731 
6.1035156e-3, 2.7152884e+1, -0.000005451614, -17667.076, 2.5090115, 0.0, 0.0012381468, 0.0003508687, 0.0003508687, 0.0, 0.012207031, 0.01199691 
6.1035156e-3, 2.7164882e+1, -0.0000005741031, -17663.588, -0.32394725, 0.0, 0.0010863141, 0.0000053670337, 0.0000053670337, 0.0, 0.012207031, 0.011996951 
6.1035156e-3, 2.717688e+1, -0.0000029493171, -17646.328, 1.2473775, 0.0, 0.0016227632, 0.00008522486, 0.00008522486, 0.0, 0.012207031, 0.011997151 
6.1035156e-3, 2.7188876e+1, -0.000005638147, -17647.014, -1.6985339, 0.0, 0.0016075876, 0.0001578466, 0.0001578466, 0.0, 0.012207031, 0.011997143 
6.1035156e-3, 2.7200875e+1, -0.0000009679898, -17631.646, -0.5380845, 0.0, 0.0012811692, 0.00001545333, 0.00001545333, 0.0, 0.012207031, 0.011997321 
6.1035156e-3, 2.721287e+1, -0.000008812105, -17622.64, 2.7699513, 0.0, 0.0012291019, 0.00042657272, 0.00042657272, 0.0, 0.012207031, 0.011997425 
6.1035156e-3, 2.722487e+1, -0.0000009172725, -17609.914, 0.30498654, 0.0, 0.0014882903, 0.000004364796, 0.000004364796, 0.0, 0.012207031, 0.011997573 
6.1035156e-3, 2.7236867e+1, -0.000008088237, -17606.936, -2.6793694, 0.0, 0.0015919534, 0.00039964996, 0.00039964996, 0.0, 0.012207031, 0.011997608 
6.1035156e-3, 2.7248865e+1, -0.0000051361353, -17597.594, 2.3464582, 0.0, 0.0013136787, 0.00030773992, 0.00030773992, 0.0, 0.012207031, 0.011997716 
6.1035156e-3, 2.7260864e+1, -0.00020504535, -17582.174, -14.525618, 0.0, 0.0012942208, 0.011795373, 0.011795373, 0.0, 0.012207031, 0.011997894 
6.1035156e-3, 2.727286e+1, -0.0000033673314, -17569.621, 1.3801012, 0.0, 0.0015082438, 0.000105040206, 0.000105040206, 0.0, 0.012207031, 0.01199804 
6.1035156e-3, 2.7284858e+1, -0.0000054090515, -17565.412, -1.615322, 0.0, 0.0014118061, 0.00014313658, 0.00014313658, 0.0, 0.012207031, 0.011998089 
6.1035156e-3, 2.7296856e+1, -0.0000012282076, -17552.143, 0.68222696, 0.0, 0.0013542131, 0.000025288991, 0.000025288991, 0.0, 0.012207031, 0.011998243 
6.1035156e-3, 2.7308854e+1, -0.0000027479964, -17544.94, 1.2348859, 0.0, 0.0014962815, 0.000084168416, 0.000084168416, 0.0, 0.012207031, 0.0119983265 
6.1035156e-3, 2.7320853e+1, -0.00000040320296, -17534.918, 0.14813682, 0.0, 0.0013962121, 0.00000084827116, 0.00000084827116, 0.0, 0.012207031, 0.011998442 
6.1035156e-3, 2.733285e+1, -0.0000012958216, -17525.596, -0.85203373, 0.0, 0.0013421157, 0.000040127103, 0.000040127103, 0.0, 0.012207031, 0.01199855 
6.1035156e-3, 2.734485e+1, -0.0000004971227, -17516.055, -0.13356695, 0.0, 0.0014301848, 0.00000052138057, 0.00000052138057, 0.0, 0.012207031, 0.011998661 
6.1035156e-3, 2.735685e+1, -0.0000012736193, -17506.746, 0.86033654, 0.0, 0.0014526076, 0.000041006024, 0.000041006024, 0.0, 0.012207031, 0.011998769 
6.1035156e-3, 2.736885e+1, -0.0000010811968, -17491.768, -0.5803794, 0.0, 0.0014691711, 0.00001817588, 0.00001817588, 0.0, 0.012207031, 0.011998942 
6.1035156e-3, 2.7380845e+1, -0.00000059864647, -17486.994, -0.38057455, 0.0, 0.0012598941, 0.000007683906, 0.000007683906, 0.0, 0.012207031, 0.011998998 
6.1035156e-3, 2.7392846e+1, -0.0000026484543, -17476.5, 1.1132002, 0.0, 0.0013567811, 0.00006825903, 0.00006825903, 0.0, 0.012207031, 0.01199912 
6.1035156e-3, 2.7404845e+1, -0.0000010519557, -17466.555, -0.5425523, 0.0, 0.0016597082, 0.000015800997, 0.000015800997, 0.0, 0.012207031, 0.011999235 
6.1035156e-3, 2.7416846e+1, -0.0000015085133, -17457.75, 0.86253613, 0.0, 0.0013356698, 0.00004110686, 0.00004110686, 0.0, 0.012207031, 0.011999337 
6.1035156e-3, 2.7428845e+1, -0.000031369513, -17446.242, -5.6079917, 0.0, 0.0012817665, 0.0017712861, 0.0017712861, 0.0, 0.012207031, 0.01199947 
6.1035156e-3, 2.7440843e+1, -0.00000029684335, -17437.773, 0.13388263, 0.0, 0.0014968498, 0.00000073107003, 0.00000073107003, 0.0, 0.012207031, 0.011999569 
6.1035156e-3, 2.745284e+1, -0.00000057553217, -17425.564, -0.22436266, 0.0, 0.0013850959, 0.0000023132452, 0.0000023132452, 0.0, 0.012207031, 0.01199971 
6.1035156e-3, 2.7464843e+1, -0.0000016123328, -17416.518, 0.9270752, 0.0, 0.0013992564, 0.000047735557, 0.000047735557, 0.0, 0.012207031, 0.011999815 
6.1035156e-3, 2.7476844e+1, -0.00000071881874, -17408.457, -0.4739605, 0.0, 0.0014314745, 0.000012185174, 0.000012185174, 0.0, 0.012207031, 0.011999909 
6.1035156e-3, 2.7488843e+1, -0.00000056676555, -17398.57, -0.31598395, 0.0, 0.0013852767, 0.0000051719726, 0.0000051719726, 0.0, 0.012207031, 0.012000023 
6.1035156e-3, 2.7500844e+1, -0.0000006920913, -17384.334, -0.44146004, 0.0, 0.0014171507, 0.000010518401, 0.000010518401, 0.0, 0.012207031, 0.012000188 
6.1035156e-3, 2.7512842e+1, -0.000004442694, -17382.115, 1.4494699, 0.0, 0.001396604, 0.000116426556, 0.000116426556, 0.0, 0.012207031, 0.012000214 
6.1035156e-3, 2.7524844e+1, -0.00000039851028, -17366.65, -0.19365722, 0.0, 0.0014280815, 0.0000017609782, 0.0000017609782, 0.0, 0.012207031, 0.012000393 
6.1035156e-3, 2.7536845e+1, -0.000006720627, -17362.088, -1.749988, 0.0, 0.0012974942, 0.00016966704, 0.00016966704, 0.0, 0.012207031, 0.012000446 
6.1035156e-3, 2.7548844e+1, -0.000002745768, -17345.494, 1.2373929, 0.0, 0.0014963903, 0.00008552737, 0.00008552737, 0.0, 0.012207031, 0.012000639 
6.1035156e-3, 2.7560845e+1, -0.0000004790119, -17340.072, 0.19077988, 0.0, 0.0015914596, 0.0000016199956, 0.0000016199956, 0.0, 0.012207031, 0.012000701 
6.1035156e-3, 2.7572846e+1, -0.00000048170205, -17326.564, -0.29197225, 0.0, 0.0010968829, 0.0000044383632, 0.0000044383632, 0.0, 0.012207031, 0.012000859 
6.1035156e-3, 2.7584848e+1, -0.0000010923295, -17322.14, -0.6543118, 0.0, 0.001330169, 0.000023623088, 0.000023623088, 0.0, 0.012207031, 0.01200091 
6.1035156e-3, 2.7596846e+1, -0.0000063744988, -17307.025, -2.5451708, 0.0, 0.001693533, 0.00036791828, 0.00036791828, 0.0, 0.012207031, 0.012001085 
6.1035156e-3, 2.7608848e+1, -0.00000041915328, -17305.111, 0.07362361, 0.0, 0.0013279192, -0.00000010592703, -0.00000010592703, 0.0, 0.012207031, 0.012001107 
6.1035156e-3, 2.762085e+1, -0.0000042114116, -17284.531, -1.4543779, 0.0, 0.001326477, 0.00011816478, 0.00011816478, 0.0, 0.012207031, 0.012001346 
6.1035156e-3, 2.763285e+1, -0.00027061897, -17288.037, -16.685215, 0.0, 0.0014188363, 0.01583278, 0.01583278, 0.0, 0.012207031, 0.012001306 
6.1035156e-3, 2.7644855e+1, -0.00007246178, -17266.422, -8.637625, 0.0, 0.001417814, 0.004248558, 0.004248558, 0.0, 0.012207031, 0.012001556 
6.1035156e-3, 2.7656853e+1, -0.0000022401646, -17262.295, 1.0934232, 0.0, 0.0013849274, 0.00006701913, 0.00006701913, 0.0, 0.012207031, 0.012001604 
6.1035156e-3, 2.7668855e+1, -0.00000058139665, -17248.717, 0.3035544, 0.0, 0.0013771756, 0.0000047607573, 0.0000047607573, 0.0, 0.012207031, 0.012001762 
6.1035156e-3, 2.768086e+1, -0.0000003858686, -17244.787, 0.07715065, 0.0, 0.0015068358, -0.000000040708983, -0.000000040708983, 0.0, 0.012207031, 0.012001807 
6.1035156e-3, 2.769286e+1, -0.0000006896191, -17230.428, -0.3511158, 0.0, 0.0013192744, 0.000006465296, 0.000006465296, 0.0, 0.012207031, 0.012001974 
6.1035156e-3, 2.7704862e+1, -0.0000006214235, -17222.871, -0.34448364, 0.0, 0.0012993865, 0.0000062687723, 0.0000062687723, 0.0, 0.012207031, 0.012002062 
6.1035156e-3, 2.7716863e+1, -0.00000042024348, -17207.309, -0.1389844, 0.0, 0.0015418552, 0.0000007023409, 0.0000007023409, 0.0, 0.012207031, 0.012002242 
6.1035156e-3, 2.7728868e+1, -0.000008811134, -17208.41, 3.2732587, 0.0, 0.0013995001, 0.00061380427, 0.00061380427, 0.0, 0.012207031, 0.01200223 
6.1035156e-3, 2.774087e+1, -0.0000010550644, -17192.717, -0.5995026, 0.0, 0.0013133165, 0.000019849333, 0.000019849333, 0.0, 0.012207031, 0.012002411 
6.1035156e-3, 2.775287e+1, -0.0000065063564, -17194.725, 2.6428168, 0.0, 0.0014963076, 0.00039969268, 0.00039969268, 0.0, 0.012207031, 0.012002388 
6.1035156e-3, 2.7764875e+1, -0.004032299, -17165.484, -64.39863, 0.0, 0.0013726417, 0.23756452, 0.23756452, 0.0, 0.012207031, 0.012002728 
6.1035156e-3, 2.7776876e+1, -0.00009187941, -17160.607, 9.725425, 0.0, 0.0013009694, 0.0054198047, 0.0054198047, 0.0, 0.012207031, 0.012002784 
6.1035156e-3, 2.778888e+1, -0.0000065184636, -17150.74, -2.687835, 0.0, 0.0015298749, 0.00041471445, 0.00041471445, 0.0, 0.012207031, 0.012002898 
6.1035156e-3, 2.7800882e+1, -0.0000013074097, -17144.68, 0.7378992, 0.0, 0.0013399029, 0.000030451432, 0.000030451432, 0.0, 0.012207031, 0.012002969 
6.1035156e-3, 2.7812886e+1, -0.000003078281, -17129.58, -1.3060449, 0.0, 0.0013702612, 0.00009650112, 0.00009650112, 0.0, 0.012207031, 0.012003144 
6.1035156e-3, 2.7824888e+1, -0.0000031890477, -17129.748, -1.2962492, 0.0, 0.001542324, 0.00009490123, 0.00009490123, 0.0, 0.012207031, 0.012003142 
6.1035156e-3, 2.7836892e+1, -0.0000007020711, -17111.154, -0.45410073, 0.0, 0.0012887274, 0.000011348984, 0.000011348984, 0.0, 0.012207031, 0.012003358 
6.1035156e-3, 2.7848893e+1, -0.0000008952598, -17106.22, 0.61525524, 0.0, 0.0014149458, 0.000021233478, 0.000021233478, 0.0, 0.012207031, 0.012003415 
6.1035156e-3, 2.7860898e+1, -0.0000037513412, -17092.613, 1.3041606, 0.0, 0.0014523584, 0.00009575566, 0.00009575566, 0.0, 0.012207031, 0.012003574 
6.1035156e-3, 2.7872902e+1, -0.0000018360361, -17090.615, -0.9874561, 0.0, 0.0013387552, 0.00005521689, 0.00005521689, 0.0, 0.012207031, 0.012003597 
6.1035156e-3, 2.7884904e+1, -0.000006852363, -17072.1, -1.7934748, 0.0, 0.0014338384, 0.0001815575, 0.0001815575, 0.0, 0.012207031, 0.012003812 
6.1035156e-3, 2.789691e+1, -0.00000780895, -17067.377, 1.974049, 0.0, 0.0014452883, 0.00022051373, 0.00022051373, 0.0, 0.012207031, 0.012003866 
6.1035156e-3, 2.7908912e+1, -0.00000044831444, -17051.82, -0.026194315, 0.0, 0.001401551, -0.00000040807572, -0.00000040807572, 0.0, 0.012207031, 0.012004047 
6.1035156e-3, 2.7920917e+1, -0.000000972451, -17052.117, -0.66902846, 0.0, 0.0013430077, 0.000025276433, 0.000025276433, 0.0, 0.012207031, 0.012004044 
6.1035156e-3, 2.793292e+1, -0.0000009130755, -17030.871, 0.4282679, 0.0, 0.0014466314, 0.0000098563905, 0.0000098563905, 0.0, 0.012207031, 0.01200429 
6.1035156e-3, 2.7944925e+1, -0.0000031390155, -17030.4, -1.280793, 0.0, 0.0014471875, 0.00009318465, 0.00009318465, 0.0, 0.012207031, 0.012004295 
6.1035156e-3, 2.795693e+1, -0.000006432154, -17016.945, 1.8045499, 0.0, 0.0013361465, 0.00018493005, 0.00018493005, 0.0, 0.012207031, 0.012004452 
6.1035156e-3, 2.7968934e+1, -0.00000072378003, -17010.832, 0.52019584, 0.0, 0.0014937213, 0.000015183952, 0.000015183952, 0.0, 0.012207031, 0.012004523 
6.1035156e-3, 2.798094e+1, -0.0000014470247, -16997.818, 0.79048836, 0.0, 0.0014344613, 0.00003531486, 0.00003531486, 0.0, 0.012207031, 0.012004674 
6.1035156e-3, 2.7992946e+1, -0.0005558838, -16986.67, -23.90662, 0.0, 0.0012618608, 0.033089638, 0.033089638, 0.0, 0.012207031, 0.012004804 
6.1035156e-3, 2.800495e+1, -0.000034685476, -16973.17, 6.008881, 0.0, 0.0014260164, 0.0020925924, 0.0020925924, 0.0, 0.012207031, 0.01200496 
6.1035156e-3, 2.8016955e+1, -0.0000075405615, -16971.314, -1.919717, 0.0, 0.0015920801, 0.00020960897, 0.00020960897, 0.0, 0.012207031, 0.012004982 
6.1035156e-3, 2.802896e+1, -0.0000016617679, -16955.674, -0.76155937, 0.0, 0.0013579506, 0.00003254346, 0.00003254346, 0.0, 0.012207031, 0.012005163 
6.1035156e-3, 2.8040963e+1, -0.000003435326, -16949.357, 2.3180134, 0.0, 0.0012777449, 0.00031357887, 0.00031357887, 0.0, 0.012207031, 0.012005237 
6.1035156e-3, 2.8052968e+1, -0.00000046059517, -16937.543, -0.0228318, 0.0, 0.0014591884, -0.00000042981628, -0.00000042981628, 0.0, 0.012207031, 0.012005374 
6.1035156e-3, 2.8064975e+1, -0.000004608921, -16930.172, -2.3717303, 0.0, 0.0014987589, 0.00032764432, 0.00032764432, 0.0, 0.012207031, 0.0120054595 
6.1035156e-3, 2.807698e+1, -0.00000094688585, -16916.168, 0.6045638, 0.0, 0.0014022883, 0.000020659503, 0.000020659503, 0.0, 0.012207031, 0.0120056225 
6.1035156e-3, 2.8088987e+1, -0.000004282213, -16911.553, 2.3835855, 0.0, 0.001323353, 0.0003316703, 0.0003316703, 0.0, 0.012207031, 0.012005676 
6.1035156e-3, 2.810099e+1, -0.00000134265, -16899.678, -0.71251243, 0.0, 0.0014351332, 0.000028697803, 0.000028697803, 0.0, 0.012207031, 0.012005813 
6.1035156e-3, 2.8112996e+1, -0.0000074032723, -16889.97, -1.7886707, 0.0, 0.00147438, 0.00018201937, 0.00018201937, 0.0, 0.012207031, 0.012005926 
6.1035156e-3, 2.8125003e+1, -0.0000022382046, -16878.916, 0.9910995, 0.0, 0.0013635564, 0.000055957367, 0.000055957367, 0.0, 0.012207031, 0.012006055 
6.1035156e-3, 2.813701e+1, -0.0000024118874, -16871.475, 1.0876104, 0.0, 0.0014275787, 0.00006770032, 0.00006770032, 0.0, 0.012207031, 0.012006141 
6.1035156e-3, 2.8149015e+1, -0.0000056268564, -16860.924, -1.5361241, 0.0, 0.0014314991, 0.00013432262, 0.00013432262, 0.0, 0.012207031, 0.012006264 
6.1035156e-3, 2.8161022e+1, -0.00022052473, -16851.277, -15.053952, 0.0, 0.001367787, 0.01322779, 0.01322779, 0.0, 0.012207031, 0.012006376 
6.1035156e-3, 2.817303e+1, -0.000063338695, -16840.059, -8.064099, 0.0, 0.0014148166, 0.0037982685, 0.0037982685, 0.0, 0.012207031, 0.012006506 
6.1035156e-3, 2.8185037e+1, -0.000007907322, -16830.734, 1.9669133, 0.0, 0.001429823, 0.00022195479, 0.00022195479, 0.0, 0.012207031, 0.012006614 
6.1035156e-3, 2.819704e+1, -0.000001445718, -16823.309, -0.80509603, 0.0, 0.0014494212, 0.00003708295, 0.00003708295, 0.0, 0.012207031, 0.012006701 
6.1035156e-3, 2.8209049e+1, -0.0000048871643, -16812.379, -1.4316064, 0.0, 0.0013378421, 0.00011701687, 0.00011701687, 0.0, 0.012207031, 0.012006828 
6.1035156e-3, 2.8221056e+1, -0.000039305534, -16800.291, -6.378994, 0.0, 0.001364383, 0.002382769, 0.002382769, 0.0, 0.012207031, 0.012006968 
6.1035156e-3, 2.8233063e+1, -0.0000013028384, -16791.545, 0.7025432, 0.0, 0.0015309311, 0.000028090937, 0.000028090937, 0.0, 0.012207031, 0.01200707 
6.1035156e-3, 2.824507e+1, -0.0000013610477, -16782.393, -0.76893747, 0.0, 0.0013744719, 0.000033870212, 0.000033870212, 0.0, 0.012207031, 0.012007176 
6.1035156e-3, 2.8257075e+1, -0.0000007188191, -16771.666, 0.5209469, 0.0, 0.001336672, 0.000015462385, 0.000015462385, 0.0, 0.012207031, 0.012007301 
6.1035156e-3, 2.8269085e+1, -0.0000007262356, -16761.639, 0.50371265, 0.0, 0.00155445, 0.000014411093, 0.000014411093, 0.0, 0.012207031, 0.012007417 
6.1035156e-3, 2.8281093e+1, -0.0000006465301, -16754.18, 0.312447, 0.0, 0.0012647732, 0.0000051802635, 0.0000051802635, 0.0, 0.012207031, 0.012007504 
6.1035156e-3, 2.82931e+1, -0.0000007154637, -16743.484, -0.435462, 0.0, 0.0013121542, 0.000010609969, 0.000010609969, 0.0, 0.012207031, 0.012007629 
6.1035156e-3, 2.8305107e+1, -0.000000574775, -16733.76, -0.16398138, 0.0, 0.0016007501, 0.0000010321492, 0.0000010321492, 0.0, 0.012207031, 0.012007741 
6.1035156e-3, 2.8317115e+1, -0.000001075476, -16722.848, 0.65606856, 0.0, 0.0014614641, 0.000024663317, 0.000024663317, 0.0, 0.012207031, 0.012007868 
6.1035156e-3, 2.8329122e+1, -0.0000009130778, -16712.604, -0.645323, 0.0, 0.0012587552, 0.000024004748, 0.000024004748, 0.0, 0.012207031, 0.012007987 
6.1035156e-3, 2.8341132e+1, -0.0000064033934, -16705.455, -2.665339, 0.0, 0.0012273046, 0.00041884885, 0.00041884885, 0.0, 0.012207031, 0.01200807 
6.1035156e-3, 2.835314e+1, -0.0000050946196, -16695.475, 1.5410328, 0.0, 0.0016091702, 0.00013714645, 0.00013714645, 0.0, 0.012207031, 0.012008186 
6.1035156e-3, 2.8365147e+1, -0.0000005229271, -16684.824, -0.06085898, 0.0, 0.001775389, -0.00000030094088, -0.00000030094088, 0.0, 0.012207031, 0.01200831 
6.1035156e-3, 2.8377154e+1, -0.000022562164, -16674.781, -4.8237014, 0.0, 0.00092430797, 0.001372844, 0.001372844, 0.0, 0.012207031, 0.012008427 
6.1035156e-3, 2.8389165e+1, -0.000019152087, -16663.633, -4.302966, 0.0, 0.0011172018, 0.0010919812, 0.0010919812, 0.0, 0.012207031, 0.012008556 
6.1035156e-3, 2.8401172e+1, -0.0000004975953, -16656.014, -0.0022109156, 0.0, 0.0019278795, -0.0000004973044, -0.0000004973044, 0.0, 0.012207031, 0.012008645 
6.1035156e-3, 2.8413182e+1, -0.00000086401764, -16644.555, 0.6161118, 0.0, 0.00152995, 0.000021941869, 0.000021941869, 0.0, 0.012207031, 0.012008778 
6.1035156e-3, 2.842519e+1, -0.0000004434186, -16633.361, -0.23850602, 0.0, 0.0010721892, 0.0000029765251, 0.0000029765251, 0.0, 0.012207031, 0.012008908 
6.1035156e-3, 2.8437197e+1, -0.0000012141717, -16628.973, -0.8122062, 0.0, 0.0012707633, 0.000038456285, 0.000038456285, 0.0, 0.012207031, 0.012008959 
6.1035156e-3, 2.844921e+1, -0.0000012057003, -16614.557, 0.60626924, 0.0, 0.001584534, 0.000020917214, 0.000020917214, 0.0, 0.012207031, 0.012009127 
6.1035156e-3, 2.8461218e+1, -0.0000025405855, -16606.432, -1.0361255, 0.0, 0.0017225194, 0.000062106425, 0.000062106425, 0.0, 0.012207031, 0.012009221 
6.1035156e-3, 2.8473225e+1, -0.0000018880585, -16597.795, 0.9811351, 0.0, 0.0011008793, 0.000056109166, 0.000056109166, 0.0, 0.012207031, 0.012009322 
6.1035156e-3, 2.8485236e+1, -0.00000092984214, -16585.455, 0.60955787, 0.0, 0.0011223418, 0.00002147297, 0.00002147297, 0.0, 0.012207031, 0.012009465 
6.1035156e-3, 2.8497246e+1, -0.0000030680803, -16575.615, -1.1923832, 0.0, 0.0017540989, 0.00008270716, 0.00008270716, 0.0, 0.012207031, 0.01200958 
6.1035156e-3, 2.8509253e+1, -0.00000310686, -16570.725, 2.0177996, 0.0, 0.0015422498, 0.00024259849, 0.00024259849, 0.0, 0.012207031, 0.0120096365 
6.1035156e-3, 2.8521264e+1, -0.0000010227453, -16557.02, -0.6950257, 0.0, 0.0011525353, 0.000028152837, 0.000028152837, 0.0, 0.012207031, 0.012009796 
6.1035156e-3, 2.8533277e+1, -0.00000045877727, -16553.33, -0.12852064, 0.0, 0.0014533926, 0.00000053906115, 0.00000053906115, 0.0, 0.012207031, 0.012009839 
6.1035156e-3, 2.8545284e+1, -0.0047575776, -16535.36, -69.91509, 0.0, 0.0014784926, 0.2908534, 0.2908534, 0.0, 0.012207031, 0.012010047 
6.1035156e-3, 2.8557295e+1, -0.0000005456259, -16527.555, -0.0738753, 0.0, 0.0013219097, -0.00000021541564, -0.00000021541564, 0.0, 0.012207031, 0.0120101385 
6.1035156e-3, 2.8569305e+1, -0.00000058661357, -16516.904, -0.35139826, 0.0, 0.0014837915, 0.000006889408, 0.000006889408, 0.0, 0.012207031, 0.012010262 
6.1035156e-3, 2.8581315e+1, -0.0000049851237, -16517.92, 1.5441333, 0.0, 0.0013892504, 0.00013936401, 0.00013936401, 0.0, 0.012207031, 0.01201025 
6.1035156e-3, 2.8593326e+1, -0.00043603155, -16500.87, -21.166052, 0.0, 0.0013446627, 0.026714114, 0.026714114, 0.0, 0.012207031, 0.012010449 
6.1035156e-3, 2.8605336e+1, -0.0005737462, -16485.031, -24.277966, 0.0, 0.0015959394, 0.035181016, 0.035181016, 0.0, 0.012207031, 0.012010633 
6.1035156e-3, 2.8617346e+1, -0.000013357359, -16472.48, 3.852731, 0.0, 0.0013298084, 0.00088775373, 0.00088775373, 0.0, 0.012207031, 0.012010778 
6.1035156e-3, 2.862936e+1, -0.000006440647, -16470.639, -1.7082891, 0.0, 0.0013027851, 0.00017073839, 0.00017073839, 0.0, 0.012207031, 0.0120108 
6.1035156e-3, 2.864137e+1, -0.000000991886, -16457.453, 0.6754559, 0.0, 0.001475539, 0.000026730544, 0.000026730544, 0.0, 0.012207031, 0.012010953 
6.1035156e-3, 2.865338e+1, -0.0000058674877, -16451.201, 2.40308, 0.0, 0.0015347173, 0.0003451581, 0.0003451581, 0.0, 0.012207031, 0.012011026 
6.1035156e-3, 2.866539e+1, -0.0000012093776, -16438.623, -0.68304145, 0.0, 0.0014273061, 0.000027171689, 0.000027171689, 0.0, 0.012207031, 0.012011172 
6.1035156e-3, 2.8677404e+1, -0.000007586263, -16433.695, -1.858547, 0.0, 0.0011734162, 0.00020260364, 0.00020260364, 0.0, 0.012207031, 0.01201123 
6.1035156e-3, 2.8689414e+1, -0.0000030622477, -16415.809, 1.1943592, 0.0, 0.0014380127, 0.00008383531, 0.00008383531, 0.0, 0.012207031, 0.012011438 
6.1035156e-3, 2.8701425e+1, -0.0000005945609, -16415.291, 0.39426574, 0.0, 0.0017737491, 0.000008874991, 0.000008874991, 0.0, 0.012207031, 0.012011444 
6.1035156e-3, 2.8713435e+1, -0.0000016262413, -16400.102, -2.1723676, 0.0, 0.0013287652, 0.0002861269, 0.0002861269, 0.0, 0.012207031, 0.01201162 
6.1035156e-3, 2.8725448e+1, -0.0000007490905, -16392.363, -0.45208892, 0.0, 0.0010674712, 0.000011719181, 0.000011719181, 0.0, 0.012207031, 0.012011711 
6.1035156e-3, 2.873746e+1, -0.00000047515792, -16379.449, 0.025825974, 0.0, 0.0014904236, -0.00000043443652, -0.00000043443652, 0.0, 0.012207031, 0.0120118605 
6.1035156e-3, 2.8749472e+1, -0.00000254803, -16375.268, 1.164933, 0.0, 0.001803166, 0.00008032506, 0.00008032506, 0.0, 0.012207031, 0.012011909 
6.1035156e-3, 2.8761485e+1, -0.0000006478281, -16357.213, -0.31906757, 0.0, 0.0013313049, 0.0000055759774, 0.0000055759774, 0.0, 0.012207031, 0.012012119 
6.1035156e-3, 2.8773496e+1, -0.0000026209761, -16356.899, -1.1504893, 0.0, 0.0010528148, 0.00007830058, 0.00007830058, 0.0, 0.012207031, 0.012012123 
6.1035156e-3, 2.8785506e+1, -0.00000061670613, -16340.568, 0.31794512, 0.0, 0.0015960291, 0.00000556968, 0.00000556968, 0.0, 0.012207031, 0.012012313 
6.1035156e-3, 2.879752e+1, -0.0000005767109, -16335.6455, -0.0038908173, 0.0, 0.0015663413, -0.0000005757829, -0.0000005757829, 0.0, 0.012207031, 0.01201237 
6.1035156e-3, 2.8809533e+1, -0.0000008702012, -16319.336, 0.47987813, 0.0, 0.0012573691, 0.000013240851, 0.000013240851, 0.0, 0.012207031, 0.01201256 
6.1035156e-3, 2.8821546e+1, -0.0000012652334, -16316.34, -0.80748177, 0.0, 0.0015083851, 0.00003869635, 0.00003869635, 0.0, 0.012207031, 0.012012594 
6.1035156e-3, 2.8833556e+1, -0.000001024227, -16301.256, -0.5492325, 0.0, 0.0014013839, 0.000017480872, 0.000017480872, 0.0, 0.012207031, 0.01201277 
6.1035156e-3, 2.8845572e+1, -0.000006713988, -16296.442, 2.0233974, 0.0, 0.0013584455, 0.0002445149, 0.0002445149, 0.0, 0.012207031, 0.012012826 
6.1035156e-3, 2.8857583e+1, -0.00000055110536, -16280.667, -0.028460894, 0.0, 0.0015188404, -0.0000005013517, -0.0000005013517, 0.0, 0.012207031, 0.01201301 
6.1035156e-3, 2.8869596e+1, -0.0000061434384, -16277.9, -1.5987312, 0.0, 0.0012801435, 0.00015087565, 0.00015087565, 0.0, 0.012207031, 0.012013042 
6.1035156e-3, 2.888161e+1, -0.0000005819337, -16260.924, 0.28987196, 0.0, 0.0015044309, 0.0000045854085, 0.0000045854085, 0.0, 0.012207031, 0.01201324 
6.1035156e-3, 2.8893623e+1, -0.0000006298126, -16256.559, 0.12352368, 0.0, 0.0013916685, 0.000000308768, 0.000000308768, 0.0, 0.012207031, 0.01201329 
6.1035156e-3, 2.8905636e+1, -0.000020488287, -16242.3125, -4.613069, 0.0, 0.0012823925, 0.0012896949, 0.0012896949, 0.0, 0.012207031, 0.012013456 
6.1035156e-3, 2.891765e+1, -0.000040237523, -16238.007, -6.414269, 0.0, 0.0016430133, 0.0024934995, 0.0024934995, 0.0, 0.012207031, 0.012013506 
6.1035156e-3, 2.8929663e+1, -0.00000082545876, -16225.832, -0.37939397, 0.0, 0.0013382554, 0.000008045568, 0.000008045568, 0.0, 0.012207031, 0.012013648 
6.1035156e-3, 2.8941676e+1, -0.0000005891633, -16216.052, 0.1967563, 0.0, 0.001304326, 0.0000017981656, 0.0000017981656, 0.0, 0.012207031, 0.012013761 
6.1035156e-3, 2.8953692e+1, -0.00000081183464, -16203.633, -0.19870916, 0.0, 0.0015910537, 0.0000016249851, 0.0000016249851, 0.0, 0.012207031, 0.012013907 
6.1035156e-3, 2.8965706e+1, -0.000000713999, -16196.225, -0.40104648, 0.0, 0.0012241781, 0.000009216605, 0.000009216605, 0.0, 0.012207031, 0.012013992 
6.1035156e-3, 2.897772e+1, -0.0000032738956, -16186.099, -1.3997282, 0.0, 0.0013537507, 0.00011777065, 0.00011777065, 0.0, 0.012207031, 0.012014111 
6.1035156e-3, 2.8989732e+1, -0.0000033446395, -16181.423, 2.1360168, 0.0, 0.0016030527, 0.0002786187, 0.0002786187, 0.0, 0.012207031, 0.012014165 
6.1035156e-3, 2.900175e+1, -0.0000042701736, -16158.396, 1.7853671, 0.0, 0.0014531994, 0.00019299789, 0.00019299789, 0.0, 0.012207031, 0.012014433 
6.1035156e-3, 2.9013762e+1, -0.0000032673595, -16158.967, -2.0624645, 0.0, 0.001221698, 0.00025997718, 0.00025997718, 0.0, 0.012207031, 0.012014426 
6.1035156e-3, 2.9025775e+1, -0.0000021771136, -16152.6875, -1.0519102, 0.0, 0.0013149247, 0.00006632634, 0.00006632634, 0.0, 0.012207031, 0.012014499 
6.1035156e-3, 2.9037791e+1, -0.0000049478676, -16137.455, -1.9243424, 0.0, 0.001590396, 0.0002245241, 0.0002245241, 0.0, 0.012207031, 0.012014677 
6.1035156e-3, 2.9049808e+1, -0.0000065452195, -16116.042, 2.5268028, 0.0, 0.0016775475, 0.00038962724, 0.00038962724, 0.0, 0.012207031, 0.0120149255 
6.1035156e-3, 2.906182e+1, -0.00002856374, -16108.043, -5.398508, 0.0, 0.0010045426, 0.0017807117, 0.0017807117, 0.0, 0.012207031, 0.012015019 
6.1035156e-3, 2.9073834e+1, -0.0004764603, -16115.653, -22.118364, 0.0, 0.0010729651, 0.029880432, 0.029880432, 0.0, 0.012207031, 0.01201493 
6.1035156e-3, 2.908585e+1, -0.00010604374, -16106.187, -10.433825, 0.0, 0.0020213115, 0.0066531384, 0.0066531384, 0.0, 0.012207031, 0.012015041 
6.1035156e-3, 2.9097867e+1, -0.000016276816, -16086.949, 4.0064826, 0.0, 0.0015780373, 0.0009815446, 0.0009815446, 0.0, 0.012207031, 0.0120152645 
6.1035156e-3, 2.910988e+1, -0.000006617634, -16082.477, -1.8712556, 0.0, 0.0008410729, 0.00021110987, 0.00021110987, 0.0, 0.012207031, 0.012015317 
6.1035156e-3, 2.9121897e+1, -0.0000036122021, -16068.856, -2.1500897, 0.0, 0.0014849899, 0.00028408007, 0.00028408007, 0.0, 0.012207031, 0.012015475 
6.1035156e-3, 2.9133913e+1, -0.000004705585, -16060.328, 2.2254486, 0.0, 0.0015929091, 0.00030367047, 0.00030367047, 0.0, 0.012207031, 0.012015575 
6.1035156e-3, 2.9145926e+1, -0.00000093065734, -16047.906, -0.4606978, 0.0, 0.0014122002, 0.000012294897, 0.000012294897, 0.0, 0.012207031, 0.012015719 
6.1035156e-3, 2.9157943e+1, -0.0000007233296, -16039.546, -0.40821624, 0.0, 0.0013360349, 0.000009666022, 0.000009666022, 0.0, 0.012207031, 0.012015817 
6.1035156e-3, 2.916996e+1, -0.0000005845107, -16030.839, 0.095936716, 0.0, 0.0013387629, -0.0000000103773345, -0.0000000103773345, 0.0, 0.012207031, 0.012015918 
6.1035156e-3, 2.9181975e+1, -0.0000022745412, -16019.781, -1.0721437, 0.0, 0.0014961585, 0.000069480004, 0.000069480004, 0.0, 0.012207031, 0.012016047 
6.1035156e-3, 2.919399e+1, -0.0000013084606, -16009.033, 0.77067536, 0.0, 0.0014960419, 0.000035791876, 0.000035791876, 0.0, 0.012207031, 0.012016172 
6.1035156e-3, 2.9206008e+1, -0.00000047568176, -15999.997, -0.067080945, 0.0, 0.0012674915, -0.00000019444269, -0.00000019444269, 0.0, 0.012207031, 0.012016277 
6.1035156e-3, 2.9218024e+1, -0.0000008815334, -15990.935, -0.6187408, 0.0, 0.0014701259, 0.00002305954, 0.00002305954, 0.0, 0.012207031, 0.012016382 
6.1035156e-3, 2.923004e+1, -0.0000005036008, -15979.571, -0.23645419, 0.0, 0.0014264587, 0.000002995277, 0.000002995277, 0.0, 0.012207031, 0.012016515 
6.1035156e-3, 2.9242057e+1, -0.00067573355, -15973.058, -26.33704, 0.0, 0.0013633564, 0.042749755, 0.042749755, 0.0, 0.012207031, 0.012016591 
6.1035156e-3, 2.9254073e+1, -0.00009171046, -15960.83, -9.706029, 0.0, 0.0014619343, 0.005810675, 0.005810675, 0.0, 0.012207031, 0.012016733 
6.1035156e-3, 2.926609e+1, -0.0000026170353, -15953.763, 1.9410119, 0.0, 0.0014170901, 0.00023353583, 0.00023353583, 0.0, 0.012207031, 0.012016815 
6.1035156e-3, 2.9278105e+1, -0.0000016054225, -15941.973, -0.838754, 0.0, 0.0013982325, 0.000042523887, 0.000042523887, 0.0, 0.012207031, 0.012016953 
6.1035156e-3, 2.9290125e+1, -0.0000023639186, -15932.396, -2.0913944, 0.0, 0.0014317894, 0.0002721667, 0.0002721667, 0.0, 0.012207031, 0.012017065 
6.1035156e-3, 2.930214e+1, -0.0000005012362, -15920.526, 0.079436585, 0.0, 0.0013533147, -0.00000010488111, -0.00000010488111, 0.0, 0.012207031, 0.012017203 
6.1035156e-3, 2.931416e+1, -0.0000008327064, -15913.547, -0.55586284, 0.0, 0.0015829651, 0.000018583678, 0.000018583678, 0.0, 0.012207031, 0.012017284 
6.1035156e-3, 2.9326177e+1, -0.0000006892981, -15903.388, -0.26579988, 0.0, 0.0013669279, 0.0000037531227, 0.0000037531227, 0.0, 0.012207031, 0.012017402 
6.1035156e-3, 2.9338193e+1, -0.000005354958, -15893.3, 1.9098458, 0.0, 0.0012292932, 0.00022414495, 0.00022414495, 0.0, 0.012207031, 0.01201752 
6.1035156e-3, 2.9350212e+1, -0.0000016162079, -15881.756, -0.863802, 0.0, 0.0015263013, 0.000045365625, 0.000045365625, 0.0, 0.012207031, 0.012017654 
6.1035156e-3, 2.936223e+1, -0.000002676479, -15876.728, -1.1553936, 0.0, 0.0016053264, 0.00008140473, 0.00008140473, 0.0, 0.012207031, 0.012017713 
6.1035156e-3, 2.9374248e+1, -0.0000005456569, -15861.826, 0.22195251, 0.0, 0.0013246847, 0.0000025600948, 0.0000025600948, 0.0, 0.012207031, 0.012017886 
6.1035156e-3, 2.9386264e+1, -0.0000006101033, -15854.922, -0.2032989, 0.0, 0.0012325847, 0.0000019966865, 0.0000019966865, 0.0, 0.012207031, 0.012017967 
6.1035156e-3, 2.9398283e+1, -0.0000006231053, -15839.45, -0.27943423, 0.0, 0.0015392505, 0.0000043065775, 0.0000043065775, 0.0, 0.012207031, 0.012018147 
6.1035156e-3, 2.9410303e+1, -0.000013102252, -15836.789, -3.8324995, 0.0, 0.0015610886, 0.00091436174, 0.00091436174, 0.0, 0.012207031, 0.012018178 
6.1035156e-3, 2.942232e+1, -0.00001078354, -15828.791, -3.526287, 0.0, 0.001247716, 0.00077479123, 0.00077479123, 0.0, 0.012207031, 0.012018271 
6.1035156e-3, 2.9434338e+1, -0.0000032418113, -15813.914, 1.2839823, 0.0, 0.0015248428, 0.00010100882, 0.00010100882, 0.0, 0.012207031, 0.012018445 
6.1035156e-3, 2.9446355e+1, -0.000005874418, -15802.223, -1.7866518, 0.0, 0.0014680481, 0.00019613036, 0.00019613036, 0.0, 0.012207031, 0.012018581 
6.1035156e-3, 2.9458374e+1, -0.0000053239564, -15799.367, -1.5275798, 0.0, 0.0012151706, 0.00014237185, 0.00014237185, 0.0, 0.012207031, 0.012018614 
6.1035156e-3, 2.9470393e+1, -0.000027535481, -15783.132, -5.2699056, 0.0, 0.0015472021, 0.0017320585, 0.0017320585, 0.0, 0.012207031, 0.0120188035 
6.1035156e-3, 2.9482412e+1, -0.00000075035473, -15775.877, 0.45019662, 0.0, 0.0014612052, 0.000012096918, 0.000012096918, 0.0, 0.012207031, 0.012018887 
6.1035156e-3, 2.9494432e+1, -0.00000063954565, -15767.398, 0.105200574, 0.0, 0.0012962334, 0.000000062356776, 0.000000062356776, 0.0, 0.012207031, 0.012018987 
6.1035156e-3, 2.950645e+1, -0.0000026223158, -15758.187, 1.1617112, 0.0, 0.0015747086, 0.000083020335, 0.000083020335, 0.0, 0.012207031, 0.012019094 
6.1035156e-3, 2.951847e+1, -0.0000006112726, -15740.714, 0.4027781, 0.0, 0.001446662, 0.000009695132, 0.000009695132, 0.0, 0.012207031, 0.012019297 
6.1035156e-3, 2.953049e+1, -0.000006756671, -15740.268, -2.4837372, 0.0, 0.0011800536, 0.00038516487, 0.00038516487, 0.0, 0.012207031, 0.012019303 
6.1035156e-3, 2.9542506e+1, -0.0000013492571, -15729.039, 0.54091454, 0.0, 0.0014210821, 0.000017252549, 0.000017252549, 0.0, 0.012207031, 0.012019434 
6.1035156e-3, 2.9554528e+1, -0.0000030045958, -15715.897, 1.2539185, 0.0, 0.001702167, 0.000097041346, 0.000097041346, 0.0, 0.012207031, 0.012019587 
6.1035156e-3, 2.9566547e+1, -0.0000009936352, -15704.6875, 0.41908473, 0.0, 0.0014024627, 0.000010189779, 0.000010189779, 0.0, 0.012207031, 0.012019717 
6.1035156e-3, 2.9578567e+1, -0.0000004866707, -15701.958, -0.2764757, 0.0, 0.0010928037, 0.000004381436, 0.000004381436, 0.0, 0.012207031, 0.012019749 
6.1035156e-3, 2.959059e+1, -0.000018027258, -15685.997, -4.2328954, 0.0, 0.0013992699, 0.0011242272, 0.0011242272, 0.0, 0.012207031, 0.012019935 
6.1035156e-3, 2.9602608e+1, -0.000007143057, -15673.839, 1.7333488, 0.0, 0.0018023207, 0.00018454567, 0.00018454567, 0.0, 0.012207031, 0.012020077 
6.1035156e-3, 2.9614627e+1, -0.0000058349488, -15655.775, -2.6331072, 0.0, 0.0013947535, 0.000437021, 0.000437021, 0.0, 0.012207031, 0.012020287 
6.1035156e-3, 2.9626647e+1, -0.0003409425, -15667.856, -18.703136, 0.0, 0.0010008629, 0.021985458, 0.021985458, 0.0, 0.012207031, 0.0120201465 
6.1035156e-3, 2.963867e+1, -0.000105877945, -15651.526, -10.419707, 0.0, 0.0016319081, 0.0068308413, 0.0068308413, 0.0, 0.012207031, 0.012020337 
6.1035156e-3, 2.9650688e+1, -0.000005448832, -15642.42, 2.3405495, 0.0, 0.0014669016, 0.00034476368, 0.00034476368, 0.0, 0.012207031, 0.012020444 
6.1035156e-3, 2.9662707e+1, -0.00000401899, -15631.102, -1.9625728, 0.0, 0.0011857324, 0.00024239306, 0.00024239306, 0.0, 0.012207031, 0.012020575 
6.1035156e-3, 2.967473e+1, -0.000001701256, -15622.525, -0.89675814, 0.0, 0.0016859571, 0.000049774106, 0.000049774106, 0.0, 0.012207031, 0.012020675 
6.1035156e-3, 2.968675e+1, -0.000005000891, -15604.257, 1.8849101, 0.0, 0.0014898545, 0.00022268607, 0.00022268607, 0.0, 0.012207031, 0.012020888 
6.1035156e-3, 2.969877e+1, -0.000007695471, -15601.172, -2.7457793, 0.0, 0.0010414545, 0.0004755569, 0.0004755569, 0.0, 0.012207031, 0.012020924 
6.1035156e-3, 2.9710793e+1, -0.0000008595134, -15591.285, 0.107278556, 0.0, 0.0014442218, -0.00000012136479, -0.00000012136479, 0.0, 0.012207031, 0.01202104 
6.1035156e-3, 2.9722813e+1, -0.0000064110677, -15582.773, 2.6410377, 0.0, 0.0016489062, 0.00044120368, 0.00044120368, 0.0, 0.012207031, 0.012021138 
6.1035156e-3, 2.9734835e+1, -0.000002933973, -15567.224, -1.2553798, 0.0, 0.001386623, 0.00009830298, 0.00009830298, 0.0, 0.012207031, 0.01202132 
6.1035156e-3, 2.9746854e+1, -0.0000010873049, -15561.756, -0.67499083, 0.0, 0.001243104, 0.000028190409, 0.000028190409, 0.0, 0.012207031, 0.012021383 
6.1035156e-3, 2.9758877e+1, -0.0000008018579, -15550.913, -0.50720716, 0.0, 0.0014198591, 0.000015741165, 0.000015741165, 0.0, 0.012207031, 0.01202151 
6.1035156e-3, 2.97709e+1, -0.0000004779452, -15539.496, -0.16191731, 0.0, 0.0015154181, 0.0000012091896, 0.0000012091896, 0.0, 0.012207031, 0.012021643 
6.1035156e-3, 2.978292e+1, -0.0000052936284, -15527.197, -2.6591733, 0.0, 0.001384775, 0.00045011388, 0.00045011388, 0.0, 0.012207031, 0.0120217865 
6.1035156e-3, 2.9794943e+1, -0.006407045, -15524.456, -81.06924, 0.0, 0.0013501344, 0.41692787, 0.41692787, 0.0, 0.012207031, 0.012021818 
6.1035156e-3, 2.9806963e+1, -0.00065428496, -15515.294, -25.90714, 0.0, 0.0014800037, 0.04260484, 0.04260484, 0.0, 0.012207031, 0.012021925 
6.1035156e-3, 2.9818985e+1, -0.000006880014, -15503.792, 2.8924282, 0.0, 0.0013289087, 0.000532739, 0.000532739, 0.0, 0.012207031, 0.012022059 
6.1035156e-3, 2.983101e+1, -0.00000064103705, -15495.639, -0.40687436, 0.0, 0.0014981936, 0.000010042404, 0.000010042404, 0.0, 0.012207031, 0.012022154 
6.1035156e-3, 2.9843032e+1, -0.00008172191, -15481.885, -9.160587, 0.0, 0.0013878489, 0.0053385696, 0.0053385696, 0.0, 0.012207031, 0.012022315 
6.1035156e-3, 2.9855052e+1, -0.00004094887, -15472.512, -6.494936, 0.0, 0.0012098025, 0.0026854468, 0.0026854468, 0.0, 0.012207031, 0.0120224245 
6.1035156e-3, 2.9867074e+1, -0.000002351455, -15458.019, 0.9774424, 0.0, 0.0016691722, 0.000059454243, 0.000059454243, 0.0, 0.012207031, 0.012022593 
6.1035156e-3, 2.9879096e+1, -0.0000037456382, -15457.1, -1.3280147, 0.0, 0.0014871275, 0.000110352295, 0.000110352295, 0.0, 0.012207031, 0.012022604 
6.1035156e-3, 2.989112e+1, -0.000004473085, -15442.161, 1.3480531, 0.0, 0.0011705592, 0.00011320779, 0.00011320779, 0.0, 0.012207031, 0.012022778 
6.1035156e-3, 2.9903144e+1, -0.00000072088324, -15433.033, -0.292863, 0.0, 0.0014841402, 0.0000048365964, 0.0000048365964, 0.0, 0.012207031, 0.012022885 
6.1035156e-3, 2.9915166e+1, -0.0000006426263, -15422.197, 0.24741974, 0.0, 0.0014448757, 0.0000033267497, 0.0000033267497, 0.0, 0.012207031, 0.012023011 
6.1035156e-3, 2.9927188e+1, -0.0000005490292, -15417.147, -0.20623955, 0.0, 0.0014605918, 0.0000022098957, 0.0000022098957, 0.0, 0.012207031, 0.01202307 
6.1035156e-3, 2.9939213e+1, -0.0000013881355, -15403.293, -0.81372964, 0.0, 0.0013671557, 0.000041599807, 0.000041599807, 0.0, 0.012207031, 0.012023232 
6.1035156e-3, 2.9951236e+1, -0.0000054000134, -15395.274, 1.4971031, 0.0, 0.0013768716, 0.00014018477, 0.00014018477, 0.0, 0.012207031, 0.012023325 
6.1035156e-3, 2.9963258e+1, -0.0000026182347, -15382.77, -1.0560396, 0.0, 0.001530255, 0.00006987974, 0.00006987974, 0.0, 0.012207031, 0.012023471 
6.1035156e-3, 2.9975283e+1, -0.0000008866106, -15378.727, -0.61610764, 0.0, 0.0012892516, 0.0000237961, 0.0000237961, 0.0, 0.012207031, 0.012023518 
6.1035156e-3, 2.9987305e+1, -0.0000017832912, -15361.221, 0.8026031, 0.0, 0.0014639043, 0.00004015164, 0.00004015164, 0.0, 0.012207031, 0.012023723 
6.1035156e-3, 2.999933e+1, -0.0000061103824, -15359.618, -2.603016, 0.0, 0.001599119, 0.00043502633, 0.00043502633, 0.0, 0.012207031, 0.012023741 
6.1035156e-3, 3.0011356e+1, -0.0000006540633, -15343.181, 0.3603878, 0.0, 0.001246529, 0.000007810893, 0.000007810893, 0.0, 0.012207031, 0.012023933 
6.1035156e-3, 3.0023378e+1, -0.000004092492, -15336.529, 1.3591037, 0.0, 0.0013456525, 0.00011634954, 0.00011634954, 0.0, 0.012207031, 0.0120240105 
6.1035156e-3, 3.0035403e+1, -0.0000007611658, -15326.269, -0.4725058, 0.0, 0.0015150787, 0.000013806093, 0.000013806093, 0.0, 0.012207031, 0.012024131 
6.1035156e-3, 3.0047426e+1, -0.0000028774011, -15318.319, -1.1604404, 0.0, 0.0015694599, 0.000085031854, 0.000085031854, 0.0, 0.012207031, 0.012024223 
6.1035156e-3, 3.005945e+1, -0.0000007010026, -15303.307, -0.28944847, 0.0, 0.0013252305, 0.000004773661, 0.000004773661, 0.0, 0.012207031, 0.012024398 
6.1035156e-3, 3.0071473e+1, -0.000008608104, -15301.135, 3.171459, 0.0, 0.0012221594, 0.0006487387, 0.0006487387, 0.0, 0.012207031, 0.012024423 
6.1035156e-3, 3.00835e+1, -0.0000056172926, -15282.714, -1.5596278, 0.0, 0.0016051572, 0.00015354545, 0.00015354545, 0.0, 0.012207031, 0.012024638 
6.1035156e-3, 3.0095524e+1, -0.0000068202326, -15284.132, -2.4084666, 0.0, 0.0015284158, 0.00037270488, 0.00037270488, 0.0, 0.012207031, 0.0120246215 
6.1035156e-3, 3.010755e+1, -0.0000016842782, -15260.122, 0.82048905, 0.0, 0.0013633196, 0.000042430856, 0.000042430856, 0.0, 0.012207031, 0.012024902 
6.1035156e-3, 3.0119574e+1, -0.0000015889977, -15262.231, 0.8566189, 0.0, 0.0012047618, 0.000046490204, 0.000046490204, 0.0, 0.012207031, 0.012024878 
6.1035156e-3, 3.0131596e+1, -0.000012676914, -15246.09, 3.754435, 0.0, 0.0014937101, 0.0009118737, 0.0009118737, 0.0, 0.012207031, 0.012025066 
6.1035156e-3, 3.0143625e+1, -0.0000057950947, -15248.25, -2.6008008, 0.0, 0.0017682461, 0.00043780758, 0.00043780758, 0.0, 0.012207031, 0.012025041 
6.1035156e-3, 3.015565e+1, -0.00003331846, -15235.978, 5.822348, 0.0, 0.0011859661, 0.0021916605, 0.0021916605, 0.0, 0.012207031, 0.012025184 
6.1035156e-3, 3.0167672e+1, -0.0032017839, -15215.956, -57.294895, 0.0, 0.0012422891, 0.21253617, 0.21253617, 0.0, 0.012207031, 0.012025418 
6.1035156e-3, 3.01797e+1, -0.00009201737, -15198.896, 9.715805, 0.0, 0.0015973434, 0.0061187507, 0.0061187507, 0.0, 0.012207031, 0.012025617 
6.1035156e-3, 3.0191725e+1, -0.000025343079, -15204.19, -5.0511265, 0.0, 0.001467684, 0.0016527387, 0.0016527387, 0.0, 0.012207031, 0.012025555 
6.1035156e-3, 3.020375e+1, -0.0000024764793, -15180.032, 1.1483986, 0.0, 0.0013725661, 0.00008440208, 0.00008440208, 0.0, 0.012207031, 0.012025837 
6.1035156e-3, 3.0215776e+1, -0.0000004931352, -15184.832, -0.17740701, 0.0, 0.0013563923, 0.0000015795431, 0.0000015795431, 0.0, 0.012207031, 0.012025781 
6.1035156e-3, 3.02278e+1, -0.0000015771798, -15166.465, 0.8185913, 0.0, 0.0014950321, 0.00004260528, 0.00004260528, 0.0, 0.012207031, 0.012025995 
6.1035156e-3, 3.023983e+1, -0.000001276453, -15164.513, 0.7871163, 0.0, 0.0013719632, 0.000039578932, 0.000039578932, 0.0, 0.012207031, 0.012026018 
6.1035156e-3, 3.0251855e+1, -0.0000019299553, -15146.373, -0.8837539, 0.0, 0.0013669656, 0.000049634928, 0.000049634928, 0.0, 0.012207031, 0.01202623 
6.1035156e-3, 3.0263883e+1, -0.00000062979524, -15143.167, -0.11550274, 0.0, 0.001566604, 0.00000025118788, 0.00000025118788, 0.0, 0.012207031, 0.012026267 
6.1035156e-3, 3.0275908e+1, -0.00000089268264, -15130.755, 0.4364643, 0.0, 0.0013867735, 0.000011697643, 0.000011697643, 0.0, 0.012207031, 0.012026412 
6.1035156e-3, 3.0287933e+1, -0.00000083862653, -15123.883, 0.42776138, 0.0, 0.0012528315, 0.000011260103, 0.000011260103, 0.0, 0.012207031, 0.0120264925 
6.1035156e-3, 3.0299962e+1, -0.0000007796136, -15105.084, -0.24440552, 0.0, 0.001528839, 0.0000031749532, 0.0000031749532, 0.0, 0.012207031, 0.012026712 
6.1035156e-3, 3.0311987e+1, -0.0000018991414, -15105.617, -0.9452964, 0.0, 0.0014127655, 0.000057256686, 0.000057256686, 0.0, 0.012207031, 0.012026706 
6.1035156e-3, 3.0324015e+1, -0.000000721831, -15090.635, -0.20927021, 0.0, 0.0013565845, 0.0000021802334, 0.0000021802334, 0.0, 0.012207031, 0.012026881 
6.1035156e-3, 3.033604e+1, -0.0000037406423, -15085.323, -2.1446257, 0.0, 0.0014945195, 0.00030115296, 0.00030115296, 0.0, 0.012207031, 0.012026942 
6.1035156e-3, 3.0348068e+1, -0.0000006555373, -15070.986, -0.024328679, 0.0, 0.0013743457, -0.0000006162645, -0.0000006162645, 0.0, 0.012207031, 0.01202711 
6.1035156e-3, 3.0360094e+1, -0.000003875861, -15062.152, -1.3058475, 0.0, 0.0013919349, 0.00010933756, 0.00010933756, 0.0, 0.012207031, 0.012027213 
6.1035156e-3, 3.0372122e+1, -0.00000074316137, -15053.255, -0.17025106, 0.0, 0.0014096716, 0.0000011823649, 0.0000011823649, 0.0, 0.012207031, 0.012027317 
6.1035156e-3, 3.038415e+1, -0.0000009975563, -15045.307, 0.527892, 0.0, 0.0014330427, 0.0000175245, 0.0000175245, 0.0, 0.012207031, 0.01202741 
6.1035156e-3, 3.0396178e+1, -0.0000013810654, -15028.047, -0.56239617, 0.0, 0.0015064465, 0.000019665546, 0.000019665546, 0.0, 0.012207031, 0.012027611 
6.1035156e-3, 3.0408204e+1, -0.000004801907, -15024.35, -1.4482273, 0.0, 0.0012166399, 0.00013479563, 0.00013479563, 0.0, 0.012207031, 0.012027655 
6.1035156e-3, 3.0420232e+1, -0.0000010848555, -15016.107, 0.5391922, 0.0, 0.0013700316, 0.000018276234, 0.000018276234, 0.0, 0.012207031, 0.012027751 
6.1035156e-3, 3.043226e+1, -0.000004169789, -15004.426, 1.3557882, 0.0, 0.0016776996, 0.000118338176, 0.000118338176, 0.0, 0.012207031, 0.012027888 
6.1035156e-3, 3.0444288e+1, -0.0000010045474, -14992.289, 0.21138787, 0.0, 0.0013718526, 0.0000019759736, 0.0000019759736, 0.0, 0.012207031, 0.012028029 
6.1035156e-3, 3.0456316e+1, -0.0000033397816, -14985.158, -2.0829492, 0.0, 0.0012173951, 0.00028619182, 0.00028619182, 0.0, 0.012207031, 0.012028112 
6.1035156e-3, 3.0468345e+1, -0.0000006090069, -14975.86, 0.08074231, 0.0, 0.0014396567, -0.0000001736862, -0.0000001736862, 0.0, 0.012207031, 0.012028221 
6.1035156e-3, 3.0480373e+1, -0.0000023997577, -14961.786, 0.96143585, 0.0, 0.0015619942, 0.000059381557, 0.000059381557, 0.0, 0.012207031, 0.012028385 
6.1035156e-3, 3.04924e+1, -0.000001544806, -14957.439, -0.7691403, 0.0, 0.0013614737, 0.000038005866, 0.000038005866, 0.0, 0.012207031, 0.012028436 
6.1035156e-3, 3.050443e+1, -0.0000013927157, -14944.257, 0.77388394, 0.0, 0.0013552657, 0.000038682636, 0.000038682636, 0.0, 0.012207031, 0.01202859 
6.1035156e-3, 3.0516458e+1, -0.0000007236969, -14935.517, -0.40644637, 0.0, 0.0014715638, 0.000010337095, 0.000010337095, 0.0, 0.012207031, 0.012028692 
6.1035156e-3, 3.0528486e+1, -0.00000083519825, -14924.439, -0.5273683, 0.0, 0.0013733762, 0.00001779983, 0.00001779983, 0.0, 0.012207031, 0.012028822 
6.1035156e-3, 3.0540517e+1, -0.0000045172933, -14918.156, 2.4316735, 0.0, 0.0014489279, 0.00039184777, 0.00039184777, 0.0, 0.012207031, 0.012028895 
6.1035156e-3, 3.0552545e+1, -0.0000008753701, -14909.082, 0.37817192, 0.0, 0.0014132034, 0.000008717037, 0.000008717037, 0.0, 0.012207031, 0.012029001 
6.1035156e-3, 3.0564573e+1, -0.000111405585, -14908.674, -10.684867, 0.0, 0.0013175355, 0.0075463057, 0.0075463057, 0.0, 0.012207031, 0.012029005 
6.1035156e-3, 3.0576602e+1, -0.0005711785, -14888.333, -24.194946, 0.0, 0.0015618925, 0.038747787, 0.038747787, 0.0, 0.012207031, 0.012029244 
6.1035156e-3, 3.0588633e+1, -0.000533707, -14877.941, -23.386642, 0.0, 0.0014452462, 0.036227677, 0.036227677, 0.0, 0.012207031, 0.012029365 
6.1035156e-3, 3.060066e+1, -0.0010100822, -14855.6455, -32.171337, 0.0, 0.0012881495, 0.06865973, 0.06865973, 0.0, 0.012207031, 0.0120296255 
6.1035156e-3, 3.0612692e+1, -0.000031637275, -14854.567, 5.66666, 0.0, 0.0014101055, 0.0021300567, 0.0021300567, 0.0, 0.012207031, 0.012029638 
6.1035156e-3, 3.062472e+1, -0.0000004038591, -14842.249, -0.17968382, 0.0, 0.0015241045, 0.0000017714374, 0.0000017714374, 0.0, 0.012207031, 0.012029782 
6.1035156e-3, 3.0636752e+1, -0.00000061415494, -14839.815, -0.1817398, 0.0, 0.0014105566, 0.0000016115719, 0.0000016115719, 0.0, 0.012207031, 0.01202981 
6.1035156e-3, 3.064878e+1, -0.0000044835656, -14824.3125, 1.7826852, 0.0, 0.0013756279, 0.00020989173, 0.00020989173, 0.0, 0.012207031, 0.0120299915 
6.1035156e-3, 3.066081e+1, -0.0000011931727, -14822.629, 0.6399869, 0.0, 0.0014137349, 0.00002643912, 0.00002643912, 0.0, 0.012207031, 0.012030011 
6.1035156e-3, 3.067284e+1, -0.0000067868064, -14802.377, -2.629236, 0.0, 0.0014509207, 0.00046022478, 0.00046022478, 0.0, 0.012207031, 0.012030248 
6.1035156e-3, 3.068487e+1, -0.00000071920067, -14803.504, 0.17568594, 0.0, 0.0014678419, 0.0000013658137, 0.0000013658137, 0.0, 0.012207031, 0.012030235 
6.1035156e-3, 3.0696902e+1, -0.000004488889, -14783.255, 2.1220737, 0.0, 0.0014017088, 0.0003001258, 0.0003001258, 0.0, 0.012207031, 0.012030471 
6.1035156e-3, 3.0708933e+1, -0.000002631783, -14785.757, -1.0160371, 0.0, 0.0012291974, 0.00006718754, 0.00006718754, 0.0, 0.012207031, 0.012030442 
6.1035156e-3, 3.072096e+1, -0.0000008212949, -14764.691, -0.39486665, 0.0, 0.001649053, 0.000009739011, 0.000009739011, 0.0, 0.012207031, 0.012030688 
6.1035156e-3, 3.0732995e+1, -0.00000033535548, -14764.279, 0.010111922, 0.0, 0.0015124973, -0.00000032843127, -0.00000032843127, 0.0, 0.012207031, 0.012030693 
6.1035156e-3, 3.0745023e+1, -0.000019162302, -14745.663, -4.4562106, 0.0, 0.001164838, 0.0013275258, 0.0013275258, 0.0, 0.012207031, 0.012030911 
6.1035156e-3, 3.0757055e+1, -0.00000058808644, -14744.629, 0.3550049, 0.0, 0.0015871429, 0.000007959332, 0.000007959332, 0.0, 0.012207031, 0.012030923 
6.1035156e-3, 3.0769086e+1, -0.0000011363492, -14728.999, 0.7257088, 0.0, 0.0014498043, 0.000034619865, 0.000034619865, 0.0, 0.012207031, 0.012031105 
6.1035156e-3, 3.0781117e+1, -0.0000025561828, -14724.67, -1.8986195, 0.0, 0.001091062, 0.00024225445, 0.00024225445, 0.0, 0.012207031, 0.012031156 
6.1035156e-3, 3.0793148e+1, -0.00016037759, -14701.893, -12.816504, 0.0, 0.001751305, 0.011012513, 0.011012513, 0.0, 0.012207031, 0.012031422 
6.1035156e-3, 3.080518e+1, -0.00000029010218, -14706.509, 0.14418465, 0.0, 0.0015133541, 0.0000011235043, 0.0000011235043, 0.0, 0.012207031, 0.012031368 
6.1035156e-3, 3.081721e+1, -0.000005153986, -14689.619, 1.5588355, 0.0, 0.0011853433, 0.00016026679, 0.00016026679, 0.0, 0.012207031, 0.012031565 
6.1035156e-3, 3.0829242e+1, -0.000004943367, -14681.079, 1.7357627, 0.0, 0.001453404, 0.00020027807, 0.00020027807, 0.0, 0.012207031, 0.012031665 
6.1035156e-3, 3.0841273e+1, -0.0000030732397, -14665.224, -1.105221, 0.0, 0.001463321, 0.00008021997, 0.00008021997, 0.0, 0.012207031, 0.01203185 
6.1035156e-3, 3.0853307e+1, -0.0000037323953, -14668.475, -1.8750868, 0.0, 0.0014569324, 0.00023596194, 0.00023596194, 0.0, 0.012207031, 0.012031812 
6.1035156e-3, 3.0865338e+1, -0.000004092978, -14652.371, 1.7055192, 0.0, 0.0013860615, 0.0001944275, 0.0001944275, 0.0, 0.012207031, 0.012032001 
6.1035156e-3, 3.087737e+1, -0.000005052985, -14642.784, 1.8257151, 0.0, 0.0013712515, 0.00022258375, 0.00022258375, 0.0, 0.012207031, 0.012032113 
6.1035156e-3, 3.0889404e+1, -0.0000054088155, -14627.941, -2.2870784, 0.0, 0.0015383653, 0.00035217585, 0.00035217585, 0.0, 0.012207031, 0.012032286 
6.1035156e-3, 3.0901435e+1, -0.0000005418188, -14628.187, 0.34996164, 0.0, 0.0012446186, 0.000007830589, 0.000007830589, 0.0, 0.012207031, 0.0120322835 
6.1035156e-3, 3.0913466e+1, -0.0000026425223, -14608.396, 1.0353374, 0.0, 0.0015026544, 0.0000707347, 0.0000707347, 0.0, 0.012207031, 0.012032515 
6.1035156e-3, 3.09255e+1, -0.0000066687553, -14608.572, -1.648531, 0.0, 0.0015240686, 0.00017936273, 0.00017936273, 0.0, 0.012207031, 0.012032513 
6.1035156e-3, 3.0937532e+1, -0.0000007492843, -14590.083, 0.4412476, 0.0, 0.0012672745, 0.000012595361, 0.000012595361, 0.0, 0.012207031, 0.01203273 
6.1035156e-3, 3.0949566e+1, -0.00000049227623, -14584.925, 0.19634686, 0.0, 0.0014944029, 0.000002151006, 0.000002151006, 0.0, 0.012207031, 0.012032789 
6.1035156e-3, 3.0961597e+1, -0.00000056231016, -14575.573, 0.37211463, 0.0, 0.0014223413, 0.000008937783, 0.000008937783, 0.0, 0.012207031, 0.012032899 
6.1035156e-3, 3.097363e+1, -0.00000050314026, -14563.687, -0.10034179, 0.0, 0.0013198798, 0.00000018820174, 0.00000018820174, 0.0, 0.012207031, 0.012033038 
6.1035156e-3, 3.0985665e+1, -0.00000044839467, -14551.093, 0.056960545, 0.0, 0.0015169915, -0.00000022542372, -0.00000022542372, 0.0, 0.012207031, 0.012033185 
6.1035156e-3, 3.0997697e+1, -0.0000061647956, -14552.379, 2.7767415, 0.0, 0.0013539591, 0.0005236656, 0.0005236656, 0.0, 0.012207031, 0.01203317 
6.1035156e-3, 3.100973e+1, -0.000003547656, -14536.21, -1.2338331, 0.0, 0.0014642891, 0.00010118006, 0.00010118006, 0.0, 0.012207031, 0.012033359 
6.1035156e-3, 3.1021765e+1, -0.000079254074, -14530.977, -9.005369, 0.0, 0.0013609917, 0.005501695, 0.005501695, 0.0, 0.012207031, 0.012033421 
6.1035156e-3, 3.10338e+1, -0.0010604019, -14512.488, -32.953693, 0.0, 0.0013886965, 0.07376759, 0.07376759, 0.0, 0.012207031, 0.012033637 
6.1035156e-3, 3.104583e+1, -0.00004164511, -14500.472, 6.555025, 0.0, 0.0015484118, 0.002921593, 0.002921593, 0.0, 0.012207031, 0.012033777 
6.1035156e-3, 3.1057864e+1, -0.000008626915, -14493.643, -3.2134895, 0.0, 0.0013048227, 0.00070385885, 0.00070385885, 0.0, 0.012207031, 0.0120338565 
6.1035156e-3, 3.10699e+1, -0.000002266975, -14484.669, 2.0296218, 0.0, 0.0014357015, 0.00028212782, 0.00028212782, 0.0, 0.012207031, 0.012033962 
6.1035156e-3, 3.1081933e+1, -0.0000005595562, -14477.058, 0.25018576, 0.0, 0.001503513, 0.0000037640366, 0.0000037640366, 0.0, 0.012207031, 0.012034051 
6.1035156e-3, 3.1093967e+1, -0.00000060150415, -14467.204, -0.2957037, 0.0, 0.0012151634, 0.00000544256, 0.00000544256, 0.0, 0.012207031, 0.012034167 
6.1035156e-3, 3.1106e+1, -0.00000059543083, -14455.565, 0.22342958, 0.0, 0.0015498607, 0.0000028579634, 0.0000028579634, 0.0, 0.012207031, 0.012034303 
6.1035156e-3, 3.1118035e+1, -0.0000036201568, -14447.181, -1.2473477, 0.0, 0.0014055887, 0.00010407396, 0.00010407396, 0.0, 0.012207031, 0.0120344 
6.1035156e-3, 3.113007e+1, -0.000001983808, -14436.801, 0.9100181, 0.0, 0.0012638648, 0.000055378827, 0.000055378827, 0.0, 0.012207031, 0.012034521 
6.1035156e-3, 3.1142104e+1, -0.0000005399945, -14427.497, 0.35017297, 0.0, 0.001703972, 0.00000795913, 0.00000795913, 0.0, 0.012207031, 0.01203463 
6.1035156e-3, 3.1154138e+1, -0.00000069903984, -14419.328, -0.31921777, 0.0, 0.0013279665, 0.0000063678617, 0.0000063678617, 0.0, 0.012207031, 0.012034726 
6.1035156e-3, 3.1166175e+1, -0.000001996361, -14404.067, -0.9763401, 0.0, 0.001233836, 0.00006418217, 0.00006418217, 0.0, 0.012207031, 0.012034905 
6.1035156e-3, 3.117821e+1, -0.00000063177464, -14402.91, 0.19137625, 0.0, 0.0015218332, 0.0000019111048, 0.0000019111048, 0.0, 0.012207031, 0.012034918 
6.1035156e-3, 3.1190243e+1, -0.000005996462, -14387.859, 2.265906, 0.0, 0.0014611887, 0.00035085512, 0.00035085512, 0.0, 0.012207031, 0.012035094 
6.1035156e-3, 3.120228e+1, -0.0000054262014, -14375.9, -2.4746883, 0.0, 0.0014242003, 0.00042057026, 0.00042057026, 0.0, 0.012207031, 0.012035234 
6.1035156e-3, 3.1214315e+1, -0.0000005828634, -14370.434, 0.11053333, 0.0, 0.0013188532, 0.00000026732596, 0.00000026732596, 0.0, 0.012207031, 0.012035298 
6.1035156e-3, 3.1226352e+1, -0.000006265977, -14356.217, 2.6283605, 0.0, 0.0015177284, 0.0004749387, 0.0004749387, 0.0, 0.012207031, 0.012035465 
6.1035156e-3, 3.1238386e+1, -0.000008984674, -14351.456, -3.2008545, 0.0, 0.001370879, 0.0007049129, 0.0007049129, 0.0, 0.012207031, 0.012035521 
6.1035156e-3, 3.125042e+1, -0.0000018621491, -14341.739, -0.9545718, 0.0, 0.0011957858, 0.0000616732, 0.0000616732, 0.0, 0.012207031, 0.012035634 
6.1035156e-3, 3.1262457e+1, -0.0000051565607, -14326.372, 2.1187656, 0.0, 0.0018478424, 0.00030819335, 0.00030819335, 0.0, 0.012207031, 0.012035814 
6.1035156e-3, 3.1274492e+1, -0.00000851285, -14320.242, 3.075705, 0.0, 0.0014739872, 0.0006520878, 0.0006520878, 0.0, 0.012207031, 0.012035886 
6.1035156e-3, 3.128653e+1, -0.000006328863, -14316.165, -1.6008043, 0.0, 0.0009180953, 0.0001726698, 0.0001726698, 0.0, 0.012207031, 0.012035933 
6.1035156e-3, 3.1298566e+1, -0.000022187867, -14311.687, -4.7856245, 0.0, 0.0014671353, 0.0015780568, 0.0015780568, 0.0, 0.012207031, 0.0120359855 
6.1035156e-3, 3.13106e+1, -0.0013993952, -14292.627, -37.84911, 0.0, 0.0018269222, 0.098830275, 0.098830275, 0.0, 0.012207031, 0.012036209 
6.1035156e-3, 3.1322637e+1, -0.00061231025, -14270.328, -25.035723, 0.0, 0.001362908, 0.043309983, 0.043309983, 0.0, 0.012207031, 0.01203647 
6.1035156e-3, 3.1334674e+1, -0.0000049202467, -14271.358, 2.4548628, 0.0, 0.0011353623, 0.0004173487, 0.0004173487, 0.0, 0.012207031, 0.012036458 
6.1035156e-3, 3.1346712e+1, -0.0000066974626, -14253.432, -1.6004539, 0.0, 0.0014939605, 0.00017301032, 0.00017301032, 0.0, 0.012207031, 0.012036667 
6.1035156e-3, 3.135875e+1, -0.00000536379, -14250.942, 2.445651, 0.0, 0.0015747246, 0.0004143424, 0.0004143424, 0.0, 0.012207031, 0.012036697 
6.1035156e-3, 3.1370783e+1, -0.000004839022, -14241.408, -1.7315829, 0.0, 0.0013257966, 0.00020570052, 0.00020570052, 0.0, 0.012207031, 0.012036808 
6.1035156e-3, 3.138282e+1, -0.0000045543925, -14239.186, -1.4181216, 0.0, 0.0014191578, 0.00013668042, 0.00013668042, 0.0, 0.012207031, 0.012036834 
6.1035156e-3, 3.1394857e+1, -0.000003639738, -14220.254, 1.8304429, 0.0, 0.0015650194, 0.00023197637, 0.00023197637, 0.0, 0.012207031, 0.012037056 
6.1035156e-3, 3.1406894e+1, -0.0120311985, -14207.031, -110.97361, 0.0, 0.0012699043, 0.8547509, 0.8547509, 0.0, 0.012207031, 0.01203721 
6.1035156e-3, 3.141893e+1, -0.0000035202634, -14202.431, 1.5567951, 0.0, 0.0011476923, 0.00016712735, 0.00016712735, 0.0, 0.012207031, 0.012037264 
6.1035156e-3, 3.143097e+1, -0.000004547639, -14200.405, -2.305054, 0.0, 0.0019165707, 0.00036961585, 0.00036961585, 0.0, 0.012207031, 0.012037288 
6.1035156e-3, 3.1443006e+1, -0.0000012178328, -14174.742, 0.5795185, 0.0, 0.0014986723, 0.000022475131, 0.000022475131, 0.0, 0.012207031, 0.012037588 
6.1035156e-3, 3.1455043e+1, -0.0000012776661, -14175.697, -0.7088516, 0.0, 0.0009654486, 0.00003416825, 0.00003416825, 0.0, 0.012207031, 0.012037577 
6.1035156e-3, 3.146708e+1, -0.0000014657081, -14161.958, -0.6168789, 0.0, 0.0015370515, 0.000025404841, 0.000025404841, 0.0, 0.012207031, 0.012037738 
6.1035156e-3, 3.147912e+1, -0.0000030332476, -14158.538, 1.7577516, 0.0, 0.0015624468, 0.00021518777, 0.00021518777, 0.0, 0.012207031, 0.012037778 
6.1035156e-3, 3.1491157e+1, -0.00000068067004, -14138.109, 0.254369, 0.0, 0.0013934295, 0.000003895868, 0.000003895868, 0.0, 0.012207031, 0.012038018 
6.1035156e-3, 3.1503195e+1, -0.0000024048459, -14140.091, -0.94304615, 0.0, 0.0013947752, 0.00006048981, 0.00006048981, 0.0, 0.012207031, 0.012037994 
6.1035156e-3, 3.1515235e+1, -0.0000006401841, -14120.385, 0.3612314, 0.0, 0.0013216867, 0.000008600931, 0.000008600931, 0.0, 0.012207031, 0.012038225 
6.1035156e-3, 3.1527272e+1, -0.00000070957935, -14117.53, -0.53537995, 0.0, 0.0015951437, 0.000019593665, 0.000019593665, 0.0, 0.012207031, 0.012038258 
6.1035156e-3, 3.153931e+1, -0.00000094869506, -14102.323, 0.50579697, 0.0, 0.0013191999, 0.00001719233, 0.00001719233, 0.0, 0.012207031, 0.012038437 
6.1035156e-3, 3.155135e+1, -0.0000003671488, -14099.865, -0.12612934, 0.0, 0.001406021, 0.00000076113247, 0.00000076113247, 0.0, 0.012207031, 0.012038466 
6.1035156e-3, 3.1563386e+1, -0.0000045735346, -14079.605, -1.3170942, 0.0, 0.0016083422, 0.00011863567, 0.00011863567, 0.0, 0.012207031, 0.012038702 
6.1035156e-3, 3.1575426e+1, -0.00000648756, -14082.595, 1.5541723, 0.0, 0.001213328, 0.00016503278, 0.00016503278, 0.0, 0.012207031, 0.012038668 
6.1035156e-3, 3.1587467e+1, -0.0000012537892, -14057.045, -0.5483362, 0.0, 0.0013601803, 0.000020135674, 0.000020135674, 0.0, 0.012207031, 0.012038967 
6.1035156e-3, 3.1599504e+1, -0.0000009065919, -14066.579, 0.5622753, 0.0, 0.0015809581, 0.000021568918, 0.000021568918, 0.0, 0.012207031, 0.012038855 
6.1035156e-3, 3.161154e+1, -0.0000046645464, -14037.829, 2.1644158, 0.0, 0.0014506957, 0.00032905483, 0.00032905483, 0.0, 0.012207031, 0.012039192 
6.1035156e-3, 3.162358e+1, -0.000007785367, -14043.24, -3.0140982, 0.0, 0.0013683033, 0.00063913, 0.00063913, 0.0, 0.012207031, 0.012039129 
6.1035156e-3, 3.163562e+1, -0.000002555833, -14020.436, -1.028299, 0.0, 0.0012127382, 0.00007286256, 0.00007286256, 0.0, 0.012207031, 0.012039395 
6.1035156e-3, 3.164766e+1, -0.0000044398403, -14023.739, 1.64179, 0.0, 0.0015661971, 0.00018776814, 0.00018776814, 0.0, 0.012207031, 0.012039357 
6.1035156e-3, 3.16597e+1, -0.000005769054, -13999.929, 1.5548205, 0.0, 0.0017470712, 0.00016690802, 0.00016690802, 0.0, 0.012207031, 0.012039635 
6.1035156e-3, 3.167174e+1, -0.0000043933114, -14009.333, 1.3735127, 0.0, 0.0010829201, 0.00013026957, 0.00013026957, 0.0, 0.012207031, 0.012039525 
6.1035156e-3, 3.168378e+1, -0.0000045200813, -13987.908, 1.4686619, 0.0, 0.0011778842, 0.00014968222, 0.00014968222, 0.0, 0.012207031, 0.012039776 
6.1035156e-3, 3.169582e+1, -0.0006065622, -13986.168, -24.912998, 0.0, 0.0017935163, 0.04376982, 0.04376982, 0.0, 0.012207031, 0.012039796 
6.1035156e-3, 3.170786e+1, -0.0004638699, -13954.919, -21.788239, 0.0, 0.0014077493, 0.033554688, 0.033554688, 0.0, 0.012207031, 0.012040162 
6.1035156e-3, 3.17199e+1, -0.000032634223, -13962.877, 5.755101, 0.0, 0.0012452506, 0.0023394544, 0.0023394544, 0.0, 0.012207031, 0.012040069 
6.1035156e-3, 3.173194e+1, -0.000016985707, -13937.668, -4.1845307, 0.0, 0.0015635728, 0.0012393433, 0.0012393433, 0.0, 0.012207031, 0.012040365 
6.1035156e-3, 3.174398e+1, -0.000027125117, -13946.428, -5.2799106, 0.0, 0.0013629912, 0.0019717703, 0.0019717703, 0.0, 0.012207031, 0.012040262 
6.1035156e-3, 3.175602e+1, -0.00016986043, -13922.212, -13.183392, 0.0, 0.0013299977, 0.012313907, 0.012313907, 0.0, 0.012207031, 0.012040546 
6.1035156e-3, 3.176806e+1, -0.0000025641916, -13928.177, 1.7355496, 0.0, 0.0014910847, 0.00021369757, 0.00021369757, 0.0, 0.012207031, 0.012040476 
6.1035156e-3, 3.1780103e+1, -0.0000062274507, -13900.018, -1.5345002, 0.0, 0.0014860065, 0.00016317455, 0.00016317455, 0.0, 0.012207031, 0.012040806 
6.1035156e-3, 3.179214e+1, -0.0000005460293, -13906.272, 0.3008067, 0.0, 0.0013651096, 0.0000059607246, 0.0000059607246, 0.0, 0.012207031, 0.012040732 
6.1035156e-3, 3.1804183e+1, -0.000004360624, -13882.416, 1.2702936, 0.0, 0.0013419105, 0.00011187605, 0.00011187605, 0.0, 0.012207031, 0.012041012 
6.1035156e-3, 3.1816223e+1, -0.00000072323763, -13887.657, -0.28780493, 0.0, 0.0014441952, 0.0000052411724, 0.0000052411724, 0.0, 0.012207031, 0.01204095 
6.1035156e-3, 3.1828263e+1, -0.0000005591175, -13865.737, 0.32457626, 0.0, 0.0015551108, 0.0000070387305, 0.0000070387305, 0.0, 0.012207031, 0.012041207 
6.1035156e-3, 3.1840307e+1, -0.0000024056526, -13866.207, -1.8816538, 0.0, 0.0013990988, 0.00025293604, 0.00025293604, 0.0, 0.012207031, 0.012041202 
6.1035156e-3, 3.1852347e+1, -0.0000016517146, -13841.0, -0.8037402, 0.0, 0.0011714036, 0.000045021094, 0.000045021094, 0.0, 0.012207031, 0.012041497 
6.1035156e-3, 3.186439e+1, -0.000008778102, -13849.973, 3.2074187, 0.0, 0.0015635266, 0.00073400565, 0.00073400565, 0.0, 0.012207031, 0.012041393 
6.1035156e-3, 3.187643e+1, -0.0000017230668, -13825.627, -0.83009434, 0.0, 0.0015787429, 0.000048116024, 0.000048116024, 0.0, 0.012207031, 0.012041678 
6.1035156e-3, 3.1888473e+1, -0.0000031968298, -13826.286, -1.085237, 0.0, 0.0012017459, 0.00008198434, 0.00008198434, 0.0, 0.012207031, 0.01204167 
6.1035156e-3, 3.1900513e+1, -0.0000004877604, -13804.998, 0.068082966, 0.0, 0.0015723618, -0.00000015199112, -0.00000015199112, 0.0, 0.012207031, 0.01204192 
6.1035156e-3, 3.1912556e+1, -0.00000081392176, -13813.326, -0.09689723, 0.0, 0.0013300695, -0.0000001342105, -0.0000001342105, 0.0, 0.012207031, 0.012041822 
6.1035156e-3, 3.1924596e+1, -0.0000005990305, -13781.608, -0.12186262, 0.0, 0.0014593789, 0.000000478527, 0.000000478527, 0.0, 0.012207031, 0.012042194 
6.1035156e-3, 3.193664e+1, -0.000005445863, -13785.684, -1.4740876, 0.0, 0.0015939962, 0.00015217665, 0.00015217665, 0.0, 0.012207031, 0.012042146 
6.1035156e-3, 3.1948683e+1, -0.000023627557, -13770.602, 4.944825, 0.0, 0.0010126905, 0.0017519878, 0.0017519878, 0.0, 0.012207031, 0.012042322 
6.1035156e-3, 3.1960723e+1, -0.0000008438138, -13771.92, 0.49800226, 0.0, 0.0015562923, 0.000017164295, 0.000017164295, 0.0, 0.012207031, 0.012042307 
6.1035156e-3, 3.1972766e+1, -0.000002485394, -13763.736, 0.9673826, 0.0, 0.0017320181, 0.000065506974, 0.000065506974, 0.0, 0.012207031, 0.012042403 
6.1035156e-3, 3.198481e+1, -0.0015300614, -13745.817, -39.559547, 0.0, 0.0011751484, 0.112318754, 0.112318754, 0.0, 0.012207031, 0.012042613 
6.1035156e-3, 3.1996852e+1, -0.00089826225, -13722.187, -30.311136, 0.0, 0.0014471569, 0.06605612, 0.06605612, 0.0, 0.012207031, 0.01204289 
6.1035156e-3, 3.2008895e+1, -0.000028639872, -13724.365, 5.4232717, 0.0, 0.0014533694, 0.0021144007, 0.0021144007, 0.0, 0.012207031, 0.012042864 
6.1035156e-3, 3.2020938e+1, -0.000007128055, -13706.152, -2.8605664, 0.0, 0.0014057993, 0.00058989145, 0.00058989145, 0.0, 0.012207031, 0.012043078 
6.1035156e-3, 3.2032982e+1, -0.00006947689, -13708.629, -8.432243, 0.0, 0.0014346158, 0.005117235, 0.005117235, 0.0, 0.012207031, 0.012043049 
6.1035156e-3, 3.2045025e+1, -0.00048242824, -13693.949, -22.211695, 0.0, 0.0014195462, 0.03554502, 0.03554502, 0.0, 0.012207031, 0.012043221 
6.1035156e-3, 3.2057068e+1, -0.000018999153, -13680.02, 4.431689, 0.0, 0.0015032128, 0.0014166614, 0.0014166614, 0.0, 0.012207031, 0.012043384 
6.1035156e-3, 3.206911e+1, -0.00004483464, -13676.881, -6.788702, 0.0, 0.0012883036, 0.0033248272, 0.0033248272, 0.0, 0.012207031, 0.012043421 
6.1035156e-3, 3.2081154e+1, -0.000003407944, -13661.39, 1.8809234, 0.0, 0.0013498374, 0.00025556076, 0.00025556076, 0.0, 0.012207031, 0.012043603 
6.1035156e-3, 3.2093197e+1, -0.000017059796, -13655.911, 4.2599626, 0.0, 0.00172841, 0.0013118357, 0.0013118357, 0.0, 0.012207031, 0.012043667 
6.1035156e-3, 3.210524e+1, -0.0000031667128, -13646.23, -1.1277227, 0.0, 0.0013215436, 0.00009002816, 0.00009002816, 0.0, 0.012207031, 0.012043781 
6.1035156e-3, 3.2117286e+1, -0.0000016593771, -13638.159, -1.7878219, 0.0, 0.0012746103, 0.00023270563, 0.00023270563, 0.0, 0.012207031, 0.012043875 
6.1035156e-3, 3.212933e+1, -0.00000068881036, -13622.482, -0.24877399, 0.0, 0.001560292, 0.000003854304, 0.000003854304, 0.0, 0.012207031, 0.012044059 
6.1035156e-3, 3.2141373e+1, -0.0000050816684, -13621.754, 1.3826177, 0.0, 0.0013577387, 0.00013525502, 0.00013525502, 0.0, 0.012207031, 0.0120440675 
6.1035156e-3, 3.215342e+1, -0.00000074088626, -13599.189, -0.17822634, 0.0, 0.0014658524, 0.0000015948863, 0.0000015948863, 0.0, 0.012207031, 0.012044332 
6.1035156e-3, 3.2165462e+1, -0.0000021244973, -13604.993, -0.87786597, 0.0, 0.0013997465, 0.000054520046, 0.000054520046, 0.0, 0.012207031, 0.012044264 
6.1035156e-3, 3.2177505e+1, -0.0000005160905, -13581.579, 0.051553585, 0.0, 0.001461951, -0.00000032040043, -0.00000032040043, 0.0, 0.012207031, 0.012044539 
6.1035156e-3, 3.218955e+1, -0.0000053795693, -13577.749, -2.3699727, 0.0, 0.0014175826, 0.0004082951, 0.0004082951, 0.0, 0.012207031, 0.012044583 
6.1035156e-3, 3.2201594e+1, -0.000004136607, -13565.373, 1.4865674, 0.0, 0.0011634497, 0.00015876954, 0.00015876954, 0.0, 0.012207031, 0.012044729 
6.1035156e-3, 3.2213643e+1, -0.000007885672, -13564.005, 3.1050897, 0.0, 0.0018434812, 0.0007029355, 0.0007029355, 0.0, 0.012207031, 0.012044745 
6.1035156e-3, 3.2225686e+1, -0.000005080906, -13544.637, -2.5282857, 0.0, 0.0015113808, 0.00046685713, 0.00046685713, 0.0, 0.012207031, 0.012044972 
6.1035156e-3, 3.2237732e+1, -0.0000038872968, -13544.919, -1.5804619, 0.0, 0.0009032587, 0.00018052576, 0.00018052576, 0.0, 0.012207031, 0.012044968 
6.1035156e-3, 3.2249776e+1, -0.00000041271775, -13517.8, 0.08506073, 0.0, 0.001666305, 0.00000012252713, 0.00000012252713, 0.0, 0.012207031, 0.012045287 
6.1035156e-3, 3.2261822e+1, -0.000001700464, -13525.449, 0.8295986, 0.0, 0.0014743815, 0.000049183902, 0.000049183902, 0.0, 0.012207031, 0.012045197 
6.1035156e-3, 3.2273865e+1, -0.0000010516054, -13502.572, 0.6506724, 0.0, 0.0013586559, 0.000030303496, 0.000030303496, 0.0, 0.012207031, 0.012045465 
6.1035156e-3, 3.228591e+1, -0.00000065513404, -13508.942, -0.38890868, 0.0, 0.0014948826, 0.000010541149, 0.000010541149, 0.0, 0.012207031, 0.012045391 
6.1035156e-3, 3.2297957e+1, -0.0000031669817, -13480.849, 1.2965434, 0.0, 0.0012385681, 0.00012153027, 0.00012153027, 0.0, 0.012207031, 0.01204572 
6.1035156e-3, 3.231e+1, -0.000007924852, -13482.599, -3.010995, 0.0, 0.0016393253, 0.00066450407, 0.00066450407, 0.0, 0.012207031, 0.012045699 
6.1035156e-3, 3.232205e+1, -0.0000005951813, -13468.033, 0.35936195, 0.0, 0.0014330382, 0.000008993526, 0.000008993526, 0.0, 0.012207031, 0.012045871 
6.1035156e-3, 3.2334095e+1, -0.000012999403, -13468.908, 3.5367959, 0.0, 0.0012336606, 0.00091572653, 0.00091572653, 0.0, 0.012207031, 0.01204586 
6.1035156e-3, 3.234614e+1, -0.0000063133316, -13441.852, -2.6883414, 0.0, 0.0015510857, 0.0005313491, 0.0005313491, 0.0, 0.012207031, 0.012046178 
6.1035156e-3, 3.2358184e+1, -0.0000032310747, -13445.922, -1.8963332, 0.0, 0.001361739, 0.00026421653, 0.00026421653, 0.0, 0.012207031, 0.012046129 
6.1035156e-3, 3.237023e+1, -0.00000070797995, -13418.519, -0.010208254, 0.0, 0.0014143258, -0.0000007002127, -0.0000007002127, 0.0, 0.012207031, 0.012046452 
6.1035156e-3, 3.238228e+1, -0.000022473914, -13438.217, 4.722221, 0.0, 0.0014326698, 0.0016369256, 0.0016369256, 0.0, 0.012207031, 0.01204622 
6.1035156e-3, 3.2394326e+1, -0.00074101676, -13401.747, -27.523449, 0.0, 0.0015287835, 0.05578423, 0.05578423, 0.0, 0.012207031, 0.012046648 
6.1035156e-3, 3.2406372e+1, -0.00015134469, -13418.276, -12.437184, 0.0, 0.001305064, 0.011376472, 0.011376472, 0.0, 0.012207031, 0.0120464545 
6.1035156e-3, 3.2418418e+1, -0.00048430578, -13390.219, -22.249887, 0.0, 0.0012608807, 0.036487166, 0.036487166, 0.0, 0.012207031, 0.012046783 
6.1035156e-3, 3.2430467e+1, -0.0005601293, -13395.18, -23.929476, 0.0, 0.001647156, 0.042187937, 0.042187937, 0.0, 0.012207031, 0.0120467255 
6.1035156e-3, 3.2442513e+1, -0.00000047118834, -13366.289, -0.09343962, 0.0, 0.0015734638, 0.000000182019, 0.000000182019, 0.0, 0.012207031, 0.0120470645 
6.1035156e-3, 3.245456e+1, -0.00479613, -13359.16, -70.01805, 0.0, 0.0011732894, 0.3621726, 0.3621726, 0.0, 0.012207031, 0.012047147 
6.1035156e-3, 3.2466605e+1, -0.00021042548, -13336.228, 14.6646385, 0.0, 0.0011739408, 0.015914928, 0.015914928, 0.0, 0.012207031, 0.0120474165 
6.1035156e-3, 3.2478654e+1, -0.000016490485, -13352.076, -4.0794845, 0.0, 0.0017932383, 0.0012299217, 0.0012299217, 0.0, 0.012207031, 0.012047231 
6.1035156e-3, 3.24907e+1, -0.0000054234793, -13317.882, 2.498852, 0.0, 0.0015984168, 0.00046343947, 0.00046343947, 0.0, 0.012207031, 0.012047633 
6.1035156e-3, 3.250275e+1, -0.0000017423146, -13331.703, -0.76716346, 0.0, 0.0010075546, 0.000042403568, 0.000042403568, 0.0, 0.012207031, 0.01204747 
6.1035156e-3, 3.25148e+1, -0.0000035759203, -13306.193, -1.205013, 0.0, 0.0015176092, 0.000105550425, 0.000105550425, 0.0, 0.012207031, 0.0120477695 
6.1035156e-3, 3.2526845e+1, -0.00000033782874, -13311.113, -0.11540322, 0.0, 0.0015140553, 0.0000006626815, 0.0000006626815, 0.0, 0.012207031, 0.012047712 
6.1035156e-3, 3.253889e+1, -0.00000053659625, -13284.66, 0.25998703, 0.0, 0.0013503716, 0.0000045514716, 0.0000045514716, 0.0, 0.012207031, 0.012048022 
6.1035156e-3, 3.2550943e+1, -0.0000013946377, -13291.944, 0.7903885, 0.0, 0.001463769, 0.000045604807, 0.000045604807, 0.0, 0.012207031, 0.012047936 
6.1035156e-3, 3.256299e+1, -0.0000023807268, -13269.344, 0.92290664, 0.0, 0.0014117912, 0.000061809085, 0.000061809085, 0.0, 0.012207031, 0.012048202 
6.1035156e-3, 3.2575035e+1, -0.0000043311456, -13270.488, -2.1977324, 0.0, 0.0014366282, 0.00035963647, 0.00035963647, 0.0, 0.012207031, 0.012048189 
6.1035156e-3, 3.2587087e+1, -0.000004906399, -13248.028, -1.4836321, 0.0, 0.0013570256, 0.00016124394, 0.00016124394, 0.0, 0.012207031, 0.012048452 
6.1035156e-3, 3.2599133e+1, -0.000005940948, -13252.163, 2.6301415, 0.0, 0.0014029992, 0.0005160602, 0.0005160602, 0.0, 0.012207031, 0.012048404 
6.1035156e-3, 3.2611182e+1, -0.00001508901, -13228.104, -3.8489022, 0.0, 0.0016744782, 0.0011048029, 0.0011048029, 0.0, 0.012207031, 0.012048686 
6.1035156e-3, 3.262323e+1, -0.0000014370861, -13230.966, 0.7294152, 0.0, 0.0012776677, 0.000038775135, 0.000038775135, 0.0, 0.012207031, 0.012048652 
6.1035156e-3, 3.263528e+1, -0.0000046433056, -13211.951, -2.2413633, 0.0, 0.0011385474, 0.0003755965, 0.0003755965, 0.0, 0.012207031, 0.012048876 
6.1035156e-3, 3.2647327e+1, -0.00000053997684, -13209.418, -0.253908, 0.0, 0.0016536473, 0.000004340578, 0.000004340578, 0.0, 0.012207031, 0.012048906 
6.1035156e-3, 3.265938e+1, -0.0000060261195, -13190.662, 2.5386355, 0.0, 0.0016967785, 0.0004825521, 0.0004825521, 0.0, 0.012207031, 0.0120491255 
6.1035156e-3, 3.2671425e+1, -0.0000043380805, -13191.606, -1.2647825, 0.0, 0.0012144359, 0.00011692653, 0.00011692653, 0.0, 0.012207031, 0.012049114 
6.1035156e-3, 3.2683477e+1, -0.0000034527554, -13171.778, -1.1522841, 0.0, 0.0011190214, 0.000097350545, 0.000097350545, 0.0, 0.012207031, 0.012049347 
6.1035156e-3, 3.2695526e+1, -0.0000049651485, -13171.192, 1.3187389, 0.0, 0.0016372516, 0.00012707092, 0.00012707092, 0.0, 0.012207031, 0.012049354 
6.1035156e-3, 3.2707572e+1, -0.00000092444657, -13152.961, -0.48145816, 0.0, 0.0017645333, 0.00001669911, 0.00001669911, 0.0, 0.012207031, 0.012049568 
6.1035156e-3, 3.2719624e+1, -0.0000013044097, -13151.56, 0.64482754, 0.0, 0.0011618306, 0.000030311807, 0.000030311807, 0.0, 0.012207031, 0.012049585 
6.1035156e-3, 3.2731673e+1, -0.000001683523, -13135.575, -0.835621, 0.0, 0.0012004834, 0.000051474595, 0.000051474595, 0.0, 0.012207031, 0.012049772 
6.1035156e-3, 3.2743725e+1, -0.00000091889154, -13132.648, -0.46714452, 0.0, 0.0016772853, 0.000015698015, 0.000015698015, 0.0, 0.012207031, 0.012049806 
6.1035156e-3, 3.275577e+1, -0.000034421217, -13111.752, -5.9032803, 0.0, 0.0014503662, 0.0026234016, 0.0026234016, 0.0, 0.012207031, 0.012050052 
6.1035156e-3, 3.2767823e+1, -0.000003918084, -13110.656, 2.261251, 0.0, 0.0012701773, 0.00038608952, 0.00038608952, 0.0, 0.012207031, 0.012050065 
6.1035156e-3, 3.2779872e+1, -0.000003609956, -13096.851, -2.1777565, 0.0, 0.0016271416, 0.00035850942, 0.00035850942, 0.0, 0.012207031, 0.012050227 
6.1035156e-3, 3.2791924e+1, -0.0000018104599, -13092.024, 1.6228683, 0.0, 0.001444727, 0.00019935794, 0.00019935794, 0.0, 0.012207031, 0.012050284 
6.1035156e-3, 3.2803974e+1, -0.000060571718, -13075.554, -7.8706274, 0.0, 0.0010858986, 0.004677029, 0.004677029, 0.0, 0.012207031, 0.012050477 
6.1035156e-3, 3.2816026e+1, -0.0000013358593, -13072.775, 0.7782458, 0.0, 0.0015151084, 0.00004499451, 0.00004499451, 0.0, 0.012207031, 0.012050509 
6.1035156e-3, 3.2828075e+1, -0.0000005775341, -13055.859, -0.23252107, 0.0, 0.0018438379, 0.0000035635985, 0.0000035635985, 0.0, 0.012207031, 0.012050709 
6.1035156e-3, 3.2840127e+1, -0.0000018328315, -13049.574, 0.86031395, 0.0, 0.0012523963, 0.000054884735, 0.000054884735, 0.0, 0.012207031, 0.012050782 
6.1035156e-3, 3.2852176e+1, -0.0000015111699, -13040.3545, -0.7822033, 0.0, 0.00107061, 0.000045407956, 0.000045407956, 0.0, 0.012207031, 0.01205089 
6.1035156e-3, 3.2864228e+1, -0.0000012865297, -13032.558, -0.6538355, 0.0, 0.0016658405, 0.000031516, 0.000031516, 0.0, 0.012207031, 0.012050983 
6.1035156e-3, 3.2876277e+1, -0.00000059901953, -13016.104, 0.3656059, 0.0, 0.0015552522, 0.00000967039, 0.00000967039, 0.0, 0.012207031, 0.012051175 
6.1035156e-3, 3.288833e+1, -0.00000045973215, -13011.718, 0.10678628, 0.0, 0.0013035891, 0.0000004166559, 0.0000004166559, 0.0, 0.012207031, 0.012051227 
6.1035156e-3, 3.2900384e+1, -0.0000010281258, -12999.127, 0.6188731, 0.0, 0.0014218454, 0.000028435694, 0.000028435694, 0.0, 0.012207031, 0.012051375 
6.1035156e-3, 3.2912433e+1, -0.00000075756856, -12993.759, 0.3779936, 0.0, 0.0013604702, 0.000010238415, 0.000010238415, 0.0, 0.012207031, 0.012051438 
6.1035156e-3, 3.2924485e+1, -0.0000014124555, -12980.515, -0.6935276, 0.0, 0.0016012014, 0.000035641584, 0.000035641584, 0.0, 0.012207031, 0.0120515935 
6.1035156e-3, 3.2936534e+1, -0.0000013088038, -12973.345, -0.5689678, 0.0, 0.0015189149, 0.000023644236, 0.000023644236, 0.0, 0.012207031, 0.012051677 
6.1035156e-3, 3.294859e+1, -0.0000018834346, -12959.648, -0.8123215, 0.0, 0.0010024986, 0.000049033548, 0.000049033548, 0.0, 0.012207031, 0.012051838 
6.1035156e-3, 3.296064e+1, -0.0000013811072, -12950.216, 0.7355777, 0.0, 0.0015597867, 0.000040400013, 0.000040400013, 0.0, 0.012207031, 0.012051949 
6.1035156e-3, 3.297269e+1, -0.0000013972476, -12944.235, -1.6955273, 0.0, 0.0017047569, 0.00022069487, 0.00022069487, 0.0, 0.012207031, 0.01205202 
6.1035156e-3, 3.2984746e+1, -0.00000085897733, -12937.71, 0.43078038, 0.0, 0.0012303145, 0.0000134844995, 0.0000134844995, 0.0, 0.012207031, 0.012052096 
6.1035156e-3, 3.2996795e+1, -0.00008548136, -12917.173, -9.336334, 0.0, 0.0014144853, 0.006662674, 0.006662674, 0.0, 0.012207031, 0.012052338 
6.1035156e-3, 3.300885e+1, -0.000005273225, -12914.75, 2.3612523, 0.0, 0.0014626301, 0.0004264434, 0.0004264434, 0.0, 0.012207031, 0.0120523665 
6.1035156e-3, 3.3020902e+1, -0.0000018254027, -12899.735, -1.6010672, 0.0, 0.0013970229, 0.00019689309, 0.00019689309, 0.0, 0.012207031, 0.0120525425 
6.1035156e-3, 3.3032954e+1, -0.00000080681775, -12896.402, 0.43283185, 0.0, 0.0014425354, 0.000013719979, 0.000013719979, 0.0, 0.012207031, 0.012052582 
6.1035156e-3, 3.3045006e+1, -0.0000058299634, -12880.962, 1.497106, 0.0, 0.0014051856, 0.00016817304, 0.00016817304, 0.0, 0.012207031, 0.012052763 
6.1035156e-3, 3.305706e+1, -0.0000013396176, -12876.525, -1.7707312, 0.0, 0.0014309317, 0.00024216465, 0.00024216465, 0.0, 0.012207031, 0.012052815 
6.1035156e-3, 3.306911e+1, -0.0000010553063, -12861.487, 0.6492326, 0.0, 0.0014064034, 0.000031717187, 0.000031717187, 0.0, 0.012207031, 0.012052992 
6.1035156e-3, 3.3081165e+1, -0.0000015149949, -12853.991, 0.74192953, 0.0, 0.0015297162, 0.000041309017, 0.000041309017, 0.0, 0.012207031, 0.01205308 
6.1035156e-3, 3.3093217e+1, -0.00000060327056, -12843.497, -0.38408634, 0.0, 0.0012509222, 0.000010882881, 0.000010882881, 0.0, 0.012207031, 0.012053204 
6.1035156e-3, 3.310527e+1, -0.0000018809023, -12840.147, 0.82606727, 0.0, 0.0013624749, 0.000051263905, 0.000051263905, 0.0, 0.012207031, 0.012053243 
6.1035156e-3, 3.3117324e+1, -0.0000048737515, -12819.735, -2.4438975, 0.0, 0.0016827718, 0.00046102, 0.00046102, 0.0, 0.012207031, 0.012053482 
6.1035156e-3, 3.312938e+1, -0.0000027146614, -12819.086, 1.8527217, 0.0, 0.0013159674, 0.0002650562, 0.0002650562, 0.0, 0.012207031, 0.012053491 
6.1035156e-3, 3.314143e+1, -0.000059595604, -12793.132, -7.804636, 0.0, 0.0013507237, 0.0047017345, 0.0047017345, 0.0, 0.012207031, 0.012053795 
6.1035156e-3, 3.3153483e+1, -0.00005801775, -12804.393, -7.6981554, 0.0, 0.0014465307, 0.0045702048, 0.0045702048, 0.0, 0.012207031, 0.012053663 
6.1035156e-3, 3.3165538e+1, -0.0000015002844, -12784.817, 0.76350915, 0.0, 0.001439886, 0.000044096472, 0.000044096472, 0.0, 0.012207031, 0.012053893 
6.1035156e-3, 3.3177593e+1, -0.0000010044786, -12782.854, -0.0060005896, 0.0, 0.0014442966, -0.0000010016629, -0.0000010016629, 0.0, 0.012207031, 0.012053916 
6.1035156e-3, 3.3189648e+1, -0.000004198057, -12767.494, -1.5560986, 0.0, 0.0013570396, 0.00018545879, 0.00018545879, 0.0, 0.012207031, 0.012054097 
6.1035156e-3, 3.3201703e+1, -0.0011102711, -12760.706, -33.671364, 0.0, 0.001438888, 0.08773691, 0.08773691, 0.0, 0.012207031, 0.012054176 
6.1035156e-3, 3.3213755e+1, -0.00007734319, -12738.126, 8.887143, 0.0, 0.0014257757, 0.0061230403, 0.0061230403, 0.0, 0.012207031, 0.0120544415 
6.1035156e-3, 3.322581e+1, -0.000012730721, -12738.822, -3.5634766, 0.0, 0.0014806172, 0.0009840934, 0.0009840934, 0.0, 0.012207031, 0.012054434 
6.1035156e-3, 3.3237866e+1, -0.00000073878095, -12718.926, -0.44330287, 0.0, 0.0013388122, 0.000014712008, 0.000014712008, 0.0, 0.012207031, 0.012054668 
6.1035156e-3, 3.324992e+1, -0.0000043334403, -12722.237, 1.3236961, 0.0, 0.0013403976, 0.00013339167, 0.00013339167, 0.0, 0.012207031, 0.012054629 
6.1035156e-3, 3.3261976e+1, -0.00000082055453, -12701.687, 0.5396466, 0.0, 0.0015907083, 0.00002210699, 0.00002210699, 0.0, 0.012207031, 0.01205487 
6.1035156e-3, 3.3274028e+1, -0.000007940787, -12707.349, 3.085709, 0.0, 0.0014261676, 0.0007413579, 0.0007413579, 0.0, 0.012207031, 0.012054804 
6.1035156e-3, 3.3286083e+1, -0.0000068606837, -12685.126, -2.9487662, 0.0, 0.0012996454, 0.0006786053, 0.0006786053, 0.0, 0.012207031, 0.0120550655 
6.1035156e-3, 3.3298138e+1, -0.0000043691152, -12690.153, 2.3178515, 0.0, 0.0014251549, 0.00041898558, 0.00041898558, 0.0, 0.012207031, 0.012055006 
6.1035156e-3, 3.3310193e+1, -0.0012734993, -12657.753, -36.05887, 0.0, 0.0014964612, 0.10144864, 0.10144864, 0.0, 0.012207031, 0.012055387 
6.1035156e-3, 3.332225e+1, -0.00006533613, -12661.259, 8.165413, 0.0, 0.0014168937, 0.0052006436, 0.0052006436, 0.0, 0.012207031, 0.012055346 
6.1035156e-3, 3.3334306e+1, -0.000021859865, -12641.628, -4.766647, 0.0, 0.0013867142, 0.00177545, 0.00177545, 0.0, 0.012207031, 0.012055577 
6.1035156e-3, 3.3346358e+1, -0.0000019375998, -12645.336, 1.7430171, 0.0, 0.0014091836, 0.00023831765, 0.00023831765, 0.0, 0.012207031, 0.012055533 
6.1035156e-3, 3.335842e+1, -0.00001197174, -12619.047, -3.4112306, 0.0, 0.0014792532, 0.0009101655, 0.0009101655, 0.0, 0.012207031, 0.012055842 
6.1035156e-3, 3.337047e+1, -0.00000089548405, -12629.328, 0.5079339, 0.0, 0.0013591351, 0.000019532908, 0.000019532908, 0.0, 0.012207031, 0.012055721 
6.1035156e-3, 3.3382526e+1, -0.00000062904275, -12605.46, 0.39484376, 0.0, 0.0014732232, 0.000011738739, 0.000011738739, 0.0, 0.012207031, 0.012056001 
6.1035156e-3, 3.3394584e+1, -0.000003085924, -12605.105, -1.2154285, 0.0, 0.0014440982, 0.00011410995, 0.00011410995, 0.0, 0.012207031, 0.012056006 
6.1035156e-3, 3.340664e+1, -0.0000032483474, -12578.737, -1.1419601, 0.0, 0.0013548287, 0.00010042445, 0.00010042445, 0.0, 0.012207031, 0.012056316 
6.1035156e-3, 3.3418697e+1, -0.0000010692353, -12587.475, -0.4936531, 0.0, 0.0015142779, 0.000018290755, 0.000018290755, 0.0, 0.012207031, 0.012056214 
6.1035156e-3, 3.3430752e+1, -0.000011240191, -12568.837, 3.2604856, 0.0, 0.0013501646, 0.0008345633, 0.0008345633, 0.0, 0.012207031, 0.012056433 
6.1035156e-3, 3.344281e+1, -0.0000145387985, -12566.768, 3.8478029, 0.0, 0.0014470278, 0.001163615, 0.001163615, 0.0, 0.012207031, 0.012056457 
6.1035156e-3, 3.3454865e+1, -0.000025019146, -12549.506, -5.0569677, 0.0, 0.0015203276, 0.0020127438, 0.0020127438, 0.0, 0.012207031, 0.01205666 
6.1035156e-3, 3.3466923e+1, -0.0000035054284, -12552.54, 2.0488427, 0.0, 0.0011500642, 0.00033090948, 0.00033090948, 0.0, 0.012207031, 0.0120566245 
6.1035156e-3, 3.3478978e+1, -0.0011653946, -12520.968, -34.491535, 0.0, 0.0015999466, 0.09384779, 0.09384779, 0.0, 0.012207031, 0.012056996 
6.1035156e-3, 3.3491036e+1, -0.00011384983, -12526.575, 10.776602, 0.0, 0.0017767008, 0.009157245, 0.009157245, 0.0, 0.012207031, 0.01205693 
6.1035156e-3, 3.3503094e+1, -0.000028128285, -12510.728, -5.353098, 0.0, 0.0010711197, 0.002262358, 0.002262358, 0.0, 0.012207031, 0.012057116 
6.1035156e-3, 3.351515e+1, -0.000002188943, -12509.444, 1.7563002, 0.0, 0.0011099945, 0.000244392, 0.000244392, 0.0, 0.012207031, 0.012057131 
6.1035156e-3, 3.3527207e+1, -0.0012479397, -12481.607, -35.690937, 0.0, 0.0018765561, 0.10080885, 0.10080885, 0.0, 0.012207031, 0.012057459 
6.1035156e-3, 3.3539265e+1, -0.00010839654, -12485.354, 10.519234, 0.0, 0.0015465763, 0.008754324, 0.008754324, 0.0, 0.012207031, 0.012057414 
6.1035156e-3, 3.3551323e+1, -0.0000247594, -12472.274, -5.0328956, 0.0, 0.0011206233, 0.0020061478, 0.0020061478, 0.0, 0.012207031, 0.012057569 
6.1035156e-3, 3.356338e+1, -0.000004346112, -12463.704, -1.2074764, 0.0, 0.0014955201, 0.00011263349, 0.00011263349, 0.0, 0.012207031, 0.012057669 
6.1035156e-3, 3.3575436e+1, -0.0000072103508, -12445.913, 2.9256248, 0.0, 0.0015505942, 0.0006805078, 0.0006805078, 0.0, 0.012207031, 0.012057879 
6.1035156e-3, 3.3587494e+1, -0.0000038308617, -12449.765, -1.2213843, 0.0, 0.0011970648, 0.00011599305, 0.00011599305, 0.0, 0.012207031, 0.012057833 
6.1035156e-3, 3.3599553e+1, -0.0000005524222, -12432.041, 0.33959776, 0.0, 0.0014820632, 0.000008724144, 0.000008724144, 0.0, 0.012207031, 0.012058042 
6.1035156e-3, 3.361161e+1, -0.000005335469, -12427.731, 2.378074, 0.0, 0.0018138692, 0.0004497142, 0.0004497142, 0.0, 0.012207031, 0.012058092 
6.1035156e-3, 3.362367e+1, -0.000005501985, -12410.739, -2.6360357, 0.0, 0.0011976958, 0.0005543908, 0.0005543908, 0.0, 0.012207031, 0.0120582925 
6.1035156e-3, 3.3635727e+1, -0.0000005827914, -12409.138, 0.20875527, 0.0, 0.0010214733, 0.0000029290368, 0.0000029290368, 0.0, 0.012207031, 0.012058311 
6.1035156e-3, 3.3647785e+1, -0.00004468367, -12391.821, -6.742826, 0.0, 0.0017801849, 0.003624324, 0.003624324, 0.0, 0.012207031, 0.012058515 
6.1035156e-3, 3.3659843e+1, -0.000004027738, -12389.577, 2.1565359, 0.0, 0.0016704972, 0.00037134, 0.00037134, 0.0, 0.012207031, 0.012058541 
6.1035156e-3, 3.36719e+1, -0.000005593451, -12372.313, -2.6225395, 0.0, 0.0011695045, 0.00055030204, 0.00055030204, 0.0, 0.012207031, 0.012058745 
6.1035156e-3, 3.3683965e+1, -0.000000784052, -12366.911, -0.47162765, 0.0, 0.0012946036, 0.000017202061, 0.000017202061, 0.0, 0.012207031, 0.0120588085 
6.1035156e-3, 3.3696023e+1, -0.0000010202558, -12352.755, -0.5297261, 0.0, 0.0016214036, 0.000021696113, 0.000021696113, 0.0, 0.012207031, 0.012058975 
6.1035156e-3, 3.370808e+1, -0.0000037596128, -12348.666, 1.858938, 0.0, 0.0014004662, 0.0002760804, 0.0002760804, 0.0, 0.012207031, 0.012059023 
6.1035156e-3, 3.372014e+1, -0.0000030122933, -12335.28, -0.9921985, 0.0, 0.0013025964, 0.000076796015, 0.000076796015, 0.0, 0.012207031, 0.012059181 
6.1035156e-3, 3.3732197e+1, -0.0000041765393, -12326.433, -2.0677478, 0.0, 0.0016778277, 0.0003426863, 0.0003426863, 0.0, 0.012207031, 0.012059284 
6.1035156e-3, 3.3744258e+1, -0.000005478786, -12318.773, 2.4593754, 0.0, 0.0013970167, 0.00048552197, 0.00048552197, 0.0, 0.012207031, 0.012059375 
6.1035156e-3, 3.3756316e+1, -0.0000033769836, -12308.675, 1.1127537, 0.0, 0.0010641485, 0.00009722043, 0.00009722043, 0.0, 0.012207031, 0.012059494 
6.1035156e-3, 3.3768377e+1, -0.000016418353, -12292.573, -4.103763, 0.0, 0.0015570616, 0.0013535853, 0.0013535853, 0.0, 0.012207031, 0.012059683 
6.1035156e-3, 3.3780438e+1, -0.0000010140438, -12286.404, 1.6302786, 0.0, 0.0018079084, 0.00021530704, 0.00021530704, 0.0, 0.012207031, 0.012059756 
6.1035156e-3, 3.3792496e+1, -0.0000032328203, -12278.259, -1.2311105, 0.0, 0.0012700286, 0.000120207565, 0.000120207565, 0.0, 0.012207031, 0.012059852 
6.1035156e-3, 3.3804557e+1, -0.00009521276, -12266.598, -9.858437, 0.0, 0.0010288499, 0.007827825, 0.007827825, 0.0, 0.012207031, 0.012059989 
6.1035156e-3, 3.3816615e+1, -0.000020405323, -12257.045, -4.569713, 0.0, 0.0017010137, 0.0016832905, 0.0016832905, 0.0, 0.012207031, 0.012060101 
6.1035156e-3, 3.382868e+1, -0.0000021094747, -12251.463, -1.6447002, 0.0, 0.0015429973, 0.00021868362, 0.00021868362, 0.0, 0.012207031, 0.012060167 
6.1035156e-3, 3.3840737e+1, -0.00000070950347, -12245.472, -0.49868792, 0.0, 0.0011620182, 0.000019599198, 0.000019599198, 0.0, 0.012207031, 0.012060238 
6.1035156e-3, 3.3852798e+1, -0.00024861834, -12224.558, -15.9267235, 0.0, 0.0017027465, 0.020501424, 0.020501424, 0.0, 0.012207031, 0.012060484 
6.1035156e-3, 3.3864856e+1, -0.0000027837132, -12216.947, -1.3970882, 0.0, 0.0013599523, 0.0001569825, 0.0001569825, 0.0, 0.012207031, 0.012060573 
6.1035156e-3, 3.387692e+1, -0.00000092181944, -12209.69, 0.52000105, 0.0, 0.0012024641, 0.000021224614, 0.000021224614, 0.0, 0.012207031, 0.012060659 
6.1035156e-3, 3.3888978e+1, -0.000004007725, -12202.994, 1.9273254, 0.0, 0.0016568931, 0.00030039158, 0.00030039158, 0.0, 0.012207031, 0.012060738 
6.1035156e-3, 3.390104e+1, -0.000004591608, -12190.317, -2.27201, 0.0, 0.0012773059, 0.00041886163, 0.00041886163, 0.0, 0.012207031, 0.012060887 
6.1035156e-3, 3.39131e+1, -0.0000063930074, -12180.205, -2.7527688, 0.0, 0.0013440468, 0.0006157423, 0.0006157423, 0.0, 0.012207031, 0.012061006 
6.1035156e-3, 3.3925164e+1, -0.000020048641, -12167.8955, 4.4939256, 0.0, 0.0017166473, 0.0016396767, 0.0016396767, 0.0, 0.012207031, 0.012061151 
6.1035156e-3, 3.3937222e+1, -0.000012217216, -12158.009, 3.5359502, 0.0, 0.0014221007, 0.0010161537, 0.0010161537, 0.0, 0.012207031, 0.012061267 
6.1035156e-3, 3.3949283e+1, -0.000032570428, -12156.733, -5.7691603, 0.0, 0.0010572638, 0.0027052707, 0.0027052707, 0.0, 0.012207031, 0.012061283 
6.1035156e-3, 3.3961347e+1, -0.000027877988, -12153.177, 5.325238, 0.0, 0.001408359, 0.0023055167, 0.0023055167, 0.0, 0.012207031, 0.012061324 
6.1035156e-3, 3.3973408e+1, -0.0017177141, -12122.325, -41.86112, 0.0, 0.0019266743, 0.14283645, 0.14283645, 0.0, 0.012207031, 0.012061688 
6.1035156e-3, 3.398547e+1, -0.00007577994, -12117.337, 8.787433, 0.0, 0.0012434553, 0.006296819, 0.006296819, 0.0, 0.012207031, 0.012061747 
6.1035156e-3, 3.3997533e+1, -0.0000036147649, -12116.124, -2.0939844, 0.0, 0.0011394141, 0.00035828067, 0.00035828067, 0.0, 0.012207031, 0.012061761 
6.1035156e-3, 3.4009594e+1, -0.000003511677, -12100.699, 2.0632021, 0.0, 0.0017035784, 0.00034826994, 0.00034826994, 0.0, 0.012207031, 0.012061942 
6.1035156e-3, 3.4021655e+1, -0.0007305101, -12090.545, -27.297577, 0.0, 0.0012660928, 0.06090062, 0.06090062, 0.0, 0.012207031, 0.0120620625 
6.1035156e-3, 3.403372e+1, -0.000029035975, -12080.058, 5.4561567, 0.0, 0.0014386589, 0.0024353266, 0.0024353266, 0.0, 0.012207031, 0.012062185 
6.1035156e-3, 3.404578e+1, -0.000013871839, -12069.459, -3.7142513, 0.0, 0.0015609062, 0.0011291505, 0.0011291505, 0.0, 0.012207031, 0.01206231 
6.1035156e-3, 3.4057844e+1, -0.000001799674, -12064.104, 0.75544065, 0.0, 0.0011528339, 0.000045505174, 0.000045505174, 0.0, 0.012207031, 0.012062374 
6.1035156e-3, 3.4069905e+1, -0.000009780043, -12050.732, 3.1729045, 0.0, 0.001757527, 0.00082563167, 0.00082563167, 0.0, 0.012207031, 0.012062531 
6.1035156e-3, 3.4081966e+1, -0.0000012669501, -12045.084, -0.58948106, 0.0, 0.0015039805, 0.000027581993, 0.000027581993, 0.0, 0.012207031, 0.012062597 
6.1035156e-3, 3.409403e+1, -0.0000014774441, -12032.8955, -1.6508287, 0.0, 0.0009767194, 0.00022500464, 0.00022500464, 0.0, 0.012207031, 0.012062741 
6.1035156e-3, 3.410609e+1, -0.00000088685135, -12024.304, -0.4605489, 0.0, 0.0016476125, 0.000016752863, 0.000016752863, 0.0, 0.012207031, 0.012062842 
6.1035156e-3, 3.4118152e+1, -0.0000037031161, -12015.78, 2.034536, 0.0, 0.0015172823, 0.0003407885, 0.0003407885, 0.0, 0.012207031, 0.012062943 
6.1035156e-3, 3.413022e+1, -0.0000028537718, -11999.691, -1.767826, 0.0, 0.0011729266, 0.00025758697, 0.00025758697, 0.0, 0.012207031, 0.012063133 
6.1035156e-3, 3.414228e+1, -0.0000007424745, -11995.787, 0.4700956, 0.0, 0.0017234725, 0.000017679815, 0.000017679815, 0.0, 0.012207031, 0.012063178 
6.1035156e-3, 3.4154344e+1, -0.00001273509, -11985.444, 3.5734732, 0.0, 0.0016355651, 0.0010526998, 0.0010526998, 0.0, 0.012207031, 0.0120633 
6.1035156e-3, 3.4166408e+1, -0.000005765134, -11984.437, -2.6709483, 0.0, 0.0008825627, 0.00058950396, 0.00058950396, 0.0, 0.012207031, 0.012063312 
6.1035156e-3, 3.4178472e+1, -0.000010098614, -11963.125, 3.2099566, 0.0, 0.0014000844, 0.00085119985, 0.00085119985, 0.0, 0.012207031, 0.012063563 
6.1035156e-3, 3.4190533e+1, -0.0014765062, -11950.659, -38.804604, 0.0, 0.0019353052, 0.12452338, 0.12452338, 0.0, 0.012207031, 0.01206371 
6.1035156e-3, 3.42026e+1, -0.00011104995, -11941.794, 10.639494, 0.0, 0.0013503783, 0.009368157, 0.009368157, 0.0, 0.012207031, 0.012063814 
6.1035156e-3, 3.421466e+1, -0.000036651134, -11937.671, -6.118181, 0.0, 0.0011594001, 0.00309898, 0.00309898, 0.0, 0.012207031, 0.012063863 
6.1035156e-3, 3.4226727e+1, -0.00015841005, -11925.553, -12.70897, 0.0, 0.0015084145, 0.013385426, 0.013385426, 0.0, 0.012207031, 0.012064006 
6.1035156e-3, 3.4238788e+1, -0.0021185696, -11918.544, -46.4811, 0.0, 0.0015437742, 0.17915024, 0.17915024, 0.0, 0.012207031, 0.012064088 
6.1035156e-3, 3.4250855e+1, -0.00014987907, -11901.923, 12.360088, 0.0, 0.0014012215, 0.012685998, 0.012685998, 0.0, 0.012207031, 0.012064285 
6.1035156e-3, 3.426292e+1, -0.000011704447, -11906.162, -3.3109689, 0.0, 0.0014080439, 0.0009090384, 0.0009090384, 0.0, 0.012207031, 0.012064234 
6.1035156e-3, 3.4274983e+1, -0.000013335933, -11878.717, -3.6622684, 0.0, 0.0014314026, 0.0011157597, 0.0011157597, 0.0, 0.012207031, 0.0120645575 
6.1035156e-3, 3.4287047e+1, -0.000012748427, -11875.085, 3.489033, 0.0, 0.0014471167, 0.0010123686, 0.0010123686, 0.0, 0.012207031, 0.0120646 
6.1035156e-3, 3.429911e+1, -0.000000993927, -11866.559, 1.5833689, 0.0, 0.0015147872, 0.00021027685, 0.00021027685, 0.0, 0.012207031, 0.012064701 
6.1035156e-3, 3.4311175e+1, -0.0000021056453, -11866.99, -0.88406456, 0.0, 0.0013094732, 0.000063755215, 0.000063755215, 0.0, 0.012207031, 0.012064696 
6.1035156e-3, 3.4323242e+1, -0.000004096983, -11839.743, -1.2832263, 0.0, 0.00148892, 0.00013498287, 0.00013498287, 0.0, 0.012207031, 0.012065017 
6.1035156e-3, 3.433531e+1, -0.0000014336841, -11841.328, -0.6863486, 0.0, 0.001434289, 0.000038348546, 0.000038348546, 0.0, 0.012207031, 0.012064998 
6.1035156e-3, 3.434737e+1, -0.00000053188245, -11821.682, 0.13839698, 0.0, 0.0014570791, 0.0000010883396, 0.0000010883396, 0.0, 0.012207031, 0.01206523 
6.1035156e-3, 3.4359437e+1, -0.0000032971345, -11823.113, 1.8923765, 0.0, 0.0014175954, 0.00029959172, 0.00029959172, 0.0, 0.012207031, 0.012065213 
6.1035156e-3, 3.43715e+1, -0.000006635386, -11808.117, 2.9098723, 0.0, 0.0013853168, 0.0007104439, 0.0007104439, 0.0, 0.012207031, 0.01206539 
6.1035156e-3, 3.4383568e+1, -0.000010329984, -11810.503, -3.1587157, 0.0, 0.0015196976, 0.0008344676, 0.0008344676, 0.0, 0.012207031, 0.012065362 
6.1035156e-3, 3.4395635e+1, -0.0000055495316, -11786.039, 2.445059, 0.0, 0.001383767, 0.0005016873, 0.0005016873, 0.0, 0.012207031, 0.01206565 
6.1035156e-3, 3.44077e+1, -0.00114526, -11774.613, -34.171993, 0.0, 0.0014076555, 0.098027036, 0.098027036, 0.0, 0.012207031, 0.012065785 
6.1035156e-3, 3.4419766e+1, -0.000048553025, -11768.4375, 7.0411706, 0.0, 0.0015946015, 0.0041642464, 0.0041642464, 0.0, 0.012207031, 0.012065858 
6.1035156e-3, 3.443183e+1, -0.000006573106, -11766.438, -2.8279629, 0.0, 0.0012849629, 0.00067310355, 0.00067310355, 0.0, 0.012207031, 0.012065881 
6.1035156e-3, 3.4443897e+1, -0.0000013990982, -11741.15, 0.79429257, 0.0, 0.0012976528, 0.000052335046, 0.000052335046, 0.0, 0.012207031, 0.012066179 
6.1035156e-3, 3.4455964e+1, -0.00011692842, -11744.848, -10.9195, 0.0, 0.0016004025, 0.010035215, 0.010035215, 0.0, 0.012207031, 0.012066136 
6.1035156e-3, 3.4468028e+1, -0.00001684999, -11725.21, 4.1286173, 0.0, 0.0016338183, 0.0014368962, 0.0014368962, 0.0, 0.012207031, 0.012066367 
6.1035156e-3, 3.4480095e+1, -0.000007664953, -11721.449, -2.9941893, 0.0, 0.0011748495, 0.0007571866, 0.0007571866, 0.0, 0.012207031, 0.012066412 
6.1035156e-3, 3.4492162e+1, -0.000003404727, -11710.753, -1.2303768, 0.0, 0.0012240077, 0.0001258634, 0.0001258634, 0.0, 0.012207031, 0.0120665375 
6.1035156e-3, 3.4504226e+1, -0.000004235512, -11702.653, 2.088679, 0.0, 0.0017094269, 0.0003685501, 0.0003685501, 0.0, 0.012207031, 0.012066633 
6.1035156e-3, 3.4516296e+1, -0.00000050715425, -11688.375, 0.20118843, 0.0, 0.0016188252, 0.0000029558414, 0.0000029558414, 0.0, 0.012207031, 0.012066802 
6.1035156e-3, 3.4528363e+1, -0.00000045880012, -11683.77, 0.24782567, 0.0, 0.0011736399, 0.0000047978556, 0.0000047978556, 0.0, 0.012207031, 0.012066856 
6.1035156e-3, 3.4540427e+1, -0.000002166356, -11671.468, -0.9001259, 0.0, 0.001205526, 0.00006725307, 0.00006725307, 0.0, 0.012207031, 0.012067001 
6.1035156e-3, 3.4552497e+1, -0.000001290985, -11665.232, -0.7151191, 0.0, 0.0016418699, 0.000042548294, 0.000042548294, 0.0, 0.012207031, 0.012067075 
6.1035156e-3, 3.4564564e+1, -0.0000007291797, -11645.941, -0.19399144, 0.0, 0.0017752667, 0.0000025022182, 0.0000025022182, 0.0, 0.012207031, 0.012067302 
6.1035156e-3, 3.457663e+1, -0.0000010911511, -11645.002, 0.6840463, 0.0, 0.0010417926, 0.000039090843, 0.000039090843, 0.0, 0.012207031, 0.012067313 
6.1035156e-3, 3.45887e+1, -0.0000049302457, -11632.986, 1.3652334, 0.0, 0.0012561731, 0.00015529193, 0.00015529193, 0.0, 0.012207031, 0.012067455 
6.1035156e-3, 3.4600765e+1, -0.0000015464628, -11627.236, -1.4410009, 0.0, 0.0017465312, 0.00017704144, 0.00017704144, 0.0, 0.012207031, 0.012067523 
6.1035156e-3, 3.461283e+1, -0.000011403774, -11616.854, 3.2197187, 0.0, 0.0013400414, 0.0008809711, 0.0008809711, 0.0, 0.012207031, 0.012067645 
6.1035156e-3, 3.46249e+1, -0.0012194403, -11600.973, -35.255157, 0.0, 0.0013127495, 0.1059194, 0.1059194, 0.0, 0.012207031, 0.012067832 
6.1035156e-3, 3.4636965e+1, -0.000089293266, -11590.442, 9.542631, 0.0, 0.0016689767, 0.0077673304, 0.0077673304, 0.0, 0.012207031, 0.012067957 
6.1035156e-3, 3.4649035e+1, -0.0000066722705, -11583.231, -2.8306084, 0.0, 0.0013480162, 0.0006850469, 0.0006850469, 0.0, 0.012207031, 0.012068042 
6.1035156e-3, 3.4661105e+1, -0.0000055278265, -11575.635, -2.5972316, 0.0, 0.0010612613, 0.00057721447, 0.00057721447, 0.0, 0.012207031, 0.012068131 
6.1035156e-3, 3.4673172e+1, -0.0000033693138, -11558.649, 1.1254526, 0.0, 0.0016316569, 0.000106214735, 0.000106214735, 0.0, 0.012207031, 0.012068331 
6.1035156e-3, 3.4685242e+1, -0.0000023045434, -11555.712, 1.6262307, 0.0, 0.0018052753, 0.00022655426, 0.00022655426, 0.0, 0.012207031, 0.012068367 
6.1035156e-3, 3.4697312e+1, -0.000018760451, -11545.572, 4.423943, 0.0, 0.0011751628, 0.0016763718, 0.0016763718, 0.0, 0.012207031, 0.012068486 
6.1035156e-3, 3.4709376e+1, -0.00001811836, -11544.576, -4.26059, 0.0, 0.001022216, 0.0015542759, 0.0015542759, 0.0, 0.012207031, 0.012068498 
6.1035156e-3, 3.4721446e+1, -0.000013284762, -11530.516, 3.738266, 0.0, 0.0016953987, 0.0011986846, 0.0011986846, 0.0, 0.012207031, 0.012068664 
6.1035156e-3, 3.4733516e+1, -0.0025106561, -11509.811, -50.58351, 0.0, 0.0017666639, 0.21979037, 0.21979037, 0.0, 0.012207031, 0.012068908 
6.1035156e-3, 3.4745583e+1, -0.0001377241, -11497.708, 11.847161, 0.0, 0.0010612537, 0.012069499, 0.012069499, 0.0, 0.012207031, 0.01206905 
6.1035156e-3, 3.4757653e+1, -0.000019598321, -11500.772, -4.497449, 0.0, 0.0014355743, 0.0017391567, 0.0017391567, 0.0, 0.012207031, 0.012069015 
6.1035156e-3, 3.4769723e+1, -0.00000049415576, -11484.5205, -0.30214283, 0.0, 0.0015184272, 0.0000074548298, 0.0000074548298, 0.0, 0.012207031, 0.012069206 
6.1035156e-3, 3.4781793e+1, -0.000028778984, -11479.655, 5.4136987, 0.0, 0.0013576405, 0.0025242707, 0.0025242707, 0.0, 0.012207031, 0.0120692635 
6.1035156e-3, 3.4793863e+1, -0.0007721135, -11459.015, -28.050817, 0.0, 0.0016370805, 0.067893796, 0.067893796, 0.0, 0.012207031, 0.0120695075 
6.1035156e-3, 3.480593e+1, -0.00003277769, -11463.972, 5.7745934, 0.0, 0.0009955798, 0.0028759802, 0.0028759802, 0.0, 0.012207031, 0.012069449 
6.1035156e-3, 3.4818e+1, -0.000015290876, -11447.121, -3.972897, 0.0, 0.0014321307, 0.0013635631, 0.0013635631, 0.0, 0.012207031, 0.012069647 
6.1035156e-3, 3.483007e+1, -0.000014007164, -11442.824, 3.913926, 0.0, 0.0021009056, 0.0013247195, 0.0013247195, 0.0, 0.012207031, 0.012069698 
6.1035156e-3, 3.484214e+1, -0.0013033219, -11418.041, -36.44226, 0.0, 0.0010902031, 0.11500603, 0.11500603, 0.0, 0.012207031, 0.012069991 
6.1035156e-3, 3.485421e+1, -0.000068417365, -11421.155, 8.346532, 0.0, 0.0010076972, 0.0060311886, 0.0060311886, 0.0, 0.012207031, 0.012069954 
6.1035156e-3, 3.486628e+1, -0.00002184056, -11405.966, -4.6796217, 0.0, 0.0017685458, 0.0018981069, 0.0018981069, 0.0, 0.012207031, 0.012070133 
6.1035156e-3, 3.487835e+1, -0.0000005461347, -11398.547, 0.18063979, 0.0, 0.0014982683, 0.000002316574, 0.000002316574, 0.0, 0.012207031, 0.012070221 
6.1035156e-3, 3.489042e+1, -0.0000037343007, -11378.489, 2.1352987, 0.0, 0.0013387243, 0.000396978, 0.000396978, 0.0, 0.012207031, 0.012070457 
6.1035156e-3, 3.4902492e+1, -0.0000012593318, -11387.2, -0.6590687, 0.0, 0.0014027755, 0.000036886267, 0.000036886267, 0.0, 0.012207031, 0.012070355 
6.1035156e-3, 3.4914562e+1, -0.000001449557, -11367.18, -0.73649365, 0.0, 0.0013937101, 0.000046268782, 0.000046268782, 0.0, 0.012207031, 0.012070591 
6.1035156e-3, 3.4926632e+1, -0.0000005711585, -11364.556, 0.4101026, 0.0, 0.001583137, 0.000014227848, 0.000014227848, 0.0, 0.012207031, 0.012070622 
6.1035156e-3, 3.4938702e+1, -0.0000008308537, -11339.555, -0.2279103, 0.0, 0.0013847606, 0.0000037498467, 0.0000037498467, 0.0, 0.012207031, 0.012070917 
6.1035156e-3, 3.4950775e+1, -0.000003878999, -11346.728, -1.1568812, 0.0, 0.0013209879, 0.000114073424, 0.000114073424, 0.0, 0.012207031, 0.012070833 
6.1035156e-3, 3.4962845e+1, -0.000047507838, -11327.616, -6.9551115, 0.0, 0.0014641965, 0.0042229015, 0.0042229015, 0.0, 0.012207031, 0.012071058 
6.1035156e-3, 3.4974915e+1, -0.000013244499, -11324.801, 3.7513018, 0.0, 0.0015284626, 0.0012293613, 0.0012293613, 0.0, 0.012207031, 0.012071091 
6.1035156e-3, 3.4986988e+1, -0.000008335392, -11304.36, -2.980428, 0.0, 0.0015430987, 0.0007774632, 0.0007774632, 0.0, 0.012207031, 0.012071333 
6.1035156e-3, 3.4999058e+1, -0.0000006309349, -11307.434, -0.29364088, 0.0, 0.0010908815, 0.0000069945763, 0.0000069945763, 0.0, 0.012207031, 0.012071297 
6.1035156e-3, 3.501113e+1, -0.0000016833397, -11279.589, -1.5000155, 0.0, 0.0014182276, 0.00019779614, 0.00019779614, 0.0, 0.012207031, 0.012071625 
6.1035156e-3, 3.50232e+1, -0.0000006864171, -11286.988, -0.42606357, 0.0, 0.0018910808, 0.00001539672, 0.00001539672, 0.0, 0.012207031, 0.012071538 
6.1035156e-3, 3.5035273e+1, -0.0000053026215, -11273.304, 2.4045296, 0.0, 0.0012499514, 0.0005075694, 0.0005075694, 0.0, 0.012207031, 0.012071699 
6.1035156e-3, 3.5047343e+1, -0.0000035434855, -11267.08, -1.9729927, 0.0, 0.001227326, 0.00034194978, 0.00034194978, 0.0, 0.012207031, 0.0120717725 
6.1035156e-3, 3.5059416e+1, -0.0000011434072, -11246.406, 0.5346589, 0.0, 0.0016382941, 0.000024274505, 0.000024274505, 0.0, 0.012207031, 0.0120720165 
6.1035156e-3, 3.5071486e+1, -0.0003282937, -11242.59, -18.287622, 0.0, 0.0013455867, 0.029418966, 0.029418966, 0.0, 0.012207031, 0.012072062 
6.1035156e-3, 3.5083562e+1, -0.000031027826, -11230.209, 5.631534, 0.0, 0.0013401969, 0.0027929775, 0.0027929775, 0.0, 0.012207031, 0.012072208 
6.1035156e-3, 3.5095635e+1, -0.000003918047, -11230.663, -1.9999511, 0.0, 0.001674361, 0.00035223225, 0.00035223225, 0.0, 0.012207031, 0.012072203 
6.1035156e-3, 3.5107705e+1, -0.00000091124537, -11207.942, 0.18783057, 0.0, 0.0014597143, 0.000002236553, 0.000002236553, 0.0, 0.012207031, 0.012072471 
6.1035156e-3, 3.5119778e+1, -0.00026799832, -11198.755, -16.522934, 0.0, 0.0011540471, 0.024110315, 0.024110315, 0.0, 0.012207031, 0.012072579 
6.1035156e-3, 3.513185e+1, -0.000028089436, -11193.9375, 5.3485494, 0.0, 0.001471857, 0.002527488, 0.002527488, 0.0, 0.012207031, 0.012072636 
6.1035156e-3, 3.5143924e+1, -0.00000044053297, -11184.054, -0.18926047, 0.0, 0.0016906755, 0.0000027621973, 0.0000027621973, 0.0, 0.012207031, 0.012072753 
6.1035156e-3, 3.5155994e+1, -0.0000034940167, -11173.957, -1.6805753, 0.0, 0.0011282874, 0.0002492663, 0.0002492663, 0.0, 0.012207031, 0.012072872 
6.1035156e-3, 3.5168067e+1, -0.0000036185809, -11163.752, 1.0956545, 0.0, 0.0016613621, 0.00010391325, 0.00010391325, 0.0, 0.012207031, 0.0120729925 
6.1035156e-3, 3.5180143e+1, -0.0000009274145, -11150.913, -0.46608186, 0.0, 0.0017414059, 0.000018553708, 0.000018553708, 0.0, 0.012207031, 0.012073144 
6.1035156e-3, 3.5192215e+1, -0.00000058177204, -11143.911, 0.30769157, 0.0, 0.00073433225, 0.000007913817, 0.000007913817, 0.0, 0.012207031, 0.012073227 
6.1035156e-3, 3.5204288e+1, -0.0000041607236, -11136.684, 1.262877, 0.0, 0.0015234298, 0.00013904693, 0.00013904693, 0.0, 0.012207031, 0.012073312 
6.1035156e-3, 3.521636e+1, -0.000004650114, -11125.476, -1.137873, 0.0, 0.0019223705, 0.00011172739, 0.00011172739, 0.0, 0.012207031, 0.012073445 
6.1035156e-3, 3.5228434e+1, -0.0000003535333, -11115.188, -0.00019024358, 0.0, 0.0011158127, -0.00000035352969, -0.00000035352969, 0.0, 0.012207031, 0.012073566 
6.1035156e-3, 3.524051e+1, -0.0000020896086, -11102.142, -0.7855909, 0.0, 0.0015190187, 0.000053499036, 0.000053499036, 0.0, 0.012207031, 0.012073721 
6.1035156e-3, 3.5252583e+1, -0.00000034109848, -11098.468, -0.013706347, 0.0, 0.0014041581, -0.0000003241712, -0.0000003241712, 0.0, 0.012207031, 0.012073764 
6.1035156e-3, 3.5264656e+1, -0.0000022788922, -11081.826, 0.82958657, 0.0, 0.0014229777, 0.000059824044, 0.000059824044, 0.0, 0.012207031, 0.01207396 
6.1035156e-3, 3.527673e+1, -0.0000038108851, -11079.121, -0.9903336, 0.0, 0.0014460753, 0.00008471244, 0.00008471244, 0.0, 0.012207031, 0.012073993 
6.1035156e-3, 3.5288802e+1, -0.0000029477599, -11064.014, 0.9542857, 0.0, 0.0013607516, 0.00007936063, 0.00007936063, 0.0, 0.012207031, 0.012074171 
6.1035156e-3, 3.530088e+1, -0.000003251718, -11057.213, -0.92804277, 0.0, 0.001707972, 0.00007463983, 0.00007463983, 0.0, 0.012207031, 0.012074251 
6.1035156e-3, 3.5312954e+1, -0.0000005318737, -11045.861, 0.2826927, 0.0, 0.0010939938, 0.0000067029778, 0.0000067029778, 0.0, 0.012207031, 0.012074385 
6.1035156e-3, 3.5325027e+1, -0.0000032297314, -11036.895, 1.8367512, 0.0, 0.001266388, 0.00030244095, 0.00030244095, 0.0, 0.012207031, 0.012074491 
6.1035156e-3, 3.5337102e+1, -0.0000036730064, -11024.867, -2.1590142, 0.0, 0.0019285883, 0.0004191296, 0.0004191296, 0.0, 0.012207031, 0.0120746335 
6.1035156e-3, 3.5349178e+1, -0.0000010637781, -11022.987, 1.5592558, 0.0, 0.00121144, 0.00021950064, 0.00021950064, 0.0, 0.012207031, 0.012074656 
6.1035156e-3, 3.536125e+1, -0.0000022525323, -11000.444, -0.81284285, 0.0, 0.001411888, 0.0000578099, 0.0000578099, 0.0, 0.012207031, 0.012074922 
6.1035156e-3, 3.5373324e+1, -0.0000041644544, -11006.716, -1.2204317, 0.0, 0.0013783765, 0.0001311578, 0.0001311578, 0.0, 0.012207031, 0.012074848 
6.1035156e-3, 3.5385403e+1, -0.0000008042862, -10976.323, -0.4327932, 0.0, 0.001465421, 0.000016260621, 0.000016260621, 0.0, 0.012207031, 0.012075207 
6.1035156e-3, 3.5397476e+1, -0.0000020600392, -10982.131, -1.3531862, 0.0, 0.0016357279, 0.00016467563, 0.00016467563, 0.0, 0.012207031, 0.012075138 
6.1035156e-3, 3.540955e+1, -0.00007418469, -10969.198, 8.692659, 0.0, 0.0011465119, 0.006814402, 0.006814402, 0.0, 0.012207031, 0.012075291 
6.1035156e-3, 3.5421628e+1, -0.000011699471, -10966.992, -3.4807544, 0.0, 0.0013152397, 0.0010930382, 0.0010930382, 0.0, 0.012207031, 0.012075317 
6.1035156e-3, 3.5433704e+1, -0.00000064399893, -10957.711, -0.2449641, 0.0, 0.0017365866, 0.0000048322727, 0.0000048322727, 0.0, 0.012207031, 0.012075427 
6.1035156e-3, 3.5445777e+1, -0.0049483306, -10937.055, -70.98066, 0.0, 0.0014115634, 0.45569164, 0.45569164, 0.0, 0.012207031, 0.012075671 
6.1035156e-3, 3.5457855e+1, -0.0000024166598, -10915.999, -1.3280923, 0.0, 0.0012623991, 0.00015916537, 0.00015916537, 0.0, 0.012207031, 0.01207592 
6.1035156e-3, 3.5469928e+1, -0.00007805806, -10927.6, -8.915774, 0.0, 0.0014645549, 0.0071962737, 0.0071962737, 0.0, 0.012207031, 0.012075783 
6.1035156e-3, 3.5482007e+1, -0.0000013308618, -10895.53, -0.66591716, 0.0, 0.0014729734, 0.00003936891, 0.00003936891, 0.0, 0.012207031, 0.012076162 
6.1035156e-3, 3.5494083e+1, -0.000020463436, -10902.129, 4.532779, 0.0, 0.0014003585, 0.0018641303, 0.0018641303, 0.0, 0.012207031, 0.012076084 
6.1035156e-3, 3.5506156e+1, -0.0000041828766, -10890.5, 1.2368617, 0.0, 0.0014616107, 0.00013629063, 0.00013629063, 0.0, 0.012207031, 0.012076221 
6.1035156e-3, 3.5518235e+1, -0.0000012346343, -10886.067, -1.545612, 0.0, 0.0013251279, 0.00021821252, 0.00021821252, 0.0, 0.012207031, 0.012076274 
6.1035156e-3, 3.553031e+1, -0.000004541119, -10862.991, -2.3756819, 0.0, 0.0015455862, 0.00051500864, 0.00051500864, 0.0, 0.012207031, 0.012076546 
6.1035156e-3, 3.554239e+1, -0.0000033684873, -10864.738, 1.0454684, 0.0, 0.0013835715, 0.00009723257, 0.00009723257, 0.0, 0.012207031, 0.012076526 
6.1035156e-3, 3.5554463e+1, -0.000002446776, -10848.099, 1.5770106, 0.0, 0.001397842, 0.00022680654, 0.00022680654, 0.0, 0.012207031, 0.012076722 
6.1035156e-3, 3.556654e+1, -0.0000035277053, -10844.935, -1.0353012, 0.0, 0.001529709, 0.000095306335, 0.000095306335, 0.0, 0.012207031, 0.01207676 
6.1035156e-3, 3.5578617e+1, -0.000001067486, -10828.831, 0.60047364, 0.0, 0.0013025318, 0.000032229607, 0.000032229607, 0.0, 0.012207031, 0.01207695 
6.1035156e-3, 3.5590693e+1, -0.0000035850542, -10826.743, 1.0850444, 0.0, 0.0015182873, 0.00010515693, 0.00010515693, 0.0, 0.012207031, 0.012076975 
6.1035156e-3, 3.5602772e+1, -0.000006512179, -10806.172, -2.8288696, 0.0, 0.0014784973, 0.00073403714, 0.00073403714, 0.0, 0.012207031, 0.012077218 
6.1035156e-3, 3.5614848e+1, -0.0000009546771, -10807.984, 0.45331663, 0.0, 0.0011264241, 0.00001805867, 0.00001805867, 0.0, 0.012207031, 0.0120771965 
6.1035156e-3, 3.5626927e+1, -0.00012182137, -10791.469, -11.130815, 0.0, 0.0016469943, 0.011358999, 0.011358999, 0.0, 0.012207031, 0.012077392 
6.1035156e-3, 3.5639003e+1, -0.000014771283, -10784.38, 3.885456, 0.0, 0.0017367894, 0.0013851022, 0.0013851022, 0.0, 0.012207031, 0.012077476 
6.1035156e-3, 3.5651082e+1, -0.000018435476, -10766.997, -4.3310175, 0.0, 0.0011214782, 0.0017237131, 0.0017237131, 0.0, 0.012207031, 0.012077681 
6.1035156e-3, 3.5663158e+1, -0.0000006870385, -10767.656, -0.51015323, 0.0, 0.0011520123, 0.000023483155, 0.000023483155, 0.0, 0.012207031, 0.012077673 
6.1035156e-3, 3.5675237e+1, -0.000013802761, -10748.722, -3.7934232, 0.0, 0.0017968672, 0.0013249664, 0.0013249664, 0.0, 0.012207031, 0.012077897 
6.1035156e-3, 3.5687312e+1, -0.0000031572843, -10745.56, 1.0012671, 0.0, 0.0015504507, 0.00009014039, 0.00009014039, 0.0, 0.012207031, 0.012077934 
6.1035156e-3, 3.569939e+1, -0.0000006650536, -10737.914, -0.35025156, 0.0, 0.0011124252, 0.000010759526, 0.000010759526, 0.0, 0.012207031, 0.012078025 
6.1035156e-3, 3.571147e+1, -0.0000009130489, -10721.749, 0.51844394, 0.0, 0.0016792676, 0.00002415601, 0.00002415601, 0.0, 0.012207031, 0.012078216 
6.1035156e-3, 3.572355e+1, -0.0000031280076, -10709.182, -1.6029971, 0.0, 0.0013793141, 0.00023681557, 0.00023681557, 0.0, 0.012207031, 0.012078364 
6.1035156e-3, 3.5735625e+1, -0.0000014175766, -10709.679, 1.4916781, 0.0, 0.0012243651, 0.0002063481, 0.0002063481, 0.0, 0.012207031, 0.012078359 
6.1035156e-3, 3.5747707e+1, -0.0000005458959, -10691.656, -0.24217871, 0.0, 0.0017871531, 0.0000049397404, 0.0000049397404, 0.0, 0.012207031, 0.012078572 
6.1035156e-3, 3.5759786e+1, -0.0000025108711, -10688.438, -1.8133224, 0.0, 0.0010739422, 0.00030512415, 0.00030512415, 0.0, 0.012207031, 0.01207861 
6.1035156e-3, 3.5771862e+1, -0.0000041312514, -10675.346, 1.1327404, 0.0, 0.0014493178, 0.00011606167, 0.00011606167, 0.0, 0.012207031, 0.012078765 
6.1035156e-3, 3.5783944e+1, -0.0000022540632, -10663.461, -0.82233995, 0.0, 0.0020416183, 0.00006116278, 0.00006116278, 0.0, 0.012207031, 0.0120789055 
6.1035156e-3, 3.579602e+1, -0.000003201196, -10654.219, -0.9602011, 0.0, 0.000995907, 0.000083335995, 0.000083335995, 0.0, 0.012207031, 0.012079014 
6.1035156e-3, 3.5808098e+1, -0.0000032327666, -10647.8545, 1.6583644, 0.0, 0.0011661536, 0.00025505142, 0.00025505142, 0.0, 0.012207031, 0.01207909 
6.1035156e-3, 3.582018e+1, -0.000000073475434, -10640.213, -1.4249917, 0.0, 0.0016923925, 0.00019076868, 0.00019076868, 0.0, 0.012207031, 0.01207918 
6.1035156e-3, 3.5832256e+1, -0.000002256871, -10623.524, -0.8041515, 0.0, 0.0016961362, 0.00005861366, 0.00005861366, 0.0, 0.012207031, 0.012079378 
6.1035156e-3, 3.5844338e+1, -0.0000037325879, -10616.582, -1.110081, 0.0, 0.0012969894, 0.00011233865, 0.00011233865, 0.0, 0.012207031, 0.01207946 
6.1035156e-3, 3.585642e+1, -0.000008244774, -10606.322, 2.8852901, 0.0, 0.001080539, 0.0007766549, 0.0007766549, 0.0, 0.012207031, 0.012079582 
6.1035156e-3, 3.5868496e+1, -0.0000007435755, -10595.083, -0.29785264, 0.0, 0.0018170867, 0.00000762976, 0.00000762976, 0.0, 0.012207031, 0.012079714 
6.1035156e-3, 3.5880578e+1, -0.0000096920085, -10590.966, -2.9896798, 0.0, 0.001324237, 0.00083425216, 0.00083425216, 0.0, 0.012207031, 0.012079763 
6.1035156e-3, 3.5892653e+1, -0.0000025244572, -10576.19, 1.6970954, 0.0, 0.0013000183, 0.00026979786, 0.00026979786, 0.0, 0.012207031, 0.012079937 
6.1035156e-3, 3.5904735e+1, -0.0000020336297, -10566.92, -0.79882425, 0.0, 0.0018060807, 0.000058354846, 0.000058354846, 0.0, 0.012207031, 0.012080047 
6.1035156e-3, 3.5916817e+1, -0.0000032153937, -10559.015, 1.118248, 0.0, 0.0010351747, 0.00011521219, 0.00011521219, 0.0, 0.012207031, 0.012080141 
6.1035156e-3, 3.59289e+1, -0.0000005436923, -10545.93, 0.1751969, 0.0, 0.0017602534, 0.0000023668108, 0.0000023668108, 0.0, 0.012207031, 0.012080296 
6.1035156e-3, 3.5940975e+1, -0.0000033185515, -10552.683, 2.002751, 0.0, 0.001580315, 0.0003767755, 0.0003767755, 0.0, 0.012207031, 0.012080216 
6.1035156e-3, 3.5953057e+1, -0.00026189344, -10521.029, -16.325632, 0.0, 0.0006975968, 0.025070766, 0.025070766, 0.0, 0.012207031, 0.01208059 
6.1035156e-3, 3.596514e+1, -0.00001092392, -10510.46, -3.291373, 0.0, 0.0018338931, 0.0010197764, 0.0010197764, 0.0, 0.012207031, 0.012080715 
6.1035156e-3, 3.5977218e+1, -0.000012384663, -10507.102, 3.5580423, 0.0, 0.0017614637, 0.0011924827, 0.0011924827, 0.0, 0.012207031, 0.012080755 
6.1035156e-3, 3.59893e+1, -0.000020024605, -10486.223, -4.5165815, 0.0, 0.0010681647, 0.0019253378, 0.0019253378, 0.0, 0.012207031, 0.012081002 
6.1035156e-3, 3.600138e+1, -0.0007905692, -10496.598, -28.360924, 0.0, 0.0015651849, 0.07583771, 0.07583771, 0.0, 0.012207031, 0.01208088 
6.1035156e-3, 3.6013463e+1, -0.00011793138, -10492.596, -10.95387, 0.0, 0.0014493222, 0.011317479, 0.011317479, 0.0, 0.012207031, 0.012080926 
6.1035156e-3, 3.6025542e+1, -0.000043275642, -10462.999, 6.6362414, 0.0, 0.0013216123, 0.004165812, 0.004165812, 0.0, 0.012207031, 0.012081277 
6.1035156e-3, 3.6037624e+1, -0.000002454297, -10466.042, -1.2009428, 0.0, 0.0015650949, 0.00013534981, 0.00013534981, 0.0, 0.012207031, 0.012081241 
6.1035156e-3, 3.6049706e+1, -0.0000047872295, -10452.452, -2.3856783, 0.0, 0.0013176721, 0.0005397224, 0.0005397224, 0.0, 0.012207031, 0.012081402 
6.1035156e-3, 3.6061788e+1, -0.0000030179385, -10441.433, -1.0048865, 0.0, 0.0014774682, 0.00009369262, 0.00009369262, 0.0, 0.012207031, 0.012081533 
6.1035156e-3, 3.6073866e+1, -0.0000010497962, -10428.672, 0.5777719, 0.0, 0.0014757012, 0.000030960065, 0.000030960065, 0.0, 0.012207031, 0.012081684 
6.1035156e-3, 3.6085948e+1, -0.0000038350713, -10418.88, 2.0994303, 0.0, 0.001304204, 0.0004192054, 0.0004192054, 0.0, 0.012207031, 0.012081799 
6.1035156e-3, 3.609803e+1, -0.0000032379414, -10412.303, -1.7209306, 0.0, 0.0016227957, 0.00028119504, 0.00028119504, 0.0, 0.012207031, 0.012081877 
6.1035156e-3, 3.6110115e+1, -0.000001288959, -10410.463, -0.83182293, 0.0, 0.0013551906, 0.00006517584, 0.00006517584, 0.0, 0.012207031, 0.012081899 
6.1035156e-3, 3.6122197e+1, -0.000024117076, -10389.922, 4.936981, 0.0, 0.0013507867, 0.0023217886, 0.0023217886, 0.0, 0.012207031, 0.012082142 
6.1035156e-3, 3.613428e+1, -0.0007253965, -10381.9795, -27.165657, 0.0, 0.0015181685, 0.07035623, 0.07035623, 0.0, 0.012207031, 0.012082236 
6.1035156e-3, 3.6146358e+1, -0.000046295023, -10368.36, 6.866322, 0.0, 0.0013608636, 0.004500842, 0.004500842, 0.0, 0.012207031, 0.012082397 
6.1035156e-3, 3.6158442e+1, -0.0000049823393, -10363.009, -2.6131814, 0.0, 0.0015708221, 0.00065396883, 0.00065396883, 0.0, 0.012207031, 0.01208246 
6.1035156e-3, 3.6170524e+1, -0.000011527226, -10353.048, -3.5637562, 0.0, 0.0012245945, 0.0012151991, 0.0012151991, 0.0, 0.012207031, 0.012082579 
6.1035156e-3, 3.618261e+1, -0.000010689535, -10341.509, -3.2918417, 0.0, 0.0013844203, 0.001037148, 0.001037148, 0.0, 0.012207031, 0.0120827155 
6.1035156e-3, 3.619469e+1, -0.0000037034954, -10331.297, -1.5964049, 0.0, 0.0017170425, 0.000242975, 0.000242975, 0.0, 0.012207031, 0.012082836 
6.1035156e-3, 3.6206773e+1, -0.0000045471193, -10327.044, 2.356567, 0.0, 0.0014562999, 0.00053320674, 0.00053320674, 0.0, 0.012207031, 0.012082886 
6.1035156e-3, 3.6218858e+1, -0.0000027919339, -10310.536, -1.5865616, 0.0, 0.0010712257, 0.0002413445, 0.0002413445, 0.0, 0.012207031, 0.0120830815 
6.1035156e-3, 3.6230937e+1, -0.0000012081598, -10307.284, -1.4409856, 0.0, 0.0012900584, 0.00020024543, 0.00020024543, 0.0, 0.012207031, 0.012083121 
6.1035156e-3, 3.624302e+1, -0.000010589184, -10291.231, 3.1953013, 0.0, 0.002076738, 0.0009815127, 0.0009815127, 0.0, 0.012207031, 0.012083311 
6.1035156e-3, 3.625511e+1, -0.0000027087701, -10283.76, -1.6468667, 0.0, 0.0012304758, 0.0002610245, 0.0002610245, 0.0, 0.012207031, 0.012083399 
6.1035156e-3, 3.6267188e+1, -0.000000612267, -10272.126, 0.4402312, 0.0, 0.0010566307, 0.000018254668, 0.000018254668, 0.0, 0.012207031, 0.012083537 
6.1035156e-3, 3.6279273e+1, -0.0000020790897, -10269.84, -1.3222085, 0.0, 0.0019306396, 0.00016815095, 0.00016815095, 0.0, 0.012207031, 0.012083564 
6.1035156e-3, 3.6291355e+1, -0.0000025815866, -10257.693, 1.525897, 0.0, 0.00092521106, 0.00022440529, 0.00022440529, 0.0, 0.012207031, 0.012083707 
6.1035156e-3, 3.630344e+1, -0.00000049343214, -10233.221, 0.43584082, 0.0, 0.0016085902, 0.000018069368, 0.000018069368, 0.0, 0.012207031, 0.012083997 
6.1035156e-3, 3.6315525e+1, -0.000056329893, -10237.994, -7.5689697, 0.0, 0.0016099352, 0.005539422, 0.005539422, 0.0, 0.012207031, 0.012083941 
6.1035156e-3, 3.632761e+1, -0.000015569974, -10233.647, 3.9690442, 0.0, 0.00092155853, 0.0015237941, 0.0015237941, 0.0, 0.012207031, 0.012083992 
6.1035156e-3, 3.633969e+1, -0.0000006436796, -10218.455, -0.5033982, 0.0, 0.0021157418, 0.000024155543, 0.000024155543, 0.0, 0.012207031, 0.012084172 
6.1035156e-3, 3.6351776e+1, -0.00000037399982, -10215.516, -0.05617415, 0.0, 0.0011925995, -0.00000006510345, -0.00000006510345, 0.0, 0.012207031, 0.012084207 
6.1035156e-3, 3.636386e+1, -0.0016151662, -10182.659, -40.527855, 0.0, 0.0011630965, 0.15968664, 0.15968664, 0.0, 0.012207031, 0.012084596 
6.1035156e-3, 3.6375946e+1, -0.00006466286, -10189.244, 8.106599, 0.0, 0.002003427, 0.006384972, 0.006384972, 0.0, 0.012207031, 0.012084518 
6.1035156e-3, 3.638803e+1, -0.0000029437554, -10177.617, -1.2573477, 0.0, 0.0007489939, 0.00015238958, 0.00015238958, 0.0, 0.012207031, 0.012084655 
6.1035156e-3, 3.6400115e+1, -0.0000007499281, -10161.384, -0.5086681, 0.0, 0.0014791093, 0.00002471346, 0.00002471346, 0.0, 0.012207031, 0.012084848 
6.1035156e-3, 3.64122e+1, -0.0000020301236, -10162.913, 1.2719473, 0.0, 0.0018887896, 0.0001571614, 0.0001571614, 0.0, 0.012207031, 0.01208483 
6.1035156e-3, 3.6424285e+1, -0.0000008685093, -10140.724, 0.21634151, 0.0, 0.0012899279, 0.0000037469053, 0.0000037469053, 0.0, 0.012207031, 0.012085093 
6.1035156e-3, 3.643637e+1, -0.0000035123394, -10131.753, -1.9371848, 0.0, 0.0013242476, 0.00036687616, 0.00036687616, 0.0, 0.012207031, 0.012085199 
6.1035156e-3, 3.6448455e+1, -0.000057875863, -10143.231, 7.6716347, 0.0, 0.0012112297, 0.005744411, 0.005744411, 0.0, 0.012207031, 0.012085063 
6.1035156e-3, 3.646054e+1, -0.000013728746, -10120.96, -3.7433827, 0.0, 0.0018062295, 0.001370815, 0.001370815, 0.0, 0.012207031, 0.012085327 
6.1035156e-3, 3.6472625e+1, -0.000010062837, -10123.468, 3.1406822, 0.0, 0.0016773937, 0.0009642953, 0.0009642953, 0.0, 0.012207031, 0.012085297 
6.1035156e-3, 3.648471e+1, -0.005671451, -10083.042, -75.93793, 0.0, 0.00079531845, 0.5662041, 0.5662041, 0.0, 0.012207031, 0.012085776 
6.1035156e-3, 3.6496794e+1, -0.00031697546, -10084.511, 17.951962, 0.0, 0.0015341891, 0.031640146, 0.031640146, 0.0, 0.012207031, 0.012085759 
6.1035156e-3, 3.6508885e+1, -0.00005854883, -10083.924, -7.719647, 0.0, 0.0017783822, 0.005851146, 0.005851146, 0.0, 0.012207031, 0.012085766 
6.1035156e-3, 3.652097e+1, -0.0000011591375, -10063.244, 0.44979241, 0.0, 0.0011566005, 0.000018945038, 0.000018945038, 0.0, 0.012207031, 0.012086011 
6.1035156e-3, 3.6533055e+1, -0.0000013739848, -10051.727, -0.6750315, 0.0, 0.0015836695, 0.000043958273, 0.000043958273, 0.0, 0.012207031, 0.012086147 
6.1035156e-3, 3.654514e+1, -0.00015961297, -10060.002, -12.74188, 0.0, 0.0014900597, 0.015979078, 0.015979078, 0.0, 0.012207031, 0.012086049 
6.1035156e-3, 3.6557227e+1, -0.000013462173, -10034.454, 3.6838157, 0.0, 0.0012384467, 0.0013389279, 0.0013389279, 0.0, 0.012207031, 0.012086351 
6.1035156e-3, 3.6569312e+1, -0.000014550429, -10033.81, -3.7427747, 0.0, 0.0016060215, 0.0013815654, 0.0013815654, 0.0, 0.012207031, 0.01208636 
6.1035156e-3, 3.6581397e+1, -0.0000026384373, -10017.424, 1.8896929, 0.0, 0.0012995409, 0.0003538344, 0.0003538344, 0.0, 0.012207031, 0.0120865535 
6.1035156e-3, 3.6593488e+1, -0.000037779457, -10010.418, -6.193362, 0.0, 0.0015618405, 0.0037940005, 0.0037940005, 0.0, 0.012207031, 0.012086636 
6.1035156e-3, 3.6605573e+1, -0.0000018910251, -9998.575, 1.4080478, 0.0, 0.0013904085, 0.00019639709, 0.00019639709, 0.0, 0.012207031, 0.012086777 
6.1035156e-3, 3.661766e+1, -0.0000020398777, -9996.268, 1.211579, 0.0, 0.0012695482, 0.00014480729, 0.00014480729, 0.0, 0.012207031, 0.012086804 
6.1035156e-3, 3.6629745e+1, -0.000013787232, -9974.854, -3.6650488, 0.0, 0.0017210513, 0.0013328572, 0.0013328572, 0.0, 0.012207031, 0.012087058 
6.1035156e-3, 3.6641833e+1, -0.0000010479699, -9977.482, 1.1987596, 0.0, 0.0012757871, 0.00014297878, 0.00014297878, 0.0, 0.012207031, 0.012087027 
6.1035156e-3, 3.6653918e+1, -0.000002798028, -9955.201, 0.8798076, 0.0, 0.0015069883, 0.00007495644, 0.00007495644, 0.0, 0.012207031, 0.012087291 
6.1035156e-3, 3.666601e+1, -0.000012311503, -9959.683, -3.564215, 0.0, 0.0013926943, 0.0012631937, 0.0012631937, 0.0, 0.012207031, 0.012087238 
6.1035156e-3, 3.6678097e+1, -0.0000038800313, -9939.772, 2.05298, 0.0, 0.0013250569, 0.00042014642, 0.00042014642, 0.0, 0.012207031, 0.012087474 
6.1035156e-3, 3.6690181e+1, -0.0000019518366, -9931.711, -1.5913522, 0.0, 0.0019553755, 0.00025302958, 0.00025302958, 0.0, 0.012207031, 0.01208757 
6.1035156e-3, 3.670227e+1, -0.000000809013, -9918.4, 0.47413698, 0.0, 0.00092149765, 0.00002185652, 0.00002185652, 0.0, 0.012207031, 0.012087727 
6.1035156e-3, 3.671436e+1, -0.0000036671292, -9916.692, 1.1818029, 0.0, 0.0012465898, 0.00013717197, 0.00013717197, 0.0, 0.012207031, 0.012087747 
6.1035156e-3, 3.6726448e+1, -0.000043395874, -9899.879, -6.6385365, 0.0, 0.001985158, 0.004408188, 0.004408188, 0.0, 0.012207031, 0.012087947 
6.1035156e-3, 3.6738533e+1, -0.00000054057733, -9898.853, -0.33438572, 0.0, 0.0011584148, 0.000010755057, 0.000010755057, 0.0, 0.012207031, 0.012087959 
6.1035156e-3, 3.675062e+1, -0.0000010849195, -9875.46, 1.4167827, 0.0, 0.0015863338, 0.00020217379, 0.00020217379, 0.0, 0.012207031, 0.012088236 
6.1035156e-3, 3.676271e+1, -0.000030506153, -9879.983, -5.5622063, 0.0, 0.0011887406, 0.0031008888, 0.0031008888, 0.0, 0.012207031, 0.012088182 
6.1035156e-3, 3.67748e+1, -0.000014021026, -9859.223, -3.7502918, 0.0, 0.0014931298, 0.0014125302, 0.0014125302, 0.0, 0.012207031, 0.012088428 
6.1035156e-3, 3.6786887e+1, -0.00001857423, -9858.325, -4.3683925, 0.0, 0.0019797587, 0.001917135, 0.001917135, 0.0, 0.012207031, 0.012088439 
6.1035156e-3, 3.6798978e+1, -0.0000035164815, -9846.434, 2.1936884, 0.0, 0.0007971699, 0.0004852157, 0.0004852157, 0.0, 0.012207031, 0.01208858 
6.1035156e-3, 3.6811066e+1, -0.0000022671563, -9833.811, 0.8303038, 0.0, 0.0014935703, 0.000067838366, 0.000067838366, 0.0, 0.012207031, 0.01208873 
6.1035156e-3, 3.6823153e+1, -0.00003739184, -9826.085, -6.1634865, 0.0, 0.0016567534, 0.0038287, 0.0038287, 0.0, 0.012207031, 0.012088821 
6.1035156e-3, 3.6835244e+1, -0.00009444174, -9808.479, -9.7969265, 0.0, 0.0013307038, 0.009690937, 0.009690937, 0.0, 0.012207031, 0.01208903 
6.1035156e-3, 3.6847332e+1, -0.000012570325, -9803.498, -3.513846, 0.0, 0.0015596175, 0.0012468895, 0.0012468895, 0.0, 0.012207031, 0.0120890895 
6.1035156e-3, 3.685942e+1, -0.00016739912, -9807.754, 13.0403385, 0.0, 0.0011284698, 0.017170936, 0.017170936, 0.0, 0.012207031, 0.012089039 
6.1035156e-3, 3.687151e+1, -0.000050285642, -9792.845, -7.1414967, 0.0, 0.001752405, 0.0051576956, 0.0051576956, 0.0, 0.012207031, 0.012089215 
6.1035156e-3, 3.68836e+1, -0.0000011605784, -9794.178, 0.6237177, 0.0, 0.001287583, 0.000038559323, 0.000038559323, 0.0, 0.012207031, 0.0120892 
6.1035156e-3, 3.6895686e+1, -0.0056161624, -9747.175, -75.54618, 0.0, 0.0013296035, 0.5798752, 0.5798752, 0.0, 0.012207031, 0.012089757 
6.1035156e-3, 3.690778e+1, -0.00017886188, -9749.291, 13.480566, 0.0, 0.0018432259, 0.018460987, 0.018460987, 0.0, 0.012207031, 0.012089732 
6.1035156e-3, 3.6919868e+1, -0.000004783248, -9754.272, 2.243798, 0.0, 0.0011526679, 0.0005113628, 0.0005113628, 0.0, 0.012207031, 0.012089673 
6.1035156e-3, 3.6931956e+1, -0.000009489861, -9726.86, -3.1210666, 0.0, 0.0011810049, 0.0009919695, 0.0009919695, 0.0, 0.012207031, 0.012089998 
6.1035156e-3, 3.6944047e+1, -0.0040476467, -9739.93, -64.13468, 0.0, 0.0016537196, 0.41824296, 0.41824296, 0.0, 0.012207031, 0.012089843 
6.1035156e-3, 3.6956137e+1, -0.0028961846, -9710.229, -54.249165, 0.0, 0.0017169092, 0.30017403, 0.30017403, 0.0, 0.012207031, 0.012090195 
6.1035156e-3, 3.6968228e+1, -0.00024825067, -9701.938, 15.8835125, 0.0, 0.0011418917, 0.025755348, 0.025755348, 0.0, 0.012207031, 0.012090294 
6.1035156e-3, 3.6980316e+1, -0.0000031883337, -9708.99, 1.9232343, 0.0, 0.0013165034, 0.00037778128, 0.00037778128, 0.0, 0.012207031, 0.01209021 
6.1035156e-3, 3.699241e+1, -0.000048727667, -9692.321, -7.0365353, 0.0, 0.0016872206, 0.005059729, 0.005059729, 0.0, 0.012207031, 0.012090408 
6.1035156e-3, 3.7004498e+1, -0.000030791554, -9684.173, 5.583586, 0.0, 0.0012345257, 0.0031885256, 0.0031885256, 0.0, 0.012207031, 0.012090504 
6.1035156e-3, 3.701659e+1, -0.0048844726, -9662.771, -70.44785, 0.0, 0.0015279733, 0.50869894, 0.50869894, 0.0, 0.012207031, 0.012090758 
6.1035156e-3, 3.702868e+1, -0.00018586898, -9653.02, 13.740736, 0.0, 0.0014455307, 0.01937355, 0.01937355, 0.0, 0.012207031, 0.012090874 
6.1035156e-3, 3.704077e+1, -0.00006278663, -9654.238, -7.989528, 0.0, 0.0013883793, 0.006549078, 0.006549078, 0.0, 0.012207031, 0.01209086 
6.1035156e-3, 3.705286e+1, -0.00000919543, -9628.047, 2.9752483, 0.0, 0.0014378214, 0.0009102124, 0.0009102124, 0.0, 0.012207031, 0.01209117 
6.1035156e-3, 3.7064952e+1, -0.000009796058, -9632.825, 3.176848, 0.0, 0.0013661818, 0.0010379093, 0.0010379093, 0.0, 0.012207031, 0.012091113 
6.1035156e-3, 3.7077045e+1, -0.000008011006, -9619.305, -2.750154, 0.0, 0.0015986187, 0.00077825657, 0.00077825657, 0.0, 0.012207031, 0.012091274 
6.1035156e-3, 3.7089133e+1, -0.00000047563395, -9613.493, 0.22353415, 0.0, 0.001360124, 0.000004722009, 0.000004722009, 0.0, 0.012207031, 0.012091343 
6.1035156e-3, 3.7101227e+1, -0.0000024707615, -9594.127, -0.87775487, 0.0, 0.0012900776, 0.00007783395, 0.00007783395, 0.0, 0.012207031, 0.012091572 
6.1035156e-3, 3.711332e+1, -0.0000028545794, -9596.566, 1.800637, 0.0, 0.00153011, 0.00033500517, 0.00033500517, 0.0, 0.012207031, 0.0120915435 
6.1035156e-3, 3.7125412e+1, -0.0000012245278, -9577.888, 0.6135208, 0.0, 0.0014977136, 0.000038075137, 0.000038075137, 0.0, 0.012207031, 0.012091765 
6.1035156e-3, 3.71375e+1, -0.0000141858445, -9573.796, -3.7770631, 0.0, 0.00145939, 0.0014759445, 0.0014759445, 0.0, 0.012207031, 0.012091814 
6.1035156e-3, 3.7149593e+1, -0.0009960058, -9557.0205, -31.80949, 0.0, 0.001189321, 0.10487722, 0.10487722, 0.0, 0.012207031, 0.012092013 
6.1035156e-3, 3.7161687e+1, -0.00003366609, -9559.858, 5.846183, 0.0, 0.0013918984, 0.0035414747, 0.0035414747, 0.0, 0.012207031, 0.012091979 
6.1035156e-3, 3.7173778e+1, -0.00000080118525, -9535.665, -0.48856068, 0.0, 0.0019438184, 0.00002423027, 0.00002423027, 0.0, 0.012207031, 0.012092266 
6.1035156e-3, 3.7185872e+1, -0.0000019976412, -9532.876, -0.8665712, 0.0, 0.0012315769, 0.00007677666, 0.00007677666, 0.0, 0.012207031, 0.0120923 
6.1035156e-3, 3.7197962e+1, -0.000003350306, -9518.6455, -1.7475529, 0.0, 0.0010101955, 0.0003174875, 0.0003174875, 0.0, 0.012207031, 0.012092468 
6.1035156e-3, 3.7210056e+1, -0.0000012183152, -9516.33, 0.4547587, 0.0, 0.0016642739, 0.000020513326, 0.000020513326, 0.0, 0.012207031, 0.012092495 
6.1035156e-3, 3.722215e+1, -0.0000128781385, -9500.059, 3.545495, 0.0, 0.0016902501, 0.0013103278, 0.0013103278, 0.0, 0.012207031, 0.012092689 
6.1035156e-3, 3.723424e+1, -0.0000030413717, -9494.697, -1.8065802, 0.0, 0.0013882004, 0.00034070123, 0.00034070123, 0.0, 0.012207031, 0.012092752 
6.1035156e-3, 3.7246335e+1, -0.000010283616, -9480.836, -3.182746, 0.0, 0.001032197, 0.0010581738, 0.0010581738, 0.0, 0.012207031, 0.012092917 
6.1035156e-3, 3.7258425e+1, -0.0000021124613, -9474.059, 1.4209528, 0.0, 0.0015311174, 0.00021100705, 0.00021100705, 0.0, 0.012207031, 0.012092997 
6.1035156e-3, 3.727052e+1, -0.0000042085494, -9461.286, 2.2964303, 0.0, 0.0018685866, 0.0005531778, 0.0005531778, 0.0, 0.012207031, 0.012093149 
6.1035156e-3, 3.7282613e+1, -0.0000005619997, -9458.061, 0.30110282, 0.0, 0.0011486448, 0.000009023783, 0.000009023783, 0.0, 0.012207031, 0.012093187 
6.1035156e-3, 3.7294704e+1, -0.000011590552, -9441.533, -3.4942346, 0.0, 0.0013576872, 0.0012815971, 0.0012815971, 0.0, 0.012207031, 0.012093384 
6.1035156e-3, 3.73068e+1, -0.00000060454187, -9437.695, -0.0040559713, 0.0, 0.0015256051, -0.0000006027967, -0.0000006027967, 0.0, 0.012207031, 0.012093429 
6.1035156e-3, 3.7318894e+1, -0.0000022440809, -9418.429, 1.1457984, 0.0, 0.0014315426, 0.00013714797, 0.00013714797, 0.0, 0.012207031, 0.012093658 
6.1035156e-3, 3.7330985e+1, -0.000103285856, -9413.539, -10.244281, 0.0, 0.001534529, 0.011045037, 0.011045037, 0.0, 0.012207031, 0.012093715 
6.1035156e-3, 3.734308e+1, -0.0000037314858, -9408.634, 2.1737792, 0.0, 0.0012167983, 0.00049850036, 0.00049850036, 0.0, 0.012207031, 0.012093774 
6.1035156e-3, 3.7355176e+1, -0.000004381727, -9403.234, -2.2693462, 0.0, 0.0014416242, 0.00054329494, 0.00054329494, 0.0, 0.012207031, 0.012093838 
6.1035156e-3, 3.7367266e+1, -0.0000007170488, -9387.218, 0.4365376, 0.0, 0.0017064133, 0.000019583435, 0.000019583435, 0.0, 0.012207031, 0.012094028 
6.1035156e-3, 3.7379363e+1, -0.0006227359, -9367.409, -25.148174, 0.0, 0.0012351206, 0.06689072, 0.06689072, 0.0, 0.012207031, 0.012094263 
6.1035156e-3, 3.7391457e+1, -0.000016109008, -9365.269, 4.018357, 0.0, 0.0014782792, 0.0017080475, 0.0017080475, 0.0, 0.012207031, 0.012094289 
6.1035156e-3, 3.7403548e+1, -0.0000021956407, -9359.461, -1.4521794, 0.0, 0.0015706252, 0.00022311916, 0.00022311916, 0.0, 0.012207031, 0.012094358 
6.1035156e-3, 3.7415645e+1, -0.0000007838636, -9343.725, 0.35312188, 0.0, 0.0011680591, 0.000012561462, 0.000012561462, 0.0, 0.012207031, 0.012094544 
6.1035156e-3, 3.7427738e+1, -0.000003829972, -9333.889, -2.1421323, 0.0, 0.0015253745, 0.00048779044, 0.00048779044, 0.0, 0.012207031, 0.012094662 
6.1035156e-3, 3.7439835e+1, -0.000007676294, -9328.327, 2.754885, 0.0, 0.0015817159, 0.0008059091, 0.0008059091, 0.0, 0.012207031, 0.012094728 
6.1035156e-3, 3.7451932e+1, -0.0000043748496, -9309.879, 2.2599988, 0.0, 0.0013127201, 0.000544246, 0.000544246, 0.0, 0.012207031, 0.012094947 
6.1035156e-3, 3.7464023e+1, -0.00001118508, -9312.966, -3.3904645, 0.0, 0.0015110316, 0.0012231424, 0.0012231424, 0.0, 0.012207031, 0.01209491 
6.1035156e-3, 3.747612e+1, -0.0000005487795, -9302.544, 0.40832105, 0.0, 0.0013090906, 0.000017373854, 0.000017373854, 0.0, 0.012207031, 0.012095033 
6.1035156e-3, 3.7488216e+1, -0.000016211265, -9295.592, 3.9836783, 0.0, 0.0016024362, 0.0016910163, 0.0016910163, 0.0, 0.012207031, 0.012095116 
6.1035156e-3, 3.750031e+1, -0.000629747, -9266.422, -25.287893, 0.0, 0.0015870943, 0.06837993, 0.06837993, 0.0, 0.012207031, 0.0120954625 
6.1035156e-3, 3.7512407e+1, -0.000029611836, -9272.114, 5.485865, 0.0, 0.0010098498, 0.0032161102, 0.0032161102, 0.0, 0.012207031, 0.012095395 
6.1035156e-3, 3.75245e+1, -0.000013701277, -9256.464, -3.7614026, 0.0, 0.0015836386, 0.00151476, 0.00151476, 0.0, 0.012207031, 0.012095581 
6.1035156e-3, 3.7536597e+1, -0.0000022391282, -9253.693, 1.5955573, 0.0, 0.0016253276, 0.00027287297, 0.00027287297, 0.0, 0.012207031, 0.012095613 
6.1035156e-3, 3.754869e+1, -0.0001251152, -9224.155, -11.268444, 0.0, 0.001283047, 0.01364066, 0.01364066, 0.0, 0.012207031, 0.0120959645 
6.1035156e-3, 3.7560788e+1, -0.00008146267, -9236.589, -9.091757, 0.0, 0.001515922, 0.008867724, 0.008867724, 0.0, 0.012207031, 0.012095816 
6.1035156e-3, 3.7572885e+1, -0.0000046534565, -9217.495, 2.1932693, 0.0, 0.0014031986, 0.00051722693, 0.00051722693, 0.0, 0.012207031, 0.012096044 
6.1035156e-3, 3.758498e+1, -0.0000033142142, -9218.233, 1.8386291, 0.0, 0.0014365234, 0.00036341083, 0.00036341083, 0.0, 0.012207031, 0.012096035 
6.1035156e-3, 3.7597075e+1, -0.0000034798804, -9190.273, -1.8758458, 0.0, 0.0015151552, 0.0003794029, 0.0003794029, 0.0, 0.012207031, 0.012096367 
6.1035156e-3, 3.7609172e+1, -0.00007734809, -9195.413, -8.861027, 0.0, 0.0013281631, 0.008461444, 0.008461444, 0.0, 0.012207031, 0.012096306 
6.1035156e-3, 3.762127e+1, -0.00000053534467, -9175.61, -0.04320483, 0.0, 0.0013995431, -0.00000033190736, -0.00000033190736, 0.0, 0.012207031, 0.012096541 
6.1035156e-3, 3.7633365e+1, -0.0000023320918, -9176.413, 1.4714487, 0.0, 0.0015933058, 0.00023361643, 0.00023361643, 0.0, 0.012207031, 0.012096532 
6.1035156e-3, 3.7645462e+1, -0.0000018090604, -9151.739, 1.3558697, 0.0, 0.0014517169, 0.00019906886, 0.00019906886, 0.0, 0.012207031, 0.012096825 
6.1035156e-3, 3.765756e+1, -0.0000029569385, -9163.563, -0.9280796, 0.0, 0.0012627109, 0.00009103834, 0.00009103834, 0.0, 0.012207031, 0.012096684 
6.1035156e-3, 3.7669656e+1, -0.00077688193, -9133.114, -28.083138, 0.0, 0.0016169798, 0.08557431, 0.08557431, 0.0, 0.012207031, 0.012097046 
6.1035156e-3, 3.7681752e+1, -0.00024604815, -9138.272, -15.803937, 0.0, 0.001326395, 0.027085561, 0.027085561, 0.0, 0.012207031, 0.012096984 
6.1035156e-3, 3.7693852e+1, -0.00000054213746, -9113.954, -0.069146395, 0.0, 0.0012956209, -0.000000017533239, -0.000000017533239, 0.0, 0.012207031, 0.012097274 
6.1035156e-3, 3.770595e+1, -0.00000024299953, -9117.639, 0.12242877, 0.0, 0.0017633949, 0.0000014009347, 0.0000014009347, 0.0, 0.012207031, 0.01209723 
6.1035156e-3, 3.7718046e+1, -0.0000028344384, -9092.694, 1.6161371, 0.0, 0.0012640972, 0.00028441806, 0.00028441806, 0.0, 0.012207031, 0.012097526 
6.1035156e-3, 3.773014e+1, -0.0000077909945, -9099.175, -2.6798854, 0.0, 0.0014233476, 0.00078148773, 0.00078148773, 0.0, 0.012207031, 0.012097449 
6.1035156e-3, 3.7742242e+1, -0.0000040140785, -9077.49, -2.0461829, 0.0, 0.0016352871, 0.0004572218, 0.0004572218, 0.0, 0.012207031, 0.012097707 
6.1035156e-3, 3.7754336e+1, -0.000008568967, -9081.873, 2.7872207, 0.0, 0.0011280928, 0.0008468271, 0.0008468271, 0.0, 0.012207031, 0.012097655 
6.1035156e-3, 3.7766433e+1, -0.0000004191354, -9049.697, -0.03972356, 0.0, 0.0016032042, -0.0000002447705, -0.0000002447705, 0.0, 0.012207031, 0.012098038 
6.1035156e-3, 3.7778533e+1, -0.000002555413, -9062.095, -1.489272, 0.0, 0.001421606, 0.00024219275, 0.00024219275, 0.0, 0.012207031, 0.01209789 
6.1035156e-3, 3.779063e+1, -0.000002783313, -9036.849, 1.8379961, 0.0, 0.0013284327, 0.00037104497, 0.00037104497, 0.0, 0.012207031, 0.012098189 
6.1035156e-3, 3.7802732e+1, -0.0000010071983, -9044.961, -0.4305654, 0.0, 0.0016034625, 0.000019488916, 0.000019488916, 0.0, 0.012207031, 0.0120980935 
6.1035156e-3, 3.7814826e+1, -0.00000065726107, -9014.783, -0.23036864, 0.0, 0.0013703092, 0.0000052297037, 0.0000052297037, 0.0, 0.012207031, 0.012098452 
6.1035156e-3, 3.7826928e+1, -0.00000039014805, -9019.969, -1.1655494, 0.0, 0.0014346469, 0.00015022073, 0.00015022073, 0.0, 0.012207031, 0.012098391 
6.1035156e-3, 3.7839022e+1, -0.000000901339, -8998.324, 0.3762459, 0.0, 0.0013577184, 0.000014830588, 0.000014830588, 0.0, 0.012207031, 0.012098648 
6.1035156e-3, 3.7851125e+1, -0.000006915337, -8993.667, -2.6103318, 0.0, 0.0014897725, 0.00075071014, 0.00075071014, 0.0, 0.012207031, 0.0120987035 
6.1035156e-3, 3.786322e+1, -0.000045277848, -8981.564, -6.7831397, 0.0, 0.0016620277, 0.0050775446, 0.0050775446, 0.0, 0.012207031, 0.012098847 
6.1035156e-3, 3.7875322e+1, -0.0000028402735, -8985.8545, 1.658577, 0.0, 0.0011001778, 0.00030329396, 0.00030329396, 0.0, 0.012207031, 0.012098796 
6.1035156e-3, 3.788742e+1, -0.0000019623787, -8960.82, 0.9638173, 0.0, 0.001404899, 0.000101704885, 0.000101704885, 0.0, 0.012207031, 0.012099094 
6.1035156e-3, 3.7899518e+1, -0.00000039860544, -8969.473, 0.33240163, 0.0, 0.0016925294, 0.000011919938, 0.000011919938, 0.0, 0.012207031, 0.01209899 
6.1035156e-3, 3.7911618e+1, -0.0019926196, -8938.194, -44.968937, 0.0, 0.001301747, 0.22424488, 0.22424488, 0.0, 0.012207031, 0.012099363 
6.1035156e-3, 3.7923717e+1, -0.00012632181, -8934.024, 11.32156, 0.0, 0.0014404587, 0.014220797, 0.014220797, 0.0, 0.012207031, 0.012099412 
6.1035156e-3, 3.7935817e+1, -0.000011816966, -8921.975, -3.4190092, 0.0, 0.0015010834, 0.0012983887, 0.0012983887, 0.0, 0.012207031, 0.012099556 
6.1035156e-3, 3.7947917e+1, -0.0000013552386, -8914.052, -0.61552674, 0.0, 0.0013151409, 0.000041147672, 0.000041147672, 0.0, 0.012207031, 0.01209965 
6.1035156e-3, 3.7960014e+1, -0.0000015966776, -8906.517, 1.5130289, 0.0, 0.001546532, 0.00025543492, 0.00025543492, 0.0, 0.012207031, 0.012099739 
6.1035156e-3, 3.7972113e+1, -0.0000032833555, -8901.638, -1.0162337, 0.0, 0.001390447, 0.00011273248, 0.00011273248, 0.0, 0.012207031, 0.012099797 
6.1035156e-3, 3.7984216e+1, -0.0000009270918, -8878.597, -1.1001722, 0.0, 0.0012811888, 0.00013539837, 0.00013539837, 0.0, 0.012207031, 0.012100071 
6.1035156e-3, 3.7996316e+1, -0.0000191766, -8882.0, 4.3966904, 0.0, 0.0016153514, 0.0021572341, 0.0021572341, 0.0, 0.012207031, 0.012100031 
6.1035156e-3, 3.8008416e+1, -0.000016084903, -8872.778, 4.03351, 0.0, 0.0015198755, 0.0018175236, 0.0018175236, 0.0, 0.012207031, 0.012100141 
6.1035156e-3, 3.8020515e+1, -0.000002925515, -8869.905, -1.8111776, 0.0, 0.001274743, 0.0003669053, 0.0003669053, 0.0, 0.012207031, 0.012100174 
6.1035156e-3, 3.8032615e+1, -0.0011019064, -8852.637, -33.43947, 0.0, 0.0013191177, 0.12520872, 0.12520872, 0.0, 0.012207031, 0.01210038 
6.1035156e-3, 3.8044715e+1, -0.0017999781, -8830.07, -42.737293, 0.0, 0.0016140005, 0.20504254, 0.20504254, 0.0, 0.012207031, 0.012100648 
6.1035156e-3, 3.8056815e+1, -0.00004634412, -8820.15, 6.8563557, 0.0, 0.0015315084, 0.00528345, 0.00528345, 0.0, 0.012207031, 0.0121007655 
6.1035156e-3, 3.806892e+1, -0.000021924225, -8817.107, -4.723041, 0.0, 0.0012038037, 0.0025080566, 0.0025080566, 0.0, 0.012207031, 0.012100802 
6.1035156e-3, 3.808102e+1, -0.000008068206, -8801.024, 2.6867225, 0.0, 0.0015670452, 0.0008121178, 0.0008121178, 0.0, 0.012207031, 0.012100994 
6.1035156e-3, 3.809312e+1, -0.0000056511813, -8795.724, 2.4307213, 0.0, 0.0014987777, 0.00066608493, 0.00066608493, 0.0, 0.012207031, 0.012101056 
6.1035156e-3, 3.810522e+1, -0.00000063358175, -8796.051, 0.42087632, 0.0, 0.0010560576, 0.000019504647, 0.000019504647, 0.0, 0.012207031, 0.012101052 
6.1035156e-3, 3.8117322e+1, -0.000012609068, -8780.244, -3.5876322, 0.0, 0.001775184, 0.0014533071, 0.0014533071, 0.0, 0.012207031, 0.01210124 
6.1035156e-3, 3.8129425e+1, -0.0000019818594, -8766.677, 1.4156759, 0.0, 0.0016065822, 0.00022662677, 0.00022662677, 0.0, 0.012207031, 0.012101402 
6.1035156e-3, 3.8141525e+1, -0.000007703766, -8757.353, 2.6142812, 0.0, 0.0011131399, 0.0007727221, 0.0007727221, 0.0, 0.012207031, 0.012101512 
6.1035156e-3, 3.8153625e+1, -0.000021387435, -8755.604, -4.6659465, 0.0, 0.0014582853, 0.0024651403, 0.0024651403, 0.0, 0.012207031, 0.012101534 
6.1035156e-3, 3.816573e+1, -0.000005365585, -8740.005, 2.3926144, 0.0, 0.0014904531, 0.00064962305, 0.00064962305, 0.0, 0.012207031, 0.012101719 
6.1035156e-3, 3.817783e+1, -0.00000068542704, -8730.171, 1.1891819, 0.0, 0.0015922317, 0.0001612992, 0.0001612992, 0.0, 0.012207031, 0.012101836 
6.1035156e-3, 3.8189933e+1, -0.000012697788, -8720.726, -3.5990517, 0.0, 0.0013196979, 0.001472634, 0.001472634, 0.0, 0.012207031, 0.012101948 
6.1035156e-3, 3.8202035e+1, -0.000027107904, -8711.566, 5.2427154, 0.0, 0.0012653592, 0.003128014, 0.003128014, 0.0, 0.012207031, 0.012102057 
6.1035156e-3, 3.8214138e+1, -0.000008699353, -8697.125, -3.0730097, 0.0, 0.0017668045, 0.0010771063, 0.0010771063, 0.0, 0.012207031, 0.0121022295 
6.1035156e-3, 3.8226238e+1, -0.0000099811, -8698.482, -3.2263105, 0.0, 0.0010997333, 0.0011866733, 0.0011866733, 0.0, 0.012207031, 0.012102213 
6.1035156e-3, 3.8238344e+1, -0.00022794002, -8678.33, -15.204692, 0.0, 0.0014956333, 0.02641105, 0.02641105, 0.0, 0.012207031, 0.012102453 
6.1035156e-3, 3.8250443e+1, -0.0000242297, -8675.479, 4.9601207, 0.0, 0.0019409326, 0.0028116703, 0.0028116703, 0.0, 0.012207031, 0.012102487 
6.1035156e-3, 3.8262546e+1, -0.000021308602, -8664.876, -4.654896, 0.0, 0.0010196628, 0.0024793674, 0.0024793674, 0.0, 0.012207031, 0.012102613 
6.1035156e-3, 3.8274652e+1, -0.0000019664083, -8652.806, 1.3757558, 0.0, 0.0012313626, 0.00021677234, 0.00021677234, 0.0, 0.012207031, 0.012102757 
6.1035156e-3, 3.8286752e+1, -0.00044676758, -8637.914, -21.286304, 0.0, 0.0017201621, 0.05200849, 0.05200849, 0.0, 0.012207031, 0.012102934 
6.1035156e-3, 3.8298854e+1, -0.000018571694, -8633.176, 4.3349466, 0.0, 0.0015597955, 0.0021581196, 0.0021581196, 0.0, 0.012207031, 0.0121029895 
6.1035156e-3, 3.831096e+1, -0.0000017603254, -8624.031, -1.4313154, 0.0, 0.0013183822, 0.00023579257, 0.00023579257, 0.0, 0.012207031, 0.012103098 
6.1035156e-3, 3.832306e+1, -0.0000026903415, -8614.586, 1.7069483, 0.0, 0.001254515, 0.00033553515, 0.00033553515, 0.0, 0.012207031, 0.012103211 
6.1035156e-3, 3.8335162e+1, -0.0000024703172, -8595.297, -1.6255977, 0.0, 0.0017438502, 0.00030497316, 0.00030497316, 0.0, 0.012207031, 0.01210344 
6.1035156e-3, 3.8347268e+1, -0.0000036112242, -8600.348, -0.9882108, 0.0, 0.0011914413, 0.00010993774, 0.00010993774, 0.0, 0.012207031, 0.012103381 
6.1035156e-3, 3.835937e+1, -0.0000027603578, -8584.31, 1.8040684, 0.0, 0.0014177868, 0.00037638057, 0.00037638057, 0.0, 0.012207031, 0.012103572 
6.1035156e-3, 3.8371477e+1, -0.000003867172, -8571.687, -2.2315667, 0.0, 0.0018823032, 0.0005771025, 0.0005771025, 0.0, 0.012207031, 0.0121037215 
6.1035156e-3, 3.838358e+1, -0.000011750511, -8566.477, 3.4592028, 0.0, 0.0010384339, 0.0013850993, 0.0013850993, 0.0, 0.012207031, 0.012103784 
6.1035156e-3, 3.8395682e+1, -0.00000047523255, -8557.1045, -0.1503285, 0.0, 0.0015050042, 0.0000021656906, 0.0000021656906, 0.0, 0.012207031, 0.012103895 
6.1035156e-3, 3.8407788e+1, -0.000007934076, -8546.514, -2.840933, 0.0, 0.0016450855, 0.00093641586, 0.00093641586, 0.0, 0.012207031, 0.012104021 
6.1035156e-3, 3.841989e+1, -0.00035884258, -8527.37, -19.076973, 0.0, 0.0010418843, 0.04231892, 0.04231892, 0.0, 0.012207031, 0.012104249 
6.1035156e-3, 3.8431996e+1, -0.000020539062, -8530.332, 4.561677, 0.0, 0.0015871308, 0.0024188608, 0.0024188608, 0.0, 0.012207031, 0.012104214 
6.1035156e-3, 3.84441e+1, -0.000035341385, -8522.595, 5.9822297, 0.0, 0.0017911876, 0.0041637383, 0.0041637383, 0.0, 0.012207031, 0.012104305 
6.1035156e-3, 3.8456205e+1, -0.000040957413, -8504.523, -6.4472423, 0.0, 0.0012901339, 0.004846667, 0.004846667, 0.0, 0.012207031, 0.012104521 
6.1035156e-3, 3.8468307e+1, -0.000018354755, -8508.485, -4.3038535, 0.0, 0.0010334363, 0.0021586663, 0.0021586663, 0.0, 0.012207031, 0.012104474 
6.1035156e-3, 3.8480413e+1, -0.0033613178, -8479.64, -58.383965, 0.0, 0.0017074809, 0.3986047, 0.3986047, 0.0, 0.012207031, 0.012104817 
6.1035156e-3, 3.8492516e+1, -0.00023086942, -8467.666, 15.3020525, 0.0, 0.0016753199, 0.027421618, 0.027421618, 0.0, 0.012207031, 0.012104959 
6.1035156e-3, 3.8504624e+1, -0.000058096208, -8475.438, -7.6774116, 0.0, 0.0011006644, 0.0068964227, 0.0068964227, 0.0, 0.012207031, 0.012104867 
6.1035156e-3, 3.8516727e+1, -0.0000017565906, -8446.112, 1.1501126, 0.0, 0.0016668624, 0.00015485498, 0.00015485498, 0.0, 0.012207031, 0.012105216 
6.1035156e-3, 3.8528833e+1, -0.000007884165, -8442.639, 2.696521, 0.0, 0.0015942444, 0.00085336616, 0.00085336616, 0.0, 0.012207031, 0.012105257 
6.1035156e-3, 3.8540938e+1, -0.000003260614, -8438.706, -1.8965569, 0.0, 0.00082443585, 0.00042298104, 0.00042298104, 0.0, 0.012207031, 0.012105305 
6.1035156e-3, 3.8553044e+1, -0.0000009392097, -8436.557, 0.5592531, 0.0, 0.0015833111, 0.000036133264, 0.000036133264, 0.0, 0.012207031, 0.01210533 
6.1035156e-3, 3.8565147e+1, -0.00002549091, -8416.208, 5.080869, 0.0, 0.0021186718, 0.0030418315, 0.0030418315, 0.0, 0.012207031, 0.012105572 
6.1035156e-3, 3.8577256e+1, -0.000010740041, -8410.74, -3.3082745, 0.0, 0.0010350336, 0.001290534, 0.001290534, 0.0, 0.012207031, 0.012105637 
6.1035156e-3, 3.8589358e+1, -0.00000018347497, -8403.918, 0.02271415, 0.0, 0.0011325012, -0.00000012208329, -0.00000012208329, 0.0, 0.012207031, 0.012105718 
6.1035156e-3, 3.8601467e+1, -0.0019008728, -8386.929, -43.901787, 0.0, 0.0018116703, 0.22789893, 0.22789893, 0.0, 0.012207031, 0.012105921 
6.1035156e-3, 3.861357e+1, -0.0001605343, -8372.977, 12.757732, 0.0, 0.0012616436, 0.019278117, 0.019278117, 0.0, 0.012207031, 0.012106087 
6.1035156e-3, 3.8625678e+1, -0.00006200122, -8373.739, -7.9250035, 0.0, 0.0013609205, 0.007438307, 0.007438307, 0.0, 0.012207031, 0.012106078 
6.1035156e-3, 3.8637784e+1, -0.00000028080893, -8349.723, -0.062112626, 0.0, 0.0017470252, 0.00000018124229, 0.00000018124229, 0.0, 0.012207031, 0.012106364 
6.1035156e-3, 3.864989e+1, -0.000021821801, -8349.056, 4.712893, 0.0, 0.00139404, 0.0026385216, 0.0026385216, 0.0, 0.012207031, 0.012106372 
6.1035156e-3, 3.8661996e+1, -0.000014305849, -8342.834, -3.852817, 0.0, 0.0010860293, 0.0017649693, 0.0017649693, 0.0, 0.012207031, 0.012106446 
6.1035156e-3, 3.8674104e+1, -0.000046018304, -8333.276, -6.835808, 0.0, 0.0014007996, 0.005561408, 0.005561408, 0.0, 0.012207031, 0.012106559 
6.1035156e-3, 3.868621e+1, -0.000021278958, -8318.568, 4.646009, 0.0, 0.002028503, 0.0025735658, 0.0025735658, 0.0, 0.012207031, 0.012106735 
6.1035156e-3, 3.869832e+1, -0.000010271351, -8314.673, -3.1902583, 0.0, 0.0014004878, 0.0012137993, 0.0012137993, 0.0, 0.012207031, 0.012106781 
6.1035156e-3, 3.871042e+1, -0.000009036389, -8294.352, -3.1068153, 0.0, 0.0006727301, 0.0011546834, 0.0011546834, 0.0, 0.012207031, 0.012107023 
6.1035156e-3, 3.872253e+1, -0.000023222507, -8291.584, -4.845173, 0.0, 0.0016046548, 0.0028080451, 0.0028080451, 0.0, 0.012207031, 0.012107057 
6.1035156e-3, 3.873464e+1, -0.000015900387, -8282.863, 3.998669, 0.0, 0.0021515097, 0.0019145128, 0.0019145128, 0.0, 0.012207031, 0.01210716 
6.1035156e-3, 3.8746747e+1, -0.000019772673, -8272.025, -4.4949374, 0.0, 0.0011792552, 0.0024227316, 0.0024227316, 0.0, 0.012207031, 0.012107289 
6.1035156e-3, 3.8758853e+1, -0.0000030385775, -8259.952, 0.93749505, 0.0, 0.00094170147, 0.00010336603, 0.00010336603, 0.0, 0.012207031, 0.012107433 
6.1035156e-3, 3.877096e+1, -0.00000040922114, -8250.777, 0.0078600915, 0.0, 0.0017341558, -0.00000040173472, -0.00000040173472, 0.0, 0.012207031, 0.012107543 
6.1035156e-3, 3.8783064e+1, -0.000011358697, -8242.031, -3.4010243, 0.0, 0.0015441378, 0.0013920532, 0.0013920532, 0.0, 0.012207031, 0.012107646 
6.1035156e-3, 3.8795173e+1, -0.00011723699, -8235.906, -10.900086, 0.0, 0.0012818151, 0.014308821, 0.014308821, 0.0, 0.012207031, 0.01210772 
6.1035156e-3, 3.8807282e+1, -0.0000033886647, -8223.163, 2.1088555, 0.0, 0.0015373046, 0.00053743384, 0.00053743384, 0.0, 0.012207031, 0.0121078715 
6.1035156e-3, 3.881939e+1, -0.000004681328, -8209.139, -2.195811, 0.0, 0.00143931, 0.00058266235, 0.00058266235, 0.0, 0.012207031, 0.012108038 
6.1035156e-3, 3.8831496e+1, -0.0000019593538, -8200.587, -0.7203282, 0.0, 0.0013304349, 0.00006131329, 0.00006131329, 0.0, 0.012207031, 0.01210814 
6.1035156e-3, 3.8843605e+1, -0.0000010582427, -8195.836, 0.7350724, 0.0, 0.0014665487, 0.0000648693, 0.0000648693, 0.0, 0.012207031, 0.0121081965 
6.1035156e-3, 3.8855717e+1, -0.0000034722989, -8183.8633, 2.1026378, 0.0, 0.0014995739, 0.0005367475, 0.0005367475, 0.0, 0.012207031, 0.012108339 
6.1035156e-3, 3.8867825e+1, -0.0000015632354, -8171.7856, -0.93330497, 0.0, 0.0014209796, 0.00010503013, 0.00010503013, 0.0, 0.012207031, 0.012108483 
6.1035156e-3, 3.887993e+1, -0.0000046831415, -8163.3784, -2.3338656, 0.0, 0.0013810416, 0.0006625564, 0.0006625564, 0.0, 0.012207031, 0.012108583 
6.1035156e-3, 3.889204e+1, -0.000008071586, -8152.497, -2.8632066, 0.0, 0.0014990141, 0.0009975039, 0.0009975039, 0.0, 0.012207031, 0.012108713 
6.1035156e-3, 3.8904148e+1, -0.000039973558, -8149.0254, -6.370507, 0.0, 0.0013838222, 0.004940172, 0.004940172, 0.0, 0.012207031, 0.012108754 
6.1035156e-3, 3.891626e+1, -0.000023286055, -8130.669, -4.852272, 0.0, 0.0014321118, 0.0028724826, 0.0028724826, 0.0, 0.012207031, 0.012108973 
6.1035156e-3, 3.892837e+1, -0.00000237728, -8128.2217, -1.5801157, 0.0, 0.0014955434, 0.00030479516, 0.00030479516, 0.0, 0.012207031, 0.012109002 
6.1035156e-3, 3.8940474e+1, -0.00000084908544, -8116.98, -0.5899322, 0.0, 0.0014340886, 0.000042026462, 0.000042026462, 0.0, 0.012207031, 0.012109136 
6.1035156e-3, 3.8952586e+1, -0.000000623622, -8104.7617, -0.27713165, 0.0, 0.001384293, 0.000008852529, 0.000008852529, 0.0, 0.012207031, 0.0121092815 
6.1035156e-3, 3.8964695e+1, -0.000008129243, -8084.4727, -2.9416206, 0.0, 0.0014272152, 0.0010622103, 0.0010622103, 0.0, 0.012207031, 0.012109524 
6.1035156e-3, 3.8976803e+1, -0.000016023943, -8093.4917, -4.0444856, 0.0, 0.0014828931, 0.0020050888, 0.0020050888, 0.0, 0.012207031, 0.012109417 
6.1035156e-3, 3.8988915e+1, -0.0000069413127, -8072.76, -2.6425066, 0.0, 0.0016627089, 0.00085804664, 0.00085804664, 0.0, 0.012207031, 0.012109663 
6.1035156e-3, 3.9001024e+1, -0.0000035506023, -8070.614, -2.1017642, 0.0, 0.0010561551, 0.00054379477, 0.00054379477, 0.0, 0.012207031, 0.0121096885 
6.1035156e-3, 3.9013135e+1, -0.0000009970621, -8057.541, -0.4148475, 0.0, 0.0012018096, 0.000020361618, 0.000020361618, 0.0, 0.012207031, 0.012109845 
6.1035156e-3, 3.902524e+1, -0.0000026739742, -8052.837, 0.7521929, 0.0, 0.0021602274, 0.000067586254, 0.000067586254, 0.0, 0.012207031, 0.012109901 
6.1035156e-3, 3.9037353e+1, -0.0000064762485, -8028.673, -2.5661247, 0.0, 0.0014574203, 0.0008137086, 0.0008137086, 0.0, 0.012207031, 0.012110189 
6.1035156e-3, 3.9049464e+1, -0.0000013606766, -8029.9956, 1.4782672, 0.0, 0.000753988, 0.0002707782, 0.0002707782, 0.0, 0.012207031, 0.012110173 
6.1035156e-3, 3.9061573e+1, -0.0000013474556, -8015.799, 1.1883451, 0.0, 0.0017353089, 0.00017482512, 0.00017482512, 0.0, 0.012207031, 0.012110342 
6.1035156e-3, 3.9073685e+1, -0.0000013466056, -8015.9917, -0.5429836, 0.0, 0.001578872, 0.00003543377, 0.00003543377, 0.0, 0.012207031, 0.0121103395 
6.1035156e-3, 3.9085796e+1, -0.00005666384, -7991.1216, -7.5757685, 0.0, 0.0012832978, 0.007125334, 0.007125334, 0.0, 0.012207031, 0.012110637 
6.1035156e-3, 3.9097905e+1, -0.000005569291, -7989.243, -2.3466625, 0.0, 0.0015830428, 0.0006837105, 0.0006837105, 0.0, 0.012207031, 0.012110659 
6.1035156e-3, 3.9110017e+1, -0.0000008591121, -7974.213, -0.26576713, 0.0, 0.0012820645, 0.000007998459, 0.000007998459, 0.0, 0.012207031, 0.012110838 
6.1035156e-3, 3.9122128e+1, -0.000030331441, -7975.0195, 5.540857, 0.0, 0.0015360664, 0.003819324, 0.003819324, 0.0, 0.012207031, 0.012110828 
6.1035156e-3, 3.913424e+1, -0.0000028330885, -7955.205, -1.8885415, 0.0, 0.001746283, 0.0004455009, 0.0004455009, 0.0, 0.012207031, 0.012111064 
6.1035156e-3, 3.9146352e+1, -0.000011180567, -7952.114, -3.375084, 0.0, 0.0009175279, 0.0014212925, 0.0014212925, 0.0, 0.012207031, 0.012111101 
6.1035156e-3, 3.9158458e+1, -0.00017457755, -7934.1733, -13.299796, 0.0, 0.001419178, 0.022119375, 0.022119375, 0.0, 0.012207031, 0.0121113155 
6.1035156e-3, 3.917057e+1, -0.00001674778, -7934.9644, 4.127485, 0.0, 0.0019014201, 0.002130222, 0.002130222, 0.0, 0.012207031, 0.012111306 
6.1035156e-3, 3.918268e+1, -0.000016904942, -7916.8154, -4.1581473, 0.0, 0.0012067342, 0.002167077, 0.002167077, 0.0, 0.012207031, 0.012111522 
6.1035156e-3, 3.9194793e+1, -0.000001933811, -7917.8687, 1.3448958, 0.0, 0.0014223277, 0.00022650455, 0.00022650455, 0.0, 0.012207031, 0.012111509 
6.1035156e-3, 3.9206904e+1, -0.00019260186, -7893.8525, -13.969794, 0.0, 0.0016197389, 0.024529744, 0.024529744, 0.0, 0.012207031, 0.012111796 
6.1035156e-3, 3.9219016e+1, -0.0000064517876, -7892.846, -2.3809814, 0.0, 0.0011717007, 0.0007118026, 0.0007118026, 0.0, 0.012207031, 0.012111808 
6.1035156e-3, 3.9231128e+1, -0.0000012999375, -7875.0938, -0.4948306, 0.0, 0.0016425137, 0.000029792685, 0.000029792685, 0.0, 0.012207031, 0.01211202 
6.1035156e-3, 3.924324e+1, -0.000011162028, -7874.159, 3.3718576, 0.0, 0.0013682997, 0.0014327283, 0.0014327283, 0.0, 0.012207031, 0.012112031 
6.1035156e-3, 3.9255357e+1, -0.0000013837833, -7856.3154, -1.3477658, 0.0, 0.001263781, 0.00022982797, 0.00022982797, 0.0, 0.012207031, 0.012112244 
6.1035156e-3, 3.9267468e+1, -0.0000019058581, -7855.201, 0.9709956, 0.0, 0.0017405775, 0.00011812066, 0.00011812066, 0.0, 0.012207031, 0.012112257 
6.1035156e-3, 3.927958e+1, -0.0000042156657, -7841.8086, 2.2368858, 0.0, 0.0014263638, 0.0006338587, 0.0006338587, 0.0, 0.012207031, 0.012112416 
6.1035156e-3, 3.9291692e+1, -0.000038170456, -7829.4287, -6.2172875, 0.0, 0.0013403671, 0.004898926, 0.004898926, 0.0, 0.012207031, 0.012112564 
6.1035156e-3, 3.9303803e+1, -0.000004929986, -7818.7407, -2.2405784, 0.0, 0.0011492145, 0.0006371415, 0.0006371415, 0.0, 0.012207031, 0.012112692 
6.1035156e-3, 3.9315918e+1, -0.000058821097, -7812.1436, 7.7214613, 0.0, 0.001786146, 0.0075730034, 0.0075730034, 0.0, 0.012207031, 0.01211277 
6.1035156e-3, 3.932803e+1, -0.000015974414, -7797.5313, -4.0090775, 0.0, 0.0019767776, 0.0020452803, 0.0020452803, 0.0, 0.012207031, 0.012112944 
6.1035156e-3, 3.934014e+1, -0.0007431189, -7798.4863, -27.43651, 0.0, 0.00056697964, 0.0957824, 0.0957824, 0.0, 0.012207031, 0.012112933 
6.1035156e-3, 3.9352256e+1, -0.000069803034, -7781.0293, -8.403215, 0.0, 0.0012336031, 0.009005339, 0.009005339, 0.0, 0.012207031, 0.012113142 
6.1035156e-3, 3.9364368e+1, -0.000032319196, -7776.3916, 5.7191696, 0.0, 0.002196791, 0.0041738586, 0.0041738586, 0.0, 0.012207031, 0.012113197 
6.1035156e-3, 3.937648e+1, -0.000004678143, -7758.666, 2.172366, 0.0, 0.0015063308, 0.0006035672, 0.0006035672, 0.0, 0.012207031, 0.012113408 
6.1035156e-3, 3.9388597e+1, -0.0003073169, -7753.042, -17.642723, 0.0, 0.0009947225, 0.039840035, 0.039840035, 0.0, 0.012207031, 0.012113475 
6.1035156e-3, 3.940071e+1, -0.00000091194937, -7751.8574, -0.5059119, 0.0, 0.0011741623, 0.000032105538, 0.000032105538, 0.0, 0.012207031, 0.012113489 
6.1035156e-3, 3.9412823e+1, -0.0000013918446, -7737.475, 1.3108908, 0.0, 0.00197209, 0.00022070059, 0.00022070059, 0.0, 0.012207031, 0.012113661 
6.1035156e-3, 3.9424935e+1, -0.0000019110205, -7729.599, 1.4080846, 0.0, 0.0016209317, 0.00025459676, 0.00025459676, 0.0, 0.012207031, 0.012113755 
6.1035156e-3, 3.943705e+1, -0.0022725582, -7707.5557, -47.976246, 0.0, 0.0009611352, 0.29634765, 0.29634765, 0.0, 0.012207031, 0.012114018 
6.1035156e-3, 3.9449164e+1, -0.000116412004, -7704.3647, 10.859656, 0.0, 0.0013362011, 0.015190743, 0.015190743, 0.0, 0.012207031, 0.012114056 
6.1035156e-3, 3.9461276e+1, -0.000048166024, -7700.9185, -6.9824677, 0.0, 0.0017881262, 0.006282873, 0.006282873, 0.0, 0.012207031, 0.012114097 
6.1035156e-3, 3.9473394e+1, -0.0000012494729, -7674.1846, 0.96393204, 0.0, 0.0015126177, 0.00011982723, 0.00011982723, 0.0, 0.012207031, 0.012114416 
6.1035156e-3, 3.9485508e+1, -0.0000072676994, -7670.7666, 2.7406201, 0.0, 0.0011776228, 0.0009719041, 0.0009719041, 0.0, 0.012207031, 0.012114457 
6.1035156e-3, 3.949762e+1, -0.00000044009957, -7671.054, 0.15953796, 0.0, 0.001429886, 0.000002877874, 0.000002877874, 0.0, 0.012207031, 0.012114453 
6.1035156e-3, 3.9509735e+1, -0.000001914408, -7660.2656, 1.2320725, 0.0, 0.0015740088, 0.00019625139, 0.00019625139, 0.0, 0.012207031, 0.012114583 
6.1035156e-3, 3.952185e+1, -0.0000087718545, -7645.503, -2.968808, 0.0, 0.0014272811, 0.001144039, 0.001144039, 0.0, 0.012207031, 0.012114759 
6.1035156e-3, 3.9533967e+1, -0.000011860703, -7627.586, -3.415016, 0.0, 0.0014340578, 0.0015171068, 0.0015171068, 0.0, 0.012207031, 0.012114972 
6.1035156e-3, 3.954608e+1, -0.0000016360053, -7627.8394, 1.4513434, 0.0, 0.001265834, 0.00027451, 0.00027451, 0.0, 0.012207031, 0.012114969 
6.1035156e-3, 3.9558196e+1, -0.000004277187, -7616.844, 2.1670384, 0.0, 0.00159537, 0.0006122584, 0.0006122584, 0.0, 0.012207031, 0.0121151 
6.1035156e-3, 3.9570308e+1, -0.000051180592, -7609.6895, -7.1994224, 0.0, 0.0015826006, 0.006760088, 0.006760088, 0.0, 0.012207031, 0.012115186 
6.1035156e-3, 3.9582425e+1, -0.000042827094, -7595.356, -6.5967, 0.0, 0.0011842591, 0.0056865183, 0.0056865183, 0.0, 0.012207031, 0.0121153565 
6.1035156e-3, 3.959454e+1, -0.0000010020816, -7589.273, -0.95704526, 0.0, 0.0015094478, 0.000119686105, 0.000119686105, 0.0, 0.012207031, 0.012115429 
6.1035156e-3, 3.9606655e+1, -0.0000056445983, -7580.624, 2.3283973, 0.0, 0.0015541366, 0.0007095252, 0.0007095252, 0.0, 0.012207031, 0.0121155325 
6.1035156e-3, 3.961877e+1, -0.000012196083, -7563.7344, 3.526176, 0.0, 0.0011284556, 0.0016316895, 0.0016316895, 0.0, 0.012207031, 0.012115735 
6.1035156e-3, 3.9630887e+1, -0.00000442771, -7557.521, -2.0897145, 0.0, 0.001671535, 0.00057339494, 0.00057339494, 0.0, 0.012207031, 0.012115808 
6.1035156e-3, 3.9643005e+1, -0.000008759199, -7554.19, -2.9412408, 0.0, 0.0016139707, 0.0011364192, 0.0011364192, 0.0, 0.012207031, 0.012115848 
6.1035156e-3, 3.9655122e+1, -0.0000022189097, -7533.8857, -1.6484609, 0.0, 0.0012050399, 0.00035847453, 0.00035847453, 0.0, 0.012207031, 0.01211609 
6.1035156e-3, 3.9667237e+1, -0.0000013404668, -7522.79, 1.4152008, 0.0, 0.001293158, 0.00026488965, 0.00026488965, 0.0, 0.012207031, 0.012116223 
6.1035156e-3, 3.967935e+1, -0.000026304977, -7511.681, -5.155547, 0.0, 0.0015497677, 0.0035121378, 0.0035121378, 0.0, 0.012207031, 0.012116356 
6.1035156e-3, 3.9691466e+1, -0.0007018282, -7507.237, -26.657291, 0.0, 0.0018207037, 0.09395381, 0.09395381, 0.0, 0.012207031, 0.012116409 
6.1035156e-3, 3.9703587e+1, -0.0000546999, -7508.511, -7.4402857, 0.0, 0.0011517252, 0.007317973, 0.007317973, 0.0, 0.012207031, 0.012116393 
6.1035156e-3, 3.97157e+1, -0.0002246456, -7499.024, 15.078385, 0.0, 0.0009937225, 0.030093538, 0.030093538, 0.0, 0.012207031, 0.012116507 
6.1035156e-3, 3.972782e+1, -0.00010781109, -7500.9697, -10.447669, 0.0, 0.0019299993, 0.014444118, 0.014444118, 0.0, 0.012207031, 0.012116483 
6.1035156e-3, 3.9739934e+1, -0.000004594176, -7477.0454, 2.1248074, 0.0, 0.0016051834, 0.0005992281, 0.0005992281, 0.0, 0.012207031, 0.012116769 
6.1035156e-3, 3.975205e+1, -0.009753994, -7439.85, -99.37172, 0.0, 0.0010974891, 1.3172874, 1.3172874, 0.0, 0.012207031, 0.012117214 
6.1035156e-3, 3.976417e+1, -0.0010359902, -7453.732, 32.386757, 0.0, 0.0014725097, 0.13968311, 0.13968311, 0.0, 0.012207031, 0.012117048 
6.1035156e-3, 3.9776286e+1, -0.0002725492, -7460.2764, -16.61021, 0.0, 0.0016221864, 0.036709696, 0.036709696, 0.0, 0.012207031, 0.01211697 
6.1035156e-3, 3.97884e+1, -0.0000062247345, -7419.258, 2.3651574, 0.0, 0.0011326195, 0.0007477549, 0.0007477549, 0.0, 0.012207031, 0.0121174585 
6.1035156e-3, 3.9800522e+1, -0.0035169055, -7404.652, -59.667877, 0.0, 0.0015562397, 0.47726548, 0.47726548, 0.0, 0.012207031, 0.012117634 
6.1035156e-3, 3.9812636e+1, -0.00023142897, -7413.8135, 15.304945, 0.0, 0.0017810968, 0.031363696, 0.031363696, 0.0, 0.012207031, 0.012117524 
6.1035156e-3, 3.9824757e+1, -0.00011568032, -7407.0605, -10.821645, 0.0, 0.0011526889, 0.015694605, 0.015694605, 0.0, 0.012207031, 0.012117605 
6.1035156e-3, 3.9836872e+1, -0.0000064955807, -7378.5264, 2.512474, 0.0, 0.0012559381, 0.00084903097, 0.00084903097, 0.0, 0.012207031, 0.012117946 
6.1035156e-3, 3.9848992e+1, -0.00003330708, -7381.9727, 5.8071585, 0.0, 0.0015951494, 0.004534994, 0.004534994, 0.0, 0.012207031, 0.012117905 
6.1035156e-3, 3.986111e+1, -0.000002254891, -7378.438, -1.640247, 0.0, 0.0017048952, 0.00036237648, 0.00036237648, 0.0, 0.012207031, 0.0121179465 
6.1035156e-3, 3.9873227e+1, -0.00013961943, -7366.42, -11.888434, 0.0, 0.0013098345, 0.019046701, 0.019046701, 0.0, 0.012207031, 0.01211809 
6.1035156e-3, 3.9885345e+1, -0.00001848459, -7349.4893, -4.309228, 0.0, 0.0010479733, 0.002508145, 0.002508145, 0.0, 0.012207031, 0.012118292 
6.1035156e-3, 3.9897466e+1, -0.000002109994, -7342.965, 1.0691855, 0.0, 0.0017350969, 0.00015357067, 0.00015357067, 0.0, 0.012207031, 0.01211837 
6.1035156e-3, 3.9909583e+1, -0.0000013299438, -7334.2256, 1.0403959, 0.0, 0.0016851412, 0.00014625532, 0.00014625532, 0.0, 0.012207031, 0.012118475 
6.1035156e-3, 3.99217e+1, -0.0000027655663, -7322.8413, -1.9265643, 0.0, 0.0011231661, 0.0005040937, 0.0005040937, 0.0, 0.012207031, 0.012118611 
6.1035156e-3, 3.993382e+1, -0.0000047735844, -7309.846, -2.214536, 0.0, 0.0015313287, 0.00066612544, 0.00066612544, 0.0, 0.012207031, 0.012118765 
6.1035156e-3, 3.994594e+1, -0.000006311974, -7309.1216, 2.4544077, 0.0, 0.001509055, 0.0008178797, 0.0008178797, 0.0, 0.012207031, 0.0121187745 
6.1035156e-3, 3.9958057e+1, -0.000011211015, -7290.6035, 3.3396556, 0.0, 0.0012818357, 0.0015186071, 0.0015186071, 0.0, 0.012207031, 0.012118995 
6.1035156e-3, 3.9970177e+1, -0.0000011247004, -7287.627, -0.937797, 0.0, 0.0015917438, 0.00011955426, 0.00011955426, 0.0, 0.012207031, 0.012119031 
6.1035156e-3, 3.9982295e+1, -0.000011387073, -7276.517, -3.346829, 0.0, 0.0013790361, 0.0015279843, 0.0015279843, 0.0, 0.012207031, 0.012119164 
6.1035156e-3, 3.9994416e+1, -0.000069840906, -7269.203, -8.407227, 0.0, 0.0013914261, 0.009653558, 0.009653558, 0.0, 0.012207031, 0.012119251 
6.1035156e-3, 4.0006533e+1, -0.0010252009, -7250.681, -32.21083, 0.0, 0.0016277035, 0.1420672, 0.1420672, 0.0, 0.012207031, 0.012119472 
6.1035156e-3, 4.0018654e+1, -0.0000012475398, -7244.654, 1.0369754, 0.0, 0.0012644466, 0.00014718162, 0.00014718162, 0.0, 0.012207031, 0.012119545 
6.1035156e-3, 4.0030774e+1, -0.000018066297, -7232.555, -4.2690697, 0.0, 0.001542747, 0.002501783, 0.002501783, 0.0, 0.012207031, 0.012119689 
6.1035156e-3, 4.0042892e+1, -0.000010646094, -7228.906, 3.2885807, 0.0, 0.0015115483, 0.0014853977, 0.0014853977, 0.0, 0.012207031, 0.012119733 
6.1035156e-3, 4.0055013e+1, -0.0000021243109, -7213.2393, 1.6134893, 0.0, 0.0011750322, 0.0003587881, 0.0003587881, 0.0, 0.012207031, 0.01211992 
6.1035156e-3, 4.006713e+1, -0.0000065553904, -7206.365, -2.5372286, 0.0, 0.0016156121, 0.00088675605, 0.00088675605, 0.0, 0.012207031, 0.012120002 
6.1035156e-3, 4.0079254e+1, -0.0000024962562, -7197.023, 1.7968152, 0.0, 0.0015154196, 0.00044609816, 0.00044609816, 0.0, 0.012207031, 0.012120114 
6.1035156e-3, 4.0091375e+1, -0.0000004076653, -7185.8594, 0.2851638, 0.0, 0.0012545753, 0.00001090878, 0.00001090878, 0.0, 0.012207031, 0.012120247 
6.1035156e-3, 4.0103492e+1, -0.000005909685, -7178.6963, -2.3763723, 0.0, 0.0016784476, 0.0007807436, 0.0007807436, 0.0, 0.012207031, 0.012120333 
6.1035156e-3, 4.0115613e+1, -0.0000016544599, -7168.104, 0.80575126, 0.0, 0.0013672377, 0.00008891832, 0.00008891832, 0.0, 0.012207031, 0.012120459 
6.1035156e-3, 4.0127736e+1, -0.0000031285463, -7157.682, 0.7913648, 0.0, 0.0012820169, 0.00008436601, 0.00008436601, 0.0, 0.012207031, 0.012120583 
6.1035156e-3, 4.0139854e+1, -0.0000012231521, -7140.8247, -1.2090673, 0.0, 0.0016676388, 0.00020349323, 0.00020349323, 0.0, 0.012207031, 0.012120785 
6.1035156e-3, 4.0151975e+1, -0.0000014072834, -7142.761, 1.4499583, 0.0, 0.001241779, 0.00029292976, 0.00029292976, 0.0, 0.012207031, 0.012120762 
6.1035156e-3, 4.0164098e+1, -0.000007523624, -7130.281, 2.7587872, 0.0, 0.001518296, 0.0010598825, 0.0010598825, 0.0, 0.012207031, 0.012120911 
6.1035156e-3, 4.0176216e+1, -0.000015396614, -7123.8643, -3.9536114, 0.0, 0.0015391073, 0.002178783, 0.002178783, 0.0, 0.012207031, 0.012120987 
6.1035156e-3, 4.018834e+1, -0.000006094755, -7107.552, -2.4944184, 0.0, 0.0011629619, 0.0008693295, 0.0008693295, 0.0, 0.012207031, 0.012121183 
6.1035156e-3, 4.020046e+1, -0.0018767033, -7096.1924, -43.57666, 0.0, 0.0018794574, 0.26571104, 0.26571104, 0.0, 0.012207031, 0.012121319 
6.1035156e-3, 4.021258e+1, -0.00012659523, -7089.233, 11.31495, 0.0, 0.0013998435, 0.017932873, 0.017932873, 0.0, 0.012207031, 0.012121402 
6.1035156e-3, 4.02247e+1, -0.000027721224, -7086.4478, -5.3021774, 0.0, 0.0009339653, 0.0039394386, 0.0039394386, 0.0, 0.012207031, 0.012121435 
6.1035156e-3, 4.0236825e+1, -0.00003961888, -7067.0747, -6.329166, 0.0, 0.0017757507, 0.005628682, 0.005628682, 0.0, 0.012207031, 0.012121666 
6.1035156e-3, 4.0248948e+1, -0.0011571153, -7057.81, -34.21515, 0.0, 0.0015254971, 0.16470866, 0.16470866, 0.0, 0.012207031, 0.012121777 
6.1035156e-3, 4.0261066e+1, -0.000030101612, -7039.0195, 5.5130467, 0.0, 0.0012722661, 0.004287782, 0.004287782, 0.0, 0.012207031, 0.0121220015 
6.1035156e-3, 4.027319e+1, -0.000036541915, -7047.474, -6.0849137, 0.0, 0.001572838, 0.005217276, 0.005217276, 0.0, 0.012207031, 0.012121901 
6.1035156e-3, 4.0285313e+1, -0.0000022262734, -7030.428, 1.6087728, 0.0, 0.0014568246, 0.00036590916, 0.00036590916, 0.0, 0.012207031, 0.012122105 
6.1035156e-3, 4.029743e+1, -0.000016741717, -7022.813, 4.089476, 0.0, 0.0012715751, 0.002364613, 0.002364613, 0.0, 0.012207031, 0.012122195 
6.1035156e-3, 4.0309554e+1, -0.0000034738657, -7004.9165, -1.8487824, 0.0, 0.001424262, 0.0004844686, 0.0004844686, 0.0, 0.012207031, 0.012122409 
6.1035156e-3, 4.0321678e+1, -0.000018653547, -7002.152, -4.3270025, 0.0, 0.001703437, 0.002655231, 0.002655231, 0.0, 0.012207031, 0.012122443 
6.1035156e-3, 4.0333802e+1, -0.0000016028145, -6990.782, 1.3807948, 0.0, 0.0014328739, 0.00027112695, 0.00027112695, 0.0, 0.012207031, 0.012122578 
6.1035156e-3, 4.0345925e+1, -0.00003887127, -6985.5776, 6.269853, 0.0, 0.001089325, 0.0055885846, 0.0055885846, 0.0, 0.012207031, 0.01212264 
6.1035156e-3, 4.035805e+1, -0.00000061241553, -6966.5767, -0.9294785, 0.0, 0.001672714, 0.00012339832, 0.00012339832, 0.0, 0.012207031, 0.012122868 
6.1035156e-3, 4.037017e+1, -0.000038674974, -6969.1006, -6.257859, 0.0, 0.0014539635, 0.005580525, 0.005580525, 0.0, 0.012207031, 0.012122838 
6.1035156e-3, 4.0382293e+1, -0.0000015107204, -6950.0947, 0.8249587, 0.0, 0.0012732578, 0.00009640979, 0.00009640979, 0.0, 0.012207031, 0.012123065 
6.1035156e-3, 4.0394416e+1, -0.00016393802, -6941.7427, -12.878501, 0.0, 0.00169775, 0.023728509, 0.023728509, 0.0, 0.012207031, 0.012123165 
6.1035156e-3, 4.040654e+1, -0.000014881586, -6932.59, 3.8584497, 0.0, 0.0013714926, 0.002132603, 0.002132603, 0.0, 0.012207031, 0.012123275 
6.1035156e-3, 4.0418664e+1, -0.0000096400345, -6928.892, -3.1234417, 0.0, 0.0012757503, 0.0013983609, 0.0013983609, 0.0, 0.012207031, 0.012123318 
6.1035156e-3, 4.0430787e+1, -0.00000050671264, -6905.5205, 0.28460476, 0.0, 0.0016177646, 0.000011223015, 0.000011223015, 0.0, 0.012207031, 0.012123598 
6.1035156e-3, 4.0442908e+1, -0.000052614305, -6905.7485, -7.2969217, 0.0, 0.0013113262, 0.0076576304, 0.0076576304, 0.0, 0.012207031, 0.012123595 
6.1035156e-3, 4.045503e+1, -0.0000007197819, -6896.3433, 0.3496836, 0.0, 0.00142566, 0.000017011156, 0.000017011156, 0.0, 0.012207031, 0.012123708 
6.1035156e-3, 4.0467155e+1, -0.0000017807781, -6881.7437, 0.5572008, 0.0, 0.001596618, 0.00004333464, 0.00004333464, 0.0, 0.012207031, 0.012123882 
6.1035156e-3, 4.047928e+1, -0.00000094886633, -6871.8086, 0.34272823, 0.0, 0.0012913579, 0.000016144542, 0.000016144542, 0.0, 0.012207031, 0.012124001 
6.1035156e-3, 4.0491405e+1, -0.0000005407352, -6867.47, -0.09703831, 0.0, 0.0015114644, 0.0000008304296, 0.0000008304296, 0.0, 0.012207031, 0.012124053 
6.1035156e-3, 4.050353e+1, -0.00000046434081, -6852.6987, -0.22072046, 0.0, 0.001712345, 0.0000066449047, 0.0000066449047, 0.0, 0.012207031, 0.012124229 
6.1035156e-3, 4.0515652e+1, -0.0000012408228, -6843.072, -0.97214454, 0.0, 0.0008966595, 0.00013686456, 0.00013686456, 0.0, 0.012207031, 0.012124345 
6.1035156e-3, 4.052778e+1, -0.0000009195254, -6837.723, 0.26663804, 0.0, 0.0013148559, 0.000009478065, 0.000009478065, 0.0, 0.012207031, 0.012124409 
6.1035156e-3, 4.0539902e+1, -0.00000005990239, -6824.1343, 0.004971952, 0.0, 0.0022057681, -0.000000056279532, -0.000000056279532, 0.0, 0.012207031, 0.012124571 
6.1035156e-3, 4.0552026e+1, -0.0000020484622, -6810.4624, 1.3622066, 0.0, 0.0014398562, 0.00027041565, 0.00027041565, 0.0, 0.012207031, 0.012124735 
6.1035156e-3, 4.0564153e+1, -0.000033185217, -6797.618, -5.8012075, 0.0, 0.0006388614, 0.0049176645, 0.0049176645, 0.0, 0.012207031, 0.012124889 
6.1035156e-3, 4.0576276e+1, -0.00024082966, -6805.7466, -15.607046, 0.0, 0.0015473686, 0.03554931, 0.03554931, 0.0, 0.012207031, 0.012124791 
6.1035156e-3, 4.0588403e+1, -0.000034951547, -6785.5605, -5.94598, 0.0, 0.0021085588, 0.0051753256, 0.0051753256, 0.0, 0.012207031, 0.012125033 
6.1035156e-3, 4.0600526e+1, -0.00001310395, -6778.2236, 3.6578481, 0.0, 0.0010873423, 0.0019608424, 0.0019608424, 0.0, 0.012207031, 0.0121251205 
6.1035156e-3, 4.0612653e+1, -0.0000009969017, -6773.2393, 0.4574772, 0.0, 0.0013264321, 0.000029901963, 0.000029901963, 0.0, 0.012207031, 0.01212518 
6.1035156e-3, 4.0624774e+1, -0.0016405995, -6759.2314, -40.73077, 0.0, 0.001809889, 0.24379203, 0.24379203, 0.0, 0.012207031, 0.012125348 
6.1035156e-3, 4.0636903e+1, -0.0000049157384, -6738.9824, 2.1338491, 0.0, 0.0009469743, 0.00067075185, 0.00067075185, 0.0, 0.012207031, 0.01212559 
6.1035156e-3, 4.064903e+1, -0.0000019610618, -6742.7036, -1.4635619, 0.0, 0.0015013604, 0.00031571765, 0.00031571765, 0.0, 0.012207031, 0.012125545 
6.1035156e-3, 4.0661153e+1, -0.0000021320475, -6722.6484, 1.4048656, 0.0, 0.0017801361, 0.00029144977, 0.00029144977, 0.0, 0.012207031, 0.012125785 
6.1035156e-3, 4.067328e+1, -0.0000059949293, -6717.89, 2.4827988, 0.0, 0.0013262657, 0.00091159815, 0.00091159815, 0.0, 0.012207031, 0.012125842 
6.1035156e-3, 4.0685406e+1, -0.000010326521, -6705.7007, -3.2516909, 0.0, 0.00135447, 0.001566465, 0.001566465, 0.0, 0.012207031, 0.0121259885 
6.1035156e-3, 4.069753e+1, -0.0000011579973, -6706.3115, -0.51203954, 0.0, 0.0011596283, 0.00003793719, 0.00003793719, 0.0, 0.012207031, 0.012125981 
6.1035156e-3, 4.0709656e+1, -0.0000019544148, -6678.658, 1.6285119, 0.0, 0.0019663707, 0.00039513898, 0.00039513898, 0.0, 0.012207031, 0.012126312 
6.1035156e-3, 4.0721783e+1, 0.00000016563816, -6686.663, -0.9615021, 0.0, 0.0015998668, 0.00013842387, 0.00013842387, 0.0, 0.012207031, 0.012126216 
6.1035156e-3, 4.073391e+1, -0.0000019279328, -6664.9717, 1.7660893, 0.0, 0.0007004128, 0.00046605174, 0.00046605174, 0.0, 0.012207031, 0.012126476 
6.1035156e-3, 4.0746036e+1, -0.0000008945431, -6663.596, -0.36932814, 0.0, 0.0018004659, 0.000019575375, 0.000019575375, 0.0, 0.012207031, 0.012126492 
6.1035156e-3, 4.0758163e+1, -0.000023628909, -6645.1016, -4.8766418, 0.0, 0.0015311176, 0.003555191, 0.003555191, 0.0, 0.012207031, 0.012126713 
6.1035156e-3, 4.077029e+1, -0.0000012450305, -6644.369, 0.42646214, 0.0, 0.0011128684, 0.000026127014, 0.000026127014, 0.0, 0.012207031, 0.012126722 
6.1035156e-3, 4.0782416e+1, -0.00000031418867, -6619.3916, -0.20841336, 0.0, 0.0018781445, 0.000006247764, 0.000006247764, 0.0, 0.012207031, 0.012127021 
6.1035156e-3, 4.0794545e+1, -0.00000056342975, -6632.2017, 0.9295268, 0.0, 0.0013512566, 0.00012971308, 0.00012971308, 0.0, 0.012207031, 0.012126868 
6.1035156e-3, 4.0806672e+1, -0.0000058692426, -6596.5977, -2.4671485, 0.0, 0.0012585365, 0.0009168521, 0.0009168521, 0.0, 0.012207031, 0.012127294 
6.1035156e-3, 4.08188e+1, -0.00000067378494, -6611.8633, 0.897578, 0.0, 0.0014417423, 0.00012117482, 0.00012117482, 0.0, 0.012207031, 0.012127112 
6.1035156e-3, 4.0830925e+1, -0.000008105517, -6584.388, 2.731419, 0.0, 0.0015969301, 0.001124976, 0.001124976, 0.0, 0.012207031, 0.01212744 
6.1035156e-3, 4.0843052e+1, -0.000008586185, -6588.3315, -2.95373, 0.0, 0.0014328997, 0.0013156519, 0.0013156519, 0.0, 0.012207031, 0.012127393 
6.1035156e-3, 4.0855178e+1, 0.0000014075414, -6562.492, 0.8342839, 0.0, 0.00129969, 0.00010746933, 0.00010746933, 0.0, 0.012207031, 0.012127702 
6.1035156e-3, 4.0867305e+1, -0.0000016175932, -6569.458, -0.6976687, 0.0, 0.0017075925, 0.000072473995, 0.000072473995, 0.0, 0.012207031, 0.012127619 
6.1035156e-3, 4.0879437e+1, -0.0000010583593, -6548.931, 0.9344561, 0.0, 0.0012144153, 0.00013227764, 0.00013227764, 0.0, 0.012207031, 0.012127864 
6.1035156e-3, 4.0891564e+1, -0.000002107265, -6543.371, 1.5359949, 0.0, 0.001137465, 0.00035845308, 0.00035845308, 0.0, 0.012207031, 0.012127931 
6.1035156e-3, 4.090369e+1, -0.0000010481502, -6532.514, -0.40455365, 0.0, 0.0019900328, 0.000024005552, 0.000024005552, 0.0, 0.012207031, 0.012128061 
6.1035156e-3, 4.0915817e+1, -0.0018434982, -6533.3623, -43.168385, 0.0, 0.0017600561, 0.28337392, 0.28337392, 0.0, 0.012207031, 0.012128051 
6.1035156e-3, 4.0927947e+1, -0.00067026203, -6506.885, -26.028748, 0.0, 0.0006853997, 0.1034479, 0.1034479, 0.0, 0.012207031, 0.012128368 
6.1035156e-3, 4.0940076e+1, -0.00007980912, -6510.2866, 8.98129, 0.0, 0.0011089604, 0.012310339, 0.012310339, 0.0, 0.012207031, 0.012128327 
6.1035156e-3, 4.0952206e+1, -0.0033840411, -6471.733, -58.4853, 0.0, 0.0024422111, 0.52510697, 0.52510697, 0.0, 0.012207031, 0.012128789 
6.1035156e-3, 4.0964332e+1, -0.00040995734, -6491.452, -20.355598, 0.0, 0.0013939654, 0.063419566, 0.063419566, 0.0, 0.012207031, 0.012128552 
6.1035156e-3, 4.097646e+1, -0.0002626471, -6470.1675, -16.293674, 0.0, 0.00085959333, 0.04076908, 0.04076908, 0.0, 0.012207031, 0.012128808 
6.1035156e-3, 4.098859e+1, -0.00005156035, -6457.351, 7.216228, 0.0, 0.0015143094, 0.0080127185, 0.0080127185, 0.0, 0.012207031, 0.012128961 
6.1035156e-3, 4.1000718e+1, -0.000019674542, -6457.8574, 4.461476, 0.0, 0.0016814192, 0.0030625793, 0.0030625793, 0.0, 0.012207031, 0.012128955 
6.1035156e-3, 4.1012847e+1, -0.000024887808, -6454.877, -5.0165625, 0.0, 0.0016940883, 0.003873852, 0.003873852, 0.0, 0.012207031, 0.012128991 
6.1035156e-3, 4.102498e+1, -0.000003747335, -6425.152, -2.0061474, 0.0, 0.0010215798, 0.00062263897, 0.00062263897, 0.0, 0.012207031, 0.012129347 
6.1035156e-3, 4.1037107e+1, -0.00000051821047, -6427.0967, 0.058391627, 0.0, 0.0011356764, 0.000000012290911, 0.000000012290911, 0.0, 0.012207031, 0.012129324 
6.1035156e-3, 4.1049236e+1, -0.000007737258, -6412.0205, 2.7537715, 0.0, 0.0020703215, 0.0011749254, 0.0011749254, 0.0, 0.012207031, 0.012129504 
6.1035156e-3, 4.1061366e+1, -0.0000036044728, -6408.68, 1.9715347, 0.0, 0.0016790894, 0.00060290867, 0.00060290867, 0.0, 0.012207031, 0.012129544 
6.1035156e-3, 4.1073495e+1, -0.000024148718, -6396.0767, -4.9406023, 0.0, 0.0008418088, 0.003792181, 0.003792181, 0.0, 0.012207031, 0.012129695 
6.1035156e-3, 4.1085625e+1, -0.0000006112492, -6382.0503, -0.2552027, 0.0, 0.0011203891, 0.000009593688, 0.000009593688, 0.0, 0.012207031, 0.012129863 
6.1035156e-3, 4.1097754e+1, -0.000005276313, -6363.905, -2.4329193, 0.0, 0.002166911, 0.00092482805, 0.00092482805, 0.0, 0.012207031, 0.01213008 
6.1035156e-3, 4.1109887e+1, -0.0003516766, -6370.6875, -18.851044, 0.0, 0.0016780972, 0.055428613, 0.055428613, 0.0, 0.012207031, 0.012129999 
6.1035156e-3, 4.1122013e+1, -0.000059432637, -6362.05, -7.7471323, 0.0, 0.00072320295, 0.009374315, 0.009374315, 0.0, 0.012207031, 0.012130102 
6.1035156e-3, 4.1134143e+1, -0.000049306866, -6353.7847, 7.0638385, 0.0, 0.0015483792, 0.007803926, 0.007803926, 0.0, 0.012207031, 0.012130202 
6.1035156e-3, 4.1146275e+1, -0.000010768709, -6354.367, -3.3427422, 0.0, 0.0017605765, 0.0017476948, 0.0017476948, 0.0, 0.012207031, 0.012130194 
6.1035156e-3, 4.1158405e+1, -0.0005456318, -6325.878, -23.480177, 0.0, 0.0012314768, 0.08660609, 0.08660609, 0.0, 0.012207031, 0.012130535 
6.1035156e-3, 4.1170537e+1, -0.0024997613, -6307.148, -50.25911, 0.0, 0.00157583, 0.39796945, 0.39796945, 0.0, 0.012207031, 0.01213076 
6.1035156e-3, 4.1182667e+1, -0.0000898652, -6305.646, 9.52966, 0.0, 0.0013026452, 0.014312182, 0.014312182, 0.0, 0.012207031, 0.012130778 
6.1035156e-3, 4.1194797e+1, -0.000053227173, -6293.522, -7.333222, 0.0, 0.0014576424, 0.0084914435, 0.0084914435, 0.0, 0.012207031, 0.012130924 
6.1035156e-3, 4.120693e+1, -0.000001291126, -6283.9033, 1.2502142, 0.0, 0.0018374381, 0.00024744528, 0.00024744528, 0.0, 0.012207031, 0.012131038 
6.1035156e-3, 4.121906e+1, -0.000015156834, -6278.6895, 3.9247577, 0.0, 0.0010242803, 0.0024381762, 0.0024381762, 0.0, 0.012207031, 0.0121311005 
6.1035156e-3, 4.123119e+1, -0.00000076843673, -6265.555, 0.37193048, 0.0, 0.001192255, 0.000021309781, 0.000021309781, 0.0, 0.012207031, 0.012131258 
6.1035156e-3, 4.1243324e+1, -0.00000055184364, -6266.26, -0.9100908, 0.0, 0.0019349826, 0.00013162673, 0.00013162673, 0.0, 0.012207031, 0.0121312495 
6.1035156e-3, 4.1255456e+1, -0.0000023606797, -6243.702, 1.5439713, 0.0, 0.0014948847, 0.00037943962, 0.00037943962, 0.0, 0.012207031, 0.012131521 
6.1035156e-3, 4.1267586e+1, -0.000001996456, -6237.3735, -1.7609346, 0.0, 0.0011687867, 0.00049515034, 0.00049515034, 0.0, 0.012207031, 0.012131596 
6.1035156e-3, 4.1279715e+1, -0.000011689671, -6231.3384, -3.4422207, 0.0, 0.0013620568, 0.0018898087, 0.0018898087, 0.0, 0.012207031, 0.012131669 
6.1035156e-3, 4.1291848e+1, -0.000015648127, -6220.644, 3.9713333, 0.0, 0.0015686086, 0.0025196974, 0.0025196974, 0.0, 0.012207031, 0.012131796 
6.1035156e-3, 4.130398e+1, -0.0000016384352, -6206.0103, 1.4622301, 0.0, 0.0017910331, 0.0003428851, 0.0003428851, 0.0, 0.012207031, 0.012131972 
6.1035156e-3, 4.1316113e+1, -0.000011240013, -6202.8286, -3.3694243, 0.0, 0.0011013814, 0.0018190567, 0.0018190567, 0.0, 0.012207031, 0.0121320095 
6.1035156e-3, 4.1328242e+1, -0.000005033718, -6187.997, 2.3635268, 0.0, 0.0010134414, 0.0008977234, 0.0008977234, 0.0, 0.012207031, 0.012132187 
6.1035156e-3, 4.1340378e+1, -0.00000084650134, -6180.6953, -1.1539496, 0.0, 0.002051948, 0.00021459849, 0.00021459849, 0.0, 0.012207031, 0.012132275 
6.1035156e-3, 4.1352507e+1, -0.000027334483, -6172.1567, -5.2447047, 0.0, 0.0015368363, 0.0044292775, 0.0044292775, 0.0, 0.012207031, 0.012132377 
6.1035156e-3, 4.1364643e+1, -0.000092929535, -6158.617, -9.687998, 0.0, 0.0010015134, 0.015147029, 0.015147029, 0.0, 0.012207031, 0.012132539 
6.1035156e-3, 4.1376773e+1, -0.0000052258447, -6152.8975, 2.147162, 0.0, 0.0016858663, 0.000744064, 0.000744064, 0.0, 0.012207031, 0.012132608 
6.1035156e-3, 4.1388908e+1, -0.0000016865704, -6142.262, -1.7065579, 0.0, 0.0014230951, 0.00047246114, 0.00047246114, 0.0, 0.012207031, 0.012132736 
6.1035156e-3, 4.140104e+1, -0.000001049402, -6130.35, -1.2414978, 0.0, 0.0012014412, 0.00025037452, 0.00025037452, 0.0, 0.012207031, 0.012132878 
6.1035156e-3, 4.1413173e+1, -0.000019600599, -6120.9326, -4.450611, 0.0, 0.0017365661, 0.0032164964, 0.0032164964, 0.0, 0.012207031, 0.012132991 
6.1035156e-3, 4.1425306e+1, -0.0000018767834, -6112.506, 0.5363998, 0.0, 0.0013535637, 0.0000451947, 0.0000451947, 0.0, 0.012207031, 0.012133093 
6.1035156e-3, 4.1437438e+1, -0.0000010578807, -6100.9473, -1.2509811, 0.0, 0.0013001205, 0.00025545206, 0.00025545206, 0.0, 0.012207031, 0.012133231 
6.1035156e-3, 4.1449574e+1, -0.000004427068, -6093.7334, 2.058002, 0.0, 0.001817081, 0.00069061026, 0.00069061026, 0.0, 0.012207031, 0.012133317 
6.1035156e-3, 4.1461703e+1, -0.000001550696, -6079.4966, -1.3366761, 0.0, 0.0012042705, 0.00029233925, 0.00029233925, 0.0, 0.012207031, 0.012133488 
6.1035156e-3, 4.147384e+1, -0.000011919308, -6074.182, -3.4708076, 0.0, 0.0010881315, 0.0019713107, 0.0019713107, 0.0, 0.012207031, 0.012133552 
6.1035156e-3, 4.1485974e+1, -0.000020661502, -6066.671, 4.560913, 0.0, 0.001813788, 0.0034082236, 0.0034082236, 0.0, 0.012207031, 0.012133642 
6.1035156e-3, 4.1498107e+1, -0.0000039436172, -6051.351, 1.9804579, 0.0, 0.0016882275, 0.0006442113, 0.0006442113, 0.0, 0.012207031, 0.012133826 
6.1035156e-3, 4.151024e+1, -0.000015657546, -6036.1353, -3.986139, 0.0, 0.001180025, 0.0026167051, 0.0026167051, 0.0, 0.012207031, 0.012134008 
6.1035156e-3, 4.1522372e+1, -0.0000003841315, -6042.4766, 0.12413679, 0.0, 0.0010466354, 0.000002166138, 0.000002166138, 0.0, 0.012207031, 0.012133932 
6.1035156e-3, 4.1534507e+1, -0.0000012001473, -6020.3823, 1.242224, 0.0, 0.0018081048, 0.00025511588, 0.00025511588, 0.0, 0.012207031, 0.012134197 
6.1035156e-3, 4.1546643e+1, -0.00000022406832, -6018.5347, -0.7842191, 0.0, 0.0017979441, 0.000101960206, 0.000101960206, 0.0, 0.012207031, 0.0121342195 
6.1035156e-3, 4.1558778e+1, -0.0000013693981, -6003.048, -1.5392607, 0.0, 0.0009162751, 0.0003933173, 0.0003933173, 0.0, 0.012207031, 0.012134405 
6.1035156e-3, 4.157091e+1, -0.0000070758924, -5994.1777, 2.6047263, 0.0, 0.0015649423, 0.0011247888, 0.0011247888, 0.0, 0.012207031, 0.012134511 
6.1035156e-3, 4.1583046e+1, -0.00026257389, -5984.514, -16.283247, 0.0, 0.0017326284, 0.044042144, 0.044042144, 0.0, 0.012207031, 0.012134627 
6.1035156e-3, 4.1595182e+1, -0.0000046686046, -5979.5, 2.2143385, 0.0, 0.00073046394, 0.0008153489, 0.0008153489, 0.0, 0.012207031, 0.012134687 
6.1035156e-3, 4.1607314e+1, -0.000011121036, -5959.3896, -3.3629131, 0.0, 0.0017963772, 0.0018865869, 0.0018865869, 0.0, 0.012207031, 0.012134928 
6.1035156e-3, 4.161945e+1, -0.000012040879, -5962.686, -3.4747558, 0.0, 0.002121184, 0.0020128726, 0.0020128726, 0.0, 0.012207031, 0.012134889 
6.1035156e-3, 4.1631585e+1, -0.00023479373, -5939.515, -15.398166, 0.0, 0.00078842085, 0.039684612, 0.039684612, 0.0, 0.012207031, 0.012135167 
6.1035156e-3, 4.1643718e+1, -0.000006720483, -5937.5825, 2.6221852, 0.0, 0.0011430216, 0.0011513019, 0.0011513019, 0.0, 0.012207031, 0.01213519 
6.1035156e-3, 4.1655856e+1, -0.0000006323832, -5927.498, 0.2831922, 0.0, 0.0019595523, 0.000012897409, 0.000012897409, 0.0, 0.012207031, 0.012135311 
6.1035156e-3, 4.1667992e+1, -0.0000010609945, -5915.3657, -1.4435841, 0.0, 0.0013145527, 0.00035123076, 0.00035123076, 0.0, 0.012207031, 0.012135456 
6.1035156e-3, 4.1680127e+1, 0.000000042408875, -5901.6597, 0.7228143, 0.0, 0.001299635, 0.000088570145, 0.000088570145, 0.0, 0.012207031, 0.01213562 
6.1035156e-3, 4.169226e+1, -0.000004875193, -5902.9873, 2.2594233, 0.0, 0.0017448067, 0.00085994, 0.00085994, 0.0, 0.012207031, 0.012135604 
6.1035156e-3, 4.1704398e+1, -0.000003980412, -5885.451, -1.9014031, 0.0, 0.001272057, 0.0006103027, 0.0006103027, 0.0, 0.012207031, 0.012135815 
6.1035156e-3, 4.1716534e+1, -0.000007998747, -5878.67, -2.8378773, 0.0, 0.0012572637, 0.0013619617, 0.0013619617, 0.0, 0.012207031, 0.012135897 
6.1035156e-3, 4.172867e+1, -0.0000016463176, -5864.5884, 1.4918405, 0.0, 0.0016059707, 0.0003778497, 0.0003778497, 0.0, 0.012207031, 0.012136065 
6.1035156e-3, 4.1740808e+1, -0.0000046578807, -5859.0205, 2.1742408, 0.0, 0.0015689674, 0.0008021873, 0.0008021873, 0.0, 0.012207031, 0.012136132 
6.1035156e-3, 4.175294e+1, -0.000012966807, -5838.975, -3.6273475, 0.0, 0.00137071, 0.0022404501, 0.0022404501, 0.0, 0.012207031, 0.012136373 
6.1035156e-3, 4.176508e+1, -0.0011596448, -5846.4585, -34.218216, 0.0, 0.001221856, 0.19910629, 0.19910629, 0.0, 0.012207031, 0.012136282 
6.1035156e-3, 4.1777214e+1, -0.0001511388, -5825.203, -12.353333, 0.0, 0.0017742829, 0.026046088, 0.026046088, 0.0, 0.012207031, 0.012136538 
6.1035156e-3, 4.1789353e+1, -0.0000016129965, -5817.264, -0.66761214, 0.0, 0.0011391907, 0.00007500479, 0.00007500479, 0.0, 0.012207031, 0.012136633 
6.1035156e-3, 4.1801488e+1, -0.000027668422, -5810.045, 5.282635, 0.0, 0.0012069857, 0.004775429, 0.004775429, 0.0, 0.012207031, 0.012136719 
6.1035156e-3, 4.1813624e+1, -0.0015841804, -5805.0405, -39.99373, 0.0, 0.0025209112, 0.27393895, 0.27393895, 0.0, 0.012207031, 0.01213678 
6.1035156e-3, 4.1825762e+1, -0.00017359883, -5788.3438, -13.238723, 0.0, 0.0009345232, 0.03010499, 0.03010499, 0.0, 0.012207031, 0.01213698 
6.1035156e-3, 4.1837898e+1, -0.000028772925, -5775.604, 5.392539, 0.0, 0.0005495588, 0.005006103, 0.005006103, 0.0, 0.012207031, 0.012137133 
6.1035156e-3, 4.1850036e+1, -0.0000069813595, -5773.919, 2.6785154, 0.0, 0.0023385584, 0.001235579, 0.001235579, 0.0, 0.012207031, 0.012137153 
6.1035156e-3, 4.1862175e+1, -0.000014261212, -5766.941, -3.7998893, 0.0, 0.0013895396, 0.002489519, 0.002489519, 0.0, 0.012207031, 0.012137237 
6.1035156e-3, 4.187431e+1, -0.000008689234, -5748.6636, -2.9406238, 0.0, 0.0010206087, 0.0014955326, 0.0014955326, 0.0, 0.012207031, 0.012137456 
6.1035156e-3, 4.188645e+1, -0.000003269194, -5737.544, 1.8148715, 0.0, 0.0021191614, 0.000570802, 0.000570802, 0.0, 0.012207031, 0.01213759 
6.1035156e-3, 4.1898587e+1, -0.00000050799173, -5726.6904, 0.83223677, 0.0, 0.0011722866, 0.0001204376, 0.0001204376, 0.0, 0.012207031, 0.012137719 
6.1035156e-3, 4.1910726e+1, -0.000000549512, -5724.844, 1.0822127, 0.0, 0.0009815899, 0.00020402971, 0.00020402971, 0.0, 0.012207031, 0.012137742 
6.1035156e-3, 4.1922864e+1, -0.0000378688, -5723.333, 6.1840467, 0.0, 0.0020028574, 0.0066439705, 0.0066439705, 0.0, 0.012207031, 0.01213776 
6.1035156e-3, 4.1935003e+1, -0.000092179806, -5705.3457, -9.645583, 0.0, 0.0011516006, 0.01621481, 0.01621481, 0.0, 0.012207031, 0.012137976 
6.1035156e-3, 4.1947135e+1, -0.000009061706, -5691.0654, 3.0490866, 0.0, 0.0011498965, 0.0016245384, 0.0016245384, 0.0, 0.012207031, 0.012138147 
6.1035156e-3, 4.1959274e+1, -0.003128774, -5675.6943, -56.198563, 0.0, 0.0024489535, 0.5532737, 0.5532737, 0.0, 0.012207031, 0.012138332 
6.1035156e-3, 4.1971412e+1, -0.00030545506, -5681.818, 17.561522, 0.0, 0.0011607774, 0.05397367, 0.05397367, 0.0, 0.012207031, 0.012138259 
6.1035156e-3, 4.198355e+1, -0.0004682896, -5666.2285, -21.743734, 0.0, 0.00038400572, 0.08297047, 0.08297047, 0.0, 0.012207031, 0.012138446 
6.1035156e-3, 4.199569e+1, -0.00011180803, -5646.1416, 10.623831, 0.0, 0.002122529, 0.019878017, 0.019878017, 0.0, 0.012207031, 0.012138686 
6.1035156e-3, 4.2007828e+1, -0.0038080406, -5633.1846, -61.997864, 0.0, 0.0019356319, 0.67844766, 0.67844766, 0.0, 0.012207031, 0.012138842 
6.1035156e-3, 4.201997e+1, -0.00036341618, -5642.156, 19.152246, 0.0, 0.00086703035, 0.064647965, 0.064647965, 0.0, 0.012207031, 0.012138735 
6.1035156e-3, 4.2032108e+1, -0.00020875529, -5628.1704, -14.514849, 0.0, 0.0016371261, 0.03722427, 0.03722427, 0.0, 0.012207031, 0.012138902 
6.1035156e-3, 4.2044246e+1, -0.0000037684474, -5613.1846, 1.9959491, 0.0, 0.0014477846, 0.0007059556, 0.0007059556, 0.0, 0.012207031, 0.012139082 
6.1035156e-3, 4.2056385e+1, -0.0015854927, -5590.626, -40.003098, 0.0, 0.0013523593, 0.28463763, 0.28463763, 0.0, 0.012207031, 0.012139353 
6.1035156e-3, 4.2068523e+1, -0.000093562405, -5600.3057, 9.71786, 0.0, 0.0015557784, 0.016769184, 0.016769184, 0.0, 0.012207031, 0.012139237 
6.1035156e-3, 4.2080665e+1, -0.000097463286, -5579.5293, -9.919799, 0.0, 0.0013577787, 0.017538808, 0.017538808, 0.0, 0.012207031, 0.012139486 
6.1035156e-3, 4.2092803e+1, -0.000013372559, -5567.319, 3.6706462, 0.0, 0.0014907019, 0.0024067578, 0.0024067578, 0.0, 0.012207031, 0.012139632 
6.1035156e-3, 4.2104942e+1, -0.00002210428, -5567.505, 4.7242255, 0.0, 0.0014506304, 0.003986566, 0.003986566, 0.0, 0.012207031, 0.0121396305 
6.1035156e-3, 4.2117083e+1, -0.000013558608, -5559.2134, -3.686695, 0.0, 0.0015707004, 0.00243134, 0.00243134, 0.0, 0.012207031, 0.01213973 
6.1035156e-3, 4.2129222e+1, -0.0000015486735, -5539.322, -1.7037839, 0.0, 0.0011636972, 0.00052250095, 0.00052250095, 0.0, 0.012207031, 0.012139969 
6.1035156e-3, 4.214136e+1, -0.000005333092, -5536.059, 2.3114989, 0.0, 0.0012835979, 0.0009597986, 0.0009597986, 0.0, 0.012207031, 0.012140008 
6.1035156e-3, 4.2153504e+1, -0.0000028189595, -5526.456, 1.7692928, 0.0, 0.002217658, 0.0005636194, 0.0005636194, 0.0, 0.012207031, 0.012140123 
6.1035156e-3, 4.2165643e+1, -0.00000206788, -5524.5, -0.46086082, 0.0, 0.001145177, 0.000036377714, 0.000036377714, 0.0, 0.012207031, 0.012140146 
6.1035156e-3, 4.2177784e+1, -0.000022587481, -5499.7427, -4.765961, 0.0, 0.0009484252, 0.0041074916, 0.0041074916, 0.0, 0.012207031, 0.0121404445 
6.1035156e-3, 4.2189923e+1, -0.000017203318, -5499.924, 4.176976, 0.0, 0.0018527359, 0.003155044, 0.003155044, 0.0, 0.012207031, 0.012140442 
6.1035156e-3, 4.2202064e+1, -0.0018595064, -5483.946, -43.31866, 0.0, 0.0014214758, 0.34030104, 0.34030104, 0.0, 0.012207031, 0.012140634 
6.1035156e-3, 4.2214206e+1, -0.000038580598, -5481.942, 6.2394714, 0.0, 0.0013995828, 0.007063091, 0.007063091, 0.0, 0.012207031, 0.012140658 
6.1035156e-3, 4.2226344e+1, -0.00006354068, -5474.2783, -8.004072, 0.0, 0.0014594237, 0.011639379, 0.011639379, 0.0, 0.012207031, 0.01214075 
6.1035156e-3, 4.2238486e+1, -0.00000058614677, -5447.066, -0.13785726, 0.0, 0.0014080332, 0.0000029028188, 0.0000029028188, 0.0, 0.012207031, 0.012141077 
6.1035156e-3, 4.2250624e+1, -0.0016048315, -5443.7734, -40.24132, 0.0, 0.0015281277, 0.2958499, 0.2958499, 0.0, 0.012207031, 0.012141116 
6.1035156e-3, 4.226277e+1, -0.0008599792, -5449.0215, -29.457775, 0.0, 0.0012904345, 0.15838611, 0.15838611, 0.0, 0.012207031, 0.012141054 
6.1035156e-3, 4.227491e+1, -0.000021293064, -5439.6733, -4.6351666, 0.0, 0.0016511643, 0.0039283475, 0.0039283475, 0.0, 0.012207031, 0.012141165 
6.1035156e-3, 4.2287052e+1, -0.0000042225706, -5428.069, -2.1615784, 0.0, 0.0015317787, 0.00085656607, 0.00085656607, 0.0, 0.012207031, 0.012141305 
6.1035156e-3, 4.229919e+1, -0.005798755, -5397.3916, -76.49038, 0.0, 0.0010153167, 1.0779858, 1.0779858, 0.0, 0.012207031, 0.012141674 
6.1035156e-3, 4.2311332e+1, -0.00044295937, -5390.078, -21.140806, 0.0, 0.0015848435, 0.08247363, 0.08247363, 0.0, 0.012207031, 0.012141761 
6.1035156e-3, 4.2323476e+1, -0.000053869077, -5391.6694, -7.3672543, 0.0, 0.0017209688, 0.010012833, 0.010012833, 0.0, 0.012207031, 0.012141742 
6.1035156e-3, 4.2335618e+1, -0.0000060349353, -5364.654, -2.49444, 0.0, 0.0013107492, 0.0011538218, 0.0011538218, 0.0, 0.012207031, 0.012142067 
6.1035156e-3, 4.234776e+1, -0.000052884065, -5359.176, 7.3040285, 0.0, 0.0013157486, 0.009901768, 0.009901768, 0.0, 0.012207031, 0.012142133 
6.1035156e-3, 4.23599e+1, -0.0000029466446, -5367.829, 1.7820541, 0.0, 0.001412394, 0.00058867363, 0.00058867363, 0.0, 0.012207031, 0.012142029 
6.1035156e-3, 4.2372045e+1, -0.00000043232785, -5353.506, 0.29199156, 0.0, 0.001690911, 0.000015493511, 0.000015493511, 0.0, 0.012207031, 0.012142201 
6.1035156e-3, 4.2384186e+1, -0.0000059699178, -5332.4575, -2.4528642, 0.0, 0.0015083742, 0.0011223168, 0.0011223168, 0.0, 0.012207031, 0.012142453 
6.1035156e-3, 4.2396328e+1, -0.0000012771269, -5332.5117, -1.4118958, 0.0, 0.0009971848, 0.00037255225, 0.00037255225, 0.0, 0.012207031, 0.012142453 
6.1035156e-3, 4.240847e+1, -0.00000080009994, -5322.744, 0.5782455, 0.0, 0.001597057, 0.0000620186, 0.0000620186, 0.0, 0.012207031, 0.012142571 
6.1035156e-3, 4.2420614e+1, -0.0000017926158, -5311.6084, 1.6837609, 0.0, 0.0016838696, 0.0005319535, 0.0005319535, 0.0, 0.012207031, 0.012142704 
6.1035156e-3, 4.2432758e+1, -0.00000070829833, -5294.983, -0.51851654, 0.0, 0.0013777757, 0.00005006796, 0.00005006796, 0.0, 0.012207031, 0.012142904 
6.1035156e-3, 4.24449e+1, -0.000027493455, -5295.2466, -5.262017, 0.0, 0.0012557135, 0.005201497, 0.005201497, 0.0, 0.012207031, 0.0121429 
6.1035156e-3, 4.2457044e+1, -0.0001273616, -5280.1206, -11.33556, 0.0, 0.0013192382, 0.024208128, 0.024208128, 0.0, 0.012207031, 0.012143082 
6.1035156e-3, 4.2469186e+1, -0.000001141298, -5272.284, 1.2076766, 0.0, 0.0019075751, 0.00027549075, 0.00027549075, 0.0, 0.012207031, 0.012143177 
6.1035156e-3, 4.248133e+1, -0.0000015780087, -5258.883, -0.47892928, 0.0, 0.0014003455, 0.00004203834, 0.00004203834, 0.0, 0.012207031, 0.012143337 
6.1035156e-3, 4.2493474e+1, -0.0000014549171, -5257.8887, -1.5881671, 0.0, 0.00096585887, 0.0004782575, 0.0004782575, 0.0, 0.012207031, 0.012143349 
6.1035156e-3, 4.2505616e+1, -0.00016455268, -5240.641, -12.883308, 0.0, 0.0018236376, 0.03150689, 0.03150689, 0.0, 0.012207031, 0.012143557 
6.1035156e-3, 4.251776e+1, -0.0000182306, -5235.7437, 4.2924604, 0.0, 0.0012832156, 0.0035008881, 0.0035008881, 0.0, 0.012207031, 0.012143616 
6.1035156e-3, 4.2529905e+1, -0.0000009896478, -5217.693, 0.85105455, 0.0, 0.0014152124, 0.00013782532, 0.00013782532, 0.0, 0.012207031, 0.012143833 
6.1035156e-3, 4.2542046e+1, -0.000035702466, -5216.463, -5.9982743, 0.0, 0.0016306337, 0.0068615475, 0.0068615475, 0.0, 0.012207031, 0.0121438475 
6.1035156e-3, 4.255419e+1, -0.000003205776, -5201.0894, 1.8317745, 0.0, 0.0011652728, 0.0006419279, 0.0006419279, 0.0, 0.012207031, 0.012144032 
6.1035156e-3, 4.2566335e+1, -0.000009611636, -5195.5625, 3.0736983, 0.0, 0.0017423553, 0.0018087897, 0.0018087897, 0.0, 0.012207031, 0.012144099 
6.1035156e-3, 4.257848e+1, -0.0000028751317, -5181.0537, -1.7052572, 0.0, 0.0014244204, 0.0005583817, 0.0005583817, 0.0, 0.012207031, 0.012144273 
6.1035156e-3, 4.259062e+1, -0.000003857795, -5171.1563, -1.8432301, 0.0, 0.0011588194, 0.00065315136, 0.00065315136, 0.0, 0.012207031, 0.012144392 
6.1035156e-3, 4.260277e+1, -0.0000015818746, -5167.6504, 1.2384155, 0.0, 0.0017594562, 0.00029520152, 0.00029520152, 0.0, 0.012207031, 0.012144434 
6.1035156e-3, 4.2614913e+1, -0.0000040103396, -5159.4395, 1.8073103, 0.0, 0.0011781272, 0.0006290759, 0.0006290759, 0.0, 0.012207031, 0.012144533 
6.1035156e-3, 4.2627057e+1, -0.000011628371, -5135.366, -3.4273791, 0.0, 0.0013886621, 0.0022758273, 0.0022758273, 0.0, 0.012207031, 0.012144823 
6.1035156e-3, 4.2639202e+1, -0.0000010542511, -5138.7266, 0.48776284, 0.0, 0.0017864404, 0.000045243713, 0.000045243713, 0.0, 0.012207031, 0.012144782 
6.1035156e-3, 4.265135e+1, -0.0000071908394, -5124.0566, 2.7042878, 0.0, 0.0012429388, 0.0014200319, 0.0014200319, 0.0, 0.012207031, 0.012144959 
6.1035156e-3, 4.266349e+1, -0.0000040027867, -5121.1074, -1.8462307, 0.0, 0.0014059237, 0.0006615891, 0.0006615891, 0.0, 0.012207031, 0.012144994 
6.1035156e-3, 4.2675635e+1, -0.000020464628, -5104.8477, -4.542861, 0.0, 0.0018013045, 0.004022275, 0.004022275, 0.0, 0.012207031, 0.012145189 
6.1035156e-3, 4.2687783e+1, -0.000011747848, -5093.5957, -3.4384668, 0.0, 0.00089722016, 0.002309412, 0.002309412, 0.0, 0.012207031, 0.012145325 
6.1035156e-3, 4.2699927e+1, -0.0000009799601, -5080.35, 1.2599123, 0.0, 0.0013442063, 0.00031147467, 0.00031147467, 0.0, 0.012207031, 0.012145484 
6.1035156e-3, 4.2712075e+1, -0.00002208364, -5077.8647, 4.7214622, 0.0, 0.0021351886, 0.004367987, 0.004367987, 0.0, 0.012207031, 0.012145514 
6.1035156e-3, 4.272422e+1, -0.00000021781744, -5073.0933, 0.7352957, 0.0, 0.0011304803, 0.00010635617, 0.00010635617, 0.0, 0.012207031, 0.0121455705 
6.1035156e-3, 4.2736366e+1, -0.00003417404, -5057.7217, -5.874934, 0.0, 0.0013464501, 0.0067900065, 0.0067900065, 0.0, 0.012207031, 0.012145756 
6.1035156e-3, 4.274851e+1, -0.000093559196, -5039.1484, -9.715276, 0.0, 0.0013446626, 0.018637033, 0.018637033, 0.0, 0.012207031, 0.012145979 
6.1035156e-3, 4.2760655e+1, -0.000114973904, -5024.76, 10.763722, 0.0, 0.0016512346, 0.022942286, 0.022942286, 0.0, 0.012207031, 0.012146152 
6.1035156e-3, 4.2772806e+1, -0.0000460539, -5011.8335, -6.8113914, 0.0, 0.0020001046, 0.009211031, 0.009211031, 0.0, 0.012207031, 0.012146307 
6.1035156e-3, 4.278495e+1, -0.0020813576, -5036.846, -45.8121, 0.0, 0.0003461343, 0.41456342, 0.41456342, 0.0, 0.012207031, 0.012146006 
6.1035156e-3, 4.2797098e+1, -0.00049053493, -5013.598, -22.238993, 0.0, 0.0014527475, 0.098153815, 0.098153815, 0.0, 0.012207031, 0.012146287 
6.1035156e-3, 4.2809242e+1, -0.0000860817, -4999.0786, 9.3139, 0.0, 0.0023756225, 0.017266804, 0.017266804, 0.0, 0.012207031, 0.012146461 
6.1035156e-3, 4.282139e+1, -0.00000045808602, -4986.408, -0.42879802, 0.0, 0.00128136, 0.000036415695, 0.000036415695, 0.0, 0.012207031, 0.012146614 
6.1035156e-3, 4.2833534e+1, -0.00079327903, -4981.279, -28.281979, 0.0, 0.0009765323, 0.15977685, 0.15977685, 0.0, 0.012207031, 0.012146675 
6.1035156e-3, 4.284568e+1, -0.000019013753, -4976.8438, -4.379303, 0.0, 0.00096865644, 0.0038344893, 0.0038344893, 0.0, 0.012207031, 0.012146728 
6.1035156e-3, 4.2857826e+1, -0.000011533819, -4963.4063, 3.4154124, 0.0, 0.0025931613, 0.002338674, 0.002338674, 0.0, 0.012207031, 0.01214689 
6.1035156e-3, 4.2869976e+1, -0.000012704771, -4969.6816, -3.5899396, 0.0, 0.0016172823, 0.002580552, 0.002580552, 0.0, 0.012207031, 0.012146815 
6.1035156e-3, 4.288212e+1, -0.0030686453, -4939.4976, -55.623135, 0.0, 0.00018091075, 0.6232183, 0.6232183, 0.0, 0.012207031, 0.012147178 
6.1035156e-3, 4.2894268e+1, -0.002551207, -4913.416, -50.715267, 0.0, 0.0019030264, 0.5208658, 0.5208658, 0.0, 0.012207031, 0.012147491 
6.1035156e-3, 4.2906418e+1, -0.000012779252, -4920.774, 3.580478, 0.0, 0.0018319564, 0.0025924642, 0.0025924642, 0.0, 0.012207031, 0.012147402 
6.1035156e-3, 4.2918563e+1, -0.000052883373, -4899.9287, -7.2962832, 0.0, 0.00093987206, 0.010811689, 0.010811689, 0.0, 0.012207031, 0.012147654 
6.1035156e-3, 4.293071e+1, -0.000099742014, -4895.6333, 10.026568, 0.0, 0.0018534516, 0.020435221, 0.020435221, 0.0, 0.012207031, 0.012147705 
6.1035156e-3, 4.294286e+1, -0.000006061097, -4892.653, 2.5082304, 0.0, 0.0016862951, 0.001279789, 0.001279789, 0.0, 0.012207031, 0.012147741 
6.1035156e-3, 4.2955005e+1, -0.00008369141, -4881.559, -9.188644, 0.0, 0.00078560144, 0.017212195, 0.017212195, 0.0, 0.012207031, 0.012147875 
6.1035156e-3, 4.2967156e+1, -0.0000008826988, -4864.589, -0.8140352, 0.0, 0.0014835809, 0.00013533709, 0.00013533709, 0.0, 0.012207031, 0.0121480785 
6.1035156e-3, 4.29793e+1, -0.00006867261, -4858.459, 8.321531, 0.0, 0.0019503288, 0.014184342, 0.014184342, 0.0, 0.012207031, 0.012148152 
6.1035156e-3, 4.299145e+1, -0.000035130364, -4861.4604, 5.955188, 0.0, 0.0010863246, 0.00725984, 0.00725984, 0.0, 0.012207031, 0.012148117 
6.1035156e-3, 4.30036e+1, -0.000050310424, -4850.6514, -7.119403, 0.0, 0.001577622, 0.0103989635, 0.0103989635, 0.0, 0.012207031, 0.012148246 
6.1035156e-3, 4.3015748e+1, -0.0000010301385, -4843.497, -0.9126639, 0.0, 0.0016370484, 0.00017094381, 0.00017094381, 0.0, 0.012207031, 0.012148333 
6.1035156e-3, 4.3027896e+1, -0.0026531015, -4819.541, -51.714264, 0.0, 0.0011138035, 0.55218375, 0.55218375, 0.0, 0.012207031, 0.012148621 
6.1035156e-3, 4.3040046e+1, -0.0022854914, -4804.107, -47.99748, 0.0, 0.0013108456, 0.47720617, 0.47720617, 0.0, 0.012207031, 0.012148807 
6.1035156e-3, 4.3052194e+1, -0.000070270435, -4806.478, 8.412531, 0.0, 0.0018663813, 0.014653705, 0.014653705, 0.0, 0.012207031, 0.012148778 
6.1035156e-3, 4.3064344e+1, -0.00014567006, -4789.514, -12.116407, 0.0, 0.0015315368, 0.030505957, 0.030505957, 0.0, 0.012207031, 0.012148982 
6.1035156e-3, 4.307649e+1, -0.0000060312673, -4783.096, 2.4028606, 0.0, 0.0009948771, 0.0012010818, 0.0012010818, 0.0, 0.012207031, 0.012149059 
6.1035156e-3, 4.3088642e+1, -0.0020921812, -4762.2188, -45.920708, 0.0, 0.0016414351, 0.440667, 0.440667, 0.0, 0.012207031, 0.012149311 
6.1035156e-3, 4.3100792e+1, -0.00008930774, -4764.576, 9.490803, 0.0, 0.0015577051, 0.018815832, 0.018815832, 0.0, 0.012207031, 0.012149282 
6.1035156e-3, 4.3112943e+1, -0.00009072249, -4759.7964, -9.563988, 0.0, 0.0010612792, 0.019126378, 0.019126378, 0.0, 0.012207031, 0.01214934 
6.1035156e-3, 4.3125087e+1, -0.0000010441349, -4738.522, 1.0212742, 0.0, 0.0018691358, 0.00021906687, 0.00021906687, 0.0, 0.012207031, 0.012149596 
6.1035156e-3, 4.3137237e+1, -0.000054533844, -4724.635, 7.409971, 0.0, 0.0017027498, 0.011567007, 0.011567007, 0.0, 0.012207031, 0.012149762 
6.1035156e-3, 4.3149388e+1, -0.0000106083, -4732.5894, -3.2773478, 0.0, 0.00085444684, 0.0022589746, 0.0022589746, 0.0, 0.012207031, 0.012149667 
6.1035156e-3, 4.3161538e+1, -0.000021275431, -4715.8047, -4.63852, 0.0, 0.0012668121, 0.004541222, 0.004541222, 0.0, 0.012207031, 0.012149869 
6.1035156e-3, 4.3173686e+1, -0.000013917459, -4706.114, 3.744362, 0.0, 0.0021041122, 0.0029652368, 0.0029652368, 0.0, 0.012207031, 0.012149986 
6.1035156e-3, 4.3185836e+1, -0.0000030858128, -4687.1006, 1.785835, 0.0, 0.0013524927, 0.0006773362, 0.0006773362, 0.0, 0.012207031, 0.012150215 
6.1035156e-3, 4.3197986e+1, -0.0000015939497, -4690.67, -1.4285276, 0.0, 0.0010902517, 0.00043345924, 0.00043345924, 0.0, 0.012207031, 0.012150171 
6.1035156e-3, 4.321014e+1, -0.000004293266, -4675.758, -2.0276244, 0.0, 0.0017900522, 0.0008749781, 0.0008749781, 0.0, 0.012207031, 0.012150351 
6.1035156e-3, 4.322229e+1, -0.000004174533, -4675.013, -2.067877, 0.0, 0.0012539536, 0.00091049983, 0.00091049983, 0.0, 0.012207031, 0.01215036 
6.1035156e-3, 4.323444e+1, -0.00025860404, -4643.4243, -16.143509, 0.0, 0.0012218372, 0.055865873, 0.055865873, 0.0, 0.012207031, 0.01215074 
6.1035156e-3, 4.324659e+1, -0.0000029313323, -4652.08, 1.6980908, 0.0, 0.001879307, 0.0006169015, 0.0006169015, 0.0, 0.012207031, 0.012150636 
6.1035156e-3, 4.325874e+1, -0.000020642265, -4634.964, -4.5618615, 0.0, 0.0013938273, 0.0044692657, 0.0044692657, 0.0, 0.012207031, 0.012150843 
6.1035156e-3, 4.3270892e+1, -0.0000012042859, -4630.1426, 0.2745184, 0.0, 0.0012193253, 0.000015071748, 0.000015071748, 0.0, 0.012207031, 0.0121509 
6.1035156e-3, 4.3283042e+1, -0.000045085995, -4609.645, -6.738583, 0.0, 0.0016449371, 0.009805652, 0.009805652, 0.0, 0.012207031, 0.012151147 
6.1035156e-3, 4.3295193e+1, -0.00000037933694, -4610.161, 0.20008238, 0.0, 0.0013740513, 0.000008304298, 0.000008304298, 0.0, 0.012207031, 0.012151141 
6.1035156e-3, 4.3307346e+1, -0.000007724477, -4597.7534, -2.8086653, 0.0, 0.0012084382, 0.001708026, 0.001708026, 0.0, 0.012207031, 0.012151291 
6.1035156e-3, 4.3319497e+1, -0.000001492357, -4592.6836, 1.3757344, 0.0, 0.0017635688, 0.00041060772, 0.00041060772, 0.0, 0.012207031, 0.012151351 
6.1035156e-3, 4.333165e+1, -0.000004296463, -4567.5205, 2.0692892, 0.0, 0.0016096549, 0.00093318307, 0.00093318307, 0.0, 0.012207031, 0.012151654 
6.1035156e-3, 4.33438e+1, -0.0000029354305, -4574.4043, -1.681982, 0.0, 0.0010467523, 0.0006155196, 0.0006155196, 0.0, 0.012207031, 0.012151571 
6.1035156e-3, 4.3355954e+1, -0.00000037633475, -4555.473, -0.12502848, 0.0, 0.0014909414, 0.0000030551682, 0.0000030551682, 0.0, 0.012207031, 0.012151799 
6.1035156e-3, 4.3368104e+1, -0.0000009575637, -4550.6396, -0.5337644, 0.0, 0.0016498937, 0.000061650004, 0.000061650004, 0.0, 0.012207031, 0.012151858 
6.1035156e-3, 4.3380257e+1, -0.000002619359, -4534.442, 0.53886306, 0.0, 0.0012961288, 0.00006141793, 0.00006141793, 0.0, 0.012207031, 0.0121520525 
6.1035156e-3, 4.3392408e+1, -0.0000046112696, -4535.186, 2.2305322, 0.0, 0.0015065067, 0.0010924271, 0.0010924271, 0.0, 0.012207031, 0.012152044 
6.1035156e-3, 4.340456e+1, -0.000007422406, -4516.6807, -2.733706, 0.0, 0.0015261899, 0.0016471435, 0.0016471435, 0.0, 0.012207031, 0.012152267 
6.1035156e-3, 4.3416715e+1, -0.0000007896953, -4509.05, 0.30951396, 0.0, 0.0013351506, 0.000020456218, 0.000020456218, 0.0, 0.012207031, 0.012152359 
6.1035156e-3, 4.3428862e+1, -0.0000035001397, -4499.932, 1.6277152, 0.0, 0.0013472096, 0.00058527687, 0.00058527687, 0.0, 0.012207031, 0.012152468 
6.1035156e-3, 4.3441018e+1, -0.000010159078, -4488.3193, -3.2022245, 0.0, 0.0015643523, 0.0022744902, 0.0022744902, 0.0, 0.012207031, 0.0121526085 
6.1035156e-3, 4.3453172e+1, -0.000031822874, -4477.8384, -5.6645412, 0.0, 0.0017025276, 0.0071339067, 0.0071339067, 0.0, 0.012207031, 0.012152734 
6.1035156e-3, 4.346532e+1, -0.00004453862, -4481.1973, 6.702614, 0.0, 0.0011133478, 0.009980669, 0.009980669, 0.0, 0.012207031, 0.012152694 
6.1035156e-3, 4.3477476e+1, -0.000021839001, -4455.547, -4.694839, 0.0, 0.0012577748, 0.004925139, 0.004925139, 0.0, 0.012207031, 0.012153002 
6.1035156e-3, 4.348963e+1, -0.000019110745, -4442.201, -4.3786054, 0.0, 0.0017881365, 0.004296805, 0.004296805, 0.0, 0.012207031, 0.012153164 
6.1035156e-3, 4.3501782e+1, -0.000027819382, -4446.895, -5.3050046, 0.0, 0.0016523948, 0.0063008736, 0.0063008736, 0.0, 0.012207031, 0.012153107 
6.1035156e-3, 4.3513936e+1, -0.000014564761, -4435.0225, 3.8113406, 0.0, 0.0011749457, 0.0032607978, 0.0032607978, 0.0, 0.012207031, 0.01215325 
6.1035156e-3, 4.352609e+1, -0.000006940283, -4423.4746, -2.6504276, 0.0, 0.00085751683, 0.0015811246, 0.0015811246, 0.0, 0.012207031, 0.012153389 
6.1035156e-3, 4.3538243e+1, -0.000018760098, -4401.8735, -4.3429146, 0.0, 0.0020241768, 0.004265981, 0.004265981, 0.0, 0.012207031, 0.01215365 
6.1035156e-3, 4.3550396e+1, -0.0000007316515, -4403.816, 1.0941719, 0.0, 0.002420311, 0.00027112622, 0.00027112622, 0.0, 0.012207031, 0.012153626 
6.1035156e-3, 4.356255e+1, -0.0000134628835, -4389.288, 3.676517, 0.0, 0.00023978754, 0.003066027, 0.003066027, 0.0, 0.012207031, 0.0121538015 
6.1035156e-3, 4.3574703e+1, -0.0000007254328, -4386.2446, 1.0467557, 0.0, 0.0005675712, 0.00024907768, 0.00024907768, 0.0, 0.012207031, 0.012153838 
6.1035156e-3, 4.3586856e+1, -0.00000085068245, -4375.889, 1.0412807, 0.0, 0.0029203491, 0.00024693107, 0.00024693107, 0.0, 0.012207031, 0.012153963 
6.1035156e-3, 4.359901e+1, -0.00001277017, -4369.189, -3.578619, 0.0, 0.0018900502, 0.0029183242, 0.0029183242, 0.0, 0.012207031, 0.012154044 
6.1035156e-3, 4.3611163e+1, -0.0000043781965, -4346.833, 2.0364842, 0.0, 0.00032961357, 0.00094971125, 0.00094971125, 0.0, 0.012207031, 0.012154313 
6.1035156e-3, 4.3623316e+1, -0.0014184348, -4346.933, -37.79752, 0.0, 0.0011325704, 0.32721442, 0.32721442, 0.0, 0.012207031, 0.012154312 
6.1035156e-3, 4.3635473e+1, -0.00016608751, -4329.552, 12.933326, 0.0, 0.0021789821, 0.038468264, 0.038468264, 0.0, 0.012207031, 0.0121545205 
6.1035156e-3, 4.364763e+1, -0.000044091223, -4330.296, -6.6660423, 0.0, 0.0019029183, 0.010217567, 0.010217567, 0.0, 0.012207031, 0.012154512 
6.1035156e-3, 4.3659782e+1, -0.000012264458, -4313.604, 3.5045006, 0.0, 0.0006658056, 0.0028348945, 0.0028348945, 0.0, 0.012207031, 0.012154713 
6.1035156e-3, 4.3671936e+1, -0.0013140847, -4303.0938, -36.379955, 0.0, 0.001181348, 0.30623367, 0.30623367, 0.0, 0.012207031, 0.01215484 
6.1035156e-3, 4.3684092e+1, -0.000053835072, -4285.9917, 7.363964, 0.0, 0.0020754023, 0.012598501, 0.012598501, 0.0, 0.012207031, 0.012155046 
6.1035156e-3, 4.369625e+1, -0.0000014171084, -4288.634, -1.3696717, 0.0, 0.0014539473, 0.00043601837, 0.00043601837, 0.0, 0.012207031, 0.012155014 
6.1035156e-3, 4.3708402e+1, -0.0000003040213, -4267.507, 0.9636625, 0.0, 0.0011560224, 0.00021730436, 0.00021730436, 0.0, 0.012207031, 0.012155268 
6.1035156e-3, 4.3720558e+1, -0.00000032525563, -4275.2295, -0.172732, 0.0, 0.0014704462, 0.000006653632, 0.000006653632, 0.0, 0.012207031, 0.012155175 
6.1035156e-3, 4.3732712e+1, -0.000010838974, -4247.444, -3.3034742, 0.0, 0.0015610581, 0.0025584558, 0.0025584558, 0.0, 0.012207031, 0.0121555105 
6.1035156e-3, 4.3744868e+1, -0.0000007138482, -4245.3306, -1.100087, 0.0, 0.0013582908, 0.00028435024, 0.00028435024, 0.0, 0.012207031, 0.012155536 
6.1035156e-3, 4.375702e+1, -0.000028447854, -4230.0757, 5.3516383, 0.0, 0.0014922139, 0.0067421133, 0.0067421133, 0.0, 0.012207031, 0.01215572 
6.1035156e-3, 4.376918e+1, -0.00001686289, -4237.034, 4.1139264, 0.0, 0.001435867, 0.0039775283, 0.0039775283, 0.0, 0.012207031, 0.012155636 
6.1035156e-3, 4.3781334e+1, -0.000005693012, -4217.8784, -2.386281, 0.0, 0.0013576209, 0.0013443542, 0.0013443542, 0.0, 0.012207031, 0.012155867 
6.1035156e-3, 4.379349e+1, -0.000014438559, -4218.575, -3.812173, 0.0, 0.0016917104, 0.0034304806, 0.0034304806, 0.0, 0.012207031, 0.012155859 
6.1035156e-3, 4.380565e+1, -0.0022872055, -4193.3335, -47.99106, 0.0, 0.0012835709, 0.54688007, 0.54688007, 0.0, 0.012207031, 0.012156162 
6.1035156e-3, 4.3817803e+1, -0.0023677472, -4185.0366, -48.82896, 0.0, 0.0012050914, 0.5672674, 0.5672674, 0.0, 0.012207031, 0.012156263 
6.1035156e-3, 4.382996e+1, -0.0001039059, -4176.8013, 10.227686, 0.0, 0.0017495891, 0.024940364, 0.024940364, 0.0, 0.012207031, 0.012156362 
6.1035156e-3, 4.3842116e+1, -0.0001563945, -4178.067, -12.550188, 0.0, 0.0014790584, 0.037541855, 0.037541855, 0.0, 0.012207031, 0.012156347 
6.1035156e-3, 4.3854272e+1, -0.0019351139, -4142.157, -44.141308, 0.0, 0.0013255995, 0.46840793, 0.46840793, 0.0, 0.012207031, 0.01215678 
6.1035156e-3, 4.386643e+1, -0.0024399562, -4149.65, -49.56544, 0.0, 0.0013389944, 0.5895097, 0.5895097, 0.0, 0.012207031, 0.01215669 
6.1035156e-3, 4.3878585e+1, -0.00007044739, -4136.265, 8.421738, 0.0, 0.0014862623, 0.017076755, 0.017076755, 0.0, 0.012207031, 0.012156851 
6.1035156e-3, 4.3890744e+1, -0.000060210492, -4129.1313, -7.7851634, 0.0, 0.0017982409, 0.014618072, 0.014618072, 0.0, 0.012207031, 0.012156936 
6.1035156e-3, 4.39029e+1, -0.0000035865514, -4108.539, 1.8417131, 0.0, 0.0010926457, 0.00082198833, 0.00082198833, 0.0, 0.012207031, 0.012157185 
6.1035156e-3, 4.3915057e+1, -0.00002128527, -4113.054, 4.6250186, 0.0, 0.0013414219, 0.005179417, 0.005179417, 0.0, 0.012207031, 0.012157131 
6.1035156e-3, 4.3927217e+1, -0.000009976498, -4099.338, -3.1671247, 0.0, 0.0017024059, 0.002436924, 0.002436924, 0.0, 0.012207031, 0.012157296 
6.1035156e-3, 4.3939373e+1, -0.0000032665725, -4088.4004, -1.829708, 0.0, 0.0013616047, 0.0008155942, 0.0008155942, 0.0, 0.012207031, 0.012157428 
6.1035156e-3, 4.395153e+1, -0.000010604535, -4074.666, 3.2612503, 0.0, 0.0015309796, 0.0025996084, 0.0025996084, 0.0, 0.012207031, 0.012157594 
6.1035156e-3, 4.396369e+1, -0.00002612962, -4080.3508, 5.124733, 0.0, 0.0011702529, 0.0064102886, 0.0064102886, 0.0, 0.012207031, 0.012157525 
6.1035156e-3, 4.3975845e+1, -0.000008578966, -4059.8936, -2.917025, 0.0, 0.0015641856, 0.0020872965, 0.0020872965, 0.0, 0.012207031, 0.012157772 
6.1035156e-3, 4.3988e+1, -0.000022888022, -4061.6362, -4.800926, 0.0, 0.0018243509, 0.0056518847, 0.0056518847, 0.0, 0.012207031, 0.01215775 
6.1035156e-3, 4.400016e+1, -0.0023460684, -4039.7266, -48.59886, 0.0, 0.0009988926, 0.5822254, 0.5822254, 0.0, 0.012207031, 0.012158015 
6.1035156e-3, 4.4012317e+1, -0.002184601, -4025.004, -46.89559, 0.0, 0.0015325076, 0.5441252, 0.5441252, 0.0, 0.012207031, 0.012158193 
6.1035156e-3, 4.4024476e+1, -0.000045218272, -4021.3354, 6.7445717, 0.0, 0.0015770509, 0.011266724, 0.011266724, 0.0, 0.012207031, 0.0121582365 
6.1035156e-3, 4.4036636e+1, -0.000119335906, -4015.1128, -10.959484, 0.0, 0.0012307105, 0.029794993, 0.029794993, 0.0, 0.012207031, 0.012158312 
6.1035156e-3, 4.4048795e+1, -0.00005755518, -3998.3528, -7.6152644, 0.0, 0.0016623124, 0.014446428, 0.014446428, 0.0, 0.012207031, 0.012158514 
6.1035156e-3, 4.406095e+1, -0.002729563, -3986.1526, -52.41739, 0.0, 0.0013032102, 0.6864336, 0.6864336, 0.0, 0.012207031, 0.012158661 
6.1035156e-3, 4.4073108e+1, -0.00007926266, -3977.1248, 8.929761, 0.0, 0.0013223764, 0.019970456, 0.019970456, 0.0, 0.012207031, 0.01215877 
6.1035156e-3, 4.408527e+1, -0.00005261121, -3977.914, -7.2770433, 0.0, 0.0019990648, 0.013259688, 0.013259688, 0.0, 0.012207031, 0.012158761 
6.1035156e-3, 4.4097427e+1, -0.0000063596217, -3956.6555, 2.503567, 0.0, 0.0011786954, 0.0015777675, 0.0015777675, 0.0, 0.012207031, 0.012159017 
6.1035156e-3, 4.410959e+1, -0.0000010423446, -3954.4402, 0.25219977, 0.0, 0.00080962124, 0.0000150420365, 0.0000150420365, 0.0, 0.012207031, 0.012159044 
6.1035156e-3, 4.4121745e+1, -0.000008810463, -3942.4634, -2.9813702, 0.0, 0.0018614199, 0.0022457605, 0.0022457605, 0.0, 0.012207031, 0.012159188 
6.1035156e-3, 4.4133908e+1, -0.000010990577, -3927.5635, 3.3245316, 0.0, 0.0021957052, 0.0028030958, 0.0028030958, 0.0, 0.012207031, 0.012159368 
6.1035156e-3, 4.4146064e+1, -0.00000034769062, -3923.5964, 1.0529746, 0.0, 0.0009745166, 0.00028223882, 0.00028223882, 0.0, 0.012207031, 0.0121594155 
6.1035156e-3, 4.4158226e+1, -0.00000351564, -3919.7798, 1.8623033, 0.0, 0.0004765836, 0.000881272, 0.000881272, 0.0, 0.012207031, 0.012159462 
6.1035156e-3, 4.4170383e+1, -0.00000037979257, -3910.2295, -0.18291147, 0.0, 0.0021430233, 0.000008176381, 0.000008176381, 0.0, 0.012207031, 0.012159577 
6.1035156e-3, 4.4182545e+1, -0.0000058543164, -3898.4458, -2.4431145, 0.0, 0.0023773497, 0.001525219, 0.001525219, 0.0, 0.012207031, 0.012159719 
6.1035156e-3, 4.41947e+1, -0.0025828094, -3877.821, -50.985516, 0.0, 0.0006294173, 0.6676584, 0.6676584, 0.0, 0.012207031, 0.012159968 
6.1035156e-3, 4.4206864e+1, -0.0021368875, -3876.5796, -46.375923, 0.0, 0.000815588, 0.552584, 0.552584, 0.0, 0.012207031, 0.012159983 
6.1035156e-3, 4.4219026e+1, -0.000035505556, -3869.4587, 5.980191, 0.0, 0.0020767583, 0.009206769, 0.009206769, 0.0, 0.012207031, 0.012160069 
6.1035156e-3, 4.4231185e+1, -0.000042613934, -3859.0881, -6.5513825, 0.0, 0.0019044302, 0.01107931, 0.01107931, 0.0, 0.012207031, 0.012160194 
6.1035156e-3, 4.4243345e+1, -0.0024579386, -3843.6482, -49.73599, 0.0, 0.0009989766, 0.6410078, 0.6410078, 0.0, 0.012207031, 0.01216038 
6.1035156e-3, 4.4255504e+1, -0.0024164012, -3826.889, -49.31287, 0.0, 0.001093867, 0.6329188, 0.6329188, 0.0, 0.012207031, 0.0121605825 
6.1035156e-3, 4.4267666e+1, -0.000036052264, -3815.4482, 6.0203977, 0.0, 0.0018486348, 0.009463512, 0.009463512, 0.0, 0.012207031, 0.01216072 
6.1035156e-3, 4.4279826e+1, -0.00007954248, -3817.8557, -8.947518, 0.0, 0.0015362606, 0.020889727, 0.020889727, 0.0, 0.012207031, 0.012160691 
6.1035156e-3, 4.4291988e+1, -0.00007860008, -3807.4163, 8.893043, 0.0, 0.0011660968, 0.02069291, 0.02069291, 0.0, 0.012207031, 0.012160818 
6.1035156e-3, 4.4304144e+1, -0.0000009733428, -3798.596, 1.0920385, 0.0, 0.0017124752, 0.00031297104, 0.00031297104, 0.0, 0.012207031, 0.012160924 
6.1035156e-3, 4.4316307e+1, -0.000064792664, -3778.681, -8.078412, 0.0, 0.0014372375, 0.017205903, 0.017205903, 0.0, 0.012207031, 0.012161165 
6.1035156e-3, 4.432847e+1, -0.0000021856433, -3772.7705, 1.453345, 0.0, 0.0010541804, 0.0005576712, 0.0005576712, 0.0, 0.012207031, 0.012161236 
6.1035156e-3, 4.4340628e+1, -0.000023879345, -3767.9094, 4.896935, 0.0, 0.0016333926, 0.0063403742, 0.0063403742, 0.0, 0.012207031, 0.012161295 
6.1035156e-3, 4.435279e+1, -0.00006940514, -3768.3057, 8.357335, 0.0, 0.0018629202, 0.01846537, 0.01846537, 0.0, 0.012207031, 0.012161289 
6.1035156e-3, 4.4364953e+1, -0.000033978853, -3757.343, -5.8430743, 0.0, 0.0012647951, 0.009052611, 0.009052611, 0.0, 0.012207031, 0.012161422 
6.1035156e-3, 4.4377118e+1, -0.000018762632, -3745.935, -4.3405294, 0.0, 0.0008880389, 0.0050107352, 0.0050107352, 0.0, 0.012207031, 0.012161559 
6.1035156e-3, 4.4389278e+1, -0.0032421283, -3719.046, -57.11633, 0.0, 0.0018005298, 0.8737325, 0.8737325, 0.0, 0.012207031, 0.012161884 
6.1035156e-3, 4.440144e+1, -0.002128807, -3721.9775, -46.282116, 0.0, 0.0018829957, 0.5732923, 0.5732923, 0.0, 0.012207031, 0.012161849 
6.1035156e-3, 4.4413602e+1, -0.00000875179, -3710.1494, 2.963098, 0.0, 0.0012105972, 0.0023577146, 0.0023577146, 0.0, 0.012207031, 0.012161992 
6.1035156e-3, 4.4425762e+1, -0.00016035845, -3702.9573, -12.698326, 0.0, 0.0009121193, 0.04338473, 0.04338473, 0.0, 0.012207031, 0.012162078 
6.1035156e-3, 4.4437924e+1, -0.0020934206, -3679.0386, -45.89394, 0.0, 0.0015901572, 0.57031894, 0.57031894, 0.0, 0.012207031, 0.012162368 
6.1035156e-3, 4.445009e+1, -0.0024388433, -3672.6992, -49.535145, 0.0, 0.0023558703, 0.66554016, 0.66554016, 0.0, 0.012207031, 0.012162444 
6.1035156e-3, 4.446225e+1, -0.000013748401, -3663.8037, 3.7162576, 0.0, 0.0010224965, 0.0037557099, 0.0037557099, 0.0, 0.012207031, 0.012162551 
6.1035156e-3, 4.447441e+1, -0.000050780618, -3658.1497, -7.146734, 0.0, 0.00054956326, 0.013911365, 0.013911365, 0.0, 0.012207031, 0.012162619 
6.1035156e-3, 4.4486576e+1, -0.000043867425, -3643.6768, 6.6437716, 0.0, 0.0021621569, 0.012070148, 0.012070148, 0.0, 0.012207031, 0.012162794 
6.1035156e-3, 4.449874e+1, -0.0000024676235, -3646.0784, 1.4251549, 0.0, 0.0017496858, 0.0005545874, 0.0005545874, 0.0, 0.012207031, 0.0121627655 
6.1035156e-3, 4.45109e+1, -0.000020943862, -3624.9124, -4.592158, 0.0, 0.0009254087, 0.0057965433, 0.0057965433, 0.0, 0.012207031, 0.012163021 
6.1035156e-3, 4.4523063e+1, -0.00000055412227, -3619.5586, -0.5025985, 0.0, 0.0017467974, 0.00006923484, 0.00006923484, 0.0, 0.012207031, 0.012163086 
6.1035156e-3, 4.453523e+1, -0.000023114966, -3601.2834, 4.8211164, 0.0, 0.0016690525, 0.0064310078, 0.0064310078, 0.0, 0.012207031, 0.012163307 
6.1035156e-3, 4.454739e+1, -0.00000932911, -3615.7861, 3.0777454, 0.0, 0.0005865184, 0.002610436, 0.002610436, 0.0, 0.012207031, 0.0121631315 
6.1035156e-3, 4.4559556e+1, -0.000019653737, -3599.6816, -4.452884, 0.0, 0.0016738051, 0.0054886523, 0.0054886523, 0.0, 0.012207031, 0.012163325 
6.1035156e-3, 4.4571716e+1, -0.0000024491726, -3583.0247, 1.5936779, 0.0, 0.0024605608, 0.0007063957, 0.0007063957, 0.0, 0.012207031, 0.012163526 
6.1035156e-3, 4.458388e+1, -0.0024953438, -3565.5808, -50.100533, 0.0, 0.0010396225, 0.70133656, 0.70133656, 0.0, 0.012207031, 0.012163738 
6.1035156e-3, 4.4596043e+1, -0.0027292646, -3564.6174, -52.397327, 0.0, 0.00037701568, 0.7673082, 0.7673082, 0.0, 0.012207031, 0.012163749 
6.1035156e-3, 4.460821e+1, -0.000043113083, -3560.8079, 6.585342, 0.0, 0.0019474061, 0.012135748, 0.012135748, 0.0, 0.012207031, 0.0121637955 
6.1035156e-3, 4.4620374e+1, -0.00003014368, -3539.9617, -5.504203, 0.0, 0.0024772629, 0.008528191, 0.008528191, 0.0, 0.012207031, 0.012164047 
6.1035156e-3, 4.463254e+1, -0.0022715717, -3524.6628, -47.801506, 0.0, 0.00073491456, 0.64589405, 0.64589405, 0.0, 0.012207031, 0.012164231 
6.1035156e-3, 4.4644699e+1, -0.0024916464, -3522.671, -50.062374, 0.0, 0.0009734939, 0.7088257, 0.7088257, 0.0, 0.012207031, 0.012164256 
6.1035156e-3, 4.4656864e+1, -0.000007805023, -3510.336, 2.7723885, 0.0, 0.002174561, 0.0021817668, 0.0021817668, 0.0, 0.012207031, 0.012164405 
6.1035156e-3, 4.466903e+1, -0.000023949739, -3495.3333, -4.913241, 0.0, 0.0009279537, 0.0068823704, 0.0068823704, 0.0, 0.012207031, 0.012164586 
6.1035156e-3, 4.4681194e+1, -0.000025023774, -3494.279, 5.015655, 0.0, 0.0012708731, 0.0071743857, 0.0071743857, 0.0, 0.012207031, 0.012164598 
6.1035156e-3, 4.469336e+1, -0.000005070131, -3482.7263, 2.2726758, 0.0, 0.00248083, 0.0014779788, 0.0014779788, 0.0, 0.012207031, 0.012164738 
6.1035156e-3, 4.4705525e+1, -0.0000066654084, -3472.2815, -2.590115, 0.0, 0.0010476811, 0.001925405, 0.001925405, 0.0, 0.012207031, 0.012164865 
6.1035156e-3, 4.471769e+1, -0.0000016762325, -3460.8865, -1.320515, 0.0, 0.00060429936, 0.00050217146, 0.00050217146, 0.0, 0.012207031, 0.0121650025 
6.1035156e-3, 4.4729856e+1, -0.000010841887, -3464.9912, 3.2727473, 0.0, 0.0018952703, 0.003080325, 0.003080325, 0.0, 0.012207031, 0.012164952 
6.1035156e-3, 4.474202e+1, -0.00000035232804, -3441.801, 0.4655888, 0.0, 0.0020586022, 0.00006263008, 0.00006263008, 0.0, 0.012207031, 0.012165233 
6.1035156e-3, 4.4754183e+1, -0.000025365649, -3431.0164, -5.053975, 0.0, 0.0011240285, 0.0074192532, 0.0074192532, 0.0, 0.012207031, 0.012165363 
6.1035156e-3, 4.476635e+1, -0.000001026508, -3417.7998, 0.41298065, 0.0, 0.00093897653, 0.000048874896, 0.000048874896, 0.0, 0.012207031, 0.012165522 
6.1035156e-3, 4.4778514e+1, -0.0000205341, -3422.2363, 4.545385, 0.0, 0.0017692639, 0.0060165967, 0.0060165967, 0.0, 0.012207031, 0.012165469 
6.1035156e-3, 4.479068e+1, -0.000013285636, -3409.0088, 3.650601, 0.0, 0.0017059181, 0.003896024, 0.003896024, 0.0, 0.012207031, 0.012165629 
6.1035156e-3, 4.4802845e+1, -0.000008961976, -3402.495, -2.9882774, 0.0, 0.0012321221, 0.0026155224, 0.0026155224, 0.0, 0.012207031, 0.012165708 
6.1035156e-3, 4.481501e+1, -0.00000740758, -3386.0613, -2.7043157, 0.0, 0.0013715463, 0.002152423, 0.002152423, 0.0, 0.012207031, 0.012165906 
6.1035156e-3, 4.4827178e+1, -0.0025469786, -3387.538, -50.609173, 0.0, 0.0014207788, 0.75337625, 0.75337625, 0.0, 0.012207031, 0.012165888 
6.1035156e-3, 4.4839343e+1, -0.0023784675, -3353.179, -48.905617, 0.0, 0.001701164, 0.71075153, 0.71075153, 0.0, 0.012207031, 0.012166304 
6.1035156e-3, 4.485151e+1, -0.0000017531909, -3359.029, 1.3419636, 0.0, 0.0013814959, 0.00053437386, 0.00053437386, 0.0, 0.012207031, 0.012166233 
6.1035156e-3, 4.4863677e+1, -0.00007915867, -3330.984, -8.918982, 0.0, 0.0011798408, 0.023801973, 0.023801973, 0.0, 0.012207031, 0.012166572 
6.1035156e-3, 4.4875842e+1, -0.0000007480531, -3339.7705, -0.9647104, 0.0, 0.0015841282, 0.00027791364, 0.00027791364, 0.0, 0.012207031, 0.012166466 
6.1035156e-3, 4.4888008e+1, -0.00000076723603, -3323.5896, 0.5340591, 0.0, 0.0015966853, 0.00008504935, 0.00008504935, 0.0, 0.012207031, 0.012166661 
6.1035156e-3, 4.4900176e+1, -0.00000046214478, -3326.22, -0.7481293, 0.0, 0.0012578695, 0.00016780617, 0.00016780617, 0.0, 0.012207031, 0.01216663 
6.1035156e-3, 4.491234e+1, -0.0000047778426, -3301.2722, -2.1755445, 0.0, 0.0015668095, 0.0014289095, 0.0014289095, 0.0, 0.012207031, 0.012166931 
6.1035156e-3, 4.492451e+1, -0.0000006435759, -3304.1748, 0.18970194, 0.0, 0.0014569827, 0.000010247746, 0.000010247746, 0.0, 0.012207031, 0.012166896 
6.1035156e-3, 4.4936675e+1, -0.00000572277, -3282.184, 2.4065437, 0.0, 0.001291397, 0.001758788, 0.001758788, 0.0, 0.012207031, 0.012167161 
6.1035156e-3, 4.4948846e+1, -0.000005075816, -3284.8381, -2.267885, 0.0, 0.001528991, 0.0015606937, 0.0015606937, 0.0, 0.012207031, 0.01216713 
6.1035156e-3, 4.496101e+1, -0.0000019107413, -3259.082, -1.4147758, 0.0, 0.001502817, 0.000612247, 0.000612247, 0.0, 0.012207031, 0.012167441 
6.1035156e-3, 4.497318e+1, -0.000010666152, -3264.4573, 3.274431, 0.0, 0.0013601185, 0.0032737658, 0.0032737658, 0.0, 0.012207031, 0.012167376 
6.1035156e-3, 4.4985348e+1, -0.0000018486083, -3246.4558, -0.32410043, 0.0, 0.0015112028, 0.000030507013, 0.000030507013, 0.0, 0.012207031, 0.012167593 
6.1035156e-3, 4.4997513e+1, -0.0000025933346, -3244.4263, -1.6321965, 0.0, 0.0014971757, 0.0008185272, 0.0008185272, 0.0, 0.012207031, 0.012167618 
6.1035156e-3, 4.5009682e+1, -0.00000015786456, -3222.3528, -0.032124404, 0.0, 0.0012703864, 0.00000016239119, 0.00000016239119, 0.0, 0.012207031, 0.012167885 
6.1035156e-3, 4.502185e+1, -0.0000009956032, -3226.9958, 0.39586756, 0.0, 0.0013113964, 0.000047566944, 0.000047566944, 0.0, 0.012207031, 0.012167829 
6.1035156e-3, 4.5034015e+1, -0.0000006603085, -3203.9448, 0.56282884, 0.0, 0.0019701973, 0.0000982104, 0.0000982104, 0.0, 0.012207031, 0.012168108 
6.1035156e-3, 4.5046183e+1, 0.00000006570591, -3205.7185, -0.54333967, 0.0, 0.0014465736, 0.000092156755, 0.000092156755, 0.0, 0.012207031, 0.012168086 
6.1035156e-3, 4.5058355e+1, -0.0000010210034, -3182.5354, -1.089653, 0.0, 0.000717344, 0.00037206002, 0.00037206002, 0.0, 0.012207031, 0.012168366 
6.1035156e-3, 4.5070523e+1, -0.000000079271764, -3190.5005, 0.09671064, 0.0, 0.0015058112, 0.0000028522272, 0.0000028522272, 0.0, 0.012207031, 0.01216827 
6.1035156e-3, 4.508269e+1, -0.0000063289185, -3166.4814, 2.511067, 0.0, 0.00236086, 0.0019849832, 0.0019849832, 0.0, 0.012207031, 0.01216856 
6.1035156e-3, 4.509486e+1, -0.00000024746018, -3157.3953, -0.42976463, 0.0, 0.0013858764, 0.00005824938, 0.00005824938, 0.0, 0.012207031, 0.01216867 
6.1035156e-3, 4.5107028e+1, -0.000025962308, -3147.8157, -5.105141, 0.0, 0.00024898807, 0.008253557, 0.008253557, 0.0, 0.012207031, 0.0121687865 
6.1035156e-3, 4.51192e+1, -0.0000074199043, -3152.0952, 2.7333503, 0.0, 0.0016220422, 0.0023628124, 0.0023628124, 0.0, 0.012207031, 0.012168734 
6.1035156e-3, 4.5131367e+1, -0.000036286445, -3131.7, 6.034768, 0.0, 0.0027933589, 0.011592634, 0.011592634, 0.0, 0.012207031, 0.012168981 
6.1035156e-3, 4.5143536e+1, -0.000025856702, -3115.256, -5.10108, 0.0, 0.000991228, 0.008326891, 0.008326891, 0.0, 0.012207031, 0.0121691795 
6.1035156e-3, 4.5155704e+1, -0.000044020282, -3103.7073, -6.650699, 0.0, 0.000434847, 0.014207195, 0.014207195, 0.0, 0.012207031, 0.012169319 
6.1035156e-3, 4.5167872e+1, -0.000028883227, -3116.2834, 5.387968, 0.0, 0.0019508568, 0.009286738, 0.009286738, 0.0, 0.012207031, 0.012169167 
6.1035156e-3, 4.5180044e+1, -0.000056495806, -3092.7805, 7.5366206, 0.0, 0.0019321032, 0.018308958, 0.018308958, 0.0, 0.012207031, 0.012169451 
6.1035156e-3, 4.5192212e+1, -0.00007168092, -3071.2153, -8.4856415, 0.0, 0.0010581875, 0.02337362, 0.02337362, 0.0, 0.012207031, 0.012169712 
6.1035156e-3, 4.520438e+1, -0.0033995116, -3074.6785, -58.453922, 0.0, 0.0014259487, 1.1074909, 1.1074909, 0.0, 0.012207031, 0.01216967 
6.1035156e-3, 4.521655e+1, -0.0000017827828, -3067.624, 1.3132942, 0.0, 0.0017711604, 0.00056045735, 0.00056045735, 0.0, 0.012207031, 0.012169756 
6.1035156e-3, 4.5228723e+1, -0.000019492049, -3053.69, 4.4224186, 0.0, 0.0009195615, 0.0063851355, 0.0063851355, 0.0, 0.012207031, 0.012169925 
6.1035156e-3, 4.524089e+1, -0.0000098783485, -3046.5015, -3.1675382, 0.0, 0.001391776, 0.0032835018, 0.0032835018, 0.0, 0.012207031, 0.012170011 
6.1035156e-3, 4.525306e+1, -0.0000036039937, -3035.26, -1.8624734, 0.0, 0.002181598, 0.0011392325, 0.0011392325, 0.0, 0.012207031, 0.012170147 
6.1035156e-3, 4.5265234e+1, -0.0000010818607, -3017.919, 1.1106317, 0.0, 0.0012149138, 0.00040764437, 0.00040764437, 0.0, 0.012207031, 0.012170358 
6.1035156e-3, 4.5277402e+1, -0.00000071136094, -3017.5325, 0.35648447, 0.0, 0.00094033376, 0.00004140291, 0.00004140291, 0.0, 0.012207031, 0.012170362 
6.1035156e-3, 4.5289573e+1, -0.00000034668892, -3006.6067, -0.9169566, 0.0, 0.0017019162, 0.00027930725, 0.00027930725, 0.0, 0.012207031, 0.0121704945 
6.1035156e-3, 4.530174e+1, -0.00000020481723, -2993.758, 0.14127569, 0.0, 0.0016457469, 0.000006461994, 0.000006461994, 0.0, 0.012207031, 0.012170649 
6.1035156e-3, 4.5313913e+1, -0.00000075865967, -2981.3887, 1.0827094, 0.0, 0.0013950354, 0.0003924338, 0.0003924338, 0.0, 0.012207031, 0.012170799 
6.1035156e-3, 4.5326084e+1, -0.00000018426643, -2979.947, -0.11269518, 0.0, 0.0012306363, 0.0000040776226, 0.0000040776226, 0.0, 0.012207031, 0.012170817 
6.1035156e-3, 4.5338258e+1, -0.0000004627642, -2965.7427, -0.5916011, 0.0, 0.0015766358, 0.00011754877, 0.00011754877, 0.0, 0.012207031, 0.012170988 
6.1035156e-3, 4.5350426e+1, 0.00000056092455, -2958.5913, -0.41048008, 0.0, 0.0014902413, 0.000057511643, 0.000057511643, 0.0, 0.012207031, 0.012171075 
6.1035156e-3, 4.5362598e+1, -0.0000014757254, -2938.4575, -1.2645787, 0.0, 0.0012378187, 0.0005427414, 0.0005427414, 0.0, 0.012207031, 0.012171319 
6.1035156e-3, 4.5374766e+1, -0.0000002279798, -2938.6687, 0.018353531, 0.0, 0.0017693174, -0.000000113352144, -0.000000113352144, 0.0, 0.012207031, 0.012171316 
6.1035156e-3, 4.538694e+1, -0.000003950998, -2925.5688, 1.9856646, 0.0, 0.0014868767, 0.0013437739, 0.0013437739, 0.0, 0.012207031, 0.012171474 
6.1035156e-3, 4.5399112e+1, -0.00000049241794, -2921.1567, -0.629887, 0.0, 0.0009890258, 0.00013532965, 0.00013532965, 0.0, 0.012207031, 0.012171528 
6.1035156e-3, 4.5411283e+1, -0.000010019991, -2905.7927, -3.1725557, 0.0, 0.0017842724, 0.0034537844, 0.0034537844, 0.0, 0.012207031, 0.012171714 
6.1035156e-3, 4.5423454e+1, -0.0000040028785, -2899.0322, 2.0510561, 0.0, 0.0013634751, 0.0014471122, 0.0014471122, 0.0, 0.012207031, 0.012171796 
6.1035156e-3, 4.5435628e+1, -0.0000011269575, -2878.552, 1.0010368, 0.0, 0.001232122, 0.00034699054, 0.00034699054, 0.0, 0.012207031, 0.012172043 
6.1035156e-3, 4.54478e+1, -0.0000061911423, -2881.0825, -2.467025, 0.0, 0.001897557, 0.0021062817, 0.0021062817, 0.0, 0.012207031, 0.012172013 
6.1035156e-3, 4.5459974e+1, -0.000008605232, -2875.8237, 2.928246, 0.0, 0.0014041575, 0.0029730157, 0.0029730157, 0.0, 0.012207031, 0.012172077 
6.1035156e-3, 4.5472142e+1, -0.000005345842, -2859.408, -2.336375, 0.0, 0.0010382552, 0.0019036663, 0.0019036663, 0.0, 0.012207031, 0.012172275 
6.1035156e-3, 4.5484313e+1, -0.000013417194, -2839.3582, -3.663929, 0.0, 0.0014699526, 0.0047145365, 0.0047145365, 0.0, 0.012207031, 0.012172518 
6.1035156e-3, 4.5496488e+1, -0.000010318813, -2834.7869, 3.2154062, 0.0, 0.0018863442, 0.003636807, 0.003636807, 0.0, 0.012207031, 0.012172573 
6.1035156e-3, 4.550866e+1, -0.0000062177523, -2830.9492, 2.5119932, 0.0, 0.0014848999, 0.0022227534, 0.0022227534, 0.0, 0.012207031, 0.01217262 
6.1035156e-3, 4.5520833e+1, -0.000011615181, -2827.6355, 3.427701, 0.0, 0.00085084606, 0.004143488, 0.004143488, 0.0, 0.012207031, 0.01217266 
6.1035156e-3, 4.5533004e+1, -0.00003253615, -2814.5618, -5.7152214, 0.0, 0.0016613977, 0.011572689, 0.011572689, 0.0, 0.012207031, 0.012172818 
6.1035156e-3, 4.554518e+1, -0.0000489975, -2791.8052, -7.0099683, 0.0, 0.0017503708, 0.017552283, 0.017552283, 0.0, 0.012207031, 0.012173094 
6.1035156e-3, 4.555735e+1, -0.000015630356, -2773.2964, 3.960643, 0.0, 0.001175137, 0.005640693, 0.005640693, 0.0, 0.012207031, 0.012173317 
6.1035156e-3, 4.5569527e+1, -0.000024609824, -2779.1104, 4.971093, 0.0, 0.0015526437, 0.008867332, 0.008867332, 0.0, 0.012207031, 0.0121732475 
6.1035156e-3, 4.5581698e+1, -0.000003014605, -2783.805, -1.7151853, 0.0, 0.0016751554, 0.0010537618, 0.0010537618, 0.0, 0.012207031, 0.012173191 
6.1035156e-3, 4.5593873e+1, -0.0043174797, -2766.2656, -65.85869, 0.0, 0.00097576744, 1.5627474, 1.5627474, 0.0, 0.012207031, 0.012173403 
6.1035156e-3, 4.5606044e+1, -0.00028412903, -2756.8015, -16.895573, 0.0, 0.0012915174, 0.10325966, 0.10325966, 0.0, 0.012207031, 0.012173518 
6.1035156e-3, 4.5618218e+1, -0.0060703726, -2730.0747, -78.089455, 0.0, 0.0022214474, 2.225735, 2.225735, 0.0, 0.012207031, 0.012173841 
6.1035156e-3, 4.5630395e+1, -0.000442511, -2737.508, 21.083487, 0.0, 0.0014314326, 0.16192673, 0.16192673, 0.0, 0.012207031, 0.012173751 
6.1035156e-3, 4.5642567e+1, -0.00015193531, -2729.0574, -12.352699, 0.0, 0.0006625457, 0.0557597, 0.0557597, 0.0, 0.012207031, 0.012173853 
6.1035156e-3, 4.5654738e+1, -0.0000015324657, -2700.753, -1.2690442, 0.0, 0.0014481837, 0.0005947726, 0.0005947726, 0.0, 0.012207031, 0.012174196 
6.1035156e-3, 4.5666915e+1, -0.000006076705, -2691.3667, 2.4593728, 0.0, 0.002296457, 0.002241298, 0.002241298, 0.0, 0.012207031, 0.012174309 
6.1035156e-3, 4.567909e+1, -0.0000003124192, -2699.0415, -0.23048738, 0.0, 0.0014250106, 0.000019370284, 0.000019370284, 0.0, 0.012207031, 0.012174217 
6.1035156e-3, 4.5691264e+1, -0.00003503378, -2680.3352, 5.927149, 0.0, 0.0005687196, 0.013071881, 0.013071881, 0.0, 0.012207031, 0.012174443 
6.1035156e-3, 4.5703438e+1, -0.0000034026082, -2675.4802, 1.8491083, 0.0, 0.001621215, 0.0012745735, 0.0012745735, 0.0, 0.012207031, 0.012174502 
6.1035156e-3, 4.5715615e+1, -0.00003379707, -2667.7273, -5.827766, 0.0, 0.0021039518, 0.012697151, 0.012697151, 0.0, 0.012207031, 0.012174596 
6.1035156e-3, 4.5727786e+1, -0.000012091038, -2659.8362, -3.490563, 0.0, 0.0011563131, 0.0045686457, 0.0045686457, 0.0, 0.012207031, 0.012174691 
6.1035156e-3, 4.5739964e+1, -0.000087450964, -2643.2527, 9.375409, 0.0, 0.0012217498, 0.03316597, 0.03316597, 0.0, 0.012207031, 0.012174892 
6.1035156e-3, 4.5752135e+1, -0.001324698, -2633.742, -36.475716, 0.0, 0.0017875091, 0.503745, 0.503745, 0.0, 0.012207031, 0.012175008 
6.1035156e-3, 4.5764312e+1, -0.0013096796, -2622.3787, -36.26772, 0.0, 0.0011467403, 0.5001803, 0.5001803, 0.0, 0.012207031, 0.012175146 
6.1035156e-3, 4.5776486e+1, -0.00001800664, -2629.1182, 4.2599125, 0.0, 0.0012422139, 0.0068842336, 0.0068842336, 0.0, 0.012207031, 0.012175064 
6.1035156e-3, 4.578866e+1, -0.000012763743, -2608.1753, -3.5853407, 0.0, 0.0020974893, 0.0049158335, 0.0049158335, 0.0, 0.012207031, 0.012175317 
6.1035156e-3, 4.5800838e+1, -0.0034009116, -2592.0178, -58.44356, 0.0, 0.0012618629, 1.3136886, 1.3136886, 0.0, 0.012207031, 0.0121755125 
6.1035156e-3, 4.5813015e+1, -0.006037877, -2575.1416, -77.869545, 0.0, 0.0011259797, 2.3465106, 2.3465106, 0.0, 0.012207031, 0.012175717 
6.1035156e-3, 4.5825186e+1, -0.000036115693, -2580.287, 6.0200515, 0.0, 0.0016158441, 0.014009153, 0.014009153, 0.0, 0.012207031, 0.012175655 
6.1035156e-3, 4.5837364e+1, -0.0001640733, -2548.6135, -12.836412, 0.0, 0.0015085306, 0.064486496, 0.064486496, 0.0, 0.012207031, 0.012176039 
6.1035156e-3, 4.584954e+1, -0.00009118499, -2535.9768, 9.569585, 0.0, 0.0014099533, 0.036019415, 0.036019415, 0.0, 0.012207031, 0.012176191 
6.1035156e-3, 4.5861718e+1, -0.00006874327, -2550.454, 8.310203, 0.0, 0.0014318206, 0.02700829, 0.02700829, 0.0, 0.012207031, 0.012176016 
6.1035156e-3, 4.5873892e+1, -0.000014096946, -2548.511, -3.7609708, 0.0, 0.001506036, 0.0055361525, 0.0055361525, 0.0, 0.012207031, 0.01217604 
6.1035156e-3, 4.588607e+1, -0.000019733507, -2519.979, -4.4505496, 0.0, 0.001402207, 0.007840385, 0.007840385, 0.0, 0.012207031, 0.012176385 
6.1035156e-3, 4.5898247e+1, -0.0000013807205, -2513.579, 1.1944765, 0.0, 0.0011973386, 0.0005662457, 0.0005662457, 0.0, 0.012207031, 0.012176463 
6.1035156e-3, 4.5910424e+1, -0.000009208556, -2503.9539, 3.0362413, 0.0, 0.0018989617, 0.0036724675, 0.0036724675, 0.0, 0.012207031, 0.01217658 
6.1035156e-3, 4.59226e+1, -0.0000061476376, -2503.3362, -2.4773986, 0.0, 0.0016021687, 0.0024455795, 0.0024455795, 0.0, 0.012207031, 0.012176587 
6.1035156e-3, 4.5934775e+1, -0.0000047794683, -2487.737, -2.1944716, 0.0, 0.00076488865, 0.0019309965, 0.0019309965, 0.0, 0.012207031, 0.012176776 
6.1035156e-3, 4.5946953e+1, -0.00000021454362, -2472.462, 0.27366734, 0.0, 0.001597929, 0.000030076644, 0.000030076644, 0.0, 0.012207031, 0.012176962 
6.1035156e-3, 4.595913e+1, -0.0000012023221, -2465.973, -0.24510786, 0.0, 0.0018505955, 0.000023160423, 0.000023160423, 0.0, 0.012207031, 0.01217704 
6.1035156e-3, 4.5971307e+1, -0.0000046427012, -2460.7297, -2.1571937, 0.0, 0.001262873, 0.0018864553, 0.0018864553, 0.0, 0.012207031, 0.012177103 
6.1035156e-3, 4.598348e+1, -0.0000009793075, -2448.198, 0.96514314, 0.0, 0.0013859218, 0.0003795051, 0.0003795051, 0.0, 0.012207031, 0.012177255 
6.1035156e-3, 4.5995662e+1, -0.0000036167826, -2431.4788, 1.8962867, 0.0, 0.0013321695, 0.001475278, 0.001475278, 0.0, 0.012207031, 0.012177458 
6.1035156e-3, 4.600784e+1, -0.000008372083, -2424.6807, -2.8950214, 0.0, 0.001710551, 0.003448222, 0.003448222, 0.0, 0.012207031, 0.01217754 
6.1035156e-3, 4.6020016e+1, -0.0000006994826, -2432.44, -0.7830758, 0.0, 0.0015438045, 0.00025139624, 0.00025139624, 0.0, 0.012207031, 0.012177446 
6.1035156e-3, 4.6032193e+1, -0.000010977517, -2410.4163, 3.3203828, 0.0, 0.0010574625, 0.0045628888, 0.0045628888, 0.0, 0.012207031, 0.012177713 
6.1035156e-3, 4.6044374e+1, -0.000000974828, -2383.6685, -0.9930805, 0.0, 0.0014503143, 0.00041276088, 0.00041276088, 0.0, 0.012207031, 0.012178037 
6.1035156e-3, 4.6056548e+1, -0.00000070812916, -2394.2654, -0.9391599, 0.0, 0.0017712357, 0.000367681, 0.000367681, 0.0, 0.012207031, 0.012177909 
6.1035156e-3, 4.6068725e+1, -0.000000447097, -2384.2744, 0.6244653, 0.0, 0.0016261172, 0.00016310657, 0.00016310657, 0.0, 0.012207031, 0.01217803 
6.1035156e-3, 4.6080905e+1, 0.000000053542514, -2373.4172, -0.42312524, 0.0, 0.0008836438, 0.000075486954, 0.000075486954, 0.0, 0.012207031, 0.012178161 
6.1035156e-3, 4.6093082e+1, -0.00000019055524, -2349.254, -0.27334788, 0.0, 0.0012966605, 0.00003161489, 0.00003161489, 0.0, 0.012207031, 0.012178455 
6.1035156e-3, 4.6105263e+1, -0.0000018885489, -2350.705, -1.3197708, 0.0, 0.0021942824, 0.0007390783, 0.0007390783, 0.0, 0.012207031, 0.012178437 
6.1035156e-3, 4.611744e+1, -0.00000030403166, -2340.413, 0.43264103, 0.0, 0.0014060081, 0.000079672565, 0.000079672565, 0.0, 0.012207031, 0.012178562 
6.1035156e-3, 4.612962e+1, -0.000005266975, -2334.7576, -2.3026807, 0.0, 0.000871241, 0.0022657756, 0.0022657756, 0.0, 0.012207031, 0.012178631 
6.1035156e-3, 4.61418e+1, -0.000084676285, -2320.7273, -9.219855, 0.0, 0.0014410479, 0.036543664, 0.036543664, 0.0, 0.012207031, 0.0121788 
6.1035156e-3, 4.6153978e+1, -0.000032708154, -2308.5054, -5.7244153, 0.0, 0.001971977, 0.014162072, 0.014162072, 0.0, 0.012207031, 0.012178948 
6.1035156e-3, 4.6166158e+1, -0.000000515215, -2297.6965, 0.8497476, 0.0, 0.0014328026, 0.00031374334, 0.00031374334, 0.0, 0.012207031, 0.012179079 
6.1035156e-3, 4.6178332e+1, -0.00002787538, -2296.9834, 5.289791, 0.0, 0.00096049637, 0.012154077, 0.012154077, 0.0, 0.012207031, 0.012179088 
6.1035156e-3, 4.6190512e+1, -0.0000003916699, -2278.2168, 0.81215507, 0.0, 0.001808726, 0.00028913116, 0.00028913116, 0.0, 0.012207031, 0.012179316 
6.1035156e-3, 4.6202695e+1, -0.000020468677, -2277.6187, -4.5296288, 0.0, 0.001353294, 0.008987824, 0.008987824, 0.0, 0.012207031, 0.012179323 
6.1035156e-3, 4.6214876e+1, -0.000007521053, -2262.211, -2.7409399, 0.0, 0.0010061426, 0.0033134515, 0.0033134515, 0.0, 0.012207031, 0.01217951 
6.1035156e-3, 4.622705e+1, -0.0000011473427, -2250.368, 1.1170689, 0.0, 0.0021650416, 0.00055335864, 0.00055335864, 0.0, 0.012207031, 0.012179653 
6.1035156e-3, 4.623923e+1, -0.00004236861, -2230.9207, 6.519154, 0.0, 0.0017384202, 0.019007618, 0.019007618, 0.0, 0.012207031, 0.012179889 
6.1035156e-3, 4.625141e+1, -0.0000038200938, -2236.3132, -1.9755297, 0.0, 0.00045292376, 0.0017413356, 0.0017413356, 0.0, 0.012207031, 0.012179824 
6.1035156e-3, 4.626359e+1, -0.000027638469, -2241.8586, -5.2616286, 0.0, 0.0011784602, 0.012321303, 0.012321303, 0.0, 0.012207031, 0.012179757 
6.1035156e-3, 4.627577e+1, -0.000011718862, -2211.2078, 3.4297054, 0.0, 0.0026629795, 0.005307931, 0.005307931, 0.0, 0.012207031, 0.012180128 
6.1035156e-3, 4.6287954e+1, -0.00000036961652, -2187.4214, -0.5975191, 0.0, 0.0016308404, 0.00016284952, 0.00016284952, 0.0, 0.012207031, 0.012180417 
6.1035156e-3, 4.6300134e+1, -0.0000069726584, -2188.4814, -2.6369295, 0.0, 0.00016262816, 0.0031702935, 0.0031702935, 0.0, 0.012207031, 0.012180404 
6.1035156e-3, 4.6312314e+1, -0.00000022898375, -2195.6294, 0.5407311, 0.0, 0.0014528999, 0.00013294016, 0.00013294016, 0.0, 0.012207031, 0.012180317 
6.1035156e-3, 4.6324494e+1, -0.00002632741, -2183.2566, 5.1446023, 0.0, 0.0025064813, 0.0120962905, 0.0120962905, 0.0, 0.012207031, 0.012180467 
6.1035156e-3, 4.6336675e+1, -0.000041392545, -2166.6575, -6.4504576, 0.0, 0.0013336984, 0.019162398, 0.019162398, 0.0, 0.012207031, 0.012180668 
6.1035156e-3, 4.6348855e+1, -0.000010178579, -2164.7124, 3.1905851, 0.0, 0.0007044389, 0.0046924376, 0.0046924376, 0.0, 0.012207031, 0.012180692 
6.1035156e-3, 4.6361035e+1, -0.004147848, -2146.4893, -64.51875, 0.0, 0.0017746903, 1.9333992, 1.9333992, 0.0, 0.012207031, 0.012180913 
6.1035156e-3, 4.6373215e+1, -0.0036926852, -2130.4053, -60.87529, 0.0, 0.0015728894, 1.734374, 1.734374, 0.0, 0.012207031, 0.012181108 
6.1035156e-3, 4.6385399e+1, 0.000000053592274, -2124.7263, 0.36911508, 0.0, 0.0012813057, 0.000064177584, 0.000064177584, 0.0, 0.012207031, 0.012181177 
6.1035156e-3, 4.639758e+1, -0.000038227034, -2098.5864, -6.19513, 0.0, 0.0016534105, 0.018249942, 0.018249942, 0.0, 0.012207031, 0.012181494 
6.1035156e-3, 4.640976e+1, -0.000034246066, -2097.7688, 5.861346, 0.0, 0.0010349165, 0.01634273, 0.01634273, 0.0, 0.012207031, 0.012181504 
6.1035156e-3, 4.6421945e+1, -0.00005182559, -2096.9053, 7.2097745, 0.0, 0.001844234, 0.024737196, 0.024737196, 0.0, 0.012207031, 0.012181515 
6.1035156e-3, 4.6434125e+1, -0.0000012938839, -2096.3835, 1.2009894, 0.0, 0.0019989894, 0.0006867362, 0.0006867362, 0.0, 0.012207031, 0.01218152 
6.1035156e-3, 4.6446306e+1, -0.00008198286, -2074.437, -9.070907, 0.0, 0.00033571245, 0.03958168, 0.03958168, 0.0, 0.012207031, 0.012181787 
6.1035156e-3, 4.645849e+1, -0.0000090599, -2064.4563, -3.0026934, 0.0, 0.0012718324, 0.0043582637, 0.0043582637, 0.0, 0.012207031, 0.012181908 
6.1035156e-3, 4.647067e+1, -0.00008070038, -2050.496, 8.997003, 0.0, 0.0025536146, 0.03939487, 0.03939487, 0.0, 0.012207031, 0.012182077 
6.1035156e-3, 4.648285e+1, -0.0000011852845, -2050.7563, 1.1151336, 0.0, 0.0014267215, 0.0006051874, 0.0006051874, 0.0, 0.012207031, 0.012182075 
6.1035156e-3, 4.6495032e+1, -0.000008503007, -2038.221, -2.912139, 0.0, 0.00063133467, 0.004152251, 0.004152251, 0.0, 0.012207031, 0.012182226 
6.1035156e-3, 4.6507213e+1, -0.00000029064373, -2036.9639, 0.7035997, 0.0, 0.0014127964, 0.00024274384, 0.00024274384, 0.0, 0.012207031, 0.012182241 
6.1035156e-3, 4.65194e+1, -0.00002595393, -2026.0, 5.1067324, 0.0, 0.0021153172, 0.012845985, 0.012845985, 0.0, 0.012207031, 0.0121823745 
6.1035156e-3, 4.6531582e+1, -0.0023052047, -2013.7781, -48.092712, 0.0, 0.0015316603, 1.145584, 1.145584, 0.0, 0.012207031, 0.012182523 
6.1035156e-3, 4.6543762e+1, -0.0040278733, -1982.149, -63.569756, 0.0, 0.0008175189, 2.0326376, 2.0326376, 0.0, 0.012207031, 0.012182907 
6.1035156e-3, 4.6555945e+1, -0.000026430745, -1995.277, 5.1456738, 0.0, 0.0013869568, 0.013243797, 0.013243797, 0.0, 0.012207031, 0.012182748 
6.1035156e-3, 4.656813e+1, -0.0000008927334, -1977.6399, 0.15901273, 0.0, 0.00202231, 0.000011892733, 0.000011892733, 0.0, 0.012207031, 0.012182961 
6.1035156e-3, 4.6580312e+1, -0.0001113447, -1958.9705, -10.569397, 0.0, 0.0013803608, 0.056912947, 0.056912947, 0.0, 0.012207031, 0.012183188 
6.1035156e-3, 4.6592495e+1, -0.0004754925, -1954.431, -21.841227, 0.0, 0.0010745315, 0.24357496, 0.24357496, 0.0, 0.012207031, 0.012183243 
6.1035156e-3, 4.6604678e+1, -0.000006964028, -1960.2601, 2.632601, 0.0, 0.0016788921, 0.003528575, 0.003528575, 0.0, 0.012207031, 0.012183173 
6.1035156e-3, 4.6616864e+1, -0.000010837416, -1932.3818, -3.2977788, 0.0, 0.0014351927, 0.0056170947, 0.0056170947, 0.0, 0.012207031, 0.012183511 
6.1035156e-3, 4.6629044e+1, -0.000000107917515, -1925.3864, -0.077950686, 0.0, 0.0011261645, 0.0000030479737, 0.0000030479737, 0.0, 0.012207031, 0.012183595 
6.1035156e-3, 4.6641228e+1, -0.00006094084, -1919.6938, 7.812678, 0.0, 0.0018952288, 0.031734195, 0.031734195, 0.0, 0.012207031, 0.012183664 
6.1035156e-3, 4.665341e+1, -0.000008173015, -1921.1266, -2.864717, 0.0, 0.0015898476, 0.0042635836, 0.0042635836, 0.0, 0.012207031, 0.012183648 
6.1035156e-3, 4.6665597e+1, -0.000056077304, -1893.7992, -7.495746, 0.0, 0.0008940381, 0.029611973, 0.029611973, 0.0, 0.012207031, 0.012183979 
6.1035156e-3, 4.667778e+1, -0.000019221054, -1884.9069, 4.388486, 0.0, 0.0015721845, 0.010198102, 0.010198102, 0.0, 0.012207031, 0.012184087 
6.1035156e-3, 4.6689963e+1, -0.000016260496, -1880.9579, 4.0328217, 0.0, 0.0016811843, 0.008630171, 0.008630171, 0.0, 0.012207031, 0.012184135 
6.1035156e-3, 4.670215e+1, -0.000011715644, -1879.4565, -3.4277532, 0.0, 0.0013025304, 0.0062398002, 0.0062398002, 0.0, 0.012207031, 0.012184153 
6.1035156e-3, 4.6714333e+1, -0.00000053844917, -1862.5737, -0.10636562, 0.0, 0.0014227934, 0.000005535751, 0.000005535751, 0.0, 0.012207031, 0.012184358 
6.1035156e-3, 4.6726516e+1, -0.00003446599, -1847.9019, 5.882065, 0.0, 0.0017709881, 0.01868857, 0.01868857, 0.0, 0.012207031, 0.012184536 
6.1035156e-3, 4.6738702e+1, -0.0000022032827, -1847.1953, -1.4776938, 0.0, 0.0011130092, 0.0011799011, 0.0011799011, 0.0, 0.012207031, 0.0121845445 
6.1035156e-3, 4.6750885e+1, -0.00038544365, -1852.7354, -19.661879, 0.0, 0.0008155547, 0.20824987, 0.20824987, 0.0, 0.012207031, 0.012184477 
6.1035156e-3, 4.6763068e+1, -0.0040503927, -1815.6001, -63.73922, 0.0, 0.0025444976, 2.2308593, 2.2308593, 0.0, 0.012207031, 0.012184928 
6.1035156e-3, 4.6775258e+1, -0.00017891856, -1806.6433, 13.396506, 0.0, 0.0017253942, 0.09915255, 0.09915255, 0.0, 0.012207031, 0.012185037 
6.1035156e-3, 4.678744e+1, -0.000012034252, -1817.9813, -3.4723244, 0.0, 0.00021843007, 0.0066200425, 0.0066200425, 0.0, 0.012207031, 0.012184899 
6.1035156e-3, 4.6799624e+1, -0.004525351, -1794.1996, -67.37082, 0.0, 0.0018165112, 2.5216467, 2.5216467, 0.0, 0.012207031, 0.012185188 
6.1035156e-3, 4.681181e+1, -0.0034211818, -1781.0227, -58.577343, 0.0, 0.0017947084, 1.9210956, 1.9210956, 0.0, 0.012207031, 0.012185348 
6.1035156e-3, 4.6823996e+1, -0.0000043260115, -1763.125, -2.0779173, 0.0, 0.0012515422, 0.0024445842, 0.0024445842, 0.0, 0.012207031, 0.012185565 
6.1035156e-3, 4.6836182e+1, -0.00008749806, -1745.6499, -9.36516, 0.0, 0.0015272943, 0.050153792, 0.050153792, 0.0, 0.012207031, 0.012185778 
6.1035156e-3, 4.684837e+1, -0.00029333384, -1740.267, 17.151386, 0.0, 0.00116041, 0.16872759, 0.16872759, 0.0, 0.012207031, 0.012185843 
6.1035156e-3, 4.6860555e+1, -0.000026005684, -1757.3866, 5.1108775, 0.0, 0.0017816419, 0.014837456, 0.014837456, 0.0, 0.012207031, 0.012185635 
6.1035156e-3, 4.6872738e+1, -0.00008444064, -1751.729, -9.198737, 0.0, 0.0016275471, 0.04821894, 0.04821894, 0.0, 0.012207031, 0.012185704 
6.1035156e-3, 4.6884927e+1, -0.00005368907, -1715.0343, -7.3372655, 0.0, 0.0009395528, 0.03133605, 0.03133605, 0.0, 0.012207031, 0.012186149 
6.1035156e-3, 4.689711e+1, -0.0000047620647, -1696.1947, 2.2049336, 0.0, 0.001588968, 0.0028614914, 0.0028614914, 0.0, 0.012207031, 0.012186378 
6.1035156e-3, 4.6909297e+1, -0.00013708399, -1708.6135, 11.722892, 0.0, 0.0016175742, 0.08029054, 0.08029054, 0.0, 0.012207031, 0.012186227 
6.1035156e-3, 4.6921486e+1, -0.0000000047685615, -1706.6743, -0.5771009, 0.0, 0.0012736953, 0.00019513814, 0.00019513814, 0.0, 0.012207031, 0.012186251 
6.1035156e-3, 4.693367e+1, -0.000013182916, -1697.7017, -3.639833, 0.0, 0.0015777606, 0.0077904984, 0.0077904984, 0.0, 0.012207031, 0.01218636 
6.1035156e-3, 4.6945858e+1, -0.0000012624694, -1673.0741, -1.1602821, 0.0, 0.0014524051, 0.0008033965, 0.0008033965, 0.0, 0.012207031, 0.0121866595 
6.1035156e-3, 4.695804e+1, -0.00006351263, -1680.9253, 7.9813633, 0.0, 0.0012951744, 0.037832715, 0.037832715, 0.0, 0.012207031, 0.012186564 
6.1035156e-3, 4.697023e+1, -0.006263228, -1660.7189, -79.24979, 0.0, 0.0017592849, 3.7669914, 3.7669914, 0.0, 0.012207031, 0.012186809 
6.1035156e-3, 4.698242e+1, -0.0034835797, -1646.3159, -59.102596, 0.0, 0.0011496072, 2.1155715, 2.1155715, 0.0, 0.012207031, 0.0121869845 
6.1035156e-3, 4.6994606e+1, -0.00001091344, -1628.0769, 3.3078983, 0.0, 0.0012347975, 0.006709989, 0.006709989, 0.0, 0.012207031, 0.012187205 
6.1035156e-3, 4.700679e+1, -0.000018068593, -1629.5331, -4.2555327, 0.0, 0.0019499862, 0.011095198, 0.011095198, 0.0, 0.012207031, 0.012187188 
6.1035156e-3, 4.7018978e+1, -0.0035500648, -1615.8948, -59.662064, 0.0, 0.0013849805, 2.1963024, 2.1963024, 0.0, 0.012207031, 0.012187353 
6.1035156e-3, 4.7031167e+1, -0.0038831434, -1604.9169, -62.39756, 0.0, 0.0012078136, 2.4184213, 2.4184213, 0.0, 0.012207031, 0.012187487 
6.1035156e-3, 4.7043353e+1, -0.000004985586, -1587.4912, 2.2299132, 0.0, 0.001460715, 0.0031273176, 0.0031273176, 0.0, 0.012207031, 0.012187699 
6.1035156e-3, 4.7055542e+1, -0.000035408353, -1577.1438, -5.9529448, 0.0, 0.0015753699, 0.022433719, 0.022433719, 0.0, 0.012207031, 0.012187825 
6.1035156e-3, 4.706773e+1, -0.000073641735, -1570.9417, 8.592116, 0.0, 0.0015108711, 0.04691872, 0.04691872, 0.0, 0.012207031, 0.0121879 
6.1035156e-3, 4.7079918e+1, -0.000024608587, -1580.1411, 4.9654937, 0.0, 0.0012917774, 0.015578988, 0.015578988, 0.0, 0.012207031, 0.012187788 
6.1035156e-3, 4.7092107e+1, -0.000034574274, -1559.6772, -5.8844776, 0.0, 0.0013594099, 0.022166545, 0.022166545, 0.0, 0.012207031, 0.012188037 
6.1035156e-3, 4.7104293e+1, -0.000029597784, -1546.7366, -5.446803, 0.0, 0.001645355, 0.019150978, 0.019150978, 0.0, 0.012207031, 0.012188194 
6.1035156e-3, 4.7116482e+1, -0.000024072639, -1525.2938, 4.907523, 0.0, 0.0015612154, 0.015765367, 0.015765367, 0.0, 0.012207031, 0.012188454 
6.1035156e-3, 4.7128668e+1, -0.00003765014, -1540.1986, 6.145703, 0.0, 0.0011933314, 0.024484554, 0.024484554, 0.0, 0.012207031, 0.0121882735 
6.1035156e-3, 4.7140858e+1, -0.000027114755, -1521.5732, -5.21243, 0.0, 0.0013167565, 0.017828818, 0.017828818, 0.0, 0.012207031, 0.0121885 
6.1035156e-3, 4.7153047e+1, -0.000012569736, -1511.3563, -3.5488772, 0.0, 0.0017182291, 0.008320648, 0.008320648, 0.0, 0.012207031, 0.012188624 
6.1035156e-3, 4.716524e+1, -0.000013376478, -1488.8591, 3.6657493, 0.0, 0.0017765969, 0.009012083, 0.009012083, 0.0, 0.012207031, 0.0121888975 
6.1035156e-3, 4.7177425e+1, -0.00000013361469, -1494.2432, 0.7009193, 0.0, 0.0009394475, 0.00032865338, 0.00032865338, 0.0, 0.012207031, 0.012188831 
6.1035156e-3, 4.7189614e+1, -0.00000010883388, -1482.7759, 0.2559459, 0.0, 0.0009188032, 0.000044070668, 0.000044070668, 0.0, 0.012207031, 0.012188971 
6.1035156e-3, 4.72018e+1, -0.0000005737183, -1474.3182, -0.8398712, 0.0, 0.002414146, 0.00047787352, 0.00047787352, 0.0, 0.012207031, 0.0121890735 
6.1035156e-3, 4.7213992e+1, -0.0000008594227, -1458.4598, -0.886651, 0.0, 0.001792961, 0.0005381679, 0.0005381679, 0.0, 0.012207031, 0.012189266 
6.1035156e-3, 4.7226182e+1, -0.00000086991946, -1453.7897, -0.91482043, 0.0, 0.00045779772, 0.00057479524, 0.00057479524, 0.0, 0.012207031, 0.012189323 
6.1035156e-3, 4.7238368e+1, -0.00000000899832, -1433.086, -0.35853735, 0.0, 0.0011021278, 0.00008969184, 0.00008969184, 0.0, 0.012207031, 0.0121895755 
6.1035156e-3, 4.725056e+1, -0.000006089902, -1429.9208, 2.4666402, 0.0, 0.002432287, 0.004248898, 0.004248898, 0.0, 0.012207031, 0.012189614 
6.1035156e-3, 4.726275e+1, -0.0000048844895, -1425.136, -2.2092469, 0.0, 0.0018904776, 0.0034198838, 0.0034198838, 0.0, 0.012207031, 0.012189671 
6.1035156e-3, 4.727494e+1, -0.000018678145, -1422.6146, 4.3227973, 0.0, 0.0002858054, 0.013116577, 0.013116577, 0.0, 0.012207031, 0.012189702 
6.1035156e-3, 4.7287127e+1, -0.000004317029, -1400.0792, 2.090818, 0.0, 0.0012463108, 0.0031180135, 0.0031180135, 0.0, 0.012207031, 0.012189976 
6.1035156e-3, 4.729932e+1, -0.00000022161265, -1413.3062, -0.18254401, 0.0, 0.0024291214, 0.00002335595, 0.00002335595, 0.0, 0.012207031, 0.012189816 
6.1035156e-3, 4.731151e+1, -0.0054675196, -1380.3672, -74.02747, 0.0, 0.0014441491, 3.9532018, 3.9532018, 0.0, 0.012207031, 0.012190216 
6.1035156e-3, 4.73237e+1, -0.0038608185, -1364.8372, -62.206203, 0.0, 0.0008889056, 2.8255002, 2.8255002, 0.0, 0.012207031, 0.012190404 
6.1035156e-3, 4.7335893e+1, -0.000049950377, -1352.2388, 7.073937, 0.0, 0.0013123595, 0.036954768, 0.036954768, 0.0, 0.012207031, 0.012190558 
6.1035156e-3, 4.734808e+1, -0.00016248466, -1341.2733, -12.76187, 0.0, 0.0019163926, 0.12125245, 0.12125245, 0.0, 0.012207031, 0.012190691 
6.1035156e-3, 4.736027e+1, -0.0002979419, -1332.8547, -17.278875, 0.0, 0.0017054313, 0.22366455, 0.22366455, 0.0, 0.012207031, 0.012190794 
6.1035156e-3, 4.7372463e+1, -0.00011396286, -1342.6233, -10.689478, 0.0, 0.0008488077, 0.08498639, 0.08498639, 0.0, 0.012207031, 0.012190674 
6.1035156e-3, 4.7384652e+1, -0.000025081425, -1319.8132, 5.0157886, 0.0, 0.0013283236, 0.019036533, 0.019036533, 0.0, 0.012207031, 0.012190952 
6.1035156e-3, 4.7396842e+1, -0.00007943393, -1317.7153, -8.926024, 0.0, 0.0019713272, 0.06038148, 0.06038148, 0.0, 0.012207031, 0.012190978 
6.1035156e-3, 4.7409034e+1, -0.00071304856, -1309.0901, -26.732285, 0.0, 0.0014171309, 0.5449466, 0.5449466, 0.0, 0.012207031, 0.012191082 
6.1035156e-3, 4.7421226e+1, -0.00061381975, -1289.0548, -24.801088, 0.0, 0.0012592885, 0.4763766, 0.4763766, 0.0, 0.012207031, 0.012191326 
6.1035156e-3, 4.7433418e+1, -0.00013297387, -1287.5916, 11.5413265, 0.0, 0.0011046882, 0.10330941, 0.10330941, 0.0, 0.012207031, 0.012191344 
6.1035156e-3, 4.744561e+1, -0.000004555209, -1297.1755, -2.1300755, 0.0, 0.0018934355, 0.003493205, 0.003493205, 0.0, 0.012207031, 0.012191228 
6.1035156e-3, 4.7457802e+1, -0.000043596894, -1249.3055, -6.607119, 0.0, 0.002016065, 0.034898058, 0.034898058, 0.0, 0.012207031, 0.01219181 
6.1035156e-3, 4.7469994e+1, -0.0000029567625, -1251.6079, 1.7205575, 0.0, 0.00040309684, 0.0023622506, 0.0023622506, 0.0, 0.012207031, 0.012191782 
6.1035156e-3, 4.7482187e+1, -0.0000086640375, -1247.7245, 2.932607, 0.0, 0.0015910092, 0.0068839923, 0.0068839923, 0.0, 0.012207031, 0.012191828 
6.1035156e-3, 4.7494376e+1, -0.0000043914606, -1242.8154, -2.1042488, 0.0, 0.0019555986, 0.0035583663, 0.0035583663, 0.0, 0.012207031, 0.012191888 
6.1035156e-3, 4.7506568e+1, -0.0000017413166, -1221.2413, -1.3689868, 0.0, 0.0010434145, 0.0015328632, 0.0015328632, 0.0, 0.012207031, 0.012192151 
6.1035156e-3, 4.751876e+1, -0.000082146835, -1215.1957, -9.07409, 0.0, 0.0017447321, 0.06767198, 0.06767198, 0.0, 0.012207031, 0.012192224 
6.1035156e-3, 4.7530952e+1, -0.0000033658907, -1211.9941, 1.8401002, 0.0, 0.0011929317, 0.0027903449, 0.0027903449, 0.0, 0.012207031, 0.012192263 
6.1035156e-3, 4.7543144e+1, -0.00000007360517, -1198.5719, 0.4364169, 0.0, 0.0015830457, 0.00015883191, 0.00015883191, 0.0, 0.012207031, 0.012192426 
6.1035156e-3, 4.7555336e+1, -0.00006873415, -1183.3138, -8.300495, 0.0, 0.0016260516, 0.05815321, 0.05815321, 0.0, 0.012207031, 0.0121926125 
6.1035156e-3, 4.7567528e+1, -0.000005155808, -1176.264, 2.2643337, 0.0, 0.0010013307, 0.0043537193, 0.0043537193, 0.0, 0.012207031, 0.012192698 
6.1035156e-3, 4.7579724e+1, -0.0000007273118, -1170.4633, 0.849683, 0.0, 0.0020536277, 0.0006160889, 0.0006160889, 0.0, 0.012207031, 0.012192768 
6.1035156e-3, 4.7591916e+1, 0.00000015473576, -1171.5117, -0.15203722, 0.0, 0.0009960934, 0.000019885923, 0.000019885923, 0.0, 0.012207031, 0.012192756 
6.1035156e-3, 4.7604108e+1, -0.00031640672, -1139.8055, -17.803568, 0.0, 0.0010473969, 0.27770454, 0.27770454, 0.0, 0.012207031, 0.0121931415 
6.1035156e-3, 4.7616303e+1, -0.00036129658, -1131.7274, -19.02455, 0.0, 0.002202824, 0.31935474, 0.31935474, 0.0, 0.012207031, 0.012193239 
6.1035156e-3, 4.7628495e+1, -0.000052523563, -1128.7189, 7.2536654, 0.0, 0.0015478759, 0.046560936, 0.046560936, 0.0, 0.012207031, 0.012193277 
6.1035156e-3, 4.7640687e+1, -0.000013690531, -1118.77, -3.7082107, 0.0, 0.0009914848, 0.012277195, 0.012277195, 0.0, 0.012207031, 0.012193398 
6.1035156e-3, 4.7652882e+1, -0.0000011155006, -1111.734, 1.0558478, 0.0, 0.0010580801, 0.0010016544, 0.0010016544, 0.0, 0.012207031, 0.012193483 
6.1035156e-3, 4.7665074e+1, 0.00000036841027, -1092.0052, 0.4187068, 0.0, 0.002190248, 0.00016091285, 0.00016091285, 0.0, 0.012207031, 0.012193723 
6.1035156e-3, 4.767727e+1, -0.000036006204, -1095.6525, -6.0113826, 0.0, 0.0015764326, 0.03294492, 0.03294492, 0.0, 0.012207031, 0.012193679 
6.1035156e-3, 4.7689462e+1, -0.000008769443, -1065.3224, 2.9730089, 0.0, 0.00074119936, 0.008287979, 0.008287979, 0.0, 0.012207031, 0.012194048 
6.1035156e-3, 4.7701657e+1, -0.000039550014, -1074.0499, 6.294588, 0.0, 0.0019860624, 0.036849312, 0.036849312, 0.0, 0.012207031, 0.0121939415 
6.1035156e-3, 4.7713852e+1, -0.00006209148, -1075.7202, 7.8877764, 0.0, 0.0012460753, 0.05777235, 0.05777235, 0.0, 0.012207031, 0.012193921 
6.1035156e-3, 4.7726044e+1, -0.00015433518, -1065.2308, -12.434872, 0.0, 0.0010106585, 0.14498322, 0.14498322, 0.0, 0.012207031, 0.012194049 
6.1035156e-3, 4.773824e+1, -0.000019671475, -1042.8228, 4.4365087, 0.0, 0.002104033, 0.01885434, 0.01885434, 0.0, 0.012207031, 0.0121943215 
6.1035156e-3, 4.775043e+1, -0.010135415, -1021.2677, -100.76061, 0.0, 0.0015406142, 9.836302, 9.836302, 0.0, 0.012207031, 0.012194584 
6.1035156e-3, 4.7762626e+1, -0.0007225818, -1013.7357, 26.902555, 0.0, 0.0009880698, 0.7127168, 0.7127168, 0.0, 0.012207031, 0.012194675 
6.1035156e-3, 4.7774822e+1, -0.00043851812, -1019.12213, -20.95789, 0.0, 0.0013823326, 0.43037122, 0.43037122, 0.0, 0.012207031, 0.01219461 
6.1035156e-3, 4.7787017e+1, -0.000010032551, -973.8096, 3.1630664, 0.0, 0.0017451231, 0.010263931, 0.010263931, 0.0, 0.012207031, 0.012195162 
6.1035156e-3, 4.7799215e+1, -0.00007819312, -997.4948, 8.847888, 0.0, 0.0016275938, 0.07839737, 0.07839737, 0.0, 0.012207031, 0.012194873 
6.1035156e-3, 4.7811404e+1, -0.0000015092071, -988.20667, -1.2325331, 0.0, 0.0010180577, 0.0015357558, 0.0015357558, 0.0, 0.012207031, 0.012194986 
6.1035156e-3, 4.7823602e+1, -0.0000018999538, -972.71173, -1.3599902, 0.0, 0.0016116615, 0.0018995574, 0.0018995574, 0.0, 0.012207031, 0.012195175 
6.1035156e-3, 4.7835797e+1, 0.000000089344326, -956.2129, 0.24020465, 0.0, 0.0015605344, 0.000060429742, 0.000060429742, 0.0, 0.012207031, 0.012195376 
6.1035156e-3, 4.7847992e+1, -0.000006316814, -963.1217, -2.5267038, 0.0, 0.0010882727, 0.0066223247, 0.0066223247, 0.0, 0.012207031, 0.012195291 
6.1035156e-3, 4.7860187e+1, -0.000010930058, -930.13654, -3.306126, 0.0, 0.0018625517, 0.011740389, 0.011740389, 0.0, 0.012207031, 0.012195692 
6.1035156e-3, 4.7872382e+1, -0.000049211383, -941.44055, 7.020274, 0.0, 0.0014012831, 0.052297708, 0.052297708, 0.0, 0.012207031, 0.0121955555 
6.1035156e-3, 4.7884578e+1, -0.0000028077925, -926.7605, 1.6907649, 0.0, 0.0012485927, 0.0030817825, 0.0030817825, 0.0, 0.012207031, 0.012195734 
6.1035156e-3, 4.7896776e+1, -0.000007636046, -933.36194, 2.7691798, 0.0, 0.0016200996, 0.008208137, 0.008208137, 0.0, 0.012207031, 0.012195653 
6.1035156e-3, 4.790897e+1, -0.0070750397, -890.4837, -84.17515, 0.0, 0.0013517962, 7.8799925, 7.8799925, 0.0, 0.012207031, 0.012196176 
6.1035156e-3, 4.7921166e+1, -0.00012971835, -893.69434, 11.3976, 0.0, 0.0013906864, 0.14520429, 0.14520429, 0.0, 0.012207031, 0.012196137 
6.1035156e-3, 4.7933364e+1, -0.000055517092, -875.8752, -7.452614, 0.0, 0.0015001696, 0.06335242, 0.06335242, 0.0, 0.012207031, 0.012196354 
6.1035156e-3, 4.794556e+1, -0.00002249517, -866.69684, 4.7478356, 0.0, 0.0017497881, 0.025985753, 0.025985753, 0.0, 0.012207031, 0.012196465 
6.1035156e-3, 4.7957757e+1, -0.0000145119175, -864.77893, 3.8152587, 0.0, 0.0010594352, 0.01681744, 0.01681744, 0.0, 0.012207031, 0.012196489 
6.1035156e-3, 4.7969952e+1, -0.00009485615, -873.2372, 9.745758, 0.0, 0.0013652594, 0.10865907, 0.10865907, 0.0, 0.012207031, 0.012196385 
6.1035156e-3, 4.798215e+1, -0.00027406492, -840.2282, -16.56509, 0.0, 0.0018994815, 0.3261798, 0.3261798, 0.0, 0.012207031, 0.012196788 
6.1035156e-3, 4.7994345e+1, -0.000054266995, -856.6572, 7.370328, 0.0, 0.0008911163, 0.063352324, 0.063352324, 0.0, 0.012207031, 0.012196587 
6.1035156e-3, 4.8006544e+1, -0.008834893, -806.6405, -94.05647, 0.0, 0.001850965, 10.813329, 10.813329, 0.0, 0.012207031, 0.0121971965 
6.1035156e-3, 4.8018742e+1, -0.00045405608, -818.15106, 21.322716, 0.0, 0.0017199996, 0.55488354, 0.55488354, 0.0, 0.012207031, 0.012197056 
6.1035156e-3, 4.8030937e+1, -0.00021923856, -800.1067, -14.81574, 0.0, 0.000875494, 0.27403292, 0.27403292, 0.0, 0.012207031, 0.012197276 
6.1035156e-3, 4.8043138e+1, 0.00000017975621, -797.7578, -0.23241223, 0.0, 0.0015351444, 0.00006788883, 0.00006788883, 0.0, 0.012207031, 0.0121973045 
6.1035156e-3, 4.8055333e+1, -0.0003542238, -794.4662, 18.83263, 0.0, 0.0016507534, 0.44581842, 0.44581842, 0.0, 0.012207031, 0.012197345 
6.1035156e-3, 4.8067528e+1, -0.008411878, -780.8326, -91.77528, 0.0, 0.0014104365, 10.633488, 10.633488, 0.0, 0.012207031, 0.01219751 
6.1035156e-3, 4.8079726e+1, -0.00013158102, -754.60565, 11.476482, 0.0, 0.0013278448, 0.17436914, 0.17436914, 0.0, 0.012207031, 0.01219783 
6.1035156e-3, 4.8091927e+1, -0.00002010372, -755.9879, -4.4789176, 0.0, 0.0016871055, 0.02651471, 0.02651471, 0.0, 0.012207031, 0.012197813 
6.1035156e-3, 4.8104122e+1, -0.00005405969, -742.8666, 7.352618, 0.0, 0.001300084, 0.07271232, 0.07271232, 0.0, 0.012207031, 0.012197973 
6.1035156e-3, 4.811632e+1, -0.0008880939, -747.17065, -29.819258, 0.0, 0.0010937635, 1.1872975, 1.1872975, 0.0, 0.012207031, 0.012197921 
6.1035156e-3, 4.8128518e+1, -0.0000023096802, -728.3932, 1.5194631, 0.0, 0.0018721805, 0.003167349, 0.003167349, 0.0, 0.012207031, 0.012198149 
6.1035156e-3, 4.8140717e+1, -0.0000003614581, -710.4367, -0.6956927, 0.0, 0.001845538, 0.0006808926, 0.0006808926, 0.0, 0.012207031, 0.012198368 
6.1035156e-3, 4.8152915e+1, -0.00000020565194, -704.5641, 0.5251245, 0.0, 0.0008220374, 0.00039117897, 0.00039117897, 0.0, 0.012207031, 0.01219844 
6.1035156e-3, 4.8165116e+1, -0.0000010473943, -702.18585, 1.0017413, 0.0, 0.0010878424, 0.001428038, 0.001428038, 0.0, 0.012207031, 0.012198469 
6.1035156e-3, 4.817731e+1, -0.000004740164, -683.6748, -2.1847808, 0.0, 0.0022870987, 0.0069769686, 0.0069769686, 0.0, 0.012207031, 0.012198694 
6.1035156e-3, 4.818951e+1, -0.0000005003784, -680.0092, 0.5664842, 0.0, 0.0011997423, 0.00047141107, 0.00047141107, 0.0, 0.012207031, 0.012198739 
6.1035156e-3, 4.820171e+1, -0.000055229502, -672.8455, 7.4338756, 0.0, 0.0011838243, 0.08206728, 0.08206728, 0.0, 0.012207031, 0.012198826 
6.1035156e-3, 4.8213908e+1, -0.00003958472, -667.9091, -6.298183, 0.0, 0.0020200752, 0.059345115, 0.059345115, 0.0, 0.012207031, 0.012198886 
6.1035156e-3, 4.822611e+1, -0.00001079712, -663.7064, 3.2826493, 0.0, 0.0008917666, 0.016224578, 0.016224578, 0.0, 0.012207031, 0.012198937 
6.1035156e-3, 4.8238307e+1, -0.0066338526, -624.1386, -81.48989, 0.0, 0.0013636191, 10.457662, 10.457662, 0.0, 0.012207031, 0.01219942 
6.1035156e-3, 4.8250508e+1, -0.00021158716, -629.04565, 14.553483, 0.0, 0.0018851034, 0.33631516, 0.33631516, 0.0, 0.012207031, 0.01219936 
6.1035156e-3, 4.8262706e+1, -0.00004969529, -621.175, -7.052609, 0.0, 0.0012495073, 0.08001291, 0.08001291, 0.0, 0.012207031, 0.012199456 
6.1035156e-3, 4.8274907e+1, -0.0000084428375, -612.8937, 2.895288, 0.0, 0.001402301, 0.01366849, 0.01366849, 0.0, 0.012207031, 0.012199556 
6.1035156e-3, 4.8287106e+1, -0.0007328666, -596.06323, -27.085533, 0.0, 0.0017284909, 1.2275234, 1.2275234, 0.0, 0.012207031, 0.012199761 
6.1035156e-3, 4.8299304e+1, -0.0000070224037, -588.66644, 2.645533, 0.0, 0.0012488557, 0.011882061, 0.011882061, 0.0, 0.012207031, 0.012199852 
6.1035156e-3, 4.8311505e+1, -0.0000058003125, -579.9379, -2.402905, 0.0, 0.000962231, 0.009950185, 0.009950185, 0.0, 0.012207031, 0.012199958 
6.1035156e-3, 4.8323703e+1, -0.000012755672, -576.0753, 3.574544, 0.0, 0.002127827, 0.022166414, 0.022166414, 0.0, 0.012207031, 0.012200005 
6.1035156e-3, 4.8335904e+1, 0.000000027745886, -557.5687, 0.24093938, 0.0, 0.0015429544, 0.00010414365, 0.00010414365, 0.0, 0.012207031, 0.012200231 
6.1035156e-3, 4.8348105e+1, -0.000011096399, -557.21655, -3.3235955, 0.0, 0.00082466204, 0.019812245, 0.019812245, 0.0, 0.012207031, 0.012200235 
6.1035156e-3, 4.8360306e+1, 0.0000001845492, -534.07446, 0.25041693, 0.0, 0.0020848485, 0.00011760007, 0.00011760007, 0.0, 0.012207031, 0.012200517 
6.1035156e-3, 4.8372504e+1, -0.00001453399, -540.821, 3.8077042, 0.0, 0.0010719567, 0.026792658, 0.026792658, 0.0, 0.012207031, 0.012200435 
6.1035156e-3, 4.8384705e+1, 0.000000105058135, -519.5134, 0.15331373, 0.0, 0.0010673609, 0.000045349505, 0.000045349505, 0.0, 0.012207031, 0.0122006945 
6.1035156e-3, 4.839691e+1, -0.000002457747, -521.48553, -1.5627723, 0.0, 0.0022057137, 0.0046807695, 0.0046807695, 0.0, 0.012207031, 0.01220067 
6.1035156e-3, 4.8409107e+1, -0.00019110835, -497.8967, -13.828331, 0.0, 0.001064014, 0.38357434, 0.38357434, 0.0, 0.012207031, 0.012200958 
6.1035156e-3, 4.842131e+1, -0.0000010003134, -487.79257, 0.961202, 0.0, 0.0015124702, 0.0018930545, 0.0018930545, 0.0, 0.012207031, 0.012201081 
6.1035156e-3, 4.843351e+1, -0.0000006565461, -483.1467, -0.8211967, 0.0, 0.0015750327, 0.0013951141, 0.0013951141, 0.0, 0.012207031, 0.012201138 
6.1035156e-3, 4.844571e+1, -0.000026238582, -480.7429, 5.122254, 0.0, 0.0012011789, 0.05454453, 0.05454453, 0.0, 0.012207031, 0.012201167 
6.1035156e-3, 4.8457912e+1, -0.00013323686, -458.5921, -11.544177, 0.0, 0.0016873351, 0.29028544, 0.29028544, 0.0, 0.012207031, 0.012201437 
6.1035156e-3, 4.8470116e+1, -0.0000054691623, -460.1843, 2.335992, 0.0, 0.0012035306, 0.011852211, 0.011852211, 0.0, 0.012207031, 0.012201417 
6.1035156e-3, 4.8482314e+1, -0.0000008270776, -437.62384, -0.9076238, 0.0, 0.0017264596, 0.00188156, 0.00188156, 0.0, 0.012207031, 0.012201693 
6.1035156e-3, 4.8494518e+1, -0.0000056235504, -439.679, -2.3691256, 0.0, 0.0012572119, 0.012759584, 0.012759584, 0.0, 0.012207031, 0.012201668 
6.1035156e-3, 4.850672e+1, -0.000013569578, -415.0341, 3.680917, 0.0, 0.0013298537, 0.03262974, 0.03262974, 0.0, 0.012207031, 0.012201968 
6.1035156e-3, 4.851892e+1, -0.0000010499313, -419.76132, 1.0253835, 0.0, 0.0018914696, 0.002503719, 0.002503719, 0.0, 0.012207031, 0.012201911 
6.1035156e-3, 4.8531124e+1, -0.00002473173, -414.63968, 4.973478, 0.0, 0.0006656232, 0.05962205, 0.05962205, 0.0, 0.012207031, 0.012201973 
6.1035156e-3, 4.8543322e+1, -0.000048863887, -398.63535, -6.989219, 0.0, 0.0021160375, 0.122454524, 0.122454524, 0.0, 0.012207031, 0.012202168 
6.1035156e-3, 4.8555526e+1, -0.000035391822, -397.11356, 5.945189, 0.0, 0.0017437804, 0.08895013, 0.08895013, 0.0, 0.012207031, 0.0122021865 
6.1035156e-3, 4.856773e+1, -0.0129881585, -371.00037, -113.998726, 0.0, 0.0005599931, 32.217045, 32.217045, 0.0, 0.012207031, 0.012202505 
6.1035156e-3, 4.8579934e+1, -0.00023323631, -357.3422, 15.275275, 0.0, 0.0022062168, 0.65154916, 0.65154916, 0.0, 0.012207031, 0.012202672 
6.1035156e-3, 4.8592135e+1, -0.00014219484, -360.9407, -11.927372, 0.0, 0.0011273883, 0.39357138, 0.39357138, 0.0, 0.012207031, 0.012202628 
6.1035156e-3, 4.8604336e+1, -0.000037062444, -330.45236, 6.0881047, 0.0, 0.00079800654, 0.11208938, 0.11208938, 0.0, 0.012207031, 0.012203 
6.1035156e-3, 4.861654e+1, -0.0004856708, -343.992, -22.043808, 0.0, 0.002432608, 1.4063809, 1.4063809, 0.0, 0.012207031, 0.012202835 
6.1035156e-3, 4.8628742e+1, -0.000007502868, -330.85916, 2.734488, 0.0, 0.0013300868, 0.022590974, 0.022590974, 0.0, 0.012207031, 0.012202995 
6.1035156e-3, 4.8640946e+1, -0.00006373157, -315.70428, -7.984042, 0.0, 0.0010485125, 0.20172074, 0.20172074, 0.0, 0.012207031, 0.012203179 
6.1035156e-3, 4.865315e+1, -0.000053632313, -316.17624, 7.3226576, 0.0, 0.0016768456, 0.16944863, 0.16944863, 0.0, 0.012207031, 0.012203174 
6.1035156e-3, 4.866535e+1, -0.005528516, -292.03317, -74.36996, 0.0, 0.0014206347, 17.843172, 17.843172, 0.0, 0.012207031, 0.012203468 
6.1035156e-3, 4.8677555e+1, -0.000019849429, -293.13196, 4.454124, 0.0, 0.0012495079, 0.06764471, 0.06764471, 0.0, 0.012207031, 0.012203455 
6.1035156e-3, 4.868976e+1, -0.00008247246, -279.98907, -9.081242, 0.0, 0.0016794555, 0.29415187, 0.29415187, 0.0, 0.012207031, 0.012203615 
6.1035156e-3, 4.8701966e+1, -0.00003825452, -245.5521, 6.1838098, 0.0, 0.0015328833, 0.1555918, 0.1555918, 0.0, 0.012207031, 0.012204035 
6.1035156e-3, 4.871417e+1, -0.000052688134, -263.43457, 7.2613115, 0.0, 0.0011687401, 0.19994633, 0.19994633, 0.0, 0.012207031, 0.012203816 
6.1035156e-3, 4.872637e+1, -0.0000212219, -257.228, -4.6130605, 0.0, 0.001690156, 0.08268163, 0.08268163, 0.0, 0.012207031, 0.012203893 
6.1035156e-3, 4.8738575e+1, -0.00022431115, -235.20424, -14.97881, 0.0, 0.0014154568, 0.9498535, 0.9498535, 0.0, 0.012207031, 0.012204161 
6.1035156e-3, 4.875078e+1, -0.000007875449, -227.70532, -2.8051746, 0.0, 0.0009685122, 0.034544725, 0.034544725, 0.0, 0.012207031, 0.012204252 
6.1035156e-3, 4.8762986e+1, -0.00008317876, -226.75116, 9.116884, 0.0, 0.0020236163, 0.36588484, 0.36588484, 0.0, 0.012207031, 0.012204264 
6.1035156e-3, 4.8775187e+1, -0.00000024813363, -212.50356, 0.5037359, 0.0, 0.0015453323, 0.0011938422, 0.0011938422, 0.0, 0.012207031, 0.012204438 
6.1035156e-3, 4.878739e+1, -0.0011295857, -204.88885, -33.612125, 0.0, 0.0009023452, 5.372075, 5.372075, 0.0, 0.012207031, 0.012204531 
6.1035156e-3, 4.8799598e+1, -0.0000871862, -184.63002, 9.336277, 0.0, 0.0020016339, 0.4708241, 0.4708241, 0.0, 0.012207031, 0.012204778 
6.1035156e-3, 4.8811802e+1, -0.000026072827, -182.75053, -5.1049247, 0.0, 0.0010847294, 0.14246303, 0.14246303, 0.0, 0.012207031, 0.012204801 
6.1035156e-3, 4.882401e+1, -0.000042752894, -178.42747, 6.538352, 0.0, 0.0012715015, 0.23922987, 0.23922987, 0.0, 0.012207031, 0.012204854 
6.1035156e-3, 4.8836213e+1, -0.006333568, -158.50748, -79.58945, 0.0, 0.0020242222, 33.060204, 33.060204, 0.0, 0.012207031, 0.012205097 
6.1035156e-3, 4.8848414e+1, -0.0001295301, -149.17387, 11.382853, 0.0, 0.00074791367, 0.8634511, 0.8634511, 0.0, 0.012207031, 0.0122052105 
6.1035156e-3, 4.886062e+1, -0.00010035322, -141.09122, -10.016759, 0.0, 0.0019996811, 0.70749044, 0.70749044, 0.0, 0.012207031, 0.012205309 
6.1035156e-3, 4.8872828e+1, -0.00000066595504, -122.558846, 0.7965329, 0.0, 0.0015152406, 0.005175933, 0.005175933, 0.0, 0.012207031, 0.012205536 
6.1035156e-3, 4.8885033e+1, -0.00006714972, -116.956024, 8.192117, 0.0, 0.00094445905, 0.5709573, 0.5709573, 0.0, 0.012207031, 0.0122056035 
6.1035156e-3, 4.889724e+1, -0.00004184687, -120.554924, -6.46476, 0.0, 0.002033502, 0.3456399, 0.3456399, 0.0, 0.012207031, 0.01220556 
6.1035156e-3, 4.8909444e+1, -0.0000028737372, -111.35912, 1.7000479, 0.0, 0.0009183189, 0.025944613, 0.025944613, 0.0, 0.012207031, 0.012205672 
6.1035156e-3, 4.892165e+1, -0.000020905516, -81.02949, -4.5705323, 0.0, 0.001692462, 0.2569686, 0.2569686, 0.0, 0.012207031, 0.012206042 
6.1035156e-3, 4.8933858e+1, -0.0000018422448, -92.09091, 1.3796761, 0.0, 0.0014118546, 0.020663379, 0.020663379, 0.0, 0.012207031, 0.012205907 
6.1035156e-3, 4.8946065e+1, -0.000035602814, -59.507156, 5.966467, 0.0, 0.0014166239, 0.59229475, 0.59229475, 0.0, 0.012207031, 0.012206305 
6.1035156e-3, 4.8958266e+1, -0.000029543085, -69.90665, -5.427137, 0.0, 0.0016234376, 0.41879207, 0.41879207, 0.0, 0.012207031, 0.012206178 
6.1035156e-3, 4.8970473e+1, -0.000113815804, -61.909588, 10.6604395, 0.0, 0.0009854481, 1.7841277, 1.7841277, 0.0, 0.012207031, 0.012206276 
6.1035156e-3, 4.898268e+1, -0.00006779399, -38.13039, -8.219173, 0.0, 0.0020512843, 1.696158, 1.696158, 0.0, 0.012207031, 0.012206566 
6.1035156e-3, 4.8994887e+1, -0.000027637154, -64.12147, 5.2455, 0.0, 0.0009744973, 0.42625037, 0.42625037, 0.0, 0.012207031, 0.012206249 
6.1035156e-3, 4.9007094e+1, -0.007824244, -4.7452326, -88.452644, 0.0, 0.0017657749, 86.10783, 86.10783, 0.0, 0.012207031, 0.0122069735 
6.1035156e-3, 4.90193e+1, -0.00017274439, -27.23263, 13.116228, 0.0, 0.0013233155, 5.2896066, 5.2896066, 0.0, 0.012207031, 0.012206699 
6.1035156e-3, 4.9031508e+1, -0.000023670393, -8.214077, -4.81082, 0.0, 0.0014474669, 2.2184267, 2.2184267, 0.0, 0.012207031, 0.012206931 
1.8310547e-2, 5.8730507e-3, -0.00000000009064901, -40001.64, -0.0019042345, 0.0, 0.00000035678943, 0.000000000007275958, 0.000000000007275958, 0.0, 0.012207031, 0.011746096 
1.8310547e-2, 1.7619151e-2, -0.0000000011042848, -40001.867, -0.005712706, 0.0, 0.0000010703683, -0.0000000002910383, -0.0000000002910383, 0.0, 0.012207031, 0.011746094 
1.8310547e-2, 2.9365358e-2, 0.0000000007953373, -39982.17, -0.0093882475, 0.0, 0.0000020118, 0.0000000029976945, 0.0000000029976945, 0.0, 0.012207031, 0.011746308 
1.8310547e-2, 4.1111675e-2, -0.000000021129786, -39982.22, -0.012821642, 0.0, 0.000002527477, -0.000000017018465, -0.000000017018465, 0.0, 0.012207031, 0.011746308 
1.8310547e-2, 5.2858096e-2, -0.000000005045988, -39962.58, -0.016030557, 0.0, 0.0000035165194, 0.000000001382432, 0.000000001382432, 0.0, 0.012207031, 0.011746521 
1.8310547e-2, 6.460463e-2, -0.00000001348637, -39962.695, -0.018767493, 0.0, 0.0000041589724, -0.0000000046784407, -0.0000000046784407, 0.0, 0.012207031, 0.01174652 
1.8310547e-2, 7.635126e-2, -0.000000046387107, -39942.996, -0.021258105, 0.0, 0.000005033692, -0.000000035070116, -0.000000035070116, 0.0, 0.012207031, 0.011746734 
1.8310547e-2, 8.8097996e-2, 0.0000000044333146, -39943.164, -0.02307825, 0.0, 0.000005605824, 0.000000017767888, 0.000000017767888, 0.0, 0.012207031, 0.0117467325 
1.8310547e-2, 9.984485e-2, 0.0000000095959525, -39923.41, -0.024641113, 0.0, 0.0000065742784, 0.00000002480374, 0.00000002480374, 0.0, 0.012207031, 0.011746948 
1.8310547e-2, 1.115918e-1, -0.000000006363972, -39923.633, -0.025408348, 0.0, 0.000007122565, 0.000000009807991, 0.000000009807991, 0.0, 0.012207031, 0.011746945 
1.8310547e-2, 1.2333886e-1, 0.000000041992337, -39903.824, -0.025926907, 0.0, 0.000007904737, 0.000000058833393, 0.000000058833393, 0.0, 0.012207031, 0.011747161 
1.8310547e-2, 1.3508603e-1, -0.000000013985276, -39904.098, -0.025588026, 0.0, 0.000008374753, 0.0000000024228939, 0.0000000024228939, 0.0, 0.012207031, 0.011747158 
1.8310547e-2, 1.468333e-1, -0.000000014782598, -39884.24, -0.025028046, 0.0, 0.000009103767, 0.0000000009240466, 0.0000000009240466, 0.0, 0.012207031, 0.011747374 
1.8310547e-2, 1.5858068e-1, 0.000000009584037, -39884.566, -0.02368586, 0.0, 0.0000094449015, 0.000000023654138, 0.000000023654138, 0.0, 0.012207031, 0.0117473705 
1.8310547e-2, 1.7032817e-1, 0.000000019099295, -39864.652, -0.02212533, 0.0, 0.00001002355, 0.000000031381205, 0.000000031381205, 0.0, 0.012207031, 0.0117475875 
1.8310547e-2, 1.8207575e-1, -0.0000000018006163, -39865.04, -0.01984218, 0.0, 0.000010423446, 0.000000008076313, 0.000000008076313, 0.0, 0.012207031, 0.011747583 
1.8310547e-2, 1.9382346e-1, -0.000000051867413, -39845.055, -0.017431524, 0.0, 0.000010825921, -0.0000000442451, -0.0000000442451, 0.0, 0.012207031, 0.011747801 
1.8310547e-2, 2.0557126e-1, -0.0000000033141585, -39845.51, -0.014811856, 0.0, 0.000011208661, 0.0000000021900632, 0.0000000021900632, 0.0, 0.012207031, 0.011747795 
1.8310547e-2, 2.1731918e-1, 0.000000019838003, -39825.473, -0.011940666, 0.0, 0.000011664211, 0.000000023421308, 0.000000023421308, 0.0, 0.012207031, 0.011748014 
1.8310547e-2, 2.2906719e-1, -0.00000002225281, -39825.992, -0.008133355, 0.0, 0.0000119947435, -0.00000002059096, -0.00000002059096, 0.0, 0.012207031, 0.011748008 
1.8310547e-2, 2.4081533e-1, -0.000000015286778, -39805.87, -0.0045537623, 0.0, 0.000012614957, -0.000000014770194, -0.000000014770194, 0.0, 0.012207031, 0.011748227 
1.8310547e-2, 2.5256354e-1, 0.000000011831303, -39806.46, -0.003346276, 0.0, 0.000012938128, 0.000000012114469, 0.000000012114469, 0.0, 0.012207031, 0.011748221 
1.8310547e-2, 2.6431188e-1, -0.0000000031662155, -39786.297, -0.0014328803, 0.0, 0.000013519819, -0.0000000031141099, -0.0000000031141099, 0.0, 0.012207031, 0.011748441 
1.8310547e-2, 2.7606034e-1, 0.000000015296346, -39786.92, 0.0065679085, 0.0, 0.0000141732335, 0.00000001637818, 0.00000001637818, 0.0, 0.012207031, 0.011748434 
1.8310547e-2, 2.878089e-1, -0.000000018348208, -39766.715, 0.013038564, 0.0, 0.000015195631, -0.000000014071702, -0.000000014071702, 0.0, 0.012207031, 0.011748654 
1.8310547e-2, 2.9955754e-1, 0.000000015440152, -39767.42, 0.0022966065, 0.0, 0.000015271487, 0.00000001557055, 0.00000001557055, 0.0, 0.012207031, 0.011748646 
1.8310547e-2, 3.113063e-1, 0.000000002998414, -39747.117, -0.00017059245, 0.0, 0.000016083235, 0.0000000029976945, 0.0000000029976945, 0.0, 0.012207031, 0.011748867 
1.8310547e-2, 3.2305518e-1, -0.000000021707194, -39747.797, 0.031264, 0.0, 0.000017303453, 0.0000000028885552, 0.0000000028885552, 0.0, 0.012207031, 0.01174886 
1.8310547e-2, 3.3480415e-1, -0.000000025276401, -39727.465, 0.082607545, 0.0, 0.000018616282, 0.00000014649413, 0.00000014649413, 0.0, 0.012207031, 0.011749081 
1.8310547e-2, 3.4655324e-1, -0.00000022067894, -39728.26, 0.5100023, 0.0, 0.000018089671, 0.0000063263506, 0.0000063263506, 0.0, 0.012207031, 0.011749073 
1.8310547e-2, 3.5830244e-1, -0.0000015835848, -39708.004, 1.2628578, 0.0, 0.00002074724, 0.00003857985, 0.00003857985, 0.0, 0.012207031, 0.011749293 
1.8310547e-2, 3.700517e-1, -0.00000010535966, -39708.777, 0.25404432, 0.0, 0.000020254034, 0.000001519933, 0.000001519933, 0.0, 0.012207031, 0.011749284 
1.8310547e-2, 3.8180113e-1, 0.000000013064934, -39688.42, 0.033811893, 0.0, 0.000022255572, 0.000000041873136, 0.000000041873136, 0.0, 0.012207031, 0.011749506 
1.8310547e-2, 3.9355063e-1, -0.000000009972284, -39689.188, 0.014816879, 0.0, 0.000022566914, -0.00000000444561, -0.00000000444561, 0.0, 0.012207031, 0.011749499 
1.8310547e-2, 4.0530026e-1, -0.000000004193725, -39668.844, 0.008651556, 0.0, 0.000024072195, -0.0000000023064786, -0.0000000023064786, 0.0, 0.012207031, 0.011749719 
1.8310547e-2, 4.1704997e-1, 0.00000003618406, -39669.605, 0.0049212617, 0.0, 0.000024532988, 0.000000036794518, 0.000000036794518, 0.0, 0.012207031, 0.011749712 
1.8310547e-2, 4.287998e-1, 0.0000000199991, -39649.31, -0.0034544691, 0.0, 0.00002591074, 0.000000020299922, 0.000000020299922, 0.0, 0.012207031, 0.011749933 
1.8310547e-2, 4.4054973e-1, -0.0000000107334115, -39650.02, -0.0026690974, 0.0, 0.000026319829, -0.0000000105501385, -0.0000000105501385, 0.0, 0.012207031, 0.011749925 
1.8310547e-2, 4.5229977e-1, -0.000000007683456, -39629.754, 0.0007286503, 0.0, 0.000027539294, -0.000000007668859, -0.000000007668859, 0.0, 0.012207031, 0.011750146 
1.8310547e-2, 4.6404994e-1, 0.000000032880877, -39630.484, -0.010884904, 0.0, 0.000027822252, 0.00000003587047, 0.00000003587047, 0.0, 0.012207031, 0.011750137 
1.8310547e-2, 4.758002e-1, -0.000000006554747, -39610.22, 0.04840335, 0.0, 0.00002884582, 0.000000052597898, 0.000000052597898, 0.0, 0.012207031, 0.011750358 
1.8310547e-2, 4.8755056e-1, -0.000000049262226, -39610.9, 0.15271962, 0.0, 0.000029047133, 0.00000053954864, 0.00000053954864, 0.0, 0.012207031, 0.011750351 
1.8310547e-2, 4.9930102e-1, 0.000000018804407, -39590.652, -0.036637004, 0.0, 0.000029683524, 0.000000052707037, 0.000000052707037, 0.0, 0.012207031, 0.011750571 
1.8310547e-2, 5.110516e-1, -0.0000000026550893, -39591.293, -0.025104562, 0.0, 0.000029785948, 0.000000013264071, 0.000000013264071, 0.0, 0.012207031, 0.011750565 
1.8310547e-2, 5.228023e-1, -0.000000020744194, -39571.133, -0.012431745, 0.0, 0.000030386002, -0.000000016836566, -0.000000016836566, 0.0, 0.012207031, 0.011750785 
1.8310547e-2, 5.3455305e-1, 0.000000019196213, -39571.74, -0.015487827, 0.0, 0.00003031934, 0.000000025254849, 0.000000025254849, 0.0, 0.012207031, 0.011750777 
1.8310547e-2, 5.463039e-1, 0.00000003915877, -39551.617, -0.03775341, 0.0, 0.000030387244, 0.00000007519702, 0.00000007519702, 0.0, 0.012207031, 0.011750997 
1.8310547e-2, 5.58055e-1, 0.000000046753073, -39552.125, -0.035328906, 0.0, 0.000030400668, 0.00000007831113, 0.00000007831113, 0.0, 0.012207031, 0.011750991 
1.8310547e-2, 5.6980604e-1, 0.000000006513063, -39532.04, -0.008138012, 0.0, 0.00003054236, 0.000000008185452, 0.000000008185452, 0.0, 0.012207031, 0.01175121 
1.8310547e-2, 5.815573e-1, 0.0000000006857092, -39532.633, -0.024256777, 0.0, 0.000030396179, 0.000000015563273, 0.000000015563273, 0.0, 0.012207031, 0.011751204 
1.8310547e-2, 5.933086e-1, -0.00000026737766, -39512.547, 0.46260226, 0.0, 0.000030270021, 0.0000051486495, 0.0000051486495, 0.0, 0.012207031, 0.011751423 
1.8310547e-2, 6.0506004e-1, -0.00000013789396, -39513.027, 0.44544363, 0.0, 0.000030207006, 0.000004883739, 0.000004883739, 0.0, 0.012207031, 0.011751417 
1.8310547e-2, 6.168116e-1, 0.00000002411648, -39493.176, -0.06497319, 0.0, 0.000030317735, 0.00000013101089, 0.00000013101089, 0.0, 0.012207031, 0.011751634 
1.8310547e-2, 6.285632e-1, 0.0000000014854189, -39493.7, -0.030190475, 0.0, 0.000030215278, 0.000000024563633, 0.000000024563633, 0.0, 0.012207031, 0.0117516285 
1.8310547e-2, 6.4031494e-1, -0.000000041024173, -39474.152, -0.0031890587, 0.0, 0.000030423767, -0.000000040759915, -0.000000040759915, 0.0, 0.012207031, 0.011751841 
1.8310547e-2, 6.5206677e-1, -0.000000008178265, -39474.633, -0.0013767846, 0.0, 0.000030090432, -0.000000008134521, -0.000000008134521, 0.0, 0.012207031, 0.011751836 
1.8310547e-2, 6.638187e-1, -0.000000023866036, -39454.66, -0.023166407, 0.0, 0.0000309117, -0.000000010266376, -0.000000010266376, 0.0, 0.012207031, 0.011752054 
1.8310547e-2, 6.755708e-1, -0.000000020242924, -39455.01, 0.19336383, 0.0, 0.000031230407, 0.0000009274081, 0.0000009274081, 0.0, 0.012207031, 0.011752049 
1.8310547e-2, 6.87323e-1, 0.000000015978049, -39435.086, -0.009403389, 0.0, 0.000031740616, 0.000000018226274, 0.000000018226274, 0.0, 0.012207031, 0.011752267 
1.8310547e-2, 6.990752e-1, -0.0000000023753168, -39435.453, -0.012360864, 0.0, 0.00003115316, 0.0000000014988473, 0.0000000014988473, 0.0, 0.012207031, 0.011752263 
1.8310547e-2, 7.108276e-1, 0.000000033780456, -39415.52, -0.0005336592, 0.0, 0.000033198947, 0.000000033789547, 0.000000033789547, 0.0, 0.012207031, 0.011752481 
1.8310547e-2, 7.225801e-1, -0.00000010079321, -39415.855, 0.29894024, 0.0, 0.00003432913, 0.0000021664455, 0.0000021664455, 0.0, 0.012207031, 0.011752477 
1.8310547e-2, 7.343327e-1, 0.0000000013215278, -39396.09, 0.0050166505, 0.0, 0.000035043784, 0.0000000019645086, 0.0000000019645086, 0.0, 0.012207031, 0.011752692 
1.8310547e-2, 7.460854e-1, 0.000000043529358, -39396.316, -0.060380403, 0.0, 0.00003411229, 0.00000013607496, 0.00000013607496, 0.0, 0.012207031, 0.011752689 
1.8310547e-2, 7.578382e-1, 0.0000000372461, -39376.293, 0.025570098, 0.0, 0.000037645852, 0.00000005385664, 0.00000005385664, 0.0, 0.012207031, 0.011752908 
1.8310547e-2, 7.695911e-1, 0.00000001538614, -39376.71, 0.14895645, 0.0, 0.000039256844, 0.0000005788752, 0.0000005788752, 0.0, 0.012207031, 0.011752903 
1.8310547e-2, 7.813441e-1, 0.000000016196244, -39357.152, 0.030467479, 0.0, 0.000040271214, 0.000000039784936, 0.000000039784936, 0.0, 0.012207031, 0.011753117 
1.8310547e-2, 7.9309726e-1, -0.00000004097998, -39357.113, -0.060306907, 0.0, 0.000039708462, 0.000000051433744, 0.000000051433744, 0.0, 0.012207031, 0.011753117 
1.8310547e-2, 8.0485046e-1, -0.0000000024026097, -39337.246, 0.032775994, 0.0, 0.00004396, 0.000000024905603, 0.000000024905603, 0.0, 0.012207031, 0.011753334 
1.8310547e-2, 8.1660384e-1, -0.000000025871211, -39337.746, 0.028523624, 0.0, 0.00004469298, -0.0000000051950337, -0.0000000051950337, 0.0, 0.012207031, 0.011753328 
1.8310547e-2, 8.283573e-1, -0.0000005871181, -39318.215, 0.723468, 0.0, 0.000045852656, 0.00001272493, 0.00001272493, 0.0, 0.012207031, 0.011753541 
1.8310547e-2, 8.4011084e-1, -0.0000063421185, -39317.99, 2.3886085, 0.0, 0.00004839167, 0.00013876833, 0.00013876833, 0.0, 0.012207031, 0.011753543 
1.8310547e-2, 8.5186446e-1, -0.00000003108679, -39297.977, -0.22430494, 0.0, 0.00004947197, 0.0000012491946, 0.0000012491946, 0.0, 0.012207031, 0.011753762 
1.8310547e-2, 8.6361825e-1, -0.00000007097074, -39298.27, -0.03979595, 0.0, 0.000050505118, -0.00000003066816, -0.00000003066816, 0.0, 0.012207031, 0.011753758 
1.8310547e-2, 8.753721e-1, -0.0000000016206827, -39278.805, -0.0069142813, 0.0, 0.000052600568, -0.00000000040017767, -0.00000000040017767, 0.0, 0.012207031, 0.011753971 
1.8310547e-2, 8.871261e-1, -0.000000013779005, -39278.813, 0.00013334608, 0.0, 0.000053212036, -0.000000013780664, -0.000000013780664, 0.0, 0.012207031, 0.011753971 
1.8310547e-2, 8.988802e-1, 0.000000038348105, -39259.227, 0.0093721235, 0.0, 0.000055241937, 0.000000040592568, 0.000000040592568, 0.0, 0.012207031, 0.011754184 
1.8310547e-2, 9.106344e-1, -0.00000001885791, -39259.273, -0.004783846, 0.0, 0.00005494365, -0.000000018284481, -0.000000018284481, 0.0, 0.012207031, 0.011754184 
1.8310547e-2, 9.223887e-1, 0.000000017980787, -39239.668, -0.010430835, 0.0, 0.000056117482, 0.000000020751031, 0.000000020751031, 0.0, 0.012207031, 0.011754397 
1.8310547e-2, 9.3414307e-1, -0.000000026150346, -39239.703, -0.0011796135, 0.0, 0.00005675978, -0.000000026113412, -0.000000026113412, 0.0, 0.012207031, 0.011754397 
1.8310547e-2, 9.458976e-1, 0.000000031143177, -39220.15, 0.001998929, 0.0, 0.000058010017, 0.000000031242962, 0.000000031242962, 0.0, 0.012207031, 0.011754611 
1.8310547e-2, 9.576522e-1, -0.000000006329853, -39220.184, -0.024971511, 0.0, 0.000056639125, 0.000000009567884, 0.000000009567884, 0.0, 0.012207031, 0.011754611 
1.8310547e-2, 9.694069e-1, 0.000000023062556, -39200.535, -0.04304494, 0.0, 0.00005647594, 0.000000070329406, 0.000000070329406, 0.0, 0.012207031, 0.011754825 
1.8310547e-2, 9.811618e-1, -0.000000010339848, -39200.555, -0.001756919, 0.0, 0.00005729531, -0.000000010266376, -0.000000010266376, 0.0, 0.012207031, 0.011754825 
1.8310547e-2, 9.929167e-1, -0.00000003346235, -39180.99, 0.027155118, 0.0, 0.00005810173, -0.000000014639227, -0.000000014639227, 0.0, 0.012207031, 0.011755038 
1.8310547e-2, 1.0046717e+0, -0.00000000029419595, -39181.125, -0.04389575, 0.0, 0.00005545604, 0.00000004888716, 0.00000004888716, 0.0, 0.012207031, 0.011755036 
1.8310547e-2, 1.0164269e+0, -0.00000001497185, -39161.414, -0.09128999, 0.0, 0.000054953933, 0.00000019783329, 0.00000019783329, 0.0, 0.012207031, 0.011755251 
1.8310547e-2, 1.0281821e+0, 0.000000015708693, -39161.344, 0.00728205, 0.0, 0.000055294313, 0.000000017069397, 0.000000017069397, 0.0, 0.012207031, 0.011755252 
1.8310547e-2, 1.0399375e+0, 0.000000031225987, -39141.926, 0.061094537, 0.0, 0.00005593068, 0.00000012658711, 0.00000012658711, 0.0, 0.012207031, 0.011755464 
1.8310547e-2, 1.05169296e+0, -0.000000015727927, -39142.02, -0.050153904, 0.0, 0.00005283106, 0.000000048530637, 0.000000048530637, 0.0, 0.012207031, 0.011755463 
1.8310547e-2, 1.0634486e+0, -0.000000011806237, -39122.258, -0.06836973, 0.0, 0.00005348926, 0.0000001076769, 0.0000001076769, 0.0, 0.012207031, 0.011755679 
1.8310547e-2, 1.07520424e+0, 0.000000058382703, -39122.293, 0.024728334, 0.0, 0.000052541327, 0.00000007401104, 0.00000007401104, 0.0, 0.012207031, 0.011755678 
1.8310547e-2, 1.08696006e+0, -0.000000028497684, -39102.91, -0.03074567, 0.0, 0.000052712043, -0.000000004321919, -0.000000004321919, 0.0, 0.012207031, 0.011755889 
1.8310547e-2, 1.0987159e+0, 0.000000018081424, -39102.625, -0.05087451, 0.0, 0.000050989514, 0.00000008427742, 0.00000008427742, 0.0, 0.012207031, 0.011755893 
1.8310547e-2, 1.1104719e+0, 0.000000007296182, -39083.332, 0.024544563, 0.0, 0.00005307622, 0.000000022708264, 0.000000022708264, 0.0, 0.012207031, 0.0117561035 
1.8310547e-2, 1.12222806e+0, -0.000000049236473, -39083.508, -0.15973584, 0.0, 0.000050675604, 0.00000060360617, 0.00000060360617, 0.0, 0.012207031, 0.011756102 
1.8310547e-2, 1.1339842e+0, -0.00000791676, -39063.7, 2.606614, 0.0, 0.00005287571, 0.00016601547, 0.00016601547, 0.0, 0.012207031, 0.011756318 
1.8310547e-2, 1.1457406e+0, -0.00000009504949, -39063.38, 0.3034225, 0.0, 0.000051081115, 0.0000022617605, 0.0000022617605, 0.0, 0.012207031, 0.0117563205 
1.8310547e-2, 1.157497e+0, -0.000000041510294, -39044.13, 0.10421625, 0.0, 0.00005460987, 0.00000023666507, 0.00000023666507, 0.0, 0.012207031, 0.011756531 
1.8310547e-2, 1.1692536e+0, 0.000000008369964, -39043.957, 0.014758276, 0.0, 0.00005339744, 0.000000013948011, 0.000000013948011, 0.0, 0.012207031, 0.011756533 
1.8310547e-2, 1.1810102e+0, 0.000000013189404, -39024.754, -0.013344096, 0.0, 0.000055354936, 0.00000001774606, 0.00000001774606, 0.0, 0.012207031, 0.011756742 
1.8310547e-2, 1.1927669e+0, 0.00000001954712, -39024.336, -0.0077726366, 0.0, 0.000054972767, 0.000000021100277, 0.000000021100277, 0.0, 0.012207031, 0.011756747 
1.8310547e-2, 1.2045238e+0, 0.0000000007917544, -39005.164, 0.028694933, 0.0, 0.000059628634, 0.000000021907908, 0.000000021907908, 0.0, 0.012207031, 0.011756957 
1.8310547e-2, 1.2162808e+0, 0.000000014968768, -39004.84, 0.030591741, 0.0, 0.000059536353, 0.000000038962753, 0.000000038962753, 0.0, 0.012207031, 0.011756959 
1.8310547e-2, 1.22803785e+0, 0.000000004936225, -38985.723, -0.027896944, 0.0, 0.00006104041, 0.000000024898327, 0.000000024898327, 0.0, 0.012207031, 0.011757168 
1.8310547e-2, 1.2397951e+0, -0.000000021959682, -38985.156, -0.036317572, 0.0, 0.000061782004, 0.000000011874363, 0.000000011874363, 0.0, 0.012207031, 0.0117571745 
1.8310547e-2, 1.2515524e+0, 0.000000014847636, -38966.332, 0.04297553, 0.0, 0.00006680984, 0.00000006224582, 0.00000006224582, 0.0, 0.012207031, 0.01175738 
1.8310547e-2, 1.2633097e+0, -0.00000002832221, -38965.97, 0.04732823, 0.0, 0.00006744764, 0.000000029162038, 0.000000029162038, 0.0, 0.012207031, 0.011757384 
1.8310547e-2, 1.2750672e+0, 0.000000012076096, -38947.39, -0.04947449, 0.0, 0.000068806214, 0.000000074920536, 0.000000074920536, 0.0, 0.012207031, 0.011757587 
1.8310547e-2, 1.2868248e+0, -0.0000000098989075, -38946.66, -0.04774919, 0.0, 0.000070437425, 0.000000048639777, 0.000000048639777, 0.0, 0.012207031, 0.0117575945 
1.8310547e-2, 1.2985826e+0, -0.000000006162278, -38927.773, 0.025459744, 0.0, 0.00007416787, 0.000000010491931, 0.000000010491931, 0.0, 0.012207031, 0.011757801 
1.8310547e-2, 1.3103403e+0, -0.000000007584568, -38927.19, -0.010334208, 0.0, 0.00007469213, -0.000000004838512, -0.000000004838512, 0.0, 0.012207031, 0.011757807 
1.8310547e-2, 1.3220982e+0, -0.00000001689142, -38908.227, -0.029309113, 0.0, 0.00007672881, 0.000000005180482, 0.000000005180482, 0.0, 0.012207031, 0.011758015 
1.8310547e-2, 1.3338563e+0, -0.00000007233334, -38907.523, 0.027041346, 0.0, 0.000078510435, -0.000000053536496, -0.000000053536496, 0.0, 0.012207031, 0.011758022 
1.8310547e-2, 1.3456145e+0, -0.0000000042875863, -38888.84, -0.037587576, 0.0, 0.00007987542, 0.000000032050593, 0.000000032050593, 0.0, 0.012207031, 0.011758226 
1.8310547e-2, 1.3573727e+0, -0.00000001803724, -38887.88, -0.07246292, 0.0, 0.000080357946, 0.00000011699012, 0.00000011699012, 0.0, 0.012207031, 0.011758236 
1.8310547e-2, 1.3691309e+0, -0.00000000049419036, -38869.215, -0.011648534, 0.0, 0.00008203732, 0.0000000029904186, 0.0000000029904186, 0.0, 0.012207031, 0.01175844 
1.8310547e-2, 1.3808894e+0, -0.000000034348595, -38868.703, -0.16624291, 0.0, 0.00008313658, 0.0000006766786, 0.0000006766786, 0.0, 0.012207031, 0.011758446 
1.8310547e-2, 1.3926479e+0, -0.00000078038465, -38849.547, 0.88988286, 0.0, 0.00008340525, 0.000019603161, 0.000019603161, 0.0, 0.012207031, 0.011758655 
1.8310547e-2, 1.4044067e+0, -0.00000000978536, -38848.664, -0.05373606, 0.0, 0.00008241069, 0.000000064537744, 0.000000064537744, 0.0, 0.012207031, 0.011758665 
1.8310547e-2, 1.4161655e+0, -0.00000006969024, -38830.0, -0.04928086, 0.0, 0.00008340943, -0.0000000071449904, -0.0000000071449904, 0.0, 0.012207031, 0.011758869 
1.8310547e-2, 1.4279243e+0, -0.00000001694327, -38829.246, -0.013380841, 0.0, 0.000084291576, -0.000000012332748, -0.000000012332748, 0.0, 0.012207031, 0.011758876 
1.8310547e-2, 1.4396833e+0, -0.000000030825333, -38810.53, -0.016647859, 0.0, 0.00008393791, -0.000000023683242, -0.000000023683242, 0.0, 0.012207031, 0.011759081 
1.8310547e-2, 1.4514424e+0, -0.000000009441701, -38809.72, -0.03525782, 0.0, 0.00008020662, 0.000000022584572, 0.000000022584572, 0.0, 0.012207031, 0.011759089 
1.8310547e-2, 1.4632015e+0, -0.000000005443621, -38790.926, -0.024221815, 0.0, 0.00008137765, 0.000000009677024, 0.000000009677024, 0.0, 0.012207031, 0.011759295 
1.8310547e-2, 1.4749609e+0, -0.0000000028941158, -38790.09, 0.030281335, 0.0, 0.00008337471, 0.000000020743755, 0.000000020743755, 0.0, 0.012207031, 0.011759304 
1.8310547e-2, 1.4867203e+0, 0.000000026560503, -38771.477, 0.027523352, 0.0, 0.000082844876, 0.00000004609319, 0.00000004609319, 0.0, 0.012207031, 0.0117595075 
1.8310547e-2, 1.4984798e+0, 0.000000016010196, -38770.63, -0.057310477, 0.0, 0.00007599467, 0.00000010072836, 0.00000010072836, 0.0, 0.012207031, 0.011759517 
1.8310547e-2, 1.5102395e+0, -0.0000000141789664, -38751.766, -0.047113996, 0.0, 0.00007800527, 0.000000043095497, 0.000000043095497, 0.0, 0.012207031, 0.011759723 
1.8310547e-2, 1.5219992e+0, 0.0000000745225, -38750.87, 0.09508143, 0.0, 0.00008196319, 0.00000030781666, 0.00000030781666, 0.0, 0.012207031, 0.011759732 
1.8310547e-2, 1.533759e+0, -0.000000021002073, -38732.473, 0.093826465, 0.0, 0.000081667036, 0.00000020628795, 0.00000020628795, 0.0, 0.012207031, 0.011759933 
1.8310547e-2, 1.545519e+0, -0.000000008270929, -38731.52, -0.08902933, 0.0, 0.0000730943, 0.00000019637082, 0.00000019637082, 0.0, 0.012207031, 0.011759943 
1.8310547e-2, 1.557279e+0, -0.0000000081789775, -38712.645, -0.0681802, 0.0, 0.0000765657, 0.00000011189695, 0.00000011189695, 0.0, 0.012207031, 0.01176015 
1.8310547e-2, 1.5690392e+0, -0.000000059482964, -38711.64, 0.1373572, 0.0, 0.00008042231, 0.0000004278918, 0.0000004278918, 0.0, 0.012207031, 0.011760161 
1.8310547e-2, 1.5807995e+0, -0.00000007215175, -38693.547, 0.10619463, 0.0, 0.000080196995, 0.00000021930464, 0.00000021930464, 0.0, 0.012207031, 0.011760359 
1.8310547e-2, 1.5925598e+0, -0.000000035160323, -38692.28, -0.05817864, 0.0, 0.00007486777, 0.00000005232141, 0.00000005232141, 0.0, 0.012207031, 0.011760373 
1.8310547e-2, 1.6043203e+0, -0.0000000015446332, -38673.703, 0.011051228, 0.0, 0.00007960849, 0.0000000016152626, 0.0000000016152626, 0.0, 0.012207031, 0.011760575 
1.8310547e-2, 1.6160809e+0, -0.000000005176935, -38672.754, 0.054394815, 0.0, 0.00007997112, 0.00000007133349, 0.00000007133349, 0.0, 0.012207031, 0.011760586 
1.8310547e-2, 1.6278416e+0, -0.000000024929035, -38654.313, -0.05415188, 0.0, 0.0000804211, 0.00000005093898, 0.00000005093898, 0.0, 0.012207031, 0.011760787 
1.8310547e-2, 1.6396025e+0, 0.0000000010510197, -38652.855, 0.060023915, 0.0, 0.000081156264, 0.000000094252755, 0.000000094252755, 0.0, 0.012207031, 0.011760803 
1.8310547e-2, 1.6513632e+0, 0.000000007912443, -38634.906, 0.13423401, 0.0, 0.00008444643, 0.00000047429057, 0.00000047429057, 0.0, 0.012207031, 0.011760999 
1.8310547e-2, 1.6631243e+0, -0.00000005893931, -38633.598, -0.061496045, 0.0, 0.00008343667, 0.000000038940925, 0.000000038940925, 0.0, 0.012207031, 0.011761013 
1.8310547e-2, 1.6748855e+0, 0.000000032117796, -38615.082, -0.014035771, 0.0, 0.000086332824, 0.000000037216523, 0.000000037216523, 0.0, 0.012207031, 0.0117612155 
1.8310547e-2, 1.6866466e+0, -0.0000000005114769, -38614.13, 0.020280747, 0.0, 0.000087926106, 0.000000010142685, 0.000000010142685, 0.0, 0.012207031, 0.011761226 
1.8310547e-2, 1.698408e+0, -0.00000023291877, -38596.348, -0.45641387, 0.0, 0.00008904965, 0.000005164322, 0.000005164322, 0.0, 0.012207031, 0.01176142 
1.8310547e-2, 1.7101695e+0, -0.000012947819, -38594.215, 3.220017, 0.0, 0.000091318296, 0.00025570663, 0.00025570663, 0.0, 0.012207031, 0.011761444 
1.8310547e-2, 1.721931e+0, -0.00000014803321, -38575.684, -0.37888908, 0.0, 0.00009296556, 0.0000035733974, 0.0000035733974, 0.0, 0.012207031, 0.011761646 
1.8310547e-2, 1.7336926e+0, -0.000000009170899, -38574.51, -0.039192848, 0.0, 0.00009450236, 0.00000003065361, 0.00000003065361, 0.0, 0.012207031, 0.011761659 
1.8310547e-2, 1.7454544e+0, 0.000000038500147, -38556.78, -0.01630875, 0.0, 0.000095727766, 0.0000000453947, 0.0000000453947, 0.0, 0.012207031, 0.011761853 
1.8310547e-2, 1.7572162e+0, 0.000000044263352, -38555.074, -0.020742606, 0.0, 0.00009746206, 0.000000055428245, 0.000000055428245, 0.0, 0.012207031, 0.011761871 
1.8310547e-2, 1.7689782e+0, -0.00000004791111, -38537.176, -0.012433353, 0.0, 0.00009864412, -0.00000004390313, -0.00000004390313, 0.0, 0.012207031, 0.011762067 
1.8310547e-2, 1.7807403e+0, 0.0000000010579598, -38535.566, -0.020080987, 0.0, 0.000100166246, 0.000000011517841, 0.000000011517841, 0.0, 0.012207031, 0.011762084 
1.8310547e-2, 1.7925026e+0, 0.000000028208282, -38517.594, -0.018021397, 0.0, 0.000100178164, 0.000000036634447, 0.000000036634447, 0.0, 0.012207031, 0.011762281 
1.8310547e-2, 1.8042648e+0, -0.000000012125263, -38516.016, -0.021404233, 0.0, 0.00010124597, -0.00000000023283064, -0.00000000023283064, 0.0, 0.012207031, 0.011762298 
1.8310547e-2, 1.8160272e+0, 0.000000022971674, -38498.063, -0.020915695, 0.0, 0.000102937505, 0.000000034335244, 0.000000034335244, 0.0, 0.012207031, 0.011762494 
1.8310547e-2, 1.8277898e+0, -0.00000003639523, -38496.418, -0.019231152, 0.0, 0.00010332212, -0.0000000267828, -0.0000000267828, 0.0, 0.012207031, 0.011762512 
1.8310547e-2, 1.8395522e+0, 0.0000000041559622, -38478.527, -0.021772755, 0.0, 0.00010258129, 0.000000016472768, 0.000000016472768, 0.0, 0.012207031, 0.0117627075 
1.8310547e-2, 1.851315e+0, 0.0000000076337425, -38476.848, -0.021753425, 0.0, 0.000101900056, 0.000000019928848, 0.000000019928848, 0.0, 0.012207031, 0.011762726 
1.8310547e-2, 1.8630779e+0, 0.000000019176293, -38458.99, -0.010217217, 0.0, 0.00010543106, 0.000000021893356, 0.000000021893356, 0.0, 0.012207031, 0.011762922 
1.8310547e-2, 1.8748409e+0, 0.00000006998745, -38457.27, -0.0044864006, 0.0, 0.00010528157, 0.000000070511305, 0.000000070511305, 0.0, 0.012207031, 0.01176294 
1.8310547e-2, 1.8866038e+0, -0.00000004681696, -38439.484, -0.018207438, 0.0, 0.000102665406, -0.0000000381915, -0.0000000381915, 0.0, 0.012207031, 0.011763134 
1.8310547e-2, 1.8983671e+0, 0.000000000018410619, -38437.723, -0.022354193, 0.0, 0.00009949498, 0.000000013023964, 0.000000013023964, 0.0, 0.012207031, 0.011763154 
1.8310547e-2, 1.9101302e+0, -0.00000000776059, -38420.516, 0.01440223, 0.0, 0.00010657502, -0.0000000023646862, -0.0000000023646862, 0.0, 0.012207031, 0.011763342 
1.8310547e-2, 1.9218937e+0, -0.000000013046106, -38418.785, 0.036393564, 0.0, 0.00010720187, 0.000000021434971, 0.000000021434971, 0.0, 0.012207031, 0.01176336 
1.8310547e-2, 1.9336571e+0, 0.000000039669516, -38401.105, -0.014369133, 0.0, 0.00010188045, 0.000000045045454, 0.000000045045454, 0.0, 0.012207031, 0.011763554 
1.8310547e-2, 1.9454208e+0, 0.000000040506034, -38399.145, -0.044239767, 0.0, 0.00009545648, 0.00000009147334, 0.00000009147334, 0.0, 0.012207031, 0.0117635755 
1.8310547e-2, 1.9571844e+0, 0.00000002986601, -38381.402, 0.047383398, 0.0, 0.00010718491, 0.000000088366505, 0.000000088366505, 0.0, 0.012207031, 0.011763769 
1.8310547e-2, 1.9689481e+0, 0.000000030568042, -38379.586, 0.11028223, 0.0, 0.00010968082, 0.00000034745608, 0.00000034745608, 0.0, 0.012207031, 0.01176379 
1.8310547e-2, 1.9807121e+0, 0.000000008431469, -38362.195, -0.0127550475, 0.0, 0.00010210214, 0.000000012674718, 0.000000012674718, 0.0, 0.012207031, 0.01176398 
1.8310547e-2, 1.992476e+0, -0.000000045257917, -38359.9, -0.10136056, 0.0, 0.00009369341, 0.00000022257154, 0.00000022257154, 0.0, 0.012207031, 0.011764005 
1.8310547e-2, 2.00424e+0, -0.000000008436214, -38342.3, 0.065396935, 0.0, 0.00010815526, 0.000000103107595, 0.000000103107595, 0.0, 0.012207031, 0.011764197 
1.8310547e-2, 2.0160043e+0, 0.000000027980702, -38340.336, 0.18192306, 0.0, 0.00011117495, 0.00000089119567, 0.00000089119567, 0.0, 0.012207031, 0.011764218 
1.8310547e-2, 2.0277686e+0, 0.000000049950433, -38323.305, -0.00387453, 0.0, 0.0001038897, 0.00000005034235, 0.00000005034235, 0.0, 0.012207031, 0.011764404 
1.8310547e-2, 2.0395331e+0, -0.00000003692676, -38320.582, -0.11325429, 0.0, 0.000098638186, 0.0000002977904, 0.0000002977904, 0.0, 0.012207031, 0.011764434 
1.8310547e-2, 2.0512977e+0, -0.000000050451565, -38303.367, 0.11278693, 0.0, 0.000110259505, 0.00000028165232, 0.00000028165232, 0.0, 0.012207031, 0.011764622 
1.8310547e-2, 2.0630622e+0, -0.000000027372987, -38301.14, 0.11269863, 0.0, 0.00010955101, 0.0000003042369, 0.0000003042369, 0.0, 0.012207031, 0.0117646465 
1.8310547e-2, 2.074827e+0, -0.000000003325793, -38284.11, -0.01841228, 0.0, 0.00010743602, 0.000000005529728, 0.000000005529728, 0.0, 0.012207031, 0.011764833 
1.8310547e-2, 2.086592e+0, -0.00000002341064, -38281.293, 0.046542615, 0.0, 0.00010872067, 0.00000003317109, 0.00000003317109, 0.0, 0.012207031, 0.011764864 
1.8310547e-2, 2.0983568e+0, 0.00000003756664, -38264.65, 0.08291975, 0.0, 0.00011286573, 0.00000021725282, 0.00000021725282, 0.0, 0.012207031, 0.011765046 
1.8310547e-2, 2.110122e+0, -0.00000003419402, -38261.934, -0.09666025, 0.0, 0.000109014305, 0.00000020999869, 0.00000020999869, 0.0, 0.012207031, 0.011765076 
1.8310547e-2, 2.1218869e+0, -0.000000017764703, -38244.8, -0.027141823, 0.0, 0.00011311339, 0.0000000014915713, 0.0000000014915713, 0.0, 0.012207031, 0.011765263 
1.8310547e-2, 2.1336524e+0, -0.000000007817064, -38242.168, 0.13684173, 0.0, 0.00011524392, 0.000000481843, 0.000000481843, 0.0, 0.012207031, 0.011765292 
1.8310547e-2, 2.1454176e+0, 0.0000000623608, -38225.742, -0.018841254, 0.0, 0.00011467182, 0.000000071646355, 0.000000071646355, 0.0, 0.012207031, 0.011765472 
1.8310547e-2, 2.1571831e+0, 0.0000000048992703, -38222.355, -0.013673868, 0.0, 0.000115084025, 0.000000009793439, 0.000000009793439, 0.0, 0.012207031, 0.011765509 
1.8310547e-2, 2.168949e+0, -0.00000006448606, -38206.15, 0.10415075, 0.0, 0.000118096505, 0.00000021942833, 0.00000021942833, 0.0, 0.012207031, 0.011765686 
1.8310547e-2, 2.1807146e+0, -0.000000021881936, -38203.125, -0.11790252, 0.0, 0.00011672998, 0.00000034199184, 0.00000034199184, 0.0, 0.012207031, 0.011765718 
1.8310547e-2, 2.1924803e+0, -0.000000034697, -38186.297, -0.10739563, 0.0, 0.00011832449, 0.0000002673405, 0.0000002673405, 0.0, 0.012207031, 0.011765903 
1.8310547e-2, 2.2042462e+0, -0.0000000022161724, -38183.617, -0.002335509, 0.0, 0.00011980994, -0.0000000020809239, -0.0000000020809239, 0.0, 0.012207031, 0.011765933 
1.8310547e-2, 2.2160122e+0, -0.00000027363106, -38167.652, -0.512668, 0.0, 0.0001195154, 0.0000066125285, 0.0000066125285, 0.0, 0.012207031, 0.011766107 
1.8310547e-2, 2.2277784e+0, -0.000012963034, -38163.965, 3.215885, 0.0, 0.00011976528, 0.00025802338, 0.00025802338, 0.0, 0.012207031, 0.011766147 
1.8310547e-2, 2.2395447e+0, -0.00000022688083, -38146.863, -0.49787822, 0.0, 0.00012108745, 0.0000062712425, 0.0000062712425, 0.0, 0.012207031, 0.011766334 
1.8310547e-2, 2.2513111e+0, -0.000000010867097, -38144.21, -0.10478926, 0.0, 0.00012005768, 0.00000027701026, 0.00000027701026, 0.0, 0.012207031, 0.011766363 
1.8310547e-2, 2.2630775e+0, -0.00000006209834, -38127.973, -0.052144084, 0.0, 0.00012105812, 0.000000009211362, 0.000000009211362, 0.0, 0.012207031, 0.011766541 
1.8310547e-2, 2.2748442e+0, 0.00000002031981, -38124.758, -0.03310495, 0.0, 0.000120316305, 0.000000049069058, 0.000000049069058, 0.0, 0.012207031, 0.011766576 
1.8310547e-2, 2.2866109e+0, -0.000000015955546, -38108.457, -0.020690197, 0.0, 0.0001224562, -0.0000000047220965, -0.0000000047220965, 0.0, 0.012207031, 0.011766754 
1.8310547e-2, 2.2983775e+0, -0.000000020018215, -38105.258, -0.032844998, 0.0, 0.00012029503, 0.000000008294592, 0.000000008294592, 0.0, 0.012207031, 0.0117667895 
1.8310547e-2, 2.3101445e+0, -0.0000000041878345, -38088.863, -0.027176742, 0.0, 0.00012110437, 0.000000015206751, 0.000000015206751, 0.0, 0.012207031, 0.011766969 
1.8310547e-2, 2.3219113e+0, -0.0000000605, -38085.68, -0.026392024, 0.0, 0.000120455225, -0.00000004220783, -0.00000004220783, 0.0, 0.012207031, 0.011767004 
1.8310547e-2, 2.3336785e+0, 0.00000002005197, -38069.332, -0.02254215, 0.0, 0.00012470876, 0.00000003340392, 0.00000003340392, 0.0, 0.012207031, 0.0117671825 
1.8310547e-2, 2.3454456e+0, 0.000000010012263, -38066.113, -0.021359868, 0.0, 0.000120991215, 0.00000002199522, 0.00000002199522, 0.0, 0.012207031, 0.011767218 
1.8310547e-2, 2.357213e+0, -0.000000010942434, -38049.797, -0.021956556, 0.0, 0.0001216061, 0.0000000017316779, 0.0000000017316779, 0.0, 0.012207031, 0.011767397 
1.8310547e-2, 2.3689803e+0, -0.000000039337923, -38046.527, -0.018554114, 0.0, 0.00012158828, -0.00000003028981, -0.00000003028981, 0.0, 0.012207031, 0.011767432 
1.8310547e-2, 2.3807481e+0, -0.000000026659867, -38030.273, -0.0053301724, 0.0, 0.00012843832, -0.000000025916961, -0.000000025916961, 0.0, 0.012207031, 0.01176761 
1.8310547e-2, 2.3925157e+0, 0.000000009214124, -38026.926, -0.0059168288, 0.0, 0.00012385254, 0.000000010128133, 0.000000010128133, 0.0, 0.012207031, 0.011767646 
1.8310547e-2, 2.4042833e+0, -0.0000000067454966, -38010.855, -0.022000797, 0.0, 0.00012318266, 0.000000005988113, 0.000000005988113, 0.0, 0.012207031, 0.011767822 
1.8310547e-2, 2.4160512e+0, 0.000000025132346, -38007.2, -0.01251314, 0.0, 0.00012414838, 0.00000002924935, 0.00000002924935, 0.0, 0.012207031, 0.011767862 
1.8310547e-2, 2.4278192e+0, -0.0000000570922, -37991.363, 0.03225214, 0.0, 0.00013358527, -0.000000029715011, -0.000000029715011, 0.0, 0.012207031, 0.011768036 
1.8310547e-2, 2.4395874e+0, -0.000000036401644, -37987.664, 0.021745268, 0.0, 0.00012967459, -0.000000023959728, -0.000000023959728, 0.0, 0.012207031, 0.011768077 
1.8310547e-2, 2.4513555e+0, -0.00000006066014, -37971.88, -0.033375863, 0.0, 0.00012557287, -0.000000031322998, -0.000000031322998, 0.0, 0.012207031, 0.011768249 
1.8310547e-2, 2.4631238e+0, -0.00000002995641, -37968.008, -0.016613638, 0.0, 0.0001280656, -0.000000022686436, -0.000000022686436, 0.0, 0.012207031, 0.011768292 
1.8310547e-2, 2.4748921e+0, -0.000000016295258, -37952.29, 0.062804855, 0.0, 0.00013993673, 0.00000008763891, 0.00000008763891, 0.0, 0.012207031, 0.011768463 
1.8310547e-2, 2.4866605e+0, 0.0000000041809773, -37948.535, 0.046963565, 0.0, 0.0001369055, 0.000000062304025, 0.000000062304025, 0.0, 0.012207031, 0.011768504 
1.8310547e-2, 2.4984291e+0, 0.000000022614032, -37932.953, -0.04109603, 0.0, 0.00012940857, 0.00000006713526, 0.00000006713526, 0.0, 0.012207031, 0.011768675 
1.8310547e-2, 2.5101978e+0, -0.000049383758, -37928.72, 7.394163, 0.0, 0.00013432061, 0.0013921005, 0.0013921005, 0.0, 0.012207031, 0.011768721 
1.8310547e-2, 2.5219667e+0, -0.00000006438995, -37913.28, 0.07508056, 0.0, 0.00014376255, 0.00000008429197, 0.00000008429197, 0.0, 0.012207031, 0.011768891 
1.8310547e-2, 2.5337356e+0, -0.0000000069683455, -37909.324, 0.04879969, 0.0, 0.00014214072, 0.000000055842975, 0.000000055842975, 0.0, 0.012207031, 0.011768933 
1.8310547e-2, 2.5455046e+0, 0.0000000066489103, -37894.055, 0.24605317, 0.0, 0.00013643838, 0.0000016043196, 0.0000016043196, 0.0, 0.012207031, 0.011769101 
1.8310547e-2, 2.5572738e+0, -0.000000041695582, -37889.746, 0.0047118845, 0.0, 0.00013979779, -0.000000041116436, -0.000000041116436, 0.0, 0.012207031, 0.011769148 
1.8310547e-2, 2.569043e+0, -0.000000024228385, -37874.906, 0.030364603, 0.0, 0.00014487385, 0.00000000011641532, 0.00000000011641532, 0.0, 0.012207031, 0.011769311 
1.8310547e-2, 2.5808126e+0, -0.000000007842124, -37870.594, -0.008115519, 0.0, 0.00014550948, -0.0000000061045284, -0.0000000061045284, 0.0, 0.012207031, 0.011769358 
1.8310547e-2, 2.5925818e+0, 0.0000000158805, -37855.246, 0.027228909, 0.0, 0.00014193161, 0.000000035463017, 0.000000035463017, 0.0, 0.012207031, 0.011769526 
1.8310547e-2, 2.6043513e+0, 0.000000056831084, -37851.07, 0.058098797, 0.0, 0.0001416437, 0.00000014601392, 0.00000014601392, 0.0, 0.012207031, 0.011769571 
1.8310547e-2, 2.6161212e+0, -0.00000004493313, -37835.855, -0.018636793, 0.0, 0.0001442792, -0.000000035754056, -0.000000035754056, 0.0, 0.012207031, 0.011769738 
1.8310547e-2, 2.6278907e+0, 0.000000037008796, -37831.36, -0.017782947, 0.0, 0.000149972, 0.000000045365596, 0.000000045365596, 0.0, 0.012207031, 0.011769787 
1.8310547e-2, 2.6396605e+0, 0.00000008799816, -37816.348, 0.035520915, 0.0, 0.00014366224, 0.00000012136297, 0.00000012136297, 0.0, 0.012207031, 0.011769951 
1.8310547e-2, 2.6514307e+0, -0.0000000072472313, -37811.863, -0.033185236, 0.0, 0.00013681006, 0.000000021878805, 0.000000021878805, 0.0, 0.012207031, 0.011770001 
1.8310547e-2, 2.6632005e+0, 0.0000000017865518, -37796.63, -0.008208955, 0.0, 0.00014463183, 0.0000000035724952, 0.0000000035724952, 0.0, 0.012207031, 0.011770167 
1.8310547e-2, 2.674971e+0, 0.000000038947135, -37792.254, 0.10337399, 0.0, 0.00015320576, 0.00000032171374, 0.00000032171374, 0.0, 0.012207031, 0.011770216 
1.8310547e-2, 2.686741e+0, 0.000000022652033, -37777.336, -0.022098182, 0.0, 0.00014233249, 0.000000035572157, 0.000000035572157, 0.0, 0.012207031, 0.011770379 
1.8310547e-2, 2.6985115e+0, -0.00000005980532, -37772.67, -0.111224145, 0.0, 0.00013333723, 0.00000026769703, 0.00000026769703, 0.0, 0.012207031, 0.01177043 
1.8310547e-2, 2.7102822e+0, 0.000000031663177, -37757.527, 0.028051237, 0.0, 0.00014392725, 0.00000005250331, 0.00000005250331, 0.0, 0.012207031, 0.011770596 
1.8310547e-2, 2.722053e+0, -0.0000000068843407, -37753.207, 0.030768607, 0.0, 0.00015072829, 0.000000018189894, 0.000000018189894, 0.0, 0.012207031, 0.011770643 
1.8310547e-2, 2.7338237e+0, -0.00000003305556, -37738.12, -0.04312895, 0.0, 0.0001420631, 0.000000016232661, 0.000000016232661, 0.0, 0.012207031, 0.011770808 
1.8310547e-2, 2.7455944e+0, 0.000000010664335, -37733.664, -0.081938446, 0.0, 0.00013424712, 0.00000018859282, 0.00000018859282, 0.0, 0.012207031, 0.011770857 
1.8310547e-2, 2.757365e+0, -0.000000081790915, -37718.824, -0.2608355, 0.0, 0.00014332039, 0.00000172195, 0.00000172195, 0.0, 0.012207031, 0.01177102 
1.8310547e-2, 2.7691364e+0, -0.0000028259706, -37713.914, 1.620164, 0.0, 0.00014651075, 0.000066775174, 0.000066775174, 0.0, 0.012207031, 0.011771074 
1.8310547e-2, 2.7809075e+0, -0.000000042241183, -37698.85, -0.24907102, 0.0, 0.00014213705, 0.00000160333, 0.00000160333, 0.0, 0.012207031, 0.011771238 
1.8310547e-2, 2.7926788e+0, 0.000000003024687, -37694.21, -0.085455984, 0.0, 0.00013960121, 0.00000019675645, 0.00000019675645, 0.0, 0.012207031, 0.011771289 
1.8310547e-2, 2.80445e+0, -0.000000009538351, -37679.56, -0.015425142, 0.0, 0.00014636129, -0.0000000032232492, -0.0000000032232492, 0.0, 0.012207031, 0.01177145 
1.8310547e-2, 2.8162217e+0, 0.000000028857448, -37674.742, -0.04863586, 0.0, 0.0001427608, 0.00000009164796, 0.00000009164796, 0.0, 0.012207031, 0.011771502 
1.8310547e-2, 2.827993e+0, 0.000000033341085, -37660.035, -0.065892436, 0.0, 0.00014453042, 0.00000014862599, 0.00000014862599, 0.0, 0.012207031, 0.011771663 
1.8310547e-2, 2.839765e+0, -0.00000003519511, -37654.98, 0.03435177, 0.0, 0.00014736089, -0.0000000038635335, -0.0000000038635335, 0.0, 0.012207031, 0.011771719 
1.8310547e-2, 2.851537e+0, -0.000000024372277, -37640.695, 0.024604516, 0.0, 0.00014910196, -0.000000008294592, -0.000000008294592, 0.0, 0.012207031, 0.011771875 
1.8310547e-2, 2.8633088e+0, 0.000000043097454, -37635.434, -0.073612645, 0.0, 0.0001462418, 0.00000018707942, 0.00000018707942, 0.0, 0.012207031, 0.011771933 
1.8310547e-2, 2.8750807e+0, 0.0000000003203247, -37621.043, -0.013994339, 0.0, 0.00015072606, 0.000000005522452, 0.000000005522452, 0.0, 0.012207031, 0.011772091 
1.8310547e-2, 2.8868526e+0, 0.000000054073094, -37616.094, -0.02205299, 0.0, 0.00015150946, 0.00000006699702, 0.00000006699702, 0.0, 0.012207031, 0.011772145 
1.8310547e-2, 2.8986248e+0, -0.0000000015243399, -37601.832, 0.008384771, 0.0, 0.00015381014, 0.00000000034197, 0.00000000034197, 0.0, 0.012207031, 0.011772301 
1.8310547e-2, 2.9103974e+0, 0.00000004082667, -37596.2, 0.026994182, 0.0, 0.00015458775, 0.00000006020127, 0.00000006020127, 0.0, 0.012207031, 0.0117723625 
1.8310547e-2, 2.9221696e+0, 0.00000004970355, -37582.44, 0.06753658, 0.0, 0.0001537359, 0.00000017106504, 0.00000017106504, 0.0, 0.012207031, 0.011772513 
1.8310547e-2, 2.9339424e+0, 0.00000003731357, -37576.77, -0.07031253, 0.0, 0.00015684639, 0.00000016887498, 0.00000016887498, 0.0, 0.012207031, 0.011772576 
1.8310547e-2, 2.945715e+0, 0.0000000062390546, -37562.727, 0.012442553, 0.0, 0.0001646195, 0.000000010353688, 0.000000010353688, 0.0, 0.012207031, 0.011772729 
1.8310547e-2, 2.9574877e+0, 0.000000018096504, -37557.27, 0.024408516, 0.0, 0.00015939529, 0.00000003396417, 0.00000003396417, 0.0, 0.012207031, 0.011772789 
1.8310547e-2, 2.9692608e+0, -0.000000020281792, -37543.36, -0.11067471, 0.0, 0.00015351345, 0.00000030597585, 0.00000030597585, 0.0, 0.012207031, 0.011772942 
1.8310547e-2, 2.9810336e+0, -0.0000000059954113, -37537.277, 0.062052116, 0.0, 0.00016485971, 0.000000096573785, 0.000000096573785, 0.0, 0.012207031, 0.011773008 
1.8310547e-2, 2.9928067e+0, -0.000000008406904, -37524.027, 0.10268455, 0.0, 0.00017190323, 0.00000027258648, 0.00000027258648, 0.0, 0.012207031, 0.011773153 
1.8310547e-2, 3.00458e+0, -0.000000003188405, -37517.934, -0.08577847, 0.0, 0.00016285566, 0.00000019292929, 0.00000019292929, 0.0, 0.012207031, 0.01177322 
1.8310547e-2, 3.0163532e+0, -0.0000000014156073, -37504.418, -0.060409583, 0.0, 0.00015822801, 0.00000009588257, 0.00000009588257, 0.0, 0.012207031, 0.011773368 
1.8310547e-2, 3.0281267e+0, -0.000000017744043, -37498.848, -0.2581626, 0.0, 0.00016881755, 0.0000017595812, 0.0000017595812, 0.0, 0.012207031, 0.01177343 
1.8310547e-2, 3.0399e+0, -0.000014951068, -37484.543, 3.3822947, 0.0, 0.0001718522, 0.00029023917, 0.00029023917, 0.0, 0.012207031, 0.011773586 
1.8310547e-2, 3.0516738e+0, 0.00000006021026, -37478.605, 0.12616974, 0.0, 0.00016430959, 0.00000048494985, 0.00000048494985, 0.0, 0.012207031, 0.0117736515 
1.8310547e-2, 3.0634475e+0, -0.000000032014018, -37465.105, -0.044351283, 0.0, 0.00016726436, 0.000000020489097, 0.000000020489097, 0.0, 0.012207031, 0.0117738 
1.8310547e-2, 3.0752212e+0, -0.000000055615523, -37459.13, 0.035735164, 0.0, 0.00017050188, -0.000000021529559, -0.000000021529559, 0.0, 0.012207031, 0.011773865 
1.8310547e-2, 3.0869955e+0, 0.00000000853787, -37445.918, -0.019894464, 0.0, 0.00016505837, 0.000000019106665, 0.000000019106665, 0.0, 0.012207031, 0.01177401 
1.8310547e-2, 3.0987695e+0, 0.00000006388395, -37439.38, -0.028764283, 0.0, 0.00016465082, 0.00000008597999, 0.00000008597999, 0.0, 0.012207031, 0.011774081 
1.8310547e-2, 3.1105435e+0, -0.000000034171443, -37426.227, 0.118631035, 0.0, 0.00017475814, 0.00000034186087, 0.00000034186087, 0.0, 0.012207031, 0.011774225 
1.8310547e-2, 3.1223178e+0, -0.000000027507472, -37420.13, 0.060185064, 0.0, 0.000168039, 0.000000069288944, 0.000000069288944, 0.0, 0.012207031, 0.011774292 
1.8310547e-2, 3.134092e+0, -0.000000020620975, -37406.777, -0.074212454, 0.0, 0.00016379685, 0.00000012661621, 0.00000012661621, 0.0, 0.012207031, 0.011774438 
1.8310547e-2, 3.1458667e+0, 0.000000017781232, -37400.234, 0.03572726, 0.0, 0.00016644367, 0.000000051913958, 0.000000051913958, 0.0, 0.012207031, 0.01177451 
1.8310547e-2, 3.1576413e+0, -0.000000026509843, -37387.4, 0.017762952, 0.0, 0.00017209105, -0.000000018066203, -0.000000018066203, 0.0, 0.012207031, 0.011774651 
1.8310547e-2, 3.169416e+0, 0.000000019848429, -37380.73, -0.09966176, 0.0, 0.0001675887, 0.00000028556678, 0.00000028556678, 0.0, 0.012207031, 0.011774724 
1.8310547e-2, 3.1811908e+0, -0.000000034040347, -37367.54, 0.117749825, 0.0, 0.00016865616, 0.0000003370078, 0.0000003370078, 0.0, 0.012207031, 0.011774869 
1.8310547e-2, 3.1929654e+0, -0.00000008811129, -37361.418, 0.10509595, 0.0, 0.00016171482, 0.00000020751759, 0.00000020751759, 0.0, 0.012207031, 0.011774936 
1.8310547e-2, 3.2047406e+0, 0.000000009973324, -37348.52, -0.12696987, 0.0, 0.00017291965, 0.00000044162152, 0.00000044162152, 0.0, 0.012207031, 0.011775077 
1.8310547e-2, 3.2165158e+0, 0.0000000410732, -37341.344, 0.070884936, 0.0, 0.00017711832, 0.00000017563434, 0.00000017563434, 0.0, 0.012207031, 0.011775156 
1.8310547e-2, 3.228291e+0, 0.000000019885567, -37329.684, -0.0030895818, 0.0, 0.000166257, 0.000000020147127, 0.000000020147127, 0.0, 0.012207031, 0.011775284 
1.8310547e-2, 3.2400662e+0, 0.000000006062367, -37321.92, -0.10853365, 0.0, 0.00015514842, 0.00000032168464, 0.00000032168464, 0.0, 0.012207031, 0.011775369 
1.8310547e-2, 3.2518417e+0, -0.00000014604409, -37309.47, 0.3985183, 0.0, 0.00018011092, 0.000004110698, 0.000004110698, 0.0, 0.012207031, 0.011775506 
1.8310547e-2, 3.2636172e+0, -0.0000002393443, -37302.71, 0.49254137, 0.0, 0.00018620529, 0.0000062641266, 0.0000062641266, 0.0, 0.012207031, 0.011775579 
1.8310547e-2, 3.275393e+0, -0.00000005515616, -37290.773, 0.1557775, 0.0, 0.00016685916, 0.00000059558806, 0.00000059558806, 0.0, 0.012207031, 0.011775711 
1.8310547e-2, 3.2871687e+0, 0.0000000007669474, -37283.168, -0.06260179, 0.0, 0.0001558187, 0.00000010587246, 0.00000010587246, 0.0, 0.012207031, 0.0117757935 
1.8310547e-2, 3.2989445e+0, -0.0000001468873, -37271.38, -0.3877673, 0.0, 0.00018227071, 0.000003887406, 0.000003887406, 0.0, 0.012207031, 0.011775923 
1.8310547e-2, 3.3107206e+0, -0.000008729515, -37263.25, 2.6787255, 0.0, 0.00019273759, 0.00018383472, 0.00018383472, 0.0, 0.012207031, 0.011776012 
1.8310547e-2, 3.3224967e+0, -0.00000020745608, -37251.164, -0.4453661, 0.0, 0.00017114637, 0.000005117232, 0.000005117232, 0.0, 0.012207031, 0.011776145 
1.8310547e-2, 3.3342728e+0, 0.0000000065275576, -37243.41, -0.17160065, 0.0, 0.00016357357, 0.0000007971903, 0.0000007971903, 0.0, 0.012207031, 0.011776229 
1.8310547e-2, 3.3460492e+0, 0.00000001645546, -37231.89, 0.01014316, 0.0, 0.00018431687, 0.00000001922308, 0.00000001922308, 0.0, 0.012207031, 0.011776356 
1.8310547e-2, 3.3578256e+0, 0.000000021128958, -37224.137, -0.045647014, 0.0, 0.00019027434, 0.00000007710332, 0.00000007710332, 0.0, 0.012207031, 0.011776441 
1.8310547e-2, 3.369602e+0, 0.000000008997397, -37212.35, -0.09177538, 0.0, 0.00017956104, 0.00000023534085, 0.00000023534085, 0.0, 0.012207031, 0.01177657 
1.8310547e-2, 3.3813787e+0, -0.000000031264598, -37204.24, 0.1378704, 0.0, 0.00017414727, 0.0000004796457, 0.0000004796457, 0.0, 0.012207031, 0.01177666 
1.8310547e-2, 3.3931553e+0, 0.000000056025083, -37193.31, 0.05870426, 0.0, 0.00017794251, 0.00000014867692, 0.00000014867692, 0.0, 0.012207031, 0.011776779 
1.8310547e-2, 3.4049323e+0, -0.00000007676884, -37184.86, -0.27166668, 0.0, 0.00019812185, 0.000001907989, 0.000001907989, 0.0, 0.012207031, 0.011776872 
1.8310547e-2, 3.4167093e+0, -0.000000007329732, -37173.01, -0.0042359564, 0.0, 0.0001954154, -0.000000006846676, -0.000000006846676, 0.0, 0.012207031, 0.011777001 
1.8310547e-2, 3.4284863e+0, 0.000000016219401, -37165.496, 0.14572136, 0.0, 0.00016067704, 0.00000058756996, 0.00000058756996, 0.0, 0.012207031, 0.011777084 
1.8310547e-2, 3.4402633e+0, -0.000000024892074, -37153.902, -0.13307995, 0.0, 0.00016713569, 0.00000045177876, 0.00000045177876, 0.0, 0.012207031, 0.011777212 
1.8310547e-2, 3.4520406e+0, 0.000000011351095, -37145.285, 0.14466904, 0.0, 0.00022493061, 0.0000005747934, 0.0000005747934, 0.0, 0.012207031, 0.011777306 
1.8310547e-2, 3.463818e+0, -0.000000059198932, -37134.71, 0.25398758, 0.0, 0.00020550219, 0.0000016779813, 0.0000016779813, 0.0, 0.012207031, 0.011777422 
1.8310547e-2, 3.4755954e+0, -0.00000013676376, -37126.55, -0.3505717, 0.0, 0.00014351062, 0.0000031735472, 0.0000031735472, 0.0, 0.012207031, 0.011777512 
1.8310547e-2, 3.487373e+0, 0.000000015568636, -37113.992, -0.10112894, 0.0, 0.00016755541, 0.0000002911329, 0.0000002911329, 0.0, 0.012207031, 0.01177765 
1.8310547e-2, 3.499151e+0, -0.0000000665084, -37106.86, 0.24969651, 0.0, 0.0002288703, 0.0000016137274, 0.0000016137274, 0.0, 0.012207031, 0.011777728 
1.8310547e-2, 3.5109288e+0, -0.00000007580112, -37095.594, -0.27567288, 0.0, 0.00020840319, 0.0000019728323, 0.0000019728323, 0.0, 0.012207031, 0.011777851 
1.8310547e-2, 3.5227066e+0, -0.0000016706051, -37086.72, 1.2758, 0.0, 0.00015427159, 0.000042217493, 0.000042217493, 0.0, 0.012207031, 0.011777949 
1.8310547e-2, 3.5344845e+0, -0.000000015418829, -37075.77, -0.06927786, 0.0, 0.00016580893, 0.000000114036084, 0.000000114036084, 0.0, 0.012207031, 0.011778069 
1.8310547e-2, 3.5462627e+0, -0.000000054846005, -37066.977, 0.05673337, 0.0, 0.00021881094, 0.00000003198511, 0.00000003198511, 0.0, 0.012207031, 0.011778166 
1.8310547e-2, 3.558041e+0, -0.00000093460477, -37055.605, 0.9613245, 0.0, 0.0002115935, 0.000024004803, 0.000024004803, 0.0, 0.012207031, 0.011778289 
1.8310547e-2, 3.5698193e+0, -0.000078163, -37048.71, 9.11728, 0.0, 0.0001644663, 0.0021654994, 0.0021654994, 0.0, 0.012207031, 0.011778366 
1.8310547e-2, 3.5815975e+0, -0.00000018148187, -37037.234, 0.39045948, 0.0, 0.0001787893, 0.0000039348743, 0.0000039348743, 0.0, 0.012207031, 0.011778492 
1.8310547e-2, 3.5933763e+0, -0.00000003419452, -37028.973, 0.24285805, 0.0, 0.00020825073, 0.000001558612, 0.000001558612, 0.0, 0.012207031, 0.011778582 
1.8310547e-2, 3.6051548e+0, -0.00000040587668, -37018.8, -0.622829, 0.0, 0.00019350836, 0.000010073018, 0.000010073018, 0.0, 0.012207031, 0.011778694 
1.8310547e-2, 3.6169335e+0, -0.00001592871, -37008.707, 4.954272, 0.0, 0.00018452424, 0.0006472884, 0.0006472884, 0.0, 0.012207031, 0.0117788045 
1.8310547e-2, 3.6287123e+0, -0.00000037228415, -36996.813, -0.6154453, 0.0, 0.00020042188, 0.000009865704, 0.000009865704, 0.0, 0.012207031, 0.011778935 
1.8310547e-2, 3.6404914e+0, 0.000000030117942, -36989.21, -0.05908291, 0.0, 0.00019309096, 0.00000012448436, 0.00000012448436, 0.0, 0.012207031, 0.011779019 
1.8310547e-2, 3.6522704e+0, -0.000000064265, -36978.57, -0.1851068, 0.0, 0.0001893153, 0.00000086233194, 0.00000086233194, 0.0, 0.012207031, 0.011779135 
1.8310547e-2, 3.6640495e+0, -0.00000001287307, -36969.168, 0.07441457, 0.0, 0.00019855327, 0.0000001369117, 0.0000001369117, 0.0, 0.012207031, 0.0117792385 
1.8310547e-2, 3.675829e+0, -0.00000004507631, -36959.402, 0.16713007, 0.0, 0.00020025086, 0.00000071068644, 0.00000071068644, 0.0, 0.012207031, 0.011779346 
1.8310547e-2, 3.6876085e+0, -0.00000002471454, -36949.875, -0.07456356, 0.0, 0.00019315805, 0.00000012575038, 0.00000012575038, 0.0, 0.012207031, 0.01177945 
1.8310547e-2, 3.699388e+0, -0.00000000036327466, -36939.574, 0.029814547, 0.0, 0.00020280732, 0.000000023697794, 0.000000023697794, 0.0, 0.012207031, 0.0117795635 
1.8310547e-2, 3.7111676e+0, -0.000000025211165, -36930.344, 0.098362476, 0.0, 0.0002015545, 0.00000023677421, 0.00000023677421, 0.0, 0.012207031, 0.011779665 
1.8310547e-2, 3.7229472e+0, -0.0000001340856, -36920.492, -0.2058561, 0.0, 0.00019422034, 0.000001013701, 0.000001013701, 0.0, 0.012207031, 0.011779773 
1.8310547e-2, 3.7347272e+0, 0.000000016952715, -36910.13, -0.055203635, 0.0, 0.00020552576, 0.00000009952055, 0.00000009952055, 0.0, 0.012207031, 0.011779887 
1.8310547e-2, 3.746507e+0, -0.000000000517664, -36900.758, 0.25671434, 0.0, 0.00020416877, 0.0000017854181, 0.0000017854181, 0.0, 0.012207031, 0.011779989 
1.8310547e-2, 3.758287e+0, -0.000000020316214, -36891.402, -0.038903102, 0.0, 0.00019578618, 0.000000020714651, 0.000000020714651, 0.0, 0.012207031, 0.011780092 
1.8310547e-2, 3.770067e+0, 0.000000008601334, -36880.97, -0.12716503, 0.0, 0.00021251352, 0.00000044706394, 0.00000044706394, 0.0, 0.012207031, 0.011780206 
1.8310547e-2, 3.7818474e+0, -0.00000004731502, -36871.44, 0.111184, 0.0, 0.0002174914, 0.00000028796057, 0.00000028796057, 0.0, 0.012207031, 0.011780311 
1.8310547e-2, 3.793628e+0, -0.000000030198052, -36862.035, -0.14975645, 0.0, 0.00018560258, 0.0000005782058, 0.0000005782058, 0.0, 0.012207031, 0.011780415 
1.8310547e-2, 3.8054085e+0, -0.00000003017693, -36851.395, -0.116261296, 0.0, 0.00019659035, 0.0000003366149, 0.0000003366149, 0.0, 0.012207031, 0.011780531 
1.8310547e-2, 3.817189e+0, -0.00000008383252, -36842.324, 0.16986355, 0.0, 0.00022718911, 0.00000069932867, 0.00000069932867, 0.0, 0.012207031, 0.011780631 
1.8310547e-2, 3.8289696e+0, -0.000000027773197, -36832.375, 0.18357593, 0.0, 0.00022065395, 0.0000008871866, 0.0000008871866, 0.0, 0.012207031, 0.01178074 
1.8310547e-2, 3.8407505e+0, -0.00000002780699, -36822.367, 0.06769162, 0.0, 0.00018522744, 0.00000009663199, 0.00000009663199, 0.0, 0.012207031, 0.01178085 
1.8310547e-2, 3.8525313e+0, -0.00000007120899, -36812.86, 0.24961483, 0.0, 0.00019022706, 0.0000016213453, 0.0000016213453, 0.0, 0.012207031, 0.011780954 
1.8310547e-2, 3.8643125e+0, -0.00000010838109, -36803.504, -0.32159394, 0.0, 0.0002251434, 0.0000027017522, 0.0000027017522, 0.0, 0.012207031, 0.011781057 
1.8310547e-2, 3.8760933e+0, -0.0000000120529275, -36792.48, -0.08862537, 0.0, 0.00023999876, 0.00000020142033, 0.00000020142033, 0.0, 0.012207031, 0.011781178 
1.8310547e-2, 3.8878745e+0, -0.000000035635985, -36784.207, 0.18580507, 0.0, 0.00018182084, 0.0000009029027, 0.0000009029027, 0.0, 0.012207031, 0.011781269 
1.8310547e-2, 3.899656e+0, -0.000000015479099, -36773.21, -0.05505598, 0.0, 0.00016778229, 0.00000006695336, 0.00000006695336, 0.0, 0.012207031, 0.01178139 
1.8310547e-2, 3.9114374e+0, -0.0000013129228, -36762.62, 1.131691, 0.0, 0.00023388142, 0.000033524753, 0.000033524753, 0.0, 0.012207031, 0.011781506 
1.8310547e-2, 3.923219e+0, -0.000005149027, -36754.555, 2.1158266, 0.0, 0.00025515916, 0.00011665145, 0.00011665145, 0.0, 0.012207031, 0.011781595 
1.8310547e-2, 3.9350006e+0, -0.00000085324945, -36746.7, 0.9317709, 0.0, 0.00017958526, 0.000022773282, 0.000022773282, 0.0, 0.012207031, 0.01178168 
1.8310547e-2, 3.9467826e+0, -0.0000000056934244, -36734.66, -0.06505289, 0.0, 0.00015986343, 0.000000109517714, 0.000000109517714, 0.0, 0.012207031, 0.011781813 
1.8310547e-2, 3.9585644e+0, -0.000000044005713, -36725.125, 0.18101664, 0.0, 0.00023131869, 0.0000008482166, 0.0000008482166, 0.0, 0.012207031, 0.011781918 
1.8310547e-2, 3.9703465e+0, -0.000000068669884, -36715.25, 0.22697881, 0.0, 0.00025528696, 0.0000013345489, 0.0000013345489, 0.0, 0.012207031, 0.011782026 
1.8310547e-2, 3.9821285e+0, 0.00000000047692034, -36706.063, -0.06854665, 0.0, 0.00018868335, 0.00000012848614, 0.00000012848614, 0.0, 0.012207031, 0.011782127 
1.8310547e-2, 3.9939106e+0, -0.000000034858708, -36695.367, -0.16501258, 0.0, 0.00017026822, 0.00000070717215, 0.00000070717215, 0.0, 0.012207031, 0.011782245 
1.8310547e-2, 4.005693e+0, -0.0000000020163335, -36686.1, 0.05436987, 0.0, 0.00022732603, 0.000000078558514, 0.000000078558514, 0.0, 0.012207031, 0.011782346 
1.8310547e-2, 4.0174752e+0, -0.000000011483469, -36675.824, 0.22806612, 0.0, 0.00023735239, 0.0000014067264, 0.0000014067264, 0.0, 0.012207031, 0.011782459 
1.8310547e-2, 4.029258e+0, -0.000000029861766, -36667.203, 0.0029887063, 0.0, 0.00019927854, -0.000000029620423, -0.000000029620423, 0.0, 0.012207031, 0.011782554 
1.8310547e-2, 4.0410405e+0, -0.000000028485587, -36655.934, -0.07413816, 0.0, 0.0002020897, 0.00000012146484, 0.00000012146484, 0.0, 0.012207031, 0.011782678 
1.8310547e-2, 4.0528232e+0, -0.000000007800121, -36647.082, 0.2591913, 0.0, 0.00022688067, 0.0000018253631, 0.0000018253631, 0.0, 0.012207031, 0.011782775 
1.8310547e-2, 4.064606e+0, -0.00000073947695, -36636.723, 0.8729055, 0.0, 0.00021014392, 0.000020058345, 0.000020058345, 0.0, 0.012207031, 0.011782888 
1.8310547e-2, 4.0763888e+0, -0.00000003413922, -36628.016, 0.12715438, 0.0, 0.00021169541, 0.000000407279, 0.000000407279, 0.0, 0.012207031, 0.011782984 
1.8310547e-2, 4.088172e+0, -0.00000004666956, -36616.652, 0.23653555, 0.0, 0.00023210535, 0.0000014813049, 0.0000014813049, 0.0, 0.012207031, 0.011783109 
1.8310547e-2, 4.099955e+0, -0.00000003547935, -36608.91, 0.123433985, 0.0, 0.00022429478, 0.0000003807072, 0.0000003807072, 0.0, 0.012207031, 0.011783194 
1.8310547e-2, 4.1117388e+0, -0.000000052411778, -36597.18, -0.16672228, 0.0, 0.000206483, 0.00000070711394, 0.00000070711394, 0.0, 0.012207031, 0.011783323 
1.8310547e-2, 4.1235217e+0, -0.000000013740867, -36588.77, 0.021948129, 0.0, 0.00022762029, -0.00000000057480065, -0.00000000057480065, 0.0, 0.012207031, 0.011783415 
1.8310547e-2, 4.1353053e+0, -0.000000009152318, -36577.617, 0.16396458, 0.0, 0.00023146409, 0.00000072584226, 0.00000072584226, 0.0, 0.012207031, 0.011783538 
1.8310547e-2, 4.147089e+0, 0.000000024751822, -36569.676, -0.035627265, 0.0, 0.00022058559, 0.000000059459126, 0.000000059459126, 0.0, 0.012207031, 0.011783625 
1.8310547e-2, 4.1588727e+0, -0.000000028012831, -36557.516, 0.09843541, 0.0, 0.0002299063, 0.00000023703615, 0.00000023703615, 0.0, 0.012207031, 0.011783759 
1.8310547e-2, 4.1706562e+0, -0.000000057184817, -36550.363, 0.22259647, 0.0, 0.00023413841, 0.0000012984601, 0.0000012984601, 0.0, 0.012207031, 0.011783837 
1.8310547e-2, 4.1824403e+0, -0.00000003578085, -36538.336, -0.19768918, 0.0, 0.00022130166, 0.0000010338117, 0.0000010338117, 0.0, 0.012207031, 0.01178397 
1.8310547e-2, 4.1942245e+0, -0.000000049329, -36530.438, -0.16499661, 0.0, 0.0002337299, 0.00000069590897, 0.00000069590897, 0.0, 0.012207031, 0.011784056 
1.8310547e-2, 4.2060083e+0, -0.00000016531978, -36518.113, 0.30295268, 0.0, 0.00023665735, 0.000002347966, 0.000002347966, 0.0, 0.012207031, 0.011784192 
1.8310547e-2, 4.2177925e+0, -0.00000001615325, -36511.805, 0.11422947, 0.0, 0.00021601845, 0.00000034122058, 0.00000034122058, 0.0, 0.012207031, 0.011784261 
1.8310547e-2, 4.2295772e+0, 0.000000032702246, -36499.156, -0.046433162, 0.0, 0.00023738471, 0.00000009177893, 0.00000009177893, 0.0, 0.012207031, 0.0117844 
1.8310547e-2, 4.2413616e+0, 0.000000001056095, -36492.195, 0.086909875, 0.0, 0.00025692245, 0.00000020804146, 0.00000020804146, 0.0, 0.012207031, 0.011784476 
1.8310547e-2, 4.253146e+0, -0.00000007156077, -36479.824, -0.06928524, 0.0, 0.00021984536, 0.00000006002665, 0.00000006002665, 0.0, 0.012207031, 0.011784612 
1.8310547e-2, 4.2649308e+0, -0.00000003807893, -36472.625, -0.15148602, 0.0, 0.00020329686, 0.0000005910988, 0.0000005910988, 0.0, 0.012207031, 0.011784691 
1.8310547e-2, 4.2767152e+0, -0.000000009326839, -36459.85, 0.09754006, 0.0, 0.00024945824, 0.00000025162444, 0.00000025162444, 0.0, 0.012207031, 0.011784832 
1.8310547e-2, 4.2885002e+0, 0.000000003281977, -36453.66, -0.11769772, 0.0, 0.00025843014, 0.00000038329017, 0.00000038329017, 0.0, 0.012207031, 0.0117849 
1.8310547e-2, 4.3002853e+0, 0.00000000054681326, -36439.773, -0.053937223, 0.0, 0.00022302046, 0.00000008038478, 0.00000008038478, 0.0, 0.012207031, 0.011785053 
1.8310547e-2, 4.3120703e+0, -0.00000013580758, -36434.016, 0.30226952, 0.0, 0.00019622034, 0.000002371933, 0.000002371933, 0.0, 0.012207031, 0.011785116 
1.8310547e-2, 4.3238553e+0, -0.00000010121357, -36421.23, -0.22108343, 0.0, 0.00023549693, 0.0000012407982, 0.0000012407982, 0.0, 0.012207031, 0.011785257 
1.8310547e-2, 4.335641e+0, -0.000000033273743, -36413.84, -0.21766427, 0.0, 0.0002757287, 0.0000012678138, 0.0000012678138, 0.0, 0.012207031, 0.011785338 
1.8310547e-2, 4.3474263e+0, -0.000000032206533, -36401.26, 0.17462714, 0.0, 0.00022842422, 0.0000008055358, 0.0000008055358, 0.0, 0.012207031, 0.0117854765 
1.8310547e-2, 4.359212e+0, -0.000000094367856, -36395.188, -0.31574985, 0.0, 0.00016833284, 0.0000026449488, 0.0000026449488, 0.0, 0.012207031, 0.011785543 
1.8310547e-2, 4.3709975e+0, -0.000000025598334, -36380.74, -0.039322462, 0.0, 0.00023248233, 0.00000001690205, 0.00000001690205, 0.0, 0.012207031, 0.011785702 
1.8310547e-2, 4.382783e+0, -0.000000080741934, -36375.875, 0.34263948, 0.0, 0.0002895341, 0.0000031467207, 0.0000031467207, 0.0, 0.012207031, 0.011785755 
1.8310547e-2, 4.3945688e+0, -0.000000001968649, -36361.46, -0.06732679, 0.0, 0.00022526109, 0.0000001226872, 0.0000001226872, 0.0, 0.012207031, 0.011785913 
1.8310547e-2, 4.406355e+0, -0.0000012307215, -36353.887, 1.0668259, 0.0, 0.00016780202, 0.000030075906, 0.000030075906, 0.0, 0.012207031, 0.011785997 
1.8310547e-2, 4.418141e+0, -0.000007086501, -36342.26, 2.418687, 0.0, 0.0002273714, 0.00015388441, 0.00015388441, 0.0, 0.012207031, 0.011786125 
1.8310547e-2, 4.4299275e+0, -0.000002183758, -36338.082, 1.463705, 0.0, 0.00027981467, 0.000056774566, 0.000056774566, 0.0, 0.012207031, 0.01178617 
1.8310547e-2, 4.4417134e+0, -0.0000000033458107, -36323.438, 0.09260173, 0.0, 0.00022843912, 0.00000023272878, 0.00000023272878, 0.0, 0.012207031, 0.011786331 
1.8310547e-2, 4.4535e+0, -0.000000064751184, -36316.69, -0.19004603, 0.0, 0.00018735815, 0.0000009297655, 0.0000009297655, 0.0, 0.012207031, 0.011786406 
1.8310547e-2, 4.465286e+0, 0.000000049596828, -36303.07, -0.014251838, 0.0, 0.00023311212, 0.000000055195414, 0.000000055195414, 0.0, 0.012207031, 0.011786556 
1.8310547e-2, 4.4770727e+0, -0.000000053001198, -36297.137, 0.15055308, 0.0, 0.00025638693, 0.00000057146826, 0.00000057146826, 0.0, 0.012207031, 0.011786621 
1.8310547e-2, 4.4888598e+0, -0.000000013943421, -36283.836, 0.025286816, 0.0, 0.00022358351, 0.0000000036816346, 0.0000000036816346, 0.0, 0.012207031, 0.011786767 
1.8310547e-2, 4.5006466e+0, -0.0000000071914688, -36277.61, -0.036279533, 0.0, 0.00022754782, 0.000000029096554, 0.000000029096554, 0.0, 0.012207031, 0.011786835 
1.8310547e-2, 4.5124334e+0, -0.0000000073482176, -36263.95, 0.10319272, 0.0, 0.00024663314, 0.00000028629438, 0.00000028629438, 0.0, 0.012207031, 0.011786986 
1.8310547e-2, 4.5242205e+0, 0.000000037851148, -36258.652, -0.040723428, 0.0, 0.00023130728, 0.00000008359348, 0.00000008359348, 0.0, 0.012207031, 0.011787044 
1.8310547e-2, 4.5360073e+0, 0.000000001310319, -36243.992, -0.10694551, 0.0, 0.00022778948, 0.00000031687523, 0.00000031687523, 0.0, 0.012207031, 0.011787205 
1.8310547e-2, 4.5477948e+0, -0.00000010360577, -36238.67, 0.26024637, 0.0, 0.00025506277, 0.0000017653438, 0.0000017653438, 0.0, 0.012207031, 0.011787264 
1.8310547e-2, 4.5595822e+0, -0.0000009074803, -36224.832, 0.97909003, 0.0, 0.00024782625, 0.000025555506, 0.000025555506, 0.0, 0.012207031, 0.0117874155 
1.8310547e-2, 4.5713696e+0, -0.0000000068737567, -36219.883, -0.06114481, 0.0, 0.00023316914, 0.00000009634823, 0.00000009634823, 0.0, 0.012207031, 0.01178747 
1.8310547e-2, 4.583157e+0, -0.00000002074554, -36204.813, 0.0013522836, 0.0, 0.00025388837, -0.000000020692823, -0.000000020692823, 0.0, 0.012207031, 0.011787636 
1.8310547e-2, 4.594945e+0, -0.000000015337276, -36200.23, 0.13739133, 0.0, 0.0002525229, 0.00000050610834, 0.00000050610834, 0.0, 0.012207031, 0.0117876865 
1.8310547e-2, 4.6067324e+0, 0.000000010165188, -36185.64, -0.078827165, 0.0, 0.0002351253, 0.00000018187711, 0.00000018187711, 0.0, 0.012207031, 0.011787847 
1.8310547e-2, 4.61852e+0, -0.00000001175048, -36180.35, 0.10181695, 0.0, 0.0002567363, 0.00000027477654, 0.00000027477654, 0.0, 0.012207031, 0.011787905 
1.8310547e-2, 4.6303087e+0, -0.00000008241489, -36165.86, 0.37674165, 0.0, 0.00027336404, 0.0000038421203, 0.0000038421203, 0.0, 0.012207031, 0.011788065 
1.8310547e-2, 4.6420965e+0, 0.00000003192547, -36161.934, -0.088626884, 0.0, 0.00024225198, 0.00000024913606, 0.00000024913606, 0.0, 0.012207031, 0.011788107 
1.8310547e-2, 4.6538848e+0, -0.00000019075573, -36145.85, -0.331829, 0.0, 0.00024908964, 0.0000028555369, 0.0000028555369, 0.0, 0.012207031, 0.011788284 
1.8310547e-2, 4.6656734e+0, -0.00000012724922, -36141.277, 0.22762303, 0.0, 0.0002682222, 0.0000013063545, 0.0000013063545, 0.0, 0.012207031, 0.011788335 
1.8310547e-2, 4.6774617e+0, -0.00000010024016, -36126.836, 0.28525582, 0.0, 0.0002528575, 0.0000021521264, 0.0000021521264, 0.0, 0.012207031, 0.011788494 
1.8310547e-2, 4.68925e+0, 0.00000002841086, -36122.57, -0.08038151, 0.0, 0.0002495759, 0.00000020728476, 0.00000020728476, 0.0, 0.012207031, 0.0117885405 
1.8310547e-2, 4.701039e+0, 0.000000014179701, -36106.59, -0.013461664, 0.0, 0.00028215375, 0.000000019201252, 0.000000019201252, 0.0, 0.012207031, 0.011788717 
1.8310547e-2, 4.7128272e+0, 0.0000000033590561, -36103.03, 0.030271146, 0.0, 0.00025753485, 0.000000028740033, 0.000000028740033, 0.0, 0.012207031, 0.011788756 
1.8310547e-2, 4.724616e+0, -0.000000021917437, -36086.996, 0.013686493, 0.0, 0.00023912716, -0.00000001672015, -0.00000001672015, 0.0, 0.012207031, 0.011788932 
1.8310547e-2, 4.7364053e+0, -0.000000037533468, -36083.574, 0.12086218, 0.0, 0.00025795118, 0.00000036729034, 0.00000036729034, 0.0, 0.012207031, 0.01178897 
1.8310547e-2, 4.7481942e+0, -0.00000010829538, -36067.984, -0.26394355, 0.0, 0.00028213498, 0.0000018232313, 0.0000018232313, 0.0, 0.012207031, 0.011789141 
1.8310547e-2, 4.7599834e+0, -0.000000032701458, -36063.2, -0.21071935, 0.0, 0.00026155938, 0.0000011985467, 0.0000011985467, 0.0, 0.012207031, 0.011789193 
1.8310547e-2, 4.771773e+0, -0.00000023284814, -36047.625, 0.51653224, 0.0, 0.00023697605, 0.00000716863, 0.00000716863, 0.0, 0.012207031, 0.011789365 
1.8310547e-2, 4.783562e+0, -0.000000022582581, -36045.445, 0.09371324, 0.0, 0.00023591917, 0.00000022105814, 0.00000022105814, 0.0, 0.012207031, 0.011789389 
1.8310547e-2, 4.7953516e+0, -0.00000027521278, -36028.06, -0.52156484, 0.0, 0.00029941418, 0.000007275288, 0.000007275288, 0.0, 0.012207031, 0.011789581 
1.8310547e-2, 4.8071414e+0, -0.000000025361187, -36024.51, 0.056233946, 0.0, 0.00028515278, 0.000000062413164, 0.000000062413164, 0.0, 0.012207031, 0.01178962 
1.8310547e-2, 4.8189312e+0, -0.000000016304025, -36008.957, 0.06747237, 0.0, 0.00019763573, 0.00000011012162, 0.00000011012162, 0.0, 0.012207031, 0.01178979 
1.8310547e-2, 4.830721e+0, -0.000000021127667, -36005.32, -0.11988902, 0.0, 0.00021478064, 0.0000003780733, 0.0000003780733, 0.0, 0.012207031, 0.01178983 
1.8310547e-2, 4.8425108e+0, -0.000000019261261, -35989.383, 0.044911314, 0.0, 0.00032896214, 0.00000003678724, 0.00000003678724, 0.0, 0.012207031, 0.011790006 
1.8310547e-2, 4.8543006e+0, -0.000000102460845, -35985.75, -0.27560923, 0.0, 0.00029932318, 0.0000020083899, 0.0000020083899, 0.0, 0.012207031, 0.0117900465 
1.8310547e-2, 4.8660907e+0, -0.000000040407517, -35969.12, 0.12941062, 0.0, 0.0001822635, 0.00000042518514, 0.00000042518514, 0.0, 0.012207031, 0.011790229 
1.8310547e-2, 4.877881e+0, -0.00000009338802, -35966.777, 0.37453094, 0.0, 0.00019390784, 0.000003806701, 0.000003806701, 0.0, 0.012207031, 0.011790255 
1.8310547e-2, 4.8896712e+0, -0.000000012553649, -35949.387, -0.06702678, 0.0, 0.00033103256, 0.000000112413545, 0.000000112413545, 0.0, 0.012207031, 0.011790446 
1.8310547e-2, 4.9014622e+0, -0.0000017635078, -35944.65, 1.2854894, 0.0, 0.0003235317, 0.00004420949, 0.00004420949, 0.0, 0.012207031, 0.011790498 
1.8310547e-2, 4.9132523e+0, -0.000077061275, -35931.5, 9.110929, 0.0, 0.00018298367, 0.0022331406, 0.0022331406, 0.0, 0.012207031, 0.011790643 
1.8310547e-2, 4.925043e+0, -0.0000015251156, -35929.35, 1.2048104, 0.0, 0.00018778899, 0.000038875507, 0.000038875507, 0.0, 0.012207031, 0.011790667 
1.8310547e-2, 4.936834e+0, -0.00000010415822, -35911.246, 0.3325001, 0.0, 0.0003233018, 0.0000029744406, 0.0000029744406, 0.0, 0.012207031, 0.011790866 
1.8310547e-2, 4.9486247e+0, -0.00000012603452, -35908.727, 0.33036056, 0.0, 0.00031337, 0.0000029132862, 0.0000029132862, 0.0, 0.012207031, 0.011790894 
1.8310547e-2, 4.960416e+0, -0.000000051311755, -35892.113, -0.17064238, 0.0, 0.00020978242, 0.00000075998105, 0.00000075998105, 0.0, 0.012207031, 0.0117910765 
1.8310547e-2, 4.972207e+0, -0.000000034709192, -35888.64, -0.25342837, 0.0, 0.00022566471, 0.0000017548809, 0.0000017548809, 0.0, 0.012207031, 0.011791115 
1.8310547e-2, 4.9839982e+0, 0.0000000024117008, -35871.65, 0.16933785, 0.0, 0.0002989685, 0.0000008017887, 0.0000008017887, 0.0, 0.012207031, 0.011791302 
1.8310547e-2, 4.9957895e+0, -0.000000021254188, -35869.87, 0.10528896, 0.0, 0.00026988995, 0.0000002878005, 0.0000002878005, 0.0, 0.012207031, 0.011791321 
1.8310547e-2, 5.0075805e+0, -0.000000010857304, -35852.31, -0.07829018, 0.0, 0.00024480873, 0.00000016010745, 0.00000016010745, 0.0, 0.012207031, 0.011791515 
1.8310547e-2, 5.0193727e+0, 0.000000023811104, -35849.758, 0.14576702, 0.0, 0.000285532, 0.00000061650644, 0.00000061650644, 0.0, 0.012207031, 0.011791543 
1.8310547e-2, 5.031164e+0, -0.00000001944219, -35833.305, 0.063890636, 0.0, 0.0002787919, 0.00000009447831, 0.00000009447831, 0.0, 0.012207031, 0.011791724 
1.8310547e-2, 5.042956e+0, -0.00000010578138, -35830.64, -0.34436354, 0.0, 0.00022864326, 0.0000032038515, 0.0000032038515, 0.0, 0.012207031, 0.011791754 
1.8310547e-2, 5.0547475e+0, 0.00000002041628, -35812.28, 0.10005691, 0.0, 0.0002748219, 0.00000029997318, 0.00000029997318, 0.0, 0.012207031, 0.011791956 
1.8310547e-2, 5.0665396e+0, -0.00000027888495, -35811.17, 0.55677927, 0.0, 0.00031154565, 0.0000083777195, 0.0000083777195, 0.0, 0.012207031, 0.011791968 
1.8310547e-2, 5.078331e+0, 0.000000009582001, -35794.26, 0.009858666, 0.0, 0.0002653787, 0.000000012296368, 0.000000012296368, 0.0, 0.012207031, 0.011792154 
1.8310547e-2, 5.0901234e+0, -0.00000018736218, -35791.543, -0.44294047, 0.0, 0.00024430064, 0.0000052942705, 0.0000052942705, 0.0, 0.012207031, 0.011792184 
1.8310547e-2, 5.101916e+0, -0.00000007183456, -35773.113, 0.10725447, 0.0, 0.0002932139, 0.00000024972542, 0.00000024972542, 0.0, 0.012207031, 0.011792387 
1.8310547e-2, 5.1137084e+0, -0.000000089325155, -35772.605, 0.26549494, 0.0, 0.00027796597, 0.0000018811115, 0.0000018811115, 0.0, 0.012207031, 0.0117923925 
1.8310547e-2, 5.125501e+0, -0.0000000049742512, -35754.246, -0.104611136, 0.0, 0.00026659685, 0.00000030110095, 0.00000030110095, 0.0, 0.012207031, 0.011792595 
1.8310547e-2, 5.137294e+0, -0.00000004406905, -35752.49, 0.12355625, 0.0, 0.00028964673, 0.00000038292637, 0.00000038292637, 0.0, 0.012207031, 0.011792614 
1.8310547e-2, 5.149087e+0, -0.000000000045926613, -35734.742, 0.17932415, 0.0, 0.00028679063, 0.0000008998395, 0.0000008998395, 0.0, 0.012207031, 0.01179281 
1.8310547e-2, 5.160879e+0, -0.00000012066458, -35733.707, -0.25465062, 0.0, 0.0002565189, 0.0000016940612, 0.0000016940612, 0.0, 0.012207031, 0.011792821 
1.8310547e-2, 5.172672e+0, -0.00000001754808, -35714.215, -0.044139445, 0.0, 0.00029149425, 0.00000003700552, 0.00000003700552, 0.0, 0.012207031, 0.011793035 
1.8310547e-2, 5.184465e+0, -0.0000001313328, -35714.1, 0.21644709, 0.0, 0.0002801592, 0.0000011804514, 0.0000011804514, 0.0, 0.012207031, 0.011793037 
1.8310547e-2, 5.196258e+0, -0.000000033556734, -35695.367, -0.17148611, 0.0, 0.00026267837, 0.0000007902927, 0.0000007902927, 0.0, 0.012207031, 0.011793243 
1.8310547e-2, 5.208052e+0, -0.00000005588471, -35693.66, 0.18635266, 0.0, 0.00029257452, 0.00000091703987, 0.00000091703987, 0.0, 0.012207031, 0.011793261 
1.8310547e-2, 5.2198446e+0, -0.00000017211741, -35676.156, 0.44013217, 0.0, 0.0002987447, 0.0000052577307, 0.0000052577307, 0.0, 0.012207031, 0.011793454 
1.8310547e-2, 5.2316386e+0, -0.00000033275828, -35675.695, -0.48338044, 0.0, 0.00024937728, 0.000006216702, 0.000006216702, 0.0, 0.012207031, 0.01179346 
1.8310547e-2, 5.243432e+0, -0.00000019155321, -35655.094, -0.466525, 0.0, 0.00028360717, 0.0000059126396, 0.0000059126396, 0.0, 0.012207031, 0.011793686 
1.8310547e-2, 5.255226e+0, -0.00000030082757, -35655.113, 0.5363043, 0.0, 0.00029423131, 0.000007765964, 0.000007765964, 0.0, 0.012207031, 0.011793686 
1.8310547e-2, 5.267019e+0, -0.00000005966723, -35637.055, 0.18120587, 0.0, 0.00025443977, 0.0000008617135, 0.0000008617135, 0.0, 0.012207031, 0.011793885 
1.8310547e-2, 5.278813e+0, -0.00000009391968, -35635.813, -0.22842787, 0.0, 0.00028326287, 0.0000013703175, 0.0000013703175, 0.0, 0.012207031, 0.011793899 
1.8310547e-2, 5.290607e+0, -0.000000015483423, -35616.54, 0.20312868, 0.0, 0.0003175536, 0.000001143002, 0.000001143002, 0.0, 0.012207031, 0.011794111 
1.8310547e-2, 5.302402e+0, 0.00000001913961, -35616.848, -0.059823204, 0.0, 0.00025686502, 0.00000011962402, 0.00000011962402, 0.0, 0.012207031, 0.011794108 
1.8310547e-2, 5.314196e+0, -0.000000042555364, -35596.746, -0.10669947, 0.0, 0.00025299753, 0.0000002772722, 0.0000002772722, 0.0, 0.012207031, 0.01179433 
1.8310547e-2, 5.3259903e+0, 0.00000007490879, -35597.133, 0.16682695, 0.0, 0.0002996029, 0.000000856744, 0.000000856744, 0.0, 0.012207031, 0.011794325 
1.8310547e-2, 5.337784e+0, -0.00000021364045, -35578.023, -0.4180909, 0.0, 0.00030217035, 0.0000046995046, 0.0000046995046, 0.0, 0.012207031, 0.011794535 
1.8310547e-2, 5.349579e+0, 0.00000005686739, -35576.14, 0.10925643, 0.0, 0.00027894235, 0.00000039240695, 0.00000039240695, 0.0, 0.012207031, 0.011794556 
1.8310547e-2, 5.361374e+0, -0.00000034884317, -35558.7, 0.59483993, 0.0, 0.00025155226, 0.00000960187, 0.00000960187, 0.0, 0.012207031, 0.011794749 
1.8310547e-2, 5.3731686e+0, -0.00000014347813, -35558.34, -0.4133585, 0.0, 0.00027901548, 0.000004661735, 0.000004661735, 0.0, 0.012207031, 0.011794752 
1.8310547e-2, 5.384964e+0, 0.000000027318181, -35537.5, -0.03781736, 0.0, 0.00034192853, 0.00000006756454, 0.00000006756454, 0.0, 0.012207031, 0.011794982 
1.8310547e-2, 5.3967583e+0, -0.000000015574978, -35539.227, 0.28846413, 0.0, 0.00028676377, 0.000002325818, 0.000002325818, 0.0, 0.012207031, 0.011794963 
1.8310547e-2, 5.4085535e+0, -0.00000038891577, -35518.668, -0.6154263, 0.0, 0.00021883112, 0.000010274474, 0.000010274474, 0.0, 0.012207031, 0.011795189 
1.8310547e-2, 5.4203486e+0, -0.0000001296367, -35518.2, 0.2375823, 0.0, 0.00029790116, 0.0000014595644, 0.0000014595644, 0.0, 0.012207031, 0.011795195 
1.8310547e-2, 5.432144e+0, -0.000000041596753, -35499.832, 0.16469447, 0.0, 0.0003488638, 0.0000007224735, 0.0000007224735, 0.0, 0.012207031, 0.011795397 
1.8310547e-2, 5.443939e+0, -0.00000042298268, -35499.09, -0.6323059, 0.0, 0.0002851274, 0.000010839583, 0.000010839583, 0.0, 0.012207031, 0.011795405 
1.8310547e-2, 5.455735e+0, 0.0000000021102518, -35480.332, -0.120579354, 0.0, 0.0002465463, 0.00000041189196, 0.00000041189196, 0.0, 0.012207031, 0.011795612 
1.8310547e-2, 5.4675305e+0, -0.000005910647, -35483.656, -2.2226408, 0.0, 0.00029189052, 0.0001333121, 0.0001333121, 0.0, 0.012207031, 0.011795576 
1.8310547e-2, 5.479326e+0, -0.00024632263, -35459.363, 16.133118, 0.0, 0.00033713123, 0.0070938384, 0.0070938384, 0.0, 0.012207031, 0.011795843 
1.8310547e-2, 5.491122e+0, -0.0000076087144, -35457.137, -2.4829214, 0.0, 0.00028825083, 0.00016626032, 0.00016626032, 0.0, 0.012207031, 0.011795867 
1.8310547e-2, 5.502918e+0, -0.0000001595747, -35440.223, -0.42286912, 0.0, 0.0002746566, 0.000004886053, 0.000004886053, 0.0, 0.012207031, 0.011796054 
1.8310547e-2, 5.514714e+0, -0.00009545072, -35440.42, 9.965551, 0.0, 0.0003080687, 0.0027067792, 0.0027067792, 0.0, 0.012207031, 0.011796052 
1.8310547e-2, 5.5265105e+0, -0.0000000047962003, -35420.637, -0.2306302, 0.0, 0.0003032253, 0.0000014968828, 0.0000014968828, 0.0, 0.012207031, 0.01179627 
1.8310547e-2, 5.538306e+0, -0.000000039700012, -35421.254, -0.11585949, 0.0, 0.00028141326, 0.00000033926335, 0.00000033926335, 0.0, 0.012207031, 0.011796263 
1.8310547e-2, 5.5501026e+0, 0.000000041552443, -35401.176, 0.14056772, 0.0, 0.00031571998, 0.00000059970625, 0.00000059970625, 0.0, 0.012207031, 0.011796485 
1.8310547e-2, 5.561899e+0, -0.0000000946999, -35401.67, 0.20659624, 0.0, 0.0003138617, 0.0000011109514, 0.0000011109514, 0.0, 0.012207031, 0.011796479 
1.8310547e-2, 5.573696e+0, -0.000000022205265, -35382.543, -0.28372929, 0.0, 0.00028330524, 0.0000022529857, 0.0000022529857, 0.0, 0.012207031, 0.01179669 
1.8310547e-2, 5.585493e+0, -0.00000008767115, -35381.285, -0.25320688, 0.0, 0.00028666153, 0.0000017244092, 0.0000017244092, 0.0, 0.012207031, 0.011796704 
1.8310547e-2, 5.59729e+0, -0.00000013557366, -35362.516, 0.28417453, 0.0, 0.00032596875, 0.0000021480664, 0.0000021480664, 0.0, 0.012207031, 0.01179691 
1.8310547e-2, 5.609087e+0, 0.000000020797966, -35362.84, 0.13559857, 0.0, 0.00029948814, 0.00000054074917, 0.00000054074917, 0.0, 0.012207031, 0.011796907 
1.8310547e-2, 5.620884e+0, -0.000000028024173, -35343.945, 0.14002506, 0.0, 0.0002943163, 0.0000005267211, 0.0000005267211, 0.0, 0.012207031, 0.011797115 
1.8310547e-2, 5.6326807e+0, -0.000000020256511, -35342.734, -0.040215395, 0.0, 0.00030974613, 0.000000025502231, 0.000000025502231, 0.0, 0.012207031, 0.011797128 
1.8310547e-2, 5.6444776e+0, 0.000000024091573, -35324.824, 0.057554513, 0.0, 0.00030709375, 0.00000011786324, 0.00000011786324, 0.0, 0.012207031, 0.011797326 
1.8310547e-2, 5.656275e+0, -0.00000002529215, -35323.156, -0.1801311, 0.0, 0.00028255742, 0.00000089328387, 0.00000089328387, 0.0, 0.012207031, 0.011797344 
1.8310547e-2, 5.6680727e+0, 0.000000007971467, -35304.81, 0.09638437, 0.0, 0.00031571256, 0.00000027111673, 0.00000027111673, 0.0, 0.012207031, 0.011797546 
1.8310547e-2, 5.67987e+0, -0.000000032567474, -35303.65, 0.29224554, 0.0, 0.00031219827, 0.0000023866596, 0.0000023866596, 0.0, 0.012207031, 0.011797559 
1.8310547e-2, 5.691668e+0, -0.00000004017847, -35286.21, -0.13618985, 0.0, 0.00029453737, 0.00000048545917, 0.00000048545917, 0.0, 0.012207031, 0.011797752 
1.8310547e-2, 5.7034653e+0, 0.000000019745425, -35283.45, -0.15601128, 0.0, 0.00030407062, 0.0000007095732, 0.0000007095732, 0.0, 0.012207031, 0.011797782 
1.8310547e-2, 5.7152635e+0, -0.000000025338206, -35266.195, 0.15631521, 0.0, 0.00031536055, 0.00000066752546, 0.00000066752546, 0.0, 0.012207031, 0.011797973 
1.8310547e-2, 5.727061e+0, -0.000000038633598, -35264.45, -0.050370105, 0.0, 0.00028671, 0.000000033309334, 0.000000033309334, 0.0, 0.012207031, 0.011797992 
1.8310547e-2, 5.73886e+0, -0.000000014522697, -35246.527, -0.056606494, 0.0, 0.00030894188, 0.000000076383, 0.000000076383, 0.0, 0.012207031, 0.011798189 
1.8310547e-2, 5.7506573e+0, -0.00000007889303, -35244.316, 0.30386367, 0.0, 0.00032276864, 0.00000254091, 0.00000254091, 0.0, 0.012207031, 0.011798214 
1.8310547e-2, 5.762456e+0, 0.000000010287971, -35228.13, -0.025873717, 0.0, 0.00029934608, 0.00000002928573, 0.00000002928573, 0.0, 0.012207031, 0.011798392 
1.8310547e-2, 5.774254e+0, -0.00000006560175, -35224.31, -0.22495605, 0.0, 0.00030297923, 0.0000013710523, 0.0000013710523, 0.0, 0.012207031, 0.011798434 
1.8310547e-2, 5.786053e+0, 0.0000000019616466, -35207.992, 0.13410503, 0.0, 0.0003222683, 0.00000051275856, 0.00000051275856, 0.0, 0.012207031, 0.011798615 
1.8310547e-2, 5.7978517e+0, -0.00000001638106, -35205.21, -0.033805884, 0.0, 0.00029624524, 0.000000016079866, 0.000000016079866, 0.0, 0.012207031, 0.011798645 
1.8310547e-2, 5.8096504e+0, 0.000000021313994, -35188.496, -0.13177876, 0.0, 0.00030810776, 0.0000005148104, 0.0000005148104, 0.0, 0.012207031, 0.01179883 
1.8310547e-2, 5.821449e+0, -0.00000015541036, -35184.918, 0.32992765, 0.0, 0.00033115223, 0.0000029383154, 0.0000029383154, 0.0, 0.012207031, 0.011798869 
1.8310547e-2, 5.833248e+0, 0.00000007316797, -35169.96, 0.05260349, 0.0, 0.0003068192, 0.00000015184924, 0.00000015184924, 0.0, 0.012207031, 0.011799034 
1.8310547e-2, 5.845047e+0, -0.000000051346714, -35165.41, -0.22939466, 0.0, 0.00031009657, 0.0000014450634, 0.0000014450634, 0.0, 0.012207031, 0.011799084 
1.8310547e-2, 5.8568466e+0, -0.000000029048833, -35149.418, 0.17003013, 0.0, 0.00032900317, 0.00000079345045, 0.00000079345045, 0.0, 0.012207031, 0.01179926 
1.8310547e-2, 5.868646e+0, -0.000000018972333, -35146.906, -0.070756786, 0.0, 0.0003056744, 0.00000012346572, 0.00000012346572, 0.0, 0.012207031, 0.011799288 
1.8310547e-2, 5.880445e+0, -0.000000051026205, -35129.383, -0.21219327, 0.0, 0.00031502274, 0.0000012306919, 0.0000012306919, 0.0, 0.012207031, 0.011799482 
1.8310547e-2, 5.8922446e+0, -0.00000010925832, -35126.664, 0.30085838, 0.0, 0.00033376476, 0.0000024675828, 0.0000024675828, 0.0, 0.012207031, 0.0117995115 
1.8310547e-2, 5.904044e+0, -0.0000000067603816, -35110.88, -0.06809548, 0.0, 0.00031543133, 0.00000012530654, 0.00000012530654, 0.0, 0.012207031, 0.011799686 
1.8310547e-2, 5.915844e+0, -0.000000015262803, -35106.426, -0.0533123, 0.0, 0.00031990572, 0.00000006569462, 0.00000006569462, 0.0, 0.012207031, 0.011799735 
1.8310547e-2, 5.927644e+0, -0.00000008325396, -35091.375, 0.24149245, 0.0, 0.0003324841, 0.0000015786572, 0.0000015786572, 0.0, 0.012207031, 0.011799901 
1.8310547e-2, 5.939444e+0, -0.00000016116219, -35087.31, -0.33014017, 0.0, 0.00031393013, 0.0000029451621, 0.0000029451621, 0.0, 0.012207031, 0.0117999455 
1.8310547e-2, 5.9512436e+0, -0.000000020531136, -35071.41, -0.11748586, 0.0, 0.00032835244, 0.00000037303107, 0.00000037303107, 0.0, 0.012207031, 0.011800121 
1.8310547e-2, 5.9630436e+0, -0.000000011291496, -35067.832, 0.17450958, 0.0, 0.00032696358, 0.00000085712963, 0.00000085712963, 0.0, 0.012207031, 0.011800161 
1.8310547e-2, 5.974844e+0, -0.00000017601904, -35052.633, -0.43221453, 0.0, 0.00032232446, 0.000005153379, 0.000005153379, 0.0, 0.012207031, 0.011800328 
1.8310547e-2, 5.986644e+0, 0.000000057467997, -35047.453, 0.22272913, 0.0, 0.0003280952, 0.000001472923, 0.000001472923, 0.0, 0.012207031, 0.011800385 
1.8310547e-2, 5.998445e+0, -0.00000007495858, -35033.81, 0.08701142, 0.0, 0.0003298525, 0.0000001411463, 0.0000001411463, 0.0, 0.012207031, 0.011800536 
1.8310547e-2, 6.010245e+0, 0.00000003040075, -35027.86, -0.14663936, 0.0, 0.00032141947, 0.00000064428605, 0.00000064428605, 0.0, 0.012207031, 0.011800601 
1.8310547e-2, 6.022046e+0, -0.000000026004088, -35014.24, -0.12925082, 0.0, 0.00033292192, 0.00000045110937, 0.00000045110937, 0.0, 0.012207031, 0.011800752 
1.8310547e-2, 6.033847e+0, -0.0000031455795, -35011.72, -1.6933073, 0.0, 0.00032146086, 0.00007874957, 0.00007874957, 0.0, 0.012207031, 0.01180078 
1.8310547e-2, 6.045648e+0, -0.00012095103, -34993.215, 11.3856945, 0.0, 0.0003326937, 0.0035835968, 0.0035835968, 0.0, 0.012207031, 0.011800984 
1.8310547e-2, 6.057449e+0, -0.0000035359778, -34986.91, -1.7709612, 0.0, 0.00032316806, 0.00008610622, 0.00008610622, 0.0, 0.012207031, 0.011801054 
1.8310547e-2, 6.06925e+0, 0.000000037137823, -34974.227, -0.13350452, 0.0, 0.00032979692, 0.0000005467591, 0.0000005467591, 0.0, 0.012207031, 0.0118011935 
1.8310547e-2, 6.081051e+0, -0.000000025278974, -34969.44, -0.1258696, 0.0, 0.00032500125, 0.00000042777538, 0.00000042777538, 0.0, 0.012207031, 0.011801247 
1.8310547e-2, 6.0928524e+0, -0.000000058955436, -34954.906, -0.09455714, 0.0, 0.00032978298, 0.0000001968292, 0.0000001968292, 0.0, 0.012207031, 0.011801407 
1.8310547e-2, 6.104654e+0, -0.00000001822464, -34949.816, 0.07771225, 0.0, 0.00032298808, 0.00000015457044, 0.00000015457044, 0.0, 0.012207031, 0.011801463 
1.8310547e-2, 6.116456e+0, -0.000000031521125, -34935.84, 0.0028239263, 0.0, 0.0003329495, -0.000000031293894, -0.000000031293894, 0.0, 0.012207031, 0.011801617 
1.8310547e-2, 6.1282575e+0, -0.000000029671849, -34929.914, 0.028911509, 0.0, 0.00032382878, -0.0000000057480065, -0.0000000057480065, 0.0, 0.012207031, 0.011801682 
1.8310547e-2, 6.140059e+0, -0.0000000015036267, -34916.605, -0.00827889, 0.0, 0.0003287459, 0.00000000045838533, 0.00000000045838533, 0.0, 0.012207031, 0.01180183 
1.8310547e-2, 6.151861e+0, -0.0000001964998, -34910.17, 0.43949896, 0.0, 0.0003254718, 0.000005336544, 0.000005336544, 0.0, 0.012207031, 0.0118019 
1.8310547e-2, 6.1636627e+0, 0.0000000008220412, -34897.066, 0.013102603, 0.0, 0.0003317231, 0.0000000057480065, 0.0000000057480065, 0.0, 0.012207031, 0.011802045 
1.8310547e-2, 6.175465e+0, -0.000000042300844, -34890.664, 0.043687653, 0.0, 0.00032669512, 0.000000012398232, 0.000000012398232, 0.0, 0.012207031, 0.0118021155 
1.8310547e-2, 6.187267e+0, -0.00000004228627, -34877.48, 0.1002272, 0.0, 0.00032990842, 0.00000024573092, 0.00000024573092, 0.0, 0.012207031, 0.011802261 
1.8310547e-2, 6.1990696e+0, -0.000000023677838, -34871.09, 0.045945913, 0.0, 0.00032889043, 0.000000036867277, 0.000000036867277, 0.0, 0.012207031, 0.011802332 
1.8310547e-2, 6.210872e+0, -0.0000000031320235, -34858.195, 0.030095056, 0.0, 0.00033197235, 0.000000022853783, 0.000000022853783, 0.0, 0.012207031, 0.011802474 
1.8310547e-2, 6.222674e+0, 0.00000002068954, -34851.293, 0.032307412, 0.0, 0.0003313461, 0.000000050640665, 0.000000050640665, 0.0, 0.012207031, 0.01180255 
1.8310547e-2, 6.234477e+0, -0.000000014686565, -34838.83, 0.045075636, 0.0, 0.00033211886, 0.000000043633918, 0.000000043633918, 0.0, 0.012207031, 0.011802688 
1.8310547e-2, 6.2462795e+0, -0.000000001659548, -34831.598, 0.12967601, 0.0, 0.0003330571, 0.0000004811154, 0.0000004811154, 0.0, 0.012207031, 0.011802767 
1.8310547e-2, 6.2580824e+0, -0.000000034701294, -34819.438, 0.010526262, 0.0, 0.00033459047, -0.00000003151945, -0.00000003151945, 0.0, 0.012207031, 0.0118029015 
1.8310547e-2, 6.2698853e+0, 0.000000039049926, -34811.875, 0.00562355, 0.0, 0.0003376749, 0.00000003995956, 0.00000003995956, 0.0, 0.012207031, 0.011802985 
1.8310547e-2, 6.281689e+0, -0.000000005488667, -34800.176, 0.023035854, 0.0, 0.00033409073, 0.000000009764335, 0.000000009764335, 0.0, 0.012207031, 0.011803115 
1.8310547e-2, 6.293492e+0, -0.00000004864754, -34792.105, 0.04285283, 0.0, 0.00033836806, 0.00000000414002, 0.00000000414002, 0.0, 0.012207031, 0.011803203 
1.8310547e-2, 6.305295e+0, 0.000000024393422, -34780.688, -0.0047078053, 0.0, 0.0003383146, 0.00000002503657, 0.00000002503657, 0.0, 0.012207031, 0.01180333 
1.8310547e-2, 6.317098e+0, -0.000000023077193, -34772.64, 0.004462682, 0.0, 0.00034362267, -0.000000022511813, -0.000000022511813, 0.0, 0.012207031, 0.011803418 
1.8310547e-2, 6.3289016e+0, -0.000000012546111, -34761.23, -0.013217221, 0.0, 0.00033786002, -0.00000000752334, -0.00000000752334, 0.0, 0.012207031, 0.011803544 
1.8310547e-2, 6.340705e+0, -0.000000001501681, -34753.594, 0.008009974, 0.0, 0.00034298378, 0.00000000034197, 0.00000000034197, 0.0, 0.012207031, 0.011803629 
1.8310547e-2, 6.352509e+0, -0.0000000011128484, -34741.695, -0.017829295, 0.0, 0.00034232798, 0.000000008039933, 0.000000008039933, 0.0, 0.012207031, 0.01180376 
1.8310547e-2, 6.3643134e+0, -0.000000012432512, -34734.047, -0.037375405, 0.0, 0.0003475886, 0.000000027786882, 0.000000027786882, 0.0, 0.012207031, 0.011803845 
1.8310547e-2, 6.376117e+0, -0.000000034081353, -34722.207, -0.018552816, 0.0, 0.0003425089, -0.000000024170731, -0.000000024170731, 0.0, 0.012207031, 0.011803975 
1.8310547e-2, 6.387921e+0, 0.0000000130183855, -34714.324, 0.0032263277, 0.0, 0.00034554172, 0.000000013315002, 0.000000013315002, 0.0, 0.012207031, 0.011804063 
1.8310547e-2, 6.399725e+0, -0.000000002325654, -34702.984, -0.031067984, 0.0, 0.00034534774, 0.00000002548768, 0.00000002548768, 0.0, 0.012207031, 0.011804188 
1.8310547e-2, 6.411529e+0, 0.00000002280874, -34694.492, -0.05236254, 0.0, 0.00035079356, 0.00000010184158, 0.00000010184158, 0.0, 0.012207031, 0.011804282 
1.8310547e-2, 6.423334e+0, 0.000000010156089, -34683.508, -0.067862496, 0.0, 0.00034586425, 0.00000014293619, 0.00000014293619, 0.0, 0.012207031, 0.011804403 
1.8310547e-2, 6.435138e+0, -0.000000042004704, -34675.055, 0.014644102, 0.0, 0.00034603156, -0.000000035826815, -0.000000035826815, 0.0, 0.012207031, 0.011804496 
1.8310547e-2, 6.4469427e+0, -0.000000058236292, -34663.563, -0.037494216, 0.0, 0.00034847978, -0.000000017673301, -0.000000017673301, 0.0, 0.012207031, 0.0118046235 
1.8310547e-2, 6.4587474e+0, -0.0000000030086402, -34655.668, -0.03541335, 0.0, 0.00035169168, 0.00000003317109, 0.00000003317109, 0.0, 0.012207031, 0.01180471 
1.8310547e-2, 6.470552e+0, -0.000000023010104, -34644.09, -0.08116728, 0.0, 0.0003478545, 0.00000016716513, 0.00000016716513, 0.0, 0.012207031, 0.011804839 
1.8310547e-2, 6.482357e+0, -0.00000005537409, -34636.094, 0.02536766, 0.0, 0.00034829712, -0.000000036801794, -0.000000036801794, 0.0, 0.012207031, 0.011804926 
1.8310547e-2, 6.494162e+0, -0.000000012832815, -34624.605, -0.017696219, 0.0, 0.00035111266, -0.000000003790774, -0.000000003790774, 0.0, 0.012207031, 0.011805054 
1.8310547e-2, 6.5059674e+0, -0.000000022838645, -34616.543, -0.015498055, 0.0, 0.00034919597, -0.000000015897967, -0.000000015897967, 0.0, 0.012207031, 0.011805142 
1.8310547e-2, 6.517772e+0, -0.00000001983106, -34604.832, -0.059852462, 0.0, 0.00035003715, 0.000000083688064, 0.000000083688064, 0.0, 0.012207031, 0.011805272 
1.8310547e-2, 6.529578e+0, -0.00000003908972, -34597.15, 0.12562542, 0.0, 0.00035123015, 0.00000041706517, 0.00000041706517, 0.0, 0.012207031, 0.0118053565 
1.8310547e-2, 6.5413827e+0, -0.00000003501452, -34585.332, 0.026584862, 0.0, 0.0003537501, -0.000000014581019, -0.000000014581019, 0.0, 0.012207031, 0.011805487 
1.8310547e-2, 6.5531886e+0, -0.00000002050256, -34577.293, -0.014241679, 0.0, 0.00034662837, -0.000000014639227, -0.000000014639227, 0.0, 0.012207031, 0.011805576 
1.8310547e-2, 6.5649945e+0, -0.00000000984207, -34566.043, 0.0105848, 0.0, 0.00035056344, -0.0000000065992936, -0.0000000065992936, 0.0, 0.012207031, 0.0118057 
1.8310547e-2, 6.5768e+0, -0.000000016174578, -34557.418, 0.07103289, 0.0, 0.00035495657, 0.00000012983219, 0.00000012983219, 0.0, 0.012207031, 0.011805796 
1.8310547e-2, 6.5886056e+0, -0.0000000025507914, -34546.918, 0.0406769, 0.0, 0.00035646424, 0.000000045336492, 0.000000045336492, 0.0, 0.012207031, 0.011805912 
1.8310547e-2, 6.600412e+0, -0.00000003329302, -34537.594, 0.04119451, 0.0, 0.00034611914, 0.00000001583976, 0.00000001583976, 0.0, 0.012207031, 0.011806015 
1.8310547e-2, 6.612218e+0, -0.000000020577396, -34527.496, 0.050296407, 0.0, 0.00034858898, 0.000000052692485, 0.000000052692485, 0.0, 0.012207031, 0.011806127 
1.8310547e-2, 6.624024e+0, -0.000000034459614, -34518.08, 0.10435217, 0.0, 0.00035944197, 0.00000028101203, 0.00000028101203, 0.0, 0.012207031, 0.01180623 
1.8310547e-2, 6.6358304e+0, -0.00000005008136, -34507.89, 0.024236038, 0.0, 0.00036252275, -0.00000003306195, -0.00000003306195, 0.0, 0.012207031, 0.011806343 
1.8310547e-2, 6.647637e+0, 0.000000014393508, -34498.47, 0.08883038, 0.0, 0.00034624455, 0.00000024312612, 0.00000024312612, 0.0, 0.012207031, 0.011806447 
1.8310547e-2, 6.6594434e+0, -0.0000000023741529, -34488.387, 0.05626571, 0.0, 0.00034297112, 0.00000008942152, 0.00000008942152, 0.0, 0.012207031, 0.011806559 
1.8310547e-2, 6.67125e+0, -0.000000047789136, -34478.88, 0.1295151, 0.0, 0.00036612048, 0.00000043871842, 0.00000043871842, 0.0, 0.012207031, 0.011806663 
1.8310547e-2, 6.6830564e+0, -0.000000017540314, -34469.406, 0.076492265, 0.0, 0.00037241695, 0.00000015219848, 0.00000015219848, 0.0, 0.012207031, 0.011806768 
1.8310547e-2, 6.6948634e+0, -0.000000026813515, -34459.195, 0.07210935, 0.0, 0.00034710258, 0.00000012408418, 0.00000012408418, 0.0, 0.012207031, 0.011806881 
1.8310547e-2, 6.7066705e+0, 0.0000000011805115, -34450.117, 0.0065093795, 0.0, 0.0003364046, 0.000000002408342, 0.000000002408342, 0.0, 0.012207031, 0.011806982 
1.8310547e-2, 6.718477e+0, -0.0000000073214164, -34439.465, 0.061756402, 0.0, 0.00037091388, 0.00000010342046, 0.00000010342046, 0.0, 0.012207031, 0.011807099 
1.8310547e-2, 6.7302847e+0, -0.00000004071366, -34430.832, 0.10302429, 0.0, 0.0003837269, 0.0000002675515, 0.0000002675515, 0.0, 0.012207031, 0.011807195 
1.8310547e-2, 6.742092e+0, 0.000000008485211, -34419.52, 0.019482343, 0.0, 0.00035177873, 0.000000019506842, 0.000000019506842, 0.0, 0.012207031, 0.01180732 
1.8310547e-2, 6.753899e+0, -0.000000027230776, -34411.61, 0.04945567, 0.0, 0.00032924712, 0.00000004384492, 0.00000004384492, 0.0, 0.012207031, 0.011807407 
1.8310547e-2, 6.7657065e+0, -0.000000111118695, -34399.7, 0.15017796, 0.0, 0.00037293075, 0.00000054451084, 0.00000054451084, 0.0, 0.012207031, 0.011807539 
1.8310547e-2, 6.777514e+0, -0.000000027940121, -34392.4, 0.10975183, 0.0, 0.00039511136, 0.00000032229582, 0.00000032229582, 0.0, 0.012207031, 0.01180762 
1.8310547e-2, 6.789322e+0, -0.000000018340195, -34380.297, 0.011800766, 0.0, 0.0003595035, -0.000000014297257, -0.000000014297257, 0.0, 0.012207031, 0.011807753 
1.8310547e-2, 6.8011296e+0, -0.000000001949837, -34372.645, -0.035139486, 0.0, 0.00032251238, 0.000000033971446, 0.000000033971446, 0.0, 0.012207031, 0.0118078375 
1.8310547e-2, 6.812938e+0, -0.000000010455843, -34360.83, 0.07204414, 0.0, 0.00037079316, 0.00000014059333, 0.00000014059333, 0.0, 0.012207031, 0.011807968 
1.8310547e-2, 6.8247455e+0, -0.00000003985419, -34352.96, 0.041757353, 0.0, 0.00040828745, 0.0000000108993845, 0.0000000108993845, 0.0, 0.012207031, 0.011808055 
1.8310547e-2, 6.836554e+0, -0.000000011778442, -34341.332, -0.011075866, 0.0, 0.0003677312, -0.00000000820728, -0.00000000820728, 0.0, 0.012207031, 0.011808184 
1.8310547e-2, 6.848362e+0, 0.000000019279193, -34333.67, -0.07683094, 0.0, 0.00031735457, 0.00000019121217, 0.00000019121217, 0.0, 0.012207031, 0.011808269 
1.8310547e-2, 6.8601704e+0, -0.000000033218075, -34321.266, 0.08947549, 0.0, 0.00036615974, 0.00000020004518, 0.00000020004518, 0.0, 0.012207031, 0.011808406 
1.8310547e-2, 6.8719786e+0, -0.00000004485905, -34314.37, 0.05795496, 0.0, 0.00041829664, 0.00000005302718, 0.00000005302718, 0.0, 0.012207031, 0.011808482 
1.8310547e-2, 6.883787e+0, 0.00000000531549, -34301.746, 0.0058472566, 0.0, 0.000376559, 0.000000006315531, 0.000000006315531, 0.0, 0.012207031, 0.011808622 
1.8310547e-2, 6.895596e+0, -0.000000031465614, -34295.008, -0.14083289, 0.0, 0.0003172486, 0.00000054686825, 0.00000054686825, 0.0, 0.012207031, 0.011808696 
1.8310547e-2, 6.9074047e+0, 0.000000020208047, -34281.88, -0.06475913, 0.0, 0.00035905006, 0.00000014253601, 0.00000014253601, 0.0, 0.012207031, 0.0118088415 
1.8310547e-2, 6.9192135e+0, -0.000000037430972, -34275.176, 0.12003903, 0.0, 0.00042267403, 0.00000038297003, 0.00000038297003, 0.0, 0.012207031, 0.011808915 
1.8310547e-2, 6.9310224e+0, 0.00000004306336, -34262.86, 0.034674384, 0.0, 0.0003874427, 0.00000007815834, 0.00000007815834, 0.0, 0.012207031, 0.011809051 
1.8310547e-2, 6.942832e+0, 0.0000000054546243, -34255.87, -0.12622014, 0.0, 0.00032135614, 0.00000047053618, 0.00000047053618, 0.0, 0.012207031, 0.011809128 
1.8310547e-2, 6.954641e+0, -0.000000009968406, -34242.723, -0.026288657, 0.0, 0.0003508411, 0.0000000102081685, 0.0000000102081685, 0.0, 0.012207031, 0.011809275 
1.8310547e-2, 6.96645e+0, -0.00000006092413, -34236.258, 0.16883226, 0.0, 0.0004237739, 0.00000077165896, 0.00000077165896, 0.0, 0.012207031, 0.011809345 
1.8310547e-2, 6.9782597e+0, 0.000000010922368, -34223.582, 0.11060484, 0.0, 0.0003976915, 0.00000036838173, 0.00000036838173, 0.0, 0.012207031, 0.011809486 
1.8310547e-2, 6.990069e+0, -0.000000036894843, -34217.094, -0.17634523, 0.0, 0.0003295574, 0.0000008719362, 0.0000008719362, 0.0, 0.012207031, 0.011809558 
1.8310547e-2, 7.0018786e+0, -0.000000015655546, -34203.34, -0.117131755, 0.0, 0.00034735142, 0.00000038546568, 0.00000038546568, 0.0, 0.012207031, 0.0118097095 
1.8310547e-2, 7.0136887e+0, -0.000000036657198, -34197.434, 0.12956202, 0.0, 0.0004186139, 0.00000045420893, 0.00000045420893, 0.0, 0.012207031, 0.011809775 
1.8310547e-2, 7.025498e+0, -0.00000003966781, -34184.152, 0.11806951, 0.0, 0.0003994358, 0.00000036813435, 0.00000036813435, 0.0, 0.012207031, 0.011809922 
1.8310547e-2, 7.037308e+0, 0.0000000026292362, -34178.61, -0.08388505, 0.0, 0.00034568802, 0.0000002085144, 0.0000002085144, 0.0, 0.012207031, 0.011809983 
1.8310547e-2, 7.049118e+0, -0.000000038607965, -34163.887, 0.079532206, 0.0, 0.00035617672, 0.00000014653779, 0.00000014653779, 0.0, 0.012207031, 0.011810146 
1.8310547e-2, 7.060929e+0, -0.000000030593625, -34159.45, 0.046330888, 0.0, 0.00040395517, 0.000000032247044, 0.000000032247044, 0.0, 0.012207031, 0.011810195 
1.8310547e-2, 7.072739e+0, 0.000000051412957, -34144.23, 0.027496172, 0.0, 0.0003916558, 0.00000007355993, 0.00000007355993, 0.0, 0.012207031, 0.011810363 
1.8310547e-2, 7.0845497e+0, 0.00000000045287687, -34139.887, 0.014685904, 0.0, 0.0003635512, 0.0000000067666406, 0.0000000067666406, 0.0, 0.012207031, 0.011810412 
1.8310547e-2, 7.09636e+0, -0.0000000088183425, -34124.504, 0.14399071, 0.0, 0.00037692123, 0.0000005987604, 0.0000005987604, 0.0, 0.012207031, 0.011810581 
1.8310547e-2, 7.1081704e+0, -0.000000006812754, -34120.58, 0.011933292, 0.0, 0.00039171806, -0.0000000026411726, -0.0000000026411726, 0.0, 0.012207031, 0.011810625 
1.8310547e-2, 7.119981e+0, -0.000000011823571, -34105.066, -0.19040582, 0.0, 0.00037282566, 0.000001051194, 0.000001051194, 0.0, 0.012207031, 0.011810796 
1.8310547e-2, 7.1317923e+0, -0.000000023732602, -34100.145, 0.1846088, 0.0, 0.00037588857, 0.0000009756841, 0.0000009756841, 0.0, 0.012207031, 0.011810851 
1.8310547e-2, 7.143603e+0, -0.00000039796393, -34085.582, 0.6389293, 0.0, 0.00040712417, 0.000011578675, 0.000011578675, 0.0, 0.012207031, 0.011811012 
1.8310547e-2, 7.155414e+0, 0.00000000906027, -34082.117, 0.012356111, 0.0, 0.0003842848, 0.000000013540557, 0.000000013540557, 0.0, 0.012207031, 0.011811051 
1.8310547e-2, 7.1672255e+0, -0.0000001238991, -34065.703, -0.35809904, 0.0, 0.00035156627, 0.000003640438, 0.000003640438, 0.0, 0.012207031, 0.011811232 
1.8310547e-2, 7.179037e+0, -0.000000004000278, -34061.32, 0.10937406, 0.0, 0.00038323065, 0.0000003472087, 0.0000003472087, 0.0, 0.012207031, 0.011811281 
1.8310547e-2, 7.190848e+0, -0.0000003161502, -34046.344, 0.5719337, 0.0, 0.0004290886, 0.000009291587, 0.000009291587, 0.0, 0.012207031, 0.011811446 
1.8310547e-2, 7.202659e+0, -0.000000058686794, -34042.71, -0.10070755, 0.0, 0.00038088099, 0.0000002392262, 0.0000002392262, 0.0, 0.012207031, 0.011811486 
1.8310547e-2, 7.214471e+0, -0.000000117995675, -34026.49, -0.27687442, 0.0, 0.00034847597, 0.0000021349406, 0.0000021349406, 0.0, 0.012207031, 0.011811666 
1.8310547e-2, 7.2262824e+0, -0.000000065960265, -34022.68, 0.100081995, 0.0, 0.0003880736, 0.00000022843597, 0.00000022843597, 0.0, 0.012207031, 0.011811708 
1.8310547e-2, 7.238094e+0, -0.00000005268467, -34007.055, 0.1204158, 0.0, 0.0004252135, 0.00000037370046, 0.00000037370046, 0.0, 0.012207031, 0.011811881 
1.8310547e-2, 7.249906e+0, 0.000000017267794, -34003.535, -0.0917035, 0.0, 0.00037791434, 0.00000026457565, 0.00000026457565, 0.0, 0.012207031, 0.01181192 
1.8310547e-2, 7.2617185e+0, -0.000000032751586, -33986.94, 0.119489424, 0.0, 0.0003728659, 0.00000038734288, 0.00000038734288, 0.0, 0.012207031, 0.011812104 
1.8310547e-2, 7.2735304e+0, -0.000000028492071, -33984.27, 0.1204252, 0.0, 0.00039548503, 0.00000039824226, 0.00000039824226, 0.0, 0.012207031, 0.011812133 
1.8310547e-2, 7.285343e+0, -0.00000007787738, -33968.12, -0.1861646, 0.0, 0.00039812643, 0.0000009424184, 0.0000009424184, 0.0, 0.012207031, 0.011812312 
1.8310547e-2, 7.2971547e+0, 0.000000043245695, -33963.746, -0.16357003, 0.0, 0.00037502983, 0.00000083100895, 0.00000083100895, 0.0, 0.012207031, 0.01181236 
1.8310547e-2, 7.308968e+0, -0.00000010394502, -33947.785, 0.36058438, 0.0, 0.0004056468, 0.0000037260907, 0.0000037260907, 0.0, 0.012207031, 0.011812537 
1.8310547e-2, 7.3207796e+0, 0.000000012585377, -33945.625, 0.14406726, 0.0, 0.00040231706, 0.0000006240225, 0.0000006240225, 0.0, 0.012207031, 0.011812561 
1.8310547e-2, 7.3325926e+0, -0.000000082018836, -33928.234, 0.269413, 0.0, 0.000376237, 0.0000020572988, 0.0000020572988, 0.0, 0.012207031, 0.011812753 
1.8310547e-2, 7.3444057e+0, -0.000000064647544, -33925.367, -0.19059797, 0.0, 0.00037911988, 0.0000010061558, 0.0000010061558, 0.0, 0.012207031, 0.011812785 
1.8310547e-2, 7.356218e+0, -0.000000037894857, -33908.23, 0.22420035, 0.0, 0.0004186798, 0.0000014445177, 0.0000014445177, 0.0, 0.012207031, 0.011812975 
1.8310547e-2, 7.368032e+0, -0.000000034142893, -33906.816, 0.033360787, 0.0, 0.0003965961, -0.0000000013169483, -0.0000000013169483, 0.0, 0.012207031, 0.0118129905 
1.8310547e-2, 7.379844e+0, -0.000000036567883, -33888.43, 0.15232018, 0.0, 0.00038241304, 0.00000064806954, 0.00000064806954, 0.0, 0.012207031, 0.011813194 
1.8310547e-2, 7.391658e+0, -0.00000000069020695, -33886.98, 0.12379464, 0.0, 0.0003982289, 0.00000045154593, 0.00000045154593, 0.0, 0.012207031, 0.01181321 
1.8310547e-2, 7.403471e+0, -0.000000017377449, -33870.105, -0.13862291, 0.0, 0.00040407217, 0.0000005499751, 0.0000005499751, 0.0, 0.012207031, 0.011813397 
1.8310547e-2, 7.415284e+0, -0.000000019622984, -33867.645, -0.24807288, 0.0, 0.00038596883, 0.0000017974598, 0.0000017974598, 0.0, 0.012207031, 0.011813424 
1.8310547e-2, 7.4270976e+0, -0.00000017448626, -33849.535, 0.41509673, 0.0, 0.00040545702, 0.000004915848, 0.000004915848, 0.0, 0.012207031, 0.011813625 
1.8310547e-2, 7.438911e+0, -0.000000038700552, -33849.004, 0.21551697, 0.0, 0.0004040684, 0.0000013334939, 0.0000013334939, 0.0, 0.012207031, 0.01181363 
1.8310547e-2, 7.450725e+0, -0.000000031652807, -33830.598, -0.19697116, 0.0, 0.0003930224, 0.0000011151642, 0.0000011151642, 0.0, 0.012207031, 0.011813834 
1.8310547e-2, 7.462539e+0, -0.000000003281778, -33828.957, -0.13543579, 0.0, 0.00040256322, 0.00000053894473, 0.00000053894473, 0.0, 0.012207031, 0.011813852 
1.8310547e-2, 7.474353e+0, -0.00000061665065, -33810.805, 0.79027146, 0.0, 0.00040773916, 0.000017854632, 0.000017854632, 0.0, 0.012207031, 0.011814053 
1.8310547e-2, 7.486167e+0, -0.00000004617699, -33809.797, -0.22358032, 0.0, 0.00038630445, 0.0000014323305, 0.0000014323305, 0.0, 0.012207031, 0.011814064 
1.8310547e-2, 7.497981e+0, 0.000000028688202, -33790.51, 0.04591651, 0.0, 0.00040547817, 0.00000009108044, 0.00000009108044, 0.0, 0.012207031, 0.011814278 
1.8310547e-2, 7.5097954e+0, -0.0000000047554183, -33790.535, 0.26792082, 0.0, 0.00041752684, 0.000002119552, 0.000002119552, 0.0, 0.012207031, 0.011814278 
1.8310547e-2, 7.5216097e+0, -0.000000051766147, -33771.574, 0.19054644, 0.0, 0.00039514966, 0.0000010233416, 0.0000010233416, 0.0, 0.012207031, 0.011814487 
1.8310547e-2, 7.5334245e+0, -0.00000001367983, -33770.973, -0.22271605, 0.0, 0.00039559064, 0.0000014551115, 0.0000014551115, 0.0, 0.012207031, 0.011814495 
1.8310547e-2, 7.545239e+0, -0.000000014018353, -33751.043, 0.16810475, 0.0, 0.00041707113, 0.00000082326005, 0.00000082326005, 0.0, 0.012207031, 0.011814715 
1.8310547e-2, 7.5570536e+0, -0.000000014782662, -33752.074, -0.020530762, 0.0, 0.00038983344, -0.0000000022992026, -0.0000000022992026, 0.0, 0.012207031, 0.011814703 
1.8310547e-2, 7.5688684e+0, -0.00000004746244, -33731.695, -0.13365428, 0.0, 0.00040215044, 0.0000004821122, 0.0000004821122, 0.0, 0.012207031, 0.01181493 
1.8310547e-2, 7.580684e+0, -0.000000058481696, -33731.715, 0.30523938, 0.0, 0.00042125784, 0.0000027036367, 0.0000027036367, 0.0, 0.012207031, 0.011814929 
1.8310547e-2, 7.5924987e+0, -0.000000031405907, -33713.28, 0.07062397, 0.0, 0.0004003811, 0.00000011653901, 0.00000011653901, 0.0, 0.012207031, 0.0118151335 
1.8310547e-2, 7.604314e+0, -0.00000016095694, -33711.984, -0.34110513, 0.0, 0.00039282607, 0.0000032904136, 0.0000032904136, 0.0, 0.012207031, 0.0118151475 
1.8310547e-2, 7.616129e+0, -0.00000012185346, -33692.848, 0.42104742, 0.0, 0.0004253271, 0.0000051398238, 0.0000051398238, 0.0, 0.012207031, 0.01181536 
1.8310547e-2, 7.6279444e+0, -0.000000006282171, -33692.906, 0.036923364, 0.0, 0.00038506996, 0.00000003418245, 0.00000003418245, 0.0, 0.012207031, 0.011815359 
1.8310547e-2, 7.63976e+0, -0.000000075143426, -33673.55, -0.23957333, 0.0, 0.00040023454, 0.0000016293125, 0.0000016293125, 0.0, 0.012207031, 0.011815573 
1.8310547e-2, 7.651576e+0, -0.00000019980675, -33672.395, 0.40438008, 0.0, 0.00042791848, 0.0000046564965, 0.0000046564965, 0.0, 0.012207031, 0.011815586 
1.8310547e-2, 7.663391e+0, -0.00000008075419, -33654.96, 0.27412817, 0.0, 0.00040194675, 0.00000215209, 0.00000215209, 0.0, 0.012207031, 0.011815779 
1.8310547e-2, 7.675207e+0, -0.000000048282573, -33653.355, -0.307534, 0.0, 0.0003912546, 0.0000027620554, 0.0000027620554, 0.0, 0.012207031, 0.011815797 
1.8310547e-2, 7.6870227e+0, -0.000000020612838, -33634.195, 0.15361175, 0.0, 0.00043369248, 0.0000006809496, 0.0000006809496, 0.0, 0.012207031, 0.011816009 
1.8310547e-2, 7.698839e+0, 0.000000002357308, -33634.613, -0.04159334, 0.0, 0.00038355062, 0.000000053791155, 0.000000053791155, 0.0, 0.012207031, 0.011816004 
1.8310547e-2, 7.710655e+0, 0.000000006531605, -33614.5, -0.109712, 0.0, 0.00040185126, 0.0000003646128, 0.0000003646128, 0.0, 0.012207031, 0.011816227 
1.8310547e-2, 7.7224714e+0, -0.00000017222602, -33614.055, 0.40127832, 0.0, 0.00042884768, 0.000004618152, 0.000004618152, 0.0, 0.012207031, 0.011816232 
1.8310547e-2, 7.734288e+0, -0.00000000848678, -33596.1, 0.13291712, 0.0, 0.0004053119, 0.0000005173788, 0.0000005173788, 0.0, 0.012207031, 0.011816431 
1.8310547e-2, 7.746104e+0, -0.000000034192983, -33594.28, -0.15463567, 0.0, 0.00039861872, 0.00000067760993, 0.00000067760993, 0.0, 0.012207031, 0.011816451 
1.8310547e-2, 7.7579206e+0, -0.000000071209456, -33575.996, 0.28316355, 0.0, 0.00043520782, 0.000002316854, 0.000002316854, 0.0, 0.012207031, 0.011816653 
1.8310547e-2, 7.769737e+0, -0.000000078011894, -33575.336, -0.28856453, 0.0, 0.00039121584, 0.0000024020628, 0.0000024020628, 0.0, 0.012207031, 0.011816661 
1.8310547e-2, 7.781554e+0, -0.000000082871004, -33556.574, -0.22434242, 0.0, 0.00041815778, 0.0000014169636, 0.0000014169636, 0.0, 0.012207031, 0.011816869 
1.8310547e-2, 7.7933705e+0, -0.000000024340006, -33555.445, 0.10408712, 0.0, 0.0004231338, 0.00000029853982, 0.00000029853982, 0.0, 0.012207031, 0.011816882 
1.8310547e-2, 7.805188e+0, -0.000004881905, -33537.83, 2.0345511, 0.0, 0.0004020727, 0.000118542834, 0.000118542834, 0.0, 0.012207031, 0.011817076 
1.8310547e-2, 7.817005e+0, -0.000000017124417, -33534.527, -0.18841211, 0.0, 0.00042051522, 0.0000010414587, 0.0000010414587, 0.0, 0.012207031, 0.0118171135 
1.8310547e-2, 7.828822e+0, -0.00000020341193, -33518.35, 0.46899992, 0.0, 0.00043805238, 0.0000063589905, 0.0000063589905, 0.0, 0.012207031, 0.011817292 
1.8310547e-2, 7.8406394e+0, -0.00000013400086, -33516.1, -0.28403893, 0.0, 0.00040277094, 0.0000022731401, 0.0000022731401, 0.0, 0.012207031, 0.011817317 
1.8310547e-2, 7.852457e+0, 0.000000007816082, -33497.9, 0.18596086, 0.0, 0.00042747616, 0.0000010401563, 0.0000010401563, 0.0, 0.012207031, 0.011817519 
1.8310547e-2, 7.8642744e+0, -0.000000053528012, -33496.96, 0.17694911, 0.0, 0.00042403504, 0.0000008812058, 0.0000008812058, 0.0, 0.012207031, 0.01181753 
1.8310547e-2, 7.876092e+0, -0.00000011068508, -33478.906, -0.32246193, 0.0, 0.00042332255, 0.0000029952062, 0.0000029952062, 0.0, 0.012207031, 0.011817729 
1.8310547e-2, 7.88791e+0, -0.00000020455687, -33476.06, 0.4044588, 0.0, 0.00043174668, 0.0000046821224, 0.0000046821224, 0.0, 0.012207031, 0.011817761 
1.8310547e-2, 7.899728e+0, -0.00000007083869, -33460.57, -0.22978762, 0.0, 0.0004205011, 0.0000015072073, 0.0000015072073, 0.0, 0.012207031, 0.011817933 
1.8310547e-2, 7.9115456e+0, -0.00000005459093, -33455.8, -0.14411022, 0.0, 0.0004283327, 0.0000005661568, 0.0000005661568, 0.0, 0.012207031, 0.011817985 
1.8310547e-2, 7.9233634e+0, -0.0000006173275, -33441.16, 0.7711675, 0.0, 0.0004410156, 0.00001716613, 0.00001716613, 0.0, 0.012207031, 0.011818148 
1.8310547e-2, 7.935182e+0, 0.000000028126818, -33436.344, -0.072470404, 0.0, 0.00042713786, 0.00000018520223, 0.00000018520223, 0.0, 0.012207031, 0.011818201 
1.8310547e-2, 7.947e+0, -0.0000044251256, -33416.926, 1.9356607, 0.0, 0.00042916578, 0.00010769716, 0.00010769716, 0.0, 0.012207031, 0.011818416 
1.8310547e-2, 7.9588187e+0, -0.000016037162, -33418.555, 4.681682, 0.0, 0.00043356526, 0.0006398304, 0.0006398304, 0.0, 0.012207031, 0.011818399 
1.8310547e-2, 7.970637e+0, -0.000007791543, -33404.555, 2.4614766, 0.0, 0.00043773133, 0.00017358692, 0.00017358692, 0.0, 0.012207031, 0.011818553 
1.8310547e-2, 7.9824555e+0, -0.000000038908592, -33397.832, 0.041849423, 0.0, 0.0004359815, 0.000000013526005, 0.000000013526005, 0.0, 0.012207031, 0.011818628 
1.8310547e-2, 7.9942745e+0, -0.0000002769593, -33382.41, 0.5286502, 0.0, 0.00042901593, 0.000008094845, 0.000008094845, 0.0, 0.012207031, 0.011818799 
1.8310547e-2, 8.006093e+0, -0.0000010534224, -33378.74, 1.0176829, 0.0, 0.00044193122, 0.000029974668, 0.000029974668, 0.0, 0.012207031, 0.011818839 
1.8310547e-2, 8.017912e+0, -0.000000033560035, -33362.184, -0.16149709, 0.0, 0.00043192744, 0.00000074820855, 0.00000074820855, 0.0, 0.012207031, 0.011819024 
1.8310547e-2, 8.029731e+0, 0.000000003313437, -33358.67, -0.09406338, 0.0, 0.00043027566, 0.00000026854104, 0.00000026854104, 0.0, 0.012207031, 0.011819062 
1.8310547e-2, 8.0415505e+0, -0.000000012528049, -33343.05, 0.09328866, 0.0, 0.0004444982, 0.00000024848123, 0.00000024848123, 0.0, 0.012207031, 0.011819235 
1.8310547e-2, 8.0533695e+0, -0.000000030884497, -33339.086, 0.025705243, 0.0, 0.00044012436, -0.0000000110667315, -0.0000000110667315, 0.0, 0.012207031, 0.011819279 
1.8310547e-2, 8.065189e+0, -0.000000028944914, -33324.063, -0.13467108, 0.0, 0.00042555374, 0.00000051529787, 0.00000051529787, 0.0, 0.012207031, 0.0118194455 
1.8310547e-2, 8.077008e+0, -0.000000024422574, -33318.84, 0.004144228, 0.0, 0.00043214246, -0.000000023908797, -0.000000023908797, 0.0, 0.012207031, 0.011819503 
1.8310547e-2, 8.0888283e+0, -0.00000004739657, -33304.668, 0.029788163, 0.0, 0.00044313484, -0.000000020751031, -0.000000020751031, 0.0, 0.012207031, 0.011819661 
1.8310547e-2, 8.100648e+0, 0.000000016760858, -33299.242, -0.07602581, 0.0, 0.00043787286, 0.00000019033905, 0.00000019033905, 0.0, 0.012207031, 0.011819721 
1.8310547e-2, 8.1124675e+0, 0.000000022357664, -33284.977, -0.009370379, 0.0, 0.0004294595, 0.000000024992914, 0.000000024992914, 0.0, 0.012207031, 0.0118198795 
1.8310547e-2, 8.124288e+0, -0.000000026342786, -33279.89, 0.010103219, 0.0, 0.00043003305, -0.000000023283064, -0.000000023283064, 0.0, 0.012207031, 0.011819935 
1.8310547e-2, 8.1361073e+0, -0.0000000087858405, -33265.563, -0.037190106, 0.0, 0.00044108316, 0.00000003279274, 0.00000003279274, 0.0, 0.012207031, 0.011820095 
1.8310547e-2, 8.1479275e+0, 0.000000025343452, -33260.68, -0.045921028, 0.0, 0.0004355549, 0.000000088744855, 0.000000088744855, 0.0, 0.012207031, 0.011820149 
1.8310547e-2, 8.1597483e+0, -0.000000008212797, -33245.95, 0.0024932374, 0.0, 0.00043270297, -0.000000008025381, -0.000000008025381, 0.0, 0.012207031, 0.011820312 
1.8310547e-2, 8.171568e+0, -0.00000008286673, -33241.617, 0.045878094, 0.0, 0.00043199272, -0.000000019550498, -0.000000019550498, 0.0, 0.012207031, 0.01182036 
1.8310547e-2, 8.183389e+0, -0.000000007903113, -33226.41, 0.0012814103, 0.0, 0.00043928987, -0.000000007858034, -0.000000007858034, 0.0, 0.012207031, 0.011820529 
1.8310547e-2, 8.1952095e+0, 0.000000007674829, -33221.79, 0.061564002, 0.0, 0.00043294486, 0.00000012176315, 0.00000012176315, 0.0, 0.012207031, 0.01182058 
1.8310547e-2, 8.20703e+0, -0.000000005919492, -33206.895, 0.1748, 0.0, 0.00043899653, 0.0000009142168, 0.0000009142168, 0.0, 0.012207031, 0.011820745 
1.8310547e-2, 8.218851e+0, 0.000000022631163, -33202.633, 0.08251454, 0.0, 0.0004327669, 0.00000022768654, 0.00000022768654, 0.0, 0.012207031, 0.011820792 
1.8310547e-2, 8.230672e+0, 0.00000003267542, -33187.566, 0.03644019, 0.0, 0.00044101692, 0.00000007268682, 0.00000007268682, 0.0, 0.012207031, 0.011820959 
1.8310547e-2, 8.2424927e+0, -0.000000053365728, -33182.46, 0.09720016, 0.0, 0.00043647268, 0.00000023135362, 0.00000023135362, 0.0, 0.012207031, 0.011821016 
1.8310547e-2, 8.2543135e+0, -0.000000084478934, -33168.7, 0.18386191, 0.0, 0.0004421739, 0.00000093471317, 0.00000093471317, 0.0, 0.012207031, 0.0118211685 
1.8310547e-2, 8.2661355e+0, -0.000000018186471, -33162.207, -0.09052899, 0.0, 0.00043709768, 0.000000228938, 0.000000228938, 0.0, 0.012207031, 0.01182124 
1.8310547e-2, 8.277956e+0, -0.00000005588489, -33149.37, 0.044602275, 0.0, 0.00044659435, 0.000000004125468, 0.000000004125468, 0.0, 0.012207031, 0.011821383 
1.8310547e-2, 8.2897776e+0, -0.0000000067723205, -33142.563, 0.06376382, 0.0, 0.00043873244, 0.00000011589873, 0.00000011589873, 0.0, 0.012207031, 0.011821458 
1.8310547e-2, 8.3015996e+0, 0.000000005243527, -33130.1, 0.021724623, 0.0, 0.00044533925, 0.00000001949229, 0.00000001949229, 0.0, 0.012207031, 0.011821597 
1.8310547e-2, 8.313421e+0, -0.000000065605185, -33122.832, 0.0916543, 0.0, 0.00044960983, 0.00000018801074, 0.00000018801074, 0.0, 0.012207031, 0.011821677 
1.8310547e-2, 8.325242e+0, -0.000000044556597, -33110.33, 0.031485286, 0.0, 0.00045045352, -0.000000014617399, -0.000000014617399, 0.0, 0.012207031, 0.011821816 
1.8310547e-2, 8.337065e+0, -0.000000041261686, -33103.355, -0.02829229, 0.0, 0.00044152566, -0.000000017083948, -0.000000017083948, 0.0, 0.012207031, 0.011821893 
1.8310547e-2, 8.3488864e+0, -0.00000008204646, -33090.918, 0.21382609, 0.0, 0.0004520074, 0.0000012996534, 0.0000012996534, 0.0, 0.012207031, 0.011822032 
1.8310547e-2, 8.3607084e+0, -0.00000004075904, -33083.547, 0.023934633, 0.0, 0.00045812252, -0.000000023443135, -0.000000023443135, 0.0, 0.012207031, 0.011822113 
1.8310547e-2, 8.372531e+0, -0.000000016941415, -33071.703, -0.0035288548, 0.0, 0.0004510825, -0.00000001656008, -0.00000001656008, 0.0, 0.012207031, 0.011822244 
1.8310547e-2, 8.384353e+0, 0.000000015045922, -33063.71, 0.011961583, 0.0, 0.00045456548, 0.000000019375875, 0.000000019375875, 0.0, 0.012207031, 0.011822334 
1.8310547e-2, 8.3961755e+0, -0.0000015193891, -33052.45, 1.1838473, 0.0, 0.00046053366, 0.000040882747, 0.000040882747, 0.0, 0.012207031, 0.011822458 
1.8310547e-2, 8.407998e+0, -0.000000006350235, -33043.844, -0.118982844, 0.0, 0.0004546605, 0.0000004220783, 0.0000004220783, 0.0, 0.012207031, 0.011822553 
1.8310547e-2, 8.4198207e+0, -0.000000013839664, -33032.926, -0.032253742, 0.0, 0.000453374, 0.000000017651473, 0.000000017651473, 0.0, 0.012207031, 0.011822674 
1.8310547e-2, 8.431643e+0, 0.000000031206586, -33024.156, 0.054191504, 0.0, 0.00046880596, 0.00000012014061, 0.00000012014061, 0.0, 0.012207031, 0.011822772 
1.8310547e-2, 8.4434664e+0, -0.00000012875341, -33013.727, 0.29191914, 0.0, 0.00046313475, 0.0000024524925, 0.0000024524925, 0.0, 0.012207031, 0.011822888 
1.8310547e-2, 8.455289e+0, -0.000000073462765, -33004.13, 0.003829656, 0.0, 0.0004565558, -0.00000007302151, -0.00000007302151, 0.0, 0.012207031, 0.011822995 
1.8310547e-2, 8.4671116e+0, -0.000000044145427, -32994.477, 0.074743435, 0.0, 0.00045266925, 0.00000012517557, 0.00000012517557, 0.0, 0.012207031, 0.011823102 
1.8310547e-2, 8.4789354e+0, 0.00000000846674, -32984.777, -0.15509604, 0.0, 0.00047372052, 0.00000073773117, 0.00000073773117, 0.0, 0.012207031, 0.011823209 
1.8310547e-2, 8.490759e+0, -0.00000003772457, -32974.742, -0.18167315, 0.0, 0.0004668644, 0.0000009631985, 0.0000009631985, 0.0, 0.012207031, 0.011823321 
1.8310547e-2, 8.502582e+0, 0.000000031426186, -32965.258, 0.09464926, 0.0, 0.0004561457, 0.00000030318188, 0.00000030318188, 0.0, 0.012207031, 0.011823426 
1.8310547e-2, 8.5144055e+0, -0.0000000012260578, -32955.41, 0.091424115, 0.0, 0.00045370712, 0.0000002523957, 0.0000002523957, 0.0, 0.012207031, 0.011823535 
1.8310547e-2, 8.5262287e+0, -0.00000007988487, -32946.605, -0.16758578, 0.0, 0.0004729395, 0.0000007725539, 0.0000007725539, 0.0, 0.012207031, 0.011823633 
1.8310547e-2, 8.5380524e+0, -0.00000007303038, -32935.297, -0.23797174, 0.0, 0.00046243178, 0.0000016464182, 0.0000016464182, 0.0, 0.012207031, 0.0118237585 
1.8310547e-2, 8.549876e+0, 0.000000014051363, -32926.387, 0.04900844, 0.0, 0.00045786152, 0.000000086998625, 0.000000086998625, 0.0, 0.012207031, 0.011823857 
1.8310547e-2, 8.5617e+0, -0.00000001694463, -32916.367, 0.15327387, 0.0, 0.00046263382, 0.00000069676753, 0.00000069676753, 0.0, 0.012207031, 0.011823968 
1.8310547e-2, 8.5735244e+0, 0.000000025054046, -32907.33, -0.2137324, 0.0, 0.00046631426, 0.0000014132384, 0.0000014132384, 0.0, 0.012207031, 0.011824069 
1.8310547e-2, 8.585348e+0, -0.000000070005655, -32896.613, -0.22880715, 0.0, 0.00044898049, 0.0000015214173, 0.0000015214173, 0.0, 0.012207031, 0.011824188 
1.8310547e-2, 8.5971725e+0, -0.000000021971793, -32886.88, 0.08361238, 0.0, 0.00045840043, 0.00000019060099, 0.00000019060099, 0.0, 0.012207031, 0.011824296 
1.8310547e-2, 8.6089975e+0, -0.000000041342712, -32877.445, 0.17632556, 0.0, 0.00048419356, 0.0000009043142, 0.0000009043142, 0.0, 0.012207031, 0.0118244 
1.8310547e-2, 8.620822e+0, -0.00000011674816, -32868.004, -0.14784867, 0.0, 0.00045806615, 0.0000005483089, 0.0000005483089, 0.0, 0.012207031, 0.011824505 
1.8310547e-2, 8.632647e+0, -0.00000004971573, -32857.87, -0.049467105, 0.0, 0.00042899998, 0.000000024752808, 0.000000024752808, 0.0, 0.012207031, 0.011824617 
1.8310547e-2, 8.644471e+0, 0.000000018282465, -32847.523, 0.03462655, 0.0, 0.00046700874, 0.000000054780685, 0.000000054780685, 0.0, 0.012207031, 0.011824733 
1.8310547e-2, 8.6562955e+0, -0.00000007363793, -32838.652, 0.31748474, 0.0, 0.00049118785, 0.00000299581, 0.00000299581, 0.0, 0.012207031, 0.011824831 
1.8310547e-2, 8.6681205e+0, -0.000000009026083, -32828.734, -0.1301598, 0.0, 0.00044804407, 0.0000005070324, 0.0000005070324, 0.0, 0.012207031, 0.011824941 
1.8310547e-2, 8.679945e+0, -0.000000041254424, -32818.7, 0.25026608, 0.0, 0.00044585962, 0.0000018672072, 0.0000018672072, 0.0, 0.012207031, 0.011825052 
1.8310547e-2, 8.6917704e+0, -0.000000015611143, -32808.56, 0.11442682, 0.0, 0.00046316523, 0.00000038347207, 0.00000038347207, 0.0, 0.012207031, 0.011825165 
1.8310547e-2, 8.703596e+0, -0.000000038063853, -32800.098, -0.17136693, 0.0, 0.00047698803, 0.0000008572606, 0.0000008572606, 0.0, 0.012207031, 0.011825259 
1.8310547e-2, 8.715421e+0, 0.000000005425621, -32788.38, 0.082599886, 0.0, 0.0004649224, 0.00000021351298, 0.00000021351298, 0.0, 0.012207031, 0.011825389 
1.8310547e-2, 8.7272465e+0, -0.0000003259865, -32780.84, 0.5589285, 0.0, 0.00044762818, 0.000009204006, 0.000009204006, 0.0, 0.012207031, 0.011825473 
1.8310547e-2, 8.739072e+0, -0.00000012027188, -32768.777, -0.2739385, 0.0, 0.00045428425, 0.0000021697779, 0.0000021697779, 0.0, 0.012207031, 0.011825607 
1.8310547e-2, 8.7508976e+0, -0.000000031226506, -32761.373, 0.22057432, 0.0, 0.000495497, 0.0000014538491, 0.0000014538491, 0.0, 0.012207031, 0.011825689 
1.8310547e-2, 8.762724e+0, 0.0000000046726227, -32749.844, -0.016914295, 0.0, 0.00046416203, 0.000000013405952, 0.000000013405952, 0.0, 0.012207031, 0.011825817 
1.8310547e-2, 8.7745494e+0, -0.0000052814325, -32742.15, 2.0649269, 0.0, 0.00045193246, 0.00012494592, 0.00012494592, 0.0, 0.012207031, 0.011825902 
1.8310547e-2, 8.786375e+0, -0.000000056834043, -32728.303, -0.24142185, 0.0, 0.0004658639, 0.0000017240272, 0.0000017240272, 0.0, 0.012207031, 0.011826056 
1.8310547e-2, 8.7982017e+0, -0.0000000038941512, -32723.246, 0.08886782, 0.0, 0.00048346238, 0.00000023744724, 0.00000023744724, 0.0, 0.012207031, 0.011826112 
1.8310547e-2, 8.810028e+0, -0.000000035782612, -32709.25, -0.10274413, 0.0, 0.00048518693, 0.00000028694922, 0.00000028694922, 0.0, 0.012207031, 0.0118262675 
1.8310547e-2, 8.8218534e+0, -0.0000005116991, -32703.375, 0.71382296, 0.0, 0.0004569902, 0.000015069054, 0.000015069054, 0.0, 0.012207031, 0.011826333 
1.8310547e-2, 8.83368e+0, -0.00000007134678, -32690.1, -0.20263185, 0.0, 0.0004487612, 0.0000011846787, 0.0000011846787, 0.0, 0.012207031, 0.011826481 
1.8310547e-2, 8.845507e+0, -0.00000006461628, -32683.11, 0.2405732, 0.0, 0.0005107088, 0.0000017061866, 0.0000017061866, 0.0, 0.012207031, 0.011826558 
1.8310547e-2, 8.857333e+0, -0.00000009734616, -32671.059, 0.28682017, 0.0, 0.0004919116, 0.0000024206565, 0.0000024206565, 0.0, 0.012207031, 0.011826692 
1.8310547e-2, 8.8691604e+0, -0.00000011249453, -32664.373, -0.31685862, 0.0, 0.0004463185, 0.0000029611729, 0.0000029611729, 0.0, 0.012207031, 0.011826766 
1.8310547e-2, 8.880987e+0, -0.000000028122736, -32650.32, 0.24639356, 0.0, 0.00048184276, 0.0000018312712, 0.0000018312712, 0.0, 0.012207031, 0.011826922 
1.8310547e-2, 8.892814e+0, -0.000000015308476, -32646.115, -0.014356188, 0.0, 0.0004925185, -0.000000008996722, -0.000000008996722, 0.0, 0.012207031, 0.011826969 
1.8310547e-2, 8.904641e+0, -0.000000026830248, -32629.535, 0.03694946, 0.0, 0.00047178488, 0.000000015013939, 0.000000015013939, 0.0, 0.012207031, 0.011827153 
1.8310547e-2, 8.9164686e+0, -0.0000018409468, -32624.877, 1.2924613, 0.0, 0.00047620913, 0.00004936096, 0.00004936096, 0.0, 0.012207031, 0.011827205 
1.8310547e-2, 8.928296e+0, -0.0000026566083, -32611.252, 1.507283, 0.0, 0.0005080161, 0.00006700959, 0.00006700959, 0.0, 0.012207031, 0.011827356 
1.8310547e-2, 8.940123e+0, -0.0000018863122, -32609.203, 1.287988, 0.0, 0.0004768636, 0.000048986225, 0.000048986225, 0.0, 0.012207031, 0.0118273785 
1.8310547e-2, 8.95195e+0, -0.0000021152632, -32594.318, -1.3537513, 0.0, 0.00044484658, 0.00005411056, 0.00005411056, 0.0, 0.012207031, 0.011827544 
1.8310547e-2, 8.9637786e+0, -0.00017958815, -32585.605, 13.741695, 0.0, 0.0004952014, 0.005615429, 0.005615429, 0.0, 0.012207031, 0.011827641 
1.8310547e-2, 8.975606e+0, -0.0000010221146, -32569.498, -1.0143769, 0.0, 0.00053179177, 0.00003057065, 0.00003057065, 0.0, 0.012207031, 0.01182782 
1.8310547e-2, 8.9874333e+0, -0.0000006762456, -32568.738, 0.78639865, 0.0, 0.00045836298, 0.000018311988, 0.000018311988, 0.0, 0.012207031, 0.011827828 
1.8310547e-2, 8.999262e+0, 0.000000037263423, -32551.123, -0.01860239, 0.0, 0.0004546013, 0.00000004789399, 0.00000004789399, 0.0, 0.012207031, 0.011828024 
1.8310547e-2, 9.011089e+0, -0.00000004072436, -32549.078, -0.22795646, 0.0, 0.00049573364, 0.0000015557634, 0.0000015557634, 0.0, 0.012207031, 0.011828047 
1.8310547e-2, 9.022918e+0, 0.000000036535067, -32532.406, -0.18831848, 0.0, 0.0005125897, 0.0000011266457, 0.0000011266457, 0.0, 0.012207031, 0.011828233 
1.8310547e-2, 9.034746e+0, 0.0000000066268644, -32528.244, -0.0077612964, 0.0, 0.0004705804, 0.000000008480129, 0.000000008480129, 0.0, 0.012207031, 0.011828278 
1.8310547e-2, 9.046575e+0, -0.000000091751254, -32512.938, 0.21588215, 0.0, 0.0004719294, 0.000001341683, 0.000001341683, 0.0, 0.012207031, 0.011828449 
1.8310547e-2, 9.058403e+0, -0.00000003253906, -32509.904, -0.12571579, 0.0, 0.00047863967, 0.00000045360503, 0.00000045360503, 0.0, 0.012207031, 0.011828482 
1.8310547e-2, 9.0702313e+0, -0.00000005626062, -32492.459, -0.2007095, 0.0, 0.0005117645, 0.0000011835436, 0.0000011835436, 0.0, 0.012207031, 0.011828676 
1.8310547e-2, 9.08206e+0, -0.000000049822923, -32490.469, 0.14231585, 0.0, 0.00048472895, 0.00000057355646, 0.00000057355646, 0.0, 0.012207031, 0.011828698 
1.8310547e-2, 9.093889e+0, -0.000000048470664, -32473.08, -0.17960191, 0.0, 0.000458628, 0.00000094486677, 0.00000094486677, 0.0, 0.012207031, 0.011828891 
1.8310547e-2, 9.1057175e+0, 0.00000003428667, -32470.879, -0.18033649, 0.0, 0.00048545492, 0.0000010358381, 0.0000010358381, 0.0, 0.012207031, 0.011828916 
1.8310547e-2, 9.117547e+0, -0.00000017255657, -32453.137, 0.36340722, 0.0, 0.0005139378, 0.000003896843, 0.000003896843, 0.0, 0.012207031, 0.011829113 
1.8310547e-2, 9.1293764e+0, -0.000000058167963, -32451.988, 0.008228419, 0.0, 0.00046169382, -0.000000056079443, -0.000000056079443, 0.0, 0.012207031, 0.011829126 
1.8310547e-2, 9.141205e+0, -0.000000009805307, -32433.06, -0.21700697, 0.0, 0.0004968872, 0.0000014421712, 0.0000014421712, 0.0, 0.012207031, 0.011829336 
1.8310547e-2, 9.153034e+0, -0.00000009575256, -32432.39, 0.13135754, 0.0, 0.0005194077, 0.0000004362737, 0.0000004362737, 0.0, 0.012207031, 0.011829344 
1.8310547e-2, 9.164864e+0, -0.000000013081752, -32414.416, -0.08160334, 0.0, 0.00044918156, 0.00000019235449, 0.00000019235449, 0.0, 0.012207031, 0.011829543 
1.8310547e-2, 9.176694e+0, -0.00000006726636, -32411.928, 0.2674286, 0.0, 0.00044819748, 0.0000021392661, 0.0000021392661, 0.0, 0.012207031, 0.011829571 
1.8310547e-2, 9.188523e+0, -0.0000000045047805, -32394.41, 0.29706866, 0.0, 0.0005618044, 0.0000027197239, 0.0000027197239, 0.0, 0.012207031, 0.0118297655 
1.8310547e-2, 9.2003524e+0, -0.00000003041533, -32393.463, -0.05764757, 0.0, 0.00052565144, 0.000000072170224, 0.000000072170224, 0.0, 0.012207031, 0.011829777 
1.8310547e-2, 9.212183e+0, -0.000000031167502, -32374.588, -0.0033692692, 0.0, 0.00042648512, -0.00000003081732, -0.00000003081732, 0.0, 0.012207031, 0.011829986 
1.8310547e-2, 9.224013e+0, -0.00000077236575, -32373.559, 0.90460724, 0.0, 0.0004518758, 0.000024504876, 0.000024504876, 0.0, 0.012207031, 0.011829997 
1.8310547e-2, 9.235843e+0, -0.00000013147893, -32356.145, -0.35420182, 0.0, 0.0005617063, 0.0000037459577, 0.0000037459577, 0.0, 0.012207031, 0.011830191 
1.8310547e-2, 9.247673e+0, -0.00000016289512, -32352.986, -0.37595195, 0.0, 0.00054416514, 0.0000042057836, 0.0000042057836, 0.0, 0.012207031, 0.0118302265 
1.8310547e-2, 9.2595035e+0, -0.00000025215394, -32335.469, 0.4931706, 0.0, 0.00043760653, 0.0000072695293, 0.0000072695293, 0.0, 0.012207031, 0.011830421 
1.8310547e-2, 9.271334e+0, -0.00000015799854, -32335.064, 0.36773604, 0.0, 0.00045028818, 0.000004024143, 0.000004024143, 0.0, 0.012207031, 0.011830426 
1.8310547e-2, 9.283165e+0, -0.00000006191795, -32317.055, -0.22314726, 0.0, 0.00056289916, 0.0000014788966, 0.0000014788966, 0.0, 0.012207031, 0.011830626 
1.8310547e-2, 9.294995e+0, -0.00000011433042, -32315.111, -0.3027563, 0.0, 0.00052546983, 0.000002722154, 0.000002722154, 0.0, 0.012207031, 0.0118306475 
1.8310547e-2, 9.3068254e+0, -0.000000119183554, -32296.7, 0.2642799, 0.0, 0.00046318278, 0.0000020433836, 0.0000020433836, 0.0, 0.012207031, 0.011830852 
1.8310547e-2, 9.318657e+0, -0.00000020428483, -32296.266, 0.46992284, 0.0, 0.0005047269, 0.0000066332723, 0.0000066332723, 0.0, 0.012207031, 0.011830857 
1.8310547e-2, 9.3304884e+0, -0.00000007090445, -32278.564, -0.30270165, 0.0, 0.00052801106, 0.000002767767, 0.000002767767, 0.0, 0.012207031, 0.0118310535 
1.8310547e-2, 9.342319e+0, -0.00000014636164, -32275.531, -0.32039735, 0.0, 0.0004760761, 0.0000030342017, 0.0000030342017, 0.0, 0.012207031, 0.011831087 
1.8310547e-2, 9.3541497e+0, -0.0000000148891015, -32259.379, -0.10637113, 0.0, 0.00051228795, 0.00000033585457, 0.00000033585457, 0.0, 0.012207031, 0.011831267 
1.8310547e-2, 9.365981e+0, -0.000021444694, -32255.998, 3.732121, 0.0, 0.00053907605, 0.0004103735, 0.0004103735, 0.0, 0.012207031, 0.011831304 
1.8310547e-2, 9.377812e+0, -0.00000017510833, -32238.758, -0.3890745, 0.0, 0.0004990132, 0.0000045204542, 0.0000045204542, 0.0, 0.012207031, 0.011831496 
1.8310547e-2, 9.389645e+0, -0.00000011898954, -32236.4, 0.30827045, 0.0, 0.00047504005, 0.0000028289396, 0.0000028289396, 0.0, 0.012207031, 0.011831522 
1.8310547e-2, 9.401476e+0, -0.00000004088567, -32219.537, 0.16343822, 0.0, 0.00052925973, 0.0000007881754, 0.0000007881754, 0.0, 0.012207031, 0.01183171 
1.8310547e-2, 9.4133073e+0, -0.00000006722058, -32217.424, -0.30775192, 0.0, 0.00051816605, 0.0000028725335, 0.0000028725335, 0.0, 0.012207031, 0.011831733 
1.8310547e-2, 9.4251394e+0, -0.000000042622805, -32199.22, -0.01776972, 0.0, 0.00050737255, -0.000000032818207, -0.000000032818207, 0.0, 0.012207031, 0.0118319355 
1.8310547e-2, 9.4369715e+0, -0.00000011453143, -32197.873, 0.3167344, 0.0, 0.00049895275, 0.0000030012234, 0.0000030012234, 0.0, 0.012207031, 0.011831951 
1.8310547e-2, 9.4488037e+0, -0.000000010692077, -32180.646, 0.030739076, 0.0, 0.0005030321, 0.000000018670107, 0.000000018670107, 0.0, 0.012207031, 0.011832142 
1.8310547e-2, 9.460635e+0, -0.00000029962862, -32178.398, -0.5739774, 0.0, 0.00053015625, 0.000009938609, 0.000009938609, 0.0, 0.012207031, 0.011832167 
1.8310547e-2, 9.4724673e+0, -0.00000007404361, -32159.758, 0.020800268, 0.0, 0.0005488756, -0.00000006059054, -0.00000006059054, 0.0, 0.012207031, 0.011832375 
1.8310547e-2, 9.4843006e+0, -0.00000008069944, -32159.87, 0.2714063, 0.0, 0.00043264878, 0.0000022097774, 0.0000022097774, 0.0, 0.012207031, 0.011832373 
1.8310547e-2, 9.496133e+0, -0.00000011501742, -32139.88, -0.17009111, 0.0, 0.00047862265, 0.0000007851413, 0.0000007851413, 0.0, 0.012207031, 0.011832596 
1.8310547e-2, 9.507965e+0, -0.0000010576689, -32137.67, 0.99341077, 0.0, 0.00061709184, 0.000029649753, 0.000029649753, 0.0, 0.012207031, 0.011832621 
1.8310547e-2, 9.519798e+0, -0.00000447407, -32122.068, 1.8885591, 0.0, 0.00055069156, 0.00010656036, 0.00010656036, 0.0, 0.012207031, 0.011832794 
1.8310547e-2, 9.53163e+0, -0.0000017901696, -32120.36, 1.249861, 0.0, 0.00037767735, 0.000046844176, 0.000046844176, 0.0, 0.012207031, 0.011832813 
1.8310547e-2, 9.5434636e+0, -0.00000014376765, -32102.7, 0.33991152, 0.0, 0.00048463987, 0.0000034553013, 0.0000034553013, 0.0, 0.012207031, 0.011833009 
1.8310547e-2, 9.555297e+0, -0.00000016192755, -32100.3, -0.4592317, 0.0, 0.0006307926, 0.0000064079104, 0.0000064079104, 0.0, 0.012207031, 0.011833036 
1.8310547e-2, 9.56713e+0, -0.000000072248085, -32082.045, 0.0055311085, 0.0, 0.00053236727, -0.00000007129347, -0.00000007129347, 0.0, 0.012207031, 0.011833239 
1.8310547e-2, 9.5789635e+0, -0.0000006170497, -32079.559, 0.79038185, 0.0, 0.00040654012, 0.000018856521, 0.000018856521, 0.0, 0.012207031, 0.011833267 
1.8310547e-2, 9.590796e+0, -0.00000040800307, -32064.242, 0.5683895, 0.0, 0.0005418774, 0.000009667601, 0.000009667601, 0.0, 0.012207031, 0.011833438 
1.8310547e-2, 9.6026295e+0, -0.0000008067341, -32062.348, -0.89349836, 0.0, 0.00054975966, 0.000024092857, 0.000024092857, 0.0, 0.012207031, 0.011833458 
1.8310547e-2, 9.614464e+0, -0.0000013802922, -32041.719, -1.1562176, 0.0, 0.00045236762, 0.000040341532, 0.000040341532, 0.0, 0.012207031, 0.011833688 
1.8310547e-2, 9.626297e+0, -0.0000017464434, -32039.367, 1.2889154, 0.0, 0.000546967, 0.000050105475, 0.000050105475, 0.0, 0.012207031, 0.011833714 
1.8310547e-2, 9.638131e+0, -0.0000016433877, -32026.352, 1.2711455, 0.0, 0.00058047177, 0.00004880915, 0.00004880915, 0.0, 0.012207031, 0.011833859 
1.8310547e-2, 9.649965e+0, -0.0000019340591, -32021.88, -1.3580396, 0.0, 0.00044054782, 0.000055660043, 0.000055660043, 0.0, 0.012207031, 0.011833909 
1.8310547e-2, 9.6617997e+0, -0.00000008904707, -32003.266, -0.27961528, 0.0, 0.0005015914, 0.000002353976, 0.000002353976, 0.0, 0.012207031, 0.011834116 
1.8310547e-2, 9.6736336e+0, -0.0000011559221, -32003.87, 1.0236205, 0.0, 0.0005784343, 0.00003158383, 0.00003158383, 0.0, 0.012207031, 0.011834109 
1.8310547e-2, 9.6854675e+0, -0.000059137445, -31985.832, 7.827583, 0.0, 0.0004679719, 0.0018564309, 0.0018564309, 0.0, 0.012207031, 0.011834309 
1.8310547e-2, 9.697302e+0, -0.0000015264002, -31979.5, -1.1156311, 0.0, 0.0005004036, 0.000037393307, 0.000037393307, 0.0, 0.012207031, 0.01183438 
1.8310547e-2, 9.709136e+0, -0.0000021824383, -31966.824, 1.4114287, 0.0, 0.00064569997, 0.000060136263, 0.000060136263, 0.0, 0.012207031, 0.011834521 
1.8310547e-2, 9.720971e+0, -0.000000047863033, -31962.645, -0.21633258, 0.0, 0.0004950345, 0.0000014163415, 0.0000014163415, 0.0, 0.012207031, 0.011834567 
1.8310547e-2, 9.7328055e+0, -0.000000094570225, -31945.977, -0.27592677, 0.0, 0.00035251142, 0.0000022886888, 0.0000022886888, 0.0, 0.012207031, 0.011834754 
1.8310547e-2, 9.7446406e+0, -0.000000025702816, -31942.57, 0.26489767, 0.0, 0.00058493216, 0.0000021710766, 0.0000021710766, 0.0, 0.012207031, 0.011834791 
1.8310547e-2, 9.7564757e+0, -0.00000017154092, -31928.367, -0.46429506, 0.0, 0.00070818746, 0.0000065801323, 0.0000065801323, 0.0, 0.012207031, 0.011834949 
1.8310547e-2, 9.7683096e+0, -0.000000046014364, -31921.215, 0.11257228, 0.0, 0.00046943614, 0.00000035098128, 0.00000035098128, 0.0, 0.012207031, 0.011835029 
1.8310547e-2, 9.7801447e+0, -0.0000012670536, -31908.402, 1.1278331, 0.0, 0.00034324752, 0.00003859729, 0.00003859729, 0.0, 0.012207031, 0.011835172 
1.8310547e-2, 9.791981e+0, -0.00000013221747, -31904.764, -0.3065306, 0.0, 0.00058151165, 0.0000028128306, 0.0000028128306, 0.0, 0.012207031, 0.011835212 
1.8310547e-2, 9.803816e+0, -0.000001084067, -31888.012, -1.0142577, 0.0, 0.000699196, 0.000031176292, 0.000031176292, 0.0, 0.012207031, 0.011835398 
1.8310547e-2, 9.815651e+0, -0.00000020813282, -31882.412, 0.4356806, 0.0, 0.0004793637, 0.0000057455436, 0.0000057455436, 0.0, 0.012207031, 0.011835461 
1.8310547e-2, 9.827487e+0, -0.00000039494208, -31869.719, 0.5719239, 0.0, 0.00040256852, 0.000009868625, 0.000009868625, 0.0, 0.012207031, 0.011835602 
1.8310547e-2, 9.839322e+0, -0.000000019745823, -31864.393, 0.022596618, 0.0, 0.0005959389, -0.0000000037252903, -0.0000000037252903, 0.0, 0.012207031, 0.011835662 
1.8310547e-2, 9.851158e+0, -0.00000014836846, -31849.941, -0.34418473, 0.0, 0.000572597, 0.0000035710473, 0.0000035710473, 0.0, 0.012207031, 0.011835822 
1.8310547e-2, 9.862994e+0, -0.0000000070806006, -31843.357, -0.1659378, 0.0, 0.00048391902, 0.0000008576353, 0.0000008576353, 0.0, 0.012207031, 0.0118358955 
1.8310547e-2, 9.87483e+0, -0.0000004005873, -31830.076, 0.6309569, 0.0, 0.0005682295, 0.000012106659, 0.000012106659, 0.0, 0.012207031, 0.011836044 
1.8310547e-2, 9.8866665e+0, -0.00000013058074, -31825.662, 0.29293793, 0.0, 0.00053399603, 0.0000025657537, 0.0000025657537, 0.0, 0.012207031, 0.011836093 
1.8310547e-2, 9.898502e+0, -0.0000007417223, -31810.99, -0.8724149, 0.0, 0.00049907796, 0.000023184213, 0.000023184213, 0.0, 0.012207031, 0.011836256 
1.8310547e-2, 9.9103385e+0, -0.000000049503576, -31803.65, 0.012046037, 0.0, 0.0005919588, -0.000000044939952, -0.000000044939952, 0.0, 0.012207031, 0.011836338 
1.8310547e-2, 9.922174e+0, -0.00000016806214, -31792.459, 0.3255616, 0.0, 0.0004897277, 0.0000031657582, 0.0000031657582, 0.0, 0.012207031, 0.011836463 
1.8310547e-2, 9.9340117e+0, -0.0000002320413, -31785.049, -0.45301092, 0.0, 0.00047324385, 0.000006224418, 0.000006224418, 0.0, 0.012207031, 0.011836545 
1.8310547e-2, 9.9458474e+0, -0.0000002817974, -31771.127, 0.4564553, 0.0, 0.0006498066, 0.0000062760882, 0.0000062760882, 0.0, 0.012207031, 0.0118367 
1.8310547e-2, 9.957684e+0, -0.000000023035753, -31766.883, 0.07484606, 0.0, 0.00052977295, 0.00000015330806, 0.00000015330806, 0.0, 0.012207031, 0.011836747 
1.8310547e-2, 9.969522e+0, -0.00000021127106, -31751.543, -0.4196916, 0.0, 0.00046090275, 0.000005336209, 0.000005336209, 0.0, 0.012207031, 0.011836918 
1.8310547e-2, 9.9813586e+0, -0.0000020677878, -31746.045, 1.3226457, 0.0, 0.00060035026, 0.000053038028, 0.000053038028, 0.0, 0.012207031, 0.011836979 
1.8310547e-2, 9.9931955e+0, -0.0000009756776, -31735.873, -0.96789193, 0.0, 0.00051034376, 0.000028543436, 0.000028543436, 0.0, 0.012207031, 0.011837092 
1.8310547e-2, 1.0005032e+1, -0.000002425407, -31723.787, -1.498884, 0.0, 0.00049127056, 0.00006839378, 0.00006839378, 0.0, 0.012207031, 0.011837227 
1.8310547e-2, 1.001687e+1, -0.0000027783958, -31712.717, 1.5848205, 0.0, 0.0006157303, 0.00007642188, 0.00007642188, 0.0, 0.012207031, 0.01183735 
1.8310547e-2, 1.0028707e+1, -0.0000030437945, -31708.969, 1.6876305, 0.0, 0.00048649593, 0.00008677612, 0.00008677612, 0.0, 0.012207031, 0.011837392 
1.8310547e-2, 1.0040545e+1, -0.000001416834, -31693.646, -1.1435505, 0.0, 0.0005245487, 0.00003984405, 0.00003984405, 0.0, 0.012207031, 0.011837563 
1.8310547e-2, 1.0052382e+1, -0.0000008923655, -31686.398, 0.8846813, 0.0, 0.00064289226, 0.00002380785, 0.00002380785, 0.0, 0.012207031, 0.011837644 
1.8310547e-2, 1.00642204e+1, -0.00000032413155, -31677.33, -0.529746, 0.0, 0.00048297644, 0.000008534906, 0.000008534906, 0.0, 0.012207031, 0.011837744 
1.8310547e-2, 1.0076059e+1, -0.00000024661028, -31665.143, -0.3753129, 0.0, 0.00042906372, 0.0000042018073, 0.0000042018073, 0.0, 0.012207031, 0.01183788 
1.8310547e-2, 1.0087896e+1, -0.00000059403885, -31657.303, 0.7465416, 0.0, 0.0006093145, 0.000017010887, 0.000017010887, 0.0, 0.012207031, 0.011837968 
1.8310547e-2, 1.0099734e+1, -0.00000057899786, -31647.51, -0.6868534, 0.0, 0.0006593737, 0.000014327947, 0.000014327947, 0.0, 0.012207031, 0.011838077 
1.8310547e-2, 1.01115726e+1, -0.00000037717328, -31635.7, 0.50287515, 0.0, 0.0004971214, 0.000007616436, 0.000007616436, 0.0, 0.012207031, 0.011838208 
1.8310547e-2, 1.012341e+1, -0.00000015222896, -31629.06, 0.2790267, 0.0, 0.00037177594, 0.0000023093016, 0.0000023093016, 0.0, 0.012207031, 0.0118382815 
1.8310547e-2, 1.0135248e+1, -0.0000002776235, -31616.578, -0.50927967, 0.0, 0.00059966085, 0.00000792585, 0.00000792585, 0.0, 0.012207031, 0.011838421 
1.8310547e-2, 1.0147087e+1, -0.0000007154444, -31609.027, 0.73103195, 0.0, 0.0007414903, 0.000016191363, 0.000016191363, 0.0, 0.012207031, 0.011838505 
1.8310547e-2, 1.0158926e+1, 0.00000001218893, -31596.01, -0.082363844, 0.0, 0.00048326724, 0.00000022689346, 0.00000022689346, 0.0, 0.012207031, 0.01183865 
1.8310547e-2, 1.0170764e+1, -0.000011710704, -31583.82, 2.890498, 0.0, 0.00034988768, 0.0002528228, 0.0002528228, 0.0, 0.012207031, 0.011838785 
1.8310547e-2, 1.0182603e+1, -0.000029578185, -31580.822, 5.803024, 0.0, 0.00059569074, 0.0010367361, 0.0010367361, 0.0, 0.012207031, 0.011838819 
1.8310547e-2, 1.0194442e+1, -0.00000843393, -31570.992, 2.479585, 0.0, 0.0007441373, 0.0001863126, 0.0001863126, 0.0, 0.012207031, 0.011838929 
1.8310547e-2, 1.0206281e+1, -0.00000006972829, -31561.7, 0.048651207, 0.0, 0.00048859825, 0.0000000052677933, 0.0000000052677933, 0.0, 0.012207031, 0.011839032 
1.8310547e-2, 1.021812e+1, -0.000009878224, -31553.734, -2.6567657, 0.0, 0.00040721055, 0.00021381649, 0.00021381649, 0.0, 0.012207031, 0.011839121 
1.8310547e-2, 1.0229959e+1, -0.00030591924, -31538.457, 17.938066, 0.0, 0.0006317399, 0.009896677, 0.009896677, 0.0, 0.012207031, 0.011839291 
1.8310547e-2, 1.0241798e+1, -0.000014589644, -31525.674, -3.1304247, 0.0, 0.0005837097, 0.0002962541, 0.0002962541, 0.0, 0.012207031, 0.011839434 
1.8310547e-2, 1.0253638e+1, -0.00000006156196, -31519.98, -0.17445123, 0.0, 0.00048816527, 0.00000090396134, 0.00000090396134, 0.0, 0.012207031, 0.011839497 
1.8310547e-2, 1.02654785e+1, -0.00000049397653, -31508.242, 0.70352066, 0.0, 0.0006164554, 0.000015214337, 0.000015214337, 0.0, 0.012207031, 0.011839628 
1.8310547e-2, 1.0277317e+1, -0.0000000059299663, -31502.525, -0.042410955, 0.0, 0.0005889554, 0.000000051168172, 0.000000051168172, 0.0, 0.012207031, 0.011839692 
1.8310547e-2, 1.0289157e+1, -0.0000005549154, -31489.732, -0.73859143, 0.0, 0.0004638931, 0.00001676874, 0.00001676874, 0.0, 0.012207031, 0.011839834 
1.8310547e-2, 1.0300997e+1, -0.000000043284718, -31480.7, 0.12911227, 0.0, 0.00050592027, 0.00000048624497, 0.00000048624497, 0.0, 0.012207031, 0.011839935 
1.8310547e-2, 1.0312837e+1, -0.0000001522788, -31470.236, 0.3455059, 0.0, 0.0006806873, 0.0000036409656, 0.0000036409656, 0.0, 0.012207031, 0.011840051 
1.8310547e-2, 1.0324678e+1, -0.00000003941892, -31462.635, -0.02911498, 0.0, 0.0006386111, -0.000000012474629, -0.000000012474629, 0.0, 0.012207031, 0.011840136 
1.8310547e-2, 1.03365175e+1, -0.000000033926657, -31450.846, -0.13965006, 0.0, 0.00038958777, 0.0000005861548, 0.0000005861548, 0.0, 0.012207031, 0.011840267 
1.8310547e-2, 1.0348358e+1, 0.000000021277017, -31442.104, 0.014083137, 0.0, 0.00044863604, 0.000000027583155, 0.000000027583155, 0.0, 0.012207031, 0.011840365 
1.8310547e-2, 1.0360198e+1, -0.00000010513036, -31430.422, 0.23703907, 0.0, 0.0007767833, 0.0000016825506, 0.0000016825506, 0.0, 0.012207031, 0.011840495 
1.8310547e-2, 1.0372039e+1, -0.00000001817462, -31423.94, 0.22611241, 0.0, 0.00065012596, 0.000001608827, 0.000001608827, 0.0, 0.012207031, 0.011840567 
1.8310547e-2, 1.03838794e+1, -0.00000015566252, -31410.924, -0.37327206, 0.0, 0.00034990674, 0.000004280122, 0.000004280122, 0.0, 0.012207031, 0.011840712 
1.8310547e-2, 1.03957206e+1, -0.00000018988293, -31403.781, 0.37971112, 0.0, 0.00052227767, 0.0000044012995, 0.0000044012995, 0.0, 0.012207031, 0.011840792 
1.8310547e-2, 1.0407561e+1, -0.000000028264362, -31390.795, 0.16220388, 0.0, 0.0007074198, 0.0000008098832, 0.0000008098832, 0.0, 0.012207031, 0.011840937 
1.8310547e-2, 1.0419402e+1, -0.000000032832677, -31385.188, -0.07569026, 0.0, 0.0005427756, 0.00000014970647, 0.00000014970647, 0.0, 0.012207031, 0.011840999 
1.8310547e-2, 1.0431243e+1, -0.000000015901163, -31370.416, 0.021557296, 0.0, 0.0005070934, -0.0000000010877557, -0.0000000010877557, 0.0, 0.012207031, 0.011841164 
1.8310547e-2, 1.0443085e+1, -0.00000018407214, -31366.443, 0.38217604, 0.0, 0.0006154491, 0.000004472451, 0.000004472451, 0.0, 0.012207031, 0.011841209 
1.8310547e-2, 1.0454926e+1, -0.000000035246597, -31351.977, 0.20122953, 0.0, 0.0005550883, 0.0000012563214, 0.0000012563214, 0.0, 0.012207031, 0.01184137 
1.8310547e-2, 1.0466767e+1, -0.00000007563937, -31345.357, 0.25042418, 0.0, 0.00050033693, 0.0000019250474, 0.0000019250474, 0.0, 0.012207031, 0.011841443 
1.8310547e-2, 1.0478608e+1, -0.0000040171262, -31328.701, 1.8145989, 0.0, 0.0005902648, 0.0001010868, 0.0001010868, 0.0, 0.012207031, 0.011841629 
1.8310547e-2, 1.049045e+1, -0.000012154715, -31328.34, 4.2490115, 0.0, 0.0006556793, 0.00056413177, 0.00056413177, 0.0, 0.012207031, 0.011841633 
1.8310547e-2, 1.05022915e+1, -0.000013128642, -31315.377, 2.8971922, 0.0, 0.0005287213, 0.0002549097, 0.0002549097, 0.0, 0.012207031, 0.011841778 
1.8310547e-2, 1.05141334e+1, -0.00000071151516, -31308.664, -0.8313461, 0.0, 0.00045799318, 0.000021363405, 0.000021363405, 0.0, 0.012207031, 0.011841852 
1.8310547e-2, 1.05259754e+1, -0.0000005139744, -31290.69, 0.7155482, 0.0, 0.00062063395, 0.000015849015, 0.000015849015, 0.0, 0.012207031, 0.011842052 
1.8310547e-2, 1.0537818e+1, -0.0000033583192, -31290.293, 1.6961952, 0.0, 0.00066271634, 0.00008858963, 0.00008858963, 0.0, 0.012207031, 0.011842057 
1.8310547e-2, 1.054966e+1, -0.00000074179025, -31273.03, -0.8658855, 0.0, 0.0005233006, 0.000023232787, 0.000023232787, 0.0, 0.012207031, 0.01184225 
1.8310547e-2, 1.0561503e+1, -0.00000025991528, -31270.7, -0.5030468, 0.0, 0.0004974594, 0.000007832517, 0.000007832517, 0.0, 0.012207031, 0.011842276 
1.8310547e-2, 1.0573344e+1, -0.00000932577, -31258.332, -2.5714743, 0.0, 0.00058607466, 0.0002022172, 0.0002022172, 0.0, 0.012207031, 0.011842414 
1.8310547e-2, 1.0585187e+1, -0.00047610427, -31248.234, 22.376833, 0.0, 0.00065616675, 0.015547918, 0.015547918, 0.0, 0.012207031, 0.0118425265 
1.8310547e-2, 1.0597029e+1, -0.000014287197, -31229.469, -3.8359842, 0.0, 0.000546962, 0.00045689516, 0.00045689516, 0.0, 0.012207031, 0.011842735 
1.8310547e-2, 1.0608873e+1, -0.0000001363169, -31230.822, -0.30491674, 0.0, 0.0005056965, 0.000002840683, 0.000002840683, 0.0, 0.012207031, 0.01184272 
1.8310547e-2, 1.06207155e+1, -0.000000005910528, -31212.201, 0.04216038, 0.0, 0.0006159392, 0.000000051037205, 0.000000051037205, 0.0, 0.012207031, 0.011842928 
1.8310547e-2, 1.0632558e+1, -0.00000010814013, -31212.014, -0.3175669, 0.0, 0.0005813395, 0.0000031229501, 0.0000031229501, 0.0, 0.012207031, 0.01184293 
1.8310547e-2, 1.06444016e+1, -0.00000008299662, -31193.27, -0.24174738, 0.0, 0.0005186781, 0.0000017905404, 0.0000017905404, 0.0, 0.012207031, 0.011843139 
1.8310547e-2, 1.0656244e+1, -0.00000047038958, -31191.432, 0.64595515, 0.0, 0.0006443269, 0.000012906938, 0.000012906938, 0.0, 0.012207031, 0.01184316 
1.8310547e-2, 1.0668088e+1, -0.00000009688997, -31175.4, 0.3290458, 0.0, 0.0006366239, 0.000003376077, 0.000003376077, 0.0, 0.012207031, 0.011843339 
1.8310547e-2, 1.06799304e+1, -0.000001213418, -31173.143, -1.0959975, 0.0, 0.0004263348, 0.000037320086, 0.000037320086, 0.0, 0.012207031, 0.011843364 
1.8310547e-2, 1.0691775e+1, -0.000000008283006, -31152.63, -0.15679295, 0.0, 0.00054588943, 0.00000078086305, 0.00000078086305, 0.0, 0.012207031, 0.011843592 
1.8310547e-2, 1.0703618e+1, -0.0000012804205, -31153.2, 1.1077396, 0.0, 0.00073376694, 0.000038108374, 0.000038108374, 0.0, 0.012207031, 0.011843586 
1.8310547e-2, 1.07154615e+1, -0.000000012079243, -31136.24, -0.068332456, 0.0, 0.00056022865, 0.00000013788667, 0.00000013788667, 0.0, 0.012207031, 0.011843775 
1.8310547e-2, 1.0727306e+1, -0.00000014385631, -31132.463, -0.27186334, 0.0, 0.00047424383, 0.0000022301829, 0.0000022301829, 0.0, 0.012207031, 0.011843817 
1.8310547e-2, 1.0739149e+1, -0.00000069599207, -31115.313, 0.8101476, 0.0, 0.00065361545, 0.000020397776, 0.000020397776, 0.0, 0.012207031, 0.011844008 
1.8310547e-2, 1.0750994e+1, -0.0000026023936, -31115.592, 1.3988888, 0.0, 0.00055867824, 0.000060288578, 0.000060288578, 0.0, 0.012207031, 0.011844005 
1.8310547e-2, 1.07628375e+1, -0.00000015497422, -31094.262, -0.35955188, 0.0, 0.00049639354, 0.000004002628, 0.000004002628, 0.0, 0.012207031, 0.011844244 
1.8310547e-2, 1.0774682e+1, -0.0000008777868, -31094.598, 0.9180985, 0.0, 0.000662308, 0.000026229973, 0.000026229973, 0.0, 0.012207031, 0.01184424 
1.8310547e-2, 1.0786526e+1, -0.00000007370852, -31077.137, 0.1614694, 0.0, 0.00065687037, 0.0000007652452, 0.0000007652452, 0.0, 0.012207031, 0.011844435 
1.8310547e-2, 1.079837e+1, -0.00000015152723, -31074.963, -0.3228476, 0.0, 0.00045864005, 0.00000320264, 0.00000320264, 0.0, 0.012207031, 0.011844459 
1.8310547e-2, 1.0810215e+1, -0.00000028447133, -31055.861, 0.5012866, 0.0, 0.00053548126, 0.000007807019, 0.000007807019, 0.0, 0.012207031, 0.011844672 
1.8310547e-2, 1.082206e+1, -0.00000034609496, -31057.473, -0.6023792, 0.0, 0.0006565239, 0.00001133743, 0.00001133743, 0.0, 0.012207031, 0.011844654 
1.8310547e-2, 1.0833904e+1, -0.0000009194186, -31036.023, -0.9712071, 0.0, 0.00062871847, 0.000029472467, 0.000029472467, 0.0, 0.012207031, 0.011844893 
1.8310547e-2, 1.084575e+1, -0.000964978, -31035.346, 31.852621, 0.0, 0.00050535036, 0.03172641, 0.03172641, 0.0, 0.012207031, 0.0118449 
1.8310547e-2, 1.0857595e+1, -0.00000008154023, -31017.934, -0.11581756, 0.0, 0.00056744047, 0.00000035090852, 0.00000035090852, 0.0, 0.012207031, 0.011845095 
1.8310547e-2, 1.08694404e+1, -0.00000031058653, -31016.166, -0.45358723, 0.0, 0.0006240772, 0.0000063227744, 0.0000063227744, 0.0, 0.012207031, 0.011845115 
1.8310547e-2, 1.08812846e+1, -0.00000011241127, -30997.834, 0.32133436, 0.0, 0.0005528222, 0.0000032186545, 0.0000032186545, 0.0, 0.012207031, 0.0118453195 
1.8310547e-2, 1.089313e+1, -0.00000010997458, -30997.283, -0.16800937, 0.0, 0.00055512, 0.0000008006573, 0.0000008006573, 0.0, 0.012207031, 0.011845325 
1.8310547e-2, 1.0904976e+1, -0.00000008804543, -30977.842, 0.075926445, 0.0, 0.0006760977, 0.00000009804717, 0.00000009804717, 0.0, 0.012207031, 0.011845542 
1.8310547e-2, 1.0916822e+1, -0.00000012076094, -30977.688, 0.19685066, 0.0, 0.0005278478, 0.0000011301418, 0.0000011301418, 0.0, 0.012207031, 0.011845544 
1.8310547e-2, 1.0928667e+1, -0.00000014620862, -30959.021, -0.30739057, 0.0, 0.0005446745, 0.0000029058538, 0.0000029058538, 0.0, 0.012207031, 0.011845753 
1.8310547e-2, 1.0940513e+1, -0.000002720618, -30956.982, 1.5106618, 0.0, 0.00065358373, 0.00007099778, 0.00007099778, 0.0, 0.012207031, 0.011845775 
1.8310547e-2, 1.0952358e+1, -0.000000037651763, -30940.383, 0.099859506, 0.0, 0.000522297, 0.00000028464274, 0.00000028464274, 0.0, 0.012207031, 0.01184596 
1.8310547e-2, 1.0964205e+1, -0.00000012205305, -30937.12, -0.24304707, 0.0, 0.0005547178, 0.0000017873645, 0.0000017873645, 0.0, 0.012207031, 0.011845997 
1.8310547e-2, 1.097605e+1, -0.0000006844176, -30920.219, 0.8212036, 0.0, 0.000724836, 0.000021125757, 0.000021125757, 0.0, 0.012207031, 0.011846186 
1.8310547e-2, 1.0987897e+1, -0.000000105718804, -30919.57, -0.24651884, 0.0, 0.000523638, 0.0000018597493, 0.0000018597493, 0.0, 0.012207031, 0.011846193 
1.8310547e-2, 1.0999744e+1, -0.00000025556398, -30899.668, -0.36469144, 0.0, 0.00053610216, 0.000004048685, 0.000004048685, 0.0, 0.012207031, 0.011846415 
1.8310547e-2, 1.1011589e+1, -0.0000005669724, -30898.525, 0.6737675, 0.0, 0.0006684262, 0.000014125078, 0.000014125078, 0.0, 0.012207031, 0.011846428 
1.8310547e-2, 1.1023436e+1, -0.00000090420343, -30883.205, -0.93323636, 0.0, 0.0005248854, 0.000027296559, 0.000027296559, 0.0, 0.012207031, 0.011846598 
1.8310547e-2, 1.1035283e+1, -0.000000015374525, -30875.87, -0.026934857, 0.0, 0.00056218693, 0.000000008123607, 0.000000008123607, 0.0, 0.012207031, 0.01184668 
1.8310547e-2, 1.1047129e+1, -0.000001493453, -30863.65, 1.1996549, 0.0, 0.00070439663, 0.00004513655, 0.00004513655, 0.0, 0.012207031, 0.011846817 
1.8310547e-2, 1.10589765e+1, -0.000000071765456, -30859.14, -0.24062452, 0.0, 0.0005627552, 0.0000018045066, 0.0000018045066, 0.0, 0.012207031, 0.011846867 
1.8310547e-2, 1.1070824e+1, -0.00000028137865, -30842.498, 0.49391222, 0.0, 0.0005440338, 0.000007628136, 0.000007628136, 0.0, 0.012207031, 0.011847053 
1.8310547e-2, 1.108267e+1, -0.0000008405199, -30838.787, 0.853383, 0.0, 0.00062449125, 0.000022774631, 0.000022774631, 0.0, 0.012207031, 0.011847095 
1.8310547e-2, 1.1094518e+1, -0.00000015153235, -30822.736, 0.13501045, 0.0, 0.0005958714, 0.00000043984255, 0.00000043984255, 0.0, 0.012207031, 0.011847273 
1.8310547e-2, 1.1106365e+1, -0.0001280792, -30817.32, 11.626476, 0.0, 0.0006058085, 0.004258251, 0.004258251, 0.0, 0.012207031, 0.011847334 
1.8310547e-2, 1.11182116e+1, -0.0000074338404, -30807.982, 2.3770044, 0.0, 0.0005907757, 0.00017596505, 0.00017596505, 0.0, 0.012207031, 0.011847438 
1.8310547e-2, 1.11300595e+1, -0.0000004285515, -30799.281, -0.62483656, 0.0, 0.0005711361, 0.000012247743, 0.000012247743, 0.0, 0.012207031, 0.011847535 
1.8310547e-2, 1.11419074e+1, -0.00000022361554, -30784.57, 0.43301466, 0.0, 0.00063434726, 0.000005867154, 0.000005867154, 0.0, 0.012207031, 0.0118477 
1.8310547e-2, 1.1153755e+1, -0.000000045599712, -30781.193, 0.013678305, 0.0, 0.0006347402, -0.000000039519364, -0.000000039519364, 0.0, 0.012207031, 0.011847737 
1.8310547e-2, 1.11656025e+1, -0.000000040268795, -30764.588, -0.05568165, 0.0, 0.00054734305, 0.0000000605105, 0.0000000605105, 0.0, 0.012207031, 0.011847923 
1.8310547e-2, 1.1177451e+1, -0.00000019241493, -30760.902, 0.34072158, 0.0, 0.00056696567, 0.0000035815683, 0.0000035815683, 0.0, 0.012207031, 0.0118479645 
1.8310547e-2, 1.1189298e+1, -0.000000990291, -30745.025, -0.8809505, 0.0, 0.00066037255, 0.000024251964, 0.000024251964, 0.0, 0.012207031, 0.011848141 
1.8310547e-2, 1.1201147e+1, -0.00000017143347, -30743.504, -0.41477904, 0.0, 0.0006254531, 0.000005424601, 0.000005424601, 0.0, 0.012207031, 0.011848158 
1.8310547e-2, 1.1212996e+1, -0.000014581736, -30731.893, -3.050829, 0.0, 0.0005563355, 0.00028828136, 0.00028828136, 0.0, 0.012207031, 0.011848288 
1.8310547e-2, 1.1224844e+1, -0.000653909, -30719.664, 26.213324, 0.0, 0.0005791601, 0.021714104, 0.021714104, 0.0, 0.012207031, 0.011848425 
1.8310547e-2, 1.1236692e+1, -0.000023894207, -30703.72, -5.2704263, 0.0, 0.00061256177, 0.00088079716, 0.00088079716, 0.0, 0.012207031, 0.011848602 
1.8310547e-2, 1.1248541e+1, -0.0000001493956, -30699.94, -0.4352359, 0.0, 0.000685647, 0.0000060209823, 0.0000060209823, 0.0, 0.012207031, 0.011848644 
1.8310547e-2, 1.12603895e+1, -0.00000055035457, -30687.318, 0.71548325, 0.0, 0.0005720272, 0.000016131333, 0.000016131333, 0.0, 0.012207031, 0.011848786 
1.8310547e-2, 1.1272239e+1, -0.000000080365666, -30682.666, -0.2972884, 0.0, 0.000459003, 0.0000028001014, 0.0000028001014, 0.0, 0.012207031, 0.011848838 
1.8310547e-2, 1.1284087e+1, -0.000000020433973, -30667.791, -0.14038692, 0.0, 0.00069182593, 0.0000006222108, 0.0000006222108, 0.0, 0.012207031, 0.011849004 
1.8310547e-2, 1.1295936e+1, -0.00000073516026, -30662.953, 0.8289334, 0.0, 0.00071993796, 0.000021673986, 0.000021673986, 0.0, 0.012207031, 0.011849058 
1.8310547e-2, 1.1307785e+1, -0.00000018966874, -30649.717, -0.4072114, 0.0, 0.00051130203, 0.0000052205323, 0.0000052205323, 0.0, 0.012207031, 0.011849206 
1.8310547e-2, 1.1319634e+1, -0.000000038031878, -30642.023, -0.18201053, 0.0, 0.0005371235, 0.0000010430922, 0.0000010430922, 0.0, 0.012207031, 0.011849292 
1.8310547e-2, 1.1331484e+1, -0.00000024628918, -30630.178, 0.40554774, 0.0, 0.00064213085, 0.00000512322, 0.00000512322, 0.0, 0.012207031, 0.011849424 
1.8310547e-2, 1.1343333e+1, -0.00000017172813, -30623.715, -0.37596825, 0.0, 0.0006713988, 0.0000044440494, 0.0000044440494, 0.0, 0.012207031, 0.0118494965 
1.8310547e-2, 1.13551825e+1, -0.0000001785561, -30609.13, 0.32405287, 0.0, 0.0006171079, 0.0000032521275, 0.0000032521275, 0.0, 0.012207031, 0.0118496595 
1.8310547e-2, 1.1367033e+1, 0.000000034755914, -30604.74, 0.09123609, 0.0, 0.00045879776, 0.00000030674346, 0.00000030674346, 0.0, 0.012207031, 0.011849708 
1.8310547e-2, 1.1378882e+1, -0.00000018258316, -30589.621, -0.32490763, 0.0, 0.00062658155, 0.000003268422, 0.000003268422, 0.0, 0.012207031, 0.011849877 
1.8310547e-2, 1.1390733e+1, -0.0000047694784, -30583.904, 1.9364823, 0.0, 0.0007663856, 0.00011784284, 0.00011784284, 0.0, 0.012207031, 0.011849941 
1.8310547e-2, 1.14025824e+1, -0.000000026174748, -30572.998, -0.068904474, 0.0, 0.0005388041, 0.00000012911914, 0.00000012911914, 0.0, 0.012207031, 0.011850063 
1.8310547e-2, 1.14144325e+1, -0.00000018079385, -30562.873, -0.39358988, 0.0, 0.00053087977, 0.000004887872, 0.000004887872, 0.0, 0.012207031, 0.011850175 
1.8310547e-2, 1.1426283e+1, -0.00000057113243, -30552.35, 0.76034683, 0.0, 0.00067794905, 0.000018351384, 0.000018351384, 0.0, 0.012207031, 0.011850294 
1.8310547e-2, 1.14381336e+1, -0.0000008628686, -30545.555, -0.9060633, 0.0, 0.00058322307, 0.000026013407, 0.000026013407, 0.0, 0.012207031, 0.011850369 
1.8310547e-2, 1.1449984e+1, -0.000000060676356, -30530.352, 0.07835848, 0.0, 0.0006194535, 0.00000014043326, 0.00000014043326, 0.0, 0.012207031, 0.01185054 
1.8310547e-2, 1.1461834e+1, -0.0000026599205, -30525.432, 1.5666682, 0.0, 0.0006221851, 0.00007774678, 0.00007774678, 0.0, 0.012207031, 0.011850595 
1.8310547e-2, 1.14736855e+1, -0.00000035084787, -30514.41, -0.52504027, 0.0, 0.0005722281, 0.000008683157, 0.000008683157, 0.0, 0.012207031, 0.0118507175 
1.8310547e-2, 1.1485536e+1, -0.00000015644801, -30503.64, 0.21393362, 0.0, 0.0006671563, 0.000001343953, 0.000001343953, 0.0, 0.012207031, 0.011850838 
1.8310547e-2, 1.1497387e+1, -0.00000012863222, -30495.139, 0.31778404, 0.0, 0.00064099336, 0.0000031829331, 0.0000031829331, 0.0, 0.012207031, 0.011850933 
1.8310547e-2, 1.15092374e+1, -0.00000013077948, -30484.176, -0.25098237, 0.0, 0.00054921827, 0.0000019356085, 0.0000019356085, 0.0, 0.012207031, 0.011851056 
1.8310547e-2, 1.1521088e+1, -0.00000089847396, -30475.084, 0.9108256, 0.0, 0.0005855483, 0.000026323869, 0.000026323869, 0.0, 0.012207031, 0.011851157 
1.8310547e-2, 1.153294e+1, -0.0000010523536, -30467.123, -0.99462605, 0.0, 0.00069170323, 0.00003141809, 0.00003141809, 0.0, 0.012207031, 0.011851246 
1.8310547e-2, 1.1544791e+1, -0.000000106383816, -30452.352, 0.2390965, 0.0, 0.00070864597, 0.0000017708771, 0.0000017708771, 0.0, 0.012207031, 0.01185141 
1.8310547e-2, 1.15566425e+1, -0.00000053377306, -30448.648, 0.64825964, 0.0, 0.00048777706, 0.000013267843, 0.000013267843, 0.0, 0.012207031, 0.011851452 
1.8310547e-2, 1.1568494e+1, -0.000007810963, -30433.604, -2.3889394, 0.0, 0.00052326074, 0.00017971304, 0.00017971304, 0.0, 0.012207031, 0.01185162 
1.8310547e-2, 1.1580346e+1, -0.00000011827054, -30427.762, 0.31270966, 0.0, 0.0008030538, 0.0000030954834, 0.0000030954834, 0.0, 0.012207031, 0.011851686 
1.8310547e-2, 1.15921974e+1, -0.000014723306, -30425.844, -3.2841518, 0.0, 0.0006753662, 0.00033976656, 0.00033976656, 0.0, 0.012207031, 0.0118517075 
1.8310547e-2, 1.160405e+1, -0.001187679, -30404.033, 35.31862, 0.0, 0.0004978447, 0.03983988, 0.03983988, 0.0, 0.012207031, 0.011851951 
1.8310547e-2, 1.1615901e+1, -0.00004405734, -30390.018, -6.716555, 0.0, 0.0005940701, 0.0014403812, 0.0014403812, 0.0, 0.012207031, 0.011852108 
1.8310547e-2, 1.1627753e+1, -0.000000034819404, -30386.016, 0.22035183, 0.0, 0.0007207102, 0.0000015631194, 0.0000015631194, 0.0, 0.012207031, 0.011852153 
1.8310547e-2, 1.16396055e+1, -0.0000020254934, -30377.0, 1.3463159, 0.0, 0.00062184664, 0.000057643552, 0.000057643552, 0.0, 0.012207031, 0.011852253 
1.8310547e-2, 1.1651458e+1, -0.0000008823447, -30366.129, -0.939804, 0.0, 0.0005889796, 0.000028203733, 0.000028203733, 0.0, 0.012207031, 0.011852374 
1.8310547e-2, 1.166331e+1, -0.0000000801506, -30359.51, -0.27389905, 0.0, 0.00065762765, 0.0000023909233, 0.0000023909233, 0.0, 0.012207031, 0.011852449 
1.8310547e-2, 1.1675163e+1, -0.00000028678383, -30345.96, 0.46920186, 0.0, 0.0006350448, 0.000006967901, 0.000006967901, 0.0, 0.012207031, 0.0118526 
1.8310547e-2, 1.1687016e+1, -0.00000015048556, -30340.32, 0.36804044, 0.0, 0.00058968144, 0.0000043139953, 0.0000043139953, 0.0, 0.012207031, 0.011852663 
1.8310547e-2, 1.1698869e+1, -0.00000011664325, -30327.912, -0.39020997, 0.0, 0.0006587507, 0.000004903937, 0.000004903937, 0.0, 0.012207031, 0.011852802 
1.8310547e-2, 1.1710721e+1, -0.00000007027367, -30319.646, -0.10554954, 0.0, 0.00065769657, 0.0000002971683, 0.0000002971683, 0.0, 0.012207031, 0.011852894 
1.8310547e-2, 1.17225744e+1, -0.00000001582186, -30307.422, 0.18003385, 0.0, 0.00062288524, 0.0000010536241, 0.0000010536241, 0.0, 0.012207031, 0.011853031 
1.8310547e-2, 1.17344275e+1, -0.00000008908303, -30301.645, -0.24411425, 0.0, 0.00058884354, 0.0000018775354, 0.0000018775354, 0.0, 0.012207031, 0.011853095 
1.8310547e-2, 1.1746281e+1, 0.000000026547802, -30286.729, 0.12332158, 0.0, 0.0006468773, 0.00000052868927, 0.00000052868927, 0.0, 0.012207031, 0.011853262 
1.8310547e-2, 1.1758134e+1, -0.00000047261295, -30281.68, 0.68926054, 0.0, 0.0006796833, 0.000015216083, 0.000015216083, 0.0, 0.012207031, 0.011853319 
1.8310547e-2, 1.1769987e+1, -0.00000022184459, -30268.715, 0.44542328, 0.0, 0.0006155376, 0.0000063328444, 0.0000063328444, 0.0, 0.012207031, 0.011853464 
1.8310547e-2, 1.178184e+1, -0.0000002566095, -30262.676, -0.49068424, 0.0, 0.0005949659, 0.000007699429, 0.000007699429, 0.0, 0.012207031, 0.011853531 
1.8310547e-2, 1.1793695e+1, -0.0000003431634, -30246.521, 0.5755514, 0.0, 0.00067698606, 0.000010608819, 0.000010608819, 0.0, 0.012207031, 0.011853712 
1.8310547e-2, 1.1805548e+1, -0.00000021653557, -30244.545, 0.42998046, 0.0, 0.0006084379, 0.000005896407, 0.000005896407, 0.0, 0.012207031, 0.011853734 
1.8310547e-2, 1.1817402e+1, -0.000000047214172, -30227.809, -0.20566237, 0.0, 0.0005968395, 0.0000013520621, 0.0000013520621, 0.0, 0.012207031, 0.011853921 
1.8310547e-2, 1.1829256e+1, -0.000000371792, -30223.953, 0.57393384, 0.0, 0.0007222038, 0.000010526848, 0.000010526848, 0.0, 0.012207031, 0.011853964 
1.8310547e-2, 1.184111e+1, -0.00000009810491, -30208.66, 0.28056479, 0.0, 0.00065501855, 0.0000025076552, 0.0000025076552, 0.0, 0.012207031, 0.011854135 
1.8310547e-2, 1.1852965e+1, -0.00000039548027, -30205.143, -0.60589916, 0.0, 0.0005106391, 0.000011758537, 0.000011758537, 0.0, 0.012207031, 0.011854175 
1.8310547e-2, 1.1864819e+1, -0.00000006163468, -30187.975, 0.16392621, 0.0, 0.00065567356, 0.0000008285133, 0.0000008285133, 0.0, 0.012207031, 0.011854366 
1.8310547e-2, 1.18766725e+1, -0.00000016101578, -30185.81, 0.34866813, 0.0, 0.00072213047, 0.0000038663566, 0.0000038663566, 0.0, 0.012207031, 0.011854391 
1.8310547e-2, 1.1888527e+1, -0.0000001224194, -30169.096, -0.31114873, 0.0, 0.0005970386, 0.0000030866104, 0.0000030866104, 0.0, 0.012207031, 0.011854578 
1.8310547e-2, 1.1900382e+1, -0.00000013417721, -30164.969, 0.31679922, 0.0, 0.00061775505, 0.000003192923, 0.000003192923, 0.0, 0.012207031, 0.011854623 
1.8310547e-2, 1.1912236e+1, -0.00000009537585, -30150.72, 0.20768978, 0.0, 0.00067118555, 0.0000013352692, 0.0000013352692, 0.0, 0.012207031, 0.011854784 
1.8310547e-2, 1.1924091e+1, -0.0000007157274, -30146.66, -0.8201784, 0.0, 0.0006084231, 0.000021598269, 0.000021598269, 0.0, 0.012207031, 0.011854828 
1.8310547e-2, 1.1935946e+1, -0.0010094859, -30129.475, 32.555496, 0.0, 0.0006199309, 0.03416734, 0.03416734, 0.0, 0.012207031, 0.011855021 
1.8310547e-2, 1.1947802e+1, -0.00000008760024, -30126.41, -0.22985972, 0.0, 0.00067677314, 0.0000016661943, 0.0000016661943, 0.0, 0.012207031, 0.011855056 
1.8310547e-2, 1.1959657e+1, -0.00000011023861, -30110.523, -0.2955484, 0.0, 0.00066210085, 0.0000027907045, 0.0000027907045, 0.0, 0.012207031, 0.0118552325 
1.8310547e-2, 1.1971512e+1, -0.000000063148214, -30107.746, 0.034026735, 0.0, 0.0005976144, -0.0000000246946, -0.0000000246946, 0.0, 0.012207031, 0.011855264 
1.8310547e-2, 1.1983367e+1, -0.0010686873, -30091.002, 33.494873, 0.0, 0.00060542877, 0.03621506, 0.03621506, 0.0, 0.012207031, 0.011855451 
1.8310547e-2, 1.19952224e+1, -0.00000016397293, -30086.674, -0.41616416, 0.0, 0.0007003136, 0.000005592483, 0.000005592483, 0.0, 0.012207031, 0.0118555 
1.8310547e-2, 1.20070785e+1, -0.0000002703338, -30071.207, 0.5382792, 0.0, 0.0006678638, 0.000009364943, 0.000009364943, 0.0, 0.012207031, 0.011855673 
1.8310547e-2, 1.2018934e+1, -0.00000031669762, -30069.61, -0.5500191, 0.0, 0.0005828143, 0.0000097439915, 0.0000097439915, 0.0, 0.012207031, 0.011855691 
1.8310547e-2, 1.2030789e+1, -0.0000004979828, -30050.252, -0.69383013, 0.0, 0.00065947446, 0.000015521859, 0.000015521859, 0.0, 0.012207031, 0.011855907 
1.8310547e-2, 1.2042645e+1, -0.00000063163594, -30048.523, 0.8071666, 0.0, 0.00066823914, 0.000021050557, 0.000021050557, 0.0, 0.012207031, 0.011855926 
1.8310547e-2, 1.20545015e+1, -0.000000046622866, -30032.756, 0.1849856, 0.0, 0.00060164754, 0.000001092787, 0.000001092787, 0.0, 0.012207031, 0.011856103 
1.8310547e-2, 1.20663576e+1, -0.00000015003322, -30028.984, -0.3191005, 0.0, 0.00067139196, 0.0000032408607, 0.0000032408607, 0.0, 0.012207031, 0.011856145 
1.8310547e-2, 1.2078214e+1, -0.00000009993087, -30012.625, 0.19031025, 0.0, 0.0006761742, 0.000001106826, 0.000001106826, 0.0, 0.012207031, 0.011856328 
1.8310547e-2, 1.20900705e+1, -0.000000029534675, -30009.75, -0.12767954, 0.0, 0.00061720697, 0.0000005136935, 0.0000005136935, 0.0, 0.012207031, 0.01185636 
1.8310547e-2, 1.2101927e+1, -0.00000023055311, -29992.504, 0.34638, 0.0, 0.0006438528, 0.00000376975, 0.00000376975, 0.0, 0.012207031, 0.011856553 
1.8310547e-2, 1.2113783e+1, -0.00000006580503, -29990.625, 0.32052156, 0.0, 0.00064814265, 0.0000033597353, 0.0000033597353, 0.0, 0.012207031, 0.011856575 
1.8310547e-2, 1.21256396e+1, -0.0000000988521, -29973.178, -0.20809613, 0.0, 0.000688401, 0.0000013459066, 0.0000013459066, 0.0, 0.012207031, 0.011856769 
1.8310547e-2, 1.2137497e+1, -0.00000016302013, -29970.887, 0.28810185, 0.0, 0.0006446526, 0.0000026064226, 0.0000026064226, 0.0, 0.012207031, 0.011856795 
1.8310547e-2, 1.2149354e+1, -0.000000034426936, -29954.121, -0.25878432, 0.0, 0.00060345925, 0.000002201301, 0.000002201301, 0.0, 0.012207031, 0.0118569825 
1.8310547e-2, 1.2161211e+1, 0.000000002680291, -29950.813, 0.16883373, 0.0, 0.0006981006, 0.0000009544019, 0.0000009544019, 0.0, 0.012207031, 0.01185702 
1.8310547e-2, 1.2173068e+1, -0.0000001919825, -29934.56, 0.38910812, 0.0, 0.00064860814, 0.0000048658876, 0.0000048658876, 0.0, 0.012207031, 0.011857201 
1.8310547e-2, 1.21849254e+1, -0.0000003458303, -29932.21, -0.5139336, 0.0, 0.0006052677, 0.000008478368, 0.000008478368, 0.0, 0.012207031, 0.011857228 
1.8310547e-2, 1.2196782e+1, -0.0000008441833, -29912.576, 0.89863855, 0.0, 0.00075813505, 0.000026152866, 0.000026152866, 0.0, 0.012207031, 0.011857448 
1.8310547e-2, 1.220864e+1, -0.00000004777245, -29915.652, -0.15072258, 0.0, 0.000638063, 0.0000007116032, 0.0000007116032, 0.0, 0.012207031, 0.011857414 
1.8310547e-2, 1.22204974e+1, -0.0000011627786, -29892.361, -1.0425117, 0.0, 0.0005792514, 0.000035195364, 0.000035195364, 0.0, 0.012207031, 0.011857674 
1.8310547e-2, 1.2232355e+1, -0.0000017054653, -29893.668, 1.1909091, 0.0, 0.00070540863, 0.000045738176, 0.000045738176, 0.0, 0.012207031, 0.01185766 
1.8310547e-2, 1.2244213e+1, -0.00000016274485, -29875.098, -0.36542144, 0.0, 0.00068200077, 0.0000043069595, 0.0000043069595, 0.0, 0.012207031, 0.011857867 
1.8310547e-2, 1.2256071e+1, -0.0000012901467, -29869.688, 1.0049826, 0.0, 0.0006289765, 0.00003252306, 0.00003252306, 0.0, 0.012207031, 0.011857928 
1.8310547e-2, 1.2267929e+1, -0.00085125206, -29856.79, 29.888647, 0.0, 0.00069620874, 0.029069256, 0.029069256, 0.0, 0.012207031, 0.011858072 
1.8310547e-2, 1.2279787e+1, -0.0000013919123, -29856.332, 1.0760099, 0.0, 0.00065517257, 0.00003738704, 0.00003738704, 0.0, 0.012207031, 0.011858078 
1.8310547e-2, 1.2291645e+1, -0.00000008395318, -29835.604, -0.27431118, 0.0, 0.0006546458, 0.000002438086, 0.000002438086, 0.0, 0.012207031, 0.01185831 
1.8310547e-2, 1.2303503e+1, -0.00001524136, -29838.273, 3.0944328, 0.0, 0.0006767062, 0.00030567247, 0.00030567247, 0.0, 0.012207031, 0.01185828 
1.8310547e-2, 1.2315362e+1, -0.00016715623, -29817.295, 13.230659, 0.0, 0.00066787226, 0.0057036076, 0.0057036076, 0.0, 0.012207031, 0.0118585145 
1.8310547e-2, 1.232722e+1, -0.000012110005, -29810.484, -2.780862, 0.0, 0.0006429782, 0.00024730188, 0.00024730188, 0.0, 0.012207031, 0.011858591 
1.8310547e-2, 1.2339079e+1, -0.000000981753, -29796.75, 0.9788203, 0.0, 0.0007086146, 0.000031172396, 0.000031172396, 0.0, 0.012207031, 0.011858745 
1.8310547e-2, 1.2350938e+1, -0.00000003164763, -29796.375, 0.1649261, 0.0, 0.0006679576, 0.0000008812385, 0.0000008812385, 0.0, 0.012207031, 0.011858748 
1.8310547e-2, 1.2362797e+1, -0.00000089067953, -29776.879, -0.90780497, 0.0, 0.0006489439, 0.000026785488, 0.000026785488, 0.0, 0.012207031, 0.011858967 
1.8310547e-2, 1.2374656e+1, -0.000000056815097, -29775.455, 0.1285999, 0.0, 0.0006792462, 0.0000004986068, 0.0000004986068, 0.0, 0.012207031, 0.011858983 
1.8310547e-2, 1.2386515e+1, -0.0000001037707, -29758.02, 0.2889893, 0.0, 0.0006775879, 0.000002702698, 0.000002702698, 0.0, 0.012207031, 0.011859178 
1.8310547e-2, 1.2398373e+1, -0.00000004867382, -29755.965, -0.0021993516, 0.0, 0.00066656957, -0.00000004850881, -0.00000004850881, 0.0, 0.012207031, 0.011859201 
1.8310547e-2, 1.2410233e+1, -0.000000022609312, -29738.629, -0.12140216, 0.0, 0.00068227143, 0.00000047299181, 0.00000047299181, 0.0, 0.012207031, 0.011859396 
1.8310547e-2, 1.2422092e+1, -0.00000008540613, -29736.615, -0.33208868, 0.0, 0.0006631424, 0.0000036232486, 0.0000036232486, 0.0, 0.012207031, 0.011859418 
1.8310547e-2, 1.2433952e+1, -0.0000004240565, -29717.81, 0.62622243, 0.0, 0.0006833637, 0.000012771885, 0.000012771885, 0.0, 0.012207031, 0.011859628 
1.8310547e-2, 1.2445811e+1, -0.0000005706676, -29717.813, 0.7532512, 0.0, 0.0006737887, 0.000018521834, 0.000018521834, 0.0, 0.012207031, 0.011859628 
1.8310547e-2, 1.2457671e+1, -0.0000002467612, -29700.934, -0.46488494, 0.0, 0.00067489326, 0.0000070297137, 0.0000070297137, 0.0, 0.012207031, 0.011859817 
1.8310547e-2, 1.2469531e+1, -0.0000000815163, -29695.875, -0.2674843, 0.0, 0.000670403, 0.0000023278371, 0.0000023278371, 0.0, 0.012207031, 0.011859874 
1.8310547e-2, 1.2481391e+1, -0.00000018896647, -29681.584, 0.39945748, 0.0, 0.0006748056, 0.0000051869683, 0.0000051869683, 0.0, 0.012207031, 0.011860034 
1.8310547e-2, 1.24932505e+1, -0.00000006292236, -29677.191, 0.25387445, 0.0, 0.000693514, 0.0000021088526, 0.0000021088526, 0.0, 0.012207031, 0.011860083 
1.8310547e-2, 1.2505111e+1, -0.000000014252802, -29662.635, -0.008177873, 0.0, 0.00066981843, -0.000000011998054, -0.000000011998054, 0.0, 0.012207031, 0.011860246 
1.8310547e-2, 1.2516971e+1, -0.00000006438875, -29656.646, -0.1229322, 0.0, 0.0006478542, 0.00000044518674, 0.00000044518674, 0.0, 0.012207031, 0.011860313 
1.8310547e-2, 1.2528832e+1, -0.000000093168225, -29643.78, 0.11949328, 0.0, 0.000689511, 0.0000003885034, 0.0000003885034, 0.0, 0.012207031, 0.011860457 
1.8310547e-2, 1.2540692e+1, -0.00000013211708, -29637.12, -0.3136054, 0.0, 0.00070340483, 0.000003186302, 0.000003186302, 0.0, 0.012207031, 0.011860532 
1.8310547e-2, 1.2552553e+1, -0.000000080392375, -29622.537, 0.05511875, 0.0, 0.0006728763, 0.000000022166205, 0.000000022166205, 0.0, 0.012207031, 0.011860696 
1.8310547e-2, 1.2564415e+1, -0.00000042815026, -29618.104, 0.63936955, 0.0, 0.00062536384, 0.000013373996, 0.000013373996, 0.0, 0.012207031, 0.011860745 
1.8310547e-2, 1.2576275e+1, -0.0000003720354, -29605.566, -0.583468, 0.0, 0.0006820894, 0.000011126984, 0.000011126984, 0.0, 0.012207031, 0.011860886 
1.8310547e-2, 1.2588136e+1, -0.000000059019325, -29597.19, -0.18756187, 0.0, 0.00074915995, 0.0000011295851, 0.0000011295851, 0.0, 0.012207031, 0.01186098 
1.8310547e-2, 1.2599997e+1, -0.0014007877, -29585.846, 38.332264, 0.0, 0.0006401084, 0.048263505, 0.048263505, 0.0, 0.012207031, 0.011861106 
1.8310547e-2, 1.2611859e+1, -0.0000017929304, -29575.965, -1.1739012, 0.0, 0.0006387323, 0.000044800443, 0.000044800443, 0.0, 0.012207031, 0.011861217 
1.8310547e-2, 1.262372e+1, -0.000000043351463, -29567.908, 0.158609, 0.0, 0.00071794074, 0.00000080746395, 0.00000080746395, 0.0, 0.012207031, 0.011861308 
1.8310547e-2, 1.2635581e+1, -0.000009798621, -29562.58, -2.6307058, 0.0, 0.00065601873, 0.00022430182, 0.00022430182, 0.0, 0.012207031, 0.011861367 
1.8310547e-2, 1.2647443e+1, -0.00027060826, -29544.31, 16.850496, 0.0, 0.0006787435, 0.0093400115, 0.0093400115, 0.0, 0.012207031, 0.011861572 
1.8310547e-2, 1.2659304e+1, -0.0000083506075, -29534.422, -2.3587177, 0.0, 0.00069504493, 0.00018002446, 0.00018002446, 0.0, 0.012207031, 0.011861683 
1.8310547e-2, 1.2671165e+1, -0.000000027474998, -29528.666, -0.1375071, 0.0, 0.00066772255, 0.00000061285755, 0.00000061285755, 0.0, 0.012207031, 0.011861747 
1.8310547e-2, 1.2683028e+1, -0.000000011526403, -29516.176, 0.021089256, 0.0, 0.00068609376, 0.0000000035433914, 0.0000000035433914, 0.0, 0.012207031, 0.011861887 
1.8310547e-2, 1.269489e+1, -0.00000012162768, -29509.207, 0.22538115, 0.0, 0.0006630236, 0.0000015997539, 0.0000015997539, 0.0, 0.012207031, 0.011861965 
1.8310547e-2, 1.270675e+1, -0.00000039668404, -29498.293, -0.6273025, 0.0, 0.00069991226, 0.000012943357, 0.000012943357, 0.0, 0.012207031, 0.011862087 
1.8310547e-2, 1.2718613e+1, 0.000000010103545, -29488.018, 0.0013810027, 0.0, 0.00073251093, 0.000000010168151, 0.000000010168151, 0.0, 0.012207031, 0.011862203 
1.8310547e-2, 1.2730475e+1, -0.00000034405764, -29478.719, 0.55839854, 0.0, 0.0005983587, 0.000010233369, 0.000010233369, 0.0, 0.012207031, 0.011862307 
1.8310547e-2, 1.2742338e+1, -0.000000057174585, -29469.908, -0.155896, 0.0, 0.0006555471, 0.0000007675153, 0.0000007675153, 0.0, 0.012207031, 0.011862406 
1.8310547e-2, 1.27542e+1, -0.00000009451577, -29458.713, -0.03139146, 0.0, 0.0007884034, -0.000000061063474, -0.000000061063474, 0.0, 0.012207031, 0.011862531 
1.8310547e-2, 1.2766063e+1, -0.000000028903765, -29450.146, -0.094957784, 0.0, 0.0006886143, 0.00000027727583, 0.00000027727583, 0.0, 0.012207031, 0.011862627 
1.8310547e-2, 1.2777926e+1, -0.0000002885078, -29438.572, 0.42994052, 0.0, 0.0006149057, 0.0000059906342, 0.0000059906342, 0.0, 0.012207031, 0.011862757 
1.8310547e-2, 1.2789789e+1, -0.00000034342196, -29431.195, 0.5254721, 0.0, 0.00069266395, 0.000009038493, 0.000009038493, 0.0, 0.012207031, 0.01186284 
1.8310547e-2, 1.2801652e+1, -0.0000004991318, -29419.992, -0.66596204, 0.0, 0.00072285254, 0.000014575835, 0.000014575835, 0.0, 0.012207031, 0.011862965 
1.8310547e-2, 1.2813514e+1, -0.00000007812423, -29409.938, 0.1889294, 0.0, 0.00071126904, 0.0000011355551, 0.0000011355551, 0.0, 0.012207031, 0.011863078 
1.8310547e-2, 1.2825377e+1, -0.000000063449654, -29401.309, 0.16287811, 0.0, 0.0006492126, 0.000000838867, 0.000000838867, 0.0, 0.012207031, 0.011863174 
1.8310547e-2, 1.2837242e+1, -0.000000220677, -29390.8, -0.43876263, 0.0, 0.0007072088, 0.000006329421, 0.000006329421, 0.0, 0.012207031, 0.011863292 
1.8310547e-2, 1.2849104e+1, -0.0000004783369, -29380.04, 0.6427543, 0.0, 0.000712383, 0.000013583358, 0.000013583358, 0.0, 0.012207031, 0.011863412 
1.8310547e-2, 1.2860967e+1, -0.00000008765533, -29372.81, -0.23742273, 0.0, 0.00064761756, 0.0000018314495, 0.0000018314495, 0.0, 0.012207031, 0.011863493 
1.8310547e-2, 1.2872832e+1, -0.000000010329569, -29360.754, -0.0017595972, 0.0, 0.00072252075, -0.0000000102227204, -0.0000000102227204, 0.0, 0.012207031, 0.011863629 
1.8310547e-2, 1.2884694e+1, -0.00000026869222, -29352.563, 0.47158325, 0.0, 0.0007500506, 0.0000073078445, 0.0000073078445, 0.0, 0.012207031, 0.011863721 
1.8310547e-2, 1.2896559e+1, -0.0000010908849, -29341.213, -0.93070966, 0.0, 0.0006467934, 0.00002843143, 0.00002843143, 0.0, 0.012207031, 0.011863848 
1.8310547e-2, 1.2908423e+1, -0.000000018910876, -29334.682, -0.0026186488, 0.0, 0.0006729815, -0.000000018677383, -0.000000018677383, 0.0, 0.012207031, 0.011863921 
1.8310547e-2, 1.2920286e+1, -0.000007951493, -29327.588, -2.3925545, 0.0, 0.00072924694, 0.0001872339, 0.0001872339, 0.0, 0.012207031, 0.011864001 
1.8310547e-2, 1.2932152e+1, -0.0003357521, -29310.986, 18.763113, 0.0, 0.00072715647, 0.011675249, 0.011675249, 0.0, 0.012207031, 0.011864187 
1.8310547e-2, 1.2944014e+1, -0.000016529435, -29299.643, -3.2538788, 0.0, 0.0006761694, 0.00034483083, 0.00034483083, 0.0, 0.012207031, 0.011864314 
1.8310547e-2, 1.2955879e+1, -0.000000036387526, -29294.092, -0.09353543, 0.0, 0.0006825247, 0.0000002622728, 0.0000002622728, 0.0, 0.012207031, 0.011864376 
1.8310547e-2, 1.2967744e+1, -0.000018536259, -29281.986, 4.364273, 0.0, 0.0007242137, 0.00063192775, 0.00063192775, 0.0, 0.012207031, 0.011864512 
1.8310547e-2, 1.2979609e+1, -0.0000000672912, -29274.3, 0.22594628, 0.0, 0.000704285, 0.0000016766171, 0.0000016766171, 0.0, 0.012207031, 0.011864598 
1.8310547e-2, 1.2991473e+1, -0.000000038922465, -29264.482, -0.24406351, 0.0, 0.0006871585, 0.0000019965482, 0.0000019965482, 0.0, 0.012207031, 0.011864709 
1.8310547e-2, 1.3003337e+1, -0.00000035550045, -29254.158, -0.5418043, 0.0, 0.00072104833, 0.000009679035, 0.000009679035, 0.0, 0.012207031, 0.011864824 
1.8310547e-2, 1.3015203e+1, -0.00000006276169, -29243.61, 0.25731888, 0.0, 0.000718213, 0.0000022014246, 0.0000022014246, 0.0, 0.012207031, 0.0118649425 
1.8310547e-2, 1.3027067e+1, -0.000000032734846, -29236.705, -0.17795229, 0.0, 0.0006465657, 0.00000105039, 0.00000105039, 0.0, 0.012207031, 0.01186502 
1.8310547e-2, 1.3038933e+1, -0.00000007840517, -29222.424, -0.20405231, 0.0, 0.00070668844, 0.0000013464378, 0.0000013464378, 0.0, 0.012207031, 0.01186518 
1.8310547e-2, 1.3050798e+1, -0.00000041012214, -29217.533, 0.61820936, 0.0, 0.000770772, 0.000012670476, 0.000012670476, 0.0, 0.012207031, 0.011865235 
1.8310547e-2, 1.3062663e+1, -0.000000031054405, -29203.729, -0.100630805, 0.0, 0.0006902828, 0.0000003157038, 0.0000003157038, 0.0, 0.012207031, 0.0118653895 
1.8310547e-2, 1.3074529e+1, -0.00000058807814, -29198.68, -0.7684263, 0.0, 0.000644869, 0.000019634721, 0.000019634721, 0.0, 0.012207031, 0.011865446 
1.8310547e-2, 1.3086395e+1, -0.000000059179126, -29181.752, 0.0006599212, 0.0, 0.0007453617, -0.00000005916445, -0.00000005916445, 0.0, 0.012207031, 0.011865636 
1.8310547e-2, 1.309826e+1, -0.000014409714, -29180.146, 4.169254, 0.0, 0.0007026602, 0.00058129244, 0.00058129244, 0.0, 0.012207031, 0.011865654 
1.8310547e-2, 1.3110125e+1, -0.00000014940261, -29162.67, 0.28205758, 0.0, 0.00067481725, 0.0000025786248, 0.0000025786248, 0.0, 0.012207031, 0.01186585 
1.8310547e-2, 1.3121991e+1, -0.00000005969955, -29160.41, 0.22883402, 0.0, 0.00074597204, 0.000001736058, 0.000001736058, 0.0, 0.012207031, 0.011865876 
1.8310547e-2, 1.3133858e+1, -0.0000000013757, -29143.105, -0.11935724, 0.0, 0.00075035833, 0.00000048746006, 0.00000048746006, 0.0, 0.012207031, 0.011866069 
1.8310547e-2, 1.3145724e+1, -0.000000037358213, -29140.87, 0.12995315, 0.0, 0.00060850795, 0.000000542168, 0.000000542168, 0.0, 0.012207031, 0.011866095 
1.8310547e-2, 1.315759e+1, -0.00000066160317, -29123.84, 0.7368168, 0.0, 0.0006824458, 0.000017979452, 0.000017979452, 0.0, 0.012207031, 0.011866285 
1.8310547e-2, 1.3169456e+1, -0.00000010598054, -29121.643, 0.29189312, 0.0, 0.00081152644, 0.000002819732, 0.000002819732, 0.0, 0.012207031, 0.011866311 
1.8310547e-2, 1.3181323e+1, -0.000000045838746, -29103.78, -0.1055126, 0.0, 0.0007390807, 0.00000033668402, 0.00000033668402, 0.0, 0.012207031, 0.011866511 
1.8310547e-2, 1.3193189e+1, -0.000000021902872, -29102.332, 0.028928323, 0.0, 0.00059089425, 0.000000006850314, 0.000000006850314, 0.0, 0.012207031, 0.011866527 
1.8310547e-2, 1.3205056e+1, -0.000000082439925, -29084.012, 0.039881602, 0.0, 0.0007315064, -0.00000002775414, -0.00000002775414, 0.0, 0.012207031, 0.0118667325 
1.8310547e-2, 1.3216923e+1, -0.0000000073822015, -29083.371, -0.054328732, 0.0, 0.0007644905, 0.000000094107236, 0.000000094107236, 0.0, 0.012207031, 0.01186674 
1.8310547e-2, 1.3228789e+1, -0.000000060297864, -29064.016, -0.07577734, 0.0, 0.00067583745, 0.00000013727185, 0.00000013727185, 0.0, 0.012207031, 0.011866957 
1.8310547e-2, 1.3240656e+1, -0.00000009917999, -29063.105, 0.22611025, 0.0, 0.0007186488, 0.0000016599552, 0.0000016599552, 0.0, 0.012207031, 0.011866967 
1.8310547e-2, 1.3252524e+1, -0.000000046164736, -29045.203, 0.19552341, 0.0, 0.00075611926, 0.0000012700366, 0.0000012700366, 0.0, 0.012207031, 0.011867167 
1.8310547e-2, 1.326439e+1, -0.00000010953583, -29044.916, -0.36672089, 0.0, 0.00065372314, 0.00000452068, 0.00000452068, 0.0, 0.012207031, 0.011867171 
1.8310547e-2, 1.3276258e+1, -0.0000011730265, -29024.0, 0.98446965, 0.0, 0.00075541134, 0.000032219355, 0.000032219355, 0.0, 0.012207031, 0.011867406 
1.8310547e-2, 1.3288125e+1, -0.000000057210002, -29025.404, -0.22738905, 0.0, 0.0007348874, 0.0000017241837, 0.0000017241837, 0.0, 0.012207031, 0.01186739 
1.8310547e-2, 1.3299993e+1, -0.00000009219021, -29005.041, -0.2813098, 0.0, 0.00061755837, 0.0000026361377, 0.0000026361377, 0.0, 0.012207031, 0.011867618 
1.8310547e-2, 1.331186e+1, -0.00000012786974, -29004.564, 0.4101482, 0.0, 0.00076688593, 0.000005671962, 0.000005671962, 0.0, 0.012207031, 0.011867624 
1.8310547e-2, 1.3323727e+1, -0.0000012957, -28986.236, 1.0861644, 0.0, 0.0008661623, 0.00003940476, 0.00003940476, 0.0, 0.012207031, 0.01186783 
1.8310547e-2, 1.3335596e+1, -0.00000048702134, -28985.85, -0.66430825, 0.0, 0.0006071349, 0.000014737838, 0.000014737838, 0.0, 0.012207031, 0.011867834 
1.8310547e-2, 1.3347463e+1, -0.000000069854636, -28965.95, 0.1307922, 0.0, 0.000612515, 0.0000005207221, 0.0000005207221, 0.0, 0.012207031, 0.011868057 
1.8310547e-2, 1.3359332e+1, -0.000000012867311, -28965.541, 0.0954199, 0.0, 0.000828544, 0.0000003014684, 0.0000003014684, 0.0, 0.012207031, 0.0118680615 
1.8310547e-2, 1.33712e+1, -0.000000116732835, -28947.518, -0.2946208, 0.0, 0.00078595034, 0.0000028818467, 0.0000028818467, 0.0, 0.012207031, 0.011868264 
1.8310547e-2, 1.3383068e+1, -0.00000003906347, -28944.44, 0.09884558, 0.0, 0.0006483555, 0.00000029849616, 0.00000029849616, 0.0, 0.012207031, 0.011868299 
1.8310547e-2, 1.3394937e+1, -0.000000014232152, -28929.268, 0.10725945, 0.0, 0.00071633636, 0.00000038345024, 0.00000038345024, 0.0, 0.012207031, 0.0118684685 
1.8310547e-2, 1.3406806e+1, -0.00000007842609, -28926.314, 0.069249004, 0.0, 0.00074794784, 0.00000008735151, 0.00000008735151, 0.0, 0.012207031, 0.011868502 
1.8310547e-2, 1.3418673e+1, -0.000000048415647, -28908.068, -0.0687047, 0.0, 0.0007209422, 0.00000011487646, 0.00000011487646, 0.0, 0.012207031, 0.011868707 
1.8310547e-2, 1.3430542e+1, -0.00000018303606, -28905.277, 0.33494362, 0.0, 0.00073182746, 0.0000036981655, 0.0000036981655, 0.0, 0.012207031, 0.011868738 
1.8310547e-2, 1.3442412e+1, -0.0000023093567, -28889.965, 1.3583709, 0.0, 0.0007074155, 0.000061559585, 0.000061559585, 0.0, 0.012207031, 0.01186891 
1.8310547e-2, 1.345428e+1, -0.000001254898, -28887.168, 1.0005074, 0.0, 0.00071014237, 0.000033397682, 0.000033397682, 0.0, 0.012207031, 0.011868942 
1.8310547e-2, 1.346615e+1, -0.0000006390802, -28867.678, 0.7222545, 0.0, 0.00077671494, 0.00001743136, 0.00001743136, 0.0, 0.012207031, 0.01186916 
1.8310547e-2, 1.3478018e+1, -0.0000062147906, -28867.164, 2.1004963, 0.0, 0.0007198361, 0.00014662615, 0.00014662615, 0.0, 0.012207031, 0.011869166 
1.8310547e-2, 1.3489887e+1, -0.000010069721, -28851.459, 2.5642607, 0.0, 0.00067037344, 0.0002178367, 0.0002178367, 0.0, 0.012207031, 0.011869342 
1.8310547e-2, 1.3501757e+1, -0.0000007722896, -28848.795, 0.8272179, 0.0, 0.0007427825, 0.00002294757, 0.00002294757, 0.0, 0.012207031, 0.011869372 
1.8310547e-2, 1.3513626e+1, -0.0000005610123, -28831.307, -0.68776774, 0.0, 0.0007583057, 0.000015845617, 0.000015845617, 0.0, 0.012207031, 0.011869568 
1.8310547e-2, 1.3525496e+1, -0.000000053724463, -28826.658, -0.119800486, 0.0, 0.00070365216, 0.00000044415356, 0.00000044415356, 0.0, 0.012207031, 0.0118696205 
1.8310547e-2, 1.3537365e+1, -0.00000063813104, -28811.914, 0.7584161, 0.0, 0.00072461815, 0.00001932566, 0.00001932566, 0.0, 0.012207031, 0.011869786 
1.8310547e-2, 1.3549235e+1, -0.00000010076268, -28808.988, -0.19710831, 0.0, 0.000740705, 0.000001247834, 0.000001247834, 0.0, 0.012207031, 0.011869819 
1.8310547e-2, 1.3561106e+1, -0.00000018457892, -28791.924, -0.42904693, 0.0, 0.00070838456, 0.000006208924, 0.000006208924, 0.0, 0.012207031, 0.011870011 
1.8310547e-2, 1.3572975e+1, -0.00000035359912, -28787.988, 0.541388, 0.0, 0.0007063773, 0.00000982776, 0.00000982776, 0.0, 0.012207031, 0.0118700545 
1.8310547e-2, 1.3584846e+1, -0.00000003566587, -28773.385, -0.06811659, 0.0, 0.0007693022, 0.0000001255903, 0.0000001255903, 0.0, 0.012207031, 0.011870218 
1.8310547e-2, 1.3596717e+1, -0.00000011507854, -28765.969, 0.2584729, 0.0, 0.00073493726, 0.0000022073946, 0.0000022073946, 0.0, 0.012207031, 0.011870302 
1.8310547e-2, 1.3608587e+1, -0.000010453124, -28755.123, 2.6073325, 0.0, 0.00068651524, 0.00022596325, 0.00022596325, 0.0, 0.012207031, 0.011870424 
1.8310547e-2, 1.3620457e+1, -0.0000024988267, -28749.004, 1.4295903, 0.0, 0.00073046144, 0.00006858984, 0.00006858984, 0.0, 0.012207031, 0.011870492 
1.8310547e-2, 1.3632327e+1, -0.00000015159007, -28735.066, -0.3643535, 0.0, 0.0007599597, 0.0000044683184, 0.0000044683184, 0.0, 0.012207031, 0.011870649 
1.8310547e-2, 1.3644199e+1, -0.0000006263931, -28726.572, 0.75703764, 0.0, 0.00070928846, 0.000019323983, 0.000019323983, 0.0, 0.012207031, 0.011870745 
1.8310547e-2, 1.365607e+1, -0.000012186609, -28716.39, 2.7826974, 0.0, 0.00073964, 0.00025746442, 0.00025746442, 0.0, 0.012207031, 0.011870859 
1.8310547e-2, 1.366794e+1, -0.0000017210581, -28709.578, 1.190492, 0.0, 0.00074704044, 0.00004764474, 0.00004764474, 0.0, 0.012207031, 0.011870936 
1.8310547e-2, 1.367981e+1, -0.000000017852846, -28696.318, -0.06390032, 0.0, 0.00071437896, 0.0000001244407, 0.0000001244407, 0.0, 0.012207031, 0.011871085 
1.8310547e-2, 1.3691682e+1, -0.000000019144306, -28689.064, -0.10758111, 0.0, 0.0007394526, 0.00000038427243, 0.00000038427243, 0.0, 0.012207031, 0.011871166 
1.8310547e-2, 1.3703553e+1, -0.00000006417712, -28676.453, 0.1814608, 0.0, 0.00075097434, 0.0000010840849, 0.0000010840849, 0.0, 0.012207031, 0.011871307 
1.8310547e-2, 1.3715425e+1, -0.00000002592048, -28670.268, 0.114864185, 0.0, 0.00071616244, 0.0000004342728, 0.0000004342728, 0.0, 0.012207031, 0.011871377 
1.8310547e-2, 1.3727295e+1, -0.00000006626612, -28655.717, 0.1652493, 0.0, 0.0007660008, 0.00000088668094, 0.00000088668094, 0.0, 0.012207031, 0.01187154 
1.8310547e-2, 1.3739167e+1, -0.000000089312195, -28650.979, 0.23074405, 0.0, 0.0007245787, 0.0000017690109, 0.0000017690109, 0.0, 0.012207031, 0.011871593 
1.8310547e-2, 1.3751039e+1, -0.00000009440387, -28637.854, -0.15499102, 0.0, 0.0007349856, 0.00000074442505, 0.00000074442505, 0.0, 0.012207031, 0.011871741 
1.8310547e-2, 1.376291e+1, -0.00000023377838, -28630.162, 0.3377149, 0.0, 0.000793232, 0.0000037498285, 0.0000037498285, 0.0, 0.012207031, 0.011871827 
1.8310547e-2, 1.3774782e+1, -0.0000010263219, -28618.725, 0.9310458, 0.0, 0.0007215493, 0.00002926316, 0.00002926316, 0.0, 0.012207031, 0.011871955 
1.8310547e-2, 1.3786656e+1, -0.000000024422013, -28611.47, 0.1556641, 0.0, 0.0007018259, 0.00000082248516, 0.00000082248516, 0.0, 0.012207031, 0.011872037 
1.8310547e-2, 1.3798527e+1, -0.00000018004405, -28598.713, 0.30819735, 0.0, 0.0007930827, 0.0000031412783, 0.0000031412783, 0.0, 0.012207031, 0.011872181 
1.8310547e-2, 1.3810399e+1, -0.00000003396235, -28591.912, -0.033532813, 0.0, 0.0007560501, 0.0000000053623808, 0.0000000053623808, 0.0, 0.012207031, 0.011872257 
1.8310547e-2, 1.3822271e+1, -0.00000044189767, -28578.342, 0.6321066, 0.0, 0.00073835766, 0.000013539277, 0.000013539277, 0.0, 0.012207031, 0.01187241 
1.8310547e-2, 1.3834144e+1, -0.00000008586782, -28573.318, 0.38814175, 0.0, 0.00074497296, 0.0000051866773, 0.0000051866773, 0.0, 0.012207031, 0.011872466 
1.8310547e-2, 1.3846017e+1, -0.00000007910152, -28558.863, -0.3269223, 0.0, 0.00075973023, 0.0000036632846, 0.0000036632846, 0.0, 0.012207031, 0.011872629 
1.8310547e-2, 1.3857889e+1, -0.0000003541928, -28552.604, 0.5646952, 0.0, 0.0007533281, 0.000010813987, 0.000010813987, 0.0, 0.012207031, 0.011872699 
1.8310547e-2, 1.3869762e+1, 0.000000010418673, -28541.3, -0.2072238, 0.0, 0.00073332485, 0.0000015149672, 0.0000015149672, 0.0, 0.012207031, 0.011872825 
1.8310547e-2, 1.3881634e+1, -0.00000040185955, -28532.34, -0.64376354, 0.0, 0.0007894549, 0.000014123118, 0.000014123118, 0.0, 0.012207031, 0.011872927 
1.8310547e-2, 1.3893507e+1, -0.00000052254956, -28520.527, 0.6499344, 0.0, 0.0007470413, 0.000014288355, 0.000014288355, 0.0, 0.012207031, 0.011873059 
1.8310547e-2, 1.390538e+1, -0.0000004337053, -28514.455, -0.6199108, 0.0, 0.0007153645, 0.000013043296, 0.000013043296, 0.0, 0.012207031, 0.011873127 
1.8310547e-2, 1.3917254e+1, -0.000000056248766, -28499.434, 0.13529229, 0.0, 0.0007924548, 0.0000005860056, 0.0000005860056, 0.0, 0.012207031, 0.011873296 
1.8310547e-2, 1.3929127e+1, -0.00000008353967, -28495.87, 0.23955867, 0.0, 0.0007236456, 0.0000019303807, 0.0000019303807, 0.0, 0.012207031, 0.0118733365 
1.8310547e-2, 1.3941e+1, -0.00000053371645, -28480.041, -0.66913855, 0.0, 0.0007342586, 0.000015187692, 0.000015187692, 0.0, 0.012207031, 0.011873514 
1.8310547e-2, 1.3952874e+1, -0.00000004062171, -28475.879, 0.10837918, 0.0, 0.00080732716, 0.00000037187056, 0.00000037187056, 0.0, 0.012207031, 0.011873561 
1.8310547e-2, 1.3964748e+1, -0.000010662918, -28468.197, -2.6498208, 0.0, 0.0007289062, 0.00023598249, 0.00023598249, 0.0, 0.012207031, 0.011873647 
1.8310547e-2, 1.3976622e+1, -0.0004507277, -28451.734, 21.723711, 0.0, 0.000735466, 0.016135935, 0.016135935, 0.0, 0.012207031, 0.011873832 
1.8310547e-2, 1.3988496e+1, -0.000016195758, -28439.9, -3.3666835, 0.0, 0.0007289371, 0.00038234846, 0.00038234846, 0.0, 0.012207031, 0.011873965 
1.8310547e-2, 1.400037e+1, -0.000000047807564, -28433.377, -0.09030458, 0.0, 0.0007898424, 0.00000023900066, 0.00000023900066, 0.0, 0.012207031, 0.011874039 
1.8310547e-2, 1.4012244e+1, -0.00000027343214, -28424.018, 0.45624676, 0.0, 0.0007803326, 0.000007049992, 0.000007049992, 0.0, 0.012207031, 0.011874144 
1.8310547e-2, 1.4024119e+1, -0.00000160573, -28414.297, -1.2330555, 0.0, 0.0006688943, 0.000051903455, 0.000051903455, 0.0, 0.012207031, 0.011874253 
1.8310547e-2, 1.4035992e+1, -0.00000027758904, -28403.984, -0.5312199, 0.0, 0.0007354686, 0.000009657444, 0.000009657444, 0.0, 0.012207031, 0.011874368 
1.8310547e-2, 1.4047867e+1, -0.0000014178122, -28393.889, 1.1442864, 0.0, 0.0008224517, 0.00004469744, 0.00004469744, 0.0, 0.012207031, 0.011874482 
1.8310547e-2, 1.405974e+1, -0.00000013216267, -28387.234, -0.3535582, 0.0, 0.00072692736, 0.0000042713436, 0.0000042713436, 0.0, 0.012207031, 0.0118745575 
1.8310547e-2, 1.4071617e+1, -0.00000028553094, -28373.926, -0.50392485, 0.0, 0.0007264305, 0.000008664247, 0.000008664247, 0.0, 0.012207031, 0.0118747065 
1.8310547e-2, 1.408349e+1, -0.0000008589838, -28368.34, -0.8660992, 0.0, 0.0007492414, 0.000025583446, 0.000025583446, 0.0, 0.012207031, 0.01187477 
1.8310547e-2, 1.4095366e+1, -0.0000653685, -28351.322, 8.193369, 0.0, 0.000761631, 0.002302468, 0.002302468, 0.0, 0.012207031, 0.011874961 
1.8310547e-2, 1.410724e+1, -0.00000033079303, -28348.014, 0.52554333, 0.0, 0.0007359676, 0.000009412244, 0.000009412244, 0.0, 0.012207031, 0.011874998 
1.8310547e-2, 1.4119115e+1, -0.00000055339837, -28334.229, 0.5855842, 0.0, 0.00075932074, 0.000011548887, 0.000011548887, 0.0, 0.012207031, 0.011875153 
1.8310547e-2, 1.4130992e+1, -0.00000005819716, -28326.963, 0.14036989, 0.0, 0.00074489444, 0.00000063738116, 0.00000063738116, 0.0, 0.012207031, 0.011875235 
1.8310547e-2, 1.4142866e+1, -0.000047713613, -28312.62, 6.9816647, 0.0, 0.0007512905, 0.0016739088, 0.0016739088, 0.0, 0.012207031, 0.011875396 
1.8310547e-2, 1.4154741e+1, -0.0000059343133, -28312.207, 2.118008, 0.0, 0.0007588746, 0.00015251174, 0.00015251174, 0.0, 0.012207031, 0.0118754 
1.8310547e-2, 1.4166617e+1, -0.00000016449773, -28294.357, -0.39547846, 0.0, 0.00075453875, 0.000005363221, 0.000005363221, 0.0, 0.012207031, 0.0118756015 
1.8310547e-2, 1.4178492e+1, -0.00000026544495, -28290.695, -0.44510636, 0.0, 0.00073436816, 0.0000067375513, 0.0000067375513, 0.0, 0.012207031, 0.011875642 
1.8310547e-2, 1.4190368e+1, -0.00000069292616, -28272.973, 0.7720749, 0.0, 0.00077127153, 0.000020390798, 0.000020390798, 0.0, 0.012207031, 0.011875842 
1.8310547e-2, 1.4202245e+1, -0.00000021652848, -28273.104, 0.44505265, 0.0, 0.0007764542, 0.000006789138, 0.000006789138, 0.0, 0.012207031, 0.01187584 
1.8310547e-2, 1.421412e+1, -0.00000015458056, -28254.633, -0.38466334, 0.0, 0.0007500019, 0.000005082293, 0.000005082293, 0.0, 0.012207031, 0.011876048 
1.8310547e-2, 1.4225996e+1, -0.00000014947769, -28252.629, -0.25909743, 0.0, 0.0007360134, 0.0000022266358, 0.0000022266358, 0.0, 0.012207031, 0.01187607 
1.8310547e-2, 1.4237872e+1, -0.00000011884317, -28233.688, 0.35961178, 0.0, 0.00079315307, 0.0000044615263, 0.0000044615263, 0.0, 0.012207031, 0.011876283 
1.8310547e-2, 1.424975e+1, -0.00000006450569, -28234.22, 0.27117324, 0.0, 0.00075872615, 0.0000025399568, 0.0000025399568, 0.0, 0.012207031, 0.011876278 
1.8310547e-2, 1.4261626e+1, -0.00000007197656, -28215.45, -0.25902724, 0.0, 0.0007465491, 0.0000023059802, 0.0000023059802, 0.0, 0.012207031, 0.011876488 
1.8310547e-2, 1.4273502e+1, -0.00000083018074, -28213.355, 0.8282093, 0.0, 0.0008194767, 0.000023482087, 0.000023482087, 0.0, 0.012207031, 0.011876512 
1.8310547e-2, 1.4285378e+1, -0.00000008217943, -28195.738, -0.025973398, 0.0, 0.0007622941, -0.000000058251317, -0.000000058251317, 0.0, 0.012207031, 0.01187671 
1.8310547e-2, 1.4297256e+1, -0.00000013350451, -28194.215, -0.40221336, 0.0, 0.00071842177, 0.0000056043937, 0.0000056043937, 0.0, 0.012207031, 0.011876727 
1.8310547e-2, 1.4309132e+1, -0.00000010569836, -28175.98, 0.22394232, 0.0, 0.00081825093, 0.0000016741906, 0.0000016741906, 0.0, 0.012207031, 0.011876932 
1.8310547e-2, 1.4321008e+1, -0.00000076995485, -28174.49, 0.8172851, 0.0, 0.0007741192, 0.000022937835, 0.000022937835, 0.0, 0.012207031, 0.011876949 
1.8310547e-2, 1.4332886e+1, -0.0000002444184, -28156.9, -0.3224714, 0.0, 0.00073539274, 0.0000034487384, 0.0000034487384, 0.0, 0.012207031, 0.011877147 
1.8310547e-2, 1.4344762e+1, -0.00000004038996, -28154.758, 0.05394937, 0.0, 0.0008501254, 0.000000062987965, 0.000000062987965, 0.0, 0.012207031, 0.011877171 
1.8310547e-2, 1.4356641e+1, -0.000000022321204, -28137.254, -0.10696377, 0.0, 0.000787687, 0.0000003842979, 0.0000003842979, 0.0, 0.012207031, 0.011877368 
1.8310547e-2, 1.4368518e+1, -0.00000010812604, -28134.498, 0.24096817, 0.0, 0.0006841926, 0.0000019557374, 0.0000019557374, 0.0, 0.012207031, 0.011877399 
1.8310547e-2, 1.4380395e+1, -0.000000027336855, -28118.965, 0.153026, 0.0, 0.0007870022, 0.0000008054485, 0.0000008054485, 0.0, 0.012207031, 0.011877574 
1.8310547e-2, 1.4392273e+1, -0.000000653713, -28115.725, -0.778722, 0.0, 0.00086979935, 0.00002091457, 0.00002091457, 0.0, 0.012207031, 0.01187761 
1.8310547e-2, 1.4404151e+1, -0.0000001217378, -28096.816, 0.1973511, 0.0, 0.0007744693, 0.0000012644487, 0.0000012644487, 0.0, 0.012207031, 0.011877823 
1.8310547e-2, 1.4416029e+1, -0.00000031512772, -28096.064, 0.5531963, 0.0, 0.00070424896, 0.000010577009, 0.000010577009, 0.0, 0.012207031, 0.011877831 
1.8310547e-2, 1.4427906e+1, -0.000000110958126, -28078.525, 0.21640208, 0.0, 0.0007626759, 0.0000015568585, 0.0000015568585, 0.0, 0.012207031, 0.0118780285 
1.8310547e-2, 1.4439784e+1, -0.000002767069, -28076.682, 1.3375366, 0.0, 0.00087062374, 0.000060951435, 0.000060951435, 0.0, 0.012207031, 0.011878049 
1.8310547e-2, 1.4451662e+1, -0.0000009723254, -28059.21, 0.85196066, 0.0, 0.0008090941, 0.000024895722, 0.000024895722, 0.0, 0.012207031, 0.0118782455 
1.8310547e-2, 1.4463541e+1, -0.00000001591142, -28056.95, -0.026017483, 0.0, 0.0006688436, 0.000000008214556, 0.000000008214556, 0.0, 0.012207031, 0.011878272 
1.8310547e-2, 1.4475419e+1, -0.0013873499, -28039.69, 38.102085, 0.0, 0.0007577039, 0.050388053, 0.050388053, 0.0, 0.012207031, 0.011878465 
1.8310547e-2, 1.4487298e+1, -0.0000011068539, -28037.63, 0.969264, 0.0, 0.0008835151, 0.000032400705, 0.000032400705, 0.0, 0.012207031, 0.011878489 
1.8310547e-2, 1.4499176e+1, -0.00000022390775, -28020.287, -0.48052242, 0.0, 0.0007899884, 0.000008016614, 0.000008016614, 0.0, 0.012207031, 0.011878684 
1.8310547e-2, 1.4511055e+1, -0.00000010688894, -28017.268, -0.22847727, 0.0, 0.0007010843, 0.0000017563179, 0.0000017563179, 0.0, 0.012207031, 0.011878718 
1.8310547e-2, 1.4522934e+1, -0.000000111724866, -28001.805, 0.31811863, 0.0, 0.0007526895, 0.0000035023077, 0.0000035023077, 0.0, 0.012207031, 0.011878892 
1.8310547e-2, 1.4534813e+1, -0.00000002194685, -27997.068, -0.11289738, 0.0, 0.0008381858, 0.0000004333051, 0.0000004333051, 0.0, 0.012207031, 0.011878945 
1.8310547e-2, 1.4546692e+1, -0.00000003119226, -27981.51, 0.01656036, 0.0, 0.00082629954, -0.000000021391315, -0.000000021391315, 0.0, 0.012207031, 0.01187912 
1.8310547e-2, 1.4558572e+1, -0.00000013435596, -27978.227, -0.28097188, 0.0, 0.0006952683, 0.000002687313, 0.000002687313, 0.0, 0.012207031, 0.011879157 
1.8310547e-2, 1.457045e+1, -0.00000011480855, -27962.105, -0.37352118, 0.0, 0.00074383384, 0.000004874735, 0.000004874735, 0.0, 0.012207031, 0.011879339 
1.8310547e-2, 1.458233e+1, -0.00000015895402, -27957.77, 0.42810306, 0.0, 0.00084636355, 0.0000063963707, 0.0000063963707, 0.0, 0.012207031, 0.011879387 
1.8310547e-2, 1.4594209e+1, -0.00000003944539, -27943.783, -0.20444043, 0.0, 0.00078911305, 0.0000014562647, 0.0000014562647, 0.0, 0.012207031, 0.011879545 
1.8310547e-2, 1.4606088e+1, -0.00000039961446, -27937.826, 0.5125199, 0.0, 0.00073769497, 0.0000090025715, 0.0000090025715, 0.0, 0.012207031, 0.011879612 
1.8310547e-2, 1.4617969e+1, -0.00000028364653, -27923.764, 0.5029041, 0.0, 0.0007797947, 0.000008773604, 0.000008773604, 0.0, 0.012207031, 0.01187977 
1.8310547e-2, 1.4629848e+1, -0.00000022472867, -27920.246, -0.48149487, 0.0, 0.0007785282, 0.000008078827, 0.000008078827, 0.0, 0.012207031, 0.01187981 
1.8310547e-2, 1.4641729e+1, -0.00000015843092, -27902.783, -0.35257956, 0.0, 0.00082067674, 0.000004296766, 0.000004296766, 0.0, 0.012207031, 0.011880007 
1.8310547e-2, 1.4653608e+1, -0.00000035000133, -27899.574, 0.5800238, 0.0, 0.0007584813, 0.000011708522, 0.000011708522, 0.0, 0.012207031, 0.011880042 
1.8310547e-2, 1.4665489e+1, -0.000000047257934, -27884.424, -0.027931677, 0.0, 0.00075143133, -0.00000001927765, -0.00000001927765, 0.0, 0.012207031, 0.011880213 
1.8310547e-2, 1.4677368e+1, -0.00000010001142, -27880.084, -0.1271553, 0.0, 0.00081670895, 0.0000004799149, 0.0000004799149, 0.0, 0.012207031, 0.011880262 
1.8310547e-2, 1.4689249e+1, -0.00000011792322, -27865.08, 0.197255, 0.0, 0.00079494383, 0.000001278433, 0.000001278433, 0.0, 0.012207031, 0.01188043 
1.8310547e-2, 1.470113e+1, -0.00000004006515, -27860.205, 0.08739409, 0.0, 0.00075216533, 0.00000023408211, 0.00000023408211, 0.0, 0.012207031, 0.011880485 
1.8310547e-2, 1.471301e+1, -0.000000013743036, -27845.629, 0.101423584, 0.0, 0.00084502477, 0.00000035567427, 0.00000035567427, 0.0, 0.012207031, 0.011880649 
1.8310547e-2, 1.4724891e+1, -0.000000074271746, -27840.213, 0.06009301, 0.0, 0.0007755863, 0.00000005543916, 0.00000005543916, 0.0, 0.012207031, 0.011880711 
1.8310547e-2, 1.4736772e+1, -0.000000013048732, -27826.41, 0.1459883, 0.0, 0.0007542924, 0.0000007528615, 0.0000007528615, 0.0, 0.012207031, 0.011880866 
1.8310547e-2, 1.4748652e+1, -0.000000034577127, -27820.5, 0.14749421, 0.0, 0.00081604306, 0.00000074738637, 0.00000074738637, 0.0, 0.012207031, 0.011880932 
1.8310547e-2, 1.4760533e+1, -0.00000039440664, -27806.191, 0.52965534, 0.0, 0.0008235504, 0.000009694522, 0.000009694522, 0.0, 0.012207031, 0.0118810935 
1.8310547e-2, 1.4772414e+1, -0.00000432117, -27800.621, 1.8201034, 0.0, 0.0007823895, 0.00011484078, 0.00011484078, 0.0, 0.012207031, 0.011881157 
1.8310547e-2, 1.4784294e+1, -0.0000075762396, -27787.066, 2.3114696, 0.0, 0.0007958975, 0.00018470356, 0.00018470356, 0.0, 0.012207031, 0.011881309 
1.8310547e-2, 1.4796177e+1, -0.000039683488, -27782.688, 6.3117213, 0.0, 0.00079741434, 0.0013942247, 0.0013942247, 0.0, 0.012207031, 0.011881358 
1.8310547e-2, 1.4808059e+1, -0.0000014610524, -27767.813, 1.088782, 0.0, 0.00082960556, 0.000041230323, 0.000041230323, 0.0, 0.012207031, 0.011881526 
1.8310547e-2, 1.481994e+1, -0.00000008356004, -27763.775, 0.09444373, 0.0, 0.00077218766, 0.00000023770554, 0.00000023770554, 0.0, 0.012207031, 0.011881571 
1.8310547e-2, 1.4831822e+1, -0.00000008857523, -27747.176, -0.28285503, 0.0, 0.0008387281, 0.0000027948518, 0.0000027948518, 0.0, 0.012207031, 0.011881758 
1.8310547e-2, 1.4843704e+1, -0.00000020476189, -27743.766, 0.41970828, 0.0, 0.0008331088, 0.0000061445935, 0.0000061445935, 0.0, 0.012207031, 0.011881797 
1.8310547e-2, 1.4855585e+1, -0.00000003568315, -27727.96, -0.121735945, 0.0, 0.00074206066, 0.00000049878145, 0.00000049878145, 0.0, 0.012207031, 0.0118819745 
1.8310547e-2, 1.4867467e+1, -0.00000015713454, -27723.227, 0.3590635, 0.0, 0.0008100055, 0.000004493355, 0.000004493355, 0.0, 0.012207031, 0.011882028 
1.8310547e-2, 1.487935e+1, -0.00000022694954, -27709.186, -0.38985243, 0.0, 0.00087301264, 0.000005258051, 0.000005258051, 0.0, 0.012207031, 0.011882186 
1.8310547e-2, 1.4891231e+1, -0.00000064123793, -27703.488, -0.7650208, 0.0, 0.00079667877, 0.000020484506, 0.000020484506, 0.0, 0.012207031, 0.01188225 
1.8310547e-2, 1.4903115e+1, -0.00000483516, -27690.11, 1.8288419, 0.0, 0.0007848506, 0.00011595391, 0.00011595391, 0.0, 0.012207031, 0.011882401 
1.8310547e-2, 1.4914995e+1, 0.0000000071571318, -27682.258, -0.103536375, 0.0, 0.0008217248, 0.00000039440056, 0.00000039440056, 0.0, 0.012207031, 0.01188249 
1.8310547e-2, 1.4926879e+1, -0.0000123200725, -27662.818, 2.775605, 0.0, 0.0008250983, 0.00026617586, 0.00026617586, 0.0, 0.012207031, 0.011882708 
1.8310547e-2, 1.4938761e+1, -0.00010667488, -27667.06, 10.566935, 0.0, 0.00079246424, 0.0039291745, 0.0039291745, 0.0, 0.012207031, 0.011882661 
1.8310547e-2, 1.4950645e+1, -0.000016809565, -27656.79, 4.6498384, 0.0, 0.0008308509, 0.0007649514, 0.0007649514, 0.0, 0.012207031, 0.011882776 
1.8310547e-2, 1.4962527e+1, -0.0000014271272, -27643.23, -1.10864, 0.0, 0.00081738865, 0.000043035205, 0.000043035205, 0.0, 0.012207031, 0.011882929 
1.8310547e-2, 1.497441e+1, -0.00000026113514, -27634.063, 0.504665, 0.0, 0.00079557585, 0.000008955274, 0.000008955274, 0.0, 0.012207031, 0.0118830325 
1.8310547e-2, 1.4986293e+1, -0.000000659504, -27624.088, 0.7472066, 0.0, 0.0008141294, 0.00001955176, 0.00001955176, 0.0, 0.012207031, 0.011883144 
1.8310547e-2, 1.4998177e+1, -0.000000037283627, -27613.564, -0.060698856, 0.0, 0.0008153052, 0.000000096144504, 0.000000096144504, 0.0, 0.012207031, 0.0118832635 
1.8310547e-2, 1.5010059e+1, -0.00000006066598, -27602.867, 0.07030062, 0.0, 0.00082352775, 0.00000011837619, 0.00000011837619, 0.0, 0.012207031, 0.011883384 
1.8310547e-2, 1.5021943e+1, -0.00000010968683, -27596.041, -0.30996796, 0.0, 0.0007949917, 0.000003371977, 0.000003371977, 0.0, 0.012207031, 0.011883461 
1.8310547e-2, 1.5033826e+1, -0.00000030069037, -27582.406, -0.544134, 0.0, 0.00081372616, 0.000010433756, 0.000010433756, 0.0, 0.012207031, 0.011883615 
1.8310547e-2, 1.504571e+1, -0.0000001945449, -27576.383, 0.43927702, 0.0, 0.00082529674, 0.000006802904, 0.000006802904, 0.0, 0.012207031, 0.011883682 
1.8310547e-2, 1.5057594e+1, -0.00000011140883, -27563.367, 0.27696687, 0.0, 0.0007791974, 0.0000026716552, 0.0000026716552, 0.0, 0.012207031, 0.011883829 
1.8310547e-2, 1.5069479e+1, -0.00000008749905, -27556.73, -0.25278926, 0.0, 0.0008181379, 0.0000022314416, 0.0000022314416, 0.0, 0.012207031, 0.011883903 
1.8310547e-2, 1.5081362e+1, -0.000000082182346, -27543.053, 0.2639793, 0.0, 0.00087053305, 0.0000024478613, 0.0000024478613, 0.0, 0.012207031, 0.011884058 
1.8310547e-2, 1.5093246e+1, -0.00000008912987, -27538.973, -0.25566053, 0.0, 0.0007645882, 0.000002284316, 0.000002284316, 0.0, 0.012207031, 0.0118841035 
1.8310547e-2, 1.510513e+1, -0.00000050250435, -27522.945, -0.66602975, 0.0, 0.000777535, 0.000015614798, 0.000015614798, 0.0, 0.012207031, 0.011884284 
1.8310547e-2, 1.5117015e+1, -0.0000034272898, -27518.205, 1.6317469, 0.0, 0.000850484, 0.0000933304, 0.0000933304, 0.0, 0.012207031, 0.011884337 
1.8310547e-2, 1.5128899e+1, -0.00000012484495, -27503.809, 0.24191874, 0.0, 0.0008191645, 0.000002003031, 0.000002003031, 0.0, 0.012207031, 0.011884499 
1.8310547e-2, 1.5140784e+1, -0.00000012317157, -27499.838, -0.038477868, 0.0, 0.0007853695, -0.0000000693326, -0.0000000693326, 0.0, 0.012207031, 0.011884544 
1.8310547e-2, 1.5152667e+1, -0.0000000866794, -27482.613, -0.1741476, 0.0, 0.00084067765, 0.0000010168369, 0.0000010168369, 0.0, 0.012207031, 0.011884739 
1.8310547e-2, 1.5164553e+1, -0.00000023802065, -27480.24, 0.40162852, 0.0, 0.00081301056, 0.0000056318495, 0.0000056318495, 0.0, 0.012207031, 0.011884766 
1.8310547e-2, 1.5176438e+1, -0.0000011368904, -27463.902, 0.9577176, 0.0, 0.0007787028, 0.000032260512, 0.000032260512, 0.0, 0.012207031, 0.011884949 
1.8310547e-2, 1.5188323e+1, -0.000000055427968, -27461.164, 0.23492196, 0.0, 0.0008168798, 0.0000019542604, 0.0000019542604, 0.0, 0.012207031, 0.01188498 
1.8310547e-2, 1.5200208e+1, -0.000000012495273, -27444.12, 0.06620427, 0.0, 0.00087050657, 0.00000014721081, 0.00000014721081, 0.0, 0.012207031, 0.011885173 
1.8310547e-2, 1.5212093e+1, -0.00000011796595, -27442.436, 0.3571223, 0.0, 0.0007985665, 0.0000045294473, 0.0000045294473, 0.0, 0.012207031, 0.011885191 
1.8310547e-2, 1.5223978e+1, -0.000000057849114, -27423.39, -0.06664358, 0.0, 0.0007790703, 0.00000010410804, 0.00000010410804, 0.0, 0.012207031, 0.011885406 
1.8310547e-2, 1.5235864e+1, -0.00000006337886, -27421.762, -0.0982282, 0.0, 0.0008484381, 0.00000028848808, 0.00000028848808, 0.0, 0.012207031, 0.011885424 
1.8310547e-2, 1.5247749e+1, -0.000000022701803, -27405.338, -0.006397036, 0.0, 0.00082556554, -0.000000021209416, -0.000000021209416, 0.0, 0.012207031, 0.0118856095 
1.8310547e-2, 1.5259635e+1, -0.000000029645744, -27402.354, 0.021935415, 0.0, 0.00078430685, -0.000000012085366, -0.000000012085366, 0.0, 0.012207031, 0.011885643 
1.8310547e-2, 1.527152e+1, -0.00000023029114, -27384.873, 0.43253103, 0.0, 0.0008824645, 0.000006601327, 0.000006601327, 0.0, 0.012207031, 0.01188584 
1.8310547e-2, 1.5283406e+1, 0.000000016660225, -27383.611, 0.015694266, 0.0, 0.0008314378, 0.000000025658665, 0.000000025658665, 0.0, 0.012207031, 0.011885854 
1.8310547e-2, 1.5295292e+1, -0.00000017383681, -27365.775, -0.3441656, 0.0, 0.0007560167, 0.000004154561, 0.000004154561, 0.0, 0.012207031, 0.011886056 
1.8310547e-2, 1.5307179e+1, -0.000000077353846, -27362.443, 0.23221777, 0.0, 0.00086791225, 0.0000018934152, 0.0000018934152, 0.0, 0.012207031, 0.011886093 
1.8310547e-2, 1.5319066e+1, 0.000000022808194, -27346.94, -0.043539092, 0.0, 0.0008399571, 0.00000009212454, 0.00000009212454, 0.0, 0.012207031, 0.011886268 
1.8310547e-2, 1.5330951e+1, -0.00000010640997, -27343.537, -0.2271383, 0.0, 0.0007535285, 0.0000017803904, 0.0000017803904, 0.0, 0.012207031, 0.011886306 
1.8310547e-2, 1.5342838e+1, -0.000010146983, -27326.338, 2.5377824, 0.0, 0.0009279858, 0.00022553554, 0.00022553554, 0.0, 0.012207031, 0.0118865 
1.8310547e-2, 1.5354724e+1, -0.00000003697523, -27324.785, 0.083915874, 0.0, 0.00088645186, 0.00000022073073, 0.00000022073073, 0.0, 0.012207031, 0.0118865175 
1.8310547e-2, 1.5366611e+1, -0.00000014170676, -27307.598, -0.3630703, 0.0, 0.0006833195, 0.000004685524, 0.000004685524, 0.0, 0.012207031, 0.011886711 
1.8310547e-2, 1.5378498e+1, -0.00000064040233, -27303.291, 0.6961243, 0.0, 0.0008391806, 0.000017107977, 0.000017107977, 0.0, 0.012207031, 0.01188676 
1.8310547e-2, 1.5390384e+1, 0.0000000127820075, -27288.299, -0.06220916, 0.0, 0.00094153546, 0.00000015459955, 0.00000015459955, 0.0, 0.012207031, 0.011886929 
1.8310547e-2, 1.5402271e+1, -0.00000023694244, -27285.254, -0.40544248, 0.0, 0.00077238074, 0.000005787693, 0.000005787693, 0.0, 0.012207031, 0.011886964 
1.8310547e-2, 1.5414158e+1, -0.00000045447038, -27267.707, 0.6146763, 0.0, 0.00083965226, 0.000013401739, 0.000013401739, 0.0, 0.012207031, 0.011887161 
1.8310547e-2, 1.5426046e+1, -0.00000001748277, -27265.951, 0.20365596, 0.0, 0.0008958797, 0.0000015036749, 0.0000015036749, 0.0, 0.012207031, 0.011887181 
1.8310547e-2, 1.5437932e+1, -0.0000005984122, -27249.207, -0.73564047, 0.0, 0.0007637471, 0.000019261504, 0.000019261504, 0.0, 0.012207031, 0.01188737 
1.8310547e-2, 1.544982e+1, -0.00000013282857, -27245.045, 0.1374135, 0.0, 0.0008295726, 0.00000056023055, 0.00000056023055, 0.0, 0.012207031, 0.011887417 
1.8310547e-2, 1.5461709e+1, -0.00000006250933, -27230.125, 0.23852691, 0.0, 0.0009027871, 0.0000020269072, 0.0000020269072, 0.0, 0.012207031, 0.011887585 
1.8310547e-2, 1.5473595e+1, -0.00000029131826, -27225.086, -0.4440941, 0.0, 0.00076593395, 0.0000069527196, 0.0000069527196, 0.0, 0.012207031, 0.011887642 
1.8310547e-2, 1.5485483e+1, -0.00000015217005, -27210.69, 0.34611687, 0.0, 0.00086119113, 0.0000042504, 0.0000042504, 0.0, 0.012207031, 0.011887805 
1.8310547e-2, 1.549737e+1, -0.000006266917, -27205.207, 2.0214396, 0.0, 0.00092726847, 0.00014393294, 0.00014393294, 0.0, 0.012207031, 0.011887866 
1.8310547e-2, 1.5509258e+1, -0.0000004944225, -27191.94, 0.5784458, 0.0, 0.0007577153, 0.000011810676, 0.000011810676, 0.0, 0.012207031, 0.011888016 
1.8310547e-2, 1.5521146e+1, -0.00000044351438, -27185.904, 0.62698185, 0.0, 0.0007792699, 0.000014016416, 0.000014016416, 0.0, 0.012207031, 0.011888084 
1.8310547e-2, 1.5533036e+1, -0.000000084444885, -27173.6, 0.13738264, 0.0, 0.0009266588, 0.00000061012906, 0.00000061012906, 0.0, 0.012207031, 0.011888223 
1.8310547e-2, 1.5544923e+1, -0.00000024440448, -27165.756, -0.39554563, 0.0, 0.0008340153, 0.000005514921, 0.000005514921, 0.0, 0.012207031, 0.011888311 
1.8310547e-2, 1.5556811e+1, -0.0000006938787, -27152.16, 0.7651501, 0.0, 0.00081850676, 0.000020868116, 0.000020868116, 0.0, 0.012207031, 0.011888464 
1.8310547e-2, 1.55687e+1, -0.0000005226557, -27147.719, 0.6801471, 0.0, 0.0008398798, 0.000016517457, 0.000016517457, 0.0, 0.012207031, 0.011888514 
1.8310547e-2, 1.5580589e+1, -0.0000006395887, -27133.697, -0.7243912, 0.0, 0.0008413185, 0.00001869956, 0.00001869956, 0.0, 0.012207031, 0.011888673 
1.8310547e-2, 1.5592478e+1, -0.000000043066624, -27127.037, -0.17928801, 0.0, 0.00085147104, 0.0000011418815, 0.0000011418815, 0.0, 0.012207031, 0.011888748 
1.8310547e-2, 1.5604366e+1, -0.0000001870982, -27113.924, 0.32154527, 0.0, 0.0008449977, 0.0000036261226, 0.0000036261226, 0.0, 0.012207031, 0.011888896 
1.8310547e-2, 1.5616255e+1, -0.000000059586625, -27107.611, -0.095875375, 0.0, 0.0008103836, 0.00000027950955, 0.00000027950955, 0.0, 0.012207031, 0.011888967 
1.8310547e-2, 1.5628144e+1, -0.000000055779104, -27094.188, 0.04949941, 0.0, 0.00087109185, 0.000000034655386, 0.000000034655386, 0.0, 0.012207031, 0.011889119 
1.8310547e-2, 1.5640034e+1, -0.00000027521418, -27089.043, -0.46831802, 0.0, 0.00082884793, 0.000007821116, 0.000007821116, 0.0, 0.012207031, 0.011889176 
1.8310547e-2, 1.5651922e+1, -0.000000022614744, -27073.592, 0.0381818, 0.0, 0.00083924324, 0.000000031235686, 0.000000031235686, 0.0, 0.012207031, 0.011889351 
1.8310547e-2, 1.5663812e+1, -0.0000018574282, -27068.824, 1.2631317, 0.0, 0.00086184294, 0.000057084984, 0.000057084984, 0.0, 0.012207031, 0.011889405 
1.8310547e-2, 1.5675701e+1, -0.0000072210914, -27055.617, 2.157169, 0.0, 0.0008581895, 0.00016477198, 0.00016477198, 0.0, 0.012207031, 0.011889554 
1.8310547e-2, 1.5687591e+1, -0.0000001577173, -27048.482, 0.24453351, 0.0, 0.0007953719, 0.0000020530024, 0.0000020530024, 0.0, 0.012207031, 0.011889634 
1.8310547e-2, 1.569948e+1, -0.0000058861, -27035.795, 1.9714625, 0.0, 0.0008309012, 0.00013787384, 0.00013787384, 0.0, 0.012207031, 0.011889777 
1.8310547e-2, 1.571137e+1, -0.00000054450084, -27031.242, 0.63847196, 0.0, 0.0009271965, 0.000014536068, 0.000014536068, 0.0, 0.012207031, 0.011889828 
1.8310547e-2, 1.5723261e+1, -0.000000069464974, -27014.203, 0.020646175, 0.0, 0.00088732416, -0.000000053685653, -0.000000053685653, 0.0, 0.012207031, 0.011890021 
1.8310547e-2, 1.5735151e+1, -0.0000001714794, -27011.541, 0.3930808, 0.0, 0.0006878726, 0.0000055487617, 0.0000055487617, 0.0, 0.012207031, 0.011890051 
1.8310547e-2, 1.574704e+1, -0.00000027907802, -26995.834, -0.41302553, 0.0, 0.00086149696, 0.0000060400525, 0.0000060400525, 0.0, 0.012207031, 0.011890228 
1.8310547e-2, 1.5758932e+1, -0.00000027746265, -26991.455, 0.35595345, 0.0, 0.0009849021, 0.000004416721, 0.000004416721, 0.0, 0.012207031, 0.011890277 
1.8310547e-2, 1.5770821e+1, -0.00000008878989, -26976.281, 0.14464931, 0.0, 0.00082092825, 0.0000006868322, 0.0000006868322, 0.0, 0.012207031, 0.011890449 
1.8310547e-2, 1.5782712e+1, -0.00000018633645, -26971.66, -0.33918616, 0.0, 0.0007708891, 0.000004079149, 0.000004079149, 0.0, 0.012207031, 0.011890501 
1.8310547e-2, 1.5794602e+1, -0.000000079782644, -26956.766, 0.223519, 0.0, 0.00087610545, 0.0000017735838, 0.0000017735838, 0.0, 0.012207031, 0.011890669 
1.8310547e-2, 1.5806493e+1, -0.000000047615504, -26953.19, -0.013996357, 0.0, 0.00088051445, -0.000000040348823, -0.000000040348823, 0.0, 0.012207031, 0.011890709 
1.8310547e-2, 1.5818384e+1, -0.00000008724307, -26935.508, 0.070422925, 0.0, 0.00086464913, 0.000000096879376, 0.000000096879376, 0.0, 0.012207031, 0.011890909 
1.8310547e-2, 1.5830274e+1, -0.000000079460825, -26934.914, -0.09965747, 0.0, 0.0008106839, 0.0000002892666, 0.0000002892666, 0.0, 0.012207031, 0.011890915 
1.8310547e-2, 1.5842167e+1, -0.0000009918547, -26915.387, 0.9019558, 0.0, 0.0008770827, 0.000029233393, 0.000029233393, 0.0, 0.012207031, 0.011891136 
1.8310547e-2, 1.5854058e+1, -0.0000002655608, -26915.31, 0.43916076, 0.0, 0.0008607462, 0.000006899958, 0.000006899958, 0.0, 0.012207031, 0.011891137 
1.8310547e-2, 1.5865949e+1, -0.0000007085316, -26896.48, -0.7555991, 0.0, 0.00081989216, 0.000020518408, 0.000020518408, 0.0, 0.012207031, 0.011891349 
1.8310547e-2, 1.587784e+1, -0.0000011282223, -26893.543, 0.9984298, 0.0, 0.0008942107, 0.000035938745, 0.000035938745, 0.0, 0.012207031, 0.011891383 
1.8310547e-2, 1.5889731e+1, -0.0000016929225, -26878.848, 1.2030739, 0.0, 0.0008752364, 0.000052155618, 0.000052155618, 0.0, 0.012207031, 0.0118915485 
1.8310547e-2, 1.5901622e+1, -0.00000066442414, -26874.732, -0.7821348, 0.0, 0.00081796246, 0.000022098026, 0.000022098026, 0.0, 0.012207031, 0.011891595 
1.8310547e-2, 1.5913515e+1, -0.00000013768475, -26858.299, 0.2207007, 0.0, 0.00084251247, 0.000001675864, 0.000001675864, 0.0, 0.012207031, 0.01189178 
1.8310547e-2, 1.5925406e+1, -0.000000010218576, -26854.205, -0.023120321, 0.0, 0.00088072574, 0.0000000096843, 0.0000000096843, 0.0, 0.012207031, 0.011891827 
1.8310547e-2, 1.5937299e+1, -0.0000005332622, -26839.633, 0.66508657, 0.0, 0.00089824724, 0.000015947593, 0.000015947593, 0.0, 0.012207031, 0.011891991 
1.8310547e-2, 1.594919e+1, -0.0000002239109, -26836.348, -0.11905779, 0.0, 0.00081006036, 0.00000030428419, 0.00000030428419, 0.0, 0.012207031, 0.011892028 
1.8310547e-2, 1.5961082e+1, -0.0000099763165, -26818.648, -2.6085324, 0.0, 0.0008401267, 0.00024374423, 0.00024374423, 0.0, 0.012207031, 0.011892228 
1.8310547e-2, 1.5972975e+1, -0.00000039154983, -26814.896, 0.567779, 0.0, 0.0008981365, 0.000011630615, 0.000011630615, 0.0, 0.012207031, 0.01189227 
1.8310547e-2, 1.5984868e+1, -0.00000785399, -26810.102, -2.2532415, 0.0, 0.0008526413, 0.00018151857, 0.00018151857, 0.0, 0.012207031, 0.011892324 
1.8310547e-2, 1.599676e+1, -0.00065841555, -26791.361, 26.223793, 0.0, 0.00087970676, 0.025009807, 0.025009807, 0.0, 0.012207031, 0.011892537 
1.8310547e-2, 1.6008651e+1, -0.00001384863, -26778.957, -2.9183657, 0.0, 0.0007894095, 0.0003041943, 0.0003041943, 0.0, 0.012207031, 0.011892676 
1.8310547e-2, 1.6020544e+1, -0.00000014352827, -26773.787, -0.23459156, 0.0, 0.0008810578, 0.0000019119616, 0.0000019119616, 0.0, 0.012207031, 0.011892735 
1.8310547e-2, 1.6032438e+1, -0.00000011799962, -26763.025, -0.1271191, 0.0, 0.00095877185, 0.00000048579386, 0.00000048579386, 0.0, 0.012207031, 0.011892856 
1.8310547e-2, 1.604433e+1, -0.00000037478452, -26752.752, -0.45529592, 0.0, 0.00080124184, 0.000007373739, 0.000007373739, 0.0, 0.012207031, 0.0118929725 
1.8310547e-2, 1.6056223e+1, -0.000014842621, -26745.436, 3.176597, 0.0, 0.00079708075, 0.00036244676, 0.00036244676, 0.0, 0.012207031, 0.0118930545 
1.8310547e-2, 1.6068117e+1, -0.000000077837974, -26734.988, -0.18461184, 0.0, 0.0009170595, 0.0000011969532, 0.0000011969532, 0.0, 0.012207031, 0.011893173 
1.8310547e-2, 1.608001e+1, -0.0000019158465, -26725.82, -1.3053927, 0.0, 0.0008909675, 0.00006184461, 0.00006184461, 0.0, 0.012207031, 0.011893276 
1.8310547e-2, 1.6091904e+1, -0.0000006454833, -26712.18, 0.7500496, 0.0, 0.0008621083, 0.000020415111, 0.000020415111, 0.0, 0.012207031, 0.011893431 
1.8310547e-2, 1.6103797e+1, -0.000000101981136, -26709.232, 0.24205439, 0.0, 0.0008047693, 0.000002091656, 0.000002091656, 0.0, 0.012207031, 0.011893463 
1.8310547e-2, 1.6115691e+1, -0.00000006530699, -26693.084, -0.19141494, 0.0, 0.0008998719, 0.0000013073259, 0.0000013073259, 0.0, 0.012207031, 0.011893646 
1.8310547e-2, 1.6127585e+1, -0.00000065712004, -26688.148, 0.67107433, 0.0, 0.000892924, 0.000016217062, 0.000016217062, 0.0, 0.012207031, 0.011893702 
1.8310547e-2, 1.6139477e+1, -0.000004921603, -26673.057, -1.7542797, 0.0, 0.0008480659, 0.00011045691, 0.00011045691, 0.0, 0.012207031, 0.011893872 
1.8310547e-2, 1.6151372e+1, -0.000000094406325, -26671.79, -0.13125302, 0.0, 0.0008684456, 0.00000055149576, 0.00000055149576, 0.0, 0.012207031, 0.011893886 
1.8310547e-2, 1.6163266e+1, -0.0000057307866, -26659.78, -1.9871461, 0.0, 0.0008901944, 0.00014238559, 0.00014238559, 0.0, 0.012207031, 0.011894022 
1.8310547e-2, 1.617516e+1, -0.0006477358, -26647.873, 26.005957, 0.0, 0.00084488385, 0.024731744, 0.024731744, 0.0, 0.012207031, 0.011894157 
1.8310547e-2, 1.6187054e+1, -0.00002003404, -26628.242, -4.7004333, 0.0, 0.00087829167, 0.0008096893, 0.0008096893, 0.0, 0.012207031, 0.011894379 
1.8310547e-2, 1.6198948e+1, -0.0000015123338, -26632.31, 1.1340164, 0.0, 0.00089472847, 0.000046774625, 0.000046774625, 0.0, 0.012207031, 0.011894332 
1.8310547e-2, 1.6210842e+1, -0.00000004502813, -26612.316, -0.0007698424, 0.0, 0.00087583414, -0.000000045005436, -0.000000045005436, 0.0, 0.012207031, 0.011894559 
1.8310547e-2, 1.6222736e+1, -0.00000077088356, -26612.719, -0.84881634, 0.0, 0.00085544627, 0.00002630223, 0.00002630223, 0.0, 0.012207031, 0.011894554 
1.8310547e-2, 1.6234632e+1, -0.000000023644251, -26592.55, -0.030967994, 0.0, 0.0009020558, 0.00000001242006, 0.00000001242006, 0.0, 0.012207031, 0.011894782 
1.8310547e-2, 1.6246527e+1, -0.00000027006521, -26592.998, 0.53319925, 0.0, 0.00086217193, 0.000010420772, 0.000010420772, 0.0, 0.012207031, 0.0118947765 
1.8310547e-2, 1.6258422e+1, -0.00000017453269, -26574.662, 0.32773012, 0.0, 0.0008827073, 0.0000038671787, 0.0000038671787, 0.0, 0.012207031, 0.011894984 
1.8310547e-2, 1.6270317e+1, -0.00000073487865, -26573.65, -0.78134537, 0.0, 0.0008935017, 0.00002223903, 0.00002223903, 0.0, 0.012207031, 0.011894995 
1.8310547e-2, 1.6282211e+1, -0.0000000734298, -26553.39, -0.2793275, 0.0, 0.00087513606, 0.0000028649483, 0.0000028649483, 0.0, 0.012207031, 0.011895224 
1.8310547e-2, 1.6294107e+1, -0.00000068558865, -26554.682, 0.78104097, 0.0, 0.0008777646, 0.000022286822, 0.000022286822, 0.0, 0.012207031, 0.01189521 
1.8310547e-2, 1.6306001e+1, -0.000000115701255, -26534.643, -0.18575342, 0.0, 0.0009297907, 0.000001184646, 0.000001184646, 0.0, 0.012207031, 0.011895436 
1.8310547e-2, 1.6317898e+1, -0.0000001557167, -26534.248, -0.28341663, 0.0, 0.0008422518, 0.000002871504, 0.000002871504, 0.0, 0.012207031, 0.0118954405 
1.8310547e-2, 1.6329794e+1, -0.00000038323068, -26515.414, 0.54258096, 0.0, 0.0008221849, 0.000010719523, 0.000010719523, 0.0, 0.012207031, 0.011895653 
1.8310547e-2, 1.6341688e+1, -0.00000006928645, -26513.9, 0.1370624, 0.0, 0.0009724238, 0.0000006392547, 0.0000006392547, 0.0, 0.012207031, 0.011895671 
1.8310547e-2, 1.6353585e+1, -0.000013599297, -26495.277, 3.8846376, 0.0, 0.0009701376, 0.0005559516, 0.0005559516, 0.0, 0.012207031, 0.011895881 
1.8310547e-2, 1.636548e+1, -0.00000525349, -26494.98, 1.911393, 0.0, 0.00075889274, 0.00013263765, 0.00013263765, 0.0, 0.012207031, 0.011895884 
1.8310547e-2, 1.6377376e+1, -0.0000015472378, -26477.977, 1.1411053, 0.0, 0.0008190241, 0.000047630285, 0.000047630285, 0.0, 0.012207031, 0.011896077 
1.8310547e-2, 1.6389273e+1, -0.0000004997535, -26475.678, -0.71210796, 0.0, 0.0010111526, 0.00001865359, 0.00001865359, 0.0, 0.012207031, 0.011896103 
1.8310547e-2, 1.6401169e+1, -0.0000001203929, -26456.11, -0.10198275, 0.0, 0.00094261835, 0.000000272732, 0.000000272732, 0.0, 0.012207031, 0.011896323 
1.8310547e-2, 1.6413064e+1, -0.0000040902123, -26454.63, 1.7248465, 0.0, 0.0007873171, 0.00010837006, 0.00010837006, 0.0, 0.012207031, 0.01189634 
1.8310547e-2, 1.6424961e+1, -0.00000032963015, -26439.17, 0.54022944, 0.0, 0.00085666147, 0.000010708834, 0.000010708834, 0.0, 0.012207031, 0.011896515 
1.8310547e-2, 1.6436857e+1, -0.00000059042054, -26436.033, -0.7524799, 0.0, 0.0009545219, 0.000020828298, 0.000020828298, 0.0, 0.012207031, 0.011896551 
1.8310547e-2, 1.6448756e+1, -0.00000008054876, -26418.436, 0.106870994, 0.0, 0.0009013844, 0.000000351778, 0.000000351778, 0.0, 0.012207031, 0.011896749 
1.8310547e-2, 1.6460651e+1, -0.00000007451717, -26415.848, 0.068650216, 0.0, 0.0008458346, 0.00000010389704, 0.00000010389704, 0.0, 0.012207031, 0.011896779 
1.8310547e-2, 1.6472548e+1, -0.00000015768164, -26399.707, -0.20264721, 0.0, 0.0009133022, 0.0000013978643, 0.0000013978643, 0.0, 0.012207031, 0.011896961 
1.8310547e-2, 1.6484445e+1, -0.00000007466132, -26395.555, 0.21295, 0.0, 0.00090744445, 0.0000016433441, 0.0000016433441, 0.0, 0.012207031, 0.011897008 
1.8310547e-2, 1.6496342e+1, -0.00000001738048, -26380.268, -0.0063871886, 0.0, 0.00081626023, -0.000000015836122, -0.000000015836122, 0.0, 0.012207031, 0.011897181 
1.8310547e-2, 1.650824e+1, -0.00000016948631, -26376.854, -0.2904615, 0.0, 0.0008954271, 0.000003029072, 0.000003029072, 0.0, 0.012207031, 0.011897219 
1.8310547e-2, 1.6520138e+1, -0.00000011511394, -26361.197, -0.23685625, 0.0, 0.0010137336, 0.0000020130465, 0.0000020130465, 0.0, 0.012207031, 0.011897396 
1.8310547e-2, 1.6532034e+1, -0.000003921071, -26355.074, 1.6254928, 0.0, 0.0008498784, 0.00009633388, 0.00009633388, 0.0, 0.012207031, 0.011897465 
1.8310547e-2, 1.6543932e+1, -0.0000001951183, -26342.627, -0.38696218, 0.0, 0.00074767694, 0.0000054891934, 0.0000054891934, 0.0, 0.012207031, 0.011897606 
1.8310547e-2, 1.655583e+1, -0.00000004491921, -26335.244, -0.22731015, 0.0, 0.0009549287, 0.0000019170875, 0.0000019170875, 0.0, 0.012207031, 0.01189769 
1.8310547e-2, 1.6567728e+1, -0.00000006597128, -26324.344, 0.1072097, 0.0, 0.0010091675, 0.00000037065183, 0.00000037065183, 0.0, 0.012207031, 0.011897813 
1.8310547e-2, 1.6579627e+1, -0.000005066762, -26315.611, 1.776389, 0.0, 0.0008211127, 0.00011484525, 0.00011484525, 0.0, 0.012207031, 0.011897911 
1.8310547e-2, 1.6591524e+1, -0.0000010171528, -26304.506, -0.9423126, 0.0, 0.00084228214, 0.000032739536, 0.000032739536, 0.0, 0.012207031, 0.011898037 
1.8310547e-2, 1.6603422e+1, -0.00000010841948, -26294.732, 0.099910796, 0.0, 0.0009530036, 0.00000027120768, 0.00000027120768, 0.0, 0.012207031, 0.011898148 
1.8310547e-2, 1.661532e+1, -0.0000011818863, -26284.57, 1.0372869, 0.0, 0.00087421155, 0.00003975332, 0.00003975332, 0.0, 0.012207031, 0.011898262 
1.8310547e-2, 1.6627218e+1, -0.00000004226536, -26278.223, -0.17992839, 0.0, 0.00085340405, 0.0000011897173, 0.0000011897173, 0.0, 0.012207031, 0.011898334 
1.8310547e-2, 1.6639116e+1, -0.0000014229062, -26265.303, -1.1368357, 0.0, 0.0009921433, 0.00004778252, 0.00004778252, 0.0, 0.012207031, 0.01189848 
1.8310547e-2, 1.6651015e+1, -0.00000019353253, -26254.932, 0.3140084, 0.0, 0.00092547486, 0.0000035619996, 0.0000035619996, 0.0, 0.012207031, 0.011898598 
1.8310547e-2, 1.6662914e+1, -0.000000952729, -26245.66, 0.9589644, 0.0, 0.00076120516, 0.00003408593, 0.00003408593, 0.0, 0.012207031, 0.011898703 
1.8310547e-2, 1.6674812e+1, -0.00000018727617, -26239.906, -0.2677338, 0.0, 0.00088357297, 0.0000025444933, 0.0000025444933, 0.0, 0.012207031, 0.011898768 
1.8310547e-2, 1.668671e+1, -0.00000026451954, -26224.791, -0.36923364, 0.0, 0.0010711133, 0.000004934129, 0.000004934129, 0.0, 0.012207031, 0.011898939 
1.8310547e-2, 1.6698611e+1, -0.000036945712, -26218.05, 6.0412946, 0.0, 0.00091303076, 0.0013551195, 0.0013551195, 0.0, 0.012207031, 0.011899015 
1.8310547e-2, 1.6710508e+1, -0.0000002674183, -26205.656, -0.34865922, 0.0, 0.0007481625, 0.0000043714026, 0.0000043714026, 0.0, 0.012207031, 0.011899156 
1.8310547e-2, 1.6722408e+1, -0.00000013402526, -26199.826, 0.09305297, 0.0, 0.0008856478, 0.00000019646905, 0.00000019646905, 0.0, 0.012207031, 0.011899221 
1.8310547e-2, 1.6734308e+1, -0.000000042919957, -26185.115, 0.07986653, 0.0, 0.0010672054, 0.00000020067819, 0.00000020067819, 0.0, 0.012207031, 0.011899387 
1.8310547e-2, 1.6746207e+1, -0.0000607062, -26181.316, 7.889586, 0.0, 0.0009451243, 0.002316774, 0.002316774, 0.0, 0.012207031, 0.01189943 
1.8310547e-2, 1.6758107e+1, -0.0000001040681, -26164.887, -0.2607706, 0.0, 0.00075321423, 0.0000024948822, 0.0000024948822, 0.0, 0.012207031, 0.011899617 
1.8310547e-2, 1.6770007e+1, -0.00000009570366, -26161.232, 0.12531133, 0.0, 0.0008728253, 0.0000005045331, 0.0000005045331, 0.0, 0.012207031, 0.011899658 
1.8310547e-2, 1.6781907e+1, -0.00000006335643, -26145.932, -0.061575457, 0.0, 0.0010709994, 0.00000008166171, 0.00000008166171, 0.0, 0.012207031, 0.011899831 
1.8310547e-2, 1.6793805e+1, -0.00000017200375, -26141.848, -0.2211381, 0.0, 0.00093067426, 0.0000016986378, 0.0000016986378, 0.0, 0.012207031, 0.011899876 
1.8310547e-2, 1.6805705e+1, -0.00000032198201, -26124.576, 0.40762863, 0.0, 0.00081140327, 0.0000060383536, 0.0000060383536, 0.0, 0.012207031, 0.011900072 
1.8310547e-2, 1.6817605e+1, -0.00000041195952, -26124.041, 0.5176274, 0.0, 0.00087267166, 0.000009844418, 0.000009844418, 0.0, 0.012207031, 0.0119000785 
1.8310547e-2, 1.6829506e+1, -0.0000008194633, -26107.76, -0.84897023, 0.0, 0.001000095, 0.000026787293, 0.000026787293, 0.0, 0.012207031, 0.011900263 
1.8310547e-2, 1.6841406e+1, -0.00000021889659, -26101.14, -0.24365935, 0.0, 0.0010169896, 0.000002055709, 0.000002055709, 0.0, 0.012207031, 0.011900337 
1.8310547e-2, 1.6853306e+1, -0.00000078467355, -26087.021, 0.75276184, 0.0, 0.00080025516, 0.00002093687, 0.00002093687, 0.0, 0.012207031, 0.011900497 
1.8310547e-2, 1.6865207e+1, -0.00000031977177, -26083.771, -0.39954036, 0.0, 0.00077470747, 0.0000058002224, 0.0000058002224, 0.0, 0.012207031, 0.011900534 
1.8310547e-2, 1.6877107e+1, -0.000000113523875, -26066.44, 0.074800655, 0.0, 0.0010988199, 0.000000101128535, 0.000000101128535, 0.0, 0.012207031, 0.01190073 
1.8310547e-2, 1.6889009e+1, -0.00000071077324, -26064.83, 0.7313857, 0.0, 0.0010014462, 0.000019812094, 0.000019812094, 0.0, 0.012207031, 0.011900748 
1.8310547e-2, 1.6900909e+1, -0.00000054050065, -26049.457, -0.66773397, 0.0, 0.00076501654, 0.000016575734, 0.000016575734, 0.0, 0.012207031, 0.011900922 
1.8310547e-2, 1.6912812e+1, -0.00000034087293, -26042.674, -0.36343214, 0.0, 0.0008933396, 0.000004730915, 0.000004730915, 0.0, 0.012207031, 0.011900999 
1.8310547e-2, 1.692471e+1, -0.00000041732233, -26028.002, 0.43396536, 0.0, 0.0009722904, 0.000006818187, 0.000006818187, 0.0, 0.012207031, 0.011901165 
1.8310547e-2, 1.6936614e+1, -0.0000005575156, -26025.172, 0.6207878, 0.0, 0.0009623093, 0.000014250356, 0.000014250356, 0.0, 0.012207031, 0.011901197 
1.8310547e-2, 1.6948515e+1, -0.0000005291651, -26012.67, -0.5457306, 0.0, 0.0009073465, 0.000010919943, 0.000010919943, 0.0, 0.012207031, 0.011901339 
1.8310547e-2, 1.6960415e+1, -0.0000034853265, -26003.357, -1.6811755, 0.0, 0.0007740387, 0.00010520643, 0.00010520643, 0.0, 0.012207031, 0.011901444 
1.8310547e-2, 1.6972317e+1, -0.0000018652714, -25987.725, 1.1949272, 0.0, 0.00095987774, 0.00005307802, 0.00005307802, 0.0, 0.012207031, 0.011901621 
1.8310547e-2, 1.6984218e+1, -0.0000030494855, -25986.762, 1.5834119, 0.0, 0.0011055241, 0.00009343016, 0.00009343016, 0.0, 0.012207031, 0.011901632 
1.8310547e-2, 1.699612e+1, -0.000002555685, -25974.08, -1.3825387, 0.0, 0.00082800625, 0.00007103357, 0.00007103357, 0.0, 0.012207031, 0.011901775 
1.8310547e-2, 1.7008023e+1, -0.0000005626087, -25961.945, -0.45293635, 0.0, 0.00071548787, 0.000007339393, 0.000007339393, 0.0, 0.012207031, 0.011901912 
1.8310547e-2, 1.7019925e+1, -0.00000023043341, -25954.217, -0.030375069, 0.0, 0.0010030789, -0.00000019488652, -0.00000019488652, 0.0, 0.012207031, 0.011902 
1.8310547e-2, 1.7031826e+1, -0.0000003871402, -25944.404, -0.31907752, 0.0, 0.0010929522, 0.0000035370394, 0.0000035370394, 0.0, 0.012207031, 0.011902111 
1.8310547e-2, 1.7043728e+1, -0.0000011542749, -25937.572, -0.9182078, 0.0, 0.000805981, 0.000031350908, 0.000031350908, 0.0, 0.012207031, 0.011902188 
1.8310547e-2, 1.7055629e+1, -0.00015940465, -25922.533, 12.886884, 0.0, 0.00081703125, 0.0062470576, 0.0062470576, 0.0, 0.012207031, 0.011902358 
1.8310547e-2, 1.7067534e+1, -0.00000049902906, -25914.361, 0.50002927, 0.0, 0.0010266866, 0.000009149258, 0.000009149258, 0.0, 0.012207031, 0.0119024515 
1.8310547e-2, 1.7079435e+1, -0.0000005805712, -25901.22, 0.6035979, 0.0, 0.0008558591, 0.000013485576, 0.000013485576, 0.0, 0.012207031, 0.0119026 
1.8310547e-2, 1.7091337e+1, -0.00000026329872, -25898.25, -0.22064295, 0.0, 0.00082843035, 0.0000016164922, 0.0000016164922, 0.0, 0.012207031, 0.011902633 
1.8310547e-2, 1.7103241e+1, -0.0000013883956, -25881.975, -1.0579923, 0.0, 0.0011271172, 0.00004185977, 0.00004185977, 0.0, 0.012207031, 0.0119028175 
1.8310547e-2, 1.7115143e+1, -0.00000031303625, -25877.295, 0.29174095, 0.0, 0.0008911662, 0.0000029760522, 0.0000029760522, 0.0, 0.012207031, 0.011902871 
1.8310547e-2, 1.7127046e+1, -0.0000009873935, -25861.232, 0.89962333, 0.0, 0.0007231062, 0.000030307405, 0.000030307405, 0.0, 0.012207031, 0.011903052 
1.8310547e-2, 1.713895e+1, -0.00000028543465, -25861.93, -0.06310606, 0.0, 0.0010225384, -0.00000013145109, -0.00000013145109, 0.0, 0.012207031, 0.011903045 
1.8310547e-2, 1.7150852e+1, -0.0000011777051, -25841.273, -0.97107583, 0.0, 0.0009609738, 0.00003531385, 0.00003531385, 0.0, 0.012207031, 0.0119032785 
1.8310547e-2, 1.7162757e+1, -0.00000043332574, -25839.297, 0.4889063, 0.0, 0.00080161035, 0.000008817286, 0.000008817286, 0.0, 0.012207031, 0.011903301 
1.8310547e-2, 1.717466e+1, -0.00000024313223, -25823.143, 0.22828464, 0.0, 0.0010611769, 0.0000017749735, 0.0000017749735, 0.0, 0.012207031, 0.011903483 
1.8310547e-2, 1.7186564e+1, -0.0000009352541, -25820.871, -0.75181514, 0.0, 0.000990808, 0.00002095502, 0.00002095502, 0.0, 0.012207031, 0.0119035095 
1.8310547e-2, 1.7198467e+1, -0.0000032082576, -25800.025, 1.5761973, 0.0, 0.0007286653, 0.00009308613, 0.00009308613, 0.0, 0.012207031, 0.011903745 
1.8310547e-2, 1.721037e+1, -0.0000007716833, -25804.225, 0.68142813, 0.0, 0.0008513241, 0.00001722321, 0.00001722321, 0.0, 0.012207031, 0.011903698 
1.8310547e-2, 1.7222275e+1, -0.00000024394842, -25778.451, -0.21021216, 0.0, 0.0011706444, 0.0000014702418, 0.0000014702418, 0.0, 0.012207031, 0.01190399 
1.8310547e-2, 1.7234178e+1, -0.00001829451, -25782.447, 4.521804, 0.0, 0.0010628484, 0.0007747531, 0.0007747531, 0.0, 0.012207031, 0.011903944 
1.8310547e-2, 1.7246082e+1, -0.00000859662, -25765.059, 3.3310196, 0.0, 0.00062130456, 0.00042205214, 0.00042205214, 0.0, 0.012207031, 0.011904142 
1.8310547e-2, 1.7257985e+1, -0.000004445851, -25764.396, -1.660339, 0.0, 0.0007484762, 0.00010255164, 0.00010255164, 0.0, 0.012207031, 0.011904149 
1.8310547e-2, 1.7269892e+1, -0.000003328599, -25738.701, 1.6241297, 0.0, 0.0013603134, 0.00009915509, 0.00009915509, 0.0, 0.012207031, 0.01190444 
1.8310547e-2, 1.7281796e+1, -0.000011764194, -25749.025, 2.8909972, 0.0, 0.0010515148, 0.00031282537, 0.00031282537, 0.0, 0.012207031, 0.0119043235 
1.8310547e-2, 1.7293699e+1, -0.0000025143818, -25722.06, -1.4248947, 0.0, 0.0005581021, 0.00007641883, 0.00007641883, 0.0, 0.012207031, 0.011904628 
1.8310547e-2, 1.7305605e+1, -0.0000009987597, -25723.51, -0.8630471, 0.0, 0.0009354693, 0.000027957252, 0.000027957252, 0.0, 0.012207031, 0.011904612 
1.8310547e-2, 1.7317508e+1, -0.0000012753752, -25702.893, 1.0179926, 0.0, 0.0011662836, 0.0000390434, 0.0000390434, 0.0, 0.012207031, 0.011904846 
1.8310547e-2, 1.7329414e+1, -0.00000069736586, -25707.13, 0.68944466, 0.0, 0.0008759679, 0.00001779299, 0.00001779299, 0.0, 0.012207031, 0.0119047975 
1.8310547e-2, 1.7341319e+1, -0.0000003578584, -25682.172, -0.45220008, 0.0, 0.0009040143, 0.000007604278, 0.000007604278, 0.0, 0.012207031, 0.011905081 
1.8310547e-2, 1.7353223e+1, -0.0000009291149, -25686.64, -0.7656141, 0.0, 0.0009966054, 0.000021890719, 0.000021890719, 0.0, 0.012207031, 0.011905029 
1.8310547e-2, 1.736513e+1, -0.0000014876774, -25664.219, 1.0429876, 0.0, 0.00089563505, 0.00004089908, 0.00004089908, 0.0, 0.012207031, 0.011905284 
1.8310547e-2, 1.7377035e+1, -0.0000008259784, -25664.895, 0.6964587, 0.0, 0.0009842181, 0.000018073562, 0.000018073562, 0.0, 0.012207031, 0.011905276 
1.8310547e-2, 1.7388938e+1, -0.0000009824591, -25642.877, 0.7424122, 0.0, 0.0009900546, 0.000020511849, 0.000020511849, 0.0, 0.012207031, 0.011905525 
1.8310547e-2, 1.7400844e+1, -0.00022988768, -25647.63, 15.480012, 0.0, 0.0007639032, 0.009113302, 0.009113302, 0.0, 0.012207031, 0.011905472 
1.8310547e-2, 1.741275e+1, -0.0000147829205, -25628.293, 4.2674546, 0.0, 0.0010103495, 0.0006958055, 0.0006958055, 0.0, 0.012207031, 0.011905691 
1.8310547e-2, 1.7424656e+1, -0.00000027036614, -25626.908, 0.28252417, 0.0, 0.0012068225, 0.0000028443246, 0.0000028443246, 0.0, 0.012207031, 0.0119057065 
1.8310547e-2, 1.7436561e+1, -0.0000006708154, -25608.53, -0.6595591, 0.0, 0.00078835664, 0.000016316426, 0.000016316426, 0.0, 0.012207031, 0.011905914 
1.8310547e-2, 1.7448469e+1, -0.0000028802908, -25605.133, 1.3314679, 0.0, 0.00069888035, 0.00006635608, 0.00006635608, 0.0, 0.012207031, 0.011905953 
1.8310547e-2, 1.7460375e+1, -0.0000007482798, -25589.861, 0.7127616, 0.0, 0.0011368513, 0.000019104464, 0.000019104464, 0.0, 0.012207031, 0.011906126 
1.8310547e-2, 1.747228e+1, -0.00000039355933, -25585.79, 0.40010002, 0.0, 0.0010843467, 0.0000058630358, 0.0000058630358, 0.0, 0.012207031, 0.011906172 
1.8310547e-2, 1.7484187e+1, -0.00000015965368, -25568.988, 0.06799647, 0.0, 0.00080670824, 0.000000021173037, 0.000000021173037, 0.0, 0.012207031, 0.011906362 
1.8310547e-2, 1.7496094e+1, -0.00000024864008, -25566.04, -0.13402276, 0.0, 0.00090670265, 0.00000045393608, 0.00000045393608, 0.0, 0.012207031, 0.011906396 
1.8310547e-2, 1.7508e+1, -0.0000002386805, -25551.959, -0.123485506, 0.0, 0.00093798013, 0.0000003580899, 0.0000003580899, 0.0, 0.012207031, 0.011906555 
1.8310547e-2, 1.7519908e+1, -0.00000024920752, -25545.33, -0.0958463, 0.0, 0.0010687329, 0.00000011040902, 0.00000011040902, 0.0, 0.012207031, 0.01190663 
1.8310547e-2, 1.7531812e+1, -0.00000021947729, -25531.334, 0.19829078, 0.0, 0.001068878, 0.0000013205608, 0.0000013205608, 0.0, 0.012207031, 0.011906789 
1.8310547e-2, 1.754372e+1, -0.00000015087171, -25525.576, 0.00020693181, 0.0, 0.0004978058, -0.00000015086698, -0.00000015086698, 0.0, 0.012207031, 0.011906854 
1.8310547e-2, 1.7555626e+1, -0.0000003360675, -25512.979, -0.293649, 0.0, 0.0008886033, 0.000003043766, 0.000003043766, 0.0, 0.012207031, 0.011906997 
1.8310547e-2, 1.7567533e+1, -0.00000424114, -25504.895, 1.6321063, 0.0, 0.0016354766, 0.00010020043, 0.00010020043, 0.0, 0.012207031, 0.011907089 
1.8310547e-2, 1.7579441e+1, -0.00000024698753, -25495.197, -0.08812101, 0.0, 0.00079635554, 0.000000057592842, 0.000000057592842, 0.0, 0.012207031, 0.0119071985 
1.8310547e-2, 1.7591348e+1, -0.00000044060334, -25482.494, 0.40883198, 0.0, 0.00035893868, 0.000006118553, 0.000006118553, 0.0, 0.012207031, 0.011907343 
1.8310547e-2, 1.7603256e+1, -0.0000007213826, -25477.646, 0.55695325, 0.0, 0.0011639312, 0.000011453874, 0.000011453874, 0.0, 0.012207031, 0.011907398 
1.8310547e-2, 1.7615163e+1, -0.0000033656754, -25464.95, -1.6366656, 0.0, 0.0012340387, 0.00010182496, 0.00010182496, 0.0, 0.012207031, 0.011907541 
1.8310547e-2, 1.7627071e+1, -0.000007875633, -25452.63, 2.3689106, 0.0, 0.00091756496, 0.00021260203, 0.00021260203, 0.0, 0.012207031, 0.011907681 
1.8310547e-2, 1.7638978e+1, -0.000012551213, -25445.701, 2.7889636, 0.0, 0.0006910061, 0.0002931318, 0.0002931318, 0.0, 0.012207031, 0.011907759 
1.8310547e-2, 1.7650886e+1, -0.000004485362, -25439.818, -1.6680361, 0.0, 0.00079189515, 0.0001048843, 0.0001048843, 0.0, 0.012207031, 0.011907826 
1.8310547e-2, 1.7662793e+1, -0.00000074493227, -25421.746, 0.5645029, 0.0, 0.0014291492, 0.000011790144, 0.000011790144, 0.0, 0.012207031, 0.011908031 
1.8310547e-2, 1.7674702e+1, -0.0000015195742, -25421.053, 1.0162262, 0.0, 0.0010669084, 0.000039104852, 0.000039104852, 0.0, 0.012207031, 0.0119080385 
1.8310547e-2, 1.768661e+1, -0.0000040716745, -25403.082, -1.6560154, 0.0, 0.00037529197, 0.00010388321, 0.00010388321, 0.0, 0.012207031, 0.0119082425 
1.8310547e-2, 1.7698519e+1, -0.0000023757475, -25398.232, 1.2782468, 0.0, 0.000984972, 0.00006195608, 0.00006195608, 0.0, 0.012207031, 0.011908297 
1.8310547e-2, 1.7710426e+1, -0.000000578349, -25387.217, -0.6110528, 0.0, 0.0013488868, 0.000014129273, 0.000014129273, 0.0, 0.012207031, 0.011908422 
1.8310547e-2, 1.7722335e+1, -0.0000007272067, -25375.906, -0.6444339, 0.0, 0.00091906684, 0.000015638518, 0.000015638518, 0.0, 0.012207031, 0.011908551 
1.8310547e-2, 1.7734243e+1, -0.0000015628448, -25367.3, 1.0878689, 0.0, 0.0007419743, 0.00004509008, 0.00004509008, 0.0, 0.012207031, 0.011908649 
1.8310547e-2, 1.7746153e+1, -0.0000021789622, -25360.303, -1.1814876, 0.0, 0.0009495476, 0.00005286426, 0.00005286426, 0.0, 0.012207031, 0.011908728 
1.8310547e-2, 1.7758062e+1, -0.000012924353, -25344.684, 2.8207948, 0.0, 0.0011074803, 0.0003010225, 0.0003010225, 0.0, 0.012207031, 0.011908905 
1.8310547e-2, 1.776997e+1, -0.0000012735238, -25336.893, 0.918242, 0.0, 0.0009993939, 0.000032004762, 0.000032004762, 0.0, 0.012207031, 0.011908993 
1.8310547e-2, 1.7781879e+1, -0.000010293714, -25317.643, 3.1247318, 0.0, 0.00081684, 0.0003753642, 0.0003753642, 0.0, 0.012207031, 0.011909211 
1.8310547e-2, 1.779379e+1, -0.0003598139, -25321.848, 19.362232, 0.0, 0.0010538155, 0.014445418, 0.014445418, 0.0, 0.012207031, 0.011909164 
1.8310547e-2, 1.7805699e+1, -0.00010349085, -25317.523, 10.392969, 0.0, 0.0010059393, 0.0041628736, 0.0041628736, 0.0, 0.012207031, 0.011909213 
1.8310547e-2, 1.7817608e+1, -0.000013333486, -25299.9, -3.761637, 0.0, 0.00073812343, 0.0005459538, 0.0005459538, 0.0, 0.012207031, 0.011909412 
1.8310547e-2, 1.7829518e+1, -0.0000055947435, -25285.787, 2.044012, 0.0, 0.0011498913, 0.00015963583, 0.00015963583, 0.0, 0.012207031, 0.011909572 
1.8310547e-2, 1.7841427e+1, -0.00002316272, -25285.09, 4.979153, 0.0, 0.0011955373, 0.00095733465, 0.00095733465, 0.0, 0.012207031, 0.011909581 
1.8310547e-2, 1.7853336e+1, -0.0000091248685, -25272.375, -2.4502137, 0.0, 0.00069054414, 0.00022842886, 0.00022842886, 0.0, 0.012207031, 0.011909724 
1.8310547e-2, 1.7865247e+1, -0.0000029012233, -25255.457, -1.4554722, 0.0, 0.00088371313, 0.00008097766, 0.00008097766, 0.0, 0.012207031, 0.011909916 
1.8310547e-2, 1.7877156e+1, -0.0000038753305, -25250.516, 1.5898515, 0.0, 0.0011117535, 0.00009622669, 0.00009622669, 0.0, 0.012207031, 0.011909973 
1.8310547e-2, 1.7889066e+1, -0.00000087091945, -25242.371, -0.69146067, 0.0, 0.0011352339, 0.00001807016, 0.00001807016, 0.0, 0.012207031, 0.011910065 
1.8310547e-2, 1.7900977e+1, -0.0000005077094, -25228.75, 0.44080555, 0.0, 0.00087532896, 0.0000071941977, 0.0000071941977, 0.0, 0.012207031, 0.01191022 
1.8310547e-2, 1.7912886e+1, -0.00000026973603, -25224.266, -0.0137115065, 0.0, 0.0007194709, -0.00000026228372, -0.00000026228372, 0.0, 0.012207031, 0.01191027 
1.8310547e-2, 1.7924798e+1, -0.0000003130367, -25207.97, -0.12150535, 0.0, 0.0011927192, 0.00000027263013, 0.00000027263013, 0.0, 0.012207031, 0.011910455 
1.8310547e-2, 1.7936707e+1, -0.00000173287, -25203.88, 1.0958226, 0.0, 0.0010861882, 0.00004591166, 0.00004591166, 0.0, 0.012207031, 0.011910502 
1.8310547e-2, 1.7948619e+1, -0.0000025190573, -25191.598, -1.3139372, 0.0, 0.0007755323, 0.00006601296, 0.00006601296, 0.0, 0.012207031, 0.011910641 
1.8310547e-2, 1.7960528e+1, -0.00000067978084, -25181.566, 0.6250981, 0.0, 0.001112275, 0.000014837427, 0.000014837427, 0.0, 0.012207031, 0.011910754 
1.8310547e-2, 1.797244e+1, -0.0000023877765, -25173.986, 1.1101176, 0.0, 0.0009323195, 0.000046565976, 0.000046565976, 0.0, 0.012207031, 0.011910841 
1.8310547e-2, 1.798435e+1, -0.00000637855, -25162.014, -2.0975442, 0.0, 0.0009263893, 0.00016847596, 0.00016847596, 0.0, 0.012207031, 0.011910976 
1.8310547e-2, 1.7996262e+1, -0.0000028500565, -25150.527, 1.3695377, 0.0, 0.0011057049, 0.00007172626, 0.00007172626, 0.0, 0.012207031, 0.011911106 
1.8310547e-2, 1.8008173e+1, -0.00000044984472, -25146.23, 0.09302633, 0.0, 0.0007947968, -0.000000105701474, -0.000000105701474, 0.0, 0.012207031, 0.011911156 
1.8310547e-2, 1.8020085e+1, -0.0000003001291, -25130.453, -0.052646305, 0.0, 0.00103815, -0.00000018984065, -0.00000018984065, 0.0, 0.012207031, 0.0119113345 
1.8310547e-2, 1.8031996e+1, -0.0000005236202, -25126.71, 0.09224839, 0.0, 0.0010862392, -0.00000018494757, -0.00000018494757, 0.0, 0.012207031, 0.011911376 
1.8310547e-2, 1.8043907e+1, -0.0000033943859, -25110.45, -1.4919455, 0.0, 0.0008827984, 0.00008525004, 0.00008525004, 0.0, 0.012207031, 0.011911562 
1.8310547e-2, 1.8055819e+1, -0.000015754427, -25101.914, 3.8449903, 0.0, 0.0010107069, 0.0005732027, 0.0005732027, 0.0, 0.012207031, 0.011911659 
1.8310547e-2, 1.806773e+1, -0.0000021897458, -25102.71, -1.0644937, 0.0, 0.00088859396, 0.000042950673, 0.000042950673, 0.0, 0.012207031, 0.011911649 
1.8310547e-2, 1.8079641e+1, -0.000011829772, -25079.115, -2.763107, 0.0, 0.001120632, 0.00029259725, 0.00029259725, 0.0, 0.012207031, 0.011911917 
1.8310547e-2, 1.8091553e+1, -0.000009731284, -25073.268, 2.6070817, 0.0, 0.0011069414, 0.00026134923, 0.00026134923, 0.0, 0.012207031, 0.011911983 
1.8310547e-2, 1.8103465e+1, -0.000010888158, -25065.441, -2.9316761, 0.0, 0.00060653704, 0.00033200328, 0.00033200328, 0.0, 0.012207031, 0.011912072 
1.8310547e-2, 1.8115377e+1, -0.000000899466, -25059.473, 0.75594485, 0.0, 0.0010090641, 0.00002190439, 0.00002190439, 0.0, 0.012207031, 0.01191214 
1.8310547e-2, 1.812729e+1, -0.00002720029, -25059.283, -5.45226, 0.0, 0.0013096064, 0.0011590723, 0.0011590723, 0.0, 0.012207031, 0.011912142 
1.8310547e-2, 1.8139201e+1, -0.0019888466, -25027.719, 45.51282, 0.0, 0.0009206568, 0.0807758, 0.0807758, 0.0, 0.012207031, 0.0119125 
1.8310547e-2, 1.8151113e+1, -0.000033016357, -25018.193, -5.7069964, 0.0, 0.00076022476, 0.0012688285, 0.0012688285, 0.0, 0.012207031, 0.0119126085 
1.8310547e-2, 1.8163027e+1, -0.0000027302106, -25013.111, 1.316327, 0.0, 0.0011251784, 0.000066542125, 0.000066542125, 0.0, 0.012207031, 0.011912665 
1.8310547e-2, 1.817494e+1, -0.000008909696, -24994.164, 3.3914025, 0.0, 0.0009954682, 0.00045126214, 0.00045126214, 0.0, 0.012207031, 0.01191288 
1.8310547e-2, 1.8186854e+1, -0.0002093406, -24999.346, 14.764463, 0.0, 0.000804898, 0.00851046, 0.00851046, 0.0, 0.012207031, 0.011912822 
1.8310547e-2, 1.8198764e+1, -0.0001141371, -24997.984, 10.885995, 0.0, 0.00121392, 0.00462644, 0.00462644, 0.0, 0.012207031, 0.011912838 
1.8310547e-2, 1.8210678e+1, -0.00001045571, -24972.094, -2.4779835, 0.0, 0.0011533793, 0.00023543483, 0.00023543483, 0.0, 0.012207031, 0.011913131 
1.8310547e-2, 1.8222591e+1, -0.00000019984651, -24970.424, 0.10237799, 0.0, 0.0006264601, 0.00000021990127, 0.00000021990127, 0.0, 0.012207031, 0.011913151 
1.8310547e-2, 1.8234505e+1, -0.0000025719396, -24958.68, 1.345831, 0.0, 0.0009164705, 0.00006999845, 0.00006999845, 0.0, 0.012207031, 0.011913284 
1.8310547e-2, 1.8246418e+1, -0.0000001528917, -24948.7, -0.08438527, 0.0, 0.0013186989, 0.00000013252793, 0.00000013252793, 0.0, 0.012207031, 0.011913396 
1.8310547e-2, 1.8258332e+1, -0.00000020520382, -24934.24, -0.024830958, 0.0, 0.001005526, -0.00000018047649, -0.00000018047649, 0.0, 0.012207031, 0.011913561 
1.8310547e-2, 1.8270245e+1, -0.00000036960319, -24930.926, -0.3468392, 0.0, 0.0007629559, 0.0000044556255, 0.0000044556255, 0.0, 0.012207031, 0.0119135985 
1.8310547e-2, 1.828216e+1, -0.00000019984282, -24915.936, -0.25619617, 0.0, 0.0011234094, 0.0000024344736, 0.0000024344736, 0.0, 0.012207031, 0.011913769 
1.8310547e-2, 1.8294074e+1, -0.0000003226013, -24911.676, 0.36569586, 0.0, 0.0009961827, 0.0000050457056, 0.0000050457056, 0.0, 0.012207031, 0.011913817 
1.8310547e-2, 1.8305987e+1, -0.00000020862176, -24896.13, 0.31778836, 0.0, 0.00087043835, 0.0000038478065, 0.0000038478065, 0.0, 0.012207031, 0.011913993 
1.8310547e-2, 1.8317902e+1, -0.0000001919081, -24891.467, -0.035279162, 0.0, 0.0011354305, -0.00000014190664, -0.00000014190664, 0.0, 0.012207031, 0.0119140465 
1.8310547e-2, 1.8329816e+1, -0.0000002760452, -24876.639, -0.26190653, 0.0, 0.0010179101, 0.0000024813635, 0.0000024813635, 0.0, 0.012207031, 0.011914215 
1.8310547e-2, 1.8341728e+1, -0.00000041104596, -24872.879, 0.4824226, 0.0, 0.00088667136, 0.000008945797, 0.000008945797, 0.0, 0.012207031, 0.011914258 
1.8310547e-2, 1.8353644e+1, -0.000000303064, -24855.592, 0.31940702, 0.0, 0.001094664, 0.0000038014805, 0.0000038014805, 0.0, 0.012207031, 0.0119144535 
1.8310547e-2, 1.8365559e+1, -0.0000012280374, -24855.137, -0.8969559, 0.0, 0.0009483261, 0.00003114072, 0.00003114072, 0.0, 0.012207031, 0.011914459 
1.8310547e-2, 1.8377472e+1, -0.00000031473616, -24835.32, 0.43644258, 0.0, 0.00097383506, 0.000007355069, 0.000007355069, 0.0, 0.012207031, 0.0119146835 
1.8310547e-2, 1.8389387e+1, -0.00000073356136, -24837.055, 0.5063602, 0.0, 0.0010534192, 0.0000095897485, 0.0000095897485, 0.0, 0.012207031, 0.011914664 
1.8310547e-2, 1.8401302e+1, -0.0000025972258, -24814.383, -1.393019, 0.0, 0.0009552572, 0.00007560347, 0.00007560347, 0.0, 0.012207031, 0.011914922 
1.8310547e-2, 1.8413217e+1, -0.0000028822458, -24813.275, 1.4579899, 0.0, 0.0010221001, 0.000082787, 0.000082787, 0.0, 0.012207031, 0.011914934 
1.8310547e-2, 1.8425132e+1, -0.0000078262, -24797.994, 2.2441669, 0.0, 0.000995902, 0.00019526621, 0.00019526621, 0.0, 0.012207031, 0.011915108 
1.8310547e-2, 1.8437047e+1, -0.00000047274025, -24796.508, -0.4941662, 0.0, 0.0009326232, 0.000009375432, 0.000009375432, 0.0, 0.012207031, 0.011915125 
1.8310547e-2, 1.8448964e+1, -0.000001013971, -24775.8, 0.8364269, 0.0, 0.0011477147, 0.000027223661, 0.000027223661, 0.0, 0.012207031, 0.01191536 
1.8310547e-2, 1.8460879e+1, -0.00000031538735, -24779.537, -0.080248095, 0.0, 0.0009711807, -0.000000055504643, -0.000000055504643, 0.0, 0.012207031, 0.011915318 
1.8310547e-2, 1.8472794e+1, -0.0000025714273, -24755.383, -1.3911674, 0.0, 0.000807593, 0.0000756074, 0.0000756074, 0.0, 0.012207031, 0.011915592 
1.8310547e-2, 1.8484709e+1, -0.0000010123875, -24755.76, 0.8043198, 0.0, 0.001075788, 0.00002512013, 0.00002512013, 0.0, 0.012207031, 0.011915587 
1.8310547e-2, 1.8496624e+1, -0.0000002893122, -24740.152, 0.100517295, 0.0, 0.0011638881, 0.00000011908196, 0.00000011908196, 0.0, 0.012207031, 0.011915765 
1.8310547e-2, 1.8508542e+1, -0.00000023278716, -24736.441, 0.11647127, 0.0, 0.0009238231, 0.0000003156165, 0.0000003156165, 0.0, 0.012207031, 0.011915807 
1.8310547e-2, 1.8520457e+1, -0.0000010982466, -24717.531, 0.92022693, 0.0, 0.000870471, 0.000033161552, 0.000033161552, 0.0, 0.012207031, 0.011916022 
1.8310547e-2, 1.8532372e+1, -0.00000053586757, -24718.537, -0.47248995, 0.0, 0.0010232442, 0.000008495685, 0.000008495685, 0.0, 0.012207031, 0.01191601 
1.8310547e-2, 1.8544288e+1, -0.0000017114779, -24700.021, -1.1668873, 0.0, 0.0011542859, 0.00005341503, 0.00005341503, 0.0, 0.012207031, 0.01191622 
1.8310547e-2, 1.8556204e+1, -0.000000558779, -24694.768, -0.38633665, 0.0, 0.0010057898, 0.0000054852535, 0.0000054852535, 0.0, 0.012207031, 0.01191628 
1.8310547e-2, 1.8568121e+1, -0.0000011067116, -24683.688, 0.91256076, 0.0, 0.0007886889, 0.00003263084, 0.00003263084, 0.0, 0.012207031, 0.0119164055 
1.8310547e-2, 1.8580037e+1, -0.000010446825, -24682.418, -2.6200347, 0.0, 0.0010169476, 0.00026766947, 0.00026766947, 0.0, 0.012207031, 0.01191642 
1.8310547e-2, 1.8591954e+1, -0.00043344047, -24659.137, 21.241318, 0.0, 0.0012310045, 0.017863763, 0.017863763, 0.0, 0.012207031, 0.011916685 
1.8310547e-2, 1.860387e+1, -0.000015636093, -24653.127, -3.8303552, 0.0, 0.00094772223, 0.00057948596, 0.00057948596, 0.0, 0.012207031, 0.011916753 
1.8310547e-2, 1.8615788e+1, -0.0000007405097, -24643.809, 0.55642426, 0.0, 0.00086230563, 0.000011822802, 0.000011822802, 0.0, 0.012207031, 0.011916859 
1.8310547e-2, 1.8627705e+1, -0.00000025712558, -24634.762, -0.17214811, 0.0, 0.0010215095, 0.000000945849, 0.000000945849, 0.0, 0.012207031, 0.0119169615 
1.8310547e-2, 1.8639621e+1, -0.0000004636479, -24623.299, -0.10543678, 0.0, 0.0011179625, -0.000000012169039, -0.000000012169039, 0.0, 0.012207031, 0.011917092 
1.8310547e-2, 1.8651539e+1, -0.00000080404214, -24618.172, 0.67731786, 0.0, 0.0010944066, 0.000017830953, 0.000017830953, 0.0, 0.012207031, 0.011917151 
1.8310547e-2, 1.8663456e+1, -0.0000014462288, -24605.986, -1.0640601, 0.0, 0.0008001116, 0.000044567936, 0.000044567936, 0.0, 0.012207031, 0.011917288 
1.8310547e-2, 1.8675373e+1, -0.00000079014916, -24593.896, -0.6248855, 0.0, 0.0008793925, 0.000015087036, 0.000015087036, 0.0, 0.012207031, 0.011917426 
1.8310547e-2, 1.868729e+1, -0.000003617242, -24587.365, 1.639345, 0.0, 0.0013454311, 0.000105684914, 0.000105684914, 0.0, 0.012207031, 0.0119175 
1.8310547e-2, 1.8699208e+1, -0.00000021176523, -24577.14, 0.022316266, 0.0, 0.0011936543, -0.0000001915032, -0.0000001915032, 0.0, 0.012207031, 0.011917616 
1.8310547e-2, 1.8711126e+1, -0.0000005326015, -24565.445, -0.4330378, 0.0, 0.0005728726, 0.0000071009563, 0.0000071009563, 0.0, 0.012207031, 0.011917749 
1.8310547e-2, 1.8723044e+1, -0.00000060313516, -24556.7, 0.5852772, 0.0, 0.0007651989, 0.000013346191, 0.000013346191, 0.0, 0.012207031, 0.011917849 
1.8310547e-2, 1.873496e+1, -0.0000014790702, -24550.23, -1.0699823, 0.0, 0.0015780941, 0.000045154386, 0.000045154386, 0.0, 0.012207031, 0.011917922 
1.8310547e-2, 1.874688e+1, -0.00000030785299, -24534.244, -0.112571634, 0.0, 0.001331534, 0.00000020866355, 0.00000020866355, 0.0, 0.012207031, 0.011918104 
1.8310547e-2, 1.8758796e+1, -0.0000012002613, -24530.416, 0.9130237, 0.0, 0.00033204956, 0.000032782544, 0.000032782544, 0.0, 0.012207031, 0.011918147 
1.8310547e-2, 1.8770716e+1, -0.0000005189318, -24515.979, 0.51469225, 0.0, 0.00078611885, 0.000010286596, 0.000010286596, 0.0, 0.012207031, 0.011918311 
1.8310547e-2, 1.8782635e+1, -0.00000073896905, -24509.291, 0.62913305, 0.0, 0.001642135, 0.000015410355, 0.000015410355, 0.0, 0.012207031, 0.011918387 
1.8310547e-2, 1.8794551e+1, -0.00000033868537, -24496.496, 0.265365, 0.0, 0.0011408434, 0.000002535955, 0.000002535955, 0.0, 0.012207031, 0.011918533 
1.8310547e-2, 1.8806471e+1, -0.0000011647112, -24493.047, -0.9153423, 0.0, 0.0006106815, 0.00003304302, 0.00003304302, 0.0, 0.012207031, 0.011918572 
1.8310547e-2, 1.881839e+1, -0.00000044222753, -24474.35, 0.25199398, 0.0, 0.0008827242, 0.0000021523629, 0.0000021523629, 0.0, 0.012207031, 0.011918784 
1.8310547e-2, 1.8830308e+1, -0.0000004669399, -24472.75, 0.47275075, 0.0, 0.0012686644, 0.000008665393, 0.000008665393, 0.0, 0.012207031, 0.011918803 
1.8310547e-2, 1.8842228e+1, -0.00000042027628, -24455.486, 0.42800865, 0.0, 0.0012767628, 0.000007070532, 0.000007070532, 0.0, 0.012207031, 0.011918999 
1.8310547e-2, 1.8854147e+1, -0.00000074898367, -24455.863, -0.69768876, 0.0, 0.0007275494, 0.00001915502, 0.00001915502, 0.0, 0.012207031, 0.011918995 
1.8310547e-2, 1.8866067e+1, -0.00000032743893, -24433.457, -0.2920423, 0.0, 0.00077229954, 0.0000031632117, 0.0000031632117, 0.0, 0.012207031, 0.011919249 
1.8310547e-2, 1.8877985e+1, -0.0000010191595, -24435.297, 0.732174, 0.0, 0.0013016863, 0.000020919546, 0.000020919546, 0.0, 0.012207031, 0.011919228 
1.8310547e-2, 1.8889904e+1, -0.0000018653811, -24415.396, -1.0971285, 0.0, 0.0011851422, 0.000047435107, 0.000047435107, 0.0, 0.012207031, 0.011919455 
1.8310547e-2, 1.8901823e+1, -0.0000011457837, -24413.426, 0.8634141, 0.0, 0.000820404, 0.000029390034, 0.000029390034, 0.0, 0.012207031, 0.011919477 
1.8310547e-2, 1.8913744e+1, -0.000000577604, -24397.395, 0.4463909, 0.0, 0.00087553007, 0.000007589857, 0.000007589857, 0.0, 0.012207031, 0.01191966 
1.8310547e-2, 1.8925662e+1, -0.00013599182, -24394.143, 11.889063, 0.0, 0.0011550032, 0.005658423, 0.005658423, 0.0, 0.012207031, 0.011919696 
1.8310547e-2, 1.8937582e+1, -0.00002350301, -24377.238, 5.1356745, 0.0, 0.0011084453, 0.0010584551, 0.0010584551, 0.0, 0.012207031, 0.011919889 
1.8310547e-2, 1.8949503e+1, -0.0000024221706, -24375.875, -1.3505961, 0.0, 0.0008577543, 0.00007241042, 0.00007241042, 0.0, 0.012207031, 0.011919904 
1.8310547e-2, 1.8961422e+1, -0.0000030261035, -24347.396, 1.341536, 0.0, 0.0011163596, 0.00007089223, 0.00007089223, 0.0, 0.012207031, 0.011920228 
1.8310547e-2, 1.8973343e+1, -0.0006832432, -24358.637, 26.661018, 0.0, 0.0011024434, 0.028497742, 0.028497742, 0.0, 0.012207031, 0.0119201 
1.8310547e-2, 1.8985264e+1, -0.00010548114, -24345.453, 10.494467, 0.0, 0.0007003453, 0.0044183126, 0.0044183126, 0.0, 0.012207031, 0.01192025 
1.8310547e-2, 1.8997183e+1, -0.000011686206, -24335.084, -2.7066166, 0.0, 0.0010351173, 0.00028935127, 0.00028935127, 0.0, 0.012207031, 0.011920367 
1.8310547e-2, 1.9009104e+1, -0.0000011694387, -24320.18, 0.85827225, 0.0, 0.0014580775, 0.000029119452, 0.000029119452, 0.0, 0.012207031, 0.011920537 
1.8310547e-2, 1.9021025e+1, -0.0000019061175, -24318.508, 1.0283794, 0.0, 0.0008504445, 0.00004158192, 0.00004158192, 0.0, 0.012207031, 0.011920556 
1.8310547e-2, 1.9032946e+1, -0.0000031726247, -24297.705, -1.5090779, 0.0, 0.00067666103, 0.000090552945, 0.000090552945, 0.0, 0.012207031, 0.011920793 
1.8310547e-2, 1.9044867e+1, -0.00000043923365, -24296.27, 0.39802197, 0.0, 0.0012462855, 0.000006081169, 0.000006081169, 0.0, 0.012207031, 0.011920809 
1.8310547e-2, 1.9056788e+1, -0.0000004778357, -24281.7, 0.527175, 0.0, 0.0010837849, 0.000010967557, 0.000010967557, 0.0, 0.012207031, 0.011920975 
1.8310547e-2, 1.9068709e+1, -0.0000003937987, -24275.043, -0.36649844, 0.0, 0.00087821943, 0.0000051395, 0.0000051395, 0.0, 0.012207031, 0.01192105 
1.8310547e-2, 1.908063e+1, -0.0000004790586, -24261.951, 0.49711815, 0.0, 0.0011631467, 0.000009706702, 0.000009706702, 0.0, 0.012207031, 0.011921199 
1.8310547e-2, 1.9092551e+1, -0.0000018534788, -24257.217, 1.1370465, 0.0, 0.0010090213, 0.000051445077, 0.000051445077, 0.0, 0.012207031, 0.011921253 
1.8310547e-2, 1.9104472e+1, -0.00000013626382, -24241.336, -0.03605201, 0.0, 0.00091655436, -0.0000000826476, -0.0000000826476, 0.0, 0.012207031, 0.011921434 
1.8310547e-2, 1.9116393e+1, -0.0000006418844, -24237.291, 0.6013386, 0.0, 0.001081424, 0.000014277612, 0.000014277612, 0.0, 0.012207031, 0.011921479 
1.8310547e-2, 1.9128315e+1, -0.00000043570756, -24223.82, -0.4787809, 0.0, 0.0010542821, 0.000009027339, 0.000009027339, 0.0, 0.012207031, 0.011921633 
1.8310547e-2, 1.9140236e+1, -0.00000020780408, -24214.549, 0.13157365, 0.0, 0.0010276248, 0.00000050712333, 0.00000050712333, 0.0, 0.012207031, 0.011921738 
1.8310547e-2, 1.9152158e+1, -0.00000039812036, -24205.443, 0.43962106, 0.0, 0.0010204645, 0.0000075863136, 0.0000075863136, 0.0, 0.012207031, 0.011921842 
1.8310547e-2, 1.916408e+1, -0.0000006519286, -24196.486, -0.54831564, 0.0, 0.0009958141, 0.000011773431, 0.000011773431, 0.0, 0.012207031, 0.011921944 
1.8310547e-2, 1.9176002e+1, -0.00000078510413, -24185.871, 0.6733131, 0.0, 0.0011118314, 0.000017959333, 0.000017959333, 0.0, 0.012207031, 0.011922064 
1.8310547e-2, 1.9187923e+1, -0.00000042156213, -24176.25, 0.33528775, 0.0, 0.0010752818, 0.000004228368, 0.000004228368, 0.0, 0.012207031, 0.011922174 
1.8310547e-2, 1.9199847e+1, -0.0000003148, -24162.951, 0.32193857, 0.0, 0.0009426483, 0.0000039745937, 0.0000039745937, 0.0, 0.012207031, 0.011922325 
1.8310547e-2, 1.9211769e+1, -0.0000033655788, -24158.656, 1.5284005, 0.0, 0.001026919, 0.000093328876, 0.000093328876, 0.0, 0.012207031, 0.011922374 
1.8310547e-2, 1.9223692e+1, -0.00000038436698, -24149.037, -0.17915459, 0.0, 0.0011554484, 0.0000009447285, 0.0000009447285, 0.0, 0.012207031, 0.011922483 
1.8310547e-2, 1.9235612e+1, -0.0000006068134, -24135.125, -0.5898358, 0.0, 0.0009953346, 0.000013808123, 0.000013808123, 0.0, 0.012207031, 0.011922642 
1.8310547e-2, 1.9247536e+1, -0.0000014640472, -24126.56, 1.1013398, 0.0, 0.0010249051, 0.0000488104, 0.0000488104, 0.0, 0.012207031, 0.011922739 
1.8310547e-2, 1.9259459e+1, -0.00000036493233, -24120.758, 0.064343184, 0.0, 0.0011753164, -0.00000019329309, -0.00000019329309, 0.0, 0.012207031, 0.011922806 
1.8310547e-2, 1.9271381e+1, -0.000015598614, -24107.717, 4.1941423, 0.0, 0.00094220886, 0.00071407773, 0.00071407773, 0.0, 0.012207031, 0.011922954 
1.8310547e-2, 1.9283304e+1, -0.000004686264, -24095.475, -1.7893198, 0.0, 0.0009135035, 0.00012818785, 0.00012818785, 0.0, 0.012207031, 0.011923093 
1.8310547e-2, 1.9295229e+1, -0.0000019706702, -24088.04, 1.1743035, 0.0, 0.001264744, 0.000055277185, 0.000055277185, 0.0, 0.012207031, 0.011923177 
1.8310547e-2, 1.9307151e+1, -0.00000031759032, -24079.863, -0.2937105, 0.0, 0.0011229591, 0.0000032649004, 0.0000032649004, 0.0, 0.012207031, 0.01192327 
1.8310547e-2, 1.9319075e+1, -0.00000017797862, -24066.137, -0.019418137, 0.0, 0.00088865164, -0.00000016230842, -0.00000016230842, 0.0, 0.012207031, 0.011923427 
1.8310547e-2, 1.9330998e+1, -0.00000052197765, -24060.604, 0.56230175, 0.0, 0.0009976052, 0.000012619144, 0.000012619144, 0.0, 0.012207031, 0.01192349 
1.8310547e-2, 1.9342922e+1, -0.0000043612054, -24047.686, -1.6828411, 0.0, 0.0011823567, 0.00011340289, 0.00011340289, 0.0, 0.012207031, 0.011923637 
1.8310547e-2, 1.9354846e+1, -0.00000039434263, -24042.43, 0.19822821, 0.0, 0.0010665143, 0.0000012400378, 0.0000012400378, 0.0, 0.012207031, 0.011923697 
1.8310547e-2, 1.936677e+1, -0.000011076817, -24033.506, -2.5660148, 0.0, 0.00097107084, 0.000262892, 0.000262892, 0.0, 0.012207031, 0.011923798 
1.8310547e-2, 1.9378692e+1, -0.0005279425, -24018.332, 23.430063, 0.0, 0.0011068019, 0.02232824, 0.02232824, 0.0, 0.012207031, 0.011923971 
1.8310547e-2, 1.9390617e+1, -0.000020967907, -24006.246, -4.941883, 0.0, 0.001049211, 0.0009963593, 0.0009963593, 0.0, 0.012207031, 0.0119241085 
1.8310547e-2, 1.9402543e+1, -0.00000045242737, -24002.127, -0.07097671, 0.0, 0.0009846354, -0.0000002425404, -0.0000002425404, 0.0, 0.012207031, 0.011924155 
1.8310547e-2, 1.9414465e+1, -0.0000013499522, -23983.975, 0.987484, 0.0, 0.0011329565, 0.00003930739, 0.00003930739, 0.0, 0.012207031, 0.011924362 
1.8310547e-2, 1.9426389e+1, -0.0000005904294, -23985.145, 0.4207201, 0.0, 0.0009881388, 0.0000067893634, 0.0000067893634, 0.0, 0.012207031, 0.011924349 
1.8310547e-2, 1.9438314e+1, -0.0000020874452, -23972.03, -1.2576333, 0.0, 0.0010109, 0.00006389117, 0.00006389117, 0.0, 0.012207031, 0.011924498 
1.8310547e-2, 1.945024e+1, -0.0000006344768, -23961.113, -0.47490066, 0.0, 0.0012194207, 0.000008777883, 0.000008777883, 0.0, 0.012207031, 0.011924622 
1.8310547e-2, 1.9462164e+1, -0.00000051169997, -23948.676, 0.5538088, 0.0, 0.0010037316, 0.00001229503, 0.00001229503, 0.0, 0.012207031, 0.011924763 
1.8310547e-2, 1.9474089e+1, -0.0000003325837, -23944.842, 0.38072282, 0.0, 0.00082169566, 0.000005720907, 0.000005720907, 0.0, 0.012207031, 0.011924807 
1.8310547e-2, 1.9486013e+1, -0.0000006042637, -23930.666, 0.48954332, 0.0, 0.0011798354, 0.000009410192, 0.000009410192, 0.0, 0.012207031, 0.011924969 
1.8310547e-2, 1.9497938e+1, -0.00000027962352, -23923.7, 0.2407588, 0.0, 0.0011710656, 0.0000021432788, 0.0000021432788, 0.0, 0.012207031, 0.011925048 
1.8310547e-2, 1.9509862e+1, -0.00000017366126, -23910.857, -0.09312029, 0.0, 0.0008994422, 0.000000188993, 0.000000188993, 0.0, 0.012207031, 0.011925194 
1.8310547e-2, 1.9521789e+1, -0.0000002248085, -23904.55, -0.19112411, 0.0, 0.0011035529, 0.0000013032841, 0.0000013032841, 0.0, 0.012207031, 0.011925266 
1.8310547e-2, 1.9533715e+1, -0.00000021043134, -23890.855, 0.02293093, 0.0, 0.0011362222, -0.00000018842184, -0.00000018842184, 0.0, 0.012207031, 0.011925422 
1.8310547e-2, 1.9545639e+1, -0.00000027256092, -23885.025, 0.19878182, 0.0, 0.0008235103, 0.0000013817917, 0.0000013817917, 0.0, 0.012207031, 0.011925488 
1.8310547e-2, 1.9557565e+1, -0.0000010239715, -23872.67, 0.7887658, 0.0, 0.0010646207, 0.000025037272, 0.000025037272, 0.0, 0.012207031, 0.011925629 
1.8310547e-2, 1.9569491e+1, -0.00000038910147, -23866.064, -0.34752384, 0.0, 0.0013049598, 0.0000046713394, 0.0000046713394, 0.0, 0.012207031, 0.011925704 
1.8310547e-2, 1.9581418e+1, -0.00000025364554, -23850.123, -0.013223569, 0.0, 0.0009842025, -0.00000024631663, -0.00000024631663, 0.0, 0.012207031, 0.011925885 
1.8310547e-2, 1.9593342e+1, -0.0000017055745, -23845.738, 1.1617393, 0.0, 0.0008585692, 0.000054893142, 0.000054893142, 0.0, 0.012207031, 0.011925936 
1.8310547e-2, 1.9605269e+1, -0.00000028696087, -23835.473, -0.18783775, 0.0, 0.0011203315, 0.0000011933153, 0.0000011933153, 0.0, 0.012207031, 0.011926052 
1.8310547e-2, 1.9617195e+1, -0.00000024972002, -23823.723, -0.23635317, 0.0, 0.001182443, 0.0000020951193, 0.0000020951193, 0.0, 0.012207031, 0.011926186 
1.8310547e-2, 1.9629122e+1, -0.0000006775621, -23813.98, 0.64604294, 0.0, 0.000983998, 0.00001684876, 0.00001684876, 0.0, 0.012207031, 0.011926297 
1.8310547e-2, 1.9641046e+1, -0.0000020698633, -23808.17, -1.1745049, 0.0, 0.0010470073, 0.000055870823, 0.000055870823, 0.0, 0.012207031, 0.011926363 
1.8310547e-2, 1.9652973e+1, -0.0000009552072, -23791.375, 0.7393094, 0.0, 0.0011229859, 0.000022018594, 0.000022018594, 0.0, 0.012207031, 0.011926554 
1.8310547e-2, 1.96649e+1, -0.0000009875087, -23788.064, 0.854009, 0.0, 0.0009955358, 0.00002967204, 0.00002967204, 0.0, 0.012207031, 0.011926592 
1.8310547e-2, 1.9676827e+1, -0.000010032478, -23774.16, -2.324941, 0.0, 0.0010424625, 0.00021732994, 0.00021732994, 0.0, 0.012207031, 0.011926751 
1.8310547e-2, 1.9688754e+1, -0.00000072429475, -23772.09, -0.6363992, 0.0, 0.0011591002, 0.000016312657, 0.000016312657, 0.0, 0.012207031, 0.011926774 
1.8310547e-2, 1.9700679e+1, -0.0000069114963, -23763.148, -2.9959981, 0.0, 0.0011231346, 0.00037081641, 0.00037081641, 0.0, 0.012207031, 0.011926876 
1.8310547e-2, 1.9712609e+1, -0.0018543863, -23744.533, 43.90229, 0.0, 0.00095142436, 0.07931817, 0.07931817, 0.0, 0.012207031, 0.011927088 
1.8310547e-2, 1.9724534e+1, -0.00015878397, -23727.049, -12.846485, 0.0, 0.0009778282, 0.0067966585, 0.0067966585, 0.0, 0.012207031, 0.011927287 
1.8310547e-2, 1.9736461e+1, -0.0000082810375, -23731.217, 3.2707548, 0.0, 0.001307974, 0.0004425107, 0.0004425107, 0.0, 0.012207031, 0.01192724 
1.8310547e-2, 1.974839e+1, -0.000012591021, -23729.783, -3.7756476, 0.0, 0.0010954271, 0.0005881525, 0.0005881525, 0.0, 0.012207031, 0.011927256 
1.8310547e-2, 1.9760317e+1, -0.002340579, -23699.377, 49.320774, 0.0, 0.00092380546, 0.10030045, 0.10030045, 0.0, 0.012207031, 0.011927603 
1.8310547e-2, 1.9772243e+1, -0.00009836251, -23689.98, -10.10616, 0.0, 0.0010422264, 0.004212931, 0.004212931, 0.0, 0.012207031, 0.011927709 
1.8310547e-2, 1.9784172e+1, -0.000011275807, -23686.625, 2.6867216, 0.0, 0.0012129917, 0.00029347307, 0.00029347307, 0.0, 0.012207031, 0.011927747 
1.8310547e-2, 1.97961e+1, -0.000000696252, -23677.707, -0.5236012, 0.0, 0.0011613865, 0.000010882493, 0.000010882493, 0.0, 0.012207031, 0.01192785 
1.8310547e-2, 1.9808027e+1, -0.0000041801773, -23666.342, -1.7104851, 0.0, 0.00094818504, 0.000119445154, 0.000119445154, 0.0, 0.012207031, 0.011927979 
1.8310547e-2, 1.9819956e+1, -0.00000031436173, -23660.475, 0.0031985745, 0.0, 0.0009862582, -0.00000031392847, -0.00000031392847, 0.0, 0.012207031, 0.011928045 
1.8310547e-2, 1.9831884e+1, -0.0000009267257, -23642.93, 0.7506358, 0.0, 0.001261843, 0.000022905097, 0.000022905097, 0.0, 0.012207031, 0.011928245 
1.8310547e-2, 1.9843812e+1, -0.00000068728207, -23644.547, 0.57510465, 0.0, 0.0011139578, 0.000013300949, 0.000013300949, 0.0, 0.012207031, 0.011928227 
1.8310547e-2, 1.9855739e+1, -0.0000015941625, -23627.836, -1.0567678, 0.0, 0.0009633135, 0.000045670353, 0.000045670353, 0.0, 0.012207031, 0.011928418 
1.8310547e-2, 1.9867668e+1, -0.0000009643338, -23620.512, -0.6714059, 0.0, 0.0011132958, 0.00001812018, 0.00001812018, 0.0, 0.012207031, 0.011928501 
1.8310547e-2, 1.9879597e+1, -0.0000012341766, -23602.994, 0.849641, 0.0, 0.0011420809, 0.000029350496, 0.000029350496, 0.0, 0.012207031, 0.0119287 
1.8310547e-2, 1.9891527e+1, -0.000002249992, -23606.242, 1.2432173, 0.0, 0.0009503919, 0.00006322378, 0.00006322378, 0.0, 0.012207031, 0.011928664 
1.8310547e-2, 1.9903456e+1, -0.0000016388103, -23588.506, -1.0369372, 0.0, 0.0011279613, 0.000043944357, 0.000043944357, 0.0, 0.012207031, 0.011928866 
1.8310547e-2, 1.9915384e+1, -0.000003779861, -23583.223, -1.6720996, 0.0, 0.001272129, 0.00011477548, 0.00011477548, 0.0, 0.012207031, 0.011928925 
1.8310547e-2, 1.9927312e+1, -0.0000033905305, -23562.01, 1.471057, 0.0, 0.0009804375, 0.0000884526, 0.0000884526, 0.0, 0.012207031, 0.011929167 
1.8310547e-2, 1.9939241e+1, -0.0000019157703, -23569.979, 1.1692996, 0.0, 0.00080293685, 0.00005609283, 0.00005609283, 0.0, 0.012207031, 0.011929076 
1.8310547e-2, 1.9951172e+1, -0.0000021890796, -23545.607, -1.1922557, 0.0, 0.0012648593, 0.000058182, 0.000058182, 0.0, 0.012207031, 0.011929355 
1.8310547e-2, 1.99631e+1, -0.00000039442597, -23546.121, 0.037736643, 0.0, 0.0012802444, -0.00000033394826, -0.00000033394826, 0.0, 0.012207031, 0.011929348 
1.8310547e-2, 1.997503e+1, -0.00000034122021, -23526.594, -0.13272083, 0.0, 0.00090726255, 0.00000040750092, 0.00000040750092, 0.0, 0.012207031, 0.011929571 
1.8310547e-2, 1.9986959e+1, -0.0000009162605, -23526.563, 0.6700664, 0.0, 0.0009371392, 0.000018168084, 0.000018168084, 0.0, 0.012207031, 0.011929572 
1.8310547e-2, 1.999889e+1, -0.000010695317, -23505.64, 2.472454, 0.0, 0.0011500304, 0.00024937117, 0.00024937117, 0.0, 0.012207031, 0.01192981 
1.8310547e-2, 2.0010819e+1, -0.000000598476, -23511.518, 0.4132035, 0.0, 0.0012266967, 0.0000066633766, 0.0000066633766, 0.0, 0.012207031, 0.011929743 
1.8310547e-2, 2.0022748e+1, -0.00000047148058, -23484.361, 0.28604725, 0.0, 0.0010545161, 0.0000030126648, 0.0000030126648, 0.0, 0.012207031, 0.011930052 
1.8310547e-2, 2.003468e+1, -0.0000022690665, -23489.908, 1.2662411, 0.0, 0.0008041778, 0.0000659886, 0.0000659886, 0.0, 0.012207031, 0.011929989 
1.8310547e-2, 2.004661e+1, -0.00000053931365, -23466.893, -0.43206355, 0.0, 0.0011636945, 0.0000074156815, 0.0000074156815, 0.0, 0.012207031, 0.0119302515 
1.8310547e-2, 2.0058541e+1, -0.000009747526, -23472.752, -2.502572, 0.0, 0.0012962302, 0.0002570668, 0.0002570668, 0.0, 0.012207031, 0.011930184 
1.8310547e-2, 2.007047e+1, -0.00000084141885, -23441.895, 0.4080248, 0.0, 0.0009807226, 0.0000062605795, 0.0000062605795, 0.0, 0.012207031, 0.0119305365 
1.8310547e-2, 2.00824e+1, -0.000016889024, -23452.078, 4.164153, 0.0, 0.00091259927, 0.0007224983, 0.0007224983, 0.0, 0.012207031, 0.01193042 
1.8310547e-2, 2.0094332e+1, -0.00000302272, -23431.12, -1.435246, 0.0, 0.0011159246, 0.00008489161, 0.00008489161, 0.0, 0.012207031, 0.011930659 
1.8310547e-2, 2.0106262e+1, -0.000010986395, -23429.07, -2.5566745, 0.0, 0.0012294458, 0.0002680082, 0.0002680082, 0.0, 0.012207031, 0.011930683 
1.8310547e-2, 2.0118193e+1, -0.000005143836, -23405.42, 1.8773314, 0.0, 0.0010506924, 0.00014543552, 0.00014543552, 0.0, 0.012207031, 0.011930952 
1.8310547e-2, 2.0130123e+1, -0.00000273142, -23414.45, -1.2371191, 0.0, 0.0009349219, 0.000062632644, 0.000062632644, 0.0, 0.012207031, 0.011930849 
1.8310547e-2, 2.0142053e+1, -0.00000045529325, -23389.014, -0.04529487, 0.0, 0.0011447521, -0.0000003675741, -0.0000003675741, 0.0, 0.012207031, 0.011931139 
1.8310547e-2, 2.0153986e+1, -0.0000016807262, -23397.375, -1.0284783, 0.0, 0.0011340478, 0.00004352809, 0.00004352809, 0.0, 0.012207031, 0.011931044 
1.8310547e-2, 2.0165916e+1, -0.0004748417, -23367.137, 22.207691, 0.0, 0.001076014, 0.020630915, 0.020630915, 0.0, 0.012207031, 0.011931389 
1.8310547e-2, 2.0177849e+1, -0.000018472061, -23367.773, -4.6138544, 0.0, 0.0010555062, 0.0008925112, 0.0008925112, 0.0, 0.012207031, 0.011931381 
1.8310547e-2, 2.018978e+1, -0.00000223728, -23350.072, 1.2232672, 0.0, 0.0010498788, 0.00006184743, 0.00006184743, 0.0, 0.012207031, 0.011931583 
1.8310547e-2, 2.0201711e+1, -0.000002155652, -23347.816, 1.2990252, 0.0, 0.0011821012, 0.00007011948, 0.00007011948, 0.0, 0.012207031, 0.011931608 
1.8310547e-2, 2.0213643e+1, -0.0000020266234, -23333.744, 1.1987094, 0.0, 0.0011599165, 0.0000595539, 0.0000595539, 0.0, 0.012207031, 0.01193177 
1.8310547e-2, 2.0225574e+1, -0.0000003760254, -23331.4, -0.09653554, 0.0, 0.0009448634, 0.00000002339948, 0.00000002339948, 0.0, 0.012207031, 0.011931796 
1.8310547e-2, 2.0237507e+1, -0.00000027207338, -23312.35, -0.18907575, 0.0, 0.0010257222, 0.0000012614328, 0.0000012614328, 0.0, 0.012207031, 0.011932014 
1.8310547e-2, 2.024944e+1, -0.000001442276, -23308.928, 1.0626984, 0.0, 0.001314762, 0.00004700816, 0.00004700816, 0.0, 0.012207031, 0.011932053 
1.8310547e-2, 2.026137e+1, -0.0000003083333, -23296.838, 0.14940284, 0.0, 0.0011634885, 0.0000006497903, 0.0000006497903, 0.0, 0.012207031, 0.0119321905 
1.8310547e-2, 2.0273302e+1, -0.0000006795623, -23289.047, -0.6106178, 0.0, 0.0008849762, 0.000015330283, 0.000015330283, 0.0, 0.012207031, 0.011932279 
1.8310547e-2, 2.0285234e+1, -0.00000031983257, -23275.39, -0.085185304, 0.0, 0.0010826817, -0.000000008065399, -0.000000008065399, 0.0, 0.012207031, 0.0119324345 
1.8310547e-2, 2.0297167e+1, -0.0000005845176, -23267.205, 0.50996846, 0.0, 0.0012909585, 0.000010592921, 0.000010592921, 0.0, 0.012207031, 0.011932529 
1.8310547e-2, 2.0309101e+1, -0.00000031191806, -23259.705, 0.103822894, 0.0, 0.0010589599, 0.0000001515109, 0.0000001515109, 0.0, 0.012207031, 0.011932613 
1.8310547e-2, 2.0321034e+1, -0.00000051694053, -23249.154, -0.5250836, 0.0, 0.0010531164, 0.000011342101, 0.000011342101, 0.0, 0.012207031, 0.011932734 
1.8310547e-2, 2.0332965e+1, -0.0000006017649, -23238.172, -0.61089826, 0.0, 0.0011791689, 0.000015457877, 0.000015457877, 0.0, 0.012207031, 0.011932859 
1.8310547e-2, 2.0344898e+1, -0.000033988636, -23225.96, 5.930992, 0.0, 0.0010498376, 0.0014805521, 0.0014805521, 0.0, 0.012207031, 0.011932999 
1.8310547e-2, 2.0356832e+1, -0.00000081068185, -23221.922, -0.50745255, 0.0, 0.0011330748, 0.000010278327, 0.000010278327, 0.0, 0.012207031, 0.0119330445 
1.8310547e-2, 2.0368765e+1, -0.000000506054, -23206.594, -0.07199905, 0.0, 0.0011668575, -0.0000002826746, -0.0000002826746, 0.0, 0.012207031, 0.01193322 
1.8310547e-2, 2.0380697e+1, -0.0000006735888, -23201.846, -0.66930073, 0.0, 0.00092463207, 0.000018633644, 0.000018633644, 0.0, 0.012207031, 0.011933274 
1.8310547e-2, 2.0392631e+1, -0.000000854105, -23183.498, 0.7396423, 0.0, 0.0012442356, 0.000022743316, 0.000022743316, 0.0, 0.012207031, 0.011933483 
1.8310547e-2, 2.0404565e+1, -0.00000087858325, -23185.709, 0.7227453, 0.0, 0.0012419252, 0.000021650845, 0.000021650845, 0.0, 0.012207031, 0.011933458 
1.8310547e-2, 2.0416498e+1, -0.0000024783164, -23165.8, -1.3242441, 0.0, 0.00088714063, 0.00007322045, 0.00007322045, 0.0, 0.012207031, 0.011933684 
1.8310547e-2, 2.0428433e+1, -0.00000040605704, -23164.92, 0.0003262138, 0.0, 0.0011861502, -0.00000040604937, -0.00000040604937, 0.0, 0.012207031, 0.011933695 
1.8310547e-2, 2.0440367e+1, -0.0000003152227, -23144.953, 0.1768543, 0.0, 0.0012173014, 0.0000010361473, 0.0000010361473, 0.0, 0.012207031, 0.011933923 
1.8310547e-2, 2.04523e+1, -0.00000075038855, -23146.844, 0.6244166, 0.0, 0.00077303476, 0.000016094073, 0.000016094073, 0.0, 0.012207031, 0.011933901 
1.8310547e-2, 2.0464234e+1, -0.00000057614864, -23126.008, 0.014446873, 0.0, 0.0012130721, -0.0000005671245, -0.0000005671245, 0.0, 0.012207031, 0.011934139 
1.8310547e-2, 2.0476168e+1, -0.000010427505, -23128.484, -3.3654869, 0.0, 0.0015252652, 0.0004792934, 0.0004792934, 0.0, 0.012207031, 0.011934111 
1.8310547e-2, 2.0488101e+1, -0.0000027518163, -23103.004, 1.3816073, 0.0, 0.0008629239, 0.00007987115, 0.00007987115, 0.0, 0.012207031, 0.0119344015 
1.8310547e-2, 2.0500036e+1, -0.0000011014732, -23117.385, -0.5015231, 0.0, 0.0006750271, 0.00000977888, 0.00000977888, 0.0, 0.012207031, 0.011934238 
1.8310547e-2, 2.051197e+1, -0.0006078659, -23083.363, 25.123013, 0.0, 0.0013822231, 0.02673499, 0.02673499, 0.0, 0.012207031, 0.011934625 
1.8310547e-2, 2.0523907e+1, -0.000021560672, -23086.32, -5.00204, 0.0, 0.0013994335, 0.0010622154, 0.0010622154, 0.0, 0.012207031, 0.011934591 
1.8310547e-2, 2.0535842e+1, -0.000008793929, -23063.545, 2.2820683, 0.0, 0.0009110833, 0.00021700983, 0.00021700983, 0.0, 0.012207031, 0.011934851 
1.8310547e-2, 2.0547776e+1, -0.00000046094829, -23070.9, -0.3564168, 0.0, 0.00082910905, 0.000005045251, 0.000005045251, 0.0, 0.012207031, 0.0119347675 
1.8310547e-2, 2.055971e+1, -0.0000009176599, -23041.664, -0.50877726, 0.0, 0.0012296635, 0.000010316526, 0.000010316526, 0.0, 0.012207031, 0.011935101 
1.8310547e-2, 2.0571646e+1, -0.000008361422, -23054.82, 2.2508264, 0.0, 0.0013300594, 0.0002113852, 0.0002113852, 0.0, 0.012207031, 0.011934951 
1.8310547e-2, 2.058358e+1, -0.0000007614521, -23026.168, -0.6000279, 0.0, 0.000964899, 0.000014874389, 0.000014874389, 0.0, 0.012207031, 0.011935278 
1.8310547e-2, 2.0595516e+1, -0.0000014016364, -23031.855, -0.927735, 0.0, 0.0009700366, 0.000035968, 0.000035968, 0.0, 0.012207031, 0.011935214 
1.8310547e-2, 2.060745e+1, -0.0000014679312, -23004.389, 0.91486096, 0.0, 0.0012347411, 0.000034915152, 0.000034915152, 0.0, 0.012207031, 0.0119355265 
1.8310547e-2, 2.0619386e+1, -0.0000008736607, -23014.844, -0.6599387, 0.0, 0.0010488639, 0.000018049737, 0.000018049737, 0.0, 0.012207031, 0.011935407 
1.8310547e-2, 2.0631322e+1, -0.00000032354723, -22984.371, -0.105890855, 0.0, 0.0010467563, 0.0000001642984, 0.0000001642984, 0.0, 0.012207031, 0.011935755 
1.8310547e-2, 2.0643257e+1, -0.0000022522552, -22994.256, 1.2816335, 0.0, 0.0012452557, 0.00006918229, 0.00006918229, 0.0, 0.012207031, 0.011935642 
1.8310547e-2, 2.0655194e+1, -0.00000039207754, -22967.543, -0.3430996, 0.0, 0.001102914, 0.0000047333015, 0.0000047333015, 0.0, 0.012207031, 0.011935947 
1.8310547e-2, 2.066713e+1, -0.00000020672745, -22971.813, 0.05544695, 0.0, 0.0009595056, -0.00000007289782, -0.00000007289782, 0.0, 0.012207031, 0.011935898 
1.8310547e-2, 2.0679066e+1, -0.00000020827801, -22948.36, 0.014516404, 0.0, 0.0011484165, -0.0000001990993, -0.0000001990993, 0.0, 0.012207031, 0.011936166 
1.8310547e-2, 2.0691001e+1, -0.00011987505, -22951.512, 11.146843, 0.0, 0.0012094057, 0.005293802, 0.005293802, 0.0, 0.012207031, 0.01193613 
1.8310547e-2, 2.0702939e+1, -0.000018490739, -22929.365, 4.7374415, 0.0, 0.0010911773, 0.00096031325, 0.00096031325, 0.0, 0.012207031, 0.011936383 
1.8310547e-2, 2.0714875e+1, -0.000008566977, -22934.445, 2.2061021, 0.0, 0.0010590046, 0.00020364161, 0.00020364161, 0.0, 0.012207031, 0.011936325 
1.8310547e-2, 2.072681e+1, -0.0000010528622, -22909.287, -0.7938508, 0.0, 0.0011536973, 0.000026455593, 0.000026455593, 0.0, 0.012207031, 0.011936612 
1.8310547e-2, 2.0738746e+1, -0.0000073762635, -22909.725, 2.1172836, 0.0, 0.0011312049, 0.00018830004, 0.00018830004, 0.0, 0.012207031, 0.011936607 
1.8310547e-2, 2.0750685e+1, -0.000006727451, -22894.121, 3.1261315, 0.0, 0.0011090892, 0.00042013748, 0.00042013748, 0.0, 0.012207031, 0.011936786 
1.8310547e-2, 2.0762621e+1, -0.0000006930051, -22891.887, 0.5867001, 0.0, 0.001149529, 0.00001434363, 0.00001434363, 0.0, 0.012207031, 0.011936811 
1.8310547e-2, 2.0774557e+1, -0.0000008070509, -22874.596, 0.68343896, 0.0, 0.001120514, 0.000019612497, 0.000019612497, 0.0, 0.012207031, 0.011937008 
1.8310547e-2, 2.0786496e+1, -0.00000030814238, -22870.926, 0.0045901905, 0.0, 0.001135496, -0.00000030722367, -0.00000030722367, 0.0, 0.012207031, 0.01193705 
1.8310547e-2, 2.0798431e+1, -0.0000008218471, -22853.77, -0.65102917, 0.0, 0.0011346713, 0.000017723847, 0.000017723847, 0.0, 0.012207031, 0.011937246 
1.8310547e-2, 2.081037e+1, -0.0000006790871, -22849.67, 0.5360791, 0.0, 0.0011322912, 0.000011897937, 0.000011897937, 0.0, 0.012207031, 0.011937293 
1.8310547e-2, 2.0822306e+1, -0.0000017821842, -22838.006, 1.0797365, 0.0, 0.0011505036, 0.000049265658, 0.000049265658, 0.0, 0.012207031, 0.011937426 
1.8310547e-2, 2.0834243e+1, -0.0000018561917, -22831.918, -1.1885902, 0.0, 0.0010977915, 0.000060019753, 0.000060019753, 0.0, 0.012207031, 0.011937495 
1.8310547e-2, 2.0846182e+1, -0.0000022795657, -22813.998, -1.2617781, 0.0, 0.001244366, 0.00006750584, 0.00006750584, 0.0, 0.012207031, 0.0119377 
1.8310547e-2, 2.085812e+1, -0.000004611077, -22809.178, 1.7476275, 0.0, 0.0011025891, 0.00012929123, 0.00012929123, 0.0, 0.012207031, 0.011937755 
1.8310547e-2, 2.0870058e+1, -0.0000009419753, -22801.602, -0.43037018, 0.0, 0.00085344235, 0.0000071810755, 0.0000071810755, 0.0, 0.012207031, 0.011937842 
1.8310547e-2, 2.0881994e+1, -0.0000067249703, -22788.201, 2.8335369, 0.0, 0.0014309986, 0.00034560345, 0.00034560345, 0.0, 0.012207031, 0.0119379945 
1.8310547e-2, 2.0893933e+1, -0.00000034421242, -22779.545, 0.06628612, 0.0, 0.0014168471, -0.000000151329, -0.000000151329, 0.0, 0.012207031, 0.011938093 
1.8310547e-2, 2.090587e+1, -0.0000004456218, -22768.941, -0.2976699, 0.0, 0.0007117713, 0.0000034459663, 0.0000034459663, 0.0, 0.012207031, 0.011938215 
1.8310547e-2, 2.091781e+1, -0.00000040768418, -22759.924, -0.22240435, 0.0, 0.0010414761, 0.0000017655984, 0.0000017655984, 0.0, 0.012207031, 0.011938318 
1.8310547e-2, 2.0929748e+1, -0.000009631647, -22749.75, 2.298909, 0.0, 0.0014317672, 0.00022267782, 0.00022267782, 0.0, 0.012207031, 0.011938434 
1.8310547e-2, 2.0941687e+1, -0.0000017058471, -22741.6, -1.084726, 0.0, 0.0011132671, 0.000050033268, 0.000050033268, 0.0, 0.012207031, 0.011938527 
1.8310547e-2, 2.0953625e+1, -0.0000027980764, -22727.605, 1.3112237, 0.0, 0.0010494927, 0.00007285035, 0.00007285035, 0.0, 0.012207031, 0.0119386865 
1.8310547e-2, 2.0965564e+1, -0.0000005104459, -22724.213, -0.43206665, 0.0, 0.0011307085, 0.000007704653, 0.000007704653, 0.0, 0.012207031, 0.011938726 
1.8310547e-2, 2.0977503e+1, -0.00000036163217, -22707.521, -0.020825243, 0.0, 0.0011379755, -0.0000003425339, -0.0000003425339, 0.0, 0.012207031, 0.0119389165 
1.8310547e-2, 2.098944e+1, -0.0000010801602, -22706.178, -0.8726815, 0.0, 0.0012113494, 0.000032460182, 0.000032460182, 0.0, 0.012207031, 0.011938931 
1.8310547e-2, 2.100138e+1, -0.0000007743106, -22685.037, -0.41052732, 0.0, 0.0010946507, 0.000006654933, 0.000006654933, 0.0, 0.012207031, 0.011939174 
1.8310547e-2, 2.101332e+1, -0.000015349184, -22688.506, 3.9657774, 0.0, 0.001026973, 0.00067783834, 0.00067783834, 0.0, 0.012207031, 0.0119391335 
1.8310547e-2, 2.1025258e+1, -0.000000451723, -22663.732, -0.121269524, 0.0, 0.0012390714, 0.00000019716754, 0.00000019716754, 0.0, 0.012207031, 0.011939417 
1.8310547e-2, 2.1037199e+1, -0.000007979653, -22656.072, 2.7309418, 0.0, 0.0011016338, 0.0003212055, 0.0003212055, 0.0, 0.012207031, 0.011939504 
1.8310547e-2, 2.1049139e+1, -0.00033629683, -22649.748, 18.679834, 0.0, 0.0010586068, 0.015069435, 0.015069435, 0.0, 0.012207031, 0.011939576 
1.8310547e-2, 2.1061078e+1, -0.00020330684, -22659.463, 14.522894, 0.0, 0.0012807562, 0.009104696, 0.009104696, 0.0, 0.012207031, 0.011939465 
1.8310547e-2, 2.1073017e+1, -0.000009082181, -22622.91, -3.2904477, 0.0, 0.001088161, 0.00046950547, 0.00046950547, 0.0, 0.012207031, 0.011939883 
1.8310547e-2, 2.1084957e+1, -0.000014761092, -22623.195, 4.029427, 0.0, 0.0009644622, 0.0007029218, 0.0007029218, 0.0, 0.012207031, 0.0119398795 
1.8310547e-2, 2.1096897e+1, -0.00022505774, -22614.246, 15.279997, 0.0, 0.0011435415, 0.010099328, 0.010099328, 0.0, 0.012207031, 0.011939982 
1.8310547e-2, 2.1108837e+1, -0.00003070753, -22614.875, 5.5073586, 0.0, 0.0013776834, 0.0013104891, 0.0013104891, 0.0, 0.012207031, 0.0119399745 
1.8310547e-2, 2.1120778e+1, -0.0000006705309, -22586.014, -0.44500208, 0.0, 0.001142316, 0.000008097144, 0.000008097144, 0.0, 0.012207031, 0.011940304 
1.8310547e-2, 2.1132717e+1, -0.0000011455808, -22595.064, 0.8375661, 0.0, 0.0007053802, 0.000029901774, 0.000029901774, 0.0, 0.012207031, 0.011940201 
1.8310547e-2, 2.1144657e+1, -0.00000028997724, -22566.44, -0.13324618, 0.0, 0.001264104, 0.0000004967915, 0.0000004967915, 0.0, 0.012207031, 0.011940529 
1.8310547e-2, 2.1156599e+1, -0.0000008334791, -22571.863, 0.67852926, 0.0, 0.0014733927, 0.000019563682, 0.000019563682, 0.0, 0.012207031, 0.011940466 
1.8310547e-2, 2.1168539e+1, -0.00000028998033, -22551.494, -0.09064217, 0.0, 0.00088829617, 0.0000000743421, 0.0000000743421, 0.0, 0.012207031, 0.011940699 
1.8310547e-2, 2.1180479e+1, -0.00000053623336, -22548.303, 0.41979772, 0.0, 0.001131445, 0.000007279439, 0.000007279439, 0.0, 0.012207031, 0.011940735 
1.8310547e-2, 2.1192421e+1, -0.00000065437627, -22531.293, 0.56471443, 0.0, 0.0012894062, 0.000013499375, 0.000013499375, 0.0, 0.012207031, 0.01194093 
1.8310547e-2, 2.1204361e+1, -0.000006437758, -22531.639, -1.9099088, 0.0, 0.00091530994, 0.00015545689, 0.00015545689, 0.0, 0.012207031, 0.011940926 
1.8310547e-2, 2.1216303e+1, -0.0000015109916, -22509.225, 0.96328646, 0.0, 0.0011816783, 0.00003971303, 0.00003971303, 0.0, 0.012207031, 0.011941182 
1.8310547e-2, 2.1228243e+1, -0.00000089732964, -22513.107, 0.731502, 0.0, 0.0013050431, 0.000022870834, 0.000022870834, 0.0, 0.012207031, 0.011941138 
1.8310547e-2, 2.1240185e+1, -0.0000029360576, -22491.309, -1.2047737, 0.0, 0.0010986193, 0.00006159907, 0.00006159907, 0.0, 0.012207031, 0.011941387 
1.8310547e-2, 2.1252127e+1, -0.000011030036, -22489.313, 2.512225, 0.0, 0.001080257, 0.00026960432, 0.00026960432, 0.0, 0.012207031, 0.01194141 
1.8310547e-2, 2.1264069e+1, -0.00000034254091, -22475.135, -0.18339649, 0.0, 0.0011185266, 0.0000011539669, 0.0000011539669, 0.0, 0.012207031, 0.011941572 
1.8310547e-2, 2.1276009e+1, -0.0000028683853, -22468.51, -1.3746402, 0.0, 0.0012816417, 0.00008123313, 0.00008123313, 0.0, 0.012207031, 0.011941647 
1.8310547e-2, 2.1287951e+1, -0.000011634162, -22455.082, 3.451224, 0.0, 0.001187099, 0.0005188002, 0.0005188002, 0.0, 0.012207031, 0.011941801 
1.8310547e-2, 2.1299893e+1, -0.000006114227, -22451.924, 1.9383422, 0.0, 0.001016356, 0.0001612287, 0.0001612287, 0.0, 0.012207031, 0.011941837 
1.8310547e-2, 2.1311834e+1, -0.00000036399285, -22432.764, -0.30131254, 0.0, 0.0011649019, 0.000003683177, 0.000003683177, 0.0, 0.012207031, 0.011942056 
1.8310547e-2, 2.1323776e+1, -0.00000031416306, -22431.143, 0.10599323, 0.0, 0.001264889, 0.00000018668652, 0.00000018668652, 0.0, 0.012207031, 0.011942075 
1.8310547e-2, 2.133572e+1, -0.000007909428, -22415.371, 2.0991025, 0.0, 0.001217291, 0.00018866242, 0.00018866242, 0.0, 0.012207031, 0.011942255 
1.8310547e-2, 2.1347661e+1, -0.000008859807, -22411.3, 2.2259748, 0.0, 0.0010259323, 0.00021223241, 0.00021223241, 0.0, 0.012207031, 0.011942302 
1.8310547e-2, 2.1359605e+1, -0.0000016407733, -22398.775, -0.971494, 0.0, 0.0011818083, 0.00004049549, 0.00004049549, 0.0, 0.012207031, 0.011942444 
1.8310547e-2, 2.1371546e+1, -0.0000011370024, -22388.598, 0.77726024, 0.0, 0.0012884422, 0.000025846977, 0.000025846977, 0.0, 0.012207031, 0.011942561 
1.8310547e-2, 2.138349e+1, -0.00000029503082, -22380.002, -0.16531526, 0.0, 0.0009941112, 0.00000092610935, 0.00000092610935, 0.0, 0.012207031, 0.0119426595 
1.8310547e-2, 2.1395431e+1, -0.00000057430145, -22367.877, -0.49197263, 0.0, 0.0013120036, 0.000010246444, 0.000010246444, 0.0, 0.012207031, 0.011942798 
1.8310547e-2, 2.1407375e+1, -0.0000024990104, -22361.64, 1.2621783, 0.0, 0.0012753954, 0.00006874326, 0.00006874326, 0.0, 0.012207031, 0.011942869 
1.8310547e-2, 2.1419317e+1, -0.0000049764017, -22347.213, -1.7313857, 0.0, 0.0009276104, 0.00012916543, 0.00012916543, 0.0, 0.012207031, 0.011943034 
1.8310547e-2, 2.1431261e+1, -0.000004790359, -22342.754, 1.6691369, 0.0, 0.0013396878, 0.000119904114, 0.000119904114, 0.0, 0.012207031, 0.011943085 
1.8310547e-2, 2.1443203e+1, -0.000022907781, -22340.42, -5.0175524, 0.0, 0.0011625302, 0.0011040106, 0.0011040106, 0.0, 0.012207031, 0.011943112 
1.8310547e-2, 2.1455146e+1, -0.00058997225, -22314.91, 24.733583, 0.0, 0.0009261147, 0.026824405, 0.026824405, 0.0, 0.012207031, 0.011943404 
1.8310547e-2, 2.1467091e+1, -0.00000041802295, -22304.822, -0.17927802, 0.0, 0.0013763038, 0.0000010229487, 0.0000010229487, 0.0, 0.012207031, 0.011943519 
1.8310547e-2, 2.1479034e+1, -0.0000005907381, -22301.648, 0.23382421, 0.0, 0.0014042096, 0.0000018608189, 0.0000018608189, 0.0, 0.012207031, 0.011943555 
1.8310547e-2, 2.1490978e+1, -0.000015086984, -22275.389, 3.9170463, 0.0, 0.00092994364, 0.00067371136, 0.00067371136, 0.0, 0.012207031, 0.011943855 
1.8310547e-2, 2.1502922e+1, -0.0013263574, -22289.678, 37.086266, 0.0, 0.0008821256, 0.060378768, 0.060378768, 0.0, 0.012207031, 0.011943692 
1.8310547e-2, 2.1514866e+1, -0.00003688786, -22279.06, 6.2621546, 0.0, 0.0014443959, 0.0017232662, 0.0017232662, 0.0, 0.012207031, 0.011943813 
1.8310547e-2, 2.1526809e+1, -0.0000068904005, -22260.871, -2.9949749, 0.0, 0.0014388935, 0.00039605316, 0.00039605316, 0.0, 0.012207031, 0.011944022 
1.8310547e-2, 2.1538754e+1, -0.0000042561937, -22251.947, 1.5661849, 0.0, 0.000895958, 0.00010597844, 0.00010597844, 0.0, 0.012207031, 0.011944124 
1.8310547e-2, 2.1550697e+1, -0.0000027428785, -22245.748, 1.3771471, 0.0, 0.00093612453, 0.0000825109, 0.0000825109, 0.0, 0.012207031, 0.011944194 
1.8310547e-2, 2.1562642e+1, -0.00000087525945, -22230.389, -0.627061, 0.0, 0.0013159717, 0.00001681249, 0.00001681249, 0.0, 0.012207031, 0.01194437 
1.8310547e-2, 2.1574587e+1, -0.0000011004762, -22225.424, -0.83000237, 0.0, 0.0014951612, 0.000029895731, 0.000029895731, 0.0, 0.012207031, 0.011944427 
1.8310547e-2, 2.1586531e+1, -0.0000006275214, -22210.352, 0.5606505, 0.0, 0.0010487633, 0.000013524841, 0.000013524841, 0.0, 0.012207031, 0.011944599 
1.8310547e-2, 2.1598475e+1, -0.00000078087834, -22205.805, 0.66901714, 0.0, 0.00062587165, 0.000019375293, 0.000019375293, 0.0, 0.012207031, 0.011944652 
1.8310547e-2, 2.1610421e+1, -0.0000010037006, -22194.3, -0.7821044, 0.0, 0.0013574421, 0.000026556856, 0.000026556856, 0.0, 0.012207031, 0.011944783 
1.8310547e-2, 2.1622364e+1, -0.00000081800454, -22185.02, -0.62587595, 0.0, 0.0018019822, 0.000016838989, 0.000016838989, 0.0, 0.012207031, 0.011944889 
1.8310547e-2, 2.163431e+1, -0.000013587014, -22171.078, 3.8578122, 0.0, 0.00085289084, 0.0006576801, 0.0006576801, 0.0, 0.012207031, 0.011945048 
1.8310547e-2, 2.1646255e+1, -0.0000008378129, -22166.1, 0.6207763, 0.0, 0.00063094875, 0.000016547441, 0.000016547441, 0.0, 0.012207031, 0.011945106 
1.8310547e-2, 2.16582e+1, -0.000000761007, -22156.334, 0.32923737, 0.0, 0.0013849242, 0.0000041313724, 0.0000041313724, 0.0, 0.012207031, 0.011945218 
1.8310547e-2, 2.1670145e+1, -0.000006381167, -22144.236, -1.9842945, 0.0, 0.0016615558, 0.00017142693, 0.00017142693, 0.0, 0.012207031, 0.011945356 
1.8310547e-2, 2.1682091e+1, -0.0000005458558, -22131.918, 0.3399211, 0.0, 0.001119057, 0.0000046749446, 0.0000046749446, 0.0, 0.012207031, 0.011945497 
1.8310547e-2, 2.1694036e+1, -0.000004414826, -22128.557, 1.7349617, 0.0, 0.00045220958, 0.00013161269, 0.00013161269, 0.0, 0.012207031, 0.011945535 
1.8310547e-2, 2.1705982e+1, -0.00000059444864, -22115.42, -0.4258094, 0.0, 0.0012195611, 0.0000076040706, 0.0000076040706, 0.0, 0.012207031, 0.011945685 
1.8310547e-2, 2.1717928e+1, -0.00000068901426, -22103.664, 0.420906, 0.0, 0.0020756316, 0.000007326027, 0.000007326027, 0.0, 0.012207031, 0.01194582 
1.8310547e-2, 2.1729873e+1, -0.0000011545346, -22096.066, 0.8191299, 0.0, 0.00089045166, 0.000029211675, 0.000029211675, 0.0, 0.012207031, 0.011945907 
1.8310547e-2, 2.174182e+1, -0.0000071542295, -22086.291, 2.0484803, 0.0, 0.0005475101, 0.00018284016, 0.00018284016, 0.0, 0.012207031, 0.011946019 
1.8310547e-2, 2.1753766e+1, -0.0000107460255, -22077.78, 2.5487232, 0.0, 0.001489385, 0.00028348604, 0.00028348604, 0.0, 0.012207031, 0.011946117 
1.8310547e-2, 2.176571e+1, -0.000001833674, -22068.482, -1.0661945, 0.0, 0.0013891561, 0.00004967738, 0.00004967738, 0.0, 0.012207031, 0.011946223 
1.8310547e-2, 2.1777658e+1, -0.0000011071985, -22053.705, 0.7617636, 0.0, 0.0011020238, 0.000025205107, 0.000025205107, 0.0, 0.012207031, 0.011946392 
1.8310547e-2, 2.1789604e+1, -0.0000011669138, -22050.361, 0.783864, 0.0, 0.001066936, 0.000026698515, 0.000026698515, 0.0, 0.012207031, 0.01194643 
1.8310547e-2, 2.1801552e+1, -0.0000006052717, -22034.102, -0.039588448, 0.0, 0.0011103842, -0.0000005341426, -0.0000005341426, 0.0, 0.012207031, 0.011946616 
1.8310547e-2, 2.1813497e+1, -0.0000200299, -22028.412, 4.7536516, 0.0, 0.0014450935, 0.001005791, 0.001005791, 0.0, 0.012207031, 0.011946681 
1.8310547e-2, 2.1825445e+1, -0.0000008938433, -22019.56, 0.39128733, 0.0, 0.0011947724, 0.0000060593266, 0.0000060593266, 0.0, 0.012207031, 0.0119467825 
1.8310547e-2, 2.1837391e+1, -0.00000079998637, -22005.139, -0.07190277, 0.0, 0.000955806, -0.0000005650436, -0.0000005650436, 0.0, 0.012207031, 0.011946947 
1.8310547e-2, 2.1849339e+1, -0.000026762404, -21998.115, 5.236727, 0.0, 0.0012819457, 0.0012198585, 0.0012198585, 0.0, 0.012207031, 0.011947028 
1.8310547e-2, 2.1861286e+1, -0.0000059201157, -21989.836, 2.9081337, 0.0, 0.0012838941, 0.00037867768, 0.00037867768, 0.0, 0.012207031, 0.011947122 
1.8310547e-2, 2.1873231e+1, -0.000008083457, -21982.11, 3.0046525, 0.0, 0.0010600217, 0.00040261127, 0.00040261127, 0.0, 0.012207031, 0.011947211 
1.8310547e-2, 2.1885179e+1, -0.000002725497, -21965.227, -1.3577288, 0.0, 0.001321981, 0.000081199316, 0.000081199316, 0.0, 0.012207031, 0.011947405 
1.8310547e-2, 2.1897127e+1, -0.000008140678, -21948.64, 3.0343556, 0.0, 0.0012686326, 0.0004113529, 0.0004113529, 0.0, 0.012207031, 0.011947595 
1.8310547e-2, 2.1909074e+1, -0.0022137384, -21953.396, 47.899334, 0.0, 0.000999889, 0.10229562, 0.10229562, 0.0, 0.012207031, 0.01194754 
1.8310547e-2, 2.1921022e+1, -0.00011242316, -21949.666, 10.793836, 0.0, 0.0013334494, 0.005195487, 0.005195487, 0.0, 0.012207031, 0.0119475825 
1.8310547e-2, 2.193297e+1, -0.000006373383, -21926.602, -2.7776284, 0.0, 0.001214585, 0.00034549236, 0.00034549236, 0.0, 0.012207031, 0.011947847 
1.8310547e-2, 2.1944918e+1, -0.0000027706315, -21922.695, 1.1724498, 0.0, 0.00092778675, 0.000059933274, 0.000059933274, 0.0, 0.012207031, 0.011947892 
1.8310547e-2, 2.1956865e+1, -0.00000066292034, -21912.203, 0.14092512, 0.0, 0.0014830098, 0.0000002434208, 0.0000002434208, 0.0, 0.012207031, 0.011948012 
1.8310547e-2, 2.1968815e+1, -0.0000058097207, -21899.828, -1.9763263, 0.0, 0.0014632327, 0.00017254171, 0.00017254171, 0.0, 0.012207031, 0.011948153 
1.8310547e-2, 2.1980762e+1, -0.000009621023, -21886.375, 2.5618327, 0.0, 0.00077935966, 0.00029024528, 0.00029024528, 0.0, 0.012207031, 0.011948307 
1.8310547e-2, 2.199271e+1, -0.0000022185009, -21886.25, 1.0822338, 0.0, 0.0010433553, 0.00005129592, 0.00005129592, 0.0, 0.012207031, 0.011948309 
1.8310547e-2, 2.200466e+1, -0.0000070741808, -21872.2, -2.9991777, 0.0, 0.0015643405, 0.00040418154, 0.00040418154, 0.0, 0.012207031, 0.01194847 
1.8310547e-2, 2.2016607e+1, -0.0000025265224, -21861.879, -1.2682216, 0.0, 0.00127484, 0.00007104383, 0.00007104383, 0.0, 0.012207031, 0.011948587 
1.8310547e-2, 2.2028556e+1, -0.000056282224, -21847.543, 7.6353626, 0.0, 0.0009783761, 0.0026121528, 0.0026121528, 0.0, 0.012207031, 0.011948752 
1.8310547e-2, 2.2040504e+1, -0.0000021075114, -21845.32, -1.2197622, 0.0, 0.0011255357, 0.00006599951, 0.00006599951, 0.0, 0.012207031, 0.011948777 
1.8310547e-2, 2.2052453e+1, -0.0000013438724, -21830.78, -0.84059817, 0.0, 0.0013487879, 0.000031023512, 0.000031023512, 0.0, 0.012207031, 0.011948944 
1.8310547e-2, 2.2064404e+1, -0.0000008911747, -21823.695, 0.38053828, 0.0, 0.0012278028, 0.000005744245, 0.000005744245, 0.0, 0.012207031, 0.011949025 
1.8310547e-2, 2.207635e+1, -0.00000064405975, -21809.992, -0.1606445, 0.0, 0.0010598046, 0.0000005391885, 0.0000005391885, 0.0, 0.012207031, 0.011949182 
1.8310547e-2, 2.2088301e+1, -0.00000088197044, -21804.895, 0.54462755, 0.0, 0.0013303855, 0.000012721357, 0.000012721357, 0.0, 0.012207031, 0.01194924 
1.8310547e-2, 2.210025e+1, -0.0000009423073, -21795.898, -0.5244871, 0.0, 0.001189096, 0.000011678723, 0.000011678723, 0.0, 0.012207031, 0.011949344 
1.8310547e-2, 2.21122e+1, -0.0000063643897, -21782.658, -1.9975783, 0.0, 0.0009650123, 0.0001768235, 0.0001768235, 0.0, 0.012207031, 0.011949495 
1.8310547e-2, 2.2124149e+1, -0.000008548389, -21769.357, 2.3591657, 0.0, 0.001343236, 0.00024711658, 0.00024711658, 0.0, 0.012207031, 0.011949647 
1.8310547e-2, 2.2136098e+1, -0.0000025861402, -21766.385, 1.2991182, 0.0, 0.0013380481, 0.00007495121, 0.00007495121, 0.0, 0.012207031, 0.011949682 
1.8310547e-2, 2.2148049e+1, -0.00000541382, -21751.861, 1.8415633, 0.0, 0.0010742313, 0.00015049723, 0.00015049723, 0.0, 0.012207031, 0.011949847 
1.8310547e-2, 2.2159998e+1, -0.00005816857, -21745.68, 7.7908683, 0.0, 0.001076669, 0.002733081, 0.002733081, 0.0, 0.012207031, 0.011949918 
1.8310547e-2, 2.2171949e+1, -0.0000016889326, -21737.33, 0.8561028, 0.0, 0.0012139407, 0.000032027816, 0.000032027816, 0.0, 0.012207031, 0.011950014 
1.8310547e-2, 2.21839e+1, -0.000007020417, -21711.623, 2.0816293, 0.0, 0.0014348978, 0.00019255841, 0.00019255841, 0.0, 0.012207031, 0.011950308 
1.8310547e-2, 2.2195849e+1, -0.00024392937, -21717.498, 15.89674, 0.0, 0.0010846229, 0.011392135, 0.011392135, 0.0, 0.012207031, 0.011950241 
1.8310547e-2, 2.22078e+1, -0.00013725673, -21712.361, 11.924715, 0.0, 0.0010011517, 0.0064119515, 0.0064119515, 0.0, 0.012207031, 0.0119503 
1.8310547e-2, 2.2219749e+1, -0.00000658766, -21698.02, 1.996785, 0.0, 0.0013639047, 0.00017716877, 0.00017716877, 0.0, 0.012207031, 0.011950465 
1.8310547e-2, 2.2231701e+1, -0.00000244464, -21685.748, 1.313238, 0.0, 0.0011963001, 0.00007708196, 0.00007708196, 0.0, 0.012207031, 0.011950605 
1.8310547e-2, 2.224365e+1, -0.00000042576934, -21682.566, -0.019360708, 0.0, 0.0011446112, -0.00000040848317, -0.00000040848317, 0.0, 0.012207031, 0.011950642 
1.8310547e-2, 2.2255602e+1, -0.0000013498801, -21662.443, -0.9550477, 0.0, 0.0012724414, 0.000040756, 0.000040756, 0.0, 0.012207031, 0.011950872 
1.8310547e-2, 2.2267553e+1, -0.0000008446229, -21658.438, 0.6376483, 0.0, 0.0010977674, 0.000017928447, 0.000017928447, 0.0, 0.012207031, 0.011950918 
1.8310547e-2, 2.2279502e+1, -0.000003664647, -21642.441, 1.6171904, 0.0, 0.0013315632, 0.00011717682, 0.00011717682, 0.0, 0.012207031, 0.011951101 
1.8310547e-2, 2.2291455e+1, -0.0000008149992, -21643.025, -0.5279249, 0.0, 0.0012787165, 0.000012062348, 0.000012062348, 0.0, 0.012207031, 0.0119510945 
1.8310547e-2, 2.2303405e+1, -0.000004327038, -21623.24, -1.651227, 0.0, 0.00094291265, 0.00012176648, 0.00012176648, 0.0, 0.012207031, 0.011951321 
1.8310547e-2, 2.2315358e+1, -0.0000017298784, -21619.438, 1.0020094, 0.0, 0.001189507, 0.00004471086, 0.00004471086, 0.0, 0.012207031, 0.011951365 
1.8310547e-2, 2.2327308e+1, -0.00000039340958, -21606.889, -0.0063281124, 0.0, 0.0015489468, -0.00000039155566, -0.00000039155566, 0.0, 0.012207031, 0.011951509 
1.8310547e-2, 2.233926e+1, -0.000012416276, -21599.924, 3.5041318, 0.0, 0.001224266, 0.0005560551, 0.0005560551, 0.0, 0.012207031, 0.011951588 
1.8310547e-2, 2.2351211e+1, -0.0000011173653, -21583.164, -0.62808377, 0.0, 0.0008460061, 0.000017160273, 0.000017160273, 0.0, 0.012207031, 0.011951781 
1.8310547e-2, 2.2363164e+1, -0.0000012163241, -21584.703, -0.8104446, 0.0, 0.0012581988, 0.000029213577, 0.000029213577, 0.0, 0.012207031, 0.011951763 
1.8310547e-2, 2.2375116e+1, -0.0000012624936, -21567.963, -0.84869826, 0.0, 0.0015534577, 0.00003213374, 0.00003213374, 0.0, 0.012207031, 0.011951955 
1.8310547e-2, 2.2387068e+1, -0.00022341612, -21561.76, 15.213514, 0.0, 0.001000562, 0.0105109075, 0.0105109075, 0.0, 0.012207031, 0.011952026 
1.8310547e-2, 2.2399019e+1, -0.000009894706, -21541.666, -2.4206932, 0.0, 0.0012483496, 0.0002621249, 0.0002621249, 0.0, 0.012207031, 0.011952256 
1.8310547e-2, 2.2410972e+1, -0.000007115785, -21542.637, 2.0671856, 0.0, 0.0014539146, 0.00019124693, 0.00019124693, 0.0, 0.012207031, 0.011952245 
1.8310547e-2, 2.2422925e+1, -0.0000033058807, -21524.773, -1.4493088, 0.0, 0.0008913599, 0.00009427915, 0.00009427915, 0.0, 0.012207031, 0.01195245 
1.8310547e-2, 2.2434877e+1, -0.000010787868, -21519.404, 3.2893364, 0.0, 0.0011128304, 0.0004920018, 0.0004920018, 0.0, 0.012207031, 0.011952511 
1.8310547e-2, 2.2446829e+1, -0.000028413426, -21510.314, 5.329326, 0.0, 0.0016262094, 0.001291963, 0.001291963, 0.0, 0.012207031, 0.011952615 
1.8310547e-2, 2.2458783e+1, -0.00000072470476, -21505.035, 0.4860432, 0.0, 0.0013185797, 0.000010260541, 0.000010260541, 0.0, 0.012207031, 0.011952676 
1.8310547e-2, 2.2470735e+1, -0.0000088495435, -21488.861, 2.4837048, 0.0, 0.0008423223, 0.0002782196, 0.0002782196, 0.0, 0.012207031, 0.011952861 
1.8310547e-2, 2.2482687e+1, -0.000006165451, -21476.352, -1.9347616, 0.0, 0.0011585098, 0.00016813335, 0.00016813335, 0.0, 0.012207031, 0.011953005 
1.8310547e-2, 2.2494641e+1, -0.00004426826, -21453.068, 6.739952, 0.0, 0.0015981043, 0.0020732356, 0.0020732356, 0.0, 0.012207031, 0.011953272 
1.8310547e-2, 2.2506593e+1, -0.0004816817, -21475.47, 22.334742, 0.0, 0.0011265421, 0.022746686, 0.022746686, 0.0, 0.012207031, 0.011953015 
1.8310547e-2, 2.2518547e+1, -0.000109060624, -21455.121, 10.627135, 0.0, 0.0011166924, 0.0051547633, 0.0051547633, 0.0, 0.012207031, 0.011953248 
1.8310547e-2, 2.25305e+1, -0.000007676111, -21443.586, -2.176415, 0.0, 0.0013481705, 0.00021321893, 0.00021321893, 0.0, 0.012207031, 0.01195338 
1.8310547e-2, 2.2542454e+1, -0.0000015839785, -21434.691, -1.0440658, 0.0, 0.0011239263, 0.000049271588, 0.000049271588, 0.0, 0.012207031, 0.011953482 
1.8310547e-2, 2.2554407e+1, -0.00000070657984, -21423.56, -0.44546947, 0.0, 0.0012842611, 0.000008556264, 0.000008556264, 0.0, 0.012207031, 0.01195361 
1.8310547e-2, 2.256636e+1, -0.00006614443, -21407.611, 8.308547, 0.0, 0.0012666752, 0.0031585004, 0.0031585004, 0.0, 0.012207031, 0.011953793 
1.8310547e-2, 2.2578315e+1, -0.0000010463275, -21408.559, 0.7614255, 0.0, 0.0010113664, 0.000026034842, 0.000026034842, 0.0, 0.012207031, 0.011953782 
1.8310547e-2, 2.2590269e+1, -0.00000049951035, -21388.842, -0.37691522, 0.0, 0.0013899064, 0.000006142509, 0.000006142509, 0.0, 0.012207031, 0.011954008 
1.8310547e-2, 2.2602223e+1, -0.0000023605205, -21384.057, -1.2985177, 0.0, 0.0014134581, 0.00007649021, 0.00007649021, 0.0, 0.012207031, 0.011954063 
1.8310547e-2, 2.2614178e+1, -0.00000053555465, -21372.62, -0.24723566, 0.0, 0.0009674273, 0.0000023244356, 0.0000023244356, 0.0, 0.012207031, 0.011954194 
1.8310547e-2, 2.2626132e+1, -0.000004482586, -21365.076, 1.6165088, 0.0, 0.0011582931, 0.000117824515, 0.000117824515, 0.0, 0.012207031, 0.011954281 
1.8310547e-2, 2.2638087e+1, -0.0000011166795, -21354.256, -0.845942, 0.0, 0.0013882628, 0.00003239504, 0.00003239504, 0.0, 0.012207031, 0.011954404 
1.8310547e-2, 2.2650039e+1, -0.000002784602, -21343.36, -1.3872566, 0.0, 0.0011962529, 0.00008738306, 0.00008738306, 0.0, 0.012207031, 0.011954529 
1.8310547e-2, 2.2661994e+1, -0.000003459916, -21332.352, 1.4679401, 0.0, 0.0011821154, 0.00009755323, 0.00009755323, 0.0, 0.012207031, 0.011954656 
1.8310547e-2, 2.267395e+1, -0.00000043262128, -21326.393, 0.18437171, 0.0, 0.0012332395, 0.0000011613156, 0.0000011613156, 0.0, 0.012207031, 0.011954724 
1.8310547e-2, 2.2685903e+1, -0.0000016274416, -21316.313, -1.0112818, 0.0, 0.0011898462, 0.00004634947, 0.00004634947, 0.0, 0.012207031, 0.011954839 
1.8310547e-2, 2.2697859e+1, -0.0000009491183, -21304.305, 0.65045667, 0.0, 0.0012939812, 0.000018910428, 0.000018910428, 0.0, 0.012207031, 0.011954977 
1.8310547e-2, 2.2709814e+1, -0.0000010055018, -21295.62, 0.7506954, 0.0, 0.0012558677, 0.00002545739, 0.00002545739, 0.0, 0.012207031, 0.011955077 
1.8310547e-2, 2.2721769e+1, -0.00000042407407, -21282.848, -0.23204027, 0.0, 0.0009829217, 0.0000021057895, 0.0000021057895, 0.0, 0.012207031, 0.011955223 
1.8310547e-2, 2.2733724e+1, -0.0000017042166, -21275.908, 0.9967433, 0.0, 0.0012425653, 0.000044991666, 0.000044991666, 0.0, 0.012207031, 0.011955303 
1.8310547e-2, 2.274568e+1, -0.000013111606, -21264.92, 4.043624, 0.0, 0.0016342447, 0.00075580226, 0.00075580226, 0.0, 0.012207031, 0.011955429 
1.8310547e-2, 2.2757635e+1, -0.000010160455, -21260.555, 2.5141275, 0.0, 0.0010207583, 0.00028714302, 0.00028714302, 0.0, 0.012207031, 0.011955479 
1.8310547e-2, 2.276959e+1, -0.0000013168179, -21244.615, -0.86409456, 0.0, 0.0009074668, 0.000033828997, 0.000033828997, 0.0, 0.012207031, 0.011955662 
1.8310547e-2, 2.2781548e+1, -0.0000011683549, -21238.521, 0.8197863, 0.0, 0.0015049862, 0.000030474599, 0.000030474599, 0.0, 0.012207031, 0.011955732 
1.8310547e-2, 2.2793503e+1, -0.000000809924, -21223.904, 0.64579904, 0.0, 0.0012326797, 0.000018840394, 0.000018840394, 0.0, 0.012207031, 0.011955899 
1.8310547e-2, 2.2805458e+1, -0.0000016482652, -21220.89, -0.9558887, 0.0, 0.0011280723, 0.000041409454, 0.000041409454, 0.0, 0.012207031, 0.011955935 
1.8310547e-2, 2.2817415e+1, -0.00000072701897, -21205.018, 0.35982803, 0.0, 0.0013409354, 0.0000053789045, 0.0000053789045, 0.0, 0.012207031, 0.011956116 
1.8310547e-2, 2.282937e+1, -0.00000092458794, -21199.07, -0.35223714, 0.0, 0.0011385059, 0.000004928075, 0.000004928075, 0.0, 0.012207031, 0.011956184 
1.8310547e-2, 2.2841328e+1, -0.0000063715456, -21181.947, 2.0052314, 0.0, 0.0013033699, 0.0001834577, 0.0001834577, 0.0, 0.012207031, 0.011956381 
1.8310547e-2, 2.2853284e+1, -0.00000090543784, -21189.283, -0.41267502, 0.0, 0.0011888194, 0.0000071316754, 0.0000071316754, 0.0, 0.012207031, 0.011956297 
1.8310547e-2, 2.286524e+1, -0.000008527524, -21159.4, -2.1870887, 0.0, 0.001252714, 0.00021753545, 0.00021753545, 0.0, 0.012207031, 0.01195664 
1.8310547e-2, 2.2877197e+1, -0.00001439288, -21163.072, 3.9085007, 0.0, 0.0013724074, 0.0007074483, 0.0007074483, 0.0, 0.012207031, 0.011956598 
1.8310547e-2, 2.2889152e+1, -0.000004133492, -21143.732, -1.5715885, 0.0, 0.0009807923, 0.00011268081, 0.00011268081, 0.0, 0.012207031, 0.011956819 
1.8310547e-2, 2.290111e+1, -0.000007657967, -21131.738, 2.3505712, 0.0, 0.0012704496, 0.00025380583, 0.00025380583, 0.0, 0.012207031, 0.011956957 
1.8310547e-2, 2.2913067e+1, -0.0014045971, -21128.824, 38.13005, 0.0, 0.0014898389, 0.06740643, 0.06740643, 0.0, 0.012207031, 0.011956991 
1.8310547e-2, 2.2925024e+1, -0.000047917714, -21133.842, 7.0617633, 0.0, 0.0010288468, 0.0023117333, 0.0023117333, 0.0, 0.012207031, 0.011956933 
1.8310547e-2, 2.2936982e+1, -0.000008359064, -21100.166, -2.1260731, 0.0, 0.0013500109, 0.00020586609, 0.00020586609, 0.0, 0.012207031, 0.011957319 
1.8310547e-2, 2.2948939e+1, -0.0000030882659, -21106.299, 1.3111539, 0.0, 0.0014209818, 0.000078362515, 0.000078362515, 0.0, 0.012207031, 0.011957249 
1.8310547e-2, 2.2960895e+1, -0.0000017488225, -21083.074, 1.0713023, 0.0, 0.00090980023, 0.00005268767, 0.00005268767, 0.0, 0.012207031, 0.011957515 
1.8310547e-2, 2.2972852e+1, -0.000015837568, -21086.543, 4.238508, 0.0, 0.0011488096, 0.00083612534, 0.00083612534, 0.0, 0.012207031, 0.011957476 
1.8310547e-2, 2.298481e+1, -0.000008331267, -21067.176, 2.1139743, 0.0, 0.0016845977, 0.00020379433, 0.00020379433, 0.0, 0.012207031, 0.011957698 
1.8310547e-2, 2.2996768e+1, -0.0000037999307, -21065.174, -1.4570844, 0.0, 0.001371251, 0.00009698704, 0.00009698704, 0.0, 0.012207031, 0.011957721 
1.8310547e-2, 2.3008727e+1, -0.0000024126537, -21045.277, 1.2283951, 0.0, 0.00076450605, 0.00006928774, 0.00006928774, 0.0, 0.012207031, 0.011957949 
1.8310547e-2, 2.3020683e+1, -0.000000479265, -21049.408, -0.35781223, 0.0, 0.0010733908, 0.000005603073, 0.000005603073, 0.0, 0.012207031, 0.0119579015 
1.8310547e-2, 2.3032643e+1, -0.00000047444132, -21022.39, 0.2954753, 0.0, 0.0018858786, 0.0000036785423, 0.0000036785423, 0.0, 0.012207031, 0.011958212 
1.8310547e-2, 2.3044601e+1, -0.000002492237, -21029.986, 1.203792, 0.0, 0.0012515463, 0.000066414854, 0.000066414854, 0.0, 0.012207031, 0.011958125 
1.8310547e-2, 2.305656e+1, -0.000008219422, -21005.574, -2.0821369, 0.0, 0.0008045102, 0.00019816835, 0.00019816835, 0.0, 0.012207031, 0.011958405 
1.8310547e-2, 2.3068517e+1, -0.0000009769705, -21006.691, 0.67252654, 0.0, 0.001387539, 0.000020553878, 0.000020553878, 0.0, 0.012207031, 0.011958392 
1.8310547e-2, 2.3080474e+1, -0.00000034378368, -20989.932, 0.08766192, 0.0, 0.0013556329, 0.000000022322638, 0.000000022322638, 0.0, 0.012207031, 0.011958584 
1.8310547e-2, 2.3092434e+1, -0.0000021576607, -20985.168, -1.1258099, 0.0, 0.0012709876, 0.000058239657, 0.000058239657, 0.0, 0.012207031, 0.011958639 
1.8310547e-2, 2.3104393e+1, -0.000006139153, -20968.338, 1.7784061, 0.0, 0.0012229569, 0.00014469438, 0.00014469438, 0.0, 0.012207031, 0.011958833 
1.8310547e-2, 2.3116352e+1, -0.0000039838224, -20968.54, -1.479797, 0.0, 0.0010336149, 0.000100448786, 0.000100448786, 0.0, 0.012207031, 0.01195883 
1.8310547e-2, 2.3128311e+1, -0.000000513633, -20946.51, 0.46772105, 0.0, 0.0015144338, 0.000009930256, 0.000009930256, 0.0, 0.012207031, 0.011959083 
1.8310547e-2, 2.314027e+1, -0.00000078363917, -20951.62, 0.5902184, 0.0, 0.001351937, 0.000015843132, 0.000015843132, 0.0, 0.012207031, 0.011959025 
1.8310547e-2, 2.3152229e+1, -0.0000087812905, -20929.691, 3.0748637, 0.0, 0.0010305365, 0.00044295908, 0.00044295908, 0.0, 0.012207031, 0.011959276 
1.8310547e-2, 2.3164189e+1, -0.0000048922016, -20925.64, 1.6104877, 0.0, 0.0011631665, 0.000119054814, 0.000119054814, 0.0, 0.012207031, 0.011959323 
1.8310547e-2, 2.3176147e+1, -0.0000010819525, -20913.695, -0.8200475, 0.0, 0.0013492613, 0.000031072952, 0.000031072952, 0.0, 0.012207031, 0.01195946 
1.8310547e-2, 2.3188107e+1, -0.0000004692922, -20901.06, -0.3619191, 0.0, 0.0015663875, 0.0000057976395, 0.0000057976395, 0.0, 0.012207031, 0.011959605 
1.8310547e-2, 2.3200068e+1, -0.000015477972, -20894.732, 4.2630763, 0.0, 0.0009824038, 0.00085430196, 0.00085430196, 0.0, 0.012207031, 0.011959678 
1.8310547e-2, 2.3212026e+1, -0.00000052966334, -20888.457, 0.47207692, 0.0, 0.00088838406, 0.000010139225, 0.000010139225, 0.0, 0.012207031, 0.011959749 
1.8310547e-2, 2.3223986e+1, -0.0000017680179, -20874.201, 0.975407, 0.0, 0.0016779102, 0.000043810676, 0.000043810676, 0.0, 0.012207031, 0.011959913 
1.8310547e-2, 2.3235947e+1, -0.0000004844833, -20867.965, -0.41908196, 0.0, 0.0013534911, 0.000007931751, 0.000007931751, 0.0, 0.012207031, 0.011959985 
1.8310547e-2, 2.3247905e+1, -0.0000022934278, -20850.652, 1.2280462, 0.0, 0.001006457, 0.00007003512, 0.00007003512, 0.0, 0.012207031, 0.011960183 
1.8310547e-2, 2.3259866e+1, -0.0006221175, -20849.957, 25.37072, 0.0, 0.0012353437, 0.03024953, 0.03024953, 0.0, 0.012207031, 0.011960192 
1.8310547e-2, 2.3271827e+1, -0.0000035742867, -20836.271, -1.3782557, 0.0, 0.0013082884, 0.000087593115, 0.000087593115, 0.0, 0.012207031, 0.011960349 
1.8310547e-2, 2.3283787e+1, -0.000017325412, -20826.014, 4.4738836, 0.0, 0.0013123488, 0.00094376266, 0.00094376266, 0.0, 0.012207031, 0.011960466 
1.8310547e-2, 2.3295748e+1, -0.0000008345198, -20814.783, 0.61698616, 0.0, 0.0012111629, 0.000017454018, 0.000017454018, 0.0, 0.012207031, 0.011960596 
1.8310547e-2, 2.330771e+1, -0.000019806881, -20788.91, 4.627483, 0.0, 0.0011681162, 0.001010242, 0.001010242, 0.0, 0.012207031, 0.011960893 
1.8310547e-2, 2.3319669e+1, -0.0006019073, -20801.635, 24.95348, 0.0, 0.0012750374, 0.029332047, 0.029332047, 0.0, 0.012207031, 0.011960747 
1.8310547e-2, 2.333163e+1, -0.00026590523, -20797.424, 16.585077, 0.0, 0.0013883471, 0.012959992, 0.012959992, 0.0, 0.012207031, 0.011960795 
1.8310547e-2, 2.3343591e+1, -0.00000160848, -20781.488, 0.997069, 0.0, 0.001207735, 0.0000462296, 0.0000462296, 0.0, 0.012207031, 0.011960978 
1.8310547e-2, 2.3355553e+1, -0.00000072968106, -20774.766, 0.6218407, 0.0, 0.0010993133, 0.000017883565, 0.000017883565, 0.0, 0.012207031, 0.011961055 
1.8310547e-2, 2.3367514e+1, -0.0003261983, -20762.607, 18.369854, 0.0, 0.0013370981, 0.01592664, 0.01592664, 0.0, 0.012207031, 0.011961195 
1.8310547e-2, 2.3379475e+1, -0.000013297092, -20739.646, -3.8943632, 0.0, 0.0013768923, 0.0007179624, 0.0007179624, 0.0, 0.012207031, 0.011961458 
1.8310547e-2, 2.3391436e+1, -0.0000062492204, -20741.963, 1.8752611, 0.0, 0.0012080687, 0.00016329135, 0.00016329135, 0.0, 0.012207031, 0.011961432 
1.8310547e-2, 2.3403399e+1, -0.0000006016572, -20724.684, -0.11659287, 0.0, 0.0011637836, 0.000000054271368, 0.000000054271368, 0.0, 0.012207031, 0.011961631 
1.8310547e-2, 2.341536e+1, -0.0000011542736, -20722.348, -0.69747156, 0.0, 0.0013273222, 0.000022321183, 0.000022321183, 0.0, 0.012207031, 0.011961658 
1.8310547e-2, 2.3427321e+1, -0.0000054663215, -20705.113, 1.7687665, 0.0, 0.0013115752, 0.00014563331, 0.00014563331, 0.0, 0.012207031, 0.011961855 
1.8310547e-2, 2.3439284e+1, -0.000002716556, -20701.447, 1.3042603, 0.0, 0.0011602081, 0.00007945619, 0.00007945619, 0.0, 0.012207031, 0.011961898 
1.8310547e-2, 2.3451245e+1, -0.000013133666, -20684.563, 3.726792, 0.0, 0.0014149963, 0.00065833225, 0.00065833225, 0.0, 0.012207031, 0.011962092 
1.8310547e-2, 2.3463207e+1, -0.000008795116, -20689.031, 2.543598, 0.0, 0.0013021954, 0.00030392568, 0.00030392568, 0.0, 0.012207031, 0.01196204 
1.8310547e-2, 2.3475169e+1, -0.000007742781, -20664.174, -2.4709585, 0.0, 0.0010627148, 0.00028772687, 0.00028772687, 0.0, 0.012207031, 0.011962325 
1.8310547e-2, 2.3487131e+1, -0.00000056393526, -20666.246, 0.4807994, 0.0, 0.0013580092, 0.000010621847, 0.000010621847, 0.0, 0.012207031, 0.011962302 
1.8310547e-2, 2.3499094e+1, -0.0000005797078, -20648.713, 0.57114375, 0.0, 0.0013794106, 0.000015218138, 0.000015218138, 0.0, 0.012207031, 0.011962503 
1.8310547e-2, 2.3511057e+1, -0.00012157133, -20645.43, 11.212031, 0.0, 0.0011927113, 0.0059674084, 0.0059674084, 0.0, 0.012207031, 0.011962541 
1.8310547e-2, 2.3523019e+1, -0.000008933667, -20621.611, -2.412034, 0.0, 0.001328739, 0.00027319306, 0.00027319306, 0.0, 0.012207031, 0.011962815 
1.8310547e-2, 2.3534983e+1, -0.0000022768813, -20629.355, 1.1477915, 0.0, 0.0012344588, 0.00006158481, 0.00006158481, 0.0, 0.012207031, 0.011962726 
1.8310547e-2, 2.3546946e+1, -0.0000003251022, -20602.455, 0.04049889, 0.0, 0.0013161976, -0.0000002454908, -0.0000002454908, 0.0, 0.012207031, 0.011963035 
1.8310547e-2, 2.3558909e+1, -0.0000071967806, -20606.238, 1.9403869, 0.0, 0.0014309, 0.0001755198, 0.0001755198, 0.0, 0.012207031, 0.011962991 
1.8310547e-2, 2.3570871e+1, -0.000015201862, -20586.238, 4.234813, 0.0, 0.0010616372, 0.0008559453, 0.0008559453, 0.0, 0.012207031, 0.011963221 
1.8310547e-2, 2.3582834e+1, -0.0000056767476, -20591.215, 1.7209167, 0.0, 0.0011020402, 0.00013814936, 0.00013814936, 0.0, 0.012207031, 0.011963164 
1.8310547e-2, 2.3594797e+1, -0.0000004562027, -20564.81, -0.20691621, 0.0, 0.0017406783, 0.0000016257181, 0.0000016257181, 0.0, 0.012207031, 0.011963467 
1.8310547e-2, 2.360676e+1, -0.00000039428284, -20570.832, 0.21008961, 0.0, 0.0013888412, 0.0000017513594, 0.0000017513594, 0.0, 0.012207031, 0.011963398 
1.8310547e-2, 2.3618725e+1, -0.00000029549574, -20545.941, 0.022552596, 0.0, 0.00080716185, -0.00000027074202, -0.00000027074202, 0.0, 0.012207031, 0.011963684 
1.8310547e-2, 2.3630688e+1, -0.0000003232437, -20549.738, -0.15658376, 0.0, 0.0012883404, 0.0000008698844, 0.0000008698844, 0.0, 0.012207031, 0.01196364 
1.8310547e-2, 2.3642653e+1, -0.00000027035074, -20527.492, 0.00048596007, 0.0, 0.0016534558, -0.0000002703382, -0.0000002703382, 0.0, 0.012207031, 0.011963896 
1.8310547e-2, 2.3654616e+1, -0.000000639251, -20530.164, -0.4642128, 0.0, 0.0011788906, 0.000009857184, 0.000009857184, 0.0, 0.012207031, 0.011963866 
1.8310547e-2, 2.366658e+1, -0.0000005875181, -20508.102, 0.47036684, 0.0, 0.001189164, 0.000010200656, 0.000010200656, 0.0, 0.012207031, 0.011964119 
1.8310547e-2, 2.3678543e+1, -0.0000015617142, -20511.457, -0.9649548, 0.0, 0.0013786524, 0.00004383427, 0.00004383427, 0.0, 0.012207031, 0.011964081 
1.8310547e-2, 2.3690508e+1, -0.00026919448, -20487.578, 16.682587, 0.0, 0.0012594044, 0.013315063, 0.013315063, 0.0, 0.012207031, 0.011964356 
1.8310547e-2, 2.3702472e+1, -0.000004349973, -20489.275, -1.5724918, 0.0, 0.0011987456, 0.000116334144, 0.000116334144, 0.0, 0.012207031, 0.011964336 
1.8310547e-2, 2.3714438e+1, -0.00000075119607, -20472.176, 0.36463073, 0.0, 0.0013918385, 0.000005743259, 0.000005743259, 0.0, 0.012207031, 0.011964533 
1.8310547e-2, 2.3726402e+1, -0.000001354177, -20467.096, -0.90517616, 0.0, 0.0013921316, 0.000038678074, 0.000038678074, 0.0, 0.012207031, 0.01196459 
1.8310547e-2, 2.3738365e+1, -0.0000010517566, -20450.563, 0.7923952, 0.0, 0.0011584946, 0.00002965107, 0.00002965107, 0.0, 0.012207031, 0.011964781 
1.8310547e-2, 2.375033e+1, -0.0000007290389, -20449.973, 0.5757774, 0.0, 0.0011312584, 0.000015482212, 0.000015482212, 0.0, 0.012207031, 0.011964788 
1.8310547e-2, 2.3762295e+1, -0.00000234541, -20433.813, -1.2642145, 0.0, 0.0015030213, 0.00007586997, 0.00007586997, 0.0, 0.012207031, 0.011964973 
1.8310547e-2, 2.3774262e+1, -0.0000008481493, -20428.041, -0.5986822, 0.0, 0.0013846005, 0.000016697362, 0.000016697362, 0.0, 0.012207031, 0.01196504 
1.8310547e-2, 2.3786226e+1, -0.0000016037507, -20412.002, 1.0054972, 0.0, 0.0010974298, 0.000047927133, 0.000047927133, 0.0, 0.012207031, 0.0119652245 
1.8310547e-2, 2.3798192e+1, -0.0000023883963, -20410.307, 1.2522444, 0.0, 0.0012722681, 0.000074441225, 0.000074441225, 0.0, 0.012207031, 0.011965244 
1.8310547e-2, 2.3810156e+1, -0.0000049369537, -20397.945, -1.6966892, 0.0, 0.0014025238, 0.00013619267, 0.00013619267, 0.0, 0.012207031, 0.011965386 
1.8310547e-2, 2.3822123e+1, -0.00000073382756, -20385.533, -0.5514251, 0.0, 0.0012213554, 0.000014182126, 0.000014182126, 0.0, 0.012207031, 0.011965528 
1.8310547e-2, 2.3834087e+1, -0.000007647328, -20375.883, 1.9823161, 0.0, 0.001260321, 0.00018520698, 0.00018520698, 0.0, 0.012207031, 0.01196564 
1.8310547e-2, 2.3846054e+1, -0.0000012246882, -20367.451, -0.70697343, 0.0, 0.0014554133, 0.000023315028, 0.000023315028, 0.0, 0.012207031, 0.011965737 
1.8310547e-2, 2.3858018e+1, -0.000005629219, -20352.34, 2.6104467, 0.0, 0.0012468791, 0.00032919378, 0.00032919378, 0.0, 0.012207031, 0.01196591 
1.8310547e-2, 2.3869985e+1, -0.000056154808, -20351.139, 7.630338, 0.0, 0.0010093035, 0.0028047198, 0.0028047198, 0.0, 0.012207031, 0.011965924 
1.8310547e-2, 2.3881951e+1, -0.000014211733, -20342.148, 4.1452417, 0.0, 0.0014757856, 0.0008304889, 0.0008304889, 0.0, 0.012207031, 0.011966027 
1.8310547e-2, 2.3893917e+1, -0.0000003079145, -20327.074, -0.038586117, 0.0, 0.0015119524, -0.00000023466782, -0.00000023466782, 0.0, 0.012207031, 0.011966201 
1.8310547e-2, 2.3905884e+1, -0.0000016333951, -20317.94, 1.0028216, 0.0, 0.0010764988, 0.000047862326, 0.000047862326, 0.0, 0.012207031, 0.011966306 
1.8310547e-2, 2.3917851e+1, -0.0000140802695, -20309.508, 3.9971197, 0.0, 0.0012506278, 0.0007725939, 0.0007725939, 0.0, 0.012207031, 0.011966403 
1.8310547e-2, 2.3929815e+1, -0.000009460553, -20302.236, 2.3341343, 0.0, 0.0014145178, 0.00025889327, 0.00025889327, 0.0, 0.012207031, 0.011966486 
1.8310547e-2, 2.3941782e+1, -0.0000013516614, -20288.76, -0.885652, 0.0, 0.0012255538, 0.000037309128, 0.000037309128, 0.0, 0.012207031, 0.011966641 
1.8310547e-2, 2.3953749e+1, -0.00000064140085, -20280.775, 0.55495214, 0.0, 0.0013117689, 0.00001454401, 0.00001454401, 0.0, 0.012207031, 0.011966733 
1.8310547e-2, 2.3965715e+1, -0.0000013590153, -20268.443, 0.92209834, 0.0, 0.0013535123, 0.00004059119, 0.00004059119, 0.0, 0.012207031, 0.011966875 
1.8310547e-2, 2.3977682e+1, -0.0000005161823, -20262.941, -0.4498773, 0.0, 0.0012575751, 0.0000094719835, 0.0000094719835, 0.0, 0.012207031, 0.011966938 
1.8310547e-2, 2.398965e+1, -0.00000031667057, -20246.975, -0.20501775, 0.0, 0.0013163538, 0.0000017593047, 0.0000017593047, 0.0, 0.012207031, 0.011967123 
1.8310547e-2, 2.4001618e+1, -0.00000034155906, -20244.35, -0.13781218, 0.0, 0.0013334715, 0.0000005965885, 0.0000005965885, 0.0, 0.012207031, 0.011967152 
1.8310547e-2, 2.4013585e+1, -0.0000006546083, -20227.55, 0.5404269, 0.0, 0.0012541834, 0.000013784178, 0.000013784178, 0.0, 0.012207031, 0.011967345 
1.8310547e-2, 2.4025553e+1, -0.00000035139144, -20224.873, 0.15860336, 0.0, 0.0012938973, 0.0000008923744, 0.0000008923744, 0.0, 0.012207031, 0.011967377 
1.8310547e-2, 2.4037519e+1, -0.0000004641384, -20206.309, -0.2401065, 0.0, 0.0014176914, 0.000002388988, 0.000002388988, 0.0, 0.012207031, 0.01196759 
1.8310547e-2, 2.4049486e+1, -0.0000032772562, -20207.309, 1.329676, 0.0, 0.0012960924, 0.00008421775, 0.00008421775, 0.0, 0.012207031, 0.011967578 
1.8310547e-2, 2.4061455e+1, -0.00000072440673, -20186.16, -0.55987483, 0.0, 0.0012143275, 0.000014804049, 0.000014804049, 0.0, 0.012207031, 0.011967822 
1.8310547e-2, 2.4073423e+1, -0.00000030997163, -20186.299, 0.19492882, 0.0, 0.0013615178, 0.0000015723599, 0.0000015723599, 0.0, 0.012207031, 0.01196782 
1.8310547e-2, 2.408539e+1, -0.000016201704, -20168.6, 4.3882065, 0.0, 0.0013650159, 0.0009385673, 0.0009385673, 0.0, 0.012207031, 0.011968024 
1.8310547e-2, 2.4097359e+1, -0.0000005983414, -20167.164, 0.5109809, 0.0, 0.0012969146, 0.000012348522, 0.000012348522, 0.0, 0.012207031, 0.01196804 
1.8310547e-2, 2.4109328e+1, -0.00000090493063, -20146.531, 0.65777814, 0.0, 0.0013056992, 0.00002057133, 0.00002057133, 0.0, 0.012207031, 0.011968277 
1.8310547e-2, 2.4121293e+1, -0.0000024569988, -20149.254, -1.1390746, 0.0, 0.0013496515, 0.00006193699, 0.00006193699, 0.0, 0.012207031, 0.011968247 
1.8310547e-2, 2.4133262e+1, -0.0000020928342, -20125.273, 1.1079955, 0.0, 0.0013130065, 0.00005890778, 0.00005890778, 0.0, 0.012207031, 0.011968522 
1.8310547e-2, 2.414523e+1, -0.000000620926, -20132.39, -0.45701766, 0.0, 0.0012310463, 0.000009753654, 0.000009753654, 0.0, 0.012207031, 0.01196844 
1.8310547e-2, 2.41572e+1, -0.0000013013581, -20105.094, -0.74587953, 0.0, 0.001492645, 0.00002637005, 0.00002637005, 0.0, 0.012207031, 0.011968754 
1.8310547e-2, 2.4169168e+1, -0.00001695961, -20111.639, 4.4102116, 0.0, 0.001326703, 0.0009501403, 0.0009501403, 0.0, 0.012207031, 0.011968679 
1.8310547e-2, 2.4181136e+1, -0.0000005893711, -20079.55, 0.344813, 0.0, 0.0011841786, 0.0000053318763, 0.0000053318763, 0.0, 0.012207031, 0.0119690485 
1.8310547e-2, 2.4193108e+1, -0.00003287802, -20074.59, 5.860174, 0.0, 0.0013874193, 0.0016778238, 0.0016778238, 0.0, 0.012207031, 0.011969105 
1.8310547e-2, 2.4205077e+1, -0.00077868963, -20069.07, 28.36613, 0.0, 0.001368844, 0.03931464, 0.03931464, 0.0, 0.012207031, 0.01196917 
1.8310547e-2, 2.4217045e+1, -0.0006938742, -20085.861, 26.777866, 0.0, 0.0012667751, 0.03500551, 0.03500551, 0.0, 0.012207031, 0.011968976 
1.8310547e-2, 2.4229014e+1, -0.0000019059006, -20046.625, 1.00577, 0.0, 0.0013820098, 0.000048555128, 0.000048555128, 0.0, 0.012207031, 0.011969428 
1.8310547e-2, 2.4240984e+1, -0.000016144262, -20041.24, 4.2484717, 0.0, 0.0013695474, 0.0008844742, 0.0008844742, 0.0, 0.012207031, 0.011969489 
1.8310547e-2, 2.4252953e+1, -0.0006058087, -20033.832, 25.020187, 0.0, 0.0012555978, 0.030641772, 0.030641772, 0.0, 0.012207031, 0.011969575 
1.8310547e-2, 2.4264923e+1, -0.0002901291, -20040.367, 17.313686, 0.0, 0.0012719128, 0.014667856, 0.014667856, 0.0, 0.012207031, 0.011969499 
1.8310547e-2, 2.4276891e+1, -0.000002866791, -20012.535, 1.3160137, 0.0, 0.0014628995, 0.00008367357, 0.00008367357, 0.0, 0.012207031, 0.01196982 
1.8310547e-2, 2.4288863e+1, -0.00000034763588, -20014.113, 0.0057071694, 0.0, 0.0013247532, -0.00000034600816, -0.00000034600816, 0.0, 0.012207031, 0.011969802 
1.8310547e-2, 2.4300833e+1, -0.0000005875203, -19995.031, 0.19848393, 0.0, 0.0012582307, 0.000001382763, 0.000001382763, 0.0, 0.012207031, 0.011970022 
1.8310547e-2, 2.4312803e+1, -0.00000045678448, -19990.338, 0.28532436, 0.0, 0.0013567607, 0.0000036156816, 0.0000036156816, 0.0, 0.012207031, 0.011970076 
1.8310547e-2, 2.4324772e+1, -0.0000026699208, -19971.691, 1.2530919, 0.0, 0.001374878, 0.00007595334, 0.00007595334, 0.0, 0.012207031, 0.01197029 
1.8310547e-2, 2.4336742e+1, -0.00000079017747, -19970.89, -0.5308987, 0.0, 0.0012021641, 0.000013323039, 0.000013323039, 0.0, 0.012207031, 0.011970299 
1.8310547e-2, 2.4348713e+1, -0.0000012451526, -19953.99, -0.8291195, 0.0, 0.0014316111, 0.000033206055, 0.000033206055, 0.0, 0.012207031, 0.011970494 
1.8310547e-2, 2.4360684e+1, -0.0000007414722, -19951.068, 0.5513538, 0.0, 0.0014578871, 0.000014495356, 0.000014495356, 0.0, 0.012207031, 0.0119705275 
1.8310547e-2, 2.4372654e+1, -0.0000003671645, -19935.578, -0.14192902, 0.0, 0.0011525392, 0.0000006432856, 0.0000006432856, 0.0, 0.012207031, 0.011970706 
1.8310547e-2, 2.4384624e+1, -0.0000006825028, -19930.1, -0.59649277, 0.0, 0.0012923176, 0.000017170074, 0.000017170074, 0.0, 0.012207031, 0.011970769 
1.8310547e-2, 2.4396597e+1, -0.000015853762, -19913.662, 4.3030787, 0.0, 0.0014775151, 0.00091398443, 0.00091398443, 0.0, 0.012207031, 0.011970959 
1.8310547e-2, 2.4408567e+1, -0.0000069873286, -19911.133, 1.8538431, 0.0, 0.0012597038, 0.00016561634, 0.00016561634, 0.0, 0.012207031, 0.011970988 
1.8310547e-2, 2.4420539e+1, -0.000008696445, -19898.105, 2.0775452, 0.0, 0.0013413564, 0.00020821836, 0.00020821836, 0.0, 0.012207031, 0.0119711375 
1.8310547e-2, 2.4432509e+1, -0.00000046220057, -19890.777, 0.36966947, 0.0, 0.0013745936, 0.0000064080923, 0.0000064080923, 0.0, 0.012207031, 0.011971221 
1.8310547e-2, 2.444448e+1, -0.000003272031, -19875.861, 1.3235034, 0.0, 0.0012920159, 0.00008485804, 0.00008485804, 0.0, 0.012207031, 0.011971394 
1.8310547e-2, 2.4456452e+1, -0.000008671923, -19872.338, 3.210458, 0.0, 0.0013083563, 0.0005099908, 0.0005099908, 0.0, 0.012207031, 0.011971434 
1.8310547e-2, 2.4468423e+1, -0.0000091529955, -19860.271, 2.1388755, 0.0, 0.0013676183, 0.00022119572, 0.00022119572, 0.0, 0.012207031, 0.011971573 
1.8310547e-2, 2.4480395e+1, -0.0000004319305, -19850.994, -0.24040657, 0.0, 0.0013500379, 0.0000024795263, 0.0000024795263, 0.0, 0.012207031, 0.0119716795 
1.8310547e-2, 2.4492367e+1, -0.00000035868118, -19840.8, -0.102377295, 0.0, 0.001325605, 0.0000001695771, 0.0000001695771, 0.0, 0.012207031, 0.011971797 
1.8310547e-2, 2.450434e+1, -0.00000034016932, -19830.404, 0.21585667, 0.0, 0.0013045502, 0.0000020094594, 0.0000020094594, 0.0, 0.012207031, 0.011971917 
1.8310547e-2, 2.4516311e+1, -0.00000067346923, -19820.357, 0.5051096, 0.0, 0.001348628, 0.00001219894, 0.00001219894, 0.0, 0.012207031, 0.0119720325 
1.8310547e-2, 2.4528283e+1, -0.0000016058327, -19810.738, -0.949122, 0.0, 0.0013802602, 0.0000438661, 0.0000438661, 0.0, 0.012207031, 0.011972143 
1.8310547e-2, 2.4540254e+1, -0.00000049571355, -19801.98, -0.31537467, 0.0, 0.0013493624, 0.0000045270754, 0.0000045270754, 0.0, 0.012207031, 0.011972245 
1.8310547e-2, 2.4552228e+1, -0.0000026598377, -19791.996, 1.2418572, 0.0, 0.0012199418, 0.00007526102, 0.00007526102, 0.0, 0.012207031, 0.011972359 
1.8310547e-2, 2.4564199e+1, -0.00000040858419, -19782.53, -0.2594564, 0.0, 0.001376043, 0.0000029942967, 0.0000029942967, 0.0, 0.012207031, 0.011972468 
1.8310547e-2, 2.4576172e+1, -0.00000046284396, -19769.42, 0.43965676, 0.0, 0.0014758102, 0.000009314783, 0.000009314783, 0.0, 0.012207031, 0.011972619 
1.8310547e-2, 2.4588144e+1, -0.00000033975883, -19764.508, 0.09273043, 0.0, 0.0012332437, 0.00000009531141, 0.00000009531141, 0.0, 0.012207031, 0.011972676 
1.8310547e-2, 2.4600118e+1, -0.0000063346215, -19750.137, -1.7970043, 0.0, 0.0013408087, 0.00015716928, 0.00015716928, 0.0, 0.012207031, 0.011972842 
1.8310547e-2, 2.4612091e+1, -0.0000008726913, -19746.2, 0.67233664, 0.0, 0.0014300265, 0.000022019638, 0.000022019638, 0.0, 0.012207031, 0.0119728865 
1.8310547e-2, 2.4624063e+1, -0.0000030210986, -19730.824, 1.3099581, 0.0, 0.0012036663, 0.00008394892, 0.00008394892, 0.0, 0.012207031, 0.011973064 
1.8310547e-2, 2.4636036e+1, -0.00000033901543, -19723.879, -0.07353529, 0.0, 0.001384112, -0.000000064857886, -0.000000064857886, 0.0, 0.012207031, 0.0119731445 
1.8310547e-2, 2.464801e+1, -0.00000058530645, -19709.957, -0.4026462, 0.0, 0.0014526065, 0.000007640181, 0.000007640181, 0.0, 0.012207031, 0.011973305 
1.8310547e-2, 2.4659982e+1, -0.0000005300724, -19707.703, -0.37222466, 0.0, 0.001287899, 0.000006500235, 0.000006500235, 0.0, 0.012207031, 0.011973331 
1.8310547e-2, 2.4671957e+1, -0.000001341907, -19690.227, 0.77481616, 0.0, 0.001321781, 0.000029147333, 0.000029147333, 0.0, 0.012207031, 0.011973532 
1.8310547e-2, 2.468393e+1, -0.0000007617259, -19687.412, 0.5405965, 0.0, 0.0013314566, 0.000014082507, 0.000014082507, 0.0, 0.012207031, 0.0119735645 
1.8310547e-2, 2.4695903e+1, -0.0000048825573, -19664.26, 2.5766482, 0.0, 0.00143815, 0.00033274098, 0.00033274098, 0.0, 0.012207031, 0.011973831 
1.8310547e-2, 2.4707878e+1, -0.000052187537, -19669.234, 7.365719, 0.0, 0.0013612503, 0.0027061205, 0.0027061205, 0.0, 0.012207031, 0.011973774 
1.8310547e-2, 2.4719852e+1, -0.000049626058, -19652.373, 7.14698, 0.0, 0.00123724, 0.0025495163, 0.0025495163, 0.0, 0.012207031, 0.011973968 
1.8310547e-2, 2.4731825e+1, -0.000004342041, -19651.309, 2.5293944, 0.0, 0.001411768, 0.00032122587, 0.00032122587, 0.0, 0.012207031, 0.01197398 
1.8310547e-2, 2.47438e+1, -0.0000007959421, -19631.467, -0.58319026, 0.0, 0.0013862416, 0.000016528837, 0.000016528837, 0.0, 0.012207031, 0.011974209 
1.8310547e-2, 2.4755773e+1, -0.0000004670558, -19631.664, 0.34115416, 0.0, 0.0012642125, 0.0000054614356, 0.0000054614356, 0.0, 0.012207031, 0.011974206 
1.8310547e-2, 2.4767748e+1, -0.000001954414, -19609.15, 1.0946344, 0.0, 0.0014724376, 0.00005915096, 0.00005915096, 0.0, 0.012207031, 0.011974466 
1.8310547e-2, 2.4779722e+1, -0.00000038891025, -19612.254, -0.25485048, 0.0, 0.0013964635, 0.0000029227303, 0.0000029227303, 0.0, 0.012207031, 0.011974431 
1.8310547e-2, 2.4791697e+1, -0.00000039730418, -19589.18, 0.12828052, 0.0, 0.0012014887, 0.00000044274566, 0.00000044274566, 0.0, 0.012207031, 0.011974696 
1.8310547e-2, 2.4803673e+1, -0.00000062833067, -19590.963, -0.47761217, 0.0, 0.0013742499, 0.000011015476, 0.000011015476, 0.0, 0.012207031, 0.011974676 
1.8310547e-2, 2.4815647e+1, -0.0000090382555, -19567.291, 2.3064585, 0.0, 0.001482978, 0.0002628313, 0.0002628313, 0.0, 0.012207031, 0.011974948 
1.8310547e-2, 2.4827622e+1, -0.002046116, -19574.42, 45.96302, 0.0, 0.0012750073, 0.10587982, 0.10587982, 0.0, 0.012207031, 0.0119748665 
1.8310547e-2, 2.4839596e+1, -0.000032449214, -19553.828, 5.884957, 0.0, 0.0013885841, 0.0017386982, 0.0017386982, 0.0, 0.012207031, 0.011975104 
1.8310547e-2, 2.4851573e+1, -0.000002937691, -19553.596, -1.2894423, 0.0, 0.0014020439, 0.0000820933, 0.0000820933, 0.0, 0.012207031, 0.011975107 
1.8310547e-2, 2.4863547e+1, -0.0000015695684, -19530.613, 0.9665867, 0.0, 0.0012993556, 0.00004626763, 0.00004626763, 0.0, 0.012207031, 0.011975371 
1.8310547e-2, 2.4875523e+1, -0.00000074462093, -19533.836, 0.5234232, 0.0, 0.0013300788, 0.000013280878, 0.000013280878, 0.0, 0.012207031, 0.011975334 
1.8310547e-2, 2.4887496e+1, -0.000004655242, -19512.844, -1.6249839, 0.0, 0.0014553663, 0.00013066962, 0.00013066962, 0.0, 0.012207031, 0.011975576 
1.8310547e-2, 2.4899474e+1, -0.0000003876478, -19512.734, 0.065929465, 0.0, 0.0013605497, -0.00000016488775, -0.00000016488775, 0.0, 0.012207031, 0.011975577 
1.8310547e-2, 2.491145e+1, -0.0000010267539, -19494.135, 0.6874113, 0.0, 0.0013064108, 0.000023213066, 0.000023213066, 0.0, 0.012207031, 0.011975792 
1.8310547e-2, 2.4923426e+1, -0.00000054971815, -19493.635, -0.48199955, 0.0, 0.0014095702, 0.000011368204, 0.000011368204, 0.0, 0.012207031, 0.011975798 
1.8310547e-2, 2.49354e+1, -0.00000094470414, -19472.77, 0.6730992, 0.0, 0.0013733665, 0.000022321765, 0.000022321765, 0.0, 0.012207031, 0.011976038 
1.8310547e-2, 2.4947377e+1, -0.00000047368673, -19474.313, 0.29489177, 0.0, 0.0012535371, 0.000003991743, 0.000003991743, 0.0, 0.012207031, 0.01197602 
1.8310547e-2, 2.4959353e+1, -0.0000008080816, -19454.807, -0.6936408, 0.0, 0.0014995805, 0.00002392296, 0.00002392296, 0.0, 0.012207031, 0.011976245 
1.8310547e-2, 2.4971329e+1, -0.00000047313026, -19452.945, -0.36984292, 0.0, 0.0013816719, 0.000006558388, 0.000006558388, 0.0, 0.012207031, 0.011976266 
1.8310547e-2, 2.4983305e+1, -0.0000005227693, -19437.744, -0.43767342, 0.0, 0.0012731166, 0.000009332183, 0.000009332183, 0.0, 0.012207031, 0.011976442 
1.8310547e-2, 2.4995281e+1, -0.0000012301101, -19433.951, 0.76519495, 0.0, 0.0014147351, 0.00002889878, 0.00002889878, 0.0, 0.012207031, 0.011976486 
1.8310547e-2, 2.500726e+1, -0.0000015430898, -19415.807, 0.9493423, 0.0, 0.0013694946, 0.00004487532, 0.00004487532, 0.0, 0.012207031, 0.011976695 
1.8310547e-2, 2.5019234e+1, -0.00000058423166, -19412.74, -0.39790538, 0.0, 0.0013269421, 0.0000075716853, 0.0000075716853, 0.0, 0.012207031, 0.01197673 
1.8310547e-2, 2.5031212e+1, -0.0000007366117, -19399.395, -0.6204151, 0.0, 0.0014126161, 0.000019104984, 0.000019104984, 0.0, 0.012207031, 0.011976884 
1.8310547e-2, 2.504319e+1, -0.0000007321424, -19392.93, -0.5949385, 0.0, 0.0013707618, 0.000017519444, 0.000017519444, 0.0, 0.012207031, 0.011976958 
1.8310547e-2, 2.5055167e+1, -0.000000923582, -19377.773, 0.71014327, 0.0, 0.0013932089, 0.00002510126, 0.00002510126, 0.0, 0.012207031, 0.011977133 
1.8310547e-2, 2.5067142e+1, -0.00000044587398, -19375.695, 0.25791705, 0.0, 0.0012406535, 0.000002987359, 0.000002987359, 0.0, 0.012207031, 0.011977158 
1.8310547e-2, 2.507912e+1, -0.00000027731167, -19359.611, 0.069204345, 0.0, 0.0014291157, -0.00000002992965, -0.00000002992965, 0.0, 0.012207031, 0.011977343 
1.8310547e-2, 2.50911e+1, -0.0000014206038, -19352.559, 0.77813435, 0.0, 0.0015317054, 0.000029866893, 0.000029866893, 0.0, 0.012207031, 0.011977424 
1.8310547e-2, 2.5103074e+1, -0.000002876605, -19340.367, -1.1909789, 0.0, 0.0012127901, 0.00007046382, 0.00007046382, 0.0, 0.012207031, 0.011977565 
1.8310547e-2, 2.5115052e+1, -0.00000039668424, -19334.107, -0.08041356, 0.0, 0.0013260798, -0.000000062231265, -0.000000062231265, 0.0, 0.012207031, 0.011977637 
1.8310547e-2, 2.5127032e+1, -0.0000006346682, -19324.19, 0.3543805, 0.0, 0.0014960337, 0.000005864207, 0.000005864207, 0.0, 0.012207031, 0.011977752 
1.8310547e-2, 2.513901e+1, -0.00000052288584, -19312.545, -0.4589764, 0.0, 0.0012554437, 0.000010385014, 0.000010385014, 0.0, 0.012207031, 0.011977886 
1.8310547e-2, 2.5150985e+1, -0.0000016959029, -19300.688, 0.9920051, 0.0, 0.0013946976, 0.00004929058, 0.00004929058, 0.0, 0.012207031, 0.011978023 
1.8310547e-2, 2.5162965e+1, -0.0000027268086, -19295.6, -1.1359714, 0.0, 0.0014723632, 0.000064150154, 0.000064150154, 0.0, 0.012207031, 0.011978081 
1.8310547e-2, 2.5174943e+1, -0.0000013886784, -19283.625, 0.85935515, 0.0, 0.0012597365, 0.000036907615, 0.000036907615, 0.0, 0.012207031, 0.011978219 
1.8310547e-2, 2.518692e+1, -0.00000038082675, -19279.174, -0.041482832, 0.0, 0.0014152506, -0.00000029156945, -0.00000029156945, 0.0, 0.012207031, 0.0119782705 
1.8310547e-2, 2.51989e+1, -0.0007599151, -19263.791, 28.003378, 0.0, 0.0014384021, 0.03994794, 0.03994794, 0.0, 0.012207031, 0.011978448 
1.8310547e-2, 2.5210878e+1, -0.000028785716, -19250.861, -5.5183907, 0.0, 0.0011793997, 0.0015530987, 0.0015530987, 0.0, 0.012207031, 0.011978597 
1.8310547e-2, 2.5222856e+1, -0.0000043184345, -19245.98, 2.6727939, 0.0, 0.0014815931, 0.00036686697, 0.00036686697, 0.0, 0.012207031, 0.011978653 
1.8310547e-2, 2.5234833e+1, -0.0000011594561, -19231.504, -0.79641396, 0.0, 0.0014242269, 0.000031821593, 0.000031821593, 0.0, 0.012207031, 0.011978821 
1.8310547e-2, 2.5246814e+1, -0.0000037191478, -19225.07, -1.3144528, 0.0, 0.0012071737, 0.00008615236, 0.00008615236, 0.0, 0.012207031, 0.0119788945 
1.8310547e-2, 2.525879e+1, -0.0000084442245, -19214.566, 2.0567145, 0.0, 0.0015980001, 0.00021170515, 0.00021170515, 0.0, 0.012207031, 0.0119790165 
1.8310547e-2, 2.5270772e+1, -0.00000053659136, -19207.598, -0.39003924, 0.0, 0.0013905712, 0.0000073837437, 0.0000073837437, 0.0, 0.012207031, 0.011979097 
1.8310547e-2, 2.5282753e+1, -0.000004359466, -19192.691, -1.533153, 0.0, 0.0010501065, 0.00011811206, 0.00011811206, 0.0, 0.012207031, 0.011979269 
1.8310547e-2, 2.529473e+1, -0.0000014237024, -19190.129, 0.80552125, 0.0, 0.0015135957, 0.000032388703, 0.000032388703, 0.0, 0.012207031, 0.011979298 
1.8310547e-2, 2.530671e+1, -0.00000075288904, -19172.764, 0.5834247, 0.0, 0.0015305248, 0.000017000646, 0.000017000646, 0.0, 0.012207031, 0.011979498 
1.8310547e-2, 2.5318688e+1, -0.0000006521436, -19168.643, -0.37406293, 0.0, 0.0012444826, 0.0000066474386, 0.0000066474386, 0.0, 0.012207031, 0.011979546 
1.8310547e-2, 2.533067e+1, -0.00000041330807, -19153.404, 0.11132328, 0.0, 0.00140259, 0.00000023372559, 0.00000023372559, 0.0, 0.012207031, 0.0119797215 
1.8310547e-2, 2.534265e+1, -0.0000013951858, -19151.193, 0.8284357, 0.0, 0.0013265756, 0.000034441, 0.000034441, 0.0, 0.012207031, 0.011979748 
1.8310547e-2, 2.535463e+1, -0.0000017439817, -19129.318, 1.0637085, 0.0, 0.0014469724, 0.000057404795, 0.000057404795, 0.0, 0.012207031, 0.01198 
1.8310547e-2, 2.536661e+1, -0.0000062572276, -19127.371, 2.7931, 0.0, 0.001495702, 0.00040160894, 0.00040160894, 0.0, 0.012207031, 0.011980022 
1.8310547e-2, 2.537859e+1, -0.000323411, -19111.963, 18.266905, 0.0, 0.0010960678, 0.017135786, 0.017135786, 0.0, 0.012207031, 0.0119802 
1.8310547e-2, 2.5390568e+1, -0.00013758926, -19113.926, 11.914414, 0.0, 0.001404192, 0.0072891014, 0.0072891014, 0.0, 0.012207031, 0.011980178 
1.8310547e-2, 2.540255e+1, -0.000015419206, -19094.717, 4.2190423, 0.0, 0.0016283139, 0.00091679237, 0.00091679237, 0.0, 0.012207031, 0.0119803995 
1.8310547e-2, 2.541453e+1, -0.00000075626735, -19092.379, -0.34799016, 0.0, 0.0011767984, 0.0000055864293, 0.0000055864293, 0.0, 0.012207031, 0.0119804265 
1.8310547e-2, 2.542651e+1, -0.00005016292, -19071.459, 7.2298884, 0.0, 0.0014677556, 0.0026906487, 0.0026906487, 0.0, 0.012207031, 0.011980668 
1.8310547e-2, 2.543849e+1, -0.00007537298, -19078.117, 8.822589, 0.0, 0.0015106618, 0.004004592, 0.004004592, 0.0, 0.012207031, 0.01198059 
1.8310547e-2, 2.545047e+1, -0.0000045016036, -19053.967, 1.5978123, 0.0, 0.0011228487, 0.00012948648, 0.00012948648, 0.0, 0.012207031, 0.01198087 
1.8310547e-2, 2.5462452e+1, -0.00000035800588, -19056.387, 0.16162185, 0.0, 0.0013971822, 0.0000010127478, 0.0000010127478, 0.0, 0.012207031, 0.011980842 
1.8310547e-2, 2.5474435e+1, -0.00000062393167, -19034.781, 0.039505944, 0.0, 0.0015798068, -0.0000005419388, -0.0000005419388, 0.0, 0.012207031, 0.0119810905 
1.8310547e-2, 2.5486413e+1, -0.0000009185484, -19033.646, -0.6310152, 0.0, 0.0012954146, 0.000020001255, 0.000020001255, 0.0, 0.012207031, 0.011981104 
1.8310547e-2, 2.5498396e+1, -0.0000014114438, -19013.393, 0.9730332, 0.0, 0.0013775148, 0.0000483847, 0.0000483847, 0.0, 0.012207031, 0.011981338 
1.8310547e-2, 2.5510377e+1, -0.00000045934485, -19018.64, 0.25019097, 0.0, 0.0013794764, 0.0000028319264, 0.0000028319264, 0.0, 0.012207031, 0.011981278 
1.8310547e-2, 2.5522357e+1, -0.00000052179126, -18992.695, 0.21928859, 0.0, 0.001408636, 0.0000020101033, 0.0000020101033, 0.0, 0.012207031, 0.011981577 
1.8310547e-2, 2.553434e+1, -0.00000036855647, -18994.875, 0.03549341, 0.0, 0.0013974576, -0.00000030223237, -0.00000030223237, 0.0, 0.012207031, 0.011981552 
1.8310547e-2, 2.554632e+1, -0.00000299598, -18976.006, -1.2134119, 0.0, 0.0013609478, 0.000074595075, 0.000074595075, 0.0, 0.012207031, 0.011981769 
1.8310547e-2, 2.5558305e+1, -0.0000022420163, -18976.148, 1.1081281, 0.0, 0.0014073055, 0.00006246804, 0.00006246804, 0.0, 0.012207031, 0.011981768 
1.8310547e-2, 2.5570285e+1, -0.000020049834, -18957.658, 4.4989853, 0.0, 0.0013902154, 0.0010476385, 0.0010476385, 0.0, 0.012207031, 0.011981981 
1.8310547e-2, 2.558227e+1, -0.0000015256886, -18954.467, -0.8923381, 0.0, 0.0013653963, 0.00004048379, 0.00004048379, 0.0, 0.012207031, 0.011982018 
1.8310547e-2, 2.559425e+1, -0.0000015157397, -18935.592, 0.9859624, 0.0, 0.0014440377, 0.000049822596, 0.000049822596, 0.0, 0.012207031, 0.011982236 
1.8310547e-2, 2.5606233e+1, -0.0000025126064, -18938.705, 1.2003733, 0.0, 0.0013130323, 0.00007356947, 0.00007356947, 0.0, 0.012207031, 0.0119822 
1.8310547e-2, 2.5618213e+1, -0.000007752403, -18916.94, 3.160401, 0.0, 0.0014505509, 0.00052024715, 0.00052024715, 0.0, 0.012207031, 0.011982451 
1.8310547e-2, 2.5630197e+1, -0.0000010923412, -18916.342, 0.56513107, 0.0, 0.001428994, 0.000015791113, 0.000015791113, 0.0, 0.012207031, 0.011982459 
1.8310547e-2, 2.564218e+1, -0.00000041027386, -18898.99, 0.11873439, 0.0, 0.0013287374, 0.00000033568358, 0.00000033568358, 0.0, 0.012207031, 0.011982659 
1.8310547e-2, 2.565416e+1, -0.0000006755927, -18895.203, 0.488836, 0.0, 0.0013755498, 0.000011971035, 0.000011971035, 0.0, 0.012207031, 0.011982703 
1.8310547e-2, 2.5666144e+1, -0.0000013468214, -18881.8, -0.9399155, 0.0, 0.0014166983, 0.00004544115, 0.00004544115, 0.0, 0.012207031, 0.011982857 
1.8310547e-2, 2.5678128e+1, -0.0000029747266, -18875.672, -1.2842511, 0.0, 0.0014603161, 0.00008440234, 0.00008440234, 0.0, 0.012207031, 0.011982928 
1.8310547e-2, 2.5690112e+1, -0.000007124309, -18859.879, 1.9008082, 0.0, 0.0013560088, 0.0001844502, 0.0001844502, 0.0, 0.012207031, 0.011983111 
1.8310547e-2, 2.5702092e+1, -0.0000006510282, -18857.563, 0.4396111, 0.0, 0.0012538872, 0.000009597272, 0.000009597272, 0.0, 0.012207031, 0.011983138 
1.8310547e-2, 2.5714076e+1, -0.000003585473, -18842.66, -1.4185576, 0.0, 0.0015351163, 0.000103209735, 0.000103209735, 0.0, 0.012207031, 0.011983309 
1.8310547e-2, 2.5726062e+1, -0.0000021302985, -18838.11, -1.0996864, 0.0, 0.0014134026, 0.00006206459, 0.00006206459, 0.0, 0.012207031, 0.011983362 
1.8310547e-2, 2.5738043e+1, -0.00012520072, -18819.686, 11.363126, 0.0, 0.0013233554, 0.006735731, 0.006735731, 0.0, 0.012207031, 0.011983574 
1.8310547e-2, 2.5750026e+1, -0.0000045212837, -18816.373, -2.5986533, 0.0, 0.0013881183, 0.00035436818, 0.00035436818, 0.0, 0.012207031, 0.011983613 
1.8310547e-2, 2.576201e+1, -0.0000011653761, -18807.633, -0.7457482, 0.0, 0.0013712241, 0.000028404553, 0.000028404553, 0.0, 0.012207031, 0.011983714 
1.8310547e-2, 2.5773993e+1, -0.0000038044482, -18797.762, -1.4750682, 0.0, 0.0014951773, 0.000111944755, 0.000111944755, 0.0, 0.012207031, 0.011983828 
1.8310547e-2, 2.578598e+1, -0.0002855159, -18781.762, 17.15801, 0.0, 0.0013637223, 0.015389111, 0.015389111, 0.0, 0.012207031, 0.011984013 
1.8310547e-2, 2.5797963e+1, -0.000010015834, -18775.254, -3.5492296, 0.0, 0.0012246774, 0.0006609221, 0.0006609221, 0.0, 0.012207031, 0.0119840875 
1.8310547e-2, 2.5809947e+1, -0.000004844825, -18764.508, 1.5622625, 0.0, 0.0014983328, 0.00012522329, 0.00012522329, 0.0, 0.012207031, 0.011984212 
1.8310547e-2, 2.5821933e+1, -0.0000010962272, -18756.158, -0.7385381, 0.0, 0.0014641124, 0.000027984272, 0.000027984272, 0.0, 0.012207031, 0.011984308 
1.8310547e-2, 2.5833917e+1, -0.0000022853585, -18742.313, -1.0934929, 0.0, 0.0013583851, 0.00006151288, 0.00006151288, 0.0, 0.012207031, 0.011984468 
1.8310547e-2, 2.58459e+1, -0.0000004475967, -18743.236, -0.007576671, 0.0, 0.001246097, -0.0000004445319, -0.0000004445319, 0.0, 0.012207031, 0.011984458 
1.8310547e-2, 2.5857887e+1, -0.00000040649863, -18724.283, 0.017715508, 0.0, 0.0014138902, -0.00000038973667, -0.00000038973667, 0.0, 0.012207031, 0.011984677 
1.8310547e-2, 2.586987e+1, -0.00002539817, -18715.863, 5.0687976, 0.0, 0.0015825096, 0.0013473788, 0.0013473788, 0.0, 0.012207031, 0.011984774 
1.8310547e-2, 2.5881854e+1, -0.0000039278607, -18703.502, -1.4271164, 0.0, 0.001304941, 0.00010496412, 0.00010496412, 0.0, 0.012207031, 0.011984917 
1.8310547e-2, 2.589384e+1, -0.000010729852, -18683.93, 3.3971903, 0.0, 0.0012283426, 0.00060696155, 0.00060696155, 0.0, 0.012207031, 0.011985143 
1.8310547e-2, 2.5905824e+1, -0.0005577171, -18689.805, 23.979134, 0.0, 0.0014468746, 0.030207608, 0.030207608, 0.0, 0.012207031, 0.011985076 
1.8310547e-2, 2.591781e+1, -0.0002424704, -18687.104, 15.80924, 0.0, 0.0015242464, 0.013132095, 0.013132095, 0.0, 0.012207031, 0.011985106 
1.8310547e-2, 2.5929794e+1, -0.0000045382876, -18672.875, -1.5422099, 0.0, 0.0013355466, 0.00012283423, 0.00012283423, 0.0, 0.012207031, 0.011985271 
1.8310547e-2, 2.594178e+1, -0.0000006812999, -18663.844, -0.034795094, 0.0, 0.0012695211, -0.00000061643004, -0.00000061643004, 0.0, 0.012207031, 0.011985376 
1.8310547e-2, 2.5953767e+1, -0.00004278472, -18648.127, 6.6315827, 0.0, 0.0014817858, 0.0023155157, 0.0023155157, 0.0, 0.012207031, 0.011985557 
1.8310547e-2, 2.596575e+1, -0.0002032585, -18634.277, 14.475322, 0.0, 0.0013678082, 0.011041332, 0.011041332, 0.0, 0.012207031, 0.011985717 
1.8310547e-2, 2.5977737e+1, -0.0000028548789, -18634.455, -1.1712514, 0.0, 0.0013413896, 0.00007076304, 0.00007076304, 0.0, 0.012207031, 0.011985715 
1.8310547e-2, 2.5989723e+1, -0.0000006557944, -18614.977, 0.25031906, 0.0, 0.001481303, 0.0000027102942, 0.0000027102942, 0.0, 0.012207031, 0.01198594 
1.8310547e-2, 2.600171e+1, -0.0000011975841, -18610.707, -0.64102215, 0.0, 0.0013561378, 0.000020881605, 0.000020881605, 0.0, 0.012207031, 0.011985989 
1.8310547e-2, 2.6013696e+1, -0.0000010763138, -18597.04, 0.76061016, 0.0, 0.001355075, 0.000030032283, 0.000030032283, 0.0, 0.012207031, 0.011986148 
1.8310547e-2, 2.602568e+1, -0.00000068672875, -18595.168, 0.45970377, 0.0, 0.0013794946, 0.000010677919, 0.000010677919, 0.0, 0.012207031, 0.011986169 
1.8310547e-2, 2.6037666e+1, -0.0000014801235, -18575.637, -0.90361726, 0.0, 0.0014483582, 0.000042476604, 0.000042476604, 0.0, 0.012207031, 0.011986394 
1.8310547e-2, 2.6049653e+1, -0.000001380093, -18572.91, 0.77199525, 0.0, 0.001420113, 0.000030708394, 0.000030708394, 0.0, 0.012207031, 0.011986426 
1.8310547e-2, 2.606164e+1, -0.0000006919216, -18556.47, -0.25833473, 0.0, 0.0012885497, 0.0000029044968, 0.0000029044968, 0.0, 0.012207031, 0.011986616 
1.8310547e-2, 2.607363e+1, -0.0000007372151, -18555.426, -0.4602981, 0.0, 0.0014023305, 0.000010681244, 0.000010681244, 0.0, 0.012207031, 0.011986628 
1.8310547e-2, 2.6085612e+1, -0.0000006684899, -18538.492, 0.35043046, 0.0, 0.0014774149, 0.000005955648, 0.000005955648, 0.0, 0.012207031, 0.011986824 
1.8310547e-2, 2.6097602e+1, -0.0000004973084, -18534.596, -0.18142757, 0.0, 0.0013647272, 0.000001278615, 0.000001278615, 0.0, 0.012207031, 0.011986869 
1.8310547e-2, 2.6109588e+1, -0.000004353764, -18516.053, 1.5023487, 0.0, 0.0013830621, 0.00011754324, 0.00011754324, 0.0, 0.012207031, 0.011987084 
1.8310547e-2, 2.6121575e+1, -0.00000050276134, -18516.254, -0.2171796, 0.0, 0.0013623411, 0.000002044566, 0.000002044566, 0.0, 0.012207031, 0.011987081 
1.8310547e-2, 2.613356e+1, -0.000007083172, -18490.492, 1.9017758, 0.0, 0.0014692609, 0.00018851741, 0.00018851741, 0.0, 0.012207031, 0.011987379 
1.8310547e-2, 2.614555e+1, -0.00009857306, -18500.563, 10.077555, 0.0, 0.0013908405, 0.005390832, 0.005390832, 0.0, 0.012207031, 0.011987262 
1.8310547e-2, 2.6157534e+1, -0.000013537253, -18479.135, 4.033191, 0.0, 0.0013598837, 0.00086673285, 0.00086673285, 0.0, 0.012207031, 0.01198751 
1.8310547e-2, 2.6169524e+1, -0.0000085545325, -18477.498, -2.0065916, 0.0, 0.0014285924, 0.0002093543, 0.0002093543, 0.0, 0.012207031, 0.011987529 
1.8310547e-2, 2.618151e+1, -0.0000006786785, -18461.213, 0.29333845, 0.0, 0.0014120205, 0.000003982306, 0.000003982306, 0.0, 0.012207031, 0.011987718 
1.8310547e-2, 2.61935e+1, -0.0000029776932, -18458.104, 1.2613673, 0.0, 0.0013221118, 0.00008322009, 0.00008322009, 0.0, 0.012207031, 0.011987753 
1.8310547e-2, 2.6205486e+1, -0.0000007346048, -18434.744, 0.5055498, 0.0, 0.0014961397, 0.0000131294655, 0.0000131294655, 0.0, 0.012207031, 0.011988023 
1.8310547e-2, 2.6217476e+1, -0.0000004904874, -18440.361, -0.054286323, 0.0, 0.0014586436, -0.00000033067408, -0.00000033067408, 0.0, 0.012207031, 0.011987959 
1.8310547e-2, 2.6229465e+1, -0.0000022006775, -18420.908, -1.1393064, 0.0, 0.0012871356, 0.00006826376, 0.00006826376, 0.0, 0.012207031, 0.0119881835 
1.8310547e-2, 2.6241452e+1, -0.000000702072, -18416.547, -0.2489093, 0.0, 0.0013803625, 0.0000026620692, 0.0000026620692, 0.0, 0.012207031, 0.011988234 
1.8310547e-2, 2.6253438e+1, -0.0000009969524, -18397.805, 0.6155868, 0.0, 0.0015061734, 0.000019600462, 0.000019600462, 0.0, 0.012207031, 0.011988451 
1.8310547e-2, 2.6265427e+1, -0.0000014647073, -18402.975, 0.84239465, 0.0, 0.0013841003, 0.000037095837, 0.000037095837, 0.0, 0.012207031, 0.011988391 
1.8310547e-2, 2.6277417e+1, -0.00000088334355, -18380.52, 0.3772814, 0.0, 0.001386232, 0.0000068607915, 0.0000068607915, 0.0, 0.012207031, 0.011988651 
1.8310547e-2, 2.6289406e+1, -0.0000018544284, -18375.273, -0.996015, 0.0, 0.0014016366, 0.000052133666, 0.000052133666, 0.0, 0.012207031, 0.011988712 
1.8310547e-2, 2.6301393e+1, -0.000003976353, -18356.67, 1.4324632, 0.0, 0.0014381295, 0.00010780593, 0.00010780593, 0.0, 0.012207031, 0.011988927 
1.8310547e-2, 2.6313382e+1, -0.00035493643, -18363.676, 19.125095, 0.0, 0.0013531549, 0.019563127, 0.019563127, 0.0, 0.012207031, 0.011988846 
1.8310547e-2, 2.6325372e+1, -0.000003838442, -18344.842, 2.5318706, 0.0, 0.0014388941, 0.0003455987, 0.0003455987, 0.0, 0.012207031, 0.011989064 
1.8310547e-2, 2.633736e+1, -0.0000007865903, -18338.834, 0.23610745, 0.0, 0.0014434252, 0.0000022532295, 0.0000022532295, 0.0, 0.012207031, 0.0119891325 
1.8310547e-2, 2.634935e+1, -0.00000084662, -18321.697, 0.5800681, 0.0, 0.001369644, 0.00001751844, 0.00001751844, 0.0, 0.012207031, 0.011989331 
1.8310547e-2, 2.636134e+1, -0.00000047218575, -18319.016, -0.06897087, 0.0, 0.0013541039, -0.0000002125089, -0.0000002125089, 0.0, 0.012207031, 0.011989362 
1.8310547e-2, 2.637333e+1, -0.00000049637634, -18302.873, 0.2754992, 0.0, 0.001419898, 0.0000036505044, 0.0000036505044, 0.0, 0.012207031, 0.011989549 
1.8310547e-2, 2.638532e+1, -0.0000005846258, -18301.572, 0.3909428, 0.0, 0.0015480629, 0.000007766364, 0.000007766364, 0.0, 0.012207031, 0.011989564 
1.8310547e-2, 2.639731e+1, -0.0000004492759, -18282.434, -0.09668704, 0.0, 0.0013819151, 0.000000062053005, 0.000000062053005, 0.0, 0.012207031, 0.011989785 
1.8310547e-2, 2.6409298e+1, -0.00000065680024, -18283.438, -0.4682174, 0.0, 0.001060534, 0.000011333697, 0.000011333697, 0.0, 0.012207031, 0.011989773 
1.8310547e-2, 2.6421288e+1, -0.0000009165775, -18263.496, 0.6441087, 0.0, 0.0016107346, 0.000021799551, 0.000021799551, 0.0, 0.012207031, 0.011990004 
1.8310547e-2, 2.643328e+1, -0.0000035746002, -18260.72, 1.349792, 0.0, 0.0017112804, 0.00009619902, 0.00009619902, 0.0, 0.012207031, 0.011990037 
1.8310547e-2, 2.644527e+1, -0.0000027997307, -18244.953, -1.2348714, 0.0, 0.0011257953, 0.00008077995, 0.00008077995, 0.0, 0.012207031, 0.011990218 
1.8310547e-2, 2.645726e+1, -0.0000019159193, -18241.05, -1.0775706, 0.0, 0.0012505824, 0.00006174041, 0.00006174041, 0.0, 0.012207031, 0.011990264 
1.8310547e-2, 2.646925e+1, -0.0000016483745, -18226.281, 0.89574224, 0.0, 0.0015737123, 0.00004237345, 0.00004237345, 0.0, 0.012207031, 0.0119904345 
1.8310547e-2, 2.6481238e+1, -0.000011384464, -18220.691, 3.5600736, 0.0, 0.00144945, 0.00068420515, 0.00068420515, 0.0, 0.012207031, 0.0119905 
1.8310547e-2, 2.6493227e+1, -0.000003860908, -18207.54, 1.4453377, 0.0, 0.0013290469, 0.00011087184, 0.00011087184, 0.0, 0.012207031, 0.0119906515 
1.8310547e-2, 2.650522e+1, -0.000004970687, -18201.273, -1.6194534, 0.0, 0.0013635512, 0.00013911976, 0.00013911976, 0.0, 0.012207031, 0.011990724 
1.8310547e-2, 2.6517212e+1, -0.000006289113, -18182.85, 2.1030421, 0.0, 0.0015012114, 0.00023695029, 0.00023695029, 0.0, 0.012207031, 0.011990937 
1.8310547e-2, 2.6529202e+1, -0.00038577506, -18184.822, 19.935476, 0.0, 0.001248494, 0.021468863, 0.021468863, 0.0, 0.012207031, 0.011990914 
1.8310547e-2, 2.6541194e+1, -0.0000039550882, -18170.28, 2.2988296, 0.0, 0.0013664598, 0.00028688347, 0.00028688347, 0.0, 0.012207031, 0.011991083 
1.8310547e-2, 2.6553184e+1, -0.00000065046726, -18159.348, -0.45577642, 0.0, 0.0016692602, 0.000010788939, 0.000010788939, 0.0, 0.012207031, 0.011991209 
1.8310547e-2, 2.6565176e+1, -0.00000043865842, -18152.451, -0.115018025, 0.0, 0.0013122255, 0.00000029012153, 0.00000029012153, 0.0, 0.012207031, 0.011991289 
1.8310547e-2, 2.657717e+1, -0.00000028418583, -18139.902, -0.07331076, 0.0, 0.0011514456, 0.0000000120926416, 0.0000000120926416, 0.0, 0.012207031, 0.011991435 
1.8310547e-2, 2.6589158e+1, -0.00000054328945, -18131.162, 0.37259534, 0.0, 0.0014941235, 0.0000071135437, 0.0000071135437, 0.0, 0.012207031, 0.011991535 
1.8310547e-2, 2.660115e+1, -0.00000028697502, -18120.613, -0.028087966, 0.0, 0.0015701692, -0.00000024343535, -0.00000024343535, 0.0, 0.012207031, 0.011991657 
1.8310547e-2, 2.6613143e+1, -0.0000011005437, -18111.785, 0.7323352, 0.0, 0.0013152253, 0.000028510829, 0.000028510829, 0.0, 0.012207031, 0.01199176 
1.8310547e-2, 2.6625133e+1, -0.0000014743998, -18100.229, -0.78721076, 0.0, 0.0012854025, 0.00003276278, 0.00003276278, 0.0, 0.012207031, 0.011991894 
1.8310547e-2, 2.6637125e+1, -0.0000047961785, -18090.973, 1.5380732, 0.0, 0.0014411812, 0.00012596899, 0.00012596899, 0.0, 0.012207031, 0.011992001 
1.8310547e-2, 2.6649117e+1, -0.0000073195565, -18086.771, 1.9159745, 0.0, 0.0014556035, 0.00019564414, 0.00019564414, 0.0, 0.012207031, 0.011992049 
1.8310547e-2, 2.666111e+1, -0.0005373595, -18073.588, 23.524464, 0.0, 0.0014218889, 0.030081876, 0.030081876, 0.0, 0.012207031, 0.011992202 
1.8310547e-2, 2.6673102e+1, -0.000021482478, -18056.604, -4.5515494, 0.0, 0.0012725889, 0.001125832, 0.001125832, 0.0, 0.012207031, 0.011992399 
1.8310547e-2, 2.6685095e+1, -0.0000040105124, -18055.209, 1.4467854, 0.0, 0.0013312959, 0.00011192213, 0.00011192213, 0.0, 0.012207031, 0.0119924145 
1.8310547e-2, 2.6697087e+1, -0.000008878826, -18039.113, 2.0783117, 0.0, 0.0016430296, 0.00023056641, 0.00023056641, 0.0, 0.012207031, 0.011992601 
1.8310547e-2, 2.670908e+1, -0.00000087254784, -18035.549, 0.59970075, 0.0, 0.0013935626, 0.000019068124, 0.000019068124, 0.0, 0.012207031, 0.011992643 
1.8310547e-2, 2.6721072e+1, -0.00000077794516, -18023.0, 0.56006116, 0.0, 0.0011578595, 0.000016625843, 0.000016625843, 0.0, 0.012207031, 0.011992788 
1.8310547e-2, 2.6733065e+1, -0.000000668662, -18013.725, 0.45330262, 0.0, 0.0014508975, 0.0000107383785, 0.0000107383785, 0.0, 0.012207031, 0.011992895 
1.8310547e-2, 2.6745057e+1, -0.0000004654422, -18001.355, 0.34285074, 0.0, 0.001555164, 0.0000060644306, 0.0000060644306, 0.0, 0.012207031, 0.0119930385 
1.8310547e-2, 2.6757053e+1, -0.0000023429338, -17995.674, -1.0108157, 0.0, 0.0013104982, 0.000054434513, 0.000054434513, 0.0, 0.012207031, 0.011993104 
1.8310547e-2, 2.6769045e+1, -0.00000036137286, -17982.617, 0.06807361, 0.0, 0.0013867853, -0.00000010367876, -0.00000010367876, 0.0, 0.012207031, 0.0119932555 
1.8310547e-2, 2.6781037e+1, -0.0000024440421, -17978.635, 1.1122369, 0.0, 0.001502372, 0.00006636379, 0.00006636379, 0.0, 0.012207031, 0.011993301 
1.8310547e-2, 2.6793033e+1, -0.00000048271846, -17959.893, -0.3084941, 0.0, 0.0012922743, 0.000004816229, 0.000004816229, 0.0, 0.012207031, 0.011993518 
1.8310547e-2, 2.6805025e+1, -0.000000509668, -17958.443, -0.365894, 0.0, 0.0012542643, 0.0000069452326, 0.0000069452326, 0.0, 0.012207031, 0.011993535 
1.8310547e-2, 2.6817018e+1, -0.0000011983534, -17940.508, 0.83035743, 0.0, 0.0016936192, 0.000037233865, 0.000037233865, 0.0, 0.012207031, 0.011993743 
1.8310547e-2, 2.6829013e+1, -0.0000010724607, -17939.26, 0.69347036, 0.0, 0.001488076, 0.000025734727, 0.000025734727, 0.0, 0.012207031, 0.011993757 
1.8310547e-2, 2.6841006e+1, -0.0000034896977, -17921.465, -1.3522971, 0.0, 0.0010814788, 0.00009855036, 0.00009855036, 0.0, 0.012207031, 0.011993963 
1.8310547e-2, 2.6853e+1, -0.0000009601904, -17919.256, -0.61773163, 0.0, 0.0014312759, 0.000020334912, 0.000020334912, 0.0, 0.012207031, 0.011993988 
1.8310547e-2, 2.6864994e+1, -0.000010612373, -17902.58, 3.5166497, 0.0, 0.0016153372, 0.00068017206, 0.00068017206, 0.0, 0.012207031, 0.011994182 
1.8310547e-2, 2.6876986e+1, -0.00000052980727, -17900.883, 0.33223253, 0.0, 0.0012807414, 0.0000056362805, 0.0000056362805, 0.0, 0.012207031, 0.011994202 
1.8310547e-2, 2.688898e+1, -0.00000039628944, -17880.188, 0.026697285, 0.0, 0.0014192993, -0.00000035642734, -0.00000035642734, 0.0, 0.012207031, 0.011994441 
1.8310547e-2, 2.6900977e+1, -0.00000044152475, -17881.271, 0.16775438, 0.0, 0.0015422767, 0.0000011322772, 0.0000011322772, 0.0, 0.012207031, 0.011994429 
1.8310547e-2, 2.6912972e+1, -0.0000027481096, -17859.734, 1.2147076, 0.0, 0.0012771413, 0.000079868725, 0.000079868725, 0.0, 0.012207031, 0.0119946785 
1.8310547e-2, 2.6924968e+1, -0.000010520029, -17863.871, 3.4870512, 0.0, 0.0012375093, 0.0006701569, 0.0006701569, 0.0, 0.012207031, 0.01199463 
1.8310547e-2, 2.693696e+1, -0.0000012100394, -17842.014, 0.7895166, 0.0, 0.0016505315, 0.000033726403, 0.000033726403, 0.0, 0.012207031, 0.011994883 
1.8310547e-2, 2.6948956e+1, -0.0000010587316, -17843.408, -0.67205954, 0.0, 0.0015740215, 0.000024253924, 0.000024253924, 0.0, 0.012207031, 0.011994868 
1.8310547e-2, 2.696095e+1, -0.00000084299955, -17823.871, 0.44630766, 0.0, 0.0011303595, 0.000010332493, 0.000010332493, 0.0, 0.012207031, 0.011995094 
1.8310547e-2, 2.6972947e+1, -0.0000005224514, -17822.676, 0.15382761, 0.0, 0.0012855568, 0.0000008052375, 0.0000008052375, 0.0, 0.012207031, 0.011995108 
1.8310547e-2, 2.6984942e+1, -0.00000046880345, -17800.254, 0.2519385, 0.0, 0.0016711666, 0.0000030970405, 0.0000030970405, 0.0, 0.012207031, 0.011995368 
1.8310547e-2, 2.6996937e+1, -0.00000042459618, -17805.895, 0.2262188, 0.0, 0.0014450415, 0.0000024494511, 0.0000024494511, 0.0, 0.012207031, 0.011995302 
1.8310547e-2, 2.7008933e+1, -0.00000057481003, -17782.53, -0.36738005, 0.0, 0.001276393, 0.0000070151145, 0.0000070151145, 0.0, 0.012207031, 0.011995573 
1.8310547e-2, 2.7020928e+1, -0.0000012767277, -17785.063, -0.7748763, 0.0, 0.0013593469, 0.000032483807, 0.000032483807, 0.0, 0.012207031, 0.011995543 
1.8310547e-2, 2.7032924e+1, -0.0000012249584, -17762.525, 0.8233839, 0.0, 0.0015165735, 0.0000369431, 0.0000369431, 0.0, 0.012207031, 0.0119958045 
1.8310547e-2, 2.704492e+1, -0.000002605899, -17765.525, 1.1898863, 0.0, 0.0014050627, 0.00007708944, 0.00007708944, 0.0, 0.012207031, 0.01199577 
1.8310547e-2, 2.7056915e+1, -0.0000048940774, -17745.68, -1.569677, 0.0, 0.001341393, 0.00013395018, 0.00013395018, 0.0, 0.012207031, 0.011995999 
1.8310547e-2, 2.706891e+1, -0.0000005244036, -17744.094, -0.14874393, 0.0, 0.001499586, 0.0000007224771, 0.0000007224771, 0.0, 0.012207031, 0.011996018 
1.8310547e-2, 2.7080908e+1, -0.0000004598718, -17726.71, -0.20877936, 0.0, 0.0013976037, 0.000001999062, 0.000001999062, 0.0, 0.012207031, 0.011996219 
1.8310547e-2, 2.7092904e+1, -0.00004232444, -17725.047, 6.5890636, 0.0, 0.0012459198, 0.002407077, 0.002407077, 0.0, 0.012207031, 0.0119962385 
1.8310547e-2, 2.71049e+1, -0.00000056810273, -17705.102, -0.3573568, 0.0, 0.0014814457, 0.0000066447246, 0.0000066447246, 0.0, 0.012207031, 0.011996469 
1.8310547e-2, 2.7116895e+1, -0.0000005733999, -17703.838, 0.26984423, 0.0, 0.0016079961, 0.0000035396042, 0.0000035396042, 0.0, 0.012207031, 0.011996484 
1.8310547e-2, 2.7128893e+1, -0.000014640536, -17683.27, 4.0741205, 0.0, 0.0013317823, 0.0009240126, 0.0009240126, 0.0, 0.012207031, 0.011996723 
1.8310547e-2, 2.7140892e+1, -0.00008765521, -17686.576, 9.495105, 0.0, 0.0010725898, 0.005009826, 0.005009826, 0.0, 0.012207031, 0.011996685 
1.8310547e-2, 2.7152884e+1, -0.000005619338, -17670.947, 2.5232944, 0.0, 0.0015787861, 0.00035469045, 0.00035469045, 0.0, 0.012207031, 0.011996865 
1.8310547e-2, 2.7164882e+1, -0.0000005553964, -17665.068, -0.30921566, 0.0, 0.0017173719, 0.0000048572256, 0.0000048572256, 0.0, 0.012207031, 0.011996933 
1.8310547e-2, 2.717688e+1, -0.0000030633428, -17653.639, 1.2621337, 0.0, 0.0011908289, 0.00008717197, 0.00008717197, 0.0, 0.012207031, 0.011997066 
1.8310547e-2, 2.7188876e+1, -0.000005568182, -17641.473, -1.6840341, 0.0, 0.0011918979, 0.0001551877, 0.0001551877, 0.0, 0.012207031, 0.011997207 
1.8310547e-2, 2.7200875e+1, -0.0000009512194, -17630.064, -0.52327645, 0.0, 0.001533964, 0.000014580106, 0.000014580106, 0.0, 0.012207031, 0.011997339 
1.8310547e-2, 2.721287e+1, -0.000008759961, -17625.932, 2.784875, 0.0, 0.0015768823, 0.00043124676, 0.00043124676, 0.0, 0.012207031, 0.011997387 
1.8310547e-2, 2.722487e+1, -0.0000009179934, -17613.17, 0.3199565, 0.0, 0.0013236704, 0.00000489426, 0.00000489426, 0.0, 0.012207031, 0.011997535 
1.8310547e-2, 2.7236867e+1, -0.000007823696, -17602.092, -2.6644368, 0.0, 0.0012103608, 0.00039549332, 0.00039549332, 0.0, 0.012207031, 0.011997663 
1.8310547e-2, 2.7248865e+1, -0.000005214121, -17586.648, 2.3616686, 0.0, 0.0014982703, 0.00031192863, 0.00031192863, 0.0, 0.012207031, 0.011997842 
1.8310547e-2, 2.7260864e+1, -0.00008877615, -17587.438, 9.556321, 0.0, 0.0015170171, 0.005103751, 0.005103751, 0.0, 0.012207031, 0.011997834 
1.8310547e-2, 2.727286e+1, -0.000003418132, -17575.943, 1.3954262, 0.0, 0.0012982995, 0.00010737047, 0.00010737047, 0.0, 0.012207031, 0.011997967 
1.8310547e-2, 2.7284858e+1, -0.0000053469444, -17564.617, -1.6007766, 0.0, 0.0013984562, 0.0001405421, 0.0001405421, 0.0, 0.012207031, 0.011998098 
1.8310547e-2, 2.7296856e+1, -0.0000012155642, -17554.9, 0.6970826, 0.0, 0.0014529215, 0.000026464688, 0.000026464688, 0.0, 0.012207031, 0.011998211 
1.8310547e-2, 2.7308854e+1, -0.0000028645006, -17545.533, 1.2503015, 0.0, 0.0013160511, 0.00008623247, 0.00008623247, 0.0, 0.012207031, 0.011998319 
1.8310547e-2, 2.7320853e+1, -0.00000048046047, -17533.23, 0.16368987, 0.0, 0.0014107678, 0.0000010477452, 0.0000010477452, 0.0, 0.012207031, 0.011998462 
1.8310547e-2, 2.733285e+1, -0.0000012606002, -17525.705, -0.83661073, 0.0, 0.0014683509, 0.000038676022, 0.000038676022, 0.0, 0.012207031, 0.011998549 
1.8310547e-2, 2.734485e+1, -0.00000044915242, -17512.844, -0.11827121, 0.0, 0.0013795152, 0.00000034958066, 0.00000034958066, 0.0, 0.012207031, 0.011998698 
1.8310547e-2, 2.735685e+1, -0.0000012618343, -17505.566, 0.8761738, 0.0, 0.0013575753, 0.000042591673, 0.000042591673, 0.0, 0.012207031, 0.011998783 
1.8310547e-2, 2.736885e+1, -0.0000010411359, -17497.977, -0.56454813, 0.0, 0.001338028, 0.000017173235, 0.000017173235, 0.0, 0.012207031, 0.01199887 
1.8310547e-2, 2.7380845e+1, -0.0000006271956, -17486.117, -0.36448964, 0.0, 0.0015565074, 0.0000069704183, 0.0000069704183, 0.0, 0.012207031, 0.011999008 
1.8310547e-2, 2.7392846e+1, -0.0000027382036, -17474.447, 1.1286496, 0.0, 0.0014476677, 0.000070159665, 0.000070159665, 0.0, 0.012207031, 0.011999143 
1.8310547e-2, 2.7404845e+1, -0.0000010002681, -17466.9, -0.5267979, 0.0, 0.0011545366, 0.000014887839, 0.000014887839, 0.0, 0.012207031, 0.011999231 
1.8310547e-2, 2.7416846e+1, -0.0000015291552, -17454.89, 0.877615, 0.0, 0.0014690602, 0.00004259647, 0.00004259647, 0.0, 0.012207031, 0.0119993705 
1.8310547e-2, 2.7428845e+1, -0.00000882137, -17447.152, 3.1136432, 0.0, 0.0015338393, 0.0005468437, 0.0005468437, 0.0, 0.012207031, 0.01199946 
1.8310547e-2, 2.7440843e+1, -0.0000003628452, -17436.775, 0.1501609, 0.0, 0.0013081772, 0.0000009303003, 0.0000009303003, 0.0, 0.012207031, 0.01199958 
1.8310547e-2, 2.745284e+1, -0.0000005018291, -17427.615, -0.20455422, 0.0, 0.0014301519, 0.0000018990941, 0.0000018990941, 0.0, 0.012207031, 0.011999686 
1.8310547e-2, 2.7464843e+1, -0.0000023853684, -17420.016, 1.1358109, 0.0, 0.0014054911, 0.00007167118, 0.00007167118, 0.0, 0.012207031, 0.011999775 
1.8310547e-2, 2.7476844e+1, -0.0000005199784, -17404.406, 0.3515182, 0.0, 0.0013861414, 0.000006579663, 0.000006579663, 0.0, 0.012207031, 0.011999955 
1.8310547e-2, 2.7488843e+1, -0.00000052601536, -17400.055, -0.3001175, 0.0, 0.0014161621, 0.000004650432, 0.000004650432, 0.0, 0.012207031, 0.012000006 
1.8310547e-2, 2.7500844e+1, -0.00000062244237, -17388.006, -0.42594674, 0.0, 0.001404219, 0.000009811796, 0.000009811796, 0.0, 0.012207031, 0.012000146 
1.8310547e-2, 2.7512842e+1, -0.0000045205807, -17378.855, 1.4654021, 0.0, 0.0014046687, 0.00011904357, 0.00011904357, 0.0, 0.012207031, 0.012000252 
1.8310547e-2, 2.7524844e+1, -0.00000041174073, -17365.193, -0.17756853, 0.0, 0.0013918981, 0.0000014039942, 0.0000014039942, 0.0, 0.012207031, 0.012000411 
1.8310547e-2, 2.7536845e+1, -0.0000066159328, -17361.03, -1.733981, 0.0, 0.0015044522, 0.00016657023, 0.00016657023, 0.0, 0.012207031, 0.012000458 
1.8310547e-2, 2.7548844e+1, -0.0000027725775, -17346.36, 1.2531484, 0.0, 0.0013219869, 0.00008775829, 0.00008775829, 0.0, 0.012207031, 0.012000629 
1.8310547e-2, 2.7560845e+1, -0.00000053552156, -17344.584, 0.20630966, 0.0, 0.0012116317, 0.0000019184808, 0.0000019184808, 0.0, 0.012207031, 0.012000649 
1.8310547e-2, 2.7572846e+1, -0.00000047282452, -17325.588, -0.27583504, 0.0, 0.0017204811, 0.000003918656, 0.000003918656, 0.0, 0.012207031, 0.01200087 
1.8310547e-2, 2.7584848e+1, -0.0000010204324, -17323.973, -0.63876736, 0.0, 0.0014759367, 0.00002253212, 0.00002253212, 0.0, 0.012207031, 0.012000889 
1.8310547e-2, 2.7596846e+1, -0.0000434571, -17305.434, 6.723547, 0.0, 0.001127164, 0.0025687905, 0.0025687905, 0.0, 0.012207031, 0.012001104 
1.8310547e-2, 2.7608848e+1, -0.0000004768858, -17302.47, 0.08966761, 0.0, 0.0014798987, -0.000000012194505, -0.000000012194505, 0.0, 0.012207031, 0.012001138 
1.8310547e-2, 2.762085e+1, -0.000004123786, -17288.393, -1.4375548, 0.0, 0.0014925093, 0.00011541096, 0.00011541096, 0.0, 0.012207031, 0.012001301 
1.8310547e-2, 2.763285e+1, -0.00031175333, -17280.814, 17.906858, 0.0, 0.0013826125, 0.01824381, 0.01824381, 0.0, 0.012207031, 0.01200139 
1.8310547e-2, 2.7644855e+1, -0.000032824584, -17267.332, 5.770197, 0.0, 0.0014014043, 0.0018953928, 0.0018953928, 0.0, 0.012207031, 0.012001546 
1.8310547e-2, 2.7656853e+1, -0.0000022924166, -17267.42, 1.1096245, 0.0, 0.0014252054, 0.000069013346, 0.000069013346, 0.0, 0.012207031, 0.012001545 
1.8310547e-2, 2.7668855e+1, -0.0000006318435, -17246.273, 0.3200586, 0.0, 0.0014349745, 0.0000053078475, 0.0000053078475, 0.0, 0.012207031, 0.01200179 
1.8310547e-2, 2.768086e+1, -0.00000043535007, -17245.494, 0.0938234, 0.0, 0.0013094563, 0.00000007509152, 0.00000007509152, 0.0, 0.012207031, 0.012001799 
1.8310547e-2, 2.769286e+1, -0.0000006565616, -17225.781, -0.33469373, 0.0, 0.0014964232, 0.0000058464757, 0.0000058464757, 0.0, 0.012207031, 0.012002028 
1.8310547e-2, 2.7704862e+1, -0.00000063880583, -17228.031, -0.32788026, 0.0, 0.0015115617, 0.0000056013378, 0.0000056013378, 0.0, 0.012207031, 0.0120020015 
1.8310547e-2, 2.7716863e+1, -0.00000041538345, -17209.813, -0.122114986, 0.0, 0.001272237, 0.0000004511021, 0.0000004511021, 0.0, 0.012207031, 0.012002213 
1.8310547e-2, 2.7728868e+1, -0.000008911641, -17203.383, 3.2903504, 0.0, 0.0014081637, 0.00062040676, 0.00062040676, 0.0, 0.012207031, 0.012002287 
1.8310547e-2, 2.774087e+1, -0.0000010222278, -17185.057, -0.5826722, 0.0, 0.0015033849, 0.00001873371, 0.00001873371, 0.0, 0.012207031, 0.012002501 
1.8310547e-2, 2.775287e+1, -0.000006413762, -17178.21, 2.659927, 0.0, 0.0013181191, 0.0004054575, 0.0004054575, 0.0, 0.012207031, 0.01200258 
1.8310547e-2, 2.7764875e+1, -0.0013775909, -17174.027, 37.64124, 0.0, 0.0014449655, 0.08112234, 0.08112234, 0.0, 0.012207031, 0.012002628 
1.8310547e-2, 2.7776876e+1, -0.00009225596, -17173.375, 9.741947, 0.0, 0.0015152575, 0.005434061, 0.005434061, 0.0, 0.012207031, 0.012002636 
1.8310547e-2, 2.778888e+1, -0.000006506184, -17149.854, -2.6714945, 0.0, 0.001278222, 0.00040964215, 0.00040964215, 0.0, 0.012207031, 0.012002909 
1.8310547e-2, 2.7800882e+1, -0.0000012772776, -17150.188, 0.75398743, 0.0, 0.0014811854, 0.000031870877, 0.000031870877, 0.0, 0.012207031, 0.012002905 
1.8310547e-2, 2.7812886e+1, -0.000018739245, -17131.875, 4.214011, 0.0, 0.0014372537, 0.0010178016, 0.0010178016, 0.0, 0.012207031, 0.012003117 
1.8310547e-2, 2.7824888e+1, -0.000003087949, -17126.063, -1.2799898, 0.0, 0.0012743141, 0.00009257758, 0.00009257758, 0.0, 0.012207031, 0.012003185 
1.8310547e-2, 2.7836892e+1, -0.0000006983982, -17111.063, -0.43707412, 0.0, 0.0015287623, 0.000010465945, 0.000010465945, 0.0, 0.012207031, 0.012003359 
1.8310547e-2, 2.7848893e+1, -0.00000089850715, -17110.676, 0.63223845, 0.0, 0.0014068788, 0.000022462664, 0.000022462664, 0.0, 0.012207031, 0.012003364 
1.8310547e-2, 2.7860898e+1, -0.000003868171, -17090.344, 1.3216046, 0.0, 0.0013542972, 0.00009833215, 0.00009833215, 0.0, 0.012207031, 0.0120036 
1.8310547e-2, 2.7872902e+1, -0.0000017915326, -17087.305, -0.97023565, 0.0, 0.0014776259, 0.000053299496, 0.000053299496, 0.0, 0.012207031, 0.012003635 
1.8310547e-2, 2.7884904e+1, -0.0000067375217, -17071.793, -1.7764484, 0.0, 0.0013776376, 0.00017811528, 0.00017811528, 0.0, 0.012207031, 0.012003815 
1.8310547e-2, 2.789691e+1, -0.0000076110878, -17071.309, 1.9908725, 0.0, 0.001369839, 0.00022456638, 0.00022456638, 0.0, 0.012207031, 0.01200382 
1.8310547e-2, 2.7908912e+1, -0.00000038384465, -17053.58, -0.009084996, 0.0, 0.00141159, -0.00000037900463, -0.00000037900463, 0.0, 0.012207031, 0.012004026 
1.8310547e-2, 2.7920917e+1, -0.0000009425585, -17046.797, -0.65228605, 0.0, 0.0014810876, 0.000024016801, 0.000024016801, 0.0, 0.012207031, 0.012004105 
1.8310547e-2, 2.793292e+1, -0.0000009784274, -17036.158, 0.46815407, 0.0, 0.0013638329, 0.000011886459, 0.000011886459, 0.0, 0.012207031, 0.012004229 
1.8310547e-2, 2.7944925e+1, -0.0000030353538, -17028.695, -1.2636614, 0.0, 0.0013652949, 0.00009073813, 0.00009073813, 0.0, 0.012207031, 0.012004316 
1.8310547e-2, 2.795693e+1, -0.000006443149, -17011.475, 1.8213601, 0.0, 0.001474962, 0.00018856363, 0.00018856363, 0.0, 0.012207031, 0.012004515 
1.8310547e-2, 2.7968934e+1, -0.00000078829726, -17008.691, 0.55318445, 0.0, 0.0013313419, 0.000017203267, 0.000017203267, 0.0, 0.012207031, 0.012004548 
1.8310547e-2, 2.798094e+1, -0.0000014936537, -16991.88, 0.8173098, 0.0, 0.0013732048, 0.000037818965, 0.000037818965, 0.0, 0.012207031, 0.012004743 
1.8310547e-2, 2.7992946e+1, -0.00009275214, -16993.264, 9.766921, 0.0, 0.0015527001, 0.005520808, 0.005520808, 0.0, 0.012207031, 0.012004727 
1.8310547e-2, 2.800495e+1, -0.000034935092, -16978.068, 6.0262156, 0.0, 0.00138685, 0.0021040167, 0.0021040167, 0.0, 0.012207031, 0.0120049035 
1.8310547e-2, 2.8016955e+1, -0.0000076362385, -16968.842, -1.9020547, 0.0, 0.0012294626, 0.00020556699, 0.00020556699, 0.0, 0.012207031, 0.012005011 
1.8310547e-2, 2.802896e+1, -0.0000014796186, -16957.127, -0.7440812, 0.0, 0.0014507821, 0.000031170774, 0.000031170774, 0.0, 0.012207031, 0.012005147 
1.8310547e-2, 2.8040963e+1, -0.0000036073973, -16951.031, 2.335001, 0.0, 0.0015408883, 0.00031803848, 0.00031803848, 0.0, 0.012207031, 0.012005217 
1.8310547e-2, 2.8052968e+1, -0.00000042154824, -16936.783, -0.0062217587, 0.0, 0.0013539315, -0.0000004192625, -0.0000004192625, 0.0, 0.012207031, 0.012005383 
1.8310547e-2, 2.8064975e+1, -0.0000043847012, -16930.432, -2.355412, 0.0, 0.0013176035, 0.0003233072, 0.0003233072, 0.0, 0.012207031, 0.012005457 
1.8310547e-2, 2.807698e+1, -0.00000091844316, -16919.752, 0.6220567, 0.0, 0.0014115107, 0.000021951546, 0.000021951546, 0.0, 0.012207031, 0.012005581 
1.8310547e-2, 2.8088987e+1, -0.0000046036553, -16909.266, 2.399996, 0.0, 0.0014939706, 0.00033603684, 0.00033603684, 0.0, 0.012207031, 0.012005703 
1.8310547e-2, 2.810099e+1, -0.0000013315911, -16897.752, -0.69515723, 0.0, 0.0013824886, 0.00002726651, 0.00002726651, 0.0, 0.012207031, 0.012005836 
1.8310547e-2, 2.8112996e+1, -0.0000073242145, -16891.21, -1.7710681, 0.0, 0.001336396, 0.00017837484, 0.00017837484, 0.0, 0.012207031, 0.012005912 
1.8310547e-2, 2.8125003e+1, -0.000002294555, -16879.832, 1.0086011, 0.0, 0.0014557331, 0.000057971214, 0.000057971214, 0.0, 0.012207031, 0.012006044 
1.8310547e-2, 2.813701e+1, -0.0000025452796, -16870.25, 1.1052366, 0.0, 0.0013880588, 0.000069863134, 0.000069863134, 0.0, 0.012207031, 0.012006155 
1.8310547e-2, 2.8149015e+1, -0.0000054925968, -16858.979, -1.5187128, 0.0, 0.0013873291, 0.0001313181, 0.0001313181, 0.0, 0.012207031, 0.0120062865 
1.8310547e-2, 2.8161022e+1, -0.00032970103, -16850.963, 18.411142, 0.0, 0.0014419802, 0.01978605, 0.01978605, 0.0, 0.012207031, 0.01200638 
1.8310547e-2, 2.817303e+1, -0.000019804287, -16841.193, 4.355095, 0.0, 0.0014068467, 0.0011064134, 0.0011064134, 0.0, 0.012207031, 0.012006493 
1.8310547e-2, 2.8185037e+1, -0.0000074912427, -16831.846, 2.0148015, 0.0, 0.0013804537, 0.00023368404, 0.00023368404, 0.0, 0.012207031, 0.012006601 
1.8310547e-2, 2.819704e+1, -0.0000014125146, -16819.44, -0.78349036, 0.0, 0.0013755843, 0.000035084373, 0.000035084373, 0.0, 0.012207031, 0.012006746 
1.8310547e-2, 2.8209049e+1, -0.000008333824, -16810.684, 2.006815, 0.0, 0.0014689808, 0.00023123441, 0.00023123441, 0.0, 0.012207031, 0.012006847 
1.8310547e-2, 2.8221056e+1, -0.00002234591, -16803.64, 4.7210407, 0.0, 0.0014654037, 0.0013040467, 0.0013040467, 0.0, 0.012207031, 0.012006929 
1.8310547e-2, 2.8233063e+1, -0.0000012894457, -16792.422, 0.7208147, 0.0, 0.0012717906, 0.000029651525, 0.000029651525, 0.0, 0.012207031, 0.0120070595 
1.8310547e-2, 2.824507e+1, -0.0000012672259, -16782.268, -0.7503661, 0.0, 0.0014581796, 0.000032283027, 0.000032283027, 0.0, 0.012207031, 0.012007178 
1.8310547e-2, 2.8257075e+1, -0.00000067902334, -16773.621, 0.5391811, 0.0, 0.001463796, 0.000016652732, 0.000016652732, 0.0, 0.012207031, 0.012007278 
1.8310547e-2, 2.8269085e+1, -0.0000007333191, -16763.416, 0.52153283, 0.0, 0.0012802052, 0.000015492285, 0.000015492285, 0.0, 0.012207031, 0.012007397 
1.8310547e-2, 2.8281093e+1, -0.00000067070476, -16752.473, 0.33086345, 0.0, 0.0015349208, 0.0000058638907, 0.0000058638907, 0.0, 0.012207031, 0.012007524 
1.8310547e-2, 2.82931e+1, -0.00000070121206, -16742.092, -0.4169661, 0.0, 0.0015249487, 0.000009683434, 0.000009683434, 0.0, 0.012207031, 0.012007644 
1.8310547e-2, 2.8305107e+1, -0.00000049934835, -16733.846, -0.14563096, 0.0, 0.0011977829, 0.0000007680428, 0.0000007680428, 0.0, 0.012207031, 0.01200774 
1.8310547e-2, 2.8317115e+1, -0.0000010208216, -16723.729, 0.6746343, 0.0, 0.0013744538, 0.000026193891, 0.000026193891, 0.0, 0.012207031, 0.012007858 
1.8310547e-2, 2.8329122e+1, -0.00000084747825, -16715.717, -0.62716043, 0.0, 0.0015426619, 0.000022683082, 0.000022683082, 0.0, 0.012207031, 0.012007951 
1.8310547e-2, 2.8341132e+1, -0.000004714998, -16702.207, 2.059347, 0.0, 0.0016124522, 0.0002491981, 0.0002491981, 0.0, 0.012207031, 0.012008108 
1.8310547e-2, 2.835314e+1, -0.000005172676, -16693.541, 1.559476, 0.0, 0.0011870831, 0.00014051034, 0.00014051034, 0.0, 0.012207031, 0.012008209 
1.8310547e-2, 2.8365147e+1, -0.00000048228895, -16683.916, -0.042711824, 0.0, 0.0010631791, -0.0000003729474, -0.0000003729474, 0.0, 0.012207031, 0.012008321 
1.8310547e-2, 2.8377154e+1, -0.0000024942801, -16674.69, 1.0779403, 0.0, 0.0018750738, 0.000067189496, 0.000067189496, 0.0, 0.012207031, 0.012008428 
1.8310547e-2, 2.8389165e+1, -0.0000344687, -16666.521, 5.9924493, 0.0, 0.0017214642, 0.0021201167, 0.0021201167, 0.0, 0.012207031, 0.012008523 
1.8310547e-2, 2.8401172e+1, -0.00000049642864, -16653.664, 0.016889416, 0.0, 0.00087152666, -0.00000047930007, -0.00000047930007, 0.0, 0.012207031, 0.012008673 
1.8310547e-2, 2.8413182e+1, -0.00000087259355, -16647.193, 0.6352192, 0.0, 0.0013053133, 0.00002336593, 0.00002336593, 0.0, 0.012207031, 0.012008747 
1.8310547e-2, 2.842519e+1, -0.00000040669667, -16636.602, -0.2194272, 0.0, 0.0017311863, 0.0000024874244, 0.0000024874244, 0.0, 0.012207031, 0.012008871 
1.8310547e-2, 2.8437197e+1, -0.0000011409883, -16624.215, -0.79251534, 0.0, 0.0015719858, 0.00003664008, 0.00003664008, 0.0, 0.012207031, 0.012009014 
1.8310547e-2, 2.844921e+1, -0.0000012745792, -16616.03, 0.6253943, 0.0, 0.0012082638, 0.000022264016, 0.000022264016, 0.0, 0.012207031, 0.012009109 
1.8310547e-2, 2.8461218e+1, -0.0000023946163, -16607.916, -1.0182042, 0.0, 0.0011175444, 0.000060029826, 0.000060029826, 0.0, 0.012207031, 0.012009204 
1.8310547e-2, 2.8473225e+1, -0.000001938912, -16593.322, 0.9998521, 0.0, 0.0016982816, 0.000058308473, 0.000058308473, 0.0, 0.012207031, 0.012009374 
1.8310547e-2, 2.848524e+1, -0.00000098285, -16590.172, 0.62841034, 0.0, 0.0017230829, 0.000022820372, 0.000022820372, 0.0, 0.012207031, 0.01200941 
1.8310547e-2, 2.8497246e+1, -0.000002935447, -16576.023, -1.173256, 0.0, 0.0010428848, 0.00008010798, 0.00008010798, 0.0, 0.012207031, 0.012009575 
1.8310547e-2, 2.8509253e+1, -0.000002606061, -16566.934, 2.036869, 0.0, 0.0012919579, 0.0002478226, 0.0002478226, 0.0, 0.012207031, 0.01200968 
1.8310547e-2, 2.8521264e+1, -0.00000094222736, -16554.637, -0.6759334, 0.0, 0.001654959, 0.000026656442, 0.000026656442, 0.0, 0.012207031, 0.012009824 
1.8310547e-2, 2.8533277e+1, -0.0000004779063, -16546.45, -0.10962348, 0.0, 0.0013777174, 0.00000024836845, 0.00000024836845, 0.0, 0.012207031, 0.012009919 
1.8310547e-2, 2.8545284e+1, -0.0037021341, -16536.678, 61.675022, 0.0, 0.0013250642, 0.22631724, 0.22631724, 0.0, 0.012207031, 0.012010032 
1.8310547e-2, 2.8557295e+1, -0.00008982402, -16533.17, 9.605331, 0.0, 0.0015182998, 0.005490616, 0.005490616, 0.0, 0.012207031, 0.012010073 
1.8310547e-2, 2.8569305e+1, -0.0000005461354, -16515.787, -0.11515879, 0.0, 0.0013161658, 0.0000002568231, 0.0000002568231, 0.0, 0.012207031, 0.012010275 
1.8310547e-2, 2.8581315e+1, -0.000005365036, -16504.186, 1.5892503, 0.0, 0.0014490088, 0.00014766988, 0.00014766988, 0.0, 0.012207031, 0.0120104095 
1.8310547e-2, 2.8593326e+1, -0.00019166675, -16492.816, 14.034051, 0.0, 0.0014554369, 0.011750166, 0.011750166, 0.0, 0.012207031, 0.012010542 
1.8310547e-2, 2.8605336e+1, -0.00028495287, -16497.799, 17.11227, 0.0, 0.0012498237, 0.017464658, 0.017464658, 0.0, 0.012207031, 0.012010484 
1.8310547e-2, 2.8617346e+1, -0.00001380366, -16482.393, 3.8714845, 0.0, 0.0014691897, 0.0008955541, 0.0008955541, 0.0, 0.012207031, 0.012010664 
1.8310547e-2, 2.862936e+1, -0.000006248914, -16472.867, -1.6894215, 0.0, 0.0015317866, 0.00016701448, 0.00016701448, 0.0, 0.012207031, 0.012010775 
1.8310547e-2, 2.864137e+1, -0.0000010674728, -16458.488, 0.6939301, 0.0, 0.0013294826, 0.000028190316, 0.000028190316, 0.0, 0.012207031, 0.012010941 
1.8310547e-2, 2.865338e+1, -0.000006257459, -16453.16, 2.422218, 0.0, 0.0013117626, 0.0003503391, 0.0003503391, 0.0, 0.012207031, 0.012011004 
1.8310547e-2, 2.866539e+1, -0.0000011397977, -16437.715, -0.6642272, 0.0, 0.0013759653, 0.000025700778, 0.000025700778, 0.0, 0.012207031, 0.0120111825 
1.8310547e-2, 2.8677404e+1, -0.0000076250385, -16432.17, -1.8396559, 0.0, 0.0016520836, 0.00019833277, 0.00019833277, 0.0, 0.012207031, 0.012011248 
1.8310547e-2, 2.8689414e+1, -0.0000031752459, -16420.674, 1.2134049, 0.0, 0.0013751736, 0.00008648925, 0.00008648925, 0.0, 0.012207031, 0.012011381 
1.8310547e-2, 2.8701425e+1, -0.00000067414334, -16412.316, 0.41341445, 0.0, 0.0010632526, 0.0000097394695, 0.0000097394695, 0.0, 0.012207031, 0.012011479 
1.8310547e-2, 2.8713435e+1, -0.0000027628148, -16396.488, 1.1350466, 0.0, 0.0014811687, 0.00007581076, 0.00007581076, 0.0, 0.012207031, 0.012011662 
1.8310547e-2, 2.8725448e+1, -0.0000005575179, -16396.951, -0.31801972, 0.0, 0.0017549112, 0.0000056104946, 0.0000056104946, 0.0, 0.012207031, 0.0120116575 
1.8310547e-2, 2.873746e+1, -0.00000049588874, -16377.434, 0.044551544, 0.0, 0.0013283091, -0.00000037469727, -0.00000037469727, 0.0, 0.012207031, 0.012011884 
1.8310547e-2, 2.8749472e+1, -0.000002714156, -16375.503, 1.1842436, 0.0, 0.001023921, 0.00008292796, 0.00008292796, 0.0, 0.012207031, 0.012011906 
1.8310547e-2, 2.8761485e+1, -0.0000005942881, -16360.204, -0.30013752, 0.0, 0.0014890378, 0.0000049119117, 0.0000049119117, 0.0, 0.012207031, 0.012012085 
1.8310547e-2, 2.8773496e+1, -0.00000051679785, -16355.002, 0.04744826, 0.0, 0.0017623635, -0.0000003791447, -0.0000003791447, 0.0, 0.012207031, 0.0120121455 
1.8310547e-2, 2.8785506e+1, -0.000000698318, -16337.789, 0.3372087, 0.0, 0.0012315423, 0.000006261602, 0.000006261602, 0.0, 0.012207031, 0.012012346 
1.8310547e-2, 2.879752e+1, -0.0000006519779, -16336.966, 0.015410234, 0.0, 0.0012511644, -0.0000006374412, -0.0000006374412, 0.0, 0.012207031, 0.012012355 
1.8310547e-2, 2.8809533e+1, -0.0000008755439, -16320.328, 0.49889517, 0.0, 0.001569562, 0.000014375155, 0.000014375155, 0.0, 0.012207031, 0.012012549 
1.8310547e-2, 2.8821546e+1, -0.0000012520524, -16316.722, -0.78836393, 0.0, 0.0013060387, 0.000036838792, 0.000036838792, 0.0, 0.012207031, 0.012012591 
1.8310547e-2, 2.8833556e+1, -0.0000010493659, -16299.79, -0.5291688, 0.0, 0.0014313734, 0.00001612997, 0.00001612997, 0.0, 0.012207031, 0.012012787 
1.8310547e-2, 2.8845572e+1, -0.000006143499, -16297.002, 2.0426795, 0.0, 0.0014486946, 0.0002498876, 0.0002498876, 0.0, 0.012207031, 0.01201282 
1.8310547e-2, 2.8857583e+1, -0.00000052762755, -16281.774, -0.00918258, 0.0, 0.0013173319, -0.0000005224483, -0.0000005224483, 0.0, 0.012207031, 0.012012997 
1.8310547e-2, 2.8869596e+1, -0.000005945042, -16275.927, -1.5791845, 0.0, 0.0015280066, 0.00014727657, 0.00014727657, 0.0, 0.012207031, 0.012013065 
1.8310547e-2, 2.888161e+1, -0.0000006716269, -16262.905, 0.30966714, 0.0, 0.0013352206, 0.0000052248433, 0.0000052248433, 0.0, 0.012207031, 0.0120132165 
1.8310547e-2, 2.8893623e+1, -0.0000006188241, -16257.624, 0.14308898, 0.0, 0.0014093198, 0.0000006405535, 0.0000006405535, 0.0, 0.012207031, 0.012013278 
1.8310547e-2, 2.8905636e+1, -0.00012842806, -16242.984, 11.483643, 0.0, 0.0015587122, 0.007990399, 0.007990399, 0.0, 0.012207031, 0.012013448 
1.8310547e-2, 2.891765e+1, -0.0000071674085, -16236.567, -1.849193, 0.0, 0.0011616156, 0.00020343835, 0.00020343835, 0.0, 0.012207031, 0.012013523 
1.8310547e-2, 2.8929666e+1, -0.0000036775791, -16220.759, 1.460012, 0.0, 0.0015060754, 0.00012773642, 0.00012773642, 0.0, 0.012207031, 0.012013707 
1.8310547e-2, 2.8941676e+1, -0.0000074479035, -16218.913, 2.5117111, 0.0, 0.0014929203, 0.00038152342, 0.00038152342, 0.0, 0.012207031, 0.012013729 
1.8310547e-2, 2.8953692e+1, -0.00000077631995, -16204.413, -0.17864567, 0.0, 0.0012544962, 0.0000011931606, 0.0000011931606, 0.0, 0.012207031, 0.012013897 
1.8310547e-2, 2.8965706e+1, -0.0000006729152, -16199.079, -0.38089862, 0.0, 0.0015783948, 0.000008283381, 0.000008283381, 0.0, 0.012207031, 0.01201396 
1.8310547e-2, 2.897772e+1, -0.0000031895281, -16183.384, -1.3790219, 0.0, 0.0014909084, 0.00011431998, 0.00011431998, 0.0, 0.012207031, 0.012014142 
1.8310547e-2, 2.8989732e+1, -0.0000032975856, -16174.3955, 2.1569486, 0.0, 0.0011967038, 0.00028434387, 0.00028434387, 0.0, 0.012207031, 0.012014247 
1.8310547e-2, 2.900175e+1, -0.0000042735514, -16172.28, 1.8054866, 0.0, 0.0013933182, 0.00019729244, 0.00019729244, 0.0, 0.012207031, 0.012014272 
1.8310547e-2, 2.9013762e+1, -0.0000034048412, -16157.557, -2.0420468, 0.0, 0.0015775131, 0.00025467592, 0.00025467592, 0.0, 0.012207031, 0.012014443 
1.8310547e-2, 2.9025775e+1, -0.0000021761625, -16139.027, -1.0321816, 0.0, 0.0015366302, 0.00006383766, 0.00006383766, 0.0, 0.012207031, 0.012014658 
1.8310547e-2, 2.9037791e+1, -0.0000051300035, -16139.703, -1.9045163, 0.0, 0.0012012945, 0.00021960662, 0.00021960662, 0.0, 0.012207031, 0.012014651 
1.8310547e-2, 2.9049808e+1, -0.000006581386, -16136.875, 2.5470307, 0.0, 0.0011810779, 0.00039543977, 0.00039543977, 0.0, 0.012207031, 0.012014683 
1.8310547e-2, 2.906182e+1, -0.00002838703, -16129.815, -5.3779116, 0.0, 0.0017816287, 0.0017646856, 0.0017646856, 0.0, 0.012207031, 0.012014765 
1.8310547e-2, 2.9073834e+1, -0.0023135636, -16098.489, 48.73825, 0.0, 0.0017856758, 0.14524038, 0.14524038, 0.0, 0.012207031, 0.01201513 
1.8310547e-2, 2.908585e+1, -0.00006576079, -16092.029, -8.217792, 0.0, 0.0007680337, 0.004130856, 0.004130856, 0.0, 0.012207031, 0.012015206 
1.8310547e-2, 2.9097867e+1, -0.000016755717, -16088.33, 4.048703, 0.0, 0.001279514, 0.0010021193, 0.0010021193, 0.0, 0.012207031, 0.012015249 
1.8310547e-2, 2.910988e+1, -0.0000067062833, -16076.529, -1.7830143, 0.0, 0.0019477136, 0.00019104412, 0.00019104412, 0.0, 0.012207031, 0.012015386 
1.8310547e-2, 2.9121897e+1, -0.0000035955495, -16067.573, -2.1302485, 0.0, 0.0013770388, 0.0002788341, 0.0002788341, 0.0, 0.012207031, 0.01201549 
1.8310547e-2, 2.9133913e+1, -0.0000049903597, -16059.176, 2.2455242, 0.0, 0.0011929536, 0.00030899706, 0.00030899706, 0.0, 0.012207031, 0.012015588 
1.8310547e-2, 2.9145926e+1, -0.00000091713395, -16049.857, -0.4406737, 0.0, 0.0014445083, 0.000011182245, 0.000011182245, 0.0, 0.012207031, 0.012015697 
1.8310547e-2, 2.9157943e+1, -0.00000072272496, -16040.3955, -0.38768443, 0.0, 0.0014554127, 0.000008647319, 0.000008647319, 0.0, 0.012207031, 0.0120158065 
1.8310547e-2, 2.916996e+1, -0.0000006530356, -16028.2705, 0.116401546, 0.0, 0.0015246327, 0.00000019230538, 0.00000019230538, 0.0, 0.012207031, 0.012015948 
1.8310547e-2, 2.9181975e+1, -0.0000021489955, -16020.509, -1.0518038, 0.0, 0.0012869837, 0.00006690569, 0.00006690569, 0.0, 0.012207031, 0.012016038 
1.8310547e-2, 2.919399e+1, -0.000001420737, -16011.498, 0.79067874, 0.0, 0.0013613432, 0.000037624508, 0.000037624508, 0.0, 0.012207031, 0.012016143 
1.8310547e-2, 2.9206008e+1, -0.00000048518933, -16000.581, -0.04675602, 0.0, 0.0015251616, -0.00000034856203, -0.00000034856203, 0.0, 0.012207031, 0.01201627 
1.8310547e-2, 2.9218024e+1, -0.00000088769076, -15991.1, -0.5988174, 0.0, 0.0013883923, 0.000021536174, 0.000021536174, 0.0, 0.012207031, 0.01201638 
1.8310547e-2, 2.923004e+1, -0.00000060360804, -15981.354, -0.2164991, 0.0, 0.0013608674, 0.0000023293014, 0.0000023293014, 0.0, 0.012207031, 0.012016494 
1.8310547e-2, 2.9242057e+1, -0.0010161829, -15970.458, 32.296677, 0.0, 0.0014978419, 0.06429636, 0.06429636, 0.0, 0.012207031, 0.012016621 
1.8310547e-2, 2.9254073e+1, -0.000006703757, -15960.768, 2.750808, 0.0, 0.0013292417, 0.00046739276, 0.00046739276, 0.0, 0.012207031, 0.012016734 
1.8310547e-2, 2.926609e+1, -0.0000019615168, -15951.484, 1.9617181, 0.0, 0.0014341327, 0.00023929113, 0.00023929113, 0.0, 0.012207031, 0.012016842 
1.8310547e-2, 2.9278105e+1, -0.0000015058076, -15940.245, -0.8129587, 0.0, 0.0013993222, 0.000039955405, 0.000039955405, 0.0, 0.012207031, 0.0120169725 
1.8310547e-2, 2.9290125e+1, -0.0000007460071, -15934.085, -0.42598718, 0.0, 0.0014243807, 0.000010642478, 0.000010642478, 0.0, 0.012207031, 0.012017044 
1.8310547e-2, 2.930214e+1, -0.0000041887542, -15922.27, 2.2394876, 0.0, 0.0014418138, 0.00031079803, 0.00031079803, 0.0, 0.012207031, 0.012017182 
1.8310547e-2, 2.931416e+1, -0.0000008597589, -15914.194, -0.5351438, 0.0, 0.0012611424, 0.000017135428, 0.000017135428, 0.0, 0.012207031, 0.012017276 
1.8310547e-2, 2.9326177e+1, -0.0000006128894, -15899.969, -0.24535885, 0.0, 0.0014383227, 0.0000031733416, 0.0000031733416, 0.0, 0.012207031, 0.012017442 
1.8310547e-2, 2.9338193e+1, -0.000004690339, -15895.702, 1.930656, 0.0, 0.001619884, 0.00022980275, 0.00022980275, 0.0, 0.012207031, 0.012017491 
1.8310547e-2, 2.9350212e+1, -0.0000015992017, -15882.229, -0.843375, 0.0, 0.0012775656, 0.000043185537, 0.000043185537, 0.0, 0.012207031, 0.012017649 
1.8310547e-2, 2.936223e+1, -0.000002514204, -15873.438, -1.1344439, 0.0, 0.0012302848, 0.000078562305, 0.000078562305, 0.0, 0.012207031, 0.012017751 
1.8310547e-2, 2.9374248e+1, -0.00000054291615, -15863.067, 0.24294609, 0.0, 0.0014893933, 0.0000031778527, 0.0000031778527, 0.0, 0.012207031, 0.012017872 
1.8310547e-2, 2.9386264e+1, -0.00000066463826, -15856.106, -0.18230861, 0.0, 0.0016113801, 0.0000014314883, 0.0000014314883, 0.0, 0.012207031, 0.012017953 
1.8310547e-2, 2.9398283e+1, -0.00000060102775, -15846.538, -0.25859627, 0.0, 0.0012692873, 0.0000036189485, 0.0000036189485, 0.0, 0.012207031, 0.012018064 
1.8310547e-2, 2.9410303e+1, -0.00004739933, -15834.915, 6.994083, 0.0, 0.0012777774, 0.0030417987, 0.0030417987, 0.0, 0.012207031, 0.0120182 
1.8310547e-2, 2.942232e+1, -0.000004398311, -15818.389, 1.411984, 0.0, 0.0015670335, 0.00012163847, 0.00012163847, 0.0, 0.012207031, 0.012018393 
1.8310547e-2, 2.9434338e+1, -0.0000034656416, -15818.404, 1.3051413, 0.0, 0.0013130141, 0.00010421866, 0.00010421866, 0.0, 0.012207031, 0.012018392 
1.8310547e-2, 2.9446355e+1, -0.0000059662125, -15806.091, -1.7653792, 0.0, 0.0013483064, 0.00019120863, 0.00019120863, 0.0, 0.012207031, 0.012018535 
1.8310547e-2, 2.9458374e+1, -0.00003535691, -15793.686, 5.9971914, 0.0, 0.0016198342, 0.0022419014, 0.0022419014, 0.0, 0.012207031, 0.012018681 
1.8310547e-2, 2.9470393e+1, -0.0000021528338, -15786.031, 0.9327768, 0.0, 0.0012738373, 0.000052963784, 0.000052963784, 0.0, 0.012207031, 0.012018769 
1.8310547e-2, 2.9482412e+1, -0.0000006628624, -15778.313, 0.47174287, 0.0, 0.001367385, 0.000013441391, 0.000013441391, 0.0, 0.012207031, 0.012018859 
1.8310547e-2, 2.9494432e+1, -0.0000005862403, -15762.097, 0.12685394, 0.0, 0.0015291441, 0.00000043468572, 0.00000043468572, 0.0, 0.012207031, 0.012019048 
1.8310547e-2, 2.950645e+1, -0.000002787996, -15757.639, 1.1829455, 0.0, 0.0012515436, 0.00008601718, 0.00008601718, 0.0, 0.012207031, 0.012019101 
1.8310547e-2, 2.951847e+1, -0.0000006842954, -15748.793, 0.4243634, 0.0, 0.001382167, 0.0000107505075, 0.0000107505075, 0.0, 0.012207031, 0.012019203 
1.8310547e-2, 2.953049e+1, -0.0000069965267, -15737.405, -2.461654, 0.0, 0.0016415906, 0.00037805678, 0.00037805678, 0.0, 0.012207031, 0.012019336 
1.8310547e-2, 2.9542506e+1, -0.0000013738447, -15720.486, 0.56264186, 0.0, 0.0014144742, 0.000018763314, 0.000018763314, 0.0, 0.012207031, 0.012019534 
1.8310547e-2, 2.9554528e+1, -0.0000031217041, -15723.437, 1.2757951, 0.0, 0.0011124928, 0.00010039594, 0.00010039594, 0.0, 0.012207031, 0.012019499 
1.8310547e-2, 2.9566547e+1, -0.0000010154286, -15705.306, 0.44135118, 0.0, 0.0014337038, 0.000011387439, 0.000011387439, 0.0, 0.012207031, 0.012019711 
1.8310547e-2, 2.9578567e+1, -0.00000038832053, -15698.51, -0.25415337, 0.0, 0.0017288962, 0.0000037263326, 0.0000037263326, 0.0, 0.012207031, 0.01201979 
1.8310547e-2, 2.959059e+1, -0.000017864648, -15684.999, -4.2105274, 0.0, 0.0014374367, 0.0011124216, 0.0011124216, 0.0, 0.012207031, 0.012019947 
1.8310547e-2, 2.9602608e+1, -0.000007326613, -15687.449, 1.7556663, 0.0, 0.0010125726, 0.00018915939, 0.00018915939, 0.0, 0.012207031, 0.012019918 
1.8310547e-2, 2.9614627e+1, -0.000005633648, -15676.197, -2.610605, 0.0, 0.0014480834, 0.00042911837, 0.00042911837, 0.0, 0.012207031, 0.01202005 
1.8310547e-2, 2.9626647e+1, -0.0017881154, -15654.44, 42.83207, 0.0, 0.0018126139, 0.11540373, 0.11540373, 0.0, 0.012207031, 0.012020303 
1.8310547e-2, 2.963867e+1, -0.00001880006, -15641.051, -4.30734, 0.0, 0.0012130089, 0.0011673849, 0.0011673849, 0.0, 0.012207031, 0.012020459 
1.8310547e-2, 2.9650688e+1, -0.000006480562, -15640.9, 2.4509132, 0.0, 0.0013423096, 0.00037757505, 0.00037757505, 0.0, 0.012207031, 0.012020461 
1.8310547e-2, 2.9662707e+1, -0.0000059156578, -15622.478, -1.7304189, 0.0, 0.0016626209, 0.00018575367, 0.00018575367, 0.0, 0.012207031, 0.012020675 
1.8310547e-2, 2.967473e+1, -0.0000016631302, -15621.473, -0.8752264, 0.0, 0.001119764, 0.000047373294, 0.000047373294, 0.0, 0.012207031, 0.012020688 
1.8310547e-2, 2.968675e+1, -0.000004825538, -15610.541, 1.9065422, 0.0, 0.0013592631, 0.00022802374, 0.00022802374, 0.0, 0.012207031, 0.012020815 
1.8310547e-2, 2.969877e+1, -0.0000072725584, -15603.353, -2.7240078, 0.0, 0.0017647572, 0.00046828022, 0.00046828022, 0.0, 0.012207031, 0.012020899 
1.8310547e-2, 2.9710793e+1, -0.0000008269219, -15584.811, 0.1287114, 0.0, 0.0014149478, 0.00000023607754, 0.00000023607754, 0.0, 0.012207031, 0.012021115 
1.8310547e-2, 2.9722813e+1, -0.0000067238257, -15582.014, 2.6627913, 0.0, 0.0011441369, 0.00044831733, 0.00044831733, 0.0, 0.012207031, 0.012021148 
1.8310547e-2, 2.9734835e+1, -0.0000029354007, -15570.534, -1.2331169, 0.0, 0.0014649628, 0.00009472195, 0.00009472195, 0.0, 0.012207031, 0.012021281 
1.8310547e-2, 2.9746854e+1, -0.000001006522, -15562.633, -0.6520716, 0.0, 0.0015741907, 0.000026315167, 0.000026315167, 0.0, 0.012207031, 0.012021373 
1.8310547e-2, 2.9758877e+1, -0.0000007404546, -15549.2705, -0.48495358, 0.0, 0.0014244042, 0.00001438437, 0.00001438437, 0.0, 0.012207031, 0.0120215295 
1.8310547e-2, 2.97709e+1, -0.00000046541058, -15543.88, -0.14007698, 0.0, 0.0012948766, 0.0000007969229, 0.0000007969229, 0.0, 0.012207031, 0.012021592 
1.8310547e-2, 2.978292e+1, -0.0000050109284, -15535.897, -2.6369517, 0.0, 0.0014575322, 0.00044256632, 0.00044256632, 0.0, 0.012207031, 0.012021685 
1.8310547e-2, 2.9794943e+1, -0.009395257, -15518.756, 98.17013, 0.0, 0.0014670643, 0.6115949, 0.6115949, 0.0, 0.012207031, 0.012021885 
1.8310547e-2, 2.9806963e+1, -0.0002030132, -15509.178, 14.431879, 0.0, 0.0013662302, 0.013226387, 0.013226387, 0.0, 0.012207031, 0.012021997 
1.8310547e-2, 2.9818985e+1, -0.0000072019266, -15499.164, 2.9148395, 0.0, 0.001478398, 0.0005409753, 0.0005409753, 0.0, 0.012207031, 0.012022113 
1.8310547e-2, 2.9831007e+1, -0.0000006162739, -15491.107, -0.37191945, 0.0, 0.0013481898, 0.0000083129835, 0.0000083129835, 0.0, 0.012207031, 0.0120222075 
1.8310547e-2, 2.9843032e+1, -0.000004682289, -15480.771, 2.5614336, 0.0, 0.0014271056, 0.00041913005, 0.00041913005, 0.0, 0.012207031, 0.012022328 
1.8310547e-2, 2.9855052e+1, -0.00004582756, -15476.227, 6.872546, 0.0, 0.0016315947, 0.0030060716, 0.0030060716, 0.0, 0.012207031, 0.012022381 
1.8310547e-2, 2.9867074e+1, -0.000002407343, -15464.699, 0.9995723, 0.0, 0.0011477217, 0.00006220075, 0.00006220075, 0.0, 0.012207031, 0.012022516 
1.8310547e-2, 2.9879096e+1, -0.000003636437, -15453.237, -1.3054917, 0.0, 0.0013582213, 0.000106651685, 0.000106651685, 0.0, 0.012207031, 0.012022649 
1.8310547e-2, 2.989112e+1, -0.0000046483315, -15441.03, 1.370637, 0.0, 0.0016441693, 0.0001170175, 0.0001170175, 0.0, 0.012207031, 0.012022791 
1.8310547e-2, 2.9903144e+1, -0.0000006443699, -15438.541, -0.27044654, 0.0, 0.0013525593, 0.000004093212, 0.000004093212, 0.0, 0.012207031, 0.01202282 
1.8310547e-2, 2.9915166e+1, -0.00000061770453, -15421.718, 0.26931933, 0.0, 0.0013815609, 0.0000040855903, 0.0000040855903, 0.0, 0.012207031, 0.012023017 
1.8310547e-2, 2.9927188e+1, -0.0000004944297, -15415.465, -0.18380852, 0.0, 0.0013815071, 0.0000016972372, 0.0000016972372, 0.0, 0.012207031, 0.012023089 
1.8310547e-2, 2.9939213e+1, -0.0000013677746, -15401.294, -0.79057056, 0.0, 0.0014501417, 0.000039213348, 0.000039213348, 0.0, 0.012207031, 0.012023255 
1.8310547e-2, 2.9951236e+1, -0.0000055617734, -15398.47, 1.519718, 0.0, 0.0014570444, 0.00014442345, 0.00014442345, 0.0, 0.012207031, 0.012023288 
1.8310547e-2, 2.9963258e+1, -0.0000014713864, -15382.55, -0.7732275, 0.0, 0.0012991261, 0.000037396087, 0.000037396087, 0.0, 0.012207031, 0.012023474 
1.8310547e-2, 2.9975283e+1, -0.00000066523825, -15376.069, 0.24021415, 0.0, 0.0015478435, 0.0000030875308, 0.0000030875308, 0.0, 0.012207031, 0.0120235495 
1.8310547e-2, 2.9987305e+1, -0.0000017769512, -15364.897, 0.82600325, 0.0, 0.0013554632, 0.000042628253, 0.000042628253, 0.0, 0.012207031, 0.01202368 
1.8310547e-2, 2.999933e+1, -0.0000060973052, -15356.182, -2.5793436, 0.0, 0.001236843, 0.0004271493, 0.0004271493, 0.0, 0.012207031, 0.012023781 
1.8310547e-2, 3.0011356e+1, -0.000003091707, -15343.6, 2.0785074, 0.0, 0.0015793999, 0.0002784715, 0.0002784715, 0.0, 0.012207031, 0.012023928 
1.8310547e-2, 3.0023378e+1, -0.0000062822132, -15340.426, 1.6177557, 0.0, 0.0014870515, 0.0001643215, 0.0001643215, 0.0, 0.012207031, 0.012023965 
1.8310547e-2, 3.0035403e+1, -0.00000075593584, -15321.249, -0.44918078, 0.0, 0.0013133851, 0.000012412922, 0.000012412922, 0.0, 0.012207031, 0.012024188 
1.8310547e-2, 3.0047426e+1, -0.0000027906808, -15320.427, -1.1368265, 0.0, 0.00126865, 0.00008156562, 0.00008156562, 0.0, 0.012207031, 0.012024199 
1.8310547e-2, 3.005945e+1, -0.0000006964807, -15304.142, -0.26495832, 0.0, 0.001503858, 0.0000038907037, 0.0000038907037, 0.0, 0.012207031, 0.012024389 
1.8310547e-2, 3.0071473e+1, -0.000008751074, -15299.758, 3.1953967, 0.0, 0.0015966387, 0.00065861637, 0.00065861637, 0.0, 0.012207031, 0.01202444 
1.8310547e-2, 3.00835e+1, -0.0000054692296, -15284.271, -1.5361599, 0.0, 0.0012401723, 0.00014892392, 0.00014892392, 0.0, 0.012207031, 0.012024621 
1.8310547e-2, 3.0095524e+1, -0.0000070331344, -15279.075, -2.3849754, 0.0, 0.0012994035, 0.00036524778, 0.00036524778, 0.0, 0.012207031, 0.012024681 
1.8310547e-2, 3.010755e+1, -0.0000017228342, -15266.901, 0.84474975, 0.0, 0.0014724764, 0.000045018947, 0.000045018947, 0.0, 0.012207031, 0.012024823 
1.8310547e-2, 3.0119574e+1, -0.0000016019369, -15262.728, 0.88086087, 0.0, 0.0016179372, 0.000049235365, 0.000049235365, 0.0, 0.012207031, 0.012024872 
1.8310547e-2, 3.01316e+1, -0.000013118292, -15241.709, 3.7785442, 0.0, 0.0013449368, 0.0009236136, 0.0009236136, 0.0, 0.012207031, 0.012025117 
1.8310547e-2, 3.0143625e+1, -0.00000543441, -15237.714, -2.5761523, 0.0, 0.001063215, 0.00043010074, 0.00043010074, 0.0, 0.012207031, 0.0120251635 
1.8310547e-2, 3.015565e+1, -0.000033631935, -15212.938, 5.846805, 0.0, 0.0016463677, 0.0022134767, 0.0022134767, 0.0, 0.012207031, 0.012025453 
1.8310547e-2, 3.0167675e+1, -0.0005613305, -15230.7, 23.991566, 0.0, 0.0015822357, 0.037230354, 0.037230354, 0.0, 0.012207031, 0.012025245 
1.8310547e-2, 3.01797e+1, -0.00017418542, -15210.982, 13.363591, 0.0, 0.0012459062, 0.011566374, 0.011566374, 0.0, 0.012207031, 0.0120254755 
1.8310547e-2, 3.0191725e+1, -0.0000045716583, -15203.2295, -1.714913, 0.0, 0.0013480949, 0.00018886926, 0.00018886926, 0.0, 0.012207031, 0.012025566 
1.8310547e-2, 3.020375e+1, -0.000002529797, -15191.178, 1.1712321, 0.0, 0.0014734372, 0.0000877716, 0.0000877716, 0.0, 0.012207031, 0.0120257065 
1.8310547e-2, 3.0215776e+1, -0.0000004647345, -15183.085, -0.15477818, 0.0, 0.0014665734, 0.0000011130924, 0.0000011130924, 0.0, 0.012207031, 0.012025801 
1.8310547e-2, 3.02278e+1, -0.0000015737007, -15165.856, 0.841157, 0.0, 0.0013509128, 0.00004508012, 0.00004508012, 0.0, 0.012207031, 0.012026003 
1.8310547e-2, 3.023983e+1, -0.000001338131, -15164.079, 0.81016964, 0.0, 0.0014401134, 0.000041946714, 0.000041946714, 0.0, 0.012207031, 0.012026023 
1.8310547e-2, 3.0251855e+1, -0.0000018868817, -15147.124, -0.8609897, 0.0, 0.0014825537, 0.000047053316, 0.000047053316, 0.0, 0.012207031, 0.0120262215 
1.8310547e-2, 3.0263883e+1, -0.00000066677313, -15145.938, -0.09247066, 0.0, 0.0012555958, -0.000000102210834, -0.000000102210834, 0.0, 0.012207031, 0.0120262345 
1.8310547e-2, 3.0275908e+1, -0.00000090180424, -15124.283, 0.4596701, 0.0, 0.0014563935, 0.000013068879, 0.000013068879, 0.0, 0.012207031, 0.012026488 
1.8310547e-2, 3.0287933e+1, -0.0000008227294, -15125.336, 0.45132366, 0.0, 0.0015641096, 0.000012644281, 0.000012644281, 0.0, 0.012207031, 0.012026476 
1.8310547e-2, 3.0299962e+1, -0.0000007581514, -15111.876, -0.220835, 0.0, 0.0013155524, 0.000002468987, 0.000002468987, 0.0, 0.012207031, 0.012026632 
1.8310547e-2, 3.0311987e+1, -0.00000177456, -15103.405, -0.92172873, 0.0, 0.0014111827, 0.000054476583, 0.000054476583, 0.0, 0.012207031, 0.012026732 
1.8310547e-2, 3.0324015e+1, -0.000012124297, -15088.331, 3.6532981, 0.0, 0.0014821441, 0.0008724391, 0.0008724391, 0.0, 0.012207031, 0.012026908 
1.8310547e-2, 3.033604e+1, -0.0000028021868, -15083.44, 1.162341, 0.0, 0.0013323961, 0.000086768654, 0.000086768654, 0.0, 0.012207031, 0.012026965 
1.8310547e-2, 3.0348068e+1, -0.00000062937704, -15069.997, -0.0012186181, 0.0, 0.001464124, -0.00000062927757, -0.00000062927757, 0.0, 0.012207031, 0.012027121 
1.8310547e-2, 3.0360094e+1, -0.0000036062313, -15066.392, -1.279734, 0.0, 0.0014352396, 0.00010509393, 0.00010509393, 0.0, 0.012207031, 0.012027164 
1.8310547e-2, 3.0372122e+1, -0.0000022526428, -15049.613, 0.94346744, 0.0, 0.0014254367, 0.000056893783, 0.000056893783, 0.0, 0.012207031, 0.01202736 
1.8310547e-2, 3.038415e+1, -0.0000063654256, -15043.128, 2.6254368, 0.0, 0.0014011278, 0.00045184497, 0.00045184497, 0.0, 0.012207031, 0.012027435 
1.8310547e-2, 3.0396178e+1, -0.0000013315072, -15036.655, -0.5389077, 0.0, 0.0013286006, 0.000017982731, 0.000017982731, 0.0, 0.012207031, 0.01202751 
1.8310547e-2, 3.0408204e+1, -0.000004567529, -15024.141, -1.4244977, 0.0, 0.0016104743, 0.00013049468, 0.00013049468, 0.0, 0.012207031, 0.012027657 
1.8310547e-2, 3.0420232e+1, -0.0000011478629, -15010.1455, 0.56344104, 0.0, 0.0014664908, 0.00002000222, 0.00002000222, 0.0, 0.012207031, 0.012027821 
1.8310547e-2, 3.043226e+1, -0.000004415147, -15004.351, 1.3803174, 0.0, 0.0011552966, 0.00012256645, 0.00012256645, 0.0, 0.012207031, 0.012027889 
1.8310547e-2, 3.0444288e+1, -0.00000091987687, -14995.402, 0.23547707, 0.0, 0.0014633437, 0.000002777886, 0.000002777886, 0.0, 0.012207031, 0.012027993 
1.8310547e-2, 3.0456316e+1, -0.0000030399215, -14983.699, -2.0591054, 0.0, 0.0016130559, 0.00027992856, 0.00027992856, 0.0, 0.012207031, 0.012028129 
1.8310547e-2, 3.0468345e+1, -0.0000007159029, -14973.753, 0.10543353, 0.0, 0.0013929713, 0.00000002647721, 0.00000002647721, 0.0, 0.012207031, 0.012028245 
1.8310547e-2, 3.0480373e+1, -0.0000025330141, -14966.661, 0.9861616, 0.0, 0.0012768005, 0.000062445724, 0.000062445724, 0.0, 0.012207031, 0.012028328 
1.8310547e-2, 3.04924e+1, -0.0000015177886, -14954.498, -0.7441735, 0.0, 0.0014653046, 0.000035514164, 0.000035514164, 0.0, 0.012207031, 0.012028471 
1.8310547e-2, 3.050443e+1, -0.0000014739305, -14943.568, 0.7983664, 0.0, 0.0014855118, 0.000041179133, 0.000041179133, 0.0, 0.012207031, 0.012028598 
1.8310547e-2, 3.0516458e+1, -0.00000071309785, -14938.786, -0.3820448, 0.0, 0.0013564007, 0.000009057321, 0.000009057321, 0.0, 0.012207031, 0.012028654 
1.8310547e-2, 3.0528486e+1, -0.0000008346297, -14922.846, -0.50234914, 0.0, 0.0014651406, 0.000016075996, 0.000016075996, 0.0, 0.012207031, 0.01202884 
1.8310547e-2, 3.0540517e+1, -0.0000044465714, -14918.353, 2.456353, 0.0, 0.0013753708, 0.0003999995, 0.0003999995, 0.0, 0.012207031, 0.0120288925 
1.8310547e-2, 3.0552545e+1, -0.000005872504, -14897.827, 2.6693108, 0.0, 0.0014336546, 0.00047239993, 0.00047239993, 0.0, 0.012207031, 0.012029133 
1.8310547e-2, 3.0564573e+1, -0.00012338464, -14889.907, 11.24313, 0.0, 0.0015046501, 0.008366117, 0.008366117, 0.0, 0.012207031, 0.012029225 
1.8310547e-2, 3.0576602e+1, -0.0002603564, -14878.406, 16.334837, 0.0, 0.0012833405, 0.017673457, 0.017673457, 0.0, 0.012207031, 0.012029359 
1.8310547e-2, 3.0588633e+1, -0.0005185659, -14882.519, 23.051432, 0.0, 0.0013728538, 0.035185557, 0.035185557, 0.0, 0.012207031, 0.012029312 
1.8310547e-2, 3.060066e+1, -0.0003444753, -14871.159, 18.787031, 0.0, 0.0015657715, 0.023389516, 0.023389516, 0.0, 0.012207031, 0.012029444 
1.8310547e-2, 3.0612692e+1, -0.00003176037, -14867.395, 5.690035, 0.0, 0.0014044145, 0.002145924, 0.002145924, 0.0, 0.012207031, 0.012029488 
1.8310547e-2, 3.062472e+1, -0.00000039137296, -14844.788, -0.15729369, 0.0, 0.0013305668, 0.0000012752935, 0.0000012752935, 0.0, 0.012207031, 0.012029752 
1.8310547e-2, 3.0636752e+1, -0.00000060992437, -14843.764, -0.15851116, 0.0, 0.0014012044, 0.0000010827607, 0.0000010827607, 0.0, 0.012207031, 0.012029764 
1.8310547e-2, 3.064878e+1, -0.000003602056, -14822.792, 1.8063384, 0.0, 0.001484907, 0.00021652236, 0.00021652236, 0.0, 0.012207031, 0.012030009 
1.8310547e-2, 3.066081e+1, -0.0000012432483, -14822.675, 0.66329116, 0.0, 0.0013910121, 0.000028437977, 0.000028437977, 0.0, 0.012207031, 0.01203001 
1.8310547e-2, 3.067284e+1, -0.0000065930803, -14805.003, -2.605557, 0.0, 0.0014166593, 0.00045196322, 0.00045196322, 0.0, 0.012207031, 0.012030217 
1.8310547e-2, 3.068487e+1, -0.00000074532704, -14803.24, 0.19906443, 0.0, 0.0013351667, 0.000001931563, 0.000001931563, 0.0, 0.012207031, 0.012030237 
1.8310547e-2, 3.0696902e+1, -0.0000048448037, -14784.84, 2.145694, 0.0, 0.0014652924, 0.00030655542, 0.00030655542, 0.0, 0.012207031, 0.0120304525 
1.8310547e-2, 3.0708933e+1, -0.0000025650038, -14781.991, -0.99215937, 0.0, 0.0015720408, 0.0000640282, 0.0000640282, 0.0, 0.012207031, 0.012030486 
1.8310547e-2, 3.072096e+1, -0.0000007233939, -14764.41, -0.3712289, 0.0, 0.0012211117, 0.000008610597, 0.000008610597, 0.0, 0.012207031, 0.012030691 
1.8310547e-2, 3.0732995e+1, -0.000005551068, -14764.241, 2.5813525, 0.0, 0.001287131, 0.00044576774, 0.00044576774, 0.0, 0.012207031, 0.012030694 
1.8310547e-2, 3.0745023e+1, -0.00000607296, -14744.671, 1.5661182, 0.0, 0.001704928, 0.00016027367, 0.00016027367, 0.0, 0.012207031, 0.012030922 
1.8310547e-2, 3.0757055e+1, -0.0000006283976, -14744.457, 0.379105, 0.0, 0.0012153402, 0.000009119036, 0.000009119036, 0.0, 0.012207031, 0.012030925 
1.8310547e-2, 3.0769086e+1, -0.0000012227401, -14722.833, 0.7548454, 0.0, 0.0014175746, 0.00003747848, 0.00003747848, 0.0, 0.012207031, 0.012031177 
1.8310547e-2, 3.0781117e+1, -0.000021824804, -14724.726, 4.7823963, 0.0, 0.0017098903, 0.0015314342, 0.0015314342, 0.0, 0.012207031, 0.012031155 
1.8310547e-2, 3.0793148e+1, -0.000019274861, -14711.468, 4.4736266, 0.0, 0.0011197544, 0.001341115, 0.001341115, 0.0, 0.012207031, 0.01203131 
1.8310547e-2, 3.080518e+1, -0.00000022229428, -14703.2, 0.16700698, 0.0, 0.0012865668, 0.0000016746617, 0.0000016746617, 0.0, 0.012207031, 0.012031407 
1.8310547e-2, 3.081721e+1, -0.000005223026, -14684.896, 1.5819135, 0.0, 0.0016860674, 0.00016518676, 0.00016518676, 0.0, 0.012207031, 0.01203162 
1.8310547e-2, 3.0829242e+1, -0.0000050033877, -14689.334, 1.7592314, 0.0, 0.0013466366, 0.00020568658, 0.00020568658, 0.0, 0.012207031, 0.012031569 
1.8310547e-2, 3.0841273e+1, -0.0000030065592, -14670.38, -1.0812783, 0.0, 0.0014083204, 0.000076688906, 0.000076688906, 0.0, 0.012207031, 0.012031791 
1.8310547e-2, 3.0853307e+1, -0.0000037793955, -14662.825, -1.8504689, 0.0, 0.0013428463, 0.00022975235, 0.00022975235, 0.0, 0.012207031, 0.012031878 
1.8310547e-2, 3.0865338e+1, -0.000004000623, -14644.84, 1.729462, 0.0, 0.0014843153, 0.00020023779, 0.00020023779, 0.0, 0.012207031, 0.012032089 
1.8310547e-2, 3.087737e+1, -0.000004712576, -14649.543, 1.8497325, 0.0, 0.0014328568, 0.0002288449, 0.0002288449, 0.0, 0.012207031, 0.012032034 
1.8310547e-2, 3.0889404e+1, -0.000005461142, -14630.702, -2.2633166, 0.0, 0.0013277356, 0.00034466575, 0.00034466575, 0.0, 0.012207031, 0.012032255 
1.8310547e-2, 3.0901435e+1, -0.000000618962, -14624.474, 0.37501115, 0.0, 0.0015600567, 0.00000899734, 0.00000899734, 0.0, 0.012207031, 0.012032327 
1.8310547e-2, 3.0913466e+1, -0.000002778978, -14611.995, 1.0595667, 0.0, 0.0013627753, 0.0000740539, 0.0000740539, 0.0, 0.012207031, 0.0120324725 
1.8310547e-2, 3.09255e+1, -0.0000068123522, -14604.102, -1.623794, 0.0, 0.0012848787, 0.00017373328, 0.00017373328, 0.0, 0.012207031, 0.012032566 
1.8310547e-2, 3.0937532e+1, -0.0000007407334, -14592.115, 0.46561563, 0.0, 0.0015938143, 0.000014116462, 0.000014116462, 0.0, 0.012207031, 0.012032705 
1.8310547e-2, 3.0949566e+1, -0.0000005100852, -14587.725, 0.22016382, 0.0, 0.0013184886, 0.0000028127142, 0.0000028127142, 0.0, 0.012207031, 0.012032757 
1.8310547e-2, 3.0961597e+1, -0.0000006472723, -14568.261, 0.39742872, 0.0, 0.0014401979, 0.000010194761, 0.000010194761, 0.0, 0.012207031, 0.012032985 
1.8310547e-2, 3.097363e+1, -0.00000063362495, -14569.141, 0.50093293, 0.0, 0.0014868443, 0.000016590027, 0.000016590027, 0.0, 0.012207031, 0.012032974 
1.8310547e-2, 3.0985665e+1, -0.0000005002609, -14554.123, 0.12567072, 0.0, 0.0013489876, 0.0000005848706, 0.0000005848706, 0.0, 0.012207031, 0.01203315 
1.8310547e-2, 3.0997697e+1, -0.000006880131, -14540.866, 2.8479872, 0.0, 0.0014591856, 0.0005509292, 0.0005509292, 0.0, 0.012207031, 0.012033304 
1.8310547e-2, 3.100973e+1, -0.000002914413, -14530.3, -1.1378622, 0.0, 0.0013956985, 0.00008619114, 0.00008619114, 0.0, 0.012207031, 0.012033428 
1.8310547e-2, 3.1021765e+1, -0.000042645945, -14522.739, 6.60995, 0.0, 0.0014526302, 0.002965838, 0.002965838, 0.0, 0.012207031, 0.012033517 
1.8310547e-2, 3.10338e+1, -0.00043373145, -14515.723, 21.075226, 0.0, 0.0014693686, 0.030165106, 0.030165106, 0.0, 0.012207031, 0.0120335985 
1.8310547e-2, 3.104583e+1, -0.0000420194, -14513.078, 6.5798607, 0.0, 0.0012711794, 0.0029411216, 0.0029411216, 0.0, 0.012207031, 0.012033629 
1.8310547e-2, 3.1057864e+1, -0.000008388785, -14496.7295, -3.1885495, 0.0, 0.0015455601, 0.0006929313, 0.0006929313, 0.0, 0.012207031, 0.012033821 
1.8310547e-2, 3.10699e+1, -0.000002804481, -14488.54, 2.0546882, 0.0, 0.0013916498, 0.00028858052, 0.00028858052, 0.0, 0.012207031, 0.012033917 
1.8310547e-2, 3.1081933e+1, -0.0000005683096, -14475.398, 0.27483413, 0.0, 0.0013401695, 0.0000046497717, 0.0000046497717, 0.0, 0.012207031, 0.012034071 
1.8310547e-2, 3.1093967e+1, -0.0000006411926, -14465.796, -0.27172843, 0.0, 0.0016185924, 0.0000044630087, 0.0000044630087, 0.0, 0.012207031, 0.012034182 
1.8310547e-2, 3.1106e+1, -0.00000049315105, -14458.549, 0.24887282, 0.0, 0.001291062, 0.0000037906575, 0.0000037906575, 0.0, 0.012207031, 0.012034267 
1.8310547e-2, 3.1118035e+1, -0.0000034695443, -14446.027, -1.2217497, 0.0, 0.0014290872, 0.00009985799, 0.00009985799, 0.0, 0.012207031, 0.012034414 
1.8310547e-2, 3.113007e+1, -0.0000020728874, -14438.675, 0.9356181, 0.0, 0.0015734355, 0.000058554644, 0.000058554644, 0.0, 0.012207031, 0.0120345 
1.8310547e-2, 3.1142104e+1, -0.0000006526032, -14426.194, 0.37580237, 0.0, 0.0011394522, 0.0000091370475, 0.0000091370475, 0.0, 0.012207031, 0.012034646 
1.8310547e-2, 3.1154138e+1, -0.00000056177424, -14417.33, -0.2935164, 0.0, 0.0015054187, 0.000005413802, 0.000005413802, 0.0, 0.012207031, 0.01203475 
1.8310547e-2, 3.1166175e+1, -0.0000018488762, -14410.365, -0.95147663, 0.0, 0.001606365, 0.000060974504, 0.000060974504, 0.0, 0.012207031, 0.012034831 
1.8310547e-2, 3.117821e+1, -0.00000067960667, -14394.598, 0.21577176, 0.0, 0.0013100177, 0.0000025547615, 0.0000025547615, 0.0, 0.012207031, 0.012035016 
1.8310547e-2, 3.1190243e+1, -0.000005632708, -14387.661, 2.291025, 0.0, 0.0013874231, 0.0003591795, 0.0003591795, 0.0, 0.012207031, 0.012035097 
1.8310547e-2, 3.120228e+1, -0.0000052348596, -14382.161, -2.4495282, 0.0, 0.001401024, 0.0004119617, 0.0004119617, 0.0, 0.012207031, 0.012035161 
1.8310547e-2, 3.1214315e+1, -0.000000576172, -14366.383, 0.18789226, 0.0, 0.0015332623, 0.0000018811952, 0.0000018811952, 0.0, 0.012207031, 0.012035346 
1.8310547e-2, 3.1226352e+1, -0.0000061099263, -14362.386, 2.6631482, 0.0, 0.0013068422, 0.00048770482, 0.00048770482, 0.0, 0.012207031, 0.012035392 
1.8310547e-2, 3.1238386e+1, -0.000008942019, -14346.651, -3.1748984, 0.0, 0.0014817814, 0.00069365953, 0.00069365953, 0.0, 0.012207031, 0.012035577 
1.8310547e-2, 3.125042e+1, -0.0000017803378, -14337.417, -0.9282314, 0.0, 0.0016231311, 0.000058315116, 0.000058315116, 0.0, 0.012207031, 0.012035685 
1.8310547e-2, 3.1262457e+1, -0.0000067326123, -14333.239, 2.5295322, 0.0, 0.0010163283, 0.00043967957, 0.00043967957, 0.0, 0.012207031, 0.012035733 
1.8310547e-2, 3.1274492e+1, -0.000012339676, -14319.016, 3.6076398, 0.0, 0.00134102, 0.00089659594, 0.00089659594, 0.0, 0.012207031, 0.0120359 
1.8310547e-2, 3.128653e+1, -0.000006009861, -14305.421, -1.5740811, 0.0, 0.0019420168, 0.0001671924, 0.0001671924, 0.0, 0.012207031, 0.012036059 
1.8310547e-2, 3.1298566e+1, -0.00007202681, -14287.25, 8.584754, 0.0, 0.0013554168, 0.005086276, 0.005086276, 0.0, 0.012207031, 0.012036271 
1.8310547e-2, 3.13106e+1, -0.000564174, -14291.346, 24.033157, 0.0, 0.0010248816, 0.03985127, 0.03985127, 0.0, 0.012207031, 0.012036224 
1.8310547e-2, 3.1322637e+1, -0.0005286209, -14288.006, 23.263664, 0.0, 0.001465536, 0.03734907, 0.03734907, 0.0, 0.012207031, 0.012036263 
1.8310547e-2, 3.1334674e+1, -0.000005217828, -14274.781, 2.4789515, 0.0, 0.0017144694, 0.00042527562, 0.00042527562, 0.0, 0.012207031, 0.012036418 
1.8310547e-2, 3.1346712e+1, -0.0000066666958, -14264.7295, -1.577528, 0.0, 0.0013295633, 0.00016779121, 0.00016779121, 0.0, 0.012207031, 0.012036535 
1.8310547e-2, 3.135875e+1, -0.000005440233, -14257.167, 2.4689481, 0.0, 0.0012864047, 0.00042211346, 0.00042211346, 0.0, 0.012207031, 0.012036623 
1.8310547e-2, 3.1370783e+1, -0.000037511778, -14236.799, 6.186705, 0.0, 0.0014834866, 0.0026509655, 0.0026509655, 0.0, 0.012207031, 0.012036862 
1.8310547e-2, 3.138282e+1, -0.0000043648365, -14230.148, -1.3935417, 0.0, 0.0014562507, 0.00013210307, 0.00013210307, 0.0, 0.012207031, 0.01203694 
1.8310547e-2, 3.1394857e+1, -0.0000034212317, -14218.983, 1.8551018, 0.0, 0.0012417214, 0.00023860752, 0.00023860752, 0.0, 0.012207031, 0.0120370705 
1.8310547e-2, 3.1406894e+1, -0.008620792, -14223.945, 93.938644, 0.0, 0.0015981216, 0.61174786, 0.61174786, 0.0, 0.012207031, 0.012037013 
1.8310547e-2, 3.141893e+1, -0.0001952179, -14196.448, 14.133613, 0.0, 0.0016695932, 0.0138758235, 0.0138758235, 0.0, 0.012207031, 0.012037334 
1.8310547e-2, 3.143097e+1, -0.0000049963705, -14192.251, -2.2807124, 0.0, 0.0009420265, 0.00036151693, 0.00036151693, 0.0, 0.012207031, 0.012037383 
1.8310547e-2, 3.1443006e+1, -0.000001207733, -14184.624, 0.6042389, 0.0, 0.0013209215, 0.000024531733, 0.000024531733, 0.0, 0.012207031, 0.012037473 
1.8310547e-2, 3.1455043e+1, -0.0000011271421, -14178.558, -0.6840579, 0.0, 0.0018965319, 0.000031875876, 0.000031875876, 0.0, 0.012207031, 0.012037544 
1.8310547e-2, 3.146708e+1, -0.000001428123, -14157.546, -0.5922611, 0.0, 0.0012792118, 0.00002334829, 0.00002334829, 0.0, 0.012207031, 0.012037789 
1.8310547e-2, 3.147912e+1, -0.0000028961301, -14157.48, 1.7820818, 0.0, 0.0012991949, 0.00022142453, 0.00022142453, 0.0, 0.012207031, 0.01203779 
1.8310547e-2, 3.1491157e+1, -0.0000007041725, -14141.468, 0.27873948, 0.0, 0.0014296114, 0.000004790003, 0.000004790003, 0.0, 0.012207031, 0.0120379785 
1.8310547e-2, 3.1503195e+1, -0.0000022319834, -14137.703, -0.91832817, 0.0, 0.0014604478, 0.000057418903, 0.000057418903, 0.0, 0.012207031, 0.012038022 
1.8310547e-2, 3.1515235e+1, -0.00000062237774, -14119.288, 0.38658184, 0.0, 0.001498331, 0.000009962116, 0.000009962116, 0.0, 0.012207031, 0.012038237 
1.8310547e-2, 3.1527272e+1, -0.00000073067076, -14122.198, -0.5095645, 0.0, 0.001269727, 0.000017655702, 0.000017655702, 0.0, 0.012207031, 0.012038204 
1.8310547e-2, 3.153931e+1, -0.0000010360083, -14097.229, 0.5313025, 0.0, 0.0015023676, 0.000018987954, 0.000018987954, 0.0, 0.012207031, 0.012038496 
1.8310547e-2, 3.155135e+1, -0.00000043690304, -14102.053, -0.10065654, 0.0, 0.0014486653, 0.0000002815559, 0.0000002815559, 0.0, 0.012207031, 0.0120384395 
1.8310547e-2, 3.1563386e+1, -0.000004429754, -14079.584, -1.2920711, 0.0, 0.0012180558, 0.00011414247, 0.00011414247, 0.0, 0.012207031, 0.012038703 
1.8310547e-2, 3.1575426e+1, -0.000006491785, -14081.425, 1.5789765, 0.0, 0.0016426115, 0.00017056182, 0.00017056182, 0.0, 0.012207031, 0.012038681 
1.8310547e-2, 3.1587467e+1, -0.0000011326654, -14061.964, -0.5227554, 0.0, 0.0014652051, 0.000018300836, 0.000018300836, 0.0, 0.012207031, 0.012038909 
1.8310547e-2, 3.1599504e+1, -0.0000010070552, -14059.459, 0.58961266, 0.0, 0.0012752556, 0.000023719576, 0.000023719576, 0.0, 0.012207031, 0.012038939 
1.8310547e-2, 3.161154e+1, -0.000005030458, -14041.019, 2.19095, 0.0, 0.0013840635, 0.0003368437, 0.0003368437, 0.0, 0.012207031, 0.012039155 
1.8310547e-2, 3.162358e+1, -0.000007780691, -14044.642, -2.9880044, 0.0, 0.001473421, 0.0006279187, 0.0006279187, 0.0, 0.012207031, 0.012039112 
1.8310547e-2, 3.163562e+1, -0.0000023979474, -14018.472, -1.0024185, 0.0, 0.0016202803, 0.000069281974, 0.000069281974, 0.0, 0.012207031, 0.012039418 
1.8310547e-2, 3.164766e+1, -0.0000032320575, -14025.791, 1.8442502, 0.0, 0.0012808426, 0.00023926827, 0.00023926827, 0.0, 0.012207031, 0.012039333 
1.8310547e-2, 3.16597e+1, -0.000005161798, -13999.215, 1.7645086, 0.0, 0.0010966036, 0.00021724285, 0.00021724285, 0.0, 0.012207031, 0.012039644 
1.8310547e-2, 3.167174e+1, -0.0000046012387, -14001.646, 1.4003279, 0.0, 0.0017552382, 0.00013544787, 0.00013544787, 0.0, 0.012207031, 0.012039616 
1.8310547e-2, 3.168378e+1, -0.0000045717006, -13971.619, 1.4954629, 0.0, 0.0016660251, 0.00015549631, 0.00015549631, 0.0, 0.012207031, 0.012039967 
1.8310547e-2, 3.169582e+1, -0.00012943351, -13986.284, 11.512006, 0.0, 0.0010461395, 0.009346006, 0.009346006, 0.0, 0.012207031, 0.0120397955 
1.8310547e-2, 3.170786e+1, -0.00027154738, -13965.014, 16.668262, 0.0, 0.0014403235, 0.019623214, 0.019623214, 0.0, 0.012207031, 0.012040044 
1.8310547e-2, 3.17199e+1, -0.000032973978, -13970.474, 5.780066, 0.0, 0.0015874406, 0.002358438, 0.002358438, 0.0, 0.012207031, 0.012039981 
1.8310547e-2, 3.173194e+1, -0.000016829876, -13942.87, -4.1591034, 0.0, 0.0012798029, 0.0012238141, 0.0012238141, 0.0, 0.012207031, 0.012040304 
1.8310547e-2, 3.174398e+1, -0.00028642974, -13947.655, 17.118279, 0.0, 0.0014786043, 0.020723196, 0.020723196, 0.0, 0.012207031, 0.012040248 
1.8310547e-2, 3.175602e+1, -0.00003327753, -13919.37, 5.796519, 0.0, 0.0015190523, 0.0023805979, 0.0023805979, 0.0, 0.012207031, 0.01204058 
1.8310547e-2, 3.176806e+1, -0.0000017111175, -13926.416, 1.7616255, 0.0, 0.0013423333, 0.00022112613, 0.00022112613, 0.0, 0.012207031, 0.012040497 
1.8310547e-2, 3.1780103e+1, -0.000006131656, -13902.87, -1.5079734, 0.0, 0.0013656996, 0.00015743054, 0.00015743054, 0.0, 0.012207031, 0.0120407725 
1.8310547e-2, 3.179214e+1, -0.0000005775636, -13908.944, 0.3265627, 0.0, 0.0014655769, 0.000007089675, 0.000007089675, 0.0, 0.012207031, 0.012040702 
1.8310547e-2, 3.1804183e+1, -0.000004578532, -13881.732, 1.2958908, 0.0, 0.0015071608, 0.000116395764, 0.000116395764, 0.0, 0.012207031, 0.01204102 
1.8310547e-2, 3.1816223e+1, -0.00000061947867, -13887.994, -0.26173082, 0.0, 0.0013870227, 0.0000043130567, 0.0000043130567, 0.0, 0.012207031, 0.012040947 
1.8310547e-2, 3.1828263e+1, -0.00000068189297, -13859.867, 0.3516157, 0.0, 0.0013028942, 0.000008238365, 0.000008238365, 0.0, 0.012207031, 0.012041276 
1.8310547e-2, 3.1840307e+1, -0.0000022689705, -13869.562, -1.8547797, 0.0, 0.0014305211, 0.00024577117, 0.00024577117, 0.0, 0.012207031, 0.012041163 
1.8310547e-2, 3.1852347e+1, -0.0000014963995, -13846.363, -0.77737933, 0.0, 0.0016817751, 0.00004214818, 0.00004214818, 0.0, 0.012207031, 0.012041435 
1.8310547e-2, 3.186439e+1, -0.000008952139, -13845.69, 3.2349086, 0.0, 0.0012680871, 0.0007468522, 0.0007468522, 0.0, 0.012207031, 0.012041442 
1.8310547e-2, 3.187643e+1, -0.0000016326047, -13823.696, -0.8030657, 0.0, 0.001276794, 0.000045020228, 0.000045020228, 0.0, 0.012207031, 0.0120417 
1.8310547e-2, 3.1888473e+1, -0.0000030150943, -13829.41, -1.0581843, 0.0, 0.0016245522, 0.00007795394, 0.00007795394, 0.0, 0.012207031, 0.012041633 
1.8310547e-2, 3.1900513e+1, -0.0000007977813, -13806.114, 0.34878334, 0.0, 0.0012887475, 0.000008013521, 0.000008013521, 0.0, 0.012207031, 0.012041906 
1.8310547e-2, 3.1912556e+1, -0.0000007756117, -13802.571, -0.07062129, 0.0, 0.0014945572, -0.00000041427666, -0.00000041427666, 0.0, 0.012207031, 0.012041948 
1.8310547e-2, 3.1924596e+1, -0.0000005241117, -13791.208, -0.091921926, 0.0, 0.0014032306, 0.00000008857205, 0.00000008857205, 0.0, 0.012207031, 0.012042081 
1.8310547e-2, 3.193664e+1, -0.0000025780773, -13790.169, -1.0155487, 0.0, 0.0012298567, 0.00007220992, 0.00007220992, 0.0, 0.012207031, 0.012042093 
1.8310547e-2, 3.1948683e+1, -0.00003072366, -13764.241, 5.6209135, 0.0, 0.001848592, 0.0022646927, 0.0022646927, 0.0, 0.012207031, 0.012042397 
1.8310547e-2, 3.1960723e+1, -0.00000083375227, -13763.47, 0.52455336, 0.0, 0.001267798, 0.000019158026, 0.000019158026, 0.0, 0.012207031, 0.012042406 
1.8310547e-2, 3.1972766e+1, -0.0000025395045, -13733.6455, 0.99499923, 0.0, 0.0011307945, 0.00006954794, 0.00006954794, 0.0, 0.012207031, 0.012042755 
1.8310547e-2, 3.198481e+1, -0.0005894088, -13748.793, 24.553867, 0.0, 0.0016473893, 0.043261025, 0.043261025, 0.0, 0.012207031, 0.012042578 
1.8310547e-2, 3.1996852e+1, -0.0005649957, -13737.944, 24.039955, 0.0, 0.00141951, 0.04150226, 0.04150226, 0.0, 0.012207031, 0.012042705 
1.8310547e-2, 3.2008895e+1, -0.000028816545, -13728.738, 5.448948, 0.0, 0.0013726609, 0.0021338752, 0.0021338752, 0.0, 0.012207031, 0.012042813 
1.8310547e-2, 3.2020938e+1, -0.0000070503493, -13717.67, -2.8352761, 0.0, 0.0014496773, 0.00057896686, 0.00057896686, 0.0, 0.012207031, 0.012042943 
1.8310547e-2, 3.2032982e+1, -0.00031522228, -13702.553, 17.955128, 0.0, 0.0013965485, 0.023212222, 0.023212222, 0.0, 0.012207031, 0.01204312 
1.8310547e-2, 3.2045025e+1, -0.00020861033, -13693.644, 14.606032, 0.0, 0.0014399415, 0.015370584, 0.015370584, 0.0, 0.012207031, 0.012043225 
1.8310547e-2, 3.2057068e+1, -0.00001908014, -13689.477, 4.4570866, 0.0, 0.0013263066, 0.0014320797, 0.0014320797, 0.0, 0.012207031, 0.012043273 
1.8310547e-2, 3.206911e+1, -0.0000445041, -13674.269, -6.762872, 0.0, 0.0015673771, 0.0033002035, 0.0033002035, 0.0, 0.012207031, 0.012043452 
1.8310547e-2, 3.2081154e+1, -0.0000036433378, -13666.633, 1.9067868, 0.0, 0.0014851772, 0.00026239408, 0.00026239408, 0.0, 0.012207031, 0.012043541 
1.8310547e-2, 3.2093197e+1, -0.000017346256, -13658.71, 4.285804, 0.0, 0.001121998, 0.0013274449, 0.0013274449, 0.0, 0.012207031, 0.012043634 
1.8310547e-2, 3.210524e+1, -0.0000030566935, -13640.206, -1.102076, 0.0, 0.0015181471, 0.00008598681, 0.00008598681, 0.0, 0.012207031, 0.012043851 
1.8310547e-2, 3.2117286e+1, -0.000001746043, -13639.838, -1.7625977, 0.0, 0.0015733663, 0.0002260243, 0.0002260243, 0.0, 0.012207031, 0.012043855 
1.8310547e-2, 3.212933e+1, -0.0000006754189, -13622.732, -0.22431979, 0.0, 0.001281102, 0.00000301836, 0.00000301836, 0.0, 0.012207031, 0.012044056 
1.8310547e-2, 3.2141373e+1, -0.00000673873, -13619.04, 2.7141318, 0.0, 0.0014898459, 0.00053415925, 0.00053415925, 0.0, 0.012207031, 0.012044099 
1.8310547e-2, 3.215342e+1, -0.000000757238, -13605.533, -0.15307981, 0.0, 0.001376568, 0.0000009651067, 0.0000009651067, 0.0, 0.012207031, 0.0120442575 
1.8310547e-2, 3.2165462e+1, -0.0000021287233, -13598.016, -0.85165095, 0.0, 0.001445503, 0.00005121063, 0.00005121063, 0.0, 0.012207031, 0.012044346 
1.8310547e-2, 3.2177505e+1, -0.0000019981821, -13582.96, 0.82090175, 0.0, 0.0013878276, 0.000047613958, 0.000047613958, 0.0, 0.012207031, 0.012044522 
1.8310547e-2, 3.218955e+1, -0.0000047220924, -13587.411, -2.2911744, 0.0, 0.0014167457, 0.00038162668, 0.00038162668, 0.0, 0.012207031, 0.01204447 
1.8310547e-2, 3.2201594e+1, -0.000004056795, -13558.8125, 1.5113741, 0.0, 0.0016905434, 0.0001644131, 0.0001644131, 0.0, 0.012207031, 0.012044806 
1.8310547e-2, 3.2213643e+1, -0.000008184725, -13563.303, 3.1296618, 0.0, 0.000992634, 0.00071396853, 0.00071396853, 0.0, 0.012207031, 0.012044753 
1.8310547e-2, 3.2225686e+1, -0.0000033893955, -13539.333, -1.9319317, 0.0, 0.0013447851, 0.00027227856, 0.00027227856, 0.0, 0.012207031, 0.012045034 
1.8310547e-2, 3.2237732e+1, -0.000001662298, -13544.257, -0.74516594, 0.0, 0.0019278084, 0.000039334584, 0.000039334584, 0.0, 0.012207031, 0.012044976 
1.8310547e-2, 3.2249776e+1, -0.0000004811365, -13526.34, 0.111856714, 0.0, 0.0011873005, 0.00000044386616, 0.00000044386616, 0.0, 0.012207031, 0.012045186 
1.8310547e-2, 3.2261822e+1, -0.0000018197863, -13525.276, 0.8558491, 0.0, 0.0013650312, 0.00005233642, 0.00005233642, 0.0, 0.012207031, 0.012045199 
1.8310547e-2, 3.2273865e+1, -0.0000010456135, -13501.967, 0.67793787, 0.0, 0.0014991555, 0.00003299385, 0.00003299385, 0.0, 0.012207031, 0.012045472 
1.8310547e-2, 3.228591e+1, -0.00000066763135, -13503.219, -0.36155102, 0.0, 0.0013324968, 0.0000090129615, 0.0000090129615, 0.0, 0.012207031, 0.012045458 
1.8310547e-2, 3.2297957e+1, -0.0000032084847, -13484.106, 1.324185, 0.0, 0.0016174868, 0.00012683097, 0.00012683097, 0.0, 0.012207031, 0.0120456815 
1.8310547e-2, 3.231e+1, -0.00000786733, -13491.382, -2.983847, 0.0, 0.0011994697, 0.0006520607, 0.0006520607, 0.0, 0.012207031, 0.012045597 
1.8310547e-2, 3.232205e+1, -0.00000050406453, -13456.764, 0.38642997, 0.0, 0.0014256205, 0.000010592819, 0.000010592819, 0.0, 0.012207031, 0.012046003 
1.8310547e-2, 3.2334095e+1, -0.000013218222, -13467.501, 3.5648115, 0.0, 0.0015919823, 0.0009303778, 0.0009303778, 0.0, 0.012207031, 0.012045877 
1.8310547e-2, 3.234614e+1, -0.0000064235132, -13442.208, -2.6611612, 0.0, 0.001317329, 0.000520408, 0.000520408, 0.0, 0.012207031, 0.012046173 
1.8310547e-2, 3.2358184e+1, -0.000002710385, -13453.132, -1.8696033, 0.0, 0.001457932, 0.0002571114, 0.0002571114, 0.0, 0.012207031, 0.012046046 
1.8310547e-2, 3.237023e+1, -0.00000075651155, -13424.785, 0.017396206, 0.0, 0.0014567722, -0.0000007339713, -0.0000007339713, 0.0, 0.012207031, 0.012046378 
1.8310547e-2, 3.238228e+1, -0.00004074778, -13422.96, 6.47137, 0.0, 0.0013863576, 0.0030791769, 0.0030791769, 0.0, 0.012207031, 0.0120463995 
1.8310547e-2, 3.2394326e+1, -0.0011584942, -13401.549, 34.41391, 0.0, 0.0013406337, 0.08721259, 0.08721259, 0.0, 0.012207031, 0.01204665 
1.8310547e-2, 3.2406372e+1, -0.0000018307805, -13404.025, 1.8901614, 0.0, 0.0015209244, 0.0002647093, 0.0002647093, 0.0, 0.012207031, 0.012046621 
1.8310547e-2, 3.2418418e+1, -0.0005245149, -13373.984, 23.154726, 0.0, 0.0015967726, 0.039563745, 0.039563745, 0.0, 0.012207031, 0.012046974 
1.8310547e-2, 3.2430467e+1, -0.00043350997, -13387.722, 21.0504, 0.0, 0.0011909173, 0.032665342, 0.032665342, 0.0, 0.012207031, 0.012046813 
1.8310547e-2, 3.2442513e+1, -0.00015813985, -13359.167, 12.714972, 0.0, 0.001287906, 0.01194369, 0.01194369, 0.0, 0.012207031, 0.012047147 
1.8310547e-2, 3.245456e+1, -0.000794018, -13384.549, 28.490683, 0.0, 0.001652773, 0.059851684, 0.059851684, 0.0, 0.012207031, 0.01204685 
1.8310547e-2, 3.2466605e+1, -0.0002110785, -13350.196, 14.688476, 0.0, 0.0016933958, 0.015949812, 0.015949812, 0.0, 0.012207031, 0.012047253 
1.8310547e-2, 3.2478654e+1, -0.000016269005, -13351.969, -4.056731, 0.0, 0.001031722, 0.0012162884, 0.0012162884, 0.0, 0.012207031, 0.012047232 
1.8310547e-2, 3.24907e+1, -0.000005634988, -13330.126, 2.5228956, 0.0, 0.0012754189, 0.00047185508, 0.00047185508, 0.0, 0.012207031, 0.012047488 
1.8310547e-2, 3.250275e+1, -0.000014734559, -13332.317, 3.748373, 0.0, 0.0018126771, 0.0010391182, 0.0010391182, 0.0, 0.012207031, 0.012047463 
1.8310547e-2, 3.25148e+1, -0.0000033323886, -13303.638, -1.1817961, 0.0, 0.0013503674, 0.00010164958, 0.00010164958, 0.0, 0.012207031, 0.012047799 
1.8310547e-2, 3.2526845e+1, -0.00000038841517, -13312.703, -0.09230864, 0.0, 0.0013137516, 0.0000002516408, 0.0000002516408, 0.0, 0.012207031, 0.012047693 
1.8310547e-2, 3.253889e+1, -0.0000005238474, -13287.148, 0.2833876, 0.0, 0.001520304, 0.000005520229, 0.000005520229, 0.0, 0.012207031, 0.012047993 
1.8310547e-2, 3.2550943e+1, -0.0000014845151, -13291.442, 0.8146767, 0.0, 0.0013599567, 0.00004844973, 0.00004844973, 0.0, 0.012207031, 0.012047943 
1.8310547e-2, 3.256299e+1, -0.0000037568452, -13264.648, 1.1476539, 0.0, 0.0014520366, 0.00009553788, 0.00009553788, 0.0, 0.012207031, 0.012048257 
1.8310547e-2, 3.2575035e+1, -0.000004930162, -13272.225, -2.1738424, 0.0, 0.0013972715, 0.00035112098, 0.00035112098, 0.0, 0.012207031, 0.012048168 
1.8310547e-2, 3.2587087e+1, -0.00000482727, -13248.3955, -1.4597741, 0.0, 0.0015032571, 0.0001560179, 0.0001560179, 0.0, 0.012207031, 0.0120484475 
1.8310547e-2, 3.2599133e+1, -0.0000059985923, -13249.796, 2.6720273, 0.0, 0.0014314782, 0.0005328572, 0.0005328572, 0.0, 0.012207031, 0.012048432 
1.8310547e-2, 3.2611182e+1, -0.0000076111883, -13230.825, 3.009143, 0.0, 0.0011846977, 0.00067677104, 0.00067677104, 0.0, 0.012207031, 0.012048654 
1.8310547e-2, 3.262323e+1, -0.0000015514818, -13230.62, 0.75401366, 0.0, 0.0015574897, 0.000041419793, 0.000041419793, 0.0, 0.012207031, 0.012048656 
1.8310547e-2, 3.263528e+1, -0.000004672569, -13209.067, -2.2162135, 0.0, 0.0017225869, 0.0003671631, 0.0003671631, 0.0, 0.012207031, 0.012048909 
1.8310547e-2, 3.2647327e+1, -0.00000058260986, -13212.405, -0.22902486, 0.0, 0.0011799213, 0.0000033873257, 0.0000033873257, 0.0, 0.012207031, 0.01204887 
1.8310547e-2, 3.265938e+1, -0.0000060351795, -13191.9375, 2.563392, 0.0, 0.0011642509, 0.00049207045, 0.00049207045, 0.0, 0.012207031, 0.012049111 
1.8310547e-2, 3.2671425e+1, -0.0000042546944, -13190.68, -1.2403113, 0.0, 0.0016209758, 0.00011237098, 0.00011237098, 0.0, 0.012207031, 0.0120491255 
1.8310547e-2, 3.2683477e+1, -0.0000031993754, -13172.227, -1.1274754, 0.0, 0.0017389467, 0.000093306764, 0.000093306764, 0.0, 0.012207031, 0.012049342 
1.8310547e-2, 3.2695526e+1, -0.000005018058, -13171.371, 1.3434067, 0.0, 0.0012011612, 0.00013200197, 0.00013200197, 0.0, 0.012207031, 0.012049352 
1.8310547e-2, 3.2707572e+1, -0.00000048103976, -13152.647, 0.24310832, 0.0, 0.0010920293, 0.0000040124796, 0.0000040124796, 0.0, 0.012207031, 0.012049572 
1.8310547e-2, 3.2719624e+1, -0.0000013966434, -13150.995, 0.669909, 0.0, 0.0016794642, 0.000032728385, 0.000032728385, 0.0, 0.012207031, 0.012049591 
1.8310547e-2, 3.2731673e+1, -0.0000015769522, -13131.924, -0.8097376, 0.0, 0.0016477546, 0.000048352897, 0.000048352897, 0.0, 0.012207031, 0.012049816 
1.8310547e-2, 3.2743725e+1, -0.0000009679895, -13129.743, -0.44242877, 0.0, 0.0011695136, 0.000013940391, 0.000013940391, 0.0, 0.012207031, 0.012049841 
1.8310547e-2, 3.275577e+1, -0.000020994965, -13117.761, 4.5564175, 0.0, 0.0014013541, 0.0015616636, 0.0015616636, 0.0, 0.012207031, 0.012049981 
1.8310547e-2, 3.2767823e+1, -0.000004267395, -13111.7295, 2.2873254, 0.0, 0.0015733865, 0.0003947537, 0.0003947537, 0.0, 0.012207031, 0.012050052 
1.8310547e-2, 3.2779872e+1, -0.000003825037, -13094.462, -2.1519382, 0.0, 0.0012212135, 0.0003498236, 0.0003498236, 0.0, 0.012207031, 0.012050255 
1.8310547e-2, 3.2791924e+1, -0.0000009475596, -13090.76, 1.6488358, 0.0, 0.0014006286, 0.00020673018, 0.00020673018, 0.0, 0.012207031, 0.012050299 
1.8310547e-2, 3.2803974e+1, -0.000021545584, -13077.166, 4.6655316, 0.0, 0.0017673122, 0.0016429728, 0.0016429728, 0.0, 0.012207031, 0.012050458 
1.8310547e-2, 3.2816026e+1, -0.0000014382481, -13070.58, 0.80495024, 0.0, 0.0013305986, 0.000048134527, 0.000048134527, 0.0, 0.012207031, 0.0120505355 
1.8310547e-2, 3.2828075e+1, -0.00000051807785, -13058.115, -0.20670867, 0.0, 0.0010028338, 0.0000027540991, 0.0000027540991, 0.0, 0.012207031, 0.012050682 
1.8310547e-2, 3.2840127e+1, -0.0000018491751, -13054.362, 0.88702375, 0.0, 0.0016001663, 0.000058422716, 0.000058422716, 0.0, 0.012207031, 0.012050726 
1.8310547e-2, 3.2852176e+1, -0.0000012162583, -13034.955, -0.68872374, 0.0, 0.0017725785, 0.000035173616, 0.000035173616, 0.0, 0.012207031, 0.012050954 
1.8310547e-2, 3.2864228e+1, -0.0000012597551, -13031.646, -0.62767243, 0.0, 0.0011907872, 0.00002897224, 0.00002897224, 0.0, 0.012207031, 0.012050993 
1.8310547e-2, 3.2876277e+1, -0.00000066336105, -13020.866, 0.392974, 0.0, 0.0012809992, 0.00001119672, 0.00001119672, 0.0, 0.012207031, 0.0120511195 
1.8310547e-2, 3.288833e+1, -0.0000004957805, -13012.481, 0.13439341, 0.0, 0.0015587684, 0.0000008922416, 0.0000008922416, 0.0, 0.012207031, 0.012051218 
1.8310547e-2, 3.2900384e+1, -0.0000015856518, -12999.592, 0.7870912, 0.0, 0.0014116545, 0.000046070658, 0.000046070658, 0.0, 0.012207031, 0.012051369 
1.8310547e-2, 3.2912433e+1, -0.00000077823483, -12990.815, 0.40488943, 0.0, 0.0015009479, 0.000011841099, 0.000011841099, 0.0, 0.012207031, 0.012051472 
1.8310547e-2, 3.2924485e+1, -0.0000013572067, -12979.468, -0.66690797, 0.0, 0.0012358889, 0.000032909695, 0.000032909695, 0.0, 0.012207031, 0.012051606 
1.8310547e-2, 3.2936534e+1, -0.000001250664, -12972.198, -0.54271454, 0.0, 0.0013391712, 0.000021454744, 0.000021454744, 0.0, 0.012207031, 0.012051691 
1.8310547e-2, 3.294859e+1, -0.0000020308682, -12961.01, 0.9061273, 0.0, 0.0018361807, 0.000061318104, 0.000061318104, 0.0, 0.012207031, 0.012051823 
1.8310547e-2, 3.296064e+1, -0.0000138555, -12956.772, 3.6574745, 0.0, 0.0012988461, 0.0010185867, 0.0010185867, 0.0, 0.012207031, 0.012051872 
1.8310547e-2, 3.297269e+1, -0.0000012879633, -12936.695, -1.6687963, 0.0, 0.0011331609, 0.00021398193, 0.00021398193, 0.0, 0.012207031, 0.0120521085 
1.8310547e-2, 3.2984746e+1, -0.0000021838562, -12930.921, 0.93671864, 0.0, 0.0016273985, 0.00006567223, 0.00006567223, 0.0, 0.012207031, 0.0120521765 
1.8310547e-2, 3.2996795e+1, -0.00002210674, -12923.844, 4.787706, 0.0, 0.0014276817, 0.0017515238, 0.0017515238, 0.0, 0.012207031, 0.012052259 
1.8310547e-2, 3.300885e+1, -0.000005097606, -12915.64, 2.3886797, 0.0, 0.0013976806, 0.00043667614, 0.00043667614, 0.0, 0.012207031, 0.012052355 
1.8310547e-2, 3.3020902e+1, -0.0000027919561, -12901.332, -1.5729649, 0.0, 0.0014364545, 0.00018898814, 0.00018898814, 0.0, 0.012207031, 0.012052524 
1.8310547e-2, 3.3032954e+1, -0.0000007838362, -12895.684, 0.46135706, 0.0, 0.001416921, 0.000015721713, 0.000015721713, 0.0, 0.012207031, 0.01205259 
1.8310547e-2, 3.3045006e+1, -0.0000051845477, -12880.228, 1.5256039, 0.0, 0.0014400848, 0.00017551625, 0.00017551625, 0.0, 0.012207031, 0.012052772 
1.8310547e-2, 3.305706e+1, -0.0000009059212, -12877.157, -1.741881, 0.0, 0.0014279956, 0.00023471669, 0.00023471669, 0.0, 0.012207031, 0.012052808 
1.8310547e-2, 3.306911e+1, -0.0000011380254, -12859.8955, 0.6764116, 0.0, 0.0014283999, 0.000034440232, 0.000034440232, 0.0, 0.012207031, 0.012053011 
1.8310547e-2, 3.3081165e+1, -0.0000016042923, -12861.273, 0.76849216, 0.0, 0.0013262636, 0.000044314973, 0.000044314973, 0.0, 0.012207031, 0.012052994 
1.8310547e-2, 3.3093217e+1, -0.00000060338874, -12838.01, -0.35694137, 0.0, 0.0016022916, 0.0000093208255, 0.0000093208255, 0.0, 0.012207031, 0.012053268 
1.8310547e-2, 3.310527e+1, -0.0000020708164, -12836.807, 0.85380626, 0.0, 0.0014867578, 0.00005471785, 0.00005471785, 0.0, 0.012207031, 0.012053282 
1.8310547e-2, 3.3117324e+1, -0.000004293493, -12821.776, -2.415561, 0.0, 0.0011645864, 0.00045078658, 0.00045078658, 0.0, 0.012207031, 0.012053459 
1.8310547e-2, 3.312938e+1, -0.0000030875553, -12819.716, 1.8799709, 0.0, 0.0015368728, 0.00027260423, 0.00027260423, 0.0, 0.012207031, 0.012053483 
1.8310547e-2, 3.314143e+1, -0.0000007875305, -12808.427, -0.5070113, 0.0, 0.0014977513, 0.000019282104, 0.000019282104, 0.0, 0.012207031, 0.012053615 
1.8310547e-2, 3.3153483e+1, -0.00031783103, -12796.063, 18.01534, 0.0, 0.0014035713, 0.025045583, 0.025045583, 0.0, 0.012207031, 0.012053761 
1.8310547e-2, 3.3165538e+1, -0.0000015611629, -12777.089, 0.79102457, 0.0, 0.0014106953, 0.00004741086, 0.00004741086, 0.0, 0.012207031, 0.012053984 
1.8310547e-2, 3.3177593e+1, -0.0000009202063, -12778.857, 0.19767699, 0.0, 0.0014141973, 0.000002137671, 0.000002137671, 0.0, 0.012207031, 0.012053963 
1.8310547e-2, 3.3189648e+1, -0.000004395999, -12755.007, 1.9394349, 0.0, 0.0014810063, 0.00029050055, 0.00029050055, 0.0, 0.012207031, 0.012054243 
1.8310547e-2, 3.3201703e+1, -0.00023289713, -12762.269, 15.421364, 0.0, 0.0014129324, 0.018401572, 0.018401572, 0.0, 0.012207031, 0.012054158 
1.8310547e-2, 3.3213755e+1, -0.000077765064, -12744.56, 8.914986, 0.0, 0.0014341351, 0.0061583803, 0.0061583803, 0.0, 0.012207031, 0.012054366 
1.8310547e-2, 3.322581e+1, -0.000012609865, -12745.825, -3.536104, 0.0, 0.0013734492, 0.00096841966, 0.00096841966, 0.0, 0.012207031, 0.012054351 
1.8310547e-2, 3.3237866e+1, -0.00000073077746, -12723.728, -0.4152745, 0.0, 0.0015048481, 0.000012822869, 0.000012822869, 0.0, 0.012207031, 0.012054611 
1.8310547e-2, 3.324992e+1, -0.000004379873, -12724.363, 1.3514221, 0.0, 0.0015036599, 0.0001391512, 0.0001391512, 0.0, 0.012207031, 0.012054604 
1.8310547e-2, 3.3261976e+1, -0.0000009532751, -12700.72, 0.5680465, 0.0, 0.0012801065, 0.00002445291, 0.00002445291, 0.0, 0.012207031, 0.012054882 
1.8310547e-2, 3.3274028e+1, -0.000008100251, -12701.307, 3.1150875, 0.0, 0.0014164766, 0.00075589755, 0.00075589755, 0.0, 0.012207031, 0.012054875 
1.8310547e-2, 3.3286083e+1, -0.000006704119, -12677.084, -2.9204004, 0.0, 0.0015549001, 0.000666064, 0.000666064, 0.0, 0.012207031, 0.01205516 
1.8310547e-2, 3.3298138e+1, -0.000004401567, -12680.408, 2.347452, 0.0, 0.0014163342, 0.00043016888, 0.00043016888, 0.0, 0.012207031, 0.01205512 
1.8310547e-2, 3.3310196e+1, -0.00031720105, -12664.705, 17.99532, 0.0, 0.0013708479, 0.025252353, 0.025252353, 0.0, 0.012207031, 0.012055305 
1.8310547e-2, 3.332225e+1, -0.00006580719, -12670.674, 8.193837, 0.0, 0.001422909, 0.005232959, 0.005232959, 0.0, 0.012207031, 0.012055235 
1.8310547e-2, 3.3334306e+1, -0.000021641064, -12641.533, -4.739432, 0.0, 0.001473236, 0.0017552171, 0.0017552171, 0.0, 0.012207031, 0.012055578 
1.8310547e-2, 3.3346358e+1, -0.0000023761452, -12647.624, 1.7706369, 0.0, 0.0014347407, 0.00024550877, 0.00024550877, 0.0, 0.012207031, 0.012055506 
1.8310547e-2, 3.335842e+1, -0.0000150716405, -12624.993, 3.9894118, 0.0, 0.0013833535, 0.0012455552, 0.0012455552, 0.0, 0.012207031, 0.012055772 
1.8310547e-2, 3.337047e+1, -0.00000091473487, -12624.549, 0.5354777, 0.0, 0.001470752, 0.00002179787, 0.00002179787, 0.0, 0.012207031, 0.012055777 
1.8310547e-2, 3.3382526e+1, -0.0000006182062, -12599.422, 0.42231098, 0.0, 0.0014045205, 0.000013536932, 0.000013536932, 0.0, 0.012207031, 0.012056073 
1.8310547e-2, 3.3394584e+1, -0.0000029924793, -12609.75, -1.1883496, 0.0, 0.0013926092, 0.00010899823, 0.00010899823, 0.0, 0.012207031, 0.012055951 
1.8310547e-2, 3.340664e+1, -0.0000030764052, -12587.099, -1.1149286, 0.0, 0.0015084049, 0.000095680734, 0.000095680734, 0.0, 0.012207031, 0.0120562175 
1.8310547e-2, 3.3418697e+1, -0.000001106939, -12588.233, -0.46509796, 0.0, 0.0013106852, 0.000016077052, 0.000016077052, 0.0, 0.012207031, 0.0120562045 
1.8310547e-2, 3.3430752e+1, -0.000011611414, -12558.563, 3.288234, 0.0, 0.0015309955, 0.0008493534, 0.0008493534, 0.0, 0.012207031, 0.012056554 
1.8310547e-2, 3.344281e+1, -0.000014692361, -12569.121, 3.8768117, 0.0, 0.0013953581, 0.001181069, 0.001181069, 0.0, 0.012207031, 0.012056429 
1.8310547e-2, 3.3454865e+1, -0.000024624554, -12539.994, -5.0276155, 0.0, 0.0013372455, 0.0019910792, 0.0019910792, 0.0, 0.012207031, 0.012056772 
1.8310547e-2, 3.3466923e+1, -0.0000035196877, -12543.023, 2.0780976, 0.0, 0.0016804226, 0.00034077442, 0.00034077442, 0.0, 0.012207031, 0.012056736 
1.8310547e-2, 3.3478978e+1, -0.0003045192, -12531.204, 17.633226, 0.0, 0.0012765964, 0.02450795, 0.02450795, 0.0, 0.012207031, 0.012056875 
1.8310547e-2, 3.3491036e+1, -0.00011442767, -12528.143, 10.805427, 0.0, 0.0010655547, 0.0092051625, 0.0092051625, 0.0, 0.012207031, 0.012056911 
1.8310547e-2, 3.3503094e+1, -0.000027886703, -12503.619, -5.324553, 0.0, 0.0017875639, 0.0022395256, 0.0022395256, 0.0, 0.012207031, 0.0120572 
1.8310547e-2, 3.3515152e+1, -0.000003713444, -12505.069, 2.1510973, 0.0, 0.0017208605, 0.00036631408, 0.00036631408, 0.0, 0.012207031, 0.012057182 
1.8310547e-2, 3.3527207e+1, -0.0003738599, -12494.397, 19.536938, 0.0, 0.0010021887, 0.030175116, 0.030175116, 0.0, 0.012207031, 0.012057308 
1.8310547e-2, 3.3539265e+1, -0.00010903403, -12489.356, 10.54825, 0.0, 0.0012922002, 0.008799791, 0.008799791, 0.0, 0.012207031, 0.012057368 
1.8310547e-2, 3.3551323e+1, -0.00002453985, -12464.929, -5.003695, 0.0, 0.0017421492, 0.0019840521, 0.0019840521, 0.0, 0.012207031, 0.012057655 
1.8310547e-2, 3.356338e+1, -0.00000419025, -12471.645, -1.1790679, 0.0, 0.0013358291, 0.00010727869, 0.00010727869, 0.0, 0.012207031, 0.012057576 
1.8310547e-2, 3.357544e+1, -0.0000074673085, -12452.857, 2.9546783, 0.0, 0.00132153, 0.0006935866, 0.0006935866, 0.0, 0.012207031, 0.012057797 
1.8310547e-2, 3.3587494e+1, -0.0000036385902, -12446.483, -1.1921769, 0.0, 0.001645571, 0.00011055318, 0.00011055318, 0.0, 0.012207031, 0.012057872 
1.8310547e-2, 3.3599553e+1, -0.00000053813403, -12428.3955, 0.36928642, 0.0, 0.0013776858, 0.000010434518, 0.000010434518, 0.0, 0.012207031, 0.012058085 
1.8310547e-2, 3.361161e+1, -0.000005651644, -12428.896, 2.4074848, 0.0, 0.0010272217, 0.0004606796, 0.0004606796, 0.0, 0.012207031, 0.012058079 
1.8310547e-2, 3.362367e+1, -0.0000056082395, -12411.55, -2.6066244, 0.0, 0.0016680498, 0.00054182456, 0.00054182456, 0.0, 0.012207031, 0.012058283 
1.8310547e-2, 3.3635727e+1, -0.00000060219685, -12407.382, 0.23710467, 0.0, 0.0018221366, 0.000003928866, 0.000003928866, 0.0, 0.012207031, 0.012058332 
1.8310547e-2, 3.3647785e+1, -0.000043174063, -12392.213, 6.629895, 0.0, 0.0010802344, 0.0035038514, 0.0035038514, 0.0, 0.012207031, 0.01205851 
1.8310547e-2, 3.3659843e+1, -0.0000046151854, -12387.005, 2.185955, 0.0, 0.0011742641, 0.00038114388, 0.00038114388, 0.0, 0.012207031, 0.012058572 
1.8310547e-2, 3.36719e+1, -0.0000057356115, -12373.357, -2.5932095, 0.0, 0.0016959381, 0.00053774944, 0.00053774944, 0.0, 0.012207031, 0.012058732 
1.8310547e-2, 3.3683965e+1, -0.0000007635046, -12369.783, -0.44262818, 0.0, 0.001543368, 0.000015075066, 0.000015075066, 0.0, 0.012207031, 0.012058775 
1.8310547e-2, 3.3696023e+1, -0.000004923408, -12354.908, 2.2838962, 0.0, 0.0012452598, 0.0004172717, 0.0004172717, 0.0, 0.012207031, 0.012058949 
1.8310547e-2, 3.370808e+1, -0.0000042498145, -12347.749, 1.8884404, 0.0, 0.0014532614, 0.0002845645, 0.0002845645, 0.0, 0.012207031, 0.012059034 
1.8310547e-2, 3.372014e+1, -0.0000028288234, -12334.637, -0.96256334, 0.0, 0.0015548273, 0.00007228715, 0.00007228715, 0.0, 0.012207031, 0.012059188 
1.8310547e-2, 3.3732197e+1, -0.0000041525236, -12329.498, -2.0381637, 0.0, 0.0011602986, 0.00033277203, 0.00033277203, 0.0, 0.012207031, 0.012059249 
1.8310547e-2, 3.3744258e+1, -0.0000056332287, -12313.385, 2.490113, 0.0, 0.001465659, 0.0004979378, 0.0004979378, 0.0, 0.012207031, 0.012059438 
1.8310547e-2, 3.3756316e+1, -0.0000033709066, -12306.841, 1.1432124, 0.0, 0.0017960748, 0.00010282489, 0.00010282489, 0.0, 0.012207031, 0.012059515 
1.8310547e-2, 3.3768377e+1, -0.000016164733, -12301.531, -4.0729666, 0.0, 0.0012932569, 0.001332371, 0.001332371, 0.0, 0.012207031, 0.012059578 
1.8310547e-2, 3.3780438e+1, -0.0000009796265, -12288.868, 1.6606152, 0.0, 0.0010380564, 0.00022342207, 0.00022342207, 0.0, 0.012207031, 0.012059727 
1.8310547e-2, 3.3792496e+1, -0.0000030208394, -12278.033, -1.2009131, 0.0, 0.001585714, 0.000114440336, 0.000114440336, 0.0, 0.012207031, 0.012059854 
1.8310547e-2, 3.3804557e+1, -0.00033109353, -12268.329, 18.380127, 0.0, 0.0018347205, 0.02720553, 0.02720553, 0.0, 0.012207031, 0.012059969 
1.8310547e-2, 3.3816615e+1, -0.000010954762, -12261.077, 3.3868716, 0.0, 0.0011465646, 0.00092459907, 0.00092459907, 0.0, 0.012207031, 0.012060054 
1.8310547e-2, 3.382868e+1, -0.0000020392497, -12243.58, -1.6137955, 0.0, 0.0013063462, 0.00021067107, 0.00021067107, 0.0, 0.012207031, 0.01206026 
1.8310547e-2, 3.3840737e+1, -0.00000073144787, -12233.848, -0.46810657, 0.0, 0.0016938716, 0.000017179822, 0.000017179822, 0.0, 0.012207031, 0.012060375 
1.8310547e-2, 3.3852798e+1, -0.00036228736, -12231.182, 19.22518, 0.0, 0.0011574113, 0.0298561, 0.0298561, 0.0, 0.012207031, 0.012060406 
1.8310547e-2, 3.3864856e+1, -0.0000026979117, -12223.185, -1.3666185, 0.0, 0.0014901019, 0.00015009745, 0.00015009745, 0.0, 0.012207031, 0.0120605 
1.8310547e-2, 3.387692e+1, -0.0000009480113, -12207.02, 0.5514827, 0.0, 0.001650397, 0.000023966599, 0.000023966599, 0.0, 0.012207031, 0.012060691 
1.8310547e-2, 3.3888978e+1, -0.000003881275, -12198.076, 1.9584086, 0.0, 0.0011977028, 0.0003105424, 0.0003105424, 0.0, 0.012207031, 0.012060796 
1.8310547e-2, 3.390104e+1, -0.0000044051612, -12187.242, -2.2400284, 0.0, 0.0015788316, 0.0004073145, 0.0004073145, 0.0, 0.012207031, 0.0120609235 
1.8310547e-2, 3.39131e+1, -0.000006283485, -12181.903, -2.7212842, 0.0, 0.0015071541, 0.00060161715, 0.00060161715, 0.0, 0.012207031, 0.012060986 
1.8310547e-2, 3.3925164e+1, -0.000020198191, -12170.452, 4.524275, 0.0, 0.0011409771, 0.0016616669, 0.0016616669, 0.0, 0.012207031, 0.012061121 
1.8310547e-2, 3.3937222e+1, -0.000012402687, -12165.118, 3.5669212, 0.0, 0.0014316108, 0.0010334504, 0.0010334504, 0.0, 0.012207031, 0.012061183 
1.8310547e-2, 3.3949283e+1, -0.000032023112, -12142.465, -5.738873, 0.0, 0.0017944579, 0.00268033, 0.00268033, 0.0, 0.012207031, 0.012061451 
1.8310547e-2, 3.3961347e+1, -0.000028072185, -12130.807, 5.3564553, 0.0, 0.0014481576, 0.0023371133, 0.0023371133, 0.0, 0.012207031, 0.012061588 
1.8310547e-2, 3.3973408e+1, -0.0003616776, -12138.006, 19.211021, 0.0, 0.0009263525, 0.030043848, 0.030043848, 0.0, 0.012207031, 0.012061503 
1.8310547e-2, 3.398547e+1, -0.00007626691, -12127.066, 8.819684, 0.0, 0.0016198651, 0.0063380445, 0.0063380445, 0.0, 0.012207031, 0.012061632 
1.8310547e-2, 3.3997533e+1, -0.0000033484994, -12105.561, -2.0583344, 0.0, 0.0016994969, 0.0003466345, 0.0003466345, 0.0, 0.012207031, 0.012061886 
1.8310547e-2, 3.4009594e+1, -0.000004990458, -12104.301, 2.4028537, 0.0, 0.0011575669, 0.00047200578, 0.00047200578, 0.0, 0.012207031, 0.0120619 
1.8310547e-2, 3.4021655e+1, -0.00020638497, -12092.42, 14.510689, 0.0, 0.0015919178, 0.017206158, 0.017206158, 0.0, 0.012207031, 0.01206204 
1.8310547e-2, 3.403372e+1, -0.000029671162, -12085.45, 5.488041, 0.0, 0.0014212637, 0.002462465, 0.002462465, 0.0, 0.012207031, 0.012062122 
1.8310547e-2, 3.404578e+1, -0.00001362994, -12074.798, -3.6821864, 0.0, 0.0012769607, 0.0011092455, 0.0011092455, 0.0, 0.012207031, 0.012062248 
1.8310547e-2, 3.4057844e+1, -0.0000019722522, -12061.989, 0.7874199, 0.0, 0.0017103966, 0.000049431386, 0.000049431386, 0.0, 0.012207031, 0.012062399 
1.8310547e-2, 3.4069905e+1, -0.000010469883, -12054.934, 3.2053838, 0.0, 0.0010965402, 0.0008418354, 0.0008418354, 0.0, 0.012207031, 0.012062482 
1.8310547e-2, 3.4081966e+1, -0.0000011639156, -12041.274, -0.5572696, 0.0, 0.0013557018, 0.000024626492, 0.000024626492, 0.0, 0.012207031, 0.012062643 
1.8310547e-2, 3.409403e+1, -0.00000120548, -12034.315, -1.618601, 0.0, 0.0018673178, 0.0002164944, 0.0002164944, 0.0, 0.012207031, 0.012062725 
1.8310547e-2, 3.410609e+1, -0.0000008110367, -12022.387, -0.42866832, 0.0, 0.001218795, 0.000014473495, 0.000014473495, 0.0, 0.012207031, 0.012062865 
1.8310547e-2, 3.4118158e+1, -0.0000043602213, -12013.1045, 2.0656717, 0.0, 0.0013266669, 0.00035083515, 0.00035083515, 0.0, 0.012207031, 0.012062974 
1.8310547e-2, 3.413022e+1, -0.0000022756674, -12007.041, -1.6942272, 0.0, 0.0016953734, 0.00023678454, 0.00023678454, 0.0, 0.012207031, 0.012063046 
1.8310547e-2, 3.414228e+1, -0.00000076336585, -11995.196, 0.5023659, 0.0, 0.0011174347, 0.000020276011, 0.000020276011, 0.0, 0.012207031, 0.012063186 
1.8310547e-2, 3.4154344e+1, -0.000013080743, -11980.855, 3.6063685, 0.0, 0.0012338612, 0.0010724756, 0.0010724756, 0.0, 0.012207031, 0.012063354 
1.8310547e-2, 3.4166408e+1, -0.0000055516234, -11968.942, -2.6385908, 0.0, 0.0019592757, 0.00057613396, 0.00057613396, 0.0, 0.012207031, 0.012063495 
1.8310547e-2, 3.4178472e+1, -0.000010624495, -11962.615, 3.263113, 0.0, 0.0014719162, 0.0008794739, 0.0008794739, 0.0, 0.012207031, 0.012063569 
1.8310547e-2, 3.4190533e+1, -0.00018889352, -11965.055, 13.877172, 0.0, 0.0009021197, 0.015905948, 0.015905948, 0.0, 0.012207031, 0.0120635405 
1.8310547e-2, 3.42026e+1, -0.000111647234, -11943.561, 10.671498, 0.0, 0.0015212306, 0.009423264, 0.009423264, 0.0, 0.012207031, 0.012063794 
1.8310547e-2, 3.421466e+1, -0.0000363941, -11940.215, -6.0859785, 0.0, 0.0016825815, 0.0030656543, 0.0030656543, 0.0, 0.012207031, 0.012063833 
1.8310547e-2, 3.4226727e+1, -0.001574612, -11919.63, 40.073383, 0.0, 0.0013670999, 0.1331492, 0.1331492, 0.0, 0.012207031, 0.012064076 
1.8310547e-2, 3.4238788e+1, -0.000062275176, -11921.384, 7.9660816, 0.0, 0.0012888684, 0.0052608005, 0.0052608005, 0.0, 0.012207031, 0.012064055 
1.8310547e-2, 3.4250855e+1, -0.00015058607, -11902.93, 12.392671, 0.0, 0.0014854416, 0.012751962, 0.012751962, 0.0, 0.012207031, 0.012064273 
1.8310547e-2, 3.4262916e+1, -0.000011485983, -11895.709, -3.28007, 0.0, 0.0014174128, 0.00089294603, 0.00089294603, 0.0, 0.012207031, 0.012064357 
1.8310547e-2, 3.4274983e+1, -0.000013109209, -11886.235, -3.629958, 0.0, 0.0014504204, 0.0010954498, 0.0010954498, 0.0, 0.012207031, 0.012064469 
1.8310547e-2, 3.4287047e+1, -0.000012971216, -11888.389, 3.5219731, 0.0, 0.0013873493, 0.0010304245, 0.0010304245, 0.0, 0.012207031, 0.012064444 
1.8310547e-2, 3.429911e+1, -0.0000014411329, -11858.715, 1.6169152, 0.0, 0.0013806621, 0.00021902248, 0.00021902248, 0.0, 0.012207031, 0.012064793 
1.8310547e-2, 3.4311175e+1, -0.0000018936681, -11857.751, -0.85038865, 0.0, 0.0015021121, 0.000059092672, 0.000059092672, 0.0, 0.012207031, 0.012064805 
1.8310547e-2, 3.4323242e+1, -0.0000038472, -11846.193, -1.2498373, 0.0, 0.0013950032, 0.00012801736, 0.00012801736, 0.0, 0.012207031, 0.012064941 
1.8310547e-2, 3.433531e+1, -0.0000012866674, -11844.278, -0.65315866, 0.0, 0.001405269, 0.000034732093, 0.000034732093, 0.0, 0.012207031, 0.012064964 
1.8310547e-2, 3.434737e+1, -0.0000006838454, -11825.328, 0.2572244, 0.0, 0.001430724, 0.000004911297, 0.000004911297, 0.0, 0.012207031, 0.012065187 
1.8310547e-2, 3.4359437e+1, -0.0000028045795, -11822.85, 1.9254678, 0.0, 0.0013997924, 0.00031077684, 0.00031077684, 0.0, 0.012207031, 0.012065216 
1.8310547e-2, 3.43715e+1, -0.0000068109302, -11800.454, 2.9431565, 0.0, 0.0015015758, 0.000727243, 0.000727243, 0.0, 0.012207031, 0.01206548 
1.8310547e-2, 3.4383568e+1, -0.00000974748, -11795.526, -3.1255968, 0.0, 0.0013134255, 0.00081847794, 0.00081847794, 0.0, 0.012207031, 0.012065538 
1.8310547e-2, 3.4395635e+1, -0.0000054543507, -11784.295, 2.4951382, 0.0, 0.0014947818, 0.0005228517, 0.0005228517, 0.0, 0.012207031, 0.01206567 
1.8310547e-2, 3.44077e+1, -0.00025458465, -11791.509, 16.111334, 0.0, 0.0014236103, 0.021759106, 0.021759106, 0.0, 0.012207031, 0.012065586 
1.8310547e-2, 3.4419766e+1, -0.000049103943, -11763.566, 7.074009, 0.0, 0.0013016723, 0.004204843, 0.004204843, 0.0, 0.012207031, 0.012065915 
1.8310547e-2, 3.443183e+1, -0.000006349358, -11759.929, -2.7947037, 0.0, 0.0015325627, 0.0006578016, 0.0006578016, 0.0, 0.012207031, 0.012065958 
1.8310547e-2, 3.4443897e+1, -0.000010123981, -11752.363, 3.1601305, 0.0, 0.001581457, 0.0008396135, 0.0008396135, 0.0, 0.012207031, 0.012066047 
1.8310547e-2, 3.4455964e+1, -0.000040507268, -11741.956, 6.4322543, 0.0, 0.0012411779, 0.0034830866, 0.0034830866, 0.0, 0.012207031, 0.01206617 
1.8310547e-2, 3.4468028e+1, -0.00001716757, -11729.628, 4.162086, 0.0, 0.0012586846, 0.0014596874, 0.0014596874, 0.0, 0.012207031, 0.012066315 
1.8310547e-2, 3.4480095e+1, -0.000007388605, -11725.686, -2.9605935, 0.0, 0.0016423102, 0.0007401253, 0.0007401253, 0.0, 0.012207031, 0.0120663615 
1.8310547e-2, 3.4492162e+1, -0.000003475161, -11705.596, -1.196016, 0.0, 0.0016529477, 0.00011872743, 0.00011872743, 0.0, 0.012207031, 0.012066599 
1.8310547e-2, 3.4504226e+1, -0.0000045339725, -11704.721, 2.1214576, 0.0, 0.001135947, 0.000379976, 0.000379976, 0.0, 0.012207031, 0.012066609 
1.8310547e-2, 3.4516296e+1, -0.00000056286353, -11689.534, 0.234616, 0.0, 0.0012652152, 0.000004146019, 0.000004146019, 0.0, 0.012207031, 0.012066788 
1.8310547e-2, 3.4528363e+1, -0.0000005307514, -11683.751, 0.28068775, 0.0, 0.001651019, 0.0000062124254, 0.0000062124254, 0.0, 0.012207031, 0.012066856 
1.8310547e-2, 3.4540427e+1, -0.0000019629713, -11668.018, -0.8659433, 0.0, 0.0016814355, 0.00006230311, 0.00006230311, 0.0, 0.012207031, 0.012067041 
1.8310547e-2, 3.4552497e+1, -0.0000011488039, -11662.66, -0.6817889, 0.0, 0.0011945195, 0.000038707978, 0.000038707978, 0.0, 0.012207031, 0.012067105 
1.8310547e-2, 3.4564564e+1, -0.0000005967203, -11655.012, -0.015251679, 0.0, 0.0011018912, -0.0000005767615, -0.0000005767615, 0.0, 0.012207031, 0.012067195 
1.8310547e-2, 3.457663e+1, -0.000007158335, -11643.059, 2.988008, 0.0, 0.0017992571, 0.0007596669, 0.0007596669, 0.0, 0.012207031, 0.012067336 
1.8310547e-2, 3.45887e+1, -0.0000042753904, -11629.592, 1.399517, 0.0, 0.0016306395, 0.00016414394, 0.00016414394, 0.0, 0.012207031, 0.012067495 
1.8310547e-2, 3.4600765e+1, -0.0000028965917, -11620.853, -1.4062465, 0.0, 0.0010833855, 0.00016727416, 0.00016727416, 0.0, 0.012207031, 0.012067598 
1.8310547e-2, 3.4612834e+1, -0.000011804893, -11607.985, 3.308512, 0.0, 0.0015206964, 0.00093118835, 0.00093118835, 0.0, 0.012207031, 0.01206775 
1.8310547e-2, 3.46249e+1, -0.00019863022, -11606.466, 14.227647, 0.0, 0.0015498085, 0.017242135, 0.017242135, 0.0, 0.012207031, 0.012067768 
1.8310547e-2, 3.463697e+1, -0.00008998975, -11596.768, 9.577597, 0.0, 0.0012046185, 0.00782, 0.00782, 0.0, 0.012207031, 0.012067882 
1.8310547e-2, 3.4649035e+1, -0.0000065209065, -11583.278, -2.7959974, 0.0, 0.001494728, 0.000668383, 0.000668383, 0.0, 0.012207031, 0.012068041 
1.8310547e-2, 3.4661105e+1, -0.0000056273834, -11574.498, -2.5618749, 0.0, 0.00179963, 0.00056141254, 0.00056141254, 0.0, 0.012207031, 0.012068145 
1.8310547e-2, 3.4673172e+1, -0.0000036900867, -11566.981, 1.1610767, 0.0, 0.0012283385, 0.00011285708, 0.00011285708, 0.0, 0.012207031, 0.012068233 
1.8310547e-2, 3.4685242e+1, -0.000002847278, -11557.08, 1.6605918, 0.0, 0.0010530365, 0.00023575671, 0.00023575671, 0.0, 0.012207031, 0.01206835 
1.8310547e-2, 3.4697312e+1, -0.000019029596, -11539.768, 4.459041, 0.0, 0.0016774888, 0.0017039725, 0.0017039725, 0.0, 0.012207031, 0.012068555 
1.8310547e-2, 3.4709376e+1, -0.000017991, -11530.338, -4.2257257, 0.0, 0.0018547849, 0.0015306849, 0.0015306849, 0.0, 0.012207031, 0.012068666 
1.8310547e-2, 3.4721446e+1, -0.00001350688, -11515.053, 3.7734852, 0.0, 0.0011521645, 0.0012230648, 0.0012230648, 0.0, 0.012207031, 0.012068846 
1.8310547e-2, 3.4733516e+1, -0.00057162717, -11526.76, 24.1378, 0.0, 0.0010859179, 0.049974304, 0.049974304, 0.0, 0.012207031, 0.0120687075 
1.8310547e-2, 3.4745586e+1, -0.00013854899, -11508.014, 11.881314, 0.0, 0.0018073275, 0.012128163, 0.012128163, 0.0, 0.012207031, 0.012068929 
1.8310547e-2, 3.4757653e+1, -0.000019194502, -11497.509, -4.4636855, 0.0, 0.0014258085, 0.0017137447, 0.0017137447, 0.0, 0.012207031, 0.012069053 
1.8310547e-2, 3.4769723e+1, -0.00000044407153, -11481.248, -0.26802352, 0.0, 0.0013415627, 0.0000058127916, 0.0000058127916, 0.0, 0.012207031, 0.012069245 
1.8310547e-2, 3.4781793e+1, -0.00003148804, -11480.525, 5.675266, 0.0, 0.0014922898, 0.002774014, 0.002774014, 0.0, 0.012207031, 0.012069253 
1.8310547e-2, 3.4793863e+1, -0.00020826764, -11466.429, 14.567954, 0.0, 0.0012320862, 0.018300105, 0.018300105, 0.0, 0.012207031, 0.01206942 
1.8310547e-2, 3.480593e+1, -0.00003334413, -11458.309, 5.809709, 0.0, 0.0018557195, 0.0029123533, 0.0029123533, 0.0, 0.012207031, 0.012069516 
1.8310547e-2, 3.4818e+1, -0.000014942567, -11438.25, -3.9381871, 0.0, 0.0014311961, 0.0013409744, 0.0013409744, 0.0, 0.012207031, 0.012069752 
1.8310547e-2, 3.483007e+1, -0.000014626911, -11441.373, 3.9493687, 0.0, 0.00075854646, 0.0013486283, 0.0013486283, 0.0, 0.012207031, 0.012069715 
1.8310547e-2, 3.484214e+1, -0.00037804, -11427.669, 19.62791, 0.0, 0.001771233, 0.033334326, 0.033334326, 0.0, 0.012207031, 0.012069877 
1.8310547e-2, 3.485421e+1, -0.00006893676, -11424.476, 8.379907, 0.0, 0.0018479183, 0.006077761, 0.006077761, 0.0, 0.012207031, 0.0120699145 
1.8310547e-2, 3.486628e+1, -0.00002142693, -11400.018, -4.645713, 0.0, 0.0010925912, 0.0018717845, 0.0018717845, 0.0, 0.012207031, 0.012070203 
1.8310547e-2, 3.487835e+1, -0.00000056490364, -11408.703, 0.21434882, 0.0, 0.0013675499, 0.0000034623208, 0.0000034623208, 0.0, 0.012207031, 0.012070101 
1.8310547e-2, 3.489042e+1, -0.000004079989, -11387.754, 2.1697848, 0.0, 0.0015217804, 0.00040934357, 0.00040934357, 0.0, 0.012207031, 0.0120703485 
1.8310547e-2, 3.4902492e+1, -0.0000009597541, -11381.6045, -0.559108, 0.0, 0.0014476763, 0.000026505777, 0.000026505777, 0.0, 0.012207031, 0.012070421 
1.8310547e-2, 3.4914562e+1, -0.0000017575015, -11359.434, 0.6358026, 0.0, 0.0014751982, 0.000033829216, 0.000033829216, 0.0, 0.012207031, 0.012070682 
1.8310547e-2, 3.4926632e+1, -0.0000007104813, -11365.655, 0.44461757, 0.0, 0.0012721827, 0.00001668269, 0.00001668269, 0.0, 0.012207031, 0.012070609 
1.8310547e-2, 3.4938702e+1, -0.00000077513465, -11347.603, -0.19269039, 0.0, 0.0014757859, 0.000002496885, 0.000002496885, 0.0, 0.012207031, 0.012070822 
1.8310547e-2, 3.4950775e+1, -0.0000023119774, -11344.638, -0.9597043, 0.0, 0.0015408237, 0.0000788746, 0.0000788746, 0.0, 0.012207031, 0.012070857 
1.8310547e-2, 3.4962845e+1, -0.000030689953, -11320.485, 5.592576, 0.0, 0.0013999111, 0.0027321687, 0.0027321687, 0.0, 0.012207031, 0.012071142 
1.8310547e-2, 3.4974915e+1, -0.000013300181, -11327.157, 3.7865272, 0.0, 0.0013205756, 0.0012524885, 0.0012524885, 0.0, 0.012207031, 0.012071064 
1.8310547e-2, 3.4986988e+1, -0.000007979961, -11305.444, -2.9456832, 0.0, 0.0013193132, 0.0007595307, 0.0007595307, 0.0, 0.012207031, 0.01207132 
1.8310547e-2, 3.4999058e+1, -0.0000005222455, -11304.436, -0.25769755, 0.0, 0.0017803409, 0.0000053522635, 0.0000053522635, 0.0, 0.012207031, 0.012071332 
1.8310547e-2, 3.501113e+1, -0.000011297376, -11292.351, 3.2966816, 0.0, 0.0014368579, 0.00095113367, 0.00095113367, 0.0, 0.012207031, 0.012071474 
1.8310547e-2, 3.50232e+1, -0.00000061866797, -11284.5, -0.39108163, 0.0, 0.0009675267, 0.000012934865, 0.000012934865, 0.0, 0.012207031, 0.012071567 
1.8310547e-2, 3.5035273e+1, -0.0000054788907, -11260.807, 2.4386163, 0.0, 0.0016118813, 0.0005226226, 0.0005226226, 0.0, 0.012207031, 0.012071847 
1.8310547e-2, 3.5047343e+1, -0.0000028260968, -11263.969, -1.9374564, 0.0, 0.0016369895, 0.00033042565, 0.00033042565, 0.0, 0.012207031, 0.01207181 
1.8310547e-2, 3.5059416e+1, -0.0000012184245, -11249.953, 0.5698185, 0.0, 0.0012170197, 0.000027643306, 0.000027643306, 0.0, 0.012207031, 0.012071975 
1.8310547e-2, 3.5071486e+1, -0.00010877517, -11247.939, 10.527104, 0.0, 0.0015236918, 0.009743682, 0.009743682, 0.0, 0.012207031, 0.012071999 
1.8310547e-2, 3.5083562e+1, -0.000031486226, -11228.47, 5.6687403, 0.0, 0.0015139696, 0.0028304006, 0.0028304006, 0.0, 0.012207031, 0.012072229 
1.8310547e-2, 3.5095635e+1, -0.0000034350398, -11219.202, -1.9632756, 0.0, 0.0011937832, 0.0003401233, 0.0003401233, 0.0, 0.012207031, 0.012072338 
1.8310547e-2, 3.5107705e+1, -0.0000010189914, -11213.28, 0.22354734, 0.0, 0.0013826606, 0.0000034376371, 0.0000034376371, 0.0, 0.012207031, 0.012072408 
1.8310547e-2, 3.5119778e+1, -0.00003532558, -11210.172, 6.006024, 0.0, 0.0017359606, 0.003182494, 0.003182494, 0.0, 0.012207031, 0.012072445 
1.8310547e-2, 3.513185e+1, -0.000028374412, -11190.124, 5.3832974, 0.0, 0.001365224, 0.0025613988, 0.0025613988, 0.0, 0.012207031, 0.012072681 
1.8310547e-2, 3.5143924e+1, -0.00000035510442, -11183.853, -0.15347381, 0.0, 0.0011869523, 0.0000017509847, 0.0000017509847, 0.0, 0.012207031, 0.012072755 
1.8310547e-2, 3.5155994e+1, -0.0000031145423, -11172.791, -1.6453338, 0.0, 0.0017088798, 0.00023918152, 0.00023918152, 0.0, 0.012207031, 0.012072886 
1.8310547e-2, 3.5168067e+1, -0.000003890086, -11163.508, 1.1315523, 0.0, 0.0012303006, 0.00011080601, 0.00011080601, 0.0, 0.012207031, 0.012072995 
1.8310547e-2, 3.5180143e+1, -0.0000008205032, -11157.979, -0.43041664, 0.0, 0.0010898658, 0.000015782727, 0.000015782727, 0.0, 0.012207031, 0.0120730605 
1.8310547e-2, 3.5192215e+1, -0.0000006086953, -11143.205, 0.3449648, 0.0, 0.0021550984, 0.000010070522, 0.000010070522, 0.0, 0.012207031, 0.012073236 
1.8310547e-2, 3.5204288e+1, -0.0000041699304, -11133.927, 1.2993934, 0.0, 0.0013109398, 0.00014747676, 0.00014747676, 0.0, 0.012207031, 0.012073345 
1.8310547e-2, 3.521636e+1, -0.0000044231983, -11121.772, -1.1016078, 0.0, 0.0009668517, 0.00010469069, 0.00010469069, 0.0, 0.012207031, 0.012073489 
1.8310547e-2, 3.5228434e+1, -0.00000039540632, -11117.031, 0.035947964, 0.0, 0.00171296, -0.00000027916394, -0.00000027916394, 0.0, 0.012207031, 0.012073545 
1.8310547e-2, 3.524051e+1, -0.00000041783113, -11105.119, 0.006203969, 0.0, 0.001380456, -0.00000041436397, -0.00000041436397, 0.0, 0.012207031, 0.012073685 
1.8310547e-2, 3.5252583e+1, -0.00000043227377, -11095.624, 0.023022603, 0.0, 0.0014187219, -0.00000038450344, -0.00000038450344, 0.0, 0.012207031, 0.012073797 
1.8310547e-2, 3.5264656e+1, -0.0000024716644, -11085.1875, 0.86613566, 0.0, 0.0014777995, 0.00006520342, 0.00006520342, 0.0, 0.012207031, 0.012073921 
1.8310547e-2, 3.527673e+1, -0.0000035294581, -11077.085, -0.9542666, 0.0, 0.0013753899, 0.000078678524, 0.000078678524, 0.0, 0.012207031, 0.012074016 
1.8310547e-2, 3.5288802e+1, -0.0000008921452, -11062.638, 1.5522896, 0.0, 0.0015412972, 0.00021692237, 0.00021692237, 0.0, 0.012207031, 0.012074187 
1.8310547e-2, 3.530088e+1, -0.0000030454048, -11061.132, -0.8914183, 0.0, 0.001114787, 0.00006879413, 0.00006879413, 0.0, 0.012207031, 0.012074205 
1.8310547e-2, 3.5312954e+1, -0.00000047628228, -11040.557, 0.32022434, 0.0, 0.0018046418, 0.000008811623, 0.000008811623, 0.0, 0.012207031, 0.012074448 
1.8310547e-2, 3.5325027e+1, -0.000003141726, -11043.385, 1.8742695, 0.0, 0.0015606502, 0.00031495694, 0.00031495694, 0.0, 0.012207031, 0.012074415 
1.8310547e-2, 3.5337102e+1, -0.0000037481377, -11021.63, -2.1210814, 0.0, 0.00096839434, 0.00040444793, 0.00040444793, 0.0, 0.012207031, 0.012074672 
1.8310547e-2, 3.5349178e+1, -0.0000015345255, -11018.882, 1.5974923, 0.0, 0.0016065694, 0.00023006627, 0.00023006627, 0.0, 0.012207031, 0.012074704 
1.8310547e-2, 3.536125e+1, -0.000002016916, -11006.291, -0.7754549, 0.0, 0.001499885, 0.00005261823, 0.00005261823, 0.0, 0.012207031, 0.012074852 
1.8310547e-2, 3.5373324e+1, -0.0000042791376, -10996.69, -1.1826152, 0.0, 0.0014389677, 0.00012290262, 0.00012290262, 0.0, 0.012207031, 0.012074966 
1.8310547e-2, 3.5385403e+1, -0.0000006889883, -10990.535, -0.39575568, 0.0, 0.00143822, 0.0000135616865, 0.0000135616865, 0.0, 0.012207031, 0.012075039 
1.8310547e-2, 3.5397476e+1, -0.0000027961246, -10982.989, -1.3150663, 0.0, 0.0011856462, 0.00015466553, 0.00015466553, 0.0, 0.012207031, 0.012075128 
1.8310547e-2, 3.5409555e+1, -0.000074958305, -10957.775, 8.73152, 0.0, 0.0017585943, 0.0068826023, 0.0068826023, 0.0, 0.012207031, 0.012075426 
1.8310547e-2, 3.5421628e+1, -0.000011441303, -10959.774, -3.4421067, 0.0, 0.0015029773, 0.0010696118, 0.0010696118, 0.0, 0.012207031, 0.012075403 
1.8310547e-2, 3.5433704e+1, -0.000090362504, -10929.693, 9.592259, 0.0, 0.0011690698, 0.008328115, 0.008328115, 0.0, 0.012207031, 0.012075758 
1.8310547e-2, 3.5445777e+1, -0.0010218534, -10951.22, 32.25572, 0.0, 0.0014182373, 0.0939833, 0.0939833, 0.0, 0.012207031, 0.012075503 
1.8310547e-2, 3.5457855e+1, -0.001412059, -10931.624, 37.916996, 0.0, 0.0016287368, 0.13010377, 0.13010377, 0.0, 0.012207031, 0.012075735 
1.8310547e-2, 3.5469928e+1, -0.00007745191, -10921.829, -8.879181, 0.0, 0.0013593056, 0.007141101, 0.007141101, 0.0, 0.012207031, 0.012075851 
1.8310547e-2, 3.5482007e+1, -0.0000012589082, -10913.483, -0.6287589, 0.0, 0.0014315994, 0.0000349658, 0.0000349658, 0.0, 0.012207031, 0.012075949 
1.8310547e-2, 3.5494083e+1, -0.000020700692, -10907.777, 4.5702558, 0.0, 0.0014294203, 0.0018941929, 0.0018941929, 0.0, 0.012207031, 0.0120760165 
1.8310547e-2, 3.5506156e+1, -0.00000419956, -10879.999, 1.2739168, 0.0, 0.0014280765, 0.00014496077, 0.00014496077, 0.0, 0.012207031, 0.012076345 
1.8310547e-2, 3.5518235e+1, -0.00000082809464, -10884.185, -1.5078286, 0.0, 0.0015089891, 0.00020805729, 0.00020805729, 0.0, 0.012207031, 0.012076296 
1.8310547e-2, 3.553031e+1, -0.0000045738007, -10868.843, -2.337995, 0.0, 0.0013498688, 0.00049835193, 0.00049835193, 0.0, 0.012207031, 0.0120764775 
1.8310547e-2, 3.554239e+1, -0.000003594708, -10866.042, 1.0837882, 0.0, 0.0014430953, 0.00010450323, 0.00010450323, 0.0, 0.012207031, 0.01207651 
1.8310547e-2, 3.5554463e+1, -0.0000032932874, -10845.042, 1.6144395, 0.0, 0.0015006228, 0.00023703909, 0.00023703909, 0.0, 0.012207031, 0.012076759 
1.8310547e-2, 3.556654e+1, -0.0000033318636, -10846.383, -0.9987513, 0.0, 0.0013120213, 0.00008863465, 0.00008863465, 0.0, 0.012207031, 0.012076743 
1.8310547e-2, 3.5578617e+1, -0.0000012116001, -10825.903, 0.63669467, 0.0, 0.0015757629, 0.00003623378, 0.00003623378, 0.0, 0.012207031, 0.012076985 
1.8310547e-2, 3.5590693e+1, -0.000003845448, -10824.781, 1.1221378, 0.0, 0.0013295207, 0.000112479596, 0.000112479596, 0.0, 0.012207031, 0.012076998 
1.8310547e-2, 3.5602772e+1, -0.00000639085, -10810.374, -2.7908943, 0.0, 0.0014008111, 0.0007141291, 0.0007141291, 0.0, 0.012207031, 0.012077169 
1.8310547e-2, 3.5614848e+1, -0.0000058561586, -10803.571, 2.6699965, 0.0, 0.0017231442, 0.00065400725, 0.00065400725, 0.0, 0.012207031, 0.012077249 
1.8310547e-2, 3.5626927e+1, -0.00006331029, -10786.79, 8.026835, 0.0, 0.0012281011, 0.005909741, 0.005909741, 0.0, 0.012207031, 0.012077447 
1.8310547e-2, 3.5639003e+1, -0.000015041134, -10787.323, 3.9227462, 0.0, 0.0011178281, 0.001411442, 0.001411442, 0.0, 0.012207031, 0.0120774405 
1.8310547e-2, 3.5651082e+1, -0.000018134258, -10772.853, -4.293332, 0.0, 0.0017505778, 0.001692898, 0.001692898, 0.0, 0.012207031, 0.012077612 
1.8310547e-2, 3.5663158e+1, -0.0000004960736, -10764.314, -0.22459283, 0.0, 0.0017017324, 0.000004189962, 0.000004189962, 0.0, 0.012207031, 0.012077712 
1.8310547e-2, 3.5675237e+1, -0.00003491537, -10752.567, 5.9674635, 0.0, 0.001080327, 0.0032769083, 0.0032769083, 0.0, 0.012207031, 0.012077852 
1.8310547e-2, 3.5687312e+1, -0.0000034723648, -10746.833, 1.0395712, 0.0, 0.001296478, 0.00009708827, 0.00009708827, 0.0, 0.012207031, 0.012077919 
1.8310547e-2, 3.569939e+1, -0.0000005882902, -10725.077, -0.31200933, 0.0, 0.001764362, 0.0000084885505, 0.0000084885505, 0.0, 0.012207031, 0.012078177 
1.8310547e-2, 3.571147e+1, -0.0000009466846, -10731.375, 0.5562385, 0.0, 0.0011861643, 0.000027884778, 0.000027884778, 0.0, 0.012207031, 0.012078103 
1.8310547e-2, 3.572355e+1, -0.0000025965976, -10715.456, -1.5649452, 0.0, 0.0014824942, 0.00022595676, 0.00022595676, 0.0, 0.012207031, 0.012078291 
1.8310547e-2, 3.5735625e+1, -0.0000019320153, -10703.582, 1.529886, 0.0, 0.0016330489, 0.00021673788, 0.00021673788, 0.0, 0.012207031, 0.012078431 
1.8310547e-2, 3.5747704e+1, -0.0000005370726, -10694.924, -0.2045076, 0.0, 0.0010828079, 0.0000033735087, 0.0000033735087, 0.0, 0.012207031, 0.012078533 
1.8310547e-2, 3.5759786e+1, -0.000003078389, -10684.637, -1.774281, 0.0, 0.00179538, 0.00029155708, 0.00029155708, 0.0, 0.012207031, 0.012078655 
1.8310547e-2, 3.5771862e+1, -0.0000041700596, -10673.431, 1.1706587, 0.0, 0.001406635, 0.00012422743, 0.00012422743, 0.0, 0.012207031, 0.012078787 
1.8310547e-2, 3.5783944e+1, -0.000002010619, -10669.191, -0.7829933, 0.0, 0.0008285206, 0.000055451885, 0.000055451885, 0.0, 0.012207031, 0.0120788375 
1.8310547e-2, 3.579602e+1, -0.0000034099369, -10656.751, 2.1758816, 0.0, 0.001862624, 0.0004408588, 0.0004408588, 0.0, 0.012207031, 0.012078985 
1.8310547e-2, 3.5808098e+1, -0.0000026192617, -10644.409, 1.6965394, 0.0, 0.001705889, 0.00026778053, 0.00026778053, 0.0, 0.012207031, 0.012079131 
1.8310547e-2, 3.582018e+1, -0.00000017840725, -10632.583, -1.3861275, 0.0, 0.0011655488, 0.00018052552, 0.00018052552, 0.0, 0.012207031, 0.012079271 
1.8310547e-2, 3.5832256e+1, -0.0000019848062, -10628.752, -0.7643792, 0.0, 0.0011709201, 0.000052986426, 0.000052986426, 0.0, 0.012207031, 0.012079316 
1.8310547e-2, 3.5844338e+1, -0.00000065613983, -10617.608, -0.27192026, 0.0, 0.0015584046, 0.0000063078223, 0.0000063078223, 0.0, 0.012207031, 0.0120794475 
1.8310547e-2, 3.585642e+1, -0.000008733462, -10606.378, 2.926344, 0.0, 0.0018033932, 0.00079865695, 0.00079865695, 0.0, 0.012207031, 0.012079581 
1.8310547e-2, 3.5868496e+1, -0.0000006919942, -10600.323, -0.25717124, 0.0, 0.0010286123, 0.000005547159, 0.000005547159, 0.0, 0.012207031, 0.012079652 
1.8310547e-2, 3.5880578e+1, -0.000009512843, -10582.324, -2.9498417, 0.0, 0.0015488829, 0.0008127607, 0.0008127607, 0.0, 0.012207031, 0.012079866 
1.8310547e-2, 3.5892653e+1, -0.0000022793445, -10580.438, 1.7377369, 0.0, 0.0015518556, 0.0002831275, 0.0002831275, 0.0, 0.012207031, 0.012079887 
1.8310547e-2, 3.5904735e+1, -0.0000017438024, -10566.952, -0.75746065, 0.0, 0.001079304, 0.000052552525, 0.000052552525, 0.0, 0.012207031, 0.012080047 
1.8310547e-2, 3.5916817e+1, -0.000003391825, -10558.82, 1.1602631, 0.0, 0.0018131502, 0.00012410445, 0.00012410445, 0.0, 0.012207031, 0.012080143 
1.8310547e-2, 3.59289e+1, -0.0000006276457, -10548.633, 0.2177815, 0.0, 0.001109041, 0.0000038685557, 0.0000038685557, 0.0, 0.012207031, 0.012080263 
1.8310547e-2, 3.5940975e+1, -0.000003382662, -10525.944, 2.045169, 0.0, 0.0012816114, 0.00039398938, 0.00039398938, 0.0, 0.012207031, 0.0120805325 
1.8310547e-2, 3.5953057e+1, -0.00003226849, -10534.582, 5.731594, 0.0, 0.0021746513, 0.0030861432, 0.0030861432, 0.0, 0.012207031, 0.01208043 
1.8310547e-2, 3.596514e+1, -0.0000006423755, -10528.811, -0.20120555, 0.0, 0.0010221218, 0.00000320266, 0.00000320266, 0.0, 0.012207031, 0.012080498 
1.8310547e-2, 3.5977218e+1, -0.000012673721, -10509.614, 3.5995107, 0.0, 0.0011156218, 0.0012201476, 0.0012201476, 0.0, 0.012207031, 0.012080725 
1.8310547e-2, 3.59893e+1, -0.000019737106, -10514.054, -4.474992, 0.0, 0.0017889458, 0.0018849086, 0.0018849086, 0.0, 0.012207031, 0.012080673 
1.8310547e-2, 3.600138e+1, -0.0029883643, -10480.837, 55.140728, 0.0, 0.0013048088, 0.28710455, 0.28710455, 0.0, 0.012207031, 0.012081066 
1.8310547e-2, 3.6013463e+1, -0.00011710193, -10468.988, -10.913786, 0.0, 0.0014137164, 0.011260367, 0.011260367, 0.0, 0.012207031, 0.012081206 
1.8310547e-2, 3.6025542e+1, -0.000043772347, -10474.95, 6.6768513, 0.0, 0.0015468887, 0.004212126, 0.004212126, 0.0, 0.012207031, 0.012081136 
1.8310547e-2, 3.6037624e+1, -0.000002962281, -10456.806, -1.1609838, 0.0, 0.0012994757, 0.00012593782, 0.00012593782, 0.0, 0.012207031, 0.01208135 
1.8310547e-2, 3.6049706e+1, -0.000004723331, -10446.097, -2.345252, 0.0, 0.0015482762, 0.0005218089, 0.0005218089, 0.0, 0.012207031, 0.012081477 
1.8310547e-2, 3.6061788e+1, -0.000002813716, -10442.504, -0.96434194, 0.0, 0.0013950659, 0.00008624111, 0.00008624111, 0.0, 0.012207031, 0.01208152 
1.8310547e-2, 3.6073866e+1, -0.0000011328902, -10430.637, 0.617922, 0.0, 0.0013777703, 0.000035473466, 0.000035473466, 0.0, 0.012207031, 0.01208166 
1.8310547e-2, 3.6085948e+1, -0.0000039095053, -10426.054, 2.1398354, 0.0, 0.0015741449, 0.00043526862, 0.00043526862, 0.0, 0.012207031, 0.012081714 
1.8310547e-2, 3.609803e+1, -0.0000029213418, -10407.829, -1.6809477, 0.0, 0.0012348179, 0.00026856514, 0.00026856514, 0.0, 0.012207031, 0.01208193 
1.8310547e-2, 3.6110115e+1, -0.0000012154039, -10395.468, -0.7916496, 0.0, 0.0015195203, 0.00005907135, 0.00005907135, 0.0, 0.012207031, 0.012082077 
1.8310547e-2, 3.6122197e+1, -0.000024595654, -10390.996, 4.9775176, 0.0, 0.0015063331, 0.0023597453, 0.0023597453, 0.0, 0.012207031, 0.01208213 
1.8310547e-2, 3.613428e+1, -0.000095400115, -10385.109, 9.85099, 0.0, 0.0013608176, 0.009248934, 0.009248934, 0.0, 0.012207031, 0.012082199 
1.8310547e-2, 3.6146358e+1, -0.000046891066, -10373.017, 6.906814, 0.0, 0.0014892796, 0.00455197, 0.00455197, 0.0, 0.012207031, 0.012082342 
1.8310547e-2, 3.6158442e+1, -0.0000049904897, -10365.643, -2.5743136, 0.0, 0.0013073313, 0.00063434185, 0.00063434185, 0.0, 0.012207031, 0.01208243 
1.8310547e-2, 3.6170524e+1, -0.000023010705, -10348.753, 4.8785043, 0.0, 0.0016346441, 0.002276764, 0.002276764, 0.0, 0.012207031, 0.012082629 
1.8310547e-2, 3.618261e+1, -0.000014910374, -10348.294, 3.8379443, 0.0, 0.0014994146, 0.0014084945, 0.0014084945, 0.0, 0.012207031, 0.0120826345 
1.8310547e-2, 3.619469e+1, -0.0000036799586, -10331.383, -1.556518, 0.0, 0.0011201907, 0.00023082379, 0.00023082379, 0.0, 0.012207031, 0.012082835 
1.8310547e-2, 3.6206773e+1, -0.000004618378, -10323.405, 2.398228, 0.0, 0.0014379838, 0.0005525134, 0.0005525134, 0.0, 0.012207031, 0.01208293 
1.8310547e-2, 3.6218858e+1, -0.0000024851945, -10313.524, -1.5455656, 0.0, 0.0017705131, 0.00022913037, 0.00022913037, 0.0, 0.012207031, 0.012083046 
1.8310547e-2, 3.6230937e+1, -0.0000010513373, -10303.379, -1.4000534, 0.0, 0.0016092156, 0.00018919204, 0.00018919204, 0.0, 0.012207031, 0.012083166 
1.8310547e-2, 3.624302e+1, -0.000010795794, -10294.518, 3.237385, 0.0, 0.0007495892, 0.001007286, 0.001007286, 0.0, 0.012207031, 0.0120832715 
1.8310547e-2, 3.625511e+1, -0.0000026276007, -10286.991, -1.6049978, 0.0, 0.0016661774, 0.00024778748, 0.00024778748, 0.0, 0.012207031, 0.012083361 
1.8310547e-2, 3.6267188e+1, -0.00000063147263, -10275.253, 0.48120543, 0.0, 0.0017894105, 0.000021904096, 0.000021904096, 0.0, 0.012207031, 0.0120835 
1.8310547e-2, 3.6279273e+1, -0.0000019505405, -10261.281, -1.2799774, 0.0, 0.00096960086, 0.00015771198, 0.00015771198, 0.0, 0.012207031, 0.012083665 
1.8310547e-2, 3.6291355e+1, -0.0000032578928, -10250.833, 1.5676583, 0.0, 0.0018948533, 0.00023648384, 0.00023648384, 0.0, 0.012207031, 0.012083788 
1.8310547e-2, 3.630344e+1, -0.00000060411463, -10258.888, 0.47870678, 0.0, 0.0012919131, 0.000021733606, 0.000021733606, 0.0, 0.012207031, 0.012083693 
1.8310547e-2, 3.6315525e+1, -0.000018364753, -10230.997, 4.302152, 0.0, 0.001235368, 0.0017906976, 0.0017906976, 0.0, 0.012207031, 0.012084024 
1.8310547e-2, 3.632761e+1, -0.000015809886, -10220.132, 4.0121427, 0.0, 0.0019740928, 0.0015592469, 0.0015592469, 0.0, 0.012207031, 0.012084153 
1.8310547e-2, 3.633969e+1, -0.00000051677836, -10210.47, -0.4604162, 0.0, 0.0007142015, 0.000020244566, 0.000020244566, 0.0, 0.012207031, 0.012084267 
1.8310547e-2, 3.6351776e+1, -0.0000004532643, -10200.2705, 0.24918051, 0.0, 0.0017046653, 0.0000056339195, 0.0000056339195, 0.0, 0.012207031, 0.012084387 
1.8310547e-2, 3.636386e+1, -0.00037726393, -10206.1045, 19.586962, 0.0, 0.0016788227, 0.03721276, 0.03721276, 0.0, 0.012207031, 0.012084318 
1.8310547e-2, 3.6375946e+1, -0.00006531777, -10188.408, 8.150735, 0.0, 0.0008978381, 0.006455273, 0.006455273, 0.0, 0.012207031, 0.012084528 
1.8310547e-2, 3.638803e+1, -0.0000035740206, -10171.211, -1.2129266, 0.0, 0.0020762088, 0.00014106862, 0.00014106862, 0.0, 0.012207031, 0.012084732 
1.8310547e-2, 3.6400115e+1, -0.00000079141284, -10177.893, -0.46592718, 0.0, 0.0014253372, 0.00002053797, 0.00002053797, 0.0, 0.012207031, 0.012084653 
1.8310547e-2, 3.64122e+1, -0.000002179626, -10146.044, 1.3143227, 0.0, 0.0009468667, 0.00016807829, 0.00016807829, 0.0, 0.012207031, 0.01208503 
1.8310547e-2, 3.6424285e+1, -0.00000091685416, -10160.245, 0.25863585, 0.0, 0.001603779, 0.000005666894, 0.000005666894, 0.0, 0.012207031, 0.012084861 
1.8310547e-2, 3.643637e+1, -0.00000396928, -10137.385, -1.8941972, 0.0, 0.0015195041, 0.0003499665, 0.0003499665, 0.0, 0.012207031, 0.012085132 
1.8310547e-2, 3.6448455e+1, -0.0000585707, -10119.301, 7.7152596, 0.0, 0.001678868, 0.0058237724, 0.0058237724, 0.0, 0.012207031, 0.0120853465 
1.8310547e-2, 3.646054e+1, -0.000013336306, -10108.26, -3.69948, 0.0, 0.0010396705, 0.0013406209, 0.0013406209, 0.0, 0.012207031, 0.012085477 
1.8310547e-2, 3.6472625e+1, -0.000010338486, -10100.864, 3.186087, 0.0, 0.0012016556, 0.0009946397, 0.0009946397, 0.0, 0.012207031, 0.012085565 
1.8310547e-2, 3.648471e+1, -0.0013558931, -10106.964, 37.130947, 0.0, 0.0020634523, 0.13505389, 0.13505389, 0.0, 0.012207031, 0.012085493 
1.8310547e-2, 3.6496794e+1, -0.00031839183, -10100.433, 17.994812, 0.0, 0.001361978, 0.031740855, 0.031740855, 0.0, 0.012207031, 0.01208557 
1.8310547e-2, 3.6508885e+1, -0.00005808371, -10067.183, -7.6793337, 0.0, 0.0010507721, 0.005799775, 0.005799775, 0.0, 0.012207031, 0.012085964 
1.8310547e-2, 3.652097e+1, -0.0000013069608, -10082.494, 0.49118134, 0.0, 0.0017270974, 0.000022621556, 0.000022621556, 0.0, 0.012207031, 0.012085782 
1.8310547e-2, 3.6533055e+1, -0.00006841078, -10060.577, 8.3377905, 0.0, 0.0012810952, 0.0068416, 0.0068416, 0.0, 0.012207031, 0.012086042 
1.8310547e-2, 3.654514e+1, -0.000034737757, -10046.304, 5.949488, 0.0, 0.0014029763, 0.003488588, 0.003488588, 0.0, 0.012207031, 0.012086212 
1.8310547e-2, 3.6557227e+1, -0.000013750676, -10038.612, 3.7252657, 0.0, 0.0015952315, 0.0013686718, 0.0013686718, 0.0, 0.012207031, 0.012086303 
1.8310547e-2, 3.6569312e+1, -0.000014115034, -10033.739, -3.7018864, 0.0, 0.0012661769, 0.001351673, 0.001351673, 0.0, 0.012207031, 0.012086361 
1.8310547e-2, 3.6581397e+1, -0.0000044859617, -10016.1875, 2.4717994, 0.0, 0.0015784288, 0.0006055058, 0.0006055058, 0.0, 0.012207031, 0.012086568 
1.8310547e-2, 3.6593488e+1, -0.000014840009, -10018.415, 3.9237661, 0.0, 0.0013279888, 0.0015219237, 0.0015219237, 0.0, 0.012207031, 0.012086541 
1.8310547e-2, 3.6605573e+1, -0.0000027965186, -9995.194, 1.4510393, 0.0, 0.0014444813, 0.00020785621, 0.00020785621, 0.0, 0.012207031, 0.012086817 
1.8310547e-2, 3.661766e+1, -0.0000006658671, -9994.306, 1.2535998, 0.0, 0.0015968734, 0.00015657491, 0.00015657491, 0.0, 0.012207031, 0.012086827 
1.8310547e-2, 3.6629745e+1, -0.0000129956425, -9979.271, -3.623784, 0.0, 0.0011658288, 0.001302913, 0.001302913, 0.0, 0.012207031, 0.012087006 
1.8310547e-2, 3.6641833e+1, 0.0000003608883, -9974.447, 1.2412248, 0.0, 0.0016064865, 0.00015481947, 0.00015481947, 0.0, 0.012207031, 0.012087063 
1.8310547e-2, 3.6653918e+1, -0.000004486415, -9959.2295, 2.3820202, 0.0, 0.0013378502, 0.00056523836, 0.00056523836, 0.0, 0.012207031, 0.012087244 
1.8310547e-2, 3.666601e+1, -0.0000035426585, -9953.777, -2.1559641, 0.0, 0.0014651824, 0.00046343394, 0.00046343394, 0.0, 0.012207031, 0.012087308 
1.8310547e-2, 3.6678097e+1, -0.0000037779664, -9935.054, 2.0943255, 0.0, 0.0015725187, 0.00043770927, 0.00043770927, 0.0, 0.012207031, 0.0120875295 
1.8310547e-2, 3.6690181e+1, -0.0000022804209, -9943.142, -1.5486155, 0.0, 0.0009025664, 0.00023891192, 0.00023891192, 0.0, 0.012207031, 0.012087434 
1.8310547e-2, 3.670227e+1, -0.0000009544582, -9917.1875, 0.5163936, 0.0, 0.0019486058, 0.00002593445, 0.00002593445, 0.0, 0.012207031, 0.012087742 
1.8310547e-2, 3.671436e+1, -0.000014732901, -9919.145, 3.8332074, 0.0, 0.0016154612, 0.001466592, 0.001466592, 0.0, 0.012207031, 0.012087719 
1.8310547e-2, 3.6726448e+1, -0.0000070581373, -9897.4795, 2.7272983, 0.0, 0.0008977114, 0.0007444621, 0.0007444621, 0.0, 0.012207031, 0.012087975 
1.8310547e-2, 3.6738533e+1, -0.0000005596721, -9896.899, -0.29051548, 0.0, 0.0016905172, 0.000007968178, 0.000007968178, 0.0, 0.012207031, 0.012087982 
1.8310547e-2, 3.675062e+1, -0.0000019968882, -9884.425, 1.4597594, 0.0, 0.0012996409, 0.00021358443, 0.00021358443, 0.0, 0.012207031, 0.01208813 
1.8310547e-2, 3.676271e+1, -0.000030017556, -9875.04, -5.518179, 0.0, 0.001680801, 0.0030535432, 0.0030535432, 0.0, 0.012207031, 0.012088241 
1.8310547e-2, 3.67748e+1, -0.00034671725, -9863.304, 18.77243, 0.0, 0.0013785342, 0.035381973, 0.035381973, 0.0, 0.012207031, 0.012088381 
1.8310547e-2, 3.6786887e+1, -0.000018038707, -9855.936, -4.324114, 0.0, 0.0008534737, 0.0018790876, 0.0018790876, 0.0, 0.012207031, 0.012088467 
1.8310547e-2, 3.6798978e+1, -0.0000039802935, -9838.443, 2.2384608, 0.0, 0.002109966, 0.00050531834, 0.00050531834, 0.0, 0.012207031, 0.012088675 
1.8310547e-2, 3.6811066e+1, -0.0000026453877, -9840.006, 0.8749206, 0.0, 0.0013790133, 0.000075147866, 0.000075147866, 0.0, 0.012207031, 0.012088656 
1.8310547e-2, 3.6823153e+1, -0.000036892925, -9820.586, -6.118413, 0.0, 0.0012049119, 0.0037749938, 0.0037749938, 0.0, 0.012207031, 0.012088886 
1.8310547e-2, 3.6835244e+1, -0.0005172374, -9825.456, 22.929497, 0.0, 0.0015007119, 0.05299264, 0.05299264, 0.0, 0.012207031, 0.012088829 
1.8310547e-2, 3.6847332e+1, -0.000011915413, -9804.84, -3.4689755, 0.0, 0.0013520122, 0.0012154162, 0.0012154162, 0.0, 0.012207031, 0.012089074 
1.8310547e-2, 3.685942e+1, -0.00016848816, -9786.335, 13.085595, 0.0, 0.0017301256, 0.017328614, 0.017328614, 0.0, 0.012207031, 0.0120892925 
1.8310547e-2, 3.687151e+1, -0.00004940484, -9777.038, -7.095721, 0.0, 0.0011233847, 0.005100338, 0.005100338, 0.0, 0.012207031, 0.012089403 
1.8310547e-2, 3.68836e+1, -0.0000010845499, -9760.349, 0.67136544, 0.0, 0.0015491333, 0.00004509531, 0.00004509531, 0.0, 0.012207031, 0.012089601 
1.8310547e-2, 3.6895686e+1, -0.0012634662, -9784.914, 35.833725, 0.0, 0.0015791764, 0.12996292, 0.12996292, 0.0, 0.012207031, 0.012089309 
1.8310547e-2, 3.690778e+1, -0.000180018, -9764.99, 13.524684, 0.0, 0.0010045997, 0.018551871, 0.018551871, 0.0, 0.012207031, 0.012089546 
1.8310547e-2, 3.6919868e+1, -0.0000049295586, -9739.628, 2.2872303, 0.0, 0.0017277752, 0.0005321979, 0.0005321979, 0.0, 0.012207031, 0.012089847 
1.8310547e-2, 3.6931956e+1, -0.000009357386, -9747.747, -3.077235, 0.0, 0.0016733875, 0.000962085, 0.000962085, 0.0, 0.012207031, 0.012089751 
1.8310547e-2, 3.6944047e+1, -0.00781984, -9715.915, 89.14115, 0.0, 0.0012357697, 0.8099603, 0.8099603, 0.0, 0.012207031, 0.012090128 
1.8310547e-2, 3.6956137e+1, -0.00012342971, -9723.877, 11.199345, 0.0, 0.0011243048, 0.012775247, 0.012775247, 0.0, 0.012207031, 0.012090034 
1.8310547e-2, 3.6968228e+1, -0.000249614, -9715.612, 15.926816, 0.0, 0.0017508563, 0.025859166, 0.025859166, 0.0, 0.012207031, 0.012090132 
1.8310547e-2, 3.698032e+1, -0.000003467916, -9685.361, 1.9655933, 0.0, 0.0015481539, 0.00039543898, 0.00039543898, 0.0, 0.012207031, 0.01209049 
1.8310547e-2, 3.699241e+1, -0.000048069927, -9687.043, -6.993948, 0.0, 0.001193425, 0.0050014877, 0.0050014877, 0.0, 0.012207031, 0.012090471 
1.8310547e-2, 3.7004498e+1, -0.00003110721, -9670.267, 5.6261306, 0.0, 0.001597616, 0.0032421567, 0.0032421567, 0.0, 0.012207031, 0.012090669 
1.8310547e-2, 3.701659e+1, -0.0016865911, -9678.877, 41.396873, 0.0, 0.0013649367, 0.17536597, 0.17536597, 0.0, 0.012207031, 0.0120905675 
1.8310547e-2, 3.702868e+1, -0.00018703047, -9660.605, 13.782361, 0.0, 0.0014396778, 0.019475618, 0.019475618, 0.0, 0.012207031, 0.012090784 
1.8310547e-2, 3.704077e+1, -0.00006222041, -9649.801, -7.9476933, 0.0, 0.0014713722, 0.006483592, 0.006483592, 0.0, 0.012207031, 0.012090912 
1.8310547e-2, 3.7052864e+1, -0.000009390371, -9645.111, 3.0155463, 0.0, 0.0014085202, 0.0009334209, 0.0009334209, 0.0, 0.012207031, 0.012090968 
1.8310547e-2, 3.7064952e+1, -0.000010081524, -9633.534, 3.2185102, 0.0, 0.001520141, 0.0010652047, 0.0010652047, 0.0, 0.012207031, 0.012091105 
1.8310547e-2, 3.7077045e+1, -0.0000042919055, -9613.377, -2.3867712, 0.0, 0.0012892383, 0.0005882862, 0.0005882862, 0.0, 0.012207031, 0.012091344 
1.8310547e-2, 3.7089133e+1, -0.00000057829925, -9614.737, 0.26483613, 0.0, 0.0014941632, 0.000006716564, 0.000006716564, 0.0, 0.012207031, 0.012091328 
1.8310547e-2, 3.7101227e+1, -0.0000022677284, -9598.542, -0.8353884, 0.0, 0.0015760235, 0.0000704385, 0.0000704385, 0.0, 0.012207031, 0.01209152 
1.8310547e-2, 3.711332e+1, -0.0000031120421, -9593.102, 1.8429748, 0.0, 0.0013434793, 0.00035095031, 0.00035095031, 0.0, 0.012207031, 0.0120915845 
1.8310547e-2, 3.7125412e+1, -0.0000013201634, -9575.244, 0.65746784, 0.0, 0.0013830975, 0.000043823748, 0.000043823748, 0.0, 0.012207031, 0.012091797 
1.8310547e-2, 3.71375e+1, -0.00004144829, -9576.808, 6.4899287, 0.0, 0.0013936589, 0.0043565887, 0.0043565887, 0.0, 0.012207031, 0.012091778 
1.8310547e-2, 3.7149593e+1, -0.0002889704, -9557.05, 17.132116, 0.0, 0.001704086, 0.03042223, 0.03042223, 0.0, 0.012207031, 0.012092013 
1.8310547e-2, 3.7161687e+1, -0.000034123404, -9551.381, 5.8888297, 0.0, 0.0014681345, 0.003596587, 0.003596587, 0.0, 0.012207031, 0.01209208 
1.8310547e-2, 3.7173778e+1, -0.000000665851, -9539.633, -0.44711518, 0.0, 0.0009217305, 0.000020290094, 0.000020290094, 0.0, 0.012207031, 0.01209222 
1.8310547e-2, 3.7185872e+1, -0.0000019369904, -9538.859, -0.8246802, 0.0, 0.0016304923, 0.00006936057, 0.00006936057, 0.0, 0.012207031, 0.012092228 
1.8310547e-2, 3.7197962e+1, -0.0000015797024, -9518.099, -1.3810167, 0.0, 0.0018978624, 0.00019879719, 0.00019879719, 0.0, 0.012207031, 0.012092475 
1.8310547e-2, 3.7210056e+1, -0.000001297576, -9515.49, 0.4981028, 0.0, 0.0011885422, 0.000024776373, 0.000024776373, 0.0, 0.012207031, 0.012092506 
1.8310547e-2, 3.722215e+1, -0.00001315624, -9498.461, 3.5894768, 0.0, 0.001165715, 0.00134331, 0.00134331, 0.0, 0.012207031, 0.012092708 
1.8310547e-2, 3.723424e+1, -0.0000030119443, -9497.169, -1.7632518, 0.0, 0.0014815942, 0.0003243547, 0.0003243547, 0.0, 0.012207031, 0.0120927235 
1.8310547e-2, 3.7246335e+1, -0.000010155189, -9479.478, -3.1402152, 0.0, 0.0018746348, 0.0010300869, 0.0010300869, 0.0, 0.012207031, 0.012092933 
1.8310547e-2, 3.7258425e+1, -0.0000024231465, -9477.901, 1.4644189, 0.0, 0.0013140031, 0.0002238424, 0.0002238424, 0.0, 0.012207031, 0.012092952 
1.8310547e-2, 3.727052e+1, -0.0000045245756, -9460.615, 2.3383822, 0.0, 0.001004889, 0.00057345384, 0.00057345384, 0.0, 0.012207031, 0.012093157 
1.8310547e-2, 3.7282613e+1, -0.00000054222926, -9454.531, 0.34246948, 0.0, 0.0017147713, 0.0000118629705, 0.0000118629705, 0.0, 0.012207031, 0.012093229 
1.8310547e-2, 3.7294704e+1, -0.000011203042, -9441.707, -3.4517555, 0.0, 0.0015355751, 0.0012507102, 0.0012507102, 0.0, 0.012207031, 0.012093381 
1.8310547e-2, 3.73068e+1, -0.0000006630254, -9435.108, 0.039797474, 0.0, 0.0013230762, -0.00000049515984, -0.00000049515984, 0.0, 0.012207031, 0.01209346 
1.8310547e-2, 3.7318894e+1, -0.0000010157669, -9426.455, 1.1886992, 0.0, 0.0014572869, 0.00014888214, 0.00014888214, 0.0, 0.012207031, 0.012093563 
1.8310547e-2, 3.7330985e+1, -0.00014736003, -9419.453, 12.233743, 0.0, 0.0013269002, 0.015741484, 0.015741484, 0.0, 0.012207031, 0.0120936455 
1.8310547e-2, 3.734308e+1, -0.000003707527, -9398.165, 2.2234192, 0.0, 0.0016573013, 0.00052230933, 0.00052230933, 0.0, 0.012207031, 0.012093898 
1.8310547e-2, 3.7355176e+1, -0.0000042970155, -9389.225, -2.2184336, 0.0, 0.0014193681, 0.00051986205, 0.00051986205, 0.0, 0.012207031, 0.012094004 
1.8310547e-2, 3.7367266e+1, -0.0000009216054, -9382.114, 0.54824173, 0.0, 0.0011857862, 0.000031114778, 0.000031114778, 0.0, 0.012207031, 0.012094089 
1.8310547e-2, 3.7379363e+1, -0.00025453843, -9384.249, 16.077652, 0.0, 0.0016209508, 0.027290566, 0.027290566, 0.0, 0.012207031, 0.012094064 
1.8310547e-2, 3.7391457e+1, -0.00001613765, -9366.762, 4.0623946, 0.0, 0.0013994242, 0.0017457356, 0.0017457356, 0.0, 0.012207031, 0.012094271 
1.8310547e-2, 3.7403548e+1, -0.0000020260138, -9351.277, -1.4072086, 0.0, 0.0012908566, 0.00020973501, 0.00020973501, 0.0, 0.012207031, 0.012094455 
1.8310547e-2, 3.7415645e+1, -0.00000092183546, -9351.145, 0.3980789, 0.0, 0.0017191623, 0.000016024414, 0.000016024414, 0.0, 0.012207031, 0.012094457 
1.8310547e-2, 3.7427738e+1, -0.0000036106485, -9335.917, -2.0973287, 0.0, 0.0013311288, 0.0004675576, 0.0004675576, 0.0, 0.012207031, 0.012094637 
1.8310547e-2, 3.7439835e+1, -0.000007998042, -9329.46, 2.798794, 0.0, 0.0013028424, 0.0008316268, 0.0008316268, 0.0, 0.012207031, 0.012094714 
1.8310547e-2, 3.7451932e+1, -0.000004639434, -9318.785, 2.3035867, 0.0, 0.0015563556, 0.0005648029, 0.0005648029, 0.0, 0.012207031, 0.01209484 
1.8310547e-2, 3.7464023e+1, -0.000010808336, -9307.927, -3.3452048, 0.0, 0.0013550067, 0.001191435, 0.001191435, 0.0, 0.012207031, 0.01209497 
1.8310547e-2, 3.747612e+1, -0.0000006631689, -9284.842, 0.4547523, 0.0, 0.0015621517, 0.000021609654, 0.000021609654, 0.0, 0.012207031, 0.012095244 
1.8310547e-2, 3.7488216e+1, -0.000016393946, -9288.568, 4.0303483, 0.0, 0.0012776912, 0.0017323908, 0.0017323908, 0.0, 0.012207031, 0.0120952 
1.8310547e-2, 3.750031e+1, -0.000100196026, -9279.551, 10.084429, 0.0, 0.0012884722, 0.010858911, 0.010858911, 0.0, 0.012207031, 0.012095307 
1.8310547e-2, 3.7512407e+1, -0.00003017034, -9275.11, 5.5317626, 0.0, 0.0018472848, 0.0032690237, 0.0032690237, 0.0, 0.012207031, 0.012095359 
1.8310547e-2, 3.75245e+1, -0.000013383082, -9248.569, -3.7154884, 0.0, 0.0012940789, 0.0014792641, 0.0014792641, 0.0, 0.012207031, 0.012095675 
1.8310547e-2, 3.7536597e+1, -0.0000027124252, -9255.933, 1.6398478, 0.0, 0.0012522724, 0.00028781482, 0.00028781482, 0.0, 0.012207031, 0.012095587 
1.8310547e-2, 3.754869e+1, -0.0002587808, -9240.799, 16.210653, 0.0, 0.0015881602, 0.028178638, 0.028178638, 0.0, 0.012207031, 0.012095767 
1.8310547e-2, 3.7560788e+1, -0.0000007577073, -9234.745, 0.4950387, 0.0, 0.001350078, 0.000025779387, 0.000025779387, 0.0, 0.012207031, 0.012095839 
1.8310547e-2, 3.7572885e+1, -0.0000049688356, -9207.791, 2.2412887, 0.0, 0.0014817304, 0.00054058817, 0.00054058817, 0.0, 0.012207031, 0.012096159 
1.8310547e-2, 3.758498e+1, -0.0000032154358, -9214.621, 1.8865615, 0.0, 0.0014187476, 0.00038303097, 0.00038303097, 0.0, 0.012207031, 0.012096078 
1.8310547e-2, 3.7597075e+1, -0.0000011062695, -9195.322, -0.77485675, 0.0, 0.0013668751, 0.00006418812, 0.00006418812, 0.0, 0.012207031, 0.012096307 
1.8310547e-2, 3.7609172e+1, -0.000032994496, -9199.071, 5.788905, 0.0, 0.0015406153, 0.0036099174, 0.0036099174, 0.0, 0.012207031, 0.012096263 
1.8310547e-2, 3.762127e+1, -0.0000005207902, -9170.129, 0.005860278, 0.0, 0.0014897864, -0.0000005170441, -0.0000005170441, 0.0, 0.012207031, 0.012096606 
1.8310547e-2, 3.7633365e+1, -0.0000024987974, -9179.576, 1.5207117, 0.0, 0.0012533001, 0.0002494261, 0.0002494261, 0.0, 0.012207031, 0.012096494 
1.8310547e-2, 3.7645462e+1, -0.0000019954089, -9154.473, 1.4036709, 0.0, 0.0014358315, 0.00021323185, 0.00021323185, 0.0, 0.012207031, 0.012096792 
1.8310547e-2, 3.765756e+1, -0.0000028179006, -9153.783, -0.87984437, 0.0, 0.0016058959, 0.00008175108, 0.00008175108, 0.0, 0.012207031, 0.012096801 
1.8310547e-2, 3.7669656e+1, -0.0007695505, -9133.619, 27.951275, 0.0, 0.0012682424, 0.0847679, 0.0847679, 0.0, 0.012207031, 0.01209704 
1.8310547e-2, 3.7681752e+1, -0.0001653374, -9140.228, 12.955269, 0.0, 0.0015263474, 0.018197296, 0.018197296, 0.0, 0.012207031, 0.012096962 
1.8310547e-2, 3.7693852e+1, -0.00000048287245, -9113.509, -0.021320542, 0.0, 0.0015992764, -0.00000043299406, -0.00000043299406, 0.0, 0.012207031, 0.012097279 
1.8310547e-2, 3.770595e+1, -0.00000029961387, -9122.082, 0.17018674, 0.0, 0.0010890024, 0.0000028754876, 0.0000028754876, 0.0, 0.012207031, 0.012097177 
1.8310547e-2, 3.7718046e+1, -0.0000026607731, -9095.328, 1.6625406, 0.0, 0.0016265721, 0.00030123602, 0.00030123602, 0.0, 0.012207031, 0.012097495 
1.8310547e-2, 3.773014e+1, -0.00000017388659, -9101.897, 1.2749344, 0.0, 0.001433564, 0.00017841063, 0.00017841063, 0.0, 0.012207031, 0.012097417 
1.8310547e-2, 3.7742242e+1, -0.0000036951, -9070.98, -1.9987583, 0.0, 0.0012657382, 0.00043672413, 0.00043672413, 0.0, 0.012207031, 0.012097784 
1.8310547e-2, 3.7754336e+1, -0.0000088601655, -9080.5205, 2.8352752, 0.0, 0.0017112595, 0.00087641773, 0.00087641773, 0.0, 0.012207031, 0.012097671 
1.8310547e-2, 3.7766433e+1, -0.00000043339867, -9059.303, 0.007952477, 0.0, 0.0012889147, -0.0000004264166, -0.0000004264166, 0.0, 0.012207031, 0.012097923 
1.8310547e-2, 3.7778533e+1, -0.0000024787646, -9061.183, -1.4431931, 0.0, 0.0014421166, 0.00022738153, 0.00022738153, 0.0, 0.012207031, 0.012097901 
1.8310547e-2, 3.779063e+1, -0.0000027845942, -9033.306, 1.884946, 0.0, 0.0015667337, 0.00039054, 0.00039054, 0.0, 0.012207031, 0.012098232 
1.8310547e-2, 3.7802732e+1, -0.0000008691078, -9038.515, -0.38252026, 0.0, 0.0012399076, 0.000015319585, 0.000015319585, 0.0, 0.012207031, 0.01209817 
1.8310547e-2, 3.7814826e+1, -0.0000005954904, -9017.153, -0.1836215, 0.0, 0.0015271103, 0.0000031436994, 0.0000031436994, 0.0, 0.012207031, 0.012098424 
1.8310547e-2, 3.7826928e+1, -0.00000045734865, -9023.037, -1.1172973, 0.0, 0.0014221462, 0.00013789444, 0.00013789444, 0.0, 0.012207031, 0.012098354 
1.8310547e-2, 3.7839022e+1, -0.0000008550338, -8996.064, 0.42504606, 0.0, 0.0015274337, 0.00001922754, 0.00001922754, 0.0, 0.012207031, 0.012098675 
1.8310547e-2, 3.7851125e+1, -0.0000022901943, -9008.6875, -1.3402122, 0.0, 0.0013714448, 0.00019709166, 0.00019709166, 0.0, 0.012207031, 0.012098525 
1.8310547e-2, 3.786322e+1, -0.00015544951, -8975.246, 12.563064, 0.0, 0.0012377168, 0.017429613, 0.017429613, 0.0, 0.012207031, 0.012098922 
1.8310547e-2, 3.7875322e+1, -0.0000026075138, -8975.74, 1.7080688, 0.0, 0.0017438445, 0.00032243523, 0.00032243523, 0.0, 0.012207031, 0.012098916 
1.8310547e-2, 3.788742e+1, -0.0000023697767, -8958.546, 1.3744396, 0.0, 0.0014745502, 0.00020849972, 0.00020849972, 0.0, 0.012207031, 0.012099121 
1.8310547e-2, 3.7899518e+1, -0.000002363952, -8951.381, 0.8462008, 0.0, 0.0011876256, 0.00007762994, 0.00007762994, 0.0, 0.012207031, 0.0120992055 
1.8310547e-2, 3.7911618e+1, -0.00038590442, -8943.728, 19.791153, 0.0, 0.0015841831, 0.043408796, 0.043408796, 0.0, 0.012207031, 0.012099297 
1.8310547e-2, 3.7923717e+1, -0.00012743835, -8945.959, 11.371485, 0.0, 0.0014125035, 0.014327184, 0.014327184, 0.0, 0.012207031, 0.01209927 
1.8310547e-2, 3.7935817e+1, -0.000011504947, -8922.499, -3.3711271, 0.0, 0.0013747081, 0.0012621849, 0.0012621849, 0.0, 0.012207031, 0.012099549 
1.8310547e-2, 3.7947917e+1, -0.0000010987447, -8925.572, -0.5658385, 0.0, 0.0015663117, 0.000034772704, 0.000034772704, 0.0, 0.012207031, 0.012099513 
1.8310547e-2, 3.7960014e+1, -0.0000018370946, -8900.052, 1.5628572, 0.0, 0.001323179, 0.00027260202, 0.00027260202, 0.0, 0.012207031, 0.0120998155 
1.8310547e-2, 3.7972113e+1, -0.0000031863813, -8897.707, -0.96556914, 0.0, 0.0014806598, 0.000101596095, 0.000101596095, 0.0, 0.012207031, 0.0120998435 
1.8310547e-2, 3.7984216e+1, -0.0000027003694, -8890.006, -1.0497888, 0.0, 0.0015994697, 0.00012126541, 0.00012126541, 0.0, 0.012207031, 0.012099936 
1.8310547e-2, 3.7996316e+1, -0.00001954963, -8877.134, 4.4474125, 0.0, 0.0012537988, 0.0022085872, 0.0022085872, 0.0, 0.012207031, 0.012100088 
1.8310547e-2, 3.8008416e+1, -0.000016539969, -8857.807, 4.0842075, 0.0, 0.0013384953, 0.0018666291, 0.0018666291, 0.0, 0.012207031, 0.012100318 
1.8310547e-2, 3.8020515e+1, -0.0000027210715, -8848.689, -1.7584084, 0.0, 0.0016196953, 0.00034670925, 0.00034670925, 0.0, 0.012207031, 0.0121004265 
1.8310547e-2, 3.8032615e+1, -0.00038157043, -8840.385, 19.676527, 0.0, 0.0015493836, 0.043413337, 0.043413337, 0.0, 0.012207031, 0.012100525 
1.8310547e-2, 3.8044715e+1, -0.0010930151, -8847.973, 33.30254, 0.0, 0.001258957, 0.124251366, 0.124251366, 0.0, 0.012207031, 0.012100435 
1.8310547e-2, 3.8056815e+1, -0.000046930338, -8835.098, 6.9033055, 0.0, 0.0013309431, 0.0053469655, 0.0053469655, 0.0, 0.012207031, 0.0121005885 
1.8310547e-2, 3.806892e+1, -0.000021474327, -8820.452, -4.674605, 0.0, 0.0016879501, 0.002455941, 0.002455941, 0.0, 0.012207031, 0.012100763 
1.8310547e-2, 3.808102e+1, -0.000008295283, -8816.522, 2.7350373, 0.0, 0.001289032, 0.0008401603, 0.0008401603, 0.0, 0.012207031, 0.012100809 
1.8310547e-2, 3.809312e+1, -0.000011384208, -8801.284, 3.2993176, 0.0, 0.0013898837, 0.0012254235, 0.0012254235, 0.0, 0.012207031, 0.01210099 
1.8310547e-2, 3.810522e+1, -0.0000008304148, -8783.817, 0.47008792, 0.0, 0.0018094243, 0.000024327515, 0.000024327515, 0.0, 0.012207031, 0.012101198 
1.8310547e-2, 3.8117322e+1, -0.000012551538, -8776.383, -3.5393221, 0.0, 0.0011101903, 0.0014147789, 0.0014147789, 0.0, 0.012207031, 0.012101286 
1.8310547e-2, 3.8129425e+1, -0.0000022814506, -8775.344, 1.4632832, 0.0, 0.0012432899, 0.00024172012, 0.00024172012, 0.0, 0.012207031, 0.012101299 
1.8310547e-2, 3.8141525e+1, -0.000007865947, -8759.238, 2.6620908, 0.0, 0.0017893413, 0.0008011915, 0.0008011915, 0.0, 0.012207031, 0.01210149 
1.8310547e-2, 3.8153625e+1, -0.000021070437, -8748.232, -4.6187625, 0.0, 0.0013952303, 0.0024174748, 0.0024174748, 0.0, 0.012207031, 0.012101621 
1.8310547e-2, 3.816573e+1, -0.000005622012, -8736.654, 2.4418082, 0.0, 0.0014050589, 0.00067683915, 0.00067683915, 0.0, 0.012207031, 0.012101759 
1.8310547e-2, 3.817783e+1, -0.0000013304345, -8735.362, 1.23864, 0.0, 0.001259658, 0.00017430384, 0.00017430384, 0.0, 0.012207031, 0.012101774 
1.8310547e-2, 3.8189933e+1, -0.000012346797, -8716.281, -3.548277, 0.0, 0.001583203, 0.0014321071, 0.0014321071, 0.0, 0.012207031, 0.012102001 
1.8310547e-2, 3.8202035e+1, -0.000027687, -8715.408, 5.2912865, 0.0, 0.0015787163, 0.0031847502, 0.0031847502, 0.0, 0.012207031, 0.012102012 
1.8310547e-2, 3.8214138e+1, -0.000008689234, -8700.745, -3.0240886, 0.0, 0.00113263, 0.0010423829, 0.0010423829, 0.0, 0.012207031, 0.012102186 
1.8310547e-2, 3.8226238e+1, -0.0000013115451, -8689.713, 1.4237326, 0.0, 0.0017592435, 0.00023195446, 0.00023195446, 0.0, 0.012207031, 0.012102317 
1.8310547e-2, 3.8238344e+1, -0.00018096325, -8680.762, 13.550531, 0.0, 0.0013981832, 0.02097115, 0.02097115, 0.0, 0.012207031, 0.012102424 
1.8310547e-2, 3.8250443e+1, -0.000024845524, -8673.517, 5.0213933, 0.0, 0.00091065874, 0.0028822084, 0.0028822084, 0.0, 0.012207031, 0.01210251 
1.8310547e-2, 3.8262546e+1, -0.000020759506, -8655.521, -4.6003165, 0.0, 0.001882612, 0.0024242585, 0.0024242585, 0.0, 0.012207031, 0.012102724 
1.8310547e-2, 3.8274652e+1, -0.000017355334, -8656.703, 4.2116065, 0.0, 0.0016219667, 0.0020316497, 0.0020316497, 0.0, 0.012207031, 0.01210271 
1.8310547e-2, 3.8286752e+1, -0.00012133643, -8643.878, 11.096255, 0.0, 0.0011735476, 0.014123045, 0.014123045, 0.0, 0.012207031, 0.012102863 
1.8310547e-2, 3.8298854e+1, -0.000018997756, -8636.75, 4.3832016, 0.0, 0.0012963876, 0.0022055022, 0.0022055022, 0.0, 0.012207031, 0.012102948 
1.8310547e-2, 3.831096e+1, -0.0000021923697, -8619.324, -1.3812519, 0.0, 0.0015750434, 0.00021915408, 0.00021915408, 0.0, 0.012207031, 0.012103154 
1.8310547e-2, 3.832306e+1, -0.0000026608097, -8615.568, 1.7559094, 0.0, 0.0016075072, 0.00035520506, 0.00035520506, 0.0, 0.012207031, 0.012103199 
1.8310547e-2, 3.8335162e+1, -0.000002596733, -8609.728, -1.573528, 0.0, 0.0011455045, 0.00028498383, 0.00028498383, 0.0, 0.012207031, 0.012103269 
1.8310547e-2, 3.8347268e+1, -0.0000036075246, -8589.925, -0.9356608, 0.0, 0.0016679312, 0.00009830967, 0.00009830967, 0.0, 0.012207031, 0.0121035045 
1.8310547e-2, 3.835937e+1, -0.0000028495767, -8582.413, 1.8548384, 0.0, 0.0014712708, 0.00039801962, 0.00039801962, 0.0, 0.012207031, 0.012103594 
1.8310547e-2, 3.8371477e+1, -0.000003734355, -8578.685, -2.1820874, 0.0, 0.0009877457, 0.0005513047, 0.0005513047, 0.0, 0.012207031, 0.012103639 
1.8310547e-2, 3.838358e+1, -0.000011817606, -8561.912, 3.5086267, 0.0, 0.0018472091, 0.0014259991, 0.0014259991, 0.0, 0.012207031, 0.012103838 
1.8310547e-2, 3.8395682e+1, -0.0000003743808, -8553.405, -0.10088216, 0.0, 0.0013520557, 0.00000081546204, 0.00000081546204, 0.0, 0.012207031, 0.012103939 
1.8310547e-2, 3.8407788e+1, -0.000007843592, -8543.455, -2.789698, 0.0, 0.0012510307, 0.0009030775, 0.0009030775, 0.0, 0.012207031, 0.012104058 
1.8310547e-2, 3.841989e+1, -0.00019879287, -8543.413, 14.196933, 0.0, 0.0018191424, 0.023392757, 0.023392757, 0.0, 0.012207031, 0.012104058 
1.8310547e-2, 3.8431996e+1, -0.000037706002, -8520.876, 6.184355, 0.0, 0.0013005289, 0.004450826, 0.004450826, 0.0, 0.012207031, 0.012104326 
1.8310547e-2, 3.84441e+1, -0.000035832767, -8508.76, 6.0333405, 0.0, 0.0010765648, 0.00424225, 0.00424225, 0.0, 0.012207031, 0.01210447 
1.8310547e-2, 3.8456205e+1, -0.00004033291, -8507.952, -6.395112, 0.0, 0.0015997008, 0.0047666333, 0.0047666333, 0.0, 0.012207031, 0.0121044805 
1.8310547e-2, 3.8468307e+1, -0.00003287748, -8483.397, 5.7725573, 0.0, 0.0018196433, 0.0038950774, 0.0038950774, 0.0, 0.012207031, 0.012104772 
1.8310547e-2, 3.8480413e+1, -0.0011022051, -8494.664, 33.433643, 0.0, 0.0011788318, 0.13048525, 0.13048525, 0.0, 0.012207031, 0.012104638 
1.8310547e-2, 3.8492516e+1, -0.00023233017, -8483.933, 15.349912, 0.0, 0.0012128178, 0.027540052, 0.027540052, 0.0, 0.012207031, 0.012104766 
1.8310547e-2, 3.8504624e+1, -0.00005738624, -8461.063, -7.6271977, 0.0, 0.0017702691, 0.0068181204, 0.0068181204, 0.0, 0.012207031, 0.012105038 
1.8310547e-2, 3.8516727e+1, -0.0000017163529, -8465.25, 1.200499, 0.0, 0.0011939851, 0.00016853237, 0.00016853237, 0.0, 0.012207031, 0.012104988 
1.8310547e-2, 3.8528833e+1, -0.000008128951, -8455.708, 2.7488923, 0.0, 0.00129388, 0.0008855169, 0.0008855169, 0.0, 0.012207031, 0.012105102 
1.8310547e-2, 3.8540938e+1, -0.000003198898, -8432.663, -1.8460759, 0.0, 0.0020538575, 0.0004009434, 0.0004009434, 0.0, 0.012207031, 0.012105376 
1.8310547e-2, 3.8553044e+1, -0.0000010932738, -8423.338, 0.60957646, 0.0, 0.0012895602, 0.000043020293, 0.000043020293, 0.0, 0.012207031, 0.012105487 
1.8310547e-2, 3.8565147e+1, -0.000025915253, -8415.476, 5.1315393, 0.0, 0.0007558368, 0.0031031638, 0.0031031638, 0.0, 0.012207031, 0.012105581 
1.8310547e-2, 3.8577256e+1, -0.000010488585, -8410.469, -3.2591014, 0.0, 0.0018419699, 0.0012524303, 0.0012524303, 0.0, 0.012207031, 0.012105641 
1.8310547e-2, 3.8589358e+1, -0.0000001740587, -8388.367, 0.07428831, 0.0, 0.0017465008, 0.0000004838457, 0.0000004838457, 0.0, 0.012207031, 0.012105904 
1.8310547e-2, 3.8601467e+1, -0.00066586875, -8395.365, 25.984383, 0.0, 0.0010601333, 0.07975728, 0.07975728, 0.0, 0.012207031, 0.012105821 
1.8310547e-2, 3.861357e+1, -0.00016188477, -8380.027, 12.810617, 0.0, 0.0016217176, 0.019421767, 0.019421767, 0.0, 0.012207031, 0.012106003 
1.8310547e-2, 3.8625678e+1, -0.00006109418, -8369.368, -7.8737025, 0.0, 0.0015092172, 0.007346292, 0.007346292, 0.0, 0.012207031, 0.01210613 
1.8310547e-2, 3.8637784e+1, -0.00000022983502, -8364.402, -0.011349659, 0.0, 0.0011346396, -0.00000021443338, -0.00000021443338, 0.0, 0.012207031, 0.0121061895 
1.8310547e-2, 3.864989e+1, -0.000022437363, -8354.62, 4.762866, 0.0, 0.0014803793, 0.0026928128, 0.0026928128, 0.0, 0.012207031, 0.012106306 
1.8310547e-2, 3.8661996e+1, -0.0000016975522, -8332.678, 1.5331291, 0.0, 0.0017884407, 0.00028038278, 0.00028038278, 0.0, 0.012207031, 0.012106567 
1.8310547e-2, 3.8674104e+1, -0.000002955836, -8330.606, 1.850203, 0.0, 0.0014794247, 0.0004079688, 0.0004079688, 0.0, 0.012207031, 0.012106592 
1.8310547e-2, 3.868621e+1, -0.000021702428, -8318.568, 4.699444, 0.0, 0.00084371114, 0.0026331735, 0.0026331735, 0.0, 0.012207031, 0.012106735 
1.8310547e-2, 3.8698316e+1, -0.000009844104, -8309.484, -3.1375709, 0.0, 0.0014769706, 0.0011748682, 0.0011748682, 0.0, 0.012207031, 0.012106843 
1.8310547e-2, 3.871042e+1, -0.0000030831316, -8304.404, -1.8693957, 0.0, 0.002207646, 0.00041773458, 0.00041773458, 0.0, 0.012207031, 0.012106904 
1.8310547e-2, 3.872253e+1, -0.00007081146, -8292.728, 8.473636, 0.0, 0.0012774076, 0.0085876705, 0.0085876705, 0.0, 0.012207031, 0.012107043 
1.8310547e-2, 3.873464e+1, -0.000015846788, -8277.441, 4.0512652, 0.0, 0.0007096231, 0.001966982, 0.001966982, 0.0, 0.012207031, 0.012107224 
1.8310547e-2, 3.8746747e+1, -0.00001946567, -8272.824, -4.4422493, 0.0, 0.0017049416, 0.0023658834, 0.0023658834, 0.0, 0.012207031, 0.01210728 
1.8310547e-2, 3.8758853e+1, -0.0000023575894, -8261.66, 0.9893025, 0.0, 0.0019400488, 0.00011610763, 0.00011610763, 0.0, 0.012207031, 0.012107412 
1.8310547e-2, 3.877096e+1, -0.00000039635412, -8254.561, 0.060838945, 0.0, 0.0011493148, 0.000000052050382, 0.000000052050382, 0.0, 0.012207031, 0.012107497 
1.8310547e-2, 3.8783064e+1, -0.00003259931, -8240.941, 5.752282, 0.0, 0.001312354, 0.003982565, 0.003982565, 0.0, 0.012207031, 0.012107659 
1.8310547e-2, 3.8795173e+1, -0.000057478694, -8229.913, 7.630529, 0.0, 0.0016128022, 0.0070173126, 0.0070173126, 0.0, 0.012207031, 0.01210779 
1.8310547e-2, 3.8807282e+1, -0.0000035223504, -8221.435, 2.1605926, 0.0, 0.0013306658, 0.0005642812, 0.0005642812, 0.0, 0.012207031, 0.012107892 
1.8310547e-2, 3.881939e+1, -0.00000434622, -8216.501, -2.1424906, 0.0, 0.0014515832, 0.0005543181, 0.0005543181, 0.0, 0.012207031, 0.012107951 
1.8310547e-2, 3.8831496e+1, -0.0000015988386, -8205.938, -0.6679565, 0.0, 0.0015284291, 0.00005277225, 0.00005277225, 0.0, 0.012207031, 0.012108076 
1.8310547e-2, 3.8843608e+1, -0.000001117666, -8189.884, 0.7872384, 0.0, 0.0014270156, 0.000074554264, 0.000074554264, 0.0, 0.012207031, 0.012108267 
1.8310547e-2, 3.8855717e+1, -0.0000034876064, -8184.439, 2.1548946, 0.0, 0.0013654372, 0.0005638781, 0.0005638781, 0.0, 0.012207031, 0.0121083325 
1.8310547e-2, 3.8867825e+1, -0.0000012614685, -8173.9976, -0.8805375, 0.0, 0.0014748289, 0.00009359375, 0.00009359375, 0.0, 0.012207031, 0.012108457 
1.8310547e-2, 3.887993e+1, -0.0000041357803, -8166.695, -2.2806656, 0.0, 0.001472272, 0.0006327725, 0.0006327725, 0.0, 0.012207031, 0.012108544 
1.8310547e-2, 3.889204e+1, -0.000007819625, -8153.361, -2.8081913, 0.0, 0.0014025166, 0.00095938117, 0.00095938117, 0.0, 0.012207031, 0.012108703 
1.8310547e-2, 3.8904148e+1, -0.0007234769, -8143.2505, 27.079079, 0.0, 0.0014704978, 0.089322686, 0.089322686, 0.0, 0.012207031, 0.012108823 
1.8310547e-2, 3.891626e+1, -0.000022624821, -8134.406, -4.79989, 0.0, 0.0014752644, 0.0028096577, 0.0028096577, 0.0, 0.012207031, 0.0121089285 
1.8310547e-2, 3.892837e+1, -0.000002145483, -8126.9087, -1.527988, 0.0, 0.0013439575, 0.00028514053, 0.00028514053, 0.0, 0.012207031, 0.012109018 
1.8310547e-2, 3.8940474e+1, -0.0000008465029, -8106.901, -0.53602123, 0.0, 0.0014840475, 0.000034594756, 0.000034594756, 0.0, 0.012207031, 0.012109256 
1.8310547e-2, 3.8952586e+1, -0.0000005787229, -8113.4263, -0.22262771, 0.0, 0.0014512596, 0.0000055300516, 0.0000055300516, 0.0, 0.012207031, 0.012109179 
1.8310547e-2, 3.8964695e+1, -0.000007998584, -8098.277, -2.8884146, 0.0, 0.0014872858, 0.001022213, 0.001022213, 0.0, 0.012207031, 0.012109359 
1.8310547e-2, 3.8976803e+1, -0.00043286112, -8087.256, 20.943949, 0.0, 0.0013634812, 0.053806316, 0.053806316, 0.0, 0.012207031, 0.01210949 
1.8310547e-2, 3.8988915e+1, -0.0000067976775, -8069.728, -2.5901334, 0.0, 0.0012486026, 0.0008245551, 0.0008245551, 0.0, 0.012207031, 0.0121097 
1.8310547e-2, 3.9001024e+1, -0.000003048447, -8071.7354, -1.8345613, 0.0, 0.0017857001, 0.00041391456, 0.00041391456, 0.0, 0.012207031, 0.012109675 
1.8310547e-2, 3.9013135e+1, -0.0000023277037, -8045.65, 1.450575, 0.0, 0.001715062, 0.00025920093, 0.00025920093, 0.0, 0.012207031, 0.0121099865 
1.8310547e-2, 3.902524e+1, -0.0000033660133, -8050.353, 0.8085037, 0.0, 0.00067759823, 0.00007783269, 0.00007783269, 0.0, 0.012207031, 0.012109931 
1.8310547e-2, 3.9037353e+1, -0.0000061919004, -8035.759, -2.5086937, 0.0, 0.0014514236, 0.0007770003, 0.0007770003, 0.0, 0.012207031, 0.012110104 
1.8310547e-2, 3.9049464e+1, -0.0000017367181, -8033.8516, 1.5357336, 0.0, 0.0020990712, 0.00029183074, 0.00029183074, 0.0, 0.012207031, 0.012110127 
1.8310547e-2, 3.9061573e+1, -0.0000017544509, -8009.7173, 1.2469093, 0.0, 0.0011823241, 0.0001923576, 0.0001923576, 0.0, 0.012207031, 0.012110415 
1.8310547e-2, 3.9073685e+1, -0.000001032921, -8008.651, -0.48381403, 0.0, 0.0012494136, 0.000028194976, 0.000028194976, 0.0, 0.012207031, 0.012110427 
1.8310547e-2, 3.9085796e+1, -0.000041278236, -7995.374, 6.4703345, 0.0, 0.0016315408, 0.0051949, 0.0051949, 0.0, 0.012207031, 0.012110585 
1.8310547e-2, 3.9097905e+1, -0.0000043821206, -7996.1865, -2.2894058, 0.0, 0.0012724961, 0.00065110275, 0.00065110275, 0.0, 0.012207031, 0.012110576 
1.8310547e-2, 3.9110017e+1, -0.0000006624475, -7973.342, -0.20610192, 0.0, 0.0016240657, 0.000004665055, 0.000004665055, 0.0, 0.012207031, 0.012110848 
1.8310547e-2, 3.9122128e+1, -0.000030872605, -7971.0557, 5.600949, 0.0, 0.0013107155, 0.003904693, 0.003904693, 0.0, 0.012207031, 0.012110876 
1.8310547e-2, 3.913424e+1, -0.0000025598345, -7953.5977, -1.8294629, 0.0, 0.0011626275, 0.0004182477, 0.0004182477, 0.0, 0.012207031, 0.012111084 
1.8310547e-2, 3.9146352e+1, -0.000010715, -7954.523, -3.315222, 0.0, 0.0019337765, 0.0013709762, 0.0013709762, 0.0, 0.012207031, 0.012111072 
1.8310547e-2, 3.9158458e+1, -0.00019699277, -7935.9, 14.127218, 0.0, 0.0014835884, 0.024951722, 0.024951722, 0.0, 0.012207031, 0.012111295 
1.8310547e-2, 3.917057e+1, -0.000017111417, -7932.402, 4.185925, 0.0, 0.0009541864, 0.0021917988, 0.0021917988, 0.0, 0.012207031, 0.012111336 
1.8310547e-2, 3.918268e+1, -0.000016655466, -7914.2266, -4.099046, 0.0, 0.0017029463, 0.002106379, 0.002106379, 0.0, 0.012207031, 0.012111553 
1.8310547e-2, 3.9194793e+1, -0.000040189057, -7910.3706, 6.3845725, 0.0, 0.0014239342, 0.0051128864, 0.0051128864, 0.0, 0.012207031, 0.012111599 
1.8310547e-2, 3.9206904e+1, -0.0001040104, -7898.137, 10.265482, 0.0, 0.0012688279, 0.0132383695, 0.0132383695, 0.0, 0.012207031, 0.012111745 
1.8310547e-2, 3.9219016e+1, -0.000005962521, -7896.1553, -2.3250177, 0.0, 0.0017081928, 0.0006786374, 0.0006786374, 0.0, 0.012207031, 0.012111768 
1.8310547e-2, 3.9231128e+1, -0.0000011455779, -7877.99, -0.43905488, 0.0, 0.0012653341, 0.000023323759, 0.000023323759, 0.0, 0.012207031, 0.012111985 
1.8310547e-2, 3.924324e+1, -0.00001165642, -7875.189, 3.4270954, 0.0, 0.0014672115, 0.001479734, 0.001479734, 0.0, 0.012207031, 0.012112019 
1.8310547e-2, 3.9255357e+1, -0.00000089228223, -7858.399, -1.2922901, 0.0, 0.001616029, 0.00021162092, 0.00021162092, 0.0, 0.012207031, 0.012112219 
1.8310547e-2, 3.9267468e+1, -0.0000013816287, -7854.1743, 1.0254685, 0.0, 0.0011622959, 0.00013250714, 0.00013250714, 0.0, 0.012207031, 0.012112269 
1.8310547e-2, 3.927958e+1, -0.0000048169177, -7834.751, 2.2936475, 0.0, 0.0014669058, 0.0006666554, 0.0006666554, 0.0, 0.012207031, 0.012112501 
1.8310547e-2, 3.9291692e+1, -0.000037482037, -7839.7446, -6.161134, 0.0, 0.0015056836, 0.0048044543, 0.0048044543, 0.0, 0.012207031, 0.0121124415 
1.8310547e-2, 3.9303803e+1, -0.0000044642607, -7819.8584, -2.183329, 0.0, 0.0017240768, 0.00060512807, 0.00060512807, 0.0, 0.012207031, 0.012112678 
1.8310547e-2, 3.9315918e+1, -0.000059708935, -7816.8965, 7.778562, 0.0, 0.0011219134, 0.007680699, 0.007680699, 0.0, 0.012207031, 0.012112713 
1.8310547e-2, 3.932803e+1, -0.000015530593, -7802.9575, -3.9522085, 0.0, 0.0009008603, 0.0019862677, 0.0019862677, 0.0, 0.012207031, 0.01211288 
1.8310547e-2, 3.934014e+1, -0.0015097131, -7790.2793, 39.10626, 0.0, 0.0023008105, 0.19479406, 0.19479406, 0.0, 0.012207031, 0.012113031 
1.8310547e-2, 3.9352256e+1, -0.00006878436, -7781.5806, -8.345586, 0.0, 0.0016288792, 0.008881676, 0.008881676, 0.0, 0.012207031, 0.012113135 
1.8310547e-2, 3.9364368e+1, -0.000032979224, -7771.969, 5.776593, 0.0, 0.00071612647, 0.0042605284, 0.0042605284, 0.0, 0.012207031, 0.01211325 
1.8310547e-2, 3.937648e+1, -0.000005006884, -7766.1533, 2.231114, 0.0, 0.0013525089, 0.0006359629, 0.0006359629, 0.0, 0.012207031, 0.012113319 
1.8310547e-2, 3.9388597e+1, -0.00008594364, -7755.0034, 9.327671, 0.0, 0.001894538, 0.011133306, 0.011133306, 0.0, 0.012207031, 0.012113452 
1.8310547e-2, 3.940071e+1, -0.000016888067, -7735.0503, 4.147256, 0.0, 0.0016915135, 0.0022067206, 0.0022067206, 0.0, 0.012207031, 0.01211369 
1.8310547e-2, 3.9412823e+1, -0.0000017846211, -7730.651, 1.369076, 0.0, 0.0009280941, 0.0002406748, 0.0002406748, 0.0, 0.012207031, 0.0121137425 
1.8310547e-2, 3.9424935e+1, -0.0000017841446, -7718.9185, 1.469439, 0.0, 0.0012225175, 0.00027795078, 0.00027795078, 0.0, 0.012207031, 0.012113882 
1.8310547e-2, 3.943705e+1, -0.00065027754, -7721.2354, 25.663261, 0.0, 0.0019562733, 0.084646404, 0.084646404, 0.0, 0.012207031, 0.012113855 
1.8310547e-2, 3.9449164e+1, -0.0001177746, -7705.178, 10.91949, 0.0, 0.0015373086, 0.015356886, 0.015356886, 0.0, 0.012207031, 0.012114046 
1.8310547e-2, 3.9461276e+1, -0.000047366793, -7688.5283, -6.9231834, 0.0, 0.0010936644, 0.0061866525, 0.0061866525, 0.0, 0.012207031, 0.0121142445 
1.8310547e-2, 3.9473394e+1, -0.0000013968591, -7696.54, 1.022562, 0.0, 0.0013216496, 0.00013446069, 0.00013446069, 0.0, 0.012207031, 0.0121141495 
1.8310547e-2, 3.9485508e+1, -0.0000074009226, -7679.378, 2.8016949, 0.0, 0.0017581168, 0.0010147514, 0.0010147514, 0.0, 0.012207031, 0.012114354 
1.8310547e-2, 3.949762e+1, -0.00000058009147, -7660.785, 0.22102007, 0.0, 0.0014423671, 0.0000057965235, 0.0000057965235, 0.0, 0.012207031, 0.012114576 
1.8310547e-2, 3.9509735e+1, -0.0000013509299, -7650.287, 1.291231, 0.0, 0.0013017287, 0.00021658569, 0.00021658569, 0.0, 0.012207031, 0.012114701 
1.8310547e-2, 3.952185e+1, -0.0000010546962, -7647.7866, -0.4748729, 0.0, 0.0014026782, 0.000028431517, 0.000028431517, 0.0, 0.012207031, 0.012114731 
1.8310547e-2, 3.9533967e+1, -0.000011477019, -7643.942, -3.3553622, 0.0, 0.0015107214, 0.0014613825, 0.0014613825, 0.0, 0.012207031, 0.012114777 
1.8310547e-2, 3.954608e+1, -0.0000020371772, -7626.2295, 1.5132957, 0.0, 0.0016010165, 0.00029825064, 0.00029825064, 0.0, 0.012207031, 0.012114989 
1.8310547e-2, 3.9558196e+1, -0.000005106882, -7615.5615, 2.229053, 0.0, 0.0012837994, 0.0006473304, 0.0006473304, 0.0, 0.012207031, 0.012115115 
1.8310547e-2, 3.9570308e+1, -0.0002561015, -7605.343, 16.102924, 0.0, 0.0012585009, 0.033838745, 0.033838745, 0.0, 0.012207031, 0.012115237 
1.8310547e-2, 3.9582425e+1, -0.00004210282, -7597.995, -6.535817, 0.0, 0.0017510087, 0.0055800215, 0.0055800215, 0.0, 0.012207031, 0.012115325 
1.8310547e-2, 3.959454e+1, -0.0000011945878, -7586.632, -0.8968638, 0.0, 0.001330178, 0.00010482937, 0.00010482937, 0.0, 0.012207031, 0.012115461 
1.8310547e-2, 3.9606655e+1, -0.000005882111, -7573.4834, 2.3879771, 0.0, 0.001353694, 0.00074706523, 0.00074706523, 0.0, 0.012207031, 0.012115618 
1.8310547e-2, 3.961877e+1, -0.000012845966, -7573.268, 3.5858638, 0.0, 0.0017287838, 0.001685023, 0.001685023, 0.0, 0.012207031, 0.01211562 
1.8310547e-2, 3.9630887e+1, -0.0000040513737, -7557.6567, -2.029486, 0.0, 0.0012389671, 0.0005409341, 0.0005409341, 0.0, 0.012207031, 0.012115806 
1.8310547e-2, 3.9643005e+1, -0.000008258602, -7543.522, -2.8801851, 0.0, 0.0012199169, 0.0010914222, 0.0010914222, 0.0, 0.012207031, 0.012115976 
1.8310547e-2, 3.9655122e+1, -0.000002074462, -7542.5405, -1.5864545, 0.0, 0.0017123008, 0.0003316112, 0.0003316112, 0.0, 0.012207031, 0.012115987 
1.8310547e-2, 3.9667237e+1, -0.0000021009193, -7535.5225, 1.4767498, 0.0, 0.0015876256, 0.00028730038, 0.00028730038, 0.0, 0.012207031, 0.012116071 
1.8310547e-2, 3.967935e+1, -0.000025692989, -7525.99, -5.0937977, 0.0, 0.0013248165, 0.0034219283, 0.0034219283, 0.0, 0.012207031, 0.012116184 
1.8310547e-2, 3.9691466e+1, -0.0028133432, -7511.694, 53.37084, 0.0, 0.0010227426, 0.37636927, 0.37636927, 0.0, 0.012207031, 0.012116356 
1.8310547e-2, 3.9703587e+1, -0.000053818083, -7490.4526, -7.3790703, 0.0, 0.0017732005, 0.007215519, 0.007215519, 0.0, 0.012207031, 0.012116609 
1.8310547e-2, 3.97157e+1, -0.0002264039, -7480.314, 15.140274, 0.0, 0.0018785998, 0.030417627, 0.030417627, 0.0, 0.012207031, 0.01211673 
1.8310547e-2, 3.972782e+1, -0.000106575884, -7459.651, -10.386048, 0.0, 0.0009545569, 0.014353858, 0.014353858, 0.0, 0.012207031, 0.012116977 
1.8310547e-2, 3.9739934e+1, -0.000005110418, -7462.959, 2.189447, 0.0, 0.0012462187, 0.00063721894, 0.00063721894, 0.0, 0.012207031, 0.012116937 
1.8310547e-2, 3.975205e+1, -0.00247642, -7482.651, 50.072216, 0.0, 0.001807876, 0.33258072, 0.33258072, 0.0, 0.012207031, 0.012116702 
1.8310547e-2, 3.976417e+1, -0.0010400778, -7445.8027, 32.449013, 0.0, 0.0014011356, 0.14037094, 0.14037094, 0.0, 0.012207031, 0.012117142 
1.8310547e-2, 3.9776286e+1, -0.00027067342, -7423.744, -16.551743, 0.0, 0.0012552899, 0.03663238, 0.03663238, 0.0, 0.012207031, 0.012117405 
1.8310547e-2, 3.97884e+1, -0.0000063696502, -7440.9136, 2.4248848, 0.0, 0.0017497042, 0.00078386464, 0.00078386464, 0.0, 0.012207031, 0.0121172005 
1.8310547e-2, 3.9800522e+1, -0.001653216, -7440.869, 40.910767, 0.0, 0.0013287805, 0.22327222, 0.22327222, 0.0, 0.012207031, 0.0121172005 
1.8310547e-2, 3.9812636e+1, -0.00023314473, -7406.497, 15.3618555, 0.0, 0.0010898592, 0.03162883, 0.03162883, 0.0, 0.012207031, 0.012117611 
1.8310547e-2, 3.9824757e+1, -0.00011446739, -7399.5664, -10.763636, 0.0, 0.0017300159, 0.0155426115, 0.0155426115, 0.0, 0.012207031, 0.012117694 
1.8310547e-2, 3.9836872e+1, -0.0000065639438, -7402.6006, 2.5712585, 0.0, 0.0016342838, 0.0008865505, 0.0008865505, 0.0, 0.012207031, 0.012117658 
1.8310547e-2, 3.9848992e+1, -0.000034002922, -7385.577, 5.864518, 0.0, 0.0012737408, 0.004622715, 0.004622715, 0.0, 0.012207031, 0.012117861 
1.8310547e-2, 3.986111e+1, -0.0000021230394, -7363.5977, -1.5832791, 0.0, 0.0011795518, 0.00033830467, 0.00033830467, 0.0, 0.012207031, 0.0121181235 
1.8310547e-2, 3.9873227e+1, -0.00007046589, -7362.0723, 8.44234, 0.0, 0.0015717265, 0.009610642, 0.009610642, 0.0, 0.012207031, 0.012118142 
1.8310547e-2, 3.9885345e+1, -0.0000058855853, -7353.384, 2.2881484, 0.0, 0.0018394772, 0.0007061162, 0.0007061162, 0.0, 0.012207031, 0.0121182455 
1.8310547e-2, 3.9897466e+1, -0.000002612145, -7346.9604, 1.1257635, 0.0, 0.0011342282, 0.00016988689, 0.00016988689, 0.0, 0.012207031, 0.012118323 
1.8310547e-2, 3.9909583e+1, -0.0000010847752, -7329.008, 1.0973616, 0.0, 0.0012144172, 0.00016322154, 0.00016322154, 0.0, 0.012207031, 0.012118537 
1.8310547e-2, 3.99217e+1, -0.0000026334276, -7328.602, -1.8693216, 0.0, 0.0017445239, 0.00047417823, 0.00047417823, 0.0, 0.012207031, 0.012118542 
1.8310547e-2, 3.993382e+1, -0.000003501932, -7313.704, -1.9628311, 0.0, 0.0013533453, 0.0005232771, 0.0005232771, 0.0, 0.012207031, 0.0121187195 
1.8310547e-2, 3.994594e+1, -0.0000065876025, -7303.682, 2.5101187, 0.0, 0.001366482, 0.0008560862, 0.0008560862, 0.0, 0.012207031, 0.01211884 
1.8310547e-2, 3.9958057e+1, -0.000011548077, -7293.4365, 3.3961852, 0.0, 0.0016216233, 0.0015698835, 0.0015698835, 0.0, 0.012207031, 0.012118962 
1.8310547e-2, 3.9970177e+1, -0.0000014457057, -7286.275, -0.8806865, 0.0, 0.0012696786, 0.00010500221, 0.00010500221, 0.0, 0.012207031, 0.012119047 
1.8310547e-2, 3.9982295e+1, -0.000011060258, -7268.3184, -3.288691, 0.0, 0.0015143933, 0.0014769712, 0.0014769712, 0.0, 0.012207031, 0.012119262 
1.8310547e-2, 3.9994416e+1, -0.00011344935, -7265.283, 10.717071, 0.0, 0.0014812787, 0.015695343, 0.015695343, 0.0, 0.012207031, 0.012119298 
1.8310547e-2, 4.0006533e+1, -0.0009855437, -7255.4697, 31.582275, 0.0, 0.0012658559, 0.13648608, 0.13648608, 0.0, 0.012207031, 0.012119415 
1.8310547e-2, 4.0018654e+1, -0.0000014035347, -7250.048, 1.0931599, 0.0, 0.0016001884, 0.00016342275, 0.00016342275, 0.0, 0.012207031, 0.0121194795 
1.8310547e-2, 4.0030774e+1, -0.000017464245, -7235.292, -4.2108855, 0.0, 0.0013609042, 0.0024332388, 0.0024332388, 0.0, 0.012207031, 0.012119656 
1.8310547e-2, 4.0042892e+1, -0.000011062215, -7225.6875, 3.3492627, 0.0, 0.0013567756, 0.0015413931, 0.0015413931, 0.0, 0.012207031, 0.012119771 
1.8310547e-2, 4.0055013e+1, -0.0000021794194, -7216.6553, 1.675496, 0.0, 0.0017024633, 0.00038682163, 0.00038682163, 0.0, 0.012207031, 0.012119879 
1.8310547e-2, 4.006713e+1, -0.0000062676068, -7207.7295, -2.4767978, 0.0, 0.001265145, 0.00084483624, 0.00084483624, 0.0, 0.012207031, 0.012119985 
1.8310547e-2, 4.0079254e+1, -0.0000025714899, -7195.34, 1.8560884, 0.0, 0.0013825797, 0.0004762195, 0.0004762195, 0.0, 0.012207031, 0.012120133 
1.8310547e-2, 4.0091375e+1, -0.00000050034885, -7187.26, 0.34346163, 0.0, 0.0016175804, 0.000015912847, 0.000015912847, 0.0, 0.012207031, 0.01212023 
1.8310547e-2, 4.0103492e+1, -0.0000056006747, -7176.408, -2.3155339, 0.0, 0.0011970748, 0.0007415274, 0.0007415274, 0.0, 0.012207031, 0.01212036 
1.8310547e-2, 4.0115613e+1, -0.0000017632987, -7164.4907, 0.8668517, 0.0, 0.0015212874, 0.0001031195, 0.0001031195, 0.0, 0.012207031, 0.012120502 
1.8310547e-2, 4.0127736e+1, -0.0000027490476, -7159.753, 0.8534708, 0.0, 0.0015997743, 0.000098988035, 0.000098988035, 0.0, 0.012207031, 0.012120559 
1.8310547e-2, 4.0139854e+1, -0.0000013820106, -7151.51, -1.1465611, 0.0, 0.0012109122, 0.00018243966, 0.00018243966, 0.0, 0.012207031, 0.012120658 
1.8310547e-2, 4.0151975e+1, -0.0000014663425, -7136.7324, 1.511877, 0.0, 0.0016465375, 0.00031881637, 0.00031881637, 0.0, 0.012207031, 0.012120834 
1.8310547e-2, 4.0164098e+1, -0.000007944729, -7122.0205, 2.8208036, 0.0, 0.0013701245, 0.0011092848, 0.0011092848, 0.0, 0.012207031, 0.01212101 
1.8310547e-2, 4.0176216e+1, -0.000014980977, -7117.408, -3.892712, 0.0, 0.0013212812, 0.002114053, 0.002114053, 0.0, 0.012207031, 0.012121065 
1.8310547e-2, 4.018834e+1, -0.00008484654, -7105.0776, 9.265637, 0.0, 0.0017330715, 0.011998327, 0.011998327, 0.0, 0.012207031, 0.012121212 
1.8310547e-2, 4.020046e+1, -0.00063791464, -7106.552, 25.405231, 0.0, 0.0010055045, 0.090182155, 0.090182155, 0.0, 0.012207031, 0.012121195 
1.8310547e-2, 4.021258e+1, -0.00012810598, -7083.8457, 11.3843565, 0.0, 0.0014903989, 0.018167498, 0.018167498, 0.0, 0.012207031, 0.012121466 
1.8310547e-2, 4.02247e+1, -0.000026884605, -7077.6714, -5.2234817, 0.0, 0.0019220823, 0.0038281612, 0.0038281612, 0.0, 0.012207031, 0.01212154 
1.8310547e-2, 4.0236825e+1, -0.000009063259, -7066.545, 3.00432, 0.0, 0.0011296698, 0.0012682138, 0.0012682138, 0.0, 0.012207031, 0.012121673 
1.8310547e-2, 4.0248948e+1, -0.0010653307, -7067.5967, 32.830864, 0.0, 0.0013453622, 0.15143949, 0.15143949, 0.0, 0.012207031, 0.012121661 
1.8310547e-2, 4.0261066e+1, -0.00003069453, -7055.14, 5.572402, 0.0, 0.0016221978, 0.004370585, 0.004370585, 0.0, 0.012207031, 0.012121809 
1.8310547e-2, 4.027319e+1, -0.000035868812, -7039.121, -6.0255513, 0.0, 0.0012929757, 0.0051220534, 0.0051220534, 0.0, 0.012207031, 0.012122001 
1.8310547e-2, 4.0285313e+1, -0.0000025336547, -7024.636, 1.6674343, 0.0, 0.0014460612, 0.0003932644, 0.0003932644, 0.0, 0.012207031, 0.012122174 
1.8310547e-2, 4.029743e+1, -0.000017231328, -7024.6704, 4.1498365, 0.0, 0.001585273, 0.002434291, 0.002434291, 0.0, 0.012207031, 0.012122173 
1.8310547e-2, 4.0309554e+1, -0.000003206418, -7011.144, -1.7898648, 0.0, 0.0014820216, 0.00045372554, 0.00045372554, 0.0, 0.012207031, 0.012122335 
1.8310547e-2, 4.0321678e+1, -0.000018324237, -7006.263, -4.267194, 0.0, 0.0011564244, 0.0025806269, 0.0025806269, 0.0, 0.012207031, 0.012122394 
1.8310547e-2, 4.0333802e+1, -0.000001902606, -6985.9463, 1.4420507, 0.0, 0.0014778855, 0.00029576788, 0.00029576788, 0.0, 0.012207031, 0.012122637 
1.8310547e-2, 4.0345925e+1, -0.000039774746, -6984.062, 6.331217, 0.0, 0.0017575131, 0.0056996183, 0.0056996183, 0.0, 0.012207031, 0.012122659 
1.8310547e-2, 4.035805e+1, -0.0000010600994, -6970.6655, -0.86742395, 0.0, 0.0012482008, 0.00010688143, 0.00010688143, 0.0, 0.012207031, 0.012122819 
1.8310547e-2, 4.037017e+1, -0.000037961112, -6961.7905, -6.1978607, 0.0, 0.0013902374, 0.0054797926, 0.0054797926, 0.0, 0.012207031, 0.012122925 
1.8310547e-2, 4.0382293e+1, -0.0000402449, -6947.8345, 6.3773837, 0.0, 0.0016434076, 0.00581352, 0.00581352, 0.0, 0.012207031, 0.012123092 
1.8310547e-2, 4.0394416e+1, -0.00007539213, -6949.9927, 8.730805, 0.0, 0.0011558891, 0.010892511, 0.010892511, 0.0, 0.012207031, 0.012123066 
1.8310547e-2, 4.040654e+1, -0.000015092602, -6926.7866, 3.920814, 0.0, 0.0015453619, 0.0022042305, 0.0022042305, 0.0, 0.012207031, 0.012123344 
1.8310547e-2, 4.0418664e+1, -0.000009244831, -6922.8755, -3.062237, 0.0, 0.001567405, 0.0013452925, 0.0013452925, 0.0, 0.012207031, 0.01212339 
1.8310547e-2, 4.0430787e+1, -0.0000051174407, -6916.107, 2.2990658, 0.0, 0.0012981707, 0.0007591424, 0.0007591424, 0.0, 0.012207031, 0.012123471 
1.8310547e-2, 4.0442908e+1, -0.000017357477, -6905.365, 4.200564, 0.0, 0.0015484366, 0.0025378633, 0.0025378633, 0.0, 0.012207031, 0.0121236 
1.8310547e-2, 4.045503e+1, -0.00000080703524, -6887.9917, 0.41413176, 0.0, 0.0014864845, 0.00002409211, 0.00002409211, 0.0, 0.012207031, 0.012123807 
1.8310547e-2, 4.0467155e+1, -0.0000023207092, -6888.4204, 0.6213149, 0.0, 0.00125219, 0.000053720032, 0.000053720032, 0.0, 0.012207031, 0.012123803 
1.8310547e-2, 4.047928e+1, -0.000001202756, -6875.2783, 0.406249, 0.0, 0.0016234451, 0.000022801834, 0.000022801834, 0.0, 0.012207031, 0.012123959 
1.8310547e-2, 4.0491405e+1, -0.00000054480745, -6861.783, -0.035514187, 0.0, 0.0013469005, -0.00000036099846, -0.00000036099846, 0.0, 0.012207031, 0.012124121 
1.8310547e-2, 4.050353e+1, -0.00000045730073, -6857.0024, -0.15900458, 0.0, 0.0011919268, 0.0000032298003, 0.0000032298003, 0.0, 0.012207031, 0.012124178 
1.8310547e-2, 4.0515652e+1, -0.0000010912255, -6845.4463, -0.9108145, 0.0, 0.0019689228, 0.00012009636, 0.00012009636, 0.0, 0.012207031, 0.012124317 
1.8310547e-2, 4.052778e+1, -0.0000010273044, -6834.376, 0.33063877, 0.0, 0.0015937273, 0.000014968594, 0.000014968594, 0.0, 0.012207031, 0.012124449 
1.8310547e-2, 4.0539902e+1, -0.00000010003451, -6823.884, 0.069545604, 0.0, 0.0006466601, 0.00000060873936, 0.00000060873936, 0.0, 0.012207031, 0.012124575 
1.8310547e-2, 4.0552026e+1, -0.0000022076615, -6823.8105, 1.4252487, 0.0, 0.0014614471, 0.00029547556, 0.00029547556, 0.0, 0.012207031, 0.012124575 
1.8310547e-2, 4.0564153e+1, -0.000032572512, -6810.21, -5.738965, 0.0, 0.0022402261, 0.004803651, 0.004803651, 0.0, 0.012207031, 0.012124738 
1.8310547e-2, 4.0576276e+1, -0.001195234, -6790.339, 34.76691, 0.0, 0.0013514104, 0.17680866, 0.17680866, 0.0, 0.012207031, 0.012124975 
1.8310547e-2, 4.0588403e+1, -0.00003425037, -6782.1514, -5.8841853, 0.0, 0.00074864493, 0.0050708572, 0.0050708572, 0.0, 0.012207031, 0.012125074 
1.8310547e-2, 4.0600526e+1, -0.000013810975, -6779.8203, 3.720746, 0.0, 0.0018110882, 0.0020281232, 0.0020281232, 0.0, 0.012207031, 0.012125102 
1.8310547e-2, 4.0612653e+1, -0.0000013057374, -6754.347, 0.52109283, 0.0, 0.0015553685, 0.00003889618, 0.00003889618, 0.0, 0.012207031, 0.012125406 
1.8310547e-2, 4.0624774e+1, -0.0008938946, -6760.7656, 30.06575, 0.0, 0.0010760309, 0.13280864, 0.13280864, 0.0, 0.012207031, 0.012125329 
1.8310547e-2, 4.0636903e+1, -0.000005179104, -6748.28, 2.1987216, 0.0, 0.0019320284, 0.00071120745, 0.00071120745, 0.0, 0.012207031, 0.012125479 
1.8310547e-2, 4.064903e+1, -0.0000017728997, -6739.484, -1.3993368, 0.0, 0.0013880284, 0.00028877507, 0.00028877507, 0.0, 0.012207031, 0.012125584 
1.8310547e-2, 4.0661153e+1, -0.000001910754, -6724.079, 1.4676516, 0.0, 0.0010995719, 0.00031843068, 0.00031843068, 0.0, 0.012207031, 0.012125769 
1.8310547e-2, 4.067328e+1, -0.000006233627, -6726.745, 2.5479379, 0.0, 0.0015487421, 0.0009588671, 0.0009588671, 0.0, 0.012207031, 0.012125736 
1.8310547e-2, 4.0685406e+1, -0.000009961713, -6700.3027, -3.188089, 0.0, 0.0015478898, 0.0015069708, 0.0015069708, 0.0, 0.012207031, 0.012126053 
1.8310547e-2, 4.069753e+1, -0.00000094387997, -6700.896, -0.4474205, 0.0, 0.0017191825, 0.000028930503, 0.000028930503, 0.0, 0.012207031, 0.012126045 
1.8310547e-2, 4.0709656e+1, -0.0000021216129, -6686.6353, 1.6924591, 0.0, 0.000911589, 0.00042625793, 0.00042625793, 0.0, 0.012207031, 0.012126217 
1.8310547e-2, 4.0721783e+1, 0.00000054937317, -6682.9844, -0.8974804, 0.0, 0.001269051, 0.00012107503, 0.00012107503, 0.0, 0.012207031, 0.01212626 
1.8310547e-2, 4.073391e+1, -0.0000020090686, -6659.718, 1.8315979, 0.0, 0.0022151587, 0.00050172856, 0.00050172856, 0.0, 0.012207031, 0.012126539 
1.8310547e-2, 4.0746036e+1, -0.0000006583696, -6668.4067, -0.30042708, 0.0, 0.0010598598, 0.000012876563, 0.000012876563, 0.0, 0.012207031, 0.012126435 
1.8310547e-2, 4.0758163e+1, -0.0000009155525, -6638.9185, 1.3030161, 0.0, 0.0013669782, 0.0002548265, 0.0002548265, 0.0, 0.012207031, 0.012126788 
1.8310547e-2, 4.077029e+1, -0.0000017245959, -6650.17, 0.4922471, 0.0, 0.0017475104, 0.000034711647, 0.000034711647, 0.0, 0.012207031, 0.0121266525 
1.8310547e-2, 4.0782416e+1, -0.00000022248179, -6624.1035, -0.14346106, 0.0, 0.0010369321, 0.000002884516, 0.000002884516, 0.0, 0.012207031, 0.0121269645 
1.8310547e-2, 4.0794545e+1, -0.0000013945418, -6624.493, 1.4340436, 0.0, 0.0015040621, 0.00030904144, 0.00030904144, 0.0, 0.012207031, 0.01212696 
1.8310547e-2, 4.0806672e+1, -0.000005405221, -6607.1484, -2.2003288, 0.0, 0.0016504081, 0.0007273535, 0.0007273535, 0.0, 0.012207031, 0.012127168 
1.8310547e-2, 4.08188e+1, -0.0000008077373, -6606.0215, 0.9633951, 0.0, 0.0014175499, 0.00013968986, 0.00013968986, 0.0, 0.012207031, 0.0121271815 
1.8310547e-2, 4.0830925e+1, -0.000007992712, -6580.5063, 2.7982337, 0.0, 0.0013102278, 0.0011819021, 0.0011819021, 0.0, 0.012207031, 0.012127487 
1.8310547e-2, 4.0843052e+1, -0.000008268933, -6589.931, -2.886459, 0.0, 0.001432042, 0.0012560303, 0.0012560303, 0.0, 0.012207031, 0.012127373 
1.8310547e-2, 4.0855178e+1, 0.00000023349818, -6564.2515, 0.89958024, 0.0, 0.0016015925, 0.00012351407, 0.00012351407, 0.0, 0.012207031, 0.012127681 
1.8310547e-2, 4.0867305e+1, -0.0000015490657, -6568.5747, -0.63068444, 0.0, 0.001152051, 0.000059006365, 0.000059006365, 0.0, 0.012207031, 0.0121276295 
1.8310547e-2, 4.0879437e+1, -0.000002295635, -6540.0073, 0.9990978, 0.0, 0.0016989439, 0.00015033362, 0.00015033362, 0.0, 0.012207031, 0.012127971 
1.8310547e-2, 4.0891564e+1, -0.0000023353505, -6554.2676, 1.6026253, 0.0, 0.0017245957, 0.0003895326, 0.0003895326, 0.0, 0.012207031, 0.012127801 
1.8310547e-2, 4.090369e+1, -0.0000008231, -6518.5493, -0.3409674, 0.0, 0.00091195037, 0.000017011967, 0.000017011967, 0.0, 0.012207031, 0.012128228 
1.8310547e-2, 4.0915817e+1, -0.002292127, -6524.123, 48.13527, 0.0, 0.0010968894, 0.35283282, 0.35283282, 0.0, 0.012207031, 0.012128161 
1.8310547e-2, 4.0927947e+1, -0.000119264754, -6505.7915, 10.978529, 0.0, 0.002233051, 0.01840696, 0.01840696, 0.0, 0.012207031, 0.012128381 
1.8310547e-2, 4.0940076e+1, -0.000080980404, -6507.524, 9.046122, 0.0, 0.0017443915, 0.012494027, 0.012494027, 0.0, 0.012207031, 0.012128361 
1.8310547e-2, 4.0952206e+1, -0.0004552051, -6502.551, 21.451172, 0.0, 0.0004689596, 0.07030899, 0.07030899, 0.0, 0.012207031, 0.01212842 
1.8310547e-2, 4.0964332e+1, -0.003245924, -6486.646, 57.279667, 0.0, 0.0014726027, 0.50251716, 0.50251716, 0.0, 0.012207031, 0.01212861 
1.8310547e-2, 4.097646e+1, -0.00007134958, -6465.6206, -8.491773, 0.0, 0.0020418367, 0.011081497, 0.011081497, 0.0, 0.012207031, 0.012128862 
1.8310547e-2, 4.098859e+1, -0.0000524086, -6481.0044, 7.2804365, 0.0, 0.0013393807, 0.0081260605, 0.0081260605, 0.0, 0.012207031, 0.012128678 
1.8310547e-2, 4.1000718e+1, -0.000020247755, -6440.018, 4.5255914, 0.0, 0.0012404022, 0.003160018, 0.003160018, 0.0, 0.012207031, 0.012129169 
1.8310547e-2, 4.1012847e+1, -0.000024293073, -6443.1196, -4.952941, 0.0, 0.00117694, 0.0037831184, 0.0037831184, 0.0, 0.012207031, 0.012129132 
1.8310547e-2, 4.102498e+1, -0.0000033105557, -6435.092, -1.941103, 0.0, 0.0018664175, 0.0005822103, 0.0005822103, 0.0, 0.012207031, 0.012129228 
1.8310547e-2, 4.1037107e+1, -0.0000005702924, -6430.324, 0.123940445, 0.0, 0.0017232443, 0.000001818582, 0.000001818582, 0.0, 0.012207031, 0.012129284 
1.8310547e-2, 4.1049236e+1, -0.000007603779, -6410.9053, 2.8215399, 0.0, 0.00085127965, 0.0012342, 0.0012342, 0.0, 0.012207031, 0.012129517 
1.8310547e-2, 4.1061366e+1, -0.0000041504572, -6407.837, 2.0393014, 0.0, 0.0011965319, 0.00064485957, 0.00064485957, 0.0, 0.012207031, 0.012129554 
1.8310547e-2, 4.1073495e+1, -0.000023508403, -6389.72, -4.8744125, 0.0, 0.0020373082, 0.0036949462, 0.0036949462, 0.0, 0.012207031, 0.012129771 
1.8310547e-2, 4.1085625e+1, -0.00000042136634, -6393.44, -0.18665645, 0.0, 0.001753013, 0.000005028068, 0.000005028068, 0.0, 0.012207031, 0.012129727 
1.8310547e-2, 4.1097754e+1, -0.000005253722, -6385.2505, -2.3662472, 0.0, 0.000737227, 0.0008716304, 0.0008716304, 0.0, 0.012207031, 0.012129825 
1.8310547e-2, 4.1109887e+1, -0.0015119325, -6363.228, 39.08879, 0.0, 0.0012077112, 0.23859835, 0.23859835, 0.0, 0.012207031, 0.012130088 
1.8310547e-2, 4.1122013e+1, -0.00000531674, -6350.3325, -2.2173169, 0.0, 0.002152624, 0.0007688937, 0.0007688937, 0.0, 0.012207031, 0.012130243 
1.8310547e-2, 4.1134143e+1, -0.00005037082, -6338.7827, 7.1318817, 0.0, 0.0013353237, 0.007973831, 0.007973831, 0.0, 0.012207031, 0.012130381 
1.8310547e-2, 4.1146275e+1, -0.000010490973, -6320.701, -3.27392, 0.0, 0.0011353837, 0.001685294, 0.001685294, 0.0, 0.012207031, 0.012130598 
1.8310547e-2, 4.1158405e+1, -0.00020867473, -6326.0576, 14.520823, 0.0, 0.0016464968, 0.033122223, 0.033122223, 0.0, 0.012207031, 0.012130533 
1.8310547e-2, 4.1170537e+1, -0.0013860896, -6329.7837, 37.426907, 0.0, 0.0013120825, 0.21990497, 0.21990497, 0.0, 0.012207031, 0.012130489 
1.8310547e-2, 4.1182667e+1, -0.00009112811, -6306.402, 9.593405, 0.0, 0.0015847066, 0.014502488, 0.014502488, 0.0, 0.012207031, 0.012130769 
1.8310547e-2, 4.1194797e+1, -0.000052229985, -6304.781, -7.268656, 0.0, 0.0014252557, 0.008327647, 0.008327647, 0.0, 0.012207031, 0.0121307885 
1.8310547e-2, 4.120693e+1, -0.0000011669508, -6288.715, 1.3154855, 0.0, 0.0010382932, 0.00027400884, 0.00027400884, 0.0, 0.012207031, 0.012130981 
1.8310547e-2, 4.121906e+1, -0.00001575779, -6280.9316, 3.9888215, 0.0, 0.0018719692, 0.002517416, 0.002517416, 0.0, 0.012207031, 0.012131074 
1.8310547e-2, 4.123119e+1, -0.0000009950807, -6267.582, 0.44028595, 0.0, 0.0016981455, 0.000029934185, 0.000029934185, 0.0, 0.012207031, 0.012131234 
1.8310547e-2, 4.1243324e+1, -0.00000047022456, -6254.76, -0.8437527, 0.0, 0.00093709317, 0.00011335007, 0.00011335007, 0.0, 0.012207031, 0.012131387 
1.8310547e-2, 4.1255456e+1, -0.0000024117955, -6249.854, 1.610046, 0.0, 0.001392148, 0.0004123576, 0.0004123576, 0.0, 0.012207031, 0.012131446 
1.8310547e-2, 4.1267586e+1, -0.0000019465335, -6244.81, -1.6954429, 0.0, 0.0017218451, 0.00045835992, 0.00045835992, 0.0, 0.012207031, 0.012131507 
1.8310547e-2, 4.1279715e+1, -0.000011163017, -6222.9272, -3.3764777, 0.0, 0.0015173912, 0.0018208683, 0.0018208683, 0.0, 0.012207031, 0.012131769 
1.8310547e-2, 4.1291848e+1, -0.00001618312, -6221.692, 4.037302, 0.0, 0.0013223705, 0.0026036515, 0.0026036515, 0.0, 0.012207031, 0.012131784 
1.8310547e-2, 4.130398e+1, -0.0000018327074, -6210.0815, 1.5310651, 0.0, 0.0010894986, 0.00037564387, 0.00037564387, 0.0, 0.012207031, 0.012131923 
1.8310547e-2, 4.1316113e+1, -0.000010784189, -6199.1816, -3.3028839, 0.0, 0.0017845015, 0.0017489705, 0.0017489705, 0.0, 0.012207031, 0.012132053 
1.8310547e-2, 4.1328242e+1, -0.000005291543, -6190.254, 2.4315023, 0.0, 0.0018731448, 0.00094979093, 0.00094979093, 0.0, 0.012207031, 0.01213216 
1.8310547e-2, 4.1340378e+1, -0.0000014087365, -6181.102, -1.0869641, 0.0, 0.00083216926, 0.00018973697, 0.00018973697, 0.0, 0.012207031, 0.01213227 
1.8310547e-2, 4.1352507e+1, -0.000042306652, -6168.0776, 6.540214, 0.0, 0.0013420024, 0.0068924883, 0.0068924883, 0.0, 0.012207031, 0.012132427 
1.8310547e-2, 4.1364643e+1, -0.000044363784, -6163.376, 6.693606, 0.0, 0.001886913, 0.007225079, 0.007225079, 0.0, 0.012207031, 0.012132483 
1.8310547e-2, 4.1376773e+1, -0.0000051530938, -6148.9077, 2.2295642, 0.0, 0.001219908, 0.000803276, 0.000803276, 0.0, 0.012207031, 0.012132656 
1.8310547e-2, 4.1388908e+1, -0.0000014596498, -6139.669, -1.6368189, 0.0, 0.0014434728, 0.00043491178, 0.00043491178, 0.0, 0.012207031, 0.012132767 
1.8310547e-2, 4.140104e+1, -0.0000011424879, -6133.3496, 1.3703299, 0.0, 0.001672079, 0.00030502037, 0.00030502037, 0.0, 0.012207031, 0.012132843 
1.8310547e-2, 4.1413173e+1, -0.000024789939, -6120.762, 5.0159345, 0.0, 0.0011712043, 0.0040857405, 0.0040857405, 0.0, 0.012207031, 0.012132994 
1.8310547e-2, 4.1425306e+1, -0.0000025631891, -6113.255, 0.60160005, 0.0, 0.0015318316, 0.000056639747, 0.000056639747, 0.0, 0.012207031, 0.012133083 
1.8310547e-2, 4.1437438e+1, -0.0000010704379, -6100.457, -1.1868162, 0.0, 0.00157989, 0.00022981926, 0.00022981926, 0.0, 0.012207031, 0.012133237 
1.8310547e-2, 4.1449574e+1, -0.000004760791, -6094.104, 2.1240904, 0.0, 0.0010635906, 0.00073558756, 0.00073558756, 0.0, 0.012207031, 0.012133313 
1.8310547e-2, 4.1461703e+1, -0.0000016958925, -6082.035, -1.2701709, 0.0, 0.0016960629, 0.00026356633, 0.00026356633, 0.0, 0.012207031, 0.012133458 
1.8310547e-2, 4.147384e+1, -0.000011499241, -6075.316, -3.4063911, 0.0, 0.0017762792, 0.001898442, 0.001898442, 0.0, 0.012207031, 0.012133539 
1.8310547e-2, 4.1485974e+1, -0.000021259637, -6054.991, 4.626683, 0.0, 0.0010904963, 0.003514036, 0.003514036, 0.0, 0.012207031, 0.012133782 
1.8310547e-2, 4.1498107e+1, -0.0000041857184, -6059.842, 2.04841, 0.0, 0.0011943964, 0.00068823877, 0.00068823877, 0.0, 0.012207031, 0.012133724 
1.8310547e-2, 4.151024e+1, -0.0000150586475, -6045.6714, -3.9215684, 0.0, 0.0017127703, 0.002528694, 0.002528694, 0.0, 0.012207031, 0.012133894 
1.8310547e-2, 4.1522372e+1, -0.00000039250884, -6030.3726, 0.19154315, 0.0, 0.0018087586, 0.0000056914896, 0.0000056914896, 0.0, 0.012207031, 0.012134077 
1.8310547e-2, 4.1534507e+1, -0.0000013266294, -6021.754, 1.3090436, 0.0, 0.0011111748, 0.0002832408, 0.0002832408, 0.0, 0.012207031, 0.01213418 
1.8310547e-2, 4.1546643e+1, -0.0000022841027, -6015.9023, -0.71929014, 0.0, 0.0010733592, 0.000083717685, 0.000083717685, 0.0, 0.012207031, 0.01213425 
1.8310547e-2, 4.1558778e+1, -0.0000014042728, -5999.691, -1.471987, 0.0, 0.0019831462, 0.0003597386, 0.0003597386, 0.0, 0.012207031, 0.012134445 
1.8310547e-2, 4.157091e+1, -0.000007201351, -6001.748, 2.673015, 0.0, 0.0012916991, 0.0011832865, 0.0011832865, 0.0, 0.012207031, 0.012134421 
1.8310547e-2, 4.1583046e+1, -0.00019837751, -5978.885, 14.153553, 0.0, 0.0011836028, 0.033306524, 0.033306524, 0.0, 0.012207031, 0.0121346945 
1.8310547e-2, 4.1595182e+1, -0.000005040275, -5977.597, 2.3255863, 0.0, 0.0021416266, 0.0008997297, 0.0008997297, 0.0, 0.012207031, 0.01213471 
1.8310547e-2, 4.1607314e+1, -0.000010365908, -5964.7637, -3.2372978, 0.0, 0.0011005786, 0.0017466348, 0.0017466348, 0.0, 0.012207031, 0.012134864 
1.8310547e-2, 4.161945e+1, -0.000042774118, -5955.449, 6.573609, 0.0, 0.0007482061, 0.0072131488, 0.0072131488, 0.0, 0.012207031, 0.012134976 
1.8310547e-2, 4.1631585e+1, -0.00007698255, -5945.893, 8.8181505, 0.0, 0.002117972, 0.013000886, 0.013000886, 0.0, 0.012207031, 0.01213509 
1.8310547e-2, 4.1643724e+1, -0.0000070579363, -5941.104, 2.6907012, 0.0, 0.0017236586, 0.0012115493, 0.0012115493, 0.0, 0.012207031, 0.012135147 
1.8310547e-2, 4.1655856e+1, -0.00000076701554, -5919.0566, 0.35246077, 0.0, 0.0009435794, 0.00002022089, 0.00002022089, 0.0, 0.012207031, 0.012135412 
1.8310547e-2, 4.1667992e+1, -0.0000011732853, -5924.03, -1.3751866, 0.0, 0.0015618245, 0.00031805836, 0.00031805836, 0.0, 0.012207031, 0.012135352 
1.8310547e-2, 4.1680127e+1, 0.0000002099728, -5905.7134, 0.7921082, 0.0, 0.0016037124, 0.00010645206, 0.00010645206, 0.0, 0.012207031, 0.012135572 
1.8310547e-2, 4.169226e+1, -0.000005013225, -5897.4385, 2.3292685, 0.0, 0.0011081505, 0.000914961, 0.000914961, 0.0, 0.012207031, 0.012135671 
1.8310547e-2, 4.1704398e+1, -0.0000024695482, -5882.4385, -1.8275015, 0.0, 0.0016453415, 0.00056528166, 0.00056528166, 0.0, 0.012207031, 0.012135851 
1.8310547e-2, 4.1716534e+1, -0.000007643202, -5883.0713, -2.7669528, 0.0, 0.0016143789, 0.0012937223, 0.0012937223, 0.0, 0.012207031, 0.012135844 
1.8310547e-2, 4.172867e+1, -0.0000018490138, -5863.9336, 1.5675145, 0.0, 0.0012919165, 0.00041717032, 0.00041717032, 0.0, 0.012207031, 0.012136073 
1.8310547e-2, 4.1740808e+1, -0.0000045262104, -5863.86, 2.2460086, 0.0, 0.0012978037, 0.00085575256, 0.00085575256, 0.0, 0.012207031, 0.012136074 
1.8310547e-2, 4.175294e+1, -0.000012682376, -5850.886, -3.55364, 0.0, 0.0015332324, 0.0021456834, 0.0021456834, 0.0, 0.012207031, 0.012136229 
1.8310547e-2, 4.176508e+1, -0.0018964699, -5836.8335, 43.758823, 0.0, 0.0016575739, 0.32614568, 0.32614568, 0.0, 0.012207031, 0.012136398 
1.8310547e-2, 4.1777214e+1, -0.000014740618, -5826.531, 3.8603666, 0.0, 0.0011184085, 0.0025429432, 0.0025429432, 0.0, 0.012207031, 0.012136522 
1.8310547e-2, 4.1789353e+1, -0.000001587804, -5825.9043, -0.59561265, 0.0, 0.0017416639, 0.000059304795, 0.000059304795, 0.0, 0.012207031, 0.012136529 
1.8310547e-2, 4.1801488e+1, -0.000028400273, -5804.02, 5.3517704, 0.0, 0.0016842781, 0.004906356, 0.004906356, 0.0, 0.012207031, 0.012136792 
1.8310547e-2, 4.1813624e+1, -0.0014160515, -5797.583, 37.81235, 0.0, 0.00036682317, 0.24518903, 0.24518903, 0.0, 0.012207031, 0.012136869 
1.8310547e-2, 4.182576e+1, -0.0000011702908, -5788.119, 1.3927215, 0.0, 0.0019498846, 0.0003339426, 0.0003339426, 0.0, 0.012207031, 0.012136983 
1.8310547e-2, 4.1837898e+1, -0.000029620307, -5786.396, 5.46485, 0.0, 0.0023405952, 0.005131547, 0.005131547, 0.0, 0.012207031, 0.012137003 
1.8310547e-2, 4.1850036e+1, -0.000007626466, -5764.96, 2.749306, 0.0, 0.00054628204, 0.0013035156, 0.0013035156, 0.0, 0.012207031, 0.01213726 
1.8310547e-2, 4.1862175e+1, -0.00001387153, -5754.445, -3.7275133, 0.0, 0.0015009962, 0.0024006704, 0.0024006704, 0.0, 0.012207031, 0.012137387 
1.8310547e-2, 4.187431e+1, -0.000007888406, -5752.695, -2.8703587, 0.0, 0.001857985, 0.0014243025, 0.0014243025, 0.0, 0.012207031, 0.012137407 
1.8310547e-2, 4.188645e+1, -0.0000036339513, -5743.1235, 1.8850176, 0.0, 0.0007850095, 0.00061506964, 0.00061506964, 0.0, 0.012207031, 0.012137523 
1.8310547e-2, 4.1898587e+1, -0.00000065118, -5737.3286, 0.90365195, 0.0, 0.0016943254, 0.00014167758, 0.00014167758, 0.0, 0.012207031, 0.012137592 
1.8310547e-2, 4.1910726e+1, -0.0000005380325, -5715.01, 1.1511347, 0.0, 0.0019250377, 0.00023132705, 0.00023132705, 0.0, 0.012207031, 0.01213786 
1.8310547e-2, 4.1922864e+1, -0.000038853657, -5702.939, 6.2556496, 0.0, 0.00086788833, 0.0068230648, 0.0068230648, 0.0, 0.012207031, 0.012138004 
1.8310547e-2, 4.1934997e+1, -0.000090771595, -5694.1587, -9.572779, 0.0, 0.0017463844, 0.016002532, 0.016002532, 0.0, 0.012207031, 0.012138111 
1.8310547e-2, 4.1947135e+1, -0.000009754531, -5696.9746, 3.1216283, 0.0, 0.00172415, 0.0017007254, 0.0017007254, 0.0, 0.012207031, 0.012138076 
1.8310547e-2, 4.1959274e+1, -0.0019444654, -5683.995, 44.304573, 0.0, 0.0004567003, 0.34337193, 0.34337193, 0.0, 0.012207031, 0.012138233 
1.8310547e-2, 4.1971412e+1, -0.00030802368, -5667.256, 17.632471, 0.0, 0.0017099997, 0.05455116, 0.05455116, 0.0, 0.012207031, 0.012138433 
1.8310547e-2, 4.198355e+1, -0.00046532488, -5654.2456, -21.672754, 0.0, 0.002514791, 0.08260524, 0.08260524, 0.0, 0.012207031, 0.012138589 
1.8310547e-2, 4.199569e+1, -0.0001133529, -5664.0024, 10.69684, 0.0, 0.0007468305, 0.020088261, 0.020088261, 0.0, 0.012207031, 0.012138472 
1.8310547e-2, 4.200783e+1, -0.0017486084, -5648.012, 42.01232, 0.0, 0.0009823561, 0.31073973, 0.31073973, 0.0, 0.012207031, 0.012138664 
1.8310547e-2, 4.201997e+1, -0.00036605485, -5629.1807, 19.222713, 0.0, 0.0019947228, 0.06527554, 0.06527554, 0.0, 0.012207031, 0.01213889 
1.8310547e-2, 4.2032108e+1, -0.00020674727, -5613.508, -14.447666, 0.0, 0.0012654285, 0.03697743, 0.03697743, 0.0, 0.012207031, 0.012139078 
1.8310547e-2, 4.2044246e+1, -0.000004095188, -5619.947, 2.0635238, 0.0, 0.0014181277, 0.0007535863, 0.0007535863, 0.0, 0.012207031, 0.012139001 
1.8310547e-2, 4.2056385e+1, -0.0010470062, -5611.1807, 32.50779, 0.0, 0.0015701863, 0.18727721, 0.18727721, 0.0, 0.012207031, 0.012139106 
1.8310547e-2, 4.2068523e+1, -0.00009491439, -5594.202, 9.785898, 0.0, 0.0013023011, 0.017023437, 0.017023437, 0.0, 0.012207031, 0.01213931 
1.8310547e-2, 4.2080665e+1, -0.00009609326, -5582.8315, -9.851937, 0.0, 0.0015473434, 0.017289417, 0.017289417, 0.0, 0.012207031, 0.012139446 
1.8310547e-2, 4.2092803e+1, -0.000013779947, -5588.113, 3.7371745, 0.0, 0.0013797574, 0.0024855372, 0.0024855372, 0.0, 0.012207031, 0.012139383 
1.8310547e-2, 4.2104942e+1, -0.000022761418, -5555.88, 4.789786, 0.0, 0.0014597242, 0.004106563, 0.004106563, 0.0, 0.012207031, 0.01213977 
1.8310547e-2, 4.2117083e+1, -0.000012882152, -5556.6978, -3.6181502, 0.0, 0.0012999026, 0.0023430146, 0.0023430146, 0.0, 0.012207031, 0.01213976 
1.8310547e-2, 4.2129222e+1, -0.0000011816187, -5545.4595, -1.6381272, 0.0, 0.0017321163, 0.0004827206, 0.0004827206, 0.0, 0.012207031, 0.012139895 
1.8310547e-2, 4.214136e+1, -0.000010800358, -5540.169, 3.3045921, 0.0, 0.0015901244, 0.0019603171, 0.0019603171, 0.0, 0.012207031, 0.012139958 
1.8310547e-2, 4.2153504e+1, -0.0000041599747, -5519.866, 1.8389657, 0.0, 0.00069463917, 0.00060849875, 0.00060849875, 0.0, 0.012207031, 0.012140202 
1.8310547e-2, 4.2165643e+1, -0.0000015725686, -5511.9595, -0.39318213, 0.0, 0.0017188293, 0.000026474114, 0.000026474114, 0.0, 0.012207031, 0.012140297 
1.8310547e-2, 4.2177784e+1, -0.00002189106, -5508.2075, -4.6954937, 0.0, 0.0019593935, 0.0039807986, 0.0039807986, 0.0, 0.012207031, 0.012140343 
1.8310547e-2, 4.2189923e+1, -0.000020318585, -5496.7417, 4.5234776, 0.0, 0.0010265907, 0.0037022207, 0.0037022207, 0.0, 0.012207031, 0.01214048 
1.8310547e-2, 4.2202064e+1, -0.0015451278, -5485.688, 39.48718, 0.0, 0.0014632579, 0.28267756, 0.28267756, 0.0, 0.012207031, 0.012140613 
1.8310547e-2, 4.2214206e+1, -0.000039492334, -5474.718, 6.312174, 0.0, 0.0014950507, 0.007238232, 0.007238232, 0.0, 0.012207031, 0.012140744 
1.8310547e-2, 4.2226344e+1, -0.000062386585, -5457.2837, -7.93508, 0.0, 0.0014211839, 0.011475472, 0.011475472, 0.0, 0.012207031, 0.012140954 
1.8310547e-2, 4.2238486e+1, -0.00000081518095, -5469.3555, -0.06519684, 0.0, 0.0014854455, -0.000000038008693, -0.000000038008693, 0.0, 0.012207031, 0.01214081 
1.8310547e-2, 4.225063e+1, -0.0017104074, -5449.851, 41.54373, 0.0, 0.0013559641, 0.31495547, 0.31495547, 0.0, 0.012207031, 0.012141043 
1.8310547e-2, 4.226277e+1, -0.002495863, -5427.34, 50.183666, 0.0, 0.0016029163, 0.4614858, 0.4614858, 0.0, 0.012207031, 0.012141313 
1.8310547e-2, 4.227491e+1, -0.000020599455, -5415.717, -4.5620565, 0.0, 0.0012294848, 0.0038223534, 0.0038223534, 0.0, 0.012207031, 0.012141453 
1.8310547e-2, 4.2287052e+1, -0.0000040540863, -5408.4844, -2.0883892, 0.0, 0.0013617374, 0.00080233975, 0.00080233975, 0.0, 0.012207031, 0.012141541 
1.8310547e-2, 4.2299193e+1, -0.003108587, -5419.6714, 56.005363, 0.0, 0.0018705528, 0.5755737, 0.5755737, 0.0, 0.012207031, 0.012141406 
1.8310547e-2, 4.2311338e+1, -0.0017776856, -5406.7495, 42.35111, 0.0, 0.0013075478, 0.32993862, 0.32993862, 0.0, 0.012207031, 0.012141561 
1.8310547e-2, 4.2323476e+1, -0.00005289066, -5386.8975, -7.3034377, 0.0, 0.0011587341, 0.009848932, 0.009848932, 0.0, 0.012207031, 0.0121418 
1.8310547e-2, 4.2335618e+1, -0.000005961398, -5392.48, -2.4310684, 0.0, 0.0016000946, 0.0010900265, 0.0010900265, 0.0, 0.012207031, 0.0121417325 
1.8310547e-2, 4.234776e+1, -0.00005384395, -5380.9014, 7.3719935, 0.0, 0.0015361046, 0.010045987, 0.010045987, 0.0, 0.012207031, 0.012141871 
1.8310547e-2, 4.23599e+1, -0.000003403157, -5349.7334, 1.8463815, 0.0, 0.0014962304, 0.0006338481, 0.0006338481, 0.0, 0.012207031, 0.012142246 
1.8310547e-2, 4.2372045e+1, -0.00000062865985, -5348.087, 0.35527933, 0.0, 0.0011973234, 0.00002297294, 0.00002297294, 0.0, 0.012207031, 0.012142266 
1.8310547e-2, 4.2384186e+1, -0.0000009940005, -5345.282, -1.1662545, 0.0, 0.0014061927, 0.00025346395, 0.00025346395, 0.0, 0.012207031, 0.0121423 
1.8310547e-2, 4.2396328e+1, -0.0000012079418, -5330.8984, -1.3479338, 0.0, 0.0018336301, 0.00033962113, 0.00033962113, 0.0, 0.012207031, 0.012142472 
1.8310547e-2, 4.240847e+1, -0.00000071048333, -5314.7964, 0.6419265, 0.0, 0.0013296487, 0.00007682205, 0.00007682205, 0.0, 0.012207031, 0.012142666 
1.8310547e-2, 4.2420614e+1, -0.0000033432461, -5314.0, 1.7467775, 0.0, 0.0011935186, 0.00057084404, 0.00057084404, 0.0, 0.012207031, 0.012142675 
1.8310547e-2, 4.2432758e+1, -0.000000754188, -5301.982, -0.45650473, 0.0, 0.0015439923, 0.000038551225, 0.000038551225, 0.0, 0.012207031, 0.012142819 
1.8310547e-2, 4.24449e+1, -0.000009984105, -5292.505, 3.147392, 0.0, 0.0015711652, 0.0018617333, 0.0018617333, 0.0, 0.012207031, 0.012142934 
1.8310547e-2, 4.2457044e+1, -0.00011460496, -5277.0024, 10.750835, 0.0, 0.0016125458, 0.021787977, 0.021787977, 0.0, 0.012207031, 0.01214312 
1.8310547e-2, 4.2469186e+1, -0.0000008726005, -5276.973, 1.2726078, 0.0, 0.0009639425, 0.00030603263, 0.00030603263, 0.0, 0.012207031, 0.01214312 
1.8310547e-2, 4.248133e+1, -0.0000013908589, -5258.7925, -0.41489357, 0.0, 0.0015194634, 0.00003134226, 0.00003134226, 0.0, 0.012207031, 0.012143339 
1.8310547e-2, 4.2493474e+1, -0.000042511394, -5252.4556, 6.554758, 0.0, 0.0018743956, 0.008137432, 0.008137432, 0.0, 0.012207031, 0.0121434145 
1.8310547e-2, 4.2505616e+1, -0.000010628175, -5238.043, 3.2977974, 0.0, 0.0011138853, 0.0020656176, 0.0020656176, 0.0, 0.012207031, 0.012143588 
1.8310547e-2, 4.251776e+1, -0.000018770177, -5235.3813, 4.3568993, 0.0, 0.0015629801, 0.0036070512, 0.0036070512, 0.0, 0.012207031, 0.01214362 
1.8310547e-2, 4.2529905e+1, -0.000001105237, -5222.0835, 0.9178097, 0.0, 0.0015113413, 0.00016020484, 0.00016020484, 0.0, 0.012207031, 0.01214378 
1.8310547e-2, 4.2542046e+1, -0.000034872566, -5215.263, -5.9281554, 0.0, 0.001225055, 0.0067036147, 0.0067036147, 0.0, 0.012207031, 0.0121438615 
1.8310547e-2, 4.255419e+1, -0.0000037448465, -5200.058, 1.8986926, 0.0, 0.0017567502, 0.000689523, 0.000689523, 0.0, 0.012207031, 0.012144045 
1.8310547e-2, 4.2566335e+1, -0.00000977773, -5196.54, 3.1388884, 0.0, 0.001112696, 0.0018862177, 0.0018862177, 0.0, 0.012207031, 0.012144087 
1.8310547e-2, 4.257848e+1, -0.000002580949, -5181.6143, -1.6402686, 0.0, 0.0014963367, 0.000516655, 0.000516655, 0.0, 0.012207031, 0.012144267 
1.8310547e-2, 4.259062e+1, -0.0000036780975, -5181.3413, -1.779386, 0.0, 0.0017011663, 0.000607402, 0.000607402, 0.0, 0.012207031, 0.012144269 
1.8310547e-2, 4.260277e+1, -0.000001899803, -5156.309, 1.3052546, 0.0, 0.0011604446, 0.00032850893, 0.00032850893, 0.0, 0.012207031, 0.01214457 
1.8310547e-2, 4.2614913e+1, -0.000012339758, -5153.56, 3.5050113, 0.0, 0.0016804998, 0.0023714683, 0.0023714683, 0.0, 0.012207031, 0.012144604 
1.8310547e-2, 4.2627057e+1, -0.000008336361, -5149.9077, -2.9159982, 0.0, 0.001522676, 0.0016427694, 0.0016427694, 0.0, 0.012207031, 0.012144648 
1.8310547e-2, 4.2639202e+1, -0.0000013078159, -5135.238, 0.55538225, 0.0, 0.0010877171, 0.000058757447, 0.000058757447, 0.0, 0.012207031, 0.012144824 
1.8310547e-2, 4.265135e+1, -0.0000077152035, -5121.632, 2.7711766, 0.0, 0.0016767002, 0.0014916931, 0.0014916931, 0.0, 0.012207031, 0.0121449875 
1.8310547e-2, 4.266349e+1, -0.0000037131156, -5114.187, -1.7784221, 0.0, 0.0014405702, 0.00061472045, 0.00061472045, 0.0, 0.012207031, 0.012145077 
1.8310547e-2, 4.2675635e+1, -0.000016132626, -5101.439, 4.044807, 0.0, 0.0011048184, 0.0031908946, 0.0031908946, 0.0, 0.012207031, 0.01214523 
1.8310547e-2, 4.2687783e+1, -0.000011154351, -5102.908, -3.3672457, 0.0, 0.0019977463, 0.0022107821, 0.0022107821, 0.0, 0.012207031, 0.012145213 
1.8310547e-2, 4.2699927e+1, -0.0000010330926, -5086.5728, 1.3321157, 0.0, 0.0015695796, 0.00034783286, 0.00034783286, 0.0, 0.012207031, 0.012145408 
1.8310547e-2, 4.2712075e+1, -0.0000227647, -5079.475, 4.7909064, 0.0, 0.0007041068, 0.0044959625, 0.0044959625, 0.0, 0.012207031, 0.012145494 
1.8310547e-2, 4.272422e+1, -0.00000016826817, -5055.148, 0.8057999, 0.0, 0.0017645698, 0.00012827771, 0.00012827771, 0.0, 0.012207031, 0.012145787 
1.8310547e-2, 4.2736363e+1, -0.000033391705, -5060.139, -5.8047633, 0.0, 0.0015793657, 0.0066255624, 0.0066255624, 0.0, 0.012207031, 0.012145727 
1.8310547e-2, 4.2748508e+1, -0.00009227823, -5050.3657, -9.645427, 0.0, 0.0015298078, 0.018328944, 0.018328944, 0.0, 0.012207031, 0.012145844 
1.8310547e-2, 4.2760655e+1, -0.000116413554, -5053.196, 10.836246, 0.0, 0.001230129, 0.023121094, 0.023121094, 0.0, 0.012207031, 0.01214581 
1.8310547e-2, 4.27728e+1, -0.000045039462, -5039.783, -6.73878, 0.0, 0.0008789844, 0.008965482, 0.008965482, 0.0, 0.012207031, 0.012145971 
1.8310547e-2, 4.2784947e+1, -0.008911475, -5001.4126, 94.79296, 0.0, 0.0025726622, 1.7870804, 1.7870804, 0.0, 0.012207031, 0.012146433 
1.8310547e-2, 4.2797098e+1, -0.00048745988, -4999.0557, -22.169971, 0.0, 0.0014117692, 0.09783071, 0.09783071, 0.0, 0.012207031, 0.012146461 
1.8310547e-2, 4.2809242e+1, -0.00008714493, -4999.7, 9.375606, 0.0, 0.00053230824, 0.017494245, 0.017494245, 0.0, 0.012207031, 0.012146453 
1.8310547e-2, 4.282139e+1, -0.0000005005354, -4987.7446, -0.36419994, 0.0, 0.0015913992, 0.000026092966, 0.000026092966, 0.0, 0.012207031, 0.012146597 
1.8310547e-2, 4.2833534e+1, -0.00038435083, -4977.813, 19.685162, 0.0, 0.0019324049, 0.07746099, 0.07746099, 0.0, 0.012207031, 0.012146717 
1.8310547e-2, 4.284568e+1, -0.00016214803, -4958.808, 12.785984, 0.0, 0.0018806081, 0.03280551, 0.03280551, 0.0, 0.012207031, 0.012146945 
1.8310547e-2, 4.2857826e+1, -0.000012051695, -4955.986, 3.481327, 0.0, 0.00035145163, 0.0024334018, 0.0024334018, 0.0, 0.012207031, 0.01214698 
1.8310547e-2, 4.2869976e+1, -0.000012285806, -4927.512, -3.5215497, 0.0, 0.0012352138, 0.0025044621, 0.0025044621, 0.0, 0.012207031, 0.012147321 
1.8310547e-2, 4.288212e+1, -0.0017118296, -4940.271, 41.544056, 0.0, 0.002731379, 0.34761864, 0.34761864, 0.0, 0.012207031, 0.012147169 
1.8310547e-2, 4.2894268e+1, -0.0023878606, -4945.2427, 49.066673, 0.0, 0.0009452888, 0.4844038, 0.4844038, 0.0, 0.012207031, 0.012147108 
1.8310547e-2, 4.2906418e+1, -0.000013145543, -4919.44, 3.6402879, 0.0, 0.001113124, 0.0026805939, 0.0026805939, 0.0, 0.012207031, 0.012147419 
1.8310547e-2, 4.2918563e+1, -0.000051929077, -4919.853, -7.2340245, 0.0, 0.0019116243, 0.010584771, 0.010584771, 0.0, 0.012207031, 0.012147414 
1.8310547e-2, 4.2930713e+1, -0.00010090567, -4905.503, 10.08666, 0.0, 0.00106015, 0.020639129, 0.020639129, 0.0, 0.012207031, 0.012147587 
1.8310547e-2, 4.294286e+1, -0.000006426421, -4888.0024, 2.569748, 0.0, 0.0011713087, 0.0013445554, 0.0013445554, 0.0, 0.012207031, 0.012147797 
1.8310547e-2, 4.2955005e+1, -0.00008259745, -4880.633, -9.125894, 0.0, 0.002144859, 0.0169811, 0.0169811, 0.0, 0.012207031, 0.012147886 
1.8310547e-2, 4.2967156e+1, -0.0000007424498, -4876.763, -0.4043161, 0.0, 0.001367498, 0.000032778044, 0.000032778044, 0.0, 0.012207031, 0.012147932 
1.8310547e-2, 4.29793e+1, -0.000069692556, -4864.958, 8.382075, 0.0, 0.0009758515, 0.014372154, 0.014372154, 0.0, 0.012207031, 0.012148074 
1.8310547e-2, 4.299145e+1, -0.00003587873, -4840.445, 6.016232, 0.0, 0.0017669093, 0.007441738, 0.007441738, 0.0, 0.012207031, 0.012148369 
1.8310547e-2, 4.30036e+1, -0.000049445625, -4834.0654, -7.0584397, 0.0, 0.0013511259, 0.010256883, 0.010256883, 0.0, 0.012207031, 0.0121484455 
1.8310547e-2, 4.3015748e+1, -0.0000007169813, -4818.942, -0.73483455, 0.0, 0.001202625, 0.000111337045, 0.000111337045, 0.0, 0.012207031, 0.012148628 
1.8310547e-2, 4.3027896e+1, -0.0019115515, -4826.379, 43.896435, 0.0, 0.0018311292, 0.39729837, 0.39729837, 0.0, 0.012207031, 0.012148539 
1.8310547e-2, 4.3040046e+1, -0.0020098598, -4819.0674, 45.01017, 0.0, 0.0015424162, 0.41834936, 0.41834936, 0.0, 0.012207031, 0.012148626 
1.8310547e-2, 4.3052194e+1, -0.00007115264, -4800.6504, 8.470865, 0.0, 0.0010496983, 0.014875849, 0.014875849, 0.0, 0.012207031, 0.012148848 
1.8310547e-2, 4.3064344e+1, -0.00014432229, -4794.1025, -12.058756, 0.0, 0.0013113656, 0.03018725, 0.03018725, 0.0, 0.012207031, 0.012148927 
1.8310547e-2, 4.307649e+1, -0.00031458115, -4785.7163, 17.806366, 0.0, 0.00195322, 0.065937206, 0.065937206, 0.0, 0.012207031, 0.012149028 
1.8310547e-2, 4.3088642e+1, -0.0010299411, -4781.518, 32.21968, 0.0, 0.001220858, 0.21606869, 0.21606869, 0.0, 0.012207031, 0.012149078 
1.8310547e-2, 4.3100792e+1, -0.000090481015, -4766.1953, 9.549407, 0.0, 0.001341422, 0.01904235, 0.01904235, 0.0, 0.012207031, 0.012149262 
1.8310547e-2, 4.3112937e+1, -0.00008966987, -4743.608, -9.503714, 0.0, 0.0017957808, 0.018950734, 0.018950734, 0.0, 0.012207031, 0.012149534 
1.8310547e-2, 4.3125087e+1, -0.00000093556537, -4754.704, 1.0812006, 0.0, 0.0010682233, 0.0002449251, 0.0002449251, 0.0, 0.012207031, 0.012149401 
1.8310547e-2, 4.3137237e+1, -0.000055335368, -4738.104, 7.470085, 0.0, 0.0011639608, 0.011721957, 0.011721957, 0.0, 0.012207031, 0.0121496 
1.8310547e-2, 4.3149388e+1, -0.000010340079, -4723.189, -3.2183182, 0.0, 0.0020398812, 0.0021825782, 0.0021825782, 0.0, 0.012207031, 0.01214978 
1.8310547e-2, 4.3161538e+1, -0.000020846126, -4706.2266, -4.582482, 0.0, 0.0016126945, 0.0044411407, 0.0044411407, 0.0, 0.012207031, 0.012149984 
1.8310547e-2, 4.3173686e+1, -0.000014451664, -4712.1187, 3.8045423, 0.0, 0.0008035232, 0.0030573157, 0.0030573157, 0.0, 0.012207031, 0.012149913 
1.8310547e-2, 4.3185836e+1, -0.0000032422395, -4694.3545, 1.8448504, 0.0, 0.0015140593, 0.0007217717, 0.0007217717, 0.0, 0.012207031, 0.012150127 
1.8310547e-2, 4.3197986e+1, -0.0000012009051, -4689.5215, -1.3685182, 0.0, 0.0018214468, 0.0003981665, 0.0003981665, 0.0, 0.012207031, 0.012150185 
1.8310547e-2, 4.321014e+1, -0.0000036576885, -4665.801, -1.9668981, 0.0, 0.0011040418, 0.00082550064, 0.00082550064, 0.0, 0.012207031, 0.012150471 
1.8310547e-2, 4.322229e+1, -0.000052806266, -4666.7275, 7.293638, 0.0, 0.0016216005, 0.011346409, 0.011346409, 0.0, 0.012207031, 0.01215046 
1.8310547e-2, 4.323444e+1, -0.00018258535, -4658.4976, 13.566645, 0.0, 0.0016521286, 0.039326355, 0.039326355, 0.0, 0.012207031, 0.012150559 
1.8310547e-2, 4.324659e+1, -0.0000032163182, -4650.971, 1.7562196, 0.0, 0.0010413163, 0.000659937, 0.000659937, 0.0, 0.012207031, 0.01215065 
1.8310547e-2, 4.325874e+1, -0.000020051417, -4627.534, -4.5011916, 0.0, 0.001498739, 0.0043582427, 0.0043582427, 0.0, 0.012207031, 0.012150932 
1.8310547e-2, 4.3270892e+1, -0.00004986182, -4633.8853, 7.092701, 0.0, 0.001650305, 0.010806317, 0.010806317, 0.0, 0.012207031, 0.012150855 
1.8310547e-2, 4.3283042e+1, -0.00004297098, -4613.8184, 6.5820537, 0.0, 0.0012467647, 0.009346941, 0.009346941, 0.0, 0.012207031, 0.012151097 
1.8310547e-2, 4.3295193e+1, -0.00000046000102, -4614.5225, 0.2641739, 0.0, 0.0015302851, 0.000014663525, 0.000014663525, 0.0, 0.012207031, 0.012151089 
1.8310547e-2, 4.3307346e+1, -0.0000075990256, -4586.9375, -2.7478483, 0.0, 0.001673419, 0.0016385249, 0.0016385249, 0.0, 0.012207031, 0.01215142 
1.8310547e-2, 4.3319497e+1, -0.0000019639558, -4592.3135, 1.4375012, 0.0, 0.0011270625, 0.00044800737, 0.00044800737, 0.0, 0.012207031, 0.012151356 
1.8310547e-2, 4.333165e+1, -0.0000044593717, -4578.7603, 2.1300092, 0.0, 0.0012973418, 0.0009864067, 0.0009864067, 0.0, 0.012207031, 0.012151519 
1.8310547e-2, 4.33438e+1, -0.0000026343678, -4570.7114, -1.6240697, 0.0, 0.0018264476, 0.0005744316, 0.0005744316, 0.0, 0.012207031, 0.012151616 
1.8310547e-2, 4.3355954e+1, -0.0000002666474, -4552.5273, -0.066465646, 0.0, 0.0013901944, 0.00000070373335, 0.00000070373335, 0.0, 0.012207031, 0.012151835 
1.8310547e-2, 4.3368104e+1, -0.0000013629294, -4554.306, -0.4719917, 0.0, 0.0012589601, 0.000047552567, 0.000047552567, 0.0, 0.012207031, 0.012151813 
1.8310547e-2, 4.3380257e+1, -0.00000036889904, -4535.613, 0.59892434, 0.0, 0.0016235082, 0.00007871861, 0.00007871861, 0.0, 0.012207031, 0.0121520385 
1.8310547e-2, 4.3392408e+1, -0.000005310672, -4529.222, 2.2954283, 0.0, 0.0013410584, 0.0011580215, 0.0011580215, 0.0, 0.012207031, 0.012152116 
1.8310547e-2, 4.340456e+1, -0.000007058961, -4515.7915, -2.6704988, 0.0, 0.0013541215, 0.0015721906, 0.0015721906, 0.0, 0.012207031, 0.012152277 
1.8310547e-2, 4.3416715e+1, -0.0000012987695, -4514.674, 0.3710044, 0.0, 0.0015822354, 0.000029189428, 0.000029189428, 0.0, 0.012207031, 0.012152291 
1.8310547e-2, 4.3428862e+1, -0.0000036432968, -4495.0645, 1.6867598, 0.0, 0.0015825508, 0.0006293083, 0.0006293083, 0.0, 0.012207031, 0.0121525265 
1.8310547e-2, 4.3441018e+1, -0.00000989989, -4494.387, -3.141669, 0.0, 0.0012659788, 0.0021861903, 0.0021861903, 0.0, 0.012207031, 0.012152535 
1.8310547e-2, 4.3453172e+1, -0.000027309354, -4480.0283, 5.252352, 0.0, 0.0011834694, 0.0061305016, 0.0061305016, 0.0, 0.012207031, 0.012152708 
1.8310547e-2, 4.346532e+1, -0.000046279383, -4460.337, 6.831662, 0.0, 0.001810507, 0.0104173925, 0.0104173925, 0.0, 0.012207031, 0.012152946 
1.8310547e-2, 4.3477476e+1, -0.000021086784, -4465.297, -4.6119366, 0.0, 0.0016525375, 0.0047423, 0.0047423, 0.0, 0.012207031, 0.012152885 
1.8310547e-2, 4.348963e+1, -0.0000001825699, -4458.016, 0.18212716, 0.0, 0.0010589311, 0.000007258028, 0.000007258028, 0.0, 0.012207031, 0.012152974 
1.8310547e-2, 4.3501782e+1, -0.00007428606, -4437.0996, 8.650175, 0.0, 0.0012527457, 0.016789263, 0.016789263, 0.0, 0.012207031, 0.012153225 
1.8310547e-2, 4.3513936e+1, -0.000015118746, -4423.9995, 3.873256, 0.0, 0.001725273, 0.0033759528, 0.0033759528, 0.0, 0.012207031, 0.012153383 
1.8310547e-2, 4.352609e+1, -0.0000066525936, -4423.478, -2.5867753, 0.0, 0.0020182088, 0.0015060494, 0.0015060494, 0.0, 0.012207031, 0.012153389 
1.8310547e-2, 4.3538243e+1, -0.000018212924, -4416.251, -4.2754307, 0.0, 0.000868871, 0.004120884, 0.004120884, 0.0, 0.012207031, 0.0121534765 
1.8310547e-2, 4.3550396e+1, -0.00000079774856, -4405.7734, 1.160016, 0.0, 0.000509597, 0.00030462805, 0.00030462805, 0.0, 0.012207031, 0.012153602 
1.8310547e-2, 4.356255e+1, -0.0000139815775, -4388.0938, 3.7443638, 0.0, 0.0026129496, 0.0031810848, 0.0031810848, 0.0, 0.012207031, 0.0121538155 
1.8310547e-2, 4.3574703e+1, -0.0000009077615, -4385.8667, 1.1119736, 0.0, 0.0022858656, 0.00028101722, 0.00028101722, 0.0, 0.012207031, 0.0121538425 
1.8310547e-2, 4.3586856e+1, -0.0000009599938, -4361.54, 1.1063312, 0.0, 0.000020301943, 0.00027966767, 0.00027966767, 0.0, 0.012207031, 0.012154136 
1.8310547e-2, 4.359901e+1, -0.00001223971, -4364.5522, -3.513055, 0.0, 0.0010493386, 0.0028154384, 0.0028154384, 0.0, 0.012207031, 0.0121540995 
1.8310547e-2, 4.3611163e+1, -0.000004268411, -4350.7485, 2.1037085, 0.0, 0.002491766, 0.0010129332, 0.0010129332, 0.0, 0.012207031, 0.012154265 
1.8310547e-2, 4.3623316e+1, -0.0003918186, -4348.473, 19.865776, 0.0, 0.0017223004, 0.09036209, 0.09036209, 0.0, 0.012207031, 0.012154293 
1.8310547e-2, 4.3635476e+1, -0.0001678894, -4328.89, 13.002198, 0.0, 0.00077403104, 0.038884994, 0.038884994, 0.0, 0.012207031, 0.012154529 
1.8310547e-2, 4.364763e+1, -0.0000432505, -4325.9497, -6.6007347, 0.0, 0.0010259711, 0.010028433, 0.010028433, 0.0, 0.012207031, 0.012154564 
1.8310547e-2, 4.3659782e+1, -0.000012660815, -4305.513, 3.5703177, 0.0, 0.0021587608, 0.0029479992, 0.0029479992, 0.0, 0.012207031, 0.01215481 
1.8310547e-2, 4.3671936e+1, -0.00034517044, -4314.3677, 18.645458, 0.0, 0.0016957641, 0.08023365, 0.08023365, 0.0, 0.012207031, 0.012154704 
1.8310547e-2, 4.3684092e+1, -0.000054855, -4294.002, 7.4288535, 0.0, 0.0008589309, 0.012797421, 0.012797421, 0.0, 0.012207031, 0.012154949 
1.8310547e-2, 4.369625e+1, -0.0000008998148, -4289.714, -1.304677, 0.0, 0.0014475064, 0.0003959057, 0.0003959057, 0.0, 0.012207031, 0.012155001 
1.8310547e-2, 4.3708402e+1, -0.00000045540153, -4272.469, 1.0281014, 0.0, 0.0017055703, 0.00024694076, 0.00024694076, 0.0, 0.012207031, 0.012155209 
1.8310547e-2, 4.3720558e+1, -0.00000026394864, -4265.091, -0.107415505, 0.0, 0.0014243792, 0.0000024412902, 0.0000024412902, 0.0, 0.012207031, 0.012155298 
1.8310547e-2, 4.3732712e+1, -0.000010414497, -4252.648, -3.23959, 0.0, 0.0013447904, 0.002457445, 0.002457445, 0.0, 0.012207031, 0.012155448 
1.8310547e-2, 4.3744868e+1, -0.00000065413445, -4256.653, -1.0386872, 0.0, 0.0015183395, 0.00025280114, 0.00025280114, 0.0, 0.012207031, 0.0121554 
1.8310547e-2, 4.375702e+1, -0.000029147217, -4230.223, 5.414926, 0.0, 0.0014059384, 0.0069022547, 0.0069022547, 0.0, 0.012207031, 0.012155718 
1.8310547e-2, 4.376918e+1, -0.000017360222, -4226.5654, 4.1780066, 0.0, 0.0014731447, 0.004112642, 0.004112642, 0.0, 0.012207031, 0.012155762 
1.8310547e-2, 4.3781334e+1, -0.0000053027575, -4203.26, -2.3259299, 0.0, 0.001519463, 0.0012817811, 0.0012817811, 0.0, 0.012207031, 0.012156043 
1.8310547e-2, 4.379349e+1, -0.000013914336, -4205.9634, -3.7493017, 0.0, 0.0011806375, 0.003328305, 0.003328305, 0.0, 0.012207031, 0.012156011 
1.8310547e-2, 4.380565e+1, -0.0021214879, -4189.4917, 46.219505, 0.0, 0.0016239149, 0.50772166, 0.50772166, 0.0, 0.012207031, 0.012156209 
1.8310547e-2, 4.3817803e+1, -0.0021511964, -4199.619, 46.54208, 0.0, 0.0017272518, 0.51358616, 0.51358616, 0.0, 0.012207031, 0.012156087 
1.8310547e-2, 4.382996e+1, -0.00010521859, -4167.2505, 10.291514, 0.0, 0.0011002698, 0.025310729, 0.025310729, 0.0, 0.012207031, 0.012156477 
1.8310547e-2, 4.3842116e+1, -0.00015481723, -4167.162, -12.485537, 0.0, 0.0013839958, 0.037253667, 0.037253667, 0.0, 0.012207031, 0.012156478 
1.8310547e-2, 4.3854275e+1, -0.0023874186, -4163.8203, 49.030235, 0.0, 0.0015941816, 0.5748786, 0.5748786, 0.0, 0.012207031, 0.012156518 
1.8310547e-2, 4.386643e+1, -0.0019443834, -4155.5425, 44.24739, 0.0, 0.001606814, 0.46913984, 0.46913984, 0.0, 0.012207031, 0.012156619 
1.8310547e-2, 4.3878585e+1, -0.00007153085, -4130.8965, 8.485054, 0.0, 0.0013464527, 0.017357092, 0.017357092, 0.0, 0.012207031, 0.012156916 
1.8310547e-2, 4.3890744e+1, -0.000059210444, -4136.642, -7.720509, 0.0, 0.001074757, 0.014350075, 0.014350075, 0.0, 0.012207031, 0.012156846 
1.8310547e-2, 4.39029e+1, -0.0000041657436, -4120.343, 1.9059939, 0.0, 0.0018286237, 0.0008775114, 0.0008775114, 0.0, 0.012207031, 0.0121570425 
1.8310547e-2, 4.3915057e+1, -0.00002188384, -4112.876, 4.686813, 0.0, 0.0015875058, 0.0053189495, 0.0053189495, 0.0, 0.012207031, 0.012157133 
1.8310547e-2, 4.3927217e+1, -0.000009538501, -4090.897, -3.1021545, 0.0, 0.0011347648, 0.0023428446, 0.0023428446, 0.0, 0.012207031, 0.012157397 
1.8310547e-2, 4.3939373e+1, -0.0000031189952, -4098.035, -1.7675768, 0.0, 0.0015430126, 0.0007592773, 0.0007592773, 0.0, 0.012207031, 0.012157312 
1.8310547e-2, 4.395153e+1, -0.000010941966, -4077.695, 3.3262239, 0.0, 0.0013652801, 0.0027022962, 0.0027022962, 0.0, 0.012207031, 0.012157557 
1.8310547e-2, 4.396369e+1, -0.000026724701, -4065.7642, 5.1855483, 0.0, 0.00172507, 0.006587006, 0.006587006, 0.0, 0.012207031, 0.012157701 
1.8310547e-2, 4.3975845e+1, -0.000008093506, -4054.1357, -2.8553905, 0.0, 0.0013137317, 0.0020030013, 0.0020030013, 0.0, 0.012207031, 0.012157841 
1.8310547e-2, 4.3988e+1, -0.000022345024, -4044.7874, -4.741154, 0.0, 0.0011063496, 0.0055350577, 0.0055350577, 0.0, 0.012207031, 0.012157954 
1.8310547e-2, 4.400016e+1, -0.0022533895, -4036.122, 47.629467, 0.0, 0.0018652215, 0.5597344, 0.5597344, 0.0, 0.012207031, 0.012158059 
1.8310547e-2, 4.4012317e+1, -0.0023058315, -4041.5396, 48.180737, 0.0, 0.0013361771, 0.57199377, 0.57199377, 0.0, 0.012207031, 0.012157993 
1.8310547e-2, 4.4024476e+1, -0.00004602722, -4016.0916, 6.804491, 0.0, 0.0013265542, 0.011482835, 0.011482835, 0.0, 0.012207031, 0.0121583 
1.8310547e-2, 4.4036636e+1, -0.000118024844, -4011.6758, -10.901787, 0.0, 0.0017118002, 0.029507518, 0.029507518, 0.0, 0.012207031, 0.012158353 
1.8310547e-2, 4.4048795e+1, -0.00038992084, -4000.7146, 19.811676, 0.0, 0.0011853725, 0.09771577, 0.09771577, 0.0, 0.012207031, 0.012158485 
1.8310547e-2, 4.406095e+1, -0.0017104858, -4000.804, 41.495422, 0.0, 0.0015697555, 0.4286244, 0.4286244, 0.0, 0.012207031, 0.012158484 
1.8310547e-2, 4.4073114e+1, -0.00008030628, -3983.7344, 8.98722, 0.0, 0.0015870952, 0.020194566, 0.020194566, 0.0, 0.012207031, 0.01215869 
1.8310547e-2, 4.408527e+1, -0.00005176082, -3969.079, -7.216994, 0.0, 0.0009314665, 0.013070887, 0.013070887, 0.0, 0.012207031, 0.012158867 
1.8310547e-2, 4.4097427e+1, -0.0000065426984, -3965.7542, 2.563902, 0.0, 0.001663115, 0.0016510462, 0.0016510462, 0.0, 0.012207031, 0.012158907 
1.8310547e-2, 4.410959e+1, -0.0000018059086, -3952.8066, 0.3131654, 0.0, 0.0021005927, 0.000023004957, 0.000023004957, 0.0, 0.012207031, 0.0121590635 
1.8310547e-2, 4.4121745e+1, -0.000008546138, -3941.5146, -2.9228637, 0.0, 0.001027619, 0.0021589273, 0.0021589273, 0.0, 0.012207031, 0.012159199 
1.8310547e-2, 4.4133908e+1, -0.000011357065, -3939.9602, 3.38452, 0.0, 0.0007025092, 0.0028960244, 0.0028960244, 0.0, 0.012207031, 0.012159218 
1.8310547e-2, 4.4146064e+1, -0.00000037867056, -3921.4216, 1.1100286, 0.0, 0.0018985835, 0.00031383475, 0.00031383475, 0.0, 0.012207031, 0.012159442 
1.8310547e-2, 4.4158226e+1, -0.0000035150752, -3908.549, 1.9245089, 0.0, 0.0024552534, 0.00094408303, 0.00094408303, 0.0, 0.012207031, 0.012159597 
1.8310547e-2, 4.4170383e+1, -0.00000026835698, -3895.4868, -0.12184701, 0.0, 0.00072513946, 0.0000035428984, 0.0000035428984, 0.0, 0.012207031, 0.0121597545 
1.8310547e-2, 4.4182545e+1, -0.000005681927, -3891.0715, -2.3783824, 0.0, 0.00049211975, 0.0014480825, 0.0014480825, 0.0, 0.012207031, 0.012159809 
1.8310547e-2, 4.4194707e+1, -0.0020903833, -3888.2888, 45.867924, 0.0, 0.0022761738, 0.53891236, 0.53891236, 0.0, 0.012207031, 0.012159842 
1.8310547e-2, 4.4206864e+1, -0.002324867, -3874.316, 48.371887, 0.0, 0.002113859, 0.60151756, 0.60151756, 0.0, 0.012207031, 0.012160011 
1.8310547e-2, 4.4219026e+1, -0.000036266465, -3857.1746, 6.039897, 0.0, 0.00078627333, 0.009421502, 0.009421502, 0.0, 0.012207031, 0.012160217 
1.8310547e-2, 4.4231182e+1, -0.00004190709, -3853.1252, -6.4922976, 0.0, 0.00096260593, 0.010897216, 0.010897216, 0.0, 0.012207031, 0.012160266 
1.8310547e-2, 4.4243345e+1, -0.002186906, -3843.965, 46.913956, 0.0, 0.0019164266, 0.570293, 0.570293, 0.0, 0.012207031, 0.012160377 
1.8310547e-2, 4.4255504e+1, -0.0021623326, -3846.1335, 46.65013, 0.0, 0.0018172412, 0.5635788, 0.5635788, 0.0, 0.012207031, 0.012160351 
1.8310547e-2, 4.4267666e+1, -0.00003672965, -3833.0088, 6.0772824, 0.0, 0.0010273, 0.009598851, 0.009598851, 0.0, 0.012207031, 0.012160509 
1.8310547e-2, 4.4279826e+1, -0.00007844476, -3816.2124, -8.885974, 0.0, 0.001334718, 0.020612257, 0.020612257, 0.0, 0.012207031, 0.012160712 
1.8310547e-2, 4.4291988e+1, -0.0000796311, -3801.5508, 8.955045, 0.0, 0.0017493335, 0.021015018, 0.021015018, 0.0, 0.012207031, 0.012160889 
1.8310547e-2, 4.4304144e+1, -0.0000010968292, -3796.861, 1.154259, 0.0, 0.0011759162, 0.00034980188, 0.00034980188, 0.0, 0.012207031, 0.012160945 
1.8310547e-2, 4.4316307e+1, -0.00006390717, -3790.1848, -8.016614, 0.0, 0.0014557474, 0.016891947, 0.016891947, 0.0, 0.012207031, 0.012161026 
1.8310547e-2, 4.432847e+1, -0.0000025339573, -3784.6047, 1.516127, 0.0, 0.001829555, 0.00060483214, 0.00060483214, 0.0, 0.012207031, 0.012161093 
1.8310547e-2, 4.4340628e+1, -0.000024390647, -3761.1323, 4.958364, 0.0, 0.0012819181, 0.006512292, 0.006512292, 0.0, 0.012207031, 0.012161376 
1.8310547e-2, 4.435279e+1, -0.00007043754, -3750.689, 8.417995, 0.0, 0.0009882152, 0.0188227, 0.0188227, 0.0, 0.012207031, 0.012161503 
1.8310547e-2, 4.4364953e+1, -0.00003320495, -3732.1792, -5.7828903, 0.0, 0.001653179, 0.008927175, 0.008927175, 0.0, 0.012207031, 0.012161726 
1.8310547e-2, 4.4377118e+1, -0.0000181569, -3734.4668, -4.277771, 0.0, 0.0020162594, 0.004881954, 0.004881954, 0.0, 0.012207031, 0.012161698 
1.8310547e-2, 4.4389278e+1, -0.002485786, -3730.9775, 50.012, 0.0, 0.0011046861, 0.6677816, 0.6677816, 0.0, 0.012207031, 0.01216174 
1.8310547e-2, 4.440144e+1, -0.0034740623, -3719.6868, 59.123287, 0.0, 0.00093706633, 0.9360361, 0.9360361, 0.0, 0.012207031, 0.012161877 
1.8310547e-2, 4.4413602e+1, -0.000009146893, -3700.1362, 3.0141656, 0.0, 0.0017371614, 0.002446219, 0.002446219, 0.0, 0.012207031, 0.012162113 
1.8310547e-2, 4.4425762e+1, -0.0001589519, -3700.4216, -12.645405, 0.0, 0.001989153, 0.04305353, 0.04305353, 0.0, 0.012207031, 0.012162109 
1.8310547e-2, 4.4437927e+1, -0.0027181366, -3691.0183, 52.29575, 0.0, 0.0013141843, 0.7380798, 0.7380798, 0.0, 0.012207031, 0.0121622225 
1.8310547e-2, 4.445009e+1, -0.0026883122, -3692.6113, 52.007607, 0.0, 0.0004561468, 0.7296544, 0.7296544, 0.0, 0.012207031, 0.012162204 
1.8310547e-2, 4.446225e+1, -0.000014133199, -3666.6619, 3.7666671, 0.0, 0.001937392, 0.0038552627, 0.0038552627, 0.0, 0.012207031, 0.012162517 
1.8310547e-2, 4.447441e+1, -0.000049992064, -3668.5417, -7.0927014, 0.0, 0.0023342005, 0.013662875, 0.013662875, 0.0, 0.012207031, 0.0121624945 
1.8310547e-2, 4.4486576e+1, -0.000044545068, -3647.6582, 6.6937013, 0.0, 0.00073907763, 0.012238811, 0.012238811, 0.0, 0.012207031, 0.012162746 
1.8310547e-2, 4.449874e+1, -0.0000025212844, -3641.4585, 1.4773202, 0.0, 0.0011033395, 0.0005968195, 0.0005968195, 0.0, 0.012207031, 0.012162821 
1.8310547e-2, 4.45109e+1, -0.00002051435, -3627.9097, -4.538222, 0.0, 0.0020203865, 0.0056564263, 0.0056564263, 0.0, 0.012207031, 0.012162984 
1.8310547e-2, 4.4523063e+1, -0.0000005571184, -3628.273, -0.4519181, 0.0, 0.0010903464, 0.00005573136, 0.00005573136, 0.0, 0.012207031, 0.012162981 
1.8310547e-2, 4.453523e+1, -0.000023541492, -3613.307, 4.8740273, 0.0, 0.0012524078, 0.0065510725, 0.0065510725, 0.0, 0.012207031, 0.012163161 
1.8310547e-2, 4.454739e+1, -0.000009747221, -3592.0403, 3.1314883, 0.0, 0.0023151878, 0.0027202365, 0.0027202365, 0.0, 0.012207031, 0.012163417 
1.8310547e-2, 4.4559556e+1, -0.000019185185, -3576.9976, -4.3971405, 0.0, 0.00123452, 0.005386135, 0.005386135, 0.0, 0.012207031, 0.0121636 
1.8310547e-2, 4.4571716e+1, -0.0000027147428, -3584.4236, 1.6495203, 0.0, 0.00036029628, 0.0007563798, 0.0007563798, 0.0, 0.012207031, 0.01216351 
1.8310547e-2, 4.458388e+1, -0.0022366699, -3573.8164, 47.43384, 0.0, 0.0018977607, 0.6272233, 0.6272233, 0.0, 0.012207031, 0.012163638 
1.8310547e-2, 4.4596046e+1, -0.0020171022, -3561.8337, 45.044365, 0.0, 0.0025392957, 0.56754106, 0.56754106, 0.0, 0.012207031, 0.0121637825 
1.8310547e-2, 4.460821e+1, -0.000043761705, -3541.4478, 6.63611, 0.0, 0.0009306692, 0.01239121, 0.01239121, 0.0, 0.012207031, 0.012164029 
1.8310547e-2, 4.4620374e+1, -0.000029549154, -3545.4304, -5.4513474, 0.0, 0.00038323735, 0.00835226, 0.00835226, 0.0, 0.012207031, 0.012163981 
1.8310547e-2, 4.463254e+1, -0.0024439953, -3540.6746, 49.581837, 0.0, 0.0021904425, 0.6917397, 0.6917397, 0.0, 0.012207031, 0.012164039 
1.8310547e-2, 4.4644699e+1, -0.0020651345, -3521.5627, 45.57669, 0.0, 0.0019079839, 0.5876981, 0.5876981, 0.0, 0.012207031, 0.012164269 
1.8310547e-2, 4.4656864e+1, -0.000007972463, -3517.2573, 2.8190615, 0.0, 0.0007174215, 0.002251488, 0.002251488, 0.0, 0.012207031, 0.012164321 
1.8310547e-2, 4.466903e+1, -0.000023485809, -3508.4983, -4.860373, 0.0, 0.0019749224, 0.0067096455, 0.0067096455, 0.0, 0.012207031, 0.012164427 
1.8310547e-2, 4.4681194e+1, -0.000025486772, -3495.5044, 5.0635524, 0.0, 0.0016336753, 0.0073095085, 0.0073095085, 0.0, 0.012207031, 0.012164583 
1.8310547e-2, 4.469336e+1, -0.0000053513745, -3480.836, 2.3216197, 0.0, 0.00036997788, 0.0015431033, 0.0015431033, 0.0, 0.012207031, 0.012164761 
1.8310547e-2, 4.4705525e+1, -0.0000064402434, -3479.1484, -2.5402346, 0.0, 0.0018583297, 0.0018482631, 0.0018482631, 0.0, 0.012207031, 0.012164782 
1.8310547e-2, 4.471769e+1, -0.0000016008405, -3462.7197, -1.2728844, 0.0, 0.0023281812, 0.0004663072, 0.0004663072, 0.0, 0.012207031, 0.01216498 
1.8310547e-2, 4.4729856e+1, -0.000011023929, -3448.6116, 3.3221023, 0.0, 0.00097207865, 0.0031892068, 0.0031892068, 0.0, 0.012207031, 0.012165151 
1.8310547e-2, 4.474202e+1, -0.0000008001458, -3441.3892, 0.5182954, 0.0, 0.00081717706, 0.00007725848, 0.00007725848, 0.0, 0.012207031, 0.012165237 
1.8310547e-2, 4.4754183e+1, -0.000024852903, -3445.0234, -5.0015144, 0.0, 0.0017653635, 0.0072363736, 0.0072363736, 0.0, 0.012207031, 0.012165193 
1.8310547e-2, 4.476635e+1, -0.00000029488098, -3424.6382, 0.46444815, 0.0, 0.0020037924, 0.000062693405, 0.000062693405, 0.0, 0.012207031, 0.01216544 
1.8310547e-2, 4.4778514e+1, -0.000021006865, -3416.7893, 4.595047, 0.0, 0.0010787842, 0.0061586015, 0.0061586015, 0.0, 0.012207031, 0.012165535 
1.8310547e-2, 4.479068e+1, -0.000013661583, -3392.2998, 3.7027915, 0.0, 0.00120773, 0.0040280353, 0.0040280353, 0.0, 0.012207031, 0.0121658305 
1.8310547e-2, 4.4802845e+1, -0.000008691265, -3399.3347, -2.940379, 0.0, 0.0016390419, 0.002534695, 0.002534695, 0.0, 0.012207031, 0.012165746 
1.8310547e-2, 4.481501e+1, -0.000006157269, -3374.339, -2.4749415, 0.0, 0.0015543901, 0.0018091114, 0.0018091114, 0.0, 0.012207031, 0.0121660475 
1.8310547e-2, 4.4827178e+1, -0.002310288, -3376.7969, 48.200912, 0.0, 0.0014314333, 0.6855773, 0.6855773, 0.0, 0.012207031, 0.012166019 
1.8310547e-2, 4.4839343e+1, -0.0023543492, -3366.6052, 48.657444, 0.0, 0.0012384234, 0.70074385, 0.70074385, 0.0, 0.012207031, 0.0121661415 
1.8310547e-2, 4.485151e+1, -0.0000021023902, -3367.326, 1.4430637, 0.0, 0.0014762017, 0.0006163208, 0.0006163208, 0.0, 0.012207031, 0.012166132 
1.8310547e-2, 4.4863677e+1, -0.0000770495, -3348.7454, -8.804923, 0.0, 0.0017340143, 0.02307375, 0.02307375, 0.0, 0.012207031, 0.012166358 
1.8310547e-2, 4.4875842e+1, -0.00044715102, -3348.128, 21.205372, 0.0, 0.0012779388, 0.13385172, 0.13385172, 0.0, 0.012207031, 0.012166365 
1.8310547e-2, 4.4888008e+1, -0.00000021394884, -3316.6147, 0.5815137, 0.0, 0.0013475677, 0.00010174488, 0.00010174488, 0.0, 0.012207031, 0.012166745 
1.8310547e-2, 4.4900176e+1, -0.00000051073, -3322.4854, -0.6967561, 0.0, 0.001592012, 0.0001456055, 0.0001456055, 0.0, 0.012207031, 0.012166674 
1.8310547e-2, 4.491234e+1, -0.000004294149, -3299.927, -2.1276488, 0.0, 0.0013534275, 0.0013675203, 0.0013675203, 0.0, 0.012207031, 0.012166947 
1.8310547e-2, 4.492451e+1, -0.0000009900654, -3305.4336, 0.24221615, 0.0, 0.0014036102, 0.000016759095, 0.000016759095, 0.0, 0.012207031, 0.012166881 
1.8310547e-2, 4.4936675e+1, -0.0000059592658, -3280.1243, 2.4602492, 0.0, 0.001648399, 0.0018393436, 0.0018393436, 0.0, 0.012207031, 0.0121671865 
1.8310547e-2, 4.4948846e+1, -0.0000048196084, -3285.027, -2.2173426, 0.0, 0.0013232834, 0.0014918516, 0.0014918516, 0.0, 0.012207031, 0.012167127 
1.8310547e-2, 4.496101e+1, -0.0000023698797, -3264.6184, -1.3620992, 0.0, 0.0014228151, 0.0005659397, 0.0005659397, 0.0, 0.012207031, 0.012167374 
1.8310547e-2, 4.497318e+1, -0.00001100184, -3266.314, 3.3214736, 0.0, 0.0014941747, 0.0033665593, 0.0033665593, 0.0, 0.012207031, 0.012167353 
1.8310547e-2, 4.4985348e+1, -0.0000014340138, -3238.2944, -0.2729565, 0.0, 0.0014353151, 0.000021573545, 0.000021573545, 0.0, 0.012207031, 0.012167692 
1.8310547e-2, 4.4997513e+1, -0.0000024371145, -3246.8254, -1.5839016, 0.0, 0.0013548568, 0.0007702388, 0.0007702388, 0.0, 0.012207031, 0.012167589 
1.8310547e-2, 4.5009682e+1, -0.00000017939323, -3223.7458, 0.4571344, 0.0, 0.0016487066, 0.00006464329, 0.00006464329, 0.0, 0.012207031, 0.012167868 
1.8310547e-2, 4.502185e+1, -0.00000015236188, -3224.7808, 0.44417048, 0.0, 0.0015495913, 0.000061026192, 0.000061026192, 0.0, 0.012207031, 0.012167855 
1.8310547e-2, 4.5034015e+1, -0.00000038757162, -3203.6633, 0.6149585, 0.0, 0.0009706025, 0.00011765665, 0.00011765665, 0.0, 0.012207031, 0.012168111 
1.8310547e-2, 4.5046183e+1, -0.00000067484206, -3205.9158, -0.38629088, 0.0, 0.0014124068, 0.000045870554, 0.000045870554, 0.0, 0.012207031, 0.012168083 
1.8310547e-2, 4.5058355e+1, -0.00000046520867, -3187.1663, -0.9022763, 0.0, 0.0021916616, 0.00025496623, 0.00025496623, 0.0, 0.012207031, 0.012168311 
1.8310547e-2, 4.5070523e+1, -0.00000016431024, -3180.6626, 0.14200296, 0.0, 0.001368526, 0.000006175514, 0.000006175514, 0.0, 0.012207031, 0.012168389 
1.8310547e-2, 4.508269e+1, -0.0000065652175, -3165.6655, 2.5620258, 0.0, 0.0005619433, 0.0020669233, 0.0020669233, 0.0, 0.012207031, 0.01216857 
1.8310547e-2, 4.509486e+1, -0.00000032336723, -3172.9114, -0.38167533, 0.0, 0.0014888119, 0.00004558906, 0.00004558906, 0.0, 0.012207031, 0.012168483 
1.8310547e-2, 4.5107028e+1, -0.000025458186, -3146.9814, -5.054154, 0.0, 0.0026480984, 0.008091656, 0.008091656, 0.0, 0.012207031, 0.012168797 
1.8310547e-2, 4.51192e+1, -0.000007691681, -3137.5313, 2.7831373, 0.0, 0.0012619313, 0.0024610797, 0.0024610797, 0.0, 0.012207031, 0.01216891 
1.8310547e-2, 4.5131367e+1, -0.000036830992, -3125.6624, 6.083633, 0.0, 0.00011925532, 0.011804003, 0.011804003, 0.0, 0.012207031, 0.012169054 
1.8310547e-2, 4.5143536e+1, -0.000025411842, -3133.58, -5.052482, 0.0, 0.0018998584, 0.008121025, 0.008121025, 0.0, 0.012207031, 0.012168959 
1.8310547e-2, 4.5155704e+1, -0.00004328376, -3116.3384, -6.5946383, 0.0, 0.0024376174, 0.0139118945, 0.0139118945, 0.0, 0.012207031, 0.0121691665 
1.8310547e-2, 4.5167872e+1, -0.00002945343, -3091.639, 5.440975, 0.0, 0.0009551779, 0.009546089, 0.009546089, 0.0, 0.012207031, 0.012169465 
1.8310547e-2, 4.5180044e+1, -0.000057312158, -3090.0615, 7.5921574, 0.0, 0.00096362294, 0.018596202, 0.018596202, 0.0, 0.012207031, 0.012169485 
1.8310547e-2, 4.5192212e+1, -0.00007080767, -3095.7056, -8.432544, 0.0, 0.0018442796, 0.02289884, 0.02289884, 0.0, 0.012207031, 0.012169416 
1.8310547e-2, 4.520438e+1, -0.003385702, -3070.8745, 58.335697, 0.0, 0.0014422263, 1.1043867, 1.1043867, 0.0, 0.012207031, 0.012169717 
1.8310547e-2, 4.521655e+1, -0.0000018792368, -3058.6943, 1.365333, 0.0, 0.0011451596, 0.0006075748, 0.0006075748, 0.0, 0.012207031, 0.012169864 
1.8310547e-2, 4.5228723e+1, -0.000019969313, -3054.1438, 4.478207, 0.0, 0.0019596238, 0.0065462883, 0.0065462883, 0.0, 0.012207031, 0.012169919 
1.8310547e-2, 4.524089e+1, -0.000009633095, -3039.682, -3.1140192, 0.0, 0.0015205815, 0.003180538, 0.003180538, 0.0, 0.012207031, 0.012170094 
1.8310547e-2, 4.525306e+1, -0.0000033242786, -3034.4614, -1.8070238, 0.0, 0.0006867676, 0.001072759, 0.001072759, 0.0, 0.012207031, 0.012170157 
1.8310547e-2, 4.5265234e+1, -0.0000016007897, -3028.3574, 1.1627244, 0.0, 0.0017017431, 0.000444822, 0.000444822, 0.0, 0.012207031, 0.012170231 
1.8310547e-2, 4.5277402e+1, 0.00000012398556, -3013.9673, 0.41154766, 0.0, 0.0019328411, 0.00005631951, 0.00005631951, 0.0, 0.012207031, 0.012170405 
1.8310547e-2, 4.5289573e+1, -0.00000036210028, -2999.6702, -0.86432177, 0.0, 0.0012187407, 0.00024868263, 0.00024868263, 0.0, 0.012207031, 0.012170578 
1.8310547e-2, 4.530174e+1, -0.00000069242896, -2999.826, 0.19601518, 0.0, 0.001210928, 0.000012115631, 0.000012115631, 0.0, 0.012207031, 0.0121705765 
1.8310547e-2, 4.5313913e+1, -0.0000011309854, -2984.2495, 1.1347541, 0.0, 0.0015466125, 0.00043035657, 0.00043035657, 0.0, 0.012207031, 0.012170765 
1.8310547e-2, 4.5326084e+1, -0.0000003015762, -2975.8782, -0.059540786, 0.0, 0.0016084469, 0.0000008897041, 0.0000008897041, 0.0, 0.012207031, 0.012170866 
1.8310547e-2, 4.5338258e+1, -0.0000003046617, -2959.8816, -0.5386004, 0.0, 0.0013504636, 0.00009770277, 0.00009770277, 0.0, 0.012207031, 0.01217106 
1.8310547e-2, 4.5350426e+1, -0.00000075157703, -2959.1433, -0.35532802, 0.0, 0.0013950127, 0.0000419155, 0.0000419155, 0.0, 0.012207031, 0.012171068 
1.8310547e-2, 4.5362598e+1, -0.00000049102954, -2947.029, -0.09980594, 0.0, 0.0017068428, 0.0000028890618, 0.0000028890618, 0.0, 0.012207031, 0.012171215 
1.8310547e-2, 4.5374766e+1, -0.0000001442053, -2940.5764, 0.6092603, 0.0, 0.0010290472, 0.00012608891, 0.00012608891, 0.0, 0.012207031, 0.012171293 
1.8310547e-2, 4.538694e+1, -0.000004178877, -2920.9338, 2.0340471, 0.0, 0.0014455599, 0.0014122673, 0.0014122673, 0.0, 0.012207031, 0.012171531 
1.8310547e-2, 4.5399112e+1, -0.00000018879145, -2918.7847, -0.57742167, 0.0, 0.001936134, 0.00011404223, 0.00011404223, 0.0, 0.012207031, 0.012171557 
1.8310547e-2, 4.5411283e+1, -0.000006515872, -2902.0076, -2.5524151, 0.0, 0.0011383755, 0.002238419, 0.002238419, 0.0, 0.012207031, 0.01217176 
1.8310547e-2, 4.5423454e+1, -0.000007979523, -2900.8882, 2.8337762, 0.0, 0.0014285964, 0.002760235, 0.002760235, 0.0, 0.012207031, 0.012171773 
1.8310547e-2, 4.5435628e+1, -0.0000013126685, -2891.8723, 1.0520878, 0.0, 0.0017012499, 0.00038144575, 0.00038144575, 0.0, 0.012207031, 0.012171882 
1.8310547e-2, 4.54478e+1, -0.0000058922997, -2878.405, -2.411839, 0.0, 0.0010375377, 0.002015006, 0.002015006, 0.0, 0.012207031, 0.012172045 
1.8310547e-2, 4.5459974e+1, -0.000008974698, -2856.3123, 2.981027, 0.0, 0.001504854, 0.0031022087, 0.0031022087, 0.0, 0.012207031, 0.0121723125 
1.8310547e-2, 4.5472142e+1, -0.0000050516874, -2859.8032, -2.2787018, 0.0, 0.001770194, 0.0018106253, 0.0018106253, 0.0, 0.012207031, 0.012172271 
1.8310547e-2, 4.5484313e+1, -0.000012967635, -2855.3848, -3.606792, 0.0, 0.001463179, 0.0045429603, 0.0045429603, 0.0, 0.012207031, 0.012172324 
1.8310547e-2, 4.5496488e+1, -0.000010729701, -2843.9248, 3.2757967, 0.0, 0.0010338988, 0.0037625164, 0.0037625164, 0.0, 0.012207031, 0.012172462 
1.8310547e-2, 4.550866e+1, -0.0000065548743, -2825.7231, 2.5670388, 0.0, 0.0014132205, 0.0023254794, 0.0023254794, 0.0, 0.012207031, 0.012172683 
1.8310547e-2, 4.5520833e+1, -0.000012066106, -2810.9697, 3.4874065, 0.0, 0.0019990643, 0.0043145493, 0.0043145493, 0.0, 0.012207031, 0.012172862 
1.8310547e-2, 4.5533004e+1, -0.00003193341, -2804.0264, -5.6618404, 0.0, 0.0012646334, 0.0114003075, 0.0114003075, 0.0, 0.012207031, 0.012172946 
1.8310547e-2, 4.554518e+1, -0.00004810149, -2806.6704, -6.954126, 0.0, 0.0011359848, 0.017182125, 0.017182125, 0.0, 0.012207031, 0.012172914 
1.8310547e-2, 4.5557353e+1, -0.000016081587, -2807.2756, 4.0181913, 0.0, 0.0017148452, 0.0057353415, 0.0057353415, 0.0, 0.012207031, 0.012172907 
1.8310547e-2, 4.5569527e+1, -0.000025412088, -2779.2017, 5.048997, 0.0, 0.0013519031, 0.009147109, 0.009147109, 0.0, 0.012207031, 0.012173247 
1.8310547e-2, 4.5581698e+1, -0.00015145369, -2758.761, 12.334477, 0.0, 0.0012250155, 0.054995153, 0.054995153, 0.0, 0.012207031, 0.012173493 
1.8310547e-2, 4.5593873e+1, -0.0028391927, -2751.7673, 53.405598, 0.0, 0.0018976331, 1.033254, 1.033254, 0.0, 0.012207031, 0.012173578 
1.8310547e-2, 4.5606044e+1, -0.0009500287, -2747.9873, 30.892532, 0.0, 0.0015980036, 0.3462962, 0.3462962, 0.0, 0.012207031, 0.012173624 
1.8310547e-2, 4.561822e+1, -0.0014648822, -2747.8857, 38.36118, 0.0, 0.0007053528, 0.53396285, 0.53396285, 0.0, 0.012207031, 0.012173626 
1.8310547e-2, 4.5630395e+1, -0.00044476334, -2728.7441, 21.13736, 0.0, 0.0014606107, 0.16327937, 0.16327937, 0.0, 0.012207031, 0.012173857 
1.8310547e-2, 4.5642567e+1, -0.00015055713, -2709.2373, -12.298184, 0.0, 0.0022028633, 0.055674095, 0.055674095, 0.0, 0.012207031, 0.012174093 
1.8310547e-2, 4.5654738e+1, -0.0000015695424, -2727.014, -1.2189806, 0.0, 0.001447001, 0.00054331706, 0.00054331706, 0.0, 0.012207031, 0.012173878 
1.8310547e-2, 4.5666915e+1, -0.0000062327745, -2707.7424, 2.5165012, 0.0, 0.00063137774, 0.0023325323, 0.0023325323, 0.0, 0.012207031, 0.012174112 
1.8310547e-2, 4.567909e+1, -0.00000011300433, -2689.1577, -0.17746978, 0.0, 0.0014502148, 0.000011599035, 0.000011599035, 0.0, 0.012207031, 0.012174336 
1.8310547e-2, 4.5691264e+1, -0.00003558598, -2679.689, 5.9855747, 0.0, 0.002328504, 0.013334222, 0.013334222, 0.0, 0.012207031, 0.012174451 
1.8310547e-2, 4.5703438e+1, -0.0000035647147, -2674.1743, 1.9039708, 0.0, 0.0012502514, 0.0013520325, 0.0013520325, 0.0, 0.012207031, 0.012174518 
1.8310547e-2, 4.5715615e+1, -0.000033189826, -2653.015, -5.7690434, 0.0, 0.0008347025, 0.012511673, 0.012511673, 0.0, 0.012207031, 0.012174774 
1.8310547e-2, 4.5727786e+1, -0.000011821997, -2650.5425, -3.4392657, 0.0, 0.0017180599, 0.00445086, 0.00445086, 0.0, 0.012207031, 0.012174804 
1.8310547e-2, 4.5739964e+1, -0.000088530134, -2637.9329, 9.429654, 0.0, 0.0016714921, 0.033618636, 0.033618636, 0.0, 0.012207031, 0.0121749565 
1.8310547e-2, 4.5752135e+1, -0.00079153373, -2638.7546, 28.197325, 0.0, 0.0010619914, 0.30048642, 0.30048642, 0.0, 0.012207031, 0.012174947 
1.8310547e-2, 4.5764312e+1, -0.0011487866, -2619.0415, 33.96743, 0.0, 0.0018355203, 0.43931496, 0.43931496, 0.0, 0.012207031, 0.012175186 
1.8310547e-2, 4.577649e+1, -0.000018539751, -2604.3513, 4.310317, 0.0, 0.0016226169, 0.0071152067, 0.0071152067, 0.0, 0.012207031, 0.0121753635 
1.8310547e-2, 4.578866e+1, -0.00001238198, -2593.6416, -3.5271668, 0.0, 0.0007719309, 0.0047843037, 0.0047843037, 0.0, 0.012207031, 0.012175493 
1.8310547e-2, 4.5800838e+1, -0.0033432182, -2603.448, 57.94603, 0.0, 0.0015871885, 1.2857492, 1.2857492, 0.0, 0.012207031, 0.012175375 
1.8310547e-2, 4.5813015e+1, -0.004157512, -2587.522, 64.61759, 0.0, 0.0018817916, 1.6085204, 1.6085204, 0.0, 0.012207031, 0.012175567 
1.8310547e-2, 4.5825186e+1, -0.00003661023, -2574.9836, 6.061013, 0.0, 0.0012493123, 0.014229763, 0.014229763, 0.0, 0.012207031, 0.012175719 
1.8310547e-2, 4.5837364e+1, -0.00016309039, -2575.6377, -12.796784, 0.0, 0.0013351481, 0.06341482, 0.06341482, 0.0, 0.012207031, 0.012175711 
1.8310547e-2, 4.584954e+1, -0.00009194721, -2580.063, 9.610288, 0.0, 0.0014530125, 0.03570421, 0.03570421, 0.0, 0.012207031, 0.012175658 
1.8310547e-2, 4.5861718e+1, -0.00006952743, -2535.5588, 8.352717, 0.0, 0.0015770947, 0.027445955, 0.027445955, 0.0, 0.012207031, 0.012176197 
1.8310547e-2, 4.5873892e+1, -0.000013765493, -2526.908, -3.7226555, 0.0, 0.0013647752, 0.0054704607, 0.0054704607, 0.0, 0.012207031, 0.012176301 
1.8310547e-2, 4.588607e+1, -0.000019253308, -2527.9856, -4.405363, 0.0, 0.0014317477, 0.0076576746, 0.0076576746, 0.0, 0.012207031, 0.012176288 
1.8310547e-2, 4.5898247e+1, -0.0000014568685, -2522.2227, 1.2369173, 0.0, 0.001672664, 0.0006051367, 0.0006051367, 0.0, 0.012207031, 0.012176358 
1.8310547e-2, 4.5910424e+1, -0.000009456635, -2505.8232, 3.0817862, 0.0, 0.0011063848, 0.0037806716, 0.0037806716, 0.0, 0.012207031, 0.012176557 
1.8310547e-2, 4.59226e+1, -0.0000049358628, -2492.1494, 2.2286572, 0.0, 0.0012605008, 0.0019880864, 0.0019880864, 0.0, 0.012207031, 0.012176722 
1.8310547e-2, 4.5934775e+1, -0.0000029392577, -2483.8518, -1.7031413, 0.0, 0.0020846978, 0.0011648796, 0.0011648796, 0.0, 0.012207031, 0.012176823 
1.8310547e-2, 4.5946953e+1, -0.00000027867557, -2483.3765, 0.31659138, 0.0, 0.001279948, 0.00004008174, 0.00004008174, 0.0, 0.012207031, 0.012176829 
1.8310547e-2, 4.595913e+1, -0.0000009556537, -2467.2717, -0.20254219, 0.0, 0.0011221356, 0.00001567135, 0.00001567135, 0.0, 0.012207031, 0.012177024 
1.8310547e-2, 4.5971307e+1, -0.00000055565175, -2455.143, 0.85027295, 0.0, 0.0016121295, 0.00029391353, 0.00029391353, 0.0, 0.012207031, 0.012177171 
1.8310547e-2, 4.598348e+1, -0.000001874769, -2447.0007, 1.3808364, 0.0, 0.0014726939, 0.00077732746, 0.00077732746, 0.0, 0.012207031, 0.01217727 
1.8310547e-2, 4.5995662e+1, -0.0000037710097, -2444.1353, 1.9371139, 0.0, 0.0015495275, 0.0015314991, 0.0015314991, 0.0, 0.012207031, 0.012177304 
1.8310547e-2, 4.600784e+1, -0.000008110798, -2432.5923, -2.8507783, 0.0, 0.0012438238, 0.0033327392, 0.0033327392, 0.0, 0.012207031, 0.012177444 
1.8310547e-2, 4.6020016e+1, -0.00000048726616, -2402.9575, -0.7392617, 0.0, 0.001348564, 0.00022694406, 0.00022694406, 0.0, 0.012207031, 0.012177804 
1.8310547e-2, 4.6032193e+1, -0.000011281319, -2409.4438, 3.3657372, 0.0, 0.0017883051, 0.0046902867, 0.0046902867, 0.0, 0.012207031, 0.012177725 
1.8310547e-2, 4.6044374e+1, -0.0000009183258, -2410.5413, -0.9485335, 0.0, 0.0014600327, 0.00037232382, 0.00037232382, 0.0, 0.012207031, 0.012177711 
1.8310547e-2, 4.6056548e+1, -0.0000006728884, -2387.9673, -0.898321, 0.0, 0.0011488985, 0.00033726325, 0.00033726325, 0.0, 0.012207031, 0.012177985 
1.8310547e-2, 4.6068725e+1, -0.00000043235278, -2369.957, 0.6658494, 0.0, 0.0012452198, 0.00018664083, 0.00018664083, 0.0, 0.012207031, 0.012178203 
1.8310547e-2, 4.6080905e+1, -0.0000005247093, -2370.9207, -0.37976596, 0.0, 0.0020212082, 0.0000603049, 0.0000603049, 0.0, 0.012207031, 0.012178192 
1.8310547e-2, 4.6093082e+1, -0.000000038164316, -2364.4888, -0.22720085, 0.0, 0.0016435554, 0.00002179329, 0.00002179329, 0.0, 0.012207031, 0.01217827 
1.8310547e-2, 4.6105263e+1, -0.000001615587, -2354.9802, -1.268266, 0.0, 0.0006249595, 0.00068140414, 0.00068140414, 0.0, 0.012207031, 0.012178385 
1.8310547e-2, 4.611744e+1, -0.0000002601595, -2334.5881, 0.4812358, 0.0, 0.001454749, 0.000098938435, 0.000098938435, 0.0, 0.012207031, 0.012178632 
1.8310547e-2, 4.612962e+1, -0.00013846357, -2332.1572, 11.787783, 0.0, 0.0021359301, 0.05944083, 0.05944083, 0.0, 0.012207031, 0.012178661 
1.8310547e-2, 4.6141797e+1, -0.000015496511, -2314.3567, 3.948155, 0.0, 0.0014982454, 0.006719801, 0.006719801, 0.0, 0.012207031, 0.012178877 
1.8310547e-2, 4.6153978e+1, -0.0000059295703, -2318.658, -2.435764, 0.0, 0.0007560699, 0.0025528523, 0.0025528523, 0.0, 0.012207031, 0.012178825 
1.8310547e-2, 4.6166158e+1, -0.0000006569563, -2300.1028, 0.8888482, 0.0, 0.0014414104, 0.0003428281, 0.0003428281, 0.0, 0.012207031, 0.012179051 
1.8310547e-2, 4.6178332e+1, -0.000028394465, -2290.6687, 5.337002, 0.0, 0.0021036041, 0.012406155, 0.012406155, 0.0, 0.012207031, 0.012179164 
1.8310547e-2, 4.6190512e+1, -0.00000061219095, -2279.8716, 0.85954976, 0.0, 0.0011126719, 0.00032345243, 0.00032345243, 0.0, 0.012207031, 0.0121792955 
1.8310547e-2, 4.6202695e+1, -0.000019971218, -2269.8235, -4.4784765, 0.0, 0.0013522827, 0.008816256, 0.008816256, 0.0, 0.012207031, 0.012179418 
1.8310547e-2, 4.6214876e+1, -0.0000072145117, -2259.2056, -2.688708, 0.0, 0.0018935645, 0.003192645, 0.003192645, 0.0, 0.012207031, 0.012179546 
1.8310547e-2, 4.622705e+1, -0.0000013556552, -2257.2688, 1.16785, 0.0, 0.0008808361, 0.0006028583, 0.0006028583, 0.0, 0.012207031, 0.012179569 
1.8310547e-2, 4.623923e+1, -0.000043100383, -2250.8943, 6.5729003, 0.0, 0.0011621687, 0.019150449, 0.019150449, 0.0, 0.012207031, 0.012179647 
1.8310547e-2, 4.625141e+1, -0.0000035850398, -2231.3098, -1.9211444, 0.0, 0.002299512, 0.0016505076, 0.0016505076, 0.0, 0.012207031, 0.012179884 
1.8310547e-2, 4.626359e+1, -0.000027101189, -2202.8264, -5.2100186, 0.0, 0.0017441956, 0.012295315, 0.012295315, 0.0, 0.012207031, 0.01218023 
1.8310547e-2, 4.627577e+1, -0.000012130587, -2216.272, 3.4872715, 0.0, 0.00031037373, 0.0054750266, 0.0054750266, 0.0, 0.012207031, 0.012180067 
1.8310547e-2, 4.6287954e+1, -0.0000003689833, -2218.5808, -0.5476522, 0.0, 0.0012392106, 0.00013481785, 0.00013481785, 0.0, 0.012207031, 0.012180039 
1.8310547e-2, 4.6300134e+1, -0.000006659975, -2198.7866, -2.5818505, 0.0, 0.0026963076, 0.0030249862, 0.0030249862, 0.0, 0.012207031, 0.012180279 
1.8310547e-2, 4.6312314e+1, -0.000048863847, -2172.8982, 7.0016346, 0.0, 0.0014956382, 0.022511963, 0.022511963, 0.0, 0.012207031, 0.012180593 
1.8310547e-2, 4.6324494e+1, -0.000056698438, -2163.7737, 7.543298, 0.0, 0.00034229984, 0.02624025, 0.02624025, 0.0, 0.012207031, 0.012180704 
1.8310547e-2, 4.6336675e+1, -0.00003322541, -2163.5989, -5.7800627, 0.0, 0.0015286274, 0.015408124, 0.015408124, 0.0, 0.012207031, 0.012180706 
1.8310547e-2, 4.6348855e+1, -0.000013507194, -2142.4038, 3.675439, 0.0, 0.002269481, 0.0062919385, 0.0062919385, 0.0, 0.012207031, 0.012180963 
1.8310547e-2, 4.6361035e+1, -0.0032248283, -2145.5593, 56.888817, 0.0, 0.0011737547, 1.5041074, 1.5041074, 0.0, 0.012207031, 0.012180924 
1.8310547e-2, 4.6373218e+1, -0.0028270413, -2136.578, 53.264847, 0.0, 0.0011833841, 1.324242, 1.324242, 0.0, 0.012207031, 0.012181033 
1.8310547e-2, 4.6385399e+1, 0.000000015545053, -2129.2805, 0.41502944, 0.0, 0.0015820831, 0.00008091115, 0.00008091115, 0.0, 0.012207031, 0.012181122 
1.8310547e-2, 4.639758e+1, -0.000037714806, -2128.9216, -6.152779, 0.0, 0.0013943915, 0.017744236, 0.017744236, 0.0, 0.012207031, 0.0121811265 
1.8310547e-2, 4.640976e+1, -0.00003473827, -2117.1702, 5.905661, 0.0, 0.0018972439, 0.016438458, 0.016438458, 0.0, 0.012207031, 0.012181269 
1.8310547e-2, 4.6421945e+1, -0.000052480333, -2090.6648, 7.2536483, 0.0, 0.00087832543, 0.02511405, 0.02511405, 0.0, 0.012207031, 0.01218159 
1.8310547e-2, 4.6434125e+1, -0.0000013347847, -2080.8325, 1.2425634, 0.0, 0.00087895145, 0.00074065826, 0.00074065826, 0.0, 0.012207031, 0.0121817095 
1.8310547e-2, 4.6446306e+1, -0.00008112522, -2073.399, -9.026486, 0.0, 0.0027246485, 0.0392147, 0.0392147, 0.0, 0.012207031, 0.0121818 
1.8310547e-2, 4.645849e+1, -0.000008707369, -2073.8743, -2.958154, 0.0, 0.00161214, 0.004210766, 0.004210766, 0.0, 0.012207031, 0.012181794 
1.8310547e-2, 4.647067e+1, -0.0000815679, -2057.0845, 9.044622, 0.0, 0.00022685298, 0.039685205, 0.039685205, 0.0, 0.012207031, 0.012181997 
1.8310547e-2, 4.648285e+1, -0.0000011952317, -2050.236, 1.1599731, 0.0, 0.0015012281, 0.0006550888, 0.0006550888, 0.0, 0.012207031, 0.01218208 
1.8310547e-2, 4.6495032e+1, -0.000008223389, -2029.5426, -2.8690774, 0.0, 0.002316166, 0.00404766, 0.00404766, 0.0, 0.012207031, 0.012182332 
1.8310547e-2, 4.6507213e+1, -0.0000004884765, -2025.0441, 0.7474134, 0.0, 0.0014213754, 0.00027537058, 0.00027537058, 0.0, 0.012207031, 0.012182387 
1.8310547e-2, 4.65194e+1, -0.00002642756, -2002.0652, 5.1491594, 0.0, 0.00082087994, 0.013216732, 0.013216732, 0.0, 0.012207031, 0.012182665 
1.8310547e-2, 4.6531582e+1, -0.0014403157, -2010.0734, 38.014206, 0.0, 0.0014312731, 0.7172223, 0.7172223, 0.0, 0.012207031, 0.012182568 
1.8310547e-2, 4.6543762e+1, -0.002217132, -2006.6454, 47.16499, 0.0, 0.0019590517, 1.1057569, 1.1057569, 0.0, 0.012207031, 0.012182609 
1.8310547e-2, 4.6555945e+1, -0.0000268521, -1989.1879, 5.185639, 0.0, 0.0014477997, 0.013491563, 0.013491563, 0.0, 0.012207031, 0.0121828215 
1.8310547e-2, 4.656813e+1, -0.0000014018003, -1972.2623, 0.20501141, 0.0, 0.0010423389, 0.000019908588, 0.000019908588, 0.0, 0.012207031, 0.012183026 
1.8310547e-2, 4.6580312e+1, -0.00028241513, -1986.3047, 16.834696, 0.0, 0.0015731985, 0.1423879, 0.1423879, 0.0, 0.012207031, 0.012182856 
1.8310547e-2, 4.6592495e+1, -0.00018800716, -1956.3871, 13.733092, 0.0, 0.0016161432, 0.096208334, 0.096208334, 0.0, 0.012207031, 0.012183219 
1.8310547e-2, 4.6604678e+1, -0.0000071802765, -1945.9884, 2.67216, 0.0, 0.0011818219, 0.0036621247, 0.0036621247, 0.0, 0.012207031, 0.012183346 
1.8310547e-2, 4.6616864e+1, -0.000010596765, -1940.0186, -3.2580156, 0.0, 0.0016611514, 0.0054608127, 0.0054608127, 0.0, 0.012207031, 0.0121834185 
1.8310547e-2, 4.6629044e+1, -0.00000020321204, -1940.7163, -0.04145846, 0.0, 0.0017740293, 0.00000068244253, 0.00000068244253, 0.0, 0.012207031, 0.012183409 
1.8310547e-2, 4.6641228e+1, -0.00006143791, -1914.0148, 7.854853, 0.0, 0.00083933526, 0.032173257, 0.032173257, 0.0, 0.012207031, 0.012183733 
1.8310547e-2, 4.665341e+1, -0.000007964134, -1905.8634, -2.8253014, 0.0, 0.0013327985, 0.004180327, 0.004180327, 0.0, 0.012207031, 0.012183833 
1.8310547e-2, 4.6665597e+1, -0.000055423512, -1901.9203, -7.4558663, 0.0, 0.0020852524, 0.029172454, 0.029172454, 0.0, 0.012207031, 0.01218388 
1.8310547e-2, 4.667778e+1, -0.000019462746, -1901.3472, 4.4262605, 0.0, 0.0012796454, 0.010284639, 0.010284639, 0.0, 0.012207031, 0.012183887 
1.8310547e-2, 4.6689963e+1, -0.000016539785, -1876.8524, 4.0765166, 0.0, 0.0012015359, 0.008837597, 0.008837597, 0.0, 0.012207031, 0.012184185 
1.8310547e-2, 4.670215e+1, -0.000011454428, -1866.8047, -3.3853872, 0.0, 0.0016669192, 0.006127811, 0.006127811, 0.0, 0.012207031, 0.012184307 
1.8310547e-2, 4.6714333e+1, -0.00000026047675, -1857.4313, -0.058883898, 0.0, 0.0013872323, 0.0000016062481, 0.0000016062481, 0.0, 0.012207031, 0.012184421 
1.8310547e-2, 4.6726516e+1, -0.000034994595, -1857.8142, 5.925711, 0.0, 0.00105548, 0.018865548, 0.018865548, 0.0, 0.012207031, 0.012184416 
1.8310547e-2, 4.6738702e+1, -0.0000021089284, -1835.1783, -1.4316503, 0.0, 0.001928624, 0.0011147422, 0.0011147422, 0.0, 0.012207031, 0.012184691 
1.8310547e-2, 4.6750885e+1, -0.0003758821, -1812.4677, 19.416147, 0.0, 0.002157105, 0.2075967, 0.2075967, 0.0, 0.012207031, 0.012184966 
1.8310547e-2, 4.6763074e+1, -0.0017412023, -1828.2762, 41.79109, 0.0, 0.00014464637, 0.95302975, 0.95302975, 0.0, 0.012207031, 0.0121847745 
1.8310547e-2, 4.6775258e+1, -0.00018549156, -1819.2958, 13.638204, 0.0, 0.0011301569, 0.10204646, 0.10204646, 0.0, 0.012207031, 0.0121848835 
1.8310547e-2, 4.678744e+1, -0.000011392001, -1788.4806, -3.3921473, 0.0, 0.002872076, 0.0064223493, 0.0064223493, 0.0, 0.012207031, 0.012185258 
1.8310547e-2, 4.6799624e+1, -0.0032507451, -1790.3036, 57.100082, 0.0, 0.0011081343, 1.8160583, 1.8160583, 0.0, 0.012207031, 0.0121852355 
1.8310547e-2, 4.6811813e+1, -0.0034067563, -1787.7098, 58.453995, 0.0, 0.00091260124, 1.9058688, 1.9058688, 0.0, 0.012207031, 0.012185267 
1.8310547e-2, 4.6823996e+1, -0.0000041851013, -1781.3605, -2.0410118, 0.0, 0.0016915597, 0.0023343216, 0.0023343216, 0.0, 0.012207031, 0.0121853445 
1.8310547e-2, 4.6836182e+1, -0.00008666503, -1785.3544, -9.325771, 0.0, 0.0014368623, 0.048625037, 0.048625037, 0.0, 0.012207031, 0.012185295 
1.8310547e-2, 4.684837e+1, -0.0002946241, -1763.6228, 17.189188, 0.0, 0.0016936505, 0.16722429, 0.16722429, 0.0, 0.012207031, 0.01218556 
1.8310547e-2, 4.6860555e+1, -0.000026458685, -1735.3865, 5.1508646, 0.0, 0.0011094931, 0.015261878, 0.015261878, 0.0, 0.012207031, 0.012185902 
1.8310547e-2, 4.6872738e+1, -0.00008360799, -1712.5333, -9.158816, 0.0, 0.0013484614, 0.04889735, 0.04889735, 0.0, 0.012207031, 0.01218618 
1.8310547e-2, 4.6884927e+1, -0.000053029948, -1739.0499, -7.296745, 0.0, 0.0018573275, 0.03056228, 0.03056228, 0.0, 0.012207031, 0.012185858 
1.8310547e-2, 4.689711e+1, -0.0000050086314, -1728.6542, 2.2465997, 0.0, 0.0012515374, 0.00291472, 0.00291472, 0.0, 0.012207031, 0.012185984 
1.8310547e-2, 4.6909297e+1, -0.00013794078, -1706.0078, 11.759826, 0.0, 0.0014148584, 0.08092086, 0.08092086, 0.0, 0.012207031, 0.012186259 
1.8310547e-2, 4.6921486e+1, 0.00000008726789, -1679.7891, -0.535248, 0.0, 0.0016636798, 0.00017063865, 0.00017063865, 0.0, 0.012207031, 0.012186578 
1.8310547e-2, 4.693367e+1, -0.000012923909, -1677.4327, -3.6004486, 0.0, 0.0011675836, 0.0077150585, 0.0077150585, 0.0, 0.012207031, 0.012186606 
1.8310547e-2, 4.6945858e+1, -0.0000012253324, -1674.5646, -1.1192508, 0.0, 0.0014495057, 0.0007468627, 0.0007468627, 0.0, 0.012207031, 0.012186641 
1.8310547e-2, 4.695804e+1, -0.00006418221, -1655.4341, 8.021592, 0.0, 0.0016964282, 0.038804434, 0.038804434, 0.0, 0.012207031, 0.012186874 
1.8310547e-2, 4.697023e+1, -0.0030335232, -1647.3295, 55.15326, 0.0, 0.0011172742, 1.8414581, 1.8414581, 0.0, 0.012207031, 0.0121869715 
1.8310547e-2, 4.698242e+1, -0.0039555705, -1651.4913, 62.979794, 0.0, 0.0016978211, 2.3943086, 2.3943086, 0.0, 0.012207031, 0.012186921 
1.8310547e-2, 4.6994606e+1, -0.00001106873, -1640.2406, 3.3378825, 0.0, 0.0017226659, 0.00678148, 0.00678148, 0.0, 0.012207031, 0.012187058 
1.8310547e-2, 4.700679e+1, -0.000017687802, -1629.5548, -4.2130413, 0.0, 0.0009099742, 0.010874611, 0.010874611, 0.0, 0.012207031, 0.012187188 
1.8310547e-2, 4.7018978e+1, -0.0039704307, -1613.1649, 63.09561, 0.0, 0.0014224163, 2.4601262, 2.4601262, 0.0, 0.012207031, 0.012187387 
1.8310547e-2, 4.7031167e+1, -0.0029358887, -1615.8617, 54.256786, 0.0, 0.0018163332, 1.8168315, 1.8168315, 0.0, 0.012207031, 0.012187354 
1.8310547e-2, 4.7043353e+1, -0.0000050412054, -1601.4156, 2.2517378, 0.0, 0.0015181624, 0.003161103, 0.003161103, 0.0, 0.012207031, 0.012187529 
1.8310547e-2, 4.7055542e+1, -0.000035093537, -1604.8492, -5.930462, 0.0, 0.0011359229, 0.021879673, 0.021879673, 0.0, 0.012207031, 0.012187487 
1.8310547e-2, 4.706773e+1, -0.00007397276, -1578.9236, 8.614634, 0.0, 0.0013103184, 0.04692621, 0.04692621, 0.0, 0.012207031, 0.012187803 
1.8310547e-2, 4.7079918e+1, -0.000024905547, -1563.9473, 4.993046, 0.0, 0.0018178255, 0.01591569, 0.01591569, 0.0, 0.012207031, 0.012187985 
1.8310547e-2, 4.7092107e+1, -0.00003415506, -1549.4391, -5.857153, 0.0, 0.0015689136, 0.022106599, 0.022106599, 0.0, 0.012207031, 0.012188161 
1.8310547e-2, 4.7104293e+1, -0.000029253353, -1559.5436, -5.417049, 0.0, 0.0010652014, 0.01878655, 0.01878655, 0.0, 0.012207031, 0.012188038 
1.8310547e-2, 4.7116482e+1, -0.000024323566, -1543.626, 4.937365, 0.0, 0.0013501374, 0.015767924, 0.015767924, 0.0, 0.012207031, 0.012188232 
1.8310547e-2, 4.7128668e+1, -0.000037975544, -1527.9456, 6.169908, 0.0, 0.0018133406, 0.024875965, 0.024875965, 0.0, 0.012207031, 0.0121884225 
1.8310547e-2, 4.7140858e+1, -0.000026830889, -1507.3877, -5.1854453, 0.0, 0.0015097923, 0.017810998, 0.017810998, 0.0, 0.012207031, 0.012188672 
1.8310547e-2, 4.7153047e+1, -0.000012356384, -1517.5421, -3.5253673, 0.0, 0.0011897357, 0.0081773, 0.0081773, 0.0, 0.012207031, 0.012188548 
1.8310547e-2, 4.716524e+1, -0.000013575427, -1501.579, 3.6895225, 0.0, 0.0011793831, 0.009051878, 0.009051878, 0.0, 0.012207031, 0.012188743 
1.8310547e-2, 4.7177425e+1, -0.00000018220186, -1494.6445, 0.72882235, 0.0, 0.0018872453, 0.00035520789, 0.00035520789, 0.0, 0.012207031, 0.012188827 
1.8310547e-2, 4.7189614e+1, -0.00000012598382, -1469.6288, 0.2794715, 0.0, 0.0018824893, 0.00005301962, 0.00005301962, 0.0, 0.012207031, 0.012189131 
1.8310547e-2, 4.72018e+1, -0.0000004746091, -1474.5837, -0.8118565, 0.0, 0.00064606674, 0.0004465063, 0.0004465063, 0.0, 0.012207031, 0.012189071 
1.8310547e-2, 4.7213992e+1, -0.00000049075237, -1455.6946, -0.8471968, 0.0, 0.0011344289, 0.0004925675, 0.0004925675, 0.0, 0.012207031, 0.0121893 
1.8310547e-2, 4.7226182e+1, -0.00000082693657, -1454.6515, -0.88195217, 0.0, 0.0023026732, 0.0005338986, 0.0005338986, 0.0, 0.012207031, 0.012189313 
1.8310547e-2, 4.7238368e+1, -0.000000055205557, -1443.5444, -0.33448157, 0.0, 0.0017491864, 0.000077447025, 0.000077447025, 0.0, 0.012207031, 0.012189448 
1.8310547e-2, 4.725056e+1, -0.000006214907, -1439.2406, 2.4961386, 0.0, 0.0006095775, 0.0043229354, 0.0043229354, 0.0, 0.012207031, 0.0121895 
1.8310547e-2, 4.726275e+1, -0.0000013144582, -1412.1033, -1.1513582, 0.0, 0.0009931823, 0.0009374448, 0.0009374448, 0.0, 0.012207031, 0.01218983 
1.8310547e-2, 4.727494e+1, -0.000028303868, -1407.5858, 5.322176, 0.0, 0.002527869, 0.02009491, 0.02009491, 0.0, 0.012207031, 0.012189885 
1.8310547e-2, 4.7287127e+1, -0.000004396027, -1398.0162, 2.11345, 0.0, 0.0016884458, 0.0031906033, 0.0031906033, 0.0, 0.012207031, 0.012190001 
1.8310547e-2, 4.729932e+1, -0.00000014174023, -1378.5284, -0.15533008, 0.0, 0.00048374652, 0.00001736057, 0.00001736057, 0.0, 0.012207031, 0.012190239 
1.8310547e-2, 4.731151e+1, -0.0029780432, -1377.7196, 54.634132, 0.0, 0.0013637218, 2.160173, 2.160173, 0.0, 0.012207031, 0.012190248 
1.8310547e-2, 4.73237e+1, -0.0032500844, -1388.4552, 57.07514, 0.0, 0.0020943645, 2.3389885, 2.3389885, 0.0, 0.012207031, 0.0121901175 
1.8310547e-2, 4.7335893e+1, -0.000050254002, -1366.311, 7.0956864, 0.0, 0.0016815433, 0.036798906, 0.036798906, 0.0, 0.012207031, 0.012190387 
1.8310547e-2, 4.734808e+1, -0.00016187264, -1372.8513, -12.737954, 0.0, 0.00081971183, 0.11801663, 0.11801663, 0.0, 0.012207031, 0.0121903075 
1.8310547e-2, 4.736027e+1, -0.0015382341, -1346.9054, 39.264984, 0.0, 0.0010865692, 1.1421448, 1.1421448, 0.0, 0.012207031, 0.012190622 
1.8310547e-2, 4.7372463e+1, -0.00020688157, -1332.3379, 14.401214, 0.0, 0.002267288, 0.1554374, 0.1554374, 0.0, 0.012207031, 0.0121908 
1.8310547e-2, 4.7384652e+1, -0.000025259846, -1320.856, 5.0298605, 0.0, 0.0016364632, 0.01912833, 0.01912833, 0.0, 0.012207031, 0.012190939 
1.8310547e-2, 4.7396842e+1, -0.00007918449, -1317.7327, -8.904821, 0.0, 0.0007090532, 0.060094036, 0.060094036, 0.0, 0.012207031, 0.012190977 
1.8310547e-2, 4.7409034e+1, -0.0018524114, -1293.0715, 43.085632, 0.0, 0.0014519223, 1.4321889, 1.4321889, 0.0, 0.012207031, 0.012191277 
1.8310547e-2, 4.7421226e+1, -0.0000018335528, -1307.2588, 1.3308575, 0.0, 0.0018001711, 0.0013530472, 0.0013530472, 0.0, 0.012207031, 0.012191105 
1.8310547e-2, 4.7433418e+1, -0.00013344102, -1275.3365, 11.564245, 0.0, 0.0017960847, 0.104717925, 0.104717925, 0.0, 0.012207031, 0.012191493 
1.8310547e-2, 4.744561e+1, -0.000004411814, -1259.7158, -2.1102085, 0.0, 0.00089076464, 0.0035304865, 0.0035304865, 0.0, 0.012207031, 0.012191683 
1.8310547e-2, 4.7457802e+1, -0.00004331336, -1275.0364, -6.585617, 0.0, 0.00092530873, 0.03397077, 0.03397077, 0.0, 0.012207031, 0.012191497 
1.8310547e-2, 4.7469994e+1, -0.00000941829, -1265.8773, 3.053214, 0.0, 0.0025113241, 0.0073546935, 0.0073546935, 0.0, 0.012207031, 0.012191608 
1.8310547e-2, 4.7482187e+1, -0.000008691478, -1237.789, 2.9582314, 0.0, 0.0012534655, 0.007061241, 0.007061241, 0.0, 0.012207031, 0.012191949 
1.8310547e-2, 4.7494376e+1, -0.0000043137275, -1235.3826, -2.0804243, 0.0, 0.00097771, 0.0034991782, 0.0034991782, 0.0, 0.012207031, 0.012191979 
1.8310547e-2, 4.7506568e+1, -0.00006770826, -1225.3741, 8.237246, 0.0, 0.0019404583, 0.05530244, 0.05530244, 0.0, 0.012207031, 0.0121921 
1.8310547e-2, 4.751876e+1, -0.00000020307186, -1222.7529, -0.14723521, 0.0, 0.0010255601, 0.000017525945, 0.000017525945, 0.0, 0.012207031, 0.012192132 
1.8310547e-2, 4.7530952e+1, -0.0000034838924, -1196.9978, 1.863762, 0.0, 0.0016506918, 0.0028984435, 0.0028984435, 0.0, 0.012207031, 0.012192446 
1.8310547e-2, 4.7543144e+1, -0.00000008359833, -1199.6841, 0.4622669, 0.0, 0.0014383355, 0.00017803886, 0.00017803886, 0.0, 0.012207031, 0.012192413 
1.8310547e-2, 4.7555336e+1, -0.0000007611811, -1186.9299, -0.09587818, 0.0, 0.001332991, 0.0000069836947, 0.0000069836947, 0.0, 0.012207031, 0.012192568 
1.8310547e-2, 4.7567528e+1, -0.00006432495, -1181.5682, 8.033572, 0.0, 0.0017378519, 0.054554023, 0.054554023, 0.0, 0.012207031, 0.012192633 
1.8310547e-2, 4.7579724e+1, -0.0000006212489, -1162.3318, 0.8722536, 0.0, 0.0008495669, 0.0006539474, 0.0006539474, 0.0, 0.012207031, 0.012192868 
1.8310547e-2, 4.7591916e+1, -0.0000006625041, -1145.7998, -0.13108172, 0.0, 0.0019798302, 0.000014333498, 0.000014333498, 0.0, 0.012207031, 0.012193069 
1.8310547e-2, 4.7604108e+1, -0.00011587649, -1155.273, 10.774795, 0.0, 0.0018507426, 0.10036783, 0.10036783, 0.0, 0.012207031, 0.012192953 
1.8310547e-2, 4.7616303e+1, -0.00014871753, -1144.3468, 12.206843, 0.0, 0.0006319456, 0.1300479, 0.1300479, 0.0, 0.012207031, 0.012193087 
1.8310547e-2, 4.7628495e+1, -0.000052881758, -1129.6461, 7.277576, 0.0, 0.0014077945, 0.046829868, 0.046829868, 0.0, 0.012207031, 0.012193265 
1.8310547e-2, 4.7640687e+1, -0.000013604639, -1116.204, -3.6829765, 0.0, 0.0018679125, 0.012138446, 0.012138446, 0.0, 0.012207031, 0.012193428 
1.8310547e-2, 4.7652882e+1, -0.0000012052354, -1109.4478, 1.0786097, 0.0, 0.0018153872, 0.0010474225, 0.0010474225, 0.0, 0.012207031, 0.01219351 
1.8310547e-2, 4.7665074e+1, 0.00000030383558, -1101.482, 0.44325078, 0.0, 0.0007464898, 0.00017867371, 0.00017867371, 0.0, 0.012207031, 0.012193607 
1.8310547e-2, 4.767727e+1, -0.000035754645, -1088.9774, -5.985027, 0.0, 0.0013589646, 0.032857, 0.032857, 0.0, 0.012207031, 0.01219376 
1.8310547e-2, 4.7689462e+1, -0.00000890242, -1087.6902, 2.9932184, 0.0, 0.002076806, 0.008228083, 0.008228083, 0.0, 0.012207031, 0.012193776 
1.8310547e-2, 4.7701657e+1, -0.000039787596, -1072.5402, 6.3166485, 0.0, 0.0009274792, 0.037160367, 0.037160367, 0.0, 0.012207031, 0.01219396 
1.8310547e-2, 4.7713852e+1, -0.00006246569, -1036.7561, 7.91108, 0.0, 0.0016686165, 0.060300376, 0.060300376, 0.0, 0.012207031, 0.012194395 
1.8310547e-2, 4.7726044e+1, -0.0001537577, -1043.8352, -12.409585, 0.0, 0.0018942326, 0.1473562, 0.1473562, 0.0, 0.012207031, 0.012194309 
1.8310547e-2, 4.773824e+1, -0.000019954272, -1029.5566, 4.4634204, 0.0, 0.0007605389, 0.019329876, 0.019329876, 0.0, 0.012207031, 0.012194483 
1.8310547e-2, 4.7750434e+1, -0.0039468887, -1049.6158, 62.878796, 0.0, 0.0013986593, 3.7494924, 3.7494924, 0.0, 0.012207031, 0.012194239 
1.8310547e-2, 4.7762626e+1, -0.0007236584, -1017.93146, 26.923216, 0.0, 0.0018721758, 0.71087015, 0.71087015, 0.0, 0.012207031, 0.012194624 
1.8310547e-2, 4.7774822e+1, -0.00043704314, -1014.40265, -20.923256, 0.0, 0.0015078632, 0.43094665, 0.43094665, 0.0, 0.012207031, 0.012194667 
1.8310547e-2, 4.7787017e+1, -0.000011966787, -1017.5102, 3.4668787, 0.0, 0.0011839941, 0.011800306, 0.011800306, 0.0, 0.012207031, 0.01219463 
1.8310547e-2, 4.7799215e+1, -0.00007843609, -998.1238, 8.862915, 0.0, 0.0012480493, 0.078614295, 0.078614295, 0.0, 0.012207031, 0.012194865 
1.8310547e-2, 4.781141e+1, -0.0000014738741, -963.3921, -1.213816, 0.0, 0.001869412, 0.0015278588, 0.0015278588, 0.0, 0.012207031, 0.012195288 
1.8310547e-2, 4.7823602e+1, -0.0000017655234, -984.30316, -1.3435736, 0.0, 0.0013585773, 0.0018322088, 0.0018322088, 0.0, 0.012207031, 0.012195034 
1.8310547e-2, 4.7835797e+1, 0.000000083596866, -955.20166, 0.25705722, 0.0, 0.001263962, 0.00006926105, 0.00006926105, 0.0, 0.012207031, 0.012195388 
1.8310547e-2, 4.7847992e+1, -0.0000012128589, -956.0594, 1.1138709, 0.0, 0.0017337219, 0.0012965169, 0.0012965169, 0.0, 0.012207031, 0.012195378 
1.8310547e-2, 4.7860187e+1, -0.000010825086, -941.92413, -3.2850046, 0.0, 0.0011527629, 0.011445643, 0.011445643, 0.0, 0.012207031, 0.012195549 
1.8310547e-2, 4.7872382e+1, -0.000049472408, -938.66516, 7.0395036, 0.0, 0.0015557972, 0.052740198, 0.052740198, 0.0, 0.012207031, 0.012195589 
1.8310547e-2, 4.7884578e+1, -0.0000029138143, -905.2832, 1.7067604, 0.0, 0.0015173944, 0.0032148866, 0.0032148866, 0.0, 0.012207031, 0.012195995 
1.8310547e-2, 4.7896776e+1, -0.00000772879, -908.8305, 2.7899516, 0.0, 0.0012322534, 0.008556856, 0.008556856, 0.0, 0.012207031, 0.012195952 
1.8310547e-2, 4.7908974e+1, -0.002108179, -902.44336, 45.94877, 0.0, 0.0016756816, 2.331389, 2.331389, 0.0, 0.012207031, 0.01219603 
1.8310547e-2, 4.792117e+1, -0.00013010605, -909.1553, 11.414626, 0.0, 0.0014929277, 0.14316025, 0.14316025, 0.0, 0.012207031, 0.0121959485 
1.8310547e-2, 4.7933364e+1, -0.000055294593, -877.25287, -7.437701, 0.0, 0.0013377155, 0.06299999, 0.06299999, 0.0, 0.012207031, 0.012196337 
1.8310547e-2, 4.794556e+1, -0.000023455494, -898.0277, 4.845231, 0.0, 0.0011731301, 0.02611781, 0.02611781, 0.0, 0.012207031, 0.012196084 
1.8310547e-2, 4.7957757e+1, -0.000067123365, -849.91016, 8.197367, 0.0, 0.0018538655, 0.07898898, 0.07898898, 0.0, 0.012207031, 0.012196669 
1.8310547e-2, 4.7969952e+1, -0.00009518492, -851.3531, 9.761482, 0.0, 0.0014609392, 0.11181375, 0.11181375, 0.0, 0.012207031, 0.012196652 
1.8310547e-2, 4.798215e+1, -0.00027340825, -835.4362, -16.546568, 0.0, 0.0010729625, 0.32731795, 0.32731795, 0.0, 0.012207031, 0.012196845 
1.8310547e-2, 4.7994345e+1, -0.000054436277, -829.0337, 7.382162, 0.0, 0.002026287, 0.0656751, 0.0656751, 0.0, 0.012207031, 0.012196924 
1.8310547e-2, 4.8006544e+1, -0.003613033, -831.1717, 60.149506, 0.0, 0.0009874857, 4.326692, 4.326692, 0.0, 0.012207031, 0.0121968975 
1.8310547e-2, 4.8018742e+1, -0.00045447302, -826.8729, 21.333027, 0.0, 0.0011447449, 0.5495645, 0.5495645, 0.0, 0.012207031, 0.01219695 
1.8310547e-2, 4.8030937e+1, -0.0002189232, -799.4018, -14.805207, 0.0, 0.0020925568, 0.27388492, 0.27388492, 0.0, 0.012207031, 0.012197285 
1.8310547e-2, 4.8043132e+1, 0.00000017471237, -807.6003, -0.21933125, 0.0, 0.0013575051, 0.00005974155, 0.00005974155, 0.0, 0.012207031, 0.012197184 
1.8310547e-2, 4.8055333e+1, -0.00043819082, -768.7204, 20.946411, 0.0, 0.0012110668, 0.5698955, 0.5698955, 0.0, 0.012207031, 0.012197658 
1.8310547e-2, 4.806753e+1, -0.0019508373, -782.17865, 44.19659, 0.0, 0.0014912833, 2.4874372, 2.4874372, 0.0, 0.012207031, 0.0121974945 
1.8310547e-2, 4.8079726e+1, -0.00013180955, -770.44336, 11.487523, 0.0, 0.0015830095, 0.17111228, 0.17111228, 0.0, 0.012207031, 0.012197637 
1.8310547e-2, 4.8091927e+1, -0.000019877958, -767.5066, -4.4675813, 0.0, 0.0011972316, 0.025984598, 0.025984598, 0.0, 0.012207031, 0.012197673 
1.8310547e-2, 4.8104122e+1, -0.000055375545, -746.4457, 7.444984, 0.0, 0.0016006759, 0.07419286, 0.07419286, 0.0, 0.012207031, 0.012197929 
1.8310547e-2, 4.811632e+1, -0.00030439286, -733.22656, 17.457722, 0.0, 0.0018169605, 0.41511917, 0.41511917, 0.0, 0.012207031, 0.012198091 
1.8310547e-2, 4.8128518e+1, -0.0000023464477, -723.8613, 1.5313716, 0.0, 0.0010071917, 0.0032373464, 0.0032373464, 0.0, 0.012207031, 0.012198204 
1.8310547e-2, 4.8140717e+1, -0.00000039583347, -729.3124, -0.6839472, 0.0, 0.0010404184, 0.0006410075, 0.0006410075, 0.0, 0.012207031, 0.012198138 
1.8310547e-2, 4.8152915e+1, -0.00000029274096, -711.0879, 0.5341286, 0.0, 0.0020930988, 0.00040091397, 0.00040091397, 0.0, 0.012207031, 0.012198361 
1.8310547e-2, 4.8165116e+1, -0.0000009728834, -695.79346, 1.0122133, 0.0, 0.0018223313, 0.0014715528, 0.0014715528, 0.0, 0.012207031, 0.012198547 
1.8310547e-2, 4.817731e+1, -0.0000046620785, -695.65155, -2.1769538, 0.0, 0.0005840079, 0.006807774, 0.006807774, 0.0, 0.012207031, 0.012198548 
1.8310547e-2, 4.818951e+1, -0.00000029074198, -676.1248, 0.5751234, 0.0, 0.0016905792, 0.00048891886, 0.00048891886, 0.0, 0.012207031, 0.012198786 
1.8310547e-2, 4.820171e+1, -0.000055429235, -667.7512, 7.446019, 0.0, 0.0017342366, 0.08296398, 0.08296398, 0.0, 0.012207031, 0.012198888 
1.8310547e-2, 4.8213908e+1, -0.00003954358, -649.3426, -6.2903185, 0.0, 0.00086733, 0.060890384, 0.060890384, 0.0, 0.012207031, 0.012199112 
1.8310547e-2, 4.822611e+1, -0.000032465705, -640.937, 5.6965528, 0.0, 0.0019918308, 0.050593656, 0.050593656, 0.0, 0.012207031, 0.012199215 
1.8310547e-2, 4.8238307e+1, -0.002897428, -650.17426, 53.85682, 0.0, 0.001575704, 4.4281235, 4.4281235, 0.0, 0.012207031, 0.012199102 
1.8310547e-2, 4.8250508e+1, -0.00021202117, -636.27814, 14.566597, 0.0, 0.0009825551, 0.33309308, 0.33309308, 0.0, 0.012207031, 0.0121992715 
1.8310547e-2, 4.8262706e+1, -0.000049579176, -615.1722, -7.042909, 0.0, 0.001571062, 0.08057187, 0.08057187, 0.0, 0.012207031, 0.0121995285 
1.8310547e-2, 4.8274907e+1, -0.000011153065, -615.26556, 3.3329399, 0.0, 0.0015791635, 0.018043103, 0.018043103, 0.0, 0.012207031, 0.012199528 
1.8310547e-2, 4.8287106e+1, -0.0003865241, -598.6149, 19.669397, 0.0, 0.0012624523, 0.64521825, 0.64521825, 0.0, 0.012207031, 0.012199731 
1.8310547e-2, 4.8299304e+1, -0.000007033306, -601.5926, 2.6506877, 0.0, 0.0015098723, 0.011671981, 0.011671981, 0.0, 0.012207031, 0.012199694 
1.8310547e-2, 4.8311505e+1, -0.000005739007, -574.76953, -2.3938951, 0.0, 0.0018463453, 0.009964579, 0.009964579, 0.0, 0.012207031, 0.012200021 
1.8310547e-2, 4.8323703e+1, -0.00001285928, -575.7153, 3.5870776, 0.0, 0.0009290202, 0.022336083, 0.022336083, 0.0, 0.012207031, 0.012200009 
1.8310547e-2, 4.8335904e+1, -0.000000006850485, -557.5016, 0.25144973, 0.0, 0.0014261472, 0.00011340439, 0.00011340439, 0.0, 0.012207031, 0.012200232 
1.8310547e-2, 4.8348105e+1, -0.000010980502, -556.0683, -3.3088527, 0.0, 0.0019147361, 0.019677462, 0.019677462, 0.0, 0.012207031, 0.012200249 
1.8310547e-2, 4.8360306e+1, 0.0000002548176, -541.3256, 0.26067942, 0.0, 0.00075178867, 0.00012578692, 0.00012578692, 0.0, 0.012207031, 0.012200428 
1.8310547e-2, 4.8372504e+1, -0.000014565864, -535.0791, 3.8199062, 0.0, 0.0019641833, 0.02725419, 0.02725419, 0.0, 0.012207031, 0.012200505 
1.8310547e-2, 4.8384705e+1, 0.00000006971767, -514.8693, 0.16189268, 0.0, 0.001879182, 0.00005097436, 0.00005097436, 0.0, 0.012207031, 0.012200751 
1.8310547e-2, 4.839691e+1, -0.0000024306864, -512.9725, -1.5502414, 0.0, 0.0005732268, 0.0046824724, 0.0046824724, 0.0, 0.012207031, 0.012200775 
1.8310547e-2, 4.8409107e+1, -0.00005604422, -500.66733, 7.4868608, 0.0, 0.0017706163, 0.11187569, 0.11187569, 0.0, 0.012207031, 0.012200925 
1.8310547e-2, 4.842131e+1, -0.0000009658535, -508.66882, 0.97640485, 0.0, 0.0015059233, 0.0018732653, 0.0018732653, 0.0, 0.012207031, 0.012200827 
1.8310547e-2, 4.843351e+1, -0.0000005866774, -474.3252, -0.81213266, 0.0, 0.0013745457, 0.001389931, 0.001389931, 0.0, 0.012207031, 0.012201245 
1.8310547e-2, 4.8445714e+1, -0.000028621433, -474.90814, 5.349234, 0.0, 0.0015874889, 0.060216032, 0.060216032, 0.0, 0.012207031, 0.012201238 
1.8310547e-2, 4.8457912e+1, -0.0000039392426, -462.30228, 1.9999697, 0.0, 0.0011371308, 0.008647984, 0.008647984, 0.0, 0.012207031, 0.012201392 
1.8310547e-2, 4.8470116e+1, -0.000005549235, -455.17657, 2.3447542, 0.0, 0.0018221342, 0.012072678, 0.012072678, 0.0, 0.012207031, 0.012201479 
1.8310547e-2, 4.8482314e+1, -0.00000081840875, -445.11288, -0.8967863, 0.0, 0.0012263621, 0.0018059645, 0.0018059645, 0.0, 0.012207031, 0.012201602 
1.8310547e-2, 4.8494518e+1, -0.000005615016, -436.08572, -2.3641117, 0.0, 0.0015152354, 0.012810351, 0.012810351, 0.0, 0.012207031, 0.012201712 
1.8310547e-2, 4.850672e+1, -0.0000135766995, -429.03555, 3.6890357, 0.0, 0.0015294321, 0.031704023, 0.031704023, 0.0, 0.012207031, 0.012201797 
1.8310547e-2, 4.851892e+1, -0.0000010020218, -416.88046, 1.0320119, 0.0, 0.0011271355, 0.0025537875, 0.0025537875, 0.0, 0.012207031, 0.012201945 
1.8310547e-2, 4.8531124e+1, -0.00002479143, -390.30206, 4.9830832, 0.0, 0.0021768366, 0.06358511, 0.06358511, 0.0, 0.012207031, 0.012202269 
1.8310547e-2, 4.8543322e+1, -0.000048643327, -395.98758, -6.977997, 0.0, 0.0007864079, 0.12287778, 0.12287778, 0.0, 0.012207031, 0.0122022005 
1.8310547e-2, 4.8555526e+1, -0.00003546066, -372.28055, 5.9563355, 0.0, 0.0011531117, 0.09523908, 0.09523908, 0.0, 0.012207031, 0.012202489 
1.8310547e-2, 4.856773e+1, -0.0063818605, -383.28192, 79.910286, 0.0, 0.0023527786, 15.986985, 15.986985, 0.0, 0.012207031, 0.012202355 
1.8310547e-2, 4.8579934e+1, -0.0002334822, -373.75418, 15.28323, 0.0, 0.0006210933, 0.6236739, 0.6236739, 0.0, 0.012207031, 0.0122024715 
1.8310547e-2, 4.8592135e+1, -0.0001419576, -355.93185, -11.919123, 0.0, 0.001852103, 0.3985484, 0.3985484, 0.0, 0.012207031, 0.0122026885 
1.8310547e-2, 4.8604336e+1, -0.000037057463, -359.39014, 6.0887456, 0.0, 0.0020782333, 0.10308818, 0.10308818, 0.0, 0.012207031, 0.012202647 
1.8310547e-2, 4.861654e+1, -0.0009437749, -330.85855, 30.728493, 0.0, 0.00046090543, 2.828772, 2.828772, 0.0, 0.012207031, 0.012202995 
1.8310547e-2, 4.8628742e+1, -0.0000074531526, -323.85864, 2.7332692, 0.0, 0.0015169253, 0.023058873, 0.023058873, 0.0, 0.012207031, 0.01220308 
1.8310547e-2, 4.8640946e+1, -0.000063650754, -321.75748, -7.979663, 0.0, 0.0019161613, 0.19771239, 0.19771239, 0.0, 0.012207031, 0.012203106 
1.8310547e-2, 4.865315e+1, -0.000053812255, -296.62607, 7.3324137, 0.0, 0.001199666, 0.18108836, 0.18108836, 0.0, 0.012207031, 0.012203412 
1.8310547e-2, 4.866535e+1, -0.0032801367, -306.0925, 57.284992, 0.0, 0.0014656114, 10.366378, 10.366378, 0.0, 0.012207031, 0.012203297 
1.8310547e-2, 4.8677555e+1, -0.000019883657, -281.44803, 4.4654603, 0.0, 0.0016537854, 0.07081138, 0.07081138, 0.0, 0.012207031, 0.012203597 
1.8310547e-2, 4.868976e+1, -0.00008228098, -281.1291, -9.070814, 0.0, 0.0012375496, 0.2922895, 0.2922895, 0.0, 0.012207031, 0.012203601 
1.8310547e-2, 4.8701966e+1, -0.000038378425, -287.28293, 6.193952, 0.0, 0.0012753031, 0.13344409, 0.13344409, 0.0, 0.012207031, 0.012203526 
1.8310547e-2, 4.871417e+1, -0.000052812622, -254.86835, 7.267555, 0.0, 0.0018129249, 0.2070129, 0.2070129, 0.0, 0.012207031, 0.012203922 
1.8310547e-2, 4.872637e+1, -0.000021045515, -241.5101, -4.5887074, 0.0, 0.0012598358, 0.08713325, 0.08713325, 0.0, 0.012207031, 0.012204085 
1.8310547e-2, 4.8738575e+1, -0.00013136525, -245.42296, 11.46291, 0.0, 0.001405913, 0.5341013, 0.5341013, 0.0, 0.012207031, 0.012204036 
1.8310547e-2, 4.875078e+1, -0.000007854363, -229.27538, -2.7978947, 0.0, 0.0018097649, 0.034130353, 0.034130353, 0.0, 0.012207031, 0.012204234 
1.8310547e-2, 4.8762986e+1, -0.00008322216, -217.85306, 9.123977, 0.0, 0.0010193489, 0.3813733, 0.3813733, 0.0, 0.012207031, 0.012204372 
1.8310547e-2, 4.8775187e+1, -0.00000036054146, -202.26149, 0.5571843, 0.0, 0.0014849654, 0.0015345432, 0.0015345432, 0.0, 0.012207031, 0.012204563 
1.8310547e-2, 4.878739e+1, -0.00014497356, -198.10092, 12.039346, 0.0, 0.0017619757, 0.7288497, 0.7288497, 0.0, 0.012207031, 0.012204614 
1.8310547e-2, 4.8799598e+1, -0.0000874028, -194.69312, 9.3498125, 0.0, 0.00088112144, 0.44789124, 0.44789124, 0.0, 0.012207031, 0.012204655 
1.8310547e-2, 4.8811802e+1, -0.0000260298, -179.51031, -5.101005, 0.0, 0.0019756774, 0.14480843, 0.14480843, 0.0, 0.012207031, 0.012204841 
1.8310547e-2, 4.882401e+1, -0.000042886124, -163.06001, 6.544604, 0.0, 0.0014982475, 0.26221073, 0.26221073, 0.0, 0.012207031, 0.012205041 
1.8310547e-2, 4.8836213e+1, -0.0029719041, -165.31645, 54.517902, 0.0, 0.00094773056, 16.357147, 16.357147, 0.0, 0.012207031, 0.012205014 
1.8310547e-2, 4.884842e+1, -0.00012981723, -152.20798, 11.394071, 0.0, 0.0021429008, 0.8480877, 0.8480877, 0.0, 0.012207031, 0.012205173 
1.8310547e-2, 4.886062e+1, -0.000100240875, -142.84802, -10.0121155, 0.0, 0.0008238744, 0.6982284, 0.6982284, 0.0, 0.012207031, 0.012205288 
1.8310547e-2, 4.8872828e+1, -0.0000006456512, -140.88649, 0.7992895, 0.0, 0.0015468656, 0.0045338077, 0.0045338077, 0.0, 0.012207031, 0.012205312 
1.8310547e-2, 4.8885033e+1, -0.000067252666, -132.25653, 8.201117, 0.0, 0.0018006978, 0.50653684, 0.50653684, 0.0, 0.012207031, 0.012205417 
1.8310547e-2, 4.889724e+1, -0.00000088103224, -98.380356, -0.9556314, 0.0, 0.00080503896, 0.009280902, 0.009280902, 0.0, 0.012207031, 0.012205831 
1.8310547e-2, 4.8909444e+1, -0.0000028859674, -101.25281, 1.7066646, 0.0, 0.0021171083, 0.028755596, 0.028755596, 0.0, 0.012207031, 0.012205795 
1.8310547e-2, 4.892165e+1, -0.00002080919, -96.90697, -4.5669847, 0.0, 0.0012245622, 0.21473394, 0.21473394, 0.0, 0.012207031, 0.0122058485 
1.8310547e-2, 4.8933858e+1, -0.0000019449283, -84.682724, 1.3810161, 0.0, 0.0013099172, 0.022513848, 0.022513848, 0.0, 0.012207031, 0.0122059975 
1.8310547e-2, 4.8946065e+1, -0.000045782668, -75.84232, 6.762084, 0.0, 0.0017929052, 0.5981423, 0.5981423, 0.0, 0.012207031, 0.0122061055 
1.8310547e-2, 4.8958266e+1, -0.000029537961, -62.729946, -5.4287906, 0.0, 0.0009979374, 0.46632347, 0.46632347, 0.0, 0.012207031, 0.012206266 
1.8310547e-2, 4.8970473e+1, -0.000114086244, -41.05352, 10.662245, 0.0, 0.0018372305, 2.6038768, 2.6038768, 0.0, 0.012207031, 0.01220653 
1.8310547e-2, 4.898268e+1, -0.00006765528, -45.90529, -8.208477, 0.0, 0.0011146227, 1.4235691, 1.4235691, 0.0, 0.012207031, 0.012206471 
1.8310547e-2, 4.8994887e+1, -0.000028252558, -9.8002405, 5.2546196, 0.0, 0.0017526728, 2.2847157, 2.2847157, 0.0, 0.012207031, 0.012206912 
1.8310547e-2, 4.9007094e+1, -0.0033715665, -34.829144, 58.065533, 0.0, 0.0012144524, 43.20399, 43.20399, 0.0, 0.012207031, 0.012206607 
1.8310547e-2, 4.90193e+1, -0.00017262646, -12.096149, 13.12313, 0.0, 0.0015407234, 8.401569, 8.401569, 0.0, 0.012207031, 0.012206883 
1.8310547e-2, 4.9031508e+1, -0.000022264354, 1.3951958, -4.6892805, 0.0, 0.001449539, 5.4384737, 5.4384737, 0.0, 0.012207031, 0.012207048 
