coord_x,coord_y,stress_xx,stress_yy,tau_xy,velocity_x,velocity_y,stress_1,eps,damage,lx,ly
9.765625e-2, 9.3981856e-2, 0.0000000036427996, -39858.56, 0.007856439, 0.0, 0.0000030986957, 0.000000005187758, 0.000000005187758, 0.0, 0.1953125, 0.18796246 
9.765625e-2, 2.8194556e-1, 0.000000025057043, -39862.145, 0.023569461, 0.0, 0.000009296008, 0.000000038991857, 0.000000038991857, 0.0, 0.1953125, 0.18796183 
9.765625e-2, 4.6993682e-1, -0.000000010843802, -39547.02, 0.03383656, 0.0, 0.000052982847, 0.000000018109859, 0.000000018109859, 0.0, 0.1953125, 0.18801676 
9.765625e-2, 6.5795535e-1, 0.0000000030745786, -39547.42, 0.034193233, 0.0, 0.000034971785, 0.000000032647222, 0.000000032647222, 0.0, 0.1953125, 0.18801668 
9.765625e-2, 8.460013e-1, 0.00000002540624, -39233.613, 0.028107094, 0.0, 0.000070663824, 0.000000045547495, 0.000000045547495, 0.0, 0.1953125, 0.18807141 
9.765625e-2, 1.0340744e+0, 0.0000000068856663, -39234.434, 0.015524585, 0.0, 0.00005832521, 0.000000013023964, 0.000000013023964, 0.0, 0.1953125, 0.18807128 
9.765625e-2, 1.2221751e+0, -0.0000000067662946, -38920.535, 0.0031436447, 0.0, 0.00009340667, -0.000000006511982, -0.000000006511982, 0.0, 0.1953125, 0.18812607 
9.765625e-2, 1.4103028e+0, 0.00000000085736784, -38921.176, -0.0133222025, 0.0, 0.000069526555, 0.0000000054133125, 0.0000000054133125, 0.0, 0.1953125, 0.18812597 
9.765625e-2, 1.598458e+0, 0.000000000032698542, -38607.79, -0.029807579, 0.0, 0.00011248161, 0.000000023050234, 0.000000023050234, 0.0, 0.1953125, 0.18818073 
9.765625e-2, 1.7866406e+0, -0.000000015320941, -38607.81, -0.044441834, 0.0, 0.00008911428, 0.00000003583409, 0.00000003583409, 0.0, 0.1953125, 0.18818071 
9.765625e-2, 1.9748504e+0, -0.0000000017907267, -38295.336, -0.05849193, 0.0, 0.00012587203, 0.0000000875516, 0.0000000875516, 0.0, 0.1953125, 0.18823537 
9.765625e-2, 2.1630876e+0, 0.0000000065135852, -38294.406, -0.07030473, 0.0, 0.00010535463, 0.00000013558747, 0.00000013558747, 0.0, 0.1953125, 0.18823554 
9.765625e-2, 2.3513523e+0, 0.0000000061075793, -37983.2, -0.079941496, 0.0, 0.00014370703, 0.00000017435377, 0.00000017435377, 0.0, 0.1953125, 0.18829 
9.765625e-2, 2.5396442e+0, -0.0000000041541535, -37980.875, -0.08294932, 0.0, 0.00012810834, 0.00000017700222, 0.00000017700222, 0.0, 0.1953125, 0.1882904 
9.765625e-2, 2.7279633e+0, -0.000000004550851, -37671.285, -0.0849403, 0.0, 0.00016102765, 0.00000018697756, 0.00000018697756, 0.0, 0.1953125, 0.18834464 
9.765625e-2, 2.9163104e+0, -0.00000000015713471, -37667.453, -0.07862106, 0.0, 0.00015759724, 0.00000016394188, 0.00000016394188, 0.0, 0.1953125, 0.18834531 
9.765625e-2, 3.1046844e+0, 0.0000000008924552, -37358.855, -0.06937291, 0.0, 0.0001827734, 0.0000001297085, 0.0000001297085, 0.0, 0.1953125, 0.18839942 
9.765625e-2, 3.293086e+0, -0.000000006438601, -37353.89, -0.06373818, 0.0, 0.00018338105, 0.000000102314516, 0.000000102314516, 0.0, 0.1953125, 0.1884003 
9.765625e-2, 3.481515e+0, -0.000000006043927, -37046.695, -0.05906885, 0.0, 0.00021181015, 0.00000008814095, 0.00000008814095, 0.0, 0.1953125, 0.1884542 
9.765625e-2, 3.6699715e+0, -0.000000011993949, -37040.355, -0.037001356, 0.0, 0.00020692161, 0.00000002496381, 0.00000002496381, 0.0, 0.1953125, 0.18845531 
9.765625e-2, 3.858455e+0, 0.0000000016307945, -36733.92, -0.017899357, 0.0, 0.00022908181, 0.000000010346412, 0.000000010346412, 0.0, 0.1953125, 0.18850914 
9.765625e-2, 4.046967e+0, 0.0000000007956372, -36726.625, -0.06587123, 0.0, 0.00023553692, 0.00000011894008, 0.00000011894008, 0.0, 0.1953125, 0.18851042 
9.765625e-2, 4.2355055e+0, -0.000000013579357, -36421.406, -0.10067796, 0.0, 0.00027787432, 0.00000026472844, 0.00000026472844, 0.0, 0.1953125, 0.18856408 
9.765625e-2, 4.4240722e+0, -0.0000000030452845, -36413.59, 0.081093736, 0.0, 0.00023012614, 0.00000017754792, 0.00000017754792, 0.0, 0.1953125, 0.18856545 
9.765625e-2, 4.612666e+0, -0.000000039638575, -36108.258, 0.22133727, 0.0, 0.00025601638, 0.0000013171157, 0.0000013171157, 0.0, 0.1953125, 0.18861917 
9.765625e-2, 4.8012882e+0, -0.0000000653685, -36099.402, -0.25543934, 0.0, 0.00027832578, 0.0000017421189, 0.0000017421189, 0.0, 0.1953125, 0.18862073 
9.765625e-2, 4.989937e+0, -0.00000034442868, -35796.098, -0.5909449, 0.0, 0.00035216662, 0.000009411269, 0.000009411269, 0.0, 0.1953125, 0.18867414 
9.765625e-2, 5.1786137e+0, -0.0000004739023, -35789.273, 0.70795876, 0.0, 0.00022048749, 0.000013530451, 0.000013530451, 0.0, 0.1953125, 0.18867534 
9.765625e-2, 5.3673166e+0, -0.0000024559993, -35482.61, 1.6032455, 0.0, 0.00025987855, 0.000069985006, 0.000069985006, 0.0, 0.1953125, 0.18872939 
9.765625e-2, 5.55605e+0, -0.0000007574948, -35470.906, -0.8936919, 0.0, 0.0003081609, 0.000021759137, 0.000021759137, 0.0, 0.1953125, 0.18873145 
9.765625e-2, 5.7448083e+0, -0.0000012103362, -35175.016, -1.1206002, 0.0, 0.00040101167, 0.000034489574, 0.000034489574, 0.0, 0.1953125, 0.18878365 
9.765625e-2, 5.933595e+0, -0.000024292505, -35169.086, 5.091787, 0.0, 0.00018881352, 0.0007128973, 0.0007128973, 0.0, 0.1953125, 0.18878469 
9.765625e-2, 6.1224085e+0, -0.00047575927, -34856.56, -22.431684, 0.0, 0.0003739463, 0.013959982, 0.013959982, 0.0, 0.1953125, 0.18883987 
9.765625e-2, 6.3112515e+0, -0.0000061033998, -34843.914, -2.5112433, 0.0, 0.0002655904, 0.00017488495, 0.00017488495, 0.0, 0.1953125, 0.1888421 
9.765625e-2, 6.50012e+0, -0.0000019410782, -34544.477, 1.4227021, 0.0, 0.0004031529, 0.000056652403, 0.000056652403, 0.0, 0.1953125, 0.18889502 
9.765625e-2, 6.689019e+0, -0.000000097633695, -34533.465, 0.33322555, 0.0, 0.00026889268, 0.000003117777, 0.000003117777, 0.0, 0.1953125, 0.18889697 
9.765625e-2, 6.8779427e+0, -0.000000028774734, -34235.176, 0.09151664, 0.0, 0.00039208253, 0.00000021586311, 0.00000021586311, 0.0, 0.1953125, 0.18894972 
9.765625e-2, 7.066897e+0, 0.000000003851378, -34219.848, 0.05966262, 0.0, 0.00029538161, 0.00000010787335, 0.00000010787335, 0.0, 0.1953125, 0.18895243 
9.765625e-2, 7.255875e+0, -0.0000000032725915, -33923.98, 0.022014825, 0.0, 0.0004325913, 0.000000011008524, 0.000000011008524, 0.0, 0.1953125, 0.18900481 
9.765625e-2, 7.444886e+0, -0.0000000016954258, -33904.54, 0.025393484, 0.0, 0.0003077854, 0.000000017331331, 0.000000017331331, 0.0, 0.1953125, 0.18900825 
9.765625e-2, 7.6339185e+0, -0.000000014903565, -33613.492, 0.012639999, 0.0, 0.00041372643, -0.000000010142685, -0.000000010142685, 0.0, 0.1953125, 0.18905981 
9.765625e-2, 7.8229845e+0, -0.00000000088428165, -33589.496, 0.008023368, 0.0, 0.0003297399, 0.000000001033186, 0.000000001033186, 0.0, 0.1953125, 0.18906407 
9.765625e-2, 8.0120724e+0, -0.000000000048311723, -33303.137, -0.018887434, 0.0, 0.00044657846, 0.000000010659278, 0.000000010659278, 0.0, 0.1953125, 0.18911484 
9.765625e-2, 8.201195e+0, 0.000000003082266, -33274.04, -0.033096652, 0.0, 0.0003564307, 0.00000003600144, 0.00000003600144, 0.0, 0.1953125, 0.18912001 
9.765625e-2, 8.390338e+0, -0.000000006203482, -32992.707, 0.040936723, 0.0, 0.00041390295, 0.00000004458707, 0.00000004458707, 0.0, 0.1953125, 0.18916994 
9.765625e-2, 8.5795164e+0, -0.000000012277115, -32959.707, 0.038879223, 0.0, 0.00036385143, 0.00000003358582, 0.00000003358582, 0.0, 0.1953125, 0.1891758 
9.765625e-2, 8.768714e+0, -0.000000051215032, -32682.002, -0.19688095, 0.0, 0.00047497315, 0.0000011348238, 0.0000011348238, 0.0, 0.1953125, 0.18922512 
9.765625e-2, 8.9579475e+0, -0.000000043149573, -32645.234, -0.21907304, 0.0, 0.00042196727, 0.0000014269899, 0.0000014269899, 0.0, 0.1953125, 0.18923166 
9.765625e-2, 9.1472006e+0, -0.00000007498691, -32373.498, 0.29366216, 0.0, 0.00040455567, 0.0000025888403, 0.0000025888403, 0.0, 0.1953125, 0.18927997 
9.765625e-2, 9.336492e+0, -0.00000008099317, -32328.28, 0.28768, 0.0, 0.0004092758, 0.0000024789915, 0.0000024789915, 0.0, 0.1953125, 0.18928802 
9.765625e-2, 9.5258e+0, -0.0000005316433, -32063.467, -0.7395168, 0.0, 0.00052672153, 0.000016524686, 0.000016524686, 0.0, 0.1953125, 0.18933514 
9.765625e-2, 9.715145e+0, -0.00000038857627, -32014.127, -0.6349487, 0.0, 0.00048598548, 0.000012204611, 0.000012204611, 0.0, 0.1953125, 0.18934391 
9.765625e-2, 9.9045086e+0, -0.0000007193802, -31757.123, 0.86700535, 0.0, 0.00041807766, 0.000022950844, 0.000022950844, 0.0, 0.1953125, 0.18938969 
9.765625e-2, 1.0093911e+1, -0.00000019932112, -31693.924, 0.44350109, 0.0, 0.0004979811, 0.000006006703, 0.000006006703, 0.0, 0.1953125, 0.18940096 
9.765625e-2, 1.028333e+1, -0.00000001115985, -31449.49, -0.15852956, 0.0, 0.000528264, 0.0000007879462, 0.0000007879462, 0.0, 0.1953125, 0.18944453 
9.765625e-2, 1.0472787e+1, -0.000006332807, -31382.395, 2.5409775, 0.0, 0.0005264196, 0.00019940568, 0.00019940568, 0.0, 0.1953125, 0.1894565 
9.765625e-2, 1.0662262e+1, -0.00033183472, -31137.031, -18.67954, 0.0, 0.0004950813, 0.01087428, 0.01087428, 0.0, 0.1953125, 0.18950026 
9.765625e-2, 1.0851776e+1, -0.000000953831, -31059.342, 1.0006075, 0.0, 0.00056589965, 0.000031281736, 0.000031281736, 0.0, 0.1953125, 0.18951413 
9.765625e-2, 1.1041305e+1, -0.00000008339384, -30829.797, -0.3208685, 0.0, 0.0005205941, 0.000003256122, 0.000003256122, 0.0, 0.1953125, 0.18955512 
9.765625e-2, 1.1230875e+1, -0.0000000019247164, -30748.326, -0.04030286, 0.0, 0.0005885415, 0.00000005089896, 0.00000005089896, 0.0, 0.1953125, 0.18956967 
9.765625e-2, 1.1420461e+1, -0.000000010608285, -30526.164, -0.07454444, 0.0, 0.00054180785, 0.00000017142884, 0.00000017142884, 0.0, 0.1953125, 0.18960938 
9.765625e-2, 1.16100855e+1, -0.0000000027693718, -30436.828, -0.0724045, 0.0, 0.0005941816, 0.0000001694716, 0.0000001694716, 0.0, 0.1953125, 0.18962535 
9.765625e-2, 1.1799726e+1, 0.000000000952572, -30218.104, -0.032283116, 0.0, 0.00057376106, 0.00000003544119, 0.00000003544119, 0.0, 0.1953125, 0.18966447 
9.765625e-2, 1.19894065e+1, -0.0000000046940776, -30119.182, -0.0596694, 0.0, 0.0006153911, 0.00000011351949, 0.00000011351949, 0.0, 0.1953125, 0.18968217 
9.765625e-2, 1.2179103e+1, -0.000000016400875, -29907.848, -0.112424254, 0.0, 0.00060466945, 0.00000040620216, 0.00000040620216, 0.0, 0.1953125, 0.18972 
9.765625e-2, 1.2368839e+1, -0.000000018541748, -29803.615, -0.09725986, 0.0, 0.0006041395, 0.00000029884905, 0.00000029884905, 0.0, 0.1953125, 0.18973868 
9.765625e-2, 1.2558591e+1, -0.0000000038659462, -29598.973, -0.052302, 0.0, 0.0006373798, 0.00000008855204, 0.00000008855204, 0.0, 0.1953125, 0.18977535 
9.765625e-2, 1.2748386e+1, 0.0000000072105695, -29487.203, -0.012159475, 0.0, 0.0006768782, 0.000000012227247, 0.000000012227247, 0.0, 0.1953125, 0.18979539 
9.765625e-2, 1.2938192e+1, 0.000000003194285, -29288.803, -0.068463966, 0.0, 0.0006866044, 0.00000016322883, 0.00000016322883, 0.0, 0.1953125, 0.18983097 
9.765625e-2, 1.3128042e+1, -0.000000014629543, -29171.543, -0.097327895, 0.0, 0.0005905201, 0.00000031009768, 0.00000031009768, 0.0, 0.1953125, 0.18985201 
9.765625e-2, 1.3317907e+1, -0.0000000074224946, -28979.82, -0.050512377, 0.0, 0.00071347615, 0.00000008062125, 0.00000008062125, 0.0, 0.1953125, 0.18988642 
9.765625e-2, 1.3507813e+1, -0.0000000062425705, -28854.277, -0.11527969, 0.0, 0.00080709084, 0.00000045432535, 0.00000045432535, 0.0, 0.1953125, 0.18990897 
9.765625e-2, 1.3697731e+1, -0.000000009438831, -28671.014, -0.08017087, 0.0, 0.00078062987, 0.00000021473534, 0.00000021473534, 0.0, 0.1953125, 0.1899419 
9.765625e-2, 1.3887694e+1, -0.00000008599574, -28538.574, 0.30122805, 0.0, 0.0005266914, 0.0000030935043, 0.0000030935043, 0.0, 0.1953125, 0.1899657 
9.765625e-2, 1.407767e+1, -0.000000012351416, -28359.197, 0.005159365, 0.0, 0.0007997841, -0.0000000114123395, -0.0000000114123395, 0.0, 0.1953125, 0.18999796 
9.765625e-2, 1.4267689e+1, -0.0000008602669, -28221.693, -0.9510355, 0.0, 0.00094752084, 0.00003118843, 0.00003118843, 0.0, 0.1953125, 0.19002269 
9.765625e-2, 1.4457722e+1, -0.00000009636069, -28052.234, -0.28125018, 0.0, 0.0008430083, 0.0000027234419, 0.0000027234419, 0.0, 0.1953125, 0.1900532 
9.765625e-2, 1.4647795e+1, -0.000002166076, -27907.225, 1.4908715, 0.0, 0.00050506234, 0.0000774799, 0.0000774799, 0.0, 0.1953125, 0.1900793 
9.765625e-2, 1.4837885e+1, -0.000000052839702, -27736.834, 0.20974967, 0.0, 0.0008964743, 0.0000015333171, 0.0000015333171, 0.0, 0.1953125, 0.19011 
9.765625e-2, 1.5028018e+1, -0.0000027379872, -27592.27, -1.6781303, 0.0, 0.0009281967, 0.00009932397, 0.00009932397, 0.0, 0.1953125, 0.19013605 
9.765625e-2, 1.5218163e+1, -0.0000000084784055, -27430.586, 0.034942303, 0.0, 0.0008675498, 0.000000036030542, 0.000000036030542, 0.0, 0.1953125, 0.19016519 
9.765625e-2, 1.5408349e+1, 0.000000005259383, -27273.227, -0.06917375, 0.0, 0.0006277698, 0.00000018070932, 0.00000018070932, 0.0, 0.1953125, 0.19019358 
9.765625e-2, 1.5598552e+1, -0.000022667728, -27114.875, -4.8709497, 0.0, 0.00096675544, 0.0008523556, 0.0008523556, 0.0, 0.1953125, 0.19022216 
9.765625e-2, 1.5788797e+1, -0.0009953654, -26957.832, -32.246128, 0.0, 0.0007974876, 0.037576403, 0.037576403, 0.0, 0.1953125, 0.19025052 
9.765625e-2, 1.5979053e+1, -0.000016900392, -26818.742, -4.184534, 0.0, 0.00093991525, 0.00063601334, 0.00063601334, 0.0, 0.1953125, 0.19027564 
9.765625e-2, 1.6169353e+1, -0.00000071664664, -26642.002, -0.8692655, 0.0, 0.0007880564, 0.00002764543, 0.00002764543, 0.0, 0.1953125, 0.19030757 
9.765625e-2, 1.6359667e+1, -0.00000007338724, -26505.094, -0.26388195, 0.0, 0.0009881363, 0.000002553792, 0.000002553792, 0.0, 0.1953125, 0.19033232 
9.765625e-2, 1.6550024e+1, -0.000000037650967, -26324.133, -0.17910834, 0.0, 0.0008324738, 0.0000011809971, 0.0000011809971, 0.0, 0.1953125, 0.19036505 
9.765625e-2, 1.6740397e+1, -0.0000000005457707, -26195.42, 0.015332166, 0.0, 0.0010100374, 0.000000008429197, 0.000000008429197, 0.0, 0.1953125, 0.19038834 
9.765625e-2, 1.693081e+1, 0.0000000058059455, -26008.857, 0.0114174215, 0.0, 0.00087929796, 0.000000010819349, 0.000000010819349, 0.0, 0.1953125, 0.1904221 
9.765625e-2, 1.7121238e+1, -0.000000009036966, -25884.553, 0.0026423556, 0.0, 0.001022639, -0.000000008767529, -0.000000008767529, 0.0, 0.1953125, 0.19044462 
9.765625e-2, 1.7311707e+1, -0.0000000011174425, -25692.998, -0.08513108, 0.0, 0.00092752546, 0.00000028095747, 0.00000028095747, 0.0, 0.1953125, 0.19047932 
9.765625e-2, 1.7502192e+1, -0.000000009042912, -25574.668, -0.09264527, 0.0, 0.0010252144, 0.00000032657044, 0.00000032657044, 0.0, 0.1953125, 0.19050077 
9.765625e-2, 1.7692718e+1, 0.000000006288108, -25374.922, -0.04485597, 0.0, 0.000953398, 0.000000085576175, 0.000000085576175, 0.0, 0.1953125, 0.19053699 
9.765625e-2, 1.788326e+1, -0.000000006263359, -25266.914, -0.095590346, 0.0, 0.00103189, 0.00000035537232, 0.00000035537232, 0.0, 0.1953125, 0.19055659 
9.765625e-2, 1.8073843e+1, -0.000000077356816, -25056.2, -0.27650377, 0.0, 0.00097398885, 0.0000029739567, 0.0000029739567, 0.0, 0.1953125, 0.19059482 
9.765625e-2, 1.8264443e+1, -0.000000018470633, -24959.902, -0.16386199, 0.0, 0.0010200758, 0.0000010572876, 0.0000010572876, 0.0, 0.1953125, 0.19061232 
9.765625e-2, 1.845508e+1, -0.00000002689929, -24745.016, -0.106585175, 0.0, 0.0010123749, 0.00000043219552, 0.00000043219552, 0.0, 0.1953125, 0.19065136 
9.765625e-2, 1.8645735e+1, -0.000000029796125, -24656.793, -0.18509737, 0.0, 0.0010219386, 0.00000135972, 0.00000135972, 0.0, 0.1953125, 0.19066738 
9.765625e-2, 1.883643e+1, 0.0000000021060782, -24430.01, -0.08832472, 0.0, 0.0010256404, 0.00000032143726, 0.00000032143726, 0.0, 0.1953125, 0.19070862 
9.765625e-2, 1.9027144e+1, 0.000000011497259, -24346.63, -0.022499051, 0.0, 0.0010065291, 0.000000032287062, 0.000000032287062, 0.0, 0.1953125, 0.19072378 
9.765625e-2, 1.9217893e+1, -0.000000018109192, -24112.766, -0.023952147, 0.0, 0.0010865519, 0.000000005678885, 0.000000005678885, 0.0, 0.1953125, 0.19076633 
9.765625e-2, 1.9408664e+1, -0.000000017777518, -24039.768, -0.06886051, 0.0, 0.0010013942, 0.00000017946513, 0.00000017946513, 0.0, 0.1953125, 0.19077963 
9.765625e-2, 1.9599472e+1, -0.0000000055579266, -23794.701, -0.017395213, 0.0, 0.001139672, 0.0000000071559043, 0.0000000071559043, 0.0, 0.1953125, 0.19082427 
9.765625e-2, 1.9790298e+1, -0.0000000011665142, -23732.984, -0.048332848, 0.0, 0.0010169407, 0.000000097265, 0.000000097265, 0.0, 0.1953125, 0.1908355 
9.765625e-2, 1.9981164e+1, -0.000000003401403, -23477.133, -0.051641334, 0.0, 0.001196599, 0.00000011019074, 0.00000011019074, 0.0, 0.1953125, 0.19088216 
9.765625e-2, 2.0172049e+1, 0.00000000067649725, -23425.65, 0.0046267314, 0.0, 0.001007513, 0.0000000015897967, 0.0000000015897967, 0.0, 0.1953125, 0.19089155 
9.765625e-2, 2.0362969e+1, 0.000000013850255, -23158.342, 0.0016543403, 0.0, 0.0012634231, 0.000000013969839, 0.000000013969839, 0.0, 0.1953125, 0.19094032 
9.765625e-2, 2.055391e+1, -0.000000003055551, -23119.627, -0.03519912, 0.0, 0.0010181469, 0.000000050535164, 0.000000050535164, 0.0, 0.1953125, 0.19094738 
9.765625e-2, 2.0744888e+1, -0.0000000017900825, -22839.0, -0.034452125, 0.0, 0.0013057361, 0.00000005017864, 0.00000005017864, 0.0, 0.1953125, 0.19099863 
9.765625e-2, 2.0935889e+1, 0.000000009190094, -22813.977, -0.031249955, 0.0, 0.00100421, 0.000000051993993, 0.000000051993993, 0.0, 0.1953125, 0.1910032 
9.765625e-2, 2.1126923e+1, -0.000000010600075, -22519.686, -0.06530095, 0.0, 0.0013550456, 0.00000017875573, 0.00000017875573, 0.0, 0.1953125, 0.191057 
9.765625e-2, 2.131798e+1, -0.000000018078863, -22506.7, -0.08730973, 0.0, 0.000975323, 0.00000032062235, 0.00000032062235, 0.0, 0.1953125, 0.19105938 
9.765625e-2, 2.1509069e+1, -0.0000000014712053, -22204.566, -0.049789123, 0.0, 0.0013781657, 0.00000011016891, 0.00000011016891, 0.0, 0.1953125, 0.19111465 
9.765625e-2, 2.1700184e+1, -0.0000000037846437, -22194.54, -0.035175685, 0.0, 0.0009886241, 0.00000005196489, 0.00000005196489, 0.0, 0.1953125, 0.19111648 
9.765625e-2, 2.189133e+1, -0.000000004484522, -21894.55, -0.026300728, 0.0, 0.0014001874, 0.000000027110218, 0.000000027110218, 0.0, 0.1953125, 0.19117142 
9.765625e-2, 2.2082502e+1, -0.000000037111285, -21879.377, -0.20242405, 0.0, 0.00096286176, 0.0000018356805, 0.0000018356805, 0.0, 0.1953125, 0.1911742 
9.765625e-2, 2.2273704e+1, -0.000000011824286, -21584.36, -0.00082276214, 0.0, 0.001438991, -0.000000011794327, -0.000000011794327, 0.0, 0.1953125, 0.19122827 
9.765625e-2, 2.2464937e+1, -0.000000009342884, -21563.744, -0.03351545, 0.0, 0.0009899393, 0.00000004274625, 0.00000004274625, 0.0, 0.1953125, 0.19123206 
9.765625e-2, 2.2656195e+1, -0.0000000017959025, -21275.281, -0.042155545, 0.0, 0.0014619448, 0.00000008173083, 0.00000008173083, 0.0, 0.1953125, 0.19128497 
9.765625e-2, 2.2847484e+1, -0.0000000061799446, -21246.344, 0.015941469, 0.0, 0.0010293791, 0.0000000057807483, 0.0000000057807483, 0.0, 0.1953125, 0.19129027 
9.765625e-2, 2.3038802e+1, -0.0000000036194903, -20967.77, 0.024075871, 0.0, 0.0015034629, 0.000000024025212, 0.000000024025212, 0.0, 0.1953125, 0.19134143 
9.765625e-2, 2.3230149e+1, -0.000000017698964, -20928.75, -0.04095387, 0.0, 0.0010611657, 0.00000006243863, 0.00000006243863, 0.0, 0.1953125, 0.1913486 
9.765625e-2, 2.342152e+1, -0.000000016441675, -20659.13, -0.058818366, 0.0, 0.0015293778, 0.00000015101978, 0.00000015101978, 0.0, 0.1953125, 0.19139814 
9.765625e-2, 2.3612927e+1, -0.000000041898083, -20611.092, -0.20035626, 0.0, 0.0011209145, 0.0000019057225, 0.0000019057225, 0.0, 0.1953125, 0.19140697 
9.765625e-2, 2.3804356e+1, -0.000000006285623, -20350.695, -0.06288131, 0.0, 0.0015417979, 0.00000018801074, 0.00000018801074, 0.0, 0.1953125, 0.19145487 
9.765625e-2, 2.399582e+1, -0.000000006409551, -20293.791, -0.06317655, 0.0, 0.0011431598, 0.00000019026629, 0.00000019026629, 0.0, 0.1953125, 0.19146533 
9.765625e-2, 2.4187306e+1, -0.0000000021371773, -20041.512, -0.051325172, 0.0, 0.001542303, 0.00000012930832, 0.00000012930832, 0.0, 0.1953125, 0.19151178 
9.765625e-2, 2.4378829e+1, -0.0000000030184613, -19977.36, -0.07880458, 0.0, 0.0011676544, 0.0000003078385, 0.0000003078385, 0.0, 0.1953125, 0.1915236 
9.765625e-2, 2.457037e+1, -0.000000011758697, -19731.854, -0.06446903, 0.0, 0.0015359598, 0.00000019887739, 0.00000019887739, 0.0, 0.1953125, 0.19156884 
9.765625e-2, 2.4761951e+1, -0.00000000854049, -19661.44, -0.0031491905, 0.0, 0.0011747634, -0.000000008036295, -0.000000008036295, 0.0, 0.1953125, 0.19158182 
9.765625e-2, 2.4953552e+1, -0.0000000027139804, -19422.143, -0.003139222, 0.0, 0.0015241036, -0.0000000022046152, -0.0000000022046152, 0.0, 0.1953125, 0.19162595 
9.765625e-2, 2.5145188e+1, -0.0000000030124054, -19344.037, -0.077365786, 0.0, 0.0011954112, 0.00000030640877, 0.00000030640877, 0.0, 0.1953125, 0.19164036 
9.765625e-2, 2.5336847e+1, -0.000000012870866, -19114.643, -0.087796636, 0.0, 0.0014957121, 0.00000039039514, 0.00000039039514, 0.0, 0.1953125, 0.19168271 
9.765625e-2, 2.5528544e+1, -0.000000012515116, -19024.514, -0.031688955, 0.0, 0.0012274339, 0.000000040268787, 0.000000040268787, 0.0, 0.1953125, 0.19169936 
9.765625e-2, 2.572026e+1, 0.00000000022964834, -18808.867, -0.058719642, 0.0, 0.0015009554, 0.00000018354694, 0.00000018354694, 0.0, 0.1953125, 0.1917392 
9.765625e-2, 2.5912014e+1, -0.00000015446331, -18706.719, -0.3982104, 0.0, 0.0012332866, 0.000008322248, 0.000008322248, 0.0, 0.1953125, 0.19175808 
9.765625e-2, 2.6103786e+1, -0.000000009406909, -18500.8, -0.064762674, 0.0, 0.001494812, 0.00000021729647, 0.00000021729647, 0.0, 0.1953125, 0.19179615 
9.765625e-2, 2.6295602e+1, -0.000000020960206, -18389.516, -0.11724438, 0.0, 0.0012903002, 0.0000007265444, 0.0000007265444, 0.0, 0.1953125, 0.19181675 
9.765625e-2, 2.648743e+1, -0.000000029851325, -18192.482, -0.13529389, 0.0, 0.0014951512, 0.0000009763025, 0.0000009763025, 0.0, 0.1953125, 0.19185321 
9.765625e-2, 2.66793e+1, -0.0000007369713, -18071.12, -0.85876036, 0.0, 0.0013139198, 0.000040072307, 0.000040072307, 0.0, 0.1953125, 0.1918757 
9.765625e-2, 2.687119e+1, -0.00000000575707, -17884.582, 0.0033191727, 0.0, 0.0015147586, -0.000000005140464, -0.000000005140464, 0.0, 0.1953125, 0.19191025 
9.765625e-2, 2.706312e+1, -0.0000000073210518, -17753.127, -0.05162511, 0.0, 0.0013287965, 0.00000014280158, 0.00000014280158, 0.0, 0.1953125, 0.19193462 
9.765625e-2, 2.7255064e+1, -0.000000013588863, -17576.816, -0.08876238, 0.0, 0.0015068222, 0.00000043465843, 0.00000043465843, 0.0, 0.1953125, 0.19196731 
9.765625e-2, 2.744705e+1, -0.00000003887615, -17434.895, -0.16708873, 0.0, 0.0013681408, 0.0000015624319, 0.0000015624319, 0.0, 0.1953125, 0.19199364 
9.765625e-2, 2.7639052e+1, -0.000000005560513, -17269.133, 0.032994248, 0.0, 0.0014769265, 0.000000057480065, 0.000000057480065, 0.0, 0.1953125, 0.1920244 
9.765625e-2, 2.78311e+1, -0.0000000035376877, -17121.02, -0.020354941, 0.0, 0.0013746987, 0.00000002066372, 0.00000002066372, 0.0, 0.1953125, 0.1920519 
9.765625e-2, 2.802316e+1, -0.0000000213333, -16962.518, -0.071957156, 0.0, 0.0015169278, 0.00000028391878, 0.00000028391878, 0.0, 0.1953125, 0.19208135 
9.765625e-2, 2.8215262e+1, -0.000000085906244, -16804.25, -0.2711906, 0.0, 0.0013704954, 0.0000042906286, 0.0000042906286, 0.0, 0.1953125, 0.19211076 
9.765625e-2, 2.8407383e+1, -0.00000012847566, -16654.25, 0.33882284, 0.0, 0.0014058446, 0.000006764716, 0.000006764716, 0.0, 0.1953125, 0.19213864 
9.765625e-2, 2.8599545e+1, -0.000000019750487, -16483.121, 0.08933621, 0.0, 0.0014514073, 0.00000046443893, 0.00000046443893, 0.0, 0.1953125, 0.19217047 
9.765625e-2, 2.8791723e+1, -0.000000086781625, -16351.322, -0.2841287, 0.0, 0.001464979, 0.0000048503807, 0.0000048503807, 0.0, 0.1953125, 0.192195 
9.765625e-2, 2.8983942e+1, -0.000000019493182, -16161.096, 0.055239193, 0.0, 0.0014300185, 0.00000016931699, 0.00000016931699, 0.0, 0.1953125, 0.19223042 
9.765625e-2, 2.917618e+1, -0.00000025303535, -16048.609, 0.5002412, 0.0, 0.0013803872, 0.000015339672, 0.000015339672, 0.0, 0.1953125, 0.19225137 
9.765625e-2, 2.9368457e+1, -0.00000004179503, -15838.736, -0.14757678, 0.0, 0.001550749, 0.0000013332447, 0.0000013332447, 0.0, 0.1953125, 0.19229048 
9.765625e-2, 2.956075e+1, -0.00000003725611, -15745.474, -0.15022643, 0.0, 0.001365742, 0.0000013960416, 0.0000013960416, 0.0, 0.1953125, 0.19230787 
9.765625e-2, 2.9753086e+1, -0.00000070577033, -15523.479, -0.8109748, 0.0, 0.0015567997, 0.000041661027, 0.000041661027, 0.0, 0.1953125, 0.19234928 
9.765625e-2, 2.994544e+1, -0.00000028318965, -15434.946, 0.5412227, 0.0, 0.0014433258, 0.000018694653, 0.000018694653, 0.0, 0.1953125, 0.1923658 
9.765625e-2, 3.0137834e+1, -0.00000012259613, -15208.577, -0.3490357, 0.0, 0.0016118565, 0.000007887747, 0.000007887747, 0.0, 0.1953125, 0.19240806 
9.765625e-2, 3.0330244e+1, -0.00000004481438, -15123.776, -0.17414206, 0.0, 0.0012512136, 0.0000019603358, 0.0000019603358, 0.0, 0.1953125, 0.1924239 
9.765625e-2, 3.0522695e+1, -0.000000017878424, -14894.561, -0.12267227, 0.0, 0.0016883011, 0.0000009924552, 0.0000009924552, 0.0, 0.1953125, 0.19246672 
9.765625e-2, 3.0715168e+1, -0.000000005441412, -14812.174, 0.04437934, 0.0, 0.0014134074, 0.00000012752571, 0.00000012752571, 0.0, 0.1953125, 0.19248213 
9.765625e-2, 3.0907676e+1, -0.000000015992114, -14580.508, 0.027304543, 0.0, 0.0015937446, 0.000000035139237, 0.000000035139237, 0.0, 0.1953125, 0.19252546 
9.765625e-2, 3.1100208e+1, -0.000000010199965, -14500.791, 0.089359425, 0.0, 0.0012425554, 0.00000054046905, 0.00000054046905, 0.0, 0.1953125, 0.19254038 
9.765625e-2, 3.129277e+1, -0.000000024335643, -14267.449, -0.13865267, 0.0, 0.0017128636, 0.0000013231056, 0.0000013231056, 0.0, 0.1953125, 0.19258405 
9.765625e-2, 3.148536e+1, -0.000000025084848, -14188.813, 0.13160343, 0.0, 0.0012140446, 0.0000011955563, 0.0000011955563, 0.0, 0.1953125, 0.19259878 
9.765625e-2, 3.1677985e+1, -0.000000018904508, -13952.176, 0.111954525, 0.0, 0.0016443784, 0.0000008794359, 0.0000008794359, 0.0, 0.1953125, 0.19264312 
9.765625e-2, 3.1870633e+1, -0.000000108309514, -13877.882, -0.31296933, 0.0, 0.0012928994, 0.000006949669, 0.000006949669, 0.0, 0.1953125, 0.19265704 
9.765625e-2, 3.206331e+1, -0.000003131535, -13639.832, -1.8300078, 0.0, 0.001679615, 0.00024239409, 0.00024239409, 0.0, 0.1953125, 0.19270168 
9.765625e-2, 3.2256022e+1, -0.000000007578501, -13561.869, 0.067652605, 0.0, 0.0011168261, 0.00000032990283, 0.00000032990283, 0.0, 0.1953125, 0.19271632 
9.765625e-2, 3.244876e+1, -0.0000038768917, -13332.429, -1.983733, 0.0, 0.0016891919, 0.0002912829, 0.0002912829, 0.0, 0.1953125, 0.19275938 
9.765625e-2, 3.2641533e+1, -0.000007852765, -13241.516, -2.8599725, 0.0, 0.001369629, 0.0006098591, 0.0006098591, 0.0, 0.1953125, 0.19277646 
9.765625e-2, 3.2834327e+1, -0.000002916662, -13032.515, -1.7639867, 0.0, 0.0016940993, 0.00023584378, 0.00023584378, 0.0, 0.1953125, 0.19281572 
9.765625e-2, 3.3027154e+1, -0.00000021926365, -12921.434, -0.46137324, 0.0, 0.0011209083, 0.00001625455, 0.00001625455, 0.0, 0.1953125, 0.1928366 
9.765625e-2, 3.3220008e+1, -0.0000000107004645, -12725.544, -0.03334512, 0.0, 0.0017232484, 0.00000007667586, 0.00000007667586, 0.0, 0.1953125, 0.19287343 
9.765625e-2, 3.3412895e+1, -0.00000010945217, -12599.133, -0.31525013, 0.0, 0.0014520809, 0.000007778603, 0.000007778603, 0.0, 0.1953125, 0.19289722 
9.765625e-2, 3.3605808e+1, -0.000000042465064, -12419.689, -0.11890609, 0.0, 0.0016815773, 0.0000010959429, 0.0000010959429, 0.0, 0.1953125, 0.192931 
9.765625e-2, 3.3798754e+1, -0.0000009004064, -12280.071, 0.90784335, 0.0, 0.0011601386, 0.0000662148, 0.0000662148, 0.0, 0.1953125, 0.19295728 
9.765625e-2, 3.3991727e+1, -0.00000021881362, -12111.421, 0.42582464, 0.0, 0.0017758518, 0.000014752726, 0.000014752726, 0.0, 0.1953125, 0.19298905 
9.765625e-2, 3.4184733e+1, -0.000001584256, -11961.282, -1.1302098, 0.0, 0.0013334805, 0.00010520815, 0.00010520815, 0.0, 0.1953125, 0.19301736 
9.765625e-2, 3.4377763e+1, -0.000000047235087, -11806.306, -0.087547146, 0.0, 0.0016059901, 0.0000006019509, 0.0000006019509, 0.0, 0.1953125, 0.19304658 
9.765625e-2, 3.4570828e+1, -0.0000023320638, -11644.543, 1.4712896, 0.0, 0.0013792457, 0.00018356557, 0.00018356557, 0.0, 0.1953125, 0.1930771 
9.765625e-2, 3.4763917e+1, -0.00000007180424, -11492.712, -0.1498482, 0.0, 0.0018082006, 0.0000018819974, 0.0000018819974, 0.0, 0.1953125, 0.19310576 
9.765625e-2, 3.495704e+1, -0.0000017484075, -11325.847, -1.3218809, 0.0, 0.0010153254, 0.00015253315, 0.00015253315, 0.0, 0.1953125, 0.19313726 
9.765625e-2, 3.5150188e+1, -0.0000030305562, -11191.148, -1.7738754, 0.0, 0.0016040792, 0.00027814112, 0.00027814112, 0.0, 0.1953125, 0.19316271 
9.765625e-2, 3.5343373e+1, -0.00000002519733, -11004.748, -0.11054927, 0.0, 0.0016827545, 0.0000010853364, 0.0000010853364, 0.0, 0.1953125, 0.19319794 
9.765625e-2, 3.5536578e+1, -0.0000005202432, -10886.597, -0.6572052, 0.0, 0.0016248277, 0.00003915411, 0.00003915411, 0.0, 0.1953125, 0.19322027 
9.765625e-2, 3.572982e+1, -0.0000011680655, -10685.753, 0.97556275, 0.0, 0.0010502436, 0.00008789656, 0.00008789656, 0.0, 0.1953125, 0.19325827 
9.765625e-2, 3.5923088e+1, -0.00000044647413, -10578.794, -0.62471116, 0.0, 0.0018522631, 0.000036444686, 0.000036444686, 0.0, 0.1953125, 0.1932785 
9.765625e-2, 3.611639e+1, -0.0000016768821, -10363.716, -1.2620202, 0.0, 0.00134171, 0.00015200303, 0.00015200303, 0.0, 0.1953125, 0.19331923 
9.765625e-2, 3.6309716e+1, -0.0000004259977, -10277.17, 0.5951223, 0.0, 0.0014202062, 0.00003403588, 0.00003403588, 0.0, 0.1953125, 0.19333562 
9.765625e-2, 3.650308e+1, -0.00000005159595, -10039.295, 0.18471795, 0.0, 0.0017422164, 0.0000033471224, 0.0000033471224, 0.0, 0.1953125, 0.19338071 
9.765625e-2, 3.6696464e+1, -0.0000016544991, -9975.625, -1.2428799, 0.0, 0.0016934578, 0.000153198, 0.000153198, 0.0, 0.1953125, 0.19339278 
9.765625e-2, 3.688988e+1, -0.00000202336, -9715.858, 1.4208703, 0.0, 0.001022073, 0.00020576811, 0.00020576811, 0.0, 0.1953125, 0.19344206 
9.765625e-2, 3.7083328e+1, -0.00000047262355, -9672.17, 0.6057368, 0.0, 0.0017490556, 0.00003746272, 0.00003746272, 0.0, 0.1953125, 0.19345035 
9.765625e-2, 3.7276804e+1, -0.00000009784182, -9392.097, 0.25260204, 0.0, 0.0015442418, 0.0000066959346, 0.0000066959346, 0.0, 0.1953125, 0.19350353 
9.765625e-2, 3.747031e+1, -0.000050317805, -9383.516, 7.1479707, 0.0, 0.0012911396, 0.005394705, 0.005394705, 0.0, 0.1953125, 0.19350515 
9.765625e-2, 3.766385e+1, -0.0018597675, -9060.247, -43.448727, 0.0, 0.0017478266, 0.20649534, 0.20649534, 0.0, 0.1953125, 0.19356659 
9.765625e-2, 3.7857413e+1, -0.000030806223, -9069.543, 5.5923367, 0.0, 0.0015480303, 0.003417462, 0.003417462, 0.0, 0.1953125, 0.19356482 
9.765625e-2, 3.805101e+1, -0.0000025941924, -8738.381, 1.6322274, 0.0, 0.0012152621, 0.0003022868, 0.0003022868, 0.0, 0.1953125, 0.19362782 
9.765625e-2, 3.824464e+1, -0.000109219676, -8760.975, -10.527639, 0.0, 0.0015344518, 0.012541317, 0.012541317, 0.0, 0.1953125, 0.19362351 
9.765625e-2, 3.843829e+1, -0.000061140876, -8426.535, -7.874504, 0.0, 0.0016254782, 0.0072974893, 0.0072974893, 0.0, 0.1953125, 0.19368719 
9.765625e-2, 3.8631982e+1, -0.000022715185, -8462.373, -4.8011, 0.0, 0.0013678406, 0.0027011721, 0.0027011721, 0.0, 0.1953125, 0.19368036 
9.765625e-2, 3.8825688e+1, -0.0000005313174, -8115.971, -0.6115205, 0.0, 0.0015832046, 0.0000455454, 0.0000455454, 0.0, 0.1953125, 0.19374637 
9.765625e-2, 3.901944e+1, -0.000000048770925, -8143.521, -0.09895629, 0.0, 0.0014563067, 0.0000011537004, 0.0000011537004, 0.0, 0.1953125, 0.19374113 
9.765625e-2, 3.9213207e+1, -0.00000016259996, -7802.8433, -0.34109572, 0.0, 0.001537217, 0.000014748154, 0.000014748154, 0.0, 0.1953125, 0.1938061 
9.765625e-2, 3.9407018e+1, -0.000000014764262, -7829.9717, 0.026456574, 0.0, 0.0014454948, 0.00000007463041, 0.00000007463041, 0.0, 0.1953125, 0.19380093 
9.765625e-2, 3.9600846e+1, -0.00000011403728, -7491.7227, 0.286117, 0.0, 0.0016218334, 0.00001081308, 0.00001081308, 0.0, 0.1953125, 0.1938655 
9.765625e-2, 3.9794716e+1, -0.000000024056018, -7515.2363, 0.014927054, 0.0, 0.001427268, 0.000000005592483, 0.000000005592483, 0.0, 0.1953125, 0.19386101 
9.765625e-2, 3.99886e+1, -0.00000007389249, -7181.665, -0.23855112, 0.0, 0.0016111035, 0.000007849985, 0.000007849985, 0.0, 0.1953125, 0.19392475 
9.765625e-2, 4.0182534e+1, -0.00000007743063, -7198.9746, -0.23890556, 0.0, 0.001436828, 0.000007850903, 0.000007850903, 0.0, 0.1953125, 0.19392145 
9.765625e-2, 4.0376475e+1, -0.000000104655285, -6872.786, 0.2521868, 0.0, 0.0016022717, 0.000009148969, 0.000009148969, 0.0, 0.1953125, 0.19398384 
9.765625e-2, 4.0570468e+1, -0.00000003495857, -6882.434, 0.06081147, 0.0, 0.0013976182, 0.00000050235667, 0.00000050235667, 0.0, 0.1953125, 0.19398199 
9.765625e-2, 4.076447e+1, -0.000000027250778, -6562.634, -0.08263326, 0.0, 0.0016420125, 0.0000010132235, 0.0000010132235, 0.0, 0.1953125, 0.1940432 
9.765625e-2, 4.0958524e+1, -0.00000004904261, -6568.328, 0.12127611, 0.0, 0.0013742482, 0.0000021901715, 0.0000021901715, 0.0, 0.1953125, 0.19404212 
9.765625e-2, 4.1152585e+1, -0.0000128351385, -6250.6543, -3.599608, 0.0, 0.0016394356, 0.0020600953, 0.0020600953, 0.0, 0.1953125, 0.19410299 
9.765625e-2, 4.13467e+1, -0.0000007017925, -6253.645, 0.66880393, 0.0, 0.001382944, 0.00007082427, 0.00007082427, 0.0, 0.1953125, 0.19410242 
9.765625e-2, 4.1540822e+1, -0.000000023183434, -5941.115, 0.076826125, 0.0, 0.0016458642, 0.0000009702753, 0.0000009702753, 0.0, 0.1953125, 0.19416235 
9.765625e-2, 4.1734996e+1, -0.000000035620076, -5939.402, 0.12026138, 0.0, 0.001325596, 0.000002399439, 0.000002399439, 0.0, 0.1953125, 0.19416268 
9.765625e-2, 4.1929176e+1, -0.0000024064848, -5635.4653, -1.5955273, 0.0, 0.0017202252, 0.0004493232, 0.0004493232, 0.0, 0.1953125, 0.19422103 
9.765625e-2, 4.212341e+1, -0.000000067666576, -5617.8438, 0.16558604, 0.0, 0.0013605701, 0.000004812984, 0.000004812984, 0.0, 0.1953125, 0.19422442 
9.765625e-2, 4.2317653e+1, -0.000000117670176, -5336.929, 0.26251373, 0.0, 0.0016409196, 0.000012794896, 0.000012794896, 0.0, 0.1953125, 0.1942784 
9.765625e-2, 4.251195e+1, -0.00000007960638, -5291.155, 0.18327859, 0.0, 0.0014463385, 0.0000062689214, 0.0000062689214, 0.0, 0.1953125, 0.1942872 
9.765625e-2, 4.2706248e+1, -0.0000002416138, -5037.917, -0.36931664, 0.0, 0.0016399892, 0.000026832033, 0.000026832033, 0.0, 0.1953125, 0.19433591 
9.765625e-2, 4.29006e+1, -0.0000001380777, -4964.9478, -0.25334287, 0.0, 0.0013052251, 0.000012789071, 0.000012789071, 0.0, 0.1953125, 0.19434994 
9.765625e-2, 4.3094963e+1, -0.00000022696376, -4739.6475, 0.34559315, 0.0, 0.0017518771, 0.000024972087, 0.000024972087, 0.0, 0.1953125, 0.1943933 
9.765625e-2, 4.3289375e+1, -0.000000041968228, -4637.3584, 0.10119695, 0.0, 0.0015569057, 0.0000021663627, 0.0000021663627, 0.0, 0.1953125, 0.19441302 
9.765625e-2, 4.34838e+1, -0.00000014921078, -4442.6167, -0.27736112, 0.0, 0.0014334052, 0.000017166978, 0.000017166978, 0.0, 0.1953125, 0.19445054 
9.765625e-2, 4.3678272e+1, -0.000000076563495, -4309.465, -0.18781537, 0.0, 0.0013722054, 0.000008108818, 0.000008108818, 0.0, 0.1953125, 0.1944762 
9.765625e-2, 4.3872756e+1, -0.00000034950043, -4142.2983, -0.39466488, 0.0, 0.0017447189, 0.000037252907, 0.000037252907, 0.0, 0.1953125, 0.19450845 
9.765625e-2, 4.4067287e+1, -0.00000020611195, -3985.1965, -0.29322046, 0.0, 0.0014869857, 0.000021368292, 0.000021368292, 0.0, 0.1953125, 0.19453876 
9.765625e-2, 4.4261837e+1, -0.000000028908708, -3840.1926, 0.07890778, 0.0, 0.0014428422, 0.0000015924779, 0.0000015924779, 0.0, 0.1953125, 0.19456676 
9.765625e-2, 4.4456425e+1, -0.00000026128475, -3661.6726, -0.5138847, 0.0, 0.0014906682, 0.00007185808, 0.00007185808, 0.0, 0.1953125, 0.19460124 
9.765625e-2, 4.4651034e+1, -0.0000005168664, -3535.3667, -0.73264253, 0.0, 0.001580416, 0.00015131039, 0.00015131039, 0.0, 0.1953125, 0.19462563 
9.765625e-2, 4.484568e+1, -0.00000004360556, -3343.0781, 0.08058763, 0.0, 0.0014077761, 0.0000018990249, 0.0000018990249, 0.0, 0.1953125, 0.19466281 
9.765625e-2, 4.5040357e+1, -0.00000003061222, -3228.015, 0.0023488184, 0.0, 0.0016034929, -0.000000028903287, -0.000000028903287, 0.0, 0.1953125, 0.19468506 
9.765625e-2, 4.523506e+1, -0.000000096919685, -3024.5637, -0.13529335, 0.0, 0.0014408525, 0.0000059549584, 0.0000059549584, 0.0, 0.1953125, 0.19472443 
9.765625e-2, 4.54298e+1, -0.00000026708088, -2921.4443, 0.5284326, 0.0, 0.0015271896, 0.000095316114, 0.000095316114, 0.0, 0.1953125, 0.1947444 
9.765625e-2, 4.5624557e+1, -0.000000044038366, -2706.8633, 0.04414304, 0.0, 0.0016082819, 0.0000006758387, 0.0000006758387, 0.0, 0.1953125, 0.19478595 
9.765625e-2, 4.581936e+1, -0.0000000814658, -2611.771, -0.075986676, 0.0, 0.0015273368, 0.0000021292853, 0.0000021292853, 0.0, 0.1953125, 0.19480437 
9.765625e-2, 4.6014175e+1, -0.000001704877, -2392.8508, 1.3082819, 0.0, 0.0011652414, 0.000713593, 0.000713593, 0.0, 0.1953125, 0.19484682 
9.765625e-2, 4.6209046e+1, -0.012953716, -2303.2507, -114.03248, 0.0, 0.0018629007, 5.6189823, 5.6189823, 0.0, 0.1953125, 0.1948642 
9.765625e-2, 4.6403915e+1, -0.00000081821264, -2072.7678, 0.90445745, 0.0, 0.0017957735, 0.00039384398, 0.00039384398, 0.0, 0.1953125, 0.19490892 
9.765625e-2, 4.6598846e+1, -0.000000041090782, -1990.3662, 0.0032559123, 0.0, 0.0013173983, -0.000000035764515, -0.000000035764515, 0.0, 0.1953125, 0.1949249 
9.765625e-2, 4.6793777e+1, -0.000003958285, -1758.2455, -1.9891108, 0.0, 0.00078229833, 0.0022463286, 0.0022463286, 0.0, 0.1953125, 0.19497 
9.765625e-2, 4.698877e+1, -0.0000052156097, -1686.4391, -2.2868884, 0.0, 0.0021295613, 0.0030959041, 0.0030959041, 0.0, 0.1953125, 0.19498394 
9.765625e-2, 4.718376e+1, -0.000033923596, -1442.446, -5.8331785, 0.0, 0.0025304202, 0.02355477, 0.02355477, 0.0, 0.1953125, 0.19503137 
9.765625e-2, 4.7378814e+1, -0.00000044242503, -1375.1029, 0.6712044, 0.0, 0.0007095608, 0.00032718052, 0.00032718052, 0.0, 0.1953125, 0.19504447 
9.765625e-2, 4.7573864e+1, -0.000000050220418, -1125.2406, -0.14897625, 0.0, -0.00038011608, 0.00001967349, 0.00001967349, 0.0, 0.1953125, 0.1950931 
9.765625e-2, 4.776899e+1, -0.000000043221615, -1058.3646, -0.12174744, 0.0, 0.0033792565, 0.000013961819, 0.000013961819, 0.0, 0.1953125, 0.19510612 
9.765625e-2, 4.7964096e+1, -0.00000008027496, -819.6394, 0.35355434, 0.0, 0.0033192646, 0.00015242663, 0.00015242663, 0.0, 0.1953125, 0.19515261 
9.765625e-2, 4.815927e+1, -0.000000018079085, -773.866, -0.118484095, 0.0, -0.0008190254, 0.000018122633, 0.000018122633, 0.0, 0.1953125, 0.19516154 
9.765625e-2, 4.8354438e+1, -0.00000032799696, -470.38992, -0.5678015, 0.0, 0.00015253533, 0.00068505673, 0.00068505673, 0.0, 0.1953125, 0.1952207 
9.765625e-2, 4.8549697e+1, -0.0000000035368946, -369.66705, 0.06904538, 0.0, 0.004093982, 0.000012892565, 0.000012892565, 0.0, 0.1953125, 0.19524033 
9.765625e-2, 4.8744923e+1, -0.000000111946584, -271.26245, 0.3280439, 0.0, 0.00078184303, 0.00039659848, 0.00039659848, 0.0, 0.1953125, 0.19525954 
9.765625e-2, 4.8940206e+1, -0.000000021890086, -54.56077, 0.0921839, 0.0, 0.0013830725, 0.00015572827, 0.00015572827, 0.0, 0.1953125, 0.19530185 
2.9296875e-1, 9.398186e-2, -0.000000007465279, -39858.523, 0.007940116, 0.0, 0.000005400821, -0.0000000058862497, -0.0000000058862497, 0.0, 0.1953125, 0.18796246 
2.9296875e-1, 2.819456e-1, -0.0000000073126247, -39862.11, 0.023820495, 0.0, 0.000016202384, 0.0000000069194357, 0.0000000069194357, 0.0, 0.1953125, 0.18796183 
2.9296875e-1, 4.6993685e-1, -0.000000015112066, -39547.01, 0.0337697, 0.0, 0.00006581822, 0.000000013722456, 0.000000013722456, 0.0, 0.1953125, 0.18801676 
2.9296875e-1, 6.5795535e-1, -0.000000012279162, -39547.42, 0.0342684, 0.0, 0.000053909156, 0.000000017411367, 0.000000017411367, 0.0, 0.1953125, 0.18801668 
2.9296875e-1, 8.460014e-1, -0.0000000133784726, -39233.637, 0.028057976, 0.0, 0.000092945425, 0.000000006686605, 0.000000006686605, 0.0, 0.1953125, 0.18807141 
2.9296875e-1, 1.0340746e+0, 0.0000000045139688, -39234.46, 0.015607464, 0.0, 0.00008374835, 0.000000010717486, 0.000000010717486, 0.0, 0.1953125, 0.18807127 
2.9296875e-1, 1.2221751e+0, -0.0000000056095644, -38920.566, 0.0031181825, 0.0, 0.00012361664, -0.0000000053623808, -0.0000000053623808, 0.0, 0.1953125, 0.18812607 
2.9296875e-1, 1.4103028e+0, 0.000000008514952, -38921.21, -0.013248678, 0.0, 0.00010109315, 0.000000013016688, 0.000000013016688, 0.0, 0.1953125, 0.18812595 
2.9296875e-1, 1.5984581e+0, -0.000000006756796, -38607.82, -0.029801719, 0.0, 0.0001430553, 0.000000016247213, 0.000000016247213, 0.0, 0.1953125, 0.18818071 
2.9296875e-1, 1.7866406e+0, -0.0000000010870008, -38607.84, -0.044365384, 0.0, 0.000118132746, 0.00000004989124, 0.00000004989124, 0.0, 0.1953125, 0.18818071 
2.9296875e-1, 1.9748504e+0, -0.0000000104409335, -38295.363, -0.05845766, 0.0, 0.00015400682, 0.000000078791345, 0.000000078791345, 0.0, 0.1953125, 0.18823536 
2.9296875e-1, 2.1630876e+0, -0.000000009729718, -38294.43, -0.07021074, 0.0, 0.00013186374, 0.00000011899829, 0.00000011899829, 0.0, 0.1953125, 0.18823552 
2.9296875e-1, 2.3513523e+0, -0.0000000140628, -37983.21, -0.07989078, 0.0, 0.00016795692, 0.00000015396654, 0.00000015396654, 0.0, 0.1953125, 0.18829 
2.9296875e-1, 2.5396442e+0, -0.000000010501151, -37980.88, -0.08289956, 0.0, 0.00015039985, 0.00000017044658, 0.00000017044658, 0.0, 0.1953125, 0.1882904 
2.9296875e-1, 2.7279633e+0, -0.000000013493097, -37671.285, -0.08488082, 0.0, 0.00018268853, 0.0000001777662, 0.0000001777662, 0.0, 0.1953125, 0.18834464 
2.9296875e-1, 2.9163104e+0, -0.000000007309143, -37667.434, -0.078541614, 0.0, 0.00018220926, 0.00000015645492, 0.00000015645492, 0.0, 0.1953125, 0.18834531 
2.9296875e-1, 3.1046844e+0, -0.000000008752384, -37358.844, -0.0692736, 0.0, 0.00020923412, 0.00000011970405, 0.00000011970405, 0.0, 0.1953125, 0.18839942 
2.9296875e-1, 3.293086e+0, 0.0000000111697975, -37353.88, -0.063671045, 0.0, 0.0002062809, 0.00000011970405, 0.00000011970405, 0.0, 0.1953125, 0.1884003 
2.9296875e-1, 3.481515e+0, -0.000000007778071, -37046.652, -0.05896305, 0.0, 0.00023428703, 0.0000000860673, 0.0000000860673, 0.0, 0.1953125, 0.18845421 
2.9296875e-1, 3.6699718e+0, -0.0000000036758123, -37040.313, -0.036926813, 0.0, 0.00024303429, 0.000000033141987, 0.000000033141987, 0.0, 0.1953125, 0.18845533 
2.9296875e-1, 3.858455e+0, -0.0000000069793455, -36733.94, -0.017763318, 0.0, 0.0002713134, 0.0000000016152626, 0.0000000016152626, 0.0, 0.1953125, 0.18850914 
2.9296875e-1, 4.046967e+0, -0.000000005182791, -36726.77, -0.065806344, 0.0, 0.00024763768, 0.00000011272641, 0.00000011272641, 0.0, 0.1953125, 0.18851039 
2.9296875e-1, 4.2355055e+0, -0.0000000046181303, -36421.254, -0.10053356, 0.0, 0.0002737509, 0.0000002728848, 0.0000002728848, 0.0, 0.1953125, 0.1885641 
2.9296875e-1, 4.4240728e+0, 0.0000000096328865, -36413.11, 0.08116415, 0.0, 0.00027568758, 0.00000019054278, 0.00000019054278, 0.0, 0.1953125, 0.18856554 
2.9296875e-1, 4.612666e+0, -0.00000006605269, -36108.52, 0.22152336, 0.0, 0.00032000028, 0.0000012929813, 0.0000012929813, 0.0, 0.1953125, 0.18861912 
2.9296875e-1, 4.8012882e+0, -0.00000007174955, -36100.77, -0.25521278, 0.0, 0.0002426675, 0.000001732471, 0.000001732471, 0.0, 0.1953125, 0.1886205 
2.9296875e-1, 4.9899364e+0, -0.0000003399735, -35795.277, -0.5907229, 0.0, 0.0002791996, 0.000009408614, 0.000009408614, 0.0, 0.1953125, 0.18867429 
2.9296875e-1, 5.178614e+0, -0.0000004948578, -35785.574, 0.7080788, 0.0, 0.0002889985, 0.000013515688, 0.000013515688, 0.0, 0.1953125, 0.188676 
2.9296875e-1, 5.367317e+0, -0.0000024505553, -35484.25, 1.6034205, 0.0, 0.00036578454, 0.00007000292, 0.00007000292, 0.0, 0.1953125, 0.1887291 
2.9296875e-1, 5.5560493e+0, -0.0000007718918, -35478.0, -0.89357954, 0.0, 0.00023467962, 0.000021734573, 0.000021734573, 0.0, 0.1953125, 0.1887302 
2.9296875e-1, 5.744808e+0, -0.000001186279, -35166.586, -1.1201202, 0.0, 0.00031627103, 0.000034491604, 0.000034491604, 0.0, 0.1953125, 0.18878514 
2.9296875e-1, 5.9335965e+0, -0.000024277662, -35153.96, 5.0919046, 0.0, 0.00030801375, 0.00071326346, 0.00071326346, 0.0, 0.1953125, 0.18878737 
2.9296875e-1, 6.12241e+0, -0.000065766675, -34860.375, 8.336851, 0.0, 0.00040878725, 0.0019279891, 0.0019279891, 0.0, 0.1953125, 0.1888392 
2.9296875e-1, 6.3112533e+0, -0.000021422456, -34852.74, 4.804458, 0.0, 0.0002735654, 0.0006408732, 0.0006408732, 0.0, 0.1953125, 0.18884055 
2.9296875e-1, 6.500121e+0, -0.0000019415631, -34548.375, 1.4227127, 0.0, 0.00040607163, 0.00005664619, 0.00005664619, 0.0, 0.1953125, 0.18889433 
2.9296875e-1, 6.68902e+0, -0.00000011473899, -34535.176, 0.3332044, 0.0, 0.0003296974, 0.0000031001036, 0.0000031001036, 0.0, 0.1953125, 0.18889667 
2.9296875e-1, 6.8779427e+0, -0.000000021839735, -34234.844, 0.091528416, 0.0, 0.00045451542, 0.00000022286258, 0.00000022286258, 0.0, 0.1953125, 0.18894978 
2.9296875e-1, 7.066897e+0, -0.000000005154056, -34219.965, 0.059645362, 0.0, 0.000334617, 0.00000009881478, 0.00000009881478, 0.0, 0.1953125, 0.18895242 
2.9296875e-1, 7.255875e+0, -0.0000000014570037, -33923.992, 0.022030273, 0.0, 0.0004674049, 0.000000012849341, 0.000000012849341, 0.0, 0.1953125, 0.18900481 
2.9296875e-1, 7.444886e+0, -0.000000005501818, -33904.6, 0.02540716, 0.0, 0.0003563471, 0.000000013540557, 0.000000013540557, 0.0, 0.1953125, 0.18900824 
2.9296875e-1, 7.6339185e+0, -0.00000000091751434, -33613.418, 0.013603353, 0.0, 0.00047392506, 0.0000000045838533, 0.0000000045838533, 0.0, 0.1953125, 0.18905982 
2.9296875e-1, 7.8229845e+0, 0.000000012978945, -33589.56, 0.00805356, 0.0, 0.00037423323, 0.000000014915713, 0.000000014915713, 0.0, 0.1953125, 0.18906406 
2.9296875e-1, 8.0120724e+0, 0.0000000056115432, -33303.23, -0.018850857, 0.0, 0.00045406897, 0.000000016276317, 0.000000016276317, 0.0, 0.1953125, 0.18911482 
2.9296875e-1, 8.201195e+0, 0.000000015305435, -33273.906, -0.03306165, 0.0, 0.00036997645, 0.000000048159563, 0.000000048159563, 0.0, 0.1953125, 0.18912002 
2.9296875e-1, 8.390338e+0, -0.000000006093767, -32992.668, 0.041077014, 0.0, 0.00047710785, 0.000000045045454, 0.000000045045454, 0.0, 0.1953125, 0.18916994 
2.9296875e-1, 8.5795164e+0, 0.000000017977428, -32959.953, 0.038930528, 0.0, 0.0004023954, 0.00000006395567, 0.00000006395567, 0.0, 0.1953125, 0.18917575 
2.9296875e-1, 8.768714e+0, -0.00000004957914, -32682.418, -0.19488159, 0.0, 0.0004128719, 0.0000011124794, 0.0000011124794, 0.0, 0.1953125, 0.18922505 
2.9296875e-1, 8.9579475e+0, -0.000000056875418, -32644.592, -0.21781029, 0.0, 0.00038406663, 0.0000013963909, 0.0000013963909, 0.0, 0.1953125, 0.18923177 
2.9296875e-1, 9.147202e+0, -0.00000007193375, -32372.55, 0.29417098, 0.0, 0.0005023695, 0.000002601213, 0.000002601213, 0.0, 0.1953125, 0.18928014 
2.9296875e-1, 9.336492e+0, -0.000000080694804, -32329.738, 0.28776002, 0.0, 0.00045014886, 0.0000024805995, 0.0000024805995, 0.0, 0.1953125, 0.18928775 
2.9296875e-1, 9.5257986e+0, -0.0000005235928, -32065.273, -0.739309, 0.0, 0.00040061702, 0.000016522194, 0.000016522194, 0.0, 0.1953125, 0.18933481 
2.9296875e-1, 9.715145e+0, -0.0000003864743, -32011.406, -0.63481885, 0.0, 0.00044877967, 0.000012202632, 0.000012202632, 0.0, 0.1953125, 0.1893444 
2.9296875e-1, 9.9045086e+0, -0.0000007131283, -31755.207, 0.8670799, 0.0, 0.00053640077, 0.000022962598, 0.000022962598, 0.0, 0.1953125, 0.18939003 
2.9296875e-1, 1.0093911e+1, -0.00000019101876, -31697.672, 0.44362003, 0.0, 0.0005172028, 0.000006017599, 0.000006017599, 0.0, 0.1953125, 0.18940029 
2.9296875e-1, 1.0283329e+1, -0.000000028003816, -31446.365, -0.14267744, 0.0, 0.0004659954, 0.00000061934406, 0.00000061934406, 0.0, 0.1953125, 0.18944508 
2.9296875e-1, 1.0472788e+1, -0.0000063520974, -31375.094, 2.54114, 0.0, 0.00055476837, 0.00019946063, 0.00019946063, 0.0, 0.1953125, 0.18945779 
2.9296875e-1, 1.0662263e+1, -0.000012770397, -31141.36, 3.606529, 0.0, 0.0005375458, 0.0004049073, 0.0004049073, 0.0, 0.1953125, 0.18949948 
2.9296875e-1, 1.0851776e+1, -0.00005918743, -31064.76, 7.89278, 0.0, 0.0005903504, 0.0019461708, 0.0019461708, 0.0, 0.1953125, 0.18951316 
2.9296875e-1, 1.1041305e+1, -0.000000100553216, -30829.549, -0.32081774, 0.0, 0.00052584393, 0.000003237932, 0.000003237932, 0.0, 0.1953125, 0.18955517 
2.9296875e-1, 1.1230875e+1, -0.000000006201794, -30747.957, -0.04023238, 0.0, 0.0005929217, 0.0000000464388, 0.0000000464388, 0.0, 0.1953125, 0.18956974 
2.9296875e-1, 1.1420461e+1, -0.000000008563866, -30526.166, -0.047374286, 0.0, 0.00055486086, 0.00000006495975, 0.00000006495975, 0.0, 0.1953125, 0.18960938 
2.9296875e-1, 1.16100855e+1, 0.0000000031982874, -30436.926, -0.07232798, 0.0, 0.0006022914, 0.00000017507045, 0.00000017507045, 0.0, 0.1953125, 0.18962534 
2.9296875e-1, 1.1799726e+1, 0.0000000011419686, -30217.85, -0.032247823, 0.0, 0.00056025345, 0.000000035557605, 0.000000035557605, 0.0, 0.1953125, 0.18966451 
2.9296875e-1, 1.19894065e+1, -0.0000000033173362, -30119.324, -0.059581682, 0.0, 0.0005782042, 0.00000011454904, 0.00000011454904, 0.0, 0.1953125, 0.18968216 
2.9296875e-1, 1.2179102e+1, -0.000000010614047, -29908.078, -0.05005183, 0.0, 0.0005844927, 0.00000007314884, 0.00000007314884, 0.0, 0.1953125, 0.18971997 
2.9296875e-1, 1.2368839e+1, -0.000000009824492, -29803.523, -0.09714972, 0.0, 0.00061641174, 0.00000030684896, 0.00000030684896, 0.0, 0.1953125, 0.18973869 
2.9296875e-1, 1.2558591e+1, -0.000000004390869, -29598.74, -0.05219155, 0.0, 0.00061054906, 0.00000008763891, 0.00000008763891, 0.0, 0.1953125, 0.18977539 
2.9296875e-1, 1.2748384e+1, -0.0000000080553235, -29487.264, -0.012036797, 0.0, 0.00057137484, -0.0000000031432137, -0.0000000031432137, 0.0, 0.1953125, 0.18979537 
2.9296875e-1, 1.2938192e+1, 0.000000006281909, -29289.295, -0.06834154, 0.0, 0.00064815016, 0.00000016574631, 0.00000016574631, 0.0, 0.1953125, 0.18983088 
2.9296875e-1, 1.3128042e+1, -0.000000019996017, -29171.172, -0.097189985, 0.0, 0.0007099074, 0.00000030381125, 0.00000030381125, 0.0, 0.1953125, 0.18985207 
2.9296875e-1, 1.3317907e+1, 0.0000000056727316, -28979.47, -0.050358705, 0.0, 0.0007111363, 0.00000009317955, 0.00000009317955, 0.0, 0.1953125, 0.18988648 
2.9296875e-1, 1.3507812e+1, -0.000000004424064, -28855.041, -0.1143353, 0.0, 0.0005466262, 0.00000044861736, 0.00000044861736, 0.0, 0.1953125, 0.18990883 
2.9296875e-1, 1.3697731e+1, -0.00000000546746, -28670.309, -0.0789607, 0.0, 0.0007388403, 0.00000021199594, 0.00000021199594, 0.0, 0.1953125, 0.18994202 
2.9296875e-1, 1.3887694e+1, -0.00000009247065, -28537.613, 0.31155553, 0.0, 0.0008720262, 0.0000033088945, 0.0000033088945, 0.0, 0.1953125, 0.18996587 
2.9296875e-1, 1.4077671e+1, -0.00000003451618, -28361.22, 0.1619845, 0.0, 0.0008116535, 0.0000008906536, 0.0000008906536, 0.0, 0.1953125, 0.1899976 
2.9296875e-1, 1.4267689e+1, -0.00000073442567, -28222.926, -0.87364775, 0.0, 0.00047838796, 0.000026309564, 0.000026309564, 0.0, 0.1953125, 0.19002247 
2.9296875e-1, 1.4457722e+1, -0.00000007523538, -28048.088, -0.2810857, 0.0, 0.00082443666, 0.0000027416827, 0.0000027416827, 0.0, 0.1953125, 0.19005394 
2.9296875e-1, 1.4647797e+1, -0.000002165672, -27906.176, 1.4910334, 0.0, 0.0009790179, 0.00007750059, 0.00007750059, 0.0, 0.1953125, 0.1900795 
2.9296875e-1, 1.4837885e+1, -0.000000050500258, -27742.533, 0.20992625, 0.0, 0.00084466685, 0.0000015379992, 0.0000015379992, 0.0, 0.1953125, 0.19010897 
2.9296875e-1, 1.5028016e+1, -0.000002766178, -27591.861, -1.6779264, 0.0, 0.0005090101, 0.000099272496, 0.000099272496, 0.0, 0.1953125, 0.19013612 
2.9296875e-1, 1.5218163e+1, 0.0000000037565697, -27426.547, 0.035149436, 0.0, 0.0009386423, 0.000000048803486, 0.000000048803486, 0.0, 0.1953125, 0.19016592 
2.9296875e-1, 1.5408349e+1, 0.00000000537176, -27279.234, -0.06895675, 0.0, 0.0008610817, 0.00000017968341, 0.00000017968341, 0.0, 0.1953125, 0.1901925 
2.9296875e-1, 1.559855e+1, -0.000022657603, -27124.969, -4.870802, 0.0, 0.00086197746, 0.00085198716, 0.00085198716, 0.0, 0.1953125, 0.19022034 
2.9296875e-1, 1.5788795e+1, -0.0029126292, -26958.182, 55.160843, 0.0, 0.0007429962, 0.109955005, 0.109955005, 0.0, 0.1953125, 0.19025044 
2.9296875e-1, 1.5979052e+1, -0.000016609796, -26808.07, -4.1433344, 0.0, 0.0009581164, 0.00062376534, 0.00062376534, 0.0, 0.1953125, 0.19027756 
2.9296875e-1, 1.6169351e+1, -0.0000007439225, -26637.742, -0.86921763, 0.0, 0.0007875923, 0.000027619568, 0.000027619568, 0.0, 0.1953125, 0.19030833 
2.9296875e-1, 1.6359667e+1, -0.00000008088823, -26506.08, -0.26388034, 0.0, 0.0009794005, 0.0000025461632, 0.0000025461632, 0.0, 0.1953125, 0.19033214 
2.9296875e-1, 1.6550024e+1, -0.00000003280434, -26323.443, -0.17907622, 0.0, 0.00082948076, 0.000001185439, 0.000001185439, 0.0, 0.1953125, 0.19036517 
2.9296875e-1, 1.6740397e+1, 0.0000000025825169, -26195.62, 0.015286749, 0.0, 0.0009964412, 0.000000011503289, 0.000000011503289, 0.0, 0.1953125, 0.19038829 
2.9296875e-1, 1.693081e+1, 0.0000000005682385, -26008.932, 0.011416895, 0.0, 0.00089025847, 0.0000000055770215, 0.0000000055770215, 0.0, 0.1953125, 0.19042209 
2.9296875e-1, 1.7121238e+1, 0.000000021358506, -25884.43, 0.0026675693, 0.0, 0.001024707, 0.00000002163506, 0.00000002163506, 0.0, 0.1953125, 0.19044463 
2.9296875e-1, 1.7311707e+1, -0.000000012953369, -25692.934, -0.0850961, 0.0, 0.00092191657, 0.00000026888665, 0.00000026888665, 0.0, 0.1953125, 0.19047934 
2.9296875e-1, 1.7502192e+1, 0.000000006929605, -25574.729, -0.09260888, 0.0, 0.0010364233, 0.00000034227924, 0.00000034227924, 0.0, 0.1953125, 0.19050075 
2.9296875e-1, 1.7692718e+1, -0.000000005945873, -25375.02, -0.044807736, 0.0, 0.0009601157, 0.000000073177944, 0.000000073177944, 0.0, 0.1953125, 0.19053698 
2.9296875e-1, 1.788326e+1, -0.000000022961794, -25266.854, -0.095541246, 0.0, 0.0010261289, 0.00000033830656, 0.00000033830656, 0.0, 0.1953125, 0.1905566 
2.9296875e-1, 1.8073843e+1, -0.0000000073030666, -25056.113, 0.05371588, 0.0, 0.0009906581, 0.000000107858796, 0.000000107858796, 0.0, 0.1953125, 0.19059485 
2.9296875e-1, 1.8264443e+1, -0.0000000021552768, -24959.914, -0.05436636, 0.0, 0.0010436185, 0.00000011626253, 0.00000011626253, 0.0, 0.1953125, 0.19061232 
2.9296875e-1, 1.845508e+1, -0.0000000061703838, -24745.285, -0.1065428, 0.0, 0.0010114801, 0.00000045256093, 0.00000045256093, 0.0, 0.1953125, 0.1906513 
2.9296875e-1, 1.8645735e+1, -0.000000025690381, -24656.525, -0.18468608, 0.0, 0.0010291976, 0.0000013576719, 0.0000013576719, 0.0, 0.1953125, 0.19066744 
2.9296875e-1, 1.883643e+1, -0.0000000072202098, -24429.895, -0.08669012, 0.0, 0.0010583126, 0.00000030040246, 0.00000030040246, 0.0, 0.1953125, 0.19070864 
2.9296875e-1, 1.9027144e+1, -0.000000012910226, -24346.979, 0.041479103, 0.0, 0.0010324344, 0.00000005775655, 0.00000005775655, 0.0, 0.1953125, 0.19072372 
2.9296875e-1, 1.9217893e+1, 0.0000000029116387, -24112.66, -0.023898724, 0.0, 0.0011061839, 0.000000026597263, 0.000000026597263, 0.0, 0.1953125, 0.19076636 
2.9296875e-1, 1.9408664e+1, -0.0000000061365717, -24039.504, -0.068752535, 0.0, 0.0010398492, 0.00000019049185, 0.00000019049185, 0.0, 0.1953125, 0.19077967 
2.9296875e-1, 1.9599472e+1, -0.000000003877155, -23794.838, -0.017333668, 0.0, 0.0011703366, 0.000000008745701, 0.000000008745701, 0.0, 0.1953125, 0.19082424 
2.9296875e-1, 1.9790298e+1, -0.000000012211597, -23732.684, -0.02879493, 0.0, 0.0010352931, 0.000000022726454, 0.000000022726454, 0.0, 0.1953125, 0.19083557 
2.9296875e-1, 1.9981164e+1, -0.0000000056650777, -23477.326, -0.051587988, 0.0, 0.0012280911, 0.00000010769145, 0.00000010769145, 0.0, 0.1953125, 0.19088212 
2.9296875e-1, 2.0172049e+1, 0.000000006652379, -23425.72, 0.0047382405, 0.0, 0.0010498222, 0.00000000761429, 0.00000000761429, 0.0, 0.1953125, 0.19089153 
2.9296875e-1, 2.0362969e+1, 0.00000000032195382, -23158.658, 0.001750426, 0.0, 0.0012789213, 0.00000000045110937, 0.00000000045110937, 0.0, 0.1953125, 0.19094026 
2.9296875e-1, 2.055391e+1, -0.000000024336378, -23119.598, 0.09831148, 0.0, 0.0010260164, 0.00000039371298, 0.00000039371298, 0.0, 0.1953125, 0.1909474 
2.9296875e-1, 2.0744888e+1, 0.0000000036380712, -22838.545, -0.034345772, 0.0, 0.0013345543, 0.000000055290002, 0.000000055290002, 0.0, 0.1953125, 0.19099872 
2.9296875e-1, 2.0935889e+1, -0.000000011917492, -22814.057, -0.031122342, 0.0, 0.0010194184, 0.000000030537194, 0.000000030537194, 0.0, 0.1953125, 0.19100319 
2.9296875e-1, 2.1126923e+1, -0.000000013833642, -22519.96, -0.06517384, 0.0, 0.0013628397, 0.00000017477942, 0.00000017477942, 0.0, 0.1953125, 0.19105695 
2.9296875e-1, 2.131798e+1, -0.000000010308993, -22506.316, -0.08719977, 0.0, 0.0010033334, 0.00000032754178, 0.00000032754178, 0.0, 0.1953125, 0.19105944 
2.9296875e-1, 2.1509069e+1, -0.000000009143501, -22205.035, -0.04965337, 0.0, 0.001392459, 0.00000010188887, 0.00000010188887, 0.0, 0.1953125, 0.19111456 
2.9296875e-1, 2.1700184e+1, -0.0000000035003367, -22194.309, -0.035049785, 0.0, 0.0009879306, 0.000000051852112, 0.000000051852112, 0.0, 0.1953125, 0.19111653 
2.9296875e-1, 2.189133e+1, -0.0000000126987185, -21894.336, -0.026130946, 0.0, 0.0014177648, 0.000000018488208, 0.000000018488208, 0.0, 0.1953125, 0.19117145 
2.9296875e-1, 2.2082502e+1, -0.000000009809964, -21879.238, 0.10568209, 0.0, 0.0009823723, 0.00000050065864, 0.00000050065864, 0.0, 0.1953125, 0.19117422 
2.9296875e-1, 2.2273704e+1, 0.0000000038359818, -21584.633, -0.00064707827, 0.0, 0.0014429938, 0.0000000038562575, 0.0000000038562575, 0.0, 0.1953125, 0.19122821 
2.9296875e-1, 2.2464937e+1, -0.0000000021642497, -21563.586, -0.03339442, 0.0, 0.0009957239, 0.00000004955291, 0.00000004955291, 0.0, 0.1953125, 0.19123207 
2.9296875e-1, 2.2656195e+1, -0.000000011917777, -21275.266, -0.042020574, 0.0, 0.001470927, 0.00000007107519, 0.00000007107519, 0.0, 0.1953125, 0.19128497 
2.9296875e-1, 2.2847484e+1, -0.000000008261599, -21246.756, 0.016044313, 0.0, 0.0010213604, 0.0000000038526196, 0.0000000038526196, 0.0, 0.1953125, 0.1912902 
2.9296875e-1, 2.3038802e+1, -0.0000000009901312, -20967.463, 0.02426241, 0.0, 0.0014941136, 0.00000002708839, 0.00000002708839, 0.0, 0.1953125, 0.19134147 
2.9296875e-1, 2.3230149e+1, -0.0000000062305916, -20928.668, -0.040773828, 0.0, 0.0010636454, 0.00000007320705, 0.00000007320705, 0.0, 0.1953125, 0.19134861 
2.9296875e-1, 2.342152e+1, -0.000000011019513, -20659.383, -0.05862223, 0.0, 0.0015136742, 0.0000001553235, 0.0000001553235, 0.0, 0.1953125, 0.19139808 
2.9296875e-1, 2.3612927e+1, -0.0000000358835, -20611.176, 0.12484181, 0.0, 0.001089777, 0.0000007202798, 0.0000007202798, 0.0, 0.1953125, 0.19140695 
2.9296875e-1, 2.3804356e+1, -0.000000012848122, -20350.459, -0.06265957, 0.0, 0.0015224346, 0.00000018007995, 0.00000018007995, 0.0, 0.1953125, 0.1914549 
2.9296875e-1, 2.399582e+1, -0.000000019618204, -20294.146, -0.06300643, 0.0, 0.0011210656, 0.0000001759945, 0.0000001759945, 0.0, 0.1953125, 0.19146527 
2.9296875e-1, 2.4187306e+1, 0.0000000019234685, -20041.26, -0.051128536, 0.0, 0.0015122388, 0.00000013236422, 0.00000013236422, 0.0, 0.1953125, 0.19151182 
2.9296875e-1, 2.4378829e+1, -0.0000000036814, -19977.28, 0.060765326, 0.0, 0.001150449, 0.00000018114952, 0.00000018114952, 0.0, 0.1953125, 0.19152361 
2.9296875e-1, 2.457037e+1, -0.000000013555903, -19732.088, -0.06425909, 0.0, 0.0015152661, 0.00000019570871, 0.00000019570871, 0.0, 0.1953125, 0.19156879 
2.9296875e-1, 2.4761951e+1, -0.000000013632976, -19661.38, -0.0029646023, 0.0, 0.001152657, -0.000000013187673, -0.000000013187673, 0.0, 0.1953125, 0.19158183 
2.9296875e-1, 2.4953552e+1, -0.0000000042385486, -19422.06, -0.0029489368, 0.0, 0.0015064544, -0.000000003790774, -0.000000003790774, 0.0, 0.1953125, 0.19162597 
2.9296875e-1, 2.5145188e+1, 0.0000000052765077, -19343.732, -0.037989214, 0.0, 0.0011890727, 0.00000007988274, 0.00000007988274, 0.0, 0.1953125, 0.19164042 
2.9296875e-1, 2.5336847e+1, -0.000000003929333, -19114.932, -0.08756252, 0.0, 0.0014957108, 0.00000039717997, 0.00000039717997, 0.0, 0.1953125, 0.19168265 
2.9296875e-1, 2.5528544e+1, -0.0000000059475855, -19024.762, -0.03144851, 0.0, 0.001211885, 0.000000046034984, 0.000000046034984, 0.0, 0.1953125, 0.19169931 
2.9296875e-1, 2.572026e+1, -0.0000000124626744, -18808.67, -0.058469404, 0.0, 0.0014897017, 0.00000016929698, 0.00000016929698, 0.0, 0.1953125, 0.19173923 
2.9296875e-1, 2.5912014e+1, -0.00000005104652, -18706.54, 0.1884663, 0.0, 0.0012522861, 0.0000018477294, 0.0000018477294, 0.0, 0.1953125, 0.19175811 
2.9296875e-1, 2.6103786e+1, -0.0000000010853064, -18501.053, -0.06452684, 0.0, 0.0015040644, 0.00000022396489, 0.00000022396489, 0.0, 0.1953125, 0.19179611 
2.9296875e-1, 2.6295602e+1, -0.000000019462115, -18389.445, -0.11699341, 0.0, 0.0012798413, 0.0000007248491, 0.0000007248491, 0.0, 0.1953125, 0.19181676 
2.9296875e-1, 2.648743e+1, -0.000000018456348, -18192.209, -0.13505085, 0.0, 0.0015080759, 0.0000009841024, 0.0000009841024, 0.0, 0.1953125, 0.19185327 
2.9296875e-1, 2.66793e+1, -0.00000010453317, -18071.29, 0.29841992, 0.0, 0.0013161849, 0.000004823418, 0.000004823418, 0.0, 0.1953125, 0.19187565 
2.9296875e-1, 2.687119e+1, 0.000000012047823, -17884.906, 0.0035887514, 0.0, 0.0015061633, 0.000000012769306, 0.000000012769306, 0.0, 0.1953125, 0.19191019 
2.9296875e-1, 2.706312e+1, -0.000000011959358, -17752.842, -0.05131403, 0.0, 0.0013325617, 0.00000013636236, 0.00000013636236, 0.0, 0.1953125, 0.19193466 
2.9296875e-1, 2.7255064e+1, -0.000000009639049, -17576.924, -0.0884942, 0.0, 0.0014833814, 0.00000043589898, 0.00000043589898, 0.0, 0.1953125, 0.19196728 
2.9296875e-1, 2.744705e+1, -0.00000004177025, -17435.072, 0.1916356, 0.0, 0.0013417506, 0.0000020645712, 0.0000020645712, 0.0, 0.1953125, 0.1919936 
2.9296875e-1, 2.7639052e+1, -0.000000009325387, -17268.578, 0.033209912, 0.0, 0.0014847291, 0.000000054544216, 0.000000054544216, 0.0, 0.1953125, 0.1920245 
2.9296875e-1, 2.7831098e+1, -0.000000015808109, -17120.89, -0.020052375, 0.0, 0.001337476, 0.000000007679773, 0.000000007679773, 0.0, 0.1953125, 0.19205192 
2.9296875e-1, 2.802316e+1, -0.000000012675375, -16962.643, -0.0716949, 0.0, 0.0014176806, 0.00000029035436, 0.00000029035436, 0.0, 0.1953125, 0.19208132 
2.9296875e-1, 2.8215262e+1, -0.00000023152512, -16803.914, 0.47591087, 0.0, 0.0013712551, 0.000013246954, 0.000013246954, 0.0, 0.1953125, 0.19211082 
2.9296875e-1, 2.8407383e+1, -0.00000013431169, -16654.754, 0.33915716, 0.0, 0.0014607861, 0.000006772283, 0.000006772283, 0.0, 0.1953125, 0.19213855 
2.9296875e-1, 2.8599545e+1, -0.000000018322943, -16483.588, 0.08967361, 0.0, 0.0013581833, 0.00000046951754, 0.00000046951754, 0.0, 0.1953125, 0.1921704 
2.9296875e-1, 2.8791723e+1, -0.00000008507133, -16350.535, -0.28383866, 0.0, 0.0013544557, 0.0000048422535, 0.0000048422535, 0.0, 0.1953125, 0.19219515 
2.9296875e-1, 2.8983942e+1, -0.000000085311825, -16160.256, 0.28313097, 0.0, 0.0014695744, 0.000004875199, 0.000004875199, 0.0, 0.1953125, 0.19223058 
2.9296875e-1, 2.917618e+1, -0.00000025254826, -16049.328, 0.5005758, 0.0, 0.0013868605, 0.000015360325, 0.000015360325, 0.0, 0.1953125, 0.19225124 
2.9296875e-1, 2.9368457e+1, -0.000000031375034, -15840.177, -0.14730857, 0.0, 0.0014599636, 0.000001338547, 0.000001338547, 0.0, 0.1953125, 0.19229022 
2.9296875e-1, 2.956075e+1, -0.00000003074337, -15744.024, -0.14988366, 0.0, 0.0013717136, 0.0000013961544, 0.0000013961544, 0.0, 0.1953125, 0.19230814 
2.9296875e-1, 2.9753086e+1, -0.0000005453337, -15522.167, 0.718707, 0.0, 0.00156322, 0.00003273222, 0.00003273222, 0.0, 0.1953125, 0.19234952 
2.9296875e-1, 2.994544e+1, -0.00000029189138, -15436.032, 0.5415524, 0.0, 0.0012903899, 0.00001870775, 0.00001870775, 0.0, 0.1953125, 0.1923656 
2.9296875e-1, 3.0137834e+1, -0.00000013258607, -15209.974, -0.3487121, 0.0, 0.0015969356, 0.000007862174, 0.000007862174, 0.0, 0.1953125, 0.1924078 
2.9296875e-1, 3.0330247e+1, -0.000000058419353, -15123.294, -0.17378034, 0.0, 0.0014216978, 0.0000019384734, 0.0000019384734, 0.0, 0.1953125, 0.19242398 
2.9296875e-1, 3.0522695e+1, -0.0000004407343, -14894.163, 0.64868087, 0.0, 0.0015904577, 0.000027811064, 0.000027811064, 0.0, 0.1953125, 0.1924668 
2.9296875e-1, 3.0715168e+1, -0.0000000014939308, -14812.792, 0.044735305, 0.0, 0.0012038946, 0.00000013360841, 0.00000013360841, 0.0, 0.1953125, 0.19248201 
2.9296875e-1, 3.0907676e+1, -0.000000015772224, -14580.193, 0.027664164, 0.0, 0.001697142, 0.0000000367163, 0.0000000367163, 0.0, 0.1953125, 0.19252552 
2.9296875e-1, 3.1100208e+1, -0.000000010344717, -14500.477, 0.08968029, 0.0, 0.0013229979, 0.0000005442962, 0.0000005442962, 0.0, 0.1953125, 0.19254044 
2.9296875e-1, 3.129277e+1, -0.00000002680572, -14267.204, -0.13827403, 0.0, 0.0015980806, 0.0000013133085, 0.0000013133085, 0.0, 0.1953125, 0.1925841 
2.9296875e-1, 3.148536e+1, -0.00000003375, -14188.848, 0.13194887, 0.0, 0.0012609464, 0.0000011933062, 0.0000011933062, 0.0, 0.1953125, 0.19259878 
2.9296875e-1, 3.1677985e+1, -0.0000000024477775, -13952.362, 0.11235993, 0.0, 0.0017054441, 0.0000009023988, 0.0000009023988, 0.0, 0.1953125, 0.19264309 
2.9296875e-1, 3.1870633e+1, -0.000000114507905, -13877.845, -0.31262454, 0.0, 0.0011483729, 0.0000069279486, 0.0000069279486, 0.0, 0.1953125, 0.19265705 
2.9296875e-1, 3.2063317e+1, -0.0000029095465, -13640.257, 1.6962925, 0.0, 0.0016797672, 0.00020804018, 0.00020804018, 0.0, 0.1953125, 0.19270161 
2.9296875e-1, 3.2256022e+1, -0.0000000034741472, -13563.393, 0.06801105, 0.0, 0.0013292414, 0.0000003375535, 0.0000003375535, 0.0, 0.1953125, 0.19271603 
2.9296875e-1, 3.244876e+1, -0.0000039003394, -13335.955, -1.9833561, 0.0, 0.0016838247, 0.00029106927, 0.00029106927, 0.0, 0.1953125, 0.19275872 
2.9296875e-1, 3.264153e+1, -0.0001441018, -13242.294, 12.1356945, 0.0, 0.0011172375, 0.010977457, 0.010977457, 0.0, 0.1953125, 0.19277631 
2.9296875e-1, 3.2834327e+1, -0.0000015712743, -13028.724, -1.1678913, 0.0, 0.0016957322, 0.00010311818, 0.00010311818, 0.0, 0.1953125, 0.19281644 
2.9296875e-1, 3.3027154e+1, -0.00000023131702, -12918.405, -0.46104005, 0.0, 0.0014225726, 0.000016222564, 0.000016222564, 0.0, 0.1953125, 0.19283716 
2.9296875e-1, 3.3220008e+1, -0.00000000957021, -12726.381, -0.032978345, 0.0, 0.0016945073, 0.00000007588824, 0.00000007588824, 0.0, 0.1953125, 0.19287328 
2.9296875e-1, 3.3412895e+1, -0.00000012664427, -12599.967, -0.31488067, 0.0, 0.0010976994, 0.000007742412, 0.000007742412, 0.0, 0.1953125, 0.19289707 
2.9296875e-1, 3.3605808e+1, -0.00000005354499, -12417.777, -0.11857701, 0.0, 0.001733176, 0.0000010787426, 0.0000010787426, 0.0, 0.1953125, 0.19293135 
2.9296875e-1, 3.3798754e+1, -0.0000008873772, -12280.027, 0.90818596, 0.0, 0.0014431778, 0.00006627874, 0.00006627874, 0.0, 0.1953125, 0.1929573 
2.9296875e-1, 3.3991727e+1, -0.00000020242517, -12114.248, 0.42618504, 0.0, 0.0016304279, 0.00001479097, 0.00001479097, 0.0, 0.1953125, 0.19298853 
2.9296875e-1, 3.418473e+1, -0.0000015766294, -11961.182, -1.1298001, 0.0, 0.0012244036, 0.00010513927, 0.00010513927, 0.0, 0.1953125, 0.19301738 
2.9296875e-1, 3.4377763e+1, -0.000000031145802, -11802.003, -0.087149754, 0.0, 0.0018185374, 0.0000006123955, 0.0000006123955, 0.0, 0.1953125, 0.19304739 
2.9296875e-1, 3.4570828e+1, -0.0000023291373, -11644.508, 1.4716673, 0.0, 0.0011669331, 0.00018366451, 0.00018366451, 0.0, 0.1953125, 0.1930771 
2.9296875e-1, 3.4763917e+1, -0.00000004522883, -11497.229, -0.14941353, 0.0, 0.0015764715, 0.0000018964911, 0.0000018964911, 0.0, 0.1953125, 0.1931049 
2.9296875e-1, 3.495704e+1, -0.000001733954, -11326.064, -1.321524, 0.0, 0.0015782798, 0.00015246132, 0.00015246132, 0.0, 0.1953125, 0.19313721 
2.9296875e-1, 3.5150188e+1, -0.000019863997, -11189.442, 4.500486, 0.0, 0.001750984, 0.0017902681, 0.0017902681, 0.0, 0.1953125, 0.19316302 
2.9296875e-1, 3.5343373e+1, -0.000000047278725, -11005.597, -0.11016035, 0.0, 0.00092718785, 0.0000010553686, 0.0000010553686, 0.0, 0.1953125, 0.19319777 
2.9296875e-1, 3.5536578e+1, -0.00000043388116, -10885.003, -0.58866113, 0.0, 0.0017160032, 0.000031400916, 0.000031400916, 0.0, 0.1953125, 0.19322057 
2.9296875e-1, 3.5729825e+1, -0.0000018172545, -10683.143, 1.3923928, 0.0, 0.0016292754, 0.00017966096, 0.00017966096, 0.0, 0.1953125, 0.19325876 
2.9296875e-1, 3.5923088e+1, -0.0000003606239, -10583.008, 0.53429395, 0.0, 0.0014818836, 0.000026613754, 0.000026613754, 0.0, 0.1953125, 0.19327772 
2.9296875e-1, 3.611639e+1, -0.0000016790729, -10364.051, -1.2616287, 0.0, 0.001378393, 0.00015190056, 0.00015190056, 0.0, 0.1953125, 0.19331917 
2.9296875e-1, 3.630972e+1, -0.00000044173848, -10274.212, 0.5955791, 0.0, 0.0018871328, 0.000034083, 0.000034083, 0.0, 0.1953125, 0.19333619 
2.9296875e-1, 3.650308e+1, -0.00000006514192, -10042.653, 0.18517777, 0.0, 0.001071477, 0.0000033493743, 0.0000033493743, 0.0, 0.1953125, 0.19338007 
2.9296875e-1, 3.6696464e+1, -0.0000016783442, -9972.614, -1.2423731, 0.0, 0.0015719672, 0.0001530946, 0.0001530946, 0.0, 0.1953125, 0.19339335 
2.9296875e-1, 3.6889884e+1, -0.0000020223663, -9714.401, 1.4213337, 0.0, 0.0018299314, 0.00020593584, 0.00020593584, 0.0, 0.1953125, 0.19344233 
2.9296875e-1, 3.7083328e+1, -0.00000046055175, -9676.921, 0.6062577, 0.0, 0.0014305259, 0.000037521404, 0.000037521404, 0.0, 0.1953125, 0.19344945 
2.9296875e-1, 3.7276804e+1, -0.000000093036135, -9382.523, 0.25313362, 0.0, 0.0014012009, 0.0000067363235, 0.0000067363235, 0.0, 0.1953125, 0.19350535 
2.9296875e-1, 3.7470314e+1, -0.00005031809, -9370.291, 7.1483455, 0.0, 0.0017796693, 0.005402961, 0.005402961, 0.0, 0.1953125, 0.19350767 
2.9296875e-1, 3.7663853e+1, -0.00009103931, -9064.141, 9.613988, 0.0, 0.0012432024, 0.010106139, 0.010106139, 0.0, 0.1953125, 0.19356585 
2.9296875e-1, 3.785742e+1, -0.00003079956, -9079.537, 5.5923643, 0.0, 0.0014338632, 0.003413707, 0.003413707, 0.0, 0.1953125, 0.19356292 
2.9296875e-1, 3.805101e+1, -0.000002592575, -8746.959, 1.6323586, 0.0, 0.0018281016, 0.0003020384, 0.0003020384, 0.0, 0.1953125, 0.19362618 
2.9296875e-1, 3.8244638e+1, -0.0000010217083, -8773.064, -0.87544394, 0.0, 0.0013945505, 0.000086336826, 0.000086336826, 0.0, 0.1953125, 0.19362122 
2.9296875e-1, 3.843829e+1, -0.0011039804, -8427.58, 33.458393, 0.0, 0.0014435601, 0.13172734, 0.13172734, 0.0, 0.1953125, 0.19368699 
2.9296875e-1, 3.8631976e+1, -0.000022727674, -8451.114, -4.8012357, 0.0, 0.0015359219, 0.0027049428, 0.0027049428, 0.0, 0.1953125, 0.1936825 
2.9296875e-1, 3.8825688e+1, -0.00000054667976, -8112.087, -0.6116813, 0.0, 0.001526469, 0.000045576344, 0.000045576344, 0.0, 0.1953125, 0.19374712 
2.9296875e-1, 3.901944e+1, -0.000000024642379, -8144.5107, -0.09905634, 0.0, 0.0014304183, 0.0000011801149, 0.0000011801149, 0.0, 0.1953125, 0.19374093 
2.9296875e-1, 3.9213207e+1, -0.00000016238235, -7802.0815, -0.34120053, 0.0, 0.0016192562, 0.000014758996, 0.000014758996, 0.0, 0.1953125, 0.19380625 
2.9296875e-1, 3.9407018e+1, -0.00000002065131, -7830.0576, 0.026367417, 0.0, 0.0014290393, 0.00000006814025, 0.00000006814025, 0.0, 0.1953125, 0.19380091 
2.9296875e-1, 3.9600846e+1, -0.000000111350865, -7491.4565, 0.28598002, 0.0, 0.0015796048, 0.000010805695, 0.000010805695, 0.0, 0.1953125, 0.19386555 
2.9296875e-1, 3.9794716e+1, -0.0000000064808643, -7515.134, 0.014838659, 0.0, 0.0014316574, 0.000000022818313, 0.000000022818313, 0.0, 0.1953125, 0.19386102 
2.9296875e-1, 3.99886e+1, -0.000000081939774, -7181.865, -0.2386537, 0.0, 0.001608914, 0.000007848534, 0.000007848534, 0.0, 0.1953125, 0.19392471 
2.9296875e-1, 4.0182534e+1, -0.00000003134705, -7199.1025, 0.15819333, 0.0, 0.0014005029, 0.0000034448003, 0.0000034448003, 0.0, 0.1953125, 0.19392142 
2.9296875e-1, 4.0376475e+1, -0.000000098990036, -6872.559, 0.25206274, 0.0, 0.0016121914, 0.000009145838, 0.000009145838, 0.0, 0.1953125, 0.19398387 
2.9296875e-1, 4.0570468e+1, -0.000000011736463, -6882.421, 0.060768753, 0.0, 0.0014036025, 0.0000005248248, 0.0000005248248, 0.0, 0.1953125, 0.19398199 
2.9296875e-1, 4.076447e+1, -0.000000017690152, -6562.651, -0.08274177, 0.0, 0.0015876947, 0.0000010255162, 0.0000010255162, 0.0, 0.1953125, 0.1940432 
2.9296875e-1, 4.0958524e+1, -0.00000019697951, -6566.5684, 0.35163167, 0.0, 0.0013715879, 0.000018632465, 0.000018632465, 0.0, 0.1953125, 0.19404246 
2.9296875e-1, 4.1152588e+1, -0.000002482162, -6251.056, 1.6221105, 0.0, 0.0016389474, 0.00041844547, 0.00041844547, 0.0, 0.1953125, 0.19410291 
2.9296875e-1, 4.13467e+1, -0.0000007067669, -6255.3, 0.6687396, 0.0, 0.0013193183, 0.000070786635, 0.000070786635, 0.0, 0.1953125, 0.1941021 
2.9296875e-1, 4.1540822e+1, -0.000000031552567, -5940.609, 0.07674048, 0.0, 0.0016704579, 0.0000009597779, 0.0000009597779, 0.0, 0.1953125, 0.19416246 
2.9296875e-1, 4.1734996e+1, -0.000000039698957, -5938.4575, 0.12017321, 0.0, 0.0013615873, 0.0000023921784, 0.0000023921784, 0.0, 0.1953125, 0.19416288 
2.9296875e-1, 4.1929176e+1, -0.00000016899297, -5636.4707, 0.30987224, 0.0, 0.0016206531, 0.000016866634, 0.000016866634, 0.0, 0.1953125, 0.19422084 
2.9296875e-1, 4.212341e+1, -0.000000076622825, -5618.0103, 0.1655264, 0.0, 0.001349337, 0.0000048003694, 0.0000048003694, 0.0, 0.1953125, 0.19422439 
2.9296875e-1, 4.2317653e+1, -0.00000011982934, -5335.7207, 0.26251826, 0.0, 0.001696288, 0.000012796108, 0.000012796108, 0.0, 0.1953125, 0.19427863 
2.9296875e-1, 4.2511943e+1, -0.000000079300406, -5292.3037, 0.18316038, 0.0, 0.0013248961, 0.0000062596646, 0.0000062596646, 0.0, 0.1953125, 0.19428697 
2.9296875e-1, 4.2706248e+1, -0.0000002550158, -5038.787, -0.36937922, 0.0, 0.0016684829, 0.000026823127, 0.000026823127, 0.0, 0.1953125, 0.19433573 
2.9296875e-1, 4.29006e+1, -0.0000001316472, -4963.8203, -0.25342587, 0.0, 0.0014943712, 0.000012806908, 0.000012806908, 0.0, 0.1953125, 0.19435015 
2.9296875e-1, 4.3094963e+1, -0.00000022120464, -4740.1733, 0.34559816, 0.0, 0.0015338496, 0.000024975781, 0.000024975781, 0.0, 0.1953125, 0.19439322 
2.9296875e-1, 4.3289375e+1, -0.00000004880328, -4637.8403, 0.10109556, 0.0, 0.0013242102, 0.0000021548758, 0.0000021548758, 0.0, 0.1953125, 0.19441292 
2.9296875e-1, 4.3483803e+1, -0.00000016115854, -4441.799, -0.27738026, 0.0, 0.001739315, 0.000017160608, 0.000017160608, 0.0, 0.1953125, 0.19445069 
2.9296875e-1, 4.3678272e+1, -0.0000019358401, -4310.3286, 1.423207, 0.0, 0.0015155061, 0.00046798616, 0.00046798616, 0.0, 0.1953125, 0.19447604 
2.9296875e-1, 4.3872756e+1, -0.00000035627008, -4142.4585, -0.39466774, 0.0, 0.0014296868, 0.00003724522, 0.00003724522, 0.0, 0.1953125, 0.19450842 
2.9296875e-1, 4.4067287e+1, -0.00000019831566, -3984.4478, -0.2932716, 0.0, 0.0014587854, 0.00002138767, 0.00002138767, 0.0, 0.1953125, 0.1945389 
2.9296875e-1, 4.4261837e+1, -0.00000004986758, -3840.6777, 0.078883104, 0.0, 0.0016584302, 0.0000015703004, 0.0000015703004, 0.0, 0.1953125, 0.19456667 
2.9296875e-1, 4.4456425e+1, -0.0000055845057, -3662.0977, 2.3703187, 0.0, 0.0014308818, 0.0015286204, 0.0015286204, 0.0, 0.1953125, 0.19460115 
2.9296875e-1, 4.4651034e+1, -0.0000004980638, -3535.4722, -0.7326947, 0.0, 0.0015649535, 0.00015134629, 0.00015134629, 0.0, 0.1953125, 0.19462562 
2.9296875e-1, 4.484568e+1, -0.000000045581523, -3341.6655, 0.080569945, 0.0, 0.0015707233, 0.0000018970172, 0.0000018970172, 0.0, 0.1953125, 0.19466308 
2.9296875e-1, 4.5040357e+1, -0.000000027121295, -3228.125, 0.0023224975, 0.0, 0.0015160191, -0.000000025449935, -0.000000025449935, 0.0, 0.1953125, 0.19468504 
2.9296875e-1, 4.523506e+1, -0.00000010141368, -3025.4158, -0.13525438, 0.0, 0.0014266657, 0.0000059452755, 0.0000059452755, 0.0, 0.1953125, 0.19472426 
2.9296875e-1, 4.54298e+1, -0.00000028028, -2919.915, 0.5284208, 0.0, 0.0017026796, 0.0000953487, 0.0000953487, 0.0, 0.1953125, 0.19474469 
2.9296875e-1, 4.5624557e+1, -0.000000035449393, -2707.6655, 0.04410809, 0.0, 0.001507176, 0.00000068307463, 0.00000068307463, 0.0, 0.1953125, 0.1947858 
2.9296875e-1, 4.581936e+1, -0.000000065170774, -2610.483, -0.075986266, 0.0, 0.0015935377, 0.0000021466471, 0.0000021466471, 0.0, 0.1953125, 0.19480462 
2.9296875e-1, 4.6014175e+1, -0.000001711508, -2390.6172, 1.3082567, 0.0, 0.0013577865, 0.00071422715, 0.00071422715, 0.0, 0.1953125, 0.19484726 
2.9296875e-1, 4.6209046e+1, -0.011840797, -2305.3337, 109.02414, 0.0, 0.0016711047, 5.1326885, 5.1326885, 0.0, 0.1953125, 0.1948638 
2.9296875e-1, 4.6403915e+1, -0.00000080303386, -2072.9395, 0.90444666, 0.0, 0.0018096615, 0.0003938171, 0.0003938171, 0.0, 0.1953125, 0.19490889 
2.9296875e-1, 4.6598846e+1, -0.000000048158775, -1993.0409, 0.003276268, 0.0, 0.0014509166, -0.00000004277331, -0.00000004277331, 0.0, 0.1953125, 0.1949244 
2.9296875e-1, 4.6793777e+1, -0.0000039264237, -1761.9515, -1.9890956, 0.0, 0.0006544132, 0.0022415929, 0.0022415929, 0.0, 0.1953125, 0.19496928 
2.9296875e-1, 4.698877e+1, -0.00015554446, -1683.2227, 12.489002, 0.0, 0.0022026845, 0.09250398, 0.09250398, 0.0, 0.1953125, 0.19498457 
2.9296875e-1, 4.718376e+1, -0.000000066207484, -1440.6005, -0.16988553, 0.0, 0.0026109111, 0.000019967865, 0.000019967865, 0.0, 0.1953125, 0.19503173 
2.9296875e-1, 4.7378814e+1, -0.00000042545912, -1375.8138, 0.6711522, 0.0, 0.0005860833, 0.00032697717, 0.00032697717, 0.0, 0.1953125, 0.19504434 
2.9296875e-1, 4.7573864e+1, -0.00000004249064, -1124.1824, -0.14896543, 0.0, -0.00036947394, 0.000019696923, 0.000019696923, 0.0, 0.1953125, 0.1950933 
2.9296875e-1, 4.776899e+1, -0.000000012328118, -1058.1411, -0.12178239, 0.0, 0.0034243888, 0.0000140037155, 0.0000140037155, 0.0, 0.1953125, 0.19510616 
2.9296875e-1, 4.7964096e+1, -0.00000007088498, -819.7637, 0.35356966, 0.0, 0.0032953173, 0.00015242609, 0.00015242609, 0.0, 0.1953125, 0.19515258 
2.9296875e-1, 4.815927e+1, -0.00000003146678, -774.38007, -0.11851131, 0.0, -0.0008038638, 0.000018105533, 0.000018105533, 0.0, 0.1953125, 0.19516143 
2.9296875e-1, 4.8354438e+1, -0.00000032409235, -470.0313, -0.56786454, 0.0, 0.000112014335, 0.00068573595, 0.00068573595, 0.0, 0.1953125, 0.19522077 
2.9296875e-1, 4.8549697e+1, 0.000000019118728, -370.6026, 0.06909878, 0.0, 0.004175332, 0.000012902573, 0.000012902573, 0.0, 0.1953125, 0.19524015 
2.9296875e-1, 4.8744923e+1, -0.00000010690035, -273.47137, 0.3281999, 0.0, 0.00068680564, 0.00039377352, 0.00039377352, 0.0, 0.1953125, 0.19525911 
2.9296875e-1, 4.8940206e+1, -0.000000020849818, -55.081264, 0.10979843, 0.0, 0.0014255156, 0.00021884934, 0.00021884934, 0.0, 0.1953125, 0.19530174 
