coord_x,coord_y,stress_xx,stress_yy,tau_xy,velocity_x,velocity_y,stress_1,eps,damage,lx,ly
2.4414063e-2, 2.3492856e-2, -0.000000000046585475, -39972.953, 0.0025444205, 0.0, 0.00000032363366, 0.00000000011641532, 0.00000000011641532, 0.0, 0.048828125, 0.046985634 
2.4414063e-2, 7.0478565e-2, -0.000000007572554, -39973.85, 0.007633274, 0.0, 0.0000009708989, -0.0000000061118044, -0.0000000061118044, 0.0, 0.048828125, 0.046985593 
2.4414063e-2, 1.17465995e-1, -0.0000000007674758, -39895.082, 0.012069942, 0.0, 0.0000049405635, 0.0000000028885552, 0.0000000028885552, 0.0, 0.048828125, 0.046989024 
2.4414063e-2, 1.6445513e-1, 0.00000000068265643, -39895.246, 0.015333446, 0.0, 0.0000039629185, 0.0000000065701897, 0.0000000065701897, 0.0, 0.048828125, 0.046989016 
2.4414063e-2, 2.1144599e-1, -0.000000014190934, -39816.72, 0.017868936, 0.0, 0.000007622822, -0.000000006170012, -0.000000006170012, 0.0, 0.048828125, 0.046992436 
2.4414063e-2, 2.5843853e-1, -0.000000015667062, -39817.133, 0.018412888, 0.0, 0.000008182062, -0.0000000071522663, -0.0000000071522663, 0.0, 0.048828125, 0.046992417 
2.4414063e-2, 3.0543277e-1, -0.000000023798059, -39738.402, 0.018206038, 0.0, 0.0000119283795, -0.00000001546141, -0.00000001546141, 0.0, 0.048828125, 0.04699585 
2.4414063e-2, 3.5242873e-1, -0.000000026940604, -39738.98, 0.015885876, 0.0, 0.000012210109, -0.000000020598236, -0.000000020598236, 0.0, 0.048828125, 0.046995822 
2.4414063e-2, 3.994264e-1, -0.0000000036360022, -39660.098, 0.012925815, 0.0, 0.000017429214, 0.00000000057480065, 0.00000000057480065, 0.0, 0.048828125, 0.04699926 
2.4414063e-2, 4.4642574e-1, -0.000000013514664, -39660.813, 0.0083303945, 0.0, 0.000018313023, -0.0000000117579475, -0.0000000117579475, 0.0, 0.048828125, 0.046999227 
2.4414063e-2, 4.9342683e-1, 0.0000000014150626, -39581.805, 0.0035307568, 0.0, 0.000023128596, 0.000000001724402, 0.000000001724402, 0.0, 0.048828125, 0.047002673 
2.4414063e-2, 5.404296e-1, -0.0000000003148194, -39582.633, -0.0018250806, 0.0, 0.000024357556, -0.00000000023283064, -0.00000000023283064, 0.0, 0.048828125, 0.047002636 
2.4414063e-2, 5.8743405e-1, 0.00000001903546, -39503.53, -0.007060332, 0.0, 0.000029448936, 0.000000020292646, 0.000000020292646, 0.0, 0.048828125, 0.047006086 
2.4414063e-2, 6.3444024e-1, -0.000000004747906, -39504.445, -0.011527915, 0.0, 0.00003065526, -0.0000000013897079, -0.0000000013897079, 0.0, 0.048828125, 0.047006045 
2.4414063e-2, 6.8144816e-1, -0.000000008541585, -39425.25, -0.015678834, 0.0, 0.000035092566, -0.0000000023064786, -0.0000000023064786, 0.0, 0.048828125, 0.047009498 
2.4414063e-2, 7.284577e-1, -0.000000028250758, -39426.3, -0.0180277, 0.0, 0.000036693425, -0.000000020008883, -0.000000020008883, 0.0, 0.048828125, 0.04700945 
2.4414063e-2, 7.75469e-1, 0.000000021932715, -39346.914, -0.019843861, 0.0, 0.00004006563, 0.000000031941454, 0.000000031941454, 0.0, 0.048828125, 0.047012914 
2.4414063e-2, 8.22482e-1, -0.000000019504688, -39348.145, -0.020168439, 0.0, 0.000041367886, -0.000000009167707, -0.000000009167707, 0.0, 0.048828125, 0.047012858 
2.4414063e-2, 8.6949676e-1, -0.000000030767577, -39268.65, -0.019829659, 0.0, 0.000044506625, -0.000000020758307, -0.000000020758307, 0.0, 0.048828125, 0.047016326 
2.4414063e-2, 9.1651314e-1, -0.0000000021508846, -39270.01, -0.01670818, 0.0, 0.000044748027, 0.000000004954927, 0.000000004954927, 0.0, 0.048828125, 0.047016267 
2.4414063e-2, 9.6353126e-1, -0.00000000063005884, -39190.3, -0.013353488, 0.0, 0.00004785087, 0.000000003921741, 0.000000003921741, 0.0, 0.048828125, 0.047019746 
2.4414063e-2, 1.0105511e+0, 0.000000024996398, -39191.836, -0.013136513, 0.0, 0.000047555943, 0.000000029402145, 0.000000029402145, 0.0, 0.048828125, 0.04701968 
2.4414063e-2, 1.0575726e+0, -0.0000000011993565, -39112.04, -0.011708502, 0.0, 0.000050790448, 0.0000000023064786, 0.0000000023064786, 0.0, 0.048828125, 0.04702316 
2.4414063e-2, 1.1045959e+0, 0.00000001270573, -39113.7, -0.0018845231, 0.0, 0.000049091155, 0.000000012798409, 0.000000012798409, 0.0, 0.048828125, 0.047023088 
2.4414063e-2, 1.1516209e+0, 0.000000013436688, -39033.71, -0.044920005, 0.0, 0.000053072206, 0.00000006513437, 0.00000006513437, 0.0, 0.048828125, 0.04702658 
2.4414063e-2, 1.1986475e+0, -0.000000015686405, -39035.543, -0.018743964, 0.0, 0.000050831022, -0.000000006686605, -0.000000006686605, 0.0, 0.048828125, 0.0470265 
2.4414063e-2, 1.2456758e+0, -0.0000000045310173, -38955.46, -0.027572533, 0.0, 0.000055614433, 0.000000014981197, 0.000000014981197, 0.0, 0.048828125, 0.047029994 
2.4414063e-2, 1.2927058e+0, 0.00000000073880263, -38957.35, 0.007519167, 0.0, 0.00005236878, 0.0000000021973392, 0.0000000021973392, 0.0, 0.048828125, 0.047029912 
2.4414063e-2, 1.3397376e+0, 0.0000000139519525, -38876.99, 0.017830452, 0.0, 0.000059316964, 0.000000022133463, 0.000000022133463, 0.0, 0.048828125, 0.04703342 
2.4414063e-2, 1.3867712e+0, -0.000000004790936, -38878.992, -0.07139753, 0.0, 0.00005509952, 0.00000012632518, 0.00000012632518, 0.0, 0.048828125, 0.047033332 
2.4414063e-2, 1.4338063e+0, -0.00000007881506, -38798.62, -0.30482495, 0.0, 0.000062865845, 0.0000023160683, 0.0000023160683, 0.0, 0.048828125, 0.047036845 
2.4414063e-2, 1.4808433e+0, -0.00000009923308, -38800.695, -0.34315598, 0.0, 0.00005907714, 0.000002935667, 0.000002935667, 0.0, 0.048828125, 0.047036752 
2.4414063e-2, 1.5278819e+0, -0.00000011556232, -38720.74, -0.35370502, 0.0, 0.00007078594, 0.0000031154486, 0.0000031154486, 0.0, 0.048828125, 0.047040246 
2.4414063e-2, 1.5749222e+0, -0.0000000043033537, -38722.938, -0.060651787, 0.0, 0.00006426955, 0.00000009070209, 0.00000009070209, 0.0, 0.048828125, 0.04704015 
2.4414063e-2, 1.6219643e+0, -0.000000035780772, -38642.38, 0.15321061, 0.0, 0.00007503178, 0.0000005716647, 0.0000005716647, 0.0, 0.048828125, 0.04704367 
2.4414063e-2, 1.669008e+0, -0.000000051493252, -38643.58, -0.2212402, 0.0, 0.0000726135, 0.0000012151359, 0.0000012151359, 0.0, 0.048828125, 0.047043618 
2.4414063e-2, 1.7160535e+0, -0.00000074062683, -38563.83, -0.8701529, 0.0, 0.000085202926, 0.000018893472, 0.000018893472, 0.0, 0.048828125, 0.0470471 
2.4414063e-2, 1.7631006e+0, -0.00001684341, -38565.887, -4.029209, 0.0, 0.00008090181, 0.0004041122, 0.0004041122, 0.0, 0.048828125, 0.04704701 
2.4414063e-2, 1.8101494e+0, -0.00000035631248, -38487.0, -0.62366444, 0.0, 0.00009097443, 0.000009749892, 0.000009749892, 0.0, 0.048828125, 0.04705046 
2.4414063e-2, 1.8572e+0, -0.00000003205137, -38487.79, -0.15802276, 0.0, 0.000090831905, 0.0000006167538, 0.0000006167538, 0.0, 0.048828125, 0.047050428 
2.4414063e-2, 1.9042523e+0, -0.000000019626393, -38408.14, -0.08234432, 0.0, 0.00010192401, 0.00000015692058, 0.00000015692058, 0.0, 0.048828125, 0.047053907 
2.4414063e-2, 1.9513063e+0, -0.000000015060332, -38409.13, -0.101838686, 0.0, 0.000099556666, 0.00000025494955, 0.00000025494955, 0.0, 0.048828125, 0.047053866 
2.4414063e-2, 1.998362e+0, 0.0000000011573191, -38330.227, -0.06899178, 0.0, 0.00010969855, 0.00000012534292, 0.00000012534292, 0.0, 0.048828125, 0.047057316 
2.4414063e-2, 2.0454195e+0, -0.00000002614558, -38330.7, -0.053283315, 0.0, 0.00010995583, 0.000000047926733, 0.000000047926733, 0.0, 0.048828125, 0.047057293 
2.4414063e-2, 2.0924786e+0, 0.000000022026304, -38252.277, -0.031611674, 0.0, 0.00011767747, 0.00000004814501, 0.00000004814501, 0.0, 0.048828125, 0.047060724 
2.4414063e-2, 2.1395394e+0, 0.000000008593562, -38252.23, -0.005709404, 0.0, 0.00011821311, 0.000000009444193, 0.000000009444193, 0.0, 0.048828125, 0.047060728 
2.4414063e-2, 2.1866019e+0, 0.0000000066784858, -38174.285, 0.012758253, 0.0, 0.00012590009, 0.00000001094304, 0.00000001094304, 0.0, 0.048828125, 0.047064137 
2.4414063e-2, 2.2336662e+0, 0.00000003190502, -38173.83, 0.035524175, 0.0, 0.0001278546, 0.000000064967026, 0.000000064967026, 0.0, 0.048828125, 0.04706416 
2.4414063e-2, 2.2807321e+0, -0.0000000071873574, -38096.324, 0.08452826, 0.0, 0.00013018456, 0.00000018037099, 0.00000018037099, 0.0, 0.048828125, 0.04706755 
2.4414063e-2, 2.3277998e+0, -0.000000027535567, -38095.375, 0.11659, 0.0, 0.00013271971, 0.00000032928074, 0.00000032928074, 0.0, 0.048828125, 0.04706759 
2.4414063e-2, 2.3748691e+0, -0.000000013144265, -38018.094, 0.07990192, 0.0, 0.0001385937, 0.00000015478145, 0.00000015478145, 0.0, 0.048828125, 0.047070973 
2.4414063e-2, 2.4219403e+0, -0.0000000040692805, -38017.176, 0.07539568, 0.0, 0.000141627, 0.00000014546094, 0.00000014546094, 0.0, 0.048828125, 0.047071014 
2.4414063e-2, 2.469013e+0, -0.00000004933729, -37940.33, 0.20795032, 0.0, 0.00014001195, 0.0000010904332, 0.0000010904332, 0.0, 0.048828125, 0.047074378 
2.4414063e-2, 2.516088e+0, -0.000000087829456, -37938.543, 0.26503277, 0.0, 0.00014143556, 0.0000017636557, 0.0000017636557, 0.0, 0.048828125, 0.047074456 
2.4414063e-2, 2.5631636e+0, -0.000000039145064, -37864.25, 0.051822584, 0.0, 0.00014973652, 0.000000031781383, 0.000000031781383, 0.0, 0.048828125, 0.047077708 
2.4414063e-2, 2.6102418e+0, -0.0000000074833455, -37862.652, -0.015900318, 0.0, 0.00014802754, -0.0000000008076313, -0.0000000008076313, 0.0, 0.048828125, 0.04707778 
2.4414063e-2, 2.657321e+0, -0.000000086155296, -37787.24, 0.30213788, 0.0, 0.00014925889, 0.000002329667, 0.000002329667, 0.0, 0.048828125, 0.047081083 
2.4414063e-2, 2.7044025e+0, -0.000000105662544, -37784.117, 0.31699008, 0.0, 0.00014853712, 0.0000025537302, 0.0000025537302, 0.0, 0.048828125, 0.047081217 
2.4414063e-2, 2.7514854e+0, -0.0000000143174494, -37708.945, 0.074818596, 0.0, 0.00015668286, 0.00000013413228, 0.00000013413228, 0.0, 0.048828125, 0.04708451 
2.4414063e-2, 2.79857e+0, -0.000000149367, -37706.55, 0.4216464, 0.0, 0.00014763407, 0.000004565605, 0.000004565605, 0.0, 0.048828125, 0.047084615 
2.4414063e-2, 2.8456563e+0, -0.0000014009145, -37631.754, 1.1976618, 0.0, 0.00015649492, 0.000036715668, 0.000036715668, 0.0, 0.048828125, 0.047087893 
2.4414063e-2, 2.8927448e+0, -0.00006772691, -37628.13, -8.457431, 0.0, 0.00015895387, 0.001833195, 0.001833195, 0.0, 0.048828125, 0.047088053 
2.4414063e-2, 2.9398343e+0, -0.000004094559, -37552.563, 2.0407503, 0.0, 0.00015372742, 0.00010680763, 0.00010680763, 0.0, 0.048828125, 0.047091365 
2.4414063e-2, 2.986926e+0, -0.00008056656, -37548.465, -9.265402, 0.0, 0.00015634956, 0.0022057495, 0.0022057495, 0.0, 0.048828125, 0.047091544 
2.4414063e-2, 3.0340192e+0, -0.0000007814636, -37473.918, 0.90314156, 0.0, 0.00016272177, 0.000020984728, 0.000020984728, 0.0, 0.048828125, 0.04709481 
2.4414063e-2, 3.0811143e+0, -0.000000055952906, -37470.1, 0.22740841, 0.0, 0.00015157602, 0.0000013242025, 0.0000013242025, 0.0, 0.048828125, 0.04709498 
2.4414063e-2, 3.128211e+0, -0.000000020927454, -37396.75, 0.047800053, 0.0, 0.00016745718, 0.000000040170562, 0.000000040170562, 0.0, 0.048828125, 0.047098193 
2.4414063e-2, 3.1753093e+0, 0.00000001132036, -37392.223, 0.016022244, 0.0, 0.0001549824, 0.000000018182618, 0.000000018182618, 0.0, 0.048828125, 0.04709839 
2.4414063e-2, 3.2224095e+0, -0.00000000053757365, -37318.547, -0.037743155, 0.0, 0.00017162102, 0.00000003763853, 0.00000003763853, 0.0, 0.048828125, 0.047101624 
2.4414063e-2, 3.2695115e+0, -0.000000042259213, -37313.824, -0.017908452, 0.0, 0.00015375718, -0.000000033665856, -0.000000033665856, 0.0, 0.048828125, 0.04710183 
2.4414063e-2, 3.316615e+0, -0.000000012253333, -37240.67, -0.029530384, 0.0, 0.00017354487, 0.000000011161319, 0.000000011161319, 0.0, 0.048828125, 0.04710504 
2.4414063e-2, 3.3637202e+0, 0.0000000132672975, -37234.984, -0.07488649, 0.0, 0.00016343813, 0.0000001638764, 0.0000001638764, 0.0, 0.048828125, 0.04710529 
2.4414063e-2, 3.410827e+0, 0.000000020093905, -37163.09, -0.06816139, 0.0, 0.0001808052, 0.00000014510442, 0.00000014510442, 0.0, 0.048828125, 0.04710844 
2.4414063e-2, 3.4579358e+0, -0.000000016274665, -37156.582, 0.023111915, 0.0, 0.00016129608, -0.000000001899025, -0.000000001899025, 0.0, 0.048828125, 0.04710873 
2.4414063e-2, 3.505046e+0, 0.0000000007781035, -37084.82, 0.019839354, 0.0, 0.00018050637, 0.00000001139415, 0.00000001139415, 0.0, 0.048828125, 0.047111876 
2.4414063e-2, 3.5521585e+0, -0.000000042227885, -37077.902, -0.14723301, 0.0, 0.0001793723, 0.00000054242264, 0.00000054242264, 0.0, 0.048828125, 0.04711218 
2.4414063e-2, 3.599272e+0, -0.00000002280698, -37007.18, -0.13819557, 0.0, 0.00019258731, 0.0000004932517, 0.0000004932517, 0.0, 0.048828125, 0.047115285 
2.4414063e-2, 3.6463878e+0, -0.000000036740026, -36999.703, 0.13391137, 0.0, 0.00017420042, 0.00000044791523, 0.00000044791523, 0.0, 0.048828125, 0.047115613 
2.4414063e-2, 3.693505e+0, -0.000000023223745, -36928.746, 0.11792047, 0.0, 0.00019424633, 0.0000003533205, 0.0000003533205, 0.0, 0.048828125, 0.047118727 
2.4414063e-2, 3.7406242e+0, -0.0000000130643825, -36920.816, -0.17835136, 0.0, 0.0001959787, 0.0000008484858, 0.0000008484858, 0.0, 0.048828125, 0.047119077 
2.4414063e-2, 3.7877446e+0, -0.0000000170068, -36851.395, -0.07226539, 0.0, 0.00020504114, 0.00000012470264, 0.00000012470264, 0.0, 0.048828125, 0.047122125 
2.4414063e-2, 3.8348672e+0, -0.000000014916479, -36842.51, 0.11363515, 0.0, 0.00019680869, 0.00000033558172, 0.00000033558172, 0.0, 0.048828125, 0.047122516 
2.4414063e-2, 3.8819912e+0, -0.00000004125154, -36773.23, -0.09566802, 0.0, 0.00021215134, 0.000000207634, 0.000000207634, 0.0, 0.048828125, 0.04712556 
2.4414063e-2, 3.9291173e+0, -0.000000005297066, -36764.688, 0.06428115, 0.0, 0.00021014178, 0.00000010709482, 0.00000010709482, 0.0, 0.048828125, 0.04712593 
2.4414063e-2, 3.9762446e+0, -0.00000006339207, -36694.895, 0.13453402, 0.0, 0.00022216096, 0.00000042984902, 0.00000042984902, 0.0, 0.048828125, 0.047128998 
2.4414063e-2, 4.023374e+0, -0.00000055434003, -36684.85, -0.75549614, 0.0, 0.00021895552, 0.000015004516, 0.000015004516, 0.0, 0.048828125, 0.04712944 
2.4414063e-2, 4.0705052e+0, -0.0000008133655, -36618.33, -0.9260476, 0.0, 0.00022011557, 0.000022605622, 0.000022605622, 0.0, 0.048828125, 0.04713236 
2.4414063e-2, 4.1176376e+0, -0.000010510066, -36608.71, -3.1748161, 0.0, 0.00022518546, 0.00026481942, 0.00026481942, 0.0, 0.048828125, 0.047132786 
2.4414063e-2, 4.164772e+0, -0.00000013632378, -36538.754, 0.3379813, 0.0, 0.00024554023, 0.0000029899893, 0.0000029899893, 0.0, 0.048828125, 0.04713586 
2.4414063e-2, 4.2119083e+0, 0.0000000034072951, -36529.16, 0.10330732, 0.0, 0.00022869378, 0.00000029556395, 0.00000029556395, 0.0, 0.048828125, 0.04713628 
2.4414063e-2, 4.259046e+0, -0.000000020241954, -36461.46, 0.14636408, 0.0, 0.00021846221, 0.00000056729186, 0.00000056729186, 0.0, 0.048828125, 0.047139257 
2.4414063e-2, 4.3061858e+0, -0.000000008730522, -36450.332, 0.104374304, 0.0, 0.00022962128, 0.00000029014336, 0.00000029014336, 0.0, 0.048828125, 0.047139745 
2.4414063e-2, 4.3533272e+0, -0.000000004735635, -36383.43, -0.08974716, 0.0, 0.00027316637, 0.00000021664891, 0.00000021664891, 0.0, 0.048828125, 0.04714269 
2.4414063e-2, 4.4004703e+0, -0.000000024617838, -36372.527, 0.062370475, 0.0, 0.00023237754, 0.000000082334736, 0.000000082334736, 0.0, 0.048828125, 0.04714317 
2.4414063e-2, 4.4476146e+0, -0.00000017294079, -36305.73, 0.42756042, 0.0, 0.00020213518, 0.000004862297, 0.000004862297, 0.0, 0.048828125, 0.047146104 
2.4414063e-2, 4.4947615e+0, -0.000000036580907, -36292.875, 0.13242221, 0.0, 0.0002282404, 0.00000044658373, 0.00000044658373, 0.0, 0.048828125, 0.04714667 
2.4414063e-2, 4.5419097e+0, -0.0000002902489, -36227.305, -0.554305, 0.0, 0.00029457995, 0.000008191033, 0.000008191033, 0.0, 0.048828125, 0.047149554 
2.4414063e-2, 4.58906e+0, 0.0000000059762613, -36216.41, -0.10928057, 0.0, 0.00022833166, 0.00000033571996, 0.00000033571996, 0.0, 0.048828125, 0.047150034 
2.4414063e-2, 4.6362108e+0, -0.000000672138, -36149.84, 0.84127694, 0.0, 0.00019817856, 0.000018906008, 0.000018906008, 0.0, 0.048828125, 0.047152963 
2.4414063e-2, 4.683365e+0, -0.000000047765518, -36135.418, 0.1413214, 0.0, 0.00023406581, 0.00000050492235, 0.00000050492235, 0.0, 0.048828125, 0.047153596 
2.4414063e-2, 4.7305197e+0, -0.0000007405141, -36071.496, -0.8749509, 0.0, 0.00028146186, 0.000020482315, 0.000020482315, 0.0, 0.048828125, 0.04715641 
2.4414063e-2, 4.7776765e+0, 0.00000000041359152, -36059.734, -0.015954038, 0.0, 0.0002124743, 0.0000000074724085, 0.0000000074724085, 0.0, 0.048828125, 0.047156926 
2.4414063e-2, 4.8248348e+0, -0.00000009247079, -35992.668, 0.2860526, 0.0, 0.00024261494, 0.0000021809392, 0.0000021809392, 0.0, 0.048828125, 0.04715988 
2.4414063e-2, 4.8719954e+0, -0.0000004353016, -35979.813, -0.6744706, 0.0, 0.00025259494, 0.000012208191, 0.000012208191, 0.0, 0.048828125, 0.047160447 
2.4414063e-2, 4.919157e+0, -0.00000006961257, -35916.99, -0.17798728, 0.0, 0.00023628578, 0.0000008124043, 0.0000008124043, 0.0, 0.048828125, 0.04716321 
2.4414063e-2, 4.966321e+0, -0.00000003269054, -35899.47, -0.20614088, 0.0, 0.00020628088, 0.0000011510056, 0.0000011510056, 0.0, 0.048828125, 0.047163982 
2.4414063e-2, 5.013486e+0, -0.000009693137, -35835.117, -3.0680926, 0.0, 0.00029663419, 0.0002529875, 0.0002529875, 0.0, 0.048828125, 0.047166817 
2.4414063e-2, 5.0606537e+0, -0.000048083624, -35822.902, -7.161445, 0.0, 0.00027262993, 0.0013835785, 0.0013835785, 0.0, 0.048828125, 0.047167353 
2.4414063e-2, 5.107822e+0, -0.0000039677725, -35764.086, -2.005483, 0.0, 0.00022441683, 0.000108490334, 0.000108490334, 0.0, 0.048828125, 0.047169946 
2.4414063e-2, 5.154993e+0, -0.000000004489246, -35744.445, -0.06380554, 0.0, 0.00021818354, 0.000000109408575, 0.000000109408575, 0.0, 0.048828125, 0.04717081 
2.4414063e-2, 5.202165e+0, -0.00000032233325, -35682.168, -0.56581944, 0.0, 0.00031743938, 0.000008649979, 0.000008649979, 0.0, 0.048828125, 0.047173552 
2.4414063e-2, 5.2493393e+0, -0.00000028804206, -35666.34, -0.5494841, 0.0, 0.00030217323, 0.0000081774415, 0.0000081774415, 0.0, 0.048828125, 0.04717425 
2.4414063e-2, 5.2965146e+0, -0.00000019631283, -35607.73, 0.43822616, 0.0, 0.00024405684, 0.000005196962, 0.000005196962, 0.0, 0.048828125, 0.047176834 
2.4414063e-2, 5.3436923e+0, -0.0000001631723, -35587.965, 0.40194958, 0.0, 0.00025081998, 0.000004376663, 0.000004376663, 0.0, 0.048828125, 0.047177702 
2.4414063e-2, 5.390871e+0, -0.00000010642943, -35528.89, -0.34422806, 0.0, 0.0003269524, 0.0000032286844, 0.0000032286844, 0.0, 0.048828125, 0.047180306 
2.4414063e-2, 5.4380524e+0, -0.000000017323602, -35510.51, -0.1363675, 0.0, 0.0003083217, 0.0000005063557, 0.0000005063557, 0.0, 0.048828125, 0.04718112 
2.4414063e-2, 5.485234e+0, -0.00000008274733, -35451.625, 0.27067253, 0.0, 0.00028355588, 0.0000019838335, 0.0000019838335, 0.0, 0.048828125, 0.047183715 
2.4414063e-2, 5.532419e+0, -0.000000025887998, -35431.074, 0.042910114, 0.0, 0.00030857138, 0.000000026077032, 0.000000026077032, 0.0, 0.048828125, 0.04718462 
2.4414063e-2, 5.5796045e+0, -0.00000040211276, -35375.105, 0.64333475, 0.0, 0.0003224773, 0.000011297634, 0.000011297634, 0.0, 0.048828125, 0.047187086 
2.4414063e-2, 5.6267923e+0, -0.000027722468, -35352.414, -5.3835483, 0.0, 0.00030809862, 0.00079209683, 0.00079209683, 0.0, 0.048828125, 0.04718809 
2.4414063e-2, 5.673982e+0, -0.00000037377163, -35294.785, 0.6414828, 0.0, 0.00032068155, 0.000011285178, 0.000011285178, 0.0, 0.048828125, 0.04719063 
2.4414063e-2, 5.721173e+0, -0.0000000444957, -35274.19, 0.10957916, 0.0, 0.00034722683, 0.0000002959132, 0.0000002959132, 0.0, 0.048828125, 0.047191538 
2.4414063e-2, 5.768366e+0, -0.0000025520176, -35220.348, 1.6008345, 0.0, 0.00032561822, 0.00007020908, 0.00007020908, 0.0, 0.048828125, 0.04719391 
2.4414063e-2, 5.815561e+0, -0.000099086814, -35194.8, -10.255287, 0.0, 0.00032255007, 0.0028891643, 0.0028891643, 0.0, 0.048828125, 0.04719504 
2.4414063e-2, 5.862757e+0, -0.0000017029909, -35138.6, 1.3293958, 0.0, 0.0003295779, 0.00004859193, 0.00004859193, 0.0, 0.048828125, 0.047197517 
2.4414063e-2, 5.909955e+0, -0.000000064947095, -35116.227, 0.2779199, 0.0, 0.00036910246, 0.0000021345913, 0.0000021345913, 0.0, 0.048828125, 0.047198508 
2.4414063e-2, 5.9571546e+0, -0.000000008089182, -35062.332, 0.058347866, 0.0, 0.0003426485, 0.00000008899951, 0.00000008899951, 0.0, 0.048828125, 0.047200885 
2.4414063e-2, 6.004356e+0, -0.00000007116451, -35038.2, 0.27566016, 0.0, 0.00031322404, 0.0000020975713, 0.0000020975713, 0.0, 0.048828125, 0.04720195 
2.4414063e-2, 6.0515594e+0, -0.0000000060027356, -34984.066, 0.12154779, 0.0, 0.00033180162, 0.0000004163012, 0.0000004163012, 0.0, 0.048828125, 0.047204338 
2.4414063e-2, 6.098765e+0, -0.000000016245938, -34959.797, -0.11720197, 0.0, 0.00038524234, 0.00000037666905, 0.00000037666905, 0.0, 0.048828125, 0.04720541 
2.4414063e-2, 6.145971e+0, -0.00000005211934, -34906.38, -0.2789815, 0.0, 0.00035010706, 0.0000021775777, 0.0000021775777, 0.0, 0.048828125, 0.04720777 
2.4414063e-2, 6.1931795e+0, -0.000000086192784, -34881.65, 0.33628103, 0.0, 0.00030125715, 0.0000031557647, 0.0000031557647, 0.0, 0.048828125, 0.04720886 
2.4414063e-2, 6.24039e+0, -0.00000003726327, -34827.613, 0.13973379, 0.0, 0.00033865456, 0.0000005233669, 0.0000005233669, 0.0, 0.048828125, 0.047211245 
2.4414063e-2, 6.287602e+0, -0.00000016243074, -34802.48, -0.37321052, 0.0, 0.00037506822, 0.000003839763, 0.000003839763, 0.0, 0.048828125, 0.047212355 
2.4414063e-2, 6.334815e+0, -0.00000001513201, -34751.11, -0.1767282, 0.0, 0.000338118, 0.0000008836214, 0.0000008836214, 0.0, 0.048828125, 0.047214624 
2.4414063e-2, 6.382031e+0, -0.0000000067699952, -34724.16, 0.08447624, 0.0, 0.00031887082, 0.00000019875006, 0.00000019875006, 0.0, 0.048828125, 0.047215816 
2.4414063e-2, 6.429247e+0, 0.0000000053113465, -34672.066, -0.1461063, 0.0, 0.00035766416, 0.0000006209957, 0.0000006209957, 0.0, 0.048828125, 0.047218118 
2.4414063e-2, 6.4764667e+0, -0.000000010630458, -34646.535, -0.08803824, 0.0, 0.00033193032, 0.0000002130837, 0.0000002130837, 0.0, 0.048828125, 0.047219247 
2.4414063e-2, 6.5236866e+0, -0.000000044824073, -34593.926, 0.22106434, 0.0, 0.00032569474, 0.0000013678364, 0.0000013678364, 0.0, 0.048828125, 0.04722157 
2.4414063e-2, 6.5709096e+0, -0.00000020897231, -34566.953, -0.45905015, 0.0, 0.0003510935, 0.0000058872247, 0.0000058872247, 0.0, 0.048828125, 0.047222763 
2.4414063e-2, 6.618133e+0, -0.00000032877554, -34516.863, -0.56639785, 0.0, 0.00035818847, 0.000008965413, 0.000008965413, 0.0, 0.048828125, 0.047224976 
2.4414063e-2, 6.665359e+0, -0.00000013266116, -34490.387, 0.3324111, 0.0, 0.00031338938, 0.0000030710435, 0.0000030710435, 0.0, 0.048828125, 0.047226146 
2.4414063e-2, 6.7125857e+0, -0.00000001512415, -34438.195, 0.0076392377, 0.0, 0.0003516667, -0.000000013431418, -0.000000013431418, 0.0, 0.048828125, 0.04722845 
2.4414063e-2, 6.759816e+0, -0.000000012923309, -34412.492, -0.029316533, 0.0, 0.0003426879, 0.000000012056262, 0.000000012056262, 0.0, 0.048828125, 0.047229588 
2.4414063e-2, 6.807046e+0, -0.000003079255, -34363.46, 1.7485286, 0.0, 0.00034595214, 0.00008589176, 0.00008589176, 0.0, 0.048828125, 0.047231756 
2.4414063e-2, 6.854279e+0, -0.000098873126, -34331.863, -10.233921, 0.0, 0.00034331376, 0.0029517366, 0.0029517366, 0.0, 0.048828125, 0.047233153 
2.4414063e-2, 6.901513e+0, -0.0000016042449, -34282.652, 1.2725579, 0.0, 0.00036273416, 0.000045632572, 0.000045632572, 0.0, 0.048828125, 0.04723533 
2.4414063e-2, 6.9487494e+0, -0.000000035614416, -34252.477, 0.12393289, 0.0, 0.0003436795, 0.00000041280146, 0.00000041280146, 0.0, 0.048828125, 0.047236666 
2.4414063e-2, 6.9959867e+0, -0.00000053459223, -34205.84, -0.7453548, 0.0, 0.00036511006, 0.000015706893, 0.000015706893, 0.0, 0.048828125, 0.04723873 
2.4414063e-2, 7.043227e+0, -0.000001471, -34174.98, -1.2253236, 0.0, 0.00035932803, 0.00004246224, 0.00004246224, 0.0, 0.048828125, 0.047240093 
2.4414063e-2, 7.090467e+0, -0.00000042884946, -34129.9, -0.68597054, 0.0, 0.00037086825, 0.000013358345, 0.000013358345, 0.0, 0.048828125, 0.047242086 
2.4414063e-2, 7.137711e+0, -0.000000010671147, -34096.438, -0.045622416, 0.0, 0.00037286046, 0.000000050371455, 0.000000050371455, 0.0, 0.048828125, 0.04724357 
2.4414063e-2, 7.184955e+0, 0.00000001621497, -34051.316, 0.015773771, 0.0, 0.00037821743, 0.000000023523171, 0.000000023523171, 0.0, 0.048828125, 0.047245566 
2.4414063e-2, 7.232202e+0, -0.0000000074449003, -34017.402, 0.03804729, 0.0, 0.00038424743, 0.000000035106495, 0.000000035106495, 0.0, 0.048828125, 0.047247067 
2.4414063e-2, 7.2794497e+0, 0.000000016977719, -33973.875, 0.08296878, 0.0, 0.00039291545, 0.00000021959568, 0.00000021959568, 0.0, 0.048828125, 0.047248993 
2.4414063e-2, 7.3266995e+0, 0.000000004412699, -33938.527, 0.1034132, 0.0, 0.00039939932, 0.0000003195164, 0.0000003195164, 0.0, 0.048828125, 0.047250558 
2.4414063e-2, 7.373951e+0, -0.00000002679192, -33896.613, 0.10332838, 0.0, 0.00039398987, 0.0000002881934, 0.0000002881934, 0.0, 0.048828125, 0.047252413 
2.4414063e-2, 7.421205e+0, -0.00000068444604, -33859.207, -0.83433235, 0.0, 0.0004128426, 0.000019874518, 0.000019874518, 0.0, 0.048828125, 0.04725407 
2.4414063e-2, 7.4684596e+0, -0.000000058449515, -33819.293, 0.13505588, 0.0, 0.0004115655, 0.00000048088987, 0.00000048088987, 0.0, 0.048828125, 0.047255836 
2.4414063e-2, 7.5157166e+0, -0.000000039832386, -33780.59, 0.16956924, 0.0, 0.00042556366, 0.0000008113566, 0.0000008113566, 0.0, 0.048828125, 0.04725755 
2.4414063e-2, 7.5629747e+0, -0.00000005230378, -33741.684, 0.21494487, 0.0, 0.0004100424, 0.0000013169556, 0.0000013169556, 0.0, 0.048828125, 0.047259275 
2.4414063e-2, 7.610236e+0, 0.000000016477614, -33701.71, 0.14858799, 0.0, 0.00043705583, 0.0000006715927, 0.0000006715927, 0.0, 0.048828125, 0.047261044 
2.4414063e-2, 7.657497e+0, -0.000000009905399, -33664.004, 0.15940006, 0.0, 0.00042003056, 0.0000007448616, 0.0000007448616, 0.0, 0.048828125, 0.047262717 
2.4414063e-2, 7.704761e+0, -0.000000025817672, -33623.098, 0.18516932, 0.0, 0.0004421447, 0.0000009939467, 0.0000009939467, 0.0, 0.048828125, 0.047264528 
2.4414063e-2, 7.7520263e+0, -0.000000056025, -33586.234, 0.25891146, 0.0, 0.00042007794, 0.0000019398867, 0.0000019398867, 0.0, 0.048828125, 0.047266163 
2.4414063e-2, 7.799294e+0, -0.000000054645497, -33544.465, 0.21945357, 0.0, 0.0004493971, 0.0000013810641, 0.0000013810641, 0.0, 0.048828125, 0.04726801 
2.4414063e-2, 7.846562e+0, -0.000000019295586, -33508.082, 0.10068899, 0.0, 0.00042005852, 0.00000028326758, 0.00000028326758, 0.0, 0.048828125, 0.047269624 
2.4414063e-2, 7.8938335e+0, -0.00000001743342, -33466.246, 0.12365304, 0.0, 0.00043338642, 0.0000004394533, 0.0000004394533, 0.0, 0.048828125, 0.04727148 
2.4414063e-2, 7.9411054e+0, -0.00000006181988, -33430.836, 0.22763999, 0.0, 0.00042944672, 0.0000014882462, 0.0000014882462, 0.0, 0.048828125, 0.047273047 
2.4414063e-2, 7.98838e+0, -0.00000006029456, -33387.086, 0.1948595, 0.0, 0.00045539546, 0.00000107698, 0.00000107698, 0.0, 0.048828125, 0.04727499 
2.4414063e-2, 8.035655e+0, -0.0000000093035775, -33352.633, -0.012844106, 0.0, 0.00040900116, -0.0000000043582986, -0.0000000043582986, 0.0, 0.048828125, 0.047276516 
2.4414063e-2, 8.0829334e+0, 0.000000015851834, -33308.902, -0.07224925, 0.0, 0.00039660293, 0.00000017257116, 0.00000017257116, 0.0, 0.048828125, 0.047278456 
2.4414063e-2, 8.130212e+0, 0.000000012297816, -33275.418, 0.15823631, 0.0, 0.00044064337, 0.00000076476863, 0.00000076476863, 0.0, 0.048828125, 0.04727994 
2.4414063e-2, 8.177494e+0, -0.000000050243802, -33230.887, 0.17065944, 0.0, 0.0004773057, 0.00000082619226, 0.00000082619226, 0.0, 0.048828125, 0.047281917 
2.4414063e-2, 8.2247764e+0, -0.00000006729519, -33197.902, -0.20362645, 0.0, 0.0003927598, 0.0000011816883, 0.0000011816883, 0.0, 0.048828125, 0.047283377 
2.4414063e-2, 8.2720613e+0, -0.00014684474, -33152.844, -12.446995, 0.0, 0.00033685728, 0.0045262887, 0.0045262887, 0.0, 0.048828125, 0.047285378 
2.4414063e-2, 8.3193463e+0, -0.00000001067772, -33120.77, 0.050103404, 0.0, 0.00045312286, 0.000000065112545, 0.000000065112545, 0.0, 0.048828125, 0.0472868 
2.4414063e-2, 8.3666354e+0, -0.0002850386, -33073.746, -17.338598, 0.0, 0.00053490046, 0.008804554, 0.008804554, 0.0, 0.048828125, 0.047288887 
2.4414063e-2, 8.413924e+0, -0.0000000469342, -33042.2, -0.21422789, 0.0, 0.00038754373, 0.0000013419995, 0.0000013419995, 0.0, 0.048828125, 0.047290288 
2.4414063e-2, 8.461216e+0, -0.00000008687389, -32995.676, -0.2164308, 0.0, 0.00026527574, 0.0000013327735, 0.0000013327735, 0.0, 0.048828125, 0.04729235 
2.4414063e-2, 8.508509e+0, -0.000000020223958, -32964.605, -0.05992719, 0.0, 0.00047484893, 0.00000008871575, 0.00000008871575, 0.0, 0.048828125, 0.04729373 
2.4414063e-2, 8.5558045e+0, -0.0000000051697935, -32916.805, -0.14227432, 0.0, 0.0006054877, 0.0000006097762, 0.0000006097762, 0.0, 0.048828125, 0.047295853 
2.4414063e-2, 8.603101e+0, -0.000000057838374, -32886.824, -0.18550687, 0.0, 0.00040909307, 0.0000009885625, 0.0000009885625, 0.0, 0.048828125, 0.047297183 
2.4414063e-2, 8.6503994e+0, -0.000000028114284, -32838.3, -0.06712818, 0.0, 0.00022238118, 0.00000010911026, 0.00000010911026, 0.0, 0.048828125, 0.04729934 
2.4414063e-2, 8.697699e+0, 0.000000009812372, -32808.883, -0.13333945, 0.0, 0.000492252, 0.0000005517286, 0.0000005517286, 0.0, 0.048828125, 0.047300644 
2.4414063e-2, 8.745001e+0, -0.00000008856255, -32759.201, -0.25417814, 0.0, 0.00065440737, 0.0000018836035, 0.0000018836035, 0.0, 0.048828125, 0.047302853 
2.4414063e-2, 8.792304e+0, -0.000000030817308, -32732.203, -0.12993583, 0.0, 0.00044902653, 0.00000048498623, 0.00000048498623, 0.0, 0.048828125, 0.047304053 
2.4414063e-2, 8.83961e+0, -0.00000000425093, -32679.457, 0.029922888, 0.0, 0.00024171763, 0.000000023152097, 0.000000023152097, 0.0, 0.048828125, 0.047306396 
2.4414063e-2, 8.886916e+0, -0.000000009292205, -32655.24, -0.053226206, 0.0, 0.00050080306, 0.00000007746348, 0.00000007746348, 0.0, 0.048828125, 0.04730747 
2.4414063e-2, 8.934226e+0, -0.00000008746339, -32600.018, -0.31218535, 0.0, 0.00065615185, 0.0000029020957, 0.0000029020957, 0.0, 0.048828125, 0.047309924 
2.4414063e-2, 8.981536e+0, -0.00000003364379, -32577.916, -0.16625416, 0.0, 0.00047211625, 0.0000008147981, 0.0000008147981, 0.0, 0.048828125, 0.047310907 
2.4414063e-2, 9.0288484e+0, -0.00000011979223, -32522.115, 0.3367104, 0.0, 0.00033791448, 0.0000033662618, 0.0000033662618, 0.0, 0.048828125, 0.047313385 
2.4414063e-2, 9.0761626e+0, -0.00000000729374, -32498.584, 0.04948529, 0.0, 0.00052701775, 0.00000006805931, 0.00000006805931, 0.0, 0.048828125, 0.04731443 
2.4414063e-2, 9.123478e+0, -0.00000013723499, -32442.74, -0.3775089, 0.0, 0.0005758502, 0.0000042555184, 0.0000042555184, 0.0, 0.048828125, 0.047316913 
2.4414063e-2, 9.1707957e+0, -0.000000031040408, -32422.953, 0.12346806, 0.0, 0.00046279124, 0.0000004391295, 0.0000004391295, 0.0, 0.048828125, 0.047317795 
2.4414063e-2, 9.2181146e+0, -0.00000005587249, -32362.092, -0.28042158, 0.0, 0.000499528, 0.0000023740176, 0.0000023740176, 0.0, 0.048828125, 0.0473205 
2.4414063e-2, 9.2654353e+0, -0.0000021331407, -32344.46, -1.4538339, 0.0, 0.0005380977, 0.000063214466, 0.000063214466, 0.0, 0.048828125, 0.047321282 
2.4414063e-2, 9.3127584e+0, -0.0000017185744, -32285.064, -1.2937447, 0.0, 0.00048233353, 0.00005012507, 0.00005012507, 0.0, 0.048828125, 0.047323924 
2.4414063e-2, 9.360083e+0, -0.00000079180154, -32267.63, -0.8818248, 0.0, 0.00049822795, 0.000023307115, 0.000023307115, 0.0, 0.048828125, 0.047324702 
2.4414063e-2, 9.4074094e+0, -0.00000018590801, -32206.564, -0.4189956, 0.0, 0.00055659964, 0.000005265072, 0.000005265072, 0.0, 0.048828125, 0.047327418 
2.4414063e-2, 9.454737e+0, -0.000000102202804, -32189.959, 0.32432345, 0.0, 0.00049527304, 0.0000031654527, 0.0000031654527, 0.0, 0.048828125, 0.047328155 
2.4414063e-2, 9.5020664e+0, -0.00000005197309, -32126.021, -0.28441137, 0.0, 0.00052551593, 0.0000024659203, 0.0000024659203, 0.0, 0.048828125, 0.047331 
2.4414063e-2, 9.549397e+0, -0.00000021490355, -32112.813, -0.47915643, 0.0, 0.000516355, 0.0000069346097, 0.0000069346097, 0.0, 0.048828125, 0.047331586 
2.4414063e-2, 9.596731e+0, -0.00000002127626, -32047.713, 0.1620609, 0.0, 0.00052681356, 0.0000007982417, 0.0000007982417, 0.0, 0.048828125, 0.047334485 
2.4414063e-2, 9.644066e+0, -0.00000463261, -32031.266, -2.0985756, 0.0, 0.00050126936, 0.00013285865, 0.00013285865, 0.0, 0.048828125, 0.04733522 
2.4414063e-2, 9.6914035e+0, -0.000020054964, -31970.615, -4.6318073, 0.0, 0.00054923777, 0.0006509875, 0.0006509875, 0.0, 0.048828125, 0.047337916 
2.4414063e-2, 9.738741e+0, -0.000007059892, -31962.926, -2.5790982, 0.0, 0.00049032737, 0.00020104834, 0.00020104834, 0.0, 0.048828125, 0.04733826 
2.4414063e-2, 9.7860813e+0, -0.00000010199554, -31892.38, -0.30292213, 0.0, 0.0005456931, 0.0000027752394, 0.0000027752394, 0.0, 0.048828125, 0.0473414 
2.4414063e-2, 9.833423e+0, -0.0000027492588, -31879.383, -1.6509305, 0.0, 0.00050849526, 0.00008274711, 0.00008274711, 0.0, 0.048828125, 0.047341976 
2.4414063e-2, 9.8807657e+0, -0.00006438216, -31814.691, -8.257357, 0.0, 0.0005370733, 0.0020787765, 0.0020787765, 0.0, 0.048828125, 0.04734486 
2.4414063e-2, 9.928111e+0, -0.000001742807, -31805.0, -1.3241117, 0.0, 0.00049352564, 0.00005338286, 0.00005338286, 0.0, 0.048828125, 0.04734529 
2.4414063e-2, 9.9754584e+0, -0.000000038187924, -31735.525, -0.16702117, 0.0, 0.00055016304, 0.0000008408315, 0.0000008408315, 0.0, 0.048828125, 0.047348384 
2.4414063e-2, 1.0022807e+1, -0.000000010449076, -31726.533, -0.026971187, 0.0, 0.00049856777, 0.000000012478267, 0.000000012478267, 0.0, 0.048828125, 0.047348786 
2.4414063e-2, 1.0070158e+1, -0.00000003565452, -31655.133, -0.1519897, 0.0, 0.0005428379, 0.0000006941118, 0.0000006941118, 0.0, 0.048828125, 0.047351968 
2.4414063e-2, 1.011751e+1, -0.0000000107182, -31649.715, -0.007523759, 0.0, 0.0005032969, -0.000000008931238, -0.000000008931238, 0.0, 0.048828125, 0.047352206 
2.4414063e-2, 1.01648636e+1, -0.000000010611323, -31576.668, -0.015173757, 0.0, 0.0005443669, -0.0000000033178367, -0.0000000033178367, 0.0, 0.048828125, 0.047355462 
2.4414063e-2, 1.02122195e+1, -0.000000074885115, -31571.422, -0.26876074, 0.0, 0.00050404633, 0.000002213019, 0.000002213019, 0.0, 0.048828125, 0.047355697 
2.4414063e-2, 1.0259577e+1, -0.0000027939254, -31498.502, -1.6636397, 0.0, 0.00054693903, 0.00008507365, 0.00008507365, 0.0, 0.048828125, 0.047358945 
2.4414063e-2, 1.03069365e+1, -0.00000005311458, -31494.139, -0.22764459, 0.0, 0.0005124455, 0.0000015923324, 0.0000015923324, 0.0, 0.048828125, 0.04735914 
2.4414063e-2, 1.0354297e+1, -0.0000000131753675, -31419.73, -0.054075327, 0.0, 0.00055228197, 0.000000079890015, 0.000000079890015, 0.0, 0.048828125, 0.047362458 
2.4414063e-2, 1.0401659e+1, -0.0000000007239543, -31415.97, -0.06324313, 0.0, 0.00051636324, 0.00000012658711, 0.00000012658711, 0.0, 0.048828125, 0.047362626 
2.4414063e-2, 1.0449024e+1, -0.00000006423783, -31341.596, -0.28313243, 0.0, 0.0005575716, 0.0000024935107, 0.0000024935107, 0.0, 0.048828125, 0.04736594 
2.4414063e-2, 1.04963906e+1, -0.000000014457468, -31337.754, -0.08691657, 0.0, 0.0005351754, 0.0000002266097, 0.0000002266097, 0.0, 0.048828125, 0.047366112 
2.4414063e-2, 1.0543758e+1, -0.000000009322529, -31263.34, -0.03343543, 0.0, 0.0005673896, 0.000000026433554, 0.000000026433554, 0.0, 0.048828125, 0.04736943 
2.4414063e-2, 1.0591128e+1, -0.000000022326082, -31260.03, -0.059933696, 0.0, 0.0005413666, 0.00000009258292, 0.00000009258292, 0.0, 0.048828125, 0.047369577 
2.4414063e-2, 1.0638499e+1, -0.000000010860619, -31184.521, -0.08502652, 0.0, 0.0005793709, 0.00000022097083, 0.00000022097083, 0.0, 0.048828125, 0.04737295 
2.4414063e-2, 1.0685872e+1, -0.00000002186818, -31181.559, -0.050194576, 0.0, 0.0005628888, 0.000000058935257, 0.000000058935257, 0.0, 0.048828125, 0.04737308 
2.4414063e-2, 1.0733247e+1, -0.000000002105912, -31107.014, -0.034551956, 0.0, 0.0005863224, 0.00000003627065, 0.00000003627065, 0.0, 0.048828125, 0.047376405 
2.4414063e-2, 1.07806236e+1, -0.000000007583765, -31102.736, -0.052595146, 0.0, 0.0005790642, 0.00000008135248, 0.00000008135248, 0.0, 0.048828125, 0.047376595 
2.4414063e-2, 1.0828002e+1, 0.000000011662146, -31029.375, -0.071601845, 0.0, 0.00060504733, 0.00000017688944, 0.00000017688944, 0.0, 0.048828125, 0.04737987 
2.4414063e-2, 1.08753815e+1, -0.000000016953534, -31024.424, -0.06661615, 0.0, 0.00058422453, 0.00000012608871, 0.00000012608871, 0.0, 0.048828125, 0.04738009 
2.4414063e-2, 1.09227635e+1, -0.000000007747061, -30951.158, -0.06125762, 0.0, 0.0006105162, 0.000000113494025, 0.000000113494025, 0.0, 0.048828125, 0.04738336 
2.4414063e-2, 1.0970147e+1, -0.000000041906468, -30945.986, -0.07650737, 0.0, 0.0006052841, 0.00000014724355, 0.00000014724355, 0.0, 0.048828125, 0.04738359 
2.4414063e-2, 1.1017533e+1, 0.0000000021918027, -30873.14, -0.027158717, 0.0, 0.0006274214, 0.00000002608067, 0.00000002608067, 0.0, 0.048828125, 0.047386844 
2.4414063e-2, 1.106492e+1, -0.000000017913356, -30866.602, 0.032902703, 0.0, 0.00060129305, 0.000000017160346, 0.000000017160346, 0.0, 0.048828125, 0.047387134 
2.4414063e-2, 1.11123085e+1, 0.000000018810619, -30796.262, -0.009301293, 0.0, 0.00063208636, 0.000000021620508, 0.000000021620508, 0.0, 0.048828125, 0.04739028 
2.4414063e-2, 1.1159699e+1, -0.0000000034615126, -30787.244, -0.048257567, 0.0, 0.00061541924, 0.00000007218114, 0.00000007218114, 0.0, 0.048828125, 0.04739068 
2.4414063e-2, 1.1207091e+1, 0.000000005627691, -30718.988, 0.009703876, 0.0, 0.00064330426, 0.000000008691131, 0.000000008691131, 0.0, 0.048828125, 0.047393728 
2.4414063e-2, 1.1254485e+1, 0.000000028494776, -30709.434, -0.051901173, 0.0, 0.0006083972, 0.000000116211595, 0.000000116211595, 0.0, 0.048828125, 0.047394156 
2.4414063e-2, 1.1301881e+1, -0.00000000257667, -30641.035, 0.03434206, 0.0, 0.0006490932, 0.000000035914127, 0.000000035914127, 0.0, 0.048828125, 0.04739721 
2.4414063e-2, 1.1349279e+1, -0.00000002781186, -30631.229, 0.036924325, 0.0, 0.00061246153, 0.000000016694685, 0.000000016694685, 0.0, 0.048828125, 0.047397647 
2.4414063e-2, 1.1396678e+1, -0.00000002825459, -30562.945, 0.09012983, 0.0, 0.0006409472, 0.00000023753455, 0.00000023753455, 0.0, 0.048828125, 0.0474007 
2.4414063e-2, 1.14440784e+1, -0.0000000425303, -30552.658, -0.1790484, 0.0, 0.0006123923, 0.0000010067488, 0.0000010067488, 0.0, 0.048828125, 0.04740116 
2.4414063e-2, 1.1491482e+1, 0.000000007613461, -30484.93, 0.050805952, 0.0, 0.00065075775, 0.000000092288246, 0.000000092288246, 0.0, 0.048828125, 0.04740419 
2.4414063e-2, 1.1538886e+1, -0.00000001960381, -30474.418, 0.09682957, 0.0, 0.00059981947, 0.0000002880588, 0.0000002880588, 0.0, 0.048828125, 0.047404658 
2.4414063e-2, 1.1586292e+1, -0.00000002030627, -30406.914, 0.11311006, 0.0, 0.00064467784, 0.00000040044688, 0.00000040044688, 0.0, 0.048828125, 0.047407676 
2.4414063e-2, 1.16337e+1, -0.000000012989446, -30395.945, -0.11630149, 0.0, 0.0006018094, 0.00000043200635, 0.00000043200635, 0.0, 0.048828125, 0.047408164 
2.4414063e-2, 1.16811104e+1, -0.000000042887958, -30329.021, 0.084173, 0.0, 0.00064153405, 0.00000019072104, 0.00000019072104, 0.0, 0.048828125, 0.04741116 
2.4414063e-2, 1.17285214e+1, -0.00000003324481, -30317.264, 0.08936361, 0.0, 0.0005941671, 0.00000023016764, 0.00000023016764, 0.0, 0.048828125, 0.047411684 
2.4414063e-2, 1.1775934e+1, -0.00000000803883, -30251.143, -0.021871753, 0.0, 0.00065029727, 0.000000007770723, 0.000000007770723, 0.0, 0.048828125, 0.04741464 
2.4414063e-2, 1.182335e+1, 0.000000003420205, -30239.281, -0.081793204, 0.0, 0.00058742386, 0.00000022465974, 0.00000022465974, 0.0, 0.048828125, 0.04741517 
2.4414063e-2, 1.18707664e+1, -0.000000020216879, -30172.775, 0.09691399, 0.0, 0.0006448036, 0.0000002910674, 0.0000002910674, 0.0, 0.048828125, 0.047418147 
2.4414063e-2, 1.1918185e+1, -0.0000000108427844, -30161.037, -0.027026927, 0.0, 0.0005917914, 0.000000013376848, 0.000000013376848, 0.0, 0.048828125, 0.047418673 
2.4414063e-2, 1.1965605e+1, -0.00000000895388, -30095.41, -0.06113392, 0.0, 0.0006475884, 0.00000011523298, 0.00000011523298, 0.0, 0.048828125, 0.047421608 
2.4414063e-2, 1.2013027e+1, 0.000000003210592, -30081.113, -0.07495673, 0.0, 0.0005910785, 0.0000001899898, 0.0000001899898, 0.0, 0.048828125, 0.04742225 
2.4414063e-2, 1.2060451e+1, -0.000000016201344, -30019.078, -0.017742038, 0.0, 0.0006500129, -0.0000000057152647, -0.0000000057152647, 0.0, 0.048828125, 0.047425024 
2.4414063e-2, 1.2107877e+1, -0.000000020922503, -30001.527, -0.12274027, 0.0, 0.000599249, 0.00000048122456, 0.00000048122456, 0.0, 0.048828125, 0.04742581 
2.4414063e-2, 1.2155304e+1, -0.000000014417909, -29941.342, -0.10063267, 0.0, 0.0006466808, 0.00000032380558, 0.00000032380558, 0.0, 0.048828125, 0.047428504 
2.4414063e-2, 1.2202733e+1, -0.000000012275936, -29923.443, -0.1253537, 0.0, 0.000609558, 0.0000005128495, 0.0000005128495, 0.0, 0.048828125, 0.047429305 
2.4414063e-2, 1.22501634e+1, -0.000000038001357, -29863.295, -0.18609358, 0.0, 0.0006607946, 0.0000011216434, 0.0000011216434, 0.0, 0.048828125, 0.047431998 
2.4414063e-2, 1.2297596e+1, -0.000000018800709, -29845.457, -0.15918075, 0.0, 0.0006224768, 0.0000008301904, 0.0000008301904, 0.0, 0.048828125, 0.047432795 
2.4414063e-2, 1.234503e+1, -0.0000000065804118, -29785.13, 0.009239686, 0.0, 0.0006562218, -0.0000000037180143, -0.0000000037180143, 0.0, 0.048828125, 0.0474355 
2.4414063e-2, 1.23924665e+1, -0.00000011885606, -29766.855, -0.3306956, 0.0, 0.00063663337, 0.0000035550147, 0.0000035550147, 0.0, 0.048828125, 0.047436316 
2.4414063e-2, 1.24399036e+1, -0.000000035710908, -29708.018, -0.121766016, 0.0, 0.0006634251, 0.00000046337664, 0.00000046337664, 0.0, 0.048828125, 0.047438953 
2.4414063e-2, 1.2487344e+1, 0.0000000013128146, -29687.377, -0.11299283, 0.0, 0.0006484545, 0.00000043137334, 0.00000043137334, 0.0, 0.048828125, 0.047439877 
2.4414063e-2, 1.2534784e+1, -0.00000001661127, -29631.004, -0.110516116, 0.0, 0.0006746671, 0.00000039558654, 0.00000039558654, 0.0, 0.048828125, 0.047442403 
2.4414063e-2, 1.2582228e+1, -0.00000009210155, -29608.293, -0.23880135, 0.0, 0.0006689338, 0.000001833916, 0.000001833916, 0.0, 0.048828125, 0.04744342 
2.4414063e-2, 1.2629671e+1, -0.000000040660204, -29553.803, -0.112826385, 0.0, 0.000675391, 0.00000039007136, 0.00000039007136, 0.0, 0.048828125, 0.047445863 
2.4414063e-2, 1.267712e+1, -0.000000035106424, -29529.338, -0.15294376, 0.0, 0.0006731843, 0.0000007570452, 0.0000007570452, 0.0, 0.048828125, 0.04744696 
2.4414063e-2, 1.2724566e+1, -0.0000000065405636, -29476.59, -0.06017529, 0.0, 0.0006868884, 0.000000116302544, 0.000000116302544, 0.0, 0.048828125, 0.047449324 
2.4414063e-2, 1.2772018e+1, -0.00000003372258, -29450.121, -0.11229832, 0.0, 0.0007097227, 0.0000003944915, 0.0000003944915, 0.0, 0.048828125, 0.04745051 
2.4414063e-2, 1.2819469e+1, -0.00000004510675, -29400.264, -0.13225557, 0.0, 0.0006784721, 0.00000054983684, 0.00000054983684, 0.0, 0.048828125, 0.047452744 
2.4414063e-2, 1.2866922e+1, -0.00000003699847, -29370.158, -0.15903068, 0.0, 0.0006752178, 0.0000008241077, 0.0000008241077, 0.0, 0.048828125, 0.047454093 
2.4414063e-2, 1.2914377e+1, -0.000000018785345, -29325.28, -0.03965604, 0.0, 0.0006993086, 0.000000034840923, 0.000000034840923, 0.0, 0.048828125, 0.047456108 
2.4414063e-2, 1.2961835e+1, -0.00000007282168, -29291.252, -0.23483053, 0.0, 0.00076267787, 0.0000018098326, 0.0000018098326, 0.0, 0.048828125, 0.04745763 
2.4414063e-2, 1.3009292e+1, -0.000000014478601, -29248.785, -0.077929184, 0.0, 0.00066815916, 0.00000019315485, 0.00000019315485, 0.0, 0.048828125, 0.047459535 
2.4414063e-2, 1.3056754e+1, -0.000000013669833, -29211.76, -0.028220044, 0.0, 0.00065933337, 0.000000013587851, 0.000000013587851, 0.0, 0.048828125, 0.047461197 
2.4414063e-2, 1.3104215e+1, 0.000000012995538, -29170.086, 0.055400353, 0.0, 0.0007159051, 0.00000011821248, 0.00000011821248, 0.0, 0.048828125, 0.047463067 
2.4414063e-2, 1.315168e+1, -0.00000017906683, -29133.857, -0.44601864, 0.0, 0.0008196175, 0.0000066491593, 0.0000066491593, 0.0, 0.048828125, 0.047464695 
2.4414063e-2, 1.3199145e+1, 0.000000004072293, -29091.615, 0.05211133, 0.0, 0.0006582688, 0.0000000974178, 0.0000000974178, 0.0, 0.048828125, 0.047466587 
2.4414063e-2, 1.3246614e+1, -0.000000039959914, -29055.854, 0.22240743, 0.0, 0.0006241698, 0.0000016624508, 0.0000016624508, 0.0, 0.048828125, 0.047468193 
2.4414063e-2, 1.3294081e+1, -0.0000000011773595, -29013.686, 0.030907314, 0.0, 0.0007208115, 0.00000003174864, 0.00000003174864, 0.0, 0.048828125, 0.047470085 
2.4414063e-2, 1.3341554e+1, -0.00000017221004, -28977.025, -0.41842195, 0.0, 0.0008688236, 0.0000058697115, 0.0000058697115, 0.0, 0.048828125, 0.047471732 
2.4414063e-2, 1.3389026e+1, -0.00000003724463, -28937.574, 0.09656875, 0.0, 0.0006610748, 0.00000028501745, 0.00000028501745, 0.0, 0.048828125, 0.0474735 
2.4414063e-2, 1.34365e+1, -0.00000019839189, -28897.281, 0.44037768, 0.0, 0.00058368495, 0.000006512706, 0.000006512706, 0.0, 0.048828125, 0.047475312 
2.4414063e-2, 1.3483976e+1, -0.0000000014075501, -28859.451, 0.02173236, 0.0, 0.00072816317, 0.000000014959369, 0.000000014959369, 0.0, 0.048828125, 0.04747701 
2.4414063e-2, 1.3531455e+1, -0.00000040068397, -28817.518, -0.64669573, 0.0, 0.0008931099, 0.000014111854, 0.000014111854, 0.0, 0.048828125, 0.047478892 
2.4414063e-2, 1.3578933e+1, -0.000000025658958, -28784.324, 0.12297644, 0.0, 0.0006723633, 0.00000049973823, 0.00000049973823, 0.0, 0.048828125, 0.047480382 
2.4414063e-2, 1.3626416e+1, -0.0000006628431, -28738.09, 0.8301655, 0.0, 0.00059171376, 0.000023318386, 0.000023318386, 0.0, 0.048828125, 0.04748246 
2.4414063e-2, 1.3673899e+1, -0.00000002247959, -28704.902, 0.11611059, 0.0, 0.00073849503, 0.00000044718763, 0.00000044718763, 0.0, 0.048828125, 0.04748395 
2.4414063e-2, 1.3721384e+1, -0.000001020053, -28658.889, -1.0044658, 0.0, 0.00083947537, 0.000034185487, 0.000034185487, 0.0, 0.048828125, 0.04748602 
2.4414063e-2, 1.376887e+1, -0.000000039335102, -28630.15, 0.07072774, 0.0, 0.00067130185, 0.00000013539466, 0.00000013539466, 0.0, 0.048828125, 0.04748731 
2.4414063e-2, 1.381636e+1, -0.00000082318445, -28580.018, 0.90656275, 0.0, 0.00068967155, 0.000027933133, 0.000027933133, 0.0, 0.048828125, 0.04748956 
2.4414063e-2, 1.386385e+1, -0.000000041493728, -28549.75, 0.19771759, 0.0, 0.0007654243, 0.0000013277713, 0.0000013277713, 0.0, 0.048828125, 0.04749092 
2.4414063e-2, 1.3911343e+1, -0.0000005190968, -28501.48, -0.70553213, 0.0, 0.00071454013, 0.000016945807, 0.000016945807, 0.0, 0.048828125, 0.047493093 
2.4414063e-2, 1.3958836e+1, -0.000000037306467, -28474.176, 0.14509761, 0.0, 0.0006803456, 0.0000007020717, 0.0000007020717, 0.0, 0.048828125, 0.04749432 
2.4414063e-2, 1.4006332e+1, -0.00000021029234, -28422.17, 0.43778712, 0.0, 0.0008147328, 0.0000065329477, 0.0000065329477, 0.0, 0.048828125, 0.047496658 
2.4414063e-2, 1.4053828e+1, -0.000000020806269, -28395.455, -0.04643404, 0.0, 0.00075802446, 0.000000055126293, 0.000000055126293, 0.0, 0.048828125, 0.047497857 
2.4414063e-2, 1.4101328e+1, -0.000000050068845, -28344.738, -0.11434357, 0.0, 0.00064870645, 0.0000004111971, 0.0000004111971, 0.0, 0.048828125, 0.047500137 
2.4414063e-2, 1.4148828e+1, -0.00000012974006, -28317.027, 0.32815713, 0.0, 0.00076940603, 0.000003673169, 0.000003673169, 0.0, 0.048828125, 0.047501385 
2.4414063e-2, 1.419633e+1, -0.00000015109703, -28265.756, -0.35088766, 0.0, 0.0007898208, 0.000004204783, 0.000004204783, 0.0, 0.048828125, 0.04750369 
2.4414063e-2, 1.4243835e+1, -0.000000098031116, -28239.703, -0.26980513, 0.0, 0.00064663263, 0.0000024797155, 0.0000024797155, 0.0, 0.048828125, 0.047504865 
2.4414063e-2, 1.4291342e+1, -0.00000007629037, -28187.64, 0.2665891, 0.0, 0.00080276455, 0.0000024450164, 0.0000024450164, 0.0, 0.048828125, 0.047507204 
2.4414063e-2, 1.433885e+1, -0.00000006139627, -28161.068, 0.13485023, 0.0, 0.00096126075, 0.00000058433943, 0.00000058433943, 0.0, 0.048828125, 0.0475084 
2.4414063e-2, 1.4386359e+1, -0.00000009889671, -28107.88, -0.24998012, 0.0, 0.0005695394, 0.000002124325, 0.000002124325, 0.0, 0.048828125, 0.047510795 
2.4414063e-2, 1.443387e+1, -0.000000060552146, -28085.36, 0.18585001, 0.0, 0.00050617167, 0.0000011692828, 0.0000011692828, 0.0, 0.048828125, 0.04751181 
2.4414063e-2, 1.4481384e+1, -0.00000046658408, -28026.512, -0.6744827, 0.0, 0.0010626457, 0.000015765436, 0.000015765436, 0.0, 0.048828125, 0.047514457 
2.4414063e-2, 1.4528899e+1, -0.0000005464715, -28009.25, -0.7402522, 0.0, 0.0010412165, 0.000019017541, 0.000019017541, 0.0, 0.048828125, 0.047515232 
2.4414063e-2, 1.4576416e+1, -0.0000005038901, -27950.107, 0.7009757, 0.0, 0.0004488767, 0.000017076258, 0.000017076258, 0.0, 0.048828125, 0.047517896 
2.4414063e-2, 1.4623934e+1, -0.00000045936017, -27930.79, 0.66910523, 0.0, 0.000603752, 0.000015569614, 0.000015569614, 0.0, 0.048828125, 0.047518764 
2.4414063e-2, 1.4671454e+1, -0.0000009670921, -27869.441, -0.9898295, 0.0, 0.0010549149, 0.000034188346, 0.000034188346, 0.0, 0.048828125, 0.047521528 
2.4414063e-2, 1.4718977e+1, -0.00000039422147, -27857.637, -0.61137897, 0.0, 0.0008716724, 0.000013023437, 0.000013023437, 0.0, 0.048828125, 0.047522057 
2.4414063e-2, 1.47665e+1, -0.00000016806563, -27791.465, 0.35419002, 0.0, 0.00066087814, 0.0000043459295, 0.0000043459295, 0.0, 0.048828125, 0.047525037 
2.4414063e-2, 1.4814025e+1, -0.000000012129477, -27778.824, 0.03649494, 0.0, 0.00078468275, 0.00000003581954, 0.00000003581954, 0.0, 0.048828125, 0.047525607 
2.4414063e-2, 1.4861552e+1, -0.00000016578777, -27712.018, -0.3636337, 0.0, 0.00086943054, 0.000004605772, 0.000004605772, 0.0, 0.048828125, 0.047528617 
2.4414063e-2, 1.4909081e+1, -0.00000017520505, -27701.785, -0.40011212, 0.0, 0.0008123862, 0.0000056038334, 0.0000056038334, 0.0, 0.048828125, 0.04752908 
2.4414063e-2, 1.4956613e+1, -0.000000035355324, -27634.205, -0.0000102004105, 0.0, 0.0008111313, -0.000000035353878, -0.000000035353878, 0.0, 0.048828125, 0.047532123 
2.4414063e-2, 1.5004145e+1, -0.000001276481, -27625.172, 1.1329079, 0.0, 0.000831231, 0.000045184057, 0.000045184057, 0.0, 0.048828125, 0.04753253 
2.4414063e-2, 1.505168e+1, -0.00000030592423, -27551.078, -0.525051, 0.0, 0.00088684715, 0.000009700165, 0.000009700165, 0.0, 0.048828125, 0.04753587 
2.4414063e-2, 1.5099214e+1, -0.000001157097, -27549.865, -1.0635766, 0.0, 0.0007130026, 0.000039902814, 0.000039902814, 0.0, 0.048828125, 0.047535922 
2.4414063e-2, 1.5146752e+1, -0.0000010755407, -27475.244, 0.999341, 0.0, 0.0008293295, 0.000035272908, 0.000035272908, 0.0, 0.048828125, 0.047539286 
2.4414063e-2, 1.5194292e+1, -0.00000032453238, -27468.098, -0.5470287, 0.0, 0.0010285693, 0.000010569573, 0.000010569573, 0.0, 0.048828125, 0.04753961 
2.4414063e-2, 1.5241833e+1, -0.0000023356188, -27400.162, -1.4579766, 0.0, 0.00082225, 0.000075244054, 0.000075244054, 0.0, 0.048828125, 0.047542673 
2.4414063e-2, 1.5289377e+1, -0.0000012032809, -27389.213, 1.0975724, 0.0, 0.0006333016, 0.00004277992, 0.00004277992, 0.0, 0.048828125, 0.047543164 
2.4414063e-2, 1.5336922e+1, -0.000016636362, -27311.701, -4.122735, 0.0, 0.0009636288, 0.00060569553, 0.00060569553, 0.0, 0.048828125, 0.047546662 
2.4414063e-2, 1.5384468e+1, -0.00024124968, -27315.309, -15.879169, 0.0, 0.0009087334, 0.008989762, 0.008989762, 0.0, 0.048828125, 0.0475465 
2.4414063e-2, 1.5432017e+1, -0.000012960238, -27245.525, -3.7691064, 0.0, 0.00079379114, 0.0005084524, 0.0005084524, 0.0, 0.048828125, 0.047549646 
2.4414063e-2, 1.5479566e+1, -0.000000099293814, -27238.37, 0.22428435, 0.0, 0.0008701739, 0.0000017474922, 0.0000017474922, 0.0, 0.048828125, 0.047549967 
2.4414063e-2, 1.5527117e+1, -0.00000013469342, -27158.813, -0.3361567, 0.0, 0.00092453725, 0.0000040260675, 0.0000040260675, 0.0, 0.048828125, 0.047553558 
2.4414063e-2, 1.5574671e+1, -0.000000054987584, -27161.82, -0.21303771, 0.0, 0.0007299067, 0.0000016159283, 0.0000016159283, 0.0, 0.048828125, 0.04755342 
2.4414063e-2, 1.5622227e+1, -0.00000004029987, -27080.385, -0.12634842, 0.0, 0.0008882557, 0.0000005492002, 0.0000005492002, 0.0, 0.048828125, 0.047557097 
2.4414063e-2, 1.5669784e+1, -0.000000035822097, -27082.025, -0.10986923, 0.0, 0.00091870164, 0.00000040990562, 0.00000040990562, 0.0, 0.048828125, 0.047557022 
2.4414063e-2, 1.5717342e+1, -0.000000020452697, -27003.914, 0.13541284, 0.0, 0.0008511064, 0.00000065858694, 0.00000065858694, 0.0, 0.048828125, 0.047560547 
2.4414063e-2, 1.5764903e+1, -0.000000026973296, -27002.01, 0.103634685, 0.0, 0.0008096333, 0.0000003707828, 0.0000003707828, 0.0, 0.048828125, 0.047560632 
2.4414063e-2, 1.5812466e+1, -0.00000054797414, -26927.107, -0.724114, 0.0, 0.0009386568, 0.000018924638, 0.000018924638, 0.0, 0.048828125, 0.047564015 
2.4414063e-2, 1.586003e+1, -0.000000039855607, -26923.518, -0.038843095, 0.0, 0.0007875689, 0.000000016185368, 0.000000016185368, 0.0, 0.048828125, 0.04756418 
2.4414063e-2, 1.5907596e+1, -0.000000045717453, -26849.447, 0.17003919, 0.0, 0.000869319, 0.0000010311524, 0.0000010311524, 0.0, 0.048828125, 0.04756752 
2.4414063e-2, 1.5955164e+1, -0.00000015042187, -26843.715, -0.34637997, 0.0, 0.0009039094, 0.0000043191176, 0.0000043191176, 0.0, 0.048828125, 0.04756778 
2.4414063e-2, 1.6002733e+1, -0.0000002274032, -26772.574, -0.48348907, 0.0, 0.0008634556, 0.000008503983, 0.000008503983, 0.0, 0.048828125, 0.047570992 
2.4414063e-2, 1.6050304e+1, -0.00000012852408, -26765.215, -0.334231, 0.0, 0.0008324141, 0.0000040451923, 0.0000040451923, 0.0, 0.048828125, 0.047571328 
2.4414063e-2, 1.6097878e+1, -0.00000016378361, -26694.822, -0.3776019, 0.0, 0.0009303925, 0.0000051774514, 0.0000051774514, 0.0, 0.048828125, 0.047574505 
2.4414063e-2, 1.6145453e+1, -0.00000024369317, -26687.006, 0.48395807, 0.0, 0.0008126988, 0.00000853269, 0.00000853269, 0.0, 0.048828125, 0.04757486 
2.4414063e-2, 1.6193028e+1, -0.000000118450586, -26616.18, 0.2970559, 0.0, 0.00088043243, 0.0000031969103, 0.0000031969103, 0.0, 0.048828125, 0.04757806 
2.4414063e-2, 1.6240606e+1, -0.00000021856724, -26607.383, -0.43634918, 0.0, 0.00090202095, 0.0000069373673, 0.0000069373673, 0.0, 0.048828125, 0.047578458 
2.4414063e-2, 1.6288187e+1, -0.00000006325782, -26540.373, 0.23069268, 0.0, 0.0008533504, 0.0000019419567, 0.0000019419567, 0.0, 0.048828125, 0.047581486 
2.4414063e-2, 1.6335769e+1, -0.00000010341201, -26528.066, 0.30937585, 0.0, 0.00087665656, 0.0000035045923, 0.0000035045923, 0.0, 0.048828125, 0.04758204 
2.4414063e-2, 1.6383353e+1, -0.0000016145748, -26465.668, 1.2204095, 0.0, 0.00094831944, 0.000054662087, 0.000054662087, 0.0, 0.048828125, 0.04758486 
2.4414063e-2, 1.6430937e+1, -0.00018271357, -26450.113, -13.810824, 0.0, 0.0008239746, 0.0070285527, 0.0070285527, 0.0, 0.048828125, 0.047585566 
2.4414063e-2, 1.6478525e+1, -0.00000998546, -26381.678, 3.2390018, 0.0, 0.00089101645, 0.00038768188, 0.00038768188, 0.0, 0.048828125, 0.047588658 
2.4414063e-2, 1.6526113e+1, -0.000000013521476, -26370.348, 0.04187347, 0.0, 0.0009287135, 0.00000005296897, 0.00000005296897, 0.0, 0.048828125, 0.04758917 
2.4414063e-2, 1.6573703e+1, -0.000011292935, -26314.951, 3.57567, 0.0, 0.00086294307, 0.00047456834, 0.00047456834, 0.0, 0.048828125, 0.047591675 
2.4414063e-2, 1.6621296e+1, -0.000548756, -26289.377, -23.930367, 0.0, 0.00090767146, 0.021234263, 0.021234263, 0.0, 0.048828125, 0.047592834 
2.4414063e-2, 1.666889e+1, -0.000010224536, -26227.355, 3.446207, 0.0, 0.000947697, 0.00044259822, 0.00044259822, 0.0, 0.048828125, 0.04759564 
2.4414063e-2, 1.6716488e+1, -0.00000031002088, -26209.66, 0.54845446, 0.0, 0.0008720522, 0.0000111667505, 0.0000111667505, 0.0, 0.048828125, 0.04759644 
2.4414063e-2, 1.6764084e+1, -0.000000035777074, -26155.938, 0.12490332, 0.0, 0.00091088633, 0.000000560678, 0.000000560678, 0.0, 0.048828125, 0.04759887 
2.4414063e-2, 1.6811684e+1, -0.00000004612946, -26129.273, -0.14894475, 0.0, 0.00093806436, 0.0000008028983, 0.0000008028983, 0.0, 0.048828125, 0.047600076 
2.4414063e-2, 1.6859286e+1, -0.00000010990564, -26081.115, 0.21374556, 0.0, 0.0008878497, 0.0000016418271, 0.0000016418271, 0.0, 0.048828125, 0.047602255 
2.4414063e-2, 1.6906889e+1, -0.000000003533933, -26048.62, 0.034231704, 0.0, 0.0009390177, 0.00000004145477, 0.00000004145477, 0.0, 0.048828125, 0.047603726 
2.4414063e-2, 1.6954492e+1, -0.00000021968458, -26005.418, -0.43174854, 0.0, 0.00093043386, 0.0000069483176, 0.0000069483176, 0.0, 0.048828125, 0.047605682 
2.4414063e-2, 1.70021e+1, -0.00000006632794, -25969.063, 0.20621406, 0.0, 0.00091471954, 0.0000015711666, 0.0000015711666, 0.0, 0.048828125, 0.04760733 
2.4414063e-2, 1.7049707e+1, 0.0000000029396203, -25928.602, 0.03784751, 0.0, 0.0009428135, 0.000000058185833, 0.000000058185833, 0.0, 0.048828125, 0.047609158 
2.4414063e-2, 1.7097318e+1, -0.00000006473747, -25889.35, -0.18348907, 0.0, 0.00095457764, 0.0000012357268, 0.0000012357268, 0.0, 0.048828125, 0.04761094 
2.4414063e-2, 1.714493e+1, -0.00000017727986, -25852.236, 0.3581928, 0.0, 0.00087858364, 0.000004785623, 0.000004785623, 0.0, 0.048828125, 0.04761262 
2.4414063e-2, 1.7192546e+1, -0.000000023929514, -25809.635, -0.07411172, 0.0, 0.0009627366, 0.00000018888022, 0.00000018888022, 0.0, 0.048828125, 0.04761455 
2.4414063e-2, 1.724016e+1, -0.000000036722486, -25774.82, -0.07598442, 0.0, 0.0009593458, 0.00000018727951, 0.00000018727951, 0.0, 0.048828125, 0.047616124 
2.4414063e-2, 1.7287777e+1, -0.0000003030078, -25732.395, 0.56012946, 0.0, 0.00093504717, 0.000011889599, 0.000011889599, 0.0, 0.048828125, 0.047618046 
2.4414063e-2, 1.7335396e+1, -0.000000060667915, -25696.213, -0.0668985, 0.0, 0.0009306756, 0.0000001135013, 0.0000001135013, 0.0, 0.048828125, 0.047619686 
2.4414063e-2, 1.7383017e+1, -0.0000019308252, -25657.18, 1.3504194, 0.0, 0.00095810305, 0.00006914606, 0.00006914606, 0.0, 0.048828125, 0.04762145 
2.4414063e-2, 1.7430638e+1, -0.00010413052, -25616.934, -10.419812, 0.0, 0.00094343815, 0.004134178, 0.004134178, 0.0, 0.048828125, 0.047623277 
2.4414063e-2, 1.7478263e+1, -0.0000029403839, -25573.553, 1.6564306, 0.0, 0.0009493698, 0.000104348655, 0.000104348655, 0.0, 0.048828125, 0.047625244 
2.4414063e-2, 1.7525889e+1, -0.00000010099943, -25541.805, 0.2910537, 0.0, 0.0009540338, 0.0000032156095, 0.0000032156095, 0.0, 0.048828125, 0.04762668 
2.4414063e-2, 1.7573518e+1, -0.0000001240801, -25494.166, 0.32839718, 0.0, 0.0009670458, 0.000004106092, 0.000004106092, 0.0, 0.048828125, 0.047628842 
2.4414063e-2, 1.7621145e+1, -0.0000006995785, -25465.463, -0.8060005, 0.0, 0.00094097934, 0.000024810925, 0.000024810925, 0.0, 0.048828125, 0.047630142 
2.4414063e-2, 1.7668778e+1, -0.00000006243559, -25415.201, -0.15419166, 0.0, 0.000916506, 0.00000087303124, 0.00000087303124, 0.0, 0.048828125, 0.047632422 
2.4414063e-2, 1.771641e+1, -0.00000059134084, -25389.725, 0.74739826, 0.0, 0.0010201707, 0.000021409847, 0.000021409847, 0.0, 0.048828125, 0.047633577 
2.4414063e-2, 1.7764045e+1, -0.000000038457966, -25334.564, 0.14433648, 0.0, 0.0010227179, 0.00000078386074, 0.00000078386074, 0.0, 0.048828125, 0.047636077 
2.4414063e-2, 1.7811681e+1, -0.00000066321945, -25311.725, -0.7951617, 0.0, 0.0008654793, 0.000024316596, 0.000024316596, 0.0, 0.048828125, 0.047637112 
2.4414063e-2, 1.7859322e+1, -0.000000013770077, -25256.543, -0.029167337, 0.0, 0.0008610355, 0.000000019914296, 0.000000019914296, 0.0, 0.048828125, 0.047639616 
2.4414063e-2, 1.7906961e+1, -0.0000006969953, -25236.496, 0.80634373, 0.0, 0.0011421944, 0.000025066889, 0.000025066889, 0.0, 0.048828125, 0.047640525 
2.4414063e-2, 1.7954603e+1, -0.00000008808281, -25175.553, 0.2424422, 0.0, 0.0010989784, 0.0000022466484, 0.0000022466484, 0.0, 0.048828125, 0.047643293 
2.4414063e-2, 1.8002246e+1, -0.00000048869185, -25157.695, -0.69568396, 0.0, 0.00076722814, 0.000018749004, 0.000018749004, 0.0, 0.048828125, 0.0476441 
2.4414063e-2, 1.8049893e+1, -0.00000031158228, -25098.467, -0.50497985, 0.0, 0.00080861716, 0.000009848587, 0.000009848587, 0.0, 0.048828125, 0.04764679 
2.4414063e-2, 1.8097539e+1, -0.00000055013004, -25082.656, 0.7109532, 0.0, 0.0012385547, 0.000019601419, 0.000019601419, 0.0, 0.048828125, 0.047647506 
2.4414063e-2, 1.8145189e+1, -0.0000004551912, -25016.508, 0.6595725, 0.0, 0.0011543575, 0.000016934762, 0.000016934762, 0.0, 0.048828125, 0.04765051 
2.4414063e-2, 1.8192838e+1, -0.0000007272134, -25004.12, -0.8342116, 0.0, 0.00072582206, 0.000027104557, 0.000027104557, 0.0, 0.048828125, 0.04765107 
2.4414063e-2, 1.8240492e+1, -0.00000031190515, -24939.514, -0.4798465, 0.0, 0.00082750403, 0.000008920539, 0.000008920539, 0.0, 0.048828125, 0.047654003 
2.4414063e-2, 1.8288147e+1, -0.000000100654674, -24927.688, 0.17970844, 0.0, 0.0012487535, 0.0000011948978, 0.0000011948978, 0.0, 0.048828125, 0.04765454 
2.4414063e-2, 1.8335801e+1, -0.0000003134339, -24859.424, 0.5086196, 0.0, 0.001046213, 0.000010092841, 0.000010092841, 0.0, 0.048828125, 0.047657643 
2.4414063e-2, 1.8383461e+1, -0.0000004707425, -24848.535, -0.67145246, 0.0, 0.0008117193, 0.000017673116, 0.000017673116, 0.0, 0.048828125, 0.047658134 
2.4414063e-2, 1.843112e+1, -0.00000014541342, -24782.371, -0.31476665, 0.0, 0.001098135, 0.0000038525104, 0.0000038525104, 0.0, 0.048828125, 0.04766114 
2.4414063e-2, 1.8478782e+1, -0.0000002399447, -24771.91, -0.3974228, 0.0, 0.0010777778, 0.000006136019, 0.000006136019, 0.0, 0.048828125, 0.047661617 
2.4414063e-2, 1.8526445e+1, -0.0000004267748, -24703.693, 0.6341251, 0.0, 0.0006854036, 0.000015850736, 0.000015850736, 0.0, 0.048828125, 0.047664713 
2.4414063e-2, 1.857411e+1, -0.00000031385926, -24691.695, -0.5193204, 0.0, 0.001079953, 0.000010608586, 0.000010608586, 0.0, 0.048828125, 0.04766526 
2.4414063e-2, 1.8621777e+1, -0.0000012600811, -24625.898, -1.0889549, 0.0, 0.0014705679, 0.00004689341, 0.00004689341, 0.0, 0.048828125, 0.04766825 
2.4414063e-2, 1.8669444e+1, -0.00000066540656, -24617.451, 0.76591027, 0.0, 0.0007992412, 0.000023163968, 0.000023163968, 0.0, 0.048828125, 0.047668632 
2.4414063e-2, 1.8717116e+1, -0.00000256947, -24546.021, 1.5596268, 0.0, 0.00050377107, 0.00009652748, 0.00009652748, 0.0, 0.048828125, 0.04767188 
2.4414063e-2, 1.8764788e+1, -0.0000007719529, -24534.75, -0.831962, 0.0, 0.0012912692, 0.000027439492, 0.000027439492, 0.0, 0.048828125, 0.04767239 
2.4414063e-2, 1.8812461e+1, -0.0000023471193, -24470.268, -1.4765944, 0.0, 0.0014024974, 0.000086754124, 0.000086754124, 0.0, 0.048828125, 0.047675323 
2.4414063e-2, 1.8860137e+1, -0.0000005001829, -24460.055, 0.6317111, 0.0, 0.0007287832, 0.000015814538, 0.000015814538, 0.0, 0.048828125, 0.04767579 
2.4414063e-2, 1.8907815e+1, -0.000000661958, -24389.95, 0.797126, 0.0, 0.00085990597, 0.000025390156, 0.000025390156, 0.0, 0.048828125, 0.047678977 
2.4414063e-2, 1.8955494e+1, -0.00000031813806, -24379.057, -0.48478636, 0.0, 0.0011928075, 0.000009322015, 0.000009322015, 0.0, 0.048828125, 0.047679473 
2.4414063e-2, 1.9003175e+1, -0.00000011968524, -24315.205, 0.24111101, 0.0, 0.0009835169, 0.0000022711865, 0.0000022711865, 0.0, 0.048828125, 0.047682375 
2.4414063e-2, 1.9050857e+1, -0.00000007514913, -24299.805, -0.107909255, 0.0, 0.0009640164, 0.00000040404848, 0.00000040404848, 0.0, 0.048828125, 0.047683075 
2.4414063e-2, 1.9098543e+1, -0.0000015226885, -24235.525, -1.186483, 0.0, 0.0011393336, 0.0000565632, 0.0000565632, 0.0, 0.048828125, 0.047686 
2.4414063e-2, 1.914623e+1, -0.00000012261079, -24225.03, 0.20014276, 0.0, 0.0009217637, 0.0000015309306, 0.0000015309306, 0.0, 0.048828125, 0.047686476 
2.4414063e-2, 1.9193916e+1, -0.0000017617583, -24157.6, 1.2962435, 0.0, 0.0010804429, 0.000067791814, 0.000067791814, 0.0, 0.048828125, 0.047689546 
2.4414063e-2, 1.9241607e+1, -0.00000024832084, -24141.795, -0.43345392, 0.0, 0.0011262384, 0.000007534127, 0.000007534127, 0.0, 0.048828125, 0.047690265 
2.4414063e-2, 1.9289298e+1, -0.00000015777191, -24083.256, -0.34915385, 0.0, 0.00082180457, 0.0000049041846, 0.0000049041846, 0.0, 0.048828125, 0.04769293 
2.4414063e-2, 1.9336993e+1, -0.00000034531163, -24063.63, 0.5023712, 0.0, 0.0009717037, 0.000010142579, 0.000010142579, 0.0, 0.048828125, 0.047693823 
2.4414063e-2, 1.9384688e+1, -0.0000012672629, -24002.898, -1.0994966, 0.0, 0.0013736482, 0.000049097187, 0.000049097187, 0.0, 0.048828125, 0.047696587 
2.4414063e-2, 1.9432384e+1, -0.000000104553635, -23986.848, -0.30063578, 0.0, 0.0008906339, 0.0000036634265, 0.0000036634265, 0.0, 0.048828125, 0.047697317 
2.4414063e-2, 1.9480084e+1, -0.000004754505, -23928.682, 2.0546958, 0.0, 0.00095534, 0.00017167706, 0.00017167706, 0.0, 0.048828125, 0.047699966 
2.4414063e-2, 1.9527784e+1, -0.000000100427954, -23902.514, -0.11070505, 0.0, 0.001223103, 0.00000041230305, 0.00000041230305, 0.0, 0.048828125, 0.047701158 
2.4414063e-2, 1.9575486e+1, -0.0000039485535, -23851.256, -1.8759625, 0.0, 0.0008873289, 0.0001436007, 0.0001436007, 0.0, 0.048828125, 0.04770349 
2.4414063e-2, 1.962319e+1, -0.0000070159, -23827.01, -2.4471102, 0.0, 0.00088455126, 0.00024431018, 0.00024431018, 0.0, 0.048828125, 0.047704596 
2.4414063e-2, 1.9670896e+1, -0.0000003423408, -23772.273, -0.508607, 0.0, 0.0014489618, 0.000010539286, 0.000010539286, 0.0, 0.048828125, 0.04770709 
2.4414063e-2, 1.9718604e+1, -0.000000045752792, -23748.879, -0.044221163, 0.0, 0.0009457023, 0.00000003659079, 0.00000003659079, 0.0, 0.048828125, 0.047708154 
2.4414063e-2, 1.9766313e+1, -0.0000010052714, -23693.615, -0.95652527, 0.0, 0.0009117586, 0.000037610218, 0.000037610218, 0.0, 0.048828125, 0.047710672 
2.4414063e-2, 1.9814023e+1, -0.0000022810189, -23670.924, -1.4362549, 0.0, 0.0012547099, 0.00008486504, 0.00008486504, 0.0, 0.048828125, 0.047711708 
2.4414063e-2, 1.9861738e+1, -0.000007955272, -23620.502, 2.6127915, 0.0, 0.00097127125, 0.00028105974, 0.00028105974, 0.0, 0.048828125, 0.047714002 
2.4414063e-2, 1.9909452e+1, -0.0000018026491, -23586.494, 1.2716813, 0.0, 0.00080401346, 0.000066760884, 0.000066760884, 0.0, 0.048828125, 0.047715552 
2.4414063e-2, 1.9957168e+1, -0.000007944515, -23538.133, -2.9961333, 0.0, 0.001438118, 0.00037342875, 0.00037342875, 0.0, 0.048828125, 0.047717758 
2.4414063e-2, 2.0004888e+1, -0.00000067715933, -23516.848, 0.80089515, 0.0, 0.0012508632, 0.00002659831, 0.00002659831, 0.0, 0.048828125, 0.04771873 
2.4414063e-2, 2.0052606e+1, -0.00000054728457, -23458.826, 0.6797587, 0.0, 0.00076941325, 0.000019149866, 0.000019149866, 0.0, 0.048828125, 0.047721375 
2.4414063e-2, 2.010033e+1, -0.0000034396712, -23435.857, -1.7475365, 0.0, 0.000709824, 0.00012686852, 0.00012686852, 0.0, 0.048828125, 0.04772242 
2.4414063e-2, 2.0148054e+1, -0.00000072866663, -23378.559, -0.78328604, 0.0, 0.0015846662, 0.00002551491, 0.00002551491, 0.0, 0.048828125, 0.047725033 
2.4414063e-2, 2.0195779e+1, -0.00007496042, -23344.814, -8.828237, 0.0, 0.0014348449, 0.003263586, 0.003263586, 0.0, 0.048828125, 0.04772657 
2.4414063e-2, 2.0243508e+1, -0.0008316532, -23310.787, -29.3901, 0.0, 0.00056738115, 0.03622315, 0.03622315, 0.0, 0.048828125, 0.047728125 
2.4414063e-2, 2.0291235e+1, -0.00006179552, -23284.514, -8.007619, 0.0, 0.0008189381, 0.0026920498, 0.0026920498, 0.0, 0.048828125, 0.047729325 
2.4414063e-2, 2.0338966e+1, -0.0000055350683, -23230.725, -2.179832, 0.0, 0.0016326715, 0.00019900729, 0.00019900729, 0.0, 0.048828125, 0.047731776 
2.4414063e-2, 2.0386697e+1, -0.0000005944303, -23199.861, -0.7147955, 0.0, 0.0010211726, 0.000021428656, 0.000021428656, 0.0, 0.048828125, 0.047733184 
2.4414063e-2, 2.0434433e+1, -0.000000739959, -23152.578, -0.83737135, 0.0, 0.0009345493, 0.000029545692, 0.000029545692, 0.0, 0.048828125, 0.04773534 
2.4414063e-2, 2.048217e+1, -0.00000011131051, -23118.834, -0.12502803, 0.0, 0.0012844903, 0.00000056484714, 0.00000056484714, 0.0, 0.048828125, 0.047736883 
2.4414063e-2, 2.0529908e+1, -0.00000018385752, -23076.45, 0.302076, 0.0, 0.0010918083, 0.0000037703903, 0.0000037703903, 0.0, 0.048828125, 0.047738817 
2.4414063e-2, 2.0577647e+1, -0.000002060135, -23041.242, 1.3718503, 0.0, 0.00086713885, 0.000079618316, 0.000079618316, 0.0, 0.048828125, 0.047740426 
2.4414063e-2, 2.0625389e+1, -0.00000090630385, -22992.143, -0.9112103, 0.0, 0.0013503205, 0.000035206216, 0.000035206216, 0.0, 0.048828125, 0.047742665 
2.4414063e-2, 2.0673132e+1, -0.0000019627785, -22967.271, -1.3465089, 0.0, 0.0011220403, 0.000076979384, 0.000076979384, 0.0, 0.048828125, 0.0477438 
2.4414063e-2, 2.0720877e+1, -0.0000014893834, -22919.543, 1.1655048, 0.0, 0.0010025527, 0.000057778874, 0.000057778874, 0.0, 0.048828125, 0.04774598 
2.4414063e-2, 2.0768623e+1, -0.00000040394067, -22883.73, 0.60785526, 0.0, 0.0012856035, 0.000015742378, 0.000015742378, 0.0, 0.048828125, 0.047747616 
2.4414063e-2, 2.0816372e+1, -0.00000022358994, -22840.523, -0.43854284, 0.0, 0.0011296326, 0.000008196526, 0.000008196526, 0.0, 0.048828125, 0.04774959 
2.4414063e-2, 2.0864123e+1, -0.0000008130922, -22808.24, 0.8827113, 0.0, 0.0008904833, 0.000033349086, 0.000033349086, 0.0, 0.048828125, 0.047751065 
2.4414063e-2, 2.0911875e+1, -0.0000012242383, -22761.18, -1.0643755, 0.0, 0.0013198579, 0.000048548893, 0.000048548893, 0.0, 0.048828125, 0.047753215 
2.4414063e-2, 2.0959629e+1, -0.0000010451852, -22728.195, -0.9856075, 0.0, 0.0011484509, 0.000041695657, 0.000041695657, 0.0, 0.048828125, 0.04775472 
2.4414063e-2, 2.1007386e+1, -0.0000010642111, -22688.314, 0.9805576, 0.0, 0.0009913832, 0.000041314135, 0.000041314135, 0.0, 0.048828125, 0.04775654 
2.4414063e-2, 2.1055144e+1, -0.000000057596896, -22646.0, 0.1401515, 0.0, 0.001370865, 0.0000008097704, 0.0000008097704, 0.0, 0.048828125, 0.047758475 
2.4414063e-2, 2.1102901e+1, -0.00000020968422, -22610.768, -0.38880146, 0.0, 0.0011054674, 0.000006475915, 0.000006475915, 0.0, 0.048828125, 0.047760088 
2.4414063e-2, 2.1150663e+1, -0.00000016368796, -22568.621, 0.3745002, 0.0, 0.00091848837, 0.000006050712, 0.000006050712, 0.0, 0.048828125, 0.047762014 
2.4414063e-2, 2.1198425e+1, -0.00000007114974, -22530.617, -0.16730273, 0.0, 0.0013197545, 0.0000011711709, 0.0000011711709, 0.0, 0.048828125, 0.04776375 
2.4414063e-2, 2.124619e+1, -0.00000024840278, -22491.633, -0.4597824, 0.0, 0.001126162, 0.000009150641, 0.000009150641, 0.0, 0.048828125, 0.047765534 
2.4414063e-2, 2.1293956e+1, -0.00000046372602, -22453.227, 0.63385355, 0.0, 0.0009921334, 0.000017429931, 0.000017429931, 0.0, 0.048828125, 0.04776729 
2.4414063e-2, 2.1341726e+1, -0.0000013923499, -22409.988, -1.1348485, 0.0, 0.0014436342, 0.000056076722, 0.000056076722, 0.0, 0.048828125, 0.047769267 
2.4414063e-2, 2.1389496e+1, -0.000000041059305, -22379.918, 0.034689296, 0.0, 0.0010785146, 0.000000012711098, 0.000000012711098, 0.0, 0.048828125, 0.04777064 
2.4414063e-2, 2.1437268e+1, -0.0000017692447, -22328.959, 1.2642794, 0.0, 0.0009807294, 0.00006981503, 0.00006981503, 0.0, 0.048828125, 0.04777297 
2.4414063e-2, 2.1485041e+1, -0.000001074537, -22301.174, -0.96138084, 0.0, 0.0012594103, 0.000040369614, 0.000040369614, 0.0, 0.048828125, 0.047774244 
2.4414063e-2, 2.1532816e+1, -0.0000018708824, -22253.09, 1.3181238, 0.0, 0.0011854031, 0.000076205935, 0.000076205935, 0.0, 0.048828125, 0.047776442 
2.4414063e-2, 2.1580593e+1, -0.000000066453985, -22222.281, 0.1442248, 0.0, 0.0010840521, 0.0000008695788, 0.0000008695788, 0.0, 0.048828125, 0.047777854 
2.4414063e-2, 2.1628372e+1, -0.0000066790967, -22171.531, -2.3364353, 0.0, 0.0012766088, 0.00023953439, 0.00023953439, 0.0, 0.048828125, 0.047780175 
2.4414063e-2, 2.1676153e+1, -0.0000009971127, -22147.27, 0.95343083, 0.0, 0.0010811605, 0.000040047693, 0.000040047693, 0.0, 0.048828125, 0.047781285 
2.4414063e-2, 2.1723936e+1, -0.000047791927, -22076.586, -7.0353775, 0.0, 0.0012346633, 0.0021942456, 0.0021942456, 0.0, 0.048828125, 0.04778452 
2.4414063e-2, 2.1771722e+1, -0.00024645976, -22077.0, -15.982653, 0.0, 0.0011382343, 0.011324182, 0.011324182, 0.0, 0.048828125, 0.0477845 
2.4414063e-2, 2.1819508e+1, -0.000021022008, -22024.768, -4.7355714, 0.0, 0.0012063349, 0.0009971788, 0.0009971788, 0.0, 0.048828125, 0.04778689 
2.4414063e-2, 2.1867295e+1, -0.0013659542, -21997.846, -37.62702, 0.0, 0.001154264, 0.06299438, 0.06299438, 0.0, 0.048828125, 0.047788125 
2.4414063e-2, 2.1915084e+1, -0.000012592462, -21925.96, 3.6914165, 0.0, 0.0012341343, 0.00060888793, 0.00060888793, 0.0, 0.048828125, 0.047791418 
2.4414063e-2, 2.1962875e+1, -0.00000020333093, -21919.236, -0.3899466, 0.0, 0.0011388691, 0.0000067338806, 0.0000067338806, 0.0, 0.048828125, 0.047791723 
2.4414063e-2, 2.2010669e+1, -0.00000022995837, -21851.055, -0.44951105, 0.0, 0.0012771728, 0.000009017203, 0.000009017203, 0.0, 0.048828125, 0.04779485 
2.4414063e-2, 2.2058465e+1, -0.00000005080898, -21841.16, 0.09790004, 0.0, 0.0011108293, 0.00000038801954, 0.00000038801954, 0.0, 0.048828125, 0.0477953 
2.4414063e-2, 2.210626e+1, -0.00000011453693, -21773.6, 0.30310482, 0.0, 0.0013089428, 0.000004104906, 0.000004104906, 0.0, 0.048828125, 0.047798395 
2.4414063e-2, 2.215406e+1, -0.00000003043403, -21763.139, 0.084885776, 0.0, 0.0011812565, 0.00000030065712, 0.00000030065712, 0.0, 0.048828125, 0.047798876 
2.4414063e-2, 2.220186e+1, -0.00000010716613, -21694.139, -0.25804296, 0.0, 0.0012478805, 0.0000029621478, 0.0000029621478, 0.0, 0.048828125, 0.047802035 
2.4414063e-2, 2.2249663e+1, -0.00000010046507, -21686.865, -0.25167224, 0.0, 0.0011439977, 0.0000028201466, 0.0000028201466, 0.0, 0.048828125, 0.04780237 
2.4414063e-2, 2.2297466e+1, -0.000000041533568, -21615.262, 0.121101625, 0.0, 0.0013605303, 0.0000006369519, 0.0000006369519, 0.0, 0.048828125, 0.047805652 
2.4414063e-2, 2.2345272e+1, -0.000000042772843, -21608.607, 0.017303953, 0.0, 0.0011623717, -0.000000028911018, -0.000000028911018, 0.0, 0.048828125, 0.047805957 
2.4414063e-2, 2.2393079e+1, -0.000000084290214, -21537.287, -0.26112017, 0.0, 0.0012971788, 0.0000030815572, 0.0000030815572, 0.0, 0.048828125, 0.047809225 
2.4414063e-2, 2.244089e+1, -0.000005209828, -21530.246, -2.0741491, 0.0, 0.0012395335, 0.00019460649, 0.00019460649, 0.0, 0.048828125, 0.04780955 
2.4414063e-2, 2.2488701e+1, -0.000000043652737, -21459.795, 0.045530666, 0.0, 0.001300834, 0.000000052947144, 0.000000052947144, 0.0, 0.048828125, 0.04781278 
2.4414063e-2, 2.2536515e+1, -0.00000007385319, -21452.018, 0.20278038, 0.0, 0.0011540105, 0.0000018429746, 0.0000018429746, 0.0, 0.048828125, 0.047813136 
2.4414063e-2, 2.258433e+1, -0.000000106272466, -21381.768, -0.202555, 0.0, 0.0013928326, 0.0000018125829, 0.0000018125829, 0.0, 0.048828125, 0.047816355 
2.4414063e-2, 2.2632144e+1, -0.00000021801947, -21373.936, -0.40120682, 0.0, 0.0012410794, 0.000007312974, 0.000007312974, 0.0, 0.048828125, 0.047816716 
2.4414063e-2, 2.2679964e+1, -0.00000049975296, -21306.371, -0.64182603, 0.0, 0.0012798912, 0.000018834402, 0.000018834402, 0.0, 0.048828125, 0.047819816 
2.4414063e-2, 2.2727783e+1, -0.0000005316304, -21294.8, 0.68904054, 0.0, 0.0012848313, 0.000021763808, 0.000021763808, 0.0, 0.048828125, 0.047820345 
2.4414063e-2, 2.2775607e+1, -0.000000049930613, -21227.87, 0.0739149, 0.0, 0.0013468877, 0.00000020743755, 0.00000020743755, 0.0, 0.048828125, 0.047823418 
2.4414063e-2, 2.2823429e+1, -0.0000031679995, -21217.787, -1.6271193, 0.0, 0.0011465808, 0.00012161021, 0.00012161021, 0.0, 0.048828125, 0.04782388 
2.4414063e-2, 2.2871254e+1, -0.00000023092387, -21150.941, 0.41708472, 0.0, 0.0013773829, 0.000007993753, 0.000007993753, 0.0, 0.048828125, 0.047826946 
2.4414063e-2, 2.2919083e+1, -0.0000008304679, -21138.236, 0.8642251, 0.0, 0.0013776066, 0.000034502897, 0.000034502897, 0.0, 0.048828125, 0.04782753 
2.4414063e-2, 2.2966911e+1, -0.00000025200458, -21070.424, -0.39839923, 0.0, 0.001269061, 0.0000072809235, 0.0000072809235, 0.0, 0.048828125, 0.04783064 
2.4414063e-2, 2.3014742e+1, -0.0000015471034, -21060.797, -1.1627516, 0.0, 0.0011409695, 0.00006264758, 0.00006264758, 0.0, 0.048828125, 0.047831085 
2.4414063e-2, 2.3062575e+1, -0.0000012757764, -20996.758, 1.0716186, 0.0, 0.0013929871, 0.00005341677, 0.00005341677, 0.0, 0.048828125, 0.047834024 
2.4414063e-2, 2.3110409e+1, -0.0000033265642, -20981.543, 1.7099748, 0.0, 0.001385739, 0.00013603468, 0.00013603468, 0.0, 0.048828125, 0.047834724 
2.4414063e-2, 2.3158245e+1, -0.0000015605913, -20913.66, -1.1465628, 0.0, 0.001264766, 0.00006129815, 0.00006129815, 0.0, 0.048828125, 0.047837842 
2.4414063e-2, 2.3206083e+1, -0.0000036788201, -20904.195, -1.7385226, 0.0, 0.0011634749, 0.0001409075, 0.0001409075, 0.0, 0.048828125, 0.047838274 
2.4414063e-2, 2.3253924e+1, -0.0000005435416, -20840.703, 0.59842616, 0.0, 0.0013587638, 0.000016639846, 0.000016639846, 0.0, 0.048828125, 0.04784119 
2.4414063e-2, 2.3301765e+1, -0.0015135886, -20824.28, -39.570526, 0.0, 0.0013799199, 0.0736785, 0.0736785, 0.0, 0.048828125, 0.047841948 
2.4414063e-2, 2.334961e+1, -0.000001826812, -20757.93, -1.248009, 0.0, 0.0012794484, 0.00007320603, 0.00007320603, 0.0, 0.048828125, 0.047844995 
2.4414063e-2, 2.3397453e+1, -0.0000036019294, -20747.41, -1.7376231, 0.0, 0.0011673194, 0.0001419263, 0.0001419263, 0.0, 0.048828125, 0.04784548 
2.4414063e-2, 2.3445301e+1, -0.00000030730743, -20686.854, 0.40469894, 0.0, 0.0013186319, 0.0000076098586, 0.0000076098586, 0.0, 0.048828125, 0.047848262 
2.4414063e-2, 2.3493151e+1, -0.0000012029593, -20665.518, 1.0407691, 0.0, 0.0014155257, 0.00005121288, 0.00005121288, 0.0, 0.048828125, 0.04784924 
2.4414063e-2, 2.3541e+1, -0.0000004582287, -20605.482, -0.57294244, 0.0, 0.0012429103, 0.00001547263, 0.00001547263, 0.0, 0.048828125, 0.047852002 
2.4414063e-2, 2.3588854e+1, -0.0000004817247, -20587.256, -0.6278524, 0.0, 0.0012158469, 0.000018665978, 0.000018665978, 0.0, 0.048828125, 0.047852837 
2.4414063e-2, 2.3636708e+1, -0.00000021464845, -20531.87, 0.36625707, 0.0, 0.0013485905, 0.0000063188163, 0.0000063188163, 0.0, 0.048828125, 0.047855385 
2.4414063e-2, 2.3684563e+1, -0.00000007865122, -20505.186, 0.0815809, 0.0, 0.0012951908, 0.00000024592373, 0.00000024592373, 0.0, 0.048828125, 0.04785661 
2.4414063e-2, 2.373242e+1, -0.000000100075965, -20456.113, -0.1706524, 0.0, 0.0012140282, 0.0000013235658, 0.0000013235658, 0.0, 0.048828125, 0.047858868 
2.4414063e-2, 2.378028e+1, -0.00000009227319, -20425.605, 0.05396253, 0.0, 0.0014300556, 0.00000005028778, 0.00000005028778, 0.0, 0.048828125, 0.047860272 
2.4414063e-2, 2.3828143e+1, -0.00000007268189, -20378.518, -0.060612388, 0.0, 0.0012905635, 0.00000010759686, 0.00000010759686, 0.0, 0.048828125, 0.047862437 
2.4414063e-2, 2.3876005e+1, -0.00000024439228, -20344.363, -0.41401622, 0.0, 0.0011904542, 0.00000818101, 0.00000818101, 0.0, 0.048828125, 0.04786401 
2.4414063e-2, 2.392387e+1, -0.00000011516448, -20304.705, -0.26644903, 0.0, 0.0013107755, 0.000003381323, 0.000003381323, 0.0, 0.048828125, 0.04786583 
2.4414063e-2, 2.3971736e+1, -0.00000035685193, -20264.639, 0.5426782, 0.0, 0.0014146072, 0.000014175832, 0.000014175832, 0.0, 0.048828125, 0.047867674 
2.4414063e-2, 2.4019605e+1, -0.00000059565883, -20226.117, -0.68994075, 0.0, 0.0011894524, 0.000022939174, 0.000022939174, 0.0, 0.048828125, 0.047869448 
2.4414063e-2, 2.4067476e+1, -0.0000007372045, -20183.168, -0.8383518, 0.0, 0.0014022478, 0.00003408556, 0.00003408556, 0.0, 0.048828125, 0.047871426 
2.4414063e-2, 2.411535e+1, -0.00000021147179, -20153.586, -0.35649604, 0.0, 0.0013394392, 0.000006094575, 0.000006094575, 0.0, 0.048828125, 0.047872785 
2.4414063e-2, 2.4163224e+1, -0.0000007951681, -20101.57, 0.80191994, 0.0, 0.001226752, 0.000031196145, 0.000031196145, 0.0, 0.048828125, 0.04787518 
2.4414063e-2, 2.4211098e+1, -0.0000018226606, -20076.55, -1.2467425, 0.0, 0.0012589123, 0.00007559934, 0.00007559934, 0.0, 0.048828125, 0.047876332 
2.4414063e-2, 2.4258976e+1, -0.00000008636618, -20020.756, -0.10110827, 0.0, 0.0015102782, 0.00000042424654, 0.00000042424654, 0.0, 0.048828125, 0.047878902 
2.4414063e-2, 2.4306855e+1, -0.00000025114173, -20001.908, 0.38836846, 0.0, 0.0011613443, 0.0000072896437, 0.0000072896437, 0.0, 0.048828125, 0.04787977 
2.4414063e-2, 2.4354737e+1, -0.0000005224641, -19937.906, -0.694799, 0.0, 0.0014037032, 0.00002368999, 0.00002368999, 0.0, 0.048828125, 0.047882717 
2.4414063e-2, 2.440262e+1, -0.0000011383994, -19928.059, -1.0073972, 0.0, 0.0014624635, 0.00004978724, 0.00004978724, 0.0, 0.048828125, 0.04788317 
2.4414063e-2, 2.4450505e+1, -0.0000024792957, -19861.242, 1.4466058, 0.0, 0.0011755419, 0.000102885126, 0.000102885126, 0.0, 0.048828125, 0.04788625 
2.4414063e-2, 2.449839e+1, -0.0000021829119, -19846.977, 1.3591756, 0.0, 0.0010481826, 0.00009089718, 0.00009089718, 0.0, 0.048828125, 0.047886904 
2.4414063e-2, 2.454628e+1, -0.0000064893197, -19775.43, -2.7160003, 0.0, 0.0017853293, 0.00036653204, 0.00036653204, 0.0, 0.048828125, 0.0478902 
2.4414063e-2, 2.459417e+1, -0.0000057476955, -19777.732, -2.2788167, 0.0, 0.0013627077, 0.00025682058, 0.00025682058, 0.0, 0.048828125, 0.047890093 
2.4414063e-2, 2.4642064e+1, -0.004363198, -19703.982, -67.125496, 0.0, 0.0010721312, 0.22431041, 0.22431041, 0.0, 0.048828125, 0.047893494 
2.4414063e-2, 2.4689955e+1, -0.00000091066767, -19691.105, 0.8624467, 0.0, 0.0013483451, 0.00003686347, 0.00003686347, 0.0, 0.048828125, 0.047894087 
2.4414063e-2, 2.4737853e+1, -0.000010133016, -19618.748, -3.2639594, 0.0, 0.0015488972, 0.00053289, 0.00053289, 0.0, 0.048828125, 0.04789742 
2.4414063e-2, 2.478575e+1, -0.000003095904, -19621.24, -1.6170535, 0.0, 0.0010622354, 0.00013017099, 0.00013017099, 0.0, 0.048828125, 0.047897305 
2.4414063e-2, 2.483365e+1, -0.005893365, -19545.607, -78.00313, 0.0, 0.0015592644, 0.3053987, 0.3053987, 0.0, 0.048828125, 0.047900792 
2.4414063e-2, 2.4881549e+1, -0.000000067784306, -19536.768, 0.034343358, 0.0, 0.0014242983, -0.000000007410563, -0.000000007410563, 0.0, 0.048828125, 0.047901202 
2.4414063e-2, 2.4929453e+1, -0.0000009177267, -19464.951, -0.8691394, 0.0, 0.0011735631, 0.00003789065, 0.00003789065, 0.0, 0.048828125, 0.047904514 
2.4414063e-2, 2.4977356e+1, -0.00000025529127, -19463.057, -0.42857772, 0.0, 0.0014162386, 0.000009182015, 0.000009182015, 0.0, 0.048828125, 0.0479046 
2.4414063e-2, 2.5025263e+1, -0.0000000879303, -19386.92, 0.1290622, 0.0, 0.0015217348, 0.0000007712588, 0.0000007712588, 0.0, 0.048828125, 0.047908112 
2.4414063e-2, 2.507317e+1, -0.0000010879247, -19384.59, 0.9754004, 0.0, 0.000915417, 0.00004799261, 0.00004799261, 0.0, 0.048828125, 0.04790822 
2.4414063e-2, 2.512108e+1, -0.0000002742675, -19306.322, -0.46520466, 0.0, 0.0016239983, 0.000010935291, 0.000010935291, 0.0, 0.048828125, 0.04791183 
2.4414063e-2, 2.5168994e+1, -0.0000024317785, -19310.637, -1.4226416, 0.0, 0.0017510704, 0.00010237623, 0.00010237623, 0.0, 0.048828125, 0.047911633 
2.4414063e-2, 2.5216907e+1, -0.000001200156, -19229.848, 0.990872, 0.0, 0.0010617183, 0.000049857314, 0.000049857314, 0.0, 0.048828125, 0.047915358 
2.4414063e-2, 2.5264823e+1, -0.0000003770559, -19229.41, 0.5576213, 0.0, 0.001050514, 0.000015793048, 0.000015793048, 0.0, 0.048828125, 0.04791538 
2.4414063e-2, 2.531274e+1, -0.0000002495013, -19153.924, -0.2519724, 0.0, 0.0017154139, 0.0000030652336, 0.0000030652336, 0.0, 0.048828125, 0.047918864 
2.4414063e-2, 2.536066e+1, -0.0000019077395, -19152.55, 1.2903501, 0.0, 0.0015111447, 0.000085026026, 0.000085026026, 0.0, 0.048828125, 0.047918927 
2.4414063e-2, 2.5408578e+1, -0.00000070826724, -19069.354, -0.75955826, 0.0, 0.0012989831, 0.000029545972, 0.000029545972, 0.0, 0.048828125, 0.047922768 
2.4414063e-2, 2.54565e+1, -0.000004971471, -19077.541, -1.983664, 0.0, 0.0011209688, 0.00020128798, 0.00020128798, 0.0, 0.048828125, 0.047922388 
2.4414063e-2, 2.5504428e+1, -0.0000038835774, -18995.828, 1.8128805, 0.0, 0.0015593086, 0.00016912997, 0.00016912997, 0.0, 0.048828125, 0.04792616 
2.4414063e-2, 2.5552353e+1, -0.00000065023085, -18995.004, 0.75903654, 0.0, 0.001558358, 0.00002968072, 0.00002968072, 0.0, 0.048828125, 0.047926202 
2.4414063e-2, 2.560028e+1, -0.0000002461872, -18917.564, -0.3992735, 0.0, 0.0012222728, 0.0000081808685, 0.0000081808685, 0.0, 0.048828125, 0.04792978 
2.4414063e-2, 2.564821e+1, -0.0000002005374, -18917.053, 0.26652223, 0.0, 0.0013846025, 0.0000035544945, 0.0000035544945, 0.0, 0.048828125, 0.0479298 
2.4414063e-2, 2.5696144e+1, -0.00000019046364, -18842.047, -0.21806946, 0.0, 0.0015111709, 0.0000023333778, 0.0000023333778, 0.0, 0.048828125, 0.047933266 
2.4414063e-2, 2.5744075e+1, -0.000004174329, -18839.064, 1.8833535, 0.0, 0.0011902116, 0.00018410574, 0.00018410574, 0.0, 0.048828125, 0.047933403 
2.4414063e-2, 2.5792012e+1, -0.00000041472984, -18757.955, -0.47217283, 0.0, 0.0015622057, 0.000011470744, 0.000011470744, 0.0, 0.048828125, 0.04793715 
2.4414063e-2, 2.583995e+1, -0.00000345863, -18763.441, -1.6235921, 0.0, 0.0012928708, 0.00013703006, 0.00013703006, 0.0, 0.048828125, 0.047936898 
2.4414063e-2, 2.5887886e+1, -0.000001214437, -18681.283, 0.99665654, 0.0, 0.0012022795, 0.000051957726, 0.000051957726, 0.0, 0.048828125, 0.047940694 
2.4414063e-2, 2.593583e+1, -0.0000830801, -18665.092, -9.256968, 0.0, 0.0018477018, 0.004507919, 0.004507919, 0.0, 0.048828125, 0.047941443 
2.4414063e-2, 2.5983772e+1, -0.00027590542, -18613.56, -16.86526, 0.0, 0.0013650528, 0.015005251, 0.015005251, 0.0, 0.048828125, 0.047943827 
2.4414063e-2, 2.6031715e+1, -0.00005119891, -18613.248, -7.266638, 0.0, 0.0008285697, 0.002785706, 0.002785706, 0.0, 0.048828125, 0.047943838 
2.4414063e-2, 2.607966e+1, -0.00000018015513, -18530.414, -0.22792584, 0.0, 0.0016161889, 0.0000026233538, 0.0000026233538, 0.0, 0.048828125, 0.04794767 
2.4414063e-2, 2.6127607e+1, -0.0001511455, -18522.39, -12.47973, 0.0, 0.0016506666, 0.00825725, 0.00825725, 0.0, 0.048828125, 0.04794804 
2.4414063e-2, 2.6175556e+1, -0.0000015703877, -18455.693, 1.1344069, 0.0, 0.0010935538, 0.000068157635, 0.000068157635, 0.0, 0.048828125, 0.047951125 
2.4414063e-2, 2.6223508e+1, -0.00000011966098, -18439.348, -0.0009881778, 0.0, 0.001535749, -0.00000011960947, -0.00000011960947, 0.0, 0.048828125, 0.04795188 
2.4414063e-2, 2.6271462e+1, -0.00000056928445, -18379.145, -0.62547857, 0.0, 0.0015280087, 0.000020716983, 0.000020716983, 0.0, 0.048828125, 0.047954667 
2.4414063e-2, 2.6319417e+1, -0.0000054983752, -18362.602, 2.127953, 0.0, 0.0009911287, 0.00024109983, 0.00024109983, 0.0, 0.048828125, 0.04795543 
2.4414063e-2, 2.6367375e+1, -0.00000013771009, -18299.979, 0.08437113, 0.0, 0.0014171393, 0.00000025128247, 0.00000025128247, 0.0, 0.048828125, 0.04795833 
2.4414063e-2, 2.6415336e+1, -0.0000087303515, -18278.592, -3.0042737, 0.0, 0.0017295963, 0.00048505273, 0.00048505273, 0.0, 0.048828125, 0.04795932 
2.4414063e-2, 2.6463294e+1, -0.00000051628365, -18230.926, 0.6132079, 0.0, 0.0011234967, 0.00002010932, 0.00002010932, 0.0, 0.048828125, 0.047961526 
2.4414063e-2, 2.6511258e+1, -0.000004532378, -18195.895, 1.8472236, 0.0, 0.0014737078, 0.00018299537, 0.00018299537, 0.0, 0.048828125, 0.047963146 
2.4414063e-2, 2.655922e+1, -0.0000019741597, -18153.018, -1.2829403, 0.0, 0.0015199352, 0.00008869593, 0.00008869593, 0.0, 0.048828125, 0.04796513 
2.4414063e-2, 2.660719e+1, -0.0000001001191, -18117.465, 0.12144282, 0.0, 0.0011284946, 0.0000007139206, 0.0000007139206, 0.0, 0.048828125, 0.04796678 
2.4414063e-2, 2.6655152e+1, -0.000002877545, -18075.598, -1.5421219, 0.0, 0.0013981118, 0.00012868877, 0.00012868877, 0.0, 0.048828125, 0.047968715 
2.4414063e-2, 2.6703125e+1, -0.0000054307425, -18034.293, -2.4218912, 0.0, 0.0016388645, 0.00031981387, 0.00031981387, 0.0, 0.048828125, 0.047970627 
2.4414063e-2, 2.6751095e+1, -0.00000013927112, -18005.596, 0.24236053, 0.0, 0.001135473, 0.000003122972, 0.000003122972, 0.0, 0.048828125, 0.047971956 
2.4414063e-2, 2.6799068e+1, -0.000000075212526, -17951.467, 0.21447846, 0.0, 0.0016066794, 0.000002487308, 0.000002487308, 0.0, 0.048828125, 0.047974464 
2.4414063e-2, 2.6847044e+1, -0.0000012445994, -17927.678, -1.0156773, 0.0, 0.0014127067, 0.000056297733, 0.000056297733, 0.0, 0.048828125, 0.047975566 
2.4414063e-2, 2.6895022e+1, -0.00000089806537, -17873.814, 0.86094254, 0.0, 0.0012339848, 0.000040571656, 0.000040571656, 0.0, 0.048828125, 0.047978062 
2.4414063e-2, 2.6942998e+1, -0.00000007189114, -17849.254, 0.13511471, 0.0, 0.001524868, 0.00000095089854, 0.00000095089854, 0.0, 0.048828125, 0.0479792 
2.4414063e-2, 2.699098e+1, -0.0000013836164, -17794.328, -1.0627419, 0.0, 0.0014177121, 0.00006208719, 0.00006208719, 0.0, 0.048828125, 0.047981743 
2.4414063e-2, 2.7038962e+1, -0.0000016598491, -17773.936, 1.1351959, 0.0, 0.0011453747, 0.00007084349, 0.00007084349, 0.0, 0.048828125, 0.04798269 
2.4414063e-2, 2.7086946e+1, -0.0000009835287, -17710.69, -0.9145952, 0.0, 0.0018002966, 0.000046246947, 0.000046246947, 0.0, 0.048828125, 0.04798562 
2.4414063e-2, 2.713493e+1, -0.00000044589876, -17701.697, -0.5901442, 0.0, 0.0012515761, 0.000019228497, 0.000019228497, 0.0, 0.048828125, 0.047986038 
2.4414063e-2, 2.7182922e+1, -0.0000007435807, -17629.633, 0.72696435, 0.0, 0.0013729498, 0.000029233059, 0.000029233059, 0.0, 0.048828125, 0.047989376 
2.4414063e-2, 2.723091e+1, -0.000003622547, -17622.328, -1.6475035, 0.0, 0.0015630606, 0.0001504018, 0.0001504018, 0.0, 0.048828125, 0.047989715 
2.4414063e-2, 2.72789e+1, -0.000002081951, -17555.734, 1.310978, 0.0, 0.0012894811, 0.0000958156, 0.0000958156, 0.0, 0.048828125, 0.047992803 
2.4414063e-2, 2.7326894e+1, -0.0023711664, -17540.012, -49.398285, 0.0, 0.0012962861, 0.13674913, 0.13674913, 0.0, 0.048828125, 0.047993533 
2.4414063e-2, 2.737489e+1, -0.000012102727, -17478.113, -3.6010137, 0.0, 0.0016698919, 0.00072981365, 0.00072981365, 0.0, 0.048828125, 0.0479964 
2.4414063e-2, 2.7422887e+1, -0.00000073925224, -17461.305, 0.7383653, 0.0, 0.0012344869, 0.000030483116, 0.000030483116, 0.0, 0.048828125, 0.047997184 
2.4414063e-2, 2.7470887e+1, -0.00012488126, -17377.717, -11.333905, 0.0, 0.0015157439, 0.007267192, 0.007267192, 0.0, 0.048828125, 0.048001062 
2.4414063e-2, 2.7518886e+1, -0.0005748664, -17393.627, -24.319834, 0.0, 0.0013811857, 0.03342915, 0.03342915, 0.0, 0.048828125, 0.048000325 
2.4414063e-2, 2.756689e+1, -0.00015083123, -17332.283, -12.457268, 0.0, 0.0014312398, 0.008802602, 0.008802602, 0.0, 0.048828125, 0.04800317 
2.4414063e-2, 2.7614892e+1, -0.00000018284582, -17312.771, 0.3219166, 0.0, 0.0013340164, 0.000005802929, 0.000005802929, 0.0, 0.048828125, 0.048004076 
2.4414063e-2, 2.7662897e+1, -0.0000001027233, -17239.816, -0.1704588, 0.0, 0.0014929887, 0.0000015826918, 0.0000015826918, 0.0, 0.048828125, 0.04800746 
2.4414063e-2, 2.7710906e+1, -0.000001339346, -17234.16, -0.9941054, 0.0, 0.001394933, 0.000056002904, 0.000056002904, 0.0, 0.048828125, 0.048007723 
2.4414063e-2, 2.7758914e+1, -0.000000316046, -17160.063, 0.5047676, 0.0, 0.0014346789, 0.000014531819, 0.000014531819, 0.0, 0.048828125, 0.04801116 
2.4414063e-2, 2.7806926e+1, -0.00000016736294, -17157.352, 0.31868055, 0.0, 0.0013040948, 0.000005751808, 0.000005751808, 0.0, 0.048828125, 0.048011288 
2.4414063e-2, 2.7854937e+1, -0.0000002539094, -17080.791, -0.3960502, 0.0, 0.0015209956, 0.000008929255, 0.000008929255, 0.0, 0.048828125, 0.048014842 
2.4414063e-2, 2.7902955e+1, -0.00000007282543, -17080.533, -0.08993292, 0.0, 0.0013675952, 0.00000040069062, 0.00000040069062, 0.0, 0.048828125, 0.048014853 
2.4414063e-2, 2.795097e+1, -0.00000028939138, -17002.41, 0.47014657, 0.0, 0.0014586435, 0.000012710989, 0.000012710989, 0.0, 0.048828125, 0.04801848 
2.4414063e-2, 2.799899e+1, -0.00000032776867, -17003.664, 0.47186357, 0.0, 0.0012957997, 0.000012766777, 0.000012766777, 0.0, 0.048828125, 0.048018426 
2.4414063e-2, 2.8047007e+1, -0.00000071827054, -16921.51, -0.7481777, 0.0, 0.0014774756, 0.000032362103, 0.000032362103, 0.0, 0.048828125, 0.04802224 
2.4414063e-2, 2.809503e+1, -0.0000005926793, -16926.945, -0.66762346, 0.0, 0.0014644811, 0.00002573937, 0.00002573937, 0.0, 0.048828125, 0.048021987 
2.4414063e-2, 2.8143054e+1, -0.00000048361346, -16845.865, 0.603064, 0.0, 0.0014065178, 0.000021105428, 0.000021105428, 0.0, 0.048828125, 0.048025753 
2.4414063e-2, 2.819108e+1, -0.00000057761685, -16847.701, 0.6678895, 0.0, 0.0012601563, 0.000025899371, 0.000025899371, 0.0, 0.048828125, 0.04802567 
2.4414063e-2, 2.823911e+1, -0.000001247543, -16764.355, -0.9696563, 0.0, 0.0015189025, 0.00005483772, 0.00005483772, 0.0, 0.048828125, 0.048029542 
2.4414063e-2, 2.8287137e+1, -0.00000076467484, -16770.338, -0.7883311, 0.0, 0.0014542458, 0.00003629277, 0.00003629277, 0.0, 0.048828125, 0.048029266 
2.4414063e-2, 2.833517e+1, -0.0000013302181, -16691.498, 1.0279317, 0.0, 0.0013923799, 0.000061974075, 0.000061974075, 0.0, 0.048828125, 0.04803293 
2.4414063e-2, 2.83832e+1, -0.0000006447206, -16689.5, 0.7387088, 0.0, 0.0013260251, 0.00003205193, 0.00003205193, 0.0, 0.048828125, 0.04803302 
2.4414063e-2, 2.8431237e+1, -0.00000026978086, -16610.32, -0.3165891, 0.0, 0.0014673, 0.0000057643374, 0.0000057643374, 0.0, 0.048828125, 0.048036706 
2.4414063e-2, 2.8479275e+1, -0.0000011335966, -16611.889, -0.9456062, 0.0, 0.0014553397, 0.00005269357, 0.00005269357, 0.0, 0.048828125, 0.04803663 
2.4414063e-2, 2.8527313e+1, -0.00000012622925, -16537.148, 0.10224107, 0.0, 0.0014056605, 0.0000005058755, 0.0000005058755, 0.0, 0.048828125, 0.048040107 
2.4414063e-2, 2.8575355e+1, -0.0000027975602, -16530.086, 1.4936368, 0.0, 0.0013525812, 0.0001321655, 0.0001321655, 0.0, 0.048828125, 0.048040435 
2.4414063e-2, 2.8623393e+1, -0.0000012210703, -16455.596, -0.9453358, 0.0, 0.0014643823, 0.000053086278, 0.000053086278, 0.0, 0.048828125, 0.0480439 
2.4414063e-2, 2.867144e+1, -0.0048381505, -16453.508, -70.50047, 0.0, 0.001423256, 0.29723892, 0.29723892, 0.0, 0.048828125, 0.048043996 
2.4414063e-2, 2.8719485e+1, -0.00000007735905, -16381.932, 0.016151862, 0.0, 0.0013797965, -0.00000006143455, -0.00000006143455, 0.0, 0.048828125, 0.048047327 
2.4414063e-2, 2.8767532e+1, -0.0000013068855, -16374.087, 1.0476907, 0.0, 0.0014819512, 0.00006572928, 0.00006572928, 0.0, 0.048828125, 0.04804769 
2.4414063e-2, 2.8815582e+1, -0.00012204061, -16302.939, -11.195986, 0.0, 0.0014333815, 0.00756676, 0.00756676, 0.0, 0.048828125, 0.048051003 
2.4414063e-2, 2.8863633e+1, -0.00000020097484, -16293.506, 0.3538014, 0.0, 0.0013346203, 0.00000748156, 0.00000748156, 0.0, 0.048828125, 0.048051443 
2.4414063e-2, 2.8911686e+1, -0.00000035179758, -16226.957, 0.512568, 0.0, 0.0013848995, 0.00001583891, 0.00001583891, 0.0, 0.048828125, 0.04805454 
2.4414063e-2, 2.8959742e+1, -0.00000027070942, -16214.145, -0.36113816, 0.0, 0.0016123115, 0.000007772933, 0.000007772933, 0.0, 0.048828125, 0.048055135 
2.4414063e-2, 2.9007798e+1, -0.00000010278791, -16149.471, 0.15515764, 0.0, 0.0014277606, 0.0000013879053, 0.0000013879053, 0.0, 0.048828125, 0.04805815 
2.4414063e-2, 2.9055858e+1, -0.00000014679847, -16133.314, 0.20540155, 0.0, 0.0012309392, 0.0000024682759, 0.0000024682759, 0.0, 0.048828125, 0.0480589 
2.4414063e-2, 2.9103917e+1, -0.00000008084734, -16074.735, 0.077208295, 0.0, 0.0013372615, 0.00000028999057, 0.00000028999057, 0.0, 0.048828125, 0.048061628 
2.4414063e-2, 2.915198e+1, -0.000001226871, -16055.985, 1.0321764, 0.0, 0.0018156575, 0.0000651277, 0.0000651277, 0.0, 0.048828125, 0.0480625 
2.4414063e-2, 2.920004e+1, -0.000000100426426, -15994.414, 0.11348539, 0.0, 0.0014729357, 0.00000070478745, 0.00000070478745, 0.0, 0.048828125, 0.048065368 
2.4414063e-2, 2.9248106e+1, -0.0000036789925, -15975.456, -1.5926514, 0.0, 0.0009984858, 0.00015509823, 0.00015509823, 0.0, 0.048828125, 0.04806625 
2.4414063e-2, 2.9296175e+1, -0.00000014386204, -15919.813, 0.13335787, 0.0, 0.001344327, 0.0000009732576, 0.0000009732576, 0.0, 0.048828125, 0.048068844 
2.4414063e-2, 2.9344246e+1, -0.000004662694, -15897.518, 1.9083397, 0.0, 0.002028926, 0.00022441462, 0.00022441462, 0.0, 0.048828125, 0.048069883 
2.4414063e-2, 2.9392317e+1, -0.00000012696708, -15838.351, 0.06803889, 0.0, 0.0013640035, 0.00000016531703, 0.00000016531703, 0.0, 0.048828125, 0.04807264 
2.4414063e-2, 2.944039e+1, -0.000002891485, -15818.409, -1.402193, 0.0, 0.0010293244, 0.00012140325, 0.00012140325, 0.0, 0.048828125, 0.048073567 
2.4414063e-2, 2.9488465e+1, -0.00000011067617, -15764.952, -0.016056392, 0.0, 0.0015190444, -0.00000009432188, -0.00000009432188, 0.0, 0.048828125, 0.04807606 
2.4414063e-2, 2.9536542e+1, -0.0000029751266, -15739.62, 1.5051249, 0.0, 0.0017242566, 0.00014095471, 0.00014095471, 0.0, 0.048828125, 0.04807724 
2.4414063e-2, 2.958462e+1, -0.00000014728768, -15683.775, 0.24942145, 0.0, 0.0012335797, 0.0000038192993, 0.0000038192993, 0.0, 0.048828125, 0.048079845 
2.4414063e-2, 2.96327e+1, -0.0000013040657, -15662.063, -0.96422553, 0.0, 0.0015308915, 0.0000580579, 0.0000580579, 0.0, 0.048828125, 0.048080858 
2.4414063e-2, 2.9680783e+1, -0.000000109080254, -15607.827, 0.09119787, 0.0, 0.001528313, 0.00000042379543, 0.00000042379543, 0.0, 0.048828125, 0.048083387 
2.4414063e-2, 2.9728866e+1, -0.0000002787457, -15579.675, 0.4151009, 0.0, 0.0012943804, 0.000010781097, 0.000010781097, 0.0, 0.048828125, 0.0480847 
2.4414063e-2, 2.9776952e+1, -0.00000025107255, -15532.591, -0.31023893, 0.0, 0.0013557152, 0.0000059454596, 0.0000059454596, 0.0, 0.048828125, 0.048086893 
2.4414063e-2, 2.982504e+1, -0.00000049750014, -15502.533, 0.617785, 0.0, 0.0017149998, 0.000024121591, 0.000024121591, 0.0, 0.048828125, 0.048088297 
2.4414063e-2, 2.987313e+1, -0.0000010184182, -15452.673, 0.8861374, 0.0, 0.0013184608, 0.000049797352, 0.000049797352, 0.0, 0.048828125, 0.04809062 
2.4414063e-2, 2.9921222e+1, -0.0000021092192, -15419.483, -1.233056, 0.0, 0.0014423991, 0.000096495045, 0.000096495045, 0.0, 0.048828125, 0.04809217 
2.4414063e-2, 2.9969314e+1, -0.0000015673708, -15381.843, -1.0793797, 0.0, 0.0015014835, 0.000074175216, 0.000074175216, 0.0, 0.048828125, 0.048093926 
2.4414063e-2, 3.001741e+1, -0.0000039527604, -15343.082, 1.9034834, 0.0, 0.0013994802, 0.00023219595, 0.00023219595, 0.0, 0.048828125, 0.048095737 
2.4414063e-2, 3.0065507e+1, -0.0000016177503, -15297.612, 1.0981069, 0.0, 0.0013480715, 0.00007720754, 0.00007720754, 0.0, 0.048828125, 0.04809786 
2.4414063e-2, 3.0113605e+1, -0.000005241535, -15260.438, -2.2875204, 0.0, 0.0016351546, 0.00033765484, 0.00033765484, 0.0, 0.048828125, 0.048099592 
2.4414063e-2, 3.0161706e+1, -0.00008778625, -15227.742, -9.4873, 0.0, 0.0012855774, 0.005823059, 0.005823059, 0.0, 0.048828125, 0.04810112 
2.4414063e-2, 3.0209807e+1, -0.0000013999885, -15183.378, 1.0113821, 0.0, 0.0015031635, 0.000065969325, 0.000065969325, 0.0, 0.048828125, 0.04810319 
2.4414063e-2, 3.025791e+1, -0.00000009223008, -15145.436, 0.063860655, 0.0, 0.0015690394, 0.0000001770386, 0.0000001770386, 0.0, 0.048828125, 0.048104964 
2.4414063e-2, 3.0306017e+1, -0.00000022779649, -15105.927, -0.30009085, 0.0, 0.0012890546, 0.00000573374, 0.00000573374, 0.0, 0.048828125, 0.04810681 
2.4414063e-2, 3.0354124e+1, -0.00000050060817, -15068.684, 0.58245575, 0.0, 0.0012755835, 0.000022013282, 0.000022013282, 0.0, 0.048828125, 0.048108548 
2.4414063e-2, 3.0402234e+1, -0.00000044037827, -15024.443, -0.5832483, 0.0, 0.0017385355, 0.000022201295, 0.000022201295, 0.0, 0.048828125, 0.048110615 
2.4414063e-2, 3.0450347e+1, -0.0000014647779, -14992.988, -1.0408548, 0.0, 0.0012857609, 0.00007079425, 0.00007079425, 0.0, 0.048828125, 0.048112083 
2.4414063e-2, 3.049846e+1, -0.0000009272895, -14948.718, 0.8565932, 0.0, 0.0014123905, 0.000048157315, 0.000048157315, 0.0, 0.048828125, 0.04811415 
2.4414063e-2, 3.0546573e+1, -0.00000068482495, -14910.501, 0.7395807, 0.0, 0.0016040095, 0.000035999365, 0.000035999365, 0.0, 0.048828125, 0.04811594 
2.4414063e-2, 3.0594692e+1, -0.00000021621753, -14871.784, -0.34438425, 0.0, 0.0012763417, 0.000007758648, 0.000007758648, 0.0, 0.048828125, 0.048117746 
2.4414063e-2, 3.0642807e+1, -0.00000014102926, -14833.806, -0.18825826, 0.0, 0.0013280123, 0.0000022481854, 0.0000022481854, 0.0, 0.048828125, 0.048119523 
2.4414063e-2, 3.0690932e+1, -0.00000007978752, -14793.398, -0.12626298, 0.0, 0.0016868988, 0.0000009978776, 0.0000009978776, 0.0, 0.048828125, 0.04812141 
2.4414063e-2, 3.073905e+1, -0.0000004866243, -14754.742, 0.5686414, 0.0, 0.0011483477, 0.00002142857, 0.00002142857, 0.0, 0.048828125, 0.048123218 
2.4414063e-2, 3.0787176e+1, -0.00000022608933, -14715.838, -0.36506486, 0.0, 0.001487277, 0.000008830299, 0.000008830299, 0.0, 0.048828125, 0.048125036 
2.4414063e-2, 3.0835304e+1, -0.0000032254452, -14674.91, -1.8179421, 0.0, 0.0018300617, 0.000221983, 0.000221983, 0.0, 0.048828125, 0.04812695 
2.4414063e-2, 3.088343e+1, -0.0000033710683, -14642.4795, 1.5729778, 0.0, 0.0011005446, 0.00016560708, 0.00016560708, 0.0, 0.048828125, 0.048128467 
2.4414063e-2, 3.093156e+1, -0.0000035398816, -14594.2295, 1.8205744, 0.0, 0.0011460134, 0.0002235698, 0.0002235698, 0.0, 0.048828125, 0.04813072 
2.4414063e-2, 3.0979693e+1, -0.0000031593693, -14560.434, -1.6814973, 0.0, 0.001787423, 0.00019102669, 0.00019102669, 0.0, 0.048828125, 0.048132304 
2.4414063e-2, 3.1027824e+1, -0.000000370883, -14520.796, -0.53261364, 0.0, 0.0014759462, 0.000019165047, 0.000019165047, 0.0, 0.048828125, 0.048134156 
2.4414063e-2, 3.107596e+1, -0.0000004343327, -14483.633, 0.55929816, 0.0, 0.0012982412, 0.000021163452, 0.000021163452, 0.0, 0.048828125, 0.048135895 
2.4414063e-2, 3.1124097e+1, -0.00000082285624, -14439.246, -0.7819377, 0.0, 0.0013755322, 0.00004152192, 0.00004152192, 0.0, 0.048828125, 0.048137974 
2.4414063e-2, 3.1172237e+1, -0.0000026566465, -14405.4, -1.3238026, 0.0, 0.0014517143, 0.000118995886, 0.000118995886, 0.0, 0.048828125, 0.048139557 
2.4414063e-2, 3.1220376e+1, -0.0000041452017, -14360.402, -2.0535288, 0.0, 0.0015998383, 0.00028950814, 0.00028950814, 0.0, 0.048828125, 0.048141662 
2.4414063e-2, 3.126852e+1, -0.00000036348686, -14330.676, 0.48146263, 0.0, 0.0012795854, 0.000015812042, 0.000015812042, 0.0, 0.048828125, 0.048143055 
2.4414063e-2, 3.1316665e+1, -0.0000046015084, -14281.286, 2.1536822, 0.0, 0.0014395167, 0.00032018343, 0.00032018343, 0.0, 0.048828125, 0.048145365 
2.4414063e-2, 3.136481e+1, -0.0000030026206, -14246.784, -1.4725152, 0.0, 0.0015672157, 0.0001491932, 0.0001491932, 0.0, 0.048828125, 0.04814698 
2.4414063e-2, 3.141296e+1, -0.00000006419686, -14208.733, 0.07839973, 0.0, 0.001191337, 0.000000368389, 0.000000368389, 0.0, 0.048828125, 0.048148762 
2.4414063e-2, 3.1461108e+1, -0.00000024842416, -14170.812, 0.30473015, 0.0, 0.0015032254, 0.0000063045136, 0.0000063045136, 0.0, 0.048828125, 0.04815054 
2.4414063e-2, 3.150926e+1, -0.000002878123, -14127.623, -1.5007806, 0.0, 0.0016996952, 0.00015655013, 0.00015655013, 0.0, 0.048828125, 0.048152562 
2.4414063e-2, 3.1557414e+1, -0.00000023332227, -14085.351, 0.38052237, 0.0, 0.0012357113, 0.00001004667, 0.00001004667, 0.0, 0.048828125, 0.04815454 
2.4414063e-2, 3.160557e+1, -0.00009147495, -14036.889, -9.674585, 0.0, 0.0014155913, 0.006576495, 0.006576495, 0.0, 0.048828125, 0.04815681 
2.4414063e-2, 3.1653726e+1, -0.0050337454, -14020.727, -71.770546, 0.0, 0.0014780053, 0.36234227, 0.36234227, 0.0, 0.048828125, 0.04815757 
2.4414063e-2, 3.1701884e+1, -0.00007630381, -13980.809, -8.836429, 0.0, 0.0015022166, 0.005508669, 0.005508669, 0.0, 0.048828125, 0.04815944 
2.4414063e-2, 3.1750044e+1, -0.0000009979914, -13935.203, -0.8701314, 0.0, 0.0014382945, 0.00005333409, 0.00005333409, 0.0, 0.048828125, 0.048161574 
2.4414063e-2, 3.1798208e+1, -0.00000011443597, -13895.368, 0.0723587, 0.0, 0.0013618261, 0.00000026236557, 0.00000026236557, 0.0, 0.048828125, 0.04816344 
2.4414063e-2, 3.184637e+1, -0.0000001495961, -13857.28, -0.028482374, 0.0, 0.0014671761, -0.00000009105315, -0.00000009105315, 0.0, 0.048828125, 0.04816523 
2.4414063e-2, 3.1894538e+1, -0.0000072534763, -13814.428, -2.7837715, 0.0, 0.0015578517, 0.0005537095, 0.0005537095, 0.0, 0.048828125, 0.048167236 
2.4414063e-2, 3.1942704e+1, -0.0000005288695, -13782.312, -0.60614127, 0.0, 0.0013653187, 0.00002612901, 0.00002612901, 0.0, 0.048828125, 0.04816874 
2.4414063e-2, 3.1990874e+1, -0.000006277279, -13736.237, 2.5689323, 0.0, 0.0014804546, 0.0004741609, 0.0004741609, 0.0, 0.048828125, 0.0481709 
2.4414063e-2, 3.2039046e+1, -0.0000004718733, -13699.0205, -0.47870597, 0.0, 0.0014209973, 0.000016256286, 0.000016256286, 0.0, 0.048828125, 0.048172645 
2.4414063e-2, 3.208722e+1, -0.000008063917, -13658.9375, -2.9218314, 0.0, 0.0015121775, 0.0006169553, 0.0006169553, 0.0, 0.048828125, 0.048174527 
2.4414063e-2, 3.2135394e+1, -0.00000057879737, -13626.797, 0.55078846, 0.0, 0.0014737685, 0.000021683805, 0.000021683805, 0.0, 0.048828125, 0.048176035 
2.4414063e-2, 3.2183576e+1, -0.000004431874, -13577.899, 2.1838202, 0.0, 0.0013669146, 0.00034680584, 0.00034680584, 0.0, 0.048828125, 0.048178326 
2.4414063e-2, 3.2231754e+1, -0.00000062221534, -13543.812, -0.66600424, 0.0, 0.0013376825, 0.000032127922, 0.000032127922, 0.0, 0.048828125, 0.048179924 
2.4414063e-2, 3.2279932e+1, -0.0000028043385, -13502.896, -1.4006914, 0.0, 0.0017899473, 0.0001424931, 0.0001424931, 0.0, 0.048828125, 0.048181847 
2.4414063e-2, 3.2328117e+1, -0.0000001625505, -13467.54, 0.20854013, 0.0, 0.0014615745, 0.0000030666197, 0.0000030666197, 0.0, 0.048828125, 0.048183504 
2.4414063e-2, 3.23763e+1, -0.00000039478186, -13424.495, 0.5091049, 0.0, 0.0010710092, 0.000018912297, 0.000018912297, 0.0, 0.048828125, 0.048185524 
2.4414063e-2, 3.242449e+1, -0.00000032133894, -13386.828, -0.4997694, 0.0, 0.0014880319, 0.00001833651, 0.00001833651, 0.0, 0.048828125, 0.048187293 
2.4414063e-2, 3.2472676e+1, -0.0000001344877, -13348.135, -0.21753949, 0.0, 0.0018332306, 0.0000034108343, 0.0000034108343, 0.0, 0.048828125, 0.048189107 
2.4414063e-2, 3.2520866e+1, -0.00000062495224, -13307.564, 0.61628515, 0.0, 0.0012644059, 0.000027915763, 0.000027915763, 0.0, 0.048828125, 0.048191015 
2.4414063e-2, 3.2569057e+1, -0.00000007919215, -13273.583, 0.05963707, 0.0, 0.0013552636, 0.00000018875289, 0.00000018875289, 0.0, 0.048828125, 0.04819261 
2.4414063e-2, 3.2617253e+1, -0.000058222275, -13226.994, -7.7118144, 0.0, 0.0015405655, 0.0044380417, 0.0044380417, 0.0, 0.048828125, 0.048194796 
2.4414063e-2, 3.2665446e+1, -0.000007108204, -13194.374, 2.7859697, 0.0, 0.0013900191, 0.0005811446, 0.0005811446, 0.0, 0.048828125, 0.048196327 
2.4414063e-2, 3.2713646e+1, -0.00000008973924, -13145.45, 0.1341055, 0.0, 0.0014652536, 0.0000012783603, 0.0000012783603, 0.0, 0.048828125, 0.048198625 
2.4414063e-2, 3.2761845e+1, -0.0000030233775, -13120.176, -1.7715298, 0.0, 0.0014497733, 0.00023617446, 0.00023617446, 0.0, 0.048828125, 0.048199814 
2.4414063e-2, 3.2810044e+1, -0.0000019903975, -13067.35, 1.1185172, 0.0, 0.0013230368, 0.00009375057, 0.00009375057, 0.0, 0.048828125, 0.048202295 
2.4414063e-2, 3.2858247e+1, -0.000000111133026, -13041.852, -0.17260323, 0.0, 0.0016116777, 0.0000021731958, 0.0000021731958, 0.0, 0.048828125, 0.04820349 
2.4414063e-2, 3.2906452e+1, -0.000002574785, -12989.6455, -1.3146359, 0.0, 0.0013873918, 0.00013047484, 0.00013047484, 0.0, 0.048828125, 0.048205946 
2.4414063e-2, 3.2954657e+1, -0.0000028666084, -12965.573, 1.4995391, 0.0, 0.0013300972, 0.00017056326, 0.00017056326, 0.0, 0.048828125, 0.048207074 
2.4414063e-2, 3.3002868e+1, -0.000000080746325, -12905.954, 0.053184252, 0.0, 0.0015964437, 0.00000013842146, 0.00000013842146, 0.0, 0.048828125, 0.04820988 
2.4414063e-2, 3.305108e+1, -0.00000033801783, -12892.595, -0.42421055, 0.0, 0.00125174, 0.000013619965, 0.000013619965, 0.0, 0.048828125, 0.048210505 
2.4414063e-2, 3.3099288e+1, -0.00000040316647, -12826.514, 0.4568072, 0.0, 0.0014175997, 0.000015865697, 0.000015865697, 0.0, 0.048828125, 0.048213612 
2.4414063e-2, 3.3147502e+1, -0.0000028513177, -12809.8955, -1.437932, 0.0, 0.0015980221, 0.00015855895, 0.00015855895, 0.0, 0.048828125, 0.048214395 
2.4414063e-2, 3.3195722e+1, -0.0000003197221, -12752.157, -0.3838485, 0.0, 0.0012439352, 0.000011234375, 0.000011234375, 0.0, 0.048828125, 0.048217107 
2.4414063e-2, 3.324394e+1, -0.0000045824045, -12726.598, -2.2180827, 0.0, 0.0015246621, 0.00038200096, 0.00038200096, 0.0, 0.048828125, 0.04821831 
2.4414063e-2, 3.3292156e+1, -0.00005955031, -12672.238, -7.79458, 0.0, 0.001660513, 0.004734824, 0.004734824, 0.0, 0.048828125, 0.048220865 
2.4414063e-2, 3.3340377e+1, -0.00003087013, -12659.214, -5.6198816, 0.0, 0.0010313746, 0.0024639978, 0.0024639978, 0.0, 0.048828125, 0.04822148 
2.4414063e-2, 3.3388603e+1, -0.0000003189281, -12596.957, -0.3744394, 0.0, 0.0014160594, 0.000010811129, 0.000010811129, 0.0, 0.048828125, 0.04822441 
2.4414063e-2, 3.3436826e+1, -0.0000024013466, -12576.082, 1.2524405, 0.0, 0.001724378, 0.00012232804, 0.00012232804, 0.0, 0.048828125, 0.048225388 
2.4414063e-2, 3.3485055e+1, -0.00000026340686, -12517.373, 0.34375036, 0.0, 0.0013189588, 0.00000917662, 0.00000917662, 0.0, 0.048828125, 0.048228152 
2.4414063e-2, 3.3533284e+1, -0.0000024797466, -12496.568, -1.6039449, 0.0, 0.001353524, 0.0002033879, 0.0002033879, 0.0, 0.048828125, 0.04822913 
2.4414063e-2, 3.3581513e+1, -0.0000002329239, -12440.384, -0.38058177, 0.0, 0.0016186461, 0.000011410004, 0.000011410004, 0.0, 0.048828125, 0.048231773 
2.4414063e-2, 3.3629745e+1, -0.000002586902, -12419.364, 1.3136497, 0.0, 0.0012372031, 0.00013636348, 0.00013636348, 0.0, 0.048828125, 0.048232764 
2.4414063e-2, 3.3677977e+1, -0.0000009253801, -12359.691, -0.7786332, 0.0, 0.0014108054, 0.00004812679, 0.00004812679, 0.0, 0.048828125, 0.048235573 
2.4414063e-2, 3.3726215e+1, -0.00000021329699, -12343.488, 0.31508967, 0.0, 0.0015597052, 0.000007829933, 0.000007829933, 0.0, 0.048828125, 0.048236337 
2.4414063e-2, 3.3774453e+1, -0.0000003429044, -12280.329, 0.4186247, 0.0, 0.0014913398, 0.000013927611, 0.000013927611, 0.0, 0.048828125, 0.04823931 
2.4414063e-2, 3.382269e+1, -0.0000027430337, -12263.523, -1.7528157, 0.0, 0.0012882319, 0.00024778553, 0.00024778553, 0.0, 0.048828125, 0.0482401 
2.4414063e-2, 3.3870932e+1, -0.00000009463285, -12201.667, -0.15317397, 0.0, 0.0014866409, 0.0000018282426, 0.0000018282426, 0.0, 0.048828125, 0.048243012 
2.4414063e-2, 3.391918e+1, -0.000015469668, -12179.612, -3.9847076, 0.0, 0.0014299625, 0.0012881756, 0.0012881756, 0.0, 0.048828125, 0.04824405 
2.4414063e-2, 3.3967423e+1, -0.0007968631, -12125.681, -28.511948, 0.0, 0.0015386456, 0.06624487, 0.06624487, 0.0, 0.048828125, 0.048246592 
2.4414063e-2, 3.401567e+1, -0.000093776565, -12112.947, -9.782252, 0.0, 0.0013669743, 0.007806233, 0.007806233, 0.0, 0.048828125, 0.048247192 
2.4414063e-2, 3.406392e+1, -0.00000020606252, -12049.877, 0.19990611, 0.0, 0.001294243, 0.000003110359, 0.000003110359, 0.0, 0.048828125, 0.048250165 
2.4414063e-2, 3.411217e+1, -0.0000017733618, -12028.031, 1.0434651, 0.0, 0.0015621389, 0.000088750145, 0.000088750145, 0.0, 0.048828125, 0.048251193 
2.4414063e-2, 3.4160423e+1, -0.0000026432028, -11971.498, -1.3453618, 0.0, 0.0017263434, 0.0001485491, 0.0001485491, 0.0, 0.048828125, 0.048253857 
2.4414063e-2, 3.4208676e+1, -0.0000026635669, -11951.325, -1.4207907, 0.0, 0.0010403941, 0.00016624207, 0.00016624207, 0.0, 0.048828125, 0.04825481 
2.4414063e-2, 3.4256932e+1, -0.0000017607695, -11889.246, 0.99590683, 0.0, 0.0015126786, 0.00008166171, 0.00008166171, 0.0, 0.048828125, 0.048257735 
2.4414063e-2, 3.430519e+1, -0.00000036296112, -11869.334, -0.49687147, 0.0, 0.0015946351, 0.000020436964, 0.000020436964, 0.0, 0.048828125, 0.048258673 
2.4414063e-2, 3.435345e+1, -0.000000117990815, -11817.683, 0.037002116, 0.0, 0.0012020385, -0.0000000021354936, -0.0000000021354936, 0.0, 0.048828125, 0.04826111 
2.4414063e-2, 3.4401715e+1, -0.00000023548924, -11787.036, -0.3282466, 0.0, 0.0015482429, 0.000008905554, 0.000008905554, 0.0, 0.048828125, 0.048262555 
2.4414063e-2, 3.4449977e+1, -0.000002877351, -11741.564, -1.4317762, 0.0, 0.0016823928, 0.00017171464, 0.00017171464, 0.0, 0.048828125, 0.048264697 
2.4414063e-2, 3.4498242e+1, -0.0000016426352, -11709.68, 0.951034, 0.0, 0.0011002583, 0.000075598226, 0.000075598226, 0.0, 0.048828125, 0.048266202 
2.4414063e-2, 3.454651e+1, -0.0000010962588, -11662.298, 0.786985, 0.0, 0.0015467862, 0.00005201037, 0.00005201037, 0.0, 0.048828125, 0.048268437 
2.4414063e-2, 3.459478e+1, -0.0000015035162, -11628.883, -1.0053629, 0.0, 0.0014793751, 0.00008541408, 0.00008541408, 0.0, 0.048828125, 0.048270013 
2.4414063e-2, 3.464305e+1, -0.00000019053878, -11589.096, 0.27194345, 0.0, 0.0013069847, 0.0000061907376, 0.0000061907376, 0.0, 0.048828125, 0.04827189 
2.4414063e-2, 3.4691322e+1, -0.000000521753, -11547.441, -0.6290615, 0.0, 0.0015523578, 0.00003374717, 0.00003374717, 0.0, 0.048828125, 0.048273854 
2.4414063e-2, 3.47396e+1, -0.00000033879755, -11513.694, -0.5337695, 0.0, 0.0013952829, 0.000024406507, 0.000024406507, 0.0, 0.048828125, 0.04827545 
2.4414063e-2, 3.4787872e+1, -0.0000005555514, -11469.252, 0.53443736, 0.0, 0.0013806644, 0.00002434784, 0.00002434784, 0.0, 0.048828125, 0.048277546 
2.4414063e-2, 3.4836152e+1, -0.0000023483706, -11434.785, -1.2485697, 0.0, 0.001565058, 0.00013398357, 0.00013398357, 0.0, 0.048828125, 0.048279174 
2.4414063e-2, 3.4884435e+1, -0.00000016757157, -11393.194, -0.27116537, 0.0, 0.0012433473, 0.0000062863382, 0.0000062863382, 0.0, 0.048828125, 0.048281137 
2.4414063e-2, 3.4932718e+1, -0.0000013207839, -11354.172, 0.8576256, 0.0, 0.0016443699, 0.000063459076, 0.000063459076, 0.0, 0.048828125, 0.048282977 
2.4414063e-2, 3.4981e+1, -0.0000006295012, -11312.744, -0.62402636, 0.0, 0.001457681, 0.00003379264, 0.00003379264, 0.0, 0.048828125, 0.048284933 
2.4414063e-2, 3.5029286e+1, -0.0000014639737, -11280.985, 0.9025349, 0.0, 0.0009906935, 0.0000707433, 0.0000707433, 0.0, 0.048828125, 0.048286434 
2.4414063e-2, 3.5077572e+1, -0.0000024930778, -11230.812, -1.396114, 0.0, 0.0016875793, 0.0001710593, 0.0001710593, 0.0, 0.048828125, 0.048288804 
2.4414063e-2, 3.5125864e+1, -0.00000013775876, -11204.333, 0.15843588, 0.0, 0.0017550745, 0.000002102619, 0.000002102619, 0.0, 0.048828125, 0.048290055 
2.4414063e-2, 3.5174152e+1, -0.0000053236545, -11153.701, 2.4230404, 0.0, 0.0011761151, 0.00052105985, 0.00052105985, 0.0, 0.048828125, 0.048292447 
2.4414063e-2, 3.5222447e+1, -0.0000025196096, -11128.978, -1.300193, 0.0, 0.0012349642, 0.00014938129, 0.00014938129, 0.0, 0.048828125, 0.048293613 
2.4414063e-2, 3.5270742e+1, -0.00007233109, -11091.169, 8.583075, 0.0, 0.0015035114, 0.0065698116, 0.0065698116, 0.0, 0.048828125, 0.0482954 
2.4414063e-2, 3.531904e+1, -0.003556617, -11040.18, -60.18188, 0.0, 0.0018234071, 0.32449532, 0.32449532, 0.0, 0.048828125, 0.04829781 
2.4414063e-2, 3.5367337e+1, -0.00010446788, -10989.506, 10.3133335, 0.0, 0.0013365918, 0.0095742885, 0.0095742885, 0.0, 0.048828125, 0.048300203 
2.4414063e-2, 3.5415637e+1, -0.0000021626993, -10968.115, 1.558706, 0.0, 0.00088894094, 0.00021934889, 0.00021934889, 0.0, 0.048828125, 0.048301216 
2.4414063e-2, 3.546394e+1, -0.000015576581, -10914.779, -3.968464, 0.0, 0.001673542, 0.0014273023, 0.0014273023, 0.0, 0.048828125, 0.04830374 
2.4414063e-2, 3.5512245e+1, -0.0000026560203, -10889.694, -1.6432455, 0.0, 0.001964704, 0.0002453083, 0.0002453083, 0.0, 0.048828125, 0.048304923 
2.4414063e-2, 3.556055e+1, -0.0000041384405, -10844.142, 2.0775616, 0.0, 0.0012331302, 0.00039388862, 0.00039388862, 0.0, 0.048828125, 0.048307076 
2.4414063e-2, 3.5608855e+1, -0.000009668437, -10813.516, 3.1033704, 0.0, 0.00088364084, 0.00088096765, 0.00088096765, 0.0, 0.048828125, 0.048308525 
2.4414063e-2, 3.5657164e+1, -0.0000037921193, -10757.024, -1.9864151, 0.0, 0.0016951676, 0.00036302357, 0.00036302357, 0.0, 0.048828125, 0.048311196 
2.4414063e-2, 3.570548e+1, -0.000009782296, -10736.891, -3.1150537, 0.0, 0.0019224435, 0.00089397636, 0.00089397636, 0.0, 0.048828125, 0.04831215 
2.4414063e-2, 3.5753793e+1, -0.0000032649418, -10688.262, 1.8332882, 0.0, 0.0012279579, 0.0003111871, 0.0003111871, 0.0, 0.048828125, 0.04831445 
2.4414063e-2, 3.5802108e+1, -0.000011338527, -10655.105, 3.3748393, 0.0, 0.0010498014, 0.0010575893, 0.0010575893, 0.0, 0.048828125, 0.048316017 
2.4414063e-2, 3.5850427e+1, -0.000001558328, -10603.465, -1.295976, 0.0, 0.0017350097, 0.00015683836, 0.00015683836, 0.0, 0.048828125, 0.04831846 
2.4414063e-2, 3.5898742e+1, -0.0000075628063, -10578.971, -2.777054, 0.0, 0.0015337445, 0.0007214334, 0.0007214334, 0.0, 0.048828125, 0.04831962 
2.4414063e-2, 3.5947064e+1, -0.0000020972857, -10533.389, 1.3094885, 0.0, 0.0012940576, 0.00016069553, 0.00016069553, 0.0, 0.048828125, 0.048321776 
2.4414063e-2, 3.5995388e+1, -0.0000032751407, -10494.767, 1.8488588, 0.0, 0.0015558285, 0.00032243758, 0.00032243758, 0.0, 0.048828125, 0.048323605 
2.4414063e-2, 3.6043712e+1, -0.0000017168196, -10453.567, -1.1198102, 0.0, 0.0015722938, 0.000118239834, 0.000118239834, 0.0, 0.048828125, 0.048325554 
2.4414063e-2, 3.6092037e+1, -0.00000023792255, -10416.789, -0.3420971, 0.0, 0.0010895132, 0.000010996866, 0.000010996866, 0.0, 0.048828125, 0.048327297 
2.4414063e-2, 3.6140364e+1, -0.0000012576298, -10379.184, 0.87390274, 0.0, 0.0015014422, 0.00007232292, 0.00007232292, 0.0, 0.048828125, 0.048329078 
2.4414063e-2, 3.6188698e+1, -0.0000002715218, -10335.52, -0.3591303, 0.0, 0.0018046813, 0.000012207247, 0.000012207247, 0.0, 0.048828125, 0.048331145 
2.4414063e-2, 3.6237025e+1, -0.0000001074295, -10304.049, -0.12969175, 0.0, 0.0014313475, 0.0000015249334, 0.0000015249334, 0.0, 0.048828125, 0.048332635 
2.4414063e-2, 3.6285362e+1, -0.00000038823762, -10253.073, 0.4571347, 0.0, 0.0009994918, 0.000019993175, 0.000019993175, 0.0, 0.048828125, 0.04833505 
2.4414063e-2, 3.6333698e+1, -0.00000012584286, -10230.566, -0.19799961, 0.0, 0.0015043594, 0.0000037061873, 0.0000037061873, 0.0, 0.048828125, 0.048336115 
2.4414063e-2, 3.6382037e+1, -0.000000092698784, -10171.482, 0.07093037, 0.0, 0.0019003451, 0.00000040193117, 0.00000040193117, 0.0, 0.048828125, 0.048338912 
2.4414063e-2, 3.6430374e+1, -0.000000112073785, -10153.962, 0.036396988, 0.0, 0.0014216301, 0.000000018391802, 0.000000018391802, 0.0, 0.048828125, 0.048339743 
2.4414063e-2, 3.647872e+1, -0.0000005515878, -10089.365, -0.55810845, 0.0, 0.00091271073, 0.000030321024, 0.000030321024, 0.0, 0.048828125, 0.048342805 
2.4414063e-2, 3.6527058e+1, -0.00000025695107, -10081.103, 0.24524741, 0.0, 0.0015705534, 0.000005709291, 0.000005709291, 0.0, 0.048828125, 0.048343197 
2.4414063e-2, 3.6575404e+1, -0.00000070360284, -10010.341, 0.61169004, 0.0, 0.0018383459, 0.000036674213, 0.000036674213, 0.0, 0.048828125, 0.04834655 
2.4414063e-2, 3.662375e+1, -0.00000025781813, -9999.9795, -0.26515093, 0.0, 0.0012427331, 0.000006772698, 0.000006772698, 0.0, 0.048828125, 0.04834704 
2.4414063e-2, 3.66721e+1, -0.0000013675874, -9931.193, -0.90583414, 0.0, 0.0012998567, 0.000081254446, 0.000081254446, 0.0, 0.048828125, 0.0483503 
2.4414063e-2, 3.6720452e+1, -0.00000015931727, -9925.807, -0.13839644, 0.0, 0.001739232, 0.0000017703569, 0.0000017703569, 0.0, 0.048828125, 0.048350558 
2.4414063e-2, 3.6768803e+1, -0.000003512546, -9851.99, 1.9489341, 0.0, 0.0011001581, 0.00038202823, 0.00038202823, 0.0, 0.048828125, 0.04835406 
2.4414063e-2, 3.6817157e+1, -0.00062745385, -9848.239, -25.253036, 0.0, 0.0012225595, 0.06412643, 0.06412643, 0.0, 0.048828125, 0.048354235 
2.4414063e-2, 3.6865512e+1, -0.00000010197477, -9771.102, -0.07125807, 0.0, 0.0021076545, 0.0000004176909, 0.0000004176909, 0.0, 0.048828125, 0.048357893 
2.4414063e-2, 3.6913872e+1, -0.00000020902534, -9770.909, 0.17419125, 0.0, 0.0015058264, 0.000002896375, 0.000002896375, 0.0, 0.048828125, 0.048357904 
2.4414063e-2, 3.6962232e+1, -0.00000015615642, -9690.57, -0.25920996, 0.0, 0.00066244305, 0.000006777369, 0.000006777369, 0.0, 0.048828125, 0.048361715 
2.4414063e-2, 3.7010592e+1, -0.00000026767262, -9696.813, -0.35451198, 0.0, 0.0015363472, 0.000012693155, 0.000012693155, 0.0, 0.048828125, 0.048361417 
2.4414063e-2, 3.7058955e+1, -0.0000007536203, -9611.014, 0.6086502, 0.0, 0.002018214, 0.000037791233, 0.000037791233, 0.0, 0.048828125, 0.04836549 
2.4414063e-2, 3.710732e+1, -0.00000016336774, -9618.147, -0.25894836, 0.0, 0.0012720301, 0.000006808272, 0.000006808272, 0.0, 0.048828125, 0.04836515 
2.4414063e-2, 3.7155688e+1, -0.00000028336342, -9533.029, -0.38620326, 0.0, 0.0011531006, 0.000015362551, 0.000015362551, 0.0, 0.048828125, 0.04836919 
2.4414063e-2, 3.7204057e+1, -0.0000002905746, -9540.87, 0.26655367, 0.0, 0.0015019239, 0.0000071564245, 0.0000071564245, 0.0, 0.048828125, 0.04836882 
2.4414063e-2, 3.725243e+1, -0.0000006999335, -9451.548, -0.66601765, 0.0, 0.0015825785, 0.00004623201, 0.00004623201, 0.0, 0.048828125, 0.04837306 
2.4414063e-2, 3.73008e+1, -0.0000002219749, -9466.956, -0.25578955, 0.0, 0.0015335429, 0.0000066892535, 0.0000066892535, 0.0, 0.048828125, 0.04837233 
2.4414063e-2, 3.7349173e+1, -0.0000015987941, -9374.777, 0.8746583, 0.0, 0.0012064768, 0.00008000604, 0.00008000604, 0.0, 0.048828125, 0.048376705 
2.4414063e-2, 3.7397552e+1, -0.00000024493968, -9384.275, -0.36515322, 0.0, 0.001114801, 0.000013963601, 0.000013963601, 0.0, 0.048828125, 0.04837625 
2.4414063e-2, 3.744593e+1, -0.000001853302, -9294.54, -1.1865951, 0.0, 0.0020716193, 0.00014963433, 0.00014963433, 0.0, 0.048828125, 0.048380516 
2.4414063e-2, 3.7494314e+1, -0.00000015370244, -9310.157, -0.022694755, 0.0, 0.0017853834, -0.00000009838186, -0.00000009838186, 0.0, 0.048828125, 0.04837977 
2.4414063e-2, 3.7542695e+1, -0.0000018678508, -9216.978, -1.1118422, 0.0, 0.0004773261, 0.00013225345, 0.00013225345, 0.0, 0.048828125, 0.0483842 
2.4414063e-2, 3.7591076e+1, -0.00000038525002, -9230.42, -0.44477177, 0.0, 0.0011478177, 0.000021046271, 0.000021046271, 0.0, 0.048828125, 0.04838356 
2.4414063e-2, 3.7639463e+1, -0.0000005674657, -9144.234, 0.52153254, 0.0, 0.0026022545, 0.000029177632, 0.000029177632, 0.0, 0.048828125, 0.048387654 
2.4414063e-2, 3.768785e+1, -0.0000012465263, -9149.43, 1.2121805, 0.0, 0.0014105182, 0.00015935164, 0.00015935164, 0.0, 0.048828125, 0.04838741 
2.4414063e-2, 3.773624e+1, -0.0000832136, -9066.012, -9.189521, 0.0, 0.0006035172, 0.009231489, 0.009231489, 0.0, 0.048828125, 0.048391372 
2.4414063e-2, 3.778463e+1, -0.00007636565, -9067.627, -8.804253, 0.0, 0.001665176, 0.008472156, 0.008472156, 0.0, 0.048828125, 0.048391297 
2.4414063e-2, 3.7833023e+1, -0.0000189798, -8992.732, 4.387824, 0.0, 0.0017610096, 0.0021219708, 0.0021219708, 0.0, 0.048828125, 0.048394855 
2.4414063e-2, 3.788142e+1, -0.00000013231275, -8981.736, -0.019750092, 0.0, 0.0011973667, -0.00000008888492, -0.00000008888492, 0.0, 0.048828125, 0.04839538 
2.4414063e-2, 3.7929818e+1, -0.0000060030475, -8914.946, -2.4982498, 0.0, 0.0015626476, 0.0006940855, 0.0006940855, 0.0, 0.048828125, 0.048398554 
2.4414063e-2, 3.7978214e+1, -0.00000044498213, -8908.772, 0.4766091, 0.0, 0.0014580103, 0.000025053057, 0.000025053057, 0.0, 0.048828125, 0.04839885 
2.4414063e-2, 3.8026616e+1, -0.0000009854075, -8841.402, 1.1312947, 0.0, 0.0013428836, 0.00014376851, 0.00014376851, 0.0, 0.048828125, 0.048402052 
2.4414063e-2, 3.8075015e+1, -0.0000016812161, -8822.241, -0.9835472, 0.0, 0.0015039833, 0.00010796951, 0.00010796951, 0.0, 0.048828125, 0.048402965 
2.4414063e-2, 3.812342e+1, -0.00000083242696, -8771.155, 0.6537244, 0.0, 0.0014090606, 0.00004789041, 0.00004789041, 0.0, 0.048828125, 0.048405394 
2.4414063e-2, 3.8171828e+1, -0.0000005459224, -8737.464, 0.537351, 0.0, 0.0015494414, 0.000032500982, 0.000032500982, 0.0, 0.048828125, 0.048406996 
2.4414063e-2, 3.8220233e+1, -0.000002488202, -8691.328, -1.5702374, 0.0, 0.0014046024, 0.00028120208, 0.00028120208, 0.0, 0.048828125, 0.048409194 
2.4414063e-2, 3.8268647e+1, -0.00000022864282, -8662.767, 0.34997016, 0.0, 0.0011438372, 0.000013909925, 0.000013909925, 0.0, 0.048828125, 0.04841055 
2.4414063e-2, 3.8317057e+1, -0.0000013441145, -8619.784, 0.80026364, 0.0, 0.0018238875, 0.00007295264, 0.00007295264, 0.0, 0.048828125, 0.0484126 
2.4414063e-2, 3.836547e+1, -0.0000010290195, -8575.8, -0.7356397, 0.0, 0.0017193805, 0.0000620748, 0.0000620748, 0.0, 0.048828125, 0.048414692 
2.4414063e-2, 3.8413888e+1, -0.00000030313166, -8545.629, 0.33527243, 0.0, 0.00090766966, 0.000012850682, 0.000012850682, 0.0, 0.048828125, 0.048416127 
2.4414063e-2, 3.8462302e+1, -0.00000020555953, -8494.829, 0.14403537, 0.0, 0.0014531979, 0.000002236653, 0.000002236653, 0.0, 0.048828125, 0.048418544 
2.4414063e-2, 3.8510722e+1, -0.000000626015, -8469.52, -0.5712424, 0.0, 0.0017935395, 0.00003790249, 0.00003790249, 0.0, 0.048828125, 0.04841975 
2.4414063e-2, 3.8559142e+1, -0.00000044959862, -8414.648, 0.4653412, 0.0, 0.0013319531, 0.00002528439, 0.00002528439, 0.0, 0.048828125, 0.048422363 
2.4414063e-2, 3.8607568e+1, -0.0000001199191, -8397.591, 0.08233108, 0.0, 0.0014054151, 0.00000068726695, 0.00000068726695, 0.0, 0.048828125, 0.048423175 
2.4414063e-2, 3.865599e+1, -0.00000039447355, -8331.044, -0.44776165, 0.0, 0.0016080827, 0.000023670997, 0.000023670997, 0.0, 0.048828125, 0.048426345 
2.4414063e-2, 3.870442e+1, -0.0000001393738, -8322.181, 0.13460623, 0.0, 0.0013281107, 0.0000020377993, 0.0000020377993, 0.0, 0.048828125, 0.048426766 
2.4414063e-2, 3.8752845e+1, -0.0000014197727, -8251.348, 0.8249849, 0.0, 0.0014170465, 0.00008106374, 0.00008106374, 0.0, 0.048828125, 0.04843014 
2.4414063e-2, 3.8801277e+1, -0.000081100574, -8250.89, -9.064865, 0.0, 0.0015637056, 0.00987803, 0.00987803, 0.0, 0.048828125, 0.048430163 
2.4414063e-2, 3.8849708e+1, -0.0000027189508, -8161.6753, 1.7278911, 0.0, 0.0015709953, 0.00036308923, 0.00036308923, 0.0, 0.048828125, 0.048434414 
2.4414063e-2, 3.8898143e+1, -0.00000022145571, -8176.7417, -0.16526264, 0.0, 0.0012748784, 0.0000031187183, 0.0000031187183, 0.0, 0.048828125, 0.0484337 
2.4414063e-2, 3.8946578e+1, -0.00000016034035, -8082.395, 0.0313594, 0.0, 0.0015499553, -0.000000038667167, -0.000000038667167, 0.0, 0.048828125, 0.048438195 
2.4414063e-2, 3.899502e+1, -0.00000009724856, -8100.1826, -0.021320688, 0.0, 0.001481611, -0.00000004113008, -0.00000004113008, 0.0, 0.048828125, 0.048437346 
2.4414063e-2, 3.9043456e+1, -0.000002664925, -8003.6455, 1.689701, 0.0, 0.0013953514, 0.0003540587, 0.0003540587, 0.0, 0.048828125, 0.048441947 
2.4414063e-2, 3.90919e+1, -0.000001158108, -8024.9805, -1.1212176, 0.0, 0.0014984477, 0.00015549385, 0.00015549385, 0.0, 0.048828125, 0.04844093 
2.4414063e-2, 3.9140344e+1, -0.0000142602, -7921.0747, -3.8006637, 0.0, 0.0016321854, 0.001809361, 0.001809361, 0.0, 0.048828125, 0.048445884 
2.4414063e-2, 3.9188784e+1, -0.000000328387, -7945.4697, 0.37880513, 0.0, 0.0012466938, 0.000017731378, 0.000017731378, 0.0, 0.048828125, 0.04844472 
2.4414063e-2, 3.9237237e+1, -0.000043143817, -7824.9756, -6.610168, 0.0, 0.0015516791, 0.005540808, 0.005540808, 0.0, 0.048828125, 0.04845047 
2.4414063e-2, 3.9285684e+1, -0.0071095866, -7877.794, -84.86898, 0.0, 0.0014777168, 0.9070949, 0.9070949, 0.0, 0.048828125, 0.04844795 
2.4414063e-2, 3.9334133e+1, -0.0003472573, -7774.0156, -18.754633, 0.0, 0.0014297927, 0.044897597, 0.044897597, 0.0, 0.048828125, 0.0484529 
2.4414063e-2, 3.938259e+1, -0.0000013610219, -7792.1704, 1.2021642, 0.0, 0.0014415911, 0.00018410703, 0.00018410703, 0.0, 0.048828125, 0.048452035 
2.4414063e-2, 3.943104e+1, -0.000032445263, -7667.705, -5.72963, 0.0, 0.0016479966, 0.0042489716, 0.0042489716, 0.0, 0.048828125, 0.048457973 
2.4414063e-2, 3.94795e+1, -0.0004867311, -7725.325, -22.203253, 0.0, 0.0012324365, 0.063326806, 0.063326806, 0.0, 0.048828125, 0.048455223 
2.4414063e-2, 3.952796e+1, -0.00022478614, -7614.122, -15.087026, 0.0, 0.0016032484, 0.029669331, 0.029669331, 0.0, 0.048828125, 0.048460532 
2.4414063e-2, 3.9576417e+1, -0.00000012568954, -7641.8423, -0.00022091153, 0.0, 0.0014564301, -0.00000012568307, -0.00000012568307, 0.0, 0.048828125, 0.04845921 
2.4414063e-2, 3.962488e+1, -0.000014103892, -7526.058, 3.7810857, 0.0, 0.001288309, 0.0018855102, 0.0018855102, 0.0, 0.048828125, 0.048464734 
2.4414063e-2, 3.9673343e+1, -0.00004627811, -7564.698, -6.843929, 0.0, 0.0015372542, 0.006145552, 0.006145552, 0.0, 0.048828125, 0.04846289 
2.4414063e-2, 3.972181e+1, -0.0000023388902, -7447.317, -1.5913473, 0.0, 0.0017343226, 0.0003377012, 0.0003377012, 0.0, 0.048828125, 0.048468497 
2.4414063e-2, 3.9770275e+1, -0.00000067950674, -7480.4307, 0.5654954, 0.0, 0.001168517, 0.000042070034, 0.000042070034, 0.0, 0.048828125, 0.048466913 
2.4414063e-2, 3.9818746e+1, -0.00000093449404, -7368.7505, 0.649826, 0.0, 0.0013832076, 0.000056371537, 0.000056371537, 0.0, 0.048828125, 0.048472248 
2.4414063e-2, 3.986722e+1, -0.00000020929218, -7406.6875, 0.26079187, 0.0, 0.0015337813, 0.000008973276, 0.000008973276, 0.0, 0.048828125, 0.048470438 
2.4414063e-2, 3.9915687e+1, -0.0000008802017, -7290.2676, 0.61123306, 0.0, 0.0016807006, 0.000050367005, 0.000050367005, 0.0, 0.048828125, 0.048476 
2.4414063e-2, 3.9964163e+1, -0.0000010532485, -7323.294, -0.9104198, 0.0, 0.0012295059, 0.00011212865, 0.00011212865, 0.0, 0.048828125, 0.04847442 
2.4414063e-2, 4.0012643e+1, -0.0000013007045, -7215.804, -0.7727793, 0.0, 0.0013635645, 0.00008146038, 0.00008146038, 0.0, 0.048828125, 0.048479557 
2.4414063e-2, 4.0061122e+1, -0.000001196318, -7246.092, 0.83624977, 0.0, 0.0015724518, 0.00009531276, 0.00009531276, 0.0, 0.048828125, 0.048478108 
2.4414063e-2, 4.01096e+1, -0.0000011885281, -7137.335, 0.6788762, 0.0, 0.001492512, 0.000063383595, 0.000063383595, 0.0, 0.048828125, 0.04848331 
2.4414063e-2, 4.0158084e+1, -0.00000018147676, -7164.3784, -0.21664979, 0.0, 0.0012511393, 0.0000063699817, 0.0000063699817, 0.0, 0.048828125, 0.048482016 
2.4414063e-2, 4.020657e+1, -0.00000016876497, -7064.774, -0.061087776, 0.0, 0.0017604806, 0.0000003594496, 0.0000003594496, 0.0, 0.048828125, 0.048486777 
2.4414063e-2, 4.0255055e+1, -0.0000099699155, -7087.68, -3.1826296, 0.0, 0.0013348813, 0.0014191476, 0.0014191476, 0.0, 0.048828125, 0.04848568 
2.4414063e-2, 4.0303543e+1, -0.00014198192, -6985.028, -11.984125, 0.0, 0.0011157425, 0.020418974, 0.020418974, 0.0, 0.048828125, 0.048490588 
2.4414063e-2, 4.0352035e+1, -0.0000032126195, -6999.1714, 1.9008772, 0.0, 0.0016505314, 0.00051303906, 0.00051303906, 0.0, 0.048828125, 0.048489913 
2.4414063e-2, 4.0400523e+1, -0.0000014232983, -6916.7944, 1.2244078, 0.0, 0.0017614032, 0.00021532079, 0.00021532079, 0.0, 0.048828125, 0.04849385 
2.4414063e-2, 4.044902e+1, -0.00011969689, -6920.386, -11.00431, 0.0, 0.001133723, 0.017378533, 0.017378533, 0.0, 0.048828125, 0.04849368 
2.4414063e-2, 4.0497512e+1, -0.000078072444, -6835.684, -8.886914, 0.0, 0.0013903985, 0.01147558, 0.01147558, 0.0, 0.048828125, 0.048497733 
2.4414063e-2, 4.0546012e+1, -0.000005586754, -6834.023, 2.3544807, 0.0, 0.0016030112, 0.0008055868, 0.0008055868, 0.0, 0.048828125, 0.04849781 
2.4414063e-2, 4.0594512e+1, -0.0000013291207, -6766.266, -1.1368886, 0.0, 0.0013691192, 0.00018969437, 0.00018969437, 0.0, 0.048828125, 0.048501056 
2.4414063e-2, 4.0643013e+1, -0.00000011449873, -6755.4575, 0.0034117023, 0.0, 0.0014518012, -0.000000112775524, -0.000000112775524, 0.0, 0.048828125, 0.04850157 
2.4414063e-2, 4.0691516e+1, -0.0000014733339, -6689.08, 1.2439383, 0.0, 0.0015100418, 0.0002298563, 0.0002298563, 0.0, 0.048828125, 0.048504747 
2.4414063e-2, 4.0740022e+1, -0.00000030491583, -6675.994, -0.33056638, 0.0, 0.00134245, 0.000016063303, 0.000016063303, 0.0, 0.048828125, 0.048505373 
2.4414063e-2, 4.0788528e+1, -0.00000092960454, -6614.3877, -0.59261066, 0.0, 0.0015788149, 0.00005216487, 0.00005216487, 0.0, 0.048828125, 0.048508324 
2.4414063e-2, 4.0837038e+1, -0.0000002315503, -6593.7837, 0.23229955, 0.0, 0.001475527, 0.000007952382, 0.000007952382, 0.0, 0.048828125, 0.04850931 
2.4414063e-2, 4.0885547e+1, -0.00000024600678, -6539.3135, -0.27232143, 0.0, 0.0011740589, 0.000011094475, 0.000011094475, 0.0, 0.048828125, 0.04851192 
2.4414063e-2, 4.0934062e+1, -0.0000006752999, -6510.2915, -0.49426243, 0.0, 0.001619999, 0.000036849186, 0.000036849186, 0.0, 0.048828125, 0.04851331 
2.4414063e-2, 4.0982574e+1, -0.000004229093, -6460.872, -2.05383, 0.0, 0.001571062, 0.0006486575, 0.0006486575, 0.0, 0.048828125, 0.048515674 
2.4414063e-2, 4.1031092e+1, -0.000038360242, -6433.22, -6.226008, 0.0, 0.0012883624, 0.0059871045, 0.0059871045, 0.0, 0.048828125, 0.048517 
2.4414063e-2, 4.1079608e+1, -0.000030293633, -6391.2476, -5.5361366, 0.0, 0.0015224764, 0.0047651376, 0.0047651376, 0.0, 0.048828125, 0.04851901 
2.4414063e-2, 4.112813e+1, -0.0000010426475, -6352.333, 0.5915867, 0.0, 0.0015183409, 0.000054051263, 0.000054051263, 0.0, 0.048828125, 0.048520874 
2.4414063e-2, 4.117665e+1, -0.0000013257054, -6305.9697, -1.2021568, 0.0, 0.0012360223, 0.00022785092, 0.00022785092, 0.0, 0.048828125, 0.0485231 
2.4414063e-2, 4.1225174e+1, -0.00006380437, -6274.83, -8.027557, 0.0, 0.0015657023, 0.0102060465, 0.0102060465, 0.0, 0.048828125, 0.04852459 
2.4414063e-2, 4.12737e+1, -0.00003456282, -6240.076, -5.91094, 0.0, 0.0015564596, 0.0055645974, 0.0055645974, 0.0, 0.048828125, 0.048526254 
2.4414063e-2, 4.1322228e+1, -0.00000088402413, -6191.8184, 0.5071454, 0.0, 0.0013511876, 0.00004065409, 0.00004065409, 0.0, 0.048828125, 0.048528567 
2.4414063e-2, 4.1370758e+1, -0.0000014233357, -6158.8555, 1.2312024, 0.0, 0.0014625043, 0.00024470343, 0.00024470343, 0.0, 0.048828125, 0.048530146 
2.4414063e-2, 4.141929e+1, -0.00000028319243, -6112.656, -0.33994547, 0.0, 0.0015417174, 0.000018622326, 0.000018622326, 0.0, 0.048828125, 0.048532363 
2.4414063e-2, 4.1467822e+1, -0.00000013953272, -6084.7905, -0.13803382, 0.0, 0.0012880199, 0.000002991772, 0.000002991772, 0.0, 0.048828125, 0.0485337 
2.4414063e-2, 4.1516358e+1, -0.0000010329859, -6030.6714, -0.6295849, 0.0, 0.0016043342, 0.000064693886, 0.000064693886, 0.0, 0.048828125, 0.048536293 
2.4414063e-2, 4.1564897e+1, -0.0000008790492, -6006.4263, -0.5617991, 0.0, 0.0013794976, 0.00005166771, 0.00005166771, 0.0, 0.048828125, 0.048537455 
2.4414063e-2, 4.1613433e+1, -0.00000022444365, -5952.335, 0.21638492, 0.0, 0.0013910489, 0.000007641786, 0.000007641786, 0.0, 0.048828125, 0.048540052 
2.4414063e-2, 4.1661972e+1, -0.0000050900844, -5924.322, -2.2778976, 0.0, 0.0016833897, 0.00087075983, 0.00087075983, 0.0, 0.048828125, 0.048541397 
2.4414063e-2, 4.1710514e+1, -0.000038617076, -5874.8228, -6.244351, 0.0, 0.0014158777, 0.0065984987, 0.0065984987, 0.0, 0.048828125, 0.04854377 
2.4414063e-2, 4.175906e+1, -0.00028120077, -5853.0093, -16.850302, 0.0, 0.001207817, 0.048228946, 0.048228946, 0.0, 0.048828125, 0.048544817 
2.4414063e-2, 4.1807607e+1, -0.000012373202, -5801.307, -3.5375352, 0.0, 0.0016547865, 0.0021447528, 0.0021447528, 0.0, 0.048828125, 0.048547298 
2.4414063e-2, 4.1856155e+1, -0.00000019832935, -5769.518, 0.21482895, 0.0, 0.0014387494, 0.000007800862, 0.000007800862, 0.0, 0.048828125, 0.048548825 
2.4414063e-2, 4.1904706e+1, -0.0000008480274, -5724.181, 0.5975505, 0.0, 0.0014399154, 0.00006153061, 0.00006153061, 0.0, 0.048828125, 0.048551 
2.4414063e-2, 4.195326e+1, -0.000008078656, -5691.1274, -2.8485603, 0.0, 0.001468532, 0.0014177009, 0.0014177009, 0.0, 0.048828125, 0.048552588 
2.4414063e-2, 4.2001808e+1, -0.00000025443896, -5644.6787, -0.31443143, 0.0, 0.0014226923, 0.000017260661, 0.000017260661, 0.0, 0.048828125, 0.048554815 
2.4414063e-2, 4.2050365e+1, -0.0000007187687, -5607.98, -0.8484657, 0.0, 0.0015234828, 0.0001276508, 0.0001276508, 0.0, 0.048828125, 0.048556577 
2.4414063e-2, 4.2098922e+1, -0.00000015562541, -5574.833, 0.17153205, 0.0, 0.0014502817, 0.000005122244, 0.000005122244, 0.0, 0.048828125, 0.04855817 
2.4414063e-2, 4.2147484e+1, -0.0000056914023, -5528.248, 2.372831, 0.0, 0.0013796664, 0.0010127735, 0.0010127735, 0.0, 0.048828125, 0.048560407 
2.4414063e-2, 4.2196044e+1, -0.0000012271558, -5491.0493, -1.1217124, 0.0, 0.001531089, 0.00022791642, 0.00022791642, 0.0, 0.048828125, 0.048562195 
2.4414063e-2, 4.2244607e+1, -0.0000037059392, -5451.2695, -1.8636636, 0.0, 0.0014084815, 0.00063343765, 0.00063343765, 0.0, 0.048828125, 0.048564106 
2.4414063e-2, 4.229317e+1, -0.0000012587191, -5417.7905, 1.1617765, 0.0, 0.0014916249, 0.00024786955, 0.00024786955, 0.0, 0.048828125, 0.048565716 
2.4414063e-2, 4.234174e+1, -0.00000020660666, -5369.09, 0.22277534, 0.0, 0.0014321295, 0.000009036831, 0.000009036831, 0.0, 0.048828125, 0.048568055 
2.4414063e-2, 4.2390308e+1, -0.00000008186424, -5340.3916, 0.042515058, 0.0, 0.0013653684, 0.00000025659938, 0.00000025659938, 0.0, 0.048828125, 0.048569433 
2.4414063e-2, 4.2438877e+1, -0.00000034561555, -5289.051, -0.688964, 0.0, 0.0016575519, 0.00008940043, 0.00008940043, 0.0, 0.048828125, 0.0485719 
2.4414063e-2, 4.2487448e+1, -0.00053312664, -5267.067, -23.19095, 0.0, 0.001467108, 0.101574905, 0.101574905, 0.0, 0.048828125, 0.048572958 
2.4414063e-2, 4.2536026e+1, -0.00014927835, -5209.914, -12.271713, 0.0, 0.001177448, 0.028756019, 0.028756019, 0.0, 0.048828125, 0.048575703 
2.4414063e-2, 4.25846e+1, -0.000005773122, -5187.9063, 2.4198058, 0.0, 0.0015586984, 0.0011229017, 0.0011229017, 0.0, 0.048828125, 0.04857676 
2.4414063e-2, 4.263318e+1, -0.0000020201323, -5134.0464, 1.5531834, 0.0, 0.0016198338, 0.00046785845, 0.00046785845, 0.0, 0.048828125, 0.048579354 
2.4414063e-2, 4.268176e+1, -0.00012169927, -5110.0767, -11.079846, 0.0, 0.0013547946, 0.023901897, 0.023901897, 0.0, 0.048828125, 0.048580505 
2.4414063e-2, 4.2730343e+1, -0.00003718141, -5047.715, -6.126227, 0.0, 0.001414935, 0.0073979846, 0.0073979846, 0.0, 0.048828125, 0.048583504 
2.4414063e-2, 4.2778924e+1, -0.0000023849852, -5034.704, 1.618324, 0.0, 0.0015218491, 0.000517799, 0.000517799, 0.0, 0.048828125, 0.04858413 
2.4414063e-2, 4.282751e+1, -0.00000090306713, -4967.7627, -1.047331, 0.0, 0.0014042744, 0.00021990098, 0.00021990098, 0.0, 0.048828125, 0.04858735 
2.4414063e-2, 4.2876098e+1, -0.00000078138197, -4961.3594, 0.49721068, 0.0, 0.0014539964, 0.000049047394, 0.000049047394, 0.0, 0.048828125, 0.048587658 
2.4414063e-2, 4.2924687e+1, -0.0000010339808, -4888.8394, 1.029822, 0.0, 0.0015251935, 0.0002158955, 0.0002158955, 0.0, 0.048828125, 0.048591148 
2.4414063e-2, 4.2973277e+1, -0.00000036203048, -4881.045, -0.5512026, 0.0, 0.0013856363, 0.000061883715, 0.000061883715, 0.0, 0.048828125, 0.048591524 
2.4414063e-2, 4.3021873e+1, -0.00000050414457, -4809.348, -0.32171467, 0.0, 0.0015150151, 0.000021016509, 0.000021016509, 0.0, 0.048828125, 0.048594974 
2.4414063e-2, 4.3070468e+1, -0.0000001712787, -4807.926, 0.23271613, 0.0, 0.0015104819, 0.000011092788, 0.000011092788, 0.0, 0.048828125, 0.04859504 
2.4414063e-2, 4.3119064e+1, -0.0000003783939, -4730.8613, 0.3599068, 0.0, 0.0012953933, 0.000027002014, 0.000027002014, 0.0, 0.048828125, 0.04859875 
2.4414063e-2, 4.3167663e+1, -0.0000007077421, -4723.8735, 0.64244455, 0.0, 0.0016033811, 0.000086664404, 0.000086664404, 0.0, 0.048828125, 0.048599087 
2.4414063e-2, 4.3216264e+1, -0.000005400932, -4653.071, -2.3236196, 0.0, 0.0013983775, 0.0011549523, 0.0011549523, 0.0, 0.048828125, 0.048602495 
2.4414063e-2, 4.3264866e+1, -0.000023998275, -4650.1987, -4.91818, 0.0, 0.0012207936, 0.0051776003, 0.0051776003, 0.0, 0.048828125, 0.048602637 
2.4414063e-2, 4.3313473e+1, -0.0000087274375, -4574.6035, -2.9662826, 0.0, 0.001936323, 0.0019146806, 0.0019146806, 0.0, 0.048828125, 0.048606277 
2.4414063e-2, 4.3362075e+1, -0.00000052381347, -4571.9976, 0.41350594, 0.0, 0.001610549, 0.00003687497, 0.00003687497, 0.0, 0.048828125, 0.048606403 
2.4414063e-2, 4.3410686e+1, -0.0000008081582, -4496.9097, 0.52674216, 0.0, 0.0006779273, 0.00006089139, 0.00006089139, 0.0, 0.048828125, 0.04861002 
2.4414063e-2, 4.3459296e+1, -0.00001849598, -4487.401, -4.321094, 0.0, 0.0016184464, 0.0041424506, 0.0041424506, 0.0, 0.048828125, 0.04861048 
2.4414063e-2, 4.3507907e+1, -0.000027230022, -4426.0767, -5.243914, 0.0, 0.0020212794, 0.0061856303, 0.0061856303, 0.0, 0.048828125, 0.048613433 
2.4414063e-2, 4.3556523e+1, -0.0000013047551, -4411.007, 1.2454678, 0.0, 0.0013489461, 0.0003503587, 0.0003503587, 0.0, 0.048828125, 0.04861416 
2.4414063e-2, 4.3605137e+1, -0.0000034756965, -4343.623, 1.874553, 0.0, 0.0010328225, 0.00080551446, 0.00080551446, 0.0, 0.048828125, 0.048617404 
2.4414063e-2, 4.3653756e+1, -0.000001031027, -4334.1626, -1.1562717, 0.0, 0.0015186833, 0.00030744015, 0.00030744015, 0.0, 0.048828125, 0.048617862 
2.4414063e-2, 4.3702373e+1, -0.0000006094903, -4268.909, 0.68384045, 0.0, 0.0018189603, 0.000108935536, 0.000108935536, 0.0, 0.048828125, 0.048621006 
2.4414063e-2, 4.3750995e+1, -0.00000046810882, -4248.765, -0.32966748, 0.0, 0.001585184, 0.000025111236, 0.000025111236, 0.0, 0.048828125, 0.04862198 
2.4414063e-2, 4.3799618e+1, -0.0000012683395, -4189.256, -1.2533181, 0.0, 0.00084270135, 0.00037369228, 0.00037369228, 0.0, 0.048828125, 0.048624847 
2.4414063e-2, 4.3848243e+1, -0.0000042615557, -4175.71, 2.0681932, 0.0, 0.0017000672, 0.0010200965, 0.0010200965, 0.0, 0.048828125, 0.0486255 
2.4414063e-2, 4.3896875e+1, -0.0000026535306, -4116.1904, 1.5891218, 0.0, 0.0017142764, 0.00061085256, 0.00061085256, 0.0, 0.048828125, 0.04862837 
2.4414063e-2, 4.39455e+1, -0.0000005075558, -4096.2896, 0.44974935, 0.0, 0.0011208777, 0.000048872374, 0.000048872374, 0.0, 0.048828125, 0.048629332 
2.4414063e-2, 4.3994132e+1, -0.0002884787, -4030.714, -17.0424, 0.0, 0.0017439675, 0.0717678, 0.0717678, 0.0, 0.048828125, 0.048632495 
2.4414063e-2, 4.4042763e+1, -0.000013128313, -4016.3616, 3.6364865, 0.0, 0.0018165711, 0.0032794098, 0.0032794098, 0.0, 0.048828125, 0.048633188 
2.4414063e-2, 4.40914e+1, -0.00000073766745, -3955.9329, 0.90192044, 0.0, 0.0005988934, 0.00020489284, 0.00020489284, 0.0, 0.048828125, 0.0486361 
2.4414063e-2, 4.4140038e+1, -0.000024463532, -3933.7534, -4.958546, 0.0, 0.0016665537, 0.0062258374, 0.0062258374, 0.0, 0.048828125, 0.048637174 
2.4414063e-2, 4.4188675e+1, -0.00014337501, -3881.4097, -12.013465, 0.0, 0.0019713237, 0.0370395, 0.0370395, 0.0, 0.048828125, 0.0486397 
2.4414063e-2, 4.4237316e+1, -0.00000058211566, -3862.5752, 0.7577708, 0.0, 0.0011375526, 0.00014807946, 0.00014807946, 0.0, 0.048828125, 0.04864061 
2.4414063e-2, 4.4285956e+1, -0.00000043515328, -3801.2905, 0.5936979, 0.0, 0.0014814938, 0.00009229052, 0.00009229052, 0.0, 0.048828125, 0.048643567 
2.4414063e-2, 4.4334602e+1, -0.0000011907624, -3779.9834, -1.1825955, 0.0, 0.0017469745, 0.00036879285, 0.00036879285, 0.0, 0.048828125, 0.048644595 
2.4414063e-2, 4.438325e+1, -0.00000080139284, -3725.8774, 1.0029705, 0.0, 0.0009804781, 0.00026918863, 0.00026918863, 0.0, 0.048828125, 0.048647206 
2.4414063e-2, 4.4431895e+1, -0.00000013549752, -3698.3716, -0.0693914, 0.0, 0.001680522, 0.000001166472, 0.000001166472, 0.0, 0.048828125, 0.048648536 
2.4414063e-2, 4.4480544e+1, -0.00000008605763, -3647.8723, -0.012644176, 0.0, 0.001541323, -0.000000042230567, -0.000000042230567, 0.0, 0.048828125, 0.048650976 
2.4414063e-2, 4.4529194e+1, -0.00000009631455, -3624.9539, -0.020519046, 0.0, 0.0013497154, 0.000000019833351, 0.000000019833351, 0.0, 0.048828125, 0.048652083 
2.4414063e-2, 4.457785e+1, -0.0000006029845, -3568.542, -0.92098856, 0.0, 0.0015596952, 0.0002370907, 0.0002370907, 0.0, 0.048828125, 0.048654806 
2.4414063e-2, 4.4626504e+1, -0.0000020476516, -3541.697, 1.4037069, 0.0, 0.0015126745, 0.00055429386, 0.00055429386, 0.0, 0.048828125, 0.048656102 
2.4414063e-2, 4.4675162e+1, -0.000024539711, -3478.8877, -4.9698143, 0.0, 0.0013015625, 0.0070751444, 0.0070751444, 0.0, 0.048828125, 0.04865914 
2.4414063e-2, 4.472382e+1, -0.00008846834, -3478.9502, -9.433167, 0.0, 0.0015145076, 0.025489364, 0.025489364, 0.0, 0.048828125, 0.048659135 
2.4414063e-2, 4.4772485e+1, -0.00000025482623, -3410.827, -0.5153772, 0.0, 0.0015102071, 0.00007761885, 0.00007761885, 0.0, 0.048828125, 0.048662428 
2.4414063e-2, 4.4821143e+1, -0.0000005850178, -3393.8472, 0.80807793, 0.0, 0.0015363984, 0.00019181901, 0.00019181901, 0.0, 0.048828125, 0.048663247 
2.4414063e-2, 4.4869807e+1, -0.0000015100098, -3329.875, -1.2471818, 0.0, 0.0013274538, 0.0004656133, 0.0004656133, 0.0, 0.048828125, 0.04866634 
2.4414063e-2, 4.4918478e+1, -0.00076176994, -3322.8613, -27.676325, 0.0, 0.0012893534, 0.22974016, 0.22974016, 0.0, 0.048828125, 0.04866668 
2.4414063e-2, 4.4967145e+1, -0.00008801839, -3243.8635, 9.406703, 0.0, 0.0018144266, 0.027189737, 0.027189737, 0.0, 0.048828125, 0.0486705 
2.4414063e-2, 4.5015815e+1, -0.0000015932823, -3235.4744, -1.2561464, 0.0, 0.0017643184, 0.00048609523, 0.00048609523, 0.0, 0.048828125, 0.048670907 
2.4414063e-2, 4.5064488e+1, -0.000015248608, -3168.9866, -3.9127603, 0.0, 0.0007236011, 0.0048158444, 0.0048158444, 0.0, 0.048828125, 0.04867412 
2.4414063e-2, 4.5113164e+1, -0.0000018563989, -3165.6328, 1.3840632, 0.0, 0.0012657002, 0.0006032771, 0.0006032771, 0.0, 0.048828125, 0.04867428 
2.4414063e-2, 4.5161837e+1, -0.0000013842575, -3089.3862, 1.13072, 0.0, 0.002426121, 0.0004124609, 0.0004124609, 0.0, 0.048828125, 0.04867797 
2.4414063e-2, 4.5210516e+1, -0.0000003138918, -3084.5771, -0.48032117, 0.0, 0.0012114673, 0.00007448029, 0.00007448029, 0.0, 0.048828125, 0.048678204 
2.4414063e-2, 4.52592e+1, -0.00000015833263, -3013.87, -0.16241363, 0.0, 0.0010176153, 0.000008593931, 0.000008593931, 0.0, 0.048828125, 0.048681624 
2.4414063e-2, 4.5307878e+1, -0.00000090549986, -3005.0745, -1.1043714, 0.0, 0.001832638, 0.00040495337, 0.00040495337, 0.0, 0.048828125, 0.04868205 
2.4414063e-2, 4.5356563e+1, -0.00000027222396, -2932.8652, 0.10409496, 0.0, 0.0013050624, 0.000003422375, 0.000003422375, 0.0, 0.048828125, 0.048685547 
2.4414063e-2, 4.5405248e+1, -0.00000087773793, -2926.4514, -1.0726382, 0.0, 0.0012452395, 0.00039227842, 0.00039227842, 0.0, 0.048828125, 0.048685856 
2.4414063e-2, 4.545394e+1, -0.000106827414, -2856.8489, -10.358846, 0.0, 0.0019601255, 0.037453532, 0.037453532, 0.0, 0.048828125, 0.048689224 
2.4414063e-2, 4.5502624e+1, -0.000005044444, -2852.7078, -2.2541573, 0.0, 0.0011826613, 0.0017761483, 0.0017761483, 0.0, 0.048828125, 0.048689425 
2.4414063e-2, 4.5551315e+1, -0.00000020468826, -2776.769, 0.0595586, 0.0, 0.001495054, 0.0000010727772, 0.0000010727772, 0.0, 0.048828125, 0.0486931 
2.4414063e-2, 4.560001e+1, -0.00000053089104, -2774.0051, -0.34333587, 0.0, 0.0016434167, 0.00004196345, 0.00004196345, 0.0, 0.048828125, 0.048693236 
2.4414063e-2, 4.5648706e+1, -0.000000112702956, -2701.318, -0.094894946, 0.0, 0.0012064131, 0.0000032208736, 0.0000032208736, 0.0, 0.048828125, 0.048696756 
2.4414063e-2, 4.5697403e+1, -0.0000005634572, -2691.3591, -0.8964798, 0.0, 0.0013530883, 0.00029804994, 0.00029804994, 0.0, 0.048828125, 0.04869724 
2.4414063e-2, 4.57461e+1, -0.00000018755988, -2621.5054, 0.09247386, 0.0, 0.0018800903, 0.000003074464, 0.000003074464, 0.0, 0.048828125, 0.048700623 
2.4414063e-2, 4.57948e+1, -0.0000018831665, -2616.5427, 1.372233, 0.0, 0.0012169151, 0.0007177775, 0.0007177775, 0.0, 0.048828125, 0.04870086 
2.4414063e-2, 4.5843503e+1, -0.00000038452353, -2546.269, -0.7742161, 0.0, 0.0015302019, 0.00023502286, 0.00023502286, 0.0, 0.048828125, 0.048704267 
2.4414063e-2, 4.589221e+1, -0.00000043432038, -2536.5422, -0.77200615, 0.0, 0.0015012163, 0.00023452862, 0.00023452862, 0.0, 0.048828125, 0.04870474 
2.4414063e-2, 4.5940915e+1, -0.0000017895039, -2460.2363, -1.3093237, 0.0, 0.0014183151, 0.0006950248, 0.0006950248, 0.0, 0.048828125, 0.04870844 
2.4414063e-2, 4.5989624e+1, -0.000001182378, -2461.921, 1.0556151, 0.0, 0.0012439339, 0.00045144098, 0.00045144098, 0.0, 0.048828125, 0.048708357 
2.4414063e-2, 4.6038333e+1, -0.0000126866435, -2391.8752, 3.5634546, 0.0, 0.0018780772, 0.0052961945, 0.0052961945, 0.0, 0.048828125, 0.04871175 
2.4414063e-2, 4.6087044e+1, -0.0000016431272, -2380.1785, -1.2747374, 0.0, 0.0012433287, 0.0006810599, 0.0006810599, 0.0, 0.048828125, 0.048712317 
2.4414063e-2, 4.6135756e+1, -0.00001968649, -2325.3987, 4.443896, 0.0, 0.0014617713, 0.00847268, 0.00847268, 0.0, 0.048828125, 0.048714973 
2.4414063e-2, 4.6184474e+1, -0.0028814182, -2292.8633, -53.781216, 0.0, 0.0016831311, 1.2579147, 1.2579147, 0.0, 0.048828125, 0.048716553 
2.4414063e-2, 4.6233192e+1, -0.0002398112, -2235.8303, 15.513726, 0.0, 0.0011856895, 0.10739991, 0.10739991, 0.0, 0.048828125, 0.048719317 
2.4414063e-2, 4.6281913e+1, -0.000006428558, -2208.3354, -2.5417242, 0.0, 0.001255931, 0.0029190115, 0.0029190115, 0.0, 0.048828125, 0.04872065 
2.4414063e-2, 4.6330634e+1, -0.000027072905, -2169.1423, -5.211168, 0.0, 0.002031004, 0.0124922125, 0.0124922125, 0.0, 0.048828125, 0.048722554 
2.4414063e-2, 4.6379358e+1, -0.00011888074, -2129.3352, -10.919987, 0.0, 0.0011401337, 0.05588122, 0.05588122, 0.0, 0.048828125, 0.048724484 
2.4414063e-2, 4.642808e+1, -0.000049391925, -2093.6814, 7.0415463, 0.0, 0.00152412, 0.023632728, 0.023632728, 0.0, 0.048828125, 0.048726216 
2.4414063e-2, 4.647681e+1, -0.0000029962182, -2044.0581, -1.7342094, 0.0, 0.0015304051, 0.0014683319, 0.0014683319, 0.0, 0.048828125, 0.048728622 
2.4414063e-2, 4.6525538e+1, -0.0000014537881, -2024.4537, -1.220765, 0.0, 0.0012812293, 0.000734679, 0.000734679, 0.0, 0.048828125, 0.048729572 
2.4414063e-2, 4.657427e+1, -0.0000016762115, -1960.494, 1.2869215, 0.0, 0.0017261816, 0.0008430936, 0.0008430936, 0.0, 0.048828125, 0.04873268 
2.4414063e-2, 4.6623003e+1, -0.0000007524185, -1947.9758, -0.8243045, 0.0, 0.0012993284, 0.00034805984, 0.00034805984, 0.0, 0.048828125, 0.048733287 
2.4414063e-2, 4.6671736e+1, -0.00000020380114, -1882.5388, 0.2730027, 0.0, 0.0008934738, 0.000039386603, 0.000039386603, 0.0, 0.048828125, 0.048736464 
2.4414063e-2, 4.6720475e+1, -0.00000022831983, -1872.7509, -0.08331208, 0.0, 0.0023992578, 0.0000034779407, 0.0000034779407, 0.0, 0.048828125, 0.048736937 
2.4414063e-2, 4.6769214e+1, -0.00000027962952, -1798.5726, -0.10301835, 0.0, 0.0014666258, 0.000005621039, 0.000005621039, 0.0, 0.048828125, 0.04874054 
2.4414063e-2, 4.6817955e+1, -0.0000013352183, -1803.5079, 1.159619, 0.0, 0.00070925645, 0.000744276, 0.000744276, 0.0, 0.048828125, 0.0487403 
2.4414063e-2, 4.68667e+1, -0.0000027726242, -1711.9011, -1.6710517, 0.0, 0.0019507143, 0.0016284029, 0.0016284029, 0.0, 0.048828125, 0.04874475 
2.4414063e-2, 4.691544e+1, -0.00000010682138, -1732.2568, -0.5456038, 0.0, 0.0013404954, 0.00017174036, 0.00017174036, 0.0, 0.048828125, 0.048743762 
2.4414063e-2, 4.6964186e+1, -0.000007178514, -1626.2058, 2.689231, 0.0, 0.0010911279, 0.004439948, 0.004439948, 0.0, 0.048828125, 0.048748914 
2.4414063e-2, 4.7012937e+1, -0.00001020925, -1657.1727, -3.1942873, 0.0, 0.0020758668, 0.0061469236, 0.0061469236, 0.0, 0.048828125, 0.04874741 
2.4414063e-2, 4.7061688e+1, -0.0000023872276, -1550.9008, -1.5523865, 0.0, 0.0013720847, 0.0015514849, 0.0015514849, 0.0, 0.048828125, 0.048752572 
2.4414063e-2, 4.7110435e+1, -0.000004584378, -1580.3811, 2.1480646, 0.0, 0.0011567378, 0.0029150741, 0.0029150741, 0.0, 0.048828125, 0.048751142 
2.4414063e-2, 4.7159192e+1, -0.0000056821796, -1464.9008, -2.3824263, 0.0, 0.0015384445, 0.0038689424, 0.0038689424, 0.0, 0.048828125, 0.048756752 
2.4414063e-2, 4.7207946e+1, -0.00000008891277, -1507.5259, 0.43100375, 0.0, 0.0014765678, 0.00012313564, 0.00012313564, 0.0, 0.048828125, 0.04875468 
2.4414063e-2, 4.7256705e+1, -0.00000223868, -1378.8262, 1.4987735, 0.0, 0.0018959015, 0.0016269146, 0.0016269146, 0.0, 0.048828125, 0.04876094 
2.4414063e-2, 4.7305465e+1, -0.0000034940879, -1439.1061, 1.8688676, 0.0, 0.0008875092, 0.0024234713, 0.0024234713, 0.0, 0.048828125, 0.048758008 
2.4414063e-2, 4.7354224e+1, -0.0000070947126, -1303.6002, -2.664667, 0.0, 0.001106285, 0.005439682, 0.005439682, 0.0, 0.048828125, 0.048764598 
2.4414063e-2, 4.740299e+1, -0.000030082503, -1353.8458, -5.486675, 0.0, 0.002294101, 0.02220517, 0.02220517, 0.0, 0.048828125, 0.048762154 
2.4414063e-2, 4.7451755e+1, -0.000018219693, -1210.5413, 4.2726026, 0.0, 0.0017634521, 0.015061735, 0.015061735, 0.0, 0.048828125, 0.048769124 
2.4414063e-2, 4.7500524e+1, -0.000118865275, -1254.889, -10.913534, 0.0, 0.000503756, 0.09478693, 0.09478693, 0.0, 0.048828125, 0.048766967 
2.4414063e-2, 4.7549292e+1, -0.0014845803, -1158.9336, -38.567173, 0.0, 0.0013448625, 1.2805433, 1.2805433, 0.0, 0.048828125, 0.048771635 
2.4414063e-2, 4.7598064e+1, -0.0007173023, -1212.4943, -26.809961, 0.0, 0.0022347192, 0.5917996, 0.5917996, 0.0, 0.048828125, 0.048769027 
2.4414063e-2, 4.7646835e+1, -0.0000002361235, -1070.9009, 0.4710941, 0.0, 0.0016925078, 0.00020700025, 0.00020700025, 0.0, 0.048828125, 0.04877592 
2.4414063e-2, 4.769561e+1, -0.000013991106, -1113.1859, 3.7435, 0.0, 0.0006349341, 0.012574771, 0.012574771, 0.0, 0.048828125, 0.048773862 
2.4414063e-2, 4.7744384e+1, -0.0000036040096, -1009.3432, -1.88961, 0.0, 0.001438077, 0.0035339575, 0.0035339575, 0.0, 0.048828125, 0.048778914 
2.4414063e-2, 4.7793162e+1, -0.000008323825, -1029.7517, -2.8884337, 0.0, 0.0020588608, 0.008093614, 0.008093614, 0.0, 0.048828125, 0.048777923 
2.4414063e-2, 4.7841945e+1, -0.000002981784, -920.59985, -1.7280422, 0.0, 0.0014888936, 0.0032406854, 0.0032406854, 0.0, 0.048828125, 0.048783235 
2.4414063e-2, 4.789073e+1, -0.000015628968, -946.8121, 3.956867, 0.0, 0.00093631604, 0.016520413, 0.016520413, 0.0, 0.048828125, 0.04878196 
2.4414063e-2, 4.793951e+1, -0.0000042736565, -854.26904, 2.0594542, 0.0, 0.0020089434, 0.0049605872, 0.0049605872, 0.0, 0.048828125, 0.048786465 
2.4414063e-2, 4.7988302e+1, -0.000020275078, -865.76324, -4.5047107, 0.0, 0.0012088775, 0.023417851, 0.023417851, 0.0, 0.048828125, 0.048785906 
2.4414063e-2, 4.8037088e+1, -0.000000108692525, -778.9043, -0.40337667, 0.0, 0.00072793383, 0.00020879078, 0.00020879078, 0.0, 0.048828125, 0.04879014 
2.4414063e-2, 4.8085877e+1, -0.0000018623716, -775.285, 1.3689469, 0.0, 0.002563392, 0.0024153257, 0.0024153257, 0.0, 0.048828125, 0.048790313 
2.4414063e-2, 4.813467e+1, -0.0000003147298, -710.6402, 0.5581485, 0.0, 0.0020340648, 0.00043806402, 0.00043806402, 0.0, 0.048828125, 0.04879346 
2.4414063e-2, 4.818346e+1, -0.0000018035834, -700.88403, 1.3293357, 0.0, -0.000032129796, 0.0025194795, 0.0025194795, 0.0, 0.048828125, 0.048793938 
2.4414063e-2, 4.8232257e+1, -0.0000040960276, -632.0804, -2.0365236, 0.0, 0.0014696463, 0.0065573887, 0.0065573887, 0.0, 0.048828125, 0.04879729 
2.4414063e-2, 4.8281056e+1, -0.00004732162, -626.83215, 6.88158, 0.0, 0.0024650746, 0.07549194, 0.07549194, 0.0, 0.048828125, 0.048797548 
2.4414063e-2, 4.8329854e+1, -0.002405937, -554.26697, -49.07293, 0.0, 0.0013441838, 4.3088303, 4.3088303, 0.0, 0.048828125, 0.048801083 
2.4414063e-2, 4.8378658e+1, -0.00010868001, -520.43414, 10.428904, 0.0, 0.00093806646, 0.20879081, 0.20879081, 0.0, 0.048828125, 0.048802733 
2.4414063e-2, 4.842746e+1, -0.00000088982466, -491.96317, -0.9514517, 0.0, 0.001687076, 0.0018392012, 0.0018392012, 0.0, 0.048828125, 0.04880412 
2.4414063e-2, 4.8476264e+1, -0.0000018013459, -454.40118, -1.3492991, 0.0, 0.0015675535, 0.0040047728, 0.0040047728, 0.0, 0.048828125, 0.048805952 
2.4414063e-2, 4.852507e+1, -0.000085747524, -401.13058, -9.263219, 0.0, 0.0011744562, 0.21371378, 0.21371378, 0.0, 0.048828125, 0.04880855 
2.4414063e-2, 4.8573884e+1, -0.000010948621, -368.53296, -3.3098786, 0.0, 0.0017358053, 0.02971343, 0.02971343, 0.0, 0.048828125, 0.04881014 
2.4414063e-2, 4.8622692e+1, 0.000000049706504, -338.12213, -0.15584943, 0.0, 0.0017907432, 0.00007188481, 0.00007188481, 0.0, 0.048828125, 0.048811622 
2.4414063e-2, 4.8671505e+1, 0.000000010717135, -273.53275, -0.04521288, 0.0, 0.0008670561, 0.0000074840614, 0.0000074840614, 0.0, 0.048828125, 0.048814774 
2.4414063e-2, 4.872032e+1, -0.00014229766, -281.0843, -11.929972, 0.0, 0.0013242202, 0.50528914, 0.50528914, 0.0, 0.048828125, 0.048814405 
2.4414063e-2, 4.8769137e+1, -0.000012838605, -202.53139, 3.5867712, 0.0, 0.002165049, 0.06348792, 0.06348792, 0.0, 0.048828125, 0.048818238 
2.4414063e-2, 4.8817956e+1, -0.0000018456391, -181.53683, -1.3605961, 0.0, 0.00086748984, 0.010195081, 0.010195081, 0.0, 0.048828125, 0.048819263 
2.4414063e-2, 4.8866776e+1, -0.0000030504475, -141.73862, -1.7428398, 0.0, 0.0018457327, 0.021423938, 0.021423938, 0.0, 0.048828125, 0.048821207 
2.4414063e-2, 4.8915595e+1, -0.000000529916, -82.81943, 0.71501327, 0.0, 0.0014722762, 0.006172006, 0.006172006, 0.0, 0.048828125, 0.048824083 
2.4414063e-2, 4.8964423e+1, -0.0000052879786, -71.09052, 2.2902555, 0.0, 0.0012049477, 0.07370128, 0.07370128, 0.0, 0.048828125, 0.048824653 
2.4414063e-2, 4.9013245e+1, -0.0000010702471, -7.926676, -0.9834807, 0.0, 0.0015539986, 0.12019892, 0.12019892, 0.0, 0.048828125, 0.048827738 
7.324219e-2, 2.3492856e-2, 0.000000002133021, -39972.94, 0.0026410555, 0.0, 0.0000011007785, 0.0000000023064786, 0.0000000023064786, 0.0, 0.048828125, 0.046985634 
7.324219e-2, 7.0478565e-2, -0.000000017953841, -39973.84, 0.007923179, 0.0, 0.0000033023334, -0.000000016385457, -0.000000016385457, 0.0, 0.048828125, 0.046985593 
7.324219e-2, 1.17466e-1, 0.000000008224509, -39895.074, 0.01227, 0.0, 0.000008632652, 0.000000011998054, 0.000000011998054, 0.0, 0.048828125, 0.046989024 
7.324219e-2, 1.6445513e-1, -0.0000000018440605, -39895.24, 0.015616214, 0.0, 0.000008702483, 0.000000004270987, 0.000000004270987, 0.0, 0.048828125, 0.046989016 
7.324219e-2, 2.1144599e-1, -0.0000000006074352, -39816.72, 0.017965125, 0.0, 0.00001306724, 0.000000007501512, 0.000000007501512, 0.0, 0.048828125, 0.046992436 
7.324219e-2, 2.5843853e-1, 0.000000017082623, -39817.133, 0.018550454, 0.0, 0.000013812072, 0.000000025727786, 0.000000025727786, 0.0, 0.048828125, 0.046992417 
7.324219e-2, 3.054328e-1, -0.00000001547923, -39738.406, 0.018191224, 0.0, 0.000017445118, -0.0000000071449904, -0.0000000071449904, 0.0, 0.048828125, 0.04699585 
7.324219e-2, 3.5242873e-1, 0.00000000632327, -39738.984, 0.015904456, 0.0, 0.000016901293, 0.00000001268927, 0.00000001268927, 0.0, 0.048828125, 0.046995822 
7.324219e-2, 3.994264e-1, -0.00000001420035, -39660.11, 0.012853263, 0.0, 0.000021125177, -0.0000000100408215, -0.0000000100408215, 0.0, 0.048828125, 0.04699926 
7.324219e-2, 4.4642574e-1, -0.00000003149694, -39660.82, 0.008303782, 0.0, 0.000020500544, -0.000000029758667, -0.000000029758667, 0.0, 0.048828125, 0.046999227 
7.324219e-2, 4.9342683e-1, -0.000000009419096, -39581.816, 0.0034898988, 0.0, 0.000023701215, -0.000000009116775, -0.000000009116775, 0.0, 0.048828125, 0.047002673 
7.324219e-2, 5.404296e-1, -0.0000000018131735, -39582.64, -0.0018143093, 0.0, 0.0000231645, -0.000000001724402, -0.000000001724402, 0.0, 0.048828125, 0.047002636 
7.324219e-2, 5.8743405e-1, 0.000000004742744, -39503.543, -0.007038828, 0.0, 0.000026553815, 0.000000006002665, 0.000000006002665, 0.0, 0.048828125, 0.04700608 
7.324219e-2, 6.3444024e-1, -0.000000010593732, -39504.453, -0.011466426, 0.0, 0.000026310083, -0.0000000072686817, -0.0000000072686817, 0.0, 0.048828125, 0.047006045 
7.324219e-2, 6.8144816e-1, 0.000000004207375, -39425.258, -0.015598097, 0.0, 0.00002941753, 0.000000010375516, 0.000000010375516, 0.0, 0.048828125, 0.047009498 
7.324219e-2, 7.284577e-1, -0.000000009142513, -39426.305, -0.01793906, 0.0, 0.000030411877, -0.0000000009895302, -0.0000000009895302, 0.0, 0.048828125, 0.04700945 
7.324219e-2, 7.75469e-1, 0.000000008089688, -39346.914, -0.019735144, 0.0, 0.000033373683, 0.000000017993443, 0.000000017993443, 0.0, 0.048828125, 0.047012914 
7.324219e-2, 8.22482e-1, 0.000000012443514, -39348.145, -0.020104703, 0.0, 0.000035169698, 0.00000002271554, 0.00000002271554, 0.0, 0.048828125, 0.047012858 
7.324219e-2, 8.6949676e-1, -0.000000008660641, -39268.645, -0.019745791, 0.0, 0.00003915702, 0.0000000012732926, 0.0000000012732926, 0.0, 0.048828125, 0.047016326 
7.324219e-2, 9.1651314e-1, -0.00000000073766115, -39270.004, -0.016673341, 0.0, 0.000041144147, 0.000000006344635, 0.000000006344635, 0.0, 0.048828125, 0.047016267 
7.324219e-2, 9.6353126e-1, 0.00000000012417516, -39190.3, -0.013261486, 0.0, 0.000046318364, 0.000000004612957, 0.000000004612957, 0.0, 0.048828125, 0.047019746 
7.324219e-2, 1.0105511e+0, 0.000000009925369, -39191.836, -0.013088281, 0.0, 0.000048735703, 0.000000014297257, 0.000000014297257, 0.0, 0.048828125, 0.04701968 
7.324219e-2, 1.0575726e+0, 0.0000000034914596, -39112.027, -0.011575018, 0.0, 0.000055043056, 0.0000000069194357, 0.0000000069194357, 0.0, 0.048828125, 0.047023162 
7.324219e-2, 1.1045959e+0, -0.000000026655952, -39113.676, -0.001801628, 0.0, 0.0000567848, -0.000000026579073, -0.000000026579073, 0.0, 0.048828125, 0.047023088 
7.324219e-2, 1.1516209e+0, -0.000000010644886, -39033.72, 0.04829443, 0.0, 0.00006419721, 0.000000049105438, 0.000000049105438, 0.0, 0.048828125, 0.04702658 
7.324219e-2, 1.1986475e+0, -0.000000005791741, -39035.594, -0.007719419, 0.0, 0.00006550265, -0.000000004263711, -0.000000004263711, 0.0, 0.048828125, 0.047026496 
7.324219e-2, 1.2456758e+0, -0.000000008628522, -38955.445, -0.027372135, 0.0, 0.000074210235, 0.00000001060107, 0.00000001060107, 0.0, 0.048828125, 0.047029994 
7.324219e-2, 1.2927058e+0, -0.000000013079343, -38957.246, 0.0076315342, 0.0, 0.000073620766, -0.0000000115906005, -0.0000000115906005, 0.0, 0.048828125, 0.047029916 
7.324219e-2, 1.3397376e+0, -0.000000015896882, -38877.086, 0.018076628, 0.0, 0.00008194539, -0.000000007494236, -0.000000007494236, 0.0, 0.048828125, 0.047033418 
7.324219e-2, 1.3867712e+0, 0.0000000029860854, -38879.223, -0.07128864, 0.0, 0.00008105234, 0.00000013369572, 0.00000013369572, 0.0, 0.048828125, 0.047033325 
7.324219e-2, 1.4338063e+0, -0.000000053005653, -38798.91, -0.13853405, 0.0, 0.00009254583, 0.00000044164335, 0.00000044164335, 0.0, 0.048828125, 0.04703683 
7.324219e-2, 1.4808433e+0, -0.0000011434603, -38801.01, 1.0883713, 0.0, 0.00008703789, 0.00002938544, 0.00002938544, 0.0, 0.048828125, 0.04703674 
7.324219e-2, 1.5278819e+0, -0.00000012463448, -38720.406, -0.3535503, 0.0, 0.0000937786, 0.0000031035743, 0.0000031035743, 0.0, 0.048828125, 0.04704026 
7.324219e-2, 1.5749222e+0, -0.0000000020081048, -38722.08, -0.060543697, 0.0, 0.00009219429, 0.000000092652044, 0.000000092652044, 0.0, 0.048828125, 0.047040187 
7.324219e-2, 1.6219643e+0, -0.000000032088202, -38642.555, 0.1533701, 0.0, 0.000107112486, 0.0000005766342, 0.0000005766342, 0.0, 0.048828125, 0.047043663 
7.324219e-2, 1.669008e+0, -0.000000039947594, -38644.85, -0.22110108, 0.0, 0.00009575618, 0.000001225053, 0.000001225053, 0.0, 0.048828125, 0.047043562 
7.324219e-2, 1.7160533e+0, -0.00000067987753, -38564.938, -0.86996865, 0.0, 0.0000970184, 0.000018945342, 0.000018945342, 0.0, 0.048828125, 0.047047053 
7.324219e-2, 1.7631006e+0, -0.000038231203, -38565.746, 6.466971, 0.0, 0.000105469095, 0.0010461952, 0.0010461952, 0.0, 0.048828125, 0.04704702 
7.324219e-2, 1.8101494e+0, -0.00000037075927, -38485.582, -0.6234833, 0.0, 0.000103820625, 0.000009729942, 0.000009729942, 0.0, 0.048828125, 0.047050525 
7.324219e-2, 1.8572e+0, -0.00000001499785, -38487.125, -0.15786676, 0.0, 0.00010174396, 0.00000063254265, 0.00000063254265, 0.0, 0.048828125, 0.047050454 
7.324219e-2, 1.9042523e+0, -0.000000016215179, -38408.336, -0.082193695, 0.0, 0.000108812244, 0.00000015967817, 0.00000015967817, 0.0, 0.048828125, 0.0470539 
7.324219e-2, 1.9513063e+0, 0.0000000031280492, -38409.094, -0.1016892, 0.0, 0.00010292327, 0.00000027235365, 0.00000027235365, 0.0, 0.048828125, 0.047053866 
7.324219e-2, 1.998362e+0, 0.0000000073598048, -38330.176, -0.06883664, 0.0, 0.000109149834, 0.00000013098906, 0.00000013098906, 0.0, 0.048828125, 0.04705732 
7.324219e-2, 2.0454195e+0, -0.000000026655007, -38330.66, -0.05309326, 0.0, 0.00010570354, 0.000000046893547, 0.000000046893547, 0.0, 0.048828125, 0.047057297 
7.324219e-2, 2.0924786e+0, -0.000000017341929, -38252.223, -0.023142673, 0.0, 0.00011160701, -0.0000000033396645, -0.0000000033396645, 0.0, 0.048828125, 0.047060728 
7.324219e-2, 2.1395394e+0, 0.000000045708752, -38252.18, 0.0022941385, 0.0, 0.00010958776, 0.000000045838533, 0.000000045838533, 0.0, 0.048828125, 0.047060728 
7.324219e-2, 2.1866019e+0, -0.00000002250163, -38174.258, 0.012986425, 0.0, 0.00011311664, -0.000000018080755, -0.000000018080755, 0.0, 0.048828125, 0.047064137 
7.324219e-2, 2.2336662e+0, 0.00000000030952108, -38173.746, 0.035789628, 0.0, 0.00011309041, 0.000000033862307, 0.000000033862307, 0.0, 0.048828125, 0.04706416 
7.324219e-2, 2.2807321e+0, -0.000000013443164, -38096.223, 0.08474369, 0.0, 0.00011811428, 0.00000017505954, 0.00000017505954, 0.0, 0.048828125, 0.047067553 
7.324219e-2, 2.3277998e+0, -0.0000000018615799, -38095.38, 0.116836, 0.0, 0.00012059088, 0.000000356471, 0.000000356471, 0.0, 0.048828125, 0.04706759 
7.324219e-2, 2.3748691e+0, -0.000000022535094, -38018.188, 0.08016301, 0.0, 0.00012066194, 0.00000014649413, 0.00000014649413, 0.0, 0.048828125, 0.04707097 
7.324219e-2, 2.4219403e+0, -0.00000003473191, -38017.03, 0.07569244, 0.0, 0.00012331003, 0.00000011596421, 0.00000011596421, 0.0, 0.048828125, 0.04707102 
7.324219e-2, 2.4690132e+0, -0.000000047249394, -37940.043, 0.20815814, 0.0, 0.00013048263, 0.0000010948133, 0.0000010948133, 0.0, 0.048828125, 0.04707439 
7.324219e-2, 2.516088e+0, -0.000000058703662, -37938.715, 0.26528943, 0.0, 0.0001333095, 0.0000017963539, 0.0000017963539, 0.0, 0.048828125, 0.04707445 
7.324219e-2, 2.5631636e+0, 0.000000014968291, -37864.742, 0.05520673, 0.0, 0.00013397931, 0.000000095460564, 0.000000095460564, 0.0, 0.048828125, 0.047077686 
7.324219e-2, 2.6102418e+0, 0.0000000076240125, -37862.3, -0.014733618, 0.0, 0.00013576692, 0.000000013365934, 0.000000013365934, 0.0, 0.048828125, 0.047077794 
7.324219e-2, 2.657321e+0, -0.0000000691427, -37786.64, 0.30270547, 0.0, 0.00014714838, 0.0000023558023, 0.0000023558023, 0.0, 0.048828125, 0.04708111 
7.324219e-2, 2.7044028e+0, -0.00000011732672, -37784.707, 0.3173102, 0.0, 0.00014472118, 0.0000025474, 0.0000025474, 0.0, 0.048828125, 0.04708119 
7.324219e-2, 2.7514854e+0, 0.000000017769011, -37708.934, 0.07505934, 0.0, 0.00015245809, 0.0000001671724, 0.0000001671724, 0.0, 0.048828125, 0.04708451 
7.324219e-2, 2.79857e+0, -0.00000017337973, -37705.297, 0.42193022, 0.0, 0.00015256571, 0.000004548114, 0.000004548114, 0.0, 0.048828125, 0.04708467 
7.324219e-2, 2.8456566e+0, -0.0000014085861, -37630.03, 1.1983091, 0.0, 0.00016296259, 0.000036750942, 0.000036750942, 0.0, 0.048828125, 0.047087967 
7.324219e-2, 2.8927448e+0, -0.0000102747745, -37626.836, 3.1789348, 0.0, 0.00015658098, 0.0002583002, 0.0002583002, 0.0, 0.048828125, 0.04708811 
7.324219e-2, 2.9398346e+0, -0.000004122918, -37553.133, 2.0409806, 0.0, 0.00017207667, 0.00010680262, 0.00010680262, 0.0, 0.048828125, 0.04709134 
7.324219e-2, 2.9869264e+0, -0.000029916118, -37549.617, 5.6511636, 0.0, 0.00016567277, 0.00082057586, 0.00082057586, 0.0, 0.048828125, 0.04709149 
7.324219e-2, 3.0340192e+0, -0.00000079912303, -37475.7, 0.90337723, 0.0, 0.00017866056, 0.0000209774, 0.0000209774, 0.0, 0.048828125, 0.047094733 
7.324219e-2, 3.0811143e+0, -0.00000005243011, -37471.156, 0.22768083, 0.0, 0.00017022179, 0.0000013309982, 0.0000013309982, 0.0, 0.048828125, 0.047094934 
7.324219e-2, 3.128211e+0, 0.0000000037646988, -37396.63, 0.04826919, 0.0, 0.00018844902, 0.000000066065695, 0.000000066065695, 0.0, 0.048828125, 0.0470982 
7.324219e-2, 3.1753093e+0, -0.0000000029898435, -37392.38, 0.016332056, 0.0, 0.00017334131, 0.00000000414002, 0.00000000414002, 0.0, 0.048828125, 0.047098387 
7.324219e-2, 3.2224095e+0, -0.000000035114965, -37318.555, -0.03742507, 0.0, 0.0001928935, 0.000000002415618, 0.000000002415618, 0.0, 0.048828125, 0.047101624 
7.324219e-2, 3.2695115e+0, -0.0000000016177854, -37313.777, -0.017591082, 0.0, 0.0001831309, 0.000000006679329, 0.000000006679329, 0.0, 0.048828125, 0.047101833 
7.324219e-2, 3.316615e+0, -0.0000000073986732, -37240.742, -0.029151816, 0.0, 0.00020122167, 0.000000015417754, 0.000000015417754, 0.0, 0.048828125, 0.047105037 
7.324219e-2, 3.3637202e+0, -0.0000000073093194, -37235.074, -0.07459413, 0.0, 0.00017964604, 0.00000014212856, 0.00000014212856, 0.0, 0.048828125, 0.047105286 
7.324219e-2, 3.410827e+0, -0.000000012945578, -37162.99, -0.0678504, 0.0, 0.00020017206, 0.000000110936526, 0.000000110936526, 0.0, 0.048828125, 0.04710845 
7.324219e-2, 3.4579358e+0, 0.000000009185639, -37156.387, 0.023410486, 0.0, 0.00019623154, 0.0000000239379, 0.0000000239379, 0.0, 0.048828125, 0.047108736 
7.324219e-2, 3.505046e+0, -0.000000005891582, -37085.082, 0.020155625, 0.0, 0.00020847493, 0.0000000050567905, 0.0000000050567905, 0.0, 0.048828125, 0.047111865 
7.324219e-2, 3.5521585e+0, -0.000000056267524, -37078.17, -0.1469437, 0.0, 0.00018406726, 0.00000052608084, 0.00000052608084, 0.0, 0.048828125, 0.04711217 
7.324219e-2, 3.599272e+0, 0.000000009587781, -37006.742, -0.13763049, 0.0, 0.00020236937, 0.00000052144605, 0.00000052144605, 0.0, 0.048828125, 0.047115304 
7.324219e-2, 3.6463878e+0, -0.000000030640713, -36999.297, 0.13433892, 0.0, 0.00020298296, 0.0000004571266, 0.0000004571266, 0.0, 0.048828125, 0.04711563 
7.324219e-2, 3.693505e+0, 0.000000000789249, -36929.324, 0.11846571, 0.0, 0.00020895874, 0.00000038081635, 0.00000038081635, 0.0, 0.048828125, 0.047118705 
7.324219e-2, 3.7406242e+0, -0.000000023820895, -36921.08, -0.1780361, 0.0, 0.00018903849, 0.0000008346833, 0.0000008346833, 0.0, 0.048828125, 0.047119066 
7.324219e-2, 3.7877446e+0, -0.000000010732072, -36850.813, -0.07189594, 0.0, 0.00020478862, 0.00000012953387, 0.00000012953387, 0.0, 0.048828125, 0.04712215 
7.324219e-2, 3.8348672e+0, -0.0000000145294194, -36842.676, 0.11398242, 0.0, 0.00020112125, 0.00000033810647, 0.00000033810647, 0.0, 0.048828125, 0.04712251 
7.324219e-2, 3.8819912e+0, -0.000000021211292, -36773.47, -0.09530923, 0.0, 0.00020533206, 0.00000022581662, 0.00000022581662, 0.0, 0.048828125, 0.047125548 
7.324219e-2, 3.9291173e+0, -0.00000002194018, -36763.746, 0.06459801, 0.0, 0.00019806741, 0.00000009156793, 0.00000009156793, 0.0, 0.048828125, 0.047125973 
7.324219e-2, 3.9762446e+0, -0.0000000052633795, -36696.19, 0.13735637, 0.0, 0.00020299281, 0.0000005088732, 0.0000005088732, 0.0, 0.048828125, 0.047128942 
7.324219e-2, 4.023374e+0, -0.00000052139677, -36687.004, -0.755152, 0.0, 0.00019944417, 0.000015022386, 0.000015022386, 0.0, 0.048828125, 0.047129344 
7.324219e-2, 4.0705046e+0, -0.000027540129, -36616.37, 5.4453278, 0.0, 0.00021592053, 0.00078225054, 0.00078225054, 0.0, 0.048828125, 0.047132447 
7.324219e-2, 4.1176376e+0, -0.000000018811601, -36606.99, 0.043166302, 0.0, 0.00020272094, 0.00000003209425, 0.00000003209425, 0.0, 0.048828125, 0.04713286 
7.324219e-2, 4.164772e+0, -0.000000117277416, -36539.445, 0.3384157, 0.0, 0.00019625152, 0.0000030170122, 0.0000030170122, 0.0, 0.048828125, 0.04713583 
7.324219e-2, 4.2119083e+0, -0.000000020753346, -36529.246, 0.10369466, 0.0, 0.00020764515, 0.0000002736051, 0.0000002736051, 0.0, 0.048828125, 0.047136277 
7.324219e-2, 4.259046e+0, -0.000000031244024, -36461.223, 0.1506645, 0.0, 0.00024181612, 0.0000005913316, 0.0000005913316, 0.0, 0.048828125, 0.04713927 
7.324219e-2, 4.306186e+0, -0.000000025869657, -36450.766, 0.10473652, 0.0, 0.00021165471, 0.00000027508213, 0.00000027508213, 0.0, 0.048828125, 0.047139727 
7.324219e-2, 4.353327e+0, 0.000000002795972, -36383.633, -0.08936207, 0.0, 0.00019252418, 0.00000022227323, 0.00000022227323, 0.0, 0.048828125, 0.04714268 
7.324219e-2, 4.4004703e+0, -0.00000002809929, -36371.73, 0.06274671, 0.0, 0.00021743187, 0.00000008014467, 0.00000008014467, 0.0, 0.048828125, 0.047143202 
7.324219e-2, 4.4476146e+0, -0.00000016985076, -36305.387, 0.43184808, 0.0, 0.00028239208, 0.0000049669325, 0.0000049669325, 0.0, 0.048828125, 0.04714612 
7.324219e-2, 4.4947615e+0, 0.000000020794555, -36294.445, 0.13283429, 0.0, 0.00022899373, 0.00000050695235, 0.00000050695235, 0.0, 0.048828125, 0.0471466 
7.324219e-2, 4.5419097e+0, -0.00000029781444, -36227.87, -0.5538803, 0.0, 0.00019390894, 0.000008170347, 0.000008170347, 0.0, 0.048828125, 0.04714953 
7.324219e-2, 4.58906e+0, -0.000000005475095, -36214.094, -0.108849384, 0.0, 0.00023659697, 0.00000032170647, 0.00000032170647, 0.0, 0.048828125, 0.047150135 
7.324219e-2, 4.6362108e+0, -0.0000006654148, -36149.285, 0.84174323, 0.0, 0.00031113726, 0.000018934741, 0.000018934741, 0.0, 0.048828125, 0.04715299 
7.324219e-2, 4.683365e+0, -0.000000015853958, -36138.375, 0.14177386, 0.0, 0.00023887029, 0.00000054033444, 0.00000054033444, 0.0, 0.048828125, 0.047153465 
7.324219e-2, 4.7305194e+0, -0.00000068103634, -36071.57, -0.84169054, 0.0, 0.00023265649, 0.00001895889, 0.00001895889, 0.0, 0.048828125, 0.04715641 
7.324219e-2, 4.7776765e+0, -0.000000012368336, -36057.254, -0.012971199, 0.0, 0.00027013858, -0.000000007705239, -0.000000007705239, 0.0, 0.048828125, 0.047157038 
7.324219e-2, 4.8248348e+0, -0.00000009091115, -35994.402, 0.286482, 0.0, 0.00028944953, 0.0000021892192, 0.0000021892192, 0.0, 0.048828125, 0.047159802 
7.324219e-2, 4.8719954e+0, -0.00000044123385, -35980.363, -0.6740116, 0.0, 0.00023503762, 0.000012184864, 0.000012184864, 0.0, 0.048828125, 0.04716042 
7.324219e-2, 4.919157e+0, -0.0000019411384, -35914.625, 1.4157605, 0.0, 0.00030733665, 0.000053868374, 0.000053868374, 0.0, 0.048828125, 0.047163315 
7.324219e-2, 4.966321e+0, -0.00000003684041, -35903.184, 0.15640067, 0.0, 0.00029811478, 0.0000006444752, 0.0000006444752, 0.0, 0.048828125, 0.047163818 
7.324219e-2, 5.013486e+0, -0.000009665454, -35841.97, -3.0676925, 0.0, 0.00024816077, 0.00025289648, 0.00025289648, 0.0, 0.048828125, 0.047166515 
7.324219e-2, 5.0606537e+0, -0.0002804314, -35821.676, 17.234806, 0.0, 0.00024662772, 0.008011712, 0.008011712, 0.0, 0.048828125, 0.04716741 
7.324219e-2, 5.107822e+0, -0.0000040307423, -35757.0, -2.005089, 0.0, 0.0003317303, 0.00010840549, 0.00010840549, 0.0, 0.048828125, 0.047170255 
7.324219e-2, 5.154993e+0, -0.000000029860676, -35743.305, -0.06334475, 0.0, 0.00031282016, 0.00000008240022, 0.00000008240022, 0.0, 0.048828125, 0.04717086 
7.324219e-2, 5.2021646e+0, -0.0000003080367, -35683.945, -0.56537575, 0.0, 0.00024860032, 0.000008649768, 0.000008649768, 0.0, 0.048828125, 0.047173474 
7.324219e-2, 5.2493393e+0, -0.0000002841036, -35664.625, -0.5489806, 0.0, 0.00024109906, 0.00000816628, 0.00000816628, 0.0, 0.048828125, 0.047174327 
7.324219e-2, 5.2965146e+0, -0.00000016400794, -35606.414, 0.446912, 0.0, 0.0003309492, 0.000005445385, 0.000005445385, 0.0, 0.048828125, 0.04717689 
7.324219e-2, 5.3436923e+0, -0.00000016271818, -35589.332, 0.4024408, 0.0, 0.00030860995, 0.0000043880427, 0.0000043880427, 0.0, 0.048828125, 0.047177643 
7.324219e-2, 5.390871e+0, -0.0000001127679, -35529.633, -0.34381148, 0.0, 0.0002540649, 0.0000032142125, 0.0000032142125, 0.0, 0.048828125, 0.047180276 
7.324219e-2, 5.4380524e+0, -0.000000056135498, -35509.38, -0.13589764, 0.0, 0.00026494943, 0.0000004639587, 0.0000004639587, 0.0, 0.048828125, 0.047181167 
7.324219e-2, 5.485234e+0, -0.00000008813357, -35451.688, 0.2786429, 0.0, 0.0003054883, 0.0000021019368, 0.0000021019368, 0.0, 0.048828125, 0.04718371 
7.324219e-2, 5.532419e+0, -0.0000000134784335, -35431.09, 0.043381236, 0.0, 0.00028103453, 0.000000039639417, 0.000000039639417, 0.0, 0.048828125, 0.04718462 
7.324219e-2, 5.5796045e+0, -0.00000039884384, -35372.656, 0.6437871, 0.0, 0.00027314154, 0.000011318167, 0.000011318167, 0.0, 0.048828125, 0.047187194 
7.324219e-2, 5.626793e+0, -0.000012875254, -35352.293, 3.5029106, 0.0, 0.00029502774, 0.0003342135, 0.0003342135, 0.0, 0.048828125, 0.047188092 
7.324219e-2, 5.673982e+0, -0.00000040666038, -35297.63, 0.64194006, 0.0, 0.00028302657, 0.000011267977, 0.000011267977, 0.0, 0.048828125, 0.047190502 
7.324219e-2, 5.721173e+0, -0.000000010421796, -35272.93, 0.11008213, 0.0, 0.0002728449, 0.00000033312972, 0.00000033312972, 0.0, 0.048828125, 0.047191594 
7.324219e-2, 5.768366e+0, -0.0000025014922, -35216.645, 1.601324, 0.0, 0.00028439998, 0.000070311755, 0.000070311755, 0.0, 0.048828125, 0.047194075 
7.324219e-2, 5.815561e+0, -0.000019056904, -35195.105, 4.337012, 0.0, 0.0003129251, 0.0005153831, 0.0005153831, 0.0, 0.048828125, 0.047195025 
7.324219e-2, 5.862757e+0, -0.0000016895137, -35142.035, 1.329904, 0.0, 0.0002899105, 0.00004863894, 0.00004863894, 0.0, 0.048828125, 0.047197368 
7.324219e-2, 5.909955e+0, -0.00000007797772, -35117.3, 0.27844226, 0.0, 0.0002773313, 0.0000021297674, 0.0000021297674, 0.0, 0.048828125, 0.04719846 
7.324219e-2, 5.9571546e+0, -0.00000007219199, -35061.832, 0.2514353, 0.0, 0.00028960398, 0.0000017308994, 0.0000017308994, 0.0, 0.048828125, 0.047200907 
7.324219e-2, 6.004356e+0, -0.00000006571624, -35038.418, 0.27614644, 0.0, 0.0003415346, 0.0000021106607, 0.0000021106607, 0.0, 0.048828125, 0.04720194 
7.324219e-2, 6.0515594e+0, -0.000000024949466, -34984.52, 0.122026645, 0.0, 0.00031489605, 0.0000004006797, 0.0000004006797, 0.0, 0.048828125, 0.04720432 
7.324219e-2, 6.098765e+0, -0.000000024017618, -34960.098, -0.11669914, 0.0, 0.00027623473, 0.00000036552956, 0.00000036552956, 0.0, 0.048828125, 0.047205396 
7.324219e-2, 6.145971e+0, -0.000000014377899, -34905.594, -0.023958689, 0.0, 0.0003111679, 0.000000002073648, 0.000000002073648, 0.0, 0.048828125, 0.047207803 
7.324219e-2, 6.19318e+0, -0.00000013978364, -34881.31, 0.33681905, 0.0, 0.00036699933, 0.0000031125892, 0.0000031125892, 0.0, 0.048828125, 0.047208875 
7.324219e-2, 6.24039e+0, -0.000000006669129, -34828.805, 0.14028692, 0.0, 0.00033454385, 0.00000055839337, 0.00000055839337, 0.0, 0.048828125, 0.047211193 
7.324219e-2, 6.287602e+0, -0.0000001411003, -34802.875, -0.37267283, 0.0, 0.00030151568, 0.00000384952, 0.00000384952, 0.0, 0.048828125, 0.04721234 
7.324219e-2, 6.334815e+0, -0.00000003047549, -34750.016, -0.17486009, 0.0, 0.00034914544, 0.00000084940984, 0.00000084940984, 0.0, 0.048828125, 0.047214672 
7.324219e-2, 6.382031e+0, -0.000000090294755, -34724.33, 0.2964982, 0.0, 0.00036153774, 0.0000024413966, 0.0000024413966, 0.0, 0.048828125, 0.04721581 
7.324219e-2, 6.429247e+0, -0.000000050404378, -34672.734, -0.14557953, 0.0, 0.0003421728, 0.0000005608308, 0.0000005608308, 0.0, 0.048828125, 0.047218088 
7.324219e-2, 6.4764667e+0, -0.000000017512285, -34645.617, -0.087514654, 0.0, 0.00035664614, 0.00000020355219, 0.00000020355219, 0.0, 0.048828125, 0.047219284 
7.324219e-2, 6.5236866e+0, -0.00000005992438, -34594.35, 0.22323368, 0.0, 0.0003870582, 0.0000013805766, 0.0000013805766, 0.0, 0.048828125, 0.04722155 
7.324219e-2, 6.5709096e+0, -0.00000020685877, -34568.516, -0.45427096, 0.0, 0.00034314214, 0.0000057627985, 0.0000057627985, 0.0, 0.048828125, 0.047222693 
7.324219e-2, 6.618133e+0, -0.00000031763452, -34515.332, -0.5657968, 0.0, 0.00036590087, 0.000008957257, 0.000008957257, 0.0, 0.048828125, 0.047225043 
7.324219e-2, 6.665359e+0, -0.00000012439155, -34489.56, 0.33300766, 0.0, 0.0003878029, 0.0000030908996, 0.0000030908996, 0.0, 0.048828125, 0.047226183 
7.324219e-2, 6.7125857e+0, 0.0000000044531228, -34439.79, 0.008246752, 0.0, 0.00038700053, 0.0000000064246706, 0.0000000064246706, 0.0, 0.048828125, 0.04722838 
7.324219e-2, 6.759816e+0, -0.000000009636386, -34410.176, -0.028727835, 0.0, 0.00036347748, 0.000000014348188, 0.000000014348188, 0.0, 0.048828125, 0.047229692 
7.324219e-2, 6.807046e+0, -0.0000030808628, -34359.656, 1.7491403, 0.0, 0.00040110142, 0.00008596227, 0.00008596227, 0.0, 0.048828125, 0.047231924 
7.324219e-2, 6.854279e+0, -0.0000062381096, -34332.617, 2.4567366, 0.0, 0.00037488603, 0.00016955844, 0.00016955844, 0.0, 0.048828125, 0.04723312 
7.324219e-2, 6.9015133e+0, -0.0000015750434, -34285.938, 1.2731642, 0.0, 0.00039056476, 0.00004570227, 0.00004570227, 0.0, 0.048828125, 0.047235183 
7.324219e-2, 6.9487494e+0, -0.000000013950472, -34254.504, 0.12454149, 0.0, 0.00038623926, 0.00000043885666, 0.00000043885666, 0.0, 0.048828125, 0.047236577 
7.324219e-2, 6.9959867e+0, -0.00000054029624, -34207.45, -0.7447345, 0.0, 0.00039527466, 0.00001567341, 0.00001567341, 0.0, 0.048828125, 0.047238655 
7.324219e-2, 7.043227e+0, -0.000016818874, -34174.992, 4.361194, 0.0, 0.0003843091, 0.00053972885, 0.00053972885, 0.0, 0.048828125, 0.047240093 
7.324219e-2, 7.090467e+0, -0.0000004418829, -34127.88, -0.68537724, 0.0, 0.00039245537, 0.000013322286, 0.000013322286, 0.0, 0.048828125, 0.047242176 
7.324219e-2, 7.137711e+0, -0.0000000018685065, -34095.87, -0.04503015, 0.0, 0.00038638886, 0.000000057603756, 0.000000057603756, 0.0, 0.048828125, 0.047243595 
7.324219e-2, 7.184955e+0, -0.000000035809425, -34051.47, 0.043219708, 0.0, 0.00039159256, 0.000000019048457, 0.000000019048457, 0.0, 0.048828125, 0.04724556 
7.324219e-2, 7.232202e+0, 0.00000001522998, -34017.234, 0.038676776, 0.0, 0.00038801192, 0.000000059204467, 0.000000059204467, 0.0, 0.048828125, 0.047247075 
7.324219e-2, 7.2794497e+0, -0.000000029170065, -33973.895, 0.08362906, 0.0, 0.00038280117, 0.00000017668935, 0.00000017668935, 0.0, 0.048828125, 0.047248993 
7.324219e-2, 7.3266995e+0, -0.000000016482023, -33938.473, 0.104072236, 0.0, 0.00038884932, 0.000000302658, 0.000000302658, 0.0, 0.048828125, 0.04725056 
7.324219e-2, 7.373951e+0, -0.00000003032111, -33896.61, 0.104055226, 0.0, 0.00038353182, 0.0000002891029, 0.0000002891029, 0.0, 0.048828125, 0.047252413 
7.324219e-2, 7.421205e+0, -0.0000014585538, -33859.21, 1.2240272, 0.0, 0.00038952162, 0.00004279064, 0.00004279064, 0.0, 0.048828125, 0.04725407 
7.324219e-2, 7.4684596e+0, -0.000000028655961, -33819.242, 0.13566177, 0.0, 0.00037535938, 0.000000515538, 0.000000515538, 0.0, 0.048828125, 0.04725584 
7.324219e-2, 7.5157166e+0, -0.000000026998075, -33780.465, 0.17016336, 0.0, 0.00039088252, 0.00000083016494, 0.00000083016494, 0.0, 0.048828125, 0.047257558 
7.324219e-2, 7.5629747e+0, -0.000000043426958, -33741.51, 0.24699754, 0.0, 0.0003793634, 0.0000017646598, 0.0000017646598, 0.0, 0.048828125, 0.047259282 
7.324219e-2, 7.610236e+0, -0.00000009032001, -33701.926, 0.27702036, 0.0, 0.0003951385, 0.000002186709, 0.000002186709, 0.0, 0.048828125, 0.047261037 
7.324219e-2, 7.657497e+0, -0.000000025225129, -33664.027, 0.16005963, 0.0, 0.0003749247, 0.00000073579577, 0.00000073579577, 0.0, 0.048828125, 0.047262713 
7.324219e-2, 7.704761e+0, -0.000000037382318, -33622.96, 0.18585317, 0.0, 0.00040498684, 0.0000009899377, 0.0000009899377, 0.0, 0.048828125, 0.047264535 
7.324219e-2, 7.7520263e+0, -0.00000009355671, -33586.14, 0.27446187, 0.0, 0.0003803217, 0.0000021493106, 0.0000021493106, 0.0, 0.048828125, 0.047266167 
7.324219e-2, 7.799294e+0, -0.000000054442182, -33544.63, 0.22017367, 0.0, 0.000403796, 0.0000013906974, 0.0000013906974, 0.0, 0.048828125, 0.047268007 
7.324219e-2, 7.846562e+0, -0.000000011029762, -33508.3, 0.10142939, 0.0, 0.00039668998, 0.00000029599323, 0.00000029599323, 0.0, 0.048828125, 0.047269616 
7.324219e-2, 7.8938335e+0, -0.000000016347785, -33466.113, 0.12441911, 0.0, 0.00042812756, 0.00000044621993, 0.00000044621993, 0.0, 0.048828125, 0.047271486 
7.324219e-2, 7.9411054e+0, -0.000000054473112, -33430.664, 0.2356489, 0.0, 0.0003951808, 0.0000016065824, 0.0000016065824, 0.0, 0.048828125, 0.04727306 
7.324219e-2, 7.98838e+0, -0.000000066473355, -33387.305, 0.1956042, 0.0, 0.00040918132, 0.0000010794975, 0.0000010794975, 0.0, 0.048828125, 0.04727498 
7.324219e-2, 8.035655e+0, -0.0000000045304436, -33353.13, -0.012135897, 0.0, 0.00043448078, -0.00000000011641532, -0.00000000011641532, 0.0, 0.048828125, 0.047276493 
7.324219e-2, 8.0829334e+0, -0.000000004809693, -33308.543, -0.07153689, 0.0, 0.0004700126, 0.00000014882971, 0.00000014882971, 0.0, 0.048828125, 0.04727847 
7.324219e-2, 8.130212e+0, -0.0000000037238546, -33275.12, 0.15894209, 0.0, 0.0004175601, 0.00000075547723, 0.00000075547723, 0.0, 0.048828125, 0.047279954 
7.324219e-2, 8.177494e+0, 0.000000003891674, -33231.27, 0.17139374, 0.0, 0.00039443473, 0.00000088787783, 0.00000088787783, 0.0, 0.048828125, 0.0472819 
7.324219e-2, 8.2247764e+0, -0.00000005186766, -33198.625, -0.20288378, 0.0, 0.00047821674, 0.0000011879893, 0.0000011879893, 0.0, 0.048828125, 0.047283348 
7.324219e-2, 8.2720613e+0, -0.000139776, -33152.395, 12.150546, 0.0, 0.000543354, 0.0043134694, 0.0043134694, 0.0, 0.048828125, 0.047285397 
7.324219e-2, 8.3193463e+0, -0.000000014666403, -33120.164, 0.0508847, 0.0, 0.00043189223, 0.000000063511834, 0.000000063511834, 0.0, 0.048828125, 0.047286827 
7.324219e-2, 8.3666354e+0, -0.00028488314, -33074.23, 17.334265, 0.0, 0.0003466055, 0.008800035, 0.008800035, 0.0, 0.048828125, 0.047288865 
7.324219e-2, 8.413924e+0, -0.000000048161603, -33042.59, -0.21342947, 0.0, 0.00051499286, 0.0000013304307, 0.0000013304307, 0.0, 0.048828125, 0.04729027 
7.324219e-2, 8.461216e+0, -0.00000007771378, -32995.453, -0.21562546, 0.0, 0.0006243596, 0.0000013313984, 0.0000013313984, 0.0, 0.048828125, 0.047292363 
7.324219e-2, 8.508509e+0, -0.000000018284975, -32964.6, -0.05913647, 0.0, 0.00044411697, 0.00000008780626, 0.00000008780626, 0.0, 0.048828125, 0.04729373 
7.324219e-2, 8.5558045e+0, -0.0000000300412, -32917.0, -0.14146352, 0.0, 0.0002813703, 0.0000005779075, 0.0000005779075, 0.0, 0.048828125, 0.047295846 
7.324219e-2, 8.603101e+0, -0.000000020253186, -32886.6, -0.18454954, 0.0, 0.0005293718, 0.0000010153744, 0.0000010153744, 0.0, 0.048828125, 0.047297195 
7.324219e-2, 8.6503994e+0, -0.000000006104028, -32838.254, -0.06630895, 0.0, 0.00067464134, 0.00000012779492, 0.00000012779492, 0.0, 0.048828125, 0.04729934 
7.324219e-2, 8.697699e+0, -0.000000028809035, -32809.145, -0.13253368, 0.0, 0.00045936336, 0.0000005065667, 0.0000005065667, 0.0, 0.048828125, 0.047300633 
7.324219e-2, 8.745001e+0, -0.00000006555594, -32759.12, -0.25337338, 0.0, 0.00024605767, 0.0000018941464, 0.0000018941464, 0.0, 0.048828125, 0.047302857 
7.324219e-2, 8.792304e+0, -0.00000001417127, -32731.863, -0.12912059, 0.0, 0.0005141393, 0.0000004951835, 0.0000004951835, 0.0, 0.048828125, 0.047304068 
7.324219e-2, 8.83961e+0, -0.000000017601502, -32679.193, 0.037851922, 0.0, 0.00067598635, 0.000000026240741, 0.000000026240741, 0.0, 0.048828125, 0.047306407 
7.324219e-2, 8.886916e+0, -0.0000000028815692, -32655.893, -0.052378323, 0.0, 0.00046669092, 0.000000081130565, 0.000000081130565, 0.0, 0.048828125, 0.047307443 
7.324219e-2, 8.934226e+0, -0.00000007033192, -32600.232, -0.31132063, 0.0, 0.000274909, 0.000002902667, 0.000002902667, 0.0, 0.048828125, 0.047309913 
7.324219e-2, 8.981536e+0, -0.00000006912352, -32576.996, -0.16532461, 0.0, 0.00050169433, 0.00000076988, 0.00000076988, 0.0, 0.048828125, 0.04731095 
7.324219e-2, 9.0288484e+0, -0.00000011269375, -32521.576, 0.33833066, 0.0, 0.00060919655, 0.0000034070508, 0.0000034070508, 0.0, 0.048828125, 0.04731341 
7.324219e-2, 9.0761626e+0, -0.000000026681823, -32499.979, 0.050389316, 0.0, 0.00044490414, 0.00000005144102, 0.00000005144102, 0.0, 0.048828125, 0.04731437 
7.324219e-2, 9.123478e+0, -0.00000013065801, -32442.533, -0.37661847, 0.0, 0.00039733076, 0.000004241425, 0.000004241425, 0.0, 0.048828125, 0.047316924 
7.324219e-2, 9.1707957e+0, -0.000000022230646, -32422.098, 0.13633543, 0.0, 0.00051485543, 0.00000055106284, 0.00000055106284, 0.0, 0.048828125, 0.047317833 
7.324219e-2, 9.2181146e+0, -0.00000009590744, -32364.588, -0.27953532, 0.0, 0.00048273016, 0.0000023184584, 0.0000023184584, 0.0, 0.048828125, 0.04732039 
7.324219e-2, 9.2654353e+0, -0.0000021118597, -32345.709, -1.4529351, 0.0, 0.0004431089, 0.000063152445, 0.000063152445, 0.0, 0.048828125, 0.04732123 
7.324219e-2, 9.3127584e+0, -0.000059931474, -32283.996, 7.949266, 0.0, 0.000523744, 0.0018974108, 0.0018974108, 0.0, 0.048828125, 0.047323972 
7.324219e-2, 9.360083e+0, -0.00000076630374, -32267.07, -0.88087416, 0.0, 0.00048434932, 0.0000232811, 0.0000232811, 0.0, 0.048828125, 0.047324724 
7.324219e-2, 9.4074094e+0, -0.00000018756326, -32204.746, -0.41804668, 0.0, 0.00046555058, 0.0000052390606, 0.0000052390606, 0.0, 0.048828125, 0.047327496 
7.324219e-2, 9.454737e+0, -0.0000001203081, -32189.69, 0.32530433, 0.0, 0.0004936752, 0.0000031671698, 0.0000031671698, 0.0, 0.048828125, 0.047328167 
7.324219e-2, 9.5020664e+0, -0.000000084957996, -32127.69, -0.2834534, 0.0, 0.00051307457, 0.0000024158726, 0.0000024158726, 0.0, 0.048828125, 0.047330927 
7.324219e-2, 9.549397e+0, -0.0000002206623, -32111.465, -0.4781752, 0.0, 0.00047218078, 0.000006899896, 0.000006899896, 0.0, 0.048828125, 0.04733165 
7.324219e-2, 9.596731e+0, -0.00000003061409, -32048.79, 0.16302942, 0.0, 0.00053380616, 0.00000079870006, 0.00000079870006, 0.0, 0.048828125, 0.047334436 
7.324219e-2, 9.644066e+0, -0.000004618798, -32038.615, -2.09761, 0.0, 0.0004921386, 0.00013271446, 0.00013271446, 0.0, 0.048828125, 0.04733489 
7.324219e-2, 9.6914023e+0, -0.00023875808, -31971.246, 15.855287, 0.0, 0.00052842044, 0.007624246, 0.007624246, 0.0, 0.048828125, 0.04733789 
7.324219e-2, 9.738741e+0, -0.000007046516, -31955.453, -2.5782049, 0.0, 0.00050406245, 0.0002009662, 0.0002009662, 0.0, 0.048828125, 0.04733859 
7.324219e-2, 9.7860813e+0, -0.0000000916337, -31892.215, -0.302037, 0.0, 0.0005490599, 0.0000027688257, 0.0000027688257, 0.0, 0.048828125, 0.047341406 
7.324219e-2, 9.833423e+0, -0.0000027777232, -31883.533, -1.6500652, 0.0, 0.00049768743, 0.00008261793, 0.00008261793, 0.0, 0.048828125, 0.047341794 
7.324219e-2, 9.8807657e+0, -0.00021307045, -31813.656, 14.977896, 0.0, 0.00056608627, 0.006838534, 0.006838534, 0.0, 0.048828125, 0.047344904 
7.324219e-2, 9.928111e+0, -0.0000017784735, -31801.795, -1.3232212, 0.0, 0.0005242309, 0.00005327862, 0.00005327862, 0.0, 0.048828125, 0.047345433 
7.324219e-2, 9.9754584e+0, -0.000000029468364, -31734.377, -0.16611107, 0.0, 0.0005660046, 0.0000008400275, 0.0000008400275, 0.0, 0.048828125, 0.047348436 
7.324219e-2, 1.0022807e+1, -0.000000027037514, -31726.615, -0.026038516, 0.0, 0.000526972, -0.000000005664333, -0.000000005664333, 0.0, 0.048828125, 0.047348782 
7.324219e-2, 1.0070158e+1, -0.000000015804762, -31654.988, -0.044239517, 0.0, 0.0005815919, 0.00000004602407, 0.00000004602407, 0.0, 0.048828125, 0.04735197 
7.324219e-2, 1.011751e+1, -0.0000000014750932, -31649.744, -0.006562238, 0.0, 0.00054206955, -0.00000000011277734, -0.00000000011277734, 0.0, 0.048828125, 0.047352206 
7.324219e-2, 1.01648636e+1, 0.000000016826837, -31576.963, -0.014228771, 0.0, 0.0005845609, 0.000000023239409, 0.000000023239409, 0.0, 0.048828125, 0.04735545 
7.324219e-2, 1.02122195e+1, -0.00000006310533, -31571.89, -0.26780024, 0.0, 0.00054976344, 0.0000022084387, 0.0000022084387, 0.0, 0.048828125, 0.047355674 
7.324219e-2, 1.0259577e+1, -0.000006432323, -31498.459, 2.4636023, 0.0, 0.00059452717, 0.00018625443, 0.00018625443, 0.0, 0.048828125, 0.04735895 
7.324219e-2, 1.03069365e+1, -0.00000002410057, -31493.652, -0.22667892, 0.0, 0.0005510045, 0.0000016074446, 0.0000016074446, 0.0, 0.048828125, 0.04735916 
7.324219e-2, 1.0354297e+1, -0.00000002196242, -31419.473, -0.053094283, 0.0, 0.0005949994, 0.00000006776099, 0.00000006776099, 0.0, 0.048828125, 0.04736247 
7.324219e-2, 1.0401659e+1, -0.000000028039834, -31416.01, -0.062230263, 0.0, 0.00056677836, 0.000000095224095, 0.000000095224095, 0.0, 0.048828125, 0.047362622 
7.324219e-2, 1.0449024e+1, -0.000000043638767, -31341.723, 0.18533917, 0.0, 0.0005944813, 0.0000010523654, 0.0000010523654, 0.0, 0.048828125, 0.047365934 
7.324219e-2, 1.04963906e+1, 0.000000031446643, -31337.766, -0.03928195, 0.0, 0.0005618826, 0.000000080683094, 0.000000080683094, 0.0, 0.048828125, 0.047366112 
7.324219e-2, 1.0543758e+1, -0.0000000138340805, -31263.273, -0.032426205, 0.0, 0.0005977285, 0.00000001979788, 0.00000001979788, 0.0, 0.048828125, 0.047369435 
7.324219e-2, 1.0591128e+1, -0.000000024410266, -31259.994, -0.058916636, 0.0, 0.0005663771, 0.00000008663119, 0.00000008663119, 0.0, 0.048828125, 0.04736958 
7.324219e-2, 1.0638499e+1, -0.00000001593567, -31184.523, -0.07673976, 0.0, 0.0005919969, 0.0000001729095, 0.0000001729095, 0.0, 0.048828125, 0.04737295 
7.324219e-2, 1.0685872e+1, -0.0000000038512353, -31181.738, -0.049173247, 0.0, 0.0005697315, 0.00000007369454, 0.00000007369454, 0.0, 0.048828125, 0.04737307 
7.324219e-2, 1.0733247e+1, 0.0000000023464386, -31106.865, -0.033510614, 0.0, 0.00059045764, 0.00000003844616, 0.00000003844616, 0.0, 0.048828125, 0.047376413 
7.324219e-2, 1.07806236e+1, -0.000000004035432, -31102.646, -0.051569734, 0.0, 0.00056647963, 0.000000081472535, 0.000000081472535, 0.0, 0.048828125, 0.0473766 
7.324219e-2, 1.0828002e+1, -0.00000002429238, -31029.473, -0.07058432, 0.0, 0.00058358326, 0.00000013627505, 0.00000013627505, 0.0, 0.048828125, 0.047379866 
7.324219e-2, 1.08753815e+1, -0.000000037404078, -31024.426, 0.076459184, 0.0, 0.0005713579, 0.00000015102341, 0.00000015102341, 0.0, 0.048828125, 0.04738009 
7.324219e-2, 1.09227635e+1, -0.000000016828665, -30950.96, -0.06021909, 0.0, 0.0005890156, 0.000000100335455, 0.000000100335455, 0.0, 0.048828125, 0.047383368 
7.324219e-2, 1.0970147e+1, -0.000000023233476, -30946.152, -0.07545413, 0.0, 0.0005603342, 0.00000016074046, 0.00000016074046, 0.0, 0.048828125, 0.047383584 
7.324219e-2, 1.1017533e+1, 0.0000000011956177, -30873.11, -0.026077848, 0.0, 0.0005845676, 0.000000023224857, 0.000000023224857, 0.0, 0.048828125, 0.047386844 
7.324219e-2, 1.106492e+1, 0.000000012408685, -30866.646, 0.034007978, 0.0, 0.0005716995, 0.000000049880327, 0.000000049880327, 0.0, 0.048828125, 0.047387134 
7.324219e-2, 1.11123085e+1, 0.000000022301409, -30796.146, -0.008190279, 0.0, 0.0005944708, 0.000000024476321, 0.000000024476321, 0.0, 0.048828125, 0.047390282 
7.324219e-2, 1.1159699e+1, -0.000000010968137, -30787.318, -0.047136173, 0.0, 0.0005634939, 0.00000006119808, 0.00000006119808, 0.0, 0.048828125, 0.047390677 
7.324219e-2, 1.1207091e+1, -0.0000000059220158, -30718.996, 0.010812708, 0.0, 0.00060238567, -0.0000000021173037, -0.0000000021173037, 0.0, 0.048828125, 0.047393728 
7.324219e-2, 1.1254485e+1, -0.000000032417216, -30709.213, 0.16016771, 0.0, 0.0005752162, 0.0000008029565, 0.0000008029565, 0.0, 0.048828125, 0.047394164 
7.324219e-2, 1.1301881e+1, -0.000000018106023, -30641.223, 0.035485316, 0.0, 0.00060539803, 0.000000022988388, 0.000000022988388, 0.0, 0.048828125, 0.047397204 
7.324219e-2, 1.1349279e+1, 0.000000017015882, -30631.04, 0.038094345, 0.0, 0.0005832319, 0.000000064392225, 0.000000064392225, 0.0, 0.048828125, 0.04739766 
7.324219e-2, 1.1396678e+1, -0.00000003810029, -30562.865, 0.0912683, 0.0, 0.0006271537, 0.00000023444954, 0.00000023444954, 0.0, 0.048828125, 0.047400706 
7.324219e-2, 1.14440784e+1, -0.000000005851135, -30552.775, 0.099881805, 0.0, 0.0005869527, 0.00000032068056, 0.00000032068056, 0.0, 0.048828125, 0.047401156 
7.324219e-2, 1.1491482e+1, -0.0000000031865495, -30484.963, 0.0520077, 0.0, 0.00062944816, 0.000000085539796, 0.000000085539796, 0.0, 0.048828125, 0.047404185 
7.324219e-2, 1.1538886e+1, -0.000000022606416, -30474.297, 0.09804997, 0.0, 0.00060405314, 0.00000029286457, 0.00000029286457, 0.0, 0.048828125, 0.04740466 
7.324219e-2, 1.1586292e+1, -0.000000023359952, -30406.902, 0.11429811, 0.0, 0.000650165, 0.0000004062822, 0.0000004062822, 0.0, 0.048828125, 0.047407676 
7.324219e-2, 1.16337e+1, 0.000000004782476, -30395.943, 0.045938697, 0.0, 0.00060609414, 0.00000007421477, 0.00000007421477, 0.0, 0.048828125, 0.047408164 
7.324219e-2, 1.16811104e+1, -0.000000010575521, -30329.115, 0.0853677, 0.0, 0.0006681793, 0.00000022970926, 0.00000022970926, 0.0, 0.048828125, 0.047411155 
7.324219e-2, 1.17285214e+1, -0.000000011568821, -30317.387, 0.09058556, 0.0, 0.00062176905, 0.0000002590932, 0.0000002590932, 0.0, 0.048828125, 0.047411676 
7.324219e-2, 1.1775934e+1, -0.000000025442366, -30251.148, -0.020670077, 0.0, 0.0006700491, -0.00000001132139, -0.00000001132139, 0.0, 0.048828125, 0.04741464 
7.324219e-2, 1.182335e+1, -0.000000007947904, -30239.059, 0.13014941, 0.0, 0.00062986085, 0.0000005522161, 0.0000005522161, 0.0, 0.048828125, 0.047415182 
7.324219e-2, 1.18707664e+1, -0.000000016855559, -30172.963, 0.09812752, 0.0, 0.00069781055, 0.00000030227602, 0.00000030227602, 0.0, 0.048828125, 0.047418136 
7.324219e-2, 1.1918185e+1, 0.0000000065282113, -30161.07, -0.025789974, 0.0, 0.00063406775, 0.000000028576324, 0.000000028576324, 0.0, 0.048828125, 0.04741867 
7.324219e-2, 1.1965605e+1, 0.00000000091239694, -30095.498, -0.05993174, 0.0, 0.00069646194, 0.00000012026067, 0.00000012026067, 0.0, 0.048828125, 0.047421604 
7.324219e-2, 1.2013027e+1, -0.00000006129243, -30081.21, 0.16536355, 0.0, 0.0006499573, 0.0000008477473, 0.0000008477473, 0.0, 0.048828125, 0.04742224 
7.324219e-2, 1.2060451e+1, -0.000000027410687, -30018.938, -0.016495584, 0.0, 0.00069847185, -0.000000018349965, -0.000000018349965, 0.0, 0.048828125, 0.04742503 
7.324219e-2, 1.2107877e+1, -0.000000014082413, -30001.486, -0.12145041, 0.0, 0.00065048586, 0.0000004775684, 0.0000004775684, 0.0, 0.048828125, 0.04742581 
7.324219e-2, 1.2155304e+1, -0.000000024959656, -29941.701, -0.09935378, 0.0, 0.0007090701, 0.00000030472074, 0.00000030472074, 0.0, 0.048828125, 0.04742849 
7.324219e-2, 1.2202733e+1, -0.0000001237916, -29923.463, 0.32849574, 0.0, 0.0006607147, 0.0000034823897, 0.0000034823897, 0.0, 0.048828125, 0.047429305 
7.324219e-2, 1.22501634e+1, -0.000000027400318, -29863.0, -0.18479736, 0.0, 0.0006996805, 0.0000011161574, 0.0000011161574, 0.0, 0.048828125, 0.04743201 
7.324219e-2, 1.2297596e+1, -0.000000027415455, -29845.535, -0.15786168, 0.0, 0.0006687736, 0.00000080755854, 0.00000080755854, 0.0, 0.048828125, 0.04743279 
7.324219e-2, 1.234503e+1, -0.000000015685488, -29785.21, 0.01055876, 0.0, 0.0006990816, -0.000000011943484, -0.000000011943484, 0.0, 0.048828125, 0.047435496 
7.324219e-2, 1.23924665e+1, -0.000000012807589, -29766.74, 0.0065396843, 0.0, 0.0006659522, -0.000000011372322, -0.000000011372322, 0.0, 0.048828125, 0.047436323 
7.324219e-2, 1.24399036e+1, -0.000000019707054, -29708.008, -0.120433725, 0.0, 0.00069273624, 0.00000046852074, 0.00000046852074, 0.0, 0.048828125, 0.047438953 
7.324219e-2, 1.2487344e+1, -0.00000002914152, -29687.494, -0.11161119, 0.0, 0.00067583856, 0.00000039046427, 0.00000039046427, 0.0, 0.048828125, 0.04743987 
7.324219e-2, 1.2534784e+1, -0.000000022049074, -29631.098, -0.1091381, 0.0, 0.0006831782, 0.00000037993232, 0.00000037993232, 0.0, 0.048828125, 0.0474424 
7.324219e-2, 1.2582228e+1, -0.000000010017059, -29608.172, 0.04176789, 0.0, 0.0006707426, 0.00000004890535, 0.00000004890535, 0.0, 0.048828125, 0.047443427 
7.324219e-2, 1.2629671e+1, -0.000000028674727, -29553.68, -0.111503035, 0.0, 0.0006863796, 0.00000039201404, 0.00000039201404, 0.0, 0.048828125, 0.047445867 
7.324219e-2, 1.267712e+1, -0.000000034870396, -29529.494, -0.15156958, 0.0, 0.00068211433, 0.0000007431081, 0.0000007431081, 0.0, 0.048828125, 0.04744695 
7.324219e-2, 1.2724566e+1, -0.000000038295255, -29476.545, -0.058815178, 0.0, 0.00066860934, 0.00000007905692, 0.00000007905692, 0.0, 0.048828125, 0.047449324 
7.324219e-2, 1.2772018e+1, -0.000000031200287, -29450.12, 0.11050008, 0.0, 0.00066883775, 0.00000038341022, 0.00000038341022, 0.0, 0.048828125, 0.04745051 
7.324219e-2, 1.2819469e+1, -0.00000002138283, -29400.102, -0.13084243, 0.0, 0.0006773335, 0.0000005609181, 0.0000005609181, 0.0, 0.048828125, 0.04745275 
7.324219e-2, 1.2866922e+1, -0.0000000754577, -29370.139, -0.15758586, 0.0, 0.0007068034, 0.0000007700728, 0.0000007700728, 0.0, 0.048828125, 0.047454096 
7.324219e-2, 1.2914377e+1, 0.000000004345867, -29325.512, -0.03821538, 0.0, 0.0006492521, 0.000000054147677, 0.000000054147677, 0.0, 0.048828125, 0.047456097 
7.324219e-2, 1.2961835e+1, -0.00000012655003, -29291.168, 0.34974524, 0.0, 0.0006511768, 0.0000040495106, 0.0000040495106, 0.0, 0.048828125, 0.047457635 
7.324219e-2, 1.3009292e+1, 0.0000000031718788, -29248.613, -0.076511495, 0.0, 0.00068258337, 0.00000020331936, 0.00000020331936, 0.0, 0.048828125, 0.047459546 
7.324219e-2, 1.3056754e+1, 0.0000000053772866, -29211.629, -0.026778651, 0.0, 0.00076508947, 0.000000029926014, 0.000000029926014, 0.0, 0.048828125, 0.047461204 
7.324219e-2, 1.3104215e+1, -0.0000000028761629, -29170.295, 0.056883063, 0.0, 0.0006377932, 0.00000010804433, 0.00000010804433, 0.0, 0.048828125, 0.04746306 
7.324219e-2, 1.315168e+1, 0.00000000883807, -29133.7, 0.0014323468, 0.0, 0.00062012364, 0.000000008905772, 0.000000008905772, 0.0, 0.048828125, 0.0474647 
7.324219e-2, 1.3199145e+1, -0.000000016612717, -29091.258, 0.053592026, 0.0, 0.00069912506, 0.000000082120096, 0.000000082120096, 0.0, 0.048828125, 0.047466606 
7.324219e-2, 1.3246614e+1, -0.00000007661869, -29056.2, 0.22388096, 0.0, 0.0008284855, 0.0000016484046, 0.0000016484046, 0.0, 0.048828125, 0.047468178 
7.324219e-2, 1.3294081e+1, -0.00000004225699, -29014.145, 0.03235936, 0.0, 0.00064321293, -0.000000006170012, -0.000000006170012, 0.0, 0.048828125, 0.047470067 
7.324219e-2, 1.3341554e+1, -0.000000044974758, -28976.848, -0.037183903, 0.0, 0.0005886883, 0.000000002739398, 0.000000002739398, 0.0, 0.048828125, 0.04747174 
7.324219e-2, 1.3389026e+1, -0.00000001500689, -28936.658, 0.09803182, 0.0, 0.000712398, 0.00000031710806, 0.00000031710806, 0.0, 0.048828125, 0.047473542 
7.324219e-2, 1.34365e+1, -0.00000021784943, -28897.064, 0.44185483, 0.0, 0.0008822756, 0.0000065383974, 0.0000065383974, 0.0, 0.048828125, 0.04747532 
7.324219e-2, 1.3483976e+1, 0.0000000034539835, -28861.143, 0.023229854, 0.0, 0.00066700584, 0.000000022148015, 0.000000022148015, 0.0, 0.048828125, 0.047476932 
7.324219e-2, 1.3531455e+1, -0.000000097206836, -28817.547, -0.2960493, 0.0, 0.0005806431, 0.0000029441762, 0.0000029441762, 0.0, 0.048828125, 0.047478892 
7.324219e-2, 1.3578933e+1, -0.00000001759739, -28782.172, 0.12454356, 0.0, 0.0007373652, 0.0000005213151, 0.0000005213151, 0.0, 0.048828125, 0.04748048 
7.324219e-2, 1.3626416e+1, -0.0000006917915, -28738.115, 0.8317365, 0.0, 0.00088583556, 0.000023380268, 0.000023380268, 0.0, 0.048828125, 0.04748246 
7.324219e-2, 1.3673899e+1, -0.000000026362317, -28707.486, 0.11771393, 0.0, 0.0006811788, 0.00000045631896, 0.00000045631896, 0.0, 0.048828125, 0.047483835 
7.324219e-2, 1.3721384e+1, -0.00000011122178, -28658.957, -0.3195634, 0.0, 0.0006412547, 0.0000034520926, 0.0000034520926, 0.0, 0.048828125, 0.047486015 
7.324219e-2, 1.376887e+1, -0.00000003532667, -28627.13, 0.072388306, 0.0, 0.0007675116, 0.00000014771649, 0.00000014771649, 0.0, 0.048828125, 0.047487445 
7.324219e-2, 1.381636e+1, -0.00000081209623, -28580.15, 0.90821135, 0.0, 0.0007995883, 0.000028048773, 0.000028048773, 0.0, 0.048828125, 0.047489557 
7.324219e-2, 1.386385e+1, -0.000000077339855, -28552.21, 0.19936809, 0.0, 0.00069121923, 0.0000013147655, 0.0000013147655, 0.0, 0.048828125, 0.047490813 
7.324219e-2, 1.3911341e+1, -0.0000002339068, -28501.023, -0.4764202, 0.0, 0.0007781715, 0.000007729886, 0.000007729886, 0.0, 0.048828125, 0.04749311 
7.324219e-2, 1.3958836e+1, -0.000000045415028, -28472.705, 0.14673126, 0.0, 0.0007904428, 0.00000071074464, 0.00000071074464, 0.0, 0.048828125, 0.047494385 
7.324219e-2, 1.4006332e+1, -0.00000016175674, -28422.902, 0.439397, 0.0, 0.000684357, 0.000006630995, 0.000006630995, 0.0, 0.048828125, 0.047496624 
7.324219e-2, 1.4053828e+1, -0.000000003962752, -28395.875, -0.044815566, 0.0, 0.000731547, 0.000000066767825, 0.000000066767825, 0.0, 0.048828125, 0.04749784 
7.324219e-2, 1.4101328e+1, -0.00000016261912, -28343.867, 0.3597362, 0.0, 0.0008538703, 0.0000044031003, 0.0000044031003, 0.0, 0.048828125, 0.04750018 
7.324219e-2, 1.4148828e+1, -0.00000014210632, -28317.727, 0.32983294, 0.0, 0.00074048794, 0.0000036996498, 0.0000036996498, 0.0, 0.048828125, 0.047501355 
7.324219e-2, 1.419633e+1, -0.00000016994508, -28266.88, -0.34921384, 0.0, 0.00071400334, 0.0000041443054, 0.0000041443054, 0.0, 0.048828125, 0.04750364 
7.324219e-2, 1.4243835e+1, -0.0000001041856, -28238.295, -0.2681205, 0.0, 0.0008804144, 0.0000024415967, 0.0000024415967, 0.0, 0.048828125, 0.047504928 
7.324219e-2, 1.4291342e+1, -0.0000005670971, -28187.053, 0.7291948, 0.0, 0.00071257487, 0.000018297069, 0.000018297069, 0.0, 0.048828125, 0.04750723 
7.324219e-2, 1.433885e+1, -0.00000006790391, -28162.54, 0.13657095, 0.0, 0.0005760504, 0.0000005943839, 0.0000005943839, 0.0, 0.048828125, 0.047508333 
7.324219e-2, 1.4386359e+1, -0.00000007799366, -28107.174, -0.24827635, 0.0, 0.00096165075, 0.0000021150809, 0.0000021150809, 0.0, 0.048828125, 0.047510825 
7.324219e-2, 1.443387e+1, -0.00000007174616, -28085.074, 0.18758336, 0.0, 0.0010509191, 0.0000011811462, 0.0000011811462, 0.0, 0.048828125, 0.04751182 
7.324219e-2, 1.4481384e+1, -0.0000000050497198, -28028.96, -0.040355343, 0.0, 0.00047375678, 0.000000053052645, 0.000000053052645, 0.0, 0.048828125, 0.047514345 
7.324219e-2, 1.4528899e+1, -0.00000053759913, -28007.715, -0.73850536, 0.0, 0.0005225005, 0.000018935254, 0.000018935254, 0.0, 0.048828125, 0.047515303 
7.324219e-2, 1.4576416e+1, -0.0000005031631, -27947.332, 0.7027177, 0.0, 0.0011100415, 0.000017166225, 0.000017166225, 0.0, 0.048828125, 0.04751802 
7.324219e-2, 1.4623934e+1, -0.0000004774846, -27933.6, 0.67088026, 0.0, 0.0009669445, 0.000015635022, 0.000015635022, 0.0, 0.048828125, 0.047518637 
7.324219e-2, 1.4671454e+1, -0.00000021307349, -27871.492, -0.446857, 0.0, 0.00051932305, 0.000006951279, 0.000006951279, 0.0, 0.048828125, 0.047521435 
7.324219e-2, 1.4718977e+1, -0.00000037688534, -27854.875, -0.60957044, 0.0, 0.0007029108, 0.000012962835, 0.000012962835, 0.0, 0.048828125, 0.047522184 
7.324219e-2, 1.47665e+1, -0.00000015049115, -27791.11, 0.3559818, 0.0, 0.00093401916, 0.0000044093504, 0.0000044093504, 0.0, 0.048828125, 0.047525056 
7.324219e-2, 1.4814025e+1, -0.000000034304943, -27779.521, 0.0382923, 0.0, 0.000794071, 0.000000018477294, 0.000000018477294, 0.0, 0.048828125, 0.047525577 
7.324219e-2, 1.4861552e+1, -0.000000086272216, -27712.346, 0.21443309, 0.0, 0.00074517267, 0.0000015729747, 0.0000015729747, 0.0, 0.048828125, 0.047528602 
7.324219e-2, 1.4909081e+1, -0.00000016643831, -27702.354, -0.39828458, 0.0, 0.0007716173, 0.000005559814, 0.000005559814, 0.0, 0.048828125, 0.047529053 
7.324219e-2, 1.4956613e+1, -0.000000011416139, -27631.625, 0.0018605193, 0.0, 0.00082286145, -0.000000011292286, -0.000000011292286, 0.0, 0.048828125, 0.047532238 
7.324219e-2, 1.5004145e+1, -0.0000013172206, -27625.246, 1.1347811, 0.0, 0.0007582422, 0.000045296965, 0.000045296965, 0.0, 0.048828125, 0.047532525 
7.324219e-2, 1.505168e+1, -0.000000281305, -27555.402, -0.52316004, 0.0, 0.0007652616, 0.000009651278, 0.000009651278, 0.0, 0.048828125, 0.047535673 
7.324219e-2, 1.5099214e+1, -0.0000011485148, -27546.787, -1.0617177, 0.0, 0.0008804426, 0.00003977258, 0.00003977258, 0.0, 0.048828125, 0.04753606 
7.324219e-2, 1.5146752e+1, -0.0000010570495, -27474.371, 1.0012851, 0.0, 0.00083679607, 0.000035434117, 0.000035434117, 0.0, 0.048828125, 0.047539327 
7.324219e-2, 1.5194292e+1, -0.00000029872314, -27471.904, -0.54503864, 0.0, 0.00057654467, 0.0000105147665, 0.0000105147665, 0.0, 0.048828125, 0.047539435 
7.324219e-2, 1.5241833e+1, -0.000000006524283, -27395.033, 0.035046957, 0.0, 0.00085414987, 0.000000038311555, 0.000000038311555, 0.0, 0.048828125, 0.047542904 
7.324219e-2, 1.5289377e+1, -0.000001213386, -27393.223, 1.0996017, 0.0, 0.0009804725, 0.00004292615, 0.00004292615, 0.0, 0.048828125, 0.047542986 
7.324219e-2, 1.533692e+1, -0.000016636712, -27326.734, -4.120711, 0.0, 0.0007309295, 0.0006047422, 0.0006047422, 0.0, 0.048828125, 0.047545984 
7.324219e-2, 1.5384467e+1, -0.0011006927, -27312.783, 33.9186, 0.0, 0.00070615765, 0.04102133, 0.04102133, 0.0, 0.048828125, 0.04754661 
7.324219e-2, 1.5432015e+1, -0.000012963088, -27232.691, -3.7672923, 0.0, 0.0009196236, 0.0005081933, 0.0005081933, 0.0, 0.048828125, 0.047550224 
7.324219e-2, 1.5479566e+1, -0.00000010019445, -27237.314, 0.22605135, 0.0, 0.00075450155, 0.0000017758794, 0.0000017758794, 0.0, 0.048828125, 0.047550015 
7.324219e-2, 1.5527117e+1, -0.00000014377066, -27159.875, -0.33435163, 0.0, 0.00080469646, 0.000003972269, 0.000003972269, 0.0, 0.048828125, 0.04755351 
7.324219e-2, 1.5574671e+1, -0.000000064109635, -27159.832, -0.21127126, 0.0, 0.0009004412, 0.0000015793303, 0.0000015793303, 0.0, 0.048828125, 0.04755351 
7.324219e-2, 1.5622227e+1, -0.00000045799317, -27080.994, 0.6826032, 0.0, 0.0008609075, 0.000016747694, 0.000016747694, 0.0, 0.048828125, 0.047557067 
7.324219e-2, 1.5669784e+1, -0.000000037286128, -27082.504, -0.10804047, 0.0, 0.00071598485, 0.0000003937239, 0.0000003937239, 0.0, 0.048828125, 0.047557 
7.324219e-2, 1.5717342e+1, -0.000000028747982, -27003.184, 0.13728209, 0.0, 0.00090728706, 0.0000006691844, 0.0000006691844, 0.0, 0.048828125, 0.04756058 
7.324219e-2, 1.5764903e+1, -0.000000031029874, -27002.73, 0.10546992, 0.0, 0.00084550935, 0.00000038092548, 0.00000038092548, 0.0, 0.048828125, 0.047560602 
7.324219e-2, 1.5812466e+1, -0.000002113481, -26927.445, 1.4311249, 0.0, 0.00083023607, 0.00007394716, 0.00007394716, 0.0, 0.048828125, 0.047564 
7.324219e-2, 1.586003e+1, -0.000000020076122, -26922.207, -0.03695795, 0.0, 0.0008731664, 0.000000030660885, 0.000000030660885, 0.0, 0.048828125, 0.047564235 
7.324219e-2, 1.5907596e+1, -0.000000047672813, -26850.398, 0.1720029, 0.0, 0.00090760685, 0.0000010541735, 0.0000010541735, 0.0, 0.048828125, 0.04756748 
7.324219e-2, 1.5955164e+1, -0.00000013838678, -26844.725, -0.34438655, 0.0, 0.0007769773, 0.0000042796964, 0.0000042796964, 0.0, 0.048828125, 0.047567736 
7.324219e-2, 1.6002733e+1, -0.0000038543376, -26771.469, 1.886296, 0.0, 0.0009151908, 0.00012905255, 0.00012905255, 0.0, 0.048828125, 0.047571044 
7.324219e-2, 1.6050304e+1, -0.00000009957264, -26765.74, -0.3322158, 0.0, 0.0008656877, 0.0000040238847, 0.0000040238847, 0.0, 0.048828125, 0.0475713 
7.324219e-2, 1.6097878e+1, -0.00000015384796, -26694.064, -0.37564114, 0.0, 0.0008513131, 0.000005132206, 0.000005132206, 0.0, 0.048828125, 0.04757454 
7.324219e-2, 1.6145453e+1, -0.0000002463311, -26685.783, 0.4859255, 0.0, 0.0009005933, 0.000008601961, 0.000008601961, 0.0, 0.048828125, 0.047574915 
7.324219e-2, 1.6193028e+1, -0.00000012998315, -26618.084, 0.29907742, 0.0, 0.0009088196, 0.000003230416, 0.000003230416, 0.0, 0.048828125, 0.047577973 
7.324219e-2, 1.6240606e+1, -0.0000001570931, -26607.404, -0.43427563, 0.0, 0.0008238026, 0.0000069309826, 0.0000069309826, 0.0, 0.048828125, 0.047578454 
7.324219e-2, 1.6288187e+1, -0.00000008016574, -26538.979, 0.23273781, 0.0, 0.00093932415, 0.0000019608633, 0.0000019608633, 0.0, 0.048828125, 0.04758155 
7.324219e-2, 1.6335769e+1, -0.0000001157491, -26527.95, 0.31147465, 0.0, 0.00086887606, 0.000003541394, 0.000003541394, 0.0, 0.048828125, 0.047582045 
7.324219e-2, 1.6383353e+1, -0.0000016206451, -26459.572, 1.2225007, 0.0, 0.0008479643, 0.000054862045, 0.000054862045, 0.0, 0.048828125, 0.047585137 
7.324219e-2, 1.6430938e+1, -0.000018322178, -26447.25, 4.4493766, 0.0, 0.000937174, 0.0007302227, 0.0007302227, 0.0, 0.048828125, 0.047585696 
7.324219e-2, 1.6478525e+1, -0.000009953264, -26390.813, 3.2410102, 0.0, 0.0009149642, 0.0003880696, 0.0003880696, 0.0, 0.048828125, 0.047588248 
7.324219e-2, 1.6526113e+1, -0.00000002771457, -26368.906, 0.04388958, 0.0, 0.0008450813, 0.000000045336492, 0.000000045336492, 0.0, 0.048828125, 0.047589235 
7.324219e-2, 1.6573703e+1, -0.000011292907, -26303.23, 3.5776157, 0.0, 0.0009502054, 0.00047531404, 0.00047531404, 0.0, 0.048828125, 0.047592208 
7.324219e-2, 1.6621298e+1, -0.000043269512, -26291.766, 6.724869, 0.0, 0.0008849028, 0.0016768074, 0.0016768074, 0.0, 0.048828125, 0.047592726 
7.324219e-2, 1.666889e+1, -0.000010225155, -26236.633, 3.448072, 0.0, 0.00086410256, 0.00044292753, 0.00044292753, 0.0, 0.048828125, 0.047595218 
7.324219e-2, 1.6716488e+1, -0.00000034705394, -26211.078, 0.5503827, 0.0, 0.0009412903, 0.000011209937, 0.000011209937, 0.0, 0.048828125, 0.047596376 
7.324219e-2, 1.6764084e+1, -0.00000002425116, -26156.396, 0.1267722, 0.0, 0.00090709626, 0.0000005901784, 0.0000005901784, 0.0, 0.048828125, 0.04759885 
7.324219e-2, 1.6811684e+1, -0.000000061627254, -26129.992, -0.14700702, 0.0, 0.00089078286, 0.00000076543074, 0.00000076543074, 0.0, 0.048828125, 0.047600042 
7.324219e-2, 1.6859286e+1, -0.00000006308477, -26080.426, 0.21567833, 0.0, 0.0009292387, 0.0000017205202, 0.0000017205202, 0.0, 0.048828125, 0.04760229 
7.324219e-2, 1.6906889e+1, -0.00000001889589, -26049.396, 0.03620728, 0.0, 0.00090767775, 0.000000031432137, 0.000000031432137, 0.0, 0.048828125, 0.047603693 
7.324219e-2, 1.6954492e+1, -0.00000022318267, -26004.918, -0.4297462, 0.0, 0.00089522277, 0.000006878621, 0.000006878621, 0.0, 0.048828125, 0.047605705 
7.324219e-2, 1.70021e+1, -0.000000062796595, -25968.324, 0.20818752, 0.0, 0.00094837137, 0.0000016062404, 0.0000016062404, 0.0, 0.048828125, 0.047607362 
7.324219e-2, 1.7049707e+1, -0.00000006855162, -25929.63, 0.1527339, 0.0, 0.0008783226, 0.0000008310999, 0.0000008310999, 0.0, 0.048828125, 0.047609113 
7.324219e-2, 1.7097318e+1, -0.00000006644701, -25888.54, -0.18149951, 0.0, 0.0009243303, 0.0000012060118, 0.0000012060118, 0.0, 0.048828125, 0.047610972 
7.324219e-2, 1.714493e+1, -0.00000015537063, -25852.24, 0.36022323, 0.0, 0.0009590663, 0.000004863952, 0.000004863952, 0.0, 0.048828125, 0.04761262 
7.324219e-2, 1.7192546e+1, -0.000000042333212, -25810.951, -0.072117046, 0.0, 0.00092327455, 0.00000015916521, 0.00000015916521, 0.0, 0.048828125, 0.04761449 
7.324219e-2, 1.7240158e+1, -0.000000022957185, -25773.54, -0.036282945, 0.0, 0.0008834925, 0.000000028121576, 0.000000028121576, 0.0, 0.048828125, 0.04761618 
7.324219e-2, 1.7287777e+1, -0.0000003362006, -25732.762, 0.5621893, 0.0, 0.00095724803, 0.000011946071, 0.000011946071, 0.0, 0.048828125, 0.047618028 
7.324219e-2, 1.7335396e+1, -0.000000039063814, -25694.865, -0.0648592, 0.0, 0.00093498384, 0.00000012465534, 0.00000012465534, 0.0, 0.048828125, 0.047619745 
7.324219e-2, 1.7383017e+1, -0.0000019625213, -25652.24, 1.3525339, 0.0, 0.0009337892, 0.00006935086, 0.00006935086, 0.0, 0.048828125, 0.04762168 
7.324219e-2, 1.743064e+1, -0.000010106265, -25618.572, 3.4245121, 0.0, 0.00093512685, 0.00044765865, 0.00044765865, 0.0, 0.048828125, 0.047623202 
7.324219e-2, 1.7478263e+1, -0.0000029738706, -25577.36, 1.6585513, 0.0, 0.00094789, 0.00010457408, 0.00010457408, 0.0, 0.048828125, 0.04762507 
7.324219e-2, 1.7525889e+1, -0.00000010190349, -25541.61, 0.29314736, 0.0, 0.0009378743, 0.000003262623, 0.000003262623, 0.0, 0.048828125, 0.04762669 
7.324219e-2, 1.7573518e+1, -0.00000013614753, -25495.074, 0.33054346, 0.0, 0.00093025714, 0.000004149344, 0.000004149344, 0.0, 0.048828125, 0.0476288 
7.324219e-2, 1.7621145e+1, -0.000000068192335, -25466.621, 0.16425432, 0.0, 0.0009714259, 0.0000009912146, 0.0000009912146, 0.0, 0.048828125, 0.04763009 
7.324219e-2, 1.7668778e+1, -0.000000070435696, -25413.635, -0.15204561, 0.0, 0.0009798016, 0.00000083922714, 0.00000083922714, 0.0, 0.048828125, 0.047632493 
7.324219e-2, 1.771641e+1, -0.0000005846358, -25388.898, 0.7494958, 0.0, 0.000907749, 0.000021540942, 0.000021540942, 0.0, 0.048828125, 0.047633614 
7.324219e-2, 1.7764045e+1, -0.0000000517269, -25336.06, 0.14650786, 0.0, 0.00088236766, 0.0000007954659, 0.0000007954659, 0.0, 0.048828125, 0.04763601 
7.324219e-2, 1.7811681e+1, -0.00000065148174, -25312.957, -0.7929939, 0.0, 0.0010681368, 0.000024191104, 0.000024191104, 0.0, 0.048828125, 0.047637057 
7.324219e-2, 1.7859322e+1, -0.00000006713717, -25255.36, -0.02699112, 0.0, 0.0010527553, -0.000000038293365, -0.000000038293365, 0.0, 0.048828125, 0.04763967 
7.324219e-2, 1.7906961e+1, -0.0000006542261, -25234.705, 0.808374, 0.0, 0.00080330664, 0.000025241403, 0.000025241403, 0.0, 0.048828125, 0.047640607 
7.324219e-2, 1.7954603e+1, -0.00000006129203, -25177.275, 0.24450704, 0.0, 0.0008221505, 0.000002313216, 0.000002313216, 0.0, 0.048828125, 0.047643214 
7.324219e-2, 1.8002246e+1, -0.00000050664477, -25159.492, -0.69352263, 0.0, 0.0011873018, 0.000018610339, 0.000018610339, 0.0, 0.048828125, 0.04764402 
7.324219e-2, 1.8049893e+1, -0.00000028450006, -25096.066, -0.50273645, 0.0, 0.0011188452, 0.000009786556, 0.000009786556, 0.0, 0.048828125, 0.0476469 
7.324219e-2, 1.8097539e+1, -0.0000006255822, -25081.004, 0.7936576, 0.0, 0.0007236013, 0.000024488741, 0.000024488741, 0.0, 0.048828125, 0.04764758 
7.324219e-2, 1.8145189e+1, -0.00000046852355, -25018.982, 0.6617969, 0.0, 0.0007900896, 0.00001703719, 0.00001703719, 0.0, 0.048828125, 0.047650397 
7.324219e-2, 1.8192838e+1, -0.00000069952335, -25005.762, -0.7929104, 0.0, 0.0012365379, 0.000024442958, 0.000024442958, 0.0, 0.048828125, 0.047650997 
7.324219e-2, 1.8240492e+1, -0.00000019642522, -24937.332, -0.4086033, 0.0, 0.0011134477, 0.0000064986234, 0.0000064986234, 0.0, 0.048828125, 0.047654103 
7.324219e-2, 1.8288147e+1, -0.0000013080416, -24926.371, 1.1130776, 0.0, 0.0007341993, 0.00004839602, 0.00004839602, 0.0, 0.048828125, 0.047654603 
7.324219e-2, 1.8335801e+1, -0.00000029612465, -24860.771, 0.5107804, 0.0, 0.000906611, 0.000010198186, 0.000010198186, 0.0, 0.048828125, 0.04765758 
7.324219e-2, 1.8383461e+1, -0.00000048598804, -24849.46, -0.6692664, 0.0, 0.001166985, 0.000017539256, 0.000017539256, 0.0, 0.048828125, 0.047658093 
7.324219e-2, 1.843112e+1, -0.00000016223134, -24782.104, -0.31259868, 0.0, 0.00086573197, 0.0000037808531, 0.0000037808531, 0.0, 0.048828125, 0.04766115 
7.324219e-2, 1.8478782e+1, -0.0000027331125, -24770.379, 1.588374, 0.0, 0.00090997276, 0.00009911967, 0.00009911967, 0.0, 0.048828125, 0.047661684 
7.324219e-2, 1.8526445e+1, -0.00000042083536, -24703.92, 0.6363656, 0.0, 0.0012824341, 0.000015971753, 0.000015971753, 0.0, 0.048828125, 0.047664706 
7.324219e-2, 1.857411e+1, -0.00000033050443, -24694.973, -0.51692826, 0.0, 0.00091378926, 0.0000104901155, 0.0000104901155, 0.0, 0.048828125, 0.04766511 
7.324219e-2, 1.8621777e+1, -0.0000012786106, -24624.643, -1.0866727, 0.0, 0.0005177002, 0.000046675683, 0.000046675683, 0.0, 0.048828125, 0.047668308 
7.324219e-2, 1.8669444e+1, -0.00000063543945, -24613.078, 0.768301, 0.0, 0.0011928128, 0.000023347198, 0.000023347198, 0.0, 0.048828125, 0.047668833 
7.324219e-2, 1.8717116e+1, -0.0000025844206, -24548.086, 1.5620247, 0.0, 0.0014909713, 0.00009680912, 0.00009680912, 0.0, 0.048828125, 0.047671787 
7.324219e-2, 1.8764788e+1, -0.00000077498964, -24538.902, -0.8293411, 0.0, 0.00070609467, 0.000027254246, 0.000027254246, 0.0, 0.048828125, 0.047672205 
7.324219e-2, 1.8812461e+1, -0.000002328125, -24468.162, -1.4741627, 0.0, 0.00061674375, 0.00008648753, 0.00008648753, 0.0, 0.048828125, 0.04767542 
7.324219e-2, 1.8860137e+1, -0.0000015098353, -24456.367, 1.1712965, 0.0, 0.0012669059, 0.000054587435, 0.000054587435, 0.0, 0.048828125, 0.047675956 
7.324219e-2, 1.8907815e+1, -0.0000006635077, -24393.096, 0.79957664, 0.0, 0.001163226, 0.000025545662, 0.000025545662, 0.0, 0.048828125, 0.047678832 
7.324219e-2, 1.8955494e+1, -0.00000030882336, -24380.143, -0.48225224, 0.0, 0.0008120413, 0.000009230382, 0.000009230382, 0.0, 0.048828125, 0.04767942 
7.324219e-2, 1.9003175e+1, -0.00000010107468, -24312.297, 0.24361849, 0.0, 0.0010598825, 0.0000023400753, 0.0000023400753, 0.0, 0.048828125, 0.04768251 
7.324219e-2, 1.9050857e+1, -0.00000044066883, -24302.654, 0.5825847, 0.0, 0.0010345565, 0.000013525085, 0.000013525085, 0.0, 0.048828125, 0.047682945 
7.324219e-2, 1.9098543e+1, -0.0000014704955, -24236.217, -1.1839361, 0.0, 0.0009313101, 0.000056364635, 0.000056364635, 0.0, 0.048828125, 0.04768597 
7.324219e-2, 1.914623e+1, -0.00000009279951, -24220.326, 0.20279321, 0.0, 0.0010799018, 0.0000016051563, 0.0000016051563, 0.0, 0.048828125, 0.047686692 
7.324219e-2, 1.9193916e+1, -0.0000017618498, -24159.15, 1.2988944, 0.0, 0.0009977482, 0.000068072, 0.000068072, 0.0, 0.048828125, 0.047689475 
7.324219e-2, 1.9241607e+1, -0.00000023102612, -24145.254, -0.4307413, 0.0, 0.0008776203, 0.0000074532218, 0.0000074532218, 0.0, 0.048828125, 0.04769011 
7.324219e-2, 1.9289298e+1, -0.0000001599453, -24079.791, -0.34642923, 0.0, 0.0012897588, 0.0000048240363, 0.0000048240363, 0.0, 0.048828125, 0.047693085 
7.324219e-2, 1.9336993e+1, -0.00000028898884, -24064.098, 0.50508964, 0.0, 0.001028195, 0.000010312509, 0.000010312509, 0.0, 0.048828125, 0.0476938 
7.324219e-2, 1.9384688e+1, -0.0000012932745, -24006.83, -1.0967983, 0.0, 0.0007521217, 0.00004881607, 0.00004881607, 0.0, 0.048828125, 0.047696408 
7.324219e-2, 1.9432384e+1, -0.00000014469688, -23981.986, -0.29793248, 0.0, 0.0011212496, 0.0000035565718, 0.0000035565718, 0.0, 0.048828125, 0.047697537 
7.324219e-2, 1.9480084e+1, -0.0000047674257, -23927.14, 2.0575256, 0.0, 0.0011805285, 0.00017216186, 0.00017216186, 0.0, 0.048828125, 0.047700036 
7.324219e-2, 1.9527784e+1, -0.000000087509505, -23908.076, -0.10798911, 0.0, 0.0007878167, 0.00000040026134, 0.00000040026134, 0.0, 0.048828125, 0.047700904 
7.324219e-2, 1.9575486e+1, -0.0000039549304, -23849.883, -1.8730987, 0.0, 0.0012799847, 0.00014315266, 0.00014315266, 0.0, 0.048828125, 0.047703553 
7.324219e-2, 1.962319e+1, -0.00001644963, -23826.086, 4.1871967, 0.0, 0.0011343298, 0.00071940833, 0.00071940833, 0.0, 0.048828125, 0.047704637 
7.324219e-2, 1.9670896e+1, -0.0000010182351, -23773.584, 0.974655, 0.0, 0.000717674, 0.000038940078, 0.000038940078, 0.0, 0.048828125, 0.04770703 
7.324219e-2, 1.9718604e+1, -0.0000020471011, -23747.08, 1.357624, 0.0, 0.0010916395, 0.00007556846, 0.00007556846, 0.0, 0.048828125, 0.047708236 
7.324219e-2, 1.9766313e+1, -0.0000009874801, -23696.79, -0.95362, 0.0, 0.0012696085, 0.000037388654, 0.000037388654, 0.0, 0.048828125, 0.047710527 
7.324219e-2, 1.9814023e+1, -0.0000023005368, -23667.906, -1.433449, 0.0, 0.00078210037, 0.00008451644, 0.00008451644, 0.0, 0.048828125, 0.04771184 
7.324219e-2, 1.9861738e+1, -0.000007962289, -23613.902, 2.615696, 0.0, 0.0012401268, 0.0002817766, 0.0002817766, 0.0, 0.048828125, 0.047714304 
7.324219e-2, 1.9909452e+1, -0.0000017942568, -23595.992, 1.2745969, 0.0, 0.0012369468, 0.0000670563, 0.0000670563, 0.0, 0.048828125, 0.04771512 
7.324219e-2, 1.9957168e+1, -0.00000793613, -23539.432, -2.9931746, 0.0, 0.00078249146, 0.0003726633, 0.0003726633, 0.0, 0.048828125, 0.047717698 
7.324219e-2, 2.0004886e+1, -0.00000074008665, -23509.969, 0.8038313, 0.0, 0.0008101766, 0.000026743775, 0.000026743775, 0.0, 0.048828125, 0.047719043 
7.324219e-2, 2.0052609e+1, -0.0000005264969, -23462.906, 0.682765, 0.0, 0.0014572842, 0.000019341805, 0.000019341805, 0.0, 0.048828125, 0.04772119 
7.324219e-2, 2.010033e+1, -0.00000343341, -23433.807, -1.7445639, 0.0, 0.0013451636, 0.00012644319, 0.00012644319, 0.0, 0.048828125, 0.047722515 
7.324219e-2, 2.0148052e+1, -0.00000070733273, -23388.695, -0.7802215, 0.0, 0.00067870854, 0.000025320009, 0.000025320009, 0.0, 0.048828125, 0.04772457 
7.324219e-2, 2.0195778e+1, -0.00007489832, -23366.666, -8.82541, 0.0, 0.0006210678, 0.0032583906, 0.0032583906, 0.0, 0.048828125, 0.047725577 
7.324219e-2, 2.0243506e+1, -0.005195513, -23303.11, 73.45901, 0.0, 0.0017022269, 0.226369, 0.226369, 0.0, 0.048828125, 0.047728475 
7.324219e-2, 2.0291235e+1, -0.00006177057, -23267.793, -8.005482, 0.0, 0.0012605974, 0.0026925826, 0.0026925826, 0.0, 0.048828125, 0.047730085 
7.324219e-2, 2.0338966e+1, -0.000005129455, -23228.484, -2.1017356, 0.0, 0.0006354701, 0.00018503761, 0.00018503761, 0.0, 0.048828125, 0.04773188 
7.324219e-2, 2.0386697e+1, -0.00000037709324, -23194.822, -0.5434614, 0.0, 0.00107434, 0.000012356362, 0.000012356362, 0.0, 0.048828125, 0.047733415 
7.324219e-2, 2.0434433e+1, -0.0000010118717, -23151.84, 0.9622715, 0.0, 0.0013421134, 0.0000389835, 0.0000389835, 0.0, 0.048828125, 0.04773538 
7.324219e-2, 2.0482168e+1, -0.00000003281442, -23121.225, -0.12279677, 0.0, 0.0008340499, 0.0000006193586, 0.0000006193586, 0.0, 0.048828125, 0.047736775 
7.324219e-2, 2.0529908e+1, -0.00000014213504, -23071.488, 0.30424917, 0.0, 0.0011868005, 0.0000038700673, 0.0000038700673, 0.0, 0.048828125, 0.047739044 
7.324219e-2, 2.0577647e+1, -0.0000020624896, -23043.723, 1.374098, 0.0, 0.0012662514, 0.00007987502, 0.00007987502, 0.0, 0.048828125, 0.04774031 
7.324219e-2, 2.0625387e+1, -0.0000009042006, -22998.873, -0.9090103, 0.0, 0.00093678694, 0.00003502363, 0.00003502363, 0.0, 0.048828125, 0.04774236 
7.324219e-2, 2.0673132e+1, -0.0000019688703, -22961.982, -1.344226, 0.0, 0.0010359718, 0.00007672397, 0.00007672397, 0.0, 0.048828125, 0.047744043 
7.324219e-2, 2.0720877e+1, -0.000001482034, -22915.225, 1.1677202, 0.0, 0.0012825491, 0.00005802297, 0.00005802297, 0.0, 0.048828125, 0.047746178 
7.324219e-2, 2.0768623e+1, -0.00000040551333, -22888.92, 0.61015904, 0.0, 0.00089778303, 0.00001585974, 0.00001585974, 0.0, 0.048828125, 0.047747377 
7.324219e-2, 2.0816372e+1, -0.0000002527672, -22839.76, -0.43636888, 0.0, 0.0011556135, 0.000008084349, 0.000008084349, 0.0, 0.048828125, 0.047749624 
7.324219e-2, 2.0864123e+1, -0.0000008959924, -22805.88, 0.89707136, 0.0, 0.0013189088, 0.00003439039, 0.00003439039, 0.0, 0.048828125, 0.047751173 
7.324219e-2, 2.0911875e+1, -0.00000011679341, -22765.762, 0.24157429, 0.0, 0.0009609234, 0.0000024466244, 0.0000024466244, 0.0, 0.048828125, 0.047753006 
7.324219e-2, 2.0959629e+1, -0.0000010626735, -22726.379, -0.9830945, 0.0, 0.0010961859, 0.000041463896, 0.000041463896, 0.0, 0.048828125, 0.047754806 
7.324219e-2, 2.1007386e+1, -0.0000010618147, -22685.414, 0.98318046, 0.0, 0.001280589, 0.000041548996, 0.000041548996, 0.0, 0.048828125, 0.047756676 
7.324219e-2, 2.1055141e+1, -0.000000043291926, -22649.086, 0.14264277, 0.0, 0.000905145, 0.0000008550669, 0.0000008550669, 0.0, 0.048828125, 0.047758337 
7.324219e-2, 2.1102901e+1, -0.00000018185582, -22609.05, -0.3460956, 0.0, 0.0011662267, 0.0000051161187, 0.0000051161187, 0.0, 0.048828125, 0.047760166 
7.324219e-2, 2.1150663e+1, -0.0000023412865, -22568.1, 1.4626176, 0.0, 0.0013782366, 0.0000924496, 0.0000924496, 0.0, 0.048828125, 0.047762036 
7.324219e-2, 2.1198425e+1, -0.00000007283863, -22533.775, -0.16480337, 0.0, 0.00095106475, 0.0000011324701, 0.0000011324701, 0.0, 0.048828125, 0.047763605 
7.324219e-2, 2.124619e+1, -0.00000025015134, -22488.01, -0.45712635, 0.0, 0.0012056746, 0.000009042113, 0.000009042113, 0.0, 0.048828125, 0.0477657 
7.324219e-2, 2.1293956e+1, -0.0000010178679, -22455.336, 0.93919796, 0.0, 0.0012730556, 0.000038264236, 0.000038264236, 0.0, 0.048828125, 0.047767192 
7.324219e-2, 2.1341725e+1, -0.0000013635182, -22412.137, -1.132253, 0.0, 0.00091348035, 0.0000558375, 0.0000558375, 0.0, 0.048828125, 0.047769167 
7.324219e-2, 2.1389496e+1, -0.000000060856046, -22374.389, 0.037378646, 0.0, 0.0011894981, 0.0000000015897967, 0.0000000015897967, 0.0, 0.048828125, 0.047770895 
7.324219e-2, 2.1437268e+1, -0.0000017728221, -22333.541, 1.2669733, 0.0, 0.0013991253, 0.00007010209, 0.00007010209, 0.0, 0.048828125, 0.04777276 
7.324219e-2, 2.1485041e+1, -0.0000010661983, -22301.17, -0.95858854, 0.0, 0.0010029091, 0.000040137566, 0.000040137566, 0.0, 0.048828125, 0.047774244 
7.324219e-2, 2.1532816e+1, -0.0000018769421, -22247.781, 1.3208317, 0.0, 0.0012315185, 0.0000765397, 0.0000765397, 0.0, 0.048828125, 0.047776684 
7.324219e-2, 2.1580593e+1, -0.000000057429066, -22229.271, 0.14704862, 0.0, 0.0011833927, 0.00000091531183, 0.00000091531183, 0.0, 0.048828125, 0.047777534 
7.324219e-2, 2.1628372e+1, -0.000006673473, -22167.852, -2.3336349, 0.0, 0.0011461765, 0.00023899089, 0.00023899089, 0.0, 0.048828125, 0.047780342 
7.324219e-2, 2.1676153e+1, -0.0000009653328, -22152.057, 0.9563742, 0.0, 0.0011902534, 0.00004032436, 0.00004032436, 0.0, 0.048828125, 0.047781065 
7.324219e-2, 2.1723936e+1, -0.000047732192, -22102.41, -7.0326447, 0.0, 0.0012243942, 0.0021899461, 0.0021899461, 0.0, 0.048828125, 0.047783338 
7.324219e-2, 2.1771719e+1, -0.002206965, -22069.875, 47.83035, 0.0, 0.0011316768, 0.10145161, 0.10145161, 0.0, 0.048828125, 0.047784828 
7.324219e-2, 2.1819505e+1, -0.00002096665, -21994.213, -4.733388, 0.0, 0.0012697492, 0.0009977086, 0.0009977086, 0.0, 0.048828125, 0.047788292 
7.324219e-2, 2.1867295e+1, -0.000540435, -21995.498, 23.667133, 0.0, 0.0011186352, 0.024925346, 0.024925346, 0.0, 0.048828125, 0.047788233 
7.324219e-2, 2.1915084e+1, -0.000012605964, -21934.592, 3.6934505, 0.0, 0.0012703919, 0.0006093147, 0.0006093147, 0.0, 0.048828125, 0.04779102 
7.324219e-2, 2.1962875e+1, -0.00000020063744, -21919.338, -0.38789627, 0.0, 0.0011326993, 0.0000066637804, 0.0000066637804, 0.0, 0.048828125, 0.04779172 
7.324219e-2, 2.2010669e+1, -0.00000022877475, -21852.307, -0.44740072, 0.0, 0.0012534572, 0.000008931242, 0.000008931242, 0.0, 0.048828125, 0.04779479 
7.324219e-2, 2.2058465e+1, -0.000000050578535, -21841.723, 0.100003906, 0.0, 0.001167672, 0.0000004072972, 0.0000004072972, 0.0, 0.048828125, 0.047795273 
7.324219e-2, 2.210626e+1, -0.00000012013041, -21772.611, 0.30523422, 0.0, 0.0012409976, 0.0000041590065, 0.0000041590065, 0.0, 0.048828125, 0.04779844 
7.324219e-2, 2.215406e+1, -0.000000050389687, -21764.277, 0.08704092, 0.0, 0.0010951681, 0.00000029771036, 0.00000029771036, 0.0, 0.048828125, 0.047798824 
7.324219e-2, 2.220186e+1, -0.00000009939602, -21694.334, -0.25591633, 0.0, 0.0013312262, 0.0000029195107, 0.0000029195107, 0.0, 0.048828125, 0.047802027 
7.324219e-2, 2.2249663e+1, -0.00000010469337, -21685.678, -0.2495026, 0.0, 0.0011535995, 0.000002765937, 0.000002765937, 0.0, 0.048828125, 0.047802422 
7.324219e-2, 2.2297466e+1, -0.000000064442325, -21615.9, 0.12316084, 0.0, 0.0012148959, 0.0000006372902, 0.0000006372902, 0.0, 0.048828125, 0.047805622 
7.324219e-2, 2.2345272e+1, -0.00000004694218, -21608.408, 0.019423319, 0.0, 0.001145577, -0.000000029478542, -0.000000029478542, 0.0, 0.048828125, 0.047805965 
7.324219e-2, 2.2393079e+1, -0.000000111763995, -21537.273, -0.2590275, 0.0, 0.0013010834, 0.0000030035444, 0.0000030035444, 0.0, 0.048828125, 0.047809225 
7.324219e-2, 2.244089e+1, -0.0000064037345, -21530.656, 2.2709205, 0.0, 0.0010864134, 0.00023311892, 0.00023311892, 0.0, 0.048828125, 0.04780953 
7.324219e-2, 2.2488701e+1, -0.00000003849266, -21459.252, 0.047683198, 0.0, 0.0012948068, 0.00000006746268, 0.00000006746268, 0.0, 0.048828125, 0.047812805 
7.324219e-2, 2.2536515e+1, -0.000000061840915, -21451.725, 0.2079664, 0.0, 0.001203494, 0.000001954315, 0.000001954315, 0.0, 0.048828125, 0.047813147 
7.324219e-2, 2.2584328e+1, -0.000000090449426, -21382.865, -0.19949386, 0.0, 0.0012018877, 0.0000017707462, 0.0000017707462, 0.0, 0.048828125, 0.047816306 
7.324219e-2, 2.2632144e+1, -0.00000009571017, -21372.256, -0.2749149, 0.0, 0.001132738, 0.000003440564, 0.000003440564, 0.0, 0.048828125, 0.047816794 
7.324219e-2, 2.2679964e+1, -0.0000003000631, -21305.756, 0.4929597, 0.0, 0.001324293, 0.000011105738, 0.000011105738, 0.0, 0.048828125, 0.04781984 
7.324219e-2, 2.2727783e+1, -0.00000051574494, -21296.348, 0.69132024, 0.0, 0.0011209962, 0.000021925836, 0.000021925836, 0.0, 0.048828125, 0.047820274 
7.324219e-2, 2.2775607e+1, -0.000000075313096, -21228.547, 0.07630168, 0.0, 0.0012560547, 0.00000019893923, 0.00000019893923, 0.0, 0.048828125, 0.047823384 
7.324219e-2, 2.2823429e+1, -0.00000008540081, -21216.412, -0.12249685, 0.0, 0.0012682775, 0.0000006218579, 0.0000006218579, 0.0, 0.048828125, 0.047823943 
7.324219e-2, 2.2871254e+1, -0.00000022217046, -21149.627, 0.41949797, 0.0, 0.001233349, 0.000008098472, 0.000008098472, 0.0, 0.048828125, 0.047827005 
7.324219e-2, 2.2919083e+1, -0.0000008305687, -21139.17, 0.86649954, 0.0, 0.0010859212, 0.00003468745, 0.00003468745, 0.0, 0.048828125, 0.047827486 
7.324219e-2, 2.2966911e+1, -0.00000022656471, -21074.191, -0.3960079, 0.0, 0.0013295276, 0.0000072148723, 0.0000072148723, 0.0, 0.048828125, 0.04783047 
7.324219e-2, 2.3014742e+1, -0.0000015867228, -21059.996, -1.1603254, 0.0, 0.0013214587, 0.00006234277, 0.00006234277, 0.0, 0.048828125, 0.04783112 
7.324219e-2, 2.3062575e+1, -0.00000129901, -20991.332, 1.0740962, 0.0, 0.0012256751, 0.000053660948, 0.000053660948, 0.0, 0.048828125, 0.047834273 
7.324219e-2, 2.3110409e+1, -0.0000033631638, -20983.035, 1.7124116, 0.0, 0.001108769, 0.00013638561, 0.00013638561, 0.0, 0.048828125, 0.047834653 
7.324219e-2, 2.3158245e+1, -0.0000015888006, -20918.527, -1.144059, 0.0, 0.0013382549, 0.00006098114, 0.00006098114, 0.0, 0.048828125, 0.04783762 
7.324219e-2, 2.3206083e+1, -0.0000036533, -20903.451, -1.7363566, 0.0, 0.001360732, 0.00014057811, 0.00014057811, 0.0, 0.048828125, 0.047838308 
7.324219e-2, 2.3253924e+1, -0.00000052837976, -20836.285, 0.6007679, 0.0, 0.0012431459, 0.000016793427, 0.000016793427, 0.0, 0.048828125, 0.047841396 
7.324219e-2, 2.3301765e+1, -0.0020169693, -20825.967, 45.679657, 0.0, 0.0011597471, 0.09817628, 0.09817628, 0.0, 0.048828125, 0.04784187 
7.324219e-2, 2.3349607e+1, -0.000001815983, -20763.48, -1.2454058, 0.0, 0.0013230074, 0.000072884184, 0.000072884184, 0.0, 0.048828125, 0.047844738 
7.324219e-2, 2.3397453e+1, -0.000003625498, -20745.29, -1.735129, 0.0, 0.0013991126, 0.0001415001, 0.0001415001, 0.0, 0.048828125, 0.047845576 
7.324219e-2, 2.3445301e+1, -0.00000261332, -20680.256, 1.5222303, 0.0, 0.001280094, 0.000109434855, 0.000109434855, 0.0, 0.048828125, 0.047848564 
7.324219e-2, 2.3493151e+1, -0.0000012073306, -20668.111, 1.043361, 0.0, 0.0011691159, 0.000051463274, 0.000051463274, 0.0, 0.048828125, 0.047849122 
7.324219e-2, 2.3541e+1, -0.00000043076778, -20608.813, -0.57033616, 0.0, 0.0013478596, 0.000015352929, 0.000015352929, 0.0, 0.048828125, 0.047851846 
7.324219e-2, 2.3588854e+1, -0.00000046507336, -20585.592, -0.6252882, 0.0, 0.001407213, 0.00001852808, 0.00001852808, 0.0, 0.048828125, 0.047852915 
7.324219e-2, 2.3636708e+1, -0.00000021202115, -20531.19, 0.3688447, 0.0, 0.0012268849, 0.0000064143096, 0.0000064143096, 0.0, 0.048828125, 0.047855414 
7.324219e-2, 2.3684563e+1, -0.00000007558119, -20506.07, 0.08422895, 0.0, 0.0013516402, 0.00000027038914, 0.00000027038914, 0.0, 0.048828125, 0.04785657 
7.324219e-2, 2.373242e+1, -0.00000009245808, -20455.223, -0.16801977, 0.0, 0.0013663579, 0.000001287659, 0.000001287659, 0.0, 0.048828125, 0.04785891 
7.324219e-2, 2.378028e+1, -0.00000006543699, -20424.92, 0.05666094, 0.0, 0.0012235743, 0.00000009174619, 0.00000009174619, 0.0, 0.048828125, 0.047860302 
7.324219e-2, 2.3828143e+1, -0.000000085348624, -20379.955, -0.057963923, 0.0, 0.001285524, 0.000000079511665, 0.000000079511665, 0.0, 0.048828125, 0.04786237 
7.324219e-2, 2.3876005e+1, -0.00000022420856, -20345.75, -0.41135824, 0.0, 0.0015025066, 0.000008092793, 0.000008092793, 0.0, 0.048828125, 0.047863945 
7.324219e-2, 2.392387e+1, -0.00000013109342, -20301.586, -0.26341942, 0.0, 0.0012538405, 0.0000032868556, 0.0000032868556, 0.0, 0.048828125, 0.047865976 
7.324219e-2, 2.3971736e+1, -0.00000069990864, -20263.805, 0.77319527, 0.0, 0.0012961214, 0.000028802493, 0.000028802493, 0.0, 0.048828125, 0.047867715 
7.324219e-2, 2.4019605e+1, -0.00000048495656, -20229.514, 0.6266176, 0.0, 0.0013753754, 0.00001892478, 0.00001892478, 0.0, 0.048828125, 0.04786929 
7.324219e-2, 2.4067476e+1, -0.0000007401313, -20182.78, -0.8333257, 0.0, 0.0013281379, 0.000033667005, 0.000033667005, 0.0, 0.048828125, 0.047871444 
7.324219e-2, 2.411535e+1, -0.00000017215862, -20151.479, -0.3536229, 0.0, 0.0012209398, 0.0000060333005, 0.0000060333005, 0.0, 0.048828125, 0.047872882 
7.324219e-2, 2.4163224e+1, -0.00000086735895, -20101.889, 0.85430235, 0.0, 0.0015299243, 0.000035439305, 0.000035439305, 0.0, 0.048828125, 0.047875166 
7.324219e-2, 2.4211098e+1, -0.00000006462842, -20077.854, 0.16264333, 0.0, 0.0012883984, 0.0000012528835, 0.0000012528835, 0.0, 0.048828125, 0.047876272 
7.324219e-2, 2.4258976e+1, -0.00000006346081, -20019.96, -0.098237306, 0.0, 0.001277252, 0.00000041858584, 0.00000041858584, 0.0, 0.048828125, 0.047878936 
7.324219e-2, 2.4306856e+1, -0.0000002749036, -20002.262, 0.390926, 0.0, 0.0013894995, 0.00000736539, 0.00000736539, 0.0, 0.048828125, 0.04787975 
7.324219e-2, 2.4354737e+1, -0.0000005566773, -19940.703, -0.6919366, 0.0, 0.0013862653, 0.000023453325, 0.000023453325, 0.0, 0.048828125, 0.047882587 
7.324219e-2, 2.4402618e+1, -0.0000011565222, -19924.814, -1.0047755, 0.0, 0.001087765, 0.000049512655, 0.000049512655, 0.0, 0.048828125, 0.04788332 
7.324219e-2, 2.4450505e+1, -0.0000024625822, -19856.445, 1.44925, 0.0, 0.0016432586, 0.00010331291, 0.00010331291, 0.0, 0.048828125, 0.04788647 
7.324219e-2, 2.449839e+1, -0.000002162361, -19853.531, 1.3619598, 0.0, 0.0014841112, 0.00009126861, 0.00009126861, 0.0, 0.048828125, 0.047886603 
7.324219e-2, 2.454628e+1, -0.000006481551, -19782.201, -2.7133422, 0.0, 0.0010625077, 0.00036568262, 0.00036568262, 0.0, 0.048828125, 0.04788989 
7.324219e-2, 2.459417e+1, -0.0000057503835, -19769.707, -2.2758827, 0.0, 0.0011780335, 0.00025624855, 0.00025624855, 0.0, 0.048828125, 0.047890466 
7.324219e-2, 2.4642064e+1, -0.0055742864, -19696.436, 75.8712, 0.0, 0.0017713094, 0.28667936, 0.28667936, 0.0, 0.048828125, 0.04789384 
7.324219e-2, 2.4689955e+1, -0.0000009443802, -19700.166, 0.8652412, 0.0, 0.0012040738, 0.000037057453, 0.000037057453, 0.0, 0.048828125, 0.04789367 
7.324219e-2, 2.4737853e+1, -0.000010109328, -19625.479, -3.2613184, 0.0, 0.0013070798, 0.00053184933, 0.00053184933, 0.0, 0.048828125, 0.04789711 
7.324219e-2, 2.478575e+1, -0.000003041791, -19613.508, -1.6139708, 0.0, 0.0014881039, 0.00012976983, 0.00012976983, 0.0, 0.048828125, 0.047897663 
7.324219e-2, 2.483365e+1, -0.0069065196, -19542.453, 84.442375, 0.0, 0.0013066725, 0.35795987, 0.35795987, 0.0, 0.048828125, 0.04790094 
7.324219e-2, 2.4881549e+1, -0.00000007063821, -19541.473, 0.037597176, 0.0, 0.0011528932, 0.0000000016989361, 0.0000000016989361, 0.0, 0.048828125, 0.047900986 
7.324219e-2, 2.4929453e+1, -0.00000090621495, -19464.975, -0.8661471, 0.0, 0.0016740453, 0.00003763536, 0.00003763536, 0.0, 0.048828125, 0.047904514 
7.324219e-2, 2.4977356e+1, -0.00000021410753, -19460.676, -0.42537913, 0.0, 0.0011754681, 0.000009084, 0.000009084, 0.0, 0.048828125, 0.04790471 
7.324219e-2, 2.5025263e+1, -0.000000106120844, -19385.441, 0.13224515, 0.0, 0.0013302843, 0.0000007960407, 0.0000007960407, 0.0, 0.048828125, 0.04790818 
7.324219e-2, 2.507317e+1, -0.000001069477, -19385.75, 0.9786059, 0.0, 0.0016948468, 0.000048331218, 0.000048331218, 0.0, 0.048828125, 0.047908165 
7.324219e-2, 2.512108e+1, -0.00000026592966, -19309.8, -0.46192548, 0.0, 0.0012233973, 0.000010784166, 0.000010784166, 0.0, 0.048828125, 0.04791167 
7.324219e-2, 2.5168994e+1, -0.0000024125889, -19307.156, -1.4193391, 0.0, 0.0008645533, 0.00010192816, 0.00010192816, 0.0, 0.048828125, 0.047911793 
7.324219e-2, 2.5216907e+1, -0.0000012117541, -19228.943, 0.9942156, 0.0, 0.0017859366, 0.000050193292, 0.000050193292, 0.0, 0.048828125, 0.0479154 
7.324219e-2, 2.5264823e+1, -0.00000035283077, -19232.959, 0.56107914, 0.0, 0.0015981052, 0.000016015416, 0.000016015416, 0.0, 0.048828125, 0.047915217 
7.324219e-2, 2.531274e+1, -0.00000022618033, -19148.488, -0.22818021, 0.0, 0.0011186418, 0.0000024928995, 0.0000024928995, 0.0, 0.048828125, 0.047919113 
7.324219e-2, 2.536066e+1, -0.0000039860706, -19153.496, 1.8241864, 0.0, 0.0011323843, 0.00016975016, 0.00016975016, 0.0, 0.048828125, 0.047918882 
7.324219e-2, 2.5408578e+1, -0.0000007063932, -19076.49, -0.7560504, 0.0, 0.0015441573, 0.00002925783, 0.00002925783, 0.0, 0.048828125, 0.047922436 
7.324219e-2, 2.54565e+1, -0.0000049902847, -19072.398, -1.9801762, 0.0, 0.0015506569, 0.0002005999, 0.0002005999, 0.0, 0.048828125, 0.047922626 
7.324219e-2, 2.5504428e+1, -0.0000039291417, -18993.271, 1.8192196, 0.0, 0.0012665687, 0.00017031994, 0.00017031994, 0.0, 0.048828125, 0.04792628 
7.324219e-2, 2.5552353e+1, -0.00000076833805, -18998.72, 0.8321354, 0.0, 0.0011160938, 0.00003567882, 0.00003567882, 0.0, 0.048828125, 0.047926027 
7.324219e-2, 2.560028e+1, -0.0000002722165, -18916.201, -0.3957392, 0.0, 0.0016072222, 0.000008006904, 0.000008006904, 0.0, 0.048828125, 0.04792984 
7.324219e-2, 2.564821e+1, -0.00000018493269, -18918.97, 0.27016422, 0.0, 0.001310198, 0.0000036730307, 0.0000036730307, 0.0, 0.048828125, 0.04792971 
7.324219e-2, 2.5696144e+1, -0.00000021250582, -18837.404, -0.21459965, 0.0, 0.001301672, 0.0000022322602, 0.0000022322602, 0.0, 0.048828125, 0.04793348 
7.324219e-2, 2.5744075e+1, -0.000004215556, -18838.299, 1.8869488, 0.0, 0.0015307803, 0.00018479174, 0.00018479174, 0.0, 0.048828125, 0.04793344 
7.324219e-2, 2.579201e+1, -0.00000040920966, -18767.564, -0.4687215, 0.0, 0.001239289, 0.00001129715, 0.00001129715, 0.0, 0.048828125, 0.047936708 
7.324219e-2, 2.5839946e+1, -0.0000034550087, -18755.094, -1.6199449, 0.0, 0.0014422059, 0.00013646545, 0.00013646545, 0.0, 0.048828125, 0.047937285 
7.324219e-2, 2.5887886e+1, -0.0000011855573, -18689.844, 1.0002251, 0.0, 0.001597266, 0.000052343526, 0.000052343526, 0.0, 0.048828125, 0.0479403 
7.324219e-2, 2.593583e+1, -0.00008300246, -18695.305, -9.253576, 0.0, 0.00089794945, 0.00449722, 0.00449722, 0.0, 0.048828125, 0.047940046 
7.324219e-2, 2.598377e+1, -0.0029944452, -18602.744, 55.55976, 0.0, 0.0014291807, 0.16294129, 0.16294129, 0.0, 0.048828125, 0.047944326 
7.324219e-2, 2.6031715e+1, -0.00005112317, -18588.78, -7.2640033, 0.0, 0.0019342467, 0.0027874568, 0.0027874568, 0.0, 0.048828125, 0.04794497 
7.324219e-2, 2.607966e+1, -0.00000019143114, -18531.145, -0.22535464, 0.0, 0.0011640858, 0.0000025490772, 0.0000025490772, 0.0, 0.048828125, 0.047947634 
7.324219e-2, 2.6127607e+1, -0.000059938637, -18521.164, 7.856669, 0.0, 0.0011371745, 0.003272856, 0.003272856, 0.0, 0.048828125, 0.047948096 
7.324219e-2, 2.617556e+1, -0.0000015654563, -18452.494, 1.1371111, 0.0, 0.0016678275, 0.00006850755, 0.00006850755, 0.0, 0.048828125, 0.047951274 
7.324219e-2, 2.6223508e+1, -0.000000107156104, -18443.814, 0.0019649626, 0.0, 0.0012771941, -0.00000010694566, -0.00000010694566, 0.0, 0.048828125, 0.047951676 
7.324219e-2, 2.6271462e+1, -0.0000005972599, -18377.523, -0.622825, 0.0, 0.0012267645, 0.000020510644, 0.000020510644, 0.0, 0.048828125, 0.047954742 
7.324219e-2, 2.6319417e+1, -0.0000055182413, -18358.572, 2.1307886, 0.0, 0.0018254251, 0.00024179183, 0.00024179183, 0.0, 0.048828125, 0.047955617 
7.324219e-2, 2.6367375e+1, -0.00000015403555, -18306.084, 0.08717666, 0.0, 0.0013229462, 0.0000002611123, 0.0000002611123, 0.0, 0.048828125, 0.047958046 
7.324219e-2, 2.6415333e+1, -0.000008674553, -18279.77, -3.0013573, 0.0, 0.0011242558, 0.00048411862, 0.00048411862, 0.0, 0.048828125, 0.047959264 
7.324219e-2, 2.6463294e+1, -0.00000051909586, -18224.988, 0.6160857, 0.0, 0.0016025258, 0.000020307343, 0.000020307343, 0.0, 0.048828125, 0.047961798 
7.324219e-2, 2.6511258e+1, -0.000004560143, -18199.164, 1.8502083, 0.0, 0.0013828132, 0.00018354028, 0.00018354028, 0.0, 0.048828125, 0.047962993 
7.324219e-2, 2.655922e+1, -0.0000019732681, -18153.25, -1.2799187, 0.0, 0.001191517, 0.000088269066, 0.000088269066, 0.0, 0.048828125, 0.04796512 
7.324219e-2, 2.660719e+1, -0.00000009160914, -18113.973, 0.12457401, 0.0, 0.0017640337, 0.00000076511424, 0.00000076511424, 0.0, 0.048828125, 0.04796694 
7.324219e-2, 2.6655152e+1, -0.0000126837995, -18081.129, 3.6882606, 0.0, 0.0012899443, 0.0007396622, 0.0007396622, 0.0, 0.048828125, 0.04796846 
7.324219e-2, 2.6703125e+1, -0.0000017015262, -18033.764, -1.221288, 0.0, 0.001269479, 0.0000810069, 0.0000810069, 0.0, 0.048828125, 0.047970653 
7.324219e-2, 2.6751095e+1, -0.00000017788088, -18001.143, 0.24685706, 0.0, 0.0015467847, 0.0000032073694, 0.0000032073694, 0.0, 0.048828125, 0.04797216 
7.324219e-2, 2.6799068e+1, -0.000000074707614, -17954.438, 0.21759792, 0.0, 0.0013080122, 0.0000025624613, 0.0000025624613, 0.0, 0.048828125, 0.047974326 
7.324219e-2, 2.6847044e+1, -0.0000011868775, -17927.523, -0.9825731, 0.0, 0.0012625246, 0.000052666062, 0.000052666062, 0.0, 0.048828125, 0.047975574 
7.324219e-2, 2.6895022e+1, -0.0000026399193, -17871.49, 1.4169482, 0.0, 0.0016964844, 0.00010970339, 0.00010970339, 0.0, 0.048828125, 0.047978166 
7.324219e-2, 2.6942998e+1, -0.00000007986513, -17853.13, 0.13835707, 0.0, 0.0011459109, 0.0000009923642, 0.0000009923642, 0.0, 0.048828125, 0.04797902 
7.324219e-2, 2.699098e+1, -0.0000013802078, -17790.852, -1.0591159, 0.0, 0.0015215086, 0.00006167054, 0.00006167054, 0.0, 0.048828125, 0.047981903 
7.324219e-2, 2.7038962e+1, -0.0000016932228, -17775.553, 1.1386348, 0.0, 0.0015160169, 0.00007124343, 0.00007124343, 0.0, 0.048828125, 0.047982614 
7.324219e-2, 2.7086946e+1, -0.0000009590213, -17713.924, -0.91125846, 0.0, 0.0011587804, 0.000045918907, 0.000045918907, 0.0, 0.048828125, 0.047985468 
7.324219e-2, 2.713493e+1, -0.00000041767524, -17695.506, -0.586606, 0.0, 0.001405865, 0.00001902831, 0.00001902831, 0.0, 0.048828125, 0.047986325 
7.324219e-2, 2.7182922e+1, -0.0000007373285, -17634.89, 0.7305468, 0.0, 0.0015908534, 0.000029526462, 0.000029526462, 0.0, 0.048828125, 0.047989134 
7.324219e-2, 2.723091e+1, -0.000003559655, -17621.766, -1.6438451, 0.0, 0.0010921197, 0.00014978631, 0.00014978631, 0.0, 0.048828125, 0.04798974 
7.324219e-2, 2.7278903e+1, -0.000002074328, -17550.607, 1.3146265, 0.0, 0.0016813545, 0.000096397634, 0.000096397634, 0.0, 0.048828125, 0.04799304 
7.324219e-2, 2.7326894e+1, -0.0028234369, -17549.16, 53.904377, 0.0, 0.0013633732, 0.16274886, 0.16274886, 0.0, 0.048828125, 0.04799311 
7.324219e-2, 2.737489e+1, -0.000012112128, -17471.059, -3.5973206, 0.0, 0.0012938419, 0.0007285823, 0.0007285823, 0.0, 0.048828125, 0.04799673 
7.324219e-2, 2.7422887e+1, -0.00000076913756, -17471.74, 0.7420981, 0.0, 0.001437467, 0.000030750878, 0.000030750878, 0.0, 0.048828125, 0.0479967 
7.324219e-2, 2.7470884e+1, -0.0001247759, -17414.701, -11.330475, 0.0, 0.0014410149, 0.007247133, 0.007247133, 0.0, 0.048828125, 0.047999345 
7.324219e-2, 2.7518883e+1, -0.0055692135, -17383.934, 75.69638, 0.0, 0.0012913757, 0.32403597, 0.32403597, 0.0, 0.048828125, 0.04800077 
7.324219e-2, 2.7566886e+1, -0.00015078323, -17302.002, -12.455121, 0.0, 0.0015313019, 0.008815229, 0.008815229, 0.0, 0.048828125, 0.048004575 
7.324219e-2, 2.7614892e+1, -0.0000001888336, -17309.496, 0.32368428, 0.0, 0.0013400615, 0.0000058640035, 0.0000058640035, 0.0, 0.048828125, 0.048004225 
7.324219e-2, 2.7662897e+1, -0.000000105433934, -17237.691, -0.1686111, 0.0, 0.0014651313, 0.0000015438454, 0.0000015438454, 0.0, 0.048828125, 0.04800756 
7.324219e-2, 2.7710906e+1, -0.000001320861, -17232.357, -0.9921532, 0.0, 0.001295913, 0.000055802375, 0.000055802375, 0.0, 0.048828125, 0.048007805 
7.324219e-2, 2.7758914e+1, -0.0000003239985, -17161.549, 0.50678086, 0.0, 0.0015126633, 0.000014641253, 0.000014641253, 0.0, 0.048828125, 0.048011094 
7.324219e-2, 2.7806926e+1, -0.00000016949637, -17155.855, 0.32081982, 0.0, 0.0013893802, 0.000005829934, 0.000005829934, 0.0, 0.048828125, 0.04801136 
7.324219e-2, 2.7854937e+1, -0.00000024476628, -17082.645, -0.39405096, 0.0, 0.001431646, 0.000008844934, 0.000008844934, 0.0, 0.048828125, 0.048014756 
7.324219e-2, 2.7902955e+1, -0.000000076302214, -17079.695, -0.08781289, 0.0, 0.00133187, 0.00000037517384, 0.00000037517384, 0.0, 0.048828125, 0.048014894 
7.324219e-2, 2.795097e+1, -0.00000029747076, -17001.406, 0.4731613, 0.0, 0.0014879154, 0.000012870951, 0.000012870951, 0.0, 0.048828125, 0.04801853 
7.324219e-2, 2.799899e+1, -0.00000041398883, -17003.59, 0.56071, 0.0, 0.0014151362, 0.000018075974, 0.000018075974, 0.0, 0.048828125, 0.04801843 
7.324219e-2, 2.8047007e+1, -0.00000008676967, -16923.387, -0.04827039, 0.0, 0.0014618674, 0.000000050909875, 0.000000050909875, 0.0, 0.048828125, 0.048022155 
7.324219e-2, 2.809503e+1, -0.00000058030975, -16926.36, -0.6654623, 0.0, 0.0012550558, 0.000025582442, 0.000025582442, 0.0, 0.048828125, 0.048022017 
7.324219e-2, 2.8143054e+1, -0.00000048426546, -16842.527, 0.6050802, 0.0, 0.0015221239, 0.000021253683, 0.000021253683, 0.0, 0.048828125, 0.04802591 
7.324219e-2, 2.819108e+1, -0.0000036148654, -16849.111, 1.6706747, 0.0, 0.0014829754, 0.00016204097, 0.00016204097, 0.0, 0.048828125, 0.048025604 
7.324219e-2, 2.823911e+1, -0.0000010168907, -16769.166, -0.8635143, 0.0, 0.0013892725, 0.000043449065, 0.000043449065, 0.0, 0.048828125, 0.04802932 
7.324219e-2, 2.8287137e+1, -0.0000007776793, -16768.408, -0.7860589, 0.0, 0.0013073024, 0.000036070694, 0.000036070694, 0.0, 0.048828125, 0.048029356 
7.324219e-2, 2.833517e+1, -0.0000013409158, -16687.525, 1.0299242, 0.0, 0.0015083584, 0.000062224164, 0.000062224164, 0.0, 0.048828125, 0.048033115 
7.324219e-2, 2.8383204e+1, -0.00000063859534, -16690.916, 0.74088925, 0.0, 0.0014403563, 0.000032248572, 0.000032248572, 0.0, 0.048828125, 0.048032958 
7.324219e-2, 2.8431237e+1, -0.00000022275007, -16613.988, -0.31431043, 0.0, 0.001425641, 0.0000057235084, 0.0000057235084, 0.0, 0.048828125, 0.048036534 
7.324219e-2, 2.8479275e+1, -0.0000011314003, -16610.213, -0.94340885, 0.0, 0.0013360281, 0.00005245131, 0.00005245131, 0.0, 0.048828125, 0.04803671 
7.324219e-2, 2.8527313e+1, -0.00000015153458, -16533.113, 0.1044513, 0.0, 0.0014571258, 0.0000005083566, 0.0000005083566, 0.0, 0.048828125, 0.048040293 
7.324219e-2, 2.8575355e+1, -0.0000028519082, -16533.05, 1.4959269, 0.0, 0.0014765051, 0.00013250102, 0.00013250102, 0.0, 0.048828125, 0.048040297 
7.324219e-2, 2.8623393e+1, -0.0000012144965, -16460.955, -0.9430597, 0.0, 0.0013756861, 0.000052814055, 0.000052814055, 0.0, 0.048828125, 0.04804365 
7.324219e-2, 2.867144e+1, -0.0049876897, -16450.982, 71.58157, 0.0, 0.0014127287, 0.30647248, 0.30647248, 0.0, 0.048828125, 0.048044115 
7.324219e-2, 2.8719485e+1, -0.00000008016059, -16379.106, 0.018513862, 0.0, 0.0014554694, -0.00000005923357, -0.00000005923357, 0.0, 0.048828125, 0.048047457 
7.324219e-2, 2.8767532e+1, -0.0000013102751, -16372.857, 1.0499995, 0.0, 0.0013667507, 0.00006602672, 0.00006602672, 0.0, 0.048828125, 0.048047747 
7.324219e-2, 2.8815582e+1, -0.000074328695, -16303.271, 8.737959, 0.0, 0.001386357, 0.004608897, 0.004608897, 0.0, 0.048828125, 0.04805099 
7.324219e-2, 2.8863633e+1, -0.00000022015256, -16294.842, 0.35620844, 0.0, 0.0015350129, 0.000007566634, 0.000007566634, 0.0, 0.048828125, 0.04805138 
7.324219e-2, 2.8911686e+1, -0.00000036060538, -16225.85, 0.51492506, 0.0, 0.0014128379, 0.00001598047, 0.00001598047, 0.0, 0.048828125, 0.04805459 
7.324219e-2, 2.8959742e+1, -0.00000024561174, -16214.252, -0.35890016, 0.0, 0.0012828492, 0.000007698594, 0.000007698594, 0.0, 0.048828125, 0.04805513 
7.324219e-2, 2.9007798e+1, -0.000000105642506, -16150.904, 0.1577399, 0.0, 0.0013505154, 0.0000014349444, 0.0000014349444, 0.0, 0.048828125, 0.04805808 
7.324219e-2, 2.9055858e+1, -0.00000011901718, -16134.982, 0.20802155, 0.0, 0.0016784726, 0.0000025629179, 0.0000025629179, 0.0, 0.048828125, 0.048058823 
7.324219e-2, 2.9103917e+1, -0.000000108482894, -16072.189, 0.079572715, 0.0, 0.00143626, 0.00000028547765, 0.00000028547765, 0.0, 0.048828125, 0.048061747 
7.324219e-2, 2.915198e+1, -0.0000012396736, -16053.569, 1.0348145, 0.0, 0.0010930066, 0.00006546456, 0.00006546456, 0.0, 0.048828125, 0.04806261 
7.324219e-2, 2.920004e+1, -0.000000087844924, -15997.527, 0.11614007, 0.0, 0.0012899293, 0.00000075531716, 0.00000075531716, 0.0, 0.048828125, 0.048065223 
7.324219e-2, 2.9248106e+1, -0.000003670384, -15976.534, -1.5901583, 0.0, 0.0019339841, 0.00015459945, 0.00015459945, 0.0, 0.048828125, 0.048066203 
7.324219e-2, 2.9296175e+1, -0.00000017364968, -15916.539, 0.13625441, 0.0, 0.0014111707, 0.0000009927644, 0.0000009927644, 0.0, 0.048828125, 0.048068997 
7.324219e-2, 2.9344246e+1, -0.000004725877, -15896.978, 1.9365209, 0.0, 0.0009004618, 0.00023117516, 0.00023117516, 0.0, 0.048828125, 0.048069905 
7.324219e-2, 2.9392317e+1, -0.00000014592172, -15842.949, 0.19213517, 0.0, 0.0013868362, 0.0000021841952, 0.0000021841952, 0.0, 0.048828125, 0.048072424 
7.324219e-2, 2.944039e+1, -0.000002854136, -15818.553, -1.3993787, 0.0, 0.0019200869, 0.00012094104, 0.00012094104, 0.0, 0.048828125, 0.048073564 
7.324219e-2, 2.9488465e+1, -0.00000012263119, -15760.81, -0.013200769, 0.0, 0.0012347485, -0.00000011157317, -0.00000011157317, 0.0, 0.048828125, 0.048076253 
7.324219e-2, 2.9536542e+1, -0.000002998108, -15739.952, 1.5110216, 0.0, 0.0012106592, 0.00014205865, 0.00014205865, 0.0, 0.048828125, 0.048077226 
7.324219e-2, 2.958462e+1, -0.00000015012013, -15686.6045, 0.3168029, 0.0, 0.0015229859, 0.0000062479576, 0.0000062479576, 0.0, 0.048828125, 0.048079714 
7.324219e-2, 2.96327e+1, -0.0000013046391, -15659.685, -0.96103686, 0.0, 0.0014198447, 0.00005767431, 0.00005767431, 0.0, 0.048828125, 0.048080966 
7.324219e-2, 2.9680783e+1, -0.00000011065461, -15607.781, 0.09400968, 0.0, 0.0012159932, 0.00000045558954, 0.00000045558954, 0.0, 0.048828125, 0.048083387 
7.324219e-2, 2.9728866e+1, -0.00000024633576, -15583.022, 0.41775855, 0.0, 0.001668401, 0.000010953172, 0.000010953172, 0.0, 0.048828125, 0.048084542 
7.324219e-2, 2.9776952e+1, -0.00000024142923, -15529.692, -0.3074786, 0.0, 0.0013897571, 0.000005846465, 0.000005846465, 0.0, 0.048828125, 0.04808703 
7.324219e-2, 2.982504e+1, -0.0000004914789, -15499.757, 0.6208713, 0.0, 0.001245986, 0.000024378664, 0.000024378664, 0.0, 0.048828125, 0.048088428 
7.324219e-2, 2.987313e+1, -0.0000010271373, -15457.417, 0.8888338, 0.0, 0.0014210838, 0.000050082665, 0.000050082665, 0.0, 0.048828125, 0.048090402 
7.324219e-2, 2.9921222e+1, -0.0000020987684, -15422.51, -1.2300644, 0.0, 0.0015327878, 0.00009600837, 0.00009600837, 0.0, 0.048828125, 0.04809203 
7.324219e-2, 2.9969314e+1, -0.0000015588203, -15375.359, -1.0763832, 0.0, 0.0012470388, 0.00007379557, 0.00007379557, 0.0, 0.048828125, 0.04809423 
7.324219e-2, 3.0017412e+1, -0.0000039565803, -15339.687, 1.9063122, 0.0, 0.0015614835, 0.00023294697, 0.00023294697, 0.0, 0.048828125, 0.048095893 
7.324219e-2, 3.0065507e+1, -0.0000016097836, -15305.603, 1.1009754, 0.0, 0.0013949851, 0.0000775865, 0.0000775865, 0.0, 0.048828125, 0.048097484 
7.324219e-2, 3.0113605e+1, -0.000005210644, -15263.488, -2.2847507, 0.0, 0.0013479103, 0.00033678758, 0.00033678758, 0.0, 0.048828125, 0.04809945 
7.324219e-2, 3.0161706e+1, -0.00009281361, -15221.415, 9.757038, 0.0, 0.001456264, 0.0061615165, 0.0061615165, 0.0, 0.048828125, 0.048101414 
7.324219e-2, 3.020981e+1, -0.0000014283272, -15182.298, 1.0142145, 0.0, 0.0014709508, 0.000066323686, 0.000066323686, 0.0, 0.048828125, 0.048103243 
7.324219e-2, 3.025791e+1, -0.0000000858378, -15148.938, 0.066964194, 0.0, 0.0011891504, 0.00000021016967, 0.00000021016967, 0.0, 0.048828125, 0.0481048 
7.324219e-2, 3.0306017e+1, -0.00000022716277, -15102.95, -0.29709795, 0.0, 0.0016733536, 0.000005617205, 0.000005617205, 0.0, 0.048828125, 0.048106946 
7.324219e-2, 3.0354124e+1, -0.0000004833116, -15069.411, 0.5856586, 0.0, 0.0014843513, 0.000022277765, 0.000022277765, 0.0, 0.048828125, 0.048108514 
7.324219e-2, 3.0402234e+1, -0.00000042042686, -15028.348, -0.580266, 0.0, 0.0012294607, 0.000021984477, 0.000021984477, 0.0, 0.048828125, 0.048110433 
7.324219e-2, 3.0450347e+1, -0.0000014549784, -14988.424, -1.0377756, 0.0, 0.0014747124, 0.00007039902, 0.00007039902, 0.0, 0.048828125, 0.048112296 
7.324219e-2, 3.049846e+1, -0.0000009445424, -14947.803, 0.8594463, 0.0, 0.0015506522, 0.00004847061, 0.00004847061, 0.0, 0.048828125, 0.048114195 
7.324219e-2, 3.0546573e+1, -0.0000006901422, -14914.473, 0.74255127, 0.0, 0.0011769518, 0.000036279474, 0.000036279474, 0.0, 0.048828125, 0.048115753 
7.324219e-2, 3.0594692e+1, -0.00000023555491, -14869.47, -0.34138808, 0.0, 0.0016649695, 0.0000076023716, 0.0000076023716, 0.0, 0.048828125, 0.048117854 
7.324219e-2, 3.0642807e+1, -0.000000112756666, -14833.573, -0.1853225, 0.0, 0.001468394, 0.0000022025597, 0.0000022025597, 0.0, 0.048828125, 0.048119534 
7.324219e-2, 3.0690932e+1, -0.000000114411044, -14794.374, -0.123290986, 0.0, 0.0012400534, 0.00000091305265, 0.00000091305265, 0.0, 0.048828125, 0.048121363 
7.324219e-2, 3.073905e+1, -0.000000491039, -14753.419, 0.57138866, 0.0, 0.0016758641, 0.000021638407, 0.000021638407, 0.0, 0.048828125, 0.048123278 
7.324219e-2, 3.0787176e+1, -0.00000021426962, -14718.317, -0.36206836, 0.0, 0.0014153767, 0.000008692556, 0.000008692556, 0.0, 0.048828125, 0.04812492 
7.324219e-2, 3.0835304e+1, -0.0000024466908, -14674.528, -1.3158233, 0.0, 0.0010026345, 0.000115539464, 0.000115539464, 0.0, 0.048828125, 0.048126966 
7.324219e-2, 3.088343e+1, -0.0000034082657, -14637.31, 1.5769107, 0.0, 0.001797993, 0.0001664759, 0.0001664759, 0.0, 0.048828125, 0.04812871 
7.324219e-2, 3.093156e+1, -0.0000035323585, -14598.668, 1.8263395, 0.0, 0.00169598, 0.00022494848, 0.00022494848, 0.0, 0.048828125, 0.048130516 
7.324219e-2, 3.0979693e+1, -0.00000332518, -14563.524, -1.6230179, 0.0, 0.001094459, 0.00017755048, 0.00017755048, 0.0, 0.048828125, 0.04813216 
7.324219e-2, 3.1027824e+1, -0.00000007511167, -14515.138, -0.08689479, 0.0, 0.0013993242, 0.00000044508306, 0.00000044508306, 0.0, 0.048828125, 0.048134424 
7.324219e-2, 3.107596e+1, -0.00000048068006, -14484.855, 0.5627625, 0.0, 0.0015570001, 0.000021383648, 0.000021383648, 0.0, 0.048828125, 0.04813584 
7.324219e-2, 3.1124097e+1, -0.00000084153584, -14439.495, -0.7782445, 0.0, 0.0015037709, 0.000041103456, 0.000041103456, 0.0, 0.048828125, 0.048137963 
7.324219e-2, 3.1172237e+1, -0.000011201983, -14406.386, 3.458997, 0.0, 0.0014141257, 0.00081930886, 0.00081930886, 0.0, 0.048828125, 0.04813951 
7.324219e-2, 3.1220376e+1, -0.00000015423927, -14362.392, -0.20979127, 0.0, 0.0012670946, 0.0000029101793, 0.0000029101793, 0.0, 0.048828125, 0.04814157 
7.324219e-2, 3.126852e+1, -0.00000034232713, -14323.507, 0.48514384, 0.0, 0.0015846451, 0.000016089722, 0.000016089722, 0.0, 0.048828125, 0.04814339 
7.324219e-2, 3.1316665e+1, -0.000004633479, -14286.164, 2.1575065, 0.0, 0.0014591615, 0.00032119462, 0.00032119462, 0.0, 0.048828125, 0.048145138 
7.324219e-2, 3.136481e+1, -0.0000029831044, -14251.48, -1.4685636, 0.0, 0.0012626987, 0.00014834707, 0.00014834707, 0.0, 0.048828125, 0.048146762 
7.324219e-2, 3.141296e+1, -0.00000006709582, -14201.807, 0.082318105, 0.0, 0.0017312175, 0.0000004100457, 0.0000004100457, 0.0, 0.048828125, 0.048149087 
7.324219e-2, 3.1461108e+1, -0.00000026163352, -14171.908, 0.3086525, 0.0, 0.0013256815, 0.000006460563, 0.000006460563, 0.0, 0.048828125, 0.048150487 
7.324219e-2, 3.150926e+1, -0.0000028537643, -14125.995, -1.4969451, 0.0, 0.0012037347, 0.00015577894, 0.00015577894, 0.0, 0.048828125, 0.048152637 
7.324219e-2, 3.1557414e+1, -0.00000023531923, -14100.236, 0.38403204, 0.0, 0.0016166879, 0.000010224121, 0.000010224121, 0.0, 0.048828125, 0.048153844 
7.324219e-2, 3.160557e+1, -0.00009135157, -14061.855, -9.671166, 0.0, 0.0014731374, 0.006560076, 0.006560076, 0.0, 0.048828125, 0.04815564 
7.324219e-2, 3.1653726e+1, -0.012499842, -14006.812, 113.09613, 0.0, 0.001366814, 0.90062106, 0.90062106, 0.0, 0.048828125, 0.04815822 
7.324219e-2, 3.1701884e+1, -0.00007625548, -13962.023, -8.833711, 0.0, 0.0014182102, 0.005512792, 0.005512792, 0.0, 0.048828125, 0.04816032 
7.324219e-2, 3.1750044e+1, -0.0000010198338, -13935.644, -0.8674028, 0.0, 0.0013823113, 0.000052970325, 0.000052970325, 0.0, 0.048828125, 0.048161555 
7.324219e-2, 3.1798208e+1, -0.000000110554836, -13891.722, 0.0749656, 0.0, 0.0015638436, 0.00000029399052, 0.00000029399052, 0.0, 0.048828125, 0.04816361 
7.324219e-2, 3.184637e+1, -0.0000001466005, -13857.599, -0.025625676, 0.0, 0.0013547633, -0.00000009921132, -0.00000009921132, 0.0, 0.048828125, 0.048165213 
7.324219e-2, 3.1894538e+1, -0.000002540337, -13815.965, 1.3466487, 0.0, 0.0013727623, 0.00012871815, 0.00012871815, 0.0, 0.048828125, 0.04816716 
7.324219e-2, 3.1942704e+1, -0.00000054061815, -13776.359, -0.6032307, 0.0, 0.001450987, 0.000025873278, 0.000025873278, 0.0, 0.048828125, 0.04816902 
7.324219e-2, 3.1990874e+1, -0.0000063301936, -13737.336, 2.5716574, 0.0, 0.0014620798, 0.00047508936, 0.00047508936, 0.0, 0.048828125, 0.04817085 
7.324219e-2, 3.2039046e+1, -0.0000004599762, -13704.266, -0.47583485, 0.0, 0.0013807348, 0.000016061798, 0.000016061798, 0.0, 0.048828125, 0.0481724 
7.324219e-2, 3.208722e+1, -0.000008069617, -13657.024, -2.9190927, 0.0, 0.0014492458, 0.00061586587, 0.00061586587, 0.0, 0.048828125, 0.048174616 
7.324219e-2, 3.2135394e+1, -0.00000053523905, -13621.638, 0.5538273, 0.0, 0.0013239722, 0.000021982221, 0.000021982221, 0.0, 0.048828125, 0.048176274 
7.324219e-2, 3.2183576e+1, -0.0000044477674, -13580.814, 2.1865234, 0.0, 0.0015835159, 0.00034758446, 0.00034758446, 0.0, 0.048828125, 0.04817819 
7.324219e-2, 3.2231754e+1, -0.0000006244274, -13547.821, -0.663014, 0.0, 0.0014717598, 0.000031822674, 0.000031822674, 0.0, 0.048828125, 0.04817974 
7.324219e-2, 3.2279932e+1, -0.000002830234, -13500.713, -1.39796, 0.0, 0.0011577483, 0.0001419245, 0.0001419245, 0.0, 0.048828125, 0.048181947 
7.324219e-2, 3.2328117e+1, -0.0000007361813, -13465.383, 0.69360846, 0.0, 0.0013491478, 0.00003499193, 0.00003499193, 0.0, 0.048828125, 0.048183605 
7.324219e-2, 3.23763e+1, -0.00000046068112, -13425.404, 0.5710259, 0.0, 0.001880322, 0.000023826895, 0.000023826895, 0.0, 0.048828125, 0.048185483 
7.324219e-2, 3.242449e+1, -0.00000035339264, -13386.964, -0.49674472, 0.0, 0.0013277392, 0.000018079116, 0.000018079116, 0.0, 0.048828125, 0.048187286 
7.324219e-2, 3.2472676e+1, -0.00000013243668, -13348.522, -0.21477003, 0.0, 0.0011078342, 0.00000332309, 0.00000332309, 0.0, 0.048828125, 0.04818909 
7.324219e-2, 3.2520866e+1, -0.0000006660748, -13306.612, 0.61933213, 0.0, 0.0015649386, 0.000028159617, 0.000028159617, 0.0, 0.048828125, 0.04819106 
7.324219e-2, 3.2569057e+1, -0.00000021355177, -13270.448, 0.3081943, 0.0, 0.0015737235, 0.0000069439866, 0.0000069439866, 0.0, 0.048828125, 0.048192754 
7.324219e-2, 3.2617253e+1, -0.00000259426, -13226.897, 1.5911772, 0.0, 0.0012986196, 0.00018882214, 0.00018882214, 0.0, 0.048828125, 0.0481948 
7.324219e-2, 3.2665446e+1, -0.0000071310506, -13197.279, 2.7890382, 0.0, 0.0015319863, 0.0005822884, 0.0005822884, 0.0, 0.048828125, 0.048196193 
7.324219e-2, 3.2713646e+1, -0.00000006341664, -13148.388, 0.13711913, 0.0, 0.0013789176, 0.0000013665431, 0.0000013665431, 0.0, 0.048828125, 0.048198488 
7.324219e-2, 3.2761845e+1, -0.0000029849912, -13118.706, -1.7683705, 0.0, 0.0014656404, 0.00023538717, 0.00023538717, 0.0, 0.048828125, 0.04819988 
7.324219e-2, 3.2810044e+1, -0.000002024807, -13066.95, 1.1217266, 0.0, 0.0015375643, 0.00009426933, 0.00009426933, 0.0, 0.048828125, 0.048202313 
7.324219e-2, 3.2858247e+1, -0.0000000934587, -13044.113, -0.16914955, 0.0, 0.0012779122, 0.0000020999887, 0.0000020999887, 0.0, 0.048828125, 0.048203386 
7.324219e-2, 3.2906452e+1, -0.0000025670581, -12984.963, -1.3111454, 0.0, 0.0014946172, 0.00012982471, 0.00012982471, 0.0, 0.048828125, 0.048206165 
7.324219e-2, 3.2954657e+1, -0.0000028548736, -12967.276, 1.5028635, 0.0, 0.001543772, 0.00017132192, 0.00017132192, 0.0, 0.048828125, 0.048206996 
7.324219e-2, 3.3002868e+1, -0.000000085090555, -12909.332, 0.056559168, 0.0, 0.0012966024, 0.00000016271042, 0.00000016271042, 0.0, 0.048828125, 0.04820972 
7.324219e-2, 3.305108e+1, -0.00000028712284, -12885.95, -0.4209473, 0.0, 0.0016127758, 0.000013464029, 0.000013464029, 0.0, 0.048828125, 0.04821082 
7.324219e-2, 3.3099288e+1, -0.0000004016577, -12831.096, 0.46022877, 0.0, 0.001485325, 0.000016105934, 0.000016105934, 0.0, 0.048828125, 0.048213396 
7.324219e-2, 3.3147502e+1, -0.0000028539512, -12812.374, -1.4344984, 0.0, 0.001254283, 0.0001577553, 0.0001577553, 0.0, 0.048828125, 0.048214275 
7.324219e-2, 3.3195722e+1, -0.0000003331943, -12749.75, -0.38033742, 0.0, 0.001667393, 0.000011012638, 0.000011012638, 0.0, 0.048828125, 0.048217222 
7.324219e-2, 3.324394e+1, -0.000004550316, -12738.245, -2.2145014, 0.0, 0.0013214137, 0.00038043334, 0.00038043334, 0.0, 0.048828125, 0.048217762 
7.324219e-2, 3.3292156e+1, -0.00060637295, -12674.54, 24.882627, 0.0, 0.0012599472, 0.048242956, 0.048242956, 0.0, 0.048828125, 0.048220757 
7.324219e-2, 3.3340377e+1, -0.000030404075, -12648.235, -5.5757103, 0.0, 0.0018054835, 0.0024275307, 0.0024275307, 0.0, 0.048828125, 0.048221994 
7.324219e-2, 3.3388603e+1, -0.00000017600165, -12594.262, 0.23357375, 0.0, 0.0015088009, 0.000004155867, 0.000004155867, 0.0, 0.048828125, 0.048224535 
7.324219e-2, 3.3436826e+1, -0.0000026305827, -12574.722, 1.3159811, 0.0, 0.0011083656, 0.00013509065, 0.00013509065, 0.0, 0.048828125, 0.048225455 
7.324219e-2, 3.3485055e+1, -0.00000023987548, -12517.551, 0.34714696, 0.0, 0.0016219218, 0.000009387488, 0.000009387488, 0.0, 0.048828125, 0.048228145 
7.324219e-2, 3.3533284e+1, -0.0000024532096, -12498.588, -1.6006844, 0.0, 0.001453698, 0.00020254517, 0.00020254517, 0.0, 0.048828125, 0.048229035 
7.324219e-2, 3.3581513e+1, -0.00000028023575, -12437.222, -0.37744182, 0.0, 0.0013378907, 0.000011174279, 0.000011174279, 0.0, 0.048828125, 0.048231922 
7.324219e-2, 3.3629745e+1, -0.0000025910865, -12420.498, 1.3173078, 0.0, 0.001562707, 0.0001371215, 0.0001371215, 0.0, 0.048828125, 0.04823271 
7.324219e-2, 3.3677977e+1, -0.0000009782154, -12360.554, -0.774925, 0.0, 0.0015445807, 0.00004760446, 0.00004760446, 0.0, 0.048828125, 0.048235532 
7.324219e-2, 3.3726215e+1, -0.0000002253175, -12340.543, 0.318891, 0.0, 0.0012432205, 0.000008015117, 0.000008015117, 0.0, 0.048828125, 0.048236474 
7.324219e-2, 3.3774453e+1, -0.0000003278678, -12283.209, 0.42240998, 0.0, 0.0014748109, 0.000014198482, 0.000014198482, 0.0, 0.048828125, 0.048239175 
7.324219e-2, 3.382269e+1, -0.0000027035992, -12264.234, -1.7490098, 0.0, 0.0014973844, 0.00024672376, 0.00024672376, 0.0, 0.048828125, 0.048240066 
7.324219e-2, 3.3870932e+1, -0.00000012244075, -12205.512, -0.14975074, 0.0, 0.0014948312, 0.0000017148686, 0.0000017148686, 0.0, 0.048828125, 0.048242833 
7.324219e-2, 3.391918e+1, -0.00001546604, -12191.938, -3.980943, 0.0, 0.0013476117, 0.0012844015, 0.0012844015, 0.0, 0.048828125, 0.04824347 
7.324219e-2, 3.3967423e+1, -0.002801724, -12125.029, 53.462006, 0.0, 0.0014460458, 0.23291987, 0.23291987, 0.0, 0.048828125, 0.048246622 
7.324219e-2, 3.401567e+1, -0.000041476465, -12101.744, -6.5043106, 0.0, 0.0014115222, 0.0034543872, 0.0034543872, 0.0, 0.048828125, 0.04824772 
7.324219e-2, 3.406392e+1, -0.00000023019732, -12044.892, 0.20285103, 0.0, 0.0016970636, 0.000003186069, 0.000003186069, 0.0, 0.048828125, 0.0482504 
7.324219e-2, 3.411217e+1, -0.0000018214743, -12029.405, 1.0577432, 0.0, 0.0012087981, 0.00009118568, 0.00009118568, 0.0, 0.048828125, 0.04825113 
7.324219e-2, 3.4160423e+1, -0.0000011813117, -11967.922, -0.8926011, 0.0, 0.0012696228, 0.000065391374, 0.000065391374, 0.0, 0.048828125, 0.048254028 
7.324219e-2, 3.4208676e+1, -0.00000015789796, -11948.013, 0.22493452, 0.0, 0.001731046, 0.0000040767445, 0.0000040767445, 0.0, 0.048828125, 0.048254963 
7.324219e-2, 3.4256932e+1, -0.0000017456549, -11895.56, 0.9991046, 0.0, 0.0014751463, 0.000082168845, 0.000082168845, 0.0, 0.048828125, 0.048257437 
7.324219e-2, 3.430519e+1, -0.00000033841047, -11870.102, -0.4934023, 0.0, 0.0011900439, 0.000020170752, 0.000020170752, 0.0, 0.048828125, 0.048258636 
7.324219e-2, 3.435345e+1, -0.00000011128486, -11814.328, 0.040364206, 0.0, 0.0017700198, 0.00000002662091, 0.00000002662091, 0.0, 0.048828125, 0.048261266 
7.324219e-2, 3.4401715e+1, -0.00000020843963, -11790.664, -0.32468382, 0.0, 0.0012540291, 0.000008732495, 0.000008732495, 0.0, 0.048828125, 0.048262384 
7.324219e-2, 3.4449977e+1, -0.000002840351, -11739.339, -1.4286156, 0.0, 0.0012759885, 0.00017101463, 0.00017101463, 0.0, 0.048828125, 0.0482648 
7.324219e-2, 3.4498242e+1, -0.0000016770983, -11706.369, 0.95476234, 0.0, 0.0017142599, 0.00007619257, 0.00007619257, 0.0, 0.048828125, 0.04826636 
7.324219e-2, 3.454651e+1, -0.0000011322612, -11667.276, 0.7906409, 0.0, 0.0014067959, 0.00005244605, 0.00005244605, 0.0, 0.048828125, 0.048268203 
7.324219e-2, 3.459478e+1, -0.0000015058579, -11627.545, -1.0017109, 0.0, 0.0013430185, 0.00008479135, 0.00008479135, 0.0, 0.048828125, 0.048270077 
7.324219e-2, 3.464305e+1, -0.00000019851457, -11588.338, 0.27545077, 0.0, 0.0016305645, 0.000006348855, 0.000006348855, 0.0, 0.048828125, 0.048271924 
7.324219e-2, 3.4691322e+1, -0.00000008427492, -11550.296, -0.08112904, 0.0, 0.0012867938, 0.00000048557376, 0.00000048557376, 0.0, 0.048828125, 0.04827372 
7.324219e-2, 3.47396e+1, -0.00000036611027, -11510.35, -0.5301814, 0.0, 0.0015371345, 0.000024054725, 0.000024054725, 0.0, 0.048828125, 0.048275605 
7.324219e-2, 3.4787872e+1, -0.000000608337, -11470.454, 0.5380984, 0.0, 0.0014633687, 0.000024634768, 0.000024634768, 0.0, 0.048828125, 0.04827749 
7.324219e-2, 3.4836152e+1, -0.0000022833724, -11434.59, -1.244913, 0.0, 0.001359934, 0.00013325347, 0.00013325347, 0.0, 0.048828125, 0.04827918 
7.324219e-2, 3.4884435e+1, -0.0000008294031, -11388.733, 0.6613418, 0.0, 0.0016126108, 0.0000375746, 0.0000375746, 0.0, 0.048828125, 0.048281346 
7.324219e-2, 3.4932712e+1, -0.0000013499365, -11360.354, 0.86094916, 0.0, 0.001266423, 0.00006389745, 0.00006389745, 0.0, 0.048828125, 0.048282687 
7.324219e-2, 3.4981e+1, -0.0000006280109, -11311.135, -0.6201402, 0.0, 0.0014136257, 0.000033371572, 0.000033371572, 0.0, 0.048828125, 0.04828501 
7.324219e-2, 3.5029286e+1, -0.0000014838231, -11278.86, 0.90626776, 0.0, 0.0019074776, 0.0000713357, 0.0000713357, 0.0, 0.048828125, 0.048286535 
7.324219e-2, 3.5077572e+1, -0.0000024988801, -11235.711, -1.3922762, 0.0, 0.0011919043, 0.00017002539, 0.00017002539, 0.0, 0.048828125, 0.048288573 
7.324219e-2, 3.5125864e+1, -0.0000001136642, -11200.04, 0.16223766, 0.0, 0.0011445883, 0.000002236422, 0.000002236422, 0.0, 0.048828125, 0.048290256 
7.324219e-2, 3.5174152e+1, -0.0000053132744, -11156.659, 2.4270322, 0.0, 0.0016992267, 0.000522666, 0.000522666, 0.0, 0.048828125, 0.048292305 
7.324219e-2, 3.5222447e+1, -0.0000025036054, -11118.75, -1.2965152, 0.0, 0.0016700039, 0.00014867811, 0.00014867811, 0.0, 0.048828125, 0.048294097 
7.324219e-2, 3.5270742e+1, -0.00007236106, -11063.49, 8.586942, 0.0, 0.0013750326, 0.0065924004, 0.0065924004, 0.0, 0.048828125, 0.04829671 
7.324219e-2, 3.531904e+1, -0.00034449314, -11050.775, 18.730602, 0.0, 0.0010675621, 0.031403005, 0.031403005, 0.0, 0.048828125, 0.04829731 
7.324219e-2, 3.5367337e+1, -0.00010451962, -11007.832, 10.316718, 0.0, 0.0015620078, 0.009564467, 0.009564467, 0.0, 0.048828125, 0.04829934 
7.324219e-2, 3.5415637e+1, -0.000002198584, -10967.764, 1.5614569, 0.0, 0.001980559, 0.0002201027, 0.0002201027, 0.0, 0.048828125, 0.04830123 
7.324219e-2, 3.546394e+1, -0.0000022501654, -10923.844, 1.5569754, 0.0, 0.0012432082, 0.00021966553, 0.00021966553, 0.0, 0.048828125, 0.04830331 
7.324219e-2, 3.5512245e+1, -0.000002652511, -10892.39, -1.6405538, 0.0, 0.00089187163, 0.00024443897, 0.00024443897, 0.0, 0.048828125, 0.048304796 
7.324219e-2, 3.556055e+1, -0.0000041158455, -10835.28, 2.0809093, 0.0, 0.0017000916, 0.00039552158, 0.00039552158, 0.0, 0.048828125, 0.048307497 
7.324219e-2, 3.560886e+1, -0.000009681068, -10814.683, 3.10654, 0.0, 0.0019502805, 0.00088267896, 0.00088267896, 0.0, 0.048828125, 0.04830847 
7.324219e-2, 3.5657164e+1, -0.0000037696495, -10765.273, -1.982756, 0.0, 0.0012508102, 0.00036141582, 0.00036141582, 0.0, 0.048828125, 0.048310805 
7.324219e-2, 3.570548e+1, -0.0000097536395, -10735.166, -3.1114562, 0.0, 0.00091657235, 0.00089206366, 0.00089206366, 0.0, 0.048828125, 0.04831223 
7.324219e-2, 3.5753793e+1, -0.0000033147453, -10679.153, 1.8372003, 0.0, 0.001722772, 0.00031275008, 0.00031275008, 0.0, 0.048828125, 0.04831488 
7.324219e-2, 3.5802108e+1, -0.000011387837, -10658.661, 3.378644, 0.0, 0.0017688914, 0.0010595941, 0.0010595941, 0.0, 0.048828125, 0.04831585 
7.324219e-2, 3.5850427e+1, -0.0000015450285, -10610.427, -1.2922677, 0.0, 0.0012258579, 0.00015584315, 0.00015584315, 0.0, 0.048828125, 0.048318133 
7.324219e-2, 3.5898742e+1, -0.0000075585385, -10575.087, -2.773097, 0.0, 0.0012983854, 0.00071962853, 0.00071962853, 0.0, 0.048828125, 0.0483198 
7.324219e-2, 3.5947064e+1, -0.0000021205879, -10528.228, 1.3135011, 0.0, 0.0016680155, 0.00016175173, 0.00016175173, 0.0, 0.048828125, 0.048322022 
7.324219e-2, 3.5995388e+1, -0.0000032950472, -10498.709, 1.8530017, 0.0, 0.0012531197, 0.00032375616, 0.00032375616, 0.0, 0.048828125, 0.04832342 
7.324219e-2, 3.6043712e+1, -0.000001266669, -10455.717, -0.849702, 0.0, 0.0014015526, 0.00006778583, 0.00006778583, 0.0, 0.048828125, 0.048325453 
7.324219e-2, 3.6092037e+1, -0.00000024990268, -10415.792, -0.33822635, 0.0, 0.0017313657, 0.000010733138, 0.000010733138, 0.0, 0.048828125, 0.04832734 
7.324219e-2, 3.6140364e+1, -0.0000012974645, -10378.82, 0.87925756, 0.0, 0.0014616321, 0.00007319018, 0.00007319018, 0.0, 0.048828125, 0.048329093 
7.324219e-2, 3.6188698e+1, -0.0000002624352, -10334.764, -0.3410428, 0.0, 0.0010212325, 0.000010991833, 0.000010991833, 0.0, 0.048828125, 0.04833118 
7.324219e-2, 3.6237025e+1, -0.00000011810401, -10304.515, -0.08797791, 0.0, 0.0015224882, 0.0000006330356, 0.0000006330356, 0.0, 0.048828125, 0.048332613 
7.324219e-2, 3.6285362e+1, -0.0000003679022, -10253.246, 0.4608561, 0.0, 0.0018429746, 0.000020346355, 0.000020346355, 0.0, 0.048828125, 0.04833504 
7.324219e-2, 3.6333698e+1, -0.000000107483494, -10229.566, -0.19410203, 0.0, 0.0014373978, 0.0000035755274, 0.0000035755274, 0.0, 0.048828125, 0.048336163 
7.324219e-2, 3.6382034e+1, -0.00000009536195, -10170.989, 0.0747095, 0.0, 0.0009454923, 0.00000045340494, 0.00000045340494, 0.0, 0.048828125, 0.04833894 
7.324219e-2, 3.6430374e+1, -0.00000010169776, -10155.821, 0.04017053, 0.0, 0.0015175667, 0.000000057192665, 0.000000057192665, 0.0, 0.048828125, 0.048339657 
7.324219e-2, 3.647872e+1, -0.0000005274147, -10091.117, -0.554518, 0.0, 0.0019353557, 0.000029943962, 0.000029943962, 0.0, 0.048828125, 0.048342723 
7.324219e-2, 3.6527058e+1, -0.00000021459938, -10076.883, 0.24897608, 0.0, 0.0013568914, 0.000005937014, 0.000005937014, 0.0, 0.048828125, 0.048343398 
7.324219e-2, 3.6575404e+1, -0.0000006742958, -10009.839, 0.6152602, 0.0, 0.0010283982, 0.000037143003, 0.000037143003, 0.0, 0.048828125, 0.048346575 
7.324219e-2, 3.662375e+1, -0.00000024160207, -10004.419, -0.26130584, 0.0, 0.0016891876, 0.0000065834556, 0.0000065834556, 0.0, 0.048828125, 0.048346832 
7.324219e-2, 3.66721e+1, -0.0000013379492, -9930.27, -0.90243316, 0.0, 0.0015404169, 0.00008067247, 0.00008067247, 0.0, 0.048828125, 0.048350345 
7.324219e-2, 3.6720452e+1, -0.0000001385633, -9923.855, -0.13505785, 0.0, 0.0011927552, 0.0000016994945, 0.0000016994945, 0.0, 0.048828125, 0.04835065 
7.324219e-2, 3.6768803e+1, -0.0000034803904, -9850.989, 1.9522218, 0.0, 0.0017722516, 0.00038340155, 0.00038340155, 0.0, 0.048828125, 0.048354104 
7.324219e-2, 3.6817157e+1, -0.000453529, -9847.607, 21.46939, 0.0, 0.001689773, 0.04635303, 0.04635303, 0.0, 0.048828125, 0.048354264 
7.324219e-2, 3.6865512e+1, -0.00000011451531, -9771.936, -0.06761587, 0.0, 0.0007700167, 0.00000035334597, 0.00000035334597, 0.0, 0.048828125, 0.048357856 
7.324219e-2, 3.6913872e+1, -0.00000018323261, -9772.91, 0.17764957, 0.0, 0.0013972679, 0.0000030460378, 0.0000030460378, 0.0, 0.048828125, 0.048357807 
7.324219e-2, 3.6962232e+1, -0.00000014554969, -9691.705, -0.25551152, 0.0, 0.0022335616, 0.0000065907407, 0.0000065907407, 0.0, 0.048828125, 0.04836166 
7.324219e-2, 3.7010592e+1, -0.0000002383529, -9694.806, -0.35084093, 0.0, 0.0013645842, 0.000012458069, 0.000012458069, 0.0, 0.048828125, 0.048361514 
7.324219e-2, 3.7058955e+1, -0.0000007888181, -9611.827, 0.6124831, 0.0, 0.0008705304, 0.000038239712, 0.000038239712, 0.0, 0.048828125, 0.04836545 
7.324219e-2, 3.710732e+1, -0.00000015916005, -9618.942, -0.2551856, 0.0, 0.0016299097, 0.0000066107805, 0.0000066107805, 0.0, 0.048828125, 0.048365112 
7.324219e-2, 3.7155688e+1, -0.00000026252445, -9531.46, -0.38191268, 0.0, 0.0017514675, 0.000015040199, 0.000015040199, 0.0, 0.048828125, 0.048369266 
7.324219e-2, 3.7204057e+1, -0.0000002724561, -9541.902, 0.27092028, 0.0, 0.0013740275, 0.0000074197014, 0.0000074197014, 0.0, 0.048828125, 0.04836877 
7.324219e-2, 3.725243e+1, -0.00000069630335, -9454.088, -0.661527, 0.0, 0.0013577089, 0.000045592446, 0.000045592446, 0.0, 0.048828125, 0.04837294 
7.324219e-2, 3.73008e+1, -0.00000025374712, -9462.179, -0.25176585, 0.0, 0.0013338879, 0.000006445138, 0.000006445138, 0.0, 0.048828125, 0.048372556 
7.324219e-2, 3.7349173e+1, -0.0000015931163, -9372.599, 0.8790968, 0.0, 0.0017259555, 0.0000808612, 0.0000808612, 0.0, 0.048828125, 0.048376806 
7.324219e-2, 3.7397552e+1, -0.00000026392416, -9389.743, -0.36077568, 0.0, 0.001740688, 0.0000135979135, 0.0000135979135, 0.0, 0.048828125, 0.048375994 
7.324219e-2, 3.744593e+1, -0.0000018736336, -9295.871, -1.1819383, 0.0, 0.000893569, 0.00014840579, 0.00014840579, 0.0, 0.048828125, 0.048380453 
7.324219e-2, 3.7494308e+1, -0.00000014483619, -9307.694, 0.13714181, 0.0, 0.0010575411, 0.0000018758437, 0.0000018758437, 0.0, 0.048828125, 0.04837989 
7.324219e-2, 3.7542695e+1, -0.000012269152, -9218.802, 3.531048, 0.0, 0.0024831137, 0.0013402167, 0.0013402167, 0.0, 0.048828125, 0.04838411 
7.324219e-2, 3.7591076e+1, -0.00000035274186, -9228.289, -0.43638697, 0.0, 0.0017065016, 0.000020283107, 0.000020283107, 0.0, 0.048828125, 0.04838366 
7.324219e-2, 3.7639463e+1, -0.0000005857585, -9139.537, 0.5279558, 0.0, 0.0003471211, 0.000029912208, 0.000029912208, 0.0, 0.048828125, 0.048387878 
7.324219e-2, 3.768785e+1, -0.0000013230919, -9147.916, 1.2315063, 0.0, 0.0014477324, 0.00016446415, 0.00016446415, 0.0, 0.048828125, 0.04838748 
7.324219e-2, 3.773624e+1, -0.000004159293, -9067.468, 2.1416428, 0.0, 0.0023485315, 0.0005016748, 0.0005016748, 0.0, 0.048828125, 0.048391305 
7.324219e-2, 3.778463e+1, -0.000023761158, -9067.045, 4.908571, 0.0, 0.0011977761, 0.002633561, 0.002633561, 0.0, 0.048828125, 0.048391324 
7.324219e-2, 3.7833023e+1, -0.00001905097, -8990.985, 4.3922815, 0.0, 0.0011806358, 0.0021266688, 0.0021266688, 0.0, 0.048828125, 0.04839494 
7.324219e-2, 3.788142e+1, -0.00000014959281, -8990.203, -0.015201195, 0.0, 0.0016707204, -0.00000012388955, -0.00000012388955, 0.0, 0.048828125, 0.048394978 
7.324219e-2, 3.7929818e+1, -0.0000059475506, -8918.903, -2.494039, 0.0, 0.0013759515, 0.0006914735, 0.0006914735, 0.0, 0.048828125, 0.048398368 
7.324219e-2, 3.7978214e+1, -0.00000044077748, -8900.644, 0.4812062, 0.0, 0.0014136651, 0.000025575253, 0.000025575253, 0.0, 0.048828125, 0.048399236 
7.324219e-2, 3.8026616e+1, -0.0000010388653, -8842.976, 1.1359947, 0.0, 0.0015877191, 0.00014489434, 0.00014489434, 0.0, 0.048828125, 0.048401978 
7.324219e-2, 3.8075015e+1, -0.0000016725659, -8824.003, -0.97946024, 0.0, 0.0013884552, 0.00010704706, 0.00010704706, 0.0, 0.048828125, 0.04840288 
7.324219e-2, 3.812342e+1, -0.0000008998957, -8764.731, 0.65772337, 0.0, 0.0014943674, 0.000048457012, 0.000048457012, 0.0, 0.048828125, 0.0484057 
7.324219e-2, 3.8171828e+1, -0.0000006154974, -8744.54, 0.5418266, 0.0, 0.0013613383, 0.000032957003, 0.000032957003, 0.0, 0.048828125, 0.04840666 
7.324219e-2, 3.8220233e+1, -0.0000024646838, -8696.806, -1.5660692, 0.0, 0.0014907509, 0.00027954378, 0.00027954378, 0.0, 0.048828125, 0.048408933 
7.324219e-2, 3.8268647e+1, -0.00000025403432, -8654.434, 0.3541134, 0.0, 0.0017629961, 0.000014235222, 0.000014235222, 0.0, 0.048828125, 0.04841095 
7.324219e-2, 3.8317057e+1, -0.0000013539193, -8619.502, 0.8046092, 0.0, 0.0010829652, 0.00007375436, 0.00007375436, 0.0, 0.048828125, 0.04841261 
7.324219e-2, 3.836547e+1, -0.0000009924509, -8578.229, -0.73119766, 0.0, 0.0011883706, 0.000061333936, 0.000061333936, 0.0, 0.048828125, 0.048414577 
7.324219e-2, 3.8413888e+1, -0.0000003138246, -8543.382, 0.33980587, 0.0, 0.0019926182, 0.00001320167, 0.00001320167, 0.0, 0.048828125, 0.048416235 
7.324219e-2, 3.8462302e+1, -0.000000183165, -8497.219, 0.14835684, 0.0, 0.0014642, 0.000002407065, 0.000002407065, 0.0, 0.048828125, 0.048418432 
7.324219e-2, 3.8510722e+1, -0.0000006287307, -8470.576, -0.56175256, 0.0, 0.0010912609, 0.000036625635, 0.000036625635, 0.0, 0.048828125, 0.0484197 
7.324219e-2, 3.8559142e+1, -0.00000047655203, -8413.4, 0.49463925, 0.0, 0.00160099, 0.000028604198, 0.000028604198, 0.0, 0.048828125, 0.048422422 
7.324219e-2, 3.8607568e+1, -0.00000039942964, -8395.468, 0.42165023, 0.0, 0.0014578225, 0.000020777343, 0.000020777343, 0.0, 0.048828125, 0.048423275 
7.324219e-2, 3.865599e+1, -0.00000017385929, -8331.318, -0.11661817, 0.0, 0.0013471356, 0.0000014585112, 0.0000014585112, 0.0, 0.048828125, 0.048426334 
7.324219e-2, 3.870442e+1, -0.00000015359615, -8324.399, 0.17144838, 0.0, 0.0015182092, 0.000003377536, 0.000003377536, 0.0, 0.048828125, 0.04842666 
7.324219e-2, 3.8752845e+1, -0.0000011492513, -8245.053, 1.1568561, 0.0, 0.0015604405, 0.00016116821, 0.00016116821, 0.0, 0.048828125, 0.048430443 
7.324219e-2, 3.8801277e+1, -0.000010479931, -8249.053, 3.2372682, 0.0, 0.0012684469, 0.0012599573, 0.0012599573, 0.0, 0.048828125, 0.048430253 
7.324219e-2, 3.8849708e+1, -0.0000027471308, -8168.9297, 1.733738, 0.0, 0.0014108518, 0.0003652138, 0.0003652138, 0.0, 0.048828125, 0.048434068 
7.324219e-2, 3.8898143e+1, -0.00000021988433, -8175.17, -0.15995109, 0.0, 0.0015492722, 0.0000029096354, 0.0000029096354, 0.0, 0.048828125, 0.048433773 
7.324219e-2, 3.8946578e+1, -0.00000011881348, -8084.0522, 0.037322357, 0.0, 0.0014590253, 0.00000005349557, 0.00000005349557, 0.0, 0.048828125, 0.048438113 
7.324219e-2, 3.899502e+1, -0.00000013385215, -8102.6987, -0.015848584, 0.0, 0.0013073044, -0.00000010285294, -0.00000010285294, 0.0, 0.048828125, 0.048437227 
7.324219e-2, 3.9043456e+1, -0.0000026457408, -7999.4414, 1.69542, 0.0, 0.0016428996, 0.00035668546, 0.00035668546, 0.0, 0.048828125, 0.048442148 
7.324219e-2, 3.90919e+1, -0.0000011080357, -8028.36, -1.1156592, 0.0, 0.0012759615, 0.0001539293, 0.0001539293, 0.0, 0.048828125, 0.04844077 
7.324219e-2, 3.9140344e+1, -0.000014199683, -7919.079, -3.7946565, 0.0, 0.0014054555, 0.0018041196, 0.0018041196, 0.0, 0.048828125, 0.04844598 
7.324219e-2, 3.9188784e+1, -0.00000034811376, -7956.5903, 0.3851344, 0.0, 0.0015375965, 0.000018294104, 0.000018294104, 0.0, 0.048828125, 0.048444193 
7.324219e-2, 3.923723e+1, -0.000043061795, -7854.078, -6.603636, 0.0, 0.0014895495, 0.00550921, 0.00550921, 0.0, 0.048828125, 0.04844908 
7.324219e-2, 3.9285684e+1, -0.01794747, -7871.9116, 134.84254, 0.0, 0.0013006452, 2.2911766, 2.2911766, 0.0, 0.048828125, 0.04844823 
7.324219e-2, 3.9334133e+1, -0.000347077, -7744.9487, -18.749458, 0.0, 0.0016212102, 0.045042526, 0.045042526, 0.0, 0.048828125, 0.04845429 
7.324219e-2, 3.938259e+1, -0.0000013774165, -7802.4116, 1.2059401, 0.0, 0.001331229, 0.00018501258, 0.00018501258, 0.0, 0.048828125, 0.048451547 
7.324219e-2, 3.943104e+1, -0.00003237169, -7693.903, -5.7253213, 0.0, 0.0013883173, 0.004228052, 0.004228052, 0.0, 0.048828125, 0.048456725 
7.324219e-2, 3.9479497e+1, -0.0041609616, -7712.3, 64.91819, 0.0, 0.0015575569, 0.5422487, 0.5422487, 0.0, 0.048828125, 0.048455846 
7.324219e-2, 3.9527953e+1, -0.00012407149, -7591.8027, -11.208675, 0.0, 0.0014538805, 0.016424583, 0.016424583, 0.0, 0.048828125, 0.048461597 
7.324219e-2, 3.9576417e+1, -0.00000012789971, -7638.996, 0.0018061548, 0.0, 0.0013121992, -0.00000012747205, -0.00000012747205, 0.0, 0.048828125, 0.048459344 
7.324219e-2, 3.962488e+1, -0.000014155572, -7523.9893, 3.7836223, 0.0, 0.0017711625, 0.0018885311, 0.0018885311, 0.0, 0.048828125, 0.048464835 
7.324219e-2, 3.9673343e+1, -0.00000020826637, -7559.8296, 0.27791294, 0.0, 0.00122712, 0.000010008313, 0.000010008313, 0.0, 0.048828125, 0.048463125 
7.324219e-2, 3.9721805e+1, -0.000002341298, -7446.4707, -1.5885878, 0.0, 0.0013266279, 0.00033655897, 0.00033655897, 0.0, 0.048828125, 0.048468538 
7.324219e-2, 3.9770275e+1, -0.00000070120365, -7486.7593, 0.5679035, 0.0, 0.0015943244, 0.000042376767, 0.000042376767, 0.0, 0.048828125, 0.04846661 
7.324219e-2, 3.9818746e+1, -0.00000093028996, -7368.454, 0.65227187, 0.0, 0.0016683355, 0.000056810255, 0.000056810255, 0.0, 0.048828125, 0.048472263 
7.324219e-2, 3.986722e+1, -0.0000002068358, -7402.1655, 0.26335457, 0.0, 0.0012507652, 0.000009162805, 0.000009162805, 0.0, 0.048828125, 0.048470654 
7.324219e-2, 3.9915687e+1, -0.000000915002, -7292.671, 0.6140168, 0.0, 0.0013724738, 0.000050783015, 0.000050783015, 0.0, 0.048828125, 0.048475884 
7.324219e-2, 3.9964163e+1, -0.000001103897, -7326.692, -0.9073771, 0.0, 0.0015429127, 0.000111270594, 0.000111270594, 0.0, 0.048828125, 0.048474256 
7.324219e-2, 4.0012643e+1, -0.0000012220787, -7213.443, -0.71822137, 0.0, 0.0016791107, 0.00007028912, 0.00007028912, 0.0, 0.048828125, 0.04847967 
7.324219e-2, 4.0061122e+1, -0.0000011452602, -7244.562, 0.8392831, 0.0, 0.0012076817, 0.000096085765, 0.000096085765, 0.0, 0.048828125, 0.048478182 
7.324219e-2, 4.01096e+1, -0.0000012109257, -7138.615, 0.682125, 0.0, 0.0015550008, 0.00006396901, 0.00006396901, 0.0, 0.048828125, 0.048483245 
7.324219e-2, 4.0158084e+1, -0.00000021520064, -7165.975, -0.2137657, 0.0, 0.0015366505, 0.0000061615683, 0.0000061615683, 0.0, 0.048828125, 0.048481937 
7.324219e-2, 4.020657e+1, -0.00000021398813, -7059.0566, 0.11967479, 0.0, 0.001263805, 0.000001814903, 0.000001814903, 0.0, 0.048828125, 0.04848705 
7.324219e-2, 4.0255055e+1, -0.000019587054, -7080.3706, 4.45084, 0.0, 0.0014796853, 0.0027782847, 0.0027782847, 0.0, 0.048828125, 0.04848603 
7.324219e-2, 4.0303543e+1, -0.000040958632, -6988.849, 6.4382815, 0.0, 0.0018880252, 0.005890123, 0.005890123, 0.0, 0.048828125, 0.048490405 
7.324219e-2, 4.0352035e+1, -0.0000032125308, -7003.858, 1.9032243, 0.0, 0.0011881622, 0.0005139686, 0.0005139686, 0.0, 0.048828125, 0.04848969 
7.324219e-2, 4.0400523e+1, -0.0000014305185, -6909.671, 1.227299, 0.0, 0.0012023109, 0.0002165629, 0.0002165629, 0.0, 0.048828125, 0.048494194 
7.324219e-2, 4.044902e+1, -0.000032042815, -6916.8594, 5.6937084, 0.0, 0.0017363835, 0.0046548094, 0.0046548094, 0.0, 0.048828125, 0.04849385 
7.324219e-2, 4.0497518e+1, -0.000045941888, -6843.874, 6.815435, 0.0, 0.0015659011, 0.0067411656, 0.0067411656, 0.0, 0.048828125, 0.04849734 
7.324219e-2, 4.0546012e+1, -0.000005586785, -6839.774, 2.357008, 0.0, 0.0012716462, 0.00080664566, 0.00080664566, 0.0, 0.048828125, 0.048497535 
7.324219e-2, 4.0594512e+1, -0.0000013352699, -6764.1045, -1.1339437, 0.0, 0.0015761274, 0.00018876058, 0.00018876058, 0.0, 0.048828125, 0.048501156 
7.324219e-2, 4.0643013e+1, -0.0000001181875, -6756.0645, 0.0065270844, 0.0, 0.0014483472, -0.0000001118824, -0.0000001118824, 0.0, 0.048828125, 0.048501544 
7.324219e-2, 4.0691516e+1, -0.0000014494743, -6690.9346, 1.246783, 0.0, 0.0013950376, 0.00023087498, 0.00023087498, 0.0, 0.048828125, 0.048504658 
7.324219e-2, 4.0740022e+1, -0.0000002969749, -6673.645, -0.32751083, 0.0, 0.0015828189, 0.000015775704, 0.000015775704, 0.0, 0.048828125, 0.04850549 
7.324219e-2, 4.0788528e+1, -0.0000009467329, -6614.822, -0.589547, 0.0, 0.0013334122, 0.00005159673, 0.00005159673, 0.0, 0.048828125, 0.0485083 
7.324219e-2, 4.0837038e+1, -0.00000022561433, -6594.6636, 0.23533124, 0.0, 0.0014521361, 0.000008172205, 0.000008172205, 0.0, 0.048828125, 0.04850927 
7.324219e-2, 4.0885547e+1, -0.00000026367323, -6538.658, -0.26928446, 0.0, 0.0017002645, 0.0000108263885, 0.0000108263885, 0.0, 0.048828125, 0.04851195 
7.324219e-2, 4.093406e+1, -0.0000006631952, -6516.203, -0.49124664, 0.0, 0.0013333242, 0.00003637114, 0.00003637114, 0.0, 0.048828125, 0.048513025 
7.324219e-2, 4.0982574e+1, -0.0000042340666, -6466.282, -2.0506024, 0.0, 0.0013159901, 0.0006460576, 0.0006460576, 0.0, 0.048828125, 0.048515417 
7.324219e-2, 4.103109e+1, -0.0003813818, -6432.6016, 19.632881, 0.0, 0.0016544635, 0.059539385, 0.059539385, 0.0, 0.048828125, 0.04851703 
7.324219e-2, 4.1079608e+1, -0.00003028693, -6383.8545, -5.5329757, 0.0, 0.00135021, 0.0047652163, 0.0047652163, 0.0, 0.048828125, 0.048519365 
7.324219e-2, 4.112813e+1, -0.000001068869, -6353.4185, 0.59444964, 0.0, 0.0014387174, 0.000054550062, 0.000054550062, 0.0, 0.048828125, 0.048520822 
7.324219e-2, 4.117665e+1, -0.0000012936086, -6316.7183, -1.1988419, 0.0, 0.0016340574, 0.00022623305, 0.00022623305, 0.0, 0.048828125, 0.04852258 
7.324219e-2, 4.1225174e+1, -0.00046426788, -6270.3486, 21.658867, 0.0, 0.0013984932, 0.074348316, 0.074348316, 0.0, 0.048828125, 0.048524804 
7.324219e-2, 4.12737e+1, -0.000034529792, -6230.7627, -5.907903, 0.0, 0.0012994002, 0.005567238, 0.005567238, 0.0, 0.048828125, 0.0485267 
7.324219e-2, 4.1322228e+1, -0.0000008571833, -6191.9497, 0.50982493, 0.0, 0.0016315655, 0.00004112014, 0.00004112014, 0.0, 0.048828125, 0.04852856 
7.324219e-2, 4.1370758e+1, -0.0000013870267, -6160.629, 1.2343279, 0.0, 0.0013851251, 0.00024591977, 0.00024591977, 0.0, 0.048828125, 0.048530065 
7.324219e-2, 4.141929e+1, -0.00000029014976, -6110.4937, -0.33659512, 0.0, 0.001445503, 0.000018251114, 0.000018251114, 0.0, 0.048828125, 0.048532467 
7.324219e-2, 4.1467822e+1, -0.00000010689064, -6082.4395, -0.13476606, 0.0, 0.0015625542, 0.0000028790655, 0.0000028790655, 0.0, 0.048828125, 0.048533812 
7.324219e-2, 4.1516358e+1, -0.000001036273, -6032.9863, -0.62593734, 0.0, 0.0013952703, 0.00006390628, 0.00006390628, 0.0, 0.048828125, 0.04853618 
7.324219e-2, 4.1564897e+1, -0.00000085190595, -6007.304, -0.5583605, 0.0, 0.0014404597, 0.00005104599, 0.00005104599, 0.0, 0.048828125, 0.048537415 
7.324219e-2, 4.1613433e+1, -0.00000023683303, -5953.3325, 0.21951453, 0.0, 0.0016153198, 0.000007857227, 0.000007857227, 0.0, 0.048828125, 0.048540004 
7.324219e-2, 4.1661972e+1, -0.0000050885087, -5933.6567, -2.2743134, 0.0, 0.0011755154, 0.0008666337, 0.0008666337, 0.0, 0.048828125, 0.048540946 
7.324219e-2, 4.1710514e+1, -0.00012893352, -5876.996, 11.413133, 0.0, 0.0015658014, 0.0220353, 0.0220353, 0.0, 0.048828125, 0.048543666 
7.324219e-2, 4.175906e+1, -0.000554072, -5845.7197, 23.652992, 0.0, 0.0016448569, 0.09514927, 0.09514927, 0.0, 0.048828125, 0.048545167 
7.324219e-2, 4.1807607e+1, -0.000012383037, -5797.8647, -3.5343661, 0.0, 0.0013251463, 0.002142158, 0.002142158, 0.0, 0.048828125, 0.04854746 
7.324219e-2, 4.1856155e+1, -0.00000018147843, -5768.9927, 0.21786824, 0.0, 0.0014355034, 0.0000080464, 0.0000080464, 0.0, 0.048828125, 0.048548847 
7.324219e-2, 4.1904706e+1, -0.0000008292796, -5722.7036, 0.60019237, 0.0, 0.0015284779, 0.000062118386, 0.000062118386, 0.0, 0.048828125, 0.04855107 
7.324219e-2, 4.195326e+1, -0.0000023717087, -5687.1455, 1.6474867, 0.0, 0.0013994673, 0.0004748822, 0.0004748822, 0.0, 0.048828125, 0.048552778 
7.324219e-2, 4.2001808e+1, -0.00000026528252, -5649.1274, -0.31128383, 0.0, 0.0015429007, 0.000016887388, 0.000016887388, 0.0, 0.048828125, 0.048554603 
7.324219e-2, 4.2050365e+1, -0.00000069333095, -5610.639, -0.8452915, 0.0, 0.001361326, 0.00012665718, 0.00012665718, 0.0, 0.048828125, 0.04855645 
7.324219e-2, 4.2098922e+1, -0.00000015458195, -5565.758, 0.17490244, 0.0, 0.00149058, 0.000005341679, 0.000005341679, 0.0, 0.048828125, 0.048558608 
7.324219e-2, 4.2147484e+1, -0.0000057354723, -5530.5225, 2.37586, 0.0, 0.0015245704, 0.0010149112, 0.0010149112, 0.0, 0.048828125, 0.0485603 
7.324219e-2, 4.2196044e+1, -0.0000012151393, -5497.309, -1.1186888, 0.0, 0.0013979957, 0.00022643525, 0.00022643525, 0.0, 0.048828125, 0.048561893 
7.324219e-2, 4.2244607e+1, -0.0000036806316, -5447.0415, -1.8605235, 0.0, 0.0014936901, 0.00063181063, 0.00063181063, 0.0, 0.048828125, 0.048564307 
7.324219e-2, 4.229317e+1, -0.0000012288994, -5418.089, 1.1649693, 0.0, 0.0014313444, 0.00024925676, 0.00024925676, 0.0, 0.048828125, 0.0485657 
7.324219e-2, 4.234174e+1, -0.00000020728811, -5369.2725, 0.22624807, 0.0, 0.001484207, 0.000009326255, 0.000009326255, 0.0, 0.048828125, 0.048568044 
7.324219e-2, 4.2390308e+1, -0.0000001380836, -5341.9683, 0.04563062, 0.0, 0.0015623637, 0.00000025168902, 0.00000025168902, 0.0, 0.048828125, 0.04856936 
7.324219e-2, 4.2438877e+1, -0.00000033353743, -5290.3696, -0.685416, 0.0, 0.0012287698, 0.0000884684, 0.0000884684, 0.0, 0.048828125, 0.048571836 
7.324219e-2, 4.2487448e+1, -0.00089537824, -5260.9272, 30.053797, 0.0, 0.0014700316, 0.17078564, 0.17078564, 0.0, 0.048828125, 0.04857325 
7.324219e-2, 4.2536026e+1, -0.000005042151, -5210.804, 2.2454755, 0.0, 0.001729989, 0.0009625935, 0.0009625935, 0.0, 0.048828125, 0.048575662 
7.324219e-2, 4.25846e+1, -0.0000099092385, -5186.617, 3.1591115, 0.0, 0.0013704782, 0.0019142701, 0.0019142701, 0.0, 0.048828125, 0.048576824 
7.324219e-2, 4.263318e+1, -0.0000025100821, -5127.089, 1.6594378, 0.0, 0.0012752519, 0.00053458486, 0.00053458486, 0.0, 0.048828125, 0.048579685 
7.324219e-2, 4.268176e+1, -0.000020851043, -5111.7993, 4.583166, 0.0, 0.0015719977, 0.0040883464, 0.0040883464, 0.0, 0.048828125, 0.048580423 
7.324219e-2, 4.2730343e+1, -0.00003415887, -5052.245, 5.870424, 0.0, 0.0015038103, 0.0067869327, 0.0067869327, 0.0, 0.048828125, 0.048583288 
7.324219e-2, 4.2778924e+1, -0.0000023809569, -5037.267, 1.62164, 0.0, 0.001383828, 0.0005196712, 0.0005196712, 0.0, 0.048828125, 0.048584007 
7.324219e-2, 4.282751e+1, -0.00000091978063, -4969.869, -1.0437274, 0.0, 0.0015254433, 0.00021827448, 0.00021827448, 0.0, 0.048828125, 0.048587248 
7.324219e-2, 4.2876098e+1, -0.0000007822904, -4959.26, 0.50094754, 0.0, 0.001464054, 0.000049819704, 0.000049819704, 0.0, 0.048828125, 0.048587758 
7.324219e-2, 4.2924687e+1, -0.0000010195884, -4888.4756, 1.0334208, 0.0, 0.0013752148, 0.00021744493, 0.00021744493, 0.0, 0.048828125, 0.048591167 
7.324219e-2, 4.2973277e+1, -0.00000034410584, -4885.5186, -0.54734236, 0.0, 0.0015319141, 0.000060976643, 0.000060976643, 0.0, 0.048828125, 0.04859131 
7.324219e-2, 4.3021873e+1, -0.00000050645804, -4809.6714, -0.31781158, 0.0, 0.0014204103, 0.000020493771, 0.000020493771, 0.0, 0.048828125, 0.04859496 
7.324219e-2, 4.3070468e+1, -0.00000023092738, -4803.6733, 0.23663442, 0.0, 0.0014092377, 0.000011425955, 0.000011425955, 0.0, 0.048828125, 0.048595246 
7.324219e-2, 4.3119064e+1, -0.00000037619864, -4731.2695, 0.36333686, 0.0, 0.0015919952, 0.000027526181, 0.000027526181, 0.0, 0.048828125, 0.048598733 
7.324219e-2, 4.3167663e+1, -0.00000067780564, -4730.7563, 0.6462015, 0.0, 0.0013373257, 0.000087590604, 0.000087590604, 0.0, 0.048828125, 0.048598755 
7.324219e-2, 4.3216264e+1, -0.000005355737, -4653.4424, -2.320204, 0.0, 0.0015043445, 0.0011514965, 0.0011514965, 0.0, 0.048828125, 0.04860248 
7.324219e-2, 4.3264866e+1, -0.00015348353, -4647.2573, 12.43575, 0.0, 0.0017293976, 0.033123516, 0.033123516, 0.0, 0.048828125, 0.04860278 
7.324219e-2, 4.3313468e+1, -0.000008688714, -4576.6787, -2.9624324, 0.0, 0.0009237227, 0.0019088596, 0.0019088596, 0.0, 0.048828125, 0.048606176 
7.324219e-2, 4.3362075e+1, -0.0000005039887, -4567.684, 0.41661248, 0.0, 0.0013638228, 0.00003749469, 0.00003749469, 0.0, 0.048828125, 0.048606608 
7.324219e-2, 4.3410686e+1, -0.00000077274746, -4500.265, 0.52971685, 0.0, 0.0021788126, 0.00006157912, 0.00006157912, 0.0, 0.048828125, 0.048609857 
7.324219e-2, 4.3459296e+1, -0.00014864399, -4492.7676, 12.237357, 0.0, 0.0013794809, 0.033183105, 0.033183105, 0.0, 0.048828125, 0.048610218 
7.324219e-2, 4.3507907e+1, -0.000027283098, -4417.9097, -5.240712, 0.0, 0.00078743463, 0.0061894646, 0.0061894646, 0.0, 0.048828125, 0.048613824 
7.324219e-2, 4.3556523e+1, -0.0000013069601, -4409.785, 1.2488693, 0.0, 0.0016680445, 0.00035237797, 0.00035237797, 0.0, 0.048828125, 0.048614215 
7.324219e-2, 4.3605137e+1, -0.00000345707, -4346.7817, 1.8784578, 0.0, 0.0017899937, 0.00080831663, 0.00080831663, 0.0, 0.048828125, 0.04861725 
7.324219e-2, 4.3653756e+1, -0.0000009634385, -4327.948, -1.1520842, 0.0, 0.0015082919, 0.00030571723, 0.00030571723, 0.0, 0.048828125, 0.04861816 
7.324219e-2, 4.3702373e+1, -0.00000058168513, -4267.1187, 0.6876299, 0.0, 0.00097073766, 0.000110227236, 0.000110227236, 0.0, 0.048828125, 0.048621092 
7.324219e-2, 4.3750995e+1, -0.00000048875995, -4255.512, -0.32587013, 0.0, 0.0014571176, 0.000024465076, 0.000024465076, 0.0, 0.048828125, 0.048621655 
7.324219e-2, 4.379962e+1, -0.0000012827481, -4191.1074, -1.2503763, 0.0, 0.0019593616, 0.00037175487, 0.00037175487, 0.0, 0.048828125, 0.048624758 
7.324219e-2, 4.3848243e+1, -0.0000042902543, -4172.424, 2.0717998, 0.0, 0.0013399308, 0.0010244532, 0.0010244532, 0.0, 0.048828125, 0.04862566 
7.324219e-2, 4.3896875e+1, -0.0000027163676, -4108.2227, 1.5925719, 0.0, 0.0010805909, 0.0006146516, 0.0006146516, 0.0, 0.048828125, 0.048628755 
7.324219e-2, 4.39455e+1, -0.00000050669803, -4094.5022, 0.45329213, 0.0, 0.0019342365, 0.00004967614, 0.00004967614, 0.0, 0.048828125, 0.048629418 
7.324219e-2, 4.3994132e+1, -0.0000073766632, -4038.2725, 2.720579, 0.0, 0.0010357447, 0.001825473, 0.001825473, 0.0, 0.048828125, 0.04863213 
7.324219e-2, 4.4042766e+1, -0.000013154405, -4017.2588, 3.6401246, 0.0, 0.0012318321, 0.0032852383, 0.0032852383, 0.0, 0.048828125, 0.048633143 
7.324219e-2, 4.40914e+1, -0.0000007338183, -3958.0452, 0.90586996, 0.0, 0.0022073942, 0.00020659082, 0.00020659082, 0.0, 0.048828125, 0.048636 
7.324219e-2, 4.4140035e+1, -0.00008445355, -3941.7603, 9.220463, 0.0, 0.0013970727, 0.021483695, 0.021483695, 0.0, 0.048828125, 0.048636787 
7.324219e-2, 4.4188675e+1, -0.000055894045, -3878.4932, 7.500379, 0.0, 0.0007849476, 0.014448574, 0.014448574, 0.0, 0.048828125, 0.04863984 
7.324219e-2, 4.4237316e+1, -0.00000056849785, -3853.9407, 0.7616842, 0.0, 0.0019284697, 0.00014996904, 0.00014996904, 0.0, 0.048828125, 0.048641026 
7.324219e-2, 4.4285956e+1, -0.00000042490714, -3804.2097, 0.5976951, 0.0, 0.0013149703, 0.000093481445, 0.000093481445, 0.0, 0.048828125, 0.048643425 
7.324219e-2, 4.4334602e+1, -0.0000011183546, -3778.9817, -1.1780852, 0.0, 0.0013140844, 0.00036614586, 0.00036614586, 0.0, 0.048828125, 0.048644643 
7.324219e-2, 4.438325e+1, -0.000000824714, -3724.0645, 1.0068967, 0.0, 0.0017832924, 0.00027141575, 0.00027141575, 0.0, 0.048828125, 0.048647296 
7.324219e-2, 4.4431895e+1, -0.0000001441243, -3703.8538, -0.06547662, 0.0, 0.0013755577, 0.0000010133695, 0.0000010133695, 0.0, 0.048828125, 0.04864827 
7.324219e-2, 4.4480544e+1, -0.000000097482854, -3645.3066, -0.00857111, 0.0, 0.0012622013, -0.00000007732979, -0.00000007732979, 0.0, 0.048828125, 0.0486511 
7.324219e-2, 4.4529194e+1, -0.000000095832064, -3622.0098, -0.016234657, 0.0, 0.0016872534, -0.000000023064786, -0.000000023064786, 0.0, 0.048828125, 0.048652224 
7.324219e-2, 4.457785e+1, -0.00000062121615, -3565.8467, -0.9166907, 0.0, 0.001239481, 0.0002350372, 0.0002350372, 0.0, 0.048828125, 0.048654936 
7.324219e-2, 4.4626504e+1, -0.000002071344, -3552.4407, 1.4079244, 0.0, 0.0014986547, 0.00055592554, 0.00055592554, 0.0, 0.048828125, 0.048655584 
7.324219e-2, 4.4675162e+1, -0.000024526122, -3494.567, -4.9661946, 0.0, 0.0015466042, 0.0070330123, 0.0070330123, 0.0, 0.048828125, 0.048658382 
7.324219e-2, 4.472382e+1, -0.00050601875, -3464.2112, 22.559235, 0.0, 0.0014542714, 0.1463954, 0.1463954, 0.0, 0.048828125, 0.048659846 
7.324219e-2, 4.4772485e+1, -0.00000021884746, -3400.9568, -0.51182884, 0.0, 0.0013660946, 0.00007680911, 0.00007680911, 0.0, 0.048828125, 0.048662905 
7.324219e-2, 4.4821143e+1, -0.0000005865337, -3398.1497, 0.8116114, 0.0, 0.0014156615, 0.0001932581, 0.0001932581, 0.0, 0.048828125, 0.04866304 
7.324219e-2, 4.4869807e+1, -0.0000014719561, -3321.5002, -1.2433811, 0.0, 0.0015629262, 0.00046397932, 0.00046397932, 0.0, 0.048828125, 0.048666745 
7.324219e-2, 4.4918478e+1, -0.00013296075, -3315.957, 11.56225, 0.0, 0.0016297147, 0.0401824, 0.0401824, 0.0, 0.048828125, 0.048667014 
7.324219e-2, 4.4967145e+1, -0.00008809309, -3249.7217, 9.409867, 0.0, 0.0011219892, 0.027158815, 0.027158815, 0.0, 0.048828125, 0.048670217 
7.324219e-2, 4.5015815e+1, -0.000001570018, -3247.1216, -1.2527814, 0.0, 0.0011423621, 0.0004817691, 0.0004817691, 0.0, 0.048828125, 0.04867034 
7.324219e-2, 4.5064488e+1, -0.00001520348, -3168.6768, -3.9093025, 0.0, 0.002201741, 0.0048078266, 0.0048078266, 0.0, 0.048828125, 0.048674136 
7.324219e-2, 4.5113164e+1, -0.0000018667308, -3159.8738, 1.3880678, 0.0, 0.0016142412, 0.0006078829, 0.0006078829, 0.0, 0.048828125, 0.04867456 
7.324219e-2, 4.5161837e+1, -0.0000013777097, -3092.716, 1.134341, 0.0, 0.00056228234, 0.00041467388, 0.00041467388, 0.0, 0.048828125, 0.04867781 
7.324219e-2, 4.5210516e+1, -0.0000003494986, -3083.809, -0.47604758, 0.0, 0.0016371709, 0.00007313796, 0.00007313796, 0.0, 0.048828125, 0.04867824 
7.324219e-2, 4.52592e+1, -0.0000001645437, -3011.6416, -0.15843908, 0.0, 0.0019763284, 0.0000081707585, 0.0000081707585, 0.0, 0.048828125, 0.048681732 
7.324219e-2, 4.5307878e+1, -0.00000089641054, -3007.901, -1.099931, 0.0, 0.0009936168, 0.000401327, 0.000401327, 0.0, 0.048828125, 0.048681915 
7.324219e-2, 4.5356563e+1, -0.0000002824229, -2935.3997, 0.107921764, 0.0, 0.001728707, 0.0000036853871, 0.0000036853871, 0.0, 0.048828125, 0.048685424 
7.324219e-2, 4.5405248e+1, -0.00000085050664, -2931.0903, -1.0683129, 0.0, 0.0015549292, 0.00038852415, 0.00038852415, 0.0, 0.048828125, 0.048685633 
7.324219e-2, 4.5453933e+1, -0.0003229942, -2854.9238, 18.014458, 0.0, 0.0010900501, 0.113343015, 0.113343015, 0.0, 0.048828125, 0.048689317 
7.324219e-2, 4.5502624e+1, -0.0000050645317, -2848.1409, -2.2500415, 0.0, 0.0016078798, 0.0017724752, 0.0017724752, 0.0, 0.048828125, 0.04868965 
7.324219e-2, 4.5551315e+1, -0.0000002025074, -2779.0085, 0.06402161, 0.0, 0.0015716034, 0.0000012723954, 0.0000012723954, 0.0, 0.048828125, 0.048692994 
7.324219e-2, 4.560001e+1, -0.0000005304983, -2770.1816, -0.3391829, 0.0, 0.0011149758, 0.00004099929, 0.00004099929, 0.0, 0.048828125, 0.048693422 
7.324219e-2, 4.5648706e+1, -0.0000007630575, -2698.343, 0.94361526, 0.0, 0.0019074737, 0.00032922078, 0.00032922078, 0.0, 0.048828125, 0.0486969 
7.324219e-2, 4.56974e+1, -0.0000005387512, -2696.3203, -0.8917221, 0.0, 0.0013754923, 0.0002943699, 0.0002943699, 0.0, 0.048828125, 0.048697 
7.324219e-2, 4.57461e+1, -0.00000018196194, -2621.3916, 0.09674612, 0.0, 0.0012503784, 0.000003388589, 0.000003388589, 0.0, 0.048828125, 0.048700627 
7.324219e-2, 4.57948e+1, -0.0000018892395, -2615.5356, 1.3767306, 0.0, 0.0014968523, 0.0007227755, 0.0007227755, 0.0, 0.048828125, 0.048700914 
7.324219e-2, 4.5843503e+1, -0.00000036988297, -2540.321, -0.77008444, 0.0, 0.0016196471, 0.00023307698, 0.00023307698, 0.0, 0.048828125, 0.048704557 
7.324219e-2, 4.589221e+1, -0.000000445801, -2538.6938, -0.76751924, 0.0, 0.0011925992, 0.00023159705, 0.00023159705, 0.0, 0.048828125, 0.048704635 
7.324219e-2, 4.5940915e+1, -0.0000017486663, -2471.9277, -1.305324, 0.0, 0.0017464502, 0.0006875394, 0.0006875394, 0.0, 0.048828125, 0.048707873 
7.324219e-2, 4.5989624e+1, -0.0000012096235, -2454.2285, 1.0601442, 0.0, 0.0014545154, 0.00045673692, 0.00045673692, 0.0, 0.048828125, 0.04870873 
7.324219e-2, 4.6038333e+1, -0.000012683424, -2388.4255, 3.5673592, 0.0, 0.0012663498, 0.005315522, 0.005315522, 0.0, 0.048828125, 0.04871192 
7.324219e-2, 4.6087044e+1, -0.0000016494289, -2374.2266, -1.2704911, 0.0, 0.0014610532, 0.00067821296, 0.00067821296, 0.0, 0.048828125, 0.048712607 
7.324219e-2, 4.6135762e+1, -0.00001970391, -2305.924, 4.448359, 0.0, 0.0016871216, 0.008561594, 0.008561594, 0.0, 0.048828125, 0.04871592 
7.324219e-2, 4.6184474e+1, -0.00033836064, -2296.8484, 18.43001, 0.0, 0.0010393553, 0.14753534, 0.14753534, 0.0, 0.048828125, 0.04871636 
7.324219e-2, 4.6233192e+1, -0.00023990398, -2249.49, 15.517661, 0.0, 0.0019298331, 0.10680052, 0.10680052, 0.0, 0.048828125, 0.048718657 
7.324219e-2, 4.6281913e+1, -0.0000009973896, -2213.6516, 1.0180093, 0.0, 0.0014925431, 0.0004671624, 0.0004671624, 0.0, 0.048828125, 0.048720393 
7.324219e-2, 4.6330634e+1, -0.00002275881, -2169.985, -4.78305, 0.0, 0.0010708191, 0.010519919, 0.010519919, 0.0, 0.048828125, 0.048722513 
7.324219e-2, 4.6379358e+1, -0.000034525387, -2126.987, 5.883379, 0.0, 0.0016083717, 0.016239146, 0.016239146, 0.0, 0.048828125, 0.0487246 
7.324219e-2, 4.6428084e+1, -0.000049472605, -2099.3955, 7.0441546, 0.0, 0.0015795657, 0.023585692, 0.023585692, 0.0, 0.048828125, 0.048725937 
7.324219e-2, 4.647681e+1, -0.0000030206277, -2045.1852, -1.7307147, 0.0, 0.0012569391, 0.001461576, 0.001461576, 0.0, 0.048828125, 0.048728567 
7.324219e-2, 4.6525538e+1, -0.0000014517763, -2019.6309, -1.2181532, 0.0, 0.0017642318, 0.00073328486, 0.00073328486, 0.0, 0.048828125, 0.048729807 
7.324219e-2, 4.657427e+1, -0.0000016440332, -1966.9235, 1.2905393, 0.0, 0.0010481018, 0.0008451052, 0.0008451052, 0.0, 0.048828125, 0.048732366 
7.324219e-2, 4.6623003e+1, -0.00000076800444, -1949.6755, -0.8213609, 0.0, 0.0017861326, 0.00034525554, 0.00034525554, 0.0, 0.048828125, 0.048733205 
7.324219e-2, 4.6671736e+1, -0.00000022222626, -1876.441, 0.27707547, 0.0, 0.0019708646, 0.000040690764, 0.000040690764, 0.0, 0.048828125, 0.04873676 
7.324219e-2, 4.6720475e+1, -0.0000002126875, -1876.4795, -0.07991031, 0.0, 0.0005364081, 0.0000031903112, 0.0000031903112, 0.0, 0.048828125, 0.04873676 
7.324219e-2, 4.6769214e+1, -0.00000023548706, -1798.3643, -0.098844826, 0.0, 0.0013250199, 0.000005197394, 0.000005197394, 0.0, 0.048828125, 0.04874055 
7.324219e-2, 4.6817955e+1, -0.0000013330734, -1802.0785, 1.1630702, 0.0, 0.0023983316, 0.0007493178, 0.0007493178, 0.0, 0.048828125, 0.04874037 
7.324219e-2, 4.6866694e+1, -0.000002798041, -1712.6238, -1.666553, 0.0, 0.0010399375, 0.001618922, 0.001618922, 0.0, 0.048828125, 0.048744716 
7.324219e-2, 4.691544e+1, -0.0000042166207, -1725.8538, 2.057411, 0.0, 0.001393677, 0.0024484443, 0.0024484443, 0.0, 0.048828125, 0.04874407 
7.324219e-2, 4.6964186e+1, -0.0000072331295, -1636.7644, 2.693391, 0.0, 0.0016976048, 0.004424887, 0.004424887, 0.0, 0.048828125, 0.0487484 
7.324219e-2, 4.7012937e+1, -0.000010190473, -1659.6715, -3.1904366, 0.0, 0.0011358109, 0.006122859, 0.006122859, 0.0, 0.048828125, 0.048747286 
7.324219e-2, 4.7061688e+1, -0.00000005960603, -1536.0143, 0.21232402, 0.0, 0.0017865112, 0.000029290048, 0.000029290048, 0.0, 0.048828125, 0.048753295 
7.324219e-2, 4.7110438e+1, -0.000005195071, -1584.1117, 2.2820477, 0.0, 0.0012698794, 0.003282282, 0.003282282, 0.0, 0.048828125, 0.04875096 
7.324219e-2, 4.7159192e+1, -0.000005648481, -1469.2527, -2.3780994, 0.0, 0.0012065929, 0.0038434798, 0.0038434798, 0.0, 0.048828125, 0.048756544 
7.324219e-2, 4.7207946e+1, -0.000000052945484, -1513.5139, 0.43502998, 0.0, 0.0019657884, 0.00012498791, 0.00012498791, 0.0, 0.048828125, 0.04875439 
7.324219e-2, 4.7256705e+1, -0.0000022356667, -1378.4294, 1.5028499, 0.0, 0.0014502665, 0.0016362634, 0.0016362634, 0.0, 0.048828125, 0.048760958 
7.324219e-2, 4.7305465e+1, -0.000003481613, -1422.9567, 1.8728156, 0.0, 0.0011263217, 0.0024614087, 0.0024614087, 0.0, 0.048828125, 0.048758794 
7.324219e-2, 4.7354224e+1, -0.0000070542005, -1310.7211, -2.6603594, 0.0, 0.0015805725, 0.0053926324, 0.0053926324, 0.0, 0.048828125, 0.04876425 
7.324219e-2, 4.740299e+1, -0.000030020617, -1361.2274, -5.4821005, 0.0, 0.0014804351, 0.022047803, 0.022047803, 0.0, 0.048828125, 0.048761792 
7.324219e-2, 4.7451755e+1, -0.000018260247, -1227.6901, 4.277445, 0.0, 0.0016899834, 0.014884779, 0.014884779, 0.0, 0.048828125, 0.04876829 
7.324219e-2, 4.7500524e+1, -0.00011875472, -1292.4183, -10.909395, 0.0, 0.0011301519, 0.091961674, 0.091961674, 0.0, 0.048828125, 0.04876514 
7.324219e-2, 4.754929e+1, -0.008412026, -1148.5115, 91.804665, 0.0, 0.0013902308, 7.2836213, 7.2836213, 0.0, 0.048828125, 0.04877214 
7.324219e-2, 4.759806e+1, -0.000022524526, -1180.748, -4.7508273, 0.0, 0.0017552217, 0.019092472, 0.019092472, 0.0, 0.048828125, 0.048770573 
7.324219e-2, 4.7646835e+1, -0.00000020056974, -1065.3802, 0.47100496, 0.0, 0.0015896714, 0.00020803082, 0.00020803082, 0.0, 0.048828125, 0.048776187 
7.324219e-2, 4.769561e+1, -0.000013999656, -1107.9498, 3.7437477, 0.0, 0.001037574, 0.0126359295, 0.0126359295, 0.0, 0.048828125, 0.048774116 
7.324219e-2, 4.7744384e+1, -0.0000035541811, -999.87024, -1.8891414, 0.0, 0.0016653131, 0.0035657515, 0.0035657515, 0.0, 0.048828125, 0.048779376 
7.324219e-2, 4.7793162e+1, -0.0000083417235, -1032.3644, -2.8886693, 0.0, 0.0015018667, 0.008074409, 0.008074409, 0.0, 0.048828125, 0.048777796 
7.324219e-2, 4.7841945e+1, -0.0000029581095, -923.1861, -1.7282133, 0.0, 0.001189327, 0.0032322628, 0.0032322628, 0.0, 0.048828125, 0.04878311 
7.324219e-2, 4.789073e+1, -0.000015630321, -942.985, 3.956973, 0.0, 0.0017435391, 0.016588408, 0.016588408, 0.0, 0.048828125, 0.048782147 
7.324219e-2, 4.793951e+1, -0.00000423387, -859.96814, 2.06018, 0.0, 0.0017913495, 0.0049312017, 0.0049312017, 0.0, 0.048828125, 0.04878619 
7.324219e-2, 4.7988296e+1, -0.000020251646, -864.97394, -4.5036454, 0.0, 0.0008431255, 0.02342817, 0.02342817, 0.0, 0.048828125, 0.048785944 
7.324219e-2, 4.8037088e+1, -0.00000010269365, -771.23083, -0.40251103, 0.0, 0.0012879436, 0.00020997069, 0.00020997069, 0.0, 0.048828125, 0.04879051 
7.324219e-2, 4.8085877e+1, -0.0000018326601, -781.8442, 1.3698102, 0.0, 0.001991504, 0.0023981011, 0.0023981011, 0.0, 0.048828125, 0.048789993 
7.324219e-2, 4.813467e+1, -0.00000033366274, -711.0997, 0.5591518, 0.0, 0.0020087862, 0.00043933824, 0.00043933824, 0.0, 0.048828125, 0.04879344 
7.324219e-2, 4.818346e+1, -0.0000017813924, -699.60626, 1.3298742, 0.0, 0.0004516186, 0.002526153, 0.002526153, 0.0, 0.048828125, 0.048794 
7.324219e-2, 4.8232257e+1, -0.0000041505805, -621.80597, -2.0353265, 0.0, 0.0008857424, 0.0066579105, 0.0066579105, 0.0, 0.048828125, 0.04879779 
7.324219e-2, 4.8281056e+1, -0.000047326997, -605.00433, 6.8822007, 0.0, 0.0028757253, 0.078230724, 0.078230724, 0.0, 0.048828125, 0.04879861 
7.324219e-2, 4.8329857e+1, -0.00033931053, -565.60693, 18.429705, 0.0, 0.001694538, 0.59953725, 0.59953725, 0.0, 0.048828125, 0.04880053 
7.324219e-2, 4.8378658e+1, -0.00010866356, -536.27374, 10.429971, 0.0, 0.00016621691, 0.20266686, 0.20266686, 0.0, 0.048828125, 0.048801962 
7.324219e-2, 4.842746e+1, -0.0000007536026, -488.7807, -0.8927953, 0.0, 0.0017000063, 0.00163, 0.00163, 0.0, 0.048828125, 0.048804276 
7.324219e-2, 4.8476264e+1, -0.0000018121389, -455.61075, -1.3405997, 0.0, 0.0020254874, 0.0039427653, 0.0039427653, 0.0, 0.048828125, 0.048805892 
7.324219e-2, 4.8525074e+1, -0.00003423005, -402.41403, 5.8548164, 0.0, 0.0011809228, 0.085130855, 0.085130855, 0.0, 0.048828125, 0.04880849 
7.324219e-2, 4.8573884e+1, -0.00009318042, -371.09628, 9.655448, 0.0, 0.0014424052, 0.25095937, 0.25095937, 0.0, 0.048828125, 0.048810016 
7.324219e-2, 4.8622692e+1, 0.00000004832856, -337.62152, -0.15554912, 0.0, 0.0016391618, 0.000071712966, 0.000071712966, 0.0, 0.048828125, 0.048811648 
7.324219e-2, 4.8671505e+1, 0.000000020373978, -268.60028, -0.04493723, 0.0, 0.0012360133, 0.00000753844, 0.00000753844, 0.0, 0.048828125, 0.048815016 
7.324219e-2, 4.872032e+1, -0.00004257976, -284.65625, 6.5275917, 0.0, 0.0014514482, 0.1495662, 0.1495662, 0.0, 0.048828125, 0.048814233 
7.324219e-2, 4.8769137e+1, -0.000012871778, -201.94864, 3.5865345, 0.0, 0.0017600469, 0.06366261, 0.06366261, 0.0, 0.048828125, 0.048818268 
7.324219e-2, 4.8817956e+1, -0.0000018714483, -182.15195, -1.3598037, 0.0, 0.00078152854, 0.010148791, 0.010148791, 0.0, 0.048828125, 0.048819233 
7.324219e-2, 4.8866776e+1, -0.0000030309632, -150.63715, -1.7428572, 0.0, 0.0022247408, 0.020158961, 0.020158961, 0.0, 0.048828125, 0.04882077 
7.324219e-2, 4.8915595e+1, -0.00000047959793, -81.440285, 0.71688414, 0.0, 0.0014539241, 0.0063094576, 0.0063094576, 0.0, 0.048828125, 0.04882415 
7.324219e-2, 4.8964423e+1, -0.000005248099, -68.902954, 2.2907836, 0.0, 0.0009709359, 0.07607135, 0.07607135, 0.0, 0.048828125, 0.04882476 
7.324219e-2, 4.9013245e+1, -0.0000010328448, -10.805635, -0.97506315, 0.0, 0.0016547118, 0.0872803, 0.0872803, 0.0, 0.048828125, 0.048827596 
