coord_x,coord_y,stress_xx,stress_yy,tau_xy,velocity_x,velocity_y,stress_1,eps,damage,lx,ly
4.8828125e-2, 4.698746e-2, -0.0000000023649942, -39934.625, -0.0077388743, 0.0, 0.0000013319715, -0.00000000086583896, -0.00000000086583896, 0.0, 0.09765625, 0.093974605 
4.8828125e-2, 1.4096238e-1, 0.000000022614609, -39936.42, -0.023216702, 0.0, 0.0000039959014, 0.000000036110578, 0.000000036110578, 0.0, 0.09765625, 0.09397445 
4.8828125e-2, 2.3494416e-1, -0.000000010057132, -39778.902, -0.037237518, 0.0, 0.000018135766, 0.00000002480374, 0.00000002480374, 0.0, 0.09765625, 0.093988165 
4.8828125e-2, 3.289328e-1, -0.000000018000001, -39779.188, -0.050239302, 0.0, 0.000014723008, 0.000000045452907, 0.000000045452907, 0.0, 0.09765625, 0.09398814 
4.8828125e-2, 4.2292827e-1, -0.00000001137516, -39622.227, -0.061052226, 0.0, 0.000027011385, 0.000000082698534, 0.000000082698534, 0.0, 0.09765625, 0.09400182 
4.8828125e-2, 5.1693046e-1, -0.000000006505393, -39622.918, -0.069053605, 0.0, 0.000027188044, 0.00000011383963, 0.00000011383963, 0.0, 0.09765625, 0.09400176 
4.8828125e-2, 6.109396e-1, -0.00000001555278, -39465.66, -0.07623204, 0.0, 0.000039852912, 0.00000013169483, 0.00000013169483, 0.0, 0.09765625, 0.09401547 
4.8828125e-2, 7.0495546e-1, -0.0000000349732, -39466.543, -0.07943164, 0.0, 0.00003775364, 0.00000012489181, 0.00000012489181, 0.0, 0.09765625, 0.09401539 
4.8828125e-2, 7.989782e-1, -0.000000023211513, -39309.156, -0.08079754, 0.0, 0.000053351996, 0.00000014286343, 0.00000014286343, 0.0, 0.09765625, 0.09402912 
4.8828125e-2, 8.9300776e-1, 0.0000000035055705, -39310.105, -0.07962008, 0.0, 0.00005160515, 0.00000016477134, 0.00000016477134, 0.0, 0.09765625, 0.09402904 
4.8828125e-2, 9.8704416e-1, 0.000000004987181, -39152.69, -0.07709452, 0.0, 0.00006484794, 0.00000015678961, 0.00000015678961, 0.0, 0.09765625, 0.09404277 
4.8828125e-2, 1.0810874e+0, 0.000000011304206, -39153.625, -0.071196474, 0.0, 0.00006329801, 0.00000014076795, 0.00000014076795, 0.0, 0.09765625, 0.09404269 
4.8828125e-2, 1.1751374e+0, -0.000000007797191, -38996.285, -0.06509475, 0.0, 0.000076171484, 0.000000100859324, 0.000000100859324, 0.0, 0.09765625, 0.09405643 
4.8828125e-2, 1.2691942e+0, -0.00000001310947, -38997.094, -0.056602906, 0.0, 0.00007401652, 0.00000006904156, 0.00000006904156, 0.0, 0.09765625, 0.09405635 
4.8828125e-2, 1.3632579e+0, 0.000000004769838, -38839.918, -0.046720445, 0.0, 0.00008446867, 0.000000060972525, 0.000000060972525, 0.0, 0.09765625, 0.09407008 
4.8828125e-2, 1.4573283e+0, -0.000000007515261, -38840.73, -0.034390956, 0.0, 0.0000843644, 0.000000022933818, 0.000000022933818, 0.0, 0.09765625, 0.09407001 
4.8828125e-2, 1.5514056e+0, 0.000000004394511, -38683.25, -0.022029515, 0.0, 0.00009138335, 0.000000016945705, 0.000000016945705, 0.0, 0.09765625, 0.09408377 
4.8828125e-2, 1.6454898e+0, -0.0000000026415754, -38684.344, -0.009772449, 0.0, 0.0000910056, -0.00000000016734703, -0.00000000016734703, 0.0, 0.09765625, 0.094083674 
4.8828125e-2, 1.739581e+0, 0.0000000050967226, -38526.875, 0.0027997217, 0.0, 0.00009806316, 0.000000005289621, 0.000000005289621, 0.0, 0.09765625, 0.094097435 
4.8828125e-2, 1.8336788e+0, 0.000000011863505, -38527.848, 0.016460814, 0.0, 0.000096700365, 0.000000018895662, 0.000000018895662, 0.0, 0.09765625, 0.09409735 
4.8828125e-2, 1.9277833e+0, 0.0000000008827215, -38370.445, 0.029234217, 0.0, 0.00010417364, 0.000000023152097, 0.000000023152097, 0.0, 0.09765625, 0.094111115 
4.8828125e-2, 2.0218949e+0, -0.000000015293041, -38371.344, 0.03302662, 0.0, 0.000101026155, 0.0000000131331035, 0.0000000131331035, 0.0, 0.09765625, 0.09411103 
4.8828125e-2, 2.1160133e+0, -0.00000002148681, -38214.035, 0.036852624, 0.0, 0.000111225956, 0.00000001405715, 0.00000001405715, 0.0, 0.09765625, 0.094124794 
4.8828125e-2, 2.2101386e+0, -0.00000000024488186, -38215.0, 0.054756284, 0.0, 0.000104287494, 0.00000007820199, 0.00000007820199, 0.0, 0.09765625, 0.09412471 
4.8828125e-2, 2.3042706e+0, -0.0000000022808389, -38057.46, 0.0651306, 0.0, 0.00011708584, 0.00000010918302, 0.00000010918302, 0.0, 0.09765625, 0.0941385 
4.8828125e-2, 2.3984094e+0, 0.0000000004973946, -38058.535, 0.022808084, 0.0, 0.00010942282, 0.0000000141590135, 0.0000000141590135, 0.0, 0.09765625, 0.094138406 
4.8828125e-2, 2.4925551e+0, -0.000000009074792, -37901.0, -0.013668326, 0.0, 0.00012760922, -0.00000000414002, -0.00000000414002, 0.0, 0.09765625, 0.0941522 
4.8828125e-2, 2.5867078e+0, -0.000000009430873, -37902.418, 0.07388981, 0.0, 0.00011385663, 0.00000013461977, 0.00000013461977, 0.0, 0.09765625, 0.09415207 
4.8828125e-2, 2.6808673e+0, -0.000000024810921, -37744.434, 0.11422877, 0.0, 0.00013697855, 0.00000032089156, 0.00000032089156, 0.0, 0.09765625, 0.094165914 
4.8828125e-2, 2.7750334e+0, -0.000000015533853, -37745.48, -0.12264122, 0.0, 0.00012445854, 0.0000003829482, 0.0000003829482, 0.0, 0.09765625, 0.094165824 
4.8828125e-2, 2.8692067e+0, -0.00000017816144, -37587.66, -0.4440551, 0.0, 0.00015418221, 0.0000050678427, 0.0000050678427, 0.0, 0.09765625, 0.09417965 
4.8828125e-2, 2.9633868e+0, -0.00000028328452, -37589.4, -0.53619206, 0.0, 0.00013391502, 0.0000073652045, 0.0000073652045, 0.0, 0.09765625, 0.094179496 
4.8828125e-2, 3.0575734e+0, -0.00000013066716, -37431.85, -0.33724442, 0.0, 0.00017251339, 0.0000029077564, 0.0000029077564, 0.0, 0.09765625, 0.09419331 
4.8828125e-2, 3.1517673e+0, -0.000000016054399, -37432.957, -0.115804516, 0.0, 0.00015104035, 0.00000034220284, 0.00000034220284, 0.0, 0.09765625, 0.09419321 
4.8828125e-2, 3.2459676e+0, -0.00000001296981, -37275.277, -0.0878421, 0.0, 0.00018815193, 0.00000019403524, 0.00000019403524, 0.0, 0.09765625, 0.09420704 
4.8828125e-2, 3.3401754e+0, -0.000000005238517, -37275.87, -0.113946006, 0.0, 0.00016744045, 0.00000034306868, 0.00000034306868, 0.0, 0.09765625, 0.09420699 
4.8828125e-2, 3.4343892e+0, -0.000000018620405, -37119.566, -0.11404179, 0.0, 0.00021069033, 0.0000003317473, 0.0000003317473, 0.0, 0.09765625, 0.094220705 
4.8828125e-2, 3.528611e+0, -0.00000001079231, -37118.69, -0.12243867, 0.0, 0.00018338855, 0.0000003930836, 0.0000003930836, 0.0, 0.09765625, 0.09422078 
4.8828125e-2, 3.6228386e+0, -0.00000001846783, -36963.844, -0.12173352, 0.0, 0.00021827173, 0.00000038243888, 0.00000038243888, 0.0, 0.09765625, 0.09423438 
4.8828125e-2, 3.7170738e+0, -0.000000004691395, -36961.84, -0.122135736, 0.0, 0.00019939884, 0.00000039888982, 0.00000039888982, 0.0, 0.09765625, 0.09423455 
4.8828125e-2, 3.811315e+0, -0.000000013159701, -36807.945, -0.124682434, 0.0, 0.0002330017, 0.00000040917803, 0.00000040917803, 0.0, 0.09765625, 0.094248064 
4.8828125e-2, 3.905564e+0, -0.000000020855898, -36804.9, -0.11516026, 0.0, 0.00021087498, 0.00000033947435, 0.00000033947435, 0.0, 0.09765625, 0.09424833 
4.8828125e-2, 3.9998192e+0, -0.0000000076738225, -36652.27, -0.076734744, 0.0, 0.00023460877, 0.00000015297701, 0.00000015297701, 0.0, 0.09765625, 0.09426174 
4.8828125e-2, 4.0940818e+0, -0.000000011356427, -36647.64, -0.060409028, 0.0, 0.00022005268, 0.000000088220986, 0.000000088220986, 0.0, 0.09765625, 0.09426215 
4.8828125e-2, 4.1883507e+0, -0.000000015781985, -36496.645, -0.10221507, 0.0, 0.00024331885, 0.000000270491, 0.000000270491, 0.0, 0.09765625, 0.09427542 
4.8828125e-2, 4.2826277e+0, -0.000000010321088, -36490.53, -0.073111586, 0.0, 0.0002302048, 0.00000013616227, 0.00000013616227, 0.0, 0.09765625, 0.09427596 
4.8828125e-2, 4.3769097e+0, -0.0000000007494006, -36341.14, 0.07812266, 0.0, 0.00023954187, 0.00000016719423, 0.00000016719423, 0.0, 0.09765625, 0.094289094 
4.8828125e-2, 4.4712e+0, -0.000000021644219, -36333.195, 0.098136835, 0.0, 0.0002340899, 0.00000024342444, 0.00000024342444, 0.0, 0.09765625, 0.094289795 
4.8828125e-2, 4.5654964e+0, 0.0000000035507304, -36185.336, -0.108335204, 0.0, 0.00024971823, 0.00000032789103, 0.00000032789103, 0.0, 0.09765625, 0.0943028 
4.8828125e-2, 4.6598005e+0, -0.000000020474026, -36176.285, -0.06846693, 0.0, 0.00024611093, 0.000000109102984, 0.000000109102984, 0.0, 0.09765625, 0.0943036 
4.8828125e-2, 4.7541103e+0, -0.00000007347586, -36030.203, 0.23969084, 0.0, 0.00024234926, 0.000001521068, 0.000001521068, 0.0, 0.09765625, 0.09431645 
4.8828125e-2, 4.8484284e+0, -0.000000018374319, -36018.215, 0.08998851, 0.0, 0.0002508132, 0.0000002064553, 0.0000002064553, 0.0, 0.09765625, 0.09431751 
4.8828125e-2, 4.9427518e+0, -0.00000023117174, -35873.65, -0.48625326, 0.0, 0.00025557668, 0.0000063598054, 0.0000063598054, 0.0, 0.09765625, 0.09433024 
4.8828125e-2, 5.037084e+0, -0.000025071924, -35861.83, -5.1766257, 0.0, 0.00025950547, 0.00072216976, 0.00072216976, 0.0, 0.09765625, 0.09433128 
4.8828125e-2, 5.131421e+0, -0.0000001365494, -35719.703, -0.37271366, 0.0, 0.00025768564, 0.000003752495, 0.000003752495, 0.0, 0.09765625, 0.0943438 
4.8828125e-2, 5.225767e+0, -0.0000000064651835, -35704.86, -0.0139986295, 0.0, 0.00026792113, -0.0000000009822543, -0.0000000009822543, 0.0, 0.09765625, 0.09434511 
4.8828125e-2, 5.3201175e+0, -0.000000004478054, -35568.11, 0.07035018, 0.0, 0.00027255615, 0.0000001346707, 0.0000001346707, 0.0, 0.09765625, 0.094357155 
4.8828125e-2, 5.4144764e+0, -0.0000000026316775, -35551.7, 0.076614045, 0.0, 0.00026762212, 0.00000016247213, 0.00000016247213, 0.0, 0.09765625, 0.09435861 
4.8828125e-2, 5.508841e+0, 0.000000002499015, -35412.258, 0.07617465, 0.0, 0.00028709252, 0.00000016635022, 0.00000016635022, 0.0, 0.09765625, 0.0943709 
4.8828125e-2, 5.603214e+0, -0.000000020070347, -35394.62, 0.08381759, 0.0, 0.00028735845, 0.00000017842103, 0.00000017842103, 0.0, 0.09765625, 0.09437245 
4.8828125e-2, 5.697592e+0, -0.00000002005176, -35256.555, -0.14165339, 0.0, 0.00029954407, 0.00000054908014, 0.00000054908014, 0.0, 0.09765625, 0.09438463 
4.8828125e-2, 5.791979e+0, -0.000000010740221, -35237.207, 0.094333194, 0.0, 0.0002728658, 0.0000002418019, 0.0000002418019, 0.0, 0.09765625, 0.09438634 
4.8828125e-2, 5.8863705e+0, -0.000000021742478, -35101.008, 0.039920792, 0.0, 0.0003155683, 0.000000023661414, 0.000000023661414, 0.0, 0.09765625, 0.09439836 
4.8828125e-2, 5.980771e+0, 0.0000000020865396, -35079.727, -0.032971904, 0.0, 0.00031731208, 0.000000033076503, 0.000000033076503, 0.0, 0.09765625, 0.094400235 
4.8828125e-2, 6.0751766e+0, 0.0000000005789721, -34945.406, 0.03017932, 0.0, 0.0003296016, 0.000000026644557, 0.000000026644557, 0.0, 0.09765625, 0.09441209 
4.8828125e-2, 6.1695915e+0, -0.00000005232119, -34922.72, 0.20149241, 0.0, 0.00026272298, 0.0000011102165, 0.0000011102165, 0.0, 0.09765625, 0.09441409 
4.8828125e-2, 6.2640107e+0, -0.0000000010497037, -34789.066, 0.03548005, 0.0, 0.0003406976, 0.0000000351356, 0.0000000351356, 0.0, 0.09765625, 0.094425894 
4.8828125e-2, 6.358439e+0, -0.00000016514474, -34765.195, -0.37806723, 0.0, 0.00035530454, 0.0000039462975, 0.0000039462975, 0.0, 0.09765625, 0.094428 
4.8828125e-2, 6.452872e+0, 0.0000000030703038, -34634.5, -0.06751083, 0.0, 0.00035888274, 0.00000013466342, 0.00000013466342, 0.0, 0.09765625, 0.09443955 
4.8828125e-2, 6.547314e+0, -0.00000048060355, -34608.594, 0.701109, 0.0, 0.00024340261, 0.000013722623, 0.000013722623, 0.0, 0.09765625, 0.094441846 
4.8828125e-2, 6.641761e+0, -0.000000027469156, -34476.484, 0.13089308, 0.0, 0.00036673067, 0.00000046948117, 0.00000046948117, 0.0, 0.09765625, 0.09445352 
4.8828125e-2, 6.736218e+0, -0.000001076793, -34450.355, -1.0474439, 0.0, 0.0003855551, 0.000030770163, 0.000030770163, 0.0, 0.09765625, 0.09445583 
4.8828125e-2, 6.8306786e+0, -0.000000024862908, -34324.633, -0.15904024, 0.0, 0.0003785723, 0.0000007120325, 0.0000007120325, 0.0, 0.09765625, 0.09446695 
4.8828125e-2, 6.925148e+0, -0.0000010060037, -34292.78, 1.024593, 0.0, 0.00026601856, 0.000029606585, 0.000029606585, 0.0, 0.09765625, 0.09446976 
4.8828125e-2, 7.019623e+0, -0.0000000048320645, -34166.152, -0.030231506, 0.0, 0.00040399033, 0.00000002192246, 0.00000002192246, 0.0, 0.09765625, 0.09448097 
4.8828125e-2, 7.1141064e+0, 0.0000000033563992, -34136.97, -0.030259777, 0.0, 0.00037468254, 0.000000030173396, 0.000000030173396, 0.0, 0.09765625, 0.09448355 
4.8828125e-2, 7.2085947e+0, -0.000007170863, -34015.117, 2.6763074, 0.0, 0.00038916362, 0.00020340082, 0.00020340082, 0.0, 0.09765625, 0.094494335 
4.8828125e-2, 7.3030925e+0, -0.00027438873, -33978.016, -17.023342, 0.0, 0.00035159398, 0.008254482, 0.008254482, 0.0, 0.09765625, 0.09449762 
4.8828125e-2, 7.3975945e+0, -0.0000050247163, -33853.293, 2.2512343, 0.0, 0.00041501637, 0.00014468172, 0.00014468172, 0.0, 0.09765625, 0.09450866 
4.8828125e-2, 7.4921066e+0, -0.00000013567349, -33819.086, 0.37358704, 0.0, 0.0003729992, 0.0000039911974, 0.0000039911974, 0.0, 0.09765625, 0.094511695 
4.8828125e-2, 7.586622e+0, 0.0000000036027374, -33701.496, 0.030559996, 0.0, 0.000421741, 0.000000031308446, 0.000000031308446, 0.0, 0.09765625, 0.09452211 
4.8828125e-2, 7.681148e+0, -0.00000001481962, -33662.33, -0.051883887, 0.0, 0.00038701968, 0.000000065148924, 0.000000065148924, 0.0, 0.09765625, 0.09452558 
4.8828125e-2, 7.7756774e+0, -0.000000040667878, -33546.04, -0.15650606, 0.0, 0.00043003177, 0.00000068949885, 0.00000068949885, 0.0, 0.09765625, 0.09453589 
4.8828125e-2, 7.8702176e+0, -0.000000010450614, -33504.605, -0.074490905, 0.0, 0.00040167812, 0.00000015516707, 0.00000015516707, 0.0, 0.09765625, 0.09453956 
4.8828125e-2, 7.9647607e+0, -0.000000006413936, -33391.016, -0.07593517, 0.0, 0.00043912922, 0.00000016627018, 0.00000016627018, 0.0, 0.09765625, 0.094549626 
4.8828125e-2, 8.059314e+0, -0.000000025890564, -33347.83, -0.076132484, 0.0, 0.0004152833, 0.00000014792022, 0.00000014792022, 0.0, 0.09765625, 0.094553456 
4.8828125e-2, 8.153871e+0, 0.0000000014985541, -33236.52, -0.04953598, 0.0, 0.0004448407, 0.00000007532799, 0.00000007532799, 0.0, 0.09765625, 0.094563335 
4.8828125e-2, 8.248439e+0, 0.000000004241969, -33191.293, 0.0000328082, 0.0, 0.00043109755, 0.0000000042346073, 0.0000000042346073, 0.0, 0.09765625, 0.09456734 
4.8828125e-2, 8.34301e+0, -0.000000023330387, -33081.563, 0.020702569, 0.0, 0.00045299123, -0.000000010375516, -0.000000010375516, 0.0, 0.09765625, 0.09457708 
4.8828125e-2, 8.4375906e+0, -0.000000013155723, -33033.63, 0.04167981, 0.0, 0.000443159, 0.00000003943569, 0.00000003943569, 0.0, 0.09765625, 0.094581336 
4.8828125e-2, 8.532176e+0, -0.000000012990017, -32926.77, 0.10561078, 0.0, 0.00045859854, 0.00000032575917, 0.00000032575917, 0.0, 0.09765625, 0.09459082 
4.8828125e-2, 8.626771e+0, -0.000000033562902, -32875.707, 0.17196205, 0.0, 0.00045778087, 0.0000008659117, 0.0000008659117, 0.0, 0.09765625, 0.09459536 
4.8828125e-2, 8.7213695e+0, -0.00000003313488, -32771.81, 0.20208146, 0.0, 0.0004630783, 0.0000012129603, 0.0000012129603, 0.0, 0.09765625, 0.09460458 
4.8828125e-2, 8.815979e+0, -0.00000006328559, -32718.584, 0.24251078, 0.0, 0.00046857455, 0.00000173421, 0.00000173421, 0.0, 0.09765625, 0.09460931 
4.8828125e-2, 8.910591e+0, -0.000000064615094, -32616.34, 0.2812769, 0.0, 0.00047513924, 0.0000023610664, 0.0000023610664, 0.0, 0.09765625, 0.094618395 
4.8828125e-2, 9.005214e+0, -0.00000008031327, -32561.262, 0.26792902, 0.0, 0.00047565665, 0.0000021243286, 0.0000021243286, 0.0, 0.09765625, 0.09462329 
4.8828125e-2, 9.09984e+0, -0.00000006662612, -32461.096, 0.2303922, 0.0, 0.00048430703, 0.00000156858, 0.00000156858, 0.0, 0.09765625, 0.09463219 
4.8828125e-2, 9.194477e+0, -0.000000070838475, -32403.762, 0.2650245, 0.0, 0.0004834743, 0.000002096749, 0.000002096749, 0.0, 0.09765625, 0.0946373 
4.8828125e-2, 9.289118e+0, -0.00000007476792, -32305.494, 0.26774088, 0.0, 0.00050139194, 0.0000021442102, 0.0000021442102, 0.0, 0.09765625, 0.09464604 
4.8828125e-2, 9.383768e+0, -0.00000006488001, -32247.133, 0.22402982, 0.0, 0.00049054803, 0.0000014915167, 0.0000014915167, 0.0, 0.09765625, 0.09465122 
4.8828125e-2, 9.478423e+0, -0.0000000071784996, -32149.871, 0.1435065, 0.0, 0.0005139016, 0.00000063338666, 0.00000063338666, 0.0, 0.09765625, 0.09465988 
4.8828125e-2, 9.5730877e+0, -0.000000040751775, -32089.621, 0.14698978, 0.0, 0.0005029219, 0.0000006325499, 0.0000006325499, 0.0, 0.09765625, 0.09466524 
4.8828125e-2, 9.6677554e+0, -0.000000017459737, -31994.56, 0.06838836, 0.0, 0.0005261343, 0.0000001287226, 0.0000001287226, 0.0, 0.09765625, 0.0946737 
4.8828125e-2, 9.762434e+0, -0.0003196055, -31932.324, -18.342937, 0.0, 0.0005125902, 0.010217155, 0.010217155, 0.0, 0.09765625, 0.094679244 
4.8828125e-2, 9.857116e+0, -0.0000000013061228, -31838.885, -0.024851529, 0.0, 0.0005443188, 0.000000018091669, 0.000000018091669, 0.0, 0.09765625, 0.094687566 
4.8828125e-2, 9.951809e+0, -0.000000005411151, -31775.705, -0.03528757, 0.0, 0.0005227005, 0.000000033778633, 0.000000033778633, 0.0, 0.09765625, 0.09469319 
4.8828125e-2, 1.0046505e+1, -0.000000008798358, -31683.447, -0.06735904, 0.0, 0.000558511, 0.00000013440877, 0.00000013440877, 0.0, 0.09765625, 0.09470141 
4.8828125e-2, 1.014121e+1, -0.0000000049981774, -31618.064, -0.12252728, 0.0, 0.0005290038, 0.00000046982314, 0.00000046982314, 0.0, 0.09765625, 0.094707236 
4.8828125e-2, 1.02359205e+1, -0.000000032276777, -31528.205, -0.15536097, 0.0, 0.00057906774, 0.00000073329284, 0.00000073329284, 0.0, 0.09765625, 0.094715245 
4.8828125e-2, 1.03306405e+1, -0.00000004520245, -31460.807, -0.18075474, 0.0, 0.00054305675, 0.0000009933028, 0.0000009933028, 0.0, 0.09765625, 0.09472125 
4.8828125e-2, 1.0425366e+1, -0.00000007090422, -31372.895, -0.24230163, 0.0, 0.00058255065, 0.0000018004575, 0.0000018004575, 0.0, 0.09765625, 0.09472909 
4.8828125e-2, 1.05201e+1, -0.0007254654, -31303.482, -27.623367, 0.0, 0.00055271364, 0.023650412, 0.023650412, 0.0, 0.09765625, 0.09473528 
4.8828125e-2, 1.0614838e+1, -0.000000081988006, -31217.217, -0.2638901, 0.0, 0.00060190767, 0.0000021487685, 0.0000021487685, 0.0, 0.09765625, 0.094742976 
4.8828125e-2, 1.0709585e+1, -0.000000054792682, -31146.51, -0.21763648, 0.0, 0.0005562151, 0.0000014659454, 0.0000014659454, 0.0, 0.09765625, 0.09474929 
4.8828125e-2, 1.0804337e+1, -0.00000003107085, -31062.611, -0.20673856, 0.0, 0.00061534316, 0.0000013448844, 0.0000013448844, 0.0, 0.09765625, 0.094756775 
4.8828125e-2, 1.08991e+1, -0.000000038983, -30988.38, -0.20957892, 0.0, 0.0005671664, 0.0000013784302, 0.0000013784302, 0.0, 0.09765625, 0.0947634 
4.8828125e-2, 1.0993865e+1, -0.00000004876474, -30909.371, -0.18958393, 0.0, 0.0006201591, 0.0000011140583, 0.0000011140583, 0.0, 0.09765625, 0.094770454 
4.8828125e-2, 1.1088641e+1, -0.000000033374164, -30829.021, -0.15948962, 0.0, 0.0005812328, 0.0000007917224, 0.0000007917224, 0.0, 0.09765625, 0.09477763 
4.8828125e-2, 1.118342e+1, -0.00000003261453, -30755.81, -0.1224371, 0.0, 0.00062238803, 0.00000045480192, 0.00000045480192, 0.0, 0.09765625, 0.09478417 
4.8828125e-2, 1.12782106e+1, -0.0000000072798385, -30671.531, -0.086374484, 0.0, 0.0005976302, 0.00000023596294, 0.00000023596294, 0.0, 0.09765625, 0.094791695 
4.8828125e-2, 1.1373004e+1, 0.0000000008171212, -30601.348, -0.041616455, 0.0, 0.00062117464, 0.00000005741458, 0.00000005741458, 0.0, 0.09765625, 0.09479797 
4.8828125e-2, 1.1467808e+1, 0.000000008452364, -30515.936, 0.0005611086, 0.0, 0.00061695557, 0.000000008458301, 0.000000008458301, 0.0, 0.09765625, 0.094805606 
4.8828125e-2, 1.1562616e+1, -0.0000000005000797, -30446.479, 0.01425604, 0.0, 0.00061927544, 0.000000006177288, 0.000000006177288, 0.0, 0.09765625, 0.09481181 
4.8828125e-2, 1.1657433e+1, -0.000000014527011, -30357.855, 0.015141474, 0.0, 0.0006320455, -0.0000000069740054, -0.0000000069740054, 0.0, 0.09765625, 0.09481974 
4.8828125e-2, 1.17522545e+1, -0.000000020540899, -30291.71, 0.05288915, 0.0, 0.00062232284, 0.00000007180279, 0.00000007180279, 0.0, 0.09765625, 0.094825655 
4.8828125e-2, 1.1847086e+1, -0.000000031032332, -30199.705, 0.09790809, 0.0, 0.00064637075, 0.00000028638533, 0.00000028638533, 0.0, 0.09765625, 0.09483388 
4.8828125e-2, 1.1941921e+1, -0.000000028669144, -30136.227, 0.114370115, 0.0, 0.0006244641, 0.00000040537634, 0.00000040537634, 0.0, 0.09765625, 0.094839565 
4.8828125e-2, 1.20367676e+1, -0.000000004530124, -30042.092, 0.118406676, 0.0, 0.00066714146, 0.00000046215428, 0.00000046215428, 0.0, 0.09765625, 0.094847985 
4.8828125e-2, 1.21316165e+1, -0.00000003116359, -29981.555, 0.13644613, 0.0, 0.00062502036, 0.0000005898037, 0.0000005898037, 0.0, 0.09765625, 0.09485341 
4.8828125e-2, 1.22264765e+1, -0.000000028780224, -29883.691, 0.13860528, 0.0, 0.0006864718, 0.0000006140908, 0.0000006140908, 0.0, 0.09765625, 0.09486217 
4.8828125e-2, 1.232134e+1, -0.000000039582265, -29827.162, 0.14501819, 0.0, 0.0006322215, 0.0000006654918, 0.0000006654918, 0.0, 0.09765625, 0.09486723 
4.8828125e-2, 1.2416214e+1, -0.000000004475958, -29724.674, 0.12699822, 0.0, 0.0007013457, 0.00000053812255, 0.00000053812255, 0.0, 0.09765625, 0.09487641 
4.8828125e-2, 1.2511091e+1, -0.000000027752606, -29673.629, -0.023355411, 0.0, 0.00063307397, -0.000000009371433, -0.000000009371433, 0.0, 0.09765625, 0.09488098 
4.8828125e-2, 1.2605979e+1, -0.0000000061203433, -29564.914, -0.03927203, 0.0, 0.000735627, 0.000000046045898, 0.000000046045898, 0.0, 0.09765625, 0.09489073 
4.8828125e-2, 1.270087e+1, -0.000000048588777, -29520.275, 0.16311176, 0.0, 0.0006362478, 0.0000008526731, 0.0000008526731, 0.0, 0.09765625, 0.09489473 
4.8828125e-2, 1.2795773e+1, -0.00000004652518, -29405.652, 0.17087056, 0.0, 0.00074273266, 0.00000094636925, 0.00000094636925, 0.0, 0.09765625, 0.094905004 
4.8828125e-2, 1.2890679e+1, -0.000000023520856, -29366.04, 0.16851398, 0.0, 0.0006393016, 0.0000009434807, 0.0000009434807, 0.0, 0.09765625, 0.09490856 
4.8828125e-2, 1.2985593e+1, -0.00000002400802, -29247.623, 0.13867263, 0.0, 0.0007772566, 0.0000006334849, 0.0000006334849, 0.0, 0.09765625, 0.094919175 
4.8828125e-2, 1.3080513e+1, -0.000000021651367, -29210.287, 0.11522743, 0.0, 0.0006431933, 0.000000432894, 0.000000432894, 0.0, 0.09765625, 0.09492253 
4.8828125e-2, 1.3175444e+1, -0.00000003158728, -29092.02, 0.13023062, 0.0, 0.00077823707, 0.00000055139026, 0.00000055139026, 0.0, 0.09765625, 0.09493314 
4.8828125e-2, 1.3270377e+1, -0.000000020354765, -29052.027, 0.12506385, 0.0, 0.000656974, 0.0000005180227, 0.0000005180227, 0.0, 0.09765625, 0.09493673 
4.8828125e-2, 1.3365321e+1, -0.000000041755467, -28936.672, 0.09698551, 0.0, 0.00079111365, 0.00000028330396, 0.00000028330396, 0.0, 0.09765625, 0.094947085 
4.8828125e-2, 1.346027e+1, -0.000000018724611, -28895.455, 0.07646286, 0.0, 0.00066275883, 0.00000018361243, 0.00000018361243, 0.0, 0.09765625, 0.09495079 
4.8828125e-2, 1.3555226e+1, 0.0000000017499368, -28778.268, 0.02032053, 0.0, 0.00079775805, 0.000000016098056, 0.000000016098056, 0.0, 0.09765625, 0.09496131 
4.8828125e-2, 1.3650188e+1, -0.000000012084742, -28741.92, 0.0039891484, 0.0, 0.00068271195, -0.000000011532393, -0.000000011532393, 0.0, 0.09765625, 0.09496458 
4.8828125e-2, 1.374516e+1, -0.000000019522892, -28618.62, 0.037350573, 0.0, 0.00078746997, 0.000000029227522, 0.000000029227522, 0.0, 0.09765625, 0.09497566 
4.8828125e-2, 1.3840136e+1, 0.000000017000852, -28588.535, -0.003164739, 0.0, 0.00068937766, 0.000000017349521, 0.000000017349521, 0.0, 0.09765625, 0.09497836 
4.8828125e-2, 1.3935122e+1, -0.00000000564309, -28459.207, -0.066525236, 0.0, 0.00079944957, 0.0000001498629, 0.0000001498629, 0.0, 0.09765625, 0.094989985 
4.8828125e-2, 1.4030112e+1, 0.0000000013738314, -28434.947, 0.014294892, 0.0, 0.00069853396, 0.000000008563802, 0.000000008563802, 0.0, 0.09765625, 0.09499217 
4.8828125e-2, 1.4125113e+1, -0.0007101297, -28300.76, -27.265429, 0.0, 0.0007921189, 0.02555782, 0.02555782, 0.0, 0.09765625, 0.09500423 
4.8828125e-2, 1.4220117e+1, -0.000000011697666, -28280.047, -0.016852736, 0.0, 0.0007051963, -0.0000000016552804, -0.0000000016552804, 0.0, 0.09765625, 0.09500609 
4.8828125e-2, 1.431513e+1, -0.000000039136946, -28142.043, -0.13807406, 0.0, 0.0007948218, 0.00000063829793, 0.00000063829793, 0.0, 0.09765625, 0.09501851 
4.8828125e-2, 1.441015e+1, -0.000000037699508, -28125.97, -0.17306985, 0.0, 0.00071497454, 0.000001027267, 0.000001027267, 0.0, 0.09765625, 0.09501996 
4.8828125e-2, 1.4505176e+1, -0.000000034184442, -27983.336, -0.18023019, 0.0, 0.00078979554, 0.0000011266093, 0.0000011266093, 0.0, 0.09765625, 0.095032796 
4.8828125e-2, 1.460021e+1, -0.00000004047674, -27972.957, -0.18155582, 0.0, 0.0007204575, 0.0000011378943, 0.0000011378943, 0.0, 0.09765625, 0.095033735 
4.8828125e-2, 1.4695251e+1, -0.000000038134626, -27828.803, -0.18617931, 0.0, 0.00079256075, 0.0000012074379, 0.0000012074379, 0.0, 0.09765625, 0.095046714 
4.8828125e-2, 1.4790298e+1, -0.000000063757696, -27821.127, -0.18999705, 0.0, 0.0007312146, 0.0000012337769, 0.0000012337769, 0.0, 0.09765625, 0.09504741 
4.8828125e-2, 1.4885353e+1, -0.000000053343904, -27672.719, -0.19102553, 0.0, 0.00079069764, 0.0000012653109, 0.0000012653109, 0.0, 0.09765625, 0.09506077 
4.8828125e-2, 1.4980413e+1, -0.00000004066495, -27664.484, -0.16176485, 0.0, 0.00074293447, 0.00000090523827, 0.00000090523827, 0.0, 0.09765625, 0.09506152 
4.8828125e-2, 1.5075482e+1, -0.000000039445755, -27516.799, -0.15997693, 0.0, 0.0007944893, 0.00000089062814, 0.00000089062814, 0.0, 0.09765625, 0.095074825 
4.8828125e-2, 1.5170558e+1, -0.000000024962556, -27507.6, -0.16900839, 0.0, 0.00075595756, 0.0000010134354, 0.0000010134354, 0.0, 0.09765625, 0.09507566 
4.8828125e-2, 1.526564e+1, -0.00000002019623, -27361.477, -0.13857304, 0.0, 0.0007976944, 0.0000006816117, 0.0000006816117, 0.0, 0.09765625, 0.09508883 
4.8828125e-2, 1.5360731e+1, -0.000000021580178, -27349.813, -0.1501455, 0.0, 0.00077930564, 0.0000008026909, 0.0000008026909, 0.0, 0.09765625, 0.09508988 
4.8828125e-2, 1.5455827e+1, -0.000000005190733, -27206.76, -0.05713661, 0.0, 0.00080148777, 0.0000001148037, 0.0000001148037, 0.0, 0.09765625, 0.09510279 
4.8828125e-2, 1.5550931e+1, 0.0000000041190247, -27192.096, -0.04071931, 0.0, 0.00079722697, 0.000000065094355, 0.000000065094355, 0.0, 0.09765625, 0.09510411 
4.8828125e-2, 1.5646042e+1, -0.000000010481827, -27050.328, -0.011374029, 0.0, 0.0008144708, -0.000000005700713, -0.000000005700713, 0.0, 0.09765625, 0.095116906 
4.8828125e-2, 1.5741159e+1, -0.000000019981723, -27035.996, -0.030622931, 0.0, 0.0008156209, 0.00000001470471, 0.00000001470471, 0.0, 0.09765625, 0.0951182 
4.8828125e-2, 1.5836285e+1, -0.000000008762657, -26893.488, 0.06945511, 0.0, 0.0008290128, 0.00000017061029, 0.00000017061029, 0.0, 0.09765625, 0.09513106 
4.8828125e-2, 1.5931417e+1, -0.000000022994097, -26879.633, 0.053797666, 0.0, 0.000833734, 0.000000084677595, 0.000000084677595, 0.0, 0.09765625, 0.09513231 
4.8828125e-2, 1.6026556e+1, -0.000000020427894, -26738.057, 0.081784405, 0.0, 0.0008446925, 0.00000022972745, 0.00000022972745, 0.0, 0.09765625, 0.09514511 
4.8828125e-2, 1.6121702e+1, -0.000000021481211, -26721.453, 0.07240085, 0.0, 0.0008518417, 0.00000017468483, 0.00000017468483, 0.0, 0.09765625, 0.095146604 
4.8828125e-2, 1.6216855e+1, -0.000000021641133, -26584.334, 0.1473364, 0.0, 0.0008638597, 0.0000007949275, 0.0000007949275, 0.0, 0.09765625, 0.095158994 
4.8828125e-2, 1.6312015e+1, -0.00000004047779, -26562.58, 0.17911828, 0.0, 0.00086167804, 0.0000011673656, 0.0000011673656, 0.0, 0.09765625, 0.09516096 
4.8828125e-2, 1.6407183e+1, -0.000000048205667, -26429.871, 0.19215293, 0.0, 0.00088855246, 0.0000013488025, 0.0000013488025, 0.0, 0.09765625, 0.09517296 
4.8828125e-2, 1.6502358e+1, -0.000000021095543, -26404.695, 0.124524795, 0.0, 0.0008675583, 0.0000005661641, 0.0000005661641, 0.0, 0.09765625, 0.09517524 
4.8828125e-2, 1.6597538e+1, -0.00000007269364, -26274.34, 0.23724352, 0.0, 0.0009048002, 0.0000020694897, 0.0000020694897, 0.0, 0.09765625, 0.09518702 
4.8828125e-2, 1.6692726e+1, -0.00000009780183, -26247.158, 0.26034158, 0.0, 0.0008834765, 0.0000024844849, 0.0000024844849, 0.0, 0.09765625, 0.09518949 
4.8828125e-2, 1.6787922e+1, -0.00000005773222, -26119.43, 0.2027245, 0.0, 0.00092103885, 0.000001515702, 0.000001515702, 0.0, 0.09765625, 0.095201045 
4.8828125e-2, 1.6883126e+1, -0.000000032420814, -26089.195, 0.025722072, 0.0, 0.0008821571, -0.000000007061317, -0.000000007061317, 0.0, 0.09765625, 0.09520378 
4.8828125e-2, 1.6978334e+1, -0.00000007885699, -25964.28, 0.26206028, 0.0, 0.0009357847, 0.0000025661466, 0.0000025661466, 0.0, 0.09765625, 0.09521509 
4.8828125e-2, 1.7073551e+1, -0.000000044738023, -25931.77, 0.21650462, 0.0, 0.0008913892, 0.0000017628627, 0.0000017628627, 0.0, 0.09765625, 0.09521803 
4.8828125e-2, 1.7168775e+1, -0.00000004269166, -25808.953, 0.1389326, 0.0, 0.000940007, 0.00000070520036, 0.00000070520036, 0.0, 0.09765625, 0.09522916 
4.8828125e-2, 1.7264007e+1, -0.000000040120966, -25773.666, -0.07605701, 0.0, 0.00089842064, 0.00000018432183, 0.00000018432183, 0.0, 0.09765625, 0.09523235 
4.8828125e-2, 1.7359243e+1, -0.000000036731688, -25654.316, 0.1550467, 0.0, 0.00095788203, 0.0000009003197, 0.0000009003197, 0.0, 0.09765625, 0.09524316 
4.8828125e-2, 1.745449e+1, -0.000000016305101, -25614.379, 0.099759735, 0.0, 0.00088998565, 0.00000037222708, 0.00000037222708, 0.0, 0.09765625, 0.095246784 
4.8828125e-2, 1.7549741e+1, -0.000000018005823, -25501.146, 0.0044090496, 0.0, 0.0009522686, -0.000000017240382, -0.000000017240382, 0.0, 0.09765625, 0.09525705 
4.8828125e-2, 1.7645003e+1, 0.0000000073617836, -25454.668, -0.09199623, 0.0, 0.0009137665, 0.00000033984907, 0.00000033984907, 0.0, 0.09765625, 0.09526126 
4.8828125e-2, 1.7740268e+1, 0.000000003317318, -25347.701, -0.07931532, 0.0, 0.0009757002, 0.0000002515044, 0.0000002515044, 0.0, 0.09765625, 0.09527096 
4.8828125e-2, 1.7835543e+1, -0.000000025666385, -25298.77, -0.042774796, 0.0, 0.0008888984, 0.000000046657078, 0.000000046657078, 0.0, 0.09765625, 0.0952754 
4.8828125e-2, 1.793082e+1, -0.000000026374492, -25190.406, -0.0056892573, 0.0, 0.0009835808, -0.000000025087502, -0.000000025087502, 0.0, 0.09765625, 0.09528524 
4.8828125e-2, 1.8026109e+1, -0.00000029423458, -25144.785, -0.51195645, 0.0, 0.00091357436, 0.000010129374, 0.000010129374, 0.0, 0.09765625, 0.09528937 
4.8828125e-2, 1.8121403e+1, -0.00000010996956, -25031.668, -0.2957611, 0.0, 0.0009826424, 0.00000338459, 0.00000338459, 0.0, 0.09765625, 0.09529964 
4.8828125e-2, 1.8216707e+1, -0.000000038706855, -24988.85, -0.15000504, 0.0, 0.0009153417, 0.0000008617535, 0.0000008617535, 0.0, 0.09765625, 0.09530353 
4.8828125e-2, 1.8312013e+1, -0.000000031565957, -24875.082, -0.092647016, 0.0, 0.0010312147, 0.00000031349555, 0.00000031349555, 0.0, 0.09765625, 0.09531386 
4.8828125e-2, 1.8407331e+1, -0.0000002996335, -24831.107, -0.55456257, 0.0, 0.00091579586, 0.000012085624, 0.000012085624, 0.0, 0.09765625, 0.095317855 
4.8828125e-2, 1.8502653e+1, -0.00000016714182, -24723.12, -0.3771992, 0.0, 0.0009797813, 0.0000055877645, 0.0000055877645, 0.0, 0.09765625, 0.09532767 
4.8828125e-2, 1.8597986e+1, -0.00000007590339, -24670.67, -0.21108438, 0.0, 0.0009599184, 0.0000017301536, 0.0000017301536, 0.0, 0.09765625, 0.09533243 
4.8828125e-2, 1.8693322e+1, -0.00000004004237, -24570.94, -0.19086042, 0.0, 0.0011053362, 0.0000014425095, 0.0000014425095, 0.0, 0.09765625, 0.095341496 
4.8828125e-2, 1.8788667e+1, -0.00000024828785, -24510.32, -0.5074624, 0.0, 0.00093085435, 0.000010258227, 0.000010258227, 0.0, 0.09765625, 0.095347 
4.8828125e-2, 1.8884018e+1, -0.00000008091822, -24419.123, -0.2725203, 0.0, 0.0009628993, 0.0000029604416, 0.0000029604416, 0.0, 0.09765625, 0.095355295 
4.8828125e-2, 1.8979378e+1, -0.000000086216716, -24350.912, -0.28666532, 0.0, 0.0010262455, 0.0000032884818, 0.0000032884818, 0.0, 0.09765625, 0.0953615 
4.8828125e-2, 1.9074741e+1, -0.0000001251352, -24265.334, -0.32552713, 0.0, 0.0011642847, 0.0000042419124, 0.0000042419124, 0.0, 0.09765625, 0.09536929 
4.8828125e-2, 1.9170116e+1, -0.000000227267, -24193.627, -0.45836166, 0.0, 0.00095975096, 0.000008456645, 0.000008456645, 0.0, 0.09765625, 0.09537581 
4.8828125e-2, 1.9265494e+1, -0.000000071645246, -24111.06, 0.18505484, 0.0, 0.0009842196, 0.0000013486679, 0.0000013486679, 0.0, 0.09765625, 0.095383324 
4.8828125e-2, 1.9360884e+1, -0.0000001530663, -24034.713, -0.33891326, 0.0, 0.0010871241, 0.0000046259447, 0.0000046259447, 0.0, 0.09765625, 0.095390275 
4.8828125e-2, 1.9456276e+1, -0.0000004266069, -23955.79, -0.6562511, 0.0, 0.0011422823, 0.000017550905, 0.000017550905, 0.0, 0.09765625, 0.095397465 
4.8828125e-2, 1.9551678e+1, -0.000000052403433, -23879.697, 0.18358232, 0.0, 0.0010104593, 0.0000013589415, 0.0000013589415, 0.0, 0.09765625, 0.095404394 
4.8828125e-2, 1.9647086e+1, -0.00000039660694, -23799.834, 0.6109953, 0.0, 0.0010825436, 0.00001528902, 0.00001528902, 0.0, 0.09765625, 0.095411666 
4.8828125e-2, 1.9742502e+1, -0.00000009743882, -23721.82, -0.29708567, 0.0, 0.0011181633, 0.0000036231795, 0.0000036231795, 0.0, 0.09765625, 0.09541877 
4.8828125e-2, 1.9837923e+1, -0.00000047073434, -23644.016, -0.673324, 0.0, 0.0010485104, 0.000018703897, 0.000018703897, 0.0, 0.09765625, 0.09542587 
4.8828125e-2, 1.9933355e+1, -0.000000030410575, -23565.639, -0.016046626, 0.0, 0.0010805733, -0.000000019481377, -0.000000019481377, 0.0, 0.09765625, 0.09543301 
4.8828125e-2, 2.002879e+1, -0.0000005501985, -23490.441, 0.7222865, 0.0, 0.0011885031, 0.000021658743, 0.000021658743, 0.0, 0.09765625, 0.095439866 
4.8828125e-2, 2.0124236e+1, -0.0000000348629, -23403.326, -0.11418965, 0.0, 0.0011355279, 0.0000005222937, 0.0000005222937, 0.0, 0.09765625, 0.09544781 
4.8828125e-2, 2.0219685e+1, -0.00000026324204, -23339.846, -0.49754947, 0.0, 0.00097075506, 0.000010343319, 0.000010343319, 0.0, 0.09765625, 0.0954536 
4.8828125e-2, 2.0315145e+1, -0.000000038975717, -23242.602, -0.036769748, 0.0, 0.001156933, 0.000000019190338, 0.000000019190338, 0.0, 0.09765625, 0.09546247 
4.8828125e-2, 2.0410608e+1, -0.00000011169818, -23188.527, 0.3040549, 0.0, 0.0012036755, 0.000003875164, 0.000003875164, 0.0, 0.09765625, 0.0954674 
4.8828125e-2, 2.0506082e+1, -0.00000004172292, -23081.465, -0.13525294, 0.0, 0.0011235574, 0.00000075083153, 0.00000075083153, 0.0, 0.09765625, 0.09547718 
4.8828125e-2, 2.060156e+1, -0.0000006838975, -23038.639, 0.81814474, 0.0, 0.0010357798, 0.000028369941, 0.000028369941, 0.0, 0.09765625, 0.09548108 
4.8828125e-2, 2.0697048e+1, -0.000013141647, -22919.955, -3.719348, 0.0, 0.0012443436, 0.00059041753, 0.00059041753, 0.0, 0.09765625, 0.09549192 
4.8828125e-2, 2.0792541e+1, -0.00000049575095, -22885.383, 0.6844014, 0.0, 0.0010431787, 0.000019971692, 0.000019971692, 0.0, 0.09765625, 0.09549508 
4.8828125e-2, 2.0888044e+1, -0.00000008249563, -22760.045, 0.24451415, 0.0, 0.0011466489, 0.000002544355, 0.000002544355, 0.0, 0.09765625, 0.095506534 
4.8828125e-2, 2.0983551e+1, -0.00000007453669, -22733.502, -0.19431101, 0.0, 0.0011936869, 0.0000015863116, 0.0000015863116, 0.0, 0.09765625, 0.095508955 
4.8828125e-2, 2.1079068e+1, -0.00000023773991, -22600.357, -0.46014717, 0.0, 0.0012361148, 0.000009130934, 0.000009130934, 0.0, 0.09765625, 0.09552112 
4.8828125e-2, 2.1174587e+1, -0.0000003950685, -22581.918, 0.60903376, 0.0, 0.000975995, 0.000016030554, 0.000016030554, 0.0, 0.09765625, 0.09552281 
4.8828125e-2, 2.1270119e+1, -0.000000017675315, -22439.129, -0.031301364, 0.0, 0.0012859337, 0.000000025986083, 0.000000025986083, 0.0, 0.09765625, 0.09553587 
4.8828125e-2, 2.1365654e+1, -0.00000003289525, -22430.104, 0.12611055, 0.0, 0.0011077301, 0.0000006761438, 0.0000006761438, 0.0, 0.09765625, 0.095536694 
4.8828125e-2, 2.1461199e+1, -0.00000045013255, -22279.63, 0.6446851, 0.0, 0.0012353504, 0.000018204526, 0.000018204526, 0.0, 0.09765625, 0.095550455 
4.8828125e-2, 2.155675e+1, -0.00000038029728, -22275.314, -0.5782918, 0.0, 0.0011171681, 0.000014632798, 0.000014632798, 0.0, 0.09765625, 0.09555085 
4.8828125e-2, 2.165231e+1, -0.000000063405025, -22122.139, -0.17691635, 0.0, 0.0013011694, 0.0000013514364, 0.0000013514364, 0.0, 0.09765625, 0.09556487 
4.8828125e-2, 2.1747874e+1, -0.00000006920158, -22120.117, 0.17133097, 0.0, 0.0010649386, 0.0000012578384, 0.0000012578384, 0.0, 0.09765625, 0.09556506 
4.8828125e-2, 2.1843447e+1, -0.000010213526, -21959.393, -3.2589817, 0.0, 0.0013265227, 0.00047345014, 0.00047345014, 0.0, 0.09765625, 0.09557977 
4.8828125e-2, 2.1939026e+1, -0.00002723126, -21965.457, -5.2942576, 0.0, 0.0011004421, 0.0012488251, 0.0012488251, 0.0, 0.09765625, 0.095579214 
4.8828125e-2, 2.2034612e+1, -0.000007113737, -21811.27, -2.7726493, 0.0, 0.0013241189, 0.00034534553, 0.00034534553, 0.0, 0.09765625, 0.09559334 
4.8828125e-2, 2.2130205e+1, -0.00000019105754, -21810.584, 0.40003246, 0.0, 0.0011225382, 0.0000071460236, 0.0000071460236, 0.0, 0.09765625, 0.0955934 
4.8828125e-2, 2.2225808e+1, -0.000027954195, -21651.576, -5.365895, 0.0, 0.0013046046, 0.0013018717, 0.0013018717, 0.0, 0.09765625, 0.09560797 
4.8828125e-2, 2.2321415e+1, -0.00000063161104, -21650.709, 0.77465063, 0.0, 0.0011458346, 0.000027084967, 0.000027084967, 0.0, 0.09765625, 0.095608056 
4.8828125e-2, 2.241703e+1, -0.00000012854672, -21495.473, 0.2891519, 0.0, 0.0013679782, 0.0000037610553, 0.0000037610553, 0.0, 0.09765625, 0.095622286 
4.8828125e-2, 2.2512653e+1, -0.000000022602281, -21495.62, 0.055818003, 0.0, 0.0011137879, 0.00000012233795, 0.00000012233795, 0.0, 0.09765625, 0.09562227 
4.8828125e-2, 2.2608282e+1, -0.0000000035894658, -21338.89, 0.015052601, 0.0, 0.001307388, 0.000000007024937, 0.000000007024937, 0.0, 0.09765625, 0.09563664 
4.8828125e-2, 2.270392e+1, -0.00000007753725, -21338.455, 0.18827893, 0.0, 0.001184318, 0.0000015837322, 0.0000015837322, 0.0, 0.09765625, 0.09563669 
4.8828125e-2, 2.2799565e+1, -0.00000007878102, -21183.463, 0.23563044, 0.0, 0.0013780008, 0.0000025422123, 0.0000025422123, 0.0, 0.09765625, 0.09565091 
4.8828125e-2, 2.2895215e+1, -0.000000035008203, -21180.6, 0.059826873, 0.0, 0.0011506301, 0.00000013397948, 0.00000013397948, 0.0, 0.09765625, 0.09565117 
4.8828125e-2, 2.2990873e+1, -0.0000000117508545, -21029.104, -0.07502391, 0.0, 0.0013046294, 0.00000025590634, 0.00000025590634, 0.0, 0.09765625, 0.09566508 
4.8828125e-2, 2.308654e+1, -0.00000005241369, -21023.014, -0.11406173, 0.0, 0.0012220673, 0.00000056643694, 0.00000056643694, 0.0, 0.09765625, 0.09566564 
4.8828125e-2, 2.318221e+1, -0.000000028261544, -20873.207, 0.0077516604, 0.0, 0.0014068132, -0.000000025382178, -0.000000025382178, 0.0, 0.09765625, 0.095679395 
4.8828125e-2, 2.3277894e+1, -0.0000001078145, -20865.85, 0.3103859, 0.0, 0.0011988475, 0.000004509271, 0.000004509271, 0.0, 0.09765625, 0.09568007 
4.8828125e-2, 2.3373578e+1, -0.000000039413145, -20719.152, 0.104015216, 0.0, 0.0012809589, 0.00000048276706, 0.00000048276706, 0.0, 0.09765625, 0.09569355 
4.8828125e-2, 2.3469275e+1, -0.00000012215177, -20707.28, -0.32922986, 0.0, 0.0012885784, 0.0000051123498, 0.0000051123498, 0.0, 0.09765625, 0.095694646 
4.8828125e-2, 2.3564973e+1, -0.000000057784458, -20564.615, -0.20047036, 0.0, 0.0014354073, 0.0000018964638, 0.0000018964638, 0.0, 0.09765625, 0.09570776 
4.8828125e-2, 2.3660685e+1, -0.00000008452137, -20547.807, 0.22110711, 0.0, 0.0012437524, 0.0000022947315, 0.0000022947315, 0.0, 0.09765625, 0.0957093 
4.8828125e-2, 2.37564e+1, -0.000000109866164, -20412.229, 0.28922457, 0.0, 0.0013113553, 0.000003988207, 0.000003988207, 0.0, 0.09765625, 0.095721774 
4.8828125e-2, 2.3852123e+1, -0.000000058456628, -20387.963, -0.20869102, 0.0, 0.0013489173, 0.0000020777043, 0.0000020777043, 0.0, 0.09765625, 0.095724 
4.8828125e-2, 2.3947851e+1, -0.0000012456958, -20259.826, -1.0863708, 0.0, 0.0014091647, 0.000057007597, 0.000057007597, 0.0, 0.09765625, 0.095735796 
4.8828125e-2, 2.404359e+1, -0.00000006274953, -20226.793, 0.0694402, 0.0, 0.0013131124, 0.00000017564889, 0.00000017564889, 0.0, 0.09765625, 0.095738836 
4.8828125e-2, 2.4139334e+1, -0.000000033175247, -20108.207, 0.13192675, 0.0, 0.0013732642, 0.0000008323732, 0.0000008323732, 0.0, 0.09765625, 0.09574975 
4.8828125e-2, 2.4235088e+1, -0.00000010732657, -20067.156, -0.30376413, 0.0, 0.0013715096, 0.000004490863, 0.000004490863, 0.0, 0.09765625, 0.09575353 
4.8828125e-2, 2.4330845e+1, -0.00000008343842, -19954.807, -0.25589663, 0.0, 0.0013811123, 0.0000031981326, 0.0000031981326, 0.0, 0.09765625, 0.09576388 
4.8828125e-2, 2.4426612e+1, -0.000000047784503, -19909.098, 0.013223705, 0.0, 0.0013858444, -0.00000003900277, -0.00000003900277, 0.0, 0.09765625, 0.09576809 
4.8828125e-2, 2.4522385e+1, -0.00000005914096, -19799.88, -0.21016355, 0.0, 0.0013700215, 0.000002171615, 0.000002171615, 0.0, 0.09765625, 0.095778145 
4.8828125e-2, 2.4618167e+1, -0.00000007274244, -19753.123, -0.24806143, 0.0, 0.0013591342, 0.000003042438, 0.000003042438, 0.0, 0.09765625, 0.09578246 
4.8828125e-2, 2.4713951e+1, -0.0000016020109, -19643.867, -1.238866, 0.0, 0.001445619, 0.00007652868, 0.00007652868, 0.0, 0.09765625, 0.095792525 
4.8828125e-2, 2.480975e+1, -0.000000052919845, -19594.1, -0.20842178, 0.0, 0.0014011436, 0.0000021640553, 0.0000021640553, 0.0, 0.09765625, 0.095797114 
4.8828125e-2, 2.4905547e+1, -0.00000012234653, -19491.87, 0.28510043, 0.0, 0.001286461, 0.0000040477134, 0.0000040477134, 0.0, 0.09765625, 0.09580655 
4.8828125e-2, 2.500136e+1, -0.00000005100589, -19432.947, 0.028184792, 0.0, 0.0014226504, -0.000000010128133, -0.000000010128133, 0.0, 0.09765625, 0.09581198 
4.8828125e-2, 2.5097176e+1, -0.000004073554, -19340.291, -1.9310975, 0.0, 0.001414356, 0.00018874349, 0.00018874349, 0.0, 0.09765625, 0.095820524 
4.8828125e-2, 2.5193e+1, -0.0000003256186, -19272.436, -0.5463814, 0.0, 0.0013175575, 0.000015164518, 0.000015164518, 0.0, 0.09765625, 0.09582679 
4.8828125e-2, 2.528883e+1, -0.0000011644772, -19191.732, 1.0298784, 0.0, 0.0014079021, 0.00005410148, 0.00005410148, 0.0, 0.09765625, 0.09583423 
4.8828125e-2, 2.538467e+1, -0.00000010253229, -19105.38, 0.23900007, 0.0, 0.0015662413, 0.0000028872528, 0.0000028872528, 0.0, 0.09765625, 0.095842205 
4.8828125e-2, 2.5480512e+1, -0.0000020543912, -19042.268, -1.3905526, 0.0, 0.0010544686, 0.00009949006, 0.00009949006, 0.0, 0.09765625, 0.09584804 
4.8828125e-2, 2.5576368e+1, -0.00000033532186, -18947.002, -0.54377174, 0.0, 0.0012116279, 0.000015270718, 0.000015270718, 0.0, 0.09765625, 0.09585684 
4.8828125e-2, 2.5672227e+1, -0.0000019571357, -18893.111, 1.3259087, 0.0, 0.001786197, 0.00009109445, 0.00009109445, 0.0, 0.09765625, 0.095861815 
4.8828125e-2, 2.5768095e+1, -0.00000039483956, -18780.393, 0.58079076, 0.0, 0.0017003196, 0.000017566334, 0.000017566334, 0.0, 0.09765625, 0.09587223 
4.8828125e-2, 2.586397e+1, -0.00000456142, -18741.045, -2.0376945, 0.0, 0.0005841588, 0.00021699499, 0.00021699499, 0.0, 0.09765625, 0.09587587 
4.8828125e-2, 2.5959852e+1, -0.0000010433141, -18623.428, -0.9789415, 0.0, 0.0011070061, 0.000050414797, 0.000050414797, 0.0, 0.09765625, 0.09588674 
4.8828125e-2, 2.6055738e+1, -0.0000041101566, -18590.797, 1.9252068, 0.0, 0.002158879, 0.00019525843, 0.00019525843, 0.0, 0.09765625, 0.095889755 
4.8828125e-2, 2.6151636e+1, -0.0000010725421, -18456.068, -0.99835265, 0.0, 0.001826193, 0.00005293181, 0.00005293181, 0.0, 0.09765625, 0.09590222 
4.8828125e-2, 2.6247537e+1, -0.0000310381, -18439.285, -5.6610103, 0.0, 0.00023389369, 0.001706938, 0.001706938, 0.0, 0.09765625, 0.09590377 
4.8828125e-2, 2.634345e+1, -0.00000417518, -18303.371, -1.9444774, 0.0, 0.0011392366, 0.00020239837, 0.00020239837, 0.0, 0.09765625, 0.095916346 
4.8828125e-2, 2.6439366e+1, -0.00000016945287, -18285.29, 0.343634, 0.0, 0.002255876, 0.0000062884355, 0.0000062884355, 0.0, 0.09765625, 0.095918015 
4.8828125e-2, 2.653529e+1, -0.00000016819541, -18140.588, -0.36762336, 0.0, 0.0016602806, 0.0000072817784, 0.0000072817784, 0.0, 0.09765625, 0.09593141 
4.8828125e-2, 2.663122e+1, -0.000000038754944, -18133.135, 0.019334571, 0.0, 0.00042926703, -0.000000018138962, -0.000000018138962, 0.0, 0.09765625, 0.0959321 
4.8828125e-2, 2.6727164e+1, -0.00000015817287, -17981.248, 0.37560135, 0.0, 0.0015000388, 0.000007687577, 0.000007687577, 0.0, 0.09765625, 0.09594617 
4.8828125e-2, 2.682311e+1, -0.00000027161005, -17977.438, -0.4711143, 0.0, 0.0017053518, 0.00001207435, 0.00001207435, 0.0, 0.09765625, 0.09594652 
4.8828125e-2, 2.6919064e+1, -0.00000007973775, -17825.139, -0.2469292, 0.0, 0.0012631158, 0.0000033409378, 0.0000033409378, 0.0, 0.09765625, 0.09596063 
4.8828125e-2, 2.7015024e+1, -0.00000002755372, -17821.572, -0.006325832, 0.0, 0.0011909788, -0.000000025309419, -0.000000025309419, 0.0, 0.09765625, 0.09596096 
4.8828125e-2, 2.7110994e+1, -0.00000045933143, -17666.553, -0.6408339, 0.0, 0.0018259457, 0.000022786186, 0.000022786186, 0.0, 0.09765625, 0.09597533 
4.8828125e-2, 2.7206966e+1, -0.0000005660469, -17671.537, 0.71833456, 0.0, 0.00097349036, 0.000028633709, 0.000028633709, 0.0, 0.09765625, 0.09597487 
4.8828125e-2, 2.730295e+1, -0.0000020745074, -17505.26, 1.3538616, 0.0, 0.0012552496, 0.00010263351, 0.00010263351, 0.0, 0.09765625, 0.095990285 
4.8828125e-2, 2.739894e+1, -0.0000030441295, -17509.701, -1.6527008, 0.0, 0.001634771, 0.00015295052, 0.00015295052, 0.0, 0.09765625, 0.095989875 
4.8828125e-2, 2.7494937e+1, -0.0000028284383, -17354.682, -1.5839535, 0.0, 0.0015579737, 0.00014173824, 0.00014173824, 0.0, 0.09765625, 0.09600426 
4.8828125e-2, 2.7590942e+1, -0.00000086231887, -17359.121, 0.8660478, 0.0, 0.0010550114, 0.000042344873, 0.000042344873, 0.0, 0.09765625, 0.096003845 
4.8828125e-2, 2.7686954e+1, -0.0000017254641, -17191.146, 1.2292684, 0.0, 0.001598718, 0.00008617448, 0.00008617448, 0.0, 0.09765625, 0.09601944 
4.8828125e-2, 2.7782974e+1, -0.0000015692111, -17197.717, -1.1844283, 0.0, 0.0012893102, 0.000080003854, 0.000080003854, 0.0, 0.09765625, 0.09601883 
4.8828125e-2, 2.7879e+1, -0.00000063369333, -17041.705, -0.75888973, 0.0, 0.0015021765, 0.000033160675, 0.000033160675, 0.0, 0.09765625, 0.09603331 
4.8828125e-2, 2.7975032e+1, -0.00000044986336, -17040.969, -0.62434477, 0.0, 0.0013952976, 0.000022424796, 0.000022424796, 0.0, 0.09765625, 0.09603339 
4.8828125e-2, 2.8071073e+1, -0.0000012033798, -16884.807, 1.0179986, 0.0, 0.0013013819, 0.000060172562, 0.000060172562, 0.0, 0.09765625, 0.09604789 
4.8828125e-2, 2.8167123e+1, -0.00000033394116, -16879.938, -0.52469754, 0.0, 0.0013754626, 0.000015975806, 0.000015975806, 0.0, 0.09765625, 0.09604835 
4.8828125e-2, 2.8263178e+1, -0.0000035439932, -16732.346, -1.7765697, 0.0, 0.0018102726, 0.00018508467, 0.00018508467, 0.0, 0.09765625, 0.096062064 
4.8828125e-2, 2.835924e+1, -0.000001381333, -16726.805, 1.0870454, 0.0, 0.0010846718, 0.00006926383, 0.00006926383, 0.0, 0.09765625, 0.09606258 
4.8828125e-2, 2.8455308e+1, -0.0000019899398, -16574.059, 1.2971902, 0.0, 0.0013916942, 0.00009953632, 0.00009953632, 0.0, 0.09765625, 0.09607678 
4.8828125e-2, 2.8551388e+1, -0.0000039112965, -16562.4, -1.8899107, 0.0, 0.0016241154, 0.0002117436, 0.0002117436, 0.0, 0.09765625, 0.09607787 
4.8828125e-2, 2.8647473e+1, -0.0000043649165, -16421.615, -2.0737953, 0.0, 0.0011623016, 0.00025752326, 0.00025752326, 0.0, 0.09765625, 0.096090965 
4.8828125e-2, 2.8743565e+1, -0.000036776233, -16401.137, -6.1431656, 0.0, 0.0012224598, 0.0022641907, 0.0022641907, 0.0, 0.09765625, 0.096092865 
4.8828125e-2, 2.8839666e+1, -0.0001898841, -16264.818, -13.964412, 0.0, 0.0022798218, 0.01179947, 0.01179947, 0.0, 0.09765625, 0.09610555 
4.8828125e-2, 2.893577e+1, -0.00008359325, -16258.775, -9.266667, 0.0, 0.001151625, 0.00519793, 0.00519793, 0.0, 0.09765625, 0.09610612 
4.8828125e-2, 2.9031882e+1, -0.000004021354, -16112.89, -1.9274209, 0.0, 0.00052345474, 0.00022653636, 0.00022653636, 0.0, 0.09765625, 0.0961197 
4.8828125e-2, 2.9128006e+1, -0.00010060721, -16076.765, -10.162029, 0.0, 0.0017841102, 0.006322749, 0.006322749, 0.0, 0.09765625, 0.09612306 
4.8828125e-2, 2.9224133e+1, -0.00028251496, -15963.333, -17.029594, 0.0, 0.0022796781, 0.01788454, 0.01788454, 0.0, 0.09765625, 0.096133634 
4.8828125e-2, 2.932027e+1, -0.00010366833, -15939.071, -10.31499, 0.0, 0.00088389334, 0.006571688, 0.006571688, 0.0, 0.09765625, 0.09613589 
4.8828125e-2, 2.941641e+1, -0.0000058777046, -15813.14, -2.4372222, 0.0, 0.0010500445, 0.00036976254, 0.00036976254, 0.0, 0.09765625, 0.09614763 
4.8828125e-2, 2.951256e+1, -0.000000076358276, -15769.279, 0.15579435, 0.0, 0.0017853196, 0.0000014628295, 0.0000014628295, 0.0, 0.09765625, 0.09615172 
4.8828125e-2, 2.9608718e+1, -0.00000016412004, -15658.791, 0.35783124, 0.0, 0.0014262063, 0.000008012961, 0.000008012961, 0.0, 0.09765625, 0.09616202 
4.8828125e-2, 2.970488e+1, -0.00000040276527, -15605.878, -0.59216785, 0.0, 0.0011097243, 0.000022067148, 0.000022067148, 0.0, 0.09765625, 0.09616695 
4.8828125e-2, 2.9801053e+1, -0.0000014639809, -15503.669, -1.1227742, 0.0, 0.0019639996, 0.000079847225, 0.000079847225, 0.0, 0.09765625, 0.09617649 
4.8828125e-2, 2.9897234e+1, -0.00000034981954, -15452.709, 0.51994133, 0.0, 0.0014750271, 0.000017144783, 0.000017144783, 0.0, 0.09765625, 0.09618124 
4.8828125e-2, 2.9993418e+1, -0.000005206681, -15352.598, 2.3245904, 0.0, 0.00068002765, 0.00034676766, 0.00034676766, 0.0, 0.09765625, 0.09619059 
4.8828125e-2, 3.0089614e+1, -0.00000010580784, -15284.536, 0.23453015, 0.0, 0.001585256, 0.000003492889, 0.000003492889, 0.0, 0.09765625, 0.096196935 
4.8828125e-2, 3.0185813e+1, -0.00015164935, -15199.3955, -12.4696045, 0.0, 0.002082259, 0.010078425, 0.010078425, 0.0, 0.09765625, 0.096204884 
4.8828125e-2, 3.0282024e+1, -0.0000027954343, -15133.69, 1.601991, 0.0, 0.0010892436, 0.00016678483, 0.00016678483, 0.0, 0.09765625, 0.09621102 
4.8828125e-2, 3.0378237e+1, -0.00000896098, -15045.521, 3.0523744, 0.0, 0.0012237789, 0.0006102923, 0.0006102923, 0.0, 0.09765625, 0.09621926 
4.8828125e-2, 3.0474463e+1, -0.0000012060281, -14963.817, -0.99034685, 0.0, 0.0017063989, 0.000064337866, 0.000064337866, 0.0, 0.09765625, 0.09622689 
4.8828125e-2, 3.057069e+1, -0.0000024986527, -14899.645, -1.5036929, 0.0, 0.0012092182, 0.00014925611, 0.00014925611, 0.0, 0.09765625, 0.09623289 
4.8828125e-2, 3.066693e+1, -0.000000078934136, -14804.163, 0.21348068, 0.0, 0.0014608129, 0.0000029995226, 0.0000029995226, 0.0, 0.09765625, 0.09624182 
4.8828125e-2, 3.0763173e+1, -0.00000006366316, -14743.777, -0.18609296, 0.0, 0.0015978247, 0.0000022851636, 0.0000022851636, 0.0, 0.09765625, 0.09624746 
4.8828125e-2, 3.0859426e+1, -0.00000015974672, -14648.476, 0.35630727, 0.0, 0.0012615047, 0.000008507015, 0.000008507015, 0.0, 0.09765625, 0.09625637 
4.8828125e-2, 3.0955684e+1, -0.00000088229217, -14591.269, 0.90820634, 0.0, 0.0015522075, 0.00005564732, 0.00005564732, 0.0, 0.09765625, 0.096261725 
4.8828125e-2, 3.1051952e+1, -0.000002888602, -14485.684, -1.743887, 0.0, 0.0016393926, 0.0002070526, 0.0002070526, 0.0, 0.09765625, 0.0962716 
4.8828125e-2, 3.1148225e+1, -0.0000023911375, -14437.739, 1.4487698, 0.0, 0.0010066411, 0.00014298716, 0.00014298716, 0.0, 0.09765625, 0.09627609 
4.8828125e-2, 3.1244507e+1, -0.00000009530546, -14329.342, -0.11572721, 0.0, 0.0016324808, 0.00000083933446, 0.00000083933446, 0.0, 0.09765625, 0.09628623 
4.8828125e-2, 3.1340796e+1, -0.00000011956233, -14282.013, -0.229072, 0.0, 0.0015594742, 0.000003554569, 0.000003554569, 0.0, 0.09765625, 0.09629066 
4.8828125e-2, 3.1437093e+1, -0.0000073621327, -14172.288, 2.7672029, 0.0, 0.0012506611, 0.0005329466, 0.0005329466, 0.0, 0.09765625, 0.09630094 
4.8828125e-2, 3.1533396e+1, -0.0000100019015, -14118.111, -3.2140443, 0.0, 0.0016610769, 0.00072168803, 0.00072168803, 0.0, 0.09765625, 0.09630601 
4.8828125e-2, 3.1629705e+1, -0.0000072552275, -14027.228, -2.7526731, 0.0, 0.0015288491, 0.00053292344, 0.00053292344, 0.0, 0.09765625, 0.09631453 
4.8828125e-2, 3.1726024e+1, -0.000006337449, -13957.617, 2.5491345, 0.0, 0.0011495663, 0.00045922102, 0.00045922102, 0.0, 0.09765625, 0.09632105 
4.8828125e-2, 3.182235e+1, -0.00017685458, -13844.036, -13.449545, 0.0, 0.001720106, 0.012889429, 0.012889429, 0.0, 0.09765625, 0.09633169 
4.8828125e-2, 3.1918684e+1, -0.0006964764, -13809.516, -26.692215, 0.0, 0.0013184438, 0.050896335, 0.050896335, 0.0, 0.09765625, 0.096334934 
4.8828125e-2, 3.2015023e+1, -0.00019486067, -13727.959, -14.117027, 0.0, 0.0012967987, 0.014322247, 0.014322247, 0.0, 0.09765625, 0.09634258 
4.8828125e-2, 3.211137e+1, -0.0000018918399, -13651.083, -1.2141397, 0.0, 0.0017446192, 0.00010609484, 0.00010609484, 0.0, 0.09765625, 0.09634979 
4.8828125e-2, 3.220772e+1, -0.0000016763489, -13554.329, -1.1402986, 0.0, 0.0015570096, 0.00009425469, 0.00009425469, 0.0, 0.09765625, 0.096358865 
4.8828125e-2, 3.2304084e+1, -0.007763967, -13492.426, -89.09554, 0.0, 0.001091631, 0.58054197, 0.58054197, 0.0, 0.09765625, 0.09636468 
4.8828125e-2, 3.2400456e+1, -0.0000001566498, -13401.084, -0.3377212, 0.0, 0.0014912054, 0.0000083542745, 0.0000083542745, 0.0, 0.09765625, 0.096373245 
4.8828125e-2, 3.249683e+1, -0.00000074530004, -13328.347, -0.78618526, 0.0, 0.0016190842, 0.000045628585, 0.000045628585, 0.0, 0.09765625, 0.09638008 
4.8828125e-2, 3.2593215e+1, -0.00000036243347, -13250.916, -0.52108836, 0.0, 0.0013735424, 0.000020129215, 0.000020129215, 0.0, 0.09765625, 0.09638734 
4.8828125e-2, 3.2689607e+1, -0.000001024736, -13172.002, 0.9113871, 0.0, 0.0013722521, 0.00006203526, 0.00006203526, 0.0, 0.09765625, 0.096394755 
4.8828125e-2, 3.2786003e+1, -0.0000009297931, -13092.187, 0.8732998, 0.0, 0.0016619312, 0.0000573227, 0.0000573227, 0.0, 0.09765625, 0.09640226 
4.8828125e-2, 3.2882413e+1, -0.0000020212358, -13009.9, -1.2832203, 0.0, 0.0012442928, 0.0001245481, 0.0001245481, 0.0, 0.09765625, 0.096409984 
4.8828125e-2, 3.2978824e+1, -0.0000013650775, -12944.19, -1.045297, 0.0, 0.0012480388, 0.00008304699, 0.00008304699, 0.0, 0.09765625, 0.09641616 
4.8828125e-2, 3.3075246e+1, -0.0000024742578, -12853.697, 1.5064211, 0.0, 0.0017579673, 0.00017407449, 0.00017407449, 0.0, 0.09765625, 0.09642467 
4.8828125e-2, 3.3171672e+1, -0.0000011112703, -12784.639, 0.9480942, 0.0, 0.0016202807, 0.000069198315, 0.000069198315, 0.0, 0.09765625, 0.09643116 
4.8828125e-2, 3.326811e+1, -0.0000087001645, -12693.673, -3.0090582, 0.0, 0.0010607645, 0.0007046025, 0.0007046025, 0.0, 0.09765625, 0.09643972 
4.8828125e-2, 3.3364552e+1, -0.000005079369, -12634.475, -2.2957234, 0.0, 0.0015536064, 0.0004120607, 0.0004120607, 0.0, 0.09765625, 0.096445285 
4.8828125e-2, 3.3461002e+1, -0.0000022834781, -12534.049, 1.4404819, 0.0, 0.0016205532, 0.00016326463, 0.00016326463, 0.0, 0.09765625, 0.09645473 
4.8828125e-2, 3.3557457e+1, -0.0000007497912, -12478.893, 0.7666055, 0.0, 0.0011612531, 0.000046344452, 0.000046344452, 0.0, 0.09765625, 0.096459925 
4.8828125e-2, 3.3653924e+1, -0.0000013477246, -12370.326, -1.0161769, 0.0, 0.0015933709, 0.00008212749, 0.00008212749, 0.0, 0.09765625, 0.09647015 
4.8828125e-2, 3.3750397e+1, -0.0000011700333, -12331.289, -0.9620595, 0.0, 0.0019919001, 0.00007388769, 0.00007388769, 0.0, 0.09765625, 0.09647382 
4.8828125e-2, 3.3846873e+1, -0.0000023483085, -12208.36, 1.4616883, 0.0, 0.0009820623, 0.0001726574, 0.0001726574, 0.0, 0.09765625, 0.0964854 
4.8828125e-2, 3.3943364e+1, -0.0000024383664, -12180.739, 1.5080085, 0.0, 0.0009445873, 0.00018425718, 0.00018425718, 0.0, 0.09765625, 0.096488 
4.8828125e-2, 3.403986e+1, -0.0000039693787, -12041.481, -2.029848, 0.0, 0.0021679292, 0.00033820467, 0.00033820467, 0.0, 0.09765625, 0.09650112 
4.8828125e-2, 3.413636e+1, -0.0000031568347, -12033.698, -1.7898673, 0.0, 0.0017316246, 0.0002630643, 0.0002630643, 0.0, 0.09765625, 0.09650185 
4.8828125e-2, 3.4232867e+1, -0.000005512318, -11883.276, 2.3915942, 0.0, 0.0008971909, 0.00047581302, 0.00047581302, 0.0, 0.09765625, 0.096516035 
4.8828125e-2, 3.4329385e+1, -0.0000018405104, -11878.219, 1.2307984, 0.0, 0.001535761, 0.00012569247, 0.00012569247, 0.0, 0.09765625, 0.09651651 
4.8828125e-2, 3.442591e+1, -0.0000020196517, -11718.597, -1.4280427, 0.0, 0.0017219493, 0.00017200338, 0.00017200338, 0.0, 0.09765625, 0.09653156 
4.8828125e-2, 3.4522438e+1, -0.00000071535226, -11732.498, 0.755498, 0.0, 0.0011279215, 0.0000479339, 0.0000479339, 0.0, 0.09765625, 0.09653025 
4.8828125e-2, 3.461898e+1, -0.00000012957702, -11555.438, -0.28221127, 0.0, 0.0016771813, 0.0000067626934, 0.0000067626934, 0.0, 0.09765625, 0.096546955 
4.8828125e-2, 3.471552e+1, -0.000003097983, -11583.746, -1.7862883, 0.0, 0.0015896322, 0.00027235918, 0.00027235918, 0.0, 0.09765625, 0.09654429 
4.8828125e-2, 3.4812078e+1, -0.000008076727, -11401.327, 2.903473, 0.0, 0.0012582004, 0.0007313244, 0.0007313244, 0.0, 0.09765625, 0.09656151 
4.8828125e-2, 3.4908637e+1, -0.00012637179, -11428.475, -11.348075, 0.0, 0.0015218982, 0.011141858, 0.011141858, 0.0, 0.09765625, 0.09655894 
4.8828125e-2, 3.5005206e+1, -0.0000015565049, -11235.659, -1.1907215, 0.0, 0.001533268, 0.0001246326, 0.0001246326, 0.0, 0.09765625, 0.096577145 
4.8828125e-2, 3.510178e+1, -0.0000015087795, -11278.304, 1.1124043, 0.0, 0.0013256355, 0.000108210144, 0.000108210144, 0.0, 0.09765625, 0.09657312 
4.8828125e-2, 3.5198364e+1, -0.0000006029307, -11078.08, 0.69162244, 0.0, 0.0017180928, 0.000042576175, 0.000042576175, 0.0, 0.09765625, 0.09659204 
4.8828125e-2, 3.5294956e+1, -0.00000010836764, -11126.26, -0.21230742, 0.0, 0.0011130633, 0.0000039428087, 0.0000039428087, 0.0, 0.09765625, 0.09658749 
4.8828125e-2, 3.539155e+1, -0.0000000735085, -10919.835, 0.016879622, 0.0, 0.0015502527, -0.000000047417416, -0.000000047417416, 0.0, 0.09765625, 0.09660699 
4.8828125e-2, 3.5488158e+1, -0.000005662305, -10966.931, -2.4432247, 0.0, 0.00194797, 0.00053864194, 0.00053864194, 0.0, 0.09765625, 0.096602544 
4.8828125e-2, 3.5584766e+1, -0.000003848262, -10771.344, 1.9997662, 0.0, 0.0011663137, 0.00036742064, 0.00036742064, 0.0, 0.09765625, 0.09662104 
4.8828125e-2, 3.5681388e+1, -0.0000086380805, -10805.911, 2.973685, 0.0, 0.0011577399, 0.00080969196, 0.00080969196, 0.0, 0.09765625, 0.096617766 
4.8828125e-2, 3.5778016e+1, -0.000000715964, -10616.112, -0.7170903, 0.0, 0.0018798875, 0.000047721594, 0.000047721594, 0.0, 0.09765625, 0.09663572 
4.8828125e-2, 3.587465e+1, -0.00015135568, -10672.487, 12.411269, 0.0, 0.0013497205, 0.014281961, 0.014281961, 0.0, 0.09765625, 0.09663039 
4.8828125e-2, 3.597129e+1, -0.0062570046, -10449.075, -79.78536, 0.0, 0.0014960538, 0.60292006, 0.60292006, 0.0, 0.09765625, 0.09665153 
4.8828125e-2, 3.606794e+1, -0.00016625613, -10483.997, 13.005054, 0.0, 0.0014837281, 0.015966062, 0.015966062, 0.0, 0.09765625, 0.09664823 
4.8828125e-2, 3.6164597e+1, -0.00000088060153, -10292.283, 0.7985126, 0.0, 0.001462859, 0.000061070896, 0.000061070896, 0.0, 0.09765625, 0.09666638 
4.8828125e-2, 3.626126e+1, -0.0000017512929, -10343.687, -1.2081709, 0.0, 0.0015102818, 0.00013936637, 0.00013936637, 0.0, 0.09765625, 0.096661516 
4.8828125e-2, 3.635793e+1, -0.00000024932152, -10138.645, 0.3773128, 0.0, 0.0015338608, 0.000013792493, 0.000013792493, 0.0, 0.09765625, 0.09668094 
4.8828125e-2, 3.6454612e+1, -0.0000010925256, -10185.073, 0.8797147, 0.0, 0.0013101578, 0.00007489102, 0.00007489102, 0.0, 0.09765625, 0.09667654 
4.8828125e-2, 3.6551297e+1, -0.00000008026615, -9985.872, 0.16135535, 0.0, 0.0015768423, 0.0000025269728, 0.0000025269728, 0.0, 0.09765625, 0.09669542 
4.8828125e-2, 3.664799e+1, -0.00000016034024, -10027.995, -0.31179428, 0.0, 0.0015454985, 0.000009534087, 0.000009534087, 0.0, 0.09765625, 0.09669143 
4.8828125e-2, 3.674469e+1, -0.00000008855316, -9831.673, -0.039934702, 0.0, 0.0014832107, 0.00000007365452, 0.00000007365452, 0.0, 0.09765625, 0.09671004 
4.8828125e-2, 3.68414e+1, -0.000000069573844, -9868.45, -0.13595097, 0.0, 0.0013217033, 0.0000018033315, 0.0000018033315, 0.0, 0.09765625, 0.096706554 
4.8828125e-2, 3.6938113e+1, -0.00000017593553, -9676.743, 0.2556204, 0.0, 0.001553964, 0.00000657652, 0.00000657652, 0.0, 0.09765625, 0.09672474 
4.8828125e-2, 3.703484e+1, -0.000000090928104, -9709.634, 0.1261539, 0.0, 0.0015756465, 0.0000015481455, 0.0000015481455, 0.0, 0.09765625, 0.09672162 
4.8828125e-2, 3.7131566e+1, -0.00000020897842, -9526.554, -0.33165333, 0.0, 0.0014500674, 0.000011337059, 0.000011337059, 0.0, 0.09765625, 0.096738994 
4.8828125e-2, 3.722831e+1, -0.00000039226086, -9547.309, 0.52191246, 0.0, 0.0013558767, 0.000028138567, 0.000028138567, 0.0, 0.09765625, 0.09673703 
4.8828125e-2, 3.732505e+1, -0.0000057255943, -9373.192, -2.4265988, 0.0, 0.0015446359, 0.00062248955, 0.00062248955, 0.0, 0.09765625, 0.09675356 
4.8828125e-2, 3.7421808e+1, -0.0000011140625, -9384.827, -0.953168, 0.0, 0.0015315148, 0.000095694246, 0.000095694246, 0.0, 0.09765625, 0.09675245 
4.8828125e-2, 3.751856e+1, -0.00000018035635, -9229.107, 0.3159785, 0.0, 0.001406672, 0.000010637854, 0.000010637854, 0.0, 0.09765625, 0.09676725 
4.8828125e-2, 3.7615335e+1, -0.0000021440949, -9218.92, 1.4835433, 0.0, 0.001526474, 0.00023659326, 0.00023659326, 0.0, 0.09765625, 0.096768215 
4.8828125e-2, 3.7712106e+1, -0.00000021535229, -9077.682, -0.29951644, 0.0, 0.0014758724, 0.000009667139, 0.000009667139, 0.0, 0.09765625, 0.096781634 
4.8828125e-2, 3.7808892e+1, -0.0000023038572, -9054.5205, -1.5477822, 0.0, 0.00144197, 0.00026227444, 0.00026227444, 0.0, 0.09765625, 0.09678384 
4.8828125e-2, 3.7905678e+1, -0.0000005403328, -8932.641, 0.63329315, 0.0, 0.0014071792, 0.00004435795, 0.00004435795, 0.0, 0.09765625, 0.096795425 
4.8828125e-2, 3.800248e+1, -0.0000029439336, -8891.057, 1.7252208, 0.0, 0.001688729, 0.00033181792, 0.00033181792, 0.0, 0.09765625, 0.09679938 
4.8828125e-2, 3.809928e+1, -0.00000017614911, -8776.431, -0.28562915, 0.0, 0.001458822, 0.000009119658, 0.000009119658, 0.0, 0.09765625, 0.09681029 
4.8828125e-2, 3.81961e+1, -0.0000022137062, -8729.819, -1.5086895, 0.0, 0.0012899747, 0.00025851838, 0.00025851838, 0.0, 0.09765625, 0.09681472 
4.8828125e-2, 3.8292915e+1, -0.00000054904024, -8631.651, 0.6443509, 0.0, 0.0014124591, 0.000047551614, 0.000047551614, 0.0, 0.09765625, 0.096824065 
4.8828125e-2, 3.8389742e+1, -0.00000188395, -8565.6045, 1.3854773, 0.0, 0.0019040158, 0.00022221552, 0.00022221552, 0.0, 0.09765625, 0.09683035 
4.8828125e-2, 3.8486576e+1, -0.00000039712933, -8476.717, -0.46701887, 0.0, 0.0013366706, 0.000025332956, 0.000025332956, 0.0, 0.09765625, 0.09683882 
4.8828125e-2, 3.8583425e+1, -0.0000002715404, -8406.271, -0.34752855, 0.0, 0.0012860822, 0.000014095838, 0.000014095838, 0.0, 0.09765625, 0.09684552 
4.8828125e-2, 3.8680267e+1, -0.00000024827088, -8326.06, 0.37070617, 0.0, 0.001546193, 0.000016256905, 0.000016256905, 0.0, 0.09765625, 0.09685317 
4.8828125e-2, 3.877713e+1, -0.000000066271994, -8245.559, 0.1152531, 0.0, 0.0016802904, 0.0000015446894, 0.0000015446894, 0.0, 0.09765625, 0.09686083 
4.8828125e-2, 3.8873988e+1, -0.00000010746806, -8171.692, 0.18764198, 0.0, 0.0013198819, 0.0000042012507, 0.0000042012507, 0.0, 0.09765625, 0.096867874 
4.8828125e-2, 3.8970864e+1, -0.00021107434, -8085.264, -14.626961, 0.0, 0.0015970054, 0.02625031, 0.02625031, 0.0, 0.09765625, 0.096876115 
4.8828125e-2, 3.9067742e+1, -0.000013542768, -8020.9404, -3.7032928, 0.0, 0.0014253043, 0.0016962786, 0.0016962786, 0.0, 0.09765625, 0.09688225 
4.8828125e-2, 3.916463e+1, -0.00005275746, -7927.5728, -7.309617, 0.0, 0.0015259598, 0.006687068, 0.006687068, 0.0, 0.09765625, 0.09689115 
4.8828125e-2, 3.9261523e+1, -0.00000023551192, -7862.459, 0.34909254, 0.0, 0.0015172189, 0.00001526417, 0.00001526417, 0.0, 0.09765625, 0.09689736 
4.8828125e-2, 3.9358425e+1, -0.00000018805956, -7766.951, 0.30212405, 0.0, 0.0014455479, 0.000011564162, 0.000011564162, 0.0, 0.09765625, 0.096906476 
4.8828125e-2, 3.9455333e+1, -0.0000004984832, -7713.02, 0.535558, 0.0, 0.0012626409, 0.00003668829, 0.00003668829, 0.0, 0.09765625, 0.096911624 
4.8828125e-2, 3.9552253e+1, -0.00000031915064, -7607.3774, -0.45459995, 0.0, 0.0019255817, 0.00002684673, 0.00002684673, 0.0, 0.09765625, 0.096921705 
4.8828125e-2, 3.9649177e+1, -0.0000003728035, -7560.311, -0.4923949, 0.0, 0.0015520651, 0.00003169634, 0.00003169634, 0.0, 0.09765625, 0.0969262 
4.8828125e-2, 3.974611e+1, -0.00000025222275, -7447.1543, 0.2999492, 0.0, 0.00097541744, 0.000011828838, 0.000011828838, 0.0, 0.09765625, 0.09693701 
4.8828125e-2, 3.9843047e+1, -0.000000076508975, -7405.7188, -0.05332456, 0.0, 0.0013640692, 0.00000030745196, 0.00000030745196, 0.0, 0.09765625, 0.096940964 
4.8828125e-2, 3.9939994e+1, -0.0000006339769, -7288.122, -0.6769555, 0.0, 0.0022077162, 0.00006224488, 0.00006224488, 0.0, 0.09765625, 0.0969522 
4.8828125e-2, 4.003695e+1, -0.00000008497429, -7252.7075, -0.02600596, 0.0, 0.001318535, 0.000000008275492, 0.000000008275492, 0.0, 0.09765625, 0.09695558 
4.8828125e-2, 4.0133908e+1, -0.00000062837523, -7135.674, 0.7070697, 0.0, 0.0010553972, 0.00006943474, 0.00006943474, 0.0, 0.09765625, 0.09696677 
4.8828125e-2, 4.0230882e+1, -0.0000010195675, -7088.0503, -0.90801865, 0.0, 0.0016452715, 0.00011530266, 0.00011530266, 0.0, 0.09765625, 0.096971326 
4.8828125e-2, 4.0327853e+1, -0.0000019072824, -6980.0537, -1.3864316, 0.0, 0.0016419971, 0.00027347633, 0.00027347633, 0.0, 0.09765625, 0.09698165 
4.8828125e-2, 4.042484e+1, -0.00000005616313, -6934.6763, -0.048604723, 0.0, 0.0012470443, 0.0000002845045, 0.0000002845045, 0.0, 0.09765625, 0.096985996 
4.8828125e-2, 4.0521827e+1, -0.0000011893895, -6826.9907, 1.1066829, 0.0, 0.0016742188, 0.0001782084, 0.0001782084, 0.0, 0.09765625, 0.0969963 
4.8828125e-2, 4.061883e+1, -0.000000109221155, -6771.7197, 0.12555096, 0.0, 0.001533848, 0.000002218554, 0.000002218554, 0.0, 0.09765625, 0.09700159 
4.8828125e-2, 4.0715832e+1, -0.000003868567, -6673.276, -2.0144928, 0.0, 0.0012182952, 0.00060425565, 0.00060425565, 0.0, 0.09765625, 0.09701101 
4.8828125e-2, 4.081285e+1, -0.0000013539373, -6615.2563, -1.1564133, 0.0, 0.0014366466, 0.00020079874, 0.00020079874, 0.0, 0.09765625, 0.097016566 
4.8828125e-2, 4.090987e+1, -0.000007479727, -6525.952, 2.7429543, 0.0, 0.0016991323, 0.0011454242, 0.0011454242, 0.0, 0.09765625, 0.09702512 
4.8828125e-2, 4.1006902e+1, -0.0000010173621, -6444.3296, 1.0351483, 0.0, 0.001659041, 0.00016525778, 0.00016525778, 0.0, 0.09765625, 0.097032934 
4.8828125e-2, 4.1103935e+1, -0.000017642931, -6371.917, -4.220691, 0.0, 0.0009983977, 0.0027780978, 0.0027780978, 0.0, 0.09765625, 0.09703987 
4.8828125e-2, 4.120098e+1, -0.00000042252083, -6295.4824, -0.586241, 0.0, 0.0012926025, 0.000054168773, 0.000054168773, 0.0, 0.09765625, 0.097047195 
4.8828125e-2, 4.1298026e+1, -0.000008094476, -6217.525, 2.859604, 0.0, 0.002084674, 0.0013071126, 0.0013071126, 0.0, 0.09765625, 0.09705467 
4.8828125e-2, 4.1395092e+1, -0.0000004149312, -6128.214, -0.5339992, 0.0, 0.0015935254, 0.0000461166, 0.0000461166, 0.0, 0.09765625, 0.097063236 
4.8828125e-2, 4.1492152e+1, -0.0000011175846, -6065.117, -1.0458882, 0.0, 0.00073531934, 0.00017923869, 0.00017923869, 0.0, 0.09765625, 0.097069286 
4.8828125e-2, 4.1589233e+1, -0.0000014222001, -5975.4106, -1.201391, 0.0, 0.0017999517, 0.0002401244, 0.0002401244, 0.0, 0.09765625, 0.09707789 
4.8828125e-2, 4.1686308e+1, -0.0000003556443, -5909.648, 0.41858986, 0.0, 0.0015668663, 0.000029293748, 0.000029293748, 0.0, 0.09765625, 0.0970842 
4.8828125e-2, 4.17834e+1, -0.000002306861, -5810.226, 1.568616, 0.0, 0.001244258, 0.0004211803, 0.0004211803, 0.0, 0.09765625, 0.09709374 
4.8828125e-2, 4.1880494e+1, -0.00008076753, -5743.924, -9.029567, 0.0, 0.0016959284, 0.014113863, 0.014113863, 0.0, 0.09765625, 0.0971001 
4.8828125e-2, 4.1977605e+1, -0.00024048376, -5661.7744, -15.580816, 0.0, 0.0016679245, 0.042636532, 0.042636532, 0.0, 0.09765625, 0.09710799 
4.8828125e-2, 4.207471e+1, -0.000045665456, -5609.7817, -6.7889752, 0.0, 0.0009900357, 0.008170362, 0.008170362, 0.0, 0.09765625, 0.09711298 
4.8828125e-2, 4.2171833e+1, -0.00000023455979, -5499.2837, 0.33932343, 0.0, 0.0017837217, 0.000020702784, 0.000020702784, 0.0, 0.09765625, 0.0971236 
4.8828125e-2, 4.2268956e+1, -0.00000033781592, -5445.6943, -0.3964427, 0.0, 0.0014277035, 0.000028522933, 0.000028522933, 0.0, 0.09765625, 0.09712875 
4.8828125e-2, 4.2366093e+1, -0.00000049876644, -5343.2305, -0.54008, 0.0, 0.0012858431, 0.00005409113, 0.00005409113, 0.0, 0.09765625, 0.09713859 
4.8828125e-2, 4.246323e+1, -0.0000004551168, -5291.57, 0.50518453, 0.0, 0.0017300282, 0.00004777469, 0.00004777469, 0.0, 0.09765625, 0.09714356 
4.8828125e-2, 4.2560384e+1, -0.00000012231708, -5181.303, 0.18799509, 0.0, 0.0019160708, 0.000006698777, 0.000006698777, 0.0, 0.09765625, 0.09715416 
4.8828125e-2, 4.265753e+1, -0.0000003367334, -5137.891, -0.32931924, 0.0, 0.00071682624, 0.000020771375, 0.000020771375, 0.0, 0.09765625, 0.097158335 
4.8828125e-2, 4.27547e+1, -0.00000006587701, -5024.082, 0.0984855, 0.0, 0.001520033, 0.0000018647024, 0.0000018647024, 0.0, 0.09765625, 0.09716928 
4.8828125e-2, 4.2851868e+1, -0.00000024539915, -4982.024, 0.33588797, 0.0, 0.00196146, 0.000022400163, 0.000022400163, 0.0, 0.09765625, 0.097173326 
4.8828125e-2, 4.294905e+1, -0.00000009711719, -4867.707, -0.14954813, 0.0, 0.0015155788, 0.000004497376, 0.000004497376, 0.0, 0.09765625, 0.09718433 
4.8828125e-2, 4.3046233e+1, -0.00000011993897, -4823.839, -0.15766749, 0.0, 0.001073579, 0.000005033433, 0.000005033433, 0.0, 0.09765625, 0.097188555 
4.8828125e-2, 4.3143433e+1, -0.00000037778597, -4712.8457, -0.44294345, 0.0, 0.0018633925, 0.00004125288, 0.00004125288, 0.0, 0.09765625, 0.09719924 
4.8828125e-2, 4.324063e+1, -0.0000009180543, -4663.394, -0.9857161, 0.0, 0.0012671966, 0.00020743582, 0.00020743582, 0.0, 0.09765625, 0.097204 
4.8828125e-2, 4.333784e+1, -0.00017866326, -4558.9824, -13.416777, 0.0, 0.0013741835, 0.039305665, 0.039305665, 0.0, 0.09765625, 0.09721406 
4.8828125e-2, 4.3435055e+1, -0.000041858882, -4505.1084, -6.49396, 0.0, 0.0017354899, 0.009318943, 0.009318943, 0.0, 0.09765625, 0.09721925 
4.8828125e-2, 4.3532285e+1, -0.00000004617838, -4411.3745, 0.04708636, 0.0, 0.0016778287, 0.00000045641445, 0.00000045641445, 0.0, 0.09765625, 0.09722828 
4.8828125e-2, 4.3629512e+1, -0.000001602207, -4341.8677, 1.3063408, 0.0, 0.0010608382, 0.0003914375, 0.0003914375, 0.0, 0.09765625, 0.09723498 
4.8828125e-2, 4.3726754e+1, -0.0000013158524, -4258.0024, -1.2068441, 0.0, 0.001484755, 0.0003407395, 0.0003407395, 0.0, 0.09765625, 0.09724306 
4.8828125e-2, 4.3823996e+1, -0.00000027372266, -4178.913, -0.36429894, 0.0, 0.0016892683, 0.000031484225, 0.000031484225, 0.0, 0.09765625, 0.09725069 
4.8828125e-2, 4.3921253e+1, -0.0000005629242, -4108.0547, 0.77332383, 0.0, 0.0016095717, 0.00014501199, 0.00014501199, 0.0, 0.09765625, 0.097257525 
4.8828125e-2, 4.4018513e+1, -0.0000004859255, -4014.4534, -0.65129095, 0.0, 0.001189873, 0.00010517724, 0.00010517724, 0.0, 0.09765625, 0.097266555 
4.8828125e-2, 4.4115785e+1, -0.000000096024266, -3962.0425, -0.20510156, 0.0, 0.0013098542, 0.000010521389, 0.000010521389, 0.0, 0.09765625, 0.097271614 
4.8828125e-2, 4.4213063e+1, -0.00000025303856, -3854.7244, -0.3659406, 0.0, 0.0018263623, 0.000034486802, 0.000034486802, 0.0, 0.09765625, 0.09728198 
4.8828125e-2, 4.4310343e+1, -0.00000034805123, -3805.0974, 0.5815417, 0.0, 0.0015040791, 0.000088530294, 0.000088530294, 0.0, 0.09765625, 0.09728677 
4.8828125e-2, 4.440764e+1, -0.00000025451968, -3690.7485, 0.5106061, 0.0, 0.0011905017, 0.00007038659, 0.00007038659, 0.0, 0.09765625, 0.09729781 
4.8828125e-2, 4.4504938e+1, -0.00000048922413, -3663.366, -0.5874556, 0.0, 0.0014740301, 0.00009371486, 0.00009371486, 0.0, 0.09765625, 0.097300455 
4.8828125e-2, 4.4602245e+1, -0.00005566284, -3545.7617, 7.4818177, 0.0, 0.0016369344, 0.015731452, 0.015731452, 0.0, 0.09765625, 0.09731182 
4.8828125e-2, 4.469956e+1, -0.0064751534, -3498.8315, -80.702446, 0.0, 0.0012457023, 1.8539846, 1.8539846, 0.0, 0.09765625, 0.09731635 
4.8828125e-2, 4.4796878e+1, -0.00008912277, -3361.3333, 9.466859, 0.0, 0.0016178628, 0.026573125, 0.026573125, 0.0, 0.09765625, 0.09732964 
4.8828125e-2, 4.489421e+1, -0.0000009190239, -3352.088, -0.9819341, 0.0, 0.0014702199, 0.00028672096, 0.00028672096, 0.0, 0.09765625, 0.09733053 
4.8828125e-2, 4.4991547e+1, -0.000029517445, -3221.8552, 5.447111, 0.0, 0.001369749, 0.009179753, 0.009179753, 0.0, 0.09765625, 0.097343124 
4.8828125e-2, 4.5088893e+1, -0.0054771835, -3193.834, -74.20453, 0.0, 0.0013259891, 1.7176408, 1.7176408, 0.0, 0.09765625, 0.09734584 
4.8828125e-2, 4.5186245e+1, -0.000052730487, -3044.0122, 7.279107, 0.0, 0.0017173166, 0.017353605, 0.017353605, 0.0, 0.09765625, 0.097360335 
4.8828125e-2, 4.5283607e+1, -0.00000030202625, -3046.2695, -0.4273245, 0.0, 0.0012147749, 0.000059642185, 0.000059642185, 0.0, 0.09765625, 0.09736011 
4.8828125e-2, 4.5380974e+1, -0.0000018160758, -2889.2007, -1.346081, 0.0, 0.0016344873, 0.000625324, 0.000625324, 0.0, 0.09765625, 0.09737532 
4.8828125e-2, 4.5478347e+1, -0.00000015030646, -2894.7588, 0.17863318, 0.0, 0.0013840399, 0.000010873, 0.000010873, 0.0, 0.09765625, 0.09737478 
4.8828125e-2, 4.5575732e+1, -0.00000052994426, -2730.5654, 0.78029734, 0.0, 0.0015210538, 0.00022245092, 0.00022245092, 0.0, 0.09765625, 0.09739068 
4.8828125e-2, 4.5673123e+1, -0.000000113119164, -2742.511, 0.042005237, 0.0, 0.0011993555, 0.00000053024723, 0.00000053024723, 0.0, 0.09765625, 0.09738953 
4.8828125e-2, 4.577052e+1, -0.0000010151649, -2574.8042, -1.0304593, 0.0, 0.0018150391, 0.0004113836, 0.0004113836, 0.0, 0.09765625, 0.09740577 
4.8828125e-2, 4.5867923e+1, -0.000000254506, -2583.5452, -0.39477724, 0.0, 0.0012499427, 0.000060069222, 0.000060069222, 0.0, 0.09765625, 0.09740493 
4.8828125e-2, 4.596534e+1, -0.00000021361659, -2421.6, 0.50415736, 0.0, 0.001575557, 0.00010474782, 0.00010474782, 0.0, 0.09765625, 0.09742062 
4.8828125e-2, 4.6062756e+1, -0.00000018780862, -2423.1184, -0.39008418, 0.0, 0.001412126, 0.000062609644, 0.000062609644, 0.0, 0.09765625, 0.09742048 
4.8828125e-2, 4.6160185e+1, -0.00000009183696, -2271.383, 0.07880713, 0.0, 0.0015647719, 0.0000026424277, 0.0000026424277, 0.0, 0.09765625, 0.09743519 
4.8828125e-2, 4.625762e+1, -0.00000016726322, -2262.4424, 0.39453912, 0.0, 0.001213974, 0.00006863498, 0.00006863498, 0.0, 0.09765625, 0.097436056 
4.8828125e-2, 4.6355066e+1, -0.00000030160624, -2117.98, -0.62889016, 0.0, 0.0018039917, 0.00018643425, 0.00018643425, 0.0, 0.09765625, 0.09745007 
4.8828125e-2, 4.6452513e+1, -0.0000005321654, -2102.5208, -0.75733644, 0.0, 0.001305307, 0.00027226342, 0.00027226342, 0.0, 0.09765625, 0.09745157 
4.8828125e-2, 4.6549973e+1, -0.00000043018917, -1967.6934, 0.72110397, 0.0, 0.0015509968, 0.000263834, 0.000263834, 0.0, 0.09765625, 0.09746466 
4.8828125e-2, 4.6647438e+1, -0.00000015314947, -1938.6094, 0.25568178, 0.0, 0.0014303152, 0.000033568533, 0.000033568533, 0.0, 0.09765625, 0.09746748 
4.8828125e-2, 4.6744916e+1, -0.00000013781703, -1822.9098, 0.19273733, 0.0, 0.0015410993, 0.000020240412, 0.000020240412, 0.0, 0.09765625, 0.09747872 
4.8828125e-2, 4.6842393e+1, -0.0000003531891, -1771.9886, 0.6304925, 0.0, 0.0013992217, 0.00022398277, 0.00022398277, 0.0, 0.09765625, 0.097483665 
4.8828125e-2, 4.6939886e+1, -0.0000005108091, -1670.0795, -0.71574545, 0.0, 0.0016340291, 0.00030623595, 0.00030623595, 0.0, 0.09765625, 0.09749357 
4.8828125e-2, 4.7037375e+1, -0.00000012123998, -1612.0376, -0.40833396, 0.0, 0.0012290628, 0.000103310966, 0.000103310966, 0.0, 0.09765625, 0.09749921 
4.8828125e-2, 4.7134885e+1, -0.0000015629205, -1527.8367, 1.2540878, 0.0, 0.001675028, 0.001027824, 0.001027824, 0.0, 0.09765625, 0.09750739 
4.8828125e-2, 4.7232392e+1, -0.00000070782977, -1439.796, 0.85172945, 0.0, 0.0017090264, 0.0005031433, 0.0005031433, 0.0, 0.09765625, 0.09751595 
4.8828125e-2, 4.7329915e+1, -0.00000018585123, -1373.5236, -0.46928218, 0.0, 0.0012099167, 0.00016015048, 0.00016015048, 0.0, 0.09765625, 0.09752239 
4.8828125e-2, 4.7427437e+1, -0.0000013534799, -1285.0459, -1.1681497, 0.0, 0.0012093096, 0.0010605328, 0.0010605328, 0.0, 0.09765625, 0.097531 
4.8828125e-2, 4.7524974e+1, -0.00000040254207, -1231.7332, 0.6693493, 0.0, 0.0019298488, 0.00036333565, 0.00036333565, 0.0, 0.09765625, 0.097536184 
4.8828125e-2, 4.7622514e+1, -0.00000050166665, -1106.9497, 0.7185961, 0.0, 0.0016365126, 0.00046598763, 0.00046598763, 0.0, 0.09765625, 0.09754833 
4.8828125e-2, 4.7720066e+1, -0.0003968615, -1074.079, -19.939497, 0.0, 0.0010976132, 0.36963806, 0.36963806, 0.0, 0.09765625, 0.097551525 
4.8828125e-2, 4.781762e+1, -0.00047500065, -956.87067, -21.811707, 0.0, 0.0014993587, 0.4964614, 0.4964614, 0.0, 0.09765625, 0.09756294 
4.8828125e-2, 4.7915187e+1, -0.0000114394015, -940.44855, -3.3850276, 0.0, 0.0016899196, 0.01217239, 0.01217239, 0.0, 0.09765625, 0.09756454 
4.8828125e-2, 4.8012757e+1, 0.00000005327297, -781.70233, -0.12335294, 0.0, 0.0013812036, 0.000019518417, 0.000019518417, 0.0, 0.09765625, 0.09758 
4.8828125e-2, 4.811034e+1, -0.000000052592583, -787.79443, 0.057324883, 0.0, 0.0014211311, 0.000004118727, 0.000004118727, 0.0, 0.09765625, 0.097579405 
4.8828125e-2, 4.8207924e+1, 0.00000001909931, -617.9271, -0.07066877, 0.0, 0.001804353, 0.00000810108, 0.00000810108, 0.0, 0.09765625, 0.09759596 
4.8828125e-2, 4.8305523e+1, -0.00000028293599, -639.86896, 0.5653629, 0.0, 0.0011478623, 0.0004992489, 0.0004992489, 0.0, 0.09765625, 0.09759382 
4.8828125e-2, 4.8403123e+1, -0.0000000044608006, -453.60193, 0.07995641, 0.0, 0.0013546834, 0.000014089454, 0.000014089454, 0.0, 0.09765625, 0.097611986 
4.8828125e-2, 4.8500738e+1, 0.000000015309103, -505.83234, -0.08097903, 0.0, 0.0016218161, 0.000012979294, 0.000012979294, 0.0, 0.09765625, 0.09760689 
4.8828125e-2, 4.859835e+1, -0.00000017726364, -272.57275, 0.43955404, 0.0, 0.0020060078, 0.0007086509, 0.0007086509, 0.0, 0.09765625, 0.097629644 
4.8828125e-2, 4.8695982e+1, -0.00000018141556, -352.22736, -0.39789265, 0.0, 0.0012542226, 0.00044929635, 0.00044929635, 0.0, 0.09765625, 0.09762187 
4.8828125e-2, 4.8793605e+1, -0.0000000024675153, -116.60863, -0.032527044, 0.0, -0.0004330329, 0.000009070692, 0.000009070692, 0.0, 0.09765625, 0.097644866 
4.8828125e-2, 4.8891258e+1, -0.0000017909238, -147.90404, 1.3457669, 0.0, 0.0040622703, 0.012242221, 0.012242221, 0.0, 0.09765625, 0.09764181 
4.8828125e-2, 4.89889e+1, -0.00000043501714, -17.255476, -0.63720083, 0.0, 0.00054206554, 0.023497771, 0.023497771, 0.0, 0.09765625, 0.097654566 
1.4648438e-1, 4.698746e-2, -0.000000008022171, -39934.656, -0.007598987, 0.0, 0.0000017217196, -0.0000000065774657, -0.0000000065774657, 0.0, 0.09765625, 0.0939746 
1.4648438e-1, 1.4096238e-1, -0.000000011398089, -39936.453, -0.022797037, 0.0, 0.000005165146, 0.0000000016152626, 0.0000000016152626, 0.0, 0.09765625, 0.09397444 
1.4648438e-1, 2.3494416e-1, 0.0000000050967586, -39778.926, -0.03702948, 0.0, 0.000019677547, 0.00000003955938, 0.00000003955938, 0.0, 0.09765625, 0.093988165 
1.4648438e-1, 3.2893276e-1, -0.0000000147928825, -39779.215, -0.04992771, 0.0, 0.000016312311, 0.000000047868525, 0.000000047868525, 0.0, 0.09765625, 0.09398814 
1.4648438e-1, 4.2292824e-1, 0.000000008735168, -39622.246, -0.061038792, 0.0, 0.000028155506, 0.000000102765625, 0.000000102765625, 0.0, 0.09765625, 0.09400182 
1.4648438e-1, 5.1693046e-1, -0.000000010326174, -39622.938, -0.06895847, 0.0, 0.000027030388, 0.00000010969234, 0.00000010969234, 0.0, 0.09765625, 0.094001755 
1.4648438e-1, 6.109396e-1, 0.0000000052161737, -39465.67, -0.07628887, 0.0, 0.000038323717, 0.00000015268597, 0.00000015268597, 0.0, 0.09765625, 0.09401547 
1.4648438e-1, 7.0495546e-1, -0.00000003367127, -39466.55, -0.07939469, 0.0, 0.000034240427, 0.00000012604141, 0.00000012604141, 0.0, 0.09765625, 0.09401539 
1.4648438e-1, 7.989782e-1, 0.000000011511875, -39309.156, -0.08084957, 0.0, 0.000047889618, 0.0000001777953, 0.0000001777953, 0.0, 0.09765625, 0.09402912 
1.4648438e-1, 8.930077e-1, -0.000000024053175, -39310.105, -0.07959182, 0.0, 0.000044744378, 0.00000013710087, 0.00000013710087, 0.0, 0.09765625, 0.09402904 
1.4648438e-1, 9.870441e-1, 0.000000002823763, -39152.68, -0.077116914, 0.0, 0.000056827626, 0.00000015471596, 0.00000015471596, 0.0, 0.09765625, 0.09404277 
1.4648438e-1, 1.0810872e+0, -0.000000012349966, -39153.61, -0.07113855, 0.0, 0.000054967542, 0.00000011690281, 0.00000011690281, 0.0, 0.09765625, 0.09404269 
1.4648438e-1, 1.1751373e+0, 0.000000003396569, -38996.273, -0.06502191, 0.0, 0.00006792373, 0.00000011181692, 0.00000011181692, 0.0, 0.09765625, 0.09405643 
1.4648438e-1, 1.2691942e+0, -0.0000000045791233, -38997.074, -0.056483556, 0.0, 0.000066811815, 0.000000077227014, 0.000000077227014, 0.0, 0.09765625, 0.09405635 
1.4648438e-1, 1.3632579e+0, 0.000000011054837, -38839.895, -0.046599004, 0.0, 0.00007851494, 0.00000006696064, 0.00000006696064, 0.0, 0.09765625, 0.094070084 
1.4648438e-1, 1.4573283e+0, -0.0000000021546793, -38840.703, -0.03429248, 0.0, 0.000080726604, 0.000000028121576, 0.000000028121576, 0.0, 0.09765625, 0.09407001 
1.4648438e-1, 1.5514056e+0, -0.0000000130072975, -38683.227, -0.021928871, 0.0, 0.00009033423, -0.00000000057480065, -0.00000000057480065, 0.0, 0.09765625, 0.09408377 
1.4648438e-1, 1.6454898e+0, -0.0000000029658918, -38684.316, -0.009730001, 0.0, 0.0000929841, -0.000000000516593, -0.000000000516593, 0.0, 0.09765625, 0.094083674 
1.4648438e-1, 1.739581e+0, 0.000000004851588, -38526.844, 0.0028990454, 0.0, 0.000103367485, 0.0000000050713425, 0.0000000050713425, 0.0, 0.09765625, 0.094097435 
1.4648438e-1, 1.8336788e+0, 0.000000007993017, -38527.82, 0.01654041, 0.0, 0.00010613813, 0.000000015097612, 0.000000015097612, 0.0, 0.09765625, 0.09409735 
1.4648438e-1, 1.9277833e+0, 0.000000004605035, -38370.426, 0.029436845, 0.0, 0.000117645744, 0.000000027190254, 0.000000027190254, 0.0, 0.09765625, 0.094111115 
1.4648438e-1, 2.0218949e+0, -0.000000017322131, -38371.34, 0.033201028, 0.0, 0.00011773855, 0.000000011401426, 0.000000011401426, 0.0, 0.09765625, 0.09411103 
1.4648438e-1, 2.1160133e+0, -0.0000000071182624, -38214.01, 0.037165403, 0.0, 0.000131485, 0.00000002903107, 0.00000002903107, 0.0, 0.09765625, 0.0941248 
1.4648438e-1, 2.2101386e+0, -0.000000020217124, -38214.957, 0.054932363, 0.0, 0.00012953588, 0.000000058738806, 0.000000058738806, 0.0, 0.09765625, 0.09412471 
1.4648438e-1, 2.3042706e+0, -0.000000018079678, -38057.49, 0.06715762, 0.0, 0.00014639713, 0.00000010043004, 0.00000010043004, 0.0, 0.09765625, 0.094138496 
1.4648438e-1, 2.3984094e+0, 0.0000000000046190608, -38058.66, 0.02312102, 0.0, 0.00013859611, 0.000000014049874, 0.000000014049874, 0.0, 0.09765625, 0.09413839 
1.4648438e-1, 2.4925551e+0, 0.000000008490707, -37900.957, -0.01342037, 0.0, 0.00015740881, 0.000000013242243, 0.000000013242243, 0.0, 0.09765625, 0.094152205 
1.4648438e-1, 2.5867078e+0, 0.0000000069435138, -37902.16, 0.07400184, 0.0, 0.00014773272, 0.00000015142723, 0.00000015142723, 0.0, 0.09765625, 0.09415209 
1.4648438e-1, 2.6808673e+0, -0.000000012832867, -37744.625, 0.11449445, 0.0, 0.00017092128, 0.0000003344685, 0.0000003344685, 0.0, 0.09765625, 0.0941659 
1.4648438e-1, 2.7750334e+0, -0.00000003389969, -37746.156, -0.12250961, 0.0, 0.00015157062, 0.00000036372512, 0.00000036372512, 0.0, 0.09765625, 0.094165765 
1.4648438e-1, 2.8692064e+0, -0.000000193185, -37588.18, -0.44377807, 0.0, 0.00017664513, 0.0000050461967, 0.0000050461967, 0.0, 0.09765625, 0.09417961 
1.4648438e-1, 2.9633868e+0, -0.0000042008983, -37589.39, 2.0822968, 0.0, 0.00015652267, 0.00011114973, 0.00011114973, 0.0, 0.09765625, 0.094179496 
1.4648438e-1, 3.0575734e+0, -0.00000011517784, -37431.164, -0.3369628, 0.0, 0.00018770222, 0.0000029182338, 0.0000029182338, 0.0, 0.09765625, 0.09419337 
1.4648438e-1, 3.1517673e+0, -0.000000014663433, -37432.625, -0.115653485, 0.0, 0.00015717365, 0.00000034266122, 0.00000034266122, 0.0, 0.09765625, 0.09419324 
1.4648438e-1, 3.2459676e+0, -0.000000023313973, -37275.43, -0.08759485, 0.0, 0.00018792189, 0.00000018253195, 0.00000018253195, 0.0, 0.09765625, 0.094207026 
1.4648438e-1, 3.3401754e+0, -0.000000017614553, -37275.88, -0.11374886, 0.0, 0.00016163017, 0.00000032949174, 0.00000032949174, 0.0, 0.09765625, 0.09420699 
1.4648438e-1, 3.4343892e+0, -0.0000000144252414, -37119.594, -0.11375199, 0.0, 0.00019746396, 0.0000003341629, 0.0000003341629, 0.0, 0.09765625, 0.094220705 
1.4648438e-1, 3.5286108e+0, -0.000000017200248, -37118.68, -0.12224117, 0.0, 0.00016443993, 0.0000003853711, 0.0000003853711, 0.0, 0.09765625, 0.09422078 
1.4648438e-1, 3.6228386e+0, -0.000000024020627, -36963.867, -0.12147585, 0.0, 0.00019702461, 0.00000037519203, 0.00000037519203, 0.0, 0.09765625, 0.09423437 
1.4648438e-1, 3.7170738e+0, -0.0000000017910042, -36961.824, -0.12192298, 0.0, 0.00017420141, 0.00000040038867, 0.00000040038867, 0.0, 0.09765625, 0.09423455 
1.4648438e-1, 3.811315e+0, 0.0000000016116614, -36807.95, -0.12440356, 0.0, 0.00020337389, 0.00000042207103, 0.00000042207103, 0.0, 0.09765625, 0.094248064 
1.4648438e-1, 3.905564e+0, -0.000000013723912, -36804.836, -0.11484727, 0.0, 0.00018165908, 0.00000034464756, 0.00000034464756, 0.0, 0.09765625, 0.09424834 
1.4648438e-1, 3.9998192e+0, -0.0000000137704985, -36652.19, -0.07637686, 0.0, 0.00021194943, 0.00000014538091, 0.00000014538091, 0.0, 0.09765625, 0.09426175 
1.4648438e-1, 4.0940818e+0, -0.000000001445647, -36647.67, -0.060053334, 0.0, 0.00019722813, 0.00000009696669, 0.00000009696669, 0.0, 0.09765625, 0.094262145 
1.4648438e-1, 4.1883507e+0, -0.0000000001456789, -36496.7, -0.08164778, 0.0, 0.00021431394, 0.00000018251012, 0.00000018251012, 0.0, 0.09765625, 0.094275415 
1.4648438e-1, 4.2826277e+0, 0.0000000010970783, -36490.313, -0.058677584, 0.0, 0.00020726478, 0.00000009545329, 0.00000009545329, 0.0, 0.09765625, 0.09427598 
1.4648438e-1, 4.3769097e+0, -0.000000008160267, -36340.86, 0.07842796, 0.0, 0.0002332501, 0.0000001610897, 0.0000001610897, 0.0, 0.09765625, 0.094289124 
1.4648438e-1, 4.4712e+0, -0.000000012461361, -36333.48, 0.09850138, 0.0, 0.00022677673, 0.00000025457848, 0.00000025457848, 0.0, 0.09765625, 0.09428977 
1.4648438e-1, 4.5654964e+0, -0.000000016115097, -36185.703, -0.10802912, 0.0, 0.00023126889, 0.00000030639058, 0.00000030639058, 0.0, 0.09765625, 0.094302766 
1.4648438e-1, 4.6598005e+0, -0.0000000051595266, -36175.65, -0.06809459, 0.0, 0.00023872484, 0.00000012301462, 0.00000012301462, 0.0, 0.09765625, 0.09430365 
1.4648438e-1, 4.7541103e+0, -0.00000005130531, -36029.914, 0.24179849, 0.0, 0.00025230495, 0.000001571425, 0.000001571425, 0.0, 0.09765625, 0.09431648 
1.4648438e-1, 4.8484284e+0, -0.00000001972353, -36019.133, 0.099635094, 0.0, 0.00025536917, 0.00000025588088, 0.00000025588088, 0.0, 0.09765625, 0.09431743 
1.4648438e-1, 4.9427518e+0, -0.00000023457594, -35874.72, -0.4859326, 0.0, 0.00025292797, 0.000006347509, 0.000006347509, 0.0, 0.09765625, 0.09433015 
1.4648438e-1, 5.0370836e+0, -0.000054791333, -35861.79, 7.6059775, 0.0, 0.00026908872, 0.0015583712, 0.0015583712, 0.0, 0.09765625, 0.09433129 
1.4648438e-1, 5.131421e+0, -0.00000012807122, -35718.637, -0.37236208, 0.0, 0.0002674827, 0.0000037537538, 0.0000037537538, 0.0, 0.09765625, 0.09434389 
1.4648438e-1, 5.225767e+0, -0.0000000067126935, -35704.316, -0.01357499, 0.0, 0.00027208249, -0.000000001549779, -0.000000001549779, 0.0, 0.09765625, 0.09434515 
1.4648438e-1, 5.3201175e+0, -0.000000008947221, -35568.207, 0.07394438, 0.0, 0.00028093, 0.000000144777, 0.000000144777, 0.0, 0.09765625, 0.09435715 
1.4648438e-1, 5.414477e+0, -0.0000000051013678, -35551.664, 0.07705247, 0.0, 0.00028259377, 0.00000016189733, 0.00000016189733, 0.0, 0.09765625, 0.09435861 
1.4648438e-1, 5.508841e+0, -0.0000000008965462, -35412.24, 0.07653576, 0.0, 0.0002909913, 0.00000016452395, 0.00000016452395, 0.0, 0.09765625, 0.0943709 
1.4648438e-1, 5.603214e+0, -0.000000018457703, -35394.566, 0.08427625, 0.0, 0.00027622408, 0.0000001822118, 0.0000001822118, 0.0, 0.09765625, 0.09437246 
1.4648438e-1, 5.697592e+0, 0.0000000048750532, -35256.605, 0.10560198, 0.0, 0.00030376506, 0.00000032117532, 0.00000032117532, 0.0, 0.09765625, 0.094384626 
1.4648438e-1, 5.791979e+0, -0.0000000138083065, -35237.234, 0.0947765, 0.0, 0.00030238245, 0.00000024111068, 0.00000024111068, 0.0, 0.09765625, 0.09438633 
1.4648438e-1, 5.8863705e+0, -0.000000009869683, -35101.145, 0.040304147, 0.0, 0.0003157999, 0.000000036408892, 0.000000036408892, 0.0, 0.09765625, 0.09439834 
1.4648438e-1, 5.980771e+0, 0.00000000048833537, -35079.863, -0.032536242, 0.0, 0.00027085366, 0.00000003066816, 0.00000003066816, 0.0, 0.09765625, 0.09440022 
1.4648438e-1, 6.0751766e+0, -0.000000011836705, -34945.02, 0.030713974, 0.0, 0.00032983208, 0.00000001515582, 0.00000001515582, 0.0, 0.09765625, 0.094412126 
1.4648438e-1, 6.1695915e+0, -0.000000013344021, -34922.543, 0.20196484, 0.0, 0.00033843121, 0.0000011546654, 0.0000011546654, 0.0, 0.09765625, 0.09441411 
1.4648438e-1, 6.2640107e+0, -0.000000014841424, -34789.94, 0.03593445, 0.0, 0.00034812174, 0.000000022271706, 0.000000022271706, 0.0, 0.09765625, 0.09442582 
1.4648438e-1, 6.358439e+0, -0.00000013996637, -34765.613, -0.3775662, 0.0, 0.00025788418, 0.0000039605293, 0.0000039605293, 0.0, 0.09765625, 0.094427966 
1.4648438e-1, 6.452872e+0, -0.000000014412318, -34632.805, -0.06563627, 0.0, 0.00036128119, 0.000000109983375, 0.000000109983375, 0.0, 0.09765625, 0.0944397 
1.4648438e-1, 6.5473145e+0, -0.0000004717947, -34607.887, 0.7016434, 0.0, 0.00038079344, 0.000013753386, 0.000013753386, 0.0, 0.09765625, 0.094441906 
1.4648438e-1, 6.641761e+0, -0.00000001621728, -34479.42, 0.13142653, 0.0, 0.0003781496, 0.0000004847461, 0.0000004847461, 0.0, 0.09765625, 0.09445326 
1.4648438e-1, 6.736218e+0, -0.0000010716122, -34451.06, -1.0469222, 0.0, 0.00026266885, 0.000030742973, 0.000030742973, 0.0, 0.09765625, 0.09445577 
1.4648438e-1, 6.8306786e+0, -0.000000014714204, -34320.844, -0.15851732, 0.0, 0.00039869393, 0.00000071743125, 0.00000071743125, 0.0, 0.09765625, 0.09446728 
1.4648438e-1, 6.9251484e+0, -0.0000009795118, -34293.145, 1.0251077, 0.0, 0.0003861141, 0.000029663519, 0.000029663519, 0.0, 0.09765625, 0.09446973 
1.4648438e-1, 7.019623e+0, -0.0000000035011496, -34168.715, -0.018734144, 0.0, 0.00039456374, 0.0000000067666406, 0.0000000067666406, 0.0, 0.09765625, 0.09448074 
1.4648438e-1, 7.1141064e+0, -0.0000000101404245, -34133.56, -0.029710839, 0.0, 0.00032036877, 0.000000015723344, 0.000000015723344, 0.0, 0.09765625, 0.09448385 
1.4648438e-1, 7.208595e+0, -0.000007151267, -34009.23, 2.6768677, 0.0, 0.00042054307, 0.00020354509, 0.00020354509, 0.0, 0.09765625, 0.09449486 
1.4648438e-1, 7.303093e+0, -0.000015754275, -33977.992, 4.0504994, 0.0, 0.0003688988, 0.00046710373, 0.00046710373, 0.0, 0.09765625, 0.09449762 
1.4648438e-1, 7.397595e+0, -0.000005043137, -33859.305, 2.2517116, 0.0, 0.0004105487, 0.0001447002, 0.0001447002, 0.0, 0.09765625, 0.094508134 
1.4648438e-1, 7.4921066e+0, -0.000000118596404, -33821.547, 0.37403253, 0.0, 0.00037475664, 0.0000040178275, 0.0000040178275, 0.0, 0.09765625, 0.09451147 
1.4648438e-1, 7.586622e+0, 0.0000000009618089, -33700.965, 0.047212, 0.0, 0.00042253773, 0.00000006710616, 0.00000006710616, 0.0, 0.09765625, 0.094522156 
1.4648438e-1, 7.681148e+0, -0.000000001245536, -33662.746, -0.05138527, 0.0, 0.00038070063, 0.000000077190634, 0.000000077190634, 0.0, 0.09765625, 0.094525546 
1.4648438e-1, 7.7756774e+0, -0.00000003678386, -33545.973, -0.15594114, 0.0, 0.00042545368, 0.0000006881164, 0.0000006881164, 0.0, 0.09765625, 0.094535895 
1.4648438e-1, 7.8702176e+0, -0.000000019359987, -33504.5, -0.07396505, 0.0, 0.0003961656, 0.00000014392572, 0.00000014392572, 0.0, 0.09765625, 0.09453957 
1.4648438e-1, 7.9647607e+0, -0.0000000028371678, -33391.105, -0.059857517, 0.0, 0.00042977094, 0.00000010446092, 0.00000010446092, 0.0, 0.09765625, 0.09454962 
1.4648438e-1, 8.059314e+0, -0.0000000079396525, -33347.75, -0.07561456, 0.0, 0.00040656846, 0.0000001635126, 0.0000001635126, 0.0, 0.09765625, 0.09455346 
1.4648438e-1, 8.153871e+0, -0.000000007699233, -33236.37, -0.04896417, 0.0, 0.00043626616, 0.00000006443588, 0.00000006443588, 0.0, 0.09765625, 0.09456334 
1.4648438e-1, 8.248439e+0, -0.000000012162399, -33191.23, 0.0005656327, 0.0, 0.0004206531, -0.000000012158125, -0.000000012158125, 0.0, 0.09765625, 0.09456735 
1.4648438e-1, 8.34301e+0, 0.0000000020859596, -33081.61, 0.022441957, 0.0, 0.0004406883, 0.00000001731678, 0.00000001731678, 0.0, 0.09765625, 0.094577074 
1.4648438e-1, 8.4375906e+0, -0.00000008622899, -33033.484, 0.29469422, 0.0, 0.0004353547, 0.000002542758, 0.000002542758, 0.0, 0.09765625, 0.09458135 
1.4648438e-1, 8.532176e+0, 0.0000000018366737, -32926.66, 0.10679477, 0.0, 0.00045496362, 0.00000034821278, 0.00000034821278, 0.0, 0.09765625, 0.094590835 
1.4648438e-1, 8.626771e+0, -0.000000031248575, -32875.617, 0.17316069, 0.0, 0.00045027398, 0.0000008808129, 0.0000008808129, 0.0, 0.09765625, 0.094595365 
1.4648438e-1, 8.7213695e+0, -0.000000047944322, -32771.78, 0.20403476, 0.0, 0.00045431172, 0.0000012223609, 0.0000012223609, 0.0, 0.09765625, 0.09460459 
1.4648438e-1, 8.815979e+0, -0.000000055118353, -32718.459, 0.24513018, 0.0, 0.00046817842, 0.00000178142, 0.00000178142, 0.0, 0.09765625, 0.09460933 
1.4648438e-1, 8.910591e+0, -0.00000007939146, -32616.309, 0.28194004, 0.0, 0.00047971125, 0.0000023577377, 0.0000023577377, 0.0, 0.09765625, 0.0946184 
1.4648438e-1, 9.005214e+0, -0.000000066943045, -32561.314, 0.26861286, 0.0, 0.00047534905, 0.000002148965, 0.000002148965, 0.0, 0.09765625, 0.09462329 
1.4648438e-1, 9.099841e+0, -0.000000039538207, -32461.006, 0.24220826, 0.0, 0.0004829027, 0.0000017677012, 0.0000017677012, 0.0, 0.09765625, 0.09463221 
1.4648438e-1, 9.194477e+0, -0.00000006265022, -32403.863, 0.26570714, 0.0, 0.0004886141, 0.0000021161104, 0.0000021161104, 0.0, 0.09765625, 0.09463728 
1.4648438e-1, 9.289118e+0, -0.00000008168742, -32305.555, 0.2683859, 0.0, 0.00050865667, 0.00000214799, 0.00000214799, 0.0, 0.09765625, 0.09464603 
1.4648438e-1, 9.383768e+0, -0.00000004793518, -32247.117, 0.22468068, 0.0, 0.0004936444, 0.0000015175247, 0.0000015175247, 0.0, 0.09765625, 0.09465123 
1.4648438e-1, 9.478423e+0, -0.000000053395524, -32149.932, 0.18662342, 0.0, 0.0005127469, 0.0000010299154, 0.0000010299154, 0.0, 0.09765625, 0.09465987 
1.4648438e-1, 9.5730877e+0, -0.0000000348099, -32089.75, 0.14765267, 0.0, 0.0005050216, 0.0000006445771, 0.0000006445771, 0.0, 0.09765625, 0.09466523 
1.4648438e-1, 9.6677554e+0, -0.000000024379919, -31994.78, 0.06903988, 0.0, 0.00052945805, 0.00000012459714, 0.00000012459714, 0.0, 0.09765625, 0.09467368 
1.4648438e-1, 9.762434e+0, -0.0003298514, -31932.432, 18.63552, 0.0, 0.0005106671, 0.010545691, 0.010545691, 0.0, 0.09765625, 0.09467923 
1.4648438e-1, 9.857116e+0, 0.000000011175906, -31838.855, -0.024181588, 0.0, 0.0005384021, 0.000000029540388, 0.000000029540388, 0.0, 0.09765625, 0.094687566 
1.4648438e-1, 9.951809e+0, 0.000000008663397, -31775.768, -0.034562267, 0.0, 0.0005179261, 0.000000046253263, 0.000000046253263, 0.0, 0.09765625, 0.094693184 
1.4648438e-1, 1.0046505e+1, -0.0000000012563447, -31683.484, -0.06665869, 0.0, 0.0005528627, 0.00000013898534, 0.00000013898534, 0.0, 0.09765625, 0.0947014 
1.4648438e-1, 1.014121e+1, -0.00000003426312, -31618.19, -0.12176647, 0.0, 0.0005204098, 0.00000043467662, 0.00000043467662, 0.0, 0.09765625, 0.09470722 
1.4648438e-1, 1.02359205e+1, -0.000000026010277, -31528.273, -0.15463066, 0.0, 0.00056868186, 0.00000073237607, 0.00000073237607, 0.0, 0.09765625, 0.09471524 
1.4648438e-1, 1.03306405e+1, -0.000000028541779, -31460.863, -0.17997068, 0.0, 0.00053290353, 0.0000010009717, 0.0000010009717, 0.0, 0.09765625, 0.09472125 
1.4648438e-1, 1.0425366e+1, -0.00000004539175, -31373.105, -0.24156849, 0.0, 0.00057162286, 0.0000018146529, 0.0000018146529, 0.0, 0.09765625, 0.09472907 
1.4648438e-1, 1.05201e+1, -0.0007103203, -31303.465, 27.333298, 0.0, 0.0005418802, 0.023156324, 0.023156324, 0.0, 0.09765625, 0.09473528 
1.4648438e-1, 1.0614837e+1, -0.0000000819052, -31217.096, -0.26314583, 0.0, 0.0005906792, 0.000002136294, 0.000002136294, 0.0, 0.09765625, 0.09474298 
1.4648438e-1, 1.0709585e+1, -0.000000050244054, -31146.584, -0.21683487, 0.0, 0.00054495863, 0.0000014593061, 0.0000014593061, 0.0, 0.09765625, 0.09474928 
1.4648438e-1, 1.0804337e+1, -0.000000036535564, -31062.455, -0.20597814, 0.0, 0.00060637644, 0.0000013293247, 0.0000013293247, 0.0, 0.09765625, 0.09475679 
1.4648438e-1, 1.08991e+1, -0.00000004539765, -30988.363, -0.20432863, 0.0, 0.000558842, 0.0000013018871, 0.0000013018871, 0.0, 0.09765625, 0.0947634 
1.4648438e-1, 1.0993865e+1, -0.000000040216623, -30909.385, -0.18878286, 0.0, 0.0006118884, 0.0000011127995, 0.0000011127995, 0.0, 0.09765625, 0.094770454 
1.4648438e-1, 1.1088641e+1, -0.000000012836565, -30828.873, -0.15864082, 0.0, 0.0005758749, 0.00000080350947, 0.00000080350947, 0.0, 0.09765625, 0.09477764 
1.4648438e-1, 1.118342e+1, -0.000000028614028, -30755.865, -0.12160146, 0.0, 0.0006195925, 0.00000045217166, 0.00000045217166, 0.0, 0.09765625, 0.09478416 
1.4648438e-1, 1.12782106e+1, -0.000000019732328, -30671.434, -0.08502084, 0.0, 0.0005960591, 0.00000021594315, 0.00000021594315, 0.0, 0.09765625, 0.0947917 
1.4648438e-1, 1.1373004e+1, -0.000000009947773, -30601.219, -0.040772017, 0.0, 0.000622355, 0.000000044379703, 0.000000044379703, 0.0, 0.09765625, 0.09479798 
1.4648438e-1, 1.1467808e+1, -0.000000012819511, -30515.938, 0.0014437755, 0.0, 0.0006197867, -0.000000012754754, -0.000000012754754, 0.0, 0.09765625, 0.094805606 
1.4648438e-1, 1.1562616e+1, -0.00000001539265, -30446.322, 0.015170959, 0.0, 0.0006243744, -0.000000007832568, -0.000000007832568, 0.0, 0.09765625, 0.09481183 
1.4648438e-1, 1.1657433e+1, -0.00000001883314, -30357.81, 0.01668577, 0.0, 0.00064058055, -0.000000009662472, -0.000000009662472, 0.0, 0.09765625, 0.09481974 
1.4648438e-1, 1.17522545e+1, -0.0000000005891268, -30291.76, 0.053782057, 0.0, 0.0006303041, 0.000000094900315, 0.000000094900315, 0.0, 0.09765625, 0.09482565 
1.4648438e-1, 1.1847086e+1, -0.000000036516433, -30199.693, 0.098785184, 0.0, 0.00065398874, 0.00000028661452, 0.00000028661452, 0.0, 0.09765625, 0.09483388 
1.4648438e-1, 1.1941921e+1, -0.000000009270769, -30136.166, 0.115215056, 0.0, 0.00063360285, 0.0000004312169, 0.0000004312169, 0.0, 0.09765625, 0.094839565 
1.4648438e-1, 1.20367676e+1, -0.00000003338907, -30042.068, 0.119352154, 0.0, 0.00067693135, 0.0000004407775, 0.0000004407775, 0.0, 0.09765625, 0.09484799 
1.4648438e-1, 1.21316165e+1, -0.00000002886232, -29981.467, 0.1373205, 0.0, 0.00063216663, 0.00000060008824, 0.00000060008824, 0.0, 0.09765625, 0.094853416 
1.4648438e-1, 1.22264765e+1, -0.000000043409447, -29883.596, 0.14490563, 0.0, 0.000686512, 0.0000006592418, 0.0000006592418, 0.0, 0.09765625, 0.09486218 
1.4648438e-1, 1.232134e+1, -0.000000032077576, -29827.244, 0.1476892, 0.0, 0.0006329666, 0.000000699205, 0.000000699205, 0.0, 0.09765625, 0.09486722 
1.4648438e-1, 1.2416214e+1, -0.000000024168552, -29724.576, 0.16678706, 0.0, 0.0007070788, 0.0000009116884, 0.0000009116884, 0.0, 0.09765625, 0.09487642 
1.4648438e-1, 1.2511091e+1, -0.00000008590943, -29673.62, 0.28812534, 0.0, 0.0006281679, 0.0000027117349, 0.0000027117349, 0.0, 0.09765625, 0.09488098 
1.4648438e-1, 1.2605979e+1, -0.00000020582183, -29565.049, 0.45498845, 0.0, 0.0007183659, 0.0000067961773, 0.0000067961773, 0.0, 0.09765625, 0.09489071 
1.4648438e-1, 1.270087e+1, -0.000000023826278, -29520.2, 0.16412435, 0.0, 0.0006241622, 0.00000088866, 0.00000088866, 0.0, 0.09765625, 0.09489474 
1.4648438e-1, 1.2795773e+1, -0.000000055245398, -29405.645, 0.17186375, 0.0, 0.00074049504, 0.00000094922507, 0.00000094922507, 0.0, 0.09765625, 0.094905004 
1.4648438e-1, 1.2890679e+1, -0.000000026419857, -29366.086, 0.1695103, 0.0, 0.0006237674, 0.00000095204814, 0.00000095204814, 0.0, 0.09765625, 0.09490855 
1.4648438e-1, 1.2985593e+1, -0.00000004182063, -29247.637, 0.1396443, 0.0, 0.00074667105, 0.00000062491745, 0.00000062491745, 0.0, 0.09765625, 0.094919175 
1.4648438e-1, 1.3080513e+1, -0.00000004140772, -29210.207, 0.14968485, 0.0, 0.0006255004, 0.00000072563853, 0.00000072563853, 0.0, 0.09765625, 0.094922535 
1.4648438e-1, 1.3175444e+1, -0.00000001879944, -29092.078, 0.13119702, 0.0, 0.0007680731, 0.0000005728616, 0.0000005728616, 0.0, 0.09765625, 0.09493314 
1.4648438e-1, 1.3270377e+1, -0.000000024403889, -29052.191, 0.12608744, 0.0, 0.0006338301, 0.0000005228212, 0.0000005228212, 0.0, 0.09765625, 0.09493671 
1.4648438e-1, 1.3365321e+1, -0.000000010645463, -28936.676, 0.09802858, 0.0, 0.00076833746, 0.00000032144453, 0.00000032144453, 0.0, 0.09765625, 0.094947085 
1.4648438e-1, 1.346027e+1, -0.000000037290143, -28895.373, 0.07758912, 0.0, 0.00064815563, 0.00000017105049, 0.00000017105049, 0.0, 0.09765625, 0.094950795 
1.4648438e-1, 1.3555226e+1, -0.000000004646332, -28778.46, 0.02142431, 0.0, 0.0007793116, 0.0000000113032, 0.0000000113032, 0.0, 0.09765625, 0.09496129 
1.4648438e-1, 1.3650188e+1, -0.000000015979365, -28741.848, 0.0051115165, 0.0, 0.0006624261, -0.000000015068508, -0.000000015068508, 0.0, 0.09765625, 0.094964586 
1.4648438e-1, 1.374516e+1, -0.0000000064334866, -28618.732, 0.038400274, 0.0, 0.00078264304, 0.000000045092747, 0.000000045092747, 0.0, 0.09765625, 0.09497564 
1.4648438e-1, 1.3840136e+1, -0.000000013279134, -28588.605, -0.002081767, 0.0, 0.0006812916, -0.0000000131294655, -0.0000000131294655, 0.0, 0.09765625, 0.094978355 
1.4648438e-1, 1.3935122e+1, -0.000000021870207, -28459.277, -0.06547133, 0.0, 0.0007872304, 0.00000012874807, 0.00000012874807, 0.0, 0.09765625, 0.09498998 
1.4648438e-1, 1.4030112e+1, -0.0000000125974715, -28434.693, 0.01543129, 0.0, 0.0006939239, -0.0000000042236934, -0.0000000042236934, 0.0, 0.09765625, 0.09499219 
1.4648438e-1, 1.4125113e+1, -0.00068045844, -28300.863, 26.689732, 0.0, 0.0007983651, 0.02448984, 0.02448984, 0.0, 0.09765625, 0.09500422 
1.4648438e-1, 1.4220117e+1, -0.0000000070983965, -28280.225, -0.015682051, 0.0, 0.00071106077, 0.0000000015970727, 0.0000000015970727, 0.0, 0.09765625, 0.09500608 
1.4648438e-1, 1.431513e+1, -0.00000003825684, -28142.152, -0.13693339, 0.0, 0.00080127164, 0.00000062803156, 0.00000062803156, 0.0, 0.09765625, 0.095018506 
1.4648438e-1, 1.441015e+1, -0.000000031313547, -28125.895, -0.17191641, 0.0, 0.0007289448, 0.0000010195108, 0.0000010195108, 0.0, 0.09765625, 0.09501997 
1.4648438e-1, 1.4505176e+1, -0.00000003298328, -27983.523, -0.179071, 0.0, 0.00080866244, 0.0000011129196, 0.0000011129196, 0.0, 0.09765625, 0.09503278 
1.4648438e-1, 1.460021e+1, -0.00000005851215, -27972.943, -0.18038385, 0.0, 0.0007409912, 0.0000011046941, 0.0000011046941, 0.0, 0.09765625, 0.095033735 
1.4648438e-1, 1.4695251e+1, -0.000000045736236, -27828.836, -0.1849961, 0.0, 0.0008162342, 0.000001184053, 0.000001184053, 0.0, 0.09765625, 0.09504671 
1.4648438e-1, 1.4790298e+1, -0.000000045790998, -27821.193, -0.18848374, 0.0, 0.0007604298, 0.0000012311539, 0.0000012311539, 0.0, 0.09765625, 0.0950474 
1.4648438e-1, 1.4885353e+1, -0.000000049971867, -27672.625, -0.18983547, 0.0, 0.00081779785, 0.0000012523087, 0.0000012523087, 0.0, 0.09765625, 0.09506078 
1.4648438e-1, 1.4980413e+1, -0.00000003228431, -27664.58, -0.16056621, 0.0, 0.0007667453, 0.00000089965033, 0.00000089965033, 0.0, 0.09765625, 0.09506151 
1.4648438e-1, 1.5075482e+1, -0.000000033159466, -27516.521, -0.15871456, 0.0, 0.00082487444, 0.0000008823008, 0.0000008823008, 0.0, 0.09765625, 0.095074855 
1.4648438e-1, 1.5170558e+1, -0.000000024491198, -27507.658, -0.16778722, 0.0, 0.0007863187, 0.0000009989562, 0.0000009989562, 0.0, 0.09765625, 0.09507565 
1.4648438e-1, 1.526564e+1, -0.000000051451483, -27361.428, -0.13656732, 0.0, 0.00081809476, 0.0000006301889, 0.0000006301889, 0.0, 0.09765625, 0.09508884 
1.4648438e-1, 1.5360731e+1, -0.00000002828296, -27349.81, -0.087888695, 0.0, 0.00080054614, 0.0000002541492, 0.0000002541492, 0.0, 0.09765625, 0.09508988 
1.4648438e-1, 1.5455827e+1, -0.000000014245057, -27206.78, -0.05580252, 0.0, 0.0008187249, 0.000000100208126, 0.000000100208126, 0.0, 0.09765625, 0.09510279 
1.4648438e-1, 1.5550931e+1, -0.000000022314818, -27191.998, -0.0394381, 0.0, 0.00081062986, 0.00000003488458, 0.00000003488458, 0.0, 0.09765625, 0.09510412 
1.4648438e-1, 1.5646042e+1, -0.00000001200289, -27050.238, -0.009979784, 0.0, 0.00082203484, -0.0000000083200575, -0.0000000083200575, 0.0, 0.09765625, 0.09511691 
1.4648438e-1, 1.5741159e+1, -0.0000000116634515, -27035.943, 0.042796277, 0.0, 0.0008154355, 0.000000056079443, 0.000000056079443, 0.0, 0.09765625, 0.0951182 
1.4648438e-1, 1.5836285e+1, -0.000000008398111, -26893.4, 0.070783846, 0.0, 0.0008250497, 0.00000017790808, 0.00000017790808, 0.0, 0.09765625, 0.09513108 
1.4648438e-1, 1.5931417e+1, -0.000000011551026, -26879.438, 0.055108096, 0.0, 0.00082473346, 0.00000010143049, 0.00000010143049, 0.0, 0.09765625, 0.095132336 
1.4648438e-1, 1.6026556e+1, -0.000000037305643, -26738.31, 0.083153866, 0.0, 0.00082754047, 0.00000022129825, 0.00000022129825, 0.0, 0.09765625, 0.095145084 
1.4648438e-1, 1.6121702e+1, -0.000000102043984, -26721.309, 0.2936968, 0.0, 0.0008269064, 0.0000031260097, 0.0000031260097, 0.0, 0.09765625, 0.09514662 
1.4648438e-1, 1.6216855e+1, -0.00000003832282, -26584.227, 0.14872147, 0.0, 0.00083768665, 0.000000793676, 0.000000793676, 0.0, 0.09765625, 0.09515901 
1.4648438e-1, 1.6312015e+1, -0.0000000342606, -26562.566, 0.180502, 0.0, 0.0008262646, 0.0000011923148, 0.0000011923148, 0.0, 0.09765625, 0.09516096 
1.4648438e-1, 1.6407183e+1, -0.00000005188253, -26429.844, 0.19355229, 0.0, 0.00085052993, 0.0000013655481, 0.0000013655481, 0.0, 0.09765625, 0.095172964 
1.4648438e-1, 1.6502358e+1, -0.00000013415446, -26404.574, 0.35429966, 0.0, 0.00082930387, 0.000004619884, 0.000004619884, 0.0, 0.09765625, 0.09517525 
1.4648438e-1, 1.6597538e+1, -0.00000006797781, -26274.506, 0.2386316, 0.0, 0.0008629914, 0.000002099332, 0.000002099332, 0.0, 0.09765625, 0.09518701 
1.4648438e-1, 1.6692726e+1, -0.00000008543247, -26246.818, 0.26180786, 0.0, 0.0008376551, 0.0000025260597, 0.0000025260597, 0.0, 0.09765625, 0.09518952 
1.4648438e-1, 1.6787922e+1, -0.000000048230238, -26119.484, 0.20413989, 0.0, 0.0008805659, 0.0000015472506, 0.0000015472506, 0.0, 0.09765625, 0.09520104 
1.4648438e-1, 1.6883126e+1, -0.00000012431899, -26089.125, 0.34445086, 0.0, 0.00084391236, 0.000004423415, 0.000004423415, 0.0, 0.09765625, 0.09520379 
1.4648438e-1, 1.6978334e+1, -0.000000067429234, -25964.559, 0.26351106, 0.0, 0.0008954538, 0.0000026069101, 0.0000026069101, 0.0, 0.09765625, 0.09521506 
1.4648438e-1, 1.7073551e+1, -0.000000053455945, -25931.639, 0.21801645, 0.0, 0.0008631615, 0.0000017794846, 0.0000017794846, 0.0, 0.09765625, 0.09521805 
1.4648438e-1, 1.7168775e+1, -0.00000003153445, -25809.031, 0.14036366, 0.0, 0.000920139, 0.0000007318413, 0.0000007318413, 0.0, 0.09765625, 0.09522915 
1.4648438e-1, 1.7264007e+1, -0.00000015243961, -25774.03, 0.36442357, 0.0, 0.0008685462, 0.000005000209, 0.000005000209, 0.0, 0.09765625, 0.095232315 
1.4648438e-1, 1.7359243e+1, -0.000000048040114, -25654.197, 0.1565211, 0.0, 0.0009353508, 0.00000090692265, 0.00000090692265, 0.0, 0.09765625, 0.09524318 
1.4648438e-1, 1.745449e+1, -0.000000015201708, -25614.424, 0.10131583, 0.0, 0.00089946424, 0.00000038554572, 0.00000038554572, 0.0, 0.09765625, 0.095246784 
1.4648438e-1, 1.7549741e+1, -0.000000012881826, -25501.166, 0.005945455, 0.0, 0.000962137, -0.000000011496013, -0.000000011496013, 0.0, 0.09765625, 0.095257044 
1.4648438e-1, 1.7645003e+1, -0.0000000021076358, -25454.955, 0.08631336, 0.0, 0.0009041083, 0.00000029056537, 0.00000029056537, 0.0, 0.09765625, 0.09526124 
1.4648438e-1, 1.7740268e+1, -0.000000013274049, -25347.656, -0.07778743, 0.0, 0.0009809723, 0.00000022544191, 0.00000022544191, 0.0, 0.09765625, 0.09527097 
1.4648438e-1, 1.7835543e+1, -0.00000002104904, -25298.854, -0.041212633, 0.0, 0.00093032036, 0.000000046089554, 0.000000046089554, 0.0, 0.09765625, 0.095275395 
1.4648438e-1, 1.793082e+1, 0.000000008782251, -25190.338, -0.004083303, 0.0, 0.001009233, 0.000000009444193, 0.000000009444193, 0.0, 0.09765625, 0.09528524 
1.4648438e-1, 1.8026109e+1, -0.00000004687074, -25145.197, -0.17530806, 0.0, 0.000929924, 0.0000011753473, 0.0000011753473, 0.0, 0.09765625, 0.095289335 
1.4648438e-1, 1.8121403e+1, -0.00000011580711, -25031.473, -0.29405707, 0.0, 0.0010394381, 0.000003338624, 0.000003338624, 0.0, 0.09765625, 0.09529966 
1.4648438e-1, 1.8216707e+1, -0.00000004283122, -24988.662, -0.14833939, 0.0, 0.0009508089, 0.00000083775376, 0.00000083775376, 0.0, 0.09765625, 0.09530354 
1.4648438e-1, 1.8312013e+1, -0.000000015885055, -24875.719, -0.0909241, 0.0, 0.0010191186, 0.00000031645686, 0.00000031645686, 0.0, 0.09765625, 0.0953138 
1.4648438e-1, 1.8407331e+1, -0.000000019167754, -24830.963, -0.097438864, 0.0, 0.00097185955, 0.00000036319034, 0.00000036319034, 0.0, 0.09765625, 0.09531787 
1.4648438e-1, 1.8502653e+1, -0.00000012561429, -24723.133, -0.37552902, 0.0, 0.0011069189, 0.0000055784367, 0.0000055784367, 0.0, 0.09765625, 0.09532766 
1.4648438e-1, 1.8597986e+1, -0.000000046167745, -24670.53, -0.20947286, 0.0, 0.0009518143, 0.000001732431, 0.000001732431, 0.0, 0.09765625, 0.09533244 
1.4648438e-1, 1.8693322e+1, -0.00000005467984, -24571.064, -0.18915299, 0.0, 0.0009992763, 0.0000014014586, 0.0000014014586, 0.0, 0.09765625, 0.09534148 
1.4648438e-1, 1.8788667e+1, -0.000000024912016, -24510.096, -0.060264263, 0.0, 0.0010205685, 0.000000123262, 0.000000123262, 0.0, 0.09765625, 0.095347025 
1.4648438e-1, 1.8884018e+1, -0.00000010986318, -24418.78, -0.2707325, 0.0, 0.0011593581, 0.0000028917602, 0.0000028917602, 0.0, 0.09765625, 0.09535533 
1.4648438e-1, 1.8979378e+1, -0.00000008525037, -24351.426, -0.28495142, 0.0, 0.0009584998, 0.000003249148, 0.000003249148, 0.0, 0.09765625, 0.09536146 
1.4648438e-1, 1.9074741e+1, -0.0000001190228, -24265.484, -0.32371485, 0.0, 0.0009795926, 0.000004199508, 0.000004199508, 0.0, 0.09765625, 0.09536927 
1.4648438e-1, 1.9170116e+1, -0.00000012311506, -24192.77, 0.3482516, 0.0, 0.0010641695, 0.00000488992, 0.00000488992, 0.0, 0.09765625, 0.09537589 
1.4648438e-1, 1.9265494e+1, -0.00000006419943, -24110.705, 0.18690647, 0.0, 0.0011635629, 0.000001384702, 0.000001384702, 0.0, 0.09765625, 0.09538336 
1.4648438e-1, 1.9360884e+1, -0.00000013934047, -24036.182, -0.33714274, 0.0, 0.0009854843, 0.0000045895795, 0.0000045895795, 0.0, 0.09765625, 0.09539014 
1.4648438e-1, 1.9456276e+1, -0.00000043897157, -23955.994, -0.654386, 0.0, 0.0010125584, 0.000017436349, 0.000017436349, 0.0, 0.09765625, 0.09539744 
1.4648438e-1, 1.9551678e+1, -0.00000020606483, -23877.602, 0.44650328, 0.0, 0.0010969653, 0.000008143397, 0.000008143397, 0.0, 0.09765625, 0.09540458 
1.4648438e-1, 1.9647086e+1, -0.00000038107683, -23799.809, 0.612863, 0.0, 0.0010982552, 0.000015400605, 0.000015400605, 0.0, 0.09765625, 0.095411666 
1.4648438e-1, 1.9742502e+1, -0.000000100928474, -23723.81, -0.2953134, 0.0, 0.0010296598, 0.0000035751254, 0.0000035751254, 0.0, 0.09765625, 0.095418595 
1.4648438e-1, 1.9837923e+1, -0.00000047290024, -23643.44, -0.671426, 0.0, 0.001121097, 0.000018594244, 0.000018594244, 0.0, 0.09765625, 0.09542592 
1.4648438e-1, 1.9933355e+1, -0.00000025971957, -23564.217, 0.5054698, 0.0, 0.0011183651, 0.000010582979, 0.000010582979, 0.0, 0.09765625, 0.09543314 
1.4648438e-1, 2.002879e+1, -0.0000005401757, -23490.486, 0.7242644, 0.0, 0.0009944022, 0.000021790522, 0.000021790522, 0.0, 0.09765625, 0.09543986 
1.4648438e-1, 2.0124236e+1, -0.000000025139425, -23404.729, -0.11227257, 0.0, 0.0011055283, 0.0000005134352, 0.0000005134352, 0.0, 0.09765625, 0.09544768 
1.4648438e-1, 2.0219685e+1, -0.00000026038094, -23339.564, -0.49552244, 0.0, 0.0012067858, 0.000010260057, 0.000010260057, 0.0, 0.09765625, 0.09545363 
1.4648438e-1, 2.0315145e+1, -0.0000004425937, -23241.465, 0.64676917, 0.0, 0.0011338734, 0.000017555856, 0.000017555856, 0.0, 0.09765625, 0.095462576 
1.4648438e-1, 2.0410608e+1, -0.000000103725085, -23189.738, 0.30604345, 0.0, 0.0009783915, 0.0000039352417, 0.0000039352417, 0.0, 0.09765625, 0.09546729 
1.4648438e-1, 2.0506082e+1, -0.00000004802838, -23080.332, -0.13334215, 0.0, 0.0012053504, 0.0000007223316, 0.0000007223316, 0.0, 0.09765625, 0.09547728 
1.4648438e-1, 2.060156e+1, -0.00000068170743, -23036.6, 0.8201782, 0.0, 0.0011559185, 0.000028519316, 0.000028519316, 0.0, 0.09765625, 0.09548127 
1.4648438e-1, 2.069705e+1, -0.0000020000332, -22921.309, 1.392753, 0.0, 0.001126309, 0.00008262693, 0.00008262693, 0.0, 0.09765625, 0.0954918 
1.4648438e-1, 2.0792541e+1, -0.0000004930383, -22886.113, 0.68647116, 0.0, 0.0011446665, 0.00002009773, 0.00002009773, 0.0, 0.09765625, 0.095495015 
1.4648438e-1, 2.0888044e+1, -0.00000007323822, -22760.39, 0.24653892, 0.0, 0.0012774955, 0.0000025972513, 0.0000025972513, 0.0, 0.09765625, 0.0955065 
1.4648438e-1, 2.0983551e+1, -0.000000062140025, -22734.445, -0.19221726, 0.0, 0.0009831103, 0.0000015630358, 0.0000015630358, 0.0, 0.09765625, 0.09550887 
1.4648438e-1, 2.1079068e+1, -0.00000014370022, -22599.057, 0.34176153, 0.0, 0.0012343003, 0.0000050247, 0.0000050247, 0.0, 0.09765625, 0.09552124 
1.4648438e-1, 2.1174589e+1, -0.00000036873914, -22581.902, 0.6111573, 0.0, 0.0012051784, 0.000016171638, 0.000016171638, 0.0, 0.09765625, 0.09552281 
1.4648438e-1, 2.1270119e+1, -0.000000020189779, -22440.238, -0.029204277, 0.0, 0.0012303396, 0.000000017815182, 0.000000017815182, 0.0, 0.09765625, 0.09553576 
1.4648438e-1, 2.1365654e+1, -0.000000026493309, -22428.518, 0.12825333, 0.0, 0.0010677181, 0.0000007068993, 0.0000007068993, 0.0, 0.09765625, 0.095536835 
1.4648438e-1, 2.14612e+1, -0.00000044367576, -22280.572, 0.6468426, 0.0, 0.0013286279, 0.000018335257, 0.000018335257, 0.0, 0.09765625, 0.09555037 
1.4648438e-1, 2.155675e+1, -0.00000036376946, -22277.033, -0.57612574, 0.0, 0.0010612942, 0.000014535919, 0.000014535919, 0.0, 0.09765625, 0.09555069 
1.4648438e-1, 2.165231e+1, -0.000000055014944, -22119.893, -0.17468773, 0.0, 0.001302216, 0.0000013245517, 0.0000013245517, 0.0, 0.09765625, 0.09556507 
1.4648438e-1, 2.1747874e+1, -0.000000058152075, -22123.129, 0.1735234, 0.0, 0.0011283568, 0.0000013028803, 0.0000013028803, 0.0, 0.09765625, 0.09556478 
1.4648438e-1, 2.1843447e+1, -0.00001019703, -21967.371, -3.256768, 0.0, 0.0013050042, 0.00047263442, 0.00047263442, 0.0, 0.09765625, 0.09557904 
1.4648438e-1, 2.1939024e+1, -0.0004348329, -21965.266, 21.22902, 0.0, 0.0011175765, 0.020082599, 0.020082599, 0.0, 0.09765625, 0.09557923 
1.4648438e-1, 2.2034612e+1, -0.00000711399, -21803.303, -2.7705054, 0.0, 0.0013199844, 0.00034492902, 0.00034492902, 0.0, 0.09765625, 0.09559407 
1.4648438e-1, 2.2130205e+1, -0.00000019938673, -21805.598, 0.40215153, 0.0, 0.0011261052, 0.0000072173243, 0.0000072173243, 0.0, 0.09765625, 0.095593855 
1.4648438e-1, 2.2225808e+1, -0.000004005774, -21652.268, 1.9402984, 0.0, 0.0013655283, 0.00016986784, 0.00016986784, 0.0, 0.09765625, 0.09560791 
1.4648438e-1, 2.2321415e+1, -0.0000006344386, -21652.262, 0.77683747, 0.0, 0.0011224932, 0.000027236849, 0.000027236849, 0.0, 0.09765625, 0.09560791 
1.4648438e-1, 2.241703e+1, -0.00000011625681, -21495.906, 0.29133236, 0.0, 0.0013235852, 0.0000038321486, 0.0000038321486, 0.0, 0.09765625, 0.09562224 
1.4648438e-1, 2.2512653e+1, -0.000000038565283, -21495.332, 0.058018293, 0.0, 0.0011843438, 0.000000118030584, 0.000000118030584, 0.0, 0.09765625, 0.09562229 
1.4648438e-1, 2.2608282e+1, -0.000000024559034, -21339.389, 0.017259242, 0.0, 0.0013857858, -0.00000001060107, -0.00000001060107, 0.0, 0.09765625, 0.0956366 
1.4648438e-1, 2.270392e+1, -0.000000049393684, -21338.455, 0.19054426, 0.0, 0.0011460593, 0.0000016520935, 0.0000016520935, 0.0, 0.09765625, 0.09563669 
1.4648438e-1, 2.2799565e+1, -0.000000067131786, -21183.533, 0.2378532, 0.0, 0.0013291243, 0.000002603534, 0.000002603534, 0.0, 0.09765625, 0.095650904 
1.4648438e-1, 2.2895215e+1, -0.000000025787092, -21180.854, 0.062085044, 0.0, 0.0012178129, 0.00000015619662, 0.00000015619662, 0.0, 0.09765625, 0.09565115 
1.4648438e-1, 2.2990873e+1, -0.000000028620141, -21028.297, -0.07272956, 0.0, 0.0014003224, 0.00000022292443, 0.00000022292443, 0.0, 0.09765625, 0.09566515 
1.4648438e-1, 2.308654e+1, -0.000000027761185, -21022.805, -0.11176619, 0.0, 0.0011864735, 0.0000005664333, 0.0000005664333, 0.0, 0.09765625, 0.095665656 
1.4648438e-1, 2.318221e+1, -0.00000013099223, -20874.64, 0.3130647, 0.0, 0.0013019558, 0.0000045641536, 0.0000045641536, 0.0, 0.09765625, 0.09567927 
1.4648438e-1, 2.3277894e+1, -0.000000111559224, -20865.445, 0.31270534, 0.0, 0.0012453459, 0.0000045748784, 0.0000045748784, 0.0, 0.09765625, 0.09568011 
1.4648438e-1, 2.3373578e+1, -0.000000021922068, -20718.42, 0.10641861, 0.0, 0.0014148644, 0.0000005246875, 0.0000005246875, 0.0, 0.09765625, 0.09569362 
1.4648438e-1, 2.3469275e+1, -0.000000054993176, -20707.477, -0.15140946, 0.0, 0.0012080045, 0.0000010520889, 0.0000010520889, 0.0, 0.09765625, 0.095694624 
1.4648438e-1, 2.3564973e+1, -0.0000000544468, -20565.059, -0.1812385, 0.0, 0.0012566372, 0.0000015427977, 0.0000015427977, 0.0, 0.09765625, 0.095707715 
1.4648438e-1, 2.3660685e+1, -0.00000007717592, -20548.182, 0.2235182, 0.0, 0.0012866184, 0.0000023542016, 0.0000023542016, 0.0, 0.09765625, 0.09570927 
1.4648438e-1, 2.37564e+1, -0.0000001420682, -20411.664, 0.29168922, 0.0, 0.0013922326, 0.000004026264, 0.000004026264, 0.0, 0.09765625, 0.095721826 
1.4648438e-1, 2.3852123e+1, -0.000000070661116, -20387.965, -0.20622975, 0.0, 0.0012207292, 0.0000020154075, 0.0000020154075, 0.0, 0.09765625, 0.095724 
1.4648438e-1, 2.3947851e+1, -0.00000012805215, -20260.076, 0.29791433, 0.0, 0.0012705531, 0.00000425263, 0.00000425263, 0.0, 0.09765625, 0.09573577 
1.4648438e-1, 2.404359e+1, -0.000000028578658, -20226.67, 0.0719074, 0.0, 0.0013037054, 0.00000022705717, 0.00000022705717, 0.0, 0.09765625, 0.09573884 
1.4648438e-1, 2.4139334e+1, -0.000000036135592, -20108.576, 0.13441694, 0.0, 0.0013154385, 0.00000086237924, 0.00000086237924, 0.0, 0.09765625, 0.09574971 
1.4648438e-1, 2.4235088e+1, -0.000000097877184, -20066.932, -0.30124447, 0.0, 0.0012669733, 0.0000044244043, 0.0000044244043, 0.0, 0.09765625, 0.09575355 
1.4648438e-1, 2.4330845e+1, -0.000000024806338, -19954.738, -0.14083235, 0.0, 0.0013086213, 0.0000009691285, 0.0000009691285, 0.0, 0.09765625, 0.095763884 
1.4648438e-1, 2.4426612e+1, -0.000000029712355, -19910.314, 0.015778566, 0.0, 0.0012785671, -0.00000001720764, -0.00000001720764, 0.0, 0.09765625, 0.095767975 
1.4648438e-1, 2.4522382e+1, -0.000000067612696, -19798.957, -0.20765261, 0.0, 0.0013219055, 0.0000021102605, 0.0000021102605, 0.0, 0.09765625, 0.095778234 
1.4648438e-1, 2.4618167e+1, -0.0000000953245, -19751.88, -0.24542797, 0.0, 0.0013297222, 0.0000029542498, 0.0000029542498, 0.0, 0.09765625, 0.09578257 
1.4648438e-1, 2.4713951e+1, -0.00000015115117, -19645.277, 0.3482204, 0.0, 0.0012418408, 0.000006021197, 0.000006021197, 0.0, 0.09765625, 0.0957924 
1.4648438e-1, 2.480975e+1, -0.00000007104211, -19593.857, -0.20576553, 0.0, 0.0013053629, 0.0000020898115, 0.0000020898115, 0.0, 0.09765625, 0.09579714 
1.4648438e-1, 2.4905547e+1, -0.00000011250926, -19491.033, 0.28768232, 0.0, 0.0014134151, 0.0000041336025, 0.0000041336025, 0.0, 0.09765625, 0.09580662 
1.4648438e-1, 2.500136e+1, -0.000000033763794, -19434.348, 0.030871779, 0.0, 0.0013119552, 0.000000015275873, 0.000000015275873, 0.0, 0.09765625, 0.09581185 
1.4648438e-1, 2.5097173e+1, -0.000000032688114, -19340.797, -0.13041471, 0.0, 0.001260173, 0.0000008466959, 0.0000008466959, 0.0, 0.09765625, 0.09582048 
1.4648438e-1, 2.5193e+1, -0.00000033909134, -19269.77, -0.5436608, 0.0, 0.0014639639, 0.000014999288, 0.000014999288, 0.0, 0.09765625, 0.095827036 
1.4648438e-1, 2.528883e+1, -0.0000011908326, -19191.361, 1.032517, 0.0, 0.0012466601, 0.000054359745, 0.000054359745, 0.0, 0.09765625, 0.09583427 
1.4648438e-1, 2.538467e+1, -0.00000010368184, -19109.342, 0.24170159, 0.0, 0.001248573, 0.0000029534422, 0.0000029534422, 0.0, 0.09765625, 0.09584184 
1.4648438e-1, 2.5480512e+1, -0.0000020470852, -19042.867, -1.3878376, 0.0, 0.0015900693, 0.000099098055, 0.000099098055, 0.0, 0.09765625, 0.09584798 
1.4648438e-1, 2.5576368e+1, -0.00000033448518, -18942.205, -0.5410246, 0.0, 0.0016391483, 0.000015118185, 0.000015118185, 0.0, 0.09765625, 0.09585728 
1.4648438e-1, 2.5672227e+1, -0.0000019726776, -18892.043, 1.3286399, 0.0, 0.0008308796, 0.000091467926, 0.000091467926, 0.0, 0.09765625, 0.09586191 
1.4648438e-1, 2.5768095e+1, -0.00000042092745, -18785.014, 0.5834356, 0.0, 0.0011961064, 0.000017699746, 0.000017699746, 0.0, 0.09765625, 0.0958718 
1.4648438e-1, 2.586397e+1, -0.000004532775, -18743.223, -2.0350618, 0.0, 0.0020061499, 0.00021642583, 0.00021642583, 0.0, 0.09765625, 0.095875666 
1.4648438e-1, 2.5959852e+1, -0.0000010454157, -18618.426, -0.97636306, 0.0, 0.0018176512, 0.000050155733, 0.000050155733, 0.0, 0.09765625, 0.0958872 
1.4648438e-1, 2.6055735e+1, -0.0000041192707, -18590.797, 1.9279064, 0.0, 0.00042903583, 0.00019580884, 0.00019580884, 0.0, 0.09765625, 0.095889755 
1.4648438e-1, 2.6151636e+1, -0.0000010587877, -18464.521, -0.99576896, 0.0, 0.0011302338, 0.00005264181, 0.00005264181, 0.0, 0.09765625, 0.09590144 
1.4648438e-1, 2.6247537e+1, -0.00009269323, -18437.51, 9.774873, 0.0, 0.002329008, 0.005089574, 0.005089574, 0.0, 0.09765625, 0.09590393 
1.4648438e-1, 2.634345e+1, -0.0000033560586, -18297.652, -1.729371, 0.0, 0.0018561704, 0.00016009244, 0.00016009244, 0.0, 0.09765625, 0.095916875 
1.4648438e-1, 2.6439366e+1, -0.00000035252063, -18286.557, 0.542018, 0.0, 0.0002917702, 0.000015713027, 0.000015713027, 0.0, 0.09765625, 0.0959179 
1.4648438e-1, 2.653529e+1, -0.000000104610756, -18140.389, -0.23969984, 0.0, 0.0013443849, 0.000003062687, 0.000003062687, 0.0, 0.09765625, 0.09593143 
1.4648438e-1, 2.6631224e+1, -0.00000004208188, -18130.926, 0.022123002, 0.0, 0.0021317105, -0.000000015086698, -0.000000015086698, 0.0, 0.09765625, 0.095932305 
1.4648438e-1, 2.6727164e+1, -0.00000018590578, -17983.21, 0.37839118, 0.0, 0.0015250572, 0.000007775961, 0.000007775961, 0.0, 0.09765625, 0.095945984 
1.4648438e-1, 2.682311e+1, -0.00000026210847, -17977.398, -0.46825686, 0.0, 0.0008381978, 0.000011934564, 0.000011934564, 0.0, 0.09765625, 0.09594653 
1.4648438e-1, 2.6919064e+1, -0.000000080716006, -17823.46, -0.24398291, 0.0, 0.0017848167, 0.0000032591342, 0.0000032591342, 0.0, 0.09765625, 0.09596079 
1.4648438e-1, 2.7015024e+1, -0.000000014345723, -17825.059, -0.003467813, 0.0, 0.001353439, -0.000000013671524, -0.000000013671524, 0.0, 0.09765625, 0.09596064 
1.4648438e-1, 2.7110994e+1, -0.0000004610913, -17664.861, -0.63790405, 0.0, 0.0012295775, 0.00002257456, 0.00002257456, 0.0, 0.09765625, 0.09597549 
1.4648438e-1, 2.720697e+1, -0.0000005891391, -17665.932, 0.72128177, 0.0, 0.0015850199, 0.000028860053, 0.000028860053, 0.0, 0.09765625, 0.09597539 
1.4648438e-1, 2.730295e+1, -0.0000021237113, -17510.268, 1.3569317, 0.0, 0.0018042944, 0.00010302967, 0.00010302967, 0.0, 0.09765625, 0.09598982 
1.4648438e-1, 2.7398938e+1, -0.0000030286799, -17516.67, -1.6493872, 0.0, 0.0009371107, 0.00015227927, 0.00015227927, 0.0, 0.09765625, 0.09598923 
1.4648438e-1, 2.7494937e+1, -0.000002809225, -17346.725, -1.5808486, 0.0, 0.0015045828, 0.0001412573, 0.0001412573, 0.0, 0.09765625, 0.096005 
1.4648438e-1, 2.7590942e+1, -0.0000040556242, -17353.35, 1.9726045, 0.0, 0.0015396551, 0.00022017593, 0.00022017593, 0.0, 0.09765625, 0.09600438 
1.4648438e-1, 2.7686954e+1, -0.0000018385045, -17198.76, 1.2639215, 0.0, 0.001444718, 0.00009104596, 0.00009104596, 0.0, 0.09765625, 0.09601873 
1.4648438e-1, 2.7782974e+1, -0.0000013599384, -17199.055, -1.1147645, 0.0, 0.0013348802, 0.00007089402, 0.00007089402, 0.0, 0.09765625, 0.0960187 
1.4648438e-1, 2.7879e+1, -0.00000014766714, -17038.324, -0.3375134, 0.0, 0.001555885, 0.000006538161, 0.000006538161, 0.0, 0.09765625, 0.09603363 
1.4648438e-1, 2.7975032e+1, -0.00000051495795, -17040.904, 0.65935135, 0.0, 0.0012320324, 0.000024996847, 0.000024996847, 0.0, 0.09765625, 0.09603339 
1.4648438e-1, 2.8071073e+1, -0.0000012244988, -16884.822, 1.0215007, 0.0, 0.0017374951, 0.00006057442, 0.00006057442, 0.0, 0.09765625, 0.09604789 
1.4648438e-1, 2.8167123e+1, -0.00000029834206, -16885.273, -0.5210011, 0.0, 0.0012941415, 0.000015777328, 0.000015777328, 0.0, 0.09765625, 0.09604785 
1.4648438e-1, 2.8263178e+1, -0.0000035269645, -16728.87, -1.7728494, 0.0, 0.0012093075, 0.00018435155, 0.00018435155, 0.0, 0.09765625, 0.096062385 
1.4648438e-1, 2.835924e+1, -0.0000013710525, -16720.396, 1.090731, 0.0, 0.0016028422, 0.00006978122, 0.00006978122, 0.0, 0.09765625, 0.096063174 
1.4648438e-1, 2.845531e+1, -0.00000199442, -16579.836, 1.3010226, 0.0, 0.0016354632, 0.00010009706, 0.00010009706, 0.0, 0.09765625, 0.09607624 
1.4648438e-1, 2.8551388e+1, -0.000003881748, -16568.268, -1.8860984, 0.0, 0.0010656598, 0.00021082791, 0.00021082791, 0.0, 0.09765625, 0.096077316 
1.4648438e-1, 2.8647473e+1, -0.000004344641, -16423.393, -2.0699751, 0.0, 0.0018662192, 0.0002565513, 0.0002565513, 0.0, 0.09765625, 0.09609079 
1.4648438e-1, 2.8743565e+1, -0.000036706693, -16414.092, -6.1392727, 0.0, 0.0014803797, 0.0022595318, 0.0022595318, 0.0, 0.09765625, 0.096091665 
1.4648438e-1, 2.883966e+1, -0.0024784307, -16270.653, 50.451775, 0.0, 0.00074515305, 0.15396012, 0.15396012, 0.0, 0.09765625, 0.09610501 
1.4648438e-1, 2.893577e+1, -0.000083572355, -16239.108, -9.263295, 0.0, 0.0015680795, 0.0052004987, 0.0052004987, 0.0, 0.09765625, 0.096107945 
1.4648438e-1, 2.9031882e+1, -0.000004025135, -16115.26, -1.924519, 0.0, 0.0024903687, 0.00022580505, 0.00022580505, 0.0, 0.09765625, 0.09611948 
1.4648438e-1, 2.9128003e+1, -0.000100518875, -16101.597, -10.159525, 0.0, 0.0009557408, 0.0063097714, 0.0063097714, 0.0, 0.09765625, 0.09612075 
1.4648438e-1, 2.9224128e+1, -0.0041807196, -15959.883, 65.509735, 0.0, 0.000724046, 0.26470938, 0.26470938, 0.0, 0.09765625, 0.096133955 
1.4648438e-1, 2.9320267e+1, -0.000103616345, -15917.523, -10.31326, 0.0, 0.0018726618, 0.006578535, 0.006578535, 0.0, 0.09765625, 0.0961379 
1.4648438e-1, 2.941641e+1, -0.0000058526875, -15806.463, -2.4355397, 0.0, 0.0019400817, 0.0003694276, 0.0003694276, 0.0, 0.09765625, 0.09614825 
1.4648438e-1, 2.951256e+1, -0.00000007088647, -15767.135, 0.15762426, 0.0, 0.0009962547, 0.0000015048863, 0.0000015048863, 0.0, 0.09765625, 0.09615192 
1.4648438e-1, 2.9608718e+1, -0.00000015332358, -15655.842, 0.3596748, 0.0, 0.0015327089, 0.000008109786, 0.000008109786, 0.0, 0.09765625, 0.0961623 
1.4648438e-1, 2.9704884e+1, -0.00000042955506, -15610.885, -0.5902186, 0.0, 0.0016962747, 0.000021885518, 0.000021885518, 0.0, 0.09765625, 0.096166484 
1.4648438e-1, 2.9801053e+1, -0.0000014522738, -15505.199, -1.1208636, 0.0, 0.0009857777, 0.00007957443, 0.00007957443, 0.0, 0.09765625, 0.09617634 
1.4648438e-1, 2.9897234e+1, -0.00000034181772, -15445.358, 0.5221085, 0.0, 0.0013517848, 0.00001730732, 0.00001730732, 0.0, 0.09765625, 0.09618193 
1.4648438e-1, 2.999342e+1, -0.0000052349474, -15350.29, 2.3264432, 0.0, 0.0022361984, 0.00034735366, 0.00034735366, 0.0, 0.09765625, 0.0961908 
1.4648438e-1, 3.0089614e+1, -0.00000019872304, -15293.753, 0.38306296, 0.0, 0.0012637167, 0.000009395862, 0.000009395862, 0.0, 0.09765625, 0.09619608 
1.4648438e-1, 3.0185813e+1, -0.000007918457, -15198.8125, 2.8831782, 0.0, 0.00083172915, 0.00053901353, 0.00053901353, 0.0, 0.09765625, 0.096204944 
1.4648438e-1, 3.0282024e+1, -0.0000027965716, -15123.451, 1.6044033, 0.0, 0.0017806733, 0.00016740995, 0.00016740995, 0.0, 0.09765625, 0.09621198 
1.4648438e-1, 3.0378237e+1, -0.000008941725, -15049.412, 3.0542607, 0.0, 0.0016500489, 0.000610917, 0.000610917, 0.0, 0.09765625, 0.09621889 
1.4648438e-1, 3.047446e+1, -0.0000011837423, -14970.918, -0.9882437, 0.0, 0.0012089167, 0.00006405111, 0.00006405111, 0.0, 0.09765625, 0.09622623 
1.4648438e-1, 3.057069e+1, -0.000000043912934, -14893.864, -0.023326473, 0.0, 0.0016281696, -0.000000007377821, -0.000000007377821, 0.0, 0.09765625, 0.09623343 
1.4648438e-1, 3.066693e+1, -0.000002251715, -14805.931, 1.40055, 0.0, 0.0014876293, 0.0001302317, 0.0001302317, 0.0, 0.09765625, 0.096241646 
1.4648438e-1, 3.0763173e+1, -0.00000007197824, -14747.418, -0.18363081, 0.0, 0.001220104, 0.0000022145432, 0.0000022145432, 0.0, 0.09765625, 0.09624712 
1.4648438e-1, 3.0859426e+1, -0.0000001559879, -14641.303, 0.3592077, 0.0, 0.001710334, 0.000008656763, 0.000008656763, 0.0, 0.09765625, 0.09625704 
1.4648438e-1, 3.0955684e+1, -0.0000011054206, -14592.543, 1.0124586, 0.0, 0.0012513805, 0.00006914089, 0.00006914089, 0.0, 0.09765625, 0.096261606 
1.4648438e-1, 3.1051952e+1, -0.000000040588183, -14488.832, 0.019661063, 0.0, 0.0013419072, -0.000000013907993, -0.000000013907993, 0.0, 0.09765625, 0.09627131 
1.4648438e-1, 3.1148225e+1, -0.000002385916, -14435.144, 1.4515697, 0.0, 0.001803884, 0.00014358107, 0.00014358107, 0.0, 0.09765625, 0.09627633 
1.4648438e-1, 3.1244507e+1, -0.00000008166456, -14331.554, -0.11290496, 0.0, 0.0013635344, 0.00000080780774, 0.00000080780774, 0.0, 0.09765625, 0.09628603 
1.4648438e-1, 3.1340796e+1, -0.000000106363494, -14278.016, -0.22616747, 0.0, 0.0012327026, 0.0000034761888, 0.0000034761888, 0.0, 0.09765625, 0.096291035 
1.4648438e-1, 3.1437093e+1, -0.000007376555, -14176.922, 2.7702017, 0.0, 0.0017566244, 0.00053392694, 0.00053392694, 0.0, 0.09765625, 0.096300505 
1.4648438e-1, 3.1533393e+1, -0.00000998662, -14126.8545, -3.211107, 0.0, 0.0011461437, 0.00071991456, 0.00071991456, 0.0, 0.09765625, 0.09630519 
1.4648438e-1, 3.1629705e+1, -0.0000072252897, -14012.354, -2.7496126, 0.0, 0.0014574735, 0.00053232495, 0.00053232495, 0.0, 0.09765625, 0.09631592 
1.4648438e-1, 3.1726024e+1, -0.0000063641005, -13970.925, 2.5523655, 0.0, 0.00169097, 0.0004599307, 0.0004599307, 0.0, 0.09765625, 0.0963198 
1.4648438e-1, 3.1822348e+1, -0.00017673684, -13886.541, -13.446965, 0.0, 0.0012666605, 0.012844555, 0.012844555, 0.0, 0.09765625, 0.096327715 
1.4648438e-1, 3.191868e+1, -0.008248755, -13803.533, 91.85804, 0.0, 0.0015067598, 0.60301, 0.60301, 0.0, 0.09765625, 0.09633549 
1.4648438e-1, 3.201502e+1, -0.00019485173, -13691.788, -14.116217, 0.0, 0.0016976695, 0.014358934, 0.014358934, 0.0, 0.09765625, 0.09634597 
1.4648438e-1, 3.211137e+1, -0.000001884976, -13646.098, -1.2136184, 0.0, 0.0010910456, 0.00010604842, 0.00010604842, 0.0, 0.09765625, 0.09635026 
1.4648438e-1, 3.220772e+1, -0.0000016697771, -13556.148, -1.1396928, 0.0, 0.00141688, 0.0000941465, 0.0000941465, 0.0, 0.09765625, 0.096358694 
1.4648438e-1, 3.2304084e+1, -0.008109713, -13486.603, 91.05722, 0.0, 0.0017677153, 0.6066518, 0.6066518, 0.0, 0.09765625, 0.09636522 
1.4648438e-1, 3.2400456e+1, -0.0000001361982, -13402.512, -0.33710533, 0.0, 0.0014822092, 0.000008342811, 0.000008342811, 0.0, 0.09765625, 0.09637311 
1.4648438e-1, 3.249683e+1, -0.0000007618045, -13331.021, -0.78564477, 0.0, 0.0012245087, 0.000045539047, 0.000045539047, 0.0, 0.09765625, 0.096379824 
1.4648438e-1, 3.2593215e+1, -0.0000003555514, -13246.739, -0.5206688, 0.0, 0.0016045268, 0.00002010956, 0.00002010956, 0.0, 0.09765625, 0.09638774 
1.4648438e-1, 3.2689607e+1, -0.0000010284465, -13168.39, 0.91192174, 0.0, 0.0014741647, 0.00006212288, 0.00006212288, 0.0, 0.09765625, 0.0963951 
1.4648438e-1, 3.2786003e+1, -0.000000953231, -13098.334, 0.87371343, 0.0, 0.0013116837, 0.00005732709, 0.00005732709, 0.0, 0.09765625, 0.09640168 
1.4648438e-1, 3.2882413e+1, -0.0000020191103, -13012.942, -1.2826229, 0.0, 0.0016063133, 0.00012440282, 0.00012440282, 0.0, 0.09765625, 0.0964097 
1.4648438e-1, 3.2978824e+1, -0.0000013495825, -12937.861, -1.0444604, 0.0, 0.0017206713, 0.000082968654, 0.000082968654, 0.0, 0.09765625, 0.09641676 
1.4648438e-1, 3.3075246e+1, -0.0000024416668, -12852.171, 1.5070072, 0.0, 0.0010981204, 0.0001742655, 0.0001742655, 0.0, 0.09765625, 0.09642481 
1.4648438e-1, 3.3171672e+1, -0.0000011113356, -12788.629, 0.94895834, 0.0, 0.0013549505, 0.0000693045, 0.0000693045, 0.0, 0.09765625, 0.096430786 
1.4648438e-1, 3.326811e+1, -0.0000004729454, -12694.465, 0.60794246, 0.0, 0.0017901541, 0.00002864164, 0.00002864164, 0.0, 0.09765625, 0.096439645 
1.4648438e-1, 3.3364552e+1, -0.00000016123846, -12631.053, -0.27445132, 0.0, 0.0014254451, 0.0000058021214, 0.0000058021214, 0.0, 0.09765625, 0.096445605 
1.4648438e-1, 3.3461002e+1, -0.0000022722902, -12533.028, 1.4412049, 0.0, 0.001244052, 0.00016345555, 0.00016345555, 0.0, 0.09765625, 0.09645483 
1.4648438e-1, 3.3557457e+1, -0.0000007584093, -12482.382, 0.7677441, 0.0, 0.0017933963, 0.00004646263, 0.00004646263, 0.0, 0.09765625, 0.0964596 
1.4648438e-1, 3.3653924e+1, -0.0000013032418, -12370.947, -1.0012815, 0.0, 0.0013121844, 0.00007973863, 0.00007973863, 0.0, 0.09765625, 0.09647009 
1.4648438e-1, 3.3750394e+1, -0.0000008840187, -12330.395, -0.8208708, 0.0, 0.0009403315, 0.000053763775, 0.000053763775, 0.0, 0.09765625, 0.0964739 
1.4648438e-1, 3.384688e+1, -0.0000023656244, -12205.749, 1.4626414, 0.0, 0.0019449918, 0.00017290586, 0.00017290586, 0.0, 0.09765625, 0.096485645 
1.4648438e-1, 3.3943364e+1, -0.0000024308558, -12182.134, 1.5092732, 0.0, 0.0019840954, 0.00018455654, 0.00018455654, 0.0, 0.09765625, 0.096487865 
1.4648438e-1, 3.4039855e+1, -0.000003956448, -12046.435, -2.0288427, 0.0, 0.00077445334, 0.00033773825, 0.00033773825, 0.0, 0.09765625, 0.09650065 
1.4648438e-1, 3.4136355e+1, -0.000003144674, -12029.27, -1.789287, 0.0, 0.0011582377, 0.00026300183, 0.00026300183, 0.0, 0.09765625, 0.096502274 
1.4648438e-1, 3.4232867e+1, -0.0000055316887, -11878.631, 2.3924525, 0.0, 0.0020888124, 0.00047632758, 0.00047632758, 0.0, 0.09765625, 0.09651647 
1.4648438e-1, 3.4329385e+1, -0.0000018507146, -11884.785, 1.2319667, 0.0, 0.001347344, 0.00012585391, 0.00012585391, 0.0, 0.09765625, 0.09651589 
1.4648438e-1, 3.4425908e+1, -0.0000020276477, -11717.988, -1.4271612, 0.0, 0.00126654, 0.00017178964, 0.00017178964, 0.0, 0.09765625, 0.09653162 
1.4648438e-1, 3.4522438e+1, -0.00000071348256, -11729.883, 0.756626, 0.0, 0.0017342899, 0.00004809203, 0.00004809203, 0.0, 0.09765625, 0.0965305 
1.4648438e-1, 3.461898e+1, -0.00000013121794, -11560.7705, -0.28105938, 0.0, 0.001336889, 0.00000670175, 0.00000670175, 0.0, 0.09765625, 0.096546456 
1.4648438e-1, 3.471552e+1, -0.0000017453883, -11580.273, -1.2402325, 0.0, 0.0012536035, 0.0001310819, 0.0001310819, 0.0, 0.09765625, 0.096544616 
1.4648438e-1, 3.4812078e+1, -0.000008106214, -11393.162, 2.904754, 0.0, 0.001772833, 0.00073247787, 0.00073247787, 0.0, 0.09765625, 0.096562274 
1.4648438e-1, 3.4908637e+1, -0.000095143376, -11433.343, 9.846369, 0.0, 0.0012929648, 0.008384521, 0.008384521, 0.0, 0.09765625, 0.09655848 
1.4648438e-1, 3.5005206e+1, -0.000001578367, -11238.446, -1.189448, 0.0, 0.0015186812, 0.00012430974, 0.00012430974, 0.0, 0.09765625, 0.096576884 
1.4648438e-1, 3.510178e+1, -0.0000014891302, -11278.514, 1.1138401, 0.0, 0.0014849846, 0.00010851115, 0.00010851115, 0.0, 0.09765625, 0.0965731 
1.4648438e-1, 3.5198364e+1, -0.0000005907405, -11079.818, 0.69298273, 0.0, 0.0013265267, 0.000042751577, 0.000042751577, 0.0, 0.09765625, 0.096591875 
1.4648438e-1, 3.5294956e+1, -0.00000010358975, -11121.096, -0.21086046, 0.0, 0.0016976758, 0.000003894411, 0.000003894411, 0.0, 0.09765625, 0.09658797 
1.4648438e-1, 3.539155e+1, -0.00000007504633, -10925.654, 0.018385984, 0.0, 0.0014849924, -0.000000044105036, -0.000000044105036, 0.0, 0.09765625, 0.09660645 
1.4648438e-1, 3.5488155e+1, -0.00000567891, -10967.322, -2.4418924, 0.0, 0.0008776947, 0.0005380124, 0.0005380124, 0.0, 0.09765625, 0.09660251 
1.4648438e-1, 3.5584772e+1, -0.000003867279, -10761.595, 2.0012746, 0.0, 0.0018619659, 0.00036829876, 0.00036829876, 0.0, 0.09765625, 0.09662196 
1.4648438e-1, 3.5681388e+1, -0.000008676439, -10815.576, 2.9751446, 0.0, 0.0016522234, 0.0008097251, 0.0008097251, 0.0, 0.09765625, 0.09661686 
1.4648438e-1, 3.5778016e+1, -0.0000007032189, -10602.845, -0.7153702, 0.0, 0.0011634575, 0.000047562553, 0.000047562553, 0.0, 0.09765625, 0.09663698 
1.4648438e-1, 3.5874653e+1, -0.00015140146, -10637.608, 12.412608, 0.0, 0.0014643002, 0.014332363, 0.014332363, 0.0, 0.09765625, 0.09663369 
1.4648438e-1, 3.597129e+1, -0.0005495255, -10456.403, 23.644764, 0.0, 0.0015438796, 0.05291743, 0.05291743, 0.0, 0.09765625, 0.09665084 
1.4648438e-1, 3.6067945e+1, -0.0001662125, -10513.842, 13.005329, 0.0, 0.0013258584, 0.015920993, 0.015920993, 0.0, 0.09765625, 0.0966454 
1.4648438e-1, 3.6164597e+1, -0.0000008759049, -10299.479, 0.7980972, 0.0, 0.001579882, 0.000060967912, 0.000060967912, 0.0, 0.09765625, 0.0966657 
1.4648438e-1, 3.626126e+1, -0.00000063478814, -10342.221, -0.6704139, 0.0, 0.0013102812, 0.000042823456, 0.000042823456, 0.0, 0.09765625, 0.09666165 
1.4648438e-1, 3.635793e+1, -0.00000022196369, -10141.276, 0.37712267, 0.0, 0.0014987206, 0.000013802059, 0.000013802059, 0.0, 0.09765625, 0.09668069 
1.4648438e-1, 3.6454612e+1, -0.000001084858, -10186.542, 0.8796487, 0.0, 0.0015272936, 0.00007487633, 0.00007487633, 0.0, 0.09765625, 0.0966764 
1.4648438e-1, 3.6551297e+1, -0.000000091376066, -9985.306, 0.16118093, 0.0, 0.0014474365, 0.0000025103745, 0.0000025103745, 0.0, 0.09765625, 0.096695475 
1.4648438e-1, 3.664799e+1, -0.00000016998514, -10026.583, -0.31178656, 0.0, 0.0013016259, 0.000009525329, 0.000009525329, 0.0, 0.09765625, 0.096691564 
1.4648438e-1, 3.674469e+1, -0.00000007819254, -9831.226, -0.039914247, 0.0, 0.0015327843, 0.00000008385723, 0.00000008385723, 0.0, 0.09765625, 0.096710086 
1.4648438e-1, 3.68414e+1, -0.00000007877929, -9868.595, -0.13593207, 0.0, 0.0015407145, 0.0000017935781, 0.0000017935781, 0.0, 0.09765625, 0.09670654 
1.4648438e-1, 3.6938113e+1, -0.00000014593918, -9678.355, 0.25568727, 0.0, 0.001452516, 0.000006608925, 0.000006608925, 0.0, 0.09765625, 0.096724585 
1.4648438e-1, 3.703484e+1, -0.00000007081145, -9708.766, 0.12609012, 0.0, 0.0012914541, 0.0000015667538, 0.0000015667538, 0.0, 0.09765625, 0.0967217 
1.4648438e-1, 3.7131566e+1, -0.0000002031924, -9523.574, -0.33210173, 0.0, 0.0015397447, 0.000011377708, 0.000011377708, 0.0, 0.09765625, 0.09673928 
1.4648438e-1, 3.722831e+1, -0.00000036298331, -9548.72, 0.521503, 0.0, 0.0015460555, 0.000028118882, 0.000028118882, 0.0, 0.09765625, 0.09673689 
1.4648438e-1, 3.732505e+1, -0.0000082632405, -9377.264, 2.8867803, 0.0, 0.0013967446, 0.0008804288, 0.0008804288, 0.0, 0.09765625, 0.09675317 
1.4648438e-1, 3.7421808e+1, -0.00000057386575, -9383.545, -0.59746337, 0.0, 0.0014252778, 0.00003746746, 0.00003746746, 0.0, 0.09765625, 0.09675258 
1.4648438e-1, 3.751856e+1, -0.00000018006277, -9226.059, 0.3158512, 0.0, 0.0014908209, 0.000010633001, 0.000010633001, 0.0, 0.09765625, 0.09676754 
1.4648438e-1, 3.7615335e+1, -0.0000021579453, -9219.069, 1.4842253, 0.0, 0.001458468, 0.00023679508, 0.00023679508, 0.0, 0.09765625, 0.0967682 
1.4648438e-1, 3.7712106e+1, -0.00000018302778, -9080.897, -0.2897099, 0.0, 0.0013950089, 0.000009059651, 0.000009059651, 0.0, 0.09765625, 0.09678133 
1.4648438e-1, 3.7808892e+1, -0.0000016893227, -9054.923, -1.3109794, 0.0, 0.0015787049, 0.00018811536, 0.00018811536, 0.0, 0.09765625, 0.0967838 
1.4648438e-1, 3.7905678e+1, -0.00000055769556, -8926.821, 0.63326037, 0.0, 0.0014303023, 0.0000443652, 0.0000443652, 0.0, 0.09765625, 0.09679598 
1.4648438e-1, 3.800248e+1, -0.0000029283879, -8891.86, 1.725516, 0.0, 0.0013692336, 0.00033191778, 0.00033191778, 0.0, 0.09765625, 0.09679931 
1.4648438e-1, 3.809928e+1, -0.00000017639054, -8783.257, -0.28554684, 0.0, 0.0013591633, 0.00000910684, 0.00000910684, 0.0, 0.09765625, 0.09680964 
1.4648438e-1, 3.81961e+1, -0.000002193659, -8727.666, -1.5084134, 0.0, 0.0017781463, 0.0002585073, 0.0002585073, 0.0, 0.09765625, 0.09681492 
1.4648438e-1, 3.8292915e+1, -0.00000057110617, -8626.565, 0.6446369, 0.0, 0.0013949164, 0.000047600646, 0.000047600646, 0.0, 0.09765625, 0.09682455 
1.4648438e-1, 3.8389742e+1, -0.0000018821711, -8568.112, 1.3859411, 0.0, 0.001187566, 0.00022230172, 0.00022230172, 0.0, 0.09765625, 0.096830115 
1.4648438e-1, 3.8486576e+1, -0.00000040270584, -8478.652, -0.4664898, 0.0, 0.0014603862, 0.000025263253, 0.000025263253, 0.0, 0.09765625, 0.09683863 
1.4648438e-1, 3.8583425e+1, -0.00000026590723, -8405.154, -0.34706318, 0.0, 0.0018083798, 0.0000140649245, 0.0000140649245, 0.0, 0.09765625, 0.096845634 
1.4648438e-1, 3.8680267e+1, -0.0000002676069, -8325.013, 0.3709764, 0.0, 0.0012442478, 0.000016263717, 0.000016263717, 0.0, 0.09765625, 0.09685326 
1.4648438e-1, 3.877713e+1, -0.000000074633526, -8244.841, 0.1153909, 0.0, 0.0014338846, 0.0000015403239, 0.0000015403239, 0.0, 0.09765625, 0.0968609 
1.4648438e-1, 3.8873988e+1, -0.00000010429825, -8174.276, 0.18781486, 0.0, 0.0014743727, 0.0000042109978, 0.0000042109978, 0.0, 0.09765625, 0.09686763 
1.4648438e-1, 3.8970864e+1, -0.00017130798, -8086.157, 13.176835, 0.0, 0.0014940083, 0.021301009, 0.021301009, 0.0, 0.09765625, 0.096876025 
1.4648438e-1, 3.9067742e+1, -0.000057088193, -8016.4517, 7.606843, 0.0, 0.0013901648, 0.007161069, 0.007161069, 0.0, 0.09765625, 0.09688268 
1.4648438e-1, 3.916463e+1, -0.0000063971083, -7926.984, 2.5298624, 0.0, 0.0015568634, 0.0008009974, 0.0008009974, 0.0, 0.09765625, 0.09689121 
1.4648438e-1, 3.9261523e+1, -0.00000023649349, -7866.199, 0.34928304, 0.0, 0.0012978788, 0.00001527273, 0.00001527273, 0.0, 0.09765625, 0.096897006 
1.4648438e-1, 3.9358425e+1, -0.00000018118544, -7768.6577, 0.30235383, 0.0, 0.001646466, 0.000011586334, 0.000011586334, 0.0, 0.09765625, 0.09690631 
1.4648438e-1, 3.9455333e+1, -0.000000509054, -7711.453, 0.5358482, 0.0, 0.0015331851, 0.0000367256, 0.0000367256, 0.0, 0.09765625, 0.09691177 
1.4648438e-1, 3.9552253e+1, -0.0000002941361, -7606.506, -0.45424077, 0.0, 0.00118793, 0.000026831942, 0.000026831942, 0.0, 0.09765625, 0.09692179 
1.4648438e-1, 3.9649177e+1, -0.00000038930054, -7560.453, -0.4921543, 0.0, 0.0012462885, 0.000031647913, 0.000031647913, 0.0, 0.09765625, 0.09692619 
1.4648438e-1, 3.974611e+1, -0.0000002356419, -7446.907, 0.30011737, 0.0, 0.002108758, 0.00001185937, 0.00001185937, 0.0, 0.09765625, 0.09693703 
1.4648438e-1, 3.9843047e+1, -0.00000006929376, -7407.077, -0.053013884, 0.0, 0.0014433793, 0.0000003101377, 0.0000003101377, 0.0, 0.09765625, 0.09694084 
1.4648438e-1, 3.9939994e+1, -0.0000006252787, -7290.801, -0.67671233, 0.0, 0.0008817384, 0.000062185325, 0.000062185325, 0.0, 0.09765625, 0.09695195 
1.4648438e-1, 4.003695e+1, -0.00000008263839, -7247.422, -0.025731873, 0.0, 0.0015063252, 0.000000008722054, 0.000000008722054, 0.0, 0.09765625, 0.09695609 
1.4648438e-1, 4.0133908e+1, -0.00000062619995, -7133.0005, 0.7076797, 0.0, 0.0019869243, 0.000069584166, 0.000069584166, 0.0, 0.09765625, 0.09696703 
1.4648438e-1, 4.0230876e+1, -0.00000011628119, -7094.7764, 0.17520359, 0.0, 0.0012035832, 0.000004210324, 0.000004210324, 0.0, 0.09765625, 0.096970685 
1.4648438e-1, 4.0327853e+1, -0.0000018734524, -6980.6563, -1.3733133, 0.0, 0.0013923637, 0.00026830018, 0.00026830018, 0.0, 0.09765625, 0.09698159 
1.4648438e-1, 4.042484e+1, -0.00000005507127, -6930.8447, -0.04802371, 0.0, 0.0016156532, 0.00000027768328, 0.00000027768328, 0.0, 0.09765625, 0.09698636 
1.4648438e-1, 4.0521827e+1, -0.0000012325092, -6826.593, 1.124078, 0.0, 0.0013290776, 0.00018386003, 0.00018386003, 0.0, 0.09765625, 0.09699634 
1.4648438e-1, 4.061883e+1, -0.00000010206959, -6775.07, 0.13436255, 0.0, 0.0013806403, 0.000002562596, 0.000002562596, 0.0, 0.09765625, 0.09700127 
1.4648438e-1, 4.0715832e+1, -0.0000030939118, -6676.355, -1.8018285, 0.0, 0.001715503, 0.00048318726, 0.00048318726, 0.0, 0.09765625, 0.09701072 
1.4648438e-1, 4.081285e+1, -0.0000013559682, -6608.397, -1.1560069, 0.0, 0.0015320549, 0.00020086432, 0.00020086432, 0.0, 0.09765625, 0.09701722 
1.4648438e-1, 4.090987e+1, -0.000007460108, -6521.7905, 2.743317, 0.0, 0.0011947089, 0.0011464847, 0.0011464847, 0.0, 0.09765625, 0.09702551 
1.4648438e-1, 4.1006902e+1, -0.0000009855734, -6456.002, 1.0357171, 0.0, 0.0013447222, 0.00016517141, 0.00016517141, 0.0, 0.09765625, 0.09703182 
1.4648438e-1, 4.1103935e+1, -0.000017637778, -6372.475, -4.2200828, 0.0, 0.0018587644, 0.002777052, 0.002777052, 0.0, 0.09765625, 0.09703982 
1.4648438e-1, 4.120098e+1, -0.0000004236693, -6284.061, -0.585598, 0.0, 0.0017701604, 0.000054146934, 0.000054146934, 0.0, 0.09765625, 0.09704829 
1.4648438e-1, 4.1298026e+1, -0.000008122522, -6220.6743, 2.860276, 0.0, 0.00070818537, 0.0013070367, 0.0013070367, 0.0, 0.09765625, 0.09705437 
1.4648438e-1, 4.1395092e+1, -0.00000038961224, -6133.437, -0.5328955, 0.0, 0.0014875964, 0.000045910303, 0.000045910303, 0.0, 0.09765625, 0.09706273 
1.4648438e-1, 4.1492152e+1, -0.000001117853, -6062.9683, -1.0452621, 0.0, 0.002079875, 0.0001790864, 0.0001790864, 0.0, 0.09765625, 0.09706949 
1.4648438e-1, 4.158923e+1, -0.0000014076809, -5972.7075, -1.2003254, 0.0, 0.0013063084, 0.00023981975, 0.00023981975, 0.0, 0.09765625, 0.09707815 
1.4648438e-1, 4.1686308e+1, -0.00000038427004, -5907.657, 0.41950798, 0.0, 0.0011949486, 0.000029405364, 0.000029405364, 0.0, 0.09765625, 0.09708439 
1.4648438e-1, 4.17834e+1, -0.0000023233986, -5822.6655, 1.5695742, 0.0, 0.0018984197, 0.00042077544, 0.00042077544, 0.0, 0.09765625, 0.09709255 
1.4648438e-1, 4.1880494e+1, -0.00008074568, -5763.898, -9.028608, 0.0, 0.0010616351, 0.014061693, 0.014061693, 0.0, 0.09765625, 0.09709819 
1.4648438e-1, 4.19776e+1, -0.0020399452, -5654.9683, 45.37779, 0.0, 0.0014841406, 0.36206675, 0.36206675, 0.0, 0.09765625, 0.09710865 
1.4648438e-1, 4.2074707e+1, -0.000045658027, -5589.648, -6.788567, 0.0, 0.0017617954, 0.008198972, 0.008198972, 0.0, 0.09765625, 0.09711492 
1.4648438e-1, 4.2171833e+1, -0.00000025470825, -5500.079, 0.3395918, 0.0, 0.0014072304, 0.000020712734, 0.000020712734, 0.0, 0.09765625, 0.09712352 
1.4648438e-1, 4.2268956e+1, -0.0000003273656, -5446.947, -0.39643207, 0.0, 0.0012806774, 0.000028525203, 0.000028525203, 0.0, 0.09765625, 0.09712863 
1.4648438e-1, 4.2366093e+1, -0.0000004930629, -5337.122, -0.53994, 0.0, 0.0019177948, 0.000054130986, 0.000054130986, 0.0, 0.09765625, 0.09713918 
1.4648438e-1, 4.246323e+1, -0.00000045241475, -5292.5366, 0.5054225, 0.0, 0.0009936264, 0.00004781402, 0.00004781402, 0.0, 0.09765625, 0.097143464 
1.4648438e-1, 4.2560384e+1, -0.00000010356039, -5183.3794, 0.18819734, 0.0, 0.001298872, 0.0000067294795, 0.0000067294795, 0.0, 0.09765625, 0.09715396 
1.4648438e-1, 4.2657536e+1, -0.00000028422937, -5136.6875, -0.32923737, 0.0, 0.0019742348, 0.00002081833, 0.00002081833, 0.0, 0.09765625, 0.09715845 
1.4648438e-1, 4.2754704e+1, -0.000000082876184, -5024.7324, 0.09868341, 0.0, 0.0017230194, 0.00000185522, 0.00000185522, 0.0, 0.09765625, 0.09716922 
1.4648438e-1, 4.2851868e+1, -0.0000002646955, -4981.6255, 0.3358695, 0.0, 0.0007138934, 0.000022380184, 0.000022380184, 0.0, 0.09765625, 0.09717336 
1.4648438e-1, 4.294905e+1, -0.00000010645867, -4867.359, -0.14936061, 0.0, 0.0017090829, 0.0000044768467, 0.0000044768467, 0.0, 0.09765625, 0.09718436 
1.4648438e-1, 4.3046233e+1, -0.000000088339384, -4825.172, -0.1577367, 0.0, 0.0016371912, 0.000005068133, 0.000005068133, 0.0, 0.09765625, 0.09718842 
1.4648438e-1, 4.3143433e+1, -0.00000037267395, -4712.74, -0.44259784, 0.0, 0.0013483621, 0.000041193976, 0.000041193976, 0.0, 0.09765625, 0.09719925 
1.4648438e-1, 4.324063e+1, -0.0000009283971, -4666.5366, -0.9853898, 0.0, 0.0014421741, 0.00020714736, 0.00020714736, 0.0, 0.09765625, 0.097203694 
1.4648438e-1, 4.333784e+1, -0.0005070679, -4561.4707, 22.603994, 0.0, 0.001802917, 0.11150243, 0.11150243, 0.0, 0.09765625, 0.09721382 
1.4648438e-1, 4.3435055e+1, -0.0000009097844, -4502.2075, -0.96958613, 0.0, 0.0010299932, 0.00020789828, 0.00020789828, 0.0, 0.09765625, 0.09721953 
1.4648438e-1, 4.3532285e+1, -0.00000006859291, -4407.057, 0.04763927, 0.0, 0.0014521461, 0.00000044637636, 0.00000044637636, 0.0, 0.09765625, 0.0972287 
1.4648438e-1, 4.3629512e+1, -0.0000015938075, -4341.3716, 1.3119076, 0.0, 0.0017408261, 0.00039484806, 0.00039484806, 0.0, 0.09765625, 0.097235024 
1.4648438e-1, 4.3726754e+1, -0.0000009535581, -4259.1943, -1.0035937, 0.0, 0.001590977, 0.00023552318, 0.00023552318, 0.0, 0.09765625, 0.09724295 
1.4648438e-1, 4.3823996e+1, -0.0000001131857, -4178.2246, 0.12923703, 0.0, 0.0011776768, 0.0000038842563, 0.0000038842563, 0.0, 0.09765625, 0.09725076 
1.4648438e-1, 4.3921253e+1, -0.0000005540698, -4110.33, 0.77427405, 0.0, 0.0013789369, 0.00014529804, 0.00014529804, 0.0, 0.09765625, 0.09725731 
1.4648438e-1, 4.4018513e+1, -0.00000046831843, -4016.0923, -0.65050083, 0.0, 0.0017601473, 0.000104895626, 0.000104895626, 0.0, 0.09765625, 0.0972664 
1.4648438e-1, 4.4115785e+1, -0.0000000942973, -3957.2969, -0.20409568, 0.0, 0.0016441796, 0.000010431838, 0.000010431838, 0.0, 0.09765625, 0.097272076 
1.4648438e-1, 4.421306e+1, -0.00000025918823, -3852.1633, -0.36526665, 0.0, 0.001134907, 0.000034375826, 0.000034375826, 0.0, 0.09765625, 0.09728222 
1.4648438e-1, 4.4310343e+1, -0.0000003392293, -3811.4695, 0.5825252, 0.0, 0.0013827631, 0.00008869089, 0.00008869089, 0.0, 0.09765625, 0.09728615 
1.4648438e-1, 4.440764e+1, -0.00000022497115, -3695.136, 0.5115814, 0.0, 0.0018613399, 0.000070602066, 0.000070602066, 0.0, 0.09765625, 0.097297385 
1.4648438e-1, 4.4504938e+1, -0.00000047026467, -3648.162, -0.5859607, 0.0, 0.0013884873, 0.00009364558, 0.00009364558, 0.0, 0.09765625, 0.09730192 
1.4648438e-1, 4.4602245e+1, -0.00005569186, -3522.0215, 7.4826093, 0.0, 0.0014078072, 0.015841197, 0.015841197, 0.0, 0.09765625, 0.09731411 
1.4648438e-1, 4.4699562e+1, -0.0020176615, -3504.6714, 45.049004, 0.0, 0.0015780645, 0.5769464, 0.5769464, 0.0, 0.09765625, 0.09731579 
1.4648438e-1, 4.4796884e+1, -0.000110074216, -3386.938, 10.521094, 0.0, 0.0015017978, 0.03257206, 0.03257206, 0.0, 0.09765625, 0.097327165 
1.4648438e-1, 4.489421e+1, -0.0000009057361, -3345.957, -0.9819114, 0.0, 0.001274179, 0.00028724797, 0.00028724797, 0.0, 0.09765625, 0.09733113 
1.4648438e-1, 4.499155e+1, -0.00002951859, -3203.323, 5.446707, 0.0, 0.001821041, 0.009231654, 0.009231654, 0.0, 0.09765625, 0.09734492 
1.4648438e-1, 4.5088893e+1, -0.0022524847, -3202.7585, 47.58665, 0.0, 0.0013867012, 0.7046354, 0.7046354, 0.0, 0.09765625, 0.09734497 
1.4648438e-1, 4.5186248e+1, -0.0000730154, -3057.582, 8.5670395, 0.0, 0.0014965055, 0.023930788, 0.023930788, 0.0, 0.09765625, 0.09735902 
1.4648438e-1, 4.5283607e+1, -0.00000032189075, -3048.2314, -0.4277758, 0.0, 0.0014230377, 0.000059710343, 0.000059710343, 0.0, 0.09765625, 0.097359926 
1.4648438e-1, 4.5380974e+1, -0.0000018248383, -2889.3787, -1.3465918, 0.0, 0.0016759392, 0.00062575267, 0.00062575267, 0.0, 0.09765625, 0.0973753 
1.4648438e-1, 4.5478347e+1, -0.00000012629349, -2897.2444, 0.17830648, 0.0, 0.0012082075, 0.000010847307, 0.000010847307, 0.0, 0.09765625, 0.097374536 
1.4648438e-1, 4.5575732e+1, -0.0000005052637, -2730.7654, 0.77963907, 0.0, 0.0017940804, 0.00022208327, 0.00022208327, 0.0, 0.09765625, 0.09739066 
1.4648438e-1, 4.5673123e+1, -0.00000012260197, -2739.9563, 0.041680034, 0.0, 0.0014048227, 0.0000005114316, 0.0000005114316, 0.0, 0.09765625, 0.09738977 
1.4648438e-1, 4.577052e+1, -0.0000010111912, -2575.6885, -1.0308678, 0.0, 0.0014988767, 0.00041157295, 0.00041157295, 0.0, 0.09765625, 0.09740569 
1.4648438e-1, 4.5867923e+1, -0.00000026265286, -2583.2695, -0.39492372, 0.0, 0.0013017287, 0.00006011228, 0.00006011228, 0.0, 0.09765625, 0.09740495 
1.4648438e-1, 4.596534e+1, -0.00000021281762, -2421.8687, 0.5039554, 0.0, 0.001793857, 0.000104652914, 0.000104652914, 0.0, 0.09765625, 0.097420596 
1.4648438e-1, 4.6062756e+1, -0.00000031345073, -2424.8433, 0.6127566, 0.0, 0.0012141464, 0.00015452981, 0.00015452981, 0.0, 0.09765625, 0.097420305 
1.4648438e-1, 4.6160185e+1, -0.00000010493201, -2267.841, 0.1460436, 0.0, 0.001700017, 0.000009299931, 0.000009299931, 0.0, 0.09765625, 0.097435534 
1.4648438e-1, 4.625762e+1, -0.00000015167124, -2264.0107, 0.39447308, 0.0, 0.0013654866, 0.000068579895, 0.000068579895, 0.0, 0.09765625, 0.09743591 
1.4648438e-1, 4.6355066e+1, -0.00000029415003, -2119.8352, -0.6290553, 0.0, 0.0015414852, 0.00018637629, 0.00018637629, 0.0, 0.09765625, 0.09744989 
1.4648438e-1, 4.6452513e+1, -0.000000100619204, -2099.5735, -0.16435404, 0.0, 0.0014051751, 0.000012764972, 0.000012764972, 0.0, 0.09765625, 0.09745186 
1.4648438e-1, 4.6549973e+1, -0.00000056547833, -1969.4923, 0.79607326, 0.0, 0.0016182072, 0.0003212091, 0.0003212091, 0.0, 0.09765625, 0.09746448 
1.4648438e-1, 4.6647438e+1, -0.00000015613841, -1938.8445, 0.25560278, 0.0, 0.0012035618, 0.00003354062, 0.00003354062, 0.0, 0.09765625, 0.09746746 
1.4648438e-1, 4.6744916e+1, -0.00000010378277, -1819.6039, 0.19252063, 0.0, 0.0017567688, 0.000020265594, 0.000020265594, 0.0, 0.09765625, 0.09747904 
1.4648438e-1, 4.6842393e+1, -0.00000033398743, -1773.7192, 0.63043773, 0.0, 0.0014714424, 0.00022374415, 0.00022374415, 0.0, 0.09765625, 0.09748349 
1.4648438e-1, 4.6939886e+1, -0.00000051691165, -1673.7802, -0.71602607, 0.0, 0.0013679332, 0.00030579168, 0.00030579168, 0.0, 0.09765625, 0.0974932 
1.4648438e-1, 4.7037375e+1, -0.00000012975434, -1608.1324, -0.40810883, 0.0, 0.0014321018, 0.000103439335, 0.000103439335, 0.0, 0.09765625, 0.09749959 
1.4648438e-1, 4.7134885e+1, -0.0000015774104, -1524.8744, 1.2535397, 0.0, 0.0016348228, 0.0010289078, 0.0010289078, 0.0, 0.09765625, 0.09750768 
1.4648438e-1, 4.7232392e+1, -0.000000664696, -1444.6705, 0.85122806, 0.0, 0.0013243991, 0.0005008953, 0.0005008953, 0.0, 0.09765625, 0.09751547 
1.4648438e-1, 4.7329915e+1, -0.00000018839773, -1376.5757, -0.4695293, 0.0, 0.0015813058, 0.00015996097, 0.00015996097, 0.0, 0.09765625, 0.097522095 
1.4648438e-1, 4.7427437e+1, -0.0000013534392, -1279.2743, -1.1681727, 0.0, 0.0015244838, 0.0010653656, 0.0010653656, 0.0, 0.09765625, 0.09753156 
1.4648438e-1, 4.7524974e+1, -0.0000003752075, -1228.5928, 0.6691243, 0.0, 0.0013913679, 0.0003640476, 0.0003640476, 0.0, 0.09765625, 0.09753649 
1.4648438e-1, 4.7622514e+1, -0.0000004810761, -1118.9987, 0.7190054, 0.0, 0.001411621, 0.00046151102, 0.00046151102, 0.0, 0.09765625, 0.09754716 
1.4648438e-1, 4.7720066e+1, -0.00024143688, -1082.5575, 15.552217, 0.0, 0.0015772271, 0.22313845, 0.22313845, 0.0, 0.09765625, 0.097550705 
1.4648438e-1, 4.781762e+1, -0.0011969416, -950.48596, 34.624256, 0.0, 0.0015515774, 1.2584261, 1.2584261, 0.0, 0.09765625, 0.097563565 
1.4648438e-1, 4.7915187e+1, -0.000011440085, -932.34015, -3.385199, 0.0, 0.0013425284, 0.012279591, 0.012279591, 0.0, 0.09765625, 0.09756533 
1.4648438e-1, 4.8012757e+1, 0.00000002729934, -780.1116, -0.12343416, 0.0, 0.0014575851, 0.000019557829, 0.000019557829, 0.0, 0.09765625, 0.09758016 
1.4648438e-1, 4.811034e+1, -0.000000050491156, -789.3056, 0.05718474, 0.0, 0.001494921, 0.0000040925106, 0.0000040925106, 0.0, 0.09765625, 0.09757926 
1.4648438e-1, 4.8207924e+1, 0.00000001814509, -617.12067, -0.07052965, 0.0, 0.0017539166, 0.000008078856, 0.000008078856, 0.0, 0.09765625, 0.09759604 
1.4648438e-1, 4.8305523e+1, -0.00000029900707, -639.6926, 0.56502014, 0.0, 0.0012075437, 0.0004987649, 0.0004987649, 0.0, 0.09765625, 0.09759384 
1.4648438e-1, 4.8403123e+1, 0.000000006593118, -453.48358, 0.080274336, 0.0, 0.001264028, 0.00001421652, 0.00001421652, 0.0, 0.09765625, 0.09761199 
1.4648438e-1, 4.8500738e+1, -0.0000000054968994, -503.55557, -0.08130727, 0.0, 0.001699234, 0.000013122889, 0.000013122889, 0.0, 0.09765625, 0.09760711 
1.4648438e-1, 4.859835e+1, -0.000000195237, -274.44937, 0.43986377, 0.0, 0.0021897021, 0.00070477865, 0.00070477865, 0.0, 0.09765625, 0.09762946 
1.4648438e-1, 4.8695982e+1, -0.00000014688162, -354.2546, -0.39783514, 0.0, 0.0011930986, 0.00044662956, 0.00044662956, 0.0, 0.09765625, 0.09762167 
1.4648438e-1, 4.8793605e+1, -0.000000017223039, -114.92288, -0.03171245, 0.0, -0.00086891337, 0.000008733685, 0.000008733685, 0.0, 0.09765625, 0.09764503 
1.4648438e-1, 4.8891258e+1, -0.0000018154177, -150.42122, 1.3463291, 0.0, 0.004765093, 0.012047395, 0.012047395, 0.0, 0.09765625, 0.097641565 
1.4648438e-1, 4.89889e+1, -0.00000038694245, -12.503115, -0.63391614, 0.0, 0.00032660234, 0.032057382, 0.032057382, 0.0, 0.09765625, 0.09765503 
