coord_x,coord_y,stress_xx,stress_yy,tau_xy,velocity_x,velocity_y,stress_1,eps,damage,lx,ly
1.953125e-1, 1.8799178e-1, -0.0000000093378345, -39704.38, -0.020409577, 0.0, -0.00000821596, 0.0000000011568773, 0.0000000011568773, 0.0, 0.390625, 0.37597865 
1.953125e-1, 5.6397533e-1, -0.0000000045509005, -39711.527, -0.061229445, 0.0, -0.00002464835, 0.00000008986535, 0.00000008986535, 0.0, 0.390625, 0.37597615 
1.953125e-1, 9.400691e-1, -0.000000010604076, -39081.82, -0.09007838, 0.0, 0.00009660054, 0.00000019701838, 0.00000019701838, 0.0, 0.390625, 0.37619582 
1.953125e-1, 1.316272e+0, -0.0000000065650605, -39082.043, -0.10396264, 0.0, 0.0000068123973, 0.00000026998896, 0.00000026998896, 0.0, 0.390625, 0.37619576 
1.953125e-1, 1.6925848e+0, -0.000000017651333, -38456.16, -0.09884608, 0.0, 0.00010936441, 0.00000023641769, 0.00000023641769, 0.0, 0.390625, 0.37641448 
1.953125e-1, 2.0690063e+0, -0.0000000073250246, -38455.832, -0.06740891, 0.0, 0.000037683563, 0.00000011083466, 0.00000011083466, 0.0, 0.390625, 0.3764146 
1.953125e-1, 2.4455373e+0, -0.00000000964394, -37831.355, -0.033247408, 0.0, 0.0001561843, 0.000000019579602, 0.000000019579602, 0.0, 0.390625, 0.3766332 
1.953125e-1, 2.822178e+0, -0.0000000005414523, -37828.57, 0.021457417, 0.0, 0.000050362058, 0.000000011634256, 0.000000011634256, 0.0, 0.390625, 0.37663418 
1.953125e-1, 3.198928e+0, -0.0000000047948783, -37207.367, 0.07442609, 0.0, 0.00019836792, 0.00000014408579, 0.00000014408579, 0.0, 0.390625, 0.376852 
1.953125e-1, 3.5757887e+0, -0.0000000063614536, -37200.242, 0.093412064, 0.0, 0.00009507143, 0.00000022820313, 0.00000022820313, 0.0, 0.390625, 0.3768545 
1.953125e-1, 3.9527577e+0, -0.000000012796187, -36583.973, 0.10219803, 0.0, 0.00023390671, 0.00000027269562, 0.00000027269562, 0.0, 0.390625, 0.377071 
1.953125e-1, 4.3298388e+0, 0.000000000064914144, -36571.15, 0.107381456, 0.0, 0.00013923168, 0.00000031536183, 0.00000031536183, 0.0, 0.390625, 0.3770755 
1.953125e-1, 4.707027e+0, -0.000000022198636, -35961.234, 0.11046682, 0.0, 0.00027267003, 0.00000031713716, 0.00000031713716, 0.0, 0.390625, 0.3772901 
1.953125e-1, 5.0843287e+0, -0.000000009995317, -35941.25, 0.10668355, 0.0, 0.00018206221, 0.00000030666706, 0.00000030666706, 0.0, 0.390625, 0.37729713 
1.953125e-1, 5.461737e+0, -0.000000013810965, -35339.32, 0.1109509, 0.0, 0.00028552325, 0.0000003345267, 0.0000003345267, 0.0, 0.390625, 0.37750933 
1.953125e-1, 5.83926e+0, -0.000000013958492, -35310.92, 0.13812779, 0.0, 0.00023281651, 0.0000005263646, 0.0000005263646, 0.0, 0.390625, 0.37751934 
1.953125e-1, 6.216888e+0, -0.000000029434833, -34717.73, 0.16314492, 0.0, 0.00030433037, 0.0000007372146, 0.0000007372146, 0.0, 0.390625, 0.3777288 
1.953125e-1, 6.594633e+0, -0.00000002567663, -34682.152, 0.17735553, 0.0, 0.00027129293, 0.00000088127126, 0.00000088127126, 0.0, 0.390625, 0.37774137 
1.953125e-1, 6.9724804e+0, -0.000000042220336, -34093.695, 0.1842102, 0.0, 0.00033350426, 0.0000009530777, 0.0000009530777, 0.0, 0.390625, 0.3779495 
1.953125e-1, 7.3504466e+0, -0.00000003322293, -34053.88, 0.1613843, 0.0, 0.0003248388, 0.00000073159026, 0.00000073159026, 0.0, 0.390625, 0.3779636 
1.953125e-1, 7.728516e+0, -0.000000019016799, -33471.074, 0.13522416, 0.0, 0.00037008894, 0.0000005272959, 0.0000005272959, 0.0, 0.390625, 0.37817013 
1.953125e-1, 8.106705e+0, -0.000000008491544, -33423.48, 0.10333611, 0.0, 0.00037266768, 0.00000031099626, 0.00000031099626, 0.0, 0.390625, 0.378187 
1.953125e-1, 8.484996e+0, -0.000000011772448, -32850.46, 0.08378999, 0.0, 0.0004448177, 0.0000002019442, 0.0000002019442, 0.0, 0.390625, 0.3783904 
1.953125e-1, 8.863406e+0, -0.000000018768983, -32794.66, 0.12242505, 0.0, 0.00039035865, 0.00000043825275, 0.00000043825275, 0.0, 0.390625, 0.37841022 
1.953125e-1, 9.241918e+0, -0.000000016820794, -32227.219, 0.13612713, 0.0, 0.0004750779, 0.0000005581751, 0.0000005581751, 0.0, 0.390625, 0.37861198 
1.953125e-1, 9.620552e+0, 0.0000000045937996, -32166.877, -0.0653152, 0.0, 0.00043967232, 0.00000013722092, 0.00000013722092, 0.0, 0.390625, 0.37863347 
1.953125e-1, 9.999286e+0, -0.000000031870247, -31603.506, -0.21540889, 0.0, 0.00055864715, 0.0000014363541, 0.0000014363541, 0.0, 0.390625, 0.37883413 
1.953125e-1, 1.0378143e+1, -0.000000008612606, -31539.777, 0.12753686, 0.0, 0.00042588706, 0.0000005071088, 0.0000005071088, 0.0, 0.390625, 0.37885684 
1.953125e-1, 1.0757098e+1, -0.00000006964214, -30979.736, 0.26978397, 0.0, 0.0005773966, 0.000002279743, 0.000002279743, 0.0, 0.390625, 0.3790567 
1.953125e-1, 1.1136181e+1, -0.00000038387893, -30912.15, -0.6362652, 0.0, 0.0004936456, 0.0000127123785, 0.0000127123785, 0.0, 0.390625, 0.37908083 
1.953125e-1, 1.1515357e+1, -0.00000039393893, -30360.305, -0.6332801, 0.0, 0.00068684726, 0.000012815537, 0.000012815537, 0.0, 0.390625, 0.37927806 
1.953125e-1, 1.1894662e+1, -0.0000021043732, -30288.732, 1.4730601, 0.0, 0.00048798748, 0.00006953633, 0.00006953633, 0.0, 0.390625, 0.37930366 
1.953125e-1, 1.2274061e+1, -0.000082247534, -29734.844, -9.289819, 0.0, 0.00075155956, 0.0028200955, 0.0028200955, 0.0, 0.390625, 0.379502 
1.953125e-1, 1.2653594e+1, -0.00000087531447, -29656.773, 0.94652826, 0.0, 0.00056842767, 0.000029334162, 0.000029334162, 0.0, 0.390625, 0.37952998 
1.953125e-1, 1.3033214e+1, 0.0000000057636473, -29113.07, -0.023881963, 0.0, 0.00085177546, 0.000000025353074, 0.000000025353074, 0.0, 0.390625, 0.379725 
1.953125e-1, 1.3412972e+1, -0.000000034707625, -29029.525, -0.17679146, 0.0, 0.0005957252, 0.0000010419644, 0.0000010419644, 0.0, 0.390625, 0.379755 
1.953125e-1, 1.3792816e+1, -0.000000064214525, -28491.123, -0.24058597, 0.0, 0.0009243578, 0.0000019673535, 0.0000019673535, 0.0, 0.390625, 0.37994847 
1.953125e-1, 1.4172798e+1, -0.000000029840987, -28403.182, -0.17288785, 0.0, 0.0006244593, 0.0000010225122, 0.0000010225122, 0.0, 0.390625, 0.3799801 
1.953125e-1, 1.4552866e+1, -0.000000013228947, -27867.008, -0.081138365, 0.0, 0.0010060444, 0.00000022301538, 0.00000022301538, 0.0, 0.390625, 0.3801731 
1.953125e-1, 1.4933077e+1, -0.000000023367688, -27775.76, -0.13279292, 0.0, 0.0006753374, 0.0000006115006, 0.0000006115006, 0.0, 0.390625, 0.38020596 
1.953125e-1, 1.5313368e+1, -0.000000049850225, -27246.06, -0.21758494, 0.0, 0.0010353058, 0.0000016877639, 0.0000016877639, 0.0, 0.390625, 0.38039696 
1.953125e-1, 1.5693805e+1, -0.00000001003634, -27141.096, -0.09746098, 0.0, 0.0006955335, 0.00000033993274, 0.00000033993274, 0.0, 0.390625, 0.38043484 
1.953125e-1, 1.6074318e+1, 0.0000000052647278, -26631.48, -0.047825992, 0.0, 0.0012515702, 0.0000000911532, 0.0000000911532, 0.0, 0.390625, 0.38061893 
1.953125e-1, 1.6454984e+1, -0.000000009262646, -26503.691, -0.028621623, 0.0, 0.0008197311, 0.000000021645974, 0.000000021645974, 0.0, 0.390625, 0.38066515 
1.953125e-1, 1.683572e+1, -0.00000012873251, -26017.83, 0.36156687, 0.0, 0.0010379876, 0.000004895919, 0.000004895919, 0.0, 0.390625, 0.38084096 
1.953125e-1, 1.7216615e+1, -0.000000079317964, -25870.201, 0.30056405, 0.0, 0.00084572297, 0.0000034126824, 0.0000034126824, 0.0, 0.390625, 0.38089442 
1.953125e-1, 1.7597578e+1, -0.0000008475214, -25395.02, -0.93058157, 0.0, 0.0014536831, 0.00003325295, 0.00003325295, 0.0, 0.390625, 0.38106668 
1.953125e-1, 1.7978702e+1, -0.00000011362037, -25247.895, -0.34653917, 0.0, 0.0009763924, 0.000004642792, 0.000004642792, 0.0, 0.390625, 0.3811201 
1.953125e-1, 1.8359885e+1, -0.0000037428838, -24773.281, 1.9525828, 0.0, 0.00094468484, 0.00015015597, 0.00015015597, 0.0, 0.390625, 0.38129243 
1.953125e-1, 1.874124e+1, -0.0000000064959367, -24611.96, 0.061427128, 0.0, 0.0009916904, 0.00000014681427, 0.00000014681427, 0.0, 0.390625, 0.38135105 
1.953125e-1, 1.9122653e+1, -0.00003525105, -24150.96, -6.050745, 0.0, 0.0015243333, 0.0014806933, 0.0014806933, 0.0, 0.390625, 0.38151878 
1.953125e-1, 1.9504234e+1, -0.000054202847, -23980.404, -7.506602, 0.0, 0.0010475685, 0.0022955937, 0.0022955937, 0.0, 0.390625, 0.3815809 
1.953125e-1, 1.9885866e+1, -0.0000057823163, -23552.332, -2.419498, 0.0, 0.000962596, 0.00024276931, 0.00024276931, 0.0, 0.390625, 0.38173687 
1.953125e-1, 2.0267679e+1, -0.00000042256045, -23336.936, -0.6531597, 0.0, 0.0011113471, 0.000017858223, 0.000017858223, 0.0, 0.390625, 0.38181546 
1.953125e-1, 2.0649543e+1, -0.000025305782, -22927.557, -5.1289144, 0.0, 0.001406254, 0.0011220368, 0.0011220368, 0.0, 0.390625, 0.38196492 
1.953125e-1, 2.1031585e+1, -0.00005388532, -22704.688, -7.478093, 0.0, 0.0011226063, 0.0024091245, 0.0024091245, 0.0, 0.390625, 0.38204637 
1.953125e-1, 2.1413672e+1, -0.000017500672, -22325.508, -4.2696147, 0.0, 0.0011184626, 0.0007990365, 0.0007990365, 0.0, 0.390625, 0.38218504 
1.953125e-1, 2.179594e+1, -0.00000037822846, -22069.016, -0.61409616, 0.0, 0.0012113538, 0.000016709713, 0.000016709713, 0.0, 0.390625, 0.38227892 
1.953125e-1, 2.2178257e+1, -0.00000003385937, -21709.379, 0.14294583, 0.0, 0.001305237, 0.00000090737376, 0.00000090737376, 0.0, 0.390625, 0.3824107 
1.953125e-1, 2.2560759e+1, -0.000000011023465, -21426.732, -0.088075325, 0.0, 0.0013157974, 0.00000035101402, 0.00000035101402, 0.0, 0.390625, 0.38251436 
1.953125e-1, 2.2943301e+1, -0.00000001492172, -21100.664, -0.092098124, 0.0, 0.0011863441, 0.00000038705912, 0.00000038705912, 0.0, 0.390625, 0.38263404 
1.953125e-1, 2.3326035e+1, -0.000000013512885, -20786.383, -0.14913455, 0.0, 0.0013546529, 0.0000010564727, 0.0000010564727, 0.0, 0.390625, 0.3827495 
1.953125e-1, 2.3708807e+1, -0.00000013943642, -20486.572, -0.37336072, 0.0, 0.0013042083, 0.0000066649336, 0.0000066649336, 0.0, 0.390625, 0.38285974 
1.953125e-1, 2.409177e+1, -0.00002089449, -20151.492, -4.6502514, 0.0, 0.0014953115, 0.001052219, 0.001052219, 0.0, 0.390625, 0.38298306 
1.953125e-1, 2.4474771e+1, -0.00000060521074, -19872.559, -0.7813646, 0.0, 0.0011563695, 0.000030117088, 0.000030117088, 0.0, 0.390625, 0.38308582 
1.953125e-1, 2.4857962e+1, -0.000000024449815, -19517.266, -0.13539812, 0.0, 0.0014175436, 0.00000091485344, 0.00000091485344, 0.0, 0.390625, 0.3832168 
1.953125e-1, 2.5241193e+1, -0.0000000147010475, -19258.863, -0.07183055, 0.0, 0.0012940471, 0.00000025320696, 0.00000025320696, 0.0, 0.390625, 0.38331217 
1.953125e-1, 2.5624618e+1, -0.000002862663, -18879.975, -1.6837014, 0.0, 0.0015957023, 0.0001472885, 0.0001472885, 0.0, 0.390625, 0.38345212 
1.953125e-1, 2.6008078e+1, -0.000000014528146, -18649.412, 0.012234684, 0.0, 0.0010739085, -0.00000000649743, -0.00000000649743, 0.0, 0.390625, 0.38353735 
1.953125e-1, 2.6391733e+1, -0.00000016417195, -18240.24, 0.39486945, 0.0, 0.001495772, 0.000008384064, 0.000008384064, 0.0, 0.390625, 0.38368875 
1.953125e-1, 2.6775426e+1, -0.00000041343108, -18045.316, -0.64244866, 0.0, 0.0012326934, 0.000022459, 0.000022459, 0.0, 0.390625, 0.38376093 
1.953125e-1, 2.7159306e+1, -0.00000048413966, -17594.416, -0.69394094, 0.0, 0.0016946385, 0.000026885573, 0.000026885573, 0.0, 0.390625, 0.3839281 
1.953125e-1, 2.7543235e+1, -0.0000000013411543, -17446.908, -0.022410512, 0.0, 0.001007173, 0.000000027441274, 0.000000027441274, 0.0, 0.390625, 0.3839828 
1.953125e-1, 2.7927348e+1, -0.00000407307, -16940.404, -2.0062175, 0.0, 0.001690465, 0.00023351917, 0.00023351917, 0.0, 0.390625, 0.3841709 
1.953125e-1, 2.8311512e+1, -0.000012213719, -16845.645, -3.5518525, 0.0, 0.0011051643, 0.0007366835, 0.0007366835, 0.0, 0.390625, 0.38420612 
1.953125e-1, 2.8695855e+1, -0.000065300934, -16300.227, -8.189858, 0.0, 0.0018381911, 0.004049597, 0.004049597, 0.0, 0.390625, 0.38440904 
1.953125e-1, 2.908025e+1, -0.00000018090682, -16240.131, -0.41711077, 0.0, 0.0009951361, 0.000010532145, 0.000010532145, 0.0, 0.390625, 0.38443142 
1.953125e-1, 2.9464823e+1, -0.000000546464, -15650.145, -0.74284846, 0.0, 0.0018304454, 0.00003471352, 0.00003471352, 0.0, 0.390625, 0.3846513 
1.953125e-1, 2.9849458e+1, -0.00000084992627, -15632.729, -0.92359376, 0.0, 0.0010146959, 0.00005371671, 0.00005371671, 0.0, 0.390625, 0.3846578 
1.953125e-1, 3.0234256e+1, -0.0000031427307, -15007.869, -1.7591914, 0.0, 0.0020215455, 0.00020306604, 0.00020306604, 0.0, 0.390625, 0.3848911 
1.953125e-1, 3.061913e+1, -0.00000005942323, -15016.461, -0.21843854, 0.0, 0.0009351925, 0.0000031181153, 0.0000031181153, 0.0, 0.390625, 0.3848879 
1.953125e-1, 3.1004158e+1, 0.0000000012253328, -14372.63, -0.054349534, 0.0, 0.0018399503, 0.00000020674634, 0.00000020674634, 0.0, 0.390625, 0.38512874 
1.953125e-1, 3.1389272e+1, -0.000000049531653, -14395.029, -0.2084996, 0.0, 0.0010181671, 0.0000029704042, 0.0000029704042, 0.0, 0.390625, 0.38512033 
1.953125e-1, 3.177453e+1, -0.00000007761008, -13743.884, -0.2612874, 0.0, 0.0020758524, 0.000004889769, 0.000004889769, 0.0, 0.390625, 0.38536435 
1.953125e-1, 3.2159877e+1, -0.000000007699796, -13766.238, -0.049871888, 0.0, 0.0009073424, 0.00000017297498, 0.00000017297498, 0.0, 0.390625, 0.38535595 
1.953125e-1, 3.2545367e+1, -0.0000005559853, -13121.435, -0.73410666, 0.0, 0.0018348295, 0.00004051518, 0.00004051518, 0.0, 0.390625, 0.38559803 
1.953125e-1, 3.2930958e+1, -0.0000036160839, -13136.178, -1.9133954, 0.0, 0.001031387, 0.00027508612, 0.00027508612, 0.0, 0.390625, 0.3855925 
1.953125e-1, 3.3316678e+1, -0.00008419109, -12500.85, -9.270146, 0.0, 0.0020961144, 0.0067901867, 0.0067901867, 0.0, 0.390625, 0.38583145 
1.953125e-1, 3.3702505e+1, -0.000005983798, -12507.747, -2.4784355, 0.0, 0.0010069717, 0.00048512325, 0.00048512325, 0.0, 0.390625, 0.38582885 
1.953125e-1, 3.408845e+1, -0.0000018579694, -11885.592, -1.3404791, 0.0, 0.0017103198, 0.00014932377, 0.00014932377, 0.0, 0.390625, 0.38606325 
1.953125e-1, 3.4474522e+1, -0.000000038063074, -11864.819, 0.1533569, 0.0, 0.0010655825, 0.0000019441286, 0.0000019441286, 0.0, 0.390625, 0.3860711 
1.953125e-1, 3.4860706e+1, -0.00000022881736, -11276.837, -0.46474135, 0.0, 0.0022956212, 0.000018924116, 0.000018924116, 0.0, 0.390625, 0.38629302 
1.953125e-1, 3.5247016e+1, -0.00000037306802, -11220.352, -0.58901036, 0.0, 0.0010802709, 0.000030546926, 0.000030546926, 0.0, 0.390625, 0.3863144 
1.953125e-1, 3.5633427e+1, -0.00000016829007, -10672.231, 0.3768829, 0.0, 0.0014055935, 0.000013141087, 0.000013141087, 0.0, 0.390625, 0.38652167 
1.953125e-1, 3.601998e+1, -0.00000001718106, -10572.351, 0.023003802, 0.0, 0.0013442166, 0.000000032870958, 0.000000032870958, 0.0, 0.390625, 0.38655946 
1.953125e-1, 3.6406627e+1, -0.0000024836042, -10067.465, -1.5834881, 0.0, 0.0022878414, 0.00024657953, 0.00024657953, 0.0, 0.390625, 0.38675073 
1.953125e-1, 3.6793414e+1, -0.000000052903413, -9932.653, -0.21238655, 0.0, 0.0010677379, 0.0000044884855, 0.0000044884855, 0.0, 0.390625, 0.38680187 
1.953125e-1, 3.7180293e+1, -0.00000022108729, -9454.131, -0.4479449, 0.0, 0.0015821762, 0.000021002928, 0.000021002928, 0.0, 0.390625, 0.38698348 
1.953125e-1, 3.7567326e+1, -0.00003427234, -9287.518, -5.899476, 0.0, 0.0014702406, 0.0037131018, 0.0037131018, 0.0, 0.390625, 0.38704678 
1.953125e-1, 3.795444e+1, -0.00008383825, -8844.979, -9.2228, 0.0, 0.0019055508, 0.009532913, 0.009532913, 0.0, 0.390625, 0.38721505 
1.953125e-1, 3.834171e+1, -0.000036992584, -8663.797, -6.125712, 0.0, 0.0012700112, 0.004294172, 0.004294172, 0.0, 0.390625, 0.387284 
1.953125e-1, 3.872906e+1, -0.0000021009948, -8236.063, -1.4646856, 0.0, 0.0018105999, 0.00025837586, 0.00025837586, 0.0, 0.390625, 0.38744697 
1.953125e-1, 3.9116564e+1, -0.000000013696312, -8011.542, -0.04270769, 0.0, 0.0013615328, 0.00000021396863, 0.00000021396863, 0.0, 0.390625, 0.38753256 
1.953125e-1, 3.9504158e+1, -0.000000032906055, -7633.6245, -0.059388008, 0.0, 0.001752761, 0.0000004291196, 0.0000004291196, 0.0, 0.390625, 0.3876768 
1.953125e-1, 3.9891908e+1, -0.00000030094338, -7356.954, -0.5036876, 0.0, 0.0014534065, 0.000034183602, 0.000034183602, 0.0, 0.390625, 0.38778248 
1.953125e-1, 4.027973e+1, -0.00000007368816, -7038.2593, -0.2282415, 0.0, 0.0015774121, 0.0000073278834, 0.0000073278834, 0.0, 0.390625, 0.38790435 
1.953125e-1, 4.0667722e+1, -0.00000003100819, -6699.4824, 0.12110126, 0.0, 0.0014861709, 0.0000021580436, 0.0000021580436, 0.0, 0.390625, 0.38803402 
1.953125e-1, 4.105579e+1, -0.000000044344507, -6447.5303, -0.16182676, 0.0, 0.0016903781, 0.000004017351, 0.000004017351, 0.0, 0.390625, 0.38813052 
1.953125e-1, 4.1444018e+1, -0.0000010159587, -6039.718, -0.99186516, 0.0, 0.0016148557, 0.00016187185, 0.00016187185, 0.0, 0.390625, 0.3882869 
1.953125e-1, 4.1832325e+1, -0.000000027395327, -5858.58, -0.097650655, 0.0, 0.001363238, 0.0000016002432, 0.0000016002432, 0.0, 0.390625, 0.3883564 
1.953125e-1, 4.2220792e+1, -0.000000045300528, -5375.9175, -0.14256892, 0.0, 0.001703043, 0.0000037356158, 0.0000037356158, 0.0, 0.390625, 0.38854182 
1.953125e-1, 4.2609346e+1, -0.0000002352578, -5272.2007, -0.44168612, 0.0, 0.001573613, 0.000036767626, 0.000036767626, 0.0, 0.390625, 0.3885817 
1.953125e-1, 4.2998046e+1, -0.0000007749506, -4712.908, -0.8762319, 0.0, 0.0018298101, 0.00016213558, 0.00016213558, 0.0, 0.390625, 0.38879693 
1.953125e-1, 4.338684e+1, -0.00000007340047, -4684.1523, 0.17838117, 0.0, 0.0010962016, 0.0000067196843, 0.0000067196843, 0.0, 0.390625, 0.388808 
1.953125e-1, 4.377578e+1, -0.00000005419843, -4052.5815, -0.15620446, 0.0, 0.0018213317, 0.0000059666136, 0.0000059666136, 0.0, 0.390625, 0.38905153 
1.953125e-1, 4.416482e+1, -0.00000049083695, -4093.9688, 0.7062146, 0.0, 0.0015837268, 0.00012133204, 0.00012133204, 0.0, 0.390625, 0.38903555 
1.953125e-1, 4.4553992e+1, -0.000039683597, -3397.0635, -6.3171268, 0.0, 0.0021492357, 0.011707507, 0.011707507, 0.0, 0.390625, 0.38930476 
1.953125e-1, 4.4943276e+1, -0.0000009652595, -3488.7878, 1.0053933, 0.0, 0.0005304254, 0.00028876736, 0.00028876736, 0.0, 0.390625, 0.3892693 
1.953125e-1, 4.5332688e+1, -0.0000000834949, -2756.51, 0.21203886, 0.0, 0.0016543872, 0.000016227157, 0.000016227157, 0.0, 0.390625, 0.38955268 
1.953125e-1, 4.5722225e+1, -0.00000006241164, -2882.6616, -0.1574145, 0.0, 0.0023665915, 0.000008533576, 0.000008533576, 0.0, 0.390625, 0.3895038 
1.953125e-1, 4.6111873e+1, -0.000000030921722, -2112.3955, -0.108207256, 0.0, 0.0026221825, 0.000005511984, 0.000005511984, 0.0, 0.390625, 0.38980246 
1.953125e-1, 4.6501645e+1, -0.000000045715105, -2259.8047, 0.18736959, 0.0, -0.0010959692, 0.000015489857, 0.000015489857, 0.0, 0.390625, 0.38974524 
1.953125e-1, 4.6891534e+1, -0.00000006467182, -1501.4669, 0.21398598, 0.0, 0.0012866291, 0.000030432173, 0.000030432173, 0.0, 0.390625, 0.3900398 
1.953125e-1, 4.728157e+1, -0.00000002106417, -1638.816, -0.041427758, 0.0, 0.0047342097, 0.0000010261915, 0.0000010261915, 0.0, 0.390625, 0.3899864 
1.953125e-1, 4.7671688e+1, 0.000000009651324, -849.9044, -0.075098515, 0.0, 0.0017288787, 0.0000066454404, 0.0000066454404, 0.0, 0.390625, 0.39029342 
1.953125e-1, 4.8061952e+1, -0.00000012892397, -1014.12024, 0.36142513, 0.0, -0.0021889538, 0.00012868036, 0.00012868036, 0.0, 0.390625, 0.39022946 
1.953125e-1, 4.8452327e+1, -0.00000021537639, -250.71265, 0.45746025, 0.0, 0.003753696, 0.000834482, 0.000834482, 0.0, 0.390625, 0.3905271 
1.953125e-1, 4.884285e+1, 0.000000025009951, -234.86061, 0.0042199045, 0.0, 0.0013095676, 0.000000100831926, 0.000000100831926, 0.0, 0.390625, 0.3905333 
5.859375e-1, 1.8799178e-1, 0.0000000022594826, -39704.465, -0.020348622, 0.0, -0.0000053961194, 0.00000001268927, 0.00000001268927, 0.0, 0.390625, 0.37597862 
5.859375e-1, 5.6397533e-1, -0.0000000049104094, -39711.61, -0.061046578, 0.0, -0.000016188827, 0.000000088926754, 0.000000088926754, 0.0, 0.390625, 0.37597612 
5.859375e-1, 9.40069e-1, -0.000000012381655, -39081.85, -0.09008891, 0.0, 0.000104291306, 0.0000001952867, 0.0000001952867, 0.0, 0.390625, 0.37619582 
5.859375e-1, 1.3162719e+0, -0.000000010342204, -39082.074, -0.10387087, 0.0, 0.000009271556, 0.00000026572525, 0.00000026572525, 0.0, 0.390625, 0.37619573 
5.859375e-1, 1.6925846e+0, -0.000000010031055, -38456.1, -0.09888767, 0.0, 0.000108099084, 0.0000002442539, 0.0000002442539, 0.0, 0.390625, 0.37641448 
5.859375e-1, 2.0690063e+0, -0.000000008588821, -38455.77, -0.06734208, 0.0, 0.000031869156, 0.000000109335815, 0.000000109335815, 0.0, 0.390625, 0.3764146 
5.859375e-1, 2.4455373e+0, -0.0000000020333246, -37831.266, -0.03324115, 0.0, 0.00014794075, 0.000000027175702, 0.000000027175702, 0.0, 0.390625, 0.37663323 
5.859375e-1, 2.822178e+0, 0.0000000046640083, -37828.45, 0.021537688, 0.0, 0.000039968832, 0.000000016931153, 0.000000016931153, 0.0, 0.390625, 0.3766342 
5.859375e-1, 3.198928e+0, -0.000000010782032, -37207.293, 0.07442676, 0.0, 0.0001803878, 0.0000001380904, 0.0000001380904, 0.0, 0.390625, 0.37685204 
5.859375e-1, 3.5757887e+0, 0.0000000015735785, -37200.215, 0.09345893, 0.0, 0.00006743231, 0.00000023637404, 0.00000023637404, 0.0, 0.390625, 0.3768545 
5.859375e-1, 3.9527574e+0, -0.0000000125696635, -36583.965, 0.10221923, 0.0, 0.00020213104, 0.00000027303759, 0.00000027303759, 0.0, 0.390625, 0.377071 
5.859375e-1, 4.3298388e+0, -0.00000001708287, -36571.133, 0.10744206, 0.0, 0.000104998246, 0.00000029856892, 0.00000029856892, 0.0, 0.390625, 0.3770755 
5.859375e-1, 4.707027e+0, -0.000000011000682, -35961.242, 0.11051511, 0.0, 0.00023569659, 0.00000032863318, 0.00000032863318, 0.0, 0.390625, 0.3772901 
5.859375e-1, 5.0843287e+0, -0.000000008676171, -35941.254, 0.106751755, 0.0, 0.00015728947, 0.00000030839874, 0.00000030839874, 0.0, 0.390625, 0.37729713 
5.859375e-1, 5.461737e+0, -0.00000000985161, -35339.28, 0.11101549, 0.0, 0.0002745127, 0.00000033889228, 0.00000033889228, 0.0, 0.390625, 0.37750933 
5.859375e-1, 5.83926e+0, -0.000000022517998, -35310.867, 0.13819389, 0.0, 0.0002307099, 0.0000005183174, 0.0000005183174, 0.0, 0.390625, 0.37751937 
5.859375e-1, 6.216888e+0, -0.000000019601321, -34717.684, 0.16323459, 0.0, 0.0003120945, 0.0000007478884, 0.0000007478884, 0.0, 0.390625, 0.37772882 
5.859375e-1, 6.594633e+0, -0.000000033807353, -34682.137, 0.1774208, 0.0, 0.0002820808, 0.0000008738207, 0.0000008738207, 0.0, 0.390625, 0.37774137 
5.859375e-1, 6.9724804e+0, -0.000000030141315, -34093.71, 0.18432416, 0.0, 0.00034315555, 0.0000009663854, 0.0000009663854, 0.0, 0.390625, 0.3779495 
5.859375e-1, 7.3504466e+0, -0.000000021381426, -34053.93, 0.1614546, 0.0, 0.0003364574, 0.00000074409763, 0.00000074409763, 0.0, 0.390625, 0.3779636 
5.859375e-1, 7.728516e+0, -0.000000014530944, -33471.168, 0.13536456, 0.0, 0.00037694856, 0.0000005329057, 0.0000005329057, 0.0, 0.390625, 0.3781701 
5.859375e-1, 8.106705e+0, -0.000000004087921, -33423.508, 0.1034214, 0.0, 0.0003513994, 0.00000031592208, 0.00000031592208, 0.0, 0.390625, 0.378187 
5.859375e-1, 8.484995e+0, 0.0000000003474097, -32850.484, 0.08395282, 0.0, 0.000406647, 0.00000021489541, 0.00000021489541, 0.0, 0.390625, 0.3783904 
5.859375e-1, 8.863406e+0, -0.000000017406574, -32794.51, 0.12248788, 0.0, 0.00038214802, 0.0000004400863, 0.0000004400863, 0.0, 0.390625, 0.37841028 
5.859375e-1, 9.241918e+0, -0.000000025088438, -32227.414, 0.13627903, 0.0, 0.0004798159, 0.0000005511938, 0.0000005511938, 0.0, 0.390625, 0.37861192 
5.859375e-1, 9.620552e+0, -0.000000005987549, -32167.389, -0.06521363, 0.0, 0.00040451242, 0.00000012621967, 0.00000012621967, 0.0, 0.390625, 0.3786333 
5.859375e-1, 9.999286e+0, -0.00000005043156, -31603.336, -0.21510693, 0.0, 0.00052686123, 0.0000014136822, 0.0000014136822, 0.0, 0.390625, 0.3788342 
5.859375e-1, 1.0378143e+1, -0.000000017175136, -31538.809, 0.12765937, 0.0, 0.00047450812, 0.00000049954906, 0.00000049954906, 0.0, 0.390625, 0.3788572 
5.859375e-1, 1.0757098e+1, -0.00000008054808, -30980.615, 0.27001983, 0.0, 0.0006437098, 0.0000022728782, 0.0000022728782, 0.0, 0.390625, 0.37905636 
5.859375e-1, 1.113618e+1, -0.00000039777194, -30914.477, -0.63612986, 0.0, 0.0004874616, 0.000012691926, 0.000012691926, 0.0, 0.390625, 0.37908 
5.859375e-1, 1.1515357e+1, -0.0000003841256, -30357.27, -0.63191736, 0.0, 0.0006912677, 0.000012769877, 0.000012769877, 0.0, 0.390625, 0.37927917 
5.859375e-1, 1.1894664e+1, -0.00000210658, -30283.781, 1.473536, 0.0, 0.00055668596, 0.00006959215, 0.00006959215, 0.0, 0.390625, 0.37930545 
5.859375e-1, 1.2274062e+1, -0.0000053142617, -29736.813, 2.3363485, 0.0, 0.00078346574, 0.00017824692, 0.00017824692, 0.0, 0.390625, 0.37950128 
5.859375e-1, 1.2653594e+1, -0.0000008748587, -29659.914, 0.9466406, 0.0, 0.0005501743, 0.000029338593, 0.000029338593, 0.0, 0.390625, 0.37952885 
5.859375e-1, 1.3033214e+1, -0.0000000047336166, -29113.637, -0.0236663, 0.0, 0.00082725764, 0.0000000145046215, 0.0000000145046215, 0.0, 0.390625, 0.3797248 
5.859375e-1, 1.3412972e+1, -0.000000028051508, -29029.9, -0.17665865, 0.0, 0.00058623025, 0.0000010469848, 0.0000010469848, 0.0, 0.390625, 0.37975487 
5.859375e-1, 1.3792816e+1, -0.000000055652738, -28491.023, -0.22489403, 0.0, 0.0009357283, 0.0000017195453, 0.0000017195453, 0.0, 0.390625, 0.3799485 
5.859375e-1, 1.4172798e+1, -0.000000037495354, -28402.947, -0.17276582, 0.0, 0.00062377565, 0.0000010133808, 0.0000010133808, 0.0, 0.390625, 0.37998018 
5.859375e-1, 1.4552866e+1, -0.000000011395991, -27867.24, -0.080921605, 0.0, 0.00095855905, 0.00000022358654, 0.00000022358654, 0.0, 0.390625, 0.380173 
5.859375e-1, 1.4933077e+1, -0.000000015065517, -27775.797, -0.13262847, 0.0, 0.00066415616, 0.00000061823084, 0.00000061823084, 0.0, 0.390625, 0.38020596 
5.859375e-1, 1.5313368e+1, -0.000000032862612, -27245.66, -0.2032568, 0.0, 0.0011368939, 0.0000014834659, 0.0000014834659, 0.0, 0.390625, 0.3803971 
5.859375e-1, 1.5693805e+1, 0.000000004452612, -27141.24, -0.09725308, 0.0, 0.0007126911, 0.00000035293124, 0.00000035293124, 0.0, 0.390625, 0.3804348 
5.859375e-1, 1.6074318e+1, -0.000000003605896, -26631.695, -0.04756703, 0.0, 0.0010309109, 0.00000008135248, 0.00000008135248, 0.0, 0.390625, 0.38061887 
5.859375e-1, 1.6454984e+1, -0.0000000052567155, -26502.959, -0.028400823, 0.0, 0.0007394732, 0.000000025178451, 0.000000025178451, 0.0, 0.390625, 0.38066542 
5.859375e-1, 1.6835722e+1, -0.00000014660768, -26016.705, 0.38510007, 0.0, 0.0013234693, 0.0000055536584, 0.0000055536584, 0.0, 0.390625, 0.38084137 
5.859375e-1, 1.7216615e+1, -0.00000008568403, -25872.16, 0.3008055, 0.0, 0.0008663346, 0.0000034116638, 0.0000034116638, 0.0, 0.390625, 0.3808937 
5.859375e-1, 1.7597575e+1, -0.00000079407636, -25397.168, -0.89476234, 0.0, 0.00094425806, 0.000030729112, 0.000030729112, 0.0, 0.390625, 0.3810659 
5.859375e-1, 1.7978701e+1, -0.00000011784205, -25242.857, -0.34615588, 0.0, 0.0008741466, 0.0000046290006, 0.0000046290006, 0.0, 0.390625, 0.3811219 
5.859375e-1, 1.8359888e+1, -0.0000037323994, -24771.31, 1.9528625, 0.0, 0.0014814028, 0.0001502228, 0.0001502228, 0.0, 0.390625, 0.38129315 
5.859375e-1, 1.874124e+1, -0.000000009662908, -24622.271, 0.06175504, 0.0, 0.0009840674, 0.00000014522811, 0.00000014522811, 0.0, 0.390625, 0.38134733 
5.859375e-1, 1.9122647e+1, -0.00003523425, -24161.814, -6.0504937, 0.0, 0.0008836075, 0.0014799032, 0.0014799032, 0.0, 0.390625, 0.38151482 
5.859375e-1, 1.9504228e+1, -0.0005567976, -23975.723, 24.06105, 0.0, 0.0010412143, 0.02358986, 0.02358986, 0.0, 0.390625, 0.3815826 
5.859375e-1, 1.9885866e+1, -0.000005776029, -23540.576, -2.4193382, 0.0, 0.0014546514, 0.0002428669, 0.0002428669, 0.0, 0.390625, 0.38174117 
5.859375e-1, 2.0267679e+1, -0.00000041744664, -23340.416, -0.6529435, 0.0, 0.0010635625, 0.00001784852, 0.00001784852, 0.0, 0.390625, 0.38181418 
5.859375e-1, 2.0649537e+1, -0.000025297946, -22938.639, -5.1288333, 0.0, 0.0010383727, 0.0011214539, 0.0011214539, 0.0, 0.390625, 0.38196087 
5.859375e-1, 2.103158e+1, -0.00063608156, -22704.414, 25.690866, 0.0, 0.0011702107, 0.028434029, 0.028434029, 0.0, 0.390625, 0.38204646 
5.859375e-1, 2.1413668e+1, -0.000017510381, -22314.898, -4.2696166, 0.0, 0.0013247973, 0.0007994158, 0.0007994158, 0.0, 0.390625, 0.38218892 
5.859375e-1, 2.179594e+1, -0.00000037361343, -22063.781, -0.61408156, 0.0, 0.001201492, 0.000016717571, 0.000016717571, 0.0, 0.390625, 0.38228086 
5.859375e-1, 2.2178257e+1, -0.000000021480494, -21711.004, 0.14294134, 0.0, 0.0011780584, 0.0000009196192, 0.0000009196192, 0.0, 0.390625, 0.3824101 
5.859375e-1, 2.2560759e+1, -0.000000011747761, -21426.459, -0.088038735, 0.0, 0.0012696753, 0.00000034999175, 0.00000034999175, 0.0, 0.390625, 0.38251445 
5.859375e-1, 2.2943301e+1, -0.000000015070393, -21100.27, -0.092049345, 0.0, 0.0012520812, 0.00000038648795, 0.00000038648795, 0.0, 0.390625, 0.3826342 
5.859375e-1, 2.3326035e+1, -0.00000003249245, -20787.305, -0.14909452, 0.0, 0.0013780715, 0.0000010368713, 0.0000010368713, 0.0, 0.390625, 0.38274917 
5.859375e-1, 2.3708807e+1, -0.00000015777941, -20487.797, -0.37325376, 0.0, 0.0011503729, 0.000006642287, 0.000006642287, 0.0, 0.390625, 0.3828593 
5.859375e-1, 2.4091768e+1, -0.000046557667, -20151.424, 6.936323, 0.0, 0.001359034, 0.0023409945, 0.0023409945, 0.0, 0.390625, 0.3829831 
5.859375e-1, 2.4474771e+1, -0.0000005941887, -19870.781, -0.781258, 0.0, 0.0012742011, 0.000030122472, 0.000030122472, 0.0, 0.390625, 0.38308647 
5.859375e-1, 2.4857962e+1, -0.000000014930242, -19517.38, -0.13537309, 0.0, 0.0015387842, 0.00000092402115, 0.00000092402115, 0.0, 0.390625, 0.38321677 
5.859375e-1, 2.5241193e+1, -0.0000000007932027, -19259.857, -0.071742505, 0.0, 0.0011181697, 0.00000026644557, 0.00000026644557, 0.0, 0.390625, 0.3833118 
5.859375e-1, 2.5624615e+1, -0.0000018233914, -18879.213, 1.3452739, 0.0, 0.0014554716, 0.00009403663, 0.00009403663, 0.0, 0.390625, 0.3834524 
5.859375e-1, 2.6008078e+1, 0.000000007781074, -18648.39, 0.0123375235, 0.0, 0.0013017068, 0.000000015941623, 0.000000015941623, 0.0, 0.390625, 0.3835377 
5.859375e-1, 2.6391733e+1, -0.00000016251171, -18240.832, 0.39499947, 0.0, 0.0016763405, 0.0000083910745, 0.0000083910745, 0.0, 0.390625, 0.38368854 
5.859375e-1, 2.6775426e+1, -0.00000040156985, -18046.768, -0.6423559, 0.0, 0.0010795435, 0.00002246242, 0.00002246242, 0.0, 0.390625, 0.3837604 
5.859375e-1, 2.7159306e+1, -0.00000039773246, -17592.871, -0.6321219, 0.0, 0.0016533465, 0.000022314769, 0.000022314769, 0.0, 0.390625, 0.38392866 
5.859375e-1, 2.7543235e+1, -0.0000000025427846, -17449.016, -0.022307852, 0.0, 0.0012196788, 0.000000025978807, 0.000000025978807, 0.0, 0.390625, 0.38398203 
5.859375e-1, 2.7927348e+1, -0.000004068746, -16945.662, -2.0060663, 0.0, 0.0018000824, 0.00023341402, 0.00023341402, 0.0, 0.390625, 0.38416895 
5.859375e-1, 2.831151e+1, -0.00015502331, -16843.963, 12.623761, 0.0, 0.00107041, 0.009305889, 0.009305889, 0.0, 0.390625, 0.38420674 
5.859375e-1, 2.8695852e+1, -0.0000097364245, -16295.957, 3.1739717, 0.0, 0.0018257579, 0.0006084596, 0.0006084596, 0.0, 0.390625, 0.38441062 
5.859375e-1, 2.908025e+1, -0.00000018386343, -16239.949, -0.41703418, 0.0, 0.0010598379, 0.000010525377, 0.000010525377, 0.0, 0.390625, 0.38443148 
5.859375e-1, 2.9464823e+1, -0.00000055379337, -15651.287, -0.74267167, 0.0, 0.0019493818, 0.000034686836, 0.000034686836, 0.0, 0.390625, 0.3846509 
5.859375e-1, 2.9849458e+1, -0.000008316396, -15631.521, 2.9328308, 0.0, 0.000999639, 0.00054194964, 0.00054194964, 0.0, 0.390625, 0.38465825 
5.859375e-1, 3.0234256e+1, -0.000000022549967, -15007.01, 0.13454866, 0.0, 0.0018488752, 0.0000011837765, 0.0000011837765, 0.0, 0.390625, 0.38489142 
5.859375e-1, 3.061913e+1, -0.000000054214347, -15016.993, -0.2182866, 0.0, 0.0009961063, 0.0000031187938, 0.0000031187938, 0.0, 0.390625, 0.3848877 
5.859375e-1, 3.1004158e+1, -0.00000001611392, -14371.966, -0.05419888, 0.0, 0.002087897, 0.00000018827814, 0.00000018827814, 0.0, 0.390625, 0.38512897 
5.859375e-1, 3.138927e+1, -0.000000053916818, -14394.917, -0.20836632, 0.0, 0.00092534453, 0.0000029621842, 0.0000029621842, 0.0, 0.390625, 0.3851204 
5.859375e-1, 3.177453e+1, -0.000000085217906, -13744.588, -0.2610887, 0.0, 0.0018300278, 0.000004874357, 0.000004874357, 0.0, 0.390625, 0.3853641 
5.859375e-1, 3.2159877e+1, -0.000000008773063, -13765.948, -0.0497553, 0.0, 0.0010511103, 0.0000001710614, 0.0000001710614, 0.0, 0.390625, 0.38535607 
5.859375e-1, 3.2545367e+1, -0.00000056034935, -13123.591, -0.7339363, 0.0, 0.002084491, 0.00004048501, 0.00004048501, 0.0, 0.390625, 0.38559723 
5.859375e-1, 3.2930958e+1, -0.0000036092, -13139.749, -1.9132679, 0.0, 0.00095382135, 0.00027498012, 0.00027498012, 0.0, 0.390625, 0.38559115 
5.859375e-1, 3.3316672e+1, -0.00037385582, -12500.605, 19.535173, 0.0, 0.0018499508, 0.030154431, 0.030154431, 0.0, 0.390625, 0.38583153 
5.859375e-1, 3.3702505e+1, -0.0000059934937, -12505.063, -2.4782968, 0.0, 0.0010334903, 0.0004851639, 0.0004851639, 0.0, 0.390625, 0.38582984 
5.859375e-1, 3.408845e+1, -0.0000018485362, -11883.376, -1.3403194, 0.0, 0.0021768867, 0.00014932535, 0.00014932535, 0.0, 0.390625, 0.38606408 
5.859375e-1, 3.4474522e+1, -0.000000304594, -11863.331, 0.51623094, 0.0, 0.0010969709, 0.000022159114, 0.000022159114, 0.0, 0.390625, 0.38607165 
5.859375e-1, 3.4860703e+1, -0.00000024538852, -11277.865, 0.44643855, 0.0, 0.0015741771, 0.00001742705, 0.00001742705, 0.0, 0.390625, 0.38629264 
5.859375e-1, 3.5247016e+1, -0.00000036376025, -11219.903, -0.5888296, 0.0, 0.0012054371, 0.000030538497, 0.000030538497, 0.0, 0.390625, 0.38631454 
5.859375e-1, 3.563343e+1, -0.00000017323885, -10671.165, 0.37708637, 0.0, 0.002381652, 0.000013151841, 0.000013151841, 0.0, 0.390625, 0.38652205 
5.859375e-1, 3.601998e+1, -0.00000001348205, -10576.147, 0.023162901, 0.0, 0.0010833244, 0.000000037247446, 0.000000037247446, 0.0, 0.390625, 0.38655803 
5.859375e-1, 3.6406624e+1, -0.0000024875271, -10066.499, -1.5832673, 0.0, 0.0014510903, 0.00024653008, 0.00024653008, 0.0, 0.390625, 0.38675112 
5.859375e-1, 3.6793414e+1, -0.00000006221779, -9929.12, -0.21215978, 0.0, 0.001481246, 0.0000044710905, 0.0000044710905, 0.0, 0.390625, 0.3868032 
5.859375e-1, 3.7180293e+1, -0.00000022294067, -9461.938, -0.44765866, 0.0, 0.002095101, 0.00002095647, 0.00002095647, 0.0, 0.390625, 0.38698053 
5.859375e-1, 3.756732e+1, -0.000034271325, -9299.701, -5.899297, 0.0, 0.0011460136, 0.0037079663, 0.0037079663, 0.0, 0.390625, 0.38704216 
5.859375e-1, 3.7954438e+1, -0.001416635, -8844.324, 37.91399, 0.0, 0.0017802244, 0.16111068, 0.16111068, 0.0, 0.390625, 0.38721532 
5.859375e-1, 3.8341704e+1, -0.000034944835, -8651.868, -5.954197, 0.0, 0.0014068095, 0.0040627187, 0.0040627187, 0.0, 0.390625, 0.38728857 
5.859375e-1, 3.8729057e+1, -0.00000210737, -8231.039, -1.4647832, 0.0, 0.0018119477, 0.0002585632, 0.0002585632, 0.0, 0.390625, 0.38744888 
5.859375e-1, 3.9116564e+1, -0.000000021460977, -8011.933, -0.041886106, 0.0, 0.0013962757, 0.0000001975186, 0.0000001975186, 0.0, 0.390625, 0.3875324 
5.859375e-1, 3.9504158e+1, -0.0000000145561865, -7632.2437, 0.02761412, 0.0, 0.0017441512, 0.00000008535335, 0.00000008535335, 0.0, 0.390625, 0.38767734 
5.859375e-1, 3.9891908e+1, -0.00000006638952, -7357.1987, -0.22981752, 0.0, 0.0014406291, 0.000007112443, 0.000007112443, 0.0, 0.390625, 0.3877824 
5.859375e-1, 4.027973e+1, -0.000000070759924, -7039.0073, -0.22827579, 0.0, 0.0017468757, 0.00000733225, 0.00000733225, 0.0, 0.390625, 0.38790405 
5.859375e-1, 4.0667722e+1, -0.000000045656147, -6699.5435, 0.12105253, 0.0, 0.0015570233, 0.0000021416154, 0.0000021416154, 0.0, 0.390625, 0.388034 
5.859375e-1, 4.105579e+1, -0.00000004436899, -6447.2783, -0.1618619, 0.0, 0.0015520033, 0.000004019249, 0.000004019249, 0.0, 0.390625, 0.3881306 
5.859375e-1, 4.1444018e+1, -0.000000049676892, -6039.4414, 0.09194187, 0.0, 0.0016755436, 0.0000013500066, 0.0000013500066, 0.0, 0.390625, 0.38828698 
5.859375e-1, 4.1832328e+1, -0.000000031448632, -5858.545, -0.09771498, 0.0, 0.0016098375, 0.0000015983451, 0.0000015983451, 0.0, 0.390625, 0.38835642 
5.859375e-1, 4.2220792e+1, -0.000000031454938, -5376.439, -0.14266415, 0.0, 0.0017024067, 0.0000037541467, 0.0000037541467, 0.0, 0.390625, 0.3885416 
5.859375e-1, 4.2609346e+1, -0.00000022336472, -5272.3447, -0.44171247, 0.0, 0.0014612747, 0.00003678292, 0.00003678292, 0.0, 0.390625, 0.38858163 
5.859375e-1, 4.2998046e+1, -0.00000031529035, -4712.196, 0.5746303, 0.0, 0.0019448065, 0.0000697582, 0.0000697582, 0.0, 0.390625, 0.3887972 
5.859375e-1, 4.338684e+1, -0.00000008315222, -4684.455, 0.1783671, 0.0, 0.0012200841, 0.00000670842, 0.00000670842, 0.0, 0.390625, 0.3888079 
5.859375e-1, 4.377578e+1, -0.000000050177274, -4051.7698, -0.1562537, 0.0, 0.0018019717, 0.000005975638, 0.000005975638, 0.0, 0.390625, 0.38905182 
5.859375e-1, 4.416482e+1, -0.00000048625935, -4091.1265, 0.7061971, 0.0, 0.001601508, 0.00012141519, 0.00012141519, 0.0, 0.390625, 0.38903663 
5.859375e-1, 4.4553992e+1, -0.000004317869, -3397.4163, 2.0819051, 0.0, 0.0021797577, 0.0012714539, 0.0012714539, 0.0, 0.390625, 0.3893046 
5.859375e-1, 4.4943276e+1, -0.0000009703293, -3491.5908, 1.0054023, 0.0, 0.00050430116, 0.00028853485, 0.00028853485, 0.0, 0.390625, 0.3892682 
5.859375e-1, 4.5332688e+1, -0.00000006214236, -2756.9548, 0.21196713, 0.0, 0.0016655794, 0.000016234846, 0.000016234846, 0.0, 0.390625, 0.3895525 
5.859375e-1, 4.5722225e+1, -0.000000055548924, -2882.0232, -0.1573933, 0.0, 0.0023573262, 0.000008540028, 0.000008540028, 0.0, 0.390625, 0.38950405 
5.859375e-1, 4.6111873e+1, -0.00000004056391, -2112.6475, -0.10825028, 0.0, 0.0025385784, 0.0000055060896, 0.0000055060896, 0.0, 0.390625, 0.38980237 
5.859375e-1, 4.6501645e+1, -0.000000052734027, -2259.2715, 0.18741992, 0.0, -0.001091638, 0.000015494856, 0.000015494856, 0.0, 0.390625, 0.38974544 
5.859375e-1, 4.6891534e+1, -0.00000006471014, -1501.943, 0.21388428, 0.0, 0.0013547014, 0.000030393494, 0.000030393494, 0.0, 0.390625, 0.39003962 
5.859375e-1, 4.728157e+1, -0.000000024021082, -1639.58, -0.04141012, 0.0, 0.0046732896, 0.0000010218553, 0.0000010218553, 0.0, 0.390625, 0.3899861 
5.859375e-1, 4.7671688e+1, -0.0000000021099043, -848.5846, -0.07512857, 0.0, 0.0016018574, 0.000006649321, 0.000006649321, 0.0, 0.390625, 0.39029396 
5.859375e-1, 4.8061955e+1, -0.00000012924599, -1013.9207, 0.36154693, 0.0, -0.0020448968, 0.00012879225, 0.00012879225, 0.0, 0.390625, 0.39022955 
5.859375e-1, 4.8452327e+1, -0.00000021543387, -251.76991, 0.45742473, 0.0, 0.003958677, 0.00083084777, 0.00083084777, 0.0, 0.390625, 0.39052668 
5.859375e-1, 4.884285e+1, 0.000000011816199, -235.68553, 0.00487381, 0.0, 0.0011937562, 0.000000112603175, 0.000000112603175, 0.0, 0.390625, 0.39053297 
