coord_x,coord_y,stress_xx,stress_yy,tau_xy,velocity_x,velocity_y,stress_1,damage
3.90625e-1, 3.7632012e-1, 0.00000000034172168, -38780.33, -0.00039500347, 0.0, -0.00003583908, 0.00000000034924597, 0.0 
3.90625e-1, 1.1289604e+0, -0.000000008046154, -38808.098, -0.0011850442, 0.0, -0.00010752405, -0.000000008010829, 0.0 
3.90625e-1, 1.8816006e+0, -0.000000029201479, -38808.098, -0.0019750737, 0.0, -0.00017920675, -0.000000029096554, 0.0 
3.90625e-1, 2.634241e+0, -0.000000064276755, -38808.098, -0.0027651032, 0.0, -0.00025088945, -0.00000006407936, 0.0 
3.90625e-1, 3.3877632e+0, -0.0000000775975, -36308.14, -0.00278496, 0.0, 0.0010392638, -0.000000077387085, 0.0 
3.90625e-1, 4.1421643e+0, -0.000000054099033, -36285.813, -0.00012532313, 0.0, 0.0006160984, -0.00000005410402, 0.0 
3.90625e-1, 4.896566e+0, -0.000000050565156, -36285.813, 0.0027170042, 0.0, 0.0000353375, -0.00000005036418, 0.0 
3.90625e-1, 5.6509674e+0, -0.00000005937711, -36285.813, 0.0055593317, 0.0, -0.0005454234, -0.000000058527803, 0.0 
3.90625e-1, 6.406228e+0, -0.00000006721073, -33852.043, 0.0072054174, 0.0, 0.0013013323, -0.00000006567279, 0.0 
3.90625e-1, 7.1624035e+0, -0.00000005172775, -33757.047, 0.0065102903, 0.0, 0.0011966263, -0.000000050466042, 0.0 
3.90625e-1, 7.918583e+0, -0.000000048946212, -33757.047, 0.0054593817, 0.0, 0.00034073216, -0.0000000480577, 0.0 
3.90625e-1, 8.674763e+0, -0.00000005213765, -33757.047, 0.0044084727, 0.0, -0.00051516196, -0.00000005156471, 0.0 
3.90625e-1, 9.431761e+0, -0.000000067796186, -31420.82, 0.0047687157, 0.0, 0.0015260736, -0.000000067073415, 0.0 
3.90625e-1, 1.0189723e+1, -0.00000005205948, -31217.363, 0.0029412254, 0.0, 0.0018200849, -0.00000005178299, 0.0 
3.90625e-1, 1.0947701e+1, -0.000000047953133, -31217.363, 0.00036963378, 0.0, 0.0005451129, -0.00000004794856, 0.0 
3.90625e-1, 1.170568e+1, -0.00000006349574, -31217.363, -0.0022019579, 0.0, -0.00072985917, -0.00000006334449, 0.0 
3.90625e-1, 1.24644175e+1, -0.00000007882108, -29018.227, -0.0063605793, 0.0, 0.0014176377, -0.0000000774271, 0.0 
3.90625e-1, 1.3224176e+1, -0.000000054618386, -28672.238, -0.007444328, 0.0, 0.002553016, -0.00000005268157, 0.0 
3.90625e-1, 1.398397e+1, -0.00000003731142, -28672.238, -0.006480409, 0.0, 0.0008622301, -0.000000035845005, 0.0 
3.90625e-1, 1.4743763e+1, -0.00000003154251, -28672.238, -0.00551649, 0.0, -0.0008285558, -0.000000030482624, 0.0 
3.90625e-1, 1.5504247e+1, -0.00000003908597, -26615.432, -0.003501186, 0.0, 0.0010351739, -0.00000003862442, 0.0 
3.90625e-1, 1.6265802e+1, -0.000000031960198, -26150.404, -0.00061290374, 0.0, 0.0030243383, -0.000000031945092, 0.0 
3.90625e-1, 1.7027426e+1, -0.00000003443826, -26127.627, 0.001628508, 0.0, 0.0010895067, -0.000000034335244, 0.0 
3.90625e-1, 1.7789048e+1, -0.000000047143498, -26127.627, 0.0038385792, 0.0, -0.0009243718, -0.00000004658068, 0.0 
3.90625e-1, 1.8551281e+1, -0.00000006607584, -24188.238, 0.0050468454, 0.0, 0.00080600596, -0.00000006502523, 0.0 
3.90625e-1, 1.9314651e+1, -0.00000006214718, -23651.953, 0.0054327697, 0.0, 0.0036165824, -0.000000060899765, 0.0 
3.90625e-1, 2.0078135e+1, -0.000000054629226, -23555.453, 0.0036059222, 0.0, 0.0015865897, -0.000000054074917, 0.0 
3.90625e-1, 2.0841618e+1, -0.000000053776002, -23555.453, 0.002224178, 0.0, -0.0009031923, -0.000000053569238, 0.0 
3.90625e-1, 2.1605627e+1, -0.00000007374986, -21813.633, 0.00077982165, 0.0, 0.00052409834, -0.00000007372364, 0.0 
3.90625e-1, 2.2370824e+1, -0.00000005774483, -21099.896, -0.005571391, 0.0, 0.003840236, -0.000000056272256, 0.0 
3.90625e-1, 2.3136167e+1, -0.000000051742933, -21001.328, -0.01052789, 0.0, 0.0019690627, -0.000000046464265, 0.0 
3.90625e-1, 2.3901512e+1, -0.00000004526726, -21001.328, -0.015840717, 0.0, -0.0009433612, -0.000000033320248, 0.0 
3.90625e-1, 2.4667293e+1, -0.000000068075686, -19438.422, -0.01730163, 0.0, -0.0000028782745, -0.00000005268157, 0.0 
3.90625e-1, 2.543432e+1, -0.00000006585126, -18568.553, 0.0020070763, 0.0, 0.00397651, -0.000000065632776, 0.0 
3.90625e-1, 2.6201552e+1, -0.000000050923216, -18434.484, 0.02327522, 0.0, 0.002467048, -0.000000021536835, 0.0 
3.90625e-1, 2.6968783e+1, -0.00000005063203, -18434.484, 0.043973956, 0.0, -0.00070716185, 0.000000054264092, 0.0 
3.90625e-1, 2.773636e+1, -0.00000006617955, -17091.34, 0.042160884, 0.0, -0.00018359245, 0.000000037824066, 0.0 
3.90625e-1, 2.850522e+1, -0.00000006855953, -16028.146, 0.004002765, 0.0, 0.0046039177, -0.000000067559085, 0.0 
3.90625e-1, 2.9274324e+1, -0.000000055384064, -15906.368, -0.042334694, 0.0, 0.0031464654, 0.00000005729089, 0.0 
3.90625e-1, 3.004342e+1, -0.00000005324377, -15906.368, -0.08704813, 0.0, -0.0005990552, 0.00000042312968, 0.0 
3.90625e-1, 3.081278e+1, -0.00000007058119, -14728.476, -0.040764146, 0.0, -0.00083432026, 0.00000004224239, 0.0 
3.90625e-1, 3.1583488e+1, -0.00000007752032, -13495.952, 0.108388975, 0.0, 0.004755481, 0.0000007929757, 0.0 
3.90625e-1, 3.2354516e+1, -0.000000074146904, -13328.052, 0.26391917, 0.0, 0.0036619105, 0.000005151922, 0.0 
3.90625e-1, 3.3125535e+1, -0.00000008437774, -13328.052, 0.4177745, 0.0, -0.0004434741, 0.000013010975, 0.0 
3.90625e-1, 3.3896732e+1, -0.000020710386, -12416.878, -6.079092, 0.0, -0.0016247507, 0.002955509, 0.0 
3.90625e-1, 3.4669304e+1, -0.00000009271299, -10877.321, 0.28435883, 0.0, 0.005266888, 0.0000073410956, 0.0 
3.90625e-1, 3.5442254e+1, -0.00000006754995, -10772.215, 0.115890615, 0.0, 0.004041819, 0.0000011792345, 0.0 
3.90625e-1, 3.6215192e+1, -0.000000048896286, -10772.215, -0.017821446, 0.0, -0.0006211286, -0.000000019412255, 0.0 
3.90625e-1, 3.6988235e+1, -0.00000005650638, -10149.593, -0.038538598, 0.0, -0.003234757, 0.000000089827154, 0.0 
3.90625e-1, 3.7762657e+1, -0.00000006434795, -8242.44, -0.03633367, 0.0, 0.0056623816, 0.00000009581527, 0.0 
3.90625e-1, 3.8537544e+1, -0.000008013706, -8245.067, -4.0718355, 0.0, 0.0044982526, 0.0020028662, 0.0 
3.90625e-1, 3.9312392e+1, -0.00000017181293, -8245.067, -0.5134365, 0.0, -0.0003955417, 0.000031800886, 0.0 
3.90625e-1, 4.0087306e+1, -0.00000006067294, -7822.1055, -0.03694135, 0.0, -0.0041225892, 0.00000011378961, 0.0 
3.90625e-1, 4.0863565e+1, -0.00000007332856, -5667.3594, -0.020800572, 0.0, 0.0068387655, 0.0000000030140654, 0.0 
3.90625e-1, 4.1640404e+1, -0.000000057556978, -5724.1235, -0.013160368, 0.0, 0.0050666723, -0.000000027300302, 0.0 
3.90625e-1, 4.2417172e+1, -0.00000005466372, -5724.1235, 0.00060494844, 0.0, -0.00063725613, -0.000000054599695, 0.0 
3.90625e-1, 4.3193972e+1, -0.00000006725848, -5432.3896, 0.0092645185, 0.0, -0.005654984, -0.0000000514583, 0.0 
3.90625e-1, 4.3972072e+1, -0.00000007389236, -3111.3228, -0.0019963563, 0.0, 0.006500418, -0.00000007261178, 0.0 
3.90625e-1, 4.4750917e+1, -0.000000053271993, -3175.812, -0.004713581, 0.0, 0.0047775763, -0.000000046276, 0.0 
3.90625e-1, 4.5529643e+1, -0.000000043727805, -3175.812, -0.012596774, 0.0, -0.00064231816, 0.0000000062373147, 0.0 
3.90625e-1, 4.6308395e+1, -0.00000005829547, -2971.8022, -0.087660484, 0.0, -0.0058653643, 0.0000025274621, 0.0 
3.90625e-1, 4.7088298e+1, -0.00000007993349, -866.7092, -0.015619883, 0.0, 0.009735998, 0.00000020156904, 0.0 
3.90625e-1, 4.7868916e+1, -0.000000104228526, -879.52484, -0.010601458, 0.0, 0.006814145, 0.00000002355739, 0.0 
3.90625e-1, 4.8649362e+1, -0.00000012342379, -885.59454, -0.006585607, 0.0, -0.0049412595, -0.00000007445078, 0.0 
1.171875e+0, 3.7632012e-1, -0.0000000001192713, -38780.33, -0.0003949828, 0.0, -0.000035715115, -0.00000000011641532, 0.0 
1.171875e+0, 1.1289604e+0, -0.000000008680032, -38808.098, -0.0011849821, 0.0, -0.00010715216, -0.000000008636562, 0.0 
1.171875e+0, 1.8816006e+0, -0.000000030008227, -38808.098, -0.0019749703, 0.0, -0.00017858694, -0.000000029904186, 0.0 
1.171875e+0, 2.634241e+0, -0.00000006450723, -38808.098, -0.0027649584, 0.0, -0.0002500217, -0.00000006431219, 0.0 
1.171875e+0, 3.3877632e+0, -0.00000007621771, -36308.137, -0.0027850608, 0.0, 0.0010401227, -0.00000007599738, 0.0 
1.171875e+0, 4.1421643e+0, -0.00000005271926, -36285.81, -0.00012539083, 0.0, 0.00061652384, -0.00000005272159, 0.0 
1.171875e+0, 4.896566e+0, -0.00000004941535, -36285.81, 0.0027170184, 0.0, 0.00003533601, -0.000000049214577, 0.0 
1.171875e+0, 5.6509674e+0, -0.0000000608719, -36285.81, 0.0055594277, 0.0, -0.0005458518, -0.000000060019374, 0.0 
1.171875e+0, 6.406228e+0, -0.000000067554865, -33852.043, 0.007205378, 0.0, 0.0013006186, -0.00000006602204, 0.0 
1.171875e+0, 7.1624035e+0, -0.000000051268888, -33757.047, 0.0065102363, 0.0, 0.0011960642, -0.000000050014933, 0.0 
1.171875e+0, 7.918583e+0, -0.00000004929035, -33757.047, 0.005459404, 0.0, 0.0003403092, -0.00000004839967, 0.0 
1.171875e+0, 8.674763e+0, -0.000000052711226, -33757.047, 0.004408572, 0.0, -0.0005154458, -0.000000052132236, 0.0 
1.171875e+0, 9.431761e+0, -0.00000006825402, -31420.82, 0.0047687055, 0.0, 0.0015259985, -0.0000000675318, 0.0 
1.171875e+0, 1.0189723e+1, -0.000000052860525, -31217.365, 0.0029411656, 0.0, 0.0018200589, -0.000000052583346, 0.0 
1.171875e+0, 1.0947701e+1, -0.000000049326367, -31217.365, 0.00036966638, 0.0, 0.00054506166, -0.000000049323717, 0.0 
1.171875e+0, 1.170568e+1, -0.00000006521226, -31217.365, -0.0022018328, 0.0, -0.00072993565, -0.00000006505434, 0.0 
1.171875e+0, 1.24644175e+1, -0.00000007870687, -29018.23, -0.0063605523, 0.0, 0.0014175487, -0.000000077314326, 0.0 
1.171875e+0, 1.3224176e+1, -0.00000005655919, -28672.238, -0.0074444455, 0.0, 0.0025528872, -0.00000005462789, 0.0 
1.171875e+0, 1.398397e+1, -0.000000036398145, -28672.238, -0.006480445, 0.0, 0.0008621525, -0.00000003493551, 0.0 
1.171875e+0, 1.4743763e+1, -0.0000000306292, -28672.238, -0.0055164443, 0.0, -0.0008285823, -0.000000029565854, 0.0 
1.171875e+0, 1.5504247e+1, -0.000000038744133, -26615.428, -0.0035011226, 0.0, 0.0010351542, -0.00000003828609, 0.0 
1.171875e+0, 1.6265802e+1, -0.000000031561587, -26150.402, -0.00061292975, 0.0, 0.0030242796, -0.000000031548552, 0.0 
1.171875e+0, 1.7027426e+1, -0.000000035691016, -26127.623, 0.0016285487, 0.0, 0.0010894871, -0.000000035590347, 0.0 
1.171875e+0, 1.7789048e+1, -0.000000046858812, -26127.623, 0.0038386877, 0.0, -0.0009243976, -0.00000004629328, 0.0 
1.171875e+0, 1.8551281e+1, -0.000000066871614, -24188.242, 0.0050469344, 0.0, 0.0008060221, -0.00000006582195, 0.0 
1.171875e+0, 1.9314651e+1, -0.000000062147144, -23651.95, 0.0054326914, 0.0, 0.0036170147, -0.000000060899765, 0.0 
1.171875e+0, 2.0078135e+1, -0.000000054288403, -23555.455, 0.0036059225, 0.0, 0.0015870561, -0.000000053736585, 0.0 
1.171875e+0, 2.0841618e+1, -0.000000052980766, -23555.455, 0.0022242614, 0.0, -0.0009025631, -0.000000052768883, 0.0 
1.171875e+0, 2.1605627e+1, -0.00000007363644, -21813.629, 0.0007799212, 0.0, 0.00052464893, -0.000000073607225, 0.0 
1.171875e+0, 2.2370824e+1, -0.00000005638356, -21099.912, -0.0055691507, 0.0, 0.003839963, -0.000000054911652, 0.0 
1.171875e+0, 2.3136167e+1, -0.00000005174197, -21001.332, -0.010526932, 0.0, 0.0019683687, -0.000000046464265, 0.0 
1.171875e+0, 2.3901512e+1, -0.00000004997004, -21001.332, -0.015840441, 0.0, -0.00094458595, -0.000000038024154, 0.0 
1.171875e+0, 2.4667293e+1, -0.00000006780978, -19438.426, -0.015571957, 0.0, -0.0000038957714, -0.00000005533002, 0.0 
1.171875e+0, 2.543432e+1, -0.000000063363814, -18568.516, 0.0020070022, 0.0, 0.003976651, -0.0000000631444, 0.0 
1.171875e+0, 2.6201552e+1, -0.0000000512624, -18434.465, 0.02327522, 0.0, 0.0024676132, -0.000000021875167, 0.0 
1.171875e+0, 2.6968783e+1, -0.000000048936805, -18434.465, 0.043974046, 0.0, -0.0007061246, 0.00000005595939, 0.0 
1.171875e+0, 2.773636e+1, -0.00000006640716, -17091.363, 0.042161275, 0.0, -0.00018318988, 0.000000037594873, 0.0 
1.171875e+0, 2.850522e+1, -0.000000067731555, -16028.199, 0.0040385164, 0.0, 0.0046029766, -0.000000066713255, 0.0 
1.171875e+0, 2.9274324e+1, -0.000000055862973, -15906.414, -0.042191435, 0.0, 0.0031457595, 0.00000005604852, 0.0 
1.171875e+0, 3.004342e+1, -0.00000004754554, -15906.414, -0.08698097, 0.0, -0.00059963256, 0.00000042809188, 0.0 
1.171875e+0, 3.081278e+1, -0.000000070468936, -14728.335, -0.04076402, 0.0, -0.00083326123, 0.00000004235335, 0.0 
1.171875e+0, 3.1583488e+1, -0.00000007685555, -13495.791, 0.10838897, 0.0, 0.004758189, 0.00000079365054, 0.0 
1.171875e+0, 3.2354516e+1, -0.00000007308527, -13327.896, 0.26391923, 0.0, 0.0036645443, 0.000005153048, 0.0 
1.171875e+0, 3.3125535e+1, -0.00000008589132, -13327.896, 0.41777465, 0.0, -0.0004407397, 0.000013009623, 0.0 
1.171875e+0, 3.3896732e+1, -0.000000103755674, -12417.005, 0.42904183, 0.0, -0.0016235027, 0.000014720827, 0.0 
1.171875e+0, 3.4669304e+1, -0.00000009048336, -10877.468, 0.2926999, 0.0, 0.0052670683, 0.000007785728, 0.0 
1.171875e+0, 3.5442254e+1, -0.00000006852509, -10772.351, 0.15664214, 0.0, 0.0040418343, 0.00000220923, 0.0 
1.171875e+0, 3.6215192e+1, -0.00000005744986, -10772.351, 0.022930186, 0.0, -0.0006216156, -0.000000008638381, 0.0 
1.171875e+0, 3.6988235e+1, -0.000000061215786, -10149.599, -0.038538527, 0.0, -0.003235151, 0.00000008511597, 0.0 
1.171875e+0, 3.7762657e+1, -0.00000006938565, -8242.425, -0.03633371, 0.0, 0.005662516, 0.000000090778485, 0.0 
1.171875e+0, 3.8537544e+1, -0.00000005386566, -8245.068, -0.03381844, 0.0, 0.004498032, 0.00000008484494, 0.0 
1.171875e+0, 3.9312392e+1, -0.00000004965712, -8245.068, -0.03535804, 0.0, -0.00039566756, 0.000000101972546, 0.0 
1.171875e+0, 4.0087306e+1, -0.00000006569875, -7822.092, -0.036774132, 0.0, -0.0041225525, 0.00000010718759, 0.0 
1.171875e+0, 4.0863565e+1, -0.00000006830461, -5667.3564, -0.020800605, 0.0, 0.0068380237, 0.000000008039024, 0.0 
1.171875e+0, 4.1640404e+1, -0.000000052421235, -5724.11, -0.013160447, 0.0, 0.0050659925, -0.000000022163476, 0.0 
1.171875e+0, 4.2417172e+1, -0.000000052933053, -5724.11, 0.00060495705, 0.0, -0.0006380952, -0.000000052868927, 0.0 
1.171875e+0, 4.3193972e+1, -0.00000006497049, -5432.389, 0.009264604, 0.0, -0.0056560733, -0.000000049170012, 0.0 
1.171875e+0, 4.3972072e+1, -0.00000007105255, -3111.3315, -0.0019963994, 0.0, 0.0064997473, -0.00000006977143, 0.0 
1.171875e+0, 4.4750917e+1, -0.000000053884783, -3175.8198, -0.0047136657, 0.0, 0.004777311, -0.000000046888545, 0.0 
1.171875e+0, 4.5529643e+1, -0.000000048294172, -3175.8198, -0.012596792, 0.0, -0.0006421508, 0.0000000016707418, 0.0 
1.171875e+0, 4.6308395e+1, -0.000000059277, -2971.8096, -0.015736513, 0.0, -0.005864947, 0.000000024052042, 0.0 
1.171875e+0, 4.7088298e+1, -0.000000080157314, -866.6978, -0.015619825, 0.0, 0.009737183, 0.00000020134678, 0.0 
1.171875e+0, 4.7868916e+1, -0.00000009900441, -879.5209, -0.010601372, 0.0, 0.0068145636, 0.00000002878005, 0.0 
1.171875e+0, 4.8649362e+1, -0.00000012642221, -885.5906, -0.006585469, 0.0, -0.004941358, -0.00000007745109, 0.0 
1.953125e+0, 3.7632012e-1, -0.00000000011927088, -38780.33, -0.00039496212, 0.0, -0.000035591158, -0.000000000109139364, 0.0 
1.953125e+0, 1.1289604e+0, -0.000000007700392, -38808.098, -0.0011849201, 0.0, -0.00010678028, -0.000000007661583, 0.0 
1.953125e+0, 1.8816006e+0, -0.00000003006584, -38808.098, -0.001974867, 0.0, -0.00017796714, -0.000000029962393, 0.0 
1.953125e+0, 2.634241e+0, -0.00000006404621, -38808.098, -0.0027648136, 0.0, -0.000249154, -0.00000006384653, 0.0 
1.953125e+0, 3.3877632e+0, -0.000000076907625, -36308.137, -0.0027851614, 0.0, 0.0010409815, -0.00000007669587, 0.0 
1.953125e+0, 4.1421643e+0, -0.000000054328993, -36285.81, -0.00012545854, 0.0, 0.0006169493, -0.000000054329576, 0.0 
1.953125e+0, 4.896566e+0, -0.00000005022022, -36285.81, 0.0027170326, 0.0, 0.000035334513, -0.000000050014933, 0.0 
1.953125e+0, 5.6509674e+0, -0.00000006018204, -36285.81, 0.005559524, 0.0, -0.0005462803, -0.00000005932816, 0.0 
1.953125e+0, 6.406228e+0, -0.00000006755485, -33852.043, 0.007205338, 0.0, 0.0012999051, -0.00000006602204, 0.0 
1.953125e+0, 7.1624035e+0, -0.000000051842417, -33757.05, 0.0065101823, 0.0, 0.0011955021, -0.000000050589733, 0.0 
1.953125e+0, 7.918583e+0, -0.000000049749193, -33757.05, 0.005459427, 0.0, 0.00033988623, -0.00000004886533, 0.0 
1.953125e+0, 8.674763e+0, -0.00000005282596, -33757.05, 0.0044086715, 0.0, -0.0005157296, -0.000000052241376, 0.0 
1.953125e+0, 9.431761e+0, -0.000000068482926, -31420.82, 0.004768695, 0.0, 0.0015259234, -0.000000067757355, 0.0 
1.953125e+0, 1.0189723e+1, -0.00000005240277, -31217.37, 0.0029411057, 0.0, 0.001820033, -0.00000005212496, 0.0 
1.953125e+0, 1.0947701e+1, -0.00000004989855, -31217.37, 0.00036969894, 0.0, 0.00054501044, -0.00000004989488, 0.0 
1.953125e+0, 1.170568e+1, -0.00000006372458, -31217.37, -0.0022017078, 0.0, -0.00073001214, -0.000000063566404, 0.0 
1.953125e+0, 1.24644175e+1, -0.00000007825006, -29018.234, -0.0063605253, 0.0, 0.0014174598, -0.00000007685594, 0.0 
1.953125e+0, 1.3224176e+1, -0.000000057358385, -28672.238, -0.007444563, 0.0, 0.0025527587, -0.000000055428245, 0.0 
1.953125e+0, 1.398397e+1, -0.000000035941515, -28672.238, -0.006480481, 0.0, 0.0008620749, -0.000000034480763, 0.0 
1.953125e+0, 1.4743763e+1, -0.000000031713714, -28672.238, -0.005516399, 0.0, -0.0008286088, -0.00000003064997, 0.0 
1.953125e+0, 1.5504247e+1, -0.00000003800351, -26615.424, -0.0035010593, 0.0, 0.0010351345, -0.00000003754394, 0.0 
1.953125e+0, 1.6265802e+1, -0.00000003116298, -26150.4, -0.0006129558, 0.0, 0.003024221, -0.000000031148375, 0.0 
1.953125e+0, 1.7027426e+1, -0.00000003569102, -26127.621, 0.0016285894, 0.0, 0.0010894677, -0.000000035590347, 0.0 
1.953125e+0, 1.7789048e+1, -0.000000047257448, -26127.621, 0.003838796, 0.0, -0.00092442334, -0.000000046693458, 0.0 
1.953125e+0, 1.8551281e+1, -0.00000006675798, -24188.248, 0.005047023, 0.0, 0.0008060382, -0.000000065705535, 0.0 
1.953125e+0, 1.9314651e+1, -0.00000006328329, -23651.945, 0.0054326127, 0.0, 0.0036174473, -0.000000062034815, 0.0 
1.953125e+0, 2.0078135e+1, -0.00000005303872, -23555.457, 0.0036059227, 0.0, 0.0015875226, -0.00000005248512, 0.0 
1.953125e+0, 2.0841618e+1, -0.00000005246955, -23555.457, 0.0022243448, 0.0, -0.0009019339, -0.000000052259566, 0.0 
1.953125e+0, 2.1605627e+1, -0.00000007091441, -21813.625, 0.000780018, 0.0, 0.0005251995, -0.00000007088602, 0.0 
1.953125e+0, 2.2370824e+1, -0.00000005508018, -21099.926, -0.005569222, 0.0, 0.0038396902, -0.000000053609256, 0.0 
1.953125e+0, 2.3136167e+1, -0.000000051458642, -21001.338, -0.010526929, 0.0, 0.0019676746, -0.000000046180503, 0.0 
1.953125e+0, 2.3901512e+1, -0.000000049233265, -21001.338, -0.015840355, 0.0, -0.0009458107, -0.000000037285645, 0.0 
1.953125e+0, 2.4667293e+1, -0.00000006899776, -19438.43, -0.0155718345, 0.0, -0.000004913279, -0.000000056523277, 0.0 
1.953125e+0, 2.543432e+1, -0.00000006460751, -18568.479, 0.0020069282, 0.0, 0.003976792, -0.00000006438859, 0.0 
1.953125e+0, 2.6201552e+1, -0.00000005058413, -18434.443, 0.02327522, 0.0, 0.0024681787, -0.000000021194865, 0.0 
1.953125e+0, 2.6968783e+1, -0.000000050633094, -18434.443, 0.04397413, 0.0, -0.0007050873, 0.000000054264092, 0.0 
1.953125e+0, 2.773636e+1, -0.00000006606896, -17091.387, 0.04216141, 0.0, -0.00018278733, 0.000000037933205, 0.0 
1.953125e+0, 2.850522e+1, -0.000000069423336, -16028.252, 0.004038448, 0.0, 0.004602036, -0.000000068404916, 0.0 
1.953125e+0, 2.9274324e+1, -0.00000005450937, -15906.46, -0.04219144, 0.0, 0.0031450533, 0.000000057403668, 0.0 
1.953125e+0, 3.004342e+1, -0.00000005701624, -15906.46, -0.08698088, 0.0, -0.00060020987, 0.00000041861858, 0.0 
1.953125e+0, 3.081278e+1, -0.00000006923023, -14728.194, -0.040763896, 0.0, -0.0008322022, 0.0000000435939, 0.0 
1.953125e+0, 3.1583488e+1, -0.00000007202788, -13495.631, 0.10838895, 0.0, 0.0047608963, 0.00000079848724, 0.0 
1.953125e+0, 3.2354516e+1, -0.00000006763631, -13327.74, 0.26391926, 0.0, 0.003667178, 0.000005158561, 0.0 
1.953125e+0, 3.3125535e+1, -0.00000007862992, -13327.74, 0.41777477, 0.0, -0.00043800534, 0.0000130170465, 0.0 
1.953125e+0, 3.3896732e+1, -0.0000000996722, -12417.132, 0.4290419, 0.0, -0.0016221158, 0.000014724761, 0.0 
1.953125e+0, 3.4669304e+1, -0.0000000965422, -10877.613, 0.29269975, 0.0, 0.005267249, 0.000007779556, 0.0 
1.953125e+0, 3.5442254e+1, -0.00000006119933, -10772.485, 0.15664203, 0.0, 0.00404185, 0.0000022165223, 0.0 
1.953125e+0, 3.6215192e+1, -0.00000004869676, -10772.485, 0.022930197, 0.0, -0.0006221027, 0.00000000011277734, 0.0 
1.953125e+0, 3.6988235e+1, -0.00000006065445, -10149.604, -0.038538456, 0.0, -0.0032355452, 0.00000008567804, 0.0 
1.953125e+0, 3.7762657e+1, -0.000000067819265, -8242.409, -0.03633375, 0.0, 0.0056626503, 0.000000092344635, 0.0 
1.953125e+0, 3.8537544e+1, -0.00000005252304, -8245.07, -0.03381851, 0.0, 0.0044978512, 0.000000086189175, 0.0 
1.953125e+0, 3.9312392e+1, -0.000000049656983, -8245.07, -0.03535803, 0.0, -0.0003957929, 0.000000101972546, 0.0 
1.953125e+0, 4.0087306e+1, -0.00000006077532, -7822.078, -0.036774058, 0.0, -0.004122516, 0.00000011211159, 0.0 
1.953125e+0, 4.0863565e+1, -0.000000069868, -5667.3535, -0.02080064, 0.0, 0.006837282, 0.000000006474693, 0.0 
1.953125e+0, 4.1640404e+1, -0.000000058730233, -5724.096, -0.013160526, 0.0, 0.005065313, -0.000000028472641, 0.0 
1.953125e+0, 4.2417172e+1, -0.000000051425697, -5724.096, 0.0006049658, 0.0, -0.00063893426, -0.000000051360985, 0.0 
1.953125e+0, 4.3193972e+1, -0.000000064524286, -5432.3887, 0.009264689, 0.0, -0.0056571625, -0.00000004872345, 0.0 
1.953125e+0, 4.3972072e+1, -0.00000008024039, -3111.3406, -0.0019964422, 0.0, 0.0064990763, -0.00000007895915, 0.0 
1.953125e+0, 4.4750917e+1, -0.00000005132341, -3175.8276, -0.0047137504, 0.0, 0.0047770455, -0.000000044326953, 0.0 
1.953125e+0, 4.5529643e+1, -0.00000004506434, -3175.8276, -0.01259681, 0.0, -0.00064198347, 0.0000000049003575, 0.0 
1.953125e+0, 4.6308395e+1, -0.00000005537894, -2971.817, -0.015736463, 0.0, -0.0058645303, 0.000000027948772, 0.0 
1.953125e+0, 4.7088298e+1, -0.00000007782542, -866.6864, -0.015619765, 0.0, 0.00973837, 0.00000020368009, 0.0 
1.953125e+0, 4.7868916e+1, -0.000000101225325, -879.51697, -0.010601288, 0.0, 0.006814982, 0.0000000265577, 0.0 
1.953125e+0, 4.8649362e+1, -0.00000012764272, -885.58655, -0.006585332, 0.0, -0.0049414574, -0.00000007867334, 0.0 
2.734375e+0, 3.7632012e-1, 0.000000000111226243, -38780.332, -0.00039494145, 0.0, -0.000035467205, 0.000000000109139364, 0.0 
2.734375e+0, 1.1289604e+0, -0.000000007642763, -38808.1, -0.001184858, 0.0, -0.00010640842, -0.000000007603376, 0.0 
2.734375e+0, 1.8816006e+0, -0.000000030642088, -38808.1, -0.0019747636, 0.0, -0.00017734736, -0.000000030537194, 0.0 
2.734375e+0, 2.634241e+0, -0.00000006358518, -38808.1, -0.0027646688, 0.0, -0.00024828632, -0.00000006338814, 0.0 
2.734375e+0, 3.3877632e+0, -0.000000077252594, -36308.133, -0.0027852622, 0.0, 0.0010418404, -0.000000077045115, 0.0 
2.734375e+0, 4.1421643e+0, -0.000000053984053, -36285.805, -0.00012552623, 0.0, 0.0006173748, -0.000000053987605, 0.0 
2.734375e+0, 4.896566e+0, -0.00000004918539, -36285.805, 0.0027170468, 0.0, 0.000035333018, -0.000000048981747, 0.0 
2.734375e+0, 5.6509674e+0, -0.000000060986935, -36285.805, 0.00555962, 0.0, -0.00054670876, -0.00000006013579, 0.0 
2.734375e+0, 6.406228e+0, -0.00000007002131, -33852.043, 0.007205298, 0.0, 0.0012991915, -0.00000006848859, 0.0 
2.734375e+0, 7.1624035e+0, -0.000000052071815, -33757.05, 0.0065101283, 0.0, 0.00119494, -0.000000050815288, 0.0 
2.734375e+0, 7.918583e+0, -0.000000049290364, -33757.05, 0.0054594493, 0.0, 0.00033946327, -0.000000048406946, 0.0 
2.734375e+0, 8.674763e+0, -0.000000055177534, -33757.05, 0.0044087707, 0.0, -0.0005160134, -0.000000054606062, 0.0 
2.734375e+0, 9.431761e+0, -0.00000006871184, -31420.82, 0.004768685, 0.0, 0.0015258483, -0.00000006798655, 0.0 
2.734375e+0, 1.0189723e+1, -0.000000052402758, -31217.371, 0.0029410457, 0.0, 0.0018200071, -0.000000052121322, 0.0 
2.734375e+0, 1.0947701e+1, -0.000000047838697, -31217.371, 0.00036973154, 0.0, 0.0005449592, -0.000000047835783, 0.0 
2.734375e+0, 1.170568e+1, -0.00000006332403, -31217.371, -0.0022015828, 0.0, -0.0007300886, -0.000000063166226, 0.0 
2.734375e+0, 1.24644175e+1, -0.00000007859265, -29018.24, -0.0063604983, 0.0, 0.0014173707, -0.00000007719791, 0.0 
2.734375e+0, 1.3224176e+1, -0.000000059870004, -28672.236, -0.00744468, 0.0, 0.0025526301, -0.000000057934813, 0.0 
2.734375e+0, 1.398397e+1, -0.00000003605569, -28672.236, -0.006480517, 0.0, 0.00086199737, -0.00000003459354, 0.0 
2.734375e+0, 1.4743763e+1, -0.000000031713697, -28672.236, -0.0055163535, 0.0, -0.00082863535, -0.00000003064997, 0.0 
2.734375e+0, 1.5504247e+1, -0.00000003863016, -26615.422, -0.0035009962, 0.0, 0.0010351149, -0.000000038169674, 0.0 
2.734375e+0, 1.6265802e+1, -0.00000003167548, -26150.398, -0.00061298173, 0.0, 0.0030241625, -0.00000003165769, 0.0 
2.734375e+0, 1.7027426e+1, -0.000000035121595, -26127.62, 0.00162863, 0.0, 0.0010894482, -0.000000035019184, 0.0 
2.734375e+0, 1.7789048e+1, -0.00000004765608, -26127.62, 0.0038389042, 0.0, -0.0009244491, -0.000000047093636, 0.0 
2.734375e+0, 1.8551281e+1, -0.000000067894774, -24188.252, 0.005047112, 0.0, 0.00080605433, -0.000000066840585, 0.0 
2.734375e+0, 1.9314651e+1, -0.00000006305602, -23651.941, 0.0054325345, 0.0, 0.0036178797, -0.00000006180926, 0.0 
2.734375e+0, 2.0078135e+1, -0.000000053720367, -23555.459, 0.0036059227, 0.0, 0.0015879889, -0.00000005316906, 0.0 
2.734375e+0, 2.0841618e+1, -0.000000054003266, -23555.459, 0.002224428, 0.0, -0.00090130465, -0.000000053791155, 0.0 
2.734375e+0, 2.1605627e+1, -0.0000000720486, -21813.62, 0.000780115, 0.0, 0.0005257501, -0.000000072024704, 0.0 
2.734375e+0, 2.2370824e+1, -0.000000058933704, -21099.941, -0.0055691046, 0.0, 0.0038394176, -0.000000057465513, 0.0 
2.734375e+0, 2.3136167e+1, -0.000000050041905, -21001.344, -0.01052682, 0.0, 0.0019669805, -0.00000004476533, 0.0 
2.734375e+0, 2.3901512e+1, -0.000000046116266, -21001.344, -0.01584008, 0.0, -0.00094703544, -0.000000034167897, 0.0 
2.734375e+0, 2.4667293e+1, -0.00000007361625, -19438.434, -0.014908911, 0.0, -0.000005930797, -0.000000062180334, 0.0 
2.734375e+0, 2.543432e+1, -0.00000006545548, -18568.443, 0.0020068544, 0.0, 0.003976933, -0.000000065239874, 0.0 
2.734375e+0, 2.6201552e+1, -0.000000051262468, -18434.422, 0.02327522, 0.0, 0.0024687443, -0.000000021875167, 0.0 
2.734375e+0, 2.6968783e+1, -0.000000054703445, -18434.422, 0.043974217, 0.0, -0.00070405006, 0.000000050193194, 0.0 
2.734375e+0, 2.773636e+1, -0.00000006392439, -17091.41, 0.04216156, 0.0, -0.00018238479, 0.000000040079613, 0.0 
2.734375e+0, 2.850522e+1, -0.0000000682475, -16028.305, 0.004055148, 0.0, 0.004601095, -0.00000006722075, 0.0 
2.734375e+0, 2.9274324e+1, -0.00000004986636, -15906.506, -0.04218787, 0.0, 0.0031443473, 0.00000006202572, 0.0 
2.734375e+0, 3.004342e+1, -0.00000005510961, -15906.506, -0.086961344, 0.0, -0.0006007872, 0.00000042031024, 0.0 
2.734375e+0, 3.081278e+1, -0.00000007249736, -14728.054, -0.040763773, 0.0, -0.0008311432, 0.000000040326995, 0.0 
2.734375e+0, 3.1583488e+1, -0.00000007732618, -13495.47, 0.108388945, 0.0, 0.0047636037, 0.00000079319943, 0.0 
2.734375e+0, 3.2354516e+1, -0.00000007242427, -13327.584, 0.2639193, 0.0, 0.0036698119, 0.000005153832, 0.0 
2.734375e+0, 3.3125538e+1, -0.000000084418225, -13327.584, 0.41777492, 0.0, -0.00043527098, 0.00001301142, 0.0 
2.734375e+0, 3.3896732e+1, -0.00000009379595, -12417.26, 0.4385552, 0.0, -0.0016207289, 0.000015395184, 0.0 
2.734375e+0, 3.4669304e+1, -0.00000008991632, -10877.759, 0.32100305, 0.0, 0.005267429, 0.000009382895, 0.0 
2.734375e+0, 3.5442254e+1, -0.000000065209235, -10772.621, 0.26982358, 0.0, 0.004041866, 0.000006693108, 0.0 
2.734375e+0, 3.6215192e+1, -0.00000008249898, -10772.621, 0.28238246, 0.0, -0.00062258955, 0.000007319586, 0.0 
2.734375e+0, 3.6988235e+1, -0.000000063120986, -10149.608, -0.03853838, 0.0, -0.0032359392, 0.00000008321149, 0.0 
2.734375e+0, 3.7762657e+1, -0.000000063342604, -8242.393, -0.036333796, 0.0, 0.0056627844, 0.00000009682117, 0.0 
2.734375e+0, 3.8537544e+1, -0.000012007726, -8245.071, 4.895642, 0.0, 0.0044977297, 0.002894856, 0.0 
2.734375e+0, 3.9312392e+1, -0.0000002254108, -8245.071, 0.53839827, 0.0, -0.00039591742, 0.000034931676, 0.0 
2.734375e+0, 4.0087306e+1, -0.00000006628927, -7822.065, 0.03976179, 0.0, -0.0041224794, 0.0000001358303, 0.0 
2.734375e+0, 4.0863565e+1, -0.000000070091595, -5667.3506, -0.020800676, 0.0, 0.0068365396, 0.0000000062518666, 0.0 
2.734375e+0, 4.1640404e+1, -0.000000061187095, -5724.0825, -0.013160604, 0.0, 0.005064633, -0.000000030929186, 0.0 
2.734375e+0, 4.2417172e+1, -0.00000004885761, -5724.0825, 0.0006049745, 0.0, -0.0006397734, -0.00000004879348, 0.0 
2.734375e+0, 4.3193972e+1, -0.00000006391065, -5432.388, 0.009264774, 0.0, -0.005658252, -0.00000004810954, 0.0 
2.734375e+0, 4.3972072e+1, -0.00000007645396, -3111.3496, -0.0019964848, 0.0, 0.0064984057, -0.00000007517292, 0.0 
2.734375e+0, 4.4750917e+1, -0.000000055778617, -3175.8354, -0.0047138347, 0.0, 0.00477678, -0.000000048781658, 0.0 
2.734375e+0, 4.5529643e+1, -0.000000047737345, -3175.8354, -0.012596829, 0.0, -0.0006418161, 0.0000000022268978, 0.0 
2.734375e+0, 4.6308395e+1, -0.00000012069292, -2971.824, 0.25301388, 0.0, -0.005864113, 0.000021420292, 0.0 
2.734375e+0, 4.7088298e+1, -0.00000008238286, -866.675, -0.015619706, 0.0, 0.009739556, 0.00000019912432, 0.0 
2.734375e+0, 4.7868916e+1, -0.000000104446315, -879.513, -0.010601202, 0.0, 0.0068154004, 0.000000023335133, 0.0 
2.734375e+0, 4.8649362e+1, -0.00000012564072, -885.5825, -0.0065851947, 0.0, -0.0049415566, -0.000000076673246, 0.0 
