coord_x,coord_y,stress_xx,stress_yy,tau_xy,velocity_x,velocity_y,stress_1,eps,damage
5.00183e+0, 1.24040835e+2, -1682916.1, -1733682.3, 45.60732, -0.0004703772, -0.038795948, -1682916.0, 41480.633 
5.001838e+0, 1.3403791e+2, -1585185.3, -1636201.9, -125.80555, 0.0003919069, -0.017629413, -1585184.9, 41240.336 
5.001832e+0, 1.4403395e+2, -1497138.9, -1558303.8, -158.59787, 0.0005437788, -0.038907062, -1497138.5, 31325.586 
5.0018054e+0, 1.5402947e+2, -1400103.8, -1461477.8, 132.892, -0.00038914703, -0.03708228, -1400103.4, 30404.482 
5.001793e+0, 1.6402437e+2, -1311255.9, -1381824.5, 260.8431, -0.0005442596, -0.03399942, -1311254.9, 21303.023 
5.001802e+0, 1.7401868e+2, -1213213.6, -1283730.9, 0.633266, 0.00043622858, -0.03065784, -1213213.6, 21400.184 
5.001796e+0, 1.8401223e+2, -1125377.3, -1206346.3, -135.37506, 0.0005880456, -0.02962256, -1125377.0, 11299.941 
5.001767e+0, 1.9400506e+2, -1027928.56, -1108692.9, 61.613216, -0.00047322168, -0.034633562, -1027928.5, 10818.84 
5.001753e+0, 2.0399724e+2, -939460.44, -1029808.25, 158.66992, -0.0006360792, -0.035494175, -939460.2, 1363.7397 
5.001759e+0, 2.1398883e+2, -841519.9, -931736.7, -5.082983, 0.0005239854, -0.032324348, -841519.9, 1386.3632 
5.0017524e+0, 2.2397973e+2, -753596.56, -854226.0, -62.709553, 0.00067806785, -0.03059712, -753596.5, -8600.932 
5.0017256e+0, 2.3396987e+2, -655945.9, -756407.3, 108.58822, -0.0006574479, -0.03347076, -655945.75, -8853.648 
5.0017124e+0, 2.4395937e+2, -567519.56, -677742.94, 178.2961, -0.000813373, -0.033889335, -567519.25, -18324.256 
5.0017184e+0, 2.5394824e+2, -469673.5, -579685.0, 63.39817, 0.00079064415, -0.032922935, -469673.47, -18369.455 
5.0017107e+0, 2.6393643e+2, -381484.1, -501661.8, -1.739269, 0.0009755392, -0.032006748, -381484.1, -28064.305 
5.001682e+0, 2.7392393e+2, -283596.66, -403565.53, 4.169411, -0.00097490835, -0.033881444, -283596.66, -28054.36 
5.001671e+0, 2.839106e+2, -197377.31, -329708.53, 41.750706, -0.0012532352, -0.03328666, -197377.3, -39704.613 
5.001685e+0, 2.938965e+2, -99549.32, -231797.53, 117.08414, 0.0010087315, -0.03158419, -99549.22, -39738.105 
5.0016797e+0, 3.038857e+2, -2944.4597, -83496.5, 78.344894, 0.0013883478, -0.031424854, -2944.3835, -2944.3835 
5.0016433e+0, 3.1387842e+2, -2520.2512, -82096.9, -110.97379, -0.0011214045, -0.03658654, -2520.0964, -2520.0964 
1.5005492e+1, 1.2404088e+2, -1683215.6, -1734295.6, 57.877464, -0.0014252464, -0.034894127, -1683215.6, 41180.633 
1.5005516e+1, 1.3403782e+2, -1585496.3, -1636839.6, -130.01314, 0.0011730758, -0.023181032, -1585495.9, 40930.13 
1.5005498e+1, 1.4403388e+2, -1496655.0, -1557308.1, -279.68652, 0.001631531, -0.044825356, -1496653.8, 31811.12 
1.5005416e+1, 1.5402961e+2, -1399534.4, -1460306.6, -1.5416338, -0.0011672177, -0.030581553, -1399534.4, 30972.385 
1.5005378e+1, 1.6402453e+2, -1311659.3, -1382655.0, 243.88005, -0.0016323897, -0.025309036, -1311658.5, 20898.012 
1.5005407e+1, 1.7401864e+2, -1213723.4, -1284779.8, -2.7075353, 0.0013086961, -0.034655437, -1213723.4, 20890.871 
1.5005387e+1, 1.8401214e+2, -1125078.1, -1205728.8, -258.0946, 0.0017641499, -0.03701614, -1125077.3, 11600.539 
1.5005302e+1, 1.9400512e+2, -1027540.25, -1107891.9, -73.77339, -0.001419354, -0.03178583, -1027540.2, 11206.584 
1.5005259e+1, 2.0399734e+2, -939709.7, -1030322.94, 109.18803, -0.0019082673, -0.029499473, -939709.56, 1113.3223 
1.5005277e+1, 2.1398883e+2, -841841.06, -932399.7, -44.178036, 0.0015715391, -0.033654597, -841841.06, 1065.2594 
1.5005256e+1, 2.2397968e+2, -753332.3, -853678.94, -155.72641, 0.002034926, -0.034523126, -753332.06, -8336.113 
1.5005177e+1, 2.3396991e+2, -655615.2, -755722.9, 9.274659, -0.0019727878, -0.03294071, -655615.2, -8523.535 
1.5005137e+1, 2.4395944e+2, -567682.6, -678080.2, 101.234375, -0.0024404633, -0.031647876, -567682.56, -18488.318 
1.5005155e+1, 2.5394827e+2, -469894.1, -580141.3, -10.940718, 0.0023726493, -0.033084933, -469894.1, -18590.324 
1.5005133e+1, 2.6393643e+2, -381496.16, -501686.38, -70.65491, 0.0029261108, -0.03292819, -381496.1, -28076.322 
1.5005046e+1, 2.7392396e+2, -283584.16, -403539.28, -65.06423, -0.0029248067, -0.03305539, -283584.1, -28041.97 
1.5005012e+1, 2.8391063e+2, -197250.23, -329444.22, -20.828201, -0.0037595276, -0.032686483, -197250.23, -39577.793 
1.5005055e+1, 2.9389653e+2, -99409.04, -231505.55, 55.127544, 0.0030265395, -0.034196433, -99409.016, -39598.063 
1.5005039e+1, 3.0388573e+2, -3241.9834, -84114.15, -3.0187404, 0.004162281, -0.033099417, -3241.9834, -3241.9834 
1.500493e+1, 3.1387848e+2, -2872.6106, -82827.3, -194.59221, -0.0033675104, -0.030970009, -2872.137, -2872.137 
2.5009188e+1, 1.2404091e+2, -1682711.4, -1734085.9, 85.764206, -0.0005080053, -0.034637626, -1682711.1, 41684.74 
2.5009164e+1, 1.3403785e+2, -1585870.3, -1637061.5, 174.53807, 0.00041537549, -0.023554906, -1585869.8, 40556.176 
2.5009125e+1, 1.440339e+2, -1497125.0, -1557495.0, 64.11755, 0.00066378096, -0.04526224, -1497124.9, 31339.791 
2.5009057e+1, 1.5402964e+2, -1399094.6, -1460041.0, -209.55345, -0.0004237413, -0.030205231, -1399093.9, 31412.605 
2.5009003e+1, 1.6402456e+2, -1311110.0, -1382434.5, -190.0302, -0.0005941734, -0.024772411, -1311109.5, 21446.63 
2.5008982e+1, 1.7401865e+2, -1214077.0, -1285009.6, 46.212234, 0.0005807128, -0.034910284, -1214076.9, 20537.12 
2.5008938e+1, 1.8401216e+2, -1125595.6, -1205925.6, 11.741441, 0.00070113194, -0.037462816, -1125595.6, 11082.044 
2.500886e+1, 1.9400515e+2, -1027314.9, -1107715.5, -157.34793, -0.00072347996, -0.03155344, -1027314.56, 11431.916 
2.5008804e+1, 2.0399737e+2, -939311.56, -1030173.2, -127.3873, -0.0008580926, -0.029082803, -939311.44, 1511.1262 
2.5008777e+1, 2.1398884e+2, -841938.2, -932502.6, 12.495278, 0.0009080201, -0.033786163, -841938.2, 967.8952 
2.500873e+1, 2.239797e+2, -753568.6, -853756.56, -15.2549715, 0.0010387818, -0.03479222, -753568.56, -8572.822 
2.500865e+1, 2.3396994e+2, -655607.5, -755671.9, -163.6945, -0.0012583025, -0.03274431, -655607.25, -8515.876 
2.5008592e+1, 2.4395947e+2, -567594.94, -678062.75, -189.42496, -0.0014645595, -0.031380594, -567594.6, -18400.725 
2.500857e+1, 2.539483e+2, -469860.72, -580158.44, -94.314064, 0.0014455141, -0.033340484, -469860.66, -18557.105 
2.5008523e+1, 2.6393646e+2, -381480.72, -501681.66, -21.699661, 0.001750665, -0.03318814, -381480.72, -28061.154 
2.5008443e+1, 2.73924e+2, -283576.47, -403534.63, -27.130346, -0.0018572756, -0.032545924, -283576.47, -28034.625 
2.500839e+1, 2.8391066e+2, -197281.42, -329413.22, -47.295246, -0.002364216, -0.03224526, -197281.4, -39609.266 
2.5008386e+1, 2.9389656e+2, -99597.07, -231545.3, -89.29196, 0.0018366612, -0.035092298, -99597.01, -39786.28 
2.5008348e+1, 3.0388573e+2, -3412.7485, -84266.07, -35.16236, 0.0025079534, -0.033877064, -3412.7334, -3412.7334 
2.500826e+1, 3.138785e+2, -2568.2139, -82764.664, 97.653114, -0.002223358, -0.029398091, -2568.095, -2568.095 
3.5012922e+1, 1.24040924e+2, -1682460.1, -1733567.8, -115.58083, 0.0022719793, -0.03802526, -1682459.9, 41935.977 
3.5012788e+1, 1.3403799e+2, -1585610.9, -1636529.0, -55.647274, -0.0018756521, -0.018762749, -1585610.8, 40813.85 
3.5012713e+1, 1.4403401e+2, -1497553.0, -1558375.6, 132.12547, -0.00235773, -0.040235173, -1497552.6, 30910.824 
3.5012722e+1, 1.5402958e+2, -1399598.6, -1461075.1, -108.986046, 0.0018328843, -0.03593362, -1399598.4, 30908.555 
3.501267e+1, 1.6402447e+2, -1310768.9, -1381729.8, -393.4066, 0.0025587182, -0.032366272, -1310766.8, 21790.266 
3.5012534e+1, 1.7401874e+2, -1213642.8, -1284115.8, -190.4208, -0.0017480938, -0.031429112, -1213642.3, 20971.03 
3.5012448e+1, 1.8401228e+2, -1125823.8, -1206396.9, 37.941837, -0.0026013213, -0.030987047, -1125823.8, 10852.609 
3.501244e+1, 1.9400515e+2, -1027618.5, -1108339.8, -101.045876, 0.0016022113, -0.03392605, -1027618.4, 11128.095 
3.5012382e+1, 2.0399733e+2, -939118.9, -1029773.0, -271.95767, 0.0025017122, -0.034228634, -939118.06, 1704.8207 
3.5012257e+1, 2.139889e+2, -841689.06, -931987.25, -154.4076, -0.0014665836, -0.03272094, -841688.8, 1216.746 
3.5012168e+1, 2.2397979e+2, -753786.0, -854205.44, -65.88906, -0.002311044, -0.031417, -753785.94, -8790.998 
3.5012138e+1, 2.3396996e+2, -655878.3, -756231.25, -200.4034, 0.0014765947, -0.032876782, -655877.9, -8786.644 
3.5012078e+1, 2.4395946e+2, -567464.4, -677791.7, -270.88846, 0.002102684, -0.03308478, -567463.75, -18269.672 
3.501196e+1, 2.5394833e+2, -469683.94, -579791.3, -181.85097, -0.001991174, -0.03368717, -469683.66, -18380.334 
3.5011888e+1, 2.639365e+2, -381472.56, -501663.8, -95.35318, -0.0025485838, -0.03278756, -381472.5, -28053.354 
3.5011867e+1, 2.7392402e+2, -283588.38, -403558.56, -98.86245, 0.0022158737, -0.03235219, -283588.3, -28046.857 
3.5011807e+1, 2.839107e+2, -197351.42, -329557.5, -146.83765, 0.002914297, -0.031961832, -197351.27, -39679.48 
3.5011676e+1, 2.938966e+2, -99673.72, -231704.25, -193.06467, -0.0025564316, -0.034270566, -99673.44, -39863.008 
3.5011613e+1, 3.0388576e+2, -3203.4717, -83830.484, -9.456574, -0.0035657054, -0.03376097, -3203.4707, -3203.4707 
3.5011643e+1, 3.1387854e+2, -2325.3723, -82256.73, 139.65594, 0.002288565, -0.031860545, -2325.1284, -2325.1284 
4.50166e+1, 1.24040976e+2, -1683148.8, -1733857.1, -41.63357, 0.0017129461, -0.038461626, -1683148.6, 41246.63 
4.5016462e+1, 1.3403806e+2, -1584930.8, -1636154.9, -243.54213, -0.0013827204, -0.01799898, -1584929.6, 41494.36 
4.5016372e+1, 1.4403409e+2, -1496720.6, -1558064.3, -39.100418, -0.0016503847, -0.039480798, -1496720.6, 31742.248 
4.5016348e+1, 1.5402962e+2, -1400168.9, -1461461.8, 167.73463, 0.0014175242, -0.036717888, -1400168.4, 30338.186 
4.5016274e+1, 1.640245e+2, -1311537.5, -1382028.8, 2.0526636, 0.0018824138, -0.033384398, -1311537.5, 21019.04 
4.5016125e+1, 1.740188e+2, -1213135.9, -1283774.6, -183.40446, -0.0014282187, -0.030785821, -1213135.4, 21477.246 
4.501602e+1, 1.8401235e+2, -1125075.3, -1206110.5, -88.174706, -0.0019800845, -0.030011583, -1125075.1, 11600.589 
4.5015988e+1, 1.9400518e+2, -1027874.1, -1108561.0, 23.48292, 0.0015025365, -0.034563076, -1027874.1, 10871.916 
4.5015907e+1, 2.0399737e+2, -939627.2, -1029965.5, -95.08472, 0.00206782, -0.0352365, -939627.06, 1195.4702 
4.5015758e+1, 2.1398897e+2, -841578.75, -931862.8, -193.00705, -0.0016606132, -0.032267854, -841578.3, 1326.6454 
4.501565e+1, 2.2397985e+2, -753493.8, -854104.2, -121.25814, -0.0022415086, -0.030598588, -753493.7, -8499.339 
4.5015606e+1, 2.3397e+2, -655878.94, -756285.1, -6.1871696, 0.0018356374, -0.03331834, -655878.9, -8788.106 
4.5015523e+1, 2.439595e+2, -567572.75, -677825.4, 0.0018068427, 0.0023463555, -0.03381015, -567572.75, -18379.082 
4.5015377e+1, 2.5394836e+2, -469735.06, -579789.1, -80.604744, -0.0024634062, -0.033233125, -469735.0, -18432.229 
4.501528e+1, 2.6393655e+2, -381515.63, -501656.66, -83.65253, -0.0030627926, -0.032154117, -381515.56, -28096.998 
4.5015252e+1, 2.7392408e+2, -283701.1, -403585.6, -58.839493, 0.0026728034, -0.0330453, -283701.06, -28160.09 
4.5015174e+1, 2.8391078e+2, -197419.48, -329667.84, -54.712463, 0.003486055, -0.03268453, -197419.47, -39748.14 
4.501502e+1, 2.9389665e+2, -99363.266, -231644.7, -77.409775, -0.0031739876, -0.033056043, -99363.22, -39553.34 
4.5014936e+1, 3.0388585e+2, -2918.4546, -83560.68, 24.776247, -0.0043372163, -0.03262349, -2918.4468, -2918.4468 
4.5014954e+1, 3.138786e+2, -3036.452, -82440.625, 15.610541, 0.0029574393, -0.03387902, -3036.449, -3036.449 
5.5020213e+1, 1.24041066e+2, -1683339.3, -1734249.3, 90.67801, -0.0021732599, -0.035945002, -1683339.1, 41055.223 
5.502018e+1, 1.3403806e+2, -1585135.8, -1636572.9, -120.47387, 0.0018721427, -0.02123422, -1585135.5, 41288.363 
5.5020094e+1, 1.4403409e+2, -1496416.5, -1557435.1, -262.96225, 0.002751808, -0.042973474, -1496415.4, 32047.385 
5.501993e+1, 1.5402976e+2, -1399808.0, -1460719.6, -94.10008, -0.0016661051, -0.03258162, -1399807.9, 30697.324 
5.501981e+1, 1.6402468e+2, -1311781.5, -1382532.5, 58.59279, -0.0026129545, -0.027862556, -1311781.4, 20773.596 
5.501976e+1, 1.7401884e+2, -1213448.9, -1284416.8, -91.25765, 0.0015181716, -0.032962617, -1213448.8, 21163.488 
5.5019665e+1, 1.8401235e+2, -1124947.9, -1205844.8, -261.95303, 0.002533919, -0.034503132, -1124947.0, 11728.62 
5.501951e+1, 1.9400527e+2, -1027696.75, -1108194.8, -179.35646, -0.0010191404, -0.033473935, -1027696.4, 11048.849 
5.501937e+1, 2.0399748e+2, -939751.3, -1030222.2, -122.99853, -0.0021491367, -0.032130495, -939751.2, 1070.2911 
5.501929e+1, 2.1398902e+2, -841738.2, -932190.9, -200.36688, 0.000302763, -0.032422867, -841737.75, 1166.6605 
5.501918e+1, 2.2397989e+2, -753329.8, -853763.56, -222.05614, 0.0012141174, -0.03232243, -753329.3, -8335.398 
5.501905e+1, 2.3397008e+2, -655678.2, -755868.8, -118.00131, -0.00017680602, -0.034068726, -655678.06, -8588.022 
5.501893e+1, 2.4395959e+2, -567680.25, -678046.8, -77.85793, -0.0007246455, -0.03356188, -567680.25, -18487.521 
5.5018824e+1, 2.5394845e+2, -469878.1, -580084.4, -154.09492, 0.00000044807877, -0.03198266, -469877.88, -18575.951 
5.501871e+1, 2.639366e+2, -381490.16, -501603.0, -170.92772, 0.00017732136, -0.031287115, -381489.9, -28072.063 
5.50186e+1, 2.7392414e+2, -283656.2, -403491.8, -148.54503, -0.00047682365, -0.034620058, -283656.0, -28115.604 
5.5018497e+1, 2.8391084e+2, -197448.73, -329726.5, -66.68239, -0.0006391801, -0.034408893, -197448.7, -39777.938 
5.501841e+1, 2.938967e+2, -99401.984, -231722.48, -79.59743, -0.000045706813, -0.03144889, -99401.94, -39592.87 
5.501831e+1, 3.0388594e+2, -2962.711, -83649.74, -172.72823, 0.00016074507, -0.030473461, -2962.341, -2962.341 
5.50182e+1, 3.1387863e+2, -3082.1018, -82532.836, -206.73969, -0.0002172775, -0.035476577, -3081.564, -3081.564 
6.5023905e+1, 1.2404116e+2, -1682491.4, -1733906.1, 151.07445, -0.0021438943, -0.035420507, -1682491.0, 41902.504 
6.502386e+1, 1.3403814e+2, -1585697.8, -1636928.9, 76.34628, 0.0019380843, -0.022170072, -1585697.8, 40725.48 
6.502375e+1, 1.4403416e+2, -1497145.3, -1557684.3, -120.14091, 0.0028173248, -0.043980844, -1497145.0, 31317.008 
6.502356e+1, 1.5402986e+2, -1399196.3, -1460296.3, -246.96211, -0.0018298697, -0.03140915, -1399195.3, 31309.053 
6.5023416e+1, 1.6402479e+2, -1310983.8, -1382254.1, -142.1639, -0.0027411284, -0.026391009, -1310983.4, 21570.56 
6.502336e+1, 1.740189e+2, -1213784.3, -1284716.6, -54.988342, 0.0018202373, -0.033928074, -1213784.3, 20827.246 
6.502325e+1, 1.8401243e+2, -1125512.6, -1206046.3, -180.49944, 0.0027937507, -0.03592367, -1125512.3, 11162.7705 
6.5023047e+1, 1.9400536e+2, -1027495.75, -1108001.6, -224.3327, -0.0014998316, -0.03244581, -1027495.1, 11249.184 
6.50229e+1, 2.0399758e+2, -939362.4, -1030085.9, -155.83893, -0.0025893422, -0.03056931, -939362.1, 1458.3617 
6.50228e+1, 2.139891e+2, -841780.4, -932281.4, -109.45734, 0.0010516637, -0.033153884, -841780.25, 1123.4403 
6.502268e+1, 2.2397995e+2, -753510.1, -853808.2, -160.24094, 0.0019734867, -0.033645872, -753509.9, -8516.59 
6.5022504e+1, 2.3397017e+2, -655739.3, -755842.6, -234.59128, -0.001151858, -0.03345817, -655738.75, -8649.58 
6.502236e+1, 2.439597e+2, -567692.0, -678055.44, -215.64648, -0.0018501735, -0.032428376, -567691.56, -18499.813 
6.5022254e+1, 2.5394854e+2, -469851.78, -580082.25, -146.76183, 0.0010800231, -0.03244307, -469851.56, -18550.428 
6.502212e+1, 2.639367e+2, -381439.4, -501594.84, -118.6549, 0.0015365727, -0.032144107, -381439.28, -28022.178 
6.502197e+1, 2.739242e+2, -283595.44, -403479.6, -157.94327, -0.0017327269, -0.034068346, -283595.22, -28055.662 
6.5021837e+1, 2.8391093e+2, -197482.28, -329648.28, -40.99437, -0.0022696874, -0.03366619, -197482.27, -39812.41 
6.5021765e+1, 2.938968e+2, -99859.555, -231836.23, 59.06859, 0.0013442812, -0.03236716, -99859.52, -40051.31 
6.502166e+1, 3.0388603e+2, -3382.2256, -83953.945, -1.780462, 0.0020122554, -0.03149448, -3382.2256, -3382.2256 
6.5021485e+1, 3.1387872e+2, -2434.508, -82349.73, -77.78431, -0.0018272889, -0.0342185, -2434.4324, -2434.4324 
7.5027657e+1, 1.24041244e+2, -1682397.0, -1733706.8, -59.32926, 0.0017184812, -0.03689125, -1682396.9, 41995.77 
7.5027484e+1, 1.3403825e+2, -1585601.0, -1636731.1, -161.32394, -0.0011692271, -0.02083087, -1585600.5, 40821.434 
7.5027335e+1, 1.4403428e+2, -1497314.1, -1558032.6, -67.8531, -0.0014248989, -0.04252304, -1497314.0, 31146.785 
7.502723e+1, 1.5402992e+2, -1399396.9, -1460705.6, -162.7788, 0.00088282925, -0.03317156, -1399396.5, 31107.127 
7.50271e+1, 1.6402483e+2, -1310883.1, -1382042.3, -313.19183, 0.0014473975, -0.028932072, -1310881.6, 21671.834 
7.5026923e+1, 1.74019e+2, -1213649.1, -1284437.3, -253.28818, -0.00051019207, -0.033691663, -1213648.3, 20962.328 
7.5026757e+1, 1.8401255e+2, -1125548.5, -1206120.8, -206.33302, -0.0011818977, -0.034296256, -1125548.0, 11125.955 
7.502662e+1, 1.9400546e+2, -1027552.25, -1108116.8, -230.40004, 0.000030906966, -0.031476416, -1027551.56, 11191.728 
7.5026464e+1, 2.0399769e+2, -939306.75, -1029968.8, -262.48868, 0.00070740876, -0.030540101, -939305.94, 1513.6223 
7.5026304e+1, 2.1398918e+2, -841712.25, -932139.3, -227.08005, 0.00058798806, -0.034456376, -841711.7, 1191.1415 
7.5026137e+1, 2.2398004e+2, -753620.44, -854035.2, -246.0974, 0.00004765419, -0.03457175, -753619.8, -8627.426 
7.5025964e+1, 2.3397025e+2, -655869.56, -756111.3, -316.35138, -0.0011050543, -0.03149682, -655868.56, -8780.39 
7.502581e+1, 2.439598e+2, -567590.5, -677844.06, -279.5656, -0.0010559044, -0.030416239, -567589.75, -18398.924 
7.502567e+1, 2.539486e+2, -469725.03, -579817.5, -209.17455, 0.0007742951, -0.03460029, -469724.66, -18424.23 
7.502553e+1, 2.6393676e+2, -381487.06, -501691.4, -202.50519, 0.0010185053, -0.034713283, -381486.72, -28070.39 
7.5025344e+1, 2.7392432e+2, -283662.84, -403617.84, -244.47835, -0.0011194017, -0.03140921, -283662.38, -28123.951 
7.50252e+1, 2.8391105e+2, -197337.02, -329345.53, -152.50964, -0.0014402091, -0.030479083, -197336.84, -39668.22 
7.502509e+1, 2.9389688e+2, -99689.62, -231482.2, -56.347298, 0.001000878, -0.03579555, -99689.59, -39882.25 
7.502496e+1, 3.0388612e+2, -3469.582, -84133.086, 39.648354, 0.0012328475, -0.035657786, -3469.5625, -3469.5625 
7.5024813e+1, 3.1387886e+2, -2556.088, -82595.89, -16.113249, -0.0019075156, -0.030107398, -2556.0845, -2556.0845 
8.503137e+1, 1.2404135e+2, -1682815.8, -1733841.1, -4.279578, 0.0024710882, -0.037578452, -1682815.8, 41575.773 
8.5031146e+1, 1.3403839e+2, -1585030.8, -1636391.9, -186.92525, -0.0019096441, -0.019592175, -1585030.1, 41390.574 
8.503097e+1, 1.4403443e+2, -1496687.3, -1557857.6, -29.734394, -0.0022881848, -0.041354034, -1496687.3, 31772.258 
8.503088e+1, 1.5403001e+2, -1399785.1, -1461045.9, -12.512244, 0.0016873351, -0.034532804, -1399785.1, 30717.574 
8.503073e+1, 1.6402492e+2, -1311377.5, -1382167.6, -162.04277, 0.002496907, -0.030655708, -1311377.1, 21175.572 
8.503051e+1, 1.7401913e+2, -1213338.6, -1284143.3, -153.17642, -0.00128384, -0.032622986, -1213338.4, 21271.008 
8.503032e+1, 1.8401268e+2, -1125119.9, -1206004.4, -121.50772, -0.002298233, -0.03264002, -1125119.6, 11552.925 
8.5030174e+1, 1.9400555e+2, -1027641.0, -1108278.9, -163.79486, 0.00073472736, -0.03246007, -1027640.6, 11101.677 
8.5030013e+1, 2.0399778e+2, -939498.94, -1030002.1, -232.99327, 0.0017819222, -0.032157987, -939498.4, 1320.3308 
8.502981e+1, 2.139893e+2, -841686.2, -932047.0, -219.0762, -0.00010446623, -0.033750173, -841685.7, 1215.9744 
8.502961e+1, 2.2398016e+2, -753552.8, -854072.06, -206.6629, -0.0010186966, -0.033182215, -753552.4, -8561.241 
8.5029435e+1, 2.3397037e+2, -655785.0, -756157.7, -197.26488, -0.000476623, -0.03186273, -655784.56, -8697.393 
8.5029256e+1, 2.4395989e+2, -567506.1, -677742.1, -164.5787, -0.000054250446, -0.031362537, -567505.9, -18316.002 
8.5029083e+1, 2.5394872e+2, -469902.6, -579825.5, -179.64766, 0.00016874191, -0.034360345, -469902.3, -18603.002 
8.502891e+1, 2.6393688e+2, -381784.97, -501838.3, -159.45172, 0.000060935206, -0.034060966, -381784.75, -28369.615 
8.502873e+1, 2.7392444e+2, -283730.56, -403664.2, -136.99045, -0.0005343601, -0.031510953, -283730.4, -28193.096 
8.5028565e+1, 2.8391114e+2, -197230.25, -329299.66, -127.44833, -0.00054378674, -0.030777896, -197230.13, -39562.582 
8.502841e+1, 2.93897e+2, -99518.8, -231405.94, -222.07137, 0.0003309475, -0.03543452, -99518.43, -39712.22 
8.502826e+1, 3.0388623e+2, -3434.8887, -84028.8, -80.86869, 0.0002531017, -0.035122994, -3434.8076, -3434.8076 
8.502813e+1, 3.1387898e+2, -3098.7427, -82758.71, 61.272293, -0.0012624314, -0.030150862, -3098.6956, -3098.6956 
9.5035034e+1, 1.2404149e+2, -1682824.9, -1733858.0, 29.714407, 0.00012363613, -0.037473314, -1682824.9, 41565.41 
9.503485e+1, 1.3403852e+2, -1585050.3, -1636428.3, -167.79381, -0.00032387997, -0.018448334, -1585049.6, 41369.594 
9.5034677e+1, 1.4403456e+2, -1496687.3, -1557853.4, -187.70203, 0.00017348019, -0.04047132, -1496686.6, 31771.504 
9.503449e+1, 1.5403013e+2, -1399780.3, -1461036.3, -188.91989, 0.0005859285, -0.035500914, -1399779.8, 30721.754 
9.503431e+1, 1.6402504e+2, -1311334.0, -1382079.1, -173.71275, 0.00043081868, -0.031571418, -1311333.5, 21217.89 
9.5034117e+1, 1.7401929e+2, -1213294.0, -1284048.5, -146.6353, -0.0005240953, -0.030730395, -1213293.8, 21314.031 
9.5033926e+1, 1.8401283e+2, -1125202.4, -1206170.5, -245.33786, -0.0005967749, -0.03095217, -1125201.6, 11469.479 
9.503373e+1, 1.9400567e+2, -1027736.4, -1108474.8, -300.64996, 0.00061199936, -0.035374526, -1027735.25, 11006.101 
9.5033526e+1, 2.0399787e+2, -939479.9, -1029962.75, -303.7946, 0.00064927666, -0.035401333, -939478.9, 1338.9154 
9.50333e+1, 2.1398945e+2, -841655.2, -931981.25, -282.42584, -0.0010338069, -0.031056497, -841654.3, 1245.8881 
9.50331e+1, 2.2398034e+2, -753533.5, -854029.44, -280.71365, -0.0012450761, -0.02950363, -753532.75, -8543.183 
9.503291e+1, 2.3397048e+2, -655768.2, -756119.75, -271.9208, 0.0007193045, -0.034531385, -655767.44, -8681.296 
9.5032716e+1, 2.4395998e+2, -567532.1, -677793.6, -291.40143, 0.0011399561, -0.03523284, -567531.4, -18342.41 
9.503248e+1, 2.539489e+2, -469931.75, -579885.56, -312.90094, -0.0007429771, -0.031750366, -469930.88, -18633.066 
9.503228e+1, 2.639371e+2, -381743.2, -501751.6, -195.34384, -0.001338398, -0.030219937, -381742.84, -28329.328 
9.5032114e+1, 2.7392456e+2, -283683.5, -403563.84, -161.23207, 0.000011394119, -0.034345057, -283683.28, -28147.059 
9.5031935e+1, 2.8391126e+2, -197384.92, -329616.84, -217.37318, 0.00040283977, -0.034521945, -197384.56, -39717.957 
9.503174e+1, 2.9389715e+2, -99697.24, -231773.3, -319.7183, -0.000670793, -0.03132553, -99696.47, -39891.65 
9.5031565e+1, 3.0388638e+2, -3242.2793, -83626.22, -172.36664, -0.0009338911, -0.02994291, -3241.9097, -3241.9097 
9.503143e+1, 3.138791e+2, -2862.0789, -82263.81, -30.351048, 0.000075349264, -0.034300257, -2862.0671, -2862.0671 
1.0503872e+2, 1.2404166e+2, -1682386.8, -1733737.5, 171.0315, -0.000979168, -0.036610115, -1682386.1, 42002.42 
1.05038546e+2, 1.3403869e+2, -1585260.0, -1636642.4, -101.71028, 0.0006848726, -0.019469248, -1585259.8, 41158.066 
1.0503835e+2, 1.440347e+2, -1496882.1, -1557887.1, -157.09648, 0.0015482437, -0.041690297, -1496881.8, 31575.088 
1.0503813e+2, 1.5403031e+2, -1399280.5, -1460714.1, -113.48208, -0.00034006586, -0.034152683, -1399280.3, 31219.535 
1.0503792e+2, 1.640252e+2, -1310840.0, -1381952.4, -125.80418, -0.0009750305, -0.029740658, -1310839.8, 21709.96 
1.0503772e+2, 1.7401943e+2, -1213523.3, -1284296.1, -236.39043, 0.00024997714, -0.031453464, -1213522.5, 21084.025 
1.0503751e+2, 1.8401295e+2, -1125514.9, -1206240.9, -336.97153, 0.0007255368, -0.032385226, -1125513.5, 11156.346 
1.0503728e+2, 1.9400582e+2, -1027544.9, -1108277.4, -223.59235, 0.000088027635, -0.034812342, -1027544.25, 11195.557 
1.0503705e+2, 2.0399801e+2, -939233.1, -1029920.7, -193.49358, -0.00043789748, -0.03419465, -939232.75, 1583.4661 
1.0503681e+2, 2.139896e+2, -841723.0, -932113.1, -273.1629, -0.0007901667, -0.031197133, -841722.2, 1176.6296 
1.05036594e+2, 2.2398047e+2, -753648.25, -853970.56, -276.99893, -0.0005112296, -0.030202867, -753647.5, -8659.252 
1.0503638e+2, 2.3397063e+2, -655871.9, -756032.0, -194.50893, 0.0006913671, -0.034611847, -655871.5, -8786.868 
1.0503615e+2, 2.4396014e+2, -567658.25, -677952.44, -205.61523, 0.0007308307, -0.03494478, -567657.9, -18470.467 
1.0503589e+2, 2.5394902e+2, -469755.4, -579925.6, -281.4606, -0.00095916534, -0.031474583, -469754.7, -18458.342 
1.0503568e+2, 2.6393723e+2, -381425.13, -501532.94, -183.93298, -0.0013073201, -0.03011989, -381424.84, -28012.701 
1.0503549e+2, 2.7392468e+2, -283775.2, -403521.78, -143.81001, 0.00036037355, -0.03466463, -283775.03, -28240.227 
1.0503528e+2, 2.8391138e+2, -197752.02, -329837.13, -133.8614, 0.000600758, -0.034834, -197751.88, -40086.727 
1.0503506e+2, 2.9389727e+2, -99916.98, -231938.8, -89.77376, -0.0013356665, -0.030995425, -99916.914, -40113.566 
1.05034865e+2, 3.0388653e+2, -3285.9133, -83621.72, 49.74982, -0.0015571415, -0.029582292, -3285.8826, -3285.8826 
1.05034724e+2, 3.1387925e+2, -2835.684, -82216.49, -38.592323, 0.0008764385, -0.03484235, -2835.6653, -2835.6653 
1.1504244e+2, 1.2404186e+2, -1682500.4, -1733965.4, 48.314034, -0.00087823835, -0.03500121, -1682500.4, 41886.27 
1.1504223e+2, 1.3403882e+2, -1585385.4, -1636899.1, -245.73549, 0.0011180318, -0.022625396, -1585384.3, 41032.24 
1.15042016e+2, 1.4403482e+2, -1496808.0, -1557734.6, -170.08174, 0.0018381045, -0.044979595, -1496807.5, 31647.988 
1.1504178e+2, 1.5403052e+2, -1399188.1, -1460519.5, -112.47312, -0.0011072007, -0.030523423, -1399187.9, 31309.914 
1.1504155e+2, 1.6402544e+2, -1311029.3, -1382336.8, -287.27545, -0.0017412843, -0.025202433, -1311028.0, 21519.6 
1.1504132e+2, 1.7401953e+2, -1213740.0, -1284743.8, -413.1492, 0.0010268559, -0.03475574, -1213737.6, 20867.758 
1.15041085e+2, 1.8401304e+2, -1125331.9, -1205865.9, -361.57855, 0.0016629894, -0.036892466, -1125330.3, 11338.6455 
1.1504083e+2, 1.9400603e+2, -1027321.8, -1107814.1, -232.45827, -0.00084143144, -0.030824818, -1027321.1, 11416.695 
1.1504058e+2, 2.0399827e+2, -939353.3, -1030163.7, -323.57913, -0.00149105, -0.028600153, -939352.2, 1461.7966 
1.1504033e+2, 2.1398972e+2, -841879.6, -932435.25, -415.0022, 0.0006011993, -0.034133855, -841877.7, 1019.845 
1.1504008e+2, 2.2398058e+2, -753525.56, -853717.06, -358.68442, 0.0011616402, -0.03521734, -753524.25, -8537.053 
1.1503982e+2, 2.3397082e+2, -655718.8, -755713.3, -270.3201, -0.0005540137, -0.032137185, -655718.06, -8635.382 
1.15039565e+2, 2.4396037e+2, -567758.6, -678157.2, -258.90485, -0.0012731708, -0.030551413, -567758.06, -18572.824 
1.1503932e+2, 2.5394917e+2, -469886.22, -580192.9, -330.91342, -0.00049635227, -0.03349837, -469885.22, -18590.273 
1.1503909e+2, 2.6393732e+2, -381387.53, -501451.25, -309.54968, 0.00012761095, -0.033710606, -381386.75, -27975.78 
1.1503886e+2, 2.7392486e+2, -283717.75, -403399.06, -278.96167, 0.0005064562, -0.032501705, -283717.13, -28184.107 
1.1503862e+2, 2.839116e+2, -197656.8, -329636.63, -198.74492, 0.00004535096, -0.03176271, -197656.5, -39993.33 
1.1503837e+2, 2.9389742e+2, -99818.2, -231732.03, -146.27177, -0.0016762734, -0.034394182, -99818.05, -40016.242 
1.1503817e+2, 3.0388665e+2, -3446.734, -83954.445, -22.889887, -0.0016347116, -0.03397397, -3446.7275, -3446.7275 
1.1503801e+2, 3.1387943e+2, -3031.0867, -82617.805, -113.01618, 0.0011228396, -0.03181406, -3030.9263, -3030.9263 
1.2504616e+2, 1.2404205e+2, -1682588.6, -1733977.8, 21.626825, 0.00013193664, -0.03588979, -1682588.6, 41796.168 
1.2504593e+2, 1.3403901e+2, -1584959.8, -1636677.6, -152.66817, 0.00036111684, -0.021726232, -1584959.4, 41455.195 
1.2504567e+2, 1.4403501e+2, -1496419.3, -1557613.9, -70.051674, 0.00077060994, -0.044063658, -1496419.1, 32034.414 
1.2504543e+2, 1.5403068e+2, -1399518.0, -1460759.0, -163.66414, -0.0005790005, -0.031499133, -1399517.6, 30978.512 
1.2504518e+2, 1.640256e+2, -1311378.4, -1382461.8, -304.56274, -0.00079272833, -0.026588136, -1311377.1, 21168.928 
1.2504493e+2, 1.7401972e+2, -1213289.1, -1284467.6, -165.61194, 0.00068055966, -0.034389704, -1213288.8, 21314.744 
1.2504466e+2, 1.8401325e+2, -1124800.9, -1205684.4, -107.41729, 0.0009161272, -0.035847872, -1124800.8, 11866.248 
1.2504439e+2, 1.9400619e+2, -1027550.2, -1108017.8, -275.6137, -0.00067512854, -0.030676737, -1027549.25, 11186.871 
1.250441e+2, 2.0399843e+2, -939711.8, -1030265.44, -422.91547, -0.000983515, -0.028992455, -939709.8, 1102.46 
1.2504384e+2, 2.139899e+2, -841708.0, -932262.6, -290.8284, 0.0005992788, -0.034528013, -841707.06, 1188.7197 
1.2504357e+2, 2.2398075e+2, -753277.75, -853702.0, -234.97757, 0.00090141664, -0.035304226, -753277.2, -8291.798 
1.2504327e+2, 2.3397101e+2, -655759.7, -755860.7, -395.4733, -0.00069343974, -0.0314718, -655758.1, -8677.134 
1.25043e+2, 2.4396054e+2, -567843.0, -678074.4, -391.71402, -0.0012459417, -0.029954353, -567841.6, -18658.121 
1.2504274e+2, 2.5394934e+2, -470042.4, -580116.5, -224.89244, -0.00024170964, -0.034188237, -470041.94, -18748.725 
1.2504248e+2, 2.639375e+2, -381684.44, -501628.5, -158.66585, 0.00025576277, -0.034500953, -381684.22, -28275.053 
1.2504221e+2, 2.7392507e+2, -283954.47, -403569.53, -233.98186, -0.000020974383, -0.031604927, -283954.03, -28422.908 
1.2504195e+2, 2.839118e+2, -197652.17, -329514.78, -132.81099, -0.00037070393, -0.030652288, -197652.05, -39990.813 
1.2504172e+2, 2.9389766e+2, -99587.266, -231481.33, -84.46541, -0.00082365837, -0.035298094, -99587.21, -39787.29 
1.2504148e+2, 3.0388686e+2, -3397.1821, -83988.25, -6.7115073, -0.0007923893, -0.03528782, -3397.1816, -3397.1816 
1.2504126e+2, 3.1387964e+2, -3469.542, -82912.5, 37.125965, -0.00000082978335, -0.031083701, -3469.5247, -3469.5247 
1.350499e+2, 1.24042206e+2, -1682441.6, -1733676.0, 28.342403, 0.0020204983, -0.039229255, -1682441.6, 41941.68 
1.3504961e+2, 1.3403928e+2, -1584821.9, -1636389.6, -162.59023, -0.0015746701, -0.016842399, -1584821.4, 41590.66 
1.3504934e+2, 1.440353e+2, -1496582.1, -1557943.3, -238.80885, -0.001642869, -0.03901359, -1496581.1, 31869.885 
1.3504909e+2, 1.5403083e+2, -1399710.3, -1461155.3, -346.70923, 0.0012107816, -0.03700165, -1399708.3, 30786.496 
1.3504882e+2, 1.6402571e+2, -1311137.8, -1381969.0, -296.24463, 0.0018300721, -0.03379309, -1311136.5, 21408.33 
1.3504854e+2, 1.7401999e+2, -1213006.5, -1283880.8, -137.59102, -0.00077905756, -0.030418087, -1213006.3, 21594.736 
1.3504824e+2, 1.8401355e+2, -1125079.8, -1206253.0, -290.84396, -0.0014948861, -0.029344698, -1125078.8, 11585.359 
1.3504794e+2, 1.9400635e+2, -1027887.94, -1108713.9, -479.2816, 0.00055968674, -0.03430629, -1027885.06, 10849.518 
1.3504766e+2, 2.0399854e+2, -939505.56, -1029841.3, -447.55676, 0.0010465835, -0.035270978, -939503.4, 1307.806 
1.3504735e+2, 2.1399012e+2, -841444.6, -931715.44, -297.1055, -0.00078005076, -0.032420937, -841443.7, 1449.8739 
1.3504705e+2, 2.2398102e+2, -753533.6, -854226.0, -369.11194, -0.0012661106, -0.030544564, -753532.25, -8549.363 
1.3504674e+2, 2.3397116e+2, -656072.75, -756506.1, -541.6542, 0.00024458466, -0.03258544, -656069.8, -8990.415 
1.3504645e+2, 2.4396068e+2, -567592.2, -677553.7, -470.4415, 0.00076799537, -0.033089817, -567590.2, -18407.979 
1.3504614e+2, 2.5394955e+2, -469728.44, -579462.5, -297.601, -0.00019648777, -0.033566717, -469727.63, -18436.49 
1.3504586e+2, 2.6393774e+2, -381768.0, -501798.1, -270.73697, -0.00090780674, -0.032534674, -381767.4, -28360.64 
1.3504554e+2, 2.7392527e+2, -284083.84, -403837.06, -349.66455, -0.0012195716, -0.03195468, -284082.84, -28553.725 
1.3504529e+2, 2.8391197e+2, -197600.13, -329404.53, -145.21803, -0.000659535, -0.03146716, -197599.97, -39940.62 
1.3504508e+2, 2.9389787e+2, -99518.07, -231328.63, -85.22011, 0.0011948862, -0.033744182, -99518.016, -39720.293 
1.3504481e+2, 3.038871e+2, -3317.5442, -83813.734, -183.97847, 0.0009442981, -0.033573616, -3317.1238, -3317.1238 
1.3504452e+2, 3.1387985e+2, -3384.9229, -82736.1, -162.36826, -0.0024925948, -0.032612227, -3384.5906, -3384.5906 
1.4505363e+2, 1.24042444e+2, -1681933.6, -1733435.3, 191.7783, 0.0016102544, -0.038533658, -1681933.0, 42448.03 
1.4505331e+2, 1.340395e+2, -1585063.9, -1636535.8, -184.98376, -0.0013547847, -0.017035019, -1585063.3, 41346.555 
1.4505303e+2, 1.440355e+2, -1496895.5, -1558084.8, -248.63943, -0.0011755112, -0.039492507, -1496894.5, 31554.414 
1.4505275e+2, 1.5403105e+2, -1399200.9, -1460893.4, -145.63007, 0.0012118042, -0.036420606, -1399200.6, 31291.92 
1.4505246e+2, 1.6402596e+2, -1310527.3, -1381707.6, -110.65109, 0.0016060988, -0.032919493, -1310527.0, 22015.482 
1.4505213e+2, 1.7402022e+2, -1213263.3, -1284048.5, -275.83704, -0.0008690824, -0.030372199, -1213262.1, 21336.605 
1.4505184e+2, 1.8401377e+2, -1125510.6, -1206439.6, -493.7536, -0.0014894519, -0.029807754, -1125507.6, 11154.446 
1.4505151e+2, 1.9400656e+2, -1027587.3, -1108539.4, -316.68735, 0.00059618347, -0.034805886, -1027586.06, 11146.3955 
1.4505118e+2, 2.0399874e+2, -939065.9, -1029688.6, -172.34071, 0.0011001277, -0.03540664, -939065.56, 1743.4844 
1.4505085e+2, 2.1399036e+2, -841596.06, -931860.8, -341.75458, -0.0007327276, -0.031614657, -841594.8, 1296.5784 
1.4505053e+2, 2.2398123e+2, -753794.2, -854270.7, -465.3318, -0.0012940903, -0.029808413, -753792.06, -8811.314 
1.450502e+2, 2.3397137e+2, -655969.7, -756357.8, -250.74615, 0.000038640046, -0.03340468, -655969.06, -8891.792 
1.4504988e+2, 2.4396089e+2, -567484.75, -677558.5, -105.25733, 0.0006058788, -0.03403323, -567484.7, -18304.572 
1.4504956e+2, 2.539498e+2, -469904.56, -579623.0, -312.33286, 0.00001358698, -0.0325031, -469903.7, -18614.783 
1.4504924e+2, 2.6393798e+2, -381865.97, -501775.66, -400.00128, -0.00064901874, -0.031253375, -381864.63, -28460.123 
1.450489e+2, 2.7392548e+2, -283796.3, -403612.72, -285.42374, -0.001396355, -0.03314843, -283795.66, -28268.639 
1.4504862e+2, 2.839122e+2, -197539.06, -329432.44, -65.11157, -0.0009623867, -0.032965235, -197539.03, -39881.77 
1.4504836e+2, 2.938981e+2, -100378.58, -231819.16, -138.91614, 0.0012383814, -0.032255538, -100378.43, -40582.996 
1.450481e+2, 3.0388734e+2, -4053.3447, -83963.945, -208.91318, 0.001111534, -0.031447068, -4052.7986, -4052.7986 
1.4504777e+2, 3.138801e+2, -2836.682, -82234.44, -112.345314, -0.0025456308, -0.03346424, -2836.5227, -2836.5227 
1.5505734e+2, 1.2404275e+2, -1682090.9, -1733752.6, 16.98221, -0.0010967484, -0.033880223, -1682090.9, 42287.176 
1.5505704e+2, 1.3403969e+2, -1585235.6, -1636891.5, -382.8973, 0.0009654155, -0.022201035, -1585232.8, 41175.21 
1.5505672e+2, 1.4403568e+2, -1496722.8, -1557734.0, -240.63727, 0.0021059548, -0.04538965, -1496721.9, 31725.3 
1.550564e+2, 1.5403138e+2, -1398996.0, -1460468.8, -116.51034, -0.0005513719, -0.029875625, -1398995.8, 31493.533 
1.5505607e+2, 1.6402629e+2, -1310809.9, -1382284.3, -286.85852, -0.001418789, -0.024128757, -1310808.6, 21730.516 
1.5505576e+2, 1.7402038e+2, -1213598.3, -1284736.3, -470.7336, 0.00037396737, -0.03417559, -1213595.3, 21001.84 
1.5505542e+2, 1.840139e+2, -1125213.0, -1205825.8, -524.5019, 0.0008700146, -0.037098378, -1125209.5, 11451.122 
1.5505508e+2, 1.9400685e+2, -1027221.8, -1107783.6, -331.45395, -0.0005511422, -0.03223529, -1027220.5, 11509.233 
1.5505472e+2, 2.0399909e+2, -939345.4, -1030263.06, -318.6503, -0.0007919007, -0.029516673, -939344.3, 1461.5554 
1.5505436e+2, 2.1399057e+2, -841948.56, -932585.3, -499.81976, 0.00070709386, -0.032084588, -841945.8, 943.4868 
1.5505402e+2, 2.2398141e+2, -753446.25, -853548.1, -529.3358, 0.0007672492, -0.03301656, -753443.44, -8464.537 
1.5505365e+2, 2.3397166e+2, -655543.0, -755471.7, -306.66403, -0.0012968273, -0.03393527, -655542.06, -8467.437 
1.5505329e+2, 2.439612e+2, -567805.2, -678218.44, -242.2748, -0.0016994621, -0.03282435, -567804.7, -18627.54 
1.5505296e+2, 2.5395003e+2, -470310.8, -580461.75, -455.81146, 0.0003774729, -0.031001732, -470308.9, -19022.422 
1.5505263e+2, 2.639382e+2, -381701.6, -501431.78, -429.01617, 0.0009978346, -0.03064021, -381700.06, -28297.646 
1.5505229e+2, 2.7392572e+2, -283567.84, -403132.3, -302.5188, -0.00057950284, -0.03516772, -283567.1, -28042.275 
1.5505196e+2, 2.8391245e+2, -197666.44, -329690.7, -281.11786, -0.0012891883, -0.03513688, -197665.84, -40010.88 
1.5505163e+2, 2.9389834e+2, -100545.13, -232165.77, -378.06464, -0.0006655111, -0.030826505, -100544.05, -40750.99 
1.5505134e+2, 3.038876e+2, -3882.4768, -83609.81, -116.1588, -0.00026749767, -0.028908657, -3882.3076, -3882.3076 
1.5505108e+2, 3.1388035e+2, -2631.3403, -81798.68, 18.911411, -0.00022095801, -0.033653196, -2631.3357, -2631.3357 
1.6506109e+2, 1.2404303e+2, -1682236.8, -1733883.3, 112.06207, -0.0010567384, -0.034165803, -1682236.5, 42138.7 
1.6506074e+2, 1.3403997e+2, -1584710.3, -1636722.5, -185.05696, 0.0010357252, -0.022114018, -1584709.6, 41695.66 
1.6506042e+2, 1.4403595e+2, -1496083.0, -1557512.3, -40.794117, 0.0021766485, -0.045382883, -1496083.0, 32361.535 
1.6506007e+2, 1.5403165e+2, -1399061.3, -1460591.3, -184.38782, -0.00071747135, -0.029928163, -1399060.8, 31426.068 
1.6505972e+2, 1.6402654e+2, -1311073.1, -1382409.4, -447.6763, -0.0015684486, -0.024248248, -1311070.3, 21466.385 
1.6505937e+2, 1.7402065e+2, -1213462.5, -1284658.8, -287.9351, 0.0006133851, -0.034373958, -1213461.3, 21133.252 
1.65059e+2, 1.8401414e+2, -1124950.3, -1205729.4, -201.68816, 0.0011779614, -0.037056554, -1124949.8, 11708.406 
1.6505864e+2, 1.9400711e+2, -1027158.2, -1107789.9, -401.7406, -0.0006501511, -0.031485517, -1027156.2, 11570.962 
1.6505826e+2, 2.0399934e+2, -939351.94, -1030220.6, -577.565, -0.001074653, -0.028914727, -939348.25, 1455.0228 
1.6505788e+2, 2.1399081e+2, -841965.44, -932539.44, -372.94742, 0.00057267566, -0.032885555, -841963.94, 922.88055 
1.650575e+2, 2.2398168e+2, -753537.56, -853633.6, -262.6398, 0.0008210252, -0.03393396, -753536.9, -8560.435 
1.650571e+2, 2.3397191e+2, -655651.4, -755577.06, -509.48523, -0.0010043174, -0.033062756, -655648.8, -8576.745 
1.6505672e+2, 2.4396145e+2, -567817.9, -678174.4, -616.17285, -0.0015123143, -0.031752136, -567814.4, -18639.857 
1.6505635e+2, 2.539503e+2, -470227.5, -580360.3, -377.18564, -0.00005109241, -0.0321017, -470226.2, -18942.15 
1.6505599e+2, 2.6393846e+2, -381764.2, -501496.56, -118.87085, 0.0005839768, -0.031961218, -381764.06, -28364.1 
1.6505565e+2, 2.73926e+2, -283978.25, -403377.22, -256.94824, -0.000034699675, -0.033777356, -283977.7, -28455.531 
1.6505529e+2, 2.8391272e+2, -197891.39, -329691.72, -369.0388, -0.0007579423, -0.033419803, -197890.36, -40238.094 
1.6505492e+2, 2.9389858e+2, -100026.4, -231791.11, -219.47171, -0.0016239941, -0.032390706, -100026.03, -40235.484 
1.6505459e+2, 3.0388784e+2, -3545.5022, -83591.24, 172.29198, -0.0013076299, -0.031027403, -3545.1313, -3545.1313 
1.6505435e+2, 3.1388062e+2, -3469.4314, -82381.15, -16.770212, 0.00081287214, -0.03214009, -3469.428, -3469.428 
1.7506485e+2, 1.2404328e+2, -1682160.1, -1733726.6, 105.232285, 0.0016496901, -0.039267123, -1682159.9, 42212.824 
1.7506446e+2, 1.3404033e+2, -1584650.4, -1636599.1, -206.90613, -0.0010976274, -0.016894087, -1584649.6, 41752.055 
1.750641e+2, 1.4403632e+2, -1496363.6, -1558086.8, -183.94185, -0.0009003695, -0.03960823, -1496363.0, 32077.953 
1.7506376e+2, 1.5403184e+2, -1399380.5, -1461243.5, -336.65808, 0.0006663725, -0.03642616, -1399378.8, 31106.098 
1.7506339e+2, 1.6402672e+2, -1310797.6, -1381840.3, -545.53766, 0.0010811065, -0.033071753, -1310793.5, 21741.555 
1.7506297e+2, 1.7402098e+2, -1213119.8, -1283956.4, -381.5417, -0.00013375381, -0.031046804, -1213117.8, 21473.514 
1.7506258e+2, 1.8401453e+2, -1125279.1, -1206410.1, -271.39847, -0.0005282096, -0.02984391, -1125278.1, 11376.31 
1.7506221e+2, 1.9400735e+2, -1027568.44, -1108628.1, -465.45413, 0.00026885542, -0.032513574, -1027565.75, 11159.049 
1.750618e+2, 2.0399955e+2, -939028.3, -1029543.1, -728.7359, 0.00020524288, -0.033481233, -939022.44, 1778.9451 
1.7506136e+2, 2.139911e+2, -841554.2, -931690.9, -536.62524, -0.0011134443, -0.034009114, -841551.0, 1332.9803 
1.7506094e+2, 2.2398199e+2, -753929.44, -854447.8, -331.7846, -0.0011006196, -0.032607544, -753928.4, -8955.001 
1.7506057e+2, 2.3397216e+2, -656140.4, -756583.06, -564.39154, 0.000874822, -0.030816283, -656137.25, -9067.668 
1.7506018e+2, 2.4396169e+2, -567449.25, -677402.6, -727.5063, 0.0011023361, -0.030814, -567444.44, -18272.145 
1.7505974e+2, 2.5395054e+2, -469757.75, -579383.9, -498.03336, -0.0012654853, -0.03574615, -469755.5, -18473.93 
1.7505935e+2, 2.6393872e+2, -381971.06, -501923.84, -228.38414, -0.0018543458, -0.035171315, -381970.63, -28573.426 
1.7505899e+2, 2.739263e+2, -284268.0, -403971.78, -362.2921, 0.00023466867, -0.029052483, -284266.9, -28747.814 
1.7505862e+2, 2.8391302e+2, -197642.45, -329166.38, -420.7196, 0.00059830816, -0.027892938, -197641.11, -39991.934 
1.7505823e+2, 2.9389885e+2, -99711.836, -231132.94, -267.25476, -0.001663989, -0.03688355, -99711.29, -39923.395 
1.7505787e+2, 3.0388808e+2, -3892.2366, -84307.766, 14.719228, -0.002023079, -0.03771092, -3892.234, -3892.234 
1.7505759e+2, 3.1388092e+2, -3899.8997, -83268.75, -185.23679, 0.0005535549, -0.028976958, -3899.4673, -3899.4673 
1.850686e+2, 1.2404359e+2, -1681888.1, -1733610.5, 101.37856, 0.0017464913, -0.039422836, -1681887.9, 42481.723 
1.8506819e+2, 1.3404064e+2, -1584483.6, -1636560.8, -317.6739, -0.0012031656, -0.016521381, -1584481.8, 41916.895 
1.850678e+2, 1.4403662e+2, -1496270.5, -1558013.4, -336.56308, -0.0009690491, -0.039431058, -1496268.8, 32169.287 
1.8506743e+2, 1.5403216e+2, -1399449.4, -1461242.0, -154.33911, 0.00081095204, -0.036774777, -1399449.0, 31032.797 
1.8506703e+2, 1.6402702e+2, -1310777.6, -1381875.4, -169.00635, 0.0011958777, -0.033381857, -1310777.3, 21754.803 
1.8506661e+2, 1.7402129e+2, -1212519.1, -1283718.5, -374.6552, -0.00039971722, -0.030499518, -1212517.1, 22071.064 
1.850662e+2, 1.8401483e+2, -1124720.8, -1206151.3, -494.27524, -0.0008132421, -0.029296363, -1124717.8, 11933.691 
1.8506578e+2, 1.9400765e+2, -1028032.1, -1108862.3, -294.86865, 0.0004886944, -0.033219084, -1028031.0, 10690.916 
1.8506534e+2, 2.0399983e+2, -939672.1, -1029876.6, -326.66217, 0.0005410963, -0.034286153, -939670.94, 1127.5613 
1.8506488e+2, 2.139914e+2, -841121.44, -931503.9, -556.1738, -0.0012392992, -0.033213098, -841118.0, 1763.0051 
1.8506444e+2, 2.239823e+2, -753205.6, -854089.06, -551.3719, -0.0013572801, -0.03153839, -753202.6, -8232.269 
1.8506403e+2, 2.3397246e+2, -656337.2, -756668.3, -290.8629, 0.000977527, -0.031447385, -656336.4, -9269.647 
1.850636e+2, 2.4396197e+2, -567972.0, -677636.0, -220.19012, 0.0013042006, -0.031713016, -567971.56, -18802.059 
1.8506314e+2, 2.5395086e+2, -469724.47, -579347.3, -453.16806, -0.0013616686, -0.03476559, -469722.6, -18444.05 
1.850627e+2, 2.6393905e+2, -381764.72, -501762.22, -444.3413, -0.002114078, -0.033935003, -381763.1, -28368.979 
1.8506232e+2, 2.7392662e+2, -284534.13, -404035.2, -252.46234, 0.000025174253, -0.030002123, -284533.6, -29017.447 
1.8506192e+2, 2.8391334e+2, -198122.6, -329431.28, -99.41694, 0.0006659099, -0.029168798, -198122.52, -40476.285 
1.8506153e+2, 2.9389918e+2, -99861.46, -231251.13, -289.48743, -0.0009872528, -0.035666972, -99860.83, -40076.055 
1.8506116e+2, 3.0388844e+2, -3853.9272, -84219.86, -205.4027, -0.0015486735, -0.03622977, -3853.402, -3853.402 
1.850608e+2, 3.138812e+2, -4085.6663, -83276.6, 69.91872, -0.00040420878, -0.030638289, -4085.6045, -4085.6045 
1.9507234e+2, 1.2404396e+2, -1681979.8, -1733803.3, 76.60541, -0.00072212174, -0.034765054, -1681979.6, 42386.574 
1.9507197e+2, 1.3404089e+2, -1584601.1, -1636794.8, -358.1525, 0.000663703, -0.020869195, -1584598.6, 41797.49 
1.9507156e+2, 1.4403687e+2, -1495968.4, -1557384.0, -517.8058, 0.0018813482, -0.044706523, -1495964.1, 32471.408 
1.9507109e+2, 1.5403256e+2, -1399092.5, -1460515.3, -352.45953, -0.00026383938, -0.031129168, -1399090.5, 31387.307 
1.9507065e+2, 1.6402747e+2, -1311097.9, -1382543.0, -137.0088, -0.0011698332, -0.025395643, -1311097.5, 21430.16 
1.9507027e+2, 1.7402157e+2, -1212928.3, -1284546.8, -313.78806, -0.0002092153, -0.03265922, -1212926.9, 21658.576 
1.9506982e+2, 1.8401508e+2, -1124424.3, -1205523.0, -787.1702, 0.0002674555, -0.035242025, -1124416.6, 12232.545 
1.9506933e+2, 1.94008e+2, -1027642.4, -1108067.4, -628.79913, 0.000016245798, -0.033608045, -1027637.44, 11081.091 
1.9506884e+2, 2.0400022e+2, -940011.06, -1030590.25, -253.81123, -0.00005292042, -0.03142187, -940010.4, 784.3852 
1.9506842e+2, 2.1399173e+2, -841558.3, -932394.25, -435.28317, 0.00014721921, -0.030542636, -841556.2, 1321.6705 
1.9506797e+2, 2.2398259e+2, -752823.2, -853279.1, -806.66095, -0.000001455938, -0.03071898, -752816.7, -7849.239 
1.9506747e+2, 2.3397279e+2, -655851.06, -755662.7, -591.3759, -0.0006601468, -0.0348865, -655847.56, -8784.033 
1.9506697e+2, 2.4396233e+2, -568308.8, -678338.94, -230.03886, -0.0008590666, -0.034400605, -568308.3, -19142.29 
1.9506656e+2, 2.5395122e+2, -470164.63, -580250.9, -426.25327, -0.00037550152, -0.029271025, -470162.97, -18887.977 
1.9506611e+2, 2.6393938e+2, -381493.97, -501189.47, -646.9916, -0.00025225498, -0.028358994, -381490.47, -28099.766 
1.9506563e+2, 2.7392688e+2, -284174.16, -403288.66, -484.24255, -0.0006607593, -0.03649284, -284172.2, -28658.87 
1.950652e+2, 2.839136e+2, -198411.44, -330031.66, -86.69198, -0.0005387175, -0.037086137, -198411.38, -40767.93 
1.9506484e+2, 2.9389957e+2, -100236.23, -232017.11, -244.64308, 0.00038172377, -0.028874287, -100235.766, -40454.58 
1.9506446e+2, 3.0388883e+2, -3443.1536, -83349.695, -404.082, 0.00008113518, -0.026770055, -3441.1104, -3441.1104 
1.9506401e+2, 3.1388152e+2, -3573.6338, -82205.5, -162.27237, -0.0020568098, -0.036994938, -3573.2988, -3573.2988 
2.0507613e+2, 1.2404432e+2, -1681168.1, -1733407.8, 271.70703, -0.0006554057, -0.034224402, -1681166.8, 43195.85 
2.050757e+2, 1.3404125e+2, -1584954.1, -1636996.8, -89.44, 0.0007278491, -0.021113694, -1584954.0, 41438.684 
2.0507525e+2, 1.4403723e+2, -1496438.3, -1557668.6, -191.09471, 0.0019163913, -0.04515981, -1496437.6, 31994.434 
2.0507479e+2, 1.5403292e+2, -1398160.6, -1460119.8, -407.29926, -0.0004955541, -0.030279048, -1398157.9, 32316.42 
2.0507433e+2, 1.6402781e+2, -1310119.4, -1382109.1, -442.91827, -0.0013240606, -0.024451768, -1310116.6, 22407.652 
2.050739e+2, 1.7402191e+2, -1213898.5, -1285060.1, -254.80786, 0.00022338243, -0.033385962, -1213897.6, 20684.55 
2.0507343e+2, 1.8401541e+2, -1125572.4, -1206048.9, -496.087, 0.00067695754, -0.036228366, -1125569.4, 11076.511 
2.050729e+2, 1.9400835e+2, -1026493.44, -1107469.6, -690.0382, -0.0004924252, -0.032788523, -1026487.56, 12227.52 
2.0507239e+2, 2.0400056e+2, -938496.25, -1029916.75, -517.8089, -0.00065516995, -0.030226031, -938493.3, 2297.9773 
2.0507194e+2, 2.1399206e+2, -842355.56, -932855.3, -321.41855, 0.00065925857, -0.03107436, -842354.44, 520.1993 
2.0507143e+2, 2.2398293e+2, -754183.56, -853839.8, -520.8293, 0.00065520057, -0.031704612, -754180.8, -9216.572 
2.050709e+2, 2.3397315e+2, -655454.4, -755352.3, -719.14825, -0.0012948178, -0.03443424, -655449.2, -8389.156 
2.0507039e+2, 2.4396268e+2, -567493.7, -678018.75, -525.62744, -0.0016908057, -0.033557527, -567491.2, -18328.686 
2.0506994e+2, 2.5395155e+2, -470630.22, -580574.56, -343.27142, 0.0002273551, -0.029602168, -470629.13, -19357.484 
2.0506947e+2, 2.6393974e+2, -382177.3, -501438.28, -404.12256, 0.00069363817, -0.029038388, -382175.94, -28788.52 
2.0506896e+2, 2.7392724e+2, -283762.1, -402987.66, -542.4544, -0.0010161215, -0.0362738, -283759.63, -28249.77 
2.050685e+2, 2.8391397e+2, -197897.17, -329754.6, -207.95016, -0.0013659982, -0.036599778, -197896.84, -40256.926 
2.0506811e+2, 2.938999e+2, -101001.01, -232367.84, 23.906347, 0.0003460053, -0.029077219, -101001.0, -41223.293 
2.0506771e+2, 3.038892e+2, -4421.4517, -83556.1, -6.247976, 0.0004488368, -0.026968736, -4421.451, -4421.451 
2.0506723e+2, 3.1388193e+2, -3514.817, -81882.89, -107.647125, -0.0018936455, -0.03613295, -3514.6692, -3514.6692 
2.1507998e+2, 1.240447e+2, -1681085.0, -1733223.8, -40.53636, 0.0018526219, -0.037681893, -1681085.0, 43273.863 
2.1507941e+2, 1.340417e+2, -1584873.4, -1636844.5, -430.4133, -0.0009651042, -0.017369756, -1584869.9, 41518.348 
2.1507892e+2, 1.4403768e+2, -1496796.1, -1558420.4, -72.53248, -0.00079516147, -0.040930852, -1496796.1, 31631.598 
2.1507852e+2, 1.5403321e+2, -1398585.5, -1460978.4, -235.69145, 0.000077869314, -0.034086213, -1398584.5, 31886.729 
2.1507806e+2, 1.640281e+2, -1309867.8, -1381572.4, -830.0566, 0.00065946806, -0.030348204, -1309858.3, 22663.361 
2.150775e+2, 1.7402229e+2, -1213552.4, -1284362.6, -703.5836, 0.0008792961, -0.032717984, -1213545.4, 21032.975 
2.1507697e+2, 1.8401583e+2, -1125818.5, -1206575.4, -299.58115, 0.00042073542, -0.032394387, -1125817.4, 10824.378 
2.150765e+2, 1.940087e+2, -1026829.4, -1108143.1, -420.96747, -0.0010440908, -0.030793728, -1026827.2, 11884.404 
2.1507598e+2, 2.040009e+2, -938252.8, -1029386.56, -925.6972, -0.0012745442, -0.030651458, -938243.4, 2544.6858 
2.1507542e+2, 2.1399242e+2, -842026.94, -932183.06, -805.8308, 0.0003109552, -0.034721024, -842019.7, 851.5088 
2.1507488e+2, 2.2398327e+2, -754433.8, -854373.7, -426.08636, 0.00062355364, -0.034443278, -754432.0, -9471.336 
2.1507438e+2, 2.3397353e+2, -655785.4, -756028.94, -557.5625, -0.0009608944, -0.030195706, -655782.3, -8725.945 
2.1507385e+2, 2.4396306e+2, -567265.8, -677529.94, -783.4574, -0.0012377248, -0.029279795, -567260.25, -18101.367 
2.1507332e+2, 2.5395185e+2, -470330.72, -579951.25, -650.0815, 0.0004489962, -0.03560392, -470326.88, -19058.334 
2.1507281e+2, 2.6394007e+2, -382345.94, -501789.03, -387.65143, 0.0007411427, -0.03580512, -382344.7, -28960.424 
2.150723e+2, 2.7392766e+2, -283992.63, -403455.63, -486.5755, -0.0010609858, -0.029520955, -283990.63, -28484.844 
2.1507183e+2, 2.839144e+2, -197588.48, -329099.75, -461.93073, -0.0018436552, -0.027930582, -197586.86, -39951.215 
2.1507135e+2, 2.9390028e+2, -100624.69, -231579.89, -269.43613, -0.0010661827, -0.036092803, -100624.13, -40849.816 
2.1507089e+2, 3.038895e+2, -4503.913, -83726.516, -6.41536, -0.00041888555, -0.036577, -4503.9126, -4503.9126 
2.1507047e+2, 3.138824e+2, -3653.795, -82171.484, -72.03714, 0.000023797602, -0.028247755, -3653.729, -3653.729 
2.2508375e+2, 1.2404511e+2, -1681868.4, -1733681.8, 18.53504, 0.0019372788, -0.03840042, -1681868.4, 42486.383 
2.2508317e+2, 1.3404213e+2, -1583629.1, -1636352.0, -536.40717, -0.0012496393, -0.016487325, -1583623.6, 42760.4 
2.2508265e+2, 1.4403808e+2, -1495315.0, -1557783.8, -190.36804, -0.0009451736, -0.040176556, -1495314.4, 33109.242 
2.2508223e+2, 1.5403362e+2, -1399523.1, -1461516.9, 10.6087265, 0.0006017408, -0.0351232, -1399523.1, 30944.375 
2.2508173e+2, 1.6402847e+2, -1311043.6, -1382085.5, -426.9697, 0.001126423, -0.03155539, -1311041.1, 21476.682 
2.2508113e+2, 1.740227e+2, -1212004.0, -1283536.1, -590.01166, 0.00023442584, -0.031737752, -1211999.1, 22575.195 
2.2508058e+2, 1.8401626e+2, -1124033.6, -1205835.6, -314.98306, -0.0003134058, -0.030932795, -1124032.4, 12605.253 
2.2508009e+2, 1.940091e+2, -1028127.5, -1108924.8, -207.87502, -0.00037889052, -0.031340394, -1028127.0, 10580.825 
2.2507955e+2, 2.0400128e+2, -940068.56, -1030124.5, -639.1682, -0.00039454363, -0.031816907, -940064.06, 720.33167 
2.2507893e+2, 2.1399282e+2, -841054.1, -931536.1, -737.05206, -0.00033312847, -0.034458477, -841048.1, 1819.1428 
2.2507834e+2, 2.2398369e+2, -752853.2, -853801.56, -408.85855, -0.00029799042, -0.033604257, -752851.5, -7894.8555 
2.2507782e+2, 2.339739e+2, -656248.56, -756490.5, -358.34857, -0.00031924638, -0.030041266, -656247.3, -9194.724 
2.2507729e+2, 2.4396344e+2, -568184.8, -677760.6, -568.28076, -0.0002751154, -0.029559666, -568181.9, -19026.65 
2.2507669e+2, 2.5395226e+2, -470046.34, -579548.44, -577.9361, -0.00012253437, -0.03594839, -470043.3, -18778.69 
2.2507614e+2, 2.6394045e+2, -381989.97, -501763.78, -285.82175, -0.00025361634, -0.035832237, -381989.28, -28609.057 
2.2507563e+2, 2.7392808e+2, -284607.22, -403949.03, -272.47134, -0.00080567517, -0.028654583, -284606.6, -29104.725 
2.2507513e+2, 2.8391483e+2, -198248.84, -329192.22, -391.3594, -0.0011289353, -0.02713661, -198247.67, -40615.94 
2.2507459e+2, 2.9390067e+2, -100608.73, -231295.81, -429.54953, -0.00109939, -0.036834165, -100607.31, -40837.02 
2.250741e+2, 3.0388993e+2, -4418.8877, -83972.375, -107.41577, -0.00083679176, -0.037523337, -4418.7427, -4418.7427 
2.2507368e+2, 3.138828e+2, -3544.0693, -82475.67, -237.37027, -0.0002162148, -0.027357046, -3543.3557, -3543.3557 
2.350875e+2, 1.2404558e+2, -1682044.6, -1734057.0, 213.95682, -0.0003511035, -0.036479548, -1682043.8, 42306.49 
2.3508699e+2, 1.3404253e+2, -1583851.6, -1636794.4, -341.82874, -0.00017963085, -0.018377766, -1583849.4, 42530.8 
2.3508649e+2, 1.4403847e+2, -1495077.5, -1557276.5, -589.1358, 0.0013750683, -0.04278238, -1495072.0, 33347.914 
2.350859e+2, 1.540341e+2, -1399216.3, -1460897.1, -452.7616, 0.0010630976, -0.033476718, -1399212.9, 31249.986 
2.3508534e+2, 1.6402897e+2, -1311215.5, -1382455.1, -238.45679, 0.000113817136, -0.028219633, -1311214.6, 21298.246 
2.350848e+2, 1.7402315e+2, -1212249.5, -1284023.3, -329.0668, -0.001679161, -0.030457463, -1212248.0, 22322.066 
2.3508425e+2, 1.8401666e+2, -1123958.3, -1205656.4, -773.1203, -0.0015216885, -0.03177095, -1123950.9, 12682.748 
2.3508365e+2, 1.940095e+2, -1027994.8, -1108662.8, -744.1483, 0.0014552422, -0.03435182, -1027987.94, 10715.872 
2.3508304e+2, 2.040017e+2, -940130.4, -1030272.1, -474.13626, 0.0019290562, -0.0336971, -940127.9, 652.3593 
2.3508246e+2, 2.1399328e+2, -841157.75, -931738.8, -494.8872, -0.0012726577, -0.030404728, -841155.06, 1707.6443 
2.3508187e+2, 2.2398417e+2, -752856.7, -853785.94, -718.23584, -0.002093345, -0.029297372, -752851.56, -7899.4004 
2.3508127e+2, 2.339743e+2, -656230.5, -756447.8, -728.1076, 0.0006124004, -0.033849105, -656225.2, -9176.407 
2.3508067e+2, 2.4396382e+2, -568148.6, -677688.06, -603.29254, 0.0011720827, -0.03426004, -568145.25, -18993.82 
2.3508006e+2, 2.5395274e+2, -470012.75, -579474.06, -576.0591, -0.0014714708, -0.030801527, -470009.72, -18749.809 
2.3507948e+2, 2.63941e+2, -382013.38, -501803.1, -459.88486, -0.0022661733, -0.029317055, -382011.6, -28636.217 
2.3507895e+2, 2.7392843e+2, -284638.6, -404005.28, -464.67673, -0.0002678338, -0.03350399, -284636.78, -29138.686 
2.350784e+2, 2.8391516e+2, -198279.97, -329251.72, -518.31494, 0.00073294644, -0.033988297, -198277.92, -40649.742 
2.3507783e+2, 2.9390115e+2, -100633.664, -231352.1, -550.66656, 0.00020063901, -0.03147928, -100631.34, -40865.688 
2.3507732e+2, 3.038904e+2, -4694.8086, -84543.914, -69.49127, -0.00082671345, -0.030053446, -4694.748, -4694.748 
2.3507689e+2, 3.1388313e+2, -3871.8706, -83123.56, -175.66573, -0.0025731698, -0.03324826, -3871.4812, -3871.4812 
2.450913e+2, 1.2404604e+2, -1680625.9, -1733365.6, 312.02332, -0.0007766229, -0.035690945, -1680624.1, 43721.586 
2.4509078e+2, 1.3404298e+2, -1584573.3, -1637179.3, -63.44282, 0.00031063144, -0.019273805, -1584573.1, 41802.613 
2.4509025e+2, 1.4403893e+2, -1496110.8, -1557757.8, -388.06696, 0.0019758702, -0.043968916, -1496108.4, 32307.148 
2.4508962e+2, 1.5403455e+2, -1398043.0, -1460296.9, -545.9344, 0.00044336575, -0.03222486, -1398038.1, 32420.074 
2.4508902e+2, 1.6402945e+2, -1309848.4, -1381917.3, -352.9396, -0.00067995675, -0.026530098, -1309846.8, 22661.584 
2.4508847e+2, 1.7402358e+2, -1213373.4, -1284715.3, -289.78604, -0.0011264967, -0.031237092, -1213372.3, 21193.477 
2.4508788e+2, 1.8401709e+2, -1125324.5, -1206200.4, -768.63904, -0.0006826722, -0.033268366, -1125317.3, 11312.226 
2.4508722e+2, 1.9400994e+2, -1026736.25, -1107903.5, -783.0304, 0.0010321275, -0.034000743, -1026728.75, 11970.587 
2.4508658e+2, 2.0400217e+2, -938468.94, -1029653.25, -440.47815, 0.0011792823, -0.03256449, -938466.8, 2308.857 
2.4508598e+2, 2.1399373e+2, -841827.4, -932289.5, -497.15866, -0.00097517244, -0.03005951, -841824.6, 1033.7698 
2.4508536e+2, 2.2398458e+2, -754075.56, -854130.8, -794.95825, -0.00150905, -0.02954699, -754069.25, -9121.3545 
2.4508472e+2, 2.3397474e+2, -656099.06, -756086.56, -646.2255, 0.0003542123, -0.03440015, -656094.9, -9050.6 
2.4508408e+2, 2.4396428e+2, -567772.56, -677729.56, -397.32318, 0.0006510275, -0.034451146, -567771.1, -18624.234 
2.4508345e+2, 2.539532e+2, -470219.88, -579858.56, -579.9092, -0.0013940017, -0.029648023, -470216.78, -18961.307 
2.4508284e+2, 2.639414e+2, -382174.7, -501594.7, -600.4321, -0.0018909255, -0.028333656, -382171.66, -28800.658 
2.4508226e+2, 2.7392888e+2, -284719.2, -403692.53, -362.35355, -0.000049624905, -0.03495658, -284718.06, -29224.469 
2.4508166e+2, 2.839156e+2, -198443.05, -329621.8, -196.97314, 0.00063985254, -0.03560446, -198442.75, -40819.11 
2.4508108e+2, 2.9390162e+2, -100107.18, -231467.56, -423.5535, -0.00043266293, -0.029812643, -100105.81, -40344.65 
2.4508053e+2, 3.0389088e+2, -4215.124, -83986.375, -46.44946, -0.001288744, -0.027989624, -4215.0967, -4215.0967 
2.4508007e+2, 3.1388357e+2, -5671.026, -83579.32, 407.6891, -0.0017799144, -0.035200484, -5668.8926, -5668.8926 
2.5509518e+2, 1.24046534e+2, -1680454.9, -1733005.4, -15.317292, 0.00057675736, -0.03598377, -1680454.9, 43886.105 
2.5509456e+2, 1.3404348e+2, -1584405.4, -1636840.6, -419.9674, 0.00023117819, -0.019210208, -1584402.0, 41968.688 
2.5509396e+2, 1.4403942e+2, -1496319.5, -1558195.3, -321.51672, 0.0009072181, -0.043782514, -1496317.9, 32092.613 
2.5509337e+2, 1.5403503e+2, -1398300.6, -1460819.3, -430.9299, -0.0012317376, -0.03135555, -1398297.6, 32155.877 
2.5509274e+2, 1.6402991e+2, -1309838.5, -1381887.5, -690.3418, -0.0012725488, -0.0264282, -1309831.9, 22671.977 
2.5509214e+2, 1.7402402e+2, -1213324.8, -1284622.4, -674.95776, 0.0018033457, -0.03400561, -1213318.4, 21243.133 
2.550915e+2, 1.8401754e+2, -1125256.9, -1206070.0, -671.78925, 0.0021271089, -0.035399638, -1125251.3, 11373.8 
2.550908e+2, 1.9401047e+2, -1026679.94, -1107775.5, -634.9278, -0.0015809906, -0.03040163, -1026675.0, 12019.332 
2.5509015e+2, 2.0400266e+2, -938642.2, -1029993.3, -753.0344, -0.0025512448, -0.028517965, -938636.0, 2134.707 
2.550895e+2, 2.1399415e+2, -842017.56, -932678.7, -857.24133, 0.0005115846, -0.033301413, -842009.44, 844.8852 
2.5508884e+2, 2.2398499e+2, -753778.25, -853519.5, -848.794, 0.0013656868, -0.034201466, -753771.0, -8827.081 
2.5508812e+2, 2.3397528e+2, -655751.25, -755365.44, -670.0299, -0.0010631758, -0.031798735, -655746.7, -8707.539 
2.5508747e+2, 2.4396482e+2, -568087.6, -678375.4, -529.4094, -0.0017846669, -0.030276531, -568085.06, -18943.516 
2.5508684e+2, 2.5395364e+2, -470614.03, -580664.6, -718.63934, 0.00005314114, -0.03236463, -470609.34, -19358.01 
2.5508618e+2, 2.639418e+2, -381809.63, -500827.9, -774.1897, 0.0007843692, -0.03270838, -381804.6, -28437.52 
2.5508553e+2, 2.7392945e+2, -284261.16, -402739.0, -546.0091, -0.00015231175, -0.03311969, -284258.66, -28770.209 
2.550849e+2, 2.839162e+2, -198781.31, -330316.28, -153.52902, -0.0013569627, -0.0321462, -198781.14, -41162.953 
2.5508434e+2, 2.9390204e+2, -100555.16, -232369.55, -346.50232, -0.0029436732, -0.031719577, -100554.25, -40797.438 
2.5508377e+2, 3.038913e+2, -3562.9077, -82606.66, -531.47675, -0.002212434, -0.03116837, -3559.3345, -3559.3345 
2.550832e+2, 3.138842e+2, -4857.0283, -81903.664, -156.57877, 0.002040876, -0.03335144, -4856.71, -4856.71 
2.6509902e+2, 1.24047056e+2, -1680729.0, -1733209.5, 175.11029, 0.0013598654, -0.03674044, -1680728.5, 43607.29 
2.6509836e+2, 1.3404404e+2, -1583712.3, -1636614.1, -489.8468, -0.00039009325, -0.01785202, -1583707.8, 42657.73 
2.6509768e+2, 1.4403996e+2, -1495437.4, -1557826.1, -262.36877, 0.0000574437, -0.042494435, -1495436.3, 32969.04 
2.650971e+2, 1.5403554e+2, -1398459.8, -1460951.6, -130.82307, -0.0008324959, -0.032393456, -1398459.5, 31989.135 
2.6509646e+2, 1.6403042e+2, -1310117.5, -1382006.4, -463.41055, -0.0004984088, -0.027949817, -1310114.5, 22384.424 
2.6509577e+2, 1.7402455e+2, -1212486.9, -1284190.9, -496.8679, 0.0016826396, -0.033334427, -1212483.4, 22072.959 
2.6509508e+2, 1.8401806e+2, -1124408.1, -1205774.4, -389.02988, 0.0016358218, -0.033946972, -1124406.3, 12213.678 
2.650944e+2, 1.9401097e+2, -1027212.1, -1108167.4, -484.73785, -0.0016835609, -0.030231273, -1027209.25, 11480.17 
2.650937e+2, 2.0400317e+2, -939423.06, -1030228.0, -748.01056, -0.002417117, -0.02911452, -939416.94, 1348.895 
2.6509303e+2, 2.1399464e+2, -841816.4, -932406.9, -566.3284, 0.0006562351, -0.033891443, -841812.8, 1036.5105 
2.6509228e+2, 2.2398551e+2, -753336.5, -853466.25, -419.33554, 0.0014457921, -0.034332037, -753334.75, -8395.882 
2.650916e+2, 2.3397578e+2, -655639.9, -755511.2, -712.1069, -0.0011625191, -0.030809984, -655634.75, -8600.593 
2.6509088e+2, 2.4396533e+2, -568014.44, -678122.06, -738.91754, -0.0018866832, -0.02948333, -568009.5, -18872.887 
2.650902e+2, 2.5395414e+2, -470803.47, -580492.1, -369.44965, 0.0002121177, -0.033713, -470802.25, -19555.92 
2.6508954e+2, 2.6394233e+2, -382272.63, -501259.56, -281.8467, 0.00086941104, -0.03405398, -382271.97, -28909.953 
2.6508883e+2, 2.7392995e+2, -284264.9, -403004.53, -693.7518, -0.000649675, -0.03125091, -284260.88, -28777.535 
2.6508817e+2, 2.839167e+2, -198678.22, -329876.25, -404.8588, -0.0017290426, -0.029944606, -198676.97, -41063.957 
2.6508757e+2, 2.9390258e+2, -101907.734, -232555.02, 148.81349, -0.002124985, -0.03355307, -101907.56, -42155.97 
2.6508698e+2, 3.0389184e+2, -4987.344, -83387.25, 19.655523, -0.0013831964, -0.033638626, -4987.3394, -4987.3394 
2.6508632e+2, 3.1388476e+2, -3337.0212, -81334.14, -549.8659, 0.0010748053, -0.031233922, -3333.1448, -3333.1448 
2.7510288e+2, 1.2404764e+2, -1680988.9, -1733740.4, 89.2407, 0.0015567424, -0.03793822, -1680988.8, 43341.305 
2.7510214e+2, 1.340446e+2, -1584007.4, -1637223.0, -586.0063, -0.0015431967, -0.0152473645, -1584000.9, 42358.914 
2.7510148e+2, 1.4404052e+2, -1495306.1, -1557558.5, -414.76254, -0.00059220387, -0.04014627, -1495303.4, 33096.402 
2.7510086e+2, 1.5403607e+2, -1398289.6, -1460594.4, -290.10672, 0.0015523783, -0.03526682, -1398288.3, 32155.086 
2.751002e+2, 1.6403094e+2, -1310117.9, -1381998.1, -567.3902, 0.0015784192, -0.03103048, -1310113.4, 22380.242 
2.7509943e+2, 1.7402516e+2, -1212501.4, -1284217.3, -593.7219, -0.0013868561, -0.029351426, -1212496.4, 22053.977 
2.7509868e+2, 1.8401866e+2, -1124614.5, -1206198.5, -589.9479, -0.0020517632, -0.029039675, -1124610.3, 12003.711 
2.7509803e+2, 1.9401148e+2, -1027442.9, -1108638.1, -693.4936, 0.0006233911, -0.033363584, -1027436.94, 11247.579 
2.7509728e+2, 2.0400365e+2, -939089.75, -1029535.8, -865.2596, 0.0014316567, -0.03418153, -939081.44, 1679.63 
2.750965e+2, 2.1399525e+2, -841418.25, -931585.4, -678.0461, -0.00050024485, -0.031923093, -841413.2, 1430.2462 
2.7509576e+2, 2.2398615e+2, -753821.75, -854468.4, -526.4743, -0.001179122, -0.030095775, -753819.0, -8886.27 
2.7509505e+2, 2.3397629e+2, -656232.0, -756723.5, -811.93866, 0.0000008863239, -0.031379253, -656225.44, -9196.147 
2.750943e+2, 2.439658e+2, -567453.6, -676945.94, -940.41833, 0.0002517037, -0.031955227, -567445.56, -18313.557 
2.7509356e+2, 2.5395474e+2, -470105.06, -579040.6, -590.2155, -0.0008797949, -0.033738032, -470101.88, -18861.365 
2.7509284e+2, 2.6394296e+2, -382889.97, -502537.53, -355.1329, -0.0015551161, -0.032472953, -382888.9, -29533.04 
2.7509212e+2, 2.739305e+2, -285042.3, -404606.56, -740.3933, -0.0015365744, -0.029351741, -285037.72, -29559.436 
2.7509144e+2, 2.8391722e+2, -197881.72, -328211.6, -692.7131, -0.00054295827, -0.028953778, -197878.03, -40269.887 
2.7509078e+2, 2.939032e+2, -100916.68, -230494.92, -178.87758, 0.0019008486, -0.03531415, -100916.43, -41170.875 
2.7509016e+2, 3.038925e+2, -5749.401, -84967.25, 183.01247, 0.0011312307, -0.035423722, -5748.978, -5748.978 
2.7508947e+2, 3.1388527e+2, -4331.349, -83373.56, -315.39297, -0.004528987, -0.028868735, -4330.091, -4330.091 
2.8510672e+2, 1.24048255e+2, -1680716.5, -1733617.9, 127.6229, 0.00093112804, -0.03699278, -1680716.3, 43607.816 
2.8510597e+2, 1.340452e+2, -1583491.5, -1637020.1, -289.2711, -0.0011278327, -0.015942352, -1583490.0, 42864.055 
2.851053e+2, 1.440411e+2, -1494868.6, -1557424.9, -205.5196, 0.00016557214, -0.04125736, -1494868.0, 33526.098 
2.851046e+2, 1.5403667e+2, -1398382.5, -1460721.1, -326.4798, 0.001473354, -0.034368567, -1398380.8, 32056.719 
2.851039e+2, 1.6403154e+2, -1310348.6, -1382139.0, -577.7599, 0.0010943745, -0.029582389, -1310343.9, 22143.836 
2.851031e+2, 1.7402574e+2, -1212375.8, -1284179.6, -589.96857, -0.001647666, -0.02947281, -1212370.9, 22173.824 
2.8510237e+2, 1.8401924e+2, -1124330.1, -1206019.9, -655.7386, -0.0020184214, -0.029886192, -1124324.9, 12283.498 
2.851016e+2, 1.9401206e+2, -1027384.7, -1108562.9, -515.11835, 0.0010461092, -0.033690326, -1027381.44, 11297.423 
2.8510082e+2, 2.0400424e+2, -939101.5, -1029613.94, -554.93756, 0.0018056477, -0.033931132, -939098.06, 1657.2703 
2.8510004e+2, 2.1399583e+2, -841080.3, -931508.3, -813.62427, -0.0008230838, -0.031016871, -841073.0, 1764.6632 
2.8509924e+2, 2.2398673e+2, -753484.44, -854240.4, -805.3944, -0.0016786952, -0.029419178, -753478.0, -8550.948 
2.850985e+2, 2.3397686e+2, -656652.25, -756846.8, -453.9495, 0.00010087615, -0.032223478, -656650.2, -9626.465 
2.8509772e+2, 2.4396639e+2, -568151.7, -677353.25, -432.40347, 0.0005608318, -0.032742783, -568149.94, -19023.605 
2.850969e+2, 2.5395533e+2, -470128.63, -579139.56, -852.23773, -0.0009570029, -0.032126088, -470121.97, -18887.256 
2.8509614e+2, 2.6394355e+2, -382541.03, -502188.47, -708.69946, -0.0017358299, -0.030784974, -382536.8, -29186.752 
2.850954e+2, 2.7393106e+2, -285198.94, -404471.75, -162.95847, -0.0013934177, -0.031066366, -285198.7, -29726.113 
2.850947e+2, 2.839178e+2, -198271.88, -328495.66, -91.81575, -0.00035836425, -0.031093923, -198271.81, -40669.37 
2.8509396e+2, 2.939038e+2, -100639.516, -230492.94, -701.3655, 0.0016959622, -0.033367567, -100635.73, -40896.137 
2.8509328e+2, 3.0389312e+2, -5500.1987, -84728.0, -344.59915, 0.00085595076, -0.032714725, -5498.6997, -5498.6997 
2.8509262e+2, 3.138859e+2, -5573.595, -83823.37, 289.76767, -0.004384987, -0.030485323, -5572.522, -5572.522 
2.9511055e+2, 1.240489e+2, -1680476.3, -1733133.5, 112.039635, -0.00050289254, -0.03399197, -1680476.0, 43841.723 
2.9510987e+2, 1.3404581e+2, -1583275.8, -1636564.0, -317.02542, 0.00078445877, -0.019801624, -1583273.9, 43074.152 
2.9510912e+2, 1.4404172e+2, -1495101.9, -1557890.0, -479.07654, 0.002257007, -0.04568448, -1495098.1, 33289.953 
2.9510832e+2, 1.5403734e+2, -1398645.3, -1461272.6, -621.9516, -0.0009874466, -0.029847512, -1398639.0, 31792.111 
2.9510754e+2, 1.6403219e+2, -1310378.8, -1382217.5, -606.2796, -0.001862543, -0.023782825, -1310373.6, 22107.83 
2.951068e+2, 1.740263e+2, -1212400.5, -1284219.0, -588.74457, 0.000782786, -0.03353833, -1212395.8, 22143.639 
2.9510605e+2, 1.8401977e+2, -1124093.6, -1205514.8, -899.1791, 0.0015756831, -0.036256466, -1124083.8, 12519.328 
2.9510516e+2, 1.9401272e+2, -1027104.06, -1107990.1, -788.00775, -0.00035084056, -0.03131891, -1027096.4, 11575.945 
2.9510432e+2, 2.0400493e+2, -939508.3, -1030463.5, -596.95807, -0.0011721646, -0.028566573, -939504.4, 1244.265 
2.9510358e+2, 2.139964e+2, -841581.3, -932526.0, -824.45013, -0.000355882, -0.031134274, -841573.9, 1258.2982 
2.9510275e+2, 2.2398725e+2, -752952.25, -853117.75, -1076.8157, -0.00014583349, -0.032164045, -752940.7, -8018.8716 
2.951019e+2, 2.3397751e+2, -655989.44, -755477.56, -761.15454, -0.0008311085, -0.03333267, -655983.6, -8966.252 
2.9510108e+2, 2.4396706e+2, -568781.25, -678665.44, -499.53052, -0.000902336, -0.031908162, -568779.0, -19659.273 
2.9510027e+2, 2.5395593e+2, -470917.38, -580765.5, -883.3545, -0.000065075204, -0.028939115, -470910.25, -19681.266 
2.950995e+2, 2.6394412e+2, -381735.78, -500501.63, -876.67236, 0.00023595801, -0.028992372, -381729.3, -28384.752 
2.950987e+2, 2.739317e+2, -284207.4, -402398.03, -356.8602, -0.0002681475, -0.036262423, -284206.3, -28740.03 
2.9509792e+2, 2.8391847e+2, -199173.0, -330352.6, -242.40395, -0.0011513054, -0.03624725, -199172.55, -41576.65 
2.9509714e+2, 2.9390442e+2, -101762.266, -232819.14, -835.89197, -0.0025953047, -0.027847622, -101756.94, -42023.234 
2.950964e+2, 3.0389372e+2, -4626.141, -82904.984, -502.2924, -0.0021152766, -0.025666842, -4622.9185, -4622.9185 
2.950958e+2, 3.138865e+2, -4462.7646, -81493.31, 118.1651, 0.0012755287, -0.035935476, -4462.5835, -4462.5835 
3.0511448e+2, 1.2404957e+2, -1679657.5, -1732772.4, 370.51324, -0.00024596212, -0.034813255, -1679655.0, 44656.254 
3.051137e+2, 1.3404648e+2, -1583641.1, -1636819.4, -351.65527, 0.0006391531, -0.01918602, -1583638.9, 42702.547 
3.0511293e+2, 1.4404239e+2, -1495518.3, -1558124.1, -498.29547, 0.0020358362, -0.044993237, -1495514.3, 32867.324 
3.051121e+2, 1.54038e+2, -1397586.6, -1460782.5, -376.17255, -0.0010160918, -0.030155431, -1397584.4, 32840.277 
3.0511126e+2, 1.6403285e+2, -1309116.3, -1381641.1, -318.39288, -0.0017155444, -0.024467295, -1309114.9, 23360.184 
3.051105e+2, 1.7402694e+2, -1212756.3, -1284431.1, -318.8804, 0.0010817541, -0.033691503, -1212754.9, 21778.096 
3.0510968e+2, 1.8402043e+2, -1124838.8, -1205919.6, -635.69464, 0.0017456535, -0.035953205, -1124833.8, 11762.889 
3.051088e+2, 1.9401337e+2, -1026434.8, -1107708.3, -822.13617, -0.00072905864, -0.03066948, -1026426.5, 12239.434 
3.0510792e+2, 2.0400557e+2, -938617.2, -1030048.3, -746.6332, -0.0016108585, -0.028176991, -938611.06, 2131.2183 
3.051071e+2, 2.1399704e+2, -842260.06, -932871.0, -497.818, -0.00013770207, -0.03188926, -842257.4, 568.58923 
3.0510622e+2, 2.239879e+2, -753927.44, -853518.06, -604.6729, 0.00026907478, -0.032936182, -753923.8, -9008.23 
3.0510533e+2, 2.3397817e+2, -655507.44, -755162.6, -902.4517, -0.0009089627, -0.032454368, -655499.3, -8488.391 
3.0510446e+2, 2.4396773e+2, -567899.1, -678254.3, -755.785, -0.0011877742, -0.030963838, -567893.94, -18780.707 
3.0510363e+2, 2.5395656e+2, -471061.9, -580864.25, -360.38684, -0.00013136635, -0.030281395, -471060.72, -19838.014 
3.051028e+2, 2.6394477e+2, -382395.84, -500728.38, -273.84824, 0.00033623236, -0.030449156, -382395.2, -29056.914 
3.0510196e+2, 2.7393237e+2, -284801.22, -402578.56, -718.2933, -0.00008557848, -0.03458297, -284796.8, -29337.197 
3.0510113e+2, 2.8391916e+2, -199612.8, -330607.9, -639.3449, -0.0011530296, -0.03412053, -199609.67, -42020.5 
3.0510032e+2, 2.9390505e+2, -101689.52, -232846.4, -107.94165, -0.003180167, -0.029331898, -101689.43, -41962.082 
3.0509958e+2, 3.0389434e+2, -4446.889, -82674.8, 292.89172, -0.0025943075, -0.027809069, -4445.7925, -4445.7925 
3.050989e+2, 3.138872e+2, -5120.815, -81640.16, -162.15355, 0.0019498016, -0.034220442, -5120.4717, -5120.4717 
3.151184e+2, 1.2405025e+2, -1679933.8, -1733331.5, 63.2481, 0.0015976462, -0.039279405, -1679933.6, 44370.832 
3.1511754e+2, 1.3404723e+2, -1583942.6, -1637453.3, -676.9426, -0.0014871978, -0.014287927, -1583934.0, 42400.223 
3.151167e+2, 1.4404312e+2, -1495333.5, -1557758.0, -447.28223, -0.00041397248, -0.039402038, -1495330.3, 33044.2 
3.1511593e+2, 1.5403865e+2, -1397375.4, -1460323.8, -286.70697, 0.0012671693, -0.03508584, -1397374.0, 33044.18 
3.151151e+2, 1.6403349e+2, -1309142.0, -1381666.3, -696.2636, 0.0013864866, -0.031354956, -1309135.4, 23333.285 
3.1511417e+2, 1.740277e+2, -1212779.0, -1284492.9, -746.03235, -0.0006709628, -0.030094143, -1212771.1, 21754.387 
3.1511325e+2, 1.8402119e+2, -1125114.0, -1206510.0, -586.45514, -0.0013807863, -0.02925629, -1125109.9, 11479.397 
3.151124e+2, 1.9401401e+2, -1026767.3, -1108372.8, -717.1273, -0.00014302511, -0.031670928, -1026761.0, 11898.637 
3.1511155e+2, 2.0400618e+2, -938261.3, -1029283.6, -1118.0328, 0.00037120565, -0.03255321, -938247.56, 2488.7415 
3.1511056e+2, 2.1399774e+2, -841802.4, -931936.75, -926.0399, -0.000170141, -0.033254147, -841792.9, 1026.1879 
3.1510964e+2, 2.2398864e+2, -754348.8, -854410.0, -578.78815, -0.00040292228, -0.03181413, -754345.5, -9437.132 
3.151088e+2, 2.3397884e+2, -656052.4, -756272.8, -820.35345, -0.00017634362, -0.029670566, -656045.7, -9041.364 
3.1510788e+2, 2.4396838e+2, -567328.44, -677041.9, -1017.69006, -0.00035540463, -0.029915763, -567319.0, -18212.154 
3.1510696e+2, 2.5395724e+2, -470351.66, -579381.9, -668.00836, -0.0011290102, -0.035977244, -470347.56, -19131.639 
3.1510603e+2, 2.6394546e+2, -383065.6, -502118.03, -463.88293, -0.0013696934, -0.03502742, -383063.8, -29732.547 
3.151052e+2, 2.739331e+2, -285630.47, -404302.97, -887.0829, -0.0008198873, -0.026294531, -285623.84, -30171.205 
3.1510434e+2, 2.8391987e+2, -198809.95, -328937.16, -654.12665, -0.00040590274, -0.024994362, -198806.67, -41224.43 
3.1510356e+2, 2.9390574e+2, -100708.71, -230780.06, -112.092896, -0.00021197309, -0.037550397, -100708.61, -40988.063 
3.1510276e+2, 3.0389506e+2, -5133.164, -84071.98, -62.161186, -0.0006896802, -0.038784057, -5133.115, -5133.115 
3.151019e+2, 3.1388798e+2, -5990.6787, -83452.51, -552.97345, -0.0021912553, -0.025616229, -5986.7314, -5986.7314 
3.2512236e+2, 1.2405103e+2, -1679994.4, -1733473.1, 140.17848, 0.0018187759, -0.038730577, -1679994.0, 44302.93 
3.251214e+2, 1.3404797e+2, -1582821.1, -1637062.3, -400.50217, -0.0016548459, -0.01420958, -1582818.1, 43508.746 
3.251205e+2, 1.4404385e+2, -1494226.0, -1557226.3, -148.41005, -0.0006248815, -0.039722573, -1494225.6, 34141.594 
3.2511973e+2, 1.5403938e+2, -1398263.8, -1460747.5, -212.44968, 0.0013450144, -0.035018824, -1398263.0, 32147.945 
3.2511884e+2, 1.6403425e+2, -1310324.3, -1382305.1, -702.2776, 0.0015072526, -0.03096794, -1310317.5, 22143.875 
3.2511786e+2, 1.7402843e+2, -1211664.1, -1284021.9, -760.02246, -0.0008679951, -0.029487276, -1211656.1, 22862.164 
3.251169e+2, 1.8402192e+2, -1123583.5, -1205790.6, -576.63745, -0.001585013, -0.028880928, -1123579.5, 13002.581 
3.2511604e+2, 1.9401473e+2, -1027642.06, -1108817.5, -405.55112, 0.00009632736, -0.032177653, -1027640.0, 11012.549 
3.2511508e+2, 2.0400691e+2, -939564.94, -1029833.0, -685.9473, 0.00067176035, -0.03303263, -939559.7, 1169.5032 
3.251141e+2, 2.139985e+2, -840782.9, -931347.5, -881.4932, -0.00037290092, -0.032375257, -840774.3, 2037.436 
3.2511312e+2, 2.2398938e+2, -752951.25, -853873.56, -677.2096, -0.0007188093, -0.030769086, -752946.7, -8045.6743 
3.2511222e+2, 2.3397955e+2, -656789.2, -756799.5, -491.82773, -0.00003054209, -0.03021376, -656786.75, -9789.492 
3.2511127e+2, 2.439691e+2, -568632.9, -677456.0, -605.9149, -0.00006949405, -0.030679507, -568629.5, -19529.709 
3.251103e+2, 2.53958e+2, -470491.6, -579188.3, -817.4892, -0.0011868058, -0.034927618, -470485.44, -19276.926 
3.2510933e+2, 2.6394624e+2, -382744.2, -502179.13, -678.93744, -0.001646968, -0.03375142, -382740.3, -29416.525 
3.2510844e+2, 2.739338e+2, -285163.03, -404350.97, -424.91327, -0.0011272996, -0.027161269, -285161.53, -29715.92 
3.2510757e+2, 2.839206e+2, -198401.5, -328370.56, -117.95563, -0.00043400115, -0.026249783, -198401.39, -40826.145 
3.251067e+2, 2.939065e+2, -101671.65, -230797.75, -321.581, 0.0004946799, -0.03655867, -101670.85, -41957.902 
3.2510588e+2, 3.0389583e+2, -6527.6167, -84993.39, -365.90253, -0.00016965075, -0.037410617, -6525.9106, -6525.9106 
3.2510498e+2, 3.138887e+2, -5265.6606, -83438.07, -167.04428, -0.0032525212, -0.026695354, -5265.3037, -5265.3037 
3.3512625e+2, 1.2405187e+2, -1679872.9, -1733226.9, 136.62834, 0.00046469088, -0.03340911, -1679872.5, 44416.23 
3.3512533e+2, 1.3404873e+2, -1582730.6, -1636857.8, -412.81866, 0.000035545072, -0.0187315, -1582727.4, 43591.957 
3.3512443e+2, 1.4404461e+2, -1494412.9, -1557595.6, -544.20215, 0.0012850837, -0.045678005, -1494408.1, 33951.75 
3.3512345e+2, 1.540402e+2, -1398452.4, -1461161.9, -647.2315, -0.0006989496, -0.030178811, -1398445.8, 31957.21 
3.351225e+2, 1.6403508e+2, -1310376.6, -1382441.6, -580.8556, -0.0012330569, -0.023635734, -1310372.0, 22081.33 
3.351216e+2, 1.7402916e+2, -1211738.4, -1284148.6, -577.76416, 0.00041240896, -0.031736128, -1211733.8, 22777.451 
3.3512068e+2, 1.8402264e+2, -1123359.8, -1205292.9, -1036.9545, 0.0009887436, -0.034540046, -1123346.6, 13228.485 
3.351196e+2, 1.9401553e+2, -1027351.25, -1108235.3, -938.3585, -0.000007724377, -0.032209843, -1027340.4, 11304.408 
3.351186e+2, 2.0400774e+2, -939801.9, -1030350.2, -576.05005, -0.0006457563, -0.029785002, -939798.2, 922.8505 
3.3511764e+2, 2.1399929e+2, -841112.8, -932003.25, -697.65753, -0.0007468292, -0.02935037, -841107.5, 1696.5632 
3.3511665e+2, 2.2399014e+2, -752735.25, -853386.94, -1088.7339, -0.0007055336, -0.029796535, -752723.5, -7829.867 
3.351156e+2, 2.3398031e+2, -656485.2, -756174.25, -971.57245, -0.00045416327, -0.03394283, -656475.75, -9485.884 
3.351146e+2, 2.4396986e+2, -568917.4, -678064.9, -658.059, -0.00031719674, -0.033176992, -568913.4, -19821.143 
3.3511364e+2, 2.5395882e+2, -470859.16, -579945.3, -818.633, -0.00035687082, -0.02741694, -470853.03, -19652.465 
3.3511266e+2, 2.6394704e+2, -382382.1, -501406.8, -789.9431, -0.0005690521, -0.02686824, -382376.84, -29060.943 
3.3511174e+2, 2.739345e+2, -284721.9, -403406.1, -550.67633, -0.001035063, -0.036806513, -284719.34, -29280.79 
3.3511078e+2, 2.839213e+2, -198734.36, -329038.03, -466.89114, -0.0012200095, -0.03745771, -198732.69, -41164.516 
3.3510983e+2, 2.9390737e+2, -102078.18, -231646.72, -695.79443, -0.0009786825, -0.026729582, -102074.445, -42369.863 
3.3510894e+2, 3.0389673e+2, -6191.161, -84295.82, -243.78021, -0.0009855373, -0.024187498, -6190.4004, -6190.4004 
3.3510813e+2, 3.1388944e+2, -4872.8145, -82571.516, 16.49832, -0.001398631, -0.037063487, -4872.8105, -4872.8105 
3.4513018e+2, 1.2405271e+2, -1679179.1, -1732847.4, 324.02997, 0.00014584858, -0.033289485, -1679177.1, 45103.336 
3.4512925e+2, 1.3404958e+2, -1583230.9, -1637093.9, -336.6468, 0.000379839, -0.018508375, -1583228.8, 43082.367 
3.4512827e+2, 1.4404544e+2, -1494854.4, -1557959.6, -473.73624, 0.0017890924, -0.0456023, -1494850.9, 33500.805 
3.4512725e+2, 1.5404104e+2, -1396841.6, -1460542.0, -474.81998, -0.00093752233, -0.029897075, -1396838.1, 33556.723 
3.4512624e+2, 1.6403589e+2, -1308590.4, -1381574.4, -355.90317, -0.0016283339, -0.023466548, -1308588.6, 23856.686 
3.4512535e+2, 1.7402996e+2, -1212749.4, -1284624.8, -287.93573, 0.0007126617, -0.032143593, -1212748.3, 21755.059 
3.4512433e+2, 1.8402345e+2, -1124894.9, -1206024.8, -777.7, 0.0013969105, -0.03491034, -1124887.5, 11679.705 
3.4512323e+2, 1.9401635e+2, -1026081.94, -1107604.6, -949.85626, -0.0003560001, -0.03164822, -1026070.9, 12565.819 
3.4512216e+2, 2.0400856e+2, -938096.4, -1029649.3, -697.9806, -0.0011187855, -0.029140688, -938091.0, 2621.9849 
3.4512118e+2, 2.1400008e+2, -842234.4, -932691.1, -598.04346, -0.00041527257, -0.02985739, -842230.44, 565.8124 
3.4512016e+2, 2.2399093e+2, -754366.0, -853947.75, -880.8911, -0.00021362011, -0.030538945, -754358.2, -9472.357 
3.4511906e+2, 2.3398115e+2, -655777.3, -755560.75, -893.70337, -0.0007561607, -0.033583652, -655769.3, -8787.583 
3.45118e+2, 2.439707e+2, -567670.2, -677713.4, -599.56024, -0.0008443017, -0.032463964, -567666.94, -18582.9 
3.4511697e+2, 2.5395963e+2, -470937.0, -580296.75, -591.13855, -0.00026403752, -0.027450405, -470933.78, -19741.086 
3.4511596e+2, 2.6394784e+2, -382962.06, -501287.0, -529.37274, -0.00017832895, -0.027225664, -382959.7, -29651.607 
3.4511495e+2, 2.7393538e+2, -285679.97, -403385.8, -451.48535, -0.00083729206, -0.036854576, -285678.22, -30247.953 
3.4511396e+2, 2.8392214e+2, -199808.27, -329876.47, -379.93988, -0.0013814862, -0.0372695, -199807.16, -42247.4 
3.4511298e+2, 2.939082e+2, -101607.78, -231836.48, -455.4303, -0.0017419207, -0.02640011, -101606.195, -41909.664 
3.4511203e+2, 3.0389756e+2, -5245.061, -83289.58, 55.372696, -0.0014790747, -0.023913853, -5245.022, -5245.022 
3.4511116e+2, 3.1389028e+2, -6614.7417, -82742.195, 306.04138, -0.00029690805, -0.03716168, -6613.5117, -6613.5117 
3.5513416e+2, 1.2405355e+2, -1679243.9, -1732975.8, 24.041487, 0.0007832957, -0.038100682, -1679243.9, 45028.36 
3.551331e+2, 1.340505e+2, -1583307.1, -1637268.5, -653.0387, -0.00057103456, -0.013763502, -1583299.3, 43002.848 
3.551321e+2, 1.4404635e+2, -1494861.0, -1557987.0, -408.13208, 0.0009426375, -0.03978851, -1494858.4, 33484.266 
3.5513112e+2, 1.5404187e+2, -1396869.3, -1460569.1, -368.76407, 0.00052819966, -0.033953384, -1396867.1, 33519.637 
3.551301e+2, 1.6403669e+2, -1308545.8, -1381450.4, -849.191, 0.0001935002, -0.03010987, -1308535.9, 23901.45 
3.55129e+2, 1.7403087e+2, -1212661.8, -1284466.1, -846.4461, 0.00006901768, -0.030794038, -1212651.8, 21842.766 
3.5512793e+2, 1.8402436e+2, -1125091.9, -1206462.4, -646.0622, -0.0002697333, -0.030241415, -1125086.8, 11471.3955 
3.5512686e+2, 1.940172e+2, -1026346.06, -1108125.4, -740.49994, -0.0009496771, -0.030522913, -1026339.4, 12289.043 
3.5512578e+2, 2.0400937e+2, -938034.0, -1029483.75, -1177.8627, -0.00079870806, -0.030977033, -938018.8, 2686.3054 
3.5512465e+2, 2.1400087e+2, -842105.2, -932436.8, -1153.8285, 0.0005806941, -0.033731364, -842090.44, 697.90717 
3.5512358e+2, 2.2399177e+2, -754297.0, -853829.6, -816.71735, 0.0007240088, -0.032915417, -754290.25, -9412.597 
3.5512248e+2, 2.3398204e+2, -655743.0, -755471.2, -762.3661, -0.00095181796, -0.029319122, -655737.1, -8764.233 
3.551214e+2, 2.439716e+2, -567720.56, -677781.7, -896.05725, -0.0016476321, -0.02868564, -567713.25, -18638.016 
3.551203e+2, 2.539604e+2, -470985.47, -580381.2, -932.8149, -0.00088202587, -0.034695372, -470977.5, -19792.535 
3.551192e+2, 2.6394865e+2, -382828.97, -501010.22, -774.98083, -0.00045238613, -0.034497723, -382823.88, -29523.559 
3.5511816e+2, 2.7393633e+2, -285521.56, -403063.47, -690.4075, -0.0005478586, -0.027725106, -285517.5, -30096.709 
3.551171e+2, 2.8392315e+2, -199899.22, -330061.44, -364.1495, -0.0009618385, -0.026182868, -199898.2, -42348.152 
3.5511613e+2, 2.9390898e+2, -101751.34, -232097.08, -403.06543, -0.0018397301, -0.0351676, -101750.1, -42061.316 
3.5511515e+2, 3.038983e+2, -4914.7144, -82565.94, -425.6601, -0.0016744277, -0.03603453, -4912.381, -4912.381 
3.5511416e+2, 3.1389135e+2, -6192.0513, -81878.375, -248.94316, 0.00006497223, -0.02743199, -6191.2324, -6191.2324 
3.651381e+2, 1.24054484e+2, -1679102.8, -1733044.1, 210.93669, 0.0010954953, -0.038454898, -1679101.9, 45161.18 
3.65137e+2, 1.3405143e+2, -1582159.8, -1636887.6, -505.0594, -0.00096225383, -0.013502429, -1582155.1, 44137.984 
3.65136e+2, 1.4404728e+2, -1493826.8, -1557459.3, -255.17921, 0.0005683303, -0.039599013, -1493825.8, 34507.977 
3.6513498e+2, 1.5404278e+2, -1397891.6, -1461021.6, -178.46141, 0.0010306013, -0.03413087, -1397891.1, 32486.588 
3.6513388e+2, 1.6403762e+2, -1309807.0, -1382136.8, -719.1685, 0.00075838115, -0.03025821, -1309799.8, 22628.621 
3.6513272e+2, 1.7403176e+2, -1211339.3, -1283908.4, -849.49115, -0.00048278298, -0.030333042, -1211329.4, 23156.273 
3.651316e+2, 1.8402527e+2, -1123311.5, -1205658.4, -590.95026, -0.0009653822, -0.029722106, -1123307.4, 13242.005 
3.651305e+2, 1.940181e+2, -1027247.94, -1108623.0, -466.36453, -0.00037571377, -0.030747138, -1027245.25, 11374.357 
3.6512938e+2, 2.0401026e+2, -939431.75, -1030048.44, -857.7426, 0.000005739042, -0.03135027, -939423.6, 1272.7067 
3.6512816e+2, 2.1400179e+2, -841051.9, -931794.56, -878.8274, 0.000090538175, -0.033386026, -841043.4, 1736.0648 
3.6512703e+2, 2.2399268e+2, -752861.5, -853327.5, -580.9229, -0.000101470745, -0.032276377, -752858.1, -7989.4272 
3.6512592e+2, 2.3398294e+2, -656478.0, -756058.06, -715.7534, -0.0006997715, -0.02900193, -656472.8, -9508.644 
3.651248e+2, 2.439725e+2, -568996.5, -678086.8, -898.4588, -0.0010294168, -0.028758327, -568989.1, -19922.559 
3.6512363e+2, 2.5396132e+2, -471222.72, -580123.2, -661.81665, -0.0009601827, -0.035266638, -471218.7, -20042.701 
3.6512247e+2, 2.6394954e+2, -382695.16, -501209.47, -463.02795, -0.00089211046, -0.03475682, -382693.38, -29402.139 
3.6512136e+2, 2.7393726e+2, -285023.6, -403161.5, -753.4255, -0.000836544, -0.0264544, -285018.78, -29606.92 
3.6512026e+2, 2.8392407e+2, -199361.84, -329342.2, -469.6103, -0.0008536454, -0.02500626, -199360.14, -41819.035 
3.6511925e+2, 2.9390994e+2, -102915.17, -232103.84, -30.219501, -0.00097447634, -0.036544986, -102915.164, -43235.582 
3.6511824e+2, 3.0389926e+2, -6577.3096, -83733.59, -28.074747, -0.0011111583, -0.037640054, -6577.2993, -6577.2993 
3.6511716e+2, 3.1389228e+2, -5060.144, -81812.586, -585.1177, -0.0012694674, -0.025715064, -5055.6836, -5055.6836 
3.7514213e+2, 1.24055505e+2, -1679213.0, -1733274.4, 170.26993, 0.0010860419, -0.034595005, -1679212.5, 45040.58 
3.75141e+2, 1.3405235e+2, -1582308.0, -1637177.3, -550.94867, -0.00083324726, -0.017495334, -1582302.4, 43981.55 
3.751399e+2, 1.4404818e+2, -1493790.3, -1557372.0, -652.7859, 0.0006281474, -0.04473736, -1493783.5, 34541.273 
3.7513876e+2, 1.5404378e+2, -1397814.3, -1460882.6, -615.75824, 0.00060552766, -0.030624816, -1397808.3, 32559.72 
3.7513763e+2, 1.6403863e+2, -1309944.1, -1382442.4, -648.9917, 0.000119091594, -0.02424083, -1309938.4, 22480.154 
3.7513646e+2, 1.7403272e+2, -1211526.5, -1284275.9, -722.76825, -0.00095491984, -0.030716272, -1211519.4, 22957.127 
3.751353e+2, 1.8402617e+2, -1123199.4, -1205399.0, -1026.6819, -0.0007480588, -0.033140257, -1123186.5, 13353.988 
3.751341e+2, 1.9401905e+2, -1027081.1, -1108285.5, -964.291, 0.0012993541, -0.032250736, -1027069.7, 11540.775 
3.7513295e+2, 2.0401125e+2, -939363.9, -1029922.56, -830.994, 0.0012589077, -0.030329289, -939356.25, 1330.4984 
3.7513173e+2, 2.140028e+2, -841017.3, -931704.2, -795.369, -0.0018221679, -0.029027859, -841010.4, 1759.0952 
3.751305e+2, 2.2399367e+2, -753168.94, -853935.3, -964.651, -0.0026142558, -0.028768694, -753159.7, -8300.719 
3.751293e+2, 2.3398383e+2, -656806.5, -756737.06, -1145.7657, -0.000027687722, -0.032444827, -656793.4, -9837.82 
3.7512812e+2, 2.4397337e+2, -568578.7, -677231.94, -1007.0525, 0.0009315769, -0.03249378, -568569.4, -19511.44 
3.7512693e+2, 2.5396237e+2, -470731.1, -579098.94, -742.2081, -0.0005372822, -0.02947381, -470726.0, -19560.21 
3.7512574e+2, 2.6395062e+2, -383159.06, -502152.03, -591.45514, -0.0014988562, -0.028333588, -383156.13, -29875.258 
3.751246e+2, 2.7393812e+2, -285605.47, -404339.75, -877.06116, -0.0016884982, -0.032680705, -285598.97, -30195.504 
3.7512344e+2, 2.839249e+2, -198727.36, -328001.63, -848.2987, -0.0010581918, -0.033281386, -198721.78, -41188.86 
3.7512234e+2, 2.93911e+2, -102117.086, -230452.05, -452.24725, 0.0008002267, -0.030863427, -102115.5, -42446.5 
3.7512124e+2, 3.039004e+2, -7361.68, -85366.195, 105.28103, 0.00016318289, -0.029204343, -7361.538, -7361.538 
3.7512022e+2, 3.1389314e+2, -6075.7295, -83872.086, -366.88495, -0.0042639403, -0.031643193, -6073.999, -6073.999 
3.851461e+2, 1.2405654e+2, -1678529.6, -1732935.3, 311.8511, 0.0009286402, -0.034014627, -1678527.9, 45715.164 
3.8514495e+2, 1.3405338e+2, -1582565.5, -1637327.1, -296.01248, -0.0005354881, -0.01770406, -1582563.9, 43710.066 
3.851438e+2, 1.440492e+2, -1494036.6, -1557589.4, -439.91043, 0.0009379235, -0.045227516, -1494033.5, 34281.324 
3.851426e+2, 1.540448e+2, -1396608.6, -1460400.0, -542.2437, 0.000112223745, -0.030117145, -1396604.1, 33753.977 
3.8514143e+2, 1.6403964e+2, -1308578.4, -1381782.1, -477.18744, -0.0003871725, -0.023535093, -1308575.3, 23833.34 
3.8514024e+2, 1.740337e+2, -1212020.6, -1284511.1, -360.42166, -0.00033450645, -0.030972162, -1212018.8, 22447.86 
3.8513905e+2, 1.8402718e+2, -1124145.3, -1205857.1, -761.6829, -0.0000045794536, -0.033660192, -1124138.1, 12392.611 
3.8513777e+2, 1.9402005e+2, -1026417.7, -1107963.0, -878.27185, 0.0007056076, -0.03201477, -1026408.25, 12192.33 
3.851365e+2, 2.0401226e+2, -938413.7, -1029533.5, -741.1027, 0.00038120008, -0.02974479, -938407.6, 2269.266 
3.8513526e+2, 2.1400382e+2, -841608.4, -932071.8, -790.0968, -0.0014443471, -0.028696958, -841601.5, 1158.2108 
3.85134e+2, 2.2399467e+2, -754018.75, -854208.4, -965.0128, -0.0018537951, -0.02882694, -754009.44, -9160.215 
3.8513273e+2, 2.3398481e+2, -656362.1, -756360.6, -722.0891, -0.00018056428, -0.03307616, -656356.9, -9411.195 
3.8513148e+2, 2.4397439e+2, -567865.3, -677049.56, -500.83365, 0.0004187585, -0.032827448, -567863.0, -18814.953 
3.8513023e+2, 2.5396338e+2, -470767.7, -579317.44, -861.8609, -0.0005872042, -0.028224485, -470760.84, -19604.893 
3.85129e+2, 2.6395163e+2, -383525.78, -502048.88, -790.53595, -0.0012436041, -0.027260564, -383520.5, -30249.477 
3.851278e+2, 2.739391e+2, -286419.9, -404398.38, -288.30823, -0.0013706709, -0.03441121, -286419.22, -31025.635 
3.851266e+2, 2.839259e+2, -199611.5, -328692.53, -211.0021, -0.0010743908, -0.03506603, -199611.16, -42088.176 
3.851254e+2, 2.9391205e+2, -101566.19, -230521.16, -847.428, -0.00014066917, -0.028546002, -101560.62, -41901.637 
3.8512427e+2, 3.039014e+2, -6510.278, -84589.72, -331.24292, -0.0005853971, -0.026381826, -6508.873, -6508.873 
3.851232e+2, 3.1389412e+2, -7755.389, -84230.48, 503.59753, -0.0031232517, -0.033813097, -7752.0728, -7752.0728 
3.9515015e+2, 1.24057576e+2, -1678412.4, -1732699.0, 41.532696, 0.00060390035, -0.036515452, -1678412.4, 45820.45 
3.9514893e+2, 1.3405448e+2, -1582458.8, -1637115.9, -583.08325, -0.000085802705, -0.01432937, -1582452.5, 43810.582 
3.951477e+2, 1.4405032e+2, -1494196.1, -1557922.5, -516.0821, 0.0014729555, -0.041319232, -1494191.9, 34112.07 
3.951465e+2, 1.5404582e+2, -1396805.0, -1460794.3, -594.64624, -0.0004576372, -0.032445397, -1396799.5, 33548.426 
3.9514524e+2, 1.6404065e+2, -1308447.8, -1381501.4, -811.1984, -0.0007794458, -0.027848922, -1308438.8, 23960.008 
3.95144e+2, 1.7403477e+2, -1211847.0, -1284155.1, -727.3295, 0.0013122702, -0.031104045, -1211839.6, 22616.52 
3.951427e+2, 1.8402827e+2, -1124263.5, -1206106.5, -866.20306, 0.0012227561, -0.03143252, -1124254.3, 12265.684 
3.9514136e+2, 1.9402112e+2, -1026575.44, -1108282.8, -951.9899, -0.002050486, -0.030130405, -1026564.3, 12025.743 
3.9514005e+2, 2.0401329e+2, -938564.06, -1029834.75, -1034.7556, -0.0025274367, -0.02957067, -938552.3, 2114.4385 
3.951388e+2, 2.1400478e+2, -841754.5, -932370.5, -1105.022, 0.0010989433, -0.032185566, -841741.06, 1009.0485 
3.951375e+2, 2.2399567e+2, -753574.8, -853286.6, -1080.7323, 0.0019987298, -0.03226264, -753563.06, -8723.624 
3.9513615e+2, 2.3398595e+2, -655862.0, -755310.06, -822.5494, -0.0011260207, -0.031034296, -655855.25, -8920.518 
3.9513484e+2, 2.439755e+2, -568470.4, -678281.56, -757.79407, -0.0024536464, -0.029929327, -568465.1, -19428.184 
3.9513353e+2, 2.5396433e+2, -471494.25, -580807.75, -1125.4552, -0.0010957797, -0.031294033, -471482.7, -20336.26 
3.9513227e+2, 2.6395258e+2, -382756.2, -500445.9, -1040.0217, -0.00017796402, -0.031268585, -382747.0, -29485.36 
3.95131e+2, 2.7394027e+2, -285474.8, -402435.4, -550.6459, 0.00004927875, -0.031862568, -285472.22, -30089.951 
3.9512974e+2, 2.8392708e+2, -200557.61, -330648.7, -267.7006, -0.00092985784, -0.030676818, -200557.05, -43045.688 
3.951285e+2, 2.9391304e+2, -102751.055, -232953.73, -860.4853, -0.0036815165, -0.029435005, -102745.37, -43095.848 
3.9512733e+2, 3.0390236e+2, -5331.015, -82108.21, -744.2561, -0.0032740398, -0.028903442, -5323.8013, -5323.8013 
3.951262e+2, 3.1389531e+2, -6269.913, -81138.555, 21.531044, 0.0019290895, -0.03241158, -6269.9067, -6269.9067 
4.051542e+2, 1.24058716e+2, -1677928.8, -1732592.3, 337.6241, 0.0008973294, -0.03709392, -1677926.6, 46294.984 
4.051529e+2, 1.3405561e+2, -1581843.6, -1636978.6, -507.01614, -0.00034054194, -0.01334999, -1581838.9, 44413.035 
4.051516e+2, 1.4405143e+2, -1493659.4, -1557690.6, -369.1423, 0.0012113731, -0.04034707, -1493657.3, 34635.703 
4.0515035e+2, 1.5404694e+2, -1396869.5, -1460840.6, -256.398, -0.00013998628, -0.033133198, -1396868.5, 33468.563 
4.0514907e+2, 1.6404174e+2, -1308674.9, -1381693.3, -594.1303, -0.00042154914, -0.028866267, -1308670.1, 23717.814 
4.0514773e+2, 1.7403589e+2, -1211492.4, -1284071.6, -755.45325, 0.00093142083, -0.03051764, -1211484.5, 22960.736 
4.051464e+2, 1.8402937e+2, -1123706.1, -1205860.6, -836.2949, 0.000736315, -0.030322075, -1123697.6, 12811.475 
4.0514502e+2, 1.9402222e+2, -1026465.06, -1108248.6, -764.96075, -0.001733599, -0.030073682, -1026457.94, 12121.393 
4.0514368e+2, 2.0401439e+2, -938596.25, -1029850.1, -834.4586, -0.0020007666, -0.030146329, -938588.6, 2067.4253 
4.051423e+2, 2.1400587e+2, -841511.5, -932251.6, -771.95667, 0.0009702556, -0.032754544, -841504.94, 1234.4479 
4.0514094e+2, 2.2399676e+2, -753377.8, -853181.75, -765.66516, 0.0016335895, -0.03234485, -753371.94, -8543.221 
4.0513957e+2, 2.3398706e+2, -656193.25, -755461.7, -1009.31464, -0.0011120703, -0.029946128, -656183.0, -9259.163 
4.051382e+2, 2.4397662e+2, -568944.44, -678403.4, -983.84534, -0.0022692715, -0.029072395, -568935.6, -19909.543 
4.0513685e+2, 2.5396544e+2, -471690.2, -580785.2, -553.44006, -0.0010582658, -0.032726504, -471687.38, -20551.752 
4.051355e+2, 2.639537e+2, -382817.88, -500583.34, -393.05533, -0.00028691674, -0.032642726, -382816.56, -29565.727 
4.0513414e+2, 2.739414e+2, -285273.22, -402471.78, -954.9471, -0.00020046179, -0.029681709, -285265.44, -29894.17 
4.0513283e+2, 2.8392822e+2, -200318.48, -330242.53, -687.8977, -0.0010616838, -0.028237954, -200314.84, -42814.555 
4.0513155e+2, 2.939141e+2, -103465.45, -232958.83, 135.54207, -0.0033153337, -0.03170794, -103465.31, -43826.75 
4.0513033e+2, 3.0390346e+2, -6416.8984, -82730.875, 327.79532, -0.0029373225, -0.0318994, -6415.4907, -6415.4907 
4.0512913e+2, 3.1389648e+2, -6145.8423, -81230.59, -547.28204, 0.0014561632, -0.030034175, -6141.8535, -6141.8535 
4.1515827e+2, 1.24059945e+2, -1678207.1, -1733147.6, 99.70057, 0.0017462372, -0.03585796, -1678206.9, 46002.74 
4.151569e+2, 1.3405678e+2, -1582136.9, -1637587.3, -751.38904, -0.0012675829, -0.014625692, -1582126.8, 44113.88 
4.1515556e+2, 1.4405258e+2, -1493533.8, -1557446.1, -582.37683, 0.00018722663, -0.042134605, -1493528.5, 34753.28 
4.1515425e+2, 1.5404813e+2, -1396708.6, -1460510.0, -471.20898, 0.001002502, -0.032269537, -1396705.1, 33620.324 
4.151529e+2, 1.6404295e+2, -1308908.1, -1382169.8, -806.5781, 0.00062885863, -0.02676921, -1308899.3, 23476.857 
4.1515148e+2, 1.7403705e+2, -1211764.0, -1284633.4, -963.13324, -0.0013724036, -0.02925356, -1211751.4, 22682.697 
4.1515008e+2, 1.840305e+2, -1123621.4, -1205686.6, -1026.2898, -0.0013823647, -0.030262038, -1123608.5, 12889.552 
4.151487e+2, 1.9402334e+2, -1026351.5, -1108001.9, -954.2109, 0.0014781356, -0.031743538, -1026340.4, 12227.927 
4.151473e+2, 2.0401554e+2, -938470.0, -1029573.2, -1074.4822, 0.001759672, -0.03142549, -938457.4, 2187.4727 
4.151458e+2, 2.1400708e+2, -841379.5, -931971.0, -1018.71594, -0.0016976726, -0.030560197, -841368.06, 1359.566 
4.1514438e+2, 2.2399795e+2, -753791.5, -854032.5, -1001.1702, -0.0027329589, -0.029252466, -753781.5, -8964.44 
4.1514298e+2, 2.3398817e+2, -656669.94, -756440.94, -1237.2733, -0.00019759816, -0.029760137, -656654.56, -9741.468 
4.1514155e+2, 2.4397773e+2, -568255.8, -676969.5, -1179.0475, 0.0007969388, -0.030145131, -568243.0, -19227.64 
4.151401e+2, 2.5396666e+2, -470873.1, -579081.56, -756.06354, -0.0005175193, -0.03260113, -470867.8, -19744.162 
4.151387e+2, 2.6395494e+2, -383693.97, -502384.63, -582.0692, -0.001521277, -0.031515058, -383691.1, -30452.422 
4.1513732e+2, 2.739425e+2, -286349.44, -404682.34, -1126.272, -0.0020453478, -0.02784979, -286338.72, -30978.18 
4.1513598e+2, 2.8392932e+2, -199083.95, -327655.06, -950.17993, -0.001470913, -0.027645875, -199076.92, -41587.21 
4.1513467e+2, 2.9391536e+2, -101956.195, -229802.52, -158.11243, 0.0007496091, -0.0352938, -101956.0, -42329.816 
4.1513336e+2, 3.0390474e+2, -7689.055, -85356.42, 154.78265, 0.00025745746, -0.035337333, -7688.747, -7688.747 
4.1513202e+2, 3.1389764e+2, -7758.5005, -84565.62, -680.95667, -0.004313573, -0.02672259, -7752.464, -7752.464 
4.2516232e+2, 1.240612e+2, -1678320.8, -1733189.0, 154.53265, 0.0012759336, -0.034927417, -1678320.3, 45877.07 
4.2516088e+2, 1.3405801e+2, -1581515.1, -1637290.1, -408.58575, -0.0009885967, -0.015499226, -1581512.1, 44716.402 
4.251595e+2, 1.440538e+2, -1492752.4, -1557196.0, -290.9119, 0.00072402053, -0.043276347, -1492751.0, 35518.668 
4.2515814e+2, 1.5404937e+2, -1396424.4, -1460513.8, -444.5074, 0.000917063, -0.031147499, -1396421.4, 33891.99 
4.251567e+2, 1.6404417e+2, -1308728.0, -1382097.0, -720.53064, 0.00033906839, -0.025157418, -1308721.0, 23643.154 
4.2515528e+2, 1.7403826e+2, -1211311.6, -1284416.3, -595.9281, -0.0012669323, -0.029719105, -1211306.9, 23115.338 
4.2515382e+2, 1.8403171e+2, -1123241.5, -1205526.0, -635.45435, -0.0011366894, -0.03146306, -1123236.6, 13249.743 
4.2515236e+2, 1.9402455e+2, -1026508.06, -1108105.0, -711.37103, 0.0014922954, -0.031719718, -1026501.9, 12054.553 
4.2515087e+2, 2.0401676e+2, -938752.0, -1029661.75, -895.4182, 0.0016443332, -0.030624907, -938743.2, 1889.6687 
4.2514935e+2, 2.140083e+2, -841294.9, -931875.1, -937.00793, -0.0018004377, -0.029648777, -841285.2, 1430.4539 
4.2514783e+2, 2.2399917e+2, -753621.7, -854032.75, -860.60126, -0.0027752814, -0.02881856, -753614.3, -8809.263 
4.2514637e+2, 2.3398934e+2, -656626.5, -756519.06, -686.1804, -0.00011211106, -0.030650182, -656621.8, -9720.424 
4.251449e+2, 2.4397893e+2, -568195.75, -676852.6, -651.37146, 0.00089441595, -0.030815247, -568191.8, -19188.209 
4.251434e+2, 2.5396788e+2, -470874.5, -578974.75, -993.60626, -0.0005836237, -0.030776652, -470865.34, -19753.79 
4.2514193e+2, 2.639562e+2, -383882.66, -502393.38, -839.91644, -0.001661377, -0.029731598, -383876.72, -30650.195 
4.251405e+2, 2.7394372e+2, -286857.16, -404849.84, -255.40805, -0.0021237119, -0.029879522, -286856.6, -31507.95 
4.2513907e+2, 2.8393054e+2, -199730.19, -327915.44, -39.984367, -0.0014137337, -0.030113073, -199730.17, -42252.367 
4.251377e+2, 2.9391664e+2, -102436.195, -229984.88, -776.18964, 0.0010503777, -0.03311982, -102431.48, -42817.668 
4.2513633e+2, 3.0390602e+2, -7949.263, -85370.86, -574.37866, 0.0004413004, -0.032399397, -7945.0024, -7945.0024 
4.2513496e+2, 3.1389886e+2, -7809.618, -84473.8, 317.14813, -0.0047845324, -0.028914401, -7808.306, -7808.306 
4.351664e+2, 1.2406247e+2, -1678029.6, -1732625.1, 108.200005, -0.00045843166, -0.034263268, -1678029.4, 46155.49 
4.3516496e+2, 1.3405932e+2, -1581249.8, -1636735.4, -459.91702, 0.0004122198, -0.015986156, -1581246.0, 44969.742 
4.3516356e+2, 1.4405511e+2, -1493038.3, -1557760.4, -608.3583, 0.002712365, -0.043802716, -1493032.5, 35224.375 
4.35162e+2, 1.5405065e+2, -1396748.6, -1461184.1, -783.84094, -0.0003381851, -0.029779796, -1396739.1, 33561.746 
4.3516052e+2, 1.6404544e+2, -1308521.6, -1381683.1, -875.24817, -0.0012260769, -0.023997182, -1308511.1, 23840.61 
4.351591e+2, 1.7403951e+2, -1211066.3, -1283898.9, -735.60156, 0.0010994878, -0.0318119, -1211058.9, 23350.88 
4.3515757e+2, 1.8403299e+2, -1123361.1, -1205756.1, -951.08435, 0.0013197692, -0.03384643, -1123350.1, 13123.653 
4.35156e+2, 1.9402584e+2, -1026653.7, -1108409.8, -1042.8396, -0.001520282, -0.030095002, -1026640.44, 11903.318 
4.351544e+2, 2.0401804e+2, -938815.06, -1029800.4, -1061.2966, -0.0021363753, -0.027859794, -938802.7, 1817.5902 
4.351529e+2, 2.1400957e+2, -841363.94, -932006.5, -1083.9304, 0.00050660543, -0.029948406, -841350.94, 1352.3939 
4.3515137e+2, 2.2400042e+2, -753346.75, -853445.44, -1113.0441, 0.0012458618, -0.030888442, -753334.4, -8541.544 
4.351498e+2, 2.3399064e+2, -656308.94, -755850.8, -953.57355, -0.0008203601, -0.032556366, -656299.8, -9411.188 
4.351482e+2, 2.4398023e+2, -568750.44, -677991.06, -873.5281, -0.0018211264, -0.031105274, -568743.44, -19752.586 
4.3514666e+2, 2.5396913e+2, -471532.34, -580320.8, -1202.5134, -0.0012331152, -0.027344009, -471519.06, -20419.67 
4.3514517e+2, 2.6395744e+2, -382972.63, -500489.1, -1093.0753, -0.0007763841, -0.027325269, -382962.44, -29748.104 
4.3514365e+2, 2.7394503e+2, -285765.97, -402572.4, -528.00916, -0.0005420365, -0.035563968, -285763.6, -30427.95 
4.3514216e+2, 2.8393188e+2, -200857.6, -330245.6, -290.97543, -0.0009304183, -0.0354697, -200856.94, -43392.324 
4.351407e+2, 2.939179e+2, -103823.62, -232860.13, -1004.83844, -0.002228287, -0.025484703, -103815.79, -44214.348 
4.3513927e+2, 3.039073e+2, -6628.5903, -82608.97, -669.095, -0.0022337916, -0.023420287, -6622.698, -6622.698 
4.3513793e+2, 3.139002e+2, -6181.6045, -81039.9, 219.51276, -0.0002553739, -0.036345787, -6180.961, -6180.961 
4.451705e+2, 1.2406383e+2, -1676532.4, -1732045.6, 516.7201, 0.00023116947, -0.03506817, -1676527.6, 47643.996 
4.45169e+2, 1.3406068e+2, -1581380.5, -1636972.8, -443.2203, 0.000048336053, -0.014948051, -1581377.0, 44825.418 
4.451675e+2, 1.4405647e+2, -1493555.3, -1557967.8, -604.2737, 0.0020883626, -0.042631626, -1493549.5, 34694.168 
4.4516596e+2, 1.5405197e+2, -1396214.8, -1460857.0, -406.7664, -0.00028543698, -0.030520685, -1396212.1, 34075.563 
4.451644e+2, 1.6404678e+2, -1307809.0, -1381388.3, -453.4641, -0.0008818626, -0.025171015, -1307806.3, 24532.45 
4.4516286e+2, 1.7404087e+2, -1211244.3, -1284050.8, -614.0129, 0.0011795333, -0.03127918, -1211239.0, 23157.477 
4.4516128e+2, 1.8403433e+2, -1123682.9, -1205923.5, -905.70465, 0.0012093727, -0.03265857, -1123672.9, 12787.639 
4.4515964e+2, 1.9402719e+2, -1026121.44, -1108158.0, -849.171, -0.0017196469, -0.029779997, -1026112.6, 12417.945 
4.4515803e+2, 2.0401938e+2, -938144.4, -1029564.44, -818.1351, -0.0022448853, -0.028159818, -938137.06, 2470.154 
4.4515643e+2, 2.1401088e+2, -841479.9, -932163.3, -845.59344, 0.00075090205, -0.030480647, -841472.0, 1218.4309 
4.4515482e+2, 2.2400175e+2, -753631.2, -853416.94, -926.28174, 0.0015018864, -0.031122057, -753622.56, -8842.728 
4.4515318e+2, 2.3399201e+2, -656250.75, -755628.25, -968.228, -0.0010551097, -0.031718127, -656241.3, -9365.903 
4.4515154e+2, 2.4398158e+2, -568819.1, -678156.25, -819.5853, -0.0021786327, -0.030429978, -568813.0, -19835.428 
4.4514996e+2, 2.5397047e+2, -471918.28, -580678.6, -604.6959, -0.0011720334, -0.028646683, -471914.94, -20828.482 
4.4514838e+2, 2.6395875e+2, -383220.72, -500412.44, -538.692, -0.00046435758, -0.028577901, -383218.25, -30016.828 
4.451468e+2, 2.739464e+2, -285779.88, -402340.63, -939.689, -0.00023137599, -0.033758212, -285772.28, -30450.066 
4.4514522e+2, 2.8393325e+2, -200904.75, -330377.6, -742.05084, -0.0009150173, -0.033249486, -200900.5, -43449.418 
4.451437e+2, 2.9391927e+2, -103749.164, -232976.66, -143.07266, -0.0029498867, -0.026809515, -103749.01, -44160.633 
4.451422e+2, 3.0390865e+2, -6739.5874, -82350.0, 345.05518, -0.0028125618, -0.025325522, -6738.0127, -6738.0127 
4.4514084e+2, 3.139016e+2, -7675.7227, -81390.414, -233.0373, 0.0006479766, -0.034346316, -7674.986, -7674.986 
4.5517468e+2, 1.2406526e+2, -1676989.3, -1732953.5, 62.761475, 0.0031573633, -0.037243467, -1676989.3, 47168.38 
4.5517302e+2, 1.3406208e+2, -1581837.1, -1637928.9, -907.2788, -0.0019797934, -0.012483216, -1581822.5, 44366.203 
4.551714e+2, 1.4405786e+2, -1493227.1, -1557323.3, -702.83575, -0.0009951808, -0.039868865, -1493219.4, 35010.668 
4.551699e+2, 1.5405338e+2, -1395830.6, -1460060.0, -476.12366, 0.0009781546, -0.0332353, -1395827.1, 34446.91 
4.551683e+2, 1.6404818e+2, -1308070.1, -1381909.6, -800.7586, 0.0012373098, -0.028523965, -1308061.4, 24263.44 
4.5516664e+2, 1.740423e+2, -1211555.4, -1284702.3, -984.0912, -0.00089723367, -0.028276933, -1211542.1, 22840.494 
4.5516497e+2, 1.8403575e+2, -1123585.0, -1205734.8, -1034.5624, -0.0013249437, -0.028114809, -1123572.0, 12874.754 
4.5516336e+2, 1.9402859e+2, -1026002.7, -1107893.9, -954.4588, 0.0007164626, -0.030702125, -1025991.56, 12525.478 
4.551617e+2, 2.0402074e+2, -938207.7, -1029667.44, -1148.714, 0.0010853007, -0.03134173, -938193.25, 2400.5154 
4.5515993e+2, 2.1401227e+2, -841546.06, -932298.6, -1197.8339, -0.00095835276, -0.031227874, -841530.25, 1146.6361 
4.5515823e+2, 2.2400314e+2, -753692.94, -853550.5, -1118.7943, -0.0017938932, -0.02962578, -753680.4, -8914.19 
4.551566e+2, 2.3399341e+2, -656327.0, -755771.56, -1143.2261, -0.0008520266, -0.028293421, -656313.9, -9452.212 
4.551549e+2, 2.4398299e+2, -568477.3, -677426.8, -1099.8232, -0.00033143195, -0.028840767, -568466.25, -19502.406 
4.5515323e+2, 2.5397187e+2, -471524.8, -579851.06, -900.33356, -0.00045513772, -0.034413133, -471517.34, -20444.543 
4.5515156e+2, 2.6396015e+2, -383855.72, -501719.9, -756.9393, -0.0007028963, -0.03327608, -383850.84, -30663.094 
4.5514992e+2, 2.739478e+2, -286537.5, -403895.84, -1139.9795, -0.0011326527, -0.024878467, -286526.44, -31218.021 
4.551483e+2, 2.8393468e+2, -199993.92, -328462.0, -933.96826, -0.0013561702, -0.02387691, -199987.13, -42549.895 
4.5514673e+2, 2.9392067e+2, -102651.516, -230660.67, -345.56866, -0.0012648993, -0.036608767, -102650.586, -43075.94 
4.5514518e+2, 3.0391005e+2, -7634.5503, -84182.98, -98.331184, -0.0014243458, -0.03750948, -7634.424, -7634.424 
4.5514363e+2, 3.1390306e+2, -8789.496, -83716.78, -691.0026, -0.0019159768, -0.023405973, -8783.124, -8783.124 
4.6517885e+2, 1.2406676e+2, -1677481.3, -1733205.8, 148.64995, 0.0026337595, -0.03645526, -1677480.9, 46661.957 
4.651771e+2, 1.3406359e+2, -1580816.1, -1637453.1, -376.95557, -0.0017262588, -0.012797586, -1580813.6, 45360.45 
4.6517545e+2, 1.4405935e+2, -1491939.9, -1556864.9, -96.2784, -0.00043770304, -0.040421035, -1491939.8, 36275.832 
4.6517384e+2, 1.5405485e+2, -1395851.6, -1460253.0, -370.999, 0.0010089955, -0.03269011, -1395849.5, 34410.063 
4.6517217e+2, 1.6404966e+2, -1308329.4, -1382041.8, -847.32404, 0.0009914178, -0.027695747, -1308319.6, 23990.81 
4.6517044e+2, 1.7404376e+2, -1210773.1, -1284311.1, -707.4556, -0.0010576729, -0.028331364, -1210766.4, 23601.912 
4.6516874e+2, 1.8403722e+2, -1122744.1, -1205386.9, -677.6008, -0.0013067891, -0.028565062, -1122738.6, 13693.806 
4.6516702e+2, 1.9403003e+2, -1026412.1, -1108162.8, -775.9598, 0.0010386155, -0.03083368, -1026404.8, 12098.005 
4.651653e+2, 2.040222e+2, -938844.25, -1029890.25, -966.71826, 0.001332925, -0.031147003, -938834.0, 1745.5192 
4.6516347e+2, 2.1401373e+2, -841156.4, -932008.1, -879.7548, -0.0013394326, -0.030704416, -841147.9, 1514.6161 
4.651617e+2, 2.2400463e+2, -753170.8, -853443.8, -803.1459, -0.002240452, -0.029151604, -753164.4, -8412.584 
4.6515998e+2, 2.3399486e+2, -656611.0, -756085.6, -878.3719, -0.000534486, -0.028407695, -656603.25, -9755.779 
4.6515822e+2, 2.4398443e+2, -568793.8, -677317.6, -903.1162, 0.00020105876, -0.028960725, -568786.3, -19836.686 
4.651565e+2, 2.5397334e+2, -471404.84, -579482.56, -908.63336, -0.000526183, -0.033691503, -471397.22, -20338.96 
4.6515477e+2, 2.639616e+2, -383929.03, -501953.5, -658.64514, -0.0011476909, -0.032574616, -383925.34, -30752.22 
4.6515304e+2, 2.7394927e+2, -286939.56, -404349.03, -449.7376, -0.0016032179, -0.025463594, -286937.84, -31643.693 
4.6515137e+2, 2.839361e+2, -200318.72, -328192.03, -224.45062, -0.0014957049, -0.024633633, -200318.33, -42895.387 
4.6514973e+2, 2.939222e+2, -103367.055, -230499.34, -455.4027, -0.000551132, -0.03587831, -103365.42, -43805.668 
4.651481e+2, 3.039116e+2, -8472.566, -84952.336, -341.41833, -0.00085513364, -0.036497798, -8471.043, -8471.043 
4.6514645e+2, 3.1390458e+2, -7971.072, -83794.24, -93.135086, -0.0029909688, -0.023927953, -7970.957, -7970.957 
4.7518292e+2, 1.2406834e+2, -1677074.5, -1732391.5, 76.62047, -0.0011437738, -0.0328959, -1677074.4, 47053.07 
4.7518125e+2, 1.3406515e+2, -1580411.8, -1636614.3, -454.36813, 0.00064465444, -0.015693432, -1580408.1, 45750.46 
4.7517952e+2, 1.4406091e+2, -1492445.6, -1557889.8, -481.88123, 0.003502305, -0.044055987, -1492442.0, 35758.125 
4.7517776e+2, 1.5405641e+2, -1396432.4, -1461459.5, -777.3078, -0.0001311894, -0.02909366, -1396423.1, 33821.203 
4.7517604e+2, 1.6405119e+2, -1308092.8, -1381569.3, -969.0245, -0.0014791852, -0.022956563, -1308079.9, 24215.533 
4.7517428e+2, 1.7404526e+2, -1210475.9, -1283679.1, -805.15314, 0.00056306977, -0.03124653, -1210467.0, 23886.512 
4.7517252e+2, 1.8403871e+2, -1122916.8, -1205718.9, -1081.1422, 0.0010804345, -0.033679694, -1122902.6, 13515.079 
4.7517064e+2, 1.9403155e+2, -1026611.06, -1108587.1, -1206.7659, -0.0006324814, -0.030215876, -1026593.3, 11894.557 
4.7516882e+2, 2.0402375e+2, -938683.5, -1029577.0, -1081.909, -0.001320064, -0.027783025, -938670.6, 1893.788 
4.7516707e+2, 2.1401529e+2, -840985.7, -931631.4, -963.9164, -0.0004830245, -0.028992258, -840975.44, 1671.8312 
4.7516522e+2, 2.2400616e+2, -753311.9, -853698.56, -1159.1595, -0.000024536595, -0.029636974, -753298.5, -8561.774 
4.751634e+2, 2.3399635e+2, -656767.2, -756403.0, -1259.855, -0.00012173826, -0.031844694, -656751.25, -9918.381 
4.7516152e+2, 2.4398594e+2, -568804.1, -677343.7, -1101.7465, -0.00051234337, -0.030682417, -568792.94, -19857.9 
4.7515973e+2, 2.5397494e+2, -471412.94, -579483.06, -1088.9622, -0.0013461502, -0.02686372, -471401.97, -20359.115 
4.7515792e+2, 2.6396322e+2, -383595.03, -501234.78, -932.3344, -0.001795936, -0.026794054, -383587.66, -30430.043 
4.7515616e+2, 2.739508e+2, -286565.4, -403551.88, -736.3255, -0.0016798155, -0.034965146, -286560.78, -31281.328 
4.7515443e+2, 2.8393763e+2, -200680.5, -328928.75, -538.3204, -0.0013663652, -0.03492269, -200678.23, -43270.008 
4.7515267e+2, 2.939238e+2, -103810.26, -231414.73, -768.34937, -0.0007650195, -0.025212234, -103805.63, -44261.844 
4.75151e+2, 3.0391324e+2, -8100.346, -84160.6, -380.88852, -0.0010682103, -0.023042409, -8098.439, -8098.439 
4.7514936e+2, 3.1390604e+2, -7530.7295, -82815.4, -99.428734, -0.002687078, -0.035278898, -7530.598, -7530.598 
4.851871e+2, 1.2406997e+2, -1676032.5, -1731991.3, 490.59604, -0.00093408604, -0.033111826, -1676028.3, 48083.234 
4.8518535e+2, 1.3406679e+2, -1580410.6, -1636725.4, -522.6039, 0.0006211347, -0.015399192, -1580405.8, 45736.887 
4.851836e+2, 1.4406253e+2, -1492606.4, -1557975.9, -654.4585, 0.0034033642, -0.043676186, -1492599.8, 35584.508 
4.8518172e+2, 1.5405802e+2, -1395657.1, -1461079.0, -371.3682, -0.00025877662, -0.029125335, -1395655.0, 34573.508 
4.8517993e+2, 1.6405281e+2, -1307319.4, -1381286.9, -351.5697, -0.0015051932, -0.023073671, -1307317.8, 24961.938 
4.8517814e+2, 1.7404686e+2, -1210907.0, -1283994.9, -560.9153, 0.0008331735, -0.030985294, -1210902.8, 23435.096 
4.8517627e+2, 1.8404031e+2, -1123413.9, -1205943.1, -952.56323, 0.0012766536, -0.033225752, -1123402.9, 12999.1 
4.8517436e+2, 1.9403316e+2, -1025720.5, -1108126.5, -852.47217, -0.001047951, -0.02984147, -1025711.7, 12760.478 
4.8517245e+2, 2.0402534e+2, -937663.3, -1029125.94, -733.0691, -0.0017417566, -0.027592868, -937657.44, 2891.2756 
4.851706e+2, 2.1401687e+2, -841552.44, -931959.7, -839.9543, -0.000037437654, -0.029121056, -841544.6, 1087.0024 
4.851687e+2, 2.2400776e+2, -754210.3, -853983.3, -989.6356, 0.00056400156, -0.02984907, -754200.5, -9479.432 
4.851668e+2, 2.3399796e+2, -656465.94, -756086.06, -820.1584, -0.0004538251, -0.031811204, -656459.2, -9642.142 
4.8516485e+2, 2.4398755e+2, -568322.2, -677268.9, -618.0582, -0.0011401679, -0.03044309, -568318.6, -19399.498 
4.85163e+2, 2.5397652e+2, -471751.38, -579844.25, -740.0772, -0.0013427797, -0.026465483, -471746.3, -20719.158 
4.8516113e+2, 2.639648e+2, -384007.84, -501132.63, -692.8419, -0.0014271812, -0.02648944, -384003.75, -30861.86 
4.8515928e+2, 2.739524e+2, -286717.2, -403268.22, -660.6113, -0.0013495339, -0.035142675, -286713.44, -31449.982 
4.8515743e+2, 2.8393927e+2, -200957.23, -329359.25, -487.71075, -0.0013419335, -0.035100624, -200955.39, -43563.215 
4.8515564e+2, 2.939254e+2, -103771.48, -231772.06, -512.93365, -0.0014399254, -0.024650453, -103769.42, -44241.41 
4.8515388e+2, 3.0391484e+2, -7982.368, -83551.61, -18.624409, -0.0016087618, -0.0224594, -7982.364, -7982.364 
4.8515218e+2, 3.139077e+2, -9147.673, -82931.67, 198.56161, -0.0018362139, -0.035784412, -9147.139, -9147.139 
4.9519134e+2, 1.2407165e+2, -1676530.4, -1733013.6, 154.33458, 0.002948591, -0.03681949, -1676530.0, 47565.02 
4.9518946e+2, 1.3406844e+2, -1580922.5, -1637787.3, -858.1216, -0.001646221, -0.012136844, -1580909.5, 45216.81 
4.9518758e+2, 1.440642e+2, -1492148.6, -1557042.3, -828.7288, -0.00047088502, -0.039560348, -1492138.0, 36029.89 
4.9518576e+2, 1.540597e+2, -1395113.4, -1459948.5, -538.9498, 0.0005388202, -0.03253326, -1395108.9, 35103.207 
4.9518386e+2, 1.6405448e+2, -1307654.4, -1381965.1, -748.84265, 0.00073080795, -0.027705822, -1307646.9, 24616.256 
4.9518192e+2, 1.7404857e+2, -1211318.0, -1284854.9, -973.5504, -0.00017036356, -0.02775462, -1211305.1, 23016.072 
4.9517998e+2, 1.8404202e+2, -1123238.0, -1205592.3, -1050.4729, -0.000585973, -0.027574485, -1123224.5, 13160.832 
4.9517807e+2, 1.9403483e+2, -1025510.5, -1107665.1, -920.32275, -0.00030006992, -0.029699521, -1025500.25, 12955.466 
4.951761e+2, 2.0402701e+2, -937876.6, -1029533.2, -1193.7638, -0.00009350902, -0.030368282, -937861.06, 2671.3625 
4.951741e+2, 2.1401852e+2, -841782.56, -932448.5, -1338.4331, 0.000011414731, -0.03097059, -841762.8, 852.8104 
4.951721e+2, 2.2400941e+2, -753901.8, -853366.7, -1099.2733, -0.00038140718, -0.029803675, -753889.6, -9184.751 
4.9517018e+2, 2.339997e+2, -656130.0, -755364.56, -893.2104, -0.0014977308, -0.028525712, -656121.94, -9321.863 
4.951682e+2, 2.4398929e+2, -568530.44, -677658.0, -984.9785, -0.0017047488, -0.028367821, -568521.56, -19619.43 
4.9516624e+2, 2.5397816e+2, -472001.94, -580351.56, -1133.131, -0.0005783124, -0.03209997, -471990.1, -20978.912 
4.9516428e+2, 2.6396644e+2, -383969.06, -501052.44, -929.6811, -0.00011406236, -0.031315837, -383961.7, -30835.691 
4.951624e+2, 2.7395415e+2, -286657.4, -403127.25, -882.8478, -0.0006502526, -0.026554124, -286650.72, -31404.47 
4.9516046e+2, 2.8394103e+2, -201005.8, -329429.75, -704.8331, -0.001429953, -0.025779115, -201001.94, -43627.074 
4.951586e+2, 2.93927e+2, -103839.9, -231876.61, -722.68823, -0.0025611303, -0.033601437, -103835.82, -44323.402 
4.9515674e+2, 3.0391645e+2, -7689.0864, -82913.14, -469.38666, -0.0024709976, -0.033982255, -7686.1577, -7686.1577 
4.9515498e+2, 3.1390956e+2, -8792.381, -82195.375, -289.14328, -0.0004969445, -0.026066875, -8791.242, -8791.242 
5.0519556e+2, 1.2407342e+2, -1676147.4, -1732940.3, 266.4454, 0.0032591715, -0.036591433, -1676146.1, 47931.477 
5.051936e+2, 1.3407022e+2, -1580318.0, -1637601.8, -307.90585, -0.001886519, -0.01211527, -1580316.3, 45792.734 
5.051916e+2, 1.4406596e+2, -1491608.0, -1556814.9, -188.23282, -0.0007525066, -0.03951961, -1491607.4, 36543.332 
5.051898e+2, 1.5406145e+2, -1395152.0, -1459996.8, -458.05685, 0.0007798454, -0.03229981, -1395148.8, 35046.105 
5.051878e+2, 1.6405624e+2, -1307689.9, -1382015.1, -888.2908, 0.0010250156, -0.027474202, -1307679.3, 24566.666 
5.051858e+2, 1.7405032e+2, -1210498.0, -1284491.8, -725.3619, -0.0004961118, -0.02778617, -1210490.9, 23813.188 
5.0518376e+2, 1.8404377e+2, -1122459.0, -1205201.3, -626.0921, -0.0009541967, -0.02771946, -1122454.3, 13914.01 
5.051818e+2, 1.9403659e+2, -1026143.7, -1107957.1, -708.97235, 0.0001190312, -0.02975065, -1026137.56, 12301.024 
5.051797e+2, 2.0402876e+2, -938713.06, -1029982.0, -1040.9427, 0.00042504782, -0.030255523, -938701.25, 1814.0925 
5.051776e+2, 2.1402027e+2, -840979.9, -932111.25, -981.38257, -0.00037517096, -0.030587235, -840969.3, 1629.2261 
5.051756e+2, 2.2401115e+2, -752798.8, -852861.1, -794.6427, -0.0009754963, -0.029316057, -752792.5, -8104.6787 
5.0517356e+2, 2.3400143e+2, -656730.7, -755683.44, -963.2473, -0.0012797017, -0.028169638, -656721.3, -9938.281 
5.0517154e+2, 2.4399103e+2, -569548.0, -677953.2, -1063.1193, -0.0012451628, -0.028329274, -569537.56, -20652.55 
5.0516945e+2, 2.5397992e+2, -471870.7, -580068.1, -821.19104, -0.00072003866, -0.032654434, -471864.47, -20870.523 
5.051674e+2, 2.639682e+2, -383636.88, -501043.84, -526.0878, -0.00049587176, -0.031645566, -383634.5, -30525.8 
5.0516546e+2, 2.7395594e+2, -286962.9, -403471.5, -682.08075, -0.0007291164, -0.025442488, -286958.9, -31729.9 
5.051635e+2, 2.8394282e+2, -201394.19, -329179.4, -427.5159, -0.0012669087, -0.024681043, -201392.75, -44035.21 
5.051615e+2, 2.939288e+2, -104460.29, -231666.28, -71.63141, -0.0022591753, -0.03470913, -104460.25, -44965.406 
5.051596e+2, 3.0391824e+2, -8483.131, -83590.04, 105.45204, -0.0023217758, -0.035368938, -8482.982, -8482.982 
5.051577e+2, 3.1391135e+2, -8415.921, -82407.07, -334.72418, -0.00092533807, -0.024804657, -8414.406, -8414.406 
5.151998e+2, 1.2407529e+2, -1675818.3, -1732272.8, -8.253143, 0.00021738757, -0.032700684, -1675818.3, 48241.113 
5.1519775e+2, 1.3407207e+2, -1579967.5, -1636886.6, -594.6111, -0.00025879667, -0.01509116, -1579961.3, 46129.66 
5.151957e+2, 1.440678e+2, -1492070.1, -1557769.1, -506.81735, 0.0022809983, -0.043250125, -1492066.1, 36066.563 
5.151937e+2, 1.540633e+2, -1395695.4, -1461122.1, -770.302, 0.00048184322, -0.028681355, -1395686.3, 34490.71 
5.1519173e+2, 1.6405806e+2, -1307423.3, -1381469.6, -1080.7965, -0.0005001421, -0.022721821, -1307407.5, 24820.709 
5.1518965e+2, 1.740521e+2, -1210161.9, -1283783.8, -910.1131, -0.00020206635, -0.030851949, -1210150.6, 24135.893 
5.1518756e+2, 1.8404555e+2, -1122609.9, -1205497.3, -1043.5911, 0.00005201537, -0.033247065, -1122596.8, 13754.029 
5.151854e+2, 1.9403839e+2, -1026329.75, -1108351.8, -1148.1534, 0.00021976331, -0.029975709, -1026313.7, 12107.165 
5.1518327e+2, 2.0403059e+2, -938580.2, -1029717.1, -1140.829, -0.00012051013, -0.02744794, -938565.94, 1931.456 
5.151812e+2, 2.1402211e+2, -840840.75, -931792.5, -1045.3231, -0.0011775588, -0.02812176, -840828.75, 1751.6686 
5.151791e+2, 2.2401299e+2, -753133.56, -853516.0, -1267.6024, -0.0012542617, -0.028417291, -753117.56, -8447.611 
5.1517695e+2, 2.3400319e+2, -657088.25, -756432.0, -1474.586, 0.00010649766, -0.03055037, -657066.4, -10300.432 
5.151748e+2, 2.4399278e+2, -569126.1, -677097.1, -1188.7557, 0.00016066318, -0.030190261, -569113.06, -20245.117 
5.151727e+2, 2.539818e+2, -471393.16, -579050.06, -913.96783, -0.001720324, -0.02845288, -471385.4, -20409.838 
5.151706e+2, 2.639701e+2, -383888.22, -501518.44, -885.054, -0.0024749879, -0.0277694, -383881.56, -30791.46 
5.1516855e+2, 2.739577e+2, -287284.13, -404113.28, -1061.2345, -0.0015487345, -0.03134353, -287274.47, -32062.732 
5.1516646e+2, 2.8394458e+2, -200841.67, -328019.8, -721.1726, -0.000883164, -0.031286404, -200837.58, -43497.35 
5.1516443e+2, 2.939308e+2, -103810.92, -230300.11, -368.75275, -0.0006336059, -0.02844682, -103809.84, -44334.426 
5.1516247e+2, 3.0392027e+2, -9150.8, -84949.32, -76.64844, -0.0012378605, -0.02723798, -9150.723, -9150.723 
5.151605e+2, 3.1391308e+2, -9259.749, -84111.22, -481.8805, -0.003051262, -0.031481225, -9256.647, -9256.647 
5.2520406e+2, 1.2407722e+2, -1675386.5, -1732075.9, 424.79153, -0.00023763081, -0.03258556, -1675383.4, 48657.113 
5.25202e+2, 1.34074e+2, -1579517.5, -1636663.9, -510.807, 0.00006637137, -0.014927402, -1579513.0, 46559.016 
5.251999e+2, 1.4406972e+2, -1491661.4, -1557727.6, -461.02747, 0.0028069783, -0.042988412, -1491658.1, 36455.707 
5.2519774e+2, 1.540652e+2, -1395159.0, -1461036.5, -294.77722, 0.00023461385, -0.028508477, -1395157.6, 35000.59 
5.251956e+2, 1.6405997e+2, -1306914.8, -1381176.0, -448.84012, -0.0009047153, -0.022588082, -1306912.1, 25297.475 
5.2519345e+2, 1.7405401e+2, -1210250.0, -1283760.1, -576.47394, 0.00012640328, -0.03068816, -1210245.5, 24022.273 
5.2519137e+2, 1.8404746e+2, -1122826.8, -1205731.1, -895.71326, 0.0004999977, -0.033072334, -1122817.1, 13514.956 
5.2518916e+2, 1.940403e+2, -1025692.3, -1108193.4, -910.02203, -0.000110126246, -0.029804688, -1025682.25, 12720.045 
5.2518696e+2, 2.0403248e+2, -937818.06, -1029211.5, -809.7329, -0.00063514995, -0.027309114, -937810.9, 2667.988 
5.2518475e+2, 2.1402402e+2, -841461.25, -931929.25, -762.6862, -0.0010154322, -0.028067384, -841454.8, 1106.9308 
5.2518255e+2, 2.240149e+2, -754047.3, -853975.56, -916.9497, -0.00090301235, -0.028460395, -754038.94, -9387.719 
5.251803e+2, 2.340051e+2, -656416.25, -756144.8, -787.3679, -0.00006784246, -0.0306953, -656410.0, -9662.733 
5.251781e+2, 2.4399468e+2, -568177.6, -676721.25, -532.89246, -0.00011008671, -0.03004489, -568175.06, -19325.77 
5.251759e+2, 2.539837e+2, -472045.28, -579455.8, -815.3441, -0.0014608281, -0.027449518, -472039.1, -21082.17 
5.251738e+2, 2.63972e+2, -384907.9, -501690.13, -866.51306, -0.0021643497, -0.027021559, -384901.47, -31830.06 
5.251716e+2, 2.7395964e+2, -287455.78, -403831.3, -500.48804, -0.0018883672, -0.03250273, -287453.63, -32260.742 
5.2516943e+2, 2.839465e+2, -200939.22, -328266.53, -207.96754, -0.0013438701, -0.032410797, -200938.88, -43617.6 
5.2516735e+2, 2.9393274e+2, -104118.51, -230716.52, -700.101, -0.00042424904, -0.026613256, -104114.64, -44658.203 
5.2516526e+2, 3.039222e+2, -9374.963, -84601.56, -393.05725, -0.00087549526, -0.024964897, -9372.909, -9372.909 
5.251633e+2, 3.1391504e+2, -10098.785, -83976.04, 374.125, -0.0033173861, -0.032611903, -10096.891, -10096.891 
5.352083e+2, 1.24079205e+2, -1675698.9, -1732724.6, 146.98471, 0.0016565232, -0.035950646, -1675698.5, 48322.477 
5.3520614e+2, 1.34076e+2, -1579828.8, -1637313.0, -788.02106, -0.00082973536, -0.011871678, -1579817.9, 46234.43 
5.35204e+2, 1.4407173e+2, -1491422.1, -1557238.8, -737.6781, 0.0009978816, -0.039044835, -1491413.9, 36680.367 
5.352018e+2, 1.5406717e+2, -1394873.0, -1460438.8, -575.07587, 0.000018864826, -0.031528387, -1394868.0, 35270.867 
5.351996e+2, 1.6406193e+2, -1307109.9, -1381567.8, -792.51306, -0.00028533523, -0.026725437, -1307101.5, 25088.684 
5.351974e+2, 1.7405602e+2, -1210487.8, -1284252.9, -923.3173, 0.00047525394, -0.0275269, -1210476.3, 23771.865 
5.351951e+2, 1.8404947e+2, -1122850.5, -1205783.5, -1117.4939, 0.000413452, -0.027607733, -1122835.5, 13476.845 
5.3519285e+2, 1.9404227e+2, -1025707.7, -1108210.1, -1116.275, -0.0008522157, -0.029268146, -1025692.56, 12690.443 
5.351905e+2, 2.0403442e+2, -937780.44, -1029117.44, -1219.7958, -0.0011328519, -0.029647097, -937764.2, 2695.617 
5.351883e+2, 2.1402597e+2, -841404.8, -931818.25, -1197.8593, 0.000033828102, -0.030256221, -841389.0, 1153.6129 
5.35186e+2, 2.2401688e+2, -753775.9, -853416.75, -1048.8134, 0.000023550676, -0.029378356, -753764.8, -9133.146 
5.351837e+2, 2.3400714e+2, -656146.75, -755551.75, -889.01855, -0.0017089047, -0.028757444, -656138.8, -9411.677 
5.351814e+2, 2.4399674e+2, -568690.2, -677739.4, -1010.03864, -0.0019601027, -0.028034214, -568680.8, -19851.654 
5.3517914e+2, 2.539856e+2, -472620.56, -580642.5, -1322.294, -0.00003726857, -0.029432312, -472604.38, -21666.348 
5.351769e+2, 2.6397395e+2, -384304.38, -500447.22, -1058.7941, 0.00027435776, -0.029188931, -384294.72, -31242.129 
5.351746e+2, 2.739617e+2, -286737.4, -402324.2, -671.64886, -0.0017935885, -0.029222088, -286733.5, -31560.984 
5.351724e+2, 2.839486e+2, -201726.38, -329869.47, -531.9275, -0.0026121633, -0.028406776, -201724.17, -44423.395 
5.351702e+2, 2.9393464e+2, -105080.984, -232686.97, -1019.9942, -0.0015545918, -0.028935323, -105072.83, -45634.95 
5.351681e+2, 3.039241e+2, -8226.854, -82192.03, -713.45233, -0.0012060961, -0.028173856, -8219.973, -8219.973 
5.3516597e+2, 3.1391722e+2, -8694.201, -81041.97, 26.398874, -0.0018737626, -0.028542532, -8694.191, -8694.191 
5.452126e+2, 1.24081306e+2, -1675261.6, -1732705.3, 366.564, 0.002112528, -0.035803046, -1675259.4, 48741.09 
5.452103e+2, 1.3407809e+2, -1579363.9, -1637259.5, -367.66653, -0.0011919132, -0.011789836, -1579361.5, 46670.457 
5.452081e+2, 1.4407381e+2, -1490931.5, -1556938.4, -337.7179, 0.00054056593, -0.038950466, -1490929.8, 37144.184 
5.4520583e+2, 1.5406926e+2, -1394695.3, -1460267.8, -414.9228, 0.00031870898, -0.03176243, -1394692.6, 35425.824 
5.4520357e+2, 1.64064e+2, -1307111.9, -1381735.8, -691.7085, 0.00014409944, -0.02691348, -1307105.5, 25064.318 
5.4520124e+2, 1.7405811e+2, -1210085.8, -1284253.4, -706.16876, 0.0001390546, -0.027117556, -1210079.0, 24148.832 
5.451989e+2, 1.8405153e+2, -1122257.5, -1205384.6, -799.6787, -0.000077196666, -0.026991975, -1122249.8, 14042.399 
5.451966e+2, 1.9404432e+2, -1025715.94, -1108074.4, -704.6524, -0.000618986, -0.029012876, -1025709.9, 12652.832 
5.451942e+2, 2.040365e+2, -938064.6, -1029433.3, -866.19977, -0.0006710736, -0.029676821, -938056.4, 2383.164 
5.451918e+2, 2.1402802e+2, -840997.5, -931834.06, -1036.2039, -0.0000019742865, -0.03044802, -840985.7, 1536.8486 
5.4518944e+2, 2.2401892e+2, -753217.56, -852981.2, -1003.1767, -0.00021160116, -0.029408088, -753207.5, -8595.82 
5.4518706e+2, 2.3400922e+2, -656817.56, -755672.8, -1001.611, -0.0017143884, -0.028162103, -656807.44, -10100.562 
5.4518473e+2, 2.4399881e+2, -569647.1, -678104.8, -1026.1412, -0.0019446528, -0.027612211, -569637.4, -20828.582 
5.4518235e+2, 2.539877e+2, -472289.84, -580398.6, -716.6895, -0.00030097994, -0.030349355, -472285.1, -21367.389 
5.4517996e+2, 2.63976e+2, -383676.44, -500280.22, -366.03833, 0.00008399036, -0.029953947, -383675.28, -30643.018 
5.451777e+2, 2.7396378e+2, -286964.4, -402598.03, -812.36, -0.0013940458, -0.027628422, -286958.7, -31806.559 
5.4517543e+2, 2.839507e+2, -202129.55, -329762.94, -738.8112, -0.0022380464, -0.026754033, -202125.27, -44844.93 
5.451731e+2, 2.939367e+2, -105359.766, -232469.66, -54.408497, -0.0021207074, -0.030661829, -105359.74, -45942.313 
5.451709e+2, 3.0392617e+2, -8705.563, -82679.06, 329.73474, -0.0018690814, -0.030312095, -8704.094, -8704.094 
5.451687e+2, 3.139193e+2, -8914.172, -81478.914, -573.2831, -0.0013528302, -0.026603835, -8909.644, -8909.644 
5.552169e+2, 1.240835e+2, -1675189.5, -1732581.9, 97.22379, 0.0012032172, -0.032378, -1675189.3, 48789.68 
5.552146e+2, 1.3408023e+2, -1579283.3, -1637092.8, -640.28577, -0.0010686587, -0.014445653, -1579276.1, 46734.805 
5.5521226e+2, 1.4407595e+2, -1491080.5, -1557237.5, -693.31836, 0.001316954, -0.04240477, -1491073.3, 36979.73 
5.552099e+2, 1.5407142e+2, -1394852.4, -1460605.6, -777.9088, 0.0010756116, -0.029426392, -1394843.3, 35254.08 
5.552075e+2, 1.6406618e+2, -1307131.9, -1381792.4, -935.79974, 0.00038168664, -0.023457367, -1307120.1, 25028.545 
5.5520517e+2, 1.7406021e+2, -1210112.4, -1284294.8, -935.63525, -0.0008444983, -0.029255437, -1210100.6, 24106.637 
5.552027e+2, 1.8405363e+2, -1122112.4, -1205063.4, -1156.7307, -0.00095630693, -0.030856423, -1122096.3, 14175.316 
5.5520034e+2, 1.940465e+2, -1025542.7, -1107713.0, -1079.8246, 0.00050900824, -0.02901469, -1025528.5, 12813.049 
5.5519783e+2, 2.0403866e+2, -938326.4, -1029973.6, -1125.1139, 0.0006684665, -0.027564924, -938312.56, 2105.688 
5.551954e+2, 2.1403015e+2, -841316.44, -932477.2, -1274.2894, -0.0010560636, -0.028788052, -841298.6, 1203.1117 
5.5519295e+2, 2.2402103e+2, -753279.56, -853090.25, -1401.3727, -0.0015372991, -0.028614448, -753259.9, -8668.703 
5.5519044e+2, 2.3401129e+2, -656843.9, -755721.94, -1419.189, -0.00020824597, -0.028814532, -656823.56, -10137.009 
5.55188e+2, 2.4400091e+2, -569079.8, -676925.56, -1217.4901, -0.00020689196, -0.02866525, -569066.06, -20277.889 
5.5518556e+2, 2.539899e+2, -471670.4, -579092.0, -892.5052, -0.0021455823, -0.030271744, -471662.97, -20766.945 
5.551831e+2, 2.6397824e+2, -384422.47, -501793.0, -738.1349, -0.002562854, -0.029412255, -384417.8, -31407.299 
5.551807e+2, 2.739659e+2, -287864.6, -404432.78, -1188.446, -0.0007230397, -0.02761072, -287852.47, -32720.768 
5.5517834e+2, 2.839528e+2, -201063.05, -327522.0, -1042.2767, -0.00034966232, -0.02729222, -201054.47, -43794.5 
5.5517596e+2, 2.9393896e+2, -104063.1, -229758.61, -372.57758, -0.0021769048, -0.031824235, -104062.0, -44666.777 
5.5517364e+2, 3.0392843e+2, -10117.893, -85592.45, 58.307014, -0.0028571268, -0.031437542, -10117.848, -10117.848 
5.551714e+2, 3.1392136e+2, -10668.284, -85078.484, -804.0719, -0.0017242796, -0.026656702, -10659.597, -10659.597 
5.6522125e+2, 1.24085754e+2, -1674410.5, -1732199.3, 392.98782, 0.0009194665, -0.032120604, -1674407.9, 49549.004 
5.652188e+2, 1.340825e+2, -1579036.3, -1636929.9, -405.42575, -0.000689984, -0.014700585, -1579033.4, 46955.555 
5.652164e+2, 1.4407818e+2, -1491029.0, -1557398.4, -403.2558, 0.0017950012, -0.042359557, -1491026.5, 37004.438 
5.65214e+2, 1.5407366e+2, -1394141.8, -1460468.0, -446.92722, 0.0007104645, -0.028618578, -1394138.8, 35936.605 
5.652115e+2, 1.6406842e+2, -1306212.4, -1381274.9, -628.6002, -0.00013390482, -0.022705788, -1306207.1, 25919.623 
5.6520903e+2, 1.7406245e+2, -1210061.4, -1284173.8, -557.3434, -0.0005210548, -0.029733775, -1210057.3, 24128.129 
5.652065e+2, 1.8405586e+2, -1122478.0, -1205341.9, -780.7193, -0.0004440087, -0.031716723, -1122470.6, 13779.142 
5.65204e+2, 1.9404872e+2, -1025358.4, -1107747.1, -950.7658, 0.0002707416, -0.029025406, -1025347.44, 12972.38 
5.6520146e+2, 2.040409e+2, -937833.4, -1029584.3, -988.51483, 0.00018939802, -0.027005445, -937822.75, 2573.6628 
5.651989e+2, 2.140324e+2, -841295.6, -932290.7, -720.7635, -0.0010430343, -0.028065639, -841289.9, 1189.8392 
5.6519634e+2, 2.2402327e+2, -753574.7, -853383.94, -684.3084, -0.0012881571, -0.028160887, -753570.0, -9000.782 
5.6519383e+2, 2.3401351e+2, -656722.6, -755850.8, -801.385, -0.00009723132, -0.029251141, -656716.1, -10051.366 
5.6519127e+2, 2.4400315e+2, -568736.9, -676628.7, -769.9636, -0.00019200672, -0.02906177, -568731.4, -19964.904 
5.6518877e+2, 2.5399217e+2, -471894.75, -579036.7, -967.9658, -0.0021720924, -0.029263161, -471886.0, -21011.94 
5.651862e+2, 2.6398048e+2, -385023.38, -501996.8, -870.5881, -0.002670737, -0.028428992, -385016.88, -32028.445 
5.6518376e+2, 2.739681e+2, -288413.1, -404623.8, -401.4238, -0.0009605561, -0.028766884, -288411.72, -33301.965 
5.6518126e+2, 2.83955e+2, -201473.64, -327697.9, -117.13445, -0.00048665644, -0.028536461, -201473.53, -44235.57 
5.651788e+2, 2.9394126e+2, -104146.836, -229785.23, -747.79565, -0.0018804017, -0.03009614, -104142.38, -44769.44 
5.6517637e+2, 3.0393073e+2, -10161.947, -85375.28, -426.02606, -0.002563278, -0.029524632, -10159.534, -10159.534 
5.6517404e+2, 3.1392363e+2, -11447.842, -85193.78, 611.73114, -0.0020762237, -0.02874613, -11442.768, -11442.768 
5.7522565e+2, 1.24088064e+2, -1674465.5, -1732301.6, -17.937696, 0.0011901358, -0.034785535, -1674465.4, 49468.813 
5.752231e+2, 1.3408484e+2, -1579043.0, -1636968.9, -825.4183, -0.00009226901, -0.012760958, -1579031.3, 46934.594 
5.752206e+2, 1.4408055e+2, -1491107.8, -1557584.1, -609.774, 0.0019795734, -0.039106127, -1491102.3, 36905.684 
5.752181e+2, 1.5407598e+2, -1394257.4, -1460683.5, -627.45465, -0.00069978065, -0.029222403, -1394251.5, 35801.336 
5.752155e+2, 1.6407071e+2, -1306118.9, -1381051.3, -1065.3845, -0.0013545316, -0.024440913, -1306103.8, 26000.623 
5.7521296e+2, 1.7406477e+2, -1209922.0, -1283895.6, -1024.7188, 0.0009956688, -0.02868175, -1209907.8, 24254.668 
5.7521033e+2, 1.840582e+2, -1122735.5, -1205891.8, -1026.5186, 0.0013345934, -0.029806849, -1122722.8, 13504.057 
5.752077e+2, 1.94051e+2, -1025680.0, -1108396.6, -1166.3787, -0.0012436664, -0.029049493, -1025663.56, 12633.913 
5.752051e+2, 2.0404316e+2, -937426.5, -1028716.0, -1341.7418, -0.001984129, -0.027878663, -937406.8, 2967.3535 
5.752025e+2, 2.1403475e+2, -840806.0, -931262.06, -1099.0404, -0.000053982003, -0.028210318, -840792.6, 1664.042 
5.7519984e+2, 2.2402565e+2, -753718.7, -853671.4, -1007.35345, 0.0004055894, -0.028020779, -753708.5, -9162.668 
5.751972e+2, 2.3401587e+2, -656933.75, -756280.7, -1112.2217, -0.0012927429, -0.02948776, -656921.3, -10279.548 
5.751946e+2, 2.4400544e+2, -569114.8, -677399.25, -1089.8951, -0.0017907461, -0.028850242, -569103.9, -20360.064 
5.75192e+2, 2.5399444e+2, -472301.88, -579851.94, -1282.6267, -0.0005211837, -0.027391914, -472286.6, -21434.785 
5.751894e+2, 2.639828e+2, -384261.28, -500389.25, -1229.7155, -0.0004314084, -0.02703705, -384248.25, -31282.234 
5.751868e+2, 2.7397048e+2, -287508.16, -402741.28, -779.0582, -0.0020598383, -0.031016815, -287502.9, -32416.541 
5.751842e+2, 2.8395742e+2, -202462.11, -329742.22, -358.73468, -0.0025249678, -0.030431084, -202461.1, -45246.64 
5.751817e+2, 2.9394355e+2, -105378.24, -232297.45, -949.57904, -0.001266469, -0.025673555, -105371.14, -46020.53 
5.751792e+2, 3.0393305e+2, -8600.178, -82074.984, -837.2305, -0.0010888904, -0.024783794, -8590.64, -8590.64 
5.751767e+2, 3.1392613e+2, -9537.733, -81200.945, 144.3426, -0.002445364, -0.032735497, -9537.442, -9537.442 
5.8523e+2, 1.240905e+2, -1674499.4, -1732535.6, 386.29373, 0.0015384124, -0.03490831, -1674496.8, 49413.605 
5.852274e+2, 1.3408726e+2, -1578119.6, -1636697.0, -515.8443, -0.0005307118, -0.012288442, -1578115.0, 47827.094 
5.8522475e+2, 1.4408296e+2, -1490014.6, -1556996.6, -355.35284, 0.0014944097, -0.038404647, -1490012.8, 37971.484 
5.852222e+2, 1.5407838e+2, -1394419.6, -1460685.3, -231.03015, -0.00035880206, -0.029702883, -1394418.8, 35610.32 
5.8521956e+2, 1.6407312e+2, -1306676.0, -1381449.6, -622.8458, -0.00083410606, -0.025042074, -1306670.8, 25409.896 
5.852169e+2, 1.7406718e+2, -1209320.4, -1283752.9, -802.2533, 0.0007735239, -0.027875142, -1209311.6, 24827.146 
5.852142e+2, 1.840606e+2, -1121736.6, -1205388.3, -848.55707, 0.0009172346, -0.02859475, -1121728.0, 14475.241 
5.852115e+2, 1.940534e+2, -1025652.25, -1108350.9, -663.9303, -0.0010762421, -0.028869906, -1025646.94, 12627.022 
5.852087e+2, 2.0404556e+2, -937879.9, -1028960.0, -828.58215, -0.0016395288, -0.028333554, -937872.3, 2478.3157 
5.8520603e+2, 2.1403714e+2, -840936.7, -931357.4, -1101.2927, -0.00012228648, -0.028707584, -840923.25, 1509.9448 
5.852033e+2, 2.2402805e+2, -753506.56, -853433.3, -1164.0063, 0.00013902498, -0.028209124, -753493.0, -8970.679 
5.8520055e+2, 2.3401828e+2, -656608.0, -755971.44, -965.7392, -0.0014515267, -0.028866934, -656598.6, -9980.632 
5.851978e+2, 2.4400787e+2, -569107.94, -677506.3, -732.34534, -0.0018067008, -0.02814659, -569102.94, -20382.959 
5.851951e+2, 2.5399685e+2, -472842.3, -580255.8, -632.3713, -0.00034115138, -0.027665175, -472838.6, -22010.336 
5.8519244e+2, 2.6398516e+2, -384596.16, -500352.72, -592.826, -0.0002366554, -0.027397046, -384593.1, -31650.637 
5.8518976e+2, 2.7397293e+2, -287065.22, -402292.8, -894.6767, -0.0021184264, -0.03015204, -287058.28, -31995.803 
5.851871e+2, 2.8395987e+2, -202192.06, -329570.94, -551.4648, -0.0026553627, -0.029558575, -202189.69, -44999.234 
5.851845e+2, 2.93946e+2, -106373.96, -232763.4, 66.52941, -0.0011949441, -0.026596464, -106373.93, -47047.176 
5.8518195e+2, 3.039355e+2, -9775.832, -82428.84, 275.2265, -0.00094479293, -0.025736867, -9774.789, -9774.789 
5.851793e+2, 3.1392857e+2, -9588.302, -80991.98, -534.8567, -0.002420315, -0.031055933, -9584.295, -9584.295 
5.952344e+2, 1.2409305e+2, -1674702.4, -1732986.5, 206.95236, 0.001923425, -0.03268062, -1674701.6, 49183.81 
5.952317e+2, 1.3408975e+2, -1578328.8, -1637109.9, -683.29877, -0.0019202374, -0.013161313, -1578320.9, 47596.902 
5.95229e+2, 1.4408545e+2, -1489880.1, -1556692.1, -838.969, 0.00038722815, -0.04004254, -1489869.6, 38090.285 
5.952262e+2, 1.540809e+2, -1394220.3, -1460294.4, -753.1445, 0.0015727134, -0.030070199, -1394211.6, 35792.766 
5.952235e+2, 1.6407564e+2, -1306916.8, -1381973.3, -814.166, 0.0012642841, -0.024601297, -1306908.0, 25148.002 
5.9522074e+2, 1.7406967e+2, -1209638.4, -1284387.8, -950.7271, -0.001063399, -0.02729819, -1209626.3, 24488.268 
5.95218e+2, 1.8406308e+2, -1121488.1, -1204842.3, -1291.7557, -0.001534746, -0.028022982, -1121468.1, 14710.896 
5.952152e+2, 1.9405593e+2, -1025325.0, -1107676.4, -1145.7958, 0.0006301903, -0.028503705, -1025309.06, 12940.177 
5.952124e+2, 2.0404808e+2, -938292.3, -1029825.75, -1133.1792, 0.0010125081, -0.028400121, -938278.25, 2047.7576 
5.9520954e+2, 2.1403958e+2, -841437.56, -932391.8, -1377.6683, -0.0011794829, -0.029532075, -841416.7, 992.6641 
5.9520674e+2, 2.2403046e+2, -753225.9, -852835.7, -1434.1844, -0.0019479824, -0.028699376, -753205.25, -8706.597 
5.95204e+2, 2.3402078e+2, -656257.5, -755207.2, -1242.8522, -0.0006611803, -0.027453557, -656241.94, -9648.298 
5.9520113e+2, 2.440104e+2, -568923.1, -677086.44, -1180.1001, -0.00037196444, -0.026990889, -568910.25, -20215.043 
5.951983e+2, 2.5399935e+2, -472654.63, -579866.3, -1098.6581, -0.0015358377, -0.029924871, -472643.38, -21839.883 
5.951955e+2, 2.639877e+2, -385079.16, -501354.34, -791.5123, -0.0019464322, -0.029374374, -385073.78, -32155.906 
5.9519273e+2, 2.739754e+2, -287656.66, -403468.1, -1052.6816, -0.0012228563, -0.026391422, -287647.1, -32608.941 
5.9519005e+2, 2.8396237e+2, -201264.88, -327586.38, -1054.6858, -0.0010335555, -0.026118409, -201256.06, -44090.1 
5.9518725e+2, 2.9394856e+2, -105242.016, -230405.63, -493.32596, -0.0016454286, -0.032491032, -105240.07, -45938.574 
5.9518456e+2, 3.0393806e+2, -11002.505, -84984.46, 68.34467, -0.0020535728, -0.031965766, -11002.441, -11002.441 
5.9518194e+2, 3.1393108e+2, -11127.851, -84149.64, -674.2716, -0.0020562941, -0.024082197, -11121.625, -11121.625 
6.052388e+2, 1.2409566e+2, -1673454.9, -1732362.1, 404.6063, 0.0014902357, -0.031963762, -1673452.1, 50407.742 
6.0523593e+2, 1.3409236e+2, -1578374.3, -1637054.6, -244.75043, -0.0015686477, -0.013679445, -1578373.3, 47518.87 
6.052332e+2, 1.4408806e+2, -1490336.1, -1557097.5, -372.71817, 0.0009582495, -0.040399857, -1490334.0, 37600.285 
6.052304e+2, 1.5408349e+2, -1393397.5, -1460101.9, -597.3834, 0.0014307873, -0.029516399, -1393392.1, 36586.85 
6.0522753e+2, 1.6407824e+2, -1305688.0, -1381280.3, -684.32446, 0.0008820799, -0.023955137, -1305681.8, 26348.746 
6.052247e+2, 1.7407227e+2, -1209717.3, -1284303.1, -443.49866, -0.0010181026, -0.027715625, -1209714.6, 24374.531 
6.0522187e+2, 1.8406568e+2, -1122060.8, -1205179.0, -720.5473, -0.0013200614, -0.028702412, -1122054.6, 14099.027 
6.0521895e+2, 1.9405852e+2, -1024929.0, -1107563.6, -947.31836, 0.0006410646, -0.028288895, -1024918.1, 13305.6875 
6.052161e+2, 2.0405068e+2, -937473.6, -1029489.2, -964.0417, 0.00093002326, -0.02768443, -937463.5, 2837.0857 
6.052131e+2, 2.1404217e+2, -841033.3, -932257.1, -750.88416, -0.0012062239, -0.028886564, -841027.1, 1356.865 
6.052102e+2, 2.2403306e+2, -753298.56, -852865.2, -710.637, -0.0019192902, -0.028368184, -753293.5, -8820.151 
6.052073e+2, 2.3402336e+2, -656995.06, -755554.1, -888.1529, -0.00056775485, -0.027769217, -656987.06, -10418.707 
6.052044e+2, 2.44013e+2, -569484.0, -677172.9, -1011.25, -0.0003372522, -0.02741147, -569474.5, -20804.625 
6.052015e+2, 2.5400198e+2, -472072.0, -579382.6, -986.12164, -0.0017479298, -0.029676082, -472062.94, -21285.02 
6.051986e+2, 2.6399028e+2, -384656.78, -501224.7, -592.9103, -0.002147714, -0.028978817, -384653.75, -31761.541 
6.0519576e+2, 2.7397802e+2, -288886.44, -404171.38, -369.40997, -0.0010302415, -0.026606161, -288885.25, -33872.586 
6.0519296e+2, 2.83965e+2, -202538.8, -327946.25, -386.21854, -0.0008073106, -0.026346331, -202537.61, -45397.18 
6.0519004e+2, 2.9395118e+2, -104746.86, -229871.72, -775.5616, -0.0019319193, -0.03184632, -104742.05, -45466.434 
6.0518724e+2, 3.039407e+2, -10341.061, -84867.21, -282.4708, -0.0024182783, -0.03128091, -10339.989, -10339.989 
6.0518456e+2, 3.1393373e+2, -11932.231, -84801.79, 330.72528, -0.0018486573, -0.024586406, -11930.73, -11930.73 
6.152432e+2, 1.24098346e+2, -1673242.9, -1731904.9, -103.6948, 0.00028327986, -0.03261315, -1673242.8, 50590.867 
6.152403e+2, 1.3409507e+2, -1578080.5, -1636477.4, -770.89575, 0.00035687606, -0.013870366, -1578070.4, 47795.184 
6.152374e+2, 1.4409079e+2, -1490677.0, -1557830.9, -584.22595, 0.0030396292, -0.039584816, -1490672.0, 37235.652 
6.1523455e+2, 1.5408617e+2, -1393830.3, -1460978.1, -764.3183, -0.0006242179, -0.02812089, -1393821.5, 36131.27 
6.1523163e+2, 1.640809e+2, -1305351.9, -1380562.3, -1150.1313, -0.0017812176, -0.023118228, -1305334.3, 26670.244 
6.152287e+2, 1.7407496e+2, -1209284.5, -1283418.0, -951.85114, 0.000739811, -0.029044455, -1209272.3, 24790.387 
6.1522573e+2, 1.840684e+2, -1122371.8, -1205832.5, -973.1367, 0.0013180426, -0.030525042, -1122360.4, 13766.634 
6.152227e+2, 1.9406119e+2, -1025337.0, -1108386.9, -1162.9443, -0.0009220909, -0.028216057, -1025320.7, 12876.989 
6.152197e+2, 2.0405334e+2, -937181.25, -1028851.6, -1335.7758, -0.0016773132, -0.026251268, -937161.8, 3112.6829 
6.152167e+2, 2.1404491e+2, -840666.06, -931468.5, -1146.1372, -0.00029557478, -0.0268917, -840651.6, 1705.6646 
6.152137e+2, 2.240358e+2, -753571.44, -853412.9, -1162.6304, 0.000044862838, -0.027283354, -753557.9, -9111.331 
6.1521065e+2, 2.3402601e+2, -657320.06, -756238.8, -1339.3501, -0.0011302506, -0.029681673, -657301.94, -10759.63 
6.152076e+2, 2.4401562e+2, -569447.2, -677104.25, -1194.2135, -0.0016105409, -0.029284278, -569434.0, -20789.895 
6.1520463e+2, 2.5400466e+2, -472030.22, -579249.94, -1141.4128, -0.0010654327, -0.027108494, -472018.06, -21266.451 
6.152017e+2, 2.6399302e+2, -384332.63, -500500.97, -1149.1656, -0.0009672442, -0.026393328, -384321.25, -31455.648 
6.151987e+2, 2.739807e+2, -288493.7, -403367.38, -974.12866, -0.0015041935, -0.030507939, -288485.44, -33499.316 
6.1519575e+2, 2.8396767e+2, -203113.28, -329158.13, -524.7163, -0.0018914252, -0.02996508, -203111.1, -45997.164 
6.151929e+2, 2.939539e+2, -105477.15, -231338.05, -847.9458, -0.0020772938, -0.025126867, -105471.44, -46222.26 
6.1519e+2, 3.0394343e+2, -9484.979, -83013.63, -758.8737, -0.0021051245, -0.024189373, -9477.147, -9477.147 
6.1518717e+2, 3.1393644e+2, -10863.043, -82548.44, -206.7234, -0.0018240532, -0.03207185, -10862.447, -10862.447 
6.2524766e+2, 1.24101155e+2, -1673476.6, -1732294.9, 503.23578, 0.00071680156, -0.03309284, -1673472.3, 50333.684 
6.252447e+2, 1.3409789e+2, -1577117.1, -1636223.9, -576.0963, 0.00011271264, -0.013575491, -1577111.5, 48726.5 
6.252417e+2, 1.4409359e+2, -1489353.5, -1557115.1, -414.49945, 0.0026411198, -0.038663976, -1489351.0, 38529.21 
6.252387e+2, 1.5408897e+2, -1393690.4, -1460809.8, -115.46514, -0.00058958324, -0.02821556, -1393690.1, 36235.223 
6.252357e+2, 1.6408369e+2, -1305753.6, -1380965.0, -492.72238, -0.0015576354, -0.023450322, -1305750.4, 26226.766 
6.252326e+2, 1.7407775e+2, -1208828.4, -1283436.3, -868.0771, 0.00080767414, -0.028487809, -1208818.3, 25217.17 
6.2522954e+2, 1.8407117e+2, -1121557.1, -1205388.3, -1001.80524, 0.0012365339, -0.02976973, -1121545.1, 14554.717 
6.2522644e+2, 1.9406396e+2, -1025339.6, -1108313.4, -751.1961, -0.0011515184, -0.02824704, -1025332.8, 12837.68 
6.252234e+2, 2.0405613e+2, -937624.06, -1028974.3, -837.8653, -0.0018411829, -0.026616905, -937616.4, 2630.881 
6.252203e+2, 2.1404769e+2, -841007.06, -931542.0, -976.426, -0.00008440706, -0.026928406, -840996.5, 1333.415 
6.2521714e+2, 2.2403859e+2, -753573.3, -853422.2, -1019.7313, 0.00031076177, -0.02701502, -753562.94, -9143.788 
6.25214e+2, 2.340288e+2, -656497.25, -755862.1, -876.5693, -0.0012797884, -0.029150916, -656489.5, -9974.6045 
6.252109e+2, 2.4401844e+2, -568807.2, -676838.25, -623.4558, -0.0018183683, -0.028810397, -568803.56, -20186.887 
6.2520784e+2, 2.5400746e+2, -473016.9, -579776.06, -674.2103, -0.00080999604, -0.027141828, -473012.66, -22288.332 
6.252048e+2, 2.6399583e+2, -385358.8, -500819.78, -802.5242, -0.00068073923, -0.026514787, -385353.22, -32514.941 
6.2520164e+2, 2.7398354e+2, -287570.6, -402721.47, -884.7735, -0.0018276903, -0.030109331, -287563.78, -32605.23 
6.251986e+2, 2.8397048e+2, -202108.53, -328793.13, -393.43912, -0.0022869867, -0.029481903, -202107.31, -45020.992 
6.251956e+2, 2.939567e+2, -106669.74, -232074.56, -121.006996, -0.0017464759, -0.025191955, -106669.625, -47447.863 
6.251927e+2, 3.0394623e+2, -11060.558, -83337.42, 50.7078, -0.0016910862, -0.024334561, -11060.522, -11060.522 
6.251897e+2, 3.139393e+2, -11030.104, -82123.04, -174.91751, -0.0022986555, -0.031590782, -11029.673, -11029.673 
6.352521e+2, 1.24104105e+2, -1674009.0, -1733410.0, 269.55957, 0.0025932877, -0.033427037, -1674007.9, 49769.285 
6.35249e+2, 1.3410076e+2, -1577644.9, -1637291.5, -785.4961, -0.0021132005, -0.012840527, -1577634.5, 48175.273 
6.35246e+2, 1.4409646e+2, -1488956.1, -1556271.0, -876.3946, -0.000024130686, -0.037643906, -1488944.8, 38907.293 
6.352429e+2, 1.540919e+2, -1393179.8, -1459763.4, -615.4971, 0.0013302122, -0.029664624, -1393174.1, 36722.63 
6.352397e+2, 1.6408661e+2, -1306318.3, -1382142.4, -791.8455, 0.0012758976, -0.024840172, -1306309.9, 25638.549 
6.3523656e+2, 1.7408061e+2, -1209516.1, -1284845.6, -1127.9677, -0.0006841836, -0.026211424, -1209499.3, 24508.107 
6.352334e+2, 1.84074e+2, -1121216.9, -1204670.6, -1409.7609, -0.0013442968, -0.026659712, -1121193.1, 14879.0 
6.3523024e+2, 1.9406684e+2, -1024890.94, -1107379.9, -1185.7316, -0.0001682017, -0.028375246, -1024873.9, 13268.498 
6.35227e+2, 2.04059e+2, -937801.06, -1029338.9, -1209.91, 0.0002190596, -0.028626073, -937785.06, 2433.9463 
6.352238e+2, 2.1405053e+2, -841247.25, -932042.0, -1337.4271, -0.0005302922, -0.028829722, -841227.5, 1074.5227 
6.352206e+2, 2.2404145e+2, -753348.0, -852946.8, -1261.803, -0.0009958992, -0.027495045, -753332.0, -8940.862 
6.352174e+2, 2.3403174e+2, -656249.06, -755299.06, -1110.2166, -0.0010593575, -0.026371943, -656236.56, -9750.332 
6.3521415e+2, 2.4402136e+2, -568921.44, -677025.25, -1181.7943, -0.001058736, -0.02617752, -568908.56, -20320.645 
6.3521093e+2, 2.5401032e+2, -473135.34, -580029.25, -1263.0183, -0.00095881964, -0.029575523, -473120.44, -22424.273 
6.352078e+2, 2.6399866e+2, -385465.53, -501054.3, -932.7903, -0.0012271936, -0.029129216, -385458.0, -32647.697 
6.352047e+2, 2.7398646e+2, -287722.6, -402977.84, -961.67004, -0.0020257283, -0.025733056, -287714.56, -32784.46 
6.352015e+2, 2.8397343e+2, -201757.22, -327990.22, -991.05585, -0.002063938, -0.025209876, -201749.44, -44691.727 
6.3519835e+2, 2.9395956e+2, -106220.08, -231135.48, -781.4408, -0.0009908784, -0.03154426, -106215.19, -47021.723 
6.3519526e+2, 3.0394912e+2, -11365.37, -83983.41, -168.33589, -0.0011984861, -0.031168362, -11364.9795, -11364.9795 
6.351923e+2, 3.1394228e+2, -11462.212, -82973.21, -338.02197, -0.0032640256, -0.02368477, -11460.614, -11460.614 
6.4525664e+2, 1.2410711e+2, -1672910.9, -1732846.4, 241.22647, 0.0024168615, -0.032386795, -1672910.0, 50837.715 
6.452534e+2, 1.3410378e+2, -1577503.3, -1637108.0, -234.91765, -0.0019532782, -0.013172529, -1577502.4, 48278.027 
6.4525026e+2, 1.4409947e+2, -1489245.5, -1556556.5, -262.9132, 0.0002372819, -0.037796877, -1489244.5, 38578.04 
6.4524704e+2, 1.5409489e+2, -1392700.0, -1459698.6, -602.55774, 0.001263053, -0.029341279, -1392694.6, 37172.813 
6.452438e+2, 1.640896e+2, -1305472.8, -1381675.8, -804.67615, 0.0010837938, -0.024434347, -1305464.3, 26454.893 
6.4524055e+2, 1.740836e+2, -1209231.0, -1284632.3, -422.35965, -0.0007241698, -0.026275542, -1209228.6, 24749.39 
6.452373e+2, 1.84077e+2, -1121237.9, -1204705.4, -525.80505, -0.0012135394, -0.026786221, -1121234.5, 14808.198 
6.45234e+2, 1.9406982e+2, -1024687.75, -1107317.8, -774.3464, 0.00015707382, -0.02798103, -1024680.5, 13432.499 
6.452307e+2, 2.04062e+2, -937433.8, -1029247.56, -944.9579, 0.00042392014, -0.028165624, -937424.1, 2765.602 
6.452274e+2, 2.1405351e+2, -840743.6, -931892.1, -887.7518, -0.00090218044, -0.028940754, -840734.94, 1537.9023 
6.4522403e+2, 2.2404441e+2, -753108.2, -852730.6, -829.3386, -0.00140743, -0.027839445, -753101.25, -8739.269 
6.4522076e+2, 2.3403473e+2, -657139.56, -755612.5, -884.6492, -0.00072857825, -0.026465338, -657131.56, -10674.608 
6.452175e+2, 2.4402437e+2, -569826.3, -677379.6, -977.69775, -0.0006313917, -0.02600003, -569817.4, -21258.893 
6.4521414e+2, 2.5401333e+2, -472372.6, -579583.2, -885.0511, -0.0013839393, -0.029104479, -472365.28, -21698.613 
6.452108e+2, 2.6400167e+2, -384648.9, -500701.34, -438.31592, -0.0017638924, -0.028702892, -384647.25, -31866.46 
6.452076e+2, 2.7398944e+2, -289047.28, -403676.13, -389.59048, -0.001586942, -0.025826626, -289045.97, -34145.26 
6.4520437e+2, 2.8397644e+2, -203272.53, -328407.03, -456.463, -0.0014933253, -0.02541758, -203270.86, -46242.652 
6.452011e+2, 2.9396263e+2, -105609.32, -230485.4, -478.64035, -0.0015459707, -0.03128529, -105607.484, -46443.867 
6.451979e+2, 3.039522e+2, -10561.458, -83876.04, 41.652763, -0.0018903529, -0.030871412, -10561.435, -10561.435 
6.4519477e+2, 3.139453e+2, -12381.378, -83772.02, 46.269135, -0.002627311, -0.023922928, -12381.348, -12381.348 
6.5526116e+2, 1.2411018e+2, -1672386.8, -1731760.5, -221.96599, 0.0003577771, -0.030069796, -1672386.0, 51331.723 
6.552578e+2, 1.3410689e+2, -1576883.9, -1635852.3, -719.2439, 0.00035364626, -0.014465479, -1576875.1, 48874.73 
6.552546e+2, 1.441026e+2, -1489785.4, -1557685.4, -572.74426, 0.0031274294, -0.039006528, -1489780.5, 38011.42 
6.552512e+2, 1.5409796e+2, -1393370.5, -1461070.3, -875.33246, -0.0006320939, -0.02740488, -1393359.3, 36478.184 
6.552479e+2, 1.6409266e+2, -1304895.3, -1380467.8, -1200.9645, -0.0018739777, -0.022395028, -1304876.3, 27013.09 
6.552446e+2, 1.7408672e+2, -1208527.9, -1283169.1, -847.50653, 0.0005466573, -0.028473347, -1208518.3, 25429.348 
6.552412e+2, 1.8408014e+2, -1121594.1, -1205430.0, -916.1525, 0.0013658666, -0.029857736, -1121584.1, 14427.909 
6.552378e+2, 1.9407293e+2, -1025147.9, -1108262.8, -1150.424, -0.00013767614, -0.027112553, -1025131.94, 12950.593 
6.552344e+2, 2.040651e+2, -937382.94, -1029133.0, -1270.4504, -0.0010827058, -0.025452085, -937365.4, 2794.0542 
6.5523094e+2, 2.1405661e+2, -840655.56, -931678.3, -1209.7166, -0.0012185257, -0.027418902, -840639.44, 1603.0535 
6.5522754e+2, 2.240475e+2, -753217.4, -852927.6, -1340.6876, -0.001012535, -0.028061293, -753199.3, -8867.544 
6.552241e+2, 2.3403777e+2, -657243.94, -755841.9, -1414.3073, -0.0003091048, -0.029196508, -657223.6, -10796.484 
6.552206e+2, 2.4402742e+2, -569639.9, -677007.7, -1156.3575, -0.0005272739, -0.028078364, -569627.44, -21098.855 
6.552173e+2, 2.5401646e+2, -472194.97, -579168.7, -1029.1418, -0.0020818578, -0.025957976, -472185.06, -21549.084 
6.552139e+2, 2.6400486e+2, -384630.6, -500605.66, -1041.1719, -0.0023070418, -0.02547819, -384621.25, -31871.34 
6.552105e+2, 2.739925e+2, -289011.8, -403601.72, -1039.7456, -0.0005774442, -0.030046768, -289002.38, -34131.953 
6.5520716e+2, 2.8397954e+2, -203254.61, -328377.72, -610.3043, -0.0006233022, -0.029751405, -203251.64, -46253.71 
6.552039e+2, 2.9396582e+2, -105634.96, -230482.44, -577.377, -0.003325054, -0.024908287, -105632.29, -46499.95 
6.5520054e+2, 3.0395538e+2, -10655.6045, -83998.36, -517.9677, -0.0036887696, -0.023991492, -10651.946, -10651.946 
6.551973e+2, 3.1394833e+2, -12452.732, -83897.71, -560.1, -0.0005503189, -0.031755157, -12448.342, -12448.342 
6.652657e+2, 1.241134e+2, -1672287.5, -1731928.5, 653.5942, 0.0005585764, -0.03030779, -1672280.4, 51405.707 
6.652623e+2, 1.3411011e+2, -1576116.1, -1635612.4, -522.454, 0.00019966232, -0.0144980755, -1576111.5, 49606.867 
6.652588e+2, 1.441058e+2, -1488848.9, -1557247.5, -485.93658, 0.0029535354, -0.038227536, -1488845.4, 38915.016 
6.652554e+2, 1.5410116e+2, -1393068.5, -1460932.5, -144.02687, -0.00046429006, -0.02712108, -1393068.3, 36737.734 
6.6525203e+2, 1.6409586e+2, -1304923.5, -1380483.8, -411.91208, -0.0016130502, -0.022393366, -1304921.3, 26936.613 
6.652485e+2, 1.7408992e+2, -1208452.3, -1283135.1, -758.30475, 0.00055236707, -0.028440315, -1208444.6, 25471.564 
6.6524506e+2, 1.8408334e+2, -1121436.0, -1205422.0, -1025.4779, 0.0011773261, -0.029825734, -1121423.5, 14557.086 
6.652416e+2, 1.9407614e+2, -1024844.7, -1108193.0, -856.2864, -0.00044549548, -0.027110752, -1024835.9, 13215.369 
6.65238e+2, 2.040683e+2, -937137.5, -1028918.8, -804.1002, -0.0012259601, -0.025247812, -937130.44, 2997.6152 
6.652345e+2, 2.1405983e+2, -841015.6, -931742.56, -784.92755, -0.0007967561, -0.026682341, -841008.8, 1202.2369 
6.6523093e+2, 2.2405072e+2, -753583.2, -853174.9, -882.3923, -0.00060437457, -0.027255371, -753575.4, -9275.116 
6.652274e+2, 2.3404098e+2, -656481.44, -755563.44, -897.296, -0.00074128556, -0.028982352, -656473.3, -10077.543 
6.652239e+2, 2.4403062e+2, -568808.25, -676563.44, -679.7939, -0.0010466918, -0.028171578, -568804.0, -20306.73 
6.652204e+2, 2.5401968e+2, -473046.06, -579527.6, -725.2514, -0.0016001774, -0.025938537, -473041.13, -22436.533 
6.652169e+2, 2.6400805e+2, -385719.2, -500945.94, -838.6481, -0.0016846717, -0.025379261, -385713.1, -32994.664 
6.6521347e+2, 2.7399576e+2, -288411.5, -403113.34, -753.44446, -0.0010751828, -0.029925277, -288406.56, -33567.797 
6.6520995e+2, 2.8398275e+2, -202579.17, -328123.3, -249.00165, -0.0012465857, -0.029582003, -202578.69, -45612.492 
6.6520655e+2, 2.9396906e+2, -106860.2, -231178.27, -287.02115, -0.0026114006, -0.024630116, -106859.54, -47758.848 
6.652032e+2, 3.0395862e+2, -12077.318, -84257.91, -168.22687, -0.0028597554, -0.023702111, -12076.926, -12076.926 
6.6519976e+2, 3.1395164e+2, -12349.504, -83362.18, 146.01534, -0.0014447191, -0.031618286, -12349.204, -12349.204 
6.7527026e+2, 1.2411678e+2, -1673022.0, -1733448.4, 319.80438, 0.0027380136, -0.032884106, -1673020.4, 50632.645 
6.752667e+2, 1.3411342e+2, -1576832.5, -1637077.9, -829.9983, -0.0021951192, -0.013397606, -1576821.1, 48864.87 
6.7526317e+2, 1.441091e+2, -1488381.4, -1556271.9, -914.36505, -0.0000031772302, -0.03565235, -1488369.0, 39359.105 
6.752597e+2, 1.541045e+2, -1392481.4, -1459718.1, -598.6576, 0.0015504532, -0.028334236, -1392476.0, 37297.21 
6.752562e+2, 1.6409922e+2, -1305459.3, -1381590.1, -815.8369, 0.0015382109, -0.024230067, -1305450.5, 26374.57 
6.7525256e+2, 1.7409322e+2, -1209094.1, -1284468.3, -1140.8429, -0.0006086464, -0.02638318, -1209076.8, 24807.11 
6.75249e+2, 1.840866e+2, -1121197.5, -1204935.1, -1351.2861, -0.0015420626, -0.026974743, -1121175.6, 14772.993 
6.7524534e+2, 1.9407941e+2, -1024535.1, -1107533.4, -1183.6627, -0.00077676575, -0.02790077, -1024518.25, 13500.898 
6.752417e+2, 2.040716e+2, -937089.75, -1028796.2, -1275.7955, -0.00014185559, -0.027323663, -937072.0, 3023.7808 
6.752381e+2, 2.1406314e+2, -840976.44, -931667.56, -1272.5581, 0.0002849926, -0.026660958, -840958.6, 1219.9536 
6.7523444e+2, 2.2405407e+2, -753581.06, -853175.3, -1136.6796, -0.00020045163, -0.025510997, -753568.1, -9300.494 
6.752308e+2, 2.3404433e+2, -656513.0, -755587.8, -1125.4698, -0.0019668096, -0.026070166, -656500.2, -10137.213 
6.7522717e+2, 2.4403395e+2, -568952.7, -676812.0, -1234.5929, -0.0021507118, -0.026445186, -568938.56, -20473.904 
6.752236e+2, 2.5402293e+2, -473177.06, -579790.2, -1311.4144, -0.000048145386, -0.028791858, -473160.94, -22588.314 
6.752199e+2, 2.6401132e+2, -385544.0, -500584.06, -1071.4312, -0.0000041886155, -0.02814548, -385534.03, -32847.625 
6.752163e+2, 2.7399915e+2, -288229.47, -402696.97, -951.78046, -0.0029761845, -0.025804862, -288221.56, -33415.74 
6.7521274e+2, 2.8398615e+2, -202709.56, -328344.22, -807.0689, -0.0032608304, -0.025269544, -202704.38, -45771.234 
6.752092e+2, 2.939723e+2, -107006.56, -231464.11, -878.4183, 0.0003861767, -0.02998093, -107000.36, -47931.633 
6.7520577e+2, 3.039619e+2, -11526.835, -83101.69, -415.9162, 0.00037472174, -0.02947594, -11524.418, -11524.418 
6.7520225e+2, 3.1395513e+2, -11741.767, -82050.375, -77.049866, -0.0051204786, -0.024079306, -11741.682, -11741.682 
6.8527484e+2, 1.2412022e+2, -1672218.6, -1733157.6, 309.81555, 0.0024617193, -0.032612022, -1672217.1, 51402.094 
6.852712e+2, 1.3411687e+2, -1576446.0, -1636891.9, -149.05307, -0.0020706535, -0.0136367325, -1576445.6, 49206.54 
6.852675e+2, 1.4411256e+2, -1488229.6, -1556251.1, -125.287025, 0.00023552915, -0.035298277, -1488229.4, 39464.97 
6.8526393e+2, 1.5410796e+2, -1392155.0, -1459616.4, -420.53802, 0.001466772, -0.02839081, -1392152.4, 37587.066 
6.8526024e+2, 1.6410264e+2, -1305002.1, -1381494.0, -713.03284, 0.0013373783, -0.024299435, -1304995.4, 26796.016 
6.8525654e+2, 1.7409663e+2, -1208471.5, -1284300.0, -484.02368, -0.00064816436, -0.025875414, -1208468.4, 25381.947 
6.8525285e+2, 1.8409003e+2, -1120631.5, -1204606.4, -536.05725, -0.0014215399, -0.026285551, -1120628.1, 15287.005 
6.8524915e+2, 1.9408284e+2, -1024627.0, -1107506.8, -644.0923, -0.0004980516, -0.027587295, -1024622.0, 13363.562 
6.852454e+2, 2.0407501e+2, -937327.25, -1028957.44, -882.0099, 0.000008520177, -0.027390141, -937318.75, 2743.4797 
6.8524164e+2, 2.1406657e+2, -840445.3, -931469.56, -947.4484, -0.00009981787, -0.027108561, -840435.44, 1709.629 
6.8523794e+2, 2.2405748e+2, -752993.75, -852797.0, -839.6081, -0.0005942342, -0.025883038, -752986.7, -8752.548 
6.852341e+2, 2.3404776e+2, -657123.56, -755776.56, -757.1002, -0.0016263946, -0.025702855, -657117.75, -10788.384 
6.8523043e+2, 2.440374e+2, -569838.9, -677191.7, -791.36395, -0.0016878704, -0.025853591, -569833.06, -21402.117 
6.852267e+2, 2.5402638e+2, -472908.6, -579619.44, -720.17084, -0.00035125602, -0.02873265, -472903.72, -22364.836 
6.85223e+2, 2.6401478e+2, -385070.28, -500372.78, -410.13458, -0.00043887948, -0.028139677, -385068.8, -32416.146 
6.852192e+2, 2.7400258e+2, -288860.22, -403028.66, -506.1016, -0.002617447, -0.02513308, -288857.97, -34085.9 
6.852156e+2, 2.839896e+2, -203444.2, -328443.56, -472.1107, -0.0028630884, -0.02457105, -203442.42, -46543.133 
6.852119e+2, 2.9397577e+2, -106801.21, -231080.39, -243.54832, -0.00027992265, -0.030196285, -106800.734, -47766.03 
6.852083e+2, 3.039654e+2, -11411.164, -83204.195, 211.498, -0.0003348565, -0.029760255, -11410.541, -11410.541 
6.852047e+2, 3.1395862e+2, -12563.217, -82654.086, -216.09703, -0.004371935, -0.023165453, -12562.551, -12562.551 
6.952794e+2, 1.2412376e+2, -1671679.3, -1732045.6, -120.1346, -0.000042461965, -0.029760655, -1671679.0, 51905.65 
6.9527566e+2, 1.3412043e+2, -1575812.8, -1635586.0, -595.4681, 0.00030522526, -0.015075412, -1575806.8, 49810.35 
6.952719e+2, 1.4411615e+2, -1488724.9, -1557268.5, -542.051, 0.0033249364, -0.036935836, -1488720.6, 38938.496 
6.9526815e+2, 1.5411147e+2, -1392750.5, -1460850.9, -818.69, -0.00053674175, -0.027403323, -1392740.8, 36964.17 
6.9526434e+2, 1.6410616e+2, -1304665.5, -1380805.6, -1054.0664, -0.0019089561, -0.0227718, -1304651.0, 27106.09 
6.9526064e+2, 1.7410019e+2, -1208064.4, -1283433.8, -828.79663, 0.00031634604, -0.02677069, -1208055.3, 25760.295 
6.9525677e+2, 1.840936e+2, -1120800.1, -1204922.6, -1035.7333, 0.001250524, -0.02754669, -1120787.4, 15092.746 
6.9525295e+2, 1.9408642e+2, -1024829.9, -1107929.8, -1155.0508, 0.0003146496, -0.026271787, -1024813.8, 13136.837 
6.952491e+2, 2.0407857e+2, -937433.06, -1029185.9, -1179.7738, -0.00070834754, -0.025632707, -937417.94, 2609.6033 
6.9524527e+2, 2.1407007e+2, -840567.2, -931691.94, -1221.3511, -0.0018341719, -0.027987728, -840550.8, 1559.884 
6.952414e+2, 2.2406097e+2, -752904.25, -852572.75, -1358.6587, -0.0017286344, -0.02818229, -752885.75, -8685.85 
6.952375e+2, 2.3405127e+2, -656991.94, -755498.7, -1303.2468, 0.00013266265, -0.027659515, -656974.7, -10679.8 
6.9523364e+2, 2.4404094e+2, -569673.6, -676853.5, -1099.0209, 0.00018584616, -0.026299471, -569662.4, -21266.197 
6.9522977e+2, 2.5403e+2, -472757.44, -579284.0, -1005.2535, -0.0023758071, -0.026005963, -472747.94, -22244.36 
6.9522595e+2, 2.6401836e+2, -385274.84, -500762.03, -885.026, -0.0028239063, -0.025595699, -385268.06, -32650.662 
6.9522214e+2, 2.740061e+2, -289100.1, -403497.13, -994.00903, -0.00019925686, -0.02763041, -289091.44, -34353.875 
6.952184e+2, 2.8399312e+2, -203061.13, -327622.94, -833.70544, -0.0002741872, -0.027179621, -203055.53, -46190.83 
6.952145e+2, 2.9397947e+2, -106351.03, -230118.5, -602.6369, -0.0043352586, -0.025678998, -106348.09, -47349.297 
6.952108e+2, 3.0396906e+2, -12140.25, -84686.305, -239.56506, -0.0046822894, -0.025004623, -12139.458, -12139.458 
6.9520724e+2, 3.1396204e+2, -13435.54, -84419.56, -658.1454, 0.00041629095, -0.028403744, -13429.438, -13429.438 
7.05284e+2, 1.2412743e+2, -1671292.5, -1731973.9, 608.9426, 0.00008137548, -0.029183771, -1671286.5, 52262.152 
7.052801e+2, 1.341241e+2, -1575389.6, -1635390.6, -488.9549, 0.00028487647, -0.015412369, -1575385.6, 50195.523 
7.052763e+2, 1.4411983e+2, -1488281.6, -1557158.1, -515.4539, 0.0032422466, -0.036570016, -1488277.8, 39345.41 
7.052724e+2, 1.5411514e+2, -1392079.8, -1460639.4, -273.98135, -0.00062703417, -0.027033353, -1392078.8, 37590.305 
7.0526856e+2, 1.6410981e+2, -1304064.5, -1380442.0, -431.55786, -0.0019494611, -0.022532778, -1304062.0, 27659.205 
7.052646e+2, 1.7410386e+2, -1208234.9, -1283429.0, -571.60315, 0.00040883556, -0.026841128, -1208230.5, 25549.195 
7.0526075e+2, 1.8409726e+2, -1121166.9, -1205170.8, -867.3374, 0.0013107066, -0.02771612, -1121157.9, 14686.339 
7.052567e+2, 1.9409005e+2, -1024332.5, -1107775.4, -835.1208, 0.000093755545, -0.02623027, -1024324.2, 13590.649 
7.0525277e+2, 2.0408222e+2, -936769.1, -1028850.0, -751.07916, -0.0008961439, -0.02532569, -936763.0, 3228.7249 
7.052488e+2, 2.1407373e+2, -840893.5, -931827.56, -678.9441, -0.0015441288, -0.027343601, -840888.44, 1186.3889 
7.0524484e+2, 2.2406463e+2, -753450.75, -852793.1, -800.9548, -0.0013696264, -0.027637128, -753444.3, -9280.308 
7.0524085e+2, 2.3405494e+2, -656685.75, -755306.06, -851.36725, -0.000026027396, -0.02783063, -656678.44, -10419.371 
7.0523685e+2, 2.440446e+2, -569141.0, -676548.75, -717.23627, -0.00013696554, -0.02660518, -569136.2, -20775.92 
7.052329e+2, 2.5403365e+2, -472908.56, -579312.1, -754.86725, -0.0023557858, -0.025591133, -472903.2, -22435.61 
7.052289e+2, 2.6402205e+2, -385706.1, -500851.8, -672.51105, -0.0027116206, -0.025120175, -385702.16, -33120.836 
7.0522505e+2, 2.740098e+2, -289332.56, -403485.56, -492.28494, -0.00035745013, -0.028061066, -289330.44, -34628.97 
7.052211e+2, 2.8399682e+2, -203280.4, -327768.9, -254.80322, -0.00041588797, -0.027631065, -203279.88, -46451.305 
7.0521724e+2, 2.9398316e+2, -106580.016, -230288.3, -517.3868, -0.0040526274, -0.024841929, -106577.85, -47615.246 
7.0521337e+2, 3.0397275e+2, -12372.859, -84571.43, -196.03104, -0.0044158706, -0.024077723, -12372.327, -12372.327 
7.052096e+2, 3.1396577e+2, -14103.188, -84483.33, 375.82565, 0.000025439991, -0.029161269, -14101.182, -14101.182 
7.1528864e+2, 1.2413125e+2, -1671922.6, -1733259.1, 150.7056, 0.002500342, -0.030660404, -1671922.3, 51588.97 
7.152846e+2, 1.3412786e+2, -1575962.8, -1636581.1, -929.775, -0.0019077614, -0.014761333, -1575948.5, 49595.97 
7.1528065e+2, 1.4412357e+2, -1487959.5, -1556503.6, -852.4737, 0.00029336367, -0.03440164, -1487949.0, 39637.547 
7.152767e+2, 1.5411893e+2, -1391698.5, -1459821.3, -610.5067, 0.0009818327, -0.027217325, -1391693.0, 37939.03 
7.152727e+2, 1.641136e+2, -1304301.5, -1380896.4, -964.126, 0.0008655757, -0.023444587, -1304289.4, 27394.75 
7.152687e+2, 1.7410763e+2, -1208498.9, -1283991.4, -1118.2351, -0.00030118023, -0.026166504, -1208482.3, 25260.5 
7.1526456e+2, 1.8410102e+2, -1121098.9, -1205058.6, -1162.0828, -0.0010050068, -0.026898723, -1121082.8, 14724.769 
7.1526057e+2, 1.940938e+2, -1024265.44, -1107614.5, -1105.6449, -0.0010790776, -0.027342388, -1024250.75, 13627.433 
7.1525645e+2, 2.0408596e+2, -936675.44, -1028617.94, -1266.1676, -0.0006212075, -0.02632252, -936658.0, 3296.8865 
7.152524e+2, 2.1407753e+2, -840775.94, -931577.7, -1221.0195, 0.00056946947, -0.025315138, -840759.56, 1278.0992 
7.152483e+2, 2.2406845e+2, -753498.9, -852895.9, -1142.1548, 0.0003238068, -0.024506994, -753485.75, -9359.148 
7.152442e+2, 2.3405874e+2, -656765.94, -755453.75, -1170.1791, -0.0019479545, -0.026376363, -656752.06, -10530.172 
7.152401e+2, 2.4404837e+2, -569253.3, -676749.6, -1164.1667, -0.002471623, -0.026780734, -569240.7, -20917.336 
7.15236e+2, 2.540374e+2, -473025.03, -579520.9, -1211.3572, -0.0004791836, -0.027285915, -473011.25, -22580.271 
7.1523196e+2, 2.6402578e+2, -385412.06, -500217.4, -1108.8312, -0.0003328916, -0.026527394, -385401.38, -32856.82 
7.1522784e+2, 2.740136e+2, -288987.22, -402758.1, -934.1413, -0.0028956325, -0.026597677, -288979.56, -34315.625 
7.1522385e+2, 2.8400064e+2, -203707.42, -328636.13, -615.6865, -0.0030771212, -0.02610963, -203704.39, -46913.367 
7.152199e+2, 2.939869e+2, -107115.9, -231343.2, -853.49384, 0.0001998422, -0.027381904, -107110.03, -48183.875 
7.152159e+2, 3.039765e+2, -11482.828, -82663.04, -735.18085, 0.000064940825, -0.026645586, -11475.235, -11475.235 
7.152119e+2, 3.139697e+2, -13021.065, -82223.625, -211.92838, -0.005175023, -0.02577714, -13020.416, -13020.416 
7.2529334e+2, 1.2413517e+2, -1671522.9, -1733283.0, 325.0342, 0.0028068284, -0.030328786, -1671521.1, 51951.68 
7.2528917e+2, 1.3413176e+2, -1575159.1, -1636302.0, -265.29922, -0.0020750954, -0.0148477545, -1575158.0, 50348.26 
7.252851e+2, 1.4412747e+2, -1487219.6, -1556067.1, -101.45225, 0.000045006007, -0.03355502, -1487219.5, 40328.746 
7.25281e+2, 1.5412283e+2, -1391876.3, -1459816.4, -198.71884, 0.0011453166, -0.02700604, -1391875.6, 37718.008 
7.252769e+2, 1.6411752e+2, -1304704.5, -1381255.9, -609.3403, 0.0011358988, -0.023508728, -1304699.8, 26946.123 
7.252727e+2, 1.7411152e+2, -1207763.4, -1283823.0, -606.20135, -0.00037221995, -0.025975004, -1207758.5, 25946.12 
7.2526854e+2, 1.841049e+2, -1120005.8, -1204448.5, -614.63495, -0.0011627193, -0.02659752, -1120001.3, 15768.177 
7.252644e+2, 1.940977e+2, -1024338.0, -1107545.4, -577.4255, -0.0009627163, -0.027150001, -1024333.94, 13506.046 
7.252602e+2, 2.0408988e+2, -937164.2, -1028816.06, -779.4539, -0.0004629172, -0.026269881, -937157.56, 2759.1438 
7.2525597e+2, 2.1408144e+2, -840490.06, -931407.94, -834.0344, 0.0004333953, -0.025413863, -840482.44, 1516.9827 
7.252518e+2, 2.2407235e+2, -753014.9, -852684.44, -760.5718, 0.000114880626, -0.02445262, -753009.1, -8920.723 
7.252475e+2, 2.3406264e+2, -656840.94, -755520.56, -736.9204, -0.0019256537, -0.025743423, -656835.44, -10651.775 
7.2524333e+2, 2.4405228e+2, -569586.75, -676833.6, -698.962, -0.002346036, -0.026134504, -569582.2, -21297.094 
7.2523916e+2, 2.540413e+2, -473350.88, -579592.5, -602.5547, -0.00043110372, -0.027431304, -473347.47, -22954.768 
7.252349e+2, 2.640297e+2, -385616.13, -500298.22, -479.7501, -0.00034497355, -0.026770322, -385614.13, -33107.9 
7.2523075e+2, 2.7401754e+2, -288794.5, -402655.47, -642.03503, -0.0029446483, -0.025930844, -288790.88, -34165.355 
7.2522664e+2, 2.8400457e+2, -203541.1, -328278.47, -350.42303, -0.0031259211, -0.025421878, -203540.11, -46787.625 
7.252225e+2, 2.9399082e+2, -107998.56, -231463.8, 88.07289, 0.00021294641, -0.027973142, -107998.5, -49111.035 
7.252184e+2, 3.0398044e+2, -12607.223, -83264.94, 276.49924, 0.000088476045, -0.027329989, -12606.141, -12606.141 
7.252143e+2, 3.1397367e+2, -12619.075, -82132.125, -347.3999, -0.005217309, -0.024788896, -12617.339, -12617.339 
7.35298e+2, 1.2413918e+2, -1671241.9, -1732693.9, -30.679329, 0.0011870406, -0.028385952, -1671241.9, 52191.727 
7.3529375e+2, 1.341358e+2, -1574800.6, -1635529.8, -622.66907, -0.00044802987, -0.015578231, -1574794.1, 50672.48 
7.352896e+2, 1.4413153e+2, -1487429.0, -1556472.8, -668.3726, 0.0021849182, -0.033872843, -1487422.5, 40085.918 
7.352853e+2, 1.5412687e+2, -1392104.4, -1460319.3, -784.9768, -0.000010718926, -0.02643502, -1392095.4, 37458.85 
7.35281e+2, 1.6412154e+2, -1304683.1, -1381250.9, -879.85925, -0.0008989939, -0.022802569, -1304673.0, 26933.469 
7.352768e+2, 1.7411552e+2, -1207765.3, -1283792.4, -843.2012, 0.00011778333, -0.026211716, -1207755.9, 25909.574 
7.352725e+2, 1.8410891e+2, -1119991.3, -1204363.5, -1168.7937, 0.0005988468, -0.026746264, -1119975.1, 15755.039 
7.352682e+2, 1.9410174e+2, -1024288.4, -1107437.8, -1166.6354, 0.00029562364, -0.025780262, -1024272.0, 13528.497 
7.352639e+2, 2.040939e+2, -937215.3, -1028935.44, -1137.8866, -0.00043239899, -0.02527027, -937201.2, 2675.9875 
7.3525953e+2, 2.1408543e+2, -840571.06, -931561.44, -1166.3142, -0.0017552496, -0.027443303, -840556.1, 1404.129 
7.352552e+2, 2.2407635e+2, -753016.56, -852657.5, -1212.8392, -0.0018318667, -0.027181026, -753001.8, -8952.4375 
7.352509e+2, 2.3406665e+2, -656832.94, -755475.5, -1200.7156, -0.00014699309, -0.025855808, -656818.3, -10673.96 
7.352466e+2, 2.4405631e+2, -569422.1, -676472.56, -1159.0872, -0.000005143598, -0.024745127, -569409.56, -21164.037 
7.352422e+2, 2.5404537e+2, -473161.34, -579195.8, -1066.0604, -0.0020771674, -0.026169727, -473150.63, -22797.744 
7.352379e+2, 2.640338e+2, -385886.75, -500845.34, -824.8695, -0.0025527098, -0.02595365, -385880.84, -33414.363 
7.3523366e+2, 2.7402154e+2, -289142.13, -403315.7, -963.9802, -0.0007323248, -0.025994878, -289133.97, -34547.68 
7.352294e+2, 2.840086e+2, -202865.9, -326815.9, -947.7544, -0.0008157917, -0.025489038, -202858.67, -46145.605 
7.35225e+2, 2.9399496e+2, -107170.91, -229750.02, -558.9199, -0.0036790937, -0.026780823, -107168.36, -48321.625 
7.3522085e+2, 3.039846e+2, -13529.294, -85187.69, 53.775013, -0.0039832387, -0.026299832, -13529.254, -13529.254 
7.3521674e+2, 3.1397766e+2, -13798.901, -84497.0, -493.77646, -0.0005663324, -0.025995785, -13795.452, -13795.452 
7.453027e+2, 1.24143325e+2, -1670644.9, -1732308.6, 557.9073, 0.0007152938, -0.028163133, -1670639.8, 52753.145 
7.4529827e+2, 1.3413996e+2, -1574766.9, -1635297.3, -265.09076, -0.00014892861, -0.016269954, -1574765.8, 50660.195 
7.4529403e+2, 1.4413571e+2, -1487540.1, -1556754.0, -383.13068, 0.0027103752, -0.033570293, -1487538.0, 39929.543 
7.452896e+2, 1.5413101e+2, -1391019.6, -1460061.6, -425.2289, -0.00004121993, -0.02636771, -1391017.0, 38496.64 
7.452852e+2, 1.6412565e+2, -1303287.8, -1380418.1, -483.96762, -0.001149157, -0.0228002, -1303284.6, 28281.328 
7.4528086e+2, 1.7411968e+2, -1207963.1, -1283695.5, -353.43033, 0.00011129123, -0.026023114, -1207961.5, 25663.29 
7.452765e+2, 1.8411307e+2, -1120856.9, -1204904.8, -640.53033, 0.00070950005, -0.026439492, -1120852.0, 14837.386 
7.4527204e+2, 1.9410588e+2, -1024012.3, -1107455.1, -779.84, 0.0003252729, -0.025440622, -1024005.0, 13754.8545 
7.4526757e+2, 2.0409803e+2, -936423.44, -1028535.3, -798.7639, -0.0004720937, -0.024953403, -936416.5, 3420.16 
7.452631e+2, 2.1408957e+2, -840436.2, -931466.7, -739.11194, -0.0018363177, -0.027221017, -840430.2, 1489.4965 
7.452587e+2, 2.2408047e+2, -753243.1, -852697.6, -757.6152, -0.001893407, -0.027163958, -753237.3, -9228.574 
7.452542e+2, 2.340708e+2, -657040.1, -755503.6, -728.7215, -0.00012015472, -0.026191046, -657034.7, -10930.984 
7.4524975e+2, 2.4406047e+2, -569467.06, -676438.6, -687.32635, 0.000038448252, -0.024935717, -569462.7, -21257.816 
7.452453e+2, 2.5404954e+2, -472812.7, -578975.1, -746.414, -0.0021303808, -0.025513051, -472807.44, -22495.346 
7.4524087e+2, 2.6403794e+2, -385740.13, -500633.53, -518.1295, -0.0025991453, -0.025198651, -385737.78, -33312.203 
7.452365e+2, 2.7402574e+2, -290195.94, -403676.1, -267.0583, -0.00060723943, -0.026211705, -290195.3, -35649.953 
7.452321e+2, 2.840128e+2, -203975.0, -327342.63, -237.85307, -0.0007447021, -0.025801785, -203974.55, -47302.49 
7.4522763e+2, 2.9399917e+2, -106447.76, -229406.9, -662.55804, -0.003993117, -0.025910432, -106444.19, -47638.56 
7.4522334e+2, 3.039888e+2, -12623.506, -84574.65, -161.04535, -0.0042740526, -0.025359297, -12623.145, -12623.145 
7.452191e+2, 3.1398186e+2, -15420.094, -85086.125, 521.9964, -0.00019859335, -0.02662713, -15416.183, -15416.183 
7.553074e+2, 1.241476e+2, -1670788.8, -1732599.9, 31.864975, 0.0012167819, -0.029444529, -1670788.8, 52562.316 
7.5530285e+2, 1.3414423e+2, -1574825.0, -1635446.5, -791.2788, -0.0010615919, -0.016913334, -1574814.6, 50569.49 
7.552984e+2, 1.4413998e+2, -1487629.1, -1556955.1, -662.45374, 0.0017694988, -0.032700438, -1487622.9, 39802.934 
7.55294e+2, 1.5413526e+2, -1391157.1, -1460289.1, -675.56305, 0.0009108544, -0.026743272, -1391150.5, 38321.547 
7.552895e+2, 1.641299e+2, -1303139.3, -1380051.1, -1110.9298, 0.0001641416, -0.023414915, -1303123.3, 28401.195 
7.552849e+2, 1.7412394e+2, -1207735.9, -1283247.0, -1026.6455, -0.00035555265, -0.025451217, -1207721.9, 25860.834 
7.552804e+2, 1.8411736e+2, -1121019.8, -1205283.3, -958.2273, -0.00068153377, -0.025720708, -1121008.9, 14638.495 
7.552759e+2, 1.9411013e+2, -1024251.7, -1107932.4, -1053.566, -0.00077278016, -0.026027702, -1024238.44, 13479.892 
7.552713e+2, 2.0410228e+2, -936378.2, -1028398.75, -1280.3414, -0.0005954542, -0.025239721, -936360.4, 3434.8237 
7.552667e+2, 2.1409383e+2, -840351.56, -931266.2, -1244.6853, -0.00002649479, -0.024964832, -840334.56, 1543.3356 
7.5526214e+2, 2.2408476e+2, -753183.1, -852561.44, -1220.5555, -0.00027635763, -0.024667697, -753168.2, -9201.392 
7.552575e+2, 2.3407505e+2, -656979.94, -755373.06, -1187.2338, -0.0017014093, -0.026731735, -656965.6, -10903.699 
7.5525296e+2, 2.4406473e+2, -569573.4, -676640.0, -1049.9922, -0.0020125122, -0.026554339, -569563.06, -21399.941 
7.552484e+2, 2.540538e+2, -472959.7, -579222.75, -1094.5458, -0.0007452014, -0.02540352, -472948.4, -22678.037 
7.5524384e+2, 2.6404223e+2, -385363.22, -499805.03, -1137.5592, -0.00069394027, -0.024496984, -385351.94, -32968.266 
7.5523925e+2, 2.7403006e+2, -289719.88, -402713.38, -925.54407, -0.002405529, -0.026566543, -289712.28, -35209.414 
7.552347e+2, 2.8401712e+2, -204602.66, -328667.34, -434.51358, -0.0027375375, -0.026335709, -204601.14, -47971.484 
7.5523037e+2, 2.940034e+2, -107259.6, -231008.47, -788.7556, -0.0010530152, -0.025328685, -107254.57, -48490.348 
7.552259e+2, 3.0399305e+2, -11625.585, -82400.5, -916.0735, -0.001132341, -0.02448709, -11613.7295, -11613.7295 
7.5522137e+2, 3.1398627e+2, -14152.982, -82460.28, -331.81763, -0.0037971456, -0.0267413, -14151.37, -14151.37 
7.653121e+2, 1.2415202e+2, -1670371.1, -1732774.8, 543.7091, 0.0017356486, -0.029164065, -1670366.4, 52941.305 
7.653074e+2, 1.3414863e+2, -1573777.3, -1635217.4, -377.36487, -0.0012768424, -0.017359428, -1573774.9, 51566.21 
7.653029e+2, 1.4414436e+2, -1486616.9, -1556305.1, -241.49986, 0.0013182645, -0.031911254, -1486616.0, 40766.645 
7.6529837e+2, 1.5413967e+2, -1391660.0, -1460336.3, -39.392384, 0.0008482909, -0.026416508, -1391659.9, 37768.918 
7.652937e+2, 1.6413432e+2, -1304061.5, -1380673.9, -442.35507, 0.000295131, -0.023349768, -1304059.0, 27422.27 
7.65289e+2, 1.7412834e+2, -1206960.4, -1283081.4, -693.2789, -0.0003228737, -0.02533434, -1206954.1, 26585.598 
7.6528436e+2, 1.8412174e+2, -1119578.3, -1204492.1, -726.0958, -0.00072855875, -0.025667822, -1119572.0, 16032.358 
7.652797e+2, 1.9411452e+2, -1024072.44, -1107727.8, -530.1573, -0.0008678916, -0.026184171, -1024069.06, 13606.163 
7.65275e+2, 2.0410667e+2, -936869.44, -1028645.9, -625.23627, -0.000611936, -0.025345588, -936865.2, 2886.8948 
7.6527035e+2, 2.1409823e+2, -840452.2, -931338.0, -701.0984, 0.00020234958, -0.024656469, -840446.8, 1387.9401 
7.6526564e+2, 2.2408918e+2, -752949.44, -852400.25, -745.05865, -0.00007625774, -0.024137879, -752943.9, -9020.238 
7.652609e+2, 2.3407947e+2, -656623.0, -755146.6, -741.4259, -0.0019291757, -0.02623654, -656617.44, -10598.708 
7.6525617e+2, 2.4406914e+2, -569526.3, -676555.06, -598.48083, -0.0023247353, -0.026332503, -569522.94, -21403.016 
7.652515e+2, 2.5405818e+2, -473848.84, -579591.75, -498.52768, -0.00064342597, -0.025800863, -473846.5, -23619.344 
7.652468e+2, 2.6404664e+2, -386063.0, -500100.16, -546.93335, -0.0005380748, -0.024912566, -386060.38, -33719.99 
7.652421e+2, 2.7403447e+2, -288578.97, -402121.13, -758.76056, -0.0027207031, -0.026130758, -288573.9, -34114.406 
7.6523745e+2, 2.8402156e+2, -203468.44, -328022.97, -309.6831, -0.002982648, -0.025747122, -203467.66, -46881.453 
7.652329e+2, 2.9400784e+2, -108898.74, -231697.7, 141.10097, -0.0004460388, -0.025587961, -108898.586, -50177.805 
7.6522833e+2, 3.039975e+2, -13668.645, -83305.91, 122.81063, -0.0005734823, -0.024722561, -13668.428, -13668.428 
7.652236e+2, 3.139907e+2, -13066.308, -81860.66, -492.80414, -0.0045888224, -0.025701705, -13062.778, -13062.778 
7.7531683e+2, 1.24156594e+2, -1670704.5, -1733455.4, 160.09364, 0.0021972256, -0.027533147, -1670704.1, 52558.86 
7.7531207e+2, 1.3415313e+2, -1574075.4, -1635786.0, -742.0174, -0.00089437293, -0.017619334, -1574066.4, 51230.547 
7.7530736e+2, 1.4414889e+2, -1486361.4, -1555746.0, -873.9148, 0.0012728509, -0.0311744, -1486350.3, 40988.168 
7.753026e+2, 1.5414423e+2, -1391300.9, -1459643.9, -711.3642, -0.00014548739, -0.025455127, -1391293.5, 38090.617 
7.7529794e+2, 1.6413888e+2, -1304404.0, -1381435.1, -699.76514, -0.0006556798, -0.022667998, -1304397.8, 27038.832 
7.752932e+2, 1.7413284e+2, -1207428.9, -1284010.1, -896.4014, 0.0001402039, -0.025620451, -1207418.4, 26077.357 
7.752884e+2, 1.8412623e+2, -1119342.8, -1203939.4, -1298.4021, 0.00040127285, -0.026196094, -1119322.8, 16237.789 
7.752836e+2, 1.9411905e+2, -1023737.2, -1107018.8, -1147.8824, -0.00008421438, -0.025952628, -1023721.4, 13909.494 
7.752787e+2, 2.0411122e+2, -936943.25, -1028802.9, -1050.1243, -0.0005556555, -0.02528648, -936931.25, 2776.264 
7.7527386e+2, 2.1410276e+2, -840579.94, -931586.56, -1101.2446, -0.0010089925, -0.02610761, -840566.6, 1223.8438 
7.7526903e+2, 2.2409369e+2, -752973.5, -852417.94, -1165.9961, -0.0011703416, -0.025376001, -752959.8, -9080.351 
7.752642e+2, 2.34084e+2, -656642.75, -755145.7, -1164.787, -0.00094355684, -0.024807129, -656629.0, -10654.678 
7.752594e+2, 2.4407369e+2, -569383.3, -676232.5, -1183.5479, -0.0010827017, -0.024452077, -569370.2, -21294.826 
7.752545e+2, 2.5406274e+2, -473660.3, -579222.44, -1104.0428, -0.0017326161, -0.026660668, -473648.75, -23466.172 
7.752498e+2, 2.6405117e+2, -386375.72, -500756.56, -749.1142, -0.0019887197, -0.026337631, -386370.8, -34074.88 
7.75245e+2, 2.74039e+2, -289005.63, -402914.2, -907.2694, -0.0017009206, -0.024979897, -288998.4, -34583.06 
7.7524024e+2, 2.840261e+2, -202829.94, -326598.78, -1112.9395, -0.0016685684, -0.024139816, -202819.94, -46278.086 
7.752354e+2, 2.9401246e+2, -108070.13, -229999.69, -748.9228, -0.0019908776, -0.026615417, -108065.54, -49390.047 
7.7523065e+2, 3.0400214e+2, -14518.084, -85111.67, 24.601563, -0.0023876417, -0.025969993, -14518.075, -14518.075 
7.75226e+2, 3.1399524e+2, -14185.597, -84092.414, -476.10095, -0.0028604225, -0.023609174, -14182.3545, -14182.3545 
7.853216e+2, 1.24161266e+2, -1669925.8, -1733053.9, 443.1854, 0.0017562404, -0.027000453, -1669922.6, 53294.563 
7.853167e+2, 1.341578e+2, -1574200.5, -1635717.8, -118.99937, -0.00073246734, -0.01791591, -1574200.3, 51050.887 
7.853119e+2, 1.4415358e+2, -1486566.3, -1556010.0, -171.07512, 0.0016422892, -0.030210353, -1486565.8, 40726.746 
7.85307e+2, 1.5414889e+2, -1389926.4, -1459164.6, -438.23874, -0.00013295014, -0.025381887, -1389923.5, 39414.9 
7.853021e+2, 1.6414352e+2, -1302755.6, -1380607.8, -521.40265, -0.00075805903, -0.02290807, -1302752.3, 28638.777 
7.852973e+2, 1.741375e+2, -1207662.9, -1284081.1, -267.15204, 0.0002412319, -0.025362438, -1207661.9, 25788.205 
7.852924e+2, 1.8413089e+2, -1120273.8, -1204421.0, -538.05396, 0.00056083227, -0.025688946, -1120270.4, 15244.56 
7.8528744e+2, 1.941237e+2, -1023576.5, -1106978.1, -744.4755, -0.00007369538, -0.02554013, -1023569.8, 14015.416 
7.8528243e+2, 2.041159e+2, -936261.0, -1028404.25, -790.88104, -0.00069712667, -0.025048632, -936254.2, 3407.6873 
7.852775e+2, 2.1410742e+2, -840345.5, -931396.8, -681.04425, -0.0013056102, -0.026142733, -840340.44, 1404.383 
7.8527254e+2, 2.2409834e+2, -753145.94, -852468.7, -642.6508, -0.0013173971, -0.02551887, -753141.75, -9308.039 
7.852676e+2, 2.3408867e+2, -657085.4, -755335.44, -631.60974, -0.0005244477, -0.024813602, -657081.3, -11152.728 
7.852626e+2, 2.4407837e+2, -569528.4, -676296.56, -697.9873, -0.0006623195, -0.024216363, -569523.8, -21494.225 
7.8525764e+2, 2.5406742e+2, -472685.5, -578747.06, -787.742, -0.0021212895, -0.026036847, -472679.66, -22542.877 
7.852527e+2, 2.6405585e+2, -385690.22, -500325.38, -407.27567, -0.0024842639, -0.025744356, -385688.75, -33438.67 
7.852478e+2, 2.7404368e+2, -290774.9, -403661.44, -138.96144, -0.0012913834, -0.025009831, -290774.75, -36405.293 
7.852429e+2, 2.840308e+2, -204718.05, -327334.9, -312.1508, -0.0012564133, -0.02430391, -204717.25, -48221.41 
7.852379e+2, 2.940172e+2, -106779.82, -229194.28, -636.8966, -0.002884116, -0.026221422, -106776.51, -48147.24 
7.852331e+2, 3.0400684e+2, -12911.113, -84376.04, 85.80689, -0.0032709963, -0.025644654, -12911.011, -12911.011 
7.852283e+2, 3.1399995e+2, -16115.024, -85085.875, 595.78235, -0.0017852223, -0.024229787, -16109.878, -16109.878 
7.953264e+2, 1.24166034e+2, -1669633.9, -1732413.6, -180.00562, 0.00047349557, -0.027421035, -1669633.4, 53537.125 
7.9532135e+2, 1.3416263e+2, -1573783.6, -1634896.6, -754.4958, -0.0007967764, -0.018224126, -1573774.3, 51429.555 
7.953164e+2, 1.4415842e+2, -1486985.1, -1556909.3, -451.63638, 0.0023445315, -0.029033666, -1486982.1, 40262.934 
7.9531145e+2, 1.5415365e+2, -1390483.1, -1460251.9, -670.6601, 0.00074592716, -0.02609123, -1390476.8, 38815.215 
7.9530644e+2, 1.6414826e+2, -1302437.9, -1379877.4, -1183.3468, -0.00013965351, -0.023949306, -1302419.8, 28924.84 
7.953014e+2, 1.741423e+2, -1207211.3, -1283156.6, -981.6767, 0.000002323386, -0.024613764, -1207198.6, 26204.344 
7.952963e+2, 1.841357e+2, -1120536.8, -1204997.0, -899.71387, -0.00016854663, -0.024251526, -1120527.1, 14940.425 
7.9529124e+2, 1.9412848e+2, -1023939.75, -1107712.1, -1061.4117, -0.0007785277, -0.024969598, -1023926.25, 13612.212 
7.952862e+2, 2.0412064e+2, -936135.5, -1028107.4, -1285.9912, -0.0010406127, -0.02464255, -936117.5, 3497.7905 
7.9528105e+2, 2.141122e+2, -840163.56, -930995.8, -1198.5289, -0.00079413445, -0.024909856, -840147.75, 1550.1279 
7.95276e+2, 2.2410315e+2, -753111.7, -852384.8, -1141.1442, -0.0006373099, -0.02467865, -753098.56, -9311.899 
7.9527086e+2, 2.3409346e+2, -657062.75, -755285.2, -1127.6705, -0.00063753617, -0.02611434, -657049.8, -11168.148 
7.952658e+2, 2.4408315e+2, -569678.9, -676587.56, -1015.85187, -0.0009993757, -0.025456177, -569669.25, -21686.5 
7.952607e+2, 2.5407222e+2, -472886.13, -579087.25, -1081.1638, -0.0018863536, -0.02407057, -472875.13, -22785.273 
7.952556e+2, 2.6406068e+2, -385324.3, -499501.56, -1166.5991, -0.002127503, -0.023327027, -385312.4, -33109.41 
7.9525054e+2, 2.7404854e+2, -290291.25, -402689.22, -957.11395, -0.0014541608, -0.026111241, -290283.1, -35961.08 
7.9524547e+2, 2.8403562e+2, -205122.78, -328211.34, -424.28732, -0.0016874626, -0.026068881, -205121.31, -48672.938 
7.952405e+2, 2.9402196e+2, -107354.445, -230301.88, -658.3578, -0.003204053, -0.024533188, -107350.914, -48768.695 
7.952355e+2, 3.0401164e+2, -12229.597, -82848.664, -758.3192, -0.0033315937, -0.023884716, -12221.454, -12221.454 
7.952305e+2, 3.1400484e+2, -15227.559, -83237.59, -354.02835, -0.0013538392, -0.02730533, -15225.716, -15225.716 
8.053312e+2, 1.24170974e+2, -1669781.4, -1732627.6, 505.97714, 0.0010380383, -0.026620978, -1669777.3, 53344.75 
8.0532604e+2, 1.3416755e+2, -1572511.9, -1634334.4, -472.65985, -0.0009771467, -0.019327994, -1572508.3, 52647.402 
8.053209e+2, 1.4416334e+2, -1485707.6, -1556319.9, -275.35074, 0.0019779406, -0.028772775, -1485706.5, 41490.22 
8.0531585e+2, 1.5415856e+2, -1391098.5, -1460584.8, -25.666233, 0.0009188274, -0.025628572, -1391098.5, 38145.117 
8.053107e+2, 1.641532e+2, -1303409.8, -1380304.9, -399.0507, 0.0001413839, -0.023555249, -1303407.6, 27888.678 
8.053055e+2, 1.7414725e+2, -1206513.6, -1282766.6, -595.9573, -0.00022161189, -0.024653077, -1206509.0, 26845.674 
8.053003e+2, 1.8414064e+2, -1119335.6, -1204436.8, -600.9644, -0.00048763762, -0.024416383, -1119331.4, 16087.89 
8.052951e+2, 1.941334e+2, -1023746.75, -1107650.5, -440.28598, -0.0006343203, -0.024833033, -1023744.5, 13745.696 
8.052899e+2, 2.0412557e+2, -936405.25, -1028252.4, -573.0301, -0.00068147085, -0.024357755, -936401.6, 3165.3464 
8.052847e+2, 2.1411714e+2, -840157.4, -931008.0, -687.3582, -0.0005671355, -0.024665497, -840152.2, 1497.3998 
8.0527943e+2, 2.2410809e+2, -752833.94, -852223.0, -738.78326, -0.0006983554, -0.024423158, -752828.44, -9090.092 
8.0527425e+2, 2.3409839e+2, -656592.7, -755028.4, -731.8462, -0.0012065363, -0.0257977, -656587.25, -10753.921 
8.05269e+2, 2.4408808e+2, -569562.6, -676387.5, -533.35425, -0.0014562958, -0.025271615, -569560.0, -21625.635 
8.052638e+2, 2.5407717e+2, -474055.94, -579500.6, -353.95557, -0.0013705797, -0.02426234, -474054.75, -24013.377 
8.052586e+2, 2.6406565e+2, -386350.22, -499930.06, -471.34256, -0.0014901881, -0.023484679, -386348.25, -34193.86 
8.052534e+2, 2.7405348e+2, -288996.9, -402004.72, -685.6892, -0.0019080036, -0.025663365, -288992.75, -34719.434 
8.0524814e+2, 2.8404063e+2, -203703.34, -327475.34, -151.01918, -0.0022513485, -0.025579905, -203703.16, -47303.527 
8.05243e+2, 2.9402694e+2, -108975.41, -231034.78, 165.40013, -0.0024668528, -0.024817538, -108975.19, -50441.68 
8.052379e+2, 3.0401662e+2, -14330.351, -83666.51, 28.198093, -0.0025407705, -0.024181688, -14330.339, -14330.339 
8.0523276e+2, 3.1400985e+2, -14278.537, -82571.8, -328.8256, -0.0023154847, -0.026477223, -14276.953, -14276.953 
8.15336e+2, 1.24176085e+2, -1670205.6, -1733535.5, 217.47583, 0.0031391976, -0.02478485, -1670204.9, 52867.18 
8.1533074e+2, 1.3417256e+2, -1572962.6, -1635204.5, -727.4971, -0.0012905879, -0.021133805, -1572954.1, 52152.383 
8.153255e+2, 1.4416836e+2, -1485400.8, -1555618.8, -968.5995, 0.0006366102, -0.029303316, -1485387.4, 41760.215 
8.1532025e+2, 1.5416366e+2, -1390662.5, -1459712.6, -770.11145, 0.00043382734, -0.024120895, -1390653.9, 38539.836 
8.1531495e+2, 1.641583e+2, -1303649.9, -1380850.1, -712.19275, 0.000088172805, -0.021886963, -1303643.3, 27602.996 
8.1530964e+2, 1.7415228e+2, -1206864.5, -1283465.5, -859.082, -0.00045296032, -0.0253954, -1206854.9, 26450.35 
8.1530434e+2, 1.8414566e+2, -1119145.0, -1203989.9, -1158.4773, -0.00047142632, -0.025995867, -1119129.1, 16240.917 
8.1529903e+2, 1.9413848e+2, -1023484.25, -1107085.8, -1030.6262, 0.00024646925, -0.025081038, -1023471.56, 13968.923 
8.1529367e+2, 2.0413066e+2, -936561.7, -1028568.3, -1033.6251, 0.00027952256, -0.024176735, -936550.06, 2967.0632 
8.1528825e+2, 2.1412219e+2, -840360.5, -931413.25, -1128.454, -0.0006122194, -0.025312377, -840346.5, 1253.5779 
8.152829e+2, 2.2411312e+2, -752856.75, -852243.06, -1174.6798, -0.0014443822, -0.02468525, -752842.9, -9153.902 
8.152775e+2, 2.3410346e+2, -656609.25, -755016.1, -1167.762, -0.0021966363, -0.024026409, -656595.4, -10811.638 
8.1527215e+2, 2.4409316e+2, -569288.56, -675785.3, -1157.3849, -0.0020366532, -0.023805957, -569276.0, -21391.398 
8.152668e+2, 2.5408226e+2, -473725.4, -578829.3, -1004.36835, -0.0006272979, -0.026398662, -473715.8, -23724.34 
8.152615e+2, 2.6407072e+2, -386632.5, -500524.16, -710.623, -0.00062473543, -0.025958627, -386628.06, -34523.594 
8.152562e+2, 2.7405858e+2, -289391.63, -402751.34, -872.77954, -0.0026438164, -0.023810435, -289384.9, -35161.387 
8.152509e+2, 2.840457e+2, -203306.03, -326568.38, -928.6789, -0.0029605539, -0.023048885, -203299.05, -46949.293 
8.1524557e+2, 2.9403207e+2, -108440.57, -229927.23, -683.5177, -0.00078701397, -0.026889702, -108436.72, -49953.426 
8.152403e+2, 3.0402178e+2, -14770.705, -84600.84, -177.74818, -0.000997168, -0.026341371, -14770.253, -14770.253 
8.15235e+2, 3.1401497e+2, -14882.631, -83757.055, -450.59943, -0.004614575, -0.022136739, -14879.683, -14879.683 
8.2534087e+2, 1.2418129e+2, -1668783.5, -1732884.1, 470.8647, 0.002740636, -0.02476685, -1668780.0, 54241.027 
8.2533544e+2, 1.3417776e+2, -1573370.1, -1635377.9, -56.853264, -0.0009427745, -0.021334298, -1573370.1, 51685.418 
8.253301e+2, 1.4417358e+2, -1486111.0, -1555924.0, -179.68602, 0.0011214549, -0.027692366, -1486110.5, 40985.914 
8.2532465e+2, 1.5416889e+2, -1389552.8, -1459130.0, -354.60883, 0.00024089369, -0.02407376, -1389551.0, 39591.676 
8.2531923e+2, 1.6416351e+2, -1302182.5, -1380223.0, -396.8374, -0.00024063193, -0.022408072, -1302180.5, 29014.715 
8.253138e+2, 1.7415749e+2, -1206871.8, -1283570.8, -285.40347, -0.00018147368, -0.025071153, -1206870.6, 26383.625 
8.253083e+2, 1.8415087e+2, -1119645.6, -1204183.6, -551.3177, -0.000094818366, -0.025375254, -1119642.0, 15676.999 
8.2530284e+2, 1.941437e+2, -1023342.44, -1106954.8, -654.58923, 0.00003737356, -0.024918672, -1023337.3, 14052.127 
8.2529736e+2, 2.0413586e+2, -936141.9, -1028336.4, -677.76025, -0.00015535692, -0.024169354, -936136.9, 3329.1948 
8.252919e+2, 2.141274e+2, -840110.75, -931270.4, -567.3609, -0.0007820572, -0.025037283, -840107.2, 1441.7942 
8.252864e+2, 2.2411835e+2, -752876.06, -852202.8, -518.3585, -0.0013050399, -0.024348151, -752873.4, -9235.507 
8.252809e+2, 2.3410867e+2, -657072.44, -755190.3, -494.17996, -0.0016980486, -0.023901442, -657069.94, -11337.33 
8.2527536e+2, 2.440984e+2, -569573.75, -675903.6, -585.64734, -0.0016804747, -0.023688221, -569570.56, -21737.13 
8.252698e+2, 2.5408748e+2, -472921.0, -578426.6, -740.7591, -0.0011142197, -0.026002362, -472915.78, -22975.535 
8.252644e+2, 2.6407596e+2, -385953.53, -500152.88, -443.99332, -0.001223108, -0.02561393, -385951.8, -33898.58 
8.25259e+2, 2.7406383e+2, -290616.0, -403298.38, -232.37628, -0.0023263465, -0.023978665, -290615.5, -36443.227 
8.252535e+2, 2.8405094e+2, -204695.05, -327058.3, -310.94345, -0.002481212, -0.023125367, -204694.27, -48395.836 
8.2524806e+2, 2.940373e+2, -107688.8, -229370.03, -480.43683, -0.0012296467, -0.026005479, -107686.91, -49255.184 
8.2524264e+2, 3.0402705e+2, -13820.58, -84194.21, 82.85138, -0.0015566098, -0.025397621, -13820.482, -13820.482 
8.2523733e+2, 3.1402025e+2, -16182.292, -84462.375, 331.77432, -0.004139456, -0.022469103, -16180.68, -16180.68 
8.353457e+2, 1.2418658e+2, -1668477.1, -1732197.4, -271.26282, 0.0001024264, -0.026330916, -1668476.0, 54493.17 
8.3534014e+2, 1.3418315e+2, -1572952.0, -1634554.5, -815.0828, -0.00004421346, -0.020098915, -1572941.3, 52061.65 
8.353346e+2, 1.44179e+2, -1486339.0, -1556445.5, -482.8307, 0.003169935, -0.024192173, -1486335.8, 40707.754 
8.353291e+2, 1.541742e+2, -1389894.3, -1459796.8, -605.9554, 0.0002700559, -0.025313431, -1389889.0, 39201.465 
8.353236e+2, 1.641688e+2, -1302086.0, -1379962.4, -1014.763, -0.0008460214, -0.02484129, -1302072.8, 29070.635 
8.353179e+2, 1.7416283e+2, -1206702.1, -1283211.8, -939.9221, 0.0005176387, -0.023793107, -1206690.5, 26511.3 
8.3531237e+2, 1.8415625e+2, -1119779.6, -1204471.9, -989.0698, 0.00057017145, -0.022795716, -1119768.0, 15498.398 
8.353067e+2, 1.9414902e+2, -1023521.3, -1107311.0, -1066.0977, -0.001166663, -0.02439521, -1023507.75, 13829.546 
8.353011e+2, 2.0414118e+2, -935989.9, -1027994.3, -1154.1573, -0.0018602777, -0.024307437, -935975.4, 3438.606 
8.352955e+2, 2.1413277e+2, -839932.0, -930866.1, -1053.4932, -0.0010775558, -0.023939604, -839919.8, 1576.7043 
8.3528984e+2, 2.2412372e+2, -752828.44, -852077.8, -1074.4181, -0.00039785422, -0.023473024, -752816.8, -9231.613 
8.352842e+2, 2.3411405e+2, -657021.44, -755084.56, -1056.595, 0.00011133797, -0.025251986, -657010.06, -11330.039 
8.352786e+2, 2.4410374e+2, -569819.1, -676407.9, -955.0157, -0.0005100307, -0.02477116, -569810.56, -22029.621 
8.352729e+2, 2.5409284e+2, -473225.28, -579007.25, -1084.772, -0.0027246082, -0.023324072, -473214.16, -23326.287 
8.3526725e+2, 2.640813e+2, -385675.53, -499523.53, -1102.6178, -0.003152138, -0.022729393, -385664.84, -33664.008 
8.352617e+2, 2.7406916e+2, -290247.97, -402532.72, -929.9755, -0.001072478, -0.025973624, -290240.28, -36120.473 
8.352561e+2, 2.840563e+2, -204884.44, -327454.88, -623.0925, -0.00095428067, -0.025550641, -204881.28, -48635.453 
8.3525056e+2, 2.9404274e+2, -107974.11, -229905.81, -744.5727, -0.0036234935, -0.022437397, -107969.56, -49590.637 
8.35245e+2, 3.0403244e+2, -13512.285, -83482.266, -591.47205, -0.0040478925, -0.021641018, -13507.285, -13507.285 
8.352395e+2, 3.140256e+2, -15780.635, -83598.86, -388.1077, -0.001170284, -0.027032075, -15778.414, -15778.414 
8.4535056e+2, 1.2419212e+2, -1668971.6, -1732571.0, 642.12634, 0.0004414319, -0.025604913, -1668965.1, 53949.883 
8.4534484e+2, 1.3418864e+2, -1571744.5, -1634068.3, -333.4552, -0.0003248747, -0.021162555, -1571742.8, 53206.26 
8.4533924e+2, 1.4418451e+2, -1484835.1, -1555791.4, -119.01857, 0.0027796503, -0.023540888, -1484835.0, 42154.496 
8.453336e+2, 1.541797e+2, -1390024.5, -1459936.9, 14.222207, 0.0004897268, -0.025024196, -1390024.5, 39012.09 
8.4532785e+2, 1.641743e+2, -1302685.9, -1380237.9, -335.13898, -0.00050884276, -0.024720786, -1302684.4, 28405.117 
8.4532213e+2, 1.7416833e+2, -1206301.0, -1282995.6, -419.53867, 0.00029255153, -0.0235568, -1206298.8, 26849.207 
8.453164e+2, 1.8416174e+2, -1119032.9, -1204142.6, -473.06866, 0.0002429982, -0.022487456, -1119030.3, 16182.305 
8.453106e+2, 1.9415452e+2, -1023256.0, -1107223.5, -407.5343, -0.0009816135, -0.024077803, -1023254.0, 14029.405 
8.4530485e+2, 2.0414668e+2, -936014.5, -1027965.75, -503.57404, -0.0014901815, -0.024071475, -936011.75, 3348.448 
8.4529907e+2, 2.1413825e+2, -840095.8, -930899.56, -569.9749, -0.0009849588, -0.023920571, -840092.25, 1350.3911 
8.4529334e+2, 2.2412923e+2, -752834.25, -852019.44, -666.2515, -0.0005429218, -0.023495954, -752829.75, -9298.494 
8.4528756e+2, 2.3411955e+2, -656474.56, -754760.9, -660.37866, -0.00020913676, -0.025033193, -656470.1, -10844.036 
8.452817e+2, 2.4410926e+2, -569413.2, -676209.06, -468.70367, -0.00069617026, -0.024475638, -569411.1, -21684.16 
8.45276e+2, 2.5409836e+2, -473857.2, -579319.0, -335.94632, -0.0023605141, -0.02318992, -473856.1, -24022.219 
8.452702e+2, 2.640868e+2, -386324.7, -499682.66, -335.6838, -0.0027577665, -0.022528738, -386323.7, -34376.89 
8.452645e+2, 2.740747e+2, -289702.84, -402098.97, -425.92374, -0.0013787231, -0.025399324, -289701.22, -35635.645 
8.452587e+2, 2.8406185e+2, -204329.14, -327175.28, -117.005745, -0.0013877053, -0.025125165, -204329.02, -48137.504 
8.45253e+2, 2.9404825e+2, -108858.62, -230339.97, 9.101399, -0.003384988, -0.022884125, -108858.62, -50533.906 
8.452473e+2, 3.04038e+2, -14608.594, -83825.875, 115.84649, -0.003683577, -0.022148697, -14608.399, -14608.399 
8.452417e+2, 3.1403115e+2, -15606.438, -83305.65, 20.95405, -0.0014423436, -0.026457075, -15606.432, -15606.432 
8.5535544e+2, 1.24197856e+2, -1669403.1, -1733499.3, 296.54047, 0.0032877736, -0.022932924, -1669401.8, 53456.973 
8.553496e+2, 1.3419425e+2, -1572235.6, -1635041.3, -642.86566, -0.0016779506, -0.024248943, -1572229.1, 52664.883 
8.553438e+2, 1.441901e+2, -1484736.9, -1555530.9, -775.42194, 0.00021908862, -0.025375305, -1484728.4, 42206.164 
8.5533804e+2, 1.5418537e+2, -1389837.0, -1459549.6, -677.5774, 0.0008449307, -0.023382107, -1389830.5, 39150.695 
8.5533214e+2, 1.6417998e+2, -1302776.1, -1380442.1, -751.2298, 0.00061626587, -0.02235043, -1302768.9, 28265.105 
8.553263e+2, 1.7417397e+2, -1206442.3, -1283266.8, -805.8201, -0.0007758169, -0.024246395, -1206433.8, 26659.01 
8.5532045e+2, 1.8416736e+2, -1118969.8, -1203977.1, -1002.6113, -0.000997972, -0.024180053, -1118958.0, 16199.605 
8.553145e+2, 1.9416016e+2, -1023166.25, -1107015.3, -951.03766, 0.0004134994, -0.023941537, -1023155.5, 14072.644 
8.553086e+2, 2.0415233e+2, -936125.4, -1028183.7, -1030.0288, 0.0006897286, -0.023494499, -936113.9, 3190.947 
8.553027e+2, 2.1414389e+2, -840219.6, -931151.8, -1088.9088, -0.00056965486, -0.02485986, -840206.6, 1180.987 
8.5529673e+2, 2.2413483e+2, -752825.6, -851989.94, -1080.6683, -0.0016523277, -0.024309773, -752813.9, -9337.572 
8.5529083e+2, 2.3412518e+2, -656477.1, -754721.56, -1066.6262, -0.0024500682, -0.02340657, -656465.56, -10894.713 
8.552849e+2, 2.4411492e+2, -569221.2, -675766.06, -1073.4629, -0.0021134682, -0.02293704, -569210.4, -21538.816 
8.55279e+2, 2.5410402e+2, -473624.06, -578826.4, -963.5149, -0.00024467427, -0.025334913, -473615.22, -23836.74 
8.552731e+2, 2.640925e+2, -386423.03, -499883.38, -740.52466, -0.000303629, -0.024727417, -386418.2, -34526.914 
8.552672e+2, 2.740804e+2, -289858.34, -402380.28, -806.357, -0.0031173776, -0.022500739, -289852.6, -35842.797 
8.552613e+2, 2.8406754e+2, -204172.67, -326801.6, -745.3226, -0.0036096429, -0.022127355, -204168.14, -48032.44 
8.552555e+2, 2.940539e+2, -108651.33, -229892.53, -643.8585, -0.00077494705, -0.02696799, -108647.91, -50378.68 
8.5524964e+2, 3.0404365e+2, -14718.442, -84044.02, -299.54776, -0.00075625855, -0.026507095, -14717.148, -14717.148 
8.5524386e+2, 3.1403694e+2, -15771.626, -83600.96, -367.2988, -0.0047372556, -0.021215253, -15769.638, -15769.638 
8.6536044e+2, 1.2420366e+2, -1668040.6, -1732896.3, 379.43582, 0.0031176875, -0.022195349, -1668038.4, 54763.508 
8.6535436e+2, 1.3420004e+2, -1572319.8, -1635150.0, -146.43112, -0.0014163244, -0.025255958, -1572319.5, 52517.832 
8.6534846e+2, 1.4419591e+2, -1485156.6, -1555732.1, -144.41414, 0.0005027127, -0.024404874, -1485156.4, 41721.367 
8.653425e+2, 1.5419117e+2, -1389200.9, -1459233.3, -226.00795, 0.00065454247, -0.022830587, -1389200.1, 39724.227 
8.653365e+2, 1.6418578e+2, -1301844.8, -1380000.0, -307.0886, 0.00035725188, -0.022148667, -1301843.5, 29133.709 
8.653305e+2, 1.7417976e+2, -1206225.1, -1283178.5, -247.05487, -0.00056836545, -0.024293363, -1206224.4, 26811.709 
8.6532444e+2, 1.8417315e+2, -1119055.4, -1203992.8, -436.755, -0.0006967595, -0.024249243, -1119053.1, 16047.74 
8.653184e+2, 1.9416596e+2, -1023049.94, -1106932.1, -471.81833, 0.00028160308, -0.023720551, -1023047.3, 14124.043 
8.653124e+2, 2.0415813e+2, -935831.3, -1028011.7, -530.57837, 0.00043817566, -0.023153238, -935828.3, 3419.699 
8.6530626e+2, 2.1414968e+2, -839789.9, -930915.3, -451.74805, -0.0005182015, -0.024606703, -839787.6, 1543.1345 
8.6530024e+2, 2.2414064e+2, -752645.6, -851940.3, -387.94766, -0.0014695282, -0.02406787, -752644.1, -9224.629 
8.652942e+2, 2.3413098e+2, -656990.44, -755019.44, -427.52597, -0.0023770144, -0.023070075, -656988.56, -11474.501 
8.652881e+2, 2.4412072e+2, -569647.5, -675774.0, -509.11023, -0.0021778713, -0.022597218, -569645.06, -22030.33 
8.6528206e+2, 2.5410983e+2, -473229.06, -578413.6, -498.8309, -0.0004981696, -0.025121259, -473226.7, -23505.227 
8.65276e+2, 2.6409832e+2, -386096.84, -499803.53, -296.01572, -0.0004729916, -0.024655929, -386096.06, -34261.89 
8.6526996e+2, 2.740862e+2, -290405.25, -402754.2, -302.89224, -0.0028265633, -0.02257563, -290404.44, -36451.633 
8.65264e+2, 2.8407335e+2, -204677.22, -326793.75, -261.7361, -0.0032976633, -0.02204571, -204676.66, -48598.004 
8.652579e+2, 2.9405978e+2, -108361.52, -229467.11, -202.05763, -0.0010575566, -0.026326723, -108361.19, -50149.31 
8.6525196e+2, 3.0404952e+2, -14553.873, -84069.24, 176.73659, -0.001130268, -0.025852779, -14553.424, -14553.424 
8.65246e+2, 3.1404275e+2, -16452.877, -84077.43, 159.81801, -0.0045003896, -0.021304395, -16452.5, -16452.5 
8.753654e+2, 1.2420953e+2, -1667739.9, -1732235.4, -299.08765, 0.00026049203, -0.023125129, -1667738.5, 55005.863 
8.753592e+2, 1.3420598e+2, -1571989.0, -1634473.0, -831.7358, 0.00022552127, -0.024434563, -1571977.9, 52801.215 
8.753531e+2, 1.4420189e+2, -1485264.5, -1555967.9, -575.2577, 0.00322604, -0.020990157, -1485259.8, 41559.406 
8.7534696e+2, 1.5419708e+2, -1389371.5, -1459562.8, -629.3251, -0.000055266122, -0.02324067, -1389365.9, 39500.473 
8.753408e+2, 1.6419166e+2, -1301792.1, -1379857.0, -867.68176, -0.0011542971, -0.023836711, -1301782.4, 29136.963 
8.753347e+2, 1.741857e+2, -1206146.4, -1282993.1, -822.249, 0.0007398069, -0.023768364, -1206137.6, 26840.322 
8.753285e+2, 1.841791e+2, -1119111.0, -1204092.6, -932.3513, 0.00092202594, -0.022875775, -1119100.8, 15941.851 
8.7532234e+2, 1.9417189e+2, -1023119.8, -1107059.4, -956.2108, -0.0012250319, -0.023415431, -1023108.94, 14004.332 
8.753161e+2, 2.0416406e+2, -935716.1, -1027753.7, -1015.10535, -0.0019938392, -0.023005063, -935704.94, 3484.9639 
8.7530994e+2, 2.1415566e+2, -839666.0, -930627.9, -939.95953, -0.0008066206, -0.02329238, -839656.3, 1616.0682 
8.753037e+2, 2.241466e+2, -752719.94, -852069.56, -974.03174, -0.00016295783, -0.022873603, -752710.4, -9349.372 
8.752975e+2, 2.3413692e+2, -657068.6, -755182.4, -1017.80316, -0.00026348702, -0.023883954, -657058.06, -11602.204 
8.7529135e+2, 2.4412665e+2, -569607.5, -675691.8, -930.9736, -0.0010663816, -0.02332398, -569599.3, -22042.738 
8.752851e+2, 2.541158e+2, -473201.4, -578319.1, -908.2121, -0.0028968262, -0.022790488, -473193.56, -23530.62 
8.752789e+2, 2.6410428e+2, -386133.4, -499832.13, -886.0347, -0.003007959, -0.022545477, -386126.5, -34350.84 
8.752727e+2, 2.7409214e+2, -290434.03, -402790.25, -905.1747, -0.0007256129, -0.025328716, -290426.75, -36531.98 
8.7526655e+2, 2.840793e+2, -204556.0, -326526.34, -715.11597, -0.00073283527, -0.024578221, -204551.8, -48531.28 
8.7526035e+2, 2.940658e+2, -108239.06, -229177.08, -644.07544, -0.003983619, -0.021401519, -108235.63, -50082.77 
8.752543e+2, 3.0405557e+2, -14607.68, -84140.41, -413.77, -0.004513067, -0.020669447, -14605.218, -14605.218 
8.752482e+2, 3.1404868e+2, -16523.17, -84189.14, -437.2947, -0.0010883434, -0.026270838, -16520.344, -16520.344 
8.853703e+2, 1.2421564e+2, -1667986.8, -1732258.5, 580.8714, 0.0003725885, -0.022575006, -1667981.5, 54703.063 
8.8536394e+2, 1.3421208e+2, -1571354.0, -1634119.0, -231.48508, 0.00012158947, -0.025018368, -1571353.1, 53366.266 
8.8535774e+2, 1.4420801e+2, -1484417.6, -1555616.4, -32.644196, 0.0031046632, -0.019490493, -1484417.6, 42341.66 
8.853514e+2, 1.5420318e+2, -1389125.9, -1459518.3, 19.269392, 0.00011896336, -0.023277588, -1389125.9, 39680.81 
8.8534516e+2, 1.6419776e+2, -1301763.9, -1379837.6, -249.31609, -0.000936401, -0.024374384, -1301763.1, 29096.648 
8.8533884e+2, 1.7419179e+2, -1205946.0, -1282887.4, -294.274, 0.00066714745, -0.02336822, -1205944.9, 26973.338 
8.853326e+2, 1.8418519e+2, -1118825.0, -1203930.5, -371.19623, 0.0007854729, -0.02218372, -1118823.4, 16159.422 
8.853262e+2, 1.9417799e+2, -1022891.8, -1106927.5, -320.48096, -0.0011443535, -0.023326049, -1022890.56, 14162.953 
8.853199e+2, 2.0417017e+2, -935638.5, -1027722.7, -418.42377, -0.0018835119, -0.023074614, -935636.6, 3493.5688 
8.853135e+2, 2.1416174e+2, -839825.1, -930719.75, -491.8817, -0.00093891483, -0.02286749, -839822.5, 1390.1194 
8.853072e+2, 2.2415271e+2, -752698.0, -851924.75, -538.17596, -0.00032234297, -0.022366142, -752695.06, -9393.8545 
8.853008e+2, 2.3414303e+2, -656492.6, -754756.25, -413.9432, -0.00017397679, -0.023907913, -656490.9, -11094.902 
8.852945e+2, 2.4413277e+2, -569204.6, -675594.8, -285.3517, -0.00085645943, -0.023497086, -569203.9, -21707.219 
8.852881e+2, 2.541219e+2, -473630.4, -578651.25, -391.27246, -0.002746192, -0.022523664, -473628.94, -24025.824 
8.852818e+2, 2.6411042e+2, -386576.38, -499796.56, -368.8154, -0.0030147806, -0.022074657, -386575.2, -34859.39 
8.852754e+2, 2.7409828e+2, -290301.84, -402442.34, -200.5271, -0.0010102376, -0.025008319, -290301.5, -36466.86 
8.8526917e+2, 2.8408545e+2, -204503.61, -326557.53, 36.49788, -0.0009882584, -0.024399828, -204503.6, -48543.3 
8.8526285e+2, 2.9407194e+2, -108670.91, -229478.48, -93.13258, -0.0037993635, -0.021328326, -108670.836, -50578.1 
8.852565e+2, 3.040617e+2, -15045.551, -84144.64, 32.772434, -0.0042893286, -0.020492224, -15045.535, -15045.535 
8.8525033e+2, 3.1405488e+2, -16741.307, -84059.81, 193.90352, -0.0013597304, -0.025777899, -16740.748, -16740.748 
8.9537525e+2, 1.24221936e+2, -1668142.9, -1732601.0, 116.2528, 0.0029685048, -0.020837152, -1668142.8, 54480.09 
8.9536875e+2, 1.3421832e+2, -1571591.6, -1634599.1, -676.4174, -0.0015432498, -0.026840942, -1571584.4, 53073.895 
8.953624e+2, 1.4421424e+2, -1484408.5, -1555567.5, -586.4066, 0.0004667019, -0.019656792, -1484403.6, 42294.484 
8.9535594e+2, 1.5420942e+2, -1389100.4, -1459430.3, -545.0728, 0.0010290955, -0.022989234, -1389096.1, 39649.313 
8.9534956e+2, 1.6420402e+2, -1301842.3, -1379970.8, -781.193, 0.000746033, -0.023902247, -1301834.4, 28964.137 
8.9534307e+2, 1.7419803e+2, -1206025.4, -1283038.1, -820.1291, -0.0006457072, -0.023076171, -1206016.6, 26840.5 
8.953366e+2, 1.8419144e+2, -1118761.9, -1203792.9, -873.27686, -0.0009329694, -0.022082698, -1118752.9, 16168.866 
8.9533013e+2, 1.9418423e+2, -1022826.8, -1106771.1, -823.3343, 0.00031324386, -0.023428708, -1022818.7, 14173.63 
8.953237e+2, 2.0417641e+2, -935773.5, -1027979.6, -962.78375, 0.00043362376, -0.02332204, -935763.44, 3305.5486 
8.9531714e+2, 2.1416797e+2, -839971.7, -931015.7, -1032.7448, -0.00095901394, -0.02322313, -839959.94, 1191.7051 
8.9531064e+2, 2.2415894e+2, -752492.06, -851489.1, -988.2732, -0.0018105988, -0.022459218, -752482.2, -9241.973 
8.9530414e+2, 2.341493e+2, -656271.2, -754256.6, -861.7121, -0.0019036584, -0.02322725, -656263.6, -10929.055 
8.9529765e+2, 2.4413905e+2, -569385.1, -675924.75, -898.07324, -0.0014697561, -0.023165202, -569377.56, -21942.389 
8.9529115e+2, 2.5412813e+2, -473831.1, -579056.0, -1011.17053, -0.00033226196, -0.024093494, -473821.38, -24279.264 
8.9528465e+2, 2.6411664e+2, -386272.44, -499165.84, -834.7067, -0.0007826084, -0.023056574, -386266.28, -34611.586 
8.952782e+2, 2.7410462e+2, -289966.66, -401720.66, -662.55084, -0.0034665496, -0.021921325, -289962.75, -36190.1 
8.952717e+2, 2.840918e+2, -204715.4, -326958.53, -527.5736, -0.0037988115, -0.021784263, -204713.13, -48814.94 
8.9526534e+2, 2.9407817e+2, -108934.875, -229992.38, -654.5052, -0.00081795786, -0.025633207, -108931.336, -50899.72 
8.9525884e+2, 3.0406794e+2, -14788.629, -83585.734, -513.5781, -0.0008404585, -0.024807056, -14784.795, -14784.795 
8.952524e+2, 3.1406125e+2, -16431.629, -83394.516, -358.20157, -0.005060312, -0.020271698, -16429.713, -16429.713 
9.053802e+2, 1.2422837e+2, -1667229.9, -1732218.0, 517.83167, 0.0030420837, -0.020130776, -1667225.8, 55334.07 
9.053736e+2, 1.3422471e+2, -1571240.6, -1634619.1, -162.9418, -0.0014843668, -0.028287617, -1571240.1, 53355.484 
9.053671e+2, 1.4422065e+2, -1484229.5, -1555472.8, -81.1431, 0.0004915609, -0.018824467, -1484229.4, 42405.996 
9.0536046e+2, 1.5421584e+2, -1388973.8, -1459346.9, -79.485664, 0.0010489196, -0.022419987, -1388973.8, 39708.965 
9.053539e+2, 1.6421042e+2, -1301635.9, -1379842.0, -221.25938, 0.0007630779, -0.023569515, -1301635.3, 29100.443 
9.053473e+2, 1.7420444e+2, -1205553.1, -1282785.5, -173.25809, -0.0006574737, -0.022927668, -1205552.8, 27241.578 
9.053407e+2, 1.8419784e+2, -1118314.4, -1203612.3, -273.5461, -0.00093518343, -0.02193468, -1118313.5, 16545.502 
9.0533406e+2, 1.9419062e+2, -1022717.2, -1106764.5, -332.40372, 0.00035643892, -0.02300103, -1022715.9, 14213.699 
9.0532744e+2, 2.0418282e+2, -935669.0, -1027852.9, -415.8337, 0.00051784224, -0.02290739, -935667.1, 3339.1194 
9.053208e+2, 2.1417437e+2, -839597.5, -930751.25, -293.69513, -0.0008799355, -0.023268031, -839596.56, 1492.2876 
9.0531415e+2, 2.2416535e+2, -752290.0, -851404.75, -267.28186, -0.0017805344, -0.022583127, -752289.25, -9111.865 
9.053075e+2, 2.3415571e+2, -656718.25, -754495.2, -396.07993, -0.001971747, -0.022825899, -656716.7, -11444.956 
9.0530086e+2, 2.4414547e+2, -569785.06, -675944.2, -440.16156, -0.0016079275, -0.022568785, -569783.25, -22410.992 
9.052942e+2, 2.5413457e+2, -473499.0, -578706.6, -247.97311, -0.0005074734, -0.023800896, -473498.4, -24019.354 
9.0528756e+2, 2.6412308e+2, -385894.16, -499045.4, -64.83273, -0.0008536972, -0.022901483, -385894.1, -34302.543 
9.052809e+2, 2.7411106e+2, -290119.5, -401883.53, -294.56824, -0.0032440696, -0.021649692, -290118.72, -36409.137 
9.052743e+2, 2.8409824e+2, -204940.33, -326824.75, -250.70673, -0.0035548285, -0.0214752, -204939.81, -49104.73 
9.052677e+2, 2.9408467e+2, -109078.73, -229790.11, 27.362091, -0.00093152723, -0.025400892, -109078.72, -51110.44 
9.052611e+2, 3.040744e+2, -15051.532, -83785.8, 272.03006, -0.0010700397, -0.02467635, -15050.456, -15050.456 
9.0525454e+2, 3.140677e+2, -16563.84, -83571.65, 39.50558, -0.0050360993, -0.02030362, -16563.816, -16563.816 
9.153852e+2, 1.24234915e+2, -1667165.5, -1732075.4, -53.416668, 0.00086722145, -0.020323247, -1667165.5, 55330.098 
9.153784e+2, 1.3423124e+2, -1571285.5, -1634682.4, -726.7468, 0.00003444368, -0.029407702, -1571277.1, 53254.453 
9.153718e+2, 1.4422722e+2, -1484264.1, -1555516.1, -653.0465, 0.0027761871, -0.017139055, -1484258.1, 42312.99 
9.15365e+2, 1.5422238e+2, -1388989.3, -1459377.9, -652.50604, 0.0002525045, -0.02161263, -1388983.3, 39635.27 
9.153583e+2, 1.6421697e+2, -1301550.1, -1379667.0, -683.986, -0.00071418, -0.02335146, -1301544.3, 29127.412 
9.1535157e+2, 1.74211e+2, -1205486.6, -1282610.5, -630.5857, 0.0004398966, -0.02290167, -1205481.5, 27248.572 
9.153448e+2, 1.842044e+2, -1118447.1, -1203841.3, -855.1447, 0.0005164195, -0.021728585, -1118438.5, 16356.136 
9.15338e+2, 1.941972e+2, -1022851.6, -1107024.5, -918.3645, -0.0008667352, -0.022093972, -1022841.56, 14023.841 
9.153312e+2, 2.0418936e+2, -935477.75, -1027449.3, -897.7423, -0.0013916198, -0.02189393, -935469.0, 3473.0388 
9.153244e+2, 2.1418096e+2, -839392.7, -930294.9, -772.6198, -0.0007298924, -0.02303467, -839386.1, 1638.3162 
9.1531765e+2, 2.2417192e+2, -752514.75, -851837.5, -876.3698, -0.00043230367, -0.022717444, -752507.0, -9394.087 
9.153108e+2, 2.3416226e+2, -656966.75, -755003.7, -1006.8411, -0.0005832733, -0.02266793, -656956.4, -11748.781 
9.15304e+2, 2.4415202e+2, -569442.4, -675231.75, -881.34985, -0.0013530955, -0.021728387, -569435.06, -22127.01 
9.1529715e+2, 2.5414118e+2, -473122.63, -577891.8, -686.1308, -0.00301545, -0.02184758, -473118.13, -23703.98 
9.152904e+2, 2.641297e+2, -386272.1, -499782.22, -654.5184, -0.0029953432, -0.021732828, -386268.34, -34741.676 
9.152836e+2, 2.741176e+2, -290562.78, -402767.53, -881.64716, -0.0006421404, -0.02389537, -290555.88, -36910.258 
9.152769e+2, 2.8410476e+2, -204497.33, -325880.16, -793.3858, -0.0006100728, -0.02321114, -204492.14, -48721.06 
9.152701e+2, 2.940913e+2, -108548.44, -228668.3, -523.73157, -0.0038631042, -0.021068873, -108546.16, -50643.207 
9.1526335e+2, 3.040811e+2, -15399.769, -84491.03, -248.74973, -0.004637217, -0.020547604, -15398.872, -15398.872 
9.152567e+2, 3.1407422e+2, -17011.61, -84471.37, -462.97876, -0.0016936437, -0.025397336, -17008.432, -17008.432 
9.253902e+2, 1.2424165e+2, -1666794.9, -1731779.8, 538.9398, 0.00066832243, -0.01995495, -1666790.5, 55639.156 
9.253833e+2, 1.3423796e+2, -1571209.4, -1634730.5, -154.86841, 0.00014535675, -0.030118091, -1571209.0, 53256.844 
9.253764e+2, 1.4423396e+2, -1484018.6, -1555393.3, -3.692926, 0.002954825, -0.0154233165, -1484018.6, 42486.402 
9.253695e+2, 1.5422909e+2, -1388246.1, -1459007.4, 21.887655, 0.00019602985, -0.021646934, -1388246.1, 40306.523 
9.2536265e+2, 1.6422369e+2, -1300858.8, -1379376.6, -90.25014, -0.0008173681, -0.024021318, -1300858.8, 29747.148 
9.253558e+2, 1.7421772e+2, -1205504.8, -1282675.4, -160.90372, 0.00054263294, -0.02269347, -1205504.5, 27159.809 
9.253489e+2, 1.8421112e+2, -1118595.8, -1203843.3, -350.95386, 0.00066002284, -0.021227418, -1118594.3, 16134.565 
9.253419e+2, 1.942039e+2, -1022530.0, -1106794.1, -248.33926, -0.00094706734, -0.022087118, -1022529.25, 14270.31 
9.25335e+2, 2.041961e+2, -935136.75, -1027292.06, -244.5252, -0.0015192628, -0.021988332, -935136.1, 3740.0618 
9.253281e+2, 2.1418768e+2, -839535.3, -930379.9, -347.56128, -0.00066882785, -0.022675777, -839534.0, 1424.5635 
9.253211e+2, 2.2417866e+2, -752625.75, -851775.9, -445.30673, -0.00032211785, -0.022231039, -752623.75, -9576.783 
9.253141e+2, 2.34169e+2, -656526.75, -754669.7, -264.48032, -0.0006464428, -0.022478225, -656526.0, -11384.435 
9.253072e+2, 2.4415876e+2, -569053.6, -675069.75, -115.860275, -0.0014077047, -0.021688372, -569053.5, -21811.47 
9.2530024e+2, 2.5414795e+2, -473391.78, -578060.1, -330.86987, -0.0028202198, -0.0217669, -473390.72, -24042.592 
9.2529327e+2, 2.6413643e+2, -386686.97, -499808.1, -351.40887, -0.0028541638, -0.021631058, -386685.88, -35225.293 
9.2528635e+2, 2.7412432e+2, -290723.47, -402655.47, -53.196407, -0.00095096853, -0.02380242, -290723.44, -37144.06 
9.2527944e+2, 2.8411153e+2, -204569.34, -325861.38, 154.63194, -0.0009876302, -0.023051132, -204569.16, -48864.414 
9.252725e+2, 2.9409808e+2, -108555.7, -228635.48, -85.27441, -0.0037919579, -0.020704355, -108555.64, -50719.098 
9.252656e+2, 3.0408788e+2, -15489.171, -84437.414, 65.24963, -0.0044139675, -0.020132894, -15489.109, -15489.109 
9.2525876e+2, 3.14081e+2, -17486.56, -84603.39, 335.80405, -0.0016842971, -0.025202263, -17484.879, -17484.879 
9.3539524e+2, 1.2424855e+2, -1666742.6, -1731635.8, -79.864136, 0.0020831816, -0.01921195, -1666742.5, 55619.582 
9.3538815e+2, 1.3424484e+2, -1571285.1, -1634886.9, -765.94543, -0.0010036008, -0.030492222, -1571275.9, 53122.574 
9.353811e+2, 1.4424084e+2, -1484003.1, -1555358.5, -460.1695, 0.0012600853, -0.013687066, -1484000.1, 42437.48 
9.353741e+2, 1.5423597e+2, -1388254.5, -1458972.1, -424.91357, 0.00073701673, -0.022413513, -1388251.9, 40233.45 
9.3536705e+2, 1.6423053e+2, -1301025.9, -1379661.4, -718.84143, 0.0002202132, -0.025454238, -1301019.3, 29519.365 
9.3536e+2, 1.7422457e+2, -1205660.9, -1282977.6, -798.96545, -0.00025295877, -0.022319691, -1205652.6, 26944.5 
9.353529e+2, 1.8421799e+2, -1118424.8, -1203486.6, -823.84625, -0.00038287882, -0.02045761, -1118416.8, 16244.875 
9.353459e+2, 1.9421077e+2, -1022352.56, -1106396.8, -712.5769, -0.000051410138, -0.022867661, -1022346.5, 14385.744 
9.3533874e+2, 2.0420295e+2, -935342.5, -1027681.25, -836.735, -0.00012393449, -0.02303931, -935334.94, 3473.9302 
9.3533164e+2, 2.1419454e+2, -839762.4, -930831.75, -942.4424, -0.0007095943, -0.022201698, -839752.6, 1138.7882 
9.353246e+2, 2.2418551e+2, -752315.3, -851122.7, -919.5904, -0.0013300165, -0.021188539, -752306.75, -9326.974 
9.3531746e+2, 2.3417592e+2, -656181.06, -753928.8, -739.03436, -0.0020138856, -0.022266377, -656175.5, -11101.578 
9.3531036e+2, 2.4416566e+2, -569411.44, -675779.7, -717.0609, -0.0017627315, -0.02235974, -569406.6, -22232.29 
9.353033e+2, 2.5415477e+2, -473807.34, -578894.7, -927.0636, -0.00023670899, -0.023341924, -473799.16, -24518.02 
9.352961e+2, 2.6414332e+2, -386178.78, -498735.47, -877.59314, -0.00070041674, -0.022454938, -386171.94, -34778.45 
9.352891e+2, 2.741313e+2, -290131.38, -401410.63, -589.3378, -0.0038935458, -0.021612572, -290128.25, -36617.105 
9.35282e+2, 2.8411853e+2, -204931.94, -326593.88, -385.96872, -0.0043647583, -0.021194456, -204930.72, -49294.426 
9.352749e+2, 2.9410496e+2, -109021.766, -229569.64, -608.96875, -0.0010402803, -0.023884559, -109018.69, -51249.48 
9.3526787e+2, 3.0409476e+2, -15081.582, -83563.766, -533.25195, -0.00082566135, -0.023001991, -15077.43, -15077.43 
9.3526083e+2, 3.1408805e+2, -16983.82, -83551.25, -278.97845, -0.004772474, -0.020152632, -16982.65, -16982.65 
9.454003e+2, 1.2425561e+2, -1666414.4, -1731317.4, 466.9555, 0.0022893443, -0.017952124, -1666411.0, 55881.87 
9.45393e+2, 1.3425186e+2, -1570648.9, -1634715.6, -226.67957, -0.0010186302, -0.0320697, -1570648.0, 53681.613 
9.453858e+2, 1.4424789e+2, -1483361.8, -1555096.5, 37.666164, 0.0011803946, -0.012994877, -1483361.8, 43006.863 
9.4537866e+2, 1.54243e+2, -1388398.1, -1459086.9, 20.330929, 0.00080421724, -0.0218954, -1388398.1, 40018.36 
9.4537145e+2, 1.6423756e+2, -1301281.9, -1379748.1, -215.82245, 0.00031551774, -0.025147637, -1301281.3, 29188.49 
9.4536424e+2, 1.742316e+2, -1205232.3, -1282730.8, -135.17915, -0.0003233553, -0.022261752, -1205232.1, 27296.154 
9.4535697e+2, 1.8422502e+2, -1117811.9, -1203144.8, -125.928406, -0.00045981957, -0.020412015, -1117811.8, 16781.0 
9.453498e+2, 1.9421782e+2, -1022246.2, -1106305.3, -178.12585, 0.00006836128, -0.022527555, -1022245.8, 14417.453 
9.453426e+2, 2.0421001e+2, -935387.9, -1027647.25, -311.59625, 0.0000121472, -0.022658698, -935386.8, 3353.003 
9.4533527e+2, 2.1420158e+2, -839497.9, -930650.8, -179.87813, -0.0008415318, -0.022068202, -839497.56, 1324.7892 
9.45328e+2, 2.2419256e+2, -752050.6, -851018.56, -134.20134, -0.0015004755, -0.02111737, -752050.44, -9139.736 
9.453208e+2, 2.3418297e+2, -656228.25, -753982.56, -318.297, -0.0019306187, -0.022063643, -656227.25, -11222.403 
9.453135e+2, 2.441727e+2, -569493.1, -675684.25, -378.1547, -0.0016728268, -0.022144213, -569491.8, -22386.545 
9.453063e+2, 2.5416183e+2, -473786.9, -578737.3, -116.30354, -0.00046479705, -0.023197098, -473786.78, -24574.861 
9.45299e+2, 2.6415038e+2, -386137.22, -498676.0, 40.30677, -0.00090231374, -0.022211688, -386137.22, -34813.043 
9.4529176e+2, 2.7413836e+2, -290006.13, -401324.38, -236.3746, -0.0036002162, -0.021065611, -290005.63, -36563.85 
9.4528455e+2, 2.841256e+2, -204837.81, -326417.75, -208.19598, -0.0039949124, -0.020742085, -204837.47, -49270.586 
9.4527733e+2, 2.9411206e+2, -109284.375, -229560.8, 84.13547, -0.0011683243, -0.024093084, -109284.32, -51584.582 
9.4527006e+2, 3.0410182e+2, -15482.038, -83763.125, 271.7605, -0.0011281617, -0.023227975, -15480.956, -15480.956 
9.4526285e+2, 3.1409514e+2, -16978.271, -83577.02, 6.794236, -0.004785811, -0.01942532, -16978.271, -16978.271 
9.554053e+2, 1.2426283e+2, -1666298.9, -1731078.3, -17.638107, 0.0013861477, -0.016307265, -1666298.9, 55923.246 
9.553979e+2, 1.3425902e+2, -1570782.4, -1634940.0, -701.48535, -0.00009955453, -0.034667395, -1570774.6, 53484.8 
9.553906e+2, 1.4425507e+2, -1483472.1, -1555266.8, -600.2431, 0.0024304916, -0.013191775, -1483467.1, 42831.203 
9.5538324e+2, 1.5425019e+2, -1388475.8, -1459237.0, -627.507, 0.00041792652, -0.020261213, -1388470.3, 39875.887 
9.5537585e+2, 1.6424476e+2, -1301122.9, -1379426.4, -682.08563, -0.00045435477, -0.023326227, -1301117.0, 29282.387 
9.553685e+2, 1.7423879e+2, -1205081.6, -1282387.6, -592.8435, 0.00020134417, -0.022474568, -1205077.1, 27380.65 
9.553611e+2, 1.842322e+2, -1117941.4, -1203366.1, -714.47565, 0.00025321654, -0.020976467, -1117935.4, 16586.818 
9.5535374e+2, 1.9422501e+2, -1022391.9, -1106571.9, -773.5225, -0.000511365, -0.021199642, -1022384.8, 14208.007 
9.553463e+2, 2.0421721e+2, -935176.56, -1027187.9, -834.93024, -0.0009841293, -0.021012167, -935168.94, 3500.297 
9.5533895e+2, 2.142088e+2, -839258.25, -930135.3, -703.77515, -0.0010697192, -0.022231432, -839252.8, 1498.773 
9.5533156e+2, 2.2419979e+2, -752375.56, -851666.6, -688.582, -0.0009568011, -0.02188982, -752370.8, -9530.794 
9.553242e+2, 2.3419014e+2, -656612.2, -754732.44, -859.64667, -0.00058108434, -0.021861324, -656604.7, -11670.083 
9.553167e+2, 2.441799e+2, -569058.75, -674742.75, -944.96075, -0.0012170381, -0.021124758, -569050.3, -22015.426 
9.553093e+2, 2.541691e+2, -473265.9, -577644.7, -700.8626, -0.0032115837, -0.02152751, -473261.2, -24120.455 
9.553019e+2, 2.6415765e+2, -386559.97, -499545.13, -480.46893, -0.0032112196, -0.021025369, -386557.94, -35305.023 
9.552945e+2, 2.7414557e+2, -290535.28, -402384.3, -733.41797, -0.0004442822, -0.021972338, -290530.47, -37159.035 
9.552871e+2, 2.8413278e+2, -204393.55, -325453.97, -812.9665, -0.0003295749, -0.021509074, -204388.08, -48891.48 
9.5527965e+2, 2.9411933e+2, -108732.41, -228401.47, -545.0249, -0.0039113895, -0.021626813, -108729.93, -51101.563 
9.5527226e+2, 3.0410916e+2, -15878.975, -84583.95, -252.38719, -0.0049363156, -0.021091929, -15878.048, -15878.048 
9.552649e+2, 3.1410232e+2, -17496.014, -84617.305, -488.26056, -0.0020973377, -0.022611031, -17492.463, -17492.463 
9.6541035e+2, 1.2427021e+2, -1665448.5, -1730534.0, 566.0403, 0.001566956, -0.016351208, -1665443.5, 56706.29 
9.6540284e+2, 1.3426638e+2, -1570972.5, -1635313.9, -180.42552, -0.00015493858, -0.035545725, -1570972.0, 53215.523 
9.6539533e+2, 1.4426242e+2, -1483568.6, -1555243.0, -22.73662, 0.0023101328, -0.011327513, -1483568.6, 42657.527 
9.653878e+2, 1.5425754e+2, -1387799.0, -1458810.1, 78.78499, 0.0004514794, -0.020137656, -1387798.9, 40475.164 
9.653803e+2, 1.642521e+2, -1300328.8, -1379017.1, 34.245945, -0.00033876993, -0.023840113, -1300328.8, 29998.574 
9.653728e+2, 1.7424616e+2, -1204912.8, -1282293.1, -30.755503, 0.00028548946, -0.022162218, -1204912.8, 27472.871 
9.6536523e+2, 1.8423958e+2, -1118065.5, -1203443.8, -211.94359, 0.00027432255, -0.020406174, -1118065.0, 16385.133 
9.6535766e+2, 1.9423237e+2, -1022315.4, -1106559.4, -169.27794, -0.0006329621, -0.021111105, -1022315.06, 14205.632 
9.6535015e+2, 2.0422456e+2, -934928.25, -1027029.25, -211.04872, -0.0010913045, -0.021063264, -934927.75, 3669.4297 
9.653426e+2, 2.1421617e+2, -838978.75, -929961.2, -294.95663, -0.0009719928, -0.021961687, -838977.8, 1701.6051 
9.65335e+2, 2.2420715e+2, -752190.56, -851464.7, -311.5914, -0.0008279927, -0.021545168, -752189.56, -9421.789 
9.6532744e+2, 2.3419751e+2, -656803.94, -754706.06, -74.33516, -0.000652299, -0.021743733, -656803.9, -11941.593 
9.653199e+2, 2.4418728e+2, -569287.44, -674796.56, -28.258703, -0.0013083305, -0.020974193, -569287.44, -22324.906 
9.6531224e+2, 2.541765e+2, -472963.5, -577452.75, -259.7565, -0.0031043158, -0.020998312, -472962.84, -23894.566 
9.6530473e+2, 2.6416504e+2, -386230.25, -499354.13, -193.4128, -0.0031286837, -0.02061229, -386229.94, -35049.492 
9.6529716e+2, 2.7415296e+2, -290861.66, -402514.63, 56.47386, -0.00066682976, -0.02234872, -290861.63, -37562.625 
9.6528965e+2, 2.8414017e+2, -204819.75, -325556.34, 123.354576, -0.0006042052, -0.021829544, -204819.63, -49395.504 
9.65282e+2, 2.9412678e+2, -108589.08, -228226.9, -84.18425, -0.0039052416, -0.020719144, -108589.02, -51033.344 
9.652745e+2, 3.0411658e+2, -15709.434, -84426.89, 92.47763, -0.004793792, -0.02018045, -15709.309, -15709.309 
9.65267e+2, 3.1410974e+2, -18036.752, -84816.266, 385.29245, -0.0019950788, -0.02338885, -18034.53, -18034.53 
9.7541547e+2, 1.2427773e+2, -1665446.0, -1730447.9, -125.23171, 0.0025932111, -0.017891139, -1665445.8, 56630.348 
9.754077e+2, 1.3427389e+2, -1571220.1, -1635816.0, -858.56714, -0.001092129, -0.03495101, -1571208.8, 52905.195 
9.7540003e+2, 1.4426996e+2, -1483416.1, -1554938.0, -486.5177, 0.00095493265, -0.007697057, -1483412.9, 42739.527 
9.753924e+2, 1.5426505e+2, -1387649.6, -1458456.6, -375.17285, 0.0007950935, -0.021309976, -1387647.6, 40552.836 
9.753848e+2, 1.6425961e+2, -1300476.1, -1379258.8, -582.26184, 0.0004794076, -0.026347706, -1300471.8, 29782.006 
9.753771e+2, 1.7425366e+2, -1205066.9, -1282574.8, -654.27814, -0.000046387835, -0.021383213, -1205061.4, 27250.61 
9.7536933e+2, 1.842471e+2, -1118010.1, -1203312.8, -758.09515, -0.00035366236, -0.018843131, -1118003.4, 16373.013 
9.7536165e+2, 1.9423987e+2, -1022244.6, -1106398.9, -709.34686, -0.0003824873, -0.02210306, -1022238.7, 14208.495 
9.7535396e+2, 2.0423205e+2, -935097.9, -1027354.5, -718.7409, -0.00046286182, -0.02258029, -935092.3, 3431.435 
9.7534627e+2, 2.1422367e+2, -839192.25, -930341.25, -792.57416, -0.00061293895, -0.021308308, -839185.4, 1420.6868 
9.753385e+2, 2.2421466e+2, -751820.0, -850643.25, -943.0048, -0.0010912976, -0.020210678, -751811.0, -9116.798 
9.7533077e+2, 2.3420508e+2, -656349.44, -753765.9, -731.3821, -0.0019977605, -0.021709684, -656343.94, -11555.777 
9.75323e+2, 2.4419485e+2, -569622.9, -675499.06, -489.21454, -0.0019115581, -0.021595223, -569620.6, -22732.27 
9.7531533e+2, 2.54184e+2, -473406.88, -578321.8, -687.8382, -0.00048778564, -0.021470277, -473402.38, -24407.684 
9.7530764e+2, 2.6417255e+2, -385855.88, -498520.8, -846.6835, -0.00095382996, -0.020864408, -385849.5, -34742.637 
9.752999e+2, 2.7416053e+2, -290381.7, -401515.3, -628.2377, -0.0039336677, -0.022243634, -290378.13, -37153.414 
9.752921e+2, 2.8414777e+2, -205111.4, -326171.1, -374.56274, -0.004415781, -0.021744942, -205110.25, -49760.59 
9.7528446e+2, 2.9413432e+2, -108984.01, -229010.6, -547.54126, -0.0014650836, -0.021182962, -108981.51, -51499.695 
9.7527677e+2, 3.0412412e+2, -15282.683, -83505.59, -569.733, -0.0011690948, -0.020316366, -15277.925, -15277.925 
9.75269e+2, 3.1411737e+2, -17505.38, -83723.984, -306.64822, -0.0042811884, -0.021980263, -17503.96, -17503.96 
9.854205e+2, 1.2428546e+2, -1665347.1, -1730050.4, 448.14685, 0.0024043315, -0.016576922, -1665344.0, 56656.457 
9.854126e+2, 1.3428158e+2, -1570593.0, -1635687.1, -154.45815, -0.0009268025, -0.03636909, -1570592.6, 53445.965 
9.854048e+2, 1.4427765e+2, -1482591.8, -1554600.9, 186.1065, 0.001194847, -0.0068994625, -1482591.3, 43485.73 
9.85397e+2, 1.5427274e+2, -1387662.6, -1458517.0, 98.12024, 0.00073834887, -0.020946288, -1387662.5, 40462.695 
9.853892e+2, 1.6426729e+2, -1300747.0, -1379383.9, -150.03618, 0.00032127035, -0.026284441, -1300746.6, 29431.904 
9.8538136e+2, 1.7426135e+2, -1204893.5, -1282483.9, -93.70264, -0.00007177255, -0.021402264, -1204893.4, 27343.37 
9.853735e+2, 1.8425478e+2, -1117525.1, -1203009.8, -113.139984, -0.00029568715, -0.018751454, -1117525.0, 16776.176 
9.853656e+2, 1.9424756e+2, -1021722.2, -1106078.5, -98.41766, -0.00032145207, -0.021622717, -1021722.06, 14649.763 
9.853577e+2, 2.0423976e+2, -934829.3, -1027165.4, -97.93912, -0.0004385828, -0.022081463, -934829.25, 3619.0889 
9.8534983e+2, 2.1423136e+2, -839555.25, -930462.0, 23.995476, -0.00070338725, -0.021302698, -839555.25, 975.39105 
9.8534197e+2, 2.2422236e+2, -752143.8, -850745.6, -102.20113, -0.0011876234, -0.020302223, -752143.75, -9524.973 
9.853341e+2, 2.3421279e+2, -655718.3, -753408.4, -290.5723, -0.0019771736, -0.021308025, -655717.5, -11004.833 
9.853262e+2, 2.4420257e+2, -568951.3, -675155.1, -189.1393, -0.0018513323, -0.02118937, -568951.0, -22138.209 
9.8531836e+2, 2.541917e+2, -473895.22, -578544.25, 14.710688, -0.00048955134, -0.021763194, -473895.22, -24976.031 
9.853105e+2, 2.6418027e+2, -386495.34, -498697.66, -3.9055145, -0.0009797764, -0.021114647, -386495.34, -35464.05 
9.8530257e+2, 2.7416828e+2, -289962.13, -401174.34, -162.86594, -0.0039431006, -0.021399118, -289961.9, -36812.965 
9.852947e+2, 2.8415552e+2, -204473.7, -325707.9, -12.576072, -0.004395346, -0.020868253, -204473.7, -49199.97 
9.852869e+2, 2.9414207e+2, -109325.21, -229023.22, 267.0748, -0.0013889379, -0.02172206, -109324.62, -51918.73 
9.8527896e+2, 3.0413187e+2, -15952.201, -83948.18, 310.384, -0.0011118082, -0.020916471, -15950.784, -15950.784 
9.852711e+2, 3.1412512e+2, -17206.2, -83728.06, -33.921284, -0.0043625995, -0.020749418, -17206.182, -17206.182 
9.954256e+2, 1.2429336e+2, -1664983.1, -1729305.4, -17.007645, 0.0010979347, -0.012919899, -1664983.1, 56939.996 
9.9541754e+2, 1.342894e+2, -1570635.3, -1635711.6, -611.1504, 0.00013251224, -0.039474074, -1570629.5, 53332.355 
9.954096e+2, 1.4428547e+2, -1482841.3, -1555039.4, -484.78268, 0.0027276967, -0.008486326, -1482838.0, 43162.242 
9.954016e+2, 1.5428056e+2, -1387889.1, -1458962.3, -576.09314, 0.0002913141, -0.019243727, -1387884.4, 40164.02 
9.9539363e+2, 1.6427511e+2, -1300645.0, -1379177.0, -659.67926, -0.0007270581, -0.02399673, -1300639.5, 29462.346 
9.9538565e+2, 1.7426917e+2, -1204785.6, -1282238.5, -592.8495, 0.00012916914, -0.022108145, -1204781.1, 27379.057 
9.953776e+2, 1.842626e+2, -1117532.8, -1202981.1, -640.1811, 0.0002975747, -0.019911448, -1117528.0, 16696.514 
9.9536955e+2, 1.9425541e+2, -1021754.4, -1106078.3, -626.2338, -0.00045107686, -0.019852968, -1021749.7, 14545.1455 
9.9536157e+2, 2.0424764e+2, -934659.75, -1026762.75, -762.44525, -0.0009765669, -0.019817173, -934653.44, 3717.7563 
9.953535e+2, 2.1423924e+2, -839335.9, -930009.94, -657.8242, -0.0012086034, -0.02186485, -839331.06, 1122.3357 
9.953455e+2, 2.2423024e+2, -752431.7, -851346.6, -523.366, -0.0011603876, -0.021625798, -752428.9, -9887.259 
9.953375e+2, 2.3422062e+2, -656095.75, -754125.06, -678.2921, -0.0007702325, -0.020571046, -656091.0, -11455.2 
9.953294e+2, 2.442104e+2, -568673.2, -674507.5, -898.46124, -0.0012373036, -0.019864371, -568665.56, -21929.633 
9.953213e+2, 2.541996e+2, -473514.34, -577757.1, -729.96027, -0.0028288772, -0.021897798, -473509.25, -24667.281 
9.953133e+2, 2.6418817e+2, -386692.28, -499122.2, -431.25943, -0.0029661772, -0.021356212, -386690.63, -35736.71 
9.953053e+2, 2.7417615e+2, -290259.72, -401735.66, -551.6094, -0.0010836177, -0.019884912, -290257.0, -37185.21 
9.9529725e+2, 2.8416342e+2, -204063.44, -324791.84, -713.15717, -0.0010190626, -0.01926919, -204059.22, -48862.73 
9.952892e+2, 2.9415e+2, -108810.59, -227961.16, -476.63666, -0.0034578978, -0.022322755, -108808.69, -51480.582 
9.952811e+2, 3.041398e+2, -16487.533, -85080.18, -152.72746, -0.004252822, -0.021917632, -16487.191, -16487.191 
9.952732e+2, 3.14133e+2, -17897.385, -85097.15, -447.7604, -0.0025496965, -0.019651983, -17894.4, -17894.4 
1.00543074e+3, 1.2430141e+2, -1663802.4, -1728463.4, 617.02124, 0.0012345352, -0.012527281, -1663796.5, 58047.7 
1.0054225e+3, 1.3429742e+2, -1570947.0, -1636261.8, -199.21712, 0.00012343537, -0.040385984, -1570946.4, 52937.05 
1.00541435e+3, 1.442935e+2, -1483150.4, -1555158.9, -64.0844, 0.002690387, -0.006951094, -1483150.3, 42771.402 
1.00540616e+3, 1.5428858e+2, -1387387.8, -1458651.6, 87.289024, 0.00036427367, -0.018965667, -1387387.6, 40582.324 
1.005398e+3, 1.6428313e+2, -1299883.9, -1378764.3, 105.61907, -0.0006364136, -0.024178242, -1299883.8, 30139.62 
1.0053899e+3, 1.7427717e+2, -1204425.1, -1282027.3, 79.81192, 0.00009839803, -0.021714043, -1204425.1, 27656.535 
1.0053817e+3, 1.8427064e+2, -1117542.8, -1202946.3, -29.795355, 0.00023075717, -0.019463193, -1117542.8, 16603.113 
1.0053735e+3, 1.9426344e+2, -1022100.44, -1106211.0, -4.8340693, -0.00047570243, -0.020018218, -1022100.44, 14115.856 
1.0053653e+3, 2.0425566e+2, -934791.25, -1026761.9, -171.85617, -0.000950513, -0.020019293, -934790.94, 3501.648 
1.0053571e+3, 2.1424727e+2, -838556.1, -929565.56, -234.35394, -0.0011391491, -0.021324543, -838555.5, 1819.2034 
1.0053489e+3, 2.2423828e+2, -751730.75, -851031.8, -93.86648, -0.0011030382, -0.020978399, -751730.7, -9267.772 
1.00534074e+3, 2.3422866e+2, -656672.1, -754442.5, 49.396996, -0.00080031087, -0.020664414, -656672.06, -12114.905 
1.00533254e+3, 2.4421844e+2, -569291.25, -674647.25, -85.25159, -0.0013435821, -0.020016303, -569291.2, -22633.928 
1.00532435e+3, 2.5420764e+2, -472801.13, -577236.56, -172.54466, -0.0030074401, -0.021168206, -472800.8, -24037.791 
1.0053161e+3, 2.6419622e+2, -385906.97, -498672.1, 53.1996, -0.0030497944, -0.020587709, -385906.94, -35032.066 
1.00530796e+3, 2.741842e+2, -290956.75, -402018.16, 218.40654, -0.0008482642, -0.020210866, -290956.3, -37963.516 
1.0052998e+3, 2.841715e+2, -205026.06, -325221.47, 91.745255, -0.00079546706, -0.01974875, -205026.0, -49908.52 
1.0052916e+3, 2.9415804e+2, -108354.305, -227716.47, -146.60681, -0.0037071146, -0.021675553, -108354.125, -51105.156 
1.0052833e+3, 3.041479e+2, -15760.021, -84547.875, 108.347755, -0.004557247, -0.021156497, -15759.851, -15759.851 
1.0052752e+3, 3.141411e+2, -18726.373, -85303.445, 565.41895, -0.0024201886, -0.020140367, -18721.572, -18721.572 
1.0154358e+3, 1.2430961e+2, -1663859.8, -1728484.8, -133.5956, 0.0024975305, -0.014915024, -1663859.5, 57904.426 
1.0154274e+3, 1.3430557e+2, -1571426.5, -1637225.8, -929.47626, -0.0008445671, -0.0394113, -1571413.4, 52390.137 
1.01541914e+3, 1.4430167e+2, -1482941.4, -1554729.5, -542.7145, 0.0012581354, -0.002751714, -1482937.3, 42904.37 
1.0154108e+3, 1.5429674e+2, -1387154.8, -1458126.6, -377.89877, 0.00082874665, -0.019895101, -1387152.8, 40737.26 
1.0154025e+3, 1.6429129e+2, -1299959.4, -1378858.1, -499.30554, 0.00036262965, -0.026444077, -1299956.1, 29987.215 
1.01539426e+3, 1.7428537e+2, -1204516.3, -1282166.5, -528.98114, -0.00016664679, -0.020357357, -1204512.6, 27488.775 
1.0153858e+3, 1.8427882e+2, -1117531.3, -1202894.3, -645.8802, -0.00045796743, -0.017621366, -1117526.4, 16539.295 
1.0153775e+3, 1.9427161e+2, -1022068.3, -1106139.3, -621.705, -0.00044055888, -0.021865597, -1022063.7, 14072.6 
1.01536915e+3, 2.042638e+2, -934898.9, -1026972.9, -613.68414, -0.0004791065, -0.022342356, -934894.8, 3317.8813 
1.0153609e+3, 2.1425545e+2, -838706.6, -929813.44, -658.3, -0.00059816614, -0.019811317, -838701.9, 1592.7347 
1.01535246e+3, 2.2424646e+2, -751545.1, -850584.44, -798.10535, -0.0010525902, -0.018602937, -751538.7, -9155.991 
1.01534404e+3, 2.3423685e+2, -656424.0, -753926.75, -682.11725, -0.0019463518, -0.021490064, -656419.25, -11942.329 
1.0153357e+3, 2.4422663e+2, -569381.56, -674840.7, -498.41776, -0.002118805, -0.021451855, -569379.2, -22802.287 
1.0153274e+3, 2.5421587e+2, -472962.72, -577512.06, -555.6232, -0.0013057254, -0.01966862, -472959.75, -24277.164 
1.015319e+3, 2.6420447e+2, -385676.3, -498135.22, -704.7164, -0.0014864266, -0.018923206, -385671.88, -34877.54 
1.0153106e+3, 2.7419245e+2, -290642.38, -401393.47, -578.6171, -0.0029762508, -0.022166321, -290639.34, -37727.184 
1.01530224e+3, 2.8417972e+2, -205361.9, -325955.38, -299.91736, -0.0033957916, -0.022058934, -205361.16, -50324.277 
1.015294e+3, 2.9416627e+2, -108815.266, -228609.45, -483.90176, -0.0023620331, -0.01990546, -108813.31, -51644.688 
1.01528555e+3, 3.0415612e+2, -15094.251, -83096.41, -683.6879, -0.0023845877, -0.018829415, -15087.378, -15087.378 
1.0152771e+3, 3.1414938e+2, -17889.42, -83601.31, -288.33194, -0.0038481094, -0.022101417, -17888.156, -17888.156 
1.0254411e+3, 1.24317996e+2, -1663746.1, -1727951.3, 339.76474, 0.0025617173, -0.014295725, -1663744.4, 57937.348 
1.02543235e+3, 1.3431393e+2, -1571028.3, -1637348.3, -197.45906, -0.000866134, -0.040275782, -1571027.6, 52694.02 
1.0254239e+3, 1.4431003e+2, -1482176.5, -1554340.1, 284.19568, 0.001227474, -0.0014675389, -1482175.4, 43584.395 
1.0254154e+3, 1.5430509e+2, -1387045.3, -1458033.0, 233.78635, 0.00089230813, -0.019594079, -1387044.5, 40763.77 
1.025407e+3, 1.6429964e+2, -1300132.6, -1378886.5, 10.924206, 0.000461907, -0.02660718, -1300132.6, 29728.95 
1.02539845e+3, 1.7429373e+2, -1204479.8, -1282094.1, 69.01655, -0.00012420175, -0.020292537, -1204479.6, 27439.85 
1.02539e+3, 1.8428719e+2, -1117244.4, -1202734.4, 6.2474065, -0.00044546698, -0.017300332, -1117244.4, 16739.344 
1.02538146e+3, 1.9427997e+2, -1021432.1, -1105816.1, 5.509612, -0.0004490637, -0.021260908, -1021432.1, 14622.205 
1.0253729e+3, 2.0427217e+2, -934440.7, -1026750.56, 61.83172, -0.00050538435, -0.021857738, -934440.7, 3690.0762 
1.0253645e+3, 2.1426381e+2, -839113.5, -930015.5, 121.885025, -0.0006529726, -0.019912932, -839113.4, 1099.38 
1.025356e+3, 2.2425483e+2, -751882.0, -850561.8, -35.453125, -0.0011188139, -0.018692525, -751882.0, -9581.299 
1.0253474e+3, 2.3424524e+2, -655715.2, -753383.94, -39.642437, -0.0020060032, -0.020822924, -655715.2, -11320.505 
1.02533884e+3, 2.4423505e+2, -568780.56, -674588.0, 127.637085, -0.0020662085, -0.020776466, -568780.4, -22285.79 
1.0253304e+3, 2.5422424e+2, -473665.66, -577914.9, 153.47185, -0.0010134595, -0.019930894, -473665.4, -25064.975 
1.0253219e+3, 2.6421282e+2, -386356.78, -498408.03, -42.67274, -0.0013106698, -0.019291053, -386356.75, -35644.54 
1.0253132e+3, 2.7420083e+2, -289694.88, -400873.56, -164.58191, -0.003412872, -0.021529552, -289694.63, -36864.742 
1.0253048e+3, 2.8418812e+2, -204255.2, -325253.7, 117.625786, -0.0038257947, -0.021169215, -204255.08, -49300.594 
1.0252963e+3, 2.9417467e+2, -109713.945, -228869.92, 443.5275, -0.00193721, -0.019811865, -109712.29, -52626.14 
1.0252877e+3, 3.0416456e+2, -16386.16, -83803.85, 275.53363, -0.0018615419, -0.018939057, -16385.033, -16385.033 
1.0252792e+3, 3.141578e+2, -16996.47, -83275.734, -195.36584, -0.0042975657, -0.02151704, -16995.895, -16995.895 
1.03544615e+3, 1.2432656e+2, -1663207.8, -1726817.9, -192.66675, 0.0015192325, -0.011203884, -1663207.3, 58390.64 
1.03543736e+3, 1.3432243e+2, -1571041.6, -1637319.9, -720.53906, -0.00013598397, -0.042670198, -1571033.8, 52604.53 
1.0354287e+3, 1.4431854e+2, -1482373.3, -1554686.5, -363.144, 0.0023187576, -0.0026142176, -1482371.5, 43304.89 
1.0354201e+3, 1.543136e+2, -1387239.3, -1458398.9, -409.6628, 0.0005692881, -0.018220868, -1387236.9, 40487.848 
1.0354115e+3, 1.6430815e+2, -1300047.0, -1378692.6, -545.66595, -0.00026091505, -0.024962524, -1300043.3, 29734.988 
1.0354029e+3, 1.7430224e+2, -1204377.0, -1281858.8, -482.30414, 0.00013994687, -0.021334855, -1204374.0, 27462.178 
1.03539415e+3, 1.8429568e+2, -1117266.5, -1202748.4, -520.6804, 0.00010250806, -0.018261582, -1117263.4, 16636.955 
1.0353855e+3, 1.942885e+2, -1021475.4, -1105855.4, -516.90466, -0.00052578584, -0.018516494, -1021472.2, 14498.435 
1.03537686e+3, 2.0428073e+2, -934381.1, -1026583.2, -587.8652, -0.0010035771, -0.018928338, -934377.4, 3669.613 
1.03536814e+3, 2.1427232e+2, -839029.8, -929828.4, -539.71136, -0.0012560016, -0.021422561, -839026.56, 1102.6396 
1.0353595e+3, 2.2426336e+2, -751865.44, -850517.25, -505.99353, -0.0013160424, -0.020903233, -751862.8, -9645.653 
1.0353507e+3, 2.3425381e+2, -655728.25, -753360.44, -497.2771, -0.0011357137, -0.018835062, -655725.75, -11414.998 
1.0353421e+3, 2.4424362e+2, -568770.8, -674522.1, -588.74927, -0.0013186388, -0.018246017, -568767.5, -22356.938 
1.03533335e+3, 2.542328e+2, -473620.75, -577837.4, -580.83594, -0.0019899306, -0.021738859, -473617.5, -25100.744 
1.0353247e+3, 2.6422137e+2, -386515.38, -498752.9, -424.08502, -0.0023790598, -0.021427821, -386513.75, -35885.105 
1.0353161e+3, 2.7420938e+2, -289928.16, -401284.56, -508.12903, -0.002381631, -0.01858251, -289925.8, -37179.676 
1.03530735e+3, 2.8419667e+2, -203781.73, -324200.53, -721.4598, -0.0023798563, -0.017442206, -203777.42, -48906.926 
1.03529856e+3, 2.9418328e+2, -109109.32, -227658.1, -453.8265, -0.0023713522, -0.021199882, -109107.58, -52105.8 
1.0352899e+3, 3.041731e+2, -17086.402, -85316.13, -35.162716, -0.00283301, -0.021164866, -17086.385, -17086.385 
1.0352813e+3, 3.141663e+2, -17911.018, -85081.586, -434.18115, -0.003960119, -0.018593825, -17908.21, -17908.21 
1.0454513e+3, 1.2433531e+2, -1662329.4, -1725883.6, 664.0688, 0.0015896974, -0.010419185, -1662322.5, 59189.586 
1.0454424e+3, 1.3433114e+2, -1571220.1, -1637830.1, -118.6767, -0.000021080165, -0.043634016, -1571219.9, 52333.11 
1.0454335e+3, 1.4432724e+2, -1482425.3, -1554754.5, 138.41743, 0.0023785648, -0.0019146962, -1482425.0, 43166.137 
1.0454247e+3, 1.543223e+2, -1386948.9, -1458273.9, 242.86728, 0.00044717678, -0.018035967, -1386948.1, 40691.53 
1.0454159e+3, 1.6431685e+2, -1299598.1, -1378453.4, 180.03818, -0.00041670073, -0.0249288, -1299597.8, 30095.297 
1.0454071e+3, 1.7431092e+2, -1204033.5, -1281670.6, 147.98184, 0.00013276312, -0.020971246, -1204033.1, 27717.832 
1.04539834e+3, 1.843044e+2, -1117092.8, -1202628.5, 74.02258, 0.0001995023, -0.017852668, -1117092.6, 16722.428 
1.04538955e+3, 1.9429721e+2, -1021580.0, -1105871.5, 109.69009, -0.00040427194, -0.018399088, -1021579.8, 14305.564 
1.0453806e+3, 2.0428942e+2, -934394.1, -1026478.25, 26.400328, -0.00094385236, -0.018815234, -934394.1, 3567.5447 
1.0453718e+3, 2.1428105e+2, -838567.4, -929491.5, 52.82086, -0.0013988311, -0.020942517, -838567.3, 1476.4575 
1.04536295e+3, 2.2427207e+2, -751547.2, -850418.56, 88.83498, -0.0014371173, -0.020479154, -751547.1, -9415.422 
1.04535416e+3, 2.3426251e+2, -656125.4, -753621.56, 41.705883, -0.00094312057, -0.018987415, -656125.4, -11899.955 
1.0453452e+3, 2.4425234e+2, -568974.94, -674486.9, -77.27732, -0.0011548516, -0.018413601, -568974.94, -22649.686 
1.0453364e+3, 2.5424153e+2, -472725.63, -577259.25, -15.542023, -0.0023185702, -0.021199089, -472725.63, -24294.408 
1.0453275e+3, 2.642301e+2, -385788.66, -498348.75, 242.33458, -0.0026951323, -0.020758862, -385788.16, -35245.145 
1.0453187e+3, 2.742181e+2, -290937.75, -401730.97, 364.1509, -0.0020106, -0.018538944, -290936.53, -38276.027 
1.0453098e+3, 2.8420544e+2, -204767.75, -324545.4, 102.34508, -0.0020010124, -0.01759152, -204767.67, -49982.867 
1.0453009e+3, 2.9419205e+2, -107819.41, -226900.02, -109.48331, -0.00292875, -0.020924639, -107819.305, -50903.375 
1.0452921e+3, 3.041819e+2, -15771.785, -84789.47, 290.45053, -0.003422818, -0.020740809, -15770.5625, -15770.5625 
1.0452833e+3, 3.1417507e+2, -19310.178, -85889.68, 641.45374, -0.0033736913, -0.01837657, -19303.998, -19303.998 
1.0554564e+3, 1.24344245e+2, -1662247.0, -1725650.6, -5.634643, 0.0024839258, -0.011573952, -1662247.0, 59177.53 
1.0554474e+3, 1.3434002e+2, -1571759.9, -1638900.4, -767.69434, -0.00047844026, -0.043362476, -1571751.0, 51714.965 
1.0554384e+3, 1.443361e+2, -1482359.4, -1554589.9, -428.66232, 0.0015065582, 0.000356914, -1482356.9, 43147.445 
1.05542935e+3, 1.5433115e+2, -1386846.4, -1458021.4, -315.9211, 0.0004442832, -0.018849611, -1386845.0, 40707.9 
1.0554204e+3, 1.643257e+2, -1299683.4, -1378587.6, -402.75546, -0.0001568165, -0.026231945, -1299681.4, 29925.018 
1.0554114e+3, 1.7431979e+2, -1204131.3, -1281833.9, -430.2121, -0.00014295235, -0.019382486, -1204128.9, 27535.25 
1.05540246e+3, 1.8431327e+2, -1117068.8, -1202547.9, -518.56744, -0.00014677271, -0.016257659, -1117065.6, 16662.648 
1.05539344e+3, 1.9430605e+2, -1021542.0, -1105769.5, -484.47485, -0.00015317045, -0.0205534, -1021539.25, 14259.595 
1.0553844e+3, 2.0429827e+2, -934350.06, -1026365.9, -508.7298, -0.0004574051, -0.021106722, -934347.25, 3527.754 
1.0553755e+3, 2.1428995e+2, -838532.2, -929386.06, -480.93707, -0.0011749624, -0.018716361, -838529.7, 1426.9794 
1.0553665e+3, 2.2428097e+2, -751648.3, -850601.75, -547.02826, -0.0015277884, -0.017761858, -751645.25, -9600.73 
1.05535746e+3, 2.3427136e+2, -656219.7, -753817.9, -596.07477, -0.0013794627, -0.021006946, -656216.0, -12077.218 
1.0553484e+3, 2.4426118e+2, -568852.25, -674227.9, -523.49225, -0.0015420279, -0.020913057, -568849.6, -22610.975 
1.05533935e+3, 2.5425044e+2, -472624.53, -576986.06, -450.7666, -0.0021093516, -0.018591186, -472622.6, -24278.602 
1.0553304e+3, 2.6423904e+2, -385611.72, -497926.75, -546.73785, -0.0023835197, -0.017626826, -385609.03, -35153.57 
1.0553213e+3, 2.7422702e+2, -290701.1, -401275.3, -457.26614, -0.0022601914, -0.021060161, -290699.22, -38126.023 
1.0553124e+3, 2.8421432e+2, -205046.03, -325162.75, -219.77559, -0.0026030932, -0.021152375, -205045.64, -50348.03 
1.0553034e+3, 2.9420096e+2, -108220.87, -227651.56, -378.61627, -0.003630118, -0.019174872, -108219.67, -51390.902 
1.0552943e+3, 3.041908e+2, -15290.672, -83706.4, -620.06006, -0.0037102776, -0.018000437, -15285.052, -15285.052 
1.05528526e+3, 3.14184e+2, -18667.611, -84607.88, -341.95776, -0.0026293101, -0.020675939, -18665.84, -18665.84 
1.06546156e+3, 1.2435335e+2, -1661745.4, -1724951.9, 424.31155, 0.0025261224, -0.01136082, -1661742.5, 59592.79 
1.06545225e+3, 1.3434906e+2, -1571774.9, -1639512.8, -205.92297, -0.0006072151, -0.04346312, -1571774.3, 51603.18 
1.0654431e+3, 1.4434515e+2, -1481912.5, -1554282.4, 217.45935, 0.0014140533, 0.0017954434, -1481911.9, 43503.895 
1.0654341e+3, 1.543402e+2, -1386539.4, -1457735.4, 293.05392, 0.00064098014, -0.018439574, -1386538.3, 40926.094 
1.0654249e+3, 1.6433473e+2, -1299558.1, -1378533.0, 212.35962, 0.00009712627, -0.026274541, -1299557.6, 29960.121 
1.06541574e+3, 1.7432885e+2, -1203999.8, -1281788.3, 242.20282, -0.00013817856, -0.019113356, -1203998.9, 27576.557 
1.06540665e+3, 1.8432231e+2, -1116833.5, -1202351.0, 185.26901, -0.00032038122, -0.015888926, -1116833.1, 16806.42 
1.0653975e+3, 1.943151e+2, -1021228.44, -1105529.6, 222.1173, -0.00044984088, -0.020332351, -1021227.8, 14482.259 
1.0653883e+3, 2.0430733e+2, -934155.06, -1026289.6, 193.4948, -0.00056903297, -0.020947948, -934154.6, 3631.61 
1.06537916e+3, 2.14299e+2, -838549.6, -929422.25, 153.81488, -0.0007270588, -0.018539723, -838549.4, 1318.5431 
1.06537e+3, 2.2429004e+2, -751505.94, -850433.9, 107.85767, -0.0010914342, -0.0174975, -751505.8, -9550.001 
1.06536075e+3, 2.3428042e+2, -655622.44, -753424.4, 211.73927, -0.0017145305, -0.020486543, -655622.0, -11572.058 
1.0653516e+3, 2.4427025e+2, -568514.5, -674033.56, 308.07895, -0.002001041, -0.020370245, -568513.6, -22363.87 
1.0653424e+3, 2.542595e+2, -473384.25, -577328.0, 261.01602, -0.0018336711, -0.018352943, -473383.6, -25128.514 
1.06533326e+3, 2.6424813e+2, -386215.2, -498104.5, 59.03802, -0.0019799634, -0.017512474, -386215.16, -35848.633 
1.06532395e+3, 2.742361e+2, -289594.44, -400621.7, 13.182213, -0.0025397565, -0.020837512, -289594.44, -37110.324 
1.0653148e+3, 2.842234e+2, -204039.67, -324683.3, 278.04773, -0.002962715, -0.02091351, -204039.03, -49430.56 
1.0653057e+3, 2.9421005e+2, -109573.64, -228327.27, 440.96835, -0.0032537181, -0.01900655, -109572.0, -52832.344 
1.0652965e+3, 3.0419993e+2, -16717.28, -84218.805, 209.9025, -0.003273378, -0.017882278, -16716.625, -16716.625 
1.0652872e+3, 3.1419316e+2, -17328.098, -83767.05, -0.42846683, -0.0030773657, -0.020638797, -17328.098, -17328.098 
1.0754668e+3, 1.2436261e+2, -1661363.5, -1724102.0, -194.45021, 0.0017611476, -0.010023834, -1661362.9, 59881.746 
1.07545726e+3, 1.3435826e+2, -1572093.6, -1640101.9, -803.85535, -0.0005046186, -0.043858014, -1572084.1, 51203.13 
1.075448e+3, 1.4435434e+2, -1481915.8, -1554233.0, -385.28238, 0.0019131153, 0.0025636035, -1481913.6, 43411.992 
1.0754387e+3, 1.543494e+2, -1386513.0, -1457639.5, -310.43298, 0.00095181563, -0.016969603, -1386511.8, 40862.402 
1.0754295e+3, 1.6434395e+2, -1299536.3, -1378456.4, -369.6035, 0.00028380723, -0.025227308, -1299534.5, 29892.945 
1.07542e+3, 1.7433804e+2, -1203982.9, -1281713.9, -334.53775, 0.000065384374, -0.019963093, -1203981.5, 27503.865 
1.0754108e+3, 1.843315e+2, -1116795.6, -1202236.1, -392.32785, -0.00041206958, -0.016538156, -1116793.9, 16755.49 
1.07540146e+3, 1.9432436e+2, -1021185.1, -1105411.8, -358.49902, -0.001246484, -0.01805013, -1021183.6, 14435.903 
1.0753921e+3, 2.0431657e+2, -934240.3, -1026445.25, -398.3089, -0.001231125, -0.018666007, -934238.6, 3457.0842 
1.0753828e+3, 2.143082e+2, -838638.9, -929590.56, -433.21402, -0.000114834285, -0.020141156, -838636.8, 1141.0378 
1.07537344e+3, 2.2429924e+2, -751328.6, -850044.94, -416.43283, -0.00023655906, -0.019335221, -751326.8, -9461.191 
1.0753641e+3, 2.342897e+2, -655446.44, -753012.6, -314.50165, -0.0019896922, -0.017735887, -655445.44, -11486.366 
1.07535474e+3, 2.4427953e+2, -568606.1, -674191.94, -413.18405, -0.0025523328, -0.017167497, -568604.56, -22545.809 
1.0753454e+3, 2.5426874e+2, -473457.3, -577508.3, -471.18445, -0.0015342482, -0.020188028, -473455.2, -25290.541 
1.07533604e+3, 2.642573e+2, -386247.66, -498200.3, -325.39337, -0.0015289262, -0.020022113, -386246.7, -35970.44 
1.0753268e+3, 2.7424538e+2, -289682.56, -400740.03, -340.0079, -0.0028788624, -0.01818215, -289681.53, -37288.066 
1.0753174e+3, 2.842327e+2, -203818.02, -324160.13, -584.51404, -0.0031438114, -0.017318882, -203815.17, -49297.582 
1.07530795e+3, 2.9421932e+2, -109259.3, -227724.53, -468.3069, -0.0019630487, -0.020225111, -109257.445, -52608.617 
1.07529856e+3, 3.042092e+2, -16949.234, -84759.94, -77.04679, -0.0022475438, -0.02002924, -16949.146, -16949.146 
1.0752893e+3, 3.1420243e+2, -17707.057, -84451.32, -229.79881, -0.0046942704, -0.018424094, -17706.266, -17706.266 
1.08547196e+3, 1.2437205e+2, -1660738.8, -1722989.8, 433.7199, 0.0017158248, -0.009170808, -1660735.8, 60416.395 
1.0854623e+3, 1.3436766e+2, -1572283.9, -1640542.0, -109.57138, -0.00032741574, -0.04425567, -1572283.8, 50911.395 
1.0854527e+3, 1.4436375e+2, -1481886.5, -1554282.5, 334.24698, 0.0020712996, 0.0028000288, -1481885.0, 43348.645 
1.08544335e+3, 1.5435877e+2, -1386296.5, -1457580.6, 332.53464, 0.0007578495, -0.016619949, -1386294.9, 40987.234 
1.0854338e+3, 1.6435333e+2, -1299199.3, -1378184.6, 222.99782, 0.000023472932, -0.024901284, -1299198.6, 30136.938 
1.0854244e+3, 1.7434745e+2, -1203808.4, -1281512.6, 286.0338, 0.000075284166, -0.019842952, -1203807.3, 27586.025 
1.0854149e+3, 1.8434091e+2, -1116763.0, -1202238.3, 249.11937, -0.0001531673, -0.016433047, -1116762.3, 16695.0 
1.0854054e+3, 1.9433376e+2, -1021068.1, -1105384.0, 208.50603, -0.00079434324, -0.017691264, -1021067.6, 14459.805 
1.08539596e+3, 2.0432599e+2, -933981.25, -1026235.94, 170.52858, -0.0010131553, -0.01824594, -933980.94, 3622.6677 
1.0853865e+3, 2.143176e+2, -838345.4, -929354.2, 267.10315, -0.00067711907, -0.019871097, -838344.56, 1341.0918 
1.085377e+3, 2.2430865e+2, -751226.0, -849923.75, 292.13712, -0.00080203963, -0.019144028, -751225.2, -9451.754 
1.0853674e+3, 2.3429912e+2, -655777.3, -753109.1, 237.96713, -0.0015784403, -0.0175644, -655776.75, -11909.934 
1.0853579e+3, 2.4428895e+2, -568730.9, -674225.9, 109.392136, -0.0019602163, -0.017034562, -568730.8, -22764.38 
1.08534835e+3, 2.5427815e+2, -472467.78, -577005.4, 152.0842, -0.0018172873, -0.020072777, -472467.56, -24395.246 
1.0853389e+3, 2.6426676e+2, -385370.3, -497759.75, 351.525, -0.0019723251, -0.019872256, -385369.2, -35185.3 
1.0853295e+3, 2.742548e+2, -290536.84, -401138.56, 390.2169, -0.0025268735, -0.017896809, -290535.47, -38234.4 
1.08532e+3, 2.8424215e+2, -204594.14, -324335.13, 128.52937, -0.0026608338, -0.016907472, -204594.0, -50168.89 
1.0853103e+3, 2.942288e+2, -107792.87, -226800.34, 95.973755, -0.0022450609, -0.019725153, -107792.79, -51236.64 
1.0853008e+3, 3.0421865e+2, -15648.63, -84293.42, 441.46985, -0.0026695232, -0.019609226, -15645.791, -15645.791 
1.0852913e+3, 3.1421185e+2, -19253.01, -85390.164, 463.72098, -0.0043346044, -0.018264975, -19249.758, -19249.758 
1.0954772e+3, 1.24381654e+2, -1660190.6, -1721802.4, -194.65019, 0.0021488466, -0.008676544, -1660190.0, 60868.08 
1.0954673e+3, 1.3437724e+2, -1572489.1, -1640915.0, -735.6423, -0.00014689619, -0.044635832, -1572481.1, 50620.105 
1.0954577e+3, 1.443733e+2, -1482020.9, -1554510.4, -233.6337, 0.0018820467, 0.0026088639, -1482020.1, 43119.875 
1.095448e+3, 1.5436831e+2, -1386438.0, -1457803.9, -222.17253, 0.00009135164, -0.01720532, -1386437.3, 40751.43 
1.0954384e+3, 1.6436286e+2, -1299146.5, -1378017.3, -392.55246, -0.00067838724, -0.025157886, -1299144.5, 30097.564 
1.0954287e+3, 1.7435701e+2, -1203722.8, -1281310.0, -336.50473, -0.00011426368, -0.01888037, -1203721.4, 27578.246 
1.0954191e+3, 1.8435048e+2, -1116846.4, -1202396.8, -308.31302, 0.00035120576, -0.015667621, -1116845.3, 16518.225 
1.0954094e+3, 1.943433e+2, -1021173.3, -1105570.9, -338.23227, 0.00068022055, -0.018972253, -1021172.0, 14262.04 
1.0953998e+3, 2.0433553e+2, -933839.44, -1025908.3, -401.00568, -0.000100447745, -0.01939558, -933837.7, 3672.4495 
1.0953902e+3, 2.143272e+2, -838184.25, -928989.3, -315.18723, -0.0022799482, -0.017978363, -838183.1, 1408.5166 
1.0953805e+3, 2.2431825e+2, -751319.1, -850098.3, -345.9984, -0.0026241487, -0.017195685, -751317.94, -9638.594 
1.0953709e+3, 2.3430867e+2, -655872.4, -753314.94, -397.62936, -0.0006029991, -0.01963559, -655870.75, -12097.528 
1.0953612e+3, 2.442985e+2, -568636.6, -674032.06, -334.96512, -0.0004132468, -0.019562684, -568635.56, -22762.662 
1.0953514e+3, 2.5428775e+2, -472399.94, -576803.1, -278.58398, -0.0026478171, -0.018241204, -472399.2, -24420.953 
1.0953418e+3, 2.6427636e+2, -385341.16, -497643.63, -441.39746, -0.0032312882, -0.017383827, -385339.44, -35249.777 
1.09533206e+3, 2.742644e+2, -290460.28, -401007.3, -429.25388, -0.0016018924, -0.019698499, -290458.63, -38251.477 
1.0953224e+3, 2.8425175e+2, -204567.6, -324313.6, -214.14432, -0.0016424628, -0.019286873, -204567.22, -50236.016 
1.09531276e+3, 2.942384e+2, -107836.32, -226814.67, -209.17433, -0.003963095, -0.017695291, -107835.95, -51374.13 
1.095303e+3, 3.0422828e+2, -15641.915, -84213.12, -501.46936, -0.0044051097, -0.01693533, -15638.248, -15638.248 
1.0952933e+3, 3.1422147e+2, -19160.867, -85268.664, -537.3506, -0.00230437, -0.020045964, -19156.498, -19156.498 
1.1054823e+3, 1.2439146e+2, -1659564.0, -1720932.5, 566.3543, 0.0022288512, -0.008628334, -1659558.9, 61403.14 
1.1054723e+3, 1.3438699e+2, -1572608.1, -1641658.1, -206.52356, -0.0002197418, -0.0445258, -1572607.5, 50398.23 
1.1054625e+3, 1.4438301e+2, -1481737.8, -1554263.9, 253.73276, 0.0018350182, 0.002852723, -1481736.9, 43307.918 
1.1054526e+3, 1.5437806e+2, -1386430.8, -1457645.1, 444.47845, 0.00022092302, -0.01715476, -1386428.0, 40665.31 
1.1054429e+3, 1.6437262e+2, -1299237.6, -1378074.8, 365.26443, -0.00047268436, -0.025077276, -1299235.9, 29910.719 
1.1054331e+3, 1.7436674e+2, -1203407.0, -1281180.6, 313.5078, 0.000025211557, -0.018502522, -1203405.8, 27798.367 
1.10542335e+3, 1.8436024e+2, -1116327.5, -1202025.3, 323.784, 0.00029872486, -0.015221795, -1116326.3, 16941.736 
1.1054134e+3, 1.9435304e+2, -1020919.75, -1105319.3, 448.91238, 0.00024702027, -0.01873109, -1020917.4, 14421.055 
1.1054037e+3, 2.0434527e+2, -933837.5, -1025920.75, 409.52548, -0.00038114368, -0.01926748, -933835.7, 3578.8274 
1.1053938e+3, 2.1433696e+2, -838196.8, -929023.75, 305.9879, -0.0017699527, -0.017765585, -838195.8, 1300.2566 
1.105384e+3, 2.2432801e+2, -751094.44, -849946.7, 229.37415, -0.0020586126, -0.01692084, -751093.94, -9510.208 
1.1053742e+3, 2.3431844e+2, -655215.6, -752942.4, 306.18457, -0.00090729445, -0.019411076, -655214.7, -11537.119 
1.1053644e+3, 2.4430828e+2, -568218.6, -673755.6, 403.45166, -0.0008712249, -0.019338936, -568217.06, -22439.885 
1.1053545e+3, 2.5429752e+2, -473109.34, -577076.06, 401.38028, -0.002327505, -0.017892063, -473107.78, -25225.32 
1.1053446e+3, 2.6428616e+2, -385980.84, -497828.4, 211.19127, -0.0028395543, -0.01698572, -385980.44, -35986.652 
1.1053347e+3, 2.742742e+2, -289509.56, -400417.47, 243.41815, -0.0020637221, -0.01935681, -289509.03, -37397.863 
1.1053249e+3, 2.8426152e+2, -203666.45, -323854.1, 473.651, -0.002188488, -0.019112172, -203664.6, -49429.418 
1.1053151e+3, 2.942482e+2, -108984.37, -227352.48, 482.5495, -0.0035925345, -0.017799145, -108982.4, -52616.586 
1.1053052e+3, 3.042381e+2, -16808.977, -84768.69, 168.32655, -0.003915938, -0.016879285, -16808.56, -16808.56 
1.1052953e+3, 3.1423128e+2, -17582.912, -84504.914, 83.40775, -0.0027031798, -0.019240325, -17582.809, -17582.809 
1.1154875e+3, 1.2440144e+2, -1659456.6, -1720622.5, -60.498123, 0.0019169288, -0.008879322, -1659456.5, 61407.57 
1.1154774e+3, 1.343969e+2, -1573310.4, -1643027.6, -804.58026, -0.0005527258, -0.043989412, -1573301.1, 49607.637 
1.11546725e+3, 1.4439288e+2, -1481555.9, -1553840.1, -371.5445, 0.0018402743, 0.0034849155, -1481554.0, 43394.08 
1.1154574e+3, 1.5438797e+2, -1386178.6, -1457106.3, -195.84802, 0.000964402, -0.016546112, -1386178.1, 40818.11 
1.11544736e+3, 1.6438253e+2, -1299340.4, -1378271.5, -159.75368, 0.00043837502, -0.024683349, -1299340.0, 29709.395 
1.1154375e+3, 1.7437665e+2, -1203555.9, -1281433.1, -194.91212, 0.00040944794, -0.018605575, -1203555.4, 27551.758 
1.1154275e+3, 1.8437013e+2, -1116163.4, -1201624.9, -293.52008, -0.00028558713, -0.015021875, -1116162.4, 17008.611 
1.1154175e+3, 1.94363e+2, -1020717.9, -1104865.3, -186.35074, -0.0018416519, -0.017193628, -1020717.44, 14523.485 
1.1154075e+3, 2.0435524e+2, -934008.94, -1026254.3, -185.84744, -0.0017075946, -0.018038373, -934008.56, 3308.4075 
1.1153976e+3, 2.1434686e+2, -838395.7, -929419.4, -274.17395, 0.00053441245, -0.018994408, -838394.9, 1004.13306 
1.1153876e+3, 2.243379e+2, -750986.8, -849702.06, -290.52795, 0.000520988, -0.018078107, -750985.94, -9499.203 
1.11537755e+3, 2.3432839e+2, -655095.9, -752645.06, -216.94502, -0.002350957, -0.01717859, -655095.4, -11515.292 
1.11536756e+3, 2.4431823e+2, -568233.56, -673751.7, -319.67133, -0.0030916636, -0.016700884, -568232.56, -22553.033 
1.1153576e+3, 2.5430748e+2, -473106.56, -577088.7, -330.8655, -0.0010342634, -0.018837202, -473105.5, -25320.332 
1.1153475e+3, 2.642961e+2, -385873.5, -497631.53, -209.14505, -0.0010443717, -0.018405134, -385873.13, -35976.633 
1.1153375e+3, 2.7428418e+2, -289435.84, -400220.6, -155.1858, -0.0037859858, -0.017117068, -289435.63, -37422.23 
1.1153274e+3, 2.842715e+2, -203668.61, -323816.7, -355.3064, -0.0041491673, -0.016680129, -203667.56, -49530.29 
1.1153174e+3, 2.9425815e+2, -108942.984, -227307.23, -375.98505, -0.0014109884, -0.019785466, -108941.79, -52673.492 
1.11530736e+3, 3.0424803e+2, -16810.012, -84814.63, -134.42493, -0.001522416, -0.019096112, -16809.746, -16809.746 
1.1152974e+3, 3.1424126e+2, -17675.342, -84602.53, -170.63805, -0.0053819423, -0.016037297, -17674.906, -17674.906 
1.1254927e+3, 1.244116e+2, -1658945.1, -1719602.0, 441.52032, 0.0020084826, -0.009178252, -1658941.9, 61822.742 
1.1254824e+3, 1.3440701e+2, -1573605.0, -1643690.3, 5.5187707, -0.00064178795, -0.043180928, -1573605.0, 49204.605 
1.1254722e+3, 1.4440297e+2, -1481377.3, -1553811.4, 504.0743, 0.0017601367, 0.0038235295, -1481373.8, 43475.492 
1.12546206e+3, 1.5439805e+2, -1385606.4, -1456861.1, 411.81763, 0.0010508525, -0.016177708, -1385604.0, 41293.39 
1.1254519e+3, 1.6439262e+2, -1298745.3, -1377897.3, 361.67334, 0.0004843043, -0.024381464, -1298743.5, 30207.02 
1.1254418e+3, 1.7438674e+2, -1203547.9, -1281335.9, 484.46103, 0.00010853734, -0.018489333, -1203544.9, 27463.426 
1.12543166e+3, 1.8438023e+2, -1116432.9, -1201801.6, 389.74402, -0.00049642334, -0.014964734, -1116431.0, 16641.016 
1.1254215e+3, 1.9437307e+2, -1020664.94, -1104894.5, 253.79987, -0.0014299956, -0.016988084, -1020664.1, 14477.936 
1.1254114e+3, 2.0436533e+2, -933616.7, -1025908.7, 240.99571, -0.0012631177, -0.017700333, -933616.06, 3602.0164 
1.12540126e+3, 2.1435697e+2, -837946.56, -929034.56, 430.53406, 0.00025968906, -0.018623596, -837944.5, 1355.4432 
1.1253911e+3, 2.2434802e+2, -750835.0, -849630.56, 498.90408, 0.00011620426, -0.017763045, -750832.44, -9444.845 
1.12538084e+3, 2.343385e+2, -655424.8, -752817.4, 419.9856, -0.0021951774, -0.016870258, -655423.0, -11942.029 
1.1253707e+3, 2.4432835e+2, -568323.9, -673676.6, 260.99875, -0.0028271482, -0.01635466, -568323.2, -22742.822 
1.1253605e+3, 2.5431758e+2, -472220.7, -576530.4, 335.1165, -0.0012057542, -0.018532395, -472219.6, -24533.691 
1.1253504e+3, 2.6430625e+2, -385094.8, -497286.75, 470.88916, -0.0012020594, -0.01819734, -385092.84, -35295.65 
1.12534024e+3, 2.7429432e+2, -289934.8, -400504.88, 401.39984, -0.0033422948, -0.016993962, -289933.34, -38019.21 
1.12532996e+3, 2.8428167e+2, -204077.6, -323866.4, 119.364, -0.0036985269, -0.016461844, -204077.48, -50039.508 
1.1253197e+3, 2.942683e+2, -107725.04, -226552.6, 177.61205, -0.0017072253, -0.019252997, -107724.77, -51555.94 
1.12530954e+3, 3.0425817e+2, -15778.046, -84380.016, 503.35422, -0.001965886, -0.01868531, -15774.353, -15774.353 
1.1252993e+3, 3.142514e+2, -18840.111, -85251.52, 434.89835, -0.0051525156, -0.016270623, -18837.264, -18837.264 
1.1354979e+3, 1.24421895e+2, -1658244.1, -1718075.5, -169.95467, 0.0022934105, -0.009341768, -1658243.6, 62420.11 
1.1354874e+3, 1.3441733e+2, -1573703.4, -1643834.3, -608.7601, -0.0005824057, -0.04213063, -1573698.1, 49010.473 
1.13547705e+3, 1.4441325e+2, -1481661.5, -1554340.4, -51.50652, 0.0015567814, 0.0039325124, -1481661.5, 43086.98 
1.1354668e+3, 1.5440829e+2, -1385923.1, -1457425.5, -125.55234, 0.0005329573, -0.016004499, -1385923.0, 40874.113 
1.1354564e+3, 1.6440286e+2, -1298617.8, -1377557.4, -295.0628, -0.00026719438, -0.024136206, -1298616.6, 30233.715 
1.1354461e+3, 1.74397e+2, -1203359.6, -1280921.3, -189.79178, -0.0008013404, -0.018176531, -1203359.1, 27548.51 
1.1354358e+3, 1.8439049e+2, -1116665.0, -1202271.6, -158.67062, -0.00043321768, -0.015012478, -1116664.6, 16306.846 
1.1354256e+3, 1.943833e+2, -1020941.7, -1105430.5, -270.358, 0.001069746, -0.017901385, -1020940.8, 14101.169 
1.1354153e+3, 2.0437555e+2, -933329.25, -1025268.8, -312.58228, 0.0006346796, -0.018096603, -933328.2, 3789.6936 
1.1354049e+3, 2.1436727e+2, -837622.06, -928312.7, -141.56987, -0.00225058, -0.016885586, -837621.8, 1577.2745 
1.1353945e+3, 2.2435834e+2, -750969.6, -849867.06, -154.88652, -0.0028748375, -0.016178792, -750969.44, -9682.833 
1.1353843e+3, 2.3434877e+2, -655579.2, -753122.6, -227.04268, -0.00067746994, -0.01822867, -655578.6, -12198.225 
1.1353739e+3, 2.443386e+2, -568195.4, -673403.5, -219.3873, -0.00044683638, -0.017999675, -568194.94, -22715.049 
1.1353635e+3, 2.543279e+2, -472086.88, -576212.6, -140.9259, -0.0027002317, -0.017128907, -472086.7, -24501.78 
1.1353533e+3, 2.6431656e+2, -385234.75, -497542.7, -253.3262, -0.003094694, -0.016548488, -385234.16, -35538.055 
1.1353429e+3, 2.7430457e+2, -290070.2, -400794.66, -329.7801, -0.001026491, -0.018726781, -290069.2, -38255.61 
1.1353325e+3, 2.8429192e+2, -203913.63, -323538.72, -318.31918, -0.0011863383, -0.018172134, -203912.78, -49975.336 
1.13532215e+3, 2.9427862e+2, -107573.14, -226188.44, -241.7343, -0.004244859, -0.016474199, -107572.65, -51505.027 
1.1353118e+3, 3.0426854e+2, -15862.711, -84514.36, -321.83807, -0.004957798, -0.015948659, -15861.203, -15861.203 
1.1353014e+3, 3.1426167e+2, -18913.453, -85423.07, -417.55994, -0.0024421485, -0.019609412, -18910.832, -18910.832 
1.1455031e+3, 1.2443239e+2, -1657702.8, -1717145.9, 511.97055, 0.002012637, -0.008883987, -1657698.4, 62862.523 
1.1454924e+3, 1.3442779e+2, -1573798.1, -1644501.4, -224.49426, -0.0004400756, -0.041308194, -1573797.4, 48808.793 
1.1454819e+3, 1.4442366e+2, -1481403.1, -1554112.8, 272.876, 0.001776783, 0.0029646577, -1481402.1, 43244.445 
1.1454714e+3, 1.5441872e+2, -1386107.5, -1457371.9, 516.7163, 0.00027239506, -0.015827172, -1386103.8, 40591.137 
1.1454609e+3, 1.644133e+2, -1298879.4, -1377702.9, 471.0479, -0.00048466897, -0.023462325, -1298876.5, 29871.506 
1.1454505e+3, 1.7440744e+2, -1202972.4, -1280761.4, 368.22818, -0.0003656819, -0.017828759, -1202970.6, 27834.852 
1.14544004e+3, 1.8440093e+2, -1115939.3, -1201745.9, 424.99506, 0.000040652943, -0.014852404, -1115937.1, 16932.17 
1.1454295e+3, 1.9439375e+2, -1020549.56, -1105057.3, 656.92126, 0.0007881903, -0.017735008, -1020544.5, 14395.071 
1.145419e+3, 2.0438601e+2, -933348.8, -1025365.44, 639.00995, 0.00017512697, -0.017911755, -933344.4, 3671.065 
1.1454086e+3, 2.1437772e+2, -837769.44, -928482.7, 412.998, -0.0021728887, -0.01664223, -837767.56, 1329.1664 
1.1453981e+3, 2.243688e+2, -750823.0, -849602.75, 286.0223, -0.0026134548, -0.01595313, -750822.2, -9638.013 
1.1453876e+3, 2.3435923e+2, -655026.56, -752648.94, 475.07663, -0.0006462148, -0.018164732, -655024.25, -11746.423 
1.1453771e+3, 2.4434909e+2, -567887.94, -673325.6, 570.7348, -0.00049467344, -0.01796902, -567884.8, -22507.598 
1.1453666e+3, 2.5433835e+2, -472425.0, -576460.75, 447.51413, -0.002684497, -0.016895022, -472423.06, -24940.756 
1.1453561e+3, 2.6432702e+2, -385420.13, -497465.6, 273.7108, -0.0031408474, -0.016169803, -385419.47, -35825.977 
1.1453456e+3, 2.7431506e+2, -289433.88, -400301.8, 440.26953, -0.0012613653, -0.018302083, -289432.13, -37721.332 
1.1453351e+3, 2.8430244e+2, -203364.05, -323235.0, 573.2141, -0.0013648128, -0.017792303, -203361.31, -49526.746 
1.1453245e+3, 2.9428914e+2, -108057.89, -226391.27, 493.3791, -0.0040534236, -0.016217874, -108055.836, -52091.1 
1.145314e+3, 3.0427903e+2, -16407.791, -84803.04, 257.5732, -0.0046984716, -0.015715761, -16406.822, -16406.822 
1.1453033e+3, 3.142722e+2, -18143.445, -85081.49, 229.62196, -0.0024619885, -0.019306676, -18142.656, -18142.656 
1.1555083e+3, 1.2444307e+2, -1657615.5, -1716878.3, -60.17299, 0.0011781366, -0.0076834597, -1657615.5, 62840.836 
1.1554974e+3, 1.3443835e+2, -1574534.4, -1645914.3, -765.3616, -0.000289511, -0.04066415, -1574526.1, 47976.38 
1.15548685e+3, 1.4443417e+2, -1481129.3, -1553468.0, -374.0023, 0.0022664345, 0.0011339379, -1481127.4, 43416.094 
1.15547605e+3, 1.5442932e+2, -1385738.5, -1456586.9, -153.16492, 0.000177035, -0.015622938, -1385738.3, 40852.82 
1.1554655e+3, 1.6442391e+2, -1299060.9, -1378060.9, -39.94977, -0.0002968054, -0.022413336, -1299060.8, 29583.135 
1.1554548e+3, 1.7441803e+2, -1203221.8, -1281205.4, -117.92325, 0.0011774648, -0.01745164, -1203221.5, 27480.219 
1.1554442e+3, 1.8441151e+2, -1115603.1, -1200967.6, -192.0721, 0.00080027984, -0.01450312, -1115602.6, 17162.818 
1.1554336e+3, 1.9440442e+2, -1020159.8, -1104194.9, 13.174158, -0.0018844146, -0.01665726, -1020159.8, 14675.253 
1.155423e+3, 2.0439668e+2, -933745.9, -1026145.75, 22.269785, -0.0023089673, -0.017227847, -933745.8, 3165.0618 
1.15541235e+3, 2.1438831e+2, -838210.25, -929360.0, -180.50516, 0.000101084064, -0.017670982, -838209.9, 783.0839 
1.1554016e+3, 2.2437938e+2, -750520.44, -848949.7, -249.36919, 0.00039071424, -0.016878726, -750519.8, -9439.314 
1.155391e+3, 2.3436989e+2, -654682.94, -751900.94, -72.282036, -0.0019391516, -0.016856456, -654682.9, -11509.446 
1.1553804e+3, 2.4435976e+2, -568107.3, -673748.75, -78.682434, -0.0026684918, -0.01645954, -568107.25, -22834.59 
1.15536965e+3, 2.54349e+2, -472674.22, -576960.56, -191.80182, -0.001381511, -0.017665312, -472673.88, -25295.549 
1.155359e+3, 2.6433766e+2, -385123.28, -496842.9, -247.3646, -0.0016171582, -0.016881306, -385122.72, -35633.24 
1.1553483e+3, 2.7432576e+2, -289110.13, -399603.38, -83.957924, -0.0037836556, -0.015973164, -289110.06, -37504.016 
1.15533754e+3, 2.8431314e+2, -203471.86, -323437.94, -125.69266, -0.0039538564, -0.015568058, -203471.73, -49742.12 
1.1553269e+3, 2.942998e+2, -108180.914, -226651.58, -207.89131, -0.001492742, -0.01817398, -108180.55, -52320.19 
1.15531616e+3, 3.0428967e+2, -16364.297, -84726.45, -254.77449, -0.0016365963, -0.017652087, -16363.348, -16363.348 
1.1553054e+3, 3.1428286e+2, -18116.885, -84981.9, -262.6471, -0.005016364, -0.015742404, -18115.854, -18115.854 
1.1655134e+3, 1.2445388e+2, -1656949.3, -1715802.0, 407.51193, 0.0016113614, -0.00809985, -1656946.5, 63403.902 
1.16550244e+3, 1.3444914e+2, -1575021.6, -1646625.4, 50.10478, -0.00041117854, -0.03900241, -1575021.6, 47375.207 
1.1654916e+3, 1.4444493e+2, -1481221.8, -1553498.9, 512.7398, 0.0021211503, 0.0003318552, -1481218.1, 43220.023 
1.1654808e+3, 1.5444008e+2, -1385166.9, -1456266.9, 399.11264, 0.00047760332, -0.015593228, -1385164.6, 41320.918 
1.16546996e+3, 1.6443469e+2, -1298381.4, -1377569.3, 428.45853, -0.00002077278, -0.022033256, -1298379.0, 30159.336 
1.1654592e+3, 1.744288e+2, -1203266.8, -1281059.1, 634.0145, 0.0008157858, -0.01734783, -1203261.6, 27334.459 
1.1654485e+3, 1.8442231e+2, -1116024.8, -1201216.3, 552.8689, 0.00035945178, -0.0144145265, -1116021.1, 16638.594 
1.1654376e+3, 1.9441521e+2, -1020215.94, -1104276.3, 329.7077, -0.001729725, -0.01628099, -1020214.6, 14514.728 
1.16542675e+3, 2.0440747e+2, -933411.56, -1025808.56, 317.64432, -0.0019509777, -0.01685904, -933410.44, 3394.6987 
1.165416e+3, 2.1439911e+2, -837762.5, -928958.5, 617.25885, 0.00015953579, -0.017586824, -837758.3, 1128.756 
1.16540514e+3, 2.2439018e+2, -750252.44, -848878.4, 672.40985, 0.00028468843, -0.016761413, -750247.9, -9273.299 
1.1653944e+3, 2.343807e+2, -654621.5, -751939.94, 459.6193, -0.0020545786, -0.016361807, -654619.3, -11551.802 
1.1653835e+3, 2.4437058e+2, -567903.8, -673477.1, 345.27423, -0.002738777, -0.01592158, -567902.7, -22735.979 
1.16537265e+3, 2.543598e+2, -472241.03, -576564.7, 570.76166, -0.0012992346, -0.017477708, -472237.9, -24965.674 
1.16536185e+3, 2.6434848e+2, -384860.72, -496726.53, 597.4299, -0.0014519028, -0.016876448, -384857.53, -35474.207 
1.165351e+3, 2.7433658e+2, -289217.97, -399675.84, 418.962, -0.003667058, -0.015927726, -289216.38, -37716.49 
1.1653401e+3, 2.8432396e+2, -203465.22, -323274.53, 229.92696, -0.003939737, -0.01545813, -203464.78, -49841.367 
1.1653292e+3, 2.9431063e+2, -107671.21, -226228.0, 374.21857, -0.0016303019, -0.017991934, -107670.03, -51916.027 
1.16531834e+3, 3.0430055e+2, -15958.998, -84666.43, 453.82278, -0.0017277864, -0.01737703, -15956.001, -15956.001 
1.1653074e+3, 3.1429374e+2, -18113.533, -85128.34, 291.3814, -0.0048378566, -0.015243429, -18112.266, -18112.266 
1.1755187e+3, 1.2446484e+2, -1656279.4, -1714301.3, -246.99951, 0.0028868117, -0.009471935, -1656278.3, 63964.758 
1.1755076e+3, 1.3446012e+2, -1575048.6, -1646630.9, -604.8188, -0.0008078786, -0.03648159, -1575043.5, 47245.59 
1.1754964e+3, 1.4445587e+2, -1481503.9, -1554039.8, 4.044758, 0.001422371, 0.00038162124, -1481503.9, 42826.938 
1.1754856e+3, 1.5445098e+2, -1385507.3, -1456861.5, -85.168945, 0.0010541618, -0.015707016, -1385507.1, 40871.605 
1.1754746e+3, 1.6444561e+2, -1298117.4, -1376920.6, -242.75229, 0.0002466899, -0.022184672, -1298116.6, 30314.898 
1.17546365e+3, 1.7443977e+2, -1202924.0, -1280315.3, -63.73983, -0.001178831, -0.017457273, -1202923.9, 27564.717 
1.1754526e+3, 1.8443327e+2, -1116412.5, -1202001.6, 7.0885067, -0.0011262884, -0.014532577, -1116412.5, 16139.785 
1.1754417e+3, 1.944261e+2, -1020665.3, -1105157.1, -182.9006, 0.0007895597, -0.016497722, -1020664.9, 13957.661 
1.17543064e+3, 2.0441838e+2, -932929.25, -1024754.5, -236.33922, 0.00076216063, -0.016740996, -932928.7, 3769.611 
1.1754197e+3, 2.1441011e+2, -837228.2, -927796.44, 38.371124, -0.0017063386, -0.0165522, -837228.2, 1551.1246 
1.17540866e+3, 2.244012e+2, -750631.25, -849605.25, 67.500626, -0.0025041387, -0.0157416, -750631.2, -9764.609 
1.1753977e+3, 2.3439164e+2, -655049.5, -752774.8, -129.74283, -0.0011724741, -0.016556753, -655049.3, -12089.106 
1.1753867e+3, 2.4438152e+2, -567548.25, -672706.94, -232.26831, -0.0010285537, -0.016210914, -567547.75, -22488.223 
1.1753757e+3, 2.5437084e+2, -471829.97, -575690.2, -20.718721, -0.0023263826, -0.016454097, -471829.94, -24665.68 
1.1753648e+3, 2.643595e+2, -385142.97, -497304.25, -29.49632, -0.002502851, -0.01623371, -385142.94, -35867.68 
1.17535375e+3, 2.7434754e+2, -289542.16, -400348.1, -193.71106, -0.0012700539, -0.017861567, -289541.8, -38149.273 
1.17534265e+3, 2.8433493e+2, -203184.61, -322695.47, -335.3355, -0.0017001925, -0.017171448, -203183.67, -49667.56 
1.17533155e+3, 2.943217e+2, -107358.83, -225564.73, -192.32481, -0.0041941716, -0.015923463, -107358.516, -51712.63 
1.1753205e+3, 3.0431157e+2, -16171.158, -85089.91, -159.80959, -0.0046516503, -0.015159195, -16170.787, -16170.787 
1.1753094e+3, 3.1430468e+2, -18375.3, -85631.02, -311.1565, -0.0023853832, -0.01742162, -18373.861, -18373.861 
1.1855238e+3, 1.24475986e+2, -1656073.3, -1713556.6, 552.09393, 0.0025928658, -0.010592426, -1656068.0, 64065.836 
1.18551254e+3, 1.3447128e+2, -1574891.3, -1647006.0, -63.65162, -0.00065482233, -0.034291655, -1574891.1, 47288.664 
1.1855014e+3, 1.4446698e+2, -1481038.6, -1553762.8, 464.62656, 0.0016689964, -0.0005741626, -1481035.6, 43186.426 
1.1854903e+3, 1.5446211e+2, -1385857.4, -1456957.8, 660.22284, 0.0008705157, -0.015516993, -1385851.1, 40418.62 
1.1854791e+3, 1.6445673e+2, -1298595.5, -1377147.0, 561.66736, 0.000022838121, -0.021488054, -1298591.5, 29730.97 
1.185468e+3, 1.744509e+2, -1202567.4, -1280138.1, 401.58002, -0.0010088324, -0.017081557, -1202565.3, 27814.375 
1.1854568e+3, 1.844444e+2, -1115680.3, -1201513.1, 479.45645, -0.00087022636, -0.014390133, -1115677.5, 16765.77 
1.1854457e+3, 1.9443724e+2, -1020303.2, -1104839.0, 760.6531, 0.00075910933, -0.016457813, -1020296.4, 14217.092 
1.1854345e+3, 2.0442954e+2, -932850.94, -1024671.6, 751.92584, 0.00059652334, -0.016597418, -932844.75, 3744.2942 
1.1854234e+3, 2.1442126e+2, -837179.94, -927735.8, 514.8555, -0.0018273307, -0.01609327, -837177.0, 1493.0249 
1.18541226e+3, 2.2441237e+2, -750560.5, -849461.1, 442.80646, -0.002544367, -0.015296491, -750558.5, -9801.23 
1.18540116e+3, 2.3440282e+2, -654960.3, -752618.1, 688.1792, -0.0010942258, -0.016474849, -654955.44, -12104.587 
1.18539e+3, 2.4439268e+2, -567457.1, -672628.3, 685.69507, -0.00092752324, -0.01620991, -567452.6, -22502.588 
1.1853788e+3, 2.54382e+2, -471650.28, -575573.7, 508.2673, -0.0023462016, -0.01617173, -471647.8, -24593.016 
1.18536755e+3, 2.643707e+2, -384839.66, -497084.9, 407.8317, -0.0025881384, -0.01578273, -384838.16, -35672.434 
1.18535645e+3, 2.7435872e+2, -289141.38, -400074.75, 598.85425, -0.0013343564, -0.017407808, -289138.16, -37855.21 
1.1853452e+3, 2.8434613e+2, -202820.38, -322490.16, 543.19116, -0.0016985607, -0.01680359, -202817.92, -49411.457 
1.18533395e+3, 2.943329e+2, -107120.34, -225418.11, 389.8614, -0.004058387, -0.015790228, -107119.06, -51582.83 
1.1853228e+3, 3.0432278e+2, -16092.574, -85046.88, 315.88565, -0.0045473496, -0.015141345, -16091.127, -16091.127 
1.1853115e+3, 3.143159e+2, -18447.371, -85659.445, 400.64966, -0.0025687318, -0.017213034, -18444.984, -18444.984 
1.195529e+3, 1.2448732e+2, -1655993.1, -1713323.5, 52.504253, 0.0009515973, -0.011036817, -1655993.1, 64029.58 
1.19551755e+3, 1.3448258e+2, -1575495.5, -1648130.9, -532.98486, -0.00012033605, -0.03237337, -1575491.6, 46577.59 
1.1955062e+3, 1.4447822e+2, -1480833.4, -1553236.8, -238.14955, 0.0025999823, -0.002330652, -1480832.6, 43279.465 
1.1954949e+3, 1.5447341e+2, -1385554.5, -1456320.3, -62.745552, 0.000007705818, -0.01506858, -1385554.4, 40604.723 
1.19548365e+3, 1.6446805e+2, -1298864.0, -1377703.4, 81.03403, -0.0006419948, -0.020089703, -1298863.9, 29347.78 
1.1954724e+3, 1.7446215e+2, -1202914.5, -1280781.3, -50.08729, 0.00095380284, -0.01631083, -1202914.5, 27354.83 
1.1954611e+3, 1.8445568e+2, -1115269.3, -1200570.1, -134.35806, 0.0007857693, -0.014024773, -1115269.0, 17063.865 
1.1954497e+3, 1.9444858e+2, -1019825.4, -1103790.8, 117.769104, -0.0014670156, -0.016189676, -1019825.25, 14577.097 
1.1954385e+3, 2.0444088e+2, -933264.44, -1025479.5, 155.78084, -0.0020357636, -0.016409757, -933264.2, 3213.6724 
1.1954271e+3, 2.1443255e+2, -837651.3, -928655.7, -57.951855, -0.0004848399, -0.016111422, -837651.25, 908.2006 
1.1954159e+3, 2.2442365e+2, -750163.06, -848596.75, -143.45981, -0.0002873181, -0.015319823, -750162.9, -9516.152 
1.1954045e+3, 2.3441418e+2, -654503.25, -751647.2, 85.38834, -0.0017612036, -0.016140439, -654503.2, -11763.588 
1.1953932e+3, 2.4440405e+2, -567754.44, -673222.56, 109.99309, -0.0022536432, -0.01593297, -567754.4, -22915.703 
1.1953818e+3, 2.5439334e+2, -472005.97, -576273.3, -50.499977, -0.0015247033, -0.01649393, -472005.94, -25062.025 
1.1953705e+3, 2.6438197e+2, -384530.94, -496413.3, -178.65054, -0.0018743295, -0.015458906, -384530.66, -35475.81 
1.19535916e+3, 2.743701e+2, -288782.53, -399306.06, 0.38918975, -0.0036015995, -0.014860752, -288782.53, -37611.215 
1.19534776e+3, 2.8435752e+2, -203044.34, -322940.47, -69.550934, -0.0037047165, -0.014612472, -203044.31, -49749.566 
1.1953364e+3, 2.9434422e+2, -107379.31, -225940.89, -206.97926, -0.0015983947, -0.017324656, -107378.95, -51953.734 
1.19532496e+3, 3.043341e+2, -15898.607, -84641.48, -326.75217, -0.0018665813, -0.016992109, -15897.055, -15897.055 
1.1953135e+3, 3.1432727e+2, -18238.738, -85202.01, -248.06454, -0.0052204304, -0.01492985, -18237.82, -18237.82 
1.2055342e+3, 1.24498814e+2, -1655379.1, -1712588.5, 518.2936, 0.0012914997, -0.011336248, -1655374.5, 64535.652 
1.2055226e+3, 1.3449405e+2, -1576098.3, -1648873.8, 167.56535, -0.00034611428, -0.029883124, -1576097.9, 45858.848 
1.2055111e+3, 1.4448963e+2, -1480988.5, -1553196.6, 484.29877, 0.0023268003, -0.0043224664, -1480985.3, 43014.84 
1.2054996e+3, 1.5448487e+2, -1384715.5, -1455772.4, 451.22787, 0.0000974265, -0.015075921, -1384712.6, 41334.27 
1.20548815e+3, 1.6447951e+2, -1297973.4, -1377213.6, 587.4085, -0.00043954168, -0.019235395, -1297969.0, 30130.29 
1.2054767e+3, 1.7447361e+2, -1202971.1, -1280757.9, 756.3114, 0.0009712077, -0.015990958, -1202963.8, 27193.213 
1.20546535e+3, 1.8446715e+2, -1115646.3, -1200680.5, 681.9128, 0.00069845404, -0.013907509, -1115640.9, 16579.686 
1.2054539e+3, 1.9446006e+2, -1019771.94, -1103690.4, 502.0579, -0.0016128557, -0.015803957, -1019768.94, 14520.88 
1.2054424e+3, 2.0445237e+2, -933028.8, -1025299.6, 474.38684, -0.0021394275, -0.01602288, -933026.4, 3338.9006 
1.2054309e+3, 2.1444404e+2, -837518.5, -928524.56, 708.7176, -0.0003879798, -0.016100714, -837513.0, 933.85535 
1.20541945e+3, 2.2443515e+2, -749980.75, -848441.56, 728.99524, -0.00012873746, -0.015395131, -749975.4, -9441.2705 
1.205408e+3, 2.3442568e+2, -654096.94, -751388.06, 552.3998, -0.00170305, -0.015899759, -654093.8, -11466.908 
1.20539635e+3, 2.4441557e+2, -567347.6, -672935.2, 472.16507, -0.0022823801, -0.015585998, -567345.5, -22619.646 
1.2053849e+3, 2.5440484e+2, -471908.78, -576134.6, 678.39014, -0.001655961, -0.016317578, -471904.38, -25073.305 
1.2053734e+3, 2.6439354e+2, -384571.38, -496371.16, 649.16315, -0.0019695356, -0.015379559, -384567.63, -35625.68 
1.2053618e+3, 2.7438167e+2, -288683.53, -399190.0, 503.14612, -0.0035079631, -0.0147659145, -288681.25, -37622.9 
1.2053503e+3, 2.8436905e+2, -202843.77, -322719.1, 366.53006, -0.0036293666, -0.014393157, -202842.64, -49660.965 
1.20533876e+3, 2.9435578e+2, -107184.914, -225710.83, 548.8833, -0.0018031268, -0.016812395, -107182.37, -51870.363 
1.20532714e+3, 3.0434564e+2, -15748.824, -84696.836, 460.42358, -0.0020180622, -0.016487835, -15745.75, -15745.75 
1.2053155e+3, 3.1433883e+2, -17792.563, -85126.62, 225.96205, -0.004929368, -0.014935236, -17791.805, -17791.805 
1.2155394e+3, 1.2451045e+2, -1655052.9, -1711798.3, -145.84625, 0.003007089, -0.010840702, -1655052.5, 64743.594 
1.2155276e+3, 1.345057e+2, -1576204.5, -1649057.4, -479.8281, -0.0012424532, -0.026935069, -1576201.4, 45641.207 
1.21551596e+3, 1.4450122e+2, -1481105.8, -1553399.1, 18.284952, 0.0010388353, -0.0065176636, -1481105.8, 42780.793 
1.2155044e+3, 1.5449645e+2, -1384901.1, -1456013.4, 4.70016, 0.0009202221, -0.015446566, -1384901.1, 41032.184 
1.2154928e+3, 1.6449112e+2, -1297775.3, -1376662.6, -118.644165, 0.000404352, -0.018807873, -1297775.0, 30210.428 
1.2154811e+3, 1.7448528e+2, -1202689.5, -1280133.5, 29.495035, -0.00067419244, -0.016037459, -1202689.5, 27353.346 
1.2154695e+3, 1.8447879e+2, -1115961.6, -1201318.6, 150.33199, -0.00089059095, -0.013980535, -1115961.4, 16144.907 
1.2154579e+3, 1.9447169e+2, -1020151.6, -1104414.5, -0.12589583, -0.00003331089, -0.0153227225, -1020151.6, 14024.463 
1.2154463e+3, 2.0446397e+2, -932664.94, -1024485.4, -115.94919, -0.00015847172, -0.015463185, -932664.75, 3586.7156 
1.2154346e+3, 2.1445572e+2, -837085.3, -927603.75, 95.02676, -0.0013925593, -0.016057175, -837085.2, 1247.292 
1.215423e+3, 2.2444682e+2, -750274.5, -849025.94, 183.22566, -0.0017910567, -0.015490458, -750274.2, -9854.612 
1.21541135e+3, 2.3443732e+2, -654461.0, -752082.7, 25.995218, -0.001052082, -0.015710877, -654461.0, -11948.168 
1.21539965e+3, 2.4442722e+2, -567027.25, -672221.1, -160.95662, -0.0012397731, -0.015149675, -567027.0, -22415.215 
1.21538796e+3, 2.5441653e+2, -471521.63, -575323.56, 24.201332, -0.002663404, -0.015701357, -471521.63, -24805.217 
1.2153763e+3, 2.6440525e+2, -384777.84, -496809.6, 76.2298, -0.0028022667, -0.0154943345, -384777.78, -35950.58 
1.2153646e+3, 2.7439332e+2, -288939.5, -399708.28, -50.510784, -0.0013993074, -0.01676882, -288939.47, -37995.336 
1.21535294e+3, 2.8438073e+2, -202512.9, -322016.25, -234.48146, -0.0018079476, -0.015844282, -202512.44, -49445.055 
1.2153412e+3, 2.9436752e+2, -106817.266, -224930.86, -59.911594, -0.0043916586, -0.014505203, -106817.234, -51620.383 
1.2153293e+3, 3.043574e+2, -16074.615, -85374.8, -120.91131, -0.0047099167, -0.013932024, -16074.404, -16074.404 
1.2153176e+3, 3.143505e+2, -18158.604, -85881.95, -338.13818, -0.002216791, -0.016914245, -18156.916, -18156.916 
1.2255446e+3, 1.2452225e+2, -1654997.3, -1711319.8, 451.5588, 0.0029785736, -0.01163852, -1654993.6, 64686.895 
1.22553274e+3, 1.3451754e+2, -1575725.8, -1648974.0, 114.56114, -0.0010882973, -0.023836302, -1575725.5, 46001.266 
1.2255209e+3, 1.4451298e+2, -1480587.5, -1553111.0, 551.1388, 0.0012250264, -0.008332364, -1480583.4, 43187.99 
1.22550905e+3, 1.5450823e+2, -1385541.4, -1456276.1, 644.5321, 0.0009146422, -0.01516613, -1385535.5, 40282.27 
1.22549735e+3, 1.6450293e+2, -1298477.3, -1376854.4, 566.1755, 0.0002713354, -0.01774246, -1298473.3, 29396.598 
1.2254855e+3, 1.7449708e+2, -1202259.3, -1279770.3, 518.9606, -0.00088493305, -0.015788373, -1202255.8, 27671.271 
1.22547366e+3, 1.8449062e+2, -1115253.0, -1200910.1, 636.76953, -0.0009868233, -0.014114402, -1115248.3, 16742.266 
1.2254619e+3, 1.944835e+2, -1020069.06, -1104317.0, 834.5204, 0.0002310913, -0.015322927, -1020060.8, 13999.43 
1.22545004e+3, 2.0447582e+2, -932706.0, -1024419.6, 821.74774, 0.0001565099, -0.015258436, -932698.6, 3436.9353 
1.22543834e+3, 2.1446756e+2, -836650.3, -927304.56, 674.38324, -0.0014399604, -0.015502221, -836645.3, 1571.1674 
1.2254265e+3, 2.2445868e+2, -749838.5, -848724.06, 647.9223, -0.0020316269, -0.014898014, -749834.25, -9530.762 
1.22541465e+3, 2.3444918e+2, -654613.75, -752070.06, 848.98785, -0.001267656, -0.015493141, -654606.4, -12209.704 
1.22540295e+3, 2.4443907e+2, -567248.44, -672302.1, 770.2304, -0.0013157027, -0.014998898, -567242.75, -22747.184 
1.22539096e+3, 2.5442842e+2, -471095.34, -575090.94, 600.2373, -0.0024692193, -0.015245164, -471091.88, -24491.701 
1.22537926e+3, 2.644171e+2, -384111.78, -496390.4, 534.27765, -0.0025985106, -0.015010655, -384109.22, -35398.33 
1.22536734e+3, 2.7440518e+2, -288632.53, -399455.72, 696.5462, -0.0015019657, -0.016578875, -288628.13, -37800.367 
1.2253555e+3, 2.843926e+2, -202362.38, -321850.06, 556.8508, -0.0018892401, -0.015828919, -202359.77, -49408.83 
1.2253435e+3, 2.9437938e+2, -106537.05, -224699.31, 416.46075, -0.0040696817, -0.014509477, -106535.586, -51455.26 
1.22533165e+3, 3.0436933e+2, -15875.674, -85369.734, 322.6125, -0.0044492576, -0.013769891, -15874.176, -15874.176 
1.2253197e+3, 3.1436238e+2, -17985.428, -85880.805, 401.18912, -0.0025805149, -0.016438471, -17983.057, -17983.057 
1.2355498e+3, 1.2453418e+2, -1654835.8, -1710943.6, 10.512828, 0.0014393567, -0.012747073, -1654835.8, 64727.8 
1.23553775e+3, 1.345295e+2, -1575924.6, -1649236.6, -304.77045, -0.00015082801, -0.020614214, -1575923.4, 45686.145 
1.23552576e+3, 1.445249e+2, -1480560.0, -1552913.4, -196.33385, 0.0025351138, -0.009830787, -1480559.5, 43095.1 
1.23551376e+3, 1.545202e+2, -1385415.6, -1456005.1, -117.78413, 0.0001707439, -0.014357778, -1385415.4, 40285.24 
1.23550184e+3, 1.6451491e+2, -1298535.1, -1376984.0, 140.56671, -0.00071729027, -0.016145227, -1298534.9, 29217.691 
1.23548985e+3, 1.7450903e+2, -1202399.0, -1279957.6, 114.30638, 0.00007816696, -0.015296208, -1202398.8, 27411.191 
1.2354779e+3, 1.8450257e+2, -1114990.8, -1200256.5, -31.95556, 0.000112369526, -0.014290823, -1114990.8, 16882.566 
1.2354659e+3, 1.9449551e+2, -1019730.7, -1103592.3, 140.47743, -0.000661486, -0.015701367, -1019730.44, 14212.1 
1.235454e+3, 2.0448785e+2, -932944.75, -1024904.3, 318.5477, -0.0009843982, -0.015312398, -932943.6, 3074.1165 
1.235442e+3, 2.1447955e+2, -836964.2, -927881.44, 197.5135, -0.0007147643, -0.014497936, -836963.75, 1135.2037 
1.23543e+3, 2.2447069e+2, -749532.6, -848025.6, -29.705524, -0.0011154967, -0.013706772, -749532.6, -9346.739 
1.2354181e+3, 2.3446122e+2, -654226.06, -751276.3, 143.65558, -0.0022784877, -0.015238621, -654225.9, -11947.228 
1.2354061e+3, 2.4445112e+2, -567500.94, -672845.75, 271.4775, -0.002397444, -0.015067332, -567500.25, -23122.734 
1.2353942e+3, 2.5444043e+2, -471424.1, -575729.56, 128.24858, -0.0012847529, -0.014888565, -471423.94, -24941.457 
1.2353822e+3, 2.6442912e+2, -383845.9, -495785.56, -109.09878, -0.0015497052, -0.013964487, -383845.8, -35252.633 
1.2353701e+3, 2.7441728e+2, -288311.6, -398768.72, 33.2223, -0.0035834226, -0.014479918, -288311.6, -37602.13 
1.23535804e+3, 2.844047e+2, -202554.31, -322248.7, -34.094326, -0.003677841, -0.014533068, -202554.31, -49721.715 
1.235346e+3, 2.9439142e+2, -106762.875, -225162.48, -153.78433, -0.0012506372, -0.016483193, -106762.68, -51800.094 
1.2353338e+3, 3.043813e+2, -15682.198, -84973.09, -256.65482, -0.0017036652, -0.015609413, -15681.247, -15681.247 
1.23532176e+3, 3.1437448e+2, -17774.766, -85423.734, -180.55841, -0.0058373646, -0.013725791, -17774.283, -17774.283 
1.2455549e+3, 1.245463e+2, -1654333.9, -1710465.4, 648.66833, 0.0013907049, -0.013870935, -1654326.4, 65118.523 
1.2455427e+3, 1.3454165e+2, -1576581.4, -1649596.3, 414.83, -0.0000549855, -0.017517202, -1576579.1, 44911.363 
1.2455306e+3, 1.44537e+2, -1481008.0, -1553018.3, 554.7019, 0.0026783836, -0.012131234, -1481003.8, 42532.17 
1.2455184e+3, 1.5453233e+2, -1384477.4, -1455432.6, 573.6321, 0.00016368112, -0.014094312, -1384472.8, 41108.91 
1.2455063e+3, 1.6452707e+2, -1297520.8, -1376449.9, 784.6259, -0.000706613, -0.014924294, -1297513.0, 30120.395 
1.24549426e+3, 1.745212e+2, -1202755.0, -1280095.5, 843.5628, 0.00033769614, -0.0151360165, -1202745.9, 26945.063 
1.2454822e+3, 1.8451473e+2, -1115576.0, -1200433.5, 712.21625, 0.0003053517, -0.0143939145, -1115570.0, 16184.185 
1.24547e+3, 1.9450767e+2, -1019277.75, -1103261.4, 626.51697, -0.00091886945, -0.015112215, -1019273.06, 14550.213 
1.2454579e+3, 2.0450002e+2, -932343.8, -1024506.8, 722.2683, -0.0013727178, -0.014658478, -932338.2, 3560.2422 
1.2454458e+3, 2.1449172e+2, -837286.94, -927937.8, 912.06, -0.00082873105, -0.014519227, -837277.75, 701.8079 
1.2454337e+3, 2.2448286e+2, -749931.44, -848187.25, 786.3577, -0.0009953133, -0.013866145, -749925.2, -9858.687 
1.24542154e+3, 2.344734e+2, -653546.6, -750919.1, 625.97, -0.0020260087, -0.014879392, -653542.56, -11383.435 
1.2454094e+3, 2.4446334e+2, -566587.56, -672282.9, 661.04016, -0.002233425, -0.014640808, -566583.44, -22325.516 
1.2453972e+3, 2.5445262e+2, -471461.53, -575619.9, 871.3196, -0.0014687952, -0.014913285, -471454.25, -25091.396 
1.245385e+3, 2.6444134e+2, -384220.88, -495949.06, 734.2949, -0.0018001116, -0.013975397, -384216.06, -35742.574 
1.2453728e+3, 2.7442947e+2, -288088.88, -398643.16, 562.5179, -0.0035535581, -0.013948663, -288086.03, -37496.313 
1.2453606e+3, 2.8441694e+2, -202019.77, -321906.7, 419.6525, -0.0036240795, -0.013866839, -202018.3, -49305.52 
1.2453484e+3, 2.9440364e+2, -106332.66, -224860.2, 564.14264, -0.0015150025, -0.016198227, -106329.98, -51487.26 
1.24533616e+3, 3.0439356e+2, -15473.628, -84950.17, 484.84564, -0.00192371, -0.015455512, -15470.245, -15470.245 
1.2453239e+3, 3.143867e+2, -17643.188, -85441.72, 283.6135, -0.005491172, -0.013335924, -17642.002, -17642.002 
1.2555602e+3, 1.2455858e+2, -1654314.6, -1710280.0, -56.934757, 0.0023564312, -0.013999557, -1654314.5, 65009.96 
1.2555477e+3, 1.3455397e+2, -1576553.0, -1649519.9, -272.026, -0.00069517427, -0.014580987, -1576552.0, 44817.707 
1.2555355e+3, 1.4454927e+2, -1480991.0, -1552956.4, 154.03633, 0.0018229069, -0.015109084, -1480990.8, 42425.023 
1.2555233e+3, 1.5454465e+2, -1384557.5, -1455431.1, 185.26407, 0.000711283, -0.014276088, -1384557.0, 40904.15 
1.255511e+3, 1.6453938e+2, -1297524.9, -1376296.9, 16.506893, 0.00006572984, -0.014014202, -1297524.9, 29987.75 
1.2554987e+3, 1.745335e+2, -1202655.1, -1279881.8, 58.038948, -0.000039546798, -0.0152414525, -1202655.1, 26915.068 
1.2554863e+3, 1.8452705e+2, -1115710.8, -1200734.6, 293.53494, -0.0003169297, -0.014409168, -1115709.8, 15923.753 
1.2554741e+3, 1.9452001e+2, -1019493.56, -1103622.1, 232.5954, -0.0006725113, -0.013716406, -1019492.94, 14209.708 
1.2554617e+3, 2.0451234e+2, -932074.75, -1023864.1, 13.634362, -0.0011677574, -0.0134157315, -932074.75, 3702.9438 
1.2554495e+3, 2.145041e+2, -836925.8, -927214.44, 173.79584, -0.0016927858, -0.0153958965, -836925.5, 933.06366 
1.2554373e+3, 2.2449522e+2, -750157.9, -848692.8, 355.07343, -0.0015903314, -0.015138037, -750156.6, -10211.223 
1.2554249e+3, 2.3448575e+2, -653867.25, -751524.75, 229.87404, -0.00074098934, -0.014412164, -653866.7, -11828.364 
1.2554127e+3, 2.4447568e+2, -566260.06, -671534.94, -45.24015, -0.0010619765, -0.013776337, -566260.0, -22122.98 
1.2554003e+3, 2.54465e+2, -471051.1, -574774.8, 128.51328, -0.0028839696, -0.015248227, -471050.9, -24809.45 
1.255388e+3, 2.6445374e+2, -384437.44, -496427.94, 209.58963, -0.0031987312, -0.014865445, -384437.03, -36085.023 
1.2553756e+3, 2.7444184e+2, -288369.66, -399206.94, 67.422226, -0.0017397901, -0.01471875, -288369.63, -37900.99 
1.2553632e+3, 2.8442928e+2, -201767.84, -321353.56, -181.09885, -0.002053042, -0.013666436, -201767.56, -49175.926 
1.2553509e+3, 2.9441607e+2, -106043.69, -224239.88, -45.725002, -0.004530016, -0.013898755, -106043.664, -51322.707 
1.2553383e+3, 3.04406e+2, -15722.848, -85487.47, -131.72816, -0.004796515, -0.013523571, -15722.599, -15722.599 
1.255326e+3, 3.1439903e+2, -17908.604, -86040.48, -324.46133, -0.0021434408, -0.01500302, -17907.059, -17907.059 
1.2655653e+3, 1.24571025e+2, -1654877.8, -1710526.3, 499.7624, 0.0028248578, -0.015316748, -1654873.3, 64329.406 
1.2655528e+3, 1.3456647e+2, -1575725.1, -1648950.9, 355.11356, -0.0009188339, -0.010881435, -1575723.5, 45523.76 
1.2655404e+3, 1.4456172e+2, -1480236.0, -1552522.8, 692.9155, 0.0014326782, -0.017106513, -1480229.4, 43064.332 
1.2655279e+3, 1.5455711e+2, -1385359.5, -1455770.0, 725.2927, 0.00083807705, -0.014526881, -1385352.0, 39986.87 
1.2655155e+3, 1.6455188e+2, -1298329.9, -1376541.5, 648.14954, 0.00026903913, -0.013287091, -1298324.5, 29065.81 
1.265503e+3, 1.7454602e+2, -1201754.1, -1279294.0, 682.1686, -0.0002858078, -0.014391184, -1201748.1, 27699.47 
1.2654907e+3, 1.8453957e+2, -1114622.1, -1200143.6, 912.63116, -0.0006084686, -0.013801172, -1114612.4, 16898.535 
1.2654781e+3, 1.9453251e+2, -1019889.56, -1103759.1, 1032.4326, -0.00055223145, -0.013791251, -1019876.9, 13703.191 
1.2654658e+3, 2.0452486e+2, -932660.9, -1024106.8, 874.6555, -0.0008552338, -0.013536777, -932652.5, 3002.5366 
1.2654532e+3, 2.1451661e+2, -836127.06, -926786.9, 746.82904, -0.0014559032, -0.014813468, -836120.94, 1614.8944 
1.2654407e+3, 2.2450775e+2, -749148.9, -848068.7, 850.935, -0.001543193, -0.014444532, -749141.56, -9318.945 
1.2654284e+3, 2.3449829e+2, -654240.8, -751568.44, 1074.2827, -0.0010099665, -0.014306501, -654228.94, -12313.498 
1.2654158e+3, 2.4448822e+2, -566928.4, -671837.44, 876.44293, -0.0013193666, -0.013739266, -566921.0, -22906.932 
1.2654035e+3, 2.5447756e+2, -470491.47, -574486.5, 676.5521, -0.0027764963, -0.014654622, -470487.06, -24368.61 
1.2653908e+3, 2.644663e+2, -383439.47, -495825.03, 665.018, -0.0030011458, -0.014274006, -383435.53, -35206.594 
1.2653784e+3, 2.744544e+2, -288023.44, -398908.4, 851.0511, -0.0017450663, -0.014792053, -288016.9, -37671.418 
1.2653658e+3, 2.8444186e+2, -201752.48, -321318.38, 676.7889, -0.002094307, -0.013809626, -201748.64, -49280.207 
1.2653533e+3, 2.9442868e+2, -105804.3, -224094.34, 530.9221, -0.0044396464, -0.013403336, -105801.914, -51204.24 
1.2653407e+3, 3.044186e+2, -15460.11, -85413.734, 375.6203, -0.0047359616, -0.012968069, -15458.094, -15458.094 
1.2653281e+3, 3.144116e+2, -17664.59, -85989.625, 434.38583, -0.002178136, -0.015172258, -17661.828, -17661.828 
1.2755705e+3, 1.245836e+2, -1654920.8, -1710617.5, 149.12495, 0.0027723478, -0.016325545, -1654920.4, 64159.086 
1.2755579e+3, 1.3457914e+2, -1575666.6, -1648668.5, 23.174273, -0.0008714103, -0.006546407, -1575666.6, 45456.617 
1.2755454e+3, 1.4457434e+2, -1480291.1, -1552468.5, -93.80012, 0.0013437181, -0.018314542, -1480291.0, 42879.125 
1.2755325e+3, 1.5456975e+2, -1385318.4, -1455688.5, -75.12025, 0.00055270485, -0.014836452, -1385318.4, 39896.832 
1.27552e+3, 1.6456454e+2, -1298228.9, -1376349.3, 309.74997, -0.000056828212, -0.0126818, -1298227.6, 29038.719 
1.2755075e+3, 1.745587e+2, -1201764.1, -1279158.8, 359.69266, -0.0004527782, -0.012745082, -1201762.4, 27561.1 
1.2754948e+3, 1.8455225e+2, -1114524.0, -1199782.5, 124.2146, -0.00067075156, -0.012671918, -1114523.8, 16862.83 
1.2754822e+3, 1.945452e+2, -1019676.94, -1103335.9, 217.44122, -0.0005908341, -0.015070291, -1019676.4, 13779.343 
1.2754697e+3, 2.0453756e+2, -932845.2, -1024538.0, 489.5962, -0.0005144577, -0.014754058, -932842.56, 2688.132 
1.275457e+3, 2.1452929e+2, -836409.06, -927298.2, 397.70978, -0.00033558774, -0.012993185, -836407.3, 1204.2421 
1.2754445e+3, 2.2452046e+2, -748827.1, -847322.8, 100.288124, -0.0009989805, -0.012099575, -748827.06, -9128.843 
1.2754318e+3, 2.3451102e+2, -653819.1, -750725.25, 285.6453, -0.0026416446, -0.014504375, -653818.3, -12027.586 
1.275419e+3, 2.4450096e+2, -567184.1, -672414.6, 439.69135, -0.0028327764, -0.014383071, -567182.3, -23292.99 
1.2754065e+3, 2.544903e+2, -470839.44, -575166.25, 274.70074, -0.0014152562, -0.013249651, -470838.72, -24844.766 
1.275394e+3, 2.64479e+2, -383130.38, -495125.34, -0.22573027, -0.0014921023, -0.01237776, -383130.38, -35025.99 
1.2753813e+3, 2.7446717e+2, -287649.78, -398119.9, 159.02748, -0.0033933676, -0.014242698, -287649.56, -37429.035 
1.2753685e+3, 2.844546e+2, -201950.34, -321737.94, 100.4648, -0.0035938744, -0.014225377, -201950.25, -49606.855 
1.2753557e+3, 2.9444137e+2, -106043.6, -224581.22, -22.780962, -0.0016917832, -0.014400171, -106043.59, -51570.57 
1.275343e+3, 3.0443132e+2, -15263.755, -85025.41, -242.58382, -0.0022222851, -0.013477871, -15262.911, -15262.911 
1.2753302e+3, 3.1442437e+2, -17442.086, -85573.02, -181.69316, -0.0053845686, -0.013869485, -17441.602, -17441.602 
1.2855756e+3, 1.2459634e+2, -1654438.3, -1710589.0, 714.49927, 0.0022235985, -0.01699311, -1654429.1, 64525.363 
1.2855628e+3, 1.3459194e+2, -1576246.4, -1648603.4, 636.0318, -0.0004129177, -0.003548813, -1576240.9, 44756.86 
1.2855501e+3, 1.4458713e+2, -1480905.6, -1552614.9, 577.1964, 0.0018765173, -0.020803086, -1480901.0, 42143.883 
1.2855373e+3, 1.5458257e+2, -1384150.8, -1454982.0, 635.2825, 0.00028018682, -0.013954276, -1384145.0, 40944.47 
1.2855245e+3, 1.6457736e+2, -1297100.8, -1375737.9, 933.59174, -0.000451506, -0.010915981, -1297089.6, 30050.814 
1.2855119e+3, 1.7457151e+2, -1202727.0, -1279573.8, 930.47095, -0.00018566682, -0.01305623, -1202715.8, 26482.105 
1.285499e+3, 1.8456508e+2, -1115633.0, -1200189.3, 749.3769, -0.00024540044, -0.0134511255, -1115626.3, 15634.576 
1.2854862e+3, 1.9455805e+2, -1018740.9, -1102747.5, 739.4684, -0.00060270715, -0.014407388, -1018734.4, 14595.383 
1.2854736e+3, 2.0455042e+2, -931590.44, -1023812.0, 985.74255, -0.0007394713, -0.013749074, -931579.94, 3824.6558 
1.2854609e+3, 2.1454218e+2, -836864.7, -927405.56, 1182.1682, -0.0005452758, -0.012944685, -836849.25, 636.17706 
1.2854479e+3, 2.2453333e+2, -749570.75, -847647.1, 938.05743, -0.0010867523, -0.012256516, -749561.8, -9989.777 
1.2854351e+3, 2.3452389e+2, -653017.9, -750301.75, 770.6754, -0.002516089, -0.0139532825, -653011.75, -11347.31 
1.2854223e+3, 2.4451385e+2, -566053.25, -671775.3, 865.2938, -0.0026576521, -0.013731856, -566046.2, -22283.201 
1.2854096e+3, 2.5450316e+2, -470943.56, -575120.94, 1060.8156, -0.0013468772, -0.013239438, -470932.75, -25065.15 
1.2853968e+3, 2.6449192e+2, -383595.47, -495374.0, 845.5452, -0.0015281705, -0.0124141155, -383589.06, -35611.055 
1.2853839e+3, 2.7448007e+2, -287238.13, -397948.88, 620.42444, -0.0034984604, -0.013637481, -287234.63, -37140.535 
1.285371e+3, 2.8446752e+2, -201100.97, -321119.47, 463.40634, -0.003667914, -0.013677874, -201099.19, -48882.266 
1.2853582e+3, 2.944543e+2, -105578.836, -224133.34, 697.1793, -0.0016151638, -0.014642607, -105574.734, -51228.324 
1.2853454e+3, 3.0444422e+2, -15186.074, -85222.23, 540.58075, -0.002146414, -0.013656937, -15181.902, -15181.902 
1.2853323e+3, 3.144373e+2, -17056.307, -85649.23, 237.16113, -0.005364583, -0.013171233, -17055.486, -17055.486 
1.2955809e+3, 1.2460926e+2, -1654760.5, -1711066.3, -12.931253, 0.0011358064, -0.016057452, -1654760.5, 64067.48 
1.2955679e+3, 1.346049e+2, -1575986.6, -1648060.4, -78.72744, 0.0003227867, -0.0017344819, -1575986.6, 44884.15 
1.295555e+3, 1.4460005e+2, -1480785.8, -1552344.9, 253.6313, 0.0028486834, -0.024359947, -1480784.8, 42133.402 
1.2955421e+3, 1.5459558e+2, -1384155.9, -1454784.4, 317.20047, -0.000030969022, -0.012096401, -1384154.5, 40807.6 
1.2955292e+3, 1.6459039e+2, -1297223.8, -1375797.5, 69.82241, -0.00095819304, -0.00821301, -1297223.8, 29789.238 
1.295516e+3, 1.745845e+2, -1202712.9, -1279580.3, 45.310345, 0.00037775806, -0.014979655, -1202712.9, 26357.771 
1.2955032e+3, 1.8457805e+2, -1115600.1, -1200188.4, 476.64047, 0.0005134835, -0.015774438, -1115597.5, 15536.332 
1.2954904e+3, 1.9457108e+2, -1018829.94, -1102808.8, 495.16458, -0.0006276101, -0.01212472, -1018827.0, 14375.262 
1.2954774e+3, 2.0456347e+2, -931365.1, -1023199.8, 192.02852, -0.0014726326, -0.010910248, -931364.75, 3912.114 
1.2954645e+3, 2.1455522e+2, -836526.25, -926716.5, 354.3886, -0.0019023838, -0.014383928, -836524.8, 832.7768 
1.2954515e+3, 2.2454637e+2, -749807.4, -848187.1, 546.4059, -0.0017337438, -0.01449245, -749804.4, -10360.123 
1.2954386e+3, 2.3453693e+2, -653340.75, -750925.06, 416.65015, -0.0009413702, -0.012770611, -653339.0, -11802.217 
1.2954256e+3, 2.445269e+2, -565734.7, -671059.44, 151.63837, -0.0011095932, -0.01199125, -565734.5, -22099.244 
1.2954128e+3, 2.5451624e+2, -470543.97, -574312.8, 312.52872, -0.0024364057, -0.014412129, -470543.03, -24803.479 
1.2953998e+3, 2.6450497e+2, -383898.75, -496033.6, 372.79724, -0.002914533, -0.014076363, -383897.5, -36047.555 
1.2953867e+3, 2.744931e+2, -287624.34, -398709.6, 179.88374, -0.0023226312, -0.012930844, -287624.06, -37657.695 
1.2953737e+3, 2.8448057e+2, -200702.11, -320243.1, -189.67157, -0.002597483, -0.012194376, -200701.8, -48612.715 
1.2953608e+3, 2.9446742e+2, -105116.08, -223168.48, 20.426735, -0.0039423173, -0.014152627, -105116.08, -50898.07 
1.2953475e+3, 3.044573e+2, -15606.677, -86136.74, -25.476267, -0.0042676004, -0.013485911, -15606.668, -15606.668 
1.2953344e+3, 3.1445032e+2, -17529.328, -86671.39, -294.4629, -0.0026554146, -0.01289806, -17528.074, -17528.074 
1.3055861e+3, 1.2462231e+2, -1655715.3, -1711933.0, 541.52875, 0.0017676512, -0.017429005, -1655710.1, 62990.094 
1.3055728e+3, 1.3461804e+2, -1574783.4, -1646902.0, 573.20404, -0.00010120636, 0.0015340323, -1574778.8, 45963.17 
1.3055599e+3, 1.4461318e+2, -1479965.0, -1551794.5, 812.78174, 0.002224102, -0.026101982, -1479955.9, 42833.766 
1.3055468e+3, 1.5460874e+2, -1385345.9, -1455231.5, 832.42004, 0.00031589417, -0.0123378895, -1385335.9, 39497.316 
1.3055336e+3, 1.6460356e+2, -1298343.9, -1376229.4, 710.63855, -0.00043705627, -0.0075466787, -1298337.4, 28546.475 
1.3055205e+3, 1.7459768e+2, -1201316.4, -1278790.1, 762.0466, 0.000161322, -0.014103584, -1201308.9, 27632.59 
1.3055074e+3, 1.8459125e+2, -1113968.4, -1199301.4, 1171.7803, 0.00012267802, -0.015132597, -1113952.3, 17052.299 
1.3054945e+3, 1.9458427e+2, -1019627.06, -1103105.1, 1251.03, -0.0005637041, -0.012225721, -1019608.3, 13464.707 
1.3054813e+3, 2.0457666e+2, -932589.5, -1023702.4, 942.4219, -0.001251481, -0.011079204, -932579.75, 2567.8235 
1.3054682e+3, 2.1456842e+2, -835823.9, -926283.4, 857.6345, -0.0018798879, -0.013821848, -835815.75, 1412.4154 
1.3054553e+3, 2.245596e+2, -748666.2, -847552.0, 1042.2695, -0.0017433774, -0.013856004, -748655.2, -9340.471 
1.3054422e+3, 2.3455015e+2, -653536.3, -750939.2, 1235.7299, -0.0007992194, -0.012793187, -653520.6, -12113.399 
1.3054289e+3, 2.4454011e+2, -566136.4, -671191.25, 995.1804, -0.001018334, -0.012076321, -566126.94, -22621.326 
1.305416e+3, 2.5452948e+2, -469742.66, -573858.56, 829.68506, -0.0026345178, -0.013888715, -469736.03, -24126.172 
1.3054027e+3, 2.6451823e+2, -382878.13, -495405.13, 878.36633, -0.003098882, -0.013516687, -382871.28, -35151.11 
1.3053896e+3, 2.7450636e+2, -287628.6, -398575.5, 1115.0173, -0.0021040523, -0.012984326, -287617.4, -37780.895 
1.3053763e+3, 2.8449383e+2, -201018.92, -320444.38, 812.25934, -0.002319227, -0.012214708, -201013.4, -49054.207 
1.3053632e+3, 2.9448068e+2, -104613.0, -222983.27, 540.3796, -0.0040312, -0.013427401, -104610.54, -50522.426 
1.3053499e+3, 3.0447057e+2, -14905.387, -85741.13, 385.80557, -0.004457245, -0.012785426, -14903.285, -14903.285 
1.3053367e+3, 3.144636e+2, -17480.564, -86587.12, 652.0554, -0.0025152408, -0.013074132, -17474.414, -17474.414 
1.3155912e+3, 1.24635495e+2, -1655999.4, -1712504.9, 225.3184, 0.0036480173, -0.018745143, -1655998.5, 62572.445 
1.315578e+3, 1.3463135e+2, -1574458.9, -1646041.0, 281.0114, -0.0015100132, 0.006052863, -1574457.8, 46153.85 
1.3155647e+3, 1.4462648e+2, -1480016.5, -1551710.6, -21.25864, 0.00024585953, -0.02635956, -1480016.5, 42642.79 
1.3155514e+3, 1.54622e+2, -1385274.4, -1455114.0, -27.046915, 0.0011262324, -0.014302114, -1385274.4, 39428.7 
1.3155381e+3, 1.6461687e+2, -1298186.6, -1375942.5, 483.26413, 0.0008443245, -0.008513657, -1298183.6, 28569.883 
1.3155249e+3, 1.7461105e+2, -1201297.0, -1278564.9, 555.75244, -0.00074863055, -0.010911461, -1201293.0, 27517.512 
1.3155118e+3, 1.8460463e+2, -1113977.0, -1199120.3, 286.07208, -0.0012615955, -0.012061671, -1113976.0, 16897.398 
1.3154984e+3, 1.9459762e+2, -1019499.1, -1102861.1, 333.5409, -0.0004597016, -0.014299175, -1019497.8, 13444.405 
1.3154852e+3, 2.0459e+2, -932700.6, -1024002.7, 613.0786, -0.00028411477, -0.0137106795, -932696.5, 2320.2905 
1.315472e+3, 2.145818e+2, -836033.2, -926649.8, 565.5737, -0.000743014, -0.01158369, -836029.6, 1067.546 
1.3154587e+3, 2.2457299e+2, -748403.8, -846916.0, 343.62885, -0.0012557636, -0.010827262, -748402.6, -9219.02 
1.3154456e+3, 2.3456356e+2, -653200.9, -750234.9, 505.9687, -0.0019017535, -0.013836863, -653198.2, -11922.218 
1.3154322e+3, 2.445535e+2, -566360.1, -671657.3, 553.9775, -0.002198518, -0.013692466, -566357.2, -22982.838 
1.3154191e+3, 2.545429e+2, -470031.6, -574394.44, 413.38303, -0.00212277, -0.011900672, -470029.94, -24551.328 
1.3154058e+3, 2.6453164e+2, -382469.34, -494507.6, 158.03723, -0.0023175792, -0.011014846, -382469.13, -34880.344 
1.3153924e+3, 2.745198e+2, -287145.03, -397593.75, 364.11856, -0.0027883274, -0.013678117, -287143.8, -37439.105 
1.315379e+3, 2.845073e+2, -201421.9, -321318.22, 322.14853, -0.0027995175, -0.013520953, -201421.03, -49593.637 
1.3153657e+3, 2.944941e+2, -105101.4, -223977.9, 87.50419, -0.0022481536, -0.012393026, -105101.33, -51144.53 
1.3153523e+3, 3.0448398e+2, -14426.3545, -84749.664, -333.7432, -0.0030774972, -0.011446421, -14424.7705, -14424.7705 
1.3153388e+3, 3.1447706e+2, -16921.957, -85489.64, -82.21889, -0.0047869915, -0.013608695, -16921.857, -16921.857 
1.3255963e+3, 1.24648854e+2, -1655755.4, -1712869.0, 753.82294, 0.0029912256, -0.019519683, -1655745.5, 62694.633 
1.325583e+3, 1.346448e+2, -1574974.5, -1645403.3, 906.534, -0.0009030762, 0.00837869, -1574962.8, 45516.887 
1.3255696e+3, 1.4463994e+2, -1480931.6, -1552112.3, 662.47107, 0.00090626284, -0.028134422, -1480925.5, 41601.875 
1.3255562e+3, 1.546355e+2, -1384022.6, -1454498.8, 616.37885, 0.0008518289, -0.01391033, -1384017.3, 40553.664 
1.3255428e+3, 1.6463037e+2, -1296809.8, -1375083.4, 1059.4353, 0.00042812532, -0.0074781124, -1296795.5, 29825.71 
1.3255294e+3, 1.7462456e+2, -1202457.0, -1278934.8, 1117.3021, -0.00045296628, -0.011004549, -1202440.6, 26237.547 
1.325516e+3, 1.8461815e+2, -1115414.8, -1199751.4, 865.27234, -0.0008558753, -0.012330818, -1115405.9, 15335.2 
1.3255025e+3, 1.9461115e+2, -1018401.56, -1102266.1, 844.2493, -0.0006358219, -0.013615805, -1018393.06, 14416.5625 
1.3254891e+3, 2.0460354e+2, -931033.44, -1023126.06, 1150.7097, -0.0005143121, -0.012943644, -931019.06, 3865.1128 
1.3254759e+3, 2.1459532e+2, -836140.2, -926635.56, 1297.0671, -0.0004282123, -0.011733398, -836121.6, 842.9935 
1.3254625e+3, 2.2458652e+2, -748954.2, -847070.2, 1062.1647, -0.0009305133, -0.01105576, -748942.7, -9891.773 
1.3254489e+3, 2.345771e+2, -652664.94, -749856.94, 971.8542, -0.0022224083, -0.013245521, -652655.25, -11512.089 
1.3254355e+3, 2.4456708e+2, -565710.1, -671275.44, 1020.5792, -0.002571804, -0.013019634, -565700.25, -22458.828 
1.3254221e+3, 2.5455645e+2, -470329.7, -574476.44, 1157.4796, -0.0018351102, -0.011913597, -470316.8, -24971.111 
1.3254087e+3, 2.645452e+2, -382745.97, -494614.53, 865.5875, -0.0019258066, -0.011095751, -382739.25, -35283.434 
1.3253953e+3, 2.745334e+2, -286192.9, -397111.47, 640.1246, -0.002923287, -0.013165299, -286189.22, -36617.492 
1.3253817e+3, 2.8452086e+2, -200196.75, -320550.2, 578.1225, -0.0030507194, -0.013001225, -200193.97, -48499.645 
1.3253681e+3, 2.9450765e+2, -104958.51, -223727.14, 919.2964, -0.0020991077, -0.012511209, -104951.39, -51127.76 
1.3253546e+3, 3.0449757e+2, -14666.6875, -85081.42, 546.3918, -0.0028595645, -0.011618242, -14662.447, -14662.447 
1.325341e+3, 3.144906e+2, -16150.949, -85367.15, 141.90659, -0.004902064, -0.013081852, -16150.658, -16150.658 
1.3356015e+3, 1.2466238e+2, -1656231.1, -1713604.9, 0.23051615, 0.00018090713, -0.017940395, -1656231.1, 62076.477 
1.335588e+3, 1.3465841e+2, -1574324.9, -1644056.8, 152.03433, 0.0012435641, 0.008845554, -1574324.5, 46021.875 
1.3355744e+3, 1.4465354e+2, -1480932.1, -1552111.9, 371.11444, 0.0035853446, -0.031142177, -1480930.1, 41463.84 
1.3355608e+3, 1.5464917e+2, -1384176.8, -1454626.1, 352.42645, -0.00035126388, -0.011576998, -1384175.0, 40262.09 
1.3355473e+3, 1.6464405e+2, -1296816.6, -1374908.3, 196.84027, -0.0014040052, -0.004811696, -1296816.1, 29671.104 
1.3355337e+3, 1.7463818e+2, -1202329.9, -1278695.1, 221.30768, 0.00077809265, -0.013801051, -1202329.1, 26215.43 
1.3355201e+3, 1.8463178e+2, -1115403.5, -1199773.0, 616.6492, 0.0009456681, -0.015317887, -1115399.0, 15208.415 
1.3355066e+3, 1.9462483e+2, -1018512.8, -1102358.1, 627.6564, -0.0010970504, -0.010647783, -1018508.1, 14167.366 
1.335493e+3, 2.0461725e+2, -930935.44, -1022752.5, 399.57596, -0.0017752773, -0.009388349, -930933.7, 3816.1582 
1.3354795e+3, 2.1460901e+2, -835949.1, -926202.6, 518.04956, -0.0008238789, -0.013880618, -835946.1, 884.3669 
1.3354659e+3, 2.2460021e+2, -749092.56, -847361.56, 617.03894, -0.00076500577, -0.013983422, -749088.7, -10171.881 
1.3354523e+3, 2.3459081e+2, -652849.6, -750184.75, 548.2463, -0.001914679, -0.011275716, -652846.56, -11837.693 
1.3354388e+3, 2.4458079e+2, -565467.6, -670727.0, 358.54825, -0.002312646, -0.010417071, -565466.4, -22359.39 
1.3354252e+3, 2.5457016e+2, -470030.88, -573877.75, 476.06604, -0.0017882419, -0.013641955, -470028.7, -24817.44 
1.3354118e+3, 2.645589e+2, -383072.6, -495317.53, 444.0475, -0.0019082665, -0.0133759985, -383070.84, -35749.39 
1.3353981e+3, 2.7454707e+2, -286597.5, -397904.88, 244.61052, -0.002659928, -0.011559371, -286596.97, -37159.42 
1.3353844e+3, 2.8453457e+2, -199636.05, -319342.56, -153.01584, -0.0032149618, -0.010794725, -199635.84, -48075.887 
1.3353707e+3, 2.9452145e+2, -104316.95, -222414.64, 153.81352, -0.0034635803, -0.013622967, -104316.75, -50628.09 
1.335357e+3, 3.0451134e+2, -15308.918, -86463.63, 53.715023, -0.0037178143, -0.01311192, -15308.878, -15308.878 
1.3353433e+3, 3.145043e+2, -16912.557, -86940.98, -289.48633, -0.0032104626, -0.011438604, -16911.36, -16911.36 
1.3456067e+3, 1.24676034e+2, -1657574.1, -1715067.8, 612.12585, 0.00067156076, -0.01937339, -1657567.6, 60606.164 
1.3455929e+3, 1.3467218e+2, -1572927.4, -1642501.1, 675.0212, 0.00087225623, 0.010558661, -1572920.8, 47290.766 
1.3455792e+3, 1.4466734e+2, -1479946.9, -1551387.4, 837.5405, 0.0029953585, -0.031925853, -1479937.1, 42321.777 
1.3455656e+3, 1.5466298e+2, -1385191.1, -1454904.1, 965.9957, -0.00005608248, -0.011307526, -1385177.8, 39123.945 
1.3455518e+3, 1.6465786e+2, -1297954.1, -1375438.0, 875.42206, -0.00096358074, -0.004083784, -1297944.3, 28407.484 
1.345538e+3, 1.7465203e+2, -1201182.0, -1278121.5, 805.2005, 0.0005182419, -0.0133052, -1201173.5, 27235.56 
1.3455243e+3, 1.8464561e+2, -1113915.8, -1198900.1, 1218.5616, 0.0006598661, -0.0151216015, -1113898.3, 16573.564 
1.3455108e+3, 1.9463867e+2, -1019148.44, -1102515.5, 1339.2865, -0.00067837304, -0.010812006, -1019126.94, 13412.879 
1.345497e+3, 2.046311e+2, -932001.3, -1023134.6, 1111.2429, -0.0013888492, -0.009406211, -931987.8, 2626.2673 
1.3454832e+3, 2.146229e+2, -835429.8, -925811.25, 1111.7441, -0.0013767923, -0.013219488, -835416.2, 1278.3533 
1.3454697e+3, 2.2461408e+2, -748185.0, -846914.06, 1209.4349, -0.0013313291, -0.01331316, -748170.2, -9389.423 
1.345456e+3, 2.3460469e+2, -652774.94, -750142.2, 1283.3009, -0.0013688012, -0.011315444, -652758.06, -11885.178 
1.3454421e+3, 2.4459468e+2, -565368.9, -670565.2, 1090.5673, -0.0016059257, -0.010532853, -565357.56, -22386.58 
1.3454285e+3, 2.5458407e+2, -469044.2, -573288.7, 1007.8849, -0.002026143, -0.013171722, -469034.44, -23959.34 
1.3454147e+3, 2.6457283e+2, -382204.75, -494880.44, 1015.5715, -0.0023952893, -0.0128605375, -382195.6, -35010.367 
1.3454008e+3, 2.74561e+2, -286913.4, -398049.8, 1184.7355, -0.0025804825, -0.011537391, -286900.78, -37599.402 
1.3453871e+3, 2.8454846e+2, -199990.61, -319442.06, 748.3739, -0.003002137, -0.010775606, -199985.92, -48562.145 
1.3453732e+3, 2.9453534e+2, -103425.99, -221912.98, 501.7752, -0.0035796843, -0.013085311, -103423.87, -49871.484 
1.3453594e+3, 3.0452523e+2, -14287.097, -86117.27, 358.1024, -0.0038225672, -0.012538413, -14285.312, -14285.312 
1.3453455e+3, 3.1451818e+2, -16831.658, -87069.88, 644.12445, -0.002993849, -0.011345907, -16825.75, -16825.75 
1.3556118e+3, 1.2468983e+2, -1658237.8, -1716406.5, 301.39044, 0.0035564904, -0.020525198, -1658236.3, 59802.305 
1.355598e+3, 1.3468608e+2, -1572565.3, -1641571.4, 393.67706, -0.001531686, 0.013404827, -1572563.0, 47512.313 
1.3555841e+3, 1.4468129e+2, -1479789.1, -1550871.0, 53.579857, -0.00023306895, -0.030875213, -1479789.0, 42333.254 
1.3555703e+3, 1.5467694e+2, -1384924.4, -1454346.0, 148.96495, 0.0013703112, -0.012728095, -1384924.0, 39240.848 
1.3555562e+3, 1.6467185e+2, -1298005.5, -1375554.4, 579.7657, 0.0012181075, -0.0049084723, -1298001.1, 28213.559 
1.3555425e+3, 1.7466603e+2, -1201341.3, -1278309.4, 534.6404, -0.0010204195, -0.010108154, -1201337.5, 26934.373 
1.3555285e+3, 1.8465962e+2, -1113830.8, -1198564.4, 441.5789, -0.0013761052, -0.012340052, -1113828.5, 16506.088 
1.3555148e+3, 1.9465266e+2, -1018970.6, -1102122.9, 535.7817, 0.00043889403, -0.013557525, -1018967.2, 13435.583 
1.355501e+3, 2.046451e+2, -932017.4, -1023164.5, 737.1646, 0.00030959584, -0.012341681, -932011.4, 2465.4944 
1.3554871e+3, 2.1463695e+2, -835513.8, -925879.9, 758.7953, -0.0021040277, -0.010220193, -835507.44, 1049.4375 
1.3554733e+3, 2.2462817e+2, -748130.5, -846687.2, 564.0702, -0.0025348484, -0.009652059, -748127.25, -9484.265 
1.3554594e+3, 2.3461872e+2, -652666.3, -749878.5, 622.70593, -0.00065863115, -0.01303877, -652662.3, -11926.924 
1.3554455e+3, 2.446087e+2, -565479.75, -670771.7, 641.0833, -0.0005850861, -0.012911825, -565475.9, -22642.33 
1.3554317e+3, 2.545981e+2, -469199.22, -573539.5, 571.2945, -0.0025668114, -0.010795734, -469196.1, -24258.736 
1.3554177e+3, 2.645869e+2, -381912.66, -494232.7, 301.21918, -0.0033691793, -0.009913621, -381911.88, -34864.547 
1.3554038e+3, 2.7457505e+2, -286557.38, -397348.72, 446.18417, -0.002721993, -0.012910102, -286555.6, -37392.215 
1.3553898e+3, 2.8456256e+2, -200372.67, -320289.13, 299.98038, -0.0025358384, -0.012682803, -200371.92, -49086.06 
1.3553758e+3, 2.945494e+2, -103889.664, -222868.86, 91.25529, -0.0027396816, -0.011044777, -103889.59, -50474.816 
1.3553616e+3, 3.045393e+2, -13884.314, -85261.59, -334.23077, -0.0034130968, -0.010033182, -13882.749, -13882.749 
1.3553476e+3, 3.1453225e+2, -16395.03, -86141.07, -67.85127, -0.0041955793, -0.012706442, -16394.963, -16394.963 
1.3656169e+3, 1.247038e+2, -1657987.9, -1717111.9, 784.6322, 0.0031366625, -0.020828547, -1657977.5, 59924.18 
1.3656029e+3, 1.3470015e+2, -1572853.5, -1640680.4, 1040.0557, -0.0011382172, 0.01433982, -1572837.5, 47099.906 
1.365589e+3, 1.446954e+2, -1480767.6, -1551192.1, 709.3936, 0.000093766874, -0.031117158, -1480760.4, 41223.6 
1.3655749e+3, 1.5469106e+2, -1384163.4, -1453834.5, 641.6009, 0.001088937, -0.012893454, -1384157.5, 39868.996 
1.3655607e+3, 1.64686e+2, -1297040.9, -1374930.3, 1094.2856, 0.0009346449, -0.0048979805, -1297025.5, 29050.744 
1.3655469e+3, 1.7468017e+2, -1201974.3, -1278457.4, 1202.6918, -0.0006767189, -0.00979801, -1201955.4, 26177.77 
1.3655329e+3, 1.846738e+2, -1114640.3, -1198881.1, 1083.2677, -0.0010484032, -0.011855289, -1114626.3, 15569.463 
1.3655189e+3, 1.9466683e+2, -1018202.9, -1101674.9, 1041.1676, 0.000013715481, -0.0130913, -1018189.9, 14074.032 
1.3655049e+3, 2.0465927e+2, -930944.06, -1022581.25, 1238.2501, -0.000052741485, -0.012067949, -930927.4, 3410.6362 
1.3654909e+3, 2.1465112e+2, -835618.06, -925866.1, 1316.0458, -0.0014600594, -0.010297959, -835598.9, 819.0233 
1.365477e+3, 2.2464234e+2, -748415.3, -846690.7, 1138.9915, -0.0018795334, -0.009702752, -748402.06, -9898.099 
1.3654628e+3, 2.3463292e+2, -652064.0, -749450.94, 1148.2797, -0.0011156118, -0.012644978, -652050.44, -11454.235 
1.3654488e+3, 2.4462293e+2, -564864.0, -670452.94, 1165.6469, -0.0012478691, -0.012442557, -564851.1, -22156.854 
1.3654348e+3, 2.5461233e+2, -469421.63, -573632.8, 1211.8046, -0.0023972732, -0.010693117, -469407.56, -24609.402 
1.3654208e+3, 2.646011e+2, -382002.53, -494178.7, 903.1923, -0.0029135742, -0.009841188, -381995.25, -35087.195 
1.3654067e+3, 2.7458927e+2, -285478.44, -396735.94, 787.8203, -0.0026167396, -0.012479931, -285472.84, -36448.844 
1.3653925e+3, 2.8457677e+2, -199161.39, -319650.47, 710.6923, -0.0025824711, -0.012301394, -199157.2, -48010.74 
1.3653784e+3, 2.9456362e+2, -103752.695, -222757.75, 975.32806, -0.002708303, -0.0111126425, -103744.7, -50469.316 
1.3653642e+3, 3.0455354e+2, -14029.295, -85435.64, 560.0975, -0.0033469317, -0.010078499, -14024.901, -14024.901 
1.3653499e+3, 3.1454647e+2, -15718.217, -85920.75, 338.53067, -0.0043245703, -0.012255175, -15716.585, -15716.585 
1.375622e+3, 1.24717936e+2, -1658565.9, -1718040.9, -6.3381376, 0.000060669492, -0.01829801, -1658565.9, 59197.367 
1.3756078e+3, 1.3471435e+2, -1572081.6, -1639049.4, 264.57492, 0.0013698604, 0.013707418, -1572080.6, 47717.62 
1.3755937e+3, 1.4470966e+2, -1480811.1, -1551273.5, 346.12393, 0.0031212212, -0.03236783, -1480809.5, 41034.844 
1.3755795e+3, 1.5470533e+2, -1384289.8, -1453973.6, 307.75195, -0.000611503, -0.011999676, -1384288.4, 39598.34 
1.3755654e+3, 1.6470027e+2, -1296902.0, -1374504.5, 399.06705, -0.0013511318, -0.004197491, -1296900.0, 29036.299 
1.3755512e+3, 1.7469448e+2, -1201761.8, -1277974.9, 487.27618, 0.0011514425, -0.01184381, -1201758.8, 26234.46 
1.375537e+3, 1.8468809e+2, -1114723.8, -1199019.1, 694.15845, 0.0011232424, -0.013228175, -1114718.0, 15337.532 
1.3755229e+3, 1.9468117e+2, -1018345.3, -1101854.9, 673.131, -0.0017462359, -0.009986842, -1018339.94, 13783.521 
1.3755088e+3, 2.0467362e+2, -930933.6, -1022438.75, 586.3712, -0.0021518434, -0.009174237, -930929.9, 3267.66 
1.3754946e+3, 2.1466543e+2, -835554.4, -925689.2, 648.62244, 0.0002817318, -0.012924516, -835549.75, 728.0852 
1.3754804e+3, 2.2465664e+2, -748389.75, -846602.44, 717.65735, 0.00025876838, -0.012803568, -748384.5, -10020.671 
1.3754663e+3, 2.3464729e+2, -652076.3, -749384.8, 733.01, -0.0025977036, -0.010456087, -652070.75, -11615.275 
1.3754521e+3, 2.446373e+2, -564802.56, -670250.94, 511.38345, -0.0033632102, -0.009567365, -564800.1, -22246.7 
1.375438e+3, 2.5462666e+2, -469306.75, -573399.94, 546.5437, -0.0016737492, -0.012534764, -469303.88, -24646.32 
1.3754238e+3, 2.6461545e+2, -382137.25, -494487.38, 485.2035, -0.0013024496, -0.01220969, -382135.16, -35367.61 
1.3754095e+3, 2.7460364e+2, -285666.28, -397104.72, 388.48203, -0.0024057026, -0.010467395, -285664.94, -36781.598 
1.3753952e+3, 2.8459117e+2, -198743.02, -318767.0, 23.084768, -0.0031966006, -0.009888372, -198743.02, -47737.43 
1.375381e+3, 2.9457805e+2, -103285.414, -221821.17, 264.19424, -0.003444693, -0.013099432, -103284.83, -50150.563 
1.3753666e+3, 3.045679e+2, -14471.144, -86387.516, 57.800465, -0.003618322, -0.0124589065, -14471.097, -14471.097 
1.3753521e+3, 3.1456086e+2, -16263.025, -86981.445, -113.70289, -0.003620597, -0.01020271, -16262.843, -16262.843 
1.3856272e+3, 1.2473221e+2, -1659909.0, -1719372.6, 601.6338, 0.000367983, -0.018492823, -1659902.9, 57720.46 
1.385613e+3, 1.3472873e+2, -1570915.4, -1637354.0, 804.1543, 0.0011565101, 0.013255025, -1570905.6, 48751.805 
1.3855986e+3, 1.4472409e+2, -1480130.4, -1550845.8, 908.5773, 0.0028256453, -0.032069653, -1480118.8, 41584.23 
1.3855842e+3, 1.5471977e+2, -1384836.6, -1454167.0, 956.75165, -0.00018810845, -0.01126263, -1384823.5, 38921.72 
1.38557e+3, 1.6471472e+2, -1297535.6, -1374646.1, 1011.00244, -0.0009243335, -0.0035668758, -1297522.4, 28272.373 
1.3855556e+3, 1.7470892e+2, -1201332.5, -1277594.6, 976.11835, 0.0008360058, -0.011922526, -1201320.0, 26531.44 
1.3855413e+3, 1.8470258e+2, -1114109.0, -1198584.9, 1246.4398, 0.0007899211, -0.013475521, -1114090.6, 15823.127 
1.385527e+3, 1.9469567e+2, -1018524.0, -1101806.1, 1371.0631, -0.0013251345, -0.009804319, -1018501.44, 13480.036 
1.3855127e+3, 2.0468812e+2, -931176.6, -1022495.44, 1295.922, -0.0016963525, -0.008741107, -931158.25, 2897.226 
1.3854983e+3, 2.1467991e+2, -834927.06, -925322.7, 1306.2799, -0.000048482587, -0.012476009, -834908.2, 1227.5326 
1.3854842e+3, 2.2467114e+2, -747666.9, -846157.4, 1370.0985, -0.00018767857, -0.012479027, -747647.9, -9426.18 
1.3854699e+3, 2.346618e+2, -652141.6, -749322.56, 1403.1182, -0.002404087, -0.010379548, -652121.4, -11808.09 
1.3854556e+3, 2.4465182e+2, -564866.4, -670199.9, 1180.5941, -0.003000978, -0.009464974, -564853.1, -22442.045 
1.3854411e+3, 2.546412e+2, -468448.47, -572905.4, 1157.9479, -0.0016625797, -0.012080908, -468435.63, -23920.463 
1.3854268e+3, 2.6462996e+2, -381247.56, -494028.13, 1137.5558, -0.0014457452, -0.011781679, -381236.1, -34610.99 
1.3854125e+3, 2.7461818e+2, -285736.5, -397119.97, 1216.3041, -0.002524476, -0.010492164, -285723.22, -36982.293 
1.385398e+3, 2.8460568e+2, -198879.53, -318753.7, 757.4119, -0.0032440561, -0.009862089, -198874.75, -48011.613 
1.3853836e+3, 2.9459256e+2, -102532.13, -221381.8, 618.97095, -0.0033481389, -0.012451428, -102528.91, -49537.2 
1.385369e+3, 3.0458245e+2, -13597.596, -86121.79, 379.8316, -0.003459258, -0.011891571, -13595.607, -13595.607 
1.3853545e+3, 3.1457537e+2, -15938.16, -86974.766, 560.61774, -0.003587688, -0.010434528, -15933.735, -15933.735 
1.3956323e+3, 1.24746636e+2, -1660407.4, -1720306.6, 195.92888, 0.0029977416, -0.018417612, -1660406.8, 57075.28 
1.3956177e+3, 1.3474324e+2, -1570354.8, -1636049.8, 410.04282, -0.0012071955, 0.013074756, -1570352.3, 49163.023 
1.3956034e+3, 1.4473867e+2, -1480094.6, -1550622.5, 234.84377, -0.00009289176, -0.030487947, -1480093.8, 41466.215 
1.3955888e+3, 1.5473436e+2, -1384755.0, -1453944.3, 280.71805, 0.00185718, -0.010668309, -1384753.9, 38848.313 
1.3955745e+3, 1.6472933e+2, -1297540.8, -1374625.0, 577.19305, 0.0015840199, -0.0029776376, -1297536.5, 28115.203 
1.3955599e+3, 1.7472354e+2, -1201383.5, -1277611.9, 554.04865, -0.0012709319, -0.010393813, -1201379.4, 26328.922 
1.3955456e+3, 1.847172e+2, -1113961.6, -1198177.8, 661.73425, -0.0016128442, -0.01281135, -1113956.5, 15814.084 
1.3955311e+3, 1.9471028e+2, -1018345.44, -1101376.1, 774.2813, 0.00083920476, -0.012005706, -1018338.2, 13500.02 
1.3955167e+3, 2.0470276e+2, -931214.1, -1022509.0, 848.8453, 0.00078000553, -0.01029798, -931206.2, 2705.7886 
1.3955022e+3, 2.146946e+2, -834998.3, -925359.25, 863.2603, -0.0021489328, -0.009475392, -834990.06, 1001.77075 
1.3954878e+3, 2.2468583e+2, -747650.0, -846027.4, 736.2831, -0.002805628, -0.009301804, -747644.5, -9566.77 
1.3954733e+3, 2.3467645e+2, -652082.6, -749172.75, 764.46796, -0.0008658723, -0.01205144, -652076.56, -11906.891 
1.3954589e+3, 2.4466647e+2, -564866.8, -670186.3, 754.8049, -0.0006568128, -0.011641125, -564861.4, -22593.912 
1.3954444e+3, 2.546559e+2, -468484.9, -572922.56, 739.8988, -0.0023406723, -0.009652543, -468479.66, -24108.547 
1.39543e+3, 2.646447e+2, -381103.53, -493690.3, 481.22354, -0.003138769, -0.00896035, -381101.47, -34620.566 
1.3954154e+3, 2.7463287e+2, -285545.44, -396755.28, 547.87354, -0.0029588114, -0.012338465, -285542.72, -36945.805 
1.3954008e+3, 2.846204e+2, -199107.84, -319279.2, 286.15973, -0.0028510704, -0.011967246, -199107.16, -48387.965 
1.3953862e+3, 2.9460728e+2, -102817.1, -221981.86, 180.21082, -0.0026803243, -0.009556877, -102816.83, -49969.094 
1.3953714e+3, 3.0459714e+2, -13410.993, -85712.484, -223.4351, -0.0031054707, -0.00875413, -13410.303, -13410.303 
1.3953568e+3, 3.1459007e+2, -15760.038, -86531.11, -67.58004, -0.004356006, -0.012726553, -15759.974, -15759.974 
1.4056373e+3, 1.2476122e+2, -1660533.9, -1721078.4, 785.0713, 0.0027949854, -0.018682562, -1660523.8, 56815.402 
1.4056228e+3, 1.3475789e+2, -1570472.3, -1635189.5, 943.24286, -0.0007949798, 0.012169361, -1570458.5, 48913.184 
1.4056082e+3, 1.447534e+2, -1480736.8, -1550685.3, 757.95, 0.0001269625, -0.029350901, -1480728.5, 40687.168 
1.4055935e+3, 1.547491e+2, -1384473.8, -1453564.8, 838.2443, 0.0014862873, -0.010618425, -1384463.5, 38994.254 
1.405579e+3, 1.6474408e+2, -1297140.4, -1374361.9, 1170.2036, 0.001248525, -0.003227525, -1297122.6, 28384.48 
1.4055644e+3, 1.747383e+2, -1201543.1, -1277623.0, 1181.998, -0.000908321, -0.010107712, -1201524.9, 26038.846 
1.4055496e+3, 1.8473196e+2, -1114128.6, -1198109.1, 1248.4495, -0.001207271, -0.012273101, -1114110.1, 15515.671 
1.4055352e+3, 1.9472507e+2, -1018013.2, -1101061.6, 1251.4613, 0.0005487772, -0.011585446, -1017994.3, 13698.999 
1.4055206e+3, 2.0471756e+2, -930878.06, -1022226.4, 1318.5955, 0.00037410745, -0.010098531, -930859.06, 2907.9385 
1.405506e+3, 2.1470942e+2, -835149.5, -925314.94, 1410.1089, -0.002050353, -0.009528008, -835127.44, 719.29083 
1.4054914e+3, 2.2470067e+2, -747686.0, -845956.7, 1319.4435, -0.0025535668, -0.009200118, -747668.3, -9735.775 
1.4054768e+3, 2.3469128e+2, -651318.1, -748719.7, 1325.8185, -0.000753322, -0.011388486, -651300.06, -11275.687 
1.4054623e+3, 2.4468131e+2, -564077.06, -669763.56, 1307.1826, -0.0006256393, -0.011063445, -564060.9, -21938.75 
1.4054476e+3, 2.5467074e+2, -468519.9, -572906.06, 1310.9293, -0.0023846317, -0.009831801, -468503.47, -24277.664 
1.405433e+3, 2.6465955e+2, -381167.47, -493620.5, 1014.5039, -0.0031547893, -0.0091495905, -381158.3, -34822.8 
1.4054184e+3, 2.746477e+2, -284781.88, -396284.44, 972.3189, -0.0028394521, -0.011715962, -284773.4, -36322.016 
1.4054036e+3, 2.8463525e+2, -198175.34, -318781.75, 789.43445, -0.0027312844, -0.011233219, -198170.19, -47596.61 
1.4053889e+3, 2.9462212e+2, -102449.5, -221766.33, 968.343, -0.0027420362, -0.009548301, -102441.65, -49739.5 
1.405374e+3, 3.04612e+2, -13249.666, -85784.62, 567.7428, -0.0031367003, -0.008786726, -13245.223, -13245.223 
1.405359e+3, 3.1460488e+2, -15120.632, -86379.79, 418.21884, -0.0042997203, -0.011764874, -15118.178, -15118.178 
1.4156425e+3, 1.24775976e+2, -1661054.3, -1722006.1, 85.469475, 0.00027738133, -0.016807621, -1661054.1, 56140.38 
1.4156277e+3, 1.3477269e+2, -1569982.3, -1634121.1, 263.3629, 0.0016940089, 0.010697506, -1569981.1, 49245.56 
1.415613e+3, 1.4476827e+2, -1480587.4, -1550316.4, 322.5187, 0.0027035717, -0.028524326, -1480585.9, 40684.17 
1.4155981e+3, 1.54764e+2, -1384360.1, -1453217.6, 415.05408, -0.00088459917, -0.010978121, -1384357.6, 38954.363 
1.4155833e+3, 1.6475897e+2, -1297142.6, -1374251.4, 580.03186, -0.0013862351, -0.004142774, -1297138.3, 28222.924 
1.4155687e+3, 1.747532e+2, -1201506.1, -1277492.1, 604.213, 0.0014065654, -0.010823196, -1201501.3, 25916.346 
1.415554e+3, 1.8474689e+2, -1114150.0, -1198107.4, 789.8772, 0.0013748909, -0.011830887, -1114142.6, 15336.959 
1.4155392e+3, 1.9474001e+2, -1018059.8, -1101076.5, 795.93884, -0.0018345781, -0.009028963, -1018052.2, 13494.716 
1.4155245e+3, 2.047325e+2, -930779.25, -1021944.0, 752.8939, -0.0024464962, -0.008464141, -930773.06, 2847.529 
1.4155097e+3, 2.1472433e+2, -835021.0, -925015.3, 838.674, -0.00020795476, -0.012090316, -835013.2, 687.32416 
1.4154951e+3, 2.247156e+2, -747664.7, -845878.94, 897.77216, -0.00003275759, -0.011605112, -747656.5, -9870.353 
1.4154804e+3, 2.3470628e+2, -651328.1, -748667.3, 903.9051, -0.0019075238, -0.0087593105, -651319.75, -11442.295 
1.4154658e+3, 2.4469632e+2, -564065.25, -669679.7, 677.381, -0.002576084, -0.008171962, -564060.94, -22085.777 
1.4154509e+3, 2.5468567e+2, -468471.5, -572812.44, 678.0188, -0.0019460139, -0.012232597, -468467.1, -24387.85 
1.415436e+3, 2.6467448e+2, -381167.16, -493654.1, 573.51654, -0.0018154976, -0.011883202, -381164.22, -34975.254 
1.4154212e+3, 2.7466273e+2, -284807.53, -396340.75, 548.2337, -0.0023671216, -0.008969618, -284804.84, -36500.457 
1.4154063e+3, 2.8465027e+2, -197899.05, -318215.44, 198.84503, -0.0029722105, -0.008055993, -197898.72, -47472.355 
1.4153914e+3, 2.9463714e+2, -102136.72, -221169.58, 370.3112, -0.0034879444, -0.012157169, -102135.57, -49580.496 
1.4153765e+3, 3.04627e+2, -13534.332, -86426.375, 73.380165, -0.0035527858, -0.011706084, -13534.258, -13534.258 
1.4153615e+3, 3.146199e+2, -15504.4795, -87121.29, -53.1293, -0.0036905685, -0.008199093, -15504.439, -15504.439 
1.4256476e+3, 1.2479087e+2, -1661665.4, -1722755.3, 653.633, 0.00070674636, -0.01678724, -1661658.4, 55390.117 
1.4256327e+3, 1.3478766e+2, -1569337.5, -1632933.8, 861.0584, 0.0014424431, 0.0095797945, -1569325.9, 49754.188 
1.4256178e+3, 1.447833e+2, -1480478.0, -1550170.1, 961.1528, 0.002336835, -0.02648955, -1480464.8, 40657.918 
1.4256027e+3, 1.54779e+2, -1384811.5, -1453358.0, 929.75305, -0.0005562873, -0.010944033, -1384798.9, 38365.863 
1.4255878e+3, 1.64774e+2, -1297460.4, -1374112.0, 1089.3765, -0.0010541752, -0.0046738083, -1297444.9, 27768.857 
1.4255731e+3, 1.7476828e+2, -1201204.1, -1277050.0, 1213.8705, 0.0010678517, -0.010342275, -1201184.6, 26085.246 
1.4255582e+3, 1.8476197e+2, -1113859.6, -1197942.9, 1436.7451, 0.0009944099, -0.011168394, -1113835.1, 15496.554 
1.4255433e+3, 1.9475509e+2, -1018149.7, -1101109.5, 1445.093, -0.0015982689, -0.008998116, -1018124.56, 13274.543 
1.4255284e+3, 2.0474759e+2, -930719.7, -1021730.1, 1414.8556, -0.002059258, -0.008461236, -930697.7, 2774.966 
1.4255136e+3, 2.1473946e+2, -834498.06, -924580.7, 1471.633, -0.00012406232, -0.011497245, -834474.06, 1078.3268 
1.4254987e+3, 2.2473073e+2, -747265.2, -845642.1, 1523.0231, -0.00011994005, -0.011081325, -747241.6, -9603.718 
1.4254838e+3, 2.347214e+2, -651499.4, -748712.3, 1528.4901, -0.0020618148, -0.0090008825, -651475.3, -11746.048 
1.4254689e+3, 2.4471144e+2, -564095.2, -669545.8, 1311.0065, -0.0026803254, -0.008318407, -564078.9, -22252.0 
1.4254542e+3, 2.5470084e+2, -467687.0, -572280.9, 1357.4537, -0.0018986017, -0.011354256, -467669.38, -23738.646 
1.4254393e+3, 2.6468965e+2, -380323.72, -493284.63, 1277.6698, -0.0017485083, -0.010945469, -380309.25, -34268.844 
1.4254242e+3, 2.7467784e+2, -284542.28, -396253.53, 1238.0276, -0.002387881, -0.009017955, -284528.56, -36372.63 
1.4254092e+3, 2.8466544e+2, -197594.28, -317912.7, 796.80005, -0.0029577997, -0.008321468, -197589.0, -47311.117 
1.4253941e+3, 2.946523e+2, -101333.984, -220611.36, 793.6989, -0.0034205762, -0.011668311, -101328.7, -48922.34 
1.425379e+3, 3.0464217e+2, -12822.476, -86308.19, 460.2368, -0.003532846, -0.011051525, -12819.593, -12819.593 
1.4253639e+3, 3.1463507e+2, -15047.202, -87148.21, 472.60196, -0.0036652936, -0.008317486, -15044.1045, -15044.1045 
1.4356527e+3, 1.24805935e+2, -1661922.4, -1723129.3, 78.84131, 0.0030661288, -0.015943654, -1661922.3, 54978.754 
1.4356376e+3, 1.3480277e+2, -1568821.8, -1631767.4, 291.329, -0.0009937455, 0.00878574, -1568820.5, 50111.42 
1.4356226e+3, 1.447985e+2, -1480575.1, -1550292.8, 374.2366, -0.00033148556, -0.023491664, -1480573.1, 40400.543 
1.4356074e+3, 1.5479417e+2, -1384888.5, -1453484.3, 358.0552, 0.0018704279, -0.010599462, -1384886.6, 38129.477 
1.4355925e+3, 1.6478918e+2, -1297207.1, -1373550.3, 673.169, 0.0015678087, -0.004874513, -1297201.3, 27863.89 
1.4355774e+3, 1.7478351e+2, -1200984.5, -1276495.8, 786.6466, -0.0014612539, -0.008884449, -1200976.4, 26144.342 
1.4355624e+3, 1.8477722e+2, -1113898.4, -1197916.8, 871.7637, -0.0018058784, -0.010314721, -1113889.4, 15292.895 
1.4355473e+3, 1.9477032e+2, -1018157.56, -1101081.5, 882.1111, 0.0007143171, -0.011013382, -1018148.2, 13101.727 
1.4355324e+3, 2.0476283e+2, -930638.1, -1021538.1, 968.4895, 0.0008485242, -0.009766946, -930627.8, 2695.5562 
1.4355175e+3, 2.1475475e+2, -834433.44, -924403.75, 1014.7616, -0.0015564314, -0.008294347, -834422.0, 980.5275 
1.4355025e+3, 2.2474603e+2, -747256.4, -845587.5, 940.6657, -0.0024004811, -0.008122136, -747247.4, -9759.385 
1.4354874e+3, 2.3473665e+2, -651475.9, -748657.06, 951.6272, -0.0014585789, -0.0116329845, -651466.56, -11886.718 
1.4354724e+3, 2.447267e+2, -563960.8, -669262.44, 885.2352, -0.0013499417, -0.010964637, -563953.3, -22276.006 
1.4354575e+3, 2.547162e+2, -467568.3, -571999.9, 932.0014, -0.0022894307, -0.0077026626, -467560.0, -23779.568 
1.4354423e+3, 2.64705e+2, -380363.66, -493341.5, 689.8069, -0.0028223374, -0.006920207, -380359.44, -34469.434 
1.4354272e+3, 2.7469313e+2, -284561.34, -396311.28, 656.44617, -0.0028718594, -0.011546324, -284557.5, -36551.324 
1.435412e+3, 2.846807e+2, -197604.39, -317964.84, 335.98785, -0.0027930266, -0.011604489, -197603.45, -47475.227 
1.4353968e+3, 2.9466763e+2, -101362.805, -220681.75, 350.365, -0.002751078, -0.008587008, -101361.77, -49105.6 
1.4353816e+3, 3.046575e+2, -12823.297, -86320.836, -81.21584, -0.0032877927, -0.0073625287, -12823.207, -12823.207 
1.4353663e+3, 3.1465033e+2, -15061.706, -87168.445, -81.04246, -0.004546994, -0.011570176, -15061.615, -15061.615 
1.4456578e+3, 1.2482116e+2, -1662629.3, -1723893.5, 778.4422, 0.0027457627, -0.015117039, -1662619.3, 54132.406 
1.4456424e+3, 1.3481802e+2, -1568867.0, -1631218.6, 793.0951, -0.00075147685, 0.0064354003, -1568856.9, 49925.563 
1.4456274e+3, 1.4481382e+2, -1480585.4, -1550053.8, 897.3259, -0.00011320232, -0.022091636, -1480573.8, 40249.742 
1.445612e+3, 1.5480952e+2, -1384453.9, -1453025.4, 1067.0729, 0.0017567378, -0.009613664, -1384437.3, 38428.547 
1.445597e+3, 1.6480453e+2, -1296997.1, -1373447.8, 1340.3248, 0.0014354762, -0.0044943485, -1296973.6, 27941.145 
1.4455818e+3, 1.7479886e+2, -1201423.5, -1276700.4, 1191.6581, -0.0012302417, -0.009222057, -1201404.8, 25565.64 
1.4455667e+3, 1.847926e+2, -1114185.0, -1197727.0, 1272.0497, -0.0015518114, -0.010620288, -1114165.6, 14866.159 
1.4455515e+3, 1.9478571e+2, -1017839.3, -1100590.3, 1461.597, 0.0006299382, -0.010423299, -1017813.5, 13285.555 
1.4455363e+3, 2.0477824e+2, -930376.06, -1021455.4, 1581.6194, 0.0006581188, -0.009038621, -930348.6, 2823.733 
1.4455213e+3, 2.1477014e+2, -834430.06, -924460.0, 1520.6149, -0.0016319266, -0.008325786, -834404.4, 847.28827 
1.445506e+3, 2.2476143e+2, -747007.44, -845232.25, 1424.673, -0.0023738944, -0.00821662, -746986.75, -9649.707 
1.445491e+3, 2.3475209e+2, -650798.6, -748087.6, 1557.1315, -0.0013578467, -0.010997102, -650773.7, -11345.051 
1.4454758e+3, 2.4474216e+2, -563445.7, -669049.94, 1516.3427, -0.0012641343, -0.010337762, -563423.94, -21897.943 
1.4454608e+3, 2.5473163e+2, -467538.72, -572027.94, 1406.7506, -0.0022845387, -0.007859702, -467519.78, -23890.553 
1.4454454e+3, 2.6472047e+2, -380232.63, -493090.9, 1119.3553, -0.002842504, -0.0071347887, -380221.53, -34482.805 
1.4454302e+3, 2.7470863e+2, -283934.28, -395813.8, 1214.6486, -0.0028836522, -0.010957413, -283921.1, -36066.473 
1.4454149e+3, 2.8469616e+2, -196995.42, -317724.84, 956.4147, -0.0028276455, -0.01086586, -196987.84, -47011.254 
1.4453995e+3, 2.946831e+2, -101067.15, -220612.06, 927.9988, -0.0028222874, -0.008368674, -101059.945, -48955.313 
1.4453842e+3, 3.04673e+2, -12510.074, -86269.984, 462.2282, -0.0033382822, -0.0072054267, -12507.178, -12507.178 
1.4453687e+3, 3.1466576e+2, -14226.817, -86839.17, 407.9242, -0.004486784, -0.011041851, -14224.526, -14224.526 
1.4556627e+3, 1.2483659e+2, -1663025.5, -1724630.6, 202.00333, 0.00014040737, -0.011856206, -1663024.9, 53575.727 
1.4556473e+3, 1.3483341e+2, -1568729.1, -1630861.5, 240.07314, 0.0015230451, 0.0028858928, -1568728.3, 49903.543 
1.4556322e+3, 1.4482929e+2, -1480334.3, -1549431.6, 433.03384, 0.0022937378, -0.021912219, -1480331.5, 40340.582 
1.4556167e+3, 1.5482503e+2, -1384224.6, -1452402.0, 598.161, -0.00045080006, -0.008126285, -1384219.4, 38494.5 
1.4556015e+3, 1.6482005e+2, -1297297.6, -1373941.5, 732.73596, -0.0009169496, -0.0036623694, -1297290.6, 27472.088 
1.4555861e+3, 1.748143e+2, -1201660.1, -1277162.9, 613.0128, 0.0011841977, -0.011008192, -1201655.1, 25163.834 
1.4555708e+3, 1.8480805e+2, -1113823.6, -1196974.5, 880.1688, 0.0010634413, -0.011849607, -1113814.4, 15065.865 
1.4555556e+3, 1.9480129e+2, -1017501.5, -1099839.0, 1049.7245, -0.0015072372, -0.0077161584, -1017488.1, 13458.51 
1.4555402e+3, 2.0479383e+2, -930524.6, -1021701.4, 1057.1544, -0.0021183821, -0.006653845, -930512.4, 2507.3694 
1.455525e+3, 2.1478567e+2, -834570.1, -924722.25, 1008.5757, -0.000670551, -0.011028673, -834558.8, 540.8829 
1.4555098e+3, 2.2477695e+2, -746763.75, -844714.7, 964.71564, -0.0005588563, -0.01080745, -746754.25, -9569.245 
1.4554945e+3, 2.347677e+2, -650547.25, -747552.4, 1089.1561, -0.0017714722, -0.0076397103, -650535.06, -11259.373 
1.4554793e+3, 2.4475777e+2, -563596.9, -669354.8, 965.83344, -0.0022705842, -0.0070051323, -563588.06, -22215.102 
1.4554639e+3, 2.5474715e+2, -467691.88, -572354.5, 869.783, -0.0019969426, -0.011270951, -467684.66, -24207.611 
1.4554486e+3, 2.64736e+2, -379979.47, -492582.34, 670.3452, -0.002039326, -0.010911882, -379975.47, -34388.965 
1.4554332e+3, 2.7472425e+2, -283676.16, -395290.1, 771.301, -0.002589056, -0.007734392, -283670.8, -35969.4 
1.4554177e+3, 2.847118e+2, -197040.45, -317839.9, 418.136, -0.0031138072, -0.0067204772, -197039.0, -47215.824 
1.4554022e+3, 2.946987e+2, -101104.9, -220751.5, 400.07825, -0.0036218204, -0.010673415, -101103.56, -49151.625 
1.4553867e+3, 3.0468854e+2, -12538.849, -86404.56, 42.72496, -0.003767752, -0.010146616, -12538.823, -12538.823 
1.4553711e+3, 3.146814e+2, -14267.681, -86954.766, -5.624186, -0.0038357016, -0.007413277, -14267.681, -14267.681 
1.4656678e+3, 1.248521e+2, -1663290.9, -1724755.5, 535.28467, 0.0006036613, -0.012015157, -1663286.1, 53162.49 
1.4656523e+3, 1.3484895e+2, -1568524.4, -1630078.6, 807.6266, 0.0015203069, 0.0014737701, -1568513.9, 49965.53 
1.4656368e+3, 1.448449e+2, -1480629.6, -1549461.6, 1023.924, 0.002049339, -0.019536806, -1480614.4, 39904.652 
1.4656213e+3, 1.5484063e+2, -1384900.6, -1452621.4, 956.9791, -0.0003492431, -0.008544145, -1384887.1, 37673.805 
1.4656058e+3, 1.6483566e+2, -1297646.5, -1373841.6, 1191.7968, -0.00078316015, -0.004587052, -1297627.9, 26981.826 
1.4655904e+3, 1.7482997e+2, -1201113.3, -1276621.8, 1432.4547, 0.0010582983, -0.010055747, -1201086.1, 25579.328 
1.4655751e+3, 1.8482374e+2, -1113289.5, -1196740.8, 1672.9308, 0.00089465367, -0.010601291, -1113256.0, 15470.64 
1.4655598e+3, 1.9481695e+2, -1017586.94, -1099914.8, 1483.5208, -0.001514389, -0.007861041, -1017560.25, 13232.928 
1.4655443e+3, 2.0480947e+2, -930589.7, -1021420.44, 1479.3624, -0.002062902, -0.007045421, -930565.6, 2300.576 
1.4655288e+3, 2.1480136e+2, -834353.9, -924296.3, 1729.0873, -0.0006754773, -0.010458102, -834320.6, 625.1385 
1.4655134e+3, 2.2479267e+2, -746628.8, -844680.0, 1736.6256, -0.0005672417, -0.010047446, -746598.06, -9567.092 
1.465498e+3, 2.3478341e+2, -650488.7, -747566.0, 1605.0673, -0.0017152709, -0.007430975, -650462.1, -11340.429 
1.4654827e+3, 2.4477348e+2, -563292.6, -669040.25, 1437.1268, -0.0022293197, -0.0069028153, -563273.1, -22054.162 
1.4654672e+3, 2.547629e+2, -467046.1, -571864.06, 1589.7542, -0.0020480303, -0.010777005, -467021.97, -23699.15 
1.4654517e+3, 2.6475173e+2, -379365.44, -492294.84, 1419.7605, -0.0021053513, -0.010410831, -379347.6, -33915.37 
1.4654362e+3, 2.7473998e+2, -283235.47, -395086.2, 1265.8817, -0.0025286258, -0.007672406, -283221.16, -35673.977 
1.4654207e+3, 2.8472757e+2, -196411.8, -317344.72, 841.4431, -0.0029279685, -0.0066941045, -196405.94, -46737.1 
1.4654051e+3, 2.9471448e+2, -100106.0, -220054.66, 1007.8682, -0.003463197, -0.010225327, -100097.54, -48300.176 
1.4653894e+3, 3.047043e+2, -11841.152, -86378.766, 695.99475, -0.0037246558, -0.009737655, -11834.654, -11834.654 
1.4653736e+3, 3.1469715e+2, -13812.107, -87076.17, 471.55624, -0.003742787, -0.0072967745, -13809.072, -13809.072 
1.4756729e+3, 1.24867715e+2, -1663041.3, -1724159.4, -1.8229802, 0.0031527465, -0.012549947, -1663041.3, 53254.434 
1.4756571e+3, 1.3486467e+2, -1567950.9, -1628786.0, 265.08005, -0.00033024573, 0.001689668, -1567949.6, 50375.71 
1.4756414e+3, 1.448607e+2, -1480823.0, -1549752.9, 449.01163, -0.0002703102, -0.015485954, -1480820.1, 39544.188 
1.4756258e+3, 1.5485635e+2, -1385049.1, -1452902.8, 401.5822, 0.001530265, -0.010495886, -1385046.8, 37360.17 
1.4756103e+3, 1.648514e+2, -1297187.3, -1372861.8, 835.80927, 0.0012390079, -0.0068920697, -1297178.0, 27277.559 
1.4755948e+3, 1.7484583e+2, -1200698.5, -1275646.4, 1065.378, -0.0011551555, -0.0069074356, -1200683.4, 25826.773 
1.4755793e+3, 1.848396e+2, -1113686.9, -1197435.8, 1088.332, -0.0015337468, -0.007363869, -1113672.8, 14898.401 
1.4755638e+3, 1.948327e+2, -1017950.2, -1100623.8, 919.06055, 0.00015833022, -0.010311673, -1017939.94, 12698.768 
1.4755481e+3, 2.0482525e+2, -930132.7, -1020475.06, 1045.734, 0.00021058164, -0.009666238, -930120.6, 2591.109 
1.4755327e+3, 2.1481726e+2, -833886.5, -923323.44, 1271.4196, -0.0015360408, -0.0071910974, -833868.44, 921.65186 
1.4755172e+3, 2.2480859e+2, -746863.6, -845157.9, 1241.6152, -0.0021150927, -0.0065334933, -746847.94, -9972.913 
1.4755017e+3, 2.3479922e+2, -650746.6, -748091.8, 1128.4971, -0.0013286043, -0.009881398, -650733.5, -11766.808 
1.475486e+3, 2.447893e+2, -562980.94, -668380.8, 984.6937, -0.0014057282, -0.00946965, -562971.75, -21907.777 
1.4754705e+3, 2.5477883e+2, -466723.94, -571171.5, 1127.8873, -0.0025100552, -0.007001486, -466711.75, -23545.01 
1.475455e+3, 2.6476768e+2, -379591.25, -492748.5, 907.9304, -0.0029704988, -0.0063475347, -379583.97, -34307.94 
1.4754392e+3, 2.7475584e+2, -283466.28, -395568.03, 778.47815, -0.0027235865, -0.010330853, -283460.88, -36068.953 
1.4754236e+3, 2.847434e+2, -196111.17, -316727.63, 401.62802, -0.0024424724, -0.01014357, -196109.84, -46596.188 
1.4754078e+3, 2.947304e+2, -99776.52, -219390.38, 566.51, -0.0025586998, -0.00744788, -99773.84, -48132.703 
1.475392e+3, 3.0472028e+2, -12115.538, -87012.28, 185.98349, -0.0033950636, -0.006445383, -12115.076, -12115.076 
1.475376e+3, 3.1471297e+2, -14122.828, -87793.76, -26.094433, -0.004628326, -0.010242933, -14122.818, -14122.818 
1.4856778e+3, 1.2488355e+2, -1663437.8, -1724476.5, 845.0908, 0.002817439, -0.011902323, -1663426.0, 52714.516 
1.485662e+3, 1.3488051e+2, -1568412.9, -1628736.3, 690.1386, -0.000052328265, -0.000167697, -1568405.0, 49765.332 
1.4856462e+3, 1.4487658e+2, -1481083.3, -1549642.9, 909.7805, -0.000003634089, -0.013600746, -1481071.1, 39137.438 
1.4856304e+3, 1.5487225e+2, -1384533.4, -1452419.1, 1110.1023, 0.0013881306, -0.009615184, -1384515.1, 37736.004 
1.4856148e+3, 1.648673e+2, -1296767.9, -1372511.4, 1440.9736, 0.0010250808, -0.0067855716, -1296740.5, 27559.19 
1.4855991e+3, 1.7486174e+2, -1201199.0, -1275743.5, 1319.2974, -0.0010927132, -0.007215203, -1201175.6, 25178.48 
1.4855835e+3, 1.8485554e+2, -1114259.1, -1197485.0, 1397.0353, -0.0014070161, -0.0074171214, -1114235.6, 14179.359 
1.4855677e+3, 1.9484866e+2, -1017783.8, -1100316.0, 1658.7979, 0.00012830917, -0.009493117, -1017750.5, 12731.765 
1.4855522e+3, 2.0484123e+2, -929753.0, -1020279.9, 1813.26, 0.0001427259, -0.0088690985, -929716.7, 2838.454 
1.4855365e+3, 2.1483321e+2, -833645.06, -923202.8, 1615.248, -0.0014404529, -0.007125771, -833615.94, 1017.655 
1.4855209e+3, 2.2482456e+2, -746537.9, -844795.4, 1528.7101, -0.0020128097, -0.0066335793, -746514.06, -9795.591 
1.4855053e+3, 2.3481523e+2, -650317.9, -747674.06, 1774.8107, -0.0014799315, -0.0097208815, -650285.56, -11475.607 
1.4854895e+3, 2.4480532e+2, -562642.5, -668160.8, 1688.3242, -0.0015540068, -0.0092072785, -562615.5, -21708.457 
1.4854738e+3, 2.5479484e+2, -466453.88, -570983.4, 1549.632, -0.0023611789, -0.0067245485, -466430.9, -23421.09 
1.4854582e+3, 2.6478368e+2, -379240.6, -492505.8, 1298.5167, -0.002819941, -0.0060147243, -379225.72, -34106.67 
1.4854422e+3, 2.7477187e+2, -282897.03, -395211.7, 1425.3076, -0.0028522904, -0.009813813, -282878.94, -35644.09 
1.4854266e+3, 2.8475946e+2, -195515.84, -316446.6, 1041.4128, -0.0026936994, -0.0097651305, -195506.88, -46150.344 
1.4854106e+3, 2.9474643e+2, -99272.08, -219155.64, 869.53864, -0.002654576, -0.0074727302, -99265.766, -47781.707 
1.4853947e+3, 3.047363e+2, -11626.873, -86873.37, 413.84097, -0.0033271273, -0.0064691254, -11624.598, -11624.598 
1.4853786e+3, 3.14729e+2, -13441.632, -87575.09, 475.70193, -0.0042907577, -0.00986661, -13438.58, -13438.58 
1.4956827e+3, 1.2489959e+2, -1663923.0, -1725320.9, 190.12083, 0.000015766036, -0.008232649, -1663922.4, 52060.836 
1.4956668e+3, 1.3489646e+2, -1568633.0, -1629158.9, 75.750824, 0.0018475923, -0.0036371665, -1568632.9, 49381.14 
1.4956509e+3, 1.4489259e+2, -1480740.0, -1548897.5, 563.2169, 0.0022226963, -0.013391028, -1480735.3, 39316.598 
1.495635e+3, 1.5488832e+2, -1384262.3, -1451707.4, 751.88873, -0.00041389794, -0.006532357, -1384253.9, 37839.78 
1.4956193e+3, 1.6488338e+2, -1297082.9, -1373003.4, 828.05646, -0.0009792675, -0.0047882674, -1297073.9, 27068.338 
1.4956033e+3, 1.7487773e+2, -1201451.6, -1276220.4, 725.483, 0.0007563938, -0.010281366, -1201444.6, 24752.834 
1.4955877e+3, 1.8487155e+2, -1113752.9, -1196421.5, 1031.5079, 0.0006790437, -0.010077595, -1113740.0, 14518.047 
1.4955719e+3, 1.9486482e+2, -1017287.1, -1099225.5, 1279.9895, -0.0013743358, -0.006040092, -1017267.1, 13056.894 
1.4955561e+3, 2.048574e+2, -930157.7, -1021041.06, 1318.753, -0.0018734778, -0.005315943, -930138.56, 2258.1804 
1.4955403e+3, 2.1484928e+2, -834049.2, -923989.0, 1144.5807, -0.0006112394, -0.009724281, -834034.6, 441.6828 
1.4955245e+3, 2.2484061e+2, -746132.4, -843915.44, 1087.2474, -0.00063905766, -0.009693986, -746120.25, -9559.032 
1.4955088e+3, 2.348314e+2, -649888.0, -746748.1, 1318.195, -0.0021746745, -0.007398137, -649870.06, -11218.5 
1.4954929e+3, 2.448215e+2, -562856.5, -668582.3, 1200.1761, -0.002567684, -0.006650507, -562842.9, -22094.438 
1.4954771e+3, 2.5481093e+2, -466666.4, -571425.44, 1081.9556, -0.00173551, -0.009457583, -466655.22, -23803.234 
1.4954613e+3, 2.647998e+2, -378965.25, -491940.53, 861.63837, -0.0018696741, -0.008775082, -378958.7, -33997.477 
1.4954454e+3, 2.7478808e+2, -282610.34, -394620.03, 987.2819, -0.0030292035, -0.0066362913, -282601.63, -35525.57 
1.4954294e+3, 2.8477567e+2, -195787.47, -317024.0, 568.15686, -0.0036414173, -0.0061854296, -195784.8, -46587.09 
1.4954135e+3, 2.9476255e+2, -99543.38, -219762.48, 413.1886, -0.003692209, -0.009901604, -99541.97, -48215.723 
1.4953974e+3, 3.0475238e+2, -11379.139, -86434.81, -29.417715, -0.003622151, -0.009291926, -11379.127, -11379.127 
1.4953813e+3, 3.147452e+2, -13167.629, -87105.12, 45.22228, -0.0032261943, -0.0065771113, -13167.601, -13167.601 
1.5056877e+3, 1.249157e+2, -1664776.4, -1725554.5, 428.3342, 0.0005918635, -0.008125109, -1664773.4, 51052.086 
1.5056716e+3, 1.3491257e+2, -1568259.4, -1628613.8, 718.83545, 0.0015901368, -0.004797763, -1568250.9, 49605.227 
1.5056556e+3, 1.4490877e+2, -1480421.0, -1548590.6, 1217.6821, 0.0017073184, -0.011497496, -1480399.3, 39494.16 
1.5056397e+3, 1.549045e+2, -1384933.6, -1451881.5, 1157.6073, -0.00030017892, -0.0064091445, -1384913.5, 37021.67 
1.5056236e+3, 1.6489956e+2, -1297774.6, -1373224.8, 1291.6993, -0.0007163617, -0.0050773295, -1297752.5, 26231.113 
1.5056078e+3, 1.7489393e+2, -1201119.8, -1275947.9, 1450.6271, 0.0006852869, -0.009517055, -1201091.8, 24947.047 
1.5055919e+3, 1.8488775e+2, -1113094.0, -1195911.3, 1713.5393, 0.0005700667, -0.009323909, -1113058.6, 15040.647 
1.5055759e+3, 1.9488104e+2, -1017149.25, -1098956.8, 1602.4512, -0.0012075754, -0.006296073, -1017117.9, 13047.209 
1.5055601e+3, 2.0487362e+2, -930247.25, -1020911.6, 1655.1151, -0.0016989175, -0.005626471, -930217.06, 2020.6276 
1.5055442e+3, 2.1486554e+2, -833981.0, -923792.2, 1911.9353, -0.00077739445, -0.009199982, -833940.3, 376.73676 
1.5055284e+3, 2.2485688e+2, -745999.8, -843776.3, 1913.7283, -0.00081370387, -0.00897717, -745962.4, -9560.538 
1.5055123e+3, 2.3484766e+2, -649719.5, -746580.7, 1774.2854, -0.002038339, -0.00706911, -649687.0, -11194.917 
1.5054965e+3, 2.4483779e+2, -562514.9, -668307.56, 1605.4337, -0.0024299116, -0.0064806347, -562490.5, -21901.555 
1.5054804e+3, 2.5482723e+2, -466040.63, -571015.1, 1751.9756, -0.0018320602, -0.009188441, -466011.4, -23319.0 
1.5054645e+3, 2.648161e+2, -378273.56, -491564.06, 1529.7911, -0.0019595006, -0.008549154, -378252.9, -33451.35 
1.5054485e+3, 2.7480438e+2, -281984.06, -394274.38, 1405.5371, -0.0028199817, -0.006546847, -281966.47, -35050.08 
1.5054324e+3, 2.8479198e+2, -195100.78, -316602.34, 1014.8562, -0.0033607848, -0.0060051503, -195092.31, -46054.34 
1.5054163e+3, 2.9477888e+2, -98710.98, -219256.05, 1195.1334, -0.0035723404, -0.00930713, -98699.13, -47532.758 
1.5054001e+3, 3.047687e+2, -10728.52, -86366.914, 726.72174, -0.003602996, -0.008718554, -10721.538, -10721.538 
1.5053838e+3, 3.1476146e+2, -12471.126, -87023.805, 402.1006, -0.0032133907, -0.0064414507, -12468.957, -12468.957 
1.5156926e+3, 1.2493188e+2, -1664271.6, -1724498.4, 106.83677, 0.0035150978, -0.008966399, -1664271.5, 51395.426 
1.5156765e+3, 1.3492887e+2, -1567779.5, -1627472.5, 383.73322, -0.00041966574, -0.004232271, -1567777.0, 49919.49 
1.5156603e+3, 1.449251e+2, -1480647.1, -1548886.6, 574.2391, -0.0009452503, -0.008353773, -1480642.3, 39091.05 
1.5156442e+3, 1.5492076e+2, -1385072.1, -1452136.1, 535.0118, 0.0012708511, -0.008642052, -1385067.9, 36707.938 
1.5156281e+3, 1.6491583e+2, -1297485.1, -1372609.0, 961.1666, 0.0012500675, -0.0071604867, -1297472.9, 26351.244 
1.515612e+3, 1.749103e+2, -1200887.6, -1275354.6, 1116.2522, -0.0009606636, -0.0057259086, -1200871.0, 25007.277 
1.515596e+3, 1.8490414e+2, -1113378.8, -1196359.1, 1189.7577, -0.0013151611, -0.005881382, -1113361.6, 14577.009 
1.51558e+3, 1.9489732e+2, -1017406.56, -1099398.9, 1094.4194, 0.0002628027, -0.009553091, -1017392.0, 12613.497 
1.515564e+3, 2.0488994e+2, -929803.25, -1019928.2, 1219.6005, 0.00017821795, -0.009007373, -929786.75, 2291.125 
1.515548e+3, 2.1488197e+2, -833535.2, -922813.0, 1455.7875, -0.0018097344, -0.00610698, -833511.44, 644.4784 
1.515532e+3, 2.2487335e+2, -746297.44, -844343.56, 1451.7014, -0.0022864281, -0.0051951515, -746276.0, -10035.463 
1.515516e+3, 2.3486404e+2, -650024.5, -747168.1, 1331.9799, -0.0012478445, -0.008428166, -650006.25, -11674.588 
1.5155e+3, 2.4485415e+2, -562251.7, -667709.56, 1206.063, -0.0014001265, -0.008213963, -562237.94, -21809.387 
1.5154839e+3, 2.5484368e+2, -465789.72, -570415.8, 1347.3323, -0.0026626035, -0.0063856207, -465772.38, -23241.244 
1.5154678e+3, 2.6483256e+2, -378497.7, -491969.0, 1053.3768, -0.0029933886, -0.0058706007, -378487.9, -33847.69 
1.5154517e+3, 2.7482077e+2, -282186.3, -394686.03, 950.12494, -0.0023445685, -0.009093536, -282178.28, -35422.445 
1.5154354e+3, 2.8480834e+2, -194737.67, -315852.25, 581.4438, -0.0021480406, -0.008592949, -194734.88, -45857.555 
1.5154192e+3, 2.947954e+2, -98322.484, -218468.7, 755.49445, -0.0025831142, -0.006061522, -98317.734, -47313.08 
1.5154028e+3, 3.047852e+2, -11173.72, -87363.89, 253.46191, -0.0034416595, -0.005194237, -11172.876, -11172.876 
1.5153864e+3, 3.1477782e+2, -12934.375, -88066.64, -47.0003, -0.0045246272, -0.00905139, -12934.346, -12934.346 
1.5256976e+3, 1.2494824e+2, -1664088.3, -1724284.0, 773.9587, 0.0029095632, -0.008163237, -1664078.4, 51428.215 
1.5256813e+3, 1.3494521e+2, -1568704.6, -1627738.4, 640.7494, -0.000008241187, -0.005228659, -1568697.6, 48838.504 
1.5256651e+3, 1.4494151e+2, -1481446.1, -1549000.9, 820.3223, -0.0004940174, -0.0074062515, -1481436.1, 38136.41 
1.5256488e+3, 1.5493718e+2, -1384584.8, -1451629.1, 1039.2174, 0.0010926579, -0.008406952, -1384568.6, 37046.273 
1.5256326e+3, 1.6493227e+2, -1296844.3, -1372121.4, 1468.7203, 0.0010139135, -0.007249973, -1296815.5, 26847.498 
1.5256163e+3, 1.7492677e+2, -1201146.8, -1275301.8, 1457.0524, -0.0007206253, -0.0057132686, -1201118.1, 24598.893 
1.5256003e+3, 1.8492061e+2, -1113897.0, -1196492.5, 1585.9451, -0.0010913471, -0.00564588, -1113866.6, 13910.731 
1.5255842e+3, 1.949138e+2, -1017444.9, -1099308.8, 1736.8097, -0.000005707591, -0.008955749, -1017408.06, 12435.926 
1.5255679e+3, 2.0490643e+2, -929524.0, -1019651.3, 1824.2574, -0.00008188843, -0.008428749, -929487.06, 2429.188 
1.5255518e+3, 2.1489848e+2, -833155.1, -922488.0, 1690.8644, -0.0015769941, -0.0059923427, -833123.1, 871.1037 
1.5255356e+3, 2.2488986e+2, -745809.25, -843934.3, 1672.3041, -0.0019799245, -0.0052917036, -745780.75, -9702.068 
1.5255195e+3, 2.3488057e+2, -649501.4, -746754.3, 1896.1338, -0.0012919494, -0.008237015, -649464.44, -11294.7295 
1.5255034e+3, 2.4487069e+2, -561894.0, -667484.9, 1825.8391, -0.0015322822, -0.007832023, -561862.44, -21595.945 
1.5254872e+3, 2.5486022e+2, -465643.13, -570289.9, 1716.3973, -0.002603752, -0.006076036, -465614.97, -23245.932 
1.5254709e+3, 2.6484913e+2, -378224.44, -491695.7, 1452.2906, -0.002935376, -0.0056839664, -378205.84, -33727.81 
1.5254547e+3, 2.7483732e+2, -281540.63, -394231.66, 1613.3987, -0.0024438526, -0.00894226, -281517.53, -34924.0 
1.5254384e+3, 2.848249e+2, -193920.92, -315372.1, 1207.2947, -0.0022912687, -0.008554376, -193908.92, -45193.97 
1.525422e+3, 2.9481196e+2, -97464.625, -217967.27, 1057.7892, -0.00256591, -0.0061794096, -97455.34, -46613.113 
1.5254056e+3, 3.0480176e+2, -10434.455, -87302.34, 537.39685, -0.0033077165, -0.0051745335, -10430.698, -10430.698 
1.5253891e+3, 3.1479436e+2, -12047.85, -87935.19, 568.29346, -0.004318672, -0.008476621, -12043.594, -12043.594 
1.5357025e+3, 1.2496478e+2, -1664466.9, -1724875.8, 113.05551, -0.00058647274, -0.005519483, -1664466.8, 50877.79 
1.5356861e+3, 1.3496166e+2, -1568960.1, -1628236.4, 24.300507, 0.0022355705, -0.007459979, -1568960.1, 48414.793 
1.5356697e+3, 1.4495799e+2, -1481064.1, -1548183.8, 559.79706, 0.002299966, -0.008158761, -1481059.5, 38351.59 
1.5356533e+3, 1.5495375e+2, -1384292.6, -1450860.4, 761.47034, -0.000521776, -0.006285654, -1384284.0, 37168.66 
1.535637e+3, 1.6494885e+2, -1296999.0, -1372254.6, 883.63074, -0.0009746545, -0.0058036763, -1296988.6, 26511.984 
1.5356207e+3, 1.749433e+2, -1201233.3, -1275406.4, 887.4902, 0.0009730981, -0.008698048, -1201222.6, 24332.34 
1.5356043e+3, 1.8493716e+2, -1113637.4, -1195908.0, 1200.247, 0.00072511646, -0.007913854, -1113619.9, 13995.243 
1.5355882e+3, 1.9493046e+2, -1017222.56, -1098757.1, 1339.6606, -0.0017426431, -0.0052728946, -1017200.56, 12480.229 
1.535572e+3, 2.049231e+2, -929832.0, -1020166.94, 1402.228, -0.0021024037, -0.004700835, -929810.2, 1942.8519 
1.5355557e+3, 2.1491504e+2, -833465.06, -922992.56, 1292.2633, -0.0003524016, -0.008342958, -833446.4, 385.51767 
1.5355395e+3, 2.2490643e+2, -745486.9, -843126.9, 1246.7201, -0.00029154032, -0.008500001, -745470.94, -9554.617 
1.5355232e+3, 2.3489724e+2, -649163.9, -745942.3, 1451.1954, -0.0021082333, -0.00677719, -649142.1, -11135.832 
1.5355068e+3, 2.448874e+2, -562134.8, -667907.25, 1345.9602, -0.0026812062, -0.0057954784, -562117.7, -22014.842 
1.5354906e+3, 2.5487685e+2, -465849.94, -570690.44, 1259.2394, -0.0018731168, -0.007890136, -465834.8, -23628.723 
1.5354742e+3, 2.6486576e+2, -377912.38, -491028.4, 1084.4634, -0.00203319, -0.0074597974, -377902.0, -33586.984 
1.5354578e+3, 2.7485403e+2, -281239.84, -393565.88, 1241.5771, -0.0031283053, -0.0064908066, -281226.13, -34796.47 
1.5354414e+3, 2.848417e+2, -194162.61, -315845.72, 760.9519, -0.003647604, -0.0063600307, -194157.86, -45606.844 
1.5354249e+3, 2.948286e+2, -97682.87, -218441.8, 628.6579, -0.003466626, -0.009212473, -97679.59, -47000.477 
1.5354085e+3, 3.048184e+2, -10266.244, -87021.83, 119.81054, -0.0033286135, -0.008083445, -10266.057, -10266.057 
1.5353917e+3, 3.148111e+2, -11850.98, -87612.055, 173.55142, -0.0031949678, -0.0052010277, -11850.582, -11850.582 
1.5457074e+3, 1.2498138e+2, -1665268.5, -1724976.6, 402.30396, 0.00009002317, -0.00545477, -1665265.8, 49916.05 
1.5456907e+3, 1.3497831e+2, -1568531.6, -1627730.5, 686.2405, 0.0018994577, -0.0075406395, -1568523.8, 48688.297 
1.5456744e+3, 1.4497463e+2, -1480765.4, -1547948.9, 1236.1454, 0.0017782989, -0.007254542, -1480742.6, 38505.313 
1.5456578e+3, 1.5497041e+2, -1385205.6, -1451223.3, 1130.2007, -0.0002498446, -0.0058073876, -1385186.3, 36103.137 
1.5456414e+3, 1.6496553e+2, -1297840.9, -1372387.9, 1247.4196, -0.0006512381, -0.005552482, -1297820.0, 25517.191 
1.545625e+3, 1.7495999e+2, -1200958.0, -1275001.3, 1441.2073, 0.000553905, -0.008491173, -1200930.0, 24461.45 
1.5456085e+3, 1.8495388e+2, -1113053.0, -1195530.3, 1724.042, 0.00035500716, -0.007735969, -1113017.0, 14434.304 
1.5455921e+3, 1.9494718e+2, -1016914.56, -1098517.0, 1656.3298, -0.0012931465, -0.0050952123, -1016880.94, 12636.039 
1.5455759e+3, 2.0493981e+2, -929665.9, -1019879.7, 1766.6995, -0.0016627264, -0.00456741, -929631.25, 1957.8536 
1.5455595e+3, 2.1493179e+2, -833522.5, -922813.7, 1991.1708, -0.0006626875, -0.008125322, -833478.1, 189.67628 
1.5455431e+3, 2.249232e+2, -745635.94, -843161.8, 1974.7175, -0.000718285, -0.008165949, -745596.0, -9843.883 
1.5455267e+3, 2.3491402e+2, -649033.5, -745852.94, 1808.4048, -0.0020496887, -0.0065402086, -648999.75, -11157.709 
1.5455104e+3, 2.4490416e+2, -561594.06, -667410.75, 1658.8385, -0.0024286122, -0.005715435, -561568.06, -21629.549 
1.5454939e+3, 2.5489366e+2, -465015.2, -570044.75, 1893.9363, -0.0017211997, -0.007778352, -464981.06, -22939.527 
1.5454775e+3, 2.6488253e+2, -377213.5, -490689.6, 1731.8147, -0.0019341395, -0.007233881, -377187.06, -33036.734 
1.5454611e+3, 2.7487084e+2, -280861.38, -393382.22, 1571.2704, -0.0030010045, -0.0060783555, -280839.44, -34574.453 
1.5454444e+3, 2.8485847e+2, -193746.75, -315595.97, 1093.7206, -0.003623756, -0.005883115, -193736.94, -45350.605 
1.545428e+3, 2.948454e+2, -96919.06, -218013.75, 1215.3672, -0.0035755043, -0.008845064, -96906.86, -46392.47 
1.5454112e+3, 3.048352e+2, -9412.175, -86786.805, 674.4655, -0.0033859028, -0.0081441365, -9406.296, -9406.296 
1.5453945e+3, 3.148279e+2, -10898.581, -87321.64, 436.8651, -0.0031434465, -0.005733152, -10896.084, -10896.084 
1.5557122e+3, 1.2499807e+2, -1664797.4, -1723929.5, 104.141396, 0.0037282214, -0.0073093995, -1664797.3, 50221.12 
1.5556955e+3, 1.3499509e+2, -1568112.1, -1626708.1, 366.5054, -0.0005265333, -0.0059853266, -1568109.9, 48937.6 
1.555679e+3, 1.4499146e+2, -1481069.3, -1548427.4, 607.2497, -0.0013417895, -0.005093582, -1481063.8, 38019.367 
1.5556623e+3, 1.5498717e+2, -1385432.3, -1451677.9, 533.27155, 0.0014307043, -0.0066474276, -1385428.0, 35697.215 
1.5556458e+3, 1.6498229e+2, -1297501.1, -1371682.1, 982.43274, 0.0013922728, -0.006226731, -1297488.1, 25684.871 
1.5556292e+3, 1.7497684e+2, -1200695.1, -1274339.3, 1155.5328, -0.0015812018, -0.0057929275, -1200677.0, 24549.31 
1.5556128e+3, 1.8497074e+2, -1113286.9, -1195838.3, 1245.8053, -0.0017700251, -0.005671586, -1113268.1, 14018.106 
1.5555963e+3, 1.9496398e+2, -1017130.56, -1098811.6, 1204.5529, 0.00084635644, -0.007739302, -1017112.8, 12239.628 
1.5555799e+3, 2.0495664e+2, -929324.06, -1019043.2, 1291.0973, 0.00066304894, -0.0072429916, -929305.5, 2118.913 
1.5555632e+3, 2.1494871e+2, -833163.4, -921982.1, 1493.914, -0.0022693027, -0.0058217803, -833138.25, 363.7085 
1.5555468e+3, 2.2494012e+2, -745993.3, -843815.2, 1586.6262, -0.002897727, -0.0049969517, -745967.56, -10381.436 
1.5555304e+3, 2.3493086e+2, -649415.1, -746522.8, 1443.8434, -0.0013424163, -0.0072605098, -649393.7, -11716.756 
1.5555139e+3, 2.4492101e+2, -561243.7, -666556.2, 1265.9974, -0.0011123277, -0.0070465896, -561228.44, -21455.105 
1.5554973e+3, 2.549106e+2, -464659.53, -569186.25, 1486.9944, -0.0021575214, -0.0060346527, -464638.38, -22762.922 
1.5554808e+3, 2.648995e+2, -377542.63, -491291.28, 1253.291, -0.0025531964, -0.0054148133, -377528.8, -33544.67 
1.5554643e+3, 2.7488774e+2, -281150.88, -393967.8, 1111.7224, -0.0022936754, -0.0074097803, -281139.9, -35040.406 
1.5554476e+3, 2.8487536e+2, -193488.7, -315053.2, 752.79443, -0.002576617, -0.006694269, -193484.03, -45263.195 
1.5554309e+3, 2.9486236e+2, -96660.65, -217457.84, 882.78687, -0.0031454216, -0.0054594665, -96654.195, -46306.063 
1.5554142e+3, 3.0485213e+2, -9749.729, -87500.41, 285.01657, -0.0035841332, -0.005722772, -9748.684, -9748.684 
1.5553972e+3, 3.1484473e+2, -11241.721, -88047.17, 59.6752, -0.0043423767, -0.009448435, -11241.674, -11241.674 
1.565717e+3, 1.250149e+2, -1664869.0, -1723811.5, 704.28424, 0.0028458848, -0.007118726, -1664860.6, 49992.74 
1.5657003e+3, 1.3501194e+2, -1568978.4, -1626990.9, 590.38794, -0.00009186472, -0.0058389762, -1568972.4, 47909.92 
1.5656835e+3, 1.4500833e+2, -1481609.9, -1548390.4, 819.2674, -0.0007638177, -0.0049828584, -1481599.9, 37317.957 
1.565667e+3, 1.5500405e+2, -1384740.3, -1451053.3, 1091.432, 0.0011139414, -0.0065882127, -1384722.3, 36237.36 
1.5656501e+3, 1.649992e+2, -1296876.1, -1371409.1, 1555.0302, 0.0010437353, -0.006085921, -1296843.6, 26163.613 
1.5656336e+3, 1.7499375e+2, -1201041.6, -1274541.6, 1400.2808, -0.0011200121, -0.0054250625, -1201014.9, 24045.744 
1.5656169e+3, 1.8498765e+2, -1113726.5, -1195730.1, 1488.2107, -0.0013323153, -0.0053317854, -1113699.5, 13420.83 
1.5656003e+3, 1.9498092e+2, -1017240.56, -1098531.6, 1745.7402, 0.00047999565, -0.0075743506, -1017203.06, 11983.275 
1.5655838e+3, 2.0497361e+2, -929241.8, -1018997.44, 1814.4667, 0.000298424, -0.0071214535, -929205.2, 2052.9788 
1.5655671e+3, 2.1496569e+2, -832561.6, -921703.5, 1637.4645, -0.0018957349, -0.005607813, -832531.56, 804.19574 
1.5655506e+3, 2.2495711e+2, -745152.2, -843136.6, 1718.1108, -0.0023948536, -0.0047386573, -745122.06, -9702.281 
1.5655339e+3, 2.3494786e+2, -649034.25, -746068.3, 2022.6444, -0.0012757966, -0.0070131198, -648992.06, -11481.761 
1.5655173e+3, 2.4493803e+2, -561229.75, -666590.0, 1918.1104, -0.0013083476, -0.006838261, -561194.8, -21588.152 
1.5655008e+3, 2.549276e+2, -464571.0, -569197.25, 1698.7598, -0.0023982248, -0.0058522304, -464543.44, -22834.613 
1.5654841e+3, 2.6491654e+2, -377054.44, -490858.56, 1431.8105, -0.0026706255, -0.0052742553, -377036.44, -33218.965 
1.5654674e+3, 2.7490476e+2, -280196.0, -393301.16, 1669.8538, -0.0021686764, -0.0073338253, -280171.34, -34238.703 
1.5654507e+3, 2.8489238e+2, -192466.69, -314468.72, 1412.0172, -0.0023767478, -0.0066432348, -192450.34, -44396.492 
1.5654339e+3, 2.9487944e+2, -95873.32, -216975.25, 1321.8625, -0.0029565198, -0.005342559, -95858.89, -45677.836 
1.565417e+3, 3.048692e+2, -9134.582, -87437.11, 754.0437, -0.0034319651, -0.004767653, -9127.321, -9127.321 
1.5654e+3, 3.1486174e+2, -10194.384, -87780.89, 716.6505, -0.004370824, -0.0069128238, -10187.765, -10187.765 
1.575722e+3, 1.250319e+2, -1665208.5, -1724319.6, 159.76698, -0.0016623698, -0.004900486, -1665208.0, 49478.766 
1.575705e+3, 1.3502888e+2, -1569243.1, -1627486.1, 79.55035, 0.0024836801, -0.006823936, -1569243.1, 47473.383 
1.5756881e+3, 1.4502527e+2, -1481140.4, -1547380.5, 552.9778, 0.0025909909, -0.00646133, -1481135.8, 37616.063 
1.5756713e+3, 1.550211e+2, -1384334.5, -1450076.5, 800.9938, -0.00083852897, -0.0058500664, -1384324.8, 36467.996 
1.5756546e+3, 1.6501625e+2, -1297277.5, -1372077.8, 995.0114, -0.0012065518, -0.0053265616, -1297264.3, 25575.986 
1.5756378e+3, 1.7501073e+2, -1201394.3, -1275187.9, 876.2131, 0.0013101347, -0.0069029247, -1201383.8, 23510.467 
1.575621e+3, 1.8500465e+2, -1113297.8, -1194782.4, 1125.1333, 0.0010054266, -0.006310802, -1113282.1, 13671.627 
1.5756044e+3, 1.9499801e+2, -1016825.0, -1097580.6, 1350.2262, -0.0019607954, -0.005218794, -1016802.44, 12216.405 
1.5755877e+3, 2.0499071e+2, -929659.75, -1019724.75, 1459.8727, -0.0022575872, -0.004817834, -929636.06, 1454.4615 
1.575571e+3, 2.149827e+2, -833021.25, -922473.94, 1317.3032, -0.00000064235354, -0.0070437538, -833001.9, 167.09854 
1.5755543e+3, 2.2497414e+2, -744690.75, -842009.75, 1229.7292, 0.00017682284, -0.0067067966, -744675.2, -9422.303 
1.5755376e+3, 2.3496501e+2, -648526.7, -744916.44, 1500.871, -0.0018213504, -0.006021304, -648503.4, -11161.019 
1.575521e+3, 2.4495518e+2, -561685.9, -667465.6, 1515.207, -0.0028050856, -0.0054751975, -561664.2, -22225.643 
1.5755041e+3, 2.5494468e+2, -465031.2, -570074.0, 1323.6117, -0.0026064888, -0.0069353404, -465014.5, -23472.988 
1.5754874e+3, 2.649336e+2, -376643.84, -489915.5, 1093.1948, -0.0025022104, -0.00633571, -376633.28, -32983.14 
1.5754707e+3, 2.7492192e+2, -279789.5, -392354.38, 1325.2826, -0.0026302836, -0.0060320906, -279773.9, -34009.5 
1.5754539e+3, 2.8490958e+2, -192650.48, -314766.47, 981.3231, -0.0029250574, -0.0059461673, -192642.6, -44757.152 
1.5754369e+3, 2.9489654e+2, -96015.63, -217246.63, 912.9727, -0.0030746493, -0.0080876425, -96008.76, -45995.586 
1.57542e+3, 3.0488634e+2, -9043.457, -87308.266, 462.81018, -0.0031281665, -0.0050753723, -9040.721, -9040.721 
1.5754029e+3, 3.14879e+2, -10075.341, -87639.27, 444.9069, -0.0038357077, 0.00072061084, -10072.788, -10072.788 
1.5857267e+3, 1.2504894e+2, -1665764.0, -1724241.0, 375.95868, -0.0007459979, -0.004509119, -1665761.5, 48758.28 
1.5857098e+3, 1.3504595e+2, -1569004.3, -1627039.8, 660.62036, 0.002016094, -0.006669952, -1568996.8, 47552.484 
1.5856928e+3, 1.4504236e+2, -1481093.6, -1547332.8, 1105.9508, 0.0019040799, -0.0064085852, -1481075.1, 37509.22 
1.5856758e+3, 1.550382e+2, -1385088.4, -1450425.1, 923.14655, -0.0005684637, -0.005697214, -1385075.4, 35549.895 
1.585659e+3, 1.6503336e+2, -1297749.5, -1371895.3, 1129.879, -0.0007945188, -0.0051133204, -1297732.4, 24940.244 
1.5856421e+3, 1.7502788e+2, -1201043.8, -1274606.4, 1503.9403, 0.0010969557, -0.006613852, -1201013.0, 23713.26 
1.5856253e+3, 1.8502182e+2, -1112928.9, -1194712.6, 1787.1241, 0.00073853985, -0.0060595954, -1112889.8, 13895.883 
1.5856084e+3, 1.9501516e+2, -1016579.7, -1097576.6, 1534.2698, -0.0017258972, -0.005112935, -1016550.6, 12300.198 
1.5855916e+3, 2.0500785e+2, -929402.3, -1019269.56, 1651.6238, -0.0020271498, -0.0046249116, -929371.94, 1550.4476 
1.5855749e+3, 2.149999e+2, -833183.7, -922215.44, 2011.498, -0.00024416426, -0.006622294, -833138.25, -137.75273 
1.585558e+3, 2.2499134e+2, -744965.0, -842215.25, 1935.2645, -0.0001526866, -0.0064504184, -744926.5, -9842.173 
1.5855412e+3, 2.3498219e+2, -648039.06, -744751.8, 1643.0867, -0.0018005137, -0.00606944, -648011.2, -10837.264 
1.5855244e+3, 2.449724e+2, -560766.1, -666768.94, 1614.8472, -0.002509208, -0.0053590257, -560741.56, -21471.533 
1.5855075e+3, 2.549619e+2, -464429.5, -569524.7, 1967.1052, -0.0021786178, -0.006342563, -464392.7, -23019.988 
1.5854907e+3, 2.6495084e+2, -376427.3, -489793.38, 1838.7769, -0.002292408, -0.0059626927, -376397.5, -32916.26 
1.5854739e+3, 2.7493918e+2, -279769.13, -392303.78, 1623.6494, -0.002924457, -0.0064829485, -279745.72, -34150.164 
1.5854569e+3, 2.8492686e+2, -192404.19, -314438.13, 1231.7435, -0.0032827922, -0.0057808487, -192391.75, -44675.36 
1.5854399e+3, 2.9491386e+2, -95242.49, -216652.28, 1414.8885, -0.0031005836, -0.0058957753, -95226.01, -45382.297 
1.5854229e+3, 3.049036e+2, -8077.7603, -87272.83, 1042.8274, -0.0030148888, -0.008194656, -8064.031, -8064.031 
1.5854059e+3, 3.1489608e+2, -8531.1455, -87283.32, 682.7779, -0.0035404663, -0.013069807, -8525.227, -8525.227 
1.5957314e+3, 1.2506606e+2, -1665221.0, -1723102.4, 84.85317, 0.004055889, -0.0055483114, -1665220.9, 49131.316 
1.5957144e+3, 1.3506316e+2, -1568534.9, -1625946.4, 335.59927, -0.00090783736, -0.005636435, -1568532.9, 47847.637 
1.5956973e+3, 1.4505959e+2, -1481549.8, -1548114.9, 588.8087, -0.0019347918, -0.0051510623, -1481544.5, 36871.11 
1.5956803e+3, 1.5505534e+2, -1385507.6, -1451197.0, 459.85306, 0.0013445996, -0.0060287537, -1385504.4, 34952.74 
1.5956633e+3, 1.6505054e+2, -1297094.4, -1370473.1, 829.8467, 0.0015782171, -0.0053069885, -1297085.0, 25419.242 
1.5956463e+3, 1.7504518e+2, -1200410.5, -1273195.5, 1160.3293, -0.0012488236, -0.005010523, -1200392.0, 24164.781 
1.5956295e+3, 1.8503912e+2, -1113494.0, -1195748.1, 1344.4233, -0.0016143827, -0.004900559, -1113472.1, 13144.002 
1.5956125e+3, 1.9503237e+2, -1017141.8, -1098626.3, 1132.1598, 0.0005389792, -0.0067722574, -1017126.06, 11556.091 
1.5955956e+3, 2.0502509e+2, -928805.06, -1017942.7, 1210.6786, 0.00028244173, -0.006025508, -928788.6, 1965.0219 
1.5955786e+3, 2.1501724e+2, -832550.5, -920848.94, 1525.5149, -0.0023057463, -0.004777275, -832524.2, 306.35562 
1.5955618e+3, 2.250087e+2, -745544.1, -843346.6, 1604.7351, -0.0028821493, -0.0044786064, -745517.8, -10603.553 
1.595545e+3, 2.3499945e+2, -648645.7, -745885.56, 1345.8438, -0.0014557963, -0.00683959, -648627.06, -11622.255 
1.595528e+3, 2.4498965e+2, -560205.8, -665478.06, 1148.6538, -0.00090944377, -0.0060121687, -560193.3, -21092.441 
1.595511e+3, 2.5497928e+2, -463843.8, -568223.25, 1472.9294, -0.0013380041, -0.0043621506, -463823.03, -22620.668 
1.5954942e+3, 2.6496822e+2, -376837.97, -490583.7, 1401.5936, -0.0020911838, -0.0044833776, -376820.7, -33509.93 
1.595477e+3, 2.749565e+2, -280163.13, -393063.84, 1205.9921, -0.003219675, -0.008403526, -280150.25, -34724.297 
1.59546e+3, 2.8494415e+2, -192075.27, -313678.34, 948.79565, -0.0036396382, -0.00588098, -192067.86, -44521.246 
1.5954432e+3, 2.949313e+2, -94935.48, -215907.64, 1147.5377, -0.0031910627, 0.00059130916, -94924.59, -45251.85 
1.595426e+3, 3.049209e+2, -8646.186, -88428.07, 920.2936, -0.0031594555, -0.013554913, -8635.571, -8635.571 
1.5954088e+3, 3.1491348e+2, -8784.676, -87888.914, 565.82806, -0.0038725124, -0.003044851, -8780.628, -8780.628 
1.6057363e+3, 1.2508331e+2, -1664994.1, -1722980.5, 678.5257, 0.0033917662, -0.005611507, -1664986.3, 49196.914 
1.605719e+3, 1.3508041e+2, -1569147.3, -1626243.4, 439.91196, -0.00035258458, -0.0052913795, -1569143.9, 47067.58 
1.6057019e+3, 1.4507686e+2, -1481974.6, -1547898.5, 749.7406, -0.0012414167, -0.0046550483, -1481966.1, 36280.24 
1.6056848e+3, 1.5507266e+2, -1385353.5, -1450712.3, 1156.6891, 0.0010862091, -0.005545788, -1385333.1, 34954.42 
1.6056676e+3, 1.6506787e+2, -1297140.9, -1370558.4, 1511.0912, 0.0011065353, -0.0050552315, -1297109.8, 25224.635 
1.6056506e+3, 1.750625e+2, -1200768.5, -1273439.0, 1176.2686, -0.0012347432, -0.005144909, -1200749.4, 23637.611 
1.6056335e+3, 1.8505646e+2, -1113603.6, -1195423.4, 1346.289, -0.001451839, -0.004902742, -1113581.5, 12864.757 
1.6056165e+3, 1.9504976e+2, -1017030.25, -1098200.6, 1781.7211, 0.00051543856, -0.006206281, -1016991.1, 11520.779 
1.6055995e+3, 2.0504247e+2, -928710.06, -1018024.1, 1859.1282, 0.00027710208, -0.0054941447, -928671.4, 1911.9144 
1.6055825e+3, 2.150346e+2, -832078.06, -920726.4, 1522.9309, -0.002054668, -0.0047217454, -832051.94, 608.41693 
1.6055655e+3, 2.2502606e+2, -744936.94, -842816.25, 1628.599, -0.0026669102, -0.0045796097, -744909.8, -10165.811 
1.6055486e+3, 2.3501685e+2, -648587.2, -745627.75, 2011.2882, -0.001495949, -0.006790465, -648545.5, -11711.128 
1.6055314e+3, 2.4500707e+2, -560326.25, -665569.2, 1821.3832, -0.0010686622, -0.005420749, -560294.75, -21364.496 
1.6055146e+3, 2.5499672e+2, -463438.88, -568046.3, 1531.0503, -0.0015212883, -0.0027957659, -463416.47, -22384.783 
1.6054974e+3, 2.6498565e+2, -376083.6, -490088.53, 1376.1472, -0.0020601987, -0.0046233847, -376066.97, -32926.797 
1.6054803e+3, 2.7497384e+2, -279385.63, -392557.94, 1607.0256, -0.002769373, -0.0128073525, -279362.8, -34107.152 
1.6054633e+3, 2.849616e+2, -191447.72, -313241.94, 1458.2699, -0.003232982, -0.0053956015, -191430.27, -44054.555 
1.6054462e+3, 2.9494888e+2, -94702.35, -215645.53, 1356.5648, -0.0032667418, 0.0149580985, -94687.13, -45186.8 
1.605429e+3, 3.0493817e+2, -8569.825, -89238.98, 1422.93, -0.0033363262, -0.02824363, -8544.734, -8544.734 
1.6054119e+3, 3.1493092e+2, -6360.563, -86424.016, 1053.9108, -0.00392034, 0.0046644416, -6346.6924, -6346.6924 
1.615741e+3, 1.2510069e+2, -1665556.5, -1723889.9, 136.53242, -0.0016492235, -0.0048636203, -1665556.3, 48456.535 
1.6157238e+3, 1.3509773e+2, -1569597.1, -1627103.4, -50.75976, 0.0027593859, -0.005535739, -1569597.0, 46444.734 
1.6157064e+3, 1.450942e+2, -1481243.8, -1546369.6, 439.3698, 0.0027981193, -0.0047867885, -1481240.8, 36835.55 
1.6156892e+3, 1.5509012e+2, -1384660.1, -1449207.9, 798.52686, -0.000976672, -0.0045040785, -1384650.3, 35466.133 
1.615672e+3, 1.6508533e+2, -1297810.4, -1371843.4, 1086.9933, -0.0016330901, -0.0044789435, -1297794.4, 24368.852 
1.6156548e+3, 1.7507987e+2, -1201426.8, -1274720.5, 805.1996, 0.0005073931, -0.0066262824, -1201418.0, 22798.992 
1.6156377e+3, 1.8507384e+2, -1112830.4, -1193760.3, 1023.7203, 0.00049714727, -0.0057624923, -1112817.4, 13458.513 
1.6156206e+3, 1.9506727e+2, -1016253.1, -1096541.4, 1402.6798, -0.0014279098, -0.0039991364, -1016228.6, 12111.558 
1.6156034e+3, 2.0506002e+2, -929391.75, -1019374.3, 1474.6328, -0.0016340786, -0.0035237907, -929367.56, 1043.8885 
1.6155864e+3, 2.1505202e+2, -832741.1, -922040.5, 1181.2339, -0.000072004426, -0.0059806956, -832725.5, -235.79208 
1.6155691e+3, 2.2504349e+2, -744243.06, -841335.06, 1196.4708, -0.00021843017, -0.0061769937, -744228.3, -9654.954 
1.6155522e+3, 2.3503439e+2, -647893.3, -744174.9, 1532.1313, -0.0019688732, -0.006188691, -647868.94, -11206.437 
1.615535e+3, 2.4502462e+2, -560886.5, -666711.25, 1454.1094, -0.0027500608, -0.0039326763, -560866.56, -22108.375 
1.6155179e+3, 2.5501418e+2, -464014.63, -569180.0, 1190.2827, -0.0027053936, -0.0015149739, -464001.16, -23140.758 
1.6155009e+3, 2.650031e+2, -375657.53, -489111.56, 972.10345, -0.0023270492, -0.005908237, -375649.2, -32680.008 
1.6154836e+3, 2.7499133e+2, -278995.63, -391642.66, 1197.8827, -0.0018020115, -0.019195857, -278982.9, -33898.426 
1.6154665e+3, 2.8497916e+2, -191694.53, -313635.1, 1045.8354, -0.0022344226, -0.0044302894, -191685.56, -44481.914 
1.6154492e+3, 2.949666e+2, -94940.4, -216022.36, 961.86334, -0.0034478835, 0.035724718, -94932.76, -45606.156 
1.6154322e+3, 3.0495542e+2, -9070.133, -90292.88, 1675.5834, -0.0037032396, -0.050792154, -9035.581, -9035.581 
1.615415e+3, 3.1494838e+2, -5412.675, -84645.68, 1283.4493, -0.0043125316, 0.0129337525, -5391.8906, -5391.8906 
1.6257457e+3, 1.2511814e+2, -1666528.3, -1723857.0, 309.48596, -0.001119765, -0.00468412, -1666526.6, 47315.273 
1.6257285e+3, 1.3511522e+2, -1569505.8, -1626563.0, 743.55383, 0.0021619701, -0.0051308167, -1569496.0, 46374.344 
1.6257109e+3, 1.4511171e+2, -1481109.4, -1546349.1, 1178.0409, 0.002241897, -0.0045333738, -1481088.1, 36816.688 
1.6256936e+3, 1.5510762e+2, -1384805.9, -1449327.0, 845.8308, -0.00056323386, -0.0046640025, -1384794.8, 35150.11 
1.6256763e+3, 1.6510284e+2, -1297732.0, -1371446.9, 1159.6132, -0.0010628586, -0.004427443, -1297713.8, 24277.865 
1.625659e+3, 1.750974e+2, -1201230.1, -1274281.1, 1606.079, 0.000594982, -0.005790794, -1201194.9, 22850.09 
1.6256419e+3, 1.850914e+2, -1112837.5, -1193847.9, 1846.9958, 0.00036621102, -0.0050818943, -1112795.4, 13308.345 
1.6256246e+3, 1.9508483e+2, -1016252.0, -1096614.6, 1457.1653, -0.0015240479, -0.0043161497, -1016225.6, 11942.615 
1.6256075e+3, 2.0507756e+2, -929198.2, -1019053.94, 1536.5562, -0.0017083542, -0.003752719, -929171.9, 1067.5162 
1.6255902e+3, 2.150696e+2, -832518.0, -921706.0, 1964.9279, -0.00010217758, -0.0049593276, -832474.7, -157.35117 
1.625573e+3, 2.2506107e+2, -744037.56, -841300.1, 1960.0201, -0.000117551164, -0.0053632427, -743998.06, -9597.104 
1.6255558e+3, 2.3505196e+2, -647338.25, -743964.5, 1622.6345, -0.0016552802, -0.0070968196, -647311.0, -10820.714 
1.6255386e+3, 2.450422e+2, -560186.75, -666323.56, 1534.5957, -0.0024654693, -0.004018637, -560164.56, -21578.639 
1.6255213e+3, 2.5503182e+2, -463579.03, -568931.75, 1814.5878, -0.0027097797, 0.0018405787, -463547.78, -22860.023 
1.6255042e+3, 2.650207e+2, -375337.1, -488953.84, 1608.8794, -0.002522395, -0.005254379, -375314.3, -32517.521 
1.6254869e+3, 2.7500886e+2, -278582.66, -391401.22, 1375.0079, -0.0019914506, -0.027143523, -278565.88, -33652.996 
1.6254696e+3, 2.8499678e+2, -191296.53, -313302.56, 1132.7886, -0.0023071233, -0.004135711, -191286.02, -44254.86 
1.6254523e+3, 2.949845e+2, -94705.914, -215790.55, 1316.5553, -0.003434535, 0.060404103, -94691.6, -45540.04 
1.6254352e+3, 3.0497265e+2, -10011.5, -93644.555, 2447.6775, -0.0034021612, -0.078028396, -9939.926, -9939.926 
1.6254184e+3, 3.1496567e+2, -1948.9714, -81447.44, 826.31396, -0.0041009076, 0.014976717, -1940.3835, -1940.3835 
1.6357505e+3, 1.2513565e+2, -1665575.9, -1722006.9, 105.27525, 0.0033450972, -0.0050267293, -1665575.6, 48094.7 
1.635733e+3, 1.3513286e+2, -1568705.4, -1624800.6, 482.63016, -0.0013677714, -0.0042833807, -1568701.3, 46996.242 
1.6357155e+3, 1.4512937e+2, -1481860.8, -1547697.8, 735.13007, -0.0018449662, -0.0039771325, -1481852.5, 35879.29 
1.6356981e+3, 1.5512517e+2, -1385513.8, -1450648.0, 473.55243, 0.0016687113, -0.0057499874, -1385510.3, 34262.63 
1.6356806e+3, 1.6512042e+2, -1296913.4, -1369670.3, 819.57837, 0.001929508, -0.0047290814, -1296904.1, 24915.305 
1.6356634e+3, 1.7511514e+2, -1200405.8, -1272525.0, 1210.6622, -0.00068903854, -0.0032468457, -1200385.5, 23485.758 
1.635646e+3, 1.8510912e+2, -1113576.3, -1195330.5, 1467.1797, -0.0014561842, -0.0032403816, -1113549.9, 12380.181 
1.6356286e+3, 1.9510242e+2, -1016956.06, -1098049.3, 1123.2086, -0.00027171872, -0.0065432377, -1016940.5, 11055.402 
1.6356114e+3, 2.0509517e+2, -928417.7, -1017433.9, 1210.5071, -0.00048987323, -0.0056110844, -928401.25, 1665.7161 
1.635594e+3, 2.1508737e+2, -831749.6, -920124.8, 1581.4269, -0.0019034767, -0.00225977, -831721.3, 422.04117 
1.6355768e+3, 2.2507884e+2, -744655.06, -842589.75, 1571.9578, -0.0019946713, -0.0027503788, -744629.8, -10402.939 
1.6355595e+3, 2.350696e+2, -647944.8, -745219.6, 1272.8617, -0.00086003885, -0.009122879, -647928.2, -11610.574 
1.6355422e+3, 2.4505985e+2, -559670.1, -665232.3, 1132.6005, -0.00078083127, -0.0051974454, -559658.0, -21244.84 
1.635525e+3, 2.550496e+2, -463092.1, -567897.6, 1386.08, -0.0019046264, 0.006824599, -463073.78, -22560.107 
1.6355075e+3, 2.6503843e+2, -375758.16, -489787.78, 1186.8899, -0.002732105, -0.0031395191, -375745.8, -33122.883 
1.6354902e+3, 2.7502644e+2, -278990.1, -392167.5, 969.13525, -0.0033217003, -0.036353745, -278981.78, -34241.105 
1.6354728e+3, 2.8501442e+2, -191017.08, -312613.13, 664.5645, -0.003458375, -0.0041595194, -191013.45, -44155.42 
1.6354553e+3, 2.950025e+2, -94467.32, -215179.38, 876.92755, -0.0034107838, 0.08858507, -94460.945, -45485.777 
1.6354384e+3, 3.0498987e+2, -12932.198, -99698.86, 3128.7778, -0.0026433093, -0.109089814, -12819.521, -12819.521 
1.6354217e+3, 3.1498295e+2, 188.63002, -77069.555, 1511.6036, -0.004103558, 0.032403372, 218.19417, 218.19417 
1.6457553e+3, 1.2515332e+2, -1665036.0, -1721826.0, 808.218, 0.003135619, -0.0041895467, -1665024.5, 48472.703 
1.6457376e+3, 1.351505e+2, -1569423.5, -1625231.3, 364.16354, -0.0007070719, -0.004459832, -1569421.1, 46103.4 
1.64572e+3, 1.4514704e+2, -1482529.8, -1547575.3, 697.44824, -0.0012793868, -0.0041667577, -1482522.3, 35036.344 
1.6457026e+3, 1.551429e+2, -1385752.5, -1450340.6, 1217.5905, 0.0010981461, -0.0051299366, -1385729.5, 33869.76 
1.645685e+3, 1.6513817e+2, -1297153.5, -1369772.9, 1569.5134, 0.0012249029, -0.0041504796, -1297119.6, 24526.002 
1.6456676e+3, 1.7513287e+2, -1200514.1, -1272570.0, 1193.8934, -0.00060456304, -0.0033269883, -1200494.4, 23203.037 
1.6456501e+3, 1.8512687e+2, -1113437.4, -1195061.4, 1470.241, -0.0010775147, -0.003279427, -1113410.9, 12345.248 
1.6456327e+3, 1.951202e+2, -1016732.4, -1097737.3, 1871.9089, -0.00005424823, -0.005911855, -1016689.1, 11132.61 
1.6456154e+3, 2.0511295e+2, -928282.8, -1017394.7, 1982.6768, -0.00041835924, -0.004866663, -928238.75, 1654.0328 
1.645598e+3, 2.1510515e+2, -831587.0, -920074.9, 1648.9653, -0.0019952154, -0.0019503532, -831556.25, 412.96198 
1.6455805e+3, 2.2509661e+2, -744417.9, -842475.3, 1611.5676, -0.0021903627, -0.0029110173, -744391.4, -10338.603 
1.6455632e+3, 2.3508735e+2, -647627.3, -745075.7, 1889.6129, -0.0010283637, -0.009656923, -647590.7, -11447.137 
1.6455458e+3, 2.4507762e+2, -559223.3, -665028.0, 1761.8297, -0.0008123537, -0.0044971006, -559194.0, -20954.986 
1.6455284e+3, 2.5506738e+2, -462449.13, -567604.3, 1527.4298, -0.0017095492, 0.01025017, -462426.94, -22087.678 
1.645511e+3, 2.650562e+2, -375060.4, -489547.94, 1262.6721, -0.0024355056, -0.0032138615, -375046.47, -32597.574 
1.6454935e+3, 2.7504405e+2, -278296.03, -391953.97, 1365.7449, -0.0030920699, -0.04563525, -278279.63, -33711.992 
1.6454759e+3, 2.8503218e+2, -190234.81, -312178.6, 973.5017, -0.0034240948, -0.0033440918, -190227.03, -43543.01 
1.6454583e+3, 2.9502055e+2, -93788.37, -214812.31, 874.7415, -0.0037466476, 0.11788017, -93782.05, -44983.75 
1.6454414e+3, 3.05007e+2, -16194.164, -107744.03, 3685.029, -0.0023707463, -0.14239207, -16046.075, -16046.075 
1.645425e+3, 3.1499994e+2, 5190.154, -68902.69, 963.9379, -0.0040268577, 0.041126557, 5202.6924, 5202.6924 
1.65576e+3, 1.2517114e+2, -1665946.0, -1723465.9, 227.08813, -0.00087655586, -0.0025487086, -1665945.1, 47377.4 
1.6557422e+3, 1.3516821e+2, -1570186.1, -1626770.1, -125.118286, 0.0029449016, -0.0055158734, -1570185.8, 45165.38 
1.6557245e+3, 1.4516474e+2, -1481553.5, -1545561.8, 467.74164, 0.0026084261, -0.0049767704, -1481550.1, 35835.01 
1.6557069e+3, 1.5516077e+2, -1384844.0, -1448390.3, 920.19794, -0.0017549351, -0.0033358627, -1384830.8, 34593.426 
1.6556893e+3, 1.6515605e+2, -1297861.1, -1371134.8, 1224.0608, -0.0023863644, -0.00293025, -1297840.8, 23629.533 
1.6556717e+3, 1.7515065e+2, -1201197.4, -1273909.8, 900.3268, 0.00038885538, -0.0054082433, -1201186.3, 22337.133 
1.6556543e+3, 1.8514466e+2, -1112677.1, -1193446.9, 1171.6866, 0.0007898944, -0.004703599, -1112660.1, 12921.815 
1.6556367e+3, 1.9513813e+2, -1015962.6, -1096144.0, 1516.1058, -0.00079558673, -0.0031701503, -1015933.94, 11712.046 
1.6556193e+3, 2.0513089e+2, -928889.4, -1018667.9, 1618.3478, -0.0013507089, -0.0021555512, -928860.25, 856.6991 
1.6556019e+3, 2.1512295e+2, -832164.7, -921310.7, 1320.0876, -0.0008299597, -0.0034513762, -832145.1, -350.48285 
1.6555844e+3, 2.251144e+2, -743879.56, -841407.56, 1298.1727, -0.0011481912, -0.0051813996, -743862.3, -9983.908 
1.6555668e+3, 2.3510526e+2, -647101.6, -744032.75, 1543.3981, -0.002117797, -0.009162412, -647077.06, -11108.914 
1.6555494e+3, 2.4509554e+2, -559634.6, -665916.7, 1391.319, -0.0023470183, -0.002427058, -559616.44, -21553.016 
1.655532e+3, 2.5508526e+2, -462859.75, -568467.06, 1165.991, -0.0021618863, 0.012465204, -462846.88, -22682.621 
1.6555144e+3, 2.65074e+2, -374838.8, -489058.0, 857.8927, -0.0018754005, -0.0049056755, -374832.38, -32557.973 
1.6554968e+3, 2.7506185e+2, -278126.63, -391542.5, 944.92535, -0.0017010705, -0.0550136, -278118.75, -33725.2 
1.6554792e+3, 2.850501e+2, -190525.0, -312718.53, 471.33356, -0.0025188574, -0.0018663028, -190523.19, -44014.234 
1.6554615e+3, 2.9503867e+2, -94085.73, -215378.75, 375.01492, -0.0045591313, 0.14814721, -94084.56, -45463.82 
1.6554447e+3, 3.0502412e+2, -21204.912, -118136.945, 4460.536, -0.0026357921, -0.17756657, -21000.084, -21000.084 
1.6554284e+3, 3.150168e+2, 10571.477, -57645.99, 1715.589, -0.004745942, 0.056189425, 10614.594, 10614.594 
1.6657646e+3, 1.2518898e+2, -1666995.8, -1723502.1, 166.47276, -0.00040492878, -0.003256674, -1666995.3, 46152.49 
1.6657467e+3, 1.351861e+2, -1569992.8, -1626216.5, 744.20905, 0.0022572153, -0.004602463, -1569983.0, 45192.875 
1.665729e+3, 1.4518267e+2, -1481267.0, -1545382.0, 1365.4153, 0.0021283876, -0.0038750323, -1481237.9, 35971.63 
1.6657113e+3, 1.5517868e+2, -1385003.8, -1448422.9, 988.5288, -0.0010440246, -0.003334932, -1384988.3, 34260.33 
1.6656937e+3, 1.6517398e+2, -1298034.9, -1370972.1, 1309.5155, -0.0017074508, -0.0030774367, -1298011.4, 23283.328 
1.6656761e+3, 1.7516859e+2, -1201266.6, -1273706.4, 1684.8986, 0.000029610575, -0.004859013, -1201227.4, 22120.023 
1.6656585e+3, 1.8516263e+2, -1112759.3, -1193448.8, 1985.262, 0.00025323263, -0.00428383, -1112710.4, 12695.511 
1.6656409e+3, 1.9515608e+2, -1015918.2, -1096092.5, 1658.4156, -0.0008238476, -0.00340707, -1015883.9, 11586.166 
1.6656233e+3, 2.0514885e+2, -928688.25, -1018522.0, 1738.3812, -0.0011583128, -0.002132347, -928654.6, 886.3001 
1.6656058e+3, 2.1514092e+2, -831797.8, -921079.5, 2018.1135, -0.00066805125, -0.0024620197, -831752.25, -133.71065 
1.6655882e+3, 2.2513239e+2, -743423.0, -841228.56, 2048.7742, -0.0010443272, -0.004538164, -743380.1, -9677.842 
1.6655707e+3, 2.3512322e+2, -646572.2, -743820.25, 1825.7952, -0.0020206987, -0.009875481, -646537.94, -10745.732 
1.6655532e+3, 2.4511349e+2, -559073.6, -665844.5, 1592.9658, -0.0023682222, -0.0021489481, -559049.9, -21162.412 
1.6655356e+3, 2.551032e+2, -462124.75, -568321.8, 1669.8029, -0.0024053412, 0.015728964, -462098.5, -22110.293 
1.6655178e+3, 2.6509193e+2, -373956.63, -488779.56, 1306.4606, -0.0020063408, -0.0045784083, -373941.75, -31842.947 
1.6655003e+3, 2.7507967e+2, -277170.0, -391204.66, 1085.5284, -0.001310805, -0.063026145, -277159.66, -32940.742 
1.6654825e+3, 2.8506798e+2, -189459.2, -312547.72, 498.85437, -0.0022555296, -0.0012522498, -189457.17, -43123.508 
1.6654648e+3, 2.9505676e+2, -92659.41, -215181.95, 490.8897, -0.005034468, 0.17333408, -92657.44, -44214.06 
1.665448e+3, 3.050412e+2, -26378.867, -130495.02, 4997.445, -0.0020113145, -0.20484233, -26139.547, -26139.547 
1.6654317e+3, 3.1503338e+2, 15882.947, -45351.387, 1113.5685, -0.004893908, 0.06328197, 15903.191, 15903.191 
1.6757692e+3, 1.2520684e+2, -1665832.8, -1721181.3, 0.767834, 0.0031482882, -0.0056446297, -1665832.8, 47139.86 
1.6757514e+3, 1.3520418e+2, -1568990.3, -1624031.5, 524.5314, -0.0017408296, -0.0023021, -1568985.3, 46013.527 
1.6757333e+3, 1.4520076e+2, -1482068.3, -1546863.9, 942.79034, -0.001668504, -0.0013712065, -1482054.5, 34977.75 
1.6757157e+3, 1.5519664e+2, -1385724.5, -1449829.1, 626.55316, 0.0022049756, -0.004691626, -1385718.4, 33354.375 
1.6756979e+3, 1.6519193e+2, -1297274.4, -1369374.5, 1046.4849, 0.0020589628, -0.0041861474, -1297259.1, 23859.465 
1.6756801e+3, 1.7518671e+2, -1200525.4, -1272147.3, 1368.0022, -0.0014717869, -0.0023432195, -1200499.3, 22670.686 
1.6756625e+3, 1.8518074e+2, -1113325.3, -1194587.8, 1674.3333, -0.0022135258, -0.0024213826, -1113290.8, 11937.638 
1.675645e+3, 1.9517408e+2, -1016471.4, -1097216.6, 1383.1731, -0.0003596569, -0.0058928207, -1016447.7, 10846.012 
1.6756272e+3, 2.0516686e+2, -928151.25, -1017411.6, 1465.455, -0.00019706426, -0.004126551, -928127.2, 1237.3057 
1.6756096e+3, 2.1515906e+2, -831251.8, -919974.94, 1712.1348, -0.0014623427, 0.00039335285, -831218.75, 222.11803 
1.675592e+3, 2.2515053e+2, -743830.5, -842110.3, 1721.0049, -0.0017852089, -0.0016803925, -743800.4, -10275.784 
1.6755743e+3, 2.3514123e+2, -646982.75, -744709.75, 1527.58, -0.001080511, -0.011524716, -646958.9, -11343.321 
1.6755567e+3, 2.4513151e+2, -558921.94, -665541.94, 1296.3059, -0.0013404868, -0.0032285189, -558906.1, -21195.191 
1.675539e+3, 2.551213e+2, -461997.63, -568055.5, 1349.8419, -0.002672801, 0.019680362, -461980.47, -22169.438 
1.6755214e+3, 2.6511e+2, -374313.0, -489528.97, 906.5725, -0.0028193074, -0.0027834645, -374305.88, -32383.855 
1.6755037e+3, 2.7509758e+2, -277513.16, -391911.0, 681.609, -0.0019514268, -0.06985273, -277509.1, -33465.617 
1.6754858e+3, 2.8508592e+2, -189621.86, -312840.03, 93.17794, -0.00271738, -0.0011522409, -189621.78, -43463.93 
1.675468e+3, 2.9507488e+2, -92977.5, -215769.66, 109.08555, -0.0053892266, 0.19442569, -92977.4, -44711.676 
1.6754511e+3, 3.050584e+2, -33618.297, -145461.06, 5332.3594, -0.0007579467, -0.22535315, -33364.64, -33364.64 
1.675435e+3, 3.1504986e+2, 22820.79, -30746.824, 1406.8248, -0.004992667, 0.07213656, 22857.709, 22857.709 
1.6857737e+3, 1.2522492e+2, -1665875.8, -1721070.9, 812.5809, 0.0025446543, -0.0043184515, -1665863.8, 46931.793 
1.6857558e+3, 1.3522224e+2, -1569808.8, -1624296.4, 454.52454, -0.0009878001, -0.002575388, -1569805.0, 45016.69 
1.685738e+3, 1.4521886e+2, -1482778.3, -1546932.8, 872.49396, -0.0010136929, -0.001818736, -1482766.4, 34088.617 
1.6857201e+3, 1.5521476e+2, -1385819.9, -1449628.0, 1314.2576, 0.0015546356, -0.0040880637, -1385792.8, 33102.293 
1.6857022e+3, 1.6521008e+2, -1297220.6, -1369258.9, 1781.8036, 0.0014812818, -0.0034927137, -1297176.5, 23764.336 
1.6856845e+3, 1.7520484e+2, -1200583.6, -1272077.8, 1475.2098, -0.00085770135, -0.0022897942, -1200553.1, 22439.033 
1.6856666e+3, 1.851989e+2, -1113326.5, -1194403.5, 1831.743, -0.0015391675, -0.0023577623, -1113285.1, 11765.374 
1.6856489e+3, 1.9519226e+2, -1016385.25, -1097002.5, 2118.021, -0.0005951938, -0.00532467, -1016329.6, 10785.99 
1.6856313e+3, 2.0518503e+2, -928027.2, -1017446.5, 2254.5054, -0.0006758099, -0.003665801, -927970.4, 1216.011 
1.6856135e+3, 2.1517724e+2, -830855.9, -919870.1, 1974.4213, -0.0015986921, 0.00042475745, -830812.1, 450.80853 
1.6855958e+3, 2.2516869e+2, -743248.25, -841875.8, 1877.7578, -0.0016778887, -0.0017294493, -743212.5, -9865.82 
1.6855781e+3, 2.351594e+2, -646271.3, -744442.9, 2042.5958, -0.0009267421, -0.011439563, -646228.8, -10791.151 
1.6855605e+3, 2.4514964e+2, -558172.9, -665395.0, 1857.385, -0.001270887, -0.0027718856, -558140.7, -20607.492 
1.6855428e+3, 2.551394e+2, -461193.3, -567865.75, 1658.365, -0.002640151, 0.020800125, -461167.53, -21534.107 
1.6855249e+3, 2.6512805e+2, -373346.38, -489463.06, 1181.5675, -0.0027954613, -0.0028450417, -373334.38, -31589.563 
1.6855071e+3, 2.751156e+2, -276048.8, -391631.34, 1091.743, -0.0018709357, -0.07268793, -276038.5, -32171.59 
1.6854891e+3, 2.8510392e+2, -188021.44, -312451.22, 431.7758, -0.0028864327, -0.00012100963, -188019.94, -42038.62 
1.6854712e+3, 2.95093e+2, -91781.97, -215768.67, 351.5472, -0.0060642464, 0.20491503, -91780.98, -43692.355 
1.6854544e+3, 3.0507565e+2, -40563.152, -161083.83, 5868.7085, 0.00016253024, -0.23827888, -40278.055, -40278.055 
1.6854385e+3, 3.150662e+2, 29914.133, -15182.7295, 1378.3463, -0.0048880903, 0.074646026, 29956.22, 29956.22 
1.6957784e+3, 1.2524316e+2, -1666659.5, -1722537.4, 383.1668, -0.0013801586, -0.00051129685, -1666656.9, 45959.85 
1.6957603e+3, 1.3524035e+2, -1570493.6, -1625653.9, 121.43984, 0.003000255, -0.0048760744, -1570493.4, 44151.03 
1.6957423e+3, 1.4523695e+2, -1481977.3, -1545227.3, 710.92004, 0.0026598047, -0.004480396, -1481969.3, 34708.258 
1.6957244e+3, 1.5523303e+2, -1385086.1, -1448011.4, 1096.4076, -0.0021334656, -0.0021573575, -1385067.0, 33649.13 
1.6957064e+3, 1.6522838e+2, -1297768.1, -1370287.3, 1457.6326, -0.0024327296, -0.0014635585, -1297738.8, 23022.893 
1.6956887e+3, 1.7522302e+2, -1201074.1, -1273037.6, 1187.3778, 0.0012296443, -0.0040977094, -1201054.6, 21759.496 
1.6956708e+3, 1.852171e+2, -1112718.9, -1193121.8, 1594.0203, 0.0013435535, -0.0036106894, -1112687.3, 12184.932 
1.6956529e+3, 1.9521059e+2, -1015797.06, -1095765.4, 1831.383, -0.0015233624, -0.0024214874, -1015755.1, 11180.86 
1.6956352e+3, 2.0520335e+2, -928563.3, -1018517.06, 2009.772, -0.0023567504, -0.0012680695, -928518.4, 488.40237 
1.6956174e+3, 2.1519543e+2, -831395.1, -920932.2, 1767.0577, -0.001268438, -0.0017938023, -831360.25, -275.7981 
1.6955997e+3, 2.2518687e+2, -743012.1, -841327.3, 1633.0353, -0.0009499175, -0.004060978, -742985.0, -9816.615 
1.695582e+3, 2.3517765e+2, -646032.56, -743914.75, 1785.7394, -0.0015095618, -0.01010405, -646000.0, -10741.341 
1.6955642e+3, 2.4516791e+2, -558528.94, -666137.75, 1563.9196, -0.00205871, -0.0012393099, -558506.2, -21151.945 
1.6955464e+3, 2.5515762e+2, -461515.53, -568569.7, 1369.4086, -0.0024970525, 0.019679273, -461498.0, -22042.77 
1.6955286e+3, 2.651462e+2, -373459.13, -489712.78, 932.0786, -0.002230857, -0.004274445, -373451.66, -31884.7 
1.6955106e+3, 2.7513373e+2, -276191.72, -391920.0, 820.31964, -0.0014014583, -0.07235233, -276185.9, -32496.81 
1.6954927e+3, 2.8512204e+2, -188377.33, -313195.1, -31.18894, -0.0030351202, 0.0015445815, -188377.33, -42573.605 
1.6954745e+3, 2.9511106e+2, -92283.87, -216801.05, -110.920265, -0.0072544524, 0.20667227, -92283.766, -44372.266 
1.6954577e+3, 3.0509302e+2, -48698.395, -177887.56, 5828.4214, 0.0006621723, -0.24455959, -48435.973, -48435.973 
1.6954418e+3, 3.1508255e+2, 37757.402, 1516.7953, 1266.3824, -0.0049977973, 0.079309575, 37801.6, 37801.6 
1.705783e+3, 1.2526143e+2, -1667023.8, -1722421.3, 279.95132, -0.00035963402, -0.00094105856, -1667022.4, 45415.438 
1.7057648e+3, 1.3525863e+2, -1570584.0, -1625415.3, 791.3654, 0.0022513212, -0.0042315987, -1570572.5, 43892.656 
1.7057467e+3, 1.4525527e+2, -1482224.9, -1545163.0, 1498.647, 0.001867295, -0.0038239837, -1482189.1, 34309.01 
1.7057286e+3, 1.5525134e+2, -1385759.3, -1448147.9, 1274.8517, -0.0014835485, -0.0023933353, -1385733.3, 32803.406 
1.7057107e+3, 1.6524671e+2, -1298349.6, -1370288.3, 1733.2494, -0.001788719, -0.0016402376, -1298307.9, 22274.143 
1.7056927e+3, 1.752414e+2, -1201129.4, -1272795.3, 2043.5216, 0.00060873077, -0.0033954228, -1201071.1, 21562.934 
1.705675e+3, 1.8523547e+2, -1112659.5, -1193217.8, 2432.6006, 0.00072682253, -0.0029661944, -1112586.1, 12106.02 
1.705657e+3, 1.9522895e+2, -1015535.7, -1095751.0, 2051.9272, -0.0010860276, -0.0025060703, -1015483.25, 11272.959 
1.7056392e+3, 2.0522171e+2, -928099.56, -1018128.5, 2227.0347, -0.0017475317, -0.0014182619, -928044.5, 782.4805 
1.7056213e+3, 2.152138e+2, -831064.1, -920638.0, 2514.117, -0.001367739, -0.0013776665, -830993.6, -89.15127 
1.7056035e+3, 2.2520523e+2, -742790.7, -841511.5, 2439.135, -0.0013448203, -0.0034915472, -742730.44, -9742.0205 
1.7055857e+3, 2.35196e+2, -645477.94, -743911.4, 2183.1846, -0.0016849282, -0.009821545, -645429.56, -10350.551 
1.7055678e+3, 2.4518622e+2, -557605.25, -665860.7, 1888.7205, -0.002132341, -0.0012450094, -557572.3, -20397.531 
1.7055501e+3, 2.551759e+2, -460200.9, -568134.7, 1932.25, -0.002600897, 0.019642765, -460166.3, -20890.371 
1.705532e+3, 2.6516446e+2, -372192.47, -489527.03, 1510.0452, -0.0021243168, -0.0036812199, -372173.03, -30785.107 
1.7055142e+3, 2.7515197e+2, -275168.28, -391847.1, 1264.3151, -0.000943043, -0.0705514, -275154.56, -31644.207 
1.7054962e+3, 2.8514022e+2, -186979.81, -312960.78, 418.11673, -0.0029079814, 0.0016138512, -186978.44, -41352.867 
1.7054778e+3, 2.9512912e+2, -90108.7, -216512.63, 483.6512, -0.007843326, 0.20180653, -90106.85, -42372.586 
1.705461e+3, 3.051106e+2, -55195.758, -193823.7, 6324.2163, 0.0014744849, -0.23839588, -54907.848, -54907.848 
1.7054449e+3, 3.1509894e+2, 44181.22, 17529.092, 1594.4044, -0.0053252773, 0.07845417, 44276.26, 44276.26 
1.7157876e+3, 1.2527968e+2, -1666300.4, -1720740.1, -20.499819, 0.0039621918, -0.0042006928, -1666300.3, 45958.56 
1.7157693e+3, 1.3527706e+2, -1569840.5, -1623786.9, 487.54108, -0.0019805254, -0.0014037581, -1569836.0, 44448.43 
1.7157511e+3, 1.4527373e+2, -1482660.4, -1546012.1, 1166.1279, -0.0022897404, -0.0006830021, -1482639.0, 33678.24 
1.715733e+3, 1.552697e+2, -1386134.1, -1448905.9, 983.68134, 0.0021366614, -0.0041376567, -1386118.8, 32237.95 
1.715715e+3, 1.652651e+2, -1297653.1, -1368865.4, 1589.6748, 0.0020596178, -0.003337512, -1297617.8, 22784.127 
1.7156969e+3, 1.7525992e+2, -1200497.4, -1271464.8, 1841.2917, -0.0021720824, -0.00083081145, -1200449.6, 22002.967 
1.715679e+3, 1.85254e+2, -1113320.3, -1194502.8, 2200.0789, -0.002633512, -0.0008020278, -1113260.8, 11249.978 
1.7156611e+3, 1.9524732e+2, -1016185.6, -1096982.1, 1859.9211, 0.00036123168, -0.0049494915, -1016142.9, 10433.124 
1.7156433e+3, 2.0524012e+2, -927607.56, -1016993.4, 1999.9559, 0.00056709966, -0.0035603005, -927562.9, 1083.8619 
1.7156254e+3, 2.1523233e+2, -830602.2, -919577.8, 2254.0747, -0.0018670202, 0.0011266329, -830545.06, 177.86197 
1.7156075e+3, 2.2522375e+2, -743392.8, -842667.44, 2238.1765, -0.002647105, -0.00059621973, -743342.4, -10535.443 
1.7155896e+3, 2.3521441e+2, -646044.7, -745003.0, 2020.2949, -0.0016381956, -0.010360028, -646003.5, -11104.882 
1.7155717e+3, 2.452046e+2, -557565.2, -665686.3, 1727.8048, -0.0017890915, -0.002399498, -557537.56, -20542.822 
1.7155538e+3, 2.551943e+2, -460162.75, -567982.94, 1753.3363, -0.0030825022, 0.020342631, -460134.22, -21038.654 
1.7155358e+3, 2.6518285e+2, -372585.72, -490350.5, 1194.1969, -0.0025360852, -0.0016154335, -372573.6, -31365.945 
1.7155178e+3, 2.7517033e+2, -275533.13, -392655.8, 937.0133, -0.0006265646, -0.06753179, -275525.63, -32195.07 
1.7154998e+3, 2.8515851e+2, -187110.94, -313255.1, 215.72775, -0.0026673183, 0.00035308974, -187110.56, -41664.016 
1.7154814e+3, 2.9514727e+2, -90502.56, -217270.97, 287.33923, -0.008176712, 0.19116776, -90501.914, -42945.52 
1.7154644e+3, 3.0512843e+2, -63345.992, -210576.4, 5489.1206, 0.0023420416, -0.22207497, -63141.63, -63141.63 
1.715448e+3, 3.151154e+2, 51674.43, 33586.695, 608.97095, -0.00585791, 0.07179431, 51694.91, 51694.91 
1.7257923e+3, 1.2529814e+2, -1667430.6, -1720973.6, 717.8566, 0.002987723, -0.0036464892, -1667421.0, 44656.93 
1.7257738e+3, 1.3529557e+2, -1570514.0, -1623796.6, 683.7527, -0.0010754046, -0.0011543947, -1570505.3, 43598.137 
1.7257555e+3, 1.4529225e+2, -1483044.5, -1545873.5, 1358.974, -0.0013190005, -0.0003516851, -1483015.1, 33120.68 
1.7257373e+3, 1.5528825e+2, -1386184.3, -1448625.0, 1708.6787, 0.0017920012, -0.003360314, -1386137.5, 32037.475 
1.7257193e+3, 1.6528365e+2, -1297796.5, -1368980.9, 2349.631, 0.0016726202, -0.0028845386, -1297719.0, 22501.033 
1.7257012e+3, 1.7527846e+2, -1200750.8, -1271613.5, 1981.4766, -0.0016719146, -0.0012563872, -1200695.4, 21575.537 
1.725683e+3, 1.8527254e+2, -1113391.0, -1194275.4, 2439.7615, -0.0022283127, -0.0010537767, -1113317.5, 11011.41 
1.7256652e+3, 1.9526592e+2, -1016126.9, -1096700.5, 2771.583, -0.0001773912, -0.0041860454, -1016031.7, 10362.245 
1.7256472e+3, 2.0525868e+2, -927477.25, -1017170.25, 2933.2236, 0.00004865836, -0.002867334, -927381.44, 1083.2512 
1.7256293e+3, 2.1525088e+2, -829910.3, -919485.94, 2548.787, -0.0015010834, 0.0008827836, -829837.8, 703.37665 
1.7256114e+3, 2.2524229e+2, -742282.7, -842131.56, 2469.6294, -0.002121712, -0.00071297144, -742221.6, -9596.353 
1.7255935e+3, 2.3523295e+2, -644934.06, -744472.1, 2727.3857, -0.0016474454, -0.009139819, -644859.4, -10142.555 
1.7255756e+3, 2.4522312e+2, -556744.5, -665693.2, 2478.366, -0.0020218785, -0.0019829886, -556688.2, -19874.928 
1.7255576e+3, 2.5521275e+2, -459491.56, -568059.5, 2196.8193, -0.003176845, 0.01764855, -459447.13, -20532.389 
1.7255396e+3, 2.6520133e+2, -371581.03, -490222.78, 1597.9408, -0.002542688, -0.0018234212, -371559.5, -30532.586 
1.7255215e+3, 2.751888e+2, -273711.75, -392156.75, 1524.931, -0.00043749678, -0.059732612, -273692.13, -30542.748 
1.7255034e+3, 2.8517687e+2, -185103.86, -312619.3, 819.71906, -0.0026698306, 0.0008772821, -185098.6, -39832.145 
1.725485e+3, 2.9516542e+2, -89260.81, -217346.75, 800.93427, -0.008652285, 0.16981563, -89255.805, -41877.04 
1.7254679e+3, 3.0514643e+2, -69689.234, -225117.28, 5609.6797, 0.0030893767, -0.1983049, -69487.03, -69487.03 
1.7254514e+3, 3.151321e+2, 58661.1, 48534.75, 1291.016, -0.0059574777, 0.0644541, 58823.1, 58823.1 
1.7357966e+3, 1.2531677e+2, -1667802.6, -1721579.8, 501.50494, -0.0020452628, -0.00044567653, -1667797.9, 44097.637 
1.7357782e+3, 1.3531409e+2, -1570868.1, -1624329.9, 520.5834, 0.0031721625, -0.0027804882, -1570863.1, 43058.707 
1.7357598e+3, 1.453108e+2, -1482469.8, -1544565.5, 1149.3849, 0.0030746204, -0.001957697, -1482448.5, 33505.39 
1.7357416e+3, 1.5530695e+2, -1385573.1, -1447361.6, 1467.0322, -0.0015458352, -0.0007949038, -1385538.3, 32453.488 
1.7357233e+3, 1.6530234e+2, -1298351.4, -1370126.6, 2132.953, -0.0019431673, -0.0007973325, -1298288.1, 21748.826 
1.7357053e+3, 1.7529702e+2, -1201295.3, -1272672.1, 1806.9305, 0.0011711408, -0.003936119, -1201249.6, 20839.422 
1.7356873e+3, 1.8529114e+2, -1112690.5, -1192737.6, 2293.263, 0.0008878179, -0.0031332015, -1112624.9, 11521.909 
1.7356692e+3, 1.9528465e+2, -1015483.0, -1095252.5, 2572.6396, -0.0023216857, -0.00092672976, -1015400.06, 10810.085 
1.7356512e+3, 2.0527743e+2, -928301.7, -1018703.2, 2806.658, -0.0026802078, 0.0001244251, -928214.6, 66.347664 
1.7356333e+3, 2.1526948e+2, -830741.44, -920990.1, 2467.2053, -0.0005637552, -0.0016415326, -830674.0, -314.9631 
1.7356153e+3, 2.2526087e+2, -742015.06, -841346.6, 2311.602, -0.0002838076, -0.0032313012, -741961.25, -9517.958 
1.7355974e+3, 2.3525165e+2, -644655.44, -743710.75, 2552.6252, -0.0017367954, -0.006474005, -644589.7, -10055.95 
1.7355795e+3, 2.4524178e+2, -557340.5, -666829.9, 2248.3735, -0.0027404863, -0.00032119706, -557294.4, -20664.012 
1.7355613e+3, 2.552313e+2, -460031.1, -569161.1, 1990.0583, -0.0031011638, 0.01226476, -459994.8, -21261.516 
1.7355433e+3, 2.652198e+2, -371630.1, -490336.38, 1518.7023, -0.0023135203, -0.0038052658, -371610.7, -30765.113 
1.7355253e+3, 2.7520746e+2, -273752.9, -392234.84, 1448.5583, -0.00067438016, -0.048331704, -273735.2, -30768.377 
1.7355071e+3, 2.8519538e+2, -185396.39, -313241.0, 496.45828, -0.0032618502, 0.0025151852, -185394.45, -40309.39 
1.7354886e+3, 2.9518357e+2, -89786.58, -218453.25, 470.55597, -0.009413689, 0.13974161, -89784.85, -42583.92 
1.7354713e+3, 3.0516466e+2, -76235.43, -238552.44, 4499.947, 0.0036433977, -0.16808231, -76110.77, -76110.77 
1.7354545e+3, 3.1514904e+2, 64627.656, 61604.13, 38.770947, -0.0057685995, 0.05422174, 64628.152, 64628.152 
1.7458011e+3, 1.2533543e+2, -1667853.0, -1721240.4, 643.4091, -0.0011082161, -0.00065262325, -1667845.3, 43867.477 
1.7457826e+3, 1.3533278e+2, -1571825.8, -1624445.4, 1085.8597, 0.002543262, -0.0028563396, -1571803.4, 41935.22 
1.7457642e+3, 1.4532954e+2, -1483669.9, -1545028.3, 1856.5436, 0.0021775318, -0.0020112244, -1483613.8, 32156.816 
1.7457458e+3, 1.5532567e+2, -1386209.1, -1447534.0, 1692.2717, -0.0013183783, -0.0010220278, -1386162.5, 31645.89 
1.7457277e+3, 1.6532108e+2, -1298637.3, -1369972.0, 2449.5652, -0.001491448, -0.0007168314, -1298553.3, 21300.115 
1.7457095e+3, 1.753158e+2, -1201502.6, -1272488.9, 2753.0054, 0.0010342047, -0.003079742, -1201396.0, 20509.066 
1.7456914e+3, 1.853099e+2, -1112798.4, -1192827.8, 3289.8943, 0.000811087, -0.0024686807, -1112663.3, 11299.457 
1.7456733e+3, 1.9530343e+2, -1015097.75, -1095103.6, 2875.721, -0.0018287757, -0.001133829, -1014994.5, 11031.801 
1.7456552e+3, 2.0529619e+2, -927721.4, -1018470.44, 3114.0044, -0.0023492444, -0.00020059432, -927614.7, 482.49612 
1.7456374e+3, 2.1528822e+2, -830242.5, -920786.75, 3379.9514, -0.0010650875, -0.0015472786, -830116.5, 58.743015 
1.7456193e+3, 2.2527961e+2, -741562.8, -841381.75, 3249.3887, -0.0007672085, -0.0026487752, -741457.1, -9197.546 
1.7456013e+3, 2.3527037e+2, -643946.5, -743635.25, 2987.105, -0.0014896941, -0.0050962334, -643857.06, -9506.924 
1.7455834e+3, 2.4526048e+2, -556246.1, -666548.3, 2595.2896, -0.002327203, -0.00038814085, -556185.06, -19737.938 
1.7455652e+3, 2.5524992e+2, -458405.72, -568623.75, 2684.5513, -0.0029108413, 0.008757072, -458340.38, -19789.725 
1.7455472e+3, 2.6523846e+2, -370092.0, -489982.34, 2265.273, -0.0022824614, -0.0031567428, -370049.22, -29386.434 
1.745529e+3, 2.7522618e+2, -272861.06, -392190.34, 2003.6371, -0.00084653107, -0.03676607, -272827.44, -30044.105 
1.7455108e+3, 2.8521395e+2, -184300.48, -313127.75, 1002.9048, -0.0034495431, 0.0017636125, -184292.67, -39389.555 
1.7454924e+3, 2.9520175e+2, -87718.3, -218214.98, 1049.2117, -0.009276177, 0.1054591, -87709.86, -40687.207 
1.7454748e+3, 3.051832e+2, -79290.12, -247934.58, 4431.517, 0.0041808286, -0.1275364, -79173.75, -79173.75 
1.7454575e+3, 3.1516638e+2, 69219.3, 72062.04, 951.16364, -0.006076043, 0.0405807, 72350.93, 72350.93 
1.7558056e+3, 1.2535413e+2, -1667557.4, -1720166.5, 160.82274, 0.0036784783, -0.0028568255, -1667556.9, 43972.637 
1.7557868e+3, 1.353516e+2, -1571266.3, -1623299.6, 631.02075, -0.0016606684, -0.0015864208, -1571258.6, 42295.617 
1.7557684e+3, 1.4534836e+2, -1483934.4, -1545662.8, 1742.9336, -0.0027131734, -0.0007014201, -1483885.1, 31700.844 
1.7557502e+3, 1.5534441e+2, -1386529.9, -1448100.5, 1629.8414, 0.0012341383, -0.0031384795, -1386486.8, 31137.902 
1.7557319e+3, 1.6533987e+2, -1297947.6, -1368475.6, 2281.8672, 0.0017808334, -0.0019851371, -1297873.9, 21795.344 
1.7557137e+3, 1.7533474e+2, -1200808.0, -1271060.3, 2545.04, -0.0014115111, 0.00038353633, -1200715.9, 21003.576 
1.7556955e+3, 1.8532884e+2, -1113459.3, -1194135.1, 3223.7097, -0.0017693905, 0.00033227992, -1113330.6, 10446.506 
1.7556773e+3, 1.9532222e+2, -1015798.1, -1096378.0, 2837.7444, 0.0005275203, -0.0041508786, -1015698.3, 10143.804 
1.7556593e+3, 2.05315e+2, -927346.5, -1017474.7, 3004.0085, 0.00015210277, -0.0031602453, -927246.5, 666.5267 
1.7556414e+3, 2.1530715e+2, -829873.44, -919806.25, 3236.2834, -0.0026837834, 0.00073014136, -829757.1, 232.75331 
1.7556232e+3, 2.2529854e+2, -742304.5, -842702.9, 3120.8208, -0.0029879918, 0.0005349435, -742207.6, -10133.4 
1.7556053e+3, 2.3528919e+2, -644697.5, -744974.0, 2886.9375, -0.0011720546, -0.0048033, -644614.5, -10448.565 
1.7555873e+3, 2.4527924e+2, -556220.75, -666302.3, 2529.864, -0.0012385461, -0.0018240978, -556162.7, -19899.258 
1.7555693e+3, 2.552687e+2, -458330.13, -568321.5, 2639.0576, -0.0027957326, 0.006765096, -458266.8, -19900.064 
1.7555511e+3, 2.6525727e+2, -370517.94, -490837.03, 2007.9198, -0.0026107559, -0.00043686328, -370484.44, -30005.848 
1.7555329e+3, 2.7524498e+2, -273247.28, -393088.6, 1750.6868, -0.0010111202, -0.024960227, -273221.7, -30622.895 
1.7555146e+3, 2.8523257e+2, -184393.19, -313442.38, 1033.8562, -0.0032887305, -0.0010560135, -184384.9, -39664.395 
1.7554963e+3, 2.9522e+2, -88063.54, -218902.61, 1095.3679, -0.008796436, 0.066859834, -88054.37, -41210.563 
1.7554784e+3, 3.0520204e+2, -83219.945, -255896.13, 2705.7288, 0.0042702197, -0.07912673, -83177.555, -83177.555 
1.7554605e+3, 3.1518406e+2, 72257.01, 78914.76, -947.7633, -0.006683013, 0.025065003, 79047.05, 79047.05 
1.76581e+3, 1.2537295e+2, -1669428.8, -1720689.1, 719.9795, 0.0033021597, -0.0018009946, -1669418.8, 41926.316 
1.7657913e+3, 1.3537045e+2, -1571700.9, -1623127.3, 881.9264, -0.0010417599, -0.0015277701, -1571685.8, 41683.688 
1.7657727e+3, 1.4536723e+2, -1484283.0, -1545424.1, 2065.7642, -0.0019161642, -0.0007717062, -1484213.4, 31187.633 
1.7657542e+3, 1.5536334e+2, -1387678.8, -1448245.9, 2424.2925, 0.0013412003, -0.0025401812, -1387581.9, 29857.346 
1.7657359e+3, 1.6535883e+2, -1299049.9, -1368822.8, 3222.0571, 0.0016055461, -0.0015412308, -1298901.4, 20582.06 
1.7657177e+3, 1.753537e+2, -1200846.4, -1270891.3, 2931.4495, -0.0014815383, -0.00008777963, -1200723.9, 20809.719 
1.7656995e+3, 1.8534781e+2, -1113287.1, -1194194.3, 3591.2964, -0.0018164723, 0.00016602084, -1113128.0, 10463.252 
1.7656815e+3, 1.9534118e+2, -1015795.5, -1096514.3, 3676.3892, 0.00030893023, -0.0030057828, -1015628.4, 10027.916 
1.7656635e+3, 2.0533393e+2, -927050.56, -1017303.2, 3885.7546, 0.00011197689, -0.0024629915, -926883.56, 843.67804 
1.7656454e+3, 2.1532609e+2, -829063.3, -919388.2, 3679.3157, -0.0021526497, -0.00016157876, -828913.7, 890.5572 
1.7656273e+3, 2.2531748e+2, -741342.9, -842587.2, 3527.8855, -0.0025640645, 0.00023988265, -741220.06, -9331.426 
1.7656092e+3, 2.3530811e+2, -643499.1, -744732.25, 3655.9753, -0.0013952116, -0.0028452866, -643367.25, -9386.835 
1.7655914e+3, 2.4529812e+2, -555072.44, -665963.25, 3316.7449, -0.0016068425, -0.0016125103, -554973.3, -18894.959 
1.7655732e+3, 2.552875e+2, -457713.34, -568253.25, 3182.756, -0.0029824292, 0.0019071237, -457621.78, -19439.432 
1.765555e+3, 2.6527613e+2, -369832.8, -490979.97, 2474.018, -0.0025539228, 0.000002612141, -369782.3, -29488.38 
1.7655368e+3, 2.7526394e+2, -271413.66, -392684.06, 2304.4705, -0.00057779794, -0.009992691, -271369.88, -28956.742 
1.7655185e+3, 2.8525135e+2, -181986.34, -312486.38, 1678.1459, -0.0029074831, -0.0017312926, -181964.77, -37428.133 
1.7655002e+3, 2.9523832e+2, -86359.61, -218570.14, 1657.8572, -0.008712202, 0.023419926, -86338.83, -39674.53 
1.765482e+3, 3.052211e+2, -83688.7, -259088.86, 2355.8032, 0.004008555, -0.029166697, -83657.07, -83657.07 
1.7654638e+3, 3.152022e+2, 74908.27, 82831.84, 271.5279, -0.006460313, 0.0076027736, 82841.14, 82841.14 
1.7758141e+3, 1.2539189e+2, -1669487.5, -1720687.3, 645.0483, -0.0012248191, 0.0016875027, -1669479.4, 41680.035 
1.7757955e+3, 1.3538936e+2, -1571857.0, -1623119.4, 817.3446, 0.0026425903, -0.0021912425, -1571843.9, 41340.35 
1.775777e+3, 1.453862e+2, -1483757.0, -1544141.3, 1727.789, 0.0027665216, -0.0015905257, -1483707.5, 31507.71 
1.7757584e+3, 1.5538241e+2, -1386983.4, -1446911.9, 2096.6675, -0.00039729936, 0.00012541293, -1386910.1, 30342.096 
1.7757401e+3, 1.6537791e+2, -1299311.6, -1369473.4, 3288.966, -0.001233492, 0.00031607322, -1299157.9, 20138.527 
1.7757219e+3, 1.7537269e+2, -1201201.3, -1271525.5, 3023.6858, 0.00006358351, -0.0034933754, -1201071.5, 20276.047 
1.7757037e+3, 1.8536682e+2, -1113047.1, -1193543.4, 3508.8625, -0.00015012713, -0.0022283036, -1112894.5, 10510.565 
1.7756855e+3, 1.953603e+2, -1015544.94, -1095883.4, 3584.3274, -0.0019239138, 0.0013207656, -1015385.3, 10083.622 
1.7756675e+3, 2.0535305e+2, -927511.8, -1018106.56, 3900.1873, -0.0018811254, 0.0010898352, -927344.25, 195.80553 
1.7756495e+3, 2.1534508e+2, -829565.6, -920198.0, 3687.321, -0.00024676623, -0.0038007884, -829415.9, 202.3355 
1.7756313e+3, 2.2533645e+2, -741388.06, -842434.75, 3479.6028, -0.00043759393, -0.0029052498, -741268.4, -9565.659 
1.7756134e+3, 2.3532717e+2, -643481.2, -744513.5, 3606.8542, -0.002156694, 0.0006971638, -643352.6, -9558.91 
1.7755954e+3, 2.4531713e+2, -555483.4, -666708.6, 3097.45, -0.0031745746, 0.00014557679, -555397.2, -19505.26 
1.7755772e+3, 2.553064e+2, -458122.8, -569079.06, 2977.1377, -0.0035702495, -0.0052696695, -458043.0, -20045.715 
1.775559e+3, 2.65295e+2, -370011.28, -491370.5, 2548.3945, -0.0022333157, -0.0015122395, -369957.78, -29849.021 
1.7755409e+3, 2.75283e+2, -271613.94, -393007.97, 2441.982, -0.0000057620696, 0.007062919, -271564.8, -29338.389 
1.7755225e+3, 2.8527024e+2, -182167.92, -312789.03, 1602.5306, -0.0027791527, -0.001096901, -182148.27, -37796.57 
1.775504e+3, 2.9525667e+2, -86666.51, -219257.45, 1549.2878, -0.008966931, -0.023624787, -86648.41, -40164.145 
1.7754856e+3, 3.0524042e+2, -83864.53, -259428.11, 583.1987, 0.0033967125, 0.022224665, -83862.59, -83862.59 
1.7754668e+3, 3.1522086e+2, 74140.55, 81751.16, -1565.6096, -0.006121646, -0.0065676835, 82060.64, 82060.64 
1.7858185e+3, 1.2541088e+2, -1669931.1, -1720434.0, 1167.1437, -0.00076869805, 0.00044053723, -1669904.3, 41069.1 
1.7857997e+3, 1.354084e+2, -1573975.8, -1623668.0, 1519.0276, 0.0025343834, -0.0013359932, -1573929.3, 39068.28 
1.7857811e+3, 1.4540529e+2, -1485787.3, -1544791.5, 2628.8513, 0.0024129483, -0.00045737496, -1485670.3, 29357.832 
1.7857626e+3, 1.5540153e+2, -1387272.3, -1446722.1, 2611.6594, -0.00051197817, -0.00021317539, -1387157.8, 29907.143 
1.7857441e+3, 1.6539705e+2, -1299376.0, -1369458.6, 3763.7158, -0.0010761451, -0.00014146802, -1299174.4, 19934.46 
1.785726e+3, 1.7539185e+2, -1202026.6, -1271871.9, 3766.5942, 0.00040805293, -0.0027163941, -1201824.1, 19335.813 
1.7857078e+3, 1.8538599e+2, -1113566.9, -1193575.9, 4403.888, 0.000119309545, -0.0015071962, -1113325.3, 9892.034 
1.7856896e+3, 1.9537948e+2, -1015008.3, -1095401.5, 4289.418, -0.0018346272, 0.0009938892, -1014780.1, 10500.955 
1.7856716e+3, 2.0537223e+2, -926855.0, -1018221.25, 4580.825, -0.0019080061, 0.0007017874, -926625.94, 726.3006 
1.7856535e+3, 2.1536422e+2, -828864.2, -920288.4, 4490.579, -0.00041645902, -0.003437205, -828644.1, 786.57745 
1.7856355e+3, 2.2535557e+2, -740502.2, -842127.6, 4239.0415, -0.0005428585, -0.001953094, -740325.7, -8810.26 
1.7856175e+3, 2.3534629e+2, -642672.94, -744247.56, 4223.981, -0.0020221847, 0.0022217047, -642497.6, -8891.193 
1.7855993e+3, 2.453362e+2, -554475.44, -666728.75, 3624.7698, -0.0028236895, -0.0003013057, -554358.5, -18653.46 
1.7855811e+3, 2.5532538e+2, -456081.34, -568580.5, 3536.2249, -0.0030705023, -0.009843026, -455970.3, -18159.035 
1.7855631e+3, 2.65314e+2, -367956.44, -490579.78, 3095.3213, -0.0021770557, -0.0005985199, -367878.34, -27955.89 
1.7855449e+3, 2.7530214e+2, -270966.72, -392927.34, 2998.4963, -0.0007373721, 0.021653475, -270893.03, -28854.133 
1.7855264e+3, 2.852892e+2, -181823.88, -312994.38, 2208.76, -0.0030389566, -0.002334574, -181786.69, -37620.77 
1.7855081e+3, 2.952752e+2, -85130.305, -218920.38, 1973.5132, -0.008090778, -0.06619599, -85101.2, -38798.39 
1.7854893e+3, 3.0526e+2, -79498.76, -253933.52, 41.19014, 0.002931816, 0.074392565, -79498.75, -79498.75 
1.78547e+3, 3.1524006e+2, 73913.414, 78209.77, -290.63086, -0.0059666005, -0.028086836, 78229.34, 78229.34 
1.7958227e+3, 1.2542996e+2, -1669813.1, -1719622.9, 561.5159, 0.002725926, -0.0037014403, -1669806.9, 40979.51 
1.7958039e+3, 1.3542761e+2, -1573427.1, -1622641.6, 941.46246, -0.0005514144, 0.0010606785, -1573409.1, 39400.25 
1.7957851e+3, 1.4542453e+2, -1485749.3, -1544912.8, 2705.2126, -0.0018819316, 0.0025144005, -1485625.8, 29213.863 
1.7957667e+3, 1.554207e+2, -1387425.8, -1446903.0, 2751.0713, 0.0003115179, -0.002602865, -1387298.8, 29578.342 
1.7957483e+3, 1.6541623e+2, -1299188.0, -1368931.6, 3629.9478, 0.0011120097, -0.0021736354, -1298999.6, 19921.242 
1.79573e+3, 1.7541113e+2, -1201732.9, -1271287.9, 3653.7932, -0.00021255453, 0.0011146943, -1201541.5, 19429.463 
1.7957118e+3, 1.8540527e+2, -1113565.4, -1193584.5, 4595.096, -0.0007592315, 0.0015534317, -1113302.4, 9725.824 
1.7956938e+3, 1.953987e+2, -1015063.2, -1095405.0, 4465.4907, -0.00027112616, -0.0030218994, -1014815.75, 10276.8955 
1.7956756e+3, 2.0539144e+2, -927076.25, -1018545.3, 4596.61, -0.00080763677, -0.0027306061, -926845.9, 317.9895 
1.7956576e+3, 2.1538348e+2, -829046.7, -920598.6, 4507.0996, -0.0022805918, 0.00024624658, -828825.3, 416.56586 
1.7956395e+3, 2.2537482e+2, -740739.7, -842549.06, 4181.9165, -0.0023567916, 0.002410197, -740568.2, -9241.465 
1.7956215e+3, 2.3536547e+2, -642985.06, -744755.9, 4140.4917, -0.0014875935, 0.0018739135, -642816.9, -9398.453 
1.7956035e+3, 2.4535534e+2, -554829.2, -667313.9, 3686.0903, -0.0012685248, -0.0027495031, -554708.56, -19190.9 
1.7955853e+3, 2.5534448e+2, -456383.56, -569034.8, 3646.1084, -0.0019401445, -0.012245079, -456265.66, -18641.432 
1.7955673e+3, 2.6533315e+2, -368102.03, -490791.8, 2798.7954, -0.0025726983, 0.0024013459, -368038.22, -28303.16 
1.795549e+3, 2.7532136e+2, -271088.97, -393271.97, 2721.2947, -0.0025420766, 0.03444603, -271028.38, -29177.71 
1.7955305e+3, 2.8530818e+2, -182063.16, -313609.88, 2496.2346, -0.0035651394, -0.0051998016, -182015.81, -38036.15 
1.7955121e+3, 2.9529378e+2, -85388.695, -219290.42, 2274.4336, -0.0066636945, -0.106136225, -85350.07, -39229.43 
1.7954932e+3, 3.0527982e+2, -75645.81, -245784.2, -1855.93, 0.0020182969, 0.12627998, -75625.57, -75625.57 
1.7954731e+3, 3.152597e+2, 69545.41, 69091.164, -2112.7166, -0.006351175, -0.04265301, 71443.18, 71443.18 
1.8058267e+3, 1.2544912e+2, -1672851.5, -1720507.4, 1068.817, 0.0031215262, -0.0021503048, -1672827.6, 37770.98 
1.8058078e+3, 1.354468e+2, -1574467.4, -1622561.0, 1351.6548, -0.0005565478, 0.000097806354, -1574429.4, 38191.844 
1.8057892e+3, 1.4544377e+2, -1486543.0, -1544937.5, 3220.8308, -0.0016563557, 0.0013584472, -1486365.9, 28285.244 
1.8057707e+3, 1.5544e+2, -1389320.8, -1447437.5, 3459.6719, 0.0005230366, -0.0017972116, -1389115.5, 27572.475 
1.8057524e+3, 1.6543558e+2, -1300844.9, -1369404.6, 4595.2764, 0.0010539858, -0.0011515578, -1300538.1, 18193.184 
1.8057342e+3, 1.7543048e+2, -1201727.0, -1270975.5, 4525.523, -0.0003507223, 0.0009553613, -1201432.5, 19348.734 
1.805716e+3, 1.8542466e+2, -1113200.5, -1193671.8, 5366.0376, -0.000707013, 0.0013520832, -1112844.3, 9994.183 
1.8056978e+3, 1.9541806e+2, -1014964.0, -1095618.6, 5108.7476, -0.0000769538, -0.0021639857, -1014641.7, 10261.304 
1.8056798e+3, 2.0541078e+2, -926757.5, -1018459.0, 5218.3438, -0.00061850954, -0.0020606495, -926461.5, 512.8629 
1.8056618e+3, 2.154028e+2, -828252.75, -920281.9, 5228.9946, -0.0021080459, -0.00030938777, -827956.6, 1095.9663 
1.8056437e+3, 2.2539411e+2, -739707.9, -842603.56, 4864.5273, -0.002174775, 0.0022482364, -739478.44, -8340.789 
1.8056257e+3, 2.3538472e+2, -641316.06, -744495.5, 4727.952, -0.0013356201, 0.0036238253, -641099.9, -7870.2085 
1.8056077e+3, 2.4537456e+2, -553216.9, -666794.2, 4229.4316, -0.0012813276, -0.0023876522, -553059.6, -17730.273 
1.8055895e+3, 2.553636e+2, -455965.7, -569103.8, 4285.57, -0.0020494645, -0.016035333, -455803.6, -18367.107 
1.8055713e+3, 2.6535234e+2, -367604.53, -490958.56, 3304.9355, -0.0025620565, 0.0030562268, -367516.06, -27968.936 
1.805553e+3, 2.7534065e+2, -268968.0, -392610.22, 3024.5996, -0.0024329342, 0.046608265, -268894.06, -27232.19 
1.8055347e+3, 2.8532732e+2, -179831.5, -312739.22, 2856.2156, -0.003294664, -0.006470478, -179770.14, -35977.844 
1.8055162e+3, 2.9531255e+2, -84657.38, -219044.84, 2652.4814, -0.0057454435, -0.14162901, -84605.05, -38668.31 
1.805497e+3, 3.052998e+2, -68718.03, -233312.1, -2268.2446, 0.0011988498, 0.16818522, -68686.77, -68686.77 
1.8054765e+3, 3.1527987e+2, 67306.17, 58023.21, -930.0924, -0.0058736904, -0.060734678, 67398.445, 67398.445 
1.8158308e+3, 1.2546842e+2, -1672396.3, -1719703.8, 1060.0238, 0.0002467848, 0.0036050726, -1672372.5, 38037.08 
1.8158118e+3, 1.3546607e+2, -1574255.3, -1621877.8, 1356.4756, 0.0014134706, -0.0033559685, -1574216.8, 38215.94 
1.8157932e+3, 1.4546306e+2, -1486287.8, -1544167.9, 2968.158, 0.0018603473, -0.0026983486, -1486135.9, 28326.057 
1.8157746e+3, 1.5545943e+2, -1388863.4, -1446506.1, 3258.5964, 0.0001052465, 0.0014931565, -1388679.8, 27817.92 
1.8157564e+3, 1.6545504e+2, -1300631.5, -1369042.0, 4889.147, -0.00088850944, 0.0023061621, -1300283.8, 18256.783 
1.8157382e+3, 1.7544992e+2, -1201627.4, -1270691.0, 4846.1313, -0.00030442225, -0.002205252, -1201288.9, 19301.926 
1.8157199e+3, 1.8544407e+2, -1113528.9, -1194238.1, 5472.3438, -0.00028418776, -0.0012245753, -1113159.5, 9488.584 
1.815702e+3, 1.9543752e+2, -1015206.9, -1096128.4, 5235.7344, -0.0011004038, 0.0023423077, -1014869.5, 9842.864 
1.815684e+3, 2.0543022e+2, -926674.1, -1018324.6, 5405.358, -0.0011709365, 0.0016731559, -926356.44, 427.46768 
1.815666e+3, 2.1542217e+2, -828205.8, -920160.06, 5370.748, -0.0006954683, -0.00454789, -827893.2, 969.5782 
1.815648e+3, 2.2541347e+2, -740123.3, -843430.7, 4955.8364, -0.0009219783, -0.0017034133, -739886.1, -8938.106 
1.8156299e+3, 2.354041e+2, -641662.3, -745226.94, 4839.155, -0.001844865, 0.0073314724, -641436.7, -8396.783 
1.8156119e+3, 2.4539389e+2, -553281.1, -666938.9, 3995.0493, -0.0027359102, 0.0005226173, -553140.9, -18000.943 
1.8155937e+3, 2.5538287e+2, -456119.34, -569428.25, 4045.1736, -0.0032944437, -0.02097976, -455975.13, -18727.19 
1.8155755e+3, 2.6537156e+2, -367988.63, -491743.6, 3449.7502, -0.0022983965, 0.0016089964, -367892.56, -28533.895 
1.8155572e+3, 2.7535993e+2, -269391.9, -393240.13, 3243.407, -0.0010608396, 0.05781163, -269307.0, -27834.316 
1.8155389e+3, 2.853465e+2, -179951.86, -312795.94, 2698.0798, -0.0026126844, -0.006595124, -179897.08, -36292.71 
1.8155204e+3, 2.9533142e+2, -84560.97, -218988.36, 2481.5554, -0.0052457177, -0.17261814, -84515.17, -38763.293 
1.8155009e+3, 3.053198e+2, -61254.09, -218142.25, -3384.4521, 0.00020041407, 0.20207682, -61181.113, -61181.113 
1.8154801e+3, 3.153005e+2, 58938.367, 40548.63, -1968.5037, -0.0056874193, -0.06567862, 59146.723, 59146.723 
1.8258347e+3, 1.254877e+2, -1674218.8, -1720033.8, 1668.5895, 0.00020323833, 0.0027323538, -1674158.1, 36062.633 
1.8258157e+3, 1.3548541e+2, -1577446.3, -1622807.9, 1864.4063, 0.0016131866, -0.0019263462, -1577369.8, 34873.234 
1.8257971e+3, 1.4548248e+2, -1489113.4, -1544844.6, 3826.22, 0.002190251, -0.0012145238, -1488851.9, 25419.795 
1.8257786e+3, 1.554789e+2, -1389691.8, -1446241.0, 4093.889, 0.000278134, 0.0012397972, -1389396.9, 26909.918 
1.8257603e+3, 1.6547455e+2, -1301065.3, -1369226.1, 5653.8047, -0.00077844446, 0.001684393, -1300599.5, 17749.992 
1.8257421e+3, 1.7546944e+2, -1202541.8, -1271088.5, 5432.7534, -0.0003212283, -0.0017069922, -1202113.9, 18285.709 
1.8257241e+3, 1.854636e+2, -1114166.4, -1194439.1, 6190.0146, -0.00032258086, -0.0005550651, -1113691.8, 8764.886 
1.825706e+3, 1.9545706e+2, -1014837.3, -1095874.0, 6229.3623, -0.0010326663, 0.002535768, -1014361.25, 10159.634 
1.8256882e+3, 2.0544973e+2, -925886.0, -1018465.5, 6360.2036, -0.000985041, 0.0016858235, -925451.1, 1141.5049 
1.8256702e+3, 2.1544164e+2, -826877.56, -920015.44, 6028.6797, -0.00037535338, -0.004505967, -826488.94, 2182.9402 
1.8256523e+3, 2.254329e+2, -738630.06, -843039.44, 5480.5933, -0.00081404485, -0.0013376968, -738343.2, -7585.656 
1.8256341e+3, 2.354235e+2, -640599.9, -745055.06, 5556.377, -0.0021520872, 0.008417072, -640305.1, -7455.5366 
1.825616e+3, 2.4541326e+2, -551993.4, -666921.2, 4514.0283, -0.0027737273, 0.0007125023, -551816.4, -16866.27 
1.8255979e+3, 2.5540215e+2, -453569.38, -568763.0, 4292.5576, -0.0028023575, -0.022809178, -453409.63, -16350.834 
1.8255797e+3, 2.6539087e+2, -365755.4, -490916.25, 3636.522, -0.0022016943, 0.0021990184, -365649.8, -26480.26 
1.8255614e+3, 2.7537927e+2, -269155.28, -393411.78, 3595.19, -0.0015542121, 0.06424544, -269051.34, -27768.162 
1.825543e+3, 2.8536576e+2, -179935.92, -313070.44, 3004.8943, -0.0024692414, -0.0072632427, -179868.14, -36452.426 
1.8255246e+3, 2.953505e+2, -82866.54, -218019.39, 2459.5872, -0.0043124426, -0.19054812, -82821.8, -37256.73 
1.8255048e+3, 3.053399e+2, -50137.0, -199288.89, -4019.527, -0.0010790147, 0.22511786, -50028.758, -50028.758 
1.8254837e+3, 3.1532145e+2, 53627.92, 23426.129, -1385.8138, -0.0045936354, -0.07966526, 53691.38, 53691.38 
1.8358386e+3, 1.2550703e+2, -1674093.0, -1719462.6, 1240.8296, 0.0017529529, -0.0026776206, -1674059.1, 35971.99 
1.8358195e+3, 1.355049e+2, -1576934.8, -1621920.3, 1476.5684, -0.000046573645, 0.0034890887, -1576886.3, 35165.742 
1.8358007e+3, 1.4550205e+2, -1488515.8, -1543823.3, 4130.6777, -0.0003764048, 0.0047229026, -1488209.0, 25871.117 
1.8357825e+3, 1.5549845e+2, -1389354.6, -1445424.5, 4441.35, 0.00076323276, -0.0016503726, -1389005.0, 27110.422 
1.8357642e+3, 1.654941e+2, -1301292.8, -1369510.4, 5795.166, 0.0007222505, -0.0018467868, -1300804.0, 17353.87 
1.835746e+3, 1.7548904e+2, -1202625.1, -1271214.1, 5635.0464, -0.00050034834, 0.0014778733, -1202165.3, 18042.313 
1.8357281e+3, 1.8548323e+2, -1113798.8, -1193728.6, 6602.3027, -0.00078280305, 0.0025167398, -1113257.1, 9007.307 
1.8357103e+3, 1.9547667e+2, -1014504.6, -1095239.4, 6612.337, -0.00039516055, -0.0006659123, -1013966.6, 10362.081 
1.8356924e+3, 2.0546933e+2, -926402.5, -1019604.25, 6639.7017, -0.0006915462, -0.0011171388, -925931.9, 468.76117 
1.8356745e+3, 2.1546121e+2, -827309.1, -921040.56, 6330.216, -0.0012549189, -0.0009004228, -826883.5, 1596.6222 
1.8356565e+3, 2.2545245e+2, -738588.56, -843079.1, 5515.4277, -0.0017592229, 0.0025555447, -738298.25, -7732.1885 
1.8356386e+3, 2.35443e+2, -640667.2, -745234.25, 5541.452, -0.0023909255, 0.007017464, -640374.4, -7715.684 
1.8356206e+3, 2.4543267e+2, -552567.0, -668091.94, 4603.022, -0.0018485888, -0.0016515726, -552383.9, -17624.11 
1.8356022e+3, 2.5542155e+2, -454136.06, -569798.3, 4401.333, -0.0013017448, -0.022162998, -453968.8, -17099.824 
1.835584e+3, 2.654102e+2, -365815.84, -490936.53, 3250.0908, -0.0024687455, 0.004577196, -365731.47, -26751.596 
1.8355657e+3, 2.753986e+2, -269246.8, -393656.22, 3259.5562, -0.003654625, 0.06720086, -269161.47, -28068.03 
1.8355472e+3, 2.85385e+2, -180299.81, -313821.66, 3244.6658, -0.0030029027, -0.008225603, -180221.02, -36994.195 
1.8355288e+3, 2.9536965e+2, -83006.195, -217932.52, 2674.8909, -0.0031899288, -0.19863592, -82953.19, -37575.785 
1.8355088e+3, 3.0536e+2, -40683.43, -179647.14, -4984.387, -0.0027999035, 0.23862037, -40504.88, -40504.88 
1.8354875e+3, 3.153427e+2, 44019.293, 2677.6338, -1867.7239, -0.0039961124, -0.07812376, 44103.5, 44103.5 
1.8458422e+3, 1.2552643e+2, -1678615.5, -1720457.1, 1579.8912, 0.0026852887, -0.0012914144, -1678555.9, 31285.209 
1.8458231e+3, 1.3552438e+2, -1579542.4, -1622024.5, 2210.051, -0.0002638462, 0.0026750043, -1579427.8, 32433.404 
1.8458046e+3, 1.455216e+2, -1490609.3, -1544615.5, 4991.788, -0.00062098546, 0.0038597889, -1490151.8, 23736.684 
1.8457861e+3, 1.5551804e+2, -1391747.8, -1446300.6, 4959.9478, 0.00078650203, -0.0005620641, -1391300.5, 24622.87 
1.8457681e+3, 1.6551375e+2, -1303096.0, -1369817.6, 6532.727, 0.00079880113, -0.0007843955, -1302462.5, 15502.919 
1.84575e+3, 1.7550872e+2, -1202975.8, -1270866.4, 6748.863, -0.00013001366, 0.0011233166, -1202311.4, 17703.28 
1.8457322e+3, 1.8550293e+2, -1113566.0, -1193934.6, 7657.643, -0.00037113132, 0.002056043, -1112842.9, 9228.474 
1.8457144e+3, 1.9549635e+2, -1013734.9, -1095173.0, 7204.4683, -0.00036322058, -0.0001557764, -1013102.44, 11033.41 
1.8456967e+3, 2.0548898e+2, -925382.4, -1019258.0, 7131.8867, -0.00089120376, -0.0005470029, -924843.6, 1364.362 
1.8456788e+3, 2.1548086e+2, -826442.6, -920774.2, 7265.482, -0.001514107, -0.00046691854, -825886.3, 2401.33 
1.845661e+3, 2.2547205e+2, -737517.1, -843357.44, 6346.043, -0.0016919365, 0.0029129696, -737138.0, -6764.013 
1.8456429e+3, 2.3546253e+2, -638257.0, -744833.1, 5990.7383, -0.0017935113, 0.0070165372, -637921.3, -5454.055 
1.8456249e+3, 2.4545217e+2, -550006.25, -667309.1, 4864.6772, -0.0014395774, -0.0015792345, -549804.9, -15235.955 
1.8456067e+3, 2.5544098e+2, -452826.47, -569660.4, 4905.422, -0.0012872271, -0.021446869, -452620.88, -15942.442 
1.8455884e+3, 2.6542962e+2, -364339.97, -490767.5, 3477.2356, -0.0024667678, 0.0050006807, -364244.4, -25454.611 
1.8455699e+3, 2.7541798e+2, -266437.97, -392779.44, 3095.1458, -0.0038552533, 0.066321045, -266362.2, -25458.3 
1.8455514e+3, 2.8540435e+2, -178574.13, -313246.47, 2972.3396, -0.0030975926, -0.008254104, -178508.56, -35471.14 
1.845533e+3, 2.95389e+2, -84049.19, -218194.11, 2549.541, -0.002186604, -0.19470738, -84000.75, -38812.98 
1.845513e+3, 3.0538e+2, -30854.797, -159998.22, -5082.2607, -0.0039236946, 0.2353263, -30655.1, -30655.1 
1.8454915e+3, 3.1536394e+2, 40123.83, -15576.977, -1655.6981, -0.0036336447, -0.08173035, 40173.0, 40173.0 
1.8558456e+3, 1.2554592e+2, -1677154.6, -1717886.4, 1762.0167, 0.0015041822, 0.004952999, -1677078.5, 32571.643 
1.8558267e+3, 1.3554393e+2, -1578461.5, -1619810.3, 2408.0244, 0.0006258918, -0.0031801546, -1578321.8, 33347.926 
1.855808e+3, 1.4554118e+2, -1490852.1, -1544916.3, 5150.454, 0.0011426165, -0.0021871303, -1490365.9, 23330.639 
1.8557899e+3, 1.5553771e+2, -1391845.0, -1446351.9, 5204.038, 0.00008482497, 0.0034617232, -1391352.6, 24377.945 
1.8557718e+3, 1.6553348e+2, -1302404.6, -1368373.9, 7102.2837, -0.00057806895, 0.0037919972, -1301648.6, 16123.408 
1.855754e+3, 1.7552847e+2, -1202387.8, -1269606.8, 7328.528, 0.0005109534, -0.0019574836, -1201598.0, 18222.969 
1.8557362e+3, 1.8552268e+2, -1114216.1, -1195183.1, 8169.893, 0.00030871644, -0.0009910623, -1113400.0, 8477.831 
1.8557186e+3, 1.9551606e+2, -1014258.1, -1096244.8, 7770.19, -0.0011265348, 0.0030784651, -1013528.2, 10414.385 
1.8557009e+3, 2.055087e+2, -925015.8, -1018591.4, 7445.3237, -0.001547805, 0.0024548364, -924427.1, 1587.6693 
1.8556832e+3, 2.1550056e+2, -826099.8, -920230.75, 7524.763, -0.0012857312, -0.002851046, -825502.06, 2592.4314 
1.8556654e+3, 2.2549172e+2, -738201.8, -844936.2, 6670.515, -0.0011136507, 0.00032411897, -737786.5, -7605.232 
1.8556474e+3, 2.3548211e+2, -638923.56, -746274.3, 6331.853, -0.0012331672, 0.008371522, -638551.4, -6276.0054 
1.8556294e+3, 2.4547172e+2, -550070.2, -667466.6, 4655.587, -0.0018857876, 0.0006710512, -549885.9, -15508.502 
1.8556112e+3, 2.554605e+2, -452973.7, -569997.0, 4679.401, -0.002501961, -0.020637888, -452786.88, -16299.719 
1.8555929e+3, 2.6544908e+2, -365010.34, -492109.94, 3438.9114, -0.0023760928, 0.0037687346, -364917.38, -26318.025 
1.8555744e+3, 2.754373e+2, -267153.25, -393909.5, 3059.3586, -0.0026829236, 0.06203611, -267079.47, -26364.807 
1.8555558e+3, 2.8542367e+2, -178725.44, -313314.66, 2308.824, -0.0026636529, -0.0072863726, -178685.84, -35837.883 
1.8555371e+3, 2.954085e+2, -83687.58, -217619.31, 1955.2633, -0.0015381746, -0.17966014, -83659.04, -38662.11 
1.855517e+3, 3.053998e+2, -21290.594, -140673.38, -4477.9507, -0.0053564776, 0.21867156, -21122.865, -21122.865 
1.8554957e+3, 3.1538534e+2, 30031.975, -37173.96, -653.88525, -0.004063841, -0.07005905, 30038.336, 30038.336 
1.8658489e+3, 1.2556535e+2, -1681606.1, -1719493.0, 2298.666, 0.0013061499, 0.004012018, -1681467.3, 27992.53 
1.8658301e+3, 1.3556343e+2, -1582750.3, -1621215.1, 2199.661, 0.0010998511, -0.001988886, -1582624.9, 28853.586 
1.8658116e+3, 1.4556079e+2, -1494242.4, -1545328.8, 5379.348, 0.0018722196, -0.0012694625, -1493682.1, 19822.271 
1.8657935e+3, 1.5555741e+2, -1393722.9, -1446118.8, 6158.2036, 0.00039534445, 0.0025810953, -1393008.9, 22528.734 
1.8657756e+3, 1.6555323e+2, -1303780.6, -1369046.6, 8133.4233, -0.0005384745, 0.003137591, -1302782.4, 14796.196 
1.865758e+3, 1.7554826e+2, -1203246.6, -1269982.9, 7746.564, 0.00021529371, -0.00063388766, -1202359.3, 17268.055 
1.8657404e+3, 1.8554246e+2, -1114559.1, -1194986.5, 8669.825, 0.00007355891, 0.00012909065, -1113635.1, 8048.7505 
1.8657228e+3, 1.9553588e+2, -1014240.0, -1095891.4, 8995.471, -0.000961281, 0.0027180058, -1013260.75, 10487.671 
1.8657053e+3, 2.055285e+2, -924441.3, -1018966.0, 8605.545, -0.0011942226, 0.0020853556, -923664.25, 2156.5398 
1.8656877e+3, 2.1552032e+2, -823682.1, -919726.56, 8083.58, -0.00090399955, -0.0020940716, -823006.5, 4894.4434 
1.86567e+3, 2.2551142e+2, -735207.6, -843819.56, 6969.6265, -0.001028739, 0.00079167564, -734762.2, -4773.9326 
1.865652e+3, 2.3550177e+2, -636930.44, -745662.75, 7138.5566, -0.001572996, 0.007616827, -636463.75, -4381.0137 
1.865634e+3, 2.4549131e+2, -548098.8, -667551.1, 5191.0522, -0.0020810755, 0.0011344849, -547873.6, -13688.387 
1.8656158e+3, 2.5548005e+2, -449426.6, -569250.6, 4691.4663, -0.0023324017, -0.016983906, -449243.2, -12947.557 
1.8655974e+3, 2.654685e+2, -361855.6, -490981.0, 3115.3235, -0.0023909942, 0.003974233, -361780.5, -23371.793 
1.8655787e+3, 2.7545664e+2, -266289.97, -393928.22, 3097.6833, -0.0026418723, 0.05336734, -266214.84, -25689.625 
1.8655601e+3, 2.854431e+2, -178023.25, -313466.25, 2147.983, -0.0021181388, -0.006357317, -177989.19, -35331.203 
1.8655412e+3, 2.954281e+2, -81336.92, -216332.64, 1420.2899, -0.0008062525, -0.15308744, -81321.984, -36517.203 
1.8655212e+3, 3.0541947e+2, -11000.879, -122949.516, -4764.2886, -0.0062121702, 0.18798997, -10798.487, -10798.487 
1.8655e+3, 3.1540644e+2, 23270.771, -54607.96, -1288.4701, -0.002808734, -0.0649331, 23292.084, 23292.084 
1.875852e+3, 1.2558478e+2, -1681791.5, -1719930.5, 2489.3562, 0.0014165528, -0.0023426071, -1681629.8, 27639.514 
1.8758333e+3, 1.3558297e+2, -1582699.0, -1621235.3, 2480.236, 0.0003113615, 0.0044935076, -1582540.0, 28747.2 
1.875815e+3, 1.4558041e+2, -1492727.3, -1542341.8, 6063.365, 0.0008750862, 0.004919032, -1491997.0, 21315.127 
1.875797e+3, 1.5557712e+2, -1392460.4, -1443493.9, 6806.4683, 0.0013621836, -0.0020172875, -1391568.1, 23776.143 
1.8757793e+3, 1.65573e+2, -1304375.5, -1370118.9, 8782.201, 0.0005382381, -0.001276859, -1303222.6, 14162.186 
1.8757617e+3, 1.7556804e+2, -1203765.9, -1270843.1, 8496.087, -0.00093668804, 0.0040273853, -1202706.5, 16726.96 
1.8757443e+3, 1.855623e+2, -1113750.1, -1193217.9, 9342.954, -0.0009722655, 0.0045506805, -1112666.4, 8823.27 
1.875727e+3, 1.9555576e+2, -1013426.7, -1094253.8, 9623.716, -0.00012033122, -0.00034541413, -1012296.6, 11257.014 
1.8757096e+3, 2.0554838e+2, -925332.75, -1020877.56, 9326.41, -0.0003427657, -0.00072594726, -924430.9, 1195.2699 
1.8756923e+3, 2.1554011e+2, -824550.06, -921523.6, 8863.101, -0.0009993, 0.0012361212, -823746.6, 3960.4666 
1.8756746e+3, 2.2553116e+2, -734967.06, -843352.94, 7101.2197, -0.0016070566, 0.0035974171, -734503.75, -4708.911 
1.8756567e+3, 2.3552148e+2, -636709.6, -745344.25, 7214.497, -0.002288394, 0.004829156, -636232.56, -4343.0474 
1.8756388e+3, 2.4551097e+2, -549135.6, -669736.7, 5354.7534, -0.002024671, -0.00014414765, -548898.3, -14905.696 
1.8756206e+3, 2.5549963e+2, -450553.5, -571322.56, 4839.268, -0.0015571736, -0.011304556, -450359.9, -14256.082 
1.875602e+3, 2.6548797e+2, -361922.28, -490922.1, 2453.9558, -0.002616493, 0.0053646793, -361875.63, -23657.742 
1.8755832e+3, 2.7547598e+2, -266320.16, -394030.72, 2483.002, -0.003919283, 0.04165283, -266271.9, -25936.291 
1.8755645e+3, 2.854625e+2, -178639.61, -314721.38, 1824.276, -0.0024427879, -0.005081129, -178615.16, -36147.492 
1.8755455e+3, 2.954478e+2, -81705.77, -216778.03, 1086.1228, 0.000010467694, -0.11745091, -81697.05, -37085.098 
1.8755256e+3, 3.0543888e+2, -3817.3381, -108132.93, -4381.207, -0.0061554476, 0.14594766, -3633.6528, -3633.6528 
1.8755046e+3, 3.1542742e+2, 16501.326, -69356.375, 60.85144, -0.0024732002, -0.04688842, 16501.37, 16501.37 
1.885855e+3, 1.2560414e+2, -1687835.5, -1721056.9, 1921.1833, 0.0018763489, -0.0011272018, -1687724.8, 21354.826 
1.8858363e+3, 1.3560246e+2, -1587318.3, -1621748.0, 3112.4185, 0.00019145072, 0.0042584906, -1587039.1, 24056.996 
1.8858181e+3, 1.456e+2, -1496621.4, -1543853.6, 6854.122, 0.00045283584, 0.00480249, -1495646.9, 17473.22 
1.8858004e+3, 1.5559678e+2, -1395425.6, -1444471.0, 6591.537, 0.0012458479, -0.0006409092, -1394555.3, 20596.578 
1.8857828e+3, 1.6559272e+2, -1306351.4, -1369973.4, 8812.15, 0.00070438965, -0.0004817236, -1305153.4, 12038.246 
1.8857655e+3, 1.7558783e+2, -1204872.5, -1270312.3, 9575.232, -0.000704877, 0.0031570757, -1203500.3, 15739.198 
1.8857484e+3, 1.8558213e+2, -1114279.5, -1193592.8, 10437.533, -0.00078964536, 0.0038130332, -1112929.0, 8366.29 
1.8857312e+3, 1.9557561e+2, -1012483.8, -1093891.1, 9960.318, -0.00012920045, 0.0004912187, -1011282.9, 12076.305 
1.885714e+3, 2.0556822e+2, -923647.44, -1019722.8, 9696.14, -0.00048080314, 0.00030873858, -922678.6, 2752.935 
1.8856968e+3, 2.1556e+2, -823282.4, -920590.8, 10243.172, -0.0012684743, 0.0014267857, -822215.8, 5296.4395 
1.8856794e+3, 2.25551e+2, -733379.6, -843591.7, 8357.486, -0.0016969917, 0.0031371412, -732749.44, -3149.0276 
1.8856616e+3, 2.3554124e+2, -632485.44, -744279.44, 7727.6553, -0.0020350914, 0.0039310446, -631953.8, -257.7566 
1.8856438e+3, 2.4553066e+2, -544463.75, -668021.0, 5394.642, -0.001848, 0.0008006277, -544228.7, -10429.06 
1.8856254e+3, 2.5551933e+2, -447646.34, -570511.8, 5503.4517, -0.001432575, -0.00664963, -447400.3, -11489.375 
1.8856068e+3, 2.6550755e+2, -359150.88, -490633.16, 2688.1433, -0.0024358693, 0.004465735, -359095.94, -21069.63 
1.8855879e+3, 2.754953e+2, -262247.3, -393069.28, 2017.1881, -0.0041601006, 0.027586836, -262216.22, -22069.963 
1.8855688e+3, 2.8548193e+2, -176002.34, -313825.1, 859.8935, -0.0031960877, -0.0028075143, -175996.97, -33719.664 
1.8855499e+3, 2.954676e+2, -82753.63, -217308.2, 591.3037, -0.0004340973, -0.073609576, -82751.03, -38333.152 
1.8855298e+3, 3.054581e+2, 279.91595, -98448.164, -4125.521, -0.005536213, 0.09381787, 452.0079, 452.0079 
1.885509e+3, 3.1544796e+2, 13999.048, -78710.37, -602.0624, -0.0018685256, -0.030809043, 14002.957, 14002.957 
1.8958576e+3, 1.2562342e+2, -1685343.5, -1716340.9, 2569.8076, 0.0011407268, 0.0053581996, -1685132.0, 23758.855 
1.8958391e+3, 1.3562192e+2, -1585188.3, -1617570.1, 3760.628, 0.00096548453, -0.0015451731, -1584757.3, 26148.143 
1.8958211e+3, 1.4561956e+2, -1497241.5, -1545072.5, 7693.5015, 0.0009220884, -0.00035217742, -1496034.5, 16894.031 
1.8958037e+3, 1.5561634e+2, -1395954.0, -1445363.1, 7524.258, -0.00019747914, 0.0049012317, -1394833.6, 20126.518 
1.8957862e+3, 1.6561237e+2, -1304815.8, -1366686.3, 9792.716, -0.00040286902, 0.0041834023, -1303302.8, 13696.251 
1.8957692e+3, 1.7560762e+2, -1203459.1, -1267299.4, 10503.977, 0.00041027862, -0.001925583, -1201775.3, 17270.152 
1.8957523e+3, 1.8560198e+2, -1115104.9, -1195157.5, 11382.079, 0.000070064256, -0.0007436786, -1113518.0, 7582.8745 
1.8957354e+3, 1.9559541e+2, -1013248.44, -1095264.6, 11022.099, -0.0011434883, 0.004376451, -1011793.0, 11372.142 
1.8957186e+3, 2.0558807e+2, -922626.3, -1017473.1, 10370.469, -0.001542002, 0.0043621357, -921505.6, 3731.4468 
1.8957014e+3, 2.1557994e+2, -822255.06, -918507.8, 10850.31, -0.0013640217, -0.00090472493, -821047.06, 6269.685 
1.8956842e+3, 2.255709e+2, -734621.6, -846158.7, 9121.833, -0.0014160896, 0.00010516944, -733880.5, -4475.3047 
1.8956666e+3, 2.3556101e+2, -633819.94, -746749.4, 8542.483, -0.0017994938, 0.004422377, -633177.4, -1675.1223 
1.8956487e+3, 2.4555041e+2, -544385.56, -667685.4, 5159.222, -0.0020038951, 0.0034327707, -544170.06, -10563.807 
1.8956304e+3, 2.555391e+2, -447454.34, -570263.56, 5204.2144, -0.00183083, -0.0025919895, -447234.22, -11517.076 
1.8956117e+3, 2.6552716e+2, -360368.88, -493208.63, 2345.842, -0.0023367193, 0.0019342562, -360327.47, -22493.465 
1.8955928e+3, 2.7551463e+2, -263601.84, -395617.56, 1625.8867, -0.0035412614, 0.0115189785, -263581.8, -23624.738 
1.8955734e+3, 2.8550133e+2, -175966.36, -313614.94, -597.30414, -0.0036509084, 0.0006561128, -175963.77, -33876.793 
1.8955539e+3, 2.9548752e+2, -82483.12, -216791.36, -720.7257, -0.002443044, -0.022197962, -82479.25, -38256.563 
1.895534e+3, 3.054771e+2, 3263.991, -92518.58, -2879.6008, -0.005654593, 0.033739224, 3350.485, 3350.485 
1.8955137e+3, 3.154682e+2, 11134.699, -85085.62, 2021.9917, -0.0020061084, -0.006865403, 11177.172, 11177.172 
1.9058602e+3, 1.2564254e+2, -1692378.6, -1718843.0, 2609.6672, 0.0013793437, 0.0048699495, -1692123.8, 16579.682 
1.9058418e+3, 1.3564114e+2, -1590515.9, -1619187.4, 2370.5168, 0.0015892738, -0.0006874971, -1590321.3, 20395.799 
1.905824e+3, 1.456389e+2, -1501322.9, -1545350.0, 6649.988, 0.0013320207, 0.0001838011, -1500340.4, 12398.628 
1.9058067e+3, 1.5563582e+2, -1399341.3, -1445390.5, 7898.813, -0.0004074689, 0.0044484697, -1398024.0, 16745.19 
1.9057897e+3, 1.6563195e+2, -1307790.8, -1367612.5, 10297.886, -0.00052401813, 0.0041514086, -1306067.8, 10739.531 
1.905773e+3, 1.7562725e+2, -1205342.3, -1267657.1, 9997.695, 0.00072494167, -0.0005676278, -1203777.5, 15075.645 
1.9057563e+3, 1.8562168e+2, -1115908.1, -1194113.8, 11213.154, 0.00044166637, 0.00007226795, -1114332.1, 6575.6367 
1.9057398e+3, 1.9561525e+2, -1013763.2, -1094131.5, 12316.242, -0.0011960043, 0.0035825886, -1011918.06, 11052.753 
1.905723e+3, 2.0560797e+2, -922562.75, -1017456.7, 11747.97, -0.0016478697, 0.004031662, -921130.0, 3912.1658 
1.9057062e+3, 2.1559985e+2, -819672.0, -917223.56, 11289.735, -0.0012028405, 0.00081713597, -818382.44, 8739.175 
1.9056891e+3, 2.2559085e+2, -731023.94, -843971.75, 9498.018, -0.0013096425, 0.0012399951, -730230.8, -1020.8955 
1.9056718e+3, 2.3558097e+2, -630980.8, -744993.06, 10240.799, -0.0017595645, 0.0026985337, -630068.25, 1238.6038 
1.9056539e+3, 2.4557032e+2, -541175.75, -667494.2, 6595.77, -0.0020425273, 0.0034813315, -540832.25, -7421.1406 
1.9056356e+3, 2.5555894e+2, -440940.6, -568404.06, 5731.6006, -0.0021980563, 0.0033461761, -440683.4, -5160.7217 
1.9056168e+3, 2.6554686e+2, -353877.22, -491073.28, 1923.8809, -0.0023071563, 0.0018072249, -353850.25, -16209.089 
1.9055976e+3, 2.7553403e+2, -260065.8, -394949.06, 1819.1974, -0.0019075149, -0.004178416, -260041.27, -20274.535 
1.9055781e+3, 2.8552088e+2, -173676.13, -313383.44, -1086.5427, -0.0024410577, 0.00349406, -173667.67, -31771.965 
1.9055583e+3, 2.955074e+2, -80520.08, -216585.28, -1768.6729, -0.0036647378, 0.026904704, -80497.09, -36469.395 
1.9055381e+3, 3.0549595e+2, 3795.7434, -91379.79, -3186.017, -0.00424223, -0.026257714, 3902.2766, 3902.2766 
1.9055182e+3, 3.1548792e+2, 6938.7993, -87320.05, 1722.4032, -0.0017441376, 0.013459435, 6970.262, 6970.262 
1.9158623e+3, 1.2566149e+2, -1692949.9, -1720042.4, 3653.9993, 0.0015895604, -0.00086371164, -1692465.8, 16051.8125 
1.9158442e+3, 1.3566013e+2, -1590902.0, -1619990.9, 3551.1003, 0.00089469715, 0.0049986057, -1590474.8, 20056.252 
1.9158266e+3, 1.4565802e+2, -1498980.3, -1540577.0, 7818.1177, 0.000607076, 0.005019627, -1497559.4, 14992.298 
1.9158097e+3, 1.5565516e+2, -1397195.0, -1441029.3, 8948.784, 0.0003901924, -0.00071640854, -1395438.5, 19141.1 
1.915793e+3, 1.656514e+2, -1308436.3, -1368801.8, 11471.834, 0.00022746559, 0.00041617663, -1306329.6, 10286.889 
1.9157764e+3, 1.7564672e+2, -1205902.0, -1268504.6, 11272.691, 0.00018133539, 0.005633323, -1203934.0, 14728.399 
1.9157602e+3, 1.8564127e+2, -1113846.3, -1189637.1, 12360.931, 0.00006994303, 0.005348355, -1111881.1, 8834.4795 
1.915744e+3, 1.9563507e+2, -1011806.3, -1089987.6, 13339.631, -0.00056826096, -0.00047327473, -1009592.9, 13183.616 
1.9157274e+3, 2.0562787e+2, -923481.25, -1019139.9, 12961.559, -0.00094307074, 0.0004911066, -921756.06, 3090.973 
1.9157109e+3, 2.1561974e+2, -820658.4, -918744.2, 12646.699, -0.0011444095, 0.005613234, -819054.06, 7872.8906 
1.915694e+3, 2.2561078e+2, -729833.3, -841126.7, 10099.386, -0.0015507517, 0.005645397, -728924.25, 90.32477 
1.9156769e+3, 2.3560101e+2, -629652.0, -742293.56, 10757.324, -0.0016207831, -0.000539127, -628633.9, 2476.368 
1.9156592e+3, 2.4559036e+2, -542769.56, -670802.6, 7140.55, -0.0022854982, 0.0017603608, -542372.56, -9157.944 
1.9156411e+3, 2.5557885e+2, -442705.94, -571645.3, 6313.396, -0.0031723282, 0.01044461, -442397.56, -7069.9463 
1.9156224e+3, 2.655666e+2, -354119.53, -491358.3, 834.3059, -0.0022237059, 0.0035130905, -354114.47, -16666.775 
1.9156028e+3, 2.7555358e+2, -260103.19, -395175.7, 680.48645, -0.000082428676, -0.018934352, -260099.75, -20524.756 
1.9155829e+3, 2.8554052e+2, -174773.25, -315763.88, -2622.8577, -0.0014079274, 0.0063576177, -174724.47, -33021.3 
1.9155626e+3, 2.9552734e+2, -81827.234, -219178.58, -3188.6675, -0.004336511, 0.07432962, -81753.25, -37920.8 
1.9155425e+3, 3.055146e+2, 2785.14, -93598.83, -3044.173, -0.0010456931, -0.08518128, 2881.191, 2881.191 
1.9155225e+3, 3.155072e+2, 10062.293, -80920.98, 3881.5007, -0.0033202046, 0.031201659, 10227.584, 10227.584 
1.925864e+3, 1.2568009e+2, -1700113.9, -1721437.0, 1577.1768, 0.0016669676, 0.000080000624, -1699997.8, 8337.5625 
1.9258465e+3, 1.356789e+2, -1596688.4, -1620793.3, 3093.2053, 0.00064592686, 0.0044976855, -1596297.8, 14049.276 
1.9258292e+3, 1.4567693e+2, -1504104.5, -1542156.8, 7254.232, 0.00015927522, 0.004571778, -1502768.5, 9597.956 
1.9258125e+3, 1.5567414e+2, -1401053.6, -1441907.6, 6955.6045, 0.0010909983, 0.00007043425, -1399901.9, 14491.696 
1.925796e+3, 1.6567051e+2, -1311147.0, -1367945.5, 9803.113, 0.000933597, 0.0008869434, -1309502.6, 6926.5293 
1.9257799e+3, 1.7566603e+2, -1208675.3, -1267726.1, 11302.778, -0.00029018405, 0.0048765335, -1206585.8, 11887.527 
1.925764e+3, 1.8566073e+2, -1116457.4, -1189776.4, 12636.705, -0.0007544521, 0.0047614872, -1114340.5, 6184.6533 
1.925748e+3, 1.9565462e+2, -1012851.94, -1089271.5, 12454.375, -0.001002768, 0.00006974675, -1010873.4, 11711.532 
1.9257317e+3, 2.0564759e+2, -923301.4, -1016728.2, 12575.041, -0.0009844109, 0.0007419459, -921638.4, 3015.54 
1.9257157e+3, 2.1563964e+2, -820706.7, -916523.0, 14251.464, -0.0010483973, 0.004923003, -818631.94, 8099.94 
1.9256993e+3, 2.2563082e+2, -728887.75, -840051.25, 12088.261, -0.0014231835, 0.0043522283, -727588.44, 1229.9462 
1.9256823e+3, 2.356211e+2, -624770.2, -739249.2, 11945.346, -0.0012864465, -0.0021877189, -623537.06, 7376.4404 
1.9256648e+3, 2.4561052e+2, -536581.94, -667372.75, 8161.751, -0.0022066662, 0.0021864162, -536074.6, -3057.4253 
1.9256467e+3, 2.5559908e+2, -437259.84, -568676.3, 9042.67, -0.0033406038, 0.0149454065, -436640.53, -1511.0968 
1.9256277e+3, 2.655867e+2, -348712.56, -490492.34, 2900.3008, -0.002493633, 0.0026312203, -348653.28, -11402.517 
1.9256082e+3, 2.755734e+2, -251703.58, -392812.25, 1841.4065, -0.0009822141, -0.032724373, -251679.56, -12298.647 
1.925588e+3, 2.8556037e+2, -167762.39, -313282.56, -3189.9104, -0.0034464737, 0.0074141338, -167692.48, -26183.715 
1.9255671e+3, 2.9554746e+2, -81452.664, -220405.0, -2998.3252, -0.0071077775, 0.112535976, -81388.0, -37752.742 
1.9255468e+3, 3.055334e+2, -6136.1724, -107365.0, -2677.7283, 0.0021401881, -0.13019149, -6065.3896, -6065.3896 
1.9255267e+3, 3.1552586e+2, 10855.233, -70949.49, 2145.9797, -0.0044048848, 0.05096241, 10911.49, 10911.49 
1.9358657e+3, 1.256983e+2, -1697160.6, -1715575.1, 3016.534, 0.0012793049, 0.0061641396, -1696679.1, 11477.94 
1.9358484e+3, 1.356974e+2, -1594037.5, -1615516.4, 4467.609, 0.001322037, -0.0008071759, -1593145.3, 17020.684 
1.9358316e+3, 1.4569552e+2, -1504726.1, -1543391.1, 8626.527, 0.0002177105, -0.00017400784, -1502888.8, 9295.405 
1.9358152e+3, 1.5569277e+2, -1401587.4, -1442770.9, 8470.77, 0.001090331, 0.0049111205, -1399913.1, 14298.119 
1.9357991e+3, 1.656893e+2, -1308376.6, -1362104.9, 11098.113, 0.0008310763, 0.0044755717, -1306174.5, 10070.718 
1.9357832e+3, 1.7568512e+2, -1206045.4, -1262296.0, 12410.505, -0.0010393142, -0.0011437883, -1203429.0, 14857.128 
1.9357674e+3, 1.8567997e+2, -1116833.1, -1190348.3, 14054.133, -0.001976799, -0.00051718723, -1114238.0, 6098.43 
1.9357519e+3, 1.9567391e+2, -1013219.0, -1089451.1, 14014.693, -0.0023775431, 0.0036358815, -1010724.1, 11671.726 
1.9357362e+3, 2.0566712e+2, -920451.4, -1010292.4, 13848.008, -0.0020160342, 0.003879468, -918365.3, 6097.221 
1.9357204e+3, 2.1565954e+2, -817855.2, -910411.8, 15408.74, -0.0011380865, 0.00031826217, -815357.4, 11179.282 
1.9357042e+3, 2.2565089e+2, -729323.06, -840633.8, 13625.892, -0.001143253, -0.0012103178, -727679.3, 942.11816 
1.9356878e+3, 2.3564121e+2, -625420.06, -739719.75, 13625.43, -0.0011843626, -0.0030708741, -623818.25, 6898.301 
1.9356705e+3, 2.4563077e+2, -535263.25, -663937.9, 8580.459, -0.0018734441, 0.0038934918, -534693.6, -1874.8317 
1.9356526e+3, 2.556196e+2, -435657.2, -565313.7, 9396.836, -0.0032064414, 0.017620316, -434979.7, -51.323708 
1.9356337e+3, 2.6560712e+2, -350422.06, -494265.5, 2606.496, -0.004244718, -0.000036333415, -350374.84, -13324.396 
1.9356139e+3, 2.755935e+2, -253391.69, -396585.9, 1544.8378, -0.004281842, -0.04600833, -253375.02, -14190.767 
1.9355932e+3, 2.8558043e+2, -167401.66, -313058.16, -6333.9985, -0.007342819, 0.007122375, -167126.73, -25814.604 
1.9355714e+3, 2.9556784e+2, -81575.31, -221136.48, -6086.8604, -0.0122250235, 0.14325243, -81310.34, -37874.77 
1.9355507e+3, 3.0555236e+2, -16062.314, -128021.164, -3053.5906, 0.00427514, -0.16427287, -15979.093, -15979.093 
1.9355308e+3, 3.155439e+2, 19315.127, -52383.707, 4321.1123, -0.0060418095, 0.06183837, 19574.61, 19574.61 
1.9458671e+3, 1.257161e+2, -1703690.6, -1717631.9, 1881.7893, 0.0014973289, 0.005914589, -1703441.1, 4541.3687 
1.9458501e+3, 1.3571532e+2, -1599349.8, -1616933.8, 1441.5349, 0.0018540671, 0.0010156853, -1599232.4, 10757.795 
1.9458336e+3, 1.4571361e+2, -1509144.6, -1543440.9, 5434.726, 0.00045415084, 0.0013744964, -1508304.1, 3702.7888 
1.9458176e+3, 1.5571102e+2, -1406504.4, -1443113.3, 6890.505, 0.00047736554, 0.0049349763, -1405250.5, 8781.774 
1.9458018e+3, 1.6570772e+2, -1313291.3, -1362949.5, 9511.156, 0.00057990674, 0.0046882546, -1311531.9, 4532.7285 
1.9457863e+3, 1.7570369e+2, -1209742.5, -1262447.1, 9365.095, -0.0001813288, 0.0008188111, -1208127.9, 9976.283 
1.945771e+3, 1.8569878e+2, -1119303.4, -1188257.6, 11515.229, -0.000375775, 0.0013984718, -1117431.3, 2721.1245 
1.9457558e+3, 1.9569299e+2, -1016331.8, -1087714.8, 13462.051, -0.00026287956, 0.0045383684, -1013877.4, 8331.584 
1.9457404e+3, 2.0568646e+2, -923150.4, -1008926.2, 13693.631, -0.0009316664, 0.0054819626, -921017.3, 3255.656 
1.945725e+3, 2.1567915e+2, -818655.0, -908013.25, 14133.314, -0.0017184161, 0.003579397, -816472.9, 9871.707 
1.9457093e+3, 2.256708e+2, -729206.25, -836465.94, 13136.434, -0.002062765, 0.0015918462, -727620.8, 805.5836 
1.945693e+3, 2.3566146e+2, -626347.8, -736078.25, 15720.942, -0.001772237, -0.0014927669, -624139.94, 6378.071 
1.9456762e+3, 2.4565133e+2, -534452.44, -660741.3, 11884.969, -0.0020694945, 0.005234215, -533343.7, -726.4642 
1.9456586e+3, 2.5564042e+2, -429021.63, -559345.0, 12970.132, -0.003315862, 0.019581407, -427743.34, 6980.994 
1.9456398e+3, 2.6562804e+2, -341472.1, -489516.38, 6047.7817, -0.0021194501, -0.00019836232, -341225.44, -4380.184 
1.9456202e+3, 2.756144e+2, -243102.52, -391274.94, 6961.819, 0.0022895185, -0.050101258, -242776.14, -3796.9595 
1.9455989e+3, 2.8560135e+2, -158738.7, -310795.44, -3399.0864, -0.0034577188, 0.012022209, -158662.77, -17555.797 
1.9455762e+3, 2.9558876e+2, -74126.28, -220320.98, -4056.5933, -0.017258082, 0.16723882, -74013.805, -30783.576 
1.9455549e+3, 3.0557176e+2, -27639.174, -151070.7, -1931.8188, 0.014103648, -0.19966057, -27608.947, -27608.947 
1.9455339e+3, 3.155623e+2, 12879.981, -33550.29, 5314.5356, -0.006525577, 0.07207141, 13480.53, 13480.53 
1.9558682e+3, 1.2573351e+2, -1704526.9, -1719338.6, 3537.6711, 0.0005584405, 0.0009370331, -1703725.3, 4086.7134 
1.9558516e+3, 1.3573273e+2, -1600020.1, -1618251.9, 3286.918, 0.0010741446, 0.008203492, -1599445.6, 10374.054 
1.9558355e+3, 1.4573117e+2, -1506373.5, -1537787.9, 6755.8853, 0.00012026505, 0.00783247, -1504982.3, 6852.767 
1.9558199e+3, 1.5572886e+2, -1403818.6, -1437833.0, 8082.971, -0.0003893709, 0.001656939, -1401995.6, 11861.829 
1.9558044e+3, 1.6572571e+2, -1313464.0, -1363384.6, 10976.671, 0.00025420322, 0.0025180816, -1311157.0, 4731.321 
1.9557893e+3, 1.7572173e+2, -1209914.9, -1262478.8, 10984.226, 0.0016664421, 0.008269626, -1207711.9, 10215.509 
1.9557743e+3, 1.857171e+2, -1115757.8, -1180531.3, 12908.239, 0.0026036112, 0.008704812, -1113280.1, 6692.573 
1.9557595e+3, 1.9571179e+2, -1012961.06, -1080491.8, 14668.608, 0.003737167, 0.0038367293, -1009912.44, 12112.259 
1.9557445e+3, 2.0570557e+2, -922600.75, -1007357.4, 15310.978, 0.0018345711, 0.005984411, -919919.7, 4166.0947 
1.9557294e+3, 2.1569845e+2, -818167.6, -906085.6, 15898.719, -0.0024524915, 0.0128996065, -815380.94, 10774.611 
1.955714e+3, 2.2569056e+2, -724806.56, -826589.2, 14452.91, -0.003911685, 0.011748603, -722794.1, 5438.858 
1.9556983e+3, 2.3568186e+2, -621726.4, -726291.3, 16944.025, -0.0031943535, 0.0036601163, -619049.25, 11268.936 
1.9556817e+3, 2.4567218e+2, -532555.25, -656493.06, 13724.873, -0.0034254093, 0.008011381, -531053.56, 1359.4014 
1.9556646e+3, 2.5566155e+2, -427601.75, -555357.8, 14926.015, -0.0035210794, 0.02172444, -425881.06, 8636.192 
1.9556464e+3, 2.656495e+2, -339829.97, -485306.53, 6123.9185, 0.0040154187, 0.0025473633, -339572.63, -2937.4063 
1.9556268e+3, 2.7563617e+2, -241065.11, -386907.97, 6921.8193, 0.016358837, -0.04578385, -240737.33, -1971.3812 
1.955605e+3, 2.8562316e+2, -160470.95, -314991.2, -6566.0205, 0.0052819336, 0.02206764, -160192.45, -19299.207 
1.9555812e+3, 2.9561037e+2, -76142.92, -225806.55, -6818.251, -0.02273494, 0.18693781, -75832.945, -32814.46 
1.9555591e+3, 3.0559176e+2, -38929.793, -175232.4, -6996.413, 0.029716952, -0.23428123, -38571.61, -38571.61 
1.9555365e+3, 3.1558117e+2, 30362.037, 4058.8938, -830.2891, -0.013959085, 0.08246019, 30388.22, 30388.22 
1.965869e+3, 1.2575024e+2, -1708915.1, -1719978.8, 48.561913, 0.0013712408, -0.000063043386, -1708914.9, -1266.9078 
1.965853e+3, 1.3574958e+2, -1604529.6, -1619003.8, 1182.7838, 0.0018274984, 0.0053085093, -1604433.6, 5220.882 
1.9658373e+3, 1.4574814e+2, -1510968.8, -1538974.9, 4099.8706, 0.00056661846, 0.0050309775, -1510380.9, 1287.7708 
1.965822e+3, 1.5574594e+2, -1407142.8, -1438344.1, 3674.357, 0.00030081044, 0.00066552113, -1406715.9, 6974.1763 
1.965807e+3, 1.6574293e+2, -1316258.5, -1362573.1, 6330.012, -0.000080229416, 0.0014091518, -1315409.0, 310.57642 
1.9657922e+3, 1.7573915e+2, -1214276.3, -1262418.5, 7560.312, -0.00046890898, 0.005315403, -1213116.9, 4639.954 
1.9657773e+3, 1.8573472e+2, -1120392.1, -1180163.8, 9234.07, -0.0012718621, 0.0049339216, -1118998.1, 802.07446 
1.9657628e+3, 1.9572963e+2, -1017159.6, -1079812.9, 9302.489, -0.0014045938, 0.00007437839, -1015807.6, 6042.3135 
1.9657482e+3, 2.0572375e+2, -925823.1, -1003330.06, 10561.022, -0.0014488369, 0.0006663188, -924409.9, -502.3437 
1.9657336e+3, 2.1571712e+2, -823075.1, -902899.7, 13447.109, -0.0019730183, 0.0054897475, -820870.75, 5101.8774 
1.9657186e+3, 2.2570975e+2, -729329.0, -822150.1, 12881.795, -0.0015858394, 0.0033922442, -727574.44, 470.394 
1.9657032e+3, 2.3570164e+2, -625481.75, -721435.06, 15111.825, -0.000350101, -0.0050498056, -623158.06, 6966.274 
1.9656871e+3, 2.456927e+2, -535820.25, -649138.06, 13612.967, -0.0025316288, 0.0037011204, -534207.9, -1996.0343 
1.9656704e+3, 2.5568295e+2, -433052.3, -548992.56, 18403.508, -0.006087381, 0.025464607, -430201.2, 4106.386 
1.9656524e+3, 2.6567164e+2, -341262.6, -477337.3, 13285.677, -0.001900193, 0.00051316246, -339977.56, -3559.191 
1.9656332e+3, 2.756589e+2, -231776.6, -373910.84, 17465.283, 0.0067707617, -0.064219505, -229661.95, 8881.173 
1.9656113e+3, 2.8564653e+2, -147040.13, -305417.34, 3167.017, -0.0063234805, 0.012948001, -146976.83, -6312.3413 
1.9655868e+3, 2.9563427e+2, -61331.137, -217346.23, 6365.07, -0.03395311, 0.20670454, -61071.887, -18287.584 
1.9655633e+3, 3.0561432e+2, -52651.758, -204862.83, 839.87366, 0.032814648, -0.24367161, -52647.125, -52647.125 
1.9655383e+3, 3.15602e+2, 23922.326, 26927.785, 4183.673, -0.01678553, 0.09003777, 29870.426, 29870.426 
1.9758698e+3, 1.257663e+2, -1706669.9, -1715358.6, 1832.1996, 0.0035264513, 0.0016927744, -1706299.4, 1191.251 
1.9758542e+3, 1.3576584e+2, -1602430.3, -1614760.8, 2711.775, 0.0041755023, -0.005198276, -1601860.3, 7634.9155 
1.9758388e+3, 1.4576447e+2, -1511733.1, -1540626.8, 5661.395, 0.0014610529, -0.0047560413, -1510663.5, 845.07526 
1.975824e+3, 1.5576227e+2, -1407847.4, -1439654.9, 5448.191, 0.0014606909, 0.00052171573, -1406940.0, 6590.2217 
1.9758092e+3, 1.657594e+2, -1313904.4, -1357619.4, 7596.6826, -0.0011087838, 0.00054558285, -1312621.9, 2936.4631 
1.9757946e+3, 1.7575584e+2, -1212001.6, -1257813.0, 8788.312, -0.0059182276, -0.0054286504, -1210373.6, 7219.53 
1.9757801e+3, 1.8575156e+2, -1120303.4, -1179768.5, 10897.51, -0.010051159, -0.007863768, -1118369.3, 1265.9297 
1.975766e+3, 1.9574656e+2, -1017220.4, -1078996.3, 11120.413, -0.013220619, -0.007432497, -1015279.5, 6404.7144 
1.9757518e+3, 2.057411e+2, -920938.56, -992220.7, 12113.51, -0.009899248, -0.009679577, -918936.25, 4801.4297 
1.9757375e+3, 2.1573514e+2, -818160.9, -892152.8, 14702.737, -0.0015949848, -0.014816782, -815346.4, 10449.59 
1.9757229e+3, 2.2572838e+2, -725413.6, -813808.4, 14291.303, 0.0030740246, -0.020149974, -723160.5, 4701.722 
1.9757079e+3, 2.3572086e+2, -621417.0, -712840.8, 16562.637, 0.0051837573, -0.026947133, -618509.0, 11427.026 
1.9756922e+3, 2.4571295e+2, -526940.94, -630783.5, 14696.107, -0.0005296771, -0.008811616, -524901.2, 7112.345 
1.9756757e+3, 2.5570458e+2, -423901.06, -530352.0, 19453.088, -0.012554551, 0.028567027, -420457.56, 13637.784 
1.9756582e+3, 2.6569444e+2, -332377.16, -459264.8, 15918.446, -0.019886887, -0.0074111638, -330410.63, 5784.268 
1.9756396e+3, 2.7568263e+2, -223396.1, -356628.56, 20219.145, -0.022742962, -0.103248596, -220395.27, 17915.408 
1.9756179e+3, 2.8567132e+2, -141231.56, -294174.63, 255.09134, -0.034682054, -0.0129229175, -141231.14, -809.78265 
1.9755928e+3, 2.9566026e+2, -56447.633, -208991.97, 2825.5193, -0.05098561, 0.22395629, -56395.313, -13865.585 
1.9755672e+3, 3.0563924e+2, -69010.23, -238264.2, -10907.314, 0.024132531, -0.23432826, -68310.22, -68310.22 
1.9755392e+3, 3.1562468e+2, 36187.508, 58224.227, -7134.7686, -0.009058259, 0.08748678, 60332.527, 60332.527 
1.9858705e+3, 1.2578218e+2, -1709105.3, -1716367.9, 866.53314, -0.0012369351, 0.013426045, -1709003.3, -1668.0732 
1.9858554e+3, 1.3578172e+2, -1604465.1, -1615484.4, -67.27325, -0.0012859232, 0.00736665, -1604464.6, 4874.8804 
1.9858405e+3, 1.457804e+2, -1512662.6, -1540289.9, 2321.28, -0.0032716384, 0.00797222, -1512469.0, -1116.5316 
1.9858257e+3, 1.5577827e+2, -1408806.4, -1439361.8, 2968.4753, 0.0006344631, 0.013126019, -1408520.6, 4852.761 
1.9858116e+3, 1.6577551e+2, -1313982.8, -1356394.0, 4439.087, 0.0041925525, 0.014963243, -1313523.0, 1877.3958 
1.9857974e+3, 1.7577212e+2, -1210511.6, -1255796.1, 4106.9175, 0.0067158015, 0.012230632, -1210142.3, 7291.555 
1.9857831e+3, 1.8576804e+2, -1120014.3, -1176928.6, 5501.678, 0.010553163, 0.013407348, -1119487.4, -13.674958 
1.9857693e+3, 1.9576332e+2, -1022010.06, -1078714.8, 6793.7393, 0.015481692, 0.018235344, -1021207.44, 312.5034 
1.9857551e+3, 2.057582e+2, -928073.1, -992610.0, 7211.4277, 0.009509038, 0.024073163, -927277.1, -3706.983 
1.9857411e+3, 2.1575262e+2, -826104.8, -892858.75, 6989.66, -0.0040087197, 0.029208861, -825380.8, 243.93976 
1.9857267e+3, 2.2574638e+2, -730423.3, -809037.2, 6000.867, -0.0090037435, 0.030030534, -729967.9, -2282.0625 
1.9857122e+3, 2.3573953e+2, -625043.94, -707309.7, 8541.941, -0.0073723537, 0.026400967, -624166.4, 5586.6924 
1.9856967e+3, 2.4573235e+2, -528594.94, -618163.7, 5985.1196, -0.003150054, 0.024667636, -528196.75, 3626.6692 
1.9856806e+3, 2.5572482e+2, -429564.78, -519545.72, 10874.203, 0.0023723792, 0.024912542, -428269.28, 5627.8657 
1.9856639e+3, 2.6571655e+2, -335625.03, -436392.44, 12178.134, 0.01912588, 0.007602865, -334174.16, 1803.9856 
1.9856462e+3, 2.7570754e+2, -232034.75, -336294.6, 23716.754, 0.045692302, -0.025388915, -226893.28, 11173.056 
1.9856247e+3, 2.8569835e+2, -138543.89, -267731.8, 12492.899, 0.032398228, 0.053326733, -137346.88, 2809.4636 
1.9855998e+3, 2.9568884e+2, -26278.861, -169565.31, 25790.76, -0.012679813, 0.21899302, -21778.045, 20471.707 
1.9855715e+3, 3.056671e+2, -80353.04, -266440.8, -790.7337, 0.05032797, -0.31837505, -80349.68, -80349.68 
1.9855382e+3, 3.1565183e+2, 22874.021, 99083.78, 1488.1759, -0.025170563, 0.11391144, 99112.83, 99112.83 
1.995871e+3, 1.2579738e+2, -1710160.3, -1719174.8, -52.011242, 0.0026487387, 0.00023213496, -1710159.9, -2973.6638 
1.9958565e+3, 1.3579683e+2, -1606282.1, -1618611.1, -1371.9333, 0.005716619, 0.005504624, -1606131.3, 3060.3215 
1.9958419e+3, 1.4579548e+2, -1513458.8, -1538773.0, 331.27725, -0.00055618194, 0.0049048667, -1513454.4, -2249.7292 
1.9958277e+3, 1.5579343e+2, -1412123.6, -1439378.5, 829.60913, -0.0018136585, -0.00044251222, -1412098.4, 1126.486 
1.9958137e+3, 1.6579066e+2, -1320955.6, -1360565.4, 2194.7053, -0.0016042391, -0.00023540994, -1320834.4, -5582.528 
1.9957998e+3, 1.7578726e+2, -1219393.5, -1260683.0, 1821.7776, -0.0019711303, 0.003815273, -1219313.4, -2027.9602 
1.9957858e+3, 1.8578334e+2, -1122176.5, -1174036.5, 1484.431, -0.004446257, 0.0032494634, -1122134.0, -2810.1921 
1.9957718e+3, 1.9577888e+2, -1016485.06, -1072575.3, 2057.5525, -0.005082698, -0.0016122074, -1016409.7, 4957.87 
1.995758e+3, 2.0577377e+2, -921392.56, -990153.1, 2989.3386, -0.0031008685, -0.0026648438, -921262.8, 2154.5627 
1.9957443e+3, 2.1576811e+2, -818350.75, -889454.3, 2582.7666, -0.0027312278, -0.0012153765, -818257.06, 7215.9507 
1.9957304e+3, 2.2576219e+2, -723846.1, -797708.8, 4062.3755, -0.00096687797, -0.004818927, -723623.4, 3907.5051 
1.9957162e+3, 2.3575602e+2, -630371.4, -701836.25, 9945.324, 0.001615649, -0.013353989, -629013.2, 578.2334 
1.9957012e+3, 2.4574995e+2, -535323.2, -607688.5, 7822.4688, -0.003590299, -0.0004786056, -534487.25, -2836.3748 
1.995685e+3, 2.5574383e+2, -436747.28, -509431.06, 13363.256, -0.010821313, 0.019909028, -434368.25, -657.48334 
1.9956683e+3, 2.6573762e+2, -335188.63, -402419.13, 7670.443, -0.006363086, -0.004277406, -334324.6, 1447.1692 
1.9956508e+3, 2.7573147e+2, -239202.69, -304719.78, 5386.0684, 0.011104717, -0.05304954, -238762.86, -930.94507 
1.9956298e+3, 2.8572634e+2, -124942.99, -209306.75, 44452.99, -0.047634576, 0.038370423, -105843.72, 34038.355 
